# vtk DataFile Version 2.0
Wound Healing Simulation
ASCII
DATASET UNSTRUCTURED_GRID
POINTS 3012 float
69.9759 18.75 4
67.2507 60.3285 4
69.976 18.75 2
73.0099 25.446 4
71.1327 20.9142 4
68.6801 16.6661 4
67.8275 19.9252 3.98708
67.2507 60.3286 2
71.1327 54.0858 4
68.6801 58.3339 4
65.6939 62.2254 4
65.314 59.0036 3.9881
74.6784 42.3946 4
73.7221 47.2057 4
69.9759 18.75 0
73.0099 25.446 2
68.6801 16.6661 2
71.1327 20.9142 2
67.8281 19.9269 2
74.6792 32.6053 4
73.7222 27.7943 4
72.1454 23.1494 4
70.6155 26.2224 3.9857
68.8877 21.9585 3.98669
67.2507 14.6715 4
66.6391 17.9698 3.98769
65.8026 21.0224 3.9814
67.2507 60.3285 0
71.1327 54.0858 2
68.6801 58.3339 2
65.694 62.2255 2
65.3146 59.0028 2
72.1454 51.8506 4
69.9759 56.25 4
68.8383 53.1128 3.98626
64.0165 64.0165 4
66.6126 57.1356 3.98778
63.8873 60.7685 3.98952
63.5049 57.7778 3.98324
60.3285 67.2507 4
74.6792 42.3947 2
73.7222 47.2057 2
74.9194 39.9526 4
74.2788 44.8158 4
72.1689 42.0856 3.98389
73.0099 49.554 4
71.2506 46.5975 3.98534
73.0099 25.446 0
71.1327 20.9142 0
68.6801 16.6661 0
67.8275 19.9252 0.0129229
74.6792 32.6053 2
73.7222 27.7943 2
67.2508 14.6715 2
72.1455 23.1494 2
70.6156 26.2231 2
66.6397 17.9708 2
68.8879 21.9602 2
65.8026 21.0218 2
74.9197 35.0474 4
74.2794 30.1841 4
72.1856 32.9434 3.98451
71.2794 28.4322 3.98561
69.8173 24.061 3.98624
68.3502 26.952 3.97735
66.7674 22.9322 3.97986
65.694 12.7746 4
65.3255 16.1006 3.98876
64.7193 19.1896 3.98283
63.8951 22.03 3.97807
71.1327 54.0858 0
65.6939 62.2254 0
68.6801 58.3339 0
65.314 59.0036 0.0119015
72.1455 51.8506 2
69.9759 56.25 2
68.8386 53.111 2
64.0165 64.0165 2
66.6133 57.1342 2
63.8878 60.7681 2
63.5051 57.7786 2
62.2254 65.694 4
58.8949 65.4157 3.99263
69.7707 50.9879 3.98586
67.7858 55.1682 3.98716
66.6543 52.2107 3.97934
62.3374 62.4296 3.99108
64.6662 56.0364 3.98307
62.2062 59.4113 3.98384
61.83 56.6905 3.98055
58.3339 68.6801 4
60.3285 67.2508 2
73.7221 47.2057 0
74.6784 42.3946 0
74.9197 39.9526 2
74.2794 44.8159 2
72.1688 42.0857 2
73.0099 49.554 2
71.2506 46.5973 2
75 37.5 4
72.4059 39.8022 3.98328
71.7836 44.3527 3.98482
69.8062 41.7899 3.97584
70.5766 48.8126 3.98569
68.9157 46.0151 3.97698
74.6792 32.6053 0
73.7222 27.7943 0
67.2507 14.6715 0
72.1454 23.1494 0
70.6155 26.2224 0.0143018
68.8877 21.9585 0.0133102
66.6391 17.9698 0.0123108
65.8026 21.0224 0.0185953
74.9197 35.0474 2
74.2794 30.1841 2
72.1856 32.9434 2
71.2794 28.4324 2
65.694 12.7745 2
65.3261 16.1009 2
69.8174 24.0622 2
68.3501 26.9521 2
64.7196 19.1887 2
66.7672 22.932 2
63.8952 22.0293 2
72.4138 35.2242 3.98348
71.805 30.6766 3.98539
69.8425 33.2686 3.9765
68.9696 29.0386 3.97745
67.6153 24.9121 3.97838
66.199 27.6341 3.97415
64.0165 10.9835 4
64.7634 23.8271 3.97642
63.8915 14.3243 3.98992
63.518 17.4397 3.98432
62.9153 20.3124 3.97937
62.1024 22.936 3.97623
60.6848 11.0955 3.99168
57.6133 11.4407 3.98666
72.1454 51.8506 0
69.9759 56.25 0
68.8383 53.1128 0.0137444
64.0165 64.0165 0
63.8873 60.7685 0.0104787
66.6126 57.1356 0.0122193
63.5049 57.7778 0.0167645
62.2255 65.694 2
58.8952 65.4158 2
69.7708 50.9866 2
67.7864 55.1664 2
66.6541 52.2108 2
62.3378 62.4294 2
64.6664 56.0372 2
62.2063 59.412 2
61.8302 56.6914 2
60.6696 63.9787 3.99193
57.0255 66.7365 3.99319
57.5589 63.6966 3.98729
67.5116 50.1774 3.978
65.7075 54.1765 3.9815
64.5444 51.389 3.97554
60.7753 60.9444 3.98491
62.8284 55.0759 3.9805
60.6636 58.1693 3.98069
60.3364 55.7972 3.97943
56.25 69.9759 4
58.3339 68.6801 2
60.3285 67.2507 0
58.9219 9.65385 3.99232
62.2254 9.30607 4
73.0099 49.554 0
74.2788 44.8158 0
71.2506 46.5975 0.0146563
72.1689 42.0856 0.0161072
74.9194 39.9526 0
75 37.5 2
72.4058 39.8024 2
71.7836 44.3527 2
69.8062 41.7898 2
70.5767 48.8119 2
68.9156 46.0148 2
72.4892 37.5121 3.98326
70.0425 39.6576 3.97471
69.4333 43.9077 3.97676
67.6004 41.4987 3.97243
68.2697 48.1075 3.97739
66.7146 45.4416 3.97384
74.9197 35.0474 0
74.2794 30.1841 0
72.1856 32.9434 0.0154908
71.2794 28.4322 0.0143935
65.694 12.7746 0
65.3255 16.1006 0.011236
69.8173 24.061 0.0137646
68.3502 26.952 0.0226543
66.7674 22.9322 0.0201435
64.7193 19.1896 0.0171696
63.8951 22.03 0.0219297
72.4137 35.2241 2
71.8051 30.6766 2
69.8425 33.2688 2
68.9696 29.0387 2
64.0165 10.9835 2
63.8919 14.3245 2
63.5183 17.4388 2
67.6151 24.9121 2
66.1989 27.6339 2
62.9157 20.3115 2
64.7633 23.8267 2
62.1026 22.9354 2
60.6852 11.0957 2
57.6134 11.44 2
70.0594 35.3923 3.9752
69.4704 31.1497 3.97736
67.6591 33.5907 3.97313
66.777 29.622 3.97418
65.5294 25.698 3.97503
64.1513 28.2537 3.97316
62.3427 12.6525 3.99088
62.8647 24.6327 3.97473
62.2023 15.7771 3.98486
61.8211 18.6746 3.98112
61.2276 21.3318 3.9771
60.436 23.7186 3.97553
59.2475 12.7721 3.98516
55.8751 10.2274 3.98809
56.4065 13.1035 3.98344
69.7707 50.9879 0.0141441
62.2254 65.694 0
58.8949 65.4157 0.00737274
67.7858 55.1682 0.0128403
66.6543 52.2107 0.0206563
62.3374 62.4296 0.00891905
62.2062 59.4113 0.01616
64.6662 56.0364 0.0169252
61.83 56.6905 0.0194478
60.6699 63.9787 2
57.0257 66.7366 2
57.5588 63.6974 2
67.5115 50.1772 2
65.7076 54.177 2
64.5443 51.3895 2
60.7754 60.9453 2
62.8286 55.0769 2
60.6637 58.1702 2
60.3367 55.798 2
55.0709 67.9334 3.99346
59.2207 62.3718 3.98565
55.8053 64.9141 3.98891
56.3284 62.0975 3.98406
65.3374 49.4108 3.97448
63.7142 53.2983 3.97815
62.4493 50.6577 3.97356
59.3367 59.5664 3.98254
61.0869 54.3193 3.97947
59.2954 57.0243 3.97845
59.2513 55.1953 3.98052
48.1034 68.5816 3.99026
50.9486 69.933 3.9939
54.0858 71.1327 4
56.25 69.976 2
58.3339 68.6801 0
57.059 8.33377 3.99272
60.3285 7.74928 4
58.9222 9.65387 2
62.2255 9.30602 2
70.5766 48.8126 0.0143134
71.7836 44.3527 0.0151777
68.9157 46.0151 0.0230245
69.8062 41.7899 0.0241589
72.4059 39.8022 0.0167213
75 37.5 0
72.4892 37.5122 2
70.0425 39.6576 2
69.4334 43.9077 2
67.6003 41.4987 2
68.2696 48.1072 2
66.7145 45.4416 2
70.1307 37.5218 3.97492
67.8362 39.5131 3.97139
67.2279 43.4714 3.97352
65.5595 41.2119 3.97143
66.0739 47.42 3.97427
64.6579 44.8516 3.97284
72.4138 35.2242 0.0165235
71.805 30.6766 0.0146144
69.8425 33.2686 0.0235
68.9696 29.0386 0.0225514
64.0165 10.9835 0
63.8915 14.3243 0.0100755
63.518 17.4397 0.0156819
67.6153 24.9121 0.02162
66.199 27.6341 0.025855
64.7634 23.8271 0.0235789
62.9153 20.3124 0.0206265
62.1024 22.936 0.0237685
60.6848 11.0955 0.00832249
57.6133 11.4407 0.0133422
70.0595 35.3925 2
69.4705 31.1499 2
67.6592 33.5907 2
66.7771 29.6219 2
62.343 12.6528 2
62.2023 15.7766 2
61.8214 18.6736 2
65.5293 25.6977 2
64.1513 28.2535 2
61.228 21.331 2
62.8647 24.6323 2
60.4362 23.7181 2
59.2475 12.7715 2
56.4065 13.1026 2
55.8752 10.2267 2
67.8728 35.5478 3.97196
67.2701 31.6217 3.97408
65.7022 33.9265 3.97177
64.6687 30.1901 3.97307
63.5441 26.4115 3.97352
62.2628 28.7748 3.97366
60.7772 14.2165 3.98475
61.0531 25.3318 3.97386
60.6178 17.1173 3.98261
60.2313 19.8045 3.97902
59.6718 22.2471 3.97555
58.9887 24.3099 3.97633
54.0381 9.13094 3.98867
57.9121 14.3223 3.98312
54.7877 12.0027 3.98473
55.314 14.6342 3.98207
67.5116 50.1774 0.0219998
57.0255 66.7365 0.00680782
60.6696 63.9787 0.00807341
57.5589 63.6966 0.0127053
65.7075 54.1765 0.0184972
64.5444 51.389 0.0244627
60.7753 60.9444 0.0150887
60.6636 58.1693 0.0193078
62.8284 55.0759 0.0195007
60.3364 55.7972 0.0205719
55.0711 67.9335 2
59.2207 62.3728 2
55.8052 64.9148 2
56.3283 62.0984 2
65.3374 49.4111 2
63.7143 53.2991 2
62.4494 50.6582 2
59.3368 59.5675 2
61.0872 54.3201 2
59.2957 57.025 2
59.2517 55.196 2
53.0427 69.0012 3.99371
53.9675 66.0161 3.98954
57.8828 60.8783 3.98327
54.6848 63.214 3.9855
55.2132 60.6255 3.9824
63.2007 48.6655 3.97296
61.7511 52.5832 3.9765
60.2813 50.0271 3.97247
58.0224 58.2721 3.98005
59.3374 53.959 3.97864
58.1339 55.8248 3.97647
50.11 67.8596 3.99011
47.464 66.586 3.988
46.0571 69.1611 3.99046
48.1034 68.582 2
48.8027 70.7242 3.99404
50.9488 69.9331 2
51.8506 72.1454 4
54.0858 71.1327 2
56.25 69.9759 0
55.1032 7.13835 3.99294
58.3339 6.31992 4
57.0593 8.33369 2
60.3286 7.74926 2
58.9219 9.65385 0.00768267
62.2254 9.30607 0
68.2697 48.1075 0.0226062
69.4333 43.9077 0.02324
66.7146 45.4416 0.0261625
67.6004 41.4987 0.0275682
70.0425 39.6576 0.0252944
72.4892 37.5121 0.0167446
70.1307 37.5219 2
67.8362 39.5131 2
67.2279 43.4715 2
65.5595 41.212 2
66.0739 47.4201 2
64.6578 44.8517 2
67.9328 37.5226 3.97161
65.7897 39.3717 3.9706
65.1811 43.0282 3.97242
63.7598 40.9324 3.97141
63.9717 46.7205 3.97313
62.8135 44.221 3.9732
70.0594 35.3923 0.0247958
69.4704 31.1497 0.0226426
67.6591 33.5907 0.0268715
66.777 29.622 0.0258201
62.3427 12.6525 0.00911509
62.2023 15.7771 0.0151384
61.8211 18.6746 0.0188848
65.5294 25.698 0.0249715
64.1513 28.2537 0.0268445
62.8647 24.6327 0.0252697
61.2276 21.3318 0.0229009
60.436 23.7186 0.0244653
59.2475 12.7721 0.0148434
56.4065 13.1035 0.0165578
55.8751 10.2274 0.0119068
67.8728 35.5478 2
67.2703 31.6216 2
65.7023 33.9264 2
64.6687 30.1899 2
60.7772 14.216 2
60.6178 17.1165 2
60.2318 19.8035 2
63.5441 26.4112 2
62.2629 28.7747 2
59.6723 22.2465 2
61.0532 25.3315 2
58.989 24.3096 2
57.9119 14.3216 2
55.3139 14.6334 2
54.0381 9.13034 2
54.7877 12.0018 2
65.8792 35.6671 3.97084
65.192 32.1523 3.97277
64.2892 34.2494 3.97251
62.6016 30.633 3.97248
61.6574 27.0685 3.97258
60.8564 29.1359 3.97393
59.3135 15.6591 3.9831
59.339 25.7881 3.97609
59.1297 18.3433 3.98141
58.7494 20.841 3.97685
58.2954 23.0801 3.97426
57.9782 24.654 3.97681
52.1127 8.14961 3.98901
53.0585 11.0093 3.98565
56.6787 15.7308 3.98225
53.8105 13.6691 3.98311
54.3781 15.9854 3.98183
55.0709 67.9334 0.00653569
65.3374 49.4108 0.0255246
55.8053 64.9141 0.011091
59.2207 62.3718 0.0143499
56.3284 62.0975 0.0159392
63.7142 53.2983 0.0218463
62.4493 50.6577 0.0264366
59.3367 59.5664 0.0174554
59.2954 57.0243 0.0215514
61.0869 54.3193 0.0205296
59.2513 55.1953 0.019479
53.043 69.0013 2
53.9674 66.0167 2
57.8828 60.8792 2
54.6846 63.2148 2
55.2132 60.6266 2
63.2007 48.6658 2
61.7514 52.584 2
60.2814 50.0275 2
58.0227 58.2731 2
59.3379 53.9597 2
58.1342 55.8255 2
52.0711 67.0026 3.9899
52.9539 64.2241 3.98671
56.651 59.4988 3.98186
53.6822 61.6309 3.9836
54.2624 59.3318 3.98073
61.0006 47.887 3.97211
59.72 52.1154 3.976
58.0329 49.628 3.97374
56.7818 56.9995 3.97644
57.1296 54.1345 3.97673
50.1099 67.86 2
49.3377 65.9263 3.98786
47.4638 66.5866 2
46.8928 64.7434 3.9865
45.5591 67.1036 3.98786
43.974 69.5935 3.99047
46.0571 69.1616 2
46.6094 71.3687 3.9942
48.1034 68.5816 0.00974098
48.803 70.7244 2
49.554 73.0099 4
50.9486 69.933 0.00610434
51.8506 72.1455 2
54.0858 71.1327 0
53.0642 6.06992 3.99313
55.1035 7.13825 2
56.25 5.02411 4
58.3339 6.3199 2
57.059 8.33377 0.00728438
60.3285 7.74928 0
66.0739 47.42 0.025734
67.2279 43.4714 0.0264818
64.6579 44.8516 0.027155
65.5595 41.2119 0.0285744
67.8362 39.5131 0.0286093
70.1307 37.5218 0.0250802
67.9328 37.5226 2
65.7897 39.3718 2
65.1811 43.0284 2
63.7598 40.9325 2
63.9716 46.7206 2
62.8134 44.2211 2
65.8931 37.5027 3.97046
63.9019 39.2687 3.97072
63.3348 42.5541 3.97221
62.436 40.7009 3.9717
61.9746 45.9248 3.97319
61.4591 43.6888 3.974
67.8728 35.5478 0.0280371
67.2701 31.6217 0.0259217
65.7022 33.9265 0.0282256
64.6687 30.1901 0.0269321
60.7772 14.2165 0.0152504
60.6178 17.1173 0.0173884
60.2313 19.8045 0.0209781
63.5441 26.4115 0.0264774
62.2628 28.7748 0.0263444
61.0531 25.3318 0.0261448
59.6718 22.2471 0.0244506
58.9887 24.3099 0.0236654
57.9121 14.3223 0.0168848
55.314 14.6342 0.0179304
54.0381 9.13094 0.0113302
54.7877 12.0027 0.0152683
65.8792 35.667 2
65.1922 32.1521 2
64.2893 34.2493 2
62.6017 30.6329 2
59.3134 15.6583 2
59.13 18.3423 2
58.75 20.84 2
61.6574 27.0683 2
60.8565 29.1358 2
58.2958 23.0796 2
59.3391 25.788 2
57.9786 24.6538 2
56.6785 15.73 2
54.3779 15.9845 2
53.8105 13.6681 2
52.1127 8.1491 2
53.0584 11.0086 2
64.0943 35.6325 3.97082
62.9378 33.045 3.97208
60.6226 30.6083 3.97232
59.578 27.9039 3.97239
57.9429 16.9717 3.9823
57.7487 25.7162 3.9784
57.7216 19.4625 3.97985
57.3799 21.8269 3.97424
57.196 23.9354 3.97382
50.1127 7.28169 3.98927
51.2328 10.1179 3.98634
52.1726 12.7867 3.9843
55.5399 16.9593 3.98222
52.9788 15.2502 3.98145
53.7603 16.9668 3.98197
53.0427 69.0012 0.00628597
53.9675 66.0161 0.0104624
63.2007 48.6655 0.0270408
54.6848 63.214 0.0145031
57.8828 60.8783 0.0167327
55.2132 60.6255 0.0176006
61.7511 52.5832 0.0235022
60.2813 50.0271 0.0275267
58.0224 58.2721 0.0199508
58.1339 55.8248 0.0235301
59.3374 53.959 0.0213599
52.071 67.0031 2
52.9537 64.2249 2
56.6511 59.4998 2
53.6821 61.6319 2
54.2624 59.333 2
61.0007 47.8873 2
59.7204 52.1159 2
58.0331 49.6281 2
56.7822 57.0006 2
57.1302 54.1348 2
51.1685 65.1331 3.98745
52.0468 62.5462 3.9849
55.4839 58.2607 3.98099
52.836 60.1451 3.98189
53.6427 58.482 3.98011
58.3143 46.8581 3.97441
57.5698 51.7987 3.97556
56.2549 49.5635 3.98136
55.4774 55.8042 3.97603
55.365 53.3921 3.97068
50.11 67.8596 0.00989195
49.3375 65.9268 2
48.6186 64.1297 3.98607
47.464 66.586 0.0119953
45.5589 67.1041 2
46.8926 64.744 2
46.3822 63.0622 3.98533
45.1331 65.205 3.98661
43.6322 67.4745 3.988
41.8611 69.881 3.99039
43.974 69.594 2
44.3767 71.8635 3.99415
46.0571 69.1611 0.00953768
46.6096 71.3689 2
47.2057 73.7222 4
48.8027 70.7242 0.00596051
49.554 73.0099 2
51.8506 72.1454 0
50.9539 5.13033 3.99333
53.0645 6.06979 2
54.0858 3.86728 4
55.1032 7.13835 0.00705798
56.25 5.02406 2
58.3339 6.31992 0
63.9717 46.7205 0.0268729
65.1811 43.0282 0.0275834
62.8135 44.221 0.0267988
63.7598 40.9324 0.0285879
65.7897 39.3717 0.0293961
67.9328 37.5226 0.0283901
65.893 37.5027 2
63.9019 39.2687 2
63.3348 42.5543 2
62.4361 40.701 2
61.9745 45.9249 2
61.459 43.6889 2
63.9625 37.458 3.97061
62.1603 39.3571 3.97129
61.2264 41.9629 3.97275
60.2588 44.7773 3.97386
65.8792 35.6671 0.0291629
65.192 32.1523 0.0272315
64.2892 34.2494 0.0274935
62.6016 30.633 0.0275202
59.3135 15.6591 0.0168958
59.1297 18.3433 0.018592
58.7494 20.841 0.0231493
61.6574 27.0685 0.0274172
60.8564 29.1359 0.0260679
59.339 25.7881 0.0239133
58.2954 23.0801 0.0257366
57.9782 24.654 0.0231858
56.6787 15.7308 0.017747
54.3781 15.9854 0.0181684
53.8105 13.6691 0.0168853
52.1127 8.14961 0.0109869
53.0585 11.0093 0.0143483
64.0943 35.6325 2
62.938 33.0449 2
60.6227 30.6082 2
57.9428 16.9708 2
57.7221 19.4614 2
57.3806 21.826 2
59.578 27.9037 2
57.1965 23.9352 2
57.7489 25.716 2
50.1127 7.28128 2
55.5397 16.9584 2
53.7601 16.9658 2
52.9787 15.2492 2
52.1725 12.7859 2
51.2327 10.1174 2
62.1956 35.359 3.97115
60.3019 32.744 3.9725
58.6313 30.071 3.97252
57.2991 27.3717 3.97226
56.6399 18.1431 3.98218
56.3022 25.092 3.9738
56.364 20.5076 3.9769
56.1177 22.8564 3.97125
48.0563 6.52489 3.98956
49.3245 9.32609 3.98671
50.4333 11.9851 3.9846
51.3786 14.4859 3.98292
54.4176 17.9076 3.98229
52.3628 17.0221 3.98105
52.0711 67.0026 0.010102
52.9539 64.2241 0.0132915
61.0006 47.887 0.027893
53.6822 61.6309 0.0163953
56.651 59.4988 0.0181351
54.2624 59.3318 0.0192727
59.72 52.1154 0.0239962
58.0329 49.628 0.0262558
56.7818 56.9995 0.0235552
57.1296 54.1345 0.0232745
51.1682 65.1337 2
52.0466 62.547 2
55.4841 58.262 2
52.8359 60.1461 2
53.6428 58.4833 2
58.3146 46.8582 2
57.5703 51.799 2
56.2552 49.5635 2
55.478 55.8054 2
55.3657 53.3929 2
50.3467 63.3878 3.98563
51.245 60.9444 3.98303
54.2234 57.2758 3.97974
52.3147 58.6448 3.98024
56.7332 44.1931 3.97457
55.5026 47.9068 3.97498
55.0778 51.3944 3.97159
54.0104 54.5542 3.97416
49.3377 65.9263 0.0121444
48.6183 64.1302 2
47.9624 62.4832 3.98489
45.5591 67.1036 0.0121365
46.8928 64.7434 0.0134953
43.632 67.4751 2
46.3819 63.0629 2
45.1329 65.2056 2
45.9875 61.5959 3.98449
44.7674 63.4636 3.9859
43.357 65.515 3.98679
41.6641 67.6937 3.98794
39.7027 70.0283 3.99027
41.8612 69.8815 2
42.1111 72.2083 3.99406
43.974 69.5935 0.00953316
44.3769 71.8638 2
44.8159 74.2794 4
46.6094 71.3687 0.00579823
47.2057 73.7222 2
49.554 73.0099 0
48.7843 4.32138 3.99356
50.9541 5.13019 2
51.8506 2.85458 4
53.0642 6.06992 0.00686862
54.0858 3.86728 2
56.25 5.02411 0
61.9746 45.9248 0.0268059
63.3348 42.5541 0.0277929
61.4591 43.6888 0.0260041
62.436 40.7009 0.0282963
63.9019 39.2687 0.0292819
65.8931 37.5027 0.0295372
63.9624 37.458 2
62.1604 39.3572 2
61.2265 41.963 2
60.2587 44.7773 2
61.9948 37.4454 3.97121
60.2548 39.8509 3.97244
59.0073 42.9249 3.97366
64.0943 35.6325 0.0291809
62.9378 33.045 0.0279196
60.6226 30.6083 0.0276771
57.9429 16.9717 0.0177035
57.7216 19.4625 0.0201495
57.3799 21.8269 0.025757
59.578 27.9039 0.0276143
57.7487 25.7162 0.0215955
57.196 23.9354 0.0261814
55.5399 16.9593 0.017778
53.7603 16.9668 0.0180269
52.9788 15.2502 0.0185471
50.1127 7.28169 0.0107251
52.1726 12.7867 0.0156957
51.2328 10.1179 0.0136572
62.1956 35.3589 2
60.3022 32.7439 2
58.6316 30.071 2
56.6401 18.142 2
56.3647 20.5066 2
56.1186 22.8561 2
57.299 27.3716 2
56.3027 25.0923 2
48.0564 6.52441 2
49.3244 9.32568 2
54.4176 17.9065 2
52.3625 17.0211 2
51.3785 14.4851 2
50.4332 11.9845 2
59.9018 35.1197 3.972
58.0108 32.2675 3.97366
56.5566 29.333 3.97194
55.4561 26.5897 3.97592
55.3462 19.1764 3.98183
54.939 24.0452 3.97003
55.0084 21.5493 3.97435
45.9622 5.87989 3.98991
43.3734 7.46941 3.98798
47.3548 8.6201 3.987
48.5999 11.2869 3.98516
49.7143 13.7335 3.98362
50.6345 16.1195 3.98094
53.1273 18.6463 3.98015
51.3044 18.035 3.98574
51.1685 65.1331 0.012554
52.0468 62.5462 0.0150981
58.3143 46.8581 0.0255946
52.836 60.1451 0.0181094
55.4839 58.2607 0.0190148
53.6427 58.482 0.0198881
57.5698 51.7987 0.024436
56.2549 49.5635 0.0186412
55.4774 55.8042 0.0239674
55.365 53.3921 0.0293165
50.3464 63.3884 2
51.2448 60.9453 2
54.2237 57.2773 2
52.3146 58.6458 2
56.7331 44.1929 2
55.5026 47.907 2
55.0784 51.3946 2
54.0111 54.5563 2
49.5923 61.753 3.98431
55.6521 41.7143 3.97526
50.5682 59.3383 3.98036
52.189 56.5005 3.97682
54.2004 45.5756 3.97646
53.3484 49.3351 3.97552
52.675 52.8567 3.9706
48.6186 64.1297 0.0139312
47.9621 62.4836 2
47.3295 61.0187 3.98394
43.6322 67.4745 0.0119972
45.1331 65.205 0.0133898
46.3822 63.0622 0.0146651
41.6639 67.6942 2
43.3568 65.5155 2
45.9873 61.5966 2
44.7672 63.4642 2
45.7665 60.6406 3.98363
44.4834 61.8459 3.98463
43.1467 63.7365 3.98578
41.5465 65.6531 3.98671
39.633 67.7735 3.98775
37.526 70.0534 3.99016
39.7027 70.0288 2
39.8179 72.4054 3.994
41.8611 69.881 0.00961072
42.1113 72.2086 2
42.3947 74.6792 4
44.3767 71.8635 0.0058477
44.8159 74.2794 2
47.2057 73.7222 0
43.8515 5.35696 3.99016
46.5703 3.64593 3.99382
48.7846 4.32119 2
49.554 1.99015 4
50.9539 5.13033 0.00666751
51.8506 2.85453 2
54.0858 3.86728 0
60.2588 44.7773 0.0261424
61.2264 41.9629 0.0272544
62.1603 39.3571 0.0287111
63.9625 37.458 0.0293898
61.9951 37.4454 2
60.2549 39.851 2
59.007 42.9249 2
59.762 37.5685 3.97215
58.0084 40.663 3.97323
55.1266 39.7275 3.97513
62.1956 35.359 0.0288544
60.3019 32.744 0.0275022
58.6313 30.071 0.0274844
56.6399 18.1431 0.0178211
56.364 20.5076 0.0230975
56.1177 22.8564 0.0287533
57.2991 27.3717 0.0277393
56.3022 25.092 0.0262013
54.4176 17.9076 0.0177072
52.3628 17.0221 0.0189457
51.3786 14.4859 0.017081
48.0563 6.52489 0.0104362
49.3245 9.32609 0.0132869
50.4333 11.9851 0.0153998
59.902 35.1197 2
45.9622 5.87943 2
43.3734 7.46893 2
58.011 32.2675 2
56.5574 29.3331 2
55.3466 19.1752 2
55.0093 21.5478 2
54.9398 24.0456 2
55.4559 26.5902 2
47.3548 8.61956 2
48.5998 11.2865 2
53.1274 18.6451 2
51.3044 18.0343 2
50.6343 16.1186 2
49.7142 13.7328 2
57.4115 34.7603 3.97439
55.7454 31.5153 3.97331
54.5111 28.3944 3.97574
53.7813 25.4875 3.97398
53.9736 20.1238 3.98157
53.5881 22.6974 3.97106
41.3984 7.07455 3.98822
45.3595 7.99144 3.98729
42.865 9.41029 3.9865
46.6661 10.6481 3.98526
47.7454 13.094 3.98377
48.9319 15.3906 3.98271
50.0078 17.6891 3.97914
51.6539 19.311 3.98741
50.3467 63.3878 0.0143711
51.245 60.9444 0.0169727
56.7332 44.1931 0.0254321
55.5026 47.9068 0.0250205
52.3147 58.6448 0.0197601
54.2234 57.2758 0.0202567
55.0778 51.3944 0.0284138
54.0104 54.5542 0.0258421
49.592 61.7535 2
55.653 41.7143 2
50.568 59.3394 2
52.1894 56.5016 2
54.2033 45.5757 2
53.3489 49.3344 2
52.6761 52.8566 2
48.8496 60.2114 3.98283
52.5621 42.6548 3.9762
49.7913 57.6374 3.97895
50.5984 54.4362 3.97531
51.8209 47.2805 3.97713
51.2228 50.9485 3.97002
48.187 43.8174 3.98969
47.9624 62.4832 0.0151063
47.3292 61.0191 2
46.6192 59.8057 3.98298
41.6641 67.6937 0.012064
43.357 65.515 0.0132144
44.7674 63.4636 0.0141044
45.9875 61.5959 0.015513
39.6329 67.7741 2
41.5463 65.6535 2
45.7661 60.6412 2
43.1465 63.7369 2
44.4832 61.8466 2
44.6238 60.3035 3.98399
42.9506 62.0949 3.98512
41.6001 63.8302 3.98574
39.6479 65.6214 3.98642
37.5634 67.756 3.98776
31.6969 65.1401 3.9866
33.3919 67.4935 3.98767
35.3332 69.9635 3.99012
37.526 70.0539 2
37.5095 72.4599 3.99388
39.7027 70.0283 0.00972887
39.8179 72.4057 2
39.9526 74.9197 4
42.1111 72.2083 0.00594049
42.3947 74.6792 2
44.8159 74.2794 0
41.736 4.96606 3.99043
43.8515 5.35652 2
44.3256 3.10924 3.99394
46.5706 3.64571 2
47.2057 1.27793 4
48.7843 4.32138 0.00643706
49.554 1.99013 2
51.8506 2.85458 0
59.0073 42.9249 0.0263428
60.2548 39.8509 0.0275598
61.9948 37.4454 0.0287916
59.7627 37.5685 2
58.0085 40.663 2
55.1268 39.7273 2
56.8328 37.8993 3.97485
49.6199 41.3445 3.9842
53.1662 39.3124 3.97631
39.4417 6.798 3.9884
59.9018 35.1197 0.0280002
58.0108 32.2675 0.0263377
56.5566 29.333 0.0280609
55.3462 19.1764 0.0181711
55.0084 21.5493 0.025652
54.939 24.0452 0.0299741
55.4561 26.5897 0.0240751
53.1273 18.6463 0.0198465
51.3044 18.035 0.0142554
50.6345 16.1195 0.0190642
45.9622 5.87989 0.0100876
49.7143 13.7335 0.0163826
47.3548 8.6201 0.0130021
48.5999 11.2869 0.0148425
43.3734 7.46941 0.0120202
57.4125 34.7604 2
41.3985 7.07402 2
45.3595 7.99098 2
42.865 9.40979 2
55.7435 31.5155 2
54.5115 28.395 2
53.9741 20.1222 2
53.5888 22.6935 2
53.7819 25.4878 2
46.666 10.6476 2
47.7451 13.0936 2
51.6542 19.3104 2
50.0077 17.6882 2
48.9317 15.3898 2
54.9107 33.9706 3.9753
53.5034 30.4782 3.97317
52.5978 27.1876 3.97669
52.1525 24.0822 3.97323
52.3959 21.0476 3.98132
41.013 9.04338 3.98651
44.7232 9.99095 3.9856
42.4677 10.8962 3.98465
46.0049 12.7225 3.98386
47.6818 14.5757 3.98346
48.1149 16.9786 3.98018
49.8192 19.5903 3.97681
49.5923 61.753 0.0156862
50.5682 59.3383 0.0196359
55.6521 41.7143 0.0247386
54.2004 45.5756 0.023538
53.3484 49.3351 0.024476
52.189 56.5005 0.0231782
52.675 52.8567 0.0294042
48.8493 60.212 2
52.5639 42.6541 2
49.7914 57.6386 2
50.599 54.4379 2
51.8221 47.2794 2
51.2239 50.9473 2
48.1866 43.8225 2
47.9881 58.7538 3.98201
50.1167 45.2927 3.97492
48.601 55.9283 3.98019
49.1348 52.6032 3.9744
49.678 49.055 3.974
46.0319 39.8883 3.90349
46.4367 42.7031 3.95239
46.512 45.868 3.99361
43.8784 41.1906 3.90714
42.0592 42.0281 3.87348
47.3295 61.0187 0.0160621
46.6188 59.8061 2
45.4689 58.8028 3.98337
39.633 67.7735 0.0122499
41.5465 65.6531 0.0132924
43.1467 63.7365 0.0142236
44.4834 61.8459 0.0153674
45.7665 60.6406 0.016369
41.5999 63.8306 2
37.5633 67.7565 2
39.6477 65.6219 2
44.6235 60.3042 2
42.9503 62.0954 2
41.7537 62.5059 3.98549
42.4818 59.9965 3.98492
39.8936 63.5656 3.98552
37.6424 65.5206 3.98602
35.4634 67.6653 3.9877
33.5753 65.3536 3.98632
31.9593 63.314 3.98563
29.883 64.7309 3.98663
31.697 65.1405 2
31.3763 67.2032 3.98775
33.3919 67.4941 2
33.1559 69.7568 3.99014
35.3332 69.964 2
35.1949 72.3744 3.99385
37.526 70.0534 0.00983955
37.5095 72.4603 2
37.5 75 4
39.8179 72.4054 0.00600393
39.9526 74.9197 2
42.3947 74.6792 0
39.6235 4.71318 3.99056
41.7361 4.96558 2
42.062 2.71686 3.99409
43.8515 5.35696 0.00983729
44.3258 3.10899 2
44.8158 0.721173 4
46.5703 3.64593 0.00618459
47.2057 1.27779 2
49.554 1.99015 0
58.0084 40.663 0.026768
59.762 37.5685 0.0278457
55.1266 39.7275 0.0248674
49.6259 41.3476 2
56.8333 37.8994 2
53.1663 39.3115 2
54.0074 36.6292 3.97702
47.5509 40.4399 3.95757
50.578 38.5141 3.9818
37.5154 6.66898 3.98837
39.4418 6.79745 2
39.2105 8.68579 3.9868
35.9408 8.48541 3.98705
57.4115 34.7603 0.0256054
55.7454 31.5153 0.0266934
54.5111 28.3944 0.0242647
53.9736 20.1238 0.0184301
53.5881 22.6974 0.0289392
53.7813 25.4875 0.0260162
51.6539 19.311 0.012594
50.0078 17.6891 0.0208577
48.9319 15.3906 0.0172866
45.3595 7.99144 0.012715
47.7454 13.094 0.0162269
46.6661 10.6481 0.0147443
41.3984 7.07455 0.0117781
42.865 9.41029 0.0134993
54.9135 33.9705 2
41.013 9.04281 2
44.7231 9.99055 2
42.4676 10.8957 2
53.5015 30.4769 2
52.5987 27.1893 2
52.3967 21.0468 2
52.1537 24.0823 2
46.0046 12.722 2
47.6815 14.5751 2
49.8194 19.589 2
48.1147 16.9777 2
52.4589 32.8704 3.97689
51.3339 29.1452 3.97134
50.8007 25.7131 3.97275
49.945 22.1699 3.97899
40.5685 11.5993 3.98449
43.8575 11.9117 3.98485
45.8032 15.4113 3.98315
47.5053 19.2117 3.97806
46.3698 37.5037 3.90901
48.8496 60.2114 0.017175
49.7913 57.6374 0.0210513
52.5621 42.6548 0.0238028
51.8209 47.2805 0.0228658
51.2228 50.9485 0.0299807
50.5984 54.4362 0.0246917
48.187 43.8174 0.0103075
47.9877 58.7544 2
50.1193 45.2944 2
48.6012 55.9296 2
49.1357 52.6065 2
49.679 49.054 2
46.0449 39.894 2
46.4484 42.7121 2
46.5106 45.8576 2
43.8926 41.1984 2
42.0644 42.0314 2
46.8402 57.3575 3.98301
44.6361 39.4711 3.89673
42.4271 40.8943 3.89064
48.0987 47.2555 3.97828
47.1712 54.2642 3.98091
47.5941 50.7594 3.97536
44.8142 47.4483 4.00084
45.1108 41.9847 3.91003
44.9316 44.6119 3.95543
42.6968 42.7171 3.90904
40.9291 42.371 3.9011
46.6192 59.8057 0.0170201
45.4684 58.8034 2
43.8772 57.7282 3.98429
37.5634 67.756 0.0122415
39.6479 65.6214 0.013578
41.6001 63.8302 0.0142564
42.9506 62.0949 0.0148831
44.6238 60.3035 0.0160067
35.4633 67.6659 2
41.7534 62.5062 2
39.8934 63.566 2
37.6423 65.5211 2
42.4814 59.9972 2
40.6234 61.665 3.98483
40.446 58.2311 3.9848
37.8369 63.2272 3.98547
35.573 65.4428 3.98619
33.5753 65.354 2
31.9593 63.3144 2
33.629 63.354 3.98533
30.3782 62.8724 3.98578
32.123 62.0214 3.98533
26.8678 61.5153 3.9848
28.0618 64.1586 3.98639
29.883 64.7314 2
29.4057 66.7667 3.9878
31.6969 65.1401 0.0134034
31.3764 67.2036 2
31.013 69.4217 3.99012
33.3919 67.4935 0.0123302
33.1558 69.7573 2
32.8919 72.1486 3.99388
35.3332 69.9635 0.00988441
35.1948 72.3747 2
35.0474 74.9194 4
37.5095 72.4599 0.00612477
37.5 75 2
39.9526 74.9197 0
35.6198 6.71992 3.98847
37.5225 4.61262 3.9907
39.6235 4.71272 2
39.7884 2.47331 3.99421
41.736 4.96606 0.00957182
42.0621 2.71658 2
42.3946 0.32156 4
44.3256 3.10924 0.00606399
44.8159 0.72056 2
47.2057 1.27793 0
49.6199 41.3445 0.0158022
56.8328 37.8993 0.025152
53.1662 39.3124 0.0236894
47.5571 40.442 2
50.5818 38.5154 2
54.0074 36.6291 2
51.3658 35.5838 3.96794
48.2163 37.7719 3.97129
46.0304 35.1386 3.90999
43.8775 33.8235 3.90316
42.0529 32.9885 3.87179
37.4571 8.52749 3.98683
37.5154 6.66843 2
39.4417 6.798 0.0115983
39.2105 8.68518 2
38.9755 10.1178 3.9863
35.8973 9.76461 3.98588
34.1492 8.81472 3.98694
35.9407 8.48475 2
54.9107 33.9706 0.0247039
53.5034 30.4782 0.026832
52.5978 27.1876 0.0233059
52.3959 21.0476 0.0186832
52.1525 24.0822 0.0267712
49.8192 19.5903 0.0231871
48.1149 16.9786 0.0198237
47.6818 14.5757 0.0165449
44.7232 9.99095 0.0144007
46.0049 12.7225 0.0161379
41.013 9.04338 0.0134938
42.4677 10.8962 0.0153474
52.4607 32.8696 2
40.5683 11.5988 2
43.8573 11.9113 2
51.3364 29.1465 2
50.8024 25.7148 2
49.9459 22.1683 2
45.8027 15.4106 2
47.5055 19.2108 2
50.0094 31.4034 3.96647
49.2972 27.4579 3.98022
49.4134 24.3824 3.97865
47.1902 21.9207 3.97564
38.3007 12.723 3.98481
42.1009 14.2941 3.9836
44.8017 18.444 3.98328
44.9196 37.5136 3.89837
46.3897 37.5092 2
47.9881 58.7538 0.0179899
48.601 55.9283 0.0198122
50.1167 45.2927 0.0250755
49.678 49.055 0.0260026
49.1348 52.6032 0.0255955
46.0319 39.8883 0.0965095
46.4367 42.7031 0.0476077
46.512 45.868 0.00639024
43.8784 41.1906 0.0928641
42.0592 42.0281 0.126521
46.8399 57.3584 2
44.6518 39.4763 2
42.4283 40.8937 2
48.0995 47.2554 2
47.1718 54.2661 2
47.5956 50.7613 2
44.8169 47.4258 2
45.1213 41.9934 2
44.9441 44.6252 2
42.7169 42.728 2
40.9342 42.3693 2
45.3998 55.9452 3.98423
42.7752 39.2781 3.90463
40.8879 40.816 3.94778
46.1019 48.9296 3.98122
45.5494 52.5585 3.98228
43.4644 48.4792 4.00416
43.3593 46.1845 3.96123
43.6882 43.8042 3.90551
41.1893 43.8866 3.90912
39.3097 42.7043 3.91518
45.4689 58.8028 0.0166282
43.8767 57.7289 2
42.1081 56.356 3.98591
35.4634 67.6653 0.012296
37.6424 65.5206 0.013982
39.8936 63.5656 0.014481
41.7537 62.5059 0.0145109
42.4818 59.9965 0.0150815
35.5729 65.4433 2
40.623 61.6654 2
37.8368 63.2275 2
40.4454 58.2317 2
38.9266 56.5279 3.98804
38.2508 60.3504 3.98529
35.6071 63.2209 3.98533
33.5753 65.3536 0.0136768
31.9593 63.314 0.0143652
33.629 63.3543 2
30.3783 62.8727 2
32.123 62.0217 2
28.6807 62.2174 3.98555
33.3458 61.5347 3.98529
31.066 61.2389 3.98532
27.5665 59.614 3.98308
23.7887 59.0996 3.98257
25.0331 60.8875 3.98372
26.868 61.5156 2
26.2282 63.4907 3.98606
28.0619 64.159 2
27.4622 66.1903 3.98778
29.883 64.7309 0.0133686
29.4057 66.7672 2
28.9052 68.9472 3.99012
31.3763 67.2032 0.012253
31.013 69.4222 2
30.6143 71.7797 3.9939
33.1559 69.7568 0.00985592
32.8918 72.1489 2
32.6054 74.6784 4
35.1949 72.3744 0.00615148
35.0474 74.9197 2
37.5 75 0
33.7223 6.97442 3.98818
35.4338 4.68299 3.99068
35.6198 6.71933 2
37.5139 2.38593 3.9943
37.5226 4.61216 2
39.6235 4.71318 0.00943829
39.7885 2.47301 2
39.9526 0.0806499 4
42.062 2.71686 0.00590696
42.3947 0.320817 2
44.8158 0.721173 0
44.6428 35.5444 3.89613
42.4259 34.1178 3.88962
47.5509 40.4399 0.0424267
50.578 38.5141 0.0181965
54.0074 36.6292 0.022978
48.2215 37.7712 2
51.3681 35.5827 2
46.0398 35.1281 2
43.8945 33.8115 2
42.0585 32.9867 2
48.3806 34.2775 3.99207
45.1059 33.0345 3.90559
42.6955 32.3039 3.90963
40.9227 32.6462 3.90413
37.3094 10.6208 3.98559
37.4571 8.52679 2
37.5154 6.66898 0.0116275
39.2105 8.68579 0.0132017
38.9755 10.1172 2
34.7524 10.3699 3.98565
35.8973 9.76388 2
32.3758 9.36118 3.98638
34.1491 8.81402 2
35.9408 8.48541 0.012947
52.4589 32.8704 0.0231078
51.3339 29.1452 0.0286568
50.8007 25.7131 0.0272486
49.945 22.1699 0.0210106
47.5053 19.2117 0.0219365
45.8032 15.4113 0.0168456
43.8575 11.9117 0.0151454
40.5685 11.5993 0.0155133
50.0112 31.4025 2
38.3004 12.7224 2
42.1004 14.2937 2
49.2988 27.4595 2
49.4149 24.3812 2
47.1913 21.9216 2
44.8018 18.4433 2
47.8102 29.5576 3.97693
47.1133 25.1122 3.98228
44.2923 21.2916 3.9825
36.5803 12.9193 3.98427
38.6802 14.7911 3.98371
41.75 17.8205 3.98169
42.9245 37.4961 3.90199
44.9424 37.5129 2
46.3698 37.5037 0.090994
46.8402 57.3575 0.0169862
47.1712 54.2642 0.0190923
48.0987 47.2555 0.0217212
47.5941 50.7594 0.0246365
44.6361 39.4711 0.103275
45.1108 41.9847 0.0899671
44.9316 44.6119 0.044571
44.8142 47.4483 -0.000843126
42.6968 42.7171 0.0909589
42.4271 40.8943 0.109356
40.9291 42.371 0.0988989
45.3995 55.9462 2
42.7802 39.2767 2
40.8884 40.8125 2
46.1029 48.9305 2
45.5509 52.5605 2
43.466 48.5015 2
43.3831 46.1986 2
43.7036 43.814 2
41.2036 43.8915 2
39.3123 42.702 2
43.7391 54.4576 3.9896
40.9848 39.1788 3.97309
39.2293 40.9012 3.97455
43.7138 50.5384 3.99332
41.9719 47.7199 3.98723
41.8798 45.2071 3.90322
39.4286 44.629 3.91726
37.494 42.8327 3.92075
43.8772 57.7282 0.0157076
42.1073 56.3568 2
40.421 54.9664 3.98766
35.573 65.4428 0.01381
37.8369 63.2272 0.0145259
40.6234 61.665 0.0151686
40.446 58.2311 0.0151967
35.607 63.2212 2
38.2503 60.3504 2
38.9258 56.5292 2
38.0003 55.287 3.98761
36.9353 57.6571 3.98565
35.3636 60.9346 3.98529
33.629 63.354 0.0146703
30.3782 62.8724 0.0142239
32.123 62.0214 0.0146728
33.3457 61.535 2
28.6807 62.2177 2
31.0659 61.2391 2
29.4019 60.3083 3.98464
32.3554 59.768 3.98497
28.0185 58.3936 3.98369
27.5666 59.6142 2
25.3756 58.6124 3.98126
22.7514 58.2576 3.97885
23.3984 60.3665 3.98209
23.7887 59.1001 2
25.0332 60.8879 2
24.4307 62.7827 3.98541
26.8678 61.5153 0.0151974
26.2284 63.491 2
25.5462 65.5002 3.98771
28.0618 64.1586 0.01361
27.4623 66.1908 2
26.8348 68.3354 3.99007
29.4057 66.7667 0.0122023
28.9052 68.9476 2
28.3694 71.2648 3.99392
31.013 69.4217 0.009883
30.6141 71.7799 2
30.1842 74.2788 4
32.8919 72.1486 0.00612404
32.6053 74.6792 2
35.0474 74.9194 0
31.7866 7.41422 3.988
33.3457 4.9221 3.99059
33.7222 6.9738 2
35.2441 2.46208 3.99427
35.4339 4.68249 2
35.6198 6.71992 0.0115301
37.5 0 4
37.514 2.38563 2
37.5225 4.61262 0.0092969
39.7884 2.47331 0.00579305
39.9526 0.0802889 2
42.3946 0.32156 0
42.7841 35.7222 3.90336
44.655 35.5406 2
40.8875 34.1955 3.94927
42.4278 34.1181 2
48.2163 37.7719 0.028709
51.3658 35.5838 0.0320608
46.0304 35.1386 0.0900074
43.8775 33.8235 0.0968398
42.0529 32.9885 0.128212
48.3857 34.2728 2
45.1177 33.0262 2
42.7123 32.295 2
40.924 32.6478 2
46.3422 31.5565 3.97581
43.6833 31.2205 3.90493
41.1945 31.1248 3.9032
39.3022 32.3033 3.91534
35.6905 11.7646 3.98438
37.3094 10.6201 2
37.4571 8.52749 0.0131696
38.9755 10.1178 0.0137026
33.0961 11.2062 3.98445
34.7524 10.369 2
35.8973 9.76461 0.0141157
30.4804 10.0092 3.98567
32.3756 9.36042 2
34.1492 8.81472 0.0130641
50.0094 31.4034 0.0335334
49.2972 27.4579 0.019783
49.4134 24.3824 0.0213475
47.1902 21.9207 0.0243609
44.8017 18.444 0.0167172
42.1009 14.2941 0.0163997
38.3007 12.723 0.0151864
36.58 12.9186 2
47.8103 29.5556 2
38.6795 14.7905 2
41.7497 17.8198 2
47.1156 25.1136 2
44.2931 21.2904 2
45.5736 27.6676 3.99827
43.81 24.014 3.99455
41.343 20.696 3.98135
35.7701 14.7434 3.98362
38.6806 17.5757 3.98232
41.032 37.4871 3.97543
42.9304 37.4969 2
44.9196 37.5136 0.101626
45.3998 55.9452 0.0157745
45.5494 52.5585 0.0177217
46.1019 48.9296 0.0187771
42.7752 39.2781 0.0953743
43.6882 43.8042 0.094493
43.3593 46.1845 0.0387659
43.4644 48.4792 -0.00416492
41.1893 43.8866 0.0908813
40.8879 40.816 0.0522172
39.3097 42.7043 0.0848204
43.739 54.4595 2
40.9854 39.1767 2
39.2289 40.899 2
43.7151 50.5464 2
41.9746 47.7324 2
41.8996 45.2165 2
37.4961 42.8315 2
39.4445 44.6283 2
41.8847 53.0353 3.99694
39.2302 39.1806 3.97083
37.4959 40.9478 3.97598
35.6845 42.7046 3.91551
40.9507 49.7699 4.00401
39.7993 46.1054 3.89649
37.495 44.881 3.91799
42.1081 56.356 0.0140872
40.4199 54.9669 2
38.7301 53.9007 3.98849
35.6071 63.2209 0.014671
38.2508 60.3504 0.0147099
38.9266 56.5279 0.0119647
35.3633 60.9347 2
36.9346 57.6566 2
37.9991 55.2867 2
36.3191 55.4213 3.98919
34.4872 58.5481 3.98539
33.3458 61.5347 0.0147149
28.6807 62.2174 0.0144513
31.066 61.2389 0.014682
32.3554 59.768 2
29.402 60.3084 2
30.294 57.8409 3.98579
28.0185 58.3938 2
26.9374 56.8428 3.98084
27.5665 59.614 0.0169177
25.3756 58.6128 2
23.8309 56.8228 3.97592
21.3266 57.4161 3.97815
21.9901 59.6381 3.98172
22.7513 58.2582 2
22.7342 62.0337 3.98426
23.3985 60.367 2
23.7887 59.0996 0.0174274
25.0331 60.8875 0.0162824
24.4308 62.7832 2
23.6801 64.7182 3.98724
26.2282 63.4907 0.013941
25.5463 65.5005 2
24.807 67.5964 3.98999
27.4622 66.1903 0.0122216
26.8348 68.3358 2
26.1646 70.6056 3.9939
28.9052 68.9472 0.00987727
28.3691 71.265 2
27.7943 73.7221 4
30.6143 71.7797 0.00609906
30.1841 74.2794 2
32.6054 74.6784 0
29.8091 7.98738 3.98753
31.2507 5.32931 3.99028
31.7865 7.41345 2
32.9798 2.70018 3.9942
33.3457 4.92155 2
33.7223 6.97442 0.0118184
35.0474 0.080333 4
35.2441 2.46176 2
35.4338 4.68299 0.00932044
37.5 0 2
37.5139 2.38593 0.00570007
39.9526 0.0806499 0
40.9895 35.8076 3.97405
42.7872 35.724 2
44.6428 35.5444 0.103866
28.5411 10.6845 3.9856
39.2261 34.1077 3.97194
40.8874 34.1998 2
42.4259 34.1178 0.110382
48.3806 34.2775 0.0079304
45.1059 33.0345 0.0944142
42.6955 32.3039 0.0903703
40.9227 32.6462 0.095873
46.3558 31.5507 2
43.6911 31.2119 2
41.2093 31.1175 2
39.3042 32.3049 2
44.4078 29.733 3.96415
41.8892 29.8097 3.90829
39.4342 30.3785 3.91814
37.4854 32.1679 3.92042
34.0903 12.9222 3.9838
35.6904 11.7637 2
37.3094 10.6208 0.0144119
31.184 11.9744 3.9847
33.0961 11.2053 2
34.7524 10.3699 0.0143501
30.4803 10.0084 2
32.3758 9.36118 0.0136222
47.8102 29.5576 0.0230659
47.1133 25.1122 0.0177228
36.5803 12.9193 0.0157336
44.2923 21.2916 0.0174966
41.75 17.8205 0.0183127
38.6802 14.7911 0.0162885
35.7695 14.7426 2
45.5749 27.6594 2
38.6801 17.5747 2
41.343 20.6942 2
43.8124 24.0168 2
33.6054 15.8597 3.98337
43.0763 26.4928 3.99863
40.9216 23.266 3.98798
38.4223 20.3024 3.98343
35.8466 17.4896 3.98367
39.2375 37.4865 3.97152
41.0325 37.4871 2
42.9245 37.4961 0.0980078
43.7391 54.4576 0.0104043
43.7138 50.5384 0.00668279
40.9848 39.1788 0.0269097
41.8798 45.2071 0.0967815
41.9719 47.7199 0.0127666
39.4286 44.629 0.0827445
39.2293 40.9012 0.0254521
37.494 42.8327 0.0792521
41.8842 53.0381 2
39.2308 39.1791 2
37.4962 40.9454 2
40.9515 49.7733 2
35.6828 42.7025 2
39.821 46.1207 2
37.4926 44.8781 2
39.8294 51.9569 4.00095
37.4945 39.1949 3.9634
35.7645 40.9073 3.97583
34.0637 42.3659 3.90201
35.5453 44.6288 3.91495
38.7407 48.7672 4.00185
37.4931 46.4268 3.89675
40.421 54.9664 0.0123406
38.729 53.8997 2
36.7187 53.2574 3.99776
35.3636 60.9346 0.0147107
36.9353 57.6571 0.0143536
38.0003 55.287 0.0123906
34.4869 58.5478 2
36.3182 55.4197 2
33.2222 55.5352 3.98683
32.3554 59.768 0.015032
29.4019 60.3083 0.0153558
30.2941 57.8409 2
28.678 55.3334 3.98108
28.0185 58.3936 0.0163124
26.9373 56.843 2
25.2974 55.1605 3.97709
21.7955 55.3627 3.97432
25.3756 58.6124 0.0187439
23.8307 56.8233 2
20.2101 57.0456 3.98047
20.6401 58.7957 3.98057
21.3265 57.4166 2
21.164 61.1831 3.98339
21.9901 59.6387 2
22.7514 58.2576 0.0211527
21.8934 63.846 3.98654
22.7344 62.0342 2
23.3984 60.3665 0.0179121
24.4307 62.7827 0.0145929
23.6802 64.7187 2
22.8353 66.74 3.98984
25.5462 65.5002 0.0122946
24.807 67.5968 2
24.0088 69.8067 3.99382
26.8348 68.3354 0.00992817
26.1643 70.6057 2
25.446 73.0099 4
28.3694 71.2648 0.00608142
27.7943 73.7222 2
30.1842 74.2788 0
27.8189 8.64706 3.9872
29.1526 5.87504 3.98996
29.8089 7.98659 2
30.725 3.09736 3.994
31.2507 5.32867 2
31.7866 7.41422 0.0120043
32.6053 0.320823 4
32.9798 2.69987 2
33.3457 4.9221 0.00941336
35.0474 0.0802903 2
35.2441 2.46208 0.00572704
37.5 0 0
39.2335 35.8046 3.97068
40.9898 35.8102 2
42.7841 35.7222 0.0966353
28.5411 10.6839 2
26.62 11.3798 3.98533
29.2229 12.6309 3.98487
37.4902 34.0551 3.9728
39.2251 34.1086 2
40.8875 34.1955 0.050732
46.3422 31.5565 0.0241877
43.6833 31.2205 0.0950718
41.1945 31.1248 0.0967982
39.3022 32.3033 0.084655
44.4231 29.724 2
41.9081 29.7978 2
39.4475 30.3767 2
37.486 32.1685 2
42.3447 28.3622 3.94819
39.8284 28.9014 3.90539
37.4928 30.1138 3.91891
35.6742 32.2919 3.91497
31.9116 14.4667 3.98401
34.0901 12.9213 2
35.6905 11.7646 0.0156165
31.184 11.9735 2
33.0961 11.2062 0.015552
30.4804 10.0092 0.0143301
45.5736 27.6676 0.00172562
43.81 24.014 0.00545493
35.7701 14.7434 0.0163772
41.343 20.696 0.0186512
38.6806 17.5757 0.0176798
33.605 15.8595 2
35.8461 17.4889 2
43.0786 26.4914 2
38.4218 20.3013 2
40.9225 23.261 2
33.5476 17.367 3.98496
40.4548 25.61 4.01156
38.079 22.828 3.99224
35.5828 20.0549 3.9845
37.4947 37.4933 3.95623
39.2378 37.4861 2
41.032 37.4871 0.0245739
41.8847 53.0353 0.00305608
40.9507 49.7699 -0.00401038
39.2302 39.1806 0.0291667
39.7993 46.1054 0.103515
37.495 44.881 0.0820137
37.4959 40.9478 0.0240227
35.6845 42.7046 0.0844907
39.829 51.9579 2
37.4951 39.1935 2
35.7654 40.9059 2
38.738 48.7941 2
34.0612 42.3647 2
35.5355 44.6324 2
37.4898 46.4474 2
37.6747 51.0577 4.01256
35.7637 39.1923 3.97157
34.1108 40.818 3.94844
32.9317 42.0191 3.87291
33.7859 43.8781 3.90638
35.1681 46.0994 3.9026
36.8694 48.4173 3.98781
38.7301 53.9007 0.0115105
36.7181 53.2549 2
34.3552 52.5144 3.98958
34.4872 58.5481 0.0146145
36.3191 55.4213 0.0108101
33.2221 55.5342 2
30.5052 53.4317 3.98342
30.294 57.8409 0.0142115
28.678 55.3337 2
26.8639 53.4563 3.97625
26.9374 56.8428 0.0191551
25.2973 55.1608 2
23.5541 53.5009 3.97319
20.4487 53.2411 3.97147
19.9206 55.8485 3.97921
21.7954 55.3629 2
23.8309 56.8228 0.0240829
19.4316 57.9069 3.97997
20.2101 57.046 2
19.703 60.2167 3.98222
20.6401 58.7963 2
21.3266 57.4161 0.0218455
20.2056 62.8671 3.98534
21.1641 61.1837 2
21.9901 59.6381 0.0182817
20.9367 65.769 3.98951
21.8935 63.8466 2
22.7342 62.0337 0.0157421
23.6801 64.7182 0.0127581
22.8353 66.7404 2
21.9113 68.8738 3.9937
24.807 67.5964 0.0100099
24.0085 69.8068 2
23.1494 72.1454 4
26.1646 70.6056 0.00609591
25.446 73.0099 2
27.7943 73.7221 0
25.8581 9.3751 3.98685
27.0673 6.53916 3.98958
27.8188 8.64629 2
28.4872 3.64327 3.99381
29.1525 5.87438 2
29.8091 7.98738 0.0124651
30.1841 0.720592 4
30.7249 3.09704 2
31.2507 5.32931 0.0097167
32.6053 0.320817 2
32.9798 2.70018 0.00579913
35.0474 0.080333 0
37.4946 35.7969 3.96189
39.2335 35.805 2
40.9895 35.8076 0.0259521
24.7748 12.0627 3.98538
23.7489 14.3467 3.98437
28.5411 10.6845 0.0143987
26.6201 11.3792 2
29.2229 12.6301 2
27.289 13.3638 3.98467
29.7775 14.1892 3.98387
35.7596 34.0917 3.97247
37.4896 34.0575 2
39.2261 34.1077 0.0280618
37.4854 32.1679 0.0795767
44.4078 29.733 0.0358461
41.8892 29.8097 0.0917084
39.4342 30.3785 0.0818622
42.3607 28.3504 2
39.8464 28.8854 2
37.494 30.1175 2
35.6729 32.2928 2
40.0301 27.5193 3.95911
37.502 28.5657 3.90159
35.5415 30.368 3.91761
34.0598 32.6255 3.90114
30.923 16.822 3.98393
31.9116 14.4661 2
34.0903 12.9222 0.0161975
31.184 11.9744 0.015295
43.0763 26.4928 0.00137238
40.9216 23.266 0.012021
33.6054 15.8597 0.0166301
35.8466 17.4896 0.0163294
38.4223 20.3024 0.0165726
33.547 17.3673 2
35.582 20.0535 2
40.4539 25.6073 2
38.0787 22.8276 2
32.8607 19.7705 3.9857
37.7993 25.1301 4.02531
35.2021 22.6105 3.98589
35.7549 37.4968 3.97136
37.495 37.4932 2
39.2375 37.4865 0.0284801
39.8294 51.9569 -0.000951142
38.7407 48.7672 -0.00185085
37.4945 39.1949 0.0366027
37.4931 46.4268 0.103251
35.5453 44.6288 0.0850519
35.7645 40.9073 0.0241741
34.0637 42.3659 0.0979895
37.6743 51.0648 2
35.7647 39.1912 2
34.1111 40.8137 2
36.8675 48.4302 2
32.926 42.0211 2
33.7753 43.8866 2
35.1458 46.1128 2
35.4389 50.1955 4.01238
34.0146 39.1875 3.97174
32.5592 40.8899 3.89016
32.2864 42.7035 3.90804
33.1178 45.1925 3.90836
34.2704 47.4795 3.96067
36.7187 53.2574 0.00224393
34.3551 52.5136 2
31.9784 51.2384 3.99162
33.2222 55.5352 0.0131681
30.5053 53.4329 2
28.4044 51.6379 3.97967
28.678 55.3334 0.0189152
26.864 53.4564 2
25.0529 51.777 3.97057
25.2974 55.1605 0.0229053
23.5542 53.5008 2
21.9399 51.8241 3.97037
19.1792 51.651 3.97169
18.9066 54.3243 3.97418
20.4487 53.2414 2
18.4381 56.7387 3.98042
19.9204 55.8489 2
21.7955 55.3627 0.0256754
18.3642 59.1234 3.98023
19.4316 57.9074 2
20.2101 57.0456 0.0195328
18.6163 61.7746 3.98402
19.703 60.2174 2
20.6401 58.7957 0.0194277
19.1256 64.6798 3.98873
20.2057 62.8678 2
21.164 61.1831 0.0166119
19.8853 67.8104 3.99348
20.9368 65.7695 2
21.8934 63.846 0.0134569
22.8353 66.74 0.0101599
21.911 68.8738 2
20.9142 71.1327 4
24.0088 69.8067 0.00617869
23.1494 72.1455 2
25.446 73.0099 0
23.0941 12.7774 3.98496
23.9706 10.1615 3.9867
25.0211 7.30925 3.98937
25.8581 9.37442 2
26.2789 4.32749 3.99358
27.0672 6.53849 2
27.8189 8.64706 0.0128014
27.7943 1.27781 4
28.487 3.64298 2
29.1526 5.87504 0.0100412
30.1841 0.720551 2
30.725 3.09736 0.00600353
32.6053 0.320823 0
35.7588 35.8032 3.97145
37.4949 35.7982 2
39.2335 35.8046 0.0293228
24.775 12.0621 2
23.7492 14.3465 2
22.4774 15.0231 3.98381
25.3551 13.8959 3.9842
24.0217 15.6083 3.98334
26.62 11.3798 0.0146668
29.2229 12.6309 0.0151264
27.2892 13.3635 2
29.7776 14.1885 2
28.3533 15.9631 3.98423
34.1124 34.1798 3.94812
35.7601 34.0925 2
37.4902 34.0551 0.0271978
35.6742 32.2919 0.0850315
37.4928 30.1138 0.0810879
42.3447 28.3622 0.0518123
39.8284 28.9014 0.0946131
40.0388 27.508 2
37.5024 28.5473 2
35.5284 30.3678 2
34.0603 32.6262 2
37.6183 27.1895 3.96249
35.1552 28.8847 3.90378
33.7764 31.1129 3.90561
32.9335 32.9715 3.87313
30.2044 19.3237 3.98554
30.9229 16.8216 2
31.9116 14.4667 0.0159894
40.4548 25.61 -0.0115572
38.079 22.828 0.00776277
33.5476 17.367 0.0150361
35.5828 20.0549 0.0154951
32.8595 19.7714 2
35.2014 22.6072 2
37.8014 25.1338 2
32.3063 22.3811 3.98602
34.9579 25.1351 4.01205
33.9654 37.4968 3.97303
35.7553 37.4966 2
37.4947 37.4933 0.043774
37.6747 51.0577 -0.0125563
36.8694 48.4173 0.0121916
35.7637 39.1923 0.028435
35.1681 46.0994 0.0973962
33.7859 43.8781 0.0936192
34.1108 40.818 0.0515622
32.9317 42.0191 0.127091
35.4378 50.1999 2
34.0158 39.185 2
32.5571 40.888 2
34.2632 47.5092 2
32.2705 42.7101 2
33.0965 45.2111 2
33.2058 49.1874 4.00784
32.2062 39.2799 3.90447
31.1051 41.1787 3.9049
31.3032 43.7883 3.90461
32.2286 46.406 3.95863
34.3552 52.5144 0.0104214
31.9783 51.2407 2
29.8185 49.7503 3.98533
30.5052 53.4317 0.016584
28.4048 51.6352 2
26.4711 50.0154 3.97016
26.8639 53.4563 0.0237514
25.0533 51.776 2
23.3084 50.2181 3.97338
23.5541 53.5009 0.0268088
21.9401 51.8244 2
20.4382 50.3324 3.97212
17.9674 50.3433 3.97364
17.8164 52.806 3.97288
19.1796 51.651 2
17.4253 55.3543 3.9772
18.9065 54.3247 2
20.4487 53.2411 0.0285318
17.1285 57.8855 3.981
18.438 56.7392 2
19.9206 55.8485 0.0207906
17.1333 60.5577 3.98229
18.3642 59.124 2
19.4316 57.9069 0.0200343
17.406 63.4724 3.98734
18.6163 61.7753 2
19.703 60.2167 0.017778
17.9414 66.6188 3.99316
19.1256 64.6803 2
20.2056 62.8671 0.0146573
18.75 69.9759 4
19.8851 67.8104 2
20.9367 65.769 0.0104909
21.9113 68.8738 0.00630011
20.9142 71.1327 2
23.1494 72.1454 0
21.5848 13.5974 3.98451
22.1887 11.0208 3.98624
23.0944 12.7773 2
23.0391 8.17459 3.98924
23.9707 10.1612 2
24.1165 5.14218 3.99342
25.021 7.30873 2
25.8581 9.3751 0.0131538
25.446 1.99014 4
26.2786 4.32725 2
27.0673 6.53916 0.0104248
27.7943 1.27778 2
28.4872 3.64327 0.00618842
30.1841 0.720592 0
34.0073 35.8067 3.97204
35.7594 35.8039 2
37.4946 35.7969 0.0381078
21.3023 15.819 3.98296
24.7748 12.0627 0.0146156
23.7489 14.3467 0.0156345
25.3553 13.8955 2
22.4778 15.0231 2
24.0222 15.6082 2
23.2607 16.2397 3.9831
25.377 16.0759 3.98418
27.289 13.3638 0.0153319
29.7775 14.1892 0.0161254
28.3536 15.9628 2
27.4359 18.7841 3.98484
32.5732 34.1028 3.89126
34.1143 34.1821 2
35.7596 34.0917 0.0275306
34.0598 32.6255 0.0988566
35.5415 30.368 0.0823938
37.502 28.5657 0.0984054
40.0301 27.5193 0.0408898
37.6147 27.1554 2
32.9314 32.97 2
35.1376 28.8666 2
33.7617 31.0972 2
35.0661 27.3195 3.96844
33.0955 29.7978 3.90356
32.2778 32.2766 3.90561
29.5678 21.9172 3.99254
30.2039 19.324 2
30.923 16.822 0.016068
37.7993 25.1301 -0.0253128
35.2021 22.6105 0.0141104
32.8607 19.7705 0.0143011
32.3055 22.3829 2
34.9632 25.1384 2
31.6627 25.5966 3.99647
32.0678 37.4993 3.9028
33.9662 37.4966 2
35.7549 37.4968 0.0286416
35.4389 50.1955 -0.0123839
34.2704 47.4795 0.0393302
34.0146 39.1875 0.0282645
33.1178 45.1925 0.0916399
32.2864 42.7035 0.0919555
32.5592 40.8899 0.109836
33.205 49.172 2
32.2029 39.2769 2
31.0882 41.1861 2
32.21 46.4219 2
31.2913 43.799 2
31.0956 48.0123 3.99963
30.343 39.4547 3.89686
29.8778 41.9761 3.90414
30.3818 44.9835 3.95996
31.9784 51.2384 0.00838294
29.8187 49.7451 2
27.8221 48.2139 3.97684
28.4044 51.6379 0.0203321
26.4721 50.0137 2
24.6061 48.4982 3.97905
25.0529 51.777 0.0294314
23.3089 50.218 2
21.6177 48.8119 3.97427
21.9399 51.8241 0.0296298
20.4389 50.3322 2
19.0082 49.1069 3.97626
16.8759 49.3422 3.97634
16.7571 51.4188 3.97385
17.9679 50.3435 2
16.3764 53.8825 3.97524
17.8166 52.8062 2
19.1792 51.651 0.0283091
15.9686 56.4869 3.97945
17.4251 55.3548 2
18.9066 54.3243 0.0258202
15.7459 59.2185 3.98189
17.1285 57.8861 2
18.4381 56.7387 0.0195821
15.7864 62.1427 3.98542
17.1334 60.5584 2
18.3642 59.1234 0.0197688
16.088 65.3013 3.9927
17.406 63.473 2
18.6163 61.7746 0.0159823
16.6661 68.6801 4
17.9411 66.6188 2
19.1256 64.6798 0.0112717
18.75 69.9759 2
19.8853 67.8104 0.00652429
20.9142 71.1327 0
20.2167 14.5863 3.98374
21.5851 13.5974 2
20.5279 11.9904 3.98562
21.1422 9.1443 3.98912
22.1889 11.0206 2
23.0941 12.7774 0.0150364
22.0155 6.08116 3.99329
23.0391 8.17426 2
23.9706 10.1615 0.0133
23.1494 2.85457 4
24.1161 5.14205 2
25.0211 7.30925 0.0106291
25.446 1.99012 2
26.2789 4.32749 0.00641502
27.7943 1.27781 0
32.2141 35.715 3.90417
34.009 35.8085 2
35.7588 35.8032 0.0285536
21.3025 15.8185 2
20.2993 16.9533 3.9831
22.0938 16.6243 3.98187
25.3551 13.8959 0.0158011
22.4774 15.0231 0.0161911
24.0217 15.6083 0.0166567
25.3774 16.0757 2
23.2611 16.2397 2
24.2 18.4382 3.98161
27.0048 21.4416 3.98547
28.3533 15.9631 0.0157748
27.4356 18.7841 2
31.1142 33.8122 3.90325
32.571 34.1061 2
34.1124 34.1798 0.0518844
32.9335 32.9715 0.126874
33.7764 31.1129 0.0943854
35.1552 28.8847 0.0962238
37.6183 27.1895 0.0375148
35.0502 27.3021 2
32.2714 32.2799 2
33.0764 29.7761 2
32.5031 28.0517 3.98091
31.2816 31.2048 3.90563
28.7757 24.3828 3.98721
29.5669 21.9185 2
30.2044 19.3237 0.0144583
34.9579 25.1351 -0.012048
32.3063 22.3811 0.0139782
31.6648 25.5851 2
29.6032 27.2886 3.97419
30.0625 37.4875 3.89803
32.0652 37.4984 2
33.9654 37.4968 0.0269744
33.2058 49.1874 -0.00783916
32.2286 46.406 0.0413671
32.2062 39.2799 0.0955287
31.3032 43.7883 0.09539
31.1051 41.1787 0.0951019
31.097 48.0121 2
30.3281 39.4638 2
29.8662 41.9845 2
30.3665 44.9973 2
29.1197 46.5945 3.99861
28.953 39.8656 3.90582
28.6105 43.1911 3.96277
29.8185 49.7503 0.0146661
27.8229 48.2083 2
25.89 46.69 3.97839
26.4711 50.0154 0.0298444
24.6066 48.4981 2
22.7615 47.1085 3.97931
23.3084 50.2181 0.0266161
21.6185 48.8114 2
19.9561 47.6367 3.97817
20.4382 50.3324 0.027883
19.0088 49.107 2
17.6522 48.1896 3.97663
16.1283 48.6923 3.97801
16.8765 49.3425 2
15.8358 50.1796 3.97549
15.366 52.4252 3.97482
16.7574 51.4191 2
17.9674 50.3433 0.0263625
14.8596 54.9866 3.97729
16.3764 53.8829 2
17.8164 52.806 0.027119
14.4542 57.7472 3.98118
15.9685 56.4874 2
17.4253 55.3543 0.0227959
14.2642 60.6969 3.98427
15.746 59.2191 2
17.1285 57.8855 0.0189956
14.3323 63.8605 3.99184
15.7864 62.1433 2
17.1333 60.5577 0.0177148
14.6715 67.2507 4
16.0877 65.3013 2
17.406 63.4724 0.0126592
16.6661 68.6801 2
17.9414 66.6188 0.00683919
18.75 69.9759 0
18.9304 15.7737 3.98287
20.2169 14.586 2
18.9776 13.1014 3.98482
21.5848 13.5974 0.0154919
20.5283 11.9903 2
19.3416 10.2319 3.98888
19.9901 7.14583 3.99322
21.1422 9.14401 2
22.1887 11.0208 0.013765
20.9142 3.86727 4
22.0151 6.08118 2
23.0391 8.17459 0.010763
23.1494 2.85451 2
24.1165 5.14218 0.00658311
25.446 1.99014 0
30.3514 35.5386 3.89933
32.2105 35.7165 2
34.0073 35.8067 0.0279588
21.3023 15.819 0.0170374
22.094 16.6239 2
20.2993 16.9525 2
19.2377 18.4002 3.98208
21.7778 17.8405 3.98209
25.377 16.0759 0.0158215
23.2607 16.2397 0.0169014
24.2001 18.4383 2
22.2709 19.8817 3.98
24.5817 21.3092 3.98262
26.3977 23.7069 3.98036
27.005 21.4422 2
27.4359 18.7841 0.0151619
29.879 33.0097 3.90349
31.0974 33.7926 2
32.5732 34.1028 0.108742
32.2778 32.2766 0.0943935
33.0955 29.7978 0.0964409
35.0661 27.3195 0.0315595
32.4933 28.0442 2
31.2844 31.2031 2
30.0623 29.5102 3.97204
27.8437 26.5241 3.9725
28.776 24.3879 2
29.5678 21.9172 0.0074562
31.6627 25.5966 0.00352679
29.5972 27.252 2
28.6107 37.497 3.9104
30.0468 37.4901 2
32.0678 37.4993 0.097202
31.0956 48.0123 0.00036972
30.3818 44.9835 0.0400447
30.343 39.4547 0.103138
29.8778 41.9761 0.0958564
29.1216 46.6113 2
28.94 39.8725 2
28.5962 43.2 2
27.2081 44.8477 3.98403
26.73 40.6255 3.98944
27.8221 48.2139 0.0231586
25.8896 46.6907 2
23.9424 45.238 3.97482
24.6061 48.4982 0.0209484
22.7624 47.1074 2
20.8973 45.9183 3.97743
21.6177 48.8119 0.0257285
19.9568 47.6367 2
18.3009 46.7501 3.9767
19.0082 49.1069 0.0237405
17.6528 48.19 2
16.3198 47.7223 3.97731
16.1288 48.6926 2
15.1837 49.0229 3.97648
16.8759 49.3422 0.0236621
15.8362 50.1799 2
14.4807 50.9919 3.97526
13.8217 53.4412 3.97631
15.3662 52.4255 2
16.7571 51.4188 0.026146
13.2488 56.174 3.97963
14.8595 54.9872 2
16.3764 53.8825 0.0247575
12.8461 59.1305 3.98404
14.4542 57.7479 2
15.9686 56.4869 0.0205545
12.6778 62.3031 3.99056
14.2642 60.6973 2
15.7459 59.2185 0.0181061
12.7746 65.6939 4
14.332 63.8603 2
15.7864 62.1427 0.0145832
14.6714 67.2507 2
16.088 65.3013 0.00730068
16.6661 68.6801 0
17.6641 17.1494 3.98208
18.9304 15.7732 2
17.5091 14.3661 3.98378
20.2167 14.5863 0.0162579
18.9779 13.1009 2
17.6373 11.4508 3.98801
20.5279 11.9904 0.0143782
19.3418 10.2316 2
18.0502 8.33866 3.99318
18.75 5.0241 4
19.9897 7.14592 2
21.1422 9.1443 0.0108819
20.9142 3.86727 2
22.0155 6.08116 0.00671042
23.1494 2.85457 0
28.9522 35.1079 3.90437
30.3349 35.5337 2
32.2141 35.715 0.0958324
22.0938 16.6243 0.0181282
20.2993 16.9533 0.0169033
21.7778 17.8398 2
19.2378 18.3994 2
17.9728 19.9328 3.98062
20.8696 19.3688 3.98168
24.2 18.4382 0.0183908
22.2711 19.8809 2
24.5821 21.3097 2
22.3463 21.7069 3.98162
24.6787 23.1543 3.97966
25.4287 25.9346 3.97073
26.3989 23.7064 2
27.0048 21.4416 0.0145319
28.2592 32.2856 3.95121
29.8689 33.0078 2
31.1142 33.8122 0.0967451
31.2816 31.2048 0.0943686
32.5031 28.0517 0.0190879
30.0404 29.4981 2
26.9681 29.1162 3.98819
27.8396 26.5216 2
28.7757 24.3828 0.0127863
29.6032 27.2886 0.0258147
26.8381 37.3548 3.96622
28.5972 37.4929 2
30.0625 37.4875 0.101971
29.1197 46.5945 0.00138798
28.6105 43.1911 0.0372299
28.953 39.8656 0.0941781
27.21 44.8525 2
26.7226 40.6333 2
25.2002 43.1913 3.97079
23.9727 39.4295 3.97121
25.89 46.69 0.0216112
23.9377 45.2393 2
21.8586 43.9692 3.97734
22.7615 47.1085 0.020686
20.8975 45.918 2
18.9561 44.9823 3.97555
19.9561 47.6367 0.0218278
18.3014 46.7505 2
16.6106 46.2212 3.97316
17.6522 48.1896 0.0233746
16.3202 47.7227 2
14.915 47.6766 3.97532
16.1283 48.6923 0.021987
15.1842 49.0233 2
13.7799 49.5513 3.97525
15.8358 50.1796 0.0245149
14.481 50.9923 2
12.8892 51.8786 3.9759
12.1364 54.5312 3.97845
13.8218 53.4417 2
15.366 52.4252 0.0251756
11.5304 57.462 3.98302
13.2486 56.1748 2
14.8596 54.9866 0.0227055
11.1323 60.6291 3.9894
12.8461 59.1309 2
14.4542 57.7472 0.0188194
10.9835 64.0165 4
12.6774 62.3028 2
14.2642 60.6969 0.0157315
12.7745 65.694 2
14.3323 63.8605 0.00815566
14.6715 67.2507 0
16.3959 18.6436 3.98143
17.6641 17.1488 2
16.0999 15.7752 3.98341
18.9304 15.7737 0.0171333
17.5093 14.3653 2
16.0191 12.8045 3.98624
18.9776 13.1014 0.0151831
17.6375 11.4503 2
16.2014 9.66182 3.99289
19.3416 10.2319 0.0111185
18.0499 8.3388 2
16.6661 6.31991 4
18.75 5.02404 2
19.9901 7.14583 0.00677837
20.9142 3.86727 0
27.3453 34.7454 3.95286
28.9367 35.1024 2
30.3514 35.5386 0.100666
16.6725 21.3693 3.97757
21.7778 17.8405 0.0179051
19.2377 18.4002 0.0179155
20.8697 19.368 2
17.9729 19.9321 2
19.7138 21.5626 3.98347
22.2709 19.8817 0.0200004
24.5817 21.3092 0.0173752
22.3468 21.7056 2
24.6788 23.1542 2
22.8258 24.5904 3.97397
24.5104 28.5129 3.96734
25.4262 25.9326 2
26.3977 23.7069 0.0196356
26.1014 31.6891 3.99186
28.2471 32.2757 2
29.879 33.0097 0.096506
30.0623 29.5102 0.0279591
26.9747 29.1165 2
27.8437 26.5241 0.0274976
24.6548 36.8539 3.97906
26.8296 37.3588 2
28.6107 37.497 0.0896033
27.2081 44.8477 0.0159723
26.73 40.6255 0.0105615
25.1963 43.1946 2
23.9679 39.4313 2
22.9167 41.8101 3.97898
21.6954 38.5 3.97311
23.9424 45.238 0.0251838
21.8606 43.9705 2
19.7031 42.8967 3.97517
20.8973 45.9183 0.0225726
18.956 44.9826 2
16.935 44.3864 3.97293
18.3009 46.7501 0.0232966
16.6109 46.2216 2
14.8355 46.0962 3.9725
16.3198 47.7223 0.0226889
14.9154 47.677 2
13.2885 48.0123 3.97396
15.1837 49.0229 0.0235173
13.7804 49.5516 2
12.1094 50.2556 3.97536
14.4807 50.9919 0.0247379
12.8895 51.8791 2
11.1325 52.8389 3.97762
10.321 55.7129 3.98184
12.1364 54.5319 2
13.8217 53.4412 0.0236911
9.69878 58.8512 3.98816
11.5302 57.4627 2
13.2488 56.174 0.0203723
9.30605 62.2254 4
11.1318 60.6288 2
12.8461 59.1305 0.0159645
10.9835 64.0165 2
12.6778 62.3031 0.00943934
12.7746 65.6939 0
15.1404 20.1784 3.97905
16.396 18.643 2
14.7451 17.298 3.98216
17.6641 17.1494 0.0179223
16.0999 15.7743 2
14.4815 14.2865 3.98506
17.5091 14.3661 0.0162193
16.0192 12.8037 2
14.4442 11.113 3.99232
17.6373 11.4508 0.0119918
16.2011 9.66191 2
14.6715 7.74927 4
18.0502 8.33866 0.00681933
16.6661 6.31988 2
18.75 5.0241 0
25.2962 34.2539 3.98756
27.3359 34.7444 2
28.9522 35.1079 0.0956324
17.845 22.3143 3.98417
15.518 22.9135 3.97468
16.6726 21.3685 2
20.8696 19.3688 0.0183196
17.9728 19.9328 0.0193779
19.714 21.5617 2
19.6481 24.3681 3.97695
22.3463 21.7069 0.0183752
24.6787 23.1543 0.0203432
22.824 24.5886 2
21.8849 27.8081 3.96912
23.6832 31.1733 3.97168
24.5142 28.5126 2
25.4287 25.9346 0.0292717
26.1032 31.6832 2
28.2592 32.2856 0.0487921
26.9681 29.1162 0.0118149
22.4249 36.2694 3.9754
24.6483 36.8536 2
26.8381 37.3548 0.0337767
25.2002 43.1913 0.0292055
23.9727 39.4295 0.0287886
22.9152 41.8113 2
21.6957 38.5007 2
20.6495 40.6349 3.97446
20.0472 37.7801 3.97511
21.8586 43.9692 0.0226623
19.7037 42.8972 2
17.3306 42.1043 3.97348
18.9561 44.9823 0.0244515
16.935 44.3868 2
14.8337 44.2049 3.97243
16.6106 46.2212 0.0268368
14.8357 46.0966 2
12.9608 46.2987 3.97267
14.915 47.6766 0.0246839
13.2889 48.0127 2
11.4823 48.5513 3.97402
13.7799 49.5513 0.0247541
12.1098 50.256 2
10.2591 51.0813 3.97672
12.8892 51.8786 0.0240995
11.1327 52.8394 2
9.23007 53.8901 3.98097
8.38234 56.9832 3.98717
10.3209 55.7136 2
12.1364 54.5312 0.0215485
7.74927 60.3285 4
9.6982 58.8505 2
11.5304 57.462 0.0169814
9.306 62.2255 2
11.1323 60.6291 0.0106029
10.9835 64.0165 0
13.9528 21.7457 3.97688
15.1405 20.1776 2
13.4455 18.8953 3.98063
16.3959 18.6436 0.0185715
14.7452 17.2971 2
13.0267 15.8793 3.98433
16.0999 15.7752 0.0165862
14.4816 14.2857 2
12.7816 12.6862 3.9913
16.0191 12.8045 0.0137587
14.4439 11.1131 2
12.7746 9.30605 4
16.2014 9.66182 0.00710992
14.6715 7.74924 2
16.6661 6.31991 0
23.002 33.79 3.97389
25.2881 34.2521 2
27.3453 34.7454 0.0471437
17.6146 24.0335 3.9767
17.8449 22.3133 2
14.3012 24.4457 3.97358
15.5176 22.9124 2
16.6725 21.3693 0.0224318
19.0132 27.1873 3.96774
19.7138 21.5626 0.0165341
19.6468 24.3677 2
21.1272 30.6494 3.97111
22.8258 24.5904 0.0260318
21.8859 27.8079 2
23.6768 31.1735 2
24.5104 28.5129 0.032655
26.1014 31.6891 0.0081397
20.185 35.9163 3.97403
22.4225 36.2705 2
24.6548 36.8539 0.0209406
22.9167 41.8101 0.0210248
21.6954 38.5 0.0268894
20.6465 40.6356 2
20.046 37.7804 2
18.0283 39.0014 3.97359
19.7031 42.8967 0.0248347
17.3309 42.1047 2
14.7828 41.9205 3.97217
16.935 44.3864 0.0270671
14.8337 44.2052 2
12.6987 44.3948 3.97274
14.8355 46.0962 0.0275018
12.961 46.2991 2
10.9845 46.7348 3.97306
13.2885 48.0123 0.0260375
11.4827 48.5518 2
9.52358 49.2401 3.97532
12.1094 50.2556 0.0246353
10.2595 51.0817 2
8.2635 52.0022 3.98002
11.1325 52.8389 0.0223753
9.23021 53.8904 2
7.19138 55.0327 3.98675
6.31991 58.3339 4
8.3817 56.9819 2
10.321 55.7129 0.0181578
7.74924 60.3285 2
9.69878 58.8512 0.0118425
9.30605 62.2254 0
13.2227 25.3587 3.97894
12.8207 23.2756 3.97567
13.9526 21.7445 2
12.2309 20.5449 3.97932
15.1404 20.1784 0.020954
13.4455 18.8943 2
11.6562 17.5604 3.98377
14.7451 17.298 0.0178387
13.0268 15.8786 2
11.219 14.371 3.98994
14.4815 14.2865 0.014939
12.7813 12.6864 2
10.9835 10.9835 4
14.4442 11.113 0.00768422
12.7745 9.306 2
14.6715 7.74927 0
20.5577 33.3841 3.9731
23.0006 33.7908 2
25.2962 34.2539 0.0124407
15.8891 26.3938 3.9713
17.6138 24.0328 2
17.845 22.3143 0.0158259
14.3009 24.4452 2
15.518 22.9135 0.0253241
18.3548 30.1608 3.96987
19.0133 27.1872 2
19.6481 24.3681 0.0230503
21.1248 30.6491 2
21.8849 27.8081 0.030884
23.6832 31.1733 0.0283197
17.6737 35.9602 3.97312
20.184 35.9165 2
22.4249 36.2694 0.0246029
20.6495 40.6349 0.0255415
20.0472 37.7801 0.0248865
18.0274 39.0016 2
14.3009 39.1763 3.97186
17.3306 42.1043 0.0265177
14.7829 41.9208 2
12.3873 42.2783 3.9713
14.8337 44.2049 0.0275654
12.6988 44.3952 2
10.5603 44.8039 3.97337
12.9608 46.2987 0.02733
10.9847 46.7352 2
8.90666 47.3189 3.97437
11.4823 48.5513 0.0259843
9.52393 49.2405 2
7.43123 50.0347 3.97861
10.2591 51.0813 0.0232768
8.26384 52.0022 2
6.13209 53.0066 3.98662
9.23007 53.8901 0.019028
7.1909 55.0309 2
5.0241 56.25 4
6.31988 58.3339 2
8.38234 56.9832 0.0128314
7.74927 60.3285 0
13.461 26.8092 3.97187
11.9356 24.7853 3.97467
13.2225 25.3582 2
11.1346 22.2309 3.9777
12.8206 23.2748 2
13.9528 21.7457 0.023116
12.2308 20.5437 2
10.3863 19.3158 3.98288
13.4455 18.8953 0.0193745
11.6562 17.5595 2
9.75974 16.1547 3.98864
13.0267 15.8793 0.0156743
11.2186 14.3712 2
9.30607 12.7746 4
12.7816 12.6862 0.00869671
10.9835 10.9835 2
12.7746 9.30605 0
17.8355 33.1033 3.9721
20.557 33.3842 2
23.002 33.79 0.0261054
15.4742 29.6298 3.9715
15.8887 26.3936 2
17.6146 24.0335 0.0232968
14.3012 24.4457 0.0264182
18.3549 30.1609 2
19.0132 27.1873 0.0322555
21.1272 30.6494 0.0288883
14.909 36.0157 3.97228
17.6737 35.9604 2
20.185 35.9163 0.0259668
12.5947 37.8288 3.9718
18.0283 39.0014 0.0264132
14.301 39.1765 2
11.9047 40.1412 3.97067
14.7828 41.9205 0.0278295
12.3874 42.2786 2
10.1605 42.7791 3.97178
12.6987 44.3948 0.0272646
10.5604 44.8043 2
8.38404 45.3213 3.97449
10.9845 46.7348 0.0269384
8.90689 47.3193 2
6.7231 47.9996 3.9776
9.52358 49.2401 0.024676
7.43155 50.0347 2
5.20915 50.9092 3.98629
8.2635 52.0022 0.01998
6.13189 53.0049 2
3.86727 54.0858 4
7.19138 55.0327 0.0132542
5.02404 56.25 2
6.31991 58.3339 0
12.9146 29.0282 3.97015
11.3668 26.4857 3.97299
13.4608 26.8089 2
10.1951 23.9661 3.97575
11.9355 24.7847 2
13.2227 25.3587 0.021061
9.23893 21.1359 3.98126
11.1346 22.2299 2
12.8207 23.2756 0.0243279
12.2309 20.5449 0.0206779
10.3863 19.3147 2
8.41551 18.0263 3.98777
11.6562 17.5604 0.0162288
9.75927 16.155 2
7.74928 14.6715 4
11.219 14.371 0.0100573
9.30602 12.7745 2
10.9835 10.9835 0
14.4752 32.8579 3.97198
17.8378 33.1034 2
20.5577 33.3841 0.0269014
15.4743 29.6297 2
15.8891 26.3938 0.0286963
18.3548 30.1608 0.0301341
12.8885 36.2076 3.97136
14.9096 36.0158 2
17.6737 35.9602 0.0268816
12.5951 37.8289 2
11.2623 38.3096 3.97111
14.3009 39.1763 0.0281431
11.9049 40.1414 2
9.74891 40.7547 3.97021
12.3873 42.2783 0.0287016
10.1605 42.7794 2
7.93376 43.2701 3.97317
10.5603 44.8039 0.0266296
8.38413 45.3216 2
6.1292 45.9049 3.97759
8.90666 47.3189 0.0256251
6.72332 47.9996 2
4.42103 48.7499 3.98591
7.43123 50.0347 0.0213881
5.20908 50.908 2
2.85457 51.8506 4
6.13209 53.0066 0.013377
3.86727 54.0858 2
5.0241 56.25 0
12.0572 31.2531 3.97084
10.7788 28.4129 3.97214
12.9146 29.0281 2
9.41112 25.7975 3.97439
11.3666 26.4853 2
13.461 26.8092 0.0281271
8.22694 23.0224 3.97918
10.1953 23.9655 2
11.9356 24.7853 0.025335
7.1977 19.9772 3.98696
9.23906 21.1351 2
11.1346 22.2309 0.0223035
10.3863 19.3158 0.0171239
8.41492 18.0272 2
6.31992 16.6661 4
9.75974 16.1547 0.0113567
7.74926 14.6714 2
9.30607 12.7746 0
12.0794 34.2926 3.97132
14.4751 32.8579 2
17.8355 33.1033 0.0278976
15.4742 29.6298 0.0285008
10.8266 36.6104 3.97112
12.8892 36.2077 2
14.909 36.0157 0.0277176
12.5947 37.8288 0.0281964
11.2625 38.3097 2
9.3444 38.8235 3.97053
11.9047 40.1412 0.029335
9.74906 40.7549 2
7.54736 41.2108 3.97143
10.1605 42.7791 0.028215
7.93378 43.2704 2
5.64149 43.768 3.97715
8.38404 45.3213 0.0255104
6.1293 45.9049 2
3.7668 46.5362 3.98584
6.7231 47.9996 0.0223981
4.42104 48.7494 2
1.99014 49.554 4
5.20915 50.9092 0.0137069
2.85451 51.8506 2
3.86727 54.0858 0
10.9185 32.9171 3.97151
10.0929 30.3805 3.97126
12.057 31.253 2
8.71931 27.7313 3.97384
10.7788 28.4128 2
12.9146 29.0282 0.029851
7.3532 24.9824 3.97783
9.41113 25.7971 2
11.3668 26.4857 0.0270079
6.11487 22.0021 3.98616
8.2272 23.0221 2
10.1951 23.9661 0.0242529
5.02411 18.75 4
7.19725 19.9786 2
9.23893 21.1359 0.018739
8.41551 18.0263 0.0122275
6.3199 16.6661 2
7.74928 14.6715 0
10.4355 34.9991 3.9712
12.0793 34.2926 2
14.4752 32.8579 0.0280227
9.0161 36.9848 3.97056
10.8273 36.6105 2
12.8885 36.2076 0.0286427
11.2623 38.3096 0.0288939
9.34445 38.8237 2
7.22908 39.1815 3.97145
9.74891 40.7547 0.0297897
7.5475 41.2109 2
5.25826 41.6136 3.97526
7.93376 43.2701 0.026826
5.64149 43.768 2
3.2447 44.2816 3.98535
6.1292 45.9049 0.0224111
3.76685 46.5362 2
1.27781 47.2057 4
4.42103 48.7499 0.0140949
1.99012 49.554 2
2.85457 51.8506 0
10.0861 33.8805 3.97143
9.38623 32.1529 3.97218
10.9185 32.917 2
8.06932 29.6952 3.97282
10.0928 30.3803 2
12.0572 31.2531 0.0291642
6.59715 27.0087 3.9773
8.71931 27.7311 2
10.7788 28.4129 0.0278598
5.17041 24.0958 3.9858
7.35334 24.9823 2
9.41112 25.7975 0.0256141
3.86728 20.9142 4
6.11471 22.0035 2
8.22694 23.0224 0.0208175
5.02406 18.75 2
7.1977 19.9772 0.0130363
6.31992 16.6661 0
8.84278 35.2789 3.97063
10.4355 34.9991 2
12.0794 34.2926 0.0286766
7.01287 37.2056 3.97154
9.01612 36.9848 2
10.8266 36.6104 0.0288767
9.3444 38.8235 0.0294731
7.22914 39.1816 2
4.98703 39.467 3.97428
7.54736 41.2108 0.0285684
5.25838 41.6136 2
2.8557 42.0021 3.98385
5.64149 43.768 0.0228521
3.24472 44.2819 2
0.720592 44.8159 4
3.7668 46.5362 0.0141567
1.27778 47.2057 2
1.99014 49.554 0
8.88327 33.6968 3.97158
10.086 33.8805 2
7.50744 31.6089 3.97316
9.38614 32.1528 2
10.9185 32.9171 0.0284857
5.94284 29.0698 3.97656
8.06924 29.6951 2
10.0929 30.3805 0.028742
4.35824 26.2484 3.98565
6.59722 27.0087 2
8.71931 27.7313 0.0261572
2.85458 23.1494 4
5.17031 24.0967 2
7.3532 24.9824 0.0221701
3.86728 20.9142 2
6.11487 22.0021 0.0138382
5.02411 18.75 0
6.9634 35.3058 3.9713
8.84288 35.2789 2
10.4355 34.9991 0.0288044
4.83718 37.3396 3.97472
7.0129 37.2057 2
9.0161 36.9848 0.0294368
7.22908 39.1815 0.0285527
4.98707 39.467 2
2.60419 39.7139 3.98272
5.25826 41.6136 0.0247422
2.85586 42.0025 2
0.320823 42.3947 4
3.2447 44.2816 0.0146492
0.720551 44.8159 2
1.27781 47.2057 0
7.12213 33.4607 3.97269
8.88324 33.6967 2
10.0861 33.8805 0.0285693
5.41429 31.1338 3.97623
7.50731 31.6089 2
9.38623 32.1529 0.0278223
3.68024 28.4441 3.98515
5.9428 29.07 2
8.06932 29.6952 0.0271813
1.99015 25.446 4
4.3582 26.2489 2
6.59715 27.0087 0.0226966
2.85453 23.1494 2
5.17041 24.0958 0.0141986
3.86728 20.9142 0
4.85166 35.2516 3.97459
6.9635 35.3059 2
8.84278 35.2789 0.0293663
2.49559 37.4285 3.98307
4.83722 37.3398 2
7.01287 37.2056 0.0284563
4.98703 39.467 0.0257165
2.60427 39.7144 2
0.080333 39.9526 4
2.8557 42.0021 0.0161541
0.320817 42.3947 2
0.720592 44.8159 0
5.04432 33.1904 3.9757
7.1221 33.4606 2
8.88327 33.6968 0.0284163
3.14487 30.6664 3.98434
5.41416 31.134 2
7.50744 31.6089 0.0268431
1.27793 27.7943 4
3.68023 28.4442 2
5.94284 29.0698 0.0234399
1.99013 25.446 2
4.35824 26.2484 0.014346
2.85458 23.1494 0
2.54779 35.159 3.98299
4.85176 35.2518 2
6.9634 35.3058 0.0286999
0 37.5 4
2.4957 37.429 2
4.83718 37.3396 0.0252844
2.60419 39.7139 0.017275
0.0802903 39.9526 2
0.320823 42.3947 0
2.76515 32.9058 3.98365
5.04428 33.1906 2
7.12213 33.4607 0.0273068
0.721173 30.1842 4
3.14484 30.6665 2
5.41429 31.1338 0.0237679
1.27779 27.7943 2
3.68024 28.4441 0.0148469
1.99015 25.446 0
0.0806499 35.0474 4
2.54792 35.1595 2
4.85166 35.2516 0.0254128
0 37.5 2
2.49559 37.4285 0.0169265
0.080333 39.9526 0
0.32156 32.6054 4
2.76518 32.9061 2
5.04432 33.1904 0.0243005
0.72056 30.1841 2
3.14487 30.6664 0.01566
1.27793 27.7943 0
0.0802889 35.0474 2
2.54779 35.159 0.0170117
0 37.5 0
0.320817 32.6053 2
2.76515 32.9058 0.0163501
0.721173 30.1842 0
0.0806499 35.0474 0
0.32156 32.6054 0
CELLS 1910 17190
8 18 6 25 56 2 0 5 16
8 57 23 6 18 17 4 0 2
8 78 36 9 29 31 11 1 7
8 31 11 1 7 79 37 10 30
8 110 57 18 50 48 17 2 14
8 50 18 56 111 14 2 16 49
8 116 62 22 55 52 20 3 15
8 56 25 67 118 16 5 24 53
8 119 63 23 57 54 21 4 17
8 55 22 63 119 15 3 21 54
8 58 26 68 121 18 6 25 56
8 122 65 26 58 57 23 6 18
8 73 31 7 27 142 79 30 71
8 143 78 29 72 73 31 7 27
8 83 147 76 34 32 74 28 8
8 84 148 78 36 33 75 29 9
8 76 34 8 28 148 84 33 75
8 37 79 150 86 10 30 77 35
8 151 87 36 78 80 38 11 31
8 80 38 11 31 152 88 37 79
8 175 100 42 94 96 44 12 40
8 44 96 176 101 12 40 95 43
8 101 176 98 46 43 95 41 13
8 46 98 178 103 13 41 97 45
8 178 103 45 97 147 83 32 74
8 189 116 55 109 106 52 15 47
8 111 56 118 191 49 16 53 107
8 192 119 57 110 108 54 17 48
8 109 55 119 192 47 15 54 108
8 194 122 58 112 110 57 18 50
8 112 58 121 195 50 18 56 111
8 115 61 19 51 197 124 59 113
8 115 61 125 198 51 19 60 114
8 198 125 62 116 114 60 20 52
8 200 127 64 120 116 62 22 55
8 118 67 132 202 53 24 66 117
8 121 68 133 203 56 25 67 118
8 120 64 128 204 55 22 63 119
8 204 128 65 122 119 63 23 57
8 206 134 68 121 123 69 26 58
8 123 69 26 58 207 131 65 122
8 226 147 74 138 140 76 28 70
8 229 148 75 139 143 78 29 72
8 140 76 28 70 229 148 75 139
8 142 79 30 71 231 150 77 141
8 144 80 31 73 232 152 79 142
8 233 151 78 143 144 80 31 73
8 150 86 35 77 235 154 81 145
8 235 154 81 145 146 82 39 91
8 146 82 39 91 236 155 90 165
8 238 157 83 147 149 85 34 76
8 239 158 84 148 151 87 36 78
8 149 85 34 76 239 158 84 148
8 152 88 37 79 241 160 86 150
8 242 161 87 151 153 89 38 80
8 153 89 38 80 243 162 88 152
8 171 98 41 92 265 178 97 169
8 265 178 97 169 226 147 74 138
8 172 96 40 93 266 176 95 170
8 266 176 95 170 171 98 41 92
8 269 175 94 173 172 96 40 93
8 271 180 99 174 175 100 42 94
8 197 124 59 113 271 180 99 174
8 272 181 100 175 177 102 44 96
8 273 182 101 176 179 104 46 98
8 177 102 44 96 273 182 101 176
8 179 104 46 98 275 184 103 178
8 275 184 103 178 238 157 83 147
8 188 115 51 105 283 197 113 186
8 188 115 198 284 105 51 114 187
8 284 198 116 189 187 114 52 106
8 286 200 120 193 189 116 55 109
8 191 118 202 288 107 53 117 190
8 195 121 203 289 111 56 118 191
8 193 120 204 290 109 55 119 192
8 290 204 122 194 192 119 57 110
8 196 123 58 112 292 207 122 194
8 293 206 121 195 196 123 58 112
8 199 126 61 115 297 211 124 197
8 298 212 127 200 198 125 62 116
8 199 126 212 298 115 61 125 198
8 205 129 64 120 300 214 127 200
8 301 217 130 201 202 132 66 117
8 209 136 168 264 301 217 130 201
8 302 219 132 202 203 133 67 118
8 303 220 133 203 206 134 68 121
8 205 129 215 304 120 64 128 204
8 304 215 131 207 204 128 65 122
8 306 221 134 206 208 135 69 123
8 208 135 69 123 307 218 131 207
8 210 137 167 263 309 223 136 209
8 328 238 147 226 230 149 76 140
8 228 146 91 166 329 236 165 260
8 231 150 77 141 330 235 145 227
8 330 235 145 227 228 146 91 166
8 332 239 148 229 233 151 78 143
8 230 149 76 140 332 239 148 229
8 232 152 79 142 334 241 150 231
8 234 153 80 144 335 243 152 232
8 336 242 151 233 234 153 80 144
8 236 155 90 165 338 245 164 259
8 241 160 86 150 339 246 154 235
8 339 246 154 235 237 156 82 146
8 237 156 82 146 340 247 155 236
8 342 249 157 238 240 159 85 149
8 343 250 158 239 242 161 87 151
8 240 159 85 149 343 250 158 239
8 243 162 88 152 345 252 160 241
8 244 163 253 346 153 89 161 242
8 244 163 89 153 347 254 162 243
8 311 224 261 371 210 137 167 263
8 263 167 262 372 209 136 168 264
8 267 179 98 171 375 275 178 265
8 375 275 178 265 328 238 147 226
8 376 273 176 266 267 179 98 171
8 268 177 96 172 376 273 176 266
8 379 272 175 269 268 177 96 172
8 380 271 174 270 269 175 94 173
8 283 197 113 186 380 271 174 270
8 381 277 180 271 272 181 100 175
8 297 211 124 197 381 277 180 271
8 382 278 181 272 274 183 102 177
8 274 183 102 177 383 279 182 273
8 383 279 182 273 276 185 104 179
8 385 281 184 275 342 249 157 238
8 276 185 104 179 385 281 184 275
8 285 199 115 188 393 297 197 283
8 394 298 200 286 284 198 116 189
8 285 199 298 394 188 115 198 284
8 291 205 120 193 396 300 200 286
8 397 301 201 287 288 202 117 190
8 295 209 264 374 397 301 201 287
8 398 302 202 288 289 203 118 191
8 399 303 203 289 293 206 121 195
8 291 205 304 400 193 120 204 290
8 400 304 207 292 290 204 122 194
8 294 208 123 196 402 307 207 292
8 403 306 206 293 294 208 123 196
8 296 210 263 373 405 309 209 295
8 408 312 213 299 297 211 126 199
8 299 213 313 409 199 126 212 298
8 409 313 214 300 298 212 127 200
8 305 216 129 205 411 315 214 300
8 412 318 217 301 302 219 132 202
8 309 223 136 209 412 318 217 301
8 413 320 219 302 303 220 133 203
8 306 221 321 414 206 134 220 303
8 307 218 131 207 415 316 215 304
8 305 216 316 415 205 129 215 304
8 417 322 221 306 308 222 135 208
8 308 222 135 208 418 319 218 307
8 310 225 137 210 420 325 223 309
8 423 326 224 311 310 225 137 210
8 329 236 165 260 441 338 259 368
8 442 342 238 328 333 240 149 230
8 331 237 146 228 443 340 236 329
8 334 241 150 231 444 339 235 330
8 444 339 235 330 331 237 146 228
8 446 343 239 332 336 242 151 233
8 333 240 149 230 446 343 239 332
8 335 243 152 232 448 345 241 334
8 337 244 153 234 449 347 243 335
8 337 244 346 450 234 153 242 336
8 338 245 164 259 452 349 258 367
8 340 247 155 236 453 350 245 338
8 345 252 160 241 454 351 246 339
8 454 351 246 339 341 248 156 237
8 341 248 156 237 455 352 247 340
8 240 159 251 344 342 249 354 457
8 242 161 253 346 343 250 355 458
8 343 250 355 458 240 159 251 344
8 347 254 162 243 460 357 252 345
8 348 255 358 461 244 163 253 346
8 348 255 163 244 462 359 254 347
8 473 360 257 365 363 256 364 482
8 452 349 258 367 365 257 366 485
8 422 324 369 488 311 224 261 371
8 371 261 370 490 263 167 262 372
8 407 311 371 491 296 210 263 373
8 373 263 372 492 295 209 264 374
8 493 385 275 375 442 342 238 328
8 377 276 179 267 493 385 275 375
8 378 274 177 268 494 383 273 376
8 494 383 273 376 377 276 179 267
8 497 382 272 379 378 274 177 268
8 498 381 271 380 379 272 175 269
8 393 297 197 283 498 381 271 380
8 499 387 277 381 382 278 181 272
8 408 312 211 297 499 387 277 381
8 500 388 278 382 384 280 183 274
8 501 389 279 383 386 282 185 276
8 384 280 183 274 501 389 279 383
8 386 282 185 276 503 391 281 385
8 503 391 281 385 457 354 249 342
8 511 408 299 395 393 297 199 285
8 395 299 409 512 285 199 298 394
8 512 409 300 396 394 298 200 286
8 401 305 205 291 514 411 300 396
8 515 412 301 397 398 302 202 288
8 405 309 209 295 515 412 301 397
8 516 413 302 398 399 303 203 289
8 403 306 414 517 293 206 303 399
8 402 307 207 292 518 415 304 400
8 401 305 415 518 291 205 304 400
8 404 308 208 294 520 418 307 402
8 521 417 306 403 404 308 208 294
8 406 310 210 296 523 420 309 405
8 526 423 311 407 406 310 210 296
8 410 314 213 299 527 424 312 408
8 528 425 315 411 409 313 214 300
8 410 314 425 528 299 213 313 409
8 416 317 216 305 530 427 315 411
8 531 430 318 412 413 320 219 302
8 420 325 223 309 531 430 318 412
8 532 432 320 413 414 321 220 303
8 417 322 433 533 306 221 321 414
8 418 319 218 307 534 428 316 415
8 416 317 428 534 305 216 316 415
8 419 323 434 536 308 222 322 417
8 419 323 222 308 537 431 319 418
8 421 327 225 310 539 438 325 420
8 421 327 439 541 310 225 326 423
8 543 437 324 422 423 326 224 311
8 441 338 259 368 559 452 367 486
8 443 340 236 329 560 453 338 441
8 333 240 344 447 442 342 457 561
8 445 341 237 331 562 455 340 443
8 448 345 241 334 563 454 339 444
8 563 454 339 444 445 341 237 331
8 336 242 346 450 446 343 458 565
8 446 343 458 565 333 240 344 447
8 449 347 243 335 567 460 345 448
8 451 348 244 337 568 462 347 449
8 451 348 461 569 337 244 346 450
8 570 463 349 452 473 360 257 365
8 453 350 245 338 570 463 349 452
8 455 352 247 340 571 464 350 453
8 460 357 252 345 572 465 351 454
8 572 465 351 454 456 353 248 341
8 456 353 248 341 573 466 352 455
8 344 251 356 459 457 354 468 575
8 458 355 469 576 344 251 356 459
8 346 253 358 461 458 355 469 576
8 462 359 254 347 578 471 357 460
8 348 255 359 462 461 358 472 579
8 591 474 360 473 475 361 256 363
8 475 361 256 363 594 477 362 479
8 363 256 364 482 479 362 480 603
8 590 473 365 484 481 363 482 605
8 482 364 257 365 606 483 366 485
8 559 452 367 486 484 365 485 607
8 542 436 487 609 422 324 369 488
8 525 422 488 611 407 311 371 491
8 488 369 489 612 371 261 370 490
8 491 371 490 613 373 263 372 492
8 495 386 276 377 614 503 385 493
8 614 503 385 493 561 457 342 442
8 615 501 383 494 495 386 276 377
8 496 384 274 378 615 501 383 494
8 618 500 382 497 496 384 274 378
8 619 499 381 498 497 382 272 379
8 511 408 297 393 619 499 381 498
8 620 505 387 499 500 388 278 382
8 527 424 312 408 620 505 387 499
8 502 390 506 621 384 280 388 500
8 622 507 389 501 504 392 282 386
8 502 390 280 384 622 507 389 501
8 504 392 282 386 624 509 391 503
8 624 509 391 503 575 468 354 457
8 513 410 299 395 630 527 408 511
8 631 528 411 514 512 409 300 396
8 513 410 528 631 395 299 409 512
8 519 416 305 401 633 530 411 514
8 634 531 412 515 516 413 302 398
8 523 420 309 405 634 531 412 515
8 635 532 413 516 517 414 303 399
8 521 417 533 636 403 306 414 517
8 520 418 307 402 637 534 415 518
8 519 416 534 637 401 305 415 518
8 522 419 308 404 639 537 418 520
8 522 419 536 640 404 308 417 521
8 524 421 310 406 642 539 420 523
8 524 421 541 644 406 310 423 526
8 646 543 422 525 526 423 311 407
8 529 426 314 410 647 544 424 527
8 528 425 545 648 411 315 427 530
8 529 426 545 648 410 314 425 528
8 535 429 317 416 649 546 427 530
8 650 548 430 531 532 432 320 413
8 539 438 325 420 650 548 430 531
8 533 433 550 651 414 321 432 532
8 536 434 551 652 417 322 433 533
8 537 431 319 418 653 547 428 534
8 535 429 547 653 416 317 428 534
8 538 435 552 654 419 323 434 536
8 538 435 323 419 655 549 431 537
8 540 440 327 421 657 556 438 539
8 540 440 557 659 421 327 439 541
8 541 439 555 660 423 326 437 543
8 661 554 436 542 543 437 324 422
8 676 570 452 559 590 473 365 484
8 560 453 338 441 676 570 452 559
8 562 455 340 443 677 571 453 560
8 447 344 459 566 561 457 575 678
8 564 456 341 445 679 573 455 562
8 567 460 345 448 680 572 454 563
8 680 572 454 563 564 456 341 445
8 565 458 576 682 447 344 459 566
8 450 346 461 569 565 458 576 682
8 568 462 347 449 684 578 460 567
8 451 348 462 568 569 461 579 685
8 686 580 463 570 591 474 360 473
8 571 464 350 453 686 580 463 570
8 573 466 352 455 687 581 464 571
8 572 465 582 688 460 357 471 578
8 574 467 582 688 456 353 465 572
8 574 467 353 456 689 583 466 573
8 459 356 470 577 575 468 585 691
8 576 469 586 692 459 356 470 577
8 461 358 472 579 576 469 586 692
8 462 359 471 578 579 472 588 694
8 704 591 473 590 593 475 363 481
8 595 476 592 705 475 361 474 591
8 593 475 363 481 707 594 479 602
8 594 477 362 479 709 598 478 600
8 595 476 361 475 711 597 477 594
8 479 362 480 603 600 478 601 720
8 481 363 482 605 602 479 603 722
8 603 480 364 482 723 604 483 606
8 605 482 365 484 724 606 485 607
8 656 553 608 726 542 436 487 609
8 645 542 609 728 525 422 488 611
8 609 487 610 729 488 369 489 612
8 611 488 612 730 491 371 490 613
8 616 504 386 495 731 624 503 614
8 731 624 503 614 678 575 457 561
8 732 622 501 615 616 504 386 495
8 617 502 384 496 732 622 501 615
8 617 502 621 735 496 384 500 618
8 736 620 499 619 618 500 382 497
8 630 527 408 511 736 620 499 619
8 621 506 626 737 500 388 505 620
8 647 544 424 527 737 626 505 620
8 623 508 627 738 502 390 506 621
8 623 508 390 502 739 628 507 622
8 625 510 628 739 504 392 507 622
8 740 629 509 624 691 585 468 575
8 625 510 392 504 740 629 509 624
8 632 529 410 513 744 647 527 630
8 631 528 648 745 514 411 530 633
8 632 529 648 745 513 410 528 631
8 638 535 416 519 746 649 530 633
8 747 650 531 634 635 532 413 516
8 642 539 420 523 747 650 531 634
8 636 533 651 748 517 414 532 635
8 640 536 652 749 521 417 533 636
8 639 537 418 520 750 653 534 637
8 638 535 653 750 519 416 534 637
8 641 538 419 522 751 655 537 639
8 641 538 654 752 522 419 536 640
8 643 540 421 524 753 657 539 642
8 643 540 659 755 524 421 541 644
8 644 541 660 757 526 423 543 646
8 758 661 542 645 646 543 422 525
8 529 426 544 647 648 545 662 759
8 530 427 545 648 649 546 663 760
8 535 429 546 649 653 547 664 761
8 762 666 548 650 651 550 432 532
8 657 556 438 539 762 666 548 650
8 652 551 668 763 533 433 550 651
8 654 552 669 764 536 434 551 652
8 655 549 431 537 765 665 547 653
8 538 435 549 655 654 552 667 766
8 661 554 671 768 542 436 553 656
8 658 558 440 540 769 674 556 657
8 658 558 675 770 540 440 557 659
8 659 557 673 771 541 439 555 660
8 660 555 672 772 543 437 554 661
8 788 686 570 676 704 591 473 590
8 677 571 453 560 788 686 570 676
8 679 573 455 562 789 687 571 677
8 566 459 577 683 678 575 691 790
8 681 574 456 564 791 689 573 679
8 680 572 688 792 567 460 578 684
8 681 574 688 792 564 456 572 680
8 682 576 692 794 566 459 577 683
8 569 461 579 685 682 576 692 794
8 568 462 578 684 685 579 694 796
8 687 581 464 571 798 696 580 686
8 798 696 580 686 705 592 474 591
8 689 583 466 573 799 697 581 687
8 688 582 698 800 578 471 588 694
8 690 584 698 800 574 467 582 688
8 690 584 467 574 801 699 583 689
8 693 587 701 803 577 470 585 691
8 693 587 470 577 804 702 586 692
8 695 589 702 804 579 472 586 692
8 695 589 472 579 805 703 588 694
8 708 595 705 813 593 475 591 704
8 710 596 706 814 595 476 592 705
8 707 594 479 602 816 709 600 719
8 708 595 475 593 817 711 594 707
8 709 598 478 600 819 715 599 717
8 711 597 477 594 820 714 598 709
8 710 596 476 595 822 713 597 711
8 600 478 601 720 717 599 718 832
8 602 479 603 722 719 600 720 834
8 720 601 480 603 835 721 604 723
8 722 603 482 605 836 723 606 724
8 767 670 725 839 656 553 608 726
8 756 656 726 841 645 542 609 728
8 726 608 727 842 609 487 610 729
8 728 609 729 843 611 488 612 730
8 844 740 624 731 790 691 575 678
8 733 625 504 616 844 740 624 731
8 734 623 502 617 845 739 622 732
8 733 625 739 845 616 504 622 732
8 734 623 738 846 617 502 621 735
8 735 621 737 847 618 500 620 736
8 744 647 527 630 847 737 620 736
8 621 506 627 738 737 626 741 848
8 647 544 626 737 759 662 741 848
8 623 508 628 739 738 627 742 849
8 740 629 585 691 850 743 700 802
8 625 510 629 740 739 628 743 850
8 632 529 647 744 745 648 759 854
8 633 530 648 745 746 649 760 855
8 638 535 649 746 750 653 761 856
8 857 762 650 747 748 651 532 635
8 753 657 539 642 857 762 650 747
8 749 652 763 858 636 533 651 748
8 752 654 764 859 640 536 652 749
8 751 655 537 639 860 765 653 750
8 641 538 655 751 752 654 766 861
8 754 658 540 643 862 769 657 753
8 754 658 770 863 643 540 659 755
8 755 659 771 864 644 541 660 757
8 758 661 768 866 645 542 656 756
8 757 660 772 867 646 543 661 758
8 759 662 773 868 648 545 663 760
8 649 546 663 760 761 664 774 871
8 765 665 547 653 872 775 664 761
8 873 777 666 762 763 668 550 651
8 769 674 556 657 873 777 666 762
8 764 669 779 874 652 551 668 763
8 654 552 667 766 764 669 778 875
8 655 549 665 765 766 667 776 876
8 768 671 782 877 656 553 670 767
8 772 672 783 878 661 554 671 768
8 658 558 674 769 770 675 786 879
8 659 557 675 770 771 673 785 881
8 882 784 672 772 771 673 555 660
8 789 687 571 677 897 798 686 788
8 897 798 686 788 813 705 591 704
8 791 689 573 679 898 799 687 789
8 795 693 803 900 683 577 691 790
8 793 690 574 681 901 801 689 791
8 792 688 800 902 684 578 694 796
8 793 690 800 902 681 574 688 792
8 795 693 577 683 903 804 692 794
8 797 695 804 903 685 579 692 794
8 797 695 579 685 904 805 694 796
8 905 806 697 799 798 696 581 687
8 814 706 806 905 705 592 696 798
8 689 583 697 799 801 699 808 907
8 800 698 809 908 694 588 703 805
8 690 584 699 801 800 698 809 908
8 803 701 810 909 691 585 700 802
8 693 587 702 804 803 701 811 910
8 695 589 703 805 804 702 812 911
8 818 710 814 919 708 595 705 813
8 821 712 815 920 710 596 706 814
8 816 709 600 719 922 819 717 831
8 817 711 594 707 923 820 709 816
8 818 710 595 708 924 822 711 817
8 819 715 599 717 926 827 716 829
8 820 714 598 709 927 826 715 819
8 929 825 713 822 820 714 597 711
8 821 712 596 710 930 824 713 822
8 717 599 718 832 829 716 830 942
8 719 600 720 834 831 717 832 944
8 832 718 601 720 945 833 721 835
8 834 720 603 722 946 835 723 836
8 869 780 838 950 767 670 725 839
8 865 767 839 952 756 656 726 841
8 839 725 840 953 726 608 727 842
8 841 726 842 954 728 609 729 843
8 844 740 691 790 955 850 802 899
8 733 625 740 844 845 739 850 955
8 734 623 739 845 846 738 849 956
8 735 621 738 846 847 737 848 957
8 744 647 737 847 854 759 848 957
8 738 627 742 849 848 741 851 958
8 848 741 851 958 759 662 773 868
8 850 743 700 802 959 852 807 906
8 849 742 628 739 959 852 743 850
8 854 759 868 965 745 648 760 855
8 746 649 760 855 856 761 871 966
8 860 765 653 750 967 872 761 856
8 968 873 762 857 858 763 651 748
8 862 769 657 753 968 873 762 857
8 859 764 874 969 749 652 763 858
8 752 654 766 861 859 764 875 970
8 751 655 765 860 861 766 876 971
8 754 658 769 862 863 770 879 972
8 755 659 770 863 864 771 881 974
8 976 882 772 867 864 771 660 757
8 866 768 877 977 756 656 767 865
8 867 772 878 978 758 661 768 866
8 760 663 773 868 871 774 883 980
8 870 781 837 948 982 890 780 869
8 982 890 780 869 877 782 670 767
8 761 664 774 871 872 775 884 984
8 876 776 665 765 985 885 775 872
8 873 777 668 763 986 887 779 874
8 769 674 777 873 879 786 887 986
8 764 669 778 875 874 779 888 987
8 766 667 776 876 875 778 886 988
8 878 783 892 989 768 671 782 877
8 878 783 672 772 990 893 784 882
8 880 787 675 770 991 896 786 879
8 880 787 895 992 770 675 785 881
8 881 785 894 993 771 673 784 882
8 1006 905 799 898 897 798 687 789
8 919 814 905 1006 813 705 798 897
8 791 689 799 898 901 801 907 1007
8 900 803 909 1009 790 691 802 899
8 795 693 804 903 900 803 910 1010
8 902 800 908 1011 796 694 805 904
8 793 690 801 901 902 800 908 1011
8 797 695 805 904 903 804 911 1012
8 799 697 806 905 907 808 912 1013
8 920 815 912 1013 814 706 806 905
8 802 700 810 909 906 807 913 1014
8 801 699 808 907 908 809 914 1015
8 805 703 809 908 911 812 915 1016
8 803 701 811 910 909 810 916 1017
8 911 812 917 1018 804 702 811 910
8 925 821 920 1030 818 710 814 919
8 928 823 921 1031 821 712 815 920
8 922 819 717 831 1033 926 829 941
8 923 820 709 816 1034 927 819 922
8 1035 929 822 924 923 820 711 817
8 925 821 710 818 1036 930 822 924
8 1038 933 825 929 927 826 714 820
8 926 827 716 829 1039 935 828 939
8 927 826 715 819 1040 934 827 926
8 928 823 712 821 1041 931 824 930
8 1042 932 824 930 929 825 713 822
8 829 716 830 942 939 828 940 1058
8 831 717 832 944 941 829 942 1060
8 942 830 718 832 1061 943 833 945
8 944 832 720 834 1062 945 835 946
8 981 889 947 1064 870 781 837 948
8 948 837 949 1067 869 780 838 950
8 975 869 950 1069 865 767 839 952
8 950 838 951 1070 839 725 840 953
8 952 839 953 1071 841 726 842 954
8 955 850 802 899 1072 959 906 1008
8 956 849 739 845 1072 959 850 955
8 846 738 849 956 957 848 958 1073
8 957 848 958 1073 854 759 868 965
8 849 742 852 959 958 851 961 1076
8 960 853 961 1076 906 807 852 959
8 958 851 961 1076 868 773 883 980
8 960 853 807 906 1077 963 913 1014
8 855 760 868 965 966 871 980 1085
8 856 761 871 966 967 872 984 1086
8 971 876 765 860 1087 985 872 967
8 968 873 763 858 1088 986 874 969
8 862 769 873 968 972 879 986 1088
8 859 764 875 970 969 874 987 1089
8 861 766 876 971 970 875 988 1090
8 973 880 770 863 1091 991 879 972
8 973 880 992 1092 863 770 881 974
8 974 881 993 1093 864 771 882 976
8 979 870 948 1066 1094 982 869 975
8 1094 982 869 975 977 877 767 865
8 978 878 772 867 1095 990 882 976
8 978 878 989 1096 866 768 877 977
8 871 774 883 980 984 884 994 1099
8 983 891 999 1100 870 781 889 981
8 1101 1000 890 982 989 892 782 877
8 983 891 781 870 1101 1000 890 982
8 872 775 884 984 985 885 995 1103
8 876 776 885 985 988 886 996 1104
8 986 887 779 874 1105 998 888 987
8 879 786 887 986 991 896 998 1105
8 875 778 886 988 987 888 997 1106
8 990 893 1002 1107 878 783 892 989
8 1108 1003 893 990 993 894 784 882
8 880 787 896 991 992 895 1005 1109
8 993 894 785 881 1110 1004 895 992
8 898 799 905 1006 1007 907 1013 1120
8 1030 920 1013 1120 919 814 905 1006
8 901 801 907 1007 1011 908 1015 1121
8 899 802 909 1009 1008 906 1014 1122
8 900 803 910 1010 1009 909 1017 1123
8 1012 911 1018 1124 903 804 910 1010
8 904 805 908 1011 1012 911 1016 1125
8 1013 912 1020 1127 907 808 914 1015
8 1031 921 1020 1127 920 815 912 1013
8 1019 918 962 1075 1128 1021 913 1014
8 1128 1021 913 1014 1017 916 810 909
8 1015 914 1022 1129 908 809 915 1016
8 1016 915 1023 1130 911 812 917 1018
8 1018 917 1024 1131 910 811 916 1017
8 1037 928 1031 1148 925 821 920 1030
8 928 823 931 1041 1031 921 1032 1149
8 1033 926 829 941 1151 1039 939 1057
8 1034 927 819 922 1152 1040 926 1033
8 1153 1038 929 1035 1034 927 820 923
8 1154 1042 930 1036 1035 929 822 924
8 1037 928 821 925 1155 1041 930 1036
8 1039 935 828 939 1156 1047 938 1055
8 1157 1043 932 1042 1038 933 825 929
8 1038 933 826 927 1158 1045 934 1040
8 1040 934 827 926 1159 1046 935 1039
8 930 824 932 1042 1041 931 1044 1160
8 1051 936 1048 1165 1175 1052 937 1053
8 1156 1047 938 1055 1053 937 1054 1178
8 939 828 940 1058 1055 938 1056 1181
8 941 829 942 1060 1057 939 1058 1183
8 942 830 943 1061 1058 940 1059 1184
8 1060 942 832 944 1185 1061 945 1062
8 1082 964 1063 1188 981 889 947 1064
8 1097 981 1064 1190 979 870 948 1066
8 1064 947 1065 1191 948 837 949 1067
8 1066 948 1067 1193 975 869 950 1069
8 1067 949 1068 1194 950 838 951 1070
8 1069 950 1070 1195 952 839 953 1071
8 956 849 959 1072 1073 958 1076 1197
8 1074 960 1076 1197 1008 906 959 1072
8 1073 958 1076 1197 965 868 980 1085
8 1074 960 906 1008 1198 1077 1014 1122
8 1133 1026 1079 1199 1019 918 962 1075
8 1077 963 913 1014 1200 1080 962 1075
8 960 853 963 1077 1076 961 1078 1201
8 980 883 961 1076 1099 994 1078 1201
8 1210 1083 964 1082 1100 999 889 981
8 966 871 980 1085 1086 984 1099 1215
8 967 872 984 1086 1087 985 1103 1216
8 971 876 985 1087 1090 988 1104 1217
8 1088 986 874 969 1218 1105 987 1089
8 972 879 986 1088 1091 991 1105 1218
8 970 875 988 1090 1089 987 1106 1219
8 973 880 991 1091 1092 992 1109 1220
8 1093 993 881 974 1221 1110 992 1092
8 1222 1108 990 1095 1093 993 882 976
8 1223 1101 982 1094 1096 989 877 977
8 1098 983 870 979 1223 1101 982 1094
8 1095 990 1107 1224 978 878 989 1096
8 1098 983 1100 1225 979 870 981 1097
8 984 884 994 1099 1103 995 1111 1227
8 1102 1001 1115 1228 983 891 999 1100
8 1101 1000 892 989 1229 1116 1002 1107
8 1102 1001 891 983 1229 1116 1000 1101
8 985 885 995 1103 1104 996 1112 1230
8 988 886 996 1104 1106 997 1113 1231
8 1105 998 888 987 1232 1114 997 1106
8 991 896 998 1105 1109 1005 1114 1232
8 1108 1003 1117 1233 990 893 1002 1107
8 1108 1003 894 993 1233 1117 1004 1110
8 992 895 1005 1109 1110 1004 1118 1234
8 1120 1013 1127 1244 1007 907 1015 1121
8 1148 1031 1127 1244 1030 920 1013 1120
8 1121 1015 1129 1245 1011 908 1016 1125
8 1126 1019 1075 1196 1246 1128 1014 1122
8 1246 1128 1014 1122 1123 1017 909 1009
8 1124 1018 1131 1247 1010 910 1017 1123
8 1125 1016 1130 1248 1012 911 1018 1124
8 1127 1020 1137 1254 1015 914 1022 1129
8 1031 921 1032 1149 1127 1020 1137 1254
8 1134 1027 918 1019 1257 1140 1021 1128
8 1257 1140 1021 1128 1131 1024 916 1017
8 1129 1022 1141 1258 1016 915 1023 1130
8 1130 1023 1142 1259 1018 917 1024 1131
8 1261 1144 1025 1132 1133 1026 1079 1199
8 1255 1138 1025 1132 1135 1028 1144 1261
8 1133 1026 918 1019 1262 1145 1027 1134
8 1136 1029 1139 1256 1263 1146 1028 1135
8 1037 928 1041 1155 1148 1031 1149 1275
8 1041 931 1044 1160 1149 1032 1150 1276
8 1151 1039 939 1057 1278 1156 1055 1180
8 1152 1040 926 1033 1279 1159 1039 1151
8 1153 1038 927 1034 1280 1158 1040 1152
8 1281 1157 1042 1154 1153 1038 929 1035
8 1036 930 1042 1154 1155 1041 1160 1282
8 1283 1164 1046 1159 1156 1047 935 1039
8 1165 1048 1164 1283 1053 937 1047 1156
8 1157 1043 933 1038 1284 1161 1045 1158
8 1157 1043 1161 1284 1042 932 1044 1160
8 1040 934 1046 1159 1158 1045 1163 1285
8 1166 1049 1167 1292 1051 936 1048 1165
8 1166 1049 936 1051 1293 1168 1050 1172
8 1051 936 1052 1175 1172 1050 1173 1306
8 1174 1051 1165 1290 1308 1175 1053 1177
8 1053 937 1054 1178 1175 1052 1176 1309
8 1278 1156 1055 1180 1177 1053 1178 1311
8 1055 938 1056 1181 1178 1054 1179 1312
8 1057 939 1058 1183 1180 1055 1181 1314
8 1058 940 1059 1184 1181 1056 1182 1315
8 1060 942 1061 1185 1183 1058 1184 1316
8 1208 1081 1187 1321 1082 964 1063 1188
8 1209 1082 1188 1322 1097 981 1064 1190
8 1188 1063 1189 1323 1064 947 1065 1191
8 1190 1064 1191 1325 1066 948 1067 1193
8 1191 1065 1192 1326 1067 949 1068 1194
8 1067 1193 1069 950 1194 1327 1195 1070
8 1250 1133 1199 1330 1126 1019 1075 1196
8 1198 1077 1014 1122 1331 1200 1075 1196
8 1074 960 1077 1198 1197 1076 1201 1332
8 1085 980 1076 1197 1215 1099 1201 1332
8 1199 1079 1203 1333 1075 962 1080 1200
8 1132 1025 1119 1243 1199 1079 1203 1333
8 1201 1078 963 1077 1334 1202 1080 1200
8 1099 994 1078 1201 1227 1111 1202 1334
8 1343 1207 1081 1208 1210 1083 964 1082
8 1214 1084 1186 1319 1343 1207 1081 1208
8 1345 1210 1082 1209 1225 1100 981 1097
8 1346 1211 1083 1210 1228 1115 999 1100
8 1086 984 1099 1215 1216 1103 1227 1352
8 1087 985 1103 1216 1217 1104 1230 1353
8 1090 988 1104 1217 1219 1106 1231 1354
8 1218 1105 987 1089 1355 1232 1106 1219
8 1091 991 1105 1218 1220 1109 1232 1355
8 1092 992 1109 1220 1221 1110 1234 1356
8 1222 1108 1233 1357 1095 990 1107 1224
8 1222 1108 993 1093 1357 1233 1110 1221
8 1223 1101 989 1096 1358 1229 1107 1224
8 1226 1102 983 1098 1358 1229 1101 1223
8 1226 1102 1228 1359 1098 983 1100 1225
8 1103 995 1111 1227 1230 1112 1235 1360
8 1107 1002 1117 1233 1229 1116 1240 1362
8 1102 1001 1116 1229 1228 1115 1240 1362
8 1104 996 1112 1230 1231 1113 1236 1363
8 1364 1237 1114 1232 1231 1113 997 1106
8 1109 1005 1114 1232 1234 1118 1238 1365
8 1110 1004 1118 1234 1233 1117 1241 1366
8 1242 1374 1255 1138 1119 1243 1132 1025
8 1244 1127 1254 1376 1121 1015 1129 1245
8 1148 1031 1149 1275 1244 1127 1254 1376
8 1245 1129 1258 1377 1125 1016 1130 1248
8 1251 1134 1019 1126 1378 1257 1128 1246
8 1378 1257 1128 1246 1247 1131 1017 1123
8 1248 1130 1259 1379 1124 1018 1131 1247
8 1261 1381 1250 1133 1132 1249 1330 1199
8 1255 1380 1252 1135 1132 1249 1381 1261
8 1250 1133 1019 1126 1382 1262 1134 1251
8 1253 1136 1256 1385 1384 1263 1135 1252
8 1254 1137 1265 1387 1129 1022 1141 1258
8 1149 1032 1150 1276 1254 1137 1265 1387
8 1028 1135 1255 1138 1139 1256 1388 1266
8 1136 1029 1147 1264 1256 1139 1267 1389
8 1390 1268 1140 1257 1259 1142 1024 1131
8 1260 1143 1027 1134 1390 1268 1140 1257
8 1258 1141 1269 1391 1130 1023 1142 1259
8 1262 1145 1027 1134 1393 1271 1143 1260
8 1261 1144 1026 1133 1394 1272 1145 1262
8 1135 1028 1144 1261 1263 1146 1272 1394
8 1136 1029 1146 1263 1264 1147 1273 1395
8 1155 1041 1160 1282 1275 1149 1276 1405
8 1276 1150 1044 1160 1406 1277 1162 1286
8 1408 1283 1159 1279 1278 1156 1039 1151
8 1290 1165 1283 1408 1177 1053 1156 1278
8 1152 1040 1159 1279 1280 1158 1285 1409
8 1281 1157 1038 1153 1410 1284 1158 1280
8 1281 1157 1284 1410 1154 1042 1160 1282
8 1159 1046 1164 1283 1285 1163 1289 1412
8 1292 1167 1289 1412 1165 1048 1164 1283
8 1158 1045 1163 1285 1284 1161 1288 1413
8 1284 1161 1288 1413 1160 1044 1162 1286
8 1291 1166 1292 1418 1174 1051 1165 1290
8 1291 1166 1051 1174 1419 1293 1172 1305
8 1294 1169 1296 1421 1166 1049 1167 1292
8 1293 1168 1050 1172 1422 1295 1171 1303
8 1294 1169 1049 1166 1423 1297 1168 1293
8 1422 1295 1171 1303 1301 1170 1302 1435
8 1172 1050 1173 1306 1303 1171 1304 1438
8 1174 1051 1175 1308 1305 1172 1306 1440
8 1175 1052 1176 1309 1306 1173 1307 1441
8 1177 1053 1178 1311 1308 1175 1309 1443
8 1178 1054 1179 1312 1309 1176 1310 1444
8 1180 1055 1181 1314 1311 1178 1312 1446
8 1056 1181 1312 1179 1182 1315 1447 1313
8 1183 1058 1184 1316 1314 1181 1315 1448
8 1319 1186 1084 1214 1451 1317 1213 1350
8 1319 1186 1318 1453 1208 1081 1187 1321
8 1321 1187 1320 1456 1188 1063 1189 1323
8 1344 1208 1321 1457 1209 1082 1188 1322
8 1322 1188 1323 1458 1190 1064 1191 1325
8 1323 1189 1324 1459 1191 1065 1192 1326
8 1191 1325 1193 1067 1326 1460 1327 1194
8 1242 1374 1243 1119 1328 1462 1335 1204
8 1330 1199 1333 1465 1196 1075 1200 1331
8 1132 1249 1330 1199 1243 1375 1465 1333
8 1332 1201 1077 1198 1466 1334 1200 1331
8 1215 1099 1201 1332 1352 1227 1334 1466
8 1119 1243 1333 1203 1204 1335 1470 1338
8 1333 1203 1338 1470 1200 1080 1202 1334
8 1227 1111 1202 1334 1360 1235 1338 1470
8 1328 1462 1335 1204 1205 1336 1471 1339
8 1337 1206 1340 1472 1464 1329 1205 1336
8 1346 1211 1342 1479 1210 1083 1207 1343
8 1346 1211 1115 1228 1479 1342 1239 1361
8 1348 1212 1084 1214 1479 1342 1207 1343
8 1480 1343 1208 1344 1345 1210 1082 1209
8 1351 1214 1319 1454 1480 1343 1208 1344
8 1481 1346 1210 1345 1359 1228 1100 1225
8 1348 1212 1347 1483 1214 1084 1213 1350
8 1216 1103 1227 1352 1353 1230 1360 1488
8 1217 1104 1230 1353 1354 1231 1363 1489
8 1490 1364 1232 1355 1354 1231 1106 1219
8 1220 1109 1232 1355 1356 1234 1365 1491
8 1221 1110 1234 1356 1357 1233 1366 1492
8 1224 1107 1233 1357 1358 1229 1362 1493
8 1226 1102 1229 1358 1359 1228 1362 1493
8 1230 1112 1235 1360 1363 1236 1367 1496
8 1361 1239 1115 1228 1497 1371 1240 1362
8 1366 1241 1372 1498 1233 1117 1240 1362
8 1364 1237 1113 1231 1499 1368 1236 1363
8 1364 1237 1368 1499 1232 1114 1238 1365
8 1234 1118 1238 1365 1366 1241 1369 1500
8 1507 1373 1242 1374 1388 1266 1138 1255
8 1508 1374 1243 1375 1380 1255 1132 1249
8 1376 1254 1387 1509 1245 1129 1258 1377
8 1275 1149 1276 1405 1376 1254 1387 1509
8 1377 1258 1391 1510 1248 1130 1259 1379
8 1511 1390 1257 1378 1379 1259 1131 1247
8 1383 1260 1134 1251 1511 1390 1257 1378
8 1252 1135 1256 1385 1380 1255 1388 1512
8 1261 1381 1513 1394 1133 1250 1382 1262
8 1135 1252 1384 1263 1261 1381 1513 1394
8 1382 1262 1134 1251 1514 1393 1260 1383
8 1253 1136 1263 1384 1386 1264 1395 1516
8 1253 1136 1264 1386 1385 1256 1389 1517
8 1387 1265 1397 1519 1258 1141 1269 1391
8 1276 1150 1277 1406 1387 1265 1397 1519
8 1256 1139 1267 1389 1388 1266 1398 1520
8 1264 1147 1274 1396 1389 1267 1399 1521
8 1392 1270 1143 1260 1522 1400 1268 1390
8 1390 1268 1142 1259 1522 1400 1269 1391
8 1392 1270 1401 1523 1260 1143 1271 1393
8 1272 1394 1524 1402 1145 1262 1393 1271
8 1395 1273 1146 1263 1524 1402 1272 1394
8 1273 1395 1264 1147 1403 1526 1396 1274
8 1405 1276 1160 1282 1534 1406 1286 1411
8 1414 1287 1407 1535 1286 1162 1277 1406
8 1279 1159 1283 1408 1409 1285 1412 1537
8 1418 1292 1412 1537 1290 1165 1283 1408
8 1280 1158 1285 1409 1410 1284 1413 1538
8 1410 1284 1413 1538 1282 1160 1286 1411
8 1285 1163 1289 1412 1413 1288 1417 1540
8 1421 1296 1417 1540 1292 1167 1289 1412
8 1414 1287 1162 1286 1541 1416 1288 1413
8 1420 1294 1421 1545 1291 1166 1292 1418
8 1419 1293 1172 1305 1546 1422 1303 1437
8 1420 1294 1166 1291 1547 1423 1293 1419
8 1294 1169 1297 1423 1421 1296 1425 1548
8 1423 1297 1168 1293 1549 1424 1295 1422
8 1301 1170 1298 1427 1422 1295 1424 1549
8 1432 1300 1428 1554 1301 1170 1298 1427
8 1431 1299 1428 1554 1560 1430 1300 1432
8 1563 1433 1300 1432 1435 1302 1170 1301
8 1546 1422 1303 1437 1434 1301 1435 1565
8 1303 1171 1304 1438 1435 1302 1436 1566
8 1305 1172 1306 1440 1437 1303 1438 1568
8 1306 1173 1307 1441 1438 1304 1439 1569
8 1308 1175 1309 1443 1440 1306 1441 1571
8 1309 1176 1310 1444 1441 1307 1442 1572
8 1311 1178 1312 1446 1443 1309 1444 1574
8 1179 1312 1444 1310 1313 1447 1575 1445
8 1314 1181 1315 1448 1446 1312 1447 1576
8 1350 1213 1349 1486 1451 1317 1449 1579
8 1451 1317 1450 1581 1319 1186 1318 1453
8 1454 1319 1214 1351 1582 1451 1350 1487
8 1453 1318 1452 1584 1321 1187 1320 1456
8 1454 1319 1453 1585 1344 1208 1321 1457
8 1456 1320 1455 1586 1323 1189 1324 1459
8 1457 1321 1456 1587 1322 1188 1323 1458
8 1458 1323 1459 1588 1325 1191 1326 1460
8 1205 1336 1464 1329 1328 1462 1590 1461
8 1507 1373 1461 1590 1374 1242 1328 1462
8 1508 1374 1462 1591 1375 1243 1335 1467
8 1337 1206 1329 1464 1473 1341 1463 1594
8 1375 1243 1335 1467 1465 1333 1470 1596
8 1465 1333 1470 1596 1331 1200 1334 1466
8 1352 1227 1334 1466 1488 1360 1470 1596
8 1591 1462 1336 1468 1467 1335 1471 1597
8 1469 1337 1472 1598 1595 1464 1336 1468
8 1471 1339 1474 1600 1335 1204 1338 1470
8 1600 1474 1367 1496 1470 1338 1235 1360
8 1336 1205 1340 1472 1471 1339 1475 1601
8 1337 1206 1341 1473 1472 1340 1476 1602
8 1495 1370 1478 1609 1361 1239 1342 1479
8 1348 1212 1342 1479 1483 1347 1478 1609
8 1481 1346 1479 1610 1345 1210 1343 1480
8 1481 1346 1228 1359 1610 1479 1361 1494
8 1484 1348 1214 1351 1610 1479 1343 1480
8 1483 1347 1482 1612 1350 1213 1349 1486
8 1484 1348 1483 1613 1351 1214 1350 1487
8 1353 1230 1360 1488 1489 1363 1496 1616
8 1490 1364 1231 1354 1617 1499 1363 1489
8 1490 1364 1499 1617 1355 1232 1365 1491
8 1356 1234 1365 1491 1492 1366 1500 1619
8 1492 1366 1498 1620 1357 1233 1362 1493
8 1494 1361 1228 1359 1621 1497 1362 1493
8 1495 1370 1239 1361 1622 1504 1371 1497
8 1363 1236 1367 1496 1499 1368 1501 1623
8 1497 1371 1240 1362 1624 1505 1372 1498
8 1625 1503 1372 1498 1500 1369 1241 1366
8 1365 1238 1368 1499 1500 1369 1502 1626
8 1520 1398 1506 1633 1388 1266 1373 1507
8 1634 1507 1374 1508 1512 1388 1255 1380
8 1509 1387 1519 1635 1377 1258 1391 1510
8 1405 1276 1406 1534 1509 1387 1519 1635
8 1515 1392 1260 1383 1636 1522 1390 1511
8 1511 1390 1259 1379 1636 1522 1391 1510
8 1385 1256 1389 1517 1512 1388 1520 1637
8 1513 1394 1262 1382 1638 1524 1393 1514
8 1395 1516 1638 1524 1263 1384 1513 1394
8 1515 1392 1523 1639 1383 1260 1393 1514
8 1516 1395 1526 1640 1386 1264 1396 1518
8 1386 1264 1396 1518 1517 1389 1521 1641
8 1519 1397 1527 1643 1391 1269 1400 1522
8 1535 1407 1527 1643 1406 1277 1397 1519
8 1389 1267 1399 1521 1520 1398 1528 1644
8 1645 1529 1399 1521 1525 1404 1274 1396
8 1392 1270 1400 1522 1523 1401 1531 1646
8 1524 1402 1271 1393 1648 1532 1401 1523
8 1403 1526 1648 1532 1273 1395 1524 1402
8 1525 1404 1274 1396 1649 1533 1403 1526
8 1539 1414 1535 1657 1411 1286 1406 1534
8 1542 1415 1536 1658 1414 1287 1407 1535
8 1409 1285 1412 1537 1538 1413 1540 1660
8 1545 1421 1540 1660 1418 1292 1412 1537
8 1539 1414 1286 1411 1661 1541 1413 1538
8 1540 1417 1544 1663 1413 1288 1416 1541
8 1421 1296 1425 1548 1540 1417 1544 1663
8 1542 1415 1287 1414 1664 1543 1416 1541
8 1420 1294 1423 1547 1545 1421 1548 1666
8 1547 1423 1293 1419 1667 1549 1422 1546
8 1434 1301 1427 1553 1546 1422 1549 1667
8 1423 1297 1424 1549 1548 1425 1550 1668
8 1551 1426 1550 1668 1427 1298 1424 1549
8 1551 1426 1298 1427 1671 1552 1428 1554
8 1562 1432 1554 1674 1434 1301 1427 1553
8 1431 1299 1429 1558 1554 1428 1555 1675
8 1431 1299 1430 1560 1558 1429 1557 1680
8 1560 1430 1300 1432 1683 1559 1433 1563
8 1561 1431 1554 1674 1684 1560 1432 1562
8 1685 1563 1432 1562 1565 1435 1301 1434
8 1435 1302 1436 1566 1563 1433 1564 1686
8 1437 1303 1438 1568 1565 1435 1566 1688
8 1438 1304 1439 1569 1566 1436 1567 1689
8 1440 1306 1441 1571 1568 1438 1569 1691
8 1441 1307 1442 1572 1569 1439 1570 1692
8 1443 1309 1444 1574 1571 1441 1572 1694
8 1310 1444 1572 1442 1445 1575 1695 1573
8 1446 1312 1447 1576 1574 1444 1575 1696
8 1486 1349 1485 1614 1579 1449 1577 1699
8 1451 1317 1449 1579 1581 1450 1578 1701
8 1487 1350 1486 1615 1582 1451 1579 1702
8 1581 1450 1580 1704 1453 1318 1452 1584
8 1582 1451 1581 1705 1454 1319 1453 1585
8 1584 1452 1583 1706 1456 1320 1455 1586
8 1585 1453 1584 1707 1457 1321 1456 1587
8 1587 1456 1586 1708 1458 1323 1459 1588
8 1633 1506 1589 1710 1507 1373 1461 1590
8 1464 1329 1461 1590 1594 1463 1589 1710
8 1468 1336 1462 1591 1595 1464 1590 1711
8 1634 1507 1590 1711 1508 1374 1462 1591
8 1473 1341 1463 1594 1603 1477 1593 1716
8 1469 1337 1464 1595 1599 1473 1594 1717
8 1471 1597 1467 1335 1600 1718 1596 1470
8 1718 1600 1496 1616 1596 1470 1360 1488
8 1336 1468 1597 1471 1472 1598 1719 1601
8 1469 1337 1473 1599 1598 1472 1602 1720
8 1722 1604 1501 1623 1600 1474 1367 1496
8 1475 1601 1471 1339 1604 1722 1600 1474
8 1602 1476 1605 1723 1472 1340 1475 1601
8 1476 1602 1724 1606 1341 1473 1603 1477
8 1483 1347 1478 1609 1612 1482 1608 1731
8 1495 1370 1504 1622 1609 1478 1608 1731
8 1618 1495 1609 1732 1494 1361 1479 1610
8 1484 1348 1479 1610 1613 1483 1609 1732
8 1486 1349 1482 1612 1614 1485 1611 1733
8 1613 1483 1612 1734 1487 1350 1486 1615
8 1489 1363 1496 1616 1617 1499 1623 1736
8 1491 1365 1499 1617 1619 1500 1626 1737
8 1618 1495 1361 1494 1738 1622 1497 1621
8 1739 1625 1498 1620 1619 1500 1366 1492
8 1621 1497 1362 1493 1740 1624 1498 1620
8 1742 1631 1504 1622 1624 1505 1371 1497
8 1743 1628 1502 1626 1623 1501 1368 1499
8 1744 1630 1505 1624 1625 1503 1372 1498
8 1745 1629 1503 1625 1626 1502 1369 1500
8 1520 1398 1528 1644 1633 1506 1632 1751
8 1637 1520 1633 1752 1512 1388 1507 1634
8 1635 1519 1643 1753 1510 1391 1522 1636
8 1657 1535 1643 1753 1534 1406 1519 1635
8 1515 1392 1522 1636 1639 1523 1646 1754
8 1517 1389 1521 1641 1637 1520 1644 1755
8 1524 1638 1756 1648 1393 1514 1639 1523
8 1640 1526 1395 1516 1756 1648 1524 1638
8 1642 1525 1396 1518 1757 1649 1526 1640
8 1758 1645 1521 1641 1642 1525 1396 1518
8 1646 1531 1400 1522 1760 1650 1527 1643
8 1535 1407 1536 1658 1643 1527 1650 1760
8 1521 1399 1529 1645 1644 1528 1651 1761
8 1647 1530 1652 1762 1525 1404 1529 1645
8 1401 1523 1648 1532 1531 1646 1763 1655
8 1525 1404 1533 1649 1647 1530 1654 1765
8 1533 1649 1766 1656 1403 1526 1648 1532
8 1662 1542 1658 1774 1539 1414 1535 1657
8 1542 1415 1543 1664 1658 1536 1659 1775
8 1660 1540 1663 1777 1538 1413 1541 1661
8 1545 1421 1548 1666 1660 1540 1663 1777
8 1662 1542 1414 1539 1778 1664 1541 1661
8 1664 1543 1416 1541 1779 1665 1544 1663
8 1548 1425 1550 1668 1663 1544 1665 1779
8 1547 1423 1549 1667 1666 1548 1668 1781
8 1670 1551 1668 1781 1553 1427 1549 1667
8 1551 1426 1552 1671 1668 1550 1669 1782
8 1670 1551 1427 1553 1784 1671 1554 1674
8 1675 1555 1672 1785 1554 1428 1552 1671
8 1678 1556 1673 1789 1558 1429 1555 1675
8 1561 1431 1558 1681 1674 1554 1675 1790
8 1794 1677 1556 1678 1680 1557 1429 1558
8 1560 1430 1559 1683 1680 1557 1679 1797
8 1561 1431 1560 1684 1681 1558 1680 1798
8 1563 1433 1564 1686 1683 1559 1682 1800
8 1684 1560 1432 1562 1801 1683 1563 1685
8 1565 1435 1566 1688 1685 1563 1686 1802
8 1566 1436 1567 1689 1686 1564 1687 1803
8 1568 1438 1569 1691 1688 1566 1689 1805
8 1569 1439 1570 1692 1689 1567 1690 1806
8 1571 1441 1572 1694 1691 1569 1692 1808
8 1442 1572 1692 1570 1573 1695 1809 1693
8 1574 1444 1575 1696 1694 1572 1695 1810
8 1614 1485 1592 1712 1699 1577 1697 1813
8 1579 1449 1577 1699 1701 1578 1698 1815
8 1615 1486 1614 1735 1702 1579 1699 1816
8 1701 1578 1700 1818 1581 1450 1580 1704
8 1582 1451 1579 1702 1705 1581 1701 1819
8 1704 1580 1703 1820 1584 1452 1583 1706
8 1705 1581 1704 1821 1585 1453 1584 1707
8 1707 1584 1706 1822 1587 1456 1586 1708
8 1710 1589 1506 1633 1824 1709 1632 1751
8 1594 1463 1589 1710 1716 1593 1709 1824
8 1752 1633 1710 1825 1634 1507 1590 1711
8 1595 1464 1590 1711 1717 1594 1710 1825
8 1830 1714 1592 1712 1733 1611 1485 1614
8 1603 1477 1593 1716 1725 1607 1715 1834
8 1599 1473 1594 1717 1721 1603 1716 1835
8 1837 1722 1623 1736 1718 1600 1496 1616
8 1719 1601 1722 1837 1597 1471 1600 1718
8 1602 1720 1598 1472 1723 1838 1719 1601
8 1720 1602 1473 1599 1839 1724 1603 1721
8 1723 1605 1726 1840 1601 1475 1604 1722
8 1840 1726 1628 1743 1722 1604 1501 1623
8 1724 1606 1727 1841 1602 1476 1605 1723
8 1725 1607 1728 1842 1603 1477 1606 1724
8 1612 1482 1608 1731 1733 1611 1730 1849
8 1741 1627 1730 1849 1622 1504 1608 1731
8 1613 1483 1609 1732 1734 1612 1731 1850
8 1618 1495 1622 1738 1732 1609 1731 1850
8 1615 1486 1612 1734 1735 1614 1733 1851
8 1852 1743 1626 1737 1736 1623 1499 1617
8 1853 1745 1625 1739 1737 1626 1500 1619
8 1855 1742 1622 1738 1740 1624 1497 1621
8 1856 1744 1624 1740 1739 1625 1498 1620
8 1741 1627 1504 1622 1857 1746 1631 1742
8 1742 1631 1505 1624 1858 1749 1630 1744
8 1859 1747 1629 1745 1743 1628 1502 1626
8 1860 1748 1630 1744 1745 1629 1503 1625
8 1644 1528 1651 1761 1751 1632 1750 1865
8 1637 1520 1644 1755 1752 1633 1751 1866
8 1754 1646 1522 1636 1867 1760 1643 1753
8 1657 1535 1658 1774 1753 1643 1760 1867
8 1639 1523 1646 1754 1756 1648 1763 1868
8 1641 1521 1645 1758 1755 1644 1761 1869
8 1757 1649 1526 1640 1870 1766 1648 1756
8 1642 1525 1649 1757 1759 1647 1765 1871
8 1759 1647 1762 1872 1642 1525 1645 1758
8 1760 1650 1767 1874 1646 1531 1655 1763
8 1658 1536 1659 1775 1760 1650 1767 1874
8 1762 1652 1768 1875 1645 1529 1651 1761
8 1764 1653 1769 1876 1647 1530 1652 1762
8 1656 1766 1877 1773 1532 1648 1763 1655
8 1771 1879 1765 1654 1653 1764 1647 1530
8 1533 1649 1765 1654 1656 1766 1880 1772
8 1662 1542 1664 1778 1774 1658 1775 1887
8 1664 1543 1665 1779 1775 1659 1776 1888
8 1778 1664 1541 1661 1890 1779 1663 1777
8 1666 1548 1668 1781 1777 1663 1779 1890
8 1782 1669 1780 1891 1668 1550 1665 1779
8 1670 1551 1671 1784 1781 1668 1782 1893
8 1671 1552 1672 1785 1782 1669 1783 1894
8 1790 1675 1785 1896 1674 1554 1671 1784
8 1675 1555 1673 1789 1785 1672 1786 1897
8 1792 1676 1788 1903 1678 1556 1673 1789
8 1795 1678 1789 1904 1681 1558 1675 1790
8 1792 1676 1556 1678 1906 1791 1677 1794
8 1680 1557 1679 1797 1794 1677 1793 1909
8 1910 1794 1678 1795 1798 1680 1558 1681
8 1683 1559 1682 1800 1797 1679 1796 1912
8 1684 1560 1683 1801 1798 1680 1797 1913
8 1686 1564 1687 1803 1800 1682 1799 1915
8 1685 1563 1686 1802 1801 1683 1800 1916
8 1688 1566 1689 1805 1802 1686 1803 1917
8 1689 1567 1690 1806 1803 1687 1804 1918
8 1691 1569 1692 1808 1805 1689 1806 1920
8 1692 1570 1693 1809 1806 1690 1807 1921
8 1694 1572 1695 1810 1808 1692 1809 1922
8 1829 1713 1811 1926 1712 1592 1697 1813
8 1813 1697 1812 1928 1699 1577 1698 1815
8 1735 1614 1712 1828 1816 1699 1813 1929
8 1815 1698 1814 1931 1701 1578 1700 1818
8 1702 1579 1699 1816 1819 1701 1815 1932
8 1818 1700 1817 1933 1704 1580 1703 1820
8 1819 1701 1818 1934 1705 1581 1704 1821
8 1821 1704 1820 1935 1707 1584 1706 1822
8 1824 1709 1632 1751 1937 1823 1750 1865
8 1716 1593 1709 1824 1834 1715 1823 1937
8 1825 1710 1633 1752 1938 1824 1751 1866
8 1717 1594 1710 1825 1835 1716 1824 1938
8 1945 1830 1712 1828 1851 1733 1614 1735
8 1830 1714 1831 1946 1712 1592 1713 1829
8 1947 1832 1714 1830 1849 1730 1611 1733
8 1843 1729 1607 1725 1950 1833 1715 1834
8 1721 1603 1716 1835 1836 1725 1834 1951
8 1836 1725 1842 1953 1721 1603 1724 1839
8 1723 1838 1719 1601 1840 1954 1837 1722
8 1954 1840 1743 1852 1837 1722 1623 1736
8 1724 1839 1720 1602 1841 1955 1838 1723
8 1841 1727 1844 1956 1723 1605 1726 1840
8 1956 1844 1747 1859 1840 1726 1628 1743
8 1728 1842 1724 1606 1845 1957 1841 1727
8 1725 1607 1729 1843 1842 1728 1846 1958
8 1741 1627 1746 1857 1849 1730 1848 1965
8 1734 1612 1731 1850 1851 1733 1849 1966
8 1854 1741 1849 1966 1738 1622 1731 1850
8 1967 1859 1745 1853 1852 1743 1626 1737
8 1968 1860 1744 1856 1853 1745 1625 1739
8 1854 1741 1622 1738 1969 1857 1742 1855
8 1855 1742 1624 1740 1970 1858 1744 1856
8 1857 1746 1631 1742 1971 1861 1749 1858
8 1858 1749 1630 1744 1972 1863 1748 1860
8 1859 1747 1862 1973 1745 1629 1748 1860
8 1875 1768 1864 1977 1761 1651 1750 1865
8 1755 1644 1761 1869 1866 1751 1865 1978
8 1867 1760 1874 1979 1754 1646 1763 1868
8 1774 1658 1775 1887 1867 1760 1874 1979
8 1870 1766 1648 1756 1980 1877 1763 1868
8 1872 1762 1875 1981 1758 1645 1761 1869
8 1757 1649 1766 1870 1871 1765 1880 1982
8 1983 1879 1764 1873 1871 1765 1647 1759
8 1873 1764 1876 1984 1759 1647 1762 1872
8 1877 1773 1655 1763 1986 1881 1767 1874
8 1775 1659 1776 1888 1874 1767 1881 1986
8 1876 1769 1882 1987 1762 1652 1768 1875
8 1878 1770 1883 1988 1764 1653 1769 1876
8 1880 1772 1656 1766 1989 1886 1773 1877
8 1878 1770 1653 1764 1990 1884 1771 1879
8 1765 1654 1772 1880 1879 1771 1885 1991
8 1778 1664 1779 1890 1887 1775 1888 1997
8 1998 1889 1776 1888 1891 1780 1665 1779
8 1893 1782 1891 2000 1781 1668 1779 1890
8 1894 1783 1892 2001 1782 1669 1780 1891
8 1784 1671 1785 1896 1893 1782 1894 2003
8 1897 1786 1895 2004 1785 1672 1783 1894
8 1790 1675 1789 1904 1896 1785 1897 2006
8 1901 1787 1898 2007 1789 1673 1786 1897
8 1903 1788 1900 2013 1789 1673 1787 1901
8 1792 1676 1791 1906 1903 1788 1902 2016
8 1907 1792 1903 2017 1795 1678 1789 1904
8 1906 1791 1677 1794 2019 1905 1793 1909
8 1907 1792 1678 1795 2020 1906 1794 1910
8 1797 1679 1796 1912 1909 1793 1908 2022
8 1798 1680 1797 1913 1910 1794 1909 2023
8 1800 1682 1799 1915 1912 1796 1911 2025
8 1801 1683 1800 1916 1913 1797 1912 2026
8 1803 1687 1804 1918 1915 1799 1914 2028
8 1802 1686 1803 1917 1916 1800 1915 2029
8 1805 1689 1806 1920 1917 1803 1918 2030
8 1806 1690 1807 1921 1918 1804 1919 2031
8 1808 1692 1809 1922 1920 1806 1921 2032
8 1939 1826 1924 2037 1829 1713 1811 1926
8 1926 1811 1925 2039 1813 1697 1812 1928
8 1944 1829 1926 2040 1828 1712 1813 1929
8 1928 1812 1927 2042 1815 1698 1814 1931
8 1929 1813 1928 2043 1816 1699 1815 1932
8 1931 1814 1930 2044 1818 1700 1817 1933
8 1932 1815 1931 2045 1819 1701 1818 1934
8 1934 1818 1933 2046 1821 1704 1820 1935
8 2048 1936 1823 1937 1977 1864 1750 1865
8 1950 1833 1715 1834 2048 1936 1823 1937
8 1938 1824 1751 1866 2049 1937 1865 1978
8 1835 1716 1824 1938 1951 1834 1937 2049
8 1939 1826 1713 1829 2053 1942 1831 1946
8 1940 1827 1923 2035 2053 1942 1826 1939
8 1945 1830 1946 2058 1828 1712 1829 1944
8 2059 1947 1830 1945 1966 1849 1733 1851
8 1947 1832 1730 1849 2060 1948 1848 1965
8 1947 1832 1948 2060 1830 1714 1831 1946
8 1959 1847 1729 1843 2063 1949 1833 1950
8 1952 1843 1725 1836 2064 1950 1834 1951
8 1836 1725 1843 1952 1953 1842 1958 2066
8 1953 1842 1957 2067 1839 1724 1841 1955
8 1841 1955 1838 1723 1956 2068 1954 1840
8 2068 1956 1859 1967 1954 1840 1743 1852
8 1956 1844 1960 2069 1859 1747 1862 1973
8 1845 1957 1841 1727 1960 2069 1956 1844
8 1728 1842 1957 1845 1846 1958 2071 1961
8 1962 2072 1959 1847 1846 1958 1843 1729
8 1971 1861 1964 2077 1857 1746 1848 1965
8 1854 1741 1857 1969 1966 1849 1965 2078
8 1967 1859 1973 2079 1853 1745 1860 1968
8 1970 1858 1744 1856 2080 1972 1860 1968
8 1969 1857 1742 1855 2081 1971 1858 1970
8 1971 1861 1749 1858 2082 1974 1863 1972
8 1973 1862 1975 2083 1860 1748 1863 1972
8 1987 1882 1976 2086 1875 1768 1864 1977
8 1981 1875 1977 2087 1869 1761 1865 1978
8 1980 1877 1763 1868 2088 1986 1874 1979
8 1887 1775 1888 1997 1979 1874 1986 2088
8 1880 1982 2089 1989 1766 1870 1980 1877
8 1984 1876 1987 2090 1872 1762 1875 1981
8 1765 1871 1983 1879 1880 1982 2091 1991
8 1985 1878 1764 1873 2092 1990 1879 1983
8 1985 1878 1988 2093 1873 1764 1876 1984
8 2094 1992 1881 1986 1998 1889 1776 1888
8 1986 1881 1992 2094 1877 1773 1886 1989
8 1988 1883 1993 2095 1876 1769 1882 1987
8 1878 1770 1884 1990 1988 1883 1994 2096
8 1991 1885 1772 1880 2097 1996 1886 1989
8 1879 1771 1885 1991 1990 1884 1995 2098
8 2103 1998 1888 1997 2000 1891 1779 1890
8 2104 1999 1889 1998 2001 1892 1780 1891
8 2003 1894 2001 2106 1893 1782 1891 2000
8 2004 1895 2002 2107 1894 1783 1892 2001
8 2006 1897 2004 2109 1896 1785 1894 2003
8 2007 1898 2005 2110 1897 1786 1895 2004
8 2014 1901 2007 2112 1904 1789 1897 2006
8 2011 1899 2008 2113 1901 1787 1898 2007
8 2119 2010 1899 2011 2013 1900 1787 1901
8 2016 1902 2012 2122 1903 1788 1900 2013
8 2017 1903 2013 2123 1904 1789 1901 2014
8 1906 1791 1905 2019 2016 1902 2015 2125
8 1907 1792 1906 2020 2017 1903 2016 2126
8 1909 1793 1908 2022 2019 1905 2018 2128
8 2020 1906 1794 1910 2129 2019 1909 2023
8 1912 1796 1911 2025 2022 1908 2021 2131
8 1913 1797 1912 2026 2023 1909 2022 2132
8 1915 1799 1914 2028 2025 1911 2024 2134
8 1916 1800 1915 2029 2026 1912 2025 2135
8 1918 1804 1919 2031 2028 1914 2027 2136
8 1917 1803 1918 2030 2029 1915 2028 2137
8 1920 1806 1921 2032 2030 1918 2031 2138
8 1940 1827 1941 2054 2035 1923 2033 2140
8 2035 1923 2034 2143 1939 1826 1924 2037
8 2037 1924 2036 2146 1926 1811 1925 2039
8 2051 1939 2037 2147 1944 1829 1926 2040
8 2039 1925 2038 2149 1928 1812 1927 2042
8 2040 1926 2039 2150 1929 1813 1928 2043
8 2042 1927 2041 2151 1931 1814 1930 2044
8 2043 1928 2042 2152 1932 1815 1931 2045
8 2045 1931 2044 2153 1934 1818 1933 2046
8 2155 2047 1936 2048 2086 1976 1864 1977
8 2063 1949 1833 1950 2155 2047 1936 2048
8 2156 2048 1937 2049 2087 1977 1865 1978
8 2064 1950 1834 1951 2156 2048 1937 2049
8 2051 1939 1829 1944 2160 2053 1946 2058
8 2052 1940 2035 2144 2160 2053 1939 2051
8 2053 1942 1831 1946 2163 2057 1948 2060
8 2055 1943 1827 1940 2163 2057 1942 2053
8 2055 1943 2056 2164 1940 1827 1941 2054
8 2059 1947 1849 1966 2167 2060 1965 2078
8 2059 1947 2060 2167 1945 1830 1946 2058
8 2077 1964 2061 2168 1965 1848 1948 2060
8 2070 1963 1847 1959 2170 2062 1949 2063
8 2065 1959 1843 1952 2171 2063 1950 2064
8 2173 2072 1958 2066 2065 1959 1843 1952
8 1953 1842 1958 2066 2067 1957 2071 2174
8 2068 1956 2069 2175 1967 1859 1973 2079
8 2067 1957 2069 2175 1955 1841 1956 2068
8 1845 1957 2069 1960 1961 2071 2176 2073
8 2069 1960 2073 2176 1973 1862 1975 2083
8 2070 1963 2075 2177 1959 1847 1962 2072
8 1846 1958 2071 1961 1962 2072 2178 2074
8 2077 1964 1861 1971 2182 2076 1974 2082
8 2081 1971 2077 2183 1969 1857 1965 2078
8 2079 1973 2083 2184 1968 1860 1972 2080
8 2081 1971 1858 1970 2185 2082 1972 2080
8 2083 1975 2084 2186 1972 1863 1974 2082
8 2086 1976 1882 1987 2189 2085 1993 2095
8 2090 1987 2086 2190 1981 1875 1977 2087
8 2191 2094 1986 2088 2103 1998 1888 1997
8 2088 1986 2094 2191 1980 1877 1989 2089
8 1991 2091 2192 2097 1880 1982 2089 1989
8 2093 1988 2095 2193 1984 1876 1987 2090
8 1879 1983 2092 1990 1991 2091 2194 2098
8 1985 1878 1990 2092 2093 1988 2096 2195
8 2097 1996 1886 1989 2196 2099 1992 2094
8 2196 2099 1992 2094 2104 1999 1889 1998
8 1994 2096 1988 1883 2100 2197 2095 1993
8 2096 1994 1884 1990 2198 2101 1995 2098
8 1995 2098 2199 2102 1885 1991 2097 1996
8 2203 2104 1998 2103 2106 2001 1891 2000
8 2107 2002 2105 2204 2001 1892 1999 2104
8 2109 2004 2107 2206 2003 1894 2001 2106
8 2110 2005 2108 2207 2004 1895 2002 2107
8 2112 2007 2110 2209 2006 1897 2004 2109
8 2113 2008 2111 2210 2007 1898 2005 2110
8 2120 2011 2113 2212 2014 1901 2007 2112
8 2117 2009 2114 2213 2011 1899 2008 2113
8 2219 2116 2009 2117 2119 2010 1899 2011
8 2222 2118 2010 2119 2122 2012 1900 2013
8 2223 2119 2011 2120 2123 2013 1901 2014
8 2016 1902 2015 2125 2122 2012 2121 2225
8 2126 2016 2122 2226 2017 1903 2013 2123
8 2019 1905 2018 2128 2125 2015 2124 2228
8 2020 1906 2019 2129 2126 2016 2125 2229
8 2022 1908 2021 2131 2128 2018 2127 2231
8 2023 1909 2022 2132 2129 2019 2128 2232
8 2025 1911 2024 2134 2131 2021 2130 2234
8 2026 1912 2025 2135 2132 2022 2131 2235
8 1914 2028 2134 2024 2027 2136 2236 2133
8 2029 1915 2028 2137 2135 2025 2134 2237
8 2030 1918 2031 2138 2137 2028 2136 2238
8 2157 2050 2139 2240 2054 1941 2033 2140
8 2052 1940 2054 2161 2144 2035 2140 2242
8 2140 2033 2141 2243 2035 1923 2034 2143
8 2143 2034 2142 2246 2037 1924 2036 2146
8 2144 2035 2143 2247 2051 1939 2037 2147
8 2146 2036 2145 2249 2039 1925 2038 2149
8 2147 2037 2146 2250 2040 1926 2039 2150
8 2149 2038 2148 2251 2042 1927 2041 2151
8 2150 2039 2149 2252 2043 1928 2042 2152
8 2152 2042 2151 2253 2045 1931 2044 2153
8 2255 2154 2047 2155 2189 2085 1976 2086
8 2170 2062 1949 2063 2255 2154 2047 2155
8 2256 2155 2048 2156 2190 2086 1977 2087
8 2171 2063 1950 2064 2256 2155 2048 2156
8 2258 2159 2050 2157 2164 2056 1941 2054
8 2160 2053 1946 2058 2262 2163 2060 2167
8 2162 2055 1940 2052 2262 2163 2053 2160
8 2162 2055 2164 2263 2052 1940 2054 2161
8 2163 2057 1948 2060 2264 2165 2061 2168
8 2055 1943 2057 2163 2164 2056 2165 2264
8 2182 2076 2166 2268 2077 1964 2061 2168
8 2183 2077 2168 2269 2078 1965 2060 2167
8 2070 1963 2062 2170 2177 2075 2169 2271
8 2172 2070 1959 2065 2272 2170 2063 2171
8 2172 2070 2177 2273 2065 1959 2072 2173
8 2066 1958 2072 2173 2174 2071 2178 2274
8 2067 1957 2071 2174 2175 2069 2176 2275
8 2175 2069 2176 2275 2079 1973 2083 2184
8 2071 1961 2074 2178 2176 2073 2179 2276
8 2176 2073 2179 2276 2083 1975 2084 2186
8 2072 1962 2075 2177 2178 2074 2180 2277
8 2182 2076 1974 2082 2280 2181 2084 2186
8 2183 2077 1971 2081 2281 2182 2082 2185
8 2184 2083 2186 2282 2080 1972 2082 2185
8 2189 2085 1993 2095 2285 2188 2100 2197
8 2190 2086 1987 2090 2286 2189 2095 2193
8 2192 2097 1989 2089 2287 2196 2094 2191
8 2287 2196 2094 2191 2203 2104 1998 2103
8 2194 2098 1991 2091 2288 2199 2097 2192
8 2195 2096 2197 2289 2093 1988 2095 2193
8 2096 2195 2290 2198 1990 2092 2194 2098
8 2097 1996 2099 2196 2199 2102 2200 2291
8 2196 2099 1999 2104 2291 2200 2105 2204
8 2100 2197 2292 2201 1994 2096 2198 2101
8 1995 2098 2198 2101 2102 2199 2293 2202
8 2206 2107 2204 2296 2106 2001 2104 2203
8 2207 2108 2205 2297 2107 2002 2105 2204
8 2209 2110 2207 2299 2109 2004 2107 2206
8 2210 2111 2208 2300 2110 2005 2108 2207
8 2212 2113 2210 2302 2112 2007 2110 2209
8 2213 2114 2211 2303 2113 2008 2111 2210
8 2220 2117 2213 2305 2120 2011 2113 2212
8 2216 2115 2214 2306 2117 2009 2114 2213
8 2216 2115 2009 2117 2311 2217 2116 2219
8 2219 2116 2010 2119 2314 2218 2118 2222
8 2315 2219 2117 2220 2223 2119 2011 2120
8 2122 2012 2121 2225 2222 2118 2221 2317
8 2318 2222 2119 2223 2226 2122 2013 2123
8 2125 2015 2124 2228 2225 2121 2224 2320
8 2126 2016 2125 2229 2226 2122 2225 2321
8 2128 2018 2127 2231 2228 2124 2227 2323
8 2129 2019 2128 2232 2229 2125 2228 2324
8 2131 2021 2130 2234 2231 2127 2230 2326
8 2132 2022 2131 2235 2232 2128 2231 2327
8 2134 2024 2133 2236 2234 2130 2233 2328
8 2135 2025 2134 2237 2235 2131 2234 2329
8 2137 2028 2136 2238 2237 2134 2236 2330
8 2157 2050 2158 2259 2240 2139 2239 2332
8 2257 2157 2240 2334 2161 2054 2140 2242
8 2240 2139 2241 2335 2140 2033 2141 2243
8 2242 2140 2243 2337 2144 2035 2143 2247
8 2243 2141 2244 2338 2143 2034 2142 2246
8 2246 2142 2245 2341 2146 2036 2145 2249
8 2247 2143 2246 2342 2147 2037 2146 2250
8 2249 2145 2248 2343 2149 2038 2148 2251
8 2250 2146 2249 2344 2150 2039 2149 2252
8 2252 2149 2251 2345 2152 2042 2151 2253
8 2169 2271 2347 2254 2062 2170 2255 2154
8 2189 2085 2188 2285 2255 2154 2254 2347
8 2348 2255 2155 2256 2286 2189 2086 2190
8 2272 2170 2063 2171 2348 2255 2155 2256
8 2349 2258 2157 2257 2263 2164 2054 2161
8 2258 2159 2261 2351 2157 2050 2158 2259
8 2258 2159 2056 2164 2351 2261 2165 2264
8 2262 2163 2060 2167 2355 2264 2168 2269
8 2162 2055 2163 2262 2263 2164 2264 2355
8 2357 2266 2165 2264 2268 2166 2061 2168
8 2268 2166 2076 2182 2361 2267 2181 2280
8 2281 2182 2268 2362 2183 2077 2168 2269
8 2271 2169 2270 2364 2177 2075 2180 2277
8 2172 2070 2170 2272 2273 2177 2271 2365
8 2072 2173 2274 2178 2177 2273 2366 2277
8 2071 2174 2275 2176 2178 2274 2367 2276
8 2275 2176 2276 2367 2184 2083 2186 2282
8 2283 2187 2084 2186 2368 2278 2179 2276
8 2178 2074 2180 2277 2276 2179 2278 2368
8 2283 2187 2279 2370 2186 2084 2181 2280
8 2281 2182 2082 2185 2371 2280 2186 2282
8 2188 2285 2374 2284 2100 2197 2292 2201
8 2286 2189 2095 2193 2375 2285 2197 2289
8 2192 2097 2196 2287 2288 2199 2291 2376
8 2287 2196 2104 2203 2376 2291 2204 2296
8 2194 2098 2199 2288 2290 2198 2293 2377
8 2289 2197 2096 2195 2378 2292 2198 2290
8 2291 2200 2105 2204 2379 2294 2205 2297
8 2199 2102 2200 2291 2293 2202 2294 2379
8 2198 2101 2202 2293 2292 2201 2295 2380
8 2299 2207 2297 2383 2206 2107 2204 2296
8 2300 2208 2298 2384 2207 2108 2205 2297
8 2302 2210 2300 2386 2209 2110 2207 2299
8 2303 2211 2301 2387 2210 2111 2208 2300
8 2305 2213 2303 2389 2212 2113 2210 2302
8 2306 2214 2304 2390 2213 2114 2211 2303
8 2310 2216 2306 2392 2220 2117 2213 2305
8 2308 2215 2307 2393 2216 2115 2214 2306
8 2308 2215 2115 2216 2396 2309 2217 2311
8 2310 2216 2117 2220 2398 2311 2219 2315
8 2311 2217 2116 2219 2399 2312 2218 2314
8 2314 2218 2118 2222 2402 2313 2221 2317
8 2315 2219 2119 2223 2403 2314 2222 2318
8 2225 2121 2224 2320 2317 2221 2316 2405
8 2226 2122 2225 2321 2318 2222 2317 2406
8 2228 2124 2227 2323 2320 2224 2319 2408
8 2229 2125 2228 2324 2321 2225 2320 2409
8 2231 2127 2230 2326 2323 2227 2322 2411
8 2232 2128 2231 2327 2324 2228 2323 2412
8 2234 2130 2233 2328 2326 2230 2325 2413
8 2235 2131 2234 2329 2327 2231 2326 2414
8 2237 2134 2236 2330 2329 2234 2328 2415
8 2259 2158 2260 2352 2332 2239 2331 2417
8 2257 2157 2259 2350 2334 2240 2332 2419
8 2240 2139 2239 2332 2335 2241 2333 2420
8 2334 2240 2335 2422 2242 2140 2243 2337
8 2335 2241 2336 2423 2243 2141 2244 2338
8 2337 2243 2338 2425 2247 2143 2246 2342
8 2338 2244 2339 2426 2246 2142 2245 2341
8 2341 2245 2340 2428 2249 2145 2248 2343
8 2342 2246 2341 2429 2250 2146 2249 2344
8 2344 2249 2343 2430 2252 2149 2251 2345
8 2188 2285 2347 2254 2284 2374 2432 2346
8 2347 2254 2346 2432 2271 2169 2270 2364
8 2365 2271 2170 2272 2433 2347 2255 2348
8 2286 2189 2285 2375 2348 2255 2347 2433
8 2349 2258 2351 2435 2257 2157 2259 2350
8 2349 2258 2164 2263 2435 2351 2264 2355
8 2259 2158 2261 2351 2352 2260 2354 2437
8 2356 2265 2354 2437 2264 2165 2261 2351
8 2441 2357 2264 2355 2362 2268 2168 2269
8 2356 2265 2165 2264 2442 2358 2266 2357
8 2443 2359 2266 2357 2361 2267 2166 2268
8 2370 2279 2360 2446 2280 2181 2267 2361
8 2362 2268 2182 2281 2447 2361 2280 2371
8 2180 2277 2368 2278 2270 2364 2449 2363
8 2271 2365 2273 2177 2364 2450 2366 2277
8 2372 2283 2186 2282 2451 2368 2276 2367
8 2178 2274 2367 2276 2277 2366 2451 2368
8 2283 2187 2278 2368 2370 2279 2369 2452
8 2372 2283 2370 2453 2282 2186 2280 2371
8 2284 2374 2455 2373 2201 2292 2380 2295
8 2375 2285 2197 2289 2456 2374 2292 2378
8 2376 2291 2204 2296 2457 2379 2297 2383
8 2288 2199 2291 2376 2377 2293 2379 2457
8 2198 2290 2378 2292 2293 2377 2458 2380
8 2293 2202 2294 2379 2380 2295 2381 2459
8 2384 2298 2381 2459 2297 2205 2294 2379
8 2386 2300 2384 2463 2299 2207 2297 2383
8 2387 2301 2385 2464 2300 2208 2298 2384
8 2389 2303 2387 2466 2302 2210 2300 2386
8 2390 2304 2388 2467 2303 2211 2301 2387
8 2392 2306 2390 2469 2305 2213 2303 2389
8 2393 2307 2391 2470 2306 2214 2304 2390
8 2395 2308 2393 2472 2310 2216 2306 2392
8 2308 2215 2309 2396 2393 2307 2394 2473
8 2395 2308 2216 2310 2475 2396 2311 2398
8 2396 2309 2217 2311 2476 2397 2312 2399
8 2398 2311 2219 2315 2478 2399 2314 2403
8 2399 2312 2218 2314 2479 2400 2313 2402
8 2317 2221 2316 2405 2402 2313 2401 2482
8 2403 2314 2222 2318 2483 2402 2317 2406
8 2320 2224 2319 2408 2405 2316 2404 2485
8 2321 2225 2320 2409 2406 2317 2405 2486
8 2323 2227 2322 2411 2408 2319 2407 2488
8 2324 2228 2323 2412 2409 2320 2408 2489
8 2326 2230 2325 2413 2411 2322 2410 2490
8 2327 2231 2326 2414 2412 2323 2411 2491
8 2329 2234 2328 2415 2414 2326 2413 2492
8 2417 2331 2260 2352 2494 2416 2353 2438
8 2350 2259 2352 2436 2419 2332 2417 2496
8 2332 2239 2331 2417 2420 2333 2418 2497
8 2334 2240 2332 2419 2422 2335 2420 2499
8 2420 2333 2421 2500 2335 2241 2336 2423
8 2422 2335 2423 2502 2337 2243 2338 2425
8 2423 2336 2424 2503 2338 2244 2339 2426
8 2425 2338 2426 2505 2342 2246 2341 2429
8 2426 2339 2427 2506 2341 2245 2340 2428
8 2429 2341 2428 2507 2344 2249 2343 2430
8 2432 2346 2284 2374 2509 2431 2373 2455
8 2432 2346 2431 2509 2364 2270 2363 2449
8 2375 2285 2374 2456 2433 2347 2432 2510
8 2347 2433 2365 2271 2432 2510 2450 2364
8 2350 2259 2351 2435 2436 2352 2437 2514
8 2440 2356 2437 2514 2355 2264 2351 2435
8 2352 2260 2354 2437 2438 2353 2439 2516
8 2356 2265 2358 2442 2437 2354 2439 2516
8 2440 2356 2264 2355 2518 2442 2357 2441
8 2519 2443 2357 2441 2447 2361 2268 2362
8 2443 2359 2444 2520 2357 2266 2358 2442
8 2443 2359 2267 2361 2520 2444 2360 2446
8 2446 2360 2279 2370 2523 2445 2369 2452
8 2453 2370 2446 2524 2371 2280 2361 2447
8 2449 2363 2448 2525 2368 2278 2369 2452
8 2366 2277 2364 2450 2451 2368 2449 2526
8 2372 2283 2368 2451 2453 2370 2452 2527
8 2455 2373 2295 2380 2529 2454 2382 2460
8 2456 2374 2292 2378 2530 2455 2380 2458
8 2377 2293 2379 2457 2458 2380 2459 2531
8 2463 2384 2459 2531 2383 2297 2379 2457
8 2533 2461 2382 2460 2459 2381 2295 2380
8 2464 2385 2461 2533 2384 2298 2381 2459
8 2466 2387 2464 2537 2386 2300 2384 2463
8 2467 2388 2465 2538 2387 2301 2385 2464
8 2469 2390 2467 2540 2389 2303 2387 2466
8 2470 2391 2468 2541 2390 2304 2388 2467
8 2472 2393 2470 2543 2392 2306 2390 2469
8 2393 2307 2394 2473 2470 2391 2471 2544
8 2395 2308 2396 2475 2472 2393 2473 2546
8 2396 2309 2397 2476 2473 2394 2474 2547
8 2475 2396 2311 2398 2549 2476 2399 2478
8 2476 2397 2312 2399 2550 2477 2400 2479
8 2478 2399 2314 2403 2552 2479 2402 2483
8 2479 2400 2313 2402 2553 2480 2401 2482
8 2405 2316 2404 2485 2482 2401 2481 2556
8 2406 2317 2405 2486 2483 2402 2482 2557
8 2408 2319 2407 2488 2485 2404 2484 2559
8 2409 2320 2408 2489 2486 2405 2485 2560
8 2411 2322 2410 2490 2488 2407 2487 2561
8 2412 2323 2411 2491 2489 2408 2488 2562
8 2414 2326 2413 2492 2491 2411 2490 2563
8 2513 2434 2493 2565 2438 2353 2416 2494
8 2496 2417 2352 2436 2567 2494 2438 2515
8 2494 2416 2495 2568 2417 2331 2418 2497
8 2419 2332 2417 2496 2499 2420 2497 2570
8 2497 2418 2498 2571 2420 2333 2421 2500
8 2499 2420 2500 2573 2422 2335 2423 2502
8 2500 2421 2501 2574 2423 2336 2424 2503
8 2502 2423 2503 2576 2425 2338 2426 2505
8 2503 2424 2504 2577 2426 2339 2427 2506
8 2505 2426 2506 2578 2429 2341 2428 2507
8 2509 2431 2373 2455 2580 2508 2454 2529
8 2509 2431 2508 2580 2449 2363 2448 2525
8 2432 2510 2581 2509 2374 2456 2530 2455
8 2432 2510 2450 2364 2509 2581 2526 2449
8 2583 2511 2434 2513 2516 2439 2353 2438
8 2436 2352 2437 2514 2515 2438 2516 2588
8 2440 2356 2442 2518 2514 2437 2516 2588
8 2442 2358 2444 2520 2516 2439 2517 2589
8 2519 2443 2520 2591 2441 2357 2442 2518
8 2519 2443 2361 2447 2591 2520 2446 2524
8 2446 2360 2445 2523 2520 2444 2521 2592
8 2525 2448 2522 2593 2452 2369 2445 2523
8 2524 2446 2370 2453 2594 2523 2452 2527
8 2526 2449 2525 2595 2451 2368 2452 2527
8 2534 2462 2528 2597 2460 2382 2454 2529
8 2530 2455 2380 2458 2598 2529 2460 2532
8 2599 2533 2460 2532 2531 2459 2380 2458
8 2537 2464 2533 2599 2463 2384 2459 2531
8 2534 2462 2382 2460 2601 2535 2461 2533
8 2538 2465 2535 2601 2464 2385 2461 2533
8 2540 2467 2538 2604 2466 2387 2464 2537
8 2541 2468 2539 2605 2467 2388 2465 2538
8 2543 2470 2541 2607 2469 2390 2467 2540
8 2470 2391 2471 2544 2541 2468 2542 2608
8 2472 2393 2473 2546 2543 2470 2544 2610
8 2473 2394 2474 2547 2544 2471 2545 2611
8 2475 2396 2476 2549 2546 2473 2547 2613
8 2476 2397 2477 2550 2547 2474 2548 2614
8 2549 2476 2399 2478 2616 2550 2479 2552
8 2479 2400 2480 2553 2550 2477 2551 2617
8 2552 2479 2402 2483 2619 2553 2482 2557
8 2482 2401 2481 2556 2553 2480 2554 2620
8 2485 2404 2484 2559 2556 2481 2555 2623
8 2486 2405 2485 2560 2557 2482 2556 2624
8 2488 2407 2487 2561 2559 2484 2558 2625
8 2489 2408 2488 2562 2560 2485 2559 2626
8 2491 2411 2490 2563 2562 2488 2561 2627
8 2513 2434 2512 2585 2565 2493 2564 2630
8 2586 2513 2565 2632 2515 2438 2494 2567
8 2565 2493 2566 2633 2494 2416 2495 2568
8 2567 2494 2568 2635 2496 2417 2497 2570
8 2568 2495 2569 2636 2497 2418 2498 2571
8 2570 2497 2571 2638 2499 2420 2500 2573
8 2571 2498 2572 2639 2500 2421 2501 2574
8 2573 2500 2574 2641 2502 2423 2503 2576
8 2574 2501 2575 2642 2503 2424 2504 2577
8 2576 2503 2577 2643 2505 2426 2506 2578
8 2597 2528 2579 2645 2529 2454 2508 2580
8 2580 2508 2579 2645 2525 2448 2522 2593
8 2581 2509 2455 2530 2646 2580 2529 2598
8 2581 2509 2580 2646 2526 2449 2525 2595
8 2583 2511 2582 2648 2513 2434 2512 2585
8 2583 2511 2439 2516 2648 2582 2517 2589
8 2649 2583 2513 2586 2588 2516 2438 2515
8 2589 2517 2444 2520 2653 2587 2521 2592
8 2518 2442 2520 2591 2588 2516 2589 2654
8 2593 2522 2590 2655 2523 2445 2521 2592
8 2524 2446 2523 2594 2591 2520 2592 2656
8 2595 2525 2593 2657 2527 2452 2523 2594
8 2602 2536 2596 2659 2534 2462 2528 2597
8 2600 2534 2597 2660 2532 2460 2529 2598
8 2600 2534 2460 2532 2661 2601 2533 2599
8 2604 2538 2601 2661 2537 2464 2533 2599
8 2602 2536 2462 2534 2663 2603 2535 2601
8 2601 2535 2465 2538 2663 2603 2539 2605
8 2607 2541 2605 2665 2540 2467 2538 2604
8 2608 2542 2606 2666 2541 2468 2539 2605
8 2543 2470 2544 2610 2607 2541 2608 2668
8 2544 2471 2545 2611 2608 2542 2609 2669
8 2546 2473 2547 2613 2610 2544 2611 2671
8 2547 2474 2548 2614 2611 2545 2612 2672
8 2549 2476 2550 2616 2613 2547 2614 2674
8 2550 2477 2551 2617 2614 2548 2615 2675
8 2552 2479 2553 2619 2616 2550 2617 2677
8 2553 2480 2554 2620 2617 2551 2618 2678
8 2557 2482 2556 2624 2619 2553 2620 2680
8 2556 2481 2555 2623 2620 2554 2621 2681
8 2559 2484 2558 2625 2623 2555 2622 2683
8 2560 2485 2559 2626 2624 2556 2623 2684
8 2562 2488 2561 2627 2626 2559 2625 2685
8 2690 2629 2564 2630 2650 2584 2512 2585
8 2586 2513 2585 2651 2632 2565 2630 2691
8 2630 2564 2631 2692 2565 2493 2566 2633
8 2632 2565 2633 2694 2567 2494 2568 2635
8 2633 2566 2634 2695 2568 2495 2569 2636
8 2635 2568 2636 2697 2570 2497 2571 2638
8 2636 2569 2637 2698 2571 2498 2572 2639
8 2638 2571 2639 2700 2573 2500 2574 2641
8 2639 2572 2640 2701 2574 2501 2575 2642
8 2641 2574 2642 2702 2576 2503 2577 2643
8 2597 2528 2596 2659 2645 2579 2644 2704
8 2645 2579 2644 2704 2593 2522 2590 2655
8 2660 2597 2645 2705 2598 2529 2580 2646
8 2646 2580 2645 2705 2595 2525 2593 2657
8 2650 2584 2512 2585 2707 2647 2582 2648
8 2648 2582 2517 2589 2707 2647 2587 2653
8 2649 2583 2648 2708 2586 2513 2585 2651
8 2649 2583 2516 2588 2708 2648 2589 2654
8 2655 2590 2652 2710 2592 2521 2587 2653
8 2654 2589 2520 2591 2711 2653 2592 2656
8 2657 2593 2655 2712 2594 2523 2592 2656
8 2602 2536 2603 2663 2659 2596 2658 2714
8 2662 2602 2659 2715 2600 2534 2597 2660
8 2662 2602 2534 2600 2717 2663 2601 2661
8 2661 2601 2538 2604 2717 2663 2605 2665
8 2666 2606 2664 2718 2605 2539 2603 2663
8 2668 2608 2666 2720 2607 2541 2605 2665
8 2608 2542 2609 2669 2666 2606 2667 2721
8 2610 2544 2611 2671 2668 2608 2669 2723
8 2611 2545 2612 2672 2669 2609 2670 2724
8 2613 2547 2614 2674 2671 2611 2672 2726
8 2614 2548 2615 2675 2672 2612 2673 2727
8 2616 2550 2617 2677 2674 2614 2675 2729
8 2617 2551 2618 2678 2675 2615 2676 2730
8 2619 2553 2620 2680 2677 2617 2678 2732
8 2620 2554 2621 2681 2678 2618 2679 2733
8 2624 2556 2623 2684 2680 2620 2681 2735
8 2681 2621 2555 2623 2736 2682 2622 2683
8 2626 2559 2625 2685 2684 2623 2683 2737
8 2688 2628 2584 2650 2740 2686 2647 2707
8 2688 2628 2687 2742 2650 2584 2629 2690
8 2690 2629 2689 2745 2630 2564 2631 2692
8 2746 2690 2630 2691 2709 2650 2585 2651
8 2691 2630 2692 2747 2632 2565 2633 2694
8 2692 2631 2693 2748 2633 2566 2634 2695
8 2694 2633 2695 2750 2635 2568 2636 2697
8 2695 2634 2696 2751 2636 2569 2637 2698
8 2697 2636 2698 2753 2638 2571 2639 2700
8 2698 2637 2699 2754 2639 2572 2640 2701
8 2700 2639 2701 2755 2641 2574 2642 2702
8 2659 2596 2658 2714 2704 2644 2703 2757
8 2704 2644 2703 2757 2655 2590 2652 2710
8 2660 2597 2659 2715 2705 2645 2704 2758
8 2705 2645 2704 2758 2657 2593 2655 2712
8 2759 2706 2647 2707 2710 2652 2587 2653
8 2709 2650 2585 2651 2760 2707 2648 2708
8 2708 2648 2589 2654 2760 2707 2653 2711
8 2712 2655 2710 2761 2656 2592 2653 2711
8 2763 2713 2658 2714 2718 2664 2603 2663
8 2662 2602 2663 2717 2715 2659 2714 2764
8 2720 2666 2718 2767 2665 2605 2663 2717
8 2768 2719 2664 2718 2721 2667 2606 2666
8 2668 2608 2669 2723 2720 2666 2721 2770
8 2669 2609 2670 2724 2721 2667 2722 2771
8 2671 2611 2672 2726 2723 2669 2724 2773
8 2672 2612 2673 2727 2724 2670 2725 2774
8 2674 2614 2675 2729 2726 2672 2727 2776
8 2675 2615 2676 2730 2727 2673 2728 2777
8 2677 2617 2678 2732 2729 2675 2730 2779
8 2678 2618 2679 2733 2730 2676 2731 2780
8 2680 2620 2681 2735 2732 2678 2733 2782
8 2733 2679 2621 2681 2783 2734 2682 2736
8 2735 2681 2623 2684 2784 2736 2683 2737
8 2740 2686 2647 2707 2787 2738 2706 2759
8 2688 2628 2686 2740 2742 2687 2739 2789
8 2743 2688 2650 2709 2790 2740 2707 2760
8 2742 2687 2741 2792 2690 2629 2689 2745
8 2743 2688 2742 2793 2709 2650 2690 2746
8 2745 2689 2744 2795 2692 2631 2693 2748
8 2746 2690 2745 2796 2691 2630 2692 2747
8 2747 2692 2748 2797 2694 2633 2695 2750
8 2748 2693 2749 2798 2695 2634 2696 2751
8 2750 2695 2751 2800 2697 2636 2698 2753
8 2751 2696 2752 2801 2698 2637 2699 2754
8 2753 2698 2754 2802 2700 2639 2701 2755
8 2763 2713 2756 2804 2714 2658 2703 2757
8 2759 2706 2652 2710 2804 2756 2703 2757
8 2715 2659 2714 2764 2758 2704 2757 2805
8 2758 2704 2757 2805 2712 2655 2710 2761
8 2806 2759 2707 2760 2761 2710 2653 2711
8 2765 2716 2762 2808 2718 2664 2713 2763
8 2809 2763 2714 2764 2767 2718 2663 2717
8 2765 2716 2664 2718 2811 2766 2719 2768
8 2813 2768 2718 2767 2770 2721 2666 2720
8 2814 2769 2719 2768 2771 2722 2667 2721
8 2723 2669 2724 2773 2770 2721 2771 2816
8 2724 2670 2725 2774 2771 2722 2772 2817
8 2726 2672 2727 2776 2773 2724 2774 2819
8 2727 2673 2728 2777 2774 2725 2775 2820
8 2729 2675 2730 2779 2776 2727 2777 2822
8 2730 2676 2731 2780 2777 2728 2778 2823
8 2732 2678 2733 2782 2779 2730 2780 2825
8 2780 2731 2679 2733 2826 2781 2734 2783
8 2782 2733 2681 2735 2827 2783 2736 2784
8 2830 2785 2738 2787 2804 2756 2706 2759
8 2789 2739 2686 2740 2832 2786 2738 2787
8 2790 2740 2707 2760 2833 2787 2759 2806
8 2742 2687 2739 2789 2792 2741 2788 2835
8 2743 2688 2740 2790 2793 2742 2789 2836
8 2792 2741 2791 2838 2745 2689 2744 2795
8 2793 2742 2792 2839 2746 2690 2745 2796
8 2795 2744 2794 2841 2748 2693 2749 2798
8 2796 2745 2795 2842 2747 2692 2748 2797
8 2797 2748 2798 2843 2750 2695 2751 2800
8 2798 2749 2799 2844 2751 2696 2752 2801
8 2800 2751 2801 2845 2753 2698 2754 2802
8 2808 2762 2803 2847 2763 2713 2756 2804
8 2809 2763 2804 2848 2764 2714 2757 2805
8 2806 2759 2710 2761 2848 2804 2757 2805
8 2765 2716 2766 2811 2808 2762 2807 2850
8 2810 2765 2808 2851 2767 2718 2763 2809
8 2810 2765 2718 2767 2852 2811 2768 2813
8 2811 2766 2719 2768 2853 2812 2769 2814
8 2855 2814 2768 2813 2816 2771 2721 2770
8 2856 2815 2769 2814 2817 2772 2722 2771
8 2773 2724 2774 2819 2816 2771 2817 2858
8 2774 2725 2775 2820 2817 2772 2818 2859
8 2776 2727 2777 2822 2819 2774 2820 2861
8 2777 2728 2778 2823 2820 2775 2821 2862
8 2779 2730 2780 2825 2822 2777 2823 2864
8 2823 2778 2731 2780 2865 2824 2781 2826
8 2825 2780 2733 2782 2866 2826 2783 2827
8 2869 2828 2785 2830 2847 2803 2756 2804
8 2871 2829 2786 2832 2830 2785 2738 2787
8 2872 2830 2787 2833 2848 2804 2759 2806
8 2789 2739 2786 2832 2835 2788 2831 2874
8 2836 2789 2740 2790 2875 2832 2787 2833
8 2792 2741 2788 2835 2838 2791 2834 2877
8 2793 2742 2789 2836 2839 2792 2835 2878
8 2838 2791 2837 2880 2795 2744 2794 2841
8 2839 2792 2838 2881 2796 2745 2795 2842
8 2841 2794 2840 2882 2798 2749 2799 2844
8 2842 2795 2841 2883 2797 2748 2798 2843
8 2843 2798 2844 2884 2800 2751 2801 2845
8 2886 2846 2803 2847 2850 2807 2762 2808
8 2851 2808 2847 2887 2809 2763 2804 2848
8 2850 2807 2766 2811 2889 2849 2812 2853
8 2810 2765 2811 2852 2851 2808 2850 2890
8 2852 2811 2768 2813 2891 2853 2814 2855
8 2853 2812 2769 2814 2892 2854 2815 2856
8 2894 2856 2814 2855 2858 2817 2771 2816
8 2817 2772 2818 2859 2856 2815 2857 2895
8 2819 2774 2820 2861 2858 2817 2859 2897
8 2820 2775 2821 2862 2859 2818 2860 2898
8 2822 2777 2823 2864 2861 2820 2862 2900
8 2823 2778 2824 2865 2862 2821 2863 2901
8 2864 2823 2780 2825 2902 2865 2826 2866
8 2904 2867 2828 2869 2886 2846 2803 2847
8 2869 2828 2868 2906 2830 2785 2829 2871
8 2907 2869 2830 2872 2887 2847 2804 2848
8 2871 2829 2870 2909 2832 2786 2831 2874
8 2910 2871 2832 2875 2872 2830 2787 2833
8 2835 2788 2831 2874 2877 2834 2873 2912
8 2836 2789 2832 2875 2878 2835 2874 2913
8 2877 2834 2876 2915 2838 2791 2837 2880
8 2839 2792 2835 2878 2881 2838 2877 2916
8 2880 2837 2879 2917 2841 2794 2840 2882
8 2881 2838 2880 2918 2842 2795 2841 2883
8 2883 2841 2882 2919 2843 2798 2844 2884
8 2921 2885 2846 2886 2889 2849 2807 2850
8 2922 2886 2847 2887 2890 2850 2808 2851
8 2889 2849 2812 2853 2924 2888 2854 2892
8 2890 2850 2811 2852 2925 2889 2853 2891
8 2891 2853 2814 2855 2926 2892 2856 2894
8 2892 2854 2815 2856 2927 2893 2857 2895
8 2858 2817 2859 2897 2894 2856 2895 2929
8 2859 2818 2860 2898 2895 2857 2896 2930
8 2861 2820 2862 2900 2897 2859 2898 2932
8 2862 2821 2863 2901 2898 2860 2899 2933
8 2864 2823 2865 2902 2900 2862 2901 2934
8 2904 2867 2846 2886 2936 2903 2885 2921
8 2904 2867 2903 2936 2869 2828 2868 2906
8 2937 2904 2869 2907 2922 2886 2847 2887
8 2906 2868 2905 2939 2871 2829 2870 2909
8 2907 2869 2906 2940 2872 2830 2871 2910
8 2909 2870 2908 2942 2874 2831 2873 2912
8 2910 2871 2909 2943 2875 2832 2874 2913
8 2912 2873 2911 2945 2877 2834 2876 2915
8 2878 2835 2874 2913 2916 2877 2912 2946
8 2915 2876 2914 2947 2880 2837 2879 2917
8 2916 2877 2915 2948 2881 2838 2880 2918
8 2918 2880 2917 2949 2883 2841 2882 2919
8 2921 2885 2849 2889 2951 2920 2888 2924
8 2952 2921 2886 2922 2925 2889 2850 2890
8 2924 2888 2854 2892 2954 2923 2893 2927
8 2925 2889 2853 2891 2955 2924 2892 2926
8 2926 2892 2856 2894 2956 2927 2895 2929
8 2895 2857 2896 2930 2927 2893 2928 2957
8 2897 2859 2898 2932 2929 2895 2930 2959
8 2898 2860 2899 2933 2930 2896 2931 2960
8 2900 2862 2901 2934 2932 2898 2933 2961
8 2936 2903 2885 2921 2963 2935 2920 2951
8 2936 2903 2935 2963 2906 2868 2905 2939
8 2937 2904 2886 2922 2964 2936 2921 2952
8 2937 2904 2936 2964 2907 2869 2906 2940
8 2939 2905 2938 2966 2909 2870 2908 2942
8 2940 2906 2939 2967 2910 2871 2909 2943
8 2942 2908 2941 2969 2912 2873 2911 2945
8 2943 2909 2942 2970 2913 2874 2912 2946
8 2945 2911 2944 2971 2915 2876 2914 2947
8 2946 2912 2945 2972 2916 2877 2915 2948
8 2948 2915 2947 2973 2918 2880 2917 2949
8 2951 2920 2888 2924 2975 2950 2923 2954
8 2952 2921 2889 2925 2976 2951 2924 2955
8 2927 2893 2928 2957 2954 2923 2953 2978
8 2955 2924 2892 2926 2979 2954 2927 2956
8 2929 2895 2930 2959 2956 2927 2957 2980
8 2930 2896 2931 2960 2957 2928 2958 2981
8 2932 2898 2933 2961 2959 2930 2960 2982
8 2951 2920 2950 2975 2963 2935 2962 2984
8 2963 2935 2962 2984 2939 2905 2938 2966
8 2964 2936 2921 2952 2985 2963 2951 2976
8 2964 2936 2963 2985 2940 2906 2939 2967
8 2966 2938 2965 2987 2942 2908 2941 2969
8 2967 2939 2966 2988 2943 2909 2942 2970
8 2969 2941 2968 2989 2945 2911 2944 2971
8 2970 2942 2969 2990 2946 2912 2945 2972
8 2972 2945 2971 2991 2948 2915 2947 2973
8 2954 2923 2953 2978 2975 2950 2974 2993
8 2976 2951 2924 2955 2994 2975 2954 2979
8 2957 2928 2958 2981 2978 2953 2977 2995
8 2956 2927 2957 2980 2979 2954 2978 2996
8 2959 2930 2960 2982 2980 2957 2981 2997
8 2984 2962 2983 2999 2966 2938 2965 2987
8 2975 2950 2974 2993 2984 2962 2983 2999
8 2976 2951 2975 2994 2985 2963 2984 3000
8 2985 2963 2984 3000 2967 2939 2966 2988
8 2987 2965 2986 3001 2969 2941 2968 2989
8 2988 2966 2987 3002 2970 2942 2969 2990
8 2990 2969 2989 3003 2972 2945 2971 2991
8 2978 2953 2977 2995 2993 2974 2992 3004
8 2979 2954 2978 2996 2994 2975 2993 3005
8 2980 2957 2981 2997 2996 2978 2995 3006
8 2974 2993 2999 2983 2992 3004 3007 2998
8 2983 2999 2987 2965 2998 3007 3001 2986
8 3000 2984 2999 3008 2988 2966 2987 3002
8 2994 2975 2993 3005 3000 2984 2999 3008
8 3002 2987 3001 3009 2990 2969 2989 3003
8 2996 2978 2995 3006 3005 2993 3004 3010
8 3005 2993 3004 3010 3008 2999 3007 3011
8 3008 2999 3007 3011 3002 2987 3001 3009

CELL_TYPES 1910
12
12
12
12
12
12
12
12
12
12
12
12
12
12
12
12
12
12
12
12
12
12
12
12
12
12
12
12
12
12
12
12
12
12
12
12
12
12
12
12
12
12
12
12
12
12
12
12
12
12
12
12
12
12
12
12
12
12
12
12
12
12
12
12
12
12
12
12
12
12
12
12
12
12
12
12
12
12
12
12
12
12
12
12
12
12
12
12
12
12
12
12
12
12
12
12
12
12
12
12
12
12
12
12
12
12
12
12
12
12
12
12
12
12
12
12
12
12
12
12
12
12
12
12
12
12
12
12
12
12
12
12
12
12
12
12
12
12
12
12
12
12
12
12
12
12
12
12
12
12
12
12
12
12
12
12
12
12
12
12
12
12
12
12
12
12
12
12
12
12
12
12
12
12
12
12
12
12
12
12
12
12
12
12
12
12
12
12
12
12
12
12
12
12
12
12
12
12
12
12
12
12
12
12
12
12
12
12
12
12
12
12
12
12
12
12
12
12
12
12
12
12
12
12
12
12
12
12
12
12
12
12
12
12
12
12
12
12
12
12
12
12
12
12
12
12
12
12
12
12
12
12
12
12
12
12
12
12
12
12
12
12
12
12
12
12
12
12
12
12
12
12
12
12
12
12
12
12
12
12
12
12
12
12
12
12
12
12
12
12
12
12
12
12
12
12
12
12
12
12
12
12
12
12
12
12
12
12
12
12
12
12
12
12
12
12
12
12
12
12
12
12
12
12
12
12
12
12
12
12
12
12
12
12
12
12
12
12
12
12
12
12
12
12
12
12
12
12
12
12
12
12
12
12
12
12
12
12
12
12
12
12
12
12
12
12
12
12
12
12
12
12
12
12
12
12
12
12
12
12
12
12
12
12
12
12
12
12
12
12
12
12
12
12
12
12
12
12
12
12
12
12
12
12
12
12
12
12
12
12
12
12
12
12
12
12
12
12
12
12
12
12
12
12
12
12
12
12
12
12
12
12
12
12
12
12
12
12
12
12
12
12
12
12
12
12
12
12
12
12
12
12
12
12
12
12
12
12
12
12
12
12
12
12
12
12
12
12
12
12
12
12
12
12
12
12
12
12
12
12
12
12
12
12
12
12
12
12
12
12
12
12
12
12
12
12
12
12
12
12
12
12
12
12
12
12
12
12
12
12
12
12
12
12
12
12
12
12
12
12
12
12
12
12
12
12
12
12
12
12
12
12
12
12
12
12
12
12
12
12
12
12
12
12
12
12
12
12
12
12
12
12
12
12
12
12
12
12
12
12
12
12
12
12
12
12
12
12
12
12
12
12
12
12
12
12
12
12
12
12
12
12
12
12
12
12
12
12
12
12
12
12
12
12
12
12
12
12
12
12
12
12
12
12
12
12
12
12
12
12
12
12
12
12
12
12
12
12
12
12
12
12
12
12
12
12
12
12
12
12
12
12
12
12
12
12
12
12
12
12
12
12
12
12
12
12
12
12
12
12
12
12
12
12
12
12
12
12
12
12
12
12
12
12
12
12
12
12
12
12
12
12
12
12
12
12
12
12
12
12
12
12
12
12
12
12
12
12
12
12
12
12
12
12
12
12
12
12
12
12
12
12
12
12
12
12
12
12
12
12
12
12
12
12
12
12
12
12
12
12
12
12
12
12
12
12
12
12
12
12
12
12
12
12
12
12
12
12
12
12
12
12
12
12
12
12
12
12
12
12
12
12
12
12
12
12
12
12
12
12
12
12
12
12
12
12
12
12
12
12
12
12
12
12
12
12
12
12
12
12
12
12
12
12
12
12
12
12
12
12
12
12
12
12
12
12
12
12
12
12
12
12
12
12
12
12
12
12
12
12
12
12
12
12
12
12
12
12
12
12
12
12
12
12
12
12
12
12
12
12
12
12
12
12
12
12
12
12
12
12
12
12
12
12
12
12
12
12
12
12
12
12
12
12
12
12
12
12
12
12
12
12
12
12
12
12
12
12
12
12
12
12
12
12
12
12
12
12
12
12
12
12
12
12
12
12
12
12
12
12
12
12
12
12
12
12
12
12
12
12
12
12
12
12
12
12
12
12
12
12
12
12
12
12
12
12
12
12
12
12
12
12
12
12
12
12
12
12
12
12
12
12
12
12
12
12
12
12
12
12
12
12
12
12
12
12
12
12
12
12
12
12
12
12
12
12
12
12
12
12
12
12
12
12
12
12
12
12
12
12
12
12
12
12
12
12
12
12
12
12
12
12
12
12
12
12
12
12
12
12
12
12
12
12
12
12
12
12
12
12
12
12
12
12
12
12
12
12
12
12
12
12
12
12
12
12
12
12
12
12
12
12
12
12
12
12
12
12
12
12
12
12
12
12
12
12
12
12
12
12
12
12
12
12
12
12
12
12
12
12
12
12
12
12
12
12
12
12
12
12
12
12
12
12
12
12
12
12
12
12
12
12
12
12
12
12
12
12
12
12
12
12
12
12
12
12
12
12
12
12
12
12
12
12
12
12
12
12
12
12
12
12
12
12
12
12
12
12
12
12
12
12
12
12
12
12
12
12
12
12
12
12
12
12
12
12
12
12
12
12
12
12
12
12
12
12
12
12
12
12
12
12
12
12
12
12
12
12
12
12
12
12
12
12
12
12
12
12
12
12
12
12
12
12
12
12
12
12
12
12
12
12
12
12
12
12
12
12
12
12
12
12
12
12
12
12
12
12
12
12
12
12
12
12
12
12
12
12
12
12
12
12
12
12
12
12
12
12
12
12
12
12
12
12
12
12
12
12
12
12
12
12
12
12
12
12
12
12
12
12
12
12
12
12
12
12
12
12
12
12
12
12
12
12
12
12
12
12
12
12
12
12
12
12
12
12
12
12
12
12
12
12
12
12
12
12
12
12
12
12
12
12
12
12
12
12
12
12
12
12
12
12
12
12
12
12
12
12
12
12
12
12
12
12
12
12
12
12
12
12
12
12
12
12
12
12
12
12
12
12
12
12
12
12
12
12
12
12
12
12
12
12
12
12
12
12
12
12
12
12
12
12
12
12
12
12
12
12
12
12
12
12
12
12
12
12
12
12
12
12
12
12
12
12
12
12
12
12
12
12
12
12
12
12
12
12
12
12
12
12
12
12
12
12
12
12
12
12
12
12
12
12
12
12
12
12
12
12
12
12
12
12
12
12
12
12
12
12
12
12
12
12
12
12
12
12
12
12
12
12
12
12
12
12
12
12
12
12
12
12
12
12
12
12
12
12
12
12
12
12
12
12
12
12
12
12
12
12
12
12
12
12
12
12
12
12
12
12
12
12
12
12
12
12
12
12
12
12
12
12
12
12
12
12
12
12
12
12
12
12
12
12
12
12
12
12
12
12
12
12
12
12
12
12
12
12
12
12
12
12
12
12
12
12
12
12
12
12
12
12
12
12
12
12
12
12
12
12
12
12
12
12
12
12
12
12
12
12
12
12
12
12
12
12
12
12
12
12
12
12
12
12
12
12
12
12
12
12
12
12
12
12
12
12
12
12
12
12
12
12
12
12
12
12
12
12
12
12
12
12
12
12
12
12
12
12
12
12
12
12
12
12
12
12
12
12
12
12
12
12
12
12
12
12
12
12
12
12
12
12
12
12
12
12
12
12
12
12
12
12
12
12
12
12
12
12
12
12
12
12
12
12
12
12
12
12
12
12
12
12
12
12
12
12
12
12
12
12
12
12
12
12
12
12
12
12
12
12
12
12
12
12
12
12
12
12
12
12
12
12
12
12
12
12
12
12
12
12
12
12
12
12
12
12
12
12
12
12
12
12
12
12
12
12
12
12
12
12
12
12
12
12
12
12
12
12
12
12
12
12
12
12
12
12
12
12
12
12
12
12
12
12
12
12
12
12
12
12
12
12
12
12
12
12
12
12
12
12
12
12
12
12
12
12
12
12
12
12
12
12
12
12
12
12
12
12
12
12
12
12
12
12
12
12
12
12
12
12
12
12
12
12
12
12
12
12
12
12
12
12
12
12
12
12
12
12
12
12
12
12
12
12
12
12
12
12
12
12
12
12
12
12
12
12
12
12
12
12
12
12
12
12
12
12
12
12
12
12
12
12
12
12
12
12
12
12
12
12
12
12
12
12
12
12
12
12
12
12
12
12
12
12
12
12
12
12
12
12
12
12
12
12
12
12
12
12
12
12
12
12
12
12
12
12
12
12
12
12
12
12
12
12
12
12
12
12
12
12
12
12
12
12
12
12
12
12
12
12
12
12
12
12
12
12
12
12
12
12
12
12
12
12
12
12
12
12
12
12
12
12
12
12
12
12
12
12
12
12
12
12
12
12
12
12
12
12
12
12
12
12

POINT_DATA 3012
SCALARS Jp_lamdaP float 4
LOOKUP_TABLE default
1 1 1 1
1 1 1 1
1 1 1 1
0.999988 1 1 0.999988
0.999998 1 1 0.999998
1 1 1 1
0.999883 1 1 0.999883
1 1 1 1
1 1 1 1
1 1 1 1
1 1 1 1
0.999964 1 1 0.999964
0.999972 1 1 0.999972
0.999989 1 1 0.999989
1 1 1 1
0.99999 1 1 0.99999
1 1 1 1
0.999998 1 1 0.999998
0.999885 1 1 0.999885
1 1 1 1
0.999985 1 1 0.999985
0.999994 1 1 0.999994
0.999801 1 1 0.999801
0.99986 1 1 0.99986
1 1 1 1
0.999909 1 1 0.999909
0.999672 1 1 0.999672
1 1 1 1
0.999998 1 1 0.999998
1 1 1 1
1 1 1 1
0.999969 1 1 0.999969
0.999994 1 1 0.999994
1 1 1 1
0.999907 1 1 0.999907
1 1 1 1
0.999951 1 1 0.999951
0.99998 1 1 0.99998
0.999721 1 1 0.999721
1 1 1 1
1 1 1 1
0.999994 1 1 0.999994
1 1 1 1
0.999984 1 1 0.999984
0.999794 1 1 0.999794
1 1 1 1
0.999862 1 1 0.999862
0.999991 1 1 0.999991
0.999999 1 1 0.999999
1 1 1 1
0.999886 1 1 0.999886
0.999987 1 1 0.999987
0.999986 1 1 0.999986
1 1 1 1
0.999995 1 1 0.999995
0.999803 1 1 0.999803
0.99991 1 1 0.99991
0.999862 1 1 0.999862
0.999665 1 1 0.999665
1 1 1 1
0.999981 1 1 0.999981
0.999823 1 1 0.999823
0.999785 1 1 0.999785
0.999831 1 1 0.999831
0.999477 1 1 0.999477
0.99959 1 1 0.99959
1 1 1 1
0.999941 1 1 0.999941
0.99973 1 1 0.99973
0.999412 1 1 0.999412
1 1 1 1
1 1 1 1
1 1 1 1
0.999973 1 1 0.999973
1 1 1 1
1 1 1 1
0.999911 1 1 0.999911
1 1 1 1
0.999955 1 1 0.999955
0.999985 1 1 0.999985
0.99972 1 1 0.99972
1 1 1 1
1 1 1 1
0.999883 1 1 0.999883
0.99993 1 1 0.99993
0.999553 1 1 0.999553
0.999995 1 1 0.999995
0.999695 1 1 0.999695
0.999749 1 1 0.999749
0.999536 1 1 0.999536
1 1 1 1
1 1 1 1
1 1 1 1
1 1 1 1
1 1 1 1
0.99999 1 1 0.99999
0.999809 1 1 0.999809
0.999996 1 1 0.999996
0.999862 1 1 0.999862
1 1 1 1
0.999767 1 1 0.999767
0.999842 1 1 0.999842
0.999316 1 1 0.999316
0.999876 1 1 0.999876
0.999391 1 1 0.999391
0.999977 1 1 0.999977
0.999988 1 1 0.999988
1 1 1 1
0.999996 1 1 0.999996
0.999804 1 1 0.999804
0.999864 1 1 0.999864
0.999911 1 1 0.999911
0.999657 1 1 0.999657
1 1 1 1
0.999983 1 1 0.999983
0.99978 1 1 0.99978
0.999786 1 1 0.999786
1 1 1 1
0.999958 1 1 0.999958
0.999833 1 1 0.999833
0.99946 1 1 0.99946
0.999722 1 1 0.999722
0.999601 1 1 0.999601
0.999413 1 1 0.999413
0.999779 1 1 0.999779
0.999779 1 1 0.999779
0.999365 1 1 0.999365
0.999418 1 1 0.999418
0.999516 1 1 0.999516
0.999221 1 1 0.999221
1 1 1 1
0.999364 1 1 0.999364
0.999993 1 1 0.999993
0.999747 1 1 0.999747
0.99946 1 1 0.99946
0.999307 1 1 0.999307
1 1 1 1
0.999842 1 1 0.999842
1 1 1 1
1 1 1 1
0.999917 1 1 0.999917
1 1 1 1
0.99999 1 1 0.99999
0.999959 1 1 0.999959
0.999719 1 1 0.999719
1 1 1 1
1 1 1 1
0.99989 1 1 0.99989
0.999936 1 1 0.999936
0.999555 1 1 0.999555
0.999997 1 1 0.999997
0.999695 1 1 0.999695
0.999749 1 1 0.999749
0.99953 1 1 0.99953
1 1 1 1
1 1 1 1
0.999861 1 1 0.999861
0.999481 1 1 0.999481
0.999636 1 1 0.999636
0.999335 1 1 0.999335
0.999787 1 1 0.999787
0.999505 1 1 0.999505
0.999552 1 1 0.999552
0.999456 1 1 0.999456
1 1 1 1
1 1 1 1
1 1 1 1
1 1 1 1
1 1 1 1
1 1 1 1
1 1 1 1
0.999861 1 1 0.999861
0.999805 1 1 0.999805
1 1 1 1
1 1 1 1
0.999769 1 1 0.999769
0.999842 1 1 0.999842
0.999316 1 1 0.999316
0.999873 1 1 0.999873
0.999391 1 1 0.999391
0.999758 1 1 0.999758
0.99927 1 1 0.99927
0.999359 1 1 0.999359
0.999101 1 1 0.999101
0.999428 1 1 0.999428
0.999184 1 1 0.999184
1 1 1 1
0.999986 1 1 0.999986
0.999735 1 1 0.999735
0.999787 1 1 0.999787
1 1 1 1
0.999975 1 1 0.999975
0.999836 1 1 0.999836
0.999444 1 1 0.999444
0.999612 1 1 0.999612
0.999713 1 1 0.999713
0.999414 1 1 0.999414
0.999777 1 1 0.999777
0.999779 1 1 0.999779
0.999332 1 1 0.999332
0.999429 1 1 0.999429
1 1 1 1
0.99999 1 1 0.99999
0.999761 1 1 0.999761
0.999517 1 1 0.999517
0.999201 1 1 0.999201
0.999457 1 1 0.999457
0.999372 1 1 0.999372
0.999308 1 1 0.999308
1 1 1 1
0.999842 1 1 0.999842
0.99928 1 1 0.99928
0.999401 1 1 0.999401
0.999139 1 1 0.999139
0.999145 1 1 0.999145
0.999306 1 1 0.999306
0.999126 1 1 0.999126
0.999999 1 1 0.999999
0.999262 1 1 0.999262
0.999771 1 1 0.999771
0.999521 1 1 0.999521
0.999352 1 1 0.999352
0.999274 1 1 0.999274
0.999803 1 1 0.999803
0.999894 1 1 0.999894
0.999609 1 1 0.999609
0.999892 1 1 0.999892
1 1 1 1
1 1 1 1
0.999942 1 1 0.999942
0.999557 1 1 0.999557
0.999999 1 1 0.999999
0.999748 1 1 0.999748
0.999696 1 1 0.999696
0.999524 1 1 0.999524
1 1 1 1
1 1 1 1
0.999861 1 1 0.999861
0.999482 1 1 0.999482
0.999638 1 1 0.999638
0.999335 1 1 0.999335
0.999787 1 1 0.999787
0.999512 1 1 0.999512
0.999551 1 1 0.999551
0.999448 1 1 0.999448
1 1 1 1
0.999822 1 1 0.999822
0.999904 1 1 0.999904
0.999643 1 1 0.999643
0.999263 1 1 0.999263
0.999437 1 1 0.999437
0.999226 1 1 0.999226
0.999589 1 1 0.999589
0.999426 1 1 0.999426
0.99943 1 1 0.99943
0.999388 1 1 0.999388
0.999978 1 1 0.999978
1 1 1 1
1 1 1 1
1 1 1 1
1 1 1 1
1 1 1 1
1 1 1 1
1 1 1 1
1 1 1 1
0.999875 1 1 0.999875
0.999839 1 1 0.999839
0.999392 1 1 0.999392
0.999316 1 1 0.999316
0.999771 1 1 0.999771
1 1 1 1
0.999757 1 1 0.999757
0.99927 1 1 0.99927
0.999359 1 1 0.999359
0.999101 1 1 0.999101
0.999429 1 1 0.999429
0.999184 1 1 0.999184
0.999257 1 1 0.999257
0.999054 1 1 0.999054
0.999147 1 1 0.999147
0.99904 1 1 0.999039
0.99922 1 1 0.99922
0.999113 1 1 0.999113
0.999774 1 1 0.999774
0.99978 1 1 0.99978
0.9993 1 1 0.9993
0.999441 1 1 0.999441
1 1 1 1
0.999986 1 1 0.999986
0.999775 1 1 0.999775
0.999519 1 1 0.999519
0.999182 1 1 0.999182
0.999381 1 1 0.999381
0.999453 1 1 0.999453
0.99931 1 1 0.99931
1 1 1 1
0.999842 1 1 0.999842
0.999269 1 1 0.999269
0.999401 1 1 0.999401
0.99913 1 1 0.99913
0.999166 1 1 0.999166
0.999998 1 1 0.999998
0.999771 1 1 0.999771
0.999534 1 1 0.999534
0.999306 1 1 0.999306
0.999122 1 1 0.999122
0.999338 1 1 0.999338
0.999262 1 1 0.999262
0.999273 1 1 0.999273
0.999804 1 1 0.999804
0.999606 1 1 0.999606
0.999893 1 1 0.999893
0.999097 1 1 0.999097
0.999154 1 1 0.999154
0.999029 1 1 0.999029
0.999072 1 1 0.999072
0.999201 1 1 0.999201
0.999127 1 1 0.999127
0.999784 1 1 0.999784
0.99924 1 1 0.99924
0.999591 1 1 0.999591
0.999397 1 1 0.999397
0.999261 1 1 0.999261
0.999303 1 1 0.999303
0.999936 1 1 0.999936
0.999607 1 1 0.999607
0.999622 1 1 0.999622
0.99952 1 1 0.99952
0.999482 1 1 0.999482
1 1 1 1
1 1 1 1
0.999861 1 1 0.999861
0.99964 1 1 0.99964
0.999335 1 1 0.999335
0.999788 1 1 0.999788
0.99955 1 1 0.99955
0.999519 1 1 0.999519
0.99944 1 1 0.99944
1 1 1 1
0.999822 1 1 0.999822
0.999905 1 1 0.999905
0.999642 1 1 0.999642
0.999262 1 1 0.999262
0.999438 1 1 0.999438
0.999226 1 1 0.999226
0.99959 1 1 0.99959
0.999434 1 1 0.999434
0.999426 1 1 0.999426
0.99941 1 1 0.99941
1 1 1 1
0.999936 1 1 0.999936
0.99962 1 1 0.99962
0.999679 1 1 0.999679
0.999519 1 1 0.999519
0.999166 1 1 0.999166
0.999336 1 1 0.999336
0.999186 1 1 0.999186
0.999456 1 1 0.999456
0.999375 1 1 0.999375
0.9993 1 1 0.9993
0.999968 1 1 0.999968
0.999812 1 1 0.999812
0.999985 1 1 0.999985
0.99998 1 1 0.99998
1 1 1 1
1 1 1 1
1 1 1 1
1 1 1 1
1 1 1 1
1 1 1 1
1 1 1 1
1 1 1 1
1 1 1 1
1 1 1 1
1 1 1 1
0.999429 1 1 0.999429
0.999359 1 1 0.999359
0.999184 1 1 0.999184
0.999101 1 1 0.999101
0.99927 1 1 0.99927
0.999756 1 1 0.999756
0.999257 1 1 0.999257
0.999054 1 1 0.999054
0.999147 1 1 0.999147
0.999035 1 1 0.999035
0.999219 1 1 0.999219
0.999114 1 1 0.999114
0.999039 1 1 0.999039
0.999165 1.00017 1 0.998991
0.999074 1 1 0.999074
0.999188 1.00016 1 0.999025
0.999142 1 1 0.999142
0.999139 1 1 0.999139
0.999258 1 1 0.999258
0.999401 1 1 0.999401
0.999122 1 1 0.999122
0.999186 1 1 0.999186
0.999996 1 1 0.999996
0.999771 1 1 0.999771
0.999548 1 1 0.999548
0.999305 1 1 0.999305
0.999117 1 1 0.999117
0.999262 1 1 0.999262
0.999323 1 1 0.999323
0.999272 1 1 0.999272
0.999805 1 1 0.999805
0.999602 1 1 0.999602
0.999892 1 1 0.999892
0.99908 1 1 0.99908
0.999154 1 1 0.999154
0.999021 1 1 0.999021
0.999076 1 1 0.999076
0.999785 1 1 0.999785
0.99959 1 1 0.99959
0.999412 1 1 0.999412
0.999208 1 1 0.999208
0.999134 1 1 0.999134
0.99925 1 1 0.99925
0.99924 1 1 0.99924
0.999309 1 1 0.999309
0.999608 1 1 0.999608
0.99951 1 1 0.99951
0.999934 1 1 0.999934
0.999629 1 1 0.999629
0.998986 1 1 0.998986
0.999048 1 1 0.999048
0.998983 1 1 0.998982
0.999058 1 1 0.999058
0.999202 1.00001 1 0.999196
0.999164 1.00001 1 0.999152
0.999609 1 1 0.999609
0.999303 1 1 0.999303
0.99948 1 1 0.99948
0.999294 1 1 0.999294
0.999199 1 1 0.999199
0.999307 1 1 0.999307
0.999957 1 1 0.999957
0.999672 1 1 0.999672
0.999522 1 1 0.999522
0.999511 1 1 0.999511
0.999475 1 1 0.999475
1 1 1 1
0.999261 1 1 0.999261
0.999907 1 1 0.999907
0.999822 1 1 0.999822
0.999641 1 1 0.999641
0.99944 1 1 0.99944
0.999226 1 1 0.999226
0.99959 1 1 0.99959
0.999422 1 1 0.999422
0.999443 1 1 0.999443
0.999432 1 1 0.999432
1 1 1 1
0.999938 1 1 0.999938
0.999619 1 1 0.999619
0.999679 1 1 0.999679
0.999514 1 1 0.999514
0.999164 1 1 0.999164
0.999337 1 1 0.999337
0.999182 1 1 0.999182
0.999458 1 1 0.999458
0.999381 1 1 0.999381
0.99931 1 1 0.99931
0.999955 1 1 0.999955
0.99972 1 1 0.99972
0.999492 1 1 0.999492
0.999542 1 1 0.999542
0.999453 1 1 0.999453
0.999142 1 1 0.999142
0.999289 1 1 0.999289
0.99924 1 1 0.99924
0.999453 1 1.00012 0.999334
0.999238 1 1 0.999238
0.999971 1 1 0.999971
0.999764 1 1 0.999764
0.9998 1 1 0.9998
0.999686 1 1 0.999686
0.999823 1 1 0.999823
0.99999 1 1 0.99999
0.999987 1 1 0.999987
1 1 1 1
0.999982 1 1 0.999982
1 1 1 1
1 1 1 1
1 1 1 1
1 1 1 1
1 1 1 1
1 1 1 1
1 1 1 1
1 1 1 1
1 1 1 1
1 1 1 1
1 1 1 1
0.999218 1 1 0.999218
0.999147 1 1 0.999147
0.999114 1 1 0.999114
0.99903 1 1 0.99903
0.999054 1 1 0.999054
0.999257 1 1 0.999257
0.99904 1 1 0.99904
0.999159 1.00017 1 0.998985
0.999075 1 1 0.999075
0.999161 1.00014 1 0.999024
0.999141 1 1 0.999141
0.999138 1 1 0.999138
0.99908 1.00012 1 0.998964
1.00013 1.00116 1 0.998974
0.999103 1.00003 1 0.99907
0.999518 1.0005 1 0.999016
0.999146 1 1 0.999146
0.999233 1.00007 1 0.999159
0.999063 1 1 0.999063
0.999154 1 1 0.999154
0.999012 1 1 0.999012
0.99908 1 1 0.99908
0.999786 1 1 0.999786
0.999588 1 1 0.999588
0.999428 1 1 0.999428
0.999215 1 1 0.999215
0.99914 1 1 0.99914
0.999241 1 1 0.999241
0.999238 1 1 0.999238
0.999314 1 1 0.999314
0.99961 1 1 0.99961
0.999499 1 1 0.999499
0.999931 1 1 0.999931
0.999636 1 1 0.999636
0.999033 1.00005 1 0.998987
0.999051 1 1 0.999051
0.998984 1 1 0.998983
0.99906 1 1 0.99906
0.999609 1 1 0.999609
0.999492 1 1 0.999492
0.999293 1 1 0.999293
0.999194 1 1 0.999192
0.99919 1.00001 1 0.99918
0.999192 1 1 0.999192
0.999304 1 1 0.999304
0.999325 1 1 0.999325
0.999523 1 1 0.999523
0.999472 1 1 0.999472
0.999508 1 1 0.999508
0.999939 1 1 0.999939
0.999679 1 1 0.999679
0.999372 1.00042 1 0.998949
0.99902 1.00004 1 0.998977
0.999138 1.00006 1 0.999074
0.99925 1.00002 1 0.999234
0.99953 1 1 0.99953
0.999384 1.00003 1 0.999357
0.999403 1 1 0.999403
0.999159 1 1 0.999159
0.999142 1 1 0.999142
0.99994 1 1 0.99994
0.999747 1 1 0.999747
0.999555 1 1 0.999555
0.999494 1 1 0.999494
0.999425 1 1 0.999425
0.999441 1 1 0.999441
1 1 1 1
0.999941 1 1 0.999941
0.999163 1 1 0.999163
0.999678 1 1 0.999678
0.999619 1 1 0.999619
0.999509 1 1 0.999509
0.999338 1 1 0.999338
0.999179 1 1 0.999179
0.999459 1 1 0.999459
0.999321 1 1 0.999321
0.999387 1 1 0.999387
0.999958 1 1 0.999958
0.99972 1 1 0.99972
0.999498 1 1 0.999498
0.999541 1 1 0.999541
0.999444 1 1 0.999444
0.99914 1 1 0.99914
0.999285 1 1 0.999285
0.999247 1 1 0.999247
0.99939 1 1.00006 0.999328
0.999219 1 1 0.999219
0.999755 1 1 0.999755
0.999556 1 1 0.999556
0.999528 1 1.00013 0.999403
0.999437 1 1 0.999437
0.99939 1 1 0.99939
0.999269 1 1 0.999269
0.999202 1 1 0.999202
0.99923 1 1 0.99923
0.999792 1 1.00054 0.999248
0.999077 1 1 0.999077
0.999974 1 1 0.999974
0.999773 1 1 0.999773
0.999621 1 1 0.999621
0.999787 1 1 0.999787
0.999823 1 1 0.999823
0.999668 1 1 0.999668
0.999574 1 1 0.999574
0.999664 1 1 0.999664
0.999833 1 1 0.999833
0.999992 1 1 0.999992
0.99999 1 1 0.99999
1 1 1 1
0.999988 1 1 0.999988
1 1 1 1
1 1 1 1
1 1 1 1
1 1 1 1
1 1 1 1
1 1 1 1
1 1 1 1
1 1 1 1
1 1 1 1
1 1 1 1
1 1 1 1
0.999139 1 1 0.999139
0.999076 1 1 0.999076
0.999137 1 1 0.999137
0.999128 1.00011 1 0.999022
0.999153 1.00017 1 0.998978
0.99904 1 1 0.99904
0.999124 1.00016 1 0.998961
1 1.00103 1 0.998976
0.999078 1.00001 1 0.999064
0.999463 1.00045 1 0.999011
0.999147 1 1 0.999147
0.999205 1.00003 1 0.999175
1.00055 1.00161 1 0.998948
1.00076 1.00177 1 0.998989
0.999637 1.00057 1 0.999069
0.999253 1.00003 1 0.999226
0.999076 1.00009 1 0.998987
0.999053 1 1 0.999053
0.998985 1 1 0.998985
0.999062 1 1 0.999062
0.999609 1 1 0.999609
0.999505 1 1 0.999505
0.999292 1 1 0.999292
0.999187 1 1 0.999187
0.999208 1 1 0.999208
0.999306 1 1 0.999306
0.999186 1 1 0.999186
0.999343 1 1 0.999343
0.999523 1 1 0.999523
0.999469 1 1 0.999469
0.999506 1 1 0.999506
0.999921 1 1 0.999921
0.999685 1 1 0.999685
0.999318 1.00037 1 0.998953
0.999118 1.00014 1 0.998982
0.999175 1.00009 1 0.999085
0.999529 1 1 0.999529
0.999418 1 1 0.999418
0.999156 1 1 0.999156
0.999242 1.00002 1 0.999224
0.99917 1 1 0.99917
0.999364 1.00001 1 0.999356
0.99994 1 1 0.99994
0.999493 1 1 0.999493
0.999449 1 1 0.999449
0.999423 1 1 0.999423
0.999561 1 1 0.999561
0.999734 1 1 0.999734
0.999853 1.0009 1 0.998949
0.999488 1.00052 1 0.998968
0.999477 1.00036 1 0.999122
0.99976 1.00046 1 0.999295
0.999483 1 1 0.999483
0.999212 1 1 0.999212
0.999255 1 1 0.999255
0.999221 1 1.00017 0.999054
0.999955 1 1 0.999955
0.999785 1 1 0.999785
0.999605 1 1 0.999605
0.999424 1 1 0.999424
0.999451 1 1 0.999451
0.999389 1 1 0.999389
0.999961 1 1 0.999961
0.99972 1 1 0.99972
0.999139 1 1 0.999139
0.99954 1 1 0.99954
0.999505 1 1 0.999505
0.999435 1 1 0.999435
0.999282 1 1 0.999282
0.999254 1 1 0.999254
0.999321 1 1 0.999321
0.999201 1 1 0.999201
0.999756 1 1 0.999756
0.999561 1 1 0.999561
0.999474 1 1.00006 0.999414
0.999443 1 1 0.999443
0.999394 1 1 0.999394
0.999298 1.00003 1 0.999267
0.999206 1 1 0.999206
0.999284 1 1 0.999284
0.999815 1 1.00058 0.999239
0.999082 1 1.00003 0.999052
0.999594 1 1 0.999594
0.999436 1 1 0.999436
0.999844 1 1.00052 0.999321
0.999345 1 1 0.999345
1.00051 1.00127 1 0.99924
1.0005 1.00132 0.999872 0.999308
0.999056 1 1 0.999056
1.00113 1 1.00208 0.999048
0.999783 1 1 0.999783
0.99963 1 1 0.99963
0.999534 1 1 0.999534
0.999823 1 1 0.999823
0.99965 1 1 0.99965
0.999833 1 1 0.999833
0.99956 1 1 0.99956
0.999671 1 1 0.999671
0.999484 1 1 0.999484
0.99956 1 1 0.99956
0.999674 1 1 0.999674
0.999837 1 1 0.999837
0.999992 1 1 0.999992
0.999992 1 1 0.999992
1 1 1 1
0.999991 1 1 0.999991
1 1 1 1
1 1 1 1
1 1 1 1
1 1 1 1
1 1 1 1
1 1 1 1
1 1 1 1
1 1 1 1
1 1 1 1
1 1 1 1
1 1 1 1
0.999147 1 1 0.999147
0.999057 1 1 0.999057
0.999191 1 1 0.999191
0.999414 1.00041 1 0.999006
0.999855 1.00088 1 0.998978
0.999172 1.00021 1 0.998959
1.00036 1.00141 1 0.998953
1.00068 1.00169 1 0.998989
0.999721 1.00065 1 0.999075
0.999276 1.00006 1 0.99922
1.00143 1.00246 1 0.998968
1.00161 1.00257 1 0.999038
1.00022 1.00108 1 0.999142
0.999265 1.00031 1 0.998956
0.999207 1.00022 1 0.998986
0.999213 1.00012 1 0.999096
0.999528 1 1 0.999528
0.999434 1 1 0.999434
0.999233 1 1.00008 0.999153
0.999261 1.00005 1 0.999214
0.999355 1 1 0.999355
0.999198 1 1 0.999198
0.999492 1 1 0.999492
0.999458 1 1 0.999458
0.999422 1 1 0.999422
0.999941 1 1 0.999941
0.999567 1 1 0.999567
0.99972 1 1 0.99972
1.00007 1.00112 1 0.998951
0.999355 1.00039 1 0.998966
0.999415 1.00031 1 0.999109
0.99948 1 1 0.99948
0.999283 1 1 0.99928
0.999264 1 1.0002 0.999059
1.00037 1.00106 1 0.999309
0.999209 1 1 0.999209
0.999968 1 1 0.999968
0.999786 1 1 0.999786
0.999451 1 1 0.999451
0.999397 1 1 0.999397
0.999428 1 1 0.999428
0.999595 1 1 0.999595
1.00082 1.00184 1 0.998979
1.00049 1.0015 1 0.998987
1.0017 1.00256 0.999905 0.999243
1.00145 1.00212 1 0.999326
0.999409 1 1 0.999409
1.00026 1 1.00127 0.998994
0.99949 1 1.00034 0.99915
0.999993 1 1 0.999993
0.99986 1 1 0.99986
0.999788 1 1 0.999788
0.99962 1 1 0.99962
0.99947 1 1 0.99947
0.999334 1 1 0.999334
0.999439 1 1 0.999439
0.999406 1 1.00003 0.999377
0.999756 1 1 0.999756
0.999566 1 1 0.999566
0.999278 1.00001 1 0.999265
0.999448 1 1 0.999448
0.999426 1 1 0.999426
0.999397 1 1 0.999397
0.999211 1 1 0.999211
0.999337 1 1 0.999337
0.999871 1 1.00064 0.99923
0.999028 1 1 0.999028
0.999589 1 1 0.999589
0.999445 1 1 0.999445
0.999924 1 1.00059 0.999331
0.999353 1 1 0.999353
1.00056 1.00133 1 0.999231
1.0002 1.00094 0.999949 0.999307
0.999165 1.00009 1 0.99908
1.0007 1 1.00166 0.999037
0.999498 1 1 0.999498
1.00054 1.00139 1 0.999156
0.999359 1 1 0.999359
0.999863 1 1.00064 0.999228
1.00355 1.00455 0.999722 0.999289
1.00043 1.00138 1 0.999045
1.00162 1 1.00267 0.998953
0.999638 1 1 0.999638
0.999534 1 1 0.999534
0.999451 1 1 0.999451
0.999833 1 1 0.999833
0.999677 1 1 0.999677
0.999546 1 1 0.999546
0.999837 1 1 0.999837
0.999673 1 1 0.999673
0.999473 1 1 0.999473
0.999574 1 1 0.999574
0.999418 1 1 0.999418
0.999472 1 1 0.999472
0.999586 1 1 0.999586
0.999693 1 1 0.999693
0.999836 1 1 0.999836
0.99999 1 1 0.99999
0.999991 1 1 0.999991
1 1 1 1
0.999992 1 1 0.999992
1 1 1 1
1 1 1 1
1 1 1 1
1 1 1 1
1 1 1 1
0.999998 1 1 0.999998
1 1 1 1
1 1 1 1
1 1 1 1
1 1 1 1
1 1 1 1
1 1 1 1
0.999293 1.00008 1 0.999215
0.999797 1.00072 1 0.999082
1.00061 1.00162 1 0.998989
1.00018 1.00123 1 0.998957
1.00149 1.00252 1 0.998973
1.00182 1.00279 1 0.999029
1.00035 1.00119 1 0.999156
1.00154 1.00252 1 0.999019
1.00215 1.00307 1 0.999075
1.00033 1.00115 1 0.999181
1.0003 1.00135 1 0.998952
0.99923 1.00027 1 0.998963
0.999356 1.00026 1 0.999096
0.999477 1 1 0.999477
0.999305 1 1 0.999305
0.999146 1 1.00008 0.999064
1.0009 1.00158 1 0.999323
0.999206 1 1 0.999206
0.99945 1 1 0.99945
0.999405 1 1 0.999405
0.999433 1 1 0.999433
0.999981 1 1 0.999981
0.999786 1 1 0.999786
0.999585 1 1 0.999585
1.00062 1.00164 1 0.998984
0.999991 1 1 0.999991
0.999851 1 1 0.999851
1.00052 1.00153 1 0.998987
1.00213 1.00292 1 0.999219
0.999422 1 1 0.999422
0.999932 1 1.00081 0.999126
0.999628 1 1.00063 0.999001
1.00102 1.0017 1 0.999325
0.999814 1 1 0.999814
0.99962 1 1 0.99962
0.99943 1 1 0.99943
0.999435 1 1.00002 0.99941
0.999318 1 1 0.999318
0.999473 1 1 0.999473
1.00159 1.00256 1 0.999031
1.00296 1.00389 1 0.999069
1.00387 1.00488 0.999601 0.999394
0.999249 1.00012 1 0.999129
0.999918 1 1.00055 0.999368
1.00231 1 1.00333 0.998979
0.999861 1 1 0.999861
0.999836 1 1 0.999836
0.999732 1 1 0.999732
0.999625 1 1 0.999625
0.999512 1 1 0.999512
0.999361 1 1 0.999361
0.999289 1 1.00004 0.999251
0.999416 1 1 0.999416
0.999584 1 1 0.999584
0.999453 1 1 0.999453
1.00072 1.0015 1 0.999222
0.999977 1.00067 1 0.999307
0.999361 1 1 0.999361
0.999971 1 1.00063 0.999342
0.999317 1.00018 1.00004 0.999104
1.00033 1 1.00131 0.999026
0.999497 1 1 0.999497
1.0007 1.00153 1 0.999172
0.99936 1 1 0.99936
1.00006 1 1.00084 0.999213
1.00275 1.00374 0.99974 0.99928
1.00087 1.00182 1 0.999052
1.00166 1 1.00271 0.998955
0.999398 1 1 0.999398
1.01119 1.01268 0.999288 0.999239
0.999287 1 1 0.999287
1.00153 1 1.00244 0.999086
1.00052 1.00422 0.997225 0.999087
1.00125 1.00016 1.00218 0.998911
1.00776 1.00988 0.998721 0.99918
0.999534 1 1 0.999534
0.999451 1 1 0.999451
0.999393 1 1 0.999393
0.999837 1 1 0.999837
0.999672 1 1 0.999672
0.999587 1 1 0.999587
0.999463 1 1 0.999463
0.999836 1 1 0.999836
0.999684 1 1 0.999684
0.999415 1 1 0.999415
0.999586 1 1 0.999586
0.999483 1 1 0.999483
0.999399 1 1 0.999399
0.999514 1 1 0.999514
0.999595 1 1 0.999595
0.99967 1 1 0.99967
0.99981 1 1 0.99981
0.999711 1 1 0.999711
0.99981 1 1 0.99981
0.999989 1 1 0.999989
0.99999 1 1 0.99999
1 1 1 1
0.999991 1 1 0.999991
1 1 1 1
1 1 1 1
1 1 1 1
1 1 1 1
1 1 1 1
1 1 1 1
0.999997 1 1 0.999997
1 1 1 1
1 1 1 1
1 1 1 1
1 1 1 1
1 1 1 1
1 1 1 1
1.00046 1.00129 1 0.99917
1.00205 1.00303 1 0.99902
1.00155 1.00257 1 0.998978
1.00175 1.00274 1 0.999018
1.00194 1.00286 1 0.999081
1.00017 1.00098 1 0.99919
1.00217 1.00307 1 0.999109
1.00794 1.01333 0.995381 0.999295
1.01122 1.01244 0.999489 0.999305
0.999895 1 1 0.999895
1.00044 1.00145 1 0.998989
1.00049 1.0015 1 0.998987
1.00248 1.00329 1 0.999195
0.999436 1 1 0.999436
1.00057 1 1.00147 0.999103
0.999192 1 1.00018 0.999008
1.00062 1.0013 1 0.999324
0.999422 1 1 0.999422
0.999443 1 1 0.999443
0.999302 1 1 0.999302
0.999988 1 1 0.999988
0.999475 1 1 0.999475
0.99984 1 1 0.99984
0.999619 1 1 0.999619
0.999841 1 1 0.999841
1.00149 1.00246 1 0.999028
0.999872 1 1 0.999872
0.999836 1 1 0.999836
0.999712 1 1 0.999712
1.00335 1.00428 1 0.999073
1.00269 1.00386 0.999469 0.999362
0.999729 1 1.00035 0.999375
1.00254 1 1.00358 0.99897
0.999448 1.00015 1.00016 0.999135
0.999639 1 1 0.999639
0.999506 1 1 0.999506
0.9994 1 1 0.9994
0.99941 1 1.00014 0.999268
0.999372 1 1 0.999372
1.00468 1.00561 1.00004 0.99903
1.00397 1.00741 0.997374 0.999207
1.00062 1.00169 0.999716 0.999216
1.00129 1 1.00227 0.999019
1.00216 1 1.00289 0.999275
0.999714 1 1 0.999714
0.999663 1 1 0.999663
0.999605 1 1 0.999605
0.999522 1 1 0.999522
0.999424 1 1 0.999424
0.999296 1 1 0.999296
1.00137 1 1.00215 0.999222
0.999496 1 1 0.999496
0.999361 1 1 0.999361
1.00082 1.00163 1 0.999188
1.00181 1.00283 0.999712 0.999271
1.00127 1.00221 1 0.999059
1.00022 1 1.00102 0.999199
1.00155 1 1.00259 0.998957
0.999408 1 1 0.999408
1.0107 1.01271 0.998772 0.999245
0.999291 1 1 0.999291
1.0014 1 1.00231 0.999089
1.00179 1.00484 0.99784 0.99912
1.00169 1.00012 1.00267 0.998906
1.00956 1.01196 0.998481 0.999146
0.99934 1 1 0.99934
0.999831 1.00965 0.991102 0.999164
0.999824 1 1.00057 0.999254
1.00485 1 1.00584 0.999017
1.00061 1.00057 1.00109 0.998953
0.958284 0.963926 0.998364 0.995776
1.00416 1.00036 1.00549 0.998318
0.991237 1.00982 0.982315 0.999265
0.926941 0.942596 0.985293 0.998071
0.929497 0.963029 0.96658 0.998552
0.999451 1 1 0.999451
0.999396 1 1 0.999396
0.999368 1 1 0.999368
0.999835 1 1 0.999835
0.999675 1 1 0.999675
0.999585 1 1 0.999585
0.999495 1 1 0.999495
0.999412 1 1 0.999412
0.999582 1 1 0.999582
0.999821 1 1 0.999821
0.99968 1 1 0.99968
0.999405 1 1 0.999405
0.99951 1 1 0.99951
0.999522 1 1 0.999522
0.999438 1 1 0.999438
0.99956 1 1 0.99956
0.999666 1 1 0.999666
0.999809 1 1 0.999809
0.999695 1 1 0.999695
0.9996 1 1 0.9996
0.999681 1 1 0.999681
0.999694 1 1 0.999694
0.999829 1 1 0.999829
0.99981 1 1 0.99981
0.999988 1 1 0.999988
0.999989 1 1 0.999989
1 1 1 1
0.99999 1 1 0.99999
1 1 1 1
1 1 1 1
1 1 1 1
1 1 1 1
1 1 1 1
1 1 1 1
0.999999 1 1 0.999999
1 1 1 1
0.999996 1 1 0.999996
1 1 1 1
1 1 1 1
1 1 1 1
1 1 1 1
1 1 1 1
1.00171 1.00263 1 0.999086
1.00191 1.0029 1 0.999018
0.999972 1.00077 1 0.999199
1.00935 1.01332 0.99677 0.999306
1.00207 1.00297 1 0.999106
1.01168 1.01276 0.999665 0.999268
1.01101 1.01197 1.00004 0.999012
0.978717 0.984914 0.995754 0.997945
1.01125 1.01272 0.999147 0.999398
0.999901 1 1 0.999901
0.999894 1 1 0.999894
0.999755 1 1 0.999755
0.999771 1 1 0.999771
1.00142 1.00239 1 0.999024
1.00384 1.00477 1 0.999076
1.00152 1.00271 0.999481 0.999331
0.999383 1 1 0.999383
1.0023 1 1.00335 0.99896
0.999445 1.00017 1.00013 0.99914
0.999383 1 1 0.999383
0.999569 1 1.00028 0.999285
0.999383 1 1 0.999383
0.999835 1 1 0.999835
0.9995 1 1 0.9995
0.999654 1 1 0.999654
0.999884 1 1 0.999884
0.999692 1 1 0.999692
1.00383 1.00475 1.00003 0.999046
0.999735 1 1 0.999735
0.999675 1 1 0.999675
0.999603 1 1 0.999603
1.00518 1.00768 0.998305 0.999213
0.999932 1.00118 0.999541 0.999215
1.00187 1 1.0026 0.999273
1.00116 1 1.00215 0.999009
0.999526 1 1 0.999526
0.999429 1 1 0.999429
1.00056 1 1.00134 0.999222
0.999424 1 1.00014 0.999282
1.01197 1.01294 0.999954 0.999082
1.00264 1.00608 0.997402 0.999176
1.00019 1.0005 1.00073 0.998964
1.00127 1 1.00209 0.999176
0.999566 1 1 0.999566
0.99955 1 1 0.99955
0.999388 1 1 0.999388
1.00184 1 1.00269 0.999159
0.951986 0.963719 0.992136 0.995656
0.999417 1 1 0.999417
0.999294 1 1 0.999294
1.01016 1.01266 0.998281 0.999251
1.00313 1.00542 0.99857 0.999152
1.00226 1.00006 1.0033 0.998902
1.00145 1 1.00236 0.999092
1.01151 1.0139 0.998529 0.999112
0.999347 1 1 0.999347
0.999657 1.00964 0.990946 0.999154
0.999584 1 1.00033 0.999256
1.00473 1 1.00571 0.999021
0.999942 1.00066 1.00032 0.998965
0.956842 0.964306 0.996233 0.996013
0.998509 0.996908 1.00402 0.997597
0.994806 1.01139 0.984293 0.999298
0.933395 0.945211 0.989754 0.997721
0.922331 0.95807 0.964184 0.998458
0.999354 1 1 0.999354
0.933107 0.943195 0.991933 0.997351
0.947648 0.965509 0.982778 0.9987
0.978863 1.00218 0.977559 0.999155
1.0026 1 1.00336 0.999247
1.00903 1 1.00995 0.999082
0.994095 1.01015 0.984766 0.99933
0.969268 0.970711 1.00302 0.995509
1.00652 1.00227 1.00684 0.997414
0.925834 0.949458 0.977099 0.997974
0.968438 0.99608 0.973176 0.999049
0.9994 1 1 0.9994
0.999369 1 1 0.999369
0.999367 1 1 0.999367
0.999831 1 1 0.999831
0.99969 1 1 0.99969
0.99957 1 1 0.99957
0.999506 1 1 0.999506
0.999411 1 1 0.999411
0.999809 1 1 0.999809
0.999523 1 1 0.999523
0.999574 1 1 0.999574
0.999677 1 1 0.999677
0.999426 1 1 0.999426
0.99948 1 1 0.99948
0.99959 1 1.0002 0.999393
0.999575 1 1 0.999575
0.999688 1 1 0.999688
0.999694 1 1 0.999694
0.999587 1 1 0.999587
0.999586 1 1 0.999586
0.999572 1 1 0.999572
0.999519 1 1 0.999519
0.999505 1 1 0.999505
0.999659 1 1 0.999659
0.999681 1 1 0.999681
0.999823 1 1 0.999823
0.999676 1 1 0.999676
0.999819 1 1 0.999819
0.999987 1 1 0.999987
0.99981 1 1 0.99981
0.999988 1 1 0.999988
1 1 1 1
0.999989 1 1 0.999989
1 1 1 1
1 1 1 1
1 1 1 1
1 1 1 1
1 1 1 1
0.999897 1 1 0.999897
1 1 1 1
1 1 1 1
1 1 1 1
0.999999 1 1 0.999999
1 1 1 1
1 1 1 1
1 1 1 1
1 1 1 1
1 1 1 1
1.01093 1.01369 0.997965 0.999317
1.002 1.0029 1 0.999103
1.0121 1.01308 0.999804 0.999232
0.980392 0.98446 0.997473 0.998391
1.01147 1.01252 0.999545 0.999414
1.01177 1.01275 1.00003 0.998998
1.01471 1.01399 1.00159 0.999123
0.985898 0.986526 1.00107 0.998299
0.960271 0.966872 0.998194 0.994969
0.919233 0.942173 0.978481 0.997109
0.924422 0.955679 0.968711 0.998537
0.999749 1 1 0.999749
0.999901 1 1 0.999901
0.999894 1 1 0.999894
0.999749 1 1 0.999749
0.999657 1 1 0.999657
0.999679 1 1 0.999679
0.999754 1 1 0.999754
0.999762 1 1 0.999762
1.00281 1.00373 1.00003 0.999063
1.00641 1.00807 0.999126 0.99922
0.999369 1.00084 0.999317 0.999213
1.0019 1 1.00263 0.999271
1.0015 1 1.0025 0.998999
0.999783 1 1.00056 0.999222
0.999532 1 1.00026 0.999268
0.999433 1 1 0.999433
0.999687 1 1 0.999687
0.99953 1 1 0.99953
0.999755 1 1 0.999755
0.999601 1 1 0.999601
1.01224 1.01373 0.999465 0.99906
0.999574 1 1 0.999574
0.999551 1 1 0.999551
1.00176 1.0054 0.9972 0.999173
1.00006 1.00065 1.0004 0.999002
1.002 1 1.00285 0.99915
0.999382 1 1 0.999382
1.00171 1 1.00255 0.999163
1.00491 1.0146 0.991426 0.999014
0.997437 1.00104 0.997359 0.99904
1.0001 1 1.00103 0.999068
1.0045 1 1.00536 0.999148
0.999491 1 1 0.999491
0.999423 1 1 0.999423
0.999796 1 1.00054 0.999253
0.926261 0.944732 0.982652 0.997757
0.958721 0.965575 0.997017 0.995872
0.999353 1 1 0.999353
0.999298 1 1.00004 0.999259
0.999939 1.00986 0.991023 0.999144
0.999185 1.00079 0.99942 0.998976
1.0044 1 1.00538 0.999025
0.958229 0.965096 0.997957 0.994917
0.998264 0.997542 1.00244 0.998284
0.998426 1.01327 0.986016 0.99933
0.92791 0.945624 0.983937 0.997286
0.914587 0.952513 0.961756 0.998364
0.999352 1 1 0.999352
0.927235 0.945596 0.982706 0.99784
0.949673 0.963631 0.98679 0.998707
0.980816 1.00233 0.979372 0.999145
1.00219 1 1.00294 0.999252
1.00822 1 1.00913 0.999098
0.988057 1.00714 0.98172 0.999326
0.970847 0.972467 1.00316 0.995194
1.00206 0.998124 1.00579 0.998161
0.927371 0.949175 0.979753 0.997219
0.963441 0.994096 0.970164 0.998968
0.999344 1 1 0.999344
0.964217 0.967646 0.997423 0.999031
1.01107 1.01362 0.997987 0.999495
0.986966 1 0.987652 0.999306
1.00726 1 1.00787 0.999395
1.00798 1.00309 1.00524 0.999633
0.995997 0.994686 1.0025 0.99882
0.974787 0.972909 1.00662 0.995342
0.945013 0.970583 0.976402 0.997186
0.989996 1.01567 0.975417 0.999287
0.99937 1 1 0.99937
0.999359 1 1 0.999359
0.9998 1 1.00042 0.999379
0.999809 1 1 0.999809
0.999689 1 1 0.999689
0.999588 1 1 0.999588
0.999524 1 1 0.999524
0.999415 1 1 0.999415
0.999688 1 1 0.999688
0.999489 1 1 0.999489
0.999575 1 1 0.999575
0.999635 1 1.00024 0.99939
0.999937 1 1.00055 0.999383
0.999551 1 1.00009 0.999465
0.999579 1 1 0.999579
0.999694 1 1 0.999694
0.999573 1 1 0.999573
0.999587 1 1 0.999587
0.999572 1 1 0.999572
0.999516 1 1 0.999516
0.999542 1 1 0.999542
0.99951 1 1 0.99951
0.999472 1 1 0.999472
0.999419 1 1 0.999419
0.999406 1 1 0.999406
0.999476 1 1 0.999476
0.999505 1 1 0.999505
0.999629 1 1 0.999629
0.999658 1 1 0.999658
0.999809 1 1 0.999809
0.999681 1 1 0.999681
0.999822 1 1 0.999822
0.999985 1 1 0.999985
0.99981 1 1 0.99981
0.999986 1 1 0.999986
1 1 1 1
0.999988 1 1 0.999988
1 1 1 1
1 1 1 1
1 1 1 1
1 1 1 1
1 1 1 1
0.999907 1 1 0.999907
1 1 1 1
0.999897 1 1 0.999897
1 1 1 1
1 1 1 1
1 1 1 1
1 1 1 1
1 1 1 1
1 1 1 1
1 1 1 1
1 1 1 1
0.92828 0.943763 0.985563 0.998002
0.951623 0.963958 0.988276 0.998914
0.983427 0.98512 0.999546 0.998736
1.01152 1.01232 0.999781 0.999429
1.01259 1.01359 1.00003 0.998983
0.985547 0.985026 1.00145 0.999083
1.01367 1.01374 1.0008 0.999131
0.963027 0.969016 0.997981 0.995829
0.927234 0.943219 0.985051 0.997971
0.919573 0.954748 0.964655 0.998448
1.00081 0.998349 1.00312 0.999346
0.969861 0.971745 1.00235 0.99572
0.922936 0.948056 0.975502 0.997952
0.964061 0.991145 0.973819 0.998824
0.999621 1 1 0.999621
0.999758 1 1 0.999758
0.999901 1 1 0.999901
0.999743 1 1 0.999743
0.999668 1 1 0.999668
0.999638 1 1 0.999638
0.999681 1 1 0.999681
0.999699 1 1 0.999699
0.999743 1 1 0.999743
0.999753 1 1 0.999753
1.01255 1.01451 0.999025 0.999039
1.00081 1.00459 0.997063 0.99917
0.999939 1.00077 1.00013 0.99904
1.00247 1 1.00335 0.999125
1.00151 1 1.00234 0.999167
0.999375 1 1 0.999375
0.999552 1 1 0.999552
0.999583 1 1 0.999583
1.00639 1.01476 0.992762 0.998985
0.999486 1 1 0.999486
0.999408 1 1 0.999408
0.997436 1.00065 0.997777 0.999011
1.00044 1 1.00133 0.999104
1.00355 1 1.00443 0.999128
1.0005 1 1.00126 0.999246
1.00862 1.01253 0.997226 0.998908
1.00286 1 1.00365 0.999218
1.00414 1 1.00499 0.99916
0.999477 1 1 0.999477
0.99939 1 1 0.99939
0.999287 1 1 0.999287
0.965007 0.970713 0.995152 0.998965
0.929124 0.944126 0.986871 0.997202
0.955588 0.965401 0.994176 0.995635
0.999351 1 1 0.999351
1.00185 1 1.00259 0.999257
0.98281 1.00241 0.981295 0.999134
1.00761 1 1.0085 0.999114
0.925752 0.945916 0.981462 0.997169
0.969431 0.971673 1.00138 0.996319
1.00356 0.999516 1.0066 0.997462
0.985865 1.00473 0.981879 0.999328
0.930661 0.948628 0.982972 0.998055
0.949838 0.963931 0.98672 0.99864
0.956363 0.989177 0.967949 0.99884
0.999342 1 1 0.999342
0.960959 0.967612 0.994155 0.998962
1.01079 1.01332 0.998005 0.9995
0.990142 1 0.990822 0.999314
1.00737 1 1.00798 0.999398
1.0075 1.00314 1.00511 0.999247
0.997141 0.995155 1.00424 0.997766
0.973332 0.974365 1.00372 0.995236
0.94974 0.973399 0.977475 0.998179
0.982579 1.00892 0.974708 0.999166
0.999741 1 1.00021 0.999532
1.01748 1.01806 0.999791 0.999639
1.02349 1.0263 0.99754 0.999725
1.0078 1 1.00809 0.999716
0.997545 0.991655 1.0065 0.999444
0.979926 0.978674 1.0061 0.995207
0.973935 0.988841 0.986599 0.998304
0.984392 1.01149 0.974059 0.999133
0.99935 1 1 0.99935
0.99975 1 1.00036 0.999394
1.00076 1 1.0013 0.999457
0.999688 1 1 0.999688
0.999574 1 1 0.999574
0.999499 1 1 0.999499
0.999668 1 1.00028 0.999387
0.999579 1 1 0.999579
0.999496 1 1.00003 0.999465
1.00032 1 1.00093 0.999386
1.00031 1 1.00086 0.999457
0.999608 1 1.00021 0.999395
0.999499 1 1 0.999499
0.999587 1 1 0.999587
0.999571 1 1 0.999571
0.999513 1 1 0.999513
0.999512 1 1 0.999512
0.999542 1 1 0.999542
0.999477 1 1 0.999477
0.999443 1 1 0.999443
0.999447 1 1 0.999447
0.999388 1 1 0.999388
0.999423 1 1 0.999423
0.99939 1 1 0.99939
0.999333 1 1 0.999333
0.999497 1 1 0.999497
0.999438 1 1 0.999438
0.999489 1 1 0.999489
0.999582 1 1 0.999582
0.999505 1 1 0.999505
0.999629 1 1 0.999629
0.999787 1 1 0.999787
0.999657 1 1 0.999657
0.999809 1 1 0.999809
0.999981 1 1 0.999981
0.999822 1 1 0.999822
0.999984 1 1 0.999984
1 1 1 1
0.999986 1 1 0.999986
1 1 1 1
1 1 1 1
1 1 1 1
1 1 1 1
1 1 1 1
0.99986 1 1 0.99986
1 1 1 1
0.999886 1 1 0.999886
1 1 1 1
1 1 1 1
0.999897 1 1 0.999897
1 1 1 1
1 1 1 1
1 1 1 1
1 1 1 1
1 1 1 1
1 1 1 1
0.965485 0.96891 0.997339 0.999123
0.928194 0.943312 0.986394 0.997546
1.00961 1.0138 0.996392 0.999471
0.948267 0.962168 0.986686 0.998851
0.981564 0.983685 0.999677 0.998167
1.01272 1.01355 1.00004 0.999138
0.964168 0.968771 0.998534 0.99671
0.9252 0.944746 0.982094 0.997166
0.914688 0.953868 0.960502 0.998358
0.998223 0.999035 1.0002 0.998992
0.969761 0.970497 1.00377 0.99549
0.92521 0.951602 0.975034 0.997162
0.964403 0.99149 0.973834 0.998816
1.00003 1.00264 0.99828 0.999117
0.970457 0.970847 1.00432 0.9953
0.952713 0.97536 0.978615 0.998125
0.987656 1.01372 0.975065 0.999199
0.999543 1 1 0.999543
0.999633 1 1 0.999633
0.999766 1 1 0.999766
0.999679 1 1 0.999679
0.999564 1 1 0.999564
0.999647 1 1 0.999647
0.999683 1 1 0.999683
0.999683 1 1 0.999683
0.999711 1 1 0.999711
0.999731 1 1 0.999731
1.00811 1.01528 0.993982 0.998956
0.997239 1.00024 0.998014 0.998982
1.00073 1 1.00159 0.99914
1.00285 1 1.00375 0.999109
1.00127 1 1.00203 0.999239
0.999394 1 1 0.999394
0.99948 1 1 0.99948
0.999478 1 1 0.999478
1.0049 1.01022 0.995796 0.998929
0.999398 1 1 0.999398
0.999375 1 1.00009 0.999285
1.00127 1 1.0021 0.999179
1.00388 1 1.00473 0.999161
0.998085 1.0097 0.989351 0.99914
1.01493 1 1.01558 0.999361
1.00002 1 1.00078 0.999239
0.99941 1 1 0.99941
0.999287 1 1 0.999287
1.02104 1.0216 0.999768 0.999684
0.96583 0.969856 0.996782 0.999063
0.928986 0.945167 0.98488 0.997969
0.99934 1 1 0.99934
1.00728 1 1.00788 0.999401
0.991819 1 0.992492 0.999321
0.965017 0.968302 0.997507 0.999099
0.973048 0.972023 1.00591 0.995169
0.999057 0.995701 1.00476 0.998616
1.0021 1.002 1.00126 0.998837
0.946173 0.970005 0.978181 0.997188
1.01036 1.01295 0.99794 0.999505
0.979986 1.00611 0.974833 0.999182
0.999681 1 1.00014 0.999546
1.01748 1.01787 0.999921 0.9997
1.02423 1.02736 0.997229 0.999729
1.0074 0.999958 1.00784 0.999604
0.997541 0.993562 1.00488 0.999131
0.98396 0.980778 1.00817 0.995113
0.988333 1.01618 0.973338 0.999239
0.9639 0.982326 0.983382 0.997825
0.999975 1 1.00026 0.999711
1.02543 1.02723 0.998346 0.999904
1.02705 1.02993 0.997446 0.999759
0.988555 1.01309 0.97656 0.999203
1.00461 0.993001 1.01189 0.999803
0.981103 0.979605 1.00601 0.995551
0.958773 0.974209 0.985958 0.998171
0.999678 1 1.00027 0.99941
1.00051 1 1.00109 0.999421
1.00312 1 1.00355 0.999567
0.999579 1 1 0.999579
0.999465 1 1 0.999465
1.00076 1 1.00138 0.999389
0.999501 1 1 0.999501
0.999719 1 1.00033 0.999394
1.0007 1 1.00126 0.999432
0.999856 1 1.00035 0.999502
0.999417 1 1 0.999417
0.999514 1 1 0.999514
0.999542 1 1 0.999542
0.999481 1 1 0.999481
0.999447 1 1 0.999447
0.999447 1 1 0.999447
0.999417 1 1 0.999417
0.999412 1 1 0.999412
1.00054 1 1.00129 0.999257
0.999427 1 1 0.999427
0.999408 1 1.00002 0.999386
0.999232 1 1 0.999232
0.99934 1 1 0.99934
0.999474 1 1 0.999474
0.999335 1 1 0.999335
0.999574 1 1 0.999574
0.999488 1 1 0.999488
0.99947 1 1 0.99947
0.999501 1 1 0.999501
0.999593 1 1 0.999593
0.999758 1 1 0.999758
0.999628 1 1 0.999628
0.999786 1 1 0.999786
0.999975 1 1 0.999975
0.999808 1 1 0.999808
0.99998 1 1 0.99998
1 1 1 1
0.999983 1 1 0.999983
1 1 1 1
1 1 1 1
1 1 1 1
1 1 1 1
1 1 1 1
0.999799 1 1 0.999799
0.999972 1 1 0.999972
0.999859 1 1 0.999859
1 1 1 1
0.999989 1 1 0.999989
0.999866 1 1 0.999866
1 1 1 1
1 1 1 1
1 1 1 1
1 1 1 1
1 1 1 1
1 1 1 1
1.01842 1.01911 0.999662 0.999663
0.95999 0.968416 0.992369 0.998922
0.930898 0.943503 0.989334 0.997278
0.999637 1 1 0.999637
1.02528 1.02815 0.997425 0.999784
1.01036 1.01395 0.996984 0.999475
0.942717 0.961767 0.981465 0.998704
0.996568 0.999694 0.998268 0.998602
0.970871 0.971501 1.00371 0.995655
0.929397 0.954889 0.97526 0.997994
0.962153 0.989434 0.973667 0.998726
1.00216 1.00568 0.998359 0.998139
0.971043 0.97092 1.00473 0.995419
0.954065 0.975461 0.980288 0.997733
0.985433 1.01224 0.974385 0.999104
0.996242 0.997016 1.00149 0.997732
0.976797 0.973569 1.00894 0.994423
0.965044 0.985034 0.982254 0.997406
0.985305 1.01343 0.973104 0.99912
0.999469 1 1 0.999469
0.999536 1 1 0.999536
0.999646 1 1 0.999646
0.999549 1 1 0.999549
0.999579 1 1 0.999579
0.999656 1 1 0.999656
0.999687 1 1 0.999687
0.999723 1 1 0.999723
1.00114 1.00784 0.994397 0.998949
0.999621 1 1.00048 0.99914
0.999479 1 1 0.999479
1.00354 1 1.00438 0.999161
0.99945 1 1.00017 0.999283
0.999406 1 1 0.999406
0.999412 1 1 0.999412
1.00198 1.00926 0.993627 0.99915
0.999299 1 1 0.999299
1.00084 1 1.0016 0.999233
1.01235 1 1.01301 0.999344
0.999415 1 1 0.999415
0.995049 1.00206 0.993455 0.999543
1.01308 1 1.01363 0.999455
0.99931 1 1 0.99931
0.999349 1 1 0.999349
1.02632 1.02711 0.999312 0.999912
1.02041 1.02101 0.999723 0.999689
0.966594 0.968803 0.998555 0.999163
0.99956 1 1 0.99956
1.00785 0.999868 1.00849 0.999494
1.01763 1.01788 0.999995 0.999762
0.979484 0.976003 1.00837 0.995233
1.00157 0.995253 1.0082 0.998157
0.964285 0.983455 0.983058 0.997406
1.02481 1.02821 0.996957 0.999733
0.992871 1.02147 0.97264 0.999345
1.00011 0.999931 1.00051 0.999678
1.02613 1.028 0.998278 0.999904
1.02735 1.02998 0.997638 0.999804
1.00613 0.994478 1.01179 0.999931
0.985544 1.01138 0.975326 0.999104
0.980441 0.980215 1.00455 0.995697
0.961405 0.979418 0.984259 0.997307
1.00567 0.997325 1.0086 0.999771
1.02434 1.02632 0.998144 0.999927
1.02621 1.02845 0.998035 0.999783
0.964105 0.991232 0.973764 0.998838
0.963247 0.983907 0.98155 0.997405
0.999554 0.991063 1.00846 1.00011
0.977791 0.974218 1.00835 0.995354
1.00028 1 1.00089 0.999385
1.00223 1 1.00268 0.999551
1.01208 0.999888 1.01262 0.999581
0.999504 1 1 0.999504
0.999758 1 1.00037 0.999392
1.00095 1 1.00154 0.999407
0.999416 1 1 0.999416
0.999934 1 1.00043 0.999501
1.0028 1 1.00337 0.999429
0.999446 1 1 0.999446
0.99945 1 1 0.99945
0.999585 1 1.00018 0.999406
1.00275 1 1.00348 0.99927
0.999436 1 1 0.999436
1.00015 1 1.00087 0.999281
1.00128 1 1.00216 0.999124
0.999317 1 1.00014 0.999175
0.999428 1 1.00005 0.999382
0.999238 1 1.00003 0.999209
0.9994 1 1 0.9994
0.999447 1 1 0.999447
0.999358 1 1 0.999358
0.999565 1 1 0.999565
0.999471 1 1 0.999471
0.999337 1 1 0.999337
0.999729 1 1 0.999729
0.99957 1 1 0.99957
0.999479 1 1 0.999479
0.999605 1 1 0.999605
0.999758 1 1 0.999758
0.999965 1 1 0.999965
0.999786 1 1 0.999786
0.999973 1 1 0.999973
1 1 1 1
0.999978 1 1 0.999978
1 1 1 1
1 1 1 1
1 1 1 1
1 1 1 1
1 1 1 1
0.999769 1 1 0.999769
0.999954 1 1 0.999954
0.99981 1 1 0.99981
1 1 1 1
0.999971 1 1 0.999971
0.999858 1 1 0.999858
1 1 1 1
1 1 1 1
0.999978 1 1 0.999978
1 1 1 1
1 1 1 1
1 1 1 1
1.02706 1.02807 0.999119 0.999898
1.0183 1.01918 0.999473 0.999667
0.960633 0.968159 0.993289 0.99893
0.999642 1 1 0.999642
0.999608 1 1 0.999608
0.999553 1 1 0.999553
1.02615 1.02911 0.997363 0.999756
1.02595 1.02843 0.997798 0.999789
1.01153 1.01412 0.997973 0.99948
1.00881 1.00846 1.00137 0.998973
0.971867 0.970919 1.00564 0.995361
0.94989 0.972343 0.979675 0.997177
0.98703 1.01422 0.974013 0.999161
0.992061 0.994375 0.999045 0.998626
0.975574 0.973574 1.0068 0.995284
0.966763 0.983604 0.984656 0.998194
0.988712 1.01737 0.972579 0.999231
0.983955 0.988407 0.996851 0.99864
0.982167 0.975992 1.01093 0.995445
0.963136 0.97761 0.987045 0.998125
0.988213 1.01394 0.975325 0.99928
0.999451 1 1 0.999451
0.999468 1 1 0.999468
0.999528 1 1 0.999528
0.999548 1 1 0.999548
0.999594 1 1 0.999594
0.999691 1 1 0.999691
1.0064 1.00883 0.998431 0.999159
1.00968 1 1.01036 0.999327
0.999414 1 1 0.999414
1.00154 1 1.00231 0.999227
0.99931 1 1 0.99931
0.999411 1 1 0.999411
0.999347 1 1 0.999347
1.00066 1.0036 0.997537 0.999534
0.999331 1 1 0.999331
1.01256 0.99898 1.01412 0.99948
0.999392 1 1 0.999392
1.01715 0.996214 1.02127 0.999754
0.99781 0.99775 1.00044 0.999624
0.999335 1 1 0.999335
1.0229 1.02394 0.99904 0.999944
1.02583 1.02673 0.99921 0.999919
1.01975 1.02042 0.99965 0.999694
1.00028 0.999932 1.00071 0.999644
1.0011 0.994272 1.00689 0.999977
1.02676 1.02868 0.998226 0.999905
0.988228 0.983923 1.00714 0.997256
0.968845 0.983112 0.987173 0.998293
1.0279 1.0301 0.998015 0.999849
0.987377 1.01347 0.975067 0.999162
1.00474 0.998101 1.00687 0.999788
1.02399 1.02561 0.998493 0.999931
1.027 1.02871 0.998548 0.999787
1.0006 0.989721 1.01199 0.999014
0.964126 0.991773 0.973268 0.998824
0.964303 0.982678 0.98309 0.99818
0.983232 0.977903 1.00989 0.995602
1.02388 0.998304 1.02574 0.999889
1.02715 1.02795 0.999325 0.999896
1.01172 1.01534 0.996972 0.999465
0.924484 0.955268 0.969186 0.998543
0.950867 0.973869 0.978176 0.998164
0.986873 0.979318 1.01228 0.995492
0.97877 0.987042 0.992903 0.998707
1.00121 1 1.00167 0.999535
1.01319 0.999923 1.01369 0.999586
1.0195 1 1.01998 0.99953
0.999416 1 1 0.999416
1.00005 1 1.00055 0.999499
1.00224 1 1.00281 0.999439
1.0109 1 1.01161 0.999294
0.999714 1 1.00032 0.999396
1.00287 1 1.00363 0.999243
1.00699 1 1.00795 0.999049
0.999769 1 1.00046 0.999306
1.00188 1 1.00276 0.99912
1.00224 1 1.00324 0.999004
0.999214 1 1.00015 0.999062
0.999354 1 1.00003 0.999327
0.999383 1 1.00022 0.99916
0.999243 1 1.00006 0.999187
0.999464 1 1 0.999464
0.999419 1 1 0.999419
0.999523 1 1 0.999523
0.999459 1 1 0.999459
0.999375 1 1 0.999375
0.9997 1 1 0.9997
0.999566 1 1 0.999566
0.999469 1 1 0.999469
0.99995 1 1 0.99995
0.999729 1 1 0.999729
0.999565 1 1 0.999565
0.999757 1 1 0.999757
0.999962 1 1 0.999962
1 1 1 1
0.999971 1 1 0.999971
1 1 1 1
1 1 1 1
1 1 1 1
1 1 1 1
1 1 1 1
0.999765 1 1 0.999765
0.999969 1 1 0.999969
0.999779 1 1 0.999779
1 1 1 1
0.999969 1 1 0.999969
0.999822 1 1 0.999822
1 1 1 1
1 1 1 1
0.99997 1 1 0.99997
1 1 1 1
1 1 1 1
1 1 1 1
1.02457 1.02618 0.998509 0.999925
1.02722 1.02831 0.999037 0.999899
1.01804 1.01922 0.999175 0.999671
0.999594 1 1 0.999594
0.999533 1 1 0.999533
0.999647 1 1 0.999647
0.999606 1 1 0.999606
0.999541 1 1 0.999541
0.999531 1 1 0.999531
0.999481 1 1 0.999481
1.02224 1.02442 0.998147 0.999722
1.02664 1.02947 0.99745 0.999801
1.02625 1.02873 0.997797 0.999793
0.992963 1.02203 0.972199 0.999342
0.992353 0.996783 0.997774 0.997776
0.978648 0.975302 1.00735 0.996104
0.966718 0.979868 0.989289 0.997262
0.984754 0.988617 0.99794 0.998148
0.979956 0.976968 1.00775 0.995348
0.966196 0.983072 0.985471 0.997324
0.982825 1.009 0.974895 0.999139
0.976295 0.982446 0.994702 0.999031
0.976214 0.978598 1.00231 0.995264
0.979716 0.992822 0.988544 0.998235
0.968466 0.994695 0.97457 0.999037
0.999438 1 1 0.999438
0.999449 1 1 0.999449
0.999468 1 1 0.999468
0.999546 1 1 0.999546
1.00544 1.00489 1.00102 0.999525
1.01227 0.99783 1.01497 0.999504
0.999406 1 1 0.999406
0.999344 1 1 0.999344
0.999351 1 1 0.999351
0.999393 1 1 0.999393
0.999325 1 1 0.999325
1.00897 0.994069 1.01526 0.999739
0.998933 0.998823 1.00044 0.999673
0.999353 1 1 0.999353
1.01533 0.989538 1.02614 0.99993
1.00335 1 1.00395 0.999399
1.02682 1.02727 0.999645 0.999909
1.02176 1.02264 0.999185 0.999949
1.02546 1.02635 0.999198 0.999926
1.0037 0.998791 1.00511 0.999805
1.00177 0.989543 1.01229 1.00007
1.02365 1.02495 0.998792 0.999936
0.977475 0.974097 1.00813 0.995378
0.963649 0.978288 0.987738 0.997265
1.02734 1.02898 0.998619 0.999792
0.962373 0.989504 0.973805 0.998744
1.02582 0.997397 1.02863 0.999873
1.02719 1.02813 0.999189 0.999896
1.01274 1.01553 0.997783 0.99947
0.983113 0.989768 0.993442 0.999833
0.919449 0.954307 0.964963 0.998456
0.950514 0.972558 0.979518 0.99777
0.989088 0.979735 1.01382 0.995787
1.01194 0.996186 1.01598 0.999833
1.01952 1.01984 1.00004 0.999657
0.952341 0.96461 0.988345 0.998923
0.922885 0.946677 0.976865 0.997956
0.980025 0.975281 1.00952 0.995388
0.977097 0.987296 0.991472 0.998182
1.01446 1 1.01487 0.99959
1.02018 1 1.02066 0.999526
1.0145 1 1.01508 0.999427
1.00175 1 1.0023 0.999449
1.01138 1 1.01207 0.999317
1.00882 1 1.00977 0.999061
1.00311 1 1.00389 0.999217
1.00709 1 1.00807 0.999027
1.00362 1 1.00472 0.9989
1.00247 1 1.00336 0.999116
1.00199 1 1.00301 0.998983
1.00117 1 1.00223 0.998939
0.999035 1 1 0.999035
0.999198 1 1 0.999198
0.999367 1 1.00033 0.999042
0.999422 1 1 0.999422
0.999351 1 1.00001 0.999339
0.999443 1 1.0003 0.999145
0.999496 1 1 0.999496
0.999459 1 1 0.999459
0.999438 1 1 0.999438
0.999658 1 1 0.999658
0.999532 1 1 0.999532
0.999471 1 1 0.999471
0.999923 1 1 0.999923
0.999701 1 1 0.999701
0.999567 1 1 0.999567
1 1 1 1
0.999947 1 1 0.999947
0.99973 1 1 0.99973
0.99996 1 1 0.99996
1 1 1 1
1 1 1 1
1 1 1 1
1 1 1 1
1 1 1 1
0.999594 1 1 0.999594
0.99974 1 1 0.99974
0.999959 1 1 0.999959
0.999765 1 1 0.999765
1 1 1 1
0.999973 1 1 0.999973
0.999789 1 1 0.999789
1 1 1 1
1 1 1 1
0.999985 1 1 0.999985
1 1 1 1
1 1 1 1
1 1 1 1
1.02588 1.02666 0.999336 0.999902
1.02427 1.02552 0.998852 0.999929
1.02738 1.02854 0.998978 0.999899
0.999599 1 1 0.999599
0.999526 1 1 0.999526
0.999503 1 1 0.999503
0.999521 1 1 0.999521
0.999488 1 1 0.999488
0.999604 1 1 0.999604
0.999529 1 1 0.999529
0.999532 1 1 0.999532
0.999478 1 1 0.999478
0.999481 1 1 0.999481
1.01052 1.01187 0.999178 0.999487
1.02306 1.02553 0.997867 0.999727
1.0268 1.02957 0.997465 0.999846
0.979918 1.00605 0.974845 0.999159
0.971014 0.984668 0.987843 0.998271
0.981938 0.986366 0.997809 0.997697
0.979573 0.979358 1.00479 0.995449
0.979535 0.982504 0.998928 0.998048
0.980896 0.978836 1.00673 0.995403
0.968974 0.986264 0.984651 0.997784
0.964729 0.992878 0.972664 0.998957
0.993281 0.981973 1.0132 0.998342
0.978139 0.980104 1.00246 0.995545
0.947105 0.971323 0.977807 0.997197
0.930246 0.963591 0.966807 0.99854
0.999531 1 1 0.999531
0.999439 1 1 0.999439
0.999447 1 1 0.999447
1.00171 0.992525 1.00953 0.999724
1.00013 1 1.00041 0.999725
0.999394 1 1 0.999394
0.999315 1 1 0.999315
0.999395 1 1.00003 0.999362
1.00384 1 1.00444 0.999398
1.015 0.991204 1.02408 0.999933
1.00377 1 1.00435 0.999419
1.01118 0.997506 1.01406 0.999653
1.01973 1.02006 1 0.999675
1.02624 1.02675 0.999593 0.999917
1.02056 1.02134 0.999277 0.999955
1.02759 0.99654 1.03131 0.999855
0.98203 0.988929 0.994544 0.998472
1.02727 1.0283 0.999098 0.999897
0.980447 0.977575 1.00852 0.994465
0.94806 0.970847 0.979219 0.997252
1.01414 1.01575 0.998948 0.999475
0.914847 0.953658 0.960871 0.998368
1.01251 0.996744 1.01598 0.999837
1.01951 1.01996 0.999899 0.999661
0.949081 0.962705 0.986974 0.998859
0.974772 0.987222 0.988633 0.998741
0.925706 0.950739 0.976417 0.997186
0.978383 0.975968 1.00763 0.994882
0.992623 0.995734 0.997269 0.999605
0.965942 0.969229 0.997476 0.999131
0.920294 0.941706 0.980079 0.997125
0.974335 0.972752 1.00634 0.995318
0.996112 0.994378 1.00299 0.998759
1.02042 1 1.02091 0.999522
1.01703 1 1.01761 0.999425
0.995332 1 0.9961 0.999229
1.01168 1 1.01235 0.99934
1.00836 1 1.00929 0.999082
1.00168 1.00002 1.00272 0.99895
1.00706 1 1.00806 0.999005
1.00324 1 1.00434 0.998903
0.999004 1 1.00003 0.99897
1.00172 1 1.00276 0.998963
1.00064 1 1.00169 0.998947
0.999054 1 1 0.999054
0.999131 1 1 0.999131
0.999128 1 1 0.999128
0.999041 1 1 0.999041
0.999322 1 1 0.999322
0.999238 1 1.00006 0.999174
0.999526 1 1.00051 0.999021
0.999498 1 1 0.999498
0.999437 1 1 0.999437
0.999351 1 1 0.999351
0.999613 1 1 0.999613
0.999499 1 1 0.999499
0.999454 1 1 0.999454
0.99988 1 1 0.99988
0.999658 1 1 0.999658
0.999542 1 1 0.999542
1 1 1 1
0.999921 1 1 0.999921
0.999701 1 1 0.999701
1 1 1 1
1 1 1 1
0.999945 1 1 0.999945
1 1 1 1
1 1 1 1
1 1 1 1
0.999564 1 1 0.999564
0.999715 1 1 0.999715
0.999588 1 1 0.999588
0.99995 1 1 0.99995
0.99974 1 1 0.99974
1 1 1 1
0.999962 1 1 0.999962
0.999765 1 1 0.999765
1 1 1 1
1 1 1 1
0.999976 1 1 0.999976
1 1 1 1
1 1 1 1
1 1 1 1
1.01735 1.01762 1 0.999739
1.0268 1.0276 0.999318 0.999902
1.02399 1.0249 0.999182 0.999934
0.999507 1 1 0.999507
0.999604 1 1 0.999604
0.999518 1 1 0.999518
0.999529 1 1 0.999529
0.999511 1 1 0.999511
0.999486 1 1 0.999486
0.999462 1 1 0.999462
0.999471 1 1 0.999471
0.999533 1 1 0.999533
0.999476 1 1 0.999476
0.999479 1 1 0.999479
0.99947 1 1 0.99947
0.950017 0.966012 0.984738 0.998683
1.00981 1.01123 0.999111 0.999491
1.0241 1.02685 0.997588 0.999731
0.958501 0.989135 0.970187 0.998808
0.971398 0.988774 0.984987 0.9974
0.975468 0.978048 1.00209 0.995281
0.98117 0.979909 1.00219 0.999101
0.992757 0.980364 1.01329 0.999357
0.923703 0.958487 0.965199 0.998457
0.981533 0.978931 1.00776 0.994935
0.94726 0.971271 0.977132 0.998104
0.9902 0.988436 1.00243 0.999355
0.975721 0.974556 1.00552 0.995701
0.923649 0.947049 0.977294 0.997952
1.00008 1 1.00041 0.999672
0.999533 1 1 0.999533
0.99944 1 1 0.99944
1.01453 0.992872 1.02188 0.999932
1.00446 1 1.00506 0.999396
0.999421 1 1.00005 0.999371
1.00406 1 1.00465 0.999422
1.01041 0.998263 1.01251 0.999665
1.00884 0.999787 1.00939 0.999673
0.964793 0.970099 0.995669 0.998857
1.01989 1.02018 0.999986 0.999737
1.02576 1.02623 0.999616 0.999925
1.013 0.997248 1.01596 0.999843
0.97689 0.989723 0.987877 0.999146
1.01935 1.02003 0.999666 0.999665
0.980275 0.977265 1.00689 0.99622
0.929799 0.953809 0.976777 0.998004
0.943319 0.962383 0.981454 0.998713
0.992218 0.996325 0.99625 0.999627
0.960102 0.968593 0.992297 0.998929
0.928509 0.942353 0.98729 0.997993
0.994988 0.991778 1.0054 0.997846
0.976009 0.975278 1.00537 0.995405
0.983958 1.00353 0.981026 0.999465
0.928147 0.943708 0.985462 0.998021
0.972885 0.972707 1.00459 0.99561
1.00277 1.00156 1.0035 0.99771
1.02049 1 1.02108 0.999422
0.992016 1 0.992765 0.999246
0.985653 1.00024 0.986215 0.999186
1.00811 1 1.00902 0.999103
1.00183 1.00017 1.00271 0.998953
0.99965 1.00056 0.999966 0.999125
1.00291 1 1.00401 0.998906
0.999324 1 1.00034 0.998981
0.999581 1.00037 1 0.999208
1.00011 1 1.00116 0.998955
0.99906 1 1 0.99906
0.999255 1 1 0.999255
0.999286 1 1 0.999286
0.999166 1 1 0.999166
0.999147 1 1 0.999147
0.999242 1 1 0.999242
0.999143 1 1 0.999143
0.999048 1 1 0.999048
0.999452 1 1 0.999452
0.999322 1 1 0.999322
0.999277 1 1.00013 0.999151
0.999591 1 1 0.999591
0.999496 1 1 0.999496
0.999452 1 1 0.999452
0.999827 1 1 0.999827
0.999615 1 1 0.999615
0.999501 1 1 0.999501
1 1 1 1
0.999879 1 1 0.999879
0.999658 1 1 0.999658
1 1 1 1
1 1 1 1
0.99992 1 1 0.99992
1 1 1 1
1 1 1 1
1 1 1 1
0.999567 1 1 0.999567
0.999567 1 1 0.999567
0.999686 1 1 0.999686
0.999937 1 1 0.999937
0.999714 1 1 0.999714
0.999582 1 1 0.999582
1 1 1 1
0.999952 1 1 0.999952
0.99974 1 1 0.99974
1 1 1 1
1 1 1 1
0.999965 1 1 0.999965
1 1 1 1
1 1 1 1
1 1 1 1
0.965234 0.968675 0.997412 0.999033
1.01749 1.01775 1 0.999744
1.02771 1.02852 0.999304 0.999903
0.999501 1 1 0.999501
0.999509 1 1 0.999509
0.99947 1 1 0.99947
0.999538 1 1 0.999538
0.999518 1 1 0.999518
0.999485 1 1 0.999485
0.999472 1 1 0.999472
0.999463 1 1 0.999463
0.999425 1 1 0.999425
0.99947 1 1 0.99947
0.999478 1 1 0.999478
0.999472 1 1 0.999472
0.928023 0.944068 0.984957 0.998018
0.95019 0.964182 0.986771 0.9987
1.00926 1.01061 0.999172 0.999495
0.91754 0.953736 0.963614 0.998375
0.945008 0.968006 0.978982 0.997201
0.989836 0.983959 1.00957 0.996438
0.997727 0.980294 1.01953 0.998288
0.990305 0.987863 1.00415 0.998334
0.92615 0.948348 0.979327 0.997208
0.979789 0.977196 1.00667 0.996014
0.992263 0.989276 1.00462 0.998403
0.97643 0.975264 1.00564 0.99558
1.00765 1 1.00819 0.999464
0.999931 1 1.00027 0.999665
0.999534 1 1 0.999534
1.00855 0.997996 1.0109 0.999678
1.00436 1 1.00494 0.999425
1.00852 0.99971 1.00918 0.999636
1.00151 1.00067 1.00146 0.999376
0.925778 0.9456 0.981205 0.997791
0.965106 0.968855 0.997117 0.99901
1.01989 1.02018 0.999918 0.999799
0.990666 0.996564 0.994428 0.999651
0.995493 0.991408 1.00543 0.998702
0.960902 0.968526 0.993184 0.998937
0.976774 0.973561 1.00797 0.995364
0.925405 0.943682 0.983406 0.997179
0.987113 1.00381 0.983925 0.999431
0.928218 0.943343 0.98639 0.997542
0.972998 0.971877 1.00574 0.995442
1.00232 0.997913 1.00584 0.998582
1.00685 1.01 0.997633 0.999243
0.961357 0.967151 0.999086 0.994918
0.998073 1.00048 0.998699 0.998896
0.98866 1 0.98939 0.999262
0.987621 1.0004 0.988045 0.99917
0.989855 1.00116 0.989484 0.999216
1.00186 1.00029 1.00262 0.998956
0.999758 1.00084 0.999795 0.999121
1.00121 1.00256 0.999248 0.999408
0.999663 1 1.00067 0.998993
0.999651 1.00044 1 0.99921
1.00055 1.00114 1 0.999413
0.999065 1 1 0.999065
0.999254 1 1 0.999254
0.999393 1 1 0.999392
0.999368 1 1 0.999368
0.999304 1 1 0.999304
0.999274 1 1 0.999274
0.999233 1 1 0.999233
0.999169 1 1 0.999169
0.999163 1 1 0.999163
0.999355 1 1 0.999355
0.999259 1 1 0.999259
0.999158 1 1 0.999158
0.999561 1 1 0.999561
0.999449 1 1 0.999449
0.999321 1 1 0.999321
0.999786 1 1 0.999786
0.999592 1 1 0.999592
0.999495 1 1 0.999495
1 1 1 1
0.999827 1 1 0.999827
0.999616 1 1 0.999616
1 1 1 1
1 1 1 1
0.999878 1 1 0.999878
1 1 1 1
1 1 1 1
1 1 1 1
0.999551 1 1 0.999551
0.999557 1 1 0.999557
0.99966 1 1 0.99966
0.999569 1 1 0.999569
0.999686 1 1 0.999686
0.999913 1 1 0.999913
1 1 1 1
0.999938 1 1 0.999938
0.999714 1 1 0.999714
1 1 1 1
1 1 1 1
0.999954 1 1 0.999954
1 1 1 1
1 1 1 1
1 1 1 1
0.934733 0.944921 0.991825 0.997372
0.962479 0.968264 0.995107 0.998913
1.01776 1.01801 1 0.999749
0.999494 1 1 0.999494
0.999465 1 1 0.999465
0.999516 1 1 0.999516
0.999504 1 1 0.999504
0.999467 1 1 0.999467
0.999473 1 1 0.999473
0.999464 1 1 0.999464
0.99943 1 1 0.99943
0.999446 1 1 0.999446
0.999421 1 1 0.999421
0.999538 1 1.00026 0.999281
0.999468 1 1 0.999468
0.999473 1 1 0.999473
0.972098 0.97684 1.00031 0.994839
0.933853 0.946311 0.989141 0.997668
0.949699 0.963379 0.987157 0.998625
0.927238 0.948658 0.979354 0.998026
0.977678 0.974315 1.00887 0.994631
0.992876 0.988971 1.00457 0.999382
0.994964 0.992197 1.00386 0.998934
0.976219 0.976794 1.0037 0.995729
0.991307 0.998727 0.994196 0.998365
1.00599 1.00132 1.0057 0.998972
1.00611 1 1.00666 0.999452
0.999657 1 1 0.999657
1.00764 1 1.00804 0.999602
1.00056 1.00098 1.00017 0.999405
0.953861 0.965271 0.992472 0.995675
0.929616 0.945113 0.9863 0.997266
0.965808 0.967671 0.998909 0.999164
0.9904 1.00443 0.98663 0.999394
1.00546 1.0005 1.00725 0.99773
0.931613 0.94346 0.990155 0.997261
0.973888 0.971796 1.00659 0.995587
1.00149 1.00974 0.99259 0.999234
0.963834 0.968735 0.999175 0.995763
1.00001 1.0026 0.999393 0.998014
1.00677 1.01017 0.997637 0.999001
0.998572 0.995664 1.00365 0.999271
0.988696 1.00052 0.989014 0.999154
0.991929 1.00116 0.991579 0.999197
1.00299 1.00901 0.994764 0.999264
0.999733 1.00104 0.999578 0.999117
1.00013 1.0017 0.999033 0.999401
1.00243 1.00392 0.999053 0.999458
0.999705 1.00049 1 0.999211
1.00023 1.00083 0.999994 0.999402
1.00033 1.00092 0.999987 0.999421
0.999254 1 1 0.999254
0.999386 1 1 0.999384
0.999382 1 1 0.999378
0.999388 1 1 0.999388
0.999319 1 1 0.999319
0.999321 1 1 0.999321
0.99927 1 1 0.99927
0.999265 1 1 0.999265
0.999303 1 1 0.999303
0.99923 1 1 0.99923
0.999172 1 1 0.999172
0.999503 1 1 0.999503
0.999367 1 1 0.999367
0.999276 1 1 0.999276
0.999754 1 1 0.999754
0.99956 1 1 0.99956
0.999447 1 1 0.999447
0.999998 1 1 0.999998
0.999786 1 1 0.999786
0.999592 1 1 0.999592
1 1 1 1
1 1 1 1
0.999827 1 1 0.999827
1 1 1 1
1 1 1 1
1 1 1 1
0.999522 1 1 0.999522
0.999551 1 1 0.999551
0.99962 1 1 0.99962
0.999547 1 1 0.999547
0.99965 1 1 0.99965
0.999874 1 1 0.999874
0.999685 1 1 0.999685
0.999913 1 1 0.999913
1 1 1 1
1 1 1 1
1 1 1 1
0.999939 1 1 0.999939
1 1 1 1
1 1 1 1
1 1 1 1
0.966165 0.970852 0.999464 0.995706
0.930308 0.94774 0.983671 0.997902
0.964527 0.967947 0.997475 0.99899
0.999459 1 1 0.999459
0.999522 1 1 0.999522
0.999471 1 1 0.999471
0.999504 1 1 0.999504
0.999468 1 1 0.999468
0.999484 1 1 0.999484
0.999434 1 1 0.999434
0.999431 1 1 0.999431
0.999416 1 1 0.999416
0.99941 1 1 0.99941
0.999315 1 1 0.999315
0.999056 1 1.00011 0.998942
0.999351 1 1.00006 0.999294
0.999467 1 1 0.999467
0.989504 0.994079 0.996768 0.998626
0.970762 0.973864 1.00127 0.995545
0.92731 0.946326 0.982681 0.997176
0.975095 0.974801 1.00484 0.995484
0.990114 0.990586 1.00008 0.999448
0.992567 0.997044 0.996317 0.999191
0.997185 1.00479 0.993324 0.999102
1.00308 1.00066 1.00337 0.999044
1.00506 1 1.00563 0.99944
0.998458 1.0011 0.997932 0.99943
0.986425 0.986386 1.00183 0.998213
0.961063 0.966874 0.998093 0.995889
0.928304 0.945704 0.983553 0.998014
0.998216 1.00931 0.98978 0.999225
1.00659 1.00552 1.00233 0.998737
0.96496 0.968419 0.999792 0.996636
1.00124 1.00806 0.994203 0.999021
0.995322 0.995943 1.00046 0.998914
1.00178 1.01425 0.988644 0.999053
1.01108 1.0097 1.00234 0.99903
0.994603 1.00126 0.994166 0.999177
1.00318 1.00871 0.995252 0.999263
1.00496 1.00842 0.997308 0.999254
0.999426 1.00116 0.998877 0.999394
1.00225 1.00363 0.999167 0.999451
1.00132 1.00223 0.999799 0.999287
0.999938 1.00055 1 0.999391
1.00003 1.00062 1 0.999411
0.99945 1.00018 1 0.99927
0.999376 1 1 0.999376
0.999386 1 1 0.999386
0.999277 1 1 0.999277
0.999408 1 1 0.999408
0.999329 1 1 0.999329
0.999269 1 1 0.999269
0.999266 1 1 0.999266
0.999262 1 1 0.999262
0.999304 1 1 0.999304
0.999427 1 1 0.999427
0.999314 1 1 0.999314
0.999227 1 1 0.999227
0.999709 1 1 0.999709
0.999502 1 1 0.999502
0.999378 1 1 0.999378
0.999989 1 1 0.999989
0.999754 1 1 0.999754
0.999558 1 1 0.999558
1 1 1 1
0.999996 1 1 0.999996
0.999787 1 1 0.999787
1 1 1 1
0.999999 1 1 0.999999
1 1 1 1
0.999493 1 1 0.999493
0.999529 1 1 0.999529
0.999595 1 1 0.999595
0.999552 1 1 0.999552
0.999617 1 1 0.999617
0.999828 1 1 0.999828
0.999641 1 1 0.999641
0.999874 1 1 0.999874
1 1 1 1
0.999914 1 1 0.999914
1 1 1 1
1 1 1 1
1 1 1 1
1 1 1 1
1 1 1 1
0.983178 0.986272 0.998276 0.998585
0.959697 0.967849 0.995911 0.995649
0.928781 0.948231 0.982235 0.997203
0.999404 1 1 0.999404
0.999476 1 1 0.999476
0.999505 1 1 0.999505
0.999483 1 1 0.999483
0.999465 1 1 0.999465
0.999522 1 1 0.999522
0.999416 1 1 0.999416
0.999412 1 1 0.999412
0.999426 1 1 0.999426
0.999342 1 1 0.999342
0.999091 1 1 0.999091
1.00262 1.00394 1 0.998685
0.999073 1 1.00013 0.998945
0.999307 1 1 0.999307
0.999952 1.00478 0.995962 0.999232
0.990299 0.995444 0.996595 0.998231
0.972613 0.974818 1.00142 0.996326
0.994719 0.998256 0.998085 0.998369
1.00177 1.00611 0.996622 0.999059
1.00158 1.00015 1.00231 0.999117
1.0014 1.00208 1.00002 0.999304
0.987661 0.985341 1.00344 0.998921
0.957857 0.966764 0.995055 0.995711
0.994624 1.00592 0.98972 0.99904
0.992996 0.995943 0.998523 0.998516
1.00345 1.01433 0.990221 0.999035
1.00894 1.00846 1.00136 0.99912
1.01362 1.01515 0.999492 0.999008
1.00638 1.00744 1 0.998942
1.00297 1.00809 0.995662 0.999263
1.00648 1.00911 0.998138 0.999261
1.00101 1.00188 1 0.99913
1.00195 1.00313 0.999384 0.999444
1.0019 1.00267 0.999957 0.999285
0.999268 1.00015 1 0.999115
0.999726 1.00032 1 0.999402
0.999512 1.00022 1 0.999292
0.999157 1 1 0.999157
0.999394 1 1 0.999394
0.999277 1 1 0.999277
0.999214 1 1 0.999214
0.99934 1 1 0.99934
0.999273 1 1 0.999273
0.999271 1 1 0.999271
0.999258 1 1 0.999258
0.999296 1 1 0.999296
0.999393 1 1 0.999393
0.999655 1 1 0.999655
0.999439 1 1 0.999439
0.999326 1 1 0.999326
0.999973 1 1 0.999973
0.999709 1 1 0.999709
0.999502 1 1 0.999502
1 1 1 1
0.999985 1 1 0.999985
0.999753 1 1 0.999753
1 1 1 1
0.999994 1 1 0.999994
1 1 1 1
0.999434 1 1 0.999434
0.999494 1 1 0.999494
0.999571 1 1 0.999571
0.999536 1 1 0.999536
0.999599 1 1 0.999599
0.999786 1 1 0.999786
0.999613 1 1 0.999613
0.999827 1 1 0.999827
1 1 1 1
0.999874 1 1 0.999874
1 1 1 1
1 1 1 1
1 1 1 1
1 1 1 1
1 1 1 1
1.00239 1.0059 0.997094 0.99942
0.982819 0.987573 0.997347 0.997834
0.96353 0.96828 0.999323 0.995769
0.99944 1 1 0.99944
0.999271 1 1 0.999271
0.999415 1 1 0.999415
0.999481 1 1 0.999481
0.999461 1 1 0.999461
0.999507 1 1 0.999507
0.99951 1.00034 1 0.999172
0.999442 1 1 0.999442
0.99937 1 1 0.99937
0.999215 1.00011 1 0.999103
1.00019 1.00142 1 0.998775
1.00544 1.00701 0.999519 0.99892
1.0018 1.00311 1 0.998699
0.998948 1 1 0.998948
1.00243 1.00702 0.996185 0.999263
0.988257 0.994916 0.995538 0.997758
1.00472 1.00716 0.998565 0.999016
1.00199 1.00267 1 0.999327
1.00192 1.00142 1.00116 0.999338
0.985814 0.98512 1.00267 0.998041
1.0055 1.01486 0.991753 0.999018
1.0065 1.00703 1.00027 0.99921
1.01356 1.01538 0.999187 0.999029
1.00749 1.00852 1 0.998977
1.00346 1.00444 1 0.999028
1.00399 1.00483 1 0.999167
1.00822 1.01005 0.998926 0.999268
1.00107 1.00193 1 0.999136
0.999891 1.00087 1 0.999024
1.00238 1.0031 1 0.999283
0.99933 1.0002 1 0.999128
0.999049 1 1 0.999049
0.999569 1.00026 1 0.999314
0.999155 1 1 0.999155
0.999117 1 1 0.999117
0.999277 1 1 0.999277
0.999214 1 1 0.999214
0.999215 1 1 0.999215
0.999276 1 1 0.999276
0.999272 1 1 0.999272
0.999354 1 1 0.999354
0.999288 1 1 0.999288
0.999389 1 1 0.999389
0.999606 1 1 0.999606
0.999951 1 1 0.999951
0.999655 1 1 0.999655
0.999451 1 1 0.999451
1 1 1 1
0.999967 1 1 0.999967
0.999708 1 1 0.999708
1 1 1 1
0.999981 1 1 0.999981
1 1 1 1
0.999325 1 1 0.999325
0.999422 1 1 0.999422
0.999521 1 1 0.999521
0.999495 1 1 0.999495
0.999572 1 1 0.999572
0.999752 1 1 0.999752
0.999604 1 1 0.999604
0.999786 1 1 0.999786
0.999997 1 1 0.999997
0.999827 1 1 0.999827
1 1 1 1
1 1 1 1
1 1 1 1
1 1 1 1
1 1 1 1
1.00253 1.00393 0.999381 0.999226
1.00142 1.00496 0.997079 0.999394
0.982487 0.986214 0.997744 0.998473
0.999469 1.00025 1 0.99922
0.999498 1 1 0.999498
0.999109 1 1 0.999109
0.999262 1 1 0.999262
0.999425 1 1 0.999425
1.00112 1.00224 1 0.998881
0.999493 1 1 0.999493
0.99941 1.00025 1 0.999163
1.00133 1.00248 1 0.998856
0.999321 1.00021 1 0.999114
1.00059 1.00184 1 0.998749
1.00419 1.00561 0.999671 0.998915
1.00059 1.00188 1 0.998712
1.00443 1.00863 0.996542 0.999293
1.0026 1.0033 1 0.999293
1.00177 1.00245 1 0.999323
1.00242 1.00081 1.00224 0.999371
1.01369 1.01576 0.998911 0.99905
1.00896 1.00996 1 0.999011
1.00425 1.00523 1 0.999024
1.00435 1.00519 1 0.999169
1.0025 1.0034 1 0.99911
1.00106 1.00192 1 0.999142
0.999784 1.00076 1 0.999029
0.999482 1.00047 1 0.999013
0.999401 1.00026 1 0.99914
0.999045 1 1 0.999045
0.999036 1 1 0.999036
0.999153 1 1 0.999153
0.999115 1 1 0.999115
0.999134 1 1 0.999134
0.999213 1 1 0.999213
0.999214 1 1 0.999214
0.999291 1 1 0.999291
0.999272 1 1 0.999272
0.999354 1 1 0.999354
0.999557 1 1 0.999557
0.999385 1 1 0.999385
0.999606 1 1 0.999606
0.999931 1 1 0.999931
1 1 1 1
0.999945 1 1 0.999945
0.999655 1 1 0.999655
1 1 1 1
0.99996 1 1 0.99996
1 1 1 1
0.99914 1 1 0.99914
0.99924 1 1 0.99924
0.999312 1 1 0.999312
0.999464 1 1 0.999464
0.99941 1 1 0.99941
0.999523 1 1 0.999523
0.999721 1 1 0.999721
0.999572 1 1 0.999572
0.999752 1 1 0.999752
0.999985 1 1 0.999985
0.999786 1 1 0.999786
0.999998 1 1 0.999998
1 1 1 1
1 1 1 1
1 1 1 1
1 1 1 1
1.00178 1.00266 1 0.999122
1.00397 1.00515 0.999567 0.999256
1.00127 1.00485 0.997069 0.999368
0.999786 1.00082 1 0.998966
0.999389 1.00012 1 0.999269
0.999556 1 1 0.999556
0.999148 1.00002 1 0.999129
0.999254 1 1 0.999254
1.00361 1.00479 1 0.998818
1.00083 1.00197 1 0.998857
0.999326 1.00017 1 0.999154
1.00172 1.00287 1 0.998849
1.00114 1.00242 1 0.998724
1.00385 1.00515 0.99979 0.99891
1.00397 1.00478 1 0.999198
1.00227 1.00299 1 0.999283
1.00153 1.00221 1 0.999319
1.00475 1.00573 1 0.999021
1.00454 1.00537 1 0.99917
1.00263 1.00352 1 0.999113
1.00182 1.00276 1 0.999063
0.999723 1.00069 1 0.999035
0.999334 1.00033 1 0.999009
0.99907 1.00005 1 0.999017
0.999041 1 1 0.999041
0.999035 1 1 0.999035
0.999071 1 1 0.999071
0.999112 1 1 0.999112
0.999133 1 1 0.999133
0.999219 1 1 0.999219
0.999214 1 1 0.999214
0.999291 1 1 0.999291
0.999497 1 1 0.999497
0.999355 1 1 0.999355
0.999557 1 1 0.999557
0.999915 1 1 0.999915
0.999605 1 1 0.999605
0.999926 1 1 0.999926
0.999999 1 1 0.999999
1 1 1 1
0.999939 1 1 0.999939
1 1 1 1
0.999064 1.00007 1 0.998997
0.999223 1 1 0.999223
0.999212 1 1 0.999212
0.999383 1 1 0.999383
0.999238 1 1 0.999238
0.999299 1 1 0.999299
0.999465 1 1 0.999465
0.999679 1 1 0.999679
0.999525 1 1 0.999525
0.999722 1 1 0.999722
0.999968 1 1 0.999968
0.999752 1 1 0.999752
0.999989 1 1 0.999989
1 1 1 1
1 1 1 1
1 1 1 1
1 1 1 1
1.00432 1.00531 1 0.999015
1.00182 1.0027 1 0.999121
1.00487 1.0058 0.999796 0.999285
1.0016 1.00273 1 0.998869
0.999708 1.00074 1 0.998969
0.999318 1 1 0.999318
0.999194 1.00004 1 0.999149
1.00353 1.00472 1 0.998818
1.00062 1.00179 1 0.998833
1.0019 1.00306 1 0.998843
1.00441 1.00531 1 0.999105
1.00398 1.00481 1 0.999174
1.00188 1.00261 1 0.999273
1.00339 1.00436 1 0.999036
1.00281 1.0037 1 0.999116
1.00191 1.00285 1 0.999062
0.999949 1.00091 1 0.999037
0.999188 1.00018 1 0.999005
0.999247 1.00023 1 0.999018
0.999044 1 1 0.999044
0.999033 1 1 0.999033
0.999071 1 1 0.999071
0.999166 1 1 0.999166
0.999132 1 1 0.999132
0.999218 1 1 0.999218
0.999432 1 1 0.999432
0.99929 1 1 0.99929
0.999495 1 1 0.999495
0.9999 1 1 0.9999
0.999556 1 1 0.999556
0.999911 1 1 0.999911
0.999997 1 1 0.999997
0.999922 1 1 0.999922
0.999999 1 1 0.999999
1 1 1 1
0.999132 1.00022 1 0.998909
0.999081 1 1 0.999081
0.999055 1.00003 1 0.999022
0.999327 1 1 0.999327
0.999222 1 1 0.999222
0.999284 1 1 0.999284
0.999603 1 1 0.999603
0.999382 1 1 0.999382
0.999236 1 1 0.999236
0.999466 1 1 0.999466
0.99968 1 1 0.99968
0.999948 1 1 0.999948
0.999722 1 1 0.999722
0.999973 1 1 0.999973
1 1 1 1
0.999993 1 1 0.999993
1 1 1 1
1 1 1 1
1.00316 1.00418 1 0.998985
1.00448 1.00549 1 0.998996
1.00205 1.00294 1 0.999119
1.00145 1.00258 1 0.998866
0.999614 1.00064 1 0.998972
1.0033 1.00449 1 0.998819
1.00407 1.00505 1 0.999031
1.00469 1.00559 1 0.999105
1.00402 1.00488 1 0.999149
1.00318 1.00415 1 0.999038
1.00143 1.00242 1 0.999012
1.00199 1.00293 1 0.999062
1.00014 1.0011 1 0.999037
0.999182 1.00014 1 0.999044
0.999417 1.0004 1 0.999019
0.999046 1 1 0.999046
0.999134 1 1 0.999134
0.999071 1 1 0.999071
0.999165 1 1 0.999165
0.999388 1 1 0.999388
0.999218 1 1 0.999218
0.999431 1 1 0.999431
0.999882 1 1 0.999882
0.999494 1 1 0.999494
0.999895 1 1 0.999895
0.999994 1 1 0.999994
0.999907 1 1 0.999907
0.999998 1 1 0.999998
0.999999 1 1 0.999999
1.00004 1.00106 1 0.998983
0.998978 1 1 0.998978
0.999057 1.00016 1 0.998901
0.999213 1 1 0.999213
0.999092 1 1 0.999092
0.999048 1 1 0.999048
0.999518 1 1 0.999518
0.999304 1 1 0.999304
0.999221 1 1 0.999221
0.999919 1 1 0.999919
0.999605 1 1 0.999605
0.999381 1 1 0.999381
0.99968 1 1 0.99968
0.999954 1 1 0.999954
1 1 1 1
0.999978 1 1 0.999978
1 1 1 1
1 1 1 1
1.00227 1.0033 1 0.99898
1.00316 1.00419 1 0.99898
1.00465 1.00567 1 0.998977
1.00136 1.0025 1 0.998864
1.00217 1.00319 1 0.998985
1.00424 1.00521 1 0.999036
1.00497 1.00587 1 0.999104
1.00296 1.00393 1 0.99904
1.00147 1.00246 1 0.999012
0.999378 1.00035 1 0.99903
1.00034 1.00131 1 0.999037
0.999188 1.00014 1 0.999049
0.999108 1 1 0.999108
0.999047 1 1 0.999047
0.999134 1 1 0.999134
0.999361 1 1 0.999361
0.999165 1 1 0.999165
0.999388 1 1 0.999388
0.999864 1 1 0.999864
0.999429 1 1 0.999429
0.999877 1 1 0.999877
1 1 1 1
0.999891 1 1 0.999891
0.999996 1 1 0.999996
0.999998 1 1 0.999998
1.00017 1.00116 1 0.999003
0.999008 1 1 0.999008
1.00005 1.00107 1 0.998986
0.999098 1 1 0.999098
0.998992 1 1 0.998992
0.99898 1.00009 1 0.998894
0.999403 1 1 0.999403
0.999212 1 1 0.999212
0.999102 1 1 0.999102
0.999887 1 1 0.999887
0.999499 1 1 0.999499
0.999281 1 1 0.999281
1 1 1 1
0.999927 1 1 0.999927
0.999606 1 1 0.999606
0.99996 1 1 0.99996
1 1 1 1
1 1 1 1
1.00115 1.00217 1 0.998986
1.00259 1.00361 1 0.998988
1.00311 1.00414 1 0.998975
0.999902 1.00092 1 0.998985
1.00206 1.00308 1 0.998982
1.00442 1.00538 1 0.999041
1.00151 1.0025 1 0.999013
0.999413 1.00038 1 0.999031
0.999109 1 1 0.999109
0.999195 1.00014 1 0.999054
0.999127 1 1 0.999127
0.9993 1 1 0.9993
0.999135 1 1 0.999135
0.999361 1 1 0.999361
0.999848 1 1 0.999848
0.999387 1 1 0.999387
0.999862 1 1 0.999862
1 1 1 1
0.999871 1 1 0.999871
0.999996 1 1 0.999996
0.999997 1 1 0.999997
0.999596 1.00058 1 0.999012
0.999042 1 1 0.999042
1.00017 1.00117 1 0.999004
0.999109 1 1 0.999109
0.999051 1.00004 1 0.999013
1.00007 1.00108 1 0.998989
0.999333 1 1 0.999333
0.999123 1 1 0.999123
0.999005 1 1 0.999005
0.999863 1 1 0.999863
0.999394 1 1 0.999394
0.999211 1 1 0.999211
1 1 1 1
0.999894 1 1 0.999894
0.999479 1 1 0.999479
1 1 1 1
0.999935 1 1 0.999935
1 1 1 1
0.999641 1.00064 1 0.998999
1.00092 1.00194 1 0.998987
1.00291 1.00392 1 0.998996
0.999068 1 1 0.999068
0.99979 1.0008 1 0.998988
1.00197 1.00299 1 0.998978
0.999453 1.00042 1 0.999031
0.999109 1 1 0.999109
0.999261 1 1 0.999261
0.999146 1 1 0.999146
0.999318 1 1 0.999318
0.999816 1 1 0.999816
0.999362 1 1 0.999362
0.999846 1 1 0.999846
1 1 1 1
0.999861 1 1 0.999861
1 1 1 1
0.999993 1 1 0.999993
0.999063 1.00002 1 0.999047
0.999489 1.00048 1 0.999011
0.999112 1 1 0.999112
0.999078 1.00004 1 0.999042
1.00017 1.00116 1 0.999004
0.999335 1 1 0.999335
0.999107 1 1 0.999107
0.999091 1.00007 1 0.999019
0.999847 1 1 0.999847
0.999345 1 1 0.999345
0.999147 1 1 0.999147
1 1 1 1
0.999868 1 1 0.999868
0.999384 1 1 0.999384
1 1 1 1
0.999902 1 1 0.999902
1 1 1 1
0.999085 1 1 0.999085
0.999473 1.00047 1 0.999002
1.00066 1.00168 1 0.998989
0.999234 1 1 0.999234
0.999068 1 1 0.999068
0.999643 1.00065 1 0.998991
0.99911 1 1 0.99911
0.999266 1 1 0.999266
0.999778 1 1 0.999778
0.999336 1 1 0.999336
0.999814 1 1 0.999814
1 1 1 1
0.999844 1 1 0.999844
1 1 1 1
1 1 1 1
0.999102 1 1 0.999102
0.999051 1.00001 1 0.999041
0.999381 1.00037 1 0.99901
0.999321 1 1 0.999321
0.999111 1 1 0.999111
0.999116 1.00007 1 0.999042
0.999833 1 1 0.999833
0.999334 1 1 0.999334
0.999105 1 1 0.999105
1 1 1 1
0.99985 1 1 0.99985
0.999357 1 1 0.999357
1 1 1 1
0.999872 1 1 0.999872
1 1 1 1
0.99927 1 1 0.99927
0.999068 1 1 0.999068
0.999336 1.00033 1 0.999005
0.999757 1 1 0.999757
0.999236 1 1 0.999236
0.999068 1 1 0.999068
0.999271 1 1 0.999271
0.999777 1 1 0.999777
1 1 1 1
0.999811 1 1 0.999811
1 1 1 1
1 1 1 1
0.999297 1 1 0.999297
0.999095 1 1 0.999095
0.999041 1 1 0.999036
0.999827 1 1 0.999827
0.99932 1 1 0.99932
0.999111 1 1 0.999111
1 1 1 1
0.999833 1 1 0.999833
0.999333 1 1 0.999333
1 1 1 1
0.999852 1 1 0.999852
1 1 1 1
0.999754 1 1 0.999754
0.999256 1 1 0.999256
0.99905 1 1 0.99905
1 1 1 1
0.999756 1 1 0.999756
0.999238 1 1 0.999238
0.999775 1 1 0.999775
1 1 1 1
1 1 1 1
0.999799 1 1 0.999799
0.999297 1 1 0.999297
0.999088 1 1 0.999088
1 1 1 1
0.999814 1 1 0.999814
0.999319 1 1 0.999319
1 1 1 1
0.999834 1 1 0.999834
1 1 1 1
0.999951 1 1 0.999951
0.999772 1 1 0.999772
0.999242 1 1 0.999242
1 1 1 1
0.999756 1 1 0.999756
1 1 1 1
0.999963 1 1 0.999963
0.999794 1 1 0.999794
0.999297 1 1 0.999297
0.999985 1 1 0.999985
0.999812 1 1 0.999812
1 1 1 1
1 1 1 1
0.999761 1 1 0.999761
1 1 1 1
0.999979 1 1 0.999979
0.999785 1 1 0.999785
1 1 1 1
1 1 1 1
1 1 1 1

VECTORS lamdaE float
0.998996 1.0002 0.996661
0.999185 0.999336 0.998652
0.998912 1.00032 0.996722
0.999442 1.00001 0.996269
0.999066 1.00028 0.996532
0.999072 0.999848 0.99682
0.999757 1.00076 0.994537
0.99921 0.99921 0.998691
0.998979 1.00035 0.998554
0.998922 0.999792 0.998703
0.999346 0.998844 0.997312
0.999751 1.00049 0.994558
0.999703 1.00001 0.995839
0.999353 0.999889 0.996346
0.998815 1.00049 0.996791
0.999339 1.00002 0.996358
0.998999 0.999934 0.996884
0.998965 1.00039 0.996613
0.999825 1.00071 0.994536
0.999593 0.999997 0.9982
0.999511 0.999949 0.996224
0.999253 1.00016 0.996398
1.00064 0.99999 0.993792
1.00005 1.00054 0.994262
0.999244 0.999249 0.997091
0.999544 1.00079 0.994853
1.00116 1.00116 0.991642
0.999229 0.999076 0.998735
0.999042 1.00027 0.997508
0.999004 0.999848 0.997763
0.999323 0.998693 0.998813
0.999681 1.00058 0.994561
0.999303 1.00019 0.996353
0.999067 1.00037 0.996667
1.0003 1.00044 0.994548
0.999362 0.998162 0.999046
0.999857 1.00056 0.995114
0.999661 1.00023 0.994942
1.00046 1.00169 0.992079
0.999471 0.997683 0.999165
0.999689 1 0.998125
0.999434 0.99996 0.997307
0.999772 0.999999 0.998058
0.999404 0.999938 0.996227
1.00106 1.00002 0.992474
0.99929 1.00007 0.998473
1.00084 0.999942 0.994069
0.999237 1.00003 0.996446
0.998862 1.00054 0.996684
0.998925 1.00003 0.996959
0.999897 1.00062 0.994531
0.99956 0.999993 0.997142
0.999416 0.999926 0.996315
0.999192 0.999263 0.997152
0.999145 1.00023 0.996486
1.00068 0.999981 0.993763
0.999607 1.00074 0.994854
1.00012 1.00049 0.994254
1.00123 1.00119 0.991555
0.999676 1.00001 0.99813
0.999533 0.999977 0.996136
1.00088 1.00001 0.993853
1.0007 0.999901 0.993771
1.00038 1.00024 0.993994
1.0027 0.99992 0.990111
1.00173 1.00063 0.990857
0.999463 0.998539 0.997419
0.9994 1.00055 0.995335
1.00057 1.0016 0.992219
1.00194 1.0013 0.989646
0.999079 1.0002 0.998472
0.999344 0.998534 0.998894
0.999076 0.999609 0.998631
0.999613 1.00067 0.994563
0.999321 1.00018 0.998379
0.999033 1.00015 0.998522
1.00019 1.00047 0.993641
0.999388 0.998231 0.998349
0.999752 1.00068 0.994295
0.999621 1.0002 0.995397
1.00045 1.00167 0.992069
0.999446 0.99793 0.999078
0.999642 0.99886 0.996381
1.00057 1.00013 0.993336
1.00002 1.00063 0.993927
1.00191 1.00061 0.990362
0.999593 0.999695 0.996246
1.00081 1.00134 0.991766
1.00019 1.0019 0.99238
1.00094 1.00193 0.990836
0.999518 0.997392 0.999235
0.999462 0.997633 0.99919
0.999477 1 0.998322
0.999635 1 0.998173
0.999757 1 0.99807
0.999498 0.999988 0.9972
1.00104 1.00002 0.993089
0.999342 1.00002 0.997379
1.0008 0.999943 0.993604
0.999766 0.999998 0.998065
1.00114 0.999971 0.992332
1.00094 0.999995 0.993859
1.00317 0.999776 0.988814
1.00072 0.999977 0.994227
1.00284 0.999845 0.989379
0.999635 0.999994 0.995972
0.999318 0.999884 0.996405
0.999135 0.999239 0.997225
0.99904 1.0003 0.99657
1.00071 0.99998 0.993735
1.00018 1.00041 0.994251
0.999671 1.00068 0.99485
1.00131 1.00123 0.991468
0.999717 1 0.9981
0.999432 0.999952 0.996242
1.00093 1 0.992992
1.00074 0.999884 0.993733
0.999396 0.998515 0.998151
0.999496 1.00048 0.995445
1.00043 1.00021 0.99398
1.00268 0.999915 0.99001
1.00066 1.00164 0.992129
1.00177 1.00068 0.990926
1.00194 1.0013 0.98965
1.00106 1.00001 0.992461
1.00071 0.999947 0.993684
1.00301 0.999828 0.989347
1.00276 0.999736 0.989895
1.00234 1.00019 0.990237
1.00372 0.999629 0.988242
0.999474 0.998053 0.99902
1.00257 1.00068 0.98906
0.999575 1.00007 0.99527
1.0001 1.00181 0.992489
1.00136 1.00196 0.990212
1.00245 1.00123 0.988763
0.999676 0.999163 0.995945
1.00008 1.00081 0.993623
0.999251 1.00017 0.998397
0.99899 1.00001 0.998563
1.00016 1.00048 0.993653
0.999405 0.998138 0.999036
0.99956 1.00028 0.995053
0.999677 1.0008 0.994288
1.00045 1.00166 0.992058
0.999435 0.997897 0.999107
0.999647 0.998806 0.996405
1.00054 1.00012 0.993859
0.999936 1.00064 0.994415
1.00191 1.0006 0.990379
0.999589 0.999667 0.995655
1.00079 1.00132 0.991777
1.00017 1.0019 0.992374
1.00095 1.00193 0.990787
0.999596 0.999273 0.996035
0.999721 0.998438 0.996669
1 1.00065 0.993893
1.00243 1.00017 0.989818
1.00129 1.00104 0.991139
1.00278 1.00064 0.988716
1.00013 1.00156 0.99281
1.00139 1.00146 0.990452
1.00059 1.00252 0.991054
1.00113 1.0022 0.990324
0.999597 0.997104 0.999282
0.999522 0.997336 0.999252
0.999456 0.997577 0.999213
0.999718 0.998797 0.996261
0.999499 0.997807 0.999107
0.999392 1.00007 0.998359
0.999538 0.999993 0.998262
1.00077 0.999922 0.993103
1.00099 1.00002 0.992575
0.999732 1 0.998089
0.999772 0.999999 0.998058
1.00113 0.99998 0.992339
1.00088 1 0.993396
1.00317 0.999777 0.988818
1.00067 0.999941 0.993256
1.00284 0.999853 0.989378
1.00115 0.999968 0.992304
1.00335 0.999728 0.988501
1.00297 0.999799 0.989177
1.0042 0.999441 0.987234
1.0027 0.999941 0.989541
1.00385 0.9995 0.987848
0.999746 1 0.998075
0.99933 0.999912 0.996353
1.00094 0.999988 0.992183
1.00078 0.999887 0.993695
0.999295 0.998457 0.998928
0.999591 1.00045 0.995552
1.00048 1.00017 0.993968
1.00267 0.999907 0.989909
1.0018 1.00074 0.990996
1.00075 1.0017 0.99204
1.00194 1.0013 0.989653
1.00106 1 0.992452
1.00076 0.999933 0.99365
1.00298 0.999814 0.98913
1.00277 0.999776 0.989997
0.999458 0.998099 0.998988
0.999582 1.00003 0.995608
1.00019 1.00182 0.99258
1.00232 1.00023 0.990241
1.00371 0.999562 0.988103
1.00129 1.00196 0.9902
1.00261 1.0007 0.989127
1.00245 1.00123 0.988771
0.999656 0.999233 0.995931
1.00008 1.00079 0.993618
1.00328 0.999763 0.988605
1.00276 0.999797 0.989822
1.004 0.999588 0.987752
1.00384 0.99929 0.987955
1.00324 1.00006 0.988566
1.00428 0.999094 0.987598
0.999627 0.999584 0.995591
1.00319 1.00041 0.988174
1.00006 1.00167 0.992727
1.00062 1.00229 0.990924
1.00186 1.00211 0.989374
1.00286 1.00098 0.98836
1.00011 1.00129 0.993113
1.0001 1.00026 0.994139
1.00027 1.00187 0.992212
1.00048 1.00013 0.993397
0.999424 0.997861 0.999136
0.999648 0.998761 0.99643
0.999832 1.00075 0.994008
1.0019 1.00059 0.990396
0.999584 0.999636 0.995623
1.00015 1.00189 0.992367
1.00078 1.00131 0.991787
1.00096 1.00193 0.990738
0.999607 0.99921 0.996054
0.999714 0.998416 0.996686
1 1.00067 0.9939
1.00243 1.00018 0.989823
1.00127 1.00103 0.991164
1.00278 1.00064 0.988717
1.00009 1.00161 0.992811
1.00141 1.00147 0.990491
1.00058 1.00252 0.991048
1.0011 1.0022 0.990285
0.999797 0.998108 0.996855
1.00009 1.0011 0.993296
0.999997 1.00009 0.994478
1.00018 1.00173 0.992551
1.00339 1.00002 0.988186
1.002 1.00119 0.989673
1.0033 1.00047 0.987884
1.00041 1.00241 0.991548
1.00172 1.00146 0.989931
1.00063 1.0033 0.990179
1.00128 1.00206 0.989894
1.00016 0.999066 0.995236
0.999925 0.99766 0.997054
0.999686 0.996852 0.999313
0.999609 0.997056 0.999292
0.999528 0.99728 0.999267
0.99978 0.998471 0.996484
0.99953 0.997555 0.999173
0.999714 0.998839 0.996239
0.999504 0.997837 0.99908
1.00068 0.999926 0.993253
1.00086 0.999992 0.992874
1.00283 0.999859 0.989377
1.00316 0.999779 0.988823
1.00113 0.999988 0.992344
0.99978 1 0.998053
1.00116 0.999972 0.9923
1.00336 0.999728 0.988503
1.00296 0.999811 0.989177
1.00421 0.999446 0.987233
1.00269 0.999954 0.989541
1.00386 0.999495 0.987849
1.00338 0.999718 0.988467
1.00441 0.999362 0.986913
1.00401 0.999445 0.987619
1.00468 0.999003 0.986794
1.00368 0.999673 0.98799
1.00439 0.998999 0.987341
1.00108 0.999994 0.99244
1.0008 0.999931 0.993614
1.00297 0.999794 0.988914
1.00277 0.999805 0.9901
0.999445 0.998156 0.998955
0.999605 1.00002 0.995926
1.00029 1.00183 0.992671
1.0023 1.00027 0.990245
1.00371 0.999492 0.987963
1.00265 1.00073 0.989193
1.00121 1.00195 0.990187
1.00244 1.00123 0.988779
0.999639 0.999298 0.995916
1.00009 1.00076 0.993613
1.00326 0.99975 0.988541
1.00278 0.999788 0.989817
1.00402 0.999566 0.98767
1.00384 0.999358 0.988093
0.999619 0.999637 0.995589
1.00009 1.00169 0.992727
1.00063 1.00226 0.991034
1.00327 1.00011 0.988565
1.00427 0.999006 0.987561
1.0018 1.00213 0.989257
1.00318 1.00042 0.988175
1.0028 1.00094 0.98839
1.00012 1.00122 0.99312
1.00027 1.00184 0.992224
1.00009 1.00027 0.994128
1.00427 0.9995 0.987319
1.00381 0.999476 0.988076
1.0045 0.999307 0.986971
1.0044 0.99883 0.987496
1.00383 0.999555 0.987673
1.0046 0.998471 0.987485
1.0001 1.00154 0.99286
1.00353 1.00006 0.98785
1.00045 1.00211 0.991661
1.00089 1.00276 0.989984
1.00214 1.00213 0.988636
1.00306 1.00048 0.98866
1.00014 0.999882 0.994447
1.00036 1.0019 0.992038
1.00026 1.00145 0.992606
1.00026 1.00244 0.991736
1.00242 1.00019 0.989827
0.999706 0.998394 0.996703
0.999621 0.999143 0.996071
1 1.00067 0.993908
1.00124 1.00103 0.991188
1.00278 1.00064 0.988717
1.00006 1.00165 0.992812
1.00058 1.00252 0.991041
1.00144 1.00148 0.99053
1.00107 1.00219 0.990246
0.999788 0.9981 0.996863
1.00007 1.00114 0.993296
1 1.00008 0.994491
1.00017 1.00177 0.992541
1.00339 1.00003 0.988176
1.00198 1.0012 0.989688
1.0033 1.00048 0.987885
1.00037 1.00241 0.991559
1.00175 1.00148 0.989979
1.00065 1.00332 0.990136
1.00126 1.00198 0.990137
0.999865 0.997861 0.996973
1.00005 0.999648 0.994847
1.00031 1.00204 0.992065
1.00016 1.00119 0.993112
1.00012 1.00262 0.991807
1.00394 0.99969 0.987459
1.00239 1.00115 0.988946
1.00357 1.0003 0.987559
1.00036 1.0035 0.990557
1.00191 1.00136 0.989656
1.0008 1.0034 0.989266
1.00012 0.999206 0.995156
1.00019 1.00004 0.994211
1.00019 0.998965 0.995288
1.00015 0.999086 0.995232
0.999964 0.997453 0.997558
0.999914 0.99764 0.99728
0.999818 0.996656 0.998461
0.999699 0.996811 0.999321
0.99962 0.997009 0.999302
0.999846 0.998217 0.996617
0.999596 0.997302 0.999216
0.999785 0.998491 0.996468
0.999536 0.997596 0.999153
0.99971 0.998885 0.996217
0.999508 0.997874 0.999053
1.00269 0.999965 0.989542
1.00296 0.999821 0.989177
1.00386 0.999497 0.987849
1.00421 0.999451 0.987231
1.00336 0.999728 0.988504
1.00116 0.999975 0.992297
1.00338 0.999715 0.988465
1.00441 0.999364 0.986913
1.004 0.99946 0.987621
1.0047 0.998974 0.986765
1.00369 0.999666 0.987984
1.00439 0.999 0.987343
1.00443 0.999349 0.986885
1.00488 0.9989 0.986452
1.00453 0.998961 0.987103
1.00495 0.998615 0.986752
1.0042 0.999251 0.987426
1.00466 0.998401 0.987427
1.00323 0.999739 0.988478
1.0028 0.999772 0.989812
1.00403 0.99955 0.987588
1.00384 0.999429 0.988231
0.999614 0.999678 0.995586
1.00011 1.00171 0.992727
1.00064 1.00221 0.991145
1.0033 1.00015 0.988565
1.00427 0.998918 0.987523
1.00317 1.00043 0.988175
1.00174 1.00214 0.98914
1.00273 1.0009 0.98842
1.00013 1.00117 0.993128
1.00028 1.0018 0.992236
1.00009 1.00028 0.994117
1.00429 0.999481 0.987176
1.00383 0.999439 0.988078
1.00449 0.999254 0.986942
1.0044 0.998876 0.987512
1.00012 1.00149 0.992869
1.00049 1.00211 0.99164
1.00085 1.00275 0.990125
1.00383 0.999656 0.987741
1.00462 0.998378 0.987481
1.00205 1.0022 0.988568
1.00355 1.00005 0.98784
1.00301 1.00038 0.988702
1.00036 1.00191 0.992052
1.00028 1.00245 0.991681
1.00013 0.999898 0.99444
1.00026 1.00138 0.992677
1.00474 0.999136 0.986566
1.00433 0.999128 0.987415
1.00478 0.998806 0.986865
1.00471 0.998375 0.987295
1.00432 0.999004 0.987378
1.00485 0.998151 0.987305
1.00041 1.00193 0.991935
1.00365 0.999218 0.988311
1.00043 1.00267 0.990935
1.00119 1.0032 0.989168
1.0023 1.00213 0.988158
1.00319 1.00033 0.988708
1.00016 0.999697 0.994598
1.00027 1.00097 0.993062
1.00038 1.00232 0.991623
1.00022 1.00219 0.992069
1.00027 1.00261 0.991524
0.99978 0.998092 0.99687
1.0034 1.00004 0.988166
1.00001 1.00006 0.994503
1.00006 1.00121 0.993297
1.00016 1.0018 0.99253
1.00196 1.0012 0.989703
1.0033 1.00048 0.987887
1.00034 1.00242 0.991571
1.00067 1.00335 0.990094
1.00178 1.0015 0.990026
1.00123 1.00189 0.990379
0.999858 0.997853 0.996978
1.00005 0.999638 0.994855
1.0003 1.00203 0.992065
1.00016 1.0012 0.993114
1.00012 1.00267 0.991734
1.00394 0.999706 0.987446
1.00239 1.00115 0.988954
1.00356 1.00032 0.987544
1.00032 1.0035 0.99057
1.00192 1.00138 0.989703
1.00093 1.00337 0.989356
1.00009 0.99939 0.99504
1.00018 1.00066 0.993621
1.00027 1.00303 0.991179
1.00008 1.00221 0.992274
1.00009 1.00331 0.991217
1.00425 0.999342 0.987208
1.00265 1.00095 0.988634
1.00343 0.999808 0.988145
1.00026 1.00456 0.989553
1.00168 1.00256 0.988897
1.00012 0.999216 0.995154
1.00017 1.00016 0.994032
1.00019 1.00006 0.99416
1.00015 1.00078 0.993684
1.00021 1.00002 0.994204
1.00022 0.998898 0.995295
1.00018 0.998969 0.995286
1.00002 0.997288 0.997608
1.00014 0.999103 0.995227
0.99997 0.997445 0.997565
0.999904 0.99644 0.998507
0.999905 0.997627 0.997503
0.999796 0.996618 0.998905
0.999712 0.99677 0.99933
0.999903 0.998012 0.996715
0.999851 0.998227 0.99661
0.999675 0.997075 0.999244
0.999592 0.997345 0.999203
0.999789 0.99851 0.996453
0.99954 0.997632 0.999133
1.0037 0.999659 0.987978
1.00399 0.999468 0.987623
1.00439 0.998998 0.987344
1.00471 0.998946 0.986737
1.00442 0.999365 0.986913
1.00339 0.999713 0.988462
1.00444 0.999349 0.986887
1.00489 0.998905 0.986426
1.00453 0.998974 0.987106
1.00494 0.998564 0.986767
1.00421 0.999243 0.987414
1.00468 0.998343 0.98742
1.00491 0.998954 0.986385
1.00508 0.998621 0.986446
1.00482 0.998352 0.987112
1.00501 0.998301 0.986867
1.00451 0.998676 0.987366
1.00489 0.997972 0.987504
1.00431 0.999459 0.987032
1.00384 0.999405 0.98808
1.00448 0.999198 0.986914
1.00441 0.998919 0.987529
1.00015 1.00144 0.992878
1.00053 1.00211 0.99162
1.00081 1.00275 0.990266
1.00383 0.999758 0.987808
1.00464 0.998285 0.987477
1.00356 1.00004 0.98783
1.00196 1.00226 0.9885
1.00296 1.00028 0.988744
1.00036 1.00191 0.992067
1.00029 1.00247 0.991626
1.00012 0.999912 0.994434
1.00026 1.00131 0.992749
1.00473 0.99914 0.986563
1.00434 0.999129 0.987416
1.00471 0.99878 0.986971
1.00471 0.998408 0.987297
1.00043 1.00193 0.991931
1.00044 1.00262 0.991049
1.00117 1.00327 0.989157
1.00432 0.999083 0.98739
1.00481 0.99806 0.987415
1.00229 1.0022 0.988112
1.0037 0.999251 0.988298
1.00312 1.00006 0.988806
1.0004 1.00231 0.991628
1.00029 1.00262 0.99151
1.00021 1.0022 0.992063
1.00015 0.999693 0.994526
1.00027 1.00093 0.993107
1.005 0.998641 0.986545
1.00476 0.998549 0.987081
1.00494 0.998001 0.987207
1.00455 0.998398 0.98741
1.00041 1.00232 0.991537
1.00409 0.9986 0.988529
1.00031 1.00318 0.99042
1.00147 1.00376 0.988101
1.00269 1.00202 0.98768
1.00017 0.999545 0.994573
1.00026 1.0007 0.993486
1.0002 1.00172 0.992575
1.00037 1.0024 0.991566
1.0002 1.00272 0.991623
1.00036 1.00254 0.991401
0.999852 0.997846 0.996982
1.00005 0.999629 0.994864
1.00395 0.99972 0.987433
1.00015 1.00122 0.993117
1.00028 1.00202 0.992065
1.00011 1.00273 0.991661
1.00239 1.00114 0.988963
1.00354 1.00033 0.98753
1.00029 1.0035 0.990583
1.00105 1.00334 0.989445
1.00193 1.00141 0.989752
1.00008 0.999395 0.995043
1.00018 1.00065 0.993629
1.00025 1.003 0.991217
1.00009 1.0022 0.992273
1.00008 1.00336 0.991136
1.00423 0.999382 0.987206
1.00267 1.00095 0.988615
1.00349 0.999645 0.988274
1.00022 1.00453 0.989552
1.00168 1.00276 0.988707
1.00016 1.00035 0.993957
1.00012 1.00163 0.992698
1.00015 1.00398 0.990444
1.00005 1.00307 0.991388
1.00021 1.00361 0.990684
1.00453 0.998006 0.987948
1.0028 1.00131 0.988232
1.00376 0.998466 0.988283
1.00062 1.00475 0.989174
1.0014 1.00357 0.987693
1.00011 0.999227 0.995153
1.00018 1.00015 0.994081
1.00015 1.00092 0.993356
1.00019 1.00008 0.99411
1.00021 1.00002 0.994205
1.00014 1.00077 0.993609
1.00008 1.00133 0.993227
1.00013 1.00072 0.99361
1.00024 0.999972 0.994208
1.00023 0.998898 0.995263
1.00022 0.998896 0.995296
1.00007 0.997189 0.997612
1.00018 0.998973 0.995284
1.00002 0.997286 0.997611
0.999965 0.99628 0.998542
0.999977 0.997433 0.997573
0.999895 0.996417 0.998507
0.999772 0.996572 0.999354
0.999956 0.997818 0.996811
0.999907 0.99802 0.99671
0.999751 0.996869 0.999269
0.999855 0.998238 0.996603
0.999666 0.997111 0.999236
0.999588 0.997383 0.999191
1.00423 0.999236 0.987403
1.00452 0.99899 0.987108
1.00469 0.998287 0.987413
1.00493 0.998511 0.986782
1.0049 0.998911 0.9864
1.00444 0.999348 0.986888
1.0049 0.998977 0.986381
1.00508 0.998641 0.986431
1.00483 0.998384 0.987066
1.00504 0.998223 0.986861
1.00452 0.998675 0.987368
1.00485 0.997876 0.987579
1.00507 0.998667 0.986383
1.00511 0.998293 0.986681
1.00502 0.997802 0.987298
1.00481 0.997855 0.987676
1.00472 0.999143 0.986559
1.00435 0.999129 0.987418
1.00464 0.998754 0.987077
1.00472 0.998443 0.987299
1.00045 1.00193 0.991927
1.00045 1.00257 0.991163
1.00114 1.00334 0.989145
1.00433 0.999161 0.987401
1.00478 0.997974 0.987525
1.00375 0.999283 0.988284
1.00227 1.00227 0.988065
1.00305 0.999821 0.988905
1.00042 1.0023 0.991633
1.00031 1.00262 0.991496
1.00019 1.00222 0.992056
1.00015 0.999691 0.994453
1.00028 1.00089 0.993152
1.00497 0.998629 0.986598
1.00475 0.998572 0.98709
1.00492 0.99808 0.987232
1.00045 1.00231 0.991524
1.00043 1.00313 0.990538
1.00142 1.00386 0.988075
1.00463 0.998402 0.987428
1.00267 1.00183 0.987848
1.00386 0.998618 0.988639
1.00017 0.999523 0.994592
1.00039 1.0024 0.991564
1.00035 1.00253 0.991434
1.0002 1.00276 0.991585
1.00021 1.0017 0.992607
1.00026 1.00069 0.993425
1.00508 0.998323 0.98674
1.00498 0.997909 0.987313
1.00495 0.997897 0.987118
1.00505 0.997745 0.987261
1.00039 1.00258 0.991328
1.00356 1.00006 0.98786
1.00056 1.00419 0.989132
1.00177 1.00413 0.987331
1.00018 0.999389 0.994724
1.00025 1.00052 0.993687
1.00021 1.00147 0.992861
1.00016 1.00239 0.991973
1.00043 1.00251 0.991399
1.00034 1.00267 0.991336
1.00008 0.999398 0.995045
1.00018 1.00063 0.993637
1.00421 0.999426 0.987204
1.00009 1.00219 0.992271
1.00021 1.00299 0.991256
1.00007 1.00341 0.991055
1.00269 1.00094 0.988596
1.00355 0.999477 0.988404
1.00018 1.00451 0.989552
1.00168 1.00299 0.988518
1.00017 1.00033 0.993961
1.00013 1.00162 0.992729
1.00011 1.00398 0.990526
1.00004 1.00311 0.991399
1.00015 1.00367 0.990677
1.00455 0.998094 0.987925
1.00286 1.00115 0.988234
1.00361 0.998282 0.989078
1.0005 1.00469 0.989166
1.00158 1.00393 0.987323
1.00014 1.00112 0.993165
1.00007 1.0025 0.991873
1.00015 1.00438 0.990041
1.00007 1.00376 0.990488
1.00509 0.996849 0.988244
1.00478 0.99693 0.98853
1.00305 1.00147 0.987304
1.00071 1.00479 0.987935
1.00018 1.00014 0.994131
1.00015 1.00094 0.993393
1.00009 1.00157 0.992932
1.00021 1.00002 0.994205
1.00014 1.00076 0.993533
1.00024 0.999961 0.994209
1.00008 1.00134 0.993167
1.00013 1.00071 0.993631
1.00004 1.00177 0.992817
1.00009 1.00121 0.993214
1.00014 1.00066 0.993639
1.00026 0.999964 0.994181
1.00023 0.998944 0.99521
1.00023 0.998899 0.995262
1.0001 0.997161 0.997584
1.00022 0.998891 0.995297
1.00007 0.997204 0.997608
1.00001 0.9962 0.998532
1.00003 0.997286 0.997615
0.999959 0.996257 0.998543
0.999886 0.996396 0.998506
1.00001 0.997621 0.996918
0.99996 0.997825 0.996807
0.99982 0.996672 0.999295
0.999912 0.998028 0.996705
0.999741 0.996903 0.999261
0.999657 0.997148 0.999227
1.00453 0.998672 0.987369
1.00484 0.998415 0.98702
1.00481 0.997779 0.987653
1.00508 0.998148 0.986854
1.00508 0.998662 0.986415
1.00489 0.999 0.986377
1.00507 0.998666 0.986405
1.00511 0.998302 0.986678
1.00503 0.997803 0.987292
1.00482 0.99781 0.987667
1.00512 0.998382 0.986605
1.00514 0.997699 0.987257
1.00508 0.997345 0.987628
1.00494 0.998618 0.986651
1.00474 0.998594 0.9871
1.00491 0.998155 0.987256
1.00049 1.00231 0.991511
1.00055 1.00308 0.990657
1.00137 1.00394 0.98805
1.00471 0.998405 0.987447
1.00364 0.998632 0.988748
1.00266 1.00163 0.988017
1.0004 1.0024 0.991562
1.00032 1.00253 0.991468
1.00019 1.00279 0.991546
1.00017 0.999499 0.994611
1.00021 1.00168 0.992639
1.00026 1.00068 0.993363
1.00509 0.998335 0.986703
1.00497 0.997896 0.98733
1.00499 0.997928 0.98713
1.00043 1.00258 0.991296
1.00049 1.00415 0.989391
1.00182 1.00407 0.987316
1.00491 0.997834 0.987517
1.00356 0.999981 0.987807
1.00018 0.999365 0.994814
1.00025 1.00053 0.993687
1.00037 1.00247 0.991396
1.00034 1.00257 0.991462
1.00016 1.00238 0.991939
1.0002 1.0015 0.992817
1.00512 0.997815 0.98713
1.00508 0.997326 0.987658
1.00511 0.997495 0.987246
1.00471 0.99756 0.988012
1.00016 1.00327 0.990889
1.00252 1.00306 0.986819
1.00094 1.00487 0.988363
1.00019 0.999206 0.995029
1.00018 1.00018 0.994099
1.00022 1.00046 0.993654
1.00018 1.00134 0.992966
1.0001 1.00217 0.992283
1.00004 1.00314 0.991337
1.00057 1.0017 0.991746
1.00025 1.0029 0.991882
1.00018 1.00032 0.993966
1.00013 1.00161 0.99276
1.00459 0.998187 0.987901
1.00004 1.00313 0.99141
1.00007 1.00398 0.990607
1.00008 1.00374 0.990669
1.00292 1.00097 0.988235
1.00346 0.998082 0.989867
1.00039 1.00462 0.989157
1.00175 1.00426 0.986954
1.00015 1.00116 0.993123
1.00007 1.00254 0.991885
1.00012 1.00437 0.990094
1.00012 1.00378 0.990542
1.0051 0.996851 0.988197
1.00461 0.99707 0.988584
1.00312 1.00138 0.987614
1.0009 1.00484 0.987767
1.00009 1.00187 0.992612
1.00509 0.996477 0.988354
1.00005 1.00354 0.991164
1.00041 1.0044 0.989493
1.00514 0.996131 0.988731
1.00449 0.998089 0.987902
1.0019 1.00407 0.987109
1.00016 1.00095 0.99343
1.00009 1.00157 0.992926
1.00003 1.00211 0.992497
1.00024 0.99995 0.99421
1.00014 1.0007 0.993652
1.00007 1.00135 0.993107
1.00026 0.999956 0.99418
1.00014 1.00067 0.993639
1.00005 1.00179 0.992763
1.00009 1.00121 0.99327
1.00005 1.00205 0.992485
1.00007 1.00161 0.992834
1.0001 1.00114 0.993346
1.0002 1.00061 0.993644
1.00026 1.00001 0.994123
1.00023 0.998999 0.995165
1.00023 0.998947 0.995211
1.00012 0.997166 0.997547
1.00023 0.998902 0.995261
1.0001 0.997183 0.997579
1.00004 0.996165 0.998512
1.00007 0.997219 0.997604
1.00001 0.99617 0.998536
0.999953 0.996235 0.998543
1.0002 0.999042 0.995168
1.00005 0.997432 0.997018
1.00001 0.997628 0.996913
0.999881 0.996482 0.999323
0.999963 0.997833 0.996802
0.999811 0.996705 0.999287
0.999732 0.996936 0.999253
1.00483 0.99776 0.987658
1.00503 0.997802 0.987286
1.00511 0.998305 0.986675
1.00507 0.998666 0.986427
1.00511 0.998368 0.986624
1.00514 0.997714 0.987211
1.00508 0.997313 0.987642
1.00511 0.997819 0.987134
1.00517 0.997171 0.987766
1.00508 0.99622 0.988518
1.00509 0.998345 0.986666
1.00496 0.997888 0.987348
1.00504 0.997961 0.987142
1.00046 1.00259 0.991265
1.00041 1.00407 0.989649
1.00186 1.00404 0.987301
1.00477 0.997912 0.987772
1.00353 0.999899 0.987754
1.00032 1.00242 0.991393
1.00036 1.00247 0.991586
1.00014 1.0024 0.991904
1.00018 0.99934 0.994903
1.00025 1.00052 0.993688
1.00018 1.00152 0.992774
1.00511 0.997768 0.987226
1.0002 0.9992 0.995027
1.00017 1.00019 0.994057
1.00507 0.997386 0.98763
1.0051 0.997615 0.987179
1.00011 1.00324 0.991051
1.00092 1.00483 0.988216
1.0025 1.00294 0.986837
1.00471 0.997549 0.988053
1.00022 1.00045 0.993782
1.00018 1.00134 0.992964
1.00067 1.0018 0.991531
1.00013 1.00232 0.992308
1.00002 1.00325 0.991241
1.00012 1.00213 0.992295
1.00512 0.996895 0.988025
1.00514 0.997308 0.987689
1.00512 0.996451 0.988208
1.00377 0.999151 0.9879
1.00029 1.00316 0.990989
1.00152 1.00475 0.987357
1.00017 1.00005 0.99415
1.00019 1.00035 0.993906
1.0001 1.00105 0.993506
1.00016 1.00131 0.992933
1.00009 1.00206 0.992516
0.999922 1.00288 0.991697
0.999835 1.00423 0.990897
1.00025 1.00164 0.992407
1.00015 1.00118 0.993081
1.00007 1.00258 0.991896
1.00512 0.996839 0.98815
1.00443 0.997247 0.988639
1.00019 1.0038 0.990597
1.0001 1.00435 0.990147
1.00317 1.00131 0.987926
1.0011 1.00492 0.987599
1.00008 1.00189 0.992594
1.00512 0.99646 0.988381
1.00003 1.00343 0.991189
1.00039 1.00436 0.989452
1.00513 0.996011 0.988649
1.00452 0.998043 0.988
1.0018 1.00427 0.987221
1.00002 1.00281 0.991851
1.00517 0.995764 0.989627
1.00039 1.00385 0.99051
1.0009 1.0047 0.988723
1.00498 0.996225 0.988665
1.00278 1.00169 0.987478
1.0008 1.00012 0.991936
1.00009 1.00157 0.99292
1.00003 1.00211 0.992493
1.0001 1.0023 0.992155
1.00026 0.999951 0.994178
1.00015 1.00067 0.993638
1.00009 1.0012 0.993325
1.00006 1.00181 0.992709
1.00026 1.00001 0.994119
1.00019 1.0006 0.99362
1.00005 1.00207 0.992462
1.00011 1.00113 0.993341
1.00007 1.00163 0.992882
1.00006 1.00192 0.992578
1.00007 1.00139 0.993112
1.00016 1.00102 0.99335
1.00026 1.00061 0.993495
1.00027 1.00005 0.993984
1.00022 1.00063 0.993673
1.00026 1.00005 0.993998
1.00022 0.999026 0.995147
1.00022 0.998999 0.995167
1.00014 0.997215 0.997076
1.00023 0.99895 0.995211
1.00012 0.997191 0.997327
1.00002 0.996109 0.999364
1.0001 0.997205 0.997575
1.00004 0.99613 0.998515
1.00001 0.996142 0.998539
1.00021 0.998929 0.995278
1.00021 0.999043 0.995164
1.00009 0.997286 0.997097
1.00005 0.997439 0.997236
0.999936 0.996322 0.999346
1.00001 0.997635 0.996908
0.999874 0.996516 0.999314
0.999802 0.996741 0.999279
1.00508 0.997289 0.987656
1.00515 0.997729 0.987165
1.00511 0.998359 0.986643
1.00512 0.997815 0.987125
1.00515 0.997168 0.987736
1.00509 0.996372 0.98847
1.00512 0.996747 0.988145
1.00202 1.00011 0.988518
1.00524 0.995488 0.989467
1.00017 0.999991 0.994312
1.0051 0.99772 0.987323
1.00507 0.997432 0.987602
1.00507 0.997771 0.987112
1.00007 1.00322 0.991213
1.00091 1.00483 0.988069
1.00249 1.00284 0.986854
1.00471 0.997595 0.988094
1.00076 1.00192 0.991318
0.999988 1.00174 0.99274
1 1.00332 0.991146
1.0002 0.999198 0.995025
1.00013 1.00209 0.992307
1.00023 1.00044 0.99391
1.00018 1.00134 0.992961
1.00016 1.00019 0.994015
1.00513 0.996858 0.988072
1.00017 1.00004 0.994207
1.00019 1.00035 0.993902
1.00011 1.00103 0.993409
1.00514 0.997136 0.98769
1.00504 0.996682 0.98814
1.00039 1.00278 0.991065
1.00129 1.00476 0.987343
1.00379 0.99935 0.987896
1.00016 1.00131 0.992998
1.00008 1.00204 0.992494
1.00019 1.002 0.992148
0.999839 1.00397 0.991055
0.999948 1.00291 0.991761
1.00515 0.996476 0.988468
1.00515 0.997741 0.987234
1.00481 0.996831 0.988445
1.00228 1.00234 0.988179
1.00026 1.00333 0.99081
1.00013 1.00084 0.993445
1.00011 1.00121 0.993163
1.00011 1.00158 0.992976
1.00005 1.00191 0.992594
1.00002 1.00255 0.992143
0.999834 1.00358 0.991304
0.999766 1.00426 0.990663
1.00007 1.00192 0.992577
1 1.00333 0.991214
1.00514 0.996447 0.988408
1.00512 0.995901 0.988566
1.00454 0.997956 0.988098
1.00036 1.00433 0.989412
1.00169 1.00445 0.987335
1 1.00275 0.991953
1.00516 0.995624 0.989611
1.00024 1.00382 0.990541
1.00066 1.00472 0.98885
1.00504 0.995906 0.988787
1.00276 1.00183 0.987441
1.00075 1.00011 0.99079
1.00009 1.00314 0.991429
1.00501 0.995589 0.990558
1.00008 1.00411 0.990538
1.00081 1.00452 0.988567
1.00338 0.997997 0.988767
1.00118 0.995551 0.962933
0.996301 1.00108 0.980398
1.00013 0.999903 0.993479
0.998639 0.997629 0.952791
0.994507 0.998282 0.951047
1.00003 1.00212 0.992488
1.00007 1.00232 0.992206
1.00013 1.00208 0.992377
1.00026 1 0.994116
1.00019 1.00058 0.993596
1.00012 1.00111 0.993335
1.00007 1.00165 0.992929
1.00006 1.00207 0.992439
1.00016 1.00102 0.993312
1.00026 1.00005 0.994034
1.00026 1.00059 0.993526
1.00006 1.00193 0.99258
1.00008 1.00139 0.993108
1.00011 1.00126 0.993126
1.00008 1.00151 0.992984
1.00025 1.00095 0.993202
1.00031 1.00062 0.993383
1.00026 1.00005 0.993982
1.00028 1.00061 0.99352
1.00024 1.00094 0.993319
1.00015 1.00071 0.993617
1.00022 1.00063 0.993613
1.00025 1.00004 0.994109
1.00026 1.00006 0.993994
1.00022 0.999032 0.995146
1.00022 0.999023 0.995147
1.00013 0.997264 0.997057
1.00022 0.998997 0.995168
1.00014 0.997219 0.997075
1.00003 0.996117 0.999358
1.00013 0.997215 0.997108
1.00004 0.996112 0.998931
1.00005 0.996095 0.998518
1.00021 0.998846 0.995357
1.00021 0.998924 0.995277
1.00012 0.997177 0.997162
1.00021 0.999043 0.99516
1.00008 0.997278 0.997314
0.999978 0.996201 0.999363
1.00006 0.997459 0.997002
0.999927 0.996372 0.999336
0.999866 0.996547 0.999305
1.00514 0.997165 0.987707
1.00513 0.997812 0.987115
1.00509 0.996518 0.988422
1.0019 0.998993 0.98864
1.00511 0.996762 0.988192
1.00526 0.995803 0.989352
1.00526 0.996801 0.988311
0.998386 0.999847 0.977232
1.00328 0.997054 0.989042
1.00018 0.999955 0.99434
1.00018 0.999981 0.994311
1.00011 1.00076 0.993656
1.0001 1.00071 0.993734
1.00513 0.996831 0.988119
1.00515 0.997058 0.987692
1.00501 0.996835 0.988071
1.00048 1.00241 0.991142
1.00106 1.00475 0.98733
1.00382 0.999574 0.987893
1.00014 1.00236 0.991885
0.999853 1.00373 0.991214
0.999974 1.00294 0.991825
1.00019 1.00036 0.993897
1.00008 1.00201 0.992473
1.00017 1.00132 0.993062
1.00017 1.00004 0.994263
1.00011 1.00102 0.993313
1.00503 0.996514 0.988499
1.00013 1.00085 0.993544
1.00011 1.0012 0.993202
1.00012 1.00154 0.992908
1.00516 0.997366 0.98733
1.00475 0.996959 0.988372
1.00033 1.00318 0.990792
1.00224 1.00259 0.988063
1.00006 1.00195 0.992586
0.999971 1.00253 0.992186
0.999796 1.00429 0.990666
0.999892 1.00373 0.991165
1.00522 0.996746 0.988044
1.00509 0.996675 0.987801
1.0034 0.999747 0.988468
1.00028 1.00397 0.990221
1.00014 1.00153 0.992811
1.00003 1.00176 0.992802
0.999991 1.00253 0.992117
0.999905 1.00432 0.990396
1.00031 0.995042 0.960464
0.999975 1.00269 0.992054
1.00009 1.00378 0.990572
1.00515 0.995451 0.989595
1.0051 0.995577 0.988908
1.00273 1.00198 0.987403
1.00043 1.00472 0.988977
1.0007 1.00008 0.989633
1 1.00317 0.991487
1.00501 0.99534 0.990476
1.00002 1.0041 0.990571
1.00074 1.00464 0.988553
1.00372 0.998011 0.988754
1.00119 0.995838 0.960571
0.996187 1.00086 0.976785
1.00006 0.999925 0.993803
0.997715 0.998118 0.953038
0.994474 0.99827 0.947438
0.99996 1.00298 0.99185
0.999591 0.995156 0.953604
0.994455 0.999904 0.952166
1.00423 0.995262 0.991552
0.999704 1.00452 0.990849
1.00104 1.00278 0.989632
0.999206 0.999861 0.99612
0.998393 0.998738 0.963457
0.994885 1.00097 0.976309
0.996929 0.999634 0.954612
0.994205 0.999613 0.958141
1.00003 1.00236 0.992256
1.0001 1.00212 0.992369
1.00005 1.00168 0.993038
1.00025 1.00005 0.994084
1.00027 1.00058 0.993558
1.00016 1.00102 0.993275
1.00009 1.00139 0.993104
1.00006 1.00195 0.992582
1.00027 1.00006 0.993982
1.00011 1.00126 0.993149
1.00025 1.00095 0.993236
1.00031 1.00061 0.993444
1.00009 1.00151 0.992976
1.00022 1.00115 0.993019
1.00017 1.00111 0.993237
1.00032 1.00085 0.993208
1.00031 1.00059 0.993488
1.00029 1.00061 0.993519
1.00024 1.00092 0.993288
1.00032 1.00084 0.993202
1.00015 1.00107 0.993289
1.00026 1.00104 0.993173
0.999969 1.0018 0.992846
1.00011 1.00085 0.993553
1.00015 1.00072 0.993616
1.00023 1.00006 0.994126
1.00023 1.00064 0.993553
1.00025 1.00005 0.994073
1.00022 0.999041 0.995148
1.00026 1.00007 0.99399
1.00022 0.999027 0.995146
1.00009 0.99729 0.997504
1.00022 0.999022 0.995146
1.00012 0.997256 0.99728
1.00007 0.996144 0.998464
1.00014 0.997223 0.997074
1.00003 0.996123 0.999355
1.00007 0.996117 0.998497
1.00019 0.999935 0.994337
1.00021 0.998802 0.995402
1.00021 0.998843 0.995357
1.00013 0.997098 0.997217
1.00021 0.99892 0.995276
1.00012 0.997169 0.997163
1.00001 0.996107 0.999378
1.00007 0.997292 0.997519
0.99999 0.996244 0.998917
0.999963 0.996405 0.998443
1.00164 0.998011 0.988762
1.0051 0.996787 0.98824
1.00528 0.996112 0.989238
0.997893 0.999087 0.979252
1.00314 0.997633 0.989284
1.00528 0.996212 0.988382
1.00473 0.99731 0.988926
0.998821 0.997365 0.981316
0.999686 0.995739 0.962457
0.997621 0.998031 0.95358
0.994523 0.998152 0.950971
1.00009 1.00074 0.993632
1.00018 0.999956 0.994339
1.00018 0.999974 0.994311
1.00011 1.00077 0.993626
1.00006 1.00126 0.993245
1.00012 1.0011 0.993346
1.00012 1.00074 0.993703
1.0001 1.00072 0.993693
1.00496 0.996519 0.988532
1.00517 0.996896 0.987427
1.00463 0.997137 0.988298
1.00041 1.003 0.990776
1.0022 1.00272 0.987945
0.999824 1.00432 0.99067
0.999947 1.00389 0.991027
0.999923 1.00251 0.992229
1.0001 1.00118 0.993241
1.00008 1.00198 0.992577
1.00013 1.00086 0.993643
1.00013 1.00151 0.992841
1.00515 0.996944 0.987933
1.00011 1.00152 0.992891
1.00005 1.00176 0.992766
1.00504 0.996932 0.987784
1.00304 0.999457 0.988806
1.0004 1.00394 0.989965
1.00003 1.00255 0.992072
0.999914 1.00443 0.990396
1.00425 1.00054 0.987478
1.00431 0.996615 0.989847
1.00081 1.00193 0.989843
1.00007 1.00392 0.99076
1.00009 1.00158 0.99277
1.0001 1.0021 0.992368
1.00002 1.00302 0.991562
0.999187 0.994873 0.95188
1.00086 0.995099 0.965163
0.999926 1.0032 0.991544
0.999958 1.00412 0.990605
1.00501 0.995128 0.990396
1.00408 0.998099 0.988741
1.00066 1.00478 0.988539
1.00079 0.995489 0.960156
0.996212 1.00093 0.97784
0.999833 1.00003 0.994135
0.997597 0.997683 0.955135
0.99442 0.998273 0.943815
0.999919 1.00301 0.991846
0.999566 0.995241 0.951677
0.9945 0.999952 0.950628
1.00443 0.995696 0.991465
0.999626 1.00445 0.990893
1.00092 1.00253 0.98979
0.999526 0.99872 0.996725
0.998604 0.998856 0.961092
0.9951 1.00189 0.979058
0.996521 0.999803 0.954149
0.994308 0.999882 0.956194
0.999764 1.0028 0.99248
0.994257 1.00027 0.955663
0.994156 1.00344 0.969988
1.00154 0.998228 0.994106
0.999419 1.00409 0.99208
0.998192 1.00148 0.997164
0.996071 1.0006 0.983209
0.996056 1.00081 0.960688
0.995921 0.999671 0.956334
0.994485 0.998974 0.965208
1.00007 1.00214 0.992361
1.00004 1.00173 0.992948
0.999801 1.00097 0.993894
1.00027 1.00007 0.993982
1.00031 1.00059 0.993505
1.00025 1.00096 0.99327
1.00009 1.00127 0.993172
1.00009 1.00151 0.992969
1.00031 1.00059 0.993488
1.00021 1.0012 0.993051
1.00033 1.00084 0.993204
1.00013 1.00106 0.993337
1.00018 1.00044 0.994006
1.00034 1.00079 0.993199
1.00035 1.00081 0.993186
1.00029 1.00061 0.993517
1.00024 1.00091 0.993258
1.00032 1.00084 0.993205
1.00015 1.00106 0.993286
1.00026 1.00101 0.993167
1.00006 1.00131 0.993174
1.00031 1.00093 0.993132
1.00016 1.0012 0.993122
1.00003 1.00245 0.992102
0.999786 1.00386 0.991085
0.999901 1.00238 0.992287
0.999961 1.00186 0.992827
1.00008 1.00109 0.993387
1.00011 1.00087 0.993547
1.00019 1.00013 0.994123
1.00015 1.00074 0.993615
1.00023 1.00007 0.994126
1.0002 0.999079 0.995147
1.00025 1.00005 0.994038
1.00022 0.999036 0.995149
1.00007 0.99733 0.997511
1.00022 0.999023 0.995147
1.0001 0.997283 0.997285
1.00004 0.99615 0.99847
1.00013 0.997245 0.997058
1.00002 0.996144 0.999351
1.00003 0.996128 0.999353
1.00019 0.999989 0.994435
1.0002 0.99881 0.9954
1.00018 0.999948 0.994336
1.00013 0.997066 0.997248
1.00021 0.998804 0.995402
1.00021 0.99884 0.995358
1.00013 0.997101 0.997215
1.00002 0.996044 0.99939
1.0001 0.997168 0.997585
1.00002 0.996122 0.998946
1.00002 0.996251 0.998486
0.999044 0.995893 0.952116
0.994443 0.999168 0.954569
0.998189 0.998086 0.980677
1.00299 0.998409 0.989522
1.0053 0.995691 0.98845
0.998632 0.997314 0.984046
1.00472 0.997628 0.988904
1.00011 0.99532 0.964221
0.997858 0.997713 0.952525
0.994444 0.998117 0.947175
0.999937 0.997087 0.988134
0.997744 0.998167 0.965966
0.996636 0.999922 0.954325
0.994377 0.9998 0.95553
1.00011 1.00128 0.99312
1.0001 1.00073 0.993662
1.00018 0.999949 0.994339
1.00011 1.00077 0.993597
1.00006 1.00122 0.993297
1.00011 1.00128 0.993172
1.00012 1.00109 0.993321
1.00014 1.00092 0.993427
1.00012 1.00073 0.993655
1.0001 1.00072 0.993651
1.00503 0.997124 0.987825
1.00495 0.997206 0.98777
1.00269 0.999135 0.989147
1.00051 1.00395 0.989711
0.999931 1.0045 0.990396
1.00007 1.00258 0.992026
1.00006 1.00177 0.99273
1.00009 1.0015 0.99297
1.0043 0.999707 0.987505
1.00011 1.0016 0.992757
1.00011 1.00208 0.992333
1.00416 0.996698 0.989785
1.00076 1.00247 0.989933
1.00017 1.00394 0.990452
1.00005 1.00299 0.991583
1.00127 1.00339 0.990417
1.00126 0.999379 0.993003
0.999976 1.00293 0.991645
1.0001 1.00178 0.992663
1.00018 1.00181 0.992417
1.00024 1.00228 0.991941
0.994613 0.999245 0.960801
0.999347 0.995384 0.953177
1.00052 0.995157 0.959857
0.999874 1.00304 0.991843
0.999556 1.00438 0.990939
1.00472 0.996045 0.991374
1.00078 1.00232 0.989942
0.999518 0.995285 0.953297
0.998263 0.998726 0.962781
0.995004 1.00156 0.976211
0.999666 0.997385 0.997265
0.996816 0.99997 0.952675
0.994572 0.999983 0.950622
0.994495 0.999989 0.955693
0.999681 1.00281 0.992487
0.994237 1.0001 0.957162
0.994038 1.00363 0.969773
1.00175 0.998231 0.993918
0.999177 1.00401 0.992128
0.998189 0.999317 0.9991
0.995953 1.00098 0.979326
0.996168 1.00164 0.963892
0.996803 0.999124 0.955712
0.994852 0.999149 0.964957
0.999183 1.00202 0.994583
0.994684 1.00238 0.975579
0.995687 1.00347 0.978587
0.997645 1.00152 0.997187
0.996683 1.00083 0.988902
0.995726 1.00064 0.963642
0.99498 0.999855 0.958059
0.996234 0.999252 0.963031
1.00002 1.00177 0.992858
0.999878 1.00091 0.993969
0.999516 0.999904 0.995352
1.00031 1.00058 0.993489
1.00033 1.00083 0.993199
1.00019 1.00125 0.993084
1.00009 1.00101 0.993437
1.00035 1.00081 0.993189
1.00033 1.00084 0.993179
1.00017 1.00025 0.99411
0.999843 1.00004 0.994894
1.00035 1.00024 0.993753
1.00034 1.00079 0.993158
1.00031 1.00085 0.993207
1.00014 1.00106 0.993283
1.00026 1.00099 0.993162
1.00031 1.00093 0.993133
1.00005 1.00136 0.993162
1.00018 1.00117 0.993128
1.00006 1.00161 0.992901
1.00023 1.00102 0.993186
0.999932 1.00256 0.992188
1.00004 1.00242 0.992161
0.999781 1.00361 0.991348
1.00015 1.00421 0.990168
0.999972 1.00298 0.991824
0.999761 1.00373 0.991272
0.999909 1.00239 0.992396
1.00004 1.00149 0.992949
0.999952 1.00192 0.992808
1.00008 1.00111 0.993378
1.00017 1.00024 0.99406
1.00011 1.00089 0.993541
1.0002 1.00013 0.994121
1.00016 0.999166 0.995131
1.00023 1.00007 0.994125
1.0002 0.999074 0.995148
1.00003 0.997398 0.997515
1.00022 0.999031 0.995151
1.00008 0.997329 0.997292
1.00001 0.996217 0.998476
1.00012 0.99727 0.997063
1.00003 0.996163 0.998909
1.00002 0.99615 0.999351
1.00019 1.00009 0.994216
1.00019 0.998878 0.995355
1.00018 0.999991 0.994322
1.00012 0.99709 0.997243
1.0002 0.998814 0.9954
1.00018 0.999966 0.994334
1.00003 0.996025 0.999396
1.00013 0.997066 0.997247
1.00021 0.998804 0.995402
1.00013 0.997105 0.997213
1.00002 0.996054 0.999387
1.00001 0.996118 0.999374
0.994247 0.999164 0.960282
0.999099 0.995427 0.952595
0.994005 1.00359 0.969325
0.994455 0.999493 0.953192
0.99925 0.997264 0.97985
1.00472 0.997858 0.988844
0.999847 0.995578 0.965793
0.998324 0.998211 0.954394
0.994349 0.998198 0.943369
0.99947 0.997907 0.986272
0.998524 0.997832 0.960783
0.996605 0.999814 0.953409
0.994376 0.999594 0.953944
0.996182 0.998869 0.986165
0.997461 1.00016 0.960741
0.995533 0.999789 0.954268
0.995142 0.999608 0.961431
1.00013 1.00163 0.992798
1.00011 1.00129 0.993163
1.00011 1.00073 0.993692
1.00006 1.0012 0.99335
1.00014 1.00152 0.992807
1.00011 1.00126 0.993212
1.00012 1.00109 0.993297
1.00017 1.00101 0.993353
1.00015 1.00091 0.993493
1.00013 1.00072 0.993607
1.00436 0.999013 0.987537
1.00401 0.996809 0.98972
1.00072 1.00299 0.99002
1.00026 1.00393 0.990145
1.00007 1.00298 0.991604
1.00012 1.00205 0.992298
1.00013 1.00161 0.992743
1.0001 1.00179 0.992659
1.00173 1.00178 0.990681
1.00018 1.00185 0.992457
1.00024 1.00224 0.991952
1.00131 0.999503 0.992627
1.00021 1.00266 0.991631
0.999002 1.00124 0.995043
0.999513 1.0003 0.995747
1.00029 1.00151 0.992278
1.00022 1.00177 0.992431
1.00027 1.00208 0.992022
0.9955 1.0011 0.978533
0.994633 0.999801 0.960822
0.999202 0.995883 0.951942
0.999607 1.00285 0.992491
0.998967 1.00398 0.992176
1.0018 0.998289 0.993756
0.994176 0.99986 0.959328
0.996957 1.00084 0.960403
0.995817 1.00065 0.981295
0.998645 0.998088 1.00117
0.995848 0.999558 0.956184
0.993851 1.0039 0.969573
0.995042 0.999265 0.965256
0.999115 1.00213 0.994448
0.994298 1.00193 0.978104
0.995701 1.00386 0.978805
0.997607 1.00215 0.997445
0.996374 1.00067 0.988951
0.99608 1.00083 0.960158
0.995791 0.999056 0.965038
0.994896 0.999531 0.958398
0.997643 1.00166 0.997764
0.99865 1.00339 0.985079
0.996494 1.00342 0.980466
0.99531 0.999283 0.961457
0.99502 1.00214 0.997218
0.995687 0.998965 0.966428
0.994597 0.99996 0.959586
0.999972 1.00084 0.994042
0.999667 1.00003 0.995038
0.999127 0.999398 0.996628
1.00035 1.00081 0.993191
1.00031 1.00089 0.993159
1.00019 1.00002 0.994215
1.00035 1.00082 0.993149
1.00034 1.0002 0.993745
1.00002 0.999833 0.994756
0.999543 0.999828 0.995497
1.00037 1.00056 0.993371
1.0003 1.00094 0.993134
1.00004 1.0014 0.993149
1.00019 1.00114 0.993134
1.00023 1.00102 0.993169
1.00008 1.00153 0.992961
0.99972 1.00199 0.993121
0.999851 1.00263 0.992244
0.999842 1.00399 0.990841
1.00005 1.00239 0.992221
0.999911 1.00357 0.991297
1.00006 1.00464 0.989605
1.00013 1.00445 0.989882
1.00001 1.00337 0.991295
1.00009 1.00425 0.990177
1.00005 1.00204 0.992506
0.999974 1.00301 0.991731
0.999734 1.0036 0.991458
0.999918 1.00241 0.992506
1.00005 1.00146 0.993036
1.00014 1.00047 0.99388
1.00008 1.00113 0.993368
1.00016 1.00026 0.994055
1.00012 0.999287 0.995091
1.0002 1.00014 0.994118
1.00016 0.999154 0.995133
0.999966 0.997514 0.997503
1.0002 0.999068 0.995149
1.00003 0.997405 0.997295
0.999953 0.996311 0.998479
1.00009 0.997318 0.997072
0.999989 0.996225 0.998913
0.999996 0.99619 0.999353
1.00021 1.00025 0.993875
1.00018 0.999022 0.995096
1.0002 1.0001 0.994212
1.0001 0.997177 0.997197
1.00019 0.998889 0.995272
1.00017 0.999994 0.994208
1.00001 0.996053 0.999392
1.00012 0.997086 0.997244
1.0002 0.998815 0.995401
1.00003 0.996026 0.999394
1.00013 0.997067 0.997246
1.00002 0.996063 0.999384
0.994994 1.00184 0.977205
0.994283 0.998908 0.959716
0.99905 0.995383 0.953222
1.00023 1.00101 0.993197
0.994718 1.004 0.980612
0.993961 1.0035 0.969164
0.994443 0.999641 0.953261
0.99928 0.998839 0.984542
0.998376 0.998384 0.965787
0.996684 0.999911 0.95203
0.994443 0.999263 0.953296
0.99604 0.999573 0.981568
0.996326 1.00024 0.964586
0.996766 0.99979 0.955566
0.995197 0.999643 0.960667
0.995557 1.00074 0.977626
0.995511 0.999984 0.961566
0.995011 0.999765 0.958351
0.995951 0.999551 0.962943
1.00018 1.00176 0.992544
1.00013 1.00164 0.992778
1.0001 1.00129 0.993206
1.00018 1.00148 0.992816
1.00013 1.00152 0.992888
1.00011 1.00124 0.993251
1.00018 1.00101 0.993368
1.00015 1.0009 0.993559
1.00212 1.00014 0.990941
1.00139 0.999676 0.992249
1.00011 1.00179 0.992653
1.00044 1.0025 0.991615
1.00026 1.00218 0.991962
1.00017 1.00189 0.992497
1.00021 1.00182 0.992456
0.999646 1.00067 0.995352
1.00024 1.00208 0.992107
1.00042 1.00157 0.992294
0.999641 0.999576 0.995706
1.00024 1.0017 0.992578
0.99781 0.999416 0.998129
0.998649 1.0016 0.996291
1.00032 1.00123 0.992505
1.00027 1.00168 0.992482
1.00002 1.0028 0.985431
0.995707 1.00164 0.978321
0.994645 1.00034 0.960854
0.999014 1.00224 0.99432
0.997592 1.00211 0.997664
0.99394 1.00151 0.980605
0.995894 0.999816 0.964336
0.996344 1.00005 0.98476
0.995007 0.999766 0.957959
0.995798 1.00421 0.979024
0.995421 0.999034 0.967045
0.997829 1.00179 0.997141
0.998361 1.00349 0.985439
0.996657 1.00321 0.982162
0.995404 1.00296 0.99987
0.995407 0.99945 0.960546
0.995048 0.999136 0.964276
0.994702 0.999851 0.958864
0.996746 1.00139 0.99965
1.00144 1.00379 0.984103
0.994734 1.00311 0.981615
0.994401 0.999774 0.955459
0.995015 0.999757 0.957923
0.995605 0.999003 0.99632
0.995401 1.00012 0.960341
0.999796 1.00022 0.994732
0.999213 0.999701 0.996488
0.998119 0.99886 0.999505
1.00035 1.00086 0.993141
1.00034 1.00019 0.993737
1.00018 0.999728 0.994617
1.00033 1.00067 0.993346
0.999676 0.999479 0.995527
0.999373 1.00178 0.993947
1.00023 1.00103 0.993152
1.00011 1.00146 0.993021
0.999867 1.00201 0.992973
0.99933 1.0041 0.991639
0.999767 1.00268 0.992298
0.999723 1.00389 0.991082
1.00019 1.00497 0.989317
1.00081 1.00466 0.988478
1.00005 1.00353 0.991246
1.00019 1.00474 0.989379
1.00033 1.0041 0.990206
0.999882 1.00389 0.990774
1.00015 1.0043 0.99003
1.00004 1.00247 0.992092
1.00004 1.00335 0.991279
1.00003 1.00428 0.990188
1.00013 1.00085 0.993532
1.00005 1.00202 0.99248
0.999975 1.00304 0.991639
1.00005 1.00143 0.993123
1.00014 1.00049 0.99387
1.00007 0.999467 0.995005
1.00016 1.00027 0.99405
1.00012 0.99928 0.995091
0.999918 0.997676 0.997031
1.00017 0.999143 0.995134
0.999987 0.997521 0.997064
0.999845 0.996431 0.999355
1.00005 0.997397 0.997075
0.99994 0.996313 0.998915
0.999959 0.996255 0.999353
1.00025 1.00032 0.99375
1.00016 0.999203 0.99492
1.00022 1.00025 0.993937
1.00007 0.997316 0.997116
1.00018 0.999034 0.995076
1.0002 1.0001 0.994209
0.99999 0.996134 0.999378
1.0001 0.997168 0.9972
1.00019 0.998899 0.995188
1.00002 0.996046 0.999393
1.00012 0.997083 0.997245
1.00003 0.996028 0.999394
0.999066 1.00313 0.984253
0.994885 1.00231 0.977276
0.994268 0.998905 0.959782
1.00021 1.00103 0.993216
1.00024 1.00106 0.993086
1.00015 1.00149 0.992895
0.996436 1.00471 0.979303
0.994568 1.00374 0.980822
0.993919 1.00339 0.968983
0.995454 1.00034 0.98499
0.996805 1.00014 0.960479
0.995601 0.999843 0.955607
0.99516 0.999531 0.960478
0.995311 1.00026 0.981393
0.996268 1.00011 0.961999
0.995172 0.999855 0.959439
0.995652 0.999587 0.964787
0.995468 1.00064 0.978605
0.99515 1.00002 0.964472
0.994501 0.999924 0.960308
0.994453 0.9992 0.964883
1.00023 1.00168 0.992535
1.00017 1.00177 0.992528
1.00012 1.00165 0.992757
1.00018 1.00149 0.992811
1.00012 1.00152 0.99297
1.00019 1.00101 0.993383
1.00023 1.00002 0.995652
0.999608 0.998883 0.995668
1.00019 1.0019 0.99248
1.00055 1.00145 0.992311
1.00022 1.00211 0.992192
1.00027 1.00164 0.9925
1.00023 1.0017 0.992533
0.99797 1.00027 0.998252
1.00028 1.00122 0.992756
0.998401 1.00108 0.997229
1.0002 1.00132 0.992995
0.996497 0.999011 0.999561
0.998362 1.00046 0.998635
1.00006 1.00131 0.993138
1.00371 1.00411 0.983015
1.00063 1.003 0.984857
0.995907 1.0022 0.978108
0.998013 1.00192 0.996504
0.995964 1.00141 0.99857
0.998074 1.00357 0.9858
0.995443 0.999506 0.970804
0.994597 0.99989 0.959342
0.996772 1.00295 0.983859
0.995385 0.999616 0.96035
0.996902 1.00146 0.999647
1.00215 1.00335 0.98363
0.994578 1.00281 0.981815
0.995131 1.00003 0.991121
0.994433 0.99977 0.953759
0.995414 0.999844 0.95847
0.995186 1.00008 0.965216
0.996097 1.00088 1.00231
0.999318 1.00271 0.984436
0.993995 1.00362 0.969538
0.994563 0.998123 0.950818
0.995247 0.999861 0.954382
0.995229 1.00005 0.964273
0.995428 0.999097 0.987322
0.999285 1.00005 0.996354
0.998237 0.998599 0.999396
0.998518 1.00007 0.99795
1.00029 1.00076 0.993321
0.999812 0.999099 0.995558
0.999211 1.00188 0.994127
0.999028 1.00351 0.992921
1.00002 1.00204 0.992827
0.999669 1.00407 0.991361
1.00018 1.00508 0.989216
0.99959 1.00379 0.991324
1.00021 1.00499 0.989267
1.00117 1.00498 0.987738
1.00158 1.00453 0.987347
1.00052 1.00392 0.989586
1.0008 1.00465 0.988436
1.00031 1.00485 0.989153
1.0003 1.00355 0.990672
1.00023 1.00393 0.990361
0.999968 1.00317 0.991404
0.99994 1.00384 0.99088
1.00016 1.00415 0.990178
1.00012 1.00137 0.99302
1.00006 1.00245 0.992099
1.00008 1.00333 0.991263
1.00002 0.999737 0.994815
1.00012 1.00086 0.993525
1.00004 1.00199 0.992454
1.00014 1.00051 0.99386
1.00007 0.999466 0.995002
0.999841 0.99788 0.996969
1.00012 0.999273 0.995091
0.999922 0.99768 0.997029
0.99979 0.99659 0.999342
0.999993 0.997517 0.997063
0.999871 0.996449 0.998911
0.999908 0.996348 0.999352
1.00026 1.0004 0.993736
1.00017 0.999344 0.994921
1.00024 1.00033 0.993788
1.00003 0.997492 0.997019
1.00017 0.999211 0.994982
1.00023 1.00025 0.994
0.999951 0.996257 0.999357
1.00007 0.997307 0.997121
1.00017 0.999048 0.995056
0.999993 0.996116 0.999383
1.0001 0.997161 0.997203
1.00002 0.996038 0.999395
1.00124 1.00459 0.983348
0.998891 1.00306 0.984577
0.994769 1.00262 0.97739
1.00022 1.00118 0.992984
1.00013 1.00179 0.992638
1.0002 1.00105 0.993236
1.00023 1.00108 0.993074
1.00016 1.00148 0.99285
1.00016 1.00155 0.992815
1.00014 1.00171 0.992664
0.995515 1.00417 0.978098
0.996505 1.00448 0.980977
0.99441 1.00343 0.981031
0.995299 0.999614 0.966631
0.99481 1.00025 0.978329
0.996071 1.00039 0.962919
0.994638 0.99986 0.958587
0.995563 0.999578 0.97734
0.995218 1.00008 0.961287
0.994639 0.999844 0.959853
0.994726 0.999445 0.964665
0.995434 0.997909 0.983293
0.995098 1.0001 0.961043
0.995253 0.999826 0.958183
0.994197 0.999389 0.958022
1.00022 1.00148 0.992812
1.00023 1.00163 0.99253
1.00016 1.00177 0.992513
1.00017 1.0015 0.992806
0.99833 1.00139 0.99835
0.998288 1.00062 0.99815
1.0003 1.00156 0.992422
1.0002 1.0017 0.992584
1.00024 1.0013 0.993008
1.00021 1.00132 0.992931
1.00003 1.00136 0.99308
0.996188 1.00046 0.998399
0.998055 1.00055 0.998983
0.999874 1.00133 0.99341
0.99588 0.997982 0.999811
0.998565 1.00167 0.997019
1.00013 1.0029 0.985215
1.00481 1.00376 0.981654
1.00124 1.00322 0.984284
0.997112 1.00153 0.999642
0.995567 0.999179 0.996827
1.00284 1.00295 0.983157
0.99552 1.00011 0.960701
0.994728 0.999941 0.957943
0.99442 1.00252 0.982013
0.994568 0.999567 0.953267
0.99614 1.00066 1.00249
0.999164 1.00254 0.984773
0.99396 1.00344 0.969367
0.995051 0.999039 0.991758
0.994489 0.998231 0.947196
0.996706 0.999882 0.955515
0.995388 1.00009 0.962245
0.996444 1.00117 0.999986
0.995249 1.00195 0.976905
0.994477 0.999363 0.954718
0.99687 1.00001 0.95404
0.995737 1.00066 0.964318
0.994845 0.999768 0.981537
0.99841 0.998334 0.999276
0.998287 1.00042 0.997949
0.999972 0.99883 0.997062
0.99903 1.00199 0.994307
0.998682 1.0036 0.993155
1.00039 1.00377 0.989999
1.00002 1.00401 0.991083
1.00037 1.00508 0.989007
1.00149 1.00422 0.987535
1.00025 1.005 0.989218
1.0012 1.00499 0.987624
1.00199 1.00392 0.986867
1.00242 1.00305 0.987067
1.00148 1.00405 0.988165
1.0016 1.00453 0.987173
1.00052 1.00316 0.990233
1.00053 1.00388 0.989664
1.0008 1.00463 0.988394
1.0003 1.00325 0.990876
1.00027 1.00361 0.990637
1.00013 1.00377 0.990516
1.00013 1.00197 0.99237
0.999993 1.00308 0.991515
0.999999 1.00378 0.990986
0.999995 1.00014 0.994446
1.00013 1.00135 0.99302
1.00007 1.00242 0.992105
0.999776 0.998103 0.996882
1.00002 0.999748 0.994808
1.00012 1.00087 0.993517
1.00007 0.999464 0.994998
0.999847 0.997887 0.996965
0.999706 0.996782 0.999327
0.999926 0.997685 0.997027
0.999779 0.996619 0.999338
0.999844 0.996478 0.999346
1.00021 1.0013 0.992945
1.00026 1.00049 0.993634
1.00016 0.999471 0.994815
1.00026 1.00039 0.993735
0.99998 0.99768 0.996923
1.00016 0.999358 0.99492
1.00023 1.00034 0.993827
0.999902 0.996411 0.999334
1.00003 0.997482 0.997024
1.00017 0.999217 0.995043
0.999957 0.996234 0.999364
1.00007 0.997297 0.997126
0.999998 0.996099 0.999387
0.998503 1.00379 0.984888
1.00196 1.00424 0.982986
0.998729 1.00298 0.984902
1.00022 1.00118 0.993014
1.00014 1.00179 0.992592
1.0001 1.00215 0.992255
1.00012 1.0017 0.992645
1.0001 1.00217 0.992348
1.00023 1.00108 0.993063
1.00017 1.00146 0.992805
1.00014 1.00157 0.992818
1.00018 1.00169 0.992609
1.00009 1.00182 0.992704
0.99416 1.00322 0.969932
0.995561 1.00445 0.978321
0.996652 1.00446 0.98265
0.99497 0.999569 0.965046
0.994529 0.999811 0.960093
0.995076 0.999337 0.975699
0.994975 1.00007 0.964058
0.995451 0.997364 0.978589
0.995206 1.00004 0.96416
0.994715 0.99977 0.958808
0.994296 0.999562 0.95604
0.995494 0.994819 0.983325
0.995212 1.00001 0.964786
0.996071 0.999936 0.95576
0.994492 0.998253 0.950514
0.999809 1.00121 0.993732
1.00018 1.00156 0.992786
1.00023 1.00161 0.992525
0.995825 1.0017 0.997269
0.997724 1.00047 0.999354
1.00023 1.00132 0.992865
1.00001 1.00145 0.993022
0.999879 1.00127 0.993449
0.998434 1.00152 0.996778
0.995703 0.997688 0.99991
0.998559 1.00204 0.995277
0.996461 1.00035 0.997556
0.995361 1.00164 0.977875
1.00071 1.00299 0.984716
1.00591 1.00341 0.980293
0.996133 1.00048 1.00265
0.994949 0.998994 0.985192
0.999019 1.00236 0.98511
0.995651 1.00005 0.960616
0.995482 0.999897 0.956075
0.993926 1.00318 0.969182
0.994394 0.998258 0.943567
0.996429 1.00093 1.00022
0.995155 1.0023 0.97701
0.994497 0.999558 0.95332
0.994912 0.999618 0.983555
0.996488 0.99997 0.953486
0.99573 0.999998 0.961292
0.997952 0.999799 0.99637
0.994318 0.999297 0.960364
0.997326 0.998034 0.953574
0.997507 1.00121 0.960444
0.994929 1.00002 0.983274
0.998123 1.00069 0.997937
0.999771 0.998758 0.997106
1.0018 0.99917 0.992722
0.998349 1.00365 0.993387
1.00002 1.00384 0.990323
1.00244 1.00097 0.988582
1.00054 1.00508 0.988796
1.00153 1.00405 0.987579
1.00295 1.00155 0.987528
1.00121 1.005 0.987509
1.002 1.00388 0.986907
1.00318 1.00123 0.987363
1.0032 1.00088 0.987667
1.00202 1.00318 0.987546
1.00241 1.00293 0.987108
1.00122 1.00334 0.989156
1.0014 1.0041 0.987995
1.00162 1.00454 0.986999
1.00059 1.00277 0.990746
1.00051 1.00313 0.990364
1.00054 1.00382 0.989744
1.00028 1.00235 0.991748
1.00027 1.00324 0.99093
1.00024 1.00367 0.990602
0.999996 1.00075 0.993848
1.00015 1.00196 0.992371
1.00002 1.00301 0.991626
0.999686 0.998411 0.997182
0.99999 1.00016 0.994435
1.00013 1.00134 0.993021
0.999636 0.997038 0.998353
0.999772 0.998136 0.997091
1.00002 0.999757 0.9948
0.999853 0.997894 0.996962
0.999695 0.996822 0.999321
0.999768 0.99665 0.999334
1.00017 1.00164 0.992623
1.00026 1.00066 0.993466
1.0002 1.00134 0.992906
1.00012 0.999617 0.994743
1.00026 1.0005 0.993635
0.999923 0.997862 0.996844
1.00015 0.999493 0.994814
1.00027 1.0004 0.993735
0.999843 0.996584 0.999311
0.999976 0.997675 0.996927
1.00016 0.99938 0.994918
0.999907 0.996384 0.999341
1.00003 0.997473 0.99703
0.999962 0.996207 0.99937
0.994676 1.00173 0.980107
0.998232 1.00387 0.985204
1.00266 1.00391 0.982625
1.00004 1.00248 0.992103
1.00022 1.00121 0.993043
1.00015 1.0018 0.992546
1.00013 1.00171 0.992683
1.00013 1.0021 0.992303
1.00011 1.00214 0.992308
1.0001 1.00247 0.992016
1.00003 1.00216 0.992339
1.00011 1.00158 0.992822
1.00022 1.00167 0.992553
1.00008 1.00184 0.992679
1.00002 1.00218 0.992782
0.994435 0.999867 0.951899
0.994045 1.00348 0.969706
0.995543 1.00474 0.978542
0.994444 0.999754 0.955368
0.995251 0.99977 0.958742
0.995101 1.0001 0.961146
0.995272 0.996761 0.980058
0.995504 0.994807 0.986249
0.99446 0.99825 0.947012
0.995051 1.00007 0.961361
0.996583 0.999846 0.954838
0.995402 0.997036 0.986618
0.995942 1.00003 0.965684
0.996945 0.999935 0.953183
0.999361 1.00087 0.994839
0.999923 1.00116 0.993732
1.00013 1.00164 0.99276
0.995502 0.997394 0.999951
0.998538 1.00123 0.996549
0.999848 1.00121 0.993489
0.998997 1.00194 0.995086
0.996199 1.00051 0.997736
0.997957 1.00113 0.995101
0.994598 1.00013 0.955774
0.99576 1.00156 0.98028
1.00131 1.00309 0.984218
0.996337 1.00081 1.0005
0.994936 0.999617 0.984894
0.995081 1.00256 0.977154
0.995663 0.999969 0.963528
0.996797 0.999962 0.951997
0.994482 0.999707 0.953435
0.997739 0.999744 0.996479
0.994368 0.99904 0.959781
0.997642 0.998085 0.952801
0.99486 1.00015 0.978934
0.996058 1.00079 0.963967
0.99878 0.999472 0.996486
0.998972 0.995955 0.952363
0.997415 1.00043 0.964206
0.995012 1.00077 0.977155
0.999497 0.998697 0.997162
1.00138 0.998883 0.993529
1.00351 0.996963 0.991187
0.999648 1.00397 0.990648
1.00246 1.00103 0.988548
1.00425 0.997174 0.989156
1.00156 1.00391 0.987624
1.00289 1.00144 0.987594
1.00415 0.998139 0.988428
1.00201 1.00383 0.986947
1.00318 1.0011 0.987377
1.00401 0.998573 0.988412
1.00364 0.999221 0.988596
1.00281 1.00147 0.987833
1.0032 1.0008 0.987755
1.00165 1.00278 0.988419
1.00205 1.00313 0.987665
1.00238 1.0028 0.987149
1.00088 1.00277 0.990208
1.00109 1.00335 0.989171
1.00132 1.00415 0.987824
1.00052 1.00229 0.991376
1.00062 1.00278 0.990735
1.0005 1.00311 0.990495
1.00005 1.00139 0.993143
1.00029 1.00234 0.99176
1.00024 1.00323 0.990983
0.999639 0.99878 0.996429
0.999999 1.00074 0.993835
1.00017 1.00195 0.992372
0.999502 0.997307 0.999274
0.9997 0.998455 0.996674
0.999985 1.00017 0.994423
0.999612 0.997034 0.999298
0.99978 0.998151 0.996848
0.999683 0.996861 0.999314
1.00011 1.00203 0.992447
1.00018 1.00163 0.992628
1.00023 1.00098 0.993204
1.00007 0.999774 0.994666
1.00025 1.00066 0.99347
1.0002 1.00136 0.992868
0.999863 0.998034 0.996788
1.00012 0.99962 0.994744
1.00026 1.00049 0.993636
0.999776 0.996761 0.999291
0.999918 0.99786 0.996847
1.00015 0.999509 0.994813
0.999849 0.996558 0.999318
0.999971 0.997669 0.996932
0.999914 0.996356 0.999348
0.994464 1.00025 0.955566
0.994517 1.00177 0.980199
0.997956 1.00395 0.98552
1.00003 1.00254 0.992053
1.00005 1.00289 0.991769
1.00002 1.00279 0.991824
1.00014 1.00172 0.99272
1.00014 1.00205 0.992352
1.0001 1.00212 0.992269
1.00005 1.00218 0.992313
1.00008 1.00248 0.991988
0.999927 1.00309 0.99176
1.00012 1.0017 0.992609
1.00007 1.00186 0.992653
0.999966 1.00204 0.992791
0.998588 0.998263 0.951781
0.994476 1.00001 0.950423
0.993895 1.00359 0.96951
0.994413 0.998247 0.943488
0.995457 0.999883 0.955349
0.995663 1.0001 0.965063
0.995417 0.994808 0.982757
0.995328 0.99705 0.983493
0.996572 0.999375 0.952993
0.995752 1.00005 0.962891
0.99643 0.997004 0.983114
0.997166 1.001 0.960011
1.00089 1.00072 0.992873
0.999539 1.00073 0.994729
1.00002 1.00111 0.993733
0.995908 1.00077 0.997897
0.999339 1.00187 0.994886
0.99866 1.00145 0.994571
1.00142 0.999737 0.990635
0.999198 0.994912 0.951982
0.994555 1.00036 0.958304
0.996163 1.00147 0.982664
0.997593 0.999583 0.996639
0.994997 0.999985 0.980328
0.994337 0.999002 0.959855
0.996409 1.00124 0.960078
0.998309 0.999393 0.95439
0.998707 0.999664 0.995605
0.999047 0.995925 0.952652
0.998598 0.999165 0.959813
0.994899 1.00093 0.980387
0.999434 0.999566 0.995604
0.99959 0.997279 0.961463
0.996371 0.999804 0.982845
1.00098 0.998561 0.994335
1.00328 0.996953 0.991095
1.00499 0.994991 0.989995
1.00249 1.00095 0.988512
1.00416 0.997229 0.989116
1.00478 0.995509 0.989692
1.00284 1.00133 0.987661
1.0042 0.998123 0.988369
1.00485 0.996125 0.98901
1.00319 1.00098 0.987391
1.00397 0.998562 0.988396
1.00439 0.997266 0.988965
1.00392 0.99844 0.989014
1.00363 0.999099 0.988697
1.00326 0.999947 0.988534
1.00252 1.00161 0.988303
1.00282 1.00151 0.987853
1.0032 1.00072 0.987842
1.00138 1.00251 0.989298
1.00169 1.0028 0.988553
1.00207 1.00307 0.987784
1.00072 1.00225 0.991002
1.0009 1.00278 0.990188
1.00097 1.00336 0.989186
1.00016 1.00164 0.992632
1.00055 1.00227 0.99138
1.00065 1.00278 0.990723
0.999618 0.999208 0.996003
1.00007 1.00131 0.993143
1.00032 1.00232 0.991773
0.999466 0.997552 0.999217
0.99964 0.998824 0.996404
1 1.00072 0.993823
0.999528 0.997331 0.998774
0.999709 0.998466 0.996667
0.999599 0.997106 0.999283
1.00012 1.00242 0.992014
1.0001 1.00208 0.992399
1.00014 1.00145 0.992902
1.00021 1.00162 0.992632
1.00023 1.00098 0.993205
1 1.00005 0.994506
0.999803 0.998191 0.996749
1.00008 0.999764 0.994672
1.00024 1.00068 0.993474
0.999701 0.996937 0.999276
0.999858 0.99803 0.99679
1.00012 0.999623 0.994745
0.999783 0.996738 0.999297
0.999913 0.99786 0.99685
0.999855 0.996528 0.999325
0.999312 0.996139 0.953413
0.994398 1.00054 0.95473
0.994342 1.00182 0.980288
1.00001 1.00262 0.992004
1.00001 1.0029 0.99173
0.99999 1.00285 0.991837
1.00017 1.00297 0.99145
0.999947 1.00326 0.991521
1.00007 1.00219 0.992287
1.00007 1.0025 0.991959
0.999895 1.00297 0.991795
0.999795 1.00325 0.991323
1.00013 1.00244 0.991862
1.00179 1.00144 0.99019
0.999925 1.00204 0.992705
0.999947 1.0019 0.9928
0.999294 0.999288 0.959785
0.997735 0.998279 0.952185
0.994556 1.00002 0.950336
0.996967 0.999845 0.95151
0.995784 1.00072 0.961173
0.995162 0.997018 0.987495
0.996456 0.997136 0.985404
0.997106 0.999331 0.964519
0.999187 0.998733 0.979965
1.00325 0.999038 0.989662
1.00051 1.00054 0.992864
0.999677 1.0006 0.994617
0.999123 1.00171 0.994072
1.00216 1.00023 0.989752
1.00021 0.995588 0.960078
0.999364 0.995386 0.95346
0.994524 1.00066 0.96085
0.998594 0.99989 0.994703
0.994818 1.00135 0.977385
0.999058 0.99548 0.953126
0.99783 1.00028 0.964267
0.999628 0.999796 0.995714
1.00042 0.995997 0.963041
0.996236 1.00045 0.979289
1.00126 1.00187 0.991754
1.00024 0.996699 0.986688
1.0031 0.996893 0.991002
1.00479 0.995247 0.989729
1.00512 0.995682 0.989045
1.00406 0.997389 0.989076
1.00471 0.99577 0.989654
1.00516 0.995387 0.989168
1.00426 0.998088 0.98831
1.00487 0.996237 0.988958
1.00498 0.996317 0.988691
1.00394 0.998554 0.988379
1.00434 0.997405 0.988902
1.00453 0.997419 0.98871
1.00382 0.998263 0.98917
1.00374 0.999062 0.98866
1.00361 0.998985 0.9888
1.00327 0.999947 0.988507
1.00303 1.00048 0.98847
1.00209 1.00169 0.988814
1.00251 1.00165 0.988276
1.00283 1.00156 0.987873
1.00107 1.00218 0.990419
1.00137 1.00252 0.98939
1.00171 1.00283 0.988688
1.00026 1.00173 0.992304
1.00076 1.00225 0.990984
1.00093 1.00278 0.990168
0.999639 0.999676 0.995482
1.00018 1.00161 0.992641
1.00057 1.00226 0.991383
0.999446 0.997837 0.999133
0.999609 0.999281 0.99598
1.00009 1.00126 0.993143
0.999476 0.997603 0.999194
0.999639 0.998873 0.99638
0.999527 0.997373 0.99924
1.00028 1.00265 0.991527
1.00011 1.0024 0.992017
1.00014 1.00191 0.992398
1.00009 1.00211 0.992351
1.00013 1.00152 0.99283
0.999957 1.00052 0.994117
1.00022 1.00097 0.993207
1.00002 1.00002 0.994513
0.999726 0.998407 0.99668
0.999618 0.997113 0.999265
0.999797 0.998188 0.996752
1.00008 0.999753 0.994678
0.999711 0.996914 0.99928
0.999854 0.998026 0.996792
0.99979 0.996713 0.999302
1.001 0.996363 0.962425
0.999012 0.996225 0.952185
0.994327 1.0009 0.954475
0.999983 1.00301 0.991635
0.999936 1.00281 0.991905
0.99995 1.00326 0.991564
1.00015 1.00295 0.991461
1.00032 1.00328 0.990874
0.999914 1.0032 0.991431
0.999863 1.00284 0.99183
0.999953 1.00339 0.991118
1.00003 1.00272 0.991746
1.00047 1.00242 0.990761
1.00214 1.00147 0.990251
1.00347 0.999917 0.988003
1.00154 1.00135 0.99039
0.999732 1.00239 0.992801
0.99896 0.998893 0.978494
0.999152 0.999255 0.960513
0.99787 0.99863 0.95366
0.998216 1.00083 0.95998
0.996721 0.997228 0.98755
0.99955 0.998447 0.984281
1.00311 0.997775 0.990607
1.00328 0.998748 0.990034
1.00035 1.00037 0.992851
1.00342 1.00096 0.988847
0.999193 0.998353 0.98017
1.0008 0.995451 0.964734
0.99921 0.995882 0.952251
0.999809 0.999942 0.995799
0.996013 1.00112 0.98146
1.00003 0.995913 0.964691
1.0014 1.00098 0.991956
0.999681 0.997649 0.985003
1.00401 0.999917 0.989057
1.00468 0.996983 0.988869
1.00456 0.995538 0.989462
1.00506 0.995592 0.989023
1.00518 0.996053 0.988812
1.00461 0.996058 0.989615
1.00515 0.995523 0.989159
1.00511 0.996478 0.988417
1.00489 0.996334 0.988905
1.00496 0.996445 0.988658
1.00498 0.99733 0.987854
1.00428 0.997545 0.988838
1.00436 0.997489 0.988831
1.00418 0.998405 0.988214
1.00373 0.998088 0.989324
1.0037 0.998932 0.988741
1.00356 0.999823 0.98827
1.00328 0.999945 0.98848
1.00303 1.00049 0.988446
1.00275 1.00084 0.988736
1.00159 1.00165 0.989751
1.00206 1.00173 0.988904
1.0025 1.00169 0.988249
1.00048 1.00177 0.991885
1.0011 1.00217 0.990412
1.00135 1.00253 0.989482
0.999636 1.00021 0.994973
1.00029 1.00175 0.992305
1.0008 1.00224 0.990967
0.999453 0.998128 0.999008
0.999643 0.999718 0.995471
1.0002 1.00157 0.992651
0.999462 0.997882 0.999095
0.999603 0.999342 0.995956
0.999486 0.997648 0.999169
1.00042 1.00291 0.991005
1.00028 1.00263 0.991564
1.00026 1.00221 0.991959
1.00011 1.00239 0.992021
1.00014 1.00196 0.992337
0.999982 1.00104 0.993546
1.00013 1.00158 0.992759
0.999963 1.00051 0.994124
0.999646 0.998733 0.996501
1.00003 0.999999 0.994521
0.999723 0.99839 0.996688
0.999535 0.997328 0.999246
0.999631 0.997091 0.999269
0.999791 0.998185 0.996755
0.999719 0.996895 0.999285
0.999119 0.99832 0.979482
1.00095 0.996437 0.95873
0.998915 0.996087 0.953248
1.00094 1.00288 0.990086
0.999955 1.00326 0.991606
1.00012 1.00294 0.991473
0.999963 1.00329 0.991415
1.00025 1.00336 0.99084
1.00031 1.00229 0.991509
1.00011 1.00358 0.990913
0.999989 1.00301 0.99163
1.00064 1.00241 0.990921
1.00182 1.00152 0.990292
1.00327 1.00018 0.988209
1.00489 0.99832 0.986751
1.0034 0.999824 0.987941
1.00134 1.00119 0.990591
1.00244 0.997563 0.992741
0.998848 0.999474 0.977005
0.999262 0.998863 0.961548
0.999377 0.998312 0.981929
1.00317 0.997093 0.991729
1.00295 0.998311 0.990413
1.00349 0.998452 0.987978
0.998948 0.99721 0.982651
1.0005 0.995543 0.959768
1.0016 1.00008 0.992153
0.999651 0.998703 0.983292
1.00395 0.998892 0.989143
1.00463 0.997253 0.989085
1.00524 0.996118 0.98859
1.00514 0.997498 0.987975
1.005 0.995517 0.989
1.0052 0.995762 0.988861
1.00511 0.996522 0.988519
1.00518 0.995585 0.98915
1.00511 0.996429 0.988428
1.00496 0.997574 0.987662
1.00494 0.996586 0.988626
1.0049 0.99736 0.987953
1.00464 0.998239 0.987491
1.00418 0.997556 0.988953
1.00421 0.998411 0.988197
1.00402 0.99919 0.987827
1.00367 0.998802 0.988821
1.00353 0.999723 0.988297
1.00322 1.00028 0.988327
1.00304 1.0005 0.988422
1.0027 1.00083 0.98869
1.00224 1.00105 0.989428
1.0009 1.00147 0.99141
1.00158 1.00167 0.989845
1.00203 1.00176 0.988993
0.999649 1.00067 0.994494
1.0005 1.00178 0.991881
1.00112 1.00216 0.990405
0.999396 0.998503 0.998868
0.999686 1.00015 0.994967
1.00031 1.00175 0.992306
0.99945 0.998186 0.998963
0.999645 0.999754 0.99546
0.999477 0.99793 0.999055
1.00077 1.00281 0.99026
1.00041 1.00288 0.991017
1.00045 1.00237 0.99152
1.00029 1.0026 0.991602
1.00025 1.0022 0.99198
1.00005 1.00147 0.99302
1.00014 1.00202 0.992277
0.999967 1.00109 0.993544
0.999576 0.999165 0.996184
0.999967 1.00051 0.994131
0.999647 0.998696 0.996521
0.999471 0.997576 0.999201
0.999721 0.998376 0.996697
0.999545 0.997291 0.999254
0.999642 0.99707 0.999272
1.00268 0.998113 0.991069
0.999118 0.998503 0.976105
1.00029 0.996873 0.962858
1.00103 1.00206 0.990434
1.00231 1.00162 0.988746
1.00072 1.00291 0.990197
1.00002 1.00334 0.991398
1.0002 1.00345 0.990802
1.00054 1.00226 0.991349
1.00318 0.999898 0.988726
1.00076 1.00241 0.991082
1.00136 1.00156 0.990333
1.00317 1.0002 0.988407
1.00477 0.998862 0.986437
1.0051 0.996947 0.987591
1.0049 0.998349 0.986784
1.00342 0.99982 0.987879
1.00271 0.99753 0.992914
0.998611 1.00034 0.974846
1.00349 0.996551 0.992835
1.00513 0.997032 0.988604
1.00334 0.998213 0.988228
0.999509 0.996235 0.978818
1.00388 0.997997 0.989242
1.00459 0.997639 0.989263
1.00519 0.995999 0.988785
1.00516 0.997164 0.987945
1.00511 0.99666 0.988183
1.00514 0.996674 0.987802
1.00523 0.995413 0.98891
1.00509 0.996414 0.988506
1.00504 0.997368 0.987731
1.00511 0.996437 0.988439
1.00494 0.997588 0.987647
1.00485 0.998179 0.987204
1.00481 0.997393 0.988053
1.00469 0.99824 0.987469
1.0045 0.998676 0.987423
1.00425 0.998418 0.98818
1.00403 0.999185 0.987815
1.00369 0.999768 0.987896
1.00351 0.999623 0.988323
1.00318 1.00025 0.98834
1.00266 1.00059 0.989032
1.00266 1.00083 0.988643
1.00218 1.00104 0.989399
1.00138 1.00098 0.991005
0.999753 1.00078 0.994125
1.00091 1.00148 0.991405
1.00157 1.00169 0.989939
0.999258 0.999023 0.998733
0.999724 1.00057 0.994483
1.00052 1.0018 0.991878
0.999375 0.998608 0.998824
0.999725 1.00013 0.994961
0.999452 0.998254 0.998918
1.00147 1.00233 0.989164
1.00078 1.00279 0.990152
1.00083 1.00229 0.990867
1.00039 1.00284 0.991029
1.00041 1.00235 0.991532
1.00012 1.0018 0.992605
1.00023 1.00219 0.992
1.00001 1.00154 0.993014
0.999558 0.999634 0.995738
0.999955 1.00112 0.993543
0.999586 0.999103 0.996206
0.999434 0.997843 0.999118
0.999647 0.998657 0.996541
0.999472 0.997533 0.999218
0.999556 0.99726 0.99926
1.00508 0.996454 0.988174
1.00272 0.997874 0.990407
0.999174 0.997628 0.977475
1.00325 1.00029 0.988581
1.00083 1.00191 0.990991
1.00329 1.00007 0.987865
1.00235 1.00161 0.988683
1.0005 1.00296 0.990311
1.00476 0.998742 0.986764
1.00076 1.00222 0.991193
1.00331 0.999832 0.988589
1.00508 0.998217 0.986638
1.00309 1.00018 0.988604
1.00492 0.998827 0.986312
1.00506 0.99708 0.987625
1.00478 0.998436 0.986811
1.0028 0.99742 0.993104
1.00515 0.997076 0.987652
1.00514 0.997087 0.988565
1.00316 0.998005 0.98847
1.00513 0.995815 0.988984
1.00518 0.99691 0.987912
1.00507 0.996655 0.988298
1.00513 0.996749 0.987953
1.00513 0.997273 0.98756
1.00508 0.996353 0.988493
1.00503 0.997383 0.98773
1.00499 0.998026 0.987157
1.00493 0.997603 0.987631
1.00483 0.998243 0.9872
1.00466 0.998677 0.987154
1.00474 0.998242 0.987447
1.00451 0.99868 0.987408
1.00415 0.999203 0.987594
1.00404 0.99918 0.987802
1.00369 0.999766 0.987895
1.00315 1.00017 0.98852
1.00313 1.00022 0.988354
1.00265 1.00059 0.989036
1.00181 1.0006 0.990578
1.00213 1.00103 0.989371
1.00138 1.001 0.990996
0.999871 1.00068 0.994834
0.999206 0.999639 0.996738
0.999827 1.00069 0.994567
1.00091 1.0015 0.9914
0.999243 0.99916 0.998685
0.999804 1.00048 0.994472
0.99936 0.998699 0.998776
1.00383 0.999234 0.987996
1.00229 1.00138 0.988591
1.00161 1.0023 0.989054
1.00129 1.00202 0.990215
1.00078 1.00278 0.990045
1.00078 1.00229 0.990889
1.0003 1.00187 0.992222
1.00038 1.00234 0.991545
1.00009 1.00181 0.992607
0.999601 1.0001 0.995214
0.999982 1.00161 0.993009
0.99956 0.999587 0.995753
0.999399 0.998164 0.998992
0.999595 0.999043 0.996227
0.999427 0.997799 0.999147
0.999476 0.997488 0.999233
1.00511 0.997531 0.987279
1.00511 0.996693 0.988659
1.00282 0.997826 0.989749
1.00465 0.998683 0.987086
1.00295 1.00031 0.98895
1.00061 1.00174 0.99154
1.00347 1.00004 0.987996
1.00241 1.00161 0.988619
1.00518 0.998535 0.986415
1.00478 0.998845 0.986593
1.00342 0.999794 0.988449
1.0051 0.998208 0.986628
1.0051 0.998789 0.986188
1.00504 0.997158 0.987672
1.00519 0.997488 0.987373
1.00514 0.997 0.987716
1.00516 0.997081 0.988528
1.00505 0.99666 0.988413
1.00513 0.996799 0.988104
1.00515 0.997199 0.987652
1.00516 0.997979 0.986899
1.005 0.997408 0.987728
1.00494 0.998046 0.987183
1.00482 0.998801 0.98675
1.00482 0.998305 0.987196
1.00465 0.998676 0.987163
1.00432 0.999067 0.987404
1.00453 0.998683 0.987393
1.00415 0.999205 0.987592
1.00357 0.999709 0.988191
1.00369 0.999764 0.987894
1.00315 1.00017 0.988521
1.00221 1.00033 0.990087
1.00264 1.00059 0.989039
1.00181 1.00061 0.990564
1.00008 1.00047 0.994725
1.00138 1.00101 0.990987
0.999983 1.00065 0.994787
0.999101 1.00011 0.996587
0.999128 0.999734 0.99764
0.999928 1.00061 0.994967
0.999226 0.999287 0.998632
1.00474 0.998529 0.9871
1.00316 1.00032 0.988458
1.00369 0.998946 0.988557
1.00187 1.00158 0.989516
1.0024 1.00142 0.988568
1.00175 1.00227 0.988944
1.00126 1.00206 0.990221
1.00062 1.00175 0.991741
1.00073 1.0023 0.990911
1.00027 1.00185 0.992228
0.999666 1.0005 0.994717
1.00006 1.00181 0.992608
0.999572 1.0001 0.995221
0.999312 0.998615 0.998841
0.999564 0.99953 0.995766
0.999396 0.998104 0.999035
0.999423 0.997752 0.999175
1.00519 0.997871 0.986929
1.00511 0.997516 0.987277
1.00512 0.996872 0.989131
1.00508 0.998449 0.986569
1.00462 0.998779 0.987111
1.00268 1.00033 0.989321
1.00363 0.999987 0.988129
1.00517 0.998477 0.986401
1.0048 0.998945 0.986423
1.00509 0.998205 0.986617
1.00517 0.997889 0.986967
1.00519 0.9975 0.987324
1.00512 0.996945 0.987781
1.00516 0.998184 0.986694
1.00516 0.997119 0.987744
1.00515 0.997979 0.986927
1.00505 0.998638 0.986497
1.0049 0.998069 0.98721
1.00478 0.998808 0.986769
1.00446 0.999285 0.986881
1.00464 0.998677 0.987171
1.00432 0.999074 0.987403
1.00375 0.999543 0.988007
1.00415 0.999207 0.98759
1.00356 0.999709 0.988194
1.00254 1.00005 0.989744
1.00314 1.00017 0.988522
1.00223 1.00031 0.990076
1.00032 1.00022 0.994581
1.00182 1.00061 0.990551
1.00018 1.00046 0.994668
0.999108 1.00022 0.99652
1.0001 1.00058 0.994736
0.999017 1.00022 0.996642
0.998994 0.99978 0.998647
1.00492 0.998743 0.98666
1.00422 0.999126 0.98752
1.00461 0.998623 0.987282
1.00262 1.00084 0.989079
1.00315 1.00019 0.988475
1.00356 0.998665 0.98911
1.00112 1.00143 0.991068
1.00187 1.0016 0.989505
1.00252 1.00147 0.988543
1.00122 1.0021 0.990227
1.00059 1.00173 0.99175
0.999746 1.00078 0.994299
1.00025 1.00183 0.992233
0.999599 1.00057 0.994724
0.999159 0.999211 0.998698
0.999542 1.00012 0.995229
0.999326 0.998519 0.998892
0.999397 0.998046 0.999077
1.00516 0.998007 0.986821
1.00518 0.997858 0.986911
1.00511 0.997499 0.987276
1.0051 0.998306 0.986654
1.00458 0.998881 0.987134
1.00517 0.99841 0.986387
1.00514 0.998183 0.986747
1.00517 0.997928 0.986947
1.00519 0.997515 0.987276
1.00517 0.998136 0.986737
1.00511 0.998551 0.986473
1.00513 0.997979 0.986954
1.00503 0.998681 0.986451
1.00477 0.999204 0.986365
1.00476 0.998812 0.986787
1.00447 0.999293 0.986888
1.00391 0.999734 0.987523
1.00432 0.999077 0.987402
1.00375 0.999542 0.988001
1.00269 0.9999 0.989603
1.00356 0.999709 0.988198
1.00255 1.00003 0.989742
1.00056 1 0.994429
1.00224 1.0003 0.990065
1.00041 1.00022 0.994516
0.999237 1.00015 0.996421
1.00028 1.00042 0.994618
0.999021 1.00031 0.996596
0.998923 1.00038 0.996704
1.00505 0.998418 0.986593
1.00455 0.998931 0.987072
1.0049 0.998705 0.986647
1.00348 0.999876 0.988275
1.00423 0.999196 0.98754
1.00448 0.998716 0.98747
1.00174 1.00084 0.990417
1.0026 1.00077 0.988927
1.00315 1.00005 0.988493
0.999898 1.00086 0.993914
1.00111 1.00142 0.991082
1.00187 1.00162 0.989495
1.00057 1.00173 0.99176
0.999651 1.00089 0.994312
0.999027 0.999823 0.998583
0.999528 1.00067 0.99473
0.999188 0.999077 0.998749
0.999346 0.998421 0.99894
1.00514 0.998219 0.986716
1.00516 0.998011 0.986821
1.00518 0.997846 0.986892
1.00513 0.998168 0.986738
1.00511 0.998484 0.986521
1.00515 0.998192 0.98675
1.00517 0.997965 0.986927
1.00517 0.998096 0.986779
1.00511 0.998511 0.986498
1.00495 0.998989 0.986398
1.00501 0.998724 0.986404
1.00478 0.999252 0.986393
1.00424 0.999647 0.986861
1.00448 0.999305 0.986894
1.00391 0.999733 0.987516
1.00283 0.999953 0.989269
1.00376 0.999546 0.987995
1.0027 0.999887 0.989599
1.00066 0.999928 0.993296
1.00256 1.00001 0.98974
1.0006 0.999991 0.993872
0.99936 1.00009 0.998387
1.00049 1.00022 0.994453
0.999145 1.0002 0.996503
0.998932 1.00043 0.996658
1.00499 0.998468 0.986683
1.0047 0.998838 0.986824
1.00506 0.998461 0.986632
1.0039 0.999345 0.987692
1.00455 0.998958 0.987063
1.00488 0.998669 0.986633
1.00238 1.00014 0.989611
1.0035 0.999868 0.98827
1.00424 0.999269 0.987561
1.00018 1.00062 0.993565
1.00175 1.00081 0.99028
1.00259 1.0007 0.988775
0.999027 1.00026 0.998484
0.999813 1.00093 0.993932
1.0011 1.00141 0.991096
0.999563 1.00098 0.994325
0.999033 0.999685 0.998624
0.999213 0.998937 0.998794
1.0051 0.998397 0.986585
1.00514 0.998199 0.986724
1.00517 0.998017 0.98682
1.00496 0.998912 0.986433
1.0051 0.99847 0.986541
1.00515 0.998193 0.986753
1.00511 0.998465 0.986522
1.00495 0.998973 0.986395
1.00452 0.999365 0.986866
1.00478 0.999302 0.986421
1.00424 0.999696 0.987017
1.00316 0.999895 0.988415
1.00392 0.999727 0.987509
1.00284 0.999949 0.98926
1.00075 1.00001 0.993037
1.00272 0.999875 0.989594
1.00066 0.999927 0.993293
0.999402 1.00002 0.998368
1.00061 0.999996 0.993359
0.999314 1.00007 0.997421
0.999055 1.00026 0.996581
1.00493 0.998634 0.986686
1.00474 0.99881 0.986886
1.00501 0.99846 0.986691
1.00407 0.999301 0.987575
1.00472 0.998823 0.986811
1.00507 0.998503 0.986671
1.00278 0.999734 0.989272
1.00391 0.999423 0.987853
1.00455 0.998983 0.987053
1.00048 1.00021 0.993356
1.00242 1.00014 0.989564
1.00352 0.99986 0.988266
0.999148 1.00039 0.998409
1.00013 1.00065 0.993591
1.00176 1.00078 0.990143
0.998984 1.00015 0.998519
0.999739 1.00098 0.993956
0.999038 0.999532 0.99867
1.00496 0.998833 0.986493
1.0051 0.998437 0.986576
1.00514 0.998178 0.986731
1.00453 0.999249 0.986948
1.00496 0.998892 0.986452
1.00509 0.998464 0.986561
1.00495 0.99896 0.986392
1.00452 0.99937 0.986858
1.00347 0.999701 0.988048
1.00423 0.999746 0.987173
1.00315 0.999927 0.988563
1.00098 1.00006 0.992545
1.00286 0.999939 0.989252
1.00076 1.00001 0.99302
0.999459 1 0.998318
1.00065 0.999932 0.993291
0.999417 1.00001 0.998357
0.999349 1.00001 0.996367
1.00476 0.99894 0.986877
1.00495 0.998562 0.986689
1.00418 0.999208 0.987472
1.00473 0.998797 0.986881
1.00502 0.998452 0.986699
1.00298 0.999701 0.989246
1.00409 0.999301 0.987569
1.00474 0.998808 0.986798
1.0007 0.999921 0.993214
1.00279 0.999783 0.989374
1.00392 0.999506 0.988014
0.999318 1.00026 0.998362
1.00047 1.00021 0.99337
1.00246 1.00013 0.989517
0.999091 1.00033 0.99843
1.00008 1.00066 0.993616
0.99894 1.00004 0.998558
1.00448 0.999262 0.987048
1.00496 0.998865 0.986479
1.00509 0.998478 0.986567
1.00349 0.999608 0.988114
1.00453 0.999256 0.986949
1.00496 0.998867 0.98647
1.00452 0.999378 0.98685
1.00346 0.999712 0.98806
1.00119 1.00003 0.992181
1.00313 0.999958 0.988711
1.001 1.00006 0.992525
0.999606 1.00001 0.998194
1.00078 1.00001 0.993004
0.999508 0.999998 0.99828
0.999442 0.999996 0.998341
1.00427 0.999243 0.987323
1.00475 0.998854 0.986842
1.00498 0.99849 0.986692
1.00311 0.999672 0.989028
1.0042 0.999209 0.987464
1.00471 0.998785 0.986875
1.00086 0.99984 0.993002
1.00297 0.999715 0.989242
1.00411 0.999301 0.987562
0.999471 1.00007 0.998315
1.0007 0.999911 0.993223
1.00279 0.999827 0.989476
0.999268 1.00026 0.998374
1.00045 1.00021 0.993383
0.999023 1.00029 0.998457
1.00343 0.999675 0.988417
1.0045 0.999242 0.986899
1.00496 0.998895 0.986465
1.00124 0.999964 0.992144
1.00349 0.999599 0.988106
1.00453 0.999262 0.986949
1.00345 0.99972 0.988072
1.00119 1.00002 0.99218
0.999771 1.00001 0.998058
1.00101 1.00006 0.992504
0.999665 1.00001 0.998139
0.999551 0.999992 0.998235
1.00327 0.999679 0.988725
1.00429 0.999208 0.987246
1.00473 0.998768 0.986808
1.00103 0.99991 0.993794
1.00311 0.999682 0.989018
1.00422 0.999211 0.987455
0.999589 0.999971 0.998239
1.00085 0.999845 0.99301
1.00297 0.999728 0.989238
0.999425 1.0001 0.998333
1.00069 0.999906 0.993233
0.999215 1.00025 0.998385
1.00124 0.99997 0.992169
1.00343 0.999642 0.988322
1.00452 0.999218 0.986751
0.999831 1 0.998019
1.00124 0.999969 0.992144
1.0035 0.999592 0.988097
1.0012 1.00001 0.992175
0.999804 1.00001 0.998036
0.999734 1.00001 0.998089
1.00119 0.999968 0.993477
1.00327 0.999675 0.988729
1.00431 0.999174 0.987168
0.999484 0.999974 0.998333
1.00096 0.999919 0.992745
1.00312 0.999688 0.989008
0.999547 0.999996 0.998269
1.00084 0.999856 0.993019
0.999389 1.00012 0.998347
0.999807 1.00001 0.995646
1.00123 0.999968 0.992792
1.00342 0.999613 0.988228
0.999827 0.999998 0.99802
1.00123 0.999972 0.992149
0.999823 1 0.99802
0.999551 0.999994 0.995967
1.00113 0.999977 0.992991
1.00327 0.999673 0.988734
0.999558 0.999979 0.997137
1.00097 0.999935 0.992732
0.999512 1.00001 0.998297
0.999813 0.999996 0.998029
1.00119 0.999967 0.992245
0.999825 0.999997 0.998021
0.999654 0.999998 0.997004
1.00108 0.999978 0.99245
0.999609 0.999986 0.998216
0.999782 0.99999 0.998059
0.9997 0.999986 0.998131

TENSORS stress float
0.0011955 -1.39981e-05 7.7447e-05
-1.39981e-05 0.000300452 -8.70036e-06
7.7447e-05 -8.70036e-06 0.000280957
0.00337381 -8.38428e-05 7.18738e-05
-8.38428e-05 0.00145591 3.78974e-06
7.18738e-05 3.78974e-06 0.00145077
0.00121981 3.20733e-05 3.73977e-05
3.20733e-05 0.000324416 -2.69617e-06
3.73977e-05 -2.69617e-06 0.000298302
0.00162076 -1.80056e-05 9.36682e-05
-1.80056e-05 0.000496426 -6.65498e-06
9.36682e-05 -6.65498e-06 0.000475227
0.001321 -1.89539e-05 8.28503e-05
-1.89539e-05 0.000364446 -8.78812e-06
8.28503e-05 -8.78812e-06 0.000343033
0.00112444 1.59657e-05 6.58705e-05
1.59657e-05 0.000256745 -7.82096e-06
6.58705e-05 -7.82096e-06 0.00023842
0.00111741 -4.12884e-06 9.01458e-06
-4.12884e-06 0.000213672 -4.81967e-06
9.01458e-06 -4.81967e-06 0.000161453
0.00331553 -0.000100089 2.95846e-06
-0.000100089 0.00142337 -3.35874e-07
2.95846e-06 -3.35874e-07 0.0014173
0.00413588 -0.000175642 1.83294e-06
-0.000175642 0.0018935 2.44074e-06
1.83294e-06 2.44074e-06 0.00186794
0.00335984 -0.000153517 9.5487e-06
-0.000153517 0.00147724 1.85869e-06
9.5487e-06 1.85869e-06 0.00145785
0.00116606 -3.39117e-05 5.59694e-05
-3.39117e-05 0.000254175 4.35173e-06
5.59694e-05 4.35173e-06 0.000244698
0.000747213 3.12794e-05 7.98234e-06
3.12794e-05 7.20824e-06 5.26542e-06
7.98234e-06 5.26542e-06 -3.73853e-05
0.00174214 -9.94034e-06 0.000110574
-9.94034e-06 0.000544409 1.09597e-06
0.000110574 1.09597e-06 0.000521866
0.00130762 1.84669e-05 1.74767e-05
1.84669e-05 0.000333196 1.66947e-06
1.74767e-05 1.66947e-06 0.000307141
0.00128807 8.66879e-05 -1.59774e-06
8.66879e-05 0.000374482 3.42999e-06
-1.59774e-06 3.42999e-06 0.000340276
0.00147985 -2.12827e-08 3.98716e-05
-2.12827e-08 0.000426932 -2.40245e-06
3.98716e-05 -2.40245e-06 0.000403482
0.00113848 4.06937e-05 3.11608e-05
4.06937e-05 0.000272109 -2.60427e-06
3.11608e-05 -2.60427e-06 0.000249429
0.00131203 3.35835e-05 4.28761e-05
3.35835e-05 0.000371926 -2.54209e-06
4.28761e-05 -2.54209e-06 0.000343666
0.00123845 -1.86899e-05 -1.62972e-05
-1.86899e-05 0.000271942 3.86173e-07
-1.62972e-05 3.86173e-07 0.000222699
0.00487014 -2.09725e-05 0.000111307
-2.09725e-05 0.00222802 -1.33463e-06
0.000111307 -1.33463e-06 0.0022233
0.00166579 -1.08783e-05 9.68198e-05
-1.08783e-05 0.000515242 -5.00594e-06
9.68198e-05 -5.00594e-06 0.000494615
0.00148238 -1.9677e-05 8.8207e-05
-1.9677e-05 0.000436971 -8.05492e-06
8.8207e-05 -8.05492e-06 0.000415386
0.00146309 -2.97511e-05 2.00319e-05
-2.97511e-05 0.000324099 -3.461e-06
2.00319e-05 -3.461e-06 0.000273688
0.00124405 6.71513e-07 9.05795e-06
6.71513e-07 0.000261212 -5.28111e-06
9.05795e-06 -5.28111e-06 0.000206516
0.00113901 4.23607e-05 5.14968e-05
4.23607e-05 0.000249997 -7.00139e-06
5.14968e-05 -7.00139e-06 0.000234447
0.00101626 1.96445e-06 8.64722e-06
1.96445e-06 0.000172406 -3.94495e-06
8.64722e-06 -3.94495e-06 0.000124227
0.00154434 -9.87692e-05 4.47647e-06
-9.87692e-05 0.000344552 -1.98956e-06
4.47647e-06 -1.98956e-06 0.000262893
0.00323799 -0.000109018 -5.54668e-05
-0.000109018 0.00138012 -3.06127e-06
-5.54668e-05 -3.06127e-06 0.00137356
0.002663 -5.61951e-05 -4.27546e-05
-5.61951e-05 0.00108935 -8.14432e-07
-4.27546e-05 -8.14432e-07 0.00106818
0.00230675 -8.48807e-05 -2.86563e-05
-8.48807e-05 0.000901682 -6.6256e-07
-2.86563e-05 -6.6256e-07 0.0008828
0.00306205 -9.62237e-05 1.81447e-06
-9.62237e-05 0.00127512 -1.94623e-07
1.81447e-06 -1.94623e-07 0.00127288
0.000684544 2.27671e-05 -1.17262e-07
2.27671e-05 -2.09594e-05 -1.81538e-07
-1.17262e-07 -1.81538e-07 -6.58777e-05
0.00160753 3.06299e-05 9.08578e-05
3.06299e-05 0.000500316 5.73209e-06
9.08578e-05 5.73209e-06 0.000479128
0.00165794 1.81594e-05 8.07008e-05
1.81594e-05 0.000545152 6.6737e-06
8.07008e-05 6.6737e-06 0.00052445
0.00225286 8.16218e-05 5.08241e-05
8.16218e-05 0.000779224 6.08018e-06
5.08241e-05 6.08018e-06 0.000735215
0.00273367 -9.90854e-05 1.49311e-05
-9.90854e-05 0.00109219 1.34495e-06
1.49311e-05 1.34495e-06 0.00109232
0.00196563 4.19343e-05 3.95812e-05
4.19343e-05 0.000656426 4.82593e-06
3.95812e-05 4.82593e-06 0.000616363
0.000673369 -6.34005e-06 7.94273e-06
-6.34005e-06 -2.75318e-05 7.20859e-06
7.94273e-06 7.20859e-06 -6.73308e-05
0.000920355 6.89273e-05 3.72495e-06
6.89273e-05 6.4357e-05 9.69896e-07
3.72495e-06 9.69896e-07 -1.55494e-05
0.00251577 -6.84986e-05 4.08272e-05
-6.84986e-05 0.000962744 3.15651e-06
4.08272e-05 3.15651e-06 0.000971292
0.00504537 -8.55757e-06 5.71736e-07
-8.55757e-06 0.00231591 -6.37687e-07
5.71736e-07 -6.37687e-07 0.00231079
0.00305251 1.77819e-05 -4.4255e-05
1.77819e-05 0.00126254 -1.05234e-06
-4.4255e-05 -1.05234e-06 0.00124711
0.00518083 2.62853e-05 0.000119334
2.62853e-05 0.0023831 5.17302e-07
0.000119334 5.17302e-07 0.00237837
0.00135363 -2.39335e-06 1.31003e-05
-2.39335e-06 0.000354469 9.98519e-07
1.31003e-05 9.98519e-07 0.000327268
0.000785958 -3.80167e-06 1.47842e-05
-3.80167e-06 -7.32254e-05 2.25859e-06
1.47842e-05 2.25859e-06 -0.000131365
0.00452099 -4.50026e-06 3.16424e-05
-4.50026e-06 0.00205576 1.42076e-06
3.16424e-05 1.42076e-06 0.00204596
0.00237677 1.2945e-05 5.85234e-05
1.2945e-05 0.000796415 3.59692e-06
5.85234e-05 3.59692e-06 0.000755503
0.00132912 -6.72074e-06 -1.85287e-05
-6.72074e-06 0.000352553 2.10405e-06
-1.85287e-05 2.10405e-06 0.000326841
0.00134801 5.23973e-05 -6.75533e-06
5.23973e-05 0.000395443 3.0094e-06
-6.75533e-06 3.0094e-06 0.000365471
0.00117188 7.7697e-05 -5.27339e-06
7.7697e-05 0.000299335 2.74022e-06
-5.27339e-06 2.74022e-06 0.000270755
0.00130168 -3.65132e-05 -4.10724e-05
-3.65132e-05 0.000297994 5.55952e-06
-4.10724e-05 5.55952e-06 0.000252602
0.00321783 4.04235e-05 -4.5359e-05
4.04235e-05 0.0013488 -1.09455e-06
-4.5359e-05 -1.09455e-06 0.00132906
0.00149322 -3.79542e-06 3.95507e-05
-3.79542e-06 0.000428419 -1.58943e-06
3.95507e-05 -1.58943e-06 0.00040554
0.00110318 5.25083e-05 2.34077e-05
5.25083e-05 0.000235161 -2.31015e-06
2.34077e-05 -2.31015e-06 0.000217827
0.00140756 1.17132e-05 4.09046e-05
1.17132e-05 0.00040446 -2.77765e-06
4.09046e-05 -2.77765e-06 0.00037959
0.00150907 -3.71906e-05 -1.45008e-05
-3.71906e-05 0.000346373 3.2371e-07
-1.45008e-05 3.2371e-07 0.00029769
0.00112881 -5.26436e-06 -1.29537e-05
-5.26436e-06 0.000227176 3.36871e-07
-1.29537e-05 3.36871e-07 0.000181227
0.00134288 -3.01567e-05 -1.57943e-05
-3.01567e-05 0.000304363 4.63516e-07
-1.57943e-05 4.63516e-07 0.000255134
0.00167247 -0.000104117 -2.43579e-06
-0.000104117 0.000407898 8.60866e-07
-2.43579e-06 8.60866e-07 0.000325054
0.0050198 4.22867e-05 0.000109547
4.22867e-05 0.00230333 1.6557e-07
0.000109547 1.6557e-07 0.00229813
0.00163915 6.17244e-08 9.91631e-05
6.17244e-08 0.000499974 -3.60445e-06
9.91631e-05 -3.60445e-06 0.000478868
0.00227589 4.73657e-05 1.2987e-05
4.73657e-05 0.000743314 -1.12691e-06
1.2987e-05 -1.12691e-06 0.000693424
0.00148293 -2.9688e-05 2.1623e-05
-2.9688e-05 0.000328393 -2.52805e-06
2.1623e-05 -2.52805e-06 0.000279157
0.0013662 -1.96142e-05 1.55081e-05
-1.96142e-05 0.000295442 -4.5278e-06
1.55081e-05 -4.5278e-06 0.000243815
0.001961 -8.24034e-05 7.01851e-06
-8.24034e-05 0.00043942 -1.97091e-06
7.01851e-06 -1.97091e-06 0.000353983
0.00126769 -8.74854e-05 6.76773e-06
-8.74854e-05 0.000150016 -3.19413e-06
6.76773e-06 -3.19413e-06 6.46065e-05
0.00120975 4.70094e-05 4.55819e-05
4.70094e-05 0.000266916 -6.73209e-06
4.55819e-05 -6.73209e-06 0.000257896
0.000956103 2.73152e-05 7.09371e-06
2.73152e-05 0.000145698 -3.20956e-06
7.09371e-06 -3.20956e-06 0.000105242
0.00134698 -8.4932e-05 3.10352e-06
-8.4932e-05 0.00028216 -1.30906e-06
3.10352e-06 -1.30906e-06 0.000204247
0.00113717 -0.000104461 2.99008e-06
-0.000104461 6.79139e-05 -1.18872e-06
2.99008e-06 -1.18872e-06 -3.72864e-05
0.00407828 -6.95315e-05 -7.76596e-05
-6.95315e-05 0.00184375 -4.44526e-06
-7.76596e-05 -4.44526e-06 0.00183328
0.00300645 -9.8033e-05 -4.92234e-05
-9.8033e-05 0.00124274 -3.00545e-06
-4.92234e-05 -3.00545e-06 0.00124146
0.00342729 -0.000112533 -6.2783e-05
-0.000112533 0.00149747 -3.27022e-06
-6.2783e-05 -3.27022e-06 0.00148686
0.000627788 2.22148e-05 -6.87028e-06
2.22148e-05 -4.70031e-05 -5.84603e-06
-6.87028e-06 -5.84603e-06 -9.17536e-05
0.00461604 -1.38488e-05 -2.83364e-06
-1.38488e-05 0.00210937 -3.54837e-07
-2.83364e-06 -3.54837e-07 0.00210246
0.00394854 -9.85019e-05 2.79637e-06
-9.85019e-05 0.00178471 -2.74741e-07
2.79637e-06 -2.74741e-07 0.00177019
0.000629003 7.57874e-05 -7.33235e-07
7.57874e-05 -8.37431e-05 -1.63238e-07
-7.33235e-07 -1.63238e-07 -0.00013724
0.00189865 -6.98757e-05 -1.94141e-05
-6.98757e-05 0.000641226 -6.21539e-07
-1.94141e-05 -6.21539e-07 0.000638665
0.00065281 4.81432e-05 -2.76984e-07
4.81432e-05 -4.06388e-05 -1.00563e-07
-2.76984e-07 -1.00563e-07 -8.9195e-05
0.00117531 -2.10181e-05 1.08969e-05
-2.10181e-05 0.000245106 4.31077e-07
1.08969e-05 4.31077e-07 0.000209107
0.000868377 6.69412e-05 1.82982e-07
6.69412e-05 3.5732e-05 -1.99685e-07
1.82982e-07 -1.99685e-07 -4.35006e-05
0.00267975 -7.58941e-05 4.58495e-05
-7.58941e-05 0.00105454 3.16219e-06
4.58495e-05 3.16219e-06 0.00106055
0.000708229 -5.53151e-05 1.03707e-06
-5.53151e-05 -1.26843e-05 4.37416e-06
1.03707e-06 4.37416e-06 -3.40967e-05
0.000771952 6.1956e-05 1.48266e-05
6.1956e-05 -3.61222e-05 6.68407e-06
1.48266e-05 6.68407e-06 -9.03957e-05
0.000803268 7.19192e-05 1.43272e-05
7.19192e-05 2.24314e-05 8.40655e-06
1.43272e-05 8.40655e-06 -2.99351e-05
0.00105639 8.48401e-05 6.90355e-06
8.48401e-05 2.17156e-05 3.14752e-06
6.90355e-06 3.14752e-06 -6.81771e-05
0.00159016 -5.35272e-05 2.30795e-05
-5.35272e-05 0.000468754 3.80007e-06
2.30795e-05 3.80007e-06 0.00044173
0.000970115 8.26684e-05 4.20547e-06
8.26684e-05 6.38153e-05 1.81596e-06
4.20547e-06 1.81596e-06 -1.74771e-05
0.000895408 5.00608e-05 3.61823e-06
5.00608e-05 7.11592e-05 1.72335e-06
3.61823e-06 1.72335e-06 -7.02091e-06
0.000880505 9.53927e-05 1.74303e-06
9.53927e-05 1.21082e-05 -5.28603e-07
1.74303e-06 -5.28603e-07 -8.53504e-05
0.00232782 -6.13617e-05 3.47338e-05
-6.13617e-05 0.00085616 3.2151e-06
3.47338e-05 3.2151e-06 0.000867368
0.00245158 -6.88785e-05 9.60451e-07
-6.88785e-05 0.000928659 -1.06684e-07
9.60451e-07 -1.06684e-07 0.000937378
0.00472749 3.09596e-05 -0.000106871
3.09596e-05 0.00215714 -3.61416e-06
-0.000106871 -3.61416e-06 0.0021524
0.0049602 3.47135e-06 -0.000109234
3.47135e-06 0.00227247 -1.43977e-06
-0.000109234 -1.43977e-06 0.00226797
0.00515702 2.83351e-05 3.60823e-06
2.83351e-05 0.0023731 -5.79804e-07
3.60823e-06 -5.79804e-07 0.00236724
0.00312014 -1.11854e-05 -4.47839e-05
-1.11854e-05 0.0012959 -5.60382e-07
-4.47839e-05 -5.60382e-07 0.0012792
0.00164253 9.34511e-06 2.55421e-05
9.34511e-06 0.00038753 1.17313e-07
2.55421e-05 1.17313e-07 0.000336224
0.00298245 3.20668e-06 -4.60055e-05
3.20668e-06 0.00123116 -1.35432e-06
-4.60055e-05 -1.35432e-06 0.00121548
0.0015707 2.83637e-05 2.30351e-05
2.83637e-05 0.000369093 4.4259e-07
2.30351e-05 4.4259e-07 0.000321792
0.00516928 9.2274e-05 0.000111768
9.2274e-05 0.00238246 1.56911e-06
0.000111768 1.56911e-06 0.00237426
0.000748482 -2.35397e-06 1.35999e-05
-2.35397e-06 -0.000100548 4.16801e-07
1.35999e-05 4.16801e-07 -0.000159712
0.00243349 -1.1392e-05 6.0746e-05
-1.1392e-05 0.000819349 2.6099e-06
6.0746e-05 2.6099e-06 0.000776615
0.00123951 1.76909e-05 8.74158e-06
1.76909e-05 8.99193e-06 1.67637e-06
8.74158e-06 1.67637e-06 -8.58462e-05
0.00229994 5.61329e-05 5.60641e-05
5.61329e-05 0.000768303 4.16535e-06
5.60641e-05 4.16535e-06 0.000726369
0.00120003 4.88288e-05 8.44803e-06
4.88288e-05 1.76503e-05 1.98969e-06
8.44803e-06 1.98969e-06 -7.31668e-05
0.00172127 1.87471e-05 -0.000107534
1.87471e-05 0.000537969 4.31005e-07
-0.000107534 4.31005e-07 0.000516207
0.00128832 -1.86998e-05 -1.88124e-05
-1.86998e-05 0.000325203 1.58759e-06
-1.88124e-05 1.58759e-06 0.00029969
0.00101124 6.69715e-05 -7.80631e-06
6.69715e-05 0.000191131 2.10047e-06
-7.80631e-06 2.10047e-06 0.000171269
0.00134725 1.38654e-05 -1.40696e-05
1.38654e-05 0.000377158 2.5146e-06
-1.40696e-05 2.5146e-06 0.000350657
0.00156729 -3.23788e-05 -5.10737e-05
-3.23788e-05 0.00037507 4.23379e-06
-5.10737e-05 4.23379e-06 0.000328049
0.00140206 -4.30171e-05 -4.52859e-05
-4.30171e-05 0.000330145 5.74231e-06
-4.52859e-05 5.74231e-06 0.00028395
0.00121164 -1.88148e-05 -3.56531e-05
-1.88148e-05 0.000265237 4.74404e-06
-3.56531e-05 4.74404e-06 0.000222329
0.00183727 -0.000110549 -1.02564e-05
-0.000110549 0.000490803 4.06901e-06
-1.02564e-05 4.06901e-06 0.000406629
0.00508985 -6.61867e-06 -2.66889e-06
-6.61867e-06 0.00233803 -5.45695e-07
-2.66889e-06 -5.45695e-07 0.00233305
0.00147056 -4.15828e-06 4.17548e-05
-4.15828e-06 0.000416114 -9.04477e-07
4.17548e-05 -9.04477e-07 0.000392474
0.00115953 6.74208e-06 -2.72287e-05
6.74208e-06 0.000137482 2.94779e-07
-2.72287e-05 2.94779e-07 8.45892e-05
0.00150991 -2.99859e-05 -1.50569e-05
-2.99859e-05 0.000340445 3.00527e-07
-1.50569e-05 3.00527e-07 0.000292746
0.00204792 6.94003e-05 3.74384e-05
6.94003e-05 0.000722592 -1.28857e-06
3.74384e-05 -1.28857e-06 0.000717941
0.00129664 2.81818e-05 -7.80542e-06
2.81818e-05 0.000323813 1.88602e-07
-7.80542e-06 1.88602e-07 0.000283852
0.0014401 -3.76664e-05 -1.47021e-05
-3.76664e-05 0.000330216 4.01733e-07
-1.47021e-05 4.01733e-07 0.000281403
0.00176725 -7.62138e-05 -4.8543e-06
-7.62138e-05 0.000336184 7.10954e-07
-4.8543e-06 7.10954e-07 0.000249716
0.00152522 -9.49694e-05 -1.91083e-06
-9.49694e-05 0.000372512 7.99245e-07
-1.91083e-06 7.99245e-07 0.000292832
0.00155419 -9.58404e-05 -1.18066e-06
-9.58404e-05 0.000301097 1.23588e-07
-1.18066e-06 1.23588e-07 0.000216111
0.00114301 -0.00010399 -5.38648e-08
-0.00010399 7.0613e-05 7.32342e-08
-5.38648e-08 7.32342e-08 -3.43961e-05
0.000750655 2.76364e-06 1.35667e-05
2.76364e-06 -9.19857e-05 -1.42698e-06
1.35667e-05 -1.42698e-06 -0.000150289
0.00144992 -2.33423e-05 2.01881e-05
-2.33423e-05 0.000309552 -2.17103e-06
2.01881e-05 -2.17103e-06 0.000259733
0.00162305 -8.59373e-06 8.17934e-06
-8.59373e-06 0.000227445 -1.70317e-06
8.17934e-06 -1.70317e-06 0.000137927
0.00157233 -5.61996e-05 8.17351e-06
-5.61996e-05 0.00022207 -1.34629e-06
8.17351e-06 -1.34629e-06 0.000136613
0.0014894 -8.58846e-05 7.96119e-06
-8.58846e-05 0.000218627 -3.04898e-06
7.96119e-06 -3.04898e-06 0.000130862
0.00182938 -9.06054e-05 2.54121e-06
-9.06054e-05 0.000284668 -6.05218e-07
2.54121e-06 -6.05218e-07 0.000180266
0.00285999 8.63012e-05 4.65594e-05
8.63012e-05 0.0011503 -2.93501e-06
4.65594e-05 -2.93501e-06 0.00115406
0.00118881 -0.000100501 3.21913e-06
-0.000100501 4.22148e-05 -1.60498e-06
3.21913e-06 -1.60498e-06 -6.37717e-05
0.000665304 6.09855e-05 2.53794e-06
6.09855e-05 -2.16332e-05 -4.83013e-06
2.53794e-06 -4.83013e-06 -6.08838e-05
0.000684474 -5.67274e-05 2.72085e-06
-5.67274e-05 -3.90025e-05 -1.18765e-06
2.72085e-06 -1.18765e-06 -0.000114196
0.00123995 -0.00011326 2.71379e-06
-0.00011326 0.000172846 -1.22092e-06
2.71379e-06 -1.22092e-06 6.7882e-05
0.00127621 -0.000117027 1.4067e-06
-0.000117027 9.96785e-05 -5.80955e-07
1.4067e-06 -5.80955e-07 -1.56467e-05
0.000608248 5.85984e-05 1.81369e-06
5.85984e-05 -6.45608e-05 -4.82511e-06
1.81369e-06 -4.82511e-06 -9.20435e-05
0.000792743 3.89677e-05 5.91665e-07
3.89677e-05 1.3041e-05 -2.54521e-06
5.91665e-07 -2.54521e-06 -4.26806e-05
0.00443305 -1.31397e-05 -9.3724e-05
-1.31397e-05 0.00201526 -4.42273e-06
-9.3724e-05 -4.42273e-06 0.00200892
0.00367081 -0.000110156 -6.59161e-05
-0.000110156 0.00163822 -4.15375e-06
-6.59161e-05 -4.15375e-06 0.00162434
0.000574275 6.63336e-05 -1.11094e-05
6.63336e-05 -0.000111015 -6.64127e-06
-1.11094e-05 -6.64127e-06 -0.000164518
0.0028085 -8.64401e-05 -4.56361e-05
-8.64401e-05 0.0011286 -2.92666e-06
-4.56361e-05 -2.92666e-06 0.00113179
0.000607658 -3.37361e-05 -2.32563e-06
-3.37361e-05 -5.47551e-05 -5.70671e-06
-2.32563e-06 -5.70671e-06 -9.39067e-05
0.000584273 4.28131e-05 -8.21797e-06
4.28131e-05 -7.18837e-05 -5.84982e-06
-8.21797e-06 -5.84982e-06 -0.000120902
0.00083323 6.5179e-05 -3.69605e-06
6.5179e-05 1.61163e-05 -1.43668e-06
-3.69605e-06 -1.43668e-06 -6.26878e-05
0.00264374 -7.65422e-05 9.40368e-07
-7.65422e-05 0.00103587 -1.38538e-07
9.40368e-07 -1.38538e-07 0.00104196
0.000676609 -5.1918e-05 1.00123e-07
-5.1918e-05 -3.08848e-05 1.02749e-07
1.00123e-07 1.02749e-07 -5.13595e-05
0.00145618 6.69641e-05 2.07267e-05
6.69641e-05 0.000332531 3.39248e-07
2.07267e-05 3.39248e-07 0.000283852
0.00128468 6.30496e-05 1.73169e-05
6.30496e-05 0.000286279 3.22551e-07
1.73169e-05 3.22551e-07 0.000239343
0.00104433 8.51853e-05 4.11008e-07
8.51853e-05 1.6214e-05 -1.7727e-07
4.11008e-07 -1.7727e-07 -7.36011e-05
0.000677974 -5.35948e-05 -4.28384e-08
-5.35948e-05 -2.02959e-05 1.06426e-07
-4.28384e-08 1.06426e-07 -5.24589e-05
0.000911568 7.91461e-05 1.55175e-07
7.91461e-05 3.33015e-05 3.34619e-07
1.55175e-07 3.34619e-07 -4.75168e-05
0.000837323 4.32539e-05 3.25378e-07
4.32539e-05 4.08053e-05 -2.87806e-07
3.25378e-07 -2.87806e-07 -3.70483e-05
0.000829699 9.2926e-05 -9.38439e-08
9.2926e-05 -1.57804e-05 -1.25322e-07
-9.38439e-08 -1.25322e-07 -0.000113579
0.000674087 -5.59939e-05 1.78918e-06
-5.59939e-05 -2.47144e-05 4.6101e-06
1.78918e-06 4.6101e-06 -5.16083e-05
0.000738005 -4.5954e-05 2.05978e-06
-4.5954e-05 -7.81539e-06 3.81768e-06
2.05978e-06 3.81768e-06 -2.28818e-05
0.00073578 -7.34334e-06 2.30075e-06
-7.34334e-06 -1.08462e-05 2.2664e-06
2.30075e-06 2.2664e-06 -6.49115e-05
0.00110164 7.47284e-05 7.75488e-06
7.47284e-05 2.77502e-06 2.789e-06
7.75488e-06 2.789e-06 -8.82326e-05
0.00101855 8.78742e-05 5.49568e-06
8.78742e-05 5.21439e-05 2.98373e-06
5.49568e-06 2.98373e-06 -3.36748e-05
0.00125853 0.000106818 3.76927e-06
0.000106818 6.33446e-05 1.82613e-06
3.76927e-06 1.82613e-06 -4.66942e-05
0.000854724 3.02186e-05 2.82274e-06
3.02186e-05 5.26148e-05 2.16124e-06
2.82274e-06 2.16124e-06 -1.95006e-05
0.000923298 9.86261e-05 1.40112e-06
9.86261e-05 -1.96764e-06 2.20466e-07
1.40112e-06 2.20466e-07 -0.000100349
0.00106274 0.000100354 2.0341e-06
0.000100354 0.000138709 1.06802e-07
2.0341e-06 1.06802e-07 3.9639e-05
0.0010824 0.000113635 -1.21864e-06
0.000113635 0.000108164 -1.66492e-06
-1.21864e-06 -1.66492e-06 1.34295e-06
0.00219849 -5.45746e-05 2.99662e-05
-5.45746e-05 0.000778772 3.31266e-06
2.99662e-05 3.31266e-06 0.000792572
0.00227998 -6.14863e-05 7.17821e-07
-6.14863e-05 0.000829835 -8.6208e-08
7.17821e-07 -8.6208e-08 0.000841317
0.0023861 -6.88412e-05 -3.45724e-05
-6.88412e-05 0.000893598 -3.02718e-06
-3.45724e-05 -3.02718e-06 0.000902598
0.000657384 4.73687e-05 2.57281e-06
4.73687e-05 -4.69626e-05 -4.1491e-06
2.57281e-06 -4.1491e-06 -6.78716e-05
0.00269609 7.77353e-05 4.17315e-05
7.77353e-05 0.00105852 -3.03985e-06
4.17315e-05 -3.03985e-06 0.00106499
0.00463405 1.92e-05 -0.000103384
1.92e-05 0.00211217 -4.23763e-06
-0.000103384 -4.23763e-06 0.00210711
0.00480074 1.26393e-06 -0.000105791
1.26393e-06 0.00219251 -2.36857e-06
-0.000105791 -2.36857e-06 0.00218815
0.000719839 3.52882e-05 -1.29865e-05
3.52882e-05 -8.45422e-05 -3.39585e-06
-1.29865e-05 -3.39585e-06 -0.000137484
0.000731128 1.82422e-05 -1.3441e-05
1.82422e-05 -9.67258e-05 -2.10402e-06
-1.3441e-05 -2.10402e-06 -0.000154365
0.00511645 -4.21602e-05 -0.000111163
-4.21602e-05 0.00235181 -2.61109e-07
-0.000111163 -2.61109e-07 0.00234648
0.00518088 6.77181e-06 -1.14969e-06
6.77181e-06 0.00238374 4.90714e-07
-1.14969e-06 4.90714e-07 0.00237865
0.000746923 -5.16668e-07 -1.26288e-07
-5.16668e-07 -0.000100575 -3.46357e-07
-1.26288e-07 -3.46357e-07 -0.000159787
0.00160602 1.02868e-05 2.42145e-05
1.02868e-05 0.000380477 4.21065e-07
2.42145e-05 4.21065e-07 0.000331811
0.00124032 2.14829e-05 1.72188e-07
2.14829e-05 9.89814e-06 -5.23431e-08
1.72188e-07 -5.23431e-08 -8.49773e-05
0.000672283 4.47299e-05 1.13978e-07
4.47299e-05 -0.000100513 -6.45957e-08
1.13978e-07 -6.45957e-08 -0.000152957
0.00119403 5.06672e-05 -1.97036e-08
5.06672e-05 1.51368e-05 -1.52957e-07
-1.97036e-08 -1.52957e-07 -7.593e-05
0.000730706 -8.77687e-06 1.38662e-05
-8.77687e-06 -0.000110754 -4.25407e-07
1.38662e-05 -4.25407e-07 -0.000170268
0.00126754 7.62789e-06 8.96797e-06
7.62789e-06 8.30146e-06 3.34842e-07
8.96797e-06 3.34842e-07 -8.94837e-05
0.00122056 3.31137e-05 8.48671e-06
3.31137e-05 1.60958e-05 1.91008e-06
8.48671e-06 1.91008e-06 -7.56297e-05
0.00150613 2.1576e-05 3.94897e-06
2.1576e-05 6.60527e-05 1.24162e-06
3.94897e-06 1.24162e-06 -4.40053e-05
0.00115682 6.19656e-05 8.19353e-06
6.19656e-05 8.19671e-06 2.49091e-06
8.19353e-06 2.49091e-06 -8.27033e-05
0.00145121 5.67236e-05 3.75986e-06
5.67236e-05 6.83287e-05 8.15052e-07
3.75986e-06 8.15052e-07 -3.72453e-05
0.00513235 -3.03132e-06 -0.00012018
-3.03132e-06 0.00235905 -8.05718e-07
-0.00012018 -8.05718e-07 0.00235418
0.00128219 -1.84828e-05 -1.50491e-05
-1.84828e-05 0.000321531 1.07305e-06
-1.50491e-05 1.07305e-06 0.000295372
-2.9236e-05 -4.23509e-07 -1.31217e-05
-4.23509e-07 -0.000500291 2.50527e-06
-1.31217e-05 2.50527e-06 -0.000562395
0.00157235 -2.01409e-05 -5.21983e-05
-2.01409e-05 0.000371122 2.84339e-06
-5.21983e-05 2.84339e-06 0.000325021
0.00280214 0.000108336 -1.58588e-05
0.000108336 0.00113628 1.25735e-06
-1.58588e-05 1.25735e-06 0.00113259
0.00167597 4.43195e-06 -2.86635e-05
4.43195e-06 0.000516028 4.10364e-06
-2.86635e-05 4.10364e-06 0.000481172
0.00150604 -4.08782e-05 -4.84979e-05
-4.08782e-05 0.000361936 5.27283e-06
-4.84979e-05 5.27283e-06 0.00031511
0.00156761 -7.01454e-05 -1.53564e-05
-7.01454e-05 0.000229749 3.17072e-06
-1.53564e-05 3.17072e-06 0.000142301
0.00185439 -0.000105149 -1.04821e-05
-0.000105149 0.000459738 3.78872e-06
-1.04821e-05 3.78872e-06 0.00037506
0.00172972 -0.000105032 -8.09843e-06
-0.000105032 0.000476938 3.27899e-06
-8.09843e-06 3.27899e-06 0.000395428
0.00115167 -0.000103685 -2.50262e-06
-0.000103685 7.48203e-05 1.17701e-06
-2.50262e-06 1.17701e-06 -3.00207e-05
0.000741323 4.81757e-06 -7.80007e-09
4.81757e-06 -9.78588e-05 -3.1907e-07
-7.80007e-09 -3.1907e-07 -0.000156122
0.00150721 -1.64001e-05 -1.66497e-05
-1.64001e-05 0.00033721 1.09165e-07
-1.66497e-05 1.09165e-07 0.000289108
0.00122195 -8.06117e-06 -3.13133e-06
-8.06117e-06 1.43647e-05 4.37817e-08
-3.13133e-06 4.37817e-08 -7.76519e-05
0.00179538 -5.81656e-05 -2.38145e-06
-5.81656e-05 0.000340975 3.33864e-07
-2.38145e-06 3.33864e-07 0.000256786
0.00283394 8.50984e-05 -7.39705e-07
8.50984e-05 0.00113778 -1.61066e-07
-7.39705e-07 -1.61066e-07 0.00114126
0.0011207 3.63374e-05 1.97889e-06
3.63374e-05 0.000217696 2.49169e-07
1.97889e-06 2.49169e-07 0.000183529
0.00110155 -6.23546e-05 2.0601e-07
-6.23546e-05 0.000179131 -1.03872e-07
2.0601e-07 -1.03872e-07 0.000103886
0.00149372 -8.50795e-05 -2.26261e-06
-8.50795e-05 0.000222377 3.3421e-07
-2.26261e-06 3.3421e-07 0.000134554
0.00151162 -8.28509e-05 -1.91437e-06
-8.28509e-05 0.000114374 4.16578e-07
-1.91437e-06 4.16578e-07 8.68179e-06
0.00100272 -0.000102108 -3.9578e-07
-0.000102108 4.98953e-05 -1.43372e-07
-3.9578e-07 -1.43372e-07 -5.44923e-05
0.0014441 -0.000107402 -8.45024e-10
-0.000107402 0.000175811 -1.51272e-07
-8.45024e-10 -1.51272e-07 7.04595e-05
0.00125715 -0.000115632 1.04324e-07
-0.000115632 8.97833e-05 1.49625e-07
1.04324e-07 1.49625e-07 -2.52862e-05
0.000633921 6.11964e-05 -2.50607e-07
6.11964e-05 -4.87683e-05 5.28768e-08
-2.50607e-07 5.28768e-08 -7.71737e-05
0.000761901 3.06217e-05 -2.35976e-07
3.06217e-05 -4.62428e-06 1.64149e-07
-2.35976e-07 1.64149e-07 -5.98816e-05
0.00124967 -4.50035e-06 8.68833e-06
-4.50035e-06 4.98768e-06 -1.67949e-06
8.68833e-06 -1.67949e-06 -9.18082e-05
0.00154609 -2.64518e-05 7.71993e-06
-2.64518e-05 0.000205831 -1.4292e-06
7.71993e-06 -1.4292e-06 0.000120894
0.00187195 -1.34616e-05 2.69944e-06
-1.34616e-05 0.000278322 -9.85224e-07
2.69944e-06 -9.85224e-07 0.000173703
0.0012561 -5.58451e-05 4.4884e-06
-5.58451e-05 -3.66575e-05 -5.4648e-07
4.4884e-06 -5.4648e-07 -0.000140618
0.00152447 -0.000103044 3.27772e-06
-0.000103044 0.000165361 -1.15019e-06
3.27772e-06 -1.15019e-06 5.91997e-05
0.00177222 -8.84955e-05 4.05943e-07
-8.84955e-05 0.00020135 2.17068e-07
4.05943e-07 2.17068e-07 9.3389e-05
0.000566316 6.63897e-05 7.92307e-07
6.63897e-05 -7.88003e-05 -5.19972e-06
7.92307e-07 -5.19972e-06 -0.000113273
0.00136815 -0.000112338 1.16595e-06
-0.000112338 8.436e-05 -1.15483e-06
1.16595e-06 -1.15483e-06 -3.02609e-05
0.000691675 -2.43257e-05 1.94273e-06
-2.43257e-05 -3.05422e-05 -1.18598e-06
1.94273e-06 -1.18598e-06 -0.000103425
0.000603075 -8.10025e-05 1.96624e-06
-8.10025e-05 -0.00011238 -1.59604e-06
1.96624e-06 -1.59604e-06 -0.000210567
0.00173229 -0.000144672 7.35504e-07
-0.000144672 0.000398575 -2.14498e-07
7.35504e-07 -2.14498e-07 0.00028118
0.00152871 -0.000130339 -7.73554e-07
-0.000130339 0.000196435 5.73113e-07
-7.73554e-07 5.73113e-07 7.78823e-05
0.000843145 3.64017e-06 1.44155e-06
3.64017e-06 4.35203e-05 -2.55548e-06
1.44155e-06 -2.55548e-06 -2.18857e-05
0.000779217 4.04956e-05 8.22949e-07
4.04956e-05 1.5783e-06 -1.95533e-06
8.22949e-07 -1.95533e-06 -4.58561e-05
0.000855263 -2.95928e-05 4.59958e-07
-2.95928e-05 4.53407e-05 -7.6929e-07
4.59958e-07 -7.6929e-07 -3.58684e-05
0.000629284 6.09411e-05 -1.19873e-05
6.09411e-05 -0.000106519 -5.71429e-06
-1.19873e-05 -5.71429e-06 -0.000160311
0.0026006 -7.71969e-05 -4.03064e-05
-7.71969e-05 0.00101332 -2.94307e-06
-4.03064e-05 -2.94307e-06 0.00101951
0.000651801 -4.78207e-05 -2.59995e-06
-4.78207e-05 -4.5382e-05 -3.92399e-06
-2.59995e-06 -3.92399e-06 -6.48968e-05
0.000552906 5.80496e-05 -9.46577e-06
5.80496e-05 -9.93277e-05 -6.45045e-06
-9.46577e-06 -6.45045e-06 -0.000150607
0.00102493 8.54408e-05 -6.67241e-06
8.54408e-05 7.01597e-06 -3.59984e-06
-6.67241e-06 -3.59984e-06 -8.27455e-05
0.000564534 -6.57647e-05 -6.45068e-07
-6.57647e-05 -7.65315e-05 -5.25449e-06
-6.45068e-07 -5.25449e-06 -0.000111068
0.000747393 3.85548e-05 -2.31094e-06
3.85548e-05 -7.14428e-06 -2.00096e-06
-2.31094e-06 -2.00096e-06 -8.40103e-05
0.000866006 7.57857e-05 -3.9048e-06
7.57857e-05 9.75767e-06 -1.25528e-06
-3.9048e-06 -1.25528e-06 -7.06172e-05
0.000775269 9.03195e-05 -2.38746e-06
9.03195e-05 -4.56363e-05 1.56785e-07
-2.38746e-06 1.56785e-07 -0.000143755
0.000638913 -6.08261e-05 2.40154e-07
-6.08261e-05 -4.30245e-05 8.78588e-08
2.40154e-07 8.78588e-08 -7.03169e-05
0.000710513 -4.32449e-05 -5.22471e-08
-4.32449e-05 -2.26926e-05 9.59076e-08
-5.22471e-08 9.59076e-08 -3.72378e-05
0.000762291 -3.30363e-05 1.44192e-07
-3.30363e-05 9.54444e-07 1.88489e-07
1.44192e-07 1.88489e-07 -5.12575e-05
0.00111461 7.63347e-05 3.20121e-07
7.63347e-05 1.04479e-05 -2.10344e-07
3.20121e-07 -2.10344e-07 -8.0777e-05
0.000967948 8.56832e-05 3.2333e-07
8.56832e-05 2.69234e-05 1.90564e-07
3.2333e-07 1.90564e-07 -5.8538e-05
0.00125652 0.000107503 2.41617e-07
0.000107503 6.27955e-05 7.89367e-08
2.41617e-07 7.89367e-08 -4.74003e-05
0.000816273 2.70091e-05 -2.31148e-07
2.70091e-05 3.44687e-05 -8.10882e-09
-2.31148e-07 -8.10882e-09 -3.75865e-05
0.00106191 0.000105164 -9.91917e-08
0.000105164 7.16229e-05 -9.38536e-08
-9.91917e-08 -9.38536e-08 -2.68635e-05
0.00101957 9.80123e-05 2.54891e-07
9.80123e-05 0.000116138 -3.69563e-07
2.54891e-07 -3.69563e-07 1.72114e-05
0.000946819 0.000108115 -7.58088e-07
0.000108115 3.68449e-05 5.70779e-07
-7.58088e-07 5.70779e-07 -7.01175e-05
0.000751132 -3.87251e-05 2.54261e-06
-3.87251e-05 -1.0431e-05 3.42301e-06
2.54261e-06 3.42301e-06 -2.10146e-05
0.00076791 4.61417e-06 2.62291e-06
4.61417e-06 2.88307e-06 1.87833e-06
2.62291e-06 1.87833e-06 -5.92697e-05
0.000748923 -3.79424e-05 7.69105e-07
-3.79424e-05 -9.43191e-06 2.19828e-06
7.69105e-07 2.19828e-06 -5.28283e-05
0.00086879 2.17978e-05 7.59456e-07
2.17978e-05 5.77009e-05 6.99909e-07
7.59456e-07 6.99909e-07 -1.87802e-05
0.00133036 9.17536e-05 4.6603e-06
9.17536e-05 4.87767e-05 1.18285e-06
4.6603e-06 1.18285e-06 -6.03093e-05
0.00118722 0.000111583 2.66281e-06
0.000111583 9.05595e-05 1.84386e-06
2.66281e-06 1.84386e-06 -1.45652e-05
0.0013707 0.000117214 1.59553e-06
0.000117214 7.75865e-05 1.8563e-06
1.59553e-06 1.8563e-06 -4.15229e-05
0.0010691 6.89405e-05 1.96493e-06
6.89405e-05 0.000154514 1.06688e-06
1.96493e-06 1.06688e-06 6.22327e-05
0.00115962 0.000117225 -3.55982e-07
0.000117225 9.76226e-05 1.0766e-07
-3.55982e-07 1.0766e-07 -8.2686e-06
0.00104976 0.000112157 4.59268e-07
0.000112157 0.000132815 -1.54232e-06
4.59268e-07 -1.54232e-06 1.77639e-05
0.000719352 9.96164e-05 -4.95014e-08
9.96164e-05 -0.000103159 -1.41697e-06
-4.95014e-08 -1.41697e-06 -0.000213102
0.000814258 -1.97087e-05 1.08197e-06
-1.97087e-05 4.80371e-06 1.64978e-06
1.08197e-06 1.64978e-06 -2.36546e-05
0.000757344 -2.96359e-05 1.76697e-06
-2.96359e-05 -2.14748e-05 3.3387e-06
1.76697e-06 3.3387e-06 -2.66505e-05
0.00213069 -4.82583e-05 2.6168e-05
-4.82583e-05 0.000733937 3.4668e-06
2.6168e-05 3.4668e-06 0.000749995
0.00217689 -5.46122e-05 9.13888e-07
-5.46122e-05 0.00076604 -8.65269e-08
9.13888e-07 -8.65269e-08 0.000780103
0.00223638 -6.11183e-05 -3.0719e-05
-6.11183e-05 0.000805646 -3.16163e-06
-3.0719e-05 -3.16163e-06 0.000817499
0.000688685 4.02043e-05 2.79429e-06
4.02043e-05 -3.91205e-05 -3.71395e-06
2.79429e-06 -3.71395e-06 -5.52451e-05
0.00251216 7.00481e-05 3.62578e-05
7.00481e-05 0.000955609 -3.16645e-06
3.62578e-05 -3.16645e-06 0.000964545
0.000676842 5.20461e-05 -1.62593e-07
5.20461e-05 -3.50857e-05 6.6779e-08
-1.62593e-07 6.6779e-08 -5.70128e-05
0.00271573 7.68804e-05 -7.3832e-07
7.68804e-05 0.00106884 -1.32028e-07
-7.3832e-07 -1.32028e-07 0.00107523
0.000673363 4.88221e-05 -1.25338e-05
4.88221e-05 -0.000100053 -4.45301e-06
-1.25338e-05 -4.45301e-06 -0.000152875
0.000742779 2.90705e-05 -1.31763e-05
2.90705e-05 -7.94237e-05 -2.62622e-06
-1.31763e-05 -2.62622e-06 -0.000134564
0.00117847 5.14044e-05 -8.27901e-06
5.14044e-05 7.55453e-06 -2.18787e-06
-8.27901e-06 -2.18787e-06 -8.36908e-05
0.00123845 2.31926e-05 -8.51709e-06
2.31926e-05 9.4695e-06 -1.76897e-06
-8.51709e-06 -1.76897e-06 -8.54105e-05
0.000754763 3.59939e-06 -1.39499e-05
3.59939e-06 -9.60905e-05 -1.17319e-06
-1.39499e-05 -1.17319e-06 -0.000155158
0.00519906 -3.72979e-05 -0.000117915
-3.72979e-05 0.00239263 8.37293e-07
-0.000117915 8.37293e-07 0.00238796
0.000753182 -1.31862e-06 1.03542e-07
-1.31862e-06 -9.95869e-05 -2.46529e-07
1.03542e-07 -2.46529e-07 -0.000158983
0.00127441 1.15812e-05 3.90206e-08
1.15812e-05 1.19445e-05 -4.38701e-07
3.90206e-08 -4.38701e-07 -8.58134e-05
0.00120703 3.3436e-05 -3.78953e-08
3.3436e-05 9.89195e-06 6.59135e-08
-3.78953e-08 6.59135e-08 -8.19769e-05
0.0015208 2.12559e-05 1.06188e-07
2.12559e-05 7.36224e-05 -5.01206e-08
1.06188e-07 -5.01206e-08 -3.64387e-05
0.00116112 6.41146e-05 1.12802e-07
6.41146e-05 1.13279e-05 -1.14624e-07
1.12802e-07 -1.14624e-07 -7.98897e-05
0.00145859 5.91425e-05 1.38129e-08
5.91425e-05 7.21269e-05 -5.9402e-08
1.38129e-08 -5.9402e-08 -3.35851e-05
0.00127725 -5.49243e-07 8.93901e-06
-5.49243e-07 1.13283e-05 -4.85898e-07
8.93901e-06 -4.85898e-07 -8.66902e-05
0.00153674 1.47222e-05 4.13211e-06
1.47222e-05 6.48648e-05 1.43276e-07
4.13211e-06 1.43276e-07 -4.82247e-05
0.00148696 3.86773e-05 3.83676e-06
3.86773e-05 7.30078e-05 1.24299e-06
3.83676e-06 1.24299e-06 -3.35478e-05
0.00165561 1.84185e-05 1.37373e-06
1.84185e-05 0.000101086 7.90816e-07
1.37373e-06 7.90816e-07 -1.08227e-05
0.00140013 7.57203e-05 3.62809e-06
7.57203e-05 5.84218e-05 8.67131e-07
3.62809e-06 8.67131e-07 -4.84532e-05
0.0015892 6.18077e-05 1.17303e-06
6.18077e-05 9.15533e-05 3.72029e-07
1.17303e-06 3.72029e-07 -1.64698e-05
0.000754872 8.50448e-06 -1.33111e-05
8.50448e-06 -9.18089e-05 7.10507e-07
-1.33111e-05 7.10507e-07 -0.000150198
0.00158181 -3.63416e-06 -5.32596e-05
-3.63416e-06 0.000374312 1.91262e-06
-5.32596e-05 1.91262e-06 0.000327861
0.000824243 -5.93783e-06 -9.01913e-06
-5.93783e-06 -0.000197092 2.04177e-06
-9.01913e-06 2.04177e-06 -0.000291647
0.00199787 -5.89612e-05 -1.37442e-05
-5.89612e-05 0.000448751 2.03383e-06
-1.37442e-05 2.03383e-06 0.000365984
0.00283123 8.41885e-05 -4.90238e-05
8.41885e-05 0.00113762 3.1121e-06
-4.90238e-05 3.1121e-06 0.00114077
0.00163801 3.60156e-05 -2.4812e-05
3.60156e-05 0.000494727 3.30021e-06
-2.4812e-05 3.30021e-06 0.000463267
0.00152426 -7.56988e-05 -5.58374e-06
-7.56988e-05 0.000400071 2.01581e-06
-5.58374e-06 2.01581e-06 0.000324475
0.00149692 -8.44249e-05 -1.21991e-05
-8.44249e-05 0.000225575 3.67594e-06
-1.21991e-05 3.67594e-06 0.000137706
0.00118765 -7.48931e-05 -5.31545e-06
-7.48931e-05 -5.91836e-05 1.04392e-06
-5.31545e-06 1.04392e-06 -0.000166149
0.00170081 -0.0001144 -4.1111e-06
-0.0001144 0.000310154 1.53849e-06
-4.1111e-06 1.53849e-06 0.000205424
0.000759753 -9.05502e-05 -2.20849e-06
-9.05502e-05 -7.58765e-05 8.62384e-07
-2.20849e-06 8.62384e-07 -0.000179663
0.00123719 -0.000114204 -7.50257e-07
-0.000114204 7.94331e-05 8.03362e-07
-7.50257e-07 8.03362e-07 -3.53808e-05
0.000660775 5.42671e-05 -2.04125e-06
5.42671e-05 -3.49697e-05 4.77172e-06
-2.04125e-06 4.77172e-06 -6.26895e-05
0.000732669 1.93578e-05 -1.80049e-06
1.93578e-05 -2.03682e-05 2.23459e-06
-1.80049e-06 2.23459e-06 -7.59699e-05
0.00106476 -7.97566e-07 -4.18776e-07
-7.97566e-07 -9.18358e-05 -3.33189e-07
-4.18776e-07 -3.33189e-07 -0.000189625
0.00158252 -2.85431e-05 -2.60608e-06
-2.85431e-05 0.000223898 2.61624e-07
-2.60608e-06 2.61624e-07 0.000138975
0.00177754 -1.06664e-05 -1.89239e-06
-1.06664e-05 0.000226108 4.0634e-07
-1.89239e-06 4.0634e-07 0.000120601
0.00156111 -6.01526e-05 9.60031e-07
-6.01526e-05 0.000126615 -1.64989e-07
9.60031e-07 -1.64989e-07 2.41915e-05
0.000622529 5.31765e-05 -1.32291e-07
5.31765e-05 -5.19808e-05 7.61869e-08
-1.32291e-07 7.61869e-08 -8.45034e-05
0.000821532 -3.53331e-05 -1.41285e-07
-3.53331e-05 3.75738e-05 -7.85403e-08
-1.41285e-07 -7.85403e-08 -3.59299e-05
0.000734748 -8.73191e-05 8.00876e-07
-8.73191e-05 -4.21138e-05 -6.60428e-07
8.00876e-07 -6.60428e-07 -0.000139329
0.00167802 -0.000106187 -8.33586e-07
-0.000106187 0.000245166 1.66625e-07
-8.33586e-07 1.66625e-07 0.000138943
0.001589 -8.30749e-05 -5.77126e-07
-8.30749e-05 0.000102485 4.48577e-07
-5.77126e-07 4.48577e-07 -5.35916e-06
0.00140111 -0.000129496 -1.09423e-06
-0.000129496 0.000224651 5.37257e-07
-1.09423e-06 5.37257e-07 0.000106777
0.00135939 -0.000111536 -7.22379e-08
-0.000111536 8.01225e-05 -1.07703e-07
-7.22379e-08 -1.07703e-07 -3.44668e-05
0.00133945 -0.000122263 3.91995e-07
-0.000122263 9.91367e-05 7.55636e-07
3.91995e-07 7.55636e-07 -1.85514e-05
0.000788347 -1.94621e-06 -2.69313e-07
-1.94621e-06 1.3137e-05 -8.7925e-08
-2.69313e-07 -8.7925e-08 -5.19728e-05
0.000816336 -6.59021e-06 -4.84887e-07
-6.59021e-06 2.01483e-05 -2.59106e-07
-4.84887e-07 -2.59106e-07 -5.79675e-05
0.000766922 3.68277e-05 2.25138e-07
3.68277e-05 -5.42226e-06 2.40559e-07
2.25138e-07 2.40559e-07 -5.27006e-05
0.00192104 1.88892e-06 2.92146e-06
1.88892e-06 0.000281718 -8.57124e-07
2.92146e-06 -8.57124e-07 0.000173203
0.00163033 -3.1351e-05 3.2511e-06
-3.1351e-05 0.000164076 -8.63438e-07
3.2511e-06 -8.63438e-07 6.25136e-05
0.00182824 -9.95099e-06 6.72116e-07
-9.95099e-06 0.000209962 -4.73913e-07
6.72116e-07 -4.73913e-07 9.83102e-05
0.00161253 -5.41743e-05 1.37666e-06
-5.41743e-05 0.000100624 -1.11109e-07
1.37666e-06 -1.11109e-07 -4.62447e-06
0.00126331 -9.98689e-05 2.1023e-06
-9.98689e-05 -2.96839e-05 -6.25143e-07
2.1023e-06 -6.25143e-07 -0.000142639
0.00170074 -7.90465e-05 -8.41825e-07
-7.90465e-05 0.000126527 7.01041e-07
-8.41825e-07 7.01041e-07 2.2371e-05
0.000797264 -1.80057e-05 2.37296e-06
-1.80057e-05 2.45472e-05 -1.8318e-06
2.37296e-06 -1.8318e-06 -4.71637e-05
0.00142813 -0.000116458 -1.22244e-06
-0.000116458 8.11071e-05 -9.05619e-07
-1.22244e-06 -9.05619e-07 -3.48413e-05
0.000911327 -8.99514e-05 1.1226e-06
-8.99514e-05 6.64102e-05 9.9561e-08
1.1226e-06 9.9561e-08 -2.35036e-05
0.000722023 -9.85425e-05 1.61266e-06
-9.85425e-05 -6.57154e-05 -2.12856e-06
1.61266e-06 -2.12856e-06 -0.00017905
0.00152461 -0.000141943 1.28714e-06
-0.000141943 0.00026011 5.82345e-07
1.28714e-06 5.82345e-07 0.000134466
0.0018789 -0.000146155 -2.5791e-06
-0.000146155 0.000357264 2.24713e-06
-2.5791e-06 2.24713e-06 0.000244546
0.000788178 3.21513e-05 1.4231e-06
3.21513e-05 5.02701e-07 -1.70297e-06
1.4231e-06 -1.70297e-06 -4.0885e-05
0.000893089 -4.30222e-05 1.15438e-06
-4.30222e-05 5.8355e-05 3.55902e-08
1.15438e-06 3.55902e-08 -2.35951e-05
0.000769781 -1.33045e-06 6.27426e-07
-1.33045e-06 -5.25801e-06 -1.38265e-06
6.27426e-07 -1.38265e-06 -7.81365e-05
0.000972105 -8.06856e-05 -1.92147e-07
-8.06856e-05 0.00011182 9.94432e-07
-1.92147e-07 9.94432e-07 2.10085e-05
0.00112168 7.80853e-05 -8.04632e-06
7.80853e-05 1.50645e-05 -3.25674e-06
-8.04632e-06 -3.25674e-06 -7.64e-05
0.000681293 -4.11042e-05 -2.7924e-06
-4.11042e-05 -3.83205e-05 -3.49846e-06
-2.7924e-06 -3.49846e-06 -5.24307e-05
0.000603769 -5.78609e-05 -1.91693e-06
-5.78609e-05 -6.34766e-05 -4.55973e-06
-1.91693e-06 -4.55973e-06 -8.98298e-05
0.000778354 -4.33655e-05 -5.39274e-07
-4.33655e-05 1.04701e-05 -2.44113e-06
-5.39274e-07 -2.44113e-06 -4.22255e-05
0.000917195 8.3491e-05 -4.75064e-06
8.3491e-05 1.95751e-06 -2.68237e-06
-4.75064e-06 -2.68237e-06 -8.31972e-05
0.00125481 0.000108092 -3.65174e-06
0.000108092 6.24028e-05 -1.75895e-06
-3.65174e-06 -1.75895e-06 -4.79405e-05
0.000777265 2.07113e-05 -2.26476e-06
2.07113e-05 1.64105e-05 -1.9329e-06
-2.26476e-06 -1.9329e-06 -5.58865e-05
0.000984556 9.59862e-05 -2.15402e-06
9.59862e-05 9.78959e-05 -1.15494e-06
-2.15402e-06 -1.15494e-06 -9.30952e-07
0.00119252 0.000111372 -1.70037e-06
0.000111372 0.000141098 -3.91097e-07
-1.70037e-06 -3.91097e-07 4.25264e-05
0.000806481 0.000102325 -1.77318e-06
0.000102325 -3.68967e-05 1.06242e-06
-1.77318e-06 1.06242e-06 -0.000143982
0.000725472 -3.75382e-05 9.44324e-08
-3.75382e-05 -2.38054e-05 3.10077e-08
9.44324e-08 3.10077e-08 -3.42191e-05
0.00078863 7.36864e-06 6.31111e-08
7.36864e-06 1.72491e-05 -4.33872e-08
6.31111e-08 -4.33872e-08 -4.64624e-05
0.000764245 -4.12924e-05 -1.32375e-07
-4.12924e-05 -1.27956e-06 2.51008e-07
-1.32375e-07 2.51008e-07 -4.47013e-05
0.000880793 1.05203e-05 2.58645e-07
1.05203e-05 6.31583e-05 -2.16279e-07
2.58645e-07 -2.16279e-07 -1.24907e-05
0.00135293 9.31536e-05 9.19718e-07
9.31536e-05 6.05266e-05 1.87258e-07
9.19718e-07 1.87258e-07 -4.88453e-05
0.00114222 0.000110411 8.48478e-08
0.000110411 6.87677e-05 4.78322e-08
8.48478e-08 4.78322e-08 -3.63212e-05
0.00137526 0.000117495 -1.83814e-08
0.000117495 8.03117e-05 6.44052e-07
-1.83814e-08 6.44052e-07 -3.88496e-05
0.000991165 7.14077e-05 3.40935e-07
7.14077e-05 0.000113797 2.6573e-07
3.40935e-07 2.6573e-07 2.26042e-05
0.00134441 0.000125539 -5.97959e-07
0.000125539 0.00019558 -1.03224e-06
-5.97959e-07 -1.03224e-06 8.95572e-05
0.001073 0.000113805 2.34497e-07
0.000113805 0.00014447 -7.70491e-07
2.34497e-07 -7.70491e-07 2.86594e-05
0.000879998 0.000107422 -1.70739e-06
0.000107422 -1.49505e-05 -4.34874e-08
-1.70739e-06 -4.34874e-08 -0.000122443
0.000758062 -3.40193e-05 2.18473e-06
-3.40193e-05 -1.44302e-05 3.35027e-06
2.18473e-06 3.35027e-06 -2.19649e-05
0.00077491 -3.70654e-05 9.01739e-07
-3.70654e-05 -1.84868e-06 1.88719e-06
9.01739e-07 1.88719e-06 -3.88646e-05
0.000985425 3.5514e-05 1.36159e-06
3.5514e-05 0.000113272 5.11071e-07
1.36159e-06 5.11071e-07 2.99354e-05
0.000842 5.74652e-06 5.78834e-07
5.74652e-06 3.8324e-05 1.2189e-06
5.78834e-07 1.2189e-06 -2.75259e-05
0.000934214 6.70468e-05 9.14562e-07
6.70468e-05 0.000101484 -1.93602e-07
9.14562e-07 -1.93602e-07 1.09385e-05
0.00146164 9.70603e-05 2.68197e-06
9.70603e-05 6.84324e-05 3.50639e-07
2.68197e-06 3.50639e-07 -4.67732e-05
0.0012394 0.000121596 6.81522e-07
0.000121596 8.41403e-05 1.91146e-06
6.81522e-07 1.91146e-06 -2.986e-05
0.00149535 0.000125508 -6.15422e-07
0.000125508 0.000114758 1.60051e-06
-6.15422e-07 1.60051e-06 -7.48568e-06
0.00112209 0.000111226 2.7492e-06
0.000111226 0.000192751 2.51786e-06
2.7492e-06 2.51786e-06 8.07673e-05
0.00119126 0.000124584 1.15073e-06
0.000124584 9.42509e-05 3.40661e-07
1.15073e-06 3.40661e-07 -1.49559e-05
0.000374738 8.39441e-05 1.58308e-06
8.39441e-05 -0.00024523 -2.23076e-06
1.58308e-06 -2.23076e-06 -0.000369368
0.000807528 -2.38746e-05 1.25549e-06
-2.38746e-05 5.16177e-06 1.68026e-06
1.25549e-06 1.68026e-06 -2.51945e-05
0.000829725 3.76045e-06 4.27848e-07
3.76045e-06 2.30901e-05 6.61811e-07
4.27848e-07 6.61811e-07 -2.42079e-05
0.000826755 -1.43352e-05 8.00582e-07
-1.43352e-05 8.16625e-06 1.69877e-06
8.00582e-07 1.69877e-06 -1.89208e-05
0.00081527 -1.84082e-05 1.36794e-07
-1.84082e-05 5.98089e-06 -7.33018e-10
1.36794e-07 -7.33018e-10 -2.25996e-05
0.00129284 -3.16605e-05 1.89531e-06
-3.16605e-05 0.000262072 2.01602e-06
1.89531e-06 2.01602e-06 0.00026189
0.00102236 -3.23889e-05 7.91114e-07
-3.23889e-05 0.000121947 -2.36957e-08
7.91114e-07 -2.36957e-08 0.000118347
0.00099892 -2.86854e-05 2.14736e-05
-2.86854e-05 0.000113143 6.18956e-06
2.14736e-05 6.18956e-06 0.000125538
0.00211855 -4.82444e-05 1.05895e-06
-4.82444e-05 0.000726236 -7.9272e-08
1.05895e-06 -7.9272e-08 0.000742538
0.00215594 -5.44703e-05 -2.73446e-05
-5.44703e-05 0.000753632 -3.31489e-06
-2.73446e-05 -3.31489e-06 0.000767992
0.000703962 3.5622e-05 2.50403e-06
3.5622e-05 -3.8759e-05 -3.58668e-06
2.50403e-06 -3.58668e-06 -5.16396e-05
0.00239053 6.29486e-05 3.23723e-05
6.29486e-05 0.000883593 -3.33772e-06
3.23723e-05 -3.33772e-06 0.000894942
0.000708757 4.21878e-05 1.61274e-08
4.21878e-05 -2.8152e-05 5.52846e-08
1.61274e-08 5.52846e-08 -4.46814e-05
0.00255914 6.96841e-05 -9.2713e-07
6.96841e-05 0.000980653 -1.1153e-07
-9.2713e-07 -1.1153e-07 0.000989448
0.000697912 5.51984e-05 -7.96448e-07
5.51984e-05 -2.26017e-05 4.62112e-06
-7.96448e-07 4.62112e-06 -4.53887e-05
0.00274157 7.63661e-05 -4.60324e-05
7.63661e-05 0.00108259 3.21667e-06
-4.60324e-05 3.21667e-06 0.00108881
0.00117078 6.64015e-05 -8.40611e-06
6.64015e-05 1.70645e-05 -2.66252e-06
-8.40611e-06 -2.66252e-06 -7.44435e-05
0.00120697 3.67663e-05 -8.24374e-06
3.67663e-05 1.05294e-05 -1.70671e-06
-8.24374e-06 -1.70671e-06 -8.15358e-05
0.00145946 5.76019e-05 -3.74133e-06
5.76019e-05 7.25939e-05 -9.29402e-07
-3.74133e-06 -9.29402e-07 -3.30791e-05
0.00153648 2.12034e-05 -3.98133e-06
2.12034e-05 8.16842e-05 -1.32419e-06
-3.98133e-06 -1.32419e-06 -2.83798e-05
0.00127596 1.41793e-05 -9.00774e-06
1.41793e-05 1.29049e-05 -1.2467e-06
-9.00774e-06 -1.2467e-06 -8.48626e-05
0.00075824 5.84229e-06 -1.38579e-05
5.84229e-06 -9.6866e-05 -7.27251e-08
-1.38579e-05 -7.27251e-08 -0.000156376
0.00127506 1.32403e-06 -1.12112e-08
1.32403e-06 9.96499e-06 -1.21324e-07
-1.12112e-08 -1.21324e-07 -8.81011e-05
0.00155134 1.64833e-05 -3.88792e-08
1.64833e-05 7.23612e-05 -4.0403e-07
-3.88792e-08 -4.0403e-07 -4.07243e-05
0.00148493 3.58098e-05 7.45901e-08
3.58098e-05 7.24959e-05 1.76488e-07
7.45901e-08 1.76488e-07 -3.39971e-05
0.00162239 1.76549e-05 -3.08851e-08
1.76549e-05 8.16848e-05 -6.03909e-08
-3.08851e-08 -6.03909e-08 -3.04317e-05
0.0014135 7.64162e-05 -1.16741e-07
7.64162e-05 6.4708e-05 9.71846e-09
-1.16741e-07 9.71846e-09 -4.22216e-05
0.00158878 6.13426e-05 -2.61406e-08
6.13426e-05 9.13605e-05 6.47267e-08
-2.61406e-08 6.47267e-08 -1.66286e-05
0.00154874 5.97725e-06 4.46421e-06
5.97725e-06 6.90927e-05 -4.12215e-07
4.46421e-06 -4.12215e-07 -4.41637e-05
0.00160969 1.34435e-05 1.21178e-06
1.34435e-05 5.87302e-05 4.33731e-07
1.21178e-06 4.33731e-07 -5.65391e-05
0.00159816 3.94067e-05 1.32269e-06
3.94067e-05 8.31763e-05 8.13816e-07
1.32269e-06 8.13816e-07 -2.60039e-05
0.0018518 1.39289e-05 4.43927e-07
1.39289e-05 0.000176131 3.66883e-07
4.43927e-07 3.66883e-07 6.67154e-05
0.00153842 7.69065e-05 8.64821e-07
7.69065e-05 8.27037e-05 2.68474e-08
8.64821e-07 2.68474e-08 -2.74071e-05
0.00167659 5.21957e-05 -1.59537e-06
5.21957e-05 0.000104993 4.99872e-07
-1.59537e-06 4.99872e-07 2.92564e-06
0.000870883 8.50144e-07 -8.64412e-06
8.50144e-07 -0.000193115 8.88658e-07
-8.64412e-06 8.88658e-07 -0.000291948
0.00161487 -3.24427e-05 -1.30797e-05
-3.24427e-05 0.000239521 1.78327e-06
-1.30797e-05 1.78327e-06 0.000154673
0.0016718 -4.29076e-06 -6.2053e-06
-4.29076e-06 0.000168376 1.8762e-06
-6.2053e-06 1.8762e-06 6.20022e-05
0.00187064 -6.46717e-05 -3.92005e-06
-6.46717e-05 0.000292276 3.82473e-07
-3.92005e-06 3.82473e-07 0.000191374
0.000666866 4.27512e-05 -3.97935e-06
4.27512e-05 -2.89279e-05 4.59616e-06
-3.97935e-06 4.59616e-06 -6.11712e-05
0.000887844 -4.07658e-05 -3.14088e-06
-4.07658e-05 7.24223e-05 1.58238e-06
-3.14088e-06 1.58238e-06 -1.42689e-06
0.000875094 -9.42824e-05 -6.39163e-07
-9.42824e-05 3.23085e-05 1.70878e-07
-6.39163e-07 1.70878e-07 -6.39601e-05
0.00183639 -0.000109502 -5.16237e-06
-0.000109502 0.000327534 1.73761e-06
-5.16237e-06 1.73761e-06 0.000221235
0.00140842 -7.76675e-05 -1.92859e-06
-7.76675e-05 4.96553e-06 1.60285e-07
-1.92859e-06 1.60285e-07 -0.000102757
0.00135321 -0.000110833 -1.42027e-06
-0.000110833 7.72029e-05 9.74062e-07
-1.42027e-06 9.74062e-07 -3.73577e-05
0.00106564 -0.000114158 -1.6254e-06
-0.000114158 4.84978e-05 1.22637e-06
-1.6254e-06 1.22637e-06 -6.98449e-05
0.00114171 -0.00011376 2.03385e-06
-0.00011376 -2.47456e-06 4.17652e-08
2.03385e-06 4.17652e-08 -0.000119272
0.000750547 -2.11413e-06 -2.47857e-06
-2.11413e-06 -8.95033e-06 1.94877e-06
-2.47857e-06 1.94877e-06 -7.32334e-05
0.000794825 -2.04473e-06 -1.10399e-06
-2.04473e-06 8.13523e-06 2.82127e-07
-1.10399e-06 2.82127e-07 -6.9602e-05
0.000752632 3.31599e-05 -7.80628e-07
3.31599e-05 -1.33498e-05 2.14814e-06
-7.80628e-07 2.14814e-06 -6.04985e-05
0.00173494 2.55548e-06 -1.90539e-06
2.55548e-06 0.000180937 1.58767e-07
-1.90539e-06 1.58767e-07 7.06019e-05
0.00163123 -3.60901e-05 -9.58416e-07
-3.60901e-05 0.000163084 7.89571e-08
-9.58416e-07 7.89571e-08 6.16654e-05
0.0016699 -7.19192e-06 -6.71407e-07
-7.19192e-06 0.000126083 6.90872e-07
-6.71407e-07 6.90872e-07 1.41516e-05
0.00170719 -5.31497e-05 2.92791e-07
-5.31497e-05 0.000151163 -1.082e-07
2.92791e-07 -1.082e-07 4.60852e-05
0.000806654 -2.18169e-05 1.85621e-07
-2.18169e-05 2.76564e-05 -2.24892e-07
1.85621e-07 -2.24892e-07 -4.36562e-05
0.00100406 -9.51196e-05 -1.71508e-07
-9.51196e-05 0.000113455 3.23327e-07
-1.71508e-07 3.23327e-07 2.29572e-05
0.000817749 -0.000101935 6.11208e-07
-0.000101935 -1.20029e-05 -9.72195e-07
6.11208e-07 -9.72195e-07 -0.000123917
0.00150402 -0.000106084 3.66034e-07
-0.000106084 9.98322e-05 -4.66207e-07
3.66034e-07 -4.66207e-07 -1.29203e-05
0.00162517 -7.69672e-05 1.65948e-07
-7.69672e-05 8.32787e-05 7.25078e-07
1.65948e-07 7.25078e-07 -2.02661e-05
0.00126134 -0.000130154 -7.31225e-08
-0.000130154 0.000125857 2.58312e-07
-7.31225e-08 2.58312e-07 -4.59718e-07
0.00143069 -0.000115174 -2.31318e-07
-0.000115174 8.12893e-05 2.95911e-08
-2.31318e-07 2.95911e-08 -3.44759e-05
0.00164738 -0.00013709 1.07399e-06
-0.00013709 0.000236582 7.25747e-07
1.07399e-06 7.25747e-07 0.000125272
0.0009353 -4.79313e-05 -2.07124e-07
-4.79313e-05 8.24605e-05 -2.07279e-07
-2.07124e-07 -2.07279e-07 -4.35867e-07
0.000944823 -8.3441e-05 -2.81863e-07
-8.3441e-05 9.74738e-05 3.61949e-07
-2.81863e-07 3.61949e-07 5.41033e-06
0.000783951 3.12827e-05 1.70444e-07
3.12827e-05 -1.49199e-06 8.35179e-08
1.70444e-07 8.35179e-08 -4.29742e-05
0.000769569 1.72447e-05 -1.17941e-07
1.72447e-05 -8.60751e-06 -4.99149e-07
-1.17941e-07 -4.99149e-07 -7.83323e-05
0.00169094 6.42886e-07 1.52538e-06
6.42886e-07 0.000116736 -1.03467e-06
1.52538e-06 -1.03467e-06 1.40202e-06
0.00171064 -3.02668e-05 1.08254e-06
-3.02668e-05 0.000159314 7.91736e-09
1.08254e-06 7.91736e-09 5.27845e-05
0.0017757 -6.07485e-06 4.2732e-07
-6.07485e-06 0.000153741 -3.48486e-07
4.2732e-07 -3.48486e-07 4.38793e-05
0.00158041 -4.43887e-05 -1.8207e-07
-4.43887e-05 5.15778e-05 -8.73975e-07
-1.8207e-07 -8.73975e-07 -5.22364e-05
0.00150688 -0.000103311 -9.42815e-07
-0.000103311 5.09285e-05 4.63047e-08
-9.42815e-07 4.63047e-08 -6.08003e-05
0.00175611 -7.43298e-05 7.16665e-07
-7.43298e-05 0.000126272 2.32125e-07
7.16665e-07 2.32125e-07 2.32853e-05
0.000912514 -8.64401e-05 1.24906e-06
-8.64401e-05 6.92685e-05 4.62477e-07
1.24906e-06 4.62477e-07 -1.63082e-05
0.0012539 -0.00011166 -3.62464e-06
-0.00011166 -3.40849e-05 -1.00175e-07
-3.62464e-06 -1.00175e-07 -0.000139189
0.000650668 -8.87768e-05 -1.42409e-07
-8.87768e-05 -6.94281e-05 -9.26383e-07
-1.42409e-07 -9.26383e-07 -0.000171684
0.00111136 -0.000123691 1.84238e-06
-0.000123691 0.00012011 -1.49203e-06
1.84238e-06 -1.49203e-06 -6.67987e-06
0.00135225 -0.000141205 1.18997e-06
-0.000141205 0.000149073 2.34924e-06
1.18997e-06 2.34924e-06 1.76808e-05
0.00214694 -0.000157479 -1.07279e-06
-0.000157479 0.00048076 1.71167e-06
-1.07279e-06 1.71167e-06 0.000369123
0.000798422 2.22673e-05 1.66115e-06
2.22673e-05 2.13116e-06 -1.71873e-06
1.66115e-06 -1.71873e-06 -3.60204e-05
0.000735232 5.59347e-06 5.31261e-07
5.59347e-06 -2.51054e-05 -1.26904e-06
5.31261e-07 -1.26904e-06 -9.11291e-05
0.000956333 -9.88877e-05 2.09823e-07
-9.88877e-05 9.94061e-05 1.28953e-06
2.09823e-07 1.28953e-06 5.70892e-06
0.000966721 -6.19157e-05 8.59585e-07
-6.19157e-05 0.000106393 1.63141e-08
8.59585e-07 1.63141e-08 2.24106e-05
0.000944693 -9.83913e-05 -5.97052e-07
-9.83913e-05 0.000100554 1.90783e-06
-5.97052e-07 1.90783e-06 3.85202e-06
0.000700698 -3.64972e-05 -2.47568e-06
-3.64972e-05 -3.66978e-05 -3.3944e-06
-2.47568e-06 -3.3944e-06 -4.69571e-05
0.00137438 9.45483e-05 -3.02721e-06
9.45483e-05 7.17576e-05 -8.38905e-07
-3.02721e-06 -8.38905e-07 -3.79146e-05
0.000775096 -4.41379e-05 -8.47601e-07
-4.41379e-05 4.56288e-06 -1.92356e-06
-8.47601e-07 -1.92356e-06 -3.89312e-05
0.000833474 -6.58858e-06 -1.09421e-06
-6.58858e-06 4.14744e-05 -2.2857e-06
-1.09421e-06 -2.2857e-06 -2.16434e-05
0.000891603 7.27078e-08 3.25881e-08
7.27078e-08 6.78597e-05 -9.59643e-07
3.25881e-08 -9.59643e-07 -6.88323e-06
0.00110895 0.000109808 -2.72403e-06
0.000109808 5.30467e-05 -1.8441e-06
-2.72403e-06 -1.8441e-06 -5.20444e-05
0.00137542 0.000117623 -1.53837e-06
0.000117623 8.08396e-05 -5.75634e-07
-1.53837e-06 -5.75634e-07 -3.83786e-05
0.000926295 8.64726e-05 -1.46167e-06
8.64726e-05 8.22688e-05 -4.99063e-07
-1.46167e-06 -4.99063e-07 -9.48546e-06
0.00111163 0.000116312 -2.09204e-06
0.000116312 0.000164192 -1.03677e-06
-2.09204e-06 -1.03677e-06 4.75316e-05
0.00153128 0.000133952 -1.42979e-06
0.000133952 0.000294551 -1.43676e-06
-1.42979e-06 -1.43676e-06 0.000188397
0.00103576 0.000114973 -3.11336e-06
0.000114973 7.06246e-05 2.11723e-06
-3.11336e-06 2.11723e-06 -3.4387e-05
0.000734901 -3.31996e-05 9.42336e-08
-3.31996e-05 -2.65645e-05 2.89035e-08
9.42336e-08 2.89035e-08 -3.39864e-05
0.000782075 -3.7217e-05 -1.17144e-07
-3.7217e-05 1.89968e-06 8.16785e-08
-1.17144e-07 8.16785e-08 -3.50328e-05
0.000940572 4.29097e-05 3.80266e-07
4.29097e-05 9.04921e-05 -7.83985e-08
3.80266e-07 -7.83985e-08 6.97526e-06
0.000851259 -1.11376e-05 -5.66748e-08
-1.11376e-05 4.20715e-05 8.65981e-08
-5.66748e-08 8.65981e-08 -2.26902e-05
0.000892681 5.39503e-05 4.40198e-07
5.39503e-05 7.74333e-05 -2.7389e-07
4.40198e-07 -2.7389e-07 -1.25099e-05
0.00147516 9.79041e-05 1.1846e-06
9.79041e-05 7.55513e-05 3.61624e-07
1.1846e-06 3.61624e-07 -3.99538e-05
0.00124127 0.000122412 1.25388e-07
0.000122412 8.56466e-05 6.08188e-08
1.25388e-07 6.08188e-08 -2.8408e-05
0.0014515 0.000125306 8.65319e-07
0.000125306 9.28113e-05 9.31796e-07
8.65319e-07 9.31796e-07 -2.99005e-05
0.00102732 0.000106404 9.75326e-07
0.000106404 0.000144881 1.04508e-06
9.75326e-07 1.04508e-06 3.32882e-05
0.00133607 0.000130421 7.68178e-07
0.000130421 0.000171805 -1.02111e-06
7.68178e-07 -1.02111e-06 6.26544e-05
0.000842897 0.000108001 -1.61697e-06
0.000108001 -2.85341e-06 -8.98041e-07
-1.61697e-06 -8.98041e-07 -0.000127434
0.000795446 -2.96356e-05 1.20985e-06
-2.96356e-05 3.58975e-06 1.73571e-06
1.20985e-06 1.73571e-06 -2.94041e-05
0.000840401 -5.74346e-06 4.97e-07
-5.74346e-06 3.02934e-05 1.07835e-06
4.97e-07 1.07835e-06 -2.51137e-05
0.00106184 0.00010199 3.09293e-07
0.00010199 0.000165145 -1.53335e-07
3.09293e-07 -1.53335e-07 6.31997e-05
0.00090285 1.3855e-05 5.1517e-07
1.3855e-05 7.78635e-05 4.64605e-07
5.1517e-07 4.64605e-07 -1.07135e-06
0.00103075 5.34725e-05 2.31525e-07
5.34725e-05 0.000154169 -1.28619e-06
2.31525e-07 -1.28619e-06 5.56143e-05
0.00153823 9.67995e-05 -1.39731e-06
9.67995e-05 7.64999e-05 -1.06894e-06
-1.39731e-06 -1.06894e-06 -3.88051e-05
0.00131162 0.000132905 6.07199e-07
0.000132905 9.34331e-05 1.76768e-06
6.07199e-07 1.76768e-06 -2.40844e-05
0.00128048 0.000131504 -4.73e-06
0.000131504 -1.78086e-06 3.3688e-07
-4.73e-06 3.3688e-07 -0.00011633
0.000937783 0.000106897 2.45382e-07
0.000106897 0.000104488 2.21999e-06
2.45382e-07 2.21999e-06 -2.50884e-05
0.00122714 0.000137293 3.57309e-06
0.000137293 0.000137713 -7.65452e-07
3.57309e-06 -7.65452e-07 1.05265e-05
0.000805593 -2.26983e-05 4.92667e-08
-2.26983e-05 4.47229e-06 1.59115e-09
4.92667e-08 1.59115e-09 -2.58988e-05
0.000687535 -1.86319e-05 6.61313e-07
-1.86319e-05 -5.45507e-05 1.36879e-06
6.61313e-07 1.36879e-06 -0.000102502
0.000773318 -1.54414e-05 -6.7581e-07
-1.54414e-05 -8.55348e-06 -1.50821e-08
-6.7581e-07 -1.50821e-08 -5.54285e-05
0.00103637 1.35367e-05 1.04881e-06
1.35367e-05 0.000141128 -1.21053e-07
1.04881e-06 -1.21053e-07 8.26226e-05
0.000846182 1.14234e-05 1.65005e-06
1.14234e-05 2.89611e-05 7.86488e-07
1.65005e-06 7.86488e-07 -1.72807e-05
0.000831691 -6.45239e-06 8.03637e-07
-6.45239e-06 7.62732e-06 1.69981e-06
8.03637e-07 1.69981e-06 -1.8737e-05
0.000823338 -1.48155e-05 1.10596e-08
-1.48155e-05 6.53486e-06 2.1079e-08
1.10596e-08 2.1079e-08 -2.06038e-05
0.00128739 -2.57673e-05 1.34129e-06
-2.57673e-05 0.000253248 1.98644e-06
1.34129e-06 1.98644e-06 0.000254929
0.000813577 -1.75438e-05 -1.06702e-06
-1.75438e-05 5.6576e-06 -1.75599e-06
-1.06702e-06 -1.75599e-06 -2.30437e-05
0.00130904 -2.98672e-05 -3.86465e-06
-2.98672e-05 0.000270315 -1.16351e-06
-3.86465e-06 -1.16351e-06 0.000270433
0.000996175 -2.44601e-05 1.8312e-05
-2.44601e-05 0.00010365 6.16237e-06
1.8312e-05 6.16237e-06 0.00011807
0.00129649 -3.31685e-05 -9.17502e-06
-3.31685e-05 0.000270332 -3.11227e-06
-9.17502e-06 -3.11227e-06 0.000268545
0.00151745 -3.54592e-05 1.66057e-05
-3.54592e-05 0.000393767 2.01914e-06
1.66057e-05 2.01914e-06 0.000409097
0.00210716 -4.81128e-05 -2.40732e-05
-4.81128e-05 0.000718926 -3.46035e-06
-2.40732e-05 -3.46035e-06 0.000735492
0.000711554 3.2179e-05 2.08069e-06
3.2179e-05 -4.11435e-05 -3.55793e-06
2.08069e-06 -3.55793e-06 -5.15427e-05
0.000721084 3.64054e-05 -1.30899e-07
3.64054e-05 -2.9668e-05 2.06501e-08
-1.30899e-07 2.06501e-08 -4.27011e-05
0.00232748 5.65458e-05 2.88038e-05
5.65458e-05 0.000842181 -3.5178e-06
2.88038e-05 -3.5178e-06 0.000855633
0.00242373 6.2969e-05 -8.50447e-07
6.2969e-05 0.000901971 -9.91399e-08
-8.50447e-07 -9.91399e-08 0.000913092
0.000726355 4.49696e-05 -1.94956e-06
4.49696e-05 -1.83134e-05 4.00429e-06
-1.94956e-06 4.00429e-06 -3.53671e-05
0.00259394 6.89106e-05 -4.15316e-05
6.89106e-05 0.000999156 3.26743e-06
-4.15316e-05 3.26743e-06 0.00100789
0.00142909 7.72935e-05 -3.89195e-06
7.72935e-05 7.21122e-05 -8.52112e-07
-3.89195e-06 -8.52112e-07 -3.48817e-05
0.00148549 3.65339e-05 -3.80248e-06
3.65339e-05 7.33207e-05 -8.64911e-07
-3.80248e-06 -8.64911e-07 -3.3278e-05
0.00158914 6.19634e-05 -9.86614e-07
6.19634e-05 9.15342e-05 -2.27087e-07
-9.86614e-07 -2.27087e-07 -1.6462e-05
0.00158685 1.6817e-05 -1.33412e-06
1.6817e-05 6.11318e-05 -9.26647e-07
-1.33412e-06 -9.26647e-07 -5.11971e-05
0.00157002 1.98936e-05 -4.08e-06
1.98936e-05 8.19716e-05 -9.32799e-07
-4.08e-06 -9.32799e-07 -3.11434e-05
0.00128458 6.17642e-06 -8.92064e-06
6.17642e-06 1.44765e-05 1.71712e-07
-8.92064e-06 1.71712e-07 -8.35658e-05
0.0015599 1.0176e-05 5.72201e-08
1.0176e-05 7.48695e-05 -1.11751e-07
5.72201e-08 -1.11751e-07 -3.84272e-05
0.00160281 5.31491e-06 1.12111e-07
5.31491e-06 5.44083e-05 2.43328e-08
1.12111e-07 2.43328e-08 -6.1185e-05
0.00161861 3.86732e-05 1.94602e-08
3.86732e-05 9.40718e-05 1.53262e-07
1.94602e-08 1.53262e-07 -1.50504e-05
0.00177564 1.35747e-05 -1.78533e-08
1.35747e-05 0.00013576 -3.00463e-07
-1.78533e-08 -3.00463e-07 2.66948e-05
0.0015428 7.80912e-05 -1.72531e-07
7.80912e-05 8.41939e-05 1.05289e-07
-1.72531e-07 1.05289e-07 -2.60874e-05
0.00163872 5.15741e-05 -1.98565e-08
5.15741e-05 8.26333e-05 4.92273e-07
-1.98565e-08 4.92273e-07 -1.91333e-05
0.0016547 -1.07836e-08 2.0942e-06
-1.07836e-08 8.19576e-05 -2.86544e-07
2.0942e-06 -2.86544e-07 -3.44491e-05
0.00177646 1.53122e-05 1.4217e-07
1.53122e-05 0.000120572 3.31189e-07
1.4217e-07 3.31189e-07 7.09257e-06
0.00163014 3.05049e-05 -3.83494e-07
3.05049e-05 6.5972e-05 1.21858e-06
-3.83494e-07 1.21858e-06 -3.85662e-05
0.00176491 1.06846e-05 7.8096e-08
1.06846e-05 0.000117357 1.7823e-07
7.8096e-08 1.7823e-07 1.10685e-05
0.00156823 7.11234e-05 -1.32757e-06
7.11234e-05 6.27454e-05 -6.75163e-07
-1.32757e-06 -6.75163e-07 -4.35035e-05
0.00187941 4.42515e-05 -2.3006e-07
4.42515e-05 0.000184152 9.59894e-08
-2.3006e-07 9.59894e-08 8.69464e-05
0.00155183 2.65949e-06 -5.91479e-06
2.65949e-06 8.15688e-05 1.14253e-06
-5.91479e-06 1.14253e-06 -3.05677e-05
0.00162078 -3.76342e-05 -5.18647e-06
-3.76342e-05 0.000156373 9.60385e-07
-5.18647e-06 9.60385e-07 5.51402e-05
0.00151502 -6.55659e-06 -2.21785e-06
-6.55659e-06 4.39027e-05 1.38429e-06
-2.21785e-06 1.38429e-06 -6.83333e-05
0.00180223 -5.26993e-05 -1.58084e-06
-5.26993e-05 0.000201852 -4.88189e-08
-1.58084e-06 -4.88189e-08 9.6941e-05
0.000824018 -2.5773e-05 -2.68549e-06
-2.5773e-05 3.4786e-05 1.62126e-06
-2.68549e-06 1.62126e-06 -3.61401e-05
0.00109254 -0.000100022 -1.57184e-06
-0.000100022 0.000158473 5.86927e-07
-1.57184e-06 5.86927e-07 6.73846e-05
0.00090904 -0.000104906 -3.30131e-07
-0.000104906 3.94808e-05 2.27013e-07
-3.30131e-07 2.27013e-07 -7.09718e-05
0.00174318 -0.000112185 -1.5724e-06
-0.000112185 0.000228542 2.71506e-07
-1.5724e-06 2.71506e-07 0.000116001
0.00154889 -7.48757e-05 3.22531e-07
-7.48757e-05 3.96319e-05 5.89553e-08
3.22531e-07 5.89553e-08 -6.32943e-05
0.00143705 -0.000114106 9.113e-07
-0.000114106 8.34812e-05 9.69695e-07
9.113e-07 9.69695e-07 -3.21228e-05
0.000999611 -0.000118513 -8.58834e-07
-0.000118513 -7.71274e-06 2.37686e-07
-8.58834e-07 2.37686e-07 -0.000134706
0.00140382 -0.000127608 4.14371e-06
-0.000127608 0.000109297 -2.31175e-06
4.14371e-06 -2.31175e-06 -5.26337e-07
0.000952398 -3.83158e-05 -1.28186e-06
-3.83158e-05 9.09179e-05 -3.64991e-07
-1.28186e-06 -3.64991e-07 8.74912e-06
0.000922416 -6.42843e-05 -7.23623e-07
-6.42843e-05 8.07153e-05 -5.28169e-07
-7.23623e-07 -5.28169e-07 -9.37048e-06
0.000774608 2.93624e-05 -1.09816e-06
2.93624e-05 -6.32853e-06 1.87583e-06
-1.09816e-06 1.87583e-06 -4.78068e-05
0.000779453 2.99615e-05 -1.65492e-07
2.99615e-05 -4.94908e-06 3.43769e-07
-1.65492e-07 3.43769e-07 -7.28325e-05
0.00166633 1.27639e-06 -8.5195e-08
1.27639e-06 0.000104013 -2.6779e-07
-8.5195e-08 -2.6779e-07 -1.14354e-05
0.00173647 -2.77001e-05 -7.07035e-07
-2.77001e-05 0.000172398 1.81805e-07
-7.07035e-07 1.81805e-07 6.60509e-05
0.00167336 -6.6626e-06 -6.04323e-07
-6.6626e-06 0.000104932 6.94604e-07
-6.04323e-07 6.94604e-07 -3.8561e-06
0.00165507 -4.59748e-05 9.50402e-09
-4.59748e-05 9.08826e-05 -4.31443e-07
9.50402e-09 -4.31443e-07 -1.30511e-05
0.000976306 -7.15414e-05 -2.50649e-07
-7.15414e-05 0.00010023 1.15375e-07
-2.50649e-07 1.15375e-07 1.56535e-05
0.000746829 -9.26119e-05 5.29904e-07
-9.26119e-05 -1.83625e-05 -4.98862e-07
5.29904e-07 -4.98862e-07 -0.000119259
0.00111372 -0.000123047 1.02635e-07
-0.000123047 0.000123098 -1.83756e-07
1.02635e-07 -1.83756e-07 -4.01946e-06
0.00165153 -0.000106767 -3.74617e-07
-0.000106767 0.000128672 -4.47864e-07
-3.74617e-07 -4.47864e-07 1.66186e-05
0.00165765 -7.29118e-05 -3.74183e-07
-7.29118e-05 7.70416e-05 7.75893e-10
-3.74183e-07 7.75893e-10 -2.40739e-05
0.00133963 -0.000139186 -2.86601e-07
-0.000139186 0.000143757 6.18161e-07
-2.86601e-07 6.18161e-07 1.15882e-05
0.00144915 -0.000116388 -4.6752e-07
-0.000116388 6.49748e-05 1.14112e-06
-4.6752e-07 1.14112e-06 -4.03661e-05
0.00168814 -0.000140331 1.4269e-06
-0.000140331 0.000241022 -1.6352e-06
1.4269e-06 -1.6352e-06 0.000132854
0.00100932 -0.000101671 4.75349e-08
-0.000101671 0.000126403 -3.96707e-08
4.75349e-08 -3.96707e-08 3.26213e-05
0.000972291 -9.39387e-05 1.0371e-07
-9.39387e-05 0.000113053 1.85254e-07
1.0371e-07 1.85254e-07 1.70963e-05
0.000943163 -4.06577e-05 -3.18121e-07
-4.06577e-05 9.22383e-05 -2.4905e-08
-3.18121e-07 -2.4905e-08 9.67174e-06
0.000679399 2.68222e-05 -2.41056e-07
2.68222e-05 -6.11706e-05 5.54735e-09
-2.41056e-07 5.54735e-09 -0.000100415
0.000751612 2.30036e-05 7.67274e-08
2.30036e-05 -1.98075e-05 -3.3885e-07
7.67274e-08 -3.3885e-07 -8.31509e-05
0.0017104 1.79181e-06 7.23092e-07
1.79181e-06 9.67704e-05 -1.0635e-06
7.23092e-07 -1.0635e-06 -1.58228e-05
0.00166223 -1.33935e-05 9.24469e-07
-1.33935e-05 9.07896e-05 -4.02695e-07
9.24469e-07 -4.02695e-07 -1.54935e-05
0.0016334 -4.90809e-05 8.64197e-07
-4.90809e-05 5.21383e-05 -7.22846e-07
8.64197e-07 -7.22846e-07 -4.99283e-05
0.00140235 -8.84944e-05 8.74804e-08
-8.84944e-05 -3.65784e-05 -1.75992e-06
8.74804e-08 -1.75992e-06 -0.000142116
0.000925116 -9.90094e-05 -1.44312e-07
-9.90094e-05 7.98277e-05 1.22734e-06
-1.44312e-07 1.22734e-06 -1.47579e-05
0.00207465 -0.000144025 -1.47878e-06
-0.000144025 0.000346691 8.03384e-07
-1.47878e-06 8.03384e-07 0.000247497
0.000310801 -7.41148e-05 -1.83037e-07
-7.41148e-05 -0.000243377 -2.44348e-06
-1.83037e-07 -2.44348e-06 -0.000353401
0.00121251 -0.000136478 2.8977e-06
-0.000136478 0.000151203 -1.18087e-06
2.8977e-06 -1.18087e-06 8.2207e-06
0.00168834 -0.00015827 1.63307e-06
-0.00015827 0.000288981 2.47628e-06
1.63307e-06 2.47628e-06 0.000152397
0.000580946 2.05523e-05 1.29441e-06
2.05523e-05 -0.000116829 -2.42937e-06
1.29441e-06 -2.42937e-06 -0.000154559
0.000948475 8.21034e-07 1.40734e-06
8.21034e-07 8.76973e-05 -7.32855e-07
1.40734e-06 -7.32855e-07 2.82609e-05
0.000966418 -2.90917e-05 8.59214e-08
-2.90917e-05 0.000102148 -1.34827e-07
8.59214e-08 -1.34827e-07 2.80059e-05
0.000962203 -9.96985e-05 -5.99145e-07
-9.96985e-05 0.000102639 2.11388e-06
-5.99145e-07 2.11388e-06 7.61541e-06
0.00106148 -6.344e-05 3.85372e-07
-6.344e-05 0.00015782 1.24352e-06
3.85372e-07 1.24352e-06 6.6745e-05
0.00089665 -9.6036e-05 -2.96777e-07
-9.6036e-05 6.76588e-05 1.84629e-06
-2.96777e-07 1.84629e-06 -2.97848e-05
0.000713063 -3.24645e-05 -2.04897e-06
-3.24645e-05 -3.79804e-05 -3.37939e-06
-2.04897e-06 -3.37939e-06 -4.52991e-05
0.000788784 -3.62654e-05 -1.43968e-06
-3.62654e-05 5.25693e-06 -1.61787e-06
-1.43968e-06 -1.61787e-06 -3.14937e-05
0.00149263 9.89461e-05 -6.13121e-07
9.89461e-05 8.46523e-05 3.21398e-07
-6.13121e-07 3.21398e-07 -3.11557e-05
0.000870151 -2.99797e-05 6.75598e-08
-2.99797e-05 5.08257e-05 -1.12311e-06
6.75598e-08 -1.12311e-06 -1.28493e-05
0.000868087 3.78922e-05 -7.72529e-07
3.78922e-05 5.08331e-05 -3.3746e-07
-7.72529e-07 -3.3746e-07 -3.11328e-05
0.000853543 4.27439e-05 2.35672e-07
4.27439e-05 5.45371e-05 9.33807e-09
2.35672e-07 9.33807e-09 -3.47655e-05
0.00124092 0.000123069 -1.06436e-06
0.000123069 8.60023e-05 -1.96407e-06
-1.06436e-06 -1.96407e-06 -2.80885e-05
0.00140177 0.000124765 7.34737e-07
0.000124765 6.78552e-05 -8.96931e-09
7.34737e-07 -8.96931e-09 -5.52922e-05
0.000927062 0.000101205 -3.28247e-07
0.000101205 9.36662e-05 -2.99334e-07
-3.28247e-07 -2.99334e-07 -1.74248e-05
0.00129814 0.000131099 -1.53804e-06
0.000131099 0.00023272 1.26032e-06
-1.53804e-06 1.26032e-06 0.000107807
0.00148388 0.000136444 -2.25687e-06
0.000136444 0.000251079 -1.42568e-06
-2.25687e-06 -1.42568e-06 0.000141953
0.00079712 -2.87406e-05 2.06807e-09
-2.87406e-05 4.70147e-06 2.52403e-08
2.06807e-09 2.52403e-08 -2.82583e-05
0.00084198 -2.08043e-05 -2.56001e-07
-2.08043e-05 3.08699e-05 1.87615e-07
-2.56001e-07 1.87615e-07 -2.43076e-05
0.00100609 9.91599e-05 -4.84375e-07
9.91599e-05 0.000137009 -2.65719e-07
-4.84375e-07 -2.65719e-07 3.57714e-05
0.00089206 5.83009e-06 1.99427e-07
5.83009e-06 6.95839e-05 3.76135e-09
1.99427e-07 3.76135e-09 -7.87407e-06
0.000941069 6.17754e-05 1.27813e-07
6.17754e-05 0.000109022 -7.00401e-07
1.27813e-07 -7.00401e-07 8.2519e-06
0.00154161 9.9146e-05 -6.39569e-07
9.9146e-05 8.00048e-05 -2.93098e-07
-6.39569e-07 -2.93098e-07 -3.59054e-05
0.00132793 0.00013344 9.58483e-07
0.00013344 0.000101411 -3.36311e-09
9.58483e-07 -3.36311e-09 -1.63134e-05
0.00141096 0.000134653 8.14749e-07
0.000134653 6.09496e-05 2.11318e-06
8.14749e-07 2.11318e-06 -5.10079e-05
0.000777153 9.87313e-05 7.37303e-07
9.87313e-05 2.07502e-05 1.81604e-06
7.37303e-07 1.81604e-06 -0.000107884
0.00124398 0.000137839 -5.14454e-07
0.000137839 0.000148007 -1.15817e-06
-5.14454e-07 -1.15817e-06 1.7487e-05
0.000835324 -6.99744e-06 7.72555e-07
-6.99744e-06 2.59369e-05 9.25607e-07
7.72555e-07 9.25607e-07 -2.3632e-05
0.000768018 -1.35952e-05 -1.92195e-07
-1.35952e-05 -2.95855e-06 1.26014e-06
-1.92195e-07 1.26014e-06 -7.22964e-05
0.00106507 0.000107748 -4.89782e-07
0.000107748 0.000179844 -1.00521e-06
-4.89782e-07 -1.00521e-06 6.29382e-05
0.000799093 2.83102e-05 3.55329e-08
2.83102e-05 2.79763e-05 1.10428e-07
3.55329e-08 1.10428e-07 -6.50875e-05
0.00103895 7.68604e-05 -3.22276e-07
7.68604e-05 0.000154906 -1.68669e-06
-3.22276e-07 -1.68669e-06 4.66583e-05
0.00158828 9.55448e-05 -2.35418e-06
9.55448e-05 5.64141e-05 9.54307e-07
-2.35418e-06 9.54307e-07 -4.08627e-05
0.00175389 0.000167375 -9.2163e-07
0.000167375 0.000311374 -8.19607e-07
-9.2163e-07 -8.19607e-07 0.000183748
0.000565642 0.0001111 -2.54586e-07
0.0001111 -0.000424977 -6.58115e-07
-2.54586e-07 -6.58115e-07 -0.000528987
0.00171727 0.000150115 3.84307e-06
0.000150115 0.000498142 2.86921e-06
3.84307e-06 2.86921e-06 0.000356797
0.000160401 9.26201e-05 -3.32387e-07
9.26201e-05 -0.000410864 -7.8467e-07
-3.32387e-07 -7.8467e-07 -0.000555981
0.000805899 -2.07806e-05 -1.42231e-06
-2.07806e-05 4.97789e-06 -1.64814e-06
-1.42231e-06 -1.64814e-06 -2.53897e-05
0.00077207 -1.2846e-05 1.40747e-07
-1.2846e-05 -9.06906e-06 5.38681e-07
1.40747e-07 5.38681e-07 -5.68205e-05
0.00076864 -2.87336e-05 7.50369e-08
-2.87336e-05 -6.53959e-06 1.01736e-06
7.50369e-08 1.01736e-06 -6.62366e-05
0.000727422 -3.22651e-05 -7.70461e-07
-3.22651e-05 -3.37751e-05 -5.93453e-07
-7.70461e-07 -5.93453e-07 -8.07219e-05
0.000854094 -4.63788e-06 2.20499e-07
-4.63788e-06 3.22819e-05 -3.48415e-08
2.20499e-07 -3.48415e-08 -1.33298e-05
0.00088897 -1.93565e-05 1.94443e-07
-1.93565e-05 5.90544e-05 -3.78756e-07
1.94443e-07 -3.78756e-07 2.25399e-06
0.000990941 5.92294e-06 1.61658e-07
5.92294e-06 0.000118495 -3.27362e-07
1.61658e-07 -3.27362e-07 5.44642e-05
0.000790496 -3.47146e-05 1.70515e-07
-3.47146e-05 8.21418e-06 3.25354e-07
1.70515e-07 3.25354e-07 -4.92017e-05
0.000874829 -1.41731e-05 2.3088e-07
-1.41731e-05 3.88819e-05 6.88927e-07
2.3088e-07 6.88927e-07 -4.9284e-06
0.000822887 4.11535e-07 8.28208e-07
4.11535e-07 1.86447e-06 1.57071e-06
8.28208e-07 1.57071e-06 -2.46917e-05
0.000825526 -1.05375e-05 -1.48021e-07
-1.05375e-05 4.55476e-06 1.54633e-08
-1.48021e-07 1.54633e-08 -2.18675e-05
0.00128536 -1.91834e-05 1.1632e-06
-1.91834e-05 0.000247529 1.92266e-06
1.1632e-06 1.92266e-06 0.000250217
0.000819795 -1.51085e-05 -7.35332e-07
-1.51085e-05 4.82605e-06 -1.75038e-06
-7.35332e-07 -1.75038e-06 -2.23543e-05
0.00130251 -2.41343e-05 -3.22137e-06
-2.41343e-05 0.00026111 -1.15491e-06
-3.22137e-06 -1.15491e-06 0.000262949
0.000989701 -2.02518e-05 1.47362e-05
-2.02518e-05 9.43148e-05 6.14688e-06
1.47362e-05 6.14688e-06 0.000110229
0.00132153 -2.85294e-05 -7.81905e-06
-2.85294e-05 0.000276573 -4.34746e-06
-7.81905e-06 -4.34746e-06 0.00027691
0.000940549 -2.573e-05 6.01319e-06
-2.573e-05 7.38802e-05 2.35222e-06
6.01319e-06 2.35222e-06 8.80806e-05
0.00202779 -4.62223e-05 -6.19554e-06
-4.62223e-05 0.000669869 -1.52563e-06
-6.19554e-06 -1.52563e-06 0.000687619
0.000724288 2.87591e-05 1.55378e-06
2.87591e-05 -4.03515e-05 -3.51688e-06
1.55378e-06 -3.51688e-06 -4.83929e-05
0.000727891 3.26298e-05 -1.28801e-07
3.26298e-05 -3.25314e-05 1.91888e-08
-1.28801e-07 1.91888e-08 -4.30216e-05
0.00227757 5.0044e-05 2.52279e-05
5.0044e-05 0.000808208 -3.6768e-06
2.52279e-05 -3.6768e-06 0.000823591
0.000739556 3.73569e-05 -2.64335e-06
3.73569e-05 -1.98181e-05 3.62196e-06
-2.64335e-06 3.62196e-06 -3.30232e-05
0.0023402 5.64239e-05 -1.10411e-06
5.64239e-05 0.000849915 -9.36326e-08
-1.10411e-06 -9.36326e-08 0.000863191
0.00245225 6.24105e-05 -3.61361e-05
6.24105e-05 0.000917742 3.34127e-06
-3.61361e-05 3.34127e-06 0.000928752
0.00154901 7.92569e-05 -1.68579e-06
7.92569e-05 8.6632e-05 9.43815e-08
-1.68579e-06 9.43815e-08 -2.38196e-05
0.00163909 3.70521e-05 -9.40181e-07
3.70521e-05 0.00010501 -4.6069e-07
-9.40181e-07 -4.6069e-07 -4.01881e-06
0.00159189 5.08126e-05 1.52317e-06
5.08126e-05 5.57704e-05 1.46148e-07
1.52317e-06 1.46148e-07 -4.57121e-05
0.00170113 1.31311e-05 -2.31323e-07
1.31311e-05 9.61653e-05 -9.37872e-07
-2.31323e-07 -9.37872e-07 -1.25305e-05
0.00159547 3.89905e-07 -1.28301e-06
3.89905e-07 4.98784e-05 -4.37318e-07
-1.28301e-06 -4.37318e-07 -6.60656e-05
0.00156832 1.35578e-05 -4.09053e-06
1.35578e-05 7.92083e-05 2.20046e-07
-4.09053e-06 2.20046e-07 -3.40957e-05
0.00165779 3.50055e-06 1.65086e-07
3.50055e-06 8.41302e-05 -1.08716e-07
1.65086e-07 -1.08716e-07 -3.24974e-05
0.00178173 1.11198e-05 1.48614e-07
1.11198e-05 0.000124748 -5.19337e-08
1.48614e-07 -5.19337e-08 1.10703e-05
0.00163354 2.87252e-05 -1.9724e-07
2.87252e-05 6.74737e-05 2.66583e-07
-1.9724e-07 2.66583e-07 -3.77184e-05
0.00173183 1.10185e-05 3.0238e-07
1.10185e-05 9.68617e-05 -5.05307e-07
3.0238e-07 -5.05307e-07 -9.05913e-06
0.00158979 7.24158e-05 -5.1345e-07
7.24158e-05 7.37118e-05 1.34613e-07
-5.1345e-07 1.34613e-07 -3.25396e-05
0.00173897 4.36606e-05 1.43085e-06
4.36606e-05 0.000111992 -2.84589e-07
1.43085e-06 -2.84589e-07 1.61319e-05
0.00174788 1.03867e-05 2.56782e-07
1.03867e-05 0.000102499 -9.16433e-08
2.56782e-07 -9.16433e-08 -1.23276e-05
0.00175936 1.11532e-05 -5.17914e-07
1.11532e-05 9.90849e-05 3.48872e-07
-5.17914e-07 3.48872e-07 -9.6259e-06
0.00172897 2.47683e-05 -1.30419e-07
2.47683e-05 8.83228e-05 7.8031e-07
-1.30419e-07 7.8031e-07 -1.00177e-05
0.00177616 6.49668e-05 -1.01717e-06
6.49668e-05 0.00013216 -3.88307e-07
-1.01717e-06 -3.88307e-07 3.64501e-05
0.00164083 1.87131e-06 -1.78414e-06
1.87131e-06 9.08581e-05 5.294e-07
-1.78414e-06 5.294e-07 -2.4704e-05
0.00176966 -2.68121e-05 -2.60036e-06
-2.68121e-05 0.000189223 6.69566e-07
-2.60036e-06 6.69566e-07 8.30211e-05
0.00158541 -7.19944e-06 -1.4313e-06
-7.19944e-06 6.34083e-05 1.68961e-06
-1.4313e-06 1.68961e-06 -4.42782e-05
0.00172912 -4.69806e-05 -2.81761e-07
-4.69806e-05 0.000129915 1.27438e-07
-2.81761e-07 1.27438e-07 2.58656e-05
0.00104239 -7.05439e-05 -1.4437e-06
-7.05439e-05 0.00013472 -2.75547e-07
-1.4437e-06 -2.75547e-07 4.96071e-05
0.000861341 -9.76424e-05 5.97101e-07
-9.76424e-05 4.22035e-05 -1.48686e-07
5.97101e-07 -1.48686e-07 -5.7452e-05
0.00110645 -0.000121924 -9.4997e-07
-0.000121924 0.000121075 1.68028e-06
-9.4997e-07 1.68028e-06 -6.3296e-06
0.00179508 -0.000110163 -3.9999e-07
-0.000110163 0.000205855 -1.71208e-07
-3.9999e-07 -1.71208e-07 9.34799e-05
0.00158588 -7.2072e-05 -1.54e-06
-7.2072e-05 4.14682e-05 2.99457e-07
-1.54e-06 2.99457e-07 -5.77773e-05
0.00160259 -0.00011996 2.35972e-06
-0.00011996 0.000143027 2.30481e-06
2.35972e-06 2.30481e-06 3.74487e-05
0.001314 -0.000136496 -1.02474e-06
-0.000136496 0.00013171 -7.48883e-07
-1.02474e-06 -7.48883e-07 -1.19121e-06
0.00127056 -0.000124644 1.3745e-07
-0.000124644 2.32502e-05 -6.42323e-06
1.3745e-07 -6.42323e-06 -8.16607e-05
0.00105764 -0.000104249 -1.38742e-07
-0.000104249 0.000151135 -1.30224e-06
-1.38742e-07 -1.30224e-06 5.72576e-05
0.00101633 -9.474e-05 -7.90325e-08
-9.474e-05 0.000134654 -1.88588e-06
-7.90325e-08 -1.88588e-06 3.87979e-05
0.000911251 -2.24073e-05 1.63567e-07
-2.24073e-05 7.48176e-05 1.11043e-07
1.63567e-07 1.11043e-07 -6.89312e-06
0.000565708 2.66974e-05 -1.24633e-06
2.66974e-05 -0.000122059 1.80594e-06
-1.24633e-06 1.80594e-06 -0.000162147
0.000774226 3.61113e-05 -1.40582e-07
3.61113e-05 -1.00568e-05 3.64228e-07
-1.40582e-07 3.64228e-07 -7.15283e-05
0.00169551 1.4453e-06 -4.07873e-07
1.4453e-06 9.13732e-05 4.72765e-08
-4.07873e-07 4.72765e-08 -2.05875e-05
0.00167917 -1.41684e-05 -1.86378e-08
-1.41684e-05 0.000100308 -2.82993e-07
-1.86378e-08 -2.82993e-07 -5.99683e-06
0.00174546 -5.06594e-05 -8.5023e-07
-5.06594e-05 0.000113225 -1.80406e-07
-8.5023e-07 -1.80406e-07 1.10806e-05
0.00102133 -0.000103608 -1.73774e-08
-0.000103608 0.000128646 2.61367e-07
-1.73774e-08 2.61367e-07 3.36887e-05
0.000737859 -9.52707e-05 1.22982e-06
-9.52707e-05 -2.22652e-05 -1.12406e-06
1.22982e-06 -1.12406e-06 -0.000132032
0.00117903 -0.000133876 -1.7302e-07
-0.000133876 0.000137043 -5.67789e-08
-1.7302e-07 -5.67789e-08 -6.53864e-06
0.00166178 -9.43695e-05 5.13827e-07
-9.43695e-05 9.50243e-05 -1.24424e-06
5.13827e-07 -1.24424e-06 -1.02165e-05
0.00157385 -0.000150368 -2.19357e-07
-0.000150368 0.000229624 -1.84753e-07
-2.19357e-07 -1.84753e-07 9.67772e-05
0.00157162 -0.000130585 -1.51906e-06
-0.000130585 0.000100256 9.54674e-08
-1.51906e-06 9.54674e-08 1.93423e-06
0.000576767 2.35073e-05 8.89906e-08
2.35073e-05 -0.000119237 -5.89972e-07
8.89906e-08 -5.89972e-07 -0.000156681
0.00101468 -0.000102462 -1.39721e-08
-0.000102462 0.000129569 1.0601e-07
-1.39721e-08 1.0601e-07 3.43132e-05
0.000920482 -9.68716e-05 -5.21241e-07
-9.68716e-05 8.09568e-05 2.31281e-07
-5.21241e-07 2.31281e-07 -1.61092e-05
0.00104586 -6.76756e-05 -3.16954e-07
-6.76756e-05 0.000152606 8.01501e-07
-3.16954e-07 8.01501e-07 5.9396e-05
0.000993218 -2.46913e-05 1.84237e-08
-2.46913e-05 0.000117001 2.28873e-08
1.84237e-08 2.28873e-08 4.28089e-05
0.000841268 1.38715e-05 -2.00202e-07
1.38715e-05 2.76795e-05 2.03519e-07
-2.00202e-07 2.03519e-07 -3.06947e-05
0.00179606 -3.71647e-06 4.33321e-07
-3.71647e-06 0.000126737 -7.84177e-07
4.33321e-07 -7.84177e-07 1.85377e-05
0.00175807 -1.86605e-05 -2.44157e-07
-1.86605e-05 0.000110452 -2.54406e-07
-2.44157e-07 -2.54406e-07 1.09645e-05
0.00142831 -6.01612e-05 1.5903e-06
-6.01612e-05 -6.53257e-05 -5.85857e-08
1.5903e-06 -5.85857e-08 -0.000168427
0.00188724 -0.000117627 8.02319e-07
-0.000117627 0.000151521 -3.35291e-06
8.02319e-07 -3.35291e-06 4.81594e-05
0.000947185 -0.000101267 -8.17355e-07
-0.000101267 9.28884e-05 1.26766e-06
-8.17355e-07 1.26766e-06 -5.80634e-06
0.001716 -0.000153505 2.94123e-06
-0.000153505 0.000207388 2.77061e-06
2.94123e-06 2.77061e-06 8.73944e-05
0.00066693 -9.91519e-05 -4.12324e-07
-9.91519e-05 -6.7894e-05 -3.00747e-06
-4.12324e-07 -3.00747e-06 -0.000199502
0.00158246 -0.000159693 9.18241e-07
-0.000159693 0.0003218 1.10914e-06
9.18241e-07 1.10914e-06 0.0001653
0.000594394 1.99566e-05 8.13866e-07
1.99566e-05 -0.000111934 -2.39327e-06
8.13866e-07 -2.39327e-06 -0.000147069
0.000959962 -1.27393e-06 1.15255e-06
-1.27393e-06 9.20103e-05 -8.82851e-07
1.15255e-06 -8.82851e-07 3.6702e-05
0.00103436 -3.08653e-05 2.39624e-07
-3.08653e-05 0.000139486 5.51129e-07
2.39624e-07 5.51129e-07 6.84832e-05
0.000960407 -2.53876e-05 4.99193e-07
-2.53876e-05 0.000102745 -8.28849e-07
4.99193e-07 -8.28849e-07 1.83096e-05
0.00105911 -0.000105054 -3.66795e-07
-0.000105054 0.000149736 2.18019e-06
-3.66795e-07 2.18019e-06 5.1806e-05
0.000955881 -0.000100696 -1.40368e-06
-0.000100696 0.000100246 3.10341e-06
-1.40368e-06 3.10341e-06 4.53616e-07
0.0007977 -2.76617e-05 -1.53666e-06
-2.76617e-05 5.1396e-06 -1.60171e-06
-1.53666e-06 -1.60171e-06 -2.77394e-05
0.000838052 -3.27713e-05 -2.75773e-07
-3.27713e-05 2.87937e-05 -9.33306e-07
-2.75773e-07 -9.33306e-07 -2.63307e-05
0.00155117 0.000101739 5.56492e-07
0.000101739 8.67839e-05 7.14454e-07
5.56492e-07 7.14454e-07 -2.97619e-05
0.000893308 -4.50016e-06 8.73948e-09
-4.50016e-06 6.77949e-05 -4.46267e-07
8.73948e-09 -4.46267e-07 -8.27922e-06
0.000937857 9.57387e-05 -1.36688e-07
9.57387e-05 0.000102714 -2.44427e-07
-1.36688e-07 -2.44427e-07 2.18499e-06
0.000857278 4.81103e-05 -1.44847e-07
4.81103e-05 6.24374e-05 -7.29201e-08
-1.44847e-07 -7.29201e-08 -3.75246e-05
0.00135152 0.000134304 -5.98186e-07
0.000134304 0.000113056 -2.08216e-06
-5.98186e-07 -2.08216e-06 -4.89194e-06
0.00154918 0.000138244 2.14148e-06
0.000138244 0.000127347 -2.54567e-07
2.14148e-06 -2.54567e-07 1.80081e-05
0.000635466 9.17544e-05 4.11708e-07
9.17544e-05 -5.28892e-05 7.66862e-07
4.11708e-07 7.66862e-07 -0.000180683
0.00130506 0.000140685 -1.19991e-06
0.000140685 0.000182168 2.52866e-07
-1.19991e-06 2.52866e-07 4.80091e-05
0.000834336 -1.88388e-05 -2.79763e-07
-1.88388e-05 2.5272e-05 1.09425e-07
-2.79763e-07 1.09425e-07 -2.43926e-05
0.000819574 -5.34967e-06 2.92735e-08
-5.34967e-06 2.42734e-05 6.32172e-07
2.92735e-08 6.32172e-07 -4.49275e-05
0.00106527 0.000107562 4.73802e-08
0.000107562 0.000182819 -1.00115e-06
4.73802e-08 -1.00115e-06 6.71838e-05
0.000846345 5.37978e-06 -1.58628e-07
5.37978e-06 4.89914e-05 2.95668e-08
-1.58628e-07 2.95668e-08 -4.09248e-05
0.000940269 6.97038e-05 -9.55005e-07
6.97038e-05 0.000105433 -9.72452e-07
-9.55005e-07 -9.72452e-07 -2.40601e-06
0.00176177 9.89678e-05 -1.45157e-06
9.89678e-05 0.000146046 -3.49973e-07
-1.45157e-06 -3.49973e-07 4.80878e-05
0.00170053 0.000164313 1.72122e-06
0.000164313 0.000277403 2.90606e-07
1.72122e-06 2.90606e-07 0.000151061
0.000994275 0.000126689 -6.78637e-07
0.000126689 -0.00018622 6.14031e-07
-6.78637e-07 6.14031e-07 -0.000281177
0.00129049 0.00012889 1.11819e-06
0.00012889 0.00027798 1.30092e-06
1.11819e-06 1.30092e-06 0.000137524
0.000676205 0.000119307 -1.54595e-06
0.000119307 -0.000145399 -1.04723e-06
-1.54595e-06 -1.04723e-06 -0.000298413
0.000769496 -1.81667e-05 2.14438e-07
-1.81667e-05 -5.82948e-06 1.08233e-06
2.14438e-07 1.08233e-06 -6.79894e-05
0.000728319 2.90066e-05 8.77255e-08
2.90066e-05 -1.40316e-05 8.62283e-08
8.77255e-08 8.62283e-08 -9.9815e-05
0.00105594 0.000107498 2.71005e-07
0.000107498 0.000178364 -8.31801e-07
2.71005e-07 -8.31801e-07 5.16004e-05
0.000551714 4.41574e-05 -4.72902e-08
4.41574e-05 -0.000100367 1.02696e-07
-4.72902e-08 1.02696e-07 -0.000208347
0.0020515 8.03937e-05 -2.36892e-06
8.03937e-05 0.000224814 2.08453e-08
-2.36892e-06 2.08453e-08 0.000141775
0.00172693 0.000124667 1.80875e-06
0.000124667 7.53491e-05 1.69616e-06
1.80875e-06 1.69616e-06 -9.98904e-06
0.00146007 0.000165646 3.44234e-07
0.000165646 0.000128401 -3.93414e-06
3.44234e-07 -3.93414e-06 -1.17647e-05
0.000279565 8.45257e-05 -5.69055e-07
8.45257e-05 -0.000270475 1.5269e-06
-5.69055e-07 1.5269e-06 -0.00043872
0.000846126 2.31234e-06 -7.11015e-07
2.31234e-06 3.33364e-05 -3.82668e-07
-7.11015e-07 -3.82668e-07 -1.58243e-05
0.00085209 -1.15216e-05 -1.59066e-07
-1.15216e-05 3.95096e-05 3.77132e-07
-1.59066e-07 3.77132e-07 -2.0815e-05
0.000943317 -1.91348e-05 5.75045e-08
-1.91348e-05 9.14698e-05 4.94821e-07
5.75045e-08 4.94821e-07 2.43813e-05
0.000848556 -2.08634e-05 -7.63417e-07
-2.08634e-05 2.76374e-05 -6.72538e-07
-7.63417e-07 -6.72538e-07 -1.68317e-05
0.000744388 -3.71989e-05 1.89473e-07
-3.71989e-05 -1.80637e-05 -5.60037e-07
1.89473e-07 -5.60037e-07 -7.56361e-05
0.000861812 -1.33058e-05 4.44994e-08
-1.33058e-05 3.1908e-05 3.83471e-08
4.44994e-08 3.83471e-08 -1.18917e-05
0.00091137 1.49028e-05 -1.71856e-07
1.49028e-05 7.95775e-05 -3.32728e-07
-1.71856e-07 -3.32728e-07 1.25106e-05
0.000808202 -1.78617e-05 1.51535e-07
-1.78617e-05 1.99678e-05 2.90892e-07
1.51535e-07 2.90892e-07 -3.8836e-05
0.00093918 -3.4703e-06 2.77315e-07
-3.4703e-06 9.32072e-05 -8.97288e-08
2.77315e-07 -8.97288e-08 2.29361e-05
0.000816553 -3.79506e-05 -2.38591e-07
-3.79506e-05 2.65455e-05 3.42398e-07
-2.38591e-07 3.42398e-07 -3.85855e-05
0.000759775 9.00895e-06 3.645e-07
9.00895e-06 -9.04572e-06 5.11631e-07
3.645e-07 5.11631e-07 -6.57681e-05
0.000871326 2.44711e-06 4.18175e-07
2.44711e-06 3.55518e-05 6.24659e-07
4.18175e-07 6.24659e-07 -8.18406e-06
0.000815613 4.97724e-06 6.88252e-07
4.97724e-06 -1.68056e-06 1.50531e-06
6.88252e-07 1.50531e-06 -2.89767e-05
0.000821841 -6.15196e-06 -2.45292e-07
-6.15196e-06 1.4407e-06 4.73786e-09
-2.45292e-07 4.73786e-09 -2.52026e-05
0.00129252 -1.26916e-05 9.60765e-07
-1.26916e-05 0.000248611 1.8581e-06
9.60765e-07 1.8581e-06 0.000251495
0.000816558 -1.53188e-05 -3.91138e-07
-1.53188e-05 -8.12354e-08 -1.66465e-06
-3.91138e-07 -1.66465e-06 -2.65533e-05
0.00130729 -1.77874e-05 -2.58315e-06
-1.77874e-05 0.000259373 -1.19276e-06
-2.58315e-06 -1.19276e-06 0.000262003
0.000993278 -1.55835e-05 1.18007e-05
-1.55835e-05 9.20837e-05 6.24289e-06
1.18007e-05 6.24289e-06 0.000108598
0.0013216 -2.29824e-05 -6.06146e-06
-2.29824e-05 0.000271114 -4.29334e-06
-6.06146e-06 -4.29334e-06 0.000273017
0.000942717 -2.11651e-05 4.58096e-06
-2.11651e-05 6.90141e-05 2.35861e-06
4.58096e-06 2.35861e-06 8.48463e-05
0.000883002 -2.60072e-05 -2.26144e-06
-2.60072e-05 4.31143e-05 -1.59537e-06
-2.26144e-06 -1.59537e-06 5.72914e-05
0.000734829 2.49337e-05 1.08651e-06
2.49337e-05 -4.04414e-05 -3.42793e-06
1.08651e-06 -3.42793e-06 -4.60344e-05
0.000737132 2.90784e-05 -1.64651e-07
2.90784e-05 -3.35987e-05 2.00098e-08
-1.64651e-07 2.00098e-08 -4.17118e-05
0.00222508 4.32697e-05 2.14131e-05
4.32697e-05 0.000773375 -3.79133e-06
2.14131e-05 -3.79133e-06 0.000790612
0.000746422 3.31427e-05 -2.30834e-06
3.31427e-05 -2.27582e-05 3.53732e-06
-2.30834e-06 3.53732e-06 -3.33483e-05
0.00228925 5.00829e-05 -1.23711e-06
5.00829e-05 0.000815391 -8.73292e-08
-1.23711e-06 -8.73292e-08 0.000830578
0.00235748 5.61852e-05 -3.16552e-05
5.61852e-05 0.000860023 3.49034e-06
-3.16552e-05 3.49034e-06 0.000873146
0.00161401 7.37756e-05 1.29467e-06
7.37756e-05 8.59017e-05 1.20356e-06
1.29467e-06 1.20356e-06 -2.03365e-05
0.00163491 2.69228e-05 -9.11893e-08
2.69228e-05 6.79205e-05 -4.32256e-07
-9.11893e-08 -4.32256e-07 -3.79261e-05
0.00160277 4.3102e-05 2.04886e-06
4.3102e-05 4.18465e-05 -7.75437e-07
2.04886e-06 -7.75437e-07 -5.26645e-05
0.00170673 1.13908e-05 5.49715e-07
1.13908e-05 8.05144e-05 -1.20545e-06
5.49715e-07 -1.20545e-06 -2.50487e-05
0.00178782 8.13697e-06 9.39731e-08
8.13697e-06 0.000129582 -4.17169e-07
9.39731e-08 -4.17169e-07 1.56273e-05
0.00165706 2.23636e-06 -1.57108e-06
2.23636e-06 8.42928e-05 3.93797e-08
-1.57108e-06 3.93797e-08 -3.25278e-05
0.00176564 1.11032e-05 -6.5577e-08
1.11032e-05 0.000113834 -4.88301e-09
-6.5577e-08 -4.88301e-09 -6.22969e-07
0.00176404 7.2919e-06 1.77639e-07
7.2919e-06 0.000102255 -4.93563e-08
1.77639e-07 -4.93563e-08 -6.45354e-06
0.00172968 2.57259e-05 7.81817e-07
2.57259e-05 8.78545e-05 -1.1021e-07
7.81817e-07 -1.1021e-07 -1.05549e-05
0.00171159 6.06827e-05 1.75355e-07
6.06827e-05 9.6863e-05 -8.38105e-08
1.75355e-07 -8.38105e-08 1.49814e-06
0.00180182 6.30616e-06 -9.16637e-07
6.30616e-06 0.000116651 4.30751e-08
-9.16637e-07 4.30751e-08 6.35001e-06
0.00187896 1.05885e-05 -6.0137e-07
1.05885e-05 0.000140904 3.323e-07
-6.0137e-07 3.323e-07 4.30426e-05
0.00177263 4.67668e-05 6.42405e-08
4.67668e-05 9.31218e-05 6.11125e-07
6.42405e-08 6.11125e-07 1.15891e-06
0.00167694 1.28784e-06 -1.09409e-06
1.28784e-06 8.4107e-05 7.66297e-07
-1.09409e-06 7.66297e-07 -2.72342e-05
0.00169302 -1.49891e-05 -1.00049e-06
-1.49891e-05 0.000108344 4.41151e-07
-1.00049e-06 4.41151e-07 2.01612e-06
0.00185195 -5.23425e-05 -6.18968e-07
-5.23425e-05 0.000171258 1.90896e-08
-6.18968e-07 1.90896e-08 6.90558e-05
0.00110497 -0.000107418 -2.79973e-07
-0.000107418 0.000170825 -4.41274e-07
-2.79973e-07 -4.41274e-07 7.5592e-05
0.00118829 -0.000117689 2.36617e-07
-0.000117689 0.000211153 4.56776e-07
2.36617e-07 4.56776e-07 0.000101507
0.00111332 -0.000129445 -1.68692e-06
-0.000129445 0.000106012 1.98674e-06
-1.68692e-06 1.98674e-06 -3.86318e-05
0.00193616 -0.000100642 -5.73961e-07
-0.000100642 0.000233942 -5.65669e-08
-5.73961e-07 -5.65669e-08 0.000128992
0.00110065 -0.000117982 -3.68742e-06
-0.000117982 -0.000130873 2.44571e-06
-3.68742e-06 2.44571e-06 -0.000228303
0.0014864 -0.000144021 -2.0747e-06
-0.000144021 0.000183677 -3.2156e-06
-2.0747e-06 -3.2156e-06 5.45317e-05
0.0010637 -0.000105026 3.59691e-07
-0.000105026 0.000154738 -1.7609e-06
3.59691e-07 -1.7609e-06 5.92633e-05
0.000878763 -9.40841e-05 -1.38834e-06
-9.40841e-05 6.04075e-05 -2.01058e-06
-1.38834e-06 -2.01058e-06 -3.59912e-05
0.00101841 -8.02301e-05 4.04288e-07
-8.02301e-05 0.000142464 9.88677e-08
4.04288e-07 9.88677e-08 4.62497e-05
0.00056251 2.45886e-05 -9.69808e-07
2.45886e-05 -0.000126869 1.19251e-06
-9.69808e-07 1.19251e-06 -0.000164037
0.00102054 -1.28984e-05 9.11894e-09
-1.28984e-05 0.000130254 7.01773e-08
9.11894e-09 7.01773e-08 5.71974e-05
0.000727146 2.44141e-05 -1.68885e-07
2.44141e-05 -3.5916e-05 1.11091e-06
-1.68885e-07 1.11091e-06 -9.32521e-05
0.00178369 -1.82825e-06 -8.17059e-08
-1.82825e-06 0.000118199 -3.61256e-08
-8.17059e-08 -3.61256e-08 9.47698e-06
0.00173616 -2.0222e-05 6.913e-07
-2.0222e-05 0.000100418 -1.19513e-07
6.913e-07 -1.19513e-07 1.09484e-06
0.00162025 -6.13946e-05 8.91362e-08
-6.13946e-05 3.3532e-05 -1.09895e-07
8.91362e-08 -1.09895e-07 -6.93677e-05
0.00102934 -0.000105324 -1.31253e-08
-0.000105324 0.000134083 7.39102e-07
-1.31253e-08 7.39102e-07 3.47991e-05
0.000780926 -0.000103665 -2.68011e-07
-0.000103665 -2.44908e-06 3.26673e-07
-2.68011e-07 3.26673e-07 -0.000131277
0.00161182 -0.000160378 -1.92188e-06
-0.000160378 0.000333385 1.41229e-06
-1.92188e-06 1.41229e-06 0.000176945
0.00195445 -0.000120621 -5.60374e-07
-0.000120621 0.000194605 2.78151e-07
-5.60374e-07 2.78151e-07 9.29863e-05
0.00151377 -0.000146361 2.05655e-06
-0.000146361 0.000100905 -1.59872e-06
2.05655e-06 -1.59872e-06 -1.89177e-05
0.0006971 1.9877e-05 1.70865e-07
1.9877e-05 -5.72603e-05 -5.74844e-07
1.70865e-07 -5.74844e-07 -9.12872e-05
0.000945 9.18312e-06 -3.06153e-07
9.18312e-06 8.36071e-05 1.71016e-07
-3.06153e-07 1.71016e-07 2.88613e-05
0.000843211 -9.38542e-05 -8.84186e-07
-9.38542e-05 3.63801e-05 2.51144e-07
-8.84186e-07 2.51144e-07 -6.04941e-05
0.00100283 -9.86586e-05 1.23222e-06
-9.86586e-05 0.000123607 8.70203e-07
1.23222e-06 8.70203e-07 2.63158e-05
0.000911371 -2.83159e-05 7.47046e-09
-2.83159e-05 7.7796e-05 -3.5791e-07
7.47046e-09 -3.5791e-07 -7.90123e-06
0.000971031 -2.71627e-05 -5.91238e-07
-2.71627e-05 0.000105484 8.41836e-07
-5.91238e-07 8.41836e-07 3.45338e-05
0.00178003 -7.03997e-06 -2.08106e-06
-7.03997e-06 9.9181e-05 -1.11872e-07
-2.08106e-06 -1.11872e-07 -1.22328e-06
0.00174632 -3.15539e-05 -7.01253e-08
-3.15539e-05 7.94056e-05 2.83772e-07
-7.01253e-08 2.83772e-07 -1.27596e-05
0.00167321 -8.17383e-05 -1.35336e-07
-8.17383e-05 1.24544e-05 -6.99652e-07
-1.35336e-07 -6.99652e-07 -8.6043e-05
0.0018347 -0.000150142 3.8109e-07
-0.000150142 0.000120395 -2.66393e-06
3.8109e-07 -2.66393e-06 2.17953e-05
0.000682279 -8.92639e-05 -1.56759e-06
-8.92639e-05 -3.17798e-05 8.74468e-07
-1.56759e-06 8.74468e-07 -0.000138539
0.00152368 -0.000163423 -1.17742e-06
-0.000163423 0.00021962 4.19882e-06
-1.17742e-06 4.19882e-06 5.47299e-05
0.00169822 -0.00015748 8.60615e-07
-0.00015748 0.00045689 -2.76248e-06
8.60615e-07 -2.76248e-06 0.000306638
0.000820886 1.60241e-05 5.70727e-07
1.60241e-05 6.1691e-06 -1.69258e-06
5.70727e-07 -1.69258e-06 -2.45733e-05
0.0008281 -4.66367e-05 9.22379e-07
-4.66367e-05 2.78798e-05 -8.88942e-07
9.22379e-07 -8.88942e-07 -2.30136e-05
0.000717757 9.6927e-06 5.17854e-07
9.6927e-06 -3.46944e-05 -1.43095e-06
5.17854e-07 -1.43095e-06 -9.0608e-05
0.000917392 -3.02811e-05 9.59039e-07
-3.02811e-05 7.90675e-05 -1.75905e-07
9.59039e-07 -1.75905e-07 9.51153e-06
0.000920141 1.17289e-05 -7.78228e-09
1.17289e-05 8.03447e-05 -2.55483e-07
-7.78228e-09 -2.55483e-07 3.32456e-06
0.000789545 -9.32718e-05 2.34009e-06
-9.32718e-05 3.37242e-05 1.87239e-06
2.34009e-06 1.87239e-06 -6.91627e-05
0.000802786 -9.09179e-05 -2.73337e-06
-9.09179e-05 -6.18041e-06 2.27031e-06
-2.73337e-06 2.27031e-06 -9.46536e-05
0.0018452 -0.000148047 -2.08208e-06
-0.000148047 0.000584311 2.81589e-06
-2.08208e-06 2.81589e-06 0.000484093
0.000843438 -3.18873e-05 -4.46981e-07
-3.18873e-05 2.9927e-05 -8.72305e-07
-4.46981e-07 -8.72305e-07 -1.98086e-05
0.000872985 3.86434e-06 -3.00933e-07
3.86434e-06 5.26302e-05 1.07374e-07
-3.00933e-07 1.07374e-07 -1.64744e-05
0.00197157 0.00010271 1.24398e-06
0.00010271 0.000254431 1.94184e-07
1.24398e-06 1.94184e-07 0.000155826
0.000895609 1.62118e-05 -2.34551e-07
1.62118e-05 7.68077e-05 -2.76809e-07
-2.34551e-07 -2.76809e-07 -1.39508e-05
0.00106456 0.000107351 -3.08829e-07
0.000107351 0.00018528 -2.16103e-06
-3.08829e-07 -2.16103e-06 7.08731e-05
0.000829632 6.20615e-05 -8.91051e-07
6.20615e-05 5.02852e-05 1.79382e-07
-8.91051e-07 1.79382e-07 -5.71413e-05
0.00161181 0.000159649 6.71385e-07
0.000159649 0.000224664 -4.39206e-07
6.71385e-07 -4.39206e-07 9.9773e-05
0.00139727 0.000141854 4.21614e-06
0.000141854 3.85666e-05 2.4455e-06
4.21614e-06 2.4455e-06 -4.72831e-05
0.000835226 0.000106034 8.69438e-07
0.000106034 4.28211e-05 1.21054e-06
8.69438e-07 1.21054e-06 -9.68073e-05
0.00112223 0.000142725 -3.5269e-06
0.000142725 8.23905e-05 -2.02696e-06
-3.5269e-06 -2.02696e-06 -7.77293e-05
0.000772206 -3.9172e-06 1.83081e-07
-3.9172e-06 -2.2342e-06 4.69152e-07
1.83081e-07 4.69152e-07 -6.65766e-05
0.000801881 3.86654e-05 -1.13663e-07
3.86654e-05 2.61552e-05 -8.99082e-07
-1.13663e-07 -8.99082e-07 -6.00728e-05
0.00104195 0.000107178 -5.13582e-07
0.000107178 0.000173592 -1.01115e-06
-5.13582e-07 -1.01115e-06 4.66894e-05
0.000826929 5.81386e-05 -4.36838e-07
5.81386e-05 4.41266e-05 -2.95105e-07
-4.36838e-07 -2.95105e-07 -6.42993e-05
0.00199797 7.61823e-05 1.2698e-07
7.61823e-05 0.000196257 1.5917e-07
1.2698e-07 1.5917e-07 0.000112874
0.0014963 0.000118646 2.25133e-06
0.000118646 -2.59239e-05 -1.30264e-06
2.25133e-06 -1.30264e-06 -0.000112357
0.00197956 0.000185285 -3.41079e-06
0.000185285 0.000395894 -3.43793e-07
-3.41079e-06 -3.43793e-07 0.000259181
0.000671036 0.000107812 1.26027e-06
0.000107812 -7.95256e-05 5.34574e-07
1.26027e-06 5.34574e-07 -0.000246324
0.00092026 -6.49657e-06 2.2162e-07
-6.49657e-06 7.91307e-05 2.22639e-07
2.2162e-07 2.22639e-07 7.64227e-06
0.00161322 4.651e-05 -2.29162e-06
4.651e-05 -6.41634e-06 3.48384e-07
-2.29162e-06 3.48384e-07 -8.49758e-05
0.00115674 9.4686e-05 -2.80973e-08
9.4686e-05 0.00022983 1.6087e-06
-2.80973e-08 1.6087e-06 0.000124415
0.00106521 0.000111734 1.09734e-07
0.000111734 0.000163784 5.62923e-07
1.09734e-07 5.62923e-07 2.88929e-05
0.00218598 9.94316e-05 -2.65537e-06
9.94316e-05 0.000230287 6.26259e-08
-2.65537e-06 6.26259e-08 0.000157854
0.00175786 0.000182344 3.08631e-06
0.000182344 0.000118666 -3.38226e-06
3.08631e-06 -3.38226e-06 6.95891e-06
0.00157027 0.000162873 -1.50982e-06
0.000162873 0.000320372 2.55087e-06
-1.50982e-06 2.55087e-06 0.000139987
0.000934428 -5.22936e-06 -1.26601e-06
-5.22936e-06 8.23247e-05 -2.16633e-07
-1.26601e-06 -2.16633e-07 2.30569e-05
0.000931367 -1.8041e-05 -6.70224e-08
-1.8041e-05 8.49301e-05 1.6924e-08
-6.70224e-08 1.6924e-08 1.78527e-05
0.000930945 -1.33155e-05 1.58573e-07
-1.33155e-05 8.96386e-05 6.89468e-07
1.58573e-07 6.89468e-07 1.52591e-05
0.000849551 -2.07924e-05 -3.44405e-07
-2.07924e-05 2.61468e-05 -6.90757e-07
-3.44405e-07 -6.90757e-07 -1.81603e-05
0.000846519 -8.64387e-06 1.32944e-08
-8.64387e-06 4.06632e-05 2.53508e-07
1.32944e-08 2.53508e-07 -1.82391e-05
0.000819865 5.1636e-07 -2.54564e-07
5.1636e-07 3.1838e-05 -6.09774e-07
-2.54564e-07 -6.09774e-07 -3.64228e-05
0.000859912 -1.77589e-05 -1.4598e-07
-1.77589e-05 3.14293e-05 1.74386e-08
-1.4598e-07 1.74386e-08 -1.36549e-05
0.000781641 -2.01596e-05 -5.14485e-07
-2.01596e-05 3.19362e-06 3.17875e-07
-5.14485e-07 3.17875e-07 -5.41242e-05
0.000910169 -2.31918e-05 2.98528e-07
-2.31918e-05 7.70229e-05 -3.7233e-07
2.98528e-07 -3.7233e-07 6.24762e-06
0.000896421 3.86236e-06 1.12574e-07
3.86236e-06 7.19761e-05 4.96518e-07
1.12574e-07 4.96518e-07 5.63677e-06
0.000893772 -8.24263e-06 4.83441e-07
-8.24263e-06 6.74657e-05 -6.40261e-07
4.83441e-07 -6.40261e-07 -6.8754e-06
0.000822716 -3.90326e-05 3.12319e-08
-3.90326e-05 2.97553e-05 1.50902e-07
3.12319e-08 1.50902e-07 -4.0703e-05
0.000926954 1.10386e-05 3.82466e-07
1.10386e-05 8.48478e-05 -4.2319e-08
3.82466e-07 -4.2319e-08 2.15393e-05
0.00086235 7.46219e-06 1.20581e-06
7.46219e-06 4.5309e-05 3.07021e-07
1.20581e-06 3.07021e-07 -1.33288e-05
0.000867511 3.34036e-06 4.97297e-07
3.34036e-06 3.36207e-05 5.87892e-07
4.97297e-07 5.87892e-07 -1.09032e-05
0.000811624 9.17774e-06 4.43533e-07
9.17774e-06 -2.77426e-06 1.44968e-06
4.43533e-07 1.44968e-06 -3.08634e-05
0.000818574 -1.64347e-06 -1.63396e-07
-1.64347e-06 1.95623e-09 8.52505e-10
-1.63396e-07 8.52505e-10 -2.73209e-05
0.00129731 -6.20621e-06 7.32778e-07
-6.20621e-06 0.000249744 1.81787e-06
7.32778e-07 1.81787e-06 0.000252441
0.000825504 -1.25181e-05 -2.92392e-07
-1.25181e-05 3.53943e-06 -1.5696e-06
-2.92392e-07 -1.5696e-06 -2.31939e-05
0.0013169 -1.14713e-05 -1.90298e-06
-1.14713e-05 0.000262027 -1.22113e-06
-1.90298e-06 -1.22113e-06 0.000264757
0.00100143 -1.07705e-05 8.74191e-06
-1.07705e-05 9.38156e-05 6.35751e-06
8.74191e-06 6.35751e-06 0.000110497
0.00133188 -1.68274e-05 -4.52153e-06
-1.68274e-05 0.000272605 -4.26812e-06
-4.52153e-06 -4.26812e-06 0.000275111
0.000954233 -1.6196e-05 3.24575e-06
-1.6196e-05 7.05969e-05 2.39929e-06
3.24575e-06 2.39929e-06 8.7195e-05
0.000894486 -2.12077e-05 -1.66101e-06
-2.12077e-05 4.30077e-05 -1.56725e-06
-1.66101e-06 -1.56725e-06 5.89157e-05
0.000813593 1.1899e-05 2.6301e-07
1.1899e-05 -2.97582e-07 -1.63371e-06
2.6301e-07 -1.63371e-06 -2.86471e-05
0.000747234 2.02316e-05 8.96301e-07
2.02316e-05 -3.93904e-05 -3.31238e-06
8.96301e-07 -3.31238e-06 -4.26346e-05
0.000750836 2.52926e-05 -1.42182e-07
2.52926e-05 -3.20557e-05 2.58613e-08
-1.42182e-07 2.58613e-08 -3.77297e-05
0.00216373 3.60894e-05 1.76755e-05
3.60894e-05 0.000734368 -3.85974e-06
1.76755e-05 -3.85974e-06 0.000753431
0.000753637 2.94886e-05 -1.85669e-06
2.94886e-05 -2.48524e-05 3.48641e-06
-1.85669e-06 3.48641e-06 -3.30551e-05
0.00223602 4.34158e-05 -1.47235e-06
4.34158e-05 0.000780107 -8.16841e-08
-1.47235e-06 -8.16841e-08 0.000797137
0.00229944 4.99681e-05 -2.7635e-05
4.99681e-05 0.000821761 3.66628e-06
-2.7635e-05 3.66628e-06 0.000836784
0.00164395 5.63375e-05 9.68109e-07
5.63375e-05 5.98697e-05 -2.2698e-08
9.68109e-07 -2.2698e-08 -3.51191e-05
0.00172957 2.67082e-05 5.33204e-07
2.67082e-05 8.69907e-05 -8.20641e-07
5.33204e-07 -8.20641e-07 -1.1482e-05
0.00175713 7.29061e-06 7.76632e-07
7.29061e-06 9.92205e-05 -4.54647e-07
7.76632e-07 -4.54647e-07 -9.45392e-06
0.00178485 1.20221e-05 -1.19209e-07
1.20221e-05 0.00012573 -4.71367e-09
-1.19209e-07 -4.71367e-09 1.17207e-05
0.00179465 6.15152e-06 -2.2511e-07
6.15152e-06 0.000112323 5.21152e-08
-2.2511e-07 5.21152e-08 2.47243e-06
0.00185088 1.02096e-05 2.5338e-07
1.02096e-05 0.000124234 -1.05383e-07
2.5338e-07 -1.05383e-07 2.56401e-05
0.00174762 4.84427e-05 3.1579e-08
4.84427e-05 7.85734e-05 1.41845e-07
3.1579e-08 1.41845e-07 -1.30289e-05
0.00177947 -1.81722e-06 -1.57962e-06
-1.81722e-06 9.32805e-05 2.23429e-07
-1.57962e-06 2.23429e-07 -6.82506e-06
0.00193788 2.28663e-05 -1.74803e-06
2.28663e-05 0.000159617 2.3917e-07
-1.74803e-06 2.3917e-07 7.08002e-05
0.00174847 1.73956e-05 -9.74362e-07
1.73956e-05 5.16659e-05 4.35782e-07
-9.74362e-07 4.35782e-07 -2.22104e-05
0.00176571 -9.81087e-10 1.17209e-07
-9.81087e-10 0.000106649 4.35855e-07
1.17209e-07 4.35855e-07 -2.60306e-06
0.00171604 -2.19122e-05 6.88842e-07
-2.19122e-05 9.1448e-05 -7.48374e-08
6.88842e-07 -7.48374e-08 -7.74431e-06
0.00182619 -6.34269e-05 -1.00738e-06
-6.34269e-05 0.000139432 -5.38335e-07
-1.00738e-06 -5.38335e-07 3.67113e-05
0.00110192 -0.000108902 -1.55164e-07
-0.000108902 0.000170217 5.75627e-07
-1.55164e-07 5.75627e-07 7.03934e-05
0.000830005 -0.000105134 4.18947e-07
-0.000105134 2.83252e-05 3.37225e-06
4.18947e-07 3.37225e-06 -9.73271e-05
0.00163904 -0.000160882 -2.47494e-06
-0.000160882 0.000344406 2.7664e-06
-2.47494e-06 2.7664e-06 0.000189164
0.00203029 -0.000123836 3.93286e-06
-0.000123836 0.000242334 1.68541e-06
3.93286e-06 1.68541e-06 0.000142563
0.0012128 -0.000135359 -2.49656e-06
-0.000135359 -5.49839e-05 -2.15806e-06
-2.49656e-06 -2.15806e-06 -0.000174481
0.000624953 -8.26571e-05 -1.41025e-06
-8.26571e-05 -7.84671e-05 -7.71613e-07
-1.41025e-06 -7.71613e-07 -0.000174255
0.00110738 -0.000102899 3.25445e-06
-0.000102899 0.000178093 -2.99663e-06
3.25445e-06 -2.99663e-06 8.23222e-05
0.000837097 9.96031e-06 -1.02684e-07
9.96031e-06 3.3579e-05 -3.51388e-07
-1.02684e-07 -3.51388e-07 -4.85056e-05
0.000805501 1.94262e-05 -7.47295e-07
1.94262e-05 2.41554e-07 1.14184e-06
-7.47295e-07 1.14184e-06 -3.26586e-05
0.000937098 2.44177e-05 -7.35911e-07
2.44177e-05 7.94873e-05 1.14212e-06
-7.35911e-07 1.14212e-06 2.4819e-05
0.000904914 -9.71468e-06 -6.39326e-07
-9.71468e-06 7.07932e-05 1.11338e-06
-6.39326e-07 1.11338e-06 -5.84867e-07
0.00182285 -6.72644e-06 8.93714e-08
-6.72644e-06 0.000123863 2.07093e-07
8.93714e-08 2.07093e-07 2.49154e-05
0.000819245 1.50213e-05 2.84931e-08
1.50213e-05 4.9867e-06 1.80066e-08
2.84931e-08 1.80066e-08 -2.57192e-05
0.000763931 -1.7263e-06 -2.62544e-07
-1.7263e-06 -1.13465e-05 7.33859e-08
-2.62544e-07 7.33859e-08 -5.9393e-05
0.00178396 -3.37276e-05 -1.47501e-07
-3.37276e-05 9.92345e-05 -3.76267e-07
-1.47501e-07 -3.76267e-07 6.33226e-06
0.00169882 -8.14438e-05 -3.60374e-07
-8.14438e-05 2.79818e-05 4.43496e-07
-3.60374e-07 4.43496e-07 -7.3033e-05
0.000735657 -9.12708e-05 7.04145e-08
-9.12708e-05 -3.80854e-07 1.9103e-06
7.04145e-08 1.9103e-06 -0.000105414
0.00136562 -0.000140275 -8.62102e-07
-0.000140275 0.000283495 3.16249e-07
-8.62102e-07 3.16249e-07 0.000128455
0.00130778 -0.000151388 1.24326e-06
-0.000151388 0.000103058 1.02874e-06
1.24326e-06 1.02874e-06 -5.51914e-05
0.00185755 -0.000154403 5.48182e-07
-0.000154403 0.000136286 -5.40565e-07
5.48182e-07 -5.40565e-07 3.79392e-05
0.000902448 -1.62743e-05 1.03096e-06
-1.62743e-05 6.32621e-05 -5.26192e-07
1.03096e-06 -5.26192e-07 9.27011e-06
0.00090118 -1.64263e-05 -4.53714e-07
-1.64263e-05 7.18418e-05 4.51638e-07
-4.53714e-07 4.51638e-07 1.40229e-06
0.000917296 -9.3683e-05 5.65371e-07
-9.3683e-05 4.92113e-05 4.57842e-07
5.65371e-07 4.57842e-07 -4.18392e-05
0.00126479 -0.000118246 1.66122e-06
-0.000118246 0.000277383 -1.36117e-06
1.66122e-06 -1.36117e-06 0.000186763
0.000754244 -6.51762e-05 -2.14834e-07
-6.51762e-05 1.2264e-05 3.45541e-07
-2.14834e-07 3.45541e-07 -8.93572e-05
0.000915837 6.27776e-06 9.17561e-08
6.27776e-06 7.95987e-05 -2.76904e-07
9.17561e-08 -2.76904e-07 1.21627e-06
0.00179357 -1.19764e-05 -3.59492e-06
-1.19764e-05 8.52639e-05 -1.36665e-07
-3.59492e-06 -1.36665e-07 1.09607e-06
0.00200709 -3.24189e-05 2.32557e-06
-3.24189e-05 0.000188596 1.65678e-06
2.32557e-06 1.65678e-06 9.73478e-05
0.00185035 -0.000136046 -3.03206e-06
-0.000136046 4.4358e-05 -3.71567e-06
-3.03206e-06 -3.71567e-06 -3.79411e-05
0.00115632 -0.000156284 -9.27517e-07
-0.000156284 -0.000127369 2.07109e-06
-9.27517e-07 2.07109e-06 -0.000244644
0.00105252 -9.01515e-05 -2.58595e-06
-9.01515e-05 0.000154638 -8.177e-07
-2.58595e-06 -8.177e-07 4.7051e-05
0.00185263 -0.000182017 -2.58672e-06
-0.000182017 0.000496883 -6.94927e-07
-2.58672e-06 -6.94927e-07 0.000310774
0.000681519 3.90792e-05 -1.0867e-06
3.90792e-05 -5.396e-05 -1.28428e-06
-1.0867e-06 -1.28428e-06 -0.000101642
0.000830615 -1.7125e-05 3.9211e-07
-1.7125e-05 2.28158e-05 -9.67266e-07
3.9211e-07 -9.67266e-07 -2.67253e-05
0.00102692 -2.98761e-05 6.07723e-07
-2.98761e-05 0.000143629 -4.23797e-07
6.07723e-07 -4.23797e-07 8.13392e-05
0.00074752 1.85202e-05 -6.31219e-07
1.85202e-05 -6.73532e-06 -5.21469e-07
-6.31219e-07 -5.21469e-07 -7.86463e-05
0.00105551 -5.36154e-06 2.23034e-07
-5.36154e-06 0.000156868 6.85132e-09
2.23034e-07 6.85132e-09 8.08379e-05
0.000605823 -1.46573e-05 3.54297e-07
-1.46573e-05 -6.74423e-05 3.51261e-07
3.54297e-07 3.51261e-07 -0.000158324
0.00118719 -7.49522e-05 5.61403e-06
-7.49522e-05 0.000259178 1.50514e-07
5.61403e-06 1.50514e-07 0.000146455
0.000779683 -9.72931e-05 -7.79506e-06
-9.72931e-05 -6.98561e-07 2.69199e-06
-7.79506e-06 2.69199e-06 -8.47434e-05
0.000767508 1.10434e-05 -3.30926e-07
1.10434e-05 -2.77931e-06 -9.09235e-08
-3.30926e-07 -9.09235e-08 -6.92404e-05
0.000870651 4.49713e-05 -1.44498e-06
4.49713e-05 6.34674e-05 -1.56219e-06
-1.44498e-06 -1.56219e-06 -2.30264e-05
0.00195151 7.25519e-05 1.07422e-06
7.25519e-05 0.000169753 -3.52196e-07
1.07422e-06 -3.52196e-07 8.60871e-05
0.00128479 0.000113687 1.30059e-06
0.000113687 -0.000116859 5.06651e-07
1.30059e-06 5.06651e-07 -0.000204512
0.00111442 6.24655e-05 -1.65532e-06
6.24655e-05 0.000193384 -5.18119e-07
-1.65532e-06 -5.18119e-07 8.5389e-05
0.00104171 0.000107406 -1.137e-06
0.000107406 0.000175319 -1.34843e-06
-1.137e-06 -1.34843e-06 4.8551e-05
0.00250782 0.000205113 -2.5819e-08
0.000205113 0.000668947 1.37741e-06
-2.5819e-08 1.37741e-06 0.000535313
0.00112662 0.000133823 -7.96723e-07
0.000133823 0.000146235 -1.01392e-06
-7.96723e-07 -1.01392e-06 -2.00199e-05
0.000905801 1.24962e-05 2.26737e-07
1.24962e-05 7.45418e-05 -5.29817e-07
2.26737e-07 -5.29817e-07 1.1209e-06
0.00179426 4.53058e-05 -2.44521e-07
4.53058e-05 8.17412e-05 1.48448e-07
-2.44521e-07 1.48448e-07 3.89814e-06
0.000971305 7.34126e-05 6.29317e-08
7.34126e-05 0.000128471 8.75567e-07
6.29317e-08 8.75567e-07 2.62246e-05
0.000880908 0.000101258 1.10539e-07
0.000101258 6.90482e-05 -1.4369e-07
1.10539e-07 -1.4369e-07 -6.78193e-05
0.00187241 9.37888e-05 1.49837e-06
9.37888e-05 7.21807e-05 3.70664e-08
1.49837e-06 3.70664e-08 -4.68419e-07
0.001925 0.000186737 2.60444e-07
0.000186737 0.000197195 -1.25645e-06
2.60444e-07 -1.25645e-06 8.678e-05
0.00173483 0.000172116 7.85152e-07
0.000172116 0.000416165 1.36315e-06
7.85152e-07 1.36315e-06 0.000235722
0.00102358 2.79981e-05 -4.53046e-07
2.79981e-05 0.000146771 6.02433e-07
-4.53046e-07 6.02433e-07 5.88997e-05
0.00204727 5.79333e-05 -7.1838e-06
5.79333e-05 0.000168474 -9.64151e-07
-7.1838e-06 -9.64151e-07 0.000110833
0.00165541 0.000120084 -2.18862e-06
0.000120084 0.0004742 1.75784e-08
-2.18862e-06 1.75784e-08 0.000358454
0.00184354 0.000163049 -2.95236e-06
0.000163049 0.000547971 6.09621e-07
-2.95236e-06 6.09621e-07 0.000388146
0.00200666 0.000180328 1.2073e-07
0.000180328 0.000106773 -7.99867e-10
1.2073e-07 -7.99867e-10 4.02232e-05
0.00127926 0.000163684 -2.56571e-06
0.000163684 5.81264e-05 2.95086e-07
-2.56571e-06 2.95086e-07 -0.000102982
0.000625683 7.47838e-05 1.11176e-05
7.47838e-05 -0.000282285 1.83618e-06
1.11176e-05 1.83618e-06 -0.000400798
0.000927342 -1.01883e-05 -9.42222e-08
-1.01883e-05 8.27532e-05 -5.23072e-07
-9.42222e-08 -5.23072e-07 1.55437e-05
0.00092902 -8.12052e-06 5.97409e-08
-8.12052e-06 8.8754e-05 5.01564e-08
5.97409e-08 5.01564e-08 1.42653e-05
0.00092887 3.07045e-06 1.23452e-07
3.07045e-06 8.40685e-05 -4.21313e-07
1.23452e-07 -4.21313e-07 4.85811e-06
0.000853644 -3.37623e-05 -1.88768e-07
-3.37623e-05 2.95126e-05 -6.98734e-07
-1.88768e-07 -6.98734e-07 -1.65503e-05
0.000798154 -4.69397e-05 -6.76717e-07
-4.69397e-05 1.23476e-05 1.69729e-07
-6.76717e-07 1.69729e-07 -4.52913e-05
0.000958194 4.61841e-05 -7.96545e-07
4.61841e-05 0.000108292 3.45302e-07
-7.96545e-07 3.45302e-07 4.05697e-05
0.000893922 -2.56672e-05 1.47563e-07
-2.56672e-05 6.83867e-05 -3.22478e-07
1.47563e-07 -3.22478e-07 -3.46589e-06
0.000851846 -2.04063e-05 -1.52148e-07
-2.04063e-05 2.90436e-05 3.97548e-08
-1.52148e-07 3.97548e-08 -1.79375e-05
0.000808768 -1.77177e-06 7.76623e-08
-1.77177e-06 1.19221e-05 -4.68983e-08
7.76623e-08 -4.68983e-08 -4.37829e-05
0.000898796 -1.14901e-05 4.16721e-07
-1.14901e-05 7.02258e-05 -5.17395e-07
4.16721e-07 -5.17395e-07 -4.53469e-06
0.000928173 -1.7756e-05 -1.19785e-07
-1.7756e-05 8.38703e-05 -7.00387e-08
-1.19785e-07 -7.00387e-08 2.11476e-05
0.000912295 -2.96162e-05 1.83351e-07
-2.96162e-05 7.75794e-05 -2.02232e-08
1.83351e-07 -2.02232e-08 7.75333e-06
0.000882861 -1.65886e-05 -7.32764e-08
-1.65886e-05 6.10374e-05 -5.30123e-07
-7.32764e-08 -5.30123e-07 -1.24803e-05
0.00089859 -4.74966e-06 4.55126e-07
-4.74966e-06 6.75351e-05 -5.55206e-07
4.55126e-07 -5.55206e-07 2.42856e-06
0.000956605 -1.73537e-07 6.66028e-07
-1.73537e-07 9.31676e-05 -2.86582e-07
6.66028e-07 -2.86582e-07 3.21728e-05
0.000833447 1.32957e-05 7.27326e-08
1.32957e-05 2.55582e-05 2.96309e-07
7.27326e-08 2.96309e-07 -3.47363e-05
0.00074992 -5.63239e-07 2.48116e-07
-5.63239e-07 -2.99663e-05 9.81365e-07
2.48116e-07 9.81365e-07 -7.61268e-05
0.000982665 -3.23512e-06 3.69165e-07
-3.23512e-06 0.00011504 -1.28967e-07
3.69165e-07 -1.28967e-07 5.26889e-05
0.000730426 5.10025e-06 -3.85101e-07
5.10025e-06 -3.73623e-05 9.99937e-07
-3.85101e-07 9.99937e-07 -8.47302e-05
0.000812773 1.19404e-05 2.59291e-07
1.19404e-05 -1.53236e-06 1.42326e-06
2.59291e-07 1.42326e-06 -3.00091e-05
0.000811884 1.88708e-06 -2.07154e-07
1.88708e-06 -2.6282e-06 2.58253e-09
-2.07154e-07 2.58253e-09 -3.06792e-05
0.000760566 5.73116e-07 2.76107e-07
5.73116e-07 -4.07492e-05 3.03506e-06
2.76107e-07 3.03506e-06 -4.14971e-05
0.000821954 -8.48611e-06 1.69028e-09
-8.48611e-06 1.92302e-06 -1.47154e-06
1.69028e-09 -1.47154e-06 -2.54289e-05
0.001045 -4.86194e-06 -1.21184e-06
-4.86194e-06 0.000113435 -1.26987e-06
-1.21184e-06 -1.26987e-06 0.000114519
0.00208553 -7.45085e-06 5.36789e-06
-7.45085e-06 0.000678697 3.99041e-06
5.36789e-06 3.99041e-06 0.000701422
0.00134224 -1.06795e-05 -2.79613e-06
-1.06795e-05 0.000275927 -4.27739e-06
-2.79613e-06 -4.27739e-06 0.000278459
0.000963867 -1.10512e-05 1.7585e-06
-1.10512e-05 7.27912e-05 2.44785e-06
1.7585e-06 2.44785e-06 8.96693e-05
0.0009111 -1.59503e-05 -1.17285e-06
-1.59503e-05 4.70029e-05 -1.54572e-06
-1.17285e-06 -1.54572e-06 6.3807e-05
0.000820887 8.15182e-06 1.93103e-07
8.15182e-06 2.05523e-06 -1.58645e-06
1.93103e-07 -1.58645e-06 -2.45608e-05
0.000821569 1.11745e-05 -3.68975e-08
1.11745e-05 3.69294e-06 1.43391e-08
-3.68975e-08 1.43391e-08 -2.46828e-05
0.000755997 1.52656e-05 4.78218e-07
1.52656e-05 -3.90322e-05 -3.24856e-06
4.78218e-07 -3.24856e-06 -4.04336e-05
0.00104797 2.27619e-05 -4.87143e-07
2.27619e-05 0.00012325 3.36296e-08
-4.87143e-07 3.36296e-08 0.000121359
0.00211869 2.86411e-05 1.45307e-05
2.86411e-05 0.000704911 -3.94007e-06
1.45307e-05 -3.94007e-06 0.000725543
0.000764779 2.56412e-05 -1.32091e-06
2.56412e-05 -2.47601e-05 3.41424e-06
-1.32091e-06 3.41424e-06 -3.05118e-05
0.00217918 3.64407e-05 -1.56029e-06
3.64407e-05 0.000743452 -7.28169e-08
-1.56029e-06 -7.28169e-08 0.000762265
0.00225157 4.35132e-05 -2.37821e-05
4.35132e-05 0.000789333 3.8095e-06
-2.37821e-05 3.8095e-06 0.000806147
0.00171735 5.00236e-05 -6.5655e-07
5.00236e-05 6.18169e-05 -3.48339e-07
-6.5655e-07 -3.48339e-07 -2.94822e-05
0.00182098 1.04924e-05 1.10069e-06
1.04924e-05 0.00010647 -4.08182e-07
1.10069e-06 -4.08182e-07 7.1309e-06
0.00180008 2.23317e-06 5.81287e-07
2.23317e-06 0.000114674 -3.687e-09
5.81287e-07 -3.687e-09 5.24887e-06
0.00178847 7.98882e-07 2.2898e-07
7.98882e-07 9.58359e-05 7.39544e-08
2.2898e-07 7.39544e-08 -4.37677e-06
0.00183169 2.22296e-05 -3.42106e-07
2.22296e-05 0.000106952 1.83644e-07
-3.42106e-07 1.83644e-07 1.76646e-05
0.00176948 1.39878e-05 2.01728e-06
1.39878e-05 7.36569e-05 1.47913e-07
2.01728e-06 1.47913e-07 -1.45394e-06
0.00170949 6.30181e-06 -2.04576e-06
6.30181e-06 3.99535e-05 -5.03875e-07
-2.04576e-06 -5.03875e-07 -4.15687e-05
0.00367506 -5.75581e-05 6.5774e-06
-5.75581e-05 0.000909413 1.79852e-06
6.5774e-06 1.79852e-06 0.000864132
0.00154345 1.99072e-05 -3.57863e-06
1.99072e-05 -9.34992e-05 2.73123e-07
-3.57863e-06 2.73123e-07 -0.000148643
0.000855811 2.14142e-05 1.16553e-07
2.14142e-05 3.55126e-05 -7.07283e-07
1.16553e-07 -7.07283e-07 -8.02869e-06
0.00187122 -6.56906e-06 1.82168e-06
-6.56906e-06 0.000151117 2.63338e-07
1.82168e-06 2.63338e-07 5.36472e-05
0.00179198 -3.49862e-05 -9.29659e-07
-3.49862e-05 0.000103952 -7.16818e-07
-9.29659e-07 -7.16818e-07 1.03945e-05
0.00173488 -8.02938e-05 1.73186e-06
-8.02938e-05 4.94979e-05 4.03864e-07
1.73186e-06 4.03864e-07 -5.34064e-05
0.000829579 -9.52947e-05 1.64318e-06
-9.52947e-05 5.23596e-05 1.33367e-06
1.64318e-06 1.33367e-06 -5.11481e-05
0.00111474 -0.000126761 7.87322e-07
-0.000126761 0.000154736 3.62031e-06
7.87322e-07 3.62031e-06 -7.33984e-06
0.00116105 -0.000142961 1.99282e-06
-0.000142961 2.31672e-05 -1.46451e-06
1.99282e-06 -1.46451e-06 -0.00013024
0.00199849 -0.000162874 1.5174e-06
-0.000162874 0.000212801 -6.25605e-07
1.5174e-06 -6.25605e-07 0.0001142
0.00105039 -9.95496e-05 4.52023e-06
-9.95496e-05 0.00011566 -3.39856e-06
4.52023e-06 -3.39856e-06 2.15366e-05
0.000628196 -8.6605e-05 -1.77459e-06
-8.6605e-05 -5.8614e-05 -7.69072e-06
-1.77459e-06 -7.69072e-06 -0.000139424
0.000686108 -6.0171e-05 -3.49378e-08
-6.0171e-05 -2.39116e-05 3.59299e-07
-3.49378e-08 3.59299e-07 -0.000126229
0.000820332 1.42572e-05 -7.04787e-07
1.42572e-05 5.3677e-06 1.75366e-06
-7.04787e-07 1.75366e-06 -2.53295e-05
0.000926512 -3.67741e-06 -1.17695e-07
-3.67741e-06 8.64498e-05 -4.22002e-07
-1.17695e-07 -4.22002e-07 6.73722e-06
0.00107936 -4.03204e-05 -4.57816e-07
-4.03204e-05 0.000160569 4.34283e-07
-4.57816e-07 4.34283e-07 0.000106295
0.000892423 -8.8353e-06 -6.85945e-07
-8.8353e-06 6.71347e-05 1.10836e-06
-6.85945e-07 1.10836e-06 -3.25745e-06
0.00069331 2.40565e-06 8.96258e-08
2.40565e-06 -5.19201e-05 8.51301e-07
8.96258e-08 8.51301e-07 -9.851e-05
0.00181607 -1.24269e-05 -5.40755e-07
-1.24269e-05 9.79733e-05 -2.19527e-07
-5.40755e-07 -2.19527e-07 1.45233e-05
0.000764815 1.51791e-05 1.86692e-07
1.51791e-05 -9.412e-06 -5.15875e-07
1.86692e-07 -5.15875e-07 -5.65816e-05
0.000837139 -3.0326e-05 -4.37477e-07
-3.0326e-05 2.98836e-05 3.6782e-08
-4.37477e-07 3.6782e-08 -2.22118e-05
0.000878119 -9.14112e-06 -6.93293e-07
-9.14112e-06 6.47462e-05 4.84617e-07
-6.93293e-07 4.84617e-07 5.72203e-07
0.00177429 -3.43723e-05 1.1265e-06
-3.43723e-05 5.88011e-05 -3.06778e-07
1.1265e-06 -3.06778e-07 -3.15739e-05
0.00179726 -0.000133355 -1.72273e-06
-0.000133355 3.56633e-05 5.92098e-07
-1.72273e-06 5.92098e-07 -4.82033e-05
0.000885954 -9.04151e-05 -3.97653e-07
-9.04151e-05 5.52734e-05 3.00011e-07
-3.97653e-07 3.00011e-07 -4.83314e-05
0.00114442 -0.00014384 1.41432e-07
-0.00014384 0.000146882 -7.07332e-07
1.41432e-07 -7.07332e-07 -4.30938e-05
0.00154192 -0.000172905 2.62302e-07
-0.000172905 7.26561e-05 4.12336e-07
2.62302e-07 4.12336e-07 -4.74791e-05
0.000853216 6.8708e-06 -1.63994e-07
6.8708e-06 5.02794e-05 2.69169e-09
-1.63994e-07 2.69169e-09 -2.12302e-05
0.000975532 -2.23865e-05 -1.31082e-07
-2.23865e-05 0.000117539 3.57457e-08
-1.31082e-07 3.57457e-08 3.93309e-05
0.000752334 -9.80573e-05 -4.60657e-06
-9.80573e-05 -8.81608e-06 1.07662e-06
-4.60657e-06 1.07662e-06 -9.78147e-05
0.00105524 -5.73161e-05 6.46209e-07
-5.73161e-05 0.000186087 -6.5524e-07
6.46209e-07 -6.5524e-07 7.72973e-05
0.000816895 -3.06429e-05 -7.53039e-08
-3.06429e-05 4.48548e-05 9.34344e-07
-7.53039e-08 9.34344e-07 -4.6437e-05
0.00202833 -3.9561e-05 -4.11801e-06
-3.9561e-05 0.000162109 6.74517e-07
-4.11801e-06 6.74517e-07 8.57585e-05
0.00233345 -7.14777e-05 1.52091e-06
-7.14777e-05 0.0002887 1.19493e-06
1.52091e-06 1.19493e-06 0.000209487
0.00190801 -0.000191255 1.13683e-06
-0.000191255 0.000117206 -3.6795e-06
1.13683e-06 -3.6795e-06 2.52749e-05
0.00180249 -0.000188645 -5.97228e-06
-0.000188645 0.000378952 3.1375e-07
-5.97228e-06 3.1375e-07 0.00022333
0.000983216 -0.000101476 -1.00487e-06
-0.000101476 0.000139014 -1.76917e-06
-1.00487e-06 -1.76917e-06 5.15235e-07
0.000706022 1.5514e-05 6.14661e-08
1.5514e-05 -2.97461e-05 -8.79145e-07
6.14661e-08 -8.79145e-07 -9.2401e-05
0.000802016 4.68961e-05 -2.31362e-07
4.68961e-05 2.4824e-05 -8.64424e-07
-2.31362e-07 -8.64424e-07 -4.36247e-05
0.00106598 1.62149e-05 6.44007e-07
1.62149e-05 0.000164165 3.94521e-07
6.44007e-07 3.94521e-07 9.30767e-05
0.00083509 -4.41048e-05 1.1093e-06
-4.41048e-05 4.68138e-05 1.32133e-08
1.1093e-06 1.32133e-08 -3.12999e-05
0.00104167 4.99142e-06 5.65525e-07
4.99142e-06 0.00015118 6.39019e-07
5.65525e-07 6.39019e-07 7.09427e-05
0.000818228 -1.19309e-05 2.76847e-07
-1.19309e-05 5.22251e-05 -1.46918e-06
2.76847e-07 -1.46918e-06 -4.61895e-05
0.000698454 -7.17986e-05 7.50718e-06
-7.17986e-05 1.53944e-05 8.58032e-07
7.50718e-06 8.58032e-07 -0.00011816
0.000891403 3.50456e-05 -2.51653e-07
3.50456e-05 7.06158e-05 -1.42552e-06
-2.51653e-07 -1.42552e-06 -5.09466e-06
0.000788552 5.30127e-05 -2.91257e-08
5.30127e-05 2.89072e-05 8.69162e-08
-2.91257e-08 8.69162e-08 -7.02831e-05
0.00196478 4.35498e-05 2.41202e-06
4.35498e-05 0.000165028 -4.32801e-07
2.41202e-06 -4.32801e-07 8.78712e-05
0.00155793 8.79451e-05 3.46825e-06
8.79451e-05 -8.51706e-05 -6.59293e-07
3.46825e-06 -6.59293e-07 -0.000157674
0.0020554 0.00018993 8.21362e-07
0.00018993 0.000255855 -1.04277e-07
8.21362e-07 -1.04277e-07 0.000147023
0.000689862 9.0823e-05 9.67353e-07
9.0823e-05 -2.9056e-05 2.96222e-08
9.67353e-07 2.96222e-08 -0.000167692
0.00183892 0.000178605 1.09997e-06
0.000178605 0.000479687 1.13879e-06
1.09997e-06 1.13879e-06 0.000300465
0.00102352 2.03702e-05 -1.4028e-07
2.03702e-05 0.000145623 5.66786e-08
-1.4028e-07 5.66786e-08 6.06453e-05
0.00183406 5.5792e-05 -1.6095e-06
5.5792e-05 4.61447e-05 -4.05423e-07
-1.6095e-06 -4.05423e-07 -5.239e-06
0.00122456 0.000100768 -7.98201e-07
0.000100768 0.000253036 3.7898e-07
-7.98201e-07 3.7898e-07 0.000139322
0.0013662 0.000135871 -6.43341e-07
0.000135871 0.000313013 5.38073e-07
-6.43341e-07 5.38073e-07 0.000154673
0.00190559 0.000169158 1.04134e-06
0.000169158 4.6391e-05 -4.61465e-07
1.04134e-06 -4.61465e-07 -1.94398e-05
0.00138708 0.000171228 -1.50685e-06
0.000171228 0.000118018 1.21338e-06
-1.50685e-06 1.21338e-06 -4.76324e-05
0.00171544 7.20187e-05 5.78612e-06
7.20187e-05 6.95518e-05 1.03798e-06
5.78612e-06 1.03798e-06 -5.59162e-05
0.00107591 4.1741e-05 -8.56016e-07
4.1741e-05 0.000172461 -9.81518e-07
-8.56016e-07 -9.81518e-07 7.78125e-05
0.00255585 0.000118071 -7.94803e-06
0.000118071 0.000388197 -6.86026e-06
-7.94803e-06 -6.86026e-06 0.000383843
0.00119418 0.000119805 -3.50344e-06
0.000119805 0.00025116 -1.56386e-06
-3.50344e-06 -1.56386e-06 0.000129014
0.00115267 0.000132359 -4.92181e-06
0.000132359 0.000188719 -9.04937e-07
-4.92181e-06 -9.04937e-07 1.66511e-06
5.10799e-06 0.000161627 -4.98271e-06
0.000161627 -0.000735498 -2.0911e-06
-4.98271e-06 -2.0911e-06 -0.000855897
0.00682381 -4.51472e-05 -4.59853e-05
-4.51472e-05 0.00226143 -1.28541e-05
-4.59853e-05 -1.28541e-05 0.00153696
0.00337354 3.94119e-05 7.64803e-05
3.94119e-05 0.000307232 6.30988e-06
7.64803e-05 6.30988e-06 -0.000199393
0.000519699 0.000165706 8.9682e-06
0.000165706 -0.000442201 1.88605e-05
8.9682e-06 1.88605e-05 -0.000476827
-0.00175387 -0.000313374 -6.88704e-06
-0.000313374 -0.000803502 -1.01158e-05
-6.88704e-06 -1.01158e-05 -0.00080549
0.00242002 -0.000510058 -2.69763e-05
-0.000510058 0.000130857 -5.56921e-06
-2.69763e-05 -5.56921e-06 0.00118184
0.000939243 -9.61088e-06 -3.60181e-08
-9.61088e-06 9.39427e-05 -5.91074e-07
-3.60181e-08 -5.91074e-07 1.94831e-05
0.000950443 -2.77288e-06 2.78872e-07
-2.77288e-06 9.7397e-05 -3.26962e-07
2.78872e-07 -3.26962e-07 1.8807e-05
0.00101331 2.83278e-05 -1.08294e-07
2.83278e-05 0.000130329 -1.11566e-06
-1.08294e-07 -1.11566e-06 5.15409e-05
0.00083376 -4.32446e-05 1.80922e-07
-4.32446e-05 2.30193e-05 -7.63894e-07
1.80922e-07 -7.63894e-07 -2.63236e-05
0.000740978 2.33127e-05 -7.35641e-07
2.33127e-05 -2.232e-05 -2.52944e-07
-7.35641e-07 -2.52944e-07 -7.95162e-05
0.000933072 -3.95423e-05 -6.3613e-10
-3.95423e-05 8.57994e-05 -1.15708e-07
-6.3613e-10 -1.15708e-07 2.30142e-05
0.000995482 -1.85284e-05 -3.96095e-07
-1.85284e-05 0.000121528 1.78993e-07
-3.96095e-07 1.78993e-07 5.27159e-05
0.000875545 -1.58585e-05 5.75577e-07
-1.58585e-05 5.79526e-05 -7.71734e-07
5.75577e-07 -7.71734e-07 -1.72384e-05
0.000885176 1.94394e-05 -5.55079e-07
1.94394e-05 5.78148e-05 -2.9212e-07
-5.55079e-07 -2.9212e-07 -5.34306e-06
0.000790806 -8.51212e-07 2.7088e-08
-8.51212e-07 -4.1734e-06 4.68186e-07
2.7088e-08 4.68186e-07 -5.18375e-05
0.00085897 1.18645e-05 -2.48764e-07
1.18645e-05 3.91519e-05 -4.63282e-08
-2.48764e-07 -4.63282e-08 -2.06847e-05
0.000895799 -1.55706e-05 -8.22152e-08
-1.55706e-05 6.77491e-05 2.83769e-07
-8.22152e-08 2.83769e-07 -5.56495e-06
0.000907904 -8.59823e-06 5.18872e-08
-8.59823e-06 7.20028e-05 -1.28518e-07
5.18872e-08 -1.28518e-07 6.92179e-06
0.000828026 1.10425e-05 5.7775e-07
1.10425e-05 2.61949e-05 -5.39298e-07
5.7775e-07 -5.39298e-07 -3.75909e-05
0.000922673 -4.18317e-07 7.46941e-07
-4.18317e-07 7.80013e-05 -7.70427e-07
7.46941e-07 -7.70427e-07 1.11077e-05
0.000871926 5.29034e-06 1.02514e-06
5.29034e-06 4.19693e-05 1.97954e-07
1.02514e-06 1.97954e-07 -2.05081e-05
0.000822642 1.24242e-06 9.37474e-07
1.24242e-06 1.37404e-05 1.13089e-08
9.37474e-07 1.13089e-08 -4.57047e-05
0.000719248 -3.4896e-05 -1.17806e-06
-3.4896e-05 -4.195e-05 1.03959e-06
-1.17806e-06 1.03959e-06 -9.05074e-05
0.000919412 5.72829e-06 -1.62588e-07
5.72829e-06 7.22313e-05 2.19412e-07
-1.62588e-07 2.19412e-07 1.14552e-05
0.000994621 6.41553e-05 6.0205e-08
6.41553e-05 0.000114751 -3.50661e-07
6.0205e-08 -3.50661e-07 4.96632e-05
0.000836242 6.40581e-06 -4.13079e-07
6.40581e-06 3.61784e-05 2.51156e-07
-4.13079e-07 2.51156e-07 -2.41488e-05
0.000921246 1.05358e-05 4.7892e-07
1.05358e-05 7.67067e-05 -3.35752e-07
4.7892e-07 -3.35752e-07 1.68933e-05
0.000850288 -2.23596e-05 -1.20916e-06
-2.23596e-05 2.81027e-05 6.20401e-07
-1.20916e-06 6.20401e-07 -1.84894e-05
0.000738409 4.13418e-06 1.20883e-07
4.13418e-06 -3.01921e-05 3.80027e-07
1.20883e-07 3.80027e-07 -7.94851e-05
0.000817841 1.32752e-05 -8.71094e-08
1.32752e-05 1.28436e-06 1.4962e-06
-8.71094e-08 1.4962e-06 -2.72676e-05
0.000809818 4.45841e-06 -1.46679e-07
4.45841e-06 -3.29371e-06 2.16681e-09
-1.46679e-07 2.16681e-09 -3.16791e-05
0.00077678 5.27081e-06 -2.71507e-07
5.27081e-06 -3.08807e-05 4.31926e-06
-2.71507e-07 4.31926e-06 -3.2157e-05
0.000809944 -5.61313e-06 2.39075e-07
-5.61313e-06 -3.68736e-06 -1.41071e-06
2.39075e-07 -1.41071e-06 -3.16784e-05
0.000764012 6.55258e-07 1.74824e-07
6.55258e-07 -3.88779e-05 -8.6099e-09
1.74824e-07 -8.6099e-09 -3.96566e-05
0.00210204 -9.67481e-07 2.38372e-07
-9.67481e-07 0.000687188 4.04003e-06
2.38372e-07 4.04003e-06 0.000709793
0.000783972 -4.01432e-06 -5.65865e-07
-4.01432e-06 -2.75385e-05 -4.28986e-06
-5.65865e-07 -4.28986e-06 -2.80889e-05
0.00152644 -6.25495e-06 -3.00588e-07
-6.25495e-06 0.000375822 1.85697e-08
-3.00588e-07 1.85697e-08 0.000395633
0.000923157 -1.04634e-05 -6.83767e-07
-1.04634e-05 5.01528e-05 -1.53204e-06
-6.83767e-07 -1.53204e-06 6.73147e-05
0.00082552 3.76881e-06 -5.69665e-08
3.76881e-06 3.32732e-06 -1.64378e-06
-5.69665e-08 -1.64378e-06 -2.2029e-05
0.000821292 7.38187e-06 4.72502e-08
7.38187e-06 1.98162e-06 5.00851e-09
4.72502e-08 5.00851e-09 -2.45909e-05
0.000761824 1.01752e-05 2.69787e-07
1.01752e-05 -3.88381e-05 -3.19751e-06
2.69787e-07 -3.19751e-06 -3.88252e-05
0.000826649 1.04451e-05 -5.23848e-07
1.04451e-05 6.10063e-06 1.70853e-06
-5.23848e-07 1.70853e-06 -2.22841e-05
0.00103882 1.70133e-05 -2.5499e-07
1.70133e-05 0.000113744 -6.39161e-07
-2.5499e-07 -6.39161e-07 0.000113814
0.00208941 2.13652e-05 1.07824e-05
2.13652e-05 0.000685069 -4.00669e-06
1.07824e-05 -4.00669e-06 0.000706876
0.000766428 2.09403e-05 -9.2489e-07
2.09403e-05 -2.88438e-05 3.33719e-06
-9.2489e-07 3.33719e-06 -3.24002e-05
0.00215287 2.83406e-05 -6.0509e-06
2.83406e-05 0.000724518 1.11719e-06
-6.0509e-06 1.11719e-06 0.00074485
0.00219102 3.66571e-05 -1.96698e-05
3.66571e-05 0.000750605 3.91048e-06
-1.96698e-05 3.91048e-06 0.000769196
0.00172697 2.1858e-05 9.73021e-07
2.1858e-05 5.52431e-05 9.70534e-08
9.73021e-07 9.70534e-08 -3.45125e-05
0.00179619 2.65273e-06 1.49829e-06
2.65273e-06 9.82116e-05 -1.241e-08
1.49829e-06 -1.241e-08 -2.10761e-06
0.00178593 1.16127e-05 4.86956e-06
1.16127e-05 9.33223e-05 -2.04757e-07
4.86956e-06 -2.04757e-07 1.69908e-05
0.00175075 -2.10188e-05 6.62692e-06
-2.10188e-05 -5.38673e-05 1.66967e-06
6.62692e-06 1.66967e-06 -0.000116697
0.00184349 5.20545e-06 -4.65371e-07
5.20545e-06 0.000108339 3.14745e-08
-4.65371e-07 3.14745e-08 2.72824e-05
0.00180814 2.21722e-05 1.36898e-06
2.21722e-05 5.62785e-05 1.86857e-07
1.36898e-06 1.86857e-07 -2.74548e-06
0.00231283 1.6376e-05 -1.6876e-06
1.6376e-05 0.00029918 1.51998e-06
-1.6876e-06 1.51998e-06 0.000219194
0.00320186 -0.000109139 0.000140305
-0.000109139 0.000549639 1.94573e-05
0.000140305 1.94573e-05 0.000254366
0.00136769 -4.11401e-05 -5.3495e-06
-4.11401e-05 -0.000229031 -2.65676e-07
-5.3495e-06 -2.65676e-07 -0.000298721
0.000856149 2.62889e-05 -7.50387e-07
2.62889e-05 3.63855e-05 -7.8574e-07
-7.50387e-07 -7.8574e-07 -7.44782e-06
0.000849919 -1.3299e-05 6.63749e-07
-1.3299e-05 3.49382e-05 -4.52195e-08
6.63749e-07 -4.52195e-08 -1.04619e-05
0.000853477 -3.5938e-05 -2.57922e-08
-3.5938e-05 4.32228e-05 -5.27601e-08
-2.57922e-08 -5.27601e-08 -1.2314e-05
0.000857779 -2.65528e-05 -1.06085e-06
-2.65528e-05 5.58335e-05 9.47676e-08
-1.06085e-06 9.47676e-08 -4.85698e-06
0.00185871 -1.3658e-05 3.73924e-06
-1.3658e-05 0.000120886 -4.50343e-07
3.73924e-06 -4.50343e-07 3.81244e-05
0.0016932 -3.86217e-05 -6.09678e-07
-3.86217e-05 9.35743e-06 -5.1741e-07
-6.09678e-07 -5.1741e-07 -8.06672e-05
0.00178894 -0.000132415 -1.18626e-06
-0.000132415 4.67752e-05 2.02069e-06
-1.18626e-06 2.02069e-06 -3.93668e-05
0.000735345 -9.12879e-05 2.72335e-06
-9.12879e-05 -3.61142e-05 2.43433e-06
2.72335e-06 2.43433e-06 -0.000134788
0.000424596 -0.000105182 3.6865e-06
-0.000105182 -0.00021416 -1.10986e-06
3.6865e-06 -1.10986e-06 -0.000403487
0.00195651 -0.000190884 1.66922e-06
-0.000190884 0.000287951 -1.86636e-06
1.66922e-06 -1.86636e-06 0.00016624
0.000760888 -9.24783e-05 -6.69348e-06
-9.24783e-05 -1.10291e-06 5.79997e-07
-6.69348e-06 5.79997e-07 -9.37073e-05
0.000962547 -4.27554e-05 -1.38857e-06
-4.27554e-05 0.000133813 -5.46981e-07
-1.38857e-06 -5.46981e-07 2.85366e-05
0.00102536 -4.74676e-05 -1.21844e-06
-4.74676e-05 0.000155876 1.63883e-06
-1.21844e-06 1.63883e-06 6.41136e-05
0.000850224 -5.62276e-06 -1.08442e-06
-5.62276e-06 3.64717e-05 1.03156e-06
-1.08442e-06 1.03156e-06 -1.55488e-05
0.000888394 -3.58132e-05 -4.01644e-07
-3.58132e-05 7.56976e-05 1.01616e-07
-4.01644e-07 1.01616e-07 -5.57948e-06
0.000965263 4.75338e-06 -7.05069e-07
4.75338e-06 0.000108305 5.67476e-07
-7.05069e-07 5.67476e-07 3.86944e-05
0.000850674 -3.55408e-06 1.73038e-08
-3.55408e-06 3.7512e-05 2.83423e-07
1.73038e-08 2.83423e-07 -9.81149e-06
0.000722969 2.15712e-05 3.13986e-07
2.15712e-05 -1.68085e-05 1.06321e-06
3.13986e-07 1.06321e-06 -8.31521e-05
0.00179298 -3.15561e-05 -6.06943e-07
-3.15561e-05 5.65937e-05 9.11243e-07
-6.06943e-07 9.11243e-07 -2.01152e-05
0.000861642 1.23178e-05 4.89661e-07
1.23178e-05 5.24945e-05 -4.64594e-07
4.89661e-07 -4.64594e-07 -8.28132e-06
0.000824344 2.36594e-05 5.21282e-07
2.36594e-05 3.72073e-05 9.89702e-09
5.21282e-07 9.89702e-09 -3.07402e-05
0.000941312 4.76791e-05 -3.23898e-07
4.76791e-05 9.85196e-05 6.75391e-07
-3.23898e-07 6.75391e-07 2.58639e-05
0.00199708 -6.71181e-05 -3.26747e-06
-6.71181e-05 0.000107057 3.06193e-07
-3.26747e-06 3.06193e-07 2.40329e-05
0.00174779 -0.000179258 8.03737e-07
-0.000179258 4.66864e-05 -1.32875e-06
8.03737e-07 -1.32875e-06 -4.48291e-05
0.000948382 -0.00010777 -8.46579e-07
-0.00010777 0.000106301 -2.31275e-07
-8.46579e-07 -2.31275e-07 -2.74094e-05
0.00187589 -0.000191908 -7.62476e-07
-0.000191908 0.00042107 -6.03571e-07
-7.62476e-07 -6.03571e-07 0.000261226
0.000919422 -1.03719e-05 -3.65647e-07
-1.03719e-05 8.83306e-05 1.13254e-07
-3.65647e-07 1.13254e-07 1.17202e-05
0.000933792 -4.62065e-06 1.53335e-07
-4.62065e-06 0.000100654 7.80183e-07
1.53335e-07 7.80183e-07 1.85738e-05
0.000848266 -7.6417e-05 3.47075e-06
-7.6417e-05 8.66596e-05 -8.2689e-07
3.47075e-06 -8.2689e-07 -4.06325e-05
0.00101535 -4.41971e-05 5.56549e-07
-4.41971e-05 0.000158904 -1.11258e-06
5.56549e-07 -1.11258e-06 5.43495e-05
0.00162266 -2.05599e-05 -2.63336e-06
-2.05599e-05 -9.4956e-05 2.30298e-06
-2.63336e-06 2.30298e-06 -0.000177271
0.00191553 -0.000156463 4.96548e-06
-0.000156463 2.16721e-05 -3.85392e-06
4.96548e-06 -3.85392e-06 -5.34863e-05
0.00190498 -0.000200488 -3.71194e-06
-0.000200488 0.000279679 -1.10648e-06
-3.71194e-06 -1.10648e-06 0.000153852
0.0011994 -0.000148415 -1.33228e-06
-0.000148415 0.000235131 -7.4978e-07
-1.33228e-06 -7.4978e-07 8.70594e-05
0.000832731 2.57666e-05 -8.07733e-07
2.57666e-05 4.18705e-05 -4.33612e-08
-8.07733e-07 -4.33612e-08 -3.43597e-05
0.000863386 -3.3403e-05 6.21788e-07
-3.3403e-05 6.49582e-05 -4.81691e-07
6.21788e-07 -4.81691e-07 -1.15468e-05
0.000910511 -1.93459e-05 5.68611e-08
-1.93459e-05 8.48309e-05 1.81018e-08
5.68611e-08 1.81018e-08 1.99871e-06
0.000795247 -8.04425e-06 -1.31e-06
-8.04425e-06 5.79709e-05 -6.19843e-08
-1.31e-06 -6.19843e-08 -7.75811e-05
0.000467241 -4.87698e-05 -3.88826e-06
-4.87698e-05 -0.000995773 -7.13916e-06
-3.88826e-06 -7.13916e-06 -0.00142141
0.000989843 9.34062e-06 3.66088e-07
9.34062e-06 0.000126584 -7.79291e-07
3.66088e-07 -7.79291e-07 4.4856e-05
0.000787858 7.7271e-05 1.42691e-06
7.7271e-05 2.76025e-05 1.17429e-06
1.42691e-06 1.17429e-06 -8.35736e-05
0.00161032 5.37385e-05 6.55544e-06
5.37385e-05 -8.38653e-05 8.46943e-07
6.55544e-06 8.46943e-07 -0.000128956
0.00176241 0.000156322 1.02337e-06
0.000156322 -3.45608e-05 -6.31317e-07
1.02337e-06 -6.31317e-07 -9.98231e-05
0.00147283 0.000178033 1.07888e-06
0.000178033 0.00016879 3.23845e-06
1.07888e-06 3.23845e-06 -2.86478e-06
0.000867401 0.000107502 2.96056e-06
0.000107502 6.64269e-05 1.07663e-06
2.96056e-06 1.07663e-06 -9.12424e-05
0.00276969 7.38847e-05 2.62395e-06
7.38847e-05 0.00042137 -1.79907e-06
2.62395e-06 -1.79907e-06 0.00027322
0.000955594 3.75201e-05 7.23789e-07
3.75201e-05 0.000113707 -4.88007e-07
7.23789e-07 -4.88007e-07 1.98824e-05
0.00209796 0.000110148 -4.68964e-06
0.000110148 0.000148181 -2.43821e-06
-4.68964e-06 -2.43821e-06 0.000152711
0.00104548 0.000111478 2.45772e-07
0.000111478 0.000175469 -3.14713e-07
2.45772e-07 -3.14713e-07 5.56633e-05
0.00108031 0.000132034 -5.29272e-08
0.000132034 0.000161139 5.17687e-07
-5.29272e-08 5.17687e-07 -2.84416e-05
0.00105525 0.000203654 -2.99029e-06
0.000203654 -0.00023329 2.74917e-07
-2.99029e-06 2.74917e-07 -0.000347622
0.00219709 -0.000175316 -3.51529e-05
-0.000175316 9.8326e-06 -1.23671e-05
-3.51529e-05 -1.23671e-05 -0.000631071
0.0036063 -3.37138e-05 4.11587e-06
-3.37138e-05 0.000338009 -1.22436e-05
4.11587e-06 -1.22436e-05 -0.000277043
0.000652535 0.000153273 5.5583e-06
0.000153273 -0.0003696 3.34944e-06
5.5583e-06 3.34944e-06 -0.000415445
-0.00197036 -0.000258444 2.68417e-05
-0.000258444 -0.000646342 6.59444e-06
2.68417e-05 6.59444e-06 -0.000924042
2.9792e-05 -0.000538687 1.09588e-05
-0.000538687 -0.00114608 -2.17048e-06
1.09588e-05 -2.17048e-06 4.96489e-05
0.00109335 6.68735e-05 -9.25753e-07
6.68735e-05 0.000192775 -1.75283e-06
-9.25753e-07 -1.75283e-06 0.000100432
0.000976814 8.14946e-05 -8.70339e-05
8.14946e-05 0.00077812 -2.23651e-05
-8.70339e-05 -2.23651e-05 0.000471429
0.0013384 -0.000305227 -4.36772e-05
-0.000305227 0.000405148 -2.82727e-05
-4.36772e-05 -2.82727e-05 0.000712047
0.0011365 0.000128457 -1.10356e-05
0.000128457 -0.000280399 -1.13675e-06
-1.10356e-05 -1.13675e-06 -0.000239374
0.00118021 6.66649e-05 -4.25876e-06
6.66649e-05 0.000272161 -2.31646e-06
-4.25876e-06 -2.31646e-06 0.000139548
0.00108634 0.000166771 -8.24972e-06
0.000166771 0.000130688 -3.57058e-06
-8.24972e-06 -3.57058e-06 -7.26554e-05
0.000519982 0.000185548 7.3981e-06
0.000185548 -0.000411169 3.64623e-05
7.3981e-06 3.64623e-05 -0.000367108
0.00653598 -0.000240063 -5.19866e-05
-0.000240063 0.00217446 -1.1564e-05
-5.19866e-05 -1.1564e-05 0.00110009
0.00241327 0.00013592 5.35313e-06
0.00013592 -0.000239602 2.44462e-05
5.35313e-06 2.44462e-05 -0.00111686
0.000243249 -0.000475118 -3.36052e-05
-0.000475118 -0.000243938 -8.86637e-06
-3.36052e-05 -8.86637e-06 7.65715e-05
0.000761381 -0.000271547 -3.61171e-05
-0.000271547 -0.00152309 6.12963e-06
-3.61171e-05 6.12963e-06 -0.000684228
0.000960485 -7.4816e-06 4.81578e-08
-7.4816e-06 0.000105411 -4.01108e-07
4.81578e-08 -4.01108e-07 2.72254e-05
0.000959273 1.84295e-05 -2.08934e-07
1.84295e-05 0.000101996 1.44394e-07
-2.08934e-07 1.44394e-07 2.41691e-05
0.00116532 5.70689e-05 -1.94098e-07
5.70689e-05 0.000217534 -1.97004e-06
-1.94098e-07 -1.97004e-06 0.000145163
0.000836485 2.14121e-06 -1.83094e-07
2.14121e-06 2.60546e-05 -2.0834e-07
-1.83094e-07 -2.0834e-07 -2.44154e-05
0.000893781 5.27864e-06 -6.31168e-07
5.27864e-06 5.66909e-05 -2.69891e-07
-6.31168e-07 -2.69891e-07 -2.08144e-06
0.000831109 -2.82606e-05 -2.79164e-07
-2.82606e-05 2.53334e-05 -3.78973e-07
-2.79164e-07 -3.78973e-07 -3.60126e-05
0.000926677 -1.18052e-05 -7.40546e-08
-1.18052e-05 8.15125e-05 1.92751e-08
-7.40546e-08 1.92751e-08 1.63035e-05
0.000924339 -1.79434e-05 -6.83054e-09
-1.79434e-05 8.31952e-05 7.11592e-07
-6.83054e-09 7.11592e-07 9.7638e-06
0.000736835 -2.37195e-06 4.34541e-07
-2.37195e-06 -3.18203e-05 3.85821e-07
4.34541e-07 3.85821e-07 -8.09919e-05
0.000858311 -9.75768e-06 -7.86885e-08
-9.75768e-06 4.26869e-05 -2.53545e-07
-7.86885e-08 -2.53545e-07 -2.08447e-05
0.000936135 -2.25501e-05 -1.77729e-07
-2.25501e-05 7.82448e-05 3.16513e-07
-1.77729e-07 3.16513e-07 1.48561e-05
0.000892881 2.06797e-05 4.66935e-07
2.06797e-05 5.57212e-05 -1.81839e-07
4.66935e-07 -1.81839e-07 -5.87171e-06
0.000917755 1.60392e-06 6.00459e-08
1.60392e-06 7.52856e-05 2.6928e-09
6.00459e-08 2.6928e-09 8.20499e-06
0.0008327 -1.53377e-05 6.91044e-07
-1.53377e-05 1.99919e-05 -3.0058e-07
6.91044e-07 -3.0058e-07 -4.45223e-05
0.000969395 2.50925e-05 -5.44964e-08
2.50925e-05 9.74171e-05 -1.94031e-06
-5.44964e-08 -1.94031e-06 3.0798e-05
0.000949793 -5.68722e-05 1.61995e-07
-5.68722e-05 8.10274e-05 -9.4167e-08
1.61995e-07 -9.4167e-08 1.73659e-05
0.000937464 -3.66343e-05 -3.24964e-07
-3.66343e-05 8.04203e-05 -1.9336e-07
-3.24964e-07 -1.9336e-07 1.8861e-05
0.000936647 -4.31785e-06 -3.58513e-07
-4.31785e-06 8.04538e-05 -5.53133e-08
-3.58513e-07 -5.53133e-08 1.99798e-05
0.000943839 4.87595e-05 -3.41458e-07
4.87595e-05 8.44814e-05 -2.7906e-07
-3.41458e-07 -2.7906e-07 2.08116e-05
0.000922693 2.261e-05 -1.98526e-08
2.261e-05 7.33648e-05 -3.58994e-07
-1.98526e-08 -3.58994e-07 5.51961e-06
0.000887964 4.43653e-05 2.19923e-07
4.43653e-05 6.01657e-05 2.48379e-08
2.19923e-07 2.48379e-08 -3.58834e-06
0.000992779 6.36484e-05 -1.7406e-08
6.36484e-05 0.000109653 -4.05413e-07
-1.7406e-08 -4.05413e-07 4.331e-05
0.000822065 2.41554e-05 1.13289e-06
2.41554e-05 3.55328e-05 1.42197e-06
1.13289e-06 1.42197e-06 -3.43828e-05
0.000840194 1.79598e-05 -3.50072e-09
1.79598e-05 3.47956e-05 3.36705e-07
-3.50072e-09 3.36705e-07 -2.27427e-05
0.000853816 2.61212e-06 -6.716e-08
2.61212e-06 4.36012e-05 -3.05084e-08
-6.716e-08 -3.05084e-08 -1.54941e-05
0.000842664 8.9527e-06 -8.36291e-07
8.9527e-06 2.36652e-05 5.64652e-07
-8.36291e-07 5.64652e-07 -2.1641e-05
0.000859315 1.25473e-05 3.47603e-07
1.25473e-05 3.74354e-05 -4.34238e-07
3.47603e-07 -4.34238e-07 -1.93892e-05
0.000805207 -1.49315e-05 6.16661e-09
-1.49315e-05 3.68066e-06 2.32437e-08
6.16661e-09 2.32437e-08 -4.31636e-05
0.000819976 1.45054e-05 -3.79481e-07
1.45054e-05 2.88388e-06 1.59606e-06
-3.79481e-07 1.59606e-06 -2.57699e-05
0.000749452 7.60893e-06 3.09278e-07
7.60893e-06 -2.28864e-05 -2.72679e-07
3.09278e-07 -2.72679e-07 -7.31598e-05
0.000814394 6.9674e-06 -1.54963e-07
6.9674e-06 -8.2612e-07 -3.63408e-09
-1.54963e-07 -3.63408e-09 -2.92638e-05
0.001354 1.16012e-05 -2.80606e-06
1.16012e-05 0.000283179 4.28531e-06
-2.80606e-06 4.28531e-06 0.000284582
0.000808014 -2.96632e-06 5.02065e-07
-2.96632e-06 -4.37983e-06 -1.43666e-06
5.02065e-07 -1.43666e-06 -3.27063e-05
0.00105978 6.05228e-06 -1.27477e-06
6.05228e-06 0.000122239 6.32607e-07
-1.27477e-06 6.32607e-07 0.000122501
0.000977284 3.1604e-06 -2.67851e-06
3.1604e-06 7.8472e-05 3.94873e-06
-2.67851e-06 3.94873e-06 9.49842e-05
0.000768002 7.30999e-07 -4.14529e-08
7.30999e-07 -3.66922e-05 -3.0251e-06
-4.14529e-08 -3.0251e-06 -3.75087e-05
0.00210739 -4.64986e-07 2.20099e-06
-4.64986e-07 0.000690113 -3.09014e-10
2.20099e-06 -3.09014e-10 0.000712664
0.000984715 -3.83455e-06 -1.9691e-06
-3.83455e-06 8.22799e-05 -3.93109e-06
-1.9691e-06 -3.93109e-06 9.92202e-05
0.000847789 4.35704e-05 4.18115e-07
4.35704e-05 3.45265e-05 -1.97835e-07
4.18115e-07 -1.97835e-07 -1.14659e-05
0.000825752 -7.07339e-07 -1.04648e-07
-7.07339e-07 3.11263e-06 -1.6296e-06
-1.04648e-07 -1.6296e-06 -2.15733e-05
0.000826265 3.04161e-06 -5.84067e-08
3.04161e-06 3.61018e-06 -2.41698e-09
-5.84067e-08 -2.41698e-09 -2.17197e-05
0.000769452 4.82184e-06 -8.36777e-09
4.82184e-06 -3.66021e-05 -3.16446e-06
-8.36777e-09 -3.16446e-06 -3.55255e-05
0.000823732 6.66485e-06 -2.10736e-07
6.66485e-06 3.00158e-06 1.57722e-06
-2.10736e-07 1.57722e-06 -2.3537e-05
0.000762863 1.03628e-05 5.10302e-08
1.03628e-05 -3.86205e-05 -6.50259e-07
5.10302e-08 -6.50259e-07 -3.85292e-05
0.00205805 1.39736e-05 7.16594e-06
1.39736e-05 0.00066535 -4.04938e-06
7.16594e-06 -4.04938e-06 0.000688083
0.0013153 2.00037e-05 -1.2263e-06
2.00037e-05 0.000263822 1.98917e-06
-1.2263e-06 1.98917e-06 0.000265093
0.00154468 1.84133e-05 3.63795e-07
1.84133e-05 0.000391136 1.2707e-06
3.63795e-07 1.2707e-06 0.000409683
0.00102368 2.07554e-05 -1.49529e-05
2.07554e-05 0.000113667 6.54914e-06
-1.49529e-05 6.54914e-06 0.000127925
-0.00039208 2.13218e-05 9.28182e-06
2.13218e-05 -0.00112686 4.79894e-06
9.28182e-06 4.79894e-06 -0.00120359
0.00198695 3.9197e-06 2.67314e-06
3.9197e-06 0.000181785 -8.72851e-08
2.67314e-06 -8.72851e-08 0.000101136
0.00206046 2.38203e-05 2.49774e-06
2.38203e-05 0.000200173 -2.05087e-06
2.49774e-06 -2.05087e-06 0.00013742
0.00109207 -4.67821e-05 2.65357e-05
-4.67821e-05 -0.000319901 -2.21597e-06
2.65357e-05 -2.21597e-06 -0.000595304
0.00173927 -3.41413e-05 -1.62972e-06
-3.41413e-05 2.81841e-05 2.57247e-07
-1.62972e-06 2.57247e-07 -5.6549e-05
0.00183 1.15133e-05 -3.67397e-06
1.15133e-05 5.52158e-06 -1.89433e-06
-3.67397e-06 -1.89433e-06 -7.14081e-05
0.00204512 1.79122e-05 -1.28195e-05
1.79122e-05 0.000214883 2.16228e-06
-1.28195e-05 2.16228e-06 0.000123763
0.00143545 -7.74184e-05 0.000128734
-7.74184e-05 -9.13411e-05 -4.30322e-06
0.000128734 -4.30322e-06 -0.000447771
0.00712491 6.47915e-05 -2.05426e-05
6.47915e-05 0.00231998 -6.19973e-07
-2.05426e-05 -6.19973e-07 0.00151515
0.00368902 0.00056782 -3.90772e-06
0.00056782 0.00164514 6.57668e-07
-3.90772e-06 6.57668e-07 0.00185872
0.00226266 0.000526836 -1.93558e-05
0.000526836 0.000525845 7.98133e-06
-1.93558e-05 7.98133e-06 0.00148506
0.000728398 -4.53237e-05 1.05011e-06
-4.53237e-05 -1.88643e-05 -6.00143e-07
1.05011e-06 -6.00143e-07 -7.68079e-05
0.000856807 -1.05929e-05 1.82454e-07
-1.05929e-05 3.77419e-05 -3.98383e-08
1.82454e-07 -3.98383e-08 -6.77803e-06
0.000848144 -4.93322e-05 -8.81166e-07
-4.93322e-05 3.66425e-05 8.3523e-07
-8.81166e-07 8.3523e-07 -1.06583e-05
0.000824717 -1.44779e-05 -3.26742e-07
-1.44779e-05 3.11416e-05 3.5638e-08
-3.26742e-07 3.5638e-08 -2.69803e-05
0.000839652 4.0176e-05 4.88961e-08
4.0176e-05 4.91611e-05 7.34981e-07
4.88961e-08 7.34981e-07 -1.9685e-05
0.000923375 5.97389e-05 2.62258e-07
5.97389e-05 8.62883e-05 8.06878e-07
2.62258e-07 8.06878e-07 2.18707e-05
0.00089452 -3.06663e-05 7.50446e-07
-3.06663e-05 6.93023e-05 -7.35144e-07
7.50446e-07 -7.35144e-07 1.14446e-05
0.000815454 -4.08576e-05 -5.36203e-07
-4.08576e-05 2.88537e-05 4.99406e-07
-5.36203e-07 4.99406e-07 -2.94924e-05
0.00163917 -2.16689e-05 3.95189e-06
-2.16689e-05 -7.88544e-06 -1.34855e-06
3.95189e-06 -1.34855e-06 -8.45517e-05
0.00153038 -6.24272e-05 -4.09536e-06
-6.24272e-05 -0.000147264 -2.34902e-08
-4.09536e-06 -2.34902e-08 -0.000233065
0.00150476 -0.000165858 -3.80785e-06
-0.000165858 -6.37264e-05 2.62656e-06
-3.80785e-06 2.62656e-06 -0.000154828
0.000878795 -0.000112189 1.24011e-06
-0.000112189 5.72678e-05 1.72155e-06
1.24011e-06 1.72155e-06 -7.3925e-05
0.00175895 -0.000186718 1.99224e-06
-0.000186718 0.000365754 -1.98834e-07
1.99224e-06 -1.98834e-07 0.000198997
0.000979243 -7.93714e-05 -5.90343e-07
-7.93714e-05 0.000148307 -6.17904e-07
-5.90343e-07 -6.17904e-07 2.71685e-05
0.00120221 -7.44803e-05 1.47683e-07
-7.44803e-05 0.000260143 -7.35052e-08
1.47683e-07 -7.35052e-08 0.000149591
0.000830393 -2.12356e-05 -8.82492e-07
-2.12356e-05 5.1801e-05 4.22607e-07
-8.82492e-07 4.22607e-07 -3.1617e-05
0.00083304 7.17766e-06 4.22268e-07
7.17766e-06 4.25601e-05 4.83061e-07
4.22268e-07 4.83061e-07 -2.49263e-05
0.00100355 9.19974e-06 -8.15545e-07
9.19974e-06 0.000129754 -4.91993e-08
-8.15545e-07 -4.91993e-08 5.45775e-05
0.00103499 4.44986e-07 4.68119e-07
4.44986e-07 0.00014375 5.88148e-08
4.68119e-07 5.88148e-08 8.49185e-05
0.000820173 7.76923e-05 1.16763e-06
7.76923e-05 3.45593e-05 1.36109e-06
1.16763e-06 1.36109e-06 -3.96545e-05
0.00160615 -1.756e-05 -5.53559e-07
-1.756e-05 -0.000104473 -2.81046e-06
-5.53559e-07 -2.81046e-06 -0.000184845
0.000862322 2.6991e-05 -2.95645e-07
2.6991e-05 5.8319e-05 3.35524e-07
-2.95645e-07 3.35524e-07 -1.62856e-05
0.00085945 -2.15644e-05 -3.57161e-07
-2.15644e-05 5.89945e-05 -3.50284e-07
-3.57161e-07 -3.50284e-07 -1.6103e-05
0.0021916 -0.000164297 9.18075e-07
-0.000164297 0.000170019 1.96325e-06
9.18075e-07 1.96325e-06 9.38402e-05
0.00101963 -0.000164836 1.42787e-06
-0.000164836 -0.000162818 -2.00104e-07
1.42787e-06 -2.00104e-07 -0.000279716
0.00116191 -0.000148408 5.7498e-07
-0.000148408 0.000208954 -1.20185e-06
5.7498e-07 -1.20185e-06 5.32934e-05
0.000985342 -2.23231e-05 1.27783e-07
-2.23231e-05 0.000124995 -3.52971e-07
1.27783e-07 -3.52971e-07 3.96518e-05
0.000985678 -2.50169e-05 5.56233e-07
-2.50169e-05 0.000160262 4.58161e-07
5.56233e-07 4.58161e-07 2.41442e-05
0.00302271 -0.000114869 -9.03155e-06
-0.000114869 0.000712567 8.86888e-06
-9.03155e-06 8.86888e-06 0.000627473
0.00246569 -0.000239633 -6.16886e-06
-0.000239633 0.000394317 -5.89882e-06
-6.16886e-06 -5.89882e-06 0.000325398
-0.00045513 -0.000108163 -4.24936e-06
-0.000108163 -0.000721496 -7.76647e-07
-4.24936e-06 -7.76647e-07 -0.00085359
0.00145108 -9.67148e-05 -4.37058e-06
-9.67148e-05 0.000386598 2.18276e-06
-4.37058e-06 2.18276e-06 0.000223091
0.000733184 -6.66456e-05 7.95613e-07
-6.66456e-05 -1.34995e-05 1.14679e-07
7.95613e-07 1.14679e-07 -8.85343e-05
0.000955391 -3.69794e-05 1.34568e-06
-3.69794e-05 0.000103466 1.23785e-07
1.34568e-06 1.23785e-07 2.31669e-05
0.000889714 -1.37515e-05 -2.43282e-06
-1.37515e-05 7.8161e-05 6.36076e-08
-2.43282e-06 6.36076e-08 -1.95341e-05
-0.00363326 -2.10507e-05 5.53398e-06
-2.10507e-05 -0.00165124 -1.29153e-06
5.53398e-06 -1.29153e-06 -0.00142518
0.00742075 -3.54834e-05 -2.51486e-05
-3.54834e-05 0.00253811 -5.82974e-07
-2.51486e-05 -5.82974e-07 0.00195345
0.000871132 3.59692e-05 1.7163e-06
3.59692e-05 7.39519e-05 -4.22841e-07
1.7163e-06 -4.22841e-07 -1.93229e-05
0.00095918 0.000106372 2.6494e-06
0.000106372 0.000133187 4.52003e-07
2.6494e-06 4.52003e-07 1.55787e-05
0.00165875 9.97372e-05 3.76476e-07
9.97372e-05 -8.45369e-05 3.64035e-06
3.76476e-07 3.64035e-06 -6.91177e-05
0.00225497 0.000251929 1.44075e-06
0.000251929 0.000343385 6.7921e-07
1.44075e-06 6.7921e-07 0.000235713
0.00102863 0.000131569 4.37168e-06
0.000131569 0.00014298 1.38101e-06
4.37168e-06 1.38101e-06 -4.7345e-05
0.00527054 7.42211e-05 4.12273e-05
7.42211e-05 0.00144518 -9.25377e-06
4.12273e-05 -9.25377e-06 0.000619459
0.00421663 -6.91647e-06 -7.31106e-05
-6.91647e-06 0.000563952 -2.46156e-05
-7.31106e-05 -2.46156e-05 7.66842e-05
0.000397214 0.000122802 -3.11128e-07
0.000122802 -0.000499327 -2.05417e-05
-3.11128e-07 -2.05417e-05 -0.000540444
0.00348867 -0.000455848 2.89899e-05
-0.000455848 0.00173821 1.51907e-05
2.89899e-05 1.51907e-05 0.0016987
-0.00242155 -0.00057757 5.8421e-06
-0.00057757 -0.00243042 -2.09779e-05
5.8421e-06 -2.09779e-05 -0.00108034
0.00100458 8.28558e-05 1.55058e-07
8.28558e-05 0.000152876 -3.81694e-07
1.55058e-07 -3.81694e-07 5.77839e-05
-0.00272224 -0.000119062 7.40839e-06
-0.000119062 -0.00129686 -5.92352e-07
7.40839e-06 -5.92352e-07 -0.00115094
-0.000117787 -0.000288359 -1.36814e-05
-0.000288359 -0.000200086 -3.82129e-06
-1.36814e-05 -3.82129e-06 -8.90054e-05
0.00229866 0.000167145 -2.45635e-06
0.000167145 0.000295251 -2.58925e-06
-2.45635e-06 -2.58925e-06 0.000334883
0.000905169 7.42075e-05 -9.19608e-08
7.42075e-05 0.000138926 -7.03991e-07
-9.19608e-08 -7.03991e-07 4.85937e-06
0.000581942 0.000130918 4.09019e-07
0.000130918 -0.000127013 4.1331e-07
4.09019e-07 4.1331e-07 -0.000326247
2.70861e-05 0.000117636 1.57334e-05
0.000117636 -0.000598998 9.92454e-06
1.57334e-05 9.92454e-06 -0.000531856
0.0051918 -0.00018369 -2.44258e-06
-0.00018369 0.0014014 -1.46224e-06
-2.44258e-06 -1.46224e-06 0.000248862
0.00486632 0.000217398 -2.41388e-05
0.000217398 0.00104237 -1.70539e-05
-2.41388e-05 -1.70539e-05 0.000419941
0.00386018 -0.000653919 1.47482e-05
-0.000653919 0.00141026 -5.78531e-06
1.47482e-05 -5.78531e-06 0.00153607
0.000971336 -0.000331869 1.29123e-05
-0.000331869 -0.00157816 3.25228e-05
1.29123e-05 3.25228e-05 -0.000566681
0.00115652 5.37566e-05 -3.45797e-06
5.37566e-05 0.000240869 -3.41849e-06
-3.45797e-06 -3.41849e-06 0.000156839
-0.00127211 -0.000101653 -6.67357e-05
-0.000101653 -0.000419714 -1.33323e-05
-6.67357e-05 -1.33323e-05 -0.000705297
0.00199852 -3.24177e-05 -4.42414e-05
-3.24177e-05 0.000180886 -4.00317e-05
-4.42414e-05 -4.00317e-05 1.05669e-05
0.000988147 0.000125704 -1.47353e-05
0.000125704 -5.11045e-05 -6.53627e-06
-1.47353e-05 -6.53627e-06 -5.79427e-05
0.00156425 0.000141862 -1.39921e-05
0.000141862 0.000530057 -4.57531e-06
-1.39921e-05 -4.57531e-06 0.00037184
0.00145153 8.09236e-05 -2.49659e-05
8.09236e-05 0.000443338 -4.00544e-06
-2.49659e-05 -4.00544e-06 0.000382495
0.00385995 0.000449578 -0.000100305
0.000449578 0.000843561 1.2496e-05
-0.000100305 1.2496e-05 0.000338877
-0.000293779 -0.000231773 2.8159e-05
-0.000231773 -0.000832073 3.2657e-05
2.8159e-05 3.2657e-05 -0.00229227
0.00678161 -0.000660382 -5.40187e-05
-0.000660382 0.00182296 4.52769e-06
-5.40187e-05 4.52769e-06 0.00206711
0.000681142 -0.000157363 -1.23564e-05
-0.000157363 -0.0019212 -1.66256e-05
-1.23564e-05 -1.66256e-05 -0.00115281
0.000898308 2.7251e-05 4.27854e-07
2.7251e-05 7.36505e-05 1.50048e-06
4.27854e-07 1.50048e-06 -5.78946e-06
0.00108195 5.4917e-05 1.1413e-06
5.4917e-05 0.000173556 8.05954e-07
1.1413e-06 8.05954e-07 0.000100248
0.000632258 5.3697e-05 6.30413e-07
5.3697e-05 -5.04193e-05 -4.37981e-06
6.30413e-07 -4.37981e-06 -0.00011597
0.000749068 2.82038e-05 1.46243e-07
2.82038e-05 -2.53126e-05 -2.17192e-07
1.46243e-07 -2.17192e-07 -7.45434e-05
0.000951833 3.14053e-05 -6.3564e-07
3.14053e-05 9.03593e-05 -2.94646e-07
-6.3564e-07 -2.94646e-07 2.76502e-05
0.000997755 -3.6692e-05 -2.5795e-07
-3.6692e-05 0.000111563 2.7779e-07
-2.5795e-07 2.7779e-07 4.83983e-05
0.000860944 -1.65573e-05 -6.32255e-07
-1.65573e-05 4.55963e-05 -2.5041e-07
-6.32255e-07 -2.5041e-07 -1.8098e-05
0.00093036 -1.44944e-06 -8.55674e-07
-1.44944e-06 8.12221e-05 1.20561e-06
-8.55674e-07 1.20561e-06 1.4278e-05
0.000926897 1.88403e-05 3.88308e-07
1.88403e-05 7.54755e-05 -3.83596e-07
3.88308e-07 -3.83596e-07 1.34953e-05
0.000914132 -1.87915e-05 -5.50668e-08
-1.87915e-05 6.54202e-05 4.18315e-08
-5.50668e-08 4.18315e-08 6.35759e-07
0.000932347 -3.96058e-05 1.78462e-07
-3.96058e-05 7.30002e-05 9.76938e-08
1.78462e-07 9.76938e-08 8.37235e-06
0.000928008 7.16512e-06 1.39811e-07
7.16512e-06 7.62514e-05 -5.2082e-09
1.39811e-07 -5.2082e-09 1.17152e-05
0.00113207 -2.91814e-05 1.69442e-06
-2.91814e-05 0.00018306 -1.34777e-06
1.69442e-06 -1.34777e-06 0.000122483
0.000926379 -2.88615e-05 2.44469e-07
-2.88615e-05 6.29661e-05 -8.13976e-07
2.44469e-07 -8.13976e-07 -1.13249e-06
0.000930969 2.59871e-06 2.69572e-07
2.59871e-06 7.63914e-05 -1.8672e-07
2.69572e-07 -1.8672e-07 7.91433e-06
0.000943288 -2.9184e-05 1.50876e-08
-2.9184e-05 8.65817e-05 -4.04043e-07
1.50876e-08 -4.04043e-07 2.41826e-05
0.000881726 2.09362e-05 -2.79857e-07
2.09362e-05 4.68695e-05 -2.54078e-07
-2.79857e-07 -2.54078e-07 -1.43308e-05
0.000915165 -1.74426e-06 2.43024e-07
-1.74426e-06 6.88311e-05 -2.41602e-07
2.43024e-07 -2.41602e-07 1.5737e-06
0.000871572 4.29192e-05 -1.44539e-07
4.29192e-05 5.08679e-05 -6.75699e-09
-1.44539e-07 -6.75699e-09 -1.25284e-05
0.000943649 3.92736e-05 -4.74149e-07
3.92736e-05 8.00114e-05 -2.41605e-07
-4.74149e-07 -2.41605e-07 1.59829e-05
0.000833057 3.99576e-05 9.08129e-07
3.99576e-05 3.52566e-05 6.47048e-07
9.08129e-07 6.47048e-07 -2.97965e-05
0.000920807 3.95605e-05 4.11421e-07
3.95605e-05 7.03403e-05 -3.3729e-07
4.11421e-07 -3.3729e-07 1.87822e-06
0.000898801 3.74351e-05 2.71569e-07
3.74351e-05 6.13834e-05 -4.21404e-08
2.71569e-07 -4.21404e-08 -3.76347e-06
0.000852136 1.27854e-05 1.55652e-06
1.27854e-05 4.93875e-05 5.24667e-07
1.55652e-06 5.24667e-07 -3.12291e-05
0.000757052 -4.91932e-05 1.06876e-07
-4.91932e-05 2.99892e-05 5.05332e-07
1.06876e-07 5.05332e-07 -7.3335e-05
0.000658492 1.14247e-05 -1.79641e-08
1.14247e-05 -4.48809e-05 5.02498e-07
-1.79641e-08 5.02498e-07 -0.000122875
0.000855759 2.42165e-05 2.602e-07
2.42165e-05 5.4376e-05 4.52832e-07
2.602e-07 4.52832e-07 -1.60063e-05
0.000853301 2.64783e-05 4.13047e-07
2.64783e-05 4.39138e-05 9.29582e-07
4.13047e-07 9.29582e-07 -1.6204e-05
0.000860947 1.3412e-05 -1.87777e-07
1.3412e-05 4.71235e-05 -6.27972e-08
-1.87777e-07 -6.27972e-08 -1.14469e-05
0.000841798 2.46398e-05 -4.08782e-07
2.46398e-05 2.64501e-05 6.4025e-07
-4.08782e-07 6.4025e-07 -1.99034e-05
0.000877512 1.21367e-05 2.32752e-07
1.21367e-05 5.4145e-05 -1.41979e-07
2.32752e-07 -1.41979e-07 -3.63507e-06
0.000854352 3.30338e-06 -1.05353e-07
3.30338e-06 3.06077e-05 6.74816e-09
-1.05353e-07 6.74816e-09 -1.53005e-05
0.000815775 1.84838e-05 -7.31799e-07
1.84838e-05 2.66143e-06 1.6093e-06
-7.31799e-07 1.6093e-06 -2.64607e-05
0.000758501 -2.51257e-06 4.64078e-07
-2.51257e-06 -2.29903e-05 -5.62781e-07
4.64078e-07 -5.62781e-07 -6.91835e-05
0.000818508 1.03302e-05 -6.80315e-08
1.03302e-05 1.86944e-06 -2.0451e-09
-6.80315e-08 -2.0451e-09 -2.66884e-05
0.00134858 1.75419e-05 -4.53756e-06
1.75419e-05 0.000282701 4.28578e-06
-4.53756e-06 4.28578e-06 0.00028373
0.000812616 1.55458e-06 6.06825e-07
1.55458e-06 -2.03301e-06 -1.48993e-06
6.06825e-07 -1.48993e-06 -3.03757e-05
0.00105693 1.15608e-05 -2.01303e-06
1.15608e-05 0.000122309 6.17154e-07
-2.01303e-06 6.17154e-07 0.000122321
0.000928233 1.01155e-05 -5.95397e-07
1.01155e-05 5.33553e-05 1.54433e-06
-5.95397e-07 1.54433e-06 6.97622e-05
0.000762603 5.56791e-06 2.47755e-07
5.56791e-06 -3.89865e-05 -3.03569e-06
2.47755e-07 -3.03569e-06 -4.01114e-05
0.00211605 6.71158e-06 2.00937e-06
6.71158e-06 0.000695318 1.60467e-08
2.00937e-06 1.60467e-08 0.000717668
0.00211144 4.04735e-08 9.26309e-07
4.04735e-08 0.000692306 -4.06512e-06
9.26309e-07 -4.06512e-06 0.000714802
0.00109133 2.9495e-05 -9.98082e-07
2.9495e-05 0.000162653 -4.03387e-07
-9.98082e-07 -4.03387e-07 0.000118687
0.000824504 -4.69073e-06 -2.7427e-07
-4.69073e-06 2.86539e-06 -1.59707e-06
-2.7427e-07 -1.59707e-06 -2.19179e-05
0.000848965 2.41163e-06 6.87053e-07
2.41163e-06 3.49201e-05 4.60495e-07
6.87053e-07 4.60495e-07 -1.06957e-05
0.000774922 -6.77612e-07 -1.17576e-07
-6.77612e-07 -3.41296e-05 -3.13013e-06
-1.17576e-07 -3.13013e-06 -3.25707e-05
0.000829003 -1.21429e-06 3.78591e-08
-1.21429e-06 4.83469e-06 2.4267e-09
3.78591e-08 2.4267e-09 -1.98628e-05
0.000825172 2.3579e-06 -1.58162e-07
2.3579e-06 2.89406e-06 1.58927e-06
-1.58162e-07 1.58927e-06 -2.24009e-05
0.000772486 5.04633e-06 -1.44009e-07
5.04633e-06 -3.49648e-05 1.05637e-08
-1.44009e-07 1.05637e-08 -3.39247e-05
0.00203025 6.6507e-06 3.19472e-06
6.6507e-06 0.000648759 -4.06115e-06
3.19472e-06 -4.06115e-06 0.000672115
0.00130644 1.34763e-05 -7.20769e-07
1.34763e-05 0.000255787 1.93825e-06
-7.20769e-07 1.93825e-06 0.000258619
0.00150514 1.24662e-05 2.06162e-06
1.24662e-05 0.000366198 3.79811e-08
2.06162e-06 3.79811e-08 0.000385953
0.00100952 1.52162e-05 -1.25868e-05
1.52162e-05 0.00010102 6.52845e-06
-1.25868e-05 6.52845e-06 0.000116861
-0.00520545 0.000114096 1.84072e-06
0.000114096 -0.00249905 3.34674e-06
1.84072e-06 3.34674e-06 -0.00245903
-0.00124989 0.000248466 -7.27378e-06
0.000248466 -0.00066787 1.66863e-05
-7.27378e-06 1.66863e-05 -0.000549021
0.0011311 -1.68948e-05 -0.000105931
-1.68948e-05 -0.000352413 -1.16179e-05
-0.000105931 -1.16179e-05 -0.000611451
0.00241259 -3.58713e-05 7.19019e-06
-3.58713e-05 0.000441278 6.53408e-08
7.19019e-06 6.53408e-08 0.000343768
0.00144026 6.74863e-06 -8.11579e-06
6.74863e-06 -0.00023756 -1.05819e-06
-8.11579e-06 -1.05819e-06 -0.000311592
0.00133506 -1.01947e-05 2.39244e-05
-1.01947e-05 2.44605e-05 -2.21758e-06
2.39244e-05 -2.21758e-06 -0.000246436
0.00215195 2.40508e-05 -2.11807e-07
2.40508e-05 0.000274796 1.54932e-06
-2.11807e-07 1.54932e-06 0.000187634
0.00519167 0.000249281 -2.04658e-05
0.000249281 0.00130443 -9.403e-06
-2.04658e-05 -9.403e-06 0.000623929
-0.00331571 0.000263127 -1.43306e-05
0.000263127 -0.00134007 -8.39126e-07
-1.43306e-05 -8.39126e-07 -0.0013807
-4.09168e-05 0.000556445 6.7441e-07
0.000556445 -0.00099829 -4.67544e-06
6.7441e-07 -4.67544e-06 0.000187805
0.0016175 -2.41604e-05 5.32525e-05
-2.41604e-05 0.000108921 -7.33506e-06
5.32525e-05 -7.33506e-06 -0.00013551
0.00670229 0.000405481 1.60899e-05
0.000405481 0.00216434 -4.92749e-06
1.60899e-05 -4.92749e-06 0.0012141
4.32511e-05 0.000481048 -3.53274e-05
0.000481048 -0.000307187 3.21765e-06
-3.53274e-05 3.21765e-06 9.00242e-05
0.00332232 0.000328794 -5.0464e-05
0.000328794 2.81308e-05 2.64011e-05
-5.0464e-05 2.64011e-05 0.000798444
0.00085381 3.8356e-05 -7.61668e-07
3.8356e-05 5.41113e-05 1.15193e-07
-7.61668e-07 1.15193e-07 -1.73143e-05
0.000776814 -8.48463e-06 2.40289e-08
-8.48463e-06 6.15374e-06 -3.16558e-07
2.40289e-08 -3.16558e-07 -5.10906e-05
0.000845966 -4.7033e-05 -8.41712e-07
-4.7033e-05 3.42421e-05 8.19782e-07
-8.41712e-07 8.19782e-07 -1.18164e-05
0.000769398 5.32652e-06 2.12793e-07
5.32652e-06 3.3521e-06 3.22272e-07
2.12793e-07 3.22272e-07 -5.61355e-05
0.000861669 4.68226e-05 7.4231e-07
4.68226e-05 6.16688e-05 7.23876e-07
7.4231e-07 7.23876e-07 -6.80778e-06
0.000899562 2.88958e-05 -7.79622e-07
2.88958e-05 7.82367e-05 4.32562e-07
-7.79622e-07 4.32562e-07 8.25848e-06
0.000885336 3.81484e-05 1.18943e-06
3.81484e-05 7.16528e-05 9.49203e-07
1.18943e-06 9.49203e-07 3.05742e-06
0.000841919 -2.63038e-05 5.70923e-07
-2.63038e-05 3.95471e-05 2.16085e-07
5.70923e-07 2.16085e-07 -2.23053e-05
0.000837525 -2.89025e-05 4.36397e-07
-2.89025e-05 4.11107e-05 -5.40857e-07
4.36397e-07 -5.40857e-07 -1.91988e-05
0.000765165 -3.76913e-05 -4.77981e-08
-3.76913e-05 3.0876e-06 5.09545e-07
-4.77981e-08 5.09545e-07 -5.66111e-05
0.0014593 -1.45706e-05 9.27795e-07
-1.45706e-05 -0.000182005 -1.93518e-06
9.27795e-07 -1.93518e-06 -0.000260985
0.00238093 -0.000168424 -2.18451e-06
-0.000168424 0.000276794 4.54516e-06
-2.18451e-06 4.54516e-06 0.000200375
7.01984e-05 -0.000125723 4.06046e-06
-0.000125723 -0.000638106 1.26463e-06
4.06046e-06 1.26463e-06 -0.000745529
0.00113541 -0.000149442 1.78919e-06
-0.000149442 0.000188276 4.88431e-07
1.78919e-06 4.88431e-07 2.69155e-05
0.00113804 -4.41285e-05 3.0852e-06
-4.41285e-05 0.000241234 -2.75479e-07
3.0852e-06 -2.75479e-07 0.000105258
0.00107281 -3.92268e-05 -1.39587e-07
-3.92268e-05 0.000170845 -4.73652e-07
-1.39587e-07 -4.73652e-07 8.37471e-05
0.000860595 -1.67551e-05 -9.91475e-07
-1.67551e-05 5.514e-05 -2.21655e-07
-9.91475e-07 -2.21655e-07 -1.81433e-05
0.000886342 2.79004e-05 -5.55253e-07
2.79004e-05 7.1999e-05 3.73071e-08
-5.55253e-07 3.73071e-08 -1.05557e-06
0.00165913 -7.97486e-05 -6.18549e-06
-7.97486e-05 1.5165e-05 1.72901e-06
-6.18549e-06 1.72901e-06 -5.95686e-05
0.000797321 -3.06856e-05 -1.59246e-07
-3.06856e-05 2.03004e-05 1.04185e-07
-1.59246e-07 1.04185e-07 -5.56239e-05
0.000900077 -4.10318e-05 5.15919e-07
-4.10318e-05 7.36247e-05 -2.9775e-07
5.15919e-07 -2.9775e-07 -7.38933e-06
0.00218836 -0.000228043 1.755e-06
-0.000228043 0.000261714 -1.55916e-06
1.755e-06 -1.55916e-06 0.000189627
0.000232601 -0.000135479 1.07636e-06
-0.000135479 -0.000356798 9.3262e-07
1.07636e-06 9.3262e-07 -0.000490834
0.00122067 -8.84538e-05 2.8828e-06
-8.84538e-05 0.000260026 -6.29713e-07
2.8828e-06 -6.29713e-07 0.000101308
0.000954851 -2.84568e-05 -8.73944e-07
-2.84568e-05 0.000118006 -5.05019e-07
-8.73944e-07 -5.05019e-07 1.39881e-05
0.00262881 -0.000200797 3.01606e-06
-0.000200797 0.000758743 -6.10977e-06
3.01606e-06 -6.10977e-06 0.00060429
0.00193908 -0.000211479 -1.12778e-05
-0.000211479 0.000435119 1.37375e-06
-1.12778e-05 1.37375e-06 0.000336634
0.000810389 -1.12171e-06 -6.93482e-06
-1.12171e-06 6.77803e-05 5.20215e-06
-6.93482e-06 5.20215e-06 -6.76478e-05
0.000885747 2.28461e-05 4.56317e-07
2.28461e-05 6.68677e-05 1.11828e-06
4.56317e-07 1.11828e-06 -9.36925e-06
0.000807639 -7.87925e-05 1.24568e-06
-7.87925e-05 2.22997e-05 3.93068e-07
1.24568e-06 3.93068e-07 -5.95439e-05
0.000986375 -3.6298e-05 -5.77404e-08
-3.6298e-05 0.000106414 1.12654e-06
-5.77404e-08 1.12654e-06 2.24494e-05
0.00100439 4.16256e-06 -6.66384e-05
4.16256e-06 0.000891048 8.5276e-07
-6.66384e-05 8.5276e-07 0.00076365
0.00137095 -2.46623e-05 1.391e-05
-2.46623e-05 0.000834533 3.8459e-06
1.391e-05 3.8459e-06 0.000804983
-5.36217e-05 0.000192435 -4.18503e-05
0.000192435 -0.0012667 2.02164e-05
-4.18503e-05 2.02164e-05 -0.00182429
0.00090487 7.96268e-05 1.71032e-06
7.96268e-05 0.000103243 1.18609e-06
1.71032e-06 1.18609e-06 8.13299e-06
0.000645959 8.10017e-05 4.29938e-06
8.10017e-05 1.29594e-05 1.33382e-06
4.29938e-06 1.33382e-06 -0.000122652
0.00359012 0.000205937 5.79581e-06
0.000205937 0.000947355 -9.27388e-07
5.79581e-06 -9.27388e-07 0.00097126
7.96949e-05 9.41402e-05 7.8143e-06
9.41402e-05 -0.000381719 3.65331e-06
7.8143e-06 3.65331e-06 -0.000580061
0.00298906 -0.000290962 5.10233e-05
-0.000290962 0.00130624 1.01445e-05
5.10233e-05 1.01445e-05 0.00148701
0.00081606 -0.000255777 3.09686e-06
-0.000255777 -0.000685656 1.0016e-05
3.09686e-06 1.0016e-05 -0.00160643
0.00398725 0.000223593 -7.75151e-05
0.000223593 0.00040445 -5.75271e-05
-7.75151e-05 -5.75271e-05 -0.000385931
-0.00138568 6.29244e-05 1.15969e-05
6.29244e-05 -0.00125067 -5.56688e-06
1.15969e-05 -5.56688e-06 -0.001198
-0.00234561 -0.00037803 4.86911e-05
-0.00037803 -0.00130118 1.86595e-05
4.86911e-05 1.86595e-05 -0.00123686
0.001283 -0.00029037 3.92992e-05
-0.00029037 0.000500838 2.05169e-05
3.92992e-05 2.05169e-05 0.000595982
0.00357715 -0.000393799 5.17279e-05
-0.000393799 -5.67623e-05 3.09419e-05
5.17279e-05 3.09419e-05 0.00105483
0.000944083 6.16645e-05 5.28938e-07
6.16645e-05 0.000133961 -5.80358e-07
5.28938e-07 -5.80358e-07 4.86636e-05
3.23743e-06 -0.000124715 -2.07671e-05
-0.000124715 0.00020054 -5.37293e-06
-2.07671e-05 -5.37293e-06 7.31172e-05
0.00209506 -2.94861e-05 -3.58833e-06
-2.94861e-05 0.000206658 -8.92092e-06
-3.58833e-06 -8.92092e-06 3.5502e-05
0.00129989 0.000107361 -4.92058e-06
0.000107361 0.000143031 -7.67702e-07
-4.92058e-06 -7.67702e-07 8.68705e-05
0.000794456 7.64664e-05 -2.089e-06
7.64664e-05 0.00014872 -4.61101e-07
-2.089e-06 -4.61101e-07 -1.51409e-05
-0.000752191 7.18181e-05 1.36702e-05
7.18181e-05 -0.000653652 -1.55296e-05
1.36702e-05 -1.55296e-05 -0.000682659
0.00557419 0.000565092 -2.5474e-05
0.000565092 0.00155018 -1.00633e-05
-2.5474e-05 -1.00633e-05 0.000815394
0.00800056 -0.00039151 1.07338e-05
-0.00039151 0.00269828 5.50971e-06
1.07338e-05 5.50971e-06 0.00148643
0.000504011 -0.00036189 4.591e-06
-0.00036189 -0.00116999 3.32824e-06
4.591e-06 3.32824e-06 -0.000873071
0.00393607 -0.000210799 3.85472e-06
-0.000210799 0.000192815 9.98034e-07
3.85472e-06 9.98034e-07 0.000980274
0.00146912 0.000115229 -8.93321e-06
0.000115229 0.000443069 -8.15844e-06
-8.93321e-06 -8.15844e-06 0.000373978
0.00168418 -1.28824e-05 -3.33625e-05
-1.28824e-05 0.000112443 -1.34643e-05
-3.33625e-05 -1.34643e-05 -5.41149e-05
0.00134016 -6.93848e-06 -1.24215e-05
-6.93848e-06 -0.00015259 -2.21405e-05
-1.24215e-05 -2.21405e-05 -0.000240435
-0.000709009 -2.93271e-05 -1.68647e-05
-2.93271e-05 -0.0005001 -1.50118e-05
-1.68647e-05 -1.50118e-05 -0.000606415
0.00323995 0.000304327 -1.17707e-05
0.000304327 0.00109184 4.7154e-05
-1.17707e-05 4.7154e-05 0.000685434
0.00865239 -0.000286373 2.05291e-05
-0.000286373 0.00269835 -9.44229e-07
2.05291e-05 -9.44229e-07 0.00125771
-0.00304578 -0.00020512 -4.99194e-05
-0.00020512 -0.00278719 -2.57231e-05
-4.99194e-05 -2.57231e-05 -0.00302658
0.00444688 3.06216e-05 -1.03149e-06
3.06216e-05 0.000476204 -3.30288e-05
-1.03149e-06 -3.30288e-05 0.0012642
0.00093606 5.33652e-05 3.24728e-07
5.33652e-05 9.71373e-05 2.49426e-06
3.24728e-07 2.49426e-06 2.29522e-05
0.000890014 6.78988e-05 -6.70139e-07
6.78988e-05 8.28379e-05 -1.04134e-06
-6.70139e-07 -1.04134e-06 1.7812e-05
0.000429953 3.99012e-05 1.0288e-06
3.99012e-05 -0.000141347 -3.13038e-06
1.0288e-06 -3.13038e-06 -0.000194579
0.000929499 5.39287e-05 -1.06918e-06
5.39287e-05 7.30938e-05 -5.94731e-07
-1.06918e-06 -5.94731e-07 1.34769e-05
0.000918849 -2.83572e-05 -5.46845e-10
-2.83572e-05 6.85696e-05 3.61045e-07
-5.46845e-10 3.61045e-07 1.91601e-06
0.000993247 -1.91288e-05 -9.29058e-07
-1.91288e-05 0.00010924 6.5316e-07
-9.29058e-07 6.5316e-07 4.43238e-05
0.000880431 -8.23817e-06 -8.4931e-07
-8.23817e-06 5.2714e-05 1.41482e-06
-8.4931e-07 1.41482e-06 -1.0547e-05
0.000933076 8.11807e-06 3.65386e-07
8.11807e-06 7.24545e-05 -8.67035e-09
3.65386e-07 -8.67035e-09 7.43171e-06
0.000917579 -1.58171e-05 -2.10581e-07
-1.58171e-05 5.96455e-05 3.16748e-08
-2.10581e-07 3.16748e-08 -4.69268e-06
0.000990508 -2.29585e-05 3.74336e-07
-2.29585e-05 0.000108547 5.58869e-07
3.74336e-07 5.58869e-07 4.75207e-05
0.000934825 -3.69516e-05 5.47206e-07
-3.69516e-05 9.57599e-05 -1.82657e-07
5.47206e-07 -1.82657e-07 4.45808e-05
0.000968127 -3.92337e-05 2.14145e-06
-3.92337e-05 7.87388e-05 -1.07403e-06
2.14145e-06 -1.07403e-06 2.19077e-05
0.000847467 3.87719e-05 1.08624e-06
3.87719e-05 2.81972e-05 -1.99641e-07
1.08624e-06 -1.99641e-07 -3.95101e-05
0.000916449 -1.82995e-05 7.50501e-07
-1.82995e-05 6.71103e-05 -1.1121e-07
7.50501e-07 -1.1121e-07 1.58712e-06
0.000855105 4.5753e-05 -3.942e-07
4.5753e-05 4.20567e-05 -1.87266e-07
-3.942e-07 -1.87266e-07 -2.13539e-05
0.000911994 3.18785e-05 -6.50052e-07
3.18785e-05 6.18787e-05 3.96585e-08
-6.50052e-07 3.96585e-08 -1.44223e-06
0.000920978 3.88722e-05 -2.02921e-07
3.88722e-05 6.85217e-05 -6.12754e-08
-2.02921e-07 -6.12754e-08 1.57229e-06
0.000851316 4.29217e-05 3.50584e-07
4.29217e-05 4.66344e-05 3.33631e-07
3.50584e-07 3.33631e-07 -1.92794e-05
0.000899185 4.62164e-05 9.57884e-09
4.62164e-05 6.18881e-05 -8.90898e-08
9.57884e-09 -8.90898e-08 -3.71918e-06
0.000896458 2.85234e-05 1.90871e-06
2.85234e-05 6.69593e-05 6.77067e-07
1.90871e-06 6.77067e-07 -2.12546e-06
0.000905486 3.39553e-05 4.23141e-07
3.39553e-05 5.86164e-05 -4.60527e-08
4.23141e-07 -4.60527e-08 -4.65423e-06
0.000885401 -4.85987e-05 6.16918e-07
-4.85987e-05 8.07369e-05 2.38606e-07
6.16918e-07 2.38606e-07 -5.09471e-06
0.000935762 2.03839e-06 -1.41884e-07
2.03839e-06 9.43656e-05 -4.27334e-08
-1.41884e-07 -4.27334e-08 1.34973e-05
0.000763955 -3.90008e-05 3.82808e-07
-3.90008e-05 2.99332e-05 2.41086e-06
3.82808e-07 2.41086e-06 -6.81624e-05
0.000993381 -0.000103603 -1.44936e-06
-0.000103603 0.000138324 3.74188e-06
-1.44936e-06 3.74188e-06 1.83849e-05
0.00107468 -2.70216e-05 7.55767e-07
-2.70216e-05 0.000179816 -3.33374e-07
7.55767e-07 -3.33374e-07 9.19533e-05
0.000764563 -5.29979e-05 3.48858e-07
-5.29979e-05 3.56786e-05 -2.09601e-06
3.48858e-07 -2.09601e-06 -6.51608e-05
0.000862518 1.18352e-05 -3.84882e-07
1.18352e-05 6.31235e-05 -5.75722e-07
-3.84882e-07 -5.75722e-07 -1.35322e-05
0.000712308 1.82484e-05 6.37631e-07
1.82484e-05 -2.79114e-05 1.05973e-06
6.37631e-07 1.05973e-06 -9.4328e-05
0.000891762 2.40734e-05 -5.0063e-07
2.40734e-05 7.4456e-05 -5.2571e-07
-5.0063e-07 -5.2571e-07 3.62145e-06
0.000871925 1.02181e-05 -8.0088e-08
1.02181e-05 5.40302e-05 3.32641e-07
-8.0088e-08 3.32641e-07 -6.35657e-06
0.000835432 2.72504e-05 -4.84e-07
2.72504e-05 2.54093e-05 7.94306e-07
-4.84e-07 7.94306e-07 -2.23974e-05
0.000878313 -7.23962e-06 1.58376e-07
-7.23962e-06 5.84862e-05 -4.17086e-07
1.58376e-07 -4.17086e-07 -1.61182e-06
0.000845553 3.9823e-06 -3.26269e-07
3.9823e-06 2.88583e-05 2.2292e-08
-3.26269e-07 2.2292e-08 -1.78947e-05
0.000810909 2.2366e-05 -9.30721e-07
2.2366e-05 3.81671e-06 1.62999e-06
-9.30721e-07 1.62999e-06 -2.62586e-05
0.000866282 -1.0882e-05 9.58499e-07
-1.0882e-05 3.76375e-05 -6.42528e-07
9.58499e-07 -6.42528e-07 -8.8236e-06
0.00081898 1.41751e-05 -1.51856e-07
1.41751e-05 3.96314e-06 -7.5819e-10
-1.51856e-07 -7.5819e-10 -2.5014e-05
0.00134112 2.34975e-05 -6.26169e-06
2.34975e-05 0.000282406 4.27424e-06
-6.26169e-06 4.27424e-06 0.000282775
0.000816258 5.3766e-06 9.3714e-07
5.3766e-06 3.92757e-07 -1.54931e-06
9.3714e-07 -1.54931e-06 -2.80401e-05
0.0010521 1.71074e-05 -2.68927e-06
1.71074e-05 0.000122413 5.91722e-07
-2.68927e-06 5.91722e-07 0.000122003
0.000923072 1.56131e-05 -1.11525e-06
1.56131e-05 5.40594e-05 1.56257e-06
-1.11525e-06 1.56257e-06 6.98505e-05
0.000759607 1.06249e-05 4.4684e-07
1.06249e-05 -3.90628e-05 -3.0746e-06
4.4684e-07 -3.0746e-06 -4.04312e-05
0.00152048 1.28174e-05 4.16245e-06
1.28174e-05 0.000374187 -1.20936e-06
4.16245e-06 -1.20936e-06 0.000393426
0.00211541 7.56293e-06 4.69046e-06
7.56293e-06 0.000695262 -4.02486e-06
4.69046e-06 -4.02486e-06 0.000717572
0.000908862 -2.70232e-05 6.8798e-07
-2.70232e-05 6.42715e-05 -3.42799e-07
6.8798e-07 -3.42799e-07 1.81782e-05
0.000824626 -9.01534e-06 -2.88856e-07
-9.01534e-06 4.60363e-06 -1.52811e-06
-2.88856e-07 -1.52811e-06 -2.10774e-05
0.000896393 -8.00107e-06 4.22282e-07
-8.00107e-06 5.85092e-05 1.53436e-07
4.22282e-07 1.53436e-07 1.36658e-05
0.000778013 -6.03545e-06 -3.59396e-07
-6.03545e-06 -3.158e-05 -3.09655e-06
-3.59396e-07 -3.09655e-06 -3.02648e-05
0.000829344 -5.29297e-06 -3.55591e-08
-5.29297e-06 5.49661e-06 2.62717e-09
-3.55591e-08 2.62717e-09 -1.93116e-05
0.000855867 -3.26661e-05 -1.00036e-06
-3.26661e-05 3.619e-05 1.13345e-06
-1.00036e-06 1.13345e-06 -7.5971e-06
0.00201632 -6.68133e-07 -6.33714e-07
-6.68133e-07 0.000640963 -4.06123e-06
-6.33714e-07 -4.06123e-06 0.000664528
0.000774372 -4.10041e-07 -7.16286e-08
-4.10041e-07 -3.44499e-05 4.15802e-09
-7.16286e-08 4.15802e-09 -3.28952e-05
0.000830701 -1.7567e-06 9.01816e-08
-1.7567e-06 5.70131e-06 1.60724e-06
9.01816e-08 1.60724e-06 -1.8996e-05
0.000776037 5.27313e-06 -1.7031e-07
5.27313e-06 -3.30394e-05 3.15421e-06
-1.7031e-07 3.15421e-06 -3.20413e-05
0.00203419 7.0986e-06 -2.14251e-06
7.0986e-06 0.000651077 -1.67829e-08
-2.14251e-06 -1.67829e-08 0.000674355
0.00206339 1.40522e-05 -9.37506e-06
1.40522e-05 0.000668404 4.02647e-06
-9.37506e-06 4.02647e-06 0.000691102
-0.00116348 0.000103244 -3.59296e-05
0.000103244 -0.000304775 4.09449e-06
-3.59296e-05 4.09449e-06 -0.000531036
-0.00104322 0.000244233 2.74551e-06
0.000244233 -0.000308561 2.39378e-06
2.74551e-06 2.39378e-06 -0.000333597
0.0016865 5.52496e-05 -5.92223e-05
5.52496e-05 -9.34749e-05 3.4754e-05
-5.92223e-05 3.4754e-05 -0.000221489
-0.00127678 0.000290675 3.94261e-05
0.000290675 -0.000654465 -1.58891e-05
3.94261e-05 -1.58891e-05 -0.000475285
0.00221823 6.10343e-05 -8.55088e-05
6.10343e-05 0.00030851 3.21605e-06
-8.55088e-05 3.21605e-06 -3.1408e-05
0.00187912 2.20672e-05 3.2415e-05
2.20672e-05 0.00014095 -4.4893e-06
3.2415e-05 -4.4893e-06 5.91602e-05
0.00139077 -0.000167958 -5.63574e-05
-0.000167958 -0.000383806 -1.36233e-05
-5.63574e-05 -1.36233e-05 -0.000985074
0.00658427 0.000470759 7.55895e-05
0.000470759 0.0031876 -2.11724e-05
7.55895e-05 -2.11724e-05 0.00328204
-0.00230397 0.000592704 1.03326e-05
0.000592704 -0.00251044 2.45883e-05
1.03326e-05 2.45883e-05 -0.00108734
0.00145378 5.3388e-05 -4.32188e-06
5.3388e-05 -0.000106098 9.80126e-07
-4.32188e-06 9.80126e-07 -0.000328173
0.0019378 0.000247233 1.38262e-05
0.000247233 -6.24144e-05 -1.63819e-05
1.38262e-05 -1.63819e-05 -0.00127563
0.00424975 0.000687667 -7.7212e-06
0.000687667 0.00117489 -9.07027e-06
-7.7212e-06 -9.07027e-06 0.00156496
0.00194033 0.000330611 -4.45848e-06
0.000330611 -0.000824986 8.52079e-06
-4.45848e-06 8.52079e-06 -7.19158e-05
0.0018876 -2.27666e-05 -1.67875e-05
-2.27666e-05 -0.000218938 3.16415e-06
-1.67875e-05 3.16415e-06 -0.000449945
0.00447142 0.000415219 6.45991e-05
0.000415219 0.00118849 -5.05983e-05
6.45991e-05 -5.05983e-05 -0.000106948
-0.00410468 0.000241051 -8.18556e-05
0.000241051 -0.00334309 6.61265e-06
-8.18556e-05 6.61265e-06 -0.0030923
0.00122759 0.000185125 -1.67403e-05
0.000185125 -0.00165064 2.12862e-05
-1.67403e-05 2.12862e-05 -0.000913896
0.000957288 -1.96418e-05 1.04965e-06
-1.96418e-05 0.000108446 4.98281e-07
1.04965e-06 4.98281e-07 3.14699e-05
0.000902088 3.3518e-05 -1.33836e-06
3.3518e-05 7.95962e-05 -3.46053e-07
-1.33836e-06 -3.46053e-07 9.33392e-06
0.000849463 1.03851e-05 6.86495e-07
1.03851e-05 4.47487e-05 -2.03176e-07
6.86495e-07 -2.03176e-07 -1.22928e-05
0.000904143 5.31692e-05 1.95056e-06
5.31692e-05 8.49744e-05 8.23581e-07
1.95056e-06 8.23581e-07 1.67917e-05
0.000820536 1.13899e-05 -2.088e-07
1.13899e-05 3.70798e-05 6.84587e-07
-2.088e-07 6.84587e-07 -4.02217e-05
0.000934716 3.06058e-05 1.45633e-07
3.06058e-05 9.79752e-05 5.1928e-07
1.45633e-07 5.1928e-07 2.79059e-05
0.000848998 -6.6133e-06 -1.6533e-07
-6.6133e-06 4.87433e-05 9.58306e-07
-1.6533e-07 9.58306e-07 -1.76784e-05
0.000949442 5.96261e-05 -6.90395e-07
5.96261e-05 0.000104748 3.59845e-07
-6.90395e-07 3.59845e-07 3.52969e-05
0.000932554 2.29511e-05 -3.48783e-07
2.29511e-05 9.47785e-05 3.11548e-07
-3.48783e-07 3.11548e-07 2.9046e-05
0.000790501 -2.19649e-05 -8.66335e-07
-2.19649e-05 1.70984e-05 -3.08916e-07
-8.66335e-07 -3.08916e-07 -4.50877e-05
0.000492289 -5.39654e-05 8.70044e-06
-5.39654e-05 -0.000575097 -6.48486e-07
8.70044e-06 -6.48486e-07 -0.000642849
0.00195205 -0.000216191 1.86871e-06
-0.000216191 0.000152716 3.89952e-06
1.86871e-06 3.89952e-06 7.78955e-05
0.000955185 -0.000164958 8.01771e-06
-0.000164958 2.60046e-05 6.86481e-07
8.01771e-06 6.86481e-07 -0.000110856
0.000977557 -7.56184e-05 6.47139e-06
-7.56184e-05 0.000128284 -1.23138e-06
6.47139e-06 -1.23138e-06 -2.81003e-05
0.00102607 -1.48769e-05 7.00144e-07
-1.48769e-05 0.000162538 -9.42451e-07
7.00144e-07 -9.42451e-07 5.14282e-05
0.000822244 -4.55563e-05 -4.50341e-07
-4.55563e-05 3.48857e-05 -3.82054e-07
-4.50341e-07 -3.82054e-07 -4.86423e-05
0.000862132 4.3933e-05 -6.65421e-08
4.3933e-05 5.48192e-05 -3.95656e-07
-6.65421e-08 -3.95656e-07 -2.22859e-05
0.000906489 -2.86277e-05 -1.60911e-07
-2.86277e-05 8.00827e-05 4.50525e-07
-1.60911e-07 4.50525e-07 2.14369e-06
0.00147017 -0.000154175 -9.58399e-07
-0.000154175 0.000159975 -5.18364e-07
-9.58399e-07 -5.18364e-07 5.27045e-05
0.000936047 1.10578e-06 -1.34054e-07
1.10578e-06 9.08638e-05 -3.0939e-07
-1.34054e-07 -3.0939e-07 9.03789e-06
0.000961841 -3.42791e-05 -4.97862e-07
-3.42791e-05 9.67986e-05 -9.91485e-08
-4.97862e-07 -9.91485e-08 9.92458e-06
0.00159704 -0.000193516 5.95089e-07
-0.000193516 0.000261172 -4.08523e-07
5.95089e-07 -4.08523e-07 0.00016776
0.00109213 -2.1025e-05 -2.15262e-06
-2.1025e-05 0.000195873 1.38024e-06
-2.15262e-06 1.38024e-06 6.38461e-05
-7.87276e-05 -0.00020938 1.10848e-06
-0.00020938 -0.000671664 -7.81663e-06
1.10848e-06 -7.81663e-06 -0.000632849
0.00159501 -7.29756e-05 -7.48927e-06
-7.29756e-05 0.000512842 9.36796e-06
-7.48927e-06 9.36796e-06 0.000366527
0.00057538 1.77527e-05 -2.38854e-06
1.77527e-05 -0.000120351 5.59033e-06
-2.38854e-06 5.59033e-06 -0.000203955
0.000894805 1.55723e-06 4.92701e-07
1.55723e-06 5.94342e-05 9.62547e-07
4.92701e-07 9.62547e-07 -1.74044e-05
0.000885659 2.18842e-05 -5.86669e-07
2.18842e-05 5.54497e-05 1.10293e-06
-5.86669e-07 1.10293e-06 -2.98677e-05
0.00137399 2.37648e-06 -1.41683e-05
2.37648e-06 -8.20254e-05 -5.9049e-07
-1.41683e-05 -5.9049e-07 -0.00021673
-2.21644e-05 -4.76419e-06 -1.2388e-05
-4.76419e-06 0.000386625 -1.20668e-06
-1.2388e-05 -1.20668e-06 0.000189655
-0.00553018 -6.2372e-05 -1.39993e-05
-6.2372e-05 -0.0027786 5.20056e-06
-1.39993e-05 5.20056e-06 -0.00265133
0.000790801 7.3532e-05 3.15801e-06
7.3532e-05 5.83722e-05 2.12883e-06
3.15801e-06 2.12883e-06 -2.86949e-05
0.000186482 2.34579e-05 5.44969e-06
2.34579e-05 -0.000151245 3.23535e-06
5.44969e-06 3.23535e-06 -0.000319099
0.00129918 8.06304e-05 1.14394e-05
8.06304e-05 0.000160099 -2.86908e-06
1.14394e-05 -2.86908e-06 8.16742e-05
-0.00121049 -6.8242e-05 2.21474e-05
-6.8242e-05 -0.000335212 4.16775e-06
2.21474e-05 4.16775e-06 -0.000584224
0.00366193 -0.000429999 4.16777e-06
-0.000429999 0.000827415 -5.64407e-06
4.16777e-06 -5.64407e-06 -0.000595419
0.00487448 0.000514611 6.89827e-05
0.000514611 0.00115863 -2.94657e-05
6.89827e-05 -2.94657e-05 0.000605075
0.000244489 7.31426e-05 -1.54422e-05
7.31426e-05 -0.000123367 1.22018e-05
-1.54422e-05 1.22018e-05 -7.96421e-05
0.0055962 -0.000609645 4.03859e-05
-0.000609645 0.00151402 3.18343e-05
4.03859e-05 3.18343e-05 0.00165977
0.00217676 -2.9472e-05 3.91708e-05
-2.9472e-05 0.000221347 2.22324e-05
3.91708e-05 2.22324e-05 5.1785e-05
0.0040719 -0.000188072 2.33017e-05
-0.000188072 0.000453464 1.69376e-05
2.33017e-05 1.69376e-05 0.00122371
0.00120736 0.000102586 1.24728e-06
0.000102586 0.000311785 -1.10056e-06
1.24728e-06 -1.10056e-06 0.000242682
0.00157637 -9.05479e-06 6.03096e-07
-9.05479e-06 8.05952e-05 -4.85037e-06
6.03096e-07 -4.85037e-06 -6.06327e-05
0.00177016 -8.19258e-06 -8.50994e-07
-8.19258e-06 9.53657e-05 -3.74397e-07
-8.50994e-07 -3.74397e-07 1.32123e-05
0.000230786 2.90264e-05 -5.04199e-07
2.90264e-05 -6.76984e-06 5.38382e-07
-5.04199e-07 5.38382e-07 -0.000111698
0.00352068 0.000393044 -1.99089e-05
0.000393044 0.000905341 -2.47782e-05
-1.99089e-05 -2.47782e-05 0.00062064
0.00377529 0.000122267 4.01774e-05
0.000122267 0.000565357 1.39098e-05
4.01774e-05 1.39098e-05 -0.0011017
0.0027239 1.57071e-05 1.14753e-07
1.57071e-05 -0.000692702 -1.15345e-05
1.14753e-07 -1.15345e-05 0.000144806
0.000589358 -0.000222253 -1.15813e-05
-0.000222253 -0.000784094 1.826e-05
-1.15813e-05 1.826e-05 -0.000910164
0.00103427 4.81368e-05 -4.37005e-06
4.81368e-05 0.000320175 -1.04015e-05
-4.37005e-06 -1.04015e-05 0.000285997
0.00107693 -1.30104e-06 -3.3018e-06
-1.30104e-06 8.11369e-05 1.90676e-06
-3.3018e-06 1.90676e-06 2.96248e-05
0.00192391 4.43789e-06 -1.97844e-06
4.43789e-06 0.000234191 -1.5466e-05
-1.97844e-06 -1.5466e-05 0.000154891
0.00115915 0.000163477 1.70447e-05
0.000163477 -0.0016146 -2.39074e-05
1.70447e-05 -2.39074e-05 -0.000937681
-0.00149237 5.62831e-05 9.0641e-06
5.62831e-05 -0.000752252 -9.89769e-06
9.0641e-06 -9.89769e-06 -0.000982543
0.00797542 1.67443e-05 6.25542e-05
1.67443e-05 0.00246941 1.95671e-05
6.25542e-05 1.95671e-05 0.00112197
-0.00161756 -5.29582e-05 1.58394e-05
-5.29582e-05 -0.000799199 -4.45559e-05
1.58394e-05 -4.45559e-05 -0.00104055
0.00116007 8.94257e-05 2.85236e-06
8.94257e-05 0.000221975 4.4825e-06
2.85236e-06 4.4825e-06 0.000157199
0.000575572 5.69575e-05 -1.05833e-06
5.69575e-05 -7.19416e-05 1.85351e-06
-1.05833e-06 1.85351e-06 -0.000128446
0.000255029 1.58778e-05 -2.8523e-07
1.58778e-05 -0.000186297 -4.21921e-06
-2.8523e-07 -4.21921e-06 -0.000244371
0.000939435 7.10148e-05 -4.20588e-07
7.10148e-05 7.75359e-05 1.53912e-07
-4.20588e-07 1.53912e-07 1.13156e-05
0.000906324 -1.57193e-07 -7.04443e-07
-1.57193e-07 5.34211e-05 3.46113e-07
-7.04443e-07 3.46113e-07 -9.98326e-06
0.000853016 -3.6424e-05 -2.28056e-06
-3.6424e-05 3.51612e-05 3.33203e-06
-2.28056e-06 3.33203e-06 -2.68129e-05
0.000912146 4.19416e-05 1.51551e-07
4.19416e-05 5.91593e-05 2.25237e-08
1.51551e-07 2.25237e-08 -6.7621e-06
0.000862955 -4.82761e-05 1.09798e-07
-4.82761e-05 2.61787e-05 -5.05922e-07
1.09798e-07 -5.05922e-07 -3.25858e-05
0.000940007 -5.88375e-05 2.05321e-06
-5.88375e-05 8.93776e-05 1.44734e-06
2.05321e-06 1.44734e-06 3.31522e-05
0.000743804 -1.74185e-05 1.19486e-06
-1.74185e-05 6.7661e-06 3.0673e-07
1.19486e-06 3.0673e-07 -3.55753e-05
0.00092167 1.79543e-06 5.78275e-07
1.79543e-06 5.39121e-05 -7.30281e-07
5.78275e-07 -7.30281e-07 -5.19106e-06
0.000922072 3.96568e-05 -6.07508e-07
3.96568e-05 6.66856e-05 3.19681e-07
-6.07508e-07 3.19681e-07 1.50731e-06
0.000864978 4.58555e-05 -2.74477e-07
4.58555e-05 5.54672e-05 -1.82659e-07
-2.74477e-07 -1.82659e-07 -1.12582e-05
0.000888807 4.92415e-05 -9.20423e-07
4.92415e-05 5.61914e-05 -2.06094e-07
-9.20423e-07 -2.06094e-07 -9.49992e-06
0.000895972 2.93965e-05 1.71662e-07
2.93965e-05 5.28053e-05 1.87969e-07
1.71662e-07 1.87969e-07 -1.03645e-05
0.000935346 2.97694e-05 6.66596e-07
2.97694e-05 8.64106e-05 2.89884e-07
6.66596e-07 2.89884e-07 1.81239e-05
0.000784877 -3.12206e-05 9.32249e-07
-3.12206e-05 3.71235e-05 9.63893e-07
9.32249e-07 9.63893e-07 -3.54411e-05
0.000829894 -2.52205e-05 -3.19441e-07
-2.52205e-05 5.3005e-05 -7.76477e-07
-3.19441e-07 -7.76477e-07 -2.96821e-05
0.000766753 -4.91887e-05 1.94459e-06
-4.91887e-05 3.78726e-05 1.35961e-06
1.94459e-06 1.35961e-06 -7.9314e-05
0.0010257 -7.7e-06 -1.33011e-06
-7.7e-06 0.000142119 -8.40385e-07
-1.33011e-06 -8.40385e-07 6.12121e-05
0.0010132 -5.32802e-05 -3.54468e-07
-5.32802e-05 0.000154927 8.08977e-07
-3.54468e-07 8.08977e-07 5.52368e-05
0.000581094 -8.54749e-05 -1.07937e-06
-8.54749e-05 -7.60449e-05 3.32981e-06
-1.07937e-06 3.32981e-06 -0.000204082
0.000884981 -9.86327e-05 -3.06463e-06
-9.86327e-05 8.34769e-05 9.52542e-07
-3.06463e-06 9.52542e-07 -4.01828e-05
0.000964939 -7.28463e-05 -7.45444e-07
-7.28463e-05 0.000126791 1.54466e-06
-7.45444e-07 1.54466e-06 2.75044e-05
0.000888697 -9.74906e-05 1.66962e-07
-9.74906e-05 8.66195e-05 2.92725e-07
1.66962e-07 2.92725e-07 -3.29646e-05
0.000906797 -3.31381e-06 5.27736e-07
-3.31381e-06 7.84579e-05 1.19082e-06
5.27736e-07 1.19082e-06 4.68106e-06
0.000986569 -2.97552e-05 -6.99994e-07
-2.97552e-05 0.00013298 -5.74881e-07
-6.99994e-07 -5.74881e-07 4.37662e-05
0.000772169 -5.64158e-05 6.46313e-07
-5.64158e-05 4.14863e-05 -3.44892e-06
6.46313e-07 -3.44892e-06 -5.68818e-05
0.00106991 1.20564e-05 -1.20691e-06
1.20564e-05 0.000172918 -1.56126e-06
-1.20691e-06 -1.56126e-06 9.75994e-05
0.000802259 1.55739e-05 6.09068e-08
1.55739e-05 1.97239e-05 -1.50604e-08
6.09068e-08 -1.50604e-08 -4.55926e-05
0.000835218 3.50624e-05 -1.1336e-07
3.50624e-05 2.8931e-05 1.00192e-06
-1.1336e-07 1.00192e-06 -2.26376e-05
0.000887702 -3.62988e-07 3.5719e-08
-3.62988e-07 6.36994e-05 -3.46105e-07
3.5719e-08 -3.46105e-07 2.2732e-06
0.000845446 1.44593e-05 -4.32689e-07
1.44593e-05 3.10374e-05 -6.74297e-08
-4.32689e-07 -6.74297e-08 -1.69503e-05
0.000804332 2.70015e-05 -1.13388e-06
2.70015e-05 4.86445e-06 1.64415e-06
-1.13388e-06 1.64415e-06 -2.66851e-05
0.000855713 -8.67526e-06 8.97747e-07
-8.67526e-06 3.42949e-05 -7.50806e-07
8.97747e-07 -7.50806e-07 -1.26697e-05
0.000813837 2.11873e-05 -9.1684e-08
2.11873e-05 4.80458e-06 1.93793e-09
-9.1684e-08 1.93793e-09 -2.51494e-05
0.00130908 2.93615e-05 -7.07353e-06
2.93615e-05 0.000271164 3.05217e-06
-7.07353e-06 3.05217e-06 0.000270348
0.000819758 1.0532e-05 1.03148e-06
1.0532e-05 3.9561e-06 -1.57361e-06
1.03148e-06 -1.57361e-06 -2.488e-05
0.00104793 2.26526e-05 -3.33235e-06
2.26526e-05 0.000124143 5.53765e-07
-3.33235e-06 5.53765e-07 0.000122989
0.000913624 2.08868e-05 -1.66391e-06
2.08868e-05 5.37188e-05 1.57245e-06
-1.66391e-06 1.57245e-06 6.86126e-05
0.000758741 1.58115e-05 7.02621e-07
1.58115e-05 -3.67821e-05 -3.11879e-06
7.02621e-07 -3.11879e-06 -3.85977e-05
0.00151324 1.92416e-05 5.53141e-06
1.92416e-05 0.000373508 -1.14793e-06
5.53141e-06 -1.14793e-06 0.000392184
0.00210891 1.50253e-05 8.22031e-06
1.50253e-05 0.000693836 -3.94965e-06
8.22031e-06 -3.94965e-06 0.000715805
0.000708723 -1.65679e-06 -2.23458e-07
-1.65679e-06 -3.82693e-05 -9.75048e-07
-2.23458e-07 -9.75048e-07 -9.21411e-05
0.000600621 -1.35927e-05 -2.35788e-07
-1.35927e-05 -0.000112354 -1.88822e-06
-2.35788e-07 -1.88822e-06 -0.000141553
0.000929843 -1.42625e-05 3.19607e-08
-1.42625e-05 7.72948e-05 4.59777e-08
3.19607e-08 4.59777e-08 2.979e-05
0.000778592 -1.13696e-05 -4.15564e-07
-1.13696e-05 -2.8843e-05 -3.08252e-06
-4.15564e-07 -3.08252e-06 -2.85926e-05
0.000709432 -9.36872e-06 5.86725e-08
-9.36872e-06 -5.67888e-05 1.84093e-08
5.86725e-08 1.84093e-08 -8.33804e-05
0.00070331 -4.03606e-05 1.34823e-07
-4.03606e-05 -4.32454e-05 7.46139e-07
1.34823e-07 7.46139e-07 -8.9915e-05
0.00201913 -7.86844e-06 -4.64554e-06
-7.86844e-06 0.000643511 -4.03366e-06
-4.64554e-06 -4.03366e-06 0.000666829
0.000773496 -5.8101e-06 -1.59996e-07
-5.8101e-06 -3.40579e-05 -2.9083e-09
-1.59996e-07 -2.9083e-09 -3.27074e-05
0.000831927 -5.97095e-06 9.85381e-08
-5.97095e-06 6.90823e-06 1.59114e-06
9.85381e-08 1.59114e-06 -1.79151e-05
0.00201655 -2.02543e-07 -2.07555e-06
-2.02543e-07 0.000641079 -3.24254e-10
-2.07555e-06 -3.24254e-10 0.000664635
0.000775221 -1.46913e-07 8.97732e-08
-1.46913e-07 -3.40094e-05 3.13854e-06
8.97732e-08 3.13854e-06 -3.24681e-05
0.00203829 7.53804e-06 -4.63935e-06
7.53804e-06 0.000653473 4.08356e-06
-4.63935e-06 4.08356e-06 0.000676663
0.000934172 1.87186e-05 -3.52862e-05
1.87186e-05 -0.000309487 1.19157e-05
-3.52862e-05 1.19157e-05 -0.000460929
0.00116311 0.000152791 8.11673e-07
0.000152791 0.000858054 -3.75884e-06
8.11673e-07 -3.75884e-06 0.000841659
0.00055673 -2.90889e-05 4.41017e-05
-2.90889e-05 0.000501395 -1.30843e-05
4.41017e-05 -1.30843e-05 0.000328497
0.000877566 1.78959e-05 -3.28709e-08
1.78959e-05 5.95754e-05 2.40568e-07
-3.28709e-08 2.40568e-07 -9.84841e-06
0.00165626 3.1686e-05 -1.12652e-05
3.1686e-05 3.89532e-05 1.91263e-05
-1.12652e-05 1.91263e-05 -3.105e-05
0.0016812 5.07166e-05 -1.56578e-05
5.07166e-05 -8.44001e-05 4.91565e-06
-1.56578e-05 4.91565e-06 -0.000239521
0.00137295 0.000347082 5.82836e-05
0.000347082 0.000622232 -3.37167e-05
5.82836e-05 -3.37167e-05 0.00102747
0.00300823 3.46931e-05 -3.14545e-05
3.46931e-05 0.000491044 3.75176e-06
-3.14545e-05 3.75176e-06 0.000236951
0.00905422 0.000532311 1.70421e-05
0.000532311 0.00327544 -1.57046e-05
1.70421e-05 -1.57046e-05 0.00223813
-0.00232535 0.000422977 4.19173e-05
0.000422977 -0.00201155 -7.03835e-06
4.19173e-05 -7.03835e-06 -0.00151775
0.0026708 0.000344477 3.58638e-05
0.000344477 -0.000348383 -2.48946e-05
3.58638e-05 -2.48946e-05 0.000368382
0.00251515 -5.97038e-05 -4.57995e-05
-5.97038e-05 -0.000169971 3.5251e-06
-4.57995e-05 3.5251e-06 -0.000596995
0.00672643 0.000364 2.98165e-05
0.000364 0.00235689 -1.37782e-05
2.98165e-05 -1.37782e-05 0.00111345
0.00372949 0.000463243 -3.62226e-06
0.000463243 0.000166302 -2.54387e-07
-3.62226e-06 -2.54387e-07 0.000324889
0.00298451 0.000203163 -5.64344e-06
0.000203163 -0.000641851 2.43353e-06
-5.64344e-06 2.43353e-06 0.000110204
0.00390353 -0.000239595 3.19031e-05
-0.000239595 0.000511745 -2.76511e-05
3.19031e-05 -2.76511e-05 -0.000120546
0.00724098 0.000369225 2.94296e-05
0.000369225 0.00261911 -3.6584e-06
2.94296e-05 -3.6584e-06 0.00088685
0.00235894 0.000250153 6.1862e-06
0.000250153 -0.000255524 3.79346e-05
6.1862e-06 3.79346e-05 -0.000348372
0.00440381 4.93688e-05 -1.44864e-06
4.93688e-05 0.000336125 1.87615e-05
-1.44864e-06 1.87615e-05 0.00115784
0.000904925 -2.16375e-05 4.82786e-07
-2.16375e-05 7.66148e-05 5.13571e-07
4.82786e-07 5.13571e-07 -3.27161e-06
0.000921765 -3.3417e-05 4.97739e-07
-3.3417e-05 9.18343e-05 1.16032e-08
4.97739e-07 1.16032e-08 1.32906e-05
0.000948054 4.42372e-05 -9.45617e-07
4.42372e-05 0.000105956 -1.31044e-07
-9.45617e-07 -1.31044e-07 3.5339e-05
0.00089123 -1.49804e-05 -2.38342e-07
-1.49804e-05 6.54854e-05 8.30669e-08
-2.38342e-07 8.30669e-08 -7.30045e-06
0.000911022 3.99758e-05 -5.73844e-07
3.99758e-05 8.5857e-05 3.39101e-07
-5.73844e-07 3.39101e-07 9.70003e-06
0.000960771 1.58408e-05 6.33895e-07
1.58408e-05 0.00011387 7.88511e-07
6.33895e-07 7.88511e-07 4.31371e-05
0.00100309 5.28892e-05 -4.86036e-07
5.28892e-05 0.000131504 1.19427e-07
-4.86036e-07 1.19427e-07 6.31277e-05
0.0010366 6.03433e-05 6.64719e-07
6.03433e-05 0.000153173 8.36709e-07
6.64719e-07 8.36709e-07 8.61927e-05
4.23189e-05 -9.94476e-05 2.15357e-05
-9.94476e-05 -0.000587273 -7.23725e-06
2.15357e-05 -7.23725e-06 -0.000643798
0.00141786 -0.000183983 6.11737e-06
-0.000183983 0.000164545 -2.06179e-06
6.11737e-06 -2.06179e-06 7.88964e-05
0.000913637 -9.93834e-05 -2.05794e-06
-9.93834e-05 9.07981e-05 -3.17845e-07
-2.05794e-06 -3.17845e-07 8.23644e-06
0.00153132 -4.53639e-05 3.25914e-06
-4.53639e-05 0.000407395 -2.20938e-06
3.25914e-06 -2.20938e-06 0.000279685
0.000923262 -4.2019e-05 -8.70661e-07
-4.2019e-05 7.70054e-05 -8.33079e-07
-8.70661e-07 -8.33079e-07 -1.12203e-05
0.00103611 -1.72304e-05 -8.74431e-07
-1.72304e-05 0.00013935 -5.65114e-07
-8.74431e-07 -5.65114e-07 6.13097e-05
0.000968819 9.23784e-06 -1.00797e-08
9.23784e-06 0.000103723 -1.78713e-07
-1.00797e-08 -1.78713e-07 2.45031e-05
0.00117417 -0.000264655 -6.08903e-06
-0.000264655 -5.47946e-05 1.22353e-06
-6.08903e-06 1.22353e-06 -5.16747e-05
0.000944288 1.27187e-05 1.50692e-07
1.27187e-05 9.265e-05 -3.93583e-07
1.50692e-07 -3.93583e-07 5.28314e-06
0.00106949 -2.59804e-05 -8.53268e-07
-2.59804e-05 0.000138222 6.06059e-08
-8.53268e-07 6.06059e-08 4.85109e-05
0.000835343 -6.10768e-05 -3.33638e-07
-6.10768e-05 9.94419e-05 2.27558e-06
-3.33638e-07 2.27558e-06 -2.56924e-05
0.00107499 -9.37007e-06 1.31719e-07
-9.37007e-06 0.000151266 8.90016e-07
1.31719e-07 8.90016e-07 7.8263e-05
-0.000923181 -0.000255443 2.02105e-05
-0.000255443 -0.000900411 -1.21887e-05
2.02105e-05 -1.21887e-05 -0.000856675
0.0014577 1.46171e-06 -8.88151e-06
1.46171e-06 0.000561952 1.40592e-05
-8.88151e-06 1.40592e-05 0.000424307
0.00057505 2.63634e-06 -8.55335e-07
2.63634e-06 -0.000125746 3.71418e-06
-8.55335e-07 3.71418e-06 -0.000199762
0.000959692 8.39208e-05 1.03309e-06
8.39208e-05 9.7592e-05 1.65695e-06
1.03309e-06 1.65695e-06 1.66828e-05
0.00132464 1.37656e-06 4.68389e-06
1.37656e-06 0.000292084 5.98917e-07
4.68389e-06 5.98917e-07 0.000233223
0.00125978 -5.25058e-06 1.75076e-05
-5.25058e-06 -0.000114431 -3.16507e-07
1.75076e-05 -3.16507e-07 -0.000252883
-0.00108118 -8.82072e-06 2.23042e-05
-8.82072e-06 -0.000131318 3.48437e-07
2.23042e-05 3.48437e-07 -0.000404936
0.00086379 8.24443e-05 7.46284e-06
8.24443e-05 0.000138918 4.04395e-06
7.46284e-06 4.04395e-06 7.1015e-05
0.000126126 5.59179e-05 6.67794e-06
5.59179e-05 -4.03004e-05 8.73421e-06
6.67794e-06 8.73421e-06 -0.000152206
0.00151458 -9.132e-06 2.81504e-05
-9.132e-06 6.79918e-05 3.05853e-06
2.81504e-05 3.05853e-06 -4.55272e-05
0.00656799 -0.000510207 6.10779e-05
-0.000510207 0.00205906 2.22667e-05
6.10779e-05 2.22667e-05 0.000545986
0.00441186 0.000459731 -3.50129e-05
0.000459731 0.00120284 -7.13423e-05
-3.50129e-05 -7.13423e-05 0.000539193
0.00334822 -0.000324189 1.1069e-05
-0.000324189 0.000256351 5.91392e-05
1.1069e-05 5.91392e-05 9.36353e-05
0.00225028 -8.21455e-06 5.3555e-06
-8.21455e-06 0.000384318 2.01706e-05
5.3555e-06 2.01706e-05 0.000305746
0.00120064 1.45639e-05 1.08071e-06
1.45639e-05 -0.00175831 7.43845e-06
1.08071e-06 7.43845e-06 -0.000877218
0.0008561 6.66256e-05 2.59343e-06
6.66256e-05 0.000216039 6.3325e-07
2.59343e-06 6.3325e-07 0.000171694
0.00106709 -5.38573e-07 -8.66075e-07
-5.38573e-07 7.24541e-05 2.20847e-07
-8.66075e-07 2.20847e-07 2.27224e-05
0.00148248 2.7559e-06 1.17626e-06
2.7559e-06 4.42006e-05 1.69433e-06
1.17626e-06 1.69433e-06 -2.18693e-05
-0.000483219 8.31829e-05 -3.89882e-06
8.31829e-05 -0.000179851 -1.91802e-06
-3.89882e-06 -1.91802e-06 -0.00032976
0.00295615 0.000186938 4.89768e-06
0.000186938 -0.00059981 -3.067e-06
4.89768e-06 -3.067e-06 0.000117877
0.00523462 0.000329939 3.99193e-05
0.000329939 0.00101935 3.27746e-06
3.99193e-05 3.27746e-06 -0.00023994
0.00302147 0.000128893 -4.97096e-05
0.000128893 0.000817196 -4.37327e-06
-4.97096e-05 -4.37327e-06 0.00054502
-0.000375855 4.05335e-05 2.1744e-06
4.05335e-05 -0.000237408 -1.30333e-05
2.1744e-06 -1.30333e-05 -0.00032162
0.00130019 3.22583e-06 -2.89103e-06
3.22583e-06 0.000338359 6.19006e-06
-2.89103e-06 6.19006e-06 0.000283475
0.00170243 2.1965e-05 1.37847e-05
2.1965e-05 7.74467e-05 -1.87079e-05
1.37847e-05 -1.87079e-05 1.16921e-06
0.00323504 0.000333297 4.59481e-05
0.000333297 -3.62963e-05 -2.71292e-05
4.59481e-05 -2.71292e-05 0.000738456
0.00225662 0.000318008 -1.28134e-05
0.000318008 -0.000280621 -4.47835e-05
-1.28134e-05 -4.47835e-05 -0.000334308
0.00168718 0.000266358 1.33577e-05
0.000266358 0.00025929 -1.2239e-05
1.33577e-05 -1.2239e-05 0.000332094
0.00255814 -0.000170873 0.000102727
-0.000170873 0.000543526 1.44381e-05
0.000102727 1.44381e-05 -0.00103721
0.000757124 7.65711e-05 -9.04819e-07
7.65711e-05 1.8467e-05 7.28823e-06
-9.04819e-07 7.28823e-06 -4.15619e-05
0.000806846 9.21177e-06 2.1849e-06
9.21177e-06 9.28887e-05 2.45793e-06
2.1849e-06 2.45793e-06 3.99205e-05
0.00025713 -4.64599e-05 1.10325e-05
-4.64599e-05 -3.8634e-05 -6.13666e-06
1.10325e-05 -6.13666e-06 -0.00013081
0.000967741 2.15421e-05 -7.50883e-07
2.15421e-05 8.54412e-05 3.00147e-07
-7.50883e-07 3.00147e-07 2.15458e-05
0.000801927 -5.10009e-05 -1.36046e-06
-5.10009e-05 -4.6867e-06 9.24202e-07
-1.36046e-06 9.24202e-07 -6.40811e-05
0.00101399 -6.12945e-05 -2.0174e-06
-6.12945e-05 0.000119123 1.95417e-06
-2.0174e-06 1.95417e-06 5.9976e-05
0.0009309 -1.17142e-05 -1.53295e-07
-1.17142e-05 6.28642e-05 -2.75561e-07
-1.53295e-07 -2.75561e-07 2.61215e-06
0.000655521 -1.95892e-05 -1.04046e-06
-1.95892e-05 -5.2726e-05 1.76383e-06
-1.04046e-06 1.76383e-06 -9.25394e-05
0.000797299 -5.24237e-05 1.70377e-06
-5.24237e-05 9.4868e-05 -7.90294e-07
1.70377e-06 -7.90294e-07 -4.95102e-06
0.000893617 2.11514e-05 -2.70421e-07
2.11514e-05 5.15434e-05 3.5034e-07
-2.70421e-07 3.5034e-07 -1.18033e-05
0.000981036 4.17323e-05 -4.67803e-07
4.17323e-05 0.000110005 2.95408e-07
-4.67803e-07 2.95408e-07 4.20431e-05
0.00101193 -3.03818e-05 4.70875e-07
-3.03818e-05 0.000148352 3.60037e-07
4.70875e-07 3.60037e-07 7.30624e-05
0.000578631 -4.06517e-05 3.03976e-06
-4.06517e-05 -6.21601e-06 1.91203e-06
3.03976e-06 1.91203e-06 -0.000136479
0.000750289 -3.76529e-06 -3.5777e-06
-3.76529e-06 1.32328e-05 -1.04085e-06
-3.5777e-06 -1.04085e-06 -6.66438e-05
0.000619993 -5.14396e-05 1.94226e-07
-5.14396e-05 -3.43579e-05 -1.83123e-07
1.94226e-07 -1.83123e-07 -0.000145955
0.00104705 -0.00011862 1.65979e-06
-0.00011862 0.000176185 1.65008e-06
1.65979e-06 1.65008e-06 2.33327e-05
0.00114841 -0.000121849 -4.0418e-06
-0.000121849 0.000172911 3.21236e-06
-4.0418e-06 3.21236e-06 2.96228e-05
0.00126464 -6.85575e-05 -1.00438e-06
-6.85575e-05 0.000281046 -1.30942e-06
-1.00438e-06 -1.30942e-06 0.000179649
0.000768631 -9.5779e-05 -6.92349e-07
-9.5779e-05 1.54998e-05 4.65989e-07
-6.92349e-07 4.65989e-07 -0.000116186
0.00142281 -0.000129218 -3.0451e-07
-0.000129218 0.000359384 -2.53708e-07
-3.0451e-07 -2.53708e-07 0.000238634
0.000627379 -7.31319e-05 -1.39221e-06
-7.31319e-05 -4.10235e-05 7.30324e-07
-1.39221e-06 7.30324e-07 -0.000149291
0.000928139 -0.000100726 2.18332e-07
-0.000100726 0.000105127 -5.28789e-07
2.18332e-07 -5.28789e-07 -1.63179e-05
0.000919807 -9.88831e-06 -3.87182e-07
-9.88831e-06 8.7971e-05 9.58857e-07
-3.87182e-07 9.58857e-07 8.06273e-06
0.00101896 -7.21618e-05 -1.16639e-06
-7.21618e-05 0.000153158 1.04312e-06
-1.16639e-06 1.04312e-06 5.36742e-05
0.000779308 -9.11623e-05 6.33745e-08
-9.11623e-05 3.22695e-05 -1.93469e-06
6.33745e-08 -1.93469e-06 -8.69217e-05
0.000849667 3.31752e-05 -1.45274e-08
3.31752e-05 4.01208e-05 1.19046e-06
-1.45274e-08 1.19046e-06 -1.72778e-05
0.000810176 -2.01258e-06 5.09261e-07
-2.01258e-06 2.73986e-05 3.78079e-08
5.09261e-07 3.78079e-08 -4.66045e-05
0.000898537 -3.23862e-05 7.11367e-07
-3.23862e-05 8.62008e-05 -2.04227e-06
7.11367e-07 -2.04227e-06 -4.38131e-06
0.000890474 1.15469e-05 -1.25541e-07
1.15469e-05 6.64405e-05 -9.67447e-07
-1.25541e-07 -9.67447e-07 2.25658e-06
0.00084312 2.25138e-05 -2.6941e-07
2.25138e-05 3.26177e-05 -1.19714e-07
-2.6941e-07 -1.19714e-07 -1.865e-05
0.000797339 3.3118e-05 -1.14744e-06
3.3118e-05 6.84017e-06 1.65949e-06
-1.14744e-06 1.65949e-06 -2.71535e-05
0.00084933 1.61072e-06 5.64984e-07
1.61072e-06 3.33933e-05 -9.49653e-07
5.64984e-07 -9.49653e-07 -1.47255e-05
0.000806379 2.78868e-05 -3.12288e-08
2.78868e-05 5.7001e-06 -7.30976e-09
-3.12288e-08 -7.30976e-09 -2.58756e-05
0.00072779 2.98835e-05 -1.39421e-06
2.98835e-05 -3.68536e-05 3.28288e-06
-1.39421e-06 3.28288e-06 -4.23687e-05
0.000817428 1.95181e-05 9.81335e-07
1.95181e-05 6.12267e-06 -1.60391e-06
9.81335e-07 -1.60391e-06 -2.3694e-05
0.000747861 2.5714e-05 1.34178e-07
2.5714e-05 -3.28038e-05 1.40618e-08
1.34178e-07 1.40618e-08 -3.66557e-05
0.00203218 3.9001e-05 -4.79852e-06
3.9001e-05 0.000665516 1.53053e-06
-4.79852e-06 1.53053e-06 0.000684742
0.000758376 2.09744e-05 9.4671e-07
2.09744e-05 -3.29393e-05 -3.15711e-06
9.4671e-07 -3.15711e-06 -3.55316e-05
0.00150375 2.54518e-05 6.76581e-06
2.54518e-05 0.000372867 -1.07844e-06
6.76581e-06 -1.07844e-06 0.000390711
0.00209909 2.22842e-05 1.1635e-05
2.22842e-05 0.000691891 -3.84686e-06
1.1635e-05 -3.84686e-06 0.00071328
0.000735047 -2.17966e-05 4.34295e-08
-2.17966e-05 -3.02265e-05 -7.91983e-07
4.34295e-08 -7.91983e-07 -8.33661e-05
0.000573944 -1.71994e-05 -2.29155e-07
-1.71994e-05 -0.000123693 -1.87085e-06
-2.29155e-07 -1.87085e-06 -0.000155847
0.000823952 -3.51727e-06 -2.5492e-07
-3.51727e-06 2.27575e-05 -5.50608e-07
-2.5492e-07 -5.50608e-07 -3.03492e-05
0.000774095 -1.66962e-05 -4.88791e-07
-1.66962e-05 -2.74757e-05 -3.10152e-06
-4.88791e-07 -3.10152e-06 -2.89868e-05
0.000587774 -1.36726e-05 4.02912e-08
-1.36726e-05 -0.000119092 -5.71214e-07
4.02912e-08 -5.71214e-07 -0.000148575
0.000944639 -1.31176e-06 -1.95677e-07
-1.31176e-06 8.74674e-05 5.17331e-07
-1.95677e-07 5.17331e-07 3.82727e-05
0.00204483 -1.51949e-05 -8.20133e-06
-1.51949e-05 0.000659759 -4.01157e-06
-8.20133e-06 -4.01157e-06 0.00068232
0.000769438 -1.11203e-05 -1.0162e-07
-1.11203e-05 -3.38314e-05 -1.62081e-08
-1.0162e-07 -1.62081e-08 -3.35002e-05
0.000590355 -9.55642e-06 1.80451e-07
-9.55642e-06 -0.000120181 1.45752e-06
1.80451e-07 1.45752e-06 -0.000147675
0.00201712 -7.45201e-06 -2.21121e-06
-7.45201e-06 0.000642229 1.71014e-08
-2.21121e-06 1.71014e-08 0.000665608
0.000769806 -5.5901e-06 1.80828e-07
-5.5901e-06 -3.60764e-05 3.11535e-06
1.80828e-07 3.11535e-06 -3.46978e-05
0.00201785 2.65827e-07 -6.34583e-07
2.65827e-07 0.000641774 4.07971e-06
-6.34583e-07 4.07971e-06 0.000665309
0.00111218 1.0834e-05 1.44853e-06
1.0834e-05 7.43851e-05 3.91297e-06
1.44853e-06 3.91297e-06 7.86475e-06
0.00118895 1.46802e-05 -5.54202e-07
1.46802e-05 -0.000151134 7.72073e-08
-5.54202e-07 7.72073e-08 -0.000298673
0.00105953 0.000120092 4.51484e-05
0.000120092 0.000898769 -1.20363e-05
4.51484e-05 -1.20363e-05 0.0008454
0.000902656 1.66797e-05 1.52984e-07
1.66797e-05 7.06075e-05 5.24516e-08
1.52984e-07 5.24516e-08 3.50996e-06
0.000825537 -7.50215e-06 1.35947e-08
-7.50215e-06 2.5105e-05 4.61265e-08
1.35947e-08 4.61265e-08 -4.17794e-05
0.0009598 2.8419e-05 -4.60058e-07
2.8419e-05 0.000105862 7.99872e-07
-4.60058e-07 7.99872e-07 3.23949e-05
0.00196952 1.9885e-05 3.38349e-06
1.9885e-05 0.000273362 2.75097e-05
3.38349e-06 2.75097e-05 0.000191262
0.00153274 2.98004e-05 -4.46095e-06
2.98004e-05 -4.09044e-05 3.87725e-06
-4.46095e-06 3.87725e-06 -0.000117482
0.00165167 4.60347e-05 2.75541e-05
4.60347e-05 -8.71525e-05 -2.67706e-05
2.75541e-05 -2.67706e-05 -0.000276107
0.00414001 -8.95427e-05 -4.19382e-05
-8.95427e-05 0.000735531 9.59089e-06
-4.19382e-05 9.59089e-06 0.000373441
0.000841761 0.000248883 -2.0155e-05
0.000248883 -0.000250853 1.15653e-05
-2.0155e-05 1.15653e-05 -0.0016334
0.00513022 0.000579259 6.00295e-05
0.000579259 0.00117444 -2.1395e-05
6.00295e-05 -2.1395e-05 0.00128802
0.00164574 0.00015596 9.78255e-06
0.00015596 -0.00149052 -2.1279e-05
9.78255e-06 -2.1279e-05 -0.000727074
0.00323337 -0.00025936 -1.1888e-05
-0.00025936 0.000389521 5.21693e-06
-1.1888e-05 5.21693e-06 6.06867e-05
0.00554957 0.00013851 2.65926e-05
0.00013851 0.00167713 -2.26388e-05
2.65926e-05 -2.26388e-05 0.000207127
0.000754093 8.55995e-05 -1.03277e-05
8.55995e-05 -0.000558412 4.5765e-06
-1.03277e-05 4.5765e-06 -0.000656805
0.00283319 3.34878e-05 -1.91102e-06
3.34878e-05 -0.000695881 7.15647e-07
-1.91102e-06 7.15647e-07 0.000159778
0.00396233 -0.000455614 1.66279e-06
-0.000455614 0.000623775 -5.72651e-05
1.66279e-06 -5.72651e-05 0.000267657
0.00764772 8.47365e-05 4.98418e-05
8.47365e-05 0.00295345 -1.08224e-05
4.98418e-05 -1.08224e-05 0.00122853
-0.00130578 6.65156e-05 1.78675e-05
6.65156e-05 -0.000761221 3.35021e-05
1.78675e-05 3.35021e-05 -0.00105722
0.000672718 -0.000136373 8.7459e-06
-0.000136373 -0.00187615 7.57528e-06
8.7459e-06 7.57528e-06 -0.00110766
0.000940275 -2.40324e-06 -3.10039e-08
-2.40324e-06 8.85531e-05 9.01548e-07
-3.10039e-08 9.01548e-07 1.04431e-05
0.000896077 -1.33496e-05 6.8214e-08
-1.33496e-05 7.41781e-05 -1.20473e-07
6.8214e-08 -1.20473e-07 -7.38334e-06
0.000897527 -4.13682e-05 -2.43317e-07
-4.13682e-05 7.95952e-05 -4.41965e-07
-2.43317e-07 -4.41965e-07 4.12594e-07
0.000896554 6.93783e-06 -2.46041e-07
6.93783e-06 6.88839e-05 -3.54494e-07
-2.46041e-07 -3.54494e-07 -4.28702e-06
0.00100744 7.50767e-05 1.17699e-06
7.50767e-05 0.000137392 1.0484e-08
1.17699e-06 1.0484e-08 6.25906e-05
0.00104935 5.88924e-05 -8.67143e-08
5.88924e-05 0.000157764 1.21436e-07
-8.67143e-08 1.21436e-07 8.82099e-05
0.00209735 -0.000303958 7.24498e-06
-0.000303958 0.000416973 -2.01205e-06
7.24498e-06 -2.01205e-06 0.000378645
-0.000378657 -3.76044e-05 8.10889e-06
-3.76044e-05 -0.000526988 -4.67913e-06
8.10889e-06 -4.67913e-06 -0.000643783
0.00105675 3.84335e-05 -6.17138e-08
3.84335e-05 0.000156183 -7.72124e-07
-6.17138e-08 -7.72124e-07 7.42959e-05
0.00130343 -6.88772e-05 2.82628e-06
-6.88772e-05 0.000257677 -6.15948e-06
2.82628e-06 -6.15948e-06 0.000162201
0.00106422 2.92383e-06 -3.14267e-07
2.92383e-06 0.000156581 -1.73974e-06
-3.14267e-07 -1.73974e-06 7.06887e-05
0.000954303 -1.08984e-05 3.01944e-07
-1.08984e-05 8.58069e-05 -2.73191e-07
3.01944e-07 -2.73191e-07 1.15258e-05
0.000941864 4.27855e-05 1.67304e-07
4.27855e-05 8.64644e-05 -2.17238e-08
1.67304e-07 -2.17238e-08 8.99944e-06
0.000777411 -0.000286184 -1.16364e-05
-0.000286184 -5.29336e-05 9.24188e-08
-1.16364e-05 9.24188e-08 -4.01775e-05
0.00085628 -1.78561e-05 9.6374e-07
-1.78561e-05 2.59479e-05 -1.37318e-06
9.6374e-07 -1.37318e-06 -4.64786e-05
0.000860201 4.36103e-06 4.49986e-07
4.36103e-06 0.00028895 -1.81095e-06
4.49986e-07 -1.81095e-06 0.000158638
0.000960642 5.71316e-06 1.41823e-06
5.71316e-06 9.47501e-05 7.0769e-07
1.41823e-06 7.0769e-07 2.59704e-05
-0.00206159 -9.92766e-05 1.14347e-05
-9.92766e-05 -0.00100672 -1.61434e-05
1.14347e-05 -1.61434e-05 -0.00126537
0.00124959 9.37527e-07 4.38546e-06
9.37527e-07 0.000434429 1.97965e-05
4.38546e-06 1.97965e-05 0.000403812
0.000967843 -1.63265e-05 7.08869e-07
-1.63265e-05 9.8983e-05 3.20908e-06
7.08869e-07 3.20908e-06 2.94395e-05
0.00127772 1.08974e-06 -6.27006e-07
1.08974e-06 0.000433998 6.06409e-07
-6.27006e-07 6.06409e-07 0.000367048
0.000906114 1.93373e-06 1.66742e-07
1.93373e-06 6.63142e-05 1.06632e-09
1.66742e-07 1.06632e-09 5.93627e-06
0.00114908 -1.27047e-05 4.98727e-05
-1.27047e-05 -0.000144072 1.24769e-07
4.98727e-05 1.24769e-07 -0.000286891
0.000660703 7.79205e-05 8.46836e-06
7.79205e-05 0.000100069 9.33636e-06
8.46836e-06 9.33636e-06 4.65758e-05
0.00160365 0.000202818 6.80853e-06
0.000202818 0.000614907 -1.40507e-05
6.80853e-06 -1.40507e-05 0.00051446
0.00104964 -1.89115e-07 -2.11328e-06
-1.89115e-07 5.95018e-05 -1.51439e-06
-2.11328e-06 -1.51439e-06 1.14719e-05
0.00231374 0.000123565 -3.3049e-05
0.000123565 0.000139944 -3.33163e-06
-3.3049e-05 -3.33163e-06 -0.00112566
-0.00435303 2.27306e-05 -2.18318e-05
2.27306e-05 -0.0028052 4.59696e-05
-2.18318e-05 4.59696e-05 -0.00310082
0.000966322 2.06169e-06 5.6258e-07
2.06169e-06 -0.000194377 1.29724e-05
5.6258e-07 1.29724e-05 -0.000250549
0.00178471 0.000138635 -8.78729e-06
0.000138635 -0.001335 2.26226e-05
-8.78729e-06 2.26226e-05 -0.000616707
0.000264958 3.66061e-05 -2.64431e-06
3.66061e-05 6.39996e-05 -3.51823e-06
-2.64431e-06 -3.51823e-06 -3.51219e-06
0.000911625 2.27972e-06 -1.14688e-06
2.27972e-06 0.000116698 1.23773e-06
-1.14688e-06 1.23773e-06 5.77162e-05
0.00154397 1.90029e-05 5.60634e-06
1.90029e-05 -2.38217e-05 -3.74927e-06
5.60634e-06 -3.74927e-06 -0.00010779
0.00201603 0.000305147 5.57428e-05
0.000305147 0.000158604 1.33595e-06
5.57428e-05 1.33595e-06 0.00010731
0.00194803 0.000328889 3.43657e-06
0.000328889 -0.00086018 -8.9464e-06
3.43657e-06 -8.9464e-06 -8.13033e-05
0.000693663 9.14668e-05 1.06753e-05
9.14668e-05 -0.000671015 -5.65858e-06
1.06753e-05 -5.65858e-06 -0.000673694
0.00721419 0.000184261 1.70055e-05
0.000184261 0.00284169 -1.84126e-05
1.70055e-05 -1.84126e-05 0.00113946
-0.000456589 1.02798e-05 -2.863e-05
1.02798e-05 -7.41923e-05 -1.41555e-05
-2.863e-05 -1.41555e-05 -0.000231175
0.00114895 8.30514e-06 -7.01743e-07
8.30514e-06 0.000101273 -2.64098e-06
-7.01743e-07 -2.64098e-06 3.44123e-05
0.00176749 4.63465e-05 5.76564e-05
4.63465e-05 -7.1371e-05 -3.27554e-05
5.76564e-05 -3.27554e-05 -0.000212044
0.00201744 0.000539669 1.90283e-05
0.000539669 0.0004147 -5.68977e-06
1.90283e-05 -5.68977e-06 0.00135417
-0.00494484 0.00025282 7.10115e-05
0.00025282 -0.00359733 -9.3804e-06
7.10115e-05 -9.3804e-06 -0.00333665
0.00776133 0.000195408 2.20798e-05
0.000195408 0.00282137 -4.73057e-05
2.20798e-05 -4.73057e-05 0.00101513
0.00340639 -0.000104276 -6.07744e-06
-0.000104276 0.000612842 0.000104481
-6.07744e-06 0.000104481 0.000627176
0.00140074 3.10313e-06 -7.54666e-06
3.10313e-06 0.000394937 9.19169e-06
-7.54666e-06 9.19169e-06 0.000347797
0.000125599 -3.7846e-05 3.4243e-06
-3.7846e-05 -0.000104113 1.52064e-06
3.4243e-06 1.52064e-06 -0.000211416
0.000496038 -7.05454e-05 4.86016e-06
-7.05454e-05 0.000133016 -5.96727e-06
4.86016e-06 -5.96727e-06 -2.86506e-05
0.000897811 -2.33707e-05 -3.12665e-07
-2.33707e-05 5.03831e-05 -1.58228e-07
-3.12665e-07 -1.58228e-07 -1.18111e-05
0.000527426 -1.8735e-05 -5.4336e-07
-1.8735e-05 -0.000133099 3.74724e-06
-5.4336e-07 3.74724e-06 -0.000170514
0.000730951 -1.45443e-05 2.225e-07
-1.45443e-05 6.17817e-05 2.16886e-07
2.225e-07 2.16886e-07 -2.7889e-05
0.000859147 -9.83741e-05 7.01608e-06
-9.83741e-05 0.000222369 -2.39912e-06
7.01608e-06 -2.39912e-06 2.962e-05
0.00128645 -3.53076e-05 -1.23307e-06
-3.53076e-05 0.000283679 1.50697e-07
-1.23307e-06 1.50697e-07 0.000206186
0.00113568 -9.11527e-05 7.65316e-07
-9.11527e-05 0.000264374 4.32402e-07
7.65316e-07 4.32402e-07 0.00012943
0.00100963 -0.000119795 2.83365e-06
-0.000119795 0.000200328 3.71528e-06
2.83365e-06 3.71528e-06 -7.50067e-06
0.000442839 -4.94645e-05 -1.24791e-06
-4.94645e-05 -0.000123133 -1.70603e-06
-1.24791e-06 -1.70603e-06 -0.000228282
0.00106077 -0.000117112 -4.71686e-07
-0.000117112 0.000184495 1.47739e-07
-4.71686e-07 1.47739e-07 2.64186e-05
0.00168086 -0.000164129 -8.37975e-07
-0.000164129 0.00044393 2.44378e-06
-8.37975e-07 2.44378e-06 0.000260854
0.00161071 -0.000159864 -4.10802e-06
-0.000159864 0.000355229 2.69531e-06
-4.10802e-06 2.69531e-06 0.000196737
0.000796582 -0.000102216 -1.46431e-06
-0.000102216 5.84984e-06 2.8101e-06
-1.46431e-06 2.8101e-06 -0.000119296
0.00104612 -0.000117904 -1.37952e-06
-0.000117904 0.000118229 9.17362e-07
-1.37952e-06 9.17362e-07 -2.60451e-05
0.000951495 -0.000105766 -1.34672e-06
-0.000105766 0.000105118 -1.25857e-06
-1.34672e-06 -1.25857e-06 -3.02551e-05
0.00118465 -0.000114698 7.38444e-07
-0.000114698 0.000231779 -8.28697e-07
7.38444e-07 -8.28697e-07 0.000120269
0.00109353 -0.000110976 1.90504e-06
-0.000110976 0.000188381 -1.00169e-06
1.90504e-06 -1.00169e-06 7.16249e-05
0.00071877 -3.51478e-05 8.12116e-08
-3.51478e-05 -6.88581e-06 1.48097e-06
8.12116e-08 1.48097e-06 -0.000100278
0.000872209 -8.04862e-05 5.09328e-07
-8.04862e-05 8.62906e-05 -1.65585e-07
5.09328e-07 -1.65585e-07 -2.11681e-05
0.000961317 -0.000102228 3.56331e-06
-0.000102228 0.000121583 -2.8718e-06
3.56331e-06 -2.8718e-06 2.41025e-06
0.000856286 3.58704e-05 -6.0814e-09
3.58704e-05 4.79447e-05 1.41788e-06
-6.0814e-09 1.41788e-06 -1.8109e-05
0.00093203 -2.22141e-05 -1.88666e-07
-2.22141e-05 9.58064e-05 -2.43799e-09
-1.88666e-07 -2.43799e-09 1.45579e-05
0.00108437 -7.11972e-05 1.24142e-08
-7.11972e-05 0.000185341 -6.06373e-07
1.24142e-08 -6.06373e-07 8.58488e-05
0.000783138 3.90247e-05 -9.74798e-07
3.90247e-05 5.37261e-06 1.79003e-06
-9.74798e-07 1.79003e-06 -3.25975e-05
0.000843568 2.56268e-05 -1.67731e-07
2.56268e-05 3.64074e-05 -1.51946e-07
-1.67731e-07 -1.51946e-07 -2.06601e-05
0.000719761 -1.577e-06 2.72581e-07
-1.577e-06 -2.0421e-05 -1.1003e-06
2.72581e-07 -1.1003e-06 -9.46578e-05
0.000851516 1.28347e-05 4.55346e-07
1.28347e-05 3.67948e-05 -1.20113e-06
4.55346e-07 -1.20113e-06 -1.43259e-05
0.000797734 3.55512e-05 -1.31666e-08
3.55512e-05 7.20829e-06 -3.0764e-08
-1.31666e-08 -3.0764e-08 -2.70317e-05
0.000712552 3.42883e-05 -1.69885e-06
3.42883e-05 -3.71515e-05 3.32397e-06
-1.69885e-06 3.32397e-06 -4.49517e-05
0.000809925 2.89436e-05 9.11869e-07
2.89436e-05 7.32512e-06 -1.71115e-06
9.11869e-07 -1.71115e-06 -2.42798e-05
0.000742575 3.04151e-05 9.06829e-08
3.04151e-05 -2.91304e-05 -3.98715e-09
9.06829e-08 -3.98715e-09 -3.46969e-05
0.00208779 4.22045e-05 -1.95807e-05
4.22045e-05 0.000701212 3.51437e-06
-1.95807e-05 3.51437e-06 0.000719358
0.000759486 2.60631e-05 1.21376e-06
2.60631e-05 -2.69952e-05 -3.20037e-06
1.21376e-06 -3.20037e-06 -3.08286e-05
0.00149719 3.17287e-05 7.97527e-06
3.17287e-05 0.00037562 -9.97309e-07
7.97527e-06 -9.97309e-07 0.000392169
0.00208851 2.93187e-05 1.48113e-05
2.93187e-05 0.000690781 -3.72391e-06
1.48113e-05 -3.72391e-06 0.000711315
0.000853112 1.28569e-05 -5.16242e-07
1.28569e-05 3.35006e-05 -4.637e-07
-5.16242e-07 -4.637e-07 -2.0653e-05
0.00079128 -1.9683e-05 -6.50133e-07
-1.9683e-05 -5.84509e-06 -1.38318e-06
-6.50133e-07 -1.38318e-06 -3.87626e-05
0.00077735 1.08928e-05 -6.8998e-07
1.08928e-05 -3.54953e-06 -4.78232e-07
-6.8998e-07 -4.78232e-07 -5.83248e-05
0.000766708 -2.19664e-05 -4.93436e-07
-2.19664e-05 -2.63845e-05 -3.17687e-06
-4.93436e-07 -3.17687e-06 -3.01043e-05
0.00069099 -1.74678e-05 -9.37011e-08
-1.74678e-05 -6.12643e-05 -6.07505e-07
-9.37011e-08 -6.07505e-07 -9.27855e-05
0.000946624 -4.85564e-06 -2.12223e-08
-4.85564e-06 8.77146e-05 -1.0491e-07
-2.12223e-08 -1.0491e-07 3.53622e-05
0.00208572 -2.25438e-05 -1.1626e-05
-2.25438e-05 0.000685435 -3.96278e-06
-1.1626e-05 -3.96278e-06 0.000706825
0.000762586 -1.64153e-05 -1.46165e-07
-1.64153e-05 -3.36857e-05 -1.54199e-08
-1.46165e-07 -1.54199e-08 -3.5095e-05
0.000576964 -1.36603e-05 7.76825e-08
-1.36603e-05 -0.000124717 7.49113e-07
7.76825e-08 7.49113e-07 -0.000154492
0.00203641 -1.47421e-05 -2.00222e-06
-1.47421e-05 0.000654827 3.26885e-08
-2.00222e-06 3.26885e-08 0.000677541
0.000761333 -1.08866e-05 3.86057e-07
-1.08866e-05 -3.82468e-05 3.09583e-06
3.86057e-07 3.09583e-06 -3.78416e-05
0.00201427 -7.02419e-06 3.1766e-06
-7.02419e-06 0.000640481 4.04363e-06
3.1766e-06 4.04363e-06 0.000663916
0.00116505 3.99697e-06 2.18518e-06
3.99697e-06 0.000258305 -4.65641e-06
2.18518e-06 -4.65641e-06 0.000194099
0.0010895 9.40363e-06 -9.45789e-07
9.40363e-06 5.9935e-05 4.62131e-07
-9.45789e-07 4.62131e-07 -3.28438e-06
0.0013693 1.05248e-05 3.45661e-05
1.05248e-05 -3.84761e-05 -2.89026e-06
3.45661e-05 -2.89026e-06 -0.000179458
0.000813562 -3.97725e-05 4.26658e-08
-3.97725e-05 1.53242e-05 -3.50993e-07
4.26658e-08 -3.50993e-07 -5.00481e-05
0.000961024 -1.60715e-05 -2.00933e-07
-1.60715e-05 0.000100201 -4.69291e-07
-2.00933e-07 -4.69291e-07 2.89728e-05
0.000928822 1.79989e-05 1.17248e-06
1.79989e-05 8.32411e-05 -1.69975e-07
1.17248e-06 -1.69975e-07 1.77979e-05
0.000832919 -2.25548e-05 2.43214e-08
-2.25548e-05 2.62429e-05 2.01543e-08
2.43214e-08 2.01543e-08 -3.89215e-05
0.000901907 7.36527e-06 3.53368e-09
7.36527e-06 7.19425e-05 2.97256e-07
3.53368e-09 2.97256e-07 -5.21285e-07
0.000942186 -3.79979e-07 -7.9328e-07
-3.79979e-07 9.14507e-05 2.35862e-07
-7.9328e-07 2.35862e-07 2.01689e-05
0.000905646 9.18824e-05 2.95602e-07
9.18824e-05 8.26237e-05 9.47407e-07
2.95602e-07 9.47407e-07 2.22589e-06
0.00133567 -4.73965e-07 1.22263e-05
-4.73965e-07 -0.000107643 3.40543e-05
1.22263e-05 3.40543e-05 -0.000209148
0.00141488 1.51192e-05 6.5303e-08
1.51192e-05 5.66916e-06 9.36867e-06
6.5303e-08 9.36867e-06 -6.43306e-05
0.00138338 2.76674e-05 3.00374e-06
2.76674e-05 -0.000145355 -1.57558e-05
3.00374e-06 -1.57558e-05 -0.000220367
0.00122262 2.03297e-05 3.2486e-07
2.03297e-05 -0.00177154 -1.61706e-05
3.2486e-07 -1.61706e-05 -0.000889147
0.0019455 -0.000265902 -3.38636e-05
-0.000265902 -0.000383582 6.18648e-05
-3.38636e-05 6.18648e-05 -0.000866593
0.00146179 0.0001066 4.27717e-05
0.0001066 -0.000146232 -1.48926e-05
4.27717e-05 -1.48926e-05 -0.00155634
0.00476216 0.000403393 3.24717e-05
0.000403393 0.00162791 -2.49056e-05
3.24717e-05 -2.49056e-05 0.0011497
0.00315821 -0.000414316 -2.42957e-05
-0.000414316 0.000209029 7.93214e-06
-2.42957e-05 7.93214e-06 -0.000300176
0.00213142 -0.000125841 4.05128e-05
-0.000125841 8.50088e-05 -3.4803e-05
4.05128e-05 -3.4803e-05 -0.00141288
0.00353287 1.4029e-05 -1.92021e-05
1.4029e-05 0.000906378 1.70082e-06
-1.92021e-05 1.70082e-06 0.000584713
0.00395995 -0.000183509 -5.65845e-06
-0.000183509 0.000205491 -1.29595e-05
-5.65845e-06 -1.29595e-05 0.000982894
0.0026474 -0.00022652 -8.04124e-06
-0.00022652 0.000142414 -6.77394e-06
-8.04124e-06 -6.77394e-06 0.000174115
0.00257256 -0.000328844 2.605e-05
-0.000328844 -0.000313912 -7.42102e-05
2.605e-05 -7.42102e-05 -0.00135323
-0.00209946 -0.000191695 4.27007e-05
-0.000191695 -0.00246211 2.4772e-05
4.27007e-05 2.4772e-05 -0.00277514
0.000701621 -0.000246887 3.01605e-05
-0.000246887 -0.00147625 -1.29079e-06
3.01605e-05 -1.29079e-06 -0.000683594
0.00102809 -4.77696e-05 -1.21968e-07
-4.77696e-05 0.000128495 1.57608e-06
-1.21968e-07 1.57608e-06 5.81157e-05
0.000845458 -1.45698e-06 1.04504e-07
-1.45698e-06 3.78458e-05 -3.75034e-08
1.04504e-07 -3.75034e-08 -3.98862e-05
0.00084278 -2.99212e-06 -4.94558e-07
-2.99212e-06 4.79524e-05 -1.24038e-06
-4.94558e-07 -1.24038e-06 -3.47884e-05
0.000896221 2.10714e-05 -3.84565e-08
2.10714e-05 6.99173e-05 -1.28772e-06
-3.84565e-08 -1.28772e-06 -4.03926e-06
0.00345846 -0.000334703 3.60886e-06
-0.000334703 0.00128151 5.39309e-06
3.60886e-06 5.39309e-06 0.00126876
0.000759209 -5.25924e-06 6.28201e-06
-5.25924e-06 0.000260277 -8.56353e-06
6.28201e-06 -8.56353e-06 0.000148568
0.000810798 -2.71132e-05 -4.63886e-09
-2.71132e-05 4.3438e-06 -1.57226e-06
-4.63886e-09 -1.57226e-06 -6.88775e-05
0.000914756 4.14109e-05 1.95237e-07
4.14109e-05 7.87825e-05 -1.75796e-06
1.95237e-07 -1.75796e-06 -9.9246e-07
0.00125591 1.95146e-06 1.72675e-06
1.95146e-06 0.000245635 -6.92935e-06
1.72675e-06 -6.92935e-06 0.000171937
0.000911061 -2.53439e-06 1.38999e-08
-2.53439e-06 6.61809e-05 9.57642e-08
1.38999e-08 9.57642e-08 -2.51245e-06
0.000890004 -1.13872e-05 -1.23432e-06
-1.13872e-05 6.22089e-05 -3.14638e-07
-1.23432e-06 -3.14638e-07 -1.0404e-05
4.878e-05 -0.000114709 -7.50316e-06
-0.000114709 3.99841e-05 -6.35425e-06
-7.50316e-06 -6.35425e-06 -0.0002028
0.00104437 -1.2559e-05 -1.12476e-06
-1.2559e-05 0.00034681 4.72482e-06
-1.12476e-06 4.72482e-06 0.000322966
0.000879716 -1.59661e-05 1.47526e-06
-1.59661e-05 6.36465e-05 -7.08196e-07
1.47526e-06 -7.08196e-07 -3.72573e-06
0.000690095 3.25141e-05 -1.02372e-05
3.25141e-05 0.000795021 -3.15204e-05
-1.02372e-05 -3.15204e-05 0.0001274
0.00142064 -3.97358e-05 -1.10249e-06
-3.97358e-05 0.000531833 1.47505e-05
-1.10249e-06 1.47505e-05 0.000461722
0.0013253 5.76152e-07 -4.72223e-06
5.76152e-07 0.000294474 -2.35955e-07
-4.72223e-06 -2.35955e-07 0.000231302
0.000780418 1.44973e-06 5.8593e-08
1.44973e-06 0.00013283 1.64335e-07
5.8593e-08 1.64335e-07 6.01368e-05
0.000501063 2.63168e-06 -3.23984e-06
2.63168e-06 -0.000150233 4.12126e-07
-3.23984e-06 4.12126e-07 -0.000212926
0.00112583 4.44289e-05 6.65443e-07
4.44289e-05 0.000471097 6.40643e-06
6.65443e-07 6.40643e-06 0.000421719
0.00189332 0.000197431 -6.95147e-05
0.000197431 0.000426522 1.23709e-05
-6.95147e-05 1.23709e-05 0.000483616
0.000525118 1.5572e-06 -1.57448e-06
1.5572e-06 -0.000104019 -3.47603e-06
-1.57448e-06 -3.47603e-06 -0.000166695
0.00312036 0.000172852 6.67921e-05
0.000172852 0.000714106 -8.6447e-05
6.67921e-05 -8.6447e-05 -0.000816057
0.00475049 0.000446769 -3.22316e-05
0.000446769 0.00156989 2.86387e-05
-3.22316e-05 2.86387e-05 0.00116815
0.00139248 1.56823e-05 -3.47492e-06
1.56823e-05 -0.000129352 1.58226e-05
-3.47492e-06 1.58226e-05 -0.000211215
0.00288314 0.000337939 -3.59524e-05
0.000337939 -0.000210065 2.37172e-05
-3.59524e-05 2.37172e-05 0.000493083
-0.000418443 -2.58328e-05 2.72669e-05
-2.58328e-05 -4.86018e-05 -3.31986e-06
2.72669e-05 -3.31986e-06 -0.000218912
0.00109311 7.08133e-06 1.44429e-06
7.08133e-06 6.47343e-05 -5.38717e-07
1.44429e-06 -5.38717e-07 1.81715e-06
0.00170646 3.95226e-05 1.41356e-05
3.95226e-05 -9.14797e-05 -5.19383e-06
1.41356e-05 -5.19383e-06 -0.000267938
0.00194276 -2.42022e-05 -1.40476e-05
-2.42022e-05 3.52415e-06 2.37176e-05
-1.40476e-05 2.37176e-05 0.00016032
-8.86288e-05 0.000567071 -9.68425e-07
0.000567071 -0.000992506 3.78408e-06
-9.68425e-07 3.78408e-06 0.000174585
0.00368633 0.000494852 1.58106e-06
0.000494852 0.000224429 3.94021e-06
1.58106e-06 3.94021e-06 0.000428393
0.00218624 -0.000123251 4.03052e-05
-0.000123251 0.000278514 -1.83352e-05
4.03052e-05 -1.83352e-05 -0.00164045
0.00110286 -8.1077e-05 3.85882e-05
-8.1077e-05 0.000448802 -8.21565e-06
3.85882e-05 -8.21565e-06 0.000398645
0.000951347 1.13616e-05 3.25682e-05
1.13616e-05 -0.00030778 -1.05867e-05
3.25682e-05 -1.05867e-05 -0.000470372
-0.00116668 0.000251175 6.79396e-06
0.000251175 -0.000627978 -1.45251e-05
6.79396e-06 -1.45251e-05 -0.000511715
0.000229885 0.000496075 3.59777e-05
0.000496075 -0.000123854 2.78548e-06
3.59777e-05 2.78548e-06 0.000207148
0.0089383 0.000502923 2.57883e-05
0.000502923 0.00323196 -4.79519e-05
2.57883e-05 -4.79519e-05 0.00165446
0.00289121 -0.000305391 -5.84794e-05
-0.000305391 0.000254326 8.57249e-05
-5.84794e-05 8.57249e-05 -0.000137136
0.000139613 -4.15165e-05 -7.28281e-06
-4.15165e-05 -0.000102576 9.42919e-06
-7.28281e-06 9.42919e-06 -0.000222282
0.000376323 -3.5354e-05 -1.41736e-06
-3.5354e-05 8.71175e-05 -4.40788e-07
-1.41736e-06 -4.40788e-07 -7.91985e-05
0.00140632 -0.000154972 1.38636e-05
-0.000154972 0.000458692 -4.63949e-06
1.38636e-05 -4.63949e-06 0.000322588
0.000623543 1.70543e-05 -3.08344e-06
1.70543e-05 9.40879e-06 -8.45563e-07
-3.08344e-06 -8.45563e-07 -7.10093e-05
0.00031003 -5.304e-05 9.23039e-07
-5.304e-05 -3.74466e-05 -1.23575e-06
9.23039e-07 -1.23575e-06 -0.000234269
0.0010849 -0.000132863 6.63076e-06
-0.000132863 0.000203237 5.0976e-06
6.63076e-06 5.0976e-06 -2.23255e-06
0.00169701 -0.000143191 -2.1704e-06
-0.000143191 0.000536312 -6.58158e-07
-2.1704e-06 -6.58158e-07 0.000395903
0.00126736 -0.000131994 2.88531e-07
-0.000131994 0.000317435 1.31905e-06
2.88531e-07 1.31905e-06 0.000110113
0.00125013 -0.000159801 -1.15227e-06
-0.000159801 0.00018022 -7.7272e-08
-1.15227e-06 -7.7272e-08 -1.76969e-05
0.00110817 -0.000117493 -1.64245e-06
-0.000117493 0.000209413 -2.04896e-06
-1.64245e-06 -2.04896e-06 4.61899e-05
0.00160461 -0.000159972 5.27997e-07
-0.000159972 0.000396256 2.20844e-07
5.27997e-07 2.20844e-07 0.000215218
0.00130056 -0.000155554 -6.42812e-07
-0.000155554 0.000158114 -1.12036e-06
-6.42812e-07 -1.12036e-06 -2.04104e-05
0.00151694 -0.000157596 -2.59996e-06
-0.000157596 0.000227639 -1.47237e-06
-2.59996e-06 -1.47237e-06 7.62657e-05
0.00176467 -0.000160504 -4.86649e-06
-0.000160504 0.000448793 4.06715e-06
-4.86649e-06 4.06715e-06 0.000304192
0.00143437 -0.000152525 -8.25277e-07
-0.000152525 0.000260097 4.12758e-07
-8.25277e-07 4.12758e-07 9.85115e-05
0.000611685 -9.03071e-05 1.99297e-07
-9.03071e-05 -9.58736e-05 -1.27609e-07
1.99297e-07 -1.27609e-07 -0.00020837
0.000871262 -0.000105404 1.6766e-06
-0.000105404 4.44137e-05 -4.20881e-07
1.6766e-06 -4.20881e-07 -7.95689e-05
0.000967432 -0.000115148 1.16471e-06
-0.000115148 7.55266e-05 -2.23405e-06
1.16471e-06 -2.23405e-06 -6.9729e-05
0.00102998 -0.000101406 -4.37018e-08
-0.000101406 0.000146763 6.62141e-07
-4.37018e-08 6.62141e-07 4.07676e-05
0.00113372 -0.000111386 -1.81995e-07
-0.000111386 0.000206424 -4.84107e-07
-1.81995e-07 -4.84107e-07 9.45396e-05
0.000786715 -9.39891e-05 3.38066e-06
-9.39891e-05 2.93103e-05 -5.30716e-07
3.38066e-06 -5.30716e-07 -8.35949e-05
0.000827189 1.33934e-05 4.55639e-07
1.33934e-05 3.90537e-05 1.43402e-06
4.55639e-07 1.43402e-06 -3.98369e-05
0.000827987 -4.06274e-05 4.75815e-08
-4.06274e-05 5.11159e-05 5.43165e-07
4.75815e-08 5.43165e-07 -4.18037e-05
0.00110888 -8.82949e-05 1.19461e-06
-8.82949e-05 0.000209519 -1.52499e-06
1.19461e-06 -1.52499e-06 0.000102665
0.000769282 4.98987e-05 -6.76431e-07
4.98987e-05 4.55527e-06 2.13785e-06
-6.76431e-07 2.13785e-06 -4.06897e-05
0.000842014 1.97961e-05 -1.66247e-07
1.97961e-05 4.15674e-05 -9.93444e-08
-1.66247e-07 -9.93444e-08 -2.54704e-05
0.000938538 -3.18313e-05 3.03893e-07
-3.18313e-05 0.000100451 -9.89918e-07
3.03893e-07 -9.89918e-07 1.798e-05
0.000720708 3.86001e-05 -2.95803e-06
3.86001e-05 -2.54035e-05 4.61393e-06
-2.95803e-06 4.61393e-06 -3.57931e-05
0.000782382 4.4226e-05 8.99809e-08
4.4226e-05 6.0602e-06 -9.31137e-08
8.99809e-08 -9.31137e-08 -3.26854e-05
0.000837406 1.82863e-05 2.79994e-07
1.82863e-05 3.27353e-05 -1.32648e-06
2.79994e-07 -1.32648e-06 -2.40568e-05
0.000797173 3.81155e-05 6.5697e-07
3.81155e-05 7.0622e-06 -1.84282e-06
6.5697e-07 -1.84282e-06 -2.74207e-05
0.000734704 3.50824e-05 4.42097e-08
3.50824e-05 -2.55631e-05 -2.50232e-08
4.42097e-08 -2.50232e-08 -3.34611e-05
0.00210556 4.88189e-05 -2.22914e-05
4.88189e-05 0.000718505 3.37348e-06
-2.22914e-05 3.37348e-06 0.000734839
0.00075975 3.10105e-05 1.50033e-06
3.10105e-05 -2.01259e-05 -3.25142e-06
1.50033e-06 -3.25142e-06 -2.57534e-05
0.00209229 4.25476e-05 1.16353e-06
4.25476e-05 0.000704638 7.27509e-08
1.16353e-06 7.27509e-08 0.000722588
0.00208482 3.61427e-05 1.78479e-05
3.61427e-05 0.000694621 -3.60431e-06
1.78479e-05 -3.60431e-06 0.00071396
0.00089081 4.94531e-06 -1.17073e-07
4.94531e-06 6.12612e-05 -6.53822e-07
-1.17073e-07 -6.53822e-07 -7.18506e-06
0.000845279 2.72597e-05 -9.83058e-07
2.72597e-05 3.3527e-05 -1.01583e-06
-9.83058e-07 -1.01583e-06 -2.48897e-05
0.000787287 -2.6741e-05 -6.99729e-07
-2.6741e-05 -5.30564e-06 -1.58489e-06
-6.99729e-07 -1.58489e-06 -4.03924e-05
0.000851087 1.49385e-05 -1.2887e-07
1.49385e-05 3.1904e-05 -3.90088e-08
-1.2887e-07 -3.90088e-08 -2.19938e-05
0.000753689 -2.64593e-05 -8.3992e-07
-2.64593e-05 -2.7577e-05 -3.27454e-06
-8.3992e-07 -3.27454e-06 -3.35966e-05
0.000799701 -2.12128e-05 -1.24508e-07
-2.12128e-05 -8.58728e-07 3.46621e-09
-1.24508e-07 3.46621e-09 -3.39251e-05
0.000819818 4.31454e-06 1.10433e-07
4.31454e-06 1.39618e-05 -4.45039e-08
1.10433e-07 -4.45039e-08 -3.64379e-05
0.0021349 -2.98183e-05 -1.49656e-05
-2.98183e-05 0.000716662 -3.9088e-06
-1.49656e-05 -3.9088e-06 0.000736592
0.000752731 -2.1548e-05 -1.22967e-07
-2.1548e-05 -3.38874e-05 -1.66298e-08
-1.22967e-07 -1.66298e-08 -3.7493e-05
0.000806357 -1.8046e-05 8.84292e-08
-1.8046e-05 2.1719e-07 7.77996e-07
8.84292e-08 7.77996e-07 -3.06715e-05
0.00207553 -2.21357e-05 -1.92457e-06
-2.21357e-05 0.000679424 5.02878e-08
-1.92457e-06 5.02878e-08 0.00070101
0.000750198 -1.61416e-05 3.89573e-07
-1.61416e-05 -4.03452e-05 3.11051e-06
3.89573e-07 3.11051e-06 -4.16548e-05
0.00202991 -1.42626e-05 7.10848e-06
-1.42626e-05 0.00065092 4.00087e-06
7.10848e-06 4.00087e-06 0.000673775
0.00106028 -4.61066e-06 1.89229e-06
-4.61066e-06 9.29455e-05 -1.90559e-07
1.89229e-06 -1.90559e-07 2.75041e-05
0.000897718 3.10782e-06 1.15507e-06
3.10782e-06 0.000115978 -9.39314e-07
1.15507e-06 -9.39314e-07 4.83028e-05
0.00106948 7.97547e-06 -3.46911e-06
7.97547e-06 4.72159e-05 2.70528e-06
-3.46911e-06 2.70528e-06 -1.30092e-05
0.000848576 -5.23227e-06 -2.73908e-07
-5.23227e-06 3.84029e-05 -2.49939e-08
-2.73908e-07 -2.49939e-08 -2.9466e-05
0.000909172 -2.243e-05 -1.45036e-07
-2.243e-05 7.22076e-05 2.63341e-07
-1.45036e-07 2.63341e-07 5.22552e-07
0.000846496 -2.02808e-05 2.38439e-07
-2.02808e-05 4.222e-05 -1.646e-06
2.38439e-07 -1.646e-06 -3.45181e-05
0.00080476 -2.83312e-05 -1.07251e-07
-2.83312e-05 1.75759e-05 -6.67819e-07
-1.07251e-07 -6.67819e-07 -5.36172e-05
0.00101372 2.61163e-05 -5.57874e-07
2.61163e-05 0.000136765 -1.81931e-07
-5.57874e-07 -1.81931e-07 5.69567e-05
0.000813644 -3.12925e-05 -2.76535e-08
-3.12925e-05 1.37716e-05 1.26624e-07
-2.76535e-08 1.26624e-07 -5.01103e-05
0.000829525 -1.34869e-05 2.89298e-07
-1.34869e-05 3.02631e-05 -5.28243e-07
2.89298e-07 -5.28243e-07 -4.10265e-05
0.000902198 1.05767e-05 -1.86897e-07
1.05767e-05 7.17514e-05 -5.33706e-08
-1.86897e-07 -5.33706e-08 3.04137e-07
0.000921612 2.4531e-05 6.83369e-08
2.4531e-05 8.16299e-05 3.52224e-07
6.83369e-08 3.52224e-07 5.11093e-06
0.000987934 1.55467e-05 -9.92419e-08
1.55467e-05 0.000122944 5.81548e-07
-9.92419e-08 5.81548e-07 4.70251e-05
0.00184345 -4.09897e-05 3.93492e-05
-4.09897e-05 0.000172471 4.11679e-05
3.93492e-05 4.11679e-05 -3.59071e-05
0.00173665 -3.61688e-07 2.306e-06
-3.61688e-07 0.00012102 1.22083e-05
2.306e-06 1.22083e-05 2.59904e-05
0.00105328 1.17232e-05 1.01686e-06
1.17232e-05 -0.000132603 -3.32908e-06
1.01686e-06 -3.32908e-06 -0.000188636
0.00417563 -0.000166773 -2.01998e-05
-0.000166773 0.000502592 -3.19028e-05
-2.01998e-05 -3.19028e-05 0.00127285
-0.00405965 0.000132344 -1.23356e-05
0.000132344 -0.00272108 -3.44474e-05
-1.23356e-05 -3.44474e-05 -0.00305513
0.00215619 -0.00037352 -7.33183e-05
-0.00037352 -0.00022837 7.34201e-05
-7.33183e-05 7.34201e-05 -0.000842737
0.00727295 0.000113391 -2.8234e-05
0.000113391 0.00217182 -4.4466e-05
-2.8234e-05 -4.4466e-05 0.000935816
0.00297757 -0.000296418 -4.2853e-05
-0.000296418 0.000203525 3.99907e-05
-4.2853e-05 3.99907e-05 -0.000125587
0.00825808 -0.00017744 4.08984e-05
-0.00017744 0.00289602 -2.86254e-06
4.08984e-05 -2.86254e-06 0.00143043
0.000504886 -0.00020429 1.97725e-05
-0.00020429 -0.000894677 -1.25526e-05
1.97725e-05 -1.25526e-05 -0.00107654
0.000841166 -0.000291131 -1.20525e-05
-0.000291131 -0.00152079 -3.21615e-05
-1.20525e-05 -3.21615e-05 -0.000607322
0.00302874 -0.000117769 -8.25484e-05
-0.000117769 0.000479966 -3.666e-05
-8.25484e-05 -3.666e-05 0.000104767
0.00809466 -0.000387777 -2.00201e-05
-0.000387777 0.0023374 5.13924e-05
-2.00201e-05 5.13924e-05 0.00125781
0.00776318 -0.000684861 2.95863e-05
-0.000684861 0.00225406 8.72715e-06
2.95863e-05 8.72715e-06 0.00245447
0.00242131 -0.000472206 1.60508e-05
-0.000472206 0.000148336 4.71733e-07
1.60508e-05 4.71733e-07 0.00119764
0.000793556 1.41252e-05 1.03191e-06
1.41252e-05 3.39476e-05 1.41607e-06
1.03191e-06 1.41607e-06 -2.9678e-05
0.000979468 -3.76959e-05 -1.38153e-07
-3.76959e-05 0.000106714 3.69997e-07
-1.38153e-07 3.69997e-07 3.50757e-05
0.00081145 -2.07948e-06 1.72213e-07
-2.07948e-06 1.84958e-05 -1.01282e-06
1.72213e-07 -1.01282e-06 -5.86524e-05
0.00176477 -0.000117455 1.02686e-05
-0.000117455 0.000870495 3.36591e-06
1.02686e-05 3.36591e-06 0.000655748
0.000552991 -3.61754e-05 -2.24408e-06
-3.61754e-05 0.000113585 -6.67798e-06
-2.24408e-06 -6.67798e-06 9.44378e-05
0.000851546 -1.44597e-05 -7.87094e-07
-1.44597e-05 3.40168e-05 -3.57018e-07
-7.87094e-07 -3.57018e-07 -3.56498e-05
0.000889541 -4.9124e-05 -1.33575e-06
-4.9124e-05 5.96582e-05 -3.61462e-06
-1.33575e-06 -3.61462e-06 -1.15964e-05
0.000838494 -1.26956e-05 -5.21572e-07
-1.26956e-05 4.18231e-05 -4.57071e-07
-5.21572e-07 -4.57071e-07 -2.46614e-05
0.000468165 -3.37783e-05 1.48293e-06
-3.37783e-05 4.12032e-05 5.08949e-06
1.48293e-06 5.08949e-06 -3.02402e-05
-0.000107511 -9.62037e-06 2.22496e-05
-9.62037e-06 0.000298653 -2.61701e-05
2.22496e-05 -2.61701e-05 -0.000329119
-0.000256608 -1.80993e-05 -2.49328e-06
-1.80993e-05 -0.000356988 5.48169e-06
-2.49328e-06 5.48169e-06 -0.000447349
0.00103434 0.00012657 1.47497e-05
0.00012657 0.000451512 -1.85125e-05
1.47497e-05 -1.85125e-05 0.000110853
0.00127051 -6.68358e-07 2.65109e-05
-6.68358e-07 -0.000105046 8.17692e-07
2.65109e-05 8.17692e-07 -0.000254375
0.000864123 9.28806e-07 9.74911e-08
9.28806e-07 4.22397e-05 -8.27833e-08
9.74911e-08 -8.27833e-08 -2.23396e-05
0.000286162 1.69582e-06 2.97644e-07
1.69582e-06 -0.000165614 -2.67866e-07
2.97644e-07 -2.67866e-07 -0.000243862
-0.00086326 -4.18525e-05 -3.31662e-05
-4.18525e-05 -0.000216939 1.0925e-05
-3.31662e-05 1.0925e-05 -0.000415449
0.00134375 6.54791e-05 2.5541e-05
6.54791e-05 -0.00047587 -4.48469e-05
2.5541e-05 -4.48469e-05 -0.000603462
0.00103475 5.78984e-06 3.82693e-06
5.78984e-06 2.68233e-05 -3.8757e-06
3.82693e-06 -3.8757e-06 -3.27297e-05
0.00979096 0.000115118 6.7626e-05
0.000115118 0.00354258 5.598e-06
6.7626e-05 5.598e-06 0.00181238
0.00533549 0.00065362 -5.28489e-05
0.00065362 0.00130227 2.84907e-05
-5.28489e-05 2.84907e-05 0.00142488
0.00159662 3.46454e-05 -2.99427e-05
3.46454e-05 -0.000143986 2.62892e-05
-2.99427e-05 2.62892e-05 -0.000358827
-0.00226861 0.00060076 -8.57786e-06
0.00060076 -0.00245599 -2.26739e-05
-8.57786e-06 -2.26739e-05 -0.00105736
0.000290156 -3.96714e-05 -1.13956e-05
-3.96714e-05 8.84395e-05 -1.02779e-06
-1.13956e-05 -1.02779e-06 4.42586e-06
0.00117294 6.13021e-06 -1.20107e-07
6.13021e-06 -0.000171383 -1.10118e-07
-1.20107e-07 -1.10118e-07 -0.000330685
-0.00127573 0.000292028 -3.7696e-05
0.000292028 -0.00065111 1.4443e-05
-3.7696e-05 1.4443e-05 -0.000481521
0.00215176 -0.000272975 -1.21254e-05
-0.000272975 -4.93578e-05 2.86843e-05
-1.21254e-05 2.86843e-05 -0.000283404
0.00394239 0.000698531 9.16125e-06
0.000698531 0.00112392 9.03728e-06
9.16125e-06 9.03728e-06 0.00143427
0.00551373 8.51693e-05 3.9018e-05
8.51693e-05 0.00143271 -2.19868e-05
3.9018e-05 -2.19868e-05 -0.000215187
0.00254334 -0.000205662 2.74851e-05
-0.000205662 0.000699634 1.34012e-05
2.74851e-05 1.34012e-05 0.00081003
-0.00114099 9.5113e-05 3.42536e-05
9.5113e-05 -0.00029117 -3.30412e-06
3.42536e-05 -3.30412e-06 -0.000519859
0.00218608 0.000490561 8.38143e-06
0.000490561 0.00108305 -1.81079e-06
8.38143e-06 -1.81079e-06 0.00119826
0.00620917 0.000503696 -4.41909e-05
0.000503696 0.00187716 3.89956e-05
-4.41909e-05 3.89956e-05 0.000438452
0.00255496 -0.000443423 -1.08024e-05
-0.000443423 0.000249323 2.30774e-05
-1.08024e-05 2.30774e-05 -0.000367169
0.000339344 -6.89391e-08 3.71616e-07
-6.89391e-08 7.79597e-05 6.58478e-06
3.71616e-07 6.58478e-06 -8.84146e-05
0.000814593 -0.000129523 1.22556e-06
-0.000129523 0.000179082 -1.97932e-06
1.22556e-06 -1.97932e-06 2.28313e-05
0.00219831 -0.000182388 1.03781e-05
-0.000182388 0.000532289 2.23359e-06
1.03781e-05 2.23359e-06 0.000493321
-0.00024923 -7.11311e-06 -2.10517e-06
-7.11311e-06 -0.00030441 1.0561e-06
-2.10517e-06 1.0561e-06 -0.000504046
0.000567575 -0.00010355 3.5711e-06
-0.00010355 -4.08547e-05 -1.48303e-07
3.5711e-06 -1.48303e-07 -0.000245563
0.00116761 -0.000179556 -1.43713e-06
-0.000179556 -1.14992e-05 -1.81372e-06
-1.43713e-06 -1.81372e-06 -0.0001658
0.00146572 -0.00014049 -2.24998e-06
-0.00014049 0.000404544 -1.62946e-06
-2.24998e-06 -1.62946e-06 0.00019834
0.00118529 -0.000155481 -1.31742e-06
-0.000155481 0.000139149 -1.64804e-06
-1.31742e-06 -1.64804e-06 -5.31103e-05
0.00168792 -0.000188126 1.97095e-08
-0.000188126 0.000237 -2.36245e-06
1.97095e-08 -2.36245e-06 9.50329e-05
0.00148684 -0.000153672 3.4341e-07
-0.000153672 0.000328428 -1.90732e-06
3.4341e-07 -1.90732e-06 0.000149243
0.00130981 -0.000152382 4.09608e-07
-0.000152382 0.000159478 -1.17588e-06
4.09608e-07 -1.17588e-06 -1.35167e-05
0.00155906 -0.00015981 -2.17049e-06
-0.00015981 0.00016846 -3.92419e-06
-2.17049e-06 -3.92419e-06 3.18759e-05
0.00148581 -0.000143914 -1.7178e-06
-0.000143914 0.000133755 -2.44898e-06
-1.7178e-06 -2.44898e-06 5.52657e-06
0.00117796 -0.000135143 -2.65402e-06
-0.000135143 8.5716e-05 5.59047e-08
-2.65402e-06 5.59047e-08 -5.91671e-05
0.00133193 -0.000147561 6.92364e-07
-0.000147561 0.000130248 -8.95238e-07
6.92364e-07 -8.95238e-07 -1.93007e-05
0.00136137 -0.000133989 -2.41737e-06
-0.000133989 0.000253646 2.82638e-06
-2.41737e-06 2.82638e-06 0.000125933
0.00135276 -0.000140962 -2.12229e-07
-0.000140962 0.000234379 7.04257e-07
-2.12229e-07 7.04257e-07 8.80503e-05
0.00123657 -0.000144062 1.56436e-06
-0.000144062 0.0001543 -1.13181e-06
1.56436e-06 -1.13181e-06 -1.03902e-05
0.000957687 -0.000103666 -4.3382e-07
-0.000103666 8.60084e-05 -6.35006e-07
-4.3382e-07 -6.35006e-07 -1.92338e-05
0.000733526 -9.56848e-05 -2.44213e-07
-9.56848e-05 -2.97116e-05 -1.2814e-06
-2.44213e-07 -1.2814e-06 -0.000140988
0.000936196 -0.000108156 4.85907e-06
-0.000108156 7.76988e-05 -3.69037e-06
4.85907e-06 -3.69037e-06 -4.50801e-05
0.000893627 -5.02346e-05 -1.93685e-07
-5.02346e-05 6.91884e-05 1.40475e-06
-1.93685e-07 1.40475e-06 -2.01462e-05
0.00100093 -9.18886e-05 3.57514e-07
-9.18886e-05 0.000131707 5.18351e-07
3.57514e-07 5.18351e-07 2.73969e-05
0.00107411 -0.000107634 5.4967e-07
-0.000107634 0.000176499 4.7916e-07
5.4967e-07 4.7916e-07 6.42822e-05
0.000783564 6.75928e-05 -1.58611e-08
6.75928e-05 1.95518e-05 2.69608e-06
-1.58611e-08 2.69608e-06 -3.74761e-05
0.000863875 3.23201e-07 -5.53784e-09
3.23201e-07 5.95735e-05 -5.04021e-08
-5.53784e-09 -5.04021e-08 -2.07932e-05
0.000943612 -4.97828e-05 -3.07118e-07
-4.97828e-05 0.000112718 -4.60294e-07
-3.07118e-07 -4.60294e-07 2.01417e-05
0.00134312 5.08659e-05 -1.31197e-05
5.08659e-05 0.000319551 3.08385e-06
-1.31197e-05 3.08385e-06 0.000308665
0.000762433 4.7088e-05 -9.9636e-09
4.7088e-05 4.53487e-07 -1.96154e-07
-9.9636e-09 -1.96154e-07 -4.45489e-05
0.000829177 4.52041e-06 4.67205e-07
4.52041e-06 3.59427e-05 -1.47467e-06
4.67205e-07 -1.47467e-06 -3.20703e-05
0.000878235 3.27306e-05 -2.10447e-05
3.27306e-05 6.4673e-05 3.45122e-06
-2.10447e-05 3.45122e-06 7.30518e-05
0.00105804 4.38527e-05 -5.64201e-06
4.38527e-05 0.000156883 3.48581e-07
-5.64201e-06 3.48581e-07 0.000147675
0.000779196 4.88164e-05 2.37341e-07
4.88164e-05 5.18618e-06 -2.08478e-06
2.37341e-07 -2.08478e-06 -3.41549e-05
0.000758096 3.598e-05 1.67566e-06
3.598e-05 -1.33175e-05 -3.3193e-06
1.67566e-06 -3.3193e-06 -2.13237e-05
0.00212149 4.9195e-05 9.24439e-07
4.9195e-05 0.000728156 7.48333e-08
9.24439e-07 7.48333e-08 0.000744209
0.00210032 4.2829e-05 2.08824e-05
4.2829e-05 0.000709987 -3.47823e-06
2.08824e-05 -3.47823e-06 0.000727734
0.000819372 -1.20475e-05 2.38066e-08
-1.20475e-05 2.3377e-05 -1.31515e-06
2.38066e-08 -1.31515e-06 -4.77936e-05
0.000849036 6.00499e-06 -5.01313e-07
6.00499e-06 3.49985e-05 -1.43069e-06
-5.01313e-07 -1.43069e-06 -2.52136e-05
0.000883128 -1.33331e-05 5.85349e-09
-1.33331e-05 5.56945e-05 -2.36306e-08
5.85349e-09 -2.36306e-08 -1.21509e-05
0.000782859 -3.93886e-05 -5.08133e-07
-3.93886e-05 -2.02473e-06 -1.93653e-06
-5.08133e-07 -1.93653e-06 -3.97981e-05
0.000865054 -2.95403e-06 5.36642e-07
-2.95403e-06 4.17962e-05 -9.48948e-08
5.36642e-07 -9.48948e-08 -1.497e-05
0.00074049 -3.05343e-05 -1.15203e-06
-3.05343e-05 -2.84806e-05 -3.41685e-06
-1.15203e-06 -3.41685e-06 -3.66644e-05
0.000796989 -2.32878e-05 -1.94416e-07
-2.32878e-05 4.27309e-07 1.71112e-08
-1.94416e-07 1.71112e-08 -3.46785e-05
0.00087351 3.34519e-05 1.01577e-06
3.34519e-05 4.8928e-05 6.68881e-07
1.01577e-06 6.68881e-07 -8.31778e-06
0.00218529 -3.6712e-05 -1.88386e-05
-3.6712e-05 0.000749373 -3.82083e-06
-1.88386e-05 -3.82083e-06 0.000767705
0.000742307 -2.60646e-05 -2.56127e-07
-2.60646e-05 -3.35241e-05 -1.30165e-09
-2.56127e-07 -1.30165e-09 -3.9476e-05
0.00081589 -2.12322e-05 2.84385e-07
-2.12322e-05 8.27603e-06 1.41538e-06
2.84385e-07 1.41538e-06 -2.49126e-05
0.00212251 -2.94891e-05 -1.7296e-06
-2.94891e-05 0.000709394 6.48131e-08
-1.7296e-06 6.48131e-08 0.000729532
0.000739559 -2.11736e-05 4.61983e-07
-2.11736e-05 -4.09232e-05 3.16382e-06
4.61983e-07 3.16382e-06 -4.44261e-05
0.00206246 -2.16678e-05 1.0445e-05
-2.16678e-05 0.000671829 3.9441e-06
1.0445e-05 3.9441e-06 0.000693629
0.00165374 -1.26064e-05 2.72878e-05
-1.26064e-05 0.000213168 1.32911e-05
2.72878e-05 1.32911e-05 9.34814e-05
0.00103599 -3.05544e-06 8.22276e-07
-3.05544e-06 7.2151e-05 1.81227e-07
8.22276e-07 1.81227e-07 7.92147e-06
0.00061931 2.25748e-06 2.32975e-06
2.25748e-06 -3.40571e-05 2.66101e-06
2.32975e-06 2.66101e-06 -0.000104943
0.000939798 3.44306e-05 -7.05835e-07
3.44306e-05 0.00010338 -1.21389e-07
-7.05835e-07 -1.21389e-07 1.98495e-05
0.000930211 -9.4458e-06 1.55583e-07
-9.4458e-06 8.21655e-05 3.43772e-07
1.55583e-07 3.43772e-07 1.46319e-05
0.000900702 -2.59614e-05 1.43727e-07
-2.59614e-05 6.69029e-05 4.9675e-07
1.43727e-07 4.9675e-07 -5.46278e-06
0.000910995 -3.09417e-05 1.18081e-07
-3.09417e-05 7.3779e-05 -1.73288e-07
1.18081e-07 -1.73288e-07 2.89972e-06
0.000919123 -9.64787e-07 1.82416e-07
-9.64787e-07 8.11456e-05 -4.4052e-07
1.82416e-07 -4.4052e-07 3.90069e-06
0.000937949 1.60146e-05 -7.22425e-08
1.60146e-05 9.42328e-05 5.409e-07
-7.22425e-08 5.409e-07 1.51774e-05
0.000951222 2.22906e-05 -2.49302e-07
2.22906e-05 0.000103407 -1.42665e-06
-2.49302e-07 -1.42665e-06 1.97767e-05
0.000777919 -1.01348e-05 2.28333e-07
-1.01348e-05 9.87874e-06 -6.22204e-08
2.28333e-07 -6.22204e-08 -6.64421e-05
0.000867169 3.55251e-05 4.21712e-07
3.55251e-05 5.74787e-05 -2.21683e-07
4.21712e-07 -2.21683e-07 -1.58784e-05
0.000913545 -4.34483e-05 4.26958e-07
-4.34483e-05 6.93312e-05 -5.36352e-07
4.26958e-07 -5.36352e-07 -3.92491e-06
0.000938317 4.9427e-06 -7.29864e-08
4.9427e-06 9.59338e-05 1.28234e-07
-7.29864e-08 1.28234e-07 2.08324e-05
0.00143081 8.32156e-06 2.70308e-06
8.32156e-06 0.000364964 8.14909e-07
2.70308e-06 8.14909e-07 0.00028835
0.00125066 -0.000294875 4.45624e-05
-0.000294875 0.000431196 3.25251e-05
4.45624e-05 3.25251e-05 0.000650397
0.00197533 -3.51046e-05 4.03132e-06
-3.51046e-05 0.000223791 9.17629e-06
4.03132e-06 9.17629e-06 1.72684e-05
0.00208332 7.16523e-07 -2.96252e-06
7.16523e-07 0.000310447 -8.27287e-06
-2.96252e-06 -8.27287e-06 0.000221406
0.00342544 -0.000353713 -4.3792e-05
-0.000353713 -6.31946e-05 -3.51311e-05
-4.3792e-05 -3.51311e-05 0.000971152
0.00428474 -0.000264552 -8.0489e-06
-0.000264552 0.000509037 -4.75131e-05
-8.0489e-06 -4.75131e-05 0.00029259
0.00259477 -0.000101388 -0.000103701
-0.000101388 -0.000277423 7.52149e-05
-0.000103701 7.52149e-05 -0.00129577
0.00227822 -0.000276813 -5.61317e-05
-0.000276813 9.51168e-05 9.11902e-05
-5.61317e-05 9.11902e-05 -0.000253524
0.00294684 -0.000181014 -3.36008e-06
-0.000181014 0.000587843 2.1361e-05
-3.36008e-06 2.1361e-05 0.000350065
8.64499e-05 -0.000496331 -1.21381e-05
-0.000496331 -0.00106229 -8.53102e-08
-1.21381e-05 -8.53102e-08 9.34033e-05
0.004819 -0.000105357 9.37213e-06
-0.000105357 0.00122813 4.03706e-05
9.37213e-06 4.03706e-05 -0.00028871
0.000400967 -0.000353622 -3.50274e-06
-0.000353622 -0.00112509 2.60903e-06
-3.50274e-06 2.60903e-06 -0.00081014
0.00281872 0.000128525 -6.92101e-05
0.000128525 0.000384956 -4.05723e-05
-6.92101e-05 -4.05723e-05 0.000234324
0.00930613 -0.000468719 -1.04064e-05
-0.000468719 0.00332705 4.24066e-05
-1.04064e-05 4.24066e-05 0.00205177
-1.99084e-05 -0.000437912 1.44416e-07
-0.000437912 -0.000206692 -1.76755e-05
1.44416e-07 -1.76755e-05 0.00010423
0.000644575 0.00011007 -1.02737e-06
0.00011007 -3.5417e-05 -9.83528e-07
-1.02737e-06 -9.83528e-07 -9.70023e-05
0.0010343 1.61274e-05 2.63805e-06
1.61274e-05 0.00015485 7.47632e-08
2.63805e-06 7.47632e-08 9.27411e-05
0.000926081 -1.96019e-05 -5.38797e-07
-1.96019e-05 8.22463e-05 -5.95414e-07
-5.38797e-07 -5.95414e-07 9.50467e-06
-0.00103485 -2.69688e-05 -1.83338e-05
-2.69688e-05 -0.00026719 -1.88496e-05
-1.83338e-05 -1.88496e-05 -0.000851863
3.08067e-05 -7.77924e-06 2.63481e-07
-7.77924e-06 -0.000198092 -5.96481e-06
2.63481e-07 -5.96481e-06 -0.000270882
0.000705267 1.0099e-05 5.13848e-07
1.0099e-05 -2.66693e-05 7.38822e-07
5.13848e-07 7.38822e-07 -9.22802e-05
0.000742044 4.76872e-05 2.18687e-06
4.76872e-05 0.000121772 9.48956e-07
2.18687e-06 9.48956e-07 2.83781e-05
0.000605116 9.0661e-05 4.53107e-06
9.0661e-05 0.00014878 -1.64066e-05
4.53107e-06 -1.64066e-05 -0.000109629
-0.000698722 9.22491e-05 1.04433e-05
9.22491e-05 -0.000661485 8.39812e-06
1.04433e-05 8.39812e-06 -0.000796221
0.000710811 -1.53001e-05 6.59955e-05
-1.53001e-05 0.000655496 -1.0878e-06
6.59955e-05 -1.0878e-06 0.000451285
0.00126608 -2.58167e-06 -3.86462e-06
-2.58167e-06 -2.679e-05 9.12184e-07
-3.86462e-06 9.12184e-07 -0.000147553
0.000422866 1.40337e-06 3.84891e-06
1.40337e-06 -0.000196812 -1.1771e-06
3.84891e-06 -1.1771e-06 -0.000263513
-0.000124916 -2.76638e-05 6.9735e-06
-2.76638e-05 -9.79519e-05 4.02672e-06
6.9735e-06 4.02672e-06 -0.000197359
0.00159994 -0.00026898 2.0107e-05
-0.00026898 -0.000362842 -3.35934e-05
2.0107e-05 -3.35934e-05 -0.000508097
0.00138399 2.29142e-06 -3.2839e-05
2.29142e-06 -3.65208e-05 1.19851e-06
-3.2839e-05 1.19851e-06 -0.000190587
0.00183527 9.69527e-05 5.12572e-06
9.69527e-05 -0.000218856 2.17382e-06
5.12572e-06 2.17382e-06 -0.00161582
-0.00234762 0.000435098 -3.91103e-05
0.000435098 -0.00190694 4.45578e-06
-3.91103e-05 4.45578e-06 -0.00149688
0.00140536 0.000347892 -5.70486e-05
0.000347892 0.000615904 3.12661e-05
-5.70486e-05 3.12661e-05 0.00102287
0.00169069 -0.000169488 -3.10822e-06
-0.000169488 0.000217238 4.16476e-06
-3.10822e-06 4.16476e-06 0.00039888
0.00117256 0.000144593 -1.56812e-06
0.000144593 0.000866048 3.8836e-06
-1.56812e-06 3.8836e-06 0.000856416
-0.00361731 0.00024026 1.21569e-05
0.00024026 -0.00129765 5.28505e-08
1.21569e-05 5.28505e-08 -0.00146402
0.00339847 -0.000448345 -7.31446e-06
-0.000448345 0.000681994 1.14393e-05
-7.31446e-06 1.14393e-05 -0.000209662
0.00657444 0.000383045 -1.24368e-05
0.000383045 0.0020213 7.39665e-07
-1.24368e-05 7.39665e-07 0.0007055
0.000145242 -0.000163068 -3.09674e-06
-0.000163068 -0.000502039 9.7511e-06
-3.09674e-06 9.7511e-06 -0.000442298
-0.00546963 0.000119388 -2.37351e-06
0.000119388 -0.00262014 -7.35149e-06
-2.37351e-06 -7.35149e-06 -0.00258573
0.00662571 0.000364717 -9.17417e-06
0.000364717 0.00229397 5.64774e-06
-9.17417e-06 5.64774e-06 0.00113202
0.00376636 -0.00026052 -1.44288e-05
-0.00026052 0.000208528 2.65025e-05
-1.44288e-05 2.65025e-05 -0.000516302
2.12813e-05 -9.24343e-05 -1.08999e-05
-9.24343e-05 -0.000182773 1.16526e-06
-1.08999e-05 1.16526e-06 -0.00037424
0.00119793 -0.000137836 -4.74754e-07
-0.000137836 5.04905e-05 1.32958e-07
-4.74754e-07 1.32958e-07 3.9949e-05
0.00215452 -0.00017981 5.28964e-06
-0.00017981 0.000254294 -1.32227e-06
5.28964e-06 -1.32227e-06 0.000280372
0.000133649 -7.83528e-05 -1.91163e-06
-7.83528e-05 -0.00024043 -3.96499e-06
-1.91163e-06 -3.96499e-06 -0.00044616
0.00128082 -0.000184083 -3.28629e-06
-0.000184083 4.23159e-05 -2.04913e-06
-3.28629e-06 -2.04913e-06 -0.000111712
0.00189314 -0.000216217 -2.6398e-06
-0.000216217 0.000154545 -8.74144e-07
-2.6398e-06 -8.74144e-07 5.88342e-05
0.00112532 -0.000151667 -5.67669e-07
-0.000151667 0.000101942 -3.05147e-06
-5.67669e-07 -3.05147e-06 -8.48776e-05
0.00142496 -0.000173786 1.80191e-06
-0.000173786 0.000107322 -4.61156e-07
1.80191e-06 -4.61156e-07 -3.50124e-05
0.00156022 -0.000160797 -1.80645e-06
-0.000160797 4.53122e-05 -3.71454e-06
-1.80645e-06 -3.71454e-06 -5.71689e-05
0.00133168 -0.000149981 1.12129e-07
-0.000149981 0.000166658 -4.45621e-07
1.12129e-07 -4.45621e-07 -6.21106e-07
0.00140503 -0.000152186 -5.90667e-07
-0.000152186 8.57769e-05 -4.6554e-07
-5.90667e-07 -4.6554e-07 -4.9285e-05
0.00166283 -0.000142153 -9.46762e-07
-0.000142153 0.000131924 -2.3386e-06
-9.46762e-07 -2.3386e-06 2.95366e-05
0.00170628 -0.000134644 -2.22799e-06
-0.000134644 0.00020127 -2.19075e-06
-2.22799e-06 -2.19075e-06 9.75225e-05
0.00140097 -0.000139468 -2.73769e-06
-0.000139468 0.000131377 -1.47862e-06
-2.73769e-06 -1.47862e-06 1.35689e-06
0.00148651 -0.000141078 6.53723e-07
-0.000141078 0.000134733 5.47473e-07
6.53723e-07 5.47473e-07 8.41678e-06
0.000737741 -0.000108375 -2.71709e-06
-0.000108375 -0.000118828 1.3304e-06
-2.71709e-06 1.3304e-06 -0.000249838
0.00134335 -0.00014119 1.3289e-06
-0.00014119 0.0001718 -1.01869e-06
1.3289e-06 -1.01869e-06 2.84949e-05
0.00113769 -0.00013715 2.62064e-06
-0.00013715 2.8136e-05 1.20797e-07
2.62064e-06 1.20797e-07 -0.00011956
0.00102881 -0.000112039 -8.15741e-07
-0.000112039 0.000101992 1.25334e-06
-8.15741e-07 1.25334e-06 -9.64394e-06
0.00101207 -0.000116347 5.71786e-07
-0.000116347 7.51875e-05 -2.68306e-07
5.71786e-07 -2.68306e-07 -5.13494e-05
0.000936888 -0.000121151 2.15634e-06
-0.000121151 1.79482e-05 -2.16571e-06
2.15634e-06 -2.16571e-06 -0.000130093
0.000968125 -8.89484e-05 -1.77422e-06
-8.89484e-05 9.18202e-05 5.2002e-07
-1.77422e-06 5.2002e-07 -1.10375e-06
0.0010433 -0.00010749 -1.84516e-07
-0.00010749 0.000129576 -4.75811e-07
-1.84516e-07 -4.75811e-07 2.40294e-05
0.000859607 -0.000101289 3.45018e-07
-0.000101289 3.86336e-05 -2.03748e-06
3.45018e-07 -2.03748e-06 -7.14346e-05
0.000846297 1.69399e-05 -1.73842e-07
1.69399e-05 5.07123e-05 3.0583e-06
-1.73842e-07 3.0583e-06 -1.54298e-05
0.000942554 -4.61009e-05 7.95774e-07
-4.61009e-05 9.40888e-05 3.84116e-07
7.95774e-07 3.84116e-07 5.01421e-06
0.000966978 -8.10266e-05 7.9394e-07
-8.10266e-05 0.000114026 4.44616e-07
7.9394e-07 4.44616e-07 1.14443e-05
0.000654202 4.84778e-05 -2.41481e-06
4.84778e-05 -4.34378e-05 3.99784e-06
-2.41481e-06 3.99784e-06 -6.31482e-05
0.000763322 3.03752e-05 -4.41443e-07
3.03752e-05 4.42294e-06 -2.79092e-07
-4.41443e-07 -2.79092e-07 -5.02321e-05
0.00089902 -1.3569e-05 1.59157e-07
-1.3569e-05 7.91063e-05 -1.69056e-06
1.59157e-07 -1.69056e-06 -2.63009e-06
0.00221392 6.86103e-05 -9.66831e-06
6.86103e-05 0.00079556 1.33852e-06
-9.66831e-06 1.33852e-06 0.000805775
0.000712266 4.42241e-05 1.14573e-07
4.42241e-05 -2.04913e-05 -2.9278e-08
1.14573e-07 -2.9278e-08 -3.54774e-05
0.000753668 4.32953e-05 8.60686e-07
4.32953e-05 -4.20015e-06 -2.30699e-06
8.60686e-07 -2.30699e-06 -4.92787e-05
0.00216287 5.52703e-05 9.53274e-07
5.52703e-05 0.000758146 7.10113e-08
9.53274e-07 7.10113e-08 0.000772234
0.000755542 4.10004e-05 1.95291e-06
4.10004e-05 -6.37817e-06 -3.4764e-06
1.95291e-06 -3.4764e-06 -1.75111e-05
0.00213736 4.93889e-05 2.40084e-05
4.93889e-05 0.000737777 -3.35951e-06
2.40084e-05 -3.35951e-06 0.000753579
0.000954351 3.00299e-05 -3.95792e-07
3.00299e-05 0.00010474 -1.97604e-07
-3.95792e-07 -1.97604e-07 2.77427e-05
0.000850985 -4.30619e-06 8.5413e-08
-4.30619e-06 4.0384e-05 -3.16541e-07
8.5413e-08 -3.16541e-07 -3.15224e-05
0.000845742 -5.12502e-06 -4.10204e-07
-5.12502e-06 3.77457e-05 -1.6183e-06
-4.10204e-07 -1.6183e-06 -2.76493e-05
0.000771544 -4.66275e-05 -5.39875e-07
-4.66275e-05 -2.79223e-06 -2.23266e-06
-5.39875e-07 -2.23266e-06 -4.31195e-05
0.000834318 -1.38664e-05 6.22869e-07
-1.38664e-05 2.79951e-05 -6.93775e-08
6.22869e-07 -6.93775e-08 -3.24246e-05
0.000833663 7.44444e-08 5.252e-07
7.44444e-08 3.23105e-05 8.33398e-07
5.252e-07 8.33398e-07 -3.7709e-05
0.000737035 -3.42687e-05 -1.76698e-06
-3.42687e-05 -2.40173e-05 -3.54448e-06
-1.76698e-06 -3.54448e-06 -3.41412e-05
0.000787989 -3.14903e-05 -2.06917e-07
-3.14903e-05 -1.399e-07 1.38515e-08
-2.06917e-07 1.38515e-08 -3.73108e-05
0.000844224 -1.08185e-05 1.06824e-06
-1.08185e-05 3.08754e-05 9.6933e-07
1.06824e-06 9.6933e-07 -2.58978e-05
0.00222333 -4.33244e-05 -2.2315e-05
-4.33244e-05 0.000776107 -3.70769e-06
-2.2315e-05 -3.70769e-06 0.000792811
0.000728387 -2.99612e-05 -1.74141e-07
-2.99612e-05 -3.47135e-05 9.08214e-09
-1.74141e-07 9.08214e-09 -4.28528e-05
0.000805597 -2.19934e-05 8.02575e-07
-2.19934e-05 5.26567e-06 1.56764e-06
8.02575e-07 1.56764e-06 -2.98056e-05
0.00217429 -3.65379e-05 -1.82175e-06
-3.65379e-05 0.000742838 8.22506e-08
-1.82175e-06 8.22506e-08 0.000761345
0.000727283 -2.56265e-05 5.55165e-07
-2.56265e-05 -4.14042e-05 3.29276e-06
5.55165e-07 3.29276e-06 -4.72793e-05
0.00210948 -2.90568e-05 1.36826e-05
-2.90568e-05 0.000701742 3.89188e-06
1.36826e-05 3.89188e-06 0.000722106
-0.00134266 -0.000126681 4.20349e-05
-0.000126681 -0.000495423 1.26038e-05
4.20349e-05 1.26038e-05 -0.000779703
0.00164786 -1.83078e-05 2.76671e-06
-1.83078e-05 0.00018492 5.26207e-06
2.76671e-06 5.26207e-06 6.71779e-05
0.00100274 -1.4136e-06 2.88839e-06
-1.4136e-06 4.48016e-05 7.68149e-07
2.88839e-06 7.68149e-07 -1.82252e-05
0.000920044 1.33998e-05 -6.80833e-07
1.33998e-05 9.07656e-05 6.44738e-07
-6.80833e-07 6.44738e-07 8.57478e-06
0.00105524 9.18585e-05 1.61262e-08
9.18585e-05 0.000174886 1.0424e-06
1.61262e-08 1.0424e-06 8.05635e-05
0.000941117 3.37042e-05 -3.27076e-07
3.37042e-05 0.000106216 2.73958e-07
-3.27076e-07 2.73958e-07 1.83639e-05
0.0010072 -3.60411e-05 2.87338e-07
-3.60411e-05 0.000124619 -3.67144e-07
2.87338e-07 -3.67144e-07 5.40328e-05
0.000945975 1.60226e-05 4.94335e-07
1.60226e-05 9.32601e-05 5.80794e-07
4.94335e-07 5.80794e-07 1.76565e-05
0.000804041 -1.98889e-05 -7.23397e-07
-1.98889e-05 1.95599e-05 1.39493e-06
-7.23397e-07 1.39493e-06 -5.70634e-05
0.000814386 6.32609e-06 -4.87332e-07
6.32609e-06 3.24336e-05 -4.02558e-09
-4.87332e-07 -4.02558e-09 -4.70706e-05
0.000873907 1.02739e-05 2.10123e-07
1.02739e-05 6.18075e-05 -3.95087e-08
2.10123e-07 -3.95087e-08 -2.09473e-05
0.00100698 4.78496e-05 9.90165e-07
4.78496e-05 0.000151406 -1.17733e-06
9.90165e-07 -1.17733e-06 5.80505e-05
0.000802338 4.64195e-05 2.38947e-06
4.64195e-05 1.68323e-05 -2.05067e-06
2.38947e-06 -2.05067e-06 -6.26581e-05
0.000908584 2.91863e-05 -1.23965e-07
2.91863e-05 8.25189e-05 -6.50637e-07
-1.23965e-07 -6.50637e-07 5.88393e-06
0.00107749 2.86551e-05 6.18767e-07
2.86551e-05 0.000180221 4.2345e-07
6.18767e-07 4.2345e-07 0.000103652
-0.00158958 -0.000300179 8.07564e-06
-0.000300179 -0.00080472 2.29914e-05
8.07564e-06 2.29914e-05 -0.000816658
-6.26039e-05 -0.000293717 1.21956e-05
-0.000293717 -0.000176807 4.47667e-06
1.21956e-05 4.47667e-06 -6.43567e-05
0.00198954 -3.6262e-05 -3.34158e-05
-3.6262e-05 0.000206532 -2.30245e-05
-3.34158e-05 -2.30245e-05 -1.09989e-06
-0.00227417 -0.000514495 -3.68282e-06
-0.000514495 -0.00229308 1.92746e-05
-3.68282e-06 1.92746e-05 -0.00103486
0.00446991 -0.000541297 -2.40167e-05
-0.000541297 0.00118698 -3.6681e-05
-2.40167e-05 -3.6681e-05 0.00130186
0.00367486 8.66541e-05 4.04914e-05
8.66541e-05 0.00071759 1.26231e-05
4.04914e-05 1.26231e-05 -0.000769292
0.00224426 -0.000168063 -8.84512e-05
-0.000168063 0.000228522 7.97486e-05
-8.84512e-05 7.97486e-05 -0.000355197
0.00317872 0.000111391 -3.44419e-05
0.000111391 0.000453405 -7.2277e-06
-3.44419e-05 -7.2277e-06 0.000172551
0.00316627 -0.000584217 -9.89609e-06
-0.000584217 0.00111576 1.24944e-05
-9.89609e-06 1.24944e-05 0.00126126
0.00200568 -3.9756e-05 1.45157e-05
-3.9756e-05 -3.04854e-06 3.01507e-05
1.45157e-05 3.01507e-05 -0.0013999
0.00172728 0.000257279 -9.8225e-05
0.000257279 5.53662e-05 -8.64137e-05
-9.8225e-05 -8.64137e-05 -0.000568074
0.0026409 0.000192268 -0.000113736
0.000192268 0.000472899 -3.89412e-05
-0.000113736 -3.89412e-05 -0.000941746
0.00232416 0.000260533 1.20768e-05
0.000260533 0.000674614 -8.03831e-06
1.20768e-05 -8.03831e-06 0.000546359
0.000855504 0.00011022 -1.30768e-06
0.00011022 6.64262e-05 -3.75022e-08
-1.30768e-06 -3.75022e-08 6.56958e-06
0.00122702 2.14781e-05 -4.27324e-07
2.14781e-05 0.000252973 -2.05526e-06
-4.27324e-07 -2.05526e-06 0.000190602
0.000287177 7.91316e-05 -2.94467e-05
7.91316e-05 -6.86443e-05 -1.45019e-05
-2.94467e-05 -1.45019e-05 -0.000254001
0.00152116 9.03332e-05 -3.08503e-06
9.03332e-05 0.000489738 -4.55735e-06
-3.08503e-06 -4.55735e-06 0.000393295
0.00112187 0.000182855 1.31924e-05
0.000182855 0.000180465 1.18563e-08
1.31924e-05 1.18563e-08 6.35661e-05
0.000998936 0.000227807 4.17874e-05
0.000227807 -0.000231751 2.57799e-05
4.17874e-05 2.57799e-05 -0.000283654
-0.00352432 -1.96076e-05 -1.87158e-05
-1.96076e-05 -0.00172978 -7.16965e-06
-1.87158e-05 -7.16965e-06 -0.00142503
-0.000153859 -6.85167e-06 1.10807e-05
-6.85167e-06 0.000293283 1.09763e-06
1.10807e-05 1.09763e-06 5.61932e-05
0.00124969 -5.9618e-06 -2.32924e-05
-5.9618e-06 4.23442e-05 6.21818e-07
-2.32924e-05 6.21818e-07 -4.87566e-05
0.000901293 -0.000157332 -3.53708e-05
-0.000157332 -0.000182812 -1.19794e-05
-3.53708e-05 -1.19794e-05 -6.16875e-06
0.00387235 -0.00050631 -5.72443e-05
-0.00050631 0.000786447 -5.44036e-06
-5.72443e-05 -5.44036e-06 0.000113622
0.0010663 0.000114529 -4.34828e-05
0.000114529 0.000885045 1.23772e-05
-4.34828e-05 1.23772e-05 0.000839069
0.000791115 0.000217252 2.84592e-05
0.000217252 -0.000273728 -4.28872e-05
2.84592e-05 -4.28872e-05 -0.00183511
0.00761606 0.000487819 -9.0676e-05
0.000487819 0.00379327 1.38289e-05
-9.0676e-05 1.38289e-05 0.00381489
0.00130638 -0.000245232 9.64082e-06
-0.000245232 8.99874e-06 1.11587e-06
9.64082e-06 1.11587e-06 6.75783e-06
-0.000871217 0.00022433 -1.06641e-05
0.00022433 -0.00022135 -2.86081e-06
-1.06641e-05 -2.86081e-06 -0.000261195
0.00235575 0.000228136 -1.0243e-05
0.000228136 0.000210814 1.51929e-05
-1.0243e-05 1.51929e-05 -0.00115898
0.00410263 -0.000224666 -1.35715e-06
-0.000224666 0.000827814 6.04817e-06
-1.35715e-06 6.04817e-06 0.000199998
-0.000247914 -0.000116856 -4.05283e-06
-0.000116856 -0.000606293 -5.50081e-06
-4.05283e-06 -5.50081e-06 -0.00074401
0.00724258 3.50931e-05 3.8358e-05
3.50931e-05 0.00246322 3.48499e-06
3.8358e-05 3.48499e-06 0.00156297
0.00201651 3.78401e-05 2.71782e-06
3.78401e-05 -0.000244224 -5.47199e-06
2.71782e-06 -5.47199e-06 -0.000584317
0.000213654 -9.89695e-05 -8.45186e-06
-9.89695e-05 -0.000422411 2.89119e-07
-8.45186e-06 2.89119e-07 -0.000407943
0.00132557 -0.000159337 -5.59157e-07
-0.000159337 -0.000149692 -6.9044e-07
-5.59157e-07 -6.9044e-07 -0.00012759
0.00232295 -0.000216084 -4.9177e-07
-0.000216084 0.000190765 -4.02128e-06
-4.9177e-07 -4.02128e-06 0.00019647
0.00122943 -0.000181968 -3.71524e-06
-0.000181968 1.01566e-05 -3.20274e-06
-3.71524e-06 -3.20274e-06 -0.000141935
0.00166281 -0.000203945 -1.08901e-06
-0.000203945 4.09754e-05 2.25608e-06
-1.08901e-06 2.25608e-06 -5.30554e-05
0.00175905 -0.000172325 -4.66272e-06
-0.000172325 1.38764e-05 2.1129e-06
-4.66272e-06 2.1129e-06 -4.77046e-05
0.00120204 -0.000161191 2.33148e-06
-0.000161191 -2.52209e-06 1.89459e-06
2.33148e-06 1.89459e-06 -0.000145677
0.00162504 -0.000161376 -1.64319e-06
-0.000161376 7.31457e-05 2.81145e-07
-1.64319e-06 2.81145e-07 -2.94308e-05
0.00160065 -0.000134749 -1.01336e-06
-0.000134749 -2.05057e-05 -1.82538e-07
-1.01336e-06 -1.82538e-07 -9.60567e-05
0.00125712 -0.000145086 2.25444e-06
-0.000145086 6.52581e-06 1.97537e-06
2.25444e-06 1.97537e-06 -0.000127056
0.00151151 -0.000136094 4.3313e-07
-0.000136094 5.50673e-05 8.50688e-07
4.3313e-07 8.50688e-07 -4.71557e-05
0.00167981 -0.000124651 -1.88095e-06
-0.000124651 9.66122e-05 -3.0176e-07
-1.88095e-06 -3.0176e-07 1.30006e-05
0.00196632 -0.000126402 -6.17126e-07
-0.000126402 0.00031052 -1.12058e-06
-6.17126e-07 -1.12058e-06 0.000219239
0.00162482 -0.000129671 -1.57436e-06
-0.000129671 0.000158654 1.65362e-06
-1.57436e-06 1.65362e-06 5.72613e-05
0.0014962 -0.000127699 -7.75925e-07
-0.000127699 0.000134048 -3.26361e-06
-7.75925e-07 -3.26361e-06 2.45797e-05
0.00138909 -0.000133073 -2.91654e-06
-0.000133073 0.000155101 -4.28583e-07
-2.91654e-06 -4.28583e-07 3.01759e-05
0.00151023 -0.000142489 1.05792e-06
-0.000142489 0.000189542 -2.58408e-07
1.05792e-06 -2.58408e-07 5.95068e-05
0.00148 -0.000138121 2.66494e-06
-0.000138121 0.0001317 3.03578e-06
2.66494e-06 3.03578e-06 7.3356e-06
0.000801925 -0.000105293 -2.97661e-06
-0.000105293 -6.11057e-05 2.34159e-06
-2.97661e-06 2.34159e-06 -0.000180334
0.00106917 -0.000122091 2.43945e-07
-0.000122091 5.61333e-05 -8.58198e-08
2.43945e-07 -8.58198e-08 -7.40064e-05
0.00150531 -0.000147079 4.55295e-06
-0.000147079 0.000256127 -2.01286e-06
4.55295e-06 -2.01286e-06 0.000114421
0.000950517 -9.52554e-05 -1.63996e-06
-9.52554e-05 6.84141e-05 7.34345e-07
-1.63996e-06 7.34345e-07 -2.90958e-05
0.00108447 -0.000113987 1.60185e-07
-0.000113987 0.000129324 -2.08643e-07
1.60185e-07 -2.08643e-07 1.75229e-05
0.000700623 -0.000100619 1.3002e-06
-0.000100619 -8.3831e-05 -3.29197e-06
1.3002e-06 -3.29197e-06 -0.000209329
0.000806245 -2.41098e-05 -2.47785e-06
-2.41098e-05 2.34886e-05 2.64466e-06
-2.47785e-06 2.64466e-06 -4.97912e-05
0.00101989 -9.21274e-05 2.26244e-08
-9.21274e-05 0.000117925 -4.81874e-08
2.26244e-08 -4.81874e-08 2.48555e-05
0.00112331 -0.000111008 1.08322e-06
-0.000111008 0.000170188 -7.97508e-07
1.08322e-06 -7.97508e-07 6.43705e-05
0.000594625 5.85462e-05 -1.22356e-06
5.85462e-05 -6.78268e-05 4.8363e-06
-1.22356e-06 4.8363e-06 -9.52519e-05
0.000795853 2.15184e-06 -3.32035e-08
2.15184e-06 2.37128e-05 4.66862e-08
-3.32035e-08 4.66862e-08 -4.32624e-05
0.000996849 -5.14828e-05 1.51984e-06
-5.14828e-05 0.000122745 -6.12352e-07
1.51984e-06 -6.12352e-07 3.30813e-05
0.00238735 6.99181e-05 -3.26465e-05
6.99181e-05 0.000893391 2.96333e-06
-3.26465e-05 2.96333e-06 0.000902386
0.000682035 5.21947e-05 -1.45766e-07
5.21947e-05 -2.75335e-05 -1.4034e-07
-1.45766e-07 -1.4034e-07 -4.81416e-05
0.000737867 6.5962e-06 2.186e-06
6.5962e-06 -1.03716e-05 -2.79129e-06
2.186e-06 -2.79129e-06 -6.47111e-05
0.00160057 5.36399e-05 1.27045e-05
5.36399e-05 0.000463565 -6.99342e-07
1.27045e-05 -6.99342e-07 0.000471436
0.000743708 4.66275e-05 2.01486e-06
4.66275e-05 -3.83705e-06 -3.8189e-06
2.01486e-06 -3.8189e-06 -1.91418e-05
0.0022087 5.58875e-05 2.78033e-05
5.58875e-05 0.000784204 -3.23659e-06
2.78033e-05 -3.23659e-06 0.000797768
0.000939792 4.6431e-05 2.23822e-07
4.6431e-05 9.93781e-05 7.468e-07
2.23822e-07 7.468e-07 1.51177e-05
0.000924639 3.07942e-06 -1.8893e-07
3.07942e-06 8.59524e-05 5.25802e-07
-1.8893e-07 5.25802e-07 1.07354e-05
0.000862302 -2.67733e-05 -1.90171e-07
-2.67733e-05 5.26359e-05 -1.32427e-06
-1.90171e-07 -1.32427e-06 -1.71988e-05
0.000904712 7.2969e-06 2.44907e-07
7.2969e-06 6.94579e-05 6.70419e-07
2.44907e-07 6.70419e-07 -3.53147e-06
0.000843937 -3.02425e-05 2.53582e-07
-3.02425e-05 3.41883e-05 -6.33079e-08
2.53582e-07 -6.33079e-08 -2.93986e-05
0.00074582 -4.64569e-05 -8.3447e-07
-4.64569e-05 -1.03675e-05 -2.3673e-06
-8.3447e-07 -2.3673e-06 -5.40595e-05
0.000733701 -3.83641e-05 -2.27362e-06
-3.83641e-05 -1.95179e-05 -3.61913e-06
-2.27362e-06 -3.61913e-06 -3.14277e-05
0.000773118 -4.20951e-05 -1.12449e-07
-4.20951e-05 -2.71933e-06 -1.18547e-08
-1.12449e-07 -1.18547e-08 -4.25149e-05
0.000841409 -4.91483e-05 -1.43216e-07
-4.91483e-05 2.97364e-05 1.41077e-06
-1.43216e-07 1.41077e-06 -2.88918e-05
0.00224382 -4.95617e-05 -2.56138e-05
-4.95617e-05 0.000794006 -3.53656e-06
-2.56138e-05 -3.53656e-06 0.000809112
0.000718094 -3.35402e-05 -2.20629e-07
-3.35402e-05 -3.39148e-05 2.24689e-08
-2.20629e-07 2.24689e-08 -4.39663e-05
0.000793007 -2.28926e-05 1.50464e-06
-2.28926e-05 1.75742e-06 1.82001e-06
1.50464e-06 1.82001e-06 -3.48444e-05
0.00221981 -4.32589e-05 -1.45616e-06
-4.32589e-05 0.000773529 9.28844e-08
-1.45616e-06 9.28844e-08 0.000790356
0.000715915 -2.94354e-05 1.00031e-06
-2.94354e-05 -4.10883e-05 3.44832e-06
1.00031e-06 3.44832e-06 -4.91967e-05
0.00215858 -3.62854e-05 1.68248e-05
-3.62854e-05 0.00073375 3.81572e-06
1.68248e-05 3.81572e-06 0.000752461
0.00153135 0.000102629 9.68968e-05
0.000102629 0.000940908 2.89343e-05
9.68968e-05 2.89343e-05 0.000618342
1.79381e-06 -0.000142902 4.53074e-06
-0.000142902 0.00016864 4.29894e-06
4.53074e-06 4.29894e-06 -3.02592e-05
0.00163418 -2.13926e-05 -2.45554e-05
-2.13926e-05 0.00015142 -3.37626e-06
-2.45554e-05 -3.37626e-06 3.55637e-05
0.000915814 -3.5489e-06 2.136e-07
-3.5489e-06 8.71937e-05 7.3409e-07
2.136e-07 7.3409e-07 5.84716e-06
0.000913728 1.25036e-05 -2.12455e-08
1.25036e-05 9.01854e-05 5.66076e-07
-2.12455e-08 5.66076e-07 2.76111e-06
0.0009432 8.58653e-05 -7.0966e-08
8.58653e-05 0.000118918 1.1814e-07
-7.0966e-08 1.1814e-07 2.53515e-05
0.00108965 0.000109538 8.21908e-07
0.000109538 0.000187628 8.85896e-07
8.21908e-07 8.85896e-07 8.69834e-05
0.000962781 7.26453e-05 -7.51205e-07
7.26453e-05 0.000132015 3.89212e-07
-7.51205e-07 3.89212e-07 3.39537e-05
0.000849629 2.00371e-05 2.53892e-07
2.00371e-05 5.09222e-05 9.34494e-07
2.53892e-07 9.34494e-07 -2.93881e-05
0.000842618 9.0733e-06 4.33689e-08
9.0733e-06 4.48079e-05 9.85306e-07
4.33689e-08 9.85306e-07 -3.77941e-05
0.000795889 4.99552e-05 -6.55824e-07
4.99552e-05 3.96776e-05 -7.11383e-07
-6.55824e-07 -7.11383e-07 -5.18778e-05
0.000230208 6.36284e-05 -3.02666e-07
6.36284e-05 -0.000249689 1.22979e-06
-3.02666e-07 1.22979e-06 -0.000350051
0.000855907 9.083e-05 3.0528e-07
9.083e-05 4.356e-05 -1.85832e-06
3.0528e-07 -1.85832e-06 -5.00281e-05
0.00196154 0.000193659 4.04567e-06
0.000193659 0.000481597 -5.25532e-06
4.04567e-06 -5.25532e-06 0.0003666
0.000877564 5.35546e-05 -1.62428e-06
5.35546e-05 7.2994e-05 -3.36792e-07
-1.62428e-06 -3.36792e-07 -8.26312e-06
0.000825409 5.78763e-06 -3.43677e-07
5.78763e-06 4.27756e-05 -4.61282e-07
-3.43677e-07 -4.61282e-07 -3.06412e-05
0.00892731 -0.000102215 -3.65872e-05
-0.000102215 0.00276081 -1.3676e-05
-3.65872e-05 -1.3676e-05 0.00169504
-0.0021529 -0.000286024 -2.64547e-05
-0.000286024 -0.000852194 -1.13424e-06
-2.64547e-05 -1.13424e-06 -0.00111222
0.00124062 -0.000302144 -3.85715e-05
-0.000302144 0.000542181 -2.36117e-05
-3.85715e-05 -2.36117e-05 0.000620986
-0.00244422 -0.000355996 -1.98116e-05
-0.000355996 -0.00152744 -1.55497e-06
-1.98116e-05 -1.55497e-06 -0.00128553
0.00931808 -0.000390678 6.06563e-05
-0.000390678 0.00339054 1.66768e-05
6.06563e-05 1.66768e-05 0.00164909
0.00261254 7.61251e-05 5.76086e-06
7.61251e-05 0.000273733 1.97354e-05
5.76086e-06 1.97354e-05 0.000183247
0.00165816 0.00026078 -3.56008e-05
0.00026078 -9.25205e-05 -2.19834e-05
-3.56008e-05 -2.19834e-05 -0.000593333
0.0066543 -0.000307222 4.47698e-05
-0.000307222 0.00191529 1.76658e-05
4.47698e-05 1.76658e-05 0.000771655
0.0024127 0.000228203 -2.23189e-06
0.000228203 -4.5416e-05 -4.03582e-05
-2.23189e-06 -4.03582e-05 -0.000499516
0.00218608 0.000299191 1.41191e-05
0.000299191 0.000390052 1.13828e-05
1.41191e-05 1.13828e-05 0.000242461
0.000895484 0.000173096 7.30033e-07
0.000173096 2.29294e-05 -4.97549e-06
7.30033e-07 -4.97549e-06 -0.000117134
0.000946136 9.37179e-05 -3.94788e-06
9.37179e-05 0.000108119 2.45521e-06
-3.94788e-06 2.45521e-06 5.25462e-05
0.00189858 0.000230232 -3.63595e-05
0.000230232 0.000532488 -1.74788e-05
-3.63595e-05 -1.74788e-05 0.000426087
0.000522825 0.000220656 -1.46856e-05
0.000220656 -0.000441527 1.37763e-05
-1.46856e-05 1.37763e-05 -0.000505201
0.000366585 -6.40897e-05 3.67912e-06
-6.40897e-05 -0.00112375 -2.71277e-06
3.67912e-06 -2.71277e-06 -0.00157707
0.00163526 6.23624e-06 -6.33419e-06
6.23624e-06 0.000873329 -1.54021e-06
-6.33419e-06 -1.54021e-06 0.000876985
-0.000983312 5.22834e-07 -1.81965e-05
5.22834e-07 -3.00919e-05 9.21998e-08
-1.81965e-05 9.21998e-08 -0.00031702
0.0023585 -0.000306341 -4.02351e-05
-0.000306341 0.000468219 6.65567e-06
-4.02351e-05 6.65567e-06 0.000433595
0.00422535 -0.000256553 -2.86763e-06
-0.000256553 0.00077576 -1.98548e-05
-2.86763e-06 -1.98548e-05 -0.000107525
7.0633e-05 -3.42082e-05 -5.79611e-05
-3.42082e-05 0.000299846 2.0346e-05
-5.79611e-05 2.0346e-05 7.37295e-05
0.00801402 0.000448484 -2.93386e-05
0.000448484 0.00304903 1.99094e-05
-2.93386e-05 1.99094e-05 0.00177226
0.000674769 -0.00014526 7.95668e-07
-0.00014526 -0.000185464 -1.31632e-06
7.95668e-07 -1.31632e-06 -0.000280111
0.00523816 0.000189549 1.9741e-05
0.000189549 0.00140758 1.10513e-05
1.9741e-05 1.10513e-05 0.000624731
0.00349541 9.52213e-06 4.11515e-05
9.52213e-06 0.000284286 -1.45176e-06
4.11515e-05 -1.45176e-06 -0.000255999
0.00263732 -0.00015174 -6.09192e-06
-0.00015174 0.000775605 1.32248e-06
-6.09192e-06 1.32248e-06 0.000623906
0.00184872 8.01576e-06 -6.30848e-05
8.01576e-06 0.000206964 -1.32093e-06
-6.30848e-05 -1.32093e-06 -8.81107e-05
0.000548734 -0.000136173 -1.768e-06
-0.000136173 -0.000540484 -7.00161e-07
-1.768e-06 -7.00161e-07 -0.000513706
0.0017198 -0.000200936 -4.3379e-07
-0.000200936 -8.35263e-05 1.49433e-06
-4.3379e-07 1.49433e-06 -9.60913e-05
0.00224585 -0.000143599 -5.29662e-06
-0.000143599 0.000143395 -1.72936e-06
-5.29662e-06 -1.72936e-06 0.000112123
0.00153512 -0.000194745 6.88305e-06
-0.000194745 -1.67237e-05 2.35467e-06
6.88305e-06 2.35467e-06 -0.000109569
0.00181985 -0.000167365 1.12826e-07
-0.000167365 6.4062e-05 -2.04529e-08
1.12826e-07 -2.04529e-08 2.36642e-06
0.00178535 -0.000106617 -9.86885e-07
-0.000106617 2.64818e-06 1.74773e-06
-9.86885e-07 1.74773e-06 -5.42249e-05
0.00167378 -0.000161136 5.56234e-07
-0.000161136 9.20786e-05 2.8964e-06
5.56234e-07 2.8964e-06 -1.04186e-05
0.00175428 -0.000137893 1.02766e-07
-0.000137893 6.25133e-05 1.53263e-06
1.02766e-07 1.53263e-06 -1.43676e-05
0.00173667 -0.000108001 1.28727e-06
-0.000108001 5.16558e-05 2.46908e-06
1.28727e-06 2.46908e-06 -2.49281e-05
0.00137922 -0.000130659 3.1237e-06
-0.000130659 -1.22501e-05 3.62528e-06
3.1237e-06 3.62528e-06 -0.000114345
0.00162992 -0.00012447 -8.88522e-07
-0.00012447 7.67495e-05 1.0575e-06
-8.88522e-07 1.0575e-06 -8.70369e-06
0.00190129 -0.000115459 3.03315e-07
-0.000115459 0.000210163 6.43099e-07
3.03315e-07 6.43099e-07 0.000124609
0.00165414 -0.00011849 -2.19746e-06
-0.00011849 0.000150934 6.32986e-07
-2.19746e-06 6.32986e-07 6.24945e-05
0.00177214 -0.000120177 2.04699e-06
-0.000120177 0.000235013 -1.90626e-06
2.04699e-06 -1.90626e-06 0.000135585
0.00155682 -0.000125264 1.81257e-06
-0.000125264 0.00012326 3.90134e-06
1.81257e-06 3.90134e-06 2.41456e-05
0.00148054 -0.000126077 2.68192e-07
-0.000126077 0.000124883 -5.27336e-07
2.68192e-07 -5.27336e-07 1.52463e-05
0.00145398 -0.000122883 -1.12561e-06
-0.000122883 0.000140036 -1.4138e-06
-1.12561e-06 -1.4138e-06 2.67565e-05
0.000959221 -0.000110284 -3.50129e-06
-0.000110284 -3.71958e-05 9.87108e-07
-3.50129e-06 9.87108e-07 -0.0001558
0.00137599 -0.000131441 1.32253e-07
-0.000131441 0.000148757 -3.0952e-07
1.32253e-07 -3.0952e-07 2.34479e-05
0.00162702 -0.000145897 3.73188e-06
-0.000145897 0.000251729 8.63066e-07
3.73188e-06 8.63066e-07 0.000121629
0.00101564 -0.000104125 -2.43979e-06
-0.000104125 7.70711e-05 1.38705e-06
-2.43979e-06 1.38705e-06 -2.6884e-05
0.000904922 -0.000109246 -7.53384e-07
-0.000109246 -4.89854e-06 8.27512e-07
-7.53384e-07 8.27512e-07 -0.000123276
0.00136263 -0.000133897 3.34044e-06
-0.000133897 0.000211637 -1.76015e-06
3.34044e-06 -1.76015e-06 8.24899e-05
0.000747651 -4.10869e-05 -2.71874e-06
-4.10869e-05 -1.62984e-05 1.90309e-06
-2.71874e-06 1.90309e-06 -9.23809e-05
0.0010396 -0.000100191 8.64508e-08
-0.000100191 0.000113516 -2.24337e-07
8.64508e-08 -2.24337e-07 1.54928e-05
0.00114758 -0.000116377 1.57386e-06
-0.000116377 0.000160663 -1.72964e-06
1.57386e-06 -1.72964e-06 4.86394e-05
0.000579728 5.76933e-05 -5.61043e-07
5.76933e-05 -7.43682e-05 5.49113e-06
-5.61043e-07 5.49113e-06 -0.000108792
0.000831583 -2.76578e-05 7.47498e-08
-2.76578e-05 3.57768e-05 2.72977e-07
7.47498e-08 2.72977e-07 -3.74043e-05
0.00106896 -8.63441e-05 1.8185e-06
-8.63441e-05 0.000141887 -5.68157e-07
1.8185e-06 -5.68157e-07 4.94706e-05
0.0026254 7.98178e-05 -3.69938e-05
7.98178e-05 0.00102499 2.91753e-06
-3.69938e-05 2.91753e-06 0.0010309
0.000641479 6.01109e-05 8.28583e-08
6.01109e-05 -4.17919e-05 -1.69372e-07
8.28583e-08 -1.69372e-07 -6.99324e-05
0.000770417 -2.43582e-05 2.32561e-06
-2.43582e-05 6.88332e-06 -2.61849e-06
2.32561e-06 -2.61849e-06 -5.88422e-05
0.00245472 7.06158e-05 6.16079e-07
7.06158e-05 0.000929227 9.90284e-08
6.16079e-07 9.90284e-08 0.000937854
0.000716452 5.53011e-05 6.54632e-07
5.53011e-05 -8.19963e-06 -4.50995e-06
6.54632e-07 -4.50995e-06 -2.96635e-05
0.00233053 6.28007e-05 3.23966e-05
6.28007e-05 0.000856928 -3.1106e-06
3.23966e-05 -3.1106e-06 0.000868033
0.00101381 9.8519e-05 2.92808e-07
9.8519e-05 0.00013691 3.3519e-07
2.92808e-07 3.3519e-07 4.087e-05
0.000890071 6.68554e-05 3.40188e-07
6.68554e-05 7.59169e-05 1.19637e-07
3.40188e-07 1.19637e-07 -1.00211e-05
0.000798428 -1.81412e-05 -6.88219e-07
-1.81412e-05 2.23009e-05 -6.48264e-07
-6.88219e-07 -6.48264e-07 -5.62432e-05
0.000883162 -1.47481e-05 -8.85158e-08
-1.47481e-05 6.31461e-05 9.73128e-07
-8.85158e-08 9.73128e-07 -1.2031e-05
0.000834607 -3.77704e-05 8.65132e-08
-3.77704e-05 3.74798e-05 8.50809e-08
8.65132e-08 8.50809e-08 -3.26754e-05
0.000733241 -4.25607e-05 -9.70656e-07
-4.25607e-05 -1.21233e-05 -2.35079e-06
-9.70656e-07 -2.35079e-06 -6.19621e-05
0.000825792 -4.68157e-05 9.42314e-09
-4.68157e-05 2.41616e-05 1.59294e-06
9.42314e-09 1.59294e-06 -3.90641e-05
0.000759433 -4.62874e-05 2.81866e-09
-4.62874e-05 -4.14853e-06 -1.21597e-07
2.81866e-09 -1.21597e-07 -4.7541e-05
0.000727202 -4.49412e-05 -2.19553e-06
-4.49412e-05 -1.45077e-05 -3.76856e-06
-2.19553e-06 -3.76856e-06 -2.91685e-05
0.00224859 -5.56089e-05 -2.82809e-05
-5.56089e-05 0.000804112 -3.2942e-06
-2.82809e-05 -3.2942e-06 0.000817581
0.000715982 -3.7392e-05 -7.07755e-08
-3.7392e-05 -2.8688e-05 2.64724e-08
-7.07755e-08 2.64724e-08 -4.05039e-05
0.00077166 -3.74971e-05 1.49417e-06
-3.74971e-05 -4.25186e-06 2.01289e-06
1.49417e-06 2.01289e-06 -4.35163e-05
0.0022453 -4.95265e-05 -1.28985e-06
-4.95265e-05 0.000793958 9.86045e-08
-1.28985e-06 9.86045e-08 0.000809166
0.000703271 -3.28572e-05 1.42775e-06
-3.28572e-05 -4.16465e-05 3.5953e-06
1.42775e-06 3.5953e-06 -5.16319e-05
0.00221034 -4.30593e-05 2.0596e-05
-4.30593e-05 0.00076781 3.7239e-06
2.0596e-05 3.7239e-06 0.000784788
0.00727978 6.86184e-05 5.7526e-05
6.86184e-05 0.00218588 1.13981e-05
5.7526e-05 1.13981e-05 0.00136778
-0.0023369 -9.53033e-05 -5.54892e-06
-9.53033e-05 -0.00113766 5.85948e-07
-5.54892e-06 5.85948e-07 -0.00105087
-0.0011082 -9.74011e-05 -4.15305e-05
-9.74011e-05 -0.000360341 -4.35714e-06
-4.15305e-05 -4.35714e-06 -0.000665804
0.000872382 -8.01087e-06 1.77812e-07
-8.01087e-06 6.7548e-05 9.50322e-07
1.77812e-07 9.50322e-07 -1.96597e-05
0.00083043 8.42806e-05 -3.05808e-07
8.42806e-05 6.15864e-05 -2.41232e-07
-3.05808e-07 -2.41232e-07 -3.06378e-05
0.00103379 7.73391e-05 4.80324e-07
7.73391e-05 0.000170214 -2.39436e-08
4.80324e-07 -2.39436e-08 7.22009e-05
0.00101007 0.000105447 -8.80176e-07
0.000105447 0.000146482 -1.27314e-07
-8.80176e-07 -1.27314e-07 4.63185e-05
0.00113121 0.000114968 6.33593e-06
0.000114968 0.000199261 1.63171e-06
6.33593e-06 1.63171e-06 9.06909e-05
0.000651958 8.64376e-05 -8.23626e-07
8.64376e-05 -3.0106e-05 1.29967e-06
-8.23626e-07 1.29967e-06 -0.000130699
0.000562222 4.9181e-05 -3.86265e-07
4.9181e-05 -8.19247e-05 -1.0186e-07
-3.86265e-07 -1.0186e-07 -0.000173097
0.000600187 8.39831e-05 4.90806e-07
8.39831e-05 -6.0671e-05 9.32416e-08
4.90806e-07 9.32416e-08 -0.00016546
0.000787764 7.71506e-05 2.05503e-07
7.71506e-05 1.57128e-05 -4.96119e-08
2.05503e-07 -4.96119e-08 -7.9761e-05
0.000215575 8.29106e-05 1.65797e-06
8.29106e-05 -0.000317658 1.84368e-07
1.65797e-06 1.84368e-07 -0.000421613
0.00307059 0.00023247 1.42408e-06
0.00023247 0.00104304 -7.88088e-07
1.42408e-06 -7.88088e-07 0.000929486
0.00166745 0.000201543 3.43135e-06
0.000201543 0.00015695 -1.17894e-06
3.43135e-06 -1.17894e-06 2.7676e-05
0.00136434 0.000165445 1.35821e-06
0.000165445 0.000188412 -9.40228e-07
1.35821e-06 -9.40228e-07 7.81217e-05
0.0009615 5.76683e-05 -3.45108e-06
5.76683e-05 0.000129416 1.38835e-06
-3.45108e-06 1.38835e-06 4.77762e-05
0.00246105 -2.87573e-05 -2.37823e-05
-2.87573e-05 -0.000142124 -9.38763e-06
-2.37823e-05 -9.38763e-06 -0.000398163
0.00488015 -0.000100569 8.98791e-06
-0.000100569 0.00113803 1.77559e-06
8.98791e-06 1.77559e-06 0.000109462
0.00472344 -0.000496867 -3.67824e-05
-0.000496867 0.00222785 -2.88369e-05
-3.67824e-05 -2.88369e-05 0.00224544
0.00731845 -0.000147088 0.00019699
-0.000147088 0.00228451 5.92692e-05
0.00019699 5.92692e-05 0.000922829
0.00343881 0.000307221 4.66352e-05
0.000307221 0.000765911 4.7735e-05
4.66352e-05 4.7735e-05 0.000579654
0.00211403 0.000165863 -4.92891e-05
0.000165863 5.73739e-05 -1.61097e-05
-4.92891e-05 -1.61097e-05 -0.000216363
0.00195604 0.000228212 3.14987e-05
0.000228212 0.00012388 1.74375e-05
3.14987e-05 1.74375e-05 0.000111116
0.00197292 0.000287161 -2.05459e-06
0.000287161 0.00028518 5.27199e-06
-2.05459e-06 5.27199e-06 0.000156817
0.000231801 0.000129358 -2.81298e-06
0.000129358 -0.000294668 3.95544e-06
-2.81298e-06 3.95544e-06 -0.000430631
0.00203625 0.000303934 -7.01423e-05
0.000303934 0.000289491 -4.62478e-05
-7.01423e-05 -4.62478e-05 0.000226627
0.00331768 -9.52438e-05 -0.000142547
-9.52438e-05 0.000843648 -5.33191e-07
-0.000142547 -5.33191e-07 0.000438085
0.00729225 3.12428e-05 1.4836e-05
3.12428e-05 0.00247999 -2.25195e-06
1.4836e-05 -2.25195e-06 0.00182777
-0.00531299 -6.8438e-05 2.37741e-05
-6.8438e-05 -0.00278369 2.92566e-06
2.37741e-05 2.92566e-06 -0.00258251
0.00137607 -0.000162891 -6.56115e-07
-0.000162891 0.000148425 7.73991e-06
-6.56115e-07 7.73991e-06 7.4656e-05
0.00502267 -2.17334e-05 6.80861e-05
-2.17334e-05 0.00107454 -3.96001e-07
6.80861e-05 -3.96001e-07 0.000582046
0.00089493 -0.000178224 5.99898e-05
-0.000178224 -0.000543495 1.48369e-05
5.99898e-05 1.48369e-05 -0.00125092
0.00133424 -0.000107442 4.94831e-06
-0.000107442 0.00012194 -1.84352e-07
4.94831e-06 -1.84352e-07 2.56058e-05
0.00161802 7.40593e-05 -1.92263e-06
7.40593e-05 -2.39449e-05 -1.42237e-06
-1.92263e-06 -1.42237e-06 -0.000291154
0.0037204 -7.7642e-05 3.74875e-06
-7.7642e-05 0.00108661 -7.21759e-06
3.74875e-06 -7.21759e-06 0.00102898
0.00138104 4.2129e-05 2.32199e-05
4.2129e-05 -0.000103281 -1.65721e-06
2.32199e-05 -1.65721e-06 -0.000208882
0.00108205 -0.000188463 7.86937e-07
-0.000188463 -0.00037001 1.69163e-06
7.86937e-07 1.69163e-06 -0.000404459
0.0019987 -0.000141285 -4.24249e-07
-0.000141285 2.18744e-05 -4.93993e-07
-4.24249e-07 -4.93993e-07 -1.27324e-05
0.00218667 -4.1263e-05 1.77568e-06
-4.1263e-05 0.000189078 -1.75382e-06
1.77568e-06 -1.75382e-06 0.000142078
0.00184257 -0.000164183 5.55813e-06
-0.000164183 9.27395e-05 -4.78276e-07
5.55813e-06 -4.78276e-07 3.02253e-05
0.00191627 -0.000108594 1.96427e-06
-0.000108594 7.97028e-05 -3.69639e-07
1.96427e-06 -3.69639e-07 2.08671e-05
0.00188642 -5.56336e-05 1.5149e-06
-5.56336e-05 0.000116663 4.91292e-07
1.5149e-06 4.91292e-07 4.10689e-05
0.00186676 -0.000139997 3.99532e-06
-0.000139997 0.000124508 2.26553e-06
3.99532e-06 2.26553e-06 4.62922e-05
0.001794 -0.000108125 1.04975e-06
-0.000108125 8.92238e-05 1.17274e-08
1.04975e-06 1.17274e-08 1.12263e-05
0.00185937 -8.52513e-05 -2.97744e-07
-8.52513e-05 0.000147723 2.17093e-06
-2.97744e-07 2.17093e-06 5.63343e-05
0.00158341 -0.000124202 8.69476e-07
-0.000124202 5.85808e-05 1.63658e-06
8.69476e-07 1.63658e-06 -2.87014e-05
0.00165654 -0.000112028 7.05316e-07
-0.000112028 9.62425e-05 -6.33601e-07
7.05316e-07 -6.33601e-07 1.10292e-05
0.00146631 -0.0001001 2.78505e-06
-0.0001001 3.00992e-05 9.15253e-07
2.78505e-06 9.15253e-07 -6.80674e-05
0.0013498 -0.00011067 -8.0641e-07
-0.00011067 -4.77129e-06 2.37154e-06
-8.0641e-07 2.37154e-06 -9.03735e-05
0.00160341 -0.000114723 -1.33561e-06
-0.000114723 0.000146205 -1.05691e-06
-1.33561e-06 -1.05691e-06 4.86413e-05
0.00175694 -0.00011852 3.76087e-07
-0.00011852 0.000254153 -8.35388e-07
3.76087e-07 -8.35388e-07 0.000145428
0.00146395 -0.000124426 1.19936e-06
-0.000124426 0.000115141 1.98422e-06
1.19936e-06 1.98422e-06 5.35435e-06
0.00145248 -0.000121807 3.94224e-07
-0.000121807 0.000138852 -4.62107e-07
3.94224e-07 -4.62107e-07 2.53231e-05
0.00149595 -0.000121011 -2.00743e-06
-0.000121011 0.000193075 -1.5868e-07
-2.00743e-06 -1.5868e-07 8.06146e-05
0.000766975 -9.40352e-05 -4.25058e-06
-9.40352e-05 -9.9801e-05 1.67326e-06
-4.25058e-06 1.67326e-06 -0.000206564
0.00105659 -0.00011315 -6.00125e-07
-0.00011315 1.72526e-05 4.63257e-07
-6.00125e-07 4.63257e-07 -0.000100634
0.00136311 -0.000129825 2.88109e-06
-0.000129825 0.000142524 -3.1561e-07
2.88109e-06 -3.1561e-07 1.68323e-05
0.000830529 -6.63389e-05 -3.51908e-06
-6.63389e-05 1.30788e-05 2.06757e-06
-3.51908e-06 2.06757e-06 -6.80991e-05
0.00106071 -0.000105764 1.64166e-07
-0.000105764 9.91693e-05 7.22414e-08
1.64166e-07 7.22414e-08 -4.76064e-06
0.00101932 -0.000113694 1.19878e-06
-0.000113694 5.7032e-05 -6.09459e-07
1.19878e-06 -6.09459e-07 -6.05114e-05
0.000617265 3.68616e-05 -3.81247e-06
3.68616e-05 -5.51556e-05 5.26713e-06
-3.81247e-06 5.26713e-06 -9.45383e-05
0.00085654 -4.47982e-05 1.43381e-07
-4.47982e-05 4.17208e-05 6.80665e-09
1.43381e-07 6.80665e-09 -3.54259e-05
0.0011197 -0.000104537 2.28621e-06
-0.000104537 0.000153921 -1.35428e-06
2.28621e-06 -1.35428e-06 5.54403e-05
0.0028916 9.00996e-05 -4.31595e-05
9.00996e-05 0.00116973 2.93439e-06
-4.31595e-05 2.93439e-06 0.00117233
0.00063949 4.23961e-05 5.53975e-07
4.23961e-05 -4.59355e-05 -7.70152e-08
5.53975e-07 -7.70152e-08 -7.875e-05
0.000849903 -3.13768e-05 3.07653e-06
-3.13768e-05 4.39734e-05 -2.22132e-06
3.07653e-06 -2.22132e-06 -2.89653e-05
0.00268186 7.94704e-05 7.84197e-07
7.94704e-05 0.00105442 1.20825e-07
7.84197e-07 1.20825e-07 0.00106008
0.000681352 5.30577e-05 1.65196e-06
5.30577e-05 -2.1704e-05 -4.92482e-06
1.65196e-06 -4.92482e-06 -4.92305e-05
0.0025145 7.04924e-05 3.76481e-05
7.04924e-05 0.000960862 -3.10146e-06
3.76481e-05 -3.10146e-06 0.00096928
0.0010827 0.000108289 -3.95832e-07
0.000108289 0.000163954 -1.05619e-06
-3.95832e-07 -1.05619e-06 6.00385e-05
0.00105481 0.000100853 2.62403e-07
0.000100853 0.000158655 1.51513e-07
2.62403e-07 1.51513e-07 6.29307e-05
0.00094364 4.80379e-05 -1.23152e-06
4.80379e-05 9.50496e-05 -4.1183e-07
-1.23152e-06 -4.1183e-07 8.89046e-06
0.00085498 8.49613e-05 1.66373e-07
8.49613e-05 6.11162e-05 -9.01266e-08
1.66373e-07 -9.01266e-08 -2.71037e-05
0.000798415 -3.42732e-06 -4.30622e-07
-3.42732e-06 2.31504e-05 -9.97304e-08
-4.30622e-07 -9.97304e-08 -5.67978e-05
0.000736595 -5.18201e-06 -2.13411e-06
-5.18201e-06 -7.51666e-06 -1.87621e-06
-2.13411e-06 -1.87621e-06 -6.69869e-05
0.000813427 -4.74244e-05 6.80502e-08
-4.74244e-05 2.71982e-05 1.25942e-06
6.80502e-08 1.25942e-06 -4.44129e-05
0.000750963 -4.19788e-05 1.4408e-07
-4.19788e-05 -2.78225e-06 -2.72136e-07
1.4408e-07 -2.72136e-07 -5.25723e-05
0.000710037 -5.43347e-05 -1.32012e-06
-5.43347e-05 -1.32863e-05 -4.14329e-06
-1.32012e-06 -4.14329e-06 -3.28147e-05
0.000775137 -4.66686e-05 9.69775e-07
-4.66686e-05 3.3184e-06 2.21058e-06
9.69775e-07 2.21058e-06 -3.98454e-05
0.00070537 -4.28321e-05 1.11335e-07
-4.28321e-05 -2.64627e-05 -3.18004e-08
1.11335e-07 -3.18004e-08 -4.07528e-05
0.00229705 -6.20855e-05 -3.13447e-05
-6.20855e-05 0.000837953 -3.05792e-06
-3.13447e-05 -3.05792e-06 0.000849416
0.00225728 -5.56315e-05 -7.64899e-07
-5.56315e-05 0.000807708 9.43364e-08
-7.64899e-07 9.43364e-08 0.000821275
0.000698803 -3.64589e-05 2.14174e-06
-3.64589e-05 -3.76323e-05 3.64472e-06
2.14174e-06 3.64472e-06 -4.93522e-05
0.00224851 -4.95747e-05 2.39451e-05
-4.95747e-05 0.000794948 3.59383e-06
2.39451e-05 3.59383e-06 0.000810227
0.00131752 -6.3018e-05 -5.67868e-05
-6.3018e-05 -0.000316596 6.31987e-07
-5.67868e-05 6.31987e-07 -0.000583836
0.0018546 -0.000138053 8.47263e-06
-0.000138053 -0.000406122 1.06145e-06
8.47263e-06 1.06145e-06 -0.00111676
0.00241217 -0.000308251 -4.68948e-05
-0.000308251 0.00100515 -1.23768e-05
-4.68948e-05 -1.23768e-05 0.00115131
0.00122084 0.000124329 6.49707e-06
0.000124329 0.00019663 1.66241e-06
6.49707e-06 1.66241e-06 8.1871e-05
0.00112063 8.04934e-05 2.72877e-07
8.04934e-05 0.00021664 -5.20926e-07
2.72877e-07 -5.20926e-07 0.000118708
0.000919575 0.000100687 -7.48822e-07
0.000100687 9.98744e-05 -3.19008e-07
-7.48822e-07 -3.19008e-07 2.34094e-07
0.000897356 9.96276e-05 2.60813e-07
9.96276e-05 9.92932e-05 3.3535e-07
2.60813e-07 3.3535e-07 -3.03313e-06
0.00102086 0.000109908 -2.01951e-07
0.000109908 0.00014501 -8.57457e-07
-2.01951e-07 -8.57457e-07 3.58192e-05
0.000621126 9.49448e-05 -3.23176e-07
9.49448e-05 -8.79166e-05 1.47913e-06
-3.23176e-07 1.47913e-06 -0.00018317
0.00103918 0.000108653 -8.38226e-08
0.000108653 0.000165682 -1.42845e-06
-8.38226e-08 -1.42845e-06 5.5818e-05
0.000947151 7.28794e-05 -1.69678e-06
7.28794e-05 0.000103512 1.70578e-06
-1.69678e-06 1.70578e-06 5.33711e-06
0.000940989 0.000118887 2.52351e-07
0.000118887 5.55213e-05 -1.76163e-07
2.52351e-07 -1.76163e-07 -4.91143e-05
0.00224302 0.000195175 6.137e-07
0.000195175 0.000633918 2.49959e-06
6.137e-07 2.49959e-06 0.000522643
0.00164247 0.00018246 1.53328e-06
0.00018246 0.000180399 -1.63278e-06
1.53328e-06 -1.63278e-06 5.60291e-05
0.0018326 0.000169541 8.59841e-06
0.000169541 8.6383e-05 7.28588e-06
8.59841e-06 7.28588e-06 -4.04498e-05
0.00125369 0.000183656 2.02494e-07
0.000183656 -5.15468e-05 -1.05478e-07
2.02494e-07 -1.05478e-07 -0.000180762
0.000832971 0.0001378 -1.65115e-06
0.0001378 -7.7701e-05 3.99118e-06
-1.65115e-06 3.99118e-06 -0.000182967
0.000349823 6.29042e-05 -5.4893e-06
6.29042e-05 -0.000429152 1.64094e-06
-5.4893e-06 1.64094e-06 -0.00043489
0.00401338 -9.38821e-06 -1.23619e-05
-9.38821e-06 0.000452546 1.3582e-06
-1.23619e-05 1.3582e-06 0.000127014
0.00128523 -0.000150419 1.00921e-05
-0.000150419 -0.000583319 8.07606e-06
1.00921e-05 8.07606e-06 -0.00153172
0.00286383 0.000244767 5.38854e-05
0.000244767 0.000233933 2.21977e-05
5.38854e-05 2.21977e-05 -0.000177707
0.00129048 0.000187432 -1.03318e-05
0.000187432 -0.000100194 -1.06541e-07
-1.03318e-05 -1.06541e-07 -0.000128595
0.000402008 0.000203496 -1.85679e-05
0.000203496 -0.000429836 -1.26102e-05
-1.85679e-05 -1.26102e-05 -0.000563537
0.00263589 -8.99696e-05 1.47027e-05
-8.99696e-05 0.000508238 -4.21208e-06
1.47027e-05 -4.21208e-06 0.000402687
0.00135215 -5.93197e-06 -2.28225e-05
-5.93197e-06 1.63362e-05 2.38837e-06
-2.28225e-05 2.38837e-06 -0.000343321
0.000563875 0.00022032 4.59081e-05
0.00022032 -0.00104069 -1.28445e-05
4.59081e-05 -1.28445e-05 -0.00165103
0.00020981 -7.02028e-05 -4.25215e-06
-7.02028e-05 -0.000471527 1.17048e-05
-4.25215e-06 1.17048e-05 -0.000503507
0.00355992 0.00012619 3.35648e-05
0.00012619 0.000801307 -2.12858e-06
3.35648e-05 -2.12858e-06 0.000491847
0.00171454 -4.70972e-05 3.98564e-06
-4.70972e-05 4.30718e-05 -1.61234e-06
3.98564e-06 -1.61234e-06 9.0679e-06
0.00200214 5.38143e-05 1.01972e-06
5.38143e-05 0.000221012 -2.16958e-06
1.01972e-06 -2.16958e-06 0.000126325
0.00116079 1.55002e-05 6.02523e-06
1.55002e-05 -0.000338314 -2.81075e-06
6.02523e-06 -2.81075e-06 -0.000409779
0.00239153 2.61576e-05 -1.50963e-07
2.61576e-05 0.000379791 -2.80919e-06
-1.50963e-07 -2.80919e-06 0.000291399
0.00173758 -0.000136117 1.85901e-06
-0.000136117 -0.000102619 -4.80328e-07
1.85901e-06 -4.80328e-07 -0.000139692
0.00197136 -4.25116e-05 3.54157e-06
-4.25116e-05 6.60666e-05 3.42938e-07
3.54157e-06 3.42938e-07 1.44321e-05
0.00199183 -2.35114e-05 -9.80262e-08
-2.35114e-05 0.000187826 -1.07831e-06
-9.80262e-08 -1.07831e-06 0.000112042
0.00202846 -0.000109861 7.46833e-07
-0.000109861 0.000146418 3.33119e-08
7.46833e-07 3.33119e-08 8.51338e-05
0.00182746 -6.03528e-05 3.01304e-07
-6.03528e-05 8.31437e-05 -3.20033e-08
3.01304e-07 -3.20033e-08 6.25895e-06
0.00180036 -4.77515e-05 2.73094e-07
-4.77515e-05 0.000127055 -5.14982e-07
2.73094e-07 -5.14982e-07 3.34688e-05
0.00187044 -0.000108763 -1.07165e-06
-0.000108763 0.000136936 -7.17655e-09
-1.07165e-06 -7.17655e-09 5.75314e-05
0.00179291 -8.77086e-05 -6.75542e-07
-8.77086e-05 0.00012029 -4.89767e-07
-6.75542e-07 -4.89767e-07 2.94584e-05
0.00153175 -7.55736e-05 2.21653e-07
-7.55736e-05 2.60383e-05 2.14168e-06
2.21653e-07 2.14168e-06 -7.65186e-05
0.0013949 -0.000108135 4.11663e-07
-0.000108135 -2.62578e-05 -2.99878e-06
4.11663e-07 -2.99878e-06 -0.00011111
0.001557 -0.000102072 7.46087e-07
-0.000102072 7.54658e-05 -7.22167e-07
7.46087e-07 -7.22167e-07 -2.28398e-05
0.00153252 -0.000102201 5.58591e-07
-0.000102201 9.2029e-05 5.34218e-07
5.58591e-07 5.34218e-07 -1.60047e-05
0.00143407 -0.000109327 -3.33773e-06
-0.000109327 5.7061e-05 1.01298e-06
-3.33773e-06 1.01298e-06 -3.86466e-05
0.00156884 -0.000111797 -2.55618e-07
-0.000111797 0.000154621 -7.60746e-07
-2.55618e-07 -7.60746e-07 4.70183e-05
0.00146136 -0.000107509 -1.86123e-06
-0.000107509 0.000131506 2.27239e-07
-1.86123e-06 2.27239e-07 2.05666e-05
0.00145108 -0.000120731 1.90543e-06
-0.000120731 0.000137676 5.58236e-07
1.90543e-06 5.58236e-07 2.3904e-05
0.00130163 -0.000113532 4.92365e-07
-0.000113532 9.17067e-05 -3.04885e-07
4.92365e-07 -3.04885e-07 -2.10229e-05
0.00129505 -0.000107371 -4.06514e-06
-0.000107371 0.000129309 1.01035e-06
-4.06514e-06 1.01035e-06 2.39142e-05
0.000914549 -7.85862e-05 -4.56596e-06
-7.85862e-05 2.69289e-05 2.25653e-06
-4.56596e-06 2.25653e-06 -5.82067e-05
0.000897369 -9.89335e-05 -9.49833e-07
-9.89335e-05 -2.90293e-05 6.07522e-07
-9.49833e-07 6.07522e-07 -0.00013502
0.0011407 -0.000115361 2.08293e-06
-0.000115361 6.48601e-05 -1.7557e-07
2.08293e-06 -1.7557e-07 -5.22581e-05
0.000624066 -2.1364e-05 -6.48126e-06
-2.1364e-05 -5.18116e-05 5.60951e-06
-6.48126e-06 5.60951e-06 -9.68867e-05
0.000886197 -6.92057e-05 2.00172e-07
-6.92057e-05 4.24548e-05 -1.00634e-08
2.00172e-07 -1.00634e-08 -3.93302e-05
0.0011081 -0.000107683 2.84026e-06
-0.000107683 0.000122322 -1.27223e-06
2.84026e-06 -1.27223e-06 1.84047e-05
0.00307287 9.96871e-05 -4.89471e-05
9.96871e-05 0.00127423 2.92466e-06
-4.89471e-05 2.92466e-06 0.00127284
0.000666507 7.1905e-06 -1.9677e-07
7.1905e-06 -3.40598e-05 -1.42773e-07
-1.9677e-07 -1.42773e-07 -7.24616e-05
0.000925832 -5.00334e-05 3.69822e-06
-5.00334e-05 7.82696e-05 -2.25962e-06
3.69822e-06 -2.25962e-06 4.81737e-07
0.00290066 8.8185e-05 1.10451e-06
8.8185e-05 0.00117513 1.67067e-07
1.10451e-06 1.67067e-07 0.00117752
0.000684912 3.28741e-05 4.72743e-06
3.28741e-05 -2.17266e-05 -4.92971e-06
4.72743e-06 -4.92971e-06 -5.49708e-05
0.00273751 7.84048e-05 4.38391e-05
7.84048e-05 0.00108342 -3.24855e-06
4.38391e-05 -3.24855e-06 0.00108892
0.000873535 0.000104644 -4.8656e-07
0.000104644 2.32248e-05 -9.64005e-07
-4.8656e-07 -9.64005e-07 -8.77511e-05
0.00100243 0.000103756 -5.64433e-08
0.000103756 0.000121798 -6.2524e-07
-5.64433e-08 -6.2524e-07 1.85492e-05
0.00108966 9.45801e-05 -9.56002e-07
9.45801e-05 0.000161263 -3.49311e-07
-9.56002e-07 -3.49311e-07 6.86732e-05
0.00109555 0.000103295 -2.34409e-07
0.000103295 0.000180057 -5.03523e-07
-2.34409e-07 -5.03523e-07 8.4654e-05
0.000921641 5.01799e-05 -7.86087e-07
5.01799e-05 8.3534e-05 -3.77759e-07
-7.86087e-07 -3.77759e-07 -1.90528e-06
0.000789967 1.35512e-05 -2.16884e-06
1.35512e-05 2.07027e-05 -1.55396e-06
-2.16884e-06 -1.55396e-06 -4.75988e-05
0.000799449 1.24002e-05 8.79569e-08
1.24002e-05 2.37772e-05 5.84904e-08
8.79569e-08 5.84904e-08 -5.69945e-05
0.00076051 -3.27345e-05 -2.50603e-07
-3.27345e-05 5.7378e-06 -1.51524e-08
-2.50603e-07 -1.51524e-08 -5.33596e-05
0.000676314 -6.32287e-05 -6.18636e-07
-6.32287e-05 -2.11426e-05 -4.46744e-06
-6.18636e-07 -4.46744e-06 -4.74201e-05
0.000767952 -4.71834e-05 9.35953e-07
-4.71834e-05 6.93537e-06 2.37233e-06
9.35953e-07 2.37233e-06 -4.32061e-05
0.000685008 -5.12247e-05 1.00295e-07
-5.12247e-05 -2.75951e-05 -8.85595e-08
1.00295e-07 -8.85595e-08 -4.63419e-05
0.00241108 -6.92446e-05 -3.54109e-05
-6.92446e-05 0.000905841 -2.8691e-06
-3.54109e-05 -2.8691e-06 0.000914902
0.00069282 -4.12732e-05 2.64495e-06
-4.12732e-05 -3.34431e-05 3.63629e-06
2.64495e-06 3.63629e-06 -4.74365e-05
0.00228293 -6.20182e-05 -4.28793e-07
-6.20182e-05 0.000829377 8.16505e-08
-4.28793e-07 8.16505e-08 0.000841034
0.00226369 -5.55482e-05 2.72905e-05
-5.55482e-05 0.000810227 3.40528e-06
2.72905e-05 3.40528e-06 0.000823892
0.000491243 -1.8798e-05 1.65619e-06
-1.8798e-05 -0.000417305 -4.17193e-07
1.65619e-06 -4.17193e-07 -0.000453625
0.00326847 -4.60952e-05 2.28478e-06
-4.60952e-05 0.000385692 1.09682e-05
2.28478e-06 1.09682e-05 3.0198e-05
0.00584147 0.000156705 -7.59875e-05
0.000156705 0.00175831 -1.1146e-05
-7.59875e-05 -1.1146e-05 0.000954361
0.00080863 0.000100788 3.12582e-06
0.000100788 -4.19249e-05 1.14404e-06
3.12582e-06 1.14404e-06 -0.000145998
0.00143522 0.000138916 3.85159e-06
0.000138916 0.000194367 -1.68667e-06
3.85159e-06 -1.68667e-06 7.28657e-05
0.000807208 0.000105803 -3.66264e-08
0.000105803 -9.98815e-06 -7.8763e-07
-3.66264e-08 -7.8763e-07 -0.00012289
0.00111526 0.000111365 -1.1861e-06
0.000111365 0.000213197 -1.81558e-06
-1.1861e-06 -1.81558e-06 0.000109442
0.000944575 0.00010652 -9.16582e-07
0.00010652 0.000108046 -1.04983e-06
-9.16582e-07 -1.04983e-06 -1.88122e-06
0.0010011 0.000115468 2.57829e-06
0.000115468 9.90209e-05 1.27284e-06
2.57829e-06 1.27284e-06 7.40521e-07
0.00162994 0.000167809 -2.72421e-06
0.000167809 0.000190052 -3.94497e-06
-2.72421e-06 -3.94497e-06 7.50593e-05
0.00153998 0.000148345 8.83103e-07
0.000148345 0.000365309 6.52649e-08
8.83103e-07 6.52649e-08 0.000260321
0.000971156 0.000137226 -2.31911e-06
0.000137226 1.50169e-06 6.33831e-06
-2.31911e-06 6.33831e-06 -0.000106395
0.00165541 0.000182315 -1.18981e-06
0.000182315 0.000195587 1.15372e-07
-1.18981e-06 1.15372e-07 7.28743e-05
0.00171629 0.000162692 -2.28354e-06
0.000162692 7.12875e-05 -5.85563e-07
-2.28354e-06 -5.85563e-07 -6.0973e-05
0.00147052 5.18988e-05 1.15723e-05
5.18988e-05 -0.000146037 4.0631e-06
1.15723e-05 4.0631e-06 -0.000236479
0.00196924 0.00016872 5.50917e-06
0.00016872 0.000162299 2.43907e-06
5.50917e-06 2.43907e-06 3.64975e-05
0.00124137 0.000180174 -5.01534e-06
0.000180174 -5.8039e-05 1.3585e-06
-5.01534e-06 1.3585e-06 -0.000186934
0.000991043 5.55114e-05 -9.42358e-07
5.55114e-05 -0.000110415 -4.75315e-07
-9.42358e-07 -4.75315e-07 -0.000122267
0.00489138 -0.000113282 4.67194e-05
-0.000113282 0.000779284 1.93962e-05
4.67194e-05 1.93962e-05 0.000422788
0.00156638 0.000173208 2.39093e-06
0.000173208 0.000126953 -7.62715e-06
2.39093e-06 -7.62715e-06 8.89909e-05
0.00158439 -1.77581e-05 6.97336e-06
-1.77581e-05 3.27608e-05 -1.18209e-06
6.97336e-06 -1.18209e-06 -4.32468e-05
0.00190598 -5.30136e-05 -1.74333e-06
-5.30136e-05 0.000182383 5.69867e-07
-1.74333e-06 5.69867e-07 5.5113e-05
0.000685115 7.04065e-05 5.12526e-05
7.04065e-05 -0.000519285 -4.52728e-07
5.12526e-05 -4.52728e-07 -0.000960092
-0.000208308 -2.58645e-05 -9.77945e-06
-2.58645e-05 -0.000940221 5.93359e-06
-9.77945e-06 5.93359e-06 -0.000955223
0.00254206 5.71423e-05 -3.45873e-05
5.71423e-05 0.000510089 3.76646e-06
-3.45873e-05 3.76646e-06 0.000431228
0.00129585 3.87925e-06 2.98716e-07
3.87925e-06 -0.000279981 3.50253e-06
2.98716e-07 3.50253e-06 -0.00034332
0.00219376 1.64915e-05 9.6596e-07
1.64915e-05 0.000245544 6.68476e-07
9.6596e-07 6.68476e-07 0.00015842
0.00194108 -2.12876e-05 1.2014e-06
-2.12876e-05 0.000123044 7.94857e-08
1.2014e-06 7.94857e-08 4.26733e-05
0.00153363 -7.93564e-06 1.07615e-06
-7.93564e-06 -9.73672e-05 -1.11173e-06
1.07615e-06 -1.11173e-06 -0.0001818
0.00168871 -4.55425e-05 5.3862e-06
-4.55425e-05 -9.64255e-05 1.56886e-06
5.3862e-06 1.56886e-06 -0.000152247
0.0017545 -2.45824e-05 -1.77134e-06
-2.45824e-05 6.13487e-05 -7.0862e-08
-1.77134e-06 -7.0862e-08 -1.39214e-05
0.00178901 -2.48871e-05 1.05656e-06
-2.48871e-05 0.000107146 -3.36437e-07
1.05656e-06 -3.36437e-07 1.66178e-05
0.00185585 -6.56175e-05 -2.65556e-06
-6.56175e-05 9.53553e-05 -7.20984e-07
-2.65556e-06 -7.20984e-07 1.77919e-05
0.00174138 -4.72686e-05 -6.49836e-07
-4.72686e-05 9.7318e-05 -1.95625e-07
-6.49836e-07 -1.95625e-07 3.47158e-06
0.00161357 -4.14236e-05 -6.29947e-07
-4.14236e-05 5.24025e-05 -6.24157e-07
-6.29947e-07 -6.24157e-07 -5.07685e-05
0.00172841 -9.00304e-05 -3.67437e-06
-9.00304e-05 9.38233e-05 -1.22518e-06
-3.67437e-06 -1.22518e-06 3.53583e-06
0.00164426 -7.74503e-05 4.49656e-07
-7.74503e-05 8.18029e-05 1.01343e-06
4.49656e-07 1.01343e-06 -2.08568e-05
0.00159449 -7.98524e-05 -4.99188e-07
-7.98524e-05 8.16763e-05 4.42241e-07
-4.99188e-07 4.42241e-07 -2.5145e-05
0.00164834 -0.000104038 -9.99271e-07
-0.000104038 0.000121177 -2.31999e-06
-9.99271e-07 -2.31999e-06 2.27362e-05
0.00153709 -0.000101371 2.69036e-07
-0.000101371 9.3556e-05 -8.28233e-08
2.69036e-07 -8.28233e-08 -1.44491e-05
0.0014687 -0.000100211 -1.65968e-06
-0.000100211 9.40662e-05 7.56771e-07
-1.65968e-06 7.56771e-07 -1.71726e-05
0.00138156 -0.000105163 -4.35408e-07
-0.000105163 5.55012e-05 -1.6402e-07
-4.35408e-07 -1.6402e-07 -5.09891e-05
0.00130976 -0.000102523 -1.50301e-07
-0.000102523 5.34005e-05 -2.6632e-07
-1.50301e-07 -2.6632e-07 -5.71667e-05
0.00126381 -9.77281e-05 -4.12864e-06
-9.77281e-05 7.55826e-05 1.16013e-06
-4.12864e-06 1.16013e-06 -2.93976e-05
0.00110426 -0.000105996 2.80055e-06
-0.000105996 -1.11356e-05 -3.25772e-07
2.80055e-06 -3.25772e-07 -0.000124153
0.00107884 -9.86655e-05 2.22079e-07
-9.86655e-05 1.67844e-05 -3.83827e-08
2.22079e-07 -3.83827e-08 -8.84952e-05
0.000977763 -8.05694e-05 -5.83043e-06
-8.05694e-05 2.29632e-05 2.46294e-06
-5.83043e-06 2.46294e-06 -6.29436e-05
0.000546452 -4.54125e-05 -8.07464e-06
-4.54125e-05 -9.79354e-05 6.082e-06
-8.07464e-06 6.082e-06 -0.00014791
0.000937325 -8.08576e-05 2.1916e-07
-8.08576e-05 3.90173e-05 4.35158e-08
2.1916e-07 4.35158e-08 -4.64399e-05
0.00103173 -0.000104095 2.054e-06
-0.000104095 4.38456e-05 -3.20982e-07
2.054e-06 -3.20982e-07 -6.14075e-05
0.00324215 0.000112014 -5.17228e-05
0.000112014 0.00137981 2.8767e-06
-5.17228e-05 2.8767e-06 0.001373
0.000688944 -1.4378e-05 -3.03445e-07
-1.4378e-05 -2.10236e-05 -2.2007e-08
-3.03445e-07 -2.2007e-08 -6.69327e-05
0.000965033 -7.0194e-05 4.12487e-06
-7.0194e-05 8.45957e-05 -2.09765e-06
4.12487e-06 -2.09765e-06 1.81065e-06
0.00310413 9.90149e-05 1.30493e-06
9.90149e-05 0.00129323 2.21927e-07
1.30493e-06 2.21927e-07 0.00129119
0.000734519 4.73713e-06 6.49301e-06
4.73713e-06 -8.60608e-07 -5.04077e-06
6.49301e-06 -5.04077e-06 -3.92558e-05
0.00294067 8.70405e-05 4.95908e-05
8.70405e-05 0.00119681 -3.22781e-06
4.95908e-05 -3.22781e-06 0.00119888
0.000603313 9.90528e-05 -5.40692e-07
9.90528e-05 -0.000179484 -8.08842e-07
-5.40692e-07 -8.08842e-07 -0.000299028
0.000697235 9.63471e-05 4.72484e-09
9.63471e-05 -7.13484e-05 -1.53595e-07
4.72484e-09 -1.53595e-07 -0.000182907
0.00112935 0.000104842 -1.71876e-06
0.000104842 0.000155058 -5.16166e-07
-1.71876e-06 -5.16166e-07 5.52144e-05
0.000919131 9.90465e-05 -2.89892e-07
9.90465e-05 7.79992e-05 -4.37596e-07
-2.89892e-07 -4.37596e-07 -2.45504e-05
0.000986719 8.87034e-05 -2.30438e-07
8.87034e-05 0.000107954 -2.0763e-07
-2.30438e-07 -2.0763e-07 1.60846e-05
0.000892329 3.60667e-05 -2.86482e-06
3.60667e-05 7.31338e-05 -1.35356e-06
-2.86482e-06 -1.35356e-06 -2.09486e-06
0.000898774 5.18237e-05 1.49492e-07
5.18237e-05 7.17071e-05 -5.65455e-07
1.49492e-07 -5.65455e-07 -1.30826e-05
0.000787414 2.39759e-06 1.24986e-08
2.39759e-06 2.26471e-05 1.01477e-07
1.24986e-08 1.01477e-07 -4.65356e-05
0.000661617 -5.08438e-05 -2.84795e-06
-5.08438e-05 -2.73725e-05 -4.4158e-06
-2.84795e-06 -4.4158e-06 -5.87241e-05
0.000777986 -4.82033e-05 1.01313e-06
-4.82033e-05 1.67011e-05 2.38182e-06
1.01313e-06 2.38182e-06 -4.28769e-05
0.000645932 -6.10221e-05 -2.70375e-08
-6.10221e-05 -3.87112e-05 -1.27995e-07
-2.70375e-08 -1.27995e-07 -6.4188e-05
0.00257947 -7.72845e-05 -4.02678e-05
-7.72845e-05 0.00100106 -2.81037e-06
-4.02678e-05 -2.81037e-06 0.00100733
0.000658917 -4.79048e-05 2.66704e-06
-4.79048e-05 -4.2538e-05 3.75652e-06
2.66704e-06 3.75652e-06 -6.04922e-05
0.0023766 -6.92245e-05 -4.75164e-07
-6.92245e-05 0.000886931 8.47813e-08
-4.75164e-07 8.47813e-08 0.00089622
0.0022799 -6.17989e-05 2.97423e-05
-6.17989e-05 0.000826724 3.15434e-06
2.97423e-05 3.15434e-06 0.000838582
0.00145001 -5.48423e-06 1.22777e-05
-5.48423e-06 -0.000134528 6.69773e-07
1.22777e-05 6.69773e-07 -0.000208907
0.001093 -4.63137e-05 -4.07828e-07
-4.63137e-05 -0.000183002 2.09752e-06
-4.07828e-07 2.09752e-06 -0.00023481
0.00248357 -9.56067e-05 7.40869e-05
-9.56067e-05 4.0585e-05 1.43397e-05
7.40869e-05 1.43397e-05 -0.000242211
0.00205406 0.000159566 1.93922e-06
0.000159566 0.00043288 -3.06996e-06
1.93922e-06 -3.06996e-06 0.000318219
0.000807882 0.000104085 -1.58623e-06
0.000104085 -2.79998e-05 7.7961e-07
-1.58623e-06 7.7961e-07 -0.000126292
0.000833705 0.000114981 -3.01515e-06
0.000114981 -0.00022211 1.403e-06
-3.01515e-06 1.403e-06 -0.000342314
0.00147673 0.000141165 5.02261e-07
0.000141165 0.00021374 1.60722e-07
5.02261e-07 1.60722e-07 9.14624e-05
0.000399454 8.72878e-05 -2.98081e-06
8.72878e-05 -0.00021279 1.00218e-06
-2.98081e-06 1.00218e-06 -0.000323922
0.00171516 0.000139538 -2.37692e-06
0.000139538 8.82701e-05 -3.86354e-06
-2.37692e-06 -3.86354e-06 -3.54369e-05
0.00136609 0.000135095 -1.39929e-06
0.000135095 0.00027874 -5.09312e-07
-1.39929e-06 -5.09312e-07 0.000177549
0.00169507 0.000167724 -3.56615e-07
0.000167724 0.000217512 9.43753e-08
-3.56615e-07 9.43753e-08 0.000102042
0.00175642 8.25042e-05 3.71889e-06
8.25042e-05 6.72939e-05 1.80636e-06
3.71889e-06 1.80636e-06 -4.65245e-05
0.0016959 0.000184187 1.82841e-06
0.000184187 0.000224056 3.33133e-06
1.82841e-06 3.33133e-06 0.000102942
0.00188457 0.000169118 -1.34473e-06
0.000169118 0.000145751 -8.42127e-07
-1.34473e-06 -8.42127e-07 1.22185e-05
0.00158927 6.15452e-05 -2.75312e-07
6.15452e-05 -6.70359e-05 -6.63619e-07
-2.75312e-07 -6.63619e-07 -0.000159163
0.00174102 0.000153424 -1.70655e-06
0.000153424 6.60875e-05 -1.37523e-06
-1.70655e-06 -1.37523e-06 -5.90183e-05
0.00105124 5.24443e-05 -5.09691e-06
5.24443e-05 -8.00946e-05 -6.3288e-06
-5.09691e-06 -6.3288e-06 -9.54526e-05
0.00170767 -1.0084e-05 2.86978e-06
-1.0084e-05 2.22636e-05 3.77384e-08
2.86978e-06 3.77384e-08 -6.47564e-05
0.00183578 -4.66028e-06 -1.12961e-06
-4.66028e-06 0.000158771 1.94338e-07
-1.12961e-06 1.94338e-07 8.23519e-05
0.00111322 -3.06812e-06 -1.45254e-05
-3.06812e-06 -0.000179712 2.81364e-06
-1.45254e-05 2.81364e-06 -0.000326707
0.00137124 -6.18353e-06 -3.8847e-06
-6.18353e-06 -0.000260463 3.04063e-06
-3.8847e-06 3.04063e-06 -0.000315704
0.00209368 8.24135e-06 5.9918e-06
8.24135e-06 0.000161364 1.90109e-06
5.9918e-06 1.90109e-06 7.52612e-05
0.00196026 -1.85148e-05 -2.76827e-06
-1.85148e-05 0.0001315 -1.24214e-07
-2.76827e-06 -1.24214e-07 5.21207e-05
0.00172258 -1.06105e-05 8.66995e-07
-1.06105e-05 8.2134e-06 4.16478e-07
8.66995e-07 4.16478e-07 -7.47243e-05
0.00171663 -1.50985e-05 1.32453e-06
-1.50985e-05 3.72294e-05 -5.31794e-07
1.32453e-06 -5.31794e-07 -5.36253e-05
0.0016269 -2.54302e-05 -2.89438e-06
-2.54302e-05 -7.30267e-06 1.68945e-07
-2.89438e-06 1.68945e-07 -8.23002e-05
0.00179058 -2.30443e-05 3.83246e-08
-2.30443e-05 0.00010977 3.12857e-08
3.83246e-08 3.12857e-08 1.90887e-05
0.00172969 -1.52848e-05 -3.50483e-07
-1.52848e-05 9.4106e-05 -3.68709e-07
-3.50483e-07 -3.68709e-07 -7.13314e-06
0.00168699 -4.71098e-05 -2.16322e-06
-4.71098e-05 6.98364e-05 -1.25576e-07
-2.16322e-06 -1.25576e-07 -2.42778e-05
0.00165088 -4.18637e-05 -1.96109e-07
-4.18637e-05 7.39311e-05 2.22831e-08
-1.96109e-07 2.22831e-08 -2.96619e-05
0.00166459 -4.31789e-05 -1.44085e-06
-4.31789e-05 0.000103364 -4.91782e-07
-1.44085e-06 -4.91782e-07 -3.82056e-06
0.00176237 -7.93458e-05 6.25555e-07
-7.93458e-05 0.000140368 -5.49772e-08
6.25555e-07 -5.49772e-08 3.76187e-05
0.00161714 -7.93986e-05 1.97678e-07
-7.93986e-05 9.25267e-05 5.00411e-07
1.97678e-07 5.00411e-07 -1.43789e-05
0.00154003 -8.25021e-05 -2.08433e-06
-8.25021e-05 8.98784e-05 1.6977e-07
-2.08433e-06 1.6977e-07 -1.90083e-05
0.00154372 -0.000100645 5.26209e-07
-0.000100645 9.61289e-05 -7.8108e-07
5.26209e-07 -7.8108e-07 -1.18511e-05
0.0014654 -9.94136e-05 1.48142e-07
-9.94136e-05 9.20664e-05 1.18898e-07
1.48142e-07 1.18898e-07 -1.90769e-05
0.00133737 -9.21391e-05 -4.0008e-06
-9.21391e-05 7.28377e-05 1.38167e-06
-4.0008e-06 1.38167e-06 -3.36993e-05
0.00116335 -9.76693e-05 1.65201e-06
-9.76693e-05 -2.21084e-05 -6.41002e-07
1.65201e-06 -6.41002e-07 -0.000132291
0.00125402 -9.66856e-05 2.54317e-08
-9.66856e-05 7.05286e-05 -1.08455e-07
2.54317e-08 -1.08455e-07 -3.43022e-05
0.00103309 -7.71533e-05 -6.95439e-06
-7.71533e-05 1.7315e-05 2.83876e-06
-6.95439e-06 2.83876e-06 -6.95304e-05
0.00086476 -8.9973e-05 3.53876e-06
-8.9973e-05 -9.46531e-05 -8.34058e-07
3.53876e-06 -8.34058e-07 -0.000199808
0.000990509 -8.13012e-05 2.45103e-07
-8.13012e-05 2.95433e-05 -3.09007e-08
2.45103e-07 -3.09007e-08 -5.65343e-05
0.00176958 -1.30121e-05 -8.02842e-06
-1.30121e-05 0.000554365 4.25082e-06
-8.02842e-06 4.25082e-06 0.000506009
0.00108452 3.19904e-05 -5.92805e-05
3.19904e-05 0.000225285 7.31384e-06
-5.92805e-05 7.31384e-06 0.000205852
0.00127471 -2.67838e-05 -1.02765e-06
-2.67838e-05 0.000288945 -9.00283e-08
-1.02765e-06 -9.00283e-08 0.000240699
0.000977433 -8.36064e-05 4.88214e-06
-8.36064e-05 6.03964e-05 -1.98289e-06
4.88214e-06 -1.98289e-06 -2.54522e-05
0.00333168 0.000106967 3.39063e-06
0.000106967 0.00142952 2.88708e-07
3.39063e-06 2.88708e-07 0.00142272
0.000765918 -3.05382e-05 7.95773e-06
-3.05382e-05 1.31875e-05 -5.48538e-06
7.95773e-06 -5.48538e-06 -3.19219e-05
0.00312144 9.30563e-05 5.73374e-05
9.30563e-05 0.0013039 -3.11551e-06
5.73374e-05 -3.11551e-06 0.00130209
0.00135435 0.000118985 -1.48546e-07
0.000118985 6.12345e-06 2.09018e-07
-1.48546e-07 2.09018e-07 -0.000104646
0.000806522 0.000109916 2.25764e-06
0.000109916 -0.000141366 1.35398e-06
2.25764e-06 1.35398e-06 -0.000261684
0.000823319 0.000109903 -2.00932e-07
0.000109903 -7.15825e-05 -1.05039e-07
-2.00932e-07 -1.05039e-07 -0.000192803
0.00114358 0.000110302 -2.20961e-06
0.000110302 0.000125431 -6.51944e-07
-2.20961e-06 -6.51944e-07 2.01495e-05
0.000518612 8.79628e-05 4.65239e-08
8.79628e-05 -0.000167108 8.47152e-07
4.65239e-08 8.47152e-07 -0.000279252
0.0010271 9.86768e-05 -3.45001e-07
9.86768e-05 0.000103348 -8.38352e-08
-3.45001e-07 -8.38352e-08 4.22062e-06
0.000958181 5.81705e-05 -3.41395e-06
5.81705e-05 9.55875e-05 -1.18925e-06
-3.41395e-06 -1.18925e-06 1.61454e-05
0.000893057 8.3205e-05 9.11527e-07
8.3205e-05 5.95713e-05 1.61425e-07
9.11527e-07 1.61425e-07 -3.16214e-05
0.000821362 2.99357e-05 -1.38647e-07
2.99357e-05 3.69246e-05 1.7502e-07
-1.38647e-07 1.7502e-07 -3.81137e-05
0.000704991 -2.41569e-05 -5.18125e-06
-2.41569e-05 -6.578e-06 -4.45482e-06
-5.18125e-06 -4.45482e-06 -4.40064e-05
0.000801678 -1.51622e-05 1.2102e-06
-1.51622e-05 3.17816e-05 1.71611e-06
1.2102e-06 1.71611e-06 -3.70939e-05
0.00061944 -6.34482e-05 -1.42731e-07
-6.34482e-05 -4.74367e-05 -1.49513e-07
-1.42731e-07 -1.49513e-07 -8.00515e-05
0.00276319 -8.605e-05 -4.53723e-05
-8.605e-05 0.00110495 -2.8455e-06
-4.53723e-05 -2.8455e-06 0.00110777
0.000615026 -5.78894e-05 2.03185e-06
-5.78894e-05 -5.671e-05 4.14186e-06
2.03185e-06 4.14186e-06 -8.121e-05
0.00253655 -7.76177e-05 -5.66018e-07
-7.76177e-05 0.00097827 1.02169e-07
-5.66018e-07 1.02169e-07 0.00098476
0.00234353 -6.88835e-05 3.21262e-05
-6.88835e-05 0.000868623 2.88824e-06
3.21262e-05 2.88824e-06 0.000878215
0.00177102 2.63916e-05 5.03111e-06
2.63916e-05 6.17838e-05 7.82081e-07
5.03111e-06 7.82081e-07 -3.44648e-05
0.0020245 -9.82152e-06 -1.72382e-06
-9.82152e-06 0.000193661 -7.53822e-07
-1.72382e-06 -7.53822e-07 0.000121755
0.00225122 -8.99523e-05 -4.31403e-06
-8.99523e-05 0.000332141 3.1813e-07
-4.31403e-06 3.1813e-07 0.000261269
0.00168545 0.000127415 -5.62436e-06
0.000127415 0.000101098 -2.28497e-06
-5.62436e-06 -2.28497e-06 -1.62805e-05
0.00173006 0.000147384 -6.26713e-07
0.000147384 0.000287261 5.56751e-07
-6.26713e-07 5.56751e-07 0.000176567
0.000735566 0.000104797 -8.42771e-06
0.000104797 -5.20042e-05 1.20203e-06
-8.42771e-06 1.20203e-06 -0.000144284
0.00148459 0.000137815 2.319e-06
0.000137815 0.000110801 1.39714e-06
2.319e-06 1.39714e-06 -7.89235e-06
0.00153549 0.000144195 -2.69224e-06
0.000144195 0.00024217 6.0192e-07
-2.69224e-06 6.0192e-07 0.000119059
0.00206708 8.4011e-05 -1.63918e-06
8.4011e-05 0.000222036 1.15341e-06
-1.63918e-06 1.15341e-06 0.000103872
0.00167045 0.00014092 -2.71203e-06
0.00014092 6.53542e-05 -1.59364e-06
-2.71203e-06 -1.59364e-06 -6.15148e-05
0.00176014 0.000168154 2.24377e-06
0.000168154 0.000245282 5.26664e-06
2.24377e-06 5.26664e-06 0.000129075
0.00177253 8.40994e-05 -5.53624e-07
8.40994e-05 7.14867e-05 -2.04195e-08
-5.53624e-07 -2.04195e-08 -4.26068e-05
0.00210776 0.000176531 1.64155e-06
0.000176531 0.000246398 -1.80955e-07
1.64155e-06 -1.80955e-07 0.000111747
0.00176124 6.913e-05 -1.35431e-05
6.913e-05 2.75781e-05 -5.57843e-06
-1.35431e-05 -5.57843e-06 -6.528e-05
0.00190542 -3.67233e-06 8.25706e-07
-3.67233e-06 0.000126344 1.33193e-07
8.25706e-07 1.33193e-07 3.29176e-05
0.00174616 -6.07623e-06 -2.59313e-07
-6.07623e-06 4.15273e-05 -4.43103e-07
-2.59313e-07 -4.43103e-07 -4.45437e-05
0.002003 7.52434e-06 -7.77144e-06
7.52434e-06 0.000239583 2.41083e-06
-7.77144e-06 2.41083e-06 0.000162925
0.00205368 -1.66146e-05 -4.46505e-06
-1.66146e-05 0.000179833 8.9907e-07
-4.46505e-06 8.9907e-07 0.000101549
0.00191362 -1.28961e-05 2.3592e-06
-1.28961e-05 0.000114614 1.32832e-06
2.3592e-06 1.32832e-06 3.33452e-05
0.00179914 -1.41614e-05 -3.88047e-07
-1.41614e-05 7.80415e-05 -2.88404e-07
-3.88047e-07 -2.88404e-07 -1.12237e-05
0.00180808 -3.57674e-06 3.65523e-07
-3.57674e-06 0.000105734 -4.95886e-07
3.65523e-07 -4.95886e-07 2.5014e-06
0.00175385 -2.14599e-05 1.05197e-07
-2.14599e-05 9.3145e-05 4.56447e-07
1.05197e-07 4.56447e-07 2.18598e-06
0.00167088 -1.67281e-05 -5.97205e-07
-1.67281e-05 6.77729e-05 1.49932e-08
-5.97205e-07 1.49932e-08 -3.35346e-05
0.00173239 -1.61298e-05 -1.26705e-06
-1.61298e-05 0.00012442 8.46528e-07
-1.26705e-06 8.46528e-07 1.34912e-05
0.0016913 -4.23749e-05 4.01259e-07
-4.23749e-05 9.69712e-05 4.58814e-07
4.01259e-07 4.58814e-07 -7.03108e-06
0.00164692 -4.31179e-05 -9.35121e-08
-4.31179e-05 9.46842e-05 -3.91443e-07
-9.35121e-08 -3.91443e-07 -1.24516e-05
0.00156266 -5.09944e-05 -2.27777e-06
-5.09944e-05 8.37763e-05 -4.75138e-07
-2.27777e-06 -4.75138e-07 -2.38104e-05
0.00163591 -7.87616e-05 1.55708e-06
-7.87616e-05 0.000101405 4.76886e-07
1.55708e-06 4.76886e-07 -5.5789e-06
0.0015432 -8.19604e-05 3.81087e-08
-8.19604e-05 9.13491e-05 4.05261e-07
3.81087e-08 4.05261e-07 -1.75072e-05
0.0014076 -7.86473e-05 -4.24598e-06
-7.86473e-05 7.26195e-05 7.67137e-07
-4.24598e-06 7.67137e-07 -3.28863e-05
0.00146226 -9.86624e-05 2.09551e-06
-9.86624e-05 9.01565e-05 -5.38848e-07
2.09551e-06 -5.38848e-07 -2.08963e-05
0.00133284 -9.12841e-05 1.20752e-07
-9.12841e-05 7.02833e-05 1.55107e-07
1.20752e-07 1.55107e-07 -3.61278e-05
0.00109646 -7.3097e-05 -7.72312e-06
-7.3097e-05 1.77497e-05 3.01496e-06
-7.72312e-06 3.01496e-06 -7.14854e-05
0.00124453 -9.56655e-05 3.75727e-06
-9.56655e-05 6.5664e-05 -1.27981e-06
3.75727e-06 -1.27981e-06 -3.90253e-05
0.00104393 -7.71694e-05 3.07097e-07
-7.71694e-05 2.22878e-05 -1.03785e-07
3.07097e-07 -1.03785e-07 -6.4641e-05
0.00188876 -1.0798e-05 -7.5917e-06
-1.0798e-05 0.000604336 4.37364e-06
-7.5917e-06 4.37364e-06 0.000555276
0.00100137 -8.21048e-05 5.886e-06
-8.21048e-05 3.54612e-05 -2.35087e-06
5.886e-06 -2.35087e-06 -5.08466e-05
0.0019734 -3.47916e-05 1.85932e-05
-3.47916e-05 0.00065461 -1.14213e-06
1.85932e-05 -1.14213e-06 0.000608281
0.001252 -1.04299e-05 -7.81981e-05
-1.04299e-05 0.000322699 8.64511e-06
-7.81981e-05 8.64511e-06 0.00030308
0.00231852 5.01794e-05 -6.04048e-05
5.01794e-05 0.000894692 1.44992e-06
-6.04048e-05 1.44992e-06 0.0008813
0.00202799 -4.16356e-05 4.00541e-05
-4.16356e-05 0.000684997 -4.83138e-06
4.00541e-05 -4.83138e-06 0.000643324
0.00339307 8.50105e-05 7.06338e-05
8.50105e-05 0.00146274 -3.70073e-06
7.06338e-05 -3.70073e-06 0.0014576
0.00167962 0.000112209 -4.01336e-06
0.000112209 0.000100442 -3.5638e-06
-4.01336e-06 -3.5638e-06 -1.29785e-05
0.00159489 0.000130147 4.2924e-06
0.000130147 0.000204754 3.42484e-07
4.2924e-06 3.42484e-07 9.11384e-05
0.00133031 0.000119781 1.42994e-06
0.000119781 2.84638e-06 1.09449e-06
1.42994e-06 1.09449e-06 -9.99734e-05
0.00116697 0.000114923 -2.48511e-06
0.000114923 8.99606e-05 -1.05979e-06
-2.48511e-06 -1.05979e-06 -2.02788e-05
0.00116644 0.000126482 -4.57434e-07
0.000126482 4.30129e-05 2.08839e-07
-4.57434e-07 2.08839e-07 -7.86104e-05
0.00102578 0.00012029 7.00789e-07
0.00012029 2.71528e-05 6.20947e-07
7.00789e-07 6.20947e-07 -9.57154e-05
0.00109496 0.000108143 -2.38042e-07
0.000108143 0.000102573 -1.01571e-07
-2.38042e-07 -1.01571e-07 -2.83795e-06
0.000987042 7.91083e-05 -3.86191e-06
7.91083e-05 8.66473e-05 -1.55877e-06
-3.86191e-06 -1.55877e-06 3.10283e-06
0.00092168 9.24214e-05 1.01436e-06
9.24214e-05 4.98423e-05 3.00462e-07
1.01436e-06 3.00462e-07 -4.85463e-05
0.000855789 5.46853e-05 -2.78392e-07
5.46853e-05 4.12397e-05 5.54753e-09
-2.78392e-07 5.54753e-09 -3.70624e-05
0.000749763 8.45836e-06 -6.58224e-06
8.45836e-06 1.33906e-05 -4.62724e-06
-6.58224e-06 -4.62724e-06 -2.9544e-05
0.000726655 2.41952e-05 1.65476e-06
2.41952e-05 -1.22733e-05 1.27408e-06
1.65476e-06 1.27408e-06 -8.67966e-05
0.00063566 -3.60286e-05 -1.77311e-08
-3.60286e-05 -4.14715e-05 -1.33289e-07
-1.77311e-08 -1.33289e-07 -7.86363e-05
0.00295382 -9.47363e-05 -5.19015e-05
-9.47363e-05 0.00121737 -2.74648e-06
-5.19015e-05 -2.74648e-06 0.00121585
0.000562615 -6.63741e-05 8.25457e-07
-6.63741e-05 -7.67616e-05 4.74475e-06
8.25457e-07 4.74475e-06 -0.000109666
0.0027319 -8.71281e-05 -8.54064e-07
-8.71281e-05 0.00108795 1.42283e-07
-8.54064e-07 1.42283e-07 0.00109106
0.00249622 -7.74595e-05 3.56374e-05
-7.74595e-05 0.000956583 2.67829e-06
3.56374e-05 2.67829e-06 0.000963403
0.00186784 2.96976e-05 -1.62376e-06
2.96976e-05 0.000102139 8.21295e-07
-1.62376e-06 8.21295e-07 -9.14336e-07
0.00173038 2.6083e-05 4.80412e-07
2.6083e-05 4.13883e-05 -2.0378e-07
4.80412e-07 -2.0378e-07 -5.48581e-05
0.00243205 -1.34549e-05 -2.30388e-05
-1.34549e-05 0.000441995 -2.14778e-06
-2.30388e-05 -2.14778e-06 0.000372419
0.00184491 7.76351e-05 -7.57468e-07
7.76351e-05 0.000131858 4.65185e-07
-7.57468e-07 4.65185e-07 1.6214e-05
0.00177045 0.000129679 3.08152e-10
0.000129679 0.000150766 -1.05052e-06
3.08152e-10 -1.05052e-06 3.30148e-05
0.00148611 0.0001381 -3.36908e-06
0.0001381 0.000181873 2.13485e-06
-3.36908e-06 2.13485e-06 7.51139e-05
0.00207107 0.000158189 1.54676e-06
0.000158189 0.000410389 7.64436e-08
1.54676e-06 7.64436e-08 0.000293351
0.00195415 8.23511e-05 -3.71215e-07
8.23511e-05 0.000161831 -1.18376e-07
-3.71215e-07 -1.18376e-07 4.36916e-05
0.00164116 0.000142747 1.09308e-06
0.000142747 4.98697e-05 6.51509e-07
1.09308e-06 6.51509e-07 -8.01311e-05
0.00173067 8.52704e-05 -2.5306e-06
8.52704e-05 4.90315e-05 -1.77365e-06
-2.5306e-06 -1.77365e-06 -6.54976e-05
0.00183946 5.53223e-06 7.68461e-07
5.53223e-06 9.75364e-05 -2.49987e-08
7.68461e-07 -2.49987e-08 -4.23818e-06
0.00185233 -2.37063e-06 -4.05219e-07
-2.37063e-06 9.81154e-05 -5.7154e-08
-4.05219e-07 -5.7154e-08 3.76692e-06
0.0017884 -2.05355e-06 -3.91671e-06
-2.05355e-06 6.4197e-05 5.81399e-07
-3.91671e-06 5.81399e-07 -2.098e-05
0.0017855 7.37905e-06 -4.92103e-07
7.37905e-06 8.80855e-05 -3.21931e-07
-4.92103e-07 -3.21931e-07 -1.93873e-05
0.00185136 -1.26504e-05 -1.63946e-06
-1.26504e-05 0.000103203 6.16642e-07
-1.63946e-06 6.16642e-07 1.54857e-05
0.00180195 -3.09467e-06 -2.1396e-07
-3.09467e-06 0.000103085 1.24967e-07
-2.1396e-07 1.24967e-07 1.06905e-07
0.00180987 1.05256e-06 1.53634e-07
1.05256e-06 0.000140508 -7.21209e-07
1.53634e-07 -7.21209e-07 2.83758e-05
0.00161728 -1.7934e-05 -1.13823e-07
-1.7934e-05 4.42184e-05 6.49022e-07
-1.13823e-07 6.49022e-07 -5.71732e-05
0.00167272 -1.59698e-05 -2.62719e-07
-1.59698e-05 9.41606e-05 5.40011e-07
-2.62719e-07 5.40011e-07 -1.67601e-05
0.00155172 -2.00022e-05 -2.82497e-06
-2.00022e-05 6.52323e-05 1.93865e-06
-2.82497e-06 1.93865e-06 -4.78119e-05
0.00162745 -4.2553e-05 1.28156e-06
-4.2553e-05 8.5156e-05 -2.66114e-07
1.28156e-06 -2.66114e-07 -2.19273e-05
0.00157345 -4.93622e-05 -1.40004e-07
-4.93622e-05 8.93564e-05 -4.98365e-07
-1.40004e-07 -4.98365e-07 -1.82187e-05
0.00142638 -5.57738e-05 -4.27766e-06
-5.57738e-05 6.41633e-05 1.49185e-07
-4.27766e-06 1.49185e-07 -4.02522e-05
0.00154645 -8.13447e-05 2.59692e-06
-8.13447e-05 9.28462e-05 5.8125e-07
2.59692e-06 5.8125e-07 -1.5972e-05
0.00140207 -7.78319e-05 2.68197e-08
-7.78319e-05 6.97648e-05 3.49132e-07
2.68197e-08 3.49132e-07 -3.56273e-05
0.00115485 -6.42277e-05 -8.34963e-06
-6.42277e-05 2.05188e-05 2.34119e-06
-8.34963e-06 2.34119e-06 -6.94755e-05
0.00132761 -9.03667e-05 4.20981e-06
-9.03667e-05 6.73618e-05 -1.06584e-06
4.20981e-06 -1.06584e-06 -3.89183e-05
0.00110024 -7.205e-05 3.87704e-07
-7.205e-05 1.82698e-05 1.2201e-07
3.87704e-07 1.2201e-07 -7.08166e-05
0.00202869 -2.94999e-05 -1.30374e-05
-2.94999e-05 0.000654854 3.61471e-06
-1.30374e-05 3.61471e-06 0.000609509
0.00104675 -7.69313e-05 6.87148e-06
-7.69313e-05 2.31547e-05 -2.93171e-06
6.87148e-06 -2.93171e-06 -6.38535e-05
0.0020797 -4.44176e-05 1.85017e-05
-4.44176e-05 0.000695638 -1.36852e-06
1.85017e-05 -1.36852e-06 0.000650407
0.00133627 -1.44354e-05 -8.14725e-05
-1.44354e-05 0.000369041 8.40989e-06
-8.14725e-05 8.40989e-06 0.000347769
0.00215671 -6.05015e-05 4.71656e-05
-6.05015e-05 0.00074233 -7.15234e-06
4.71656e-05 -7.15234e-06 0.000698778
0.00125906 3.45799e-05 -3.73073e-05
3.45799e-05 0.000337325 2.65891e-06
-3.73073e-05 2.65891e-06 0.000311124
0.00347167 0.0001559 1.02464e-05
0.0001559 0.00153157 -1.83332e-06
1.02464e-05 -1.83332e-06 0.0015119
0.00188457 8.05378e-05 -2.02554e-06
8.05378e-05 0.000193533 -1.09502e-06
-2.02554e-06 -1.09502e-06 7.7327e-05
0.00157754 0.000107664 -7.4699e-07
0.000107664 0.000100181 -3.21087e-06
-7.4699e-07 -3.21087e-06 -1.23228e-05
0.00171728 0.000114701 -2.98009e-06
0.000114701 0.000132128 1.23926e-06
-2.98009e-06 1.23926e-06 1.98748e-05
0.00164122 0.000126674 -1.7712e-06
0.000126674 0.000280328 -4.05786e-07
-1.7712e-06 -4.05786e-07 0.000170862
0.00140943 0.000126245 5.39239e-07
0.000126245 0.000104556 -1.54738e-06
5.39239e-07 -1.54738e-06 -8.25215e-06
0.00134102 0.000121671 2.60592e-06
0.000121671 1.70464e-05 1.93246e-06
2.60592e-06 1.93246e-06 -7.78788e-05
0.00101215 8.94816e-05 -5.10468e-06
8.94816e-05 6.11465e-05 -2.48798e-06
-5.10468e-06 -2.48798e-06 -2.82784e-05
0.00117536 0.000115872 -1.51375e-07
0.000115872 9.50983e-05 -7.61642e-08
-1.51375e-07 -7.61642e-08 -1.55464e-05
0.00154011 0.000143403 2.26149e-06
0.000143403 0.000234607 6.33946e-07
2.26149e-06 6.33946e-07 0.000111638
0.00103751 0.000105591 1.71953e-06
0.000105591 7.51432e-05 4.43771e-07
1.71953e-06 4.43771e-07 -3.03676e-05
0.000913856 7.51423e-05 -2.71649e-07
7.51423e-05 4.8757e-05 -1.93628e-07
-2.71649e-07 -1.93628e-07 -3.43166e-05
0.000783997 4.67002e-05 -8.58482e-06
4.67002e-05 2.97463e-05 -5.38786e-06
-8.58482e-06 -5.38786e-06 -1.95088e-05
0.000759308 5.11529e-05 2.43788e-06
5.11529e-05 -9.95519e-06 9.79654e-07
2.43788e-06 9.79654e-07 -8.72998e-05
0.000678655 3.84594e-06 9.32937e-08
3.84594e-06 -1.86023e-05 -3.07027e-08
9.32937e-08 -3.07027e-08 -6.22924e-05
0.00318169 -8.89627e-05 -6.46406e-05
-8.89627e-05 0.0013544 -3.04459e-06
-6.46406e-05 -3.04459e-06 0.00134943
0.000577638 -5.78167e-05 1.09416e-06
-5.78167e-05 -6.62687e-05 4.99749e-06
1.09416e-06 4.99749e-06 -0.000105779
0.00292966 -9.79782e-05 -1.26548e-06
-9.79782e-05 0.00120282 2.09085e-07
-1.26548e-06 2.09085e-07 0.00120147
0.00270783 -8.77789e-05 3.98192e-05
-8.77789e-05 0.00107461 2.57509e-06
3.98192e-05 2.57509e-06 0.00107809
0.0017815 3.12815e-05 -2.04372e-07
3.12815e-05 7.45605e-05 5.1542e-07
-2.04372e-07 5.1542e-07 -3.11258e-05
0.00180599 3.19112e-05 -7.55445e-07
3.19112e-05 6.78572e-05 1.73995e-07
-7.55445e-07 1.73995e-07 -3.56568e-05
0.00172969 2.57761e-05 -4.33147e-06
2.57761e-05 3.91212e-05 -1.24093e-06
-4.33147e-06 -1.24093e-06 -5.70499e-05
0.00183521 7.68706e-05 9.31949e-07
7.68706e-05 0.000123539 -1.5342e-07
9.31949e-07 -1.5342e-07 9.84576e-06
0.00184978 0.000132119 1.0019e-06
0.000132119 0.000198009 -6.39501e-08
1.0019e-06 -6.39501e-08 7.97912e-05
0.00182845 8.02578e-05 1.44008e-06
8.02578e-05 9.60727e-05 -1.33251e-06
1.44008e-06 -1.33251e-06 -2.19808e-05
0.00183238 9.99557e-06 -8.64071e-07
9.99557e-06 0.000104497 5.3294e-08
-8.64071e-07 5.3294e-08 -2.3698e-06
0.00187019 7.58816e-06 2.71227e-07
7.58816e-06 0.000112462 -1.58629e-07
2.71227e-07 -1.58629e-07 1.02179e-05
0.00182714 -2.26122e-07 -2.82683e-07
-2.26122e-07 8.3725e-05 -1.25745e-07
-2.82683e-07 -1.25745e-07 -1.15132e-05
0.0017908 -1.38438e-06 -7.07522e-07
-1.38438e-06 9.18544e-05 1.21076e-07
-7.07522e-07 1.21076e-07 -1.48053e-05
0.00182038 4.01819e-06 3.93763e-07
4.01819e-06 0.000132087 -6.52028e-07
3.93763e-07 -6.52028e-07 1.97363e-05
0.00179021 -2.66025e-06 -3.68498e-07
-2.66025e-06 9.76186e-05 5.30023e-07
-3.68498e-07 5.30023e-07 -5.10075e-06
0.00174601 1.23864e-06 2.26931e-07
1.23864e-06 0.000107324 -1.79664e-07
2.26931e-07 -1.79664e-07 -5.76404e-06
0.00159673 -1.6706e-06 -6.60588e-07
-1.6706e-06 6.32354e-05 -3.91186e-07
-6.60588e-07 -3.91186e-07 -5.43452e-05
0.00161984 -1.63714e-05 7.1422e-07
-1.63714e-05 6.73512e-05 2.294e-07
7.1422e-07 2.294e-07 -4.35555e-05
0.00160276 -2.06566e-05 -7.12896e-07
-2.06566e-05 9.17179e-05 9.27524e-07
-7.12896e-07 9.27524e-07 -2.12699e-05
0.00147269 -2.65672e-05 -5.02799e-06
-2.65672e-05 7.49905e-05 1.8424e-06
-5.02799e-06 1.8424e-06 -3.40953e-05
0.0015858 -4.92519e-05 1.99007e-06
-4.92519e-05 9.56669e-05 -5.32975e-07
1.99007e-06 -5.32975e-07 -1.19292e-05
0.00144265 -5.48427e-05 -7.18243e-09
-5.48427e-05 7.19828e-05 -3.6094e-07
-7.18243e-09 -3.6094e-07 -3.23809e-05
0.00115694 -4.71394e-05 -8.44754e-06
-4.71394e-05 6.71573e-06 1.40999e-06
-8.44754e-06 1.40999e-06 -8.23678e-05
0.00139465 -7.69165e-05 4.38581e-06
-7.69165e-05 6.59243e-05 -7.80792e-08
4.38581e-06 -7.80792e-08 -3.93504e-05
0.00114941 -6.23076e-05 2.08716e-07
-6.23076e-05 1.65282e-05 3.33716e-07
2.08716e-07 3.33716e-07 -7.31569e-05
0.00216472 -3.69262e-05 -1.70041e-05
-3.69262e-05 0.000706447 2.64453e-06
-1.70041e-05 2.64453e-06 0.000662812
0.00110066 -7.10738e-05 7.86187e-06
-7.10738e-05 1.70016e-05 -2.7493e-06
7.86187e-06 -2.7493e-06 -7.19394e-05
0.00217934 -5.26776e-05 1.76833e-05
-5.26776e-05 0.000728752 -1.31773e-06
1.76833e-05 -1.31773e-06 0.000685161
0.0014561 -1.49068e-05 -8.52723e-05
-1.49068e-05 0.00042364 7.45245e-06
-8.52723e-05 7.45245e-06 0.000402117
0.00225601 -6.65068e-05 5.08599e-05
-6.65068e-05 0.000781755 -6.89059e-06
5.08599e-05 -6.89059e-06 0.00073855
0.00132717 3.44499e-05 -4.14692e-05
3.44499e-05 0.000374874 2.41538e-06
-4.14692e-05 2.41538e-06 0.000347204
0.00131147 8.72914e-05 2.34765e-06
8.72914e-05 0.000378651 -3.51574e-06
2.34765e-06 -3.51574e-06 0.000344484
0.0016933 3.36038e-05 -8.64371e-07
3.36038e-05 6.85079e-05 4.3634e-07
-8.64371e-07 4.3634e-07 -4.2587e-05
0.00162064 7.9787e-05 -3.0845e-06
7.9787e-05 9.11729e-05 -1.1106e-06
-3.0845e-06 -1.1106e-06 -2.20598e-05
0.00174651 7.88108e-05 -1.75429e-06
7.88108e-05 0.000121536 -6.65895e-07
-1.75429e-06 -6.65895e-07 5.06971e-06
0.00158087 0.000109016 -3.22776e-06
0.000109016 0.000171259 -1.17566e-06
-3.22776e-06 -1.17566e-06 6.20121e-05
0.00173342 0.000112677 1.36648e-06
0.000112677 0.000183843 5.54371e-07
1.36648e-06 5.54371e-07 7.11426e-05
0.00173797 0.000116662 4.33812e-06
0.000116662 0.000155647 2.5689e-06
4.33812e-06 2.5689e-06 4.45625e-05
0.000991608 8.90084e-05 -6.44433e-06
8.90084e-05 -7.29631e-08 -2.69655e-06
-6.44433e-06 -2.69655e-06 -9.22431e-05
0.00127535 0.000115312 1.89817e-06
0.000115312 8.50226e-05 9.2847e-07
1.89817e-06 9.2847e-07 -2.56236e-05
0.00122327 0.000122376 8.88948e-07
0.000122376 3.7509e-06 1.40428e-06
8.88948e-07 1.40428e-06 -0.000108227
0.000776539 7.58458e-05 -1.20531e-05
7.58458e-05 1.73168e-05 -6.1987e-06
-1.20531e-05 -6.1987e-06 -3.65871e-05
0.000977323 8.687e-05 -4.30346e-07
8.687e-05 4.3307e-05 -1.91704e-07
-4.30346e-07 -1.91704e-07 -4.56947e-05
0.00118683 0.000116941 2.79881e-06
0.000116941 0.000101892 1.11961e-06
2.79881e-06 1.11961e-06 -9.1745e-06
0.000858482 7.14886e-05 3.40251e-06
7.14886e-05 2.04066e-05 1.31812e-06
3.40251e-06 1.31812e-06 -6.22505e-05
0.000686882 4.06634e-05 -4.40685e-09
4.06634e-05 -1.54347e-05 1.46202e-08
-4.40685e-09 1.46202e-08 -6.47638e-05
0.00353474 -7.2208e-05 -7.54055e-05
-7.2208e-05 0.00155766 -4.56965e-06
-7.54055e-05 -4.56965e-06 0.00154855
0.000624179 -2.73642e-06 4.47376e-06
-2.73642e-06 -4.38089e-05 4.90202e-06
4.47376e-06 4.90202e-06 -8.68352e-05
0.0031419 -0.000108806 -2.82871e-06
-0.000108806 0.00133186 3.06945e-07
-2.82871e-06 3.06945e-07 0.00132524
0.00291441 -9.89852e-05 4.45046e-05
-9.89852e-05 0.00119244 2.54631e-06
4.45046e-05 2.54631e-06 0.00119169
0.00184661 1.69736e-05 -1.49313e-07
1.69736e-05 0.000123459 -2.27577e-07
-1.49313e-07 -2.27577e-07 1.56782e-05
0.00180578 3.08009e-05 -2.86628e-07
3.08009e-05 8.66721e-05 1.31651e-07
-2.86628e-07 1.31651e-07 -1.9021e-05
0.00174532 3.3732e-05 1.79167e-06
3.3732e-05 3.41578e-05 -7.38144e-07
1.79167e-06 -7.38144e-07 -6.98174e-05
0.00183895 7.61542e-05 2.00112e-06
7.61542e-05 0.00012172 -2.9117e-07
2.00112e-06 -2.9117e-07 9.99587e-06
0.00179573 -6.90014e-07 -3.25423e-07
-6.90014e-07 0.000110102 -3.19723e-07
-3.25423e-07 -3.19723e-07 -1.68302e-06
0.00186544 7.69472e-06 -1.91614e-07
7.69472e-06 0.000120764 -4.61508e-08
-1.91614e-07 -4.61508e-08 1.3903e-05
0.00189242 9.1331e-06 1.29606e-07
9.1331e-06 0.000123052 1.86298e-07
1.29606e-07 1.86298e-07 2.0321e-05
0.00180796 -6.34271e-06 -1.13312e-06
-6.34271e-06 0.000102095 2.43091e-07
-1.13312e-06 2.43091e-07 -3.81809e-06
0.00179155 9.19974e-06 -2.12162e-07
9.19974e-06 0.000116045 -2.04286e-08
-2.12162e-07 -2.04286e-08 4.15051e-06
0.00182696 8.58934e-06 -8.10871e-07
8.58934e-06 0.000170487 -5.36524e-07
-8.10871e-07 -5.36524e-07 5.49256e-05
0.00167895 1.43268e-06 5.22397e-07
1.43268e-06 7.24236e-05 2.82889e-07
5.22397e-07 2.82889e-07 -4.16269e-05
0.00171362 -6.88168e-07 7.74145e-07
-6.88168e-07 0.000125736 -5.14154e-07
7.74145e-07 -5.14154e-07 8.41628e-06
0.00137745 -3.38361e-06 -4.23688e-06
-3.38361e-06 -3.85107e-06 7.76712e-07
-4.23688e-06 7.76712e-07 -0.000118947
0.00164826 -1.97605e-05 9.40605e-07
-1.97605e-05 0.000115491 -1.30578e-08
9.40605e-07 -1.30578e-08 2.58248e-06
0.0014709 -2.42147e-05 -5.40041e-07
-2.42147e-05 7.35444e-05 4.11286e-07
-5.40041e-07 4.11286e-07 -3.54843e-05
0.00116939 -2.5567e-05 -8.31603e-06
-2.5567e-05 5.00504e-07 1.69621e-06
-8.31603e-06 1.69621e-06 -9.11206e-05
0.00145421 -5.17937e-05 4.046e-06
-5.17937e-05 7.74418e-05 -8.30947e-07
4.046e-06 -8.30947e-07 -2.6781e-05
0.00117731 -4.71946e-05 -5.43259e-08
-4.71946e-05 1.62899e-05 -2.4375e-08
-5.43259e-08 -2.4375e-08 -7.26885e-05
0.000688545 -2.85674e-05 -1.27218e-05
-2.85674e-05 -9.34479e-05 2.71e-06
-1.27218e-05 2.71e-06 -0.000144444
0.00114447 -6.05906e-05 8.42207e-06
-6.05906e-05 1.27101e-05 -1.74386e-06
8.42207e-06 -1.74386e-06 -7.66678e-05
0.0014681 -4.80004e-05 2.1908e-05
-4.80004e-05 0.00033087 -8.60447e-07
2.1908e-05 -8.60447e-07 0.000284576
0.00460746 -7.30687e-06 -0.000102055
-7.30687e-06 0.00209991 3.83589e-06
-0.000102055 3.83589e-06 0.00209484
0.00233026 -6.07609e-05 5.36255e-05
-6.07609e-05 0.00080406 -6.02215e-06
5.36255e-05 -6.02215e-06 0.000761349
0.00139852 1.52341e-05 -3.9032e-05
1.52341e-05 0.000399383 2.57158e-06
-3.9032e-05 2.57158e-06 0.00037461
0.00135498 5.98954e-05 6.2524e-06
5.98954e-05 0.000394935 -3.00812e-06
6.2524e-06 -3.00812e-06 0.00036449
0.00169684 1.72868e-05 -3.29084e-08
1.72868e-05 7.68446e-05 -2.09995e-07
-3.29084e-08 -2.09995e-07 -3.30182e-05
0.00155702 4.2036e-05 -2.09925e-06
4.2036e-05 4.20534e-05 4.23522e-07
-2.09925e-06 4.23522e-07 -7.00345e-05
0.00183285 3.35274e-05 -3.85985e-07
3.35274e-05 0.000142904 -3.2141e-07
-3.85985e-07 -3.2141e-07 3.22336e-05
0.00117718 7.60433e-05 -4.70578e-06
7.60433e-05 -8.48705e-05 -1.81568e-06
-4.70578e-06 -1.81568e-06 -0.000194553
0.00164564 8.06583e-05 1.41259e-07
8.06583e-05 0.000105262 4.39592e-09
1.41259e-07 4.39592e-09 -8.17053e-06
0.0016121 7.73292e-05 2.80084e-07
7.73292e-05 5.15077e-05 -2.10204e-07
2.80084e-07 -2.10204e-07 -6.52481e-05
0.000650533 6.90066e-05 -9.2143e-06
6.90066e-05 -0.000237835 -3.10767e-06
-9.2143e-06 -3.10767e-06 -0.000332346
0.00161359 0.000111708 9.74739e-07
0.000111708 0.000187678 1.72576e-07
9.74739e-07 1.72576e-07 7.82222e-05
0.00190318 0.000118188 3.33483e-06
0.000118188 0.000274703 1.51993e-06
3.33483e-06 1.51993e-06 0.000161791
0.000724669 8.35777e-05 -1.31343e-05
8.35777e-05 -3.05998e-05 -6.08485e-06
-1.31343e-05 -6.08485e-06 -8.65348e-05
0.000777845 8.14549e-05 -4.96673e-08
8.14549e-05 -0.000115621 1.46315e-07
-4.96673e-08 1.46315e-07 -0.000208905
0.000905927 0.000103864 4.64969e-06
0.000103864 -0.000112187 2.35644e-06
4.64969e-06 2.35644e-06 -0.000224
0.00403637 -7.04029e-05 -8.1921e-05
-7.04029e-05 0.00183179 -5.8224e-06
-8.1921e-05 -5.8224e-06 0.0018176
0.000666843 6.53763e-05 1.44766e-07
6.53763e-05 -3.55728e-05 5.485e-08
1.44766e-07 5.485e-08 -8.94165e-05
0.000940887 8.42475e-05 4.71735e-06
8.42475e-05 2.5087e-05 2.33875e-06
4.71735e-06 2.33875e-06 -6.3558e-05
0.000593173 3.45446e-05 6.84865e-06
3.45446e-05 -5.95152e-05 5.29342e-06
6.84865e-06 5.29342e-06 -0.000108873
0.00340855 -0.000102696 -4.81609e-06
-0.000102696 0.0014905 2.02217e-07
-4.81609e-06 2.02217e-07 0.00148017
0.00307528 -0.000110923 4.8289e-05
-0.000110923 0.00129322 2.51196e-06
4.8289e-05 2.51196e-06 0.00128704
0.00176286 3.61037e-06 -1.05075e-06
3.61037e-06 9.68815e-05 -3.19513e-07
-1.05075e-06 -3.19513e-07 -1.34804e-05
0.00183402 1.64675e-05 -4.39968e-07
1.64675e-05 0.000113937 4.68402e-08
-4.39968e-07 4.68402e-08 6.37925e-06
0.00183337 3.06473e-05 6.95889e-07
3.06473e-05 0.000100974 -2.53941e-07
6.95889e-07 -2.53941e-07 -4.72598e-06
0.00182234 9.96973e-06 -6.33837e-07
9.96973e-06 0.000160269 -2.62481e-07
-6.33837e-07 -2.62481e-07 4.50681e-05
0.00178429 3.00084e-06 -4.34791e-07
3.00084e-06 0.000105066 -1.3016e-08
-4.34791e-07 -1.3016e-08 -6.40409e-06
0.00189038 2.30782e-06 -2.90044e-07
2.30782e-06 0.000132558 2.33635e-07
-2.90044e-07 2.33635e-07 2.5759e-05
0.00175398 1.2678e-05 -4.04655e-08
1.2678e-05 9.5238e-05 6.28871e-07
-4.04655e-08 6.28871e-07 -1.6135e-05
0.00180183 1.12793e-05 8.21957e-07
1.12793e-05 0.000156678 -1.52859e-07
8.21957e-07 -1.52859e-07 4.10836e-05
0.00179264 5.30335e-06 -3.21915e-06
5.30335e-06 0.000193634 -6.107e-08
-3.21915e-06 -6.107e-08 8.10986e-05
0.0018368 3.21905e-07 2.36402e-06
3.21905e-07 0.000191469 -7.24432e-07
2.36402e-06 -7.24432e-07 7.4411e-05
0.00165678 -9.83414e-07 -2.68205e-08
-9.83414e-07 0.000145975 4.82012e-08
-2.68205e-08 4.82012e-08 3.28778e-05
0.000815987 -6.02193e-06 -1.01524e-05
-6.02193e-06 -0.000215279 2.25284e-06
-1.01524e-05 2.25284e-06 -0.000315495
0.00147763 -2.41838e-05 3.45484e-06
-2.41838e-05 7.64287e-05 -9.87342e-07
3.45484e-06 -9.87342e-07 -3.26383e-05
0.00119065 -2.33015e-05 -3.23186e-08
-2.33015e-05 1.04859e-05 -2.33649e-07
-3.23186e-08 -2.33649e-07 -8.10434e-05
0.000700427 -1.64777e-05 -1.26337e-05
-1.64777e-05 -9.47736e-05 2.0553e-06
-1.26337e-05 2.0553e-06 -0.000147928
0.00119177 -4.57782e-05 8.66619e-06
-4.57782e-05 2.27345e-05 -1.60704e-06
8.66619e-06 -1.60704e-06 -6.60479e-05
0.0006898 -2.3871e-05 -1.01462e-07
-2.3871e-05 -9.31971e-05 7.92109e-08
-1.01462e-07 7.92109e-08 -0.000144071
0.00460242 -1.24671e-05 -0.000103026
-1.24671e-05 0.00209448 2.90712e-06
-0.000103026 2.90712e-06 0.00208993
0.000749522 -4.48094e-05 1.43694e-05
-4.48094e-05 -5.51372e-05 -4.61136e-06
1.43694e-05 -4.61136e-06 -0.000106914
0.00303071 5.62805e-06 4.02337e-05
5.62805e-06 0.00125833 5.20579e-07
4.02337e-05 5.20579e-07 0.00124295
0.00134784 1.5812e-05 1.41352e-05
1.5812e-05 0.000376144 -2.37613e-06
1.41352e-05 -2.37613e-06 0.000349943
0.00173122 7.41789e-06 -2.84404e-07
7.41789e-06 0.000108489 -2.39585e-07
-2.84404e-07 -2.39585e-07 -2.05751e-06
0.00172909 2.19875e-05 -1.16043e-06
2.19875e-05 0.000129662 -4.31462e-07
-1.16043e-06 -4.31462e-07 2.00278e-05
0.00174198 1.6346e-05 2.42835e-08
1.6346e-05 9.951e-05 -6.82169e-08
2.42835e-08 -6.82169e-08 -1.01008e-05
0.00143952 5.10481e-05 -3.89609e-06
5.10481e-05 3.8681e-05 -4.73245e-07
-3.89609e-06 -4.73245e-07 -6.87898e-05
0.00156768 4.15893e-05 2.99527e-07
4.15893e-05 4.59074e-05 3.37951e-07
2.99527e-07 3.37951e-07 -6.60842e-05
0.00196973 3.33203e-05 -8.88012e-09
3.33203e-05 0.000215851 -4.99847e-07
-8.88012e-09 -4.99847e-07 0.000105609
0.000732655 5.74687e-05 -9.88318e-06
5.74687e-05 -0.000229419 -2.94815e-06
-9.88318e-06 -2.94815e-06 -0.000323294
0.00154888 8.59588e-05 -1.28833e-06
8.59588e-05 0.000113823 -4.86949e-07
-1.28833e-06 -4.86949e-07 5.60554e-06
0.00165782 8.11606e-05 3.21858e-06
8.11606e-05 0.000112761 5.1186e-07
3.21858e-06 5.1186e-07 -8.65936e-07
0.000687501 7.27439e-05 -1.35731e-05
7.27439e-05 -7.59314e-05 -5.06127e-06
-1.35731e-05 -5.06127e-06 -0.000130489
0.000689937 7.0969e-05 -2.3873e-06
7.0969e-05 -0.000219282 -6.10155e-07
-2.3873e-06 -6.10155e-07 -0.00031443
0.00164586 0.0001144 5.28026e-06
0.0001144 0.000203839 1.46363e-06
5.28026e-06 1.46363e-06 9.41805e-05
0.00447201 -7.96522e-05 -8.4886e-05
-7.96522e-05 0.00205951 -6.18636e-06
-8.4886e-05 -6.18636e-06 0.00204247
0.000658624 7.70633e-05 8.03848e-07
7.70633e-05 -6.34022e-05 1.99416e-07
8.03848e-07 1.99416e-07 -0.000118872
0.000557065 7.35361e-05 6.26643e-06
7.35361e-05 -0.000234699 3.08869e-06
6.26643e-06 3.08869e-06 -0.000329093
0.00379592 -8.93344e-05 -4.983e-06
-8.93344e-05 0.00170585 3.66194e-07
-4.983e-06 3.66194e-07 0.00169187
0.000555613 5.78212e-05 8.90647e-06
5.78212e-05 -9.05084e-05 5.91954e-06
8.90647e-06 5.91954e-06 -0.000143908
0.00326054 -0.000122189 5.26151e-05
-0.000122189 0.00141146 2.53234e-06
5.26151e-05 2.53234e-06 0.00139967
0.00180493 9.23703e-06 -8.19127e-07
9.23703e-06 0.000150817 -4.69372e-07
-8.19127e-07 -4.69372e-07 3.68819e-05
0.00179532 4.34438e-06 8.73167e-08
4.34438e-06 0.000116761 1.09642e-07
8.73167e-08 1.09642e-07 6.13801e-06
0.00182043 1.61381e-05 -3.87132e-08
1.61381e-05 0.000103838 6.62024e-08
-3.87132e-08 6.62024e-08 -3.50199e-06
0.00177182 -2.04345e-06 -3.51969e-06
-2.04345e-06 0.000179709 -1.27515e-07
-3.51969e-06 -1.27515e-07 6.82773e-05
0.00182494 9.61127e-06 6.83083e-07
9.61127e-06 0.000162339 -4.62019e-08
6.83083e-07 -4.62019e-08 4.75016e-05
0.00178386 9.29182e-06 1.1088e-06
9.29182e-06 0.000105871 2.46326e-07
1.1088e-06 2.46326e-07 -5.37997e-06
0.0017797 1.27361e-05 1.948e-06
1.27361e-05 0.000144438 4.00853e-07
1.948e-06 4.00853e-07 2.88203e-05
0.00178392 5.70775e-06 1.07004e-06
5.70775e-06 0.000189047 -2.34517e-07
1.07004e-06 -2.34517e-07 7.64033e-05
0.000902628 -4.01954e-07 -9.87046e-06
-4.01954e-07 -0.000194624 8.81355e-07
-9.87046e-06 8.81355e-07 -0.000297467
0.00193572 1.2357e-06 5.04231e-06
1.2357e-06 0.000295645 -1.10316e-06
5.04231e-06 -1.10316e-06 0.000184551
0.00103243 -3.94724e-06 -2.0043e-06
-3.94724e-06 -9.84663e-05 6.9162e-07
-2.0043e-06 6.9162e-07 -0.000196819
0.000713108 -6.62527e-06 -1.31156e-05
-6.62527e-06 -0.000105062 1.92232e-06
-1.31156e-05 1.92232e-06 -0.000163001
0.00122274 -2.26748e-05 8.40009e-06
-2.26748e-05 2.59229e-05 -2.25739e-06
8.40009e-06 -2.25739e-06 -6.5562e-05
0.000715133 -7.63683e-06 1.83495e-07
-7.63683e-06 -8.81784e-05 -1.91431e-07
1.83495e-07 -1.91431e-07 -0.000141449
0.00466632 -9.8344e-06 -0.000103244
-9.8344e-06 0.00212568 1.91805e-06
-0.000103244 1.91805e-06 0.00212115
0.000678486 -1.83783e-05 1.20902e-05
-1.83783e-05 -9.94114e-05 -2.43274e-06
1.20902e-05 -2.43274e-06 -0.000149953
0.00461581 9.84729e-07 2.06269e-06
9.84729e-07 0.00210073 3.81751e-07
2.06269e-06 3.81751e-07 0.00209643
0.00150954 -1.201e-05 8.98025e-05
-1.201e-05 0.000444021 -3.70793e-06
8.98025e-05 -3.70793e-06 0.000423704
0.0019432 1.12965e-05 -7.61809e-07
1.12965e-05 0.000244549 -6.73013e-07
-7.61809e-07 -6.73013e-07 0.000134712
0.00170431 7.22919e-06 5.00005e-07
7.22919e-06 9.22465e-05 4.78319e-07
5.00005e-07 4.78319e-07 -1.78291e-05
0.00147221 2.16247e-05 -3.49699e-06
2.16247e-05 4.55169e-05 -7.43161e-07
-3.49699e-06 -7.43161e-07 -6.05804e-05
0.00165301 2.10439e-05 4.03525e-07
2.10439e-05 9.01548e-05 -4.02015e-07
4.03525e-07 -4.02015e-07 -1.95819e-05
0.00178643 1.54002e-05 1.19214e-06
1.54002e-05 0.000121807 -1.36737e-07
1.19214e-06 -1.36737e-07 1.24545e-05
0.00120749 4.54816e-05 -8.54292e-06
4.54816e-05 7.26024e-06 -1.98704e-06
-8.54292e-06 -1.98704e-06 -8.42431e-05
0.00148675 5.17016e-05 -1.305e-07
5.17016e-05 6.21481e-05 4.032e-07
-1.305e-07 4.032e-07 -4.53153e-05
0.00157977 4.11594e-05 1.58821e-06
4.11594e-05 5.0528e-05 5.1505e-07
1.58821e-06 5.1505e-07 -6.13746e-05
0.000685632 5.18875e-05 -1.35186e-05
5.18875e-05 -9.65348e-05 -4.08803e-06
-1.35186e-05 -4.08803e-06 -0.000149631
0.00096232 6.4077e-05 -2.61014e-06
6.4077e-05 -0.000106188 -5.7077e-07
-2.61014e-06 -5.7077e-07 -0.000199279
0.0019264 9.59553e-05 4.08666e-06
9.59553e-05 0.000315633 1.0021e-06
4.08666e-06 1.0021e-06 0.000208868
0.00470873 -1.26233e-05 -0.000102072
-1.26233e-05 0.00215957 -4.80093e-06
-0.000102072 -4.80093e-06 0.00215246
0.000652885 6.69907e-05 1.55974e-07
6.69907e-05 -9.28019e-05 2.35075e-07
1.55974e-07 2.35075e-07 -0.000147667
0.000731213 7.3185e-05 5.4848e-06
7.3185e-05 -0.000199814 2.11869e-06
5.4848e-06 2.11869e-06 -0.000295623
0.00424337 -4.7067e-05 4.00949e-06
-4.7067e-05 0.00193332 1.54706e-08
4.00949e-06 1.54706e-08 0.00192157
0.00056181 6.77907e-05 1.10987e-05
6.77907e-05 -0.000111216 6.0723e-06
1.10987e-05 6.0723e-06 -0.000166723
0.00357315 -0.00011449 6.12874e-05
-0.00011449 0.00159041 3.75313e-06
6.12874e-05 3.75313e-06 0.00157551
0.00178671 1.25614e-05 -3.03117e-06
1.25614e-05 0.000191329 -7.33394e-07
-3.03117e-06 -7.33394e-07 8.1061e-05
0.00183137 7.10277e-06 4.11752e-07
7.10277e-06 0.000166599 6.02119e-09
4.11752e-07 6.02119e-09 5.24422e-05
0.00182782 4.67625e-06 1.14538e-06
4.67625e-06 0.000136902 6.38966e-07
1.14538e-06 6.38966e-07 2.60248e-05
0.000912264 -1.20437e-05 -1.0371e-05
-1.20437e-05 -0.000191709 -2.13398e-07
-1.0371e-05 -2.13398e-07 -0.000293747
0.00178771 5.19865e-06 1.12051e-06
5.19865e-06 0.000188208 1.73154e-08
1.12051e-06 1.73154e-08 7.67576e-05
0.00182105 9.46121e-06 2.36362e-06
9.46121e-06 0.000161185 3.20392e-08
2.36362e-06 3.20392e-08 4.6732e-05
0.00177945 5.85419e-06 5.19909e-06
5.85419e-06 0.000186732 9.96601e-08
5.19909e-06 9.96601e-08 7.3968e-05
0.000899085 -9.25734e-07 -1.53002e-06
-9.25734e-07 -0.000195495 2.81392e-07
-1.53002e-06 2.81392e-07 -0.000298245
0.000769786 8.56422e-07 -1.39086e-05
8.56422e-07 -9.21714e-05 7.4754e-07
-1.39086e-05 7.4754e-07 -0.000153057
0.00124031 -1.04246e-06 6.77089e-06
-1.04246e-06 1.38808e-05 -1.22391e-06
6.77089e-06 -1.22391e-06 -8.26086e-05
0.000746557 2.81365e-06 2.96505e-07
2.81365e-06 -8.90591e-05 1.52686e-07
2.96505e-07 1.52686e-07 -0.000147016
0.00492001 -8.87015e-06 -0.000107199
-8.87015e-06 0.00225285 9.71132e-07
-0.000107199 9.71132e-07 0.00224773
0.000743615 2.48693e-06 1.24497e-05
2.48693e-06 -7.477e-05 -2.1024e-06
1.24497e-05 -2.1024e-06 -0.000127927
0.00474335 3.88908e-05 5.76126e-06
3.88908e-05 0.00216694 1.65816e-07
5.76126e-06 1.65816e-07 0.0021606
0.00464344 3.00503e-06 0.000108243
3.00503e-06 0.00211404 -1.99962e-06
0.000108243 -1.99962e-06 0.00211013
0.0015615 1.14533e-05 -3.68425e-06
1.14533e-05 8.68544e-05 -1.48329e-06
-3.68425e-06 -1.48329e-06 -2.06274e-05
0.00172056 1.01548e-05 5.46932e-07
1.01548e-05 0.000126512 4.2116e-07
5.46932e-07 4.2116e-07 1.64051e-05
0.00167697 7.16935e-06 7.93358e-07
7.16935e-06 7.58139e-05 7.7027e-07
7.93358e-07 7.7027e-07 -3.37915e-05
0.00121972 1.8644e-05 -8.26724e-06
1.8644e-05 2.07591e-06 -1.71563e-06
-8.26724e-06 -1.71563e-06 -8.99784e-05
0.00151274 2.19865e-05 2.41088e-07
2.19865e-05 6.56441e-05 -1.73573e-07
2.41088e-07 -1.73573e-07 -4.04822e-05
0.00157447 2.00858e-05 1.48998e-06
2.00858e-05 4.94161e-05 -4.14995e-07
1.48998e-06 -4.14995e-07 -6.0431e-05
0.000707908 3.1208e-05 -1.31678e-05
3.1208e-05 -9.90003e-05 -3.21015e-06
-1.31678e-05 -3.21015e-06 -0.000152204
0.0012093 4.64995e-05 -4.80222e-08
4.64995e-05 8.70579e-06 2.3783e-07
-4.80222e-08 2.3783e-07 -8.30375e-05
0.00153437 5.23151e-05 4.04538e-06
5.23151e-05 8.57708e-05 1.33725e-06
4.04538e-06 1.33725e-06 -2.16826e-05
0.00480807 1.72238e-05 -0.000113328
1.72238e-05 0.00219962 -3.97037e-06
-0.000113328 -3.97037e-06 0.0021953
0.000676145 5.08682e-05 2.79917e-08
5.08682e-05 -0.000101285 8.47506e-08
2.79917e-08 8.47506e-08 -0.000154452
0.00118105 7.0637e-05 6.27062e-06
7.0637e-05 1.1277e-05 1.98141e-06
6.27062e-06 1.98141e-06 -8.10168e-05
0.00457312 -4.45915e-06 4.85913e-06
-4.45915e-06 0.00209154 4.15793e-07
4.85913e-06 4.15793e-07 0.0020838
0.000620293 6.17051e-05 1.20509e-05
6.17051e-05 -0.000109005 5.2554e-06
1.20509e-05 5.2554e-06 -0.000163865
0.00403283 -5.331e-05 7.84376e-05
-5.331e-05 0.00182231 4.52105e-06
7.84376e-05 4.52105e-06 0.00181247
0.0012957 5.12665e-06 -9.08424e-06
5.12665e-06 1.68889e-05 -6.73001e-07
-9.08424e-06 -6.73001e-07 -8.14091e-05
0.00160487 7.34192e-06 1.23705e-06
7.34192e-06 9.26102e-05 2.60855e-08
1.23705e-06 2.60855e-08 -1.95247e-05
0.00185542 3.8695e-06 1.89005e-06
3.8695e-06 0.00018089 7.72563e-07
1.89005e-06 7.72563e-07 6.64955e-05
0.000754447 1.54729e-05 -1.43402e-05
1.54729e-05 -0.000107598 -5.69975e-07
-1.43402e-05 -5.69975e-07 -0.000166753
0.000899708 -5.08424e-06 -1.73322e-06
-5.08424e-06 -0.00019888 3.23922e-08
-1.73322e-06 3.23922e-08 -0.000300903
0.0018027 1.21052e-05 5.70253e-06
1.21052e-05 0.000196207 9.10068e-08
5.70253e-06 9.10068e-08 8.47372e-05
0.000889687 -9.52219e-07 6.61597e-06
-9.52219e-07 -0.000199482 -2.45691e-08
6.61597e-06 -2.45691e-08 -0.000302126
0.000748763 5.69099e-06 9.23331e-08
5.69099e-06 -0.000103601 4.22907e-07
9.23331e-08 4.22907e-07 -0.000164438
0.00519811 2.78956e-05 -0.000112482
2.78956e-05 0.00239154 -3.99186e-07
-0.000112482 -3.99186e-07 0.00238627
0.00076295 1.19119e-05 1.3091e-05
1.19119e-05 -8.15616e-05 -1.28662e-06
1.3091e-05 -1.28662e-06 -0.0001397
0.00500985 -2.95924e-06 1.38614e-06
-2.95924e-06 0.00229718 4.7417e-07
1.38614e-06 4.7417e-07 0.00229227
0.00479629 1.11964e-05 0.000113209
1.11964e-05 0.00218943 -1.08289e-06
0.000113209 -1.08289e-06 0.00218542
0.00126449 7.58399e-06 -8.76311e-06
7.58399e-06 1.30066e-05 -1.90852e-06
-8.76311e-06 -1.90852e-06 -8.18928e-05
0.00145105 9.83003e-06 -4.31785e-08
9.83003e-06 2.62308e-05 -1.62729e-07
-4.31785e-08 -1.62729e-07 -8.21031e-05
0.00149902 8.9687e-06 1.80862e-06
8.9687e-06 9.03746e-06 1.2551e-06
1.80862e-06 1.2551e-06 -0.000101339
0.00247537 1.0269e-05 -6.19553e-05
1.0269e-05 0.000834491 -1.94504e-06
-6.19553e-05 -1.94504e-06 0.000791546
0.00122964 2.0062e-05 1.45744e-07
2.0062e-05 7.19161e-06 5.99894e-08
1.45744e-07 5.99894e-08 -8.50936e-05
0.00155469 2.22052e-05 3.89939e-06
2.22052e-05 8.65059e-05 3.79094e-07
3.89939e-06 3.79094e-07 -1.96505e-05
0.00488188 2.2072e-05 -0.000120252
2.2072e-05 0.00223164 -2.93848e-06
-0.000120252 -2.93848e-06 0.0022278
0.000714287 3.29297e-05 2.48107e-08
3.29297e-05 -9.50393e-05 7.80351e-08
2.48107e-08 7.80351e-08 -0.000148346
0.00120951 4.74026e-05 8.63532e-06
4.74026e-05 9.28294e-06 2.41263e-06
8.63532e-06 2.41263e-06 -8.26968e-05
0.00473617 2.47031e-05 1.77652e-06
2.47031e-05 0.00216511 5.59793e-07
1.77652e-06 5.59793e-07 0.00216006
0.000671231 5.03999e-05 1.28383e-05
5.03999e-05 -0.000103433 4.20575e-06
1.28383e-05 4.20575e-06 -0.000156668
0.00443403 6.89354e-06 9.68796e-05
6.89354e-06 0.00201867 4.83586e-06
9.68796e-05 4.83586e-06 0.0020122
0.000786636 7.1791e-06 -1.52998e-05
7.1791e-06 -8.73642e-05 -1.74831e-06
-1.52998e-05 -1.74831e-06 -0.000147962
0.00109941 2.098e-06 3.68606e-07
2.098e-06 -8.76647e-05 5.48721e-07
3.68606e-07 5.48721e-07 -0.000187154
0.00141744 2.09418e-06 5.16737e-06
2.09418e-06 -9.19605e-06 7.98621e-07
5.16737e-06 7.98621e-07 -0.000123142
0.00529297 -4.33827e-05 -0.000111799
-4.33827e-05 0.00244462 -1.79005e-06
-0.000111799 -1.79005e-06 0.00243575
0.000759558 9.84367e-06 -9.85843e-08
9.84367e-06 -0.000103038 1.58744e-07
-9.85843e-08 1.58744e-07 -0.000163366
0.000897315 1.5086e-06 6.79007e-06
1.5086e-06 -0.000200802 2.76912e-07
6.79007e-06 2.76912e-07 -0.000302808
0.000744844 1.43942e-05 1.35509e-05
1.43942e-05 -0.000106049 2.48519e-07
1.35509e-05 2.48519e-07 -0.000167022
0.005255 5.01583e-05 4.23246e-06
5.01583e-05 0.00242289 4.69756e-07
4.23246e-06 4.69756e-07 0.0024157
0.00513043 8.83439e-05 0.000114701
8.83439e-05 0.00236258 1.94679e-07
0.000114701 1.94679e-07 0.00235399
0.00257469 -1.05977e-05 -6.54231e-05
-1.05977e-05 0.000875275 -1.98616e-06
-6.54231e-05 -1.98616e-06 0.000829484
0.00126695 9.49231e-06 -7.18824e-08
9.49231e-06 1.42852e-05 -6.28271e-08
-7.18824e-08 -6.28271e-08 -8.05806e-05
0.00134106 8.34576e-06 3.57564e-06
8.34576e-06 -3.41488e-05 1.0453e-06
3.57564e-06 1.0453e-06 -0.000143335
0.00472395 4.28182e-05 -3.2199e-05
4.28182e-05 0.00215487 -1.39901e-06
-3.2199e-05 -1.39901e-06 0.00214412
0.00076031 1.27321e-05 -1.29522e-07
1.27321e-05 -7.97443e-05 1.7015e-07
-1.29522e-07 1.7015e-07 -0.000135096
0.00125269 2.22982e-05 8.53572e-06
2.22982e-05 1.87724e-05 1.86204e-06
8.53572e-06 1.86204e-06 -7.36856e-05
0.00484154 3.07001e-05 -1.74354e-06
3.07001e-05 0.00221331 5.20527e-07
-1.74354e-06 5.20527e-07 0.002209
0.00071704 3.49565e-05 1.34549e-05
3.49565e-05 -9.25494e-05 3.52479e-06
1.34549e-05 3.52479e-06 -0.000146023
0.00467496 3.51652e-05 0.00010811
3.51652e-05 0.00213504 4.73547e-06
0.00010811 4.73547e-06 0.00212965
0.00176056 -1.69905e-05 -0.000112021
-1.69905e-05 0.000547449 -1.07978e-09
-0.000112021 -1.07978e-09 0.000522783
0.00168852 8.98125e-06 -2.66001e-05
8.98125e-06 0.000395375 5.35847e-07
-2.66001e-05 5.35847e-07 0.000342872
0.000904258 2.34954e-06 8.82535e-06
2.34954e-06 -0.000191493 1.57365e-06
8.82535e-06 1.57365e-06 -0.00029219
0.00527974 -4.83546e-05 4.62398e-06
-4.83546e-05 0.00243937 -1.06324e-06
4.62398e-06 -1.06324e-06 0.00242966
0.000750514 6.17365e-06 1.42554e-05
6.17365e-06 -0.000106422 9.12687e-07
1.42554e-05 9.12687e-07 -0.000167347
0.00528162 5.2525e-07 0.000121929
5.2525e-07 0.0024333 9.8486e-07
0.000121929 9.8486e-07 0.00242798
0.00147005 -7.93815e-05 -7.85389e-06
-7.93815e-05 0.000413762 -8.04915e-07
-7.85389e-06 -8.04915e-07 0.000379808
0.00168202 6.34598e-06 -2.56706e-05
6.34598e-06 0.000401661 9.88196e-08
-2.56706e-05 9.88196e-08 0.000349921
0.00126905 9.31759e-06 8.37676e-06
9.31759e-06 1.55395e-05 1.8225e-06
8.37676e-06 1.8225e-06 -7.93234e-05
0.00318947 1.52965e-05 4.57382e-05
1.52965e-05 0.00132791 5.09307e-07
4.57382e-05 5.09307e-07 0.00131132
0.000773178 1.98553e-05 1.38056e-05
1.98553e-05 -7.28183e-05 3.01313e-06
1.38056e-05 3.01313e-06 -0.000128461
0.00480744 4.21251e-05 0.000113463
4.21251e-05 0.00219794 4.07617e-06
0.000113463 4.07617e-06 0.00219308
0.00524951 -4.03887e-05 -5.67479e-06
-4.03887e-05 0.00241955 4.5248e-07
-5.67479e-06 4.5248e-07 0.00241275
0.000754351 1.66469e-05 1.43564e-05
1.66469e-05 -0.000102664 1.92382e-06
1.43564e-05 1.92382e-06 -0.00016147
0.00527278 5.03988e-05 0.000115454
5.03988e-05 0.00243466 -1.19172e-06
0.000115454 -1.19172e-06 0.00242568
0.00329675 1.09735e-05 5.14364e-05
1.09735e-05 0.00137985 2.17511e-07
5.14364e-05 2.17511e-07 0.00136214
0.00076391 9.95849e-06 1.37762e-05
9.95849e-06 -8.69324e-05 2.53347e-06
1.37762e-05 2.53347e-06 -0.000145237
0.00492625 2.03811e-05 0.000112543
2.03811e-05 0.00225469 2.68594e-06
0.000112543 2.68594e-06 0.00225036
0.00519084 -0.000132215 0.000107742
-0.000132215 0.00240119 -3.85965e-08
0.000107742 -3.85965e-08 0.00238669
0.00506176 -8.14294e-05 0.000108159
-8.14294e-05 0.00232785 9.85933e-07
0.000108159 9.85933e-07 0.00231926
