# vtk DataFile Version 2.0
Wound Healing Simulation
ASCII
DATASET UNSTRUCTURED_GRID
POINTS 3012 float
69.9759 18.75 4
67.2507 60.3285 4
69.976 18.75 2
73.0099 25.446 4
71.1327 20.9142 4
68.6801 16.6661 4
67.8216 19.9261 3.97401
67.2507 60.3286 2
71.1327 54.0858 4
68.6801 58.3339 4
65.6939 62.2254 4
65.3085 58.9989 3.9727
74.6784 42.3946 4
73.7221 47.2057 4
69.9759 18.75 0
73.0099 25.446 2
68.6801 16.6661 2
71.1327 20.9142 2
67.8224 19.9301 2
74.6792 32.6053 4
73.7222 27.7943 4
72.1454 23.1494 4
70.6115 26.2216 3.9739
68.882 21.9577 3.97428
67.2507 14.6715 4
66.6329 17.973 3.97284
65.7653 21.0361 3.9627
67.2507 60.3285 0
71.1327 54.0858 2
68.6801 58.3339 2
65.694 62.2255 2
65.3097 58.9944 2
72.1454 51.8506 4
69.9759 56.25 4
68.8325 53.1141 3.97403
64.0165 64.0165 4
66.6067 57.1328 3.97382
63.8816 60.7624 3.97088
63.4899 57.7631 3.96284
60.3285 67.2507 4
74.6792 42.3947 2
73.7222 47.2057 2
74.9194 39.9526 4
74.2788 44.8158 4
72.166 42.0858 3.97533
73.0099 49.554 4
71.2466 46.5984 3.9739
73.0099 25.446 0
71.1327 20.9142 0
68.6801 16.6661 0
67.8216 19.9261 0.0259877
74.6792 32.6053 2
73.7222 27.7943 2
67.2508 14.6715 2
72.1455 23.1494 2
70.6108 26.2224 2
66.6342 17.9776 2
68.8823 21.9606 2
65.7629 21.0383 2
74.9197 35.0474 4
74.2794 30.1841 4
72.1829 32.9447 3.97584
71.2758 28.4326 3.97406
69.8123 24.0596 3.97404
68.3308 26.9577 3.96402
66.7348 22.9424 3.96316
65.694 12.7746 4
65.3192 16.1062 3.97159
64.6844 19.2071 3.96207
63.7595 22.085 3.96423
71.1327 54.0858 0
65.6939 62.2254 0
68.6801 58.3339 0
65.3085 58.9989 0.0273026
72.1455 51.8506 2
69.9759 56.25 2
68.8328 53.1111 2
64.0165 64.0165 2
66.6079 57.1284 2
63.8828 60.7573 2
63.485 57.7618 2
62.2254 65.694 4
58.8912 65.4123 3.98106
69.7654 50.99 3.97373
67.7797 55.1676 3.97414
66.6145 52.2011 3.96321
62.3321 62.4243 3.97565
64.6384 56.0237 3.96313
62.1934 59.3892 3.96393
61.7375 56.6394 3.96066
58.3339 68.6801 4
60.3285 67.2508 2
73.7221 47.2057 0
74.6784 42.3946 0
74.9197 39.9526 2
74.2794 44.8159 2
72.1652 42.0855 2
73.0099 49.554 2
71.2459 46.5977 2
75 37.5 4
72.4035 39.8027 3.9766
71.7801 44.353 3.97484
69.7977 41.7895 3.96622
70.572 48.8143 3.97362
68.8971 46.0118 3.96535
74.6792 32.6053 0
73.7222 27.7943 0
67.2507 14.6715 0
72.1454 23.1494 0
70.6115 26.2216 0.0260988
68.882 21.9577 0.025719
66.6329 17.973 0.0271637
65.7653 21.0361 0.0373036
74.9197 35.0474 2
74.2794 30.1841 2
72.182 32.9447 2
71.2751 28.4329 2
65.694 12.7745 2
65.3206 16.1111 2
69.8121 24.0613 2
68.3341 26.9585 2
64.6782 19.2096 2
66.7351 22.9441 2
63.7584 22.0859 2
72.4114 35.2252 3.97669
71.8017 30.6777 3.97516
69.8342 33.2721 3.96635
68.9578 29.0432 3.96486
67.589 24.9197 3.96353
66.0529 27.6727 3.96953
64.0165 10.9835 4
64.622 23.8767 3.96626
63.885 14.3319 3.96949
63.4977 17.4596 3.96104
62.7844 20.3738 3.96221
61.8588 23.0339 3.96944
60.6803 11.1022 3.97644
57.6045 11.4786 3.96797
72.1454 51.8506 0
69.9759 56.25 0
68.8325 53.1141 0.0259694
64.0165 64.0165 0
63.8816 60.7624 0.0291169
66.6067 57.1328 0.0261802
63.4899 57.7631 0.0371572
62.2255 65.694 2
58.8934 65.4077 2
69.7652 50.988 2
67.7804 55.1638 2
66.6144 52.1996 2
62.3342 62.419 2
64.631 56.0214 2
62.1905 59.3893 2
61.7344 56.6394 2
60.6653 63.9728 3.9782
57.0216 66.7334 3.98378
57.5501 63.668 3.97114
67.475 50.1696 3.9638
65.6714 54.1653 3.96299
64.3818 51.3391 3.96625
60.7668 60.9158 3.967
62.7072 55.0241 3.9634
60.5943 58.1171 3.95889
60.1676 55.7121 3.96518
56.25 69.9759 4
58.3339 68.6801 2
60.3285 67.2507 0
58.9176 9.66021 3.97815
62.2254 9.30607 4
73.0099 49.554 0
74.2788 44.8158 0
71.2466 46.5984 0.0260989
72.166 42.0858 0.0246708
74.9194 39.9526 0
75 37.5 2
72.4032 39.8025 2
71.7797 44.3526 2
69.7969 41.7892 2
70.5715 48.8131 2
68.901 46.0115 2
72.4869 37.5128 3.97624
70.0355 39.6581 3.96685
69.4237 43.9063 3.96609
67.4796 41.4864 3.97455
68.2393 48.1018 3.96448
66.5556 45.411 3.97214
74.9197 35.0474 0
74.2794 30.1841 0
72.1829 32.9447 0.024162
71.2758 28.4326 0.0259356
65.694 12.7746 0
65.3192 16.1062 0.0284107
69.8123 24.0596 0.0259609
68.3308 26.9577 0.0359771
66.7348 22.9424 0.0368384
64.6844 19.2071 0.0379291
63.7595 22.085 0.035773
72.4111 35.2251 2
71.8014 30.678 2
69.8334 33.2726 2
68.9592 29.0438 2
64.0165 10.9835 2
63.8866 14.3372 2
63.4923 17.4613 2
67.5908 24.921 2
66.0507 27.6739 2
62.7842 20.3742 2
64.62 23.8779 2
61.8573 23.0347 2
60.6829 11.1074 2
57.605 11.4714 2
70.0524 35.3948 3.96694
69.4609 31.1537 3.96546
67.5435 33.6065 3.97382
66.6381 29.6537 3.97128
65.3844 25.7422 3.96801
63.8694 28.3273 3.97601
62.3372 12.6591 3.97449
62.6038 24.7232 3.97206
62.1876 15.8033 3.96405
61.707 18.7404 3.95966
60.9953 21.4382 3.96587
60.0922 23.8567 3.97316
59.238 12.8127 3.96406
55.8672 10.2649 3.97282
56.3921 13.178 3.96808
69.7654 50.99 0.0262715
62.2254 65.694 0
58.8912 65.4123 0.0189355
67.7797 55.1676 0.0258633
66.6145 52.2011 0.0367923
62.3321 62.4243 0.0243522
62.1934 59.3892 0.0360684
64.6384 56.0237 0.0368731
61.7375 56.6394 0.0393431
60.6676 63.9697 2
57.0245 66.7298 2
57.5509 63.6719 2
67.4764 50.1685 2
65.6687 54.1634 2
64.3805 51.3384 2
60.7643 60.917 2
62.7066 55.0242 2
60.5929 58.1182 2
60.166 55.7119 2
55.0676 67.9306 3.98655
59.2122 62.3336 3.96739
55.7984 64.8936 3.97295
56.3143 62.0387 3.97393
65.1661 49.365 3.96818
63.5657 53.2458 3.96471
62.1519 50.5671 3.97075
59.3024 59.5173 3.95969
60.8685 54.2297 3.96777
59.1351 56.9326 3.96088
59.0178 55.087 3.96827
48.0993 68.5725 3.98227
50.9454 69.9308 3.98866
54.0858 71.1327 4
56.25 69.976 2
58.3339 68.6801 0
57.055 8.33919 3.97986
60.3285 7.74928 4
58.9207 9.66435 2
62.2255 9.30602 2
70.572 48.8143 0.0263754
71.7801 44.353 0.0251577
68.8971 46.0118 0.0346525
69.7977 41.7895 0.0337837
72.4035 39.8027 0.0234037
75 37.5 0
72.4861 37.5126 2
70.0352 39.6581 2
69.4234 43.906 2
67.4771 41.486 2
68.2415 48.1009 2
66.5529 45.4101 2
70.1236 37.5234 3.96699
67.7242 39.5085 3.97448
67.0877 43.4504 3.97386
65.278 41.1849 3.97632
65.9035 47.3807 3.97025
64.3441 44.7896 3.97637
72.4114 35.2252 0.0233109
71.8017 30.6777 0.0248427
69.8342 33.2721 0.0336533
68.9578 29.0432 0.0351399
64.0165 10.9835 0
63.885 14.3319 0.0305061
63.4977 17.4596 0.038964
67.589 24.9197 0.0364707
66.0529 27.6727 0.0304674
64.622 23.8767 0.0337432
62.7844 20.3738 0.0377857
61.8588 23.0339 0.0305561
60.6803 11.1022 0.02356
57.6045 11.4786 0.0320283
70.0522 35.3951 2
69.4604 31.1544 2
67.5412 33.607 2
66.6365 29.6545 2
62.3395 12.6646 2
62.1852 15.8044 2
61.706 18.7406 2
65.3821 25.7435 2
63.8664 28.3287 2
60.9949 21.4384 2
62.6018 24.7242 2
60.0909 23.8579 2
59.2377 12.813 2
56.3929 13.1751 2
55.8691 10.2652 2
67.7625 35.5565 3.9741
67.1476 31.6453 3.97314
65.4363 33.9568 3.97642
64.3798 30.2543 3.97603
63.2731 26.4937 3.97446
61.8586 28.8821 3.9758
60.7666 14.2492 3.96475
60.6836 25.4632 3.97497
60.5448 17.1802 3.95812
60.0069 19.9199 3.96203
59.3389 22.3951 3.96875
58.5654 24.4843 3.97425
54.0324 9.1543 3.97099
57.8909 14.3857 3.96167
54.7739 12.0755 3.96881
55.2848 14.7292 3.96116
67.475 50.1696 0.0362031
57.0216 66.7334 0.0162246
60.6653 63.9728 0.021803
57.5501 63.668 0.0288626
65.6714 54.1653 0.0370113
64.3818 51.3391 0.0337469
60.7668 60.9158 0.0330027
60.5943 58.1171 0.0411129
62.7072 55.0241 0.0366027
60.1676 55.7121 0.0348214
55.0707 67.9282 2
59.2116 62.3372 2
55.7997 64.8932 2
56.3126 62.0385 2
65.164 49.364 2
63.5653 53.2456 2
62.1508 50.5665 2
59.3086 59.5227 2
60.8691 54.2299 2
59.1421 56.9346 2
59.0237 55.0881 2
53.0396 68.9989 3.98764
53.9626 66.0025 3.97568
57.8631 60.8275 3.96702
54.6692 63.16 3.9697
55.1893 60.5583 3.97526
62.8876 48.5817 3.97314
61.4891 52.4912 3.96919
59.86 49.8967 3.97304
57.9189 58.1944 3.95991
59.0484 53.8405 3.97018
57.8662 55.7001 3.9631
50.1056 67.8493 3.98059
47.4594 66.5669 3.97638
46.0534 69.1521 3.98416
48.1007 68.572 2
48.7996 70.7224 3.98956
50.948 69.9298 2
51.8506 72.1454 4
54.0858 71.1327 2
56.25 69.9759 0
55.0997 7.1433 3.98389
58.3339 6.31992 4
57.0583 8.34355 2
60.3286 7.74926 2
58.9176 9.66021 0.0218487
62.2254 9.30607 0
68.2393 48.1018 0.0355228
69.4237 43.9063 0.0339133
66.5556 45.411 0.0278635
67.4796 41.4864 0.0254483
70.0355 39.6581 0.0331485
72.4869 37.5128 0.0237612
70.1229 37.5235 2
67.7213 39.5084 2
67.0863 43.4498 2
65.2754 41.1846 2
65.9014 47.3798 2
64.342 44.7886 2
67.8246 37.5247 3.97433
65.5189 39.36 3.97647
64.8867 42.982 3.9762
63.3601 40.894 3.97663
63.6499 46.6461 3.97517
62.3714 44.1365 3.97603
70.0524 35.3948 0.033063
69.4609 31.1537 0.0345435
67.5435 33.6065 0.0261826
66.6381 29.6537 0.0287205
62.3372 12.6591 0.0255064
62.1876 15.8033 0.0359519
61.707 18.7404 0.0403416
65.3844 25.7422 0.0319888
63.8694 28.3273 0.0239889
62.6038 24.7232 0.0279424
60.9953 21.4382 0.0341337
60.0922 23.8567 0.0268396
59.238 12.8127 0.035935
56.3921 13.178 0.0319203
55.8672 10.2649 0.0271794
67.7598 35.5569 2
67.1461 31.6459 2
65.4324 33.9573 2
64.3774 30.2553 2
60.7655 14.25 2
60.537 17.1815 2
60.0048 19.9201 2
63.2709 26.4949 2
61.8567 28.8826 2
59.3412 22.3956 2
60.682 25.4646 2
58.5621 24.4865 2
57.8903 14.3857 2
55.2858 14.7259 2
54.0352 9.15201 2
54.7733 12.0748 2
65.6175 35.6836 3.97639
64.9063 32.199 3.97587
63.9335 34.2857 3.97629
62.177 30.7177 3.97581
61.2681 27.1897 3.97543
60.3657 29.2639 3.97594
59.2724 15.7204 3.95819
58.8759 25.9627 3.97568
58.9639 18.4535 3.95937
58.4382 20.9965 3.96367
57.8883 23.2628 3.97016
57.5164 24.8516 3.97568
52.1089 8.16481 3.97426
53.0454 11.0709 3.96785
56.6293 15.8229 3.95769
53.7891 13.7619 3.97229
54.3164 16.1017 3.95929
55.0676 67.9306 0.0134457
65.1661 49.365 0.0318188
55.7984 64.8936 0.0270542
59.2122 62.3336 0.0326143
56.3143 62.0387 0.0260674
63.5657 53.2458 0.0352909
62.1519 50.5671 0.0292493
59.3024 59.5173 0.0403069
59.1351 56.9326 0.0391171
60.8685 54.2297 0.0322341
59.0178 55.087 0.031735
53.0425 68.9972 2
53.964 66.0012 2
57.8633 60.8293 2
54.6686 63.1615 2
55.1868 60.5578 2
62.886 48.5809 2
61.4893 52.4911 2
59.8612 49.8964 2
57.9196 58.1963 2
59.0533 53.8412 2
57.8625 55.6987 2
52.0666 66.9909 3.9788
52.9436 64.1908 3.97404
56.6059 59.4331 3.9618
53.6542 61.5551 3.97306
54.2147 59.2568 3.9685
60.5331 47.7603 3.97421
59.3537 51.9868 3.97109
57.5124 49.4577 3.97427
56.6182 56.8931 3.96201
56.7648 53.9828 3.9665
50.1071 67.8492 2
49.3321 65.9053 3.97596
47.4604 66.5659 2
46.8865 64.7106 3.97632
45.5559 67.0853 3.97923
43.9713 69.5846 3.98521
46.055 69.1527 2
46.6062 71.3666 3.99045
48.0993 68.5725 0.0177329
48.8018 70.7216 2
49.554 73.0099 4
50.9454 69.9308 0.0113372
51.8506 72.1455 2
54.0858 71.1327 0
53.0623 6.07405 3.98786
55.1033 7.14539 2
56.25 5.02411 4
58.3339 6.3199 2
57.055 8.33919 0.0201421
60.3285 7.74928 0
65.9035 47.3807 0.0297476
67.0877 43.4504 0.0261407
64.3441 44.7896 0.0236282
65.278 41.1849 0.0236769
67.7242 39.5085 0.025521
70.1236 37.5234 0.033012
67.8219 37.5248 2
65.5158 39.3598 2
64.8835 42.9812 2
63.3601 40.8936 2
63.648 46.6451 2
62.3705 44.1364 2
65.6281 37.5054 3.97641
63.5113 39.2519 3.9766
62.9114 42.4986 3.97613
61.9444 40.6556 3.97656
61.5141 45.8146 3.97575
60.9122 43.595 3.97587
67.7625 35.5565 0.025899
67.1476 31.6453 0.026861
65.4363 33.9568 0.0235818
64.3798 30.2543 0.0239699
60.7666 14.2492 0.0352475
60.5448 17.1802 0.0418812
60.0069 19.9199 0.0379737
63.2731 26.4937 0.0255415
61.8586 28.8821 0.0242049
60.6836 25.4632 0.0250268
59.3389 22.3951 0.0312501
58.5654 24.4843 0.0257451
57.8909 14.3857 0.0383312
55.2848 14.7292 0.0388421
54.0324 9.1543 0.0290108
54.7739 12.0755 0.0311875
65.6142 35.6837 2
64.9031 32.1996 2
63.9326 34.2859 2
62.1762 30.7178 2
59.2739 15.7181 2
58.9713 18.451 2
58.4377 20.9977 2
61.2663 27.1905 2
60.3656 29.2643 2
57.878 23.2668 2
58.8747 25.9633 2
57.5177 24.8533 2
56.6202 15.8244 2
54.3192 16.0963 2
53.7858 13.7555 2
52.1111 8.16534 2
53.047 11.0668 2
63.7219 35.6545 3.97636
62.5018 33.1051 3.97608
60.0777 30.7278 3.97568
59.0561 28.0643 3.9757
57.8403 17.0722 3.95762
57.2188 25.9287 3.9757
57.4667 19.6143 3.95907
56.9808 22.0219 3.96435
56.7111 24.15 3.97168
50.1096 7.29388 3.98038
51.2233 10.1547 3.97138
52.1498 12.8803 3.9647
55.4437 17.0803 3.95681
52.935 15.3641 3.9604
53.6687 17.1027 3.95875
53.0396 68.9989 0.0123625
53.9626 66.0025 0.0243154
62.8876 48.5817 0.0268566
54.6692 63.16 0.0303
57.8631 60.8275 0.032981
55.1893 60.5583 0.0247399
61.4891 52.4912 0.0308056
59.86 49.8967 0.0269564
57.9189 58.1944 0.0400877
57.8662 55.7001 0.0369007
59.0484 53.8405 0.0298183
52.0681 66.9903 2
52.9436 64.1941 2
56.6051 59.4337 2
53.6527 61.5558 2
54.2096 59.2584 2
60.5327 47.7596 2
59.3557 51.9868 2
57.513 49.4572 2
56.6138 56.8962 2
56.7618 53.9817 2
51.162 65.1118 3.97617
52.0254 62.4929 3.97086
55.3886 58.1749 3.96078
52.7877 60.0511 3.96905
53.5687 58.3949 3.96365
57.6774 46.6763 3.97586
57.1223 51.6352 3.97119
55.649 49.3647 3.97334
55.2552 55.6755 3.96208
54.9442 53.2243 3.96223
50.1056 67.8493 0.0194087
49.3328 65.9055 2
48.6096 64.0998 3.97813
47.4594 66.5669 0.0236218
45.5565 67.0874 2
46.8866 64.7105 2
46.3718 63.0192 3.98177
45.1287 65.1776 3.97807
43.63 67.4582 3.98093
41.8591 69.8715 3.9849
43.9723 69.5849 2
44.3738 71.8613 3.99083
46.0534 69.1521 0.0158409
46.608 71.3665 2
47.2057 73.7222 4
48.7996 70.7224 0.0104428
49.554 73.0099 2
51.8506 72.1454 0
50.9536 5.13429 3.9899
53.0651 6.07503 2
54.0858 3.86728 4
55.0997 7.1433 0.0161132
56.25 5.02406 2
58.3339 6.31992 0
63.6499 46.6461 0.0248269
64.8867 42.982 0.0237984
62.3714 44.1365 0.023973
63.3601 40.894 0.0233731
65.5189 39.36 0.0235265
67.8246 37.5247 0.0256729
65.6248 37.5053 2
63.5114 39.2518 2
62.9115 42.4981 2
61.946 40.6555 2
61.5132 45.8141 2
60.9126 43.5953 2
63.5758 37.4604 3.9765
61.6504 39.3312 3.97681
60.6559 41.887 3.97669
59.6588 44.6432 3.97585
65.6175 35.6836 0.0236082
64.9063 32.199 0.0241339
63.9335 34.2857 0.0237052
62.177 30.7177 0.0241878
59.2724 15.7204 0.04181
58.9639 18.4535 0.0406297
58.4382 20.9965 0.0363279
61.2681 27.1897 0.0245675
60.3657 29.2639 0.024061
58.8759 25.9627 0.0243178
57.8883 23.2628 0.0298383
57.5164 24.8516 0.0243245
56.6293 15.8229 0.042315
54.3164 16.1017 0.0407102
53.7891 13.7619 0.0277096
52.1089 8.16481 0.0257432
53.0454 11.0709 0.0321538
63.7218 35.6546 2
62.5025 33.1054 2
60.0784 30.7277 2
57.8456 17.0699 2
57.4807 19.611 2
56.9772 22.0248 2
59.0558 28.0644 2
56.7192 24.1515 2
57.2219 25.9304 2
50.112 7.29142 2
55.4448 17.0825 2
53.6764 17.0959 2
52.9293 15.3603 2
52.151 12.8825 2
51.2252 10.1511 2
61.694 35.3912 3.97654
59.6914 32.8326 3.97601
57.9791 30.2276 3.97555
56.6888 27.5857 3.97606
56.4818 18.2776 3.95884
55.7391 25.3335 3.97509
56.0495 20.6943 3.95997
55.6484 23.0848 3.96462
48.0555 6.53337 3.98511
49.3191 9.34995 3.97518
50.4157 12.0549 3.96975
51.3333 14.5953 3.96273
54.2815 18.0588 3.95996
52.2871 17.1744 3.95653
52.0666 66.9909 0.0211955
52.9436 64.1908 0.0259597
60.5331 47.7603 0.0257945
53.6542 61.5551 0.0269382
56.6059 59.4331 0.0381989
54.2147 59.2568 0.0315004
59.3537 51.9868 0.0289069
57.5124 49.4577 0.0257254
56.6182 56.8931 0.0379902
56.7648 53.9828 0.0335005
51.1621 65.1108 2
52.0247 62.4943 2
55.3853 58.1753 2
52.7861 60.0536 2
53.5654 58.3975 2
57.6774 46.6756 2
57.1199 51.6343 2
55.6459 49.3636 2
55.2524 55.6755 2
54.9433 53.2243 2
50.3332 63.3578 3.97627
51.2031 60.8634 3.97351
54.0934 57.1776 3.96591
52.2075 58.5414 3.96487
55.884 44.0077 3.97615
54.7864 47.6836 3.97533
54.515 51.1998 3.96552
53.7135 54.4065 3.96437
49.3321 65.9053 0.0240402
48.6087 64.099 2
47.9451 62.4466 3.98355
45.5559 67.0853 0.0207708
46.8865 64.7106 0.0236815
43.6303 67.4586 2
46.3713 63.0214 2
45.1296 65.1747 2
45.97 61.5473 3.99108
44.7607 63.4189 3.97664
43.3559 65.4899 3.97837
41.6627 67.6765 3.9804
39.7015 70.0177 3.98426
41.8599 69.872 2
42.1086 72.2054 3.9912
43.9713 69.5846 0.0147894
44.3752 71.861 2
44.8159 74.2794 4
46.6062 71.3666 0.00955448
47.2057 73.7222 2
49.554 73.0099 0
48.7851 4.32458 3.99074
50.9555 5.13401 2
51.8506 2.85458 4
53.0623 6.07405 0.0121385
54.0858 3.86728 2
56.25 5.02411 0
61.5141 45.8146 0.0242518
62.9114 42.4986 0.0238696
60.9122 43.595 0.0241259
61.9444 40.6556 0.0234362
63.5113 39.2519 0.0233982
65.6281 37.5054 0.02359
63.5757 37.4604 2
61.6519 39.3312 2
60.6581 41.8871 2
59.6597 44.6432 2
61.4777 37.447 3.97689
59.5996 39.8036 3.97675
58.2711 42.8082 3.97589
63.7219 35.6545 0.023638
62.5018 33.1051 0.0239174
60.0777 30.7278 0.024315
57.8403 17.0722 0.0423811
57.4667 19.6143 0.0409312
56.9808 22.0219 0.0356491
59.0561 28.0643 0.0243021
57.2188 25.9287 0.0242972
56.7111 24.15 0.0283211
55.4437 17.0803 0.0431891
53.6687 17.1027 0.0412492
52.935 15.3641 0.0396029
50.1096 7.29388 0.0196214
52.1498 12.8803 0.035297
51.2233 10.1547 0.0286157
61.6956 35.3913 2
59.6919 32.8318 2
57.9802 30.2269 2
56.4831 18.2773 2
56.0739 20.6885 2
55.657 23.0879 2
56.6902 27.5875 2
55.7483 25.3387 2
48.0565 6.53283 2
49.3206 9.34823 2
54.2931 18.0606 2
52.2775 17.1719 2
51.3311 14.5965 2
50.4179 12.0545 2
59.2322 35.1638 3.97652
57.2413 32.3904 3.97548
55.8246 29.5384 3.97572
54.7832 26.8653 3.97523
55.1481 19.3392 3.96216
54.4258 24.3015 3.9728
54.6342 21.7687 3.96072
45.9623 5.88706 3.98714
43.3742 7.48173 3.98261
47.3528 8.63579 3.97963
48.5878 11.3311 3.97198
49.6763 13.8111 3.96749
50.5647 16.2506 3.96004
52.9767 18.8342 3.96497
51.205 18.2448 3.95859
51.162 65.1118 0.0238319
52.0254 62.4929 0.0291367
57.6774 46.6763 0.0241447
52.7877 60.0511 0.0309528
55.3886 58.1749 0.0392223
53.5687 58.3949 0.0363486
57.1223 51.6352 0.0288063
55.649 49.3647 0.0266648
55.2552 55.6755 0.0379217
54.9442 53.2243 0.0377684
50.3323 63.357 2
51.2016 60.8628 2
54.0916 57.1788 2
52.2017 58.5432 2
55.8857 44.0089 2
54.7851 47.6826 2
54.511 51.1986 2
53.7087 54.4073 2
49.5643 61.7163 3.97452
54.5987 41.61 3.97387
50.4886 59.2491 3.96698
51.9931 56.3801 3.96338
53.2762 45.3139 3.97417
52.6323 49.1051 3.96973
52.2244 52.6808 3.95938
48.6096 64.0998 0.021866
47.9447 62.444 2
47.301 60.976 3.99387
43.63 67.4582 0.0190668
45.1287 65.1776 0.0219273
46.3718 63.0192 0.018226
41.6634 67.6759 2
43.3578 65.4904 2
45.9701 61.5498 2
44.7607 63.4171 2
45.736 60.593 3.99248
44.4717 61.7919 3.97865
43.143 63.6963 3.97824
41.5463 65.628 3.97544
39.6325 67.7539 3.97943
37.526 70.0419 3.98366
39.7022 70.0178 2
39.8161 72.4022 3.99135
41.8591 69.8715 0.0150969
42.1096 72.2057 2
42.3947 74.6792 4
44.3738 71.8613 0.00917337
44.8159 74.2794 2
47.2057 73.7222 0
43.8517 5.3634 3.98655
46.5713 3.64903 3.99135
48.786 4.32456 2
49.554 1.99015 4
50.9536 5.13429 0.0100974
51.8506 2.85453 2
54.0858 3.86728 0
59.6588 44.6432 0.0241537
60.6559 41.887 0.0233145
61.6504 39.3312 0.0231893
63.5758 37.4604 0.0235046
61.4786 37.4471 2
59.602 39.803 2
58.2729 42.809 2
59.088 37.5666 3.97737
57.1893 40.5812 3.97732
53.9974 39.631 3.97543
61.694 35.3912 0.0234585
59.6914 32.8326 0.0239945
57.9791 30.2276 0.0244491
56.4818 18.2776 0.0411597
56.0495 20.6943 0.0400317
55.6484 23.0848 0.0353837
56.6888 27.5857 0.0239431
55.7391 25.3335 0.0249103
54.2815 18.0588 0.0400366
52.2871 17.1744 0.0434726
51.3333 14.5953 0.0372665
48.0555 6.53337 0.0148859
49.3191 9.34995 0.0248158
50.4157 12.0549 0.0302461
59.2338 35.1633 2
45.9628 5.88595 2
43.3745 7.47953 2
57.2415 32.3906 2
55.8237 29.5375 2
55.1371 19.3445 2
54.6731 21.7675 2
54.4272 24.3091 2
54.7846 26.8651 2
47.3538 8.63369 2
48.5898 11.3279 2
52.9795 18.8016 2
51.2048 18.237 2
50.5669 16.2518 2
49.6755 13.8154 2
56.555 34.8263 3.97704
54.8693 31.6867 3.9754
53.7328 28.653 3.97674
53.1622 25.7825 3.97434
53.7363 20.318 3.96255
53.1684 22.9597 3.96098
41.4003 7.08514 3.98304
45.3596 8.00141 3.98656
42.8665 9.42995 3.97411
46.6611 10.6745 3.97758
47.715 13.1444 3.97181
48.874 15.4853 3.96689
49.9073 17.8138 3.95672
51.4927 19.532 3.98049
50.3332 63.3578 0.023729
51.2031 60.8634 0.0264939
55.884 44.0077 0.0238547
54.7864 47.6836 0.0246748
52.2075 58.5414 0.0351345
54.0934 57.1776 0.034086
54.515 51.1998 0.0344811
53.7135 54.4065 0.0356334
49.5635 61.7146 2
54.5936 41.6063 2
50.4851 59.252 2
51.9983 56.3844 2
53.2708 45.3115 2
52.6293 49.103 2
52.2274 52.6811 2
48.7962 60.1657 3.98383
51.3263 42.4794 3.9834
49.6584 57.5431 3.9643
50.2898 54.2962 3.96061
50.9452 47.0118 3.97589
50.6496 50.749 3.95416
47.0333 43.4949 3.97113
47.9451 62.4466 0.0164516
47.3012 60.9743 2
46.5749 59.7637 3.99332
41.6627 67.6765 0.0196024
43.3559 65.4899 0.0216324
44.7607 63.4189 0.0233646
45.97 61.5473 0.00892204
39.6335 67.7544 2
41.5477 65.6257 2
45.736 60.5955 2
43.1421 63.6947 2
44.4702 61.7928 2
44.593 60.2473 3.99486
42.941 62.0475 3.97518
41.5984 63.7962 3.97755
39.6471 65.5928 3.97492
37.5637 67.7349 3.97776
31.699 65.1111 3.97421
33.3937 67.4735 3.97797
35.3343 69.9528 3.98406
37.526 70.0437 2
37.5091 72.4564 3.99188
39.7015 70.0177 0.0157394
39.8169 72.4022 2
39.9526 74.9197 4
42.1086 72.2054 0.00879758
42.3947 74.6792 2
44.8159 74.2794 0
41.7366 4.97136 3.98774
43.852 5.36172 2
44.327 3.11184 3.99218
46.5719 3.6487 2
47.2057 1.27793 4
48.7851 4.32458 0.00925925
49.554 1.99013 2
51.8506 2.85458 0
58.2711 42.8082 0.0241123
59.5996 39.8036 0.0232509
61.4777 37.447 0.023105
59.0895 37.5667 2
57.193 40.583 2
53.9918 39.6397 2
55.9076 37.873 3.97692
48.3504 41.1948 3.96864
51.9073 39.2587 3.98041
39.4439 6.80838 3.98302
59.2322 35.1638 0.0234814
57.2413 32.3904 0.0245154
55.8246 29.5384 0.0242767
55.1481 19.3392 0.0378379
54.6342 21.7687 0.0392791
54.4258 24.3015 0.0272031
54.7832 26.8653 0.0247729
52.9767 18.8342 0.0350298
51.205 18.2448 0.0414061
50.5647 16.2506 0.0399648
45.9623 5.88706 0.0128606
49.6763 13.8111 0.0325112
47.3528 8.63579 0.0203693
48.5878 11.3311 0.0280196
43.3742 7.48173 0.0173907
56.5569 34.8243 2
41.4005 7.08505 2
45.3599 7.99997 2
42.8663 9.42832 2
54.871 31.6864 2
53.7316 28.656 2
53.7394 20.3293 2
53.1525 22.9659 2
53.1607 25.7817 2
46.6624 10.6695 2
47.7161 13.1406 2
51.5044 19.5281 2
49.9055 17.8187 2
48.8695 15.5036 2
53.8179 34.0324 3.9749
52.5551 30.753 3.97506
51.8478 27.5173 3.97493
51.6661 24.411 3.97702
52.1251 21.2832 3.9787
41.0134 9.05908 3.97664
44.7266 10.0036 3.98625
42.4568 10.9142 4.00707
45.9775 12.7487 3.96635
47.6352 14.6638 3.96587
48.0162 17.0655 3.96521
49.7117 19.9298 3.98334
49.5643 61.7163 0.0254844
50.4886 59.2491 0.0330241
54.5987 41.61 0.0261273
53.2762 45.3139 0.0258257
52.6323 49.1051 0.0302721
51.9931 56.3801 0.0366177
52.2244 52.6808 0.0406237
48.7935 60.1624 2
51.3386 42.4943 2
49.656 57.5424 2
50.2918 54.2996 2
50.947 47.0114 2
50.6542 50.7487 2
47.0425 43.5336 2
47.9049 58.6743 3.99058
49.0289 45.0428 3.98145
48.3995 55.8217 3.95602
48.7316 52.4419 3.97658
48.9951 48.82 3.96992
44.7457 39.7492 3.83959
45.2641 42.4272 3.88258
45.5615 45.4814 3.98242
42.5996 40.9765 3.63585
41.4393 41.6919 3.43442
47.301 60.976 0.00612607
46.5726 59.7631 2
45.4109 58.758 3.99528
39.6325 67.7539 0.0205671
41.5463 65.628 0.0245643
43.143 63.6963 0.0217557
44.4717 61.7919 0.0213493
45.736 60.593 0.00751636
41.5987 63.7929 2
37.5644 67.7372 2
39.6491 65.5934 2
44.5944 60.2488 2
42.9389 62.0481 2
41.7453 62.454 3.97705
42.4564 59.9421 3.9846
39.8939 63.5288 3.97666
37.6419 65.4889 3.97417
35.4643 67.6449 3.97774
33.577 65.3218 3.97423
31.9619 63.2669 3.97739
29.8873 64.6995 3.97899
31.6983 65.1105 2
31.379 67.1842 3.97828
33.393 67.4751 2
33.1581 69.7464 3.98405
35.3337 69.9544 2
35.1961 72.3712 3.99199
37.526 70.0419 0.0163403
37.5095 72.457 2
37.5 75 4
39.8161 72.4022 0.00865116
39.9526 74.9197 2
42.3947 74.6792 0
39.6248 4.71889 3.98879
41.7367 4.97098 2
42.0636 2.71886 3.99255
43.8517 5.3634 0.013446
44.3271 3.111 2
44.8158 0.721173 4
46.5713 3.64903 0.00865386
47.2057 1.27779 2
49.554 1.99015 0
57.1893 40.5812 0.0226765
59.088 37.5666 0.0226275
53.9974 39.631 0.0245671
48.3736 41.2066 2
55.9121 37.8714 2
51.9013 39.2277 2
52.7619 36.6149 3.97724
46.281 40.2724 3.89039
49.2821 38.4976 3.9811
37.5179 6.67728 3.98497
39.4446 6.80698 2
39.2114 8.70183 3.98096
35.944 8.49865 3.98278
56.555 34.8263 0.0229567
54.8693 31.6867 0.0246035
53.7328 28.653 0.0232628
53.7363 20.318 0.0374483
53.1684 22.9597 0.0390221
53.1622 25.7825 0.0256557
51.4927 19.532 0.0195082
49.9073 17.8138 0.0432839
48.874 15.4853 0.0331097
45.3596 8.00141 0.0134397
47.715 13.1444 0.0281916
46.6611 10.6745 0.0224205
41.4003 7.08514 0.0169579
42.8665 9.42995 0.0258894
53.8142 34.0247 2
41.0143 9.06098 2
44.7256 10.0015 2
42.458 10.9172 2
52.5459 30.7505 2
51.8602 27.5184 2
52.1259 21.2912 2
51.648 24.4121 2
45.9789 12.7423 2
47.6276 14.6355 2
49.7288 19.9382 2
48.0132 17.0742 2
51.297 32.9713 3.98125
50.3888 29.4801 3.97657
50.1564 26.0079 3.97019
49.6901 22.5378 3.98482
40.5607 11.6206 3.98507
43.8325 11.9156 3.97236
45.7537 15.5202 3.9909
47.4184 19.5504 3.98201
45.1949 37.4846 3.84024
48.7962 60.1657 0.0161746
49.6584 57.5431 0.0356999
51.3263 42.4794 0.0165963
50.9452 47.0118 0.0241089
50.6496 50.749 0.0458384
50.2898 54.2962 0.0393934
47.0333 43.4949 0.0288701
47.9004 58.6791 2
49.0438 45.0561 2
48.3956 55.8241 2
48.7336 52.4473 2
49.0002 48.8227 2
44.8577 39.7759 2
45.2931 42.4473 2
45.5705 45.5013 2
42.6632 41.0332 2
41.4806 41.7171 2
46.721 57.2788 3.98207
43.295 39.3477 3.63157
41.8221 40.6498 3.43084
47.2446 47.0628 3.98343
46.9031 54.12 3.9584
47.0947 50.5797 3.97708
44.1436 47.1116 3.98694
43.9172 41.7734 3.83947
44.0655 44.2178 3.873
41.7107 42.3389 3.68547
40.5053 41.9773 3.3929
46.5749 59.7637 0.00667937
45.4101 58.7567 2
43.8182 57.6321 3.98305
37.5637 67.7349 0.0222364
39.6471 65.5928 0.0250805
41.5984 63.7962 0.0224471
42.941 62.0475 0.0248245
44.593 60.2473 0.00513973
35.4642 67.6473 2
41.7432 62.4566 2
39.893 63.5294 2
37.6431 65.4917 2
42.459 59.9408 2
40.6155 61.5946 3.98392
40.4201 58.1145 3.98583
37.8374 63.1851 3.97251
35.5732 65.4123 3.97644
33.5768 65.3216 2
31.9643 63.2702 2
33.6303 63.3129 3.97638
30.3825 62.8305 3.98156
32.1329 61.9699 3.98796
26.8876 61.4406 3.98425
28.0694 64.1289 3.9811
29.8871 64.6994 2
29.4092 66.7473 3.97771
31.699 65.1111 0.0257863
31.3784 67.1843 2
31.0161 69.4119 3.98368
33.3937 67.4735 0.0220293
33.1571 69.7477 2
32.8944 72.1456 3.99133
35.3343 69.9528 0.0159415
35.1957 72.372 2
35.0474 74.9194 4
37.5091 72.4564 0.00811873
37.5 75 2
39.9526 74.9197 0
35.6223 6.729 3.98374
37.5247 4.61782 3.9893
39.6247 4.71759 2
39.7901 2.47542 3.99273
41.7366 4.97136 0.0122626
42.0633 2.71856 2
42.3946 0.32156 4
44.327 3.11184 0.00782184
44.8159 0.72056 2
47.2057 1.27793 0
48.3504 41.1948 0.0313572
55.9076 37.873 0.0230776
51.9073 39.2587 0.0195943
46.3022 40.2799 2
49.2813 38.487 2
52.7807 36.6398 2
50.0918 35.5514 3.97503
46.9286 37.7427 3.89117
44.7752 35.21 3.83969
42.651 33.9684 3.63575
41.4778 33.2523 3.43347
37.4594 8.5377 3.98428
37.5184 6.67701 2
39.4439 6.80838 0.0169789
39.213 8.70002 2
38.9747 10.1383 3.98741
35.8999 9.78166 3.9803
34.154 8.8309 3.98061
35.945 8.49676 2
53.8179 34.0324 0.0250993
52.5551 30.753 0.0249383
51.8478 27.5173 0.0250721
52.1251 21.2832 0.021296
51.6661 24.411 0.0229813
49.7117 19.9298 0.0166638
48.0162 17.0655 0.0347889
47.6352 14.6638 0.0341343
44.7266 10.0036 0.013752
45.9775 12.7487 0.0336506
41.0134 9.05908 0.0233601
42.4568 10.9142 -0.00707108
51.3099 32.9612 2
40.5645 11.6259 2
43.832 11.9076 2
50.4029 29.482 2
50.1546 26.02 2
49.672 22.5055 2
45.739 15.4548 2
47.4254 19.5857 2
48.89 31.5696 3.98415
48.5105 27.7784 3.97513
48.9325 24.6445 3.98023
47.0264 22.3265 3.99168
38.2981 12.7572 3.9777
42.0765 14.3434 3.98261
44.7363 18.6473 3.97356
43.7049 37.4807 3.64653
45.2964 37.4841 2
47.9049 58.6743 0.00942164
48.3995 55.8217 0.0439818
49.0289 45.0428 0.0185471
48.9951 48.82 0.0300837
48.7316 52.4419 0.023416
44.7457 39.7492 0.16041
45.2641 42.4272 0.117423
45.5615 45.4814 0.0175775
42.5996 40.9765 0.364148
41.4393 41.6919 0.56558
46.7174 57.2843 2
43.3755 39.3728 2
41.8349 40.6624 2
47.252 47.0639 2
46.8979 54.1244 2
47.0967 50.5906 2
44.1824 47.1136 2
43.9862 41.8138 2
44.1223 44.2474 2
41.7621 42.4097 2
40.5431 41.9965 2
45.2458 55.8492 4.00106
42.1636 39.1616 3.44133
40.3926 40.5381 3.53571
45.494 48.7079 4.00165
45.1708 52.3752 3.98727
42.9237 48.0994 3.99171
42.794 45.7377 3.87133
42.881 43.5365 3.82708
40.6644 43.2988 3.65427
39.1554 42.2381 3.45775
45.4109 58.758 0.00472484
43.8153 57.6423 2
42.0397 56.2022 3.99092
35.4643 67.6449 0.0222562
37.6419 65.4889 0.0258341
39.8939 63.5288 0.0233396
41.7453 62.454 0.022953
42.4564 59.9421 0.0154007
35.5742 65.4161 2
40.6149 61.5925 2
37.8378 63.1832 2
40.4198 58.1202 2
38.901 56.3393 3.99468
38.2442 60.276 3.98337
35.6075 63.1794 3.97196
33.577 65.3218 0.0257741
31.9619 63.2669 0.0226098
33.6329 63.315 2
30.384 62.8339 2
32.1355 61.9724 2
28.6899 62.1712 3.9805
33.3515 61.4752 3.98039
31.0854 61.1986 3.99046
27.6093 59.5367 3.97671
23.8459 59.0068 3.9898
25.0613 60.806 3.97752
26.8887 61.4426 2
26.2399 63.4592 3.97446
28.0686 64.127 2
27.4664 66.1686 3.97738
29.8873 64.6995 0.0210123
29.4083 66.7453 2
28.9086 68.9373 3.98249
31.379 67.1842 0.0217244
31.0148 69.4118 2
30.6174 71.7772 3.99055
33.1581 69.7464 0.0159462
32.8933 72.1461 2
32.6054 74.6784 4
35.1961 72.3712 0.00800693
35.0474 74.9197 2
37.5 75 0
33.7254 6.9853 3.98235
35.4369 4.68786 3.98873
35.6229 6.72805 2
37.5159 2.38782 3.99289
37.5246 4.61722 2
39.6248 4.71889 0.0112122
39.7897 2.47473 2
39.9526 0.0806499 4
42.0636 2.71886 0.00744865
42.3947 0.320817 2
44.8158 0.721173 0
43.3192 35.6074 3.63749
41.8498 34.2894 3.41535
46.281 40.2724 0.109613
49.2821 38.4976 0.0189041
52.7619 36.6149 0.0227635
46.926 37.7245 2
50.1056 35.5563 2
44.8672 35.1924 2
42.7 33.9122 2
41.5056 33.2276 2
47.1525 34.3863 3.93728
43.974 33.179 3.83315
41.7666 32.6073 3.68255
40.5336 32.9766 3.39208
37.3113 10.6351 3.98135
37.4608 8.5382 2
37.5179 6.67728 0.0150265
39.2114 8.70183 0.0190413
38.9789 10.1371 2
34.7571 10.3922 3.97871
35.9033 9.77729 2
32.3813 9.378 3.9764
34.1534 8.82685 2
35.944 8.49865 0.0172185
51.297 32.9713 0.0187536
50.3888 29.4801 0.0234291
50.1564 26.0079 0.0298082
49.6901 22.5378 0.0151786
47.4184 19.5504 0.0179884
45.7537 15.5202 0.00909533
43.8325 11.9156 0.0276446
40.5607 11.6206 0.0149302
48.9086 31.5524 2
38.3005 12.7527 2
42.0834 14.3582 2
48.5075 27.7788 2
48.928 24.6517 2
47.0155 22.3344 2
44.7461 18.7199 2
46.8356 29.7798 3.98212
46.6172 25.3586 3.97566
44.1857 21.6586 3.98307
36.5869 12.9724 3.97527
38.6749 14.8759 3.97658
41.71 17.9766 3.97772
42.3364 37.4574 3.4763
43.7732 37.4821 2
45.1949 37.4846 0.159765
46.721 57.2788 0.0179311
46.9031 54.12 0.0415977
47.2446 47.0628 0.0165712
47.0947 50.5797 0.0229195
43.295 39.3477 0.368428
43.9172 41.7734 0.160528
44.0655 44.2178 0.126999
44.1436 47.1116 0.0130606
41.7107 42.3389 0.314527
41.8221 40.6498 0.569164
40.5053 41.9773 0.607101
45.2415 55.8529 2
42.173 39.1695 2
40.4439 40.5269 2
45.4954 48.729 2
45.1661 52.3783 2
42.9597 48.1162 2
42.8573 45.7971 2
42.9213 43.5698 2
40.7162 43.3746 2
39.1458 42.2613 2
43.5645 54.2983 3.99953
40.4855 39.0051 3.56047
39.0506 40.6196 3.50681
43.2413 50.1939 4.00301
41.5799 47.238 3.92127
41.4875 44.8337 3.83318
39.356 43.9483 3.6242
37.5078 42.3691 3.50911
43.8182 57.6321 0.0169475
42.0455 56.1918 2
40.3522 54.7594 3.99445
35.5732 65.4123 0.0235632
37.8374 63.1851 0.0274902
40.6155 61.5946 0.0160841
40.4201 58.1145 0.0141683
35.6093 63.1757 2
38.2416 60.2747 2
38.9037 56.3209 2
37.9744 55.0185 3.99498
36.9238 57.5397 3.99177
35.3657 60.8743 3.98219
33.6303 63.3129 0.0236188
30.3825 62.8305 0.0184427
32.1329 61.9699 0.0120354
33.3532 61.4744 2
28.6911 62.1756 2
31.0877 61.2051 2
29.4332 60.2599 3.97945
32.3696 59.6758 3.99577
28.0855 58.3255 4.01631
27.6102 59.5348 2
25.4355 58.5289 3.97803
22.8383 58.1625 3.96971
23.4331 60.2729 3.97569
23.8479 59.0071 2
25.063 60.8059 2
24.4474 62.733 3.97632
26.8876 61.4406 0.0157513
26.2401 63.4572 2
25.5513 65.4784 3.97657
28.0694 64.1289 0.0189042
27.466 66.1695 2
26.8387 68.3239 3.9818
29.4092 66.7473 0.022287
28.9077 68.9361 2
28.3727 71.2626 3.98967
31.0161 69.4119 0.0163234
30.616 71.7769 2
30.1842 74.2788 4
32.8944 72.1456 0.00866712
32.6053 74.6792 2
35.0474 74.9194 0
31.7898 7.42516 3.98054
33.3494 4.92771 3.98761
33.7252 6.98302 2
35.2464 2.46363 3.99294
35.4366 4.68742 2
35.6223 6.729 0.0162647
37.5 0 4
37.5151 2.38747 2
37.5247 4.61782 0.0106993
39.7901 2.47542 0.0072658
39.9526 0.0802889 2
42.3946 0.32156 0
42.1588 35.7507 3.41746
43.4087 35.58 2
40.4431 34.3988 3.53779
41.8529 34.272 2
46.9286 37.7427 0.108832
50.0918 35.5514 0.0249735
44.7752 35.21 0.160306
42.651 33.9684 0.364248
41.4778 33.2523 0.566532
47.1857 34.3989 2
44.0258 33.1351 2
41.817 32.5393 2
40.5671 32.9581 2
45.2931 31.8234 3.8935
42.9371 31.4153 3.81936
40.7118 31.6512 3.65504
39.1697 32.7344 3.45375
35.6973 11.7909 3.97541
37.3168 10.6353 2
37.4594 8.5377 0.0157159
38.9747 10.1383 0.0125923
33.1029 11.2316 3.97205
34.7577 10.3844 2
35.8999 9.78166 0.0197032
30.4873 10.0302 3.97643
32.3806 9.37672 2
34.154 8.8309 0.019385
48.89 31.5696 0.0158456
48.5105 27.7784 0.0248712
48.9325 24.6445 0.0197677
47.0264 22.3265 0.00832415
44.7363 18.6473 0.0264405
42.0765 14.3434 0.0173895
38.2981 12.7572 0.0223046
36.5839 12.9507 2
46.8315 29.7227 2
38.6739 14.8565 2
41.7041 17.9792 2
46.6173 25.3494 2
44.1655 21.6351 2
44.8441 27.919 3.99275
43.5015 24.2953 4.02416
41.266 21.0017 3.99202
35.771 14.8128 3.98153
38.6526 17.7062 3.985
40.5414 37.4329 3.5807
42.3519 37.4623 2
43.7049 37.4807 0.353474
45.2458 55.8492 -0.00106077
45.1708 52.3752 0.0127336
45.494 48.7079 -0.00164642
42.1636 39.1616 0.558666
42.881 43.5365 0.172916
42.794 45.7377 0.128665
42.9237 48.0994 0.00829053
40.6644 43.2988 0.345728
40.3926 40.5381 0.464289
39.1554 42.2381 0.54225
43.5602 54.2922 2
40.507 39.0067 2
39.0454 40.6195 2
43.2331 50.2102 2
41.576 47.2689 2
41.5167 44.8776 2
37.5041 42.3931 2
39.3766 44.0239 2
41.7145 52.7519 4.00036
39.0599 39.0546 3.50735
37.5083 40.6714 3.55132
35.8662 42.2481 3.45384
40.7409 49.329 3.99298
39.6755 45.534 3.79578
37.5034 44.2244 3.66606
42.0397 56.2022 0.0090844
40.353 54.7675 2
38.7136 53.535 3.99685
35.6075 63.1794 0.0280353
38.2442 60.276 0.0166301
38.901 56.3393 0.00531866
35.3645 60.8606 2
36.9255 57.5503 2
37.9717 55.0115 2
36.3121 55.1079 3.9978
34.4944 58.4609 3.99369
33.3515 61.4752 0.0196071
28.6899 62.1712 0.0195006
31.0854 61.1986 0.00954176
32.3681 59.6786 2
29.4345 60.2603 2
30.3511 57.7639 3.99017
28.0878 58.3226 2
27.066 56.7676 3.96973
27.6093 59.5367 0.0232937
25.4375 58.5285 2
23.9811 56.7147 3.96003
21.4753 57.2982 3.95806
22.0357 59.549 3.97817
22.8406 58.1633 2
22.7561 61.9676 3.97276
23.4346 60.2732 2
23.8459 59.0068 0.0102005
25.0613 60.806 0.0224822
24.448 62.7335 2
23.688 64.6913 3.97402
26.2399 63.4592 0.0255378
25.5515 65.4797 2
24.8109 67.5855 3.98086
27.4664 66.1686 0.0226159
26.8374 68.3256 2
26.1681 70.6029 3.9891
28.9086 68.9373 0.0175126
28.3712 71.2619 2
27.7943 73.7221 4
30.6174 71.7772 0.00944516
30.1841 74.2794 2
32.6054 74.6784 0
29.8128 8.00185 3.97858
31.2548 5.33465 3.98645
31.7893 7.42377 2
32.9824 2.70185 3.99244
33.3487 4.92647 2
33.7254 6.9853 0.0176461
35.0474 0.080333 4
35.2454 2.46353 2
35.4369 4.68786 0.0112694
37.5 0 2
37.5159 2.38782 0.00710707
39.9526 0.0806499 0
40.5564 35.8946 3.5714
42.1738 35.7504 2
43.3192 35.6074 0.362514
28.5477 10.7044 3.9766
39.0634 34.3533 3.50099
40.4564 34.4017 2
41.8498 34.2894 0.584648
47.1525 34.3863 0.0627244
43.974 33.179 0.166849
41.7666 32.6073 0.317452
40.5336 32.9766 0.607916
45.325 31.805 2
42.9817 31.376 2
40.7594 31.5747 2
39.168 32.7074 2
43.7138 30.0699 3.8809
41.5165 30.1085 3.83341
39.381 31.0103 3.62462
37.5316 32.6134 3.50664
34.1019 12.9557 3.97508
35.6979 11.7781 2
37.3113 10.6351 0.0186456
31.1934 12.0029 3.97754
33.1042 11.2296 2
34.7571 10.3922 0.0212873
30.4846 10.0248 2
32.3813 9.378 0.023598
46.8356 29.7798 0.0178788
46.6172 25.3586 0.0243428
36.5869 12.9724 0.0247286
44.1857 21.6586 0.0169286
41.71 17.9766 0.0222845
38.6749 14.8759 0.023418
35.7741 14.8177 2
44.8388 27.92 2
38.6541 17.7067 2
41.2495 20.9843 2
43.4896 24.2745 2
33.6202 15.9141 3.98955
42.6444 26.748 3.97879
40.7705 23.6199 3.99358
38.377 20.4953 3.9941
35.8449 17.585 3.98754
39.0815 37.4847 3.51366
40.5534 37.4391 2
42.3364 37.4574 0.523698
43.5645 54.2983 0.000468641
43.2413 50.1939 -0.00300784
40.4855 39.0051 0.43953
41.4875 44.8337 0.166821
41.5799 47.238 0.0787261
39.356 43.9483 0.375796
39.0506 40.6196 0.493195
37.5078 42.3691 0.490885
41.7023 52.7491 2
39.0493 39.0435 2
37.5016 40.6661 2
40.7219 49.3393 2
35.871 42.2689 2
39.6972 45.599 2
37.4996 44.2977 2
39.7028 51.5293 4.00164
37.5129 39.0538 3.55256
35.9752 40.6358 3.50794
34.509 41.9967 3.39451
35.6505 43.9664 3.61988
38.6418 48.1914 3.92944
37.5318 45.8299 3.83046
40.3522 54.7594 0.00555375
38.7112 53.5427 2
36.7767 52.8761 3.997
35.3657 60.8743 0.017807
36.9238 57.5397 0.00822576
37.9744 55.0185 0.00501933
34.4927 58.4665 2
36.3154 55.0972 2
33.2818 55.3028 3.99304
32.3696 59.6758 0.0042296
29.4332 60.2599 0.020551
30.353 57.7589 2
28.8696 55.2738 3.99107
28.0855 58.3255 -0.0163111
27.0686 56.7647 2
25.5307 55.0439 3.95415
22.0568 55.2202 3.9607
25.4355 58.5289 0.0219693
23.9843 56.7155 2
20.3544 56.9287 3.96254
20.7029 58.7019 3.96294
21.4783 57.2996 2
21.1922 61.0989 3.97303
22.0374 59.5495 2
22.8383 58.1625 0.0302902
21.9052 63.8053 3.97361
22.7572 61.9689 2
23.4331 60.2729 0.024308
24.4474 62.733 0.0236832
23.6881 64.6925 2
22.8396 66.7277 3.97782
25.5513 65.4784 0.0234323
24.8098 67.5859 2
24.0125 69.8048 3.98899
26.8387 68.3239 0.0182
26.166 70.6031 2
25.446 73.0099 4
28.3727 71.2626 0.0103311
27.7943 73.7222 2
30.1842 74.2788 0
27.8227 8.66159 3.97931
29.157 5.88179 3.98437
29.8111 7.9979 2
30.728 3.09872 3.99206
31.2539 5.33332 2
31.7898 7.42516 0.0194572
32.6053 0.320823 4
32.9811 2.70149 2
33.3494 4.92771 0.0123915
35.0474 0.0802903 2
35.2464 2.46363 0.00706144
37.5 0 0
39.0283 35.921 3.51984
40.5375 35.892 2
42.1588 35.7507 0.582541
28.545 10.7014 2
26.6275 11.4036 3.97642
29.2344 12.6532 3.98095
37.5328 34.3162 3.55143
39.0861 34.3676 2
40.4431 34.3988 0.462206
45.2931 31.8234 0.106499
42.9371 31.4153 0.180638
40.7118 31.6512 0.344957
39.1697 32.7344 0.546251
43.7417 30.0399 2
41.55 30.0663 2
39.3944 30.9363 2
37.5367 32.5848 2
41.934 28.7771 3.85985
39.6777 29.4123 3.81651
37.5281 30.7546 3.66991
35.8822 32.7362 3.46032
31.9332 14.5007 3.98214
34.1024 12.9606 2
35.6973 11.7909 0.0245857
31.1921 11.9935 2
33.1029 11.2316 0.0279486
30.4873 10.0302 0.0235683
44.8441 27.919 0.00724873
43.5015 24.2953 -0.0241559
35.771 14.8128 0.0184674
41.266 21.0017 0.00798176
38.6526 17.7062 0.0149954
33.6118 15.8974 2
35.8391 17.5729 2
42.7023 26.7224 2
38.3633 20.5425 2
40.7577 23.6095 2
33.5557 17.4582 3.98634
40.2106 26.0877 3.96627
38.0244 23.3615 3.99719
35.544 20.27 3.99637
37.5227 37.4814 3.56866
39.0621 37.475 2
40.5414 37.4329 0.419304
41.7145 52.7519 -0.000359994
40.7409 49.329 0.00701879
39.0599 39.0546 0.492651
39.6755 45.534 0.20422
37.5034 44.2244 0.333941
37.5083 40.6714 0.448678
35.8662 42.2481 0.546157
39.685 51.5274 2
37.5128 39.0529 2
35.9704 40.6226 2
38.6621 48.2542 2
34.4771 42.015 2
35.635 44.0347 2
37.5191 45.8901 2
37.6836 50.5053 3.99176
35.9971 39.065 3.52043
34.6202 40.5666 3.54067
33.5681 41.7149 3.437
34.3628 43.3166 3.64631
35.2899 45.57 3.81906
36.9186 47.8039 3.89261
38.7136 53.535 0.00314887
36.7691 52.8315 2
34.4835 52.1935 4.00013
34.4944 58.4609 0.00630731
36.3121 55.1079 0.00220077
33.2867 55.3112 2
30.7167 53.2318 3.99963
30.3511 57.7639 0.00983022
28.8717 55.2696 2
27.1817 53.3228 3.95647
27.066 56.7676 0.0302684
25.5338 55.0436 2
23.9235 53.3247 3.95411
20.8972 53.0519 3.95851
20.1568 55.7101 3.96126
22.0566 55.222 2
23.9811 56.7147 0.0399698
19.5283 57.8032 3.96131
20.3515 56.931 2
19.7326 60.1326 3.97277
20.7013 58.7039 2
21.4753 57.2982 0.0419444
20.2218 62.8067 3.97201
21.1937 61.1005 2
22.0357 59.549 0.0218295
20.9418 65.7531 3.97461
21.9055 63.809 2
22.7561 61.9676 0.0272443
23.688 64.6913 0.0259806
22.8386 66.7274 2
21.9151 68.872 3.98813
24.8109 67.5855 0.0191411
24.0097 69.8037 2
23.1494 72.1454 4
26.1681 70.6029 0.010899
25.446 73.0099 2
27.7943 73.7221 0
25.8624 9.39175 3.9774
27.0718 6.54629 3.98286
27.82 8.65951 2
28.4905 3.6447 3.99109
29.1554 5.87965 2
29.8128 8.00185 0.0214168
30.1841 0.720592 4
30.7261 3.09851 2
31.2548 5.33465 0.013549
32.6053 0.320817 2
32.9824 2.70185 0.00755984
35.0474 0.080333 0
37.5175 35.9148 3.54535
39.0101 35.9059 2
40.5564 35.8946 0.428598
24.7862 12.0873 3.97617
23.7732 14.4179 3.97903
28.5477 10.7044 0.0233971
26.6236 11.3995 2
29.2326 12.6514 2
27.3018 13.3917 3.97554
29.8009 14.2113 3.98516
35.9807 34.3534 3.51059
37.5419 34.3183 2
39.0634 34.3533 0.499007
37.5316 32.6134 0.493357
43.7138 30.0699 0.119096
41.5165 30.1085 0.166589
39.381 31.0103 0.375379
41.973 28.7079 2
39.7027 29.3501 2
37.5287 30.6813 2
35.8885 32.7153 2
39.8438 28.0396 3.86496
37.4933 29.1399 3.82192
35.6812 31.0299 3.62742
34.5235 32.9915 3.39672
30.954 16.8554 3.99606
31.9261 14.4861 2
34.1019 12.9557 0.0249185
31.1934 12.0029 0.0224553
42.6444 26.748 0.0212138
40.7705 23.6199 0.00641781
33.6202 15.9141 0.0104457
35.8449 17.585 0.0124599
38.377 20.4953 0.00590083
33.5468 17.4656 2
35.5493 20.282 2
40.2679 26.0571 2
38.0182 23.337 2
32.9131 19.8851 3.99606
37.6826 25.7186 3.96204
35.2867 23.0193 4.00601
35.9732 37.4763 3.51673
37.5106 37.4806 2
39.0815 37.4847 0.486344
39.7028 51.5293 -0.0016445
38.6418 48.1914 0.0705621
37.5129 39.0538 0.447441
37.5318 45.8299 0.169544
35.6505 43.9664 0.380123
35.9752 40.6358 0.492065
34.509 41.9967 0.605491
37.6619 50.5473 2
36.0249 39.0522 2
34.5728 40.5683 2
36.9147 47.8677 2
33.5274 41.742 2
34.3065 43.3891 2
35.2698 45.6268 2
35.5691 49.706 3.98306
34.5143 39.0548 3.56766
33.1913 40.6804 3.42135
33.2959 42.3603 3.68975
33.563 44.8437 3.82174
34.5486 46.9635 3.86547
36.7767 52.8761 0.00299746
34.4659 52.2083 2
32.2907 51.0157 4.00178
33.2818 55.3028 0.0069555
30.7214 53.2312 2
28.7969 51.4168 3.97978
28.8696 55.2738 0.00893408
27.1845 53.3209 2
25.5171 51.5581 3.95313
25.5307 55.0439 0.0458463
23.9266 53.3325 2
22.474 51.6102 3.95371
19.7778 51.4369 3.96253
19.2732 54.159 3.9617
20.9022 53.0495 2
18.6198 56.618 3.96265
20.1557 55.7114 2
22.0568 55.2202 0.039297
18.4097 59.0418 3.96216
19.5268 57.8048 2
20.3544 56.9287 0.0374601
18.6357 61.7041 3.97192
19.7335 60.1352 2
20.7029 58.7019 0.0370623
19.1325 64.6594 3.97337
20.2226 62.8105 2
21.1922 61.0989 0.0269705
19.8895 67.8078 3.98547
20.9409 65.7521 2
21.9052 63.8053 0.0263898
22.8396 66.7277 0.0221832
21.9119 68.8702 2
20.9142 71.1327 4
24.0125 69.8048 0.0110088
23.1494 72.1455 2
25.446 73.0099 0
23.109 12.8315 3.97693
23.9751 10.1801 3.97474
25.0253 7.31765 3.9809
25.8588 9.38981 2
26.2823 4.32888 3.99008
27.0695 6.54544 2
27.8227 8.66159 0.0206937
27.7943 1.27781 4
28.4877 3.64474 2
29.157 5.88179 0.0156254
30.1841 0.720551 2
30.728 3.09872 0.00793724
32.6053 0.320823 0
35.973 35.9036 3.509
37.5449 35.924 2
39.0283 35.921 0.480162
24.7811 12.0993 2
23.7727 14.4232 2
22.511 15.1101 3.97705
25.3729 13.9617 3.97224
24.0665 15.6761 3.98854
26.6275 11.4036 0.0235772
29.2344 12.6532 0.019055
27.3042 13.3854 2
29.7924 14.2106 2
28.3928 15.9769 3.98798
34.6404 34.4261 3.53478
35.9836 34.3534 2
37.5328 34.3162 0.448573
35.8822 32.7362 0.539684
37.5281 30.7546 0.330089
41.934 28.7771 0.140149
39.6777 29.4123 0.183492
39.8771 27.9912 2
37.494 29.0836 2
35.6647 30.9515 2
34.4858 32.9748 2
37.6238 27.7736 3.86867
35.3539 29.4308 3.81554
34.3591 31.6706 3.65299
33.582 33.2727 3.43487
30.2561 19.487 3.97887
30.943 16.8432 2
31.9332 14.5007 0.0178645
40.2106 26.0877 0.0337338
38.0244 23.3615 0.0028134
33.5557 17.4582 0.0136595
35.544 20.27 0.00363027
32.9163 19.908 2
35.2669 23.006 2
37.7159 25.7009 2
32.4906 22.629 3.99816
35.1643 25.615 3.98693
34.4809 37.5041 3.58746
35.971 37.4903 2
37.5227 37.4814 0.43134
37.6836 50.5053 0.00823671
36.9186 47.8039 0.107388
35.9971 39.065 0.479574
35.2899 45.57 0.180942
34.3628 43.3166 0.35369
34.6202 40.5666 0.459331
33.5681 41.7149 0.563003
35.5539 49.7192 2
34.5023 39.0556 2
33.1805 40.6921 2
34.504 47.0269 2
33.2487 42.4295 2
33.5247 44.8904 2
33.4673 48.8191 3.97304
32.8662 39.2075 3.42289
32.3907 41.0003 3.63697
32.1227 43.5553 3.82529
32.7688 45.9585 3.86466
34.4835 52.1935 -0.000127133
32.3123 51.0197 2
30.356 49.5537 4.00314
30.7167 53.2318 0.000366428
28.8008 51.4166 2
27.0527 49.7798 3.97452
27.1817 53.3228 0.0435323
25.5193 51.5609 2
23.9382 49.9642 3.96656
23.9235 53.3247 0.0458883
22.4795 51.6074 2
21.1175 50.0929 3.9652
18.5443 50.1451 3.97121
18.3098 52.6215 3.96494
19.7723 51.4365 2
17.7241 55.2121 3.96249
19.2729 54.1585 2
20.8972 53.0519 0.0414901
17.2442 57.7919 3.96099
18.6174 56.6192 2
20.1568 55.7101 0.0387364
17.1496 60.4964 3.96473
18.4096 59.0429 2
19.5283 57.8032 0.0386941
17.4165 63.4324 3.96818
18.6371 61.7057 2
19.7326 60.1326 0.0272317
17.9455 66.6154 3.98284
19.132 64.659 2
20.2218 62.8067 0.0279882
18.75 69.9759 4
19.8861 67.8049 2
20.9418 65.7531 0.0253892
21.9151 68.872 0.011875
20.9142 71.1327 2
23.1494 72.1454 0
21.6062 13.6677 3.97258
22.196 11.0527 3.97179
23.1073 12.8315 2
23.0424 8.18486 3.97758
23.9734 10.1841 2
24.1201 5.14373 3.98971
25.022 7.31661 2
25.8624 9.39175 0.0225953
25.446 1.99014 4
26.2788 4.32982 2
27.0718 6.54629 0.0171386
27.7943 1.27778 2
28.4905 3.6447 0.00890781
30.1841 0.720592 0
34.5531 35.9433 3.5601
35.9881 35.9185 2
37.5175 35.9148 0.454654
21.3479 15.9125 3.97099
24.7862 12.0873 0.0238324
23.7732 14.4179 0.0209653
25.3716 13.9357 2
22.5109 15.1021 2
24.0705 15.6823 2
23.3205 16.3182 3.96504
25.4242 16.1471 3.98717
27.3018 13.3917 0.0244558
29.8009 14.2113 0.0148356
28.3831 15.9956 2
27.4945 18.9235 3.98237
33.2024 34.3147 3.43384
34.5893 34.4372 2
35.9807 34.3534 0.489408
34.5235 32.9915 0.603277
35.6812 31.0299 0.372585
37.4933 29.1399 0.178075
39.8438 28.0396 0.135038
37.5952 27.735 2
33.5471 33.2475 2
35.3481 29.3662 2
34.3145 31.5963 2
35.2382 27.8611 3.87981
33.5475 30.1316 3.82613
33.3084 32.6248 3.68782
29.8087 22.0943 4.00776
30.2584 19.5 2
30.954 16.8554 0.00393679
37.6826 25.7186 0.0379615
35.2867 23.0193 -0.0060129
32.9131 19.8851 0.00394344
32.4886 22.6093 2
35.1932 25.607 2
32.0916 25.9094 4.00958
32.6873 37.4998 3.47323
34.4868 37.4969 2
35.9732 37.4763 0.483271
35.5691 49.706 0.0169389
34.5486 46.9635 0.134527
34.5143 39.0548 0.432341
33.563 44.8437 0.178256
33.2959 42.3603 0.310248
33.1913 40.6804 0.578654
33.4558 48.8153 2
32.8713 39.217 2
32.3372 41.0557 2
32.7463 46.0145 2
32.0736 43.5905 2
31.7148 47.6573 3.9851
31.7174 39.3677 3.63773
31.0745 41.7993 3.83501
31.2172 44.5974 3.87357
32.2907 51.0157 -0.00177668
30.3623 49.5881 2
28.5483 47.9515 3.97203
28.7969 51.4168 0.0202152
27.051 49.7813 2
25.3732 48.2183 3.96778
25.5171 51.5581 0.0468744
23.944 49.9622 2
22.4196 48.5347 3.97148
22.474 51.6102 0.0462922
21.1195 50.0915 2
19.6768 48.8828 3.97418
17.4161 49.1628 3.97567
17.2443 51.2466 3.97031
18.5461 50.1433 2
16.7447 53.7336 3.9661
18.3058 52.6216 2
19.7778 51.4369 0.0374743
16.1611 56.381 3.96201
17.7236 55.2124 2
19.2732 54.159 0.0382984
15.7769 59.1623 3.9609
17.2385 57.7941 2
18.6198 56.618 0.0373526
15.7936 62.0987 3.96978
17.1518 60.498 2
18.4097 59.0418 0.0378422
16.092 65.2965 3.97998
17.4156 63.4367 2
18.6357 61.7041 0.0280764
16.6661 68.6801 4
17.9425 66.6117 2
19.1325 64.6594 0.0266341
18.75 69.9759 2
19.8895 67.8078 0.0145316
20.9142 71.1327 0
20.243 14.6697 3.96969
21.6046 13.6749 2
20.5397 12.0456 3.97335
21.1456 9.15819 3.97596
22.1932 11.0544 2
23.109 12.8315 0.0230719
22.0194 6.08226 3.98861
23.0397 8.18651 2
23.9751 10.1801 0.0252598
23.1494 2.85457 4
24.1157 5.14498 2
25.0253 7.31765 0.0191022
25.446 1.99012 2
26.2823 4.32888 0.00991911
27.7943 1.27781 0
32.8552 35.7994 3.44195
34.5261 35.9429 2
35.973 35.9036 0.491005
21.3518 15.9054 2
20.371 17.04 3.96487
22.1543 16.7136 3.96182
25.3729 13.9617 0.0277567
22.511 15.1101 0.0229453
24.0665 15.6761 0.0114611
25.4259 16.1474 2
23.3256 16.3136 2
24.2794 18.6011 3.97391
27.2433 21.72 3.99378
28.3928 15.9769 0.0120151
27.4934 18.9601 2
32.4248 33.9849 3.63162
33.1933 34.2998 2
34.6404 34.4261 0.465215
33.582 33.2727 0.565127
34.3591 31.6706 0.347011
35.3539 29.4308 0.184463
37.6238 27.7736 0.131332
35.2361 27.8147 2
33.2374 32.556 2
33.5137 30.0872 2
33.0048 28.5023 3.88752
32.1234 31.4286 3.81605
29.2313 24.5826 4.01232
29.7885 22.1192 2
30.2561 19.487 0.0211251
35.1643 25.615 0.0130671
32.4906 22.629 0.00184284
32.0775 25.8822 2
30.2726 27.5773 3.97651
31.3231 37.4873 3.64314
32.6877 37.4995 2
34.4809 37.5041 0.412542
33.4673 48.8191 0.0269643
32.7688 45.9585 0.135339
32.8662 39.2075 0.577112
32.1227 43.5553 0.174709
32.3907 41.0003 0.363027
31.6599 47.6884 2
31.6327 39.3856 2
31.0156 41.8454 2
31.1705 44.637 2
29.9904 46.2681 3.98841
30.2553 39.7692 3.84234
29.7547 42.901 3.88861
30.356 49.5537 -0.00314152
28.5467 47.9555 2
26.8061 46.3818 3.98089
27.0527 49.7798 0.0254775
25.3738 48.2156 2
23.6876 46.797 3.9734
23.9382 49.9642 0.0334432
22.4207 48.5353 2
20.7015 47.3864 3.97632
21.1175 50.0929 0.034801
19.6772 48.8812 2
18.2669 47.9903 3.97668
16.6495 48.525 3.97655
17.4153 49.1619 2
16.3028 50.0227 3.97434
15.7474 52.2851 3.97029
17.2456 51.2455 2
18.5443 50.1451 0.0287873
15.1207 54.8741 3.9644
16.7449 53.7333 2
18.3098 52.6215 0.0350646
14.5336 57.687 3.96013
16.161 56.3814 2
17.7241 55.2121 0.0375141
14.2736 60.6651 3.96582
15.7804 59.1626 2
17.2442 57.7919 0.0390114
14.3369 63.8537 3.97682
15.7947 62.1002 2
17.1496 60.4964 0.0352742
14.6715 67.2507 4
16.0894 65.2925 2
17.4165 63.4324 0.031819
16.6661 68.6801 2
17.9455 66.6154 0.0171567
18.75 69.9759 0
18.9672 15.8511 3.9719
20.2449 14.6657 2
18.9937 13.1682 3.97158
21.6062 13.6677 0.0274221
20.5378 12.0445 2
19.3467 10.2507 3.97281
19.9942 7.14784 3.98644
21.1428 9.1597 2
22.196 11.0527 0.0282144
20.9142 3.86727 4
22.0145 6.0853 2
23.0424 8.18486 0.0224241
23.1494 2.85451 2
24.1201 5.14373 0.0102903
25.446 1.99014 0
31.7447 35.6225 3.63129
32.8551 35.7903 2
34.5531 35.9433 0.439899
21.3479 15.9125 0.0290111
22.1576 16.7065 2
20.3735 17.0365 2
19.4014 18.518 3.95797
21.8563 17.9717 3.97785
25.4242 16.1471 0.0128315
23.3205 16.3182 0.0349579
24.2686 18.621 2
22.4902 20.0504 3.977
24.8276 21.5712 3.9884
26.8607 23.8653 3.9851
27.245 21.6281 2
27.4945 18.9235 0.01763
31.1225 33.1922 3.83521
32.3746 33.9294 2
33.2024 34.3147 0.56616
33.3084 32.6248 0.312175
33.5475 30.1316 0.173866
35.2382 27.8611 0.120189
32.9686 28.4687 2
32.0698 31.3807 2
30.9037 29.8777 3.91232
28.544 26.7553 3.99955
29.2188 24.5789 2
29.8087 22.0943 -0.0077648
32.0916 25.9094 -0.00957993
30.2639 27.5535 2
29.8241 37.4829 3.84112
31.2482 37.4851 2
32.6873 37.4998 0.526773
31.7148 47.6573 0.0148975
31.2172 44.5974 0.126434
31.7174 39.3677 0.362267
31.0745 41.7993 0.164987
29.9922 46.2754 2
30.1701 39.7859 2
29.7236 42.925 2
28.2966 44.5975 3.96719
28.0071 40.4787 3.92781
28.5483 47.9515 0.0279739
26.8053 46.3826 2
25.0105 44.9101 3.98
25.3732 48.2183 0.0322216
23.686 46.7956 2
21.7433 45.6814 3.97779
22.4196 48.5347 0.0285154
20.702 47.3855 2
19.0163 46.5481 3.9762
19.6768 48.8828 0.0258191
18.2674 47.9891 2
16.8996 47.5511 3.97603
16.6505 48.5239 2
15.6542 48.8745 3.97549
17.4161 49.1628 0.0243273
16.3045 50.0217 2
14.8576 50.8646 3.97362
14.0871 53.3386 3.96759
15.7487 52.2843 2
17.2443 51.2466 0.0296907
13.3854 56.1085 3.96121
15.1207 54.874 2
16.7447 53.7336 0.0339011
12.8627 59.1051 3.96366
14.5366 57.6868 2
16.1611 56.381 0.0379881
12.6829 62.2962 3.9743
14.2752 60.6653 2
15.7769 59.1623 0.0390988
12.7746 65.6939 4
14.3346 63.8496 2
15.7936 62.0987 0.0302152
14.6714 67.2507 2
16.092 65.2965 0.0200214
16.6661 68.6801 0
17.7593 17.2396 3.96135
18.9677 15.8486 2
17.5306 14.4316 3.96821
20.243 14.6697 0.0303124
18.9938 13.1707 2
17.6458 11.4822 3.9728
20.5397 12.0456 0.0266463
19.3435 10.2518 2
18.0543 8.34115 3.98388
18.75 5.0241 4
19.9889 7.15128 2
21.1456 9.15819 0.0240412
20.9142 3.86727 2
22.0194 6.08226 0.0113896
23.1494 2.85457 0
30.2808 35.2232 3.84037
31.6604 35.599 2
32.8552 35.7994 0.558053
22.1543 16.7136 0.0381774
20.371 17.04 0.0351349
21.8557 17.9686 2
19.3949 18.5115 2
18.2599 20.078 3.96177
21.0693 19.5206 3.96678
24.2794 18.6011 0.0260854
22.4827 20.054 2
24.8375 21.5525 2
22.6925 21.9009 3.98031
25.1454 23.2892 3.97464
26.1556 26.1299 3.97949
26.8594 23.8591 2
27.2433 21.72 0.00622213
29.5188 32.5438 3.88854
31.0449 33.1557 2
32.4248 33.9849 0.368375
32.1234 31.4286 0.183947
33.0048 28.5023 0.112483
30.8823 29.867 2
27.9361 29.3454 4.01263
28.5318 26.7585 2
29.2313 24.5826 -0.0123179
30.2726 27.5773 0.0234868
28.1759 37.3781 3.88653
29.746 37.481 2
31.3231 37.4873 0.356855
29.9904 46.2681 0.0115948
29.7547 42.901 0.111394
30.2553 39.7692 0.157663
28.2931 44.6504 2
27.974 40.4817 2
26.4026 43.0044 3.98245
25.2939 39.4324 3.97337
26.8061 46.3818 0.0191092
25.0006 44.9118 2
22.9354 43.7167 3.97507
23.6876 46.797 0.0266042
21.7402 45.6823 2
19.8085 44.7871 3.97579
20.7015 47.3864 0.0236773
19.016 46.5485 2
17.2666 46.0518 3.97582
18.2669 47.9903 0.02332
16.9004 47.5506 2
15.4266 47.5317 3.97571
16.6495 48.525 0.02345
15.6558 48.8736 2
14.1706 49.4322 3.97514
16.3028 50.0227 0.025663
14.8589 50.8638 2
13.1557 51.7866 3.97039
12.2884 54.4707 3.96333
14.0878 53.338 2
15.7474 52.2851 0.0297061
11.5569 57.4424 3.96205
13.3861 56.1082 2
15.1207 54.8741 0.0356015
11.1387 60.6212 3.96909
12.8648 59.1044 2
14.5336 57.687 0.0398668
10.9835 64.0165 4
12.681 62.2914 2
14.2736 60.6651 0.0341794
12.7745 65.694 2
14.3369 63.8537 0.023179
14.6715 67.2507 0
16.5769 18.75 3.96131
17.7521 17.2349 2
16.1283 15.8339 3.962
18.9672 15.8511 0.0280974
17.5311 14.4281 2
16.0293 12.8488 3.96805
18.9937 13.1682 0.0284217
17.6432 11.4907 2
16.2053 9.66592 3.98091
19.3467 10.2507 0.0271912
18.0492 8.34711 2
16.6661 6.31991 4
18.75 5.02404 2
19.9942 7.14784 0.0135598
20.9142 3.86727 0
28.676 34.8647 3.89284
30.1839 35.1836 2
31.7447 35.6225 0.368709
17.0068 21.5146 3.96831
21.8563 17.9717 0.0221498
19.4014 18.518 0.0420295
21.0597 19.516 2
18.261 20.0756 2
20.1048 21.7466 3.97213
22.4902 20.0504 0.0230015
24.8276 21.5712 0.0116036
22.6925 21.904 2
25.1336 23.3089 2
23.4672 24.7946 3.97181
25.494 28.7245 3.98387
26.1477 26.1374 2
26.8607 23.8653 0.0149034
27.378 31.9021 3.98132
29.4792 32.5203 2
31.1225 33.1922 0.164793
30.9037 29.8777 0.0876764
27.9495 29.3191 2
28.544 26.7553 0.000454322
25.9983 36.8505 3.97283
28.1523 37.3786 2
29.8241 37.4829 0.158883
28.2966 44.5975 0.0328079
28.0071 40.4787 0.0721882
26.3808 43.0285 2
25.2655 39.4362 2
24.1619 41.7309 3.98098
23.0101 38.5153 3.97747
25.0105 44.9101 0.0199969
22.9341 43.7175 2
20.7 42.7439 3.97526
21.7433 45.6814 0.0222055
19.8096 44.7874 2
17.6837 44.2368 3.97536
19.0163 46.5481 0.0238014
17.2668 46.0521 2
15.3936 45.9618 3.97543
16.8996 47.5511 0.0239744
15.4277 47.5311 2
13.7028 47.8986 3.97568
15.6542 48.8745 0.0245085
14.1722 49.4314 2
12.3906 50.1711 3.9726
14.8576 50.8646 0.0263766
13.1568 51.7857 2
11.2827 52.7863 3.96518
10.3651 55.696 3.96272
12.2885 54.4701 2
14.0871 53.3386 0.0324061
9.70489 58.8453 3.97188
11.5611 57.4406 2
13.3854 56.1085 0.0387907
9.30605 62.2254 4
11.1374 60.6163 2
12.8627 59.1051 0.036345
10.9835 64.0165 2
12.6829 62.2962 0.0257024
12.7746 65.6939 0
15.3792 20.2901 3.96417
16.5827 18.7495 2
14.8187 17.3616 3.96108
17.7593 17.2396 0.0386462
16.1308 15.8319 2
14.4905 14.3267 3.96814
17.5306 14.4316 0.0317901
16.0293 12.8456 2
14.4481 11.1187 3.97819
17.6458 11.4822 0.0271982
16.2009 9.67231 2
14.6715 7.74927 4
18.0543 8.34115 0.0161154
16.6661 6.31988 2
18.75 5.0241 0
26.6334 34.3848 3.97322
28.6577 34.8723 2
30.2808 35.2232 0.159625
18.2816 22.4887 3.97533
15.9117 23.0569 3.97211
17.0093 21.5138 2
21.0693 19.5206 0.0332152
18.2599 20.078 0.038233
20.1033 21.7441 2
20.2438 24.5914 3.97192
22.6925 21.9009 0.0196885
25.1454 23.2892 0.0253579
23.4604 24.7951 2
22.8558 28.0728 3.97118
24.9436 31.4171 3.98222
25.5003 28.7091 2
26.1556 26.1299 0.0205061
27.3482 31.8631 2
29.5188 32.5438 0.111462
27.9361 29.3454 -0.012626
23.7443 36.3139 3.97774
25.9751 36.8452 2
28.1759 37.3781 0.113466
26.4026 43.0044 0.0175469
25.2939 39.4324 0.0266319
24.1401 41.7296 2
22.9972 38.515 2
21.83 40.5682 3.97474
21.1624 37.7971 3.97703
22.9354 43.7167 0.0249317
20.701 42.7437 2
18.1664 41.9961 3.97569
19.8085 44.7871 0.024211
17.6842 44.2371 2
15.4431 44.0873 3.97529
17.2666 46.0518 0.0241797
15.3937 45.9618 2
13.4023 46.1946 3.97547
15.4266 47.5317 0.0242902
13.7042 47.8979 2
11.7802 48.4737 3.97447
14.1706 49.4322 0.024861
12.3923 50.17 2
10.4141 51.0345 3.96687
13.1557 51.7866 0.0296134
11.2836 52.7853 2
9.27503 53.8773 3.96315
8.38865 56.9802 3.97331
10.3681 55.694 2
12.2884 54.4707 0.0366673
7.74927 60.3285 4
9.70362 58.8409 2
11.5569 57.4424 0.0379478
9.306 62.2255 2
11.1387 60.6212 0.0309075
10.9835 64.0165 0
14.2186 21.852 3.96806
15.3782 20.2886 2
13.5555 18.9599 3.96143
16.5769 18.75 0.0386873
14.8198 17.3601 2
13.0384 15.9113 3.96743
16.1283 15.8339 0.0379976
14.4939 14.3249 2
12.7859 12.6935 3.97553
16.0293 12.8488 0.0319463
14.4449 11.1259 2
12.7746 9.30605 4
16.2053 9.66592 0.0190874
14.6715 7.74924 2
16.6661 6.31991 0
24.3068 33.8936 3.9809
26.6125 34.3855 2
28.676 34.8647 0.107165
18.1592 24.2235 3.97324
18.2902 22.4891 2
14.7404 24.5833 3.9742
15.9124 23.0562 2
17.0068 21.5146 0.0316948
19.7988 27.4248 3.97367
20.1048 21.7466 0.0278715
20.2381 24.5887 2
22.242 30.8712 3.97428
23.4672 24.7946 0.0281944
22.8566 28.0751 2
24.9042 31.4215 2
25.494 28.7245 0.0161262
27.378 31.9021 0.0186841
21.2705 35.9663 3.97675
23.74 36.3089 2
25.9983 36.8505 0.0271654
24.1619 41.7309 0.0190248
23.0101 38.5153 0.0225263
21.8347 40.5717 2
21.1647 37.7971 2
18.936 38.9753 3.97707
20.7 42.7439 0.0247418
18.1663 41.996 2
15.4283 41.8465 3.97597
17.6837 44.2368 0.0246383
15.4426 44.0874 2
13.1641 44.3099 3.97543
15.3936 45.9618 0.0245654
13.4033 46.1943 2
11.2952 46.6642 3.97579
13.7028 47.8986 0.0243207
11.7824 48.4725 2
9.68516 49.1983 3.96866
12.3906 50.1711 0.0274023
10.4154 51.0334 2
8.30339 51.993 3.96361
11.2827 52.7863 0.034823
9.27565 53.8755 2
7.19773 55.0325 3.97424
6.31991 58.3339 4
8.38739 56.9759 2
10.3651 55.696 0.0372784
7.74924 60.3285 2
9.70489 58.8453 0.0281213
9.30605 62.2254 0
13.5975 25.4726 3.97634
13.1193 23.376 3.97154
14.2179 21.851 2
12.3806 20.6093 3.96373
15.3792 20.2901 0.0358343
13.555 18.9584 2
11.6734 17.5833 3.96324
14.8187 17.3616 0.0389206
13.0427 15.9098 2
11.2243 14.3802 3.97056
14.4905 14.3267 0.0318569
12.7841 12.7003 2
10.9835 10.9835 4
14.4481 11.1187 0.0218059
12.7745 9.306 2
14.6715 7.74927 0
21.6234 33.5219 3.97623
24.3107 33.8737 2
26.6334 34.3848 0.0267822
16.4836 26.569 3.97439
18.1625 24.2229 2
18.2816 22.4887 0.0246656
14.7394 24.5828 2
15.9117 23.0569 0.0278852
19.2012 30.3537 3.97452
19.7989 27.4262 2
20.2438 24.5914 0.028077
22.2633 30.8714 2
22.8558 28.0728 0.0288191
24.9436 31.4171 0.0177778
18.5269 36.0069 3.97788
21.2726 35.9677 2
23.7443 36.3139 0.022264
21.83 40.5682 0.0252571
21.1624 37.7971 0.0229696
18.9355 38.9739 2
14.9188 39.1536 3.97696
18.1664 41.9961 0.0243092
15.4276 41.8462 2
12.8579 42.2225 3.976
15.4431 44.0873 0.024714
13.1644 44.3097 2
10.8818 44.7426 3.97598
13.4023 46.1946 0.0245272
11.298 46.663 2
9.07122 47.2826 3.97037
11.7802 48.4737 0.0255281
9.68701 49.1971 2
7.46462 50.0285 3.96388
10.4141 51.0345 0.0331334
8.30235 51.9915 2
6.13828 53.0084 3.97433
9.27503 53.8773 0.0368479
7.19692 55.0286 2
5.0241 56.25 4
6.31988 58.3339 2
8.38865 56.9802 0.0266928
7.74927 60.3285 0
13.8879 26.93 3.97546
12.2259 24.8718 3.97445
13.5967 25.4723 2
11.3076 22.2908 3.96591
13.1198 23.3757 2
14.2186 21.852 0.0319415
12.3814 20.6085 2
10.4232 19.3356 3.96315
13.5555 18.9599 0.0385663
11.6793 17.5829 2
9.76544 16.1627 3.97108
13.0384 15.9113 0.0325719
11.2235 14.3857 2
9.30607 12.7746 4
12.7859 12.6935 0.0244653
10.9835 10.9835 2
12.7746 9.30605 0
18.6904 33.2026 3.97586
21.6198 33.5255 2
24.3068 33.8936 0.019098
16.111 29.7751 3.97516
16.4827 26.5688 2
18.1592 24.2235 0.026757
14.7404 24.5833 0.025798
19.1997 30.3535 2
19.7988 27.4248 0.026334
22.242 30.8712 0.0257153
15.5562 36.0422 3.97749
18.5265 36.0077 2
21.2705 35.9663 0.0232504
13.0881 37.8284 3.97707
18.936 38.9753 0.0229348
14.9186 39.1536 2
12.3535 40.1116 3.97653
15.4283 41.8465 0.0240345
12.8577 42.222 2
10.4791 42.7358 3.97571
13.1641 44.3099 0.0245716
10.884 44.7416 2
8.54076 45.2924 3.97221
11.2952 46.6642 0.0242116
9.07312 47.2816 2
6.74807 47.9956 3.96426
9.68516 49.1983 0.0313408
7.46256 50.0273 2
5.21476 50.9118 3.97394
8.30339 51.993 0.0363934
6.13795 53.0054 2
3.86727 54.0858 4
7.19773 55.0325 0.0257631
5.02404 56.25 2
6.31991 58.3339 0
13.3666 29.128 3.97477
11.6745 26.5658 3.97535
13.8873 26.93 2
10.3579 24.0154 3.96844
12.2288 24.8721 2
13.5975 25.4726 0.0236636
9.28943 21.1524 3.96373
11.3074 22.2904 2
13.1193 23.376 0.0284567
12.3806 20.6093 0.0362665
10.4357 19.3377 2
8.42126 18.0317 3.97288
11.6734 17.5833 0.0367592
9.76473 16.1671 2
7.74928 14.6715 4
11.2243 14.3802 0.0294444
9.30602 12.7745 2
10.9835 10.9835 0
15.0929 32.9315 3.97623
18.6893 33.202 2
21.6234 33.5219 0.023768
16.111 29.7749 2
16.4836 26.569 0.0256057
19.2012 30.3537 0.0254848
13.3936 36.2237 3.97674
15.5557 36.0422 2
18.5269 36.0069 0.0221166
13.0876 37.8284 2
11.6725 38.3039 3.9767
14.9188 39.1536 0.0230362
12.3536 40.1114 2
10.0524 40.7308 3.97624
12.8579 42.2225 0.0240035
10.482 42.7354 2
8.07474 43.2499 3.97373
10.8818 44.7426 0.024019
8.543 45.2915 2
6.14477 45.9024 3.96483
9.07122 47.2826 0.029632
6.74541 47.9947 2
4.42573 48.7521 3.97368
7.46462 50.0285 0.0361189
5.21483 50.9098 2
2.85457 51.8506 4
6.13828 53.0084 0.0256689
3.86727 54.0858 2
5.0241 56.25 0
12.4939 31.3195 3.97581
11.0841 28.4823 3.97559
13.3666 29.1277 2
9.57352 25.8396 3.96965
11.6769 26.5662 2
13.8879 26.93 0.0245389
8.26897 23.0331 3.96421
10.3602 24.0159 2
12.2259 24.8718 0.0255469
7.20354 19.9794 3.97416
9.29573 21.1541 2
11.3076 22.2908 0.0340867
10.4232 19.3356 0.0368487
8.42027 18.0358 2
6.31992 16.6661 4
9.76544 16.1627 0.0289202
7.74926 14.6714 2
9.30607 12.7746 0
12.5291 34.3314 3.97655
15.0923 32.9321 2
18.6904 33.2026 0.0241372
16.111 29.7751 0.0248351
11.2041 36.6223 3.97653
13.393 36.2237 2
15.5562 36.0422 0.022509
13.0881 37.8284 0.0229299
11.6729 38.3035 2
9.62891 38.8157 3.97647
12.3535 40.1116 0.023467
10.0551 40.7304 2
7.67612 41.1994 3.97398
10.4791 42.7358 0.0242934
8.07585 43.2492 2
5.65255 43.7662 3.96519
8.54076 45.2924 0.0277906
6.14211 45.9018 2
3.77095 46.5371 3.9737
6.74807 47.9956 0.0357414
4.42625 48.7508 2
1.99014 49.554 4
5.21476 50.9118 0.0260648
2.85451 51.8506 2
3.86727 54.0858 0
11.2904 32.9636 3.9764
10.3868 30.4324 3.9756
12.4938 31.32 2
8.87499 27.7662 3.97063
11.0866 28.4829 2
13.3666 29.128 0.0252338
7.38569 24.9891 3.96443
9.576 25.8403 2
11.6745 26.5658 0.0246477
6.12043 22.0014 3.97471
8.27089 23.0344 2
10.3579 24.0154 0.0315612
5.02411 18.75 4
7.20299 19.9831 2
9.28943 21.1524 0.0362701
8.42126 18.0317 0.0271226
6.3199 16.6661 2
7.74928 14.6715 0
10.7841 35.0217 3.97638
12.5282 34.3314 2
15.0929 32.9315 0.0237662
9.28317 36.9897 3.97657
11.2046 36.6223 2
13.3936 36.2237 0.0232599
11.6725 38.3039 0.0232985
9.63182 38.8153 2
7.3504 39.1774 3.97388
10.0524 40.7308 0.0237636
7.67866 41.1989 2
5.26673 41.6125 3.9655
8.07474 43.2499 0.0262684
5.65239 43.7657 2
3.24846 44.2815 3.97434
6.14477 45.9024 0.0351686
3.7717 46.5364 2
1.27781 47.2057 4
4.42573 48.7521 0.0263182
1.99012 49.554 2
2.85457 51.8506 0
10.4134 33.9105 3.97609
9.65627 32.1897 3.97618
11.2913 32.9641 2
8.20738 29.7216 3.97191
10.3892 30.4333 2
12.4939 31.3195 0.0241918
6.61852 27.0127 3.96478
8.87779 27.7669 2
11.0841 28.4823 0.0244133
5.17539 24.0938 3.97447
7.38434 24.9899 2
9.57352 25.8396 0.0303473
3.86728 20.9142 4
6.12022 22.004 2
8.26897 23.0331 0.0357878
5.02406 18.75 2
7.20354 19.9794 0.0258408
6.31992 16.6661 0
9.09474 35.2945 3.97668
10.785 35.0217 2
12.5291 34.3314 0.0234541
7.12785 37.2074 3.97341
9.28626 36.9895 2
11.2041 36.6223 0.0234709
9.62891 38.8157 0.0235332
7.35323 39.1771 2
4.99379 39.4667 3.96638
7.67612 41.1994 0.0260199
5.26754 41.6121 2
2.85868 42.0017 3.97497
5.65255 43.7662 0.0348066
3.24892 44.2813 2
0.720592 44.8159 4
3.77095 46.5371 0.0262995
1.27778 47.2057 2
1.99014 49.554 0
9.13296 33.7214 3.97672
10.4153 33.9107 2
7.63332 31.6278 3.97246
9.65946 32.1903 2
11.2904 32.9636 0.0236013
5.95615 29.0724 3.96506
8.20872 29.7221 2
10.3868 30.4324 0.0243963
4.36252 26.2467 3.97413
6.61561 27.0131 2
8.87499 27.7662 0.0293742
2.85458 23.1494 4
5.17563 24.0954 2
7.38569 24.9891 0.0355742
3.86728 20.9142 2
6.12043 22.0014 0.0252891
5.02411 18.75 0
7.07688 35.3129 3.97296
9.0984 35.2944 2
10.7841 35.0217 0.023621
4.84382 37.34 3.96688
7.13099 37.2073 2
9.28317 36.9897 0.0234338
7.3504 39.1774 0.0261244
4.99454 39.4665 2
2.60646 39.7134 3.97561
5.26673 41.6125 0.034503
2.85932 42.0017 2
0.320823 42.3947 4
3.24846 44.2815 0.0256647
0.720551 44.8159 2
1.27781 47.2057 0
7.24016 33.4732 3.9728
9.13655 33.7217 2
10.4134 33.9105 0.0239121
5.42284 31.1356 3.96548
7.63566 31.6281 2
9.65627 32.1897 0.0238168
3.68377 28.4433 3.97417
5.95352 29.0727 2
8.20738 29.7216 0.0280887
1.99015 25.446 4
4.36306 26.2476 2
6.61852 27.0127 0.0352198
2.85453 23.1494 2
5.17539 24.0938 0.0255257
3.86728 20.9142 0
4.858 35.2526 3.96678
7.07912 35.3129 2
9.09474 35.2945 0.0233175
2.49787 37.4282 3.97658
4.84402 37.3401 2
7.12785 37.2074 0.026586
4.99379 39.4667 0.0336218
2.60723 39.7138 2
0.080333 39.9526 4
2.85868 42.0017 0.025034
0.320817 42.3947 2
0.720592 44.8159 0
5.05163 33.1918 3.96626
7.24262 33.4734 2
9.13296 33.7214 0.0232839
3.14783 30.6665 3.97487
5.42316 31.1359 2
7.63332 31.6278 0.0275359
1.27793 27.7943 4
3.6846 28.4438 2
5.95615 29.0724 0.0349441
1.99013 25.446 2
4.36252 26.2467 0.0258707
2.85458 23.1494 0
2.54991 35.159 3.97636
4.85884 35.2528 2
7.07688 35.3129 0.0270439
0 37.5 4
2.4981 37.4287 2
4.84382 37.34 0.0331202
2.60646 39.7134 0.0243915
0.0802903 39.9526 2
0.320823 42.3947 0
2.76766 32.906 3.97617
5.05197 33.1922 2
7.24016 33.4732 0.0272009
0.721173 30.1842 4
3.14847 30.6667 2
5.42284 31.1356 0.034523
1.27779 27.7943 2
3.68377 28.4433 0.0258327
1.99015 25.446 0
0.0806499 35.0474 4
2.55075 35.1595 2
4.858 35.2526 0.0332232
0 37.5 2
2.49787 37.4282 0.0234184
0.080333 39.9526 0
0.32156 32.6054 4
2.76796 32.9065 2
5.05163 33.1918 0.0337371
0.72056 30.1841 2
3.14783 30.6665 0.0251303
1.27793 27.7943 0
0.0802889 35.0474 2
2.54991 35.159 0.0236395
0 37.5 0
0.320817 32.6053 2
2.76766 32.906 0.0238312
0.721173 30.1842 0
0.0806499 35.0474 0
0.32156 32.6054 0
CELLS 1910 17190
8 18 6 25 56 2 0 5 16
8 57 23 6 18 17 4 0 2
8 78 36 9 29 31 11 1 7
8 31 11 1 7 79 37 10 30
8 110 57 18 50 48 17 2 14
8 50 18 56 111 14 2 16 49
8 116 62 22 55 52 20 3 15
8 56 25 67 118 16 5 24 53
8 119 63 23 57 54 21 4 17
8 55 22 63 119 15 3 21 54
8 58 26 68 121 18 6 25 56
8 122 65 26 58 57 23 6 18
8 73 31 7 27 142 79 30 71
8 143 78 29 72 73 31 7 27
8 83 147 76 34 32 74 28 8
8 84 148 78 36 33 75 29 9
8 76 34 8 28 148 84 33 75
8 37 79 150 86 10 30 77 35
8 151 87 36 78 80 38 11 31
8 80 38 11 31 152 88 37 79
8 175 100 42 94 96 44 12 40
8 44 96 176 101 12 40 95 43
8 101 176 98 46 43 95 41 13
8 46 98 178 103 13 41 97 45
8 178 103 45 97 147 83 32 74
8 189 116 55 109 106 52 15 47
8 111 56 118 191 49 16 53 107
8 192 119 57 110 108 54 17 48
8 109 55 119 192 47 15 54 108
8 194 122 58 112 110 57 18 50
8 112 58 121 195 50 18 56 111
8 115 61 19 51 197 124 59 113
8 115 61 125 198 51 19 60 114
8 198 125 62 116 114 60 20 52
8 200 127 64 120 116 62 22 55
8 118 67 132 202 53 24 66 117
8 121 68 133 203 56 25 67 118
8 120 64 128 204 55 22 63 119
8 204 128 65 122 119 63 23 57
8 206 134 68 121 123 69 26 58
8 123 69 26 58 207 131 65 122
8 226 147 74 138 140 76 28 70
8 229 148 75 139 143 78 29 72
8 140 76 28 70 229 148 75 139
8 142 79 30 71 231 150 77 141
8 144 80 31 73 232 152 79 142
8 233 151 78 143 144 80 31 73
8 150 86 35 77 235 154 81 145
8 235 154 81 145 146 82 39 91
8 146 82 39 91 236 155 90 165
8 238 157 83 147 149 85 34 76
8 239 158 84 148 151 87 36 78
8 149 85 34 76 239 158 84 148
8 152 88 37 79 241 160 86 150
8 242 161 87 151 153 89 38 80
8 153 89 38 80 243 162 88 152
8 171 98 41 92 265 178 97 169
8 265 178 97 169 226 147 74 138
8 172 96 40 93 266 176 95 170
8 266 176 95 170 171 98 41 92
8 269 175 94 173 172 96 40 93
8 271 180 99 174 175 100 42 94
8 197 124 59 113 271 180 99 174
8 272 181 100 175 177 102 44 96
8 273 182 101 176 179 104 46 98
8 177 102 44 96 273 182 101 176
8 179 104 46 98 275 184 103 178
8 275 184 103 178 238 157 83 147
8 188 115 51 105 283 197 113 186
8 188 115 198 284 105 51 114 187
8 284 198 116 189 187 114 52 106
8 286 200 120 193 189 116 55 109
8 191 118 202 288 107 53 117 190
8 195 121 203 289 111 56 118 191
8 193 120 204 290 109 55 119 192
8 290 204 122 194 192 119 57 110
8 196 123 58 112 292 207 122 194
8 293 206 121 195 196 123 58 112
8 199 126 61 115 297 211 124 197
8 298 212 127 200 198 125 62 116
8 199 126 212 298 115 61 125 198
8 205 129 64 120 300 214 127 200
8 301 217 130 201 202 132 66 117
8 209 136 168 264 301 217 130 201
8 302 219 132 202 203 133 67 118
8 303 220 133 203 206 134 68 121
8 205 129 215 304 120 64 128 204
8 304 215 131 207 204 128 65 122
8 306 221 134 206 208 135 69 123
8 208 135 69 123 307 218 131 207
8 210 137 167 263 309 223 136 209
8 328 238 147 226 230 149 76 140
8 228 146 91 166 329 236 165 260
8 231 150 77 141 330 235 145 227
8 330 235 145 227 228 146 91 166
8 332 239 148 229 233 151 78 143
8 230 149 76 140 332 239 148 229
8 232 152 79 142 334 241 150 231
8 234 153 80 144 335 243 152 232
8 336 242 151 233 234 153 80 144
8 236 155 90 165 338 245 164 259
8 241 160 86 150 339 246 154 235
8 339 246 154 235 237 156 82 146
8 237 156 82 146 340 247 155 236
8 342 249 157 238 240 159 85 149
8 343 250 158 239 242 161 87 151
8 240 159 85 149 343 250 158 239
8 243 162 88 152 345 252 160 241
8 244 163 253 346 153 89 161 242
8 244 163 89 153 347 254 162 243
8 311 224 261 371 210 137 167 263
8 263 167 262 372 209 136 168 264
8 267 179 98 171 375 275 178 265
8 375 275 178 265 328 238 147 226
8 376 273 176 266 267 179 98 171
8 268 177 96 172 376 273 176 266
8 379 272 175 269 268 177 96 172
8 380 271 174 270 269 175 94 173
8 283 197 113 186 380 271 174 270
8 381 277 180 271 272 181 100 175
8 297 211 124 197 381 277 180 271
8 382 278 181 272 274 183 102 177
8 274 183 102 177 383 279 182 273
8 383 279 182 273 276 185 104 179
8 385 281 184 275 342 249 157 238
8 276 185 104 179 385 281 184 275
8 285 199 115 188 393 297 197 283
8 394 298 200 286 284 198 116 189
8 285 199 298 394 188 115 198 284
8 291 205 120 193 396 300 200 286
8 397 301 201 287 288 202 117 190
8 295 209 264 374 397 301 201 287
8 398 302 202 288 289 203 118 191
8 399 303 203 289 293 206 121 195
8 291 205 304 400 193 120 204 290
8 400 304 207 292 290 204 122 194
8 294 208 123 196 402 307 207 292
8 403 306 206 293 294 208 123 196
8 296 210 263 373 405 309 209 295
8 408 312 213 299 297 211 126 199
8 299 213 313 409 199 126 212 298
8 409 313 214 300 298 212 127 200
8 305 216 129 205 411 315 214 300
8 412 318 217 301 302 219 132 202
8 309 223 136 209 412 318 217 301
8 413 320 219 302 303 220 133 203
8 306 221 321 414 206 134 220 303
8 307 218 131 207 415 316 215 304
8 305 216 316 415 205 129 215 304
8 417 322 221 306 308 222 135 208
8 308 222 135 208 418 319 218 307
8 310 225 137 210 420 325 223 309
8 423 326 224 311 310 225 137 210
8 329 236 165 260 441 338 259 368
8 442 342 238 328 333 240 149 230
8 331 237 146 228 443 340 236 329
8 334 241 150 231 444 339 235 330
8 444 339 235 330 331 237 146 228
8 446 343 239 332 336 242 151 233
8 333 240 149 230 446 343 239 332
8 335 243 152 232 448 345 241 334
8 337 244 153 234 449 347 243 335
8 337 244 346 450 234 153 242 336
8 338 245 164 259 452 349 258 367
8 340 247 155 236 453 350 245 338
8 345 252 160 241 454 351 246 339
8 454 351 246 339 341 248 156 237
8 341 248 156 237 455 352 247 340
8 240 159 251 344 342 249 354 457
8 242 161 253 346 343 250 355 458
8 343 250 355 458 240 159 251 344
8 347 254 162 243 460 357 252 345
8 348 255 358 461 244 163 253 346
8 348 255 163 244 462 359 254 347
8 473 360 257 365 363 256 364 482
8 452 349 258 367 365 257 366 485
8 422 324 369 488 311 224 261 371
8 371 261 370 490 263 167 262 372
8 407 311 371 491 296 210 263 373
8 373 263 372 492 295 209 264 374
8 493 385 275 375 442 342 238 328
8 377 276 179 267 493 385 275 375
8 378 274 177 268 494 383 273 376
8 494 383 273 376 377 276 179 267
8 497 382 272 379 378 274 177 268
8 498 381 271 380 379 272 175 269
8 393 297 197 283 498 381 271 380
8 499 387 277 381 382 278 181 272
8 408 312 211 297 499 387 277 381
8 500 388 278 382 384 280 183 274
8 501 389 279 383 386 282 185 276
8 384 280 183 274 501 389 279 383
8 386 282 185 276 503 391 281 385
8 503 391 281 385 457 354 249 342
8 511 408 299 395 393 297 199 285
8 395 299 409 512 285 199 298 394
8 512 409 300 396 394 298 200 286
8 401 305 205 291 514 411 300 396
8 515 412 301 397 398 302 202 288
8 405 309 209 295 515 412 301 397
8 516 413 302 398 399 303 203 289
8 403 306 414 517 293 206 303 399
8 402 307 207 292 518 415 304 400
8 401 305 415 518 291 205 304 400
8 404 308 208 294 520 418 307 402
8 521 417 306 403 404 308 208 294
8 406 310 210 296 523 420 309 405
8 526 423 311 407 406 310 210 296
8 410 314 213 299 527 424 312 408
8 528 425 315 411 409 313 214 300
8 410 314 425 528 299 213 313 409
8 416 317 216 305 530 427 315 411
8 531 430 318 412 413 320 219 302
8 420 325 223 309 531 430 318 412
8 532 432 320 413 414 321 220 303
8 417 322 433 533 306 221 321 414
8 418 319 218 307 534 428 316 415
8 416 317 428 534 305 216 316 415
8 419 323 434 536 308 222 322 417
8 419 323 222 308 537 431 319 418
8 421 327 225 310 539 438 325 420
8 421 327 439 541 310 225 326 423
8 543 437 324 422 423 326 224 311
8 441 338 259 368 559 452 367 486
8 443 340 236 329 560 453 338 441
8 333 240 344 447 442 342 457 561
8 445 341 237 331 562 455 340 443
8 448 345 241 334 563 454 339 444
8 563 454 339 444 445 341 237 331
8 336 242 346 450 446 343 458 565
8 446 343 458 565 333 240 344 447
8 449 347 243 335 567 460 345 448
8 451 348 244 337 568 462 347 449
8 451 348 461 569 337 244 346 450
8 570 463 349 452 473 360 257 365
8 453 350 245 338 570 463 349 452
8 455 352 247 340 571 464 350 453
8 460 357 252 345 572 465 351 454
8 572 465 351 454 456 353 248 341
8 456 353 248 341 573 466 352 455
8 344 251 356 459 457 354 468 575
8 458 355 469 576 344 251 356 459
8 346 253 358 461 458 355 469 576
8 462 359 254 347 578 471 357 460
8 348 255 359 462 461 358 472 579
8 591 474 360 473 475 361 256 363
8 475 361 256 363 594 477 362 479
8 363 256 364 482 479 362 480 603
8 590 473 365 484 481 363 482 605
8 482 364 257 365 606 483 366 485
8 559 452 367 486 484 365 485 607
8 542 436 487 609 422 324 369 488
8 525 422 488 611 407 311 371 491
8 488 369 489 612 371 261 370 490
8 491 371 490 613 373 263 372 492
8 495 386 276 377 614 503 385 493
8 614 503 385 493 561 457 342 442
8 615 501 383 494 495 386 276 377
8 496 384 274 378 615 501 383 494
8 618 500 382 497 496 384 274 378
8 619 499 381 498 497 382 272 379
8 511 408 297 393 619 499 381 498
8 620 505 387 499 500 388 278 382
8 527 424 312 408 620 505 387 499
8 502 390 506 621 384 280 388 500
8 622 507 389 501 504 392 282 386
8 502 390 280 384 622 507 389 501
8 504 392 282 386 624 509 391 503
8 624 509 391 503 575 468 354 457
8 513 410 299 395 630 527 408 511
8 631 528 411 514 512 409 300 396
8 513 410 528 631 395 299 409 512
8 519 416 305 401 633 530 411 514
8 634 531 412 515 516 413 302 398
8 523 420 309 405 634 531 412 515
8 635 532 413 516 517 414 303 399
8 521 417 533 636 403 306 414 517
8 520 418 307 402 637 534 415 518
8 519 416 534 637 401 305 415 518
8 522 419 308 404 639 537 418 520
8 522 419 536 640 404 308 417 521
8 524 421 310 406 642 539 420 523
8 524 421 541 644 406 310 423 526
8 646 543 422 525 526 423 311 407
8 529 426 314 410 647 544 424 527
8 528 425 545 648 411 315 427 530
8 529 426 545 648 410 314 425 528
8 535 429 317 416 649 546 427 530
8 650 548 430 531 532 432 320 413
8 539 438 325 420 650 548 430 531
8 533 433 550 651 414 321 432 532
8 536 434 551 652 417 322 433 533
8 537 431 319 418 653 547 428 534
8 535 429 547 653 416 317 428 534
8 538 435 552 654 419 323 434 536
8 538 435 323 419 655 549 431 537
8 540 440 327 421 657 556 438 539
8 540 440 557 659 421 327 439 541
8 541 439 555 660 423 326 437 543
8 661 554 436 542 543 437 324 422
8 676 570 452 559 590 473 365 484
8 560 453 338 441 676 570 452 559
8 562 455 340 443 677 571 453 560
8 447 344 459 566 561 457 575 678
8 564 456 341 445 679 573 455 562
8 567 460 345 448 680 572 454 563
8 680 572 454 563 564 456 341 445
8 565 458 576 682 447 344 459 566
8 450 346 461 569 565 458 576 682
8 568 462 347 449 684 578 460 567
8 451 348 462 568 569 461 579 685
8 686 580 463 570 591 474 360 473
8 571 464 350 453 686 580 463 570
8 573 466 352 455 687 581 464 571
8 572 465 582 688 460 357 471 578
8 574 467 582 688 456 353 465 572
8 574 467 353 456 689 583 466 573
8 459 356 470 577 575 468 585 691
8 576 469 586 692 459 356 470 577
8 461 358 472 579 576 469 586 692
8 462 359 471 578 579 472 588 694
8 704 591 473 590 593 475 363 481
8 595 476 592 705 475 361 474 591
8 593 475 363 481 707 594 479 602
8 594 477 362 479 709 598 478 600
8 595 476 361 475 711 597 477 594
8 479 362 480 603 600 478 601 720
8 481 363 482 605 602 479 603 722
8 603 480 364 482 723 604 483 606
8 605 482 365 484 724 606 485 607
8 656 553 608 726 542 436 487 609
8 645 542 609 728 525 422 488 611
8 609 487 610 729 488 369 489 612
8 611 488 612 730 491 371 490 613
8 616 504 386 495 731 624 503 614
8 731 624 503 614 678 575 457 561
8 732 622 501 615 616 504 386 495
8 617 502 384 496 732 622 501 615
8 617 502 621 735 496 384 500 618
8 736 620 499 619 618 500 382 497
8 630 527 408 511 736 620 499 619
8 621 506 626 737 500 388 505 620
8 647 544 424 527 737 626 505 620
8 623 508 627 738 502 390 506 621
8 623 508 390 502 739 628 507 622
8 625 510 628 739 504 392 507 622
8 740 629 509 624 691 585 468 575
8 625 510 392 504 740 629 509 624
8 632 529 410 513 744 647 527 630
8 631 528 648 745 514 411 530 633
8 632 529 648 745 513 410 528 631
8 638 535 416 519 746 649 530 633
8 747 650 531 634 635 532 413 516
8 642 539 420 523 747 650 531 634
8 636 533 651 748 517 414 532 635
8 640 536 652 749 521 417 533 636
8 639 537 418 520 750 653 534 637
8 638 535 653 750 519 416 534 637
8 641 538 419 522 751 655 537 639
8 641 538 654 752 522 419 536 640
8 643 540 421 524 753 657 539 642
8 643 540 659 755 524 421 541 644
8 644 541 660 757 526 423 543 646
8 758 661 542 645 646 543 422 525
8 529 426 544 647 648 545 662 759
8 530 427 545 648 649 546 663 760
8 535 429 546 649 653 547 664 761
8 762 666 548 650 651 550 432 532
8 657 556 438 539 762 666 548 650
8 652 551 668 763 533 433 550 651
8 654 552 669 764 536 434 551 652
8 655 549 431 537 765 665 547 653
8 538 435 549 655 654 552 667 766
8 661 554 671 768 542 436 553 656
8 658 558 440 540 769 674 556 657
8 658 558 675 770 540 440 557 659
8 659 557 673 771 541 439 555 660
8 660 555 672 772 543 437 554 661
8 788 686 570 676 704 591 473 590
8 677 571 453 560 788 686 570 676
8 679 573 455 562 789 687 571 677
8 566 459 577 683 678 575 691 790
8 681 574 456 564 791 689 573 679
8 680 572 688 792 567 460 578 684
8 681 574 688 792 564 456 572 680
8 682 576 692 794 566 459 577 683
8 569 461 579 685 682 576 692 794
8 568 462 578 684 685 579 694 796
8 687 581 464 571 798 696 580 686
8 798 696 580 686 705 592 474 591
8 689 583 466 573 799 697 581 687
8 688 582 698 800 578 471 588 694
8 690 584 698 800 574 467 582 688
8 690 584 467 574 801 699 583 689
8 693 587 701 803 577 470 585 691
8 693 587 470 577 804 702 586 692
8 695 589 702 804 579 472 586 692
8 695 589 472 579 805 703 588 694
8 708 595 705 813 593 475 591 704
8 710 596 706 814 595 476 592 705
8 707 594 479 602 816 709 600 719
8 708 595 475 593 817 711 594 707
8 709 598 478 600 819 715 599 717
8 711 597 477 594 820 714 598 709
8 710 596 476 595 822 713 597 711
8 600 478 601 720 717 599 718 832
8 602 479 603 722 719 600 720 834
8 720 601 480 603 835 721 604 723
8 722 603 482 605 836 723 606 724
8 767 670 725 839 656 553 608 726
8 756 656 726 841 645 542 609 728
8 726 608 727 842 609 487 610 729
8 728 609 729 843 611 488 612 730
8 844 740 624 731 790 691 575 678
8 733 625 504 616 844 740 624 731
8 734 623 502 617 845 739 622 732
8 733 625 739 845 616 504 622 732
8 734 623 738 846 617 502 621 735
8 735 621 737 847 618 500 620 736
8 744 647 527 630 847 737 620 736
8 621 506 627 738 737 626 741 848
8 647 544 626 737 759 662 741 848
8 623 508 628 739 738 627 742 849
8 740 629 585 691 850 743 700 802
8 625 510 629 740 739 628 743 850
8 632 529 647 744 745 648 759 854
8 633 530 648 745 746 649 760 855
8 638 535 649 746 750 653 761 856
8 857 762 650 747 748 651 532 635
8 753 657 539 642 857 762 650 747
8 749 652 763 858 636 533 651 748
8 752 654 764 859 640 536 652 749
8 751 655 537 639 860 765 653 750
8 641 538 655 751 752 654 766 861
8 754 658 540 643 862 769 657 753
8 754 658 770 863 643 540 659 755
8 755 659 771 864 644 541 660 757
8 758 661 768 866 645 542 656 756
8 757 660 772 867 646 543 661 758
8 759 662 773 868 648 545 663 760
8 649 546 663 760 761 664 774 871
8 765 665 547 653 872 775 664 761
8 873 777 666 762 763 668 550 651
8 769 674 556 657 873 777 666 762
8 764 669 779 874 652 551 668 763
8 654 552 667 766 764 669 778 875
8 655 549 665 765 766 667 776 876
8 768 671 782 877 656 553 670 767
8 772 672 783 878 661 554 671 768
8 658 558 674 769 770 675 786 879
8 659 557 675 770 771 673 785 881
8 882 784 672 772 771 673 555 660
8 789 687 571 677 897 798 686 788
8 897 798 686 788 813 705 591 704
8 791 689 573 679 898 799 687 789
8 795 693 803 900 683 577 691 790
8 793 690 574 681 901 801 689 791
8 792 688 800 902 684 578 694 796
8 793 690 800 902 681 574 688 792
8 795 693 577 683 903 804 692 794
8 797 695 804 903 685 579 692 794
8 797 695 579 685 904 805 694 796
8 905 806 697 799 798 696 581 687
8 814 706 806 905 705 592 696 798
8 689 583 697 799 801 699 808 907
8 800 698 809 908 694 588 703 805
8 690 584 699 801 800 698 809 908
8 803 701 810 909 691 585 700 802
8 693 587 702 804 803 701 811 910
8 695 589 703 805 804 702 812 911
8 818 710 814 919 708 595 705 813
8 821 712 815 920 710 596 706 814
8 816 709 600 719 922 819 717 831
8 817 711 594 707 923 820 709 816
8 818 710 595 708 924 822 711 817
8 819 715 599 717 926 827 716 829
8 820 714 598 709 927 826 715 819
8 929 825 713 822 820 714 597 711
8 821 712 596 710 930 824 713 822
8 717 599 718 832 829 716 830 942
8 719 600 720 834 831 717 832 944
8 832 718 601 720 945 833 721 835
8 834 720 603 722 946 835 723 836
8 869 780 838 950 767 670 725 839
8 865 767 839 952 756 656 726 841
8 839 725 840 953 726 608 727 842
8 841 726 842 954 728 609 729 843
8 844 740 691 790 955 850 802 899
8 733 625 740 844 845 739 850 955
8 734 623 739 845 846 738 849 956
8 735 621 738 846 847 737 848 957
8 744 647 737 847 854 759 848 957
8 738 627 742 849 848 741 851 958
8 848 741 851 958 759 662 773 868
8 850 743 700 802 959 852 807 906
8 849 742 628 739 959 852 743 850
8 854 759 868 965 745 648 760 855
8 746 649 760 855 856 761 871 966
8 860 765 653 750 967 872 761 856
8 968 873 762 857 858 763 651 748
8 862 769 657 753 968 873 762 857
8 859 764 874 969 749 652 763 858
8 752 654 766 861 859 764 875 970
8 751 655 765 860 861 766 876 971
8 754 658 769 862 863 770 879 972
8 755 659 770 863 864 771 881 974
8 976 882 772 867 864 771 660 757
8 866 768 877 977 756 656 767 865
8 867 772 878 978 758 661 768 866
8 760 663 773 868 871 774 883 980
8 870 781 837 948 982 890 780 869
8 982 890 780 869 877 782 670 767
8 761 664 774 871 872 775 884 984
8 876 776 665 765 985 885 775 872
8 873 777 668 763 986 887 779 874
8 769 674 777 873 879 786 887 986
8 764 669 778 875 874 779 888 987
8 766 667 776 876 875 778 886 988
8 878 783 892 989 768 671 782 877
8 878 783 672 772 990 893 784 882
8 880 787 675 770 991 896 786 879
8 880 787 895 992 770 675 785 881
8 881 785 894 993 771 673 784 882
8 1006 905 799 898 897 798 687 789
8 919 814 905 1006 813 705 798 897
8 791 689 799 898 901 801 907 1007
8 900 803 909 1009 790 691 802 899
8 795 693 804 903 900 803 910 1010
8 902 800 908 1011 796 694 805 904
8 793 690 801 901 902 800 908 1011
8 797 695 805 904 903 804 911 1012
8 799 697 806 905 907 808 912 1013
8 920 815 912 1013 814 706 806 905
8 802 700 810 909 906 807 913 1014
8 801 699 808 907 908 809 914 1015
8 805 703 809 908 911 812 915 1016
8 803 701 811 910 909 810 916 1017
8 911 812 917 1018 804 702 811 910
8 925 821 920 1030 818 710 814 919
8 928 823 921 1031 821 712 815 920
8 922 819 717 831 1033 926 829 941
8 923 820 709 816 1034 927 819 922
8 1035 929 822 924 923 820 711 817
8 925 821 710 818 1036 930 822 924
8 1038 933 825 929 927 826 714 820
8 926 827 716 829 1039 935 828 939
8 927 826 715 819 1040 934 827 926
8 928 823 712 821 1041 931 824 930
8 1042 932 824 930 929 825 713 822
8 829 716 830 942 939 828 940 1058
8 831 717 832 944 941 829 942 1060
8 942 830 718 832 1061 943 833 945
8 944 832 720 834 1062 945 835 946
8 981 889 947 1064 870 781 837 948
8 948 837 949 1067 869 780 838 950
8 975 869 950 1069 865 767 839 952
8 950 838 951 1070 839 725 840 953
8 952 839 953 1071 841 726 842 954
8 955 850 802 899 1072 959 906 1008
8 956 849 739 845 1072 959 850 955
8 846 738 849 956 957 848 958 1073
8 957 848 958 1073 854 759 868 965
8 849 742 852 959 958 851 961 1076
8 960 853 961 1076 906 807 852 959
8 958 851 961 1076 868 773 883 980
8 960 853 807 906 1077 963 913 1014
8 855 760 868 965 966 871 980 1085
8 856 761 871 966 967 872 984 1086
8 971 876 765 860 1087 985 872 967
8 968 873 763 858 1088 986 874 969
8 862 769 873 968 972 879 986 1088
8 859 764 875 970 969 874 987 1089
8 861 766 876 971 970 875 988 1090
8 973 880 770 863 1091 991 879 972
8 973 880 992 1092 863 770 881 974
8 974 881 993 1093 864 771 882 976
8 979 870 948 1066 1094 982 869 975
8 1094 982 869 975 977 877 767 865
8 978 878 772 867 1095 990 882 976
8 978 878 989 1096 866 768 877 977
8 871 774 883 980 984 884 994 1099
8 983 891 999 1100 870 781 889 981
8 1101 1000 890 982 989 892 782 877
8 983 891 781 870 1101 1000 890 982
8 872 775 884 984 985 885 995 1103
8 876 776 885 985 988 886 996 1104
8 986 887 779 874 1105 998 888 987
8 879 786 887 986 991 896 998 1105
8 875 778 886 988 987 888 997 1106
8 990 893 1002 1107 878 783 892 989
8 1108 1003 893 990 993 894 784 882
8 880 787 896 991 992 895 1005 1109
8 993 894 785 881 1110 1004 895 992
8 898 799 905 1006 1007 907 1013 1120
8 1030 920 1013 1120 919 814 905 1006
8 901 801 907 1007 1011 908 1015 1121
8 899 802 909 1009 1008 906 1014 1122
8 900 803 910 1010 1009 909 1017 1123
8 1012 911 1018 1124 903 804 910 1010
8 904 805 908 1011 1012 911 1016 1125
8 1013 912 1020 1127 907 808 914 1015
8 1031 921 1020 1127 920 815 912 1013
8 1019 918 962 1075 1128 1021 913 1014
8 1128 1021 913 1014 1017 916 810 909
8 1015 914 1022 1129 908 809 915 1016
8 1016 915 1023 1130 911 812 917 1018
8 1018 917 1024 1131 910 811 916 1017
8 1037 928 1031 1148 925 821 920 1030
8 928 823 931 1041 1031 921 1032 1149
8 1033 926 829 941 1151 1039 939 1057
8 1034 927 819 922 1152 1040 926 1033
8 1153 1038 929 1035 1034 927 820 923
8 1154 1042 930 1036 1035 929 822 924
8 1037 928 821 925 1155 1041 930 1036
8 1039 935 828 939 1156 1047 938 1055
8 1157 1043 932 1042 1038 933 825 929
8 1038 933 826 927 1158 1045 934 1040
8 1040 934 827 926 1159 1046 935 1039
8 930 824 932 1042 1041 931 1044 1160
8 1051 936 1048 1165 1175 1052 937 1053
8 1156 1047 938 1055 1053 937 1054 1178
8 939 828 940 1058 1055 938 1056 1181
8 941 829 942 1060 1057 939 1058 1183
8 942 830 943 1061 1058 940 1059 1184
8 1060 942 832 944 1185 1061 945 1062
8 1082 964 1063 1188 981 889 947 1064
8 1097 981 1064 1190 979 870 948 1066
8 1064 947 1065 1191 948 837 949 1067
8 1066 948 1067 1193 975 869 950 1069
8 1067 949 1068 1194 950 838 951 1070
8 1069 950 1070 1195 952 839 953 1071
8 956 849 959 1072 1073 958 1076 1197
8 1074 960 1076 1197 1008 906 959 1072
8 1073 958 1076 1197 965 868 980 1085
8 1074 960 906 1008 1198 1077 1014 1122
8 1133 1026 1079 1199 1019 918 962 1075
8 1077 963 913 1014 1200 1080 962 1075
8 960 853 963 1077 1076 961 1078 1201
8 980 883 961 1076 1099 994 1078 1201
8 1210 1083 964 1082 1100 999 889 981
8 966 871 980 1085 1086 984 1099 1215
8 967 872 984 1086 1087 985 1103 1216
8 971 876 985 1087 1090 988 1104 1217
8 1088 986 874 969 1218 1105 987 1089
8 972 879 986 1088 1091 991 1105 1218
8 970 875 988 1090 1089 987 1106 1219
8 973 880 991 1091 1092 992 1109 1220
8 1093 993 881 974 1221 1110 992 1092
8 1222 1108 990 1095 1093 993 882 976
8 1223 1101 982 1094 1096 989 877 977
8 1098 983 870 979 1223 1101 982 1094
8 1095 990 1107 1224 978 878 989 1096
8 1098 983 1100 1225 979 870 981 1097
8 984 884 994 1099 1103 995 1111 1227
8 1102 1001 1115 1228 983 891 999 1100
8 1101 1000 892 989 1229 1116 1002 1107
8 1102 1001 891 983 1229 1116 1000 1101
8 985 885 995 1103 1104 996 1112 1230
8 988 886 996 1104 1106 997 1113 1231
8 1105 998 888 987 1232 1114 997 1106
8 991 896 998 1105 1109 1005 1114 1232
8 1108 1003 1117 1233 990 893 1002 1107
8 1108 1003 894 993 1233 1117 1004 1110
8 992 895 1005 1109 1110 1004 1118 1234
8 1120 1013 1127 1244 1007 907 1015 1121
8 1148 1031 1127 1244 1030 920 1013 1120
8 1121 1015 1129 1245 1011 908 1016 1125
8 1126 1019 1075 1196 1246 1128 1014 1122
8 1246 1128 1014 1122 1123 1017 909 1009
8 1124 1018 1131 1247 1010 910 1017 1123
8 1125 1016 1130 1248 1012 911 1018 1124
8 1127 1020 1137 1254 1015 914 1022 1129
8 1031 921 1032 1149 1127 1020 1137 1254
8 1134 1027 918 1019 1257 1140 1021 1128
8 1257 1140 1021 1128 1131 1024 916 1017
8 1129 1022 1141 1258 1016 915 1023 1130
8 1130 1023 1142 1259 1018 917 1024 1131
8 1261 1144 1025 1132 1133 1026 1079 1199
8 1255 1138 1025 1132 1135 1028 1144 1261
8 1133 1026 918 1019 1262 1145 1027 1134
8 1136 1029 1139 1256 1263 1146 1028 1135
8 1037 928 1041 1155 1148 1031 1149 1275
8 1041 931 1044 1160 1149 1032 1150 1276
8 1151 1039 939 1057 1278 1156 1055 1180
8 1152 1040 926 1033 1279 1159 1039 1151
8 1153 1038 927 1034 1280 1158 1040 1152
8 1281 1157 1042 1154 1153 1038 929 1035
8 1036 930 1042 1154 1155 1041 1160 1282
8 1283 1164 1046 1159 1156 1047 935 1039
8 1165 1048 1164 1283 1053 937 1047 1156
8 1157 1043 933 1038 1284 1161 1045 1158
8 1157 1043 1161 1284 1042 932 1044 1160
8 1040 934 1046 1159 1158 1045 1163 1285
8 1166 1049 1167 1292 1051 936 1048 1165
8 1166 1049 936 1051 1293 1168 1050 1172
8 1051 936 1052 1175 1172 1050 1173 1306
8 1174 1051 1165 1290 1308 1175 1053 1177
8 1053 937 1054 1178 1175 1052 1176 1309
8 1278 1156 1055 1180 1177 1053 1178 1311
8 1055 938 1056 1181 1178 1054 1179 1312
8 1057 939 1058 1183 1180 1055 1181 1314
8 1058 940 1059 1184 1181 1056 1182 1315
8 1060 942 1061 1185 1183 1058 1184 1316
8 1208 1081 1187 1321 1082 964 1063 1188
8 1209 1082 1188 1322 1097 981 1064 1190
8 1188 1063 1189 1323 1064 947 1065 1191
8 1190 1064 1191 1325 1066 948 1067 1193
8 1191 1065 1192 1326 1067 949 1068 1194
8 1067 1193 1069 950 1194 1327 1195 1070
8 1250 1133 1199 1330 1126 1019 1075 1196
8 1198 1077 1014 1122 1331 1200 1075 1196
8 1074 960 1077 1198 1197 1076 1201 1332
8 1085 980 1076 1197 1215 1099 1201 1332
8 1199 1079 1203 1333 1075 962 1080 1200
8 1132 1025 1119 1243 1199 1079 1203 1333
8 1201 1078 963 1077 1334 1202 1080 1200
8 1099 994 1078 1201 1227 1111 1202 1334
8 1343 1207 1081 1208 1210 1083 964 1082
8 1214 1084 1186 1319 1343 1207 1081 1208
8 1345 1210 1082 1209 1225 1100 981 1097
8 1346 1211 1083 1210 1228 1115 999 1100
8 1086 984 1099 1215 1216 1103 1227 1352
8 1087 985 1103 1216 1217 1104 1230 1353
8 1090 988 1104 1217 1219 1106 1231 1354
8 1218 1105 987 1089 1355 1232 1106 1219
8 1091 991 1105 1218 1220 1109 1232 1355
8 1092 992 1109 1220 1221 1110 1234 1356
8 1222 1108 1233 1357 1095 990 1107 1224
8 1222 1108 993 1093 1357 1233 1110 1221
8 1223 1101 989 1096 1358 1229 1107 1224
8 1226 1102 983 1098 1358 1229 1101 1223
8 1226 1102 1228 1359 1098 983 1100 1225
8 1103 995 1111 1227 1230 1112 1235 1360
8 1107 1002 1117 1233 1229 1116 1240 1362
8 1102 1001 1116 1229 1228 1115 1240 1362
8 1104 996 1112 1230 1231 1113 1236 1363
8 1364 1237 1114 1232 1231 1113 997 1106
8 1109 1005 1114 1232 1234 1118 1238 1365
8 1110 1004 1118 1234 1233 1117 1241 1366
8 1242 1374 1255 1138 1119 1243 1132 1025
8 1244 1127 1254 1376 1121 1015 1129 1245
8 1148 1031 1149 1275 1244 1127 1254 1376
8 1245 1129 1258 1377 1125 1016 1130 1248
8 1251 1134 1019 1126 1378 1257 1128 1246
8 1378 1257 1128 1246 1247 1131 1017 1123
8 1248 1130 1259 1379 1124 1018 1131 1247
8 1261 1381 1250 1133 1132 1249 1330 1199
8 1255 1380 1252 1135 1132 1249 1381 1261
8 1250 1133 1019 1126 1382 1262 1134 1251
8 1253 1136 1256 1385 1384 1263 1135 1252
8 1254 1137 1265 1387 1129 1022 1141 1258
8 1149 1032 1150 1276 1254 1137 1265 1387
8 1028 1135 1255 1138 1139 1256 1388 1266
8 1136 1029 1147 1264 1256 1139 1267 1389
8 1390 1268 1140 1257 1259 1142 1024 1131
8 1260 1143 1027 1134 1390 1268 1140 1257
8 1258 1141 1269 1391 1130 1023 1142 1259
8 1262 1145 1027 1134 1393 1271 1143 1260
8 1261 1144 1026 1133 1394 1272 1145 1262
8 1135 1028 1144 1261 1263 1146 1272 1394
8 1136 1029 1146 1263 1264 1147 1273 1395
8 1155 1041 1160 1282 1275 1149 1276 1405
8 1276 1150 1044 1160 1406 1277 1162 1286
8 1408 1283 1159 1279 1278 1156 1039 1151
8 1290 1165 1283 1408 1177 1053 1156 1278
8 1152 1040 1159 1279 1280 1158 1285 1409
8 1281 1157 1038 1153 1410 1284 1158 1280
8 1281 1157 1284 1410 1154 1042 1160 1282
8 1159 1046 1164 1283 1285 1163 1289 1412
8 1292 1167 1289 1412 1165 1048 1164 1283
8 1158 1045 1163 1285 1284 1161 1288 1413
8 1284 1161 1288 1413 1160 1044 1162 1286
8 1291 1166 1292 1418 1174 1051 1165 1290
8 1291 1166 1051 1174 1419 1293 1172 1305
8 1294 1169 1296 1421 1166 1049 1167 1292
8 1293 1168 1050 1172 1422 1295 1171 1303
8 1294 1169 1049 1166 1423 1297 1168 1293
8 1422 1295 1171 1303 1301 1170 1302 1435
8 1172 1050 1173 1306 1303 1171 1304 1438
8 1174 1051 1175 1308 1305 1172 1306 1440
8 1175 1052 1176 1309 1306 1173 1307 1441
8 1177 1053 1178 1311 1308 1175 1309 1443
8 1178 1054 1179 1312 1309 1176 1310 1444
8 1180 1055 1181 1314 1311 1178 1312 1446
8 1056 1181 1312 1179 1182 1315 1447 1313
8 1183 1058 1184 1316 1314 1181 1315 1448
8 1319 1186 1084 1214 1451 1317 1213 1350
8 1319 1186 1318 1453 1208 1081 1187 1321
8 1321 1187 1320 1456 1188 1063 1189 1323
8 1344 1208 1321 1457 1209 1082 1188 1322
8 1322 1188 1323 1458 1190 1064 1191 1325
8 1323 1189 1324 1459 1191 1065 1192 1326
8 1191 1325 1193 1067 1326 1460 1327 1194
8 1242 1374 1243 1119 1328 1462 1335 1204
8 1330 1199 1333 1465 1196 1075 1200 1331
8 1132 1249 1330 1199 1243 1375 1465 1333
8 1332 1201 1077 1198 1466 1334 1200 1331
8 1215 1099 1201 1332 1352 1227 1334 1466
8 1119 1243 1333 1203 1204 1335 1470 1338
8 1333 1203 1338 1470 1200 1080 1202 1334
8 1227 1111 1202 1334 1360 1235 1338 1470
8 1328 1462 1335 1204 1205 1336 1471 1339
8 1337 1206 1340 1472 1464 1329 1205 1336
8 1346 1211 1342 1479 1210 1083 1207 1343
8 1346 1211 1115 1228 1479 1342 1239 1361
8 1348 1212 1084 1214 1479 1342 1207 1343
8 1480 1343 1208 1344 1345 1210 1082 1209
8 1351 1214 1319 1454 1480 1343 1208 1344
8 1481 1346 1210 1345 1359 1228 1100 1225
8 1348 1212 1347 1483 1214 1084 1213 1350
8 1216 1103 1227 1352 1353 1230 1360 1488
8 1217 1104 1230 1353 1354 1231 1363 1489
8 1490 1364 1232 1355 1354 1231 1106 1219
8 1220 1109 1232 1355 1356 1234 1365 1491
8 1221 1110 1234 1356 1357 1233 1366 1492
8 1224 1107 1233 1357 1358 1229 1362 1493
8 1226 1102 1229 1358 1359 1228 1362 1493
8 1230 1112 1235 1360 1363 1236 1367 1496
8 1361 1239 1115 1228 1497 1371 1240 1362
8 1366 1241 1372 1498 1233 1117 1240 1362
8 1364 1237 1113 1231 1499 1368 1236 1363
8 1364 1237 1368 1499 1232 1114 1238 1365
8 1234 1118 1238 1365 1366 1241 1369 1500
8 1507 1373 1242 1374 1388 1266 1138 1255
8 1508 1374 1243 1375 1380 1255 1132 1249
8 1376 1254 1387 1509 1245 1129 1258 1377
8 1275 1149 1276 1405 1376 1254 1387 1509
8 1377 1258 1391 1510 1248 1130 1259 1379
8 1511 1390 1257 1378 1379 1259 1131 1247
8 1383 1260 1134 1251 1511 1390 1257 1378
8 1252 1135 1256 1385 1380 1255 1388 1512
8 1261 1381 1513 1394 1133 1250 1382 1262
8 1135 1252 1384 1263 1261 1381 1513 1394
8 1382 1262 1134 1251 1514 1393 1260 1383
8 1253 1136 1263 1384 1386 1264 1395 1516
8 1253 1136 1264 1386 1385 1256 1389 1517
8 1387 1265 1397 1519 1258 1141 1269 1391
8 1276 1150 1277 1406 1387 1265 1397 1519
8 1256 1139 1267 1389 1388 1266 1398 1520
8 1264 1147 1274 1396 1389 1267 1399 1521
8 1392 1270 1143 1260 1522 1400 1268 1390
8 1390 1268 1142 1259 1522 1400 1269 1391
8 1392 1270 1401 1523 1260 1143 1271 1393
8 1272 1394 1524 1402 1145 1262 1393 1271
8 1395 1273 1146 1263 1524 1402 1272 1394
8 1273 1395 1264 1147 1403 1526 1396 1274
8 1405 1276 1160 1282 1534 1406 1286 1411
8 1414 1287 1407 1535 1286 1162 1277 1406
8 1279 1159 1283 1408 1409 1285 1412 1537
8 1418 1292 1412 1537 1290 1165 1283 1408
8 1280 1158 1285 1409 1410 1284 1413 1538
8 1410 1284 1413 1538 1282 1160 1286 1411
8 1285 1163 1289 1412 1413 1288 1417 1540
8 1421 1296 1417 1540 1292 1167 1289 1412
8 1414 1287 1162 1286 1541 1416 1288 1413
8 1420 1294 1421 1545 1291 1166 1292 1418
8 1419 1293 1172 1305 1546 1422 1303 1437
8 1420 1294 1166 1291 1547 1423 1293 1419
8 1294 1169 1297 1423 1421 1296 1425 1548
8 1423 1297 1168 1293 1549 1424 1295 1422
8 1301 1170 1298 1427 1422 1295 1424 1549
8 1432 1300 1428 1554 1301 1170 1298 1427
8 1431 1299 1428 1554 1560 1430 1300 1432
8 1563 1433 1300 1432 1435 1302 1170 1301
8 1546 1422 1303 1437 1434 1301 1435 1565
8 1303 1171 1304 1438 1435 1302 1436 1566
8 1305 1172 1306 1440 1437 1303 1438 1568
8 1306 1173 1307 1441 1438 1304 1439 1569
8 1308 1175 1309 1443 1440 1306 1441 1571
8 1309 1176 1310 1444 1441 1307 1442 1572
8 1311 1178 1312 1446 1443 1309 1444 1574
8 1179 1312 1444 1310 1313 1447 1575 1445
8 1314 1181 1315 1448 1446 1312 1447 1576
8 1350 1213 1349 1486 1451 1317 1449 1579
8 1451 1317 1450 1581 1319 1186 1318 1453
8 1454 1319 1214 1351 1582 1451 1350 1487
8 1453 1318 1452 1584 1321 1187 1320 1456
8 1454 1319 1453 1585 1344 1208 1321 1457
8 1456 1320 1455 1586 1323 1189 1324 1459
8 1457 1321 1456 1587 1322 1188 1323 1458
8 1458 1323 1459 1588 1325 1191 1326 1460
8 1205 1336 1464 1329 1328 1462 1590 1461
8 1507 1373 1461 1590 1374 1242 1328 1462
8 1508 1374 1462 1591 1375 1243 1335 1467
8 1337 1206 1329 1464 1473 1341 1463 1594
8 1375 1243 1335 1467 1465 1333 1470 1596
8 1465 1333 1470 1596 1331 1200 1334 1466
8 1352 1227 1334 1466 1488 1360 1470 1596
8 1591 1462 1336 1468 1467 1335 1471 1597
8 1469 1337 1472 1598 1595 1464 1336 1468
8 1471 1339 1474 1600 1335 1204 1338 1470
8 1600 1474 1367 1496 1470 1338 1235 1360
8 1336 1205 1340 1472 1471 1339 1475 1601
8 1337 1206 1341 1473 1472 1340 1476 1602
8 1495 1370 1478 1609 1361 1239 1342 1479
8 1348 1212 1342 1479 1483 1347 1478 1609
8 1481 1346 1479 1610 1345 1210 1343 1480
8 1481 1346 1228 1359 1610 1479 1361 1494
8 1484 1348 1214 1351 1610 1479 1343 1480
8 1483 1347 1482 1612 1350 1213 1349 1486
8 1484 1348 1483 1613 1351 1214 1350 1487
8 1353 1230 1360 1488 1489 1363 1496 1616
8 1490 1364 1231 1354 1617 1499 1363 1489
8 1490 1364 1499 1617 1355 1232 1365 1491
8 1356 1234 1365 1491 1492 1366 1500 1619
8 1492 1366 1498 1620 1357 1233 1362 1493
8 1494 1361 1228 1359 1621 1497 1362 1493
8 1495 1370 1239 1361 1622 1504 1371 1497
8 1363 1236 1367 1496 1499 1368 1501 1623
8 1497 1371 1240 1362 1624 1505 1372 1498
8 1625 1503 1372 1498 1500 1369 1241 1366
8 1365 1238 1368 1499 1500 1369 1502 1626
8 1520 1398 1506 1633 1388 1266 1373 1507
8 1634 1507 1374 1508 1512 1388 1255 1380
8 1509 1387 1519 1635 1377 1258 1391 1510
8 1405 1276 1406 1534 1509 1387 1519 1635
8 1515 1392 1260 1383 1636 1522 1390 1511
8 1511 1390 1259 1379 1636 1522 1391 1510
8 1385 1256 1389 1517 1512 1388 1520 1637
8 1513 1394 1262 1382 1638 1524 1393 1514
8 1395 1516 1638 1524 1263 1384 1513 1394
8 1515 1392 1523 1639 1383 1260 1393 1514
8 1516 1395 1526 1640 1386 1264 1396 1518
8 1386 1264 1396 1518 1517 1389 1521 1641
8 1519 1397 1527 1643 1391 1269 1400 1522
8 1535 1407 1527 1643 1406 1277 1397 1519
8 1389 1267 1399 1521 1520 1398 1528 1644
8 1645 1529 1399 1521 1525 1404 1274 1396
8 1392 1270 1400 1522 1523 1401 1531 1646
8 1524 1402 1271 1393 1648 1532 1401 1523
8 1403 1526 1648 1532 1273 1395 1524 1402
8 1525 1404 1274 1396 1649 1533 1403 1526
8 1539 1414 1535 1657 1411 1286 1406 1534
8 1542 1415 1536 1658 1414 1287 1407 1535
8 1409 1285 1412 1537 1538 1413 1540 1660
8 1545 1421 1540 1660 1418 1292 1412 1537
8 1539 1414 1286 1411 1661 1541 1413 1538
8 1540 1417 1544 1663 1413 1288 1416 1541
8 1421 1296 1425 1548 1540 1417 1544 1663
8 1542 1415 1287 1414 1664 1543 1416 1541
8 1420 1294 1423 1547 1545 1421 1548 1666
8 1547 1423 1293 1419 1667 1549 1422 1546
8 1434 1301 1427 1553 1546 1422 1549 1667
8 1423 1297 1424 1549 1548 1425 1550 1668
8 1551 1426 1550 1668 1427 1298 1424 1549
8 1551 1426 1298 1427 1671 1552 1428 1554
8 1562 1432 1554 1674 1434 1301 1427 1553
8 1431 1299 1429 1558 1554 1428 1555 1675
8 1431 1299 1430 1560 1558 1429 1557 1680
8 1560 1430 1300 1432 1683 1559 1433 1563
8 1561 1431 1554 1674 1684 1560 1432 1562
8 1685 1563 1432 1562 1565 1435 1301 1434
8 1435 1302 1436 1566 1563 1433 1564 1686
8 1437 1303 1438 1568 1565 1435 1566 1688
8 1438 1304 1439 1569 1566 1436 1567 1689
8 1440 1306 1441 1571 1568 1438 1569 1691
8 1441 1307 1442 1572 1569 1439 1570 1692
8 1443 1309 1444 1574 1571 1441 1572 1694
8 1310 1444 1572 1442 1445 1575 1695 1573
8 1446 1312 1447 1576 1574 1444 1575 1696
8 1486 1349 1485 1614 1579 1449 1577 1699
8 1451 1317 1449 1579 1581 1450 1578 1701
8 1487 1350 1486 1615 1582 1451 1579 1702
8 1581 1450 1580 1704 1453 1318 1452 1584
8 1582 1451 1581 1705 1454 1319 1453 1585
8 1584 1452 1583 1706 1456 1320 1455 1586
8 1585 1453 1584 1707 1457 1321 1456 1587
8 1587 1456 1586 1708 1458 1323 1459 1588
8 1633 1506 1589 1710 1507 1373 1461 1590
8 1464 1329 1461 1590 1594 1463 1589 1710
8 1468 1336 1462 1591 1595 1464 1590 1711
8 1634 1507 1590 1711 1508 1374 1462 1591
8 1473 1341 1463 1594 1603 1477 1593 1716
8 1469 1337 1464 1595 1599 1473 1594 1717
8 1471 1597 1467 1335 1600 1718 1596 1470
8 1718 1600 1496 1616 1596 1470 1360 1488
8 1336 1468 1597 1471 1472 1598 1719 1601
8 1469 1337 1473 1599 1598 1472 1602 1720
8 1722 1604 1501 1623 1600 1474 1367 1496
8 1475 1601 1471 1339 1604 1722 1600 1474
8 1602 1476 1605 1723 1472 1340 1475 1601
8 1476 1602 1724 1606 1341 1473 1603 1477
8 1483 1347 1478 1609 1612 1482 1608 1731
8 1495 1370 1504 1622 1609 1478 1608 1731
8 1618 1495 1609 1732 1494 1361 1479 1610
8 1484 1348 1479 1610 1613 1483 1609 1732
8 1486 1349 1482 1612 1614 1485 1611 1733
8 1613 1483 1612 1734 1487 1350 1486 1615
8 1489 1363 1496 1616 1617 1499 1623 1736
8 1491 1365 1499 1617 1619 1500 1626 1737
8 1618 1495 1361 1494 1738 1622 1497 1621
8 1739 1625 1498 1620 1619 1500 1366 1492
8 1621 1497 1362 1493 1740 1624 1498 1620
8 1742 1631 1504 1622 1624 1505 1371 1497
8 1743 1628 1502 1626 1623 1501 1368 1499
8 1744 1630 1505 1624 1625 1503 1372 1498
8 1745 1629 1503 1625 1626 1502 1369 1500
8 1520 1398 1528 1644 1633 1506 1632 1751
8 1637 1520 1633 1752 1512 1388 1507 1634
8 1635 1519 1643 1753 1510 1391 1522 1636
8 1657 1535 1643 1753 1534 1406 1519 1635
8 1515 1392 1522 1636 1639 1523 1646 1754
8 1517 1389 1521 1641 1637 1520 1644 1755
8 1524 1638 1756 1648 1393 1514 1639 1523
8 1640 1526 1395 1516 1756 1648 1524 1638
8 1642 1525 1396 1518 1757 1649 1526 1640
8 1758 1645 1521 1641 1642 1525 1396 1518
8 1646 1531 1400 1522 1760 1650 1527 1643
8 1535 1407 1536 1658 1643 1527 1650 1760
8 1521 1399 1529 1645 1644 1528 1651 1761
8 1647 1530 1652 1762 1525 1404 1529 1645
8 1401 1523 1648 1532 1531 1646 1763 1655
8 1525 1404 1533 1649 1647 1530 1654 1765
8 1533 1649 1766 1656 1403 1526 1648 1532
8 1662 1542 1658 1774 1539 1414 1535 1657
8 1542 1415 1543 1664 1658 1536 1659 1775
8 1660 1540 1663 1777 1538 1413 1541 1661
8 1545 1421 1548 1666 1660 1540 1663 1777
8 1662 1542 1414 1539 1778 1664 1541 1661
8 1664 1543 1416 1541 1779 1665 1544 1663
8 1548 1425 1550 1668 1663 1544 1665 1779
8 1547 1423 1549 1667 1666 1548 1668 1781
8 1670 1551 1668 1781 1553 1427 1549 1667
8 1551 1426 1552 1671 1668 1550 1669 1782
8 1670 1551 1427 1553 1784 1671 1554 1674
8 1675 1555 1672 1785 1554 1428 1552 1671
8 1678 1556 1673 1789 1558 1429 1555 1675
8 1561 1431 1558 1681 1674 1554 1675 1790
8 1794 1677 1556 1678 1680 1557 1429 1558
8 1560 1430 1559 1683 1680 1557 1679 1797
8 1561 1431 1560 1684 1681 1558 1680 1798
8 1563 1433 1564 1686 1683 1559 1682 1800
8 1684 1560 1432 1562 1801 1683 1563 1685
8 1565 1435 1566 1688 1685 1563 1686 1802
8 1566 1436 1567 1689 1686 1564 1687 1803
8 1568 1438 1569 1691 1688 1566 1689 1805
8 1569 1439 1570 1692 1689 1567 1690 1806
8 1571 1441 1572 1694 1691 1569 1692 1808
8 1442 1572 1692 1570 1573 1695 1809 1693
8 1574 1444 1575 1696 1694 1572 1695 1810
8 1614 1485 1592 1712 1699 1577 1697 1813
8 1579 1449 1577 1699 1701 1578 1698 1815
8 1615 1486 1614 1735 1702 1579 1699 1816
8 1701 1578 1700 1818 1581 1450 1580 1704
8 1582 1451 1579 1702 1705 1581 1701 1819
8 1704 1580 1703 1820 1584 1452 1583 1706
8 1705 1581 1704 1821 1585 1453 1584 1707
8 1707 1584 1706 1822 1587 1456 1586 1708
8 1710 1589 1506 1633 1824 1709 1632 1751
8 1594 1463 1589 1710 1716 1593 1709 1824
8 1752 1633 1710 1825 1634 1507 1590 1711
8 1595 1464 1590 1711 1717 1594 1710 1825
8 1830 1714 1592 1712 1733 1611 1485 1614
8 1603 1477 1593 1716 1725 1607 1715 1834
8 1599 1473 1594 1717 1721 1603 1716 1835
8 1837 1722 1623 1736 1718 1600 1496 1616
8 1719 1601 1722 1837 1597 1471 1600 1718
8 1602 1720 1598 1472 1723 1838 1719 1601
8 1720 1602 1473 1599 1839 1724 1603 1721
8 1723 1605 1726 1840 1601 1475 1604 1722
8 1840 1726 1628 1743 1722 1604 1501 1623
8 1724 1606 1727 1841 1602 1476 1605 1723
8 1725 1607 1728 1842 1603 1477 1606 1724
8 1612 1482 1608 1731 1733 1611 1730 1849
8 1741 1627 1730 1849 1622 1504 1608 1731
8 1613 1483 1609 1732 1734 1612 1731 1850
8 1618 1495 1622 1738 1732 1609 1731 1850
8 1615 1486 1612 1734 1735 1614 1733 1851
8 1852 1743 1626 1737 1736 1623 1499 1617
8 1853 1745 1625 1739 1737 1626 1500 1619
8 1855 1742 1622 1738 1740 1624 1497 1621
8 1856 1744 1624 1740 1739 1625 1498 1620
8 1741 1627 1504 1622 1857 1746 1631 1742
8 1742 1631 1505 1624 1858 1749 1630 1744
8 1859 1747 1629 1745 1743 1628 1502 1626
8 1860 1748 1630 1744 1745 1629 1503 1625
8 1644 1528 1651 1761 1751 1632 1750 1865
8 1637 1520 1644 1755 1752 1633 1751 1866
8 1754 1646 1522 1636 1867 1760 1643 1753
8 1657 1535 1658 1774 1753 1643 1760 1867
8 1639 1523 1646 1754 1756 1648 1763 1868
8 1641 1521 1645 1758 1755 1644 1761 1869
8 1757 1649 1526 1640 1870 1766 1648 1756
8 1642 1525 1649 1757 1759 1647 1765 1871
8 1759 1647 1762 1872 1642 1525 1645 1758
8 1760 1650 1767 1874 1646 1531 1655 1763
8 1658 1536 1659 1775 1760 1650 1767 1874
8 1762 1652 1768 1875 1645 1529 1651 1761
8 1764 1653 1769 1876 1647 1530 1652 1762
8 1656 1766 1877 1773 1532 1648 1763 1655
8 1771 1879 1765 1654 1653 1764 1647 1530
8 1533 1649 1765 1654 1656 1766 1880 1772
8 1662 1542 1664 1778 1774 1658 1775 1887
8 1664 1543 1665 1779 1775 1659 1776 1888
8 1778 1664 1541 1661 1890 1779 1663 1777
8 1666 1548 1668 1781 1777 1663 1779 1890
8 1782 1669 1780 1891 1668 1550 1665 1779
8 1670 1551 1671 1784 1781 1668 1782 1893
8 1671 1552 1672 1785 1782 1669 1783 1894
8 1790 1675 1785 1896 1674 1554 1671 1784
8 1675 1555 1673 1789 1785 1672 1786 1897
8 1792 1676 1788 1903 1678 1556 1673 1789
8 1795 1678 1789 1904 1681 1558 1675 1790
8 1792 1676 1556 1678 1906 1791 1677 1794
8 1680 1557 1679 1797 1794 1677 1793 1909
8 1910 1794 1678 1795 1798 1680 1558 1681
8 1683 1559 1682 1800 1797 1679 1796 1912
8 1684 1560 1683 1801 1798 1680 1797 1913
8 1686 1564 1687 1803 1800 1682 1799 1915
8 1685 1563 1686 1802 1801 1683 1800 1916
8 1688 1566 1689 1805 1802 1686 1803 1917
8 1689 1567 1690 1806 1803 1687 1804 1918
8 1691 1569 1692 1808 1805 1689 1806 1920
8 1692 1570 1693 1809 1806 1690 1807 1921
8 1694 1572 1695 1810 1808 1692 1809 1922
8 1829 1713 1811 1926 1712 1592 1697 1813
8 1813 1697 1812 1928 1699 1577 1698 1815
8 1735 1614 1712 1828 1816 1699 1813 1929
8 1815 1698 1814 1931 1701 1578 1700 1818
8 1702 1579 1699 1816 1819 1701 1815 1932
8 1818 1700 1817 1933 1704 1580 1703 1820
8 1819 1701 1818 1934 1705 1581 1704 1821
8 1821 1704 1820 1935 1707 1584 1706 1822
8 1824 1709 1632 1751 1937 1823 1750 1865
8 1716 1593 1709 1824 1834 1715 1823 1937
8 1825 1710 1633 1752 1938 1824 1751 1866
8 1717 1594 1710 1825 1835 1716 1824 1938
8 1945 1830 1712 1828 1851 1733 1614 1735
8 1830 1714 1831 1946 1712 1592 1713 1829
8 1947 1832 1714 1830 1849 1730 1611 1733
8 1843 1729 1607 1725 1950 1833 1715 1834
8 1721 1603 1716 1835 1836 1725 1834 1951
8 1836 1725 1842 1953 1721 1603 1724 1839
8 1723 1838 1719 1601 1840 1954 1837 1722
8 1954 1840 1743 1852 1837 1722 1623 1736
8 1724 1839 1720 1602 1841 1955 1838 1723
8 1841 1727 1844 1956 1723 1605 1726 1840
8 1956 1844 1747 1859 1840 1726 1628 1743
8 1728 1842 1724 1606 1845 1957 1841 1727
8 1725 1607 1729 1843 1842 1728 1846 1958
8 1741 1627 1746 1857 1849 1730 1848 1965
8 1734 1612 1731 1850 1851 1733 1849 1966
8 1854 1741 1849 1966 1738 1622 1731 1850
8 1967 1859 1745 1853 1852 1743 1626 1737
8 1968 1860 1744 1856 1853 1745 1625 1739
8 1854 1741 1622 1738 1969 1857 1742 1855
8 1855 1742 1624 1740 1970 1858 1744 1856
8 1857 1746 1631 1742 1971 1861 1749 1858
8 1858 1749 1630 1744 1972 1863 1748 1860
8 1859 1747 1862 1973 1745 1629 1748 1860
8 1875 1768 1864 1977 1761 1651 1750 1865
8 1755 1644 1761 1869 1866 1751 1865 1978
8 1867 1760 1874 1979 1754 1646 1763 1868
8 1774 1658 1775 1887 1867 1760 1874 1979
8 1870 1766 1648 1756 1980 1877 1763 1868
8 1872 1762 1875 1981 1758 1645 1761 1869
8 1757 1649 1766 1870 1871 1765 1880 1982
8 1983 1879 1764 1873 1871 1765 1647 1759
8 1873 1764 1876 1984 1759 1647 1762 1872
8 1877 1773 1655 1763 1986 1881 1767 1874
8 1775 1659 1776 1888 1874 1767 1881 1986
8 1876 1769 1882 1987 1762 1652 1768 1875
8 1878 1770 1883 1988 1764 1653 1769 1876
8 1880 1772 1656 1766 1989 1886 1773 1877
8 1878 1770 1653 1764 1990 1884 1771 1879
8 1765 1654 1772 1880 1879 1771 1885 1991
8 1778 1664 1779 1890 1887 1775 1888 1997
8 1998 1889 1776 1888 1891 1780 1665 1779
8 1893 1782 1891 2000 1781 1668 1779 1890
8 1894 1783 1892 2001 1782 1669 1780 1891
8 1784 1671 1785 1896 1893 1782 1894 2003
8 1897 1786 1895 2004 1785 1672 1783 1894
8 1790 1675 1789 1904 1896 1785 1897 2006
8 1901 1787 1898 2007 1789 1673 1786 1897
8 1903 1788 1900 2013 1789 1673 1787 1901
8 1792 1676 1791 1906 1903 1788 1902 2016
8 1907 1792 1903 2017 1795 1678 1789 1904
8 1906 1791 1677 1794 2019 1905 1793 1909
8 1907 1792 1678 1795 2020 1906 1794 1910
8 1797 1679 1796 1912 1909 1793 1908 2022
8 1798 1680 1797 1913 1910 1794 1909 2023
8 1800 1682 1799 1915 1912 1796 1911 2025
8 1801 1683 1800 1916 1913 1797 1912 2026
8 1803 1687 1804 1918 1915 1799 1914 2028
8 1802 1686 1803 1917 1916 1800 1915 2029
8 1805 1689 1806 1920 1917 1803 1918 2030
8 1806 1690 1807 1921 1918 1804 1919 2031
8 1808 1692 1809 1922 1920 1806 1921 2032
8 1939 1826 1924 2037 1829 1713 1811 1926
8 1926 1811 1925 2039 1813 1697 1812 1928
8 1944 1829 1926 2040 1828 1712 1813 1929
8 1928 1812 1927 2042 1815 1698 1814 1931
8 1929 1813 1928 2043 1816 1699 1815 1932
8 1931 1814 1930 2044 1818 1700 1817 1933
8 1932 1815 1931 2045 1819 1701 1818 1934
8 1934 1818 1933 2046 1821 1704 1820 1935
8 2048 1936 1823 1937 1977 1864 1750 1865
8 1950 1833 1715 1834 2048 1936 1823 1937
8 1938 1824 1751 1866 2049 1937 1865 1978
8 1835 1716 1824 1938 1951 1834 1937 2049
8 1939 1826 1713 1829 2053 1942 1831 1946
8 1940 1827 1923 2035 2053 1942 1826 1939
8 1945 1830 1946 2058 1828 1712 1829 1944
8 2059 1947 1830 1945 1966 1849 1733 1851
8 1947 1832 1730 1849 2060 1948 1848 1965
8 1947 1832 1948 2060 1830 1714 1831 1946
8 1959 1847 1729 1843 2063 1949 1833 1950
8 1952 1843 1725 1836 2064 1950 1834 1951
8 1836 1725 1843 1952 1953 1842 1958 2066
8 1953 1842 1957 2067 1839 1724 1841 1955
8 1841 1955 1838 1723 1956 2068 1954 1840
8 2068 1956 1859 1967 1954 1840 1743 1852
8 1956 1844 1960 2069 1859 1747 1862 1973
8 1845 1957 1841 1727 1960 2069 1956 1844
8 1728 1842 1957 1845 1846 1958 2071 1961
8 1962 2072 1959 1847 1846 1958 1843 1729
8 1971 1861 1964 2077 1857 1746 1848 1965
8 1854 1741 1857 1969 1966 1849 1965 2078
8 1967 1859 1973 2079 1853 1745 1860 1968
8 1970 1858 1744 1856 2080 1972 1860 1968
8 1969 1857 1742 1855 2081 1971 1858 1970
8 1971 1861 1749 1858 2082 1974 1863 1972
8 1973 1862 1975 2083 1860 1748 1863 1972
8 1987 1882 1976 2086 1875 1768 1864 1977
8 1981 1875 1977 2087 1869 1761 1865 1978
8 1980 1877 1763 1868 2088 1986 1874 1979
8 1887 1775 1888 1997 1979 1874 1986 2088
8 1880 1982 2089 1989 1766 1870 1980 1877
8 1984 1876 1987 2090 1872 1762 1875 1981
8 1765 1871 1983 1879 1880 1982 2091 1991
8 1985 1878 1764 1873 2092 1990 1879 1983
8 1985 1878 1988 2093 1873 1764 1876 1984
8 2094 1992 1881 1986 1998 1889 1776 1888
8 1986 1881 1992 2094 1877 1773 1886 1989
8 1988 1883 1993 2095 1876 1769 1882 1987
8 1878 1770 1884 1990 1988 1883 1994 2096
8 1991 1885 1772 1880 2097 1996 1886 1989
8 1879 1771 1885 1991 1990 1884 1995 2098
8 2103 1998 1888 1997 2000 1891 1779 1890
8 2104 1999 1889 1998 2001 1892 1780 1891
8 2003 1894 2001 2106 1893 1782 1891 2000
8 2004 1895 2002 2107 1894 1783 1892 2001
8 2006 1897 2004 2109 1896 1785 1894 2003
8 2007 1898 2005 2110 1897 1786 1895 2004
8 2014 1901 2007 2112 1904 1789 1897 2006
8 2011 1899 2008 2113 1901 1787 1898 2007
8 2119 2010 1899 2011 2013 1900 1787 1901
8 2016 1902 2012 2122 1903 1788 1900 2013
8 2017 1903 2013 2123 1904 1789 1901 2014
8 1906 1791 1905 2019 2016 1902 2015 2125
8 1907 1792 1906 2020 2017 1903 2016 2126
8 1909 1793 1908 2022 2019 1905 2018 2128
8 2020 1906 1794 1910 2129 2019 1909 2023
8 1912 1796 1911 2025 2022 1908 2021 2131
8 1913 1797 1912 2026 2023 1909 2022 2132
8 1915 1799 1914 2028 2025 1911 2024 2134
8 1916 1800 1915 2029 2026 1912 2025 2135
8 1918 1804 1919 2031 2028 1914 2027 2136
8 1917 1803 1918 2030 2029 1915 2028 2137
8 1920 1806 1921 2032 2030 1918 2031 2138
8 1940 1827 1941 2054 2035 1923 2033 2140
8 2035 1923 2034 2143 1939 1826 1924 2037
8 2037 1924 2036 2146 1926 1811 1925 2039
8 2051 1939 2037 2147 1944 1829 1926 2040
8 2039 1925 2038 2149 1928 1812 1927 2042
8 2040 1926 2039 2150 1929 1813 1928 2043
8 2042 1927 2041 2151 1931 1814 1930 2044
8 2043 1928 2042 2152 1932 1815 1931 2045
8 2045 1931 2044 2153 1934 1818 1933 2046
8 2155 2047 1936 2048 2086 1976 1864 1977
8 2063 1949 1833 1950 2155 2047 1936 2048
8 2156 2048 1937 2049 2087 1977 1865 1978
8 2064 1950 1834 1951 2156 2048 1937 2049
8 2051 1939 1829 1944 2160 2053 1946 2058
8 2052 1940 2035 2144 2160 2053 1939 2051
8 2053 1942 1831 1946 2163 2057 1948 2060
8 2055 1943 1827 1940 2163 2057 1942 2053
8 2055 1943 2056 2164 1940 1827 1941 2054
8 2059 1947 1849 1966 2167 2060 1965 2078
8 2059 1947 2060 2167 1945 1830 1946 2058
8 2077 1964 2061 2168 1965 1848 1948 2060
8 2070 1963 1847 1959 2170 2062 1949 2063
8 2065 1959 1843 1952 2171 2063 1950 2064
8 2173 2072 1958 2066 2065 1959 1843 1952
8 1953 1842 1958 2066 2067 1957 2071 2174
8 2068 1956 2069 2175 1967 1859 1973 2079
8 2067 1957 2069 2175 1955 1841 1956 2068
8 1845 1957 2069 1960 1961 2071 2176 2073
8 2069 1960 2073 2176 1973 1862 1975 2083
8 2070 1963 2075 2177 1959 1847 1962 2072
8 1846 1958 2071 1961 1962 2072 2178 2074
8 2077 1964 1861 1971 2182 2076 1974 2082
8 2081 1971 2077 2183 1969 1857 1965 2078
8 2079 1973 2083 2184 1968 1860 1972 2080
8 2081 1971 1858 1970 2185 2082 1972 2080
8 2083 1975 2084 2186 1972 1863 1974 2082
8 2086 1976 1882 1987 2189 2085 1993 2095
8 2090 1987 2086 2190 1981 1875 1977 2087
8 2191 2094 1986 2088 2103 1998 1888 1997
8 2088 1986 2094 2191 1980 1877 1989 2089
8 1991 2091 2192 2097 1880 1982 2089 1989
8 2093 1988 2095 2193 1984 1876 1987 2090
8 1879 1983 2092 1990 1991 2091 2194 2098
8 1985 1878 1990 2092 2093 1988 2096 2195
8 2097 1996 1886 1989 2196 2099 1992 2094
8 2196 2099 1992 2094 2104 1999 1889 1998
8 1994 2096 1988 1883 2100 2197 2095 1993
8 2096 1994 1884 1990 2198 2101 1995 2098
8 1995 2098 2199 2102 1885 1991 2097 1996
8 2203 2104 1998 2103 2106 2001 1891 2000
8 2107 2002 2105 2204 2001 1892 1999 2104
8 2109 2004 2107 2206 2003 1894 2001 2106
8 2110 2005 2108 2207 2004 1895 2002 2107
8 2112 2007 2110 2209 2006 1897 2004 2109
8 2113 2008 2111 2210 2007 1898 2005 2110
8 2120 2011 2113 2212 2014 1901 2007 2112
8 2117 2009 2114 2213 2011 1899 2008 2113
8 2219 2116 2009 2117 2119 2010 1899 2011
8 2222 2118 2010 2119 2122 2012 1900 2013
8 2223 2119 2011 2120 2123 2013 1901 2014
8 2016 1902 2015 2125 2122 2012 2121 2225
8 2126 2016 2122 2226 2017 1903 2013 2123
8 2019 1905 2018 2128 2125 2015 2124 2228
8 2020 1906 2019 2129 2126 2016 2125 2229
8 2022 1908 2021 2131 2128 2018 2127 2231
8 2023 1909 2022 2132 2129 2019 2128 2232
8 2025 1911 2024 2134 2131 2021 2130 2234
8 2026 1912 2025 2135 2132 2022 2131 2235
8 1914 2028 2134 2024 2027 2136 2236 2133
8 2029 1915 2028 2137 2135 2025 2134 2237
8 2030 1918 2031 2138 2137 2028 2136 2238
8 2157 2050 2139 2240 2054 1941 2033 2140
8 2052 1940 2054 2161 2144 2035 2140 2242
8 2140 2033 2141 2243 2035 1923 2034 2143
8 2143 2034 2142 2246 2037 1924 2036 2146
8 2144 2035 2143 2247 2051 1939 2037 2147
8 2146 2036 2145 2249 2039 1925 2038 2149
8 2147 2037 2146 2250 2040 1926 2039 2150
8 2149 2038 2148 2251 2042 1927 2041 2151
8 2150 2039 2149 2252 2043 1928 2042 2152
8 2152 2042 2151 2253 2045 1931 2044 2153
8 2255 2154 2047 2155 2189 2085 1976 2086
8 2170 2062 1949 2063 2255 2154 2047 2155
8 2256 2155 2048 2156 2190 2086 1977 2087
8 2171 2063 1950 2064 2256 2155 2048 2156
8 2258 2159 2050 2157 2164 2056 1941 2054
8 2160 2053 1946 2058 2262 2163 2060 2167
8 2162 2055 1940 2052 2262 2163 2053 2160
8 2162 2055 2164 2263 2052 1940 2054 2161
8 2163 2057 1948 2060 2264 2165 2061 2168
8 2055 1943 2057 2163 2164 2056 2165 2264
8 2182 2076 2166 2268 2077 1964 2061 2168
8 2183 2077 2168 2269 2078 1965 2060 2167
8 2070 1963 2062 2170 2177 2075 2169 2271
8 2172 2070 1959 2065 2272 2170 2063 2171
8 2172 2070 2177 2273 2065 1959 2072 2173
8 2066 1958 2072 2173 2174 2071 2178 2274
8 2067 1957 2071 2174 2175 2069 2176 2275
8 2175 2069 2176 2275 2079 1973 2083 2184
8 2071 1961 2074 2178 2176 2073 2179 2276
8 2176 2073 2179 2276 2083 1975 2084 2186
8 2072 1962 2075 2177 2178 2074 2180 2277
8 2182 2076 1974 2082 2280 2181 2084 2186
8 2183 2077 1971 2081 2281 2182 2082 2185
8 2184 2083 2186 2282 2080 1972 2082 2185
8 2189 2085 1993 2095 2285 2188 2100 2197
8 2190 2086 1987 2090 2286 2189 2095 2193
8 2192 2097 1989 2089 2287 2196 2094 2191
8 2287 2196 2094 2191 2203 2104 1998 2103
8 2194 2098 1991 2091 2288 2199 2097 2192
8 2195 2096 2197 2289 2093 1988 2095 2193
8 2096 2195 2290 2198 1990 2092 2194 2098
8 2097 1996 2099 2196 2199 2102 2200 2291
8 2196 2099 1999 2104 2291 2200 2105 2204
8 2100 2197 2292 2201 1994 2096 2198 2101
8 1995 2098 2198 2101 2102 2199 2293 2202
8 2206 2107 2204 2296 2106 2001 2104 2203
8 2207 2108 2205 2297 2107 2002 2105 2204
8 2209 2110 2207 2299 2109 2004 2107 2206
8 2210 2111 2208 2300 2110 2005 2108 2207
8 2212 2113 2210 2302 2112 2007 2110 2209
8 2213 2114 2211 2303 2113 2008 2111 2210
8 2220 2117 2213 2305 2120 2011 2113 2212
8 2216 2115 2214 2306 2117 2009 2114 2213
8 2216 2115 2009 2117 2311 2217 2116 2219
8 2219 2116 2010 2119 2314 2218 2118 2222
8 2315 2219 2117 2220 2223 2119 2011 2120
8 2122 2012 2121 2225 2222 2118 2221 2317
8 2318 2222 2119 2223 2226 2122 2013 2123
8 2125 2015 2124 2228 2225 2121 2224 2320
8 2126 2016 2125 2229 2226 2122 2225 2321
8 2128 2018 2127 2231 2228 2124 2227 2323
8 2129 2019 2128 2232 2229 2125 2228 2324
8 2131 2021 2130 2234 2231 2127 2230 2326
8 2132 2022 2131 2235 2232 2128 2231 2327
8 2134 2024 2133 2236 2234 2130 2233 2328
8 2135 2025 2134 2237 2235 2131 2234 2329
8 2137 2028 2136 2238 2237 2134 2236 2330
8 2157 2050 2158 2259 2240 2139 2239 2332
8 2257 2157 2240 2334 2161 2054 2140 2242
8 2240 2139 2241 2335 2140 2033 2141 2243
8 2242 2140 2243 2337 2144 2035 2143 2247
8 2243 2141 2244 2338 2143 2034 2142 2246
8 2246 2142 2245 2341 2146 2036 2145 2249
8 2247 2143 2246 2342 2147 2037 2146 2250
8 2249 2145 2248 2343 2149 2038 2148 2251
8 2250 2146 2249 2344 2150 2039 2149 2252
8 2252 2149 2251 2345 2152 2042 2151 2253
8 2169 2271 2347 2254 2062 2170 2255 2154
8 2189 2085 2188 2285 2255 2154 2254 2347
8 2348 2255 2155 2256 2286 2189 2086 2190
8 2272 2170 2063 2171 2348 2255 2155 2256
8 2349 2258 2157 2257 2263 2164 2054 2161
8 2258 2159 2261 2351 2157 2050 2158 2259
8 2258 2159 2056 2164 2351 2261 2165 2264
8 2262 2163 2060 2167 2355 2264 2168 2269
8 2162 2055 2163 2262 2263 2164 2264 2355
8 2357 2266 2165 2264 2268 2166 2061 2168
8 2268 2166 2076 2182 2361 2267 2181 2280
8 2281 2182 2268 2362 2183 2077 2168 2269
8 2271 2169 2270 2364 2177 2075 2180 2277
8 2172 2070 2170 2272 2273 2177 2271 2365
8 2072 2173 2274 2178 2177 2273 2366 2277
8 2071 2174 2275 2176 2178 2274 2367 2276
8 2275 2176 2276 2367 2184 2083 2186 2282
8 2283 2187 2084 2186 2368 2278 2179 2276
8 2178 2074 2180 2277 2276 2179 2278 2368
8 2283 2187 2279 2370 2186 2084 2181 2280
8 2281 2182 2082 2185 2371 2280 2186 2282
8 2188 2285 2374 2284 2100 2197 2292 2201
8 2286 2189 2095 2193 2375 2285 2197 2289
8 2192 2097 2196 2287 2288 2199 2291 2376
8 2287 2196 2104 2203 2376 2291 2204 2296
8 2194 2098 2199 2288 2290 2198 2293 2377
8 2289 2197 2096 2195 2378 2292 2198 2290
8 2291 2200 2105 2204 2379 2294 2205 2297
8 2199 2102 2200 2291 2293 2202 2294 2379
8 2198 2101 2202 2293 2292 2201 2295 2380
8 2299 2207 2297 2383 2206 2107 2204 2296
8 2300 2208 2298 2384 2207 2108 2205 2297
8 2302 2210 2300 2386 2209 2110 2207 2299
8 2303 2211 2301 2387 2210 2111 2208 2300
8 2305 2213 2303 2389 2212 2113 2210 2302
8 2306 2214 2304 2390 2213 2114 2211 2303
8 2310 2216 2306 2392 2220 2117 2213 2305
8 2308 2215 2307 2393 2216 2115 2214 2306
8 2308 2215 2115 2216 2396 2309 2217 2311
8 2310 2216 2117 2220 2398 2311 2219 2315
8 2311 2217 2116 2219 2399 2312 2218 2314
8 2314 2218 2118 2222 2402 2313 2221 2317
8 2315 2219 2119 2223 2403 2314 2222 2318
8 2225 2121 2224 2320 2317 2221 2316 2405
8 2226 2122 2225 2321 2318 2222 2317 2406
8 2228 2124 2227 2323 2320 2224 2319 2408
8 2229 2125 2228 2324 2321 2225 2320 2409
8 2231 2127 2230 2326 2323 2227 2322 2411
8 2232 2128 2231 2327 2324 2228 2323 2412
8 2234 2130 2233 2328 2326 2230 2325 2413
8 2235 2131 2234 2329 2327 2231 2326 2414
8 2237 2134 2236 2330 2329 2234 2328 2415
8 2259 2158 2260 2352 2332 2239 2331 2417
8 2257 2157 2259 2350 2334 2240 2332 2419
8 2240 2139 2239 2332 2335 2241 2333 2420
8 2334 2240 2335 2422 2242 2140 2243 2337
8 2335 2241 2336 2423 2243 2141 2244 2338
8 2337 2243 2338 2425 2247 2143 2246 2342
8 2338 2244 2339 2426 2246 2142 2245 2341
8 2341 2245 2340 2428 2249 2145 2248 2343
8 2342 2246 2341 2429 2250 2146 2249 2344
8 2344 2249 2343 2430 2252 2149 2251 2345
8 2188 2285 2347 2254 2284 2374 2432 2346
8 2347 2254 2346 2432 2271 2169 2270 2364
8 2365 2271 2170 2272 2433 2347 2255 2348
8 2286 2189 2285 2375 2348 2255 2347 2433
8 2349 2258 2351 2435 2257 2157 2259 2350
8 2349 2258 2164 2263 2435 2351 2264 2355
8 2259 2158 2261 2351 2352 2260 2354 2437
8 2356 2265 2354 2437 2264 2165 2261 2351
8 2441 2357 2264 2355 2362 2268 2168 2269
8 2356 2265 2165 2264 2442 2358 2266 2357
8 2443 2359 2266 2357 2361 2267 2166 2268
8 2370 2279 2360 2446 2280 2181 2267 2361
8 2362 2268 2182 2281 2447 2361 2280 2371
8 2180 2277 2368 2278 2270 2364 2449 2363
8 2271 2365 2273 2177 2364 2450 2366 2277
8 2372 2283 2186 2282 2451 2368 2276 2367
8 2178 2274 2367 2276 2277 2366 2451 2368
8 2283 2187 2278 2368 2370 2279 2369 2452
8 2372 2283 2370 2453 2282 2186 2280 2371
8 2284 2374 2455 2373 2201 2292 2380 2295
8 2375 2285 2197 2289 2456 2374 2292 2378
8 2376 2291 2204 2296 2457 2379 2297 2383
8 2288 2199 2291 2376 2377 2293 2379 2457
8 2198 2290 2378 2292 2293 2377 2458 2380
8 2293 2202 2294 2379 2380 2295 2381 2459
8 2384 2298 2381 2459 2297 2205 2294 2379
8 2386 2300 2384 2463 2299 2207 2297 2383
8 2387 2301 2385 2464 2300 2208 2298 2384
8 2389 2303 2387 2466 2302 2210 2300 2386
8 2390 2304 2388 2467 2303 2211 2301 2387
8 2392 2306 2390 2469 2305 2213 2303 2389
8 2393 2307 2391 2470 2306 2214 2304 2390
8 2395 2308 2393 2472 2310 2216 2306 2392
8 2308 2215 2309 2396 2393 2307 2394 2473
8 2395 2308 2216 2310 2475 2396 2311 2398
8 2396 2309 2217 2311 2476 2397 2312 2399
8 2398 2311 2219 2315 2478 2399 2314 2403
8 2399 2312 2218 2314 2479 2400 2313 2402
8 2317 2221 2316 2405 2402 2313 2401 2482
8 2403 2314 2222 2318 2483 2402 2317 2406
8 2320 2224 2319 2408 2405 2316 2404 2485
8 2321 2225 2320 2409 2406 2317 2405 2486
8 2323 2227 2322 2411 2408 2319 2407 2488
8 2324 2228 2323 2412 2409 2320 2408 2489
8 2326 2230 2325 2413 2411 2322 2410 2490
8 2327 2231 2326 2414 2412 2323 2411 2491
8 2329 2234 2328 2415 2414 2326 2413 2492
8 2417 2331 2260 2352 2494 2416 2353 2438
8 2350 2259 2352 2436 2419 2332 2417 2496
8 2332 2239 2331 2417 2420 2333 2418 2497
8 2334 2240 2332 2419 2422 2335 2420 2499
8 2420 2333 2421 2500 2335 2241 2336 2423
8 2422 2335 2423 2502 2337 2243 2338 2425
8 2423 2336 2424 2503 2338 2244 2339 2426
8 2425 2338 2426 2505 2342 2246 2341 2429
8 2426 2339 2427 2506 2341 2245 2340 2428
8 2429 2341 2428 2507 2344 2249 2343 2430
8 2432 2346 2284 2374 2509 2431 2373 2455
8 2432 2346 2431 2509 2364 2270 2363 2449
8 2375 2285 2374 2456 2433 2347 2432 2510
8 2347 2433 2365 2271 2432 2510 2450 2364
8 2350 2259 2351 2435 2436 2352 2437 2514
8 2440 2356 2437 2514 2355 2264 2351 2435
8 2352 2260 2354 2437 2438 2353 2439 2516
8 2356 2265 2358 2442 2437 2354 2439 2516
8 2440 2356 2264 2355 2518 2442 2357 2441
8 2519 2443 2357 2441 2447 2361 2268 2362
8 2443 2359 2444 2520 2357 2266 2358 2442
8 2443 2359 2267 2361 2520 2444 2360 2446
8 2446 2360 2279 2370 2523 2445 2369 2452
8 2453 2370 2446 2524 2371 2280 2361 2447
8 2449 2363 2448 2525 2368 2278 2369 2452
8 2366 2277 2364 2450 2451 2368 2449 2526
8 2372 2283 2368 2451 2453 2370 2452 2527
8 2455 2373 2295 2380 2529 2454 2382 2460
8 2456 2374 2292 2378 2530 2455 2380 2458
8 2377 2293 2379 2457 2458 2380 2459 2531
8 2463 2384 2459 2531 2383 2297 2379 2457
8 2533 2461 2382 2460 2459 2381 2295 2380
8 2464 2385 2461 2533 2384 2298 2381 2459
8 2466 2387 2464 2537 2386 2300 2384 2463
8 2467 2388 2465 2538 2387 2301 2385 2464
8 2469 2390 2467 2540 2389 2303 2387 2466
8 2470 2391 2468 2541 2390 2304 2388 2467
8 2472 2393 2470 2543 2392 2306 2390 2469
8 2393 2307 2394 2473 2470 2391 2471 2544
8 2395 2308 2396 2475 2472 2393 2473 2546
8 2396 2309 2397 2476 2473 2394 2474 2547
8 2475 2396 2311 2398 2549 2476 2399 2478
8 2476 2397 2312 2399 2550 2477 2400 2479
8 2478 2399 2314 2403 2552 2479 2402 2483
8 2479 2400 2313 2402 2553 2480 2401 2482
8 2405 2316 2404 2485 2482 2401 2481 2556
8 2406 2317 2405 2486 2483 2402 2482 2557
8 2408 2319 2407 2488 2485 2404 2484 2559
8 2409 2320 2408 2489 2486 2405 2485 2560
8 2411 2322 2410 2490 2488 2407 2487 2561
8 2412 2323 2411 2491 2489 2408 2488 2562
8 2414 2326 2413 2492 2491 2411 2490 2563
8 2513 2434 2493 2565 2438 2353 2416 2494
8 2496 2417 2352 2436 2567 2494 2438 2515
8 2494 2416 2495 2568 2417 2331 2418 2497
8 2419 2332 2417 2496 2499 2420 2497 2570
8 2497 2418 2498 2571 2420 2333 2421 2500
8 2499 2420 2500 2573 2422 2335 2423 2502
8 2500 2421 2501 2574 2423 2336 2424 2503
8 2502 2423 2503 2576 2425 2338 2426 2505
8 2503 2424 2504 2577 2426 2339 2427 2506
8 2505 2426 2506 2578 2429 2341 2428 2507
8 2509 2431 2373 2455 2580 2508 2454 2529
8 2509 2431 2508 2580 2449 2363 2448 2525
8 2432 2510 2581 2509 2374 2456 2530 2455
8 2432 2510 2450 2364 2509 2581 2526 2449
8 2583 2511 2434 2513 2516 2439 2353 2438
8 2436 2352 2437 2514 2515 2438 2516 2588
8 2440 2356 2442 2518 2514 2437 2516 2588
8 2442 2358 2444 2520 2516 2439 2517 2589
8 2519 2443 2520 2591 2441 2357 2442 2518
8 2519 2443 2361 2447 2591 2520 2446 2524
8 2446 2360 2445 2523 2520 2444 2521 2592
8 2525 2448 2522 2593 2452 2369 2445 2523
8 2524 2446 2370 2453 2594 2523 2452 2527
8 2526 2449 2525 2595 2451 2368 2452 2527
8 2534 2462 2528 2597 2460 2382 2454 2529
8 2530 2455 2380 2458 2598 2529 2460 2532
8 2599 2533 2460 2532 2531 2459 2380 2458
8 2537 2464 2533 2599 2463 2384 2459 2531
8 2534 2462 2382 2460 2601 2535 2461 2533
8 2538 2465 2535 2601 2464 2385 2461 2533
8 2540 2467 2538 2604 2466 2387 2464 2537
8 2541 2468 2539 2605 2467 2388 2465 2538
8 2543 2470 2541 2607 2469 2390 2467 2540
8 2470 2391 2471 2544 2541 2468 2542 2608
8 2472 2393 2473 2546 2543 2470 2544 2610
8 2473 2394 2474 2547 2544 2471 2545 2611
8 2475 2396 2476 2549 2546 2473 2547 2613
8 2476 2397 2477 2550 2547 2474 2548 2614
8 2549 2476 2399 2478 2616 2550 2479 2552
8 2479 2400 2480 2553 2550 2477 2551 2617
8 2552 2479 2402 2483 2619 2553 2482 2557
8 2482 2401 2481 2556 2553 2480 2554 2620
8 2485 2404 2484 2559 2556 2481 2555 2623
8 2486 2405 2485 2560 2557 2482 2556 2624
8 2488 2407 2487 2561 2559 2484 2558 2625
8 2489 2408 2488 2562 2560 2485 2559 2626
8 2491 2411 2490 2563 2562 2488 2561 2627
8 2513 2434 2512 2585 2565 2493 2564 2630
8 2586 2513 2565 2632 2515 2438 2494 2567
8 2565 2493 2566 2633 2494 2416 2495 2568
8 2567 2494 2568 2635 2496 2417 2497 2570
8 2568 2495 2569 2636 2497 2418 2498 2571
8 2570 2497 2571 2638 2499 2420 2500 2573
8 2571 2498 2572 2639 2500 2421 2501 2574
8 2573 2500 2574 2641 2502 2423 2503 2576
8 2574 2501 2575 2642 2503 2424 2504 2577
8 2576 2503 2577 2643 2505 2426 2506 2578
8 2597 2528 2579 2645 2529 2454 2508 2580
8 2580 2508 2579 2645 2525 2448 2522 2593
8 2581 2509 2455 2530 2646 2580 2529 2598
8 2581 2509 2580 2646 2526 2449 2525 2595
8 2583 2511 2582 2648 2513 2434 2512 2585
8 2583 2511 2439 2516 2648 2582 2517 2589
8 2649 2583 2513 2586 2588 2516 2438 2515
8 2589 2517 2444 2520 2653 2587 2521 2592
8 2518 2442 2520 2591 2588 2516 2589 2654
8 2593 2522 2590 2655 2523 2445 2521 2592
8 2524 2446 2523 2594 2591 2520 2592 2656
8 2595 2525 2593 2657 2527 2452 2523 2594
8 2602 2536 2596 2659 2534 2462 2528 2597
8 2600 2534 2597 2660 2532 2460 2529 2598
8 2600 2534 2460 2532 2661 2601 2533 2599
8 2604 2538 2601 2661 2537 2464 2533 2599
8 2602 2536 2462 2534 2663 2603 2535 2601
8 2601 2535 2465 2538 2663 2603 2539 2605
8 2607 2541 2605 2665 2540 2467 2538 2604
8 2608 2542 2606 2666 2541 2468 2539 2605
8 2543 2470 2544 2610 2607 2541 2608 2668
8 2544 2471 2545 2611 2608 2542 2609 2669
8 2546 2473 2547 2613 2610 2544 2611 2671
8 2547 2474 2548 2614 2611 2545 2612 2672
8 2549 2476 2550 2616 2613 2547 2614 2674
8 2550 2477 2551 2617 2614 2548 2615 2675
8 2552 2479 2553 2619 2616 2550 2617 2677
8 2553 2480 2554 2620 2617 2551 2618 2678
8 2557 2482 2556 2624 2619 2553 2620 2680
8 2556 2481 2555 2623 2620 2554 2621 2681
8 2559 2484 2558 2625 2623 2555 2622 2683
8 2560 2485 2559 2626 2624 2556 2623 2684
8 2562 2488 2561 2627 2626 2559 2625 2685
8 2690 2629 2564 2630 2650 2584 2512 2585
8 2586 2513 2585 2651 2632 2565 2630 2691
8 2630 2564 2631 2692 2565 2493 2566 2633
8 2632 2565 2633 2694 2567 2494 2568 2635
8 2633 2566 2634 2695 2568 2495 2569 2636
8 2635 2568 2636 2697 2570 2497 2571 2638
8 2636 2569 2637 2698 2571 2498 2572 2639
8 2638 2571 2639 2700 2573 2500 2574 2641
8 2639 2572 2640 2701 2574 2501 2575 2642
8 2641 2574 2642 2702 2576 2503 2577 2643
8 2597 2528 2596 2659 2645 2579 2644 2704
8 2645 2579 2644 2704 2593 2522 2590 2655
8 2660 2597 2645 2705 2598 2529 2580 2646
8 2646 2580 2645 2705 2595 2525 2593 2657
8 2650 2584 2512 2585 2707 2647 2582 2648
8 2648 2582 2517 2589 2707 2647 2587 2653
8 2649 2583 2648 2708 2586 2513 2585 2651
8 2649 2583 2516 2588 2708 2648 2589 2654
8 2655 2590 2652 2710 2592 2521 2587 2653
8 2654 2589 2520 2591 2711 2653 2592 2656
8 2657 2593 2655 2712 2594 2523 2592 2656
8 2602 2536 2603 2663 2659 2596 2658 2714
8 2662 2602 2659 2715 2600 2534 2597 2660
8 2662 2602 2534 2600 2717 2663 2601 2661
8 2661 2601 2538 2604 2717 2663 2605 2665
8 2666 2606 2664 2718 2605 2539 2603 2663
8 2668 2608 2666 2720 2607 2541 2605 2665
8 2608 2542 2609 2669 2666 2606 2667 2721
8 2610 2544 2611 2671 2668 2608 2669 2723
8 2611 2545 2612 2672 2669 2609 2670 2724
8 2613 2547 2614 2674 2671 2611 2672 2726
8 2614 2548 2615 2675 2672 2612 2673 2727
8 2616 2550 2617 2677 2674 2614 2675 2729
8 2617 2551 2618 2678 2675 2615 2676 2730
8 2619 2553 2620 2680 2677 2617 2678 2732
8 2620 2554 2621 2681 2678 2618 2679 2733
8 2624 2556 2623 2684 2680 2620 2681 2735
8 2681 2621 2555 2623 2736 2682 2622 2683
8 2626 2559 2625 2685 2684 2623 2683 2737
8 2688 2628 2584 2650 2740 2686 2647 2707
8 2688 2628 2687 2742 2650 2584 2629 2690
8 2690 2629 2689 2745 2630 2564 2631 2692
8 2746 2690 2630 2691 2709 2650 2585 2651
8 2691 2630 2692 2747 2632 2565 2633 2694
8 2692 2631 2693 2748 2633 2566 2634 2695
8 2694 2633 2695 2750 2635 2568 2636 2697
8 2695 2634 2696 2751 2636 2569 2637 2698
8 2697 2636 2698 2753 2638 2571 2639 2700
8 2698 2637 2699 2754 2639 2572 2640 2701
8 2700 2639 2701 2755 2641 2574 2642 2702
8 2659 2596 2658 2714 2704 2644 2703 2757
8 2704 2644 2703 2757 2655 2590 2652 2710
8 2660 2597 2659 2715 2705 2645 2704 2758
8 2705 2645 2704 2758 2657 2593 2655 2712
8 2759 2706 2647 2707 2710 2652 2587 2653
8 2709 2650 2585 2651 2760 2707 2648 2708
8 2708 2648 2589 2654 2760 2707 2653 2711
8 2712 2655 2710 2761 2656 2592 2653 2711
8 2763 2713 2658 2714 2718 2664 2603 2663
8 2662 2602 2663 2717 2715 2659 2714 2764
8 2720 2666 2718 2767 2665 2605 2663 2717
8 2768 2719 2664 2718 2721 2667 2606 2666
8 2668 2608 2669 2723 2720 2666 2721 2770
8 2669 2609 2670 2724 2721 2667 2722 2771
8 2671 2611 2672 2726 2723 2669 2724 2773
8 2672 2612 2673 2727 2724 2670 2725 2774
8 2674 2614 2675 2729 2726 2672 2727 2776
8 2675 2615 2676 2730 2727 2673 2728 2777
8 2677 2617 2678 2732 2729 2675 2730 2779
8 2678 2618 2679 2733 2730 2676 2731 2780
8 2680 2620 2681 2735 2732 2678 2733 2782
8 2733 2679 2621 2681 2783 2734 2682 2736
8 2735 2681 2623 2684 2784 2736 2683 2737
8 2740 2686 2647 2707 2787 2738 2706 2759
8 2688 2628 2686 2740 2742 2687 2739 2789
8 2743 2688 2650 2709 2790 2740 2707 2760
8 2742 2687 2741 2792 2690 2629 2689 2745
8 2743 2688 2742 2793 2709 2650 2690 2746
8 2745 2689 2744 2795 2692 2631 2693 2748
8 2746 2690 2745 2796 2691 2630 2692 2747
8 2747 2692 2748 2797 2694 2633 2695 2750
8 2748 2693 2749 2798 2695 2634 2696 2751
8 2750 2695 2751 2800 2697 2636 2698 2753
8 2751 2696 2752 2801 2698 2637 2699 2754
8 2753 2698 2754 2802 2700 2639 2701 2755
8 2763 2713 2756 2804 2714 2658 2703 2757
8 2759 2706 2652 2710 2804 2756 2703 2757
8 2715 2659 2714 2764 2758 2704 2757 2805
8 2758 2704 2757 2805 2712 2655 2710 2761
8 2806 2759 2707 2760 2761 2710 2653 2711
8 2765 2716 2762 2808 2718 2664 2713 2763
8 2809 2763 2714 2764 2767 2718 2663 2717
8 2765 2716 2664 2718 2811 2766 2719 2768
8 2813 2768 2718 2767 2770 2721 2666 2720
8 2814 2769 2719 2768 2771 2722 2667 2721
8 2723 2669 2724 2773 2770 2721 2771 2816
8 2724 2670 2725 2774 2771 2722 2772 2817
8 2726 2672 2727 2776 2773 2724 2774 2819
8 2727 2673 2728 2777 2774 2725 2775 2820
8 2729 2675 2730 2779 2776 2727 2777 2822
8 2730 2676 2731 2780 2777 2728 2778 2823
8 2732 2678 2733 2782 2779 2730 2780 2825
8 2780 2731 2679 2733 2826 2781 2734 2783
8 2782 2733 2681 2735 2827 2783 2736 2784
8 2830 2785 2738 2787 2804 2756 2706 2759
8 2789 2739 2686 2740 2832 2786 2738 2787
8 2790 2740 2707 2760 2833 2787 2759 2806
8 2742 2687 2739 2789 2792 2741 2788 2835
8 2743 2688 2740 2790 2793 2742 2789 2836
8 2792 2741 2791 2838 2745 2689 2744 2795
8 2793 2742 2792 2839 2746 2690 2745 2796
8 2795 2744 2794 2841 2748 2693 2749 2798
8 2796 2745 2795 2842 2747 2692 2748 2797
8 2797 2748 2798 2843 2750 2695 2751 2800
8 2798 2749 2799 2844 2751 2696 2752 2801
8 2800 2751 2801 2845 2753 2698 2754 2802
8 2808 2762 2803 2847 2763 2713 2756 2804
8 2809 2763 2804 2848 2764 2714 2757 2805
8 2806 2759 2710 2761 2848 2804 2757 2805
8 2765 2716 2766 2811 2808 2762 2807 2850
8 2810 2765 2808 2851 2767 2718 2763 2809
8 2810 2765 2718 2767 2852 2811 2768 2813
8 2811 2766 2719 2768 2853 2812 2769 2814
8 2855 2814 2768 2813 2816 2771 2721 2770
8 2856 2815 2769 2814 2817 2772 2722 2771
8 2773 2724 2774 2819 2816 2771 2817 2858
8 2774 2725 2775 2820 2817 2772 2818 2859
8 2776 2727 2777 2822 2819 2774 2820 2861
8 2777 2728 2778 2823 2820 2775 2821 2862
8 2779 2730 2780 2825 2822 2777 2823 2864
8 2823 2778 2731 2780 2865 2824 2781 2826
8 2825 2780 2733 2782 2866 2826 2783 2827
8 2869 2828 2785 2830 2847 2803 2756 2804
8 2871 2829 2786 2832 2830 2785 2738 2787
8 2872 2830 2787 2833 2848 2804 2759 2806
8 2789 2739 2786 2832 2835 2788 2831 2874
8 2836 2789 2740 2790 2875 2832 2787 2833
8 2792 2741 2788 2835 2838 2791 2834 2877
8 2793 2742 2789 2836 2839 2792 2835 2878
8 2838 2791 2837 2880 2795 2744 2794 2841
8 2839 2792 2838 2881 2796 2745 2795 2842
8 2841 2794 2840 2882 2798 2749 2799 2844
8 2842 2795 2841 2883 2797 2748 2798 2843
8 2843 2798 2844 2884 2800 2751 2801 2845
8 2886 2846 2803 2847 2850 2807 2762 2808
8 2851 2808 2847 2887 2809 2763 2804 2848
8 2850 2807 2766 2811 2889 2849 2812 2853
8 2810 2765 2811 2852 2851 2808 2850 2890
8 2852 2811 2768 2813 2891 2853 2814 2855
8 2853 2812 2769 2814 2892 2854 2815 2856
8 2894 2856 2814 2855 2858 2817 2771 2816
8 2817 2772 2818 2859 2856 2815 2857 2895
8 2819 2774 2820 2861 2858 2817 2859 2897
8 2820 2775 2821 2862 2859 2818 2860 2898
8 2822 2777 2823 2864 2861 2820 2862 2900
8 2823 2778 2824 2865 2862 2821 2863 2901
8 2864 2823 2780 2825 2902 2865 2826 2866
8 2904 2867 2828 2869 2886 2846 2803 2847
8 2869 2828 2868 2906 2830 2785 2829 2871
8 2907 2869 2830 2872 2887 2847 2804 2848
8 2871 2829 2870 2909 2832 2786 2831 2874
8 2910 2871 2832 2875 2872 2830 2787 2833
8 2835 2788 2831 2874 2877 2834 2873 2912
8 2836 2789 2832 2875 2878 2835 2874 2913
8 2877 2834 2876 2915 2838 2791 2837 2880
8 2839 2792 2835 2878 2881 2838 2877 2916
8 2880 2837 2879 2917 2841 2794 2840 2882
8 2881 2838 2880 2918 2842 2795 2841 2883
8 2883 2841 2882 2919 2843 2798 2844 2884
8 2921 2885 2846 2886 2889 2849 2807 2850
8 2922 2886 2847 2887 2890 2850 2808 2851
8 2889 2849 2812 2853 2924 2888 2854 2892
8 2890 2850 2811 2852 2925 2889 2853 2891
8 2891 2853 2814 2855 2926 2892 2856 2894
8 2892 2854 2815 2856 2927 2893 2857 2895
8 2858 2817 2859 2897 2894 2856 2895 2929
8 2859 2818 2860 2898 2895 2857 2896 2930
8 2861 2820 2862 2900 2897 2859 2898 2932
8 2862 2821 2863 2901 2898 2860 2899 2933
8 2864 2823 2865 2902 2900 2862 2901 2934
8 2904 2867 2846 2886 2936 2903 2885 2921
8 2904 2867 2903 2936 2869 2828 2868 2906
8 2937 2904 2869 2907 2922 2886 2847 2887
8 2906 2868 2905 2939 2871 2829 2870 2909
8 2907 2869 2906 2940 2872 2830 2871 2910
8 2909 2870 2908 2942 2874 2831 2873 2912
8 2910 2871 2909 2943 2875 2832 2874 2913
8 2912 2873 2911 2945 2877 2834 2876 2915
8 2878 2835 2874 2913 2916 2877 2912 2946
8 2915 2876 2914 2947 2880 2837 2879 2917
8 2916 2877 2915 2948 2881 2838 2880 2918
8 2918 2880 2917 2949 2883 2841 2882 2919
8 2921 2885 2849 2889 2951 2920 2888 2924
8 2952 2921 2886 2922 2925 2889 2850 2890
8 2924 2888 2854 2892 2954 2923 2893 2927
8 2925 2889 2853 2891 2955 2924 2892 2926
8 2926 2892 2856 2894 2956 2927 2895 2929
8 2895 2857 2896 2930 2927 2893 2928 2957
8 2897 2859 2898 2932 2929 2895 2930 2959
8 2898 2860 2899 2933 2930 2896 2931 2960
8 2900 2862 2901 2934 2932 2898 2933 2961
8 2936 2903 2885 2921 2963 2935 2920 2951
8 2936 2903 2935 2963 2906 2868 2905 2939
8 2937 2904 2886 2922 2964 2936 2921 2952
8 2937 2904 2936 2964 2907 2869 2906 2940
8 2939 2905 2938 2966 2909 2870 2908 2942
8 2940 2906 2939 2967 2910 2871 2909 2943
8 2942 2908 2941 2969 2912 2873 2911 2945
8 2943 2909 2942 2970 2913 2874 2912 2946
8 2945 2911 2944 2971 2915 2876 2914 2947
8 2946 2912 2945 2972 2916 2877 2915 2948
8 2948 2915 2947 2973 2918 2880 2917 2949
8 2951 2920 2888 2924 2975 2950 2923 2954
8 2952 2921 2889 2925 2976 2951 2924 2955
8 2927 2893 2928 2957 2954 2923 2953 2978
8 2955 2924 2892 2926 2979 2954 2927 2956
8 2929 2895 2930 2959 2956 2927 2957 2980
8 2930 2896 2931 2960 2957 2928 2958 2981
8 2932 2898 2933 2961 2959 2930 2960 2982
8 2951 2920 2950 2975 2963 2935 2962 2984
8 2963 2935 2962 2984 2939 2905 2938 2966
8 2964 2936 2921 2952 2985 2963 2951 2976
8 2964 2936 2963 2985 2940 2906 2939 2967
8 2966 2938 2965 2987 2942 2908 2941 2969
8 2967 2939 2966 2988 2943 2909 2942 2970
8 2969 2941 2968 2989 2945 2911 2944 2971
8 2970 2942 2969 2990 2946 2912 2945 2972
8 2972 2945 2971 2991 2948 2915 2947 2973
8 2954 2923 2953 2978 2975 2950 2974 2993
8 2976 2951 2924 2955 2994 2975 2954 2979
8 2957 2928 2958 2981 2978 2953 2977 2995
8 2956 2927 2957 2980 2979 2954 2978 2996
8 2959 2930 2960 2982 2980 2957 2981 2997
8 2984 2962 2983 2999 2966 2938 2965 2987
8 2975 2950 2974 2993 2984 2962 2983 2999
8 2976 2951 2975 2994 2985 2963 2984 3000
8 2985 2963 2984 3000 2967 2939 2966 2988
8 2987 2965 2986 3001 2969 2941 2968 2989
8 2988 2966 2987 3002 2970 2942 2969 2990
8 2990 2969 2989 3003 2972 2945 2971 2991
8 2978 2953 2977 2995 2993 2974 2992 3004
8 2979 2954 2978 2996 2994 2975 2993 3005
8 2980 2957 2981 2997 2996 2978 2995 3006
8 2974 2993 2999 2983 2992 3004 3007 2998
8 2983 2999 2987 2965 2998 3007 3001 2986
8 3000 2984 2999 3008 2988 2966 2987 3002
8 2994 2975 2993 3005 3000 2984 2999 3008
8 3002 2987 3001 3009 2990 2969 2989 3003
8 2996 2978 2995 3006 3005 2993 3004 3010
8 3005 2993 3004 3010 3008 2999 3007 3011
8 3008 2999 3007 3011 3002 2987 3001 3009

CELL_TYPES 1910
12
12
12
12
12
12
12
12
12
12
12
12
12
12
12
12
12
12
12
12
12
12
12
12
12
12
12
12
12
12
12
12
12
12
12
12
12
12
12
12
12
12
12
12
12
12
12
12
12
12
12
12
12
12
12
12
12
12
12
12
12
12
12
12
12
12
12
12
12
12
12
12
12
12
12
12
12
12
12
12
12
12
12
12
12
12
12
12
12
12
12
12
12
12
12
12
12
12
12
12
12
12
12
12
12
12
12
12
12
12
12
12
12
12
12
12
12
12
12
12
12
12
12
12
12
12
12
12
12
12
12
12
12
12
12
12
12
12
12
12
12
12
12
12
12
12
12
12
12
12
12
12
12
12
12
12
12
12
12
12
12
12
12
12
12
12
12
12
12
12
12
12
12
12
12
12
12
12
12
12
12
12
12
12
12
12
12
12
12
12
12
12
12
12
12
12
12
12
12
12
12
12
12
12
12
12
12
12
12
12
12
12
12
12
12
12
12
12
12
12
12
12
12
12
12
12
12
12
12
12
12
12
12
12
12
12
12
12
12
12
12
12
12
12
12
12
12
12
12
12
12
12
12
12
12
12
12
12
12
12
12
12
12
12
12
12
12
12
12
12
12
12
12
12
12
12
12
12
12
12
12
12
12
12
12
12
12
12
12
12
12
12
12
12
12
12
12
12
12
12
12
12
12
12
12
12
12
12
12
12
12
12
12
12
12
12
12
12
12
12
12
12
12
12
12
12
12
12
12
12
12
12
12
12
12
12
12
12
12
12
12
12
12
12
12
12
12
12
12
12
12
12
12
12
12
12
12
12
12
12
12
12
12
12
12
12
12
12
12
12
12
12
12
12
12
12
12
12
12
12
12
12
12
12
12
12
12
12
12
12
12
12
12
12
12
12
12
12
12
12
12
12
12
12
12
12
12
12
12
12
12
12
12
12
12
12
12
12
12
12
12
12
12
12
12
12
12
12
12
12
12
12
12
12
12
12
12
12
12
12
12
12
12
12
12
12
12
12
12
12
12
12
12
12
12
12
12
12
12
12
12
12
12
12
12
12
12
12
12
12
12
12
12
12
12
12
12
12
12
12
12
12
12
12
12
12
12
12
12
12
12
12
12
12
12
12
12
12
12
12
12
12
12
12
12
12
12
12
12
12
12
12
12
12
12
12
12
12
12
12
12
12
12
12
12
12
12
12
12
12
12
12
12
12
12
12
12
12
12
12
12
12
12
12
12
12
12
12
12
12
12
12
12
12
12
12
12
12
12
12
12
12
12
12
12
12
12
12
12
12
12
12
12
12
12
12
12
12
12
12
12
12
12
12
12
12
12
12
12
12
12
12
12
12
12
12
12
12
12
12
12
12
12
12
12
12
12
12
12
12
12
12
12
12
12
12
12
12
12
12
12
12
12
12
12
12
12
12
12
12
12
12
12
12
12
12
12
12
12
12
12
12
12
12
12
12
12
12
12
12
12
12
12
12
12
12
12
12
12
12
12
12
12
12
12
12
12
12
12
12
12
12
12
12
12
12
12
12
12
12
12
12
12
12
12
12
12
12
12
12
12
12
12
12
12
12
12
12
12
12
12
12
12
12
12
12
12
12
12
12
12
12
12
12
12
12
12
12
12
12
12
12
12
12
12
12
12
12
12
12
12
12
12
12
12
12
12
12
12
12
12
12
12
12
12
12
12
12
12
12
12
12
12
12
12
12
12
12
12
12
12
12
12
12
12
12
12
12
12
12
12
12
12
12
12
12
12
12
12
12
12
12
12
12
12
12
12
12
12
12
12
12
12
12
12
12
12
12
12
12
12
12
12
12
12
12
12
12
12
12
12
12
12
12
12
12
12
12
12
12
12
12
12
12
12
12
12
12
12
12
12
12
12
12
12
12
12
12
12
12
12
12
12
12
12
12
12
12
12
12
12
12
12
12
12
12
12
12
12
12
12
12
12
12
12
12
12
12
12
12
12
12
12
12
12
12
12
12
12
12
12
12
12
12
12
12
12
12
12
12
12
12
12
12
12
12
12
12
12
12
12
12
12
12
12
12
12
12
12
12
12
12
12
12
12
12
12
12
12
12
12
12
12
12
12
12
12
12
12
12
12
12
12
12
12
12
12
12
12
12
12
12
12
12
12
12
12
12
12
12
12
12
12
12
12
12
12
12
12
12
12
12
12
12
12
12
12
12
12
12
12
12
12
12
12
12
12
12
12
12
12
12
12
12
12
12
12
12
12
12
12
12
12
12
12
12
12
12
12
12
12
12
12
12
12
12
12
12
12
12
12
12
12
12
12
12
12
12
12
12
12
12
12
12
12
12
12
12
12
12
12
12
12
12
12
12
12
12
12
12
12
12
12
12
12
12
12
12
12
12
12
12
12
12
12
12
12
12
12
12
12
12
12
12
12
12
12
12
12
12
12
12
12
12
12
12
12
12
12
12
12
12
12
12
12
12
12
12
12
12
12
12
12
12
12
12
12
12
12
12
12
12
12
12
12
12
12
12
12
12
12
12
12
12
12
12
12
12
12
12
12
12
12
12
12
12
12
12
12
12
12
12
12
12
12
12
12
12
12
12
12
12
12
12
12
12
12
12
12
12
12
12
12
12
12
12
12
12
12
12
12
12
12
12
12
12
12
12
12
12
12
12
12
12
12
12
12
12
12
12
12
12
12
12
12
12
12
12
12
12
12
12
12
12
12
12
12
12
12
12
12
12
12
12
12
12
12
12
12
12
12
12
12
12
12
12
12
12
12
12
12
12
12
12
12
12
12
12
12
12
12
12
12
12
12
12
12
12
12
12
12
12
12
12
12
12
12
12
12
12
12
12
12
12
12
12
12
12
12
12
12
12
12
12
12
12
12
12
12
12
12
12
12
12
12
12
12
12
12
12
12
12
12
12
12
12
12
12
12
12
12
12
12
12
12
12
12
12
12
12
12
12
12
12
12
12
12
12
12
12
12
12
12
12
12
12
12
12
12
12
12
12
12
12
12
12
12
12
12
12
12
12
12
12
12
12
12
12
12
12
12
12
12
12
12
12
12
12
12
12
12
12
12
12
12
12
12
12
12
12
12
12
12
12
12
12
12
12
12
12
12
12
12
12
12
12
12
12
12
12
12
12
12
12
12
12
12
12
12
12
12
12
12
12
12
12
12
12
12
12
12
12
12
12
12
12
12
12
12
12
12
12
12
12
12
12
12
12
12
12
12
12
12
12
12
12
12
12
12
12
12
12
12
12
12
12
12
12
12
12
12
12
12
12
12
12
12
12
12
12
12
12
12
12
12
12
12
12
12
12
12
12
12
12
12
12
12
12
12
12
12
12
12
12
12
12
12
12
12
12
12
12
12
12
12
12
12
12
12
12
12
12
12
12
12
12
12
12
12
12
12
12
12
12
12
12
12
12
12
12
12
12
12
12
12
12
12
12
12
12
12
12
12
12
12
12
12
12
12
12
12
12
12
12
12
12
12
12
12
12
12
12
12
12
12
12
12
12
12
12
12
12
12
12
12
12
12
12
12
12
12
12
12
12
12
12
12
12
12
12
12
12
12
12
12
12
12
12
12
12
12
12
12
12
12
12
12
12
12
12
12
12
12
12
12
12
12
12
12
12
12
12
12
12
12
12
12
12
12
12
12
12
12
12
12
12
12
12
12
12
12
12
12
12
12
12
12
12
12
12
12
12
12
12
12
12
12
12
12
12
12
12
12
12
12
12
12
12
12
12
12
12
12
12
12
12
12
12
12
12
12
12
12
12
12
12
12
12
12
12
12
12
12
12
12
12
12
12
12
12
12
12
12
12
12
12
12
12
12
12
12
12
12
12
12
12
12
12
12
12
12
12
12
12
12
12
12
12
12
12
12
12
12
12
12
12
12
12
12
12
12
12
12
12
12
12
12
12
12
12
12
12
12
12
12
12
12
12
12
12
12
12
12
12
12
12
12
12
12
12
12
12
12
12
12
12
12
12
12
12
12
12
12
12
12
12
12
12
12
12
12
12
12
12
12
12
12
12
12
12
12
12
12
12
12
12
12
12
12
12
12
12
12
12
12
12
12
12
12
12
12
12
12
12
12
12
12
12
12
12
12
12
12
12
12
12
12
12
12
12
12
12
12
12
12
12
12
12
12
12
12
12
12
12
12
12
12
12
12
12
12
12
12
12
12
12
12
12
12
12
12
12
12
12
12
12
12
12
12
12
12
12
12
12
12
12
12
12
12
12
12
12
12
12
12
12
12
12
12
12
12
12
12
12
12
12
12
12
12
12
12
12
12
12
12
12
12
12
12
12
12
12
12
12
12
12
12
12
12
12

POINT_DATA 3012
SCALARS Jp_lamdaP float 4
LOOKUP_TABLE default
0.999576 1 1 0.999576
1 1 1 1
0.999589 1 1 0.999589
0.999519 1 1 0.999519
0.999578 1 1 0.999578
0.999551 1 1 0.999551
1.00348 1.00486 1 0.998623
1 1 1 1
1 1 1 1
1 1 1 1
0.999647 1 1 0.999647
1.00009 1.0014 1 0.998693
0.999536 1 1 0.999536
0.999532 1 1 0.999532
0.999593 1 1 0.999593
0.99955 1 1 0.99955
0.999559 1 1 0.999559
0.999599 1 1 0.999599
1.00355 1.00494 1 0.998623
1 1 1 1
0.999504 1 1 0.999504
0.999553 1 1 0.999553
1.0003 1.00179 1 0.998508
1.00275 1.00415 1 0.998606
0.999547 1 1 0.999547
1.00252 1.0039 1 0.998626
1.02401 1.02689 1 0.997191
1 1 1 1
0.999783 1 1 0.999783
0.999795 1 1 0.999795
1 1 1 1
0.999671 1.00097 1 0.998703
0.999557 1 1 0.999557
0.999586 1 1 0.999586
1.0039 1.00511 1 0.9988
1 1 1 1
1.00241 1.00354 1 0.998875
0.998886 1.0001 1 0.998789
1.01414 1.01703 1 0.997153
1 1 1 1
1 1 1 1
0.999768 1 1 0.999768
1 1 1 1
0.999546 1 1 0.999546
0.998442 1 1 0.998442
1 1 1 1
0.999597 1.00089 1 0.998706
0.999577 1 1 0.999577
0.999615 1 1 0.999615
0.999561 1 1 0.999561
1.00364 1.00502 1 0.998627
0.999753 1 1 0.999753
0.999532 1 1 0.999532
0.999561 1 1 0.999561
0.999581 1 1 0.999581
1.00005 1.00155 1 0.998503
1.0027 1.00408 1 0.998628
1.00271 1.00411 1 0.998605
1.0241 1.02699 1 0.997178
1 1 1 1
0.999513 1 1 0.999513
0.998762 1 1 0.998762
0.998898 1.00041 1 0.998487
1.0016 1.00304 1 0.998559
1.0263 1.02943 1 0.99696
1.02463 1.02765 1 0.997061
0.999608 1 1 0.999608
0.999083 1.00037 1 0.998714
1.02158 1.02438 1 0.997265
1.04428 1.04815 1 0.996304
1 1 1 1
1 1 1 1
1 1 1 1
0.999326 1.00062 1 0.998712
1 1 1 1
1 1 1 1
1.00364 1.00507 1 0.998575
0.999864 1 1 0.999864
1.00147 1.0028 1 0.99867
0.999165 1.00015 1.00008 0.998938
1.01332 1.01622 1 0.997149
1 1 1 1
1.00176 1 1.00213 0.999632
1.00291 1.00442 1 0.998491
1.00346 1.00486 1 0.998605
1.02892 1.03228 1 0.996745
0.999676 1 1.00043 0.999242
1.01932 1.02234 1 0.997054
1.00924 1.01194 1.00002 0.997312
1.02871 1.03244 1 0.996393
1 1 1 1
1 1 1 1
1 1 1 1
1 1 1 1
1 1 1 1
0.999772 1 1 0.999772
0.998592 1 1 0.998592
0.999767 1 1 0.999767
1.00016 1.00158 1 0.998589
1 1 1 1
0.998469 1 1 0.998469
0.998776 1.00007 1 0.99871
1.02119 1.02464 1 0.99663
1.00159 1.00286 1 0.998737
1.02906 1.03253 1 0.996634
0.99956 1 1 0.99956
0.999558 1 1 0.999558
0.999572 1 1 0.999572
0.999605 1 1 0.999605
0.99984 1.00134 1 0.9985
1.00268 1.00408 1 0.998608
1.00281 1.00418 1 0.998633
1.02421 1.02712 1 0.997166
1 1 1 1
0.999539 1 1 0.999539
0.998502 1 1 0.998502
0.998782 1.0003 1 0.998479
0.999806 1 1 0.999806
0.99973 1.00093 1 0.9988
1.00145 1.0029 1 0.998557
1.02638 1.02954 1 0.996931
1.02124 1.02405 1 0.99725
1.02513 1.02813 1 0.997083
1.04418 1.04805 1 0.996313
0.998493 1 1 0.998493
0.998506 1.00001 1 0.998495
1.02056 1.02373 1 0.99691
1.02461 1.0278 1 0.996899
1.02597 1.02909 1 0.996975
1.05636 1.06026 1 0.996324
1 1 1 1
1.04807 1.05195 1 0.996311
0.999296 1 1.0004 0.998893
1.01359 1.01642 1 0.997217
1.04078 1.04465 1 0.996295
1.04914 1.05307 1 0.996268
1.0015 1 1.00222 0.999287
1.00649 1 1.00844 0.99807
1 1 1 1
1 1 1 1
1.00357 1.00499 1 0.99858
1 1 1 1
0.999184 1.00001 1.0003 0.998869
1.00102 1.00235 1 0.998677
1.01269 1.01559 1 0.997145
1 1 1 1
1.00148 1 1.00182 0.999656
1.0033 1.00468 1 0.99863
1.00324 1.00451 1 0.998733
1.02827 1.03163 1 0.996744
0.99997 1 1.00082 0.999147
1.01931 1.02232 1 0.997055
1.00731 1.00996 1.00006 0.99731
1.03005 1.03378 1 0.996388
1.00118 1 1.00179 0.999393
1.00077 1 1.00097 0.999803
1.00453 1.00011 1.00604 0.998399
1.03093 1.03439 1 0.996655
1.0254 1.0286 1 0.996896
1.05152 1.05554 1 0.996193
1.00388 1.00548 1.00079 0.997617
1.03797 1.04173 1 0.996392
1.0199 1.02293 1.00057 0.996467
1.03735 1.04124 1 0.996271
1 1 1 1
1 1 1 1
1 1 1 1
1.00175 1 1.00229 0.999459
1 1 1 1
1 1 1 1
1 1 1 1
1.00051 1.00204 1 0.998475
0.998478 1 1 0.998478
1 1 1 1
1 1 1 1
0.99847 1 1 0.99847
0.998851 1.00026 1 0.998595
1.02198 1.02544 1 0.996631
1.00181 1.00333 1 0.998482
1.02856 1.03203 1 0.996633
0.998471 1 1 0.998471
1.01982 1.0233 1 0.996607
1.02434 1.02779 1 0.996646
1.06083 1.06486 0.999863 0.996348
1.03115 1.03464 1 0.996626
1.06319 1.06713 1 0.99631
1 1 1 1
0.999566 1 1 0.999566
0.998214 1 1 0.998214
0.998671 1.0002 1 0.998472
1 1 1 1
1.0006 1.00172 1 0.998888
1.00131 1.00276 1 0.998557
1.02652 1.02971 1 0.996902
1.02577 1.02874 1 0.997105
1.02075 1.02357 1 0.997235
1.04408 1.04794 1 0.996322
0.998491 1 1 0.998491
0.998497 1.00001 1 0.998487
1.02051 1.02381 1 0.996772
1.02489 1.02806 1 0.996913
1 1 1 1
0.999472 1.00031 1.0002 0.998966
1.01511 1.01785 1 0.997306
1.02634 1.02946 1 0.996969
1.05643 1.06033 1 0.996326
1.04073 1.04461 1 0.996292
1.04826 1.05211 1 0.996344
1.04871 1.05263 1 0.996277
1.00132 1 1.00205 0.999274
1.00534 1.00002 1.00727 0.998072
1.01977 1.02322 1 0.996628
1.0216 1.02476 1 0.996913
1.05785 1.06169 1 0.996383
1.057 1.06155 0.999375 0.996337
1.05256 1.05638 1 0.996383
1.0591 1.06374 0.999115 0.996512
1.00045 1 1.00136 0.999091
1.05212 1.05593 1 0.996398
1.00716 1.00966 1.00011 0.997415
1.03522 1.03903 1 0.996335
1.04659 1.05063 1 0.99615
1.04847 1.05212 1 0.996536
1.00338 1.00087 1.00472 0.997802
1.00643 1 1.00805 0.998392
1.00429 1.00146 1.00548 0.997362
1.00342 1.00491 1 0.998523
1 1 1 1
1.00096 1 1.00129 0.99968
1.00272 1.00408 1 0.99864
1.02771 1.03107 1 0.996743
1.00018 1 1.00103 0.999147
1.00571 1.00838 1.00004 0.997308
1.01864 1.02165 1 0.997057
1.0315 1.03524 1 0.996384
1.00128 1 1.00187 0.999415
1.00042 1 1.0006 0.999821
1.00544 1 1.00706 0.998398
1.03013 1.03359 1 0.996652
1.02473 1.02792 1 0.996899
1.05165 1.05568 1 0.996187
1.00236 1.00416 1.00058 0.997622
1.03865 1.04241 1 0.996393
1.0219 1.02504 1.00047 0.99646
1.03855 1.04244 1 0.996274
1.00012 1 1.00022 0.999896
1.00297 1.00147 1.00353 0.997977
1.00442 1 1.0056 0.998834
1.00598 1.00148 1.0068 0.997711
1.05605 1.06009 1 0.996192
1.04561 1.04951 1 0.996282
1.05365 1.05766 1 0.996211
1.01202 1.01476 1.00049 0.996818
1.04111 1.04491 1 0.996365
1.0343 1.03663 1.00158 0.996175
1.04697 1.05093 1 0.996234
0.999557 1 1 0.999557
0.999967 1 1 0.999967
1 1 1 1
1 1 1 1
1 1 1 1
1.00128 1 1.00165 0.999628
1 1 1 1
1.00193 1 1.00249 0.999443
1 1 1 1
1.00233 1.00385 1 0.998483
0.999076 1.0006 1 0.99848
1.02854 1.03201 1 0.996632
1.02275 1.02621 1 0.996631
0.998472 1 1 0.998472
1 1 1 1
0.99847 1 1 0.99847
1.02013 1.0236 1 0.996607
1.0253 1.02875 1 0.996645
1.05998 1.06395 0.999924 0.996346
1.03046 1.03395 1 0.996622
1.06273 1.06667 1 0.996307
1.01948 1.02295 1 0.996607
1.05838 1.06235 0.999938 0.996327
1.06343 1.06741 0.999927 0.996344
1.06241 1.07058 0.995668 0.996687
1.06056 1.06456 1 0.996249
1.06287 1.06886 0.99781 0.996577
0.998489 1 1 0.998489
0.998479 1 1 0.998479
1.02046 1.02391 1 0.996635
1.02505 1.02821 1 0.996927
1 1 1 1
0.99947 1.00041 1.00002 0.99904
1.01633 1.01898 1 0.997395
1.02671 1.02984 1 0.996962
1.05642 1.06032 1 0.996328
1.04829 1.0521 1 0.996377
1.04092 1.0448 1 0.996288
1.04837 1.05228 1 0.996287
1.00132 1 1.00206 0.999262
1.005 1.00025 1.00669 0.998073
1.01966 1.02312 1 0.996618
1.02172 1.02489 1 0.996907
1.05744 1.06155 0.999715 0.99641
1.05779 1.06203 0.999671 0.996331
1.00009 1 1.00101 0.99908
1.0088 1.01129 1.00013 0.997414
1.03458 1.03835 1 0.996362
1.05243 1.05628 1 0.99636
1.05841 1.06333 0.998804 0.996562
1.04635 1.0504 1 0.99614
1.05208 1.05588 1 0.996402
1.04853 1.05218 1 0.996529
1.00381 1.00151 1.00451 0.997802
1.00511 1.00182 1.00594 0.997357
1.00679 1 1.00841 0.998392
1.0571 1.06096 1 0.996362
1.05817 1.06249 0.999519 0.996413
1.06194 1.06858 0.99716 0.996617
1.05973 1.0661 0.997439 0.996576
1.05446 1.0589 0.999288 0.996517
1.05102 1.0609 0.993801 0.996867
1.00191 1.00364 1.00065 0.997619
1.04997 1.05469 0.998823 0.996697
1.02204 1.02551 1 0.996609
1.03854 1.04274 1 0.995974
1.0444 1.04842 1 0.996173
1.04181 1.04564 0.999533 0.996805
1.00567 1 1.00698 0.998692
1.00246 1.0046 1.00067 0.997198
1.00849 1 1.01098 0.997534
1.00447 1.00477 1.00266 0.997051
1.02941 1.03287 1 0.996649
1.00008 1 1.00024 0.99984
1.00151 1 1.00207 0.999438
1.00705 1 1.00867 0.998398
1.02418 1.02736 1 0.996901
1.0517 1.05573 1 0.996181
1.00026 1.00223 1.00041 0.997627
1.02268 1.02598 1.00033 0.996452
1.03972 1.04349 1 0.996393
1.03849 1.04237 1 0.996277
0.999948 1 1.00004 0.999909
1.00314 1.00085 1.00432 0.997979
1.00438 1 1.00555 0.998842
1.00563 1.00091 1.00703 0.997705
1.05609 1.06013 1 0.996185
1.04581 1.04972 1 0.996279
1.05315 1.05716 1 0.996208
1.00976 1.01252 1.00045 0.996824
1.04071 1.04452 1 0.996356
1.03232 1.03451 1.00173 0.996162
1.04648 1.05034 1 0.996321
0.999945 1 1 0.999945
1.00195 1 1.00278 0.999167
1.00567 1.00647 1.00191 0.997306
1.00784 1.00028 1.00948 0.998091
1.00368 1.00302 1.00322 0.997451
1.05871 1.06264 1 0.996301
1.04697 1.05091 1 0.996252
1.04819 1.052 1 0.996376
1.01422 1.01583 1.00199 0.996429
1.04044 1.0442 1 0.996394
1.0276 1.03085 1.00086 0.995987
0.999492 1 1 0.999492
0.99947 1 1.00055 0.998922
0.999612 1 1 0.999612
0.999559 1 1 0.999559
0.999979 1 1 0.999979
0.999971 1 1 0.999971
1 1 1 1
1 1 1 1
1 1 1 1
1.0003 1 1.00051 0.999797
1 1 1 1
1.00161 1 1.002 0.999611
1 1 1 1
1.0017 1 1.00227 0.999427
1 1 1 1
1.02968 1.03318 1 0.996619
1.02591 1.02937 1 0.996644
1.06188 1.06582 1 0.996304
1.05908 1.06299 0.999976 0.996345
1.02049 1.02396 1 0.996608
0.998469 1 1 0.998469
1.01954 1.02301 1 0.996607
1.05824 1.06219 0.999959 0.996328
1.06195 1.0659 0.999951 0.996342
1.0623 1.07092 0.995227 0.996704
1.06015 1.06415 1 0.996244
1.06323 1.06907 0.997953 0.996576
1.05717 1.06109 0.999982 0.996318
1.06211 1.07041 0.995528 0.99671
1.06227 1.07017 0.995953 0.996654
1.05661 1.06716 0.993166 0.996921
1.06098 1.06533 0.999471 0.99645
1.05577 1.0689 0.990766 0.996922
1.01957 1.02304 1 0.996609
1.02187 1.02504 1 0.996901
1.05704 1.06143 0.999417 0.996438
1.05871 1.06262 1 0.996325
0.999737 1 1.00067 0.99907
1.01108 1.01358 1.00012 0.997414
1.03488 1.03863 1 0.996389
1.05232 1.05619 1 0.996337
1.05772 1.06294 0.998471 0.996612
1.05206 1.05585 1 0.996407
1.04602 1.05008 1 0.99613
1.0487 1.05236 1 0.996523
1.00387 1.00206 1.00402 0.997802
1.0057 1.00207 1.00629 0.997353
1.00681 1 1.00843 0.998393
1.05712 1.061 1 0.996347
1.05807 1.06254 0.999383 0.996412
1.06136 1.06854 0.996612 0.996663
1.05951 1.06562 0.997707 0.996552
1.00385 1.0054 1.00084 0.997617
1.02229 1.02577 1 0.996607
1.03735 1.04147 1.00003 0.996008
1.05486 1.05906 0.999553 0.996476
1.05075 1.06128 0.993134 0.996915
1.04545 1.04951 1 0.996134
1.05024 1.05492 0.998857 0.996699
1.04294 1.04663 0.999633 0.996842
1.00392 1.00556 1.00118 0.997197
1.00432 1.00452 1.0028 0.997009
1.00534 1 1.00666 0.998689
1.00817 1.00001 1.01061 0.997574
1.06136 1.06857 0.996577 0.996661
1.06246 1.06947 0.996834 0.996601
1.05145 1.06245 0.992783 0.996837
1.04935 1.06301 0.990179 0.996943
1.05075 1.05799 0.996305 0.996843
1.04913 1.06198 0.990782 0.997093
1.00925 1.01236 1 0.996928
1.04233 1.05019 0.995436 0.997067
1.02484 1.02877 1 0.996184
1.03495 1.03912 1.00018 0.995807
1.04517 1.04918 1 0.996177
1.04489 1.04842 0.999755 0.996871
1.00125 1 1.0023 0.998958
1.01098 1 1.01318 0.997832
1.00569 1.00886 1 0.996855
1.00599 1.00233 1.00645 0.997226
1.00642 1.00583 1.00373 0.996864
0.999922 1 1 0.999922
1.05608 1.06013 1 0.996179
1.00412 1 1.00528 0.99885
1.00343 1.00044 1.00501 0.997982
1.00507 1.00035 1.00703 0.9977
1.04596 1.04987 1 0.996277
1.05272 1.05673 1 0.996205
1.00926 1.01195 1.00051 0.996831
1.0325 1.0345 1.00193 0.996149
1.04041 1.04422 1 0.996347
1.04681 1.05059 1 0.996408
0.999952 1 1 0.999952
1.00161 1 1.00244 0.999178
1.00362 1.00498 1.00134 0.997312
1.00905 1.00017 1.01081 0.998086
1.00347 1.00243 1.00363 0.997417
1.0585 1.06243 1 0.996296
1.04674 1.05068 1 0.99625
1.04816 1.052 0.999984 0.996364
1.01547 1.01694 1.00213 0.99643
1.0434 1.04719 1 0.996382
1.02789 1.03101 1.00096 0.996016
1.00001 1 1.00063 0.999379
1.00469 1 1.00622 0.998476
1.00205 1.00465 1.00048 0.996942
1.00975 1.00224 1.00979 0.99773
1.0046 1.00522 1.00203 0.997349
1.05549 1.0602 0.999026 0.996528
1.04229 1.0461 1 0.996352
1.04733 1.05117 0.999752 0.996591
1.0054 1.00535 1.00379 0.99627
1.02514 1.02928 1 0.995985
0.999495 1 1 0.999495
0.998836 1 1 0.998836
0.999593 1 1.0007 0.998896
0.999467 1 1.00083 0.998639
0.999509 1 1.00054 0.998966
0.999646 1 1 0.999646
0.999614 1 1 0.999614
0.99999 1 1 0.99999
0.99956 1 1 0.99956
0.999983 1 1 0.999983
1 1 1 1
0.999975 1 1 0.999975
1 1 1 1
1 1 1 1
0.999923 1 1 0.999923
1.00084 1 1.00106 0.999776
1 1 1 1
1 1 1 1
1.00217 1 1.00257 0.999594
1 1 1 1
1.05982 1.06382 1 0.99624
1.06085 1.06476 0.999985 0.99634
1.06376 1.06947 0.998077 0.996574
1.06226 1.07135 0.994777 0.996722
1.05804 1.06194 0.999994 0.996328
1.01955 1.02303 1 0.996607
1.05724 1.06115 0.999998 0.996319
1.06186 1.07005 0.995624 0.996705
1.06294 1.07084 0.995961 0.996655
1.05608 1.06717 0.992638 0.99695
1.06184 1.06611 0.999544 0.996444
1.05607 1.06895 0.990978 0.996944
1.06174 1.0695 0.996051 0.996681
1.05423 1.06603 0.992003 0.996899
1.05663 1.06851 0.991876 0.996989
1.05643 1.07109 0.989219 0.997071
1.05748 1.06619 0.995057 0.996757
1.05615 1.07259 0.987498 0.997147
1.05708 1.06097 1 0.996332
1.05794 1.06256 0.999241 0.99641
1.06076 1.06845 0.996077 0.99671
1.05917 1.06505 0.997945 0.996528
1.00539 1.00673 1.00105 0.997615
1.02077 1.02424 1 0.996604
1.03548 1.03941 1.00018 0.996043
1.05526 1.05921 0.999839 0.996434
1.05051 1.06164 0.992524 0.996964
1.05041 1.05507 0.998884 0.9967
1.04628 1.05038 1 0.996096
1.04353 1.04708 0.999729 0.996879
1.0058 1.00678 1.00184 0.997197
1.00413 1.00427 1.0029 0.996968
1.00536 1 1.00668 0.998686
1.00766 1.00012 1.00995 0.997615
1.06139 1.0686 0.996577 0.996661
1.06207 1.069 0.996926 0.996583
1.05156 1.0627 0.992623 0.996869
1.05035 1.06321 0.990952 0.996926
1.00979 1.01289 1.00002 0.996921
1.02334 1.02718 1.00003 0.996222
1.03482 1.03878 1.00039 0.995796
1.05131 1.058 0.996877 0.996793
1.04779 1.06104 0.990335 0.997149
1.04168 1.0457 1 0.996162
1.04336 1.05128 0.995392 0.997067
1.04562 1.04915 0.9997 0.996935
1.00503 1.0082 1 0.996857
1.0052 1.00585 1.00251 0.996854
1.0066 1.00203 1.00737 0.997221
1.00205 1 1.00313 0.998924
1.0106 1 1.01275 0.997876
1.05283 1.06473 0.991921 0.996883
1.05284 1.06561 0.991084 0.996906
1.04853 1.06635 0.986117 0.997133
1.04356 1.0576 0.989546 0.997154
1.01214 1.01562 1 0.996572
1.0475 1.05579 0.994893 0.997241
1.01409 1.01792 1.00029 0.995948
1.02923 1.03322 1.00051 0.995628
1.03818 1.04217 1 0.99617
0.999707 1 1.00051 0.999198
1.00824 1 1.01001 0.998246
1.00756 1 1.01002 0.997565
1.00487 1.00776 1.00042 0.996715
1.00637 1.00309 1.0064 0.996888
1.00736 1.00683 1.00384 0.996696
0.999959 1 1 0.999959
1.00087 1 1.00169 0.999188
1.05826 1.0622 1 0.99629
1.01025 1.00003 1.01216 0.998082
1.00075 1.0027 1.00074 0.997318
1.00318 1.0019 1.0039 0.997383
1.04638 1.05033 1 0.996248
1.04817 1.05204 0.999969 0.996352
1.01555 1.01686 1.00229 0.99643
1.02694 1.03022 1.00077 0.996045
1.04644 1.05026 1 0.996369
0.999646 1 1.00026 0.999384
1.00531 1 1.00684 0.99848
1.00421 1.00688 1.00041 0.996928
1.01017 1.00175 1.01071 0.997724
1.00481 1.00574 1.00174 0.997342
1.05481 1.05941 0.999138 0.996523
1.04353 1.04736 1 0.996339
1.04779 1.05162 0.99974 0.996616
1.00677 1.0073 1.00324 0.996236
1.02358 1.02767 1.00006 0.995955
1.0006 1 1.00185 0.998751
1.0101 1 1.01208 0.99804
1.00479 1.00603 1.002 0.996778
1.01053 1.00579 1.00726 0.997473
1.01488 1.01674 1.001 0.997176
1.04861 1.05883 0.993309 0.997021
1.04443 1.04838 1 0.996231
1.0477 1.0515 0.999792 0.996586
1.00824 1.00777 1.00433 0.996155
1.01192 1.01623 1 0.995759
0.999497 1 1 0.999497
0.998853 1 1 0.998853
0.998608 1 1.00002 0.998586
0.9993 1 1.00043 0.99887
0.9993 1 1.00034 0.998964
0.999853 1 1.00124 0.998615
0.999281 1 1.00071 0.998575
1.00046 1 1.00191 0.998556
0.999082 1 1.00008 0.999005
0.999641 1 1 0.999641
0.999646 1 1 0.999646
0.999997 1 1 0.999997
0.999617 1 1 0.999617
0.999992 1 1 0.999992
1 1 1 1
0.999986 1 1 0.999986
1 1 1 1
1 1 1 1
0.999982 1 1 0.999982
0.999914 1 1.00001 0.999903
1 1 1 1
1.00119 1 1.00143 0.999756
1 1 1 1
1 1 1 1
1.06269 1.06689 0.999622 0.996438
1.06337 1.07124 0.99598 0.996655
1.05632 1.06893 0.991205 0.996966
1.05554 1.06713 0.992133 0.99698
1.06163 1.06971 0.995732 0.9967
1.05737 1.06127 1 0.99632
1.06171 1.06926 0.996262 0.996662
1.05482 1.06623 0.99239 0.996892
1.05597 1.06793 0.991796 0.996974
1.05509 1.07049 0.988497 0.997082
1.05709 1.0655 0.99533 0.996759
1.05385 1.07106 0.986702 0.997185
1.05497 1.0659 0.992853 0.996873
1.05614 1.07217 0.987942 0.997071
1.05694 1.0735 0.987374 0.997164
1.04944 1.06833 0.985072 0.997205
1.06147 1.06869 0.996578 0.99666
1.06176 1.0686 0.997023 0.996564
1.05172 1.063 0.992463 0.9969
1.05142 1.06352 0.991688 0.996909
1.0111 1.01423 1 0.996913
1.02254 1.02638 1 0.99626
1.03472 1.0385 1.00058 0.995785
1.05179 1.05797 0.99741 0.996742
1.04642 1.06012 0.989843 0.997205
1.04446 1.05243 0.995346 0.997068
1.03898 1.043 1 0.996147
1.0471 1.05062 0.999655 0.996999
1.0031 1.0062 1.00005 0.996858
1.00465 1.0064 1.00143 0.996843
1.00755 1.00165 1.00871 0.997216
1.00244 1 1.00355 0.998892
1.01045 1 1.01255 0.99792
1.05302 1.06485 0.991977 0.996885
1.05337 1.0662 0.991038 0.996902
1.04871 1.0656 0.986993 0.997125
1.01212 1.0156 1 0.996569
1.01441 1.01824 1.00026 0.995987
1.02753 1.03127 1.00076 0.995616
1.04391 1.05751 0.98997 0.997141
1.0414 1.04531 0.999964 0.996287
1.0438 1.05236 0.994649 0.997207
0.999815 1 1.00057 0.999242
1.0049 1.00703 1.00118 0.996709
1.00648 1.00536 1.00432 0.996809
1.00898 1.00445 1.00765 0.996883
1.00848 1.00045 1.01046 0.997588
1.00836 1 1.01016 0.998211
1.05475 1.07019 0.988585 0.996959
1.05271 1.0735 0.983527 0.997066
1.04217 1.06412 0.982112 0.997212
1.03979 1.05965 0.983862 0.997352
1.00868 1.01229 1.00005 0.996386
1.03887 1.04458 0.997728 0.996803
1.00607 1.00889 1.00165 0.995567
1.01679 1.02035 1.00104 0.995472
0.999546 1 1 0.999546
1.00227 1 1.00367 0.998612
1.00796 1 1.01009 0.997893
1.00847 1.00095 1.01046 0.997086
1.00517 1.00491 1.00371 0.99657
1.01094 1.00415 1.01026 0.996529
0.999438 1 1.00005 0.99939
1.00631 1 1.00784 0.998484
1.05428 1.05876 0.999249 0.996517
1.01047 1.00113 1.01163 0.997718
1.00642 1.00927 1.00027 0.996914
1.00426 1.00541 1.00152 0.997335
1.04491 1.04877 1 0.996326
1.04821 1.05203 0.999731 0.996641
1.00847 1.00956 1.00273 0.996201
1.02193 1.02583 1.00027 0.995924
1.00057 1 1.00182 0.998755
1.01058 1 1.01258 0.998021
1.00515 1.00639 1.00198 0.996786
1.01026 1.00613 1.00664 0.997479
1.01615 1.01848 1.00048 0.99724
1.05068 1.06073 0.993444 0.997068
1.04383 1.04775 1 0.996262
1.04856 1.05237 0.999717 0.996663
1.00866 1.00796 1.00458 0.996122
1.01164 1.016 1.00003 0.995679
1.00179 1 1.00336 0.998438
1.01105 1.00171 1.01169 0.997659
1.01127 1.01079 1.00378 0.996711
1.01356 1.01492 1.00161 0.997057
1.04774 1.07807 0.974483 0.997319
1.04651 1.05338 0.996381 0.997083
1.03065 1.0349 1 0.995885
1.01448 1.0145 1.00426 0.995745
0.99887 1 1 0.99887
0.998709 1 1.00011 0.998596
0.998611 1 1 0.998611
0.999528 1 1.00057 0.998963
1.00051 1 1.00192 0.998591
0.999155 1 1.00015 0.999002
0.999114 1 1.00052 0.998591
1.00085 1 1.00229 0.998565
0.998693 1 1 0.998693
1.001 1 1.00257 0.998426
1.0004 1 1.00188 0.998523
0.998984 1 1 0.998984
0.999604 1 1 0.999604
0.999639 1 1 0.999639
0.999999 1 1 0.999999
0.999647 1 1 0.999647
0.999998 1 1 0.999998
1 1 1 1
0.999994 1 1 0.999994
1 1 1 1
1 1 1 1
0.999998 1 1 0.999998
0.99997 1 1 0.99997
1 1 1 1
1.00008 1 1.0002 0.999882
1 1 1 1
1 1 1 1
1.05663 1.06475 0.995597 0.996761
1.05542 1.06749 0.991709 0.996959
1.05163 1.06962 0.985924 0.997222
1.05372 1.06991 0.987739 0.997093
1.05542 1.06644 0.992751 0.996885
1.06166 1.06901 0.99647 0.996643
1.05474 1.06578 0.992747 0.996874
1.05593 1.07181 0.988084 0.997062
1.05542 1.07264 0.986739 0.997163
1.05043 1.06911 0.985271 0.997215
1.05714 1.07209 0.989005 0.997017
1.05736 1.07865 0.982988 0.997221
1.05652 1.08022 0.980732 0.997275
1.05319 1.06497 0.992032 0.996887
1.05384 1.0667 0.991013 0.996898
1.04897 1.06482 0.987961 0.997117
1.01312 1.01662 1 0.996567
1.01419 1.01806 1.00018 0.996024
1.02556 1.02922 1.00085 0.995604
1.04431 1.05749 0.99038 0.997127
1.03978 1.04896 0.994066 0.997173
1.04419 1.04806 0.999901 0.996404
1.00414 1.00578 1.00167 0.996702
1.00219 1.00202 1.00326 0.996922
1.01082 1.0054 1.00854 0.996877
0.999874 1 1.00059 0.999287
1.00821 1.00086 1.00976 0.997611
1.00871 1 1.01056 0.998176
1.05551 1.07063 0.988879 0.996967
1.05194 1.0732 0.983072 0.997071
1.04246 1.06397 0.982529 0.997204
1.00619 1.00985 1 0.996379
1.00588 1.00887 1.0014 0.995642
1.01694 1.02055 1.0009 0.995563
1.04014 1.05937 0.984456 0.997355
1.0351 1.04154 0.997032 0.996781
0.999616 1 1 0.999616
1.00225 1 1.00364 0.998609
1.00228 1.00344 1.00224 0.996612
1.01332 1.00337 1.01328 0.996687
1.00851 1.00177 1.00962 0.997136
1.00787 1 1.01004 0.99785
1.05497 1.0768 0.982535 0.997141
1.04298 1.07529 0.972709 0.997166
1.03911 1.06398 0.979181 0.997397
1.02946 1.04604 0.986758 0.997353
1.00226 1.00483 1.00133 0.996116
1.0184 1.02136 1.00121 0.995894
1.0068 1.00882 1.00264 0.995366
0.999801 1 1 0.999801
0.999261 1 1 0.999261
0.999405 1 1.00045 0.998954
1.00288 1 1.00478 0.998111
1.00888 1 1.01142 0.997487
1.01185 1.00185 1.01316 0.996856
1.00242 1.00192 1.00376 0.996753
1.03808 1.00182 1.03933 0.996988
1.00033 1 1.00158 0.998759
1.01103 1 1.01306 0.998001
1.05285 1.06268 0.993619 0.997115
1.01176 1.00796 1.0063 0.997484
1.0057 1.00677 1.00215 0.996794
1.0171 1.01981 1.00004 0.997304
1.04311 1.04699 1 0.996293
1.04937 1.05318 0.999639 0.99674
1.00895 1.00806 1.00482 0.996089
1.01111 1.01558 1 0.9956
1.00215 1 1.00376 0.998397
1.00958 1.00081 1.01113 0.997659
1.01426 1.01337 1.00415 0.996733
1.01362 1.01513 1.00142 0.997096
1.04927 1.08048 0.973708 0.997338
1.04867 1.05478 0.997172 0.997029
1.02965 1.03385 1 0.995938
1.01633 1.01689 1.00377 0.995693
1.00318 1 1.00498 0.998213
1.05419 1.08589 0.97339 0.997344
1.00469 1.00167 1.00574 0.997288
1.01413 1.01498 1.00268 0.996492
1.03737 1.06494 0.976604 0.997453
1.02583 1.03022 0.999711 0.996026
1.01188 1.0132 1.00323 0.995476
0.998605 1 1 0.998605
0.998444 0.999782 1.00006 0.998601
0.999132 0.999745 1.00066 0.998733
0.999051 1 1.00005 0.999
1.00089 1 1.00232 0.998573
0.999224 1 1.00062 0.998608
0.998981 1 1 0.998981
1.00049 1 1.00197 0.998528
0.998733 1 1.00002 0.998717
1.00045 1 1.00201 0.998439
0.998815 1 1 0.998815
0.998868 1 1.0003 0.998568
1.00096 1 1.00267 0.99829
0.998774 1 1.00033 0.998446
0.998903 1 1 0.998903
0.999559 1 1 0.999559
0.9996 1 1 0.9996
1 1 1 1
0.999637 1 1 0.999637
0.999999 1 1 0.999999
1 1 1 1
0.999999 1 1 0.999999
1 1 1 1
1 1 1 1
0.999831 1 1 0.999831
1 1 1 1
0.999995 1 1 0.999995
1 1 1 1
0.999958 1 1 0.999958
1 1 1 1
1 1 1 1
1.05141 1.06988 0.98547 0.997226
1.0539 1.07175 0.986144 0.997161
1.05574 1.07145 0.988251 0.997052
1.05448 1.06562 0.992643 0.996874
1.05674 1.07203 0.988672 0.997035
1.05722 1.07819 0.98329 0.997212
1.05392 1.07753 0.980748 0.997282
1.05689 1.07873 0.982497 0.997203
1.0683 1.09226 0.980707 0.997307
1.06628 1.09342 0.977553 0.997574
1.05626 1.07105 0.989177 0.996975
1.051 1.07291 0.982456 0.997076
1.04277 1.06385 0.982941 0.997195
1.00525 1.00885 1.00006 0.996372
1.00662 1.00967 1.00126 0.995719
1.01909 1.02274 1.00078 0.995655
1.04069 1.05883 0.985471 0.997358
1.03094 1.03774 0.996678 0.996759
1.00328 1.00369 1.00294 0.996655
1.01733 1.0039 1.01659 0.996842
1.00973 1.00241 1.01014 0.997186
0.999686 1 1 0.999686
1.00214 1 1.00354 0.998606
1.00794 1 1.01016 0.997807
1.05478 1.07714 0.982044 0.997151
0.999796 1 1 0.999796
0.999222 1 1 0.999222
1.04405 1.07437 0.974545 0.997168
1.03722 1.06249 0.978793 0.997367
1.00313 1.00502 1.00192 0.996198
1.00665 1.00799 1.00332 0.995368
1.01783 1.02194 1.00009 0.995882
1.02844 1.04583 0.986004 0.997326
0.999528 1 1.00049 0.99904
1.00301 1 1.00491 0.998101
1.00301 1.00183 1.00455 0.996644
1.03257 1.00178 1.0337 0.997127
1.0092 1.00126 1.01109 0.996872
1.00808 1 1.01061 0.997502
1.06538 1.09258 0.977786 0.997258
1.02428 1.0729 0.957274 0.9973
1.02474 1.05369 0.974918 0.997546
1.01063 1.0262 0.98774 0.997046
1.00553 1.0028 1.00642 0.996334
1.00666 1.00577 1.0055 0.995406
0.999174 1 1 0.999174
0.99923 1 1 0.99923
0.998916 1 1 0.998916
0.998825 1 1.00049 0.998335
1.0073 1 1.00948 0.997835
1.00621 1.00036 1.00873 0.997138
1.05388 1.00014 1.05699 0.996912
0.998549 1.00049 1.00062 0.997439
1.00293 1 1.00458 0.998357
1.00763 1 1.01 0.997659
1.05016 1.08191 0.973222 0.997357
1.05042 1.05578 0.997934 0.996976
1.01378 1.01552 1.00115 0.997136
1.01771 1.01654 1.00441 0.996754
1.02903 1.03314 1.00004 0.995991
1.01876 1.0198 1.00335 0.995642
1.00325 1 1.00507 0.998192
1.05716 1.08956 0.972794 0.997407
1.00492 1.00094 1.00667 0.997324
1.01234 1.01324 1.00269 0.996429
1.03681 1.06429 0.976695 0.997427
1.02472 1.02901 0.999712 0.996114
1.01309 1.01415 1.00348 0.995491
1.0064 0.999729 1.00878 0.997914
1.01142 1.052 0.963517 0.99783
1.00449 1.00294 1.00453 0.997024
1.00503 1.0053 1.00379 0.995959
1.01766 1.03219 0.988914 0.996977
1.00282 1.00491 1.00221 0.995715
0.968679 1.00315 0.968528 0.997019
0.998081 0.9993 1.00019 0.998591
0.999057 0.99888 1.00144 0.998735
1.00009 0.999939 1.00148 0.998668
0.998977 1 1 0.998977
1.00116 1 1.00263 0.998534
0.999557 1 1.00111 0.998452
0.998816 1 1.00007 0.998741
0.998903 1 1 0.998903
0.998902 1 1.00046 0.998441
0.998781 1 1 0.998781
1.00087 1 1.00259 0.998292
0.998821 1 1.00028 0.998543
0.999292 1 1.00052 0.99877
0.998779 1 1.00067 0.998112
1.00181 1 1.00356 0.998259
0.998495 1 1.00018 0.998318
0.998747 1 1 0.998747
0.999707 1 1.0012 0.998506
0.998996 1 1.00028 0.998713
0.999538 1 1 0.999538
0.999556 1 1 0.999556
1 1 1 1
0.999596 1 1 0.999596
1 1 1 1
1 1 1 1
1 1 1 1
1 1 1 1
1 1 1 1
0.999863 1 1 0.999863
0.999832 1 1 0.999832
1 1 1 1
1 1 1 1
1 1 1 1
0.999992 1 1 0.999992
1 1 1 1
1 1 1 1
1.05147 1.07514 0.980643 0.997289
1.0569 1.07766 0.983487 0.997202
1.05639 1.07201 0.98834 0.997054
1.05677 1.07855 0.982558 0.997201
1.06551 1.08965 0.980489 0.997303
1.06511 1.09155 0.978233 0.997493
1.07164 1.10053 0.976316 0.997372
0.966641 1.01605 0.95604 0.995112
1.01883 1.05391 0.968372 0.998289
0.999334 1 1 0.999334
1.05463 1.07743 0.981623 0.997161
1.04524 1.07358 0.976364 0.99717
1.03509 1.0612 0.978004 0.997337
1.00004 1.00295 1.00082 0.996279
1.00513 1.00576 1.00402 0.995368
1.01661 1.02137 0.999465 0.995871
1.02704 1.04559 0.984918 0.997299
0.998832 1.00199 1.00031 0.99654
1.02633 1.00082 1.02829 0.99727
1.006 1.00025 1.00888 0.996889
0.999791 1 1 0.999791
1.00877 1 1.01128 0.997517
0.999558 1 1.00043 0.999126
1.0032 1 1.00512 0.998091
0.999184 1 1 0.999184
1.06178 1.09276 0.974316 0.997266
0.999223 1 1 0.999223
0.99923 1 1 0.99923
0.998618 1.0002 0.999544 0.998879
1.02886 1.07343 0.961071 0.997298
1.02455 1.05354 0.97492 0.997498
1.00191 1.00217 1.00339 0.996365
1.01109 1.01015 1.00542 0.99554
1.00935 1.02392 0.988712 0.997028
0.998945 1 1.00055 0.998395
1.00708 1 1.00932 0.997782
1.00832 1.00031 1.01073 0.997305
1.04336 1.00028 1.04627 0.996931
1.00617 1.00059 1.0084 0.997191
1.03951 1.08115 0.964013 0.997375
1.00424 1.06061 0.949272 0.997458
1.01665 1.03545 0.984619 0.997189
0.991994 1.01073 0.984623 0.99679
1.0038 1 1.00676 0.997064
0.998744 1 1 0.998744
0.998672 1 1 0.998672
0.999722 1 1.00108 0.998639
1.00755 1 1.00945 0.998125
1.00966 1 1.01199 0.997696
1.03981 0.99992 1.04274 0.997271
1.03239 1.00168 1.03332 0.997419
1.00321 1 1.00505 0.998169
1.00475 1 1.00741 0.997359
1.05907 1.09397 0.970558 0.997468
1.03676 1.06445 0.976532 0.997401
1.02392 1.02816 0.999672 0.996201
1.0096 1.01058 1.00268 0.996365
1.01375 1.01467 1.0036 0.995507
1.00646 0.99993 1.00859 0.997962
1.01183 1.05275 0.963182 0.997874
1.00154 1.00187 1.00265 0.997032
1.00401 1.00399 1.00408 0.995959
1.01634 1.03187 0.987816 0.997101
1.00344 1.00502 1.00273 0.99571
0.969362 1.00308 0.970311 0.99595
1.00674 1.00007 1.00885 0.997835
0.999516 1.02489 0.977369 0.99782
1.00069 1.00137 1.00248 0.996847
1.00424 1.00156 1.00644 0.996262
0.991927 1.00615 0.988967 0.996859
0.907455 0.975602 0.955906 0.973055
0.900672 0.965852 0.945723 0.986034
0.965362 0.983178 0.984622 0.997214
0.711454 0.829111 0.907979 0.945057
0.626905 0.783594 0.862256 0.927842
0.999057 0.998142 1.00218 0.998737
1.00096 0.998767 1.00347 0.998721
1.00102 1 1.00232 0.998703
0.998902 1 1 0.998902
0.998803 1 1.00037 0.998437
1.0003 1 1.00201 0.998293
0.998788 1 1.00027 0.998518
0.998747 1 1 0.998747
1.00247 1 1.00424 0.998237
0.998784 1 1 0.998784
0.998484 1 1.00015 0.998338
0.999156 1 1.00044 0.998718
0.999138 1 1.00098 0.998164
1.00369 1 1.00552 0.998179
1.00441 1 1.00608 0.998342
1.0031 1 1.00493 0.998181
0.999015 1 1.00079 0.998232
0.998713 1 1 0.998713
0.999164 1 1.00083 0.998331
0.999491 1 1.00112 0.998369
0.999372 1 1.00082 0.99855
0.999697 1 1.00123 0.998466
0.998881 1 1.00004 0.998836
0.999101 1 1.00039 0.99871
0.999532 1 1 0.999532
0.999538 1 1 0.999538
1 1 1 1
0.999553 1 1 0.999553
1 1 1 1
1 1 1 1
1 1 1 1
1 1 1 1
1 1 1 1
0.999902 1 1 0.999902
0.99986 1 1 0.99986
1 1 1 1
0.999833 1 1 0.999833
1 1 1 1
1 1 1 1
1 1 1 1
1 1 1 1
1 1 1 1
1.06242 1.08679 0.98022 0.997299
1.05679 1.07845 0.982663 0.997199
1.06416 1.0894 0.979366 0.997414
0.967783 1.01584 0.957295 0.995195
1.0687 1.09794 0.975928 0.997372
1.0304 1.05715 0.976498 0.998157
1.05001 1.07129 0.982582 0.997504
0.921941 0.97853 0.956365 0.985156
0.988321 1.01935 0.973393 0.99606
0.999363 1 1 0.999363
0.999329 1 1 0.999329
0.998855 1 1 0.998855
0.998964 1 1 0.998964
1.05904 1.09274 0.971812 0.997273
1.03314 1.07322 0.965269 0.997295
1.02494 1.05339 0.975487 0.997449
1.00056 1.00111 1.00306 0.996396
1.01599 1.01556 1.00477 0.995674
1.00837 1.02194 0.989683 0.997009
1.01917 1 1.02206 0.997169
1.03426 1.00069 1.03671 0.996949
1.00426 1.00037 1.00666 0.997243
0.99931 1 1.00008 0.999231
1.00518 1 1.00746 0.99773
0.998976 1 1.00052 0.998456
0.999272 1 1 0.999272
0.998747 1.00047 0.999441 0.998841
1.03789 1.08104 0.962597 0.99739
0.998776 1 1 0.998776
0.998695 1.00023 0.999721 0.998742
0.999424 0.999748 1.00086 0.99882
1.01047 1.0637 0.952384 0.997447
1.01701 1.03545 0.984963 0.997189
1.00267 1.00075 1.00488 0.997047
0.995426 1.01034 0.988332 0.996867
1.00574 1 1.0077 0.998048
1.00908 1 1.01155 0.997564
1.03787 1.00197 1.03854 0.997398
1.03954 1.00027 1.0422 0.997179
0.995342 1.04968 0.950532 0.997581
0.996028 1.03882 0.961252 0.997452
1.00675 1.01416 0.995828 0.996849
0.979658 1.00095 0.980852 0.997834
1.00149 1 1.00298 0.998513
1.00225 1 1.00393 0.998327
1.0157 0.999516 1.01803 0.998198
1.06151 1.00043 1.06379 0.997429
0.886418 0.967968 0.944675 0.969383
1.00703 1 1.00903 0.99801
0.999331 1.00091 1.00139 0.997039
1.01327 1.05328 0.964021 0.997921
1.01493 1.03106 0.987098 0.997224
1.00399 1.00502 1.0033 0.995701
1.00355 1.00314 1.00447 0.995958
0.969684 1.00426 0.970565 0.994851
1.00505 0.999604 1.00758 0.997892
0.997846 1.02582 0.974871 0.997802
1.0005 1.00148 1.00218 0.996862
1.00466 1.0023 1.00611 0.996269
0.995343 1.0073 0.991253 0.996849
0.9034 0.981213 0.949724 0.969436
0.894136 0.961651 0.945791 0.983084
0.969612 0.983864 0.988231 0.99725
0.706932 0.823772 0.906813 0.946352
0.613298 0.77415 0.858457 0.922844
1.00205 0.999334 1.00469 0.998036
0.738054 0.842938 0.922473 0.949158
0.662462 0.791867 0.900841 0.928668
0.987192 1.00598 0.983446 0.997845
1.00824 1.00154 1.00929 0.99743
1.01399 1.00525 1.01146 0.997264
0.958214 0.97399 0.986187 0.997582
0.882671 0.953776 0.952946 0.971146
0.863878 0.933393 0.943228 0.981232
0.697405 0.819253 0.895968 0.950111
0.682122 0.839448 0.878055 0.925436
1.00203 0.997839 1.00543 0.998773
1.00127 0.999168 1.00343 0.998676
1.00752 1 1.00869 0.998837
0.99882 1 1 0.99882
0.998359 1 1 0.998359
1.00311 1 1.00491 0.998216
0.999927 1 1.00171 0.998216
0.998667 1 1 0.998667
0.998714 1 1 0.998714
1.00408 1 1.00593 0.998162
1.00343 1 1.00525 0.998184
0.998565 1 1.00029 0.998274
1.00491 1 1.00655 0.998377
1.00608 1 1.00781 0.998287
1.01678 1 1.0183 0.998506
1.00172 1 1.00363 0.998092
0.999046 1 1.00075 0.998298
0.998771 1 1.00045 0.998326
0.999996 1 1.00161 0.998387
1.00029 1 1.00212 0.998173
0.999383 1 1.00095 0.998438
1.00278 1 1.00433 0.998456
1.00699 1 1.00879 0.998218
0.999968 1 1.00145 0.998516
0.999096 1 1.00054 0.998552
0.998882 1 1.00001 0.998874
0.999453 1 1.00103 0.998427
0.998813 1 1.00001 0.998806
0.999516 1 1 0.999516
0.999197 1 1.00049 0.998707
0.999534 1 1 0.999534
0.999998 1 1 0.999998
0.999538 1 1 0.999538
1 1 1 1
1 1 1 1
1 1 1 1
1 1 1 1
1 1 1 1
0.999312 1 1 0.999312
0.999912 1 1 0.999912
0.999898 1 1 0.999898
1 1 1 1
0.999856 1 1 0.999856
1 1 1 1
1 1 1 1
1 1 1 1
1 1 1 1
1 1 1 1
0.969863 1.01551 0.959577 0.995281
1.06683 1.09562 0.97629 0.997371
1.03898 1.06071 0.981446 0.998023
0.913557 0.97339 0.95154 0.986329
0.988183 1.01945 0.972979 0.996254
1.04804 1.07501 0.977398 0.997458
0.99706 1.029 0.972371 0.99649
0.928978 0.975191 0.964353 0.987825
0.90588 0.976704 0.955394 0.970789
0.711059 0.827148 0.904759 0.950144
0.588559 0.738774 0.859491 0.926909
0.998911 1 1 0.998911
0.999361 1 1 0.999361
0.999323 1 1 0.999323
0.998854 1 1 0.998854
0.998689 1 1.00005 0.998643
0.998635 1 1 0.998635
0.998816 1 1 0.998816
0.99892 1 1 0.99892
1.03552 1.08194 0.959588 0.997404
1.01698 1.06798 0.954701 0.997437
1.01626 1.0352 0.984465 0.997188
1.00294 1.00189 1.00403 0.99703
0.998262 1.00968 0.991719 0.996944
1.04555 1.00198 1.04623 0.997375
1.04067 1.00104 1.04262 0.997087
1.00954 1 1.01214 0.997432
0.99829 1.00039 0.999088 0.998811
1.00585 1 1.0079 0.997969
0.998809 1 1 0.998809
0.998778 0.999776 1 0.999002
0.993898 1.05054 0.948349 0.997607
1.0011 0.999933 1.00266 0.998515
1.00318 1 1.00479 0.998394
0.993404 1.03684 0.960579 0.997425
1.00377 1.01476 0.992144 0.996999
0.982975 1.0013 0.983964 0.997701
1.02559 0.99991 1.0278 0.997941
1.05743 1.00183 1.05818 0.997468
0.97469 1.02857 0.949982 0.997512
0.989071 1.01205 0.979804 0.997437
0.974362 1.00166 0.975185 0.997501
0.983426 1.00088 0.984523 0.998009
1.00583 1 1.0078 0.998044
1.01355 1 1.01542 0.998155
1.0535 1 1.05584 0.997783
0.746025 0.852473 0.919847 0.951387
0.903793 0.976047 0.950599 0.974094
1.00268 0.999212 1.00553 0.997949
1.00016 1.00132 1.00197 0.996878
0.997561 1.02704 0.973459 0.997784
0.998445 1.00876 0.992911 0.99684
1.00521 1.00323 1.00571 0.996279
0.902352 0.974156 0.953778 0.971182
0.898457 0.969661 0.941925 0.983697
0.971513 0.982948 0.991059 0.997283
0.71529 0.825828 0.910799 0.950976
0.600887 0.765551 0.855318 0.91768
1.00163 0.999543 1.00406 0.998038
0.741658 0.851333 0.916984 0.950041
0.645322 0.776109 0.898206 0.925716
0.987271 1.00703 0.982505 0.997839
1.00817 1.00209 1.00864 0.997444
1.01221 1.0035 1.0113 0.997414
0.951602 0.967941 0.985303 0.997784
0.894322 0.966343 0.955867 0.9682
0.85957 0.929084 0.940426 0.983789
0.70495 0.818712 0.908193 0.94809
0.682233 0.846675 0.871701 0.924376
1.0038 0.999916 1.00531 0.998585
0.691121 0.804233 0.924866 0.929166
0.76156 0.879628 0.924008 0.936978
0.985999 0.993312 0.993977 0.998652
1.01541 1.00261 1.01422 0.998572
0.960721 0.959778 1.00371 0.997285
0.874235 0.919807 0.964789 0.985142
0.842236 0.915735 0.951654 0.966463
0.710619 0.812335 0.921673 0.949127
0.737203 0.895476 0.886152 0.92902
1.00201 0.998933 1.00444 0.99865
1.00598 1 1.0072 0.998793
1.00783 0.9991 1.00967 0.999074
0.998715 1 1 0.998715
0.998317 1 1 0.998317
1.0042 1 1.00603 0.998187
1.0048 1 1.00667 0.998144
1.00503 0.999972 1.00666 0.998412
0.998898 1 1.0006 0.998295
1.00475 1 1.00651 0.998253
1.00173 1 1.00364 0.998095
1.0159 0.999709 1.01765 0.998568
1.03512 0.998371 1.03775 0.999094
1.00974 1 1.01146 0.998299
1.00096 1 1.00292 0.99805
0.998572 1 1.00025 0.998321
1.00051 1 1.00211 0.998404
1.00088 1 1.00272 0.998163
0.999829 1 1.00141 0.998424
1.00092 1 1.00236 0.998559
1.00393 1 1.00557 0.998368
1.00463 1 1.00632 0.998327
1.00332 0.999153 1.00559 0.998587
0.999606 1 1.00131 0.998298
0.999293 1.00072 1.00093 0.997642
1.00529 1 1.0072 0.998107
1.00587 1 1.00767 0.998219
1.00596 1 1.00759 0.998381
1.00104 1 1.00253 0.998514
0.999005 1 1.00015 0.998851
0.999144 1 1.00059 0.998554
0.999 1 1.00012 0.998877
0.999498 1 1 0.999498
0.998822 1 1.00005 0.998775
0.999519 1 1 0.999519
0.999991 1 1 0.999991
0.999535 1 1 0.999535
0.999997 1 1 0.999997
1 1 1 1
1 1 1 1
1 1 1 1
1 1 1 1
0.999314 1 1 0.999314
0.999884 1 1 0.999884
0.999314 1 1 0.999314
1 1 1 1
0.999912 1 1 0.999912
0.999894 1 1 0.999894
1 1 1 1
1 1 1 1
1 1 1 1
1 1 1 1
1 1 1 1
0.733756 0.842334 0.920781 0.946043
0.650609 0.785439 0.893359 0.927217
0.913088 0.974711 0.949222 0.98689
0.989843 1.01951 0.974353 0.996458
1.04802 1.07779 0.974897 0.997414
0.912624 0.958008 0.963023 0.989204
0.998073 1.02842 0.973736 0.996668
0.918273 0.988861 0.955681 0.971681
0.705764 0.827969 0.900799 0.946275
0.593627 0.75248 0.855739 0.921886
0.941393 0.995796 0.953037 0.991953
0.901067 0.966522 0.959465 0.971664
0.699616 0.822167 0.896283 0.949411
0.67156 0.833371 0.871228 0.924942
1.00042 1 1.00196 0.998463
0.99895 1 1 0.99895
0.999359 1 1 0.999359
0.998854 1 1 0.998854
0.998822 1 1.00011 0.998713
0.999473 1 1.00109 0.998388
0.99861 1 1 0.99861
0.998518 1 1.00006 0.998457
0.998771 1 1 0.998771
0.998876 1 1 0.998876
0.992405 1.05037 0.947054 0.997632
0.990065 1.03409 0.959924 0.997402
1.00259 1.01599 0.989625 0.99715
0.984762 1.0017 0.985486 0.997567
1.04912 1.00326 1.04832 0.997507
1.03602 1.00027 1.03814 0.997687
1.00264 1 1.00418 0.998462
1.00064 0.999698 1.00244 0.998515
0.974754 1.0289 0.949655 0.9976
1.00698 1 1.009 0.998
1.01337 1 1.01529 0.998106
0.984473 1.01022 0.977079 0.997379
0.972485 1.00155 0.973312 0.997603
0.982151 1.00153 0.982667 0.997949
1.04637 0.999881 1.04888 0.997726
0.9718 1.00342 0.970638 0.997783
0.964913 0.998722 0.96778 0.998313
1.01297 1.00015 1.01467 0.998173
1.00916 1 1.01125 0.997937
1.01137 1 1.01353 0.997865
1.02882 1 1.03099 0.997894
0.719274 0.820103 0.934127 0.938902
0.750777 0.851108 0.926869 0.951718
0.89223 0.972698 0.946105 0.969526
1.00095 0.999138 1.00378 0.998038
1.008 1.00223 1.00832 0.997456
0.989638 1.00814 0.983775 0.997834
1.0108 1.0022 1.01104 0.997561
0.740338 0.846584 0.91838 0.952221
0.888624 0.962696 0.952149 0.969446
0.858083 0.926061 0.944214 0.98134
0.949609 0.964093 0.986973 0.997977
0.700872 0.821901 0.90295 0.944401
0.643068 0.774728 0.895452 0.926969
0.679126 0.841795 0.869329 0.928024
1.0039 0.999636 1.00571 0.998565
0.693158 0.805628 0.922563 0.932614
0.774664 0.892161 0.927006 0.936671
0.98536 0.991236 0.995317 0.998749
1.01592 1.00189 1.0155 0.998524
0.957923 0.957854 1.00223 0.997847
0.865292 0.9245 0.952449 0.982684
0.869903 0.929334 0.964856 0.970145
0.725014 0.83002 0.923895 0.945443
0.727941 0.886307 0.881315 0.931925
1.00755 0.998517 1.00962 0.999431
0.795428 0.899074 0.93725 0.943952
0.766824 0.892688 0.91298 0.940881
0.98224 0.966998 1.01605 0.999715
0.902078 0.922226 0.988276 0.989757
0.871591 0.912303 0.986337 0.968608
0.786138 0.8807 0.946706 0.942878
0.771565 0.929163 0.890919 0.932057
1.00562 1 1.00688 0.998748
1.00882 0.998615 1.01117 0.999063
1.02422 0.993399 1.0317 0.999354
0.999093 1 1.0008 0.998293
1.00175 1 1.00366 0.998098
1.00292 1 1.00471 0.99822
1.01534 0.999466 1.01728 0.99863
1.00158 1 1.00354 0.99805
1.0091 1 1.01083 0.998289
1.04037 0.999421 1.04184 0.999173
1.04487 0.995047 1.05065 0.999446
1.03907 0.998966 1.04112 0.999068
1.00344 1 1.00523 0.998215
1.00113 1 1.00298 0.998153
1.00003 1 1.00162 0.998409
0.999227 1 1.00057 0.998659
1.00425 1 1.00591 0.998348
1.00283 1 1.00447 0.998369
1.00498 0.999674 1.0067 0.99861
1.00358 0.999919 1.00527 0.998401
1.01031 0.998313 1.01307 0.998962
0.996564 1.00078 0.997345 0.998436
1.00017 1.0007 1.00116 0.99831
0.998591 1.00002 1.00069 0.99788
1.00313 1.0049 1.00153 0.996712
1.00318 1.00051 1.00469 0.997985
0.999065 1.00035 1.00079 0.997929
1.00525 1 1.00715 0.998114
1.01011 1 1.01193 0.998202
1.00435 1 1.00614 0.998221
1.00534 1 1.00697 0.998381
0.999649 1 1.00092 0.998732
1.00167 1 1.00316 0.998512
0.998848 1 1 0.998848
0.999473 1 1 0.999473
0.998887 1 1.00001 0.99888
0.999499 1 1 0.999499
0.999979 1 1 0.999979
0.999522 1 1 0.999522
0.999988 1 1 0.999988
1 1 1 1
0.999996 1 1 0.999996
1 1 1 1
1 1 1 1
0.999048 1 1 0.999048
0.999834 1 1 0.999834
0.999235 1 1 0.999235
1 1 1 1
0.999889 1 1 0.999889
0.999315 1 1 0.999315
1 1 1 1
1 1 1 1
0.999913 1 1 0.999913
1 1 1 1
1 1 1 1
1 1 1 1
0.682579 0.800717 0.9144 0.93226
0.740985 0.849315 0.919625 0.948701
0.767538 0.890143 0.921134 0.93609
0.647345 0.783609 0.892352 0.925764
0.912643 0.967061 0.956537 0.98661
0.996945 1.02842 0.972452 0.996856
0.921179 0.986125 0.960755 0.972297
0.718366 0.83083 0.90991 0.950244
0.601612 0.769268 0.853056 0.916773
0.941842 0.99003 0.959951 0.991016
0.892013 0.964613 0.956855 0.966434
0.713603 0.829912 0.907541 0.947455
0.667861 0.832848 0.869599 0.92215
0.911809 0.972334 0.949047 0.988099
0.855427 0.916718 0.966267 0.965717
0.740968 0.854583 0.919531 0.942928
0.73249 0.892553 0.886108 0.926149
1.00228 1 1.00415 0.998138
0.999582 1 1.00107 0.998513
0.998988 1 1 0.998988
0.998783 1 1 0.998783
0.998411 1 1.00041 0.998005
0.998789 1 1.00035 0.998439
0.998585 1 1 0.998585
0.998427 1 1 0.998427
0.998508 1 1.00001 0.998498
0.998727 1 1 0.998727
0.97541 1.02997 0.949226 0.997687
0.981907 1.0088 0.975955 0.997323
0.968493 1.00129 0.969473 0.997704
0.984309 1.00261 0.983819 0.997891
1.03832 1 1.04075 0.997667
1.01329 1 1.01526 0.998058
1.00754 1 1.0096 0.997956
1.00862 1 1.01076 0.997888
0.970113 1.00366 0.968689 0.997818
1.01028 1 1.01247 0.997844
1.02883 1 1.03102 0.997872
0.964296 0.999245 0.966656 0.998312
1.00849 1.00154 1.00882 0.99813
0.950061 0.979585 0.971655 0.998153
0.974882 0.98153 0.99399 0.999233
1.04142 0.999554 1.04357 0.998383
1.00487 1 1.007 0.997889
1.02152 1 1.02355 0.998018
0.807274 0.9078 0.938028 0.948015
0.71829 0.818874 0.935185 0.937961
0.740838 0.846419 0.923136 0.948139
1.00339 0.99956 1.00529 0.998546
1.01652 1.00081 1.01725 0.998475
0.981458 0.988983 0.993535 0.998849
0.693022 0.805514 0.921841 0.933292
0.856769 0.919648 0.964322 0.966094
0.870504 0.922039 0.959258 0.984205
0.948259 0.952484 0.997147 0.998414
0.730771 0.838179 0.918174 0.949553
0.782221 0.89823 0.929889 0.936506
0.731401 0.887871 0.88369 0.932193
1.00584 0.998526 1.00796 0.999377
0.793538 0.898801 0.933626 0.945651
0.766198 0.891681 0.91314 0.941009
0.984055 0.970588 1.01435 0.999536
0.915246 0.933383 0.990891 0.989582
0.84088 0.904384 0.963949 0.964555
0.769834 0.927683 0.890009 0.932402
0.801679 0.887131 0.956557 0.944718
0.999453 0.974602 1.0258 0.999711
0.778938 0.886417 0.923531 0.95151
0.797354 0.920551 0.918239 0.943296
0.73087 0.890848 0.885605 0.926395
0.9526 0.942219 1.01374 0.99731
0.905654 0.930418 1.0035 0.969989
0.852895 0.931821 0.966366 0.947156
1.01022 0.998083 1.01312 0.999051
1.02421 0.994465 1.03066 0.99927
1.02612 0.983357 1.04394 0.999566
1.00168 1 1.00364 0.99805
1.0075 1 1.00924 0.998278
1.04474 0.999453 1.04609 0.999251
1.00384 1 1.00563 0.99822
1.03895 0.99905 1.0409 0.999079
1.04714 0.995024 1.05299 0.999421
1.03755 0.989959 1.04861 0.999489
1.02432 0.997988 1.02735 0.999058
1.00348 1 1.00512 0.998372
1.00208 1 1.00371 0.998369
1.00646 1 1.00783 0.998636
1.0096 0.998857 1.01183 0.998933
1.00323 0.999957 1.00488 0.998403
1.00331 0.999931 1.00455 0.998832
0.997572 1.00025 0.99859 0.998733
1.00295 1.00042 1.00515 0.997397
1.00066 1.00143 1.00091 0.998328
0.999596 1.00123 1.00059 0.997778
0.999634 1.00197 1.00126 0.996415
1.01505 1.0175 1.00129 0.99631
1.00364 1.00328 1.00276 0.997603
1.00146 1.00331 1.00138 0.996775
1.01013 1 1.01218 0.997973
1.00449 1.00112 1.00539 0.997991
0.998858 1 1.00065 0.998214
1.00554 1 1.00743 0.998121
1.00915 1 1.01093 0.998237
1.00277 1 1.0042 0.998574
1.00493 1 1.00656 0.99838
0.999789 1 1.00106 0.998732
0.999395 1 1 0.999395
0.998844 1 1 0.998844
0.999469 1 1 0.999469
0.999969 1 1 0.999969
0.9995 1 1 0.9995
0.999976 1 1 0.999976
1 1 1 1
0.999984 1 1 0.999984
1 1 1 1
1 1 1 1
0.998776 1 1 0.998776
0.999621 1 1 0.999621
0.999046 1 1 0.999046
1 1 1 1
0.999779 1 1 0.999779
0.999156 1 1 0.999156
1 1 1 1
1 1 1 1
0.999894 1 1 0.999894
1 1 1 1
1 1 1 1
1 1 1 1
0.795193 0.906323 0.929103 0.944335
0.68455 0.801075 0.913617 0.935336
0.734445 0.844333 0.917488 0.94808
0.998308 1 1 0.998308
0.773289 0.890849 0.919756 0.943767
0.766528 0.889842 0.92039 0.93593
0.655039 0.793713 0.888529 0.928822
0.951003 0.993532 0.967005 0.989854
0.884655 0.953325 0.955729 0.970953
0.716065 0.843325 0.899863 0.943586
0.661025 0.818253 0.874086 0.924221
0.908545 0.967305 0.953569 0.984988
0.866143 0.924537 0.966066 0.969747
0.741733 0.846252 0.92895 0.943529
0.729428 0.888335 0.885675 0.92711
0.859261 0.920668 0.950844 0.98155
0.851802 0.902594 0.976125 0.966809
0.814221 0.896962 0.960234 0.945347
0.772626 0.928025 0.89328 0.932012
1.00127 1 1.00335 0.99793
1.00348 1 1.0054 0.998094
0.999059 1 1.0005 0.998562
0.998204 1 1.00009 0.998117
0.998709 1 1.00063 0.998081
0.99849 1 1 0.99849
0.998431 1 1 0.998431
0.998563 1 1.00003 0.998538
0.968132 1.00428 0.966092 0.997843
0.963867 1.00076 0.964758 0.998318
1.00849 1 1.01068 0.997839
1.0033 1.00274 1.00247 0.998086
1.03024 1 1.03246 0.99785
1.01003 1 1.01224 0.997824
1.00565 1 1.00777 0.9979
0.952961 0.979005 0.975075 0.998281
1.01953 1 1.02154 0.998036
1.03095 1.00021 1.03236 0.998425
0.97321 0.984065 0.989679 0.999283
1.00729 1 1.00923 0.998081
0.940025 0.958039 0.983306 0.997855
1.00137 0.980625 1.02169 0.999476
1.05562 0.997094 1.06025 0.998536
1.02232 0.999556 1.0246 0.998219
0.787172 0.888136 0.928293 0.954785
0.807001 0.908102 0.937668 0.947742
0.718809 0.817251 0.938682 0.937
1.00374 0.998648 1.00578 0.999325
0.98698 0.973698 1.01429 0.99936
0.794501 0.901182 0.930667 0.9473
0.865684 0.903059 0.988778 0.969493
0.904161 0.931813 0.984035 0.986067
0.797505 0.88316 0.957451 0.943144
0.767246 0.892923 0.913027 0.941103
0.769849 0.92784 0.889544 0.93275
1.00433 0.98233 1.02273 0.999669
0.780546 0.888027 0.923786 0.951483
0.79786 0.91851 0.918708 0.945508
0.963261 0.949022 1.01575 0.999268
0.727388 0.886531 0.884861 0.927251
0.879499 0.912522 0.996426 0.967268
0.855609 0.934588 0.967024 0.946712
0.996198 0.9685 1.02888 0.999728
0.807991 0.912168 0.928151 0.954361
0.770431 0.886793 0.920215 0.944109
0.668511 0.831273 0.869273 0.925143
0.812587 0.896101 0.959827 0.944757
0.943311 0.943394 1.00609 0.993858
0.91389 0.92905 1.02135 0.963122
1.02238 0.996054 1.02727 0.999188
1.02716 0.982418 1.04603 0.999534
1.01565 0.97024 1.04725 0.999582
1.00509 1 1.00688 0.998226
1.04238 0.999098 1.04427 0.999091
1.05263 0.99594 1.05756 0.999396
1.01987 0.998289 1.02259 0.999045
1.03631 0.991784 1.04543 0.999488
1.00961 0.987138 1.02355 0.999235
1.00952 0.999549 1.01108 0.998903
1.00311 1 1.00471 0.998407
1.00663 0.999967 1.00786 0.99881
1.0119 0.999255 1.01458 0.998099
0.998742 0.999714 1 0.999028
0.999929 1.00027 1.00206 0.997608
1.00357 1.00137 1.00624 0.995987
1.0052 1.00748 1.0021 0.995646
1.00053 1.00246 1.0004 0.997672
1.0002 1.00261 1.00139 0.996212
1.01645 1.0196 1.00053 0.996391
1.01019 1.0106 1.00261 0.99699
1.01389 1.01627 1.00125 0.996411
1.00779 1.00041 1.00962 0.997778
1.00632 1.0054 1.00335 0.997571
0.999422 1.00131 1.00128 0.99684
1.0084 1 1.01006 0.998364
1.00948 1 1.0115 0.997997
1.00583 1.00171 1.00613 0.997997
1.00813 1 1.00988 0.998272
1.00292 1 1.00435 0.998575
0.999731 1 1.00048 0.999249
0.999942 1 1.00121 0.998733
0.999427 1 1.00004 0.99939
0.99996 1 1 0.99996
0.999467 1 1 0.999467
0.999968 1 1 0.999968
1 1 1 1
0.999973 1 1 0.999973
1 1 1 1
1 1 1 1
0.998686 1 1 0.998686
0.999452 1 1 0.999452
0.998826 1 1 0.998826
1 1 1 1
0.999603 1 1 0.999603
0.999043 1 1 0.999043
1 1 1 1
1 1 1 1
0.999725 1 1 0.999725
1 1 1 1
1 1 1 1
1 1 1 1
0.785875 0.88981 0.926689 0.953065
0.797339 0.905545 0.932411 0.944335
0.685531 0.800558 0.915359 0.935497
0.998348 1 1 0.998348
0.998407 1 1.00014 0.998267
0.998248 1 1 0.998248
0.797864 0.922697 0.916991 0.942985
0.769931 0.890352 0.916156 0.943888
0.764962 0.88925 0.91926 0.935788
0.915073 0.974104 0.951727 0.987047
0.840177 0.913384 0.952615 0.965606
0.738595 0.833153 0.934009 0.949141
0.738164 0.896386 0.88995 0.92532
0.862873 0.926118 0.946435 0.984441
0.86479 0.910383 0.982374 0.966963
0.797076 0.87852 0.958956 0.946127
0.770334 0.928069 0.890342 0.932271
0.869882 0.918804 0.964107 0.982002
0.883968 0.916298 0.996368 0.968233
0.852806 0.929262 0.968554 0.947519
0.741633 0.899019 0.887913 0.929073
0.998702 1 1.00064 0.99806
1.0017 1 1.00382 0.997894
1.00327 1 1.00523 0.998049
0.998116 1 1.00001 0.998105
0.998495 1 1.00034 0.998157
0.998435 1 1 0.998435
0.952829 0.97474 0.979088 0.998399
0.970429 0.983522 0.987366 0.999313
1.00617 1 1.00828 0.99791
1.02269 1.00046 1.02379 0.998466
1.01998 1 1.02197 0.998053
1.00942 1 1.01135 0.998091
1.01889 0.997708 1.02301 0.998255
0.947451 0.957954 0.991067 0.99795
1.05237 0.995852 1.05815 0.998678
1.00507 0.9759 1.03057 0.999338
1.01244 0.996553 1.01756 0.998418
0.971569 0.954935 1.01986 0.99761
1.01162 0.974507 1.0388 0.999306
1.03641 0.982261 1.0564 0.998792
0.821684 0.91872 0.934765 0.956796
0.789892 0.889273 0.929845 0.955261
0.806329 0.908287 0.936964 0.947472
1.0099 0.989778 1.02071 0.999627
0.952475 0.946606 1.00838 0.99784
0.78163 0.888758 0.924334 0.951456
0.876012 0.900536 1.0014 0.971412
0.851502 0.933744 0.966135 0.943887
0.798569 0.917206 0.918687 0.947715
0.738439 0.895319 0.891078 0.925596
0.991643 0.965026 1.02782 0.999771
0.808326 0.91093 0.928977 0.955205
0.772346 0.890826 0.9182 0.944239
0.938679 0.93903 1.0099 0.989828
0.665289 0.830197 0.868686 0.9225
0.793046 0.876605 0.957126 0.945204
0.921925 0.935401 1.01743 0.968712
1.00345 0.955192 1.05198 0.998611
0.786656 0.888358 0.928939 0.953257
0.777208 0.896959 0.925176 0.93657
0.588726 0.736908 0.861274 0.927595
0.730149 0.844523 0.917038 0.942784
0.887278 0.914447 1.00293 0.967453
0.916128 0.93328 0.994775 0.986777
1.02565 0.98189 1.04509 0.999501
1.02103 0.978127 1.0443 0.999586
1.00939 0.980478 1.03001 0.999497
1.01391 0.998673 1.01624 0.999032
1.03212 0.993127 1.0398 0.999487
1.01313 0.983889 1.03042 0.999319
1.00626 0.997822 1.00968 0.998783
1.00992 1 1.01114 0.998786
1.00932 0.999663 1.01181 0.997878
1.02196 1.00091 1.02483 0.996292
0.996817 1.00005 0.99894 0.997823
1.00471 1.00151 1.00722 0.996014
1.00506 1.00252 1.00745 0.995114
1.00772 1.0106 1.00191 0.995244
1.00911 1.01206 1.00108 0.996015
1.00521 1.00735 1.0023 0.995591
1.00046 1.00316 1.0013 0.99601
1.01019 1.01241 1.0011 0.996715
1.01719 1.0203 1.00048 0.996479
1.00375 1.00179 1.00464 0.997327
1.0123 1.01251 1.00274 0.997068
1.0135 1.01585 1.00117 0.996513
1.01081 1 1.01279 0.998046
1.00778 1.0011 1.00892 0.997773
1.00909 1.00772 1.00383 0.997538
1.00139 1 1.00232 0.999068
1.0073 1 1.00895 0.998363
1.0087 1 1.0107 0.998021
1.0028 1 1.00424 0.998575
1.00007 1 1.00083 0.999244
0.999933 1 1 0.999933
0.999517 1 1.00013 0.999385
0.999955 1 1 0.999955
1 1 1 1
0.999966 1 1 0.999966
1 1 1 1
1 1 1 1
0.998638 1 1 0.998638
0.999423 1 1 0.999423
0.998715 1 1 0.998715
0.999995 1 1 0.999995
0.999497 1 1 0.999497
0.998876 1 1 0.998876
1 1 1 1
1 1 1 1
0.999585 1 1 0.999585
1 1 1 1
1 1 1 1
1 1 1 1
0.806697 0.911718 0.927385 0.954091
0.789353 0.890793 0.92978 0.953046
0.799294 0.904342 0.935901 0.944373
1.00409 1 1.00596 0.998139
1.00196 1 1.00394 0.998027
0.998388 1 1 0.998388
0.998819 1 1.00057 0.998251
0.998249 1 1 0.998249
0.999726 1 1.0015 0.998225
0.998262 1 1 0.998262
0.76969 0.897239 0.911916 0.940704
0.800958 0.921169 0.919884 0.945229
0.77002 0.888405 0.918147 0.944015
0.76916 0.928325 0.888476 0.932547
0.862094 0.926558 0.94758 0.981897
0.864814 0.906206 0.98691 0.966982
0.806525 0.892083 0.953382 0.9483
0.856331 0.919623 0.949204 0.981007
0.885443 0.910137 1.00919 0.96401
0.853525 0.931998 0.966617 0.947429
0.729939 0.888601 0.881413 0.931967
0.894631 0.928075 0.97975 0.983888
0.899684 0.920159 1.01454 0.963735
0.790119 0.883486 0.948055 0.943321
0.683721 0.842529 0.877076 0.925246
1.02255 1 1.0242 0.998389
1.00029 1 1.00221 0.998086
1.00271 1 1.00486 0.997858
0.998093 1 1 0.998093
0.957255 0.959869 0.999196 0.998079
1.0068 0.97376 1.03477 0.999193
1.00881 1 1.01073 0.998101
1.01481 0.997251 1.01935 0.99829
1.04274 0.991896 1.0525 0.998821
1.01194 0.998778 1.01478 0.99842
1.03855 0.98203 1.05884 0.998779
0.97064 0.954463 1.0209 0.996132
1.01012 0.965427 1.04686 0.999461
1.01235 0.984588 1.02932 0.998906
0.954127 0.927875 1.03287 0.995565
1.00686 0.958432 1.05128 0.99929
0.788906 0.887717 0.930622 0.954944
0.819428 0.917213 0.932318 0.958244
0.792989 0.890358 0.931893 0.955731
0.987339 0.960047 1.02863 0.999805
0.944624 0.943101 1.00741 0.994248
0.806655 0.90892 0.928275 0.95606
0.922834 0.939565 1.01899 0.963885
0.797569 0.884923 0.95125 0.947476
0.775189 0.893321 0.918892 0.944356
0.659953 0.816036 0.874754 0.924523
1.00442 0.957742 1.04998 0.998815
0.788981 0.892278 0.927604 0.953244
0.770613 0.891345 0.923253 0.936419
0.918312 0.93356 0.994217 0.989389
0.594531 0.752049 0.856836 0.922637
0.730794 0.837047 0.925764 0.943072
0.884896 0.911501 1.00669 0.964365
0.993481 0.962613 1.03531 0.99687
0.797344 0.909086 0.928489 0.944636
0.650331 0.783229 0.894794 0.927946
0.702503 0.824853 0.896431 0.950068
0.842778 0.888197 0.980079 0.96815
0.875331 0.909631 0.979286 0.982647
1.02849 0.982693 1.04703 0.99959
1.01241 0.978359 1.03532 0.999501
0.980876 0.975774 1.00595 0.999282
1.01799 0.981443 1.03786 0.999402
1.00387 0.990073 1.01507 0.998883
1.00255 1.0008 1.00406 0.9977
1.00687 1.00003 1.00921 0.997657
1.02004 1.00087 1.02308 0.99616
1.01046 1.00079 1.01445 0.995276
1.00636 1.00186 1.00848 0.996041
1.00588 1.00234 1.00855 0.995022
1.00177 1.00248 1.00448 0.99484
1.0284 1.0331 1 0.995455
1.01715 1.02091 1.00077 0.995558
1.00812 1.0108 1.00218 0.995186
1.00857 1.01217 1.00013 0.996319
1.00787 1.01108 1.00074 0.996079
1.00536 1.00716 1.00269 0.995535
1.00788 1.01001 1.00112 0.996787
1.00963 1.01189 1.00108 0.996687
1.0176 1.02067 1.00043 0.996567
1.0063 1.00077 1.00791 0.997634
1.00471 1.00268 1.00463 0.997407
1.01399 1.01398 1.00288 0.997147
1.00617 1 1.0074 0.998776
1.0096 1 1.01157 0.998053
1.00781 1.00184 1.00822 0.997769
0.999882 1 1 0.999882
1.00215 1 1.00309 0.999062
1.00646 1 1.00811 0.998361
1.00046 1 1.00122 0.99924
0.999923 1 1 0.999923
1 1 1 1
0.999949 1 1 0.999949
1 1 1 1
1 1 1 1
1.00623 1 1.00811 0.998136
1.00064 1 1.00218 0.998465
0.999279 1 1 0.999279
0.998794 1 1.00016 0.998633
0.999977 1 1 0.999977
0.999425 1 1 0.999425
0.998744 1 1 0.998744
1 1 1 1
0.999997 1 1 0.999997
0.999542 1 1 0.999542
1 1 1 1
1 1 1 1
1 1 1 1
0.779648 0.887178 0.923669 0.951418
0.803908 0.908587 0.926525 0.954954
0.790104 0.893675 0.927687 0.953022
1.00532 1 1.00719 0.998151
1.00416 1 1.00613 0.998036
1.00045 1 1.00243 0.998021
1.00666 1 1.00863 0.998045
1.00774 1 1.00975 0.998008
0.999975 1 1.00174 0.998235
0.998249 1 1 0.998249
0.999416 1 1.00119 0.998228
0.998272 1 1 0.998272
1.01412 1 1.01582 0.998333
0.762364 0.882051 0.922717 0.9367
0.769189 0.895 0.91344 0.94087
0.802234 0.920634 0.919714 0.947461
0.731671 0.890019 0.881838 0.932241
0.8524 0.932106 0.968414 0.944316
0.851515 0.915533 0.949506 0.979537
0.892245 0.915663 1.00686 0.967787
0.886383 0.929596 0.972429 0.980549
0.907279 0.930904 1.00692 0.967922
0.805128 0.887375 0.959422 0.945689
0.684534 0.850132 0.871347 0.924097
0.901776 0.919554 0.997587 0.983038
0.891232 0.910885 1.01015 0.968592
0.717441 0.816958 0.925576 0.948799
0.626825 0.783147 0.863304 0.927127
1.02171 0.999777 1.023 0.998962
1.02374 0.999888 1.02549 0.998403
1.0031 1 1.005 0.998113
0.970862 0.955382 1.02174 0.994586
1.01156 0.959033 1.05517 0.999622
1.01255 1 1.01415 0.998422
1.04327 0.981624 1.06411 0.998767
1.01504 0.988563 1.0279 0.998912
1.01301 0.96623 1.04917 0.999281
0.957676 0.935997 1.02778 0.995507
1.01515 0.990209 1.02586 0.999345
0.968365 0.9538 1.01911 0.996232
0.80704 0.90815 0.937844 0.947559
0.79361 0.890729 0.932548 0.955411
0.816719 0.915322 0.92974 0.959703
1.00549 0.964863 1.04316 0.998988
0.912939 0.929743 0.996941 0.984939
0.794036 0.896207 0.929475 0.953222
0.887355 0.916654 1.00307 0.965078
0.726122 0.821849 0.931417 0.948579
0.76256 0.885922 0.919308 0.936306
0.601155 0.767532 0.853587 0.917577
0.99074 0.961008 1.03391 0.997124
0.797341 0.905122 0.932568 0.944619
0.648028 0.782995 0.893262 0.926523
0.886965 0.920987 0.97852 0.9842
0.714751 0.831164 0.907128 0.947982
0.840889 0.898034 0.969774 0.965551
0.947736 0.946891 1.00565 0.995272
0.683734 0.8018 0.914164 0.932817
0.712088 0.827252 0.905335 0.950794
0.853604 0.918042 0.962714 0.96582
0.85328 0.909866 0.952 0.985092
1.01162 0.975743 1.03728 0.999506
0.983001 0.972053 1.01201 0.999257
0.993783 0.99029 1.00511 0.998425
1.00007 0.980302 1.02121 0.998979
1.00221 1.00065 1.00378 0.997792
0.998189 1.00238 0.999119 0.9967
1.01796 1.00071 1.02129 0.996026
1.00919 1.00114 1.01282 0.995277
0.99931 1.00237 1.00137 0.995587
1.00599 1.002 1.0091 0.994931
1.00206 1.00351 1.0037 0.994877
1.02522 1.02966 1 0.995689
1.0525 1.0566 1 0.996122
1.03904 1.04366 1.00002 0.995549
1.02865 1.03331 1 0.995486
1.02101 1.02526 1 0.995849
1.01585 1.01935 1.00107 0.995502
1.0091 1.01157 1.00244 0.995128
1.01397 1.01757 1 0.996468
1.00684 1.01046 1.00002 0.996393
1.00636 1.00993 1.00032 0.996143
1.003 1.00374 1.00208 0.997189
1.00594 1.00783 1.0013 0.996829
1.00942 1.0117 1.0011 0.996658
1.00946 1 1.01117 0.998306
1.0076 1.00143 1.00854 0.997636
1.00573 1.00345 1.0048 0.997487
1.00032 1 1.00052 0.9998
1.00594 1 1.00718 0.998769
1.00883 1 1.01079 0.99806
0.999986 1 1 0.999986
0.999879 1 1.00001 0.999867
1.00272 1 1.00367 0.999055
0.999912 1 1 0.999912
1 1 1 1
1 1 1 1
1.00649 1.00033 1.00817 0.998004
1.00429 1 1.00601 0.998293
1.00714 1 1.00905 0.998113
0.99976 1 1.00064 0.999123
1.00046 1 1.002 0.998462
0.999947 1 1 0.999947
0.999284 1 1 0.999284
0.998629 1 1 0.998629
1 1 1 1
0.999983 1 1 0.999983
0.999428 1 1 0.999428
1 1 1 1
0.999999 1 1 0.999999
1 1 1 1
0.792254 0.900231 0.928563 0.94776
0.783434 0.89018 0.925043 0.9514
0.804414 0.905194 0.929742 0.955819
0.999479 1.00109 1.00039 0.997998
1.00441 1 1.00626 0.998161
1.00299 1 1.00495 0.998046
1.00312 1 1.0051 0.998027
1.00045 1 1.00241 0.998047
1.00446 1 1.00633 0.99814
1.01259 1.00014 1.01489 0.997596
1.01714 1 1.01905 0.998119
0.999243 1 1.00101 0.998231
0.998281 1 1 0.998281
1.0151 1 1.01681 0.998316
1.0299 1.00025 1.03117 0.998527
0.662387 0.791161 0.902015 0.928181
0.774603 0.894058 0.925232 0.936403
0.770055 0.894662 0.91469 0.940998
0.681612 0.845616 0.868885 0.927687
0.803063 0.887091 0.958379 0.944591
0.902141 0.92324 1.01383 0.963818
0.886235 0.922752 0.978746 0.981282
0.901115 0.920282 0.994007 0.985076
0.614901 0.776001 0.859234 0.922214
0.88328 0.910999 1.00478 0.964957
0.73076 0.834165 0.927052 0.944972
0.901257 0.929245 0.983083 0.98657
0.869481 0.909259 0.985859 0.969969
0.702123 0.823588 0.898653 0.948662
0.992678 1 0.993143 0.999532
1.02111 1 1.02217 0.998968
1.02412 1 1.02574 0.998415
0.958071 0.938521 1.02541 0.995533
1.02002 0.974853 1.0471 0.999273
1.01706 0.993322 1.02501 0.998919
1.01409 0.990045 1.02496 0.999344
0.964814 0.952754 1.01644 0.996277
0.989642 0.983996 1.00823 0.99753
0.718875 0.818987 0.938441 0.935339
0.803804 0.907117 0.933191 0.949547
0.794708 0.892505 0.931542 0.95586
0.991997 0.960603 1.03549 0.99729
0.877154 0.91733 0.970682 0.985084
0.795439 0.901315 0.934233 0.944659
0.852126 0.892708 0.987808 0.966322
0.719621 0.846765 0.900023 0.944251
0.657528 0.794275 0.890612 0.929511
0.94778 0.942516 1.01029 0.99534
0.685935 0.801899 0.914039 0.935834
0.707682 0.828462 0.902072 0.946943
0.850382 0.911481 0.95051 0.981544
0.86676 0.928466 0.962583 0.969827
0.943384 0.95879 0.986146 0.997755
0.73168 0.839209 0.921225 0.946423
0.902702 0.968853 0.958937 0.971621
0.856191 0.923224 0.945089 0.981276
0.986852 0.970094 1.01805 0.999238
0.984979 0.99038 0.996031 0.99851
0.995212 1.00099 0.996744 0.997479
1.00232 1.00062 1.00383 0.997883
1.00095 1.00257 1.00172 0.996672
1.00094 1.0049 0.999428 0.996622
1.00813 1.00158 1.01131 0.995279
0.999205 1.00196 1.00167 0.995593
1.02795 1.0336 0.997944 0.996579
1.00237 1.00429 1.00319 0.994913
1.02379 1.02821 1 0.9957
1.05267 1.05736 0.998807 0.996754
1.05379 1.05769 0.999488 0.99683
1.05408 1.05827 1 0.996037
1.05317 1.05722 1 0.99617
1.04085 1.04527 1 0.995777
1.03717 1.04173 1 0.995615
1.02791 1.03254 1 0.995517
1.02936 1.03332 1 0.996167
1.02155 1.02564 1.00014 0.995874
1.01461 1.01775 1.00148 0.995446
1.00945 1.01268 1 0.996806
1.01305 1.01664 1 0.996465
1.00496 1.00852 1 0.996467
1.00365 1.00058 1.00523 0.997843
1.00533 1.00581 1.00234 0.997183
1.00351 1.0052 1.00145 0.996873
1.00185 1 1.00223 0.999621
1.00757 1.00026 1.00902 0.998303
1.00809 1.00214 1.00831 0.997638
1 1 1 1
1.00086 1 1.0011 0.999766
1.00536 1 1.00661 0.998761
1 1 1 1
1.00002 1 1.00016 0.999852
1 1 1 1
1.00106 1.00137 1.00185 0.997846
1.00538 1.00023 1.00717 0.997984
1.00733 1 1.00921 0.998136
1.00189 1 1.00293 0.998959
1.00528 1 1.007 0.99829
1.00898 1 1.01091 0.998092
0.999904 1 1 0.999904
0.99949 1 1.00036 0.999128
1.00062 1 1.00217 0.998459
1 1 1 1
0.999956 1 1 0.999956
0.999288 1 1 0.999288
1 1 1 1
0.999989 1 1 0.999989
1 1 1 1
0.691144 0.804413 0.923984 0.929876
0.794909 0.902833 0.928956 0.947797
0.787403 0.89345 0.926339 0.951386
1.00193 1.00048 1.00348 0.997973
1.00664 1.00362 1.00542 0.997597
1.01046 1.00064 1.01205 0.997791
1.00424 1 1.00624 0.998008
1.00068 1.00046 1.00215 0.998074
1.00521 1 1.00696 0.998269
1.01649 1 1.01846 0.998065
1.01269 1.00044 1.01459 0.997685
1.01694 1.00143 1.0179 0.99763
0.98333 1.00137 0.983001 0.998966
1.01389 1 1.01562 0.998298
1.02545 1.00009 1.0269 0.998506
0.709811 0.825383 0.910839 0.944159
0.644805 0.775129 0.899075 0.92525
0.782516 0.900768 0.92787 0.936253
0.603487 0.76826 0.856483 0.917152
0.736794 0.840765 0.923387 0.949048
0.870022 0.904295 0.99523 0.966711
0.906391 0.925134 0.997361 0.982332
0.888706 0.920853 0.980644 0.984139
0.706156 0.818961 0.910446 0.947073
0.849931 0.899461 0.977773 0.966414
0.872456 0.926101 0.955776 0.985663
0.844608 0.923437 0.946449 0.966387
1.00034 1 1.00132 0.999022
0.993913 1 0.994431 0.99948
1.02077 1 1.02182 0.998973
0.959152 0.949757 1.01361 0.996329
1.01248 0.988712 1.02471 0.999344
0.990777 0.985683 1.00771 0.997478
0.976287 0.98986 0.989773 0.996478
0.748014 0.854604 0.920123 0.95126
0.716851 0.816704 0.93795 0.935803
0.805691 0.909108 0.931433 0.951484
0.951085 0.949273 1.00642 0.995518
0.853712 0.910187 0.955143 0.982002
0.687145 0.802102 0.915304 0.935951
0.838826 0.914701 0.949307 0.96602
0.722013 0.833754 0.910659 0.950937
0.945788 0.961753 0.98681 0.996545
0.74212 0.849191 0.920791 0.94909
0.894239 0.966483 0.957083 0.96674
0.858127 0.925094 0.942741 0.983951
0.955671 0.982315 0.97522 0.997595
0.910712 0.978207 0.958888 0.970917
0.906453 0.97014 0.946998 0.986647
0.975823 0.989514 0.987567 0.998579
0.990601 1.00117 0.991973 0.99745
0.98224 1.00834 0.976742 0.99731
1.00268 1.00288 1.00317 0.996645
1.00034 1.0051 0.998648 0.996616
1.02451 1.04132 0.986525 0.997298
0.999084 1.00163 1.00186 0.995599
1.02633 1.03309 0.996885 0.996557
1.04227 1.058 0.987739 0.99736
1.02303 1.02743 1 0.99571
1.05129 1.05683 0.998 0.996746
1.04841 1.05839 0.993206 0.997339
1.04897 1.05496 0.997093 0.997219
1.05459 1.05883 0.999092 0.996904
1.0522 1.05571 0.999995 0.996679
1.05534 1.05948 1 0.9961
1.05416 1.05833 1 0.996059
1.05447 1.05847 1 0.996218
1.0432 1.04738 1 0.996007
1.04262 1.04701 1 0.995806
1.03539 1.03988 1 0.995681
1.02479 1.02839 1 0.996497
1.0291 1.03306 1 0.996165
1.02198 1.02601 1.00017 0.995899
1.0002 1.00242 1.00026 0.997523
1.01101 1.01426 1 0.996803
1.01308 1.01668 1 0.996461
1.00213 1 1.00279 0.999344
1.00398 1.00109 1.00505 0.997842
1.00832 1.00815 1.003 0.997177
1 1 1 1
1.00241 1 1.00282 0.999595
1.0065 1.00042 1.00779 0.998301
0.999986 1 1 0.999986
1.00144 1 1.00169 0.999753
1 1 1 1
1.00014 1.00242 1 0.997722
1.00147 1.00071 1.00289 0.997865
1.00536 1 1.00739 0.997982
1.00337 1 1.00542 0.997964
1.0077 1 1.00959 0.998138
1.00473 1 1.00597 0.998771
0.999876 1 1.00003 0.999843
1.00118 1 1.00222 0.998961
1.00596 1 1.00768 0.998287
1 1 1 1
0.999917 1 1 0.999917
0.999288 1 1.00015 0.999133
1 1 1 1
0.999966 1 1 0.999966
1 1 1 1
0.737494 0.842961 0.922002 0.948898
0.693467 0.805358 0.924981 0.930902
0.79551 0.903941 0.928485 0.94783
1.00442 1 1.00648 0.997949
1.01281 1.00014 1.01509 0.99761
1.00408 1.00253 1.00388 0.99767
1.00493 1.00709 1.00116 0.996699
1.01299 1.00179 1.01356 0.997661
1.0149 1 1.01692 0.998015
1.01061 1.00007 1.01279 0.997773
1.01868 1.00116 1.01981 0.997731
0.999539 1.00338 0.998764 0.997402
0.974706 1.00141 0.974796 0.9985
0.971898 1.00035 0.973808 0.997689
0.983842 1.00084 0.984004 0.999
1.02016 1.00005 1.02165 0.998487
0.883686 0.956204 0.953252 0.969482
0.703816 0.819994 0.907586 0.945716
0.641809 0.773235 0.89592 0.926456
0.703745 0.824557 0.904756 0.94333
0.859492 0.909641 0.977174 0.966941
0.893633 0.917431 0.98726 0.986629
0.87292 0.92466 0.956021 0.987472
0.874599 0.932837 0.965678 0.970892
0.89759 0.963223 0.944526 0.986592
0.993495 1.00132 0.993958 0.998218
0.999155 1 1.00016 0.998999
0.994992 1 0.995562 0.999427
0.993605 0.989217 1.00698 0.997472
0.981704 0.992365 0.992424 0.996809
0.888422 0.965955 0.94877 0.969397
0.752614 0.853073 0.926976 0.951739
0.713581 0.812567 0.937917 0.936309
0.949234 0.967251 0.986047 0.99526
0.865384 0.934369 0.943647 0.981479
0.737081 0.845266 0.919382 0.948475
0.885213 0.954078 0.955565 0.970965
0.962484 0.982105 0.982296 0.997685
0.920151 0.988685 0.957929 0.971556
0.904144 0.966346 0.950865 0.98398
0.968114 1.00333 0.967744 0.997061
0.938406 0.992381 0.954442 0.990747
0.990361 1.00322 0.989705 0.997447
0.980241 1.00809 0.975043 0.997263
0.993924 1.03832 0.959525 0.997619
0.999442 1.00473 0.998123 0.996609
1.0266 1.04253 0.987413 0.997267
1.03872 1.06567 0.976999 0.997652
1.02445 1.03243 0.995722 0.996537
1.04215 1.05818 0.987486 0.997335
1.03565 1.05719 0.981998 0.997581
1.04935 1.05579 0.997152 0.996738
1.0482 1.05847 0.992966 0.997317
1.0451 1.05827 0.990113 0.99742
1.04852 1.05512 0.996462 0.997275
1.04766 1.05299 0.997906 0.99703
1.05502 1.05963 0.998667 0.996979
1.05201 1.05553 0.999997 0.99667
1.05342 1.05716 1 0.996458
1.05252 1.05663 1 0.99611
1.05509 1.05924 1 0.996088
1.05415 1.05829 1 0.99608
1.03917 1.04303 1 0.996297
1.04326 1.04744 1 0.996011
1.04462 1.04899 1 0.995835
1.00614 1.00889 1 0.997275
1.02345 1.02705 1 0.996497
1.02849 1.03245 1 0.996162
1.00031 1 1.00128 0.999034
1.00214 1.00408 1.00054 0.997524
1.01198 1.01523 1 0.9968
1 1 1 1
1.00175 1 1.00243 0.999318
1.00394 1.00167 1.00443 0.997842
1 1 1 1
1.00271 1 1.00314 0.99957
1 1 1 1
1.00992 1.01297 1.00015 0.996846
1.00064 1.00294 1 0.997707
1.00106 1.00107 1.00226 0.99774
1.00249 1 1.00461 0.997885
1.00466 1 1.00673 0.997944
1.00618 1 1.00768 0.998513
1.00903 1 1.01091 0.998139
1.00481 1 1.00604 0.99877
1.00088 1 1.00112 0.999756
1 1 1 1
0.999856 1 1 0.999856
1.0003 1 1.00134 0.998962
1 1 1 1
0.999929 1 1 0.999929
1 1 1 1
0.910434 0.978134 0.956666 0.972948
0.741393 0.850809 0.917382 0.949874
0.695297 0.806723 0.927618 0.929131
1.01502 1 1.01763 0.997428
1.00203 1.00218 1.00211 0.997743
1.01095 1.00193 1.01144 0.997593
1.00607 1.00793 1.00136 0.996794
1.02 1.02355 1.00016 0.996365
1.00045 1.00326 1 0.997201
1.02161 1.00127 1.02254 0.997829
1.00046 1.00411 0.999145 0.997214
0.981404 1.00226 0.980678 0.998483
0.995563 1.00246 0.995645 0.997464
0.970572 1.00345 0.969454 0.997711
0.993696 1.00151 0.994943 0.997238
0.974043 1.00082 0.975392 0.9978
0.988015 1.00043 0.988544 0.999034
0.908331 0.97252 0.946735 0.986546
0.892781 0.965081 0.954345 0.96934
0.712671 0.82097 0.913629 0.95015
0.863963 0.928714 0.963185 0.965835
0.882954 0.926278 0.964325 0.988492
0.898658 0.955902 0.949271 0.990355
0.976507 1.00377 0.975623 0.99715
0.991272 1.00055 0.992556 0.998158
0.997576 0.999758 0.998838 0.998978
0.983221 0.993848 0.992164 0.997121
0.927122 0.973196 0.965204 0.987
0.903537 0.97332 0.953055 0.97403
0.741679 0.847859 0.922651 0.948102
0.960863 0.977763 0.984907 0.997776
0.909761 0.972791 0.94878 0.985694
0.921505 0.986219 0.961226 0.972072
0.961974 1.00149 0.963308 0.997133
0.93886 0.988511 0.959457 0.989906
0.96359 1.02476 0.942933 0.997216
0.983184 1.01813 0.969657 0.995893
0.976899 1.00785 0.971999 0.99721
0.991096 1.0361 0.958848 0.997615
1.00656 1.06557 0.946888 0.997608
1.02935 1.04439 0.988331 0.997237
1.03818 1.06534 0.976817 0.997631
1.03769 1.06307 0.97854 0.997532
1.0425 1.05862 0.987426 0.997309
1.03622 1.05674 0.982983 0.997562
1.04744 1.06478 0.986293 0.997384
1.04831 1.05874 0.992837 0.997295
1.04341 1.05597 0.990674 0.997413
1.04766 1.05757 0.993466 0.997141
1.04834 1.05549 0.995882 0.997331
1.0479 1.05313 0.997951 0.997076
1.05231 1.05615 0.999665 0.996696
1.05197 1.05549 1 0.996662
1.05358 1.05734 1 0.996446
1.05384 1.05772 1 0.996329
1.04585 1.04979 1 0.996244
1.05275 1.05687 1 0.996103
1.05478 1.05894 1 0.996076
1.01674 1.01973 1 0.997068
1.03775 1.04161 1 0.996303
1.0433 1.04748 1 0.996015
0.99925 1.00019 1.00027 0.998784
1.00861 1.01136 1.00001 0.997274
1.02215 1.02575 1 0.996497
1 1 1 1
0.999936 1 1.00092 0.999017
1.00412 1.00581 1.0008 0.997524
1 1 1 1
1.00152 1 1.00223 0.999294
1 1 1 1
1.02258 1.02623 1 0.996447
1.01176 1.0149 1.00003 0.996878
1.00813 1.0103 1.00066 0.99719
1.00025 1.00256 1 0.997692
1.00058 1.00069 1.0022 0.997688
1.00396 1.001 1.00479 0.998175
1.00384 1 1.00595 0.997907
1.00673 1 1.00822 0.998515
1.0027 1 1.00307 0.999635
1.00539 1 1.00663 0.99877
1.00063 1 1.00087 0.999767
1 1 1 1
1 1 1 1
0.999871 1 1 0.999871
1 1 1 1
0.917489 0.973082 0.954908 0.987393
0.900144 0.97692 0.951115 0.968769
0.737379 0.843786 0.917971 0.951984
1.03863 1.04248 1.00007 0.996246
1.0088 1.00168 1.00961 0.997527
1.00725 1.00894 1.00145 0.99689
1.00079 1.0036 1 0.9972
1.01877 1.02208 1.00042 0.996345
1.00623 1.0093 0.99979 0.997173
1.00076 1.00378 0.999958 0.997026
0.983692 1.00224 0.983 0.998465
0.993556 1.00292 0.993169 0.997476
0.963917 1.00246 0.963897 0.997567
1.00792 1.01497 0.996269 0.996778
0.995829 1.00718 0.991411 0.997294
0.993944 1.00211 0.994625 0.997209
0.975822 1.00134 0.97656 0.997911
0.973107 1.00613 0.969449 0.997661
0.90196 0.968197 0.945642 0.985137
0.890957 0.966404 0.950846 0.969589
0.89453 0.949156 0.953874 0.988021
0.979416 1.00498 0.976515 0.997999
0.991127 1.0002 0.992825 0.998089
0.978423 1.00725 0.975956 0.995312
0.912223 0.957214 0.96414 0.988443
0.891071 0.970479 0.947029 0.969534
0.960308 0.999228 0.963745 0.997203
0.946794 0.990589 0.966586 0.988829
0.967458 1.02635 0.945125 0.997351
0.986944 1.0181 0.973092 0.996202
0.991896 1.04462 0.951972 0.997433
1.04917 1.07162 0.981705 0.997296
0.98765 1.03324 0.958167 0.997611
1.01188 1.06704 0.950593 0.997591
1.0285 1.07677 0.95768 0.997384
1.03694 1.06452 0.976429 0.997609
1.03467 1.06122 0.977397 0.997528
1.04773 1.07235 0.97972 0.997266
1.03647 1.0561 0.983833 0.997542
1.04538 1.0632 0.985805 0.997398
1.05014 1.06371 0.990128 0.997091
1.04157 1.05359 0.991162 0.997405
1.04809 1.05799 0.993488 0.997139
1.05376 1.05973 0.997538 0.996818
1.04805 1.05319 0.997993 0.997122
1.05275 1.05654 0.999666 0.996742
1.05596 1.05974 1 0.996431
1.05374 1.05751 1 0.996435
1.05354 1.05744 1 0.996315
1.04809 1.05199 1 0.996297
1.02422 1.02735 1 0.996949
1.04555 1.04948 1 0.996253
1.05293 1.05706 1 0.996096
1.00047 1.00183 1 0.998635
1.0175 1.02049 1 0.997067
1.03656 1.0404 1 0.996308
1 1 1 1
0.9995 1.00063 1.0001 0.99877
1.01126 1.01403 1 0.997273
1 1 1 1
0.999454 1 1.00045 0.999
1 1 1 1
1.03725 1.04122 1 0.996187
1.02435 1.02801 1 0.996442
1.02074 1.02404 1 0.996775
1.01417 1.01731 1.00001 0.99691
1.00859 1.01088 1.00056 0.99718
1.005 1.00488 1.00229 0.99783
0.999975 1.00038 1.00196 0.997637
1.00431 1.00052 1.00561 0.998177
1.00216 1 1.0027 0.999462
1.0065 1 1.00799 0.998516
1.0018 1 1.00216 0.999647
1 1 1 1
1.00015 1 1.00038 0.999778
1 1 1 1
1 1 1 1
0.973918 1.01057 0.966335 0.99731
0.912071 0.970886 0.954066 0.98465
0.899266 0.969233 0.953262 0.973303
1.02895 1.0323 1.00001 0.996735
1.04833 1.05214 0.999987 0.996394
1.03662 1.0403 1.00013 0.996325
1.00155 1.00436 1 0.997199
1.01738 1.02039 1.00073 0.996324
1.00819 1.01217 0.998915 0.997156
1.02903 1.03563 0.996892 0.996721
0.992954 1.0041 0.991391 0.997488
0.961015 1.00189 0.961682 0.997422
1.0092 1.01705 0.995377 0.996884
1.02431 1.03903 0.989156 0.996637
0.998614 1.0266 0.975183 0.99749
1.00034 1.0093 0.99386 0.997242
0.994958 1.00264 0.99515 0.997179
0.977211 1.00772 0.971721 0.99795
0.906772 0.971907 0.948495 0.983646
0.979745 1.00498 0.975982 0.998877
1.02874 1.05599 0.976263 0.997888
0.976595 1.00604 0.975171 0.99545
0.915506 0.967813 0.959267 0.986121
0.97035 1.02834 0.945997 0.997479
0.990949 1.01863 0.976212 0.996527
0.987823 1.04515 0.947429 0.997597
1.04806 1.07222 0.980094 0.997317
1.04438 1.08438 0.965712 0.997307
1.0829 1.10681 0.980897 0.99745
1.01713 1.06936 0.953475 0.997574
1.03463 1.07871 0.961646 0.997384
1.05102 1.08222 0.973921 0.997175
1.03188 1.05953 0.976327 0.997524
1.04751 1.07146 0.980326 0.997267
1.05084 1.06962 0.985345 0.997056
1.04341 1.06166 0.98536 0.997412
1.05079 1.06433 0.990158 0.997087
1.054 1.0637 0.994032 0.996828
1.04852 1.05839 0.99351 0.997137
1.0543 1.06025 0.997558 0.996816
1.05911 1.06304 0.99982 0.996485
1.05318 1.05693 0.999665 0.996787
1.05553 1.0593 1 0.996446
1.05179 1.0557 1 0.996304
1.05324 1.05715 1 0.996301
1.04804 1.05194 1 0.996299
1.02611 1.0293 1 0.996892
1.00308 1.0045 1 0.998591
1.02368 1.02681 1 0.996949
1.04538 1.0493 1 0.996262
1 1 1 1
1.00111 1.00249 1 0.998623
1.01796 1.02095 1 0.997067
1 1 1 1
0.999599 1.00084 1 0.998755
1 1 1 1
1.04578 1.04977 1 0.996196
1.03677 1.04074 1 0.996186
1.03191 1.03556 1 0.996483
1.02525 1.02892 1 0.996436
1.02052 1.02382 1 0.996781
1.00957 1.01171 1.00035 0.997533
1.00838 1.01077 1.00046 0.997171
1.00374 1.0033 1.00262 0.997832
1.00049 1 1.00128 0.999209
1.00529 1.00005 1.00707 0.998179
1.00229 1 1.00281 0.99948
1 1 1 1
1.00142 1 1.00176 0.999659
1 1 1 1
1 1 1 1
1.00229 1.04445 0.961648 0.99791
0.971009 1.00952 0.96533 0.996398
0.913934 0.972895 0.953337 0.985377
1.04352 1.04764 0.999455 0.996611
1.03016 1.03334 0.999983 0.996942
1.06217 1.0666 0.999343 0.996505
1.0487 1.05267 0.999861 0.996376
1.03473 1.0383 1.00015 0.996405
1.05281 1.06508 0.991944 0.996507
1.01017 1.01517 0.997929 0.997139
1.02899 1.03509 0.997437 0.996658
1.04481 1.07368 0.976242 0.996799
1.00818 1.01898 0.992388 0.99699
1.02522 1.03981 0.98937 0.996567
0.99952 1.02963 0.973163 0.997529
1.00201 1.00959 0.995294 0.997187
0.982033 1.00937 0.974662 0.998212
1.06934 1.09768 0.976634 0.997485
1.03282 1.05633 0.979784 0.997913
0.975467 1.00486 0.975048 0.995586
0.984582 1.0449 0.944392 0.997759
1.04512 1.07158 0.977904 0.99734
1.03924 1.08245 0.962643 0.99733
1.08587 1.11009 0.98069 0.997442
1.06878 1.09691 0.976964 0.997328
1.04044 1.08026 0.965666 0.997384
1.0517 1.08145 0.975235 0.997185
1.05165 1.0745 0.981583 0.997089
1.04724 1.07053 0.980925 0.997267
1.051 1.06953 0.985595 0.997037
1.0532 1.06617 0.990993 0.996816
1.05145 1.06497 0.990193 0.997084
1.05446 1.06415 0.994047 0.996824
1.06193 1.06664 0.999058 0.996522
1.05483 1.06077 0.997578 0.996814
1.05905 1.06298 0.999816 0.996487
1.05667 1.0606 1 0.99629
1.05513 1.05888 1 0.996461
1.05164 1.05553 1 0.99631
1.02684 1.03011 1 0.99683
1.04796 1.05185 1 0.996301
1.02649 1.02969 1 0.996891
1.00485 1.00601 1 0.998847
0.999537 1 1 0.999537
1.0037 1.00501 1 0.998699
1.02299 1.02612 1 0.996949
1 1 1 1
1.002 1.0034 1 0.99861
1 1 1 1
1.06683 1.07121 0.999296 0.996608
1.05432 1.05816 1 0.996367
1.04647 1.05045 1 0.996208
1.03946 1.04326 1 0.996364
1.03682 1.04079 1 0.996184
1.03292 1.03657 1 0.996479
1.01449 1.01727 1 0.997275
1.021 1.02429 1 0.996787
1.00743 1.00941 1.00051 0.997534
0.999142 1.00011 1.00012 0.998909
1.00244 1.00178 1.00282 0.997834
1.00087 1 1.00165 0.999228
1 1 1 1
1.00203 1 1.00253 0.999498
1 1 1 1
1 1 1 1
1.05852 1.09451 0.969806 0.997231
1.0081 1.05255 0.959746 0.997948
0.967941 1.00962 0.963052 0.995502
1.05774 1.06634 0.995376 0.996543
1.03952 1.04372 0.999318 0.996659
1.03108 1.03403 0.999998 0.997147
1.06067 1.06498 0.999426 0.99652
1.04906 1.05319 0.999719 0.996358
1.05953 1.08542 0.9793 0.996778
1.04921 1.06185 0.991603 0.996466
1.02893 1.03436 0.998149 0.996596
1.0423 1.07095 0.976378 0.996797
1.02943 1.04317 0.990301 0.996496
1.00468 1.03747 0.970751 0.997576
1.06776 1.09148 0.980788 0.997431
1.07209 1.10024 0.976835 0.997522
1.03664 1.05714 0.982636 0.997939
1.03556 1.08184 0.959763 0.997351
1.09019 1.11423 0.980938 0.997434
1.06917 1.09814 0.976215 0.997333
1.05825 1.07607 0.986209 0.997196
1.05242 1.08063 0.976642 0.997195
1.05212 1.0743 0.982221 0.997075
1.05516 1.06844 0.990678 0.996856
1.05119 1.06948 0.985844 0.997017
1.05386 1.06683 0.990998 0.996815
1.06313 1.07002 0.997001 0.996543
1.05494 1.06462 0.994064 0.99682
1.06169 1.06642 0.999044 0.996522
1.06008 1.06405 1 0.996268
1.05903 1.06296 0.999813 0.996489
1.05644 1.06037 1 0.996295
1.02807 1.03142 1 0.996744
1.05146 1.05535 1 0.996316
1.02782 1.03109 1 0.99683
1.00431 1.00546 1 0.998862
1.02694 1.03014 1 0.996891
1.00474 1.00591 1 0.998841
0.999564 1 1 0.999564
0.999779 1 1 0.999779
1.00439 1.00558 1 0.998817
1 1 1 1
1.05957 1.06753 0.995907 0.996621
1.05907 1.06292 0.999922 0.99645
1.06548 1.07004 0.999002 0.996736
1.04997 1.05383 1 0.996335
1.0564 1.06027 1 0.996355
1.04719 1.05116 1 0.996221
1.0402 1.044 1 0.996355
1.02057 1.02357 1 0.997068
1.03367 1.03733 1 0.996474
1.01331 1.01608 1 0.997276
1.00068 1.00199 1 0.998693
1.00519 1.00715 1.00052 0.997537
0.999502 1.00013 1.00045 0.998929
1 1 1 1
1.00134 1 1.0021 0.999248
1 1 1 1
1 1 1 1
1.05872 1.08558 0.97808 0.997119
1.05335 1.0889 0.970048 0.997229
1.01193 1.0573 0.959032 0.997977
1.05778 1.07519 0.987062 0.996703
1.05493 1.06364 0.995251 0.996542
1.03583 1.04006 0.999221 0.996708
1.05901 1.06321 0.999512 0.996536
1.05792 1.08336 0.979691 0.996754
1.04537 1.05837 0.991255 0.996426
1.03477 1.06273 0.976817 0.996794
1.06218 1.07888 0.987225 0.997259
1.06607 1.08951 0.981042 0.99739
1.07406 1.10215 0.976896 0.997559
1.05695 1.07028 0.990422 0.997098
1.06899 1.09898 0.97531 0.997339
1.05809 1.07603 0.986112 0.997182
1.05698 1.06923 0.991555 0.996963
1.05262 1.07408 0.982908 0.997061
1.05513 1.06846 0.990637 0.996858
1.06359 1.07183 0.995734 0.996565
1.05448 1.06745 0.991008 0.996814
1.06247 1.06932 0.997033 0.996543
1.0613 1.06529 1 0.996259
1.06135 1.06609 0.999029 0.996522
1.06039 1.06436 1 0.996271
1.02851 1.03195 1 0.996664
1.05616 1.06008 1 0.9963
1.02908 1.03244 1 0.996746
1.00312 1.00429 1 0.998835
1.02886 1.03213 1 0.99683
1.004 1.00515 1 0.998849
0.999567 1 1 0.999567
1.00461 1.00578 1 0.998838
0.999575 1 1 0.999575
1 1 1 1
1.05691 1.0679 0.993161 0.996528
1.06071 1.06553 0.999036 0.996436
1.06123 1.06905 0.996054 0.996618
1.05636 1.06019 1 0.996383
1.06023 1.06427 0.999708 0.996493
1.06433 1.06906 0.998703 0.996863
1.02893 1.03211 1 0.996918
1.04974 1.05362 1 0.996324
1.0586 1.06248 1 0.996343
1.0412 1.04501 1 0.996345
1.02118 1.02418 1 0.997069
1.00421 1.00561 1 0.998606
1.01251 1.01527 1 0.997277
1.00017 1.00146 1 0.998709
1 1 1 1
0.999702 1 1.00076 0.998947
1 1 1 1
1 1 1 1
1.05701 1.07473 0.986476 0.996998
1.05896 1.08615 0.977799 0.9971
1.05127 1.08678 0.970014 0.997227
1.05745 1.07485 0.987051 0.99672
1.05176 1.06059 0.995124 0.99654
1.05764 1.08265 0.980097 0.99673
1.05885 1.07193 0.990678 0.997097
1.06221 1.07891 0.987228 0.997254
1.06447 1.0877 0.981246 0.99735
1.05745 1.07048 0.990676 0.997119
1.05576 1.06642 0.99306 0.996918
1.05793 1.07602 0.98598 0.997167
1.05731 1.0692 0.991924 0.996924
1.06368 1.07201 0.995564 0.996654
1.05515 1.06853 0.990593 0.996861
1.06316 1.07143 0.995698 0.996567
1.06122 1.06521 1 0.996258
1.06194 1.06878 0.997051 0.996544
1.06265 1.06664 1 0.99626
1.02738 1.03087 1 0.996618
1.06074 1.06471 1 0.996274
1.02918 1.03263 1 0.996666
1.00162 1.00285 1 0.998779
1.03013 1.0335 1 0.996747
1.00271 1.0039 1 0.998816
0.999543 1 1 0.999543
1.00366 1.00483 1 0.99884
0.999589 1 1 0.999589
0.99958 1 1 0.99958
1.05753 1.06945 0.992041 0.996788
1.06172 1.06777 0.997956 0.996375
1.05677 1.06885 0.992121 0.996555
1.06046 1.06434 1 0.996353
1.06035 1.06493 0.999266 0.996422
1.06288 1.07055 0.996209 0.996616
1.03139 1.03467 1 0.996823
1.05628 1.06013 1 0.996368
1.06123 1.06545 0.999506 0.996536
1.00555 1.00697 1 0.998597
1.02846 1.03163 1 0.99692
1.04967 1.05356 1 0.996314
1.02091 1.02391 1 0.99707
1.00305 1.00444 1 0.998617
1 1 1 1
0.999543 1.00082 1 0.998725
1 1 1 1
1 1 1 1
1.05589 1.06903 0.990688 0.996989
1.0574 1.07492 0.986674 0.996988
1.05841 1.08586 0.97757 0.99708
1.05711 1.07453 0.987005 0.996736
1.05635 1.06504 0.994945 0.996876
1.05889 1.07202 0.990626 0.997108
1.0623 1.07894 0.98729 0.997248
1.05796 1.07069 0.990949 0.997139
1.05593 1.06678 0.992874 0.996927
1.06368 1.07066 0.99683 0.996636
1.05764 1.06917 0.992307 0.996884
1.06422 1.07195 0.996181 0.996601
1.06011 1.06465 0.999407 0.996329
1.06271 1.071 0.995671 0.99657
1.06221 1.06621 0.999986 0.99626
1.02479 1.0283 1 0.996587
1.06376 1.06775 1 0.996262
1.02713 1.03061 1 0.996619
0.999745 1.00125 1 0.998495
1.0299 1.03334 1 0.996668
1.00101 1.00236 1 0.998652
1 1 1 1
1.00229 1.0035 1 0.9988
0.999571 1 1 0.999571
0.999603 1 1 0.999603
1.05635 1.0661 0.993948 0.996883
1.06129 1.06853 0.996703 0.99651
1.05794 1.06905 0.992808 0.996779
1.06179 1.06583 0.999965 0.996251
1.06096 1.0674 0.997581 0.996381
1.05668 1.06983 0.991098 0.996582
1.0309 1.03434 1 0.996674
1.06033 1.06422 0.999999 0.996354
1.06 1.06438 0.999478 0.996408
1.00431 1.00571 1 0.998607
1.0305 1.03382 1 0.996789
1.05599 1.05986 1 0.996352
1 1 1 1
1.00538 1.00678 1 0.998608
1.02797 1.03114 1 0.996921
1.00235 1.00372 1 0.99863
1 1 1 1
1 1 1 1
1.05465 1.06305 0.995201 0.996885
1.05629 1.06912 0.99097 0.996996
1.05775 1.07511 0.986827 0.996979
1.06312 1.06911 0.997805 0.996576
1.05578 1.06486 0.994562 0.996888
1.05895 1.07212 0.990563 0.997119
1.05606 1.06715 0.992653 0.996937
1.06331 1.07046 0.996665 0.996637
1.05881 1.06315 0.999536 0.996375
1.06469 1.07181 0.99679 0.996548
1.06051 1.06478 0.999679 0.996311
1.02249 1.02605 1 0.996534
1.06334 1.06738 0.999954 0.996263
1.02426 1.02776 1 0.996588
0.99877 1.0003 1 0.998467
1.0271 1.03059 1 0.99662
0.999408 1.00092 1 0.998493
1 1 1 1
1.00036 1.00186 1 0.998503
0.999762 1 1 0.999762
0.999594 1 1 0.999594
1.05388 1.06221 0.995296 0.996844
1.06261 1.06856 0.997841 0.996587
1.05608 1.06566 0.994096 0.996891
1.06184 1.06585 1 0.99624
1.06227 1.0693 0.996922 0.996496
1.0583 1.06861 0.993566 0.99677
1.02864 1.03215 1 0.996594
1.06129 1.0653 0.999987 0.996255
1.06022 1.06705 0.997204 0.996387
1.00218 1.0036 1 0.998583
1.03039 1.03384 1 0.996662
1.0602 1.06408 1 0.996355
1 1 1 1
1.00479 1.00619 1 0.998616
1.02986 1.03321 1 0.996754
1 1 1 1
1.00515 1.00654 1 0.998619
1 1 1 1
1.06223 1.06803 0.99794 0.996619
1.05429 1.06273 0.995176 0.996871
1.05663 1.06914 0.991272 0.997002
1.05814 1.06243 0.999593 0.996371
1.06244 1.06879 0.997449 0.996597
1.05521 1.06468 0.994189 0.996899
1.06293 1.07027 0.9965 0.996638
1.05857 1.06304 0.999419 0.996375
1.02137 1.02493 1 0.996533
1.06096 1.06494 0.999971 0.996293
1.02235 1.02589 1 0.996547
0.998464 1.00003 1 0.998432
1.02351 1.02702 1 0.99659
0.998596 1.00013 1 0.998465
1 1 1 1
0.998972 1.00048 1 0.998491
1 1 1 1
0.999567 1 1 0.999567
1.06301 1.06862 0.998152 0.996595
1.05319 1.06214 0.994697 0.996863
1.06039 1.06434 1 0.99629
1.06297 1.06895 0.997815 0.996586
1.05585 1.06528 0.994227 0.996899
1.02563 1.02911 1 0.996614
1.06097 1.06498 1 0.996237
1.06322 1.07002 0.997154 0.996482
1.00015 1.00162 1 0.99853
1.02863 1.03213 1 0.996609
1.06065 1.06463 1 0.99626
1 1 1 1
1.00278 1.00419 1 0.998589
1.02995 1.03341 1 0.99665
1 1 1 1
1.00525 1.00664 1 0.998625
1 1 1 1
1.05827 1.06243 0.999694 0.996393
1.06208 1.06779 0.998037 0.996607
1.05394 1.06241 0.995156 0.996856
1.02099 1.02453 1 0.996549
1.05789 1.06226 0.999519 0.996372
1.06172 1.06845 0.99708 0.996618
1.05835 1.06292 0.999322 0.996376
1.0215 1.02506 1 0.99653
0.998417 1 1 0.998417
1.02219 1.02572 1 0.996559
0.99843 1 1 0.99843
1 1 1 1
0.998485 1.00002 1 0.998463
1 1 1 1
1 1 1 1
1.05948 1.06339 1 0.996319
1.06255 1.06846 0.997813 0.996643
1.05253 1.06209 0.994097 0.996883
1.02331 1.02678 1 0.996624
1.06005 1.064 1 0.996287
1.06334 1.06934 0.997791 0.996585
0.998841 1.00036 1 0.998486
1.02576 1.02925 1 0.996611
1.06017 1.06417 1 0.996234
1 1 1 1
1.00071 1.00218 1 0.998533
1.02877 1.03226 1 0.996624
1 1 1 1
1.00332 1.00473 1 0.998595
1 1 1 1
1.0216 1.02508 1 0.996598
1.05796 1.06223 0.999603 0.996375
1.06194 1.06758 0.998117 0.996595
0.998442 1 1 0.998442
1.02118 1.02472 1 0.996546
1.05766 1.0621 0.99945 0.996372
1.02164 1.0252 1 0.996528
0.998418 1 1 0.998418
1 1 1 1
0.998428 1 1 0.998428
1 1 1 1
1 1 1 1
1.02228 1.02575 1 0.996622
1.05905 1.0631 0.999842 0.996347
1.0621 1.06829 0.997507 0.996691
0.998733 1 1 0.998733
1.02374 1.02721 1 0.996623
1.05976 1.06371 1 0.996284
1 1 1 1
0.999226 1.00074 1 0.998487
1.026 1.02949 1 0.996608
1 1 1 1
1.0012 1.00267 1 0.998536
1 1 1 1
0.998428 1 1 0.998428
1.02175 1.02525 1 0.996584
1.05768 1.06206 0.999521 0.996357
1 1 1 1
0.998441 1 1 0.998441
1.02136 1.0249 1 0.996543
0.998417 1 1 0.998417
1 1 1 1
1 1 1 1
0.998703 1 1 0.998703
1.02257 1.02604 1 0.996622
1.05858 1.0628 0.999657 0.996375
1 1 1 1
0.99855 1.00008 1 0.998472
1.02399 1.02747 1 0.996622
1 1 1 1
0.9995 1.00101 1 0.998488
1 1 1 1
0.999536 1 1 0.999536
0.99858 1 1 0.99858
1.02188 1.0254 1 0.996569
1 1 1 1
0.998442 1 1 0.998442
1 1 1 1
0.999548 1 1 0.999548
0.998589 1 1 0.998589
1.02289 1.02636 1 0.996623
0.999769 1 1 0.999769
0.998745 1.00027 1 0.998473
1 1 1 1
1 1 1 1
0.998464 1 1 0.998464
1 1 1 1
0.999773 1 1 0.999773
0.998474 1 1 0.998474
1 1 1 1
1 1 1 1
1 1 1 1

VECTORS lamdaE float
1.00191 1.00001 0.993134
1.00146 1.00078 0.996558
1.00138 1.00023 0.993486
1.00188 1.0001 0.993038
1.00196 0.999923 0.993143
1.00187 1.00024 0.992949
1.00309 1.00056 0.990108
1.0015 1.00079 0.996504
1.00128 1.00008 0.997156
1.00078 1.00087 0.99717
1.00125 1.00121 0.99278
1.00305 1.0012 0.988398
1.00135 1.00001 0.993703
1.00115 0.999996 0.993868
1.0009 1.00046 0.99381
1.00152 1.00006 0.993425
1.00128 1.00061 0.99327
1.00152 0.999978 0.993512
1.00334 1.00041 0.989934
1.00137 1.00002 0.99678
1.00178 1.00013 0.993106
1.00197 0.999982 0.99307
1.00315 1.0002 0.9904
1.00319 1.00028 0.990258
1.0019 1.00051 0.992689
1.00301 1.00103 0.989756
1.00527 1.00116 0.985515
1.00152 1.00078 0.996455
1.00153 0.999956 0.995243
1.00116 1.00059 0.995214
1.00141 1.00098 0.996471
1.00301 1.00133 0.988411
1.0018 0.999758 0.993255
1.00161 1.00007 0.993347
1.0035 1.00012 0.990554
1.00023 1.0013 0.997391
1.00335 1.0007 0.990325
1.00276 1.00204 0.988079
1.00503 1.0016 0.984743
1.00043 1.00004 0.997615
1.00141 0.99999 0.996751
1.00139 0.999987 0.995255
1.00129 0.999967 0.996839
1.00096 1.00002 0.994063
1.00307 0.999943 0.989809
1.00132 0.999937 0.997089
1.00349 1.00011 0.990632
1.00117 0.999986 0.993811
1.00111 1.00003 0.993868
1.00073 1.001 0.993571
1.00356 1.00026 0.989777
1.00116 1.00005 0.995441
1.0014 1.00016 0.993495
1.00128 1.00098 0.992963
1.00158 0.999951 0.993448
1.00333 1.00016 0.9902
1.00329 1.00083 0.989588
1.00339 1.00019 0.990078
1.00528 1.00114 0.985573
1.00126 1 0.996837
1.00164 1.00009 0.993362
1.00276 0.999994 0.991668
1.00305 1.00018 0.990577
1.00322 1.00019 0.990308
1.00527 1.00012 0.986569
1.00527 1.00041 0.986213
1.00163 1.00066 0.992538
1.00289 1.00191 0.989188
1.0053 1.00169 0.984943
1.00528 1.00004 0.985901
1.00185 0.999971 0.996631
1.00126 1.00085 0.996692
1.00155 1.00051 0.996586
1.00293 1.00145 0.988422
1.00187 0.999875 0.996573
1.00173 1.00014 0.996653
1.00336 1.00007 0.989067
1.00051 1.00109 0.995476
1.00311 1.00069 0.988832
1.00261 1.00222 0.989178
1.00516 1.00144 0.984736
1.00072 1.0004 0.997241
1.00068 1.00244 0.991302
1.00351 1.00004 0.988937
1.00342 1.00015 0.988979
1.00531 1.00044 0.985597
1.00192 1.00279 0.990734
1.00527 1.0011 0.984951
1.00414 1.0028 0.985036
1.00537 1.00153 0.984183
1.00022 0.999247 0.998021
1.00027 0.999778 0.997782
1.00173 0.999961 0.996575
1.00147 0.999986 0.996715
1.00133 0.999973 0.996829
1.00124 1.00001 0.995392
1.00311 0.999931 0.990522
1.00154 0.999936 0.995184
1.00338 1.00013 0.989923
1.00129 0.999982 0.99686
1.00288 0.99981 0.99019
1.00336 1.00005 0.990893
1.0051 0.999119 0.987379
1.0035 1.00007 0.990585
1.00524 0.99944 0.986816
1.00131 0.999996 0.993785
1.00101 1.00015 0.993888
1.00068 1.00144 0.993226
1.0012 0.999909 0.993824
1.00351 1.00015 0.990001
1.00358 1.00012 0.989907
1.00355 1.00062 0.98943
1.00528 1.00111 0.985629
1.00131 0.999982 0.996849
1.00125 1.00009 0.99374
1.00296 0.99994 0.990503
1.00322 1.00015 0.990375
1.00143 1.00119 0.994424
1.00317 1.00169 0.989347
1.0034 1.00014 0.990119
1.00527 0.999932 0.9868
1.00528 1.00168 0.985024
1.00527 1.0006 0.986072
1.00527 1.00004 0.985931
1.00285 0.999846 0.990227
1.0029 1.00006 0.990886
1.00497 0.998896 0.98838
1.00519 0.999496 0.987401
1.00528 0.99999 0.986658
1.00536 0.997931 0.988184
1.00085 1.00099 0.99696
1.00528 0.999186 0.986744
1.00235 1.00299 0.987711
1.00522 1.00204 0.984025
1.00528 1.00098 0.985038
1.00525 0.997585 0.988186
1.00125 1.0031 0.989577
1.00249 1.00424 0.986482
1.0019 0.999892 0.996592
1.00172 1.00019 0.996639
1.00338 1.00004 0.989046
1.00077 1.00073 0.997126
1.00223 1.00254 0.988407
1.00313 1.00065 0.98884
1.00527 1.00129 0.984728
1.00056 1.00042 0.997382
1.00061 1.00257 0.991318
1.00353 1.00007 0.989738
1.00345 1.0002 0.989723
1.00531 1.00046 0.985566
1.00146 1.00294 0.989362
1.00528 1.00109 0.98493
1.00437 1.00242 0.985008
1.00537 1.00139 0.98439
1.00105 1.0027 0.990306
1.00037 1.00207 0.992356
1.00209 1.00441 0.987511
1.0053 1.0001 0.985992
1.00531 1.00076 0.985255
1.00531 0.998952 0.987041
1.00333 1.00343 0.985691
1.00533 1.00032 0.985655
1.00529 1.0023 0.983681
1.00531 1.00007 0.985508
1.00011 0.998671 0.998382
1.00013 0.999151 0.998171
1.00019 0.999632 0.997944
1.00094 1.003 0.990316
1.0005 1.00082 0.997263
1.00186 0.99991 0.996558
1.00157 0.999991 0.996631
1.00321 1.00016 0.98926
1.00298 0.999935 0.989884
1.00133 0.999971 0.996807
1.00126 0.999972 0.996855
1.00287 0.999824 0.99018
1.00323 1.00006 0.99019
1.00508 0.999118 0.987389
1.00335 1.00012 0.989078
1.00523 0.999455 0.986796
1.00281 0.999806 0.990292
1.00504 0.998989 0.987594
1.00517 0.99922 0.987142
1.00531 0.995889 0.990478
1.00529 0.999756 0.986403
1.00535 0.996682 0.989547
1.00127 0.999981 0.996849
1.00083 1.00015 0.994117
1.00299 0.999921 0.989496
1.0034 1.00015 0.990169
1.00063 1.00185 0.996831
1.00351 1.00126 0.989515
1.00358 1.00011 0.989934
1.00526 0.999736 0.987033
1.00528 1.00077 0.985927
1.00526 1.00167 0.985107
1.00527 1.00004 0.985961
1.00282 0.999842 0.990231
1.00307 1.00007 0.990688
1.005 0.998849 0.988129
1.0052 0.999687 0.987161
1.00099 1.00107 0.996811
1.00251 1.00271 0.988745
1.00503 1.0023 0.984369
1.00529 1.00005 0.986616
1.00536 0.997544 0.988605
1.00529 1.00088 0.985106
1.00528 0.999348 0.986674
1.00525 0.997633 0.988193
1.0013 1.00304 0.989551
1.0026 1.00415 0.986449
1.00497 0.999066 0.987638
1.00506 0.999192 0.987945
1.00531 0.996579 0.989669
1.00536 0.996779 0.989393
1.0053 0.998297 0.987696
1.00525 0.995514 0.990604
1.00164 1.00323 0.988632
1.00525 0.996439 0.98941
1.00455 1.00288 0.98438
1.00529 1.0019 0.983921
1.00527 0.999246 0.986663
1.00525 0.996039 0.989887
1.00329 1.00397 0.98526
1.00196 1.00446 0.987465
1.00398 1.00282 0.985656
1.00339 1.00006 0.98903
1.00034 1.00026 0.997538
1.0005 1.0026 0.991336
1.0033 1.00019 0.989021
1.00531 1.00047 0.985536
1.00142 1.00308 0.989249
1.00458 1.00213 0.984986
1.00531 1.00109 0.984903
1.00538 1.00123 0.984595
1.00101 1.0028 0.990331
1.00021 1.00209 0.992372
1.00182 1.00444 0.98749
1.0053 1.00012 0.98596
1.00531 1.00076 0.98523
1.00531 0.998953 0.987023
1.00351 1.00323 0.985695
1.00532 1.00043 0.985564
1.00535 1.00228 0.983622
1.00533 0.999756 0.985749
1.00014 1.00136 0.99331
1.003 1.00367 0.986496
1.00122 1.00484 0.988277
1.00311 1.00176 0.987777
1.00529 0.998168 0.98792
1.0053 0.999738 0.986221
1.00527 0.996731 0.989081
1.00483 1.00258 0.984044
1.00525 0.998363 0.987588
1.00534 1.00128 0.984676
1.00536 0.998711 0.986878
1.00017 1.00296 0.991693
1.00027 0.999976 0.994446
1.0001 0.998151 0.998608
1.00006 0.998586 0.998472
1.00006 0.99905 0.9983
1.00055 1.00273 0.991161
1.0003 1.00044 0.997516
1.00102 1.00287 0.990259
1.00063 1.00082 0.997162
1.00333 1.00015 0.989076
1.00308 1.00009 0.98955
1.00523 0.999469 0.986782
1.00506 0.999122 0.987397
1.00288 0.999841 0.990177
1.00132 0.999959 0.996852
1.00283 0.999799 0.990294
1.00502 0.999001 0.987602
1.00515 0.999257 0.987138
1.00532 0.995853 0.990482
1.00528 0.999773 0.986377
1.00533 0.996664 0.989554
1.00498 0.998982 0.98769
1.00531 0.995831 0.99056
1.00535 0.996125 0.990153
1.0053 0.994957 0.991345
1.0053 0.997415 0.988777
1.00526 0.994954 0.991172
1.00283 0.999843 0.990242
1.00325 1.00004 0.990489
1.00503 0.998793 0.987879
1.00522 0.999868 0.986922
1.00118 1.00115 0.996621
1.00288 1.00255 0.989532
1.00485 1.00249 0.984708
1.00529 1.0001 0.986573
1.00536 0.997156 0.989023
1.00527 0.999513 0.986605
1.0053 1.00079 0.985174
1.00525 0.997675 0.9882
1.00137 1.00296 0.989528
1.00258 1.00402 0.986419
1.00498 0.998828 0.987891
1.00508 0.999173 0.987922
1.00531 0.996532 0.989751
1.00537 0.997113 0.988994
1.00172 1.00321 0.988642
1.00432 1.00306 0.984407
1.0053 1.00203 0.983762
1.0053 0.998529 0.987538
1.00525 0.995302 0.990776
1.00527 0.999018 0.98691
1.00526 0.996469 0.989394
1.00525 0.996004 0.989774
1.00326 1.0041 0.985209
1.00377 1.00303 0.985551
1.0018 1.00441 0.98751
1.00531 0.996442 0.989866
1.00534 0.996752 0.989474
1.0053 0.994997 0.991204
1.00529 0.994939 0.99114
1.00525 0.995615 0.990261
1.00524 0.994928 0.990995
1.00376 1.00373 0.98472
1.00526 0.995165 0.990515
1.0053 1.00308 0.98284
1.00527 1.00052 0.985137
1.00523 0.997627 0.988256
1.00525 0.995641 0.99019
1.0011 1.00508 0.987822
1.00472 1.00351 0.983906
1.00292 1.00255 0.986999
1.00499 1.00305 0.984075
1.00529 1.00014 0.98593
1.0001 1.00217 0.992384
1.00085 1.00302 0.990361
1.00155 1.00442 0.987467
1.00531 1.00076 0.985203
1.00531 0.998954 0.987004
1.00366 1.00286 0.9857
1.00537 1.00227 0.98356
1.0053 1.00054 0.985473
1.00533 0.99946 0.985989
1.00009 1.00135 0.99334
1.00284 1.00352 0.986569
1.00101 1.00498 0.988226
1.00329 1.00164 0.987827
1.0053 0.998164 0.987902
1.0053 0.999731 0.9862
1.00527 0.996712 0.989087
1.00501 1.00257 0.98402
1.00525 0.998564 0.987348
1.00531 1.00115 0.984651
1.00535 0.998577 0.987065
1.00024 1.0005 0.994
1.00092 1.00459 0.98912
1.00384 1.00234 0.985989
1.00248 1.00328 0.988016
1.00389 0.999713 0.988783
1.00527 0.995885 0.989989
1.00525 0.99757 0.988195
1.00526 0.995628 0.989972
1.00519 1.00219 0.984023
1.00529 0.997268 0.988415
1.00523 0.999871 0.985872
1.00045 1.00316 0.990992
1.00027 1.00467 0.989877
1.00009 1.00238 0.992411
1.00016 1.00292 0.991703
1.0002 0.999587 0.995659
1.00024 0.999914 0.994897
1.00027 0.997654 0.997129
1.00009 0.998062 0.998652
1.00003 0.998463 0.998544
0.99998 1.00234 0.992387
1.00011 0.999959 0.997898
1.00064 1.00265 0.991154
1.00041 1.00055 0.99742
1.00109 1.00279 0.990201
1.00076 1.00088 0.997062
1.00527 0.999791 0.986352
1.00513 0.999291 0.98713
1.00531 0.99667 0.989561
1.00533 0.995825 0.990487
1.005 0.999014 0.987611
1.00282 0.999784 0.990292
1.00498 0.998985 0.987693
1.00531 0.995819 0.990565
1.00533 0.996123 0.990162
1.00529 0.994952 0.991342
1.0053 0.997395 0.98877
1.00527 0.994938 0.991199
1.00531 0.995878 0.990525
1.00528 0.994965 0.991394
1.0053 0.994915 0.991296
1.00525 0.994954 0.991277
1.00524 0.99525 0.990757
1.00527 0.994893 0.991029
1.00498 0.998589 0.988145
1.00511 0.999153 0.9879
1.00531 0.996512 0.989833
1.00539 0.997429 0.988597
1.00178 1.00317 0.988661
1.00406 1.0034 0.984448
1.00533 1.00215 0.983605
1.00529 0.998756 0.98738
1.00525 0.995088 0.990949
1.00526 0.996504 0.989378
1.00526 0.998773 0.987156
1.00525 0.995967 0.989659
1.00334 1.00436 0.985155
1.0036 1.00312 0.985445
1.00168 1.00437 0.987552
1.0053 0.9962 0.990153
1.00534 0.99674 0.989486
1.0053 0.994985 0.99125
1.00529 0.995046 0.990991
1.00368 1.00388 0.984745
1.00527 1.00312 0.982907
1.00527 1.0007 0.984896
1.00525 0.99584 0.990032
1.00524 0.994924 0.990952
1.00524 0.99748 0.988231
1.00526 0.995182 0.990486
1.00525 0.99553 0.990232
1.00433 1.00369 0.983902
1.00474 1.00315 0.98383
1.00129 1.00497 0.987868
1.00292 1.00262 0.987009
1.00529 0.994965 0.991389
1.00533 0.995047 0.990979
1.00527 0.994951 0.991277
1.00526 0.994924 0.990961
1.00527 0.994919 0.990791
1.00531 0.994914 0.990751
1.00519 1.00355 0.982757
1.00527 0.994922 0.990574
1.00527 1.00218 0.983519
1.00523 0.999674 0.985924
1.00518 0.996903 0.988793
1.0053 0.9954 0.990169
1.00087 1.00478 0.988588
1.00255 1.0042 0.986303
1.00513 1.00381 0.98246
1.00408 1.0019 0.986433
1.00466 1.0043 0.982867
1.00003 1.00128 0.993372
1.0053 0.99816 0.987884
1.00088 1.00505 0.988175
1.00262 1.00353 0.986644
1.00338 1.00139 0.987877
1.0053 0.999726 0.986181
1.00527 0.996692 0.989092
1.00522 1.00233 0.983996
1.0053 1.00107 0.984626
1.00525 0.998743 0.987109
1.00535 0.998453 0.987252
1.00022 1.00047 0.994031
1.00067 1.00467 0.989129
1.00408 1.00199 0.986064
1.00218 1.00327 0.987949
1.00396 0.999743 0.988213
1.00526 0.995864 0.990004
1.00525 0.997544 0.988197
1.00525 0.995599 0.989979
1.00519 1.00226 0.983938
1.0053 0.997364 0.988231
1.00523 0.999918 0.986074
1.00066 1.00373 0.990185
1.00144 1.00505 0.988352
1.00453 1.002 0.985286
1.0033 1.00104 0.988513
1.00496 1.00083 0.987006
1.00531 0.995055 0.990563
1.00524 0.996314 0.98918
1.00522 0.995317 0.990093
1.005 1.00137 0.984583
1.00521 0.998565 0.986899
1.00039 1.0033 0.990977
1.00056 1.00427 0.989653
0.99997 1.00472 0.989896
1.00053 1.00454 0.990054
1.00009 1.00427 0.990707
0.99997 1.00209 0.992864
0.999999 1.00245 0.992434
1.00016 0.999214 0.996005
1.00014 1.00294 0.991713
1.00022 0.999465 0.995715
1.00028 0.997278 0.997395
1.00023 0.999866 0.995337
1.00017 0.997726 0.997953
1.00009 0.997979 0.998692
0.99974 1.00129 0.993839
1.00011 1.00222 0.992399
0.999878 0.99924 0.998392
1.00025 0.999997 0.997735
1.00072 1.00251 0.99115
1.00051 1.0006 0.997323
1.0053 0.997373 0.988761
1.00533 0.996088 0.99017
1.00528 0.99492 0.991225
1.00529 0.994947 0.99134
1.00531 0.995794 0.99057
1.00498 0.998988 0.987697
1.0053 0.995869 0.990525
1.00528 0.994966 0.991398
1.0053 0.994912 0.991309
1.00526 0.994954 0.99126
1.00525 0.995224 0.990779
1.00528 0.994888 0.991018
1.00528 0.994967 0.991401
1.00525 0.994947 0.991371
1.00526 0.994955 0.991147
1.00528 0.994939 0.991228
1.0053 0.994853 0.990903
1.00533 0.994926 0.990873
1.0053 0.995957 0.990439
1.00534 0.996743 0.989498
1.00531 0.994952 0.991297
1.00529 0.995165 0.990841
1.00361 1.00395 0.98477
1.00523 1.00311 0.982967
1.00528 1.00083 0.984653
1.00525 0.996064 0.989803
1.00524 0.994922 0.990909
1.00526 0.995188 0.990457
1.00526 0.997352 0.988207
1.00527 0.995382 0.990279
1.00394 1.00419 0.983902
1.00467 1.00338 0.983587
1.00145 1.00474 0.987913
1.00293 1.00234 0.987014
1.00529 0.994966 0.991387
1.00533 0.995044 0.991007
1.00527 0.994948 0.991248
1.00525 0.994928 0.990973
1.005 1.00381 0.982776
1.00527 1.0023 0.983387
1.00524 0.999614 0.985907
1.00528 0.994922 0.990788
1.00531 0.994913 0.990724
1.00522 0.996825 0.988797
1.00529 0.994917 0.990558
1.00529 0.995257 0.990318
1.00512 1.00389 0.982532
1.00457 1.00459 0.982722
1.00407 1.00177 0.986471
1.00079 1.00462 0.988687
1.00226 1.00443 0.986304
1.00526 0.994952 0.991308
1.00528 0.994937 0.991114
1.00532 0.994896 0.990693
1.0053 0.994904 0.990666
1.00517 1.00366 0.982429
1.00528 0.994908 0.990515
1.00518 1.00151 0.983912
1.00519 0.998989 0.986536
1.00526 0.996321 0.989052
1.00006 1.00403 0.990428
1.00171 1.0051 0.987353
1.00334 1.00458 0.985652
1.00495 1.00473 0.982288
1.00492 1.00256 0.98434
1.00447 1.00446 0.982733
1.0002 1.00042 0.994061
1.00045 1.00479 0.989139
1.00526 0.995848 0.99002
1.00187 1.00338 0.987879
1.00443 1.00193 0.986142
1.00411 0.999944 0.987648
1.00526 0.99752 0.988198
1.00525 0.995574 0.989984
1.0052 1.00223 0.983858
1.0052 0.999989 0.986278
1.00531 0.99745 0.988045
1.00056 1.00384 0.990178
1.00093 1.00509 0.988327
1.00477 1.00197 0.984882
1.00319 1.00096 0.988559
1.00465 1.00033 0.986743
1.0053 0.995028 0.99059
1.00527 0.996335 0.989156
1.00524 0.995321 0.990046
1.00503 1.0014 0.984702
1.00519 0.998699 0.986836
1.00095 1.00468 0.98915
1.00096 1.00414 0.988486
1.00481 1.00229 0.984524
1.00397 1.00047 0.987019
1.005 1.00161 0.985603
1.00527 0.994847 0.990609
1.00529 0.996622 0.988606
1.00532 0.995631 0.989413
1.00504 1.0005 0.985634
1.00513 0.999153 0.986543
1.00033 1.00341 0.990962
1.00061 1.00435 0.98955
0.999832 1.00408 0.990821
0.999847 1.00469 0.989909
0.999906 1.00435 0.990699
0.999853 1.00477 0.99023
0.999985 1.00323 0.991668
0.999669 1.00491 0.99036
0.999866 1.00389 0.991291
0.999982 1.00205 0.992878
0.99999 1.00202 0.992864
1.00006 0.999131 0.996229
0.999969 1.00237 0.992452
1.00016 0.999198 0.996049
1.00023 0.99715 0.997604
1.00024 0.999385 0.995776
1.00023 0.997359 0.997382
1.00004 0.997747 0.9988
0.999806 1.00012 0.99494
0.999804 1.00133 0.993794
0.999752 0.99855 0.998758
1.00027 1.00214 0.992412
1.00002 0.999394 0.998207
1.00036 1.00019 0.997595
1.00525 0.995194 0.990801
1.00531 0.994909 0.991323
1.00528 0.994881 0.991007
1.00526 0.994954 0.991242
1.00528 0.994968 0.991402
1.0053 0.995877 0.990526
1.00528 0.994969 0.991412
1.00525 0.994947 0.991374
1.00526 0.994958 0.991152
1.00527 0.994939 0.991207
1.0053 0.99485 0.990926
1.00533 0.994926 0.990808
1.00526 0.994949 0.991361
1.00527 0.994931 0.991306
1.00529 0.99494 0.991076
1.00534 0.994854 0.990674
1.0053 0.994966 0.991385
1.00534 0.995037 0.991034
1.00527 0.994946 0.991218
1.00524 0.994932 0.990985
1.00482 1.00383 0.982794
1.00525 1.00249 0.983256
1.00525 0.999606 0.98589
1.00527 0.994924 0.990785
1.0053 0.994912 0.990697
1.00528 0.994913 0.990543
1.00525 0.996728 0.988798
1.00525 0.99526 0.990465
1.00479 1.00415 0.982601
1.00446 1.00465 0.982579
1.00423 1.00173 0.986503
1.00076 1.00447 0.988799
1.00197 1.00478 0.986311
1.00526 0.994952 0.991296
1.00528 0.994938 0.991124
1.00532 0.994903 0.990715
1.00519 1.00368 0.982479
1.00516 1.00173 0.983801
1.0052 0.998921 0.98654
1.0053 0.994903 0.990674
1.00524 0.996224 0.989266
1.00528 0.994906 0.990501
1.00001 1.00375 0.99069
1.00459 1.0047 0.982351
1.00422 1.00511 0.982569
1.00465 1.00312 0.984361
1.00358 1.00391 0.985554
1.0014 1.00511 0.987392
1.00528 0.994935 0.991232
1.00531 0.994909 0.990926
1.00532 0.994894 0.990594
1.00527 0.994884 0.990547
1.00487 1.00381 0.982884
1.00523 0.995161 0.990408
1.00502 1.00099 0.984766
1.00517 0.998472 0.986861
0.999923 1.00208 0.992454
1.00052 1.00508 0.989285
1.00238 1.00501 0.986945
1.0036 1.00441 0.984385
1.00432 1.0046 0.983908
1.00481 1.00451 0.982532
1.00045 1.00401 0.990169
1.00045 1.0051 0.988304
1.00528 0.995 0.990617
1.00311 1.0008 0.9886
1.00512 1.00189 0.984473
1.00399 1.0006 0.986474
1.00528 0.996356 0.989132
1.00526 0.995322 0.989999
1.0051 1.0015 0.984818
1.00519 0.998835 0.986772
1.00073 1.00471 0.989165
1.00142 1.00407 0.988271
1.00477 1.00232 0.984499
1.00432 1.0008 0.987093
1.00488 1.00188 0.985285
1.00529 0.994855 0.990616
1.00529 0.996499 0.988865
1.00531 0.995711 0.989505
1.00507 1.00042 0.985588
1.00509 0.999445 0.986288
0.999606 1.00464 0.989555
1.0011 1.00324 0.988333
1.00484 1.00138 0.985399
1.00512 1.00094 0.985429
1.00537 0.99481 0.990446
1.0053 0.995106 0.990244
1.00525 0.998032 0.987133
1.00511 0.999938 0.985629
1.00087 1.00433 0.989448
1 1.00415 0.990644
0.998926 1.00378 0.993303
0.999693 1.00459 0.990695
0.999158 1.00501 0.990405
0.999883 1.00389 0.991266
0.99962 1.00343 0.992087
0.999727 1.005 0.990311
0.999759 1.00077 0.994545
0.99969 1.00455 0.990937
0.999595 1.00469 0.990466
1.00005 1.00371 0.991186
0.999949 1.00226 0.992668
0.999943 1.00206 0.992864
0.999952 0.999152 0.996347
0.999966 1.00201 0.992867
1.00008 0.999104 0.996245
1.00013 0.997165 0.997709
1.00017 0.999148 0.996093
1.00021 0.997166 0.997594
1.00019 0.997433 0.99736
0.999967 0.999293 0.995556
0.999809 1.00027 0.994869
0.999736 0.997995 0.998942
0.999834 1.00143 0.993747
0.999817 0.998672 0.998653
1.00018 0.999447 0.998003
1.0053 0.994846 0.990948
1.00526 0.994962 0.991156
1.00532 0.994927 0.990743
1.00527 0.994938 0.991187
1.00525 0.994947 0.991376
1.00529 0.994971 0.991423
1.00526 0.994949 0.991368
1.00527 0.99493 0.991296
1.00529 0.994939 0.991036
1.00534 0.99485 0.990682
1.00528 0.994928 0.991321
1.00527 0.994921 0.991218
1.00534 0.9949 0.990809
1.00526 0.994953 0.991284
1.00528 0.994939 0.991133
1.00532 0.99491 0.990736
1.00525 1.00361 0.982533
1.00517 1.00191 0.983688
1.00521 0.998772 0.986542
1.0053 0.994901 0.990681
1.00529 0.994898 0.990486
1.00526 0.996041 0.98948
1.00436 1.00483 0.982412
1.00456 1.00504 0.982422
1.00445 1.00363 0.984389
1.00008 1.00357 0.99096
1.00398 1.00356 0.985457
1.00104 1.00512 0.98742
1.00528 0.994934 0.991253
1.00531 0.994908 0.990895
1.00532 0.994891 0.990593
1.00499 1.00363 0.982885
1.005 1.00092 0.984711
1.00517 0.998332 0.987193
1.00528 0.994887 0.990518
1.0051 0.995137 0.990357
0.999929 1.00211 0.992675
1.00039 1.00506 0.989261
1.00415 1.00378 0.983761
1.0046 1.0044 0.982937
1.00392 1.00407 0.984485
1.00218 1.00506 0.986743
1.0053 0.994914 0.991181
1.00535 0.994839 0.990634
1.00532 0.994896 0.990515
1.00522 0.994887 0.990342
1.00416 1.00259 0.984478
1.00518 0.996007 0.989369
1.005 1.00064 0.985358
1.00012 1.00115 0.993573
1.00023 1.00241 0.992304
0.999532 1.00391 0.991494
1.00113 1.00505 0.988277
1.00172 1.00508 0.986173
1.0044 1.00455 0.98306
1.00281 1.00452 0.985753
1.00351 1.00458 0.985155
1.00041 1.0047 0.98918
1.00197 1.00403 0.988056
1.0053 0.994866 0.990621
1.00462 0.99978 0.98717
1.0047 1.00237 0.984477
1.00488 1.00215 0.984976
1.00529 0.99636 0.989126
1.0053 0.995775 0.9896
1.00509 1.00029 0.985541
1.00503 0.999703 0.986033
1.00037 1.00439 0.98935
1.00195 1.00329 0.98806
1.00486 1.00138 0.985218
1.0052 1.00103 0.985562
1.00537 0.994797 0.990434
1.00533 0.995111 0.990186
1.0052 0.997952 0.98726
1.00511 1.00009 0.985695
0.999294 1.00457 0.990643
1.00542 0.994877 0.990439
1.00346 1.00256 0.987552
1.00505 1.00092 0.985254
1.00531 0.994721 0.990815
1.00515 0.997133 0.987195
1.00505 1.00081 0.985459
1.00007 1.00432 0.990467
0.998837 1.00349 0.993266
0.997685 1.00237 0.996269
0.999868 1.00376 0.991241
0.999699 1.00507 0.990261
0.998311 1.00436 0.992506
1.00007 1.00358 0.99117
0.999639 1.00477 0.990499
0.998585 1.00187 0.994961
0.999816 1.00446 0.990821
0.999237 0.999652 0.997356
0.99868 1.00314 0.99358
0.999578 1.00505 0.990421
1.00033 1.00462 0.989681
1.00021 1.00377 0.990748
0.999946 1.00243 0.992523
0.999892 1.00238 0.992647
0.999826 0.99932 0.996433
0.999894 1.00217 0.99285
0.999968 0.999189 0.996349
1.00001 0.997314 0.997798
1.00009 0.999077 0.996266
1.00014 0.997188 0.997704
1.0002 0.997196 0.997577
1.0001 1.00106 0.993725
1.00002 0.998856 0.995907
0.999945 0.9994 0.995507
0.999813 0.997655 0.999033
0.999809 1.00033 0.9948
0.999774 0.99814 0.998903
0.999921 0.998792 0.998519
1.00533 0.994847 0.99069
1.0053 0.994938 0.990996
1.00528 0.994929 0.991287
1.00526 0.994948 0.991376
1.00528 0.994925 0.991326
1.00528 0.99492 0.991224
1.00533 0.994894 0.990764
1.00528 0.994911 0.991265
1.00536 0.994892 0.991069
1.00556 0.995083 0.990996
1.00528 0.994934 0.991274
1.00531 0.994904 0.990863
1.00533 0.994891 0.990592
1.00481 1.00347 0.982889
1.00502 1.00115 0.98468
1.00502 0.998236 0.987514
1.00528 0.994896 0.990489
1.00516 0.995158 0.990307
1.00367 1.00449 0.983615
1.00416 1.00475 0.983296
1.00392 1.00347 0.984579
0.999958 1.002 0.992896
1.00024 1.00506 0.989234
1.002 1.00508 0.986539
1.0053 0.994908 0.99116
1.00012 1.00111 0.993564
1.00014 1.00241 0.992158
1.00534 0.99486 0.990645
1.0053 0.994903 0.990528
1.00448 1.0028 0.984422
1.00486 1.00036 0.985687
1.00514 0.996134 0.989288
1.00523 0.994882 0.990296
0.999662 1.00383 0.991644
1.00106 1.00506 0.988214
1.0029 1.00444 0.985615
1.00372 1.00434 0.984173
1.00439 1.0045 0.983053
1.00195 1.00504 0.986189
1.00539 0.994862 0.990913
1.00536 0.994854 0.990486
1.00526 0.994898 0.990442
1.00519 0.994961 0.990289
1.0034 1.00207 0.986473
1.00482 0.999074 0.987703
1.00012 1.00273 0.991765
0.999871 1.00243 0.99263
1.00179 1.00065 0.991957
1.00075 1.00396 0.989513
1.0014 1.0051 0.987679
1.00296 1.00458 0.985833
1.00237 1.00505 0.984093
1.00148 1.00119 0.991053
1.00083 1.00417 0.989147
1.00288 1.00351 0.987783
1.00538 0.994786 0.990422
1.00536 0.995128 0.990128
1.00522 1.00145 0.98569
1.0049 1.00142 0.985034
1.00516 0.997882 0.987387
1.00512 1.00027 0.985763
0.999951 1.00416 0.990516
1.00542 0.994881 0.990665
1.00267 1.00286 0.987996
1.00502 1.00096 0.985246
1.00532 0.994731 0.990833
1.00517 0.997286 0.98741
1.00492 1.0007 0.985397
0.999133 1.00503 0.992066
1.00496 0.994815 0.990654
1.00238 1.00249 0.988037
1.0045 1.00224 0.984385
1.00509 0.995577 0.990133
1.0037 1.001 0.986354
0.998884 0.994732 0.98533
0.998711 1.00351 0.993231
0.997602 1.00251 0.9963
0.997613 1.00179 0.997397
1 1.00362 0.991153
0.999551 1.0049 0.990533
1.00031 1.00425 0.990708
0.997997 1.00209 0.995393
1.00014 1.00387 0.990748
1.00022 1.00458 0.989835
0.999033 0.999311 0.997441
0.999587 1.00499 0.990412
0.999154 1.00319 0.993109
0.997754 1.00184 0.997282
1.0003 1.00399 0.990521
1.00001 1.0049 0.990217
1.00076 1.00439 0.989472
1.00019 1.00411 0.99022
1.00042 1.00499 0.989732
1.00007 1.00432 0.990134
0.999907 1.00244 0.992521
0.999913 1.00246 0.992508
0.999704 0.999362 0.995908
0.999883 1.00236 0.992625
0.999809 0.999351 0.996113
0.999984 0.997414 0.999088
0.999976 0.999231 0.996354
1.00003 0.997284 0.997794
1.00016 0.997204 0.997694
1.00001 1.00084 0.993988
1.00013 1.00094 0.99376
1.00008 0.998552 0.996188
1.00002 0.998875 0.996202
0.999861 0.997372 0.999111
0.999913 0.999558 0.995457
0.999812 0.997719 0.999013
0.999813 0.998195 0.998857
1.00531 0.994888 0.990719
1.00528 0.99492 0.99123
1.00528 0.994922 0.991331
1.00528 0.99491 0.991267
1.00535 0.994892 0.991032
1.00557 0.995082 0.990816
1.00544 0.994879 0.991061
1.00117 0.994836 0.980912
1.00498 0.995211 0.991404
1.00016 1.00203 0.992585
1.0053 0.994905 0.991139
1.00534 0.994875 0.990656
1.0053 0.994901 0.99054
1.00461 1.00244 0.984345
1.005 0.999896 0.985996
1.00492 0.996021 0.989197
1.00523 0.994873 0.990252
1.00339 1.00356 0.985534
1.00465 1.00414 0.983274
1.00458 1.00429 0.983041
1.0001 1.00113 0.993558
1.00248 1.00504 0.986202
0.99974 1.00381 0.991778
1.00094 1.00507 0.98815
1.00006 1.00241 0.992015
1.00539 0.994863 0.990911
1.0001 1.00264 0.991963
0.99987 1.00251 0.992671
1.00107 1.00105 0.992424
1.00536 0.994846 0.990465
1.00525 0.99488 0.990406
1.00283 1.0029 0.986579
1.00485 0.998114 0.988106
1.00519 0.994949 0.990254
1.00062 1.0039 0.989733
1.00158 1.00509 0.987566
1.00212 1.00191 0.989973
1.00351 1.00494 0.983842
1.00322 1.00369 0.986044
1.00541 0.994709 0.990987
1.00528 0.994852 0.99062
1.00521 0.994905 0.990011
1.00512 0.996455 0.990581
1.00183 1.00018 0.990464
0.99952 1.00343 0.991831
1.00193 1.00082 0.991216
1.00017 1.00053 0.992821
1.00118 1.00426 0.989625
1.00086 1.00482 0.988912
1.00099 1.00392 0.987992
1.00135 0.999728 0.992716
1.00105 1.00359 0.990363
1.0017 1.00312 0.988451
1.00542 0.994982 0.990883
1.00533 0.994748 0.990842
1.00518 0.997399 0.987625
1.00503 1.00095 0.985236
1.00479 1.00058 0.985342
0.999393 1.0047 0.992377
1.00464 0.994834 0.990864
1.00256 1.00243 0.988017
1.00467 1.00218 0.984332
1.00499 0.995479 0.990442
1.00396 1.00092 0.986433
0.998666 0.995308 0.983427
0.997942 1.00449 0.993649
1.00335 0.994804 0.991089
1.003 1.00292 0.98586
1.00305 1.00124 0.986963
1.00355 0.997525 0.990648
0.999962 0.994889 0.94114
0.995004 0.994783 0.962926
0.995878 0.998702 0.987605
0.998319 0.99478 0.852929
0.994705 0.994872 0.813306
0.997753 1.0024 0.996327
0.997414 1.00196 0.997532
0.9971 1.00318 0.997173
1.00013 1.0039 0.990749
1.00016 1.0045 0.989988
0.999697 1.00503 0.990404
0.999496 1.0034 0.992612
0.99885 0.999029 0.997516
0.999848 1.00497 0.990317
1.00025 1.00408 0.990295
1.00065 1.00446 0.989449
0.998184 1.00091 0.996825
0.999825 1.00431 0.990934
1.00043 1.00413 0.991172
0.998315 1.00416 0.993316
0.99975 1.00474 0.990769
1.0006 1.00466 0.988929
1.00015 1.00419 0.990277
1.00016 1.00494 0.989553
1.00045 1.00373 0.990941
0.999739 1.00489 0.99064
1.00019 1.00493 0.989771
1.00021 1.00427 0.990297
1.00012 1.0043 0.990146
0.999899 1.00252 0.992504
0.99992 1.00247 0.992527
0.999683 0.99939 0.995954
0.999865 1.00257 0.992494
0.999687 0.999405 0.995908
0.999936 0.997405 0.999122
0.999782 0.999402 0.995796
0.999945 0.997414 0.998472
1.00006 0.99726 0.997786
0.999897 1.0006 0.99438
0.999995 1.0009 0.993993
1.00009 0.998328 0.996411
1.00017 1.00081 0.993794
1.00007 0.998499 0.996487
0.999916 0.997042 0.999179
1.00004 0.998953 0.995837
0.999865 0.997508 0.999077
0.999823 0.997826 0.998996
1.00533 0.994893 0.990995
1.00528 0.994909 0.991269
1.00555 0.994911 0.990639
1.00041 0.994856 0.981085
1.00545 0.994882 0.991038
1.00491 0.994966 0.991336
1.00546 0.99505 0.991113
0.995937 0.994899 0.963233
1.0021 0.994859 0.982291
1.00023 1.00165 0.992933
1.00013 1.00219 0.992547
0.999394 1.00395 0.99174
0.999873 1.00256 0.99241
1.00538 0.994864 0.99091
1.00535 0.994859 0.990443
1.00525 0.994875 0.99037
1.00379 1.00329 0.986687
1.00472 0.996596 0.988546
1.00517 0.994942 0.990231
1.00189 1.00211 0.988838
1.0048 1.00472 0.983585
1.00326 1.00273 0.986248
0.999837 1.00255 0.992713
1.00141 1.00505 0.987475
1.00054 1.00401 0.989954
1.00001 1.00274 0.992158
1.00035 1.0015 0.992877
1.0054 0.994757 0.990984
0.999863 1.00351 0.991523
1.00175 1.00052 0.991644
0.998028 1.00113 0.99589
1.00529 0.994873 0.990553
1.00521 0.994949 0.990023
1.00298 0.999514 0.990497
1.00479 0.995765 0.990662
1.00136 1.00445 0.988849
1.00095 1.00449 0.988073
1.00127 1.00066 0.992681
1.00266 1.0037 0.987379
1.00421 0.995496 0.991224
1.00518 0.995139 0.990747
1.00509 0.995752 0.989725
1.00354 0.995846 0.993623
0.997376 1.0048 0.994037
1.00171 1.00168 0.990249
0.997923 1.00454 0.993662
0.999193 1.00397 0.992275
1 0.994904 0.926853
0.999366 1.00451 0.992703
1.00244 1.00274 0.987982
1.00424 0.994791 0.991107
1.00491 0.995395 0.990745
1.00417 1.00085 0.986488
1.00465 1.00221 0.984267
0.998585 0.996119 0.981355
0.998456 1.00424 0.99365
1.00314 0.995436 0.990966
1.003 1.00347 0.985815
1.00366 1.00102 0.987098
1.00381 0.997727 0.990434
0.999911 0.994871 0.927376
0.99545 0.994815 0.959564
0.995916 0.9985 0.987929
0.997611 0.994761 0.85759
0.994723 0.994916 0.805702
0.998856 1.00433 0.992076
0.999604 0.994807 0.863406
0.994735 0.994824 0.804295
1.00072 0.998546 0.992602
1.00151 1.00203 0.98953
1.00157 0.999751 0.992563
0.99489 0.997373 0.991003
0.997428 0.994789 0.940524
0.994888 0.994785 0.955599
0.995857 0.994801 0.877937
0.994736 0.994834 0.793115
0.997075 1.00217 0.997676
0.997002 1.00279 0.997064
0.996914 1.00479 0.996211
1.00034 1.004 0.990367
1.00062 1.00448 0.989427
0.999341 1.00504 0.990417
0.999504 1.0045 0.991344
0.998706 1.00007 0.996381
1.00024 1.00408 0.990268
1.00013 1.00427 0.990947
0.999652 1.00488 0.990497
1.00078 1.00468 0.989079
0.998264 1.00385 0.99361
0.999176 1.00391 0.993013
0.996916 1.00502 0.99453
0.999863 1.00503 0.98981
1.00049 1.00472 0.989483
1.00036 1.00495 0.989521
1.00021 1.00321 0.991347
1.00001 1.00492 0.990358
1.00039 1.00241 0.992053
0.999119 1.00171 0.993504
0.998542 1.00473 0.992083
0.999338 1.00473 0.990957
0.999815 1.0047 0.99067
1.00015 1.00435 0.99022
1.00004 1.00487 0.989811
1.00026 1.00424 0.990223
0.999975 1.00261 0.992295
1.00019 1.00427 0.990157
0.999918 1.00246 0.992517
0.999891 0.999345 0.996388
0.999863 1.00252 0.992533
0.99974 0.999347 0.996213
0.999893 0.997364 0.997966
0.999677 0.999404 0.995905
0.999928 0.997422 0.999131
0.999931 0.997451 0.997853
1.00032 1.00168 0.992718
0.99992 1.00042 0.994554
0.999897 1.00065 0.994372
1.00005 0.998233 0.996545
0.999972 1.00097 0.993998
1.0001 0.998299 0.996405
0.999965 0.996902 0.999216
1.00007 0.998504 0.996735
0.999915 0.997219 0.998579
0.999882 0.997555 0.997845
0.999902 0.994835 0.981225
1.00549 0.994867 0.99101
1.00487 0.994883 0.991258
0.996216 0.994837 0.963729
1.00217 0.994898 0.982685
1.00541 0.995392 0.991105
1.00349 0.995898 0.986141
0.997596 0.994832 0.965936
0.999909 0.994855 0.940212
0.997035 0.994795 0.87913
0.994664 0.994831 0.811674
0.999622 1.00267 0.992524
1.00023 1.00163 0.992918
1.00023 1.00209 0.992505
0.999726 1.00334 0.991993
0.998708 1.00462 0.99275
1.00051 1.00238 0.991711
1.00021 1.00328 0.99152
1.00016 1.00232 0.992297
1.00542 0.994791 0.990973
1.0053 0.994874 0.990494
1.00519 0.995131 0.990033
1.00291 1.00022 0.990532
1.00458 0.995803 0.990729
1.00121 1.00052 0.992635
1.0041 1.0035 0.986778
1.00214 1.00481 0.98724
1.00152 1.00026 0.99206
1.00158 1.00459 0.988021
1.00036 1.00335 0.991231
0.996445 1.00194 0.998836
1.00425 0.994963 0.99152
0.997801 1.00448 0.993913
1.00127 1.00184 0.99151
1.00492 0.994978 0.99072
1.00472 0.996038 0.990057
1.00296 0.995817 0.993361
0.999516 1.00491 0.991638
1.00014 1.00267 0.992511
1.00333 0.995192 0.990444
1.00354 0.998676 0.990571
1.00435 0.995946 0.991593
1.00084 0.99736 0.995041
0.998974 1.00494 0.9916
0.998352 1.00486 0.992655
0.998982 1.00503 0.992431
0.999798 0.994926 0.865279
1.00013 0.99487 0.941836
0.999468 1.00367 0.993662
1.0032 1.0039 0.985787
1.00293 0.995857 0.990835
1.00411 0.997914 0.990235
1.00411 1.00097 0.987265
0.999991 0.994856 0.939271
0.995781 0.994791 0.959125
0.995954 0.998537 0.988317
0.997136 0.994809 0.876648
0.994743 0.994853 0.797638
0.999174 1.00433 0.992053
0.999819 0.994851 0.861816
0.994705 0.994807 0.797604
1.00075 0.998711 0.992502
1.00151 1.00233 0.989556
1.0014 0.999867 0.993003
0.99489 0.998531 0.991821
0.997842 0.994797 0.933785
0.994961 0.994799 0.956182
0.995191 0.994811 0.877681
0.994752 0.994835 0.791241
0.997963 1.00454 0.994736
0.994729 0.994787 0.793139
0.994743 0.994775 0.798723
0.996909 1.00151 0.997053
0.999773 1.00191 0.995439
0.994904 0.999261 0.98853
0.995031 0.99484 0.95869
0.995 0.994761 0.929277
0.994748 0.994885 0.881643
0.994839 0.994863 0.800757
0.997139 1.0022 0.996962
0.997525 1.00432 0.995831
0.996363 1.00382 0.996762
1.0003 1.00399 0.990258
1.00084 1.00464 0.98923
0.999763 1.00504 0.990221
0.999708 1.00447 0.990724
0.99789 1.00359 0.993905
1.00049 1.00476 0.989461
0.999246 1.00367 0.992533
1.00016 1.00498 0.98983
0.996486 1.00492 0.994831
0.995994 1.0051 0.996946
0.998359 1.00477 0.992934
1.00048 1.00501 0.989797
1.00057 1.00466 0.98949
1.00002 1.00278 0.991743
0.99989 1.0048 0.990309
1.00055 1.00214 0.991948
0.998784 1.00235 0.993953
0.998827 1.00384 0.992383
0.998175 1.00508 0.99249
0.998665 1.00143 0.995561
1.00033 1.00246 0.99218
1.00323 0.999441 0.990633
0.998843 1.00476 0.991442
0.998818 1.0047 0.992108
0.999348 1.00497 0.990135
0.99944 1.00484 0.990988
1.00019 1.00435 0.990114
0.999619 1.00483 0.990697
1.00016 1.00436 0.990283
1.00003 1.00279 0.991923
1.00031 1.00427 0.990149
0.999976 1.0026 0.992303
1.00003 0.999365 0.99613
0.999936 1.00243 0.992531
0.999873 0.999329 0.996026
1.00001 0.997267 0.997807
0.999733 0.999338 0.995924
0.999951 0.997344 0.999143
0.999923 0.997411 0.999141
1.00039 1.00212 0.992501
0.999962 1.00059 0.99436
1.00021 1.00185 0.992732
1.00005 0.998168 0.996606
0.999901 1.00045 0.994548
0.999876 1.00072 0.994364
1.00006 0.998235 0.996533
0.999993 0.996807 0.999237
1.00007 0.998322 0.996921
0.999973 0.996912 0.998665
0.999932 0.997209 0.998049
0.999638 0.994844 0.84912
0.994716 0.994797 0.792349
0.996298 0.994846 0.964204
1.00171 0.994939 0.983206
1.00533 0.994782 0.991117
0.997377 0.994877 0.964977
1.00347 0.994862 0.986687
1.00013 0.994859 0.936019
0.997407 0.994741 0.858415
0.994714 0.994836 0.804433
0.997704 0.994762 0.972296
0.99743 0.994823 0.941384
0.996262 0.994813 0.877636
0.994789 0.994852 0.801508
0.999918 1.00359 0.991825
0.999814 1.00241 0.99263
1.00015 1.00177 0.992909
0.999869 1.00298 0.992247
0.998443 1.00428 0.993328
1.00034 1.00383 0.990476
1.0001 1.00315 0.991684
1.00069 1.00362 0.990034
1.00018 1.00328 0.991394
0.999898 1.0028 0.992179
1.00405 0.994758 0.9918
1.00478 0.994927 0.990688
1.00411 0.996151 0.990392
1.00238 0.9961 0.993096
1.00057 1.00246 0.992727
0.999514 1.00499 0.989664
1.00043 1.00178 0.992914
0.998099 1.00415 0.993757
1.00233 0.995148 0.990962
0.999056 1.00505 0.991346
0.998049 1.00499 0.992703
1.00327 0.998164 0.990601
1.00402 0.995791 0.991729
1.00077 0.997712 0.995301
0.998936 1.00501 0.992034
0.999952 0.995525 0.989253
1.00094 0.999046 0.99446
0.99742 1.00257 0.996183
0.998522 1.00477 0.990861
0.997905 1.00507 0.992066
0.998489 1.00499 0.992672
0.994715 0.994818 0.816086
0.999794 0.994874 0.871082
1.00004 0.994871 0.927232
0.999149 1.00447 0.992007
1.0018 1.00249 0.989543
1.00076 0.99837 0.992392
1.0011 0.999813 0.993447
0.999824 0.994897 0.875751
0.997492 0.994812 0.927695
0.994873 0.994821 0.955631
0.994898 0.999506 0.992506
0.995861 0.994808 0.861953
0.994681 0.994798 0.803838
0.994802 0.994918 0.80675
0.997906 1.00393 0.994431
0.994715 0.994798 0.803088
0.994764 0.99478 0.798077
0.997055 0.999974 0.997685
0.999237 1.00157 0.995328
0.994896 0.997934 0.990555
0.99522 0.994807 0.957419
0.995752 0.994806 0.940861
0.994699 0.996641 0.86288
0.995113 0.994862 0.810894
0.996773 1.00349 0.997941
0.994768 0.99482 0.806855
0.994811 0.994809 0.79626
0.994828 1.00253 0.999892
0.995065 0.996734 0.966776
0.994804 0.995338 0.938779
0.994895 0.994907 0.856491
0.995737 0.994898 0.822997
0.998074 1.00322 0.995415
0.996761 1.00412 0.996872
0.995523 1.00405 0.998449
1.00033 1.00482 0.989437
1.00032 1.00503 0.989852
0.999338 1.00335 0.992052
0.996329 1.00474 0.995135
0.999984 1.00502 0.989817
0.998228 1.00487 0.992903
0.995617 1.00495 0.997207
0.994935 1.00459 0.998487
0.995793 1.00507 0.997079
0.998982 1.00511 0.992236
0.999915 1.00498 0.990256
1.00067 1.00159 0.991847
0.99831 1.00287 0.994391
0.998199 1.00507 0.992594
0.99928 1.00368 0.992314
0.998131 1.00204 0.995613
0.998338 1.00366 0.993629
0.995736 1.00513 0.997243
1.00156 0.998793 0.994434
0.99986 1.00188 0.993173
1.00194 1.00044 0.991024
1.00479 1.00008 0.987524
1.00237 1.00138 0.990415
1.0022 0.999008 0.992166
0.999406 1.00454 0.991249
0.99958 1.00509 0.989595
0.999154 1.00461 0.992134
0.999856 1.00504 0.990136
1.00035 1.00451 0.989575
0.99991 1.00469 0.991015
1.00045 1.00416 0.990097
1.00012 1.00311 0.991556
1.00033 1.00416 0.990348
1.00013 1.00278 0.991927
1.00017 0.999458 0.995835
1.00006 1.00248 0.992311
1.00002 0.999381 0.995728
1.0001 0.997358 0.99761
0.99988 0.999294 0.995727
1.00001 0.997279 0.998476
0.999965 0.997307 0.999125
1.00032 1.00284 0.991481
1.00011 1.00075 0.994016
1.00028 1.00216 0.992309
1.00005 0.998217 0.996546
0.99998 1.00053 0.994371
1.00021 1.00178 0.992745
1.00002 0.996751 0.999249
1.00004 0.998173 0.996606
0.999902 1.00049 0.994544
1.00007 0.998226 0.996521
0.999993 0.996845 0.999232
0.99996 0.996913 0.99921
0.994703 0.994765 0.794331
0.999695 0.99484 0.862054
0.99476 0.994774 0.796156
0.994733 0.994793 0.792331
0.997595 0.994879 0.963428
1.00333 0.99478 0.987232
0.999718 0.99483 0.931083
0.998705 0.994794 0.878855
0.99476 0.994832 0.797057
0.998347 0.994805 0.971244
0.997736 0.994831 0.927053
0.995323 0.994841 0.876583
0.994727 0.994849 0.793938
0.994905 0.994792 0.963533
0.996001 0.994739 0.927824
0.994841 0.997193 0.855227
0.994831 0.994873 0.801741
1.00065 1.00471 0.990333
0.999455 1.00361 0.991961
1.00001 1.00215 0.992732
0.997982 1.00385 0.993914
1.00104 1.0037 0.989381
1.00023 1.00375 0.9907
0.999593 1.00357 0.991661
1.00122 1.00297 0.990177
1.00075 1.00383 0.990092
1.00029 1.00299 0.991269
1.00198 0.994776 0.991452
1.003 0.997655 0.990641
1.00385 0.995728 0.991868
1.00038 0.997314 0.995566
1.00027 1.00498 0.991614
0.998349 1.00507 0.99276
0.999119 1.00509 0.991088
0.999749 1.00473 0.990597
0.999645 0.996286 0.989862
0.998852 1.0051 0.991788
0.999162 1.00496 0.992494
1.00065 0.998933 0.994879
0.998672 1.00127 0.995993
0.996231 1.00074 0.988741
0.996654 0.999733 1.00054
0.995429 1.00516 0.996562
0.998476 1.00463 0.992737
0.997137 1.00511 0.994368
0.994795 0.994808 0.813342
0.994711 0.994799 0.811653
0.999815 0.994905 0.852608
0.997991 1.00395 0.994191
0.999079 1.00097 0.995219
0.997279 0.99954 0.998316
0.994687 0.994783 0.801062
0.995942 0.994756 0.929056
0.995343 0.99482 0.956817
0.994869 0.996137 0.992957
0.994758 0.996042 0.882439
0.994772 0.994784 0.798284
0.995438 0.994862 0.812493
0.997052 1.00345 0.99797
0.994779 0.994822 0.809496
0.994799 0.994811 0.797352
0.995093 1.00185 0.998937
0.995143 0.995907 0.968571
0.994804 0.99557 0.926763
0.99537 0.994883 0.81837
0.995196 0.998443 0.865158
0.994859 1.00477 1.00025
0.994791 0.994832 0.798069
0.994868 0.994829 0.807962
0.99483 0.994863 0.801819
0.994756 0.998918 0.989354
0.99489 0.997301 0.941947
0.99768 0.995625 0.875711
0.99717 1.00474 0.997006
0.995693 1.00469 0.998178
0.99499 1.00523 0.999106
0.999883 1.00501 0.989841
0.998178 1.00502 0.992868
0.995355 1.00508 0.997462
0.998501 1.0051 0.99223
0.995889 1.00511 0.997074
0.994978 1.00501 0.998394
0.994936 1.00508 0.998634
0.995577 1.00511 0.997226
0.997981 1.00506 0.992722
0.99966 1.00371 0.992242
0.997838 1.00283 0.995669
0.99584 1.00485 0.997137
0.998177 1.00395 0.993699
0.998423 1.00149 0.996386
0.998739 0.998738 0.998236
1.00218 0.999864 0.990088
0.999433 1.00137 0.994099
1.00233 1.00033 0.990689
1.00449 1.00155 0.986089
1.00481 1.00257 0.984456
1.00419 0.999089 0.989342
1.00387 1.00012 0.987739
1.00131 1.00425 0.988751
1.00155 1.00174 0.990758
1.00118 0.998597 0.993669
0.999974 1.00437 0.991056
0.999938 1.00508 0.989576
1.00033 1.00508 0.988845
1.00037 1.00504 0.990142
1.00051 1.00455 0.989568
1.0002 1.00344 0.991009
1.00061 1.004 0.990078
1.00018 1.00297 0.991554
1.0002 0.999651 0.995597
1.0001 1.00283 0.99193
1.00014 0.999511 0.995413
1.00021 0.997429 0.997403
1.00003 0.999394 0.995398
1.0001 0.997326 0.998338
1.00004 0.997272 0.999056
1.00069 1.00295 0.990629
1.00014 1.00117 0.993198
1.00047 1.0027 0.99148
1.00012 0.998294 0.996358
1.00009 1.00076 0.993846
1.00021 1.00223 0.992119
1.00005 0.996764 0.999232
1.00006 0.998186 0.996558
0.999997 1.00045 0.994381
1.00002 0.996781 0.999246
1.00003 0.998193 0.996607
0.999994 0.996832 0.999227
0.994817 0.994816 0.803414
0.99471 0.99481 0.808289
0.999617 0.994804 0.860778
1.00114 1.00283 0.990266
0.994807 0.9948 0.802465
0.994762 0.994776 0.796108
0.994765 0.994809 0.806348
0.998799 0.994821 0.970582
0.997168 0.994785 0.94098
0.996009 0.994814 0.859433
0.9947 0.99484 0.8041
0.995984 0.994812 0.961267
0.995831 0.99535 0.939691
0.99475 0.995492 0.858731
0.994851 0.994869 0.804961
0.994827 0.994778 0.955607
0.994777 0.994787 0.936671
0.995827 0.999291 0.868763
0.995267 0.99489 0.823233
0.999365 1.00459 0.991152
0.999972 1.00458 0.990369
0.999659 1.00344 0.9921
1.00105 1.00246 0.99064
1.00088 1.00403 0.989584
1.00015 1.00408 0.990921
1.00127 1.00309 0.990111
1.00077 1.00387 0.990145
0.998549 0.997359 0.990322
0.999979 0.998771 0.995216
0.999981 1.00466 0.990325
1.00004 0.999935 0.995815
0.999363 1.00493 0.992324
0.999424 1.0051 0.991512
0.998492 1.00433 0.992657
0.99582 1.00002 0.989202
0.997749 1.00501 0.994381
0.996573 1.00383 0.996859
0.995991 1.00033 1.00057
0.997959 1.00404 0.994336
0.994766 1.0008 0.98696
0.995259 1.00266 0.998906
0.995682 1.0051 0.99739
0.997042 1.00514 0.995672
0.99477 0.994812 0.80311
0.994796 0.994809 0.81042
0.994704 0.994778 0.807068
0.997111 1.00359 0.997973
0.995345 1.00075 0.997955
0.994795 0.994827 0.811937
0.994752 0.99532 0.940089
0.995396 0.995971 0.965664
0.99535 0.997115 0.863435
0.994796 0.994813 0.798205
0.994894 0.994864 0.813723
0.995161 1.00483 1.00001
0.994792 0.994828 0.798268
0.994868 0.994846 0.808003
0.994804 0.999508 0.99311
0.994852 0.99486 0.805033
0.994854 0.996602 0.934109
0.996337 0.997434 0.877589
0.994883 1.00346 0.997999
0.994839 0.99484 0.80696
0.994803 0.994805 0.804035
0.994786 0.994846 0.801293
0.99608 0.999239 0.868053
0.994876 1.00113 0.972862
0.995376 0.99756 0.927046
0.99608 1.00503 0.997922
0.995159 1.00519 0.999105
0.994849 1.0053 0.998282
0.997901 1.00511 0.992222
0.995405 1.00513 0.997073
0.994964 1.00509 0.998328
0.995492 1.00493 0.997195
0.994936 1.00504 0.998635
0.997497 1.00225 0.998445
0.995665 1.00471 0.997021
0.997793 1.00421 0.993802
0.998031 1.0017 0.996812
0.99842 1.0007 0.994317
0.9962 0.998706 1.00178
1.00184 0.99964 0.991373
1.0044 1.00455 0.982383
1.00439 1.00293 0.984324
1.00275 1.00021 0.990288
1.00432 1.00187 0.985569
1.00506 1.00239 0.984007
1.00508 1.00065 0.986084
1.00441 1.00238 0.984743
1.00285 1.00152 0.988748
1.00363 0.999731 0.989135
1.00304 1.00015 0.987982
1.00054 1.00512 0.988381
1.00081 1.00434 0.988955
1.00071 1.00206 0.991088
1.0003 1.00507 0.989556
1.00061 1.00507 0.988878
1.00028 1.00435 0.989978
1.00066 1.00473 0.98956
1.00028 1.00346 0.990996
1.00017 0.99989 0.994611
1.00036 1.00287 0.991553
1.00022 0.999679 0.994799
1.00013 0.997449 0.998853
1.00011 0.999624 0.995054
1.00017 0.997404 0.998185
1.00012 0.997306 0.998966
1.00058 1.00318 0.990576
1.00033 1.00167 0.992456
1.00063 1.00302 0.990807
1.0002 0.998487 0.996059
1.00024 1.00114 0.993109
1.00051 1.00268 0.991473
1.00008 0.996775 0.999189
1.00013 0.998262 0.996374
1.0001 1.00075 0.993676
1.00005 0.99675 0.999239
1.00007 0.998153 0.996571
1.00001 0.996816 0.999244
0.994794 0.994826 0.806518
0.994813 0.994813 0.803785
0.994701 0.994822 0.807892
1.00116 1.00281 0.990383
1.00037 1.00407 0.989989
1.0015 1.00155 0.99139
0.994876 0.994846 0.806979
0.994811 0.9948 0.803414
0.994763 0.994767 0.796189
0.996957 0.994799 0.961414
0.994994 0.994757 0.927664
0.99478 0.996793 0.880891
0.994835 0.994852 0.799231
0.994973 0.99482 0.957109
0.994807 0.996592 0.932566
0.99585 0.997445 0.865624
0.995197 0.994885 0.818379
0.995025 0.995358 0.954755
0.994857 0.99698 0.936419
0.996822 0.99537 0.876648
0.994839 0.994866 0.802174
0.999454 1.0024 0.993001
1.00004 1.00395 0.990935
0.99997 1.00428 0.990402
1.00114 1.00247 0.99057
1.00052 1.00441 0.989788
1.00126 1.00324 0.990045
0.995751 0.999555 0.989903
0.995809 1.00111 1.00074
0.999099 1.00356 0.992578
0.998193 1.0026 0.997057
0.998236 1.00459 0.99439
0.997397 1.00375 0.994929
0.996438 1.00482 0.995896
0.994766 1.00223 0.986875
0.995471 1.00516 0.997718
0.995031 1.00337 0.9983
0.996404 1.0048 0.996405
0.995605 0.999657 0.985405
0.995262 1.00527 0.994879
0.994806 1.00385 0.999101
0.994859 0.99484 0.802154
0.994776 0.99482 0.80217
0.994798 0.994808 0.807546
0.995464 1.0045 0.99973
0.994838 0.999685 0.988789
0.994786 0.994824 0.798478
0.99484 0.99738 0.93365
0.996519 0.995635 0.862502
0.994875 0.994846 0.80802
0.994831 0.99485 0.79951
0.994848 1.00329 0.998499
0.994826 0.994838 0.806742
0.994819 0.9948 0.805065
0.994891 1.0004 0.970246
0.994714 0.994843 0.794152
0.995783 0.998427 0.864407
0.994854 0.995787 0.940929
0.994913 1.00519 0.98943
0.994788 0.994832 0.807249
0.994772 0.994788 0.797606
0.994663 0.994844 0.813166
0.994814 0.997106 0.854098
0.99489 0.997402 0.936739
0.994849 1.0013 0.964504
0.995164 1.00517 0.999054
0.994918 1.00527 0.998199
0.995844 1.00448 0.997361
0.995786 1.00461 0.997169
0.99494 1.00502 0.998674
0.996142 1.00377 0.99833
0.999004 0.999704 0.998279
0.997659 1.00197 0.997215
1.00101 1.00039 0.993257
1.0022 1.00492 0.986074
1.00121 0.999478 0.993001
1.00424 1.00433 0.983358
1.00431 1.00409 0.982675
1.00498 1.00111 0.984789
1.00505 1.00172 0.984556
1.00433 1.00303 0.984188
1.00432 1.00218 0.985062
1.00516 1.00179 0.984396
1.00508 1.00223 0.984126
1.00455 1.00047 0.987024
1.00466 1.0007 0.986341
1.00391 1.0022 0.985035
1.00126 1.00434 0.988104
1.00258 1.00206 0.988668
1.00299 1.00044 0.988917
1.00054 1.00496 0.9889
1.00091 1.00511 0.988391
1.00041 1.00443 0.989162
1.0009 1.00507 0.988914
1.0005 1.00413 0.989988
1.00011 1.00052 0.994077
1.00044 1.00329 0.990983
1.00021 0.99992 0.994589
1.00017 0.997611 0.998808
1.00024 0.999671 0.994806
1.00021 0.997485 0.99807
1.00017 0.997442 0.998881
1.00093 1.00343 0.990133
1.00047 1.00198 0.992128
1.00075 1.00296 0.990632
1.00028 0.998764 0.995644
1.00033 1.00167 0.992542
1.00061 1.00301 0.99099
1.00012 0.996861 0.999121
1.00021 0.998426 0.99608
1.0003 1.00111 0.993021
1.00008 0.996783 0.999202
1.00014 0.998231 0.996391
1.00005 0.996772 0.999247
0.994833 0.994837 0.805644
0.994795 0.994842 0.806749
0.994811 0.99482 0.804157
0.999675 1.0052 0.989709
1.00107 1.00392 0.990743
1.001 1.00283 0.990509
1.0004 1.00405 0.989898
1.00075 1.00171 0.991702
1.00036 1.0028 0.991187
0.999715 1.00135 0.993628
0.994828 0.994813 0.7974
0.994877 0.994849 0.807083
0.994809 0.994825 0.804374
0.994896 0.994883 0.813542
0.995485 0.995057 0.955692
0.994818 0.997145 0.927145
0.995874 0.994916 0.879568
0.994903 0.995461 0.954278
0.994898 0.998451 0.923226
0.996048 0.997428 0.877676
0.994939 0.994861 0.81219
0.995553 0.99625 0.958447
0.994866 0.998326 0.925714
0.994895 0.994919 0.857275
0.994745 0.994836 0.794371
0.997019 1.00448 0.995288
0.999134 1.00297 0.993472
1.00007 1.00418 0.990719
1.00112 1.00279 0.990509
0.994836 1.00169 0.986771
0.994852 1.00381 0.997611
0.99697 1.00457 0.995522
0.996619 1.00481 0.996132
0.995248 1.00517 0.998159
0.996009 1.0049 0.996478
0.99542 1.004 0.999157
0.995562 1.00032 0.982188
0.995217 1.00525 0.995024
0.99569 1.00386 0.998168
0.995281 1.00271 0.978837
0.994856 1.00323 0.999182
0.994771 0.994822 0.804176
0.994846 0.994839 0.805855
0.994785 0.994835 0.801209
0.994797 1.00339 0.998987
0.994876 1.0006 0.973627
0.994816 0.994836 0.806566
0.994867 0.997887 0.928245
0.996224 0.994997 0.878639
0.994822 0.994832 0.805963
0.99469 0.994845 0.804041
0.994901 1.00495 0.990369
0.994802 0.994836 0.80751
0.99476 0.994789 0.79762
0.994844 0.999949 0.964634
0.99472 0.994857 0.805943
0.994727 0.996496 0.857055
0.994876 0.997789 0.924209
0.994861 1.00448 0.984465
0.994831 0.994814 0.803606
0.994704 0.994805 0.793972
0.995676 0.994826 0.879487
0.994746 0.995565 0.936493
0.994817 0.999959 0.95849
0.994937 1.0053 0.99852
0.995392 1.00464 0.997444
0.996782 1.00152 0.997895
0.995086 1.00504 0.998208
0.996997 1.00186 0.99864
1.00156 1.00138 0.992373
1.00356 0.999862 0.992206
1.00304 1.00498 0.98526
1.0043 1.00259 0.984112
1.00389 1.00408 0.984334
1.00442 1.00416 0.98263
1.00456 1.0029 0.983886
1.00525 0.998923 0.98638
1.00511 1.00049 0.985578
1.00501 1.00125 0.984749
1.00513 1.00154 0.984604
1.005 1.00156 0.984554
1.00423 1.00314 0.984049
1.00519 1.00167 0.98464
1.00516 1.00197 0.984323
1.00509 1.00208 0.984249
1.00332 1.00226 0.987453
1.0039 1.0009 0.987476
1.00435 1.00069 0.986601
1.00086 1.00513 0.987923
1.00161 1.00417 0.988146
1.00216 1.00268 0.988587
1.00019 1.00118 0.993263
1.00072 1.00482 0.988932
1.00122 1.00508 0.988401
1.00064 1.00402 0.989996
1.00013 1.00057 0.994044
1.00013 0.997841 0.998724
1.00023 0.999952 0.994568
1.00017 0.997579 0.998793
1.00019 0.997428 0.99883
1.00021 1.00515 0.989924
1.00085 1.00497 0.989162
1.0007 1.0025 0.991264
1.00067 1.00377 0.9901
1.00027 0.999166 0.995234
1.00047 1.00201 0.992123
1.00081 1.00292 0.990689
1.00013 0.997058 0.999019
1.00026 0.998761 0.995666
1.00034 1.00169 0.992624
1.00011 0.996852 0.999142
1.00022 0.998393 0.996105
1.00008 0.996763 0.999217
0.994799 0.99484 0.799021
0.994823 0.994832 0.805455
0.994802 0.994832 0.806974
1.00003 1.00517 0.989715
1.00017 1.00324 0.990989
1.00118 1.00262 0.988621
0.998914 1.00426 0.990948
1.00156 1.00246 0.991255
1.00067 1.00413 0.989805
1.00039 1.00205 0.992014
1.00028 1.00353 0.991206
1.00011 1.00121 0.9938
0.998964 1.00383 0.993792
0.994752 0.99477 0.799392
0.994809 0.994817 0.798591
0.994879 0.994838 0.807135
0.995139 0.994861 0.813708
0.995633 0.995368 0.86312
0.994869 0.994935 0.953368
0.994814 0.997028 0.935676
0.995558 0.996015 0.954556
0.994849 0.996474 0.937979
0.995025 0.998561 0.866277
0.99476 0.994831 0.792518
0.994931 0.997901 0.95763
0.994835 0.998934 0.93758
0.994762 0.994886 0.88206
0.994708 0.994874 0.814946
0.998865 1.00087 0.9963
0.996664 1.00432 0.995809
0.999132 1.00278 0.993961
0.995206 1.0025 0.978662
0.995067 1.00523 0.994965
0.995762 1.00487 0.996535
0.994786 1.00441 0.999223
0.99586 1.00379 0.998097
0.994901 1.00248 0.999633
0.994921 1.00196 0.978611
0.996071 1.00122 1.00053
0.995197 1.00045 0.985162
0.994806 0.994818 0.812707
0.994791 0.994832 0.803228
0.994834 0.994833 0.809641
0.994941 1.00481 0.990646
0.994857 0.999954 0.962281
0.99482 0.994841 0.807772
0.994841 0.998053 0.936337
0.994758 0.996693 0.878114
0.994753 0.994765 0.797875
0.994763 0.994832 0.79851
0.995294 1.00481 0.98511
0.994815 0.994817 0.803828
0.994726 0.9948 0.793982
0.995017 0.998548 0.959572
0.995159 0.994806 0.877465
0.994796 0.996893 0.930425
0.99526 1.00251 0.982011
0.994703 0.994775 0.795198
0.997303 0.994802 0.880062
0.995712 0.994749 0.928101
0.99487 0.995603 0.9602
0.995599 1.00513 0.99756
0.995796 1.00334 0.997771
0.99852 1.00168 0.996452
0.995075 1.0045 0.999051
1.00012 1.00157 0.993619
1.00412 0.998081 0.990114
1.0039 1.00506 0.984431
1.00411 1.00283 0.984017
1.0046 0.999627 0.986599
1.00467 1.00427 0.982583
1.00468 1.00238 0.983969
1.00504 0.99888 0.986885
1.00535 0.996316 0.988699
1.00527 0.998449 0.986667
1.00525 0.99885 0.986439
1.00515 1.00046 0.985691
1.00512 1.00051 0.985507
1.00499 1.00133 0.984707
1.00519 1.00203 0.984246
1.00513 1.00144 0.984574
1.00496 1.00146 0.98455
1.00479 1.00156 0.985723
1.00475 1.00204 0.984892
1.00516 1.0022 0.98425
1.00183 1.00421 0.987167
1.00306 1.00234 0.987397
1.00344 1.00119 0.987924
1.00028 1.00227 0.99315
1.00114 1.00509 0.987958
1.00195 1.00395 0.988189
1.00015 0.998476 0.996336
1.00022 1.00143 0.993617
1.0009 1.0047 0.988965
1.00017 1.00065 0.994008
1.00015 0.997937 0.998664
1.00018 0.997582 0.998775
1.00125 1.00408 0.98881
1.00126 1.00515 0.98844
0.999495 1.00515 0.989849
1.00063 1.00371 0.990219
1.00066 1.00477 0.989129
1.00021 0.999636 0.994857
1.00058 1.00269 0.991285
1.00055 1.00404 0.990061
1.00012 0.997353 0.998932
1.00028 0.999124 0.995255
1.00046 1.00202 0.992118
1.00013 0.997047 0.999051
1.00025 0.998728 0.995686
1.00011 0.996838 0.999163
0.99478 0.994818 0.813301
0.994805 0.99484 0.799263
0.99481 0.994849 0.805255
1.00301 1.00144 0.987465
0.999813 1.00507 0.989718
0.999734 1.00335 0.991274
0.999988 1.00507 0.990557
1.00229 1.00226 0.988729
1.00052 1.00272 0.992527
1.00348 1.00241 0.986937
0.997149 1.00492 0.993266
0.999889 1.00376 0.99122
0.99998 1.00035 0.993972
0.998065 1.00358 0.99374
0.998234 1.0037 0.994242
0.994737 0.994826 0.804975
0.994772 0.994775 0.798795
0.994804 0.994821 0.799542
0.9948 0.995159 0.807738
0.994993 0.997287 0.864712
0.994833 0.998452 0.925811
0.995688 0.995174 0.953738
0.995064 0.997767 0.957945
0.994728 0.995077 0.807111
0.99486 0.996696 0.928989
0.994718 0.997137 0.863417
0.994868 0.99651 0.962593
0.994795 0.99639 0.939591
0.995381 0.994823 0.879506
1.00005 0.994933 1.00068
0.998577 1.00116 0.996185
0.99628 1.00418 0.996298
0.994925 1.0018 0.978497
0.99528 1.00143 1.00002
0.996344 1.00365 0.998054
0.996816 1.0004 1.00085
0.995025 0.999485 0.985288
0.995853 0.99874 0.992418
0.994711 0.994818 0.810829
0.994803 0.994813 0.813563
0.994804 0.994834 0.802152
0.994969 1.00449 0.985321
0.994865 0.999945 0.95897
0.994799 0.994827 0.804275
0.994847 0.997096 0.924958
0.995704 0.994818 0.860973
0.994761 0.994813 0.807595
0.994958 1.00492 0.981836
0.99471 0.994816 0.808857
0.997239 0.994768 0.859349
0.994874 0.995616 0.955892
0.99558 0.99525 0.939999
0.994873 1.0013 0.989944
0.999723 0.994851 0.849205
0.997375 0.994838 0.941683
0.994869 0.994807 0.954704
0.994871 1.0045 0.99761
0.99776 1.00177 0.996326
1.00075 1.00049 0.99312
0.999246 1.0013 0.994853
1.00362 0.99848 0.989878
1.00466 0.998011 0.988915
1.00394 1.00305 0.98392
1.00455 0.999634 0.986496
1.00508 0.996292 0.988919
1.00471 1.00182 0.98406
1.00493 0.998818 0.986851
1.00535 0.995513 0.989563
1.00528 0.995191 0.990394
1.00531 0.996492 0.988685
1.00536 0.996263 0.988789
1.00527 0.998426 0.986784
1.00526 0.998436 0.986857
1.00523 0.998812 0.986498
1.00524 1.00099 0.984893
1.00517 1.00034 0.985637
1.00512 1.00049 0.985436
1.00516 1.00216 0.984163
1.00511 1.00204 0.984293
1.00514 1.00132 0.984544
1.00303 1.00312 0.986685
1.00434 1.00201 0.985652
1.00419 1.00243 0.985146
1.00063 1.00282 0.990896
1.00215 1.00422 0.987167
1.00285 1.00268 0.987335
0.999903 0.999555 0.998186
1.0004 1.00222 0.991913
1.0014 1.00506 0.987994
1.00016 0.99843 0.998441
1.00025 1.00148 0.993071
1.00017 0.998015 0.998593
1.00381 1.00205 0.987592
1.00149 1.00382 0.988613
1.0015 1.00478 0.988144
1.0008 1.00451 0.989267
1.00089 1.00516 0.988434
0.99976 1.00518 0.989778
1.00008 1.00047 0.994299
1.00057 1.00373 0.990232
1.00059 1.00451 0.989093
1.0001 0.997555 0.998846
1.0002 0.999616 0.994877
1.00043 1.00286 0.991303
1.00011 0.99729 0.998956
1.00029 0.999097 0.995272
1.00012 0.996996 0.999083
0.994732 0.994788 0.795453
0.994798 0.994821 0.813668
0.994812 0.994837 0.799545
1.00302 1.00223 0.987311
1.00473 1.00247 0.986091
1.00246 1.00323 0.987092
0.999667 1.00508 0.990161
1.00355 1.00189 0.988843
0.998736 1.00189 0.993743
0.998433 1.00427 0.992747
1.00211 1.0029 0.988126
1.00188 1.00126 0.990629
0.99873 0.999619 0.996505
0.998843 1.00366 0.993666
0.998736 1.0039 0.99402
0.998186 0.99479 0.852895
0.994706 0.994808 0.798571
0.994778 0.99478 0.799001
0.994756 0.994843 0.798771
0.99477 0.996721 0.882754
0.994826 0.996766 0.924949
0.994877 0.996912 0.956194
0.994891 0.996732 0.960186
0.995554 0.995457 0.877609
0.994799 0.995911 0.926808
0.994855 0.997412 0.963954
0.995479 0.994748 0.928349
0.999345 0.995399 1.00329
0.999735 0.995613 1.00066
0.998281 1.00094 0.996181
0.994856 0.999223 0.985576
0.997288 0.999623 1.00117
0.996347 0.998901 0.991986
0.995898 0.996639 0.99019
0.999799 0.994955 0.864143
0.994702 0.9948 0.80782
0.994808 0.994816 0.814195
0.994846 1.00465 0.982259
0.994828 0.994883 0.953937
0.994703 0.994824 0.808282
0.995042 0.994766 0.928824
0.998128 0.994814 0.879997
0.99492 0.999167 0.98649
0.999717 0.99485 0.86222
0.997565 0.994812 0.927675
0.99484 0.994787 0.95583
0.996247 0.998184 0.987248
0.999903 0.994849 0.940506
0.995066 0.994824 0.962011
0.996392 1.00146 0.996218
0.999929 1.00012 0.993086
1.00344 0.99911 0.991398
1.00272 0.999408 0.989665
1.00433 0.997977 0.988842
1.00516 0.995964 0.989565
1.00458 0.999695 0.986397
1.00494 0.996767 0.98886
1.0053 0.994852 0.99015
1.00486 0.998778 0.986813
1.00534 0.995527 0.989508
1.00529 0.994868 0.99058
1.0053 0.99498 0.990676
1.00529 0.995164 0.990486
1.00524 0.995452 0.990393
1.00529 0.996926 0.988646
1.00531 0.996527 0.988833
1.00539 0.996188 0.988882
1.00529 0.999379 0.986264
1.00527 0.998482 0.986725
1.00525 0.998398 0.987048
1.00529 1.00198 0.983945
1.00525 1.00102 0.984919
1.00518 1.00026 0.985582
1.00375 1.00288 0.985692
1.00508 1.00217 0.984213
1.00499 1.00206 0.984343
1.00103 1.00313 0.989941
1.00298 1.00317 0.986633
1.00403 1.00207 0.985587
1.00018 0.99982 0.997835
1.00079 1.00268 0.990896
1.00239 1.00415 0.987163
1.00008 0.999446 0.996926
1.00059 1.00213 0.99195
1.0002 0.998678 0.998286
1.00471 1.00123 0.986502
1.00307 1.00209 0.987559
1.00177 1.00394 0.987785
1.0015 1.00391 0.988412
1.00117 1.00493 0.98818
1.00105 1.00493 0.988534
1.00015 1.0013 0.99345
1.00067 1.00459 0.989241
1.00026 1.00513 0.988432
1.00008 0.998008 0.99867
1.00009 1.00033 0.994325
1.00058 1.00378 0.990246
1.00008 0.997594 0.998874
1.00018 0.999576 0.994912
1.00011 0.997268 0.99898
0.999563 0.994819 0.862769
0.994717 0.994796 0.801452
0.994809 0.994821 0.814105
1.00281 1.00243 0.987164
1.00294 1.00354 0.986162
1.0044 1.00286 0.985973
1.00477 1.00353 0.983775
1.00203 1.00292 0.98862
0.999433 1.00458 0.992279
1.002 1.00338 0.989304
1.00141 1.00136 0.991197
1.00455 0.996026 0.990177
1.00209 0.998541 0.993856
1.00185 0.996865 0.995316
1.00027 0.998825 0.99616
0.99999 1.00207 0.993793
0.99741 0.994826 0.938233
0.998189 0.994765 0.857386
0.994679 0.994797 0.804565
0.99577 0.994833 0.862896
0.99479 0.996329 0.937565
0.995038 0.99609 0.961625
0.994843 0.996713 0.96559
0.996289 0.995208 0.940958
0.99574 0.994791 0.964203
0.998551 0.996807 1.00108
0.998424 0.996095 1.00336
0.999366 0.996822 1.00054
0.996699 0.998226 0.991665
0.997069 0.997055 0.990378
1.00001 0.994904 0.926612
0.999799 0.994891 0.87029
0.99469 0.994782 0.804928
0.995053 0.998557 0.98267
0.99504 0.994779 0.955124
0.999711 0.994824 0.861162
0.99737 0.994819 0.94129
0.996079 0.997794 0.987489
1 0.994862 0.935978
0.995706 0.994821 0.959865
1.00028 0.995002 0.986264
0.997807 0.994742 0.970662
0.999309 0.999071 0.993071
1.00251 0.997642 0.991418
1.00508 0.99497 0.991444
1.00432 0.997685 0.988758
1.00513 0.995807 0.989477
1.00528 0.99482 0.990444
1.00472 0.997163 0.988802
1.0053 0.994897 0.990107
1.00529 0.994812 0.990486
1.00532 0.995537 0.989452
1.00528 0.994877 0.990558
1.00532 0.994835 0.990616
1.00528 0.994944 0.990719
1.00529 0.99508 0.990664
1.00529 0.995134 0.990578
1.00524 0.995433 0.990397
1.00522 0.99594 0.989912
1.00529 0.998056 0.987737
1.00529 0.996982 0.988632
1.00531 0.996561 0.988981
1.00533 1.00125 0.984554
1.00531 0.999486 0.986102
1.00528 0.998542 0.986667
1.00462 1.00233 0.984763
1.00527 1.00199 0.984001
1.00525 1.00107 0.984944
1.0015 1.00325 0.988805
1.0035 1.00315 0.985713
1.0048 1.00237 0.98426
1.00037 1.00055 0.997416
1.00114 1.00298 0.989928
1.00301 1.00327 0.986585
1.00028 1.00003 0.997674
1.0009 1.00253 0.990899
1.00026 0.99942 0.997923
1.00514 1.00315 0.983925
1.00433 1.00107 0.986489
1.00318 1.00268 0.986805
1.00265 1.00195 0.987531
1.00178 1.00399 0.987684
1.00149 1.00488 0.987745
1.00084 1.00496 0.98821
1.00084 1.00508 0.988491
1.00033 1.00199 0.992433
1.00008 0.998536 0.998391
1.00006 1.00123 0.993468
1.00046 1.0048 0.989215
1.00005 0.997898 0.998737
1.0001 1.00024 0.99433
1.00006 0.997537 0.998898
0.999967 0.994894 0.940988
0.999821 0.99486 0.861447
0.994693 0.994781 0.795335
1.00273 1.00464 0.985222
1.00374 1.00307 0.985854
1.0032 1.00286 0.987766
1.00433 1.00335 0.984069
1.00519 1.00042 0.985313
1.00364 0.999631 0.987712
1.00067 1.00201 0.991729
1.00448 0.995613 0.990558
1.00204 0.998168 0.993875
1.00427 0.995392 0.990814
1.00325 0.997908 0.992802
1.00202 0.997863 0.993902
1.00141 0.997248 0.99519
0.999903 0.999472 0.995827
0.99546 0.994793 0.962617
0.998197 0.995447 0.933439
0.997087 0.994824 0.875624
0.995427 0.994739 0.92817
0.994848 0.996705 0.965866
0.995567 0.995679 0.969839
0.999178 0.994812 0.991585
0.999608 0.996086 1.00031
0.997829 0.996671 1.00345
0.998619 0.998792 0.990624
0.997364 0.994872 0.964725
1.00002 0.99488 0.941473
0.999817 0.994932 0.851749
0.995725 0.997936 0.987874
0.996221 0.994814 0.960004
0.999692 0.994824 0.93096
0.999552 0.996136 0.986729
0.998077 0.994791 0.969701
1.00288 0.995961 0.988608
1.00345 0.995305 0.984906
1.00149 0.996871 0.991426
1.00454 0.994948 0.991481
1.00526 0.99481 0.990768
1.00507 0.995759 0.98939
1.00528 0.994819 0.990393
1.00533 0.994873 0.99048
1.0053 0.994965 0.990062
1.0053 0.994823 0.990472
1.00535 0.994875 0.990491
1.00528 0.994881 0.990535
1.00532 0.994842 0.990635
1.00533 0.994869 0.990657
1.00527 0.994914 0.990762
1.00529 0.995057 0.990666
1.00525 0.995391 0.990545
1.00524 0.995421 0.990402
1.00522 0.995931 0.989921
1.00526 0.997241 0.988696
1.0053 1.00005 0.985812
1.00529 0.998263 0.987463
1.00529 0.997041 0.988618
1.00529 1.00138 0.984588
1.00532 1.00127 0.9846
1.00532 0.999595 0.985941
1.00242 1.00273 0.987878
1.00439 1.00258 0.98478
1.00525 1.002 0.984057
1.00081 1.00098 0.996982
1.00167 1.00315 0.988765
1.00326 1.00344 0.985733
1.00058 1.00066 0.997255
1.0012 1.00285 0.989918
1.00045 1.00022 0.997502
1.00527 1.00147 0.984586
1.00508 1.00269 0.983995
1.00464 1.00247 0.984651
1.00432 1.00149 0.986478
1.00328 1.00267 0.986557
1.00263 1.00375 0.986781
1.00173 1.00419 0.987588
1.00136 1.00489 0.987754
1.00067 1.00256 0.991331
1.00055 1.00513 0.988456
1.00018 1.00213 0.992446
1.00007 0.9994 0.998045
1.00004 0.998506 0.998497
1.00001 1.00125 0.993494
1.00003 0.997879 0.998794
0.996359 0.994927 0.965304
0.999862 0.994893 0.9261
0.999827 0.994905 0.8752
1.00528 0.998183 0.987167
1.00456 1.0028 0.986931
1.00388 1.00319 0.984361
1.00425 0.999492 0.98817
1.00518 1.00063 0.985286
1.00508 0.996871 0.988845
1.00485 0.99607 0.99094
1.00177 0.99748 0.993912
1.00473 0.995799 0.990865
1.0029 0.99832 0.992061
1.00431 0.997165 0.989909
1.00326 0.994867 0.994295
1.00192 0.997155 0.994068
1.00126 0.997481 0.995058
0.998579 0.99474 0.990266
0.995722 0.994797 0.961103
0.997986 0.9948 0.927437
0.995321 0.996119 0.970061
0.998863 0.994816 0.994295
0.999849 0.995506 0.999499
1.00222 0.994897 0.981038
0.997397 0.994883 0.964183
1.00004 0.994886 0.926744
0.998484 0.996567 0.987185
0.998319 0.99481 0.969096
1.00202 0.995299 0.989184
1.00322 0.995093 0.985605
1.00379 0.995879 0.990466
1.00549 0.995564 0.990696
1.00404 0.994871 0.991514
1.00524 0.994837 0.990713
1.00539 0.994871 0.990388
1.00527 0.994817 0.990344
1.00532 0.994858 0.990492
1.00537 0.994862 0.990461
1.0053 0.994837 0.990459
1.00534 0.994868 0.990501
1.00534 0.994891 0.990637
1.00532 0.994851 0.990654
1.00533 0.994869 0.99065
1.00527 0.994909 0.990869
1.00528 0.995034 0.990669
1.00525 0.995289 0.9906
1.00527 0.996245 0.989778
1.00523 0.995917 0.98993
1.00526 0.997114 0.988817
1.00529 0.999541 0.986506
1.00532 1.00105 0.98488
1.00531 1.00025 0.985604
1.00529 0.998471 0.987189
1.00312 1.00142 0.988083
1.00516 1.00154 0.984583
1.00531 1.00129 0.984645
1.00131 1.00114 0.99654
1.00259 1.0025 0.987854
1.0042 1.00279 0.984804
1.00098 1.00106 0.996803
1.00189 1.00305 0.988734
1.00072 1.00077 0.997104
1.00528 0.999843 0.985788
1.00525 1.00149 0.984512
1.00527 1.00178 0.984236
1.00503 1.00216 0.984067
1.00498 1.00226 0.984468
1.00329 1.00325 0.98623
1.00362 1.0023 0.986308
1.0025 1.00391 0.986806
1.00092 1.00296 0.990291
1.00127 1.00496 0.987742
1.00047 1.0027 0.99136
1.00012 1.00022 0.997668
1.00002 1.00216 0.992461
1.00002 0.999182 0.998176
1.00001 0.998341 0.998591
0.999933 0.995292 0.986165
0.996372 0.99491 0.961215
0.999987 0.994854 0.940737
1.00529 0.996389 0.988968
1.00529 0.996061 0.989316
1.00528 0.997871 0.987444
1.00486 0.998975 0.988625
1.00517 1.00088 0.985264
1.00514 0.996846 0.989053
1.00532 0.995209 0.989667
1.0049 0.995597 0.99092
1.00268 0.998284 0.991333
1.00422 0.997193 0.990389
1.0052 0.994847 0.990845
1.00371 0.994799 0.992994
1.00288 0.9949 0.994016
1.00222 0.996678 0.994244
0.999206 0.994727 0.990283
0.995958 0.994805 0.95988
0.99893 0.994804 0.997149
1.00498 0.994921 0.99041
1.00223 0.994927 0.981186
0.997601 0.99489 0.963045
1.0017 0.994755 0.989697
1.00282 0.994706 0.986316
1.00389 0.995358 0.991065
1.00537 0.995091 0.990764
1.00547 0.994769 0.990829
1.00555 0.994831 0.991033
1.00526 0.99486 0.990655
1.00541 0.994864 0.990376
1.00536 0.994868 0.990636
1.0053 0.994842 0.990503
1.00538 0.994866 0.990482
1.00534 0.994892 0.990676
1.00533 0.99486 0.990512
1.00534 0.994891 0.990637
1.00528 0.994897 0.990912
1.00532 0.99487 0.990644
1.00528 0.994909 0.990845
1.00527 0.995531 0.990433
1.00525 0.995184 0.990655
1.00527 0.996199 0.989775
1.00531 0.998833 0.987193
1.00526 0.996986 0.988938
1.00529 0.999419 0.986642
1.00529 1.00074 0.985279
1.00321 1.00064 0.988685
1.00531 1.00105 0.984896
1.00532 1.00045 0.985396
1.00167 1.00093 0.996349
1.00314 1.0014 0.988078
1.00497 1.00176 0.984573
1.00146 1.00115 0.996408
1.00276 1.00236 0.987815
1.0012 1.00115 0.996599
1.00528 0.997751 0.987783
1.00528 0.999657 0.986019
1.00536 1.00116 0.984762
1.00524 1.00146 0.984431
1.0053 1.00182 0.984171
1.00392 1.0026 0.98574
1.00524 1.00209 0.984287
1.00339 1.00289 0.986229
1.00131 1.00335 0.989212
1.00245 1.0039 0.986842
1.00086 1.0031 0.990308
1.0003 1.00098 0.997292
1.00031 1.00286 0.991384
1.00004 1.00005 0.997813
0.999977 0.999076 0.998299
1.00417 0.99533 0.991827
0.999844 0.995169 0.983886
0.996446 0.994922 0.96116
1.00533 0.995302 0.990007
1.00528 0.995966 0.989312
1.00524 0.995267 0.990458
1.00528 0.996191 0.98927
1.00528 0.997534 0.987716
1.0054 0.994846 0.990212
1.00516 0.996995 0.989252
1.0053 0.995481 0.989661
1.00534 0.99478 0.990589
1.00414 0.997426 0.990864
1.00518 0.994939 0.990504
1.00327 0.994984 0.993256
1.00218 0.995339 0.993747
0.999498 0.994715 0.990044
1.00556 0.994856 0.99091
1.00509 0.995031 0.990369
1.00201 0.994922 0.981442
1.00387 0.994722 0.991658
1.00543 0.994783 0.990843
1.00545 0.994781 0.990846
1.00559 0.994842 0.991048
1.00539 0.994868 0.991112
1.00543 0.994856 0.990367
1.00536 0.994872 0.990647
1.00531 0.994905 0.990924
1.00538 0.994871 0.990502
1.00534 0.994894 0.990669
1.00529 0.994926 0.990951
1.00534 0.994891 0.990637
1.00529 0.994896 0.990901
1.00529 0.99508 0.99096
1.00529 0.994909 0.990822
1.00527 0.995558 0.990407
1.00533 0.998051 0.988019
1.00527 0.996154 0.989773
1.0053 0.998841 0.987212
1.00529 1.00045 0.985603
1.00529 0.999297 0.986779
1.0053 1.00072 0.985302
1.00319 1.00036 0.990769
1.00194 1.00012 0.993042
1.00322 1.00068 0.989558
1.0053 1.00106 0.98491
1.00162 1.00089 0.996429
1.00316 1.00125 0.988076
1.00149 1.00125 0.996356
1.00519 0.995166 0.990772
1.00524 0.996515 0.989369
1.00528 0.997742 0.988004
1.00532 1.00021 0.985691
1.00529 0.999479 0.98625
1.00534 1.0012 0.984681
1.00471 1.00165 0.985036
1.00533 1.00185 0.984104
1.00412 1.00208 0.985705
1.00224 1.00288 0.988165
1.00352 1.00251 0.986227
1.00127 1.00342 0.989197
1.00072 1.00156 0.996792
1.00076 1.00321 0.990336
1.00018 1.00077 0.997439
0.999961 0.999829 0.997952
1.00549 0.99482 0.990861
1.00406 0.995125 0.991446
1.00013 0.994915 0.981681
1.00532 0.994882 0.990605
1.00531 0.995361 0.989918
1.00527 0.995549 0.989662
1.00524 0.995374 0.990405
1.00528 0.99634 0.989223
1.00539 0.994842 0.990593
1.00539 0.994845 0.990191
1.00531 0.995646 0.989655
1.00531 0.994786 0.990636
1.00518 0.995031 0.990163
1.00306 0.994753 0.993512
1.0053 0.994885 0.991236
1.00555 0.99484 0.990945
1.00522 0.995183 0.990322
1.00541 0.994782 0.990845
1.00562 0.994862 0.991064
1.0054 0.994866 0.991062
1.0053 0.994911 0.99123
1.00535 0.994875 0.990657
1.00531 0.994903 0.990882
1.00529 0.994927 0.991098
1.00535 0.994896 0.990661
1.00529 0.994927 0.990957
1.00532 0.994916 0.991168
1.00529 0.994894 0.99089
1.00528 0.995083 0.990931
1.00534 0.997285 0.988838
1.00527 0.995583 0.99038
1.00533 0.998066 0.988033
1.00529 1.00018 0.985908
1.0053 0.998847 0.987232
1.0053 1.00043 0.985633
1.00327 1.00018 0.990847
1.00531 1.0007 0.985323
1.00342 1.00024 0.990624
1.00202 0.999767 0.993229
1.00161 1.00044 0.994895
1.00342 1.00068 0.990243
1.00158 1.00084 0.996497
1.00524 0.9949 0.990997
1.00523 0.996179 0.989783
1.00519 0.995143 0.99086
1.00527 0.999143 0.986822
1.00523 0.996532 0.989391
1.00527 0.997732 0.988226
1.0053 1.00021 0.985649
1.00523 1.00103 0.985025
1.00534 1.00124 0.984601
1.00498 1.00144 0.985037
1.00292 1.00175 0.988013
1.00439 1.00173 0.985677
1.00201 1.00305 0.988208
1.00116 1.00168 0.99643
1.00116 1.00349 0.989191
1.00052 1.00136 0.997
1.00004 1.00063 0.997582
1.00534 0.99489 0.990892
1.00541 0.994827 0.990925
1.00376 0.995046 0.991068
1.00531 0.994883 0.99079
1.00532 0.994881 0.99055
1.00529 0.995405 0.989837
1.00524 0.995483 0.99035
1.00539 0.994847 0.990587
1.00537 0.994843 0.99017
1.00526 0.994795 0.990682
1.00527 0.99492 0.991287
1.00531 0.994887 0.9912
1.00554 0.994809 0.990976
1.00528 0.994929 0.991304
1.00542 0.994872 0.991013
1.00529 0.994914 0.991222
1.00527 0.994932 0.991246
1.00532 0.994902 0.99084
1.00528 0.994928 0.991107
1.00533 0.994934 0.991237
1.00528 0.994927 0.990963
1.00531 0.994919 0.991146
1.00533 0.996638 0.989587
1.00527 0.995086 0.990902
1.00535 0.997312 0.988839
1.00527 0.999938 0.986233
1.00532 0.998083 0.988048
1.00531 1.00016 0.985938
1.00328 1.00019 0.990805
1.00531 1.00041 0.985662
1.00347 1.0001 0.990673
1.00208 0.999711 0.993187
1.00364 1.00012 0.990488
1.00153 0.999949 0.993565
1.00093 1.00081 0.997116
1.00523 0.994906 0.991041
1.00524 0.995499 0.99052
1.00522 0.994906 0.991002
1.00528 0.998695 0.987346
1.00522 0.995904 0.990012
1.00519 0.995118 0.990949
1.00532 1.00042 0.985534
1.00528 0.999129 0.986791
1.00522 0.996544 0.989415
1.00529 1.00021 0.985604
1.00524 1.001 0.985016
1.00306 1.00097 0.988596
1.00511 1.00122 0.985037
1.00282 1.00194 0.988048
1.00134 1.00135 0.996456
1.00195 1.00316 0.988232
1.00102 1.00158 0.996548
1.00035 1.0012 0.997183
1.00529 0.994929 0.991063
1.00535 0.994888 0.990835
1.00536 0.994831 0.990995
1.00531 0.994886 0.990788
1.00533 0.994881 0.990495
1.0054 0.994852 0.99058
1.00527 0.99494 0.991297
1.00527 0.994919 0.991307
1.00531 0.994888 0.991164
1.00528 0.994931 0.991313
1.00525 0.994952 0.991378
1.00529 0.994916 0.991213
1.00527 0.994935 0.991264
1.00531 0.994957 0.991296
1.00528 0.994929 0.991115
1.00533 0.994933 0.991228
1.00533 0.996182 0.990114
1.0053 0.994921 0.991124
1.00535 0.996635 0.989577
1.00522 0.999732 0.98657
1.00536 0.997338 0.988839
1.00528 0.999917 0.98626
1.0032 1.00027 0.990799
1.00532 1.00014 0.985969
1.00346 1.00013 0.990622
1.00207 0.999822 0.993077
1.00366 1.00001 0.990507
1.00165 0.999767 0.993551
1.00105 1.00016 0.993887
1.00525 0.994941 0.99111
1.00527 0.99494 0.991082
1.00523 0.994906 0.991002
1.00534 0.997573 0.988474
1.00525 0.995491 0.990507
1.00521 0.994912 0.991006
1.00531 1.0001 0.985932
1.00528 0.998272 0.987721
1.00522 0.995631 0.990241
1.00314 1.00035 0.989086
1.00531 1.00044 0.985507
1.00528 0.999119 0.986762
1.0053 1.00096 0.985
1.00305 1.00098 0.988584
1.00141 1.00091 0.996602
1.00264 1.00215 0.988083
1.00134 1.00137 0.996422
1.00086 1.00149 0.996715
1.00528 0.994946 0.991226
1.0053 0.994929 0.991029
1.00535 0.994888 0.990778
1.00532 0.994887 0.990786
1.00524 0.994962 0.991382
1.00527 0.994938 0.991305
1.00526 0.99492 0.991328
1.00528 0.994932 0.991322
1.00525 0.994949 0.991377
1.00529 0.994966 0.991264
1.00528 0.994936 0.991281
1.00531 0.99498 0.991257
1.00533 0.995982 0.990433
1.00533 0.994933 0.99122
1.00534 0.99617 0.990109
1.00513 0.999564 0.986861
1.00537 0.996646 0.989568
1.00521 0.999706 0.986588
1.00319 1.00033 0.989134
1.00529 0.999896 0.986288
1.00337 1.00024 0.989783
1.00177 0.999921 0.99657
1.00364 1.00007 0.990439
1.00168 0.99981 0.993448
1.00123 0.999821 0.9939
1.00525 0.99495 0.991217
1.00529 0.994953 0.991114
1.00524 0.994941 0.991139
1.00535 0.996617 0.989432
1.00527 0.995133 0.990879
1.00522 0.994906 0.990964
1.0053 0.99944 0.98665
1.00533 0.997549 0.98848
1.00525 0.995477 0.990495
1.00327 0.999979 0.989281
1.0053 0.999894 0.986115
1.00528 0.997845 0.988095
1.00155 1.00044 0.996696
1.00319 1.00029 0.989074
1.00531 1.00046 0.985479
1.00304 1.00099 0.988582
1.00146 1.00093 0.996547
1.00131 1.00138 0.996413
1.00524 0.994963 0.991307
1.00528 0.994946 0.991221
1.0053 0.994929 0.990995
1.00527 0.995028 0.99129
1.00524 0.994961 0.991362
1.00527 0.994935 0.991313
1.00526 0.994947 0.991377
1.00529 0.995021 0.99126
1.00531 0.996435 0.98989
1.00531 0.995019 0.991218
1.00532 0.996278 0.990068
1.00508 0.998894 0.987763
1.00534 0.996162 0.990103
1.00515 0.999526 0.986863
1.00311 1.00022 0.989371
1.00522 0.999682 0.986608
1.00321 1.0003 0.989142
1.00169 1 0.996568
1.00341 1.00023 0.988924
1.0016 0.99995 0.995058
1.00129 0.999789 0.993818
1.00522 0.994953 0.99134
1.00528 0.994965 0.991267
1.00524 0.994951 0.991225
1.00533 0.996709 0.989448
1.00529 0.994947 0.991138
1.00524 0.994942 0.991167
1.00523 0.999212 0.986987
1.00534 0.997049 0.989038
1.00528 0.995324 0.990675
1.00331 0.999943 0.989276
1.00529 0.999391 0.986683
1.00533 0.997531 0.988486
1.0017 1.00006 0.996695
1.00329 0.999939 0.989274
1.00528 0.999687 0.986297
1.00157 1.00045 0.996666
1.00323 1.00022 0.989061
1.00143 1.00098 0.996497
1.00527 0.995092 0.991185
1.00524 0.994962 0.991323
1.00528 0.994947 0.991217
1.00531 0.996481 0.989869
1.00527 0.995079 0.991264
1.00524 0.99496 0.991341
1.00529 0.995083 0.991255
1.00531 0.996478 0.989899
1.005 0.99874 0.988035
1.00531 0.996541 0.989704
1.0051 0.999121 0.987416
1.00303 1.00005 0.989672
1.00517 0.999486 0.986864
1.00311 1.00021 0.989376
1.00158 1.00003 0.996595
1.00322 1.00027 0.989145
1.00165 1.00002 0.99657
1.0017 0.999928 0.993226
1.00526 0.995153 0.991156
1.00522 0.994952 0.991275
1.00532 0.996529 0.989715
1.00528 0.994964 0.991272
1.00524 0.994953 0.991233
1.0052 0.999542 0.986728
1.00534 0.996734 0.989451
1.0053 0.99494 0.991163
1.00328 1.00005 0.989241
1.00524 0.99943 0.98676
1.00534 0.997491 0.988646
1.00176 0.999917 0.996632
1.00332 0.999943 0.98927
1.00529 0.99934 0.986717
1.00171 1.0001 0.9967
1.00332 0.999911 0.989266
1.0016 1.00048 0.996631
1.00531 0.996589 0.989733
1.00527 0.995129 0.991207
1.00524 0.99496 0.991339
1.00497 0.998687 0.988114
1.00531 0.996522 0.989871
1.00527 0.995131 0.991238
1.0053 0.996514 0.989907
1.00503 0.998705 0.987997
1.0029 0.99995 0.990002
1.00512 0.999349 0.987067
1.00302 1.00006 0.989682
1.0015 1.00002 0.996664
1.00313 1.0002 0.989383
1.00155 1.00005 0.996624
1.00163 1.00004 0.996582
1.00531 0.996478 0.989865
1.00526 0.995066 0.991234
1.00522 0.994952 0.991211
1.00516 0.999424 0.986951
1.00532 0.996548 0.989719
1.00528 0.994964 0.991277
1.00321 1.0001 0.989332
1.00519 0.999568 0.986721
1.00534 0.996763 0.989456
1.00172 0.999938 0.996576
1.00327 1.00007 0.989238
1.00523 0.999639 0.986534
1.00176 0.99994 0.996657
1.00333 0.999952 0.989263
1.00174 1.0001 0.996696
1.00499 0.999166 0.987511
1.00531 0.996403 0.989981
1.00527 0.995167 0.991228
1.00282 0.99986 0.99025
1.00498 0.998656 0.988108
1.0053 0.996559 0.989873
1.00506 0.998664 0.987961
1.00291 0.999925 0.990014
1.0014 1.00001 0.996732
1.003 1.00007 0.989692
1.00146 1.00003 0.996683
1.0015 1.00007 0.996649
1.00505 0.999325 0.987262
1.00531 0.996379 0.989988
1.00525 0.994966 0.991312
1.00323 1.00004 0.991031
1.00512 0.999466 0.986963
1.00533 0.996565 0.989723
1.00163 0.999986 0.996593
1.0032 1.00013 0.989335
1.00518 0.999596 0.986718
1.00175 0.99994 0.996597
1.00327 1.0001 0.989234
1.00179 0.999949 0.99668
1.00293 0.99985 0.990151
1.00498 0.998949 0.987757
1.00531 0.996216 0.99023
1.00128 0.99998 0.996821
1.00281 0.999853 0.990245
1.00499 0.998629 0.988102
1.0029 0.999901 0.990022
1.00135 1 0.996764
1.00142 1.00005 0.99671
1.00314 0.999962 0.991296
1.00504 0.999324 0.98727
1.00531 0.996292 0.99011
1.00098 1.00002 0.99724
1.00307 1.00007 0.989605
1.00508 0.999505 0.986973
1.00165 0.999984 0.996589
1.00318 1.00016 0.989334
1.00177 0.999938 0.996618
1.00126 0.999934 0.993926
1.00295 0.999862 0.990842
1.00498 0.998728 0.988003
1.00131 0.999981 0.996833
1.00282 0.999849 0.99025
1.00136 0.999994 0.996791
1.00075 1.00002 0.994372
1.00304 0.999938 0.99062
1.00501 0.999329 0.987277
1.00122 1.00002 0.995412
1.00303 1.00011 0.989635
1.00169 0.999976 0.996593
1.00129 0.999968 0.99683
1.00281 0.999855 0.990243
1.00126 0.99998 0.996834
1.00106 0.999969 0.995603
1.00292 0.999929 0.990011
1.00154 1.00001 0.996634
1.00132 0.999973 0.996827
1.00138 0.999984 0.996742

TENSORS stress float
0.00241033 -0.000168423 0.000279792
-0.000168423 0.00120216 -4.96409e-05
0.000279792 -4.96409e-05 0.00117529
0.0074356 0.000103308 0.000332012
0.000103308 0.00440616 3.95118e-05
0.000332012 3.95118e-05 0.0044166
0.00201107 -9.84558e-05 0.000115015
-9.84558e-05 0.000945182 -1.92548e-05
0.000115015 -1.92548e-05 0.000905402
0.00231789 -9.44408e-05 0.000267058
-9.44408e-05 0.00112168 -2.82152e-05
0.000267058 -2.82152e-05 0.00110493
0.00241958 -0.000147629 0.000273315
-0.000147629 0.00119796 -4.36804e-05
0.000273315 -4.36804e-05 0.00117464
0.00240246 -0.000173419 0.000290844
-0.000173419 0.00119851 -5.15974e-05
0.000290844 -5.15974e-05 0.00117177
0.00195745 -0.000171415 5.58786e-05
-0.000171415 0.000797464 -1.52733e-05
5.58786e-05 -1.52733e-05 0.000670864
0.00745653 9.63151e-05 -8.23529e-06
9.63151e-05 0.00441079 -2.222e-06
-8.23529e-06 -2.222e-06 0.00442591
0.00683142 0.000242473 0.000164097
0.000242473 0.00402528 1.74224e-05
0.000164097 1.74224e-05 0.00399578
0.00687929 1.99708e-05 9.99518e-05
1.99708e-05 0.00402864 5.76229e-06
9.99518e-05 5.76229e-06 0.00400931
0.00209744 0.000225106 0.000306971
0.000225106 0.00101656 4.30872e-05
0.000306971 4.30872e-05 0.00100127
0.00026132 0.000266937 2.714e-05
0.000266937 -0.00023091 2.10517e-05
2.714e-05 2.10517e-05 -0.00038514
0.00189508 -3.20542e-05 0.000260856
-3.20542e-05 0.000851183 4.37725e-06
0.000260856 4.37725e-06 0.000853842
0.00161561 4.21262e-06 7.12597e-05
4.21262e-06 0.000694915 2.36049e-06
7.12597e-05 2.36049e-06 0.000645844
0.00169512 -9.73505e-05 -6.48804e-05
-9.73505e-05 0.000756812 1.20918e-05
-6.48804e-05 1.20918e-05 0.000696948
0.00195893 -9.32223e-05 8.63706e-05
-9.32223e-05 0.000911324 -5.54522e-06
8.63706e-05 -5.54522e-06 0.000874704
0.00202612 -8.78663e-05 0.000125009
-8.78663e-05 0.000959426 -2.11018e-05
0.000125009 -2.11018e-05 0.00091622
0.00200866 -0.000103523 0.000102856
-0.000103523 0.00093881 -1.46746e-05
0.000102856 -1.46746e-05 0.000901485
0.00206139 -0.000208102 -4.37569e-05
-0.000208102 0.000862739 6.86451e-06
-4.37569e-05 6.86451e-06 0.00074538
0.00639173 -0.000155798 0.000341888
-0.000155798 0.00375414 -1.58992e-05
0.000341888 -1.58992e-05 0.00377614
0.00223067 -7.05198e-05 0.000263978
-7.05198e-05 0.00106611 -2.08203e-05
0.000263978 -2.08203e-05 0.00105275
0.00241053 -0.000122118 0.000271164
-0.000122118 0.00118354 -3.62156e-05
0.000271164 -3.62156e-05 0.00116397
0.0019138 -0.000149938 7.35947e-05
-0.000149938 0.000781351 -1.1579e-05
7.35947e-05 -1.1579e-05 0.000676381
0.00196101 -0.000171427 6.40263e-05
-0.000171427 0.000796433 -1.48546e-05
6.40263e-05 -1.48546e-05 0.000679814
0.00247705 -0.000155384 0.000300112
-0.000155384 0.00123644 -4.85663e-05
0.000300112 -4.85663e-05 0.00121342
0.00196362 -0.000172793 5.05297e-05
-0.000172793 0.000820165 -1.58272e-05
5.05297e-05 -1.58272e-05 0.000679309
0.00206837 -0.000375442 1.9729e-05
-0.000375442 0.000600384 -8.25669e-06
1.9729e-05 -8.25669e-06 0.000356902
0.00742948 8.29246e-05 -0.000339902
8.29246e-05 0.00438223 -3.05521e-05
-0.000339902 -3.05521e-05 0.00440235
0.00448255 0.00017785 -0.000155904
0.00017785 0.00251986 -1.84306e-05
-0.000155904 -1.84306e-05 0.00249645
0.00451557 0.000101663 -0.000158893
0.000101663 0.00254532 -1.74163e-05
-0.000158893 -1.74163e-05 0.00252406
0.00745209 2.39807e-05 -3.36674e-06
2.39807e-05 0.00441592 -1.03225e-06
-3.36674e-06 -1.03225e-06 0.00442811
0.000375504 0.000255804 -8.4911e-07
0.000255804 -0.000157233 -1.43173e-06
-8.4911e-07 -1.43173e-06 -0.000312138
0.00195992 7.37573e-05 0.000270593
7.37573e-05 0.000890731 2.65942e-05
0.000270593 2.65942e-05 0.000879739
0.00210706 0.000166032 0.000280087
0.000166032 0.001018 4.12565e-05
0.000280087 4.12565e-05 0.000994081
0.00290305 0.000231091 0.000166093
0.000231091 0.00138814 2.53057e-05
0.000166093 2.53057e-05 0.00129715
0.00648861 -0.000257712 3.02322e-05
-0.000257712 0.00386245 3.92419e-06
3.02322e-05 3.92419e-06 0.00381418
0.00302532 0.000312882 0.000175809
0.000312882 0.00151429 3.17231e-05
0.000175809 3.17231e-05 0.00140332
0.000321135 0.000243733 2.58157e-05
0.000243733 -0.000183644 2.9385e-05
2.58157e-05 2.9385e-05 -0.000341701
0.000909939 0.000321729 2.09237e-05
0.000321729 -2.0139e-05 7.1458e-06
2.09237e-05 7.1458e-06 -0.000281902
0.00538223 -0.000119303 0.000201568
-0.000119303 0.0031844 2.30788e-05
0.000201568 2.30788e-05 0.00317632
0.00640096 8.69343e-05 3.19043e-06
8.69343e-05 0.00374404 -2.04041e-06
3.19043e-06 -2.04041e-06 0.00377452
0.00418646 9.7556e-05 -0.000130212
9.7556e-05 0.00232861 -6.18057e-06
-0.000130212 -6.18057e-06 0.00231784
0.00621543 5.73932e-05 0.000331967
5.73932e-05 0.00362974 4.70433e-06
0.000331967 4.70433e-06 0.00366097
0.00150045 9.22389e-05 7.30623e-05
9.22389e-05 0.000625691 4.90214e-06
7.30623e-05 4.90214e-06 0.00058108
0.000459336 1.26226e-05 1.43751e-05
1.26226e-05 -0.00016443 1.6202e-06
1.43751e-05 1.6202e-06 -0.00025628
0.00659512 0.00024292 0.00019244
0.00024292 0.00389746 1.91613e-05
0.00019244 1.91613e-05 0.00387162
0.00289766 8.30932e-05 0.0001546
8.30932e-05 0.00137315 1.04319e-05
0.0001546 1.04319e-05 0.00131156
0.00156227 -9.33465e-05 -8.56743e-05
-9.33465e-05 0.000677749 1.12688e-05
-8.56743e-05 1.12688e-05 0.000620752
0.00160845 -0.000122027 -7.81816e-05
-0.000122027 0.000710076 1.44304e-05
-7.81816e-05 1.44304e-05 0.00064766
0.00175809 -5.75737e-05 -5.26742e-05
-5.75737e-05 0.000790618 1.00431e-05
-5.26742e-05 1.00431e-05 0.000731379
0.00212987 -0.000210636 -0.000151008
-0.000210636 0.000896737 2.90423e-05
-0.000151008 2.90423e-05 0.000792091
0.00401219 -2.99487e-05 -0.000132489
-2.99487e-05 0.00223014 -1.29189e-06
-0.000132489 -1.29189e-06 0.00221956
0.00192946 -7.35855e-05 9.14405e-05
-7.35855e-05 0.00088951 -4.48514e-06
9.14405e-05 -4.48514e-06 0.00085736
0.00213334 -6.52676e-05 0.000132354
-6.52676e-05 0.00102619 -1.99389e-05
0.000132354 -1.99389e-05 0.000981115
0.00199711 -9.89825e-05 9.3244e-05
-9.89825e-05 0.000931356 -9.56818e-06
9.3244e-05 -9.56818e-06 0.000894713
0.00199259 -0.000127769 -3.54059e-05
-0.000127769 0.000819946 2.75508e-06
-3.54059e-05 2.75508e-06 0.000728021
0.00206849 -0.000217659 -5.06001e-05
-0.000217659 0.000882966 7.91306e-06
-5.06001e-05 7.91306e-06 0.000754216
0.0020525 -0.000187585 -3.82957e-05
-0.000187585 0.000852783 4.98537e-06
-3.82957e-05 4.98537e-06 0.000745359
0.00214736 -0.000381684 -1.04312e-05
-0.000381684 0.000649264 2.768e-06
-1.04312e-05 2.768e-06 0.000406166
0.00618981 -5.08998e-06 0.000327594
-5.08998e-06 0.00361145 -3.34889e-06
0.000327594 -3.34889e-06 0.00364385
0.00219765 -4.5573e-05 0.000260457
-4.5573e-05 0.00104838 -1.43637e-05
0.000260457 -1.43637e-05 0.0010399
0.00245999 -1.678e-05 5.59198e-05
-1.678e-05 0.00112793 -8.06183e-07
5.59198e-05 -8.06183e-07 0.00105633
0.00188099 -0.000121227 6.69953e-05
-0.000121227 0.000763923 -7.49186e-06
6.69953e-05 -7.49186e-06 0.000668892
0.00194935 -0.000162767 7.04797e-05
-0.000162767 0.000793915 -1.38136e-05
7.04797e-05 -1.38136e-05 0.000683309
0.00198381 -0.000242802 5.95677e-06
-0.000242802 0.000465036 -2.44705e-06
5.95677e-06 -2.44705e-06 0.000286833
0.00198775 -0.000331857 1.61048e-05
-0.000331857 0.000509711 -5.74555e-06
1.61048e-05 -5.74555e-06 0.000295081
0.00182093 -0.000116462 0.000270259
-0.000116462 0.000823419 -4.0383e-05
0.000270259 -4.0383e-05 0.000799547
0.00217832 -0.000150331 4.42203e-05
-0.000150331 0.000977905 -1.43287e-05
4.42203e-05 -1.43287e-05 0.000830672
0.002064 -0.000418866 2.37718e-05
-0.000418866 0.000642937 -9.14101e-06
2.37718e-05 -9.14101e-06 0.000369387
0.00187623 -0.000501593 7.05573e-06
-0.000501593 0.000237005 -5.21675e-08
7.05573e-06 -5.21675e-08 -5.1469e-05
0.00727425 0.000298085 -0.000377266
0.000298085 0.00430387 -4.5056e-05
-0.000377266 -4.5056e-05 0.00431135
0.00724181 -9.11083e-06 -0.000299534
-9.11083e-06 0.00428527 -2.43087e-05
-0.000299534 -2.43087e-05 0.00429866
0.00730569 0.000158408 -0.000350217
0.000158408 0.00430362 -3.55531e-05
-0.000350217 -3.55531e-05 0.00432411
0.00037731 0.0002447 -2.59914e-05
0.0002447 -0.000149173 -2.09887e-05
-2.59914e-05 -2.09887e-05 -0.00030645
0.00708901 0.000258596 -1.93239e-06
0.000258596 0.00418026 -2.52868e-06
-1.93239e-06 -2.52868e-06 0.00419384
0.00728294 0.000255338 -8.58142e-06
0.000255338 0.00430014 -3.39824e-06
-8.58142e-06 -3.39824e-06 0.00431073
0.000344174 0.00014645 3.25945e-07
0.00014645 -0.000245124 -2.58328e-07
3.25945e-07 -2.58328e-07 -0.000371416
0.00406438 -6.77841e-05 -0.000131981
-6.77841e-05 0.00230453 -7.04798e-06
-0.000131981 -7.04798e-06 0.00227289
0.0002977 0.000221842 6.80853e-07
0.000221842 -0.000219766 -4.66677e-07
6.80853e-07 -4.66677e-07 -0.000367661
0.00182984 0.000260183 6.75368e-05
0.000260183 0.000779596 4.22025e-06
6.75368e-05 4.22025e-06 0.000648913
0.000963346 0.000324604 1.46613e-06
0.000324604 1.54571e-05 -1.17532e-08
1.46613e-06 -1.17532e-08 -0.000245476
0.00605192 -0.000119541 0.000230588
-0.000119541 0.00360563 2.85014e-05
0.000230588 2.85014e-05 0.00359309
0.000540049 0.000105318 2.31494e-05
0.000105318 6.34813e-06 1.47918e-05
2.31494e-05 1.47918e-05 -8.06091e-05
0.000452214 0.000114377 1.45135e-05
0.000114377 -0.0001925 1.15171e-05
1.45135e-05 1.15171e-05 -0.000310776
0.000459348 0.000176996 1.91912e-05
0.000176996 -0.000158673 1.94536e-05
1.91912e-05 1.94536e-05 -0.00029394
0.00130483 0.000303781 1.52382e-05
0.000303781 3.31606e-05 6.03973e-06
1.52382e-05 6.03973e-06 -0.000190572
0.00324953 0.000261332 0.00016212
0.000261332 0.00169362 2.44142e-05
0.00016212 2.44142e-05 0.00160195
0.00115063 0.000347315 2.40288e-05
0.000347315 6.4847e-05 8.51475e-06
2.40288e-05 8.51475e-06 -0.000194117
0.000834811 0.00030511 1.54625e-05
0.00030511 3.3099e-05 6.49847e-06
1.54625e-05 6.49847e-06 -0.000229008
0.00151069 0.000535612 8.36144e-06
0.000535612 0.000209063 -2.68609e-06
8.36144e-06 -2.68609e-06 -0.000147687
0.00431313 -0.000134109 0.000134393
-0.000134109 0.00248302 1.12317e-05
0.000134393 1.12317e-05 0.00247724
0.00486778 -0.000169076 2.12176e-05
-0.000169076 0.00285502 4.13067e-07
2.12176e-05 4.13067e-07 0.0028382
0.00687559 7.16243e-05 -0.000352454
7.16243e-05 0.00402805 -1.86536e-05
-0.000352454 -1.86536e-05 0.0040568
0.00650171 7.85027e-05 -0.000345737
7.85027e-05 0.00380335 -1.13899e-05
-0.000345737 -1.13899e-05 0.00383507
0.00631143 8.35379e-05 -1.07778e-07
8.35379e-05 0.00369517 -4.13286e-06
-1.07778e-07 -4.13286e-06 0.00372352
0.00406274 3.91899e-05 -0.000142477
3.91899e-05 0.00225064 -8.05026e-06
-0.000142477 -8.05026e-06 0.0022453
0.00156493 4.04742e-05 6.80829e-05
4.04742e-05 0.000540604 1.99276e-06
6.80829e-05 1.99276e-06 0.000468245
0.00437266 0.000159327 -0.00013376
0.000159327 0.00245269 -8.2237e-06
-0.00013376 -8.2237e-06 0.00243348
0.0016498 9.83274e-05 6.84061e-05
9.83274e-05 0.000581406 3.69445e-06
6.84061e-05 3.69445e-06 0.000496622
0.00624889 0.000115168 0.000334391
0.000115168 0.00366431 7.37808e-06
0.000334391 7.37808e-06 0.003688
0.000346531 1.03199e-05 1.78325e-05
1.03199e-05 -0.000230281 9.10734e-07
1.78325e-05 9.10734e-07 -0.0003176
0.0028789 4.51463e-05 0.000153629
4.51463e-05 0.00136732 6.83526e-06
0.000153629 6.83526e-06 0.00131235
0.00112948 7.60856e-05 1.06087e-05
7.60856e-05 -6.16162e-05 4.35736e-07
1.06087e-05 4.35736e-07 -0.000197483
0.00282241 0.000132361 0.00015969
0.000132361 0.00132133 1.41742e-05
0.00015969 1.41742e-05 0.00125146
0.00127142 0.000161941 6.16982e-06
0.000161941 -3.20414e-05 1.25642e-06
6.16982e-06 1.25642e-06 -0.000191735
0.00190645 4.04029e-05 -0.000259497
4.04029e-05 0.000856134 3.5285e-06
-0.000259497 3.5285e-06 0.000861886
0.00154658 -2.42696e-05 -7.20582e-05
-2.42696e-05 0.000658703 3.41752e-06
-7.20582e-05 3.41752e-06 0.000608511
0.0017982 -2.50202e-05 -4.64629e-05
-2.50202e-05 0.000813735 8.81784e-06
-4.64629e-05 8.81784e-06 0.000752836
0.00156633 -0.000111177 -8.69121e-05
-0.000111177 0.000682493 1.40142e-05
-8.69121e-05 1.40142e-05 0.000622798
0.00210771 -0.000105583 -0.000139407
-0.000105583 0.000881663 1.3763e-05
-0.000139407 1.3763e-05 0.000802876
0.00215245 -0.000173293 -0.000145824
-0.000173293 0.000902671 2.44072e-05
-0.000145824 2.44072e-05 0.000809706
0.0021364 -0.000236907 -0.0001571
-0.000236907 0.00092182 3.12525e-05
-0.0001571 3.12525e-05 0.000804447
0.00222213 -0.000387969 -3.67585e-05
-0.000387969 0.000696182 1.26306e-05
-3.67585e-05 1.26306e-05 0.000453501
0.00629166 -0.000113857 2.46134e-06
-0.000113857 0.00368971 -2.01499e-06
2.46134e-06 -2.01499e-06 0.00371384
0.00182078 2.28471e-05 9.86965e-05
2.28471e-05 0.000812307 -5.19591e-06
9.86965e-05 -5.19591e-06 0.000790625
0.00117913 -1.49157e-05 -7.05231e-05
-1.49157e-05 0.000301764 2.44569e-06
-7.05231e-05 2.44569e-06 0.000229621
0.00194476 -8.49046e-05 -3.849e-05
-8.49046e-05 0.000795176 3.41375e-06
-3.849e-05 3.41375e-06 0.000711549
0.0048608 -8.16279e-05 0.000285896
-8.16279e-05 0.00276717 -2.35245e-05
0.000285896 -2.35245e-05 0.00276126
0.00269862 -0.000222046 -4.92615e-05
-0.000222046 0.00129975 5.09739e-06
-4.92615e-05 5.09739e-06 0.00116976
0.0020383 -0.000158962 -3.55786e-05
-0.000158962 0.000843616 3.59382e-06
-3.55786e-05 3.59382e-06 0.000744517
0.00204602 -0.00024338 -9.17594e-06
-0.00024338 0.000501137 1.76869e-06
-9.17594e-06 1.76869e-06 0.000327534
0.00215894 -0.000429472 -9.18698e-06
-0.000429472 0.000707992 2.69312e-06
-9.18698e-06 2.69312e-06 0.000433288
0.00206763 -0.000335427 -9.74984e-06
-0.000335427 0.000560676 2.624e-06
-9.74984e-06 2.624e-06 0.000344028
0.00190847 -0.000503692 9.24364e-07
-0.000503692 0.000258936 -2.38814e-07
9.24364e-07 -2.38814e-07 -2.9276e-05
0.000381566 7.83489e-06 1.86902e-05
7.83489e-06 -0.000211109 -2.73756e-07
1.86902e-05 -2.73756e-07 -0.000294593
0.00179603 -1.25073e-05 5.83271e-05
-1.25073e-05 0.000699977 -2.60536e-06
5.83271e-05 -2.60536e-06 0.000619884
0.00193513 -8.34572e-05 8.11255e-06
-8.34572e-05 0.000458191 -2.41787e-08
8.11255e-06 -2.41787e-08 0.000339601
0.00200542 -0.000192738 6.99916e-06
-0.000192738 0.000482782 -6.07306e-07
6.99916e-06 -6.07306e-07 0.000330751
0.00201213 -0.000290176 1.09321e-05
-0.000290176 0.000495026 -3.65402e-06
1.09321e-05 -3.65402e-06 0.000303837
0.00204605 -0.000346933 -2.22583e-07
-0.000346933 0.000191473 -1.45616e-07
-2.22583e-07 -1.45616e-07 1.25055e-05
0.00685268 6.03202e-05 0.000257023
6.03202e-05 0.00406248 -2.18247e-05
0.000257023 -2.18247e-05 0.00406533
0.00183218 -0.000458491 5.80947e-06
-0.000458491 0.000149883 -5.16729e-08
5.80947e-06 -5.16729e-08 -0.000101858
0.000250161 -0.000209011 2.08657e-05
-0.000209011 -0.00025189 -2.39461e-05
2.08657e-05 -2.39461e-05 -0.000395059
0.00104488 -0.000351988 2.26457e-05
-0.000351988 6.85663e-05 -1.11297e-05
2.26457e-05 -1.11297e-05 -0.000214348
0.00200596 -0.000565462 9.29547e-06
-0.000565462 0.00038685 6.63931e-08
9.29547e-06 6.63931e-08 5.04429e-05
0.00201689 -0.000571535 2.42381e-06
-0.000571535 0.00022147 3.51306e-06
2.42381e-06 3.51306e-06 -4.71246e-05
0.000424414 -0.000173629 2.31132e-05
-0.000173629 -9.57253e-05 -1.95853e-05
2.31132e-05 -1.95853e-05 -0.000213382
0.000700989 -0.000154788 -9.09622e-07
-0.000154788 0.000128244 -1.92422e-06
-9.09622e-07 -1.92422e-06 -0.000129686
0.00719596 0.000284602 -0.000382495
0.000284602 0.00425418 -4.17308e-05
-0.000382495 -4.17308e-05 0.00426438
0.00729924 0.000245846 -0.000364653
0.000245846 0.00430875 -4.2032e-05
-0.000364653 -4.2032e-05 0.00432296
0.000318511 0.000144678 -1.79466e-05
0.000144678 -0.00026288 -1.41742e-05
-1.79466e-05 -1.41742e-05 -0.000389716
0.0064991 -8.66431e-05 -0.000244339
-8.66431e-05 0.00385074 -1.90015e-05
-0.000244339 -1.90015e-05 0.0038536
0.000269721 0.000219261 -2.24877e-05
0.000219261 -0.000216096 -2.28403e-05
-2.24877e-05 -2.28403e-05 -0.000357552
0.000285419 0.000208451 -2.12343e-05
0.000208451 -0.000226578 -1.95758e-05
-2.12343e-05 -1.95758e-05 -0.000374771
0.000989018 0.000325376 -2.26741e-05
0.000325376 3.11252e-05 -9.00349e-06
-2.26741e-05 -9.00349e-06 -0.000228698
0.00590736 -0.000111155 -1.06091e-05
-0.000111155 0.0035048 2.14388e-06
-1.06091e-05 2.14388e-06 0.00349862
0.00057051 8.48813e-05 1.18842e-06
8.48813e-05 2.92517e-05 4.1459e-07
1.18842e-06 4.1459e-07 -5.46513e-05
0.00170321 0.000159741 7.15743e-05
0.000159741 0.000607853 6.56014e-06
7.15743e-05 6.56014e-06 0.000506316
0.00168838 0.000226302 7.41777e-05
0.000226302 0.000632859 7.86758e-06
7.41777e-05 7.86758e-06 0.000512987
0.00127601 0.000302555 -4.62509e-08
0.000302555 2.01979e-05 -3.65551e-07
-4.62509e-08 -3.65551e-07 -0.000204581
0.000380759 0.000192045 -7.28447e-07
0.000192045 -0.000125826 -2.77104e-07
-7.28447e-07 -2.77104e-07 -0.000248933
0.00111009 0.000342734 9.48929e-07
0.000342734 3.89064e-05 2.00394e-07
9.48929e-07 2.00394e-07 -0.000219501
0.000757338 0.000289247 8.35645e-07
0.000289247 -1.43256e-05 -7.23311e-07
8.35645e-07 -7.23311e-07 -0.00027006
0.0016468 0.000556984 -1.21457e-06
0.000556984 0.000283035 -5.98273e-07
-1.21457e-06 -5.98273e-07 -7.63661e-05
0.000401633 0.000160396 2.09307e-05
0.000160396 -9.59032e-05 1.80862e-05
2.09307e-05 1.80862e-05 -0.0002049
0.000744072 4.42021e-05 1.34382e-05
4.42021e-05 0.000156838 1.39881e-05
1.34382e-05 1.39881e-05 8.76631e-05
0.00140313 0.000272377 3.9682e-06
0.000272377 0.000599545 3.01774e-06
3.9682e-06 3.01774e-06 0.000364113
0.0013287 0.000262779 1.09805e-05
0.000262779 1.19583e-05 4.23169e-06
1.09805e-05 4.23169e-06 -0.000189569
0.00126444 0.000335526 2.0663e-05
0.000335526 6.09523e-05 7.84129e-06
2.0663e-05 7.84129e-06 -0.00018314
0.00204994 0.000490644 4.63714e-06
0.000490644 0.000264623 -3.87527e-07
4.63714e-06 -3.87527e-07 7.73541e-06
0.000572765 0.000247841 1.07605e-05
0.000247841 -3.41831e-05 5.81833e-06
1.07605e-05 5.81833e-06 -0.000281151
0.00203834 0.000590878 5.61532e-06
0.000590878 0.000421958 -1.66772e-06
5.61532e-06 -1.66772e-06 8.78713e-05
0.00146537 0.000529941 3.88959e-06
0.000529941 0.00031418 -3.79469e-06
3.88959e-06 -3.79469e-06 -6.84305e-05
0.00163742 0.000616831 -5.84337e-06
0.000616831 0.000178465 -5.88023e-06
-5.84337e-06 -5.88023e-06 -0.000186507
0.00375801 -0.00013846 8.95808e-05
-0.00013846 0.0021192 6.34014e-06
8.95808e-05 6.34014e-06 0.00211301
0.00419575 -0.000177429 1.95633e-05
-0.000177429 0.00241655 -1.3785e-06
1.95633e-05 -1.3785e-06 0.00239932
0.00468184 -0.00022874 -0.000100852
-0.00022874 0.00275122 -1.06754e-05
-0.000100852 -1.06754e-05 0.00271819
0.000556795 -0.000161348 2.29412e-05
-0.000161348 1.06621e-05 -1.66122e-05
2.29412e-05 -1.66122e-05 -9.30938e-05
0.00618208 0.000109596 0.000215843
0.000109596 0.00367247 -2.12304e-05
0.000215843 -2.12304e-05 0.00366435
0.00707957 0.000234533 -0.000379221
0.000234533 0.00417337 -3.41318e-05
-0.000379221 -3.41318e-05 0.00419122
0.00661559 0.000104384 -0.000347239
0.000104384 0.00387182 -1.60515e-05
-0.000347239 -1.60515e-05 0.00390121
0.000334886 0.000103025 -1.79462e-05
0.000103025 -0.000254787 -6.20311e-06
-1.79462e-05 -6.20311e-06 -0.000358796
0.000335929 4.42642e-05 -1.82053e-05
4.42642e-05 -0.000237685 -2.62866e-06
-1.82053e-05 -2.62866e-06 -0.000330273
0.00626969 -3.7297e-06 -0.000331276
-3.7297e-06 0.00365952 -3.10692e-06
-0.000331276 -3.10692e-06 0.00369227
0.00618859 1.11122e-06 3.93707e-08
1.11122e-06 0.00361015 -1.18324e-06
3.93707e-08 -1.18324e-06 0.00364296
0.000329737 9.1744e-07 1.78623e-08
9.1744e-07 -0.000243782 2.51666e-07
1.78623e-08 2.51666e-07 -0.00032938
0.00157706 4.39361e-05 6.83921e-05
4.39361e-05 0.000541274 3.25757e-06
6.83921e-05 3.25757e-06 0.000465486
0.00110805 7.97996e-05 -1.63676e-08
7.97996e-05 -8.12898e-05 -1.71419e-07
-1.63676e-08 -1.71419e-07 -0.000218067
0.000368945 9.33093e-05 -6.81225e-07
9.33093e-05 -0.000239243 -3.55831e-07
-6.81225e-07 -3.55831e-07 -0.000350781
0.00123192 0.000163572 -1.68501e-07
0.000163572 -5.13513e-05 -1.26223e-07
-1.68501e-07 -1.26223e-07 -0.000212531
0.000322885 -3.26886e-05 1.84055e-05
-3.26886e-05 -0.00024867 -6.95224e-07
1.84055e-05 -6.95224e-07 -0.000331156
0.00108261 3.38589e-05 1.0474e-05
3.38589e-05 -8.11545e-05 2.14924e-07
1.0474e-05 2.14924e-07 -0.000210472
0.00116064 0.000119667 8.4372e-06
0.000119667 -6.75376e-05 1.0593e-06
8.4372e-06 1.0593e-06 -0.000213444
0.00199184 0.000126511 1.54024e-06
0.000126511 7.33371e-05 1.2301e-07
1.54024e-06 1.2301e-07 -1.47917e-05
0.00132448 0.000212789 7.33863e-06
0.000212789 -6.54155e-06 2.50064e-06
7.33863e-06 2.50064e-06 -0.000185799
0.00212647 0.000284646 1.46406e-06
0.000284646 0.00016731 -7.59058e-07
1.46406e-06 -7.59058e-07 3.11063e-05
0.00621015 -7.57194e-05 -0.00033355
-7.57194e-05 0.00363205 4.2206e-06
-0.00033355 4.2206e-06 0.00366021
0.00144853 -0.000163026 -7.18564e-05
-0.000163026 0.000617404 8.88043e-06
-7.18564e-05 8.88043e-06 0.000560862
-0.000229367 -8.88639e-06 -1.1466e-05
-8.88639e-06 -0.000589937 1.23462e-06
-1.1466e-05 1.23462e-06 -0.000689735
0.00207078 -7.58042e-05 -0.000138347
-7.58042e-05 0.000867681 9.47032e-06
-0.000138347 9.47032e-06 0.000794922
0.00745151 0.000221896 -5.18831e-05
0.000221896 0.00442777 3.33461e-06
-5.18831e-05 3.33461e-06 0.00438274
0.00307009 -0.000292371 -0.000163044
-0.000292371 0.00154052 3.15493e-05
-0.000163044 3.15493e-05 0.0014187
0.00214802 -0.000138632 -0.000142647
-0.000138632 0.000899797 1.90222e-05
-0.000142647 1.90222e-05 0.00081488
0.00209528 -0.000243931 -2.73122e-05
-0.000243931 0.000528433 5.15628e-06
-2.73122e-05 5.15628e-06 0.00035945
0.00212493 -0.000337655 -3.25406e-05
-0.000337655 0.00059568 1.08958e-05
-3.25406e-05 1.08958e-05 0.000377347
0.00223002 -0.000436831 -3.95988e-05
-0.000436831 0.000758882 1.37483e-05
-3.95988e-05 1.37483e-05 0.000483906
0.0019323 -0.000504995 -5.67088e-06
-0.000504995 0.000275668 -2.58424e-07
-5.67088e-06 -2.58424e-07 -1.21566e-05
0.000323884 3.13904e-06 -3.08623e-08
3.13904e-06 -0.000245705 3.90567e-07
-3.08623e-08 3.90567e-07 -0.000330196
0.00191692 -9.46686e-05 -3.74944e-05
-9.46686e-05 0.000784798 6.27159e-07
-3.74944e-05 6.27159e-07 0.000706225
0.0015937 -7.92119e-05 -1.22138e-05
-7.92119e-05 0.000239425 7.73922e-07
-1.22138e-05 7.73922e-07 0.000116916
0.00197878 -0.000190464 -1.05579e-05
-0.000190464 0.000460883 1.79977e-06
-1.05579e-05 1.79977e-06 0.000305867
0.00709044 5.87473e-05 3.38889e-06
5.87473e-05 0.00421512 3.94678e-07
3.38889e-06 3.94678e-07 0.00421593
0.00172161 -0.000212089 6.77476e-06
-0.000212089 0.000702284 5.25477e-07
6.77476e-06 5.25477e-07 0.000551342
0.00146933 -0.00037794 -1.1706e-06
-0.00037794 0.000335581 -1.16136e-06
-1.1706e-06 -1.16136e-06 5.37741e-05
0.002062 -0.000294442 -9.90019e-06
-0.000294442 0.000523434 2.64378e-06
-9.90019e-06 2.64378e-06 0.000331212
0.00212455 -0.000355405 8.67604e-07
-0.000355405 0.000236975 -5.39607e-07
8.67604e-07 -5.39607e-07 6.39263e-05
0.00199065 -0.000563757 1.45213e-06
-0.000563757 0.00037568 -3.85485e-08
1.45213e-06 -3.85485e-08 4.09596e-05
0.00193484 -0.000461474 2.98128e-07
-0.000461474 0.000219599 -1.8079e-07
2.98128e-07 -1.8079e-07 -3.29702e-05
0.00207995 -0.000575572 8.79447e-07
-0.000575572 0.000266869 2.22119e-07
8.79447e-07 2.22119e-07 -2.46974e-06
0.000428481 -0.000186653 1.86232e-06
-0.000186653 -9.84204e-05 2.61885e-07
1.86232e-06 2.61885e-07 -0.00021567
0.000806613 -0.000220517 1.1683e-06
-0.000220517 0.000187503 7.24165e-07
1.1683e-06 7.24165e-07 -6.82658e-05
0.00108837 -3.91122e-05 1.06913e-05
-3.91122e-05 -7.26401e-05 -2.97182e-07
1.06913e-05 -2.97182e-07 -0.000201889
0.00198716 -0.000134163 7.14486e-06
-0.000134163 0.000485042 -2.07679e-07
7.14486e-06 -2.07679e-07 0.000353378
0.00182685 -0.000136911 2.60141e-06
-0.000136911 -5.74893e-06 -2.44435e-07
2.60141e-06 -2.44435e-07 -0.000110119
0.00207186 -0.000286359 -4.40217e-07
-0.000286359 0.000167465 1.06412e-06
-4.40217e-07 1.06412e-06 3.44829e-05
0.00188798 -0.000411114 4.38749e-07
-0.000411114 0.000130454 3.76601e-07
4.38749e-07 3.76601e-07 -8.15367e-05
0.00216859 -0.000395767 5.12108e-06
-0.000395767 0.000175795 -1.37746e-06
5.12108e-06 -1.37746e-06 3.80396e-05
0.000216619 -0.00018787 2.04443e-05
-0.00018787 -0.000242508 -2.31066e-05
2.04443e-05 -2.31066e-05 -0.000377533
0.00206215 -0.000524242 1.91039e-06
-0.000524242 0.000197755 1.97414e-06
1.91039e-06 1.97414e-06 -2.23905e-05
0.000987251 -0.000305742 1.51493e-05
-0.000305742 0.000125208 -9.37591e-06
1.51493e-05 -9.37591e-06 -0.000142347
0.00170181 -0.000604342 1.56555e-05
-0.000604342 0.000280851 -5.35951e-07
1.56555e-05 -5.35951e-07 -0.000110404
0.00230277 -0.000643632 2.40358e-06
-0.000643632 0.000473259 2.71283e-06
2.40358e-06 2.71283e-06 0.000140903
0.00234801 -0.000614347 -1.03085e-07
-0.000614347 0.000401461 3.63245e-06
-1.03085e-07 3.63245e-06 0.000157925
0.00055604 -0.000213858 1.94044e-06
-0.000213858 3.89579e-06 -4.90731e-06
1.94044e-06 -4.90731e-06 -0.00026688
0.00109542 -0.000169429 1.47986e-06
-0.000169429 0.000396477 -1.51893e-06
1.47986e-06 -1.51893e-06 0.000164184
0.00117185 -0.000310526 -1.974e-06
-0.000310526 0.000414081 2.55859e-07
-1.974e-06 2.55859e-07 9.73156e-05
0.000337317 0.000121184 -1.68951e-05
0.000121184 -0.000261168 -1.10577e-05
-1.68951e-05 -1.10577e-05 -0.000381294
0.00538866 -0.000150914 -0.000173943
-0.000150914 0.00317701 -1.37882e-05
-0.000173943 -1.37882e-05 0.00316562
0.000379031 7.45289e-05 -1.74477e-05
7.45289e-05 -9.12317e-05 -1.43488e-05
-1.74477e-05 -1.43488e-05 -0.000168546
0.000299007 0.000176402 -1.97774e-05
0.000176402 -0.000250596 -1.74251e-05
-1.97774e-05 -1.74251e-05 -0.000387078
0.00124297 0.000301473 -1.651e-05
0.000301473 3.75986e-06 -6.67671e-06
-1.651e-05 -6.67671e-06 -0.000222134
0.000315332 0.000186155 -2.28723e-05
0.000186155 -0.000172825 -2.09957e-05
-2.28723e-05 -2.09957e-05 -0.000294427
0.00078617 0.000282566 -1.47293e-05
0.000282566 5.41706e-06 -8.34624e-06
-1.47293e-05 -8.34624e-06 -0.000245742
0.00111499 0.000339696 -2.47895e-05
0.000339696 4.65644e-05 -8.87509e-06
-2.47895e-05 -8.87509e-06 -0.000211095
0.00179782 0.00058055 -9.14119e-06
0.00058055 0.000364968 1.32322e-06
-9.14119e-06 1.32322e-06 2.46089e-06
0.000467361 0.000160523 -3.3972e-06
0.000160523 -6.37526e-05 1.63335e-06
-3.3972e-06 1.63335e-06 -0.000164397
0.000393852 2.254e-05 1.56056e-06
2.254e-05 -5.5258e-05 3.83618e-07
1.56056e-06 3.83618e-07 -0.000123695
0.00077224 0.000182983 1.52254e-06
0.000182983 0.000178957 -3.39014e-08
1.52254e-06 -3.39014e-08 -3.5864e-05
0.00129468 0.000261686 -2.2203e-07
0.000261686 -3.17001e-06 -3.02811e-07
-2.2203e-07 -3.02811e-07 -0.000205836
0.00122382 0.000332153 2.34427e-07
0.000332153 4.04827e-05 -2.71327e-07
2.34427e-07 -2.71327e-07 -0.000203868
0.00202773 0.000488842 -3.75125e-07
0.000488842 0.000249281 -1.61755e-07
-3.75125e-07 -1.61755e-07 -7.58428e-06
0.000689529 0.000244617 -4.06989e-07
0.000244617 3.69506e-05 -1.53539e-08
-4.06989e-07 -1.53539e-08 -0.000203699
0.00201751 0.000584833 -7.20993e-07
0.000584833 0.000408579 -4.41555e-07
-7.20993e-07 -4.41555e-07 7.47145e-05
0.00151695 0.000543805 -4.14591e-07
0.000543805 0.000330896 -1.37159e-06
-4.14591e-07 -1.37159e-06 -5.67e-05
0.00164264 0.000628102 -1.16151e-06
0.000628102 0.000160275 2.38659e-06
-1.16151e-06 2.38659e-06 -0.000203853
0.000539992 3.72856e-06 4.37782e-06
3.72856e-06 4.14484e-05 1.25327e-05
4.37782e-06 1.25327e-05 -1.47565e-05
0.00113559 0.000228758 5.49698e-06
0.000228758 0.000376521 2.29873e-06
5.49698e-06 2.29873e-06 0.000136447
0.00100644 0.000127732 3.50071e-06
0.000127732 0.000337802 3.85795e-06
3.50071e-06 3.85795e-06 0.000157549
0.00046549 0.000215823 -1.52965e-06
0.000215823 -1.19167e-06 2.4096e-06
-1.52965e-06 2.4096e-06 -0.00027428
0.00208692 0.000431887 2.18496e-06
0.000431887 0.000225481 -1.86415e-06
2.18496e-06 -1.86415e-06 1.10633e-05
0.00199766 0.000541865 5.16758e-06
0.000541865 0.000309774 -4.15615e-07
5.16758e-06 -4.15615e-07 1.08894e-05
0.0021798 0.000556113 5.25895e-07
0.000556113 0.000261125 -1.38961e-06
5.25895e-07 -1.38961e-06 2.13352e-05
0.000986057 0.000415458 1.56193e-08
0.000415458 9.82633e-05 -2.23109e-06
1.56193e-08 -2.23109e-06 -0.000241703
0.00238853 0.00069362 -5.33608e-06
0.00069362 0.000542963 -3.15954e-06
-5.33608e-06 -3.15954e-06 0.00020963
0.00205013 0.000711499 -7.80311e-06
0.000711499 0.000555836 -9.88784e-06
-7.80311e-06 -9.88784e-06 0.00010907
0.00207943 0.000673704 -2.46037e-06
0.000673704 0.000335865 -2.79461e-06
-2.46037e-06 -2.79461e-06 -1.17064e-05
0.000587774 6.64347e-05 1.09933e-06
6.64347e-05 9.92333e-05 6.03945e-06
1.09933e-06 6.03945e-06 4.92471e-06
0.000472033 4.30461e-07 2.34311e-06
4.30461e-07 -1.07772e-05 9.13639e-06
2.34311e-06 9.13639e-06 -4.94221e-05
0.00330745 -0.000126771 6.17744e-05
-0.000126771 0.00182236 4.9811e-06
6.17744e-05 4.9811e-06 0.00181906
0.00364536 -0.000158922 1.04609e-05
-0.000158922 0.00205227 -9.98721e-07
1.04609e-05 -9.98721e-07 0.0020402
0.00405496 -0.000200234 -7.07018e-05
-0.000200234 0.00233119 -6.27848e-06
-7.07018e-05 -6.27848e-06 0.00230711
0.000411417 -0.0001546 2.34028e-05
-0.0001546 -6.06351e-05 -1.58058e-05
2.34028e-05 -1.58058e-05 -0.000149621
0.00552137 0.000140665 0.000174169
0.000140665 0.00326944 -1.93909e-05
0.000174169 -1.93909e-05 0.00325405
0.000478564 -0.000168369 2.20975e-06
-0.000168369 -4.47733e-05 7.27378e-07
2.20975e-06 7.27378e-07 -0.000150642
0.00636963 8.77156e-05 6.32838e-06
8.77156e-05 0.00378461 3.8015e-07
6.32838e-06 3.8015e-07 0.00377932
0.00035884 0.000118575 -1.78123e-05
0.000118575 -0.000244909 -8.67448e-06
-1.78123e-05 -8.67448e-06 -0.000359103
0.000325961 3.58515e-05 -1.6695e-05
3.58515e-05 -0.000251961 -3.3832e-06
-1.6695e-05 -3.3832e-06 -0.000348223
0.0012284 0.000165901 -6.82736e-06
0.000165901 -5.27106e-05 -1.45889e-06
-6.82736e-06 -1.45889e-06 -0.000215238
0.00107599 8.22524e-05 -1.05094e-05
8.22524e-05 -0.000106992 -7.57723e-07
-1.05094e-05 -7.57723e-07 -0.000244551
0.000381802 -7.46099e-06 -1.85492e-05
-7.46099e-06 -0.000213672 -6.91324e-07
-1.85492e-05 -6.91324e-07 -0.000297614
0.00628388 -0.000102438 -0.000340537
-0.000102438 0.00368316 6.09632e-06
-0.000340537 6.09632e-06 0.00370963
0.000370763 -3.07103e-06 6.35848e-08
-3.07103e-06 -0.000219373 -7.24273e-07
6.35848e-08 -7.24273e-07 -0.000301668
0.00106492 3.90647e-05 -1.07457e-07
3.90647e-05 -9.37095e-05 1.21613e-07
-1.07457e-07 1.21613e-07 -0.000223537
0.00117277 0.000122148 -8.84494e-08
0.000122148 -6.54767e-05 1.01711e-07
-8.84494e-08 1.01711e-07 -0.000212532
0.00196633 0.000124258 -1.21739e-07
0.000124258 6.29726e-05 2.51799e-07
-1.21739e-07 2.51799e-07 -2.53997e-05
0.0012904 0.000212941 -3.60018e-07
0.000212941 -2.1894e-05 -2.72412e-07
-3.60018e-07 -2.72412e-07 -0.000202519
0.00206351 0.000280558 -3.24773e-07
0.000280558 0.000129554 3.71657e-08
-3.24773e-07 3.71657e-08 -6.30777e-06
0.00105229 -4.42838e-06 1.05094e-05
-4.42838e-06 -9.50656e-05 -2.5229e-07
1.05094e-05 -2.5229e-07 -0.000222678
0.00196966 6.30042e-05 2.64488e-06
6.30042e-05 7.45446e-05 1.01388e-07
2.64488e-06 1.01388e-07 -7.07869e-06
0.00203811 0.000198648 8.61623e-07
0.000198648 9.38589e-05 -2.38116e-07
8.61623e-07 -2.38116e-07 -1.191e-05
0.00218739 0.000154111 5.58628e-06
0.000154111 8.55024e-05 6.98839e-07
5.58628e-06 6.98839e-07 5.15202e-05
0.00212692 0.000364893 2.13994e-06
0.000364893 0.000201389 -8.92779e-07
2.13994e-06 -8.92779e-07 2.75243e-05
0.00209095 0.000304912 3.7868e-06
0.000304912 5.76585e-05 1.14708e-06
3.7868e-06 1.14708e-06 -3.1548e-05
0.000360365 -4.02249e-06 -1.76767e-05
-4.02249e-06 -0.00021921 5.5113e-07
-1.76767e-05 5.5113e-07 -0.000305948
0.00201158 -5.01203e-05 -0.000136755
-5.01203e-05 0.000834231 6.29161e-06
-0.000136755 6.29161e-06 0.000767796
0.00123212 -7.47084e-05 -1.91744e-05
-7.47084e-05 8.36749e-06 1.38957e-06
-1.91744e-05 1.38957e-06 -0.000118479
0.00193693 -0.000187652 -2.58281e-05
-0.000187652 0.000429583 3.72006e-06
-2.58281e-05 3.72006e-06 0.000271706
0.00738913 2.7716e-05 -0.000303503
2.7716e-05 0.00439735 3.14659e-05
-0.000303503 3.14659e-05 0.00440147
0.00348575 -0.000292981 -0.000177686
-0.000292981 0.00182023 2.84037e-05
-0.000177686 2.84037e-05 0.0017036
0.00178795 -0.00041596 -3.16789e-05
-0.00041596 0.000545525 1.17799e-05
-3.16789e-05 1.17799e-05 0.000258737
0.00210108 -0.000297779 -3.03045e-05
-0.000297779 0.000544628 8.29641e-06
-3.03045e-05 8.29641e-06 0.000351617
0.00219839 -0.000363459 -2.29024e-06
-0.000363459 0.000279843 -7.77254e-07
-2.29024e-06 -7.77254e-07 0.000112744
0.0020426 -0.00046466 -4.03402e-06
-0.00046466 0.00029437 5.59442e-07
-4.03402e-06 5.59442e-07 4.09546e-05
0.00199946 -0.000564697 -7.38931e-06
-0.000564697 0.000377959 -7.03503e-07
-7.38931e-06 -7.03503e-07 4.43887e-05
0.00213746 -0.000579494 -8.09528e-07
-0.000579494 0.000307691 -2.92444e-06
-8.09528e-07 -2.92444e-06 3.76003e-05
0.000445273 -0.000198709 -2.28976e-05
-0.000198709 -8.57883e-05 2.05595e-05
-2.28976e-05 2.05595e-05 -0.00020822
0.000528157 -0.000222151 2.75869e-07
-0.000222151 2.13801e-05 1.88981e-06
2.75869e-07 1.88981e-06 -0.000239084
0.0011351 -3.44818e-05 5.21816e-07
-3.44818e-05 -4.35944e-05 2.87796e-08
5.21816e-07 2.87796e-08 -0.000168139
0.00198708 -0.000134717 -1.08541e-05
-0.000134717 0.000483145 1.4476e-06
-1.08541e-05 1.4476e-06 0.000351737
0.00188698 -0.000134522 1.35114e-06
-0.000134522 3.12146e-05 -2.13217e-07
1.35114e-06 -2.13217e-07 -6.81992e-05
0.00198821 -0.000284574 -2.4413e-06
-0.000284574 0.000115479 8.72626e-07
-2.4413e-06 8.72626e-07 -2.73247e-05
0.000399989 -0.000211419 4.98164e-07
-0.000211419 -0.000126885 5.20998e-07
4.98164e-07 5.20998e-07 -0.000263452
0.000765551 -0.000305952 -1.50184e-06
-0.000305952 -1.32597e-05 3.5116e-07
-1.50184e-06 3.5116e-07 -0.000286083
0.00168169 -0.000599846 2.16355e-06
-0.000599846 0.000274148 -2.25143e-07
2.16355e-06 -2.25143e-07 -0.000118035
0.00195461 -0.000412608 -2.65241e-06
-0.000412608 0.000179913 8.16778e-07
-2.65241e-06 8.16778e-07 -3.52031e-05
0.00214026 -0.000395914 2.14842e-06
-0.000395914 0.000149793 -6.83459e-07
2.14842e-06 -6.83459e-07 1.85743e-05
0.00234599 -0.000651072 -4.23541e-07
-0.000651072 0.000496286 -1.05119e-06
-4.23541e-07 -1.05119e-06 0.00016594
0.00209536 -0.000527078 5.08161e-07
-0.000527078 0.000219054 1.00685e-07
5.08161e-07 1.00685e-07 -1.9559e-06
0.00216308 -0.000605434 6.9309e-07
-0.000605434 0.000277243 9.55714e-07
6.9309e-07 9.55714e-07 3.27311e-05
0.000592838 -0.000216996 -5.76375e-08
-0.000216996 3.29195e-05 -8.10391e-07
-5.76375e-08 -8.10391e-07 -0.000240953
0.000827012 -0.000238465 6.51385e-09
-0.000238465 0.000167851 -1.26776e-07
6.51385e-09 -1.26776e-07 -0.000126067
0.000709737 -0.000168934 1.59715e-06
-0.000168934 0.000168389 4.94996e-07
1.59715e-06 4.94996e-07 -7.22194e-05
0.00183607 -6.3925e-05 2.77974e-06
-6.3925e-05 4.3668e-06 -2.84167e-07
2.77974e-06 -2.84167e-07 -8.97035e-05
0.00198196 -0.000204789 3.35259e-07
-0.000204789 9.01808e-05 5.46796e-07
3.35259e-07 5.46796e-07 -2.30186e-05
0.00201532 -0.000143731 8.11254e-06
-0.000143731 -4.75719e-06 -5.74166e-07
8.11254e-06 -5.74166e-07 -5.42263e-05
0.00215169 -0.000325662 2.73155e-06
-0.000325662 0.000109492 -1.26303e-06
2.73155e-06 -1.26303e-06 1.95161e-05
0.00202792 -0.000469851 1.10818e-06
-0.000469851 0.000122502 1.41933e-06
1.10818e-06 1.41933e-06 -5.05808e-05
0.00220768 -0.000413754 4.24465e-06
-0.000413754 0.000123651 -9.97171e-07
4.24465e-06 -9.97171e-07 4.27828e-05
0.000648046 -0.000254071 8.96669e-06
-0.000254071 9.01565e-06 -7.46285e-06
8.96669e-06 -7.46285e-06 -0.000250555
0.00210675 -0.000560853 1.02907e-06
-0.000560853 0.000176015 2.8308e-07
1.02907e-06 2.8308e-07 -1.9308e-05
0.00151572 -0.000572918 1.38583e-05
-0.000572918 0.000329167 -2.92254e-06
1.38583e-05 -2.92254e-06 -8.2339e-05
0.00204238 -0.00073966 8.08944e-06
-0.00073966 0.000393079 4.23097e-06
8.08944e-06 4.23097e-06 -3.12621e-05
0.00240244 -0.000676563 5.78352e-06
-0.000676563 0.000497313 3.62235e-06
5.78352e-06 3.62235e-06 0.000185315
0.00241045 -0.000640611 7.20205e-07
-0.000640611 0.000443738 1.2989e-06
7.20205e-07 1.2989e-06 0.000205742
0.000367952 -0.000135962 3.37081e-08
-0.000135962 -1.31374e-05 -4.78258e-06
3.37081e-08 -4.78258e-06 -0.000233298
0.00162262 -0.000384059 -7.47447e-09
-0.000384059 0.000594697 -4.54607e-06
-7.47447e-09 -4.54607e-06 0.000282085
-1.79193e-05 -0.000181757 -7.18676e-07
-0.000181757 -0.000244166 3.63768e-06
-7.18676e-07 3.63768e-06 -0.000570924
0.00186286 -0.000463712 -3.46647e-06
-0.000463712 0.000799117 1.73513e-07
-3.46647e-06 1.73513e-07 0.000431651
0.00125763 0.000260782 -1.24193e-05
0.000260782 -2.08088e-05 -4.75968e-06
-1.24193e-05 -4.75968e-06 -0.000224656
0.000270708 -2.92255e-06 -1.86409e-06
-2.92255e-06 -0.000118723 -1.52909e-05
-1.86409e-06 -1.52909e-05 -0.000190962
0.000447278 0.000126907 -2.38088e-05
0.000126907 -6.94119e-05 -1.54153e-05
-2.38088e-05 -1.54153e-05 -0.000167629
2.83496e-05 0.000132764 -4.55749e-06
0.000132764 -0.000278433 -3.88047e-07
-4.55749e-06 -3.88047e-07 -0.000498167
0.0011758 0.000328805 -2.13565e-05
0.000328805 1.44246e-05 -8.41438e-06
-2.13565e-05 -8.41438e-06 -0.000230291
0.00200498 0.000486747 -4.43251e-06
0.000486747 0.000234092 4.58127e-07
-4.43251e-06 4.58127e-07 -2.26565e-05
0.000494386 0.000216932 -7.51682e-06
0.000216932 -8.85091e-05 -3.41944e-06
-7.51682e-06 -3.41944e-06 -0.0003172
0.00148384 0.000543008 -6.83618e-06
0.000543008 0.000301029 5.35718e-07
-6.83618e-06 5.35718e-07 -8.65772e-05
0.00200848 0.000580966 -5.80212e-06
0.000580966 0.00040017 1.35026e-06
-5.80212e-06 1.35026e-06 6.58958e-05
0.00163822 0.000634096 5.13867e-06
0.000634096 0.00014561 9.54834e-06
5.13867e-06 9.54834e-06 -0.000215866
0.000429409 -1.05655e-05 -3.80897e-06
-1.05655e-05 -2.05553e-05 9.57555e-07
-3.80897e-06 9.57555e-07 -7.85734e-05
0.000622533 0.000218818 -8.65091e-07
0.000218818 7.25683e-05 -8.53807e-07
-8.65091e-07 -8.53807e-07 -0.000174098
0.000633979 0.000111511 1.85577e-06
0.000111511 0.000105183 -9.6204e-07
1.85577e-06 -9.6204e-07 -7.08603e-05
0.00079847 0.000216568 -1.90182e-06
0.000216568 0.000182489 1.37863e-06
-1.90182e-06 1.37863e-06 -7.81739e-05
0.00206527 0.000429937 -1.6469e-06
0.000429937 0.000210926 -1.26176e-06
-1.6469e-06 -1.26176e-06 -3.42226e-06
0.00196497 0.000540178 -5.96175e-07
0.000540178 0.000287825 -2.65425e-07
-5.96175e-07 -2.65425e-07 -1.14096e-05
0.00214866 0.000551838 1.69165e-07
0.000551838 0.000245686 2.0749e-07
1.69165e-07 2.0749e-07 7.0196e-06
0.00132111 0.000438078 3.41799e-06
0.000438078 0.000330126 -3.3247e-08
3.41799e-06 -3.3247e-08 -1.17102e-05
0.00228333 0.000676992 8.4773e-07
0.000676992 0.000486876 6.90621e-07
8.4773e-07 6.90621e-07 0.000153884
0.00180346 0.000681865 -9.19909e-07
0.000681865 0.000407773 -2.05568e-06
-9.19909e-07 -2.05568e-06 -3.36089e-05
0.00208458 0.000659806 -5.66686e-06
0.000659806 0.000346335 2.36325e-06
-5.66686e-06 2.36325e-06 9.44224e-06
0.000510492 -3.93418e-06 2.88262e-06
-3.93418e-06 1.74541e-05 1.06764e-05
2.88262e-06 1.06764e-05 -2.78933e-05
0.00106556 8.56162e-05 6.02259e-07
8.56162e-05 0.00039301 7.79635e-06
6.02259e-07 7.79635e-06 0.000241545
0.000686108 0.000274441 -3.93873e-06
0.000274441 1.42988e-05 1.3783e-06
-3.93873e-06 1.3783e-06 -0.000253804
0.00141876 0.000196613 2.7994e-06
0.000196613 0.000664062 -2.94568e-06
2.7994e-06 -2.94568e-06 0.000376199
0.000958335 0.000257756 -2.29254e-06
0.000257756 0.000227389 7.93957e-06
-2.29254e-06 7.93957e-06 -1.68342e-05
0.00219944 0.000488259 5.43752e-07
0.000488259 0.000203149 -3.04769e-06
5.43752e-07 -3.04769e-06 1.25854e-05
0.0021551 0.000623008 -1.6109e-06
0.000623008 0.000320121 -1.98992e-06
-1.6109e-06 -1.98992e-06 2.96548e-05
0.00215703 0.000603259 -3.19425e-06
0.000603259 0.000233459 -1.4774e-06
-3.19425e-06 -1.4774e-06 -4.11244e-06
0.0017169 0.000660782 1.46943e-06
0.000660782 0.000556106 -3.09988e-06
1.46943e-06 -3.09988e-06 9.45096e-05
0.00246715 0.000737001 -4.93383e-06
0.000737001 0.000534718 -2.85528e-06
-4.93383e-06 -2.85528e-06 0.000204793
0.00176961 0.000725042 6.66571e-06
0.000725042 0.000313323 -5.31851e-06
6.66571e-06 -5.31851e-06 -0.000115365
0.000528413 6.18709e-05 7.49029e-07
6.18709e-05 5.19115e-05 6.13209e-06
7.49029e-07 6.13209e-06 -5.05773e-05
0.000706215 0.000131555 -1.65909e-06
0.000131555 0.000228052 2.61992e-06
-1.65909e-06 2.61992e-06 6.66552e-05
0.000601683 6.70466e-05 8.08859e-07
6.70466e-05 0.000109428 5.0728e-06
8.08859e-07 5.0728e-06 2.4e-05
0.000519308 2.05803e-05 -7.50588e-07
2.05803e-05 5.46088e-05 -2.62982e-08
-7.50588e-07 -2.62982e-08 -3.87177e-05
0.00145813 -2.34911e-05 1.77176e-06
-2.34911e-05 0.000621275 5.40708e-06
1.77176e-06 5.40708e-06 0.000591623
0.00094478 -1.3485e-05 1.97021e-07
-1.3485e-05 0.000293329 -8.17196e-08
1.97021e-07 -8.17196e-08 0.000257121
0.000878666 -4.25911e-05 4.45154e-05
-4.25911e-05 0.000250376 1.10069e-05
4.45154e-05 1.10069e-05 0.000245849
0.00321919 -0.000133246 9.72686e-06
-0.000133246 0.00176707 -9.25681e-07
9.72686e-06 -9.25681e-07 0.00176183
0.00349036 -0.000162791 -5.72013e-05
-0.000162791 0.00195472 -5.23559e-06
-5.72013e-05 -5.23559e-06 0.00194126
0.000249132 -9.1994e-05 1.34042e-05
-9.1994e-05 -0.000134437 -1.3699e-05
1.34042e-05 -1.3699e-05 -0.00020579
0.00492056 0.00018489 0.000119395
0.00018489 0.00290241 -1.53619e-05
0.000119395 -1.53619e-05 0.00287536
0.000503947 -0.000139781 1.56118e-07
-0.000139781 1.77263e-06 9.02638e-07
1.56118e-07 9.02638e-07 -9.39874e-05
0.00581011 0.000129682 -1.5402e-06
0.000129682 0.00345599 8.55209e-07
-1.5402e-06 8.55209e-07 0.00344033
0.000470799 -0.000167778 -2.24761e-05
-0.000167778 -5.21494e-05 1.80055e-05
-2.24761e-05 1.80055e-05 -0.000160581
0.00660307 9.35125e-05 -0.000245822
9.35125e-05 0.00393664 2.83951e-05
-0.000245822 2.83951e-05 0.00392852
0.00124267 0.00021218 -8.40892e-06
0.00021218 -4.52304e-05 -2.9766e-06
-8.40892e-06 -2.9766e-06 -0.000227097
0.00116668 0.00012559 -9.07021e-06
0.00012559 -7.16947e-05 -8.53838e-07
-9.07021e-06 -8.53838e-07 -0.000220168
0.00202719 0.000273707 -1.74128e-06
0.000273707 0.00011112 1.18513e-06
-1.74128e-06 1.18513e-06 -2.36253e-05
0.00194368 0.00012227 -1.67518e-06
0.00012227 5.52048e-05 4.40539e-07
-1.67518e-06 4.40539e-07 -3.34058e-05
0.00105598 4.40852e-05 -1.04116e-05
4.40852e-05 -0.000101236 -9.2579e-09
-1.04116e-05 -9.2579e-09 -0.000231554
0.000334736 2.86989e-05 -1.84484e-05
2.86989e-05 -0.000244695 -8.79588e-07
-1.84484e-05 -8.79588e-07 -0.000325366
0.00105001 -3.19236e-07 -5.04094e-08
-3.19236e-07 -9.62623e-05 -1.74884e-08
-5.04094e-08 -1.74884e-08 -0.000223894
0.00195785 6.30107e-05 -7.24135e-09
6.30107e-05 6.85812e-05 1.32878e-07
-7.24135e-09 1.32878e-07 -1.32435e-05
0.00202107 0.000194238 -1.5588e-07
0.000194238 9.26609e-05 2.96725e-07
-1.5588e-07 2.96725e-07 -1.26086e-05
0.00217457 0.000149377 -3.35601e-07
0.000149377 6.79881e-05 1.15181e-07
-3.35601e-07 1.15181e-07 3.89229e-05
0.0020823 0.000360722 -6.82434e-07
0.000360722 0.000173973 -1.00539e-07
-6.82434e-07 -1.00539e-07 7.2338e-07
0.00213572 0.000309188 -5.22607e-08
0.000309188 8.72184e-05 4.56431e-07
-5.22607e-08 4.56431e-07 -3.44562e-06
0.00196285 -8.86267e-07 2.88177e-06
-8.86267e-07 7.99194e-05 -2.66763e-08
2.88177e-06 -2.66763e-08 -7.76986e-07
0.00214089 7.21582e-05 4.5477e-06
7.21582e-05 5.4317e-05 4.15163e-07
4.5477e-06 4.15163e-07 3.11845e-05
0.00214318 0.000223605 5.18061e-06
0.000223605 6.54643e-05 1.08724e-06
5.18061e-06 1.08724e-06 1.59981e-05
0.00208207 0.000131866 4.47686e-06
0.000131866 1.29987e-07 8.68274e-07
4.47686e-06 8.68274e-07 -5.76979e-06
0.00215218 0.000405778 2.37018e-06
0.000405778 0.000132447 -2.14697e-07
2.37018e-06 -2.14697e-07 -8.87606e-06
0.00219293 0.000326091 2.49667e-06
0.000326091 1.72664e-05 4.74414e-07
2.49667e-06 4.74414e-07 -7.75773e-06
0.00116733 -3.06009e-05 -1.13817e-05
-3.06009e-05 -2.34578e-05 5.82074e-07
-1.13817e-05 5.82074e-07 -0.000143444
0.00199329 -0.000134877 -2.81524e-05
-0.000134877 0.000484783 2.70987e-06
-2.81524e-05 2.70987e-06 0.000353731
0.00199113 -0.000131126 -1.73822e-06
-0.000131126 9.67233e-05 -4.23174e-07
-1.73822e-06 -4.23174e-07 2.75108e-06
0.00188095 -0.000281461 -1.76026e-06
-0.000281461 4.66352e-05 4.59878e-07
-1.76026e-06 4.59878e-07 -0.000106079
0.000521533 -0.000243113 -2.63488e-05
-0.000243113 -4.93188e-05 2.31612e-05
-2.63488e-05 2.31612e-05 -0.000187067
0.000734927 -0.000312983 -1.40659e-05
-0.000312983 -3.72487e-05 9.05371e-06
-1.40659e-05 9.05371e-06 -0.000314994
0.00167284 -0.000600875 -1.16149e-05
-0.000600875 0.000266993 1.22269e-06
-1.16149e-05 1.22269e-06 -0.000128092
0.00201301 -0.00041336 -4.70474e-06
-0.00041336 0.000223707 9.32792e-07
-4.70474e-06 9.32792e-07 5.631e-06
0.00211069 -0.000395655 -9.52638e-07
-0.000395655 0.000122637 1.48192e-08
-9.52638e-07 1.48192e-08 -1.69323e-06
0.00213502 -0.000530515 -2.13204e-06
-0.000530515 0.000244532 -1.38254e-06
-2.13204e-06 -1.38254e-06 2.25034e-05
0.00235423 -0.000654523 -1.54874e-06
-0.000654523 0.000498206 -5.79867e-06
-1.54874e-06 -5.79867e-06 0.000170844
0.00197421 -0.000592934 6.36428e-07
-0.000592934 0.000150338 -1.48619e-06
6.36428e-07 -1.48619e-06 -9.37984e-05
0.00107979 -0.000267201 -7.18136e-06
-0.000267201 0.000337016 5.31191e-06
-7.18136e-06 5.31191e-06 6.08314e-05
0.00038848 -0.000181434 2.73243e-06
-0.000181434 -0.000115594 2.02998e-06
2.73243e-06 2.02998e-06 -0.000400985
0.0004459 -0.000202092 2.06008e-07
-0.000202092 6.412e-06 1.91075e-06
2.06008e-07 1.91075e-06 -0.000236018
0.00189842 -6.0558e-05 1.61285e-06
-6.0558e-05 4.22857e-05 -1.54647e-07
1.61285e-06 -1.54647e-07 -4.6645e-05
0.00197716 -0.000212681 -8.32123e-07
-0.000212681 8.82959e-05 -1.71722e-07
-8.32123e-07 -1.71722e-07 -2.5186e-05
0.00209961 -0.000142681 1.60779e-06
-0.000142681 4.41577e-05 -1.97386e-07
1.60779e-06 -1.97386e-07 1.76981e-06
0.00206777 -0.000312606 -1.36004e-06
-0.000312606 6.0836e-05 3.58959e-07
-1.36004e-06 3.58959e-07 -3.19456e-05
0.000742295 -0.000272955 1.04702e-06
-0.000272955 6.69147e-05 -6.1673e-07
1.04702e-06 -6.1673e-07 -0.000201003
0.00160738 -0.000587571 -6.00513e-07
-0.000587571 0.000386086 -6.18252e-07
-6.00513e-07 -6.18252e-07 -2.86511e-05
0.00193167 -0.000727074 9.97562e-07
-0.000727074 0.00033557 1.1106e-06
9.97562e-07 1.1106e-06 -9.1147e-05
0.00199654 -0.000465082 -6.48671e-07
-0.000465082 0.00010872 8.66697e-07
-6.48671e-07 8.66697e-07 -7.05938e-05
0.00217192 -0.00041733 2.58886e-07
-0.00041733 8.7578e-05 -1.22551e-07
2.58886e-07 -1.22551e-07 1.21831e-05
0.00223695 -0.00066888 -4.86813e-07
-0.00066888 0.000377053 3.62551e-07
-4.86813e-07 3.62551e-07 6.4914e-05
0.00208313 -0.000557917 -6.024e-07
-0.000557917 0.000158373 7.82542e-07
-6.024e-07 7.82542e-07 -3.68817e-05
0.00229042 -0.000621804 9.48324e-07
-0.000621804 0.000360408 -4.00793e-07
9.48324e-07 -4.00793e-07 0.000128851
0.000948407 -0.000344984 -2.05475e-06
-0.000344984 0.000190508 4.10393e-07
-2.05475e-06 4.10393e-07 -0.000130313
0.0010676 -0.000373446 -8.43081e-07
-0.000373446 0.000290208 1.91718e-06
-8.43081e-07 1.91718e-06 -6.25318e-05
0.000759855 -0.000154407 -9.44604e-07
-0.000154407 0.000226146 -1.37807e-06
-9.44604e-07 -1.37807e-06 7.42148e-06
9.8267e-05 -0.000155157 2.81926e-06
-0.000155157 -0.000219791 3.96143e-07
2.81926e-06 3.96143e-07 -0.000511445
0.00214164 -7.70952e-05 7.3627e-06
-7.70952e-05 7.89996e-05 -2.59922e-07
7.3627e-06 -2.59922e-07 4.51063e-05
0.00201527 -0.000226538 4.75292e-06
-0.000226538 -2.10003e-05 -8.14805e-07
4.75292e-06 -8.14805e-07 -8.43855e-05
0.00207571 -0.000132744 6.08901e-06
-0.000132744 3.1407e-05 -6.50926e-07
6.08901e-06 -6.50926e-07 2.82389e-05
0.00217489 -0.000337765 8.69908e-07
-0.000337765 3.7276e-05 -2.79199e-07
8.69908e-07 -2.79199e-07 1.33616e-05
0.00212607 -0.000500865 4.89591e-07
-0.000500865 0.000120962 -3.54311e-07
4.89591e-07 -3.54311e-07 -1.73078e-05
0.00223631 -0.000440805 3.41562e-06
-0.000440805 7.54299e-05 -7.61188e-07
3.41562e-06 -7.61188e-07 1.69144e-05
0.00139438 -0.000488076 7.45882e-06
-0.000488076 0.000398053 -4.15738e-06
7.45882e-06 -4.15738e-06 1.56523e-05
0.00210696 -0.000596655 -1.83226e-06
-0.000596655 0.000136328 2.79511e-07
-1.83226e-06 2.79511e-07 -3.23226e-05
0.00177424 -0.000758638 -5.36381e-06
-0.000758638 0.00041272 6.19905e-06
-5.36381e-06 6.19905e-06 -7.46423e-05
0.00222123 -0.000794388 5.7476e-06
-0.000794388 0.00046386 3.56259e-06
5.7476e-06 3.56259e-06 3.4456e-05
0.00220225 -0.000676112 6.12477e-06
-0.000676112 0.000325079 3.02731e-06
6.12477e-06 3.02731e-06 2.21909e-05
0.00224425 -0.000655738 -5.55137e-06
-0.000655738 0.00028691 -2.22485e-06
-5.55137e-06 -2.22485e-06 4.54058e-05
0.000463461 -0.000147896 -1.04722e-06
-0.000147896 2.8313e-05 -7.22284e-06
-1.04722e-06 -7.22284e-06 -0.00014138
0.000420219 -0.0001449 1.00639e-08
-0.0001449 6.39305e-05 5.17212e-07
1.00639e-08 5.17212e-07 -0.000280053
0.00127928 -0.000500334 2.7239e-06
-0.000500334 0.000367628 -2.52857e-06
2.7239e-06 -2.52857e-06 -3.7959e-05
0.00118443 -0.000318656 5.69716e-06
-0.000318656 0.00042663 1.19264e-06
5.69716e-06 1.19264e-06 0.000109686
0.00133478 -0.000470183 -1.00315e-05
-0.000470183 0.00047669 6.31343e-06
-1.00315e-05 6.31343e-06 5.13024e-05
0.000239454 -1.76352e-05 -2.93501e-06
-1.76352e-05 -0.000138197 -1.2038e-05
-2.93501e-06 -1.2038e-05 -0.000194916
0.00204309 0.000427669 -4.82429e-06
0.000427669 0.000196542 -3.23439e-07
-4.82429e-06 -3.23439e-07 -1.76443e-05
0.000300096 6.13354e-05 -5.04308e-07
6.13354e-05 -8.90895e-05 -5.33205e-06
-5.04308e-07 -5.33205e-06 -0.000269396
0.000217595 0.000220611 -7.04894e-06
0.000220611 -0.000212848 8.21063e-07
-7.04894e-06 8.21063e-07 -0.000435775
0.000729002 0.000212637 -1.10583e-06
0.000212637 0.000120055 4.43679e-06
-1.10583e-06 4.43679e-06 -0.000128116
0.00193164 0.000538312 -4.84087e-06
0.000538312 0.000265995 3.89106e-07
-4.84087e-06 3.89106e-07 -3.35626e-05
0.00211718 0.000547662 6.60444e-07
0.000547662 0.000229563 1.99864e-06
6.60444e-07 1.99864e-06 -8.01809e-06
0.00138965 0.000467112 8.24316e-07
0.000467112 0.000397201 -1.81189e-06
8.24316e-07 -1.81189e-06 4.10233e-05
0.00168929 0.000677419 2.58788e-06
0.000677419 0.000331033 5.43529e-06
2.58788e-06 5.43529e-06 -0.000113256
0.00214506 0.000656246 3.26198e-06
0.000656246 0.000408675 4.63535e-06
3.26198e-06 4.63535e-06 7.71424e-05
0.00214722 0.000657455 7.6158e-06
0.000657455 0.00039006 1.24e-05
7.6158e-06 1.24e-05 5.99409e-05
0.000449767 -7.65583e-07 -7.43671e-07
-7.65583e-07 -1.95452e-05 1.5468e-07
-7.43671e-07 1.5468e-07 -6.4413e-05
0.000606958 7.47606e-05 -4.4078e-07
7.47606e-05 0.000106255 1.56211e-07
-4.4078e-07 1.56211e-07 -4.03266e-05
0.000861885 0.000310759 2.64416e-06
0.000310759 0.000142534 1.40039e-06
2.64416e-06 1.40039e-06 -0.00013005
0.000566543 0.000148341 9.31566e-07
0.000148341 0.000112294 -2.17702e-06
9.31566e-07 -2.17702e-06 -0.000163646
0.000372625 0.000185973 -5.52392e-07
0.000185973 -0.000166052 3.28256e-06
-5.52392e-07 3.28256e-06 -0.000395745
0.00218215 0.000486797 -1.96374e-06
0.000486797 0.000193627 -1.93931e-06
-1.96374e-06 -1.93931e-06 3.52678e-06
0.00212392 0.000619064 4.89918e-07
0.000619064 0.000303471 1.49631e-07
4.89918e-07 1.49631e-07 1.41006e-05
0.00211393 0.000600669 1.6313e-06
0.000600669 0.000209259 1.18271e-07
1.6313e-06 1.18271e-07 -2.81943e-05
0.00166662 0.000657103 1.49452e-06
0.000657103 0.000528007 -8.40586e-07
1.49452e-06 -8.40586e-07 6.29478e-05
0.00235617 0.000725138 2.84375e-06
0.000725138 0.000447523 5.03173e-07
2.84375e-06 5.03173e-07 0.000117788
0.00212301 0.000761055 -4.39813e-06
0.000761055 0.000545501 7.74597e-08
-4.39813e-06 7.74597e-08 0.00011245
0.000712139 7.86699e-05 9.70987e-07
7.86699e-05 0.000164703 6.61304e-06
9.70987e-07 6.61304e-06 4.66943e-05
0.00192256 0.000250955 -8.33443e-07
0.000250955 0.00101105 2.02423e-07
-8.33443e-07 2.02423e-07 0.000758437
0.00115799 0.00046852 -6.12897e-07
0.00046852 0.000331364 5.01673e-06
-6.12897e-07 5.01673e-06 -2.46396e-05
0.0009854 0.000151877 4.96731e-06
0.000151877 0.000273502 -6.682e-07
4.96731e-06 -6.682e-07 2.09881e-05
0.00291917 0.000477793 -1.94146e-06
0.000477793 0.00135478 6.79104e-07
-1.94146e-06 6.79104e-07 0.00105704
0.00217236 0.00051427 -3.90822e-06
0.00051427 0.000145344 -1.96356e-06
-3.90822e-06 -1.96356e-06 -2.91739e-05
0.00213838 0.000672891 -3.77788e-06
0.000672891 0.000278086 -1.4434e-06
-3.77788e-06 -1.4434e-06 -1.0982e-05
0.00210705 0.000658807 2.12659e-06
0.000658807 0.000164383 -6.62684e-07
2.12659e-06 -6.62684e-07 -8.63204e-05
0.0012293 0.000683748 1.13026e-05
0.000683748 0.000280706 -4.6973e-06
1.13026e-05 -4.6973e-06 -0.000215608
0.0018299 0.000750427 1.34129e-05
0.000750427 0.000247987 -2.54776e-06
1.34129e-05 -2.54776e-06 -0.000145047
0.000576741 5.72608e-05 -2.4212e-07
5.72608e-05 8.27704e-05 1.44982e-07
-2.4212e-07 1.44982e-07 -1.85954e-05
0.000485837 0.000108458 1.43536e-06
0.000108458 4.64583e-05 2.26556e-06
1.43536e-06 2.26556e-06 -9.69075e-05
0.000100807 7.89672e-05 3.1017e-07
7.89672e-05 -0.000176047 -6.98697e-07
3.1017e-07 -6.98697e-07 -0.000318809
0.00141697 0.00022063 -2.24485e-06
0.00022063 0.000696618 -1.82118e-06
-2.24485e-06 -1.82118e-06 0.000508524
0.000900029 0.000151711 -5.72314e-07
0.000151711 0.000356327 2.41116e-06
-5.72314e-07 2.41116e-06 0.000204695
0.000537186 7.52771e-05 1.75594e-06
7.52771e-05 7.57392e-05 4.04676e-06
1.75594e-06 4.04676e-06 -6.32899e-06
0.000513237 2.35086e-05 -9.84434e-07
2.35086e-05 5.60544e-05 4.80857e-08
-9.84434e-07 4.80857e-08 -2.88171e-05
0.00133137 -7.78183e-06 1.63869e-06
-7.78183e-06 0.000538608 4.44959e-06
1.63869e-06 4.44959e-06 0.000514693
0.00051328 4.2865e-05 2.66978e-07
4.2865e-05 4.40777e-05 -5.84732e-06
2.66978e-07 -5.84732e-06 -4.46033e-05
0.00141166 -1.81205e-05 -1.02284e-05
-1.81205e-05 0.00059011 -1.76801e-06
-1.02284e-05 -1.76801e-06 0.000563248
0.000744284 -2.94717e-05 3.98728e-05
-2.94717e-05 0.00015842 1.0427e-05
3.98728e-05 1.0427e-05 0.000159602
0.00146245 -1.95951e-05 -1.98008e-05
-1.95951e-05 0.000626964 -7.13465e-06
-1.98008e-05 -7.13465e-06 0.0005951
0.00193803 -7.66591e-05 4.3276e-05
-7.66591e-05 0.000934356 1.32764e-06
4.3276e-05 1.32764e-06 0.000931724
0.00314124 -0.000131516 -4.79067e-05
-0.000131516 0.00171659 -5.23283e-06
-4.79067e-05 -5.23283e-06 0.0017115
0.000227224 5.56194e-05 -3.93425e-06
5.56194e-05 -0.000121349 -1.0337e-05
-3.93425e-06 -1.0337e-05 -0.000182529
0.000390272 -7.50359e-05 -9.06193e-07
-7.50359e-05 -4.24332e-05 4.75311e-07
-9.06193e-07 4.75311e-07 -0.000121015
0.00405523 0.000201258 2.42416e-05
0.000201258 0.00233386 -8.33418e-06
2.42416e-05 -8.33418e-06 0.00230448
0.00506103 0.00013836 -1.58675e-05
0.00013836 0.00298296 -1.63998e-06
-1.58675e-05 -1.63998e-06 0.00296658
0.000505466 -0.000143645 -2.0661e-05
-0.000143645 -9.97521e-07 1.54947e-05
-2.0661e-05 1.54947e-05 -0.000100332
0.00596274 0.000132726 -0.000206556
0.000132726 0.00356356 2.91705e-05
-0.000206556 2.91705e-05 0.00354268
0.00204023 0.000357005 -2.72511e-06
0.000357005 0.000147664 1.07671e-06
-2.72511e-06 1.07671e-06 -2.50623e-05
0.00196673 0.000192008 -1.07524e-06
0.000192008 6.45411e-05 1.03728e-06
-1.07524e-06 1.03728e-06 -4.09852e-05
0.0021721 0.000313994 -3.75785e-06
0.000313994 0.000110216 -2.38391e-07
-3.75785e-06 -2.38391e-07 1.80691e-05
0.00217167 0.00014491 -5.02067e-06
0.00014491 5.63955e-05 -5.01843e-07
-5.02067e-06 -5.01843e-07 3.22959e-05
0.0019264 6.40972e-05 -2.67343e-06
6.40972e-05 4.97004e-05 2.08979e-07
-2.67343e-06 2.08979e-07 -3.24855e-05
0.00105742 4.31696e-06 -1.019e-05
4.31696e-06 -9.12928e-05 1.00336e-07
-1.019e-05 1.00336e-07 -0.000218841
0.00194202 1.69475e-06 9.37718e-08
1.69475e-06 6.6104e-05 1.15189e-07
9.37718e-08 1.15189e-07 -1.48645e-05
0.00213811 6.34496e-05 -6.69776e-07
6.34496e-05 5.63129e-05 -2.22268e-08
-6.69776e-07 -2.22268e-08 3.27716e-05
0.00217249 0.000223675 1.35971e-07
0.000223675 7.90971e-05 3.40542e-08
1.35971e-07 3.40542e-08 2.99127e-05
0.00207461 0.000132502 -5.38845e-08
0.000132502 -1.19582e-05 1.14657e-07
-5.38845e-08 1.14657e-07 -1.28223e-05
0.00216863 0.000409967 -3.22774e-07
0.000409967 0.000137911 2.41261e-07
-3.22774e-07 2.41261e-07 -4.5766e-06
0.0021653 0.00031661 3.33161e-09
0.00031661 -1.16939e-06 1.17156e-08
3.33161e-09 1.17156e-08 -2.54695e-05
0.00211811 -6.49916e-06 5.62216e-06
-6.49916e-06 5.17308e-05 1.437e-07
5.62216e-06 1.437e-07 2.59048e-05
0.00209159 5.68375e-05 3.99717e-06
5.68375e-05 1.16062e-05 1.99873e-07
3.99717e-06 1.99873e-07 2.40478e-05
0.00212819 0.000208793 9.43671e-07
0.000208793 -3.21917e-06 3.26776e-08
9.43671e-07 3.26776e-08 -1.08504e-05
0.00218027 0.000137434 -3.69923e-07
0.000137434 -1.48083e-05 4.4054e-07
-3.69923e-07 4.4054e-07 1.60953e-05
0.00215519 0.000410702 1.00152e-06
0.000410702 5.04451e-05 2.20421e-07
1.00152e-06 2.20421e-07 -4.13771e-05
0.00234291 0.000320085 8.26547e-07
0.000320085 3.17213e-05 -5.30715e-08
8.26547e-07 -5.30715e-08 3.89585e-05
0.00196431 -5.72185e-05 -1.9193e-06
-5.72185e-05 8.31232e-05 -3.77668e-09
-1.9193e-06 -3.77668e-09 -6.09987e-07
0.00200293 -0.000219979 -1.96082e-06
-0.000219979 0.000105167 -5.63213e-07
-1.96082e-06 -5.63213e-07 -8.21797e-06
0.00215136 -0.000141484 -4.09762e-06
-0.000141484 7.15079e-05 5.9041e-08
-4.09762e-06 5.9041e-08 3.59518e-05
0.00199744 -0.000300692 -4.34913e-06
-0.000300692 2.27125e-05 9.01163e-07
-4.34913e-06 9.01163e-07 -7.2852e-05
0.00072533 -0.000277851 -1.18924e-05
-0.000277851 5.2228e-05 9.01506e-06
-1.18924e-05 9.01506e-06 -0.000219969
0.00156408 -0.000580552 -1.43425e-05
-0.000580552 0.000368908 1.88814e-06
-1.43425e-05 1.88814e-06 -4.26115e-05
0.00173523 -0.000703259 6.36323e-07
-0.000703259 0.000230614 -3.3511e-06
6.36323e-07 -3.3511e-06 -0.000196213
0.00197039 -0.000460732 -3.29294e-06
-0.000460732 9.8613e-05 3.9173e-07
-3.29294e-06 3.9173e-07 -8.71464e-05
0.00213849 -0.000420674 -2.22025e-06
-0.000420674 5.38857e-05 5.21231e-07
-2.22025e-06 5.21231e-07 -1.65228e-05
0.00204828 -0.000553456 -1.07069e-06
-0.000553456 0.000134089 7.03343e-07
-1.07069e-06 7.03343e-07 -6.06642e-05
0.00211203 -0.00067105 -3.84004e-06
-0.00067105 0.000283124 -3.67265e-06
-3.84004e-06 -3.67265e-06 -3.24604e-05
0.00217517 -0.000609909 3.49041e-06
-0.000609909 0.000281022 -2.87854e-06
3.49041e-06 -2.87854e-06 5.36287e-05
0.000745793 -0.000330961 -3.6487e-07
-0.000330961 7.44411e-05 1.69489e-06
-3.6487e-07 1.69489e-06 -0.000253478
0.000913366 -0.000334496 6.71115e-07
-0.000334496 0.000166627 3.75346e-06
6.71115e-07 3.75346e-06 -0.000171898
0.0008765 -0.000168022 -1.7653e-06
-0.000168022 0.000289844 4.20857e-06
-1.7653e-06 4.20857e-06 7.26789e-05
-0.000269558 -0.000136863 7.0732e-07
-0.000136863 -0.00049013 -4.32206e-06
7.0732e-07 -4.32206e-06 -0.000754152
0.00214537 -7.71827e-05 -1.73445e-07
-7.71827e-05 8.12438e-05 5.52423e-08
-1.73445e-07 5.52423e-08 4.73038e-05
0.0020605 -0.000230027 2.43212e-06
-0.000230027 1.41723e-05 -6.08451e-07
2.43212e-06 -6.08451e-07 -5.03433e-05
0.00205097 -0.000131706 7.43494e-07
-0.000131706 9.20273e-06 -2.4822e-07
7.43494e-07 -2.4822e-07 7.86611e-06
0.00215081 -0.000336099 -5.01727e-07
-0.000336099 3.02505e-05 5.84111e-08
-5.01727e-07 5.84111e-08 -5.54574e-07
0.00137367 -0.000464946 -3.06405e-06
-0.000464946 0.000366587 2.51315e-07
-3.06405e-06 2.51315e-07 -2.96349e-06
0.00170115 -0.000743167 1.89247e-06
-0.000743167 0.000379711 3.61362e-08
1.89247e-06 3.61362e-08 -0.000104623
0.00214795 -0.000802528 -7.40937e-07
-0.000802528 0.000414416 5.39113e-07
-7.40937e-07 5.39113e-07 -2.23242e-05
0.0021072 -0.000495125 -1.16774e-06
-0.000495125 0.000116858 3.82109e-07
-1.16774e-06 3.82109e-07 -2.60759e-05
0.00219195 -0.000438609 1.01438e-06
-0.000438609 4.86849e-05 -3.68578e-07
1.01438e-06 -3.68578e-07 -4.99921e-06
0.00221221 -0.000681864 -6.41464e-07
-0.000681864 0.000349289 6.16678e-07
-6.41464e-07 6.16678e-07 4.42104e-05
0.00212158 -0.000599747 -1.03806e-06
-0.000599747 0.000135752 7.89006e-07
-1.03806e-06 7.89006e-07 -3.31483e-05
0.00219823 -0.000653555 4.72637e-06
-0.000653555 0.000249103 -3.91592e-06
4.72637e-06 -3.91592e-06 1.27757e-05
0.00146565 -0.000525028 -6.82762e-07
-0.000525028 0.000494375 -1.57234e-06
-6.82762e-07 -1.57234e-06 8.21688e-05
0.0013514 -0.000474678 1.76726e-06
-0.000474678 0.000476791 2.27862e-06
1.76726e-06 2.27862e-06 6.02951e-05
0.0010164 -0.000276551 1.00997e-06
-0.000276551 0.000312709 -3.45507e-06
1.00997e-06 -3.45507e-06 -1.43617e-06
0.000188938 -0.000111456 -2.80065e-06
-0.000111456 -0.000144878 1.07336e-06
-2.80065e-06 1.07336e-06 -0.000316178
8.10227e-05 -0.000148502 -1.54707e-06
-0.000148502 -0.000161701 -1.30415e-06
-1.54707e-06 -1.30415e-06 -0.000491358
0.00204911 -7.72907e-05 3.06686e-06
-7.72907e-05 -1.00146e-05 -2.36738e-07
3.06686e-06 -2.36738e-07 1.38039e-06
0.0021042 -0.000202533 1.93845e-06
-0.000202533 -8.40233e-06 -2.23598e-07
1.93845e-06 -2.23598e-07 -7.45455e-06
0.00223968 -0.000402527 -1.20577e-07
-0.000402527 -1.56501e-05 2.03943e-07
-1.20577e-07 2.03943e-07 -1.77057e-05
0.00220548 -0.000521714 1.19595e-06
-0.000521714 7.75004e-05 -7.03336e-07
1.19595e-06 -7.03336e-07 1.02622e-06
0.0014808 -0.000635215 -2.60734e-06
-0.000635215 0.000414271 2.00431e-06
-2.60734e-06 2.00431e-06 -5.18725e-05
0.0023884 -0.000721265 -9.05101e-06
-0.000721265 0.000202716 -4.52183e-06
-9.05101e-06 -4.52183e-06 4.30596e-06
0.00148621 -0.000809572 -1.94032e-05
-0.000809572 0.000242491 7.56913e-06
-1.94032e-05 7.56913e-06 -0.000273213
0.00233658 -0.0008716 9.51704e-07
-0.0008716 0.000497348 1.98934e-06
9.51704e-07 1.98934e-06 4.76604e-05
0.00204245 -0.000658094 -8.07231e-06
-0.000658094 0.00023334 3.04954e-08
-8.07231e-06 3.04954e-08 -5.54697e-05
6.61411e-05 -3.95477e-05 -2.22034e-06
-3.95477e-05 -0.000207802 -6.57501e-06
-2.22034e-06 -6.57501e-06 -0.000337204
0.00116496 -0.000206277 -3.88619e-06
-0.000206277 0.000583199 -5.49407e-07
-3.88619e-06 -5.49407e-07 0.000263583
0.00204199 -0.000257005 -1.08029e-06
-0.000257005 0.00103453 -2.51346e-06
-1.08029e-06 -2.51346e-06 0.000701852
0.00214997 -0.000670151 -1.16705e-05
-0.000670151 0.000917302 1.54217e-06
-1.16705e-05 1.54217e-06 0.000440843
0.00143384 -0.000382841 5.8381e-06
-0.000382841 0.000518206 3.84496e-06
5.8381e-06 3.84496e-06 0.000152864
0.00118754 -0.000507208 -9.96967e-06
-0.000507208 0.000358098 1.27311e-05
-9.96967e-06 1.27311e-05 -8.80676e-05
0.000376058 1.91895e-06 -3.14996e-06
1.91895e-06 -6.56045e-05 -1.0182e-05
-3.14996e-06 -1.0182e-05 -0.000109804
0.000267093 6.13639e-05 -7.77078e-07
6.13639e-05 -0.000105963 -7.68086e-06
-7.77078e-07 -7.68086e-06 -0.000246424
0.00216778 0.000485421 -3.59525e-06
0.000485421 0.000186527 -6.10452e-07
-3.59525e-06 -6.10452e-07 -3.14213e-06
-0.000136163 5.6244e-05 -9.3008e-08
5.6244e-05 -0.000340209 7.90659e-07
-9.3008e-08 7.90659e-07 -0.000606949
0.00170115 0.000366608 5.32239e-06
0.000366608 0.000675678 -1.31514e-06
5.32239e-06 -1.31514e-06 0.000405624
0.000249705 0.00016193 -4.37222e-06
0.00016193 -0.000262677 -1.40863e-06
-4.37222e-06 -1.40863e-06 -0.000491255
0.00209935 0.000615318 2.54972e-06
0.000615318 0.000291864 2.2184e-06
2.54972e-06 2.2184e-06 3.64106e-06
0.002081 0.000598902 3.20865e-06
0.000598902 0.000190847 9.97813e-07
3.20865e-06 9.97813e-07 -4.65973e-05
0.0015293 0.000638377 2.32027e-06
0.000638377 0.00044844 2.48445e-06
2.32027e-06 2.48445e-06 -1.53636e-05
0.00240289 0.000781144 -5.38135e-06
0.000781144 0.000736077 5.18574e-06
-5.38135e-06 5.18574e-06 0.000305585
0.00223748 0.000714273 3.38035e-06
0.000714273 0.000353692 3.60491e-06
3.38035e-06 3.60491e-06 2.36204e-05
0.000604826 7.17414e-05 3.03981e-07
7.17414e-05 9.83021e-05 5.17829e-07
3.03981e-07 5.17829e-07 -1.709e-05
0.0007152 0.000114149 -1.08333e-06
0.000114149 0.000239209 -7.50107e-08
-1.08333e-06 -7.50107e-08 3.46021e-06
0.00113732 0.00047407 3.56339e-07
0.00047407 0.000295568 1.45052e-06
3.56339e-07 1.45052e-06 -6.65811e-05
0.000672209 0.000102758 3.77795e-08
0.000102758 7.48966e-05 -5.49105e-07
3.77795e-08 -5.49105e-07 -0.0001734
0.0010833 0.000301331 3.59206e-06
0.000301331 0.000169442 -4.04175e-06
3.59206e-06 -4.04175e-06 -9.18754e-05
0.00212867 0.000513352 -2.27793e-06
0.000513352 0.000128201 -1.28701e-06
-2.27793e-06 -1.28701e-06 -4.78863e-05
0.00219515 0.000678575 2.2753e-06
0.000678575 0.000305244 6.62834e-07
2.2753e-06 6.62834e-07 1.50137e-05
0.00212047 0.000657542 1.26595e-06
0.000657542 0.000164132 1.82562e-07
1.26595e-06 1.82562e-07 -8.52069e-05
0.00155167 0.000736601 2.20829e-06
0.000736601 0.000456304 9.60633e-07
2.20829e-06 9.60633e-07 -4.77757e-05
0.00187094 0.000758322 -1.91069e-06
0.000758322 0.000297313 -2.16219e-06
-1.91069e-06 -2.16219e-06 -0.000102587
0.00130551 0.000176223 9.85445e-07
0.000176223 0.000591851 2.97602e-06
9.85445e-07 2.97602e-06 0.000406615
-0.000322572 1.80849e-05 3.08244e-07
1.80849e-05 -0.000388345 1.45771e-07
3.08244e-07 1.45771e-07 -0.000673157
0.00148762 0.000582942 1.01827e-06
0.000582942 0.000514564 -3.83149e-06
1.01827e-06 -3.83149e-06 8.60864e-05
-7.35371e-05 0.000171235 6.83564e-06
0.000171235 -0.00055665 3.01041e-06
6.83564e-06 3.01041e-06 -0.000793356
0.0024503 0.000619673 1.77891e-06
0.000619673 0.000976431 -3.73381e-06
1.77891e-06 -3.73381e-06 0.000609171
0.00222586 0.000576727 -1.7686e-06
0.000576727 8.24202e-05 -5.89895e-07
-1.7686e-06 -5.89895e-07 -4.89735e-05
0.00223642 0.000739359 9.28559e-06
0.000739359 0.000286978 -3.02646e-06
9.28559e-06 -3.02646e-06 -3.77332e-05
0.00220318 0.000691899 8.35218e-06
0.000691899 0.000162932 1.09908e-06
8.35218e-06 1.09908e-06 -0.000106403
0.00180301 0.000788179 1.52591e-05
0.000788179 0.000554052 6.01986e-07
1.52591e-05 6.01986e-07 4.94006e-05
0.00215326 0.000877452 7.12225e-06
0.000877452 0.000493879 -3.63968e-07
7.12225e-06 -3.63968e-07 4.167e-05
0.000568807 4.74223e-05 -5.02441e-07
4.74223e-05 7.75317e-05 -6.68055e-06
-5.02441e-07 -6.68055e-06 -2.25883e-05
0.000566196 0.000111662 9.49821e-07
0.000111662 0.000100325 -7.45061e-07
9.49821e-07 -7.45061e-07 -4.67345e-05
0.000215601 8.71932e-05 -1.17589e-06
8.71932e-05 -0.000121969 -2.09818e-06
-1.17589e-06 -2.09818e-06 -0.00024629
-0.000216008 -2.22053e-05 2.74049e-06
-2.22053e-05 -0.000381053 -3.41641e-06
2.74049e-06 -3.41641e-06 -0.000517712
0.000562066 8.00225e-05 -1.13035e-06
8.00225e-05 0.000133885 3.59598e-07
-1.13035e-06 3.59598e-07 -7.84071e-06
0.000400771 0.000103398 1.01136e-06
0.000103398 2.83524e-05 -2.18621e-07
1.01136e-06 -2.18621e-07 -0.000126167
0.000555565 0.000153652 -1.49742e-06
0.000153652 0.000128002 -7.36504e-06
-1.49742e-06 -7.36504e-06 -1.95566e-05
0.000346714 4.32986e-05 -3.49336e-06
4.32986e-05 1.63232e-05 1.39104e-06
-3.49336e-06 1.39104e-06 -0.000150135
0.000653886 0.000108521 -1.28726e-08
0.000108521 0.000176359 2.42075e-06
-1.28726e-08 2.42075e-06 5.3e-05
0.000528781 8.11962e-05 2.77346e-06
8.11962e-05 7.16311e-05 4.20853e-06
2.77346e-06 4.20853e-06 -1.1632e-05
0.00048876 2.94625e-05 -2.77007e-06
2.94625e-05 4.03966e-05 7.82296e-08
-2.77007e-06 7.82296e-08 -3.922e-05
0.00130378 7.10308e-06 2.42991e-06
7.10308e-06 0.000524738 3.83863e-06
2.42991e-06 3.83863e-06 0.000502992
0.000348542 -7.31738e-05 4.47891e-06
-7.31738e-05 -3.99684e-05 -4.52204e-06
4.47891e-06 -4.52204e-06 -0.000129054
0.00137909 -3.97569e-06 -8.74758e-06
-3.97569e-06 0.000568786 -1.74142e-06
-8.74758e-06 -1.74142e-06 0.000546455
0.000740099 -2.1375e-05 3.42206e-05
-2.1375e-05 0.000154895 9.72156e-06
3.42206e-05 9.72156e-06 0.000158698
0.00143618 -9.76638e-06 -1.62733e-05
-9.76638e-06 0.000604333 -8.64795e-06
-1.62733e-05 -8.64795e-06 0.000579127
0.00074238 -3.74219e-05 1.47233e-05
-3.74219e-05 0.000157697 3.79011e-06
1.47233e-05 3.79011e-06 0.000155322
0.00285385 -0.00012536 2.92721e-07
-0.00012536 0.00152492 -3.5374e-06
2.92721e-07 -3.5374e-06 0.00152019
0.000270412 7.01729e-05 -4.75228e-06
7.01729e-05 -9.65344e-05 -6.97048e-06
-4.75228e-06 -6.97048e-06 -0.000145322
0.0003862 -1.10942e-05 -3.64144e-06
-1.10942e-05 -3.31995e-05 5.23583e-07
-3.64144e-06 5.23583e-07 -9.06431e-05
0.00328005 0.000179843 -1.24617e-05
0.000179843 0.00183409 -8.77955e-06
-1.24617e-05 -8.77955e-06 0.00181354
0.000690782 -0.000110169 -1.51213e-05
-0.000110169 0.000141045 1.32606e-05
-1.51213e-05 1.32606e-05 6.03513e-05
0.00434069 0.000148093 -4.01447e-05
0.000148093 0.00250932 -5.12653e-08
-4.01447e-05 -5.12653e-08 0.00249363
0.00540199 0.000115867 -0.000182421
0.000115867 0.00319675 2.43664e-05
-0.000182421 2.43664e-05 0.0031845
0.00218422 0.000414014 -3.29586e-06
0.000414014 0.000142906 6.54908e-07
-3.29586e-06 6.54908e-07 -7.29688e-07
0.00219694 0.000222604 -4.96416e-06
0.000222604 9.11016e-05 -1.04429e-06
-4.96416e-06 -1.04429e-06 4.23644e-05
0.00214023 0.000307071 -5.91421e-07
0.000307071 -1.73364e-05 -3.77156e-08
-5.91421e-07 -3.77156e-08 -4.10538e-05
0.00206752 0.000133328 -5.25356e-07
0.000133328 -2.32759e-05 -2.4767e-07
-5.25356e-07 -2.4767e-07 -1.93709e-05
0.00213207 5.60535e-05 -6.25542e-06
5.60535e-05 5.62615e-05 -1.68724e-07
-6.25542e-06 -1.68724e-07 3.2136e-05
0.00193995 3.78275e-06 -2.79463e-06
3.78275e-06 6.46743e-05 3.08784e-07
-2.79463e-06 3.08784e-07 -1.63852e-05
0.00212782 -7.99328e-06 4.97034e-08
-7.99328e-06 6.32436e-05 4.36948e-08
4.97034e-08 4.36948e-08 3.53863e-05
0.00208373 5.80732e-05 1.2039e-06
5.80732e-05 9.48331e-06 2.31955e-08
1.2039e-06 2.31955e-08 1.82594e-05
0.00214241 0.000208398 -3.26452e-07
0.000208398 9.65041e-06 -1.27903e-07
-3.26452e-07 -1.27903e-07 2.73282e-06
0.00216203 0.000138289 5.71458e-07
0.000138289 -3.11644e-05 1.48296e-07
5.71458e-07 1.48296e-07 6.56064e-06
0.00216357 0.000410503 -4.33954e-07
0.000410503 6.51587e-05 3.449e-07
-4.33954e-07 3.449e-07 -2.87129e-05
0.00227956 0.000321556 2.4874e-06
0.000321556 -9.97649e-06 4.22165e-07
2.4874e-06 4.22165e-07 3.99426e-06
0.00204679 -1.4071e-05 3.06112e-06
-1.4071e-05 -6.84331e-06 7.22432e-08
3.06112e-06 7.22432e-08 -1.17928e-06
0.00216787 6.61693e-05 -1.43189e-06
6.61693e-05 -3.5801e-05 4.58365e-08
-1.43189e-06 4.58365e-08 1.44709e-05
0.00225056 0.000212294 -3.02397e-06
0.000212294 -2.12448e-05 -5.06742e-07
-3.02397e-06 -5.06742e-07 1.47234e-05
0.00235672 0.000448809 -2.05001e-06
0.000448809 3.1605e-05 -4.08105e-07
-2.05001e-06 -4.08105e-07 2.46169e-05
0.00214596 -7.73983e-05 -7.54457e-06
-7.73983e-05 8.08902e-05 3.67147e-07
-7.54457e-06 3.67147e-07 4.68773e-05
0.00209706 -0.000234097 -2.96854e-06
-0.000234097 4.38425e-05 2.7185e-07
-2.96854e-06 2.7185e-07 -2.20151e-05
0.00202556 -0.000131254 -3.95533e-06
-0.000131254 -1.34654e-05 3.05135e-07
-3.95533e-06 3.05135e-07 -1.30617e-05
0.0021305 -0.000334608 -4.54019e-06
-0.000334608 2.38739e-05 6.92423e-07
-4.54019e-06 6.92423e-07 -1.34953e-05
0.00103189 -0.000437632 -7.24961e-06
-0.000437632 0.000141402 1.6324e-06
-7.24961e-06 1.6324e-06 -0.000223632
0.00168946 -0.000735112 1.16777e-05
-0.000735112 0.000381281 -6.36853e-06
1.16777e-05 -6.36853e-06 -0.000101396
0.00213729 -0.000819007 -2.85788e-06
-0.000819007 0.000402511 -3.2966e-06
-2.85788e-06 -3.2966e-06 -4.39393e-05
0.00207732 -0.000488964 -4.37067e-06
-0.000488964 0.000105566 1.32637e-06
-4.37067e-06 1.32637e-06 -4.16223e-05
0.00214905 -0.000437078 -9.61773e-08
-0.000437078 2.25157e-05 5.86283e-07
-9.61773e-08 5.86283e-07 -2.61096e-05
0.00209918 -0.000601039 -5.68535e-07
-0.000601039 0.000111962 1.41421e-06
-5.68535e-07 1.41421e-06 -5.69882e-05
0.0021499 -0.000669201 -6.84629e-06
-0.000669201 0.000326457 -1.77495e-06
-6.84629e-06 -1.77495e-06 2.52319e-05
0.00224989 -0.000654814 1.0642e-05
-0.000654814 0.00027613 -4.78775e-06
1.0642e-05 -4.78775e-06 4.40783e-05
0.00112711 -0.000479085 -5.12095e-06
-0.000479085 0.000299399 6.92048e-07
-5.12095e-06 6.92048e-07 -0.000101579
0.00100588 -0.000442236 1.18336e-05
-0.000442236 0.000238596 -4.49443e-06
1.18336e-05 -4.49443e-06 -0.000163539
0.00135908 -0.0002394 -1.95157e-06
-0.0002394 0.000502076 -7.87897e-06
-1.95157e-06 -7.87897e-06 0.000202319
5.61893e-05 -8.6609e-05 1.36251e-06
-8.6609e-05 -0.000227735 5.11117e-06
1.36251e-06 5.11117e-06 -0.000400597
-0.000110371 -0.000157427 2.8571e-06
-0.000157427 -0.000285965 -2.83648e-06
2.8571e-06 -2.83648e-06 -0.000605452
0.00203587 -8.54251e-05 1.7012e-07
-8.54251e-05 -1.97752e-05 -1.15856e-07
1.7012e-07 -1.15856e-07 -9.68989e-06
0.00212037 -0.000203239 1.56383e-06
-0.000203239 -1.77907e-06 -2.2814e-08
1.56383e-06 -2.2814e-08 -1.07588e-06
0.00223287 -0.000395393 -6.41746e-07
-0.000395393 -2.22242e-06 8.46852e-08
-6.41746e-07 8.46852e-08 -1.09847e-05
0.00165848 -0.000651335 -1.4913e-06
-0.000651335 0.000521374 -4.71848e-07
-1.4913e-06 -4.71848e-07 5.3921e-05
0.00154697 -0.000797052 4.03307e-06
-0.000797052 0.000281199 -5.81348e-07
4.03307e-06 -5.81348e-07 -0.000228033
0.00225533 -0.000875552 -8.65162e-07
-0.000875552 0.000452879 -2.16963e-07
-8.65162e-07 -2.16963e-07 -2.83319e-06
0.00219874 -0.000517832 5.01359e-07
-0.000517832 7.82235e-05 -3.48915e-08
5.01359e-07 -3.48915e-08 -9.92832e-07
0.00217804 -0.000689487 2.89573e-06
-0.000689487 0.000290361 -4.19819e-06
2.89573e-06 -4.19819e-06 -1.68097e-06
0.00230187 -0.000698394 -1.04754e-06
-0.000698394 0.000183111 -2.95895e-07
-1.04754e-06 -2.95895e-07 -8.28552e-06
-7.72478e-05 3.75605e-05 -2.16289e-06
3.75605e-05 -0.00031302 -7.12575e-07
-2.16289e-06 -7.12575e-07 -0.000428831
0.00128397 -0.000555847 2.8903e-09
-0.000555847 0.000391461 -1.83386e-06
2.8903e-09 -1.83386e-06 -6.10182e-05
0.00127452 -0.000524099 -4.23197e-06
-0.000524099 0.000428421 -7.25122e-07
-4.23197e-06 -7.25122e-07 -3.83873e-05
0.00154661 -0.000370648 -3.29644e-06
-0.000370648 0.000615833 3.71079e-06
-3.29644e-06 3.71079e-06 0.000237657
0.00146687 -0.000360321 1.60357e-06
-0.000360321 0.00067537 -1.67254e-06
1.60357e-06 -1.67254e-06 0.000327599
0.000489522 -0.000105183 -6.20491e-07
-0.000105183 0.00014219 1.15964e-06
-6.20491e-07 1.15964e-06 -0.000161173
0.00212547 -0.000107842 -4.94368e-07
-0.000107842 -4.49361e-05 1.64591e-07
-4.94368e-07 1.64591e-07 -5.62134e-06
0.00229134 -0.000274394 -7.81939e-07
-0.000274394 -4.81833e-05 1.08001e-06
-7.81939e-07 1.08001e-06 9.298e-06
0.00230841 -0.000487434 4.17533e-07
-0.000487434 -5.69741e-06 1.76756e-07
4.17533e-07 1.76756e-07 3.7054e-06
0.00233834 -0.000622672 -6.28965e-07
-0.000622672 5.66693e-05 -2.33454e-06
-6.28965e-07 -2.33454e-06 1.70367e-06
0.00193167 -0.000761133 -1.20208e-05
-0.000761133 0.000677124 4.14232e-06
-1.20208e-05 4.14232e-06 0.000167218
0.00255053 -0.000825395 -1.10798e-05
-0.000825395 0.000394994 -7.50942e-06
-1.10798e-05 -7.50942e-06 0.000118142
0.0018918 -0.000921422 -5.17753e-05
-0.000921422 0.000475011 8.28548e-06
-5.17753e-05 8.28548e-06 -7.74919e-05
0.00218145 -0.000916226 -2.81375e-05
-0.000916226 0.000427155 2.75213e-06
-2.81375e-05 2.75213e-06 -4.32843e-05
-0.000186327 4.65396e-05 -6.15149e-06
4.65396e-05 -0.000383656 -3.56232e-06
-6.15149e-06 -3.56232e-06 -0.000469525
0.00106847 -1.12578e-06 -3.39039e-06
-1.12578e-06 0.000487085 -6.33608e-07
-3.39039e-06 -6.33608e-07 0.000272742
0.00211267 -0.000375556 -7.6801e-06
-0.000375556 0.0011879 9.39545e-07
-7.6801e-06 9.39545e-07 0.000834642
0.000632842 -0.000225691 -8.88236e-07
-0.000225691 0.00011142 -7.57061e-06
-8.88236e-07 -7.57061e-06 -0.000238974
0.00300475 -0.000796403 -1.69891e-05
-0.000796403 0.00143175 1.40795e-05
-1.69891e-05 1.40795e-05 0.000920663
0.00178737 -0.000574706 2.47804e-06
-0.000574706 0.000763809 1.6877e-05
2.47804e-06 1.6877e-05 0.000242228
0.000585027 5.88793e-05 -7.49501e-07
5.88793e-05 8.71786e-05 -7.20615e-06
-7.49501e-07 -7.20615e-06 -2.59241e-05
-0.000472888 3.7966e-05 1.41312e-06
3.7966e-05 -0.000513048 1.44158e-07
1.41312e-06 1.44158e-07 -0.000738877
0.0020821 0.000512666 -1.46945e-06
0.000512666 0.00010799 -8.09502e-07
-1.46945e-06 -8.09502e-07 -6.97582e-05
0.000293461 8.51078e-05 -3.85921e-06
8.51078e-05 -0.000168077 2.98208e-06
-3.85921e-06 2.98208e-06 -0.000410566
0.00128181 0.000500284 2.10338e-06
0.000500284 0.00036338 -5.0481e-06
2.10338e-06 -5.0481e-06 -9.38348e-06
-0.000536431 0.000112948 -6.96727e-06
0.000112948 -0.000859418 -6.49924e-06
-6.96727e-06 -6.49924e-06 -0.0010679
0.00224578 0.000683983 4.42246e-06
0.000683983 0.000327501 1.9569e-06
4.42246e-06 1.9569e-06 3.61051e-05
0.00211308 0.000653809 -4.51378e-06
0.000653809 0.000151599 4.76119e-07
-4.51378e-06 4.76119e-07 -9.59351e-05
0.00203217 0.000807983 -6.49775e-06
0.000807983 0.000730968 4.40795e-06
-6.49775e-06 4.40795e-06 0.000214229
0.00197602 0.000772979 -8.63209e-06
0.000772979 0.000389203 1.90953e-06
-8.63209e-06 1.90953e-06 -2.02154e-05
0.000844102 0.000140462 -8.82475e-07
0.000140462 0.000289246 -7.30777e-08
-8.82475e-07 -7.30777e-08 0.000116498
0.000395841 0.000129217 2.26475e-06
0.000129217 5.60387e-05 -9.8459e-07
2.26475e-06 -9.8459e-07 -0.000241341
0.00135285 0.000557451 -3.59525e-06
0.000557451 0.000427744 -1.22167e-06
-3.59525e-06 -1.22167e-06 8.42148e-06
0.0013521 0.00023434 -1.21737e-06
0.00023434 0.000330213 7.36888e-07
-1.21737e-06 7.36888e-07 9.40103e-05
0.00210916 0.000533436 7.67112e-07
0.000533436 0.00074298 -2.95658e-06
7.67112e-07 -2.95658e-06 0.000402218
0.0023033 0.000589142 -2.43503e-06
0.000589142 0.000113716 -8.72623e-07
-2.43503e-06 -8.72623e-07 -2.07415e-05
0.00239598 0.000738307 2.91058e-06
0.000738307 0.000391839 -7.47441e-07
2.91058e-06 -7.47441e-07 7.56387e-05
0.00242836 0.000718082 1.23867e-06
0.000718082 0.000296396 2.74301e-06
1.23867e-06 2.74301e-06 2.30473e-05
0.00174304 0.000790161 4.85848e-06
0.000790161 0.000515572 1.32951e-06
4.85848e-06 1.32951e-06 5.3033e-06
0.00211611 0.000905032 -5.00269e-06
0.000905032 0.000474276 8.36535e-07
-5.00269e-06 8.36535e-07 3.01308e-06
-0.00134183 1.65964e-05 -5.98386e-06
1.65964e-05 -0.00107352 4.85078e-06
-5.98386e-06 4.85078e-06 -0.00123954
-0.00150723 0.000118532 5.61786e-07
0.000118532 -0.00109132 8.16349e-07
5.61786e-07 8.16349e-07 -0.00142714
0.00169279 0.000636574 6.72829e-06
0.000636574 0.000583681 -2.76521e-06
6.72829e-06 -2.76521e-06 0.000140663
0.00149817 0.000419437 6.30073e-06
0.000419437 0.000327873 5.37945e-07
6.30073e-06 5.37945e-07 3.23376e-05
0.00256458 0.000590298 2.63347e-06
0.000590298 -4.87257e-05 9.63256e-07
2.63347e-06 9.63256e-07 -5.5952e-07
0.00261202 0.00071485 7.66787e-06
0.00071485 0.000319561 8.24159e-07
7.66787e-06 8.24159e-07 0.000112096
0.00238762 0.000870006 8.87498e-06
0.000870006 0.000398283 -4.04357e-06
8.87498e-06 -4.04357e-06 -9.47465e-06
0.00165452 0.000876966 5.16521e-06
0.000876966 0.000314403 -9.73095e-07
5.16521e-06 -9.73095e-07 -0.000223033
0.00100461 0.000160328 1.54943e-07
0.000160328 0.000393505 -2.26283e-06
1.54943e-07 -2.26283e-06 0.000230701
0.000446735 0.000157616 -2.54173e-06
0.000157616 4.4087e-05 -5.09289e-07
-2.54173e-06 -5.09289e-07 -9.80405e-05
0.00120872 0.000133437 -9.19619e-06
0.000133437 0.000534475 -5.21321e-06
-9.19619e-06 -5.21321e-06 0.000427708
0.000417453 5.22845e-05 2.99258e-07
5.22845e-05 1.71625e-05 -2.54597e-06
2.99258e-07 -2.54597e-06 -0.000105284
-0.000653896 5.04432e-05 2.54131e-07
5.04432e-05 -0.000626352 -3.84072e-07
2.54131e-07 -3.84072e-07 -0.000772961
0.000652622 6.37091e-05 -7.88814e-07
6.37091e-05 0.000177869 7.40964e-08
-7.88814e-07 7.40964e-08 5.23669e-05
0.000573309 0.000170223 1.34427e-06
0.000170223 0.000169466 1.11067e-06
1.34427e-06 1.11067e-06 1.70008e-05
0.000534953 8.46835e-05 6.17589e-07
8.46835e-05 0.000154692 9.37473e-07
6.17589e-07 9.37473e-07 -2.76273e-05
0.000648883 0.000141089 3.71097e-06
0.000141089 0.000139622 -6.52802e-06
3.71097e-06 -6.52802e-06 5.15741e-05
0.00072414 4.35672e-05 1.75582e-06
4.35672e-05 0.000262441 -4.87367e-06
1.75582e-06 -4.87367e-06 8.74687e-05
-9.00992e-07 7.54109e-05 -4.13994e-07
7.54109e-05 -0.000207591 3.08407e-06
-4.13994e-07 3.08407e-06 -0.000368105
0.000675974 0.00012246 2.23209e-06
0.00012246 0.00019026 4.00725e-06
2.23209e-06 4.00725e-06 6.20399e-05
0.000448776 8.58931e-05 2.78763e-06
8.58931e-05 2.72623e-05 4.07818e-06
2.78763e-06 4.07818e-06 -6.21524e-05
0.000437429 2.00859e-05 -1.55049e-06
2.00859e-05 1.06279e-05 -4.0423e-07
-1.55049e-06 -4.0423e-07 -7.01182e-05
0.00124502 1.29833e-05 1.25425e-06
1.29833e-05 0.000492677 3.30188e-06
1.25425e-06 3.30188e-06 0.000471391
0.000425839 -4.10683e-05 9.80765e-07
-4.10683e-05 -3.10905e-06 -3.5149e-06
9.80765e-07 -3.5149e-06 -7.99135e-05
0.00132838 -1.21346e-06 -8.56035e-06
-1.21346e-06 0.000539629 -1.73912e-06
-8.56035e-06 -1.73912e-06 0.000519125
0.000700054 -1.14172e-05 3.13335e-05
-1.14172e-05 0.000132081 9.75225e-06
3.13335e-05 9.75225e-06 0.000136827
0.00136967 -2.17613e-05 -1.14367e-05
-2.17613e-05 0.000563214 -7.52963e-06
-1.14367e-05 -7.52963e-06 0.000541727
0.000735617 -2.67861e-05 1.27902e-05
-2.67861e-05 0.000150179 3.68895e-06
1.27902e-05 3.68895e-06 0.00015186
0.000729709 -4.06706e-05 1.36536e-06
-4.06706e-05 0.000149514 -3.92064e-06
1.36536e-06 -3.92064e-06 0.000145483
0.000352389 5.01054e-05 -2.24776e-06
5.01054e-05 -6.90503e-05 -5.03585e-06
-2.24776e-06 -5.03585e-06 -0.000101226
0.000398207 6.86304e-05 -1.05913e-06
6.86304e-05 -1.8528e-05 1.60853e-07
-1.05913e-06 1.60853e-07 -6.69907e-05
0.00270443 0.000133976 -1.20619e-06
0.000133976 0.00145167 -6.46967e-06
-1.20619e-06 -6.46967e-06 0.00144379
0.000536966 -1.42265e-05 -9.17883e-06
-1.42265e-05 6.23526e-05 1.13303e-05
-9.17883e-06 1.13303e-05 2.02652e-06
0.00346127 0.000164569 -2.35643e-05
0.000164569 0.00194308 -2.20195e-06
-2.35643e-05 -2.20195e-06 0.0019255
0.00449135 8.26437e-05 -0.000154224
8.26437e-05 0.00259902 1.8229e-05
-0.000154224 1.8229e-05 0.00259863
0.00216799 0.000409862 -7.34393e-07
0.000409862 7.7965e-05 5.67299e-07
-7.34393e-07 5.67299e-07 -1.78191e-05
0.00215798 0.000208377 -2.65736e-06
0.000208377 2.23882e-05 -8.8189e-07
-2.65736e-06 -8.8189e-07 1.62054e-05
0.00221461 0.000322681 1.97311e-06
0.000322681 -5.32429e-05 1.37289e-06
1.97311e-06 1.37289e-06 -3.25456e-05
0.00213624 0.000139215 2.29308e-06
0.000139215 -5.30478e-05 -8.12054e-08
2.29308e-06 -8.12054e-08 -8.05735e-06
0.00207707 5.9397e-05 -3.02418e-06
5.9397e-05 7.73036e-06 -3.18973e-07
-3.02418e-06 -3.18973e-07 1.30945e-05
0.00214354 -1.12617e-05 -8.04191e-06
-1.12617e-05 7.86525e-05 -2.60819e-09
-8.04191e-06 -2.60819e-09 4.88366e-05
0.00205585 -1.26196e-05 2.37151e-07
-1.26196e-05 -6.51536e-08 5.3528e-09
2.37151e-07 5.3528e-09 6.43365e-06
0.00214822 6.89786e-05 1.05696e-06
6.89786e-05 -4.45096e-05 9.21094e-08
1.05696e-06 9.21094e-08 4.17494e-06
0.00223151 0.0002185 1.05829e-06
0.0002185 -3.63391e-05 1.62258e-07
1.05829e-06 1.62258e-07 3.70777e-06
0.00233045 0.000435606 5.64869e-07
0.000435606 7.98162e-06 1.91993e-07
5.64869e-07 1.91993e-07 3.86046e-06
0.00211771 -1.69679e-05 -1.87073e-06
-1.69679e-05 -5.36385e-05 1.03697e-08
-1.87073e-06 1.03697e-08 -1.11648e-05
0.00227508 0.000119845 -5.12111e-06
0.000119845 -8.01327e-05 -4.04184e-07
-5.12111e-06 -4.04184e-07 1.15176e-05
0.00249368 0.000331476 -1.71726e-06
0.000331476 -1.01734e-05 -1.26039e-06
-1.71726e-06 -1.26039e-06 5.58744e-05
0.00202335 -9.34443e-05 -2.64e-06
-9.34443e-05 -2.89835e-05 1.60574e-07
-2.64e-06 1.60574e-07 -2.01933e-05
0.00213239 -0.000203247 -2.41009e-06
-0.000203247 2.9859e-06 -9.17039e-08
-2.41009e-06 -9.17039e-08 3.3628e-06
0.00222262 -0.000387717 -1.3365e-06
-0.000387717 9.94717e-06 -4.83831e-08
-1.3365e-06 -4.83831e-08 -6.1902e-06
0.00179958 -0.000669006 1.6856e-06
-0.000669006 0.000593752 -3.01511e-06
1.6856e-06 -3.01511e-06 0.000124204
0.00162903 -0.000781141 2.23678e-05
-0.000781141 0.000335996 -7.69299e-06
2.23678e-05 -7.69299e-06 -0.000164048
0.00208018 -0.000867056 1.35127e-06
-0.000867056 0.000360433 -1.02691e-06
1.35127e-06 -1.02691e-06 -9.6986e-05
0.00219822 -0.000514508 -1.44851e-06
-0.000514508 8.1981e-05 7.20054e-07
-1.44851e-06 7.20054e-07 5.62047e-08
0.00227029 -0.000679905 9.02323e-06
-0.000679905 0.000192096 2.7642e-06
9.02323e-06 2.7642e-06 9.94636e-06
0.0022955 -0.000727387 7.5848e-06
-0.000727387 0.000331831 -6.69204e-06
7.5848e-06 -6.69204e-06 3.47489e-05
0.000984023 -0.000505883 3.34945e-06
-0.000505883 0.000215882 -2.31965e-06
3.34945e-06 -2.31965e-06 -0.000226137
0.00184613 -0.000611441 1.05031e-05
-0.000611441 0.000784826 -1.42241e-05
1.05031e-05 -1.42241e-05 0.000305141
0.00182218 -0.00040493 -6.61447e-06
-0.00040493 0.000836428 3.1103e-06
-6.61447e-06 3.1103e-06 0.00042285
0.000235094 3.94776e-05 4.65984e-06
3.94776e-05 -0.000116802 2.75937e-06
4.65984e-06 2.75937e-06 -0.000229639
0.0018227 -0.000430741 3.091e-07
-0.000430741 0.000884276 2.31533e-06
3.091e-07 2.31533e-06 0.000533056
-0.00031211 1.13442e-05 7.27078e-06
1.13442e-05 -0.000379668 -8.52921e-07
7.27078e-06 -8.52921e-07 -0.000665669
0.00213633 -0.000104359 -5.88769e-07
-0.000104359 -3.73548e-05 8.51351e-08
-5.88769e-07 8.51351e-08 -2.23658e-07
0.0022681 -0.000283855 2.9343e-07
-0.000283855 -6.64987e-05 -2.35909e-08
2.9343e-07 -2.35909e-08 -7.03425e-06
0.00230703 -0.000479508 -7.12618e-07
-0.000479508 -2.52965e-06 3.20053e-07
-7.12618e-07 3.20053e-07 5.24902e-06
0.00196519 -0.000766572 -1.10462e-06
-0.000766572 0.000699528 1.08597e-06
-1.10462e-06 1.08597e-06 0.000189599
0.00161461 -0.000877261 7.63707e-06
-0.000877261 0.000316703 -2.10634e-06
7.63707e-06 -2.10634e-06 -0.0002218
0.00242793 -0.000918024 -2.08217e-06
-0.000918024 0.000575986 -1.17478e-06
-2.08217e-06 -1.17478e-06 0.00011925
0.00233893 -0.000633962 2.90222e-08
-0.000633962 5.9846e-05 -1.79953e-07
2.90222e-08 -1.79953e-07 -4.90087e-06
0.00208987 -0.000765123 2.15538e-06
-0.000765123 0.000145166 -1.19698e-06
2.15538e-06 -1.19698e-06 -0.000112614
0.00019226 6.12986e-05 -2.27506e-06
6.12986e-05 -0.000142736 -1.4641e-06
-2.27506e-06 -1.4641e-06 -0.000226216
0.000694975 -4.5516e-05 -1.15994e-06
-4.5516e-05 0.000236804 7.07623e-07
-1.15994e-06 7.07623e-07 3.49509e-05
0.00113703 -0.000572976 -3.1977e-06
-0.000572976 0.000297564 1.34118e-06
-3.1977e-06 1.34118e-06 -0.000155177
0.00159819 -0.000519685 -5.00605e-06
-0.000519685 0.000675491 1.61346e-06
-5.00605e-06 1.61346e-06 0.00016074
0.00111562 -0.000201252 -3.25043e-07
-0.000201252 0.000397019 -1.86795e-06
-3.25043e-07 -1.86795e-06 4.49147e-05
0.00140126 -0.000284022 -1.63266e-07
-0.000284022 0.00073099 2.10845e-06
-1.63266e-07 2.10845e-06 0.000384718
0.00226014 -0.000141498 -3.8546e-06
-0.000141498 -7.70625e-05 1.59239e-06
-3.8546e-06 1.59239e-06 1.55341e-05
0.0024245 -0.000411648 -1.67735e-06
-0.000411648 -0.00011376 2.15426e-06
-1.67735e-06 2.15426e-06 9.45876e-06
0.00239214 -0.000597135 2.70884e-06
-0.000597135 -8.94482e-06 -1.34876e-06
2.70884e-06 -1.34876e-06 -1.19981e-06
0.00248096 -0.000806969 2.48955e-06
-0.000806969 0.000169328 -2.87697e-06
2.48955e-06 -2.87697e-06 1.40054e-05
0.000939757 -0.000671971 -1.00513e-05
-0.000671971 8.66202e-05 -5.24028e-06
-1.00513e-05 -5.24028e-06 -0.000396585
0.00247071 -0.000983085 -5.33636e-06
-0.000983085 0.000506016 -3.36451e-06
-5.33636e-06 -3.36451e-06 8.18184e-05
0.00246203 -0.00107849 -5.99288e-05
-0.00107849 0.000730021 1.48825e-06
-5.99288e-05 1.48825e-06 0.000128971
0.000547311 4.46193e-05 -1.56037e-07
4.46193e-05 6.49959e-05 -8.79735e-07
-1.56037e-07 -8.79735e-07 1.81167e-06
0.000779339 -0.000164318 4.03614e-06
-0.000164318 0.000285782 -2.64444e-06
4.03614e-06 -2.64444e-06 0.000154057
0.000195393 8.58712e-05 -8.54496e-06
8.58712e-05 -9.0911e-05 -9.30839e-07
-8.54496e-06 -9.30839e-07 -0.000223434
0.00106733 -8.1981e-05 -4.63403e-06
-8.1981e-05 0.000501387 3.30631e-06
-4.63403e-06 3.30631e-06 0.000236295
-0.000442164 -0.000186071 8.09836e-07
-0.000186071 -0.000497974 -9.89541e-06
8.09836e-07 -9.89541e-06 -0.000808693
0.000995145 -0.000258441 3.80934e-06
-0.000258441 0.000382267 -7.22527e-06
3.80934e-06 -7.22527e-06 -6.03258e-05
0.00152781 -0.000647659 -2.97877e-05
-0.000647659 0.000540463 3.43609e-05
-2.97877e-05 3.43609e-05 8.13384e-05
0.00246307 -0.000564591 -2.24207e-05
-0.000564591 0.00140922 1.82789e-05
-2.24207e-05 1.82789e-05 0.000660321
0.000107821 6.89708e-05 1.77776e-07
6.89708e-05 -0.000200936 -6.93329e-07
1.77776e-07 -6.93329e-07 -0.000349711
0.0013611 0.000266359 -2.19951e-07
0.000266359 0.000641771 7.95278e-07
-2.19951e-07 7.95278e-07 0.000336734
0.00238398 0.000602591 -1.16402e-06
0.000602591 0.000146768 -8.50621e-07
-1.16402e-06 -8.50621e-07 8.71606e-06
0.00072105 0.000195689 -6.06555e-06
0.000195689 -7.15436e-05 -2.22119e-06
-6.06555e-06 -2.22119e-06 -0.000317039
0.00118335 0.000528489 -2.67146e-06
0.000528489 0.000322732 -1.24835e-06
-2.67146e-06 -1.24835e-06 -8.9136e-05
0.00206361 0.000484803 -7.22012e-06
0.000484803 0.000694759 1.36017e-08
-7.22012e-06 1.36017e-08 0.000370415
0.0025406 0.000733837 -6.29181e-06
0.000733837 0.000489078 7.99523e-08
-6.29181e-06 7.99523e-08 0.000182647
0.00263311 0.000742925 -8.54811e-06
0.000742925 0.000418146 6.11244e-06
-8.54811e-06 6.11244e-06 0.000141231
0.00160517 0.000784875 -6.05958e-06
0.000784875 0.000424708 1.57085e-06
-6.05958e-06 1.57085e-06 -8.89315e-05
0.00197032 0.000922048 -1.16637e-05
0.000922048 0.000390543 8.07159e-08
-1.16637e-05 8.07159e-08 -9.69356e-05
-0.000173737 7.65184e-05 1.44118e-06
7.65184e-05 -0.000318634 1.55796e-06
1.44118e-06 1.55796e-06 -0.000520644
0.00025591 0.000299646 3.12817e-06
0.000299646 1.85991e-05 -2.43105e-06
3.12817e-06 -2.43105e-06 -0.000335982
0.00152739 0.000629174 1.67314e-06
0.000629174 0.000456301 -4.80307e-08
1.67314e-06 -4.80307e-08 7.49644e-06
0.00199265 0.000473676 -5.03582e-06
0.000473676 0.000670061 1.15123e-06
-5.03582e-06 1.15123e-06 0.000357486
0.00250428 0.000566359 3.6053e-07
0.000566359 -0.00011583 -9.62408e-07
3.6053e-07 -9.62408e-07 -4.78944e-05
0.00263496 0.000726808 3.20073e-06
0.000726808 0.000330837 -1.43563e-07
3.20073e-06 -1.43563e-07 0.000110101
0.00225582 0.000838783 -3.06237e-06
0.000838783 0.000346846 -3.43607e-08
-3.06237e-06 -3.43607e-08 -4.95563e-05
0.00199747 0.000907852 1.91841e-06
0.000907852 0.000499743 3.5789e-07
1.91841e-06 3.5789e-07 -3.47115e-05
-0.000635803 3.39725e-05 -4.7997e-06
3.39725e-05 -0.000590572 1.60206e-06
-4.7997e-06 1.60206e-06 -0.000772243
0.00240661 0.000415418 6.82552e-06
0.000415418 -0.000203884 9.19359e-07
6.82552e-06 9.19359e-07 -9.65711e-05
0.00237621 0.000577571 2.02504e-06
0.000577571 0.00129345 1.00585e-05
2.02504e-06 1.00585e-05 0.000891542
0.00167217 0.000646345 2.26445e-06
0.000646345 0.000469991 -3.42828e-06
2.26445e-06 -3.42828e-06 3.44089e-05
0.00259617 0.000711465 -1.32302e-05
0.000711465 9.3296e-05 -8.99122e-06
-1.32302e-05 -8.99122e-06 6.45871e-05
0.00134559 0.000783361 4.4251e-06
0.000783361 -0.000287067 -9.6195e-06
4.4251e-06 -9.6195e-06 -0.000657164
0.00294744 0.00104748 2.98281e-06
0.00104748 0.000984842 3.18191e-06
2.98281e-06 3.18191e-06 0.000422095
0.000586531 0.000140051 -6.949e-07
0.000140051 0.000140586 -9.46495e-07
-6.949e-07 -9.46495e-07 -7.23605e-06
0.00048881 0.000126709 -3.16178e-06
0.000126709 0.000103161 -1.38782e-06
-3.16178e-06 -1.38782e-06 -9.42401e-06
0.000411535 9.62953e-05 -3.20131e-06
9.62953e-05 8.08177e-05 1.36713e-06
-3.20131e-06 1.36713e-06 2.93566e-06
0.000397747 9.36091e-06 1.34397e-06
9.36091e-06 1.34057e-05 -3.51675e-06
1.34397e-06 -3.51675e-06 -0.000109327
0.000495704 8.44507e-05 2.76453e-06
8.44507e-05 0.000128807 -3.51128e-06
2.76453e-06 -3.51128e-06 -5.26051e-05
-0.000620896 0.000123528 -4.32243e-06
0.000123528 -0.000540143 8.86377e-06
-4.32243e-06 8.86377e-06 -0.000681131
0.000511306 2.60099e-05 -1.6589e-06
2.60099e-05 8.88752e-05 -2.48344e-08
-1.6589e-06 -2.48344e-08 -4.13393e-05
0.000262827 -2.18358e-06 -7.08705e-07
-2.18358e-06 -2.09225e-05 -2.12767e-07
-7.08705e-07 -2.12767e-07 -0.000194978
1.34513e-05 7.70601e-05 -3.50351e-06
7.70601e-05 -0.00022682 2.7541e-06
-3.50351e-06 2.7541e-06 -0.000299888
0.000710995 0.000129659 1.38156e-06
0.000129659 0.000266131 -1.43645e-06
1.38156e-06 -1.43645e-06 8.22267e-05
0.00183042 0.000181607 -1.49158e-06
0.000181607 0.000874031 -4.92018e-06
-1.49158e-06 -4.92018e-06 0.000821292
8.31367e-05 2.70975e-05 1.14476e-05
2.70975e-05 -0.000177619 -9.62359e-06
1.14476e-05 -9.62359e-06 -0.000271086
0.00043284 0.000124859 8.38688e-07
0.000124859 0.000101864 3.39666e-06
8.38688e-07 3.39666e-06 -8.96875e-05
0.000512522 6.76672e-05 9.96642e-07
6.76672e-05 0.000117947 4.01815e-06
9.96642e-07 4.01815e-06 -6.27188e-05
0.000528283 2.57166e-05 2.22998e-06
2.57166e-05 8.6706e-05 3.4198e-06
2.22998e-06 3.4198e-06 -4.44783e-05
0.000485933 -6.92838e-05 -1.43722e-06
-6.92838e-05 4.42575e-05 3.11271e-06
-1.43722e-06 3.11271e-06 -4.38e-05
0.000468514 1.53987e-05 6.78847e-07
1.53987e-05 2.78856e-05 -4.57877e-07
6.78847e-07 -4.57877e-07 -5.37441e-05
0.00131572 2.91579e-05 3.63151e-06
2.91579e-05 0.000544477 3.56099e-06
3.63151e-06 3.56099e-06 0.000522
0.000467902 1.33998e-05 5.77784e-07
1.33998e-05 1.70575e-05 -3.79513e-06
5.77784e-07 -3.79513e-06 -5.52374e-05
0.001334 1.87865e-05 -8.53311e-06
1.87865e-05 0.000550512 -1.8701e-06
-8.53311e-06 -1.8701e-06 0.000528701
0.00075028 -4.81322e-06 2.66604e-05
-4.81322e-06 0.00016967 9.3042e-06
2.66604e-05 9.3042e-06 0.000173724
0.00134583 -1.14498e-05 -9.40983e-06
-1.14498e-05 0.000550219 -7.28306e-06
-9.40983e-06 -7.28306e-06 0.000530573
0.000757498 -1.71686e-05 1.03909e-05
-1.71686e-05 0.000165762 3.67387e-06
1.03909e-05 3.67387e-06 0.000168709
0.000737492 -2.98981e-05 1.02296e-06
-2.98981e-05 0.000149314 -3.15773e-06
1.02296e-06 -3.15773e-06 0.000149968
0.000599403 -1.95928e-05 1.31195e-06
-1.95928e-05 9.22897e-05 -2.00797e-06
1.31195e-06 -2.00797e-06 3.45096e-05
0.000359415 2.97629e-05 -4.84064e-07
2.97629e-05 -7.7397e-05 -4.40283e-06
-4.84064e-07 -4.40283e-06 -0.000100297
0.000385452 4.68962e-05 5.45767e-07
4.68962e-05 -4.71581e-05 3.43489e-07
5.45767e-07 3.43489e-07 -7.9818e-05
0.00252432 0.000105192 6.79238e-06
0.000105192 0.00132403 -5.39371e-06
6.79238e-06 -5.39371e-06 0.00132413
0.00039782 4.61634e-05 3.18606e-06
4.61634e-05 -2.98033e-05 8.36391e-06
3.18606e-06 8.36391e-06 -7.33911e-05
0.00294843 0.000147992 -4.69533e-06
0.000147992 0.0016107 -5.49449e-07
-4.69533e-06 -5.49449e-07 0.0015997
0.00369389 0.000116024 -6.49705e-05
0.000116024 0.00207879 7.69771e-06
-6.49705e-05 7.69771e-06 0.00207167
0.00230847 0.000423132 2.2151e-06
0.000423132 -1.28809e-05 8.47708e-07
2.2151e-06 8.47708e-07 -1.43682e-05
0.00221821 0.00022514 1.99983e-06
0.00022514 -4.68464e-05 5.38155e-07
1.99983e-06 5.38155e-07 -3.30148e-06
0.00213259 7.27514e-05 1.56559e-06
7.27514e-05 -4.9834e-05 -1.2993e-07
1.56559e-06 -1.2993e-07 -3.06153e-06
0.00206076 -1.10037e-05 -3.40663e-06
-1.10037e-05 4.2984e-06 -1.54637e-07
-3.40663e-06 -1.54637e-07 1.16582e-05
0.00212875 -1.18971e-05 -8.63831e-07
-1.18971e-05 -4.85397e-05 -3.49667e-08
-8.63831e-07 -3.49667e-08 -2.81362e-06
0.00226934 0.000113994 2.76082e-07
0.000113994 -7.49171e-05 5.8622e-07
2.76082e-07 5.8622e-07 1.43085e-05
0.00239769 0.000339286 -1.04317e-06
0.000339286 -5.43778e-05 -2.54016e-07
-1.04317e-06 -2.54016e-07 1.07456e-05
0.00223939 -1.20896e-05 -4.52211e-06
-1.20896e-05 -0.000102687 5.14522e-07
-4.52211e-06 5.14522e-07 7.25464e-07
0.00254117 0.000169116 -2.37967e-06
0.000169116 -5.52054e-05 -2.78567e-06
-2.37967e-06 -2.78567e-06 5.24547e-05
0.00254536 0.000135218 7.56733e-06
0.000135218 -6.78036e-06 9.04597e-06
7.56733e-06 9.04597e-06 0.000105779
0.00215185 -0.000101282 5.03133e-07
-0.000101282 -2.6412e-05 -4.09999e-08
5.03133e-07 -4.09999e-08 8.41546e-06
0.00224294 -0.000294029 3.37025e-08
-0.000294029 -8.81409e-05 -1.3245e-06
3.37025e-08 -1.3245e-06 -2.52399e-05
0.0023075 -0.000470566 1.27415e-07
-0.000470566 2.61444e-06 -6.86205e-07
1.27415e-07 -6.86205e-07 8.92035e-06
0.00129216 -0.000693015 7.44085e-06
-0.000693015 0.000281902 -1.42819e-06
7.44085e-06 -1.42819e-06 -0.000211747
0.00195244 -0.000919683 3.66512e-05
-0.000919683 0.000506845 -3.63728e-06
3.66512e-05 -3.63728e-06 -4.12728e-05
0.00228168 -0.000872956 1.36908e-05
-0.000872956 0.00049906 -3.33566e-06
1.36908e-05 -3.33566e-06 6.42584e-05
0.00232243 -0.000640803 3.47284e-06
-0.000640803 5.88141e-05 2.08331e-06
3.47284e-06 2.08331e-06 -1.81317e-05
0.00219317 -0.000759558 1.43431e-05
-0.000759558 0.000226088 4.01435e-06
1.43431e-05 4.01435e-06 -2.53076e-05
0.000674892 -0.000505896 1.11887e-05
-0.000505896 3.63091e-05 -2.03776e-05
1.11887e-05 -2.03776e-05 -0.000414479
0.00134453 -0.000457259 8.8959e-06
-0.000457259 0.000583931 -2.07344e-05
8.8959e-06 -2.07344e-05 6.37499e-05
0.000352943 -0.000143174 -4.47918e-06
-0.000143174 -0.000116619 4.16688e-06
-4.47918e-06 4.16688e-06 -0.000449377
0.00042151 1.41718e-05 2.63858e-06
1.41718e-05 1.22512e-06 1.86822e-06
2.63858e-06 1.86822e-06 -7.84286e-05
0.000309566 1.23192e-05 7.68297e-06
1.23192e-05 -1.96007e-05 8.24953e-07
7.68297e-06 8.24953e-07 -0.000209571
0.000715388 -0.000213263 8.67172e-07
-0.000213263 0.000282495 6.52327e-06
8.67172e-07 6.52327e-06 -5.42612e-05
0.00226211 -0.000144268 4.97362e-07
-0.000144268 -8.64558e-05 2.16473e-07
4.97362e-07 2.16473e-07 9.49526e-06
0.000466516 3.71292e-06 1.87731e-06
3.71292e-06 1.3304e-05 3.67642e-07
1.87731e-06 3.67642e-07 -4.98651e-05
0.000375148 -8.34992e-05 -3.33313e-06
-8.34992e-05 -1.20221e-05 -8.78042e-07
-3.33313e-06 -8.78042e-07 -0.000118627
0.00239555 -0.000399364 -3.00478e-07
-0.000399364 -0.000104583 -8.8002e-08
-3.00478e-07 -8.8002e-08 4.13287e-06
0.00235782 -0.000581123 -1.88595e-06
-0.000581123 -1.44425e-05 5.95254e-07
-1.88595e-06 5.95254e-07 4.17836e-07
0.00198414 -0.000821709 5.06492e-07
-0.000821709 0.000703159 2.02027e-06
5.06492e-07 2.02027e-06 0.000176193
0.00211362 -0.00103204 1.04154e-05
-0.00103204 0.000546993 -6.54461e-07
1.04154e-05 -6.54461e-07 -4.57127e-05
0.00241485 -0.000973974 2.02298e-06
-0.000973974 0.000462496 -4.64686e-06
2.02298e-06 -4.64686e-06 4.92959e-05
0.00243337 -0.000804937 2.62658e-06
-0.000804937 0.000138941 -4.97962e-07
2.62658e-06 -4.97962e-07 -1.02927e-05
0.000587257 8.77098e-06 -1.20494e-06
8.77098e-06 0.000167285 -1.40651e-06
-1.20494e-06 -1.40651e-06 2.8999e-05
0.00080918 -7.11066e-05 1.75576e-06
-7.11066e-05 0.000333216 2.24829e-06
1.75576e-06 2.24829e-06 7.32553e-05
0.00146373 -0.000623667 9.40277e-06
-0.000623667 0.00054286 9.44759e-06
9.40277e-06 9.44759e-06 8.19411e-05
0.00120211 -0.000447494 1.682e-05
-0.000447494 0.000596201 -1.03695e-05
1.682e-05 -1.03695e-05 -4.92163e-05
0.000821608 -0.000194598 -1.58594e-06
-0.000194598 0.000229533 -3.36982e-07
-1.58594e-06 -3.36982e-07 -0.000165736
7.32298e-05 -0.000155383 1.72494e-06
-0.000155383 -0.000161809 -2.74874e-06
1.72494e-06 -2.74874e-06 -0.00048332
0.00227319 -0.000169694 -2.67193e-06
-0.000169694 -0.000260714 3.82635e-06
-2.67193e-06 3.82635e-06 -0.000124023
0.00243331 -0.000519727 1.10845e-06
-0.000519727 -0.000241689 3.77981e-06
1.10845e-06 3.77981e-06 2.83368e-07
0.00270474 -0.000823768 -6.3775e-06
-0.000823768 0.000123994 -3.74015e-06
-6.3775e-06 -3.74015e-06 8.58022e-05
0.00266816 -0.00104656 1.16622e-05
-0.00104656 0.000365656 -2.60966e-06
1.16622e-05 -2.60966e-06 9.21701e-05
0.000937944 -0.000753094 -3.40807e-06
-0.000753094 0.000158393 -1.4854e-05
-3.40807e-06 -1.4854e-05 -0.000380072
0.00348861 -0.00129738 -1.30471e-05
-0.00129738 0.0011943 3.37761e-06
-1.30471e-05 3.37761e-06 0.000562772
0.000217148 6.35168e-05 -3.21293e-06
6.35168e-05 -0.00011122 -5.52085e-06
-3.21293e-06 -5.52085e-06 -0.000223027
0.000454062 -5.22591e-05 5.62274e-06
-5.22591e-05 4.2202e-05 -1.75907e-07
5.62274e-06 -1.75907e-07 -5.61882e-05
0.00151701 -0.000205854 -5.38967e-06
-0.000205854 0.000673207 1.74991e-05
-5.38967e-06 1.74991e-05 0.000537706
0.000331329 1.76676e-05 -4.42034e-06
1.76676e-05 -1.85762e-05 3.83121e-06
-4.42034e-06 3.83121e-06 -0.000202359
0.000953099 -0.000155941 -6.36052e-06
-0.000155941 0.000415376 1.00517e-05
-6.36052e-06 1.00517e-05 0.000122817
0.0013315 -0.000101629 1.10193e-05
-0.000101629 0.000530347 -1.81892e-05
1.10193e-05 -1.81892e-05 0.000249373
-0.00175864 -0.000297863 -3.21128e-06
-0.000297863 -0.000815373 -2.45765e-06
-3.21128e-06 -2.45765e-06 -0.00174632
0.000785204 -0.000751137 -5.17451e-05
-0.000751137 1.89837e-05 3.05446e-05
-5.17451e-05 3.05446e-05 -0.000363453
0.000285196 0.000149052 -3.99391e-07
0.000149052 9.18809e-06 -1.80513e-06
-3.99391e-07 -1.80513e-06 -0.000236829
0.00246028 0.000448498 -1.50428e-05
0.000448498 0.00136642 -8.1165e-06
-1.50428e-05 -8.1165e-06 0.00102034
0.00246422 0.000541277 -6.12745e-06
0.000541277 -0.000159975 -9.58025e-07
-6.12745e-06 -9.58025e-07 -7.61003e-05
0.00267642 0.000739638 -7.15488e-06
0.000739638 0.000356577 -8.00753e-07
-7.15488e-06 -8.00753e-07 0.000122504
0.00279056 0.000508225 -6.64296e-06
0.000508225 0.00117525 1.2297e-06
-6.64296e-06 1.2297e-06 0.000868432
0.00147098 0.000634691 -8.6567e-06
0.000634691 0.000399105 -2.3337e-06
-8.6567e-06 -2.3337e-06 -5.81499e-05
0.0021827 0.000813929 -6.412e-06
0.000813929 0.000327815 2.40526e-06
-6.412e-06 2.40526e-06 -5.8904e-05
0.00240893 0.000942504 -8.93798e-06
0.000942504 0.000726521 -4.84082e-07
-8.93798e-06 -4.84082e-07 0.000194386
0.000154709 0.000146205 1.80126e-06
0.000146205 -5.30872e-05 -7.18206e-07
1.80126e-06 -7.18206e-07 -0.000285923
0.00248399 0.000399272 -1.57549e-06
0.000399272 -0.000154805 -2.41788e-06
-1.57549e-06 -2.41788e-06 -3.85047e-05
0.00147546 0.000420458 2.56686e-06
0.000420458 0.000727632 3.99171e-06
2.56686e-06 3.99171e-06 0.000379048
0.00157802 0.000624473 2.6855e-06
0.000624473 0.000436136 1.90025e-06
2.6855e-06 1.90025e-06 6.72744e-06
0.00268225 0.000699034 9.93286e-07
0.000699034 0.000169918 3.89006e-09
9.93286e-07 3.89006e-09 0.000137564
0.00187237 0.000840072 -2.09191e-06
0.000840072 2.62599e-05 -5.24225e-06
-2.09191e-06 -5.24225e-06 -0.000352518
0.00234045 0.000950172 -5.71865e-07
0.000950172 0.000657847 -2.60546e-07
-5.71865e-07 -2.60546e-07 0.000116639
0.0017022 0.000383986 -3.6174e-06
0.000383986 0.00102826 -1.55033e-06
-3.6174e-06 -1.55033e-06 0.000712777
0.00382404 0.000638391 -8.77489e-05
0.000638391 0.000601768 -2.69949e-05
-8.77489e-05 -2.69949e-05 0.000819383
0.000616916 0.00050349 -1.04861e-05
0.00050349 0.000153474 7.45216e-06
-1.04861e-05 7.45216e-06 -0.00024403
0.00144774 0.000698377 -5.40454e-06
0.000698377 0.000309709 -9.87668e-06
-5.40454e-06 -9.87668e-06 -0.000178785
0.00274045 0.000946508 -3.56805e-05
0.000946508 0.000362156 -2.21986e-05
-3.56805e-05 -2.21986e-05 0.000111611
0.00122232 0.000826412 -2.68435e-05
0.000826412 -8.59843e-06 -4.15643e-06
-2.68435e-05 -4.15643e-06 -0.000496252
0.000938545 0.00112104 3.05446e-05
0.00112104 -0.00197602 -4.64972e-05
3.05446e-05 -4.64972e-05 -0.00130133
0.000129819 0.000159326 6.13137e-06
0.000159326 -7.93983e-05 1.71014e-06
6.13137e-06 1.71014e-06 -0.000208186
0.000429999 0.000126131 3.21685e-06
0.000126131 0.000130297 2.1675e-06
3.21685e-06 2.1675e-06 3.67469e-05
0.000989572 0.000150134 1.83149e-06
0.000150134 0.000450091 -6.60593e-07
1.83149e-06 -6.60593e-07 0.000367335
0.000379718 -6.60507e-05 1.35252e-06
-6.60507e-05 1.21857e-05 -4.7076e-06
1.35252e-06 -4.7076e-06 -0.000121052
0.000293136 -2.30876e-05 -5.17199e-07
-2.30876e-05 -3.92324e-06 -2.65326e-06
-5.17199e-07 -2.65326e-06 -0.000176263
0.00142835 0.000240768 -3.04865e-07
0.000240768 0.00072325 -5.09891e-07
-3.04865e-07 -5.09891e-07 0.000526825
-0.000468616 4.65558e-05 -7.48824e-06
4.65558e-05 -0.000501827 1.82387e-05
-7.48824e-06 1.82387e-05 -0.000570797
0.000493763 -1.73896e-05 -1.90042e-07
-1.73896e-05 8.31773e-05 -2.23677e-07
-1.90042e-07 -2.23677e-07 -5.79193e-05
0.000411985 8.19593e-05 2.16081e-07
8.19593e-05 2.93304e-05 -7.06711e-07
2.16081e-07 -7.06711e-07 -0.000131152
0.000950905 0.000142861 3.6078e-06
0.000142861 0.000326336 4.11525e-06
3.6078e-06 4.11525e-06 0.000280493
0.000358957 7.95257e-05 1.46552e-06
7.95257e-05 2.92652e-05 7.59944e-07
1.46552e-06 7.59944e-07 -0.000146022
0.000625402 7.75405e-05 -3.59824e-07
7.75405e-05 0.000155838 -2.14126e-06
-3.59824e-07 -2.14126e-06 4.83057e-05
0.00126614 0.000150629 -3.77292e-06
0.000150629 0.000580367 -1.45304e-05
-3.77292e-06 -1.45304e-05 0.000514435
0.000827462 0.000158203 -2.85851e-06
0.000158203 0.000256607 -3.83529e-06
-2.85851e-06 -3.83529e-06 0.000105953
0.000958901 0.000144902 1.88134e-06
0.000144902 0.000399609 2.84148e-06
1.88134e-06 2.84148e-06 0.00021205
0.000893624 0.000121974 -7.13024e-07
0.000121974 0.000352538 1.20309e-06
-7.13024e-07 1.20309e-06 0.000163629
0.000206783 -2.51318e-05 -1.78412e-06
-2.51318e-05 -0.000124173 1.60006e-06
-1.78412e-06 1.60006e-06 -0.00025773
0.00131922 -0.000117861 1.13276e-06
-0.000117861 0.000687518 -1.90646e-06
1.13276e-06 -1.90646e-06 0.000463806
8.96079e-05 -5.18546e-05 -5.68826e-07
-5.18546e-05 -0.000191018 3.49873e-06
-5.68826e-07 3.49873e-06 -0.000329596
0.000414228 2.42928e-06 -2.12014e-06
2.42928e-06 5.16372e-06 2.90433e-06
-2.12014e-06 2.90433e-06 -8.64983e-05
0.000438881 4.14676e-05 2.51501e-06
4.14676e-05 1.93022e-05 -1.10781e-07
2.51501e-06 -1.10781e-07 -7.12886e-05
0.000350117 2.09834e-05 -1.16314e-06
2.09834e-05 -6.51019e-05 4.81639e-06
-1.16314e-06 4.81639e-06 -9.19632e-05
0.00038255 2.846e-06 -1.74704e-06
2.846e-06 -1.54087e-05 -4.15594e-06
-1.74704e-06 -4.15594e-06 -0.000104066
0.000868546 1.69523e-05 -4.08231e-06
1.69523e-05 0.00026037 -1.51577e-06
-4.08231e-06 -1.51577e-06 0.000236287
0.0026645 3.08005e-07 2.48755e-05
3.08005e-07 0.00139138 5.79907e-06
2.48755e-05 5.79907e-06 0.00140363
0.00141832 3.86848e-05 -1.39337e-05
3.86848e-05 0.000605883 -7.48524e-06
-1.39337e-05 -7.48524e-06 0.000583338
0.000764322 -7.71632e-06 9.66789e-06
-7.71632e-06 0.000174947 3.61657e-06
9.66789e-06 3.61657e-06 0.000178207
0.000828528 -2.02173e-05 1.05533e-06
-2.02173e-05 0.000206903 -2.97777e-06
1.05533e-06 -2.97777e-06 0.000209257
0.000446412 1.24723e-05 -2.26918e-06
1.24723e-05 2.63337e-06 -2.94764e-06
-2.26918e-06 -2.94764e-06 -5.48804e-05
0.000538569 -3.49007e-05 6.612e-07
-3.49007e-05 5.75994e-05 -3.47955e-07
6.612e-07 -3.47955e-07 -2.44693e-06
0.000463004 2.34999e-05 2.00175e-07
2.34999e-05 -1.8727e-05 -3.86807e-06
2.00175e-07 -3.86807e-06 -3.65757e-05
0.000792509 4.42914e-05 6.82518e-09
4.42914e-05 0.000201459 1.63349e-07
6.82518e-09 1.63349e-07 0.000179252
0.00234131 8.12299e-05 5.51475e-06
8.12299e-05 0.00119819 -5.04391e-06
5.51475e-06 -5.04391e-06 0.00120417
0.000466313 6.47213e-05 5.86908e-06
6.47213e-05 1.37515e-05 6.81902e-06
5.86908e-06 6.81902e-06 -2.46219e-05
0.0025871 0.000111815 -2.64634e-06
0.000111815 0.00136622 -2.66919e-07
-2.64634e-06 -2.66919e-07 0.00136468
0.00305515 0.000143974 6.93637e-06
0.000143974 0.00167605 8.06962e-06
6.93637e-06 8.06962e-06 0.00166567
0.00229006 0.000346487 1.48672e-06
0.000346487 -0.000109831 1.46024e-06
1.48672e-06 1.46024e-06 -4.41361e-05
0.00225526 0.000109409 5.8856e-06
0.000109409 -7.57151e-05 -7.4575e-09
5.8856e-06 -7.4575e-09 1.22168e-05
0.00213678 -7.55573e-06 1.45655e-06
-7.55573e-06 -4.60888e-05 -2.08279e-07
1.45655e-06 -2.08279e-07 2.96853e-06
0.00222643 -6.8957e-06 2.72847e-08
-6.8957e-06 -0.00010899 -4.15458e-07
2.72847e-08 -4.15458e-07 -5.77329e-06
0.00246658 0.000176266 4.55775e-07
0.000176266 -8.85781e-05 4.25229e-07
4.55775e-07 4.25229e-07 1.83942e-05
0.00256273 0.000113989 7.77084e-06
0.000113989 1.00309e-07 -6.26091e-06
7.77084e-06 -6.26091e-06 0.000101427
0.00257861 1.02602e-05 -8.6435e-06
1.02602e-05 -0.000116612 -2.81055e-06
-8.6435e-06 -2.81055e-06 4.09533e-05
0.00492048 0.00114518 7.7992e-05
0.00114518 -0.000803878 1.11427e-05
7.7992e-05 1.11427e-05 0.000213921
0.003032 0.000100047 -2.45501e-05
0.000100047 0.000429401 2.85085e-05
-2.45501e-05 2.85085e-05 0.000688311
0.000481897 0.000118487 -3.23095e-06
0.000118487 6.42776e-05 -1.81886e-06
-3.23095e-06 -1.81886e-06 -4.21016e-05
0.00226243 -0.000146346 3.35831e-06
-0.000146346 -9.56438e-05 -2.17171e-06
3.35831e-06 -2.17171e-06 2.90587e-06
0.0023725 -0.000388185 1.91313e-06
-0.000388185 -9.36157e-05 -1.49554e-06
1.91313e-06 -1.49554e-06 8.22824e-07
0.00233494 -0.000570035 -1.83648e-07
-0.000570035 -1.93885e-05 7.46295e-07
-1.83648e-07 7.46295e-07 4.992e-06
0.00163482 -0.000796647 -3.19286e-07
-0.000796647 0.000505068 9.13655e-06
-3.19286e-07 9.13655e-06 -1.43549e-05
0.00228457 -0.00103277 3.60244e-05
-0.00103277 0.000653918 7.33485e-06
3.60244e-05 7.33485e-06 7.03877e-05
0.0015295 -0.000870397 1.40166e-06
-0.000870397 -3.7425e-05 1.22467e-06
1.40166e-06 1.22467e-06 -0.000423316
0.00238982 -0.00080442 4.91739e-07
-0.00080442 0.000109003 -1.21258e-07
4.91739e-07 -1.21258e-07 -3.17636e-05
0.0014048 -0.000588664 3.50648e-05
-0.000588664 0.00041692 -4.43194e-05
3.50648e-05 -4.43194e-05 1.96807e-05
0.00204406 -0.000576126 1.51478e-05
-0.000576126 0.00101646 -5.07176e-05
1.51478e-05 -5.07176e-05 0.000406915
0.000956509 -0.000147061 5.16828e-06
-0.000147061 0.000273858 1.06444e-05
5.16828e-06 1.06444e-05 -8.36482e-05
0.000460233 9.6262e-06 2.94949e-06
9.6262e-06 1.14271e-05 1.7026e-06
2.94949e-06 1.7026e-06 -5.31024e-05
0.00142248 -0.000180895 1.7104e-06
-0.000180895 0.0006925 9.93641e-06
1.7104e-06 9.93641e-06 0.000350539
0.00092748 -3.46367e-05 8.0124e-06
-3.46367e-05 0.00040286 -7.34198e-07
8.0124e-06 -7.34198e-07 0.000254769
0.000462603 -5.80681e-05 3.27581e-06
-5.80681e-05 9.66565e-05 -2.46188e-06
3.27581e-06 -2.46188e-06 -0.000150926
-2.38761e-05 -4.23784e-05 -4.40987e-06
-4.23784e-05 -0.000278328 -2.9373e-08
-4.40987e-06 -2.9373e-08 -0.000376834
0.0023754 -0.000191501 7.83876e-08
-0.000191501 -0.000225264 8.39006e-07
7.83876e-08 8.39006e-07 -6.15964e-05
0.000324962 3.61765e-05 6.21166e-07
3.61765e-05 -3.05963e-05 -2.80227e-06
6.21166e-07 -2.80227e-06 -0.000147077
0.000614377 -7.57788e-05 3.18046e-06
-7.57788e-05 0.000169164 1.27111e-06
3.18046e-06 1.27111e-06 5.52904e-05
0.00108981 -0.000159672 6.85206e-06
-0.000159672 0.000404863 -7.08229e-07
6.85206e-06 -7.08229e-07 0.000286095
0.00242581 -0.000535181 2.17359e-06
-0.000535181 -0.000230656 -9.79075e-07
2.17359e-06 -9.79075e-07 -2.79573e-05
0.00258139 -0.000811358 1.36079e-07
-0.000811358 5.70928e-05 3.75514e-07
1.36079e-07 3.75514e-07 2.39099e-05
0.000725496 -0.00063719 6.69096e-06
-0.00063719 7.83697e-06 1.59266e-07
6.69096e-06 1.59266e-07 -0.000448312
0.00270409 -0.00120482 1.89426e-05
-0.00120482 0.000741052 1.36828e-06
1.89426e-05 1.36828e-06 0.000142263
0.00258825 -0.00104844 -3.04194e-07
-0.00104844 0.000333409 1.98162e-06
-3.04194e-07 1.98162e-06 4.99314e-05
0.000245758 -2.46854e-05 -2.68421e-07
-2.46854e-05 -7.39099e-05 4.50719e-07
-2.68421e-07 4.50719e-07 -0.000250104
0.00120804 -0.00016292 1.14592e-06
-0.00016292 0.000598555 3.67579e-06
1.14592e-06 3.67579e-06 0.000281927
0.00201908 -0.000911391 -1.36477e-06
-0.000911391 0.000751913 2.62437e-06
-1.36477e-06 2.62437e-06 0.000250151
0.000731986 -0.000335376 -5.54777e-07
-0.000335376 0.000402499 5.66816e-06
-5.54777e-07 5.66816e-06 -0.00030507
0.000987415 -0.00015056 1.64819e-06
-0.00015056 0.000316126 7.64688e-06
1.64819e-06 7.64688e-06 3.11454e-05
0.00279462 -0.000373439 -1.01551e-05
-0.000373439 -2.07671e-06 1.0333e-05
-1.01551e-05 1.0333e-05 0.000190868
0.00217356 -0.000599801 -1.20956e-05
-0.000599801 -0.000356137 7.28127e-06
-1.20956e-05 7.28127e-06 -7.55041e-05
0.00237137 -0.00094905 -1.29438e-05
-0.00094905 8.06785e-05 -6.01029e-06
-1.29438e-05 -6.01029e-06 -0.000118788
0.00468603 -0.00142335 2.58384e-06
-0.00142335 0.00165019 3.65154e-06
2.58384e-06 3.65154e-06 0.00122504
-0.000338988 -0.000723007 -1.44955e-05
-0.000723007 -0.000677713 7.09195e-06
-1.44955e-05 7.09195e-06 -0.00114977
-5.22545e-05 -2.79728e-05 7.52324e-07
-2.79728e-05 -0.000267727 2.78684e-06
7.52324e-07 2.78684e-06 -0.000383757
0.00104718 -1.85944e-05 -5.29425e-06
-1.85944e-05 0.00032819 1.65843e-05
-5.29425e-06 1.65843e-05 0.00020926
-0.00123077 -0.000185966 -7.61486e-06
-0.000185966 -0.0010487 9.69428e-07
-7.61486e-06 9.69428e-07 -0.00114359
0.00202894 -0.000325341 -3.59755e-05
-0.000325341 0.00106651 3.20459e-05
-3.59755e-05 3.20459e-05 0.000807571
0.00102755 -0.000153095 -5.03828e-06
-0.000153095 0.000462558 2.95e-05
-5.03828e-06 2.95e-05 0.000177277
-0.00192549 -0.0001058 6.57368e-06
-0.0001058 -0.000766796 2.63528e-07
6.57368e-06 2.63528e-07 -0.00157934
0.000759551 -0.000960138 -1.56677e-05
-0.000960138 0.000363439 -2.23864e-06
-1.56677e-05 -2.23864e-06 -0.000374109
0.00176061 0.000400608 -2.44763e-06
0.000400608 0.000958106 -4.35724e-06
-2.44763e-06 -4.35724e-06 0.000684176
7.81517e-05 0.000219617 -3.90486e-06
0.000219617 -0.000129308 -2.06401e-06
-3.90486e-06 -2.06401e-06 -0.00041899
0.00264819 0.000377277 6.00828e-06
0.000377277 -5.55378e-05 4.16709e-06
6.00828e-06 4.16709e-06 7.66357e-05
0.00276307 0.000687238 1.29826e-05
0.000687238 0.000234637 7.92448e-06
1.29826e-05 7.92448e-06 0.000203538
0.00231321 0.000887241 5.6122e-06
0.000887241 0.000289718 3.70029e-06
5.6122e-06 3.70029e-06 -9.51333e-05
0.00152195 0.000606817 -2.76176e-06
0.000606817 0.000434807 3.11046e-06
-2.76176e-06 3.11046e-06 1.03523e-05
0.00174495 0.000858305 1.59475e-06
0.000858305 0.000337285 4.33291e-06
1.59475e-06 4.33291e-06 -0.00018342
0.00232392 0.000430389 4.57309e-07
0.000430389 0.00134265 -3.85535e-07
4.57309e-07 -3.85535e-07 0.00106717
0.00295305 0.000511397 9.05621e-06
0.000511397 0.000135147 4.35403e-06
9.05621e-06 4.35403e-06 0.000400475
0.000922252 0.000459763 -5.40519e-06
0.000459763 0.000305521 5.23481e-06
-5.40519e-06 5.23481e-06 -4.83985e-05
0.00171633 0.000741638 3.21513e-06
0.000741638 0.000507811 -1.68586e-06
3.21513e-06 -1.68586e-06 -4.05693e-06
0.00259461 0.000915431 -2.71925e-06
0.000915431 0.000306009 -3.94646e-06
-2.71925e-06 -3.94646e-06 8.23236e-05
0.0019491 0.000923469 -4.78176e-06
0.000923469 0.000400399 5.9959e-06
-4.78176e-06 5.9959e-06 -0.00011148
0.00291345 0.00144074 3.66362e-05
0.00144074 -0.00122 9.50761e-06
3.66362e-05 9.50761e-06 -0.000731171
0.000252411 0.00031809 2.14293e-06
0.00031809 0.000185696 1.20982e-06
2.14293e-06 1.20982e-06 -0.000128286
0.00290609 0.000942974 -8.73057e-05
0.000942974 0.000230058 -4.36039e-05
-8.73057e-05 -4.36039e-05 0.000208624
0.000312532 0.00044894 -1.2689e-05
0.00044894 -0.000261974 5.04327e-06
-1.2689e-05 5.04327e-06 -0.000636868
8.93382e-05 0.000595265 -4.8307e-06
0.000595265 -0.000465945 -1.99412e-05
-4.8307e-06 -1.99412e-05 -0.000934777
0.00181783 0.00103925 -4.46229e-05
0.00103925 7.96242e-05 -1.96371e-05
-4.46229e-05 -1.96371e-05 -0.000266777
0.0155316 0.000607561 -0.000652428
0.000607561 0.00176578 -0.000101578
-0.000652428 -0.000101578 0.00173019
0.00301525 0.00221329 -8.54945e-05
0.00221329 -0.00310735 -8.0778e-05
-8.54945e-05 -8.0778e-05 -0.000947977
0.00123427 0.00174307 2.31794e-05
0.00174307 -0.000669568 -2.3721e-06
2.31794e-05 -2.3721e-06 -0.000899831
0.00459232 -0.00319878 0.0021461
-0.00319878 0.00269581 0.000332564
0.0021461 0.000332564 -0.00191548
0.0268851 -0.0114447 -4.70586e-05
-0.0114447 0.0124889 7.36231e-05
-4.70586e-05 7.36231e-05 0.00690699
0.000663226 0.000157739 6.86104e-06
0.000157739 0.000293989 5.30997e-06
6.86104e-06 5.30997e-06 0.000187803
0.00094712 0.000143697 -2.51013e-06
0.000143697 0.000461445 -2.43307e-06
-2.51013e-06 -2.43307e-06 0.000363749
0.00130548 0.000256325 5.19682e-06
0.000256325 0.000701101 -1.44702e-06
5.19682e-06 -1.44702e-06 0.000559448
0.000502225 -6.08116e-05 4.15948e-07
-6.08116e-05 9.92006e-05 -2.95218e-06
4.15948e-07 -2.95218e-06 -4.81182e-05
0.000381925 6.96649e-05 -3.6696e-07
6.96649e-05 1.54614e-05 -3.76533e-06
-3.6696e-07 -3.76533e-06 -0.000144568
0.000670098 -1.13716e-05 -7.40923e-07
-1.13716e-05 0.000225674 -2.17826e-06
-7.40923e-07 -2.17826e-06 4.9544e-05
0.00105759 0.000104843 -1.00078e-06
0.000104843 0.000413424 1.11525e-05
-1.00078e-06 1.11525e-05 0.000299712
0.000199953 0.000105721 3.90501e-06
0.000105721 -0.000141083 1.06578e-05
3.90501e-06 1.06578e-05 -0.000179537
0.000797807 0.000167446 -1.33837e-06
0.000167446 0.000338889 3.36978e-08
-1.33837e-06 3.36978e-08 0.000127649
0.000393587 -2.00816e-05 2.92454e-07
-2.00816e-05 5.0831e-06 1.14537e-06
2.92454e-07 1.14537e-06 -0.000135437
0.000694671 6.79456e-05 -8.70254e-07
6.79456e-05 0.000219626 1.04061e-07
-8.70254e-07 1.04061e-07 3.83683e-05
0.000288463 0.000108067 -2.00343e-06
0.000108067 -4.36214e-05 -3.37041e-06
-2.00343e-06 -3.37041e-06 -0.000103917
0.000735147 0.000137329 -1.52564e-06
0.000137329 0.000220678 -3.60507e-07
-1.52564e-06 -3.60507e-07 7.171e-05
0.00225433 0.000279084 -1.30839e-06
0.000279084 0.00122485 -6.65831e-07
-1.30839e-06 -6.65831e-07 0.00101029
0.000181838 0.000106718 -1.03791e-06
0.000106718 -8.18512e-06 -6.03923e-06
-1.03791e-06 -6.03923e-06 -0.00019193
0.000894219 0.000105543 3.37923e-06
0.000105543 0.000381793 -3.41417e-07
3.37923e-06 -3.41417e-07 0.000188729
0.000138717 5.28661e-06 -2.40903e-07
5.28661e-06 -0.000158897 -4.15414e-07
-2.40903e-07 -4.15414e-07 -0.000331764
0.000297998 -7.37512e-05 -5.59705e-07
-7.37512e-05 -5.32913e-05 -1.21248e-07
-5.59705e-07 -1.21248e-07 -0.000194074
0.000389074 -2.36699e-05 -3.58586e-07
-2.36699e-05 2.26772e-05 -2.25224e-06
-3.58586e-07 -2.25224e-06 -0.000147848
0.00136823 -6.63312e-05 1.82353e-06
-6.63312e-05 0.000630266 -1.207e-05
1.82353e-06 -1.207e-05 0.000464445
0.000886599 -5.7115e-05 -1.87135e-06
-5.7115e-05 0.000390454 -1.65636e-06
-1.87135e-06 -1.65636e-06 0.000207245
0.000755648 -9.91677e-05 1.97801e-06
-9.91677e-05 0.000282774 -8.85375e-07
1.97801e-06 -8.85375e-07 9.4997e-05
0.00059177 -0.000128871 -1.4464e-06
-0.000128871 0.000143243 4.81565e-06
-1.4464e-06 4.81565e-06 -4.52003e-06
0.000194274 -2.8436e-05 1.95469e-07
-2.8436e-05 -0.000117252 9.93036e-07
1.95469e-07 9.93036e-07 -0.000261787
0.000496583 -6.67586e-05 -1.57667e-06
-6.67586e-05 4.79367e-05 3.81646e-06
-1.57667e-06 3.81646e-06 -3.81208e-05
0.000491553 -4.52484e-05 2.08744e-06
-4.52484e-05 5.20488e-05 1.22613e-07
2.08744e-06 1.22613e-07 -3.86149e-05
0.000399899 1.14046e-06 3.62883e-06
1.14046e-06 -2.95524e-05 6.65003e-06
3.62883e-06 6.65003e-06 -5.8195e-05
0.000473062 5.99913e-05 -1.49166e-06
5.99913e-05 3.40824e-05 -3.43359e-06
-1.49166e-06 -3.43359e-06 -5.16692e-05
0.000371712 3.15635e-05 4.55033e-07
3.15635e-05 -4.99082e-05 1.0077e-07
4.55033e-07 1.0077e-07 -7.74085e-05
0.00258817 8.93133e-06 1.07583e-05
8.93133e-06 0.00134448 5.52566e-06
1.07583e-05 5.52566e-06 0.00135617
0.000421866 5.31736e-05 -4.44071e-06
5.31736e-05 -1.91494e-05 -7.92162e-06
-4.44071e-06 -7.92162e-06 -4.91637e-05
0.00170715 -2.54157e-06 -6.73487e-06
-2.54157e-06 0.000780052 1.71618e-07
-6.73487e-06 1.71618e-07 0.000787033
0.000806737 -9.51295e-06 6.71707e-07
-9.51295e-06 0.000196985 -2.4448e-06
6.71707e-07 -2.4448e-06 0.000200131
0.000395043 1.53659e-05 -4.83535e-07
1.53659e-05 -3.83839e-05 -2.17359e-06
-4.83535e-07 -2.17359e-06 -8.43889e-05
0.000501043 -4.27034e-05 1.84992e-07
-4.27034e-05 4.12634e-05 1.00255e-07
1.84992e-07 1.00255e-07 -1.85885e-05
0.000496099 1.0459e-05 1.42379e-06
1.0459e-05 -1.64789e-06 -3.57605e-06
1.42379e-06 -3.57605e-06 -1.53346e-05
0.00047403 -4.80681e-05 -1.11338e-06
-4.80681e-05 1.76392e-05 5.57307e-07
-1.11338e-06 5.57307e-07 -4.33263e-05
0.000792827 2.92077e-05 -7.56608e-08
2.92077e-05 0.000192772 -7.86667e-07
-7.56608e-08 -7.86667e-07 0.000177149
0.00208758 5.87616e-05 3.39668e-06
5.87616e-05 0.00102829 -4.93443e-06
3.39668e-06 -4.93443e-06 0.00103955
0.00044223 3.60147e-05 1.37714e-06
3.60147e-05 -2.35192e-05 4.63679e-06
1.37714e-06 4.63679e-06 -4.82023e-05
0.00249449 8.92566e-05 -4.24421e-06
8.92566e-05 0.00130005 1.34563e-06
-4.24421e-06 1.34563e-06 0.001304
0.00274356 0.000122838 1.03937e-05
0.000122838 0.00146976 7.39831e-06
1.03937e-05 7.39831e-06 0.00146586
0.00240092 0.000186493 3.40957e-06
0.000186493 -0.000112776 4.02831e-07
3.40957e-06 4.02831e-07 -6.46645e-06
0.0022226 -3.90813e-06 4.76537e-06
-3.90813e-06 -0.000109356 -9.2471e-07
4.76537e-06 -9.2471e-07 -6.80666e-06
0.00228017 8.1063e-05 -3.22021e-06
8.1063e-05 -0.000204299 6.96415e-06
-3.22021e-06 6.96415e-06 -0.000102394
0.00265294 0.000875962 0.000113841
0.000875962 -0.00198169 2.76421e-05
0.000113841 2.76421e-05 -0.0008555
0.00252996 -2.44922e-05 -1.77476e-07
-2.44922e-05 -0.000123455 -2.18006e-06
-1.77476e-07 -2.18006e-06 3.19444e-05
0.00248403 8.55284e-05 -4.02662e-06
8.55284e-05 8.69925e-05 -8.62499e-06
-4.02662e-06 -8.62499e-06 0.000283428
0.0025612 -5.2417e-05 -3.25031e-05
-5.2417e-05 0.000213312 -3.82277e-06
-3.25031e-05 -3.82277e-06 0.000296813
0.0033296 0.000418301 -5.26946e-05
0.000418301 -0.00234335 -4.86135e-05
-5.26946e-05 -4.86135e-05 -0.000811325
0.00262769 0.000292269 0.000150547
0.000292269 -0.00111124 6.14944e-05
0.000150547 6.14944e-05 -0.000444266
0.000577233 9.34479e-05 4.77295e-07
9.34479e-05 0.000127299 -1.6231e-06
4.77295e-07 -1.6231e-06 2.26647e-05
0.000571345 -4.05655e-06 -9.28275e-08
-4.05655e-06 0.000135949 -1.5501e-07
-9.28275e-08 -1.5501e-07 2.04038e-05
0.000286621 -9.43585e-05 -6.63086e-06
-9.43585e-05 -3.78702e-05 2.50923e-06
-6.63086e-06 2.50923e-06 -0.000161687
0.000332758 -5.07472e-05 -3.68421e-06
-5.07472e-05 -1.73259e-06 1.52605e-06
-3.68421e-06 1.52605e-06 -0.000128289
0.0024321 -0.000210822 -7.60169e-07
-0.000210822 -0.000212665 -6.07655e-06
-7.60169e-07 -6.07655e-06 -3.02585e-05
0.00240055 -0.000542738 -1.71307e-06
-0.000542738 -0.000217489 -2.53859e-06
-1.71307e-06 -2.53859e-06 -5.66594e-05
0.00249248 -0.000801477 1.80478e-07
-0.000801477 1.30277e-05 2.02711e-06
1.80478e-07 2.02711e-06 -2.11705e-05
0.00413678 -0.0010331 2.5398e-05
-0.0010331 0.00195968 8.6369e-06
2.5398e-05 8.6369e-06 0.0014257
0.000695389 -0.000987026 -6.48014e-06
-0.000987026 -0.000402806 4.21743e-06
-6.48014e-06 4.21743e-06 -0.000950446
0.00249206 -0.00105084 -1.73096e-06
-0.00105084 0.000291878 -3.77647e-06
-1.73096e-06 -3.77647e-06 -2.39707e-06
9.52157e-05 -0.000720857 1.09849e-05
-0.000720857 -0.000340128 -2.43862e-05
1.09849e-05 -2.43862e-05 -0.000893661
0.0035823 -0.000425168 1.33901e-05
-0.000425168 0.00174199 -5.68947e-06
1.33901e-05 -5.68947e-06 0.00130348
9.92091e-06 -0.000103515 -6.37788e-06
-0.000103515 -0.0002911 8.62023e-06
-6.37788e-06 8.62023e-06 -0.000562446
0.000667595 -7.45847e-05 4.01498e-06
-7.45847e-05 0.00020135 -1.09702e-07
4.01498e-06 -1.09702e-07 8.79193e-05
0.000605175 -0.00013834 -8.44708e-06
-0.00013834 0.000244864 -1.33061e-05
-8.44708e-06 -1.33061e-05 -7.93578e-05
0.000539166 -3.00097e-05 5.46051e-06
-3.00097e-05 0.000115274 -7.29515e-07
5.46051e-06 -7.29515e-07 -5.92041e-05
0.00053229 -2.29929e-06 6.07591e-07
-2.29929e-06 0.000126666 2.29257e-06
6.07591e-07 2.29257e-06 -1.89723e-06
0.000683306 -8.29622e-05 -1.05065e-05
-8.29622e-05 0.000146011 1.70963e-06
-1.05065e-05 1.70963e-06 4.53067e-05
0.0027213 -0.000351654 2.24299e-06
-0.000351654 -3.06773e-05 1.34322e-06
2.24299e-06 1.34322e-06 0.000175577
0.000425701 -3.42517e-05 -9.27608e-07
-3.42517e-05 5.69971e-05 3.18385e-06
-9.27608e-07 3.18385e-06 -8.25598e-05
0.000817354 -6.61852e-05 8.64011e-06
-6.61852e-05 0.000202943 -1.0783e-06
8.64011e-06 -1.0783e-06 7.86807e-05
-0.00109869 -5.86436e-05 8.86909e-06
-5.86436e-05 -0.000889813 -1.17087e-06
8.86909e-06 -1.17087e-06 -0.000955469
0.0021919 -0.000617792 5.12977e-07
-0.000617792 -0.000359674 -1.14327e-06
5.12977e-07 -1.14327e-06 -0.000107735
0.0024129 -0.000960086 2.53796e-06
-0.000960086 9.93038e-05 -1.3756e-06
2.53796e-06 -1.3756e-06 -0.000101871
0.001982 -0.00105007 -1.0453e-05
-0.00105007 0.000615775 5.06136e-07
-1.0453e-05 5.06136e-07 7.26709e-05
0.00289085 -0.00123263 -4.36843e-06
-0.00123263 0.000670903 8.60766e-07
-4.36843e-06 8.60766e-07 0.000270414
0.00158715 -0.000189667 8.65395e-06
-0.000189667 0.000795562 -4.91898e-06
8.65395e-06 -4.91898e-06 0.000530578
-0.000438938 -4.62534e-05 6.7029e-06
-4.62534e-05 -0.000464363 8.39858e-06
6.7029e-06 8.39858e-06 -0.000756717
0.00181447 -0.00121887 -4.01367e-07
-0.00121887 0.00103178 -1.53119e-06
-4.01367e-07 -1.53119e-06 0.0001966
0.00186045 -0.000537268 -1.06184e-05
-0.000537268 0.00099222 -1.16236e-06
-1.06184e-05 -1.16236e-06 0.000419237
0.00368425 -0.000519777 -5.06984e-05
-0.000519777 0.000492712 1.68509e-05
-5.06984e-05 1.68509e-05 0.00079674
0.00280544 -0.000804163 -3.69659e-05
-0.000804163 0.000220727 1.30477e-05
-3.69659e-05 1.30477e-05 0.000290916
0.00269118 -0.00110108 -8.13021e-07
-0.00110108 0.000483163 -1.8863e-05
-8.13021e-07 -1.8863e-05 9.86193e-05
0.00301174 -0.00124388 1.69663e-05
-0.00124388 0.000970651 3.0612e-05
1.69663e-05 3.0612e-05 0.000565353
-2.20412e-05 -0.000107709 -4.57873e-06
-0.000107709 -0.000102316 -9.06788e-06
-4.57873e-06 -9.06788e-06 -0.000256288
0.000410466 -0.000177891 -1.52697e-05
-0.000177891 4.30003e-05 -2.6407e-06
-1.52697e-05 -2.6407e-06 -0.000192543
6.50741e-05 -0.000214195 -6.79606e-06
-0.000214195 0.000157584 6.55275e-05
-6.79606e-06 6.55275e-05 -0.000207892
0.000163104 -0.00101518 -5.74158e-06
-0.00101518 0.000797374 -4.20177e-05
-5.74158e-06 -4.20177e-05 -0.000407902
0.00406351 -0.000454581 7.35784e-05
-0.000454581 -0.00594185 -1.44325e-05
7.35784e-05 -1.44325e-05 -0.00605126
0.00244806 0.000355332 7.59326e-06
0.000355332 0.00140002 -3.2533e-06
7.59326e-06 -3.2533e-06 0.00113121
0.000993017 0.00040213 -3.5649e-07
0.00040213 0.000335544 -2.15758e-06
-3.5649e-07 -2.15758e-06 1.3988e-05
0.00184628 0.000404494 5.39818e-05
0.000404494 -0.000505183 2.09531e-05
5.39818e-05 2.09531e-05 -0.000190882
0.00249593 0.000890896 2.49587e-05
0.000890896 0.000274757 1.20081e-05
2.49587e-05 1.20081e-05 7.46915e-05
0.00254772 0.00100129 1.20468e-05
0.00100129 0.000741819 1.37108e-05
1.20468e-05 1.37108e-05 0.000209145
0.00159976 0.000735256 1.15448e-05
0.000735256 0.000470066 1.12555e-05
1.15448e-05 1.12555e-05 -5.31376e-05
0.00550534 0.00186206 0.000108041
0.00186206 -0.000216204 3.69286e-05
0.000108041 3.69286e-05 5.26827e-05
0.0011917 0.000352588 4.19038e-06
0.000352588 0.000708892 -1.90535e-06
4.19038e-06 -1.90535e-06 0.000417781
0.00289071 0.000908258 -2.33973e-05
0.000908258 0.000194247 1.29906e-06
-2.33973e-05 1.29906e-06 0.000233849
0.000966667 0.000532432 -7.00599e-06
0.000532432 0.000184038 5.15875e-06
-7.00599e-06 5.15875e-06 -0.000222582
0.00163629 0.000819371 8.48637e-07
0.000819371 0.000416782 -7.76098e-06
8.48637e-07 -7.76098e-06 -0.000100944
0.00259946 0.00109943 -1.19727e-05
0.00109943 0.000513701 -1.68177e-07
-1.19727e-05 -1.68177e-07 0.000141272
0.00534423 -0.000546684 -0.000194364
-0.000546684 -0.00564033 -0.000122111
-0.000194364 -0.000122111 -0.00616777
0.0068141 0.00237335 -0.000173001
0.00237335 -0.00102361 -7.20958e-05
-0.000173001 -7.20958e-05 0.000762833
0.00134526 0.00167765 -3.04067e-06
0.00167765 -0.000560763 2.10774e-06
-3.04067e-06 2.10774e-06 -0.000897688
0.00370526 -0.00290005 0.000712413
-0.00290005 0.00381811 0.000252657
0.000712413 0.000252657 0.000192709
0.019917 -0.0120251 -0.000576346
-0.0120251 0.0110131 -0.000513008
-0.000576346 -0.000513008 0.00520588
0.000309397 0.000267577 -1.23371e-05
0.000267577 -2.05179e-06 -2.24524e-06
-1.23371e-05 -2.24524e-06 -0.000252386
0.00220487 0.000439827 0.0010751
0.000439827 0.00480114 8.56518e-05
0.0010751 8.56518e-05 0.00260814
0.00608408 -0.00485714 -0.000138735
-0.00485714 0.00771141 -0.000215001
-0.000138735 -0.000215001 0.000655458
0.00355407 0.00146968 -7.37578e-05
0.00146968 0.000708238 -2.55325e-05
-7.37578e-05 -2.55325e-05 0.000438817
0.000520019 0.000438191 -3.21433e-05
0.000438191 -0.000115775 -7.2941e-06
-3.21433e-05 -7.2941e-06 -0.000473276
0.00143568 0.000845829 -4.41618e-05
0.000845829 0.000335604 -3.59716e-05
-4.41618e-05 -3.59716e-05 -0.000103766
-0.000250998 0.00155811 0.000101207
0.00155811 -0.0010556 0.000112987
0.000101207 0.000112987 -0.00141838
0.0135897 0.00325667 0.00012068
0.00325667 0.000797889 -7.56106e-06
0.00012068 -7.56106e-06 0.000766886
0.00594305 0.00356607 -6.84798e-05
0.00356607 -0.000503598 -7.52483e-05
-6.84798e-05 -7.52483e-05 0.000878614
0.0206722 -0.00759417 0.00127356
-0.00759417 0.0077199 0.000487471
0.00127356 0.000487471 0.00188564
0.015747 -0.0032961 -0.00019475
-0.0032961 0.0059758 0.00070225
-0.00019475 0.00070225 0.00303092
0.000630252 0.000113806 1.55112e-06
0.000113806 0.000305172 -3.04866e-07
1.55112e-06 -3.04866e-07 0.000192289
0.000323418 0.000171455 6.7192e-06
0.000171455 0.000115163 1.18064e-06
6.7192e-06 1.18064e-06 -2.17875e-05
0.0015691 0.000309378 3.8277e-06
0.000309378 0.000903553 -3.50924e-06
3.8277e-06 -3.50924e-06 0.000681382
0.000594453 -1.70142e-06 1.90358e-06
-1.70142e-06 0.000161156 7.09956e-07
1.90358e-06 7.09956e-07 1.86245e-06
0.000628353 7.53154e-05 4.76113e-07
7.53154e-05 0.000168492 -1.92163e-06
4.76113e-07 -1.92163e-06 -5.87588e-06
-0.000147623 3.73426e-05 -1.52324e-06
3.73426e-05 -0.000287205 1.39361e-06
-1.52324e-06 1.39361e-06 -0.000468099
0.00081975 0.000137099 -6.21505e-06
0.000137099 0.000297602 2.9391e-06
-6.21505e-06 2.9391e-06 0.00014272
-0.000286851 7.88308e-05 -3.01031e-06
7.88308e-05 -0.000425371 3.06862e-06
-3.01031e-06 3.06862e-06 -0.000478895
0.00034113 -1.32881e-05 -4.05699e-07
-1.32881e-05 -2.07322e-05 6.71332e-07
-4.05699e-07 6.71332e-07 -0.000166719
0.00145401 0.000177894 2.92929e-06
0.000177894 0.000697045 1.11343e-06
2.92929e-06 1.11343e-06 0.000500539
0.000460537 6.32153e-05 -5.0971e-07
6.32153e-05 0.000119317 -6.5677e-07
-5.0971e-07 -6.5677e-07 -8.35617e-05
0.000798212 4.30858e-05 1.58923e-06
4.30858e-05 0.000299703 -1.20473e-07
1.58923e-06 -1.20473e-07 0.000100478
4.03859e-05 9.31819e-05 -8.23705e-07
9.31819e-05 -9.26834e-05 -3.42078e-06
-8.23705e-07 -3.42078e-06 -0.000277204
0.00160676 0.000164131 -2.10314e-06
0.000164131 0.000822643 -4.22236e-06
-2.10314e-06 -4.22236e-06 0.00064132
-0.000332519 7.94126e-05 -7.48283e-06
7.94126e-05 -0.000134572 -5.32857e-06
-7.48283e-06 -5.32857e-06 -0.000435134
0.000186014 -5.354e-05 2.5536e-07
-5.354e-05 -7.89743e-05 1.79315e-06
2.5536e-07 1.79315e-06 -0.00027176
0.000747724 -8.79586e-05 -2.9216e-06
-8.79586e-05 0.000276286 -1.487e-06
-2.9216e-06 -1.487e-06 8.14913e-05
0.000822259 -6.53144e-05 -4.42992e-07
-6.53144e-05 0.000325131 -1.05335e-06
-4.42992e-07 -1.05335e-06 0.000133042
0.000614961 -5.86065e-05 -4.64875e-06
-5.86065e-05 0.000143533 1.19428e-06
-4.64875e-06 1.19428e-06 -4.11275e-06
0.00113987 6.96348e-06 -8.14988e-06
6.96348e-06 0.000577123 -5.99116e-06
-8.14988e-06 -5.99116e-06 0.000357903
0.000925163 -0.000128451 3.90015e-06
-0.000128451 0.000315376 -1.44301e-05
3.90015e-06 -1.44301e-05 0.000187186
-0.00109063 -1.13591e-05 -5.63463e-06
-1.13591e-05 -0.000885331 -9.62096e-06
-5.63463e-06 -9.62096e-06 -0.00101577
-0.00012691 -3.40323e-05 2.20882e-06
-3.40323e-05 -0.000200572 -3.30968e-06
2.20882e-06 -3.30968e-06 -0.000419345
0.000173037 -7.52559e-05 6.56413e-07
-7.52559e-05 -0.000106844 -4.03987e-07
6.56413e-07 -4.03987e-07 -0.000251638
0.00084244 -0.000137206 -9.66528e-07
-0.000137206 0.000337959 8.54533e-07
-9.66528e-07 8.54533e-07 0.000168499
0.000473444 -9.42463e-05 -4.27937e-07
-9.42463e-05 4.52643e-05 4.14575e-06
-4.27937e-07 4.14575e-06 -8.75643e-05
0.000381707 -9.88707e-05 3.58974e-06
-9.88707e-05 4.56341e-06 4.20558e-07
3.58974e-06 4.20558e-07 -0.00015257
0.0005541 -0.000127928 -4.33149e-08
-0.000127928 0.000117168 8.12432e-08
-4.33149e-08 8.12432e-08 -3.13571e-05
0.0005057 -6.5814e-05 -1.77211e-06
-6.5814e-05 5.20456e-05 5.52328e-06
-1.77211e-06 5.52328e-06 -3.67093e-05
0.000321644 -2.04252e-06 2.78463e-07
-2.04252e-06 -1.85291e-05 -5.96868e-07
2.78463e-07 -5.96868e-07 -0.000175989
0.000458393 -2.22952e-07 2.47443e-06
-2.22952e-07 3.21353e-05 1.34141e-07
2.47443e-06 1.34141e-07 -5.9218e-05
0.00143587 -4.09458e-05 -1.24117e-05
-4.09458e-05 0.000621512 7.0953e-06
-1.24117e-05 7.0953e-06 0.000597889
0.000436247 7.48251e-05 -2.2921e-06
7.48251e-05 1.75209e-05 -3.02817e-06
-2.2921e-06 -3.02817e-06 -7.21701e-05
0.00083948 -2.3483e-05 -4.90644e-06
-2.3483e-05 0.000249577 7.44029e-07
-4.90644e-06 7.44029e-07 0.000223141
0.000810384 2.47481e-06 -4.35826e-06
2.47481e-06 0.000212097 4.75511e-06
-4.35826e-06 4.75511e-06 0.000215991
0.000341838 -3.11622e-05 4.73523e-06
-3.11622e-05 -6.92531e-05 -5.24572e-06
4.73523e-06 -5.24572e-06 -9.61329e-05
0.00260826 4.64237e-06 9.53377e-06
4.64237e-06 0.00135774 1.13489e-08
9.53377e-06 1.13489e-08 0.00136931
0.00086169 5.31092e-06 -1.23093e-05
5.31092e-06 0.000243824 -5.55195e-06
-1.23093e-05 -5.55195e-06 0.000246447
0.000522106 7.51065e-05 2.72634e-06
7.51065e-05 9.58148e-05 1.34927e-07
2.72634e-06 1.34927e-07 -1.57079e-05
0.00043184 6.00161e-05 -2.31064e-06
6.00161e-05 -1.94151e-06 -2.88109e-06
-2.31064e-06 -2.88109e-06 -5.45899e-05
0.000453077 1.13839e-06 1.48911e-06
1.13839e-06 1.24234e-05 2.35232e-07
1.48911e-06 2.35232e-07 -4.22567e-05
0.000448456 1.02349e-05 1.33852e-06
1.02349e-05 -3.11468e-05 -3.3541e-06
1.33852e-06 -3.3541e-06 -4.30793e-05
0.000548933 -7.23887e-05 -1.95962e-06
-7.23887e-05 8.18075e-05 2.5824e-06
-1.95962e-06 2.5824e-06 1.61842e-05
0.000458362 1.21736e-05 1.61733e-07
1.21736e-05 -2.60343e-05 -7.45802e-07
1.61733e-07 -7.45802e-07 -3.96354e-05
0.00205268 4.10412e-05 2.11359e-06
4.10412e-05 0.00100092 -4.92268e-06
2.11359e-06 -4.92268e-06 0.00101507
0.00113591 3.96083e-05 4.2577e-07
3.96083e-05 0.000413487 2.01921e-06
4.2577e-07 2.01921e-06 0.000398706
0.00150004 5.04292e-05 -6.58906e-07
5.04292e-05 0.000653746 1.49974e-06
-6.58906e-07 1.49974e-06 0.000659871
0.000869041 5.42852e-05 -9.77697e-07
5.42852e-05 0.000257437 9.43035e-06
-9.77697e-07 9.43035e-06 0.000254435
0.000977098 0.000639696 7.8568e-05
0.000639696 -0.00276685 2.37068e-05
7.8568e-05 2.37068e-05 -0.00161452
0.00251443 -5.22806e-05 5.51734e-06
-5.22806e-05 -0.000100669 6.1962e-06
5.51734e-06 6.1962e-06 4.62005e-05
0.00215843 8.02458e-05 3.76502e-05
8.02458e-05 -9.76494e-05 -1.25593e-05
3.76502e-05 -1.25593e-05 5.61341e-05
0.00327166 0.000594449 -7.51826e-05
0.000594449 -0.00242423 -4.37816e-05
-7.51826e-05 -4.37816e-05 -0.000391032
0.003059 0.000119479 6.78462e-05
0.000119479 -0.000719851 -2.57698e-06
6.78462e-05 -2.57698e-06 -8.16952e-05
0.00294171 -5.4212e-05 -2.54654e-06
-5.4212e-05 0.000397875 -8.93957e-06
-2.54654e-06 -8.93957e-06 0.000519377
0.0052426 -0.000505544 -7.06175e-05
-0.000505544 0.000982024 -2.27716e-05
-7.06175e-05 -2.27716e-05 0.00139823
0.00419739 -0.000541529 3.76989e-05
-0.000541529 -0.000792724 -1.33338e-06
3.76989e-05 -1.33338e-06 0.000483746
0.019542 -0.00107094 9.58662e-05
-0.00107094 0.00311833 -6.49784e-05
9.58662e-05 -6.49784e-05 0.00250906
0.0170439 0.00756105 0.00190409
0.00756105 0.00676778 -0.000462398
0.00190409 -0.000462398 0.00222574
0.0255673 0.00872318 0.000115075
0.00872318 0.016454 3.83186e-05
0.000115075 3.83186e-05 0.0112377
6.41057e-05 -0.000103939 8.98572e-07
-0.000103939 -0.000173326 -1.12916e-06
8.98572e-07 -1.12916e-06 -0.00029364
0.000525147 -5.52529e-06 1.90515e-06
-5.52529e-06 9.32606e-05 4.61106e-09
1.90515e-06 4.61106e-09 -1.08174e-05
0.000604602 -9.28849e-05 -1.00087e-06
-9.28849e-05 0.00016408 4.06957e-06
-1.00087e-06 4.06957e-06 4.17823e-05
0.000533754 -3.64248e-05 1.71344e-06
-3.64248e-05 0.000107102 1.62425e-07
1.71344e-06 1.62425e-07 -1.40843e-05
0.00107938 0.000146762 -5.61242e-06
0.000146762 0.000531215 4.15263e-08
-5.61242e-06 4.15263e-08 0.000381237
0.000578519 0.000148248 7.97244e-08
0.000148248 0.000126156 6.48029e-06
7.97244e-08 6.48029e-06 -8.96068e-06
0.00091788 1.14831e-05 2.60202e-06
1.14831e-05 0.000374783 3.18761e-06
2.60202e-06 3.18761e-06 0.000222933
0.000521953 -2.4737e-05 -1.52478e-06
-2.4737e-05 0.000101254 1.28918e-06
-1.52478e-06 1.28918e-06 -2.38339e-05
0.00272788 -0.000341104 1.4117e-05
-0.000341104 -3.10739e-05 -1.08496e-05
1.4117e-05 -1.08496e-05 0.000202558
0.00222549 -0.000645479 1.0976e-05
-0.000645479 -0.000370527 -6.36334e-06
1.0976e-05 -6.36334e-06 -0.000143043
0.00261881 -0.000980032 5.10586e-06
-0.000980032 0.000210284 7.64957e-06
5.10586e-06 7.64957e-06 1.26842e-05
0.0029069 -0.00113312 1.33504e-05
-0.00113312 0.00109137 -6.41423e-07
1.33504e-05 -6.41423e-07 0.000560314
0.00249765 -0.00119719 -3.10608e-05
-0.00119719 0.000468439 -2.17213e-06
-3.10608e-05 -2.17213e-06 5.06584e-05
0.00134294 -0.00122446 3.21329e-05
-0.00122446 0.000809227 1.60522e-06
3.21329e-05 1.60522e-06 -9.78978e-05
0.0047959 -0.000872945 9.04162e-06
-0.000872945 0.00241348 7.74144e-06
9.04162e-06 7.74144e-06 0.00194302
0.00171073 -0.000369562 1.96303e-05
-0.000369562 0.000968195 -5.31316e-05
1.96303e-05 -5.31316e-05 0.000561971
0.000499175 -0.000123363 8.99961e-07
-0.000123363 -1.56799e-05 2.3208e-06
8.99961e-07 2.3208e-06 -0.000118405
0.00114919 -9.4884e-05 1.32888e-05
-9.4884e-05 0.0004834 -2.43253e-05
1.32888e-05 -2.43253e-05 0.000232992
0.00095137 -5.84291e-05 4.40657e-06
-5.84291e-05 0.000382853 2.12151e-06
4.40657e-06 2.12151e-06 0.000231835
0.000591607 -8.76701e-07 7.58697e-06
-8.76701e-07 0.000196162 -6.66765e-06
7.58697e-06 -6.66765e-06 0.000171189
0.00254882 -0.000458528 -8.62544e-07
-0.000458528 -0.000151736 3.01293e-06
-8.62544e-07 3.01293e-06 0.000213637
0.000363205 -0.000106053 -5.09248e-06
-0.000106053 0.000112248 -1.01807e-06
-5.09248e-06 -1.01807e-06 -3.80431e-05
0.00141152 -0.000242194 -8.9104e-06
-0.000242194 0.00065397 4.91199e-06
-8.9104e-06 4.91199e-06 0.000451688
0.00172815 -0.000724756 8.70043e-06
-0.000724756 -0.000406697 -4.39251e-06
8.70043e-06 -4.39251e-06 -0.000269878
0.00227374 -0.00101145 2.21392e-06
-0.00101145 0.000257672 4.11184e-06
2.21392e-06 4.11184e-06 -5.56384e-05
0.00106247 -0.00099379 -4.73197e-06
-0.00099379 -0.000167732 -1.49081e-05
-4.73197e-06 -1.49081e-05 -0.000498977
0.00186075 -0.00042717 -2.15499e-06
-0.00042717 0.00113653 -3.20787e-05
-2.15499e-06 -3.20787e-05 0.000677184
0.00128343 -0.000759473 1.16464e-05
-0.000759473 0.00121241 3.85507e-06
1.16464e-05 3.85507e-06 0.000246351
0.00596292 -0.00105086 -5.44586e-05
-0.00105086 0.00153107 3.44369e-05
-5.44586e-05 3.44369e-05 0.00178415
0.00360146 -0.00108804 -4.15639e-05
-0.00108804 0.000993738 1.19518e-05
-4.15639e-05 1.19518e-05 0.000757976
0.00258951 -0.00120224 1.38734e-05
-0.00120224 0.000552047 9.01912e-06
1.38734e-05 9.01912e-06 0.000215277
-0.000580196 -0.000606386 -5.4551e-06
-0.000606386 -0.000751025 1.9042e-05
-5.4551e-06 1.9042e-05 -0.00089496
0.000488841 -0.000168008 1.39452e-06
-0.000168008 0.000239446 6.5273e-06
1.39452e-06 6.5273e-06 -2.15582e-05
0.000324018 -0.00018354 4.46806e-06
-0.00018354 0.000216033 1.27602e-06
4.46806e-06 1.27602e-06 -0.000107213
0.00156827 -0.000299922 -1.53454e-05
-0.000299922 0.00134339 -2.39206e-05
-1.53454e-05 -2.39206e-05 0.000549699
-0.00752876 -0.000538449 0.000765725
-0.000538449 -0.00366554 -4.38627e-05
0.000765725 -4.38627e-05 -0.00455024
0.0120652 -0.000438977 8.02509e-05
-0.000438977 7.49972e-05 3.89653e-05
8.02509e-05 3.89653e-05 0.000749877
0.00293561 0.000444281 1.08072e-05
0.000444281 0.00168576 -1.09818e-05
1.08072e-05 -1.09818e-05 0.0014318
0.0020019 0.000664643 -1.06645e-06
0.000664643 0.000861108 7.45637e-06
-1.06645e-06 7.45637e-06 0.00041018
0.00249826 0.000806277 0.000108831
0.000806277 -7.97823e-06 5.06939e-05
0.000108831 5.06939e-05 7.84664e-05
0.00347322 0.00117849 3.02776e-05
0.00117849 0.000992942 1.62382e-05
3.02776e-05 1.62382e-05 0.000591752
0.00299505 0.00101168 2.32761e-05
0.00101168 0.00118873 8.58705e-06
2.32761e-05 8.58705e-06 0.000632123
0.0175025 0.000826104 0.00010841
0.000826104 0.0024104 -7.85989e-05
0.00010841 -7.85989e-05 0.00217772
0.00854299 0.0029482 -0.000266787
0.0029482 -0.00143163 -3.67763e-05
-0.000266787 -3.67763e-05 0.000799592
0.0017591 0.00162678 1.30817e-05
0.00162678 -0.000172336 -3.21973e-05
1.30817e-05 -3.21973e-05 -0.000638167
0.015707 -0.00586617 -0.000691667
-0.00586617 0.00690394 3.2563e-05
-0.000691667 3.2563e-05 0.00266868
0.0110922 -0.0129773 -0.00297709
-0.0129773 0.00946841 -0.00171956
-0.00297709 -0.00171956 0.00324184
0.000893388 0.000366139 4.59384e-06
0.000366139 0.000425167 -2.69836e-06
4.59384e-06 -2.69836e-06 0.000130931
-0.000589521 -0.00344208 0.00068632
-0.00344208 -0.00220649 9.39171e-05
0.00068632 9.39171e-05 -0.00523392
-0.000549882 -0.00380864 -0.000718958
-0.00380864 0.00798119 -0.000199458
-0.000718958 -0.000199458 0.00106008
0.00387787 0.00139081 -1.91676e-05
0.00139081 0.000836985 1.857e-06
-1.91676e-05 1.857e-06 0.000623986
0.000889482 0.000543954 -1.06702e-05
0.000543954 0.000163082 8.93921e-06
-1.06702e-05 8.93921e-06 -0.000248192
0.00173732 0.000972248 5.84329e-06
0.000972248 0.00050217 1.86309e-06
5.84329e-06 1.86309e-06 2.52029e-06
0.00156037 0.00156077 6.27538e-05
0.00156077 0.000229279 4.62643e-05
6.27538e-05 4.62643e-05 -0.000100038
0.0142849 0.0036025 -0.000159048
0.0036025 7.90532e-05 -0.000112944
-0.000159048 -0.000112944 -0.00110472
0.00363329 0.0035147 -1.55063e-05
0.0035147 -0.00108712 -4.0086e-05
-1.55063e-05 -4.0086e-05 0.000445118
0.0208362 -0.00632844 0.000703231
-0.00632844 0.00900868 -2.66818e-05
0.000703231 -2.66818e-05 0.00317012
0.0206773 -0.00525648 3.58208e-05
-0.00525648 0.00560454 0.000838281
3.58208e-05 0.000838281 0.00167664
0.00171207 0.00044037 -1.88085e-05
0.00044037 0.000864036 -1.73309e-05
-1.88085e-05 -1.73309e-05 0.000598664
-0.00950806 0.00133502 -0.000111579
0.00133502 0.0048462 -0.000153434
-0.000111579 -0.000153434 -0.00300191
0.00618402 0.0013519 -0.000494811
0.0013519 0.00502657 -0.000577311
-0.000494811 -0.000577311 -0.000173575
0.00258476 0.00102424 -3.98115e-05
0.00102424 0.000581942 -1.67287e-05
-3.98115e-05 -1.67287e-05 0.000490271
0.0031866 0.00105173 -8.93641e-05
0.00105173 0.00143949 -3.28957e-05
-8.93641e-05 -3.28957e-05 0.000966447
0.00200168 0.00120142 -9.96372e-05
0.00120142 0.00127723 -2.9281e-05
-9.96372e-05 -2.9281e-05 0.000500916
-0.00288284 0.00231222 3.16071e-05
0.00231222 -0.00105267 -3.4839e-05
3.16071e-05 -3.4839e-05 -0.00120461
0.00308829 0.00480555 0.000608931
0.00480555 -0.00192588 0.000125641
0.000608931 0.000125641 -0.00354499
0.0221679 -0.00803301 2.75877e-07
-0.00803301 0.0122189 0.000849637
2.75877e-07 0.000849637 0.00568744
0.00926744 -0.000134004 -0.000203977
-0.000134004 -0.00189597 -0.000196309
-0.000203977 -0.000196309 -0.00128763
-0.000383459 0.000159982 -3.47376e-07
0.000159982 -0.000282271 -4.41413e-06
-3.47376e-07 -4.41413e-06 -0.000442573
0.00188735 0.000368748 1.00953e-05
0.000368748 0.00108217 2.67432e-06
1.00953e-05 2.67432e-06 0.000849233
-0.000669912 9.77844e-05 -3.8535e-06
9.77844e-05 -0.000408655 1.78487e-06
-3.8535e-06 1.78487e-06 -0.000596427
0.000335767 5.21497e-05 2.25915e-06
5.21497e-05 -2.64567e-05 2.01968e-06
2.25915e-06 2.01968e-06 -0.000172321
0.00108988 8.76608e-05 3.05786e-07
8.76608e-05 0.000498149 -9.84065e-07
3.05786e-07 -9.84065e-07 0.000292156
0.000560271 3.65967e-05 -2.46462e-06
3.65967e-05 0.000188326 2.10113e-06
-2.46462e-06 2.10113e-06 -2.65254e-05
0.000378578 0.000110846 7.24252e-06
0.000110846 4.35999e-05 6.8017e-06
7.24252e-06 6.8017e-06 -0.000160764
-0.000861044 2.64123e-05 -4.83269e-06
2.64123e-05 -0.000630129 2.08522e-06
-4.83269e-06 2.08522e-06 -0.000809596
0.000770406 3.44911e-05 4.06011e-07
3.44911e-05 0.000294354 -6.63061e-07
4.06011e-07 -6.63061e-07 9.70698e-05
0.000706907 9.92217e-05 6.2193e-07
9.92217e-05 0.000253627 -1.33232e-07
6.2193e-07 -1.33232e-07 7.89193e-05
0.000844382 -4.02209e-05 -1.29829e-06
-4.02209e-05 0.00035615 2.28092e-06
-1.29829e-06 2.28092e-06 0.000144485
-0.00112122 4.16738e-05 1.64634e-06
4.16738e-05 -0.000598376 7.31752e-07
1.64634e-06 7.31752e-07 -0.00089423
0.000869854 8.37623e-05 -1.80499e-06
8.37623e-05 0.000734852 6.40089e-06
-1.80499e-06 6.40089e-06 0.000346341
0.000690739 -1.81997e-05 -1.8891e-07
-1.81997e-05 0.000372804 -6.30466e-06
-1.8891e-07 -6.30466e-06 0.000133856
0.00159714 -1.65938e-05 -2.39268e-06
-1.65938e-05 0.0008852 3.46758e-06
-2.39268e-06 3.46758e-06 0.000634294
0.000858245 -9.32854e-05 -6.61268e-07
-9.32854e-05 0.000349608 -1.17488e-06
-6.61268e-07 -1.17488e-06 0.000152163
0.00012711 -0.000114656 4.32704e-06
-0.000114656 -0.000172595 1.39295e-05
4.32704e-06 1.39295e-05 -0.000309415
0.0006315 -9.4819e-05 5.04532e-07
-9.4819e-05 0.000229142 -6.13629e-07
5.04532e-07 -6.13629e-07 2.68297e-05
0.00079534 -0.000119614 -2.79388e-06
-0.000119614 0.000222584 -1.04109e-06
-2.79388e-06 -1.04109e-06 9.34617e-05
-0.000314833 -7.36412e-05 1.6034e-06
-7.36412e-05 -0.000392811 6.2329e-06
1.6034e-06 6.2329e-06 -0.000512878
-0.000304071 -5.67011e-05 2.4767e-07
-5.67011e-05 -0.000357779 -7.43538e-06
2.4767e-07 -7.43538e-06 -0.000527338
5.42756e-05 -5.10726e-05 -8.58588e-06
-5.10726e-05 -4.42102e-05 -2.08343e-06
-8.58588e-06 -2.08343e-06 -0.000255447
0.000311246 -0.000130604 2.37769e-06
-0.000130604 1.52494e-05 -1.15103e-05
2.37769e-06 -1.15103e-05 -0.000113434
0.00117878 -0.000140177 2.275e-05
-0.000140177 0.000432096 -1.61874e-05
2.275e-05 -1.61874e-05 0.000307749
0.00192693 -0.000373288 -1.77105e-06
-0.000373288 0.000835815 3.93225e-06
-1.77105e-06 3.93225e-06 0.00061253
-0.000263661 -8.0789e-05 -5.57379e-06
-8.0789e-05 -0.000326705 -1.93805e-06
-5.57379e-06 -1.93805e-06 -0.000527153
0.000547849 -4.38253e-05 2.2448e-06
-4.38253e-05 0.000204095 -7.9358e-07
2.2448e-06 -7.9358e-07 -4.91935e-06
-0.000662263 -1.47363e-05 4.15597e-06
-1.47363e-05 -0.000581029 -6.3111e-07
4.15597e-06 -6.3111e-07 -0.00079358
0.000628152 -0.000146643 -1.41062e-06
-0.000146643 0.000206031 -8.33274e-07
-1.41062e-06 -8.33274e-07 3.48158e-05
0.00041914 -4.26927e-05 6.82341e-07
-4.26927e-05 1.07629e-05 9.0165e-07
6.82341e-07 9.0165e-07 -0.000125921
0.000619279 -0.000152525 7.32457e-07
-0.000152525 0.000179197 6.77836e-07
7.32457e-07 6.77836e-07 2.40791e-05
0.000592586 -9.51166e-05 -3.48784e-07
-9.51166e-05 0.000138976 2.23863e-07
-3.48784e-07 2.23863e-07 -5.17473e-06
0.000361309 3.21273e-05 5.71481e-07
3.21273e-05 -4.20299e-05 5.36324e-06
5.71481e-07 5.36324e-06 -0.000134231
0.000614791 -0.000128422 4.93765e-08
-0.000128422 0.000149374 -2.9405e-06
4.93765e-08 -2.9405e-06 2.15618e-06
0.000505422 -4.97848e-05 -5.86597e-07
-4.97848e-05 4.64567e-05 1.49082e-07
-5.86597e-07 1.49082e-07 -3.87966e-05
0.0014141 2.22781e-05 -8.22153e-06
2.22781e-05 0.000598586 7.76445e-06
-8.22153e-06 7.76445e-06 0.000575429
0.000480728 -7.2488e-05 9.90358e-07
-7.2488e-05 3.97933e-05 -3.47196e-06
9.90358e-07 -3.47196e-06 -4.77793e-05
0.000857054 -2.46212e-05 -9.32385e-06
-2.46212e-05 0.000252761 8.69688e-07
-9.32385e-06 8.69688e-07 0.00022683
0.000735881 1.10257e-05 1.51516e-06
1.10257e-05 0.000154415 2.19755e-06
1.51516e-06 2.19755e-06 0.000157588
0.000407836 -2.94688e-05 3.51039e-06
-2.94688e-05 -3.13974e-05 -4.78371e-06
3.51039e-06 -4.78371e-06 -5.71779e-05
0.00256611 9.77272e-06 7.15704e-06
9.77272e-06 0.00132946 7.34177e-09
7.15704e-06 7.34177e-09 0.00134173
0.00259592 -5.45269e-07 5.00362e-06
-5.45269e-07 0.0013497 -5.06832e-06
5.00362e-06 -5.06832e-06 0.00136134
0.00104475 8.29903e-05 -4.37461e-07
8.29903e-05 0.000429007 2.18507e-07
-4.37461e-07 2.18507e-07 0.0003114
0.000496811 6.95485e-05 -1.56841e-06
6.95485e-05 4.3537e-05 -3.24813e-06
-1.56841e-06 -3.24813e-06 -1.52333e-05
0.000528917 -1.61223e-05 -6.06917e-07
-1.61223e-05 0.0001039 7.9849e-07
-6.06917e-07 7.9849e-07 -7.88027e-06
0.000445091 9.59675e-06 1.46565e-06
9.59675e-06 -3.38243e-05 -3.65146e-06
1.46565e-06 -3.65146e-06 -4.47751e-05
0.000422291 -1.03822e-05 1.46257e-06
-1.03822e-05 -9.60408e-06 -2.24884e-07
1.46257e-06 -2.24884e-07 -6.0984e-05
0.000492485 -6.55607e-05 -2.16478e-06
-6.55607e-05 4.36308e-05 2.69413e-06
-2.16478e-06 2.69413e-06 -1.46539e-05
0.000455178 7.06e-06 -5.82906e-07
7.06e-06 -2.72721e-05 1.38786e-08
-5.82906e-07 1.38786e-08 -3.91855e-05
0.00201162 2.62386e-05 -3.26254e-06
2.62386e-05 0.000971616 -4.97228e-06
-3.26254e-06 -4.97228e-06 0.00098759
0.00115483 2.50637e-05 -7.21081e-07
2.50637e-05 0.000421418 2.31946e-06
-7.21081e-07 2.31946e-06 0.000410656
0.00131681 3.2192e-05 -2.82284e-06
3.2192e-05 0.000528545 -1.97422e-08
-2.82284e-06 -1.97422e-08 0.000539161
0.000782872 3.84581e-05 -5.48499e-06
3.84581e-05 0.000193582 7.95274e-06
-5.48499e-06 7.95274e-06 0.000196816
-0.00753865 0.0019189 0.000770539
0.0019189 -0.00240893 -9.47648e-05
0.000770539 -9.47648e-05 -0.00618327
0.000972962 0.00113586 0.00170874
0.00113586 0.00830623 -0.000369809
0.00170874 -0.000369809 0.00327457
0.0022491 0.00057835 -0.000164725
0.00057835 -0.00290767 -3.39737e-05
-0.000164725 -3.39737e-05 -0.000615893
0.00226134 -3.38787e-05 1.55152e-05
-3.38787e-05 -0.00113753 -3.36732e-05
1.55152e-05 -3.36732e-05 -0.00042389
0.00192357 -8.07475e-05 3.14731e-05
-8.07475e-05 -0.000324169 2.21035e-05
3.14731e-05 2.21035e-05 -0.000179567
-0.00166726 -3.07735e-05 -0.000121216
-3.07735e-05 -0.0025106 -3.35119e-05
-0.000121216 -3.35119e-05 -0.000862871
0.00391684 -0.000558079 2.41347e-06
-0.000558079 7.85031e-05 4.73339e-06
2.41347e-06 4.73339e-06 0.000434333
0.0123699 -0.000246089 0.000239758
-0.000246089 -0.00196614 -0.00010677
0.000239758 -0.00010677 -0.00232042
0.00386627 0.0049819 -3.22099e-06
0.0049819 0.00156978 -7.83625e-05
-3.22099e-06 -7.83625e-05 -0.00274475
0.0201771 0.0104172 -0.000699611
0.0104172 0.0133357 0.000299108
-0.000699611 0.000299108 0.00784583
0.00190316 -0.00113601 1.4726e-05
-0.00113601 -0.00309643 -3.39323e-05
1.4726e-05 -3.39323e-05 -0.00124347
0.0157095 -0.00337714 0.000268173
-0.00337714 0.00100479 -7.30233e-05
0.000268173 -7.30233e-05 -6.56281e-05
0.0231465 0.00724276 0.000449156
0.00724276 0.00810786 -0.000537149
0.000449156 -0.000537149 0.00224849
0.0251465 0.00538121 -0.000345894
0.00538121 0.00877379 0.000335291
-0.000345894 0.000335291 0.0051094
0.00110802 0.000180346 -4.16147e-06
0.000180346 0.00055138 1.99484e-06
-4.16147e-06 1.99484e-06 0.00035257
0.0003088 4.06715e-05 7.0234e-07
4.06715e-05 -3.84264e-05 -9.41095e-07
7.0234e-07 -9.41095e-07 -0.000149453
0.000531004 -0.00010036 2.30375e-06
-0.00010036 0.000110251 2.10761e-06
2.30375e-06 2.10761e-06 -6.57547e-07
0.000707393 2.98776e-06 6.95735e-06
2.98776e-06 0.000228284 -1.20407e-06
6.95735e-06 -1.20407e-06 0.000100212
0.000786663 8.56922e-05 3.23943e-06
8.56922e-05 0.00034566 6.31176e-07
3.23943e-06 6.31176e-07 0.000209671
0.000541334 5.07835e-05 -1.11846e-07
5.07835e-05 0.000138825 7.97934e-06
-1.11846e-07 7.97934e-06 -4.05131e-05
0.00070454 9.21767e-05 -1.15102e-07
9.21767e-05 0.000233814 3.15255e-06
-1.15102e-07 3.15255e-06 8.8257e-05
0.000425014 8.49327e-05 5.27136e-06
8.49327e-05 1.34567e-05 3.13851e-06
5.27136e-06 3.13851e-06 -0.000137494
0.000640834 -1.35975e-05 2.32323e-06
-1.35975e-05 0.000196412 -1.18878e-06
2.32323e-06 -1.18878e-06 4.65741e-05
0.000429562 -2.26869e-05 2.39854e-06
-2.26869e-05 3.39642e-05 -2.00261e-06
2.39854e-06 -2.00261e-06 -8.14869e-05
0.00122222 -0.000374095 3.88004e-05
-0.000374095 -0.000900876 -1.70442e-05
3.88004e-05 -1.70442e-05 -0.000469399
0.00107911 -0.00066724 2.32011e-05
-0.00066724 -0.000756247 -8.62634e-06
2.32011e-05 -8.62634e-06 -0.000580298
0.000951814 -0.000827692 4.7381e-06
-0.000827692 -0.00047328 7.71449e-06
4.7381e-06 7.71449e-06 -0.000690596
-0.000476203 -0.000779448 -1.95268e-05
-0.000779448 -0.0010169 -4.94582e-06
-1.95268e-05 -4.94582e-06 -0.0012937
0.00263445 -0.000589147 8.72429e-06
-0.000589147 0.00176609 5.02856e-05
8.72429e-06 5.02856e-05 0.00101497
-0.000755157 -0.000639537 -9.49361e-06
-0.000639537 -0.000421814 -1.0281e-05
-9.49361e-06 -1.0281e-05 -0.00106134
0.00131545 -0.000308649 8.33522e-06
-0.000308649 0.000609758 -5.19606e-06
8.33522e-06 -5.19606e-06 0.000437109
0.000362864 -6.27799e-05 1.71196e-06
-6.27799e-05 8.56668e-05 3.92954e-06
1.71196e-06 3.92954e-06 -5.43843e-05
0.00264524 -0.000744429 1.53775e-05
-0.000744429 -0.000316763 -1.02872e-05
1.53775e-05 -1.02872e-05 9.1124e-05
0.000482257 -9.02339e-05 5.30196e-07
-9.02339e-05 0.000229384 2.17287e-06
5.30196e-07 2.17287e-06 -3.85891e-05
-0.000156179 -0.000230148 -3.83151e-06
-0.000230148 -6.97196e-05 -5.96216e-06
-3.83151e-06 -5.96216e-06 -0.000393838
0.00187046 -0.000896464 1.97474e-05
-0.000896464 1.52326e-05 -1.26938e-06
1.97474e-05 -1.26938e-06 -9.17093e-05
0.00185908 -0.00109988 -2.42034e-06
-0.00109988 8.20259e-05 -2.39695e-06
-2.42034e-06 -2.39695e-06 -0.000146303
0.000115343 -0.000792581 1.58995e-05
-0.000792581 -0.000321969 -2.09329e-05
1.58995e-05 -2.09329e-05 -0.000577352
0.000908081 -0.000399332 1.50007e-05
-0.000399332 0.000942768 -2.36242e-05
1.50007e-05 -2.36242e-05 0.000166345
0.00184692 -0.00111968 -6.12592e-05
-0.00111968 -0.000245929 4.79692e-05
-6.12592e-05 4.79692e-05 -0.000439154
0.00169553 -0.000936775 -3.18358e-05
-0.000936775 0.000147994 1.4921e-05
-3.18358e-05 1.4921e-05 0.000106228
-0.000574943 -0.000603741 -5.27343e-05
-0.000603741 -0.000237213 3.65859e-05
-5.27343e-05 3.65859e-05 -0.000663512
-0.0019347 -0.000184022 -9.6156e-06
-0.000184022 -0.00130391 1.23439e-05
-9.6156e-06 1.23439e-05 -0.00155692
-0.00128181 -7.2395e-06 -5.50494e-07
-7.2395e-06 -0.000779664 1.21662e-05
-5.50494e-07 1.21662e-05 -0.00108967
0.000910859 -7.78795e-05 4.5379e-06
-7.78795e-05 0.000612597 -1.50246e-05
4.5379e-06 -1.50246e-05 0.000210897
-0.002853 0.00148472 -0.000540794
0.00148472 0.00782391 2.51028e-05
-0.000540794 2.51028e-05 0.00181555
-0.000184032 -0.00198361 -2.13457e-05
-0.00198361 0.00316629 -1.31579e-05
-2.13457e-05 -1.31579e-05 0.00161183
0.00419675 0.000942716 -0.00016123
0.000942716 -0.00612578 -2.95236e-05
-0.00016123 -2.95236e-05 -0.00624015
0.000837099 0.000375342 1.54126e-05
0.000375342 0.000442023 -5.51636e-06
1.54126e-05 -5.51636e-06 0.000132361
0.00180332 0.000729246 1.67743e-05
0.000729246 0.000752808 2.55316e-05
1.67743e-05 2.55316e-05 0.000267006
0.00343243 0.00121599 8.01712e-05
0.00121599 0.000574385 3.43782e-05
8.01712e-05 3.43782e-05 0.00042492
0.00135411 0.00101165 1.79944e-05
0.00101165 0.000336368 2.74436e-05
1.79944e-05 2.74436e-05 -0.000213778
0.0144609 -0.00404902 0.000313561
-0.00404902 0.00614607 9.47959e-05
0.000313561 9.47959e-05 0.00351725
0.00361293 0.00228298 -0.000452632
0.00228298 -0.00566991 -0.00011245
-0.000452632 -0.00011245 -0.00672659
0.00571504 0.0034891 4.9064e-05
0.0034891 0.000460983 3.12254e-05
4.9064e-05 3.12254e-05 0.00140413
0.00308736 0.00152679 7.44261e-05
0.00152679 0.00129398 -3.08621e-07
7.44261e-05 -3.08621e-07 0.000989131
0.0129291 -0.00370293 -0.000595783
-0.00370293 0.00542666 -0.000334876
-0.000595783 -0.000334876 0.000226579
0.00128281 -0.00508186 -0.00104814
-0.00508186 0.00880142 -0.000272674
-0.00104814 -0.000272674 0.00182082
0.0304366 -0.00722506 0.00101034
-0.00722506 0.00950554 0.000456196
0.00101034 0.000456196 0.00494376
0.000200586 0.000307239 1.66624e-05
0.000307239 -1.54313e-05 -5.24171e-06
1.66624e-05 -5.24171e-06 -0.000273508
-0.00356756 0.000388186 -0.000198349
0.000388186 0.00701163 -3.08396e-05
-0.000198349 -3.08396e-05 0.000228069
0.00685968 0.00182122 -0.000200475
0.00182122 0.00392783 -0.000195296
-0.000200475 -0.000195296 -0.00194102
0.00181308 0.00105551 8.91313e-06
0.00105551 0.000281351 2.93667e-06
8.91313e-06 2.93667e-06 0.000110161
0.000756233 0.000776009 1.89352e-05
0.000776009 0.000235331 7.08573e-06
1.89352e-05 7.08573e-06 -0.00024285
0.00105762 0.00126926 -8.35193e-05
0.00126926 0.000676712 -7.43601e-05
-8.35193e-05 -7.43601e-05 3.66989e-05
0.00383761 0.00399427 4.978e-05
0.00399427 0.000988659 4.49023e-05
4.978e-05 4.49023e-05 0.00104312
0.0146132 0.0058677 -1.37939e-06
0.0058677 0.00205109 2.48991e-06
-1.37939e-06 2.48991e-06 -0.000205756
0.0106165 -0.00441753 9.70705e-05
-0.00441753 0.00646094 -0.000125707
9.70705e-05 -0.000125707 -0.000407574
0.0172486 -0.0021866 -2.82933e-05
-0.0021866 0.00251114 -6.95795e-05
-2.82933e-05 -6.95795e-05 0.00326614
0.000881871 0.000635533 -1.6435e-05
0.000635533 0.000363104 -8.14167e-06
-1.6435e-05 -8.14167e-06 1.29505e-06
0.00157949 0.000316255 -0.000454233
0.000316255 0.00282216 -0.000120892
-0.000454233 -0.000120892 -0.00303087
0.0016903 0.00123813 -0.000167303
0.00123813 3.43312e-05 -0.000196166
-0.000167303 -0.000196166 -0.00182915
-0.000839883 0.000399086 -5.97268e-06
0.000399086 -0.000167927 -2.23549e-05
-5.97268e-06 -2.23549e-05 -0.000496892
-0.00161503 0.000876939 -0.000184813
0.000876939 0.000788464 -5.72421e-06
-0.000184813 -5.72421e-06 2.0546e-05
0.0103519 0.00606171 0.000139255
0.00606171 0.00358818 -2.74934e-05
0.000139255 -2.74934e-05 -0.0013308
0.000849681 -0.00648872 -3.29865e-05
-0.00648872 0.000537964 0.000233911
-3.29865e-05 0.000233911 -0.00561112
0.0138548 -0.000162498 6.77749e-05
-0.000162498 -0.00137087 -0.000342371
6.77749e-05 -0.000342371 0.000787528
0.00110626 0.000258859 -1.02339e-06
0.000258859 0.000553181 2.01706e-05
-1.02339e-06 2.01706e-05 0.000365219
0.000971452 0.000280821 -9.22131e-06
0.000280821 0.000608014 -5.95864e-06
-9.22131e-06 -5.95864e-06 0.000364917
-0.000494395 0.00014382 1.74133e-06
0.00014382 -6.78657e-05 -1.22032e-06
1.74133e-06 -1.22032e-06 -0.000437161
0.000459202 8.61512e-05 -2.21038e-07
8.61512e-05 7.24081e-05 -6.12985e-07
-2.21038e-07 -6.12985e-07 -0.000106381
0.00133048 -2.87279e-05 -3.28167e-06
-2.87279e-05 0.000686064 3.98726e-06
-3.28167e-06 3.98726e-06 0.000456495
-0.000232221 7.75956e-05 3.0397e-06
7.75956e-05 -0.000341313 3.15519e-06
3.0397e-06 3.15519e-06 -0.000511166
-0.0013677 5.92405e-05 2.20851e-06
5.92405e-05 -0.000732673 1.36305e-06
2.20851e-06 1.36305e-06 -0.0010324
0.000463914 -2.04956e-05 1.48001e-06
-2.04956e-05 0.000118536 5.45412e-07
1.48001e-06 5.45412e-07 -9.1073e-05
0.000478621 7.50369e-05 8.69339e-07
7.50369e-05 0.000232665 -2.26747e-06
8.69339e-07 -2.26747e-06 9.37752e-07
3.46181e-05 5.18509e-05 3.45915e-06
5.18509e-05 0.00032447 2.89267e-06
3.45915e-06 2.89267e-06 -0.000137712
-0.00109123 2.3601e-05 -1.29151e-06
2.3601e-05 -0.000188887 1.16788e-05
-1.29151e-06 1.16788e-05 -0.000742545
0.000705966 2.15977e-05 -1.93046e-06
2.15977e-05 0.000681061 -5.94349e-06
-1.93046e-06 -5.94349e-06 0.00026222
0.00167635 4.75707e-05 -1.47902e-06
4.75707e-05 0.000969774 1.34565e-06
-1.47902e-06 1.34565e-06 0.00074614
0.000871107 -0.000175009 4.12449e-06
-0.000175009 0.000383722 2.31263e-06
4.12449e-06 2.31263e-06 0.000177995
0.000132994 -7.45176e-05 1.25787e-06
-7.45176e-05 -0.000214723 8.14776e-06
1.25787e-06 8.14776e-06 -0.0003335
-5.94619e-05 -8.87795e-05 1.05734e-05
-8.87795e-05 -0.000231903 1.90182e-05
1.05734e-05 1.90182e-05 -0.000331849
0.000254193 -3.40972e-05 1.02455e-06
-3.40972e-05 6.55961e-05 1.35497e-06
1.02455e-06 1.35497e-06 -0.00013197
0.000467515 -3.72801e-05 -4.84224e-07
-3.72801e-05 0.000103914 2.01241e-06
-4.84224e-07 2.01241e-06 -5.98116e-05
6.58807e-06 -6.14177e-05 -3.15911e-06
-6.14177e-05 -0.000145322 -1.6069e-06
-3.15911e-06 -1.6069e-06 -0.000280844
4.9195e-05 -7.62389e-05 -4.50558e-06
-7.62389e-05 -0.000130766 -4.20579e-06
-4.50558e-06 -4.20579e-06 -0.000280419
0.000989533 -0.000112383 8.95348e-06
-0.000112383 0.000652428 -1.00875e-05
8.95348e-06 -1.00875e-05 0.000457337
0.00230084 -0.00036116 5.59397e-06
-0.00036116 0.00106084 5.41427e-06
5.59397e-06 5.41427e-06 0.0009463
0.000682986 -0.000136416 -1.65564e-05
-0.000136416 0.000137436 -1.68188e-08
-1.65564e-05 -1.68188e-08 1.71968e-05
0.000756691 -0.000291506 7.2955e-06
-0.000291506 0.000130106 5.57335e-06
7.2955e-06 5.57335e-06 -6.76025e-05
0.00255319 -0.000696724 -6.2014e-06
-0.000696724 0.00117377 2.20329e-05
-6.2014e-06 2.20329e-05 0.000770935
0.00207552 -0.000292657 6.79526e-06
-0.000292657 0.000980985 -9.155e-06
6.79526e-06 -9.155e-06 0.000768015
0.000899464 -0.000275105 -4.5438e-06
-0.000275105 0.000223038 -6.52943e-06
-4.5438e-06 -6.52943e-06 4.46371e-05
0.000528178 -0.000108651 -5.23201e-07
-0.000108651 0.000143019 -1.36668e-06
-5.23201e-07 -1.36668e-06 -5.78326e-05
-0.00070993 -4.91124e-05 -1.88379e-07
-4.91124e-05 -0.00058196 -1.96128e-06
-1.88379e-07 -1.96128e-06 -0.000844778
0.00127749 -4.03378e-05 2.03274e-06
-4.03378e-05 0.000647001 1.56343e-06
2.03274e-06 1.56343e-06 0.00044503
0.000691135 -0.000152912 1.2233e-06
-0.000152912 0.000260585 -6.59338e-07
1.2233e-06 -6.59338e-07 4.10763e-05
0.00026023 -6.52035e-05 5.30894e-07
-6.52035e-05 -0.000105635 4.86138e-08
5.30894e-07 4.86138e-08 -0.000247028
0.0015823 -0.000254223 -4.44196e-06
-0.000254223 0.000826684 7.22134e-07
-4.44196e-06 7.22134e-07 0.000627208
0.000722391 -0.00013177 -4.65427e-07
-0.00013177 0.000207292 1.37945e-07
-4.65427e-07 1.37945e-07 6.16493e-05
0.000504122 -4.84772e-06 -1.15231e-06
-4.84772e-06 3.95306e-05 3.94072e-06
-1.15231e-06 3.94072e-06 -5.32333e-05
0.000789593 -0.000147689 1.80427e-07
-0.000147689 0.000268814 -2.57403e-06
1.80427e-07 -2.57403e-06 0.000118985
0.00057983 -6.6665e-05 -9.4702e-08
-6.6665e-05 9.41159e-05 9.96833e-08
-9.4702e-08 9.96833e-08 1.44658e-06
0.00145808 6.72321e-06 -1.36296e-05
6.72321e-06 0.000622383 8.47354e-06
-1.36296e-05 8.47354e-06 0.000596203
0.000533638 -7.60893e-05 1.25076e-06
-7.60893e-05 7.26396e-05 -5.35604e-06
1.25076e-06 -5.35604e-06 -1.92172e-05
0.00085004 -1.75457e-05 -1.08117e-05
-1.75457e-05 0.00024077 8.03466e-07
-1.08117e-05 8.03466e-07 0.000213664
0.000791791 1.98789e-05 1.50698e-06
1.98789e-05 0.000187779 3.10444e-06
1.50698e-06 3.10444e-06 0.000188375
0.000408693 -4.18154e-05 3.03116e-06
-4.18154e-05 -3.53974e-05 -5.34143e-06
3.03116e-06 -5.34143e-06 -6.35194e-05
0.00166496 1.81929e-05 1.34248e-05
1.81929e-05 0.000750853 -1.55707e-06
1.34248e-05 -1.55707e-06 0.000758898
0.00251691 7.57785e-06 1.59172e-05
7.57785e-06 0.00129726 -5.19375e-06
1.59172e-05 -5.19375e-06 0.00130988
0.000466585 6.71728e-05 1.82234e-06
6.71728e-05 3.32584e-05 -1.17803e-06
1.82234e-06 -1.17803e-06 -7.93131e-05
0.000576523 7.15966e-05 -8.80915e-07
7.15966e-05 8.86522e-05 -2.77845e-06
-8.80915e-07 -2.77845e-06 2.61588e-05
0.000558643 9.68409e-06 5.89246e-07
9.68409e-06 0.000109319 8.79881e-07
5.89246e-07 8.79881e-07 -1.54804e-06
0.000441537 7.90957e-06 2.30105e-06
7.90957e-06 -3.56151e-05 -4.06814e-06
2.30105e-06 -4.06814e-06 -4.72689e-05
0.000471094 6.05643e-05 -6.27276e-08
6.05643e-05 2.16657e-05 -2.12269e-07
-6.27276e-08 -2.12269e-07 -3.36735e-05
0.000455032 -0.000115747 -3.11072e-06
-0.000115747 4.28602e-05 1.65737e-06
-3.11072e-06 1.65737e-06 -6.01766e-05
0.00201777 1.19447e-05 -8.37001e-06
1.19447e-05 0.000973193 -5.00439e-06
-8.37001e-06 -5.00439e-06 0.000990327
0.000428602 7.41515e-06 -2.63055e-07
7.41515e-06 -4.39413e-05 3.28139e-08
-2.63055e-07 3.28139e-08 -5.48674e-05
0.000484202 -9.43866e-07 -1.33475e-06
-9.43866e-07 2.2439e-05 2.65228e-06
-1.33475e-06 2.65228e-06 -2.44959e-05
0.000447793 4.07167e-06 -2.08672e-06
4.07167e-06 -3.27082e-05 3.62374e-06
-2.08672e-06 3.62374e-06 -4.46148e-05
0.00206012 2.77521e-05 -5.70664e-06
2.77521e-05 0.00100296 -1.31689e-07
-5.70664e-06 -1.31689e-07 0.00101856
0.00204873 4.25002e-05 -2.73473e-06
4.25002e-05 0.000998795 4.98139e-06
-2.73473e-06 4.98139e-06 0.00101274
-0.0051353 -0.00212187 -0.000264977
-0.00212187 0.00722855 6.7647e-05
-0.000264977 6.7647e-05 0.0024968
0.00370437 0.00209716 -0.000355357
0.00209716 0.0016732 0.000116069
-0.000355357 0.000116069 -0.00149516
0.00294884 -0.00114248 -0.000674692
-0.00114248 0.00136178 0.000292857
-0.000674692 0.000292857 -0.00356439
0.00260232 0.00180069 0.00136665
0.00180069 0.00811752 -0.000327732
0.00136665 -0.000327732 0.0025125
0.00427863 0.000812538 -5.68843e-05
0.000812538 -0.000675618 8.5054e-06
-5.68843e-05 8.5054e-06 0.000598502
0.00350768 -0.000621144 0.000103409
-0.000621144 -0.000144377 8.78294e-06
0.000103409 8.78294e-06 0.000135143
0.00143345 -0.000444662 0.000371507
-0.000444662 -0.00630034 -5.10757e-05
0.000371507 -5.10757e-05 -0.00723199
0.0269134 0.00429831 -0.00128087
0.00429831 0.0119972 6.15486e-05
-0.00128087 6.15486e-05 0.00758319
0.0127381 0.0123916 -0.0028365
0.0123916 0.00920059 0.00172261
-0.0028365 0.00172261 0.00318813
0.00539197 -0.000933585 4.69697e-05
-0.000933585 -0.000782845 5.42863e-06
4.69697e-05 5.42863e-06 0.000436738
0.00791841 -0.00324892 0.000211288
-0.00324892 -0.00346574 -0.000175575
0.000211288 -0.000175575 -0.0052497
0.0223731 0.00694096 -0.000410546
0.00694096 0.00805136 -0.000138958
-0.000410546 -0.000138958 0.00210856
0.0186094 0.00522179 0.000109556
0.00522179 0.00560562 0.00046363
0.000109556 0.00046363 0.00186047
0.00148796 -0.00222771 -0.000109892
-0.00222771 -0.00405303 4.78678e-05
-0.000109892 4.78678e-05 -0.00208999
0.00713923 -0.00515993 0.00059898
-0.00515993 -0.000254502 -0.000257324
0.00059898 -0.000257324 -0.00357278
0.0125844 0.00389752 -7.59056e-07
0.00389752 0.00388992 -0.000988284
-7.59056e-07 -0.000988284 -0.00214096
0.00955066 0.000188684 -0.000374709
0.000188684 -0.00139444 4.61877e-05
-0.000374709 4.61877e-05 -0.0012576
0.00238566 -6.64538e-05 1.10414e-06
-6.64538e-05 0.00140635 1.74547e-05
1.10414e-06 1.74547e-05 0.00111694
0.000242119 8.61875e-05 -1.67507e-06
8.61875e-05 -3.70509e-05 -2.24094e-06
-1.67507e-06 -2.24094e-06 -0.000188971
0.000541855 0.000112765 3.31184e-06
0.000112765 9.85767e-05 1.54705e-07
3.31184e-06 1.54705e-07 -8.61608e-06
-6.29716e-05 -3.74437e-05 4.73647e-06
-3.74437e-05 -0.000232643 -3.54624e-06
4.73647e-06 -3.54624e-06 -0.000320805
0.000460187 0.000124782 3.25025e-06
0.000124782 5.6413e-05 7.96234e-06
3.25025e-06 7.96234e-06 -0.000136486
0.000469185 6.39657e-05 -1.54813e-07
6.39657e-05 8.48819e-05 1.58414e-06
-1.54813e-07 1.58414e-06 -8.11158e-05
9.18744e-05 2.0149e-05 1.95374e-06
2.0149e-05 -0.000157985 -2.33043e-06
1.95374e-06 -2.33043e-06 -0.000291233
0.000887104 0.00018656 6.3224e-06
0.00018656 0.000347329 1.0046e-05
6.3224e-06 1.0046e-05 0.000159902
0.000926796 0.000152723 -1.55905e-07
0.000152723 0.000386216 -6.22976e-07
-1.55905e-07 -6.22976e-07 0.000198212
0.000303357 1.35572e-06 -3.57181e-06
1.35572e-06 -3.50495e-05 -6.28184e-06
-3.57181e-06 -6.28184e-06 -0.000177729
0.000559923 -0.000588478 9.49382e-05
-0.000588478 -0.00146801 -5.75677e-05
9.49382e-05 -5.75677e-05 -0.000985736
0.000195576 -0.000733734 2.48649e-06
-0.000733734 -0.00095277 -8.21784e-06
2.48649e-06 -8.21784e-06 -0.000950198
0.00160212 -0.00107031 -7.62897e-06
-0.00107031 -0.0001221 1.7248e-05
-7.62897e-06 1.7248e-05 -0.000248269
-0.00118375 -0.000778652 5.03671e-06
-0.000778652 -0.00104066 1.85029e-06
5.03671e-06 1.85029e-06 -0.00135616
0.00384366 -0.000565576 -3.75745e-05
-0.000565576 0.00244277 8.10995e-05
-3.75745e-05 8.10995e-05 0.00187613
0.000765748 -0.00024849 -2.82552e-06
-0.00024849 0.000519868 8.19912e-06
-2.82552e-06 8.19912e-06 0.000171012
0.000343672 0.000108068 -2.08785e-06
0.000108068 0.000118569 -1.57904e-05
-2.08785e-06 -1.57904e-05 -0.000138976
0.000657195 -2.7563e-05 -4.19791e-06
-2.7563e-05 0.000313744 8.70815e-06
-4.19791e-06 8.70815e-06 2.20732e-05
0.00235784 -0.00108784 -1.948e-05
-0.00108784 -5.38368e-05 -4.85431e-07
-1.948e-05 -4.85431e-07 -5.47087e-05
0.000702552 -4.88959e-05 1.91004e-06
-4.88959e-05 0.000396541 4.11729e-06
1.91004e-06 4.11729e-06 0.000100255
0.00232124 -0.000369669 5.28916e-06
-0.000369669 0.00145568 -3.19567e-06
5.28916e-06 -3.19567e-06 0.00103334
0.00146525 -0.000912516 1.39648e-05
-0.000912516 2.20998e-05 -3.45375e-06
1.39648e-05 -3.45375e-06 -3.12099e-05
0.000533312 -0.000720004 -3.72003e-05
-0.000720004 0.000325117 1.08161e-05
-3.72003e-05 1.08161e-05 -7.51087e-05
0.00228596 -0.00185026 6.14426e-05
-0.00185026 0.000137979 -2.93099e-05
6.14426e-05 -2.93099e-05 -0.000152693
0.000368766 -0.000672074 -9.21463e-06
-0.000672074 2.69064e-05 3.09355e-05
-9.21463e-06 3.09355e-05 -0.000101146
-0.00160092 -0.000129754 1.37667e-05
-0.000129754 -0.000629407 3.38222e-06
1.37667e-05 3.38222e-06 -0.0011439
0.000485509 5.74466e-05 -3.88657e-06
5.74466e-05 0.000200634 7.19924e-06
-3.88657e-06 7.19924e-06 -1.28874e-05
0.000206583 -7.53578e-05 1.87073e-06
-7.53578e-05 0.000213062 3.80277e-07
1.87073e-06 3.80277e-07 -0.000139333
0.00146919 0.000227946 -7.71681e-05
0.000227946 0.00215051 -2.87348e-05
-7.71681e-05 -2.87348e-05 -0.00254668
-0.0075269 0.000450168 -0.000502888
0.000450168 0.00724698 -2.2103e-05
-0.000502888 -2.2103e-05 0.00141212
-0.0138723 -0.00334736 -0.000970076
-0.00334736 -0.00462355 -7.04753e-06
-0.000970076 -7.04753e-06 -0.00650803
2.42119e-05 0.000338714 1.4959e-05
0.000338714 -4.21964e-05 -3.56622e-06
1.4959e-05 -3.56622e-06 -0.000345131
-0.000904286 0.000611518 -1.71577e-06
0.000611518 -0.000590522 1.01503e-05
-1.71577e-06 1.01503e-05 -0.00108042
0.00288167 0.00127976 4.60715e-05
0.00127976 0.000865729 3.91848e-05
4.60715e-05 3.91848e-05 0.00061369
-0.00486464 0.00236198 0.000127918
0.00236198 0.00786784 6.58783e-05
0.000127918 6.58783e-05 0.00256998
0.00716174 0.00512692 -0.000470267
0.00512692 -0.000486371 -0.00020437
-0.000470267 -0.00020437 -0.0034077
0.000649088 0.00256566 0.000481902
0.00256566 -0.000169985 0.000194243
0.000481902 0.000194243 -0.000128031
-0.000211113 0.00113199 -5.24322e-06
0.00113199 -4.32343e-05 -4.82046e-05
-5.24322e-06 -4.82046e-05 -0.00035196
0.0300061 -0.00428847 -0.000110099
-0.00428847 0.0106849 -0.000464941
-0.000110099 -0.000464941 0.0055374
0.00747225 0.00236111 0.000762347
0.00236111 0.00370844 0.00027072
0.000762347 0.00027072 -0.0027194
0.0140078 -0.00148687 0.000183583
-0.00148687 0.00259954 5.84589e-05
0.000183583 5.84589e-05 0.00385054
0.00150788 0.000699285 7.8535e-06
0.000699285 0.000806723 -1.18171e-06
7.8535e-06 -1.18171e-06 0.000432393
0.00387799 0.000931173 -3.58667e-05
0.000931173 0.0038264 7.33252e-06
-3.58667e-05 7.33252e-06 -0.000666801
0.00204226 0.00106847 9.74549e-05
0.00106847 0.000360195 -7.76083e-06
9.74549e-05 -7.76083e-06 -0.00148735
-0.000349525 0.000635859 -3.82815e-06
0.000635859 -1.03534e-05 -5.83662e-06
-3.82815e-06 -5.83662e-06 -0.000420933
-0.00033103 0.00170025 -0.000140639
0.00170025 0.000630578 -7.58933e-05
-0.000140639 -7.58933e-05 -0.000706485
0.00250103 0.00607549 0.00029825
0.00607549 0.00133068 0.000126525
0.00029825 0.000126525 -0.00318694
0.0112563 -0.000355205 1.09948e-05
-0.000355205 -0.00333271 -0.000229627
1.09948e-05 -0.000229627 -0.000828768
0.00792722 -0.00280521 -0.000102242
-0.00280521 0.00450049 -0.000198313
-0.000102242 -0.000198313 -0.0014798
0.000918827 0.000544354 -4.1138e-06
0.000544354 0.000816254 -1.22858e-05
-4.1138e-06 -1.22858e-05 0.000377192
-0.00378712 0.000481565 3.07094e-05
0.000481565 0.000474931 4.91967e-05
3.07094e-05 4.91967e-05 -0.000633569
0.00638145 -0.000548716 0.000188613
-0.000548716 -5.66509e-05 -0.000144706
0.000188613 -0.000144706 -0.00159079
0.00930348 0.000335905 0.000340273
0.000335905 -0.00128949 -1.42416e-05
0.000340273 -1.42416e-05 -0.00106965
-0.00290957 0.000232598 5.64319e-05
0.000232598 1.10574e-05 -1.82011e-05
5.64319e-05 -1.82011e-05 -0.00093858
0.0113616 0.00403161 0.000389326
0.00403161 0.00620908 0.000132844
0.000389326 0.000132844 0.0001149
0.00466721 -0.00071337 -2.50156e-05
-0.00071337 0.00321169 0.000405383
-2.50156e-05 0.000405383 -0.00104763
0.00313232 0.000517399 2.6701e-05
0.000517399 0.00195724 1.05559e-05
2.6701e-05 1.05559e-05 0.00164723
0.000369096 0.000266292 -8.59853e-06
0.000266292 0.000461744 -2.31961e-06
-8.59853e-06 -2.31961e-06 4.92743e-05
0.000173527 0.000249367 3.23673e-06
0.000249367 0.000516159 -9.17118e-06
3.23673e-06 -9.17118e-06 -2.64469e-05
0.000242881 0.000120686 1.6202e-06
0.000120686 -1.30666e-05 -3.90741e-06
1.6202e-06 -3.90741e-06 -0.000225283
0.000535594 0.000118121 3.77429e-07
0.000118121 0.000245058 2.08605e-07
3.77429e-07 2.08605e-07 3.40053e-05
1.95867e-05 6.88099e-06 6.19644e-06
6.88099e-06 0.000340047 -4.33714e-06
6.19644e-06 -4.33714e-06 -0.000133577
0.00050973 3.80428e-05 4.9075e-07
3.80428e-05 0.000213191 -6.77612e-07
4.9075e-07 -6.77612e-07 1.4476e-05
0.000942175 -3.96386e-05 -5.60969e-07
-3.96386e-05 0.000848096 -2.82008e-06
-5.60969e-07 -2.82008e-06 0.000415325
-0.000206373 2.73176e-05 1.3398e-06
2.73176e-05 0.000328512 5.00852e-07
1.3398e-06 5.00852e-07 -0.000207965
-5.9799e-05 -4.74751e-05 1.62125e-06
-4.74751e-05 0.00038404 1.60107e-05
1.62125e-06 1.60107e-05 -9.00791e-05
0.000525041 -4.03941e-05 3.07228e-07
-4.03941e-05 0.000531855 -1.13465e-05
3.07228e-07 -1.13465e-05 0.000193052
-8.94974e-05 -4.90056e-05 5.30377e-06
-4.90056e-05 -0.000184801 8.62094e-06
5.30377e-06 8.62094e-06 -0.000352231
0.00134303 -3.26727e-05 1.13867e-06
-3.26727e-05 0.000632987 5.27204e-06
1.13867e-06 5.27204e-06 0.000474018
0.000554652 -7.19287e-05 -1.18265e-05
-7.19287e-05 0.000212169 1.31485e-05
-1.18265e-05 1.31485e-05 7.02121e-05
0.000709257 -9.57853e-05 2.21303e-06
-9.57853e-05 0.00046338 5.21173e-07
2.21303e-06 5.21173e-07 0.000278476
0.000156914 -4.3904e-05 -1.68973e-06
-4.3904e-05 -5.32063e-05 -1.96807e-06
-1.68973e-06 -1.96807e-06 -0.000201376
0.00101987 -0.000273264 1.61113e-06
-0.000273264 0.000465431 4.55052e-06
1.61113e-06 4.55052e-06 0.000316048
0.00061958 -0.000215574 -1.98174e-05
-0.000215574 0.000141731 8.28467e-08
-1.98174e-05 8.28467e-08 7.83353e-05
-0.000835178 -0.000302921 1.39391e-05
-0.000302921 -0.000702733 2.32192e-05
1.39391e-05 2.32192e-05 -0.00102468
0.000261587 -0.000118393 2.044e-06
-0.000118393 -0.00010086 -3.48108e-07
2.044e-06 -3.48108e-07 -0.000217994
0.00112644 -0.000332355 -5.7945e-06
-0.000332355 0.000343016 1.08986e-05
-5.7945e-06 1.08986e-05 0.000131415
0.00218117 -0.000680958 -7.4376e-06
-0.000680958 0.000934018 1.40157e-05
-7.4376e-06 1.40157e-05 0.00050336
0.00195873 -0.000687063 -7.27939e-06
-0.000687063 0.000703829 -8.1897e-07
-7.27939e-06 -8.1897e-07 0.000240976
0.00177261 -0.000447258 3.13797e-07
-0.000447258 0.000748748 1.94771e-06
3.13797e-07 1.94771e-06 0.000468465
0.000593528 -0.000433864 1.03209e-05
-0.000433864 -3.92731e-05 -4.17554e-06
1.03209e-05 -4.17554e-06 -0.000368154
0.00111421 -0.000201234 3.06659e-06
-0.000201234 0.00050535 -3.52525e-06
3.06659e-06 -3.52525e-06 0.000210937
0.00109195 -0.000239462 -8.26953e-06
-0.000239462 0.000414785 1.79088e-06
-8.26953e-06 1.79088e-06 0.000190097
-9.90513e-05 -0.000179323 2.15875e-05
-0.000179323 -0.000382192 -1.70364e-05
2.15875e-05 -1.70364e-05 -0.000515556
0.001389 -0.000140044 -4.22639e-06
-0.000140044 0.00065598 2.47842e-06
-4.22639e-06 2.47842e-06 0.000452347
0.000135667 -0.000102402 7.45441e-07
-0.000102402 -6.73483e-05 1.02879e-06
7.45441e-07 1.02879e-06 -0.000325855
5.16496e-06 -4.84297e-05 1.07994e-06
-4.84297e-05 -0.000238494 -4.39911e-07
1.07994e-06 -4.39911e-07 -0.000421715
0.0019521 -0.000294714 -2.71252e-06
-0.000294714 0.00105084 -4.94501e-07
-2.71252e-06 -4.94501e-07 0.000817467
0.000690821 -0.000126071 -4.83022e-07
-0.000126071 0.000188767 -3.18046e-08
-4.83022e-07 -3.18046e-08 2.77358e-05
0.000392185 2.70016e-06 2.81098e-06
2.70016e-06 -1.79024e-05 4.5463e-06
2.81098e-06 4.5463e-06 -0.000128088
0.00082334 -0.000163906 -3.39239e-08
-0.000163906 0.000283783 -2.29948e-06
-3.39239e-08 -2.29948e-06 0.000125907
0.000445968 3.76884e-06 -2.189e-06
3.76884e-06 1.67799e-05 -1.93918e-07
-2.189e-06 -1.93918e-07 -8.59093e-05
0.00147307 -5.70262e-06 -2.08253e-05
-5.70262e-06 0.00063211 6.02638e-06
-2.08253e-05 6.02638e-06 0.000603389
0.000580194 -7.67117e-05 1.76148e-06
-7.67117e-05 0.000102376 -5.49994e-06
1.76148e-06 -5.49994e-06 5.62988e-06
0.000856535 -1.56606e-05 -1.02145e-05
-1.56606e-05 0.000239671 5.34702e-07
-1.02145e-05 5.34702e-07 0.000210446
0.000852669 3.05221e-05 7.37001e-07
3.05221e-05 0.000223621 3.49472e-06
7.37001e-07 3.49472e-06 0.000221336
0.000438939 -3.55103e-05 3.24051e-06
-3.55103e-05 -2.35957e-05 -6.68092e-06
3.24051e-06 -6.68092e-06 -5.3785e-05
0.00175181 3.04627e-05 1.66238e-05
3.04627e-05 0.000803618 -1.2818e-06
1.66238e-05 -1.2818e-06 0.000809992
0.0025529 2.0914e-05 2.11942e-05
2.0914e-05 0.00131718 -5.57955e-06
2.11942e-05 -5.57955e-06 0.00132962
0.00024767 2.51302e-05 2.10219e-06
2.51302e-05 -8.94813e-05 2.61343e-06
2.10219e-06 2.61343e-06 -0.000232651
8.4712e-05 2.38908e-05 5.40188e-07
2.38908e-05 -0.000230375 -4.53011e-06
5.40188e-07 -4.53011e-06 -0.000300742
0.000594415 6.49219e-05 6.03442e-09
6.49219e-05 0.000127339 3.62401e-07
6.03442e-09 3.62401e-07 3.40601e-06
0.000445508 8.76544e-06 2.11292e-06
8.76544e-06 -3.50129e-05 -4.32416e-06
2.11292e-06 -4.32416e-06 -4.8633e-05
0.000305727 8.74179e-06 1.74206e-06
8.74179e-06 -9.18179e-05 5.03149e-08
1.74206e-06 5.03149e-08 -0.000150899
0.000209089 -9.7632e-05 -9.14821e-07
-9.7632e-05 -0.000115468 1.68715e-07
-9.14821e-07 1.68715e-07 -0.00022588
0.00207053 -2.27755e-06 -1.29922e-05
-2.27755e-06 0.00100587 -5.07099e-06
-1.29922e-05 -5.07099e-06 0.00102309
0.000436277 6.18259e-06 4.42099e-08
6.18259e-06 -3.97962e-05 -7.25419e-08
4.42099e-08 -7.25419e-08 -5.11258e-05
0.00040724 -1.22396e-05 -3.4924e-06
-1.22396e-05 -2.50448e-05 2.98733e-06
-3.4924e-06 2.98733e-06 -7.64662e-05
0.00204627 1.33181e-05 -4.87192e-06
1.33181e-05 0.000991943 6.59619e-10
-4.87192e-06 6.59619e-10 0.00100875
0.000433157 6.36399e-06 -1.89199e-06
6.36399e-06 -4.04314e-05 3.54884e-06
-1.89199e-06 3.54884e-06 -5.14501e-05
0.00203533 2.87874e-05 3.36191e-06
2.87874e-05 0.000987148 5.13584e-06
3.36191e-06 5.13584e-06 0.00100266
-0.000643433 -0.00115849 -0.000305202
-0.00115849 -0.000117367 0.000128991
-0.000305202 0.000128991 -0.00397029
0.00281612 0.00115146 -0.000170746
0.00115146 0.00922868 4.20595e-05
-0.000170746 4.20595e-05 0.00386013
0.00351096 0.000341676 -0.00118879
0.000341676 0.00438452 0.000269345
-0.00118879 0.000269345 0.00225624
0.000636336 0.000127391 8.28352e-06
0.000127391 0.000159366 7.51024e-06
8.28352e-06 7.51024e-06 -6.75411e-06
0.00588597 -0.00122805 -0.000157808
-0.00122805 0.00362413 0.000296629
-0.000157808 0.000296629 0.0011012
0.00437036 -0.00150651 -0.000312946
-0.00150651 0.0019886 3.41506e-05
-0.000312946 3.41506e-05 -0.0029897
0.0154919 0.00533875 0.000332406
0.00533875 0.00974532 -0.000437303
0.000332406 -0.000437303 0.00374723
0.00781894 -0.00145556 0.000145015
-0.00145556 0.000383349 -2.69729e-05
0.000145015 -2.69729e-05 0.00112173
0.0143276 -0.00308206 0.000319575
-0.00308206 0.000872018 -0.00019113
0.000319575 -0.00019113 0.000478326
0.0148983 0.00547465 -0.000899191
0.00547465 0.00331862 0.000447269
-0.000899191 0.000447269 -0.00225794
0.0153838 0.0047188 0.000196774
0.0047188 0.00731317 0.000265892
0.000196774 0.000265892 0.00384149
0.00779999 -0.00294905 -0.000107685
-0.00294905 -0.000309321 -4.7972e-06
-0.000107685 -4.7972e-06 0.00067993
0.0151945 -0.00558057 9.72835e-06
-0.00558057 0.00247953 -4.08313e-05
9.72835e-06 -4.08313e-05 4.39523e-06
0.0101282 0.00305731 0.000128872
0.00305731 0.00514971 -0.000411655
0.000128872 -0.000411655 -0.000738225
0.0140757 0.00132391 -1.27829e-06
0.00132391 0.000631999 5.47665e-05
-1.27829e-06 5.47665e-05 -6.60041e-05
0.00330853 -0.00302841 -6.58911e-05
-0.00302841 0.000275833 7.85742e-05
-6.58911e-05 7.85742e-05 0.000783815
0.0106188 -0.00556054 0.000236818
-0.00556054 0.00441885 -0.00013905
0.000236818 -0.00013905 0.000340418
0.010129 -0.000297764 9.40497e-05
-0.000297764 0.0058502 -0.00048981
9.40497e-05 -0.00048981 0.00194351
0.0135619 -4.6464e-05 -0.000183673
-4.6464e-05 -0.00105856 0.000309796
-0.000183673 0.000309796 0.000612239
0.000300917 0.000122803 7.9807e-06
0.000122803 5.3837e-05 1.56811e-05
7.9807e-06 1.56811e-05 -0.000163931
0.00060026 -0.000118447 4.37638e-07
-0.000118447 0.000263042 9.65778e-08
4.37638e-07 9.65778e-08 7.53305e-06
0.000677798 9.47459e-05 3.49578e-06
9.47459e-05 0.000249582 -3.51371e-06
3.49578e-06 -3.51371e-06 9.1008e-05
0.000522521 0.000169325 4.09858e-06
0.000169325 4.94153e-05 1.61301e-05
4.09858e-06 1.61301e-05 -9.83912e-05
0.000854465 0.000228725 3.39112e-07
0.000228725 0.000337966 -1.42592e-07
3.39112e-07 -1.42592e-07 0.000128589
0.00108613 0.000128162 -3.57383e-06
0.000128162 0.00049975 -4.70952e-06
-3.57383e-06 -4.70952e-06 0.000323511
0.0010969 0.000194223 -1.73184e-06
0.000194223 0.000486784 -4.70987e-08
-1.73184e-06 -4.70987e-08 0.000293076
0.00109741 0.000210178 1.54615e-06
0.000210178 0.000514804 1.56369e-06
1.54615e-06 1.56369e-06 0.000314022
0.000796857 -0.000840636 0.000128863
-0.000840636 -0.00100802 -8.06431e-05
0.000128863 -8.06431e-05 -0.000735668
-3.87135e-05 -0.000759346 -3.3342e-05
-0.000759346 -0.000865734 -5.49501e-06
-3.3342e-05 -5.49501e-06 -0.000825655
0.000709014 -0.000201686 4.77979e-06
-0.000201686 0.000357959 -3.29226e-05
4.77979e-06 -3.29226e-05 5.23707e-05
0.00185702 -0.00080474 2.50774e-05
-0.00080474 0.00102217 -2.22624e-05
2.50774e-05 -2.22624e-05 0.000646725
0.00263528 -0.000547961 -2.27711e-05
-0.000547961 0.00157846 2.40552e-05
-2.27711e-05 2.40552e-05 0.00116408
0.00172037 -0.000180327 7.79033e-06
-0.000180327 0.00102234 -2.15712e-05
7.79033e-06 -2.15712e-05 0.000701649
-7.00639e-06 1.86819e-05 4.00238e-06
1.86819e-05 -0.000120875 7.14991e-06
4.00238e-06 7.14991e-06 -0.00033262
0.000530252 -0.00155221 -9.38283e-06
-0.00155221 -0.000661435 -6.8953e-06
-9.38283e-06 -6.8953e-06 -0.000885104
0.00154051 -4.22063e-05 -1.32036e-06
-4.22063e-05 0.00103548 -8.66163e-07
-1.32036e-06 -8.66163e-07 0.000672782
-0.000115537 -0.00025319 -6.59583e-06
-0.00025319 0.00014981 7.48198e-06
-6.59583e-06 7.48198e-06 -0.000323114
-0.000604349 -0.00050234 2.72239e-05
-0.00050234 -0.000593612 -1.82868e-06
2.72239e-05 -1.82868e-06 -0.000581554
0.000709642 0.000117747 3.32032e-06
0.000117747 0.000340854 8.51783e-06
3.32032e-06 8.51783e-06 0.000151787
-0.000745818 -0.00150621 -0.000100708
-0.00150621 -0.000415491 -2.70022e-05
-0.000100708 -2.70022e-05 -0.000905236
-0.00114049 -0.000466427 -1.24368e-05
-0.000466427 -0.000445638 2.71639e-05
-1.24368e-05 2.71639e-05 -0.000834593
0.0002912 0.000147072 8.02841e-06
0.000147072 0.000557317 -1.79464e-05
8.02841e-06 -1.79464e-05 2.34206e-05
0.00180229 0.000289325 -2.59415e-06
0.000289325 0.00128088 7.35972e-07
-2.59415e-06 7.35972e-07 0.000898177
-0.00112392 0.00012003 0.000184798
0.00012003 0.0023891 4.41368e-05
0.000184798 4.41368e-05 0.000930056
0.000168008 1.08423e-05 0.000191065
1.08423e-05 0.00128967 -3.69119e-05
0.000191065 -3.69119e-05 -0.00352887
-0.0132301 -0.000460417 -0.000369934
-0.000460417 0.00669434 2.89438e-05
-0.000369934 2.89438e-05 0.000762456
0.0017208 0.000691298 2.12384e-05
0.000691298 0.0010335 2.15984e-07
2.12384e-05 2.15984e-07 0.000661717
-0.000635706 0.000864265 1.35443e-05
0.000864265 -0.000188427 1.00472e-05
1.35443e-05 1.00472e-05 -0.000736317
0.00583957 0.00126919 0.000441772
0.00126919 0.00432561 0.000100672
0.000441772 0.000100672 0.0010614
0.00744097 0.00463153 0.000267121
0.00463153 0.00299196 0.000214704
0.000267121 0.000214704 -0.00109337
0.0038298 0.0031081 -0.000146081
0.0031081 0.00219772 -0.000132204
-0.000146081 -0.000132204 0.00063021
0.00433427 -0.00237767 -0.000168098
-0.00237767 0.00494784 -0.000496974
-0.000168098 -0.000496974 0.000331682
0.00317981 0.000753551 0.000142791
0.000753551 0.000634076 0.000180065
0.000142791 0.000180065 -0.00118848
0.00893994 -0.000421656 -4.85378e-05
-0.000421656 -0.00549803 -0.000262802
-4.85378e-05 -0.000262802 -0.00253127
0.00100042 0.000650975 3.55181e-06
0.000650975 0.000810518 -9.00923e-08
3.55181e-06 -9.00923e-08 0.000325068
-0.00300686 0.000248073 -2.23733e-06
0.000248073 0.000626952 6.16088e-06
-2.23733e-06 6.16088e-06 -0.000645599
0.00538567 -0.000307617 0.000152913
-0.000307617 -0.000119789 1.75123e-05
0.000152913 1.75123e-05 -0.00114936
-0.00190306 0.00059372 -1.84995e-05
0.00059372 -0.000123474 -1.22479e-05
-1.84995e-05 -1.22479e-05 -0.000992553
0.014061 0.00154673 3.41827e-06
0.00154673 0.000612974 -5.94457e-05
3.41827e-06 -5.94457e-05 -6.97407e-05
0.00343515 0.00238427 0.000285144
0.00238427 0.00463702 0.000170787
0.000285144 0.000170787 -0.00152027
0.0096907 0.000712474 -0.000196918
0.000712474 0.00385617 8.4087e-06
-0.000196918 8.4087e-06 -0.000424542
0.000349831 0.000564288 5.69464e-06
0.000564288 0.000637873 -2.23649e-05
5.69464e-06 -2.23649e-05 -3.41565e-06
0.00213306 -3.36384e-05 7.42523e-07
-3.36384e-05 0.000915234 1.63767e-07
7.42523e-07 1.63767e-07 -7.4035e-05
0.00408961 -0.00177473 0.000153716
-0.00177473 0.00356875 -0.000271891
0.000153716 -0.000271891 0.00142703
0.025165 0.00601696 0.000357359
0.00601696 0.00863918 -0.000328002
0.000357359 -0.000328002 0.00485312
0.0101968 -0.000370317 -0.000139501
-0.000370317 0.00628418 0.000545284
-0.000139501 0.000545284 0.0021152
-0.00074936 0.000566227 -7.00913e-05
0.000566227 0.000732756 -0.000138248
-7.00913e-05 -0.000138248 -0.000161194
0.00418173 0.00134504 0.000276262
0.00134504 0.00668502 2.55438e-05
0.000276262 2.55438e-05 -0.00241938
0.00140778 0.000433182 1.00348e-05
0.000433182 0.00104983 1.13772e-05
1.00348e-05 1.13772e-05 0.000610792
0.000792871 0.000305511 4.42412e-06
0.000305511 0.000882748 5.65057e-06
4.42412e-06 5.65057e-06 0.000367486
0.000594482 -6.52819e-05 -5.3362e-06
-6.52819e-05 0.000976364 1.25294e-05
-5.3362e-06 1.25294e-05 0.000506374
-0.000926863 -1.35396e-05 1.99591e-06
-1.35396e-05 -0.000695866 -2.84759e-06
1.99591e-06 -2.84759e-06 -0.000883336
-0.000313514 -2.92568e-05 2.62361e-06
-2.92568e-05 0.000171999 3.60725e-06
2.62361e-06 3.60725e-06 -0.000330607
-4.95217e-05 3.46568e-05 1.13924e-07
3.46568e-05 0.00044377 -9.26117e-06
1.13924e-07 -9.26117e-06 -0.000110399
1.11686e-05 -2.1355e-05 3.14832e-07
-2.1355e-05 0.000166663 4.09437e-07
3.14832e-07 4.09437e-07 -0.000124654
-0.000150142 -6.11381e-05 2.32886e-06
-6.11381e-05 0.000316313 1.78262e-06
2.32886e-06 1.78262e-06 -0.000154816
0.00207041 -0.000465102 7.96691e-06
-0.000465102 0.00136068 -1.15683e-05
7.96691e-06 -1.15683e-05 0.00101002
-8.66734e-05 -5.56408e-05 -4.31349e-06
-5.56408e-05 -2.44564e-05 7.78239e-06
-4.31349e-06 7.78239e-06 -0.000208316
-0.000256777 2.3158e-05 2.96606e-07
2.3158e-05 -0.000295251 3.38038e-06
2.96606e-07 3.38038e-06 -0.00043844
0.00102344 -0.000315832 -1.04362e-07
-0.000315832 0.000473432 5.66381e-06
-1.04362e-07 5.66381e-06 0.000275241
-0.0038407 -9.57886e-06 2.24488e-05
-9.57886e-06 -0.00225658 2.38679e-05
2.24488e-05 2.38679e-05 -0.00260994
-0.000671286 -9.81984e-05 1.08631e-05
-9.81984e-05 -0.000563866 -9.28134e-07
1.08631e-05 -9.28134e-07 -0.000582059
-6.01385e-05 -0.000366191 -3.02246e-06
-0.000366191 -0.000286527 -5.96724e-06
-3.02246e-06 -5.96724e-06 -0.000572041
0.00156283 -0.000672146 -6.18708e-07
-0.000672146 0.00052678 1.84371e-06
-6.18708e-07 1.84371e-06 -2.36778e-05
0.00189248 -0.000798972 -1.07242e-05
-0.000798972 0.000606161 9.02603e-07
-1.07242e-05 9.02603e-07 8.66593e-05
0.0014451 -0.000375517 6.20933e-06
-0.000375517 0.000521845 -6.81719e-06
6.20933e-06 -6.81719e-06 0.00029557
0.00148024 -0.000594641 8.18986e-07
-0.000594641 0.000495875 9.31555e-07
8.18986e-07 9.31555e-07 7.64227e-05
0.00171372 -0.000690546 3.30537e-06
-0.000690546 0.000500839 -4.67904e-06
3.30537e-06 -4.67904e-06 4.0497e-05
0.0017558 -0.000528854 -2.52303e-06
-0.000528854 0.00066089 7.24787e-06
-2.52303e-06 7.24787e-06 0.000291948
0.00104677 -0.000567885 2.47556e-06
-0.000567885 0.000148563 -4.89133e-06
2.47556e-06 -4.89133e-06 -0.000278799
0.000911918 -0.000215089 1.42543e-07
-0.000215089 0.00028103 -5.32483e-06
1.42543e-07 -5.32483e-06 1.28547e-05
0.00107935 -0.000389284 -4.50977e-06
-0.000389284 0.000318299 2.24223e-06
-4.50977e-06 2.24223e-06 3.40873e-05
-0.0011055 -0.000200832 2.46754e-06
-0.000200832 -0.0010836 -1.01009e-05
2.46754e-06 -1.01009e-05 -0.00134473
-0.000109593 -7.89432e-05 5.2405e-07
-7.89432e-05 -0.000268697 -4.20381e-06
5.2405e-07 -4.20381e-06 -0.000517319
0.000298692 -0.000172624 5.74248e-07
-0.000172624 2.57894e-05 3.52875e-07
5.74248e-07 3.52875e-07 -0.00026962
-5.29934e-05 -0.000179093 1.04988e-05
-0.000179093 -0.000249214 5.12234e-07
1.04988e-05 5.12234e-07 -0.000485664
0.000987754 -0.000162465 -5.73929e-07
-0.000162465 0.000442776 1.24228e-06
-5.73929e-07 1.24228e-06 0.00019515
0.000709154 -0.000135292 2.24142e-07
-0.000135292 0.000215227 4.13325e-07
2.24142e-07 4.13325e-07 1.77855e-05
0.000425672 -2.41989e-05 1.24239e-06
-2.41989e-05 -1.0039e-05 6.46347e-06
1.24239e-06 6.46347e-06 -0.000129429
0.00129958 -0.000195205 -1.3222e-06
-0.000195205 0.000596234 -2.66671e-07
-1.3222e-06 -2.66671e-07 0.000414758
0.000587224 -2.75188e-05 -1.22549e-06
-2.75188e-05 8.97568e-05 -3.35094e-07
-1.22549e-06 -3.35094e-07 -1.29821e-05
0.000346726 4.90033e-05 3.0645e-06
4.90033e-05 -7.70173e-05 8.02042e-06
3.0645e-06 8.02042e-06 -0.000120244
0.000715377 -8.01928e-05 1.3771e-06
-8.01928e-05 0.000176181 -3.83804e-06
1.3771e-06 -3.83804e-06 7.64741e-05
0.000435323 -1.0374e-05 -1.62156e-06
-1.0374e-05 -3.23226e-05 -8.73217e-08
-1.62156e-06 -8.73217e-08 -6.78614e-05
0.00273265 9.42128e-05 -1.31149e-06
9.42128e-05 0.00143372 2.8256e-06
-1.31149e-06 2.8256e-06 0.00143631
0.000471211 -2.90075e-05 3.2713e-06
-2.90075e-05 -6.33579e-06 -7.05045e-06
3.2713e-06 -7.05045e-06 -3.96537e-05
0.00180517 4.43261e-05 1.97856e-05
4.43261e-05 0.000837285 -1.00573e-06
1.97856e-05 -1.00573e-06 0.000841259
0.0026502 3.6943e-05 2.82192e-05
3.6943e-05 0.00137757 -5.94474e-06
2.82192e-05 -5.94474e-06 0.00138897
0.000254226 3.28332e-05 3.75758e-06
3.28332e-05 -0.000102333 1.54509e-06
3.75758e-06 1.54509e-06 -0.000234041
0.000168305 1.2262e-05 2.51023e-06
1.2262e-05 -0.000178245 -3.21668e-06
2.51023e-06 -3.21668e-06 -0.000261526
0.000458701 4.24688e-05 -4.25636e-07
4.24688e-05 4.15455e-05 -1.2134e-06
-4.25636e-07 -1.2134e-06 -9.5741e-05
0.000470745 1.15778e-05 1.73342e-06
1.15778e-05 -1.92002e-05 -4.94838e-06
1.73342e-06 -4.94838e-06 -3.65996e-05
0.00015156 2.13939e-05 -7.27288e-07
2.13939e-05 -0.000188283 -1.96409e-06
-7.27288e-07 -1.96409e-06 -0.000261311
0.000641645 6.7638e-05 -3.16392e-07
6.7638e-05 0.000172727 1.87854e-06
-3.16392e-07 1.87854e-06 3.8381e-05
0.00211067 -1.61637e-05 -1.83525e-05
-1.61637e-05 0.00103032 -5.03361e-06
-1.83525e-05 -5.03361e-06 0.00104724
0.000446734 6.15722e-06 -8.06387e-07
6.15722e-06 -3.49502e-05 -1.04171e-07
-8.06387e-07 -1.04171e-07 -4.81083e-05
6.74483e-05 1.79829e-05 1.35438e-06
1.79829e-05 -0.000240508 2.59188e-06
1.35438e-06 2.59188e-06 -0.000303773
0.00205834 -1.26709e-06 -4.10691e-06
-1.26709e-06 0.00099802 5.9869e-08
-4.10691e-06 5.9869e-08 0.00101532
0.000426193 5.5255e-06 -2.26824e-06
5.5255e-06 -4.6752e-05 3.82635e-06
-2.26824e-06 3.82635e-06 -5.77026e-05
0.0020848 1.47848e-05 8.90319e-06
1.47848e-05 0.00101709 5.1581e-06
8.90319e-06 5.1581e-06 0.00103347
0.000594897 -7.82088e-05 0.000189321
-7.82088e-05 0.00320132 9.6115e-05
0.000189321 9.6115e-05 0.00201306
-0.000455796 -0.000498825 -6.75035e-05
-0.000498825 0.00050324 -4.19401e-06
-6.75035e-05 -4.19401e-06 -0.00405106
0.000405172 0.00115055 -0.000133614
0.00115055 0.00878008 -6.87814e-05
-0.000133614 -6.87814e-05 0.00309052
0.000851001 0.000151872 1.02329e-06
0.000151872 0.000280982 1.21062e-07
1.02329e-06 1.21062e-07 0.000124499
0.000248866 0.000113023 8.20496e-06
0.000113023 -8.68407e-05 4.89683e-06
8.20496e-06 4.89683e-06 -0.000239888
0.00130398 0.00023052 1.321e-05
0.00023052 0.000568181 1.12997e-05
1.321e-05 1.12997e-05 0.000407786
0.00748804 -0.000731136 -0.000181924
-0.000731136 -0.000181019 0.000209093
-0.000181924 0.000209093 -0.00170411
0.00596562 -0.00163155 0.000127199
-0.00163155 0.0032248 2.10681e-05
0.000127199 2.10681e-05 0.00150826
0.00466074 -0.00251481 0.000273109
-0.00251481 0.00194676 -0.000310451
0.000273109 -0.000310451 -0.00299302
0.00990912 -0.00359884 -1.80539e-05
-0.00359884 4.15412e-05 -4.84872e-05
-1.80539e-05 -4.84872e-05 0.0012046
0.00201882 -0.00465985 -0.000606553
-0.00465985 -0.00224202 7.87346e-05
-0.000606553 7.87346e-05 -0.00413479
0.0283984 0.00529192 0.000383281
0.00529192 0.0126469 0.000231718
0.000383281 0.000231718 0.00578526
0.00810566 -0.000536716 0.000380794
-0.000536716 -0.00218215 -0.000301602
0.000380794 -0.000301602 -0.00296731
0.00296061 -0.00323418 -2.59731e-05
-0.00323418 -0.000697871 1.72503e-05
-2.59731e-05 1.72503e-05 0.000343423
0.00735477 -0.00562627 -0.000175773
-0.00562627 0.0026472 1.93152e-05
-0.000175773 1.93152e-05 -0.0022752
0.00168742 0.0042665 -0.00010778
0.0042665 0.00559176 -0.000355557
-0.00010778 -0.000355557 -0.000202584
0.0115454 -0.000165992 -0.000110568
-0.000165992 -0.00328762 0.000165256
-0.000110568 0.000165256 -0.000873632
-0.000689474 -0.00214334 -0.000151855
-0.00214334 0.000315545 7.14008e-05
-0.000151855 7.14008e-05 -0.000129376
0.0100075 -0.00352676 -0.000395647
-0.00352676 0.00604965 0.000227722
-0.000395647 0.000227722 0.000458953
0.00178937 -0.000246368 6.91177e-05
-0.000246368 0.00284118 -0.000339065
6.91177e-05 -0.000339065 -0.00157238
0.009679 -0.000196709 0.000124161
-0.000196709 -0.0017754 0.000115032
0.000124161 0.000115032 -0.00143582
1.57352e-06 0.000108439 1.1568e-05
0.000108439 -0.000202994 2.46589e-05
1.1568e-05 2.46589e-05 -0.000341786
0.000691637 1.4603e-05 2.17407e-06
1.4603e-05 0.000279025 -2.83321e-06
2.17407e-06 -2.83321e-06 5.13011e-05
0.000263567 -0.000178956 4.34494e-06
-0.000178956 -2.61279e-05 -1.21799e-05
4.34494e-06 -1.21799e-05 -0.000242367
0.000645411 0.000154415 -2.04413e-06
0.000154415 0.000137776 2.25389e-06
-2.04413e-06 2.25389e-06 -1.8855e-05
0.000840799 0.000167909 2.71009e-06
0.000167909 0.000337292 -8.39573e-06
2.71009e-06 -8.39573e-06 0.000136498
0.00121601 0.000218937 -5.86283e-06
0.000218937 0.000562271 -6.36474e-06
-5.86283e-06 -6.36474e-06 0.000367326
0.00054921 -0.00139609 5.35225e-05
-0.00139609 -0.000475576 -1.95212e-05
5.35225e-05 -1.95212e-05 -0.00068188
0.000398124 -0.000447638 1.48822e-05
-0.000447638 -7.18017e-05 -2.63291e-05
1.48822e-05 -2.63291e-05 -1.99821e-05
0.000236111 0.000122309 -2.905e-06
0.000122309 4.95367e-05 -2.05259e-05
-2.905e-06 -2.05259e-05 -0.000188385
0.00267886 -0.000555726 7.78174e-05
-0.000555726 0.00168636 -3.68144e-05
7.78174e-05 -3.68144e-05 0.00124679
0.00213267 -0.000163579 4.35516e-06
-0.000163579 0.00133251 -1.03769e-06
4.35516e-06 -1.03769e-06 0.00100827
-0.000273941 0.00010202 6.22724e-06
0.00010202 -0.00020354 3.39371e-06
6.22724e-06 3.39371e-06 -0.000419145
0.000201985 6.60956e-05 2.51969e-06
6.60956e-05 0.000277682 6.35635e-07
2.51969e-06 6.35635e-07 -5.63695e-05
0.00156232 -0.00162462 -5.08163e-05
-0.00162462 0.000677212 2.26797e-06
-5.08163e-05 2.26797e-06 0.000113255
0.000144576 -3.51675e-05 -5.38483e-06
-3.51675e-05 0.000532291 2.49943e-06
-5.38483e-06 2.49943e-06 -4.52139e-05
0.000328352 -0.000415192 -1.50646e-05
-0.000415192 0.000525985 -4.3162e-06
-1.50646e-05 -4.3162e-06 1.42727e-05
0.000805425 0.000199162 4.3597e-06
0.000199162 0.000623846 -9.50355e-06
4.3597e-06 -9.50355e-06 0.000332077
-0.00222665 -0.000444147 -1.38192e-05
-0.000444147 -6.57178e-05 -2.65336e-05
-1.38192e-05 -2.65336e-05 -0.00106302
0.000557731 -0.000215771 -1.84066e-05
-0.000215771 0.00100605 -2.06113e-06
-1.84066e-05 -2.06113e-06 0.000409319
-0.00160694 -3.64318e-05 -1.59353e-05
-3.64318e-05 -0.000315099 -8.53844e-07
-1.59353e-05 -8.53844e-07 -0.000891277
7.52903e-05 0.000335109 -1.22787e-05
0.000335109 -0.000486959 2.73027e-06
-1.22787e-05 2.73027e-06 -0.00249423
-0.00204894 0.000390085 0.000100577
0.000390085 0.00212287 -8.10048e-06
0.000100577 -8.10048e-06 0.000603225
-0.000866424 -0.00013215 0.000396412
-0.00013215 0.000560206 4.07849e-05
0.000396412 4.07849e-05 -0.00422872
0.000455902 0.000669373 9.41753e-06
0.000669373 0.000458666 1.84463e-05
9.41753e-06 1.84463e-05 -5.94754e-05
0.000119744 0.000984659 -2.11114e-05
0.000984659 0.000523281 -2.15289e-05
-2.11114e-05 -2.15289e-05 -0.000284101
-0.00266351 0.000203859 -9.25387e-05
0.000203859 0.000787152 -3.58372e-05
-9.25387e-05 -3.58372e-05 -0.000638479
-0.00457538 0.000807082 0.000114168
0.000807082 0.00324667 0.000215763
0.000114168 0.000215763 -0.00257852
0.00104394 0.000864057 -0.000157557
0.000864057 -0.00156711 -0.000505125
-0.000157557 -0.000505125 -0.00696534
0.00457221 -5.91308e-05 0.000102024
-5.91308e-05 -0.000255435 7.3274e-05
0.000102024 7.3274e-05 -0.000729059
0.00733351 -0.000314092 -0.000361505
-0.000314092 -0.00213061 0.000278596
-0.000361505 0.000278596 -0.00305792
0.000203931 0.000458504 -3.39332e-06
0.000458504 0.000603957 -6.34356e-07
-3.39332e-06 -6.34356e-07 4.55508e-05
0.0013118 0.000112558 4.12802e-05
0.000112558 0.000830757 5.26161e-06
4.12802e-05 5.26161e-06 -0.000131027
0.00492038 -0.00123143 -0.000119531
-0.00123143 0.00319006 -8.06583e-06
-0.000119531 -8.06583e-06 0.00145528
-0.000491177 0.000805376 -0.000150688
0.000805376 0.00159854 -1.19629e-05
-0.000150688 -1.19629e-05 -0.000124387
0.0178746 0.00592446 -8.88143e-05
0.00592446 0.00566155 -0.000455705
-8.88143e-05 -0.000455705 0.00184191
0.00312492 0.00369609 9.61755e-05
0.00369609 0.00582308 0.000376133
9.61755e-05 0.000376133 -0.000378787
0.00527633 0.00117392 7.16105e-05
0.00117392 0.00628622 -1.42613e-05
7.16105e-05 -1.42613e-05 -0.00138757
0.000207486 2.00048e-05 3.21387e-05
2.00048e-05 0.00142772 -2.29745e-05
3.21387e-05 -2.29745e-05 0.000176208
6.81462e-05 -0.000147085 -0.000175533
-0.000147085 0.00351788 1.93902e-06
-0.000175533 1.93902e-06 0.00209236
0.00141612 -0.000964749 0.000822466
-0.000964749 0.000555753 -0.000275054
0.000822466 -0.000275054 -0.00476551
0.0245592 0.00945237 -9.46389e-05
0.00945237 0.0167001 -3.03329e-05
-9.46389e-05 -3.03329e-05 0.0111364
0.0111114 0.00442408 3.52523e-05
0.00442408 0.00407797 0.00096314
3.52523e-05 0.00096314 -0.00188027
0.0121344 -0.00436761 0.000375424
-0.00436761 0.00674407 -0.000283382
0.000375424 -0.000283382 0.000143252
0.0025831 -0.000819811 -7.52536e-05
-0.000819811 0.00331529 3.82304e-05
-7.52536e-05 3.82304e-05 0.0021637
0.000966914 0.000283248 -5.07547e-06
0.000283248 0.000993144 2.99655e-06
-5.07547e-06 2.99655e-06 0.000514669
5.59423e-06 -7.2535e-05 -3.51167e-06
-7.2535e-05 0.000546892 -5.19309e-06
-3.51167e-06 -5.19309e-06 2.10872e-05
0.00109157 -0.000582307 4.87265e-05
-0.000582307 0.000918809 -1.23959e-05
4.87265e-05 -1.23959e-05 0.000311538
0.000196494 -7.17459e-05 -3.38267e-06
-7.17459e-05 0.000230809 9.73828e-06
-3.38267e-06 9.73828e-06 -1.18728e-05
-0.000102133 -8.7572e-05 -4.78651e-06
-8.7572e-05 0.000296942 -1.91746e-05
-4.78651e-06 -1.91746e-05 -0.000140828
0.000629509 -0.000325001 -5.21876e-06
-0.000325001 0.000655955 7.84258e-07
-5.21876e-06 7.84258e-07 0.00028604
0.00134128 -0.000733621 3.13898e-05
-0.000733621 0.000651408 -1.74351e-05
3.13898e-05 -1.74351e-05 0.000259795
0.00112972 -0.000380177 2.30007e-06
-0.000380177 0.000568045 1.76223e-07
2.30007e-06 1.76223e-07 0.000293884
0.00146586 -0.000681602 1.69631e-05
-0.000681602 0.000656589 -3.04476e-06
1.69631e-05 -3.04476e-06 0.000213352
0.00139924 -0.000712498 9.8205e-06
-0.000712498 0.000606702 1.41591e-06
9.8205e-06 1.41591e-06 -0.000116122
0.000567715 -0.000387999 -7.84916e-06
-0.000387999 5.38791e-05 -8.54495e-06
-7.84916e-06 -8.54495e-06 -0.00017876
0.00228556 -0.000765389 -3.76185e-06
-0.000765389 0.00091125 -2.66695e-06
-3.76185e-06 -2.66695e-06 0.000364218
0.00179213 -0.000888057 -1.45199e-05
-0.000888057 0.000486044 -1.85984e-06
-1.45199e-05 -1.85984e-06 -0.000156934
0.00225757 -0.00101693 -1.46098e-05
-0.00101693 0.000590942 1.76515e-06
-1.46098e-05 1.76515e-06 1.76101e-05
0.00206018 -0.000880168 -5.10085e-06
-0.000880168 0.000655301 -6.42782e-08
-5.10085e-06 -6.42782e-08 0.000126138
0.00169285 -0.00077242 -5.02545e-06
-0.00077242 0.000483778 8.87919e-07
-5.02545e-06 8.87919e-07 -3.38056e-05
0.00127488 -0.000575561 2.35329e-06
-0.000575561 0.000342796 -8.35487e-06
2.35329e-06 -8.35487e-06 -7.84763e-05
0.00148149 -0.000631372 8.24805e-06
-0.000631372 0.000422829 -3.8003e-06
8.24805e-06 -3.8003e-06 -1.19434e-05
0.00170138 -0.000700836 7.17363e-06
-0.000700836 0.000496536 -1.52005e-06
7.17363e-06 -1.52005e-06 3.39741e-05
0.00126073 -0.000321477 1.26229e-06
-0.000321477 0.00039818 1.15981e-06
1.26229e-06 1.15981e-06 0.000117169
0.00119779 -0.000479304 6.09575e-06
-0.000479304 0.000303511 -4.21368e-06
6.09575e-06 -4.21368e-06 -5.46441e-05
-7.28012e-05 -0.000424626 -6.24376e-06
-0.000424626 -0.000539576 -6.34883e-06
-6.24376e-06 -6.34883e-06 -0.000926511
0.000113715 -0.000110474 -2.23934e-07
-0.000110474 -0.000149822 -4.83644e-06
-2.23934e-07 -4.83644e-06 -0.000423703
0.000936156 -0.000253104 -9.90782e-07
-0.000253104 0.00031761 -2.0245e-07
-9.90782e-07 -2.0245e-07 4.09756e-05
0.000242285 -0.000320212 -3.73139e-06
-0.000320212 -0.000202352 -2.49082e-06
-3.73139e-06 -2.49082e-06 -0.000488989
0.000392608 -7.40413e-05 -3.65604e-07
-7.40413e-05 -2.7528e-05 6.88526e-06
-3.65604e-07 6.88526e-06 -0.000176958
0.000797443 -0.000141992 -5.25297e-08
-0.000141992 0.00029202 3.59324e-07
-5.25297e-08 3.59324e-07 4.45353e-05
-0.000277875 -0.00016321 2.80923e-07
-0.00016321 -0.000321292 4.1798e-06
2.80923e-07 4.1798e-06 -0.0006075
0.00145599 -0.00018992 3.06677e-07
-0.00018992 0.000697016 8.7786e-07
3.06677e-07 8.7786e-07 0.000487163
0.000639576 -7.55908e-05 -4.46125e-07
-7.55908e-05 0.000126097 -3.61368e-07
-4.46125e-07 -3.61368e-07 2.26291e-07
0.000333444 1.84628e-05 2.60805e-06
1.84628e-05 -8.15403e-05 1.07435e-05
2.60805e-06 1.07435e-05 -0.000131642
0.000708491 -7.87381e-05 7.04294e-07
-7.87381e-05 0.000167189 -4.56622e-06
7.04294e-07 -4.56622e-06 6.00744e-05
0.000452855 4.6476e-06 -3.92522e-06
4.6476e-06 -1.70539e-05 -3.04795e-07
-3.92522e-06 -3.04795e-07 -5.73237e-05
0.00297986 9.94564e-05 -4.43351e-05
9.94564e-05 0.00159898 5.129e-06
-4.43351e-05 5.129e-06 0.00160177
0.000473941 -2.1089e-05 3.10525e-06
-2.1089e-05 -1.04391e-05 -6.99178e-06
3.10525e-06 -6.99178e-06 -4.52123e-05
0.00185175 6.25657e-05 2.41757e-05
6.25657e-05 0.000869385 -7.43049e-07
2.41757e-05 -7.43049e-07 0.000870143
0.00283806 5.79152e-05 3.55512e-05
5.79152e-05 0.00149874 -5.61901e-06
3.55512e-05 -5.61901e-06 0.0015077
0.000827852 0.000112939 6.45489e-06
0.000112939 0.000274073 -1.3823e-06
6.45489e-06 -1.3823e-06 0.000119788
0.000501038 5.55164e-05 3.86498e-06
5.55164e-05 3.5621e-05 -2.92799e-06
3.86498e-06 -2.92799e-06 -5.56721e-05
0.000412616 5.59954e-05 -5.52428e-07
5.59954e-05 1.40151e-05 -1.41408e-06
-5.52428e-07 -1.41408e-06 -0.000130141
0.000459991 1.21036e-05 1.42914e-06
1.21036e-05 -2.55487e-05 -6.16834e-06
1.42914e-06 -6.16834e-06 -4.8414e-05
0.000290426 4.38394e-05 -2.4514e-06
4.38394e-05 -9.82821e-05 -2.1001e-06
-2.4514e-06 -2.1001e-06 -0.000181453
0.000673157 9.02607e-05 -2.30981e-06
9.02607e-05 0.000184399 -3.37117e-06
-2.30981e-06 -3.37117e-06 4.57891e-05
0.00221347 -3.22414e-05 -2.18392e-05
-3.22414e-05 0.00109626 -5.18255e-06
-2.18392e-05 -5.18255e-06 0.00111166
0.000439402 -1.03244e-06 4.1395e-07
-1.03244e-06 -4.03588e-05 -1.7767e-07
4.1395e-07 -1.7767e-07 -5.69236e-05
0.00010952 1.82576e-05 -2.26368e-06
1.82576e-05 -0.000215449 6.65132e-07
-2.26368e-06 6.65132e-07 -0.000290215
0.00213697 -1.56479e-05 -5.76916e-06
-1.56479e-05 0.00104733 1.30789e-07
-5.76916e-06 1.30789e-07 0.00106419
0.000439663 1.64998e-06 -3.44019e-06
1.64998e-06 -4.00351e-05 4.10334e-06
-3.44019e-06 4.10334e-06 -5.27893e-05
0.00210389 2.2955e-07 1.3801e-05
2.2955e-07 0.00102734 5.12398e-06
1.3801e-05 5.12398e-06 0.00104441
0.0019618 -0.000337008 -9.37155e-05
-0.000337008 0.000716958 3.16686e-05
-9.37155e-05 3.16686e-05 -0.000292854
-0.00122639 -0.000181202 9.50988e-05
-0.000181202 0.00273522 -4.99206e-06
9.50988e-05 -4.99206e-06 0.00117935
-0.000988923 -0.000389455 0.000168662
-0.000389455 0.000989292 -0.000205995
0.000168662 -0.000205995 -0.00422
-0.00015065 2.68432e-05 5.29044e-06
2.68432e-05 -0.000296435 3.82801e-06
5.29044e-06 3.82801e-06 -0.000491473
0.0028693 0.000146837 4.74323e-06
0.000146837 0.00157915 7.29663e-06
4.74323e-06 7.29663e-06 0.00137601
0.000685115 0.000160313 -5.61471e-06
0.000160313 0.000181645 -6.98797e-06
-5.61471e-06 -6.98797e-06 2.66186e-05
0.000176696 7.94253e-05 1.35978e-06
7.94253e-05 -0.000148759 9.09206e-08
1.35978e-06 9.09206e-08 -0.000295733
0.00023457 8.98747e-05 2.73593e-07
8.98747e-05 -0.000136034 -1.51753e-06
2.73593e-07 -1.51753e-06 -0.00025772
0.000139786 9.58525e-05 8.21227e-06
9.58525e-05 -0.00016195 3.92026e-06
8.21227e-06 3.92026e-06 -0.000307747
3.5598e-06 0.000102938 1.75025e-05
0.000102938 -0.000226749 6.21513e-06
1.75025e-05 6.21513e-06 -0.000338844
0.00275169 0.00153827 0.000271041
0.00153827 -0.000286391 0.000263108
0.000271041 0.000263108 -0.00192348
0.00615426 -0.000423778 -7.48754e-05
-0.000423778 -3.0567e-05 5.09594e-05
-7.48754e-05 5.09594e-05 -0.00150361
0.00457377 -0.000901648 0.000318616
-0.000901648 0.00338895 -0.000128129
0.000318616 -0.000128129 0.00154751
0.00934419 -0.000187421 -2.92464e-06
-0.000187421 -0.00564512 0.000184201
-2.92464e-06 0.000184201 -0.00247968
0.0068921 -0.00404563 -0.000146257
-0.00404563 0.00116513 3.10844e-05
-0.000146257 3.10844e-05 0.00166003
0.00117752 -0.00499445 -0.000352518
-0.00499445 0.00168039 0.000125079
-0.000352518 0.000125079 -0.00445482
0.01887 0.00478365 0.000178929
0.00478365 0.00809512 -0.000211608
0.000178929 -0.000211608 0.00254546
0.0023985 -0.00305114 -6.28887e-05
-0.00305114 0.000182506 3.02231e-05
-6.28887e-05 3.02231e-05 0.000693141
-0.00139901 -0.00108102 -6.9092e-05
-0.00108102 0.00465445 5.40713e-05
-6.9092e-05 5.40713e-05 -0.00316131
0.0111945 0.00050186 0.000259508
0.00050186 0.0043217 -3.49602e-05
0.000259508 -3.49602e-05 0.000182342
0.0171636 -0.00195839 -8.46677e-05
-0.00195839 0.00227725 -1.16151e-05
-8.46677e-05 -1.16151e-05 0.00319086
-0.00305908 -0.00053822 -0.000173047
-0.00053822 -6.28227e-05 0.000177773
-0.000173047 0.000177773 -0.000431672
0.00227159 0.00211033 -0.000244364
0.00211033 0.00554798 -0.000137923
-0.000244364 -0.000137923 -0.00235707
0.00088252 -0.00617919 1.20831e-05
-0.00617919 0.00048793 -0.000247076
1.20831e-05 -0.000247076 -0.00559122
0.0162132 -0.00308564 0.000216997
-0.00308564 0.0057376 -0.000709454
0.000216997 -0.000709454 0.00307746
0.000386974 7.92053e-06 2.16122e-05
7.92053e-06 0.000293215 -4.44592e-07
2.16122e-05 -4.44592e-07 -4.89009e-06
0.000749307 0.000195368 -2.17851e-06
0.000195368 0.000297345 -4.17042e-06
-2.17851e-06 -4.17042e-06 0.000139967
0.000803218 -6.82137e-06 -1.08577e-06
-6.82137e-06 0.000365659 -7.07046e-06
-1.08577e-06 -7.07046e-06 0.000114721
0.000946141 0.000170361 -5.14635e-06
0.000170361 0.000353106 -1.2896e-05
-5.14635e-06 -1.2896e-05 0.000178295
0.000967809 -0.00133521 7.61224e-05
-0.00133521 0.000369662 3.02258e-05
7.61224e-05 3.02258e-05 -0.00020801
0.00133464 -0.000398161 5.77462e-06
-0.000398161 0.00119276 -2.63118e-05
5.77462e-06 -2.63118e-05 0.000572801
0.000761692 0.000110227 -1.91998e-05
0.000110227 0.000430558 -2.40531e-05
-1.91998e-05 -2.40531e-05 0.000236118
0.000977956 1.08444e-05 -2.14692e-07
1.08444e-05 0.000706664 -9.53634e-06
-2.14692e-07 -9.53634e-06 0.000418527
0.000183041 -3.10238e-05 -1.77534e-06
-3.10238e-05 0.000564588 1.17868e-05
-1.77534e-06 1.17868e-05 5.74272e-05
0.000160864 8.46862e-05 2.24207e-06
8.46862e-05 0.000161579 3.82878e-06
2.24207e-06 3.82878e-06 -8.1955e-05
0.000326405 -1.46104e-05 7.02633e-07
-1.46104e-05 0.000740377 1.40622e-06
7.02633e-07 1.40622e-06 0.000205323
0.000322996 -0.00074385 -2.55147e-06
-0.00074385 0.00117466 8.51882e-07
-2.55147e-06 8.51882e-07 -0.00016875
0.000410949 -0.00013404 -2.03049e-06
-0.00013404 0.00108082 -7.67917e-06
-2.03049e-06 -7.67917e-06 0.000499103
-0.000343836 0.000115039 3.22769e-06
0.000115039 3.2634e-05 -8.9177e-06
3.22769e-06 -8.9177e-06 -0.000266979
7.26311e-05 0.000268963 -0.000172006
0.000268963 0.00295227 -1.77579e-05
-0.000172006 -1.77579e-05 0.00084997
0.000569078 0.000351039 -2.00679e-05
0.000351039 0.00107496 5.87929e-06
-2.00679e-05 5.87929e-06 0.000473636
-0.00252161 2.06548e-05 -9.5107e-05
2.06548e-05 0.00235976 -4.85277e-05
-9.5107e-05 -4.85277e-05 0.00084834
0.00128808 0.000126829 2.39624e-05
0.000126829 0.000252721 1.09625e-05
2.39624e-05 1.09625e-05 -0.000821759
-0.0035709 0.000585705 -4.56868e-05
0.000585705 0.00159239 -7.98632e-05
-4.56868e-05 -7.98632e-05 -9.18951e-05
0.000384108 0.000373506 -2.31862e-05
0.000373506 0.000800703 3.84744e-06
-2.31862e-05 3.84744e-06 0.00033177
-0.00134829 0.000962152 0.000185161
0.000962152 0.000433073 0.000116592
0.000185161 0.000116592 -0.000514461
0.00089004 5.97955e-05 8.49521e-05
5.97955e-05 0.000823988 -8.70954e-06
8.49521e-05 -8.70954e-06 0.000137524
0.00637187 -0.00241208 0.00031563
-0.00241208 0.00637396 -0.000197033
0.00031563 -0.000197033 -0.00255066
0.0205076 0.00421942 -0.000212167
0.00421942 0.00859199 0.000190523
-0.000212167 0.000190523 0.00291729
0.00322219 -0.000824895 -0.000285423
-0.000824895 0.00237589 0.000109818
-0.000285423 0.000109818 0.000721045
0.0143345 0.00515777 -0.00015272
0.00515777 0.00749884 -0.000264369
-0.00015272 -0.000264369 0.00371864
0.000468739 0.000256827 -5.71708e-05
0.000256827 0.00139153 1.20503e-05
-5.71708e-05 1.20503e-05 0.000203379
-0.000119688 -0.000327155 -0.000102212
-0.000327155 0.00272149 1.25359e-06
-0.000102212 1.25359e-06 0.00160208
0.00290684 -0.00175844 0.000301367
-0.00175844 0.00171988 -5.08286e-05
0.000301367 -5.08286e-05 -0.00343907
-0.00340259 -8.0578e-05 5.81516e-05
-8.0578e-05 -0.000313123 3.46542e-05
5.81516e-05 3.46542e-05 -0.000915725
0.0191916 0.0110254 0.000770193
0.0110254 0.0134345 -0.000296287
0.000770193 -0.000296287 0.00767397
0.010139 0.00332516 -0.000168284
0.00332516 0.00548513 0.000414874
-0.000168284 0.000414874 -0.000383236
-0.00276279 -0.00138626 0.000211592
-0.00138626 0.00326828 -0.000163957
0.000211592 -0.000163957 -0.00491716
-0.00150957 -0.000470308 -9.4064e-06
-0.000470308 0.000441764 -3.07445e-05
-9.4064e-06 -3.07445e-05 -0.000774052
0.000713924 -0.00100723 0.000354806
-0.00100723 -7.23789e-05 -9.21846e-05
0.000354806 -9.21846e-05 -0.00389391
0.00063067 0.00142667 -0.00160922
0.00142667 0.00870301 0.000376345
-0.00160922 0.000376345 0.00356954
0.0223523 0.00793567 -0.000623584
0.00793567 0.00771551 0.000518238
-0.000623584 0.000518238 0.0017752
0.00646449 -0.00409671 -0.000208339
-0.00409671 0.00329167 8.54638e-05
-0.000208339 8.54638e-05 -0.000274852
0.00320638 -0.00201171 5.0453e-05
-0.00201171 0.00346385 6.48656e-06
5.0453e-05 6.48656e-06 0.00231085
9.61887e-05 -5.17232e-05 1.8957e-06
-5.17232e-05 0.000553538 -1.45438e-05
1.8957e-06 -1.45438e-05 -1.9819e-05
4.05417e-05 -0.000423027 5.56249e-06
-0.000423027 0.000428245 -2.40384e-06
5.56249e-06 -2.40384e-06 -0.000209641
0.000649494 -0.000923476 -6.36006e-06
-0.000923476 0.000465674 -1.63301e-06
-6.36006e-06 -1.63301e-06 1.03211e-05
-0.000390869 -0.000208303 -1.4622e-06
-0.000208303 0.000179129 7.47702e-06
-1.4622e-06 7.47702e-06 -0.000201542
-0.000376516 -0.000476054 -1.74261e-06
-0.000476054 -0.000160337 5.30674e-06
-1.74261e-06 5.30674e-06 -0.000494419
0.00310453 -0.00102345 4.42597e-05
-0.00102345 0.00134365 -2.19392e-05
4.42597e-05 -2.19392e-05 0.000856843
0.00634925 -0.00131581 -1.33434e-05
-0.00131581 0.00332596 -1.91948e-06
-1.33434e-05 -1.91948e-06 0.0027928
0.00284916 -0.00091784 1.02246e-05
-0.00091784 0.00131675 -3.29302e-06
1.02246e-05 -3.29302e-06 0.000601095
0.00212971 -0.00103044 3.01209e-06
-0.00103044 0.000597695 -1.87126e-05
3.01209e-06 -1.87126e-05 -0.000111271
0.00243642 -0.000780682 -1.12498e-05
-0.000780682 0.000968131 -7.99688e-06
-1.12498e-05 -7.99688e-06 0.00043687
0.00216628 -0.000940734 6.3823e-07
-0.000940734 0.00068923 -2.52712e-06
6.3823e-07 -2.52712e-06 2.91917e-05
0.00272853 -0.00110397 -8.52755e-06
-0.00110397 0.000874148 -1.14438e-05
-8.52755e-06 -1.14438e-05 0.000228075
0.00233178 -0.000853943 -3.90876e-06
-0.000853943 0.000428779 -4.83081e-06
-3.90876e-06 -4.83081e-06 -2.50435e-06
0.0026917 -0.00105698 -1.05652e-05
-0.00105698 0.000802343 1.35615e-06
-1.05652e-05 1.35615e-06 0.000250427
0.00252737 -0.00105344 -3.65163e-06
-0.00105344 0.000733832 1.28103e-07
-3.65163e-06 1.28103e-07 0.000149085
0.00183672 -0.000836066 6.72678e-06
-0.000836066 0.000540006 -4.77435e-06
6.72678e-06 -4.77435e-06 3.68666e-05
0.00164903 -0.000812851 3.23476e-06
-0.000812851 0.000418965 -1.29822e-06
3.23476e-06 -1.29822e-06 -8.63273e-05
0.00144696 -0.000738071 8.2511e-06
-0.000738071 0.000328292 -8.00837e-07
8.2511e-06 -8.00837e-07 -0.000185461
0.0015251 -0.000549933 8.29466e-06
-0.000549933 0.000491812 4.38146e-06
8.29466e-06 4.38146e-06 9.92142e-05
0.00163069 -0.000646462 -1.14676e-06
-0.000646462 0.000524894 -2.14522e-06
-1.14676e-06 -2.14522e-06 8.49414e-05
0.00169023 -0.000710919 5.36974e-06
-0.000710919 0.000491482 4.06704e-06
5.36974e-06 4.06704e-06 2.72918e-05
0.0012719 -0.000222883 8.77622e-07
-0.000222883 0.000459105 -4.50868e-06
8.77622e-07 -4.50868e-06 0.000201556
0.000896688 -0.000293199 -3.1089e-06
-0.000293199 0.000193895 2.60955e-06
-3.1089e-06 2.60955e-06 -7.82592e-05
0.000789306 -0.000439754 -1.04963e-06
-0.000439754 3.76722e-05 -1.10813e-05
-1.04963e-06 -1.10813e-05 -0.000310065
2.73021e-07 -8.8836e-05 -2.16817e-06
-8.8836e-05 -0.000254735 3.50411e-06
-2.16817e-06 3.50411e-06 -0.000462855
0.000812606 -0.000201182 -3.05678e-08
-0.000201182 0.000295406 7.20559e-07
-3.05678e-08 7.20559e-07 1.16597e-05
0.000676431 -0.00027788 2.42337e-06
-0.00027788 0.000193035 7.1871e-07
2.42337e-06 7.1871e-07 -0.000100015
0.000317012 -2.92105e-05 -7.52063e-06
-2.92105e-05 -0.000106506 1.60137e-05
-7.52063e-06 1.60137e-05 -0.000160064
0.000670979 -9.60283e-05 8.27343e-07
-9.60283e-05 0.000139587 3.37382e-07
8.27343e-07 3.37382e-07 -1.09751e-05
0.00152647 -0.000224137 -5.98489e-07
-0.000224137 0.000740797 3.70106e-06
-5.98489e-07 3.70106e-06 0.000493887
0.000822168 -8.78615e-05 1.96925e-07
-8.78615e-05 0.000238724 -5.80923e-06
1.96925e-07 -5.80923e-06 0.000110044
0.000431914 1.83718e-06 -8.51038e-07
1.83718e-06 -2.64716e-05 -5.27992e-07
-8.51038e-07 -5.27992e-07 -7.38051e-05
0.00309015 0.000126875 -4.37487e-05
0.000126875 0.00167937 5.19452e-06
-4.37487e-05 5.19452e-06 0.00167584
0.000519816 -1.14599e-05 2.83771e-06
-1.14599e-05 1.93284e-05 -8.53189e-06
2.83771e-06 -8.53189e-06 -1.8342e-05
0.00291932 0.000101025 5.48545e-06
0.000101025 0.00155999 6.85683e-07
5.48545e-06 6.85683e-07 0.0015627
0.00280312 7.79165e-05 3.84267e-05
7.79165e-05 0.0014788 -5.12669e-06
3.84267e-05 -5.12669e-06 0.00148575
0.00135003 0.000109622 5.55111e-06
0.000109622 0.000736976 -4.97133e-06
5.55111e-06 -4.97133e-06 0.000465852
0.00146948 0.000180816 7.56058e-06
0.000180816 0.000766535 -5.24697e-06
7.56058e-06 -5.24697e-06 0.000537703
0.000543975 4.38498e-05 5.81022e-06
4.38498e-05 5.6882e-05 -5.64717e-06
5.81022e-06 -5.64717e-06 -4.66608e-05
0.000650552 0.000125228 -2.85146e-08
0.000125228 0.000175817 1.99499e-07
-2.85146e-08 1.99499e-07 1.78372e-05
0.000433901 -4.45217e-06 3.28434e-06
-4.45217e-06 -3.88057e-05 -7.46702e-06
3.28434e-06 -7.46702e-06 -6.6877e-05
0.000523466 5.8869e-05 2.05045e-07
5.8869e-05 5.03227e-05 -2.64897e-07
2.05045e-07 -2.64897e-07 -4.10594e-05
0.000586444 5.92791e-05 -6.49718e-06
5.92791e-05 0.000111895 -2.4756e-06
-6.49718e-06 -2.4756e-06 -2.47791e-05
0.00239271 -4.93823e-05 -2.82394e-05
-4.93823e-05 0.00121313 -5.45789e-06
-2.82394e-05 -5.45789e-06 0.00122587
0.000451818 5.53457e-06 -9.42963e-07
5.53457e-06 -2.99673e-05 -1.6426e-07
-9.42963e-07 -1.6426e-07 -5.22841e-05
0.000475647 6.29926e-05 -4.96742e-06
6.29926e-05 2.20937e-05 5.17215e-07
-4.96742e-06 5.17215e-07 -6.12447e-05
0.00222027 -3.19198e-05 -5.0244e-06
-3.19198e-05 0.00110062 2.66367e-07
-5.0244e-06 2.66367e-07 0.00111608
0.000451277 2.02878e-06 -3.50912e-06
2.02878e-06 -3.3615e-05 4.54708e-06
-3.50912e-06 4.54708e-06 -4.97015e-05
0.00213032 -1.52689e-05 1.74063e-05
-1.52689e-05 0.00104291 5.00891e-06
1.74063e-05 5.00891e-06 0.00105979
-0.00269214 0.000475945 -1.62204e-05
0.000475945 0.000943913 -7.91415e-05
-1.62204e-05 -7.91415e-05 -0.0001754
0.00221488 -0.000280074 -1.75056e-05
-0.000280074 0.00115549 -2.00362e-05
-1.75056e-05 -2.00362e-05 0.000349144
-4.49499e-05 -0.000286145 1.69573e-05
-0.000286145 0.00254347 -4.93555e-05
1.69573e-05 -4.93555e-05 0.00129132
0.00064135 9.51826e-05 1.65625e-06
9.51826e-05 0.000268864 -4.03932e-06
1.65625e-06 -4.03932e-06 1.91787e-05
7.32955e-05 0.000126437 6.68371e-06
0.000126437 -0.000166563 -2.91313e-06
6.68371e-06 -2.91313e-06 -0.000364414
-0.0018167 -9.15213e-08 6.49756e-06
-9.15213e-08 -0.0014347 -9.80441e-06
6.49756e-06 -9.80441e-06 -0.00160734
-0.00159542 6.43572e-07 -2.45749e-06
6.43572e-07 -0.00113847 1.91446e-05
-2.45749e-06 1.91446e-05 -0.00136348
0.00285059 0.000402051 2.93335e-06
0.000402051 0.00156888 -1.09523e-06
2.93335e-06 -1.09523e-06 0.00127989
0.00079437 4.43775e-05 -6.79715e-06
4.43775e-05 0.000234335 -3.05945e-06
-6.79715e-06 -3.05945e-06 7.88202e-05
0.000325639 0.000120087 -1.20912e-05
0.000120087 -6.0491e-05 -1.15021e-05
-1.20912e-05 -1.15021e-05 -0.000183049
0.00104237 3.36766e-05 2.38514e-06
3.36766e-05 0.000396975 8.24999e-08
2.38514e-06 8.24999e-08 0.000259807
0.00101768 0.000186262 -1.55379e-06
0.000186262 0.000408869 -4.48633e-06
-1.55379e-06 -4.48633e-06 0.000286464
0.00199333 0.000167993 5.05948e-06
0.000167993 0.0012019 -1.84515e-05
5.05948e-06 -1.84515e-05 0.00092822
0.00682015 0.00148095 0.000525308
0.00148095 0.00480409 0.000559621
0.000525308 0.000559621 -0.000205747
0.00295825 0.00117769 2.3687e-05
0.00117769 0.000377728 9.07013e-05
2.3687e-05 9.07013e-05 -0.0014787
0.00549937 -0.000321664 8.70636e-05
-0.000321664 -0.000220074 -1.87357e-05
8.70636e-05 -1.87357e-05 -0.00110852
0.0143791 -0.00130706 -0.000302251
-0.00130706 0.00211287 -0.000144067
-0.000302251 -0.000144067 0.00386418
-0.00224784 0.00102083 9.05615e-05
0.00102083 -0.00239983 0.000421016
9.05615e-05 0.000421016 -0.00777961
0.00262278 -0.0031779 -4.36657e-05
-0.0031779 0.000713639 -2.98601e-05
-4.36657e-05 -2.98601e-05 0.00098899
0.00620691 -0.00214065 -0.000220397
-0.00214065 0.00537009 5.35404e-05
-0.000220397 5.35404e-05 -0.000499655
0.00097227 -0.00138541 -0.000139829
-0.00138541 0.00124592 0.000136264
-0.000139829 0.000136264 0.000754355
0.0105973 -8.50427e-05 -0.000231212
-8.50427e-05 0.00761115 -2.74923e-06
-0.000231212 -2.74923e-06 0.000492246
0.00761787 -0.0027982 0.00010713
-0.0027982 0.00463646 0.000217823
0.00010713 0.000217823 -0.00116704
0.0209535 -0.00499624 -3.57291e-05
-0.00499624 0.0053556 -0.000832102
-3.57291e-05 -0.000832102 0.00163007
0.000927909 0.000317946 -0.000143831
0.000317946 0.0029038 0.000103216
-0.000143831 0.000103216 0.0014304
0.010602 0.00275844 -0.000288532
0.00275844 0.00708031 -4.00842e-05
-0.000288532 -4.00842e-05 0.00119474
0.0218125 -0.00828797 4.64395e-05
-0.00828797 0.0119229 -0.00085021
4.64395e-05 -0.00085021 0.00520997
0.0273624 -0.0109419 0.000104347
-0.0109419 0.0127028 -7.709e-05
0.000104347 -7.709e-05 0.00722852
0.0010084 0.000323362 2.4822e-05
0.000323362 0.000651863 -7.12304e-06
2.4822e-05 -7.12304e-06 0.000253925
-3.90008e-05 4.62091e-05 5.55121e-06
4.62091e-05 0.000113284 1.9017e-06
5.55121e-06 1.9017e-06 -0.000240274
0.00116998 0.000209258 -2.17261e-05
0.000209258 0.000582481 -1.98665e-05
-2.17261e-05 -1.98665e-05 0.000408114
0.00403425 -0.00125088 0.000108276
-0.00125088 0.00274406 -5.93095e-06
0.000108276 -5.93095e-06 0.00110409
-0.000440137 -0.000142646 6.50162e-05
-0.000142646 0.000807067 -1.50397e-05
6.50162e-05 -1.50397e-05 0.000154703
-0.000321267 6.97234e-05 -6.0581e-06
6.97234e-05 -0.000144958 -2.89142e-06
-6.0581e-06 -2.89142e-06 -0.000379442
-0.000456476 -0.000108278 1.90882e-05
-0.000108278 0.000334419 -5.41364e-06
1.90882e-05 -5.41364e-06 -0.000262098
-0.000129275 0.000135162 -2.16473e-06
0.000135162 0.000130961 -8.12924e-07
-2.16473e-06 -8.12924e-07 -0.000172916
0.000113314 0.000332488 1.68299e-05
0.000332488 0.000644865 4.05497e-06
1.68299e-05 4.05497e-06 1.74788e-05
-0.0023556 8.03615e-05 0.000203103
8.03615e-05 0.00117866 -3.56527e-05
0.000203103 -3.56527e-05 -0.00089439
0.000129762 0.000584099 1.55652e-05
0.000584099 0.000104561 2.58975e-05
1.55652e-05 2.58975e-05 -0.000326937
0.00182877 0.000953327 -0.000139622
0.000953327 0.001928 -0.000101623
-0.000139622 -0.000101623 0.000306364
0.000870376 9.34724e-05 0.000233746
9.34724e-05 0.0017884 8.30732e-05
0.000233746 8.30732e-05 -0.00301625
-0.00274656 0.000322442 -0.000109872
0.000322442 0.00210932 9.25104e-06
-0.000109872 9.25104e-06 0.000309223
0.00313043 -0.000316914 -5.64057e-05
-0.000316914 0.00136543 -3.04598e-06
-5.64057e-05 -3.04598e-06 0.00112855
6.92068e-05 0.000599929 0.000104242
0.000599929 0.000932019 1.77047e-05
0.000104242 1.77047e-05 -0.000310347
0.00122879 0.000310946 -0.000114722
0.000310946 0.00301136 0.000112468
-0.000114722 0.000112468 0.00135106
-0.000674871 -0.000275112 -7.32879e-06
-0.000275112 0.00220019 -3.07907e-05
-7.32879e-06 -3.07907e-05 0.000807052
0.0161873 -0.00499616 0.000288425
-0.00499616 0.008987 -0.000155545
0.000288425 -0.000155545 0.00195711
0.0250701 0.00599553 -0.000352303
0.00599553 0.0123462 -0.000221246
-0.000352303 -0.000221246 0.00544043
0.00551507 -0.00210455 -0.000387036
-0.00210455 0.00295462 0.000302587
-0.000387036 0.000302587 -0.00170303
0.0117495 0.0129218 0.00293474
0.0129218 0.0092633 -0.00175838
0.00293474 -0.00175838 0.00318105
0.000969026 -0.000647181 4.49821e-05
-0.000647181 0.00165105 -1.38645e-05
4.49821e-05 -1.38645e-05 0.000362796
-0.000358175 -0.000697111 6.27502e-05
-0.000697111 0.000666017 1.03546e-05
6.27502e-05 1.03546e-05 -0.0038414
0.00239997 0.00195813 -0.00141045
0.00195813 0.0082387 0.000325327
-0.00141045 0.000325327 0.00265632
1.16093e-05 -0.00104387 3.26171e-05
-0.00104387 0.0014707 2.72159e-05
3.26171e-05 2.72159e-05 0.000487808
0.0223062 0.00757435 0.000420203
0.00757435 0.0079489 0.000122466
0.000420203 0.000122466 0.00195617
0.00799543 -0.00637833 0.000278435
-0.00637833 0.00283206 -8.76804e-05
0.000278435 -8.76804e-05 -0.00134544
0.000224448 -0.00156836 -2.46477e-06
-0.00156836 0.000524143 3.42668e-05
-2.46477e-06 3.42668e-05 -0.000582761
-0.00502152 -0.00201775 0.000185892
-0.00201775 0.00706354 -0.000100755
0.000185892 -0.000100755 0.00248974
0.0181585 0.00774442 -0.00190333
0.00774442 0.00731106 0.000518843
-0.00190333 0.000518843 0.00268899
0.00672469 -0.00488283 -0.000539788
-0.00488283 -0.000726005 0.000217785
-0.000539788 0.000217785 -0.00358972
-8.24324e-05 -0.00222973 0.000197443
-0.00222973 -0.000206242 -0.000142729
0.000197443 -0.000142729 0.000757065
0.00141326 -0.000635347 -0.000116583
-0.000635347 0.00103842 3.64833e-05
-0.000116583 3.64833e-05 0.000453709
0.000641759 -0.000737312 -1.82319e-05
-0.000737312 0.0005331 1.29562e-05
-1.82319e-05 1.29562e-05 4.46203e-05
0.00280664 -0.00104701 2.00348e-05
-0.00104701 0.00129681 -2.94153e-05
2.00348e-05 -2.94153e-05 0.000813456
-0.000993815 -0.000234292 1.43194e-05
-0.000234292 -0.000356849 4.87912e-06
1.43194e-05 4.87912e-06 -0.000650541
0.000989403 -0.000750111 -2.85088e-06
-0.000750111 0.00022445 -3.8242e-06
-2.85088e-06 -3.8242e-06 -0.000205224
0.00319724 -0.00118816 1.06482e-05
-0.00118816 0.000982929 -7.37288e-06
1.06482e-05 -7.37288e-06 0.000503998
0.00435294 -0.00112975 -3.10385e-05
-0.00112975 0.00206471 1.92586e-06
-3.10385e-05 1.92586e-06 0.00135745
0.00173413 -0.000943366 -2.26076e-06
-0.000943366 0.000381345 -1.48543e-06
-2.26076e-06 -1.48543e-06 -0.000301411
0.00247413 -0.00116063 -2.27369e-06
-0.00116063 0.000524064 -1.11139e-05
-2.27369e-06 -1.11139e-05 -3.20613e-05
0.00300284 -0.001056 7.72373e-06
-0.001056 0.00113978 8.33054e-06
7.72373e-06 8.33054e-06 0.000458524
0.00243938 -0.00106865 2.35606e-06
-0.00106865 0.000687326 -3.96271e-06
2.35606e-06 -3.96271e-06 6.29087e-05
0.00269802 -0.000919125 -5.18456e-06
-0.000919125 0.000589523 -8.39936e-06
-5.18456e-06 -8.39936e-06 0.000158614
0.00188396 -0.000574972 -2.66396e-06
-0.000574972 8.61083e-06 -2.04041e-06
-2.66396e-06 -2.04041e-06 -0.000248582
0.00199141 -0.00083992 7.63135e-07
-0.00083992 0.000174879 -2.19492e-06
7.63135e-07 -2.19492e-06 -0.00025259
0.0023189 -0.000860686 3.3724e-06
-0.000860686 0.000409113 -2.58291e-06
3.3724e-06 -2.58291e-06 -2.29176e-05
0.00252923 -0.00093531 -4.69829e-06
-0.00093531 0.000771239 -1.15565e-06
-4.69829e-06 -1.15565e-06 0.000273656
0.00267432 -0.00105403 -3.48303e-06
-0.00105403 0.000800341 -7.79175e-08
-3.48303e-06 -7.79175e-08 0.000243777
0.00259786 -0.00106606 1.10542e-05
-0.00106606 0.000762434 -5.41951e-06
1.10542e-05 -5.41951e-06 0.000170636
0.00183691 -0.000729122 7.00142e-06
-0.000729122 0.000589265 -2.66291e-06
7.00142e-06 -2.66291e-06 0.000126145
0.00164002 -0.000802793 2.34138e-06
-0.000802793 0.000435841 -8.00872e-07
2.34138e-06 -8.00872e-07 -5.6361e-05
0.00132355 -0.000759217 3.96777e-06
-0.000759217 0.000233465 2.20041e-06
3.96777e-06 2.20041e-06 -0.000251376
0.00153137 -0.00035331 3.21392e-07
-0.00035331 0.000542544 2.55868e-06
3.21392e-07 2.55868e-06 0.000253309
0.0013037 -0.000508281 1.56738e-06
-0.000508281 0.000378852 7.93154e-07
1.56738e-06 7.93154e-07 2.39024e-07
0.00187103 -0.000669941 -4.55144e-06
-0.000669941 0.000686434 2.62898e-06
-4.55144e-06 2.62898e-06 0.000239334
-2.2926e-05 -0.000132474 -2.72606e-06
-0.000132474 -0.000313321 6.49663e-07
-2.72606e-06 6.49663e-07 -0.000553104
0.000664701 -0.000253003 -1.89817e-06
-0.000253003 0.000110031 -1.64613e-06
-1.89817e-06 -1.64613e-06 -0.000169052
0.000845188 -0.000294935 -3.52904e-06
-0.000294935 0.000184419 -9.0731e-08
-3.52904e-06 -9.0731e-08 -8.72136e-05
0.00196116 -5.65121e-06 -5.67966e-05
-5.65121e-06 0.000947403 1.06477e-05
-5.67966e-05 1.06477e-05 0.000888338
0.000720176 -0.0001498 2.92526e-07
-0.0001498 0.000174783 -1.00197e-07
2.92526e-07 -1.00197e-07 -2.62152e-05
0.00140121 -0.000292016 9.6748e-07
-0.000292016 0.000670337 5.15426e-06
9.6748e-07 5.15426e-06 0.000375315
0.000660364 2.03177e-05 -6.18037e-05
2.03177e-05 0.00012156 6.91266e-06
-6.18037e-05 6.91266e-06 0.000109975
0.00124873 -1.07261e-05 -2.05003e-05
-1.07261e-05 0.000490263 -7.84442e-07
-2.05003e-05 -7.84442e-07 0.000438741
0.000993202 -0.000115124 3.47281e-06
-0.000115124 0.000335688 -5.52701e-06
3.47281e-06 -5.52701e-06 0.000183599
0.000570675 -1.24405e-05 3.8851e-06
-1.24405e-05 5.57488e-05 -1.10035e-05
3.8851e-06 -1.10035e-05 9.93269e-06
0.00318186 0.000126256 9.9369e-06
0.000126256 0.00173806 8.33834e-07
9.9369e-06 8.33834e-07 0.00173489
0.00291096 9.98748e-05 4.28962e-05
9.98748e-05 0.00155435 -5.10494e-06
4.28962e-05 -5.10494e-06 0.00155761
0.000725796 0.00018269 1.1811e-05
0.00018269 0.000262284 1.57364e-06
1.1811e-05 1.57364e-06 -2.31752e-06
0.00170133 0.000196357 5.07906e-06
0.000196357 0.000928653 -4.97629e-06
5.07906e-06 -4.97629e-06 0.000651493
-0.000464053 3.48122e-05 2.02741e-06
3.48122e-05 -0.000440009 -3.90851e-07
2.02741e-06 -3.90851e-07 -0.000678307
0.00063693 6.81796e-05 2.37514e-06
6.81796e-05 0.000124885 -8.55147e-06
2.37514e-06 -8.55147e-06 -9.61649e-08
0.000703845 0.000128426 8.10712e-07
0.000128426 0.000237737 1.63185e-08
8.10712e-07 1.63185e-08 3.90247e-05
0.00043002 1.14599e-05 -8.94797e-07
1.14599e-05 -3.31912e-05 -1.01699e-05
-8.94797e-07 -1.01699e-05 -6.89285e-05
0.000559042 5.76238e-05 -6.21784e-08
5.76238e-05 7.52757e-05 -4.9982e-07
-6.21784e-08 -4.9982e-07 -3.07639e-05
0.000683262 5.89751e-05 -6.068e-06
5.89751e-05 0.000221093 1.8896e-06
-6.068e-06 1.8896e-06 5.13193e-05
0.00267081 -6.93391e-05 -3.71911e-05
-6.93391e-05 0.00139604 -5.32082e-06
-3.71911e-05 -5.32082e-06 0.00140529
0.00042095 4.46815e-06 -2.33266e-07
4.46815e-06 -4.58056e-05 -2.78588e-08
-2.33266e-07 -2.78588e-08 -7.42368e-05
0.000499272 6.46339e-05 -2.69336e-06
6.46339e-05 3.61126e-05 3.31682e-06
-2.69336e-06 3.31682e-06 -5.5712e-05
0.00240427 -5.04203e-05 -6.67002e-06
-5.04203e-05 0.00122067 4.28593e-07
-6.67002e-06 4.28593e-07 0.00123322
0.000402349 -1.34734e-05 -6.52053e-06
-1.34734e-05 -6.11364e-05 5.73522e-06
-6.52053e-06 5.73522e-06 -8.29532e-05
0.00223051 -3.05502e-05 2.28921e-05
-3.05502e-05 0.00110711 5.04798e-06
2.28921e-05 5.04798e-06 0.00112279
0.00681482 0.000982731 0.000444324
0.000982731 0.00448496 0.000106319
0.000444324 0.000106319 0.0016281
-0.00233637 0.000351606 -7.3843e-06
0.000351606 0.000843763 -1.13387e-05
-7.3843e-06 -1.13387e-05 -0.000596223
0.000464609 0.000409411 -8.78449e-06
0.000409411 0.00125822 -1.56229e-05
-8.78449e-06 -1.56229e-05 0.000182217
-0.000676187 0.000147316 -9.31274e-06
0.000147316 -0.000784696 6.3373e-06
-9.31274e-06 6.3373e-06 -0.000984761
1.40386e-05 3.8015e-05 -7.35278e-06
3.8015e-05 -0.00019409 7.72068e-06
-7.35278e-06 7.72068e-06 -0.000391994
-0.00039056 5.52504e-05 -8.09124e-06
5.52504e-05 -0.000454761 -1.07739e-05
-8.09124e-06 -1.07739e-05 -0.0006331
0.00166976 9.13965e-05 4.58517e-06
9.13965e-05 0.000844418 4.19147e-07
4.58517e-06 4.19147e-07 0.00064896
0.00052745 0.000159531 -3.69164e-06
0.000159531 1.41016e-05 -6.0605e-06
-3.69164e-06 -6.0605e-06 -0.000172297
0.00248115 0.000373048 -1.2962e-05
0.000373048 0.00134501 -4.8357e-06
-1.2962e-05 -4.8357e-06 0.00112157
0.00120328 0.000297458 -1.38995e-07
0.000297458 0.000457943 -1.22662e-05
-1.38995e-07 -1.22662e-05 0.000120709
-0.00171309 0.00015307 -1.29609e-06
0.00015307 -0.000911065 -6.2021e-07
-1.29609e-06 -6.2021e-07 -0.00130968
0.000440935 0.000106465 -8.0085e-06
0.000106465 5.43122e-05 -6.41702e-06
-8.0085e-06 -6.41702e-06 -9.48245e-05
-0.000286493 5.60879e-05 -1.5354e-05
5.60879e-05 -0.000476612 -8.83387e-06
-1.5354e-05 -8.83387e-06 -0.000551267
-0.000670001 1.92705e-05 -2.38191e-06
1.92705e-05 -0.000426348 2.11446e-06
-2.38191e-06 2.11446e-06 -0.000709551
0.000676533 0.000341907 1.82624e-05
0.000341907 0.000549967 2.91016e-06
1.82624e-05 2.91016e-06 3.21203e-05
0.00580044 -0.00476217 5.55528e-05
-0.00476217 0.0077855 0.00023785
5.55528e-05 0.00023785 0.000573185
0.00755267 0.00199277 0.000201602
0.00199277 0.00373413 0.000191564
0.000201602 0.000191564 -0.00186665
0.00380307 0.000636993 -1.87737e-05
0.000636993 0.00102625 -8.48385e-05
-1.87737e-05 -8.48385e-05 -0.00109959
0.0307164 -0.006845 -0.000997995
-0.006845 0.00927271 -0.000446702
-0.000997995 -0.000446702 0.00492734
0.00517269 -0.0017024 0.000305715
-0.0017024 0.00438966 0.000554331
0.000305715 0.000554331 0.000117474
0.00261325 -0.00169951 -0.000270911
-0.00169951 0.00549465 0.000131514
-0.000270911 0.000131514 -0.0023702
-0.00074765 -0.00115044 8.39566e-05
-0.00115044 0.00148762 4.8145e-05
8.39566e-05 4.8145e-05 0.000314681
-0.00132638 -5.27751e-05 0.000163579
-5.27751e-05 0.00136717 5.18865e-05
0.000163579 5.18865e-05 0.00040348
0.0209112 -0.0118193 0.000528445
-0.0118193 0.0111493 0.000503082
0.000528445 0.000503082 0.00528734
0.00270681 0.00196434 -0.000138811
0.00196434 0.00497594 -0.000102728
-0.000138811 -0.000102728 -0.00207905
0.0111202 -0.0044312 -0.000147647
-0.0044312 0.00654954 0.000141146
-0.000147647 0.000141146 -0.000504831
-9.68412e-05 0.000832718 -1.567e-05
0.000832718 0.00130138 4.16035e-05
-1.567e-05 4.16035e-05 0.000654844
0.00928384 0.00502001 -0.000148945
0.00502001 0.00329709 -1.73161e-06
-0.000148945 -1.73161e-06 -0.000781893
0.0206661 -0.00770875 -0.000968948
-0.00770875 0.00733192 -0.000487857
-0.000968948 -0.000487857 0.00111233
0.000865681 0.000697456 1.16871e-05
0.000697456 0.000123916 -6.19439e-06
1.16871e-05 -6.19439e-06 -6.26966e-05
0.000535309 0.00024434 7.44675e-06
0.00024434 0.00036837 6.39358e-06
7.44675e-06 6.39358e-06 1.9519e-06
-0.000529374 2.3614e-05 -1.98308e-05
2.3614e-05 -0.000176787 -2.90058e-06
-1.98308e-05 -2.90058e-06 -0.000538596
-0.00310424 -0.000284402 -0.00012397
-0.000284402 0.000562541 -5.56524e-05
-0.00012397 -5.56524e-05 -0.00140937
-1.64366e-05 0.000276296 3.57186e-07
0.000276296 0.000269295 -1.59981e-05
3.57186e-07 -1.59981e-05 -0.000298494
0.000777786 0.000241917 -5.36971e-06
0.000241917 0.000631907 7.98437e-06
-5.36971e-06 7.98437e-06 0.00029771
0.00113962 0.000752573 1.47378e-05
0.000752573 0.000611342 3.91598e-06
1.47378e-05 3.91598e-06 0.000157712
-0.000326327 0.000672558 2.60594e-05
0.000672558 0.000910853 -3.78306e-05
2.60594e-05 -3.78306e-05 -0.000487893
0.00125978 0.00173671 8.50747e-05
0.00173671 0.000324828 5.18788e-06
8.50747e-05 5.18788e-06 -0.000728341
-0.00671243 0.00125558 0.000454486
0.00125558 0.00598975 -1.02626e-05
0.000454486 -1.02626e-05 -0.00216328
0.00224784 -0.000360586 -1.56475e-05
-0.000360586 0.00222053 8.16933e-05
-1.56475e-05 8.16933e-05 -0.00100481
-0.00307258 -2.45353e-05 -2.27286e-05
-2.45353e-05 0.00149252 7.69723e-05
-2.27286e-05 7.69723e-05 -6.80549e-05
-0.000779242 -0.000367708 -5.90361e-05
-0.000367708 0.00080406 1.51942e-05
-5.90361e-05 1.51942e-05 -0.000541134
-0.00163014 -0.000694439 -7.04143e-05
-0.000694439 -3.35653e-06 5.61836e-05
-7.04143e-05 5.61836e-05 0.000104105
-0.00076908 -0.000683577 -0.000234384
-0.000683577 0.00118038 0.000155766
-0.000234384 0.000155766 -0.0037151
-0.00129636 -0.00481042 0.000251083
-0.00481042 0.00217011 -0.000130344
0.000251083 -0.000130344 -0.00434585
0.0155456 0.00608474 0.000849738
0.00608474 0.00324147 -0.000473749
0.000849738 -0.000473749 -0.00236982
0.0145914 0.00525347 -0.000459718
0.00525347 0.00965747 0.000418603
-0.000459718 0.000418603 0.00343233
0.00102811 -0.00112143 -2.77969e-05
-0.00112143 0.0015127 4.33847e-06
-2.77969e-05 4.33847e-06 0.000462155
0.00297306 0.00098267 0.000197095
0.00098267 0.00905296 -4.06356e-05
0.000197095 -4.06356e-05 0.0036884
0.00343928 0.00533145 1.34345e-05
0.00533145 0.00162048 8.71905e-05
1.34345e-05 8.71905e-05 -0.00287836
0.00257307 -0.00342552 9.10144e-05
-0.00342552 0.000884381 -5.57833e-05
9.10144e-05 -5.57833e-05 0.00113905
0.015146 -0.00541425 2.33286e-06
-0.00541425 0.00178555 7.91387e-06
2.33286e-06 7.91387e-06 -0.000104399
0.00336194 -0.00208778 2.62217e-06
-0.00208778 0.00143457 1.55657e-05
2.62217e-06 1.55657e-05 0.000879607
-0.00702085 0.00174722 -0.000802729
0.00174722 -0.00159399 0.000137469
-0.000802729 0.000137469 -0.00539868
0.0158507 -0.00348027 -0.000230285
-0.00348027 0.00113475 6.59107e-05
-0.000230285 6.59107e-05 0.000112536
0.00427712 -0.00328831 0.000130836
-0.00328831 5.27761e-05 -7.75245e-05
0.000130836 -7.75245e-05 0.00104839
-0.000291942 -0.000542899 8.56781e-06
-0.000542899 0.000127494 4.17301e-06
8.56781e-06 4.17301e-06 -0.000390633
0.002035 -0.00109579 8.41109e-06
-0.00109579 0.000746006 -7.22103e-06
8.41109e-06 -7.22103e-06 0.000367225
0.00346414 -0.00109858 2.08687e-05
-0.00109858 0.00115903 -2.0792e-05
2.08687e-05 -2.0792e-05 0.000774035
-0.000178018 -0.00060306 -9.15965e-06
-0.00060306 -0.000364709 1.19606e-05
-9.15965e-06 1.19606e-05 -0.000789073
0.00190697 -0.00104144 -3.82471e-06
-0.00104144 0.000312911 1.78998e-06
-3.82471e-06 1.78998e-06 -0.000168328
0.00342478 -0.00125182 5.76279e-06
-0.00125182 0.000899646 -5.98235e-06
5.76279e-06 -5.98235e-06 0.000424896
0.00139071 -0.000865398 -8.5238e-06
-0.000865398 0.000181275 1.08808e-05
-8.5238e-06 1.08808e-05 -0.000476463
0.00220714 -0.00111912 -8.40814e-07
-0.00111912 0.00038688 2.6237e-06
-8.40814e-07 2.6237e-06 -0.000167004
0.00216436 -0.000883275 -4.60259e-06
-0.000883275 0.000117357 -5.12747e-06
-4.60259e-06 -5.12747e-06 -0.000217995
0.00180242 -0.000987106 8.40476e-06
-0.000987106 0.000321154 4.62172e-06
8.40476e-06 4.62172e-06 -0.000276129
0.00220785 -0.000848666 -1.77543e-06
-0.000848666 0.000325762 1.7294e-06
-1.77543e-06 1.7294e-06 -8.79159e-05
0.00223258 -0.000619045 -2.27627e-06
-0.000619045 0.00014186 -2.45603e-06
-2.27627e-06 -2.45603e-06 -8.43534e-05
0.0020374 -0.000529551 -3.11274e-06
-0.000529551 0.000102456 6.20179e-07
-3.11274e-06 6.20179e-07 -8.65944e-05
0.00182981 -0.000588846 -3.8537e-06
-0.000588846 9.32739e-07 -1.70618e-06
-3.8537e-06 -1.70618e-06 -0.000268544
0.0019296 -0.000573549 1.67341e-06
-0.000573549 3.43183e-05 2.80952e-06
1.67341e-06 2.80952e-06 -0.00021923
0.00180561 -0.000728708 -4.45779e-06
-0.000728708 0.000132847 -3.54473e-06
-4.45779e-06 -3.54473e-06 -0.000250017
0.00218546 -0.000851141 2.78727e-06
-0.000851141 0.000315119 -3.18194e-08
2.78727e-06 -3.18194e-08 -0.000109751
0.00229163 -0.000860718 4.48932e-06
-0.000860718 0.000389482 1.60855e-06
4.48932e-06 1.60855e-06 -4.12617e-05
0.00193474 -0.000798724 -1.05625e-08
-0.000798724 0.000448418 -2.68051e-06
-1.05625e-08 -2.68051e-06 -1.81959e-05
0.00234172 -0.000920447 2.02212e-06
-0.000920447 0.000651264 -6.21776e-07
2.02212e-06 -6.21776e-07 0.000153785
0.00257555 -0.00103912 3.8295e-06
-0.00103912 0.000752014 -2.58827e-06
3.8295e-06 -2.58827e-06 0.000193389
0.00140275 -0.000488893 -8.1232e-06
-0.000488893 0.000367604 3.94736e-06
-8.1232e-06 3.94736e-06 1.38203e-05
0.00172792 -0.000705136 1.0292e-06
-0.000705136 0.000522128 6.23267e-07
1.0292e-06 6.23267e-07 6.89594e-05
0.00140355 -0.000762543 -2.27262e-06
-0.000762543 0.000309922 2.44056e-06
-2.27262e-06 2.44056e-06 -0.000169634
0.000729938 -0.000242791 -7.0353e-06
-0.000242791 8.69925e-05 -7.76497e-07
-7.0353e-06 -7.76497e-07 -0.000139509
0.00101408 -0.000329372 2.17019e-06
-0.000329372 0.000212491 -6.86766e-07
2.17019e-06 -6.86766e-07 -7.49245e-05
0.000818432 -0.00044374 -6.51367e-06
-0.00044374 0.000106614 1.96351e-06
-6.51367e-06 1.96351e-06 -0.000254053
0.000364571 -9.00967e-05 -1.64665e-05
-9.00967e-05 -0.0001025 1.46412e-05
-1.64665e-05 1.46412e-05 -0.000190994
0.000786478 -0.000199582 2.15927e-06
-0.000199582 0.000210483 1.83002e-06
2.15927e-06 1.83002e-06 -4.22847e-05
0.000564183 -0.000293011 -1.77769e-06
-0.000293011 7.63218e-05 8.53958e-07
-1.77769e-06 8.53958e-07 -0.000221149
0.00427319 0.000269465 1.31781e-05
0.000269465 0.00248944 7.43889e-06
1.31781e-05 7.43889e-06 0.0024409
0.000392137 -5.81438e-05 2.92424e-07
-5.81438e-05 -6.55377e-05 -1.91824e-07
2.92424e-07 -1.91824e-07 -0.000140468
0.00138151 -0.00015396 4.68363e-07
-0.00015396 0.000588864 -4.52942e-06
4.68363e-07 -4.52942e-06 0.000385868
0.00361403 0.000143517 9.93197e-06
0.000143517 0.00202278 6.44493e-07
9.93197e-06 6.44493e-07 0.00201519
0.000621092 -3.00918e-05 6.93994e-06
-3.00918e-05 8.60342e-05 -1.28535e-05
6.93994e-06 -1.28535e-05 2.75696e-05
0.00325256 0.000115193 6.5153e-05
0.000115193 0.001781 -5.63857e-06
6.5153e-05 -5.63857e-06 0.00178079
0.00228876 0.000396214 3.81434e-06
0.000396214 0.00113164 2.4634e-06
3.81434e-06 2.4634e-06 0.000864712
0.000627998 0.000196859 -3.70892e-08
0.000196859 0.000203202 -3.11337e-06
-3.70892e-08 -3.11337e-06 -6.90907e-05
0.00135207 0.000304501 -2.4851e-06
0.000304501 0.000685985 -3.21479e-06
-2.4851e-06 -3.21479e-06 0.000389606
0.000899678 0.000108221 1.59708e-06
0.000108221 0.000293916 -8.41972e-06
1.59708e-06 -8.41972e-06 0.000139541
0.000812459 0.000125104 3.44654e-07
0.000125104 0.000355732 1.24261e-06
3.44654e-07 1.24261e-06 8.89874e-05
9.49116e-05 0.000117332 -3.69141e-06
0.000117332 -4.00056e-05 5.17561e-06
-3.69141e-06 5.17561e-06 -0.000319884
0.000522852 1.62954e-06 -1.60044e-06
1.62954e-06 3.59023e-05 -1.25437e-05
-1.60044e-06 -1.25437e-05 -1.03024e-05
0.000553682 5.44768e-05 -4.57574e-07
5.44768e-05 7.65986e-05 -2.65506e-08
-4.57574e-07 -2.65506e-08 -4.86054e-05
9.60916e-05 8.75383e-05 -5.26183e-06
8.75383e-05 -0.000175454 6.38391e-06
-5.26183e-06 6.38391e-06 -0.000355039
0.0027818 -8.57377e-05 -4.62843e-05
-8.57377e-05 0.00147293 -5.57737e-06
-4.62843e-05 -5.57737e-06 0.00147949
0.000395409 -2.54111e-05 2.69122e-06
-2.54111e-05 -5.19316e-05 -3.16292e-07
2.69122e-06 -3.16292e-07 -8.83823e-05
0.000469024 5.11831e-05 -4.40198e-06
5.11831e-05 2.53784e-05 5.39116e-06
-4.40198e-06 5.39116e-06 -8.16807e-05
0.00259309 -6.9268e-05 -7.40691e-06
-6.9268e-05 0.00134621 5.67972e-07
-7.40691e-06 5.67972e-07 0.00135532
0.000420406 5.33896e-06 -2.53682e-06
5.33896e-06 -4.65448e-05 7.20506e-06
-2.53682e-06 7.20506e-06 -7.42468e-05
0.00235639 -4.96878e-05 2.43301e-05
-4.96878e-05 0.00118996 5.15462e-06
2.43301e-05 5.15462e-06 0.00120278
-0.00877226 0.00108574 -0.000202499
0.00108574 0.00474061 7.67601e-05
-0.000202499 7.67601e-05 -0.0027638
0.00641949 0.00078464 2.51524e-05
0.00078464 0.00405236 -2.65243e-07
2.51524e-05 -2.65243e-07 0.00132458
-0.00175956 0.000311307 9.62356e-05
0.000311307 0.000863588 5.03821e-05
9.62356e-05 5.03821e-05 -0.000842948
0.000259103 0.000193161 -1.58689e-06
0.000193161 -0.000159147 6.04537e-06
-1.58689e-06 6.04537e-06 -0.000405764
0.00348053 0.000811778 1.94416e-05
0.000811778 0.00182857 1.71321e-05
1.94416e-05 1.71321e-05 0.00138989
-8.41504e-05 0.000178158 -8.69477e-06
0.000178158 -0.000182706 6.72534e-06
-8.69477e-06 6.72534e-06 -0.000571523
0.000311079 7.83285e-05 -8.74089e-06
7.83285e-05 1.17927e-05 -1.99502e-05
-8.74089e-06 -1.99502e-05 -0.00019442
0.00326186 0.000385068 9.35645e-07
0.000385068 0.00169406 -3.53848e-06
9.35645e-07 -3.53848e-06 0.00148396
-0.00144203 4.00396e-06 -1.49195e-05
4.00396e-06 -0.00107438 1.40539e-05
-1.49195e-05 1.40539e-05 -0.00122947
-0.000171695 0.000190406 -4.79922e-07
0.000190406 -0.000108354 7.97532e-06
-4.79922e-07 7.97532e-06 -0.000431767
0.000138758 0.000143643 -4.36303e-06
0.000143643 -0.000115418 -5.98703e-06
-4.36303e-06 -5.98703e-06 -0.000453122
0.00131678 0.000677232 4.58217e-06
0.000677232 0.000646304 -2.07906e-05
4.58217e-06 -2.07906e-05 0.000120973
-0.000931656 0.000532082 -2.53755e-05
0.000532082 -0.000877899 6.38417e-05
-2.53755e-05 6.38417e-05 -0.00103987
0.00127186 5.96439e-05 -1.73486e-05
5.96439e-05 0.000696996 1.75007e-05
-1.73486e-05 1.75007e-05 0.000460456
0.00174397 0.000392333 9.0989e-06
0.000392333 0.00115139 -8.9738e-06
9.0989e-06 -8.9738e-06 0.000708422
0.00324078 -0.00324124 -0.00216071
-0.00324124 0.00272853 -0.000279978
-0.00216071 -0.000279978 -0.00236724
-0.000340432 -0.00369028 0.000715141
-0.00369028 0.00810024 0.000194169
0.000715141 0.000194169 0.00104259
0.008308 0.00251486 -0.00077624
0.00251486 0.00341335 -0.000259754
-0.00077624 -0.000259754 -0.00269847
0.0118399 -0.0127962 0.00290033
-0.0127962 0.00946134 0.00168786
0.00290033 0.00168786 0.00303219
0.0300645 -0.00443871 2.31618e-05
-0.00443871 0.0108785 0.000449996
2.31618e-05 0.000449996 0.00564574
-0.00333703 0.00147869 -5.4089e-05
0.00147869 0.00302577 -0.000206104
-5.4089e-05 -0.000206104 -0.00318245
-0.00239276 0.000236088 -0.000274957
0.000236088 0.00158877 -5.27601e-05
-0.000274957 -5.27601e-05 -0.000320401
0.000266863 0.000869862 7.5148e-05
0.000869862 0.0016992 5.81973e-05
7.5148e-05 5.81973e-05 0.00116893
0.0225517 -0.00613145 -0.000811574
-0.00613145 0.00964714 2.80695e-05
-0.000811574 2.80695e-05 0.00359459
-0.00195131 0.00413965 -0.000178271
0.00413965 0.000607758 -5.016e-05
-0.000178271 -5.016e-05 -0.00427343
0.00362369 0.00286988 3.71922e-05
0.00286988 0.00120805 -8.1324e-05
3.71922e-05 -8.1324e-05 0.00200456
0.00532889 0.00670935 -0.000598774
0.00670935 -0.00178477 -0.000114068
-0.000598774 -0.000114068 -0.00408902
0.003586 0.0014183 2.88273e-05
0.0014183 0.00141907 -5.89885e-06
2.88273e-05 -5.89885e-06 0.000992398
0.00110393 0.000684371 -5.57304e-06
0.000684371 0.000295358 -3.48555e-06
-5.57304e-06 -3.48555e-06 0.000123813
-0.000534261 0.000175004 -1.91051e-05
0.000175004 -0.000288255 1.02181e-05
-1.91051e-05 1.02181e-05 -0.000639973
-0.00130733 0.000543519 -0.000109096
0.000543519 0.000492674 -7.37438e-05
-0.000109096 -7.37438e-05 -0.000716319
0.00154109 0.000841623 -5.18676e-05
0.000841623 0.000753442 -3.43757e-05
-5.18676e-05 -3.43757e-05 0.000297127
0.00241552 0.00190692 7.36767e-06
0.00190692 0.000788606 -1.05169e-05
7.36767e-06 -1.05169e-05 -0.000251592
-0.00134748 0.00189512 0.000106557
0.00189512 -0.00202198 5.57582e-05
0.000106557 5.57582e-05 -0.00247162
-0.00686781 -0.00063914 -0.000783081
-0.00063914 -0.00360852 6.21969e-05
-0.000783081 6.21969e-05 -0.00473475
-0.00985966 0.000518794 0.000534141
0.000518794 0.00641976 1.83648e-05
0.000534141 1.83648e-05 -0.000743454
0.00280026 -8.24563e-06 -0.000164134
-8.24563e-06 0.00216624 3.48007e-05
-0.000164134 3.48007e-05 0.000125089
0.00116726 -0.00119064 -5.9665e-05
-0.00119064 0.00113363 -4.78578e-05
-5.9665e-05 -4.78578e-05 0.000127788
-0.00116751 -0.00238103 0.000129322
-0.00238103 -0.000512165 3.27464e-05
0.000129322 3.27464e-05 -0.000273893
0.00109696 0.00112388 0.000167037
0.00112388 0.0086834 6.87028e-05
0.000167037 6.87028e-05 0.00306118
0.00425082 -0.00484352 0.000640651
-0.00484352 -0.00180077 -8.59405e-05
0.000640651 -8.59405e-05 -0.00327496
0.025503 0.00465424 0.0012177
0.00465424 0.0114635 -8.47622e-05
0.0012177 -8.47622e-05 0.00697838
0.00180611 -0.00223637 -2.21554e-05
-0.00223637 0.000459039 3.87998e-06
-2.21554e-05 3.87998e-06 -0.000353877
0.00370622 0.00214636 0.000362496
0.00214636 0.00172328 -0.000107622
0.000362496 -0.000107622 -0.00158442
0.00759188 -0.00309131 -0.000204846
-0.00309131 -0.00354955 0.000176293
-0.000204846 0.000176293 -0.00527633
0.00278344 -0.00311665 -5.64487e-06
-0.00311665 -0.00106729 2.56208e-05
-5.64487e-06 2.56208e-05 0.000434008
0.00266079 -0.00181264 7.75211e-05
-0.00181264 0.00019677 -1.84334e-05
7.75211e-05 -1.84334e-05 -3.9267e-05
0.0191105 -0.00109243 -0.000110845
-0.00109243 0.00334891 6.85113e-05
-0.000110845 6.85113e-05 0.00246935
0.00276431 -0.00228231 0.000134291
-0.00228231 -0.00367845 -8.75899e-05
0.000134291 -8.75899e-05 -0.00150841
-0.000992549 -0.00083621 -2.41676e-05
-0.00083621 -0.000997548 4.41462e-05
-2.41676e-05 4.41462e-05 -0.00116379
0.000387947 -0.000767442 -3.91347e-05
-0.000767442 -0.000520554 4.71206e-06
-3.91347e-05 4.71206e-06 -0.000715764
0.00640541 -0.00136176 6.34279e-05
-0.00136176 0.00239214 -2.51517e-05
6.34279e-05 -2.51517e-05 0.00211141
0.000150818 -0.000813681 -1.24852e-05
-0.000813681 -0.000570526 6.47142e-06
-1.24852e-05 6.47142e-06 -0.00103169
0.00223025 -0.00109371 -2.27784e-06
-0.00109371 0.000289115 -2.31041e-06
-2.27784e-06 -2.31041e-06 -0.000145858
0.00292031 -0.000964988 1.85269e-06
-0.000964988 0.000343026 -3.38686e-06
1.85269e-06 -3.38686e-06 0.000128215
0.00223979 -0.00111755 1.0022e-05
-0.00111755 0.000403182 1.07674e-05
1.0022e-05 1.07674e-05 -0.00015584
0.00239321 -0.000897792 -2.24728e-06
-0.000897792 0.000248772 6.02923e-07
-2.24728e-06 6.02923e-07 -8.46433e-05
0.00225937 -0.000641874 -5.37539e-07
-0.000641874 1.16735e-06 -9.95507e-07
-5.37539e-07 -9.95507e-07 -0.000104336
0.00184956 -0.000796716 9.98576e-06
-0.000796716 0.000128703 6.69536e-06
9.98576e-06 6.69536e-06 -0.000272054
0.00213703 -0.000604462 -2.33565e-07
-0.000604462 8.14589e-05 2.5597e-06
-2.33565e-07 2.5597e-06 -0.000134466
0.00224475 -0.000595338 -2.25432e-06
-0.000595338 0.000101068 2.39312e-06
-2.25432e-06 2.39312e-06 -3.29564e-05
0.00219999 -0.000567271 -3.43158e-06
-0.000567271 0.000174719 1.7789e-06
-3.43158e-06 1.7789e-06 1.20594e-05
0.00213678 -0.000538743 -3.12489e-06
-0.000538743 0.000153898 2.94455e-06
-3.12489e-06 2.94455e-06 -3.02635e-05
0.00217845 -0.00053859 -1.68876e-06
-0.00053859 0.000246723 -2.43618e-06
-1.68876e-06 -2.43618e-06 4.45346e-05
0.00216109 -0.000625543 -6.55333e-06
-0.000625543 0.000238236 -2.73771e-06
-6.55333e-06 -2.73771e-06 -4.34709e-05
0.00207011 -0.000606609 1.33656e-06
-0.000606609 0.000157688 1.18388e-06
1.33656e-06 1.18388e-06 -0.00011231
0.00199157 -0.00057571 3.64139e-06
-0.00057571 6.38266e-05 7.24994e-06
3.64139e-06 7.24994e-06 -0.00018685
0.00206415 -0.000732446 -6.68009e-06
-0.000732446 0.000352334 -3.70787e-06
-6.68009e-06 -3.70787e-06 -3.9833e-05
0.00180449 -0.000738301 -7.06139e-07
-0.000738301 0.000116471 1.64145e-07
-7.06139e-07 1.64145e-07 -0.000271025
0.00235074 -0.000861276 7.20942e-06
-0.000861276 0.000435205 2.14508e-06
7.20942e-06 2.14508e-06 1.29033e-05
0.00153836 -0.000614593 -1.11091e-05
-0.000614593 0.000291616 2.67863e-06
-1.11091e-05 2.67863e-06 -0.000113056
0.00204311 -0.000812504 -4.01971e-07
-0.000812504 0.000512208 8.71726e-07
-4.01971e-07 8.71726e-07 4.25864e-05
0.00220126 -0.0009126 4.60981e-06
-0.0009126 0.000558068 1.17752e-06
4.60981e-06 1.17752e-06 5.91471e-05
0.000819323 -0.000259238 -8.343e-06
-0.000259238 0.000108254 7.54306e-06
-8.343e-06 7.54306e-06 -0.000130027
0.00130337 -0.000487288 1.45081e-06
-0.000487288 0.000294098 5.45063e-07
1.45081e-06 5.45063e-07 -6.10307e-05
0.00151946 -0.000674363 -3.27316e-06
-0.000674363 0.000386007 3.14522e-06
-3.27316e-06 3.14522e-06 -5.68008e-05
0.000463198 -0.000162749 -2.75733e-05
-0.000162749 -7.16539e-05 1.56765e-05
-2.75733e-05 1.56765e-05 -0.000179212
0.000597541 -0.000229948 -2.84734e-06
-0.000229948 2.88111e-05 -2.7029e-07
-2.84734e-06 -2.7029e-07 -0.000213848
0.00030208 -0.000325828 2.69646e-06
-0.000325828 -0.000239652 -1.78784e-06
2.69646e-06 -1.78784e-06 -0.000534937
0.00478605 0.000230701 -0.000100162
0.000230701 0.00281661 1.07769e-05
-0.000100162 1.07769e-05 0.00278139
0.000552716 -0.000111755 2.22518e-06
-0.000111755 1.03235e-05 3.70904e-08
2.22518e-06 3.70904e-08 -8.34048e-05
0.00128047 -0.000276497 7.03709e-06
-0.000276497 0.000516023 -1.82772e-06
7.03709e-06 -1.82772e-06 0.000261054
0.00273667 0.000139558 6.38934e-05
0.000139558 0.00148062 1.57696e-06
6.38934e-05 1.57696e-06 0.00145027
0.000774123 -6.41893e-05 1.39461e-05
-6.41893e-05 0.000169848 -1.48105e-05
1.39461e-05 -1.48105e-05 9.12562e-05
0.00383839 0.000131803 9.46602e-05
0.000131803 0.00216488 -7.07985e-06
9.46602e-05 -7.07985e-06 0.00216003
0.00194482 0.000411823 1.50751e-06
0.000411823 0.000798555 -1.479e-06
1.50751e-06 -1.479e-06 0.000534089
0.000514043 0.000195098 -4.80585e-06
0.000195098 -2.43897e-05 1.61146e-07
-4.80585e-06 1.61146e-07 -0.000238847
0.000313416 0.000196013 4.79813e-07
0.000196013 -3.54625e-05 -4.53042e-06
4.79813e-07 -4.53042e-06 -0.000301223
0.000493031 0.000182515 -1.56309e-06
0.000182515 0.00010133 5.39238e-06
-1.56309e-06 5.39238e-06 -0.00015188
0.000825647 0.000121601 1.24011e-07
0.000121601 0.000341551 2.15771e-07
1.24011e-07 2.15771e-07 6.26299e-05
0.00107261 0.000150015 -1.44688e-06
0.000150015 0.000401706 -9.81568e-06
-1.44688e-06 -9.81568e-06 0.000214932
0.000662984 5.554e-05 -8.52592e-06
5.554e-05 0.000121066 -1.50931e-05
-8.52592e-06 -1.50931e-05 6.39205e-05
0.000647717 0.000101924 1.79819e-07
0.000101924 0.00013793 -7.73958e-08
1.79819e-07 -7.73958e-08 -1.32309e-05
-0.00071988 1.39353e-05 -6.52699e-06
1.39353e-05 -0.000650861 4.55814e-06
-6.52699e-06 4.55814e-06 -0.00088387
0.00313441 -0.000100287 -6.83121e-05
-0.000100287 0.0017075 -6.50348e-06
-6.83121e-05 -6.50348e-06 0.00171114
0.000378398 2.5746e-05 1.34978e-06
2.5746e-05 -5.4843e-05 -3.18615e-07
1.34978e-06 -3.18615e-07 -0.00010066
0.000673575 6.90495e-05 -3.87705e-06
6.90495e-05 0.000158657 8.90204e-06
-3.87705e-06 8.90204e-06 3.06686e-05
0.00283698 -8.99401e-05 -8.20804e-06
-8.99401e-05 0.00150952 7.26075e-07
-8.20804e-06 7.26075e-07 0.00151459
0.00032979 -1.2369e-05 -1.27773e-06
-1.2369e-05 -9.12694e-05 9.03084e-06
-1.27773e-06 9.03084e-06 -0.00012775
0.00258857 -6.97424e-05 3.03256e-05
-6.97424e-05 0.00134308 5.45997e-06
3.03256e-05 5.45997e-06 0.0013519
0.00221454 -0.000162453 -0.00119953
-0.000162453 0.00439912 -7.60053e-05
-0.00119953 -7.60053e-05 0.00200935
-0.0055391 -7.5104e-06 1.92367e-05
-7.5104e-06 0.00597491 -1.93743e-05
1.92367e-05 -1.93743e-05 -0.00185679
0.00629371 0.000394532 -0.000369431
0.000394532 0.00385158 -0.000100058
-0.000369431 -0.000100058 0.00129842
-0.000176742 8.90894e-05 5.72711e-06
8.90894e-05 -0.000429577 -3.9019e-06
5.72711e-06 -3.9019e-06 -0.000675217
0.000263457 0.000133855 7.02055e-06
0.000133855 -6.30491e-05 5.10401e-06
7.02055e-06 5.10401e-06 -0.000420799
0.00299897 0.000725305 -3.66757e-06
0.000725305 0.00155484 3.15817e-06
-3.66757e-06 3.15817e-06 0.00112867
0.00236578 0.000849962 1.83431e-05
0.000849962 0.00101228 1.10137e-05
1.83431e-05 1.10137e-05 0.000470227
0.000996957 0.000590365 1.12483e-05
0.000590365 0.000499785 1.21817e-05
1.12483e-05 1.21817e-05 2.17377e-05
0.00207725 0.000290165 -7.66183e-06
0.000290165 0.00123645 6.64072e-06
-7.66183e-06 6.64072e-06 0.000930072
0.0022031 0.000305267 1.09792e-05
0.000305267 0.0012062 8.7231e-06
1.09792e-05 8.7231e-06 0.000879441
0.000983344 0.000599676 -4.80363e-06
0.000599676 0.000488341 7.32578e-07
-4.80363e-06 7.32578e-07 -2.07236e-05
0.000253687 0.000788923 1.6512e-05
0.000788923 -0.000374372 -6.19673e-06
1.6512e-05 -6.19673e-06 -0.000782131
0.00294393 0.00104705 -8.54753e-06
0.00104705 0.00118552 3.2378e-05
-8.54753e-06 3.2378e-05 0.000879948
0.00168497 0.00107855 3.48461e-05
0.00107855 0.000164706 1.24297e-05
3.48461e-05 1.24297e-05 -1.87028e-05
0.0015873 0.000788314 -1.43569e-06
0.000788314 0.000615076 -1.78831e-06
-1.43569e-06 -1.78831e-06 0.000332581
0.00213253 0.000542296 -3.62526e-06
0.000542296 0.00127538 2.96239e-05
-3.62526e-06 2.96239e-05 0.000806827
0.0144149 0.00345593 -0.000149539
0.00345593 0.00133676 5.51583e-05
-0.000149539 5.51583e-05 0.00043235
0.00517848 -0.00280997 -0.00072412
-0.00280997 0.0046447 -0.000240126
-0.00072412 -0.000240126 0.000804498
0.00157091 -0.00511031 0.00112985
-0.00511031 0.00898256 0.000254842
0.00112985 0.000254842 0.00183432
0.0137501 -0.00340799 0.000449164
-0.00340799 0.00543177 0.000302032
0.000449164 0.000302032 3.13882e-05
0.0132958 0.00634172 -0.000114297
0.00634172 0.00453835 -5.80502e-05
-0.000114297 -5.80502e-05 0.000334188
-0.00260164 0.000485245 -1.2818e-05
0.000485245 0.000668526 -2.21366e-05
-1.2818e-05 -2.21366e-05 -1.16675e-05
0.00208008 0.00242408 -8.92256e-05
0.00242408 0.000522379 -3.47575e-05
-8.92256e-05 -3.47575e-05 0.00151006
0.0155726 0.00629801 1.99527e-05
0.00629801 0.00227522 4.11819e-05
1.99527e-05 4.11819e-05 -0.000365036
0.00710132 0.00457939 -0.000140658
0.00457939 -0.000445395 -0.000132493
-0.000140658 -0.000132493 0.000417254
0.00172628 0.0014336 5.72464e-06
0.0014336 0.000163151 5.03052e-06
5.72464e-06 5.03052e-06 -0.000176568
0.00152772 0.0010915 1.29367e-05
0.0010915 0.000422811 -3.94598e-06
1.29367e-05 -3.94598e-06 7.8925e-05
0.00169217 0.000680419 -3.44092e-05
0.000680419 0.000752035 -1.77655e-07
-3.44092e-05 -1.77655e-07 0.000579272
0.00224947 0.00197525 -7.83378e-05
0.00197525 0.000536191 -2.87816e-05
-7.83378e-05 -2.87816e-05 -0.000471776
0.00164646 0.00226671 9.64824e-05
0.00226671 -0.000706851 5.13183e-05
9.64824e-05 5.13183e-05 -0.00130081
0.00376058 -0.00030049 -0.000147194
-0.00030049 -0.00553894 4.64768e-05
-0.000147194 4.64768e-05 -0.00583861
0.000297235 -0.00216658 1.56558e-05
-0.00216658 0.00296748 3.45173e-05
1.56558e-05 3.45173e-05 0.00125536
-0.0134018 -0.000399306 0.000433279
-0.000399306 0.00721191 -1.94079e-05
0.000433279 -1.94079e-05 0.00116921
0.0017352 -0.00265877 -8.92148e-05
-0.00265877 6.10953e-05 4.50188e-05
-8.92148e-05 4.50188e-05 -0.00100143
0.00653694 -0.00415431 2.68958e-05
-0.00415431 0.000115645 5.40831e-05
2.68958e-05 5.40831e-05 0.00106488
0.00383086 0.000364185 0.00126979
0.000364185 0.00460857 -0.00029955
0.00126979 -0.00029955 0.00233646
0.0152866 -0.00325478 -0.000373006
-0.00325478 0.00129341 0.00020539
-0.000373006 0.00020539 0.000965727
0.00182947 -0.00178274 -2.9916e-05
-0.00178274 -0.00019373 4.98345e-06
-2.9916e-05 4.98345e-06 -0.000547104
0.0120638 -0.000242084 -0.000243885
-0.000242084 -0.00194932 8.73384e-05
-0.000243885 8.73384e-05 -0.00246815
0.00727348 -0.00263882 9.80649e-05
-0.00263882 -0.000890838 1.08462e-05
9.80649e-05 1.08462e-05 0.000486561
0.00371931 -0.0015162 6.41535e-05
-0.0015162 0.000117746 -4.09989e-05
6.41535e-05 -4.09989e-05 5.12469e-05
0.00252876 -0.00101586 1.65747e-05
-0.00101586 -0.00278873 7.64672e-07
1.65747e-05 7.64672e-07 -0.00094607
-0.00306396 -0.000429825 1.9522e-06
-0.000429825 -0.00241503 2.1668e-05
1.9522e-06 2.1668e-05 -0.00244922
0.00136276 -0.000877455 -2.18704e-05
-0.000877455 -0.000411349 3.90074e-06
-2.18704e-05 3.90074e-06 -0.000416301
0.00389781 -0.000917292 4.09243e-05
-0.000917292 0.000743343 -1.34177e-05
4.09243e-05 -1.34177e-05 0.000800412
0.00162818 -0.00101864 -1.33217e-05
-0.00101864 -2.37749e-05 6.68015e-06
-1.33217e-05 6.68015e-06 -0.000437474
0.00242715 -0.000921401 -4.42359e-06
-0.000921401 7.35157e-05 3.00913e-06
-4.42359e-06 3.00913e-06 -0.00013873
0.0025937 -0.000734865 5.79857e-06
-0.000734865 -7.59647e-06 1.11444e-08
5.79857e-06 1.11444e-08 -1.65583e-05
0.00224022 -0.0008631 -1.85767e-06
-0.0008631 0.000178915 9.36638e-06
-1.85767e-06 9.36638e-06 -0.000140607
0.00223612 -0.000639401 3.54054e-07
-0.000639401 -1.37317e-05 1.35111e-06
3.54054e-07 1.35111e-06 -0.000117648
0.00240526 -0.000640226 -3.94687e-07
-0.000640226 5.78987e-05 4.51602e-07
-3.94687e-07 4.51602e-07 1.90004e-05
0.0019895 -0.000582279 4.78529e-06
-0.000582279 -5.41276e-06 5.53257e-06
4.78529e-06 5.53257e-06 -0.000209029
0.00219253 -0.000589871 -4.94857e-08
-0.000589871 7.01974e-05 1.10049e-06
-4.94857e-08 1.10049e-06 -6.18555e-05
0.00234346 -0.000626477 -1.87268e-06
-0.000626477 0.000122494 1.88156e-06
-1.87268e-06 1.88156e-06 1.1781e-05
0.00218427 -0.000573553 -4.67995e-06
-0.000573553 0.000154945 1.63985e-06
-4.67995e-06 1.63985e-06 -2.86778e-06
0.00223789 -0.000557642 -9.19121e-07
-0.000557642 0.000243619 7.80315e-08
-9.19121e-07 7.80315e-08 7.06105e-05
0.00221072 -0.000546308 1.23749e-06
-0.000546308 0.000192208 3.76158e-06
1.23749e-06 3.76158e-06 1.32763e-05
0.00217318 -0.000537584 7.43121e-07
-0.000537584 0.000242258 -5.55987e-07
7.43121e-07 -5.55987e-07 4.04781e-05
0.00210388 -0.000555577 -3.13917e-06
-0.000555577 0.000207305 -1.6707e-06
-3.13917e-06 -1.6707e-06 -1.5189e-05
0.00219969 -0.000613753 -3.48885e-06
-0.000613753 0.000336466 -4.69828e-06
-3.48885e-06 -4.69828e-06 3.94249e-05
0.00222594 -0.000634509 -5.9346e-07
-0.000634509 0.000282249 6.72299e-08
-5.9346e-07 6.72299e-08 -2.658e-06
0.00230371 -0.000623092 7.66728e-06
-0.000623092 0.000312715 4.26778e-06
7.66728e-06 4.26778e-06 4.25164e-05
0.00180146 -0.000635962 -1.06353e-05
-0.000635962 0.000291235 1.36511e-06
-1.06353e-05 1.36511e-06 -9.52005e-05
0.00200535 -0.000726957 -1.93127e-06
-0.000726957 0.000313897 -5.35218e-07
-1.93127e-06 -5.35218e-07 -8.02866e-05
0.00182313 -0.00074973 5.0427e-06
-0.00074973 0.000110889 2.88937e-06
5.0427e-06 2.88937e-06 -0.000281616
0.000914777 -0.000309233 -1.31851e-05
-0.000309233 7.30886e-05 8.5062e-06
-1.31851e-05 8.5062e-06 -0.000188303
0.00157641 -0.000614181 5.89836e-07
-0.000614181 0.000325938 6.34318e-07
5.89836e-07 6.34318e-07 -7.70576e-05
0.00214217 -0.000823038 1.68659e-06
-0.000823038 0.00057347 3.42717e-06
1.68659e-06 3.42717e-06 0.000102034
0.000146983 -0.000199485 -1.94802e-05
-0.000199485 -0.000271089 2.08579e-05
-1.94802e-05 2.08579e-05 -0.000409723
0.000643559 -0.000257067 3.33987e-07
-0.000257067 1.12826e-06 4.91358e-07
3.33987e-07 4.91358e-07 -0.000243252
0.000998392 -0.000456143 8.74709e-06
-0.000456143 9.72365e-05 -1.74149e-06
8.74709e-06 -1.74149e-06 -0.00025073
0.0057154 0.000141992 -0.000177347
0.000141992 0.00337363 1.18712e-05
-0.000177347 1.18712e-05 0.0033631
0.00049393 -0.00018635 -6.487e-06
-0.00018635 -5.00718e-05 -1.16199e-06
-6.487e-06 -1.16199e-06 -0.000163323
0.000754721 -0.00026519 4.92199e-06
-0.00026519 0.000151144 -4.18298e-06
4.92199e-06 -4.18298e-06 -0.000109112
0.00511554 0.000173628 1.76217e-05
0.000173628 0.00300873 -5.70732e-07
1.76217e-05 -5.70732e-07 0.00299014
0.000627782 -0.000141211 2.69938e-05
-0.000141211 5.3819e-05 -1.46659e-05
2.69938e-05 -1.46659e-05 -4.43764e-05
0.00453189 0.000142158 0.000135779
0.000142158 0.00262028 -1.03189e-05
0.000135779 -1.03189e-05 0.00261217
0.00262625 0.000765562 4.7177e-06
0.000765562 0.0011775 2.62098e-06
4.7177e-06 2.62098e-06 0.000702532
0.000758885 0.000327568 -2.42904e-06
0.000327568 6.99897e-05 -2.21226e-06
-2.42904e-06 -2.21226e-06 -0.000191399
0.000619508 0.00019831 5.9676e-06
0.00019831 1.35648e-05 1.41623e-06
5.9676e-06 1.41623e-06 -0.000206338
-0.000722908 7.49435e-05 -1.92938e-06
7.49435e-05 -0.000799011 -2.78054e-06
-1.92938e-06 -2.78054e-06 -0.00101082
0.000303265 0.00018012 1.83074e-06
0.00018012 -8.58846e-05 1.35142e-06
1.83074e-06 1.35142e-06 -0.000322555
0.000966087 0.000171686 -3.06159e-06
0.000171686 0.000321889 -1.10568e-05
-3.06159e-06 -1.10568e-05 0.000106354
0.00011685 7.60689e-05 -3.01781e-06
7.60689e-05 -0.000115223 1.38245e-06
-3.01781e-06 1.38245e-06 -0.000385986
0.000724684 0.000107208 1.81254e-07
0.000107208 0.000201472 7.41816e-07
1.81254e-07 7.41816e-07 7.43008e-06
0.00064289 6.96744e-05 -1.23215e-05
6.96744e-05 0.000102605 -1.76213e-05
-1.23215e-05 -1.76213e-05 2.8123e-05
0.00348933 -0.000107955 -9.58897e-05
-0.000107955 0.0019445 -9.16792e-06
-9.58897e-05 -9.16792e-06 0.00194572
0.000386424 2.76293e-05 1.76178e-06
2.76293e-05 -4.67912e-05 -5.19551e-07
1.76178e-06 -5.19551e-07 -0.000104795
0.000402438 6.71803e-05 -2.70945e-06
6.71803e-05 -8.6077e-06 9.67777e-06
-2.70945e-06 9.67777e-06 -0.000157148
0.00300693 -0.000110185 -9.80546e-06
-0.000110185 0.00162704 9.53506e-07
-9.80546e-06 9.53506e-07 0.00162748
0.000253982 -5.81627e-05 -8.72466e-06
-5.81627e-05 -0.000123784 1.21799e-05
-8.72466e-06 1.21799e-05 -0.000174257
0.00274291 -8.90639e-05 3.7939e-05
-8.90639e-05 0.00144953 5.58104e-06
3.7939e-05 5.58104e-06 0.00145433
0.0158043 0.000752263 0.000592826
0.000752263 0.00151394 0.00014191
0.000592826 0.00014191 0.00157007
4.16433e-05 -0.00381815 -0.000715401
-0.00381815 -0.0018816 -9.4614e-05
-0.000715401 -9.4614e-05 -0.0052168
-0.00930397 0.00172158 -0.000259203
0.00172158 0.00558091 -0.000129534
-0.000259203 -0.000129534 -0.00226993
-1.75736e-05 6.8043e-05 1.21901e-05
6.8043e-05 -0.000242861 -1.79535e-05
1.21901e-05 -1.79535e-05 -0.000617573
0.00140679 0.000525504 -8.36849e-06
0.000525504 0.000583894 -3.45451e-06
-8.36849e-06 -3.45451e-06 0.000191227
0.00272274 0.000765105 -1.14668e-05
0.000765105 0.00147783 -3.77343e-06
-1.14668e-05 -3.77343e-06 0.000957355
0.00135417 0.000716842 1.26219e-06
0.000716842 0.000397687 -7.75948e-07
1.26219e-06 -7.75948e-07 -0.000110133
0.00162429 0.000795862 1.21624e-05
0.000795862 0.000324057 2.15277e-05
1.21624e-05 2.15277e-05 -0.000154824
-0.00048007 0.000600067 3.45614e-05
0.000600067 -0.000747169 1.11178e-05
3.45614e-05 1.11178e-05 -0.00116448
0.000657806 0.000489828 -1.31938e-05
0.000489828 0.000353119 6.34827e-06
-1.31938e-05 6.34827e-06 -0.000154245
2.91813e-05 0.000735232 7.34785e-06
0.000735232 -0.000508015 -4.52494e-07
7.34785e-06 -4.52494e-07 -0.00089277
0.00227289 0.000971841 1.49978e-05
0.000971841 0.000856144 5.94647e-06
1.49978e-05 5.94647e-06 0.000507333
0.000142773 0.000748882 7.08733e-06
0.000748882 -0.000580166 -4.39017e-06
7.08733e-06 -4.39017e-06 -0.000895357
0.00388697 0.00123005 8.15717e-06
0.00123005 0.00137125 1.25942e-05
8.15717e-06 1.25942e-05 0.00112306
0.00182027 0.00109186 2.38439e-05
0.00109186 0.000260653 6.52179e-06
2.38439e-05 6.52179e-06 -0.000106772
0.00076728 0.000956455 6.40353e-06
0.000956455 -0.000364862 -5.99251e-07
6.40353e-06 -5.99251e-07 -0.000466634
0.00111774 0.000673136 -9.48428e-06
0.000673136 0.000343784 -6.99553e-05
-9.48428e-06 -6.99553e-05 8.79633e-05
0.0043085 0.00221257 2.58576e-05
0.00221257 -0.00269436 3.81937e-05
2.58576e-05 3.81937e-05 -0.000481103
0.014027 0.00422075 0.00034215
0.00422075 -1.85165e-05 0.000193947
0.00034215 0.000193947 -0.00132649
0.0134299 -0.00569845 0.000764111
-0.00569845 0.00661758 -6.68527e-05
0.000764111 -6.68527e-05 0.00196775
0.00577506 0.00662289 0.000729321
0.00662289 -0.00131296 0.000388545
0.000729321 0.000388545 -0.00537817
-0.000539367 0.00161025 -5.08333e-05
0.00161025 -5.91999e-05 1.68409e-05
-5.08333e-05 1.68409e-05 0.000643104
0.00359842 0.00291969 -9.54088e-05
0.00291969 -0.00105118 -5.49162e-05
-9.54088e-05 -5.49162e-05 0.000300708
0.00662157 0.00263666 5.84594e-05
0.00263666 0.00111092 3.3257e-05
5.84594e-05 3.3257e-05 0.000897821
0.0051406 0.00197504 2.41159e-05
0.00197504 0.00169339 9.66956e-06
2.41159e-05 9.66956e-06 0.0012273
0.000573443 0.000928723 -3.3116e-05
0.000928723 -9.2747e-05 2.58332e-06
-3.3116e-05 2.58332e-06 -0.000361546
0.0081628 0.00313721 -0.000203337
0.00313721 0.00231927 -1.39977e-05
-0.000203337 -1.39977e-05 0.00146351
0.00368522 -0.000719689 -8.84211e-07
-0.000719689 -0.00126166 2.29307e-05
-8.84211e-07 2.29307e-05 4.38141e-05
0.0118088 -0.00061807 -5.81362e-05
-0.00061807 0.000287442 -3.07168e-05
-5.81362e-05 -3.07168e-05 0.000732554
-0.0131869 -0.00359096 0.00101549
-0.00359096 -0.00449769 -3.8656e-06
0.00101549 -3.8656e-06 -0.00663058
0.00133171 -0.00158781 -0.000134736
-0.00158781 -0.000338346 4.14331e-05
-0.000134736 4.14331e-05 -0.00062078
0.00834364 -0.00318844 -3.72836e-05
-0.00318844 -0.0011043 8.82871e-05
-3.72836e-05 8.82871e-05 0.000501951
0.0015138 -0.000358125 -0.000364301
-0.000358125 -0.00613356 4.26675e-05
-0.000364301 4.26675e-05 -0.00717953
0.00329908 -0.0013321 3.70994e-05
-0.0013321 -0.000114195 1.47849e-06
3.70994e-05 1.47849e-06 0.000118624
0.00526369 -0.000981122 -6.35195e-05
-0.000981122 -0.00106396 2.34225e-06
-6.35195e-05 2.34225e-06 0.000259794
0.00664679 -0.00110892 5.80694e-05
-0.00110892 0.00156108 -3.68277e-05
5.80694e-05 -3.68277e-05 0.00199724
0.00585026 -0.000624411 0.000120471
-0.000624411 0.000956028 -2.4847e-06
0.000120471 -2.4847e-06 0.00150362
-0.0028117 -0.000497091 1.17254e-05
-0.000497091 -0.00281421 1.20082e-05
1.17254e-05 1.20082e-05 -0.00252191
0.00220124 -0.000772744 -8.80388e-06
-0.000772744 -0.000243253 2.47135e-06
-8.80388e-06 2.47135e-06 -4.73809e-05
0.00245282 -0.000583629 2.5263e-05
-0.000583629 -0.000285203 -6.03993e-06
2.5263e-05 -6.03993e-06 2.62156e-05
0.00202304 -0.000892494 -1.00871e-06
-0.000892494 -0.000153273 4.00327e-06
-1.00871e-06 4.00327e-06 -0.000367715
0.0025207 -0.000728251 1.17682e-06
-0.000728251 -4.28466e-05 1.6491e-06
1.17682e-06 1.6491e-06 -5.13395e-05
0.00256227 -0.000636302 1.01327e-06
-0.000636302 1.12519e-05 -1.25779e-07
1.01327e-06 -1.25779e-07 2.56361e-05
0.00225079 -0.000642452 2.91267e-06
-0.000642452 -7.12754e-06 4.98139e-06
2.91267e-06 4.98139e-06 -0.000112265
0.00236744 -0.000635152 1.51938e-07
-0.000635152 4.91883e-05 3.87588e-07
1.51938e-07 3.87588e-07 3.2923e-06
0.00236092 -0.00055858 -1.90789e-06
-0.00055858 3.80523e-05 7.74042e-08
-1.90789e-06 7.74042e-08 -1.18001e-05
0.00215063 -0.000586589 2.91742e-06
-0.000586589 4.35816e-05 3.81396e-07
2.91742e-06 3.81396e-07 -8.77405e-05
0.00234005 -0.000622666 2.16763e-08
-0.000622666 0.000148514 3.49269e-09
2.16763e-08 3.49269e-09 3.30224e-05
0.00222334 -0.000546445 4.75591e-07
-0.000546445 0.000126586 6.40723e-07
4.75591e-07 6.40723e-07 4.06523e-06
0.00218911 -0.000581027 -2.69226e-06
-0.000581027 0.000147142 -1.52021e-07
-2.69226e-06 -1.52021e-07 -6.4669e-06
0.00218181 -0.000549375 -1.57563e-06
-0.000549375 0.00020572 2.04699e-07
-1.57563e-06 2.04699e-07 3.55528e-05
0.00226588 -0.000542367 -2.40038e-06
-0.000542367 0.000288757 2.67149e-07
-2.40038e-06 2.67149e-07 9.58622e-05
0.00218075 -0.000535833 3.85959e-06
-0.000535833 0.000245627 1.65088e-06
3.85959e-06 1.65088e-06 4.46553e-05
0.00212947 -0.000556474 -3.70356e-07
-0.000556474 0.000221269 -6.53793e-10
-3.70356e-07 -6.53793e-10 -1.13951e-06
0.00217247 -0.00055511 -1.05488e-06
-0.00055511 0.000285487 -2.32131e-06
-1.05488e-06 -2.32131e-06 3.87931e-05
0.00187733 -0.000550808 -7.67177e-06
-0.000550808 0.00024183 -1.3618e-06
-7.67177e-06 -1.3618e-06 -7.30816e-05
0.00211154 -0.000612505 -5.22666e-07
-0.000612505 0.000278489 -1.39217e-06
-5.22666e-07 -1.39217e-06 -2.50694e-05
0.00229209 -0.000643954 4.67263e-06
-0.000643954 0.000327541 3.04978e-06
4.67263e-06 3.04978e-06 3.92524e-05
0.00109935 -0.000365438 -1.97672e-05
-0.000365438 5.85703e-05 9.57332e-06
-1.97672e-05 9.57332e-06 -0.000216956
0.00186284 -0.000634016 -6.56545e-07
-0.000634016 0.000341242 7.79088e-07
-6.56545e-07 7.79088e-07 -4.20732e-05
0.00195629 -0.000722245 2.08435e-06
-0.000722245 0.000281761 2.58164e-06
2.08435e-06 2.58164e-06 -0.000114542
0.000259106 -0.000212599 -1.77333e-05
-0.000212599 -0.000233778 2.2923e-05
-1.77333e-05 2.2923e-05 -0.000383716
0.000790024 -0.000311899 2.08465e-06
-0.000311899 -1.33426e-05 1.80278e-08
2.08465e-06 1.80278e-08 -0.000279672
0.00163499 -0.000616094 1.17979e-05
-0.000616094 0.000372665 -1.37754e-06
1.17979e-05 -1.37754e-06 -2.91658e-05
0.00678538 5.56351e-05 -0.000256603
5.56351e-05 0.00401904 1.78491e-05
-0.000256603 1.78491e-05 0.00402391
0.000338149 -0.000216656 -2.43909e-06
-0.000216656 -0.000153785 -4.51347e-07
-2.43909e-06 -4.51347e-07 -0.000294075
0.000532424 -0.000257149 9.28258e-06
-0.000257149 -6.7399e-05 -6.97249e-06
9.28258e-06 -6.97249e-06 -0.000317496
0.00612883 0.000105001 -1.20011e-05
0.000105001 0.00363868 -2.6277e-06
-1.20011e-05 -2.6277e-06 0.0036303
0.000435942 -0.000189569 2.22202e-05
-0.000189569 -8.0069e-05 -1.83796e-05
2.22202e-05 -1.83796e-05 -0.000199348
0.00552891 0.000123447 0.000197615
0.000123447 0.00327304 -2.16789e-05
0.000197615 -2.16789e-05 0.00326156
0.00198063 0.000754829 -6.90007e-06
0.000754829 0.000583561 6.36835e-06
-6.90007e-06 6.36835e-06 0.000122877
0.00188906 0.000672799 -1.5165e-06
0.000672799 0.000690581 -1.19724e-06
-1.5165e-06 -1.19724e-06 0.000245809
0.00107295 0.000424226 -3.05194e-06
0.000424226 0.00021469 -1.21764e-06
-3.05194e-06 -1.21764e-06 -0.000118173
0.00130873 0.000424463 -7.14806e-06
0.000424463 0.000461115 -3.58603e-06
-7.14806e-06 -3.58603e-06 0.000159489
0.000478355 0.000216623 8.80133e-07
0.000216623 -5.12999e-05 -1.04512e-06
8.80133e-07 -1.04512e-06 -0.000287
0.000703313 0.000239497 -3.78946e-06
0.000239497 0.000135902 -6.63624e-06
-3.78946e-06 -6.63624e-06 -0.000112163
0.000339507 0.000115529 3.82965e-07
0.000115529 -7.28781e-05 1.21103e-06
3.82965e-07 1.21103e-06 -0.000296542
0.000679522 0.000158896 1.27808e-06
0.000158896 0.000171859 -7.83584e-07
1.27808e-06 -7.83584e-07 -6.43612e-05
0.000705232 0.000112539 -2.04401e-05
0.000112539 0.000121488 -1.91795e-05
-2.04401e-05 -1.91795e-05 2.81564e-05
2.45261e-05 8.97792e-05 -1.43547e-06
8.97792e-05 -0.00021879 1.12241e-05
-1.43547e-06 1.12241e-05 -0.000422865
0.000522694 7.44155e-05 4.4998e-07
7.44155e-05 3.17583e-05 -2.14729e-07
4.4998e-07 -2.14729e-07 -4.10499e-05
0.00423627 -0.00013453 -0.0001227
-0.00013453 0.00243854 -1.26919e-05
-0.0001227 -1.26919e-05 0.00243098
0.00351762 -0.000134849 -1.273e-05
-0.000134849 0.00196713 1.13591e-06
-1.273e-05 1.13591e-06 0.00196128
0.00033009 5.92007e-05 8.09267e-06
5.92007e-05 -8.13559e-05 1.52076e-05
8.09267e-06 1.52076e-05 -0.000138043
0.00301492 -0.00011329 4.60073e-05
-0.00011329 0.00163283 5.88915e-06
4.60073e-05 5.88915e-06 0.00163221
0.00355815 0.000264674 9.84182e-05
0.000264674 -0.00168709 3.4364e-05
9.84182e-05 3.4364e-05 0.000150199
0.00589026 -0.000856521 0.000225996
-0.000856521 -0.00508518 0.000111064
0.000225996 0.000111064 -0.00581784
0.0145122 -0.00418926 -0.000279082
-0.00418926 0.0065719 -0.000120859
-0.000279082 -0.000120859 0.00382718
0.00164222 0.000746006 6.39602e-06
0.000746006 0.000117959 1.03525e-05
6.39602e-06 1.03525e-05 -0.000276145
0.0049652 0.000995477 -1.46812e-05
0.000995477 0.00273317 -6.1722e-06
-1.46812e-05 -6.1722e-06 0.00218666
0.00036595 0.000583841 -9.65977e-06
0.000583841 -0.000198623 -9.34622e-06
-9.65977e-06 -9.34622e-06 -0.000670999
0.00159604 0.000861121 1.7192e-06
0.000861121 0.000499525 -2.89326e-06
1.7192e-06 -2.89326e-06 2.07675e-05
0.00186985 0.000825156 -1.48666e-06
0.000825156 0.000498661 4.10538e-06
-1.48666e-06 4.10538e-06 6.31132e-06
0.00177903 0.000899231 2.41039e-05
0.000899231 0.000374549 1.51927e-05
2.41039e-05 1.51927e-05 -5.37837e-05
0.00227987 0.000981703 -4.33106e-05
0.000981703 0.000842525 -5.01265e-06
-4.33106e-05 -5.01265e-06 0.000386212
0.000560416 0.000755807 1.30013e-05
0.000755807 -8.86206e-05 -3.91402e-05
1.30013e-05 -3.91402e-05 -0.000414866
0.00199496 0.00102779 -8.36479e-07
0.00102779 0.000461798 -1.4667e-06
-8.36479e-07 -1.4667e-06 8.39456e-05
0.00245066 0.00107453 1.18537e-05
0.00107453 0.000498642 -1.07771e-05
1.18537e-05 -1.07771e-05 0.000394934
0.00244081 0.00106752 2.1444e-05
0.00106752 0.000443261 -3.92255e-06
2.1444e-05 -3.92255e-06 5.40384e-05
0.00198238 0.000881765 2.87023e-05
0.000881765 0.00025304 2.47035e-05
2.87023e-05 2.47035e-05 4.60111e-05
0.000663977 0.000947512 -8.45014e-06
0.000947512 -0.000357351 -6.66037e-06
-8.45014e-06 -6.66037e-06 -0.000667399
0.000423784 0.000899654 -2.69413e-05
0.000899654 -0.000510928 -2.38598e-05
-2.69413e-05 -2.38598e-05 -0.000607151
0.00195849 0.00101506 5.59122e-05
0.00101506 -0.001137 3.9048e-05
5.59122e-05 3.9048e-05 -0.000520978
0.00620861 0.00235639 -0.000102677
0.00235639 -0.00178262 -3.30119e-05
-0.000102677 -3.30119e-05 0.000275111
0.00440423 0.00293675 0.000673174
0.00293675 -0.00566709 0.000174459
0.000673174 0.000174459 -0.00690709
0.00296278 0.0024867 -0.000232742
0.0024867 -0.000407141 -9.78862e-05
-0.000232742 -9.78862e-05 0.000645848
0.00514377 0.00216467 -3.18737e-05
0.00216467 0.000812129 -9.76391e-06
-3.18737e-05 -9.76391e-06 0.000703924
0.00600391 0.00212596 -0.000176527
0.00212596 0.00201029 -5.22082e-05
-0.000176527 -5.22082e-05 0.00151461
0.0031904 -0.000238292 -5.15781e-05
-0.000238292 -0.000562576 -1.96833e-05
-5.15781e-05 -1.96833e-05 -6.82577e-05
-0.000688066 -0.000404125 0.000108878
-0.000404125 -0.00186959 2.57053e-05
0.000108878 2.57053e-05 -0.000425598
0.00494478 0.000629684 0.000281178
0.000629684 -0.0055876 -1.85824e-05
0.000281178 -1.85824e-05 -0.00577575
0.000850858 -0.00102179 -6.21251e-05
-0.00102179 -0.00131915 7.97822e-05
-6.21251e-05 7.97822e-05 -0.000876882
0.00692296 -0.00109991 -0.000193315
-0.00109991 -0.000170403 5.75443e-05
-0.000193315 5.75443e-05 0.000677467
0.00293606 -0.000833076 -2.66013e-05
-0.000833076 -0.000539301 1.16365e-05
-2.66013e-05 1.16365e-05 4.23641e-05
0.0046883 -0.000603404 -1.3488e-05
-0.000603404 0.000401619 -2.29684e-06
-1.3488e-05 -2.29684e-06 0.000816546
0.00356857 -0.000455351 7.69519e-05
-0.000455351 0.000288449 -1.29284e-05
7.69519e-05 -1.29284e-05 0.000655519
0.00359957 -0.000122264 5.40524e-05
-0.000122264 0.000823804 -2.67717e-06
5.40524e-05 -2.67717e-06 0.000896832
0.000475157 -0.000606927 -2.05498e-05
-0.000606927 -0.00120085 1.13266e-05
-2.05498e-05 1.13266e-05 -0.000877455
0.00240803 -0.000609411 -3.02232e-06
-0.000609411 -0.000315986 7.50215e-07
-3.02232e-06 7.50215e-07 -3.09843e-05
0.00255491 -0.000489098 3.19033e-06
-0.000489098 -0.000214553 -1.12604e-06
3.19033e-06 -1.12604e-06 2.61019e-05
0.00243886 -0.000716037 -1.97529e-06
-0.000716037 -7.70045e-05 2.37243e-06
-1.97529e-06 2.37243e-06 -8.22123e-05
0.00254477 -0.000616418 -3.58282e-08
-0.000616418 2.6903e-05 -5.90193e-07
-3.58282e-08 -5.90193e-07 5.08691e-05
0.00241012 -0.000476612 -1.35479e-06
-0.000476612 -5.08345e-05 -3.23757e-07
-1.35479e-06 -3.23757e-07 -1.33481e-05
0.00232919 -0.00062832 -5.25994e-07
-0.00062832 4.25034e-05 5.76412e-07
-5.25994e-07 5.76412e-07 -9.10776e-06
0.00235082 -0.000562279 -7.68542e-07
-0.000562279 4.38884e-05 8.53558e-08
-7.68542e-07 8.53558e-08 -4.04362e-06
0.00224485 -0.000470612 -9.09862e-07
-0.000470612 5.71183e-05 7.43e-07
-9.09862e-07 7.43e-07 -7.35769e-06
0.00233179 -0.000617889 2.15768e-08
-0.000617889 0.00017202 -1.69046e-06
2.15768e-08 -1.69046e-06 5.25318e-05
0.0022074 -0.000546644 9.64834e-07
-0.000546644 0.000113956 -4.19099e-07
9.64834e-07 -4.19099e-07 -8.89923e-06
0.0021453 -0.000496399 -1.37021e-06
-0.000496399 0.000140698 4.31227e-07
-1.37021e-06 4.31227e-07 -7.11368e-06
0.00212278 -0.000541563 -1.77326e-06
-0.000541563 0.000166553 3.71055e-07
-1.77326e-06 3.71055e-07 -9.11985e-07
0.00220778 -0.000536434 -1.44677e-06
-0.000536434 0.000244323 7.39241e-07
-1.44677e-06 7.39241e-07 5.49749e-05
0.00227229 -0.000528854 -1.40058e-06
-0.000528854 0.000306238 -1.67271e-06
-1.40058e-06 -1.67271e-06 9.66513e-05
0.00215113 -0.000557442 2.92071e-06
-0.000557442 0.000232298 2.39268e-06
2.92071e-06 2.39268e-06 9.91995e-06
0.00217299 -0.000556812 1.16362e-07
-0.000556812 0.000286029 -2.63261e-07
1.16362e-07 -2.63261e-07 4.05683e-05
0.00199954 -0.000493522 -5.58407e-06
-0.000493522 0.000280887 -2.5189e-08
-5.58407e-06 -2.5189e-08 1.11184e-05
0.00119342 -0.000361828 -2.00632e-05
-0.000361828 3.65778e-05 8.5511e-06
-2.00632e-05 8.5511e-06 -0.000227125
0.00188296 -0.000550261 -8.17868e-07
-0.000550261 0.000251274 -7.95243e-07
-8.17868e-07 -7.95243e-07 -6.71085e-05
0.00202596 -0.000611581 2.03626e-06
-0.000611581 0.000222308 1.74449e-06
2.03626e-06 1.74449e-06 -8.7889e-05
0.000330563 -0.000245049 -2.28271e-05
-0.000245049 -0.000197299 1.96567e-05
-2.28271e-05 1.96567e-05 -0.000358906
0.00104417 -0.000363181 2.0296e-06
-0.000363181 2.20748e-05 -7.00856e-08
2.0296e-06 -7.00856e-08 -0.000254595
0.00192825 -0.000633252 9.05316e-06
-0.000633252 0.00039239 4.89674e-08
9.05316e-06 4.89674e-08 1.17976e-05
0.00757776 1.00058e-05 -0.000301457
1.00058e-05 0.00449289 2.37164e-05
-0.000301457 2.37164e-05 0.00450233
0.000309885 -0.00026236 -1.07881e-06
-0.00026236 -0.000189291 1.89981e-06
-1.07881e-06 1.89981e-06 -0.000351363
0.000695806 -0.000317652 1.36777e-05
-0.000317652 -8.39369e-05 -7.37777e-06
1.36777e-05 -7.37777e-06 -0.000355481
0.00703891 4.05654e-05 -5.4393e-06
4.05654e-05 0.00418104 7.43362e-09
-5.4393e-06 7.43362e-09 0.0041841
0.000712583 -0.000270784 2.6018e-05
-0.000270784 7.93732e-05 -2.26693e-05
2.6018e-05 -2.26693e-05 -6.54088e-05
0.00641032 0.000106055 0.00023717
0.000106055 0.00382715 -2.87911e-05
0.00023717 -2.87911e-05 0.00381359
0.00170714 0.000687843 -2.94461e-06
0.000687843 0.000229708 7.81195e-06
-2.94461e-06 7.81195e-06 -0.000167807
0.00184416 0.000742742 -1.64672e-06
0.000742742 0.00048954 8.10982e-07
-1.64672e-06 8.10982e-07 2.9867e-05
0.0013853 0.000543841 -8.69784e-06
0.000543841 0.000258321 1.26823e-06
-8.69784e-06 1.26823e-06 -0.000115513
0.00108929 0.000575854 -4.97646e-06
0.000575854 0.000151405 -3.2675e-06
-4.97646e-06 -3.2675e-06 -0.000262106
0.00133533 0.00041762 -4.20215e-06
0.00041762 0.000348056 -2.13787e-06
-4.20215e-06 -2.13787e-06 2.50056e-05
0.000876025 0.000256292 -1.10902e-05
0.000256292 0.000180029 -3.07747e-06
-1.10902e-05 -3.07747e-06 -6.76176e-05
0.000410011 0.000191274 -2.37317e-06
0.000191274 -0.000112443 -2.8528e-06
-2.37317e-06 -2.8528e-06 -0.000344331
0.000678683 0.000191887 7.37235e-07
0.000191887 9.48182e-05 -1.86924e-07
7.37235e-07 -1.86924e-07 -0.000131983
0.000454086 0.00016313 -2.84823e-05
0.00016313 -6.82475e-05 -1.85847e-05
-2.84823e-05 -1.85847e-05 -0.000169177
0.000538556 0.000126914 1.22833e-06
0.000126914 7.06308e-05 1.05534e-05
1.22833e-06 1.05534e-05 -0.0001539
0.000484144 0.00010438 -9.7791e-07
0.00010438 -1.1679e-05 -2.91207e-07
-9.7791e-07 -2.91207e-07 -9.95957e-05
0.00498879 -0.000158511 -0.000155408
-0.000158511 0.00293718 -1.67703e-05
-0.000155408 -1.67703e-05 0.00291971
0.000183584 7.82014e-05 1.24535e-05
7.82014e-05 -0.000177977 1.762e-05
1.24535e-05 1.762e-05 -0.000247132
0.00399114 -0.000155042 -1.25201e-05
-0.000155042 0.00228678 1.37139e-06
-1.25201e-05 1.37139e-06 0.00227368
0.00333725 -0.000142666 5.58191e-05
-0.000142666 0.00185169 6.76948e-06
5.58191e-05 6.76948e-06 0.00184307
0.000936263 0.000246452 -2.20494e-06
0.000246452 -0.00188923 1.07249e-05
-2.20494e-06 1.07249e-05 -0.000959689
0.00490401 0.000158527 7.02659e-05
0.000158527 -0.00119937 2.54907e-05
7.02659e-05 2.54907e-05 0.000579655
0.0156354 0.000857495 1.22236e-05
0.000857495 0.00173193 4.0959e-05
1.22236e-05 4.0959e-05 0.00196414
0.00207418 0.000860982 2.31351e-07
0.000860982 0.000340254 6.52064e-06
2.31351e-07 6.52064e-06 -4.6124e-05
0.00220897 0.000801667 1.08249e-06
0.000801667 0.00026537 5.06209e-06
1.08249e-06 5.06209e-06 -7.14744e-05
0.00164443 0.00074769 -5.92488e-07
0.00074769 0.000130118 -4.45636e-06
-5.92488e-07 -4.45636e-06 -0.00025974
0.00313689 0.00105853 -1.58512e-05
0.00105853 0.00141232 -1.10033e-06
-1.58512e-05 -1.10033e-06 0.000892375
0.00218494 0.000861 -5.51283e-06
0.000861 0.000717795 -1.11734e-05
-5.51283e-06 -1.11734e-05 0.000210163
0.00219183 0.000978031 7.98229e-06
0.000978031 0.000570994 3.89965e-06
7.98229e-06 3.89965e-06 0.000133014
0.00225223 0.000970857 -1.2519e-06
0.000970857 0.000212871 -2.50997e-06
-1.2519e-06 -2.50997e-06 -0.000138407
0.00222942 0.00109198 -1.54428e-05
0.00109198 0.000538935 2.48315e-06
-1.54428e-05 2.48315e-06 0.00015564
0.000714798 0.000892152 -2.2722e-05
0.000892152 -0.000543687 3.67974e-05
-2.2722e-05 3.67974e-05 -0.000504483
0.00278891 0.00111856 -4.21685e-07
0.00111856 0.000639939 2.23103e-06
-4.21685e-07 2.23103e-06 0.000241232
0.00288584 0.000953817 -4.57663e-06
0.000953817 0.000437088 5.63396e-06
-4.57663e-06 5.63396e-06 0.000197847
0.00148729 0.00044901 4.80911e-05
0.00044901 -0.00024106 1.6074e-05
4.80911e-05 1.6074e-05 -0.000129228
0.000375522 0.000725706 8.20084e-06
0.000725706 -0.000589199 -5.75953e-06
8.20084e-06 -5.75953e-06 -0.000777686
0.00100071 0.000982755 -3.89284e-05
0.000982755 -0.000173982 -3.74965e-06
-3.89284e-05 -3.74965e-06 -0.000491873
0.00350331 0.00116022 1.69188e-05
0.00116022 -0.000260997 1.05503e-05
1.69188e-05 1.05503e-05 0.00019301
0.00826477 0.00212065 -5.19847e-05
0.00212065 -0.000756254 -4.63025e-05
-5.19847e-05 -4.63025e-05 0.000871728
0.00495319 0.00182257 -5.85107e-05
0.00182257 0.00118006 -7.03845e-05
-5.85107e-05 -7.03845e-05 0.00114897
0.00286925 -9.30261e-05 5.49526e-05
-9.30261e-05 0.000231308 8.1686e-06
5.49526e-05 8.1686e-06 0.000468042
0.00311366 -0.000238933 -7.80239e-05
-0.000238933 -0.000648778 5.91631e-06
-7.80239e-05 5.91631e-06 -1.95695e-05
0.00487223 0.000472591 2.14894e-05
0.000472591 -0.000154732 -2.18152e-05
2.14894e-05 -2.18152e-05 0.000879131
0.000723847 -0.000698964 -7.68589e-05
-0.000698964 -0.00178949 5.68799e-05
-7.68589e-05 5.68799e-05 -0.00113175
0.00277324 -0.000628129 -0.000100743
-0.000628129 -0.000599756 4.85576e-06
-0.000100743 4.85576e-06 -0.000312844
0.00290077 -0.000432033 6.2521e-06
-0.000432033 -7.42966e-05 -2.534e-06
6.2521e-06 -2.534e-06 0.000355327
0.00240579 -0.000107327 -1.66315e-05
-0.000107327 5.16134e-05 4.00276e-07
-1.66315e-05 4.00276e-07 0.000152145
0.00257279 -0.000279303 1.38488e-05
-0.000279303 -0.000108892 -3.11203e-06
1.38488e-05 -3.11203e-06 9.03752e-05
0.00233075 3.71894e-05 9.46086e-06
3.71894e-05 -0.000240562 1.72244e-07
9.46086e-06 1.72244e-07 -0.000124545
0.00245913 -0.000643919 -1.90723e-05
-0.000643919 -0.00029807 4.68375e-06
-1.90723e-05 4.68375e-06 -4.1407e-05
0.00258715 -0.000511159 -2.70136e-06
-0.000511159 -0.000199044 8.46052e-07
-2.70136e-06 8.46052e-07 1.9752e-06
0.00247938 -0.000351316 -6.20615e-07
-0.000351316 -0.000124097 -6.6956e-07
-6.20615e-07 -6.6956e-07 4.10322e-06
0.00252681 -0.000597748 -3.28416e-06
-0.000597748 3.81466e-05 4.5299e-07
-3.28416e-06 4.5299e-07 7.17121e-05
0.00242337 -0.000475942 1.77951e-07
-0.000475942 -2.98164e-05 -1.55027e-07
1.77951e-07 -1.55027e-07 1.92451e-06
0.0023141 -0.000391237 -1.63269e-07
-0.000391237 -5.87335e-06 1.72311e-07
-1.63269e-07 1.72311e-07 6.89843e-07
0.00234105 -0.000566278 -6.5267e-07
-0.000566278 4.90995e-05 -4.78695e-07
-6.5267e-07 -4.78695e-07 2.78162e-06
0.002252 -0.000469712 3.97024e-07
-0.000469712 5.68015e-05 -4.24929e-08
3.97024e-07 -4.24929e-08 -7.42395e-06
0.00218377 -0.000423019 -2.39397e-06
-0.000423019 9.14852e-05 1.0827e-06
-2.39397e-06 1.0827e-06 3.50458e-06
0.00219371 -0.000546941 2.02581e-06
-0.000546941 0.000102658 -1.42644e-06
2.02581e-06 -1.42644e-06 -2.05403e-05
0.00213944 -0.000495701 7.61182e-07
-0.000495701 0.000132053 -5.06041e-07
7.61182e-07 -5.06041e-07 -1.59062e-05
0.00214055 -0.00046867 -1.96902e-06
-0.00046867 0.000178521 -6.81759e-07
-1.96902e-06 -6.81759e-07 5.10399e-06
0.00214572 -0.000530343 -3.45973e-07
-0.000530343 0.000197168 1.08456e-06
-3.45973e-07 1.08456e-06 1.13865e-05
0.0022106 -0.000525937 -2.69074e-07
-0.000525937 0.000267111 -1.57254e-07
-2.69074e-07 -1.57254e-07 5.79256e-05
0.00198286 -0.000458227 -4.51797e-06
-0.000458227 0.000216425 -6.15768e-08
-4.51797e-06 -6.15768e-08 -2.3015e-05
0.00216852 -0.000558113 1.98955e-06
-0.000558113 0.000283452 2.56072e-06
1.98955e-06 2.56072e-06 3.92936e-05
0.00202661 -0.000498119 -7.36703e-07
-0.000498119 0.00029742 -2.94422e-08
-7.36703e-07 -2.94422e-08 2.86834e-05
0.00121856 -0.000314749 -1.68795e-05
-0.000314749 1.48996e-05 7.7721e-06
-1.68795e-05 7.7721e-06 -0.000220632
0.000278724 -0.000216693 -1.93055e-05
-0.000216693 -0.000251887 1.90506e-05
-1.93055e-05 1.90506e-05 -0.000402399
0.00118566 -0.000359078 3.26523e-07
-0.000359078 3.49353e-05 -8.4085e-10
3.26523e-07 -8.4085e-10 -0.000227457
0.00187205 -0.000548761 5.75267e-06
-0.000548761 0.000249028 -7.00108e-07
5.75267e-06 -7.00108e-07 -7.27478e-05
0.00785536 -8.40933e-05 -0.000350181
-8.40933e-05 0.00464394 2.92867e-05
-0.000350181 2.92867e-05 0.0046629
0.000336954 -0.000246399 -8.92441e-07
-0.000246399 -0.000203856 1.28815e-06
-8.92441e-07 1.28815e-06 -0.000360949
0.000909954 -0.000354987 1.84957e-05
-0.000354987 -5.97667e-05 -7.76515e-06
1.84957e-05 -7.76515e-06 -0.000336832
0.00776245 -2.9654e-05 9.26347e-08
-2.9654e-05 0.0046067 1.13259e-06
9.26347e-08 1.13259e-06 0.00461873
0.000459022 -0.000270262 2.5176e-05
-0.000270262 -0.0001019 -2.20528e-05
2.5176e-05 -2.20528e-05 -0.000264478
0.00738398 -5.26385e-06 0.000314054
-5.26385e-06 0.00438918 -3.09624e-05
0.000314054 -3.09624e-05 0.0043974
0.00193761 0.000724071 1.01797e-06
0.000724071 0.000219699 8.05589e-06
1.01797e-06 8.05589e-06 -0.00013415
0.00178897 0.000702796 2.96428e-07
0.000702796 0.000285679 5.69529e-07
2.96428e-07 5.69529e-07 -0.000112691
0.00180719 0.00061224 -7.41775e-06
0.00061224 0.000384136 3.44553e-06
-7.41775e-06 3.44553e-06 8.56046e-06
0.00164656 0.000719898 3.31518e-06
0.000719898 0.000364339 -4.75505e-06
3.31518e-06 -4.75505e-06 -9.10252e-05
0.00143693 0.000545899 -6.55954e-07
0.000545899 0.000294085 4.48564e-07
-6.55954e-07 4.48564e-07 -8.03876e-05
0.000990748 0.0002911 -1.34254e-05
0.0002911 0.000136159 -4.19426e-06
-1.34254e-05 -4.19426e-06 -0.000112355
0.00144198 0.000408194 2.69618e-06
0.000408194 0.00040072 -1.15591e-06
2.69618e-06 -1.15591e-06 8.49647e-05
0.000591177 0.000218839 1.09362e-06
0.000218839 -7.34012e-06 7.11387e-07
1.09362e-06 7.11387e-07 -0.000244618
0.000446784 0.000227508 -3.06058e-05
0.000227508 -8.72306e-05 -2.08853e-05
-3.06058e-05 -2.08853e-05 -0.000207844
0.00058012 0.000147344 2.37666e-06
0.000147344 4.1151e-05 6.80714e-06
2.37666e-06 6.80714e-06 -0.000192083
0.000514983 0.000146157 4.99075e-07
0.000146157 -2.49989e-05 -8.36516e-07
4.99075e-07 -8.36516e-07 -0.000125061
0.00598044 -0.000181378 -0.000194204
-0.000181378 0.00358721 -2.35108e-05
-0.000194204 -2.35108e-05 0.00355704
0.000351377 9.86945e-05 1.75297e-05
9.86945e-05 -8.81673e-05 1.94928e-05
1.75297e-05 1.94928e-05 -0.000174459
0.00474748 -0.000189498 -1.254e-05
-0.000189498 0.00279153 1.52697e-06
-1.254e-05 1.52697e-06 0.00276586
0.00390232 -0.000174495 7.93001e-05
-0.000174495 0.00223332 8.99042e-06
7.93001e-05 8.99042e-06 0.002215
0.00163436 0.000242291 3.85546e-05
0.000242291 -0.000371936 2.23468e-05
3.85546e-05 2.23468e-05 -6.59106e-05
0.00241558 0.000312396 -2.79084e-05
0.000312396 -0.00143321 -2.90991e-06
-2.79084e-05 -2.90991e-06 -0.000438003
0.00474641 0.000495866 0.000251451
0.000495866 -0.00168532 7.67388e-05
0.000251451 7.67388e-05 0.000495041
0.0025619 0.000856074 -8.07576e-06
0.000856074 0.000417329 5.00973e-07
-8.07576e-06 5.00973e-07 9.5402e-05
0.00198939 0.00087633 -7.96863e-06
0.00087633 0.000269689 -5.5613e-06
-7.96863e-06 -5.5613e-06 -0.000114348
0.00234173 0.000654271 2.20093e-06
0.000654271 0.000232062 5.07548e-06
2.20093e-06 5.07548e-06 -8.29984e-06
0.00229941 0.000799596 1.57964e-06
0.000799596 0.000326164 5.09171e-07
1.57964e-06 5.09171e-07 -8.68196e-06
0.00161696 0.000746373 3.27381e-06
0.000746373 0.000122433 -1.33987e-05
3.27381e-06 -1.33987e-05 -0.000262388
0.00247107 0.000751324 -3.1864e-06
0.000751324 0.000137126 9.42939e-07
-3.1864e-06 9.42939e-07 -5.99417e-05
0.00273468 0.00107203 -8.33618e-06
0.00107203 0.000846312 -6.06681e-06
-8.33618e-06 -6.06681e-06 0.00039313
0.00259579 0.000979509 7.2087e-07
0.000979509 0.000429418 2.09499e-07
7.2087e-07 2.09499e-07 7.27774e-05
0.00215386 0.000473445 -1.68208e-05
0.000473445 -0.000232327 -1.51298e-07
-1.68208e-05 -1.51298e-07 -0.00017952
0.00346712 0.00121742 -7.86251e-06
0.00121742 0.00099953 1.05055e-05
-7.86251e-06 1.05055e-05 0.000599621
0.00261291 0.000927172 -3.79108e-07
0.000927172 0.000286297 -8.20645e-07
-3.79108e-07 -8.20645e-07 4.67242e-05
0.000677249 0.000441892 -5.63997e-06
0.000441892 -0.000729167 1.62055e-06
-5.63997e-06 1.62055e-06 -0.000580024
-0.00153174 0.000534971 -2.64006e-05
0.000534971 -0.00157772 -1.07389e-05
-2.64006e-05 -1.07389e-05 -0.00172776
0.00378859 0.00125646 -0.000141296
0.00125646 -0.000107371 -4.9379e-05
-0.000141296 -4.9379e-05 0.000220666
0.00245105 0.000145515 -7.22619e-07
0.000145515 -0.000151029 -1.73873e-06
-7.22619e-07 -1.73873e-06 -1.23269e-05
0.00280756 -6.84802e-05 -2.91622e-06
-6.84802e-05 0.000294161 4.53868e-07
-2.91622e-06 4.53868e-07 0.000453338
0.0026206 -0.000271348 -0.00010447
-0.000271348 -0.000983134 -1.51672e-06
-0.00010447 -1.51672e-06 -0.000231749
0.00181387 -0.000393062 -7.71304e-05
-0.000393062 -0.000687666 1.05405e-05
-7.71304e-05 1.05405e-05 -0.000198989
0.00192397 -0.000114483 -2.01806e-05
-0.000114483 -0.000280568 3.71126e-06
-2.01806e-05 3.71126e-06 -0.000153751
0.00253398 -0.000283419 2.61627e-06
-0.000283419 -0.000149262 -1.37392e-06
2.61627e-06 -1.37392e-06 7.8077e-05
0.00253623 4.57101e-05 -3.2684e-06
4.57101e-05 -0.000129488 2.17132e-07
-3.2684e-06 2.17132e-07 -1.52416e-05
0.00251564 -7.36789e-05 -8.85471e-07
-7.36789e-05 -0.000128296 -6.79365e-07
-8.85471e-07 -6.79365e-07 2.23557e-05
0.0026057 -0.000529266 -3.53708e-06
-0.000529266 -0.000184649 4.73069e-07
-3.53708e-06 4.73069e-07 -2.32059e-05
0.00242707 -0.000337566 3.38986e-07
-0.000337566 -0.000138009 -1.9836e-07
3.38986e-07 -1.9836e-07 -1.84816e-05
0.00235783 -0.000257882 6.3573e-07
-0.000257882 -4.12078e-05 -1.79139e-07
6.3573e-07 -1.79139e-07 3.64184e-05
0.00243926 -0.000475686 1.09692e-07
-0.000475686 -6.24119e-06 2.9689e-07
1.09692e-07 2.9689e-07 1.94639e-05
0.00230813 -0.000388151 1.3891e-07
-0.000388151 -6.45448e-06 1.62441e-07
1.3891e-07 1.62441e-07 -1.41726e-06
0.00220375 -0.000327878 -2.25112e-06
-0.000327878 4.4618e-05 8.0236e-07
-2.25112e-06 8.0236e-07 1.44935e-05
0.00225799 -0.00046866 1.59294e-06
-0.00046866 5.56015e-05 -7.27402e-07
1.59294e-06 -7.27402e-07 -8.35185e-06
0.00218194 -0.000423946 5.72635e-07
-0.000423946 8.60774e-05 -1.12867e-07
5.72635e-07 -1.12867e-07 -2.16259e-06
0.00217868 -0.000399623 -3.03494e-06
-0.000399623 0.000155158 5.01162e-07
-3.03494e-06 5.01162e-07 2.34812e-05
0.00213355 -0.000495038 2.22373e-06
-0.000495038 0.000123462 -1.20179e-06
2.22373e-06 -1.20179e-06 -2.46449e-05
0.00213983 -0.000468539 -1.31385e-07
-0.000468539 0.000177397 -2.90411e-07
-1.31385e-07 -2.90411e-07 3.55594e-06
0.0020201 -0.000413132 -2.99267e-06
-0.000413132 0.000186728 -3.51981e-07
-2.99267e-06 -3.51981e-07 -1.88337e-05
0.00215117 -0.000523056 1.10866e-06
-0.000523056 0.0002292 1.17682e-06
1.10866e-06 1.17682e-06 2.04648e-05
0.0020042 -0.000459465 -6.55324e-07
-0.000459465 0.000232203 1.41025e-07
-6.55324e-07 1.41025e-07 -7.08097e-06
0.00121075 -0.000275826 -1.34769e-05
-0.000275826 -1.23353e-05 6.39526e-06
-1.34769e-05 6.39526e-06 -0.000226955
0.00205941 -0.000502982 4.5934e-06
-0.000502982 0.000317754 2.60971e-07
4.5934e-06 2.60971e-07 5.00572e-05
0.00124403 -0.000316099 9.9493e-08
-0.000316099 2.68293e-05 1.69271e-07
9.9493e-08 1.69271e-07 -0.000207929
0.0028472 -0.000215271 -5.42236e-05
-0.000215271 0.001358 1.39589e-05
-5.42236e-05 1.39589e-05 0.00124013
0.00252229 -0.000123348 -0.000286717
-0.000123348 0.00125393 4.15794e-05
-0.000286717 4.15794e-05 0.00123613
0.00162269 -0.000233953 -1.57725e-05
-0.000233953 0.000596834 7.92391e-08
-1.57725e-05 7.92391e-08 0.000456855
0.0012059 -0.000358006 1.89194e-05
-0.000358006 5.28185e-05 -8.01594e-06
1.89194e-05 -8.01594e-06 -0.000208444
0.00778812 -9.40323e-05 -1.01806e-05
-9.40323e-05 0.00461169 2.10771e-06
-1.01806e-05 2.10771e-06 0.00462551
0.000150655 -0.00026864 2.46483e-05
-0.00026864 -0.000318242 -2.04924e-05
2.46483e-05 -2.04924e-05 -0.000478627
0.00790137 -4.5008e-05 0.000333555
-4.5008e-05 0.00470076 -3.43685e-05
0.000333555 -3.43685e-05 0.00470808
0.00210722 0.000499233 1.71864e-09
0.000499233 8.48463e-05 1.15115e-06
1.71864e-09 1.15115e-06 -8.89553e-05
0.00228737 0.000659205 3.8925e-06
0.000659205 0.000342887 6.81303e-06
3.8925e-06 6.81303e-06 6.22959e-05
0.00225496 0.000748975 5.54065e-07
0.000748975 0.000416808 1.35733e-07
5.54065e-07 1.35733e-07 6.27637e-05
0.00198876 0.000626097 -6.2927e-06
0.000626097 0.00038016 3.85502e-06
-6.2927e-06 3.85502e-06 2.91113e-05
0.00190197 0.000723251 6.29485e-06
0.000723251 0.000356773 -5.94896e-06
6.29485e-06 -5.94896e-06 -4.41856e-05
0.00172583 0.000609649 -2.93045e-07
0.000609649 0.000322819 9.90693e-07
-2.93045e-07 9.90693e-07 -5.4642e-05
0.000690934 0.000323 -2.17782e-05
0.000323 -0.000152337 -4.56119e-06
-2.17782e-05 -4.56119e-06 -0.000414966
0.00144179 0.000546389 9.12732e-06
0.000546389 0.000293725 -1.51912e-07
9.12732e-06 -1.51912e-07 -8.15789e-05
0.000618179 0.00027299 1.0745e-07
0.00027299 -8.65906e-05 -3.32152e-07
1.0745e-07 -3.32152e-07 -0.000330435
0.000498469 0.000292958 -3.04199e-05
0.000292958 -6.50021e-05 -2.20247e-05
-3.04199e-05 -2.20247e-05 -0.000216097
0.000341045 0.000193548 7.45497e-06
0.000193548 -0.000170219 1.00041e-06
7.45497e-06 1.00041e-06 -0.000398703
0.000406735 0.000201125 3.53574e-06
0.000201125 -0.00011398 -1.41201e-06
3.53574e-06 -1.41201e-06 -0.000232079
0.00712024 -9.33487e-05 -0.000269521
-9.33487e-05 0.00426569 -2.8284e-05
-0.000269521 -2.8284e-05 0.00425352
0.000447046 0.000132704 2.4593e-05
0.000132704 -6.31089e-05 1.90736e-05
2.4593e-05 1.90736e-05 -0.000159312
0.00560584 -0.000175217 8.41213e-07
-0.000175217 0.00332925 -1.59836e-06
8.41213e-07 -1.59836e-06 0.00330707
0.00445105 -0.000205189 0.000103146
-0.000205189 0.00260687 1.25503e-05
0.000103146 1.25503e-05 0.00257686
0.00243239 0.000235532 -7.23648e-06
0.000235532 -0.000215316 -7.56213e-07
-7.23648e-06 -7.56213e-07 -2.70311e-05
0.0018723 0.000191694 1.46694e-05
0.000191694 -0.000431855 -3.67379e-06
1.46694e-05 -3.67379e-06 -3.51463e-05
0.0047649 0.000434967 -0.000128242
0.000434967 -0.000462804 -3.85757e-06
-0.000128242 -3.85757e-06 0.000586804
0.00237309 0.000605416 -2.34407e-06
0.000605416 0.000163878 1.13306e-06
-2.34407e-06 1.13306e-06 -7.90971e-06
0.00239359 0.000825301 -4.50308e-06
0.000825301 0.000361291 -4.5908e-07
-4.50308e-06 -4.5908e-07 4.59386e-05
0.00193256 0.000892596 -2.24844e-06
0.000892596 0.000217259 -1.10177e-05
-2.24844e-06 -1.10177e-05 -0.000163891
0.00237391 0.000642786 2.53635e-06
0.000642786 0.000268877 1.5239e-06
2.53635e-06 1.5239e-06 3.18523e-05
0.00240876 0.000799937 -9.20606e-07
0.000799937 0.000399083 -6.27823e-06
-9.20606e-07 -6.27823e-06 6.56038e-05
0.00257983 0.000480131 -5.25042e-07
0.000480131 -1.64955e-06 6.73039e-07
-5.25042e-07 6.73039e-07 3.09317e-05
0.00245329 0.00075471 -6.36663e-07
0.00075471 0.000142845 -1.54577e-07
-6.36663e-07 -1.54577e-07 -5.35616e-05
0.00283872 0.000978324 -7.1318e-06
0.000978324 0.000588184 -3.58735e-06
-7.1318e-06 -3.58735e-06 0.00022759
0.00215056 0.000456967 1.06414e-07
0.000456967 -0.000198297 -3.73159e-07
1.06414e-07 -3.73159e-07 -0.000143398
0.00238578 0.00089731 1.61857e-05
0.00089731 0.000151096 1.5532e-06
1.61857e-05 1.5532e-06 -8.80329e-05
-0.000169931 0.000395877 -4.32724e-05
0.000395877 -0.00124154 -1.82262e-05
-4.32724e-05 -1.82262e-05 -0.00105073
0.00246307 0.00010151 1.82084e-07
0.00010151 -8.39164e-05 8.45712e-08
1.82084e-07 8.45712e-08 3.1748e-05
0.00234787 0.000148984 -7.61103e-07
0.000148984 -0.000224794 1.39572e-06
-7.61103e-07 1.39572e-06 -8.50188e-05
0.00288712 -5.22149e-05 -5.51919e-05
-5.22149e-05 0.000433921 -5.84283e-06
-5.51919e-05 -5.84283e-06 0.00052474
0.00242532 -0.00028164 -2.44247e-05
-0.00028164 -0.000241714 5.51034e-06
-2.44247e-05 5.51034e-06 1.60022e-05
0.00271696 5.91933e-05 -3.02982e-06
5.91933e-05 -3.93604e-05 6.52015e-08
-3.02982e-06 6.52015e-08 7.12662e-05
0.00248008 -8.33508e-05 -4.56309e-07
-8.33508e-05 -0.000166364 -6.24946e-07
-4.56309e-07 -6.24946e-07 -1.04953e-05
0.00221385 -7.53373e-05 2.59771e-07
-7.53373e-05 -6.46892e-05 -7.93772e-08
2.59771e-07 -7.93772e-08 8.0927e-07
0.00237077 -0.000323078 7.51351e-07
-0.000323078 -0.000153049 -2.00622e-07
7.51351e-07 -2.00622e-07 -4.27855e-05
0.0023067 -0.000264244 -7.72538e-08
-0.000264244 -6.82149e-05 -7.67129e-09
-7.72538e-08 -7.67129e-09 2.03452e-06
0.00215385 -0.000220579 -7.51231e-07
-0.000220579 -4.97656e-06 -8.41013e-08
-7.51231e-07 -8.41013e-08 -4.73655e-06
0.00230283 -0.000385069 1.71178e-07
-0.000385069 -6.75454e-06 3.41624e-07
1.71178e-07 3.41624e-07 -3.22455e-06
0.00219317 -0.000328196 6.21421e-08
-0.000328196 3.32439e-05 1.73091e-07
6.21421e-08 1.73091e-07 3.15877e-06
0.0022296 -0.000318106 -4.29618e-06
-0.000318106 0.00012694 1.29193e-06
-4.29618e-06 1.29193e-06 4.33848e-05
0.00218397 -0.000425053 3.03923e-06
-0.000425053 8.29361e-05 -1.17063e-06
3.03923e-06 -1.17063e-06 -5.59366e-06
0.00212312 -0.000395244 7.07144e-08
-0.000395244 0.000118734 -3.8359e-07
7.07144e-08 -3.8359e-07 -1.26037e-05
0.00200167 -0.000344938 -1.8814e-06
-0.000344938 0.000130806 -5.23066e-07
-1.8814e-06 -5.23066e-07 -3.74477e-05
0.00213518 -0.000468288 2.54243e-06
-0.000468288 0.000173445 -1.06464e-07
2.54243e-06 -1.06464e-07 -8.32599e-07
0.00204549 -0.000414628 -6.17734e-07
-0.000414628 0.000205936 5.9349e-08
-6.17734e-07 5.9349e-08 3.93673e-07
0.00121005 -0.000241338 -1.04108e-05
-0.000241338 -3.45698e-05 4.89224e-06
-1.04108e-05 4.89224e-06 -0.000232256
0.00202425 -0.00046053 3.57671e-06
-0.00046053 0.000247341 8.25288e-08
3.57671e-06 8.25288e-08 8.25284e-06
0.00125248 -0.000278764 -1.0037e-07
-0.000278764 5.5498e-06 2.0425e-07
-1.0037e-07 2.0425e-07 -0.000208459
0.0028382 -0.000203073 -6.18952e-05
-0.000203073 0.00134682 1.35553e-05
-6.18952e-05 1.35553e-05 0.00123906
0.00126012 -0.000317262 1.60823e-05
-0.000317262 3.24502e-05 -7.30989e-06
1.60823e-05 -7.30989e-06 -0.000201621
0.00298615 -0.00025147 5.30299e-05
-0.00025147 0.00144834 -8.73516e-06
5.30299e-05 -8.73516e-06 0.00133943
0.00246212 -0.000153705 -0.00028053
-0.000153705 0.00122256 4.60577e-05
-0.00028053 4.60577e-05 0.00120202
0.00488645 -0.000148093 -0.000275066
-0.000148093 0.00277639 3.13527e-05
-0.000275066 3.13527e-05 0.00277301
0.00306177 -0.000311802 0.000174791
-0.000311802 0.00151701 -2.99965e-05
0.000174791 -2.99965e-05 0.00140538
0.00771526 -0.000106704 0.000335973
-0.000106704 0.00457478 -3.81295e-05
0.000335973 -3.81295e-05 0.00458474
0.0023103 0.000489766 -1.8384e-06
0.000489766 0.00017668 -4.41793e-07
-1.8384e-06 -4.41793e-07 4.76462e-05
0.00208496 0.000517174 8.31868e-08
0.000517174 0.000178415 2.09811e-06
8.31868e-08 2.09811e-06 -3.25137e-05
0.00216941 0.000494001 3.2199e-07
0.000494001 0.000132903 -1.09785e-06
3.2199e-07 -1.09785e-06 -3.30716e-05
0.00200757 0.000557018 -4.79523e-06
0.000557018 0.000276024 3.64949e-06
-4.79523e-06 3.64949e-06 -1.77402e-05
0.00232404 0.000664829 6.56184e-07
0.000664829 0.000350721 2.32629e-07
6.56184e-07 2.32629e-07 6.98304e-05
0.00256171 0.00077413 -9.4726e-07
0.00077413 0.000607234 -7.16265e-06
-9.4726e-07 -7.16265e-06 0.000252747
0.0018877 0.000618936 6.82107e-07
0.000618936 0.000310004 3.44644e-07
6.82107e-07 3.44644e-07 -4.10855e-05
0.00118425 0.00038493 -2.95939e-05
0.00038493 7.12194e-05 -6.46168e-06
-2.95939e-05 -6.46168e-06 -0.000200735
0.00166452 0.000608006 9.49737e-06
0.000608006 0.000276422 -1.15118e-06
9.49737e-06 -1.15118e-06 -0.000102938
0.00100536 0.000342149 -2.73727e-06
0.000342149 4.65234e-05 1.25728e-07
-2.73727e-06 1.25728e-07 -0.000216281
0.000248419 0.000277774 -2.77095e-05
0.000277774 -0.000240984 -2.03261e-05
-2.77095e-05 -2.03261e-05 -0.000401022
0.00068119 0.000268645 1.31509e-05
0.000268645 -4.06768e-05 3.58233e-06
1.31509e-05 3.58233e-06 -0.000279693
0.000252951 0.0002413 2.80515e-06
0.0002413 -0.000222221 8.83697e-07
2.80515e-06 8.83697e-07 -0.000365376
0.00783836 6.27174e-07 -0.000315131
6.27174e-07 0.00468396 -3.46711e-05
-0.000315131 -3.46711e-05 0.00468096
0.000222862 0.000160828 2.5573e-05
0.000160828 -0.00022986 1.98847e-05
2.5573e-05 1.98847e-05 -0.000343445
0.00664541 -0.000130984 6.73707e-06
-0.000130984 0.003966 -2.63658e-06
6.73707e-06 -2.63658e-06 0.00395137
0.0052757 -0.000213027 0.000138547
-0.000213027 0.00313302 1.37137e-05
0.000138547 1.37137e-05 0.00310082
0.00249201 0.000279344 5.26616e-07
0.000279344 -7.2873e-05 8.13536e-07
5.26616e-07 8.13536e-07 3.24821e-05
0.0023062 0.000238804 2.0954e-06
0.000238804 -0.000247844 -6.06707e-07
2.0954e-06 -6.06707e-07 -6.00707e-05
0.00180112 0.000141165 -6.77753e-05
0.000141165 -0.00066604 -1.24556e-05
-6.77753e-05 -1.24556e-05 -0.00017427
0.00231961 0.000426932 1.31773e-06
0.000426932 4.11177e-06 6.85987e-07
1.31773e-06 6.85987e-07 -2.05201e-05
0.00230748 0.000598001 -9.32657e-07
0.000598001 0.000142628 1.673e-07
-9.32657e-07 1.673e-07 -2.715e-05
0.00218449 0.000789944 6.48618e-06
0.000789944 0.00027971 -3.17054e-06
6.48618e-06 -3.17054e-06 -2.82463e-05
0.00241341 0.000631224 -1.14335e-06
0.000631224 0.000310354 -3.12121e-06
-1.14335e-06 -3.12121e-06 7.6815e-05
0.00251122 0.000461366 -1.05408e-06
0.000461366 -2.69645e-05 -2.51882e-07
-1.05408e-06 -2.51882e-07 7.38066e-06
0.00238415 0.000753897 -2.91053e-06
0.000753897 0.000119402 1.08424e-07
-2.91053e-06 1.08424e-07 -7.51663e-05
0.00202179 0.000438576 1.54724e-05
0.000438576 -0.000201327 -4.61516e-07
1.54724e-05 -4.61516e-07 -0.000144991
0.00226026 7.67114e-05 2.2127e-06
7.67114e-05 -4.62129e-05 2.98509e-07
2.2127e-06 2.98509e-07 1.04978e-05
0.00241206 9.68253e-05 2.68376e-07
9.68253e-05 -0.000100161 7.32452e-08
2.68376e-07 7.32452e-08 1.23951e-05
0.00223863 0.00015804 -7.69294e-06
0.00015804 -0.000299119 -1.95623e-06
-7.69294e-06 -1.95623e-06 -0.000158019
0.00211089 -1.29547e-05 -1.71344e-06
-1.29547e-05 -3.45918e-05 1.57498e-07
-1.71344e-06 1.57498e-07 -4.4701e-06
0.00247345 -9.94872e-05 1.42801e-06
-9.94872e-05 -0.000182108 5.59628e-07
1.42801e-06 5.59628e-07 -2.0594e-05
0.00222384 -7.907e-05 -4.51822e-07
-7.907e-05 -6.09061e-05 4.02485e-07
-4.51822e-07 4.02485e-07 4.00475e-06
0.0020861 -0.000117507 -2.26118e-06
-0.000117507 -3.49058e-05 3.21834e-07
-2.26118e-06 3.21834e-07 -2.428e-05
0.00225573 -0.000270427 -2.00426e-07
-0.000270427 -9.45443e-05 2.03272e-07
-2.00426e-07 2.03272e-07 -3.21571e-05
0.00215225 -0.000217243 9.5869e-07
-0.000217243 -5.57005e-06 -3.79963e-07
9.5869e-07 -3.79963e-07 -4.37578e-06
0.00223618 -0.000223453 -3.55489e-06
-0.000223453 9.91828e-05 4.42763e-07
-3.55489e-06 4.42763e-07 5.09217e-05
0.00218279 -0.000328196 2.47723e-06
-0.000328196 2.20939e-05 -6.43025e-07
2.47723e-06 -6.43025e-07 -7.90116e-06
0.00217882 -0.000312539 3.588e-07
-0.000312539 9.80985e-05 -2.05765e-07
3.588e-07 -2.05765e-07 1.4898e-05
0.0020028 -0.000265387 -1.02974e-06
-0.000265387 0.000104403 -7.14994e-07
-1.02974e-06 -7.14994e-07 -2.8251e-05
0.00206858 -0.000390631 3.50954e-06
-0.000390631 8.37572e-05 -1.32006e-06
3.50954e-06 -1.32006e-06 -4.71573e-05
0.00206036 -0.00034828 -5.24674e-07
-0.00034828 0.00016875 6.89487e-08
-5.24674e-07 6.89487e-08 2.28415e-07
0.00123181 -0.000202518 -8.05096e-06
-0.000202518 -3.43102e-05 3.30115e-06
-8.05096e-06 3.30115e-06 -0.000215116
0.00207204 -0.000415971 2.36472e-06
-0.000415971 0.000226382 1.27171e-07
2.36472e-06 1.27171e-07 2.092e-05
0.00125974 -0.000243336 -2.97076e-07
-0.000243336 -1.21617e-05 2.57393e-07
-2.97076e-07 2.57393e-07 -0.000208838
0.00278502 -0.000188529 -6.85508e-05
-0.000188529 0.00131671 1.28849e-05
-6.85508e-05 1.28849e-05 0.00121485
0.00128762 -0.000281526 1.26659e-05
-0.000281526 1.87644e-05 -6.05752e-06
1.26659e-05 -6.05752e-06 -0.000194606
0.00292661 -0.000222737 4.8588e-05
-0.000222737 0.00140336 -6.8749e-06
4.8588e-05 -6.8749e-06 0.00130474
0.00245682 -0.000130248 -0.000273749
-0.000130248 0.00120994 4.02637e-05
-0.000273749 4.02637e-05 0.00119206
0.00310338 -0.000257244 0.000166991
-0.000257244 0.00151759 -3.0636e-05
0.000166991 -3.0636e-05 0.00142073
0.00205483 -9.00642e-05 -0.000111554
-9.00642e-05 0.000964641 1.71389e-05
-0.000111554 1.71389e-05 0.000929456
0.0070679 -4.34114e-05 0.000110676
-4.34114e-05 0.00414678 -6.57413e-06
0.000110676 -6.57413e-06 0.00412767
0.00228922 0.000416198 -1.32157e-06
0.000416198 0.000122012 -3.38948e-07
-1.32157e-06 -3.38948e-07 4.33644e-05
0.00223812 0.000466338 -3.54009e-06
0.000466338 0.000207146 -6.96408e-07
-3.54009e-06 -6.96408e-07 4.28217e-05
0.00227715 0.000488293 -3.25672e-06
0.000488293 0.000149434 -5.22788e-08
-3.25672e-06 -5.22788e-08 1.91356e-05
0.00198668 0.000474847 -2.97228e-06
0.000474847 0.000197865 1.15934e-06
-2.97228e-06 1.15934e-06 -4.72388e-05
0.00205501 0.000523215 -1.2984e-06
0.000523215 0.000138812 -2.41429e-06
-1.2984e-06 -2.41429e-06 -6.75567e-05
0.00222201 0.000488088 -3.54176e-06
0.000488088 0.000174637 -3.5184e-06
-3.54176e-06 -3.5184e-06 1.67057e-05
0.00131378 0.000358002 -2.60638e-05
0.000358002 5.38879e-05 -6.57611e-06
-2.60638e-05 -6.57611e-06 -0.000192244
0.00196395 0.000554071 1.41818e-06
0.000554071 0.000249158 4.7248e-07
1.41818e-06 4.7248e-07 -4.47736e-05
0.00235769 0.000669938 1.20651e-06
0.000669938 0.000356353 -5.98446e-06
1.20651e-06 -5.98446e-06 7.53023e-05
0.00180376 0.000614395 8.07603e-06
0.000614395 0.000248794 -3.08671e-06
8.07603e-06 -3.08671e-06 -0.000103036
0.00112624 0.0003788 -1.43278e-06
0.0003788 2.95095e-05 -1.26205e-07
-1.43278e-06 -1.26205e-07 -0.000241201
0.000297471 0.000258566 -2.56058e-05
0.000258566 -0.000227695 -1.87978e-05
-2.56058e-05 -1.87978e-05 -0.000385416
0.000982458 0.00034142 2.22496e-05
0.00034142 3.55302e-05 7.32131e-06
2.22496e-05 7.32131e-06 -0.000225925
0.000325317 0.00026997 1.79695e-06
0.00026997 -0.000188156 1.65674e-06
1.79695e-06 1.65674e-06 -0.000348828
0.00784869 9.05307e-05 -0.000325448
9.05307e-05 0.00467481 -4.11106e-05
-0.000325448 -4.11106e-05 0.00467262
0.000285245 0.000217354 2.40028e-05
0.000217354 -0.000206304 2.16743e-05
2.40028e-05 2.16743e-05 -0.000345812
0.00754932 -4.49458e-05 6.05187e-06
-4.49458e-05 0.00449812 -2.3264e-07
6.05187e-06 -2.3264e-07 0.00449694
0.00629419 -0.000161778 0.000195719
-0.000161778 0.003742 1.32978e-05
0.000195719 1.32978e-05 0.00372593
0.0022573 0.00022464 7.0777e-07
0.00022464 -3.42694e-05 1.9413e-07
7.0777e-07 1.9413e-07 3.87156e-06
0.00246188 0.000285231 -4.20298e-07
0.000285231 -0.00010303 7.10501e-07
-4.20298e-07 7.10501e-07 4.78455e-06
0.00226834 0.000239756 2.93901e-06
0.000239756 -0.00025465 3.68127e-07
2.93901e-06 3.68127e-07 -6.61548e-05
0.00232288 0.000421747 -2.27565e-08
0.000421747 7.86497e-06 1.66113e-07
-2.27565e-08 1.66113e-07 -1.43084e-05
0.00225062 0.000590544 -1.27991e-07
0.000590544 0.00012965 -1.00556e-06
-1.27991e-07 -1.00556e-06 -3.81904e-05
0.00248295 0.000445249 2.49199e-06
0.000445249 -3.42618e-05 -3.21343e-07
2.49199e-06 -3.21343e-07 6.4302e-07
0.00215556 6.99465e-05 5.1929e-07
6.99465e-05 -1.89206e-05 1.85898e-07
5.1929e-07 1.85898e-07 5.51553e-06
0.00224621 7.37444e-05 3.9489e-07
7.37444e-05 -5.24617e-05 -2.22945e-07
3.9489e-07 -2.22945e-07 5.1419e-06
0.00234124 9.2047e-05 -8.71915e-07
9.2047e-05 -0.000132236 -1.88972e-07
-8.71915e-07 -1.88972e-07 -2.15863e-05
0.00212273 -1.05776e-05 -8.24887e-07
-1.05776e-05 -2.65223e-05 2.98702e-08
-8.24887e-07 2.98702e-08 1.54632e-06
0.00208328 -3.61062e-05 -4.86755e-06
-3.61062e-05 1.23879e-05 5.1291e-07
-4.86755e-06 5.1291e-07 1.61805e-05
0.00223272 -8.24597e-05 -5.63452e-07
-8.24597e-05 -5.85385e-05 1.09787e-07
-5.63452e-07 1.09787e-07 6.15195e-06
0.00210411 -0.00011773 -1.51405e-06
-0.00011773 -1.70106e-05 2.70784e-07
-1.51405e-06 2.70784e-07 -1.0032e-05
0.00215219 -0.000142352 -6.35073e-06
-0.000142352 4.29261e-05 6.13661e-07
-6.35073e-06 6.13661e-07 1.11484e-05
0.00215019 -0.000214162 2.9406e-06
-0.000214162 -6.30489e-06 -7.92412e-07
2.9406e-06 -7.92412e-07 -4.22476e-06
0.00221372 -0.000223919 2.32664e-06
-0.000223919 8.84358e-05 -4.43502e-07
2.32664e-06 -4.43502e-07 4.00837e-05
0.00203572 -0.000196742 2.95706e-07
-0.000196742 0.000108315 -7.89508e-07
2.95706e-07 -7.89508e-07 8.85152e-07
0.00212442 -0.000307936 4.19501e-06
-0.000307936 6.66663e-05 -1.59223e-06
4.19501e-06 -1.59223e-06 -1.63426e-05
0.00204778 -0.000269531 -3.2859e-07
-0.000269531 0.000122899 -7.14118e-08
-3.2859e-07 -7.14118e-08 -1.0236e-05
0.00122612 -0.000162072 -7.77019e-06
-0.000162072 -3.79928e-05 1.99398e-06
-7.77019e-06 1.99398e-06 -0.000203064
0.00212059 -0.000351784 1.65956e-06
-0.000351784 0.000207332 2.81885e-07
1.65956e-06 2.81885e-07 3.85158e-05
0.00126189 -0.000201774 -3.6831e-07
-0.000201774 -2.24157e-05 2.59345e-07
-3.6831e-07 2.59345e-07 -0.000201853
0.00268291 -0.000181302 -7.0195e-05
-0.000181302 0.00125945 1.08291e-05
-7.0195e-05 1.08291e-05 0.0011625
0.00131008 -0.000245521 9.69086e-06
-0.000245521 1.02706e-05 -4.47924e-06
9.69086e-06 -4.47924e-06 -0.000185393
0.00286174 -0.000187386 4.63629e-05
-0.000187386 0.00136036 -5.27267e-06
4.63629e-05 -5.27267e-06 0.00126949
0.00243621 -0.000107303 -0.000270469
-0.000107303 0.00119079 3.35829e-05
-0.000270469 3.35829e-05 0.00117437
0.00301482 -0.000213553 0.000162668
-0.000213553 0.00145075 -2.60612e-05
0.000162668 -2.60612e-05 0.00136529
0.00203784 -8.91824e-05 -0.000101449
-8.91824e-05 0.000949101 1.3545e-05
-0.000101449 1.3545e-05 0.000916027
0.00170893 -8.61261e-05 6.91258e-05
-8.61261e-05 0.000759213 -1.15807e-05
6.91258e-05 -1.15807e-05 0.00070378
0.00216146 0.000260024 -9.32767e-07
0.000260024 5.82287e-06 -3.91316e-07
-9.32767e-07 -3.91316e-07 -1.6397e-05
0.00219119 0.00037935 -4.17248e-06
0.00037935 0.000128848 -5.20298e-07
-4.17248e-06 -5.20298e-07 1.47829e-05
0.00224605 0.000415721 -4.09816e-07
0.000415721 7.44238e-05 -1.86754e-07
-4.09816e-07 -1.86754e-07 5.47098e-06
0.00214478 0.000436709 -2.83316e-07
0.000436709 0.000227819 1.07674e-06
-2.83316e-07 1.07674e-06 2.43695e-05
0.00220555 0.000462587 -1.73905e-06
0.000462587 0.000193046 -6.53356e-07
-1.73905e-06 -6.53356e-07 2.72649e-05
0.00224811 0.000487895 2.31384e-06
0.000487895 0.000124655 2.03904e-07
2.31384e-06 2.03904e-07 -7.31345e-06
0.00131732 0.000305479 -1.91583e-05
0.000305479 1.69176e-05 -5.72003e-06
-1.91583e-05 -5.72003e-06 -0.000200898
0.00196122 0.000479302 1.57627e-06
0.000479302 0.000173381 -5.34714e-07
1.57627e-06 -5.34714e-07 -6.67551e-05
0.00204171 0.000531017 -2.07241e-06
0.000531017 0.000109895 -5.60576e-06
-2.07241e-06 -5.60576e-06 -9.2394e-05
0.000290816 0.00020751 -2.22979e-05
0.00020751 -0.000258034 -1.61349e-05
-2.22979e-05 -1.61349e-05 -0.000399507
0.00125843 0.000352872 -4.18969e-07
0.000352872 2.32e-05 8.87476e-08
-4.18969e-07 8.87476e-08 -0.00022282
0.00191325 0.000550818 6.4554e-06
0.000550818 0.000216977 -2.93498e-06
6.4554e-06 -2.93498e-06 -7.71412e-05
0.00116786 0.000377885 3.06257e-05
0.000377885 5.59386e-05 7.39777e-06
3.06257e-05 7.39777e-06 -0.000213666
0.000263831 0.000244885 5.867e-07
0.000244885 -0.000243959 1.02174e-06
5.867e-07 1.02174e-06 -0.000401635
0.00758955 0.000189205 -0.000328666
0.000189205 0.00450107 -4.5399e-05
-0.000328666 -4.5399e-05 0.00449949
0.000254282 0.000244691 2.31789e-05
0.000244691 -0.000228811 1.92206e-05
2.31789e-05 1.92206e-05 -0.000386407
0.00782235 6.68431e-05 7.50448e-06
6.68431e-05 0.00464597 8.69424e-07
7.50448e-06 8.69424e-07 0.00465258
0.00727273 -7.89417e-05 0.000261573
-7.89417e-05 0.00432003 1.76863e-05
0.000261573 1.76863e-05 0.00431917
0.00217544 0.000135925 -1.45286e-06
0.000135925 1.06743e-05 -2.87385e-07
-1.45286e-06 -2.87385e-07 2.74365e-05
0.002239 0.000229108 6.76956e-07
0.000229108 -4.96886e-05 4.14371e-07
6.76956e-07 4.14371e-07 -1.42129e-05
0.00241027 0.000290976 -1.60002e-07
0.000290976 -0.000141393 -8.89036e-07
-1.60002e-07 -8.89036e-07 -3.12767e-05
0.00231838 0.000415337 1.05606e-06
0.000415337 6.11591e-06 -7.3896e-07
1.05606e-06 -7.3896e-07 -1.28456e-05
0.002052 2.59132e-05 -4.79859e-06
2.59132e-05 2.1689e-05 3.91933e-07
-4.79859e-06 3.91933e-07 7.74806e-06
0.00215352 6.10796e-05 -2.03783e-08
6.10796e-05 -2.04679e-05 -7.21061e-08
-2.03783e-08 -7.21061e-08 5.33298e-06
0.00223731 7.06767e-05 -1.46544e-06
7.06767e-05 -5.44818e-05 -1.83662e-08
-1.46544e-06 -1.83662e-08 3.32579e-06
0.00212898 -7.52375e-06 -1.24008e-06
-7.52375e-06 -2.17173e-05 -1.45931e-07
-1.24008e-06 -1.45931e-07 4.13356e-06
0.00209081 -3.04552e-05 -7.27087e-07
-3.04552e-05 1.22469e-05 -1.83371e-07
-7.27087e-07 -1.83371e-07 1.79945e-05
0.00194509 -6.14285e-05 -5.57904e-06
-6.14285e-05 -7.04155e-05 6.10713e-07
-5.57904e-06 6.10713e-07 -0.000107864
0.00211869 -0.00011805 2.57294e-06
-0.00011805 -1.35885e-06 -4.44834e-08
2.57294e-06 -4.44834e-08 1.88063e-06
0.00212641 -0.000144033 -1.80292e-06
-0.000144033 3.34118e-05 3.70145e-07
-1.80292e-06 3.70145e-07 -5.77553e-06
0.00217089 -0.000137855 -2.0307e-06
-0.000137855 0.00018597 4.30349e-08
-2.0307e-06 4.30349e-08 0.00010064
0.0022014 -0.000223655 7.69795e-06
-0.000223655 8.36858e-05 -1.25688e-06
7.69795e-06 -1.25688e-06 3.54097e-05
0.00202434 -0.000195209 1.05667e-06
-0.000195209 9.02112e-05 -5.29069e-07
1.05667e-06 -5.29069e-07 -1.66182e-05
0.00116765 -0.000121491 -9.3774e-06
-0.000121491 -6.25272e-05 1.34576e-06
-9.3774e-06 1.34576e-06 -0.000214931
0.0021051 -0.000271953 1.48054e-06
-0.000271953 0.000150753 2.52353e-07
1.48054e-06 2.52353e-07 1.75797e-05
0.00120714 -0.000159225 -1.39341e-07
-0.000159225 -4.94994e-05 7.58224e-08
-1.39341e-07 7.58224e-08 -0.000213407
0.000326754 -9.36237e-05 -1.86666e-05
-9.36237e-05 -0.000251782 6.19606e-06
-1.86666e-05 6.19606e-06 -0.000357105
0.00128258 -0.00020063 7.35567e-06
-0.00020063 -1.68705e-05 -2.8792e-06
7.35567e-06 -2.8792e-06 -0.000194919
0.00157491 -0.000120392 6.81887e-05
-0.000120392 0.000539668 -5.51819e-06
6.81887e-05 -5.51819e-06 0.000447349
0.00690188 -0.000177471 -0.000357731
-0.000177471 0.00405378 2.81146e-05
-0.000357731 2.81146e-05 0.00407636
0.00294393 -0.000169176 0.000158822
-0.000169176 0.00140185 -2.04758e-05
0.000158822 -2.04758e-05 0.0013244
0.00202162 -8.38606e-05 -9.18845e-05
-8.38606e-05 0.000938765 8.82217e-06
-9.18845e-05 8.82217e-06 0.000905464
0.00163079 -0.000106094 8.11595e-05
-0.000106094 0.000714101 -1.34331e-05
8.11595e-05 -1.34331e-05 0.000657569
0.00210415 0.000173199 -2.67538e-06
0.000173199 1.81904e-05 -8.65646e-07
-2.67538e-06 -8.65646e-07 -2.04065e-06
0.00216714 0.000291653 -2.67843e-06
0.000291653 8.15699e-05 -8.51679e-08
-2.67843e-06 -8.51679e-08 6.42395e-06
0.00216608 0.000253151 -2.2941e-07
0.000253151 2.05029e-05 -1.05853e-07
-2.2941e-07 -1.05853e-07 -7.41794e-06
0.00205693 0.000346382 -4.70557e-07
0.000346382 0.000130331 1.35249e-06
-4.70557e-07 1.35249e-06 -2.57829e-05
0.00218738 0.000379192 7.60342e-07
0.000379192 0.000127587 1.5461e-07
7.60342e-07 1.5461e-07 1.37501e-05
0.00220115 0.000415234 5.82288e-07
0.000415234 2.58624e-05 -3.0768e-07
5.82288e-07 -3.0768e-07 -3.36157e-05
0.00136399 0.00026786 -1.37803e-05
0.00026786 2.6825e-05 -3.41008e-06
-1.37803e-05 -3.41008e-06 -0.000164648
0.00210172 0.00043064 1.93151e-06
0.00043064 0.000200318 3.29413e-07
1.93151e-06 3.29413e-07 -1.44801e-06
0.00215495 0.00045713 1.19297e-06
0.00045713 0.000167511 -1.25239e-06
1.19297e-06 -1.25239e-06 7.5342e-07
0.00032881 0.000147753 -1.93169e-05
0.000147753 -0.000255335 -1.25218e-05
-1.93169e-05 -1.25218e-05 -0.000378885
0.00126511 0.00030233 5.45519e-07
0.00030233 -1.26463e-05 4.68357e-07
5.45519e-07 4.68357e-07 -0.00022752
0.00192305 0.000481401 6.09072e-06
0.000481401 0.000141762 -3.09826e-06
6.09072e-06 -3.09826e-06 -9.27527e-05
0.00735771 0.000257197 -0.000334919
0.000257197 0.00434706 -4.49026e-05
-0.000334919 -4.49026e-05 0.0043484
0.000303364 0.000201149 -8.88795e-08
0.000201149 -0.000252562 7.06301e-07
-8.88795e-08 7.06301e-07 -0.000394596
0.00121157 0.000348563 2.73145e-05
0.000348563 -1.75784e-06 7.12669e-06
2.73145e-05 7.12669e-06 -0.000247802
0.000271714 0.000232176 2.24709e-05
0.000232176 -0.000236782 1.82176e-05
2.24709e-05 1.82176e-05 -0.000394819
0.00764596 0.000181695 1.133e-05
0.000181695 0.0045307 2.15039e-06
1.133e-05 2.15039e-06 0.00453534
0.00775025 2.87675e-05 0.000317935
2.87675e-05 0.00458787 2.48506e-05
0.000317935 2.48506e-05 0.00459947
0.0020349 8.09921e-05 -6.37819e-06
8.09921e-05 1.73776e-05 -1.90299e-08
-6.37819e-06 -1.90299e-08 -2.43801e-06
0.00216492 0.000131453 3.48849e-08
0.000131453 5.34346e-06 -8.6526e-09
3.48849e-08 -8.6526e-09 2.01586e-05
0.00222124 0.000233506 -2.08623e-07
0.000233506 -6.53385e-05 -1.78813e-07
-2.08623e-07 -1.78813e-07 -3.21316e-05
0.00197321 6.9231e-06 -7.11746e-06
6.9231e-06 -2.49387e-05 3.16643e-07
-7.11746e-06 3.16643e-07 -7.036e-05
0.00203786 3.12964e-05 6.7195e-07
3.12964e-05 8.4751e-06 9.61959e-09
6.7195e-07 9.61959e-09 -2.1883e-06
0.00215302 5.12243e-05 -1.02607e-06
5.12243e-05 -2.14437e-05 -4.11757e-08
-1.02607e-06 -4.11757e-08 5.86284e-06
0.00210326 -2.51892e-05 2.80541e-06
-2.51892e-05 1.49112e-05 -3.20767e-07
2.80541e-06 -3.20767e-07 2.29191e-05
0.00201631 -6.05404e-05 -8.91855e-07
-6.05404e-05 -1.99604e-05 7.21545e-08
-8.91855e-07 7.21545e-08 -5.58655e-05
0.00191123 -6.78201e-05 -1.94633e-06
-6.78201e-05 3.02241e-05 9.09326e-08
-1.94633e-06 9.09326e-08 -5.88263e-05
0.00211237 -0.000145805 4.01685e-06
-0.000145805 3.30603e-05 -1.22863e-07
4.01685e-06 -1.22863e-07 -1.34595e-05
0.00203339 -0.000138178 7.00339e-07
-0.000138178 9.9164e-05 -5.37186e-09
7.00339e-07 -5.37186e-09 4.52591e-06
0.00134239 -7.80135e-05 -1.04706e-05
-7.80135e-05 6.21094e-05 4.75295e-07
-1.04706e-05 4.75295e-07 -6.84347e-05
0.00201181 -0.00019576 2.29429e-06
-0.00019576 7.17824e-05 -4.01858e-07
2.29429e-06 -4.01858e-07 -3.48207e-05
0.00115344 -0.000116517 5.37381e-08
-0.000116517 -6.95137e-05 4.60637e-08
5.37381e-08 4.60637e-08 -0.000220614
0.000321168 -2.5377e-05 -1.73606e-05
-2.5377e-05 -0.000254656 3.10106e-06
-1.73606e-05 3.10106e-06 -0.00035216
0.00120558 -0.00015572 6.8995e-06
-0.00015572 -5.24974e-05 -1.82563e-06
6.8995e-06 -1.82563e-06 -0.000214992
0.000344286 -7.78563e-05 -4.35289e-07
-7.78563e-05 -0.000238703 4.94062e-07
-4.35289e-07 4.94062e-07 -0.000344086
0.00683929 -6.76971e-05 -0.000347571
-6.76971e-05 0.00400746 1.76731e-05
-0.000347571 1.76731e-05 0.0040358
0.00042092 -8.22137e-05 1.34527e-05
-8.22137e-05 -0.000197562 -8.56961e-06
1.34527e-05 -8.56961e-06 -0.000308922
0.00436413 -0.000115899 0.000150872
-0.000115899 0.0024399 -8.45187e-06
0.000150872 -8.45187e-06 0.00242413
0.00159583 -9.49467e-05 8.69117e-05
-9.49467e-05 0.000691199 -1.28356e-05
8.69117e-05 -1.28356e-05 0.000635854
0.00209597 0.000138553 -7.71957e-06
0.000138553 6.39023e-05 -6.84739e-07
-7.71957e-06 -6.84739e-07 3.67488e-05
0.00218585 0.000213654 -4.48167e-06
0.000213654 0.000107258 -1.30082e-07
-4.48167e-06 -1.30082e-07 4.20316e-05
0.00209344 0.000167303 -7.29877e-07
0.000167303 1.60463e-05 -2.06707e-07
-7.29877e-07 -2.06707e-07 -4.32304e-06
0.00201976 0.000272292 -4.28743e-07
0.000272292 9.43813e-05 8.32242e-07
-4.28743e-07 8.32242e-07 -4.0744e-05
0.0021981 0.000291313 -1.06813e-07
0.000291313 9.80816e-05 -8.79706e-08
-1.06813e-07 -8.79706e-08 2.15965e-05
0.00217148 0.000246423 2.36343e-06
0.000246423 3.59615e-05 5.59913e-07
2.36343e-06 5.59913e-07 2.45661e-06
0.00128283 0.000210336 -9.35659e-06
0.000210336 -2.18164e-05 -1.92086e-06
-9.35659e-06 -1.92086e-06 -0.000191283
0.00206015 0.000343836 2.59956e-06
0.000343836 0.000144398 8.97267e-07
2.59956e-06 8.97267e-07 -1.8644e-05
0.00218222 0.000379129 2.93871e-06
0.000379129 0.000124862 -2.23814e-07
2.93871e-06 -2.23814e-07 1.12857e-05
0.000331952 0.000104296 -1.75532e-05
0.000104296 -0.000259431 -9.18919e-06
-1.75532e-05 -9.18919e-06 -0.00037177
0.00131486 0.000261583 1.921e-07
0.000261583 -2.45015e-07 7.31812e-07
1.921e-07 7.31812e-07 -0.000190006
0.00206757 0.000425575 4.64726e-06
0.000425575 0.000179055 -8.98586e-08
4.64726e-06 -8.98586e-08 -2.1318e-05
0.00713855 0.000300351 -0.000349025
0.000300351 0.00421406 -4.28403e-05
-0.000349025 -4.28403e-05 0.00421611
0.000322611 0.000148171 2.05244e-07
0.000148171 -0.000263228 4.18358e-07
2.05244e-07 4.18358e-07 -0.000387844
0.00120699 0.0003004 1.89459e-05
0.0003004 -4.77293e-05 5.36037e-06
1.89459e-05 5.36037e-06 -0.000260102
0.00737156 0.00027675 1.3389e-05
0.00027675 0.00436544 4.48015e-06
1.3389e-05 4.48015e-06 0.004364
0.000298176 0.000194151 2.04091e-05
0.000194151 -0.000258478 1.61994e-05
2.04091e-05 1.61994e-05 -0.000400906
0.00759275 0.000153277 0.000343233
0.000153277 0.00448294 3.44141e-05
0.000343233 3.44141e-05 0.00449752
0.0019566 6.25665e-05 -7.22554e-06
6.25665e-05 -3.16028e-05 2.08344e-07
-7.22554e-06 2.08344e-07 -8.09235e-05
0.00204924 8.74507e-05 -1.0147e-06
8.74507e-05 3.16215e-05 -1.89898e-07
-1.0147e-06 -1.89898e-07 1.14173e-05
0.00215605 0.000127422 1.27341e-06
0.000127422 2.13019e-06 1.9142e-07
1.27341e-06 1.9142e-07 1.47359e-05
0.0018998 -9.78015e-06 -1.2361e-06
-9.78015e-06 3.07585e-05 3.69381e-08
-1.2361e-06 3.69381e-08 -5.70366e-05
0.0020141 8.4422e-06 -1.18924e-06
8.4422e-06 2.92618e-06 1.60667e-08
-1.18924e-06 1.60667e-08 -3.92894e-05
0.00202262 3.76579e-05 5.06725e-06
3.76579e-05 -5.27419e-06 -1.06586e-07
5.06725e-06 -1.06586e-07 -1.27946e-05
0.0020971 -5.98221e-05 3.57767e-06
-5.98221e-05 3.74543e-05 -4.50303e-07
3.57767e-06 -4.50303e-07 3.10573e-06
0.00196795 -6.80774e-05 6.86101e-07
-6.80774e-05 7.06696e-05 1.48261e-07
6.86101e-07 1.48261e-07 -1.71351e-05
0.00128217 -3.52258e-05 -1.05739e-05
-3.52258e-05 3.42076e-05 -2.82983e-07
-1.05739e-05 -2.82983e-07 -8.86365e-05
0.00186191 -0.000138016 1.02118e-06
-0.000138016 -1.21732e-05 4.86352e-08
1.02118e-06 4.86352e-08 -0.000116257
0.00121757 -7.67795e-05 1.64122e-06
-7.67795e-05 -1.82877e-05 -2.23474e-07
1.64122e-06 -2.23474e-07 -0.00015428
0.000326001 -9.4244e-06 -1.78135e-05
-9.4244e-06 -0.000250177 1.59686e-06
-1.78135e-05 1.59686e-06 -0.000342928
0.00113063 -0.000112909 8.62568e-06
-0.000112909 -7.94781e-05 -1.20495e-06
8.62568e-06 -1.20495e-06 -0.000229511
0.000308234 -3.81448e-05 6.34637e-07
-3.81448e-05 -0.00026275 -2.58496e-07
6.34637e-07 -2.58496e-07 -0.000359589
0.00664385 -0.000163748 -0.00034933
-0.000163748 0.00390257 1.92569e-05
-0.00034933 1.92569e-05 0.00392394
0.000330231 -6.14071e-05 1.69731e-05
-6.14071e-05 -0.000246384 -4.67934e-06
1.69731e-05 -4.67934e-06 -0.000350826
0.00676717 -0.000104585 7.65597e-06
-0.000104585 0.00396602 3.97442e-08
7.65597e-06 3.97442e-08 0.00399334
0.00191036 -4.14683e-05 0.000267322
-4.14683e-05 0.000859378 -1.91776e-05
0.000267322 -1.91776e-05 0.000850717
0.00207382 0.000143477 -7.60031e-06
0.000143477 4.50847e-05 -4.81492e-07
-7.60031e-06 -4.81492e-07 -1.51393e-05
0.00204765 0.000139655 -1.61702e-06
0.000139655 2.19788e-05 -1.52765e-07
-1.61702e-06 -1.52765e-07 -1.38011e-07
0.00201665 0.000202719 -8.52454e-08
0.000202719 9.13809e-05 8.45419e-07
-8.52454e-08 8.45419e-07 -2.26661e-05
0.00218815 0.000212925 7.68892e-07
0.000212925 0.000105066 9.95795e-09
7.68892e-07 9.95795e-09 4.04535e-05
0.00207993 0.000161159 3.53617e-06
0.000161159 1.13256e-05 3.38993e-07
3.53617e-06 3.38993e-07 -8.9994e-06
0.00121733 0.000158372 -7.65349e-06
0.000158372 -4.2613e-05 -1.32736e-06
-7.65349e-06 -1.32736e-06 -0.000203427
0.00207345 0.00027291 3.05889e-07
0.00027291 0.00013803 -7.30095e-08
3.05889e-07 -7.30095e-08 3.03494e-06
0.00223036 0.000290752 3.93719e-06
0.000290752 0.000115957 6.08269e-07
3.93719e-06 6.08269e-07 3.80783e-05
0.000344812 7.50623e-05 -1.69548e-05
7.50623e-05 -0.000247802 -6.53557e-06
-1.69548e-05 -6.53557e-06 -0.000353943
0.00126131 0.000208984 1.14343e-06
0.000208984 -3.04153e-05 6.83725e-07
1.14343e-06 6.83725e-07 -0.00020375
0.00208752 0.000342331 1.92111e-06
0.000342331 0.000175965 4.57676e-08
1.92111e-06 4.57676e-08 6.03677e-06
0.00696082 0.000300565 -0.000363703
0.000300565 0.0041129 -3.91816e-05
-0.000363703 -3.91816e-05 0.00411568
0.00035362 0.000109227 4.34905e-07
0.000109227 -0.000249081 2.19464e-07
4.34905e-07 2.19464e-07 -0.000362796
0.00126472 0.000254965 1.11297e-05
0.000254965 -2.8648e-05 4.18389e-06
1.11297e-05 4.18389e-06 -0.000216497
0.00721169 0.000326443 9.82754e-06
0.000326443 0.00427277 5.27477e-06
9.82754e-06 5.27477e-06 0.00426909
0.000340298 0.000148601 1.81086e-05
0.000148601 -0.000256345 1.30027e-05
1.81086e-05 1.30027e-05 -0.000381871
0.00744779 0.000283112 0.000356322
0.000283112 0.00440634 4.45698e-05
0.000356322 4.45698e-05 0.00441011
0.00188336 5.92136e-05 3.47999e-07
5.92136e-05 2.24199e-05 5.10025e-08
3.47999e-07 5.10025e-08 -7.01442e-05
0.00201945 6.40515e-05 -3.15721e-06
6.40515e-05 1.78832e-05 -1.19558e-07
-3.15721e-06 -1.19558e-07 -3.23261e-05
0.00206401 9.34603e-05 6.40179e-06
9.34603e-05 4.61127e-05 1.22982e-07
6.40179e-06 1.22982e-07 2.55357e-05
0.00123066 -1.23799e-05 -1.10396e-05
-1.23799e-05 6.35649e-06 -2.85962e-07
-1.10396e-05 -2.85962e-07 -0.000114405
0.00195032 -6.28883e-06 1.26081e-06
-6.28883e-06 6.77546e-05 4.38278e-08
1.26081e-06 4.38278e-08 -1.93369e-05
0.00205687 9.3994e-06 3.50669e-06
9.3994e-06 3.22173e-05 -1.7518e-07
3.50669e-06 -1.7518e-07 -6.64806e-06
0.00201631 -6.86691e-05 2.91312e-06
-6.86691e-05 0.000105368 1.41369e-07
2.91312e-06 1.41369e-07 1.86268e-05
0.00124616 -3.68738e-05 1.34067e-06
-3.68738e-05 7.24469e-06 -1.24254e-07
1.34067e-06 -1.24254e-07 -0.00011596
0.000339365 -3.249e-05 -1.85865e-05
-3.249e-05 -0.000238754 5.99169e-07
-1.85865e-05 5.99169e-07 -0.000326966
0.00108025 -7.45249e-05 1.1898e-05
-7.45249e-05 -0.000106466 -8.94067e-07
1.1898e-05 -8.94067e-07 -0.000247897
0.000317714 1.94034e-06 3.60443e-07
1.94034e-06 -0.000256843 9.55975e-08
3.60443e-07 9.55975e-08 -0.00034821
0.00653668 -0.000132072 -0.000349978
-0.000132072 0.00383366 1.44721e-05
-0.000349978 1.44721e-05 0.00385885
0.000348607 -4.6369e-05 1.81332e-05
-4.6369e-05 -0.000235528 -2.81835e-06
1.81332e-05 -2.81835e-06 -0.000333318
0.00665141 -5.83553e-05 -2.68965e-06
-5.83553e-05 0.00389336 3.23705e-06
-2.68965e-06 3.23705e-06 0.00392348
0.00675578 -0.000118962 0.000349474
-0.000118962 0.00396039 -1.73247e-05
0.000349474 -1.73247e-05 0.00398789
0.00199166 0.000129521 -7.04379e-07
0.000129521 8.70837e-05 3.00258e-07
-7.04379e-07 3.00258e-07 -1.32527e-05
0.00208894 0.000142073 -2.66303e-06
0.000142073 4.84612e-05 -3.42204e-07
-2.66303e-06 -3.42204e-07 -6.12605e-06
0.0019988 0.000141128 5.75364e-06
0.000141128 -2.04079e-05 5.14779e-07
5.75364e-06 5.14779e-07 -3.75329e-05
0.00118778 0.000110488 -9.87765e-06
0.000110488 -4.53951e-05 -4.5764e-07
-9.87765e-06 -4.5764e-07 -0.000192994
0.00205173 0.000201755 2.31106e-07
0.000201755 0.000118757 -1.22699e-07
2.31106e-07 -1.22699e-07 4.84083e-06
0.00218862 0.000212093 4.59135e-06
0.000212093 0.000101637 -1.21664e-07
4.59135e-06 -1.21664e-07 3.76088e-05
0.000342378 5.09074e-05 -1.6611e-05
5.09074e-05 -0.000243704 -4.25871e-06
-1.6611e-05 -4.25871e-06 -0.00034478
0.0012056 0.000160727 2.08657e-07
0.000160727 -4.80416e-05 2.12135e-07
2.08657e-07 2.12135e-07 -0.000210249
0.00210832 0.000272976 8.7924e-07
0.000272976 0.000168806 -1.23712e-06
8.7924e-07 -1.23712e-06 3.38186e-05
0.00680594 0.000247895 -0.00037217
0.000247895 0.00401287 -3.17888e-05
-0.00037217 -3.17888e-05 0.00402507
0.000355936 8.23685e-05 8.05911e-07
8.23685e-05 -0.000242294 1.99343e-07
8.05911e-07 1.99343e-07 -0.000350267
0.0012134 0.000206196 7.19423e-06
0.000206196 -5.79038e-05 2.97304e-06
7.19423e-06 2.97304e-06 -0.000234959
0.0070467 0.000318803 5.15869e-06
0.000318803 0.0041721 3.49023e-06
5.15869e-06 3.49023e-06 0.00417271
0.000373528 0.00011586 1.70239e-05
0.00011586 -0.000238452 1.00815e-05
1.70239e-05 1.00815e-05 -0.000354123
0.00729276 0.000363923 0.000369257
0.000363923 0.00433502 5.10407e-05
0.000369257 5.10407e-05 0.00432584
0.00110036 3.15766e-05 -1.15285e-05
3.15766e-05 -7.87609e-05 -4.06316e-07
-1.15285e-05 -4.06316e-07 -0.000210328
0.00197775 5.69132e-05 1.37183e-06
5.69132e-05 8.44164e-05 -6.27322e-09
1.37183e-06 -6.27322e-09 -2.92706e-06
0.00208407 6.605e-05 2.9447e-06
6.605e-05 6.79741e-05 -4.17864e-08
2.9447e-06 -4.17864e-08 1.69721e-05
0.00038676 3.20533e-05 -1.90887e-05
3.20533e-05 -0.000215746 -1.10212e-06
-1.90887e-05 -1.10212e-06 -0.000294752
0.0012051 -7.33282e-06 1.00829e-06
-7.33282e-06 -1.348e-05 1.30921e-08
1.00829e-06 1.30921e-08 -0.000134264
0.0019965 -1.23779e-06 3.53122e-06
-1.23779e-06 0.000101602 -8.98015e-08
3.53122e-06 -8.98015e-08 1.51586e-05
0.00121455 -3.81473e-05 1.30557e-05
-3.81473e-05 -1.75652e-05 -3.35205e-07
1.30557e-05 -3.35205e-07 -0.000141066
0.000345373 -6.02057e-06 4.55844e-07
-6.02057e-06 -0.000235422 3.86127e-07
4.55844e-07 3.86127e-07 -0.000323419
0.00639555 5.96426e-06 -0.000350103
5.96426e-06 0.00373648 2.58938e-06
-0.000350103 2.58938e-06 0.0037698
0.000306018 1.32468e-05 1.76567e-05
1.32468e-05 -0.00026615 -5.38694e-07
1.76567e-05 -5.38694e-07 -0.000356015
0.00649559 -0.000129784 -7.56431e-06
-0.000129784 0.00380985 2.17322e-06
-7.56431e-06 2.17322e-06 0.00383443
0.00658246 -4.05704e-05 0.000335755
-4.05704e-05 0.00384976 -9.53632e-06
0.000335755 -9.53632e-06 0.00388009
0.00114782 6.72637e-05 -1.13523e-05
6.72637e-05 -5.53926e-05 -5.04962e-07
-1.13523e-05 -5.04962e-07 -0.000192854
0.00203556 0.000126334 -2.7744e-07
0.000126334 0.000114991 -3.47571e-07
-2.7744e-07 -3.47571e-07 1.88695e-05
0.00208593 0.000140023 1.39035e-06
0.000140023 3.94894e-05 -5.13026e-07
1.39035e-06 -5.13026e-07 -9.71122e-06
0.00273173 6.95284e-05 -0.000158582
6.95284e-05 0.00127935 -5.65961e-06
-0.000158582 -5.65961e-06 0.00122427
0.00116456 0.000111572 2.09418e-07
0.000111572 -6.08167e-05 2.10466e-07
2.09418e-07 2.10466e-07 -0.00020947
0.00209425 0.00020109 1.30464e-06
0.00020109 0.000150594 -1.00097e-06
1.30464e-06 -1.00097e-06 3.68172e-05
0.00668279 0.000180855 -0.000371245
0.000180855 0.00392794 -2.27107e-05
-0.000371245 -2.27107e-05 0.00395046
0.000364266 7.07348e-05 1.17218e-06
7.07348e-05 -0.00022851 5.27385e-07
1.17218e-06 5.27385e-07 -0.000331955
0.00122178 0.000163649 8.09927e-06
0.000163649 -3.66978e-05 1.67286e-06
8.09927e-06 1.67286e-06 -0.000200169
0.00691101 0.000264896 1.27479e-06
0.000264896 0.00408059 1.63032e-06
1.27479e-06 1.63032e-06 0.00409114
0.000380102 9.23651e-05 1.7068e-05
9.23651e-05 -0.000227232 7.72184e-06
1.7068e-05 7.72184e-06 -0.000337674
0.00713973 0.000355394 0.000376821
0.000355394 0.00424474 4.91896e-05
0.000376821 4.91896e-05 0.00423839
0.00047758 1.32916e-05 -1.49265e-05
1.32916e-05 -0.000147406 -1.9726e-06
-1.49265e-05 -1.9726e-06 -0.000235574
0.00113921 3.10757e-05 -8.16811e-08
3.10757e-05 -5.79264e-05 1.12597e-07
-8.16811e-08 1.12597e-07 -0.000185583
0.00206686 5.31442e-05 3.75001e-06
5.31442e-05 0.000142787 -2.58762e-07
3.75001e-06 -2.58762e-07 6.0599e-05
0.00619141 -0.000104659 -0.000330386
-0.000104659 0.00362701 5.01409e-06
-0.000330386 5.01409e-06 0.00364883
0.000340287 1.03872e-05 -5.62605e-07
1.03872e-05 -0.000240946 -1.88608e-07
-5.62605e-07 -1.88608e-07 -0.000322577
0.00119395 -3.60486e-06 1.29635e-05
-3.60486e-06 -2.42119e-05 2.83106e-08
1.29635e-05 2.83106e-08 -0.000144966
0.00029984 2.07947e-05 1.77521e-05
2.07947e-05 -0.000266051 7.27926e-07
1.77521e-05 7.27926e-07 -0.000352632
0.00631893 -2.90726e-05 1.75223e-06
-2.90726e-05 0.00369525 -1.79239e-06
1.75223e-06 -1.79239e-06 0.00372328
0.0064609 -5.33103e-05 0.000338467
-5.33103e-05 0.00377539 -6.91172e-06
0.000338467 -6.91172e-06 0.00380631
0.00280034 2.05331e-05 -0.000151441
2.05331e-05 0.0013247 -2.98865e-06
-0.000151441 -2.98865e-06 0.00127436
0.00114246 7.06526e-05 1.32964e-08
7.06526e-05 -6.20614e-05 -7.16894e-08
1.32964e-08 -7.16894e-08 -0.000200228
0.00210558 0.000123796 2.21125e-06
0.000123796 0.00016097 -7.575e-07
2.21125e-06 -7.575e-07 6.93275e-05
0.00612198 -2.50136e-05 -0.000152028
-2.50136e-05 0.00358564 4.19814e-08
-0.000152028 4.19814e-08 0.00357536
0.000352586 6.14165e-05 4.12321e-07
6.14165e-05 -0.000231575 3.17032e-07
4.12321e-07 3.17032e-07 -0.000327834
0.00116189 0.00011317 1.00561e-05
0.00011317 -6.24539e-05 8.1723e-07
1.00561e-05 8.1723e-07 -0.000212072
0.00672754 0.000156975 -1.03525e-05
0.000156975 0.00395038 -1.8803e-06
-1.03525e-05 -1.8803e-06 0.003974
0.000361755 9.36254e-05 1.83512e-05
9.36254e-05 -0.000229516 6.09984e-06
1.83512e-05 6.09984e-06 -0.000334429
0.00699333 0.000288403 0.000381086
0.000288403 0.00413807 4.08623e-05
0.000381086 4.08623e-05 0.00414656
0.00188645 -5.34435e-05 -0.000258163
-5.34435e-05 0.000851216 1.67246e-06
-0.000258163 1.67246e-06 0.000853663
0.00155752 3.34632e-05 -6.57198e-05
3.34632e-05 0.000532733 -5.58033e-08
-6.57198e-05 -5.58033e-08 0.00046897
0.00117649 3.32194e-05 1.22276e-05
3.32194e-05 -3.75184e-05 3.30253e-07
1.22276e-05 3.30253e-07 -0.000161301
0.00626378 -5.13668e-05 6.6276e-06
-5.13668e-05 0.00366614 3.03057e-06
6.6276e-06 3.03057e-06 0.0036938
0.000358163 -1.03634e-05 1.84003e-05
-1.03634e-05 -0.000223023 9.76081e-07
1.84003e-05 9.76081e-07 -0.000308613
0.00634664 -9.04938e-05 0.000348642
-9.04938e-05 0.00371798 -6.18981e-06
0.000348642 -6.18981e-06 0.00374527
0.00143475 2.47717e-05 -7.04323e-05
2.47717e-05 0.000593272 -1.16692e-06
-7.04323e-05 -1.16692e-06 0.000551616
0.00154159 2.20181e-05 -6.69969e-05
2.20181e-05 0.000524458 -1.7398e-06
-6.69969e-05 -1.7398e-06 0.000455212
0.00110028 7.20724e-05 1.13465e-05
7.20724e-05 -9.16821e-05 3.3629e-07
1.13465e-05 3.3629e-07 -0.000230693
0.00405494 7.51649e-05 0.00013077
7.51649e-05 0.00224892 4.40485e-06
0.00013077 4.40485e-06 0.00224266
0.000344921 7.0813e-05 1.89228e-05
7.0813e-05 -0.000235277 4.18372e-06
1.89228e-05 4.18372e-06 -0.000331753
0.00683149 0.000144449 0.000363778
0.000144449 0.00400742 2.46381e-05
0.000363778 2.46381e-05 0.00403486
0.00620389 -1.89175e-05 -8.59258e-06
-1.89175e-05 0.00363221 -3.54868e-06
-8.59258e-06 -3.54868e-06 0.00365831
0.000349827 5.23073e-05 2.00723e-05
5.23073e-05 -0.0002394 2.51096e-06
2.00723e-05 2.51096e-06 -0.000317922
0.00616769 3.23495e-05 0.000335728
3.23495e-05 0.00360062 1.58689e-07
0.000335728 1.58689e-07 0.00363206
0.00387362 3.56519e-05 0.000141854
3.56519e-05 0.00214 5.95909e-06
0.000141854 5.95909e-06 0.00213666
0.000380431 1.1795e-05 1.84405e-05
1.1795e-05 -0.000211985 2.25429e-06
1.84405e-05 2.25429e-06 -0.000300516
0.00657058 1.20337e-05 0.00034951
1.20337e-05 0.00384353 1.12075e-05
0.00034951 1.12075e-05 0.0038737
0.00626535 -0.000113651 0.000335168
-0.000113651 0.00367442 -4.50724e-06
0.000335168 -4.50724e-06 0.00369653
0.00632368 1.72979e-05 0.00034034
1.72979e-05 0.00368921 6.62532e-06
0.00034034 6.62532e-06 0.00372251
