# vtk DataFile Version 2.0
Wound Healing Simulation
ASCII
DATASET UNSTRUCTURED_GRID
POINTS 3012 float
69.9759 18.75 4
67.2507 60.3285 4
69.976 18.75 2
73.0099 25.446 4
71.1327 20.9142 4
68.6801 16.6661 4
67.8214 19.9263 3.97336
67.2507 60.3286 2
71.1327 54.0858 4
68.6801 58.3339 4
65.6939 62.2254 4
65.3081 58.9988 3.972
74.6784 42.3946 4
73.7221 47.2057 4
69.9759 18.75 0
73.0099 25.446 2
68.6801 16.6661 2
71.1327 20.9142 2
67.8219 19.9299 2
74.6792 32.6053 4
73.7222 27.7943 4
72.1454 23.1494 4
70.6113 26.2217 3.97336
68.8818 21.9578 3.97358
67.2507 14.6715 4
66.6327 17.9733 3.97217
65.7535 21.0404 3.96226
67.2507 60.3285 0
71.1327 54.0858 2
68.6801 58.3339 2
65.694 62.2255 2
65.3095 58.9943 2
72.1454 51.8506 4
69.9759 56.25 4
68.8322 53.1143 3.97339
64.0165 64.0165 4
66.6063 57.1329 3.97321
63.8811 60.7619 3.96926
63.4835 57.7606 3.96195
60.3285 67.2507 4
74.6792 42.3947 2
73.7222 47.2057 2
74.9194 39.9526 4
74.2788 44.8158 4
72.1659 42.0858 3.9748
73.0099 49.554 4
71.2464 46.5985 3.97332
73.0099 25.446 0
71.1327 20.9142 0
68.6801 16.6661 0
67.8214 19.9263 0.0266363
74.6792 32.6053 2
73.7222 27.7943 2
67.2508 14.6715 2
72.1455 23.1494 2
70.6106 26.2224 2
66.6337 17.9775 2
68.8819 21.9604 2
65.7519 21.0419 2
74.9197 35.0474 4
74.2794 30.1841 4
72.1826 32.9449 3.97527
71.2757 28.4328 3.97344
69.8121 24.0596 3.97344
68.3245 26.9598 3.96412
66.7235 22.9461 3.9629
65.694 12.7746 4
65.3193 16.1065 3.97089
64.6713 19.2118 3.96134
63.7382 22.0935 3.9643
71.1327 54.0858 0
65.6939 62.2254 0
68.6801 58.3339 0
65.3081 58.9988 0.0280039
72.1455 51.8506 2
69.9759 56.25 2
68.8324 53.1112 2
64.0165 64.0165 2
66.6075 57.1282 2
63.8819 60.7571 2
63.4753 57.7587 2
62.2254 65.694 4
58.8908 65.4121 3.98058
69.7651 50.9902 3.97313
67.7793 55.1679 3.97351
66.6017 52.1975 3.96295
62.3318 62.424 3.9746
64.6243 56.0196 3.96236
62.1917 59.3879 3.96244
61.7136 56.6302 3.96053
58.3339 68.6801 4
60.3285 67.2508 2
73.7221 47.2057 0
74.6784 42.3946 0
74.9197 39.9526 2
74.2794 44.8159 2
72.1649 42.0855 2
73.0099 49.554 2
71.2456 46.5975 2
75 37.5 4
72.4032 39.8027 3.97595
71.7799 44.3531 3.97425
69.7961 41.789 3.966
70.5718 48.8145 3.97311
68.8912 46.0103 3.96554
74.6792 32.6053 0
73.7222 27.7943 0
67.2507 14.6715 0
72.1454 23.1494 0
70.6113 26.2217 0.0266362
68.8818 21.9578 0.0264163
66.6327 17.9733 0.0278255
65.7535 21.0404 0.0377393
74.9197 35.0474 2
74.2794 30.1841 2
72.1817 32.9447 2
71.2748 28.433 2
65.694 12.7745 2
65.3201 16.111 2
69.8118 24.0613 2
68.3282 26.9604 2
64.6655 19.2137 2
66.7245 22.9474 2
63.7369 22.0942 2
72.4112 35.2254 3.97607
71.8016 30.678 3.97448
69.8338 33.2727 3.966
68.953 29.0447 3.96478
67.579 24.9227 3.96344
66.033 27.6785 3.97052
64.0165 10.9835 4
64.6004 23.8846 3.96664
63.8845 14.3322 3.96765
63.4886 17.4635 3.95983
62.763 20.3829 3.96214
61.8284 23.0465 3.97005
60.6804 11.1028 3.97534
57.6047 11.4804 3.96649
72.1454 51.8506 0
69.9759 56.25 0
68.8322 53.1143 0.0266107
64.0165 64.0165 0
63.8811 60.7619 0.0307411
66.6063 57.1329 0.026788
63.4835 57.7606 0.0380512
62.2255 65.694 2
58.8932 65.4073 2
69.7649 50.988 2
67.78 55.1638 2
66.6022 52.1961 2
62.3336 62.4181 2
64.6181 56.0176 2
62.1878 59.3879 2
61.7101 56.6301 2
60.6651 63.9727 3.97758
57.0213 66.7324 3.9825
57.5504 63.6673 3.97274
67.463 50.1665 3.96363
65.6577 54.1614 3.96245
64.3574 51.3311 3.96667
60.7662 60.9143 3.96669
62.6831 55.0151 3.9633
60.5749 58.1088 3.95793
60.136 55.6989 3.96534
56.25 69.9759 4
58.3339 68.6801 2
60.3285 67.2507 0
58.9177 9.65977 3.97755
62.2254 9.30607 4
73.0099 49.554 0
74.2788 44.8158 0
71.2464 46.5985 0.0266827
72.1659 42.0858 0.0252019
74.9194 39.9526 0
75 37.5 2
72.4029 39.8026 2
71.7794 44.3523 2
69.7965 41.7888 2
70.5713 48.813 2
68.8954 46.0098 2
72.4867 37.5129 3.97566
70.035 39.6581 3.96645
69.42 43.9054 3.9659
67.4637 41.4847 3.97514
68.2304 48.0995 3.96451
66.5394 45.4071 3.97345
74.9197 35.0474 0
74.2794 30.1841 0
72.1826 32.9449 0.0247344
71.2757 28.4328 0.0265566
65.694 12.7746 0
65.3193 16.1065 0.0291097
69.8121 24.0596 0.0265616
68.3245 26.9598 0.0358777
66.7235 22.9461 0.0371034
64.6713 19.2118 0.0386598
63.7382 22.0935 0.0357022
72.4109 35.2251 2
71.801 30.6781 2
69.8328 33.2732 2
68.9567 29.0451 2
64.0165 10.9835 2
63.8856 14.3376 2
63.4832 17.4645 2
67.5815 24.9237 2
66.0306 27.6797 2
62.7633 20.3829 2
64.5982 23.8857 2
61.8264 23.0469 2
60.6824 11.1079 2
57.6038 11.4733 2
70.0518 35.3953 3.96656
69.4589 31.1548 3.96511
67.5319 33.6082 3.97449
66.6237 29.6577 3.97284
65.3619 25.7495 3.96857
63.8378 28.3379 3.97598
62.3369 12.6597 3.97336
62.5743 24.7347 3.97278
62.1853 15.8054 3.9621
61.6834 18.7505 3.95952
60.9657 21.4515 3.96622
60.0556 23.8731 3.97349
59.2376 12.8158 3.96301
55.8676 10.2649 3.97377
56.3919 13.1812 3.96552
69.7651 50.9902 0.0268744
62.2254 65.694 0
58.8908 65.4121 0.0194208
67.7793 55.1679 0.0264934
66.6017 52.1975 0.0370533
62.3318 62.424 0.0254002
62.1917 59.3879 0.0375602
64.6243 56.0196 0.0376414
61.7136 56.6302 0.0394706
60.6676 63.9693 2
57.0243 66.7286 2
57.5513 63.6715 2
67.4647 50.1654 2
65.6555 54.1596 2
64.3556 51.3303 2
60.7629 60.915 2
62.6832 55.0154 2
60.5712 58.1093 2
60.135 55.6991 2
55.0674 67.9301 3.98526
59.212 62.3316 3.96657
55.7964 64.8845 3.97244
56.316 62.0389 3.97808
65.1419 49.3579 3.9687
63.541 53.2371 3.96489
62.1161 50.5546 3.9713
59.2906 59.5112 3.95846
60.8365 54.2168 3.9681
59.1009 56.9184 3.96041
58.9801 55.0712 3.96867
48.0992 68.5716 3.98158
50.945 69.9306 3.98796
54.0858 71.1327 4
56.25 69.976 2
58.3339 68.6801 0
57.0545 8.3393 3.97863
60.3285 7.74928 4
58.9203 9.66496 2
62.2255 9.30602 2
70.5718 48.8145 0.0268918
71.7799 44.3531 0.0257466
68.8912 46.0103 0.0344627
69.7961 41.789 0.0340033
72.4032 39.8027 0.0240455
75 37.5 0
72.4858 37.5127 2
70.0345 39.658 2
69.4212 43.905 2
67.4609 41.4842 2
68.2325 48.0985 2
66.5363 45.4059 2
70.123 37.5236 3.96662
67.7102 39.5078 3.97497
67.0741 43.4475 3.97483
65.2528 41.1831 3.97666
65.8816 47.3751 3.97101
64.3163 44.7833 3.97592
72.4112 35.2254 0.023925
71.8016 30.678 0.0255173
69.8338 33.2727 0.0339971
68.953 29.0447 0.0352207
64.0165 10.9835 0
63.8845 14.3322 0.0323496
63.4886 17.4635 0.040169
67.579 24.9227 0.0365617
66.033 27.6785 0.0294836
64.6004 23.8846 0.0333638
62.763 20.3829 0.0378636
61.8284 23.0465 0.0299508
60.6804 11.1028 0.0246644
57.6047 11.4804 0.0335126
70.0515 35.3954 2
69.4598 31.1552 2
67.5293 33.6087 2
66.6223 29.6586 2
62.3387 12.6652 2
62.1824 15.8056 2
61.6834 18.7502 2
65.3596 25.7507 2
63.8353 28.3388 2
60.965 21.4511 2
62.5721 24.7353 2
60.0553 23.8734 2
59.2363 12.8144 2
56.3906 13.1781 2
55.8681 10.2696 2
67.7513 35.5575 3.97464
67.1362 31.6479 3.97422
65.4134 33.959 3.97652
64.3514 30.2615 3.97566
63.2433 26.5048 3.97496
61.8215 28.8925 3.97555
60.7661 14.2511 3.96411
60.6462 25.4797 3.97495
60.5303 17.1883 3.95743
59.9751 19.9345 3.96206
59.3005 22.4125 3.96908
58.5224 24.504 3.97409
54.0313 9.16068 3.97011
57.8875 14.3905 3.9602
54.7758 12.0732 3.97099
55.2821 14.737 3.95854
67.463 50.1665 0.036371
57.0213 66.7324 0.017498
60.6651 63.9727 0.0224237
57.5504 63.6673 0.0272563
65.6577 54.1614 0.0375465
64.3574 51.3311 0.0333309
60.7662 60.9143 0.033312
60.5749 58.1088 0.0420713
62.6831 55.0151 0.0367018
60.136 55.6989 0.0346598
55.0707 67.9271 2
59.2108 62.3351 2
55.798 64.884 2
56.314 62.0394 2
65.1395 49.3568 2
63.54 53.2368 2
62.1149 50.5539 2
59.2998 59.5176 2
60.8372 54.2171 2
59.1095 56.921 2
58.9873 55.0727 2
53.0391 68.9983 3.98606
53.9615 66.0011 3.97386
57.8584 60.8238 3.96423
54.6652 63.1519 3.96879
55.187 60.5581 3.97554
62.8543 48.5705 3.97376
61.4554 52.4784 3.9697
59.8149 49.8793 3.97305
57.8904 58.1823 3.95821
59.0105 53.8245 3.97082
57.8223 55.6817 3.96289
50.105 67.8479 3.97921
47.4587 66.5658 3.97595
46.0533 69.1516 3.98368
48.1008 68.5708 2
48.7992 70.7223 3.9892
50.9479 69.9293 2
51.8506 72.1454 4
54.0858 71.1327 2
56.25 69.9759 0
55.0993 7.14364 3.98309
58.3339 6.31992 4
57.058 8.34496 2
60.3286 7.74926 2
58.9177 9.65977 0.022449
62.2254 9.30607 0
68.2304 48.0995 0.0354889
69.42 43.9054 0.0340988
66.5394 45.4071 0.0265547
67.4637 41.4847 0.0248563
70.035 39.6581 0.0335455
72.4867 37.5129 0.024344
70.1223 37.5236 2
67.7065 39.5076 2
67.0725 43.4466 2
65.2508 41.1828 2
65.8791 47.3739 2
64.3139 44.7824 2
67.812 37.525 3.97479
65.4952 39.359 3.97669
64.8602 42.9784 3.97626
63.3291 40.8911 3.97669
63.6193 46.6363 3.97543
62.3351 44.1318 3.97577
70.0518 35.3953 0.0334445
69.4589 31.1548 0.034894
67.5319 33.6082 0.0255147
66.6237 29.6577 0.0271576
62.3369 12.6597 0.0266389
62.1853 15.8054 0.0378985
61.6834 18.7505 0.0404805
65.3619 25.7495 0.0314295
63.8378 28.3379 0.0240198
62.5743 24.7347 0.0272227
60.9657 21.4515 0.0337754
60.0556 23.8731 0.0265056
59.2376 12.8158 0.0369861
56.3919 13.1812 0.0344767
55.8676 10.2649 0.0262312
67.7482 35.5577 2
67.1354 31.6486 2
65.41 33.9595 2
64.3492 30.2623 2
60.7637 14.2511 2
60.5204 17.1899 2
59.9718 19.9341 2
63.2416 26.5055 2
61.8204 28.8925 2
59.3043 22.412 2
60.6451 25.4804 2
58.5201 24.5064 2
57.8879 14.39 2
55.2783 14.7303 2
54.0342 9.15768 2
54.7713 12.0778 2
65.5947 35.6846 3.97652
64.8803 32.2031 3.97592
63.9049 34.2883 3.97639
62.1405 30.7259 3.97563
61.2294 27.2035 3.97524
60.3212 29.2766 3.97577
59.2621 15.7275 3.95697
58.8306 25.9817 3.97546
58.9382 18.4669 3.95914
58.3982 21.0148 3.9636
57.8443 23.283 3.97028
57.4698 24.8729 3.9756
52.1082 8.16502 3.97266
53.0425 11.0775 3.9671
56.6238 15.8312 3.95706
53.7942 13.7595 3.97817
54.3079 16.1123 3.96035
55.0674 67.9301 0.0147397
65.1419 49.3579 0.0313005
55.7964 64.8845 0.0275568
59.212 62.3316 0.0334289
56.316 62.0389 0.0219176
63.541 53.2371 0.0351082
62.1161 50.5546 0.0287008
59.2906 59.5112 0.0415359
59.1009 56.9184 0.0395948
60.8365 54.2168 0.0318996
58.9801 55.0712 0.0313252
53.0424 68.9963 2
53.9633 65.9995 2
57.8596 60.8264 2
54.6643 63.1536 2
55.185 60.5581 2
62.8528 48.5697 2
61.4552 52.4782 2
59.8162 49.8789 2
57.895 58.1852 2
59.0156 53.8253 2
57.8192 55.6804 2
52.0654 66.9885 3.97678
52.9406 64.1841 3.97369
56.5902 59.4261 3.95875
53.6478 61.5444 3.97058
54.2074 59.2478 3.96401
60.4914 47.7437 3.97447
59.3118 51.97 3.97143
57.4612 49.4349 3.97463
56.585 56.8772 3.96187
56.714 53.9608 3.96656
50.1069 67.8475 2
49.3304 65.9006 3.97523
47.46 66.5637 2
46.8849 64.7038 3.97677
45.5558 67.0843 3.97905
43.9712 69.5841 3.98478
46.0552 69.1521 2
46.606 71.3666 3.99038
48.0992 68.5716 0.0184228
48.8017 70.7212 2
49.554 73.0099 4
50.945 69.9306 0.0120392
51.8506 72.1455 2
54.0858 71.1327 0
53.062 6.07425 3.98697
55.1033 7.14595 2
56.25 5.02411 4
58.3339 6.3199 2
57.0545 8.3393 0.021368
60.3285 7.74928 0
65.8816 47.3751 0.0289865
67.0741 43.4475 0.0251711
64.3163 44.7833 0.0240826
65.2528 41.1831 0.0233385
67.7102 39.5078 0.0250255
70.123 37.5236 0.0333849
67.8088 37.525 2
65.4924 39.3589 2
64.8573 42.9775 2
63.3293 40.8906 2
63.6174 46.6354 2
62.3345 44.1316 2
65.605 37.5054 3.9766
63.481 39.2508 3.97664
62.8777 42.4943 3.97626
61.9075 40.6526 3.97656
61.4751 45.8043 3.97555
60.8691 43.5884 3.97599
67.7513 35.5575 0.025356
67.1362 31.6479 0.0257824
65.4134 33.959 0.023476
64.3514 30.2615 0.0243432
60.7661 14.2511 0.0358947
60.5303 17.1883 0.0425695
59.9751 19.9345 0.0379392
63.2433 26.5048 0.0250409
61.8215 28.8925 0.0244478
60.6462 25.4797 0.0250539
59.3005 22.4125 0.030922
58.5224 24.504 0.0259094
57.8875 14.3905 0.0398034
55.2821 14.737 0.041461
54.0313 9.16068 0.0298861
54.7758 12.0732 0.0290099
65.5916 35.6849 2
64.8778 32.2034 2
63.9046 34.2886 2
62.1399 30.726 2
59.2682 15.7235 2
58.9409 18.4642 2
58.3982 21.0151 2
61.2281 27.2037 2
60.3217 29.2768 2
57.8382 23.2864 2
58.8286 25.9824 2
57.4702 24.8753 2
56.6034 15.8327 2
54.3054 16.0999 2
53.7836 13.756 2
52.1107 8.16685 2
53.045 11.0742 2
63.6917 35.6564 3.97645
62.4658 33.1105 3.97615
60.0309 30.7384 3.97566
59.0061 28.0807 3.97553
57.8188 17.0846 3.95707
57.1662 25.9517 3.97555
57.4294 19.632 3.9586
56.9339 22.0431 3.96403
56.6652 24.1719 3.97226
50.1089 7.2942 3.98011
51.2213 10.1601 3.97061
52.1441 12.8883 3.96575
55.427 17.0906 3.95638
52.9328 15.3581 3.9606
53.6542 17.1099 3.95811
53.0391 68.9983 0.0139366
53.9615 66.0011 0.0261424
62.8543 48.5705 0.0262352
54.6652 63.1519 0.0312143
57.8584 60.8238 0.0357679
55.187 60.5581 0.02446
61.4554 52.4784 0.0303032
59.8149 49.8793 0.0269496
57.8904 58.1823 0.0417899
57.8223 55.6817 0.0371069
59.0105 53.8245 0.0291825
52.0673 66.9875 2
52.9405 64.1866 2
56.5888 59.4265 2
53.6459 61.544 2
54.2024 59.2493 2
60.4912 47.743 2
59.3142 51.97 2
57.4626 49.4346 2
56.5813 56.8807 2
56.7115 53.9597 2
51.1596 65.1078 3.97474
52.0201 62.4808 3.97046
55.3682 58.1618 3.96066
52.7745 60.0381 3.96717
53.556 58.382 3.96128
57.6174 46.6565 3.97556
57.0709 51.6126 3.97133
55.5952 49.3381 3.97341
55.2177 55.6563 3.9619
54.89 53.1994 3.96204
50.105 67.8479 0.0207932
49.3314 65.9029 2
48.607 64.0942 3.97813
47.4587 66.5658 0.0240543
45.5567 67.0863 2
46.8851 64.7055 2
46.3689 63.0109 3.98183
45.1276 65.1752 3.97862
43.6301 67.4574 3.9807
41.859 69.8711 3.98458
43.9724 69.5843 2
44.3737 71.8612 3.99072
46.0533 69.1516 0.0163217
46.6081 71.3663 2
47.2057 73.7222 4
48.7992 70.7223 0.0108005
49.554 73.0099 2
51.8506 72.1454 0
50.9532 5.13413 3.98946
53.0651 6.07593 2
54.0858 3.86728 4
55.0993 7.14364 0.0169076
56.25 5.02406 2
58.3339 6.31992 0
63.6193 46.6363 0.0245709
64.8602 42.9784 0.0237425
62.3351 44.1318 0.0242284
63.3291 40.8911 0.0233087
65.4952 39.359 0.0233071
67.812 37.525 0.0252109
65.602 37.5056 2
63.4811 39.2508 2
62.8782 42.4936 2
61.909 40.6524 2
61.4744 45.8038 2
60.8698 43.5886 2
63.5455 37.4608 3.97651
61.6126 39.3294 3.97686
60.6131 41.8818 3.97673
59.6079 44.6338 3.97563
65.5947 35.6846 0.0234845
64.8803 32.2031 0.0240822
63.9049 34.2883 0.0236074
62.1405 30.7259 0.0243666
59.2621 15.7275 0.043032
58.9382 18.4669 0.0408556
58.3982 21.0148 0.0363974
61.2294 27.2035 0.0247596
60.3212 29.2766 0.0242293
58.8306 25.9817 0.0245443
57.8443 23.283 0.0297233
57.4698 24.8729 0.0243978
56.6238 15.8312 0.0429355
54.3079 16.1123 0.039652
53.7942 13.7595 0.0218304
52.1082 8.16502 0.0273367
53.0425 11.0775 0.0329001
63.6919 35.6567 2
62.4672 33.111 2
60.0318 30.7384 2
57.8261 17.0798 2
57.4405 19.6283 2
56.9324 22.0459 2
59.0064 28.0801 2
56.6724 24.1736 2
57.1675 25.9509 2
50.1119 7.29177 2
55.4236 17.0943 2
53.6583 17.1028 2
52.9227 15.3618 2
52.1492 12.8888 2
51.2232 10.158 2
61.6557 35.3945 3.97659
59.6424 32.8404 3.97594
57.9217 30.2428 3.97546
56.6307 27.6063 3.9759
56.4548 18.2921 3.95848
55.6838 25.3595 3.97491
56.0069 20.7139 3.95878
55.5978 23.1085 3.96479
48.0552 6.53373 3.98434
49.3179 9.35332 3.97492
50.4118 12.0626 3.96901
51.3254 14.6059 3.96271
54.262 18.071 3.9604
52.275 17.1828 3.95473
52.0654 66.9885 0.0232154
52.9406 64.1841 0.0263148
60.4914 47.7437 0.0255327
53.6478 61.5444 0.0294193
56.5902 59.4261 0.0412506
54.2074 59.2478 0.0359852
59.3118 51.97 0.0285735
57.4612 49.4349 0.025368
56.585 56.8772 0.0381291
56.714 53.9608 0.0334416
51.1597 65.1063 2
52.0195 62.484 2
55.3651 58.1622 2
52.7728 60.0398 2
53.5529 58.3846 2
57.6178 46.6558 2
57.0693 51.6118 2
55.5937 49.3373 2
55.2161 55.6565 2
54.8887 53.1992 2
50.3294 63.3515 3.97482
51.1935 60.8525 3.97316
54.0697 57.1614 3.96579
52.1878 58.5246 3.96441
55.815 43.9935 3.97591
54.7212 47.6545 3.97549
54.4492 51.1705 3.96514
53.6722 54.3842 3.9644
49.3304 65.9006 0.024773
48.6059 64.0954 2
47.9409 62.4409 3.98515
45.5558 67.0843 0.0209452
46.8849 64.7038 0.0232298
43.6306 67.4575 2
46.369 63.0151 2
45.1289 65.1714 2
45.9655 61.5388 3.99215
44.7587 63.4134 3.97631
43.3556 65.4884 3.97803
41.6629 67.6757 3.98004
39.7015 70.0174 3.98394
41.8601 69.8716 2
42.1085 72.2052 3.9911
43.9712 69.5841 0.0152166
44.3752 71.8608 2
44.8159 74.2794 4
46.606 71.3666 0.00962091
47.2057 73.7222 2
49.554 73.0099 0
48.7846 4.3244 3.99026
50.9555 5.13407 2
51.8506 2.85458 4
53.062 6.07425 0.0130323
54.0858 3.86728 2
56.25 5.02411 0
61.4751 45.8043 0.0244537
62.8777 42.4943 0.0237356
60.8691 43.5884 0.024006
61.9075 40.6526 0.0234418
63.481 39.2508 0.023365
65.605 37.5054 0.0233996
63.5456 37.4609 2
61.6138 39.3293 2
60.6152 41.8818 2
59.609 44.6339 2
61.4382 37.4477 3.97682
59.5524 39.8013 3.97676
58.2153 42.7997 3.97585
63.6917 35.6564 0.0235538
62.4658 33.1105 0.0238464
60.0309 30.7384 0.0243447
57.8188 17.0846 0.0429314
57.4294 19.632 0.0413962
56.9339 22.0431 0.0359719
59.0061 28.0807 0.0244667
57.1662 25.9517 0.0244488
56.6652 24.1719 0.0277376
55.427 17.0906 0.0436169
53.6542 17.1099 0.0418906
52.9328 15.3581 0.0394049
50.1089 7.2942 0.0198905
52.1441 12.8883 0.0342504
51.2213 10.1601 0.0293884
61.6572 35.3948 2
59.6431 32.8398 2
57.9231 30.2422 2
56.4542 18.2909 2
56.0304 20.7085 2
55.6063 23.1112 2
56.6325 27.6072 2
55.6911 25.3623 2
48.0561 6.53446 2
49.3191 9.35294 2
54.2691 18.0752 2
52.2642 17.1836 2
51.3252 14.6073 2
50.4153 12.0644 2
59.182 35.1683 3.97657
57.1796 32.4013 3.97537
55.7576 29.5584 3.9756
54.7207 26.8916 3.97497
55.1176 19.355 3.96173
54.3733 24.3266 3.97214
54.5894 21.7923 3.96096
45.9618 5.88753 3.9864
43.3737 7.48288 3.98191
47.3524 8.63655 3.97808
48.5849 11.3378 3.97145
49.6709 13.8191 3.96797
50.5525 16.2638 3.96142
52.9582 18.8524 3.96517
51.1934 18.2619 3.95856
51.1596 65.1078 0.0252626
52.0201 62.4808 0.0295446
57.6174 46.6565 0.0244403
52.7745 60.0381 0.0328331
55.3682 58.1618 0.0393399
53.556 58.382 0.0387181
57.0709 51.6126 0.0286722
55.5952 49.3381 0.0265914
55.2177 55.6563 0.038097
54.89 53.1994 0.0379557
50.328 63.3511 2
51.1926 60.8536 2
54.0678 57.1626 2
52.1808 58.526 2
55.8174 43.9949 2
54.7209 47.6537 2
54.4454 51.1694 2
53.6661 54.3848 2
49.5573 61.7093 3.97454
54.517 41.6002 3.97371
50.4741 59.2354 3.96548
51.9603 56.3593 3.96353
53.1955 45.2877 3.97389
52.5556 49.0715 3.97019
52.1713 52.6545 3.95901
48.607 64.0942 0.0218681
47.941 62.4392 2
47.2951 60.9687 3.99283
43.6301 67.4574 0.0192955
45.1276 65.1752 0.021382
46.3689 63.0109 0.0181714
41.6639 67.6751 2
43.358 65.4889 2
45.9656 61.5439 2
44.7589 63.4117 2
45.7305 60.5846 3.99395
44.4681 61.7849 3.9786
43.1416 63.6924 3.97865
41.5462 65.627 3.97486
39.6327 67.7534 3.97894
37.526 70.0417 3.98352
39.7023 70.0175 2
39.8162 72.4022 3.99134
41.859 69.8711 0.0154204
42.1098 72.2055 2
42.3947 74.6792 4
44.3737 71.8612 0.00928207
44.8159 74.2794 2
47.2057 73.7222 0
43.8512 5.36392 3.98592
46.5708 3.649 3.99103
48.7857 4.32505 2
49.554 1.99015 4
50.9532 5.13413 0.0105359
51.8506 2.85453 2
54.0858 3.86728 0
59.6079 44.6338 0.0243708
60.6131 41.8818 0.0232668
61.6126 39.3294 0.0231419
63.5455 37.4608 0.0234872
61.4386 37.4479 2
59.5546 39.8002 2
58.2173 42.8004 2
59.0389 37.567 3.97737
57.1303 40.5758 3.9774
53.9169 39.6256 3.97548
61.6557 35.3945 0.0234067
59.6424 32.8404 0.0240624
57.9217 30.2428 0.0245388
56.4548 18.2921 0.0415153
56.0069 20.7139 0.0412216
55.5978 23.1085 0.035215
56.6307 27.6063 0.0240981
55.6838 25.3595 0.0250882
54.262 18.071 0.0396011
52.275 17.1828 0.0452697
51.3254 14.6059 0.0372891
48.0552 6.53373 0.0156614
49.3179 9.35332 0.0250756
50.4118 12.0626 0.0309886
59.1839 35.1687 2
45.9625 5.88712 2
43.374 7.48127 2
57.1797 32.402 2
55.7569 29.5571 2
55.1058 19.3598 2
54.6252 21.7889 2
54.375 24.3319 2
54.7232 26.8913 2
47.3529 8.63604 2
48.5874 11.3339 2
52.954 18.8153 2
51.189 18.2566 2
50.5572 16.2666 2
49.6712 13.8254 2
56.4903 34.8338 3.977
54.7944 31.7051 3.97501
53.6594 28.6761 3.97659
53.1002 25.8091 3.97409
53.7054 20.3392 3.96369
53.1183 22.9838 3.96284
41.3998 7.08521 3.98264
45.359 8.00214 3.98636
42.8658 9.43171 3.97169
46.6594 10.6796 3.97781
47.7097 13.1504 3.96969
48.863 15.4872 3.96799
49.8971 17.8376 3.95991
51.4742 19.5503 3.9847
50.3294 63.3515 0.0251797
51.1935 60.8525 0.0268417
55.815 43.9935 0.0240899
54.7212 47.6545 0.0245125
52.1878 58.5246 0.0355882
54.0697 57.1614 0.0342056
54.4492 51.1705 0.0348627
53.6722 54.3842 0.0355953
49.5571 61.7068 2
54.5156 41.5976 2
50.4712 59.2406 2
51.9667 56.3639 2
53.191 45.2842 2
52.5532 49.0694 2
52.1744 52.6548 2
48.7858 60.1585 3.98802
51.2259 42.4678 3.98355
49.6368 57.5278 3.96371
50.2496 54.2731 3.96093
50.8624 46.9756 3.97595
50.5873 50.7198 3.95329
46.9425 43.4677 3.96716
47.9409 62.4409 0.0148537
47.2961 60.9691 2
46.5679 59.7545 3.99326
41.6629 67.6757 0.0199644
43.3556 65.4884 0.0219662
44.7587 63.4134 0.023687
45.9655 61.5388 0.00784502
39.6339 67.7539 2
41.5479 65.6245 2
45.7302 60.5895 2
43.1407 63.6907 2
44.4667 61.7871 2
44.5876 60.2387 3.99323
42.9381 62.0426 3.97602
41.5974 63.7943 3.97816
39.6469 65.5921 3.97449
37.5638 67.7345 3.97739
31.6988 65.11 3.97344
33.3938 67.4734 3.97791
35.3344 69.9527 3.98396
37.526 70.0436 2
37.5092 72.4563 3.99184
39.7015 70.0174 0.0160572
39.817 72.4022 2
39.9526 74.9197 4
42.1085 72.2052 0.00890476
42.3947 74.6792 2
44.8159 74.2794 0
41.7362 4.97147 3.98761
43.8517 5.3626 2
44.3266 3.11189 3.99192
46.5718 3.64912 2
47.2057 1.27793 4
48.7846 4.3244 0.00973945
49.554 1.99013 2
51.8506 2.85458 0
58.2153 42.7997 0.0241515
59.5524 39.8013 0.02324
61.4382 37.4477 0.0231796
59.0392 37.5673 2
57.1356 40.5768 2
53.917 39.6328 2
55.8458 37.874 3.9772
48.2493 41.1801 3.96827
51.8026 39.2459 3.97978
39.4433 6.80891 3.98219
59.182 35.1683 0.0234277
57.1796 32.4013 0.0246326
55.7576 29.5584 0.0243951
55.1176 19.355 0.0382665
54.5894 21.7923 0.0390401
54.3733 24.3266 0.0278623
54.7207 26.8916 0.0250303
52.9582 18.8524 0.0348323
51.1934 18.2619 0.0414425
50.5525 16.2638 0.0385787
45.9618 5.88753 0.0136018
49.6709 13.8191 0.0320275
47.3524 8.63655 0.0219246
48.5849 11.3378 0.0285472
43.3737 7.48288 0.0180878
56.4942 34.8315 2
41.4002 7.08602 2
45.3592 8.00182 2
42.8658 9.4313 2
54.7967 31.7062 2
53.6576 28.6794 2
53.7062 20.3454 2
53.1003 22.9878 2
53.1008 25.8076 2
46.6605 10.6754 2
47.7126 13.1498 2
51.4801 19.548 2
49.894 17.8385 2
48.8637 15.5138 2
53.7346 34.0446 3.97503
52.4708 30.774 3.97505
51.7761 27.5424 3.9747
51.6072 24.4331 3.97499
52.0907 21.3045 3.98157
41.0129 9.05897 3.9764
44.7273 10.0043 3.98592
42.4536 10.9184 4.00578
45.9718 12.7515 3.96549
47.6283 14.6752 3.96616
48.0091 17.0801 3.96612
49.6965 19.9475 3.98505
49.5573 61.7093 0.0254645
50.4741 59.2354 0.0345211
54.517 41.6002 0.0262853
53.1955 45.2877 0.02611
52.5556 49.0715 0.0298137
51.9603 56.3593 0.0364656
52.1713 52.6545 0.040985
48.784 60.1542 2
51.2386 42.4876 2
49.6356 57.526 2
50.2524 54.2764 2
50.8647 46.9759 2
50.5925 50.7198 2
46.9521 43.5078 2
47.8929 58.6627 3.99041
48.9418 45.0131 3.98225
48.3719 55.8032 3.95506
48.6851 52.4171 3.97867
48.9242 48.7887 3.96943
44.6466 39.7313 3.83396
45.173 42.3965 3.8782
45.4802 45.4401 3.98329
42.5109 40.9652 3.62321
41.3912 41.6459 3.42104
47.2951 60.9687 0.00717004
46.5649 59.7587 2
45.4043 58.7481 3.99559
39.6327 67.7534 0.0210627
41.5462 65.627 0.0251351
43.1416 63.6924 0.0213454
44.4681 61.7849 0.0214017
45.7305 60.5846 0.00605182
41.598 63.7901 2
37.5646 67.7371 2
39.6493 65.5927 2
44.5891 60.2415 2
42.936 62.0447 2
41.7431 62.4499 3.97717
42.4517 59.9381 3.98677
39.8933 63.5279 3.97707
37.6417 65.4885 3.97392
35.4643 67.6447 3.97738
33.5765 65.321 3.97419
31.9624 63.2642 3.97796
29.8875 64.6979 3.97914
31.6982 65.1096 2
31.3795 67.1838 3.97832
33.393 67.475 2
33.1583 69.7464 3.98394
35.3337 69.9543 2
35.1963 72.3712 3.99199
37.526 70.0417 0.0164756
37.5096 72.4569 2
37.5 75 4
39.8162 72.4022 0.0086646
39.9526 74.9197 2
42.3947 74.6792 0
39.6245 4.71903 3.98849
41.7364 4.97155 2
42.0632 2.71883 3.99244
43.8512 5.36392 0.0140781
44.327 3.1113 2
44.8158 0.721173 4
46.5708 3.649 0.00897032
47.2057 1.27779 2
49.554 1.99015 0
57.1303 40.5758 0.0226048
59.0389 37.567 0.0226259
53.9169 39.6256 0.0245194
48.2738 41.1942 2
55.8498 37.8729 2
51.7983 39.2222 2
52.6601 36.6166 3.97706
46.1797 40.2608 3.88824
49.1747 38.4916 3.97866
37.5172 6.67743 3.98489
39.4442 6.80837 2
39.2107 8.703 3.98014
35.9432 8.49937 3.98209
56.4903 34.8338 0.0230011
54.7944 31.7051 0.0249875
53.6594 28.6761 0.0234081
53.7054 20.3392 0.0363065
53.1183 22.9838 0.0371593
53.1002 25.8091 0.0259132
51.4742 19.5503 0.0152971
49.8971 17.8376 0.0400922
48.863 15.4872 0.0320063
45.359 8.00214 0.0136431
47.7097 13.1504 0.0303097
46.6594 10.6796 0.0221877
41.3998 7.08521 0.0173594
42.8658 9.43171 0.0283104
53.7294 34.0346 2
41.0137 9.06193 2
44.7258 10.0041 2
42.456 10.9222 2
52.4617 30.7721 2
51.7892 27.5417 2
52.0915 21.309 2
51.5892 24.4344 2
45.9754 12.7483 2
47.6224 14.648 2
49.7125 19.9663 2
48.0053 17.0841 2
51.1994 32.995 3.9796
50.3012 29.5081 3.9761
50.0875 26.0321 3.97051
49.6517 22.552 3.98266
40.5579 11.6194 3.98545
43.8266 11.916 3.96767
45.7497 15.5438 3.99058
47.4024 19.5696 3.98148
45.0812 37.4866 3.83637
48.7858 60.1585 0.0119797
49.6368 57.5278 0.0362875
51.2259 42.4678 0.0164452
50.8624 46.9756 0.0240528
50.5873 50.7198 0.0467065
50.2496 54.2731 0.0390686
46.9425 43.4677 0.032843
47.8882 58.6676 2
48.9576 45.0254 2
48.369 55.805 2
48.6877 52.4226 2
48.9293 48.792 2
44.7639 39.7584 2
45.2039 42.4171 2
45.4899 45.461 2
42.5769 41.0226 2
41.4342 41.6711 2
46.7046 57.266 3.98416
43.1918 39.349 3.61596
41.7762 40.6134 3.41103
47.1662 47.0283 3.98339
46.8709 54.0971 3.95962
47.0405 50.5538 3.97736
44.0851 47.0705 3.98753
43.8298 41.7494 3.83494
43.9928 44.1817 3.867
41.6511 42.3001 3.67531
40.4736 41.93 3.36986
46.5679 59.7545 0.00673975
45.4026 58.7476 2
43.8116 57.6173 3.98268
37.5638 67.7345 0.0226136
39.6469 65.5921 0.0255094
41.5974 63.7943 0.021839
42.9381 62.0426 0.0239813
44.5876 60.2387 0.00677156
35.4642 67.6472 2
41.7407 62.4539 2
39.8924 63.5288 2
37.6432 65.4918 2
42.4539 59.939 2
40.6132 61.5905 3.98534
40.4163 58.1092 3.98585
37.8369 63.1846 3.97242
35.5729 65.4121 3.97606
33.5765 65.3208 2
31.9649 63.266 2
33.6305 63.3125 3.97759
30.3832 62.8276 3.98176
32.134 61.967 3.98812
26.8904 61.4334 3.98545
28.0707 64.1257 3.98166
29.8876 64.6969 2
29.4098 66.7474 3.97777
31.6988 65.11 0.0265584
31.3786 67.1843 2
31.0163 69.4117 3.98349
33.3938 67.4734 0.022088
33.1571 69.7476 2
32.8946 72.1456 3.99133
35.3344 69.9527 0.0160396
35.1958 72.372 2
35.0474 74.9194 4
37.5092 72.4563 0.00815865
37.5 75 2
39.9526 74.9197 0
35.6216 6.72938 3.98329
37.5244 4.61799 3.98919
39.6246 4.71826 2
39.7898 2.47538 3.99265
41.7362 4.97147 0.0123898
42.0632 2.71879 2
42.3946 0.32156 4
44.3266 3.11189 0.00808018
44.8159 0.72056 2
47.2057 1.27793 0
48.2493 41.1801 0.0317319
55.8458 37.874 0.0228044
51.8026 39.2459 0.0202226
46.2036 40.2668 2
49.1759 38.477 2
52.6926 36.6342 2
49.9877 35.55 3.97627
46.8197 37.7334 3.88412
44.675 35.2206 3.83539
42.561 33.974 3.62298
41.4304 33.2908 3.42009
37.4587 8.53765 3.98393
37.5182 6.67775 2
39.4433 6.80891 0.0178076
39.2125 8.70263 2
38.9729 10.1393 3.98906
35.8988 9.78254 3.98055
34.1533 8.83182 3.97988
35.9448 8.49826 2
53.7346 34.0446 0.0249733
52.4708 30.774 0.024949
51.7761 27.5424 0.0252988
52.0907 21.3045 0.0184266
51.6072 24.4331 0.025011
49.6965 19.9475 0.0149521
48.0091 17.0801 0.0338842
47.6283 14.6752 0.0338429
44.7273 10.0043 0.0140751
45.9718 12.7515 0.0345078
41.0129 9.05897 0.0236039
42.4536 10.9184 -0.00577735
51.2119 32.9848 2
40.5636 11.6272 2
43.8285 11.9114 2
50.3135 29.5101 2
50.0871 26.0442 2
49.6344 22.5146 2
45.7341 15.4739 2
47.4132 19.6057 2
48.793 31.5807 3.98338
48.432 27.8042 3.97438
48.8786 24.6651 3.98091
47.0017 22.3557 3.99296
38.2972 12.7613 3.9782
42.0734 14.362 3.98381
44.7235 18.6656 3.9774
43.5853 37.4775 3.63203
45.1831 37.4802 2
47.8929 58.6627 0.00959066
48.3719 55.8032 0.0449444
48.9418 45.0131 0.0177509
48.9242 48.7887 0.0305706
48.6851 52.4171 0.0213276
44.6466 39.7313 0.166041
45.173 42.3965 0.121798
45.4802 45.4401 0.0167133
42.5109 40.9652 0.376788
41.3912 41.6459 0.578964
46.702 57.2718 2
43.2759 39.3728 2
41.7918 40.6256 2
47.1743 47.03 2
46.8659 54.1012 2
47.0426 50.5655 2
44.1255 47.0759 2
43.9009 41.7945 2
44.0496 44.2142 2
41.7008 42.3765 2
40.5152 41.9504 2
45.2274 55.8302 4.00109
42.1145 39.1414 3.42111
40.3586 40.5099 3.50878
45.4345 48.6741 4.00205
45.1299 52.3471 3.98863
42.8759 48.0543 3.99061
42.7377 45.6967 3.86818
42.8151 43.5065 3.82386
40.6588 43.2459 3.63923
39.1467 42.1952 3.44113
45.4043 58.7481 0.004412
43.8083 57.6298 2
42.0315 56.1837 3.99072
35.4643 67.6447 0.0226227
37.6417 65.4885 0.0260837
39.8933 63.5279 0.0229325
41.7431 62.4499 0.0228308
42.4517 59.9381 0.013227
35.5742 65.416 2
40.6123 61.5893 2
37.8375 63.1827 2
40.415 58.1168 2
38.8981 56.32 3.99531
38.2423 60.2727 3.98449
35.6073 63.1792 3.97211
33.5765 65.321 0.0258064
31.9624 63.2642 0.0220409
33.6334 63.315 2
30.3851 62.8296 2
32.1366 61.9687 2
28.6916 62.1665 3.98012
33.3526 61.475 3.98205
31.0872 61.1965 3.99145
27.615 59.5306 3.97883
23.8549 58.9962 3.98765
25.0656 60.7975 3.97782
26.8914 61.4361 2
26.2418 63.4556 3.97382
28.07 64.1233 2
27.4675 66.1664 3.97594
29.8875 64.6979 0.0208648
29.4085 66.7449 2
28.9089 68.9372 3.98236
31.3795 67.1838 0.0216781
31.0147 69.4117 2
30.6177 71.7771 3.99054
33.1583 69.7464 0.0160585
32.8934 72.146 2
32.6054 74.6784 4
35.1963 72.3712 0.0080079
35.0474 74.9197 2
37.5 75 0
33.7248 6.98582 3.98188
35.4366 4.688 3.98854
35.6227 6.72895 2
37.5157 2.38786 3.99282
37.5245 4.61769 2
39.6245 4.71903 0.0115062
39.7896 2.47496 2
39.9526 0.0806499 4
42.0632 2.71883 0.00755769
42.3947 0.320817 2
44.8158 0.721173 0
43.2184 35.6006 3.62267
41.8059 34.3181 3.39464
46.1797 40.2608 0.111765
49.1747 38.4916 0.0213411
52.6601 36.6166 0.0229383
46.8188 37.718 2
50.0022 35.5566 2
44.7736 35.2033 2
42.6159 33.9143 2
41.4584 33.2662 2
47.0559 34.4039 3.93457
43.8853 33.1972 3.82889
41.7067 32.6404 3.67227
40.5004 33.0173 3.36922
37.3099 10.6353 3.98123
37.4606 8.53908 2
37.5172 6.67743 0.0151068
39.2107 8.703 0.0198558
38.9783 10.14 2
34.7564 10.3939 3.97733
35.9036 9.77921 2
32.3811 9.37994 3.97527
34.1533 8.8286 2
35.9432 8.49937 0.0179128
51.1994 32.995 0.0203955
50.3012 29.5081 0.0239017
50.0875 26.0321 0.0294895
49.6517 22.552 0.017337
47.4024 19.5696 0.0185198
45.7497 15.5438 0.00942329
43.8266 11.916 0.0323267
40.5579 11.6194 0.0145465
48.8101 31.5626 2
38.3005 12.7581 2
42.0809 14.3738 2
48.4288 27.8028 2
48.8764 24.6696 2
46.99 22.3518 2
44.7365 18.7355 2
46.7476 29.8119 3.98127
46.5645 25.3763 3.97783
44.174 21.6763 3.98358
36.587 12.9768 3.9761
38.672 14.8837 3.9773
41.7004 17.9926 3.97982
42.2884 37.4532 3.45391
43.6574 37.479 2
45.0812 37.4866 0.163628
46.7046 57.266 0.0158367
46.8709 54.0971 0.0403801
47.1662 47.0283 0.0166108
47.0405 50.5538 0.0226411
43.1918 39.349 0.384038
43.8298 41.7494 0.165059
43.9928 44.1817 0.133001
44.0851 47.0705 0.0124719
41.6511 42.3001 0.324694
41.7762 40.6134 0.588968
40.4736 41.93 0.630141
45.2244 55.8347 2
42.1268 39.1495 2
40.4174 40.5 2
45.4359 48.6961 2
45.1252 52.3501 2
42.913 48.0738 2
42.8052 45.7576 2
42.8568 43.5407 2
40.7149 43.3254 2
39.1344 42.2208 2
43.5463 54.2753 4.00126
40.4459 38.9865 3.53563
39.0431 40.5951 3.48262
43.1942 50.1517 4.00316
41.5403 47.1903 3.91891
41.453 44.7888 3.82646
39.3628 43.897 3.61141
37.5102 42.3321 3.49635
43.8116 57.6173 0.0173174
42.039 56.1707 2
40.3411 54.7416 3.99435
35.5729 65.4121 0.0239399
37.8369 63.1846 0.0275841
40.6132 61.5905 0.0146598
40.4163 58.1092 0.0141473
35.6094 63.1753 2
38.2388 60.271 2
38.9008 56.3006 2
37.9724 55.0001 3.99531
36.9209 57.5231 3.99275
35.3656 60.8739 3.98391
33.6305 63.3125 0.0224134
30.3832 62.8276 0.0182447
32.134 61.967 0.0118756
33.3547 61.4745 2
28.6926 62.1718 2
31.0895 61.2 2
29.4367 60.2555 3.9812
32.3702 59.6666 3.99583
28.0945 58.3208 4.01777
27.6159 59.5299 2
25.4449 58.5202 3.97802
22.8509 58.1506 3.97091
23.4389 60.2633 3.97552
23.8563 58.9968 2
25.067 60.7978 2
24.4499 62.7281 3.9757
26.8904 61.4334 0.0145461
26.2419 63.4535 2
25.5528 65.476 3.97565
28.0707 64.1257 0.0183412
27.4669 66.1674 2
26.8391 68.3229 3.98082
29.4098 66.7474 0.0222331
28.9077 68.9358 2
28.373 71.2627 3.98963
31.0163 69.4117 0.0165104
30.616 71.7768 2
30.1842 74.2788 4
32.8946 72.1456 0.00866889
32.6053 74.6792 2
35.0474 74.9194 0
31.7893 7.42625 3.97967
33.3491 4.92791 3.98733
33.7251 6.98404 2
35.2462 2.46365 3.99289
35.4365 4.68786 2
35.6216 6.72938 0.0167135
37.5 0 4
37.5151 2.38766 2
37.5244 4.61799 0.010808
39.7898 2.47538 0.00734792
39.9526 0.0802889 2
42.3946 0.32156 0
42.1101 35.7623 3.39231
43.312 35.5754 2
40.4115 34.417 3.51252
41.8111 34.3007 2
46.8197 37.7334 0.115878
49.9877 35.55 0.0237308
44.675 35.2206 0.164613
42.561 33.974 0.377023
41.4304 33.2908 0.579915
47.089 34.4128 2
43.9433 33.1475 2
41.7574 32.566 2
40.5364 32.9975 2
45.2039 31.8484 3.89006
42.8734 31.4365 3.81506
40.7056 31.697 3.64029
39.1577 32.7692 3.43785
35.6973 11.7929 3.97459
37.317 10.6368 2
37.4587 8.53765 0.0160746
38.9729 10.1393 0.0109408
33.1026 11.2345 3.97231
34.7584 10.3867 2
35.8988 9.78254 0.0194453
30.4874 10.0322 3.976
32.3806 9.37891 2
34.1533 8.83182 0.0201213
48.793 31.5807 0.0166219
48.432 27.8042 0.0256203
48.8786 24.6651 0.019092
47.0017 22.3557 0.00704491
44.7235 18.6656 0.0226041
42.0734 14.362 0.0161908
38.2972 12.7613 0.0217975
36.5848 12.9576 2
46.7383 29.7531 2
38.6725 14.867 2
41.6974 17.9938 2
46.5669 25.3607 2
44.1533 21.6549 2
44.7761 27.9527 3.99357
43.4673 24.3146 4.02187
41.2561 21.0181 3.99474
35.7708 14.8173 3.98271
38.6453 17.7253 3.98636
40.5012 37.4246 3.55815
42.3065 37.4584 2
43.5853 37.4775 0.367975
45.2274 55.8302 -0.00109357
45.1299 52.3471 0.0113744
45.4345 48.6741 -0.00204595
42.1145 39.1414 0.57889
42.8151 43.5065 0.176138
42.7377 45.6967 0.131823
42.8759 48.0543 0.0093878
40.6588 43.2459 0.360767
40.3586 40.5099 0.491222
39.1467 42.1952 0.558866
43.5419 54.2695 2
40.4731 38.9888 2
39.0347 40.5958 2
43.186 50.1712 2
41.5337 47.2191 2
41.4817 44.8331 2
37.505 42.3558 2
39.3802 43.9742 2
41.6991 52.7249 4.00025
39.0529 39.0408 3.47966
37.5083 40.6434 3.53286
35.8756 42.2061 3.43706
40.7148 49.2888 3.99184
39.6535 45.4788 3.78909
37.5042 44.1743 3.65626
42.0315 56.1837 0.00927902
40.3435 54.7493 2
38.7062 53.5032 3.99671
35.6073 63.1792 0.0278914
38.2423 60.2727 0.0155104
38.8981 56.32 0.00468798
35.3643 60.8584 2
36.9226 57.5334 2
37.9657 54.993 2
36.3112 55.0917 3.9983
34.4942 58.4493 3.9946
33.3526 61.475 0.0179535
28.6916 62.1665 0.0198803
31.0872 61.1965 0.00854554
32.3687 59.6712 2
29.4382 60.2572 2
30.3569 57.757 3.99137
28.0966 58.3191 2
27.0814 56.7591 3.96899
27.615 59.5306 0.0211715
25.4466 58.5205 2
24.0006 56.7022 3.96005
21.4969 57.2832 3.95749
22.0432 59.5397 3.9774
22.8519 58.1522 2
22.7593 61.9572 3.97277
23.4402 60.2637 2
23.8549 58.9962 0.0123513
25.0656 60.7975 0.0221846
24.4503 62.7283 2
23.6893 64.6883 3.97285
26.2418 63.4556 0.0261848
25.5528 65.4777 2
24.8115 67.5843 3.97971
27.4675 66.1664 0.0240582
26.8375 68.3248 2
26.1685 70.6028 3.98875
28.9089 68.9372 0.0176424
28.3713 71.2618 2
27.7943 73.7221 4
30.6177 71.7771 0.00945762
30.1841 74.2794 2
32.6054 74.6784 0
29.8124 8.00335 3.9776
31.2545 5.33516 3.98601
31.7892 7.42499 2
32.9823 2.70188 3.99232
33.3486 4.92702 2
33.7248 6.98582 0.018118
35.0474 0.080333 4
35.2454 2.46371 2
35.4366 4.688 0.0114603
37.5 0 2
37.5157 2.38786 0.00717765
39.9526 0.0806499 0
40.5278 35.9011 3.5507
42.13 35.7614 2
43.2184 35.6006 0.377332
28.5483 10.7067 3.97671
39.054 34.3725 3.4751
40.4255 34.4175 2
41.8059 34.3181 0.605363
47.0559 34.4039 0.06543
43.8853 33.1972 0.171113
41.7067 32.6404 0.327731
40.5004 33.0173 0.630782
45.2345 31.8331 2
42.9169 31.3975 2
40.757 31.6179 2
39.1537 32.7394 2
43.6446 30.1065 3.8752
41.4802 30.1464 3.82666
39.3828 31.0553 3.61273
37.5297 32.6448 3.49408
34.1024 12.9581 3.97527
35.6991 11.7816 2
37.3099 10.6353 0.0187718
31.1932 12.0056 3.97717
33.1053 11.2322 2
34.7564 10.3939 0.0226664
30.4849 10.0274 2
32.3811 9.37994 0.0247254
46.7476 29.8119 0.018727
46.5645 25.3763 0.0221729
36.587 12.9768 0.0238956
44.174 21.6763 0.0164223
41.7004 17.9926 0.0201792
38.672 14.8837 0.0226975
35.7729 14.8219 2
44.7726 27.9566 2
38.6492 17.719 2
41.2416 20.9976 2
43.4578 24.2926 2
33.6226 15.9166 3.99145
42.6047 26.7744 3.977
40.7647 23.6456 3.99385
38.3706 20.5179 3.99311
35.8416 17.6008 3.98642
39.0743 37.483 3.48261
40.5175 37.4316 2
42.2884 37.4532 0.546091
43.5463 54.2753 -0.0012565
43.1942 50.1517 -0.00315525
40.4459 38.9865 0.464365
41.453 44.7888 0.173536
41.5403 47.1903 0.081095
39.3628 43.897 0.388589
39.0431 40.5951 0.517376
37.5102 42.3321 0.503655
41.6845 52.7199 2
39.0397 39.0308 2
37.5016 40.6407 2
40.6964 49.2966 2
35.8843 42.2302 2
39.6795 45.5469 2
37.5017 44.2574 2
39.6983 51.4946 4.00027
37.5132 39.0388 3.52819
35.9866 40.6127 3.48329
34.5435 41.9522 3.37116
35.6489 43.9146 3.6094
38.6326 48.1395 3.92704
37.5253 45.7756 3.82387
40.3411 54.7416 0.00565193
38.7041 53.5172 2
36.7753 52.8544 3.997
35.3656 60.8739 0.0160862
36.9209 57.5231 0.00725394
37.9724 55.0001 0.00468705
34.4928 58.4596 2
36.313 55.083 2
33.2891 55.2897 3.99372
32.3702 59.6666 0.00416666
29.4367 60.2555 0.0188022
30.3582 57.7531 2
28.8874 55.2649 3.99369
28.0945 58.3208 -0.0177679
27.0839 56.7575 2
25.5575 55.0307 3.95424
22.09 55.2015 3.96032
25.4449 58.5202 0.0219815
24.0021 56.7038 2
20.3799 56.9125 3.96229
20.7173 58.6892 3.9615
21.4988 57.2851 2
21.1962 61.0902 3.9721
22.0438 59.5404 2
22.8509 58.1506 0.0290927
21.9068 63.7993 3.97266
22.7603 61.9586 2
23.4389 60.2633 0.0244839
24.4499 62.7281 0.0242977
23.6894 64.6904 2
22.84 66.7266 3.97677
25.5528 65.476 0.0243547
24.81 67.5845 2
24.0129 69.8046 3.9884
26.8391 68.3229 0.0191817
26.166 70.6029 2
25.446 73.0099 4
28.373 71.2627 0.0103657
27.7943 73.7222 2
30.1842 74.2788 0
27.8224 8.66348 3.97829
29.1568 5.88252 3.98367
29.8111 7.99968 2
30.7279 3.09885 3.99186
31.2538 5.3339 2
31.7893 7.42625 0.0203282
32.6053 0.320823 4
32.9811 2.7017 2
33.3491 4.92791 0.0126721
35.0474 0.0802903 2
35.2462 2.46365 0.00711359
37.5 0 0
39.011 35.9305 3.49229
40.5084 35.8979 2
42.1101 35.7623 0.607686
28.5456 10.7036 2
26.6292 11.4062 3.97609
29.2344 12.6561 3.9807
37.5328 34.3378 3.53313
39.0782 34.3863 2
40.4115 34.417 0.487483
45.2039 31.8484 0.109944
42.8734 31.4365 0.184937
40.7056 31.697 0.359707
39.1577 32.7692 0.562146
43.6716 30.0776 2
41.5179 30.1037 2
39.3959 30.9783 2
37.5347 32.6163 2
41.8958 28.8208 3.85791
39.6576 29.4593 3.80949
37.5248 30.7937 3.65884
35.89 32.7743 3.44381
31.9352 14.5024 3.9828
34.1035 12.9631 2
35.6973 11.7929 0.0254088
31.1937 11.9961 2
33.1026 11.2345 0.0276859
30.4874 10.0322 0.0239956
44.7761 27.9527 0.00642545
43.4673 24.3146 -0.02187
35.7708 14.8173 0.0172945
41.2561 21.0181 0.0052569
38.6453 17.7253 0.013637
33.6121 15.9021 2
35.8374 17.5794 2
42.6756 26.7469 2
38.3584 20.5567 2
40.753 23.6412 2
33.5585 17.4608 3.98935
40.2076 26.1305 3.96569
38.0199 23.39 3.99677
35.5338 20.302 3.99643
37.525 37.4779 3.54495
39.0509 37.4731 2
40.5012 37.4246 0.441852
41.6991 52.7249 -0.000253231
40.7148 49.2888 0.00816222
39.0529 39.0408 0.520339
39.6535 45.4788 0.210912
37.5042 44.1743 0.343738
37.5083 40.6434 0.467138
35.8756 42.2061 0.562944
39.6812 51.4895 2
37.5111 39.0388 2
35.98 40.5976 2
38.6517 48.2023 2
34.5088 41.9722 2
35.6346 43.9853 2
37.5111 45.8339 2
37.6823 50.4611 3.99086
36.0136 39.0527 3.4938
34.6521 40.5412 3.51524
33.6173 41.6731 3.42366
34.3697 43.2675 3.63159
35.3111 45.5225 3.81351
36.9203 47.7553 3.88832
38.7062 53.5032 0.00328913
36.7745 52.8051 2
34.4949 52.1691 4.00132
34.4942 58.4493 0.00540477
36.3112 55.0917 0.00170162
33.2903 55.2969 2
30.7387 53.2237 3.99956
30.3569 57.757 0.00863211
28.8885 55.2602 2
27.2139 53.3031 3.956
27.0814 56.7591 0.031008
25.56 55.0325 2
23.9644 53.3044 3.95365
20.9477 53.028 3.95867
20.1916 55.6913 3.96106
22.0891 55.2032 2
24.0006 56.7022 0.0399501
19.5477 57.789 3.96103
20.3761 56.9155 2
19.7364 60.1246 3.97085
20.7121 58.6927 2
21.4969 57.2832 0.0425137
20.2242 62.7973 3.97155
21.1978 61.0923 2
22.0432 59.5397 0.0226044
20.9423 65.7522 3.97387
21.9071 63.8036 2
22.7593 61.9572 0.0272265
23.6893 64.6883 0.02715
22.8389 66.7259 2
21.9156 68.8719 3.98736
24.8115 67.5843 0.0202869
24.0097 69.8032 2
23.1494 72.1454 4
26.1685 70.6028 0.0112472
25.446 73.0099 2
27.7943 73.7221 0
25.8623 9.394 3.97634
27.0716 6.54724 3.98208
27.8199 8.6612 2
28.4905 3.64483 3.99077
29.1553 5.88064 2
29.8124 8.00335 0.0223977
30.1841 0.720592 4
30.726 3.09871 2
31.2545 5.33516 0.0139929
32.6053 0.320817 2
32.9823 2.70188 0.00767624
35.0474 0.080333 0
37.5188 35.9231 3.5199
38.9919 35.9109 2
40.5278 35.9011 0.449304
24.7882 12.0869 3.97485
23.7766 14.4322 3.97983
28.5483 10.7067 0.0232915
26.6249 11.4011 2
29.2346 12.6537 2
27.3019 13.397 3.97422
29.8034 14.2132 3.98728
35.9884 34.3726 3.48747
37.5438 34.3367 2
39.054 34.3725 0.524896
37.5297 32.6448 0.505917
43.6446 30.1065 0.124803
41.4802 30.1464 0.173344
39.3828 31.0553 0.387268
41.9311 28.7459 2
39.6816 29.3951 2
37.5273 30.7166 2
35.9007 32.7496 2
39.8278 28.0856 3.86067
37.4983 29.1859 3.81396
35.6756 31.0754 3.61439
34.5539 33.0343 3.37397
30.9601 16.8569 3.99774
31.9281 14.4897 2
34.1024 12.9581 0.0247287
31.1932 12.0056 0.0228317
42.6047 26.7744 0.0230011
40.7647 23.6456 0.0061543
33.6226 15.9166 0.00855039
35.8416 17.6008 0.0135816
38.3706 20.5179 0.00689241
33.5467 17.4699 2
35.5372 20.3189 2
40.2574 26.0941 2
38.0209 23.3756 2
32.9283 19.9044 3.99661
37.6964 25.7629 3.9621
35.3074 23.0521 4.00762
35.9874 37.4732 3.48626
37.5106 37.4772 2
39.0743 37.483 0.517389
39.6983 51.4946 -0.000271517
38.6326 48.1395 0.0729574
37.5132 39.0388 0.471807
37.5253 45.7756 0.176133
35.6489 43.9146 0.390596
35.9866 40.6127 0.516711
34.5435 41.9522 0.628841
37.6589 50.5015 2
36.0458 39.0396 2
34.6006 40.5467 2
36.9216 47.8181 2
33.5749 41.7003 2
34.3088 43.3426 2
35.2889 45.5806 2
35.5712 49.6658 3.98235
34.5457 39.041 3.54627
33.2374 40.6487 3.40041
33.3559 42.3244 3.67954
33.6023 44.8009 3.81505
34.5776 46.9197 3.86206
36.7753 52.8544 0.00299713
34.4771 52.1933 2
32.3125 50.9965 3.998
33.2891 55.2897 0.0062788
30.742 53.2204 2
28.8346 51.3877 3.982
28.8874 55.2649 0.00631415
27.2162 53.3036 2
25.5651 51.5362 3.95329
25.5575 55.0307 0.0457599
23.967 53.3101 2
22.5295 51.5854 3.95433
19.8406 51.4102 3.9631
19.3199 54.1371 3.96172
20.9528 53.026 2
18.6479 56.6017 3.96234
20.19 55.6932 2
22.09 55.2015 0.039683
18.4165 59.0325 3.96074
19.5466 57.7912 2
20.3799 56.9125 0.0377069
18.6377 61.6971 3.97298
19.7369 60.1282 2
20.7173 58.6892 0.0384971
19.1339 64.654 3.97278
20.2249 62.8013 2
21.1962 61.0902 0.0278966
19.8898 67.8074 3.98447
20.9413 65.7509 2
21.9068 63.7993 0.0273412
22.84 66.7266 0.0232338
21.9118 68.8697 2
20.9142 71.1327 4
24.0129 69.8046 0.0116013
23.1494 72.1455 2
25.446 73.0099 0
23.1107 12.844 3.97744
23.9752 10.1812 3.97479
25.0252 7.3187 3.97992
25.8586 9.39173 2
26.2824 4.32909 3.98971
27.0692 6.54647 2
27.8224 8.66348 0.0217121
27.7943 1.27781 4
28.4876 3.64513 2
29.1568 5.88252 0.0163324
30.1841 0.720551 2
30.7279 3.09885 0.0081359
32.6053 0.320823 0
35.9822 35.9132 3.48238
37.5493 35.933 2
39.011 35.9305 0.507708
24.782 12.107 2
23.7765 14.4376 2
22.5167 15.1235 3.97769
25.3747 13.9761 3.97288
24.0737 15.6891 3.99089
26.6292 11.4062 0.0239101
29.2344 12.6561 0.019301
27.3076 13.3886 2
29.7958 14.2133 2
28.3993 15.9773 3.99039
34.6727 34.4488 3.50826
35.9954 34.3718 2
37.5328 34.3378 0.46687
35.89 32.7743 0.556187
37.5248 30.7937 0.34116
41.8958 28.8208 0.14209
39.6576 29.4593 0.190508
39.8714 28.0338 2
37.4986 29.1305 2
35.6591 30.9954 2
34.5134 33.0163 2
37.6226 27.8172 3.86379
35.3741 29.4806 3.80889
34.3645 31.7184 3.63763
33.6285 33.3144 3.4216
30.2701 19.517 3.97821
30.9447 16.8501 2
31.9352 14.5024 0.0171965
40.2076 26.1305 0.034305
38.0199 23.39 0.00323183
33.5585 17.4608 0.0106536
35.5338 20.302 0.00356913
32.9337 19.9265 2
35.2825 23.0345 2
37.7133 25.7471 2
32.5218 22.6494 3.99986
35.18 25.6528 3.98488
34.5178 37.5044 3.56704
35.9843 37.4895 2
37.525 37.4779 0.455051
37.6823 50.4611 0.00914443
36.9203 47.7553 0.111679
36.0136 39.0527 0.506201
35.3111 45.5225 0.18649
34.3697 43.2675 0.368408
34.6521 40.5412 0.484757
33.6173 41.6731 0.576338
35.5547 49.6771 2
34.5305 39.0437 2
33.224 40.6593 2
34.5243 46.9867 2
33.3109 42.4007 2
33.5596 44.8482 2
33.493 48.7872 3.97281
32.9148 39.1921 3.39804
32.4802 40.9937 3.62382
32.1867 43.5311 3.82177
32.8133 45.9203 3.86024
34.4949 52.1691 -0.00131673
32.3319 50.9942 2
30.4052 49.5229 4.00494
30.7387 53.2237 0.000435121
28.8404 51.3975 2
27.1101 49.7542 3.97451
27.2139 53.3031 0.0439951
25.5678 51.5382 2
24.0009 49.9384 3.96681
23.9644 53.3044 0.0463499
22.5353 51.582 2
21.1869 50.0649 3.96588
18.5977 50.1215 3.97212
18.3631 52.5981 3.96538
19.8328 51.4105 2
17.7661 55.1925 3.96264
19.3196 54.1369 2
20.9477 53.028 0.0413274
17.2639 57.78 3.9607
18.6471 56.6029 2
20.1916 55.6913 0.0389441
17.1512 60.4929 3.96336
18.4166 59.034 2
19.5477 57.789 0.0389743
17.4182 63.4271 3.96763
18.6391 61.6995 2
19.7364 60.1246 0.0291543
17.9456 66.6155 3.98227
19.133 64.6543 2
20.2242 62.7973 0.0284485
18.75 69.9759 4
19.886 67.8039 2
20.9423 65.7522 0.0261272
21.9156 68.8719 0.0126374
20.9142 71.1327 2
23.1494 72.1454 0
21.609 13.681 3.97103
22.197 11.0563 3.97054
23.1096 12.844 2
23.0421 8.18584 3.97639
23.9739 10.1871 2
24.1203 5.1439 3.98936
25.0216 7.31775 2
25.8623 9.394 0.0236564
25.446 1.99014 4
26.2786 4.33021 2
27.0716 6.54724 0.0179216
27.7943 1.27778 2
28.4905 3.64483 0.00923281
30.1841 0.720592 0
34.5921 35.9554 3.53613
36 35.9271 2
37.5188 35.9231 0.480098
21.3558 15.9251 3.96571
24.7882 12.0869 0.0251528
23.7766 14.4322 0.0201696
25.3743 13.9513 2
22.5156 15.1138 2
24.0784 15.6961 2
23.3306 16.3313 3.96434
25.432 16.1618 3.98811
27.3019 13.397 0.0257833
29.8034 14.2132 0.0127203
28.3907 15.9994 2
27.5078 18.947 3.98137
33.2465 34.3458 3.41438
34.614 34.4586 2
35.9884 34.3726 0.512527
34.5539 33.0343 0.626026
35.6756 31.0754 0.385608
37.4983 29.1859 0.186041
39.8278 28.0856 0.13933
37.5939 27.779 2
33.5926 33.2889 2
35.3663 29.4144 2
34.3169 31.6417 2
35.2566 27.9064 3.87636
33.5861 30.1719 3.8193
33.3642 32.6576 3.67786
29.8405 22.1287 4.0084
30.2731 19.5221 2
30.9601 16.8569 0.00226316
37.6964 25.7629 0.0379028
35.3074 23.0521 -0.00761866
32.9283 19.9044 0.00338798
32.5142 22.6264 2
35.2018 25.6436 2
32.1327 25.9388 4.00947
32.735 37.4988 3.44967
34.5209 37.4966 2
35.9874 37.4732 0.513737
35.5712 49.6658 0.0176527
34.5776 46.9197 0.137941
34.5457 39.041 0.453731
33.6023 44.8009 0.184949
33.3559 42.3244 0.32046
33.2374 40.6487 0.599591
33.4892 48.7804 2
32.9181 39.2011 2
32.4232 41.0491 2
32.7981 45.975 2
32.1408 43.5667 2
31.7698 47.6201 3.98698
31.8201 39.3705 3.62314
31.1622 41.7788 3.83028
31.291 44.5598 3.86775
32.3125 50.9965 0.00199747
30.4091 49.5558 2
28.6167 47.9268 3.97386
28.8346 51.3877 0.0180018
27.1088 49.7572 2
25.4465 48.1913 3.96982
25.5651 51.5362 0.0467081
24.0068 49.9357 2
22.4958 48.5047 3.97189
22.5295 51.5854 0.0456749
21.1888 50.0632 2
19.7373 48.8571 3.97456
17.4659 49.141 3.97589
17.2911 51.2257 3.97096
18.5991 50.12 2
16.7892 53.7139 3.96648
18.358 52.5986 2
19.8406 51.4102 0.036897
16.1966 56.3654 3.96184
17.7656 55.193 2
19.3199 54.1371 0.0382759
15.7882 59.1557 3.95926
17.2586 57.7821 2
18.6479 56.6017 0.0376599
15.7932 62.0974 3.97082
17.1541 60.4941 2
18.4165 59.0325 0.0392552
16.0924 65.2951 3.97804
17.4171 63.431 2
18.6377 61.6971 0.0270154
16.6661 68.6801 4
17.9424 66.6113 2
19.1339 64.654 0.0272187
18.75 69.9759 2
19.8898 67.8074 0.0155255
20.9142 71.1327 0
20.2466 14.679 3.97129
21.6084 13.6848 2
20.5415 12.055 3.97309
21.1453 9.15953 3.97484
22.1938 11.062 2
23.1107 12.844 0.0225571
22.0196 6.08234 3.98811
23.0393 8.1884 2
23.9752 10.1812 0.0252125
23.1494 2.85457 4
24.1155 5.14549 2
25.0252 7.3187 0.0200825
25.446 1.99012 2
26.2824 4.32909 0.0102902
27.7943 1.27781 0
32.9023 35.8149 3.42201
34.5582 35.9551 2
35.9822 35.9132 0.517618
21.3602 15.9185 2
20.3854 17.0543 3.96308
22.1654 16.7267 3.9605
25.3747 13.9761 0.0271197
22.5167 15.1235 0.0223125
24.0737 15.6891 0.00910799
25.4346 16.1615 2
23.3371 16.3271 2
24.293 18.6161 3.97753
27.2797 21.7425 3.99287
28.3993 15.9773 0.00960991
27.5062 18.9756 2
32.5109 33.991 3.61955
33.2345 34.332 2
34.6727 34.4488 0.491739
33.6285 33.3144 0.5784
34.3645 31.7184 0.362371
35.3741 29.4806 0.191107
37.6226 27.8172 0.136207
35.2524 27.8608 2
33.2962 32.5853 2
33.5469 30.1257 2
33.0496 28.5444 3.88408
32.1856 31.4497 3.81281
29.2772 24.6056 4.01329
29.8168 22.1427 2
30.2701 19.517 0.0217933
35.18 25.6528 0.0151218
32.5218 22.6494 0.000138705
32.1214 25.9096 2
30.3372 27.6112 3.97685
31.4428 37.4855 3.62802
32.733 37.4988 2
34.5178 37.5044 0.432964
33.493 48.7872 0.027189
32.8133 45.9203 0.139761
32.9148 39.1921 0.601962
32.1867 43.5311 0.178227
32.4802 40.9937 0.376181
31.7115 47.6519 2
31.7307 39.3875 2
31.0998 41.8293 2
31.2384 44.6025 2
30.0636 46.232 3.98708
30.3574 39.758 3.83773
29.8449 42.8732 3.88468
30.4052 49.5229 -0.00493617
28.614 47.9308 2
26.8886 46.3546 3.98031
27.1101 49.7542 0.0254926
25.4469 48.1888 2
23.7715 46.7669 3.9737
24.0009 49.9384 0.0331878
22.4964 48.5051 2
20.7727 47.3587 3.97586
21.1869 50.0649 0.0341217
19.7364 48.8557 2
18.3273 47.9674 3.97661
16.702 48.5038 3.97649
17.4647 49.1404 2
16.346 50.0036 3.9747
15.7875 52.2674 3.97092
17.2922 51.2248 2
18.5977 50.1215 0.0278849
15.1564 54.8588 3.96444
16.789 53.7138 2
18.3631 52.5981 0.0346207
14.5544 57.6775 3.95887
16.1962 56.3658 2
17.7661 55.1925 0.0373587
14.2753 60.6629 3.96477
15.7903 59.1565 2
17.2639 57.78 0.039303
14.3373 63.8537 3.97634
15.7948 62.0986 2
17.1512 60.4929 0.0366396
14.6715 67.2507 4
16.0895 65.2909 2
17.4182 63.4271 0.0323728
16.6661 68.6801 2
17.9456 66.6155 0.017731
18.75 69.9759 0
18.9756 15.8614 3.96707
20.2495 14.6739 2
18.9961 13.1774 3.97058
21.609 13.681 0.0289677
20.5392 12.0547 2
19.3472 10.2547 3.97269
19.9944 7.14809 3.9858
21.1422 9.16123 2
22.197 11.0563 0.0294626
20.9142 3.86727 4
22.0143 6.0859 2
23.0421 8.18584 0.0236116
23.1494 2.85451 2
24.1203 5.1439 0.0106363
25.446 1.99014 0
31.8456 35.615 3.61549
32.9002 35.8057 2
34.5921 35.9554 0.463875
21.3558 15.9251 0.0342856
22.1701 16.7201 2
20.3894 17.052 2
19.4298 18.5382 3.95908
21.8708 17.9908 3.97987
25.432 16.1618 0.0118949
23.3306 16.3313 0.0356644
24.2834 18.6365 2
22.5227 20.0718 3.97566
24.8647 21.5912 3.98832
26.9061 23.8959 3.98369
27.2773 21.6503 2
27.5078 18.947 0.0186254
31.2079 33.2079 3.83036
32.4582 33.9329 2
33.2465 34.3458 0.585618
33.3642 32.6576 0.322138
33.5861 30.1719 0.180696
35.2566 27.9064 0.123643
33.0119 28.5086 2
32.1325 31.3986 2
30.9756 29.9163 3.90701
28.6126 26.7861 4.00141
29.2658 24.608 2
29.8405 22.1287 -0.00840014
32.1327 25.9388 -0.00946683
30.3279 27.5874 2
29.9387 37.4786 3.83679
31.3619 37.4833 2
32.735 37.4988 0.550334
31.7698 47.6201 0.0130181
31.291 44.5598 0.132251
31.8201 39.3705 0.376858
31.1622 41.7788 0.16972
30.0652 46.2399 2
30.2652 39.7702 2
29.8135 42.899 2
28.3845 44.5634 3.96624
28.1066 40.4596 3.92592
28.6167 47.9268 0.026139
26.887 46.3553 2
25.1006 44.8798 3.98037
25.4465 48.1913 0.0301815
23.7694 46.7656 2
21.8238 45.6597 3.97754
22.4958 48.5047 0.0281069
20.7726 47.3577 2
19.0845 46.5274 3.97602
19.7373 48.8571 0.0254356
18.3272 47.9664 2
16.9568 47.532 3.97581
16.7028 48.5032 2
15.7007 48.8554 3.97552
17.4659 49.141 0.0241131
16.3475 50.0027 2
14.8958 50.8484 3.9741
14.1196 53.3249 3.96809
15.7888 52.2668 2
17.2911 51.2257 0.0290426
13.4133 56.0976 3.96098
15.156 54.8588 2
16.7892 53.7139 0.0335224
12.8661 59.1036 3.96146
14.5552 57.678 2
16.1966 56.3654 0.0381603
12.6833 62.2955 3.97268
14.2773 60.6637 2
15.7882 59.1557 0.0407414
12.7746 65.6939 4
14.3347 63.8488 2
15.7932 62.0974 0.0291778
14.6714 67.2507 2
16.0924 65.2951 0.021962
16.6661 68.6801 0
17.7839 17.2553 3.96076
18.9774 15.8579 2
17.5334 14.4377 3.96914
20.2466 14.679 0.0287092
18.9963 13.1787 2
17.6475 11.4903 3.973
20.5415 12.055 0.0269063
19.3438 10.2573 2
18.0544 8.34116 3.98347
18.75 5.0241 4
19.9886 7.1523 2
21.1453 9.15953 0.0251629
20.9142 3.86727 2
22.0196 6.08234 0.0118875
23.1494 2.85457 0
30.3773 35.2358 3.83485
31.7573 35.5924 2
32.9023 35.8149 0.577994
22.1654 16.7267 0.0395042
20.3854 17.0543 0.0369171
21.8726 17.9871 2
19.4237 18.532 2
18.3024 20.1004 3.96263
21.0988 19.5429 3.96846
24.293 18.6161 0.0224732
22.5159 20.0728 2
24.8758 21.5702 2
22.7394 21.9274 3.97961
25.2016 23.293 3.97839
26.2268 26.1649 3.9799
26.9091 23.887 2
27.2797 21.7425 0.00712952
29.6089 32.5648 3.88442
31.1275 33.1706 2
32.5109 33.991 0.380446
32.1856 31.4497 0.187188
33.0496 28.5444 0.115919
30.9539 29.903 2
28.0174 29.3839 4.01176
28.598 26.7923 2
29.2772 24.6056 -0.0132853
30.3372 27.6112 0.0231486
28.2871 37.3847 3.87974
29.8582 37.4815 2
31.4428 37.4855 0.37198
30.0636 46.232 0.0129192
29.8449 42.8732 0.115322
30.3574 39.758 0.162274
28.382 44.6173 2
28.0705 40.4627 2
26.501 42.9935 3.9807
25.4023 39.4356 3.97657
26.8886 46.3546 0.0196885
25.0903 44.8822 2
23.0315 43.6953 3.97534
23.7715 46.7669 0.026298
21.8204 45.6609 2
19.8866 44.7678 3.97549
20.7727 47.3587 0.0241428
19.0838 46.528 2
17.3282 46.0345 3.97564
18.3273 47.9674 0.0233926
16.9571 47.5317 2
15.4765 47.5159 3.97544
16.702 48.5038 0.0235092
15.7022 48.8546 2
14.2104 49.4163 3.97501
16.346 50.0036 0.0252954
14.897 50.8477 2
13.1877 51.7741 3.97106
12.3122 54.4613 3.96325
14.1203 53.3244 2
15.7875 52.2674 0.0290775
11.5708 57.4379 3.96079
13.4131 56.0977 2
15.1564 54.8588 0.0355586
11.1396 60.6211 3.96778
12.8688 59.1029 2
14.5544 57.6775 0.0411286
10.9835 64.0165 4
12.6815 62.2903 2
14.2753 60.6629 0.0352314
12.7745 65.694 2
14.3373 63.8537 0.023663
14.6715 67.2507 0
16.6075 18.7666 3.96124
17.7782 17.2498 2
16.1396 15.8417 3.95986
18.9756 15.8614 0.0329257
17.5347 14.4338 2
16.0303 12.8533 3.96665
18.9961 13.1774 0.0294235
17.6443 11.4975 2
16.2055 9.66618 3.97968
19.3472 10.2547 0.027306
18.0493 8.34789 2
16.6661 6.31991 4
18.75 5.02404 2
19.9944 7.14809 0.0141991
20.9142 3.86727 0
28.7751 34.8741 3.89062
30.2745 35.1958 2
31.8456 35.615 0.384507
17.0502 21.5359 3.96898
21.8708 17.9908 0.0201309
19.4298 18.5382 0.0409221
21.0897 19.5377 2
18.3015 20.0974 2
20.159 21.7743 3.97253
22.5227 20.0718 0.0243427
24.8647 21.5912 0.0116768
22.7405 21.9276 2
25.1859 23.3329 2
23.537 24.8261 3.97184
25.5798 28.754 3.98425
26.2175 26.1723 2
26.9061 23.8959 0.0163136
27.4711 31.9224 3.98088
29.5674 32.5411 2
31.2079 33.2079 0.16964
30.9756 29.9163 0.0929869
28.0312 29.3538 2
28.6126 26.7861 -0.00141175
26.1072 36.8609 3.97018
28.2614 37.3867 2
29.9387 37.4786 0.163214
28.3845 44.5634 0.0337626
28.1066 40.4596 0.0740836
26.4784 43.0185 2
25.3703 39.4371 2
24.2627 41.7057 3.97928
23.1095 38.5165 3.97621
25.1006 44.8798 0.0196326
23.0293 43.6972 2
20.7809 42.7285 3.97505
21.8238 45.6597 0.022457
19.8874 44.7679 2
17.7485 44.2224 3.97527
19.0845 46.5274 0.0239787
17.3282 46.0349 2
15.445 45.9484 3.97531
16.9568 47.532 0.0241945
15.4772 47.5155 2
13.7438 47.8844 3.9754
15.7007 48.8554 0.0244802
14.2118 49.4155 2
12.423 50.1595 3.97333
14.8958 50.8484 0.0258987
13.1888 51.7733 2
11.3054 52.7778 3.96532
10.3798 55.6913 3.96197
12.3121 54.4609 2
14.1196 53.3249 0.0319113
9.70515 58.8455 3.9712
11.5753 57.4362 2
13.4133 56.0976 0.0390208
9.30605 62.2254 4
11.1382 60.6159 2
12.8661 59.1036 0.0385398
10.9835 64.0165 2
12.6833 62.2955 0.0273216
12.7746 65.6939 0
15.4149 20.307 3.96454
16.6151 18.7655 2
14.8399 17.372 3.95983
17.7839 17.2553 0.0392361
16.1407 15.8383 2
14.4907 14.3291 3.96784
17.5334 14.4377 0.030857
16.031 12.8488 2
14.4486 11.1195 3.97685
17.6475 11.4903 0.0270005
16.2011 9.67333 2
14.6715 7.74927 4
18.0544 8.34116 0.0165315
16.6661 6.31988 2
18.75 5.0241 0
26.7318 34.3941 3.9728
28.7549 34.8805 2
30.3773 35.2358 0.16515
18.3311 22.5138 3.97516
15.9536 23.077 3.97239
17.0515 21.5345 2
21.0988 19.5429 0.0315405
18.3024 20.1004 0.037374
20.1543 21.7709 2
20.3029 24.6212 3.97204
22.7394 21.9274 0.0203869
25.2016 23.293 0.0216139
23.5308 24.8243 2
22.9421 28.1093 3.97119
25.0371 31.4444 3.98251
25.5862 28.7342 2
26.2268 26.1649 0.0201015
27.4393 31.8839 2
29.6089 32.5648 0.115578
28.0174 29.3839 -0.0117647
23.8506 36.3248 3.97762
26.082 36.8538 2
28.2871 37.3847 0.120265
26.501 42.9935 0.0192963
25.4023 39.4356 0.023429
24.239 41.7059 2
23.1027 38.5161 2
21.9184 40.559 3.97517
21.2388 37.7957 3.97752
23.0315 43.6953 0.0246645
20.782 42.7271 2
18.231 41.9868 3.97569
19.8866 44.7678 0.0245139
17.7487 44.2226 2
15.4952 44.077 3.97535
17.3282 46.0345 0.0243556
15.4447 45.9484 2
13.4428 46.1845 3.97528
15.4765 47.5159 0.0245571
13.7448 47.8838 2
11.8133 48.4625 3.97509
14.2104 49.4163 0.0249882
12.4246 50.1586 2
10.4372 51.0267 3.96736
13.1877 51.7741 0.028943
11.3061 52.777 2
9.28825 53.873 3.96272
8.38914 56.9803 3.97256
10.3818 55.6896 2
12.3122 54.4613 0.0367505
7.74927 60.3285 4
9.70393 58.8409 2
11.5708 57.4379 0.0392122
9.306 62.2255 2
11.1396 60.6211 0.0322216
10.9835 64.0165 0
14.2521 21.8672 3.96833
15.4151 20.3049 2
13.5809 18.9711 3.96131
16.6075 18.7666 0.0387634
14.8403 17.3696 2
13.0396 15.9136 3.96604
16.1396 15.8417 0.0401426
14.4956 14.3264 2
12.7863 12.6934 3.9745
16.0303 12.8533 0.0333513
14.4454 11.1271 2
12.7746 9.30605 4
16.2055 9.66618 0.0203204
14.6715 7.74924 2
16.6661 6.31991 0
24.405 33.9038 3.98096
26.7095 34.393 2
28.7751 34.8741 0.109381
18.2096 24.2498 3.97319
18.3386 22.5138 2
14.7769 24.6007 3.97434
15.9538 23.0757 2
17.0502 21.5359 0.0310222
19.8644 27.4493 3.97349
20.159 21.7743 0.0274679
20.3006 24.6186 2
22.3297 30.8923 3.9741
23.537 24.8261 0.0281609
22.9417 28.1112 2
24.9949 31.4536 2
25.5798 28.754 0.0157514
27.4711 31.9224 0.0191166
21.3442 35.9702 3.97698
23.844 36.321 2
26.1072 36.8609 0.029823
24.2627 41.7057 0.0207153
23.1095 38.5165 0.023788
21.9227 40.5596 2
21.243 37.7967 2
19.0008 38.9721 3.97713
20.7809 42.7285 0.0249502
18.2308 41.9869 2
15.4785 41.8403 3.97593
17.7485 44.2224 0.0247326
15.4944 44.0771 2
13.2045 44.302 3.97541
15.445 45.9484 0.0246905
13.4433 46.1844 2
11.3275 46.6539 3.97567
13.7438 47.8844 0.0246039
11.8153 48.4615 2
9.70931 49.1912 3.96934
12.423 50.1595 0.0266653
10.4385 51.0256 2
8.31552 51.9894 3.9634
11.3054 52.7778 0.0346757
9.2881 53.8715 2
7.19808 55.0327 3.97359
6.31991 58.3339 4
8.3879 56.9759 2
10.3798 55.6913 0.0380303
7.74924 60.3285 2
9.70515 58.8455 0.0287985
9.30605 62.2254 0
13.6323 25.4879 3.97633
13.151 23.3894 3.97206
14.2519 21.8656 2
12.406 20.6195 3.96371
15.4149 20.307 0.0354613
13.5807 18.9691 2
11.6766 17.5852 3.96161
14.8399 17.372 0.0401678
13.0458 15.9112 2
11.2246 14.3811 3.96813
14.4907 14.3291 0.0321584
12.7848 12.701 2
10.9835 10.9835 4
14.4486 11.1195 0.0231499
12.7745 9.306 2
14.6715 7.74927 0
21.7032 33.5364 3.9763
24.4077 33.8844 2
26.7318 34.3941 0.0271962
16.5308 26.5875 3.97432
18.2138 24.2493 2
18.3311 22.5138 0.0248399
14.7756 24.5998 2
15.9536 23.077 0.0276074
19.267 30.3695 3.9745
19.8653 27.4504 2
20.3029 24.6212 0.0279613
22.353 30.8914 2
22.9421 28.1093 0.0288141
25.0371 31.4444 0.0174887
18.5865 36.0106 3.9779
21.345 35.9722 2
23.8506 36.3248 0.0223806
21.9184 40.559 0.0248293
21.2388 37.7957 0.0224797
19.0014 38.9707 2
14.9646 39.1514 3.977
18.231 41.9868 0.0243054
15.4777 41.8397 2
12.8964 42.2173 3.97608
15.4952 44.077 0.0246531
13.2045 44.3017 2
10.9122 44.7363 3.97565
13.4428 46.1845 0.024718
11.33 46.6529 2
9.0923 47.2771 3.97139
11.8133 48.4625 0.0249146
9.71119 49.19 2
7.47553 50.0255 3.96386
10.4372 51.0267 0.0326402
8.31397 51.9881 2
6.13864 53.0085 3.9736
9.28825 53.873 0.0372786
7.19732 55.0287 2
5.0241 56.25 4
6.31988 58.3339 2
8.38914 56.9803 0.0274423
7.74927 60.3285 0
13.9256 26.9437 3.97519
12.2577 24.884 3.97496
13.6313 25.4871 2
11.3307 22.2998 3.96621
13.1523 23.3888 2
14.2521 21.8672 0.0316725
12.4048 20.618 2
10.4407 19.3407 3.96233
13.5809 18.9711 0.0386931
11.6882 17.5862 2
9.76572 16.1632 3.97089
13.0396 15.9136 0.033961
11.2246 14.3865 2
9.30607 12.7746 4
12.7863 12.6934 0.0255049
10.9835 10.9835 2
12.7746 9.30605 0
18.7543 33.2116 3.97581
21.6991 33.5394 2
24.405 33.9038 0.01904
16.16 29.7872 3.97513
16.5303 26.587 2
18.2096 24.2498 0.026806
14.7769 24.6007 0.025664
19.2646 30.3697 2
19.8644 27.4493 0.0265102
22.3297 30.8923 0.025899
15.6047 36.0456 3.97746
18.5859 36.0117 2
21.3442 35.9702 0.0230206
13.1255 37.8285 3.97713
19.0008 38.9721 0.0228692
14.9646 39.1513 2
12.3883 40.1095 3.97658
15.4785 41.8403 0.0240747
12.8958 42.2167 2
10.5082 42.7323 3.97599
13.2045 44.302 0.0245905
10.9144 44.7355 2
8.55641 45.2885 3.97372
11.3275 46.6539 0.0243325
9.09432 47.276 2
6.75558 47.9935 3.96447
9.70931 49.1912 0.0306611
7.47311 50.0244 2
5.215 50.912 3.97335
8.31552 51.9894 0.0366009
6.13835 53.0055 2
3.86727 54.0858 4
7.19808 55.0327 0.0264127
5.02404 56.25 2
6.31991 58.3339 0
13.4028 29.1375 3.97461
11.7056 26.5771 3.97538
13.9251 26.9435 2
10.3808 24.0233 3.9688
12.2604 24.884 2
13.6323 25.4879 0.0236677
9.30411 21.1569 3.96326
11.3307 22.2991 2
13.151 23.3894 0.0279358
12.406 20.6195 0.03629
10.4511 19.3423 2
8.42152 18.0316 3.97245
11.6766 17.5852 0.0383915
9.76492 16.1671 2
7.74928 14.6715 4
11.2246 14.3811 0.0318694
9.30602 12.7745 2
10.9835 10.9835 0
15.1386 32.9376 3.97622
18.7538 33.2111 2
21.7032 33.5364 0.0236988
16.1595 29.7868 2
16.5308 26.5875 0.0256794
19.267 30.3695 0.0254971
13.433 36.2256 3.97674
15.6044 36.0457 2
18.5865 36.0106 0.0221015
13.1249 37.8285 2
11.7043 38.3035 3.97672
14.9646 39.1514 0.0230028
12.3879 40.1094 2
10.0793 40.7292 3.97648
12.8964 42.2173 0.0239193
10.5107 42.7317 2
8.09031 43.2472 3.97464
10.9122 44.7363 0.0243527
8.55887 45.2874 2
6.15112 45.9009 3.96486
9.0923 47.2771 0.0286119
6.75278 47.9927 2
4.42595 48.7522 3.97315
7.47553 50.0255 0.0361447
5.21511 50.9098 2
2.85457 51.8506 4
6.13864 53.0085 0.0263972
3.86727 54.0858 2
5.0241 56.25 0
12.5283 31.3255 3.97576
11.1134 28.4908 3.97526
13.4024 29.137 2
9.59433 25.846 3.97056
11.7078 26.5771 2
13.9256 26.9437 0.0248113
8.28119 23.0367 3.964
10.3831 24.0236 2
12.2577 24.884 0.025041
7.20394 19.9793 3.97355
9.3095 21.1584 2
11.3307 22.2998 0.0337872
10.4407 19.3407 0.0376657
8.42087 18.0356 2
6.31992 16.6661 4
9.76572 16.1632 0.0291109
7.74926 14.6714 2
9.30607 12.7746 0
12.5635 34.335 3.97659
15.1381 32.9384 2
18.7543 33.2116 0.0241927
16.16 29.7872 0.0248717
11.2336 36.6234 3.97654
13.4324 36.2257 2
15.6047 36.0456 0.0225442
13.1255 37.8285 0.0228684
11.7043 38.3033 2
9.65357 38.8153 3.97656
12.3883 40.1095 0.0234241
10.0813 40.7287 2
7.69206 41.1981 3.97475
10.5082 42.7323 0.0240072
8.09197 43.2463 2
5.65744 43.7652 3.96493
8.55641 45.2885 0.0262776
6.14774 45.9004 2
3.7712 46.5372 3.97306
6.75558 47.9935 0.0355328
4.42648 48.7508 2
1.99014 49.554 4
5.215 50.912 0.0266473
2.85451 51.8506 2
3.86727 54.0858 0
11.3191 32.9679 3.97637
10.4134 30.4376 3.97541
12.5277 31.3261 2
8.89127 27.7709 3.97187
11.1154 28.4911 2
13.4028 29.1375 0.0253895
7.39442 24.9916 3.96448
9.59692 25.8466 2
11.7056 26.5771 0.0246151
6.12073 22.0012 3.97405
8.28238 23.0378 2
10.3808 24.0233 0.0312023
5.02411 18.75 4
7.20352 19.9826 2
9.30411 21.1569 0.0367374
8.42152 18.0316 0.0275539
6.3199 16.6661 2
7.74928 14.6715 0
10.8119 35.0237 3.97632
12.5624 34.335 2
15.1386 32.9376 0.0237809
9.30577 36.9903 3.97648
11.2337 36.6235 2
13.433 36.2256 0.0232609
11.7043 38.3035 0.0232767
9.65598 38.8149 2
7.36283 39.1771 3.97441
10.0793 40.7292 0.0235161
7.69461 41.1976 2
5.26912 41.612 3.96528
8.09031 43.2472 0.0253561
5.65568 43.7648 2
3.2486 44.2816 3.97385
6.15112 45.9009 0.0351377
3.77199 46.5363 2
1.27781 47.2057 4
4.42595 48.7522 0.0268517
1.99012 49.554 2
2.85457 51.8506 0
10.4385 33.9131 3.97602
9.67969 32.1934 3.97605
11.3194 32.9682 2
8.21976 29.7248 3.9732
10.4155 30.4389 2
12.5283 31.3255 0.0242374
6.62521 27.0146 3.96477
8.89439 27.7716 2
11.1134 28.4908 0.024744
5.17562 24.0937 3.97384
7.39259 24.9923 2
9.59433 25.846 0.029441
3.86728 20.9142 4
6.12068 22.0036 2
8.28119 23.0367 0.0360022
5.02406 18.75 2
7.20394 19.9793 0.0264544
6.31992 16.6661 0
9.1164 35.2959 3.97652
10.8125 35.0238 2
12.5635 34.335 0.0234133
7.13891 37.2076 3.97407
9.30848 36.99 2
11.2336 36.6234 0.0234558
9.65357 38.8153 0.0234406
7.36593 39.177 2
4.99442 39.4666 3.96604
7.69206 41.1981 0.0252477
5.26836 41.6118 2
2.85884 42.0017 3.9744
5.65744 43.7652 0.0350703
3.2492 44.2811 2
0.720592 44.8159 4
3.7712 46.5372 0.0269355
1.27778 47.2057 2
1.99014 49.554 0
9.15371 33.7238 3.97653
10.44 33.9133 2
7.64617 31.6301 3.97352
9.68215 32.1941 2
11.3191 32.9679 0.0236299
5.96148 29.0738 3.96493
8.22213 29.7254 2
10.4134 30.4376 0.024588
4.36273 26.2467 3.97348
6.62179 27.015 2
8.89127 27.7709 0.0281344
2.85458 23.1494 4
5.17596 24.0951 2
7.39442 24.9916 0.0355193
3.86728 20.9142 2
6.12073 22.0012 0.0259491
5.02411 18.75 0
7.08791 35.3137 3.97378
9.11984 35.2958 2
10.8119 35.0237 0.023685
4.84436 37.3401 3.96664
7.14202 37.2076 2
9.30577 36.9903 0.0235239
7.36283 39.1771 0.0255856
4.99521 39.4665 2
2.60673 39.7134 3.97494
5.26912 41.612 0.0347177
2.8597 42.0017 2
0.320823 42.3947 4
3.2486 44.2816 0.026152
0.720551 44.8159 2
1.27781 47.2057 0
7.25132 33.4748 3.97367
9.15713 33.724 2
10.4385 33.9131 0.0239755
5.42496 31.1366 3.96543
7.64732 31.6304 2
9.67969 32.1934 0.0239536
3.68392 28.4434 3.9736
5.9576 29.0741 2
8.21976 29.7248 0.0267986
1.99015 25.446 4
4.36334 26.2476 2
6.62521 27.0146 0.0352314
2.85453 23.1494 2
5.17562 24.0937 0.026159
3.86728 20.9142 0
4.85842 35.2529 3.96656
7.09028 35.3138 2
9.1164 35.2959 0.023482
2.49807 37.4283 3.97602
4.84457 37.3403 2
7.13891 37.2076 0.0259292
4.99442 39.4666 0.0339625
2.60754 39.7139 2
0.080333 39.9526 4
2.85884 42.0017 0.025603
0.320817 42.3947 2
0.720592 44.8159 0
5.05177 33.1922 3.96611
7.25353 33.4749 2
9.15371 33.7238 0.023473
3.14794 30.6666 3.97434
5.42338 31.1368 2
7.64617 31.6301 0.0264768
1.27793 27.7943 4
3.68481 28.4439 2
5.96148 29.0738 0.0350689
1.99013 25.446 2
4.36273 26.2467 0.0265181
2.85458 23.1494 0
2.55005 35.1591 3.97586
4.85929 35.2532 2
7.08791 35.3137 0.0262211
0 37.5 4
2.49834 37.4287 2
4.84436 37.3401 0.0333603
2.60673 39.7134 0.0250579
0.0802903 39.9526 2
0.320823 42.3947 0
2.76784 32.906 3.97566
5.05252 33.1927 2
7.25132 33.4748 0.0263277
0.721173 30.1842 4
3.14879 30.6669 2
5.42496 31.1366 0.034575
1.27779 27.7943 2
3.68392 28.4434 0.0263997
1.99015 25.446 0
0.0806499 35.0474 4
2.55097 35.1595 2
4.85842 35.2529 0.0334438
0 37.5 2
2.49807 37.4283 0.0239784
0.080333 39.9526 0
0.32156 32.6054 4
2.76822 32.9065 2
5.05177 33.1922 0.0338861
0.72056 30.1841 2
3.14794 30.6666 0.0256607
1.27793 27.7943 0
0.0802889 35.0474 2
2.55005 35.1591 0.0241357
0 37.5 0
0.320817 32.6053 2
2.76784 32.906 0.0243383
0.721173 30.1842 0
0.0806499 35.0474 0
0.32156 32.6054 0
CELLS 1910 17190
8 18 6 25 56 2 0 5 16
8 57 23 6 18 17 4 0 2
8 78 36 9 29 31 11 1 7
8 31 11 1 7 79 37 10 30
8 110 57 18 50 48 17 2 14
8 50 18 56 111 14 2 16 49
8 116 62 22 55 52 20 3 15
8 56 25 67 118 16 5 24 53
8 119 63 23 57 54 21 4 17
8 55 22 63 119 15 3 21 54
8 58 26 68 121 18 6 25 56
8 122 65 26 58 57 23 6 18
8 73 31 7 27 142 79 30 71
8 143 78 29 72 73 31 7 27
8 83 147 76 34 32 74 28 8
8 84 148 78 36 33 75 29 9
8 76 34 8 28 148 84 33 75
8 37 79 150 86 10 30 77 35
8 151 87 36 78 80 38 11 31
8 80 38 11 31 152 88 37 79
8 175 100 42 94 96 44 12 40
8 44 96 176 101 12 40 95 43
8 101 176 98 46 43 95 41 13
8 46 98 178 103 13 41 97 45
8 178 103 45 97 147 83 32 74
8 189 116 55 109 106 52 15 47
8 111 56 118 191 49 16 53 107
8 192 119 57 110 108 54 17 48
8 109 55 119 192 47 15 54 108
8 194 122 58 112 110 57 18 50
8 112 58 121 195 50 18 56 111
8 115 61 19 51 197 124 59 113
8 115 61 125 198 51 19 60 114
8 198 125 62 116 114 60 20 52
8 200 127 64 120 116 62 22 55
8 118 67 132 202 53 24 66 117
8 121 68 133 203 56 25 67 118
8 120 64 128 204 55 22 63 119
8 204 128 65 122 119 63 23 57
8 206 134 68 121 123 69 26 58
8 123 69 26 58 207 131 65 122
8 226 147 74 138 140 76 28 70
8 229 148 75 139 143 78 29 72
8 140 76 28 70 229 148 75 139
8 142 79 30 71 231 150 77 141
8 144 80 31 73 232 152 79 142
8 233 151 78 143 144 80 31 73
8 150 86 35 77 235 154 81 145
8 235 154 81 145 146 82 39 91
8 146 82 39 91 236 155 90 165
8 238 157 83 147 149 85 34 76
8 239 158 84 148 151 87 36 78
8 149 85 34 76 239 158 84 148
8 152 88 37 79 241 160 86 150
8 242 161 87 151 153 89 38 80
8 153 89 38 80 243 162 88 152
8 171 98 41 92 265 178 97 169
8 265 178 97 169 226 147 74 138
8 172 96 40 93 266 176 95 170
8 266 176 95 170 171 98 41 92
8 269 175 94 173 172 96 40 93
8 271 180 99 174 175 100 42 94
8 197 124 59 113 271 180 99 174
8 272 181 100 175 177 102 44 96
8 273 182 101 176 179 104 46 98
8 177 102 44 96 273 182 101 176
8 179 104 46 98 275 184 103 178
8 275 184 103 178 238 157 83 147
8 188 115 51 105 283 197 113 186
8 188 115 198 284 105 51 114 187
8 284 198 116 189 187 114 52 106
8 286 200 120 193 189 116 55 109
8 191 118 202 288 107 53 117 190
8 195 121 203 289 111 56 118 191
8 193 120 204 290 109 55 119 192
8 290 204 122 194 192 119 57 110
8 196 123 58 112 292 207 122 194
8 293 206 121 195 196 123 58 112
8 199 126 61 115 297 211 124 197
8 298 212 127 200 198 125 62 116
8 199 126 212 298 115 61 125 198
8 205 129 64 120 300 214 127 200
8 301 217 130 201 202 132 66 117
8 209 136 168 264 301 217 130 201
8 302 219 132 202 203 133 67 118
8 303 220 133 203 206 134 68 121
8 205 129 215 304 120 64 128 204
8 304 215 131 207 204 128 65 122
8 306 221 134 206 208 135 69 123
8 208 135 69 123 307 218 131 207
8 210 137 167 263 309 223 136 209
8 328 238 147 226 230 149 76 140
8 228 146 91 166 329 236 165 260
8 231 150 77 141 330 235 145 227
8 330 235 145 227 228 146 91 166
8 332 239 148 229 233 151 78 143
8 230 149 76 140 332 239 148 229
8 232 152 79 142 334 241 150 231
8 234 153 80 144 335 243 152 232
8 336 242 151 233 234 153 80 144
8 236 155 90 165 338 245 164 259
8 241 160 86 150 339 246 154 235
8 339 246 154 235 237 156 82 146
8 237 156 82 146 340 247 155 236
8 342 249 157 238 240 159 85 149
8 343 250 158 239 242 161 87 151
8 240 159 85 149 343 250 158 239
8 243 162 88 152 345 252 160 241
8 244 163 253 346 153 89 161 242
8 244 163 89 153 347 254 162 243
8 311 224 261 371 210 137 167 263
8 263 167 262 372 209 136 168 264
8 267 179 98 171 375 275 178 265
8 375 275 178 265 328 238 147 226
8 376 273 176 266 267 179 98 171
8 268 177 96 172 376 273 176 266
8 379 272 175 269 268 177 96 172
8 380 271 174 270 269 175 94 173
8 283 197 113 186 380 271 174 270
8 381 277 180 271 272 181 100 175
8 297 211 124 197 381 277 180 271
8 382 278 181 272 274 183 102 177
8 274 183 102 177 383 279 182 273
8 383 279 182 273 276 185 104 179
8 385 281 184 275 342 249 157 238
8 276 185 104 179 385 281 184 275
8 285 199 115 188 393 297 197 283
8 394 298 200 286 284 198 116 189
8 285 199 298 394 188 115 198 284
8 291 205 120 193 396 300 200 286
8 397 301 201 287 288 202 117 190
8 295 209 264 374 397 301 201 287
8 398 302 202 288 289 203 118 191
8 399 303 203 289 293 206 121 195
8 291 205 304 400 193 120 204 290
8 400 304 207 292 290 204 122 194
8 294 208 123 196 402 307 207 292
8 403 306 206 293 294 208 123 196
8 296 210 263 373 405 309 209 295
8 408 312 213 299 297 211 126 199
8 299 213 313 409 199 126 212 298
8 409 313 214 300 298 212 127 200
8 305 216 129 205 411 315 214 300
8 412 318 217 301 302 219 132 202
8 309 223 136 209 412 318 217 301
8 413 320 219 302 303 220 133 203
8 306 221 321 414 206 134 220 303
8 307 218 131 207 415 316 215 304
8 305 216 316 415 205 129 215 304
8 417 322 221 306 308 222 135 208
8 308 222 135 208 418 319 218 307
8 310 225 137 210 420 325 223 309
8 423 326 224 311 310 225 137 210
8 329 236 165 260 441 338 259 368
8 442 342 238 328 333 240 149 230
8 331 237 146 228 443 340 236 329
8 334 241 150 231 444 339 235 330
8 444 339 235 330 331 237 146 228
8 446 343 239 332 336 242 151 233
8 333 240 149 230 446 343 239 332
8 335 243 152 232 448 345 241 334
8 337 244 153 234 449 347 243 335
8 337 244 346 450 234 153 242 336
8 338 245 164 259 452 349 258 367
8 340 247 155 236 453 350 245 338
8 345 252 160 241 454 351 246 339
8 454 351 246 339 341 248 156 237
8 341 248 156 237 455 352 247 340
8 240 159 251 344 342 249 354 457
8 242 161 253 346 343 250 355 458
8 343 250 355 458 240 159 251 344
8 347 254 162 243 460 357 252 345
8 348 255 358 461 244 163 253 346
8 348 255 163 244 462 359 254 347
8 473 360 257 365 363 256 364 482
8 452 349 258 367 365 257 366 485
8 422 324 369 488 311 224 261 371
8 371 261 370 490 263 167 262 372
8 407 311 371 491 296 210 263 373
8 373 263 372 492 295 209 264 374
8 493 385 275 375 442 342 238 328
8 377 276 179 267 493 385 275 375
8 378 274 177 268 494 383 273 376
8 494 383 273 376 377 276 179 267
8 497 382 272 379 378 274 177 268
8 498 381 271 380 379 272 175 269
8 393 297 197 283 498 381 271 380
8 499 387 277 381 382 278 181 272
8 408 312 211 297 499 387 277 381
8 500 388 278 382 384 280 183 274
8 501 389 279 383 386 282 185 276
8 384 280 183 274 501 389 279 383
8 386 282 185 276 503 391 281 385
8 503 391 281 385 457 354 249 342
8 511 408 299 395 393 297 199 285
8 395 299 409 512 285 199 298 394
8 512 409 300 396 394 298 200 286
8 401 305 205 291 514 411 300 396
8 515 412 301 397 398 302 202 288
8 405 309 209 295 515 412 301 397
8 516 413 302 398 399 303 203 289
8 403 306 414 517 293 206 303 399
8 402 307 207 292 518 415 304 400
8 401 305 415 518 291 205 304 400
8 404 308 208 294 520 418 307 402
8 521 417 306 403 404 308 208 294
8 406 310 210 296 523 420 309 405
8 526 423 311 407 406 310 210 296
8 410 314 213 299 527 424 312 408
8 528 425 315 411 409 313 214 300
8 410 314 425 528 299 213 313 409
8 416 317 216 305 530 427 315 411
8 531 430 318 412 413 320 219 302
8 420 325 223 309 531 430 318 412
8 532 432 320 413 414 321 220 303
8 417 322 433 533 306 221 321 414
8 418 319 218 307 534 428 316 415
8 416 317 428 534 305 216 316 415
8 419 323 434 536 308 222 322 417
8 419 323 222 308 537 431 319 418
8 421 327 225 310 539 438 325 420
8 421 327 439 541 310 225 326 423
8 543 437 324 422 423 326 224 311
8 441 338 259 368 559 452 367 486
8 443 340 236 329 560 453 338 441
8 333 240 344 447 442 342 457 561
8 445 341 237 331 562 455 340 443
8 448 345 241 334 563 454 339 444
8 563 454 339 444 445 341 237 331
8 336 242 346 450 446 343 458 565
8 446 343 458 565 333 240 344 447
8 449 347 243 335 567 460 345 448
8 451 348 244 337 568 462 347 449
8 451 348 461 569 337 244 346 450
8 570 463 349 452 473 360 257 365
8 453 350 245 338 570 463 349 452
8 455 352 247 340 571 464 350 453
8 460 357 252 345 572 465 351 454
8 572 465 351 454 456 353 248 341
8 456 353 248 341 573 466 352 455
8 344 251 356 459 457 354 468 575
8 458 355 469 576 344 251 356 459
8 346 253 358 461 458 355 469 576
8 462 359 254 347 578 471 357 460
8 348 255 359 462 461 358 472 579
8 591 474 360 473 475 361 256 363
8 475 361 256 363 594 477 362 479
8 363 256 364 482 479 362 480 603
8 590 473 365 484 481 363 482 605
8 482 364 257 365 606 483 366 485
8 559 452 367 486 484 365 485 607
8 542 436 487 609 422 324 369 488
8 525 422 488 611 407 311 371 491
8 488 369 489 612 371 261 370 490
8 491 371 490 613 373 263 372 492
8 495 386 276 377 614 503 385 493
8 614 503 385 493 561 457 342 442
8 615 501 383 494 495 386 276 377
8 496 384 274 378 615 501 383 494
8 618 500 382 497 496 384 274 378
8 619 499 381 498 497 382 272 379
8 511 408 297 393 619 499 381 498
8 620 505 387 499 500 388 278 382
8 527 424 312 408 620 505 387 499
8 502 390 506 621 384 280 388 500
8 622 507 389 501 504 392 282 386
8 502 390 280 384 622 507 389 501
8 504 392 282 386 624 509 391 503
8 624 509 391 503 575 468 354 457
8 513 410 299 395 630 527 408 511
8 631 528 411 514 512 409 300 396
8 513 410 528 631 395 299 409 512
8 519 416 305 401 633 530 411 514
8 634 531 412 515 516 413 302 398
8 523 420 309 405 634 531 412 515
8 635 532 413 516 517 414 303 399
8 521 417 533 636 403 306 414 517
8 520 418 307 402 637 534 415 518
8 519 416 534 637 401 305 415 518
8 522 419 308 404 639 537 418 520
8 522 419 536 640 404 308 417 521
8 524 421 310 406 642 539 420 523
8 524 421 541 644 406 310 423 526
8 646 543 422 525 526 423 311 407
8 529 426 314 410 647 544 424 527
8 528 425 545 648 411 315 427 530
8 529 426 545 648 410 314 425 528
8 535 429 317 416 649 546 427 530
8 650 548 430 531 532 432 320 413
8 539 438 325 420 650 548 430 531
8 533 433 550 651 414 321 432 532
8 536 434 551 652 417 322 433 533
8 537 431 319 418 653 547 428 534
8 535 429 547 653 416 317 428 534
8 538 435 552 654 419 323 434 536
8 538 435 323 419 655 549 431 537
8 540 440 327 421 657 556 438 539
8 540 440 557 659 421 327 439 541
8 541 439 555 660 423 326 437 543
8 661 554 436 542 543 437 324 422
8 676 570 452 559 590 473 365 484
8 560 453 338 441 676 570 452 559
8 562 455 340 443 677 571 453 560
8 447 344 459 566 561 457 575 678
8 564 456 341 445 679 573 455 562
8 567 460 345 448 680 572 454 563
8 680 572 454 563 564 456 341 445
8 565 458 576 682 447 344 459 566
8 450 346 461 569 565 458 576 682
8 568 462 347 449 684 578 460 567
8 451 348 462 568 569 461 579 685
8 686 580 463 570 591 474 360 473
8 571 464 350 453 686 580 463 570
8 573 466 352 455 687 581 464 571
8 572 465 582 688 460 357 471 578
8 574 467 582 688 456 353 465 572
8 574 467 353 456 689 583 466 573
8 459 356 470 577 575 468 585 691
8 576 469 586 692 459 356 470 577
8 461 358 472 579 576 469 586 692
8 462 359 471 578 579 472 588 694
8 704 591 473 590 593 475 363 481
8 595 476 592 705 475 361 474 591
8 593 475 363 481 707 594 479 602
8 594 477 362 479 709 598 478 600
8 595 476 361 475 711 597 477 594
8 479 362 480 603 600 478 601 720
8 481 363 482 605 602 479 603 722
8 603 480 364 482 723 604 483 606
8 605 482 365 484 724 606 485 607
8 656 553 608 726 542 436 487 609
8 645 542 609 728 525 422 488 611
8 609 487 610 729 488 369 489 612
8 611 488 612 730 491 371 490 613
8 616 504 386 495 731 624 503 614
8 731 624 503 614 678 575 457 561
8 732 622 501 615 616 504 386 495
8 617 502 384 496 732 622 501 615
8 617 502 621 735 496 384 500 618
8 736 620 499 619 618 500 382 497
8 630 527 408 511 736 620 499 619
8 621 506 626 737 500 388 505 620
8 647 544 424 527 737 626 505 620
8 623 508 627 738 502 390 506 621
8 623 508 390 502 739 628 507 622
8 625 510 628 739 504 392 507 622
8 740 629 509 624 691 585 468 575
8 625 510 392 504 740 629 509 624
8 632 529 410 513 744 647 527 630
8 631 528 648 745 514 411 530 633
8 632 529 648 745 513 410 528 631
8 638 535 416 519 746 649 530 633
8 747 650 531 634 635 532 413 516
8 642 539 420 523 747 650 531 634
8 636 533 651 748 517 414 532 635
8 640 536 652 749 521 417 533 636
8 639 537 418 520 750 653 534 637
8 638 535 653 750 519 416 534 637
8 641 538 419 522 751 655 537 639
8 641 538 654 752 522 419 536 640
8 643 540 421 524 753 657 539 642
8 643 540 659 755 524 421 541 644
8 644 541 660 757 526 423 543 646
8 758 661 542 645 646 543 422 525
8 529 426 544 647 648 545 662 759
8 530 427 545 648 649 546 663 760
8 535 429 546 649 653 547 664 761
8 762 666 548 650 651 550 432 532
8 657 556 438 539 762 666 548 650
8 652 551 668 763 533 433 550 651
8 654 552 669 764 536 434 551 652
8 655 549 431 537 765 665 547 653
8 538 435 549 655 654 552 667 766
8 661 554 671 768 542 436 553 656
8 658 558 440 540 769 674 556 657
8 658 558 675 770 540 440 557 659
8 659 557 673 771 541 439 555 660
8 660 555 672 772 543 437 554 661
8 788 686 570 676 704 591 473 590
8 677 571 453 560 788 686 570 676
8 679 573 455 562 789 687 571 677
8 566 459 577 683 678 575 691 790
8 681 574 456 564 791 689 573 679
8 680 572 688 792 567 460 578 684
8 681 574 688 792 564 456 572 680
8 682 576 692 794 566 459 577 683
8 569 461 579 685 682 576 692 794
8 568 462 578 684 685 579 694 796
8 687 581 464 571 798 696 580 686
8 798 696 580 686 705 592 474 591
8 689 583 466 573 799 697 581 687
8 688 582 698 800 578 471 588 694
8 690 584 698 800 574 467 582 688
8 690 584 467 574 801 699 583 689
8 693 587 701 803 577 470 585 691
8 693 587 470 577 804 702 586 692
8 695 589 702 804 579 472 586 692
8 695 589 472 579 805 703 588 694
8 708 595 705 813 593 475 591 704
8 710 596 706 814 595 476 592 705
8 707 594 479 602 816 709 600 719
8 708 595 475 593 817 711 594 707
8 709 598 478 600 819 715 599 717
8 711 597 477 594 820 714 598 709
8 710 596 476 595 822 713 597 711
8 600 478 601 720 717 599 718 832
8 602 479 603 722 719 600 720 834
8 720 601 480 603 835 721 604 723
8 722 603 482 605 836 723 606 724
8 767 670 725 839 656 553 608 726
8 756 656 726 841 645 542 609 728
8 726 608 727 842 609 487 610 729
8 728 609 729 843 611 488 612 730
8 844 740 624 731 790 691 575 678
8 733 625 504 616 844 740 624 731
8 734 623 502 617 845 739 622 732
8 733 625 739 845 616 504 622 732
8 734 623 738 846 617 502 621 735
8 735 621 737 847 618 500 620 736
8 744 647 527 630 847 737 620 736
8 621 506 627 738 737 626 741 848
8 647 544 626 737 759 662 741 848
8 623 508 628 739 738 627 742 849
8 740 629 585 691 850 743 700 802
8 625 510 629 740 739 628 743 850
8 632 529 647 744 745 648 759 854
8 633 530 648 745 746 649 760 855
8 638 535 649 746 750 653 761 856
8 857 762 650 747 748 651 532 635
8 753 657 539 642 857 762 650 747
8 749 652 763 858 636 533 651 748
8 752 654 764 859 640 536 652 749
8 751 655 537 639 860 765 653 750
8 641 538 655 751 752 654 766 861
8 754 658 540 643 862 769 657 753
8 754 658 770 863 643 540 659 755
8 755 659 771 864 644 541 660 757
8 758 661 768 866 645 542 656 756
8 757 660 772 867 646 543 661 758
8 759 662 773 868 648 545 663 760
8 649 546 663 760 761 664 774 871
8 765 665 547 653 872 775 664 761
8 873 777 666 762 763 668 550 651
8 769 674 556 657 873 777 666 762
8 764 669 779 874 652 551 668 763
8 654 552 667 766 764 669 778 875
8 655 549 665 765 766 667 776 876
8 768 671 782 877 656 553 670 767
8 772 672 783 878 661 554 671 768
8 658 558 674 769 770 675 786 879
8 659 557 675 770 771 673 785 881
8 882 784 672 772 771 673 555 660
8 789 687 571 677 897 798 686 788
8 897 798 686 788 813 705 591 704
8 791 689 573 679 898 799 687 789
8 795 693 803 900 683 577 691 790
8 793 690 574 681 901 801 689 791
8 792 688 800 902 684 578 694 796
8 793 690 800 902 681 574 688 792
8 795 693 577 683 903 804 692 794
8 797 695 804 903 685 579 692 794
8 797 695 579 685 904 805 694 796
8 905 806 697 799 798 696 581 687
8 814 706 806 905 705 592 696 798
8 689 583 697 799 801 699 808 907
8 800 698 809 908 694 588 703 805
8 690 584 699 801 800 698 809 908
8 803 701 810 909 691 585 700 802
8 693 587 702 804 803 701 811 910
8 695 589 703 805 804 702 812 911
8 818 710 814 919 708 595 705 813
8 821 712 815 920 710 596 706 814
8 816 709 600 719 922 819 717 831
8 817 711 594 707 923 820 709 816
8 818 710 595 708 924 822 711 817
8 819 715 599 717 926 827 716 829
8 820 714 598 709 927 826 715 819
8 929 825 713 822 820 714 597 711
8 821 712 596 710 930 824 713 822
8 717 599 718 832 829 716 830 942
8 719 600 720 834 831 717 832 944
8 832 718 601 720 945 833 721 835
8 834 720 603 722 946 835 723 836
8 869 780 838 950 767 670 725 839
8 865 767 839 952 756 656 726 841
8 839 725 840 953 726 608 727 842
8 841 726 842 954 728 609 729 843
8 844 740 691 790 955 850 802 899
8 733 625 740 844 845 739 850 955
8 734 623 739 845 846 738 849 956
8 735 621 738 846 847 737 848 957
8 744 647 737 847 854 759 848 957
8 738 627 742 849 848 741 851 958
8 848 741 851 958 759 662 773 868
8 850 743 700 802 959 852 807 906
8 849 742 628 739 959 852 743 850
8 854 759 868 965 745 648 760 855
8 746 649 760 855 856 761 871 966
8 860 765 653 750 967 872 761 856
8 968 873 762 857 858 763 651 748
8 862 769 657 753 968 873 762 857
8 859 764 874 969 749 652 763 858
8 752 654 766 861 859 764 875 970
8 751 655 765 860 861 766 876 971
8 754 658 769 862 863 770 879 972
8 755 659 770 863 864 771 881 974
8 976 882 772 867 864 771 660 757
8 866 768 877 977 756 656 767 865
8 867 772 878 978 758 661 768 866
8 760 663 773 868 871 774 883 980
8 870 781 837 948 982 890 780 869
8 982 890 780 869 877 782 670 767
8 761 664 774 871 872 775 884 984
8 876 776 665 765 985 885 775 872
8 873 777 668 763 986 887 779 874
8 769 674 777 873 879 786 887 986
8 764 669 778 875 874 779 888 987
8 766 667 776 876 875 778 886 988
8 878 783 892 989 768 671 782 877
8 878 783 672 772 990 893 784 882
8 880 787 675 770 991 896 786 879
8 880 787 895 992 770 675 785 881
8 881 785 894 993 771 673 784 882
8 1006 905 799 898 897 798 687 789
8 919 814 905 1006 813 705 798 897
8 791 689 799 898 901 801 907 1007
8 900 803 909 1009 790 691 802 899
8 795 693 804 903 900 803 910 1010
8 902 800 908 1011 796 694 805 904
8 793 690 801 901 902 800 908 1011
8 797 695 805 904 903 804 911 1012
8 799 697 806 905 907 808 912 1013
8 920 815 912 1013 814 706 806 905
8 802 700 810 909 906 807 913 1014
8 801 699 808 907 908 809 914 1015
8 805 703 809 908 911 812 915 1016
8 803 701 811 910 909 810 916 1017
8 911 812 917 1018 804 702 811 910
8 925 821 920 1030 818 710 814 919
8 928 823 921 1031 821 712 815 920
8 922 819 717 831 1033 926 829 941
8 923 820 709 816 1034 927 819 922
8 1035 929 822 924 923 820 711 817
8 925 821 710 818 1036 930 822 924
8 1038 933 825 929 927 826 714 820
8 926 827 716 829 1039 935 828 939
8 927 826 715 819 1040 934 827 926
8 928 823 712 821 1041 931 824 930
8 1042 932 824 930 929 825 713 822
8 829 716 830 942 939 828 940 1058
8 831 717 832 944 941 829 942 1060
8 942 830 718 832 1061 943 833 945
8 944 832 720 834 1062 945 835 946
8 981 889 947 1064 870 781 837 948
8 948 837 949 1067 869 780 838 950
8 975 869 950 1069 865 767 839 952
8 950 838 951 1070 839 725 840 953
8 952 839 953 1071 841 726 842 954
8 955 850 802 899 1072 959 906 1008
8 956 849 739 845 1072 959 850 955
8 846 738 849 956 957 848 958 1073
8 957 848 958 1073 854 759 868 965
8 849 742 852 959 958 851 961 1076
8 960 853 961 1076 906 807 852 959
8 958 851 961 1076 868 773 883 980
8 960 853 807 906 1077 963 913 1014
8 855 760 868 965 966 871 980 1085
8 856 761 871 966 967 872 984 1086
8 971 876 765 860 1087 985 872 967
8 968 873 763 858 1088 986 874 969
8 862 769 873 968 972 879 986 1088
8 859 764 875 970 969 874 987 1089
8 861 766 876 971 970 875 988 1090
8 973 880 770 863 1091 991 879 972
8 973 880 992 1092 863 770 881 974
8 974 881 993 1093 864 771 882 976
8 979 870 948 1066 1094 982 869 975
8 1094 982 869 975 977 877 767 865
8 978 878 772 867 1095 990 882 976
8 978 878 989 1096 866 768 877 977
8 871 774 883 980 984 884 994 1099
8 983 891 999 1100 870 781 889 981
8 1101 1000 890 982 989 892 782 877
8 983 891 781 870 1101 1000 890 982
8 872 775 884 984 985 885 995 1103
8 876 776 885 985 988 886 996 1104
8 986 887 779 874 1105 998 888 987
8 879 786 887 986 991 896 998 1105
8 875 778 886 988 987 888 997 1106
8 990 893 1002 1107 878 783 892 989
8 1108 1003 893 990 993 894 784 882
8 880 787 896 991 992 895 1005 1109
8 993 894 785 881 1110 1004 895 992
8 898 799 905 1006 1007 907 1013 1120
8 1030 920 1013 1120 919 814 905 1006
8 901 801 907 1007 1011 908 1015 1121
8 899 802 909 1009 1008 906 1014 1122
8 900 803 910 1010 1009 909 1017 1123
8 1012 911 1018 1124 903 804 910 1010
8 904 805 908 1011 1012 911 1016 1125
8 1013 912 1020 1127 907 808 914 1015
8 1031 921 1020 1127 920 815 912 1013
8 1019 918 962 1075 1128 1021 913 1014
8 1128 1021 913 1014 1017 916 810 909
8 1015 914 1022 1129 908 809 915 1016
8 1016 915 1023 1130 911 812 917 1018
8 1018 917 1024 1131 910 811 916 1017
8 1037 928 1031 1148 925 821 920 1030
8 928 823 931 1041 1031 921 1032 1149
8 1033 926 829 941 1151 1039 939 1057
8 1034 927 819 922 1152 1040 926 1033
8 1153 1038 929 1035 1034 927 820 923
8 1154 1042 930 1036 1035 929 822 924
8 1037 928 821 925 1155 1041 930 1036
8 1039 935 828 939 1156 1047 938 1055
8 1157 1043 932 1042 1038 933 825 929
8 1038 933 826 927 1158 1045 934 1040
8 1040 934 827 926 1159 1046 935 1039
8 930 824 932 1042 1041 931 1044 1160
8 1051 936 1048 1165 1175 1052 937 1053
8 1156 1047 938 1055 1053 937 1054 1178
8 939 828 940 1058 1055 938 1056 1181
8 941 829 942 1060 1057 939 1058 1183
8 942 830 943 1061 1058 940 1059 1184
8 1060 942 832 944 1185 1061 945 1062
8 1082 964 1063 1188 981 889 947 1064
8 1097 981 1064 1190 979 870 948 1066
8 1064 947 1065 1191 948 837 949 1067
8 1066 948 1067 1193 975 869 950 1069
8 1067 949 1068 1194 950 838 951 1070
8 1069 950 1070 1195 952 839 953 1071
8 956 849 959 1072 1073 958 1076 1197
8 1074 960 1076 1197 1008 906 959 1072
8 1073 958 1076 1197 965 868 980 1085
8 1074 960 906 1008 1198 1077 1014 1122
8 1133 1026 1079 1199 1019 918 962 1075
8 1077 963 913 1014 1200 1080 962 1075
8 960 853 963 1077 1076 961 1078 1201
8 980 883 961 1076 1099 994 1078 1201
8 1210 1083 964 1082 1100 999 889 981
8 966 871 980 1085 1086 984 1099 1215
8 967 872 984 1086 1087 985 1103 1216
8 971 876 985 1087 1090 988 1104 1217
8 1088 986 874 969 1218 1105 987 1089
8 972 879 986 1088 1091 991 1105 1218
8 970 875 988 1090 1089 987 1106 1219
8 973 880 991 1091 1092 992 1109 1220
8 1093 993 881 974 1221 1110 992 1092
8 1222 1108 990 1095 1093 993 882 976
8 1223 1101 982 1094 1096 989 877 977
8 1098 983 870 979 1223 1101 982 1094
8 1095 990 1107 1224 978 878 989 1096
8 1098 983 1100 1225 979 870 981 1097
8 984 884 994 1099 1103 995 1111 1227
8 1102 1001 1115 1228 983 891 999 1100
8 1101 1000 892 989 1229 1116 1002 1107
8 1102 1001 891 983 1229 1116 1000 1101
8 985 885 995 1103 1104 996 1112 1230
8 988 886 996 1104 1106 997 1113 1231
8 1105 998 888 987 1232 1114 997 1106
8 991 896 998 1105 1109 1005 1114 1232
8 1108 1003 1117 1233 990 893 1002 1107
8 1108 1003 894 993 1233 1117 1004 1110
8 992 895 1005 1109 1110 1004 1118 1234
8 1120 1013 1127 1244 1007 907 1015 1121
8 1148 1031 1127 1244 1030 920 1013 1120
8 1121 1015 1129 1245 1011 908 1016 1125
8 1126 1019 1075 1196 1246 1128 1014 1122
8 1246 1128 1014 1122 1123 1017 909 1009
8 1124 1018 1131 1247 1010 910 1017 1123
8 1125 1016 1130 1248 1012 911 1018 1124
8 1127 1020 1137 1254 1015 914 1022 1129
8 1031 921 1032 1149 1127 1020 1137 1254
8 1134 1027 918 1019 1257 1140 1021 1128
8 1257 1140 1021 1128 1131 1024 916 1017
8 1129 1022 1141 1258 1016 915 1023 1130
8 1130 1023 1142 1259 1018 917 1024 1131
8 1261 1144 1025 1132 1133 1026 1079 1199
8 1255 1138 1025 1132 1135 1028 1144 1261
8 1133 1026 918 1019 1262 1145 1027 1134
8 1136 1029 1139 1256 1263 1146 1028 1135
8 1037 928 1041 1155 1148 1031 1149 1275
8 1041 931 1044 1160 1149 1032 1150 1276
8 1151 1039 939 1057 1278 1156 1055 1180
8 1152 1040 926 1033 1279 1159 1039 1151
8 1153 1038 927 1034 1280 1158 1040 1152
8 1281 1157 1042 1154 1153 1038 929 1035
8 1036 930 1042 1154 1155 1041 1160 1282
8 1283 1164 1046 1159 1156 1047 935 1039
8 1165 1048 1164 1283 1053 937 1047 1156
8 1157 1043 933 1038 1284 1161 1045 1158
8 1157 1043 1161 1284 1042 932 1044 1160
8 1040 934 1046 1159 1158 1045 1163 1285
8 1166 1049 1167 1292 1051 936 1048 1165
8 1166 1049 936 1051 1293 1168 1050 1172
8 1051 936 1052 1175 1172 1050 1173 1306
8 1174 1051 1165 1290 1308 1175 1053 1177
8 1053 937 1054 1178 1175 1052 1176 1309
8 1278 1156 1055 1180 1177 1053 1178 1311
8 1055 938 1056 1181 1178 1054 1179 1312
8 1057 939 1058 1183 1180 1055 1181 1314
8 1058 940 1059 1184 1181 1056 1182 1315
8 1060 942 1061 1185 1183 1058 1184 1316
8 1208 1081 1187 1321 1082 964 1063 1188
8 1209 1082 1188 1322 1097 981 1064 1190
8 1188 1063 1189 1323 1064 947 1065 1191
8 1190 1064 1191 1325 1066 948 1067 1193
8 1191 1065 1192 1326 1067 949 1068 1194
8 1067 1193 1069 950 1194 1327 1195 1070
8 1250 1133 1199 1330 1126 1019 1075 1196
8 1198 1077 1014 1122 1331 1200 1075 1196
8 1074 960 1077 1198 1197 1076 1201 1332
8 1085 980 1076 1197 1215 1099 1201 1332
8 1199 1079 1203 1333 1075 962 1080 1200
8 1132 1025 1119 1243 1199 1079 1203 1333
8 1201 1078 963 1077 1334 1202 1080 1200
8 1099 994 1078 1201 1227 1111 1202 1334
8 1343 1207 1081 1208 1210 1083 964 1082
8 1214 1084 1186 1319 1343 1207 1081 1208
8 1345 1210 1082 1209 1225 1100 981 1097
8 1346 1211 1083 1210 1228 1115 999 1100
8 1086 984 1099 1215 1216 1103 1227 1352
8 1087 985 1103 1216 1217 1104 1230 1353
8 1090 988 1104 1217 1219 1106 1231 1354
8 1218 1105 987 1089 1355 1232 1106 1219
8 1091 991 1105 1218 1220 1109 1232 1355
8 1092 992 1109 1220 1221 1110 1234 1356
8 1222 1108 1233 1357 1095 990 1107 1224
8 1222 1108 993 1093 1357 1233 1110 1221
8 1223 1101 989 1096 1358 1229 1107 1224
8 1226 1102 983 1098 1358 1229 1101 1223
8 1226 1102 1228 1359 1098 983 1100 1225
8 1103 995 1111 1227 1230 1112 1235 1360
8 1107 1002 1117 1233 1229 1116 1240 1362
8 1102 1001 1116 1229 1228 1115 1240 1362
8 1104 996 1112 1230 1231 1113 1236 1363
8 1364 1237 1114 1232 1231 1113 997 1106
8 1109 1005 1114 1232 1234 1118 1238 1365
8 1110 1004 1118 1234 1233 1117 1241 1366
8 1242 1374 1255 1138 1119 1243 1132 1025
8 1244 1127 1254 1376 1121 1015 1129 1245
8 1148 1031 1149 1275 1244 1127 1254 1376
8 1245 1129 1258 1377 1125 1016 1130 1248
8 1251 1134 1019 1126 1378 1257 1128 1246
8 1378 1257 1128 1246 1247 1131 1017 1123
8 1248 1130 1259 1379 1124 1018 1131 1247
8 1261 1381 1250 1133 1132 1249 1330 1199
8 1255 1380 1252 1135 1132 1249 1381 1261
8 1250 1133 1019 1126 1382 1262 1134 1251
8 1253 1136 1256 1385 1384 1263 1135 1252
8 1254 1137 1265 1387 1129 1022 1141 1258
8 1149 1032 1150 1276 1254 1137 1265 1387
8 1028 1135 1255 1138 1139 1256 1388 1266
8 1136 1029 1147 1264 1256 1139 1267 1389
8 1390 1268 1140 1257 1259 1142 1024 1131
8 1260 1143 1027 1134 1390 1268 1140 1257
8 1258 1141 1269 1391 1130 1023 1142 1259
8 1262 1145 1027 1134 1393 1271 1143 1260
8 1261 1144 1026 1133 1394 1272 1145 1262
8 1135 1028 1144 1261 1263 1146 1272 1394
8 1136 1029 1146 1263 1264 1147 1273 1395
8 1155 1041 1160 1282 1275 1149 1276 1405
8 1276 1150 1044 1160 1406 1277 1162 1286
8 1408 1283 1159 1279 1278 1156 1039 1151
8 1290 1165 1283 1408 1177 1053 1156 1278
8 1152 1040 1159 1279 1280 1158 1285 1409
8 1281 1157 1038 1153 1410 1284 1158 1280
8 1281 1157 1284 1410 1154 1042 1160 1282
8 1159 1046 1164 1283 1285 1163 1289 1412
8 1292 1167 1289 1412 1165 1048 1164 1283
8 1158 1045 1163 1285 1284 1161 1288 1413
8 1284 1161 1288 1413 1160 1044 1162 1286
8 1291 1166 1292 1418 1174 1051 1165 1290
8 1291 1166 1051 1174 1419 1293 1172 1305
8 1294 1169 1296 1421 1166 1049 1167 1292
8 1293 1168 1050 1172 1422 1295 1171 1303
8 1294 1169 1049 1166 1423 1297 1168 1293
8 1422 1295 1171 1303 1301 1170 1302 1435
8 1172 1050 1173 1306 1303 1171 1304 1438
8 1174 1051 1175 1308 1305 1172 1306 1440
8 1175 1052 1176 1309 1306 1173 1307 1441
8 1177 1053 1178 1311 1308 1175 1309 1443
8 1178 1054 1179 1312 1309 1176 1310 1444
8 1180 1055 1181 1314 1311 1178 1312 1446
8 1056 1181 1312 1179 1182 1315 1447 1313
8 1183 1058 1184 1316 1314 1181 1315 1448
8 1319 1186 1084 1214 1451 1317 1213 1350
8 1319 1186 1318 1453 1208 1081 1187 1321
8 1321 1187 1320 1456 1188 1063 1189 1323
8 1344 1208 1321 1457 1209 1082 1188 1322
8 1322 1188 1323 1458 1190 1064 1191 1325
8 1323 1189 1324 1459 1191 1065 1192 1326
8 1191 1325 1193 1067 1326 1460 1327 1194
8 1242 1374 1243 1119 1328 1462 1335 1204
8 1330 1199 1333 1465 1196 1075 1200 1331
8 1132 1249 1330 1199 1243 1375 1465 1333
8 1332 1201 1077 1198 1466 1334 1200 1331
8 1215 1099 1201 1332 1352 1227 1334 1466
8 1119 1243 1333 1203 1204 1335 1470 1338
8 1333 1203 1338 1470 1200 1080 1202 1334
8 1227 1111 1202 1334 1360 1235 1338 1470
8 1328 1462 1335 1204 1205 1336 1471 1339
8 1337 1206 1340 1472 1464 1329 1205 1336
8 1346 1211 1342 1479 1210 1083 1207 1343
8 1346 1211 1115 1228 1479 1342 1239 1361
8 1348 1212 1084 1214 1479 1342 1207 1343
8 1480 1343 1208 1344 1345 1210 1082 1209
8 1351 1214 1319 1454 1480 1343 1208 1344
8 1481 1346 1210 1345 1359 1228 1100 1225
8 1348 1212 1347 1483 1214 1084 1213 1350
8 1216 1103 1227 1352 1353 1230 1360 1488
8 1217 1104 1230 1353 1354 1231 1363 1489
8 1490 1364 1232 1355 1354 1231 1106 1219
8 1220 1109 1232 1355 1356 1234 1365 1491
8 1221 1110 1234 1356 1357 1233 1366 1492
8 1224 1107 1233 1357 1358 1229 1362 1493
8 1226 1102 1229 1358 1359 1228 1362 1493
8 1230 1112 1235 1360 1363 1236 1367 1496
8 1361 1239 1115 1228 1497 1371 1240 1362
8 1366 1241 1372 1498 1233 1117 1240 1362
8 1364 1237 1113 1231 1499 1368 1236 1363
8 1364 1237 1368 1499 1232 1114 1238 1365
8 1234 1118 1238 1365 1366 1241 1369 1500
8 1507 1373 1242 1374 1388 1266 1138 1255
8 1508 1374 1243 1375 1380 1255 1132 1249
8 1376 1254 1387 1509 1245 1129 1258 1377
8 1275 1149 1276 1405 1376 1254 1387 1509
8 1377 1258 1391 1510 1248 1130 1259 1379
8 1511 1390 1257 1378 1379 1259 1131 1247
8 1383 1260 1134 1251 1511 1390 1257 1378
8 1252 1135 1256 1385 1380 1255 1388 1512
8 1261 1381 1513 1394 1133 1250 1382 1262
8 1135 1252 1384 1263 1261 1381 1513 1394
8 1382 1262 1134 1251 1514 1393 1260 1383
8 1253 1136 1263 1384 1386 1264 1395 1516
8 1253 1136 1264 1386 1385 1256 1389 1517
8 1387 1265 1397 1519 1258 1141 1269 1391
8 1276 1150 1277 1406 1387 1265 1397 1519
8 1256 1139 1267 1389 1388 1266 1398 1520
8 1264 1147 1274 1396 1389 1267 1399 1521
8 1392 1270 1143 1260 1522 1400 1268 1390
8 1390 1268 1142 1259 1522 1400 1269 1391
8 1392 1270 1401 1523 1260 1143 1271 1393
8 1272 1394 1524 1402 1145 1262 1393 1271
8 1395 1273 1146 1263 1524 1402 1272 1394
8 1273 1395 1264 1147 1403 1526 1396 1274
8 1405 1276 1160 1282 1534 1406 1286 1411
8 1414 1287 1407 1535 1286 1162 1277 1406
8 1279 1159 1283 1408 1409 1285 1412 1537
8 1418 1292 1412 1537 1290 1165 1283 1408
8 1280 1158 1285 1409 1410 1284 1413 1538
8 1410 1284 1413 1538 1282 1160 1286 1411
8 1285 1163 1289 1412 1413 1288 1417 1540
8 1421 1296 1417 1540 1292 1167 1289 1412
8 1414 1287 1162 1286 1541 1416 1288 1413
8 1420 1294 1421 1545 1291 1166 1292 1418
8 1419 1293 1172 1305 1546 1422 1303 1437
8 1420 1294 1166 1291 1547 1423 1293 1419
8 1294 1169 1297 1423 1421 1296 1425 1548
8 1423 1297 1168 1293 1549 1424 1295 1422
8 1301 1170 1298 1427 1422 1295 1424 1549
8 1432 1300 1428 1554 1301 1170 1298 1427
8 1431 1299 1428 1554 1560 1430 1300 1432
8 1563 1433 1300 1432 1435 1302 1170 1301
8 1546 1422 1303 1437 1434 1301 1435 1565
8 1303 1171 1304 1438 1435 1302 1436 1566
8 1305 1172 1306 1440 1437 1303 1438 1568
8 1306 1173 1307 1441 1438 1304 1439 1569
8 1308 1175 1309 1443 1440 1306 1441 1571
8 1309 1176 1310 1444 1441 1307 1442 1572
8 1311 1178 1312 1446 1443 1309 1444 1574
8 1179 1312 1444 1310 1313 1447 1575 1445
8 1314 1181 1315 1448 1446 1312 1447 1576
8 1350 1213 1349 1486 1451 1317 1449 1579
8 1451 1317 1450 1581 1319 1186 1318 1453
8 1454 1319 1214 1351 1582 1451 1350 1487
8 1453 1318 1452 1584 1321 1187 1320 1456
8 1454 1319 1453 1585 1344 1208 1321 1457
8 1456 1320 1455 1586 1323 1189 1324 1459
8 1457 1321 1456 1587 1322 1188 1323 1458
8 1458 1323 1459 1588 1325 1191 1326 1460
8 1205 1336 1464 1329 1328 1462 1590 1461
8 1507 1373 1461 1590 1374 1242 1328 1462
8 1508 1374 1462 1591 1375 1243 1335 1467
8 1337 1206 1329 1464 1473 1341 1463 1594
8 1375 1243 1335 1467 1465 1333 1470 1596
8 1465 1333 1470 1596 1331 1200 1334 1466
8 1352 1227 1334 1466 1488 1360 1470 1596
8 1591 1462 1336 1468 1467 1335 1471 1597
8 1469 1337 1472 1598 1595 1464 1336 1468
8 1471 1339 1474 1600 1335 1204 1338 1470
8 1600 1474 1367 1496 1470 1338 1235 1360
8 1336 1205 1340 1472 1471 1339 1475 1601
8 1337 1206 1341 1473 1472 1340 1476 1602
8 1495 1370 1478 1609 1361 1239 1342 1479
8 1348 1212 1342 1479 1483 1347 1478 1609
8 1481 1346 1479 1610 1345 1210 1343 1480
8 1481 1346 1228 1359 1610 1479 1361 1494
8 1484 1348 1214 1351 1610 1479 1343 1480
8 1483 1347 1482 1612 1350 1213 1349 1486
8 1484 1348 1483 1613 1351 1214 1350 1487
8 1353 1230 1360 1488 1489 1363 1496 1616
8 1490 1364 1231 1354 1617 1499 1363 1489
8 1490 1364 1499 1617 1355 1232 1365 1491
8 1356 1234 1365 1491 1492 1366 1500 1619
8 1492 1366 1498 1620 1357 1233 1362 1493
8 1494 1361 1228 1359 1621 1497 1362 1493
8 1495 1370 1239 1361 1622 1504 1371 1497
8 1363 1236 1367 1496 1499 1368 1501 1623
8 1497 1371 1240 1362 1624 1505 1372 1498
8 1625 1503 1372 1498 1500 1369 1241 1366
8 1365 1238 1368 1499 1500 1369 1502 1626
8 1520 1398 1506 1633 1388 1266 1373 1507
8 1634 1507 1374 1508 1512 1388 1255 1380
8 1509 1387 1519 1635 1377 1258 1391 1510
8 1405 1276 1406 1534 1509 1387 1519 1635
8 1515 1392 1260 1383 1636 1522 1390 1511
8 1511 1390 1259 1379 1636 1522 1391 1510
8 1385 1256 1389 1517 1512 1388 1520 1637
8 1513 1394 1262 1382 1638 1524 1393 1514
8 1395 1516 1638 1524 1263 1384 1513 1394
8 1515 1392 1523 1639 1383 1260 1393 1514
8 1516 1395 1526 1640 1386 1264 1396 1518
8 1386 1264 1396 1518 1517 1389 1521 1641
8 1519 1397 1527 1643 1391 1269 1400 1522
8 1535 1407 1527 1643 1406 1277 1397 1519
8 1389 1267 1399 1521 1520 1398 1528 1644
8 1645 1529 1399 1521 1525 1404 1274 1396
8 1392 1270 1400 1522 1523 1401 1531 1646
8 1524 1402 1271 1393 1648 1532 1401 1523
8 1403 1526 1648 1532 1273 1395 1524 1402
8 1525 1404 1274 1396 1649 1533 1403 1526
8 1539 1414 1535 1657 1411 1286 1406 1534
8 1542 1415 1536 1658 1414 1287 1407 1535
8 1409 1285 1412 1537 1538 1413 1540 1660
8 1545 1421 1540 1660 1418 1292 1412 1537
8 1539 1414 1286 1411 1661 1541 1413 1538
8 1540 1417 1544 1663 1413 1288 1416 1541
8 1421 1296 1425 1548 1540 1417 1544 1663
8 1542 1415 1287 1414 1664 1543 1416 1541
8 1420 1294 1423 1547 1545 1421 1548 1666
8 1547 1423 1293 1419 1667 1549 1422 1546
8 1434 1301 1427 1553 1546 1422 1549 1667
8 1423 1297 1424 1549 1548 1425 1550 1668
8 1551 1426 1550 1668 1427 1298 1424 1549
8 1551 1426 1298 1427 1671 1552 1428 1554
8 1562 1432 1554 1674 1434 1301 1427 1553
8 1431 1299 1429 1558 1554 1428 1555 1675
8 1431 1299 1430 1560 1558 1429 1557 1680
8 1560 1430 1300 1432 1683 1559 1433 1563
8 1561 1431 1554 1674 1684 1560 1432 1562
8 1685 1563 1432 1562 1565 1435 1301 1434
8 1435 1302 1436 1566 1563 1433 1564 1686
8 1437 1303 1438 1568 1565 1435 1566 1688
8 1438 1304 1439 1569 1566 1436 1567 1689
8 1440 1306 1441 1571 1568 1438 1569 1691
8 1441 1307 1442 1572 1569 1439 1570 1692
8 1443 1309 1444 1574 1571 1441 1572 1694
8 1310 1444 1572 1442 1445 1575 1695 1573
8 1446 1312 1447 1576 1574 1444 1575 1696
8 1486 1349 1485 1614 1579 1449 1577 1699
8 1451 1317 1449 1579 1581 1450 1578 1701
8 1487 1350 1486 1615 1582 1451 1579 1702
8 1581 1450 1580 1704 1453 1318 1452 1584
8 1582 1451 1581 1705 1454 1319 1453 1585
8 1584 1452 1583 1706 1456 1320 1455 1586
8 1585 1453 1584 1707 1457 1321 1456 1587
8 1587 1456 1586 1708 1458 1323 1459 1588
8 1633 1506 1589 1710 1507 1373 1461 1590
8 1464 1329 1461 1590 1594 1463 1589 1710
8 1468 1336 1462 1591 1595 1464 1590 1711
8 1634 1507 1590 1711 1508 1374 1462 1591
8 1473 1341 1463 1594 1603 1477 1593 1716
8 1469 1337 1464 1595 1599 1473 1594 1717
8 1471 1597 1467 1335 1600 1718 1596 1470
8 1718 1600 1496 1616 1596 1470 1360 1488
8 1336 1468 1597 1471 1472 1598 1719 1601
8 1469 1337 1473 1599 1598 1472 1602 1720
8 1722 1604 1501 1623 1600 1474 1367 1496
8 1475 1601 1471 1339 1604 1722 1600 1474
8 1602 1476 1605 1723 1472 1340 1475 1601
8 1476 1602 1724 1606 1341 1473 1603 1477
8 1483 1347 1478 1609 1612 1482 1608 1731
8 1495 1370 1504 1622 1609 1478 1608 1731
8 1618 1495 1609 1732 1494 1361 1479 1610
8 1484 1348 1479 1610 1613 1483 1609 1732
8 1486 1349 1482 1612 1614 1485 1611 1733
8 1613 1483 1612 1734 1487 1350 1486 1615
8 1489 1363 1496 1616 1617 1499 1623 1736
8 1491 1365 1499 1617 1619 1500 1626 1737
8 1618 1495 1361 1494 1738 1622 1497 1621
8 1739 1625 1498 1620 1619 1500 1366 1492
8 1621 1497 1362 1493 1740 1624 1498 1620
8 1742 1631 1504 1622 1624 1505 1371 1497
8 1743 1628 1502 1626 1623 1501 1368 1499
8 1744 1630 1505 1624 1625 1503 1372 1498
8 1745 1629 1503 1625 1626 1502 1369 1500
8 1520 1398 1528 1644 1633 1506 1632 1751
8 1637 1520 1633 1752 1512 1388 1507 1634
8 1635 1519 1643 1753 1510 1391 1522 1636
8 1657 1535 1643 1753 1534 1406 1519 1635
8 1515 1392 1522 1636 1639 1523 1646 1754
8 1517 1389 1521 1641 1637 1520 1644 1755
8 1524 1638 1756 1648 1393 1514 1639 1523
8 1640 1526 1395 1516 1756 1648 1524 1638
8 1642 1525 1396 1518 1757 1649 1526 1640
8 1758 1645 1521 1641 1642 1525 1396 1518
8 1646 1531 1400 1522 1760 1650 1527 1643
8 1535 1407 1536 1658 1643 1527 1650 1760
8 1521 1399 1529 1645 1644 1528 1651 1761
8 1647 1530 1652 1762 1525 1404 1529 1645
8 1401 1523 1648 1532 1531 1646 1763 1655
8 1525 1404 1533 1649 1647 1530 1654 1765
8 1533 1649 1766 1656 1403 1526 1648 1532
8 1662 1542 1658 1774 1539 1414 1535 1657
8 1542 1415 1543 1664 1658 1536 1659 1775
8 1660 1540 1663 1777 1538 1413 1541 1661
8 1545 1421 1548 1666 1660 1540 1663 1777
8 1662 1542 1414 1539 1778 1664 1541 1661
8 1664 1543 1416 1541 1779 1665 1544 1663
8 1548 1425 1550 1668 1663 1544 1665 1779
8 1547 1423 1549 1667 1666 1548 1668 1781
8 1670 1551 1668 1781 1553 1427 1549 1667
8 1551 1426 1552 1671 1668 1550 1669 1782
8 1670 1551 1427 1553 1784 1671 1554 1674
8 1675 1555 1672 1785 1554 1428 1552 1671
8 1678 1556 1673 1789 1558 1429 1555 1675
8 1561 1431 1558 1681 1674 1554 1675 1790
8 1794 1677 1556 1678 1680 1557 1429 1558
8 1560 1430 1559 1683 1680 1557 1679 1797
8 1561 1431 1560 1684 1681 1558 1680 1798
8 1563 1433 1564 1686 1683 1559 1682 1800
8 1684 1560 1432 1562 1801 1683 1563 1685
8 1565 1435 1566 1688 1685 1563 1686 1802
8 1566 1436 1567 1689 1686 1564 1687 1803
8 1568 1438 1569 1691 1688 1566 1689 1805
8 1569 1439 1570 1692 1689 1567 1690 1806
8 1571 1441 1572 1694 1691 1569 1692 1808
8 1442 1572 1692 1570 1573 1695 1809 1693
8 1574 1444 1575 1696 1694 1572 1695 1810
8 1614 1485 1592 1712 1699 1577 1697 1813
8 1579 1449 1577 1699 1701 1578 1698 1815
8 1615 1486 1614 1735 1702 1579 1699 1816
8 1701 1578 1700 1818 1581 1450 1580 1704
8 1582 1451 1579 1702 1705 1581 1701 1819
8 1704 1580 1703 1820 1584 1452 1583 1706
8 1705 1581 1704 1821 1585 1453 1584 1707
8 1707 1584 1706 1822 1587 1456 1586 1708
8 1710 1589 1506 1633 1824 1709 1632 1751
8 1594 1463 1589 1710 1716 1593 1709 1824
8 1752 1633 1710 1825 1634 1507 1590 1711
8 1595 1464 1590 1711 1717 1594 1710 1825
8 1830 1714 1592 1712 1733 1611 1485 1614
8 1603 1477 1593 1716 1725 1607 1715 1834
8 1599 1473 1594 1717 1721 1603 1716 1835
8 1837 1722 1623 1736 1718 1600 1496 1616
8 1719 1601 1722 1837 1597 1471 1600 1718
8 1602 1720 1598 1472 1723 1838 1719 1601
8 1720 1602 1473 1599 1839 1724 1603 1721
8 1723 1605 1726 1840 1601 1475 1604 1722
8 1840 1726 1628 1743 1722 1604 1501 1623
8 1724 1606 1727 1841 1602 1476 1605 1723
8 1725 1607 1728 1842 1603 1477 1606 1724
8 1612 1482 1608 1731 1733 1611 1730 1849
8 1741 1627 1730 1849 1622 1504 1608 1731
8 1613 1483 1609 1732 1734 1612 1731 1850
8 1618 1495 1622 1738 1732 1609 1731 1850
8 1615 1486 1612 1734 1735 1614 1733 1851
8 1852 1743 1626 1737 1736 1623 1499 1617
8 1853 1745 1625 1739 1737 1626 1500 1619
8 1855 1742 1622 1738 1740 1624 1497 1621
8 1856 1744 1624 1740 1739 1625 1498 1620
8 1741 1627 1504 1622 1857 1746 1631 1742
8 1742 1631 1505 1624 1858 1749 1630 1744
8 1859 1747 1629 1745 1743 1628 1502 1626
8 1860 1748 1630 1744 1745 1629 1503 1625
8 1644 1528 1651 1761 1751 1632 1750 1865
8 1637 1520 1644 1755 1752 1633 1751 1866
8 1754 1646 1522 1636 1867 1760 1643 1753
8 1657 1535 1658 1774 1753 1643 1760 1867
8 1639 1523 1646 1754 1756 1648 1763 1868
8 1641 1521 1645 1758 1755 1644 1761 1869
8 1757 1649 1526 1640 1870 1766 1648 1756
8 1642 1525 1649 1757 1759 1647 1765 1871
8 1759 1647 1762 1872 1642 1525 1645 1758
8 1760 1650 1767 1874 1646 1531 1655 1763
8 1658 1536 1659 1775 1760 1650 1767 1874
8 1762 1652 1768 1875 1645 1529 1651 1761
8 1764 1653 1769 1876 1647 1530 1652 1762
8 1656 1766 1877 1773 1532 1648 1763 1655
8 1771 1879 1765 1654 1653 1764 1647 1530
8 1533 1649 1765 1654 1656 1766 1880 1772
8 1662 1542 1664 1778 1774 1658 1775 1887
8 1664 1543 1665 1779 1775 1659 1776 1888
8 1778 1664 1541 1661 1890 1779 1663 1777
8 1666 1548 1668 1781 1777 1663 1779 1890
8 1782 1669 1780 1891 1668 1550 1665 1779
8 1670 1551 1671 1784 1781 1668 1782 1893
8 1671 1552 1672 1785 1782 1669 1783 1894
8 1790 1675 1785 1896 1674 1554 1671 1784
8 1675 1555 1673 1789 1785 1672 1786 1897
8 1792 1676 1788 1903 1678 1556 1673 1789
8 1795 1678 1789 1904 1681 1558 1675 1790
8 1792 1676 1556 1678 1906 1791 1677 1794
8 1680 1557 1679 1797 1794 1677 1793 1909
8 1910 1794 1678 1795 1798 1680 1558 1681
8 1683 1559 1682 1800 1797 1679 1796 1912
8 1684 1560 1683 1801 1798 1680 1797 1913
8 1686 1564 1687 1803 1800 1682 1799 1915
8 1685 1563 1686 1802 1801 1683 1800 1916
8 1688 1566 1689 1805 1802 1686 1803 1917
8 1689 1567 1690 1806 1803 1687 1804 1918
8 1691 1569 1692 1808 1805 1689 1806 1920
8 1692 1570 1693 1809 1806 1690 1807 1921
8 1694 1572 1695 1810 1808 1692 1809 1922
8 1829 1713 1811 1926 1712 1592 1697 1813
8 1813 1697 1812 1928 1699 1577 1698 1815
8 1735 1614 1712 1828 1816 1699 1813 1929
8 1815 1698 1814 1931 1701 1578 1700 1818
8 1702 1579 1699 1816 1819 1701 1815 1932
8 1818 1700 1817 1933 1704 1580 1703 1820
8 1819 1701 1818 1934 1705 1581 1704 1821
8 1821 1704 1820 1935 1707 1584 1706 1822
8 1824 1709 1632 1751 1937 1823 1750 1865
8 1716 1593 1709 1824 1834 1715 1823 1937
8 1825 1710 1633 1752 1938 1824 1751 1866
8 1717 1594 1710 1825 1835 1716 1824 1938
8 1945 1830 1712 1828 1851 1733 1614 1735
8 1830 1714 1831 1946 1712 1592 1713 1829
8 1947 1832 1714 1830 1849 1730 1611 1733
8 1843 1729 1607 1725 1950 1833 1715 1834
8 1721 1603 1716 1835 1836 1725 1834 1951
8 1836 1725 1842 1953 1721 1603 1724 1839
8 1723 1838 1719 1601 1840 1954 1837 1722
8 1954 1840 1743 1852 1837 1722 1623 1736
8 1724 1839 1720 1602 1841 1955 1838 1723
8 1841 1727 1844 1956 1723 1605 1726 1840
8 1956 1844 1747 1859 1840 1726 1628 1743
8 1728 1842 1724 1606 1845 1957 1841 1727
8 1725 1607 1729 1843 1842 1728 1846 1958
8 1741 1627 1746 1857 1849 1730 1848 1965
8 1734 1612 1731 1850 1851 1733 1849 1966
8 1854 1741 1849 1966 1738 1622 1731 1850
8 1967 1859 1745 1853 1852 1743 1626 1737
8 1968 1860 1744 1856 1853 1745 1625 1739
8 1854 1741 1622 1738 1969 1857 1742 1855
8 1855 1742 1624 1740 1970 1858 1744 1856
8 1857 1746 1631 1742 1971 1861 1749 1858
8 1858 1749 1630 1744 1972 1863 1748 1860
8 1859 1747 1862 1973 1745 1629 1748 1860
8 1875 1768 1864 1977 1761 1651 1750 1865
8 1755 1644 1761 1869 1866 1751 1865 1978
8 1867 1760 1874 1979 1754 1646 1763 1868
8 1774 1658 1775 1887 1867 1760 1874 1979
8 1870 1766 1648 1756 1980 1877 1763 1868
8 1872 1762 1875 1981 1758 1645 1761 1869
8 1757 1649 1766 1870 1871 1765 1880 1982
8 1983 1879 1764 1873 1871 1765 1647 1759
8 1873 1764 1876 1984 1759 1647 1762 1872
8 1877 1773 1655 1763 1986 1881 1767 1874
8 1775 1659 1776 1888 1874 1767 1881 1986
8 1876 1769 1882 1987 1762 1652 1768 1875
8 1878 1770 1883 1988 1764 1653 1769 1876
8 1880 1772 1656 1766 1989 1886 1773 1877
8 1878 1770 1653 1764 1990 1884 1771 1879
8 1765 1654 1772 1880 1879 1771 1885 1991
8 1778 1664 1779 1890 1887 1775 1888 1997
8 1998 1889 1776 1888 1891 1780 1665 1779
8 1893 1782 1891 2000 1781 1668 1779 1890
8 1894 1783 1892 2001 1782 1669 1780 1891
8 1784 1671 1785 1896 1893 1782 1894 2003
8 1897 1786 1895 2004 1785 1672 1783 1894
8 1790 1675 1789 1904 1896 1785 1897 2006
8 1901 1787 1898 2007 1789 1673 1786 1897
8 1903 1788 1900 2013 1789 1673 1787 1901
8 1792 1676 1791 1906 1903 1788 1902 2016
8 1907 1792 1903 2017 1795 1678 1789 1904
8 1906 1791 1677 1794 2019 1905 1793 1909
8 1907 1792 1678 1795 2020 1906 1794 1910
8 1797 1679 1796 1912 1909 1793 1908 2022
8 1798 1680 1797 1913 1910 1794 1909 2023
8 1800 1682 1799 1915 1912 1796 1911 2025
8 1801 1683 1800 1916 1913 1797 1912 2026
8 1803 1687 1804 1918 1915 1799 1914 2028
8 1802 1686 1803 1917 1916 1800 1915 2029
8 1805 1689 1806 1920 1917 1803 1918 2030
8 1806 1690 1807 1921 1918 1804 1919 2031
8 1808 1692 1809 1922 1920 1806 1921 2032
8 1939 1826 1924 2037 1829 1713 1811 1926
8 1926 1811 1925 2039 1813 1697 1812 1928
8 1944 1829 1926 2040 1828 1712 1813 1929
8 1928 1812 1927 2042 1815 1698 1814 1931
8 1929 1813 1928 2043 1816 1699 1815 1932
8 1931 1814 1930 2044 1818 1700 1817 1933
8 1932 1815 1931 2045 1819 1701 1818 1934
8 1934 1818 1933 2046 1821 1704 1820 1935
8 2048 1936 1823 1937 1977 1864 1750 1865
8 1950 1833 1715 1834 2048 1936 1823 1937
8 1938 1824 1751 1866 2049 1937 1865 1978
8 1835 1716 1824 1938 1951 1834 1937 2049
8 1939 1826 1713 1829 2053 1942 1831 1946
8 1940 1827 1923 2035 2053 1942 1826 1939
8 1945 1830 1946 2058 1828 1712 1829 1944
8 2059 1947 1830 1945 1966 1849 1733 1851
8 1947 1832 1730 1849 2060 1948 1848 1965
8 1947 1832 1948 2060 1830 1714 1831 1946
8 1959 1847 1729 1843 2063 1949 1833 1950
8 1952 1843 1725 1836 2064 1950 1834 1951
8 1836 1725 1843 1952 1953 1842 1958 2066
8 1953 1842 1957 2067 1839 1724 1841 1955
8 1841 1955 1838 1723 1956 2068 1954 1840
8 2068 1956 1859 1967 1954 1840 1743 1852
8 1956 1844 1960 2069 1859 1747 1862 1973
8 1845 1957 1841 1727 1960 2069 1956 1844
8 1728 1842 1957 1845 1846 1958 2071 1961
8 1962 2072 1959 1847 1846 1958 1843 1729
8 1971 1861 1964 2077 1857 1746 1848 1965
8 1854 1741 1857 1969 1966 1849 1965 2078
8 1967 1859 1973 2079 1853 1745 1860 1968
8 1970 1858 1744 1856 2080 1972 1860 1968
8 1969 1857 1742 1855 2081 1971 1858 1970
8 1971 1861 1749 1858 2082 1974 1863 1972
8 1973 1862 1975 2083 1860 1748 1863 1972
8 1987 1882 1976 2086 1875 1768 1864 1977
8 1981 1875 1977 2087 1869 1761 1865 1978
8 1980 1877 1763 1868 2088 1986 1874 1979
8 1887 1775 1888 1997 1979 1874 1986 2088
8 1880 1982 2089 1989 1766 1870 1980 1877
8 1984 1876 1987 2090 1872 1762 1875 1981
8 1765 1871 1983 1879 1880 1982 2091 1991
8 1985 1878 1764 1873 2092 1990 1879 1983
8 1985 1878 1988 2093 1873 1764 1876 1984
8 2094 1992 1881 1986 1998 1889 1776 1888
8 1986 1881 1992 2094 1877 1773 1886 1989
8 1988 1883 1993 2095 1876 1769 1882 1987
8 1878 1770 1884 1990 1988 1883 1994 2096
8 1991 1885 1772 1880 2097 1996 1886 1989
8 1879 1771 1885 1991 1990 1884 1995 2098
8 2103 1998 1888 1997 2000 1891 1779 1890
8 2104 1999 1889 1998 2001 1892 1780 1891
8 2003 1894 2001 2106 1893 1782 1891 2000
8 2004 1895 2002 2107 1894 1783 1892 2001
8 2006 1897 2004 2109 1896 1785 1894 2003
8 2007 1898 2005 2110 1897 1786 1895 2004
8 2014 1901 2007 2112 1904 1789 1897 2006
8 2011 1899 2008 2113 1901 1787 1898 2007
8 2119 2010 1899 2011 2013 1900 1787 1901
8 2016 1902 2012 2122 1903 1788 1900 2013
8 2017 1903 2013 2123 1904 1789 1901 2014
8 1906 1791 1905 2019 2016 1902 2015 2125
8 1907 1792 1906 2020 2017 1903 2016 2126
8 1909 1793 1908 2022 2019 1905 2018 2128
8 2020 1906 1794 1910 2129 2019 1909 2023
8 1912 1796 1911 2025 2022 1908 2021 2131
8 1913 1797 1912 2026 2023 1909 2022 2132
8 1915 1799 1914 2028 2025 1911 2024 2134
8 1916 1800 1915 2029 2026 1912 2025 2135
8 1918 1804 1919 2031 2028 1914 2027 2136
8 1917 1803 1918 2030 2029 1915 2028 2137
8 1920 1806 1921 2032 2030 1918 2031 2138
8 1940 1827 1941 2054 2035 1923 2033 2140
8 2035 1923 2034 2143 1939 1826 1924 2037
8 2037 1924 2036 2146 1926 1811 1925 2039
8 2051 1939 2037 2147 1944 1829 1926 2040
8 2039 1925 2038 2149 1928 1812 1927 2042
8 2040 1926 2039 2150 1929 1813 1928 2043
8 2042 1927 2041 2151 1931 1814 1930 2044
8 2043 1928 2042 2152 1932 1815 1931 2045
8 2045 1931 2044 2153 1934 1818 1933 2046
8 2155 2047 1936 2048 2086 1976 1864 1977
8 2063 1949 1833 1950 2155 2047 1936 2048
8 2156 2048 1937 2049 2087 1977 1865 1978
8 2064 1950 1834 1951 2156 2048 1937 2049
8 2051 1939 1829 1944 2160 2053 1946 2058
8 2052 1940 2035 2144 2160 2053 1939 2051
8 2053 1942 1831 1946 2163 2057 1948 2060
8 2055 1943 1827 1940 2163 2057 1942 2053
8 2055 1943 2056 2164 1940 1827 1941 2054
8 2059 1947 1849 1966 2167 2060 1965 2078
8 2059 1947 2060 2167 1945 1830 1946 2058
8 2077 1964 2061 2168 1965 1848 1948 2060
8 2070 1963 1847 1959 2170 2062 1949 2063
8 2065 1959 1843 1952 2171 2063 1950 2064
8 2173 2072 1958 2066 2065 1959 1843 1952
8 1953 1842 1958 2066 2067 1957 2071 2174
8 2068 1956 2069 2175 1967 1859 1973 2079
8 2067 1957 2069 2175 1955 1841 1956 2068
8 1845 1957 2069 1960 1961 2071 2176 2073
8 2069 1960 2073 2176 1973 1862 1975 2083
8 2070 1963 2075 2177 1959 1847 1962 2072
8 1846 1958 2071 1961 1962 2072 2178 2074
8 2077 1964 1861 1971 2182 2076 1974 2082
8 2081 1971 2077 2183 1969 1857 1965 2078
8 2079 1973 2083 2184 1968 1860 1972 2080
8 2081 1971 1858 1970 2185 2082 1972 2080
8 2083 1975 2084 2186 1972 1863 1974 2082
8 2086 1976 1882 1987 2189 2085 1993 2095
8 2090 1987 2086 2190 1981 1875 1977 2087
8 2191 2094 1986 2088 2103 1998 1888 1997
8 2088 1986 2094 2191 1980 1877 1989 2089
8 1991 2091 2192 2097 1880 1982 2089 1989
8 2093 1988 2095 2193 1984 1876 1987 2090
8 1879 1983 2092 1990 1991 2091 2194 2098
8 1985 1878 1990 2092 2093 1988 2096 2195
8 2097 1996 1886 1989 2196 2099 1992 2094
8 2196 2099 1992 2094 2104 1999 1889 1998
8 1994 2096 1988 1883 2100 2197 2095 1993
8 2096 1994 1884 1990 2198 2101 1995 2098
8 1995 2098 2199 2102 1885 1991 2097 1996
8 2203 2104 1998 2103 2106 2001 1891 2000
8 2107 2002 2105 2204 2001 1892 1999 2104
8 2109 2004 2107 2206 2003 1894 2001 2106
8 2110 2005 2108 2207 2004 1895 2002 2107
8 2112 2007 2110 2209 2006 1897 2004 2109
8 2113 2008 2111 2210 2007 1898 2005 2110
8 2120 2011 2113 2212 2014 1901 2007 2112
8 2117 2009 2114 2213 2011 1899 2008 2113
8 2219 2116 2009 2117 2119 2010 1899 2011
8 2222 2118 2010 2119 2122 2012 1900 2013
8 2223 2119 2011 2120 2123 2013 1901 2014
8 2016 1902 2015 2125 2122 2012 2121 2225
8 2126 2016 2122 2226 2017 1903 2013 2123
8 2019 1905 2018 2128 2125 2015 2124 2228
8 2020 1906 2019 2129 2126 2016 2125 2229
8 2022 1908 2021 2131 2128 2018 2127 2231
8 2023 1909 2022 2132 2129 2019 2128 2232
8 2025 1911 2024 2134 2131 2021 2130 2234
8 2026 1912 2025 2135 2132 2022 2131 2235
8 1914 2028 2134 2024 2027 2136 2236 2133
8 2029 1915 2028 2137 2135 2025 2134 2237
8 2030 1918 2031 2138 2137 2028 2136 2238
8 2157 2050 2139 2240 2054 1941 2033 2140
8 2052 1940 2054 2161 2144 2035 2140 2242
8 2140 2033 2141 2243 2035 1923 2034 2143
8 2143 2034 2142 2246 2037 1924 2036 2146
8 2144 2035 2143 2247 2051 1939 2037 2147
8 2146 2036 2145 2249 2039 1925 2038 2149
8 2147 2037 2146 2250 2040 1926 2039 2150
8 2149 2038 2148 2251 2042 1927 2041 2151
8 2150 2039 2149 2252 2043 1928 2042 2152
8 2152 2042 2151 2253 2045 1931 2044 2153
8 2255 2154 2047 2155 2189 2085 1976 2086
8 2170 2062 1949 2063 2255 2154 2047 2155
8 2256 2155 2048 2156 2190 2086 1977 2087
8 2171 2063 1950 2064 2256 2155 2048 2156
8 2258 2159 2050 2157 2164 2056 1941 2054
8 2160 2053 1946 2058 2262 2163 2060 2167
8 2162 2055 1940 2052 2262 2163 2053 2160
8 2162 2055 2164 2263 2052 1940 2054 2161
8 2163 2057 1948 2060 2264 2165 2061 2168
8 2055 1943 2057 2163 2164 2056 2165 2264
8 2182 2076 2166 2268 2077 1964 2061 2168
8 2183 2077 2168 2269 2078 1965 2060 2167
8 2070 1963 2062 2170 2177 2075 2169 2271
8 2172 2070 1959 2065 2272 2170 2063 2171
8 2172 2070 2177 2273 2065 1959 2072 2173
8 2066 1958 2072 2173 2174 2071 2178 2274
8 2067 1957 2071 2174 2175 2069 2176 2275
8 2175 2069 2176 2275 2079 1973 2083 2184
8 2071 1961 2074 2178 2176 2073 2179 2276
8 2176 2073 2179 2276 2083 1975 2084 2186
8 2072 1962 2075 2177 2178 2074 2180 2277
8 2182 2076 1974 2082 2280 2181 2084 2186
8 2183 2077 1971 2081 2281 2182 2082 2185
8 2184 2083 2186 2282 2080 1972 2082 2185
8 2189 2085 1993 2095 2285 2188 2100 2197
8 2190 2086 1987 2090 2286 2189 2095 2193
8 2192 2097 1989 2089 2287 2196 2094 2191
8 2287 2196 2094 2191 2203 2104 1998 2103
8 2194 2098 1991 2091 2288 2199 2097 2192
8 2195 2096 2197 2289 2093 1988 2095 2193
8 2096 2195 2290 2198 1990 2092 2194 2098
8 2097 1996 2099 2196 2199 2102 2200 2291
8 2196 2099 1999 2104 2291 2200 2105 2204
8 2100 2197 2292 2201 1994 2096 2198 2101
8 1995 2098 2198 2101 2102 2199 2293 2202
8 2206 2107 2204 2296 2106 2001 2104 2203
8 2207 2108 2205 2297 2107 2002 2105 2204
8 2209 2110 2207 2299 2109 2004 2107 2206
8 2210 2111 2208 2300 2110 2005 2108 2207
8 2212 2113 2210 2302 2112 2007 2110 2209
8 2213 2114 2211 2303 2113 2008 2111 2210
8 2220 2117 2213 2305 2120 2011 2113 2212
8 2216 2115 2214 2306 2117 2009 2114 2213
8 2216 2115 2009 2117 2311 2217 2116 2219
8 2219 2116 2010 2119 2314 2218 2118 2222
8 2315 2219 2117 2220 2223 2119 2011 2120
8 2122 2012 2121 2225 2222 2118 2221 2317
8 2318 2222 2119 2223 2226 2122 2013 2123
8 2125 2015 2124 2228 2225 2121 2224 2320
8 2126 2016 2125 2229 2226 2122 2225 2321
8 2128 2018 2127 2231 2228 2124 2227 2323
8 2129 2019 2128 2232 2229 2125 2228 2324
8 2131 2021 2130 2234 2231 2127 2230 2326
8 2132 2022 2131 2235 2232 2128 2231 2327
8 2134 2024 2133 2236 2234 2130 2233 2328
8 2135 2025 2134 2237 2235 2131 2234 2329
8 2137 2028 2136 2238 2237 2134 2236 2330
8 2157 2050 2158 2259 2240 2139 2239 2332
8 2257 2157 2240 2334 2161 2054 2140 2242
8 2240 2139 2241 2335 2140 2033 2141 2243
8 2242 2140 2243 2337 2144 2035 2143 2247
8 2243 2141 2244 2338 2143 2034 2142 2246
8 2246 2142 2245 2341 2146 2036 2145 2249
8 2247 2143 2246 2342 2147 2037 2146 2250
8 2249 2145 2248 2343 2149 2038 2148 2251
8 2250 2146 2249 2344 2150 2039 2149 2252
8 2252 2149 2251 2345 2152 2042 2151 2253
8 2169 2271 2347 2254 2062 2170 2255 2154
8 2189 2085 2188 2285 2255 2154 2254 2347
8 2348 2255 2155 2256 2286 2189 2086 2190
8 2272 2170 2063 2171 2348 2255 2155 2256
8 2349 2258 2157 2257 2263 2164 2054 2161
8 2258 2159 2261 2351 2157 2050 2158 2259
8 2258 2159 2056 2164 2351 2261 2165 2264
8 2262 2163 2060 2167 2355 2264 2168 2269
8 2162 2055 2163 2262 2263 2164 2264 2355
8 2357 2266 2165 2264 2268 2166 2061 2168
8 2268 2166 2076 2182 2361 2267 2181 2280
8 2281 2182 2268 2362 2183 2077 2168 2269
8 2271 2169 2270 2364 2177 2075 2180 2277
8 2172 2070 2170 2272 2273 2177 2271 2365
8 2072 2173 2274 2178 2177 2273 2366 2277
8 2071 2174 2275 2176 2178 2274 2367 2276
8 2275 2176 2276 2367 2184 2083 2186 2282
8 2283 2187 2084 2186 2368 2278 2179 2276
8 2178 2074 2180 2277 2276 2179 2278 2368
8 2283 2187 2279 2370 2186 2084 2181 2280
8 2281 2182 2082 2185 2371 2280 2186 2282
8 2188 2285 2374 2284 2100 2197 2292 2201
8 2286 2189 2095 2193 2375 2285 2197 2289
8 2192 2097 2196 2287 2288 2199 2291 2376
8 2287 2196 2104 2203 2376 2291 2204 2296
8 2194 2098 2199 2288 2290 2198 2293 2377
8 2289 2197 2096 2195 2378 2292 2198 2290
8 2291 2200 2105 2204 2379 2294 2205 2297
8 2199 2102 2200 2291 2293 2202 2294 2379
8 2198 2101 2202 2293 2292 2201 2295 2380
8 2299 2207 2297 2383 2206 2107 2204 2296
8 2300 2208 2298 2384 2207 2108 2205 2297
8 2302 2210 2300 2386 2209 2110 2207 2299
8 2303 2211 2301 2387 2210 2111 2208 2300
8 2305 2213 2303 2389 2212 2113 2210 2302
8 2306 2214 2304 2390 2213 2114 2211 2303
8 2310 2216 2306 2392 2220 2117 2213 2305
8 2308 2215 2307 2393 2216 2115 2214 2306
8 2308 2215 2115 2216 2396 2309 2217 2311
8 2310 2216 2117 2220 2398 2311 2219 2315
8 2311 2217 2116 2219 2399 2312 2218 2314
8 2314 2218 2118 2222 2402 2313 2221 2317
8 2315 2219 2119 2223 2403 2314 2222 2318
8 2225 2121 2224 2320 2317 2221 2316 2405
8 2226 2122 2225 2321 2318 2222 2317 2406
8 2228 2124 2227 2323 2320 2224 2319 2408
8 2229 2125 2228 2324 2321 2225 2320 2409
8 2231 2127 2230 2326 2323 2227 2322 2411
8 2232 2128 2231 2327 2324 2228 2323 2412
8 2234 2130 2233 2328 2326 2230 2325 2413
8 2235 2131 2234 2329 2327 2231 2326 2414
8 2237 2134 2236 2330 2329 2234 2328 2415
8 2259 2158 2260 2352 2332 2239 2331 2417
8 2257 2157 2259 2350 2334 2240 2332 2419
8 2240 2139 2239 2332 2335 2241 2333 2420
8 2334 2240 2335 2422 2242 2140 2243 2337
8 2335 2241 2336 2423 2243 2141 2244 2338
8 2337 2243 2338 2425 2247 2143 2246 2342
8 2338 2244 2339 2426 2246 2142 2245 2341
8 2341 2245 2340 2428 2249 2145 2248 2343
8 2342 2246 2341 2429 2250 2146 2249 2344
8 2344 2249 2343 2430 2252 2149 2251 2345
8 2188 2285 2347 2254 2284 2374 2432 2346
8 2347 2254 2346 2432 2271 2169 2270 2364
8 2365 2271 2170 2272 2433 2347 2255 2348
8 2286 2189 2285 2375 2348 2255 2347 2433
8 2349 2258 2351 2435 2257 2157 2259 2350
8 2349 2258 2164 2263 2435 2351 2264 2355
8 2259 2158 2261 2351 2352 2260 2354 2437
8 2356 2265 2354 2437 2264 2165 2261 2351
8 2441 2357 2264 2355 2362 2268 2168 2269
8 2356 2265 2165 2264 2442 2358 2266 2357
8 2443 2359 2266 2357 2361 2267 2166 2268
8 2370 2279 2360 2446 2280 2181 2267 2361
8 2362 2268 2182 2281 2447 2361 2280 2371
8 2180 2277 2368 2278 2270 2364 2449 2363
8 2271 2365 2273 2177 2364 2450 2366 2277
8 2372 2283 2186 2282 2451 2368 2276 2367
8 2178 2274 2367 2276 2277 2366 2451 2368
8 2283 2187 2278 2368 2370 2279 2369 2452
8 2372 2283 2370 2453 2282 2186 2280 2371
8 2284 2374 2455 2373 2201 2292 2380 2295
8 2375 2285 2197 2289 2456 2374 2292 2378
8 2376 2291 2204 2296 2457 2379 2297 2383
8 2288 2199 2291 2376 2377 2293 2379 2457
8 2198 2290 2378 2292 2293 2377 2458 2380
8 2293 2202 2294 2379 2380 2295 2381 2459
8 2384 2298 2381 2459 2297 2205 2294 2379
8 2386 2300 2384 2463 2299 2207 2297 2383
8 2387 2301 2385 2464 2300 2208 2298 2384
8 2389 2303 2387 2466 2302 2210 2300 2386
8 2390 2304 2388 2467 2303 2211 2301 2387
8 2392 2306 2390 2469 2305 2213 2303 2389
8 2393 2307 2391 2470 2306 2214 2304 2390
8 2395 2308 2393 2472 2310 2216 2306 2392
8 2308 2215 2309 2396 2393 2307 2394 2473
8 2395 2308 2216 2310 2475 2396 2311 2398
8 2396 2309 2217 2311 2476 2397 2312 2399
8 2398 2311 2219 2315 2478 2399 2314 2403
8 2399 2312 2218 2314 2479 2400 2313 2402
8 2317 2221 2316 2405 2402 2313 2401 2482
8 2403 2314 2222 2318 2483 2402 2317 2406
8 2320 2224 2319 2408 2405 2316 2404 2485
8 2321 2225 2320 2409 2406 2317 2405 2486
8 2323 2227 2322 2411 2408 2319 2407 2488
8 2324 2228 2323 2412 2409 2320 2408 2489
8 2326 2230 2325 2413 2411 2322 2410 2490
8 2327 2231 2326 2414 2412 2323 2411 2491
8 2329 2234 2328 2415 2414 2326 2413 2492
8 2417 2331 2260 2352 2494 2416 2353 2438
8 2350 2259 2352 2436 2419 2332 2417 2496
8 2332 2239 2331 2417 2420 2333 2418 2497
8 2334 2240 2332 2419 2422 2335 2420 2499
8 2420 2333 2421 2500 2335 2241 2336 2423
8 2422 2335 2423 2502 2337 2243 2338 2425
8 2423 2336 2424 2503 2338 2244 2339 2426
8 2425 2338 2426 2505 2342 2246 2341 2429
8 2426 2339 2427 2506 2341 2245 2340 2428
8 2429 2341 2428 2507 2344 2249 2343 2430
8 2432 2346 2284 2374 2509 2431 2373 2455
8 2432 2346 2431 2509 2364 2270 2363 2449
8 2375 2285 2374 2456 2433 2347 2432 2510
8 2347 2433 2365 2271 2432 2510 2450 2364
8 2350 2259 2351 2435 2436 2352 2437 2514
8 2440 2356 2437 2514 2355 2264 2351 2435
8 2352 2260 2354 2437 2438 2353 2439 2516
8 2356 2265 2358 2442 2437 2354 2439 2516
8 2440 2356 2264 2355 2518 2442 2357 2441
8 2519 2443 2357 2441 2447 2361 2268 2362
8 2443 2359 2444 2520 2357 2266 2358 2442
8 2443 2359 2267 2361 2520 2444 2360 2446
8 2446 2360 2279 2370 2523 2445 2369 2452
8 2453 2370 2446 2524 2371 2280 2361 2447
8 2449 2363 2448 2525 2368 2278 2369 2452
8 2366 2277 2364 2450 2451 2368 2449 2526
8 2372 2283 2368 2451 2453 2370 2452 2527
8 2455 2373 2295 2380 2529 2454 2382 2460
8 2456 2374 2292 2378 2530 2455 2380 2458
8 2377 2293 2379 2457 2458 2380 2459 2531
8 2463 2384 2459 2531 2383 2297 2379 2457
8 2533 2461 2382 2460 2459 2381 2295 2380
8 2464 2385 2461 2533 2384 2298 2381 2459
8 2466 2387 2464 2537 2386 2300 2384 2463
8 2467 2388 2465 2538 2387 2301 2385 2464
8 2469 2390 2467 2540 2389 2303 2387 2466
8 2470 2391 2468 2541 2390 2304 2388 2467
8 2472 2393 2470 2543 2392 2306 2390 2469
8 2393 2307 2394 2473 2470 2391 2471 2544
8 2395 2308 2396 2475 2472 2393 2473 2546
8 2396 2309 2397 2476 2473 2394 2474 2547
8 2475 2396 2311 2398 2549 2476 2399 2478
8 2476 2397 2312 2399 2550 2477 2400 2479
8 2478 2399 2314 2403 2552 2479 2402 2483
8 2479 2400 2313 2402 2553 2480 2401 2482
8 2405 2316 2404 2485 2482 2401 2481 2556
8 2406 2317 2405 2486 2483 2402 2482 2557
8 2408 2319 2407 2488 2485 2404 2484 2559
8 2409 2320 2408 2489 2486 2405 2485 2560
8 2411 2322 2410 2490 2488 2407 2487 2561
8 2412 2323 2411 2491 2489 2408 2488 2562
8 2414 2326 2413 2492 2491 2411 2490 2563
8 2513 2434 2493 2565 2438 2353 2416 2494
8 2496 2417 2352 2436 2567 2494 2438 2515
8 2494 2416 2495 2568 2417 2331 2418 2497
8 2419 2332 2417 2496 2499 2420 2497 2570
8 2497 2418 2498 2571 2420 2333 2421 2500
8 2499 2420 2500 2573 2422 2335 2423 2502
8 2500 2421 2501 2574 2423 2336 2424 2503
8 2502 2423 2503 2576 2425 2338 2426 2505
8 2503 2424 2504 2577 2426 2339 2427 2506
8 2505 2426 2506 2578 2429 2341 2428 2507
8 2509 2431 2373 2455 2580 2508 2454 2529
8 2509 2431 2508 2580 2449 2363 2448 2525
8 2432 2510 2581 2509 2374 2456 2530 2455
8 2432 2510 2450 2364 2509 2581 2526 2449
8 2583 2511 2434 2513 2516 2439 2353 2438
8 2436 2352 2437 2514 2515 2438 2516 2588
8 2440 2356 2442 2518 2514 2437 2516 2588
8 2442 2358 2444 2520 2516 2439 2517 2589
8 2519 2443 2520 2591 2441 2357 2442 2518
8 2519 2443 2361 2447 2591 2520 2446 2524
8 2446 2360 2445 2523 2520 2444 2521 2592
8 2525 2448 2522 2593 2452 2369 2445 2523
8 2524 2446 2370 2453 2594 2523 2452 2527
8 2526 2449 2525 2595 2451 2368 2452 2527
8 2534 2462 2528 2597 2460 2382 2454 2529
8 2530 2455 2380 2458 2598 2529 2460 2532
8 2599 2533 2460 2532 2531 2459 2380 2458
8 2537 2464 2533 2599 2463 2384 2459 2531
8 2534 2462 2382 2460 2601 2535 2461 2533
8 2538 2465 2535 2601 2464 2385 2461 2533
8 2540 2467 2538 2604 2466 2387 2464 2537
8 2541 2468 2539 2605 2467 2388 2465 2538
8 2543 2470 2541 2607 2469 2390 2467 2540
8 2470 2391 2471 2544 2541 2468 2542 2608
8 2472 2393 2473 2546 2543 2470 2544 2610
8 2473 2394 2474 2547 2544 2471 2545 2611
8 2475 2396 2476 2549 2546 2473 2547 2613
8 2476 2397 2477 2550 2547 2474 2548 2614
8 2549 2476 2399 2478 2616 2550 2479 2552
8 2479 2400 2480 2553 2550 2477 2551 2617
8 2552 2479 2402 2483 2619 2553 2482 2557
8 2482 2401 2481 2556 2553 2480 2554 2620
8 2485 2404 2484 2559 2556 2481 2555 2623
8 2486 2405 2485 2560 2557 2482 2556 2624
8 2488 2407 2487 2561 2559 2484 2558 2625
8 2489 2408 2488 2562 2560 2485 2559 2626
8 2491 2411 2490 2563 2562 2488 2561 2627
8 2513 2434 2512 2585 2565 2493 2564 2630
8 2586 2513 2565 2632 2515 2438 2494 2567
8 2565 2493 2566 2633 2494 2416 2495 2568
8 2567 2494 2568 2635 2496 2417 2497 2570
8 2568 2495 2569 2636 2497 2418 2498 2571
8 2570 2497 2571 2638 2499 2420 2500 2573
8 2571 2498 2572 2639 2500 2421 2501 2574
8 2573 2500 2574 2641 2502 2423 2503 2576
8 2574 2501 2575 2642 2503 2424 2504 2577
8 2576 2503 2577 2643 2505 2426 2506 2578
8 2597 2528 2579 2645 2529 2454 2508 2580
8 2580 2508 2579 2645 2525 2448 2522 2593
8 2581 2509 2455 2530 2646 2580 2529 2598
8 2581 2509 2580 2646 2526 2449 2525 2595
8 2583 2511 2582 2648 2513 2434 2512 2585
8 2583 2511 2439 2516 2648 2582 2517 2589
8 2649 2583 2513 2586 2588 2516 2438 2515
8 2589 2517 2444 2520 2653 2587 2521 2592
8 2518 2442 2520 2591 2588 2516 2589 2654
8 2593 2522 2590 2655 2523 2445 2521 2592
8 2524 2446 2523 2594 2591 2520 2592 2656
8 2595 2525 2593 2657 2527 2452 2523 2594
8 2602 2536 2596 2659 2534 2462 2528 2597
8 2600 2534 2597 2660 2532 2460 2529 2598
8 2600 2534 2460 2532 2661 2601 2533 2599
8 2604 2538 2601 2661 2537 2464 2533 2599
8 2602 2536 2462 2534 2663 2603 2535 2601
8 2601 2535 2465 2538 2663 2603 2539 2605
8 2607 2541 2605 2665 2540 2467 2538 2604
8 2608 2542 2606 2666 2541 2468 2539 2605
8 2543 2470 2544 2610 2607 2541 2608 2668
8 2544 2471 2545 2611 2608 2542 2609 2669
8 2546 2473 2547 2613 2610 2544 2611 2671
8 2547 2474 2548 2614 2611 2545 2612 2672
8 2549 2476 2550 2616 2613 2547 2614 2674
8 2550 2477 2551 2617 2614 2548 2615 2675
8 2552 2479 2553 2619 2616 2550 2617 2677
8 2553 2480 2554 2620 2617 2551 2618 2678
8 2557 2482 2556 2624 2619 2553 2620 2680
8 2556 2481 2555 2623 2620 2554 2621 2681
8 2559 2484 2558 2625 2623 2555 2622 2683
8 2560 2485 2559 2626 2624 2556 2623 2684
8 2562 2488 2561 2627 2626 2559 2625 2685
8 2690 2629 2564 2630 2650 2584 2512 2585
8 2586 2513 2585 2651 2632 2565 2630 2691
8 2630 2564 2631 2692 2565 2493 2566 2633
8 2632 2565 2633 2694 2567 2494 2568 2635
8 2633 2566 2634 2695 2568 2495 2569 2636
8 2635 2568 2636 2697 2570 2497 2571 2638
8 2636 2569 2637 2698 2571 2498 2572 2639
8 2638 2571 2639 2700 2573 2500 2574 2641
8 2639 2572 2640 2701 2574 2501 2575 2642
8 2641 2574 2642 2702 2576 2503 2577 2643
8 2597 2528 2596 2659 2645 2579 2644 2704
8 2645 2579 2644 2704 2593 2522 2590 2655
8 2660 2597 2645 2705 2598 2529 2580 2646
8 2646 2580 2645 2705 2595 2525 2593 2657
8 2650 2584 2512 2585 2707 2647 2582 2648
8 2648 2582 2517 2589 2707 2647 2587 2653
8 2649 2583 2648 2708 2586 2513 2585 2651
8 2649 2583 2516 2588 2708 2648 2589 2654
8 2655 2590 2652 2710 2592 2521 2587 2653
8 2654 2589 2520 2591 2711 2653 2592 2656
8 2657 2593 2655 2712 2594 2523 2592 2656
8 2602 2536 2603 2663 2659 2596 2658 2714
8 2662 2602 2659 2715 2600 2534 2597 2660
8 2662 2602 2534 2600 2717 2663 2601 2661
8 2661 2601 2538 2604 2717 2663 2605 2665
8 2666 2606 2664 2718 2605 2539 2603 2663
8 2668 2608 2666 2720 2607 2541 2605 2665
8 2608 2542 2609 2669 2666 2606 2667 2721
8 2610 2544 2611 2671 2668 2608 2669 2723
8 2611 2545 2612 2672 2669 2609 2670 2724
8 2613 2547 2614 2674 2671 2611 2672 2726
8 2614 2548 2615 2675 2672 2612 2673 2727
8 2616 2550 2617 2677 2674 2614 2675 2729
8 2617 2551 2618 2678 2675 2615 2676 2730
8 2619 2553 2620 2680 2677 2617 2678 2732
8 2620 2554 2621 2681 2678 2618 2679 2733
8 2624 2556 2623 2684 2680 2620 2681 2735
8 2681 2621 2555 2623 2736 2682 2622 2683
8 2626 2559 2625 2685 2684 2623 2683 2737
8 2688 2628 2584 2650 2740 2686 2647 2707
8 2688 2628 2687 2742 2650 2584 2629 2690
8 2690 2629 2689 2745 2630 2564 2631 2692
8 2746 2690 2630 2691 2709 2650 2585 2651
8 2691 2630 2692 2747 2632 2565 2633 2694
8 2692 2631 2693 2748 2633 2566 2634 2695
8 2694 2633 2695 2750 2635 2568 2636 2697
8 2695 2634 2696 2751 2636 2569 2637 2698
8 2697 2636 2698 2753 2638 2571 2639 2700
8 2698 2637 2699 2754 2639 2572 2640 2701
8 2700 2639 2701 2755 2641 2574 2642 2702
8 2659 2596 2658 2714 2704 2644 2703 2757
8 2704 2644 2703 2757 2655 2590 2652 2710
8 2660 2597 2659 2715 2705 2645 2704 2758
8 2705 2645 2704 2758 2657 2593 2655 2712
8 2759 2706 2647 2707 2710 2652 2587 2653
8 2709 2650 2585 2651 2760 2707 2648 2708
8 2708 2648 2589 2654 2760 2707 2653 2711
8 2712 2655 2710 2761 2656 2592 2653 2711
8 2763 2713 2658 2714 2718 2664 2603 2663
8 2662 2602 2663 2717 2715 2659 2714 2764
8 2720 2666 2718 2767 2665 2605 2663 2717
8 2768 2719 2664 2718 2721 2667 2606 2666
8 2668 2608 2669 2723 2720 2666 2721 2770
8 2669 2609 2670 2724 2721 2667 2722 2771
8 2671 2611 2672 2726 2723 2669 2724 2773
8 2672 2612 2673 2727 2724 2670 2725 2774
8 2674 2614 2675 2729 2726 2672 2727 2776
8 2675 2615 2676 2730 2727 2673 2728 2777
8 2677 2617 2678 2732 2729 2675 2730 2779
8 2678 2618 2679 2733 2730 2676 2731 2780
8 2680 2620 2681 2735 2732 2678 2733 2782
8 2733 2679 2621 2681 2783 2734 2682 2736
8 2735 2681 2623 2684 2784 2736 2683 2737
8 2740 2686 2647 2707 2787 2738 2706 2759
8 2688 2628 2686 2740 2742 2687 2739 2789
8 2743 2688 2650 2709 2790 2740 2707 2760
8 2742 2687 2741 2792 2690 2629 2689 2745
8 2743 2688 2742 2793 2709 2650 2690 2746
8 2745 2689 2744 2795 2692 2631 2693 2748
8 2746 2690 2745 2796 2691 2630 2692 2747
8 2747 2692 2748 2797 2694 2633 2695 2750
8 2748 2693 2749 2798 2695 2634 2696 2751
8 2750 2695 2751 2800 2697 2636 2698 2753
8 2751 2696 2752 2801 2698 2637 2699 2754
8 2753 2698 2754 2802 2700 2639 2701 2755
8 2763 2713 2756 2804 2714 2658 2703 2757
8 2759 2706 2652 2710 2804 2756 2703 2757
8 2715 2659 2714 2764 2758 2704 2757 2805
8 2758 2704 2757 2805 2712 2655 2710 2761
8 2806 2759 2707 2760 2761 2710 2653 2711
8 2765 2716 2762 2808 2718 2664 2713 2763
8 2809 2763 2714 2764 2767 2718 2663 2717
8 2765 2716 2664 2718 2811 2766 2719 2768
8 2813 2768 2718 2767 2770 2721 2666 2720
8 2814 2769 2719 2768 2771 2722 2667 2721
8 2723 2669 2724 2773 2770 2721 2771 2816
8 2724 2670 2725 2774 2771 2722 2772 2817
8 2726 2672 2727 2776 2773 2724 2774 2819
8 2727 2673 2728 2777 2774 2725 2775 2820
8 2729 2675 2730 2779 2776 2727 2777 2822
8 2730 2676 2731 2780 2777 2728 2778 2823
8 2732 2678 2733 2782 2779 2730 2780 2825
8 2780 2731 2679 2733 2826 2781 2734 2783
8 2782 2733 2681 2735 2827 2783 2736 2784
8 2830 2785 2738 2787 2804 2756 2706 2759
8 2789 2739 2686 2740 2832 2786 2738 2787
8 2790 2740 2707 2760 2833 2787 2759 2806
8 2742 2687 2739 2789 2792 2741 2788 2835
8 2743 2688 2740 2790 2793 2742 2789 2836
8 2792 2741 2791 2838 2745 2689 2744 2795
8 2793 2742 2792 2839 2746 2690 2745 2796
8 2795 2744 2794 2841 2748 2693 2749 2798
8 2796 2745 2795 2842 2747 2692 2748 2797
8 2797 2748 2798 2843 2750 2695 2751 2800
8 2798 2749 2799 2844 2751 2696 2752 2801
8 2800 2751 2801 2845 2753 2698 2754 2802
8 2808 2762 2803 2847 2763 2713 2756 2804
8 2809 2763 2804 2848 2764 2714 2757 2805
8 2806 2759 2710 2761 2848 2804 2757 2805
8 2765 2716 2766 2811 2808 2762 2807 2850
8 2810 2765 2808 2851 2767 2718 2763 2809
8 2810 2765 2718 2767 2852 2811 2768 2813
8 2811 2766 2719 2768 2853 2812 2769 2814
8 2855 2814 2768 2813 2816 2771 2721 2770
8 2856 2815 2769 2814 2817 2772 2722 2771
8 2773 2724 2774 2819 2816 2771 2817 2858
8 2774 2725 2775 2820 2817 2772 2818 2859
8 2776 2727 2777 2822 2819 2774 2820 2861
8 2777 2728 2778 2823 2820 2775 2821 2862
8 2779 2730 2780 2825 2822 2777 2823 2864
8 2823 2778 2731 2780 2865 2824 2781 2826
8 2825 2780 2733 2782 2866 2826 2783 2827
8 2869 2828 2785 2830 2847 2803 2756 2804
8 2871 2829 2786 2832 2830 2785 2738 2787
8 2872 2830 2787 2833 2848 2804 2759 2806
8 2789 2739 2786 2832 2835 2788 2831 2874
8 2836 2789 2740 2790 2875 2832 2787 2833
8 2792 2741 2788 2835 2838 2791 2834 2877
8 2793 2742 2789 2836 2839 2792 2835 2878
8 2838 2791 2837 2880 2795 2744 2794 2841
8 2839 2792 2838 2881 2796 2745 2795 2842
8 2841 2794 2840 2882 2798 2749 2799 2844
8 2842 2795 2841 2883 2797 2748 2798 2843
8 2843 2798 2844 2884 2800 2751 2801 2845
8 2886 2846 2803 2847 2850 2807 2762 2808
8 2851 2808 2847 2887 2809 2763 2804 2848
8 2850 2807 2766 2811 2889 2849 2812 2853
8 2810 2765 2811 2852 2851 2808 2850 2890
8 2852 2811 2768 2813 2891 2853 2814 2855
8 2853 2812 2769 2814 2892 2854 2815 2856
8 2894 2856 2814 2855 2858 2817 2771 2816
8 2817 2772 2818 2859 2856 2815 2857 2895
8 2819 2774 2820 2861 2858 2817 2859 2897
8 2820 2775 2821 2862 2859 2818 2860 2898
8 2822 2777 2823 2864 2861 2820 2862 2900
8 2823 2778 2824 2865 2862 2821 2863 2901
8 2864 2823 2780 2825 2902 2865 2826 2866
8 2904 2867 2828 2869 2886 2846 2803 2847
8 2869 2828 2868 2906 2830 2785 2829 2871
8 2907 2869 2830 2872 2887 2847 2804 2848
8 2871 2829 2870 2909 2832 2786 2831 2874
8 2910 2871 2832 2875 2872 2830 2787 2833
8 2835 2788 2831 2874 2877 2834 2873 2912
8 2836 2789 2832 2875 2878 2835 2874 2913
8 2877 2834 2876 2915 2838 2791 2837 2880
8 2839 2792 2835 2878 2881 2838 2877 2916
8 2880 2837 2879 2917 2841 2794 2840 2882
8 2881 2838 2880 2918 2842 2795 2841 2883
8 2883 2841 2882 2919 2843 2798 2844 2884
8 2921 2885 2846 2886 2889 2849 2807 2850
8 2922 2886 2847 2887 2890 2850 2808 2851
8 2889 2849 2812 2853 2924 2888 2854 2892
8 2890 2850 2811 2852 2925 2889 2853 2891
8 2891 2853 2814 2855 2926 2892 2856 2894
8 2892 2854 2815 2856 2927 2893 2857 2895
8 2858 2817 2859 2897 2894 2856 2895 2929
8 2859 2818 2860 2898 2895 2857 2896 2930
8 2861 2820 2862 2900 2897 2859 2898 2932
8 2862 2821 2863 2901 2898 2860 2899 2933
8 2864 2823 2865 2902 2900 2862 2901 2934
8 2904 2867 2846 2886 2936 2903 2885 2921
8 2904 2867 2903 2936 2869 2828 2868 2906
8 2937 2904 2869 2907 2922 2886 2847 2887
8 2906 2868 2905 2939 2871 2829 2870 2909
8 2907 2869 2906 2940 2872 2830 2871 2910
8 2909 2870 2908 2942 2874 2831 2873 2912
8 2910 2871 2909 2943 2875 2832 2874 2913
8 2912 2873 2911 2945 2877 2834 2876 2915
8 2878 2835 2874 2913 2916 2877 2912 2946
8 2915 2876 2914 2947 2880 2837 2879 2917
8 2916 2877 2915 2948 2881 2838 2880 2918
8 2918 2880 2917 2949 2883 2841 2882 2919
8 2921 2885 2849 2889 2951 2920 2888 2924
8 2952 2921 2886 2922 2925 2889 2850 2890
8 2924 2888 2854 2892 2954 2923 2893 2927
8 2925 2889 2853 2891 2955 2924 2892 2926
8 2926 2892 2856 2894 2956 2927 2895 2929
8 2895 2857 2896 2930 2927 2893 2928 2957
8 2897 2859 2898 2932 2929 2895 2930 2959
8 2898 2860 2899 2933 2930 2896 2931 2960
8 2900 2862 2901 2934 2932 2898 2933 2961
8 2936 2903 2885 2921 2963 2935 2920 2951
8 2936 2903 2935 2963 2906 2868 2905 2939
8 2937 2904 2886 2922 2964 2936 2921 2952
8 2937 2904 2936 2964 2907 2869 2906 2940
8 2939 2905 2938 2966 2909 2870 2908 2942
8 2940 2906 2939 2967 2910 2871 2909 2943
8 2942 2908 2941 2969 2912 2873 2911 2945
8 2943 2909 2942 2970 2913 2874 2912 2946
8 2945 2911 2944 2971 2915 2876 2914 2947
8 2946 2912 2945 2972 2916 2877 2915 2948
8 2948 2915 2947 2973 2918 2880 2917 2949
8 2951 2920 2888 2924 2975 2950 2923 2954
8 2952 2921 2889 2925 2976 2951 2924 2955
8 2927 2893 2928 2957 2954 2923 2953 2978
8 2955 2924 2892 2926 2979 2954 2927 2956
8 2929 2895 2930 2959 2956 2927 2957 2980
8 2930 2896 2931 2960 2957 2928 2958 2981
8 2932 2898 2933 2961 2959 2930 2960 2982
8 2951 2920 2950 2975 2963 2935 2962 2984
8 2963 2935 2962 2984 2939 2905 2938 2966
8 2964 2936 2921 2952 2985 2963 2951 2976
8 2964 2936 2963 2985 2940 2906 2939 2967
8 2966 2938 2965 2987 2942 2908 2941 2969
8 2967 2939 2966 2988 2943 2909 2942 2970
8 2969 2941 2968 2989 2945 2911 2944 2971
8 2970 2942 2969 2990 2946 2912 2945 2972
8 2972 2945 2971 2991 2948 2915 2947 2973
8 2954 2923 2953 2978 2975 2950 2974 2993
8 2976 2951 2924 2955 2994 2975 2954 2979
8 2957 2928 2958 2981 2978 2953 2977 2995
8 2956 2927 2957 2980 2979 2954 2978 2996
8 2959 2930 2960 2982 2980 2957 2981 2997
8 2984 2962 2983 2999 2966 2938 2965 2987
8 2975 2950 2974 2993 2984 2962 2983 2999
8 2976 2951 2975 2994 2985 2963 2984 3000
8 2985 2963 2984 3000 2967 2939 2966 2988
8 2987 2965 2986 3001 2969 2941 2968 2989
8 2988 2966 2987 3002 2970 2942 2969 2990
8 2990 2969 2989 3003 2972 2945 2971 2991
8 2978 2953 2977 2995 2993 2974 2992 3004
8 2979 2954 2978 2996 2994 2975 2993 3005
8 2980 2957 2981 2997 2996 2978 2995 3006
8 2974 2993 2999 2983 2992 3004 3007 2998
8 2983 2999 2987 2965 2998 3007 3001 2986
8 3000 2984 2999 3008 2988 2966 2987 3002
8 2994 2975 2993 3005 3000 2984 2999 3008
8 3002 2987 3001 3009 2990 2969 2989 3003
8 2996 2978 2995 3006 3005 2993 3004 3010
8 3005 2993 3004 3010 3008 2999 3007 3011
8 3008 2999 3007 3011 3002 2987 3001 3009

CELL_TYPES 1910
12
12
12
12
12
12
12
12
12
12
12
12
12
12
12
12
12
12
12
12
12
12
12
12
12
12
12
12
12
12
12
12
12
12
12
12
12
12
12
12
12
12
12
12
12
12
12
12
12
12
12
12
12
12
12
12
12
12
12
12
12
12
12
12
12
12
12
12
12
12
12
12
12
12
12
12
12
12
12
12
12
12
12
12
12
12
12
12
12
12
12
12
12
12
12
12
12
12
12
12
12
12
12
12
12
12
12
12
12
12
12
12
12
12
12
12
12
12
12
12
12
12
12
12
12
12
12
12
12
12
12
12
12
12
12
12
12
12
12
12
12
12
12
12
12
12
12
12
12
12
12
12
12
12
12
12
12
12
12
12
12
12
12
12
12
12
12
12
12
12
12
12
12
12
12
12
12
12
12
12
12
12
12
12
12
12
12
12
12
12
12
12
12
12
12
12
12
12
12
12
12
12
12
12
12
12
12
12
12
12
12
12
12
12
12
12
12
12
12
12
12
12
12
12
12
12
12
12
12
12
12
12
12
12
12
12
12
12
12
12
12
12
12
12
12
12
12
12
12
12
12
12
12
12
12
12
12
12
12
12
12
12
12
12
12
12
12
12
12
12
12
12
12
12
12
12
12
12
12
12
12
12
12
12
12
12
12
12
12
12
12
12
12
12
12
12
12
12
12
12
12
12
12
12
12
12
12
12
12
12
12
12
12
12
12
12
12
12
12
12
12
12
12
12
12
12
12
12
12
12
12
12
12
12
12
12
12
12
12
12
12
12
12
12
12
12
12
12
12
12
12
12
12
12
12
12
12
12
12
12
12
12
12
12
12
12
12
12
12
12
12
12
12
12
12
12
12
12
12
12
12
12
12
12
12
12
12
12
12
12
12
12
12
12
12
12
12
12
12
12
12
12
12
12
12
12
12
12
12
12
12
12
12
12
12
12
12
12
12
12
12
12
12
12
12
12
12
12
12
12
12
12
12
12
12
12
12
12
12
12
12
12
12
12
12
12
12
12
12
12
12
12
12
12
12
12
12
12
12
12
12
12
12
12
12
12
12
12
12
12
12
12
12
12
12
12
12
12
12
12
12
12
12
12
12
12
12
12
12
12
12
12
12
12
12
12
12
12
12
12
12
12
12
12
12
12
12
12
12
12
12
12
12
12
12
12
12
12
12
12
12
12
12
12
12
12
12
12
12
12
12
12
12
12
12
12
12
12
12
12
12
12
12
12
12
12
12
12
12
12
12
12
12
12
12
12
12
12
12
12
12
12
12
12
12
12
12
12
12
12
12
12
12
12
12
12
12
12
12
12
12
12
12
12
12
12
12
12
12
12
12
12
12
12
12
12
12
12
12
12
12
12
12
12
12
12
12
12
12
12
12
12
12
12
12
12
12
12
12
12
12
12
12
12
12
12
12
12
12
12
12
12
12
12
12
12
12
12
12
12
12
12
12
12
12
12
12
12
12
12
12
12
12
12
12
12
12
12
12
12
12
12
12
12
12
12
12
12
12
12
12
12
12
12
12
12
12
12
12
12
12
12
12
12
12
12
12
12
12
12
12
12
12
12
12
12
12
12
12
12
12
12
12
12
12
12
12
12
12
12
12
12
12
12
12
12
12
12
12
12
12
12
12
12
12
12
12
12
12
12
12
12
12
12
12
12
12
12
12
12
12
12
12
12
12
12
12
12
12
12
12
12
12
12
12
12
12
12
12
12
12
12
12
12
12
12
12
12
12
12
12
12
12
12
12
12
12
12
12
12
12
12
12
12
12
12
12
12
12
12
12
12
12
12
12
12
12
12
12
12
12
12
12
12
12
12
12
12
12
12
12
12
12
12
12
12
12
12
12
12
12
12
12
12
12
12
12
12
12
12
12
12
12
12
12
12
12
12
12
12
12
12
12
12
12
12
12
12
12
12
12
12
12
12
12
12
12
12
12
12
12
12
12
12
12
12
12
12
12
12
12
12
12
12
12
12
12
12
12
12
12
12
12
12
12
12
12
12
12
12
12
12
12
12
12
12
12
12
12
12
12
12
12
12
12
12
12
12
12
12
12
12
12
12
12
12
12
12
12
12
12
12
12
12
12
12
12
12
12
12
12
12
12
12
12
12
12
12
12
12
12
12
12
12
12
12
12
12
12
12
12
12
12
12
12
12
12
12
12
12
12
12
12
12
12
12
12
12
12
12
12
12
12
12
12
12
12
12
12
12
12
12
12
12
12
12
12
12
12
12
12
12
12
12
12
12
12
12
12
12
12
12
12
12
12
12
12
12
12
12
12
12
12
12
12
12
12
12
12
12
12
12
12
12
12
12
12
12
12
12
12
12
12
12
12
12
12
12
12
12
12
12
12
12
12
12
12
12
12
12
12
12
12
12
12
12
12
12
12
12
12
12
12
12
12
12
12
12
12
12
12
12
12
12
12
12
12
12
12
12
12
12
12
12
12
12
12
12
12
12
12
12
12
12
12
12
12
12
12
12
12
12
12
12
12
12
12
12
12
12
12
12
12
12
12
12
12
12
12
12
12
12
12
12
12
12
12
12
12
12
12
12
12
12
12
12
12
12
12
12
12
12
12
12
12
12
12
12
12
12
12
12
12
12
12
12
12
12
12
12
12
12
12
12
12
12
12
12
12
12
12
12
12
12
12
12
12
12
12
12
12
12
12
12
12
12
12
12
12
12
12
12
12
12
12
12
12
12
12
12
12
12
12
12
12
12
12
12
12
12
12
12
12
12
12
12
12
12
12
12
12
12
12
12
12
12
12
12
12
12
12
12
12
12
12
12
12
12
12
12
12
12
12
12
12
12
12
12
12
12
12
12
12
12
12
12
12
12
12
12
12
12
12
12
12
12
12
12
12
12
12
12
12
12
12
12
12
12
12
12
12
12
12
12
12
12
12
12
12
12
12
12
12
12
12
12
12
12
12
12
12
12
12
12
12
12
12
12
12
12
12
12
12
12
12
12
12
12
12
12
12
12
12
12
12
12
12
12
12
12
12
12
12
12
12
12
12
12
12
12
12
12
12
12
12
12
12
12
12
12
12
12
12
12
12
12
12
12
12
12
12
12
12
12
12
12
12
12
12
12
12
12
12
12
12
12
12
12
12
12
12
12
12
12
12
12
12
12
12
12
12
12
12
12
12
12
12
12
12
12
12
12
12
12
12
12
12
12
12
12
12
12
12
12
12
12
12
12
12
12
12
12
12
12
12
12
12
12
12
12
12
12
12
12
12
12
12
12
12
12
12
12
12
12
12
12
12
12
12
12
12
12
12
12
12
12
12
12
12
12
12
12
12
12
12
12
12
12
12
12
12
12
12
12
12
12
12
12
12
12
12
12
12
12
12
12
12
12
12
12
12
12
12
12
12
12
12
12
12
12
12
12
12
12
12
12
12
12
12
12
12
12
12
12
12
12
12
12
12
12
12
12
12
12
12
12
12
12
12
12
12
12
12
12
12
12
12
12
12
12
12
12
12
12
12
12
12
12
12
12
12
12
12
12
12
12
12
12
12
12
12
12
12
12
12
12
12
12
12
12
12
12
12
12
12
12
12
12
12
12
12
12
12
12
12
12
12
12
12
12
12
12
12
12
12
12
12
12
12
12
12
12
12
12
12
12
12
12
12
12
12
12
12
12
12
12
12
12
12
12
12
12
12
12
12
12
12
12
12
12
12
12
12
12
12
12
12
12
12
12
12
12
12
12
12
12
12
12
12
12
12
12
12
12
12
12
12
12
12
12
12
12
12
12
12
12
12
12
12
12
12
12
12
12
12
12
12
12
12
12
12
12
12
12
12
12
12
12
12
12
12
12
12
12
12
12
12
12
12
12
12
12
12
12
12
12
12
12
12
12
12
12
12
12
12
12
12
12
12
12
12
12
12
12
12
12
12
12
12
12
12
12
12
12
12
12
12
12
12
12
12
12
12
12
12
12
12
12
12
12
12
12
12
12
12
12
12
12
12
12
12
12
12
12
12
12
12
12
12
12
12
12
12
12
12
12
12
12
12
12
12
12
12
12
12
12
12
12
12
12
12
12
12
12
12
12
12
12
12
12
12
12
12
12
12
12
12
12
12
12
12
12
12
12
12
12
12
12
12
12
12
12
12
12
12
12
12
12
12
12
12
12
12
12
12
12
12
12
12
12
12
12
12
12
12
12
12
12
12
12
12
12
12
12
12
12
12
12
12
12
12
12
12
12
12
12
12
12
12
12
12
12
12
12
12
12
12
12
12
12
12
12
12
12
12
12
12
12
12
12
12
12
12
12
12
12
12
12
12
12
12
12
12
12
12
12
12
12
12
12

POINT_DATA 3012
SCALARS Jp_lamdaP float 4
LOOKUP_TABLE default
0.999536 1 1 0.999536
1 1 1 1
0.99955 1 1 0.99955
0.999478 1 1 0.999478
0.999538 1 1 0.999538
0.999509 1 1 0.999509
1.00589 1.00736 1 0.998533
1 1 1 1
1 1 1 1
1 1 1 1
0.999601 1 1 0.999601
1.00195 1.00337 1 0.998584
0.999504 1 1 0.999504
0.999496 1 1 0.999496
0.999555 1 1 0.999555
0.999511 1 1 0.999511
0.999518 1 1 0.999518
0.999561 1 1 0.999561
1.0059 1.00738 1 0.998533
1 1 1 1
0.999464 1 1 0.999464
0.999512 1 1 0.999512
1.00157 1.00315 1 0.998425
1.005 1.00649 1 0.998519
0.999501 1 1 0.999501
1.00506 1.00654 1 0.998531
1.02864 1.0317 1 0.997036
1 1 1 1
0.999764 1 1 0.999764
0.999777 1 1 0.999777
1 1 1 1
1.00101 1.00242 1 0.998594
0.999519 1 1 0.999519
0.999549 1 1 0.999549
1.00634 1.00763 1 0.998722
1 1 1 1
1.00498 1.0062 1 0.998793
0.999325 1.00065 1 0.998673
1.0177 1.02078 1 0.996983
1 1 1 1
1 1 1 1
0.99975 1 1 0.99975
1 1 1 1
0.999512 1 1 0.999512
0.998389 1.00003 1 0.998356
1 1 1 1
1.00053 1.0019 1 0.99863
0.99954 1 1 0.99954
0.999578 1 1 0.999578
0.99952 1 1 0.99952
1.00594 1.00742 1 0.998537
0.999735 1 1 0.999735
0.999494 1 1 0.999494
0.999516 1 1 0.999516
0.999542 1 1 0.999542
1.0013 1.00288 1 0.998418
1.00514 1.00661 1 0.998532
1.0049 1.00639 1 0.998518
1.02883 1.0319 1 0.997024
1 1 1 1
0.999476 1 1 0.999476
0.998705 1.00001 1 0.998697
0.99968 1.00128 1 0.998405
1.00359 1.00512 1 0.998474
1.03068 1.03397 1 0.996823
1.02924 1.03242 1 0.996919
0.999555 1 1 0.999555
1.0002 1.00159 1 0.998609
1.02662 1.0296 1 0.9971
1.049 1.05304 1 0.996157
1 1 1 1
1 1 1 1
1 1 1 1
1.00038 1.00178 1 0.998602
1 1 1 1
1 1 1 1
1.00613 1.00767 1 0.998477
0.999845 1 1 0.999845
1.00389 1.00533 1 0.998568
0.999519 1.0006 1.00009 0.998839
1.01793 1.02101 1 0.996979
1 1 1 1
1.00184 1 1.00227 0.999571
1.005 1.00662 1 0.998391
1.00606 1.00756 1 0.998506
1.03428 1.03782 1 0.996592
0.999687 1 1.00052 0.999164
1.02424 1.02744 1 0.996889
1.01287 1.01574 1.00003 0.997147
1.03487 1.0388 1 0.996217
1 1 1 1
1 1 1 1
1 1 1 1
1 1 1 1
1 1 1 1
0.999756 1 1 0.999756
0.998691 1.00018 1 0.998516
0.999748 1 1 0.999748
1.00124 1.00274 1 0.998503
1 1 1 1
0.99839 1 1 0.99839
0.999128 1.00049 1 0.998638
1.02442 1.02801 1 0.996506
1.00315 1.0045 1 0.998661
1.0329 1.03653 1 0.996503
0.999529 1 1 0.999529
0.999521 1 1 0.999521
0.999526 1 1 0.999526
0.999568 1 1 0.999568
1.00104 1.00263 1 0.998414
1.00481 1.0063 1 0.998519
1.00513 1.0066 1 0.998537
1.02908 1.03216 1 0.997013
1 1 1 1
0.999504 1 1 0.999504
0.998432 1.00001 1 0.998426
0.999421 1.00103 1 0.998396
0.99978 1 1 0.99978
1.00104 1.00235 1 0.9987
1.00337 1.00491 1 0.998471
1.03069 1.034 1 0.996798
1.02608 1.02908 1 0.997087
1.02987 1.03303 1 0.996938
1.04882 1.05286 1 0.996167
0.998414 1 1 0.998414
0.998737 1.00032 1 0.998418
1.02291 1.0262 1 0.996802
1.02781 1.03113 1 0.996777
1.03081 1.03408 1 0.99684
1.06221 1.06625 1 0.996217
1 1 1 1
1.05275 1.05679 1 0.996179
0.999393 1.0002 1.00043 0.99877
1.01752 1.02054 1 0.997035
1.04555 1.04961 1 0.996134
1.05345 1.05751 1 0.996159
1.00163 1 1.00244 0.999196
1.00653 1 1.00862 0.99793
1 1 1 1
1 1 1 1
1.00611 1.00764 1 0.998481
1 1 1 1
0.999411 1.00031 1.00034 0.998758
1.00312 1.00455 1 0.998575
1.01775 1.02084 1 0.996975
1 1 1 1
1.00173 1 1.00214 0.999595
1.00552 1.00699 1 0.998541
1.00589 1.00726 1 0.998643
1.03355 1.03709 1 0.99659
0.999996 1 1.00094 0.999053
1.02433 1.02752 1 0.99689
1.01069 1.01351 1.00008 0.997144
1.036 1.03993 1 0.996216
1.00129 1 1.00198 0.999314
1.00146 1 1.0017 0.999757
1.00512 1.00029 1.00655 0.998279
1.03615 1.03978 1 0.996509
1.03085 1.03423 1 0.996737
1.05672 1.06089 1 0.996065
1.00644 1.00807 1.00092 0.997464
1.04334 1.04728 1 0.996241
1.02482 1.02806 1.00057 0.996282
1.04263 1.0467 1 0.996117
1 1 1 1
1 1 1 1
1 1 1 1
1.00179 1 1.00241 0.999381
1 1 1 1
1 1 1 1
1 1 1 1
1.00176 1.00339 1 0.99838
0.998656 1.00026 1 0.998393
1 1 1 1
1 1 1 1
0.998391 1 1 0.99839
0.999346 1.00083 1 0.998513
1.02503 1.02862 1 0.996507
1.00352 1.00515 1 0.998385
1.0323 1.03593 1 0.996501
0.998393 1 1 0.998393
1.02264 1.02625 1 0.996486
1.0278 1.0314 1 0.996519
1.06563 1.07012 0.999529 0.996277
1.03587 1.03953 1 0.996487
1.06871 1.07278 0.999982 0.996225
1 1 1 1
0.999532 1 1 0.999532
0.998124 1 1 0.998124
0.999185 1.0008 1 0.998388
1 1 1 1
1.00218 1.00339 1 0.998793
1.00316 1.0047 1 0.99847
1.03071 1.03405 1 0.996774
1.03063 1.03378 1 0.996957
1.02539 1.0284 1 0.997073
1.04857 1.0526 1 0.996176
0.998412 1 1 0.998412
0.998622 1.00021 1 0.998409
1.02286 1.02629 1 0.996661
1.02819 1.03151 1 0.996787
1 1 1 1
0.999894 1.00082 1.00022 0.998856
1.01877 1.0217 1 0.99713
1.03125 1.03453 1 0.996833
1.06236 1.06638 1 0.996226
1.04566 1.04972 1 0.996132
1.05285 1.05686 1 0.996211
1.05302 1.05707 1 0.996169
1.00143 1 1.00224 0.999183
1.00548 1.0001 1.00746 0.997931
1.02211 1.02569 1 0.996508
1.02378 1.02706 1 0.996799
1.06293 1.06704 0.999849 0.996298
1.06246 1.06744 0.999078 0.996249
1.05759 1.06155 1 0.996267
1.06261 1.06827 0.998253 0.996442
1.00044 1 1.00146 0.998984
1.0562 1.06011 1 0.996309
1.00981 1.0125 1.00011 0.997239
1.04011 1.04412 1 0.996155
1.0514 1.0556 1 0.996017
1.05277 1.05653 0.999983 0.996454
1.00371 1.00115 1.00492 0.99764
1.00634 1 1.00808 0.998271
1.00492 1.002 1.00573 0.997205
1.00576 1.00735 1 0.998425
1 1 1 1
1.00141 1 1.00179 0.999619
1.00543 1.0069 1 0.998542
1.03296 1.03649 1 0.996589
1.0002 1 1.00115 0.999051
1.00931 1.01216 1.00004 0.997142
1.02407 1.02726 1 0.996891
1.03761 1.04156 1 0.996214
1.00139 1 1.00206 0.999337
1.00104 1 1.00126 0.999776
1.0057 1 1.00744 0.998279
1.03522 1.03885 1 0.996505
1.03014 1.03351 1 0.996739
1.05686 1.06104 1 0.996059
1.00451 1.00639 1.00066 0.997468
1.04393 1.04787 1 0.99624
1.02785 1.03121 1.00047 0.996273
1.04397 1.04803 1 0.996124
1.00083 1 1.00097 0.999864
1.00397 1.00242 1.00372 0.997838
1.00555 1 1.00683 0.998725
1.00737 1.00298 1.0068 0.997597
1.06107 1.06524 1 0.996079
1.05069 1.05476 1 0.996141
1.0583 1.06242 1 0.996118
1.01592 1.01885 1.00049 0.996636
1.04549 1.04943 1 0.996247
1.03989 1.04242 1.00158 0.996006
1.05317 1.05729 1 0.996103
0.999613 1 1.00011 0.9995
0.999952 1 1 0.999952
1 1 1 1
1 1 1 1
1 1 1 1
1.00163 1 1.00207 0.999563
1 1 1 1
1.00207 1 1.0027 0.999364
1 1 1 1
1.00425 1.00587 1 0.998386
0.999662 1.00127 1 0.99839
1.03216 1.03579 1 0.9965
1.02569 1.02928 1 0.996507
0.998464 1.00007 1 0.998392
1 1 1 1
0.998392 1 1 0.998392
1.02306 1.02667 1 0.996487
1.02843 1.03203 1 0.996518
1.06498 1.06939 0.999595 0.996276
1.03509 1.03874 1 0.996483
1.06804 1.07211 0.999985 0.996222
1.02199 1.0256 1 0.996487
1.06354 1.06787 0.99969 0.996257
1.06833 1.07265 0.999703 0.996269
1.06593 1.07494 0.994965 0.996629
1.06585 1.06997 1 0.996151
1.06597 1.07348 0.996476 0.996515
0.99841 1 1 0.99841
0.998499 1.0001 1 0.9984
1.02282 1.02639 1 0.99652
1.0285 1.03181 1 0.996796
1 1 1 1
1.00015 1.00116 1.00004 0.998945
1.01968 1.02252 1 0.997224
1.0317 1.03498 1 0.996826
1.06244 1.06645 1 0.996235
1.05281 1.05678 1 0.996243
1.04605 1.05012 1 0.996129
1.05267 1.05671 1 0.996178
1.00134 1 1.00217 0.99917
1.00535 1.00044 1.007 0.997932
1.02205 1.02563 1 0.996503
1.02408 1.02737 1 0.996793
1.06245 1.06691 0.999486 0.996327
1.06357 1.0681 0.99952 0.996237
1.00004 1 1.00107 0.998973
1.01127 1.01392 1.00015 0.997238
1.03969 1.04368 1 0.996179
1.05737 1.06136 1 0.996241
1.06186 1.06789 0.997855 0.996494
1.05103 1.05524 1 0.996011
1.05631 1.06023 0.99999 0.996314
1.05283 1.0566 0.99999 0.996445
1.00438 1.00209 1.00466 0.997639
1.00593 1.00257 1.00617 0.997201
1.00708 1 1.00882 0.998272
1.06224 1.06633 0.999884 0.99628
1.06356 1.06827 0.999267 0.996326
1.06606 1.07349 0.996508 0.996556
1.06342 1.07128 0.996136 0.996514
1.05817 1.06312 0.998905 0.996442
1.05405 1.06533 0.992591 0.996801
1.00292 1.00482 1.00067 0.997448
1.05383 1.05945 0.998056 0.996625
1.02707 1.03078 1 0.99641
1.04326 1.04765 1 0.995814
1.04842 1.05256 1 0.996065
1.04577 1.05033 0.998929 0.996727
1.00704 1 1.00848 0.998574
1.00414 1.00641 1.00074 0.997012
1.0088 1.00043 1.01098 0.997414
1.00551 1.00575 1.00291 0.99687
1.03437 1.038 1 0.996502
1.00066 1 1.00087 0.999794
1.00163 1 1.00227 0.999361
1.00716 1 1.0089 0.998278
1.02955 1.03291 1 0.996741
1.05692 1.06111 1 0.996053
1.00174 1.00382 1.00046 0.997473
1.02906 1.03258 1.00033 0.996264
1.0448 1.04875 1 0.996239
1.04386 1.04791 1 0.996131
1.00037 1 1.0005 0.999877
1.00397 1.00157 1.00456 0.997842
1.00576 1 1.00704 0.998732
1.00678 1.00216 1.00703 0.997593
1.06116 1.06535 1 0.996073
1.0509 1.05497 1 0.996138
1.05778 1.06191 1 0.996115
1.01366 1.01661 1.00045 0.996642
1.04503 1.04898 1 0.996234
1.03749 1.03986 1.00173 0.995993
1.05251 1.05654 1 0.996194
0.999922 1 1 0.999922
1.00315 1 1.00408 0.999067
1.00762 1.00857 1.00191 0.997158
1.00956 1.00124 1.01035 0.997979
1.00516 1.0046 1.00322 0.997346
1.063 1.06726 0.999783 0.996223
1.05141 1.05548 1 0.996144
1.05271 1.05674 0.999885 0.996295
1.01772 1.01952 1.00199 0.996246
1.04544 1.04933 1 0.99629
1.03153 1.03496 1.00086 0.995838
0.999422 1 1 0.999422
1.00029 1 1.00146 0.998838
0.999568 1 1 0.999568
0.999502 1 1 0.999502
0.99997 1 1 0.99997
0.999957 1 1 0.999957
1 1 1 1
1 1 1 1
1 1 1 1
1.00069 1 1.00094 0.999751
1 1 1 1
1.00181 1 1.00226 0.999546
1 1 1 1
1.00184 1 1.0025 0.999347
1 1 1 1
1.03416 1.03781 1 0.996479
1.0288 1.03239 1 0.996517
1.06702 1.07107 1 0.99622
1.06425 1.0686 0.999661 0.996274
1.02345 1.02706 1 0.996487
0.998391 1 1 0.998391
1.02213 1.02574 1 0.996488
1.06327 1.06756 0.999722 0.996258
1.06708 1.07134 0.999748 0.996267
1.06565 1.07519 0.994469 0.996647
1.06529 1.06941 1 0.996146
1.0665 1.07389 0.9966 0.996514
1.06232 1.06653 0.999809 0.996248
1.06545 1.07451 0.994899 0.996653
1.06587 1.07495 0.994946 0.996595
1.05978 1.07131 0.992354 0.996861
1.06424 1.06969 0.998511 0.996383
1.0588 1.07363 0.989296 0.996857
1.022 1.02559 1 0.996497
1.02441 1.02771 1 0.996787
1.06201 1.0668 0.999148 0.996356
1.06481 1.06884 1 0.996225
0.999673 1 1.00071 0.998963
1.01362 1.01628 1.00015 0.997238
1.04033 1.0443 1 0.996203
1.05714 1.06115 1 0.996216
1.06113 1.06754 0.99744 0.996547
1.05644 1.06036 0.999982 0.996318
1.05052 1.05473 1 0.996004
1.05296 1.05672 1 0.996437
1.00486 1.00305 1.00417 0.997638
1.00594 1.00246 1.00629 0.997196
1.0072 1 1.00895 0.998273
1.06214 1.06625 0.999871 0.99627
1.06334 1.06825 0.999069 0.996325
1.06549 1.07353 0.99589 0.996603
1.06343 1.07084 0.996589 0.996488
1.00544 1.00713 1.00089 0.997446
1.02683 1.03053 1 0.996409
1.04218 1.0465 1.00003 0.995845
1.05869 1.06331 0.999256 0.996397
1.05365 1.06568 0.991831 0.996849
1.04955 1.05374 1 0.996025
1.05399 1.05956 0.998109 0.996626
1.04694 1.05128 0.999098 0.996765
1.00554 1.00716 1.00138 0.997012
1.0052 1.00502 1.00337 0.996825
1.00635 1 1.00779 0.998572
1.00831 1.00027 1.01061 0.997455
1.06536 1.0733 0.995986 0.996604
1.06703 1.07509 0.995953 0.996537
1.05489 1.06694 0.991902 0.996777
1.05255 1.06772 0.98888 0.996877
1.05395 1.0629 0.994785 0.996775
1.05296 1.06763 0.9892 0.997023
1.01221 1.01553 1 0.996726
1.04575 1.05525 0.99398 0.996995
1.0294 1.03353 1 0.995997
1.03917 1.04351 1.00018 0.99566
1.04818 1.0523 1 0.996077
1.04948 1.05404 0.998878 0.996793
1.00271 1 1.00387 0.998849
1.01196 1.00077 1.01352 0.997694
1.00812 1.01151 1 0.996648
1.00783 1.00387 1.00686 0.997102
1.00829 1.00597 1.00565 0.996669
0.999998 1 1.00011 0.999891
1.06122 1.06541 1 0.996066
1.00571 1 1.00698 0.998739
1.00397 1.00083 1.0053 0.997847
1.00589 1.00129 1.00703 0.997588
1.05105 1.05513 1 0.996135
1.05732 1.06144 1 0.996112
1.01361 1.01651 1.00051 0.996647
1.03746 1.03964 1.00193 0.99598
1.04467 1.04863 1 0.996221
1.05272 1.05665 1 0.996284
0.999931 1 1 0.999931
1.00306 1 1.00399 0.999077
1.00536 1.00687 1.00134 0.997165
1.01053 1.00109 1.01148 0.997974
1.00483 1.0039 1.00363 0.997302
1.06272 1.06696 0.999814 0.996217
1.05119 1.05526 1 0.996142
1.05248 1.05657 0.999846 0.996284
1.01885 1.02052 1.00213 0.996245
1.04864 1.05256 1 0.996274
1.03174 1.03502 1.00096 0.995871
1.00034 1 1.00105 0.999294
1.0062 1 1.00784 0.998366
1.00307 1.00583 1.00048 0.99678
1.01174 1.00383 1.01029 0.99762
1.00713 1.00789 1.00203 0.99721
1.05931 1.06558 0.997653 0.996457
1.04662 1.05055 1 0.996259
1.05009 1.05495 0.998874 0.996513
1.0058 1.00592 1.00379 0.9961
1.02875 1.03304 1 0.995854
0.999544 1 1.00012 0.999424
0.998988 1 1.00024 0.998746
1.00043 1 1.00162 0.998812
1.00032 1 1.00176 0.99856
1.00009 1 1.00119 0.998896
0.99961 1 1 0.99961
0.999571 1 1 0.999571
0.999984 1 1 0.999984
0.999504 1 1 0.999504
0.999974 1 1 0.999974
1 1 1 1
0.999962 1 1 0.999962
1 1 1 1
1 1 1 1
0.999925 1 1.00002 0.999901
1.00133 1 1.0016 0.999731
1 1 1 1
1 1 1 1
1.00242 1 1.00289 0.999529
1 1 1 1
1.06483 1.06896 1 0.996142
1.06615 1.07038 0.999781 0.996265
1.06715 1.07442 0.99671 0.996513
1.06548 1.07554 0.993962 0.996664
1.06294 1.06719 0.999755 0.996258
1.02224 1.02584 1 0.996487
1.06223 1.06642 0.999818 0.996248
1.06526 1.0742 0.995015 0.996648
1.06646 1.07559 0.994901 0.996596
1.05919 1.07127 0.991809 0.996891
1.0652 1.07056 0.998609 0.996377
1.05906 1.07376 0.989396 0.996879
1.06541 1.07391 0.995454 0.996623
1.05729 1.07016 0.991109 0.996841
1.0601 1.07282 0.991192 0.996927
1.05982 1.07575 0.988148 0.997011
1.05977 1.0713 0.992523 0.996691
1.06049 1.07822 0.986433 0.99708
1.06199 1.06613 0.999858 0.99626
1.06305 1.0682 0.99885 0.996323
1.06483 1.07353 0.995233 0.99665
1.06332 1.0703 0.997005 0.996462
1.00714 1.00858 1.00112 0.997445
1.02445 1.02814 1 0.996407
1.04046 1.04458 1.00018 0.995875
1.05926 1.06355 0.99962 0.996352
1.05329 1.06601 0.99114 0.996898
1.05416 1.05968 0.998154 0.996627
1.05055 1.05478 1 0.995986
1.04779 1.05193 0.999254 0.996803
1.00773 1.00867 1.00206 0.997012
1.00526 1.00522 1.00326 0.99678
1.00618 1 1.00762 0.99857
1.00754 1.00012 1.00995 0.997496
1.06544 1.07337 0.996002 0.996603
1.06666 1.07465 0.996025 0.996519
1.055 1.06723 0.991712 0.996808
1.05352 1.06781 0.989719 0.99686
1.01296 1.01618 1.00012 0.996719
1.02798 1.03205 1.00003 0.996033
1.03908 1.04321 1.00039 0.995648
1.05462 1.06293 0.995449 0.996724
1.05149 1.06663 0.988691 0.997079
1.04546 1.0496 1 0.996062
1.0469 1.05653 0.99387 0.996995
1.04981 1.05432 0.998859 0.996859
1.00717 1.01055 1 0.996651
1.0062 1.00614 1.00342 0.996656
1.00722 1.00276 1.00737 0.997097
1.00338 1 1.00457 0.998818
1.01129 1.00029 1.01329 0.997737
1.05615 1.06907 0.991058 0.996824
1.05633 1.07044 0.989939 0.996843
1.05197 1.07195 0.984254 0.997063
1.04696 1.06297 0.987815 0.997083
1.01495 1.01865 1 0.996367
1.05084 1.06089 0.99334 0.997167
1.0171 1.02113 1.00029 0.995767
1.03266 1.03681 1.00051 0.99549
1.04254 1.04667 0.999978 0.996075
1.00028 1 1.00116 0.999122
1.0095 1 1.01141 0.998119
1.00749 1.00003 1.01007 0.997415
1.00611 1.00917 1.00046 0.996509
1.00885 1.00483 1.00729 0.996721
1.00911 1.00683 1.00578 0.996497
0.999939 1 1 0.999939
1.00265 1 1.00357 0.999088
1.06241 1.06661 0.999847 0.996212
1.01182 1.00091 1.01295 0.997968
1.00223 1.00433 1.00074 0.997172
1.00457 1.00342 1.0039 0.997258
1.05086 1.05493 1 0.99614
1.05236 1.05649 0.999809 0.996272
1.01876 1.02027 1.00229 0.996244
1.03072 1.03416 1.00077 0.995903
1.052 1.05595 1 0.996258
0.999872 1 1.00057 0.9993
1.00702 1 1.00866 0.998369
1.00551 1.00836 1.00041 0.996758
1.01201 1.00323 1.01117 0.997615
1.00745 1.00851 1.00175 0.997199
1.05834 1.06452 0.997736 0.996452
1.04823 1.05218 1 0.996246
1.0511 1.0559 0.998918 0.996537
1.00748 1.00819 1.00324 0.996068
1.027 1.03125 1.00006 0.995823
1.00163 1 1.00298 0.998653
1.0112 1.00013 1.01316 0.997931
1.00483 1.00625 1.002 0.996606
1.01331 1.0087 1.00726 0.997336
1.01863 1.02062 1.00103 0.997017
1.0505 1.06386 0.990457 0.99695
1.04945 1.05353 1 0.996128
1.05276 1.05734 0.999172 0.996496
1.00894 1.00862 1.00433 0.996003
1.01368 1.01814 1 0.995622
0.999442 1 1.00002 0.999427
0.998892 1 1.00013 0.998761
0.998706 1 1.00019 0.99852
0.999786 1 1.001 0.998787
0.99966 1 1.00077 0.998894
1.00096 1 1.00242 0.998539
0.999539 1 1.00102 0.998522
1.00153 1 1.00305 0.998482
0.999153 1 1.00021 0.998944
0.999605 1 1 0.999605
0.99961 1 1 0.99961
0.999994 1 1 0.999994
0.999574 1 1 0.999574
0.999988 1 1 0.999988
1 1 1 1
0.999979 1 1 0.999979
1 1 1 1
1 1 1 1
0.999974 1 1 0.999974
1.00012 1 1.00024 0.999878
1 1 1 1
1.00162 1 1.00191 0.999711
1 1 1 1
1 1 1 1
1.06616 1.07143 0.998707 0.996372
1.0668 1.07597 0.994866 0.996596
1.05928 1.07385 0.989498 0.996901
1.05859 1.07118 0.9913 0.99692
1.06512 1.07392 0.995151 0.996643
1.06219 1.06637 0.999827 0.996249
1.06547 1.07373 0.995688 0.996605
1.05787 1.0703 0.991528 0.996834
1.05947 1.07221 0.991172 0.996912
1.05843 1.07512 0.987421 0.997021
1.05941 1.07072 0.992724 0.996693
1.05809 1.07664 0.985611 0.997117
1.05821 1.07018 0.991971 0.996815
1.05936 1.0768 0.986748 0.997011
1.06054 1.07843 0.986276 0.997101
1.05286 1.07431 0.982854 0.997134
1.06557 1.07347 0.996019 0.996602
1.06638 1.07429 0.996125 0.996501
1.05519 1.06757 0.991535 0.996839
1.05453 1.06799 0.990518 0.996843
1.01458 1.01777 1.00016 0.996712
1.027 1.03105 1 0.996069
1.039 1.04295 1.00058 0.995637
1.05512 1.06283 0.996063 0.996673
1.04999 1.06565 0.98813 0.997134
1.04794 1.05767 0.993784 0.996995
1.04332 1.04746 1 0.996047
1.05096 1.05513 0.999116 0.996926
1.00362 1.00672 1.00026 0.996653
1.00575 1.0066 1.00252 0.996643
1.00793 1.00215 1.00871 0.997093
1.0036 1 1.00482 0.998788
1.01092 1.00004 1.01313 0.99778
1.05628 1.06915 0.991109 0.996826
1.05688 1.07104 0.989911 0.996839
1.05227 1.0712 0.985229 0.997055
1.01508 1.01878 1 0.996365
1.01716 1.02119 1.00026 0.995803
1.03115 1.03505 1.00076 0.995478
1.04726 1.06288 0.988195 0.99707
1.04563 1.04981 0.999821 0.996195
1.04703 1.05745 0.992998 0.997133
1.00055 1 1.00138 0.99917
1.00603 1.0076 1.00194 0.996504
1.00914 1.00536 1.00718 0.996608
1.01196 1.0064 1.00884 0.996716
1.00963 1.0016 1.01061 0.997437
1.00973 1 1.01167 0.998085
1.05817 1.07497 0.987435 0.996898
1.05624 1.07884 0.981997 0.997
1.04546 1.0697 0.980143 0.99714
1.04229 1.06458 0.981739 0.997279
1.00993 1.01352 1.00027 0.996188
1.04211 1.04868 0.996993 0.996728
1.0072 1.0102 1.00165 0.995399
1.01997 1.02367 1.00104 0.995341
0.999502 1 1 0.999502
1.00379 1 1.00528 0.998517
1.00862 1 1.01088 0.99776
1.01034 1.00222 1.01122 0.996916
1.00648 1.00491 1.00519 0.996392
1.01343 1.00537 1.01174 0.996323
0.999667 1 1.00036 0.999305
1.00786 1 1.00951 0.998373
1.05748 1.06358 0.997817 0.996447
1.01179 1.00238 1.01181 0.99761
1.00796 1.01099 1.00027 0.996736
1.00678 1.00808 1.00152 0.997187
1.04993 1.0539 1 0.996233
1.05199 1.05672 0.998957 0.99656
1.00963 1.01089 1.00273 0.996035
1.02513 1.02918 1.00027 0.995791
1.0016 1 1.00295 0.998657
1.01152 1.00005 1.01359 0.997908
1.00527 1.00669 1.00198 0.996613
1.01303 1.00903 1.00664 0.997343
1.02043 1.02293 1.00048 0.997075
1.05281 1.06597 0.990628 0.996997
1.04889 1.05293 1 0.996163
1.05358 1.0581 0.999148 0.996574
1.00966 1.00912 1.00458 0.995969
1.01327 1.01778 1.00003 0.995538
1.00275 1 1.00441 0.998347
1.01154 1.00193 1.01208 0.997548
1.01291 1.01258 1.00378 0.996554
1.01701 1.01854 1.00161 0.996898
1.05043 1.08455 0.97121 0.997244
1.04991 1.05916 0.994243 0.997006
1.03492 1.03933 1 0.995757
1.01607 1.01624 1.00426 0.995593
0.999064 1 1.00029 0.998776
0.998791 1 1.00027 0.998525
0.998613 1 1.00004 0.998578
0.99986 1 1.00097 0.998892
1.00208 1 1.00357 0.998518
0.999227 1 1.00029 0.998941
0.999411 1 1.00087 0.998543
1.00206 1 1.00358 0.99849
0.998675 1 1 0.998675
1.00187 1 1.00351 0.99836
1.00094 1 1.0025 0.998449
0.998921 1 1 0.998921
0.999565 1 1 0.999565
0.999603 1 1 0.999603
0.999998 1 1 0.999998
0.999611 1 1 0.999611
0.999996 1 1 0.999996
1 1 1 1
0.999991 1 1 0.999991
1 1 1 1
1 1 1 1
0.999996 1 1 0.999996
0.999959 1 1 0.999959
1 1 1 1
1.00053 1 1.00068 0.999855
1 1 1 1
1 1 1 1
1.05897 1.07006 0.992921 0.996695
1.05895 1.07173 0.991151 0.996897
1.05577 1.07512 0.984814 0.997153
1.05698 1.07449 0.986639 0.997031
1.05845 1.07048 0.991907 0.996827
1.06552 1.07355 0.995916 0.996586
1.05797 1.07006 0.991853 0.996815
1.05915 1.07645 0.986887 0.997002
1.05904 1.07758 0.985661 0.997099
1.05366 1.07493 0.983018 0.997145
1.06032 1.07674 0.987755 0.996957
1.06019 1.08325 0.981501 0.99716
1.06043 1.08611 0.979096 0.997207
1.05639 1.0692 0.991164 0.996827
1.05736 1.07154 0.989895 0.996835
1.05265 1.07043 0.986296 0.997048
1.01728 1.02099 1 0.996363
1.01686 1.02093 1.00018 0.995839
1.02944 1.03326 1.00085 0.995466
1.04763 1.0629 0.988545 0.997056
1.04283 1.05413 0.992156 0.997099
1.04827 1.05267 0.999501 0.996316
1.00571 1.00628 1.00294 0.996498
1.00391 1.00204 1.00516 0.996719
1.01349 1.00749 1.00928 0.99671
1.0007 1 1.00148 0.99922
1.01004 1.00263 1.00996 0.997459
1.01021 1 1.01219 0.99805
1.05885 1.07535 0.987714 0.996907
1.05545 1.07856 0.981512 0.997004
1.04579 1.06961 0.980547 0.997132
1.00769 1.01146 1.00009 0.996181
1.00698 1.01015 1.0014 0.995474
1.02005 1.02381 1.0009 0.995437
1.04284 1.06438 0.982433 0.997281
1.03774 1.04517 0.996168 0.996705
0.999576 1 1 0.999576
1.00354 1 1.00504 0.998514
1.00339 1.00353 1.00344 0.996432
1.01607 1.00455 1.01503 0.99649
1.01091 1.00351 1.01044 0.996969
1.00863 1.00021 1.01072 0.997715
1.05819 1.08184 0.981005 0.997079
1.04597 1.08139 0.970065 0.997095
1.04234 1.06958 0.977139 0.997324
1.03135 1.05006 0.984867 0.997277
1.00211 1.00485 1.00133 0.995945
1.02132 1.02451 1.00109 0.995803
1.00773 1.00991 1.00264 0.995211
0.999775 1 1 0.999775
0.999214 1 1 0.999214
0.999797 1 1.0009 0.998894
1.00361 1 1.00562 0.997999
1.00965 1 1.01234 0.997344
1.01514 1.00331 1.01517 0.996667
1.00404 1.00192 1.00553 0.996608
1.03919 1.00243 1.03997 0.996836
1.00127 1 1.00262 0.99866
1.01213 1 1.01428 0.997886
1.05529 1.06817 0.99087 0.997044
1.01476 1.01109 1.0063 0.997349
1.00572 1.00696 1.00215 0.99662
1.02183 1.02473 1.00004 0.997133
1.04825 1.05225 1 0.996199
1.05437 1.05884 0.999127 0.996653
1.01011 1.00937 1.00482 0.995936
1.01265 1.01728 1 0.995454
1.00306 1 1.00476 0.998303
1.01005 1.00095 1.01158 0.997543
1.01635 1.01563 1.00415 0.996573
1.01694 1.01861 1.00142 0.996939
1.05186 1.087 0.970333 0.997263
1.05262 1.06106 0.995081 0.996952
1.03335 1.0377 1 0.995812
1.01806 1.01877 1.00377 0.995543
1.00364 1 1.00551 0.998144
1.05899 1.09325 0.971314 0.99727
1.0057 1.00197 1.00658 0.997164
1.01643 1.01744 1.00268 0.996334
1.03706 1.07035 0.971435 0.997385
1.02887 1.03379 0.999337 0.9959
1.01283 1.01431 1.00323 0.995321
0.998856 1 1.00033 0.998531
0.99839 0.99961 1.00021 0.998569
0.999051 0.999409 1.00092 0.998727
0.999083 1 1.00015 0.998938
1.00203 1 1.00354 0.998498
0.999495 1 1.00093 0.998564
0.998917 1 1 0.998917
1.0011 1 1.00265 0.998455
0.998803 1 1.0001 0.998704
1.00116 1 1.00279 0.998371
0.998815 1 1 0.998815
0.999102 1 1.00057 0.998537
1.00174 1 1.00353 0.998218
0.998944 1 1.00059 0.998358
0.998833 1 1 0.998833
0.999518 1 1 0.999518
0.999561 1 1 0.999561
0.999999 1 1 0.999999
0.999601 1 1 0.999601
0.999998 1 1 0.999998
1 1 1 1
0.999997 1 1 0.999997
1 1 1 1
1 1 1 1
0.999808 1 1 0.999808
1 1 1 1
0.999992 1 1 0.999992
1 1 1 1
0.999945 1 1 0.999945
1 1 1 1
1 1 1 1
1.05447 1.07556 0.983193 0.997155
1.05758 1.07673 0.985076 0.997096
1.059 1.07612 0.987062 0.996993
1.05768 1.06989 0.991743 0.996815
1.05998 1.07677 0.987389 0.996976
1.06018 1.08291 0.981808 0.997151
1.05749 1.08319 0.979003 0.997213
1.05972 1.08345 0.980899 0.997143
1.07205 1.09854 0.978583 0.997244
1.07448 1.10315 0.976447 0.997509
1.05958 1.07576 0.988007 0.996915
1.05443 1.07828 0.980819 0.997009
1.04619 1.06953 0.980998 0.997124
1.00633 1.01014 1.00006 0.996174
1.00786 1.01109 1.00126 0.995551
1.02197 1.02576 1.00078 0.995534
1.0436 1.06391 0.98358 0.997284
1.03327 1.04118 0.995705 0.996682
1.00491 1.00369 1.00477 0.996472
1.02115 1.00487 1.01962 0.996654
1.01283 1.00488 1.01092 0.997021
0.999649 1 1 0.999649
1.00332 1 1.00481 0.998511
1.0087 1.00012 1.01093 0.997669
1.05789 1.08216 0.980425 0.997089
0.99977 1 1 0.99977
0.999173 1 1 0.999173
1.04729 1.08039 0.972191 0.997097
1.04044 1.06795 0.976879 0.997294
1.00304 1.00511 1.00192 0.996027
1.00733 1.00883 1.00332 0.995218
1.02035 1.02468 0.999988 0.99579
1.03037 1.04995 0.984063 0.997249
1.00003 1 1.00104 0.998983
1.0039 1 1.00592 0.997988
1.00417 1.00188 1.00581 0.996497
1.03352 1.00226 1.03434 0.996956
1.0124 1.00232 1.01341 0.996684
1.00866 1 1.01133 0.99736
1.06905 1.09922 0.975294 0.997193
1.0278 1.07921 0.955012 0.997226
1.02739 1.05864 0.972941 0.997471
1.01333 1.02974 0.987058 0.996967
1.00546 1.0028 1.00648 0.996202
1.00774 1.00696 1.0055 0.995291
0.999119 1 1 0.999119
0.999189 1 1 0.999189
0.999064 1.0002 1 0.998861
0.999434 1 1.00119 0.998244
1.0088 1 1.01112 0.997711
1.00704 1.00036 1.00971 0.996994
1.05701 1.00014 1.06032 0.996743
0.996358 1.00049 0.998475 0.997388
1.00381 1 1.00557 0.998259
1.008 1 1.01049 0.997538
1.05279 1.08856 0.96977 0.997283
1.05494 1.0626 0.995886 0.996897
1.01706 1.01897 1.00115 0.99698
1.0206 1.01959 1.00441 0.99659
1.03215 1.03639 1.00004 0.995867
1.02073 1.02193 1.00335 0.995492
1.00382 1 1.00571 0.998121
1.06188 1.09697 0.970597 0.997337
1.00585 1.00115 1.00751 0.997208
1.01428 1.01535 1.00269 0.99627
1.03707 1.06994 0.971843 0.99736
1.02743 1.03234 0.999248 0.995991
1.01402 1.01524 1.00348 0.995335
1.0074 0.999534 1.01003 0.997862
1.01025 1.05524 0.959521 0.997755
1.00453 1.00248 1.00515 0.99691
1.0052 1.00564 1.00379 0.995787
1.01715 1.03429 0.986496 0.996899
1.0028 1.00504 1.00221 0.995575
0.962479 1.00299 0.962687 0.996801
0.997863 0.998921 1.00038 0.99856
0.99896 0.998336 1.0019 0.998731
1.00057 0.999684 1.00222 0.998668
0.998914 1 1 0.998914
1.00194 1 1.00349 0.998462
1.00015 1 1.00177 0.998383
0.998916 1 1.00018 0.998735
0.998832 1 1 0.998832
0.999056 1 1.0007 0.998357
0.998781 1 1 0.998781
1.00159 1 1.00337 0.998219
0.998969 1 1.00046 0.998509
0.999721 1 1.00095 0.99877
0.99871 1 1.00067 0.998043
1.00225 1 1.00407 0.998183
0.998506 1 1.00028 0.998228
0.998669 1 1 0.998669
1.00031 1 1.00189 0.998419
0.999038 1 1.0004 0.998634
0.999497 1 1 0.999497
0.999515 1 1 0.999515
1 1 1 1
0.999557 1 1 0.999557
0.999999 1 1 0.999999
1 1 1 1
0.999999 1 1 0.999999
1 1 1 1
1 1 1 1
0.999845 1 1 0.999845
0.999809 1 1 0.999809
1 1 1 1
0.999999 1 1 0.999999
1 1 1 1
0.999987 1 1 0.999987
1 1 1 1
1 1 1 1
1.05466 1.08049 0.978816 0.99722
1.05997 1.08246 0.982026 0.997142
1.05962 1.07679 0.987019 0.996995
1.05954 1.08325 0.980916 0.997141
1.06895 1.09554 0.978425 0.997239
1.07314 1.10163 0.976649 0.997426
1.07634 1.108 0.974042 0.997309
0.962297 1.01605 0.952066 0.994776
1.02425 1.06052 0.967519 0.998225
0.999293 1 1 0.999293
1.05764 1.08243 0.979945 0.997098
1.04873 1.07963 0.974207 0.997099
1.03825 1.06657 0.976113 0.997264
1.00003 1.00311 1.00082 0.996107
1.00578 1.00656 1.00402 0.995224
1.01844 1.02343 0.999344 0.995778
1.02899 1.04977 0.982942 0.997221
0.998795 1.00199 1.00042 0.996391
1.02764 1.00163 1.02897 0.997084
1.00891 1.00101 1.01123 0.996702
0.999764 1 1 0.999764
1.00903 1 1.01169 0.997376
1.00007 1 1.001 0.99907
1.00419 1 1.00623 0.997977
0.999132 1 1 0.999132
1.06569 1.09951 0.971963 0.9972
0.999171 1 1 0.999171
0.999299 1 1.00011 0.99919
0.998855 1.00056 0.99947 0.998823
1.03212 1.07972 0.958571 0.997224
1.02671 1.05824 0.972711 0.997423
1.00183 1.00217 1.00344 0.996235
1.01248 1.01169 1.00537 0.995431
1.01194 1.02738 0.987986 0.996948
0.999378 1 1.00107 0.998307
1.00829 1 1.01066 0.997658
1.00728 1.00031 1.00975 0.997235
1.04585 1.00049 1.04873 0.996758
1.00694 1.0006 1.00932 0.997049
1.04127 1.08843 0.95925 0.997309
1.00641 1.06578 0.946773 0.997386
1.0188 1.03939 0.98303 0.997108
0.993905 1.01275 0.984623 0.996716
1.00297 1 1.00599 0.996997
0.998691 1 1 0.998691
0.999085 1.00036 1.00012 0.998605
1.00033 1 1.00174 0.998596
1.01002 1 1.01201 0.998033
1.01061 1 1.01305 0.997597
1.04188 0.999906 1.04495 0.99716
1.03134 1.00176 1.03222 0.99739
1.00377 1 1.00569 0.998096
1.00536 1 1.00813 0.997253
1.06357 1.10116 0.968381 0.997401
1.0376 1.0703 0.972041 0.997334
1.02626 1.03125 0.999076 0.996082
1.01093 1.01207 1.00268 0.996206
1.01469 1.01577 1.0036 0.99535
1.00751 0.999817 1.00979 0.997919
1.01127 1.0563 0.959475 0.997803
1.00152 1.00165 1.00297 0.996918
1.00409 1.00424 1.00408 0.995787
1.01547 1.03355 0.98543 0.997028
1.00353 1.00525 1.00273 0.995572
0.963408 1.00269 0.964995 0.995672
1.00748 0.999369 1.01034 0.9978
0.995196 1.02546 0.972676 0.997749
1.00087 1.00137 1.00281 0.9967
1.00424 1.00169 1.00644 0.996135
0.99201 1.00648 0.988797 0.996789
0.90122 0.97436 0.952201 0.971366
0.891281 0.963066 0.939453 0.985107
0.961031 0.981472 0.982072 0.997048
0.694709 0.82104 0.900265 0.939872
0.607055 0.769023 0.857442 0.920628
0.99899 0.997484 1.00278 0.998734
1.00135 0.998277 1.00437 0.998721
1.00217 1 1.00347 0.998703
0.998831 1 1 0.998831
0.998944 1 1.00059 0.998355
1.00088 1 1.00266 0.99822
0.998921 1 1.00044 0.99848
0.998747 1 1 0.998747
1.00301 1 1.00486 0.998163
0.998706 1 1 0.998706
0.998471 1 1.00022 0.998248
0.999376 1 1.00066 0.998713
0.999226 1 1.00113 0.998101
1.00392 1 1.00581 0.998121
1.00573 1 1.00743 0.99832
1.0036 1 1.00549 0.998114
0.998981 1 1.00085 0.998133
0.998638 1 1 0.998635
0.999295 1 1.00105 0.998244
0.999975 1 1.00167 0.998304
0.999863 1 1.00139 0.998479
1.00019 1 1.00182 0.998381
0.998938 1 1.00018 0.99876
0.99916 1 1.00053 0.998631
0.999491 1 1 0.999491
0.999497 1 1 0.999497
1 1 1 1
0.999511 1 1 0.999511
1 1 1 1
1 1 1 1
0.999999 1 1 0.999999
1 1 1 1
1 1 1 1
0.999891 1 1 0.999891
0.999842 1 1 0.999842
1 1 1 1
0.999811 1 1 0.999811
1 1 1 1
1 1 1 1
0.999999 1 1 0.999999
1 1 1 1
1 1 1 1
1.0657 1.09244 0.978228 0.997234
1.0595 1.08314 0.980981 0.997139
1.07194 1.0994 0.977619 0.997344
0.963639 1.01581 0.953536 0.994863
1.07364 1.1056 0.973713 0.997308
1.03453 1.06334 0.974768 0.998093
1.05457 1.07951 0.979401 0.99744
0.916718 0.97696 0.953353 0.984249
0.985553 1.01971 0.970625 0.995752
0.999328 1 1 0.999328
0.999287 1 1 0.999287
0.9988 1 1 0.9988
0.99892 1 1 0.99892
1.06282 1.09929 0.96953 0.997207
1.03638 1.07939 0.962825 0.997221
1.02684 1.05792 0.973173 0.997374
1.00055 1.00123 1.00306 0.996268
1.01725 1.01715 1.00455 0.995572
1.01086 1.02532 0.988936 0.996929
1.01893 1 1.02191 0.997078
1.03582 1.00099 1.03814 0.996772
1.00634 1.00037 1.00889 0.997104
0.999584 1 1.00039 0.999192
1.00621 1 1.00863 0.997606
0.999313 1 1.00094 0.998372
0.999224 1 1 0.999224
0.998923 1.00096 0.999179 0.998785
1.04019 1.08822 0.958422 0.997324
0.998718 1 1 0.998718
0.99901 1.00058 0.999747 0.998683
0.999713 0.999624 1.00129 0.998798
1.01317 1.06913 0.95016 0.997375
1.01947 1.03936 0.983712 0.997108
1.00164 1.00081 1.00386 0.99698
0.996925 1.01213 0.988145 0.996793
1.00822 1 1.0103 0.997944
1.0104 1 1.01298 0.997452
1.03669 1.0023 1.03704 0.997368
1.04161 1.00066 1.04399 0.997058
0.995779 1.05355 0.947521 0.997515
0.997155 1.0423 0.9592 0.997381
1.00805 1.0159 0.995486 0.996764
0.977496 1.00098 0.97868 0.99781
1.00308 1 1.00459 0.998498
1.00344 1 1.00521 0.998237
1.01751 0.999516 1.01986 0.998177
1.06278 1.00086 1.06464 0.99739
0.881956 0.968228 0.941741 0.967248
1.00833 1 1.01037 0.997977
0.999676 1.00091 1.00185 0.996924
1.01288 1.05722 0.960119 0.997854
1.01353 1.03233 0.984593 0.997157
1.00413 1.00529 1.0033 0.995564
1.00351 1.00327 1.00447 0.995785
0.963907 1.00365 0.965706 0.994508
1.00585 0.998985 1.00903 0.997857
0.993885 1.02626 0.970654 0.997728
1.00075 1.00148 1.00257 0.996714
1.00479 1.00255 1.00611 0.996144
0.995291 1.00761 0.990973 0.996775
0.895484 0.979248 0.945372 0.967303
0.885456 0.958727 0.940469 0.982036
0.965376 0.98214 0.985798 0.997091
0.689198 0.815067 0.898263 0.941343
0.593947 0.76043 0.853288 0.915362
1.00252 0.998898 1.00566 0.997979
0.720224 0.83324 0.915252 0.944403
0.641444 0.778944 0.893905 0.921215
0.986816 1.00577 0.983308 0.997805
1.00877 1.00152 1.00993 0.997342
1.01431 1.0055 1.01157 0.997227
0.952997 0.97121 0.983745 0.997461
0.871701 0.951167 0.945376 0.969407
0.852669 0.929182 0.93634 0.980045
0.678348 0.807133 0.888614 0.945789
0.660673 0.827023 0.870866 0.917314
1.00206 0.99701 1.0063 0.998773
1.00167 0.998803 1.0042 0.998676
1.01004 1 1.01122 0.998837
0.998744 1 1 0.998744
0.998268 1 1 0.998267
1.00366 1 1.00553 0.998143
1.00017 1 1.00201 0.99816
0.998655 1 1 0.998655
0.998656 1 1.00002 0.998636
1.00443 1 1.00635 0.998099
1.00389 1 1.00579 0.998113
0.998499 1 1.00032 0.998178
1.00636 0.999943 1.00807 0.998359
1.00662 1 1.00837 0.99826
1.02004 1 1.02157 0.998499
1.00206 1 1.00405 0.998009
0.999011 1 1.0008 0.998208
0.998874 1 1.00064 0.998238
1.00049 1 1.00217 0.998329
1.00036 1 1.00226 0.998101
0.999537 1 1.00115 0.998392
1.00355 1 1.00513 0.998432
1.00776 1 1.0096 0.998173
1.00027 1 1.00182 0.998451
0.999543 1 1.00106 0.998482
0.999062 1 1.00027 0.998795
0.999948 1 1.00161 0.998343
0.998904 1 1.00018 0.998728
0.999472 1 1 0.999472
0.99926 1 1.00063 0.998628
0.999493 1 1 0.999493
0.999998 1 1 0.999998
0.999497 1 1 0.999497
1 1 1 1
1 1 1 1
1 1 1 1
1 1 1 1
1 1 1 1
0.999273 1 1 0.999273
0.999904 1 1 0.999904
0.999887 1 1 0.999887
1 1 1 1
0.999839 1 1 0.999839
1 1 1 1
1 1 1 1
1 1 1 1
1 1 1 1
1 1 1 1
0.965812 1.01543 0.95596 0.994953
1.07223 1.10398 0.973859 0.997307
1.04321 1.06713 0.979581 0.997958
0.907248 0.97253 0.946649 0.985449
0.985806 1.01999 0.970404 0.995959
1.05235 1.08282 0.974403 0.997395
0.993325 1.03053 0.967475 0.996304
0.92334 0.975191 0.959287 0.987014
0.89929 0.976582 0.95026 0.969055
0.695051 0.818827 0.897371 0.945916
0.566254 0.722108 0.852696 0.919633
0.99887 1 1 0.99887
0.999326 1 1 0.999326
0.999281 1 1 0.999281
0.998804 1 1 0.998804
0.998881 1 1.00027 0.998607
0.998579 1 1 0.998579
0.998756 1 1 0.998756
0.998874 1 1 0.998874
1.03887 1.08954 0.95604 0.997338
1.01993 1.07357 0.952552 0.997363
1.01875 1.03897 0.98338 0.997107
1.0018 1.00189 1.00296 0.996965
0.999729 1.01145 0.991515 0.996871
1.04532 1.00267 1.04531 0.997344
1.04221 1.00185 1.04346 0.996957
1.01061 1 1.01334 0.997308
0.998467 1.00077 0.99894 0.99876
1.00852 1 1.01069 0.997851
0.998746 1 1 0.998746
0.998481 0.999479 1 0.999002
0.993883 1.05449 0.944843 0.997546
1.00234 0.999844 1.00401 0.998491
1.00495 1 1.00664 0.998325
0.994401 1.04016 0.958541 0.997355
1.00521 1.01664 0.991813 0.996919
0.981084 1.00131 0.982084 0.997671
1.02802 1.00022 1.02997 0.997888
1.05803 1.00221 1.05841 0.997432
0.972098 1.02966 0.946535 0.997423
0.99099 1.0133 0.980561 0.997366
0.973878 1.00166 0.974753 0.997447
0.979793 1.00004 0.981717 0.997997
1.00716 1 1.00918 0.997992
1.01602 1 1.01794 0.998118
1.05396 0.999991 1.05635 0.997747
0.73181 0.842706 0.917138 0.946865
0.898637 0.976416 0.946419 0.972447
1.00348 0.99888 1.0067 0.997915
1.00046 1.00132 1.00242 0.99673
0.994331 1.02733 0.970098 0.997708
0.998282 1.00903 0.992561 0.996763
1.00548 1.00363 1.00571 0.996158
0.895738 0.97385 0.948806 0.969419
0.889427 0.967443 0.935591 0.98265
0.966967 0.981285 0.988241 0.997134
0.699171 0.816945 0.904058 0.946661
0.582035 0.752925 0.849565 0.909915
1.00238 0.999381 1.00503 0.997982
0.725983 0.84233 0.911719 0.945329
0.62263 0.761671 0.890479 0.917992
0.98685 1.00691 0.982245 0.997797
1.00856 1.00206 1.00916 0.997353
1.01231 1.00365 1.01128 0.997377
0.946699 0.965171 0.983141 0.997681
0.883464 0.964161 0.948334 0.966224
0.849233 0.925052 0.93426 0.982637
0.686481 0.807167 0.901218 0.943703
0.661603 0.835024 0.864787 0.916199
1.00428 0.999688 1.00605 0.99856
0.667724 0.79132 0.915851 0.921341
0.736876 0.867742 0.913944 0.929146
0.984927 0.991952 0.994266 0.998644
1.0157 1.00254 1.0146 0.998559
0.956947 0.957569 1.00227 0.997091
0.864484 0.915568 0.959475 0.984085
0.827561 0.909976 0.943101 0.964299
0.694366 0.800946 0.917579 0.944804
0.719911 0.888123 0.879989 0.921146
1.00214 0.998609 1.00489 0.99865
1.00809 1 1.00931 0.998789
1.00897 0.999034 1.01089 0.999074
0.998637 1 1 0.998637
0.998223 1 1 0.998223
1.00478 1 1.00669 0.998111
1.00544 1 1.00737 0.998077
1.00642 0.999794 1.00825 0.998398
0.998819 1 1.00061 0.998205
1.00524 1 1.00704 0.998218
1.00207 1 1.00407 0.998012
1.01883 0.999486 1.02083 0.998562
1.0373 0.997826 1.04051 0.999094
1.01175 1 1.0135 0.998268
1.00102 1 1.00306 0.997968
0.998623 1 1.00039 0.998233
1.00097 1 1.00262 0.998353
1.0009 1 1.00281 0.998091
1.00013 1 1.00175 0.998375
1.00149 1 1.00295 0.998542
1.00428 1 1.00596 0.998328
1.00608 1 1.0078 0.998292
1.00359 0.998938 1.00609 0.998578
0.999566 1 1.00131 0.998258
0.999691 1.00119 1.00093 0.997571
1.00593 1 1.0079 0.998051
1.00648 1 1.00832 0.998175
1.00681 1 1.00852 0.998302
1.00147 1 1.00303 0.99845
0.999108 1 1.00034 0.998768
0.99955 1 1.00107 0.998484
0.999163 1 1.00036 0.998799
0.999447 1 1 0.999447
0.99895 1 1.00025 0.998696
0.999475 1 1 0.999475
0.999989 1 1 0.999989
0.999495 1 1 0.999495
0.999996 1 1 0.999996
1 1 1 1
1 1 1 1
1 1 1 1
1 1 1 1
0.999271 1 1 0.999271
0.999873 1 1 0.999873
0.999275 1 1 0.999275
1 1 1 1
0.999904 1 1 0.999904
0.999883 1 1 0.999883
1 1 1 1
1 1 1 1
1 1 1 1
1 1 1 1
1 1 1 1
0.717679 0.833584 0.91513 0.940802
0.62811 0.771848 0.885245 0.919264
0.906604 0.972971 0.944991 0.98603
0.987517 1.02006 0.971816 0.996178
1.0502 1.0842 0.971209 0.997351
0.908453 0.957984 0.959448 0.988376
0.994562 1.03025 0.968748 0.996498
0.911343 0.98809 0.951017 0.969833
0.687611 0.819232 0.891661 0.941319
0.573222 0.738117 0.849345 0.914352
0.934723 0.995352 0.947269 0.991363
0.891835 0.964661 0.953133 0.969965
0.681981 0.811423 0.88932 0.945076
0.653107 0.823222 0.865029 0.917143
1.00083 1 1.00242 0.998412
0.99891 1 1 0.99891
0.999324 1 1 0.999324
0.998809 1 1 0.998809
0.99893 1 1.00024 0.998688
0.999397 1 1.00109 0.998312
0.998554 1 1 0.998554
0.998541 1 1.00017 0.998374
0.998709 1 1 0.998709
0.998828 1 1 0.998828
0.991658 1.05415 0.943007 0.997577
0.991318 1.03753 0.95802 0.997331
1.00431 1.01805 0.989401 0.997075
0.983239 1.00177 0.983926 0.997532
1.04891 1.00345 1.04795 0.997474
1.039 1.00078 1.04069 0.997602
1.00507 1 1.00667 0.998412
1.00174 0.99955 1.00372 0.998483
0.972041 1.03006 0.946014 0.997522
1.00854 1 1.01062 0.997943
1.01596 1 1.01793 0.998071
0.985201 1.01127 0.976851 0.997307
0.972083 1.00161 0.972899 0.997551
0.979035 1.0008 0.98027 0.997941
1.04689 0.999837 1.04949 0.997685
0.96719 1.00318 0.966378 0.997664
0.963576 0.998309 0.966871 0.998279
1.0129 0.999281 1.01549 0.998169
1.0099 1 1.01206 0.997871
1.01305 1 1.01526 0.997821
1.02891 1 1.03111 0.997863
0.696603 0.80674 0.926475 0.932006
0.734886 0.84118 0.922246 0.947293
0.886946 0.973421 0.941864 0.967406
1.00152 0.998844 1.00471 0.997983
1.00836 1.00225 1.00876 0.997361
0.989165 1.00814 0.983353 0.997788
1.0108 1.00232 1.01097 0.997522
0.72658 0.837638 0.915052 0.947941
0.878412 0.960385 0.945565 0.967299
0.847779 0.921574 0.938553 0.980153
0.945678 0.961508 0.985617 0.997889
0.683142 0.811602 0.89598 0.939441
0.619316 0.759207 0.887166 0.919491
0.661128 0.832397 0.862873 0.920467
1.00431 0.999402 1.00638 0.998534
0.669822 0.792084 0.914052 0.92516
0.750737 0.881279 0.917168 0.928807
0.984099 0.989835 0.995455 0.998745
1.01583 1.00178 1.01554 0.99851
0.953985 0.955543 1.00066 0.997712
0.855003 0.920668 0.946134 0.98155
0.85777 0.924811 0.957801 0.968373
0.70675 0.816519 0.920387 0.940434
0.711889 0.879849 0.875218 0.92446
1.00774 0.998081 1.01026 0.999431
0.773285 0.888526 0.929249 0.936564
0.746007 0.883972 0.904581 0.932948
0.979831 0.963832 1.01689 0.999715
0.895537 0.918626 0.98573 0.988978
0.857583 0.903977 0.981374 0.966683
0.774732 0.876091 0.943197 0.937562
0.758489 0.92522 0.886217 0.925048
1.00745 1 1.00872 0.998741
1.01069 0.998561 1.0131 0.999061
1.02545 0.992004 1.03438 0.999354
0.999011 1 1.00081 0.998202
1.00212 1 1.00412 0.998016
1.00324 1 1.00507 0.998176
1.01814 0.999176 1.02038 0.998625
1.00167 1 1.00371 0.997968
1.01105 1 1.01282 0.998258
1.0427 0.99901 1.0446 0.999173
1.0444 0.993739 1.05156 0.999446
1.04107 0.998789 1.0433 0.999068
1.00547 1 1.00731 0.998175
1.00108 1 1.003 0.99808
1.00048 1 1.00213 0.998359
0.999344 1 1.00069 0.998651
1.00551 1 1.00721 0.998314
1.00311 1 1.00479 0.998327
1.00562 0.999491 1.00754 0.998605
1.00339 0.999614 1.00542 0.998374
1.01188 0.997963 1.015 0.998962
0.996642 1.00089 0.997339 0.998413
1.00004 1.00061 1.00117 0.998269
0.99859 1.00008 1.00069 0.997816
1.00374 1.00564 1.00153 0.996592
1.00363 1.00084 1.00489 0.997909
0.999229 1.00056 1.00079 0.997881
1.00599 1 1.00795 0.998054
1.01173 1 1.01364 0.998113
1.00477 1 1.00661 0.998177
1.00617 1 1.00788 0.998301
0.9998 1 1.00116 0.99864
1.00222 1 1.00378 0.998448
0.998846 1 1.00008 0.998765
0.999414 1 1 0.999414
0.999002 1 1.0002 0.998803
0.999448 1 1 0.999448
0.999973 1 1 0.999973
0.999478 1 1 0.999478
0.999984 1 1 0.999984
1 1 1 1
0.999994 1 1 0.999994
1 1 1 1
1 1 1 1
0.998988 1 1 0.998988
0.999817 1 1 0.999817
0.999189 1 1 0.999189
1 1 1 1
0.999878 1 1 0.999878
0.999277 1 1 0.999277
1 1 1 1
1 1 1 1
0.999905 1 1 0.999905
1 1 1 1
1 1 1 1
1 1 1 1
0.657715 0.786633 0.904442 0.924454
0.724865 0.840388 0.913779 0.943923
0.743587 0.879316 0.911075 0.928181
0.625029 0.770485 0.883876 0.917793
0.907957 0.966316 0.953219 0.985719
0.994768 1.03083 0.968209 0.996704
0.913284 0.985658 0.954933 0.970301
0.701941 0.82209 0.902616 0.945972
0.582715 0.757198 0.846628 0.908979
0.936165 0.989673 0.955114 0.990388
0.880419 0.961551 0.949579 0.964242
0.695326 0.818669 0.900636 0.943042
0.646882 0.819958 0.863087 0.91407
0.901995 0.96909 0.942814 0.98722
0.837688 0.908758 0.956733 0.963481
0.727615 0.846685 0.916532 0.937631
0.715219 0.884662 0.880397 0.918297
1.00294 1 1.00489 0.998061
0.99992 1 1.00146 0.998464
0.99895 1 1 0.99895
0.99877 1 1 0.99877
0.998489 1 1.00058 0.997914
0.998717 1 1.00035 0.998367
0.99853 1 1 0.99853
0.998347 1 1 0.998347
0.998475 1 1.00006 0.998415
0.998663 1 1 0.998663
0.972333 1.0311 0.945254 0.99762
0.981399 1.00949 0.974852 0.997252
0.968197 1.00129 0.969224 0.997655
0.980693 1.00197 0.98084 0.997887
1.03844 1 1.04092 0.997621
1.01588 1 1.01789 0.998026
1.00931 1 1.01144 0.997895
1.00953 1 1.01173 0.997819
0.965939 1.0034 0.964872 0.997714
1.01207 1 1.0143 0.997796
1.02895 1 1.03117 0.997839
0.962941 0.998909 0.965653 0.998281
1.00753 1.00069 1.00873 0.998126
0.947986 0.977562 0.971673 0.998016
0.970384 0.97735 0.993633 0.999235
1.04277 0.998976 1.04553 0.998379
1.00521 1 1.00737 0.997856
1.0234 1 1.02544 0.998009
0.786 0.898583 0.929593 0.940961
0.694586 0.805343 0.926502 0.93089
0.725962 0.837149 0.919511 0.943092
1.00364 0.99926 1.00588 0.99851
1.0164 1.00078 1.01717 0.998461
0.979892 0.987448 0.993491 0.998849
0.668165 0.790848 0.912632 0.925752
0.840866 0.913093 0.955387 0.963901
0.859927 0.917603 0.953268 0.983086
0.943606 0.949655 0.995276 0.998347
0.71531 0.82715 0.914887 0.945241
0.758644 0.887776 0.920206 0.928646
0.714532 0.880526 0.877483 0.924785
1.00609 0.998275 1.00846 0.999376
0.772062 0.888747 0.925781 0.938351
0.745004 0.88242 0.90479 0.933115
0.981495 0.967712 1.01472 0.999529
0.909038 0.930643 0.987822 0.988827
0.826149 0.896393 0.957837 0.962207
0.755689 0.923208 0.884708 0.925217
0.791689 0.882624 0.954518 0.939713
0.99887 0.971912 1.02803 0.999711
0.758437 0.877011 0.916274 0.94382
0.779263 0.91441 0.91066 0.935809
0.713175 0.882848 0.879448 0.918544
0.947326 0.937364 1.01357 0.997101
0.898673 0.926231 1.00218 0.968134
0.845996 0.931579 0.963431 0.942601
1.01272 0.998001 1.01572 0.999046
1.02598 0.993856 1.03308 0.99927
1.02972 0.98291 1.04808 0.999566
1.00184 1 1.00388 0.997968
1.00915 0.999959 1.01096 0.998247
1.04713 0.999258 1.04869 0.999251
1.00573 1 1.00757 0.99818
1.04121 0.998871 1.04335 0.999079
1.04757 0.993822 1.05469 0.999421
1.03817 0.988473 1.05081 0.999489
1.02587 0.9976 1.02931 0.999058
1.00458 1 1.00625 0.998339
1.00234 1 1.00402 0.998326
1.00784 0.999966 1.00925 0.998634
1.01116 0.998586 1.01367 0.998933
1.0033 0.999795 1.00514 0.99838
1.00334 0.999673 1.00485 0.998828
0.997369 1.00008 0.998566 0.998721
1.00323 1.00013 1.00579 0.997319
1.00042 1.00123 1.00091 0.998285
0.99971 1.00141 1.00059 0.997709
1.00029 1.00243 1.0016 0.996271
1.01559 1.01821 1.00129 0.996139
1.00426 1.004 1.00276 0.997509
1.00195 1.00392 1.00138 0.996658
1.01095 1 1.01311 0.997871
1.00491 1.00149 1.0055 0.99792
0.998831 1 1.00065 0.998187
1.00638 1 1.00834 0.998058
1.01069 1 1.01256 0.998148
1.00401 1 1.00554 0.998471
1.00573 1 1.00744 0.9983
1.00002 1 1.00139 0.998641
0.999326 1 1 0.999326
0.998761 1 1 0.998761
0.999411 1 1 0.999411
0.99996 1 1 0.99996
0.999449 1 1 0.999449
0.999969 1 1 0.999969
1 1 1 1
0.999979 1 1 0.999979
1 1 1 1
1 1 1 1
0.998702 1 1 0.998702
0.99959 1 1 0.99959
0.998986 1 1 0.998986
1 1 1 1
0.999759 1 1 0.999759
0.999108 1 1 0.999108
1 1 1 1
1 1 1 1
0.999883 1 1 0.999883
1 1 1 1
1 1 1 1
1 1 1 1
0.774923 0.898177 0.920929 0.936851
0.661689 0.787263 0.905628 0.928077
0.716993 0.834838 0.910558 0.943203
0.998231 1 1 0.998231
0.751771 0.881707 0.910867 0.936065
0.742713 0.879049 0.910446 0.928013
0.634477 0.782108 0.88045 0.921392
0.945561 0.993379 0.962258 0.989197
0.8731 0.9499 0.948331 0.969229
0.697974 0.832875 0.892888 0.938561
0.638864 0.803849 0.867117 0.91655
0.899445 0.964478 0.947721 0.984014
0.853434 0.919077 0.959342 0.967932
0.724456 0.83448 0.925215 0.938324
0.712972 0.881298 0.87993 0.919395
0.846697 0.914779 0.944116 0.980363
0.835215 0.893418 0.968957 0.964804
0.803298 0.891056 0.958584 0.940463
0.758966 0.923537 0.888424 0.925012
1.00145 1 1.00358 0.997869
1.00403 1 1.00603 0.998018
0.999318 1 1.0008 0.998516
0.998229 1 1.00018 0.998047
0.998721 1 1.00073 0.997992
0.998421 1 1 0.998421
0.99835 1 1 0.99835
0.998481 1 1.00003 0.998456
0.964908 1.00401 0.963223 0.997748
0.962979 1.00077 0.963882 0.998291
1.00939 1 1.01165 0.997766
1.00172 1.00195 1.00169 0.998082
1.03027 1 1.03253 0.997815
1.01188 1 1.01414 0.997771
1.0062 1 1.00836 0.997864
0.950326 0.976516 0.974981 0.998153
1.02098 1 1.023 0.998022
1.03222 0.99987 1.03399 0.998423
0.969696 0.980588 0.989602 0.999283
1.00741 1 1.00936 0.998071
0.936024 0.953274 0.984198 0.99767
1.00012 0.977574 1.0236 0.999477
1.05871 0.996851 1.06362 0.998536
1.02685 0.999099 1.02962 0.998213
0.765403 0.877918 0.92027 0.947373
0.785746 0.898901 0.929345 0.940575
0.693957 0.803406 0.929036 0.929747
1.00344 0.99832 1.00581 0.999322
0.984626 0.971121 1.01457 0.999346
0.773874 0.891819 0.923058 0.940078
0.850019 0.893303 0.983361 0.967647
0.898099 0.929343 0.980929 0.985169
0.785322 0.876567 0.955105 0.938019
0.74602 0.883521 0.904776 0.933239
0.754561 0.922872 0.883546 0.925388
1.00417 0.980146 1.02485 0.999669
0.759973 0.878709 0.916377 0.943799
0.780584 0.912525 0.911902 0.938053
0.959338 0.945281 1.0157 0.999183
0.710736 0.879549 0.878776 0.919539
0.869419 0.906643 0.993583 0.965136
0.846254 0.931631 0.964129 0.942154
0.995828 0.96654 1.0306 0.999713
0.789716 0.905189 0.921208 0.947051
0.749304 0.877727 0.911597 0.936474
0.650076 0.821103 0.863057 0.917334
0.801122 0.889924 0.957833 0.939844
0.939188 0.939812 1.0061 0.993276
0.905324 0.9244 1.01943 0.960695
1.02468 0.996028 1.0296 0.999188
1.02951 0.980951 1.04999 0.999534
1.01766 0.967378 1.05242 0.999582
1.00716 1 1.00899 0.998186
1.04505 0.99887 1.04719 0.999091
1.0544 0.994633 1.06073 0.999396
1.02182 0.997968 1.02488 0.999045
1.03621 0.990317 1.04688 0.999488
1.00886 0.986242 1.02372 0.999235
1.01108 0.999261 1.01294 0.998903
1.00333 0.999954 1.005 0.998387
1.00681 0.999827 1.00819 0.998805
1.01257 0.998761 1.01577 0.998083
0.998322 0.999294 1 0.999028
1.0001 1.00016 1.00241 0.997539
1.00455 1.00163 1.00716 0.995783
1.00534 1.00756 1.00233 0.995473
1.00078 1.00278 1.0004 0.997596
1.0007 1.0031 1.00155 0.996059
1.01741 1.02075 1.00053 0.996211
1.01145 1.01201 1.00261 0.996842
1.01425 1.0168 1.00125 0.996245
1.00804 1.00076 1.00962 0.997674
1.00699 1.00617 1.00335 0.997474
0.999582 1.00158 1.00128 0.996726
1.01043 1 1.0122 0.998255
1.01026 1 1.01239 0.997898
1.00623 1.00215 1.00616 0.997931
1.00952 1 1.01135 0.998182
1.00404 1 1.00558 0.998472
0.999923 1 1.00076 0.999164
1.0002 1 1.00157 0.998641
0.999448 1 1.00013 0.999321
0.999949 1 1 0.999949
0.999408 1 1 0.999408
0.999958 1 1 0.999958
1 1 1 1
0.999965 1 1 0.999965
1 1 1 1
1 1 1 1
0.998612 1 1 0.998612
0.999408 1 1 0.999408
0.998755 1 1 0.998755
1 1 1 1
0.99957 1 1 0.99957
0.998983 1 1 0.998983
1 1 1 1
1 1 1 1
0.999702 1 1 0.999702
1 1 1 1
1 1 1 1
1 1 1 1
0.765538 0.88068 0.919143 0.945727
0.77679 0.897185 0.92416 0.93686
0.662734 0.786454 0.907845 0.928227
0.998272 1 1 0.998272
0.998996 1 1.00081 0.998184
0.99819 1 1 0.99819
0.780635 0.916849 0.910183 0.935453
0.748671 0.88146 0.907215 0.936222
0.740876 0.878516 0.908886 0.927869
0.906294 0.971846 0.945697 0.986097
0.82374 0.905944 0.943821 0.963384
0.723571 0.822246 0.931433 0.944774
0.720275 0.888688 0.88349 0.917376
0.850519 0.920618 0.939525 0.983322
0.850295 0.902005 0.977024 0.96484
0.788107 0.875229 0.956694 0.941218
0.756137 0.92321 0.885357 0.925085
0.86153 0.913975 0.961087 0.980784
0.87431 0.910172 0.994211 0.966192
0.845342 0.92856 0.965413 0.942995
0.724404 0.891553 0.881972 0.921252
0.998673 1 1.00064 0.998031
1.00174 1 1.00392 0.997829
1.00374 1 1.00577 0.997974
0.998109 1 1.00008 0.998033
0.998467 1 1.0004 0.998071
0.998353 1 1 0.998353
0.948447 0.971131 0.978316 0.998288
0.967876 0.980102 0.988208 0.99931
1.00693 1 1.00908 0.997872
1.02403 1.0005 1.02509 0.998466
1.02087 1 1.02288 0.998034
1.00941 1 1.01135 0.998086
1.02191 0.996565 1.02723 0.998251
0.943067 0.952794 0.992006 0.997767
1.05431 0.995277 1.06072 0.998678
1.00377 0.972087 1.03329 0.999321
1.01377 0.995056 1.02042 0.998418
0.968522 0.95213 1.01988 0.997388
1.01306 0.972318 1.04267 0.999264
1.03547 0.977999 1.06004 0.998792
0.804196 0.912767 0.928025 0.949385
0.768663 0.879395 0.922198 0.947824
0.784966 0.899116 0.928577 0.940193
1.00999 0.988301 1.02233 0.999627
0.948561 0.94318 1.00809 0.997637
0.760716 0.879218 0.91676 0.943779
0.866528 0.894429 0.999464 0.969325
0.843298 0.932346 0.963454 0.9388
0.781664 0.911651 0.911863 0.94029
0.720295 0.887504 0.884416 0.917662
0.991037 0.962565 1.02982 0.999764
0.789528 0.90336 0.922017 0.947911
0.751573 0.882436 0.909314 0.936643
0.934659 0.935748 1.00985 0.98909
0.643883 0.816643 0.862235 0.914427
0.78537 0.873954 0.955746 0.94025
0.911303 0.929331 1.01427 0.966804
1.00518 0.953691 1.05562 0.998458
0.766333 0.878975 0.92166 0.945955
0.754044 0.886579 0.91579 0.928717
0.566603 0.719933 0.855108 0.920377
0.71631 0.836251 0.913734 0.937443
0.879183 0.909639 1.00114 0.965423
0.910689 0.928392 0.994995 0.985865
1.02659 0.979982 1.04808 0.999501
1.02397 0.976743 1.04878 0.999585
1.00985 0.978793 1.03226 0.999487
1.01581 0.998409 1.01841 0.999032
1.0316 0.991862 1.04059 0.999487
1.01236 0.982647 1.03094 0.999319
1.00613 0.996742 1.01066 0.998771
1.01023 1 1.01147 0.998781
1.00979 0.999405 1.01258 0.99784
1.02245 1.00094 1.02544 0.996148
0.996696 1.00005 0.99888 0.997761
1.00566 1.0016 1.00826 0.995826
1.00565 1.00256 1.00821 0.994915
1.00853 1.01159 1.00191 0.99508
1.01021 1.01333 1.00108 0.995845
1.00536 1.00741 1.00256 0.995415
1.00093 1.00366 1.00143 0.99585
1.01298 1.01538 1.0011 0.996541
1.01846 1.02175 1.00048 0.996302
1.00524 1.00342 1.00464 0.997193
1.01383 1.01418 1.00274 0.996924
1.01399 1.01651 1.00117 0.996351
1.01186 1 1.01396 0.997934
1.00848 1.00171 1.00912 0.997668
1.00993 1.00866 1.00383 0.997437
1.0026 1 1.00364 0.998966
1.00906 1 1.01082 0.998253
1.00953 1 1.01163 0.997925
1.00392 1 1.00546 0.998473
1.00034 1 1.00118 0.99916
0.999914 1 1 0.999914
0.999573 1 1.00026 0.999316
0.999942 1 1 0.999942
1 1 1 1
0.999955 1 1 0.999955
1 1 1 1
1 1 1 1
0.998556 1 1 0.998556
0.999373 1 1 0.999373
0.998641 1 1 0.998641
0.999992 1 1 0.999992
0.999455 1 1 0.999455
0.998809 1 1 0.998809
1 1 1 1
1 1 1 1
0.999551 1 1 0.999551
1 1 1 1
1 1 1 1
1 1 1 1
0.78798 0.904317 0.920391 0.946721
0.7696 0.881723 0.922936 0.945716
0.77894 0.895942 0.927954 0.93691
1.00744 1 1.00941 0.998053
1.0029 1 1.00495 0.99796
0.998314 1 1 0.998314
0.999547 1 1.00138 0.998167
0.998196 1 1 0.998196
1.00063 1 1.00247 0.998163
0.998236 1 1 0.998236
0.74968 0.889258 0.903762 0.932812
0.783887 0.915367 0.91323 0.937731
0.7498 0.879494 0.910455 0.936384
0.754635 0.923314 0.883411 0.925176
0.851395 0.922562 0.941004 0.980718
0.851394 0.8983 0.982474 0.96469
0.797549 0.88968 0.949786 0.943838
0.846466 0.91476 0.944451 0.979767
0.876201 0.904752 1.00723 0.961494
0.84408 0.929085 0.963545 0.94288
0.714093 0.88238 0.875323 0.92455
0.890636 0.925621 0.97907 0.982773
0.890719 0.91468 1.01304 0.961267
0.778979 0.879027 0.944715 0.938044
0.662655 0.830582 0.869877 0.917165
1.02665 0.999915 1.0284 0.998382
1.0003 1 1.00225 0.998058
1.00264 1 1.00486 0.997789
0.99802 1 1 0.99802
0.95361 0.955765 0.999849 0.997895
1.00547 0.969838 1.03761 0.999157
1.00899 1 1.01091 0.998101
1.01666 0.995938 1.02256 0.998288
1.04339 0.990168 1.05499 0.998821
1.01395 0.998193 1.01739 0.99842
1.03832 0.977868 1.06312 0.998779
0.967925 0.95159 1.02144 0.995812
1.01205 0.96359 1.0509 0.999422
1.01213 0.981733 1.03209 0.998906
0.95293 0.926227 1.03386 0.995132
1.00296 0.953377 1.05277 0.999282
0.767614 0.877572 0.923088 0.947583
0.801605 0.910699 0.925557 0.951005
0.772659 0.880945 0.924927 0.948269
0.986471 0.956809 1.0312 0.999805
0.94047 0.939628 1.00725 0.993695
0.787511 0.900892 0.921333 0.948784
0.913515 0.933982 1.01723 0.961518
0.788983 0.88296 0.947602 0.942976
0.755545 0.884931 0.911395 0.936793
0.637564 0.801043 0.868102 0.916847
1.00592 0.955802 1.05383 0.998678
0.769355 0.883513 0.920546 0.945951
0.747203 0.88046 0.913944 0.92856
0.912785 0.928714 0.99425 0.988533
0.574596 0.737864 0.850919 0.915163
0.713041 0.824569 0.922095 0.937804
0.875675 0.906338 1.00443 0.961909
0.992806 0.959581 1.03817 0.996589
0.777641 0.90158 0.920367 0.93716
0.627666 0.769045 0.887079 0.920056
0.685173 0.814281 0.889665 0.9458
0.827313 0.878453 0.974768 0.966163
0.868081 0.904073 0.978262 0.981526
1.03195 0.98166 1.05166 0.99959
1.01292 0.976095 1.03825 0.999493
0.979656 0.974226 1.00631 0.999265
1.01695 0.979326 1.03904 0.999402
1.00312 0.988363 1.01607 0.998877
1.00346 1.0008 1.00501 0.99766
1.00708 1.00003 1.00949 0.997597
1.02088 1.00096 1.02399 0.996003
1.01049 1.00098 1.01447 0.995101
1.00724 1.00186 1.00954 0.995868
1.00636 1.00236 1.00922 0.994822
1.00174 1.00263 1.00448 0.994662
1.03248 1.03734 1 0.995318
1.0189 1.02282 1.00077 0.995407
1.00887 1.01172 1.00218 0.995022
1.01069 1.01447 1.00013 0.99615
1.00872 1.01211 1.00074 0.995909
1.00544 1.0072 1.00291 0.995357
1.01091 1.01322 1.00112 0.996615
1.01239 1.01484 1.00108 0.996512
1.01903 1.02228 1.00043 0.996392
1.00663 1.00106 1.00807 0.997511
1.00625 1.00435 1.00463 0.997281
1.01544 1.01556 1.00288 0.997007
1.00806 1 1.00941 0.998659
1.01077 1.00006 1.01279 0.997941
1.009 1.00278 1.00855 0.997662
0.999851 1 1 0.999851
1.00335 1 1.0044 0.998961
1.00799 1 1.00975 0.998252
1.00084 1 1.00169 0.999155
0.999903 1 1 0.999903
1 1 1 1
0.999935 1 1 0.999935
1 1 1 1
1 1 1 1
1.00832 1 1.01029 0.998053
1.00186 1 1.0035 0.998369
0.999215 1 1 0.999215
0.998858 1 1.00031 0.998551
0.99997 1 1 0.99997
0.999376 1 1 0.999376
0.998671 1 1 0.998671
1 1 1 1
0.999994 1 1 0.999994
0.999501 1 1 0.999501
1 1 1 1
1 1 1 1
1 1 1 1
0.759948 0.878242 0.916864 0.943767
0.784786 0.900871 0.919311 0.947603
0.770172 0.884865 0.92036 0.945699
1.00898 1 1.01094 0.998064
1.00525 1.00012 1.00716 0.997974
1.00034 1 1.00243 0.997913
1.00968 1 1.01173 0.997982
1.00802 1.00033 1.00975 0.997951
1.00107 1 1.00293 0.998149
0.998202 1 1 0.998202
1.00024 1 1.00208 0.998167
0.998253 1 1 0.998253
1.01621 1 1.01793 0.998312
0.738034 0.870736 0.912488 0.928887
0.748748 0.886247 0.905501 0.933023
0.784785 0.914984 0.912455 0.939996
0.715225 0.883223 0.875564 0.924878
0.843252 0.930148 0.965217 0.939248
0.841737 0.910181 0.945365 0.978248
0.881393 0.907812 1.00538 0.965698
0.880536 0.926039 0.970991 0.97927
0.897051 0.925283 1.00373 0.965887
0.794756 0.882417 0.957385 0.940748
0.664119 0.838841 0.864349 0.915962
0.89636 0.915648 0.997025 0.981856
0.882613 0.90446 1.00958 0.966584
0.701696 0.805932 0.921825 0.944501
0.606975 0.768644 0.858366 0.919968
1.0247 0.999724 1.02606 0.99895
1.02712 0.999603 1.02918 0.998395
1.00308 1 1.005 0.998087
0.967962 0.951234 1.02356 0.994159
1.01324 0.957381 1.05878 0.999582
1.01498 0.999909 1.01667 0.998422
1.04402 0.977419 1.06946 0.998767
1.0153 0.985976 1.03086 0.998912
1.00936 0.961574 1.05046 0.999277
0.955466 0.932869 1.02929 0.995077
1.01338 0.988383 1.02596 0.999345
0.966328 0.951495 1.01975 0.995924
0.78675 0.899527 0.929984 0.940475
0.773461 0.881575 0.925464 0.948024
0.798349 0.908229 0.922718 0.952639
1.00733 0.963707 1.04646 0.998861
0.907705 0.925815 0.996443 0.983938
0.775176 0.888242 0.922584 0.945938
0.878385 0.91031 1.00202 0.962986
0.710327 0.810327 0.92849 0.944106
0.738328 0.874845 0.90899 0.928452
0.582539 0.75564 0.847313 0.909842
0.99018 0.958367 1.03645 0.996861
0.77718 0.896946 0.924587 0.937147
0.625782 0.769522 0.885255 0.918614
0.880302 0.916232 0.977266 0.983135
0.696288 0.819859 0.900038 0.943602
0.826969 0.889821 0.964732 0.96334
0.945193 0.944431 1.00592 0.994915
0.659247 0.787715 0.904724 0.925044
0.696714 0.81935 0.898294 0.946601
0.836059 0.910251 0.953197 0.963591
0.845215 0.905127 0.948946 0.984047
1.01303 0.974129 1.04045 0.9995
0.982741 0.970276 1.01362 0.999239
0.993215 0.98915 1.0057 0.998415
0.999795 0.978322 1.02299 0.998979
1.00265 1.00025 1.00465 0.997754
0.998303 1.00257 0.999119 0.996625
1.01922 1.00073 1.02272 0.995856
1.00933 1.00134 1.01294 0.995101
0.999531 1.00272 1.00137 0.995453
1.0065 1.00202 1.0098 0.99473
1.00207 1.0037 1.0037 0.9947
1.02871 1.03329 1 0.99556
1.05818 1.0625 0.999905 0.996023
1.04357 1.04836 1.00002 0.995416
1.03274 1.03756 1 0.99535
1.02348 1.0279 1 0.995699
1.0177 1.02135 1.00107 0.995349
1.00993 1.01257 1.00244 0.994963
1.01684 1.02063 1 0.996293
1.00912 1.01292 1.00002 0.996224
1.00699 1.01074 1.00032 0.995973
1.00381 1.0047 1.00208 0.997036
1.00817 1.01023 1.0013 0.996662
1.01242 1.01488 1.0011 0.996483
1.0102 1.00013 1.01191 0.998179
1.00827 1.002 1.00877 0.997513
1.00724 1.00508 1.0048 0.997368
1.00083 1 1.00108 0.999755
1.00747 1 1.00883 0.998652
1.01002 1.00018 1.01191 0.997949
0.999977 1 1 0.999977
1.00007 1 1.00023 0.999836
1.00386 1 1.00491 0.998955
0.999891 1 1 0.999891
1 1 1 1
1 1 1 1
1.00732 1.00085 1.00857 0.997903
1.00654 1 1.00837 0.998184
1.00947 1 1.01146 0.99803
0.999975 1 1.00093 0.999042
1.00141 1 1.00305 0.998365
0.999936 1 1 0.999936
0.99924 1 1.00002 0.99922
0.998684 1 1.00014 0.998546
1 1 1 1
0.999977 1 1 0.999977
0.999378 1 1 0.999378
1 1 1 1
0.999997 1 1 0.999997
1 1 1 1
0.771075 0.890349 0.920718 0.94061
0.763796 0.881423 0.918191 0.943757
0.78552 0.896945 0.92334 0.948483
0.999639 1.00138 1.00039 0.997867
1.00756 1 1.0095 0.998074
1.00369 1 1.00571 0.997989
1.00534 1 1.00739 0.997957
1.00041 1.00006 1.00241 0.997941
1.00444 1 1.00635 0.998104
1.01292 1.00034 1.01515 0.997465
1.0178 1 1.01974 0.998097
1.00032 1 1.00215 0.99817
0.99827 1 1 0.99827
1.01749 0.999995 1.01923 0.998295
1.03288 1.00068 1.03372 0.998508
0.641507 0.778289 0.895204 0.920744
0.750924 0.883584 0.915247 0.92856
0.749508 0.885593 0.906931 0.933184
0.663361 0.836208 0.862128 0.920161
0.790911 0.88052 0.956028 0.939546
0.892749 0.917 1.01269 0.961353
0.881195 0.920861 0.976456 0.979998
0.89644 0.917129 0.993391 0.983945
0.595798 0.762528 0.854138 0.914776
0.873463 0.905344 1.00225 0.962624
0.713209 0.821238 0.923905 0.939984
0.895954 0.925365 0.982379 0.985585
0.855803 0.900816 0.981342 0.968094
0.684354 0.812062 0.892359 0.944392
0.992118 1.00028 0.992304 0.999528
1.02456 1.00008 1.02555 0.998956
1.02703 0.99995 1.02872 0.998406
0.956982 0.936276 1.02714 0.995105
1.01646 0.970518 1.0481 0.999273
1.01802 0.991589 1.02777 0.998919
1.01204 0.987825 1.02519 0.999344
0.962358 0.950235 1.01686 0.995971
0.987408 0.982018 1.00816 0.997349
0.695842 0.805436 0.930715 0.928246
0.7833 0.898288 0.925191 0.9425
0.775184 0.884034 0.924539 0.948442
0.991346 0.958158 1.03771 0.997036
0.871671 0.913372 0.96984 0.984023
0.775014 0.892388 0.926665 0.937201
0.840209 0.886042 0.983747 0.96394
0.701501 0.836389 0.892945 0.93928
0.637087 0.782401 0.883035 0.922127
0.944371 0.938871 1.01094 0.994978
0.66341 0.788118 0.906492 0.928597
0.690125 0.819941 0.89348 0.942022
0.841138 0.907 0.945988 0.980335
0.854677 0.923564 0.955984 0.96802
0.939967 0.955927 0.985656 0.997615
0.715942 0.830449 0.915986 0.941188
0.893731 0.967048 0.952841 0.969925
0.845455 0.918609 0.939098 0.980051
0.985951 0.967699 1.01966 0.999219
0.984113 0.989356 0.996194 0.998501
0.995007 1.00076 0.996799 0.997439
1.00269 1.00025 1.0046 0.997848
1.00063 1.00265 1.00139 0.996593
1.00131 1.00537 0.999428 0.996528
1.00836 1.00188 1.01142 0.9951
0.999346 1.00223 1.00167 0.995457
1.03019 1.03663 0.9973 0.996482
1.00234 1.00444 1.00319 0.994738
1.02721 1.03178 1 0.99557
1.05773 1.0634 0.997995 0.996668
1.05776 1.06245 0.998821 0.996757
1.05934 1.06366 1 0.995937
1.05903 1.06338 0.99983 0.996072
1.04559 1.05016 1 0.995646
1.04161 1.04634 1 0.995485
1.03171 1.0365 1 0.995382
1.03309 1.03724 1 0.996003
1.02423 1.02849 1.00014 0.995723
1.01649 1.01979 1.00148 0.995292
1.01197 1.01539 1 0.996626
1.01522 1.019 1 0.996289
1.0073 1.01104 1 0.996297
1.004 1.00107 1.00523 0.997709
1.00625 1.00689 1.00234 0.997029
1.00497 1.00684 1.00145 0.99671
1.00243 1 1.00288 0.999551
1.00858 1.0006 1.00982 0.998176
1.00912 1.00293 1.00868 0.997513
1 1 1 1
1.00148 1 1.00177 0.999713
1.00668 1 1.00804 0.998646
1 1 1 1
1.00039 1 1.00058 0.999818
1 1 1 1
1.00173 1.00216 1.00185 0.997724
1.006 1.00049 1.00764 0.997879
1.00867 1 1.01067 0.998023
1.00302 1 1.00416 0.998863
1.00769 1 1.00953 0.998181
1.01201 1 1.01403 0.998006
0.999887 1 1 0.999887
0.999679 1 1.00063 0.999047
1.00183 1 1.00347 0.998361
1 1 1 1
0.999946 1 1 0.999946
0.999225 1 1 0.999225
1 1 1 1
0.999984 1 1 0.999984
1 1 1 1
0.667863 0.791509 0.915028 0.92214
0.774408 0.893705 0.921178 0.940658
0.767849 0.88504 0.919293 0.943754
1.00266 1.00079 1.00404 0.99784
1.00768 1.00411 1.00613 0.997448
1.0116 1.00106 1.0129 0.997659
1.00593 1 1.00801 0.997931
1.00178 1.00133 1.00248 0.997969
1.00534 1 1.0071 0.998254
1.01706 1 1.01906 0.998035
1.01344 1.0009 1.01498 0.997574
1.01812 1.00186 1.01872 0.997566
0.981795 1.00154 0.981304 0.998965
1.01622 1 1.01797 0.998277
1.02817 1.00023 1.02949 0.998486
0.693381 0.817447 0.903368 0.938962
0.622221 0.760785 0.891357 0.917553
0.759154 0.890638 0.918094 0.928413
0.585044 0.755982 0.850966 0.90942
0.721862 0.829944 0.920638 0.94475
0.859932 0.897954 0.993113 0.964298
0.900704 0.920814 0.99699 0.981113
0.883386 0.917242 0.979698 0.983047
0.689205 0.807982 0.904862 0.94268
0.835272 0.891348 0.971989 0.964095
0.86456 0.921295 0.952988 0.984712
0.828759 0.917406 0.936919 0.964195
0.998654 1 0.999629 0.999025
0.993037 1.00018 0.993375 0.999476
1.02501 0.999941 1.02614 0.998961
0.955879 0.94661 1.01382 0.996027
1.0102 0.986056 1.02515 0.999344
0.988904 0.984165 1.00753 0.997301
0.973733 0.988784 0.988481 0.996253
0.734129 0.84481 0.917915 0.946697
0.692784 0.802793 0.92934 0.928581
0.785464 0.900497 0.923546 0.944464
0.947723 0.945519 1.0072 0.995169
0.843674 0.904222 0.951343 0.980759
0.664592 0.788071 0.908064 0.928695
0.822929 0.907875 0.940445 0.963835
0.706276 0.825315 0.903942 0.946704
0.942151 0.95932 0.985737 0.996314
0.726482 0.840399 0.915419 0.94432
0.883346 0.963885 0.95011 0.964565
0.846166 0.919867 0.935996 0.982781
0.95188 0.980369 0.973446 0.997425
0.903438 0.977537 0.953577 0.969191
0.898197 0.96747 0.941855 0.985713
0.974971 0.988306 0.987923 0.998568
0.99014 1.00083 0.991885 0.997409
0.98262 1.00863 0.976898 0.997252
1.002 1.00294 1.00251 0.996563
1.00064 1.0055 0.998648 0.996521
1.02481 1.04378 0.984564 0.997212
0.99916 1.00185 1.00186 0.995462
1.02828 1.03593 0.996139 0.996459
1.04454 1.06332 0.985018 0.997281
1.02663 1.03119 1 0.995579
1.05617 1.06277 0.997119 0.996659
1.05082 1.06347 0.99081 0.997268
1.05233 1.06027 0.995346 0.997149
1.05855 1.06371 0.998315 0.996833
1.05616 1.05988 0.999888 0.996606
1.06023 1.06448 1 0.996
1.05946 1.06376 1 0.995962
1.0607 1.06509 0.999756 0.996121
1.04813 1.05248 1 0.995866
1.04735 1.0519 1 0.995674
1.0398 1.04444 1 0.995554
1.02958 1.03339 1 0.996314
1.03298 1.03712 1 0.996001
1.02491 1.02911 1.00017 0.995747
1.00126 1.00355 1.00034 0.997369
1.01349 1.01693 1 0.996623
1.01453 1.01831 1 0.996286
1.0022 1 1.00295 0.999259
1.00466 1.00175 1.00521 0.997707
1.00925 1.00923 1.003 0.997022
1 1 1 1
1.00283 1 1.00331 0.999525
1.00755 1.00083 1.00856 0.998173
0.99998 1 1 0.99998
1.00214 1 1.00244 0.9997
1 1 1 1
1.0007 1.00313 1 0.997576
1.00175 1.00112 1.00289 0.997742
1.00554 1 1.0077 0.997863
1.00377 1 1.00593 0.997855
1.00912 1 1.01111 0.998025
1.0063 1 1.00765 0.998665
1.00017 1 1.00035 0.999815
1.00215 1 1.00328 0.998864
1.00796 1 1.0098 0.998178
1 1 1 1
0.999901 1 1 0.999901
0.999394 1 1.00034 0.999052
1 1 1 1
0.999957 1 1 0.999957
1 1 1 1
0.720033 0.833375 0.915141 0.944114
0.67005 0.791842 0.916399 0.923387
0.775367 0.89524 0.920691 0.940706
1.00507 1.00012 1.00715 0.997812
1.01436 1.00047 1.01646 0.997462
1.00491 1.0031 1.00429 0.997518
1.006 1.00786 1.00164 0.99652
1.01466 1.00228 1.01482 0.997562
1.01529 1 1.01735 0.997977
1.01127 1.00037 1.01324 0.997684
1.01927 1.00153 1.02009 0.997675
0.999739 1.00404 0.998384 0.997328
0.973519 1.00119 0.973839 0.99848
0.971614 1.00035 0.973531 0.997682
0.983988 1.00101 0.983986 0.998995
1.02343 1.00054 1.02445 0.998466
0.8736 0.953268 0.947063 0.967652
0.686211 0.811432 0.899 0.940688
0.618324 0.757907 0.887741 0.918997
0.687047 0.815021 0.89832 0.938396
0.844026 0.901038 0.970721 0.96498
0.88871 0.914158 0.986333 0.985633
0.864147 0.919484 0.952586 0.986596
0.862483 0.928329 0.958665 0.96913
0.887763 0.96026 0.937912 0.985703
0.993048 1.00132 0.993511 0.998218
0.998065 1 0.999063 0.999001
0.99323 1 0.993801 0.999425
0.991907 0.987972 1.0067 0.997303
0.97982 0.991246 0.991797 0.996648
0.883916 0.966109 0.945897 0.967255
0.737318 0.843276 0.923007 0.947284
0.688451 0.798148 0.928518 0.928966
0.94516 0.965207 0.98422 0.99493
0.854079 0.930571 0.936272 0.980272
0.72043 0.836081 0.913163 0.943616
0.875372 0.951597 0.949086 0.969247
0.959253 0.980784 0.98048 0.997519
0.913119 0.98783 0.953246 0.969706
0.895752 0.963904 0.945409 0.982956
0.962442 1.00302 0.962549 0.996874
0.930572 0.991587 0.947842 0.990109
0.989172 1.00274 0.989037 0.997406
0.979792 1.00839 0.974363 0.997207
0.992153 1.0396 0.95669 0.997562
0.999639 1.00502 0.998123 0.996513
1.02721 1.04522 0.985547 0.997181
1.03989 1.07046 0.973799 0.997579
1.02603 1.03505 0.994836 0.996437
1.04453 1.06346 0.984908 0.997255
1.03729 1.06247 0.978741 0.997508
1.05385 1.06143 0.996201 0.99665
1.05055 1.06336 0.990681 0.997245
1.04747 1.06393 0.987142 0.997349
1.05138 1.06017 0.994489 0.997206
1.05135 1.05833 0.99643 0.99696
1.05892 1.06457 0.997774 0.996909
1.05606 1.05976 0.99991 0.996598
1.05707 1.06091 0.999999 0.996377
1.05743 1.06168 1 0.995995
1.05997 1.06424 1 0.995987
1.05946 1.06373 1 0.995986
1.04459 1.04866 1 0.996127
1.04851 1.05286 1 0.995867
1.0494 1.05393 1 0.995702
1.009 1.01193 1 0.997104
1.028 1.03181 1 0.996315
1.03243 1.03658 1 0.995999
1.00031 1 1.00138 0.998931
1.0037 1.00575 1.0006 0.99737
1.01449 1.01793 1 0.996621
1 1 1 1
1.0018 1 1.00257 0.999233
1.00513 1.00269 1.00473 0.997706
1 1 1 1
1.00306 1 1.00356 0.9995
1 1 1 1
1.01308 1.01602 1.00045 0.996665
1.00143 1.00382 1.00006 0.997561
1.00133 1.00147 1.00226 0.997605
1.00237 1 1.00461 0.997761
1.00485 1 1.00704 0.997825
1.00738 1 1.009 0.998394
1.01078 1 1.01278 0.998027
1.00674 1 1.00809 0.998663
1.00168 1 1.00197 0.999712
1 1 1 1
0.999942 1 1.00011 0.999829
1.00146 1 1.0026 0.998865
1 1 1 1
0.999914 1 1 0.999914
1 1 1 1
0.904103 0.977045 0.952738 0.971248
0.726126 0.841978 0.912461 0.945141
0.670333 0.792328 0.918224 0.921376
1.01703 1.00009 1.01972 0.997264
1.00282 1.00275 1.00248 0.997588
1.01223 1.00228 1.01248 0.997479
1.00699 1.00873 1.00166 0.996619
1.02307 1.0268 1.00016 0.996211
1.00105 1.00397 1 0.997087
1.02177 1.00147 1.02254 0.997781
1.00079 1.00489 0.998764 0.997144
0.980468 1.00234 0.979682 0.998462
0.995994 1.00301 0.995602 0.997396
0.971115 1.00345 0.970031 0.997676
0.992655 1.00152 0.993923 0.997213
0.972904 1.00082 0.974264 0.997787
0.987873 1.00024 0.988598 0.999027
0.9 0.970739 0.940645 0.98563
0.883738 0.963127 0.948536 0.967356
0.696791 0.812074 0.907223 0.945787
0.846813 0.921927 0.953205 0.963618
0.875365 0.921462 0.961871 0.987632
0.889074 0.951819 0.943848 0.989649
0.972429 1.00377 0.971698 0.996997
0.990702 1.00049 0.992056 0.998143
0.997058 0.999647 0.99843 0.998978
0.981426 0.992421 0.991871 0.997026
0.921839 0.973147 0.960576 0.986155
0.898357 0.973333 0.949195 0.972371
0.727078 0.838584 0.919417 0.943022
0.957228 0.976213 0.982893 0.997618
0.900697 0.97003 0.942962 0.984689
0.913662 0.985769 0.955447 0.970072
0.956847 1.00102 0.958786 0.996957
0.932441 0.987978 0.95406 0.989234
0.959282 1.02489 0.938718 0.997086
0.977694 1.01944 0.963212 0.995682
0.975588 1.00813 0.970481 0.997153
0.98913 1.03717 0.956017 0.997559
1.00692 1.06984 0.943512 0.99754
1.03026 1.04728 0.986559 0.997149
1.0392 1.06999 0.973609 0.997556
1.04084 1.06897 0.976165 0.997458
1.04509 1.0639 0.985055 0.997229
1.03821 1.0621 0.979967 0.997488
1.05096 1.07086 0.984063 0.997311
1.05063 1.0635 0.990648 0.997223
1.04594 1.06165 0.987826 0.997341
1.05092 1.06355 0.991023 0.997071
1.05071 1.06029 0.993684 0.997262
1.05141 1.05833 0.996441 0.997006
1.05606 1.06068 0.999014 0.996625
1.05612 1.0598 0.999946 0.996589
1.05734 1.0612 0.999997 0.996366
1.0582 1.0622 1 0.996229
1.05085 1.05497 1 0.996095
1.05763 1.06189 1 0.995983
1.05965 1.06393 1 0.995975
1.02166 1.02485 1 0.996894
1.04311 1.04716 1 0.996133
1.0489 1.05325 1 0.995869
0.999551 1.00061 1.00027 0.998664
1.01135 1.01428 1.00001 0.997102
1.0266 1.0304 1 0.996316
1 1 1 1
0.999937 1.00004 1.00099 0.998912
1.00618 1.00797 1.00085 0.997371
1 1 1 1
1.00153 1 1.00232 0.999209
1 1 1 1
1.02699 1.03082 1 0.996278
1.01472 1.01788 1.00019 0.996698
1.01057 1.01292 1.00066 0.997018
1.00144 1.00382 1.00008 0.997546
1.00115 1.00141 1.0022 0.997549
1.00516 1.00197 1.00515 0.998039
1.00395 1 1.00617 0.997787
1.00786 1.00003 1.00944 0.998396
1.00344 1 1.00387 0.999572
1.00729 1 1.00864 0.998662
1.00124 1 1.00151 0.999723
1 1 1 1
1 1 1 1
0.999844 1 1 0.999844
1 1 1 1
0.912626 0.9712 0.952485 0.986565
0.892984 0.975129 0.94742 0.966583
0.724062 0.835022 0.914991 0.947678
1.04302 1.04702 1.00007 0.996121
1.00947 1.00189 1.0102 0.997397
1.00812 1.00986 1.00157 0.996719
1.00144 1.00436 1 0.997094
1.0217 1.02517 1.00042 0.996191
1.00827 1.01148 0.999747 0.997075
1.00128 1.00469 0.999642 0.99696
0.98372 1.0025 0.982793 0.998444
0.99385 1.00338 0.993075 0.997409
0.964873 1.00246 0.964894 0.997524
1.01117 1.01676 0.997802 0.996696
0.993194 1.00729 0.988696 0.997277
0.992613 1.00214 0.993292 0.997187
0.975364 1.00134 0.97612 0.997892
0.967356 1.0061 0.963873 0.997524
0.892924 0.965796 0.939425 0.984162
0.880431 0.964382 0.943687 0.967428
0.886092 0.944977 0.949776 0.987272
0.975294 1.00481 0.972654 0.997915
0.990711 1.0002 0.992439 0.998059
0.976171 1.00775 0.973558 0.994976
0.907602 0.956817 0.960484 0.987589
0.885919 0.970958 0.943167 0.967398
0.955892 0.998781 0.959901 0.997039
0.940669 0.990091 0.961496 0.98813
0.962985 1.02666 0.94058 0.997235
0.982105 1.01969 0.966997 0.996009
0.991068 1.04735 0.948769 0.997353
1.05336 1.08023 0.977841 0.997225
0.985556 1.03413 0.955367 0.997555
1.01277 1.07133 0.947681 0.997522
1.03242 1.08335 0.955552 0.997309
1.03789 1.06908 0.973234 0.997534
1.03744 1.06692 0.974849 0.997454
1.05139 1.07877 0.977359 0.997193
1.03875 1.06153 0.981026 0.997468
1.04869 1.06917 0.983476 0.997325
1.05392 1.06971 0.988182 0.99702
1.04428 1.0593 0.988461 0.997334
1.05128 1.0639 0.99105 0.997068
1.05665 1.06457 0.995799 0.996751
1.05135 1.05824 0.996428 0.997052
1.05652 1.06109 0.999019 0.996671
1.06046 1.06435 1 0.996349
1.0576 1.06147 1 0.996355
1.05793 1.06194 1 0.996217
1.05296 1.05702 1 0.99616
1.02966 1.03298 1 0.996783
1.05073 1.05484 1 0.996101
1.05778 1.06206 1 0.995971
1.0022 1.00369 1 0.99852
1.02182 1.025 1 0.996894
1.04183 1.04587 1 0.996139
1 1 1 1
1.00017 1.00142 1.0001 0.998649
1.01379 1.01673 1 0.997102
1 1 1 1
0.999453 1.00007 1.00049 0.998895
1 1 1 1
1.04173 1.04587 1 0.996039
1.02833 1.03217 1 0.996272
1.02554 1.02904 1 0.996597
1.01672 1.02005 1.00001 0.99673
1.01178 1.01426 1.00056 0.997005
1.00751 1.0074 1.00243 0.997685
1.00072 1.00127 1.00196 0.997492
1.00502 1.00106 1.00592 0.998042
1.00232 1 1.00294 0.999382
1.00779 1 1.0094 0.998397
1.00259 1 1.00301 0.999585
1 1 1 1
1.00054 1 1.00081 0.999735
1 1 1 1
1 1 1 1
0.970859 1.01057 0.963479 0.997125
0.907048 0.969528 0.951081 0.983677
0.892518 0.968749 0.948238 0.971602
1.03397 1.03745 1.00001 0.996639
1.05292 1.0571 0.999749 0.996303
1.0411 1.04495 1.00012 0.996205
1.00227 1.00519 1 0.997099
1.02007 1.02324 1.00073 0.99617
1.01064 1.01476 0.998882 0.997061
1.03314 1.04112 0.995684 0.996634
0.9932 1.00457 0.991233 0.997422
0.961618 1.00189 0.962334 0.997372
1.01222 1.0191 0.996427 0.996811
1.02476 1.04295 0.985938 0.99657
0.995931 1.02749 0.971755 0.997458
0.998661 1.00963 0.991895 0.997221
0.993516 1.00268 0.993679 0.99716
0.970888 1.0076 0.965661 0.997832
0.898311 0.969835 0.94263 0.982624
0.975442 1.00461 0.972072 0.998864
1.03236 1.06185 0.974371 0.997807
0.974139 1.00639 0.972701 0.995121
0.910591 0.966634 0.956158 0.985216
0.965887 1.02884 0.941284 0.997375
0.986134 1.02 0.970336 0.996353
0.986025 1.04778 0.943391 0.997528
1.05127 1.08014 0.975958 0.997248
1.04748 1.09242 0.961517 0.997239
1.08843 1.11632 0.977572 0.997386
1.01852 1.07366 0.951018 0.997504
1.0386 1.08565 0.959247 0.997309
1.05442 1.08846 0.971534 0.997104
1.03419 1.065 0.97356 0.997451
1.05125 1.07794 0.977988 0.997193
1.05431 1.07536 0.983389 0.996986
1.04649 1.06751 0.982933 0.997338
1.05461 1.07038 0.988218 0.997016
1.05714 1.0688 0.992296 0.996762
1.05165 1.06424 0.991076 0.997066
1.05733 1.06523 0.99582 0.996748
1.0635 1.06776 0.999597 0.996413
1.05697 1.06149 0.999022 0.996717
1.06005 1.06391 1 0.996364
1.05688 1.06094 1 0.996179
1.05765 1.06168 1 0.996206
1.05287 1.05692 1 0.996165
1.03104 1.03442 1 0.996734
1.0058 1.00732 1 0.998486
1.02897 1.03229 1 0.996783
1.05066 1.05476 1 0.996107
1 1 1 1
1.00315 1.00465 1 0.998508
1.02163 1.02481 1 0.996893
1 1 1 1
1.00063 1.002 1 0.998634
1 1 1 1
1.05078 1.05492 1 0.99608
1.04128 1.04542 1 0.996042
1.03796 1.04179 1 0.996316
1.02882 1.03268 1 0.996265
1.02574 1.02923 1 0.996602
1.01324 1.0155 1.0004 0.997378
1.01244 1.01502 1.00046 0.996992
1.00567 1.0053 1.00269 0.997687
1.0005 1 1.00139 0.99911
1.0056 1.00033 1.00724 0.998045
1.00259 1 1.0032 0.9994
1 1 1 1
1.00219 1 1.00259 0.999597
1 1 1 1
1 1 1 1
1.00104 1.04721 0.957963 0.997858
0.967974 1.00952 0.962558 0.996145
0.909105 0.971454 0.950627 0.984423
1.04787 1.05308 0.998517 0.996531
1.03493 1.03824 0.999966 0.996851
1.06549 1.07096 0.998457 0.996433
1.05319 1.05764 0.999502 0.996284
1.03931 1.04304 1.00013 0.996289
1.05669 1.07194 0.989309 0.996429
1.01292 1.01803 0.997929 0.997047
1.03284 1.04029 0.996255 0.996572
1.04649 1.07955 0.972555 0.996728
1.01045 1.0212 0.992521 0.996926
1.02588 1.04365 0.986427 0.996494
0.996764 1.03097 0.969247 0.997498
1.00119 1.01 0.994095 0.997162
0.975153 1.00919 0.968109 0.998107
1.07546 1.10717 0.973869 0.99742
1.03721 1.06283 0.978008 0.997832
0.972737 1.0052 0.97231 0.995266
0.981945 1.04763 0.939464 0.9977
1.04836 1.07953 0.973778 0.997272
1.04217 1.0902 0.958569 0.997263
1.09258 1.12022 0.977891 0.997379
1.07252 1.10338 0.974697 0.997265
1.04454 1.08754 0.963057 0.997309
1.05519 1.08765 0.972965 0.997114
1.05494 1.07978 0.979907 0.997023
1.05113 1.07708 0.978654 0.997193
1.05462 1.07535 0.983705 0.996967
1.05682 1.07128 0.989715 0.996751
1.05532 1.07106 0.98826 0.997013
1.05757 1.06925 0.992294 0.996757
1.06582 1.07176 0.997992 0.996457
1.05799 1.06588 0.995842 0.996746
1.06338 1.06765 0.999586 0.996414
1.0621 1.06617 1 0.99618
1.05967 1.06352 1 0.996378
1.05661 1.06065 1 0.996186
1.03172 1.03516 1 0.996677
1.05275 1.0568 1 0.996169
1.03154 1.03492 1 0.996733
1.00752 1.00876 1 0.998768
0.999496 1 1 0.999496
1.00643 1.00784 1 0.998605
1.02826 1.03158 1 0.996783
1 1 1 1
1.00441 1.00592 1 0.998495
1 1 1 1
1.06932 1.07465 0.998497 0.99654
1.05846 1.06241 1 0.996278
1.0515 1.05562 1 0.996097
1.04495 1.04892 1 0.996213
1.0415 1.04563 1 0.996044
1.03873 1.04258 1 0.99631
1.01721 1.02016 1 0.997109
1.02654 1.03004 1 0.996606
1.01071 1.01279 1.00057 0.997379
0.999383 1.00047 1.00012 0.998794
1.00366 1.00315 1.00282 0.997689
1.00091 1 1.00178 0.999129
1 1 1 1
1.00249 1 1.00307 0.999418
1 1 1 1
1 1 1 1
1.0633 1.1028 0.966919 0.997165
1.00804 1.05629 0.956334 0.997887
0.965013 1.00962 0.960446 0.995184
1.06075 1.07173 0.993262 0.996472
1.04368 1.04906 0.998287 0.996577
1.03573 1.03883 0.999954 0.997061
1.06398 1.06924 0.998624 0.996447
1.05343 1.05817 0.999255 0.996266
1.06319 1.09216 0.976691 0.996707
1.05289 1.06852 0.988945 0.996388
1.03273 1.03951 0.996957 0.99651
1.04353 1.07634 0.972707 0.996726
1.03067 1.04724 0.987721 0.996418
1.00184 1.03949 0.966147 0.997547
1.07042 1.09656 0.978737 0.99737
1.07762 1.10937 0.973863 0.997458
1.04172 1.06414 0.981033 0.997858
1.03785 1.08894 0.955681 0.997283
1.09755 1.12455 0.978563 0.997371
1.07308 1.10483 0.973924 0.99727
1.06148 1.08109 0.984683 0.997135
1.05591 1.08678 0.974396 0.997125
1.05545 1.07965 0.980522 0.997008
1.05839 1.07316 0.989416 0.996793
1.05497 1.0754 0.984005 0.996947
1.05739 1.07184 0.98973 0.99675
1.06687 1.07538 0.995593 0.996481
1.05804 1.06973 0.992293 0.996753
1.06546 1.07141 0.997981 0.996457
1.06558 1.06967 1 0.996172
1.06329 1.06756 0.999577 0.996416
1.06185 1.06592 1 0.996185
1.03296 1.03648 1 0.996598
1.05631 1.06035 1 0.996193
1.03287 1.03632 1 0.996678
1.00675 1.00797 1 0.998785
1.03211 1.0355 1 0.996733
1.00733 1.00858 1 0.998762
0.999525 1 1 0.999525
0.99976 1 1 0.99976
1.00708 1.00836 1 0.998734
1 1 1 1
1.06176 1.07165 0.994197 0.996555
1.06273 1.0669 0.999728 0.996367
1.06771 1.07338 0.998046 0.996669
1.05457 1.05858 1 0.996204
1.06051 1.06448 1 0.996266
1.05215 1.05626 1 0.996113
1.0454 1.04939 1 0.996203
1.02489 1.02807 1 0.996903
1.03944 1.0433 1 0.996304
1.01742 1.02037 1 0.99711
1.00248 1.00391 1 0.998577
1.00838 1.0105 1.00052 0.997381
0.999765 1.00042 1.00053 0.998814
1 1 1 1
1.00143 1 1.00228 0.999149
1 1 1 1
1 1 1 1
1.0622 1.09133 0.976181 0.997052
1.057 1.09588 0.967266 0.997164
1.01289 1.06191 0.955843 0.997908
1.0608 1.08049 0.985091 0.996635
1.05803 1.06911 0.993145 0.99647
1.03956 1.04508 0.998086 0.996624
1.06233 1.06741 0.998776 0.996461
1.06164 1.09007 0.977157 0.996683
1.0486 1.06459 0.988593 0.996348
1.03518 1.06715 0.973224 0.996725
1.06516 1.08355 0.985782 0.997199
1.06893 1.09473 0.979044 0.997329
1.0792 1.11108 0.973741 0.997495
1.06025 1.07505 0.989164 0.997039
1.07334 1.10607 0.973059 0.997275
1.06128 1.08097 0.984614 0.997121
1.0601 1.07366 0.990431 0.996903
1.05601 1.07947 0.981212 0.996994
1.05841 1.07321 0.989378 0.996796
1.06746 1.07693 0.994684 0.996505
1.0579 1.07235 0.989748 0.996748
1.06621 1.07468 0.995616 0.996481
1.06673 1.07089 0.999945 0.996176
1.06501 1.07097 0.997969 0.996456
1.06615 1.07024 1 0.996175
1.03297 1.03658 1 0.996523
1.06155 1.06561 1 0.99619
1.03416 1.03769 1 0.9966
1.00529 1.00654 1 0.998757
1.03407 1.03752 1 0.996679
1.00635 1.00758 1 0.998771
0.999527 1 1 0.999527
1.00711 1.00836 1 0.998759
0.999537 1 1 0.999537
1 1 1 1
1.05927 1.07207 0.991567 0.996463
1.06424 1.06993 0.998312 0.996365
1.06339 1.07302 0.994454 0.996553
1.06142 1.0654 1 0.99626
1.06373 1.06821 0.99939 0.996414
1.06625 1.07227 0.997587 0.996798
1.03436 1.03772 1 0.996764
1.05449 1.05853 1 0.996192
1.06265 1.06665 1 0.996255
1.0461 1.0501 1 0.996193
1.02564 1.02883 1 0.996904
1.00696 1.00847 1 0.998501
1.01715 1.0201 1 0.997111
1.00124 1.00265 1 0.998594
1 1 1 1
0.999863 1.00013 1.0009 0.998832
1 1 1 1
1 1 1 1
1.06058 1.07981 0.985206 0.996934
1.06259 1.09212 0.975857 0.997032
1.05398 1.09271 0.967299 0.997163
1.06056 1.08021 0.985106 0.996651
1.05504 1.06621 0.993024 0.996467
1.06161 1.08956 0.977618 0.996658
1.06221 1.07659 0.989572 0.997037
1.06511 1.08351 0.985783 0.997194
1.06738 1.09292 0.979287 0.997288
1.0607 1.07519 0.989432 0.997059
1.05895 1.07062 0.992219 0.996859
1.06104 1.08087 0.984505 0.997106
1.0605 1.07365 0.990856 0.996864
1.0673 1.07657 0.994777 0.996595
1.05847 1.07331 0.989339 0.996798
1.06705 1.07653 0.994664 0.996507
1.06665 1.07095 0.999806 0.996183
1.06563 1.07409 0.995629 0.996481
1.06814 1.07233 0.999914 0.996177
1.03094 1.03458 1 0.996482
1.06677 1.07087 1 0.996179
1.03369 1.03729 1 0.996526
1.0033 1.0046 1 0.998702
1.03541 1.03894 1 0.996601
1.00473 1.006 1 0.998738
0.999502 1 1 0.999502
1.00593 1.00718 1 0.998761
0.999551 1 1 0.999551
0.999543 1 1 0.999543
1.06061 1.07381 0.99096 0.996725
1.06517 1.07255 0.9968 0.996312
1.05906 1.07296 0.990521 0.99649
1.0661 1.07012 0.999997 0.99625
1.06392 1.06938 0.998534 0.99635
1.06501 1.07437 0.994718 0.996551
1.03669 1.04015 1 0.996675
1.06134 1.06533 1 0.996251
1.06465 1.06942 0.999072 0.996461
1.00824 1.00975 1 0.998499
1.03371 1.03707 1 0.996765
1.05449 1.05853 1 0.996181
1.02602 1.0292 1 0.996905
1.00561 1.0071 1 0.998512
1 1 1 1
1.00026 1.00165 1 0.99861
1 1 1 1
1 1 1 1
1.05949 1.07382 0.989697 0.996928
1.06098 1.08003 0.985394 0.996924
1.06212 1.09195 0.975598 0.997012
1.06033 1.07997 0.985096 0.996668
1.05972 1.06928 0.994222 0.996818
1.06223 1.07669 0.989484 0.997048
1.06517 1.0835 0.985858 0.997188
1.06115 1.07532 0.989714 0.99708
1.05914 1.07103 0.992005 0.996869
1.06763 1.07535 0.996231 0.996576
1.0609 1.07363 0.991288 0.996825
1.068 1.07661 0.995442 0.996542
1.06533 1.07031 0.999084 0.996257
1.06665 1.07615 0.99465 0.996509
1.0673 1.0717 0.999716 0.996185
1.02775 1.0314 1 0.996456
1.06935 1.07357 0.999885 0.996178
1.03071 1.03435 1 0.996483
1.00087 1.00248 1 0.998398
1.03438 1.03798 1 0.996528
1.00251 1.00395 1 0.998564
1 1 1 1
1.00416 1.00545 1 0.99872
0.999532 1 1 0.999532
0.999567 1 1 0.999567
1.05965 1.07046 0.993058 0.996822
1.06534 1.07358 0.995865 0.996448
1.06099 1.07335 0.991737 0.996716
1.06715 1.07156 0.999725 0.996164
1.06456 1.07222 0.996529 0.996315
1.05888 1.07387 0.989481 0.996516
1.03576 1.03935 1 0.99654
1.06581 1.06994 0.999888 0.99625
1.06358 1.06886 0.998722 0.996336
1.00646 1.00796 1 0.998512
1.03557 1.03906 1 0.996644
1.06103 1.06503 1 0.996242
1 1 1 1
1.0082 1.00971 1 0.99851
1.03307 1.03642 1 0.996766
1.0044 1.00588 1 0.998525
1 1 1 1
1 1 1 1
1.05808 1.06732 0.994497 0.996825
1.05994 1.07393 0.99001 0.996935
1.06131 1.08023 0.98553 0.996914
1.0673 1.07385 0.997373 0.996517
1.05912 1.06911 0.993809 0.996829
1.06225 1.07681 0.989383 0.997059
1.0593 1.07144 0.991763 0.996879
1.06737 1.0752 0.996124 0.996577
1.06397 1.06868 0.999303 0.996293
1.06863 1.07657 0.996124 0.996488
1.06562 1.07029 0.999401 0.996233
1.02534 1.02903 1 0.996417
1.06804 1.07253 0.999626 0.996187
1.02744 1.03109 1 0.996457
0.999496 1.00112 1 0.998374
1.03068 1.03432 1 0.996485
1.00044 1.00205 1 0.998396
1 1 1 1
1.00171 1.00331 1 0.998403
0.999741 1 1 0.999741
0.999557 1 1 0.999557
1.05685 1.06615 0.994482 0.996784
1.06668 1.07344 0.997162 0.996526
1.05932 1.06995 0.993215 0.99683
1.067 1.07111 1 0.996154
1.06627 1.07436 0.99603 0.996433
1.06132 1.07286 0.992514 0.996708
1.03228 1.03594 1 0.996465
1.0666 1.07085 0.99987 0.996162
1.06401 1.07192 0.996285 0.996317
1.00376 1.00528 1 0.998489
1.03515 1.03875 1 0.996528
1.06551 1.06975 0.99979 0.996251
1 1 1 1
1.00713 1.00862 1 0.998522
1.03469 1.0382 1 0.996613
1 1 1 1
1.00815 1.00964 1 0.998521
1 1 1 1
1.06636 1.07273 0.997495 0.996558
1.0577 1.067 0.994456 0.996811
1.06035 1.07397 0.990348 0.996941
1.06318 1.06772 0.999458 0.996289
1.06663 1.07355 0.997001 0.996537
1.05853 1.06893 0.993406 0.99684
1.06709 1.07505 0.996002 0.996578
1.06371 1.06849 0.999225 0.996294
1.0239 1.02758 1 0.99642
1.06596 1.07033 0.9997 0.996209
1.02541 1.02909 1 0.996424
0.998787 1.00044 1 0.998344
1.02701 1.03066 1 0.996458
0.999223 1.00085 1 0.998372
1 1 1 1
0.999921 1.00153 1 0.998394
1 1 1 1
0.99953 1 1 0.99953
1.06693 1.0732 0.997616 0.996533
1.05617 1.06611 0.99385 0.996803
1.06558 1.06963 1 0.996208
1.06701 1.0738 0.997142 0.996526
1.05901 1.06947 0.99336 0.996838
1.02894 1.03258 1 0.99648
1.06633 1.07045 1 0.996151
1.06721 1.07515 0.996183 0.996419
1.0013 1.00287 1 0.998435
1.0323 1.03595 1 0.996476
1.06597 1.07008 1 0.99616
1 1 1 1
1.00453 1.00604 1 0.998495
1.03459 1.03821 1 0.996517
1 1 1 1
1.00777 1.00925 1 0.99853
1 1 1 1
1.06333 1.06775 0.999554 0.996309
1.06624 1.0725 0.997608 0.996546
1.05733 1.06668 0.994424 0.996797
1.02331 1.02696 1 0.996438
1.06292 1.06752 0.999392 0.99629
1.06591 1.07322 0.996616 0.996557
1.06346 1.0683 0.999176 0.996294
1.02409 1.02777 1 0.996417
0.998461 1.00013 1 0.998334
1.02551 1.02919 1 0.996431
0.998648 1.00031 1 0.998342
1 1 1 1
0.998985 1.00062 1 0.998371
1 1 1 1
1 1 1 1
1.06474 1.06876 1 0.996238
1.06637 1.07302 0.997211 0.996582
1.05552 1.06613 0.9932 0.996822
1.02633 1.02994 1 0.996494
1.0653 1.06936 1 0.996205
1.06731 1.07412 0.997123 0.996525
0.999472 1.00108 1 0.998392
1.02879 1.03243 1 0.996477
1.06554 1.06966 1 0.996148
1 1 1 1
1.00195 1.00352 1 0.998438
1.03239 1.03603 1 0.996487
1 1 1 1
1.00525 1.00676 1 0.9985
1 1 1 1
1.02398 1.0276 1 0.996477
1.06303 1.06755 0.99947 0.996296
1.06612 1.0723 0.997691 0.996535
0.998364 1 1 0.998364
1.02349 1.02715 1 0.996435
1.06267 1.06734 0.999333 0.99629
1.02422 1.0279 1 0.996414
0.998364 1.00003 1 0.998335
1 1 1 1
0.998464 1.00012 1 0.99834
1 1 1 1
1 1 1 1
1.02469 1.02829 1 0.996497
1.0642 1.06843 0.999771 0.996268
1.06585 1.07283 0.99685 0.996631
0.998793 1.00013 1 0.998663
1.02642 1.03003 1 0.996493
1.06516 1.06922 1 0.996202
1 1 1 1
0.999996 1.00161 1 0.998393
1.02887 1.03251 1 0.996475
1 1 1 1
1.00257 1.00414 1 0.998441
1 1 1 1
0.998348 1 1 0.998348
1.02414 1.02777 1 0.996467
1.06274 1.06734 0.999405 0.996282
1 1 1 1
0.998362 1 1 0.998362
1.02368 1.02734 1 0.996432
0.998334 1 1 0.998334
1 1 1 1
1 1 1 1
0.998636 1 1 0.998636
1.02509 1.0287 1 0.996497
1.06368 1.06815 0.999515 0.996298
1 1 1 1
0.998827 1.00044 1 0.998383
1.02647 1.03008 1 0.996492
1 1 1 1
1.00041 1.00202 1 0.998394
1 1 1 1
0.999507 1 1 0.999507
0.998508 1 1 0.998508
1.0243 1.02794 1 0.996456
1 1 1 1
0.998364 1 1 0.998364
1 1 1 1
0.999518 1 1 0.999518
0.998515 1 1 0.998514
1.02533 1.02894 1 0.996498
0.999753 1 1 0.999753
0.999106 1.00072 1 0.998385
1 1 1 1
1 1 1 1
0.998386 1 1 0.998386
1 1 1 1
0.999758 1 1 0.999758
0.998516 1.00012 1 0.998392
1 1 1 1
1 1 1 1
1 1 1 1

VECTORS lamdaE float
1.00205 1.00001 0.992964
1.00163 1.00077 0.996451
1.00154 1.00021 0.993335
1.00199 1.00012 0.992898
1.00212 0.999921 0.992967
1.00202 1.00026 0.992779
1.00319 1.00059 0.989981
1.0017 1.0008 0.996377
1.00142 1.00005 0.997083
1.00093 1.00087 0.9971
1.00143 1.00123 0.99245
1.00322 1.00126 0.988094
1.00149 0.999966 0.993566
1.00123 1.00003 0.993757
1.00107 1.00041 0.993678
1.00162 1.00008 0.993302
1.00143 1.00061 0.993119
1.00168 0.99997 0.993354
1.00343 1.00048 0.989793
1.0015 1.00002 0.996688
1.00189 1.00017 0.992941
1.00209 0.999991 0.992918
1.00321 1.00023 0.990357
1.00328 1.00031 0.990146
1.00201 1.00056 0.992489
1.00311 1.00109 0.989593
1.00529 1.00125 0.985433
1.00173 1.0008 0.996297
1.00168 0.999933 0.995133
1.00131 1.00056 0.995106
1.00165 1.00103 0.996286
1.00315 1.00139 0.988096
1.00193 0.999749 0.993118
1.00178 1.00001 0.9932
1.0036 1.00017 0.990405
1.00035 1.00153 0.997274
1.00345 1.00077 0.990152
1.00306 1.00208 0.987587
1.00512 1.00184 0.984436
1.00049 1.00014 0.997536
1.00154 0.999981 0.996661
1.00149 1.00001 0.995153
1.00142 0.999963 0.996745
1.00107 1.00005 0.993945
1.00323 0.999897 0.989639
1.00141 0.999943 0.997027
1.00358 1.00015 0.990505
1.00126 1.00001 0.993705
1.00126 1.00001 0.993727
1.0009 1.00096 0.99344
1.00364 1.00036 0.98962
1.00129 1.00004 0.995328
1.00151 1.00018 0.993351
1.00146 1.00099 0.992774
1.0017 0.999958 0.993311
1.00339 1.00018 0.990145
1.00339 1.00091 0.98941
1.00348 1.00024 0.989952
1.00529 1.00121 0.985505
1.00139 1 0.996745
1.00177 1.00009 0.993184
1.0029 0.999977 0.99152
1.00313 1.0002 0.990496
1.00329 1.00021 0.990237
1.00525 1.00006 0.986709
1.00529 1.00038 0.98624
1.00191 1.00074 0.992151
1.00303 1.002 0.988857
1.00531 1.00185 0.984756
1.00529 0.999854 0.986097
1.00202 0.999941 0.996537
1.0015 1.00092 0.99652
1.00173 1.0005 0.996491
1.00312 1.00149 0.988101
1.002 0.999862 0.996485
1.00191 1.0001 0.996559
1.00346 1.00012 0.988894
1.00062 1.00121 0.995281
1.00323 1.00073 0.988638
1.00288 1.00228 0.988765
1.00522 1.00168 0.984431
1.00081 1.0005 0.997133
1.00079 1.00249 0.991106
1.00359 1.00009 0.988788
1.00353 1.00018 0.988795
1.00534 1.00042 0.985621
1.00213 1.00289 0.990407
1.00532 1.00122 0.984789
1.00423 1.00297 0.984674
1.00537 1.00156 0.984173
1.00027 0.999517 0.997903
1.00034 0.999927 0.997692
1.00184 0.999967 0.99649
1.0016 0.999982 0.996625
1.00147 0.99997 0.996735
1.00136 0.999994 0.995288
1.00325 0.999898 0.990364
1.00165 0.999945 0.99509
1.00346 1.00017 0.989797
1.00141 0.999982 0.996766
1.00303 0.999788 0.990004
1.00348 1.00006 0.990751
1.00525 0.998897 0.987406
1.00357 1.00012 0.990474
1.00523 0.999328 0.987002
1.00145 0.999979 0.993639
1.00112 1.00018 0.993766
1.0009 1.00139 0.993045
1.00132 0.999914 0.993702
1.00358 1.00017 0.989935
1.00367 1.00019 0.989766
1.00363 1.00076 0.989236
1.0053 1.00118 0.985574
1.00144 0.999982 0.996756
1.00138 1.0001 0.993583
1.0031 0.99991 0.990345
1.00331 1.00017 0.990283
1.00171 1.00125 0.994123
1.00333 1.0018 0.989045
1.00348 1.00017 0.990034
1.00525 0.999834 0.986968
1.0053 1.00183 0.984854
1.00529 1.00058 0.986085
1.00528 0.999854 0.986126
1.00297 0.99984 0.990042
1.00304 1.00004 0.990758
1.00509 0.998729 0.988406
1.0052 0.999368 0.98761
1.0053 0.99989 0.986772
1.00534 0.997559 0.988659
1.001 1.00116 0.996799
1.00528 0.998926 0.987023
1.00263 1.00305 0.987143
1.00526 1.00238 0.98361
1.00529 1.00084 0.985164
1.00526 0.997219 0.988544
1.0014 1.00325 0.98921
1.00257 1.00438 0.98624
1.00204 0.999875 0.9965
1.0019 1.00016 0.996547
1.00347 1.0001 0.988872
1.00089 1.00085 0.997006
1.0024 1.00261 0.987966
1.00326 1.00065 0.988639
1.00532 1.00153 0.984421
1.00064 1.00053 0.997291
1.00073 1.00261 0.991122
1.00361 1.00013 0.989597
1.00356 1.00024 0.989548
1.00533 1.00044 0.985589
1.00163 1.00304 0.989002
1.00533 1.00122 0.984763
1.00449 1.00261 0.984642
1.00535 1.00143 0.984388
1.00118 1.00277 0.990088
1.00045 1.00223 0.991986
1.00235 1.00372 0.987815
1.00533 1.00003 0.986083
1.00535 1.00081 0.985189
1.00532 0.998653 0.98733
1.00343 1.00351 0.985435
1.00533 1.00018 0.985799
1.00531 1.00255 0.983469
1.00533 0.999912 0.985639
1.00015 0.999033 0.998228
1.00017 0.999449 0.998041
1.00025 0.999828 0.997838
1.00109 1.00304 0.990021
1.00057 1.00092 0.997145
1.00198 0.999906 0.996472
1.0017 0.999985 0.996541
1.00328 1.00021 0.989129
1.0031 0.999914 0.989722
1.00145 0.999968 0.996714
1.00139 0.999971 0.996761
1.00301 0.999804 0.989995
1.00335 1.00005 0.990046
1.00523 0.998918 0.987419
1.00341 1.00018 0.988954
1.00523 0.999339 0.98698
1.00295 0.999791 0.990101
1.00518 0.998837 0.987572
1.00524 0.999074 0.987249
1.0053 0.995644 0.990812
1.00528 0.999654 0.986572
1.00531 0.996248 0.990057
1.0014 0.999979 0.996756
1.00097 1.00016 0.993979
1.00313 0.999886 0.989334
1.0035 1.00016 0.990068
1.00089 1.00194 0.996651
1.00364 1.00137 0.989242
1.00366 1.00015 0.989834
1.00524 0.9996 0.987229
1.0053 1.00078 0.985926
1.00529 1.00179 0.984953
1.00527 0.999856 0.986155
1.00296 0.999831 0.990046
1.00321 1.00005 0.99055
1.00513 0.998677 0.988172
1.0052 0.999589 0.987323
1.00117 1.00122 0.996638
1.00277 1.00279 0.988246
1.00508 1.00266 0.983974
1.0053 0.999959 0.98673
1.00534 0.997129 0.989073
1.0053 1.00074 0.985239
1.00527 0.999106 0.986934
1.00526 0.997283 0.988545
1.00146 1.00315 0.989191
1.0027 1.0043 0.986178
1.00509 0.998961 0.987606
1.00516 0.99903 0.988026
1.00532 0.996331 0.989936
1.00532 0.996438 0.989881
1.0053 0.997991 0.987991
1.00528 0.995396 0.990758
1.00187 1.00329 0.988165
1.00524 0.996098 0.989777
1.00465 1.00333 0.983872
1.00529 1.00185 0.983952
1.0053 0.998959 0.986935
1.00526 0.995825 0.990089
1.00344 1.00421 0.984843
1.00239 1.00383 0.987518
1.00394 1.00383 0.984971
1.00346 1.00013 0.98888
1.0004 1.00036 0.997459
1.00062 1.00263 0.991142
1.0034 1.00022 0.988835
1.00533 1.00046 0.985557
1.0016 1.00313 0.988879
1.0047 1.00235 0.984618
1.00534 1.00122 0.984734
1.00536 1.00127 0.984602
1.00108 1.00287 0.990129
1.00032 1.00232 0.991975
1.00215 1.00366 0.987818
1.00532 1.00005 0.986051
1.00534 1.00083 0.98516
1.00533 0.99865 0.987314
1.00363 1.00326 0.985416
1.00533 1.00029 0.985696
1.00537 1.00253 0.983394
1.00533 0.999583 0.985899
1.00028 1.00163 0.992737
1.00307 1.00382 0.986488
1.00162 1.00415 0.988263
1.00304 1.00097 0.988302
1.00532 0.99781 0.988266
1.00532 0.999514 0.986423
1.00529 0.996363 0.989419
1.00495 1.00304 0.983506
1.00528 0.998032 0.98789
1.00535 1.00143 0.984546
1.00538 0.998419 0.987105
1.00011 1.00339 0.991388
1.00029 1.00039 0.994032
1.00015 0.998425 0.998453
1.0001 0.998913 0.998318
1.00008 0.999368 0.998161
1.00073 1.00281 0.990847
1.00042 1.00055 0.997397
1.00117 1.00298 0.989945
1.00074 1.00099 0.997027
1.00339 1.00021 0.988948
1.00321 1.00006 0.989404
1.00522 0.999349 0.986965
1.00519 0.998944 0.987431
1.00301 0.999824 0.989994
1.00145 0.999958 0.996758
1.00297 0.999787 0.990104
1.00517 0.998843 0.987581
1.00522 0.99909 0.98725
1.00532 0.995609 0.990814
1.00528 0.999672 0.986541
1.00531 0.996244 0.990064
1.00512 0.998855 0.987651
1.00533 0.995623 0.990826
1.00527 0.99582 0.990611
1.00521 0.994964 0.991545
1.00534 0.996977 0.989206
1.00529 0.994911 0.991226
1.00297 0.999828 0.990056
1.0034 1.00003 0.990341
1.00516 0.998593 0.987941
1.0052 0.999793 0.987035
1.0014 1.00128 0.996428
1.00317 1.00265 0.989087
1.00489 1.00281 0.984332
1.0053 1.00002 0.986687
1.00535 0.996699 0.989484
1.00527 0.999289 0.986847
1.00531 1.00065 0.985314
1.00526 0.997342 0.988547
1.00152 1.00306 0.989173
1.00269 1.00411 0.986119
1.0051 0.998695 0.987889
1.00518 0.998993 0.988013
1.00532 0.996317 0.989994
1.00533 0.996721 0.989492
1.00195 1.00329 0.988169
1.00439 1.00341 0.983902
1.00532 1.00201 0.983779
1.0053 0.998227 0.987846
1.00528 0.995176 0.990883
1.00528 0.998738 0.987188
1.00525 0.996126 0.989753
1.00526 0.9958 0.989959
1.00341 1.00427 0.984807
1.00352 1.00375 0.985059
1.00198 1.00402 0.987546
1.00532 0.996233 0.990085
1.00533 0.996471 0.9898
1.00525 0.994962 0.991393
1.00531 0.994917 0.991173
1.00524 0.995362 0.990514
1.00528 0.994929 0.990981
1.00392 1.00384 0.98432
1.00528 0.99507 0.990617
1.00532 1.0032 0.982671
1.0053 1.00031 0.985289
1.00524 0.997397 0.988483
1.00529 0.99554 0.990248
1.0014 1.00492 0.987628
1.00479 1.00407 0.983301
1.00254 1.00201 0.987827
1.00489 1.00379 0.983688
1.00531 1.00007 0.98602
1.00025 1.00243 0.991961
1.0009 1.00313 0.990175
1.00172 1.0037 0.987816
1.00534 1.00084 0.985131
1.00533 0.998647 0.987298
1.00383 1.00284 0.985399
1.00539 1.0025 0.983315
1.00532 1.00042 0.985595
1.00532 0.999273 0.986158
1.0002 1.00174 0.992755
1.00277 1.00362 0.986596
1.00148 1.0042 0.988185
1.0033 1.00102 0.988354
1.00532 0.9978 0.988253
1.00532 0.999502 0.986406
1.00529 0.99634 0.989427
1.00514 1.00302 0.983458
1.00528 0.998248 0.987633
1.00531 1.0013 0.984528
1.00537 0.998268 0.98732
1.00035 1.00093 0.993416
1.00126 1.00478 0.9885
1.0036 1.00302 0.985771
1.00303 1.00214 0.988219
1.0038 1.00017 0.988462
1.00528 0.995559 0.990299
1.00529 0.997198 0.988507
1.00529 0.995377 0.990145
1.00518 1.00279 0.983419
1.00532 0.996888 0.988752
1.00522 0.999842 0.985941
1.00042 1.00379 0.990435
1.0002 1.00489 0.989788
1.00009 1.00258 0.992229
1.0001 1.00332 0.991397
1.00017 0.999863 0.995488
1.00025 1.00032 0.994524
1.00031 0.997833 0.996926
1.00014 0.998337 0.998508
1.00006 0.998791 0.998385
1.00007 1.00265 0.992015
1.00017 1.00021 0.997786
1.00076 1.00276 0.990833
1.00048 1.00068 0.997304
1.00124 1.00292 0.989872
1.00088 1.00106 0.996917
1.00528 0.999691 0.98651
1.00519 0.999102 0.987248
1.0053 0.996246 0.990071
1.00533 0.995574 0.990816
1.00517 0.99885 0.98759
1.00296 0.999776 0.990101
1.00511 0.998863 0.987654
1.00532 0.995603 0.990831
1.0053 0.995791 0.990611
1.00521 0.99496 0.991527
1.00532 0.996962 0.989209
1.00529 0.99491 0.991251
1.00533 0.995676 0.990778
1.0052 0.994962 0.991563
1.00526 0.994957 0.991414
1.00523 0.994948 0.991398
1.00528 0.995028 0.99092
1.00528 0.994929 0.991012
1.00511 0.99843 0.988173
1.0052 0.998979 0.988001
1.00532 0.996325 0.990051
1.00534 0.996987 0.989105
1.00205 1.00326 0.988183
1.00416 1.00374 0.983947
1.00534 1.00214 0.983609
1.00529 0.998459 0.987702
1.00529 0.994952 0.991009
1.00526 0.996157 0.98973
1.00527 0.998486 0.987442
1.00525 0.995776 0.989827
1.00346 1.00454 0.984768
1.00335 1.00378 0.985145
1.00178 1.00421 0.987572
1.00531 0.99599 0.990398
1.00532 0.996492 0.989807
1.00526 0.994959 0.991415
1.00531 0.994942 0.991099
1.00382 1.00405 0.984357
1.00529 1.00327 0.982745
1.00531 1.00051 0.985031
1.00525 0.995581 0.990317
1.00527 0.994922 0.990933
1.00524 0.997266 0.988457
1.00528 0.995072 0.99059
1.00528 0.995442 0.990283
1.00439 1.00406 0.983308
1.00463 1.00387 0.983514
1.00164 1.0046 0.987698
1.00278 1.00212 0.987913
1.00524 0.994964 0.991532
1.0053 0.994948 0.991169
1.00524 0.994948 0.99138
1.00528 0.994926 0.990966
1.00529 0.994897 0.990814
1.00534 0.994899 0.990744
1.00519 1.0039 0.982412
1.00531 0.994896 0.990559
1.00529 1.00208 0.98354
1.00527 0.99951 0.986017
1.00519 0.996744 0.988989
1.00533 0.995218 0.990261
1.00114 1.00485 0.988109
1.00319 1.00316 0.986652
1.0052 1.00398 0.982169
1.00331 1.00073 0.987907
1.00452 1.00449 0.983108
1.00012 1.00182 0.992775
1.00532 0.997789 0.98824
1.00157 1.00404 0.988106
1.00248 1.0036 0.986707
1.00341 1.00089 0.988407
1.00532 0.99949 0.986389
1.00529 0.996316 0.989436
1.0053 1.00268 0.98341
1.00529 1.00122 0.984508
1.00527 0.998443 0.987377
1.00537 0.998131 0.987534
1.00031 1.00091 0.99345
1.00098 1.00484 0.988508
1.00382 1.00266 0.985845
1.00265 1.00221 0.988173
1.0041 0.999991 0.987699
1.00528 0.995538 0.990318
1.00529 0.997172 0.988517
1.00528 0.99538 0.990156
1.00518 1.00294 0.983346
1.00533 0.996999 0.988553
1.00521 0.999883 0.986172
1.00086 1.00426 0.989441
1.00182 1.00512 0.987994
1.00392 1.00315 0.984771
1.00396 1.00062 0.987965
1.00501 1.00205 0.985874
1.00532 0.994912 0.990685
1.00528 0.995996 0.989437
1.00522 0.995152 0.990274
1.00488 1.00164 0.984578
1.00522 0.998455 0.987041
1.00034 1.00395 0.990419
1.00046 1.00475 0.989378
0.999812 1.00494 0.989825
1.00051 1.00446 0.99023
1.00014 1.00438 0.990675
0.99996 1.00226 0.99272
0.999967 1.0027 0.992251
1.00012 0.99938 0.995935
1.00007 1.00336 0.991407
1.00019 0.999702 0.995563
1.00029 0.997355 0.997313
1.00022 1.00024 0.995004
1.0002 0.997906 0.997812
1.00013 0.998221 0.998562
0.999793 1.00159 0.993508
1.00021 1.0024 0.992047
0.999895 0.999446 0.998293
1.00034 1.00015 0.997615
1.00087 1.00262 0.990821
1.00057 1.00078 0.997204
1.00531 0.996944 0.989211
1.00533 0.995757 0.99061
1.00529 0.994911 0.991276
1.0052 0.994957 0.991509
1.00531 0.995582 0.990836
1.00512 0.998871 0.987657
1.00532 0.995669 0.990779
1.00521 0.994964 0.991563
1.00525 0.994954 0.99142
1.00523 0.994947 0.991372
1.00528 0.995011 0.990952
1.00528 0.994924 0.991018
1.00523 0.994962 0.991545
1.00524 0.994948 0.991467
1.00525 0.994957 0.991213
1.00528 0.994931 0.991311
1.0053 0.994855 0.990942
1.00533 0.994944 0.990899
1.00531 0.995745 0.99071
1.00532 0.996504 0.989813
1.00526 0.994953 0.991438
1.00531 0.994989 0.991025
1.00369 1.00413 0.984394
1.00523 1.00329 0.982811
1.00532 1.00066 0.984773
1.00525 0.995802 0.990119
1.00527 0.994916 0.990886
1.00527 0.995066 0.990562
1.00525 0.997147 0.988432
1.00529 0.995336 0.990321
1.00412 1.00446 0.98332
1.00407 1.00417 0.983341
1.00173 1.00427 0.987766
1.00279 1.00179 0.987987
1.00525 0.994965 0.991531
1.0053 0.994947 0.991199
1.00524 0.994947 0.991353
1.00528 0.994928 0.990969
1.00505 1.00406 0.982441
1.00529 1.00224 0.983403
1.00527 0.999475 0.985994
1.00529 0.994905 0.990833
1.00534 0.994893 0.990715
1.00523 0.996625 0.988998
1.00532 0.994894 0.990547
1.0053 0.995177 0.990395
1.00518 1.00403 0.98222
1.00448 1.00459 0.982952
1.00361 1.00108 0.987929
1.00097 1.00475 0.98827
1.0027 1.00349 0.986521
1.00524 0.994948 0.991402
1.00527 0.99493 0.991197
1.00533 0.994886 0.990726
1.00532 0.994885 0.990652
1.0052 1.0037 0.982367
1.00531 0.994887 0.990511
1.0052 1.0015 0.983827
1.00522 0.998903 0.986596
1.00527 0.996011 0.989257
1.00008 1.00419 0.9902
1.00188 1.00506 0.987089
1.00419 1.00371 0.985976
1.00505 1.00428 0.98244
1.00458 1.00184 0.985023
1.00442 1.00482 0.98285
1.00027 1.00091 0.993483
1.00071 1.00493 0.988515
1.00528 0.995517 0.990338
1.00215 1.00242 0.988123
1.00427 1.00271 0.985921
1.00452 1.00002 0.986943
1.00528 0.997148 0.988527
1.00528 0.995384 0.990165
1.00517 1.00298 0.983282
1.00519 0.999928 0.986405
1.00535 0.997097 0.988351
1.00073 1.00437 0.989427
1.00114 1.00513 0.98799
1.00429 1.00334 0.984194
1.00384 1.00034 0.988076
1.00473 1.00155 0.985595
1.0053 0.99491 0.990714
1.0053 0.996023 0.989412
1.00525 0.995163 0.990201
1.00495 1.00159 0.984712
1.00519 0.998592 0.986967
1.00112 1.00493 0.988718
1.0012 1.00419 0.988058
1.00443 1.00306 0.984339
1.00372 1.00127 0.986223
1.00517 1.00207 0.984947
1.00531 0.994822 0.990641
1.00531 0.996418 0.988755
1.00536 0.995362 0.989532
1.00505 1.0005 0.985733
1.0051 0.999176 0.986621
1.00026 1.00408 0.990404
1.00055 1.00488 0.989243
0.999684 1.00411 0.990956
0.999694 1.0049 0.989853
0.999861 1.00447 0.990658
0.999711 1.00476 0.99043
1.00003 1.00302 0.991829
0.999534 1.00499 0.990497
0.99984 1.00403 0.991232
0.999973 1.00219 0.992756
0.999979 1.00219 0.992719
1.00004 0.999253 0.996177
0.999928 1.00261 0.992268
1.00013 0.999345 0.995984
1.00022 0.997198 0.997583
1.00022 0.999584 0.995643
1.00024 0.997458 0.997291
1.00005 0.997934 0.99872
0.999859 1.0003 0.994693
0.999879 1.00155 0.993462
0.999775 0.998686 0.998686
1.00038 1.00225 0.992079
1.00006 0.999632 0.998101
1.00042 1.00036 0.997473
1.00529 0.994994 0.990984
1.00525 0.99495 0.991425
1.00529 0.994919 0.991024
1.00522 0.994945 0.991346
1.00522 0.994967 0.991563
1.00531 0.995664 0.990781
1.00523 0.994962 0.991561
1.00523 0.99495 0.991471
1.00525 0.994959 0.991235
1.00527 0.99493 0.991283
1.00531 0.994852 0.990953
1.00532 0.994939 0.990862
1.00525 0.994948 0.991437
1.00527 0.994928 0.991371
1.00529 0.994926 0.99116
1.00535 0.994885 0.990672
1.00525 0.994966 0.99153
1.0053 0.994949 0.991229
1.00524 0.994948 0.991326
1.00527 0.994931 0.990971
1.0049 1.00399 0.982468
1.00528 1.00247 0.983265
1.00527 0.999493 0.985972
1.00529 0.994914 0.990853
1.00534 0.994887 0.990686
1.00532 0.994894 0.990535
1.00526 0.99651 0.989005
1.00527 0.995175 0.990528
1.00498 1.0043 0.982266
1.0043 1.00445 0.982798
1.00421 1.00127 0.98794
1.00089 1.00455 0.988446
1.00236 1.00403 0.986401
1.00524 0.994948 0.991392
1.00527 0.994933 0.991196
1.00533 0.994891 0.99074
1.00519 1.00378 0.982408
1.00515 1.00176 0.983742
1.00524 0.998766 0.986603
1.00532 0.994884 0.990662
1.00528 0.995924 0.989466
1.00531 0.994886 0.990505
1.00001 1.00386 0.990472
1.00468 1.00453 0.982484
1.00422 1.00496 0.982621
1.00447 1.00245 0.985054
1.00405 1.00294 0.985972
1.00156 1.00507 0.987129
1.00527 0.994932 0.991316
1.00531 0.994911 0.990976
1.00533 0.994873 0.990608
1.0053 0.994856 0.990541
1.00482 1.00389 0.982889
1.00526 0.995023 0.990367
1.00504 1.00113 0.9846
1.00522 0.998164 0.98703
0.999936 1.00236 0.992131
1.00059 1.00509 0.989146
1.00269 1.00485 0.986839
1.00355 1.00387 0.984699
1.00441 1.0043 0.984135
1.00485 1.00468 0.982249
1.00059 1.00449 0.989411
1.00059 1.00511 0.987987
1.00528 0.994909 0.990743
1.00381 0.999983 0.988181
1.00476 1.00346 0.983609
1.0041 1.00192 0.985315
1.00532 0.996051 0.989388
1.00528 0.995172 0.990127
1.00505 1.00162 0.984844
1.00517 0.998742 0.986893
1.00082 1.00499 0.988733
1.00163 1.0042 0.987879
1.00437 1.00319 0.984263
1.00423 1.00185 0.986242
1.00513 1.0024 0.984524
1.00532 0.99482 0.990637
1.00532 0.996282 0.989021
1.00535 0.995495 0.989625
1.00507 1.0004 0.985684
1.00505 0.999489 0.98636
0.999528 1.00477 0.989323
1.0007 1.00368 0.988175
1.00484 1.00146 0.985379
1.00495 1.00154 0.985228
1.00539 0.994803 0.990424
1.00537 0.994889 0.990312
1.00526 0.998024 0.987143
1.00511 0.999874 0.985756
1.00083 1.0049 0.989108
0.999799 1.00444 0.990722
0.998593 1.00407 0.993562
0.999584 1.00476 0.990646
0.998885 1.00505 0.990629
0.999855 1.00403 0.991198
0.999625 1.00332 0.992242
0.999605 1.00505 0.990489
0.999738 1.0005 0.994829
0.999557 1.00467 0.991013
0.999479 1.00482 0.990485
1.00005 1.00387 0.991064
0.999949 1.00236 0.992575
0.999942 1.0022 0.992739
0.999938 0.999253 0.996298
0.999955 1.00218 0.992721
1.00006 0.999214 0.996193
1.00012 0.997213 0.997682
1.00014 0.999275 0.996034
1.0002 0.997229 0.997568
1.00019 0.997556 0.997259
1.00001 0.999431 0.99535
0.999875 1.00043 0.994618
0.999777 0.998029 0.998891
0.99991 1.00158 0.993414
0.999843 0.998812 0.998568
1.00025 0.99961 0.997886
1.00532 0.994848 0.990964
1.00524 0.994962 0.991256
1.00531 0.994934 0.990824
1.00527 0.99493 0.991256
1.00523 0.994953 0.991476
1.00524 0.994963 0.991577
1.00524 0.994948 0.99145
1.00527 0.994928 0.991361
1.00529 0.994928 0.991117
1.00534 0.994884 0.990687
1.00527 0.994927 0.991384
1.00527 0.994902 0.991296
1.00535 0.994905 0.990852
1.00523 0.994947 0.991382
1.00528 0.994934 0.991196
1.00533 0.994895 0.990753
1.00526 1.00369 0.982455
1.00517 1.00199 0.983653
1.00526 0.998613 0.986608
1.00533 0.99488 0.99067
1.0053 0.994873 0.990499
1.00527 0.995831 0.989677
1.00438 1.00473 0.982528
1.00486 1.00463 0.98241
1.00455 1.0033 0.985099
1.00012 1.00372 0.99075
1.00405 1.00268 0.985968
1.00124 1.0051 0.987156
1.00527 0.99493 0.991333
1.00532 0.994907 0.990939
1.00533 0.994875 0.990613
1.00499 1.00369 0.982872
1.00501 1.00112 0.984602
1.00522 0.997956 0.987359
1.0053 0.994861 0.99051
1.00523 0.995059 0.990319
0.999924 1.00247 0.992346
1.00049 1.00509 0.989125
1.00409 1.00372 0.983971
1.00458 1.00453 0.982929
1.00403 1.00354 0.9849
1.00231 1.00501 0.986695
1.00529 0.994906 0.991252
1.00536 0.994856 0.990635
1.00534 0.994851 0.990516
1.00524 0.994883 0.990313
1.00407 1.0027 0.984573
1.0052 0.995816 0.989461
1.00492 1.00049 0.985554
1.00014 1.00146 0.993265
1.00022 1.00277 0.992
0.999474 1.00429 0.991181
1.0013 1.00504 0.988005
1.00203 1.00498 0.98625
1.00405 1.00486 0.983652
1.00266 1.00414 0.986245
1.00344 1.00413 0.986027
1.00051 1.00498 0.988748
1.00217 1.00421 0.987701
1.00533 0.994819 0.990632
1.00469 1.00092 0.986263
1.00431 1.00332 0.98419
1.00523 1.00266 0.98411
1.00533 0.996133 0.989288
1.00535 0.995611 0.989719
1.00507 1.00025 0.985634
1.00499 0.999766 0.9861
1.00037 1.00462 0.989098
1.0018 1.00387 0.987816
1.00485 1.00149 0.985119
1.00501 1.00166 0.985263
1.00539 0.994803 0.990412
1.0054 0.994906 0.990263
1.0052 0.997892 0.987312
1.00512 1.00003 0.985808
0.998958 1.0048 0.990979
1.00544 0.994881 0.990459
1.00322 1.00317 0.987366
1.005 1.00092 0.985355
1.00533 0.994667 0.990837
1.00505 0.997181 0.987289
1.00507 1.00078 0.985522
0.999757 1.00472 0.99049
0.998649 1.00348 0.993568
0.997484 1.00255 0.99639
0.999819 1.00388 0.991163
0.999569 1.00508 0.990479
0.9982 1.00445 0.992661
1.00006 1.00373 0.991047
0.999551 1.00486 0.990535
0.998465 1.00178 0.995246
0.999747 1.00453 0.990899
0.999108 0.999879 0.997391
0.998427 1.00333 0.993659
0.999459 1.00506 0.990644
1.00036 1.00469 0.989575
1.00026 1.00385 0.99061
0.999969 1.00245 0.992472
0.999899 1.00247 0.992553
0.999817 0.99938 0.996403
0.999886 1.00232 0.992723
0.999952 0.999281 0.996303
0.999998 0.997374 0.997775
1.00007 0.999174 0.996214
1.00013 0.997251 0.997678
1.00018 0.997274 0.997547
1.00009 1.00132 0.993495
1.00001 0.999039 0.995734
0.999978 0.999548 0.995307
0.999857 0.997721 0.99899
0.999893 1.00043 0.994546
0.999813 0.998225 0.998845
0.999962 0.99899 0.998427
1.00533 0.994883 0.990701
1.00529 0.99493 0.991074
1.00527 0.994929 0.991351
1.00524 0.994947 0.991464
1.00528 0.994926 0.991382
1.00528 0.994905 0.991297
1.00533 0.9949 0.990801
1.00528 0.994902 0.991338
1.00537 0.994863 0.991172
1.00558 0.994938 0.991011
1.00527 0.99493 0.99135
1.00532 0.994903 0.990903
1.00533 0.99488 0.990618
1.00486 1.00349 0.982861
1.00493 1.00122 0.984624
1.00523 0.997732 0.987677
1.00531 0.994867 0.990477
1.00523 0.995101 0.990272
1.00356 1.00459 0.983804
1.00405 1.00457 0.983565
1.00366 1.00289 0.985095
0.999952 1.00237 0.992562
1.00023 1.00509 0.9891
1.00217 1.00502 0.986549
1.00529 0.994901 0.991229
1.00015 1.00137 0.993251
1.00014 1.0027 0.991834
1.00536 0.994865 0.990644
1.00533 0.99486 0.990529
1.00437 1.00296 0.984554
1.00496 1.00006 0.985926
1.00519 0.995843 0.989394
1.00525 0.994875 0.990258
0.999686 1.00414 0.991308
1.00123 1.00505 0.987937
1.00269 1.00439 0.986059
1.00392 1.00352 0.98487
1.00387 1.00468 0.983766
1.00197 1.00469 0.986343
1.00539 0.994844 0.991003
1.00538 0.994883 0.990433
1.00531 0.994846 0.990426
1.00522 0.995121 0.990078
1.00308 1.00212 0.987144
1.00499 0.998343 0.988143
1.00017 1.0029 0.991514
0.999849 1.00275 0.992308
1.00196 1.00125 0.991338
1.0007 1.00408 0.989414
1.00176 1.00509 0.987217
1.00276 1.00351 0.986474
1.00196 1.00431 0.985173
1.00112 1.00077 0.992407
1.00076 1.0045 0.988878
1.00297 1.00425 0.987451
1.0054 0.994803 0.990401
1.00543 0.994935 0.990214
1.00502 1.00214 0.985294
1.00487 1.00158 0.984855
1.00514 0.997769 0.98748
1.00513 1.00022 0.985864
0.999615 1.00432 0.990857
1.00545 0.994869 0.990689
1.00238 1.00342 0.987971
1.00495 1.00098 0.985327
1.00534 0.994691 0.990865
1.00513 0.997295 0.987505
1.00495 1.00061 0.985489
0.998855 1.00507 0.992534
1.00497 0.994769 0.990615
1.00219 1.00293 0.988008
1.00444 1.00221 0.984518
1.00514 0.995634 0.990268
1.00358 1.001 0.986552
0.999143 0.994689 0.984405
0.99864 1.00334 0.99357
0.997588 1.00238 0.996405
0.997404 1.00176 0.997467
0.999993 1.00377 0.991028
0.999466 1.00497 0.990587
1.0003 1.00428 0.990785
0.997834 1.00202 0.995681
1.00018 1.00396 0.99061
1.00021 1.00467 0.989774
0.998781 0.999351 0.997675
0.999451 1.005 0.990624
0.998927 1.00345 0.993196
0.99746 1.00238 0.997024
1.00013 1.00387 0.990935
0.99989 1.00493 0.990418
1.00078 1.00439 0.989446
1.00024 1.00414 0.990121
1.00044 1.00504 0.989714
1.00006 1.00431 0.99016
0.999915 1.00246 0.992499
0.999923 1.0025 0.992459
0.999698 0.999397 0.995888
0.999898 1.00243 0.992531
0.999798 0.999406 0.996086
0.999979 0.99744 0.999085
0.999961 0.999314 0.996311
1.00002 0.997348 0.997769
1.00014 0.997281 0.997668
0.999985 1.00103 0.993849
1.00013 1.00118 0.993533
1.00007 0.998689 0.996071
1.00002 0.999054 0.996039
0.99988 0.997461 0.999079
0.999931 0.999742 0.995262
0.999848 0.997757 0.998969
0.99985 0.998272 0.998787
1.00532 0.994896 0.990749
1.00528 0.994907 0.991299
1.00529 0.994924 0.99138
1.00528 0.994897 0.99134
1.00534 0.994868 0.991129
1.00561 0.995075 0.990852
1.00543 0.994852 0.991192
1.00107 0.994824 0.980652
1.0051 0.995196 0.991045
1.00019 1.00222 0.992371
1.00529 0.994897 0.991205
1.00537 0.99487 0.990654
1.00533 0.994867 0.990543
1.0045 1.00259 0.984514
1.00499 0.999661 0.986282
1.00516 0.995709 0.989312
1.00525 0.994877 0.990204
1.00317 1.00356 0.985931
1.00473 1.00343 0.983797
1.0042 1.00448 0.983871
1.00015 1.00138 0.99324
1.00243 1.00489 0.986431
0.999808 1.00412 0.991419
1.00113 1.00504 0.987873
1.00002 1.00272 0.991676
1.0054 0.994858 0.99099
1.00016 1.0028 0.991736
0.99988 1.0028 0.992371
1.0011 1.00166 0.991761
1.00538 0.994865 0.990424
1.00529 0.994845 0.990388
1.00258 1.00274 0.987254
1.00485 0.997669 0.988465
1.00522 0.99504 0.990056
1.00066 1.00401 0.989554
1.00188 1.00499 0.987243
1.00202 1.00109 0.991148
1.00313 1.00485 0.984917
1.00324 1.00356 0.98659
1.00544 0.994755 0.990921
1.00533 0.994842 0.990541
1.00525 0.994896 0.990011
1.00506 0.996644 0.990392
1.00179 0.999676 0.991135
0.999701 1.00326 0.991703
1.00207 1.00131 0.990537
1.00056 1.00106 0.992024
1.00142 1.00423 0.989161
1.00125 1.0041 0.988909
1.00101 1.00336 0.98859
1.00139 0.999135 0.993521
1.00084 1.00372 0.990695
1.00136 1.00369 0.988591
1.00543 0.99492 0.990911
1.00536 0.994714 0.990882
1.00518 0.99738 0.987722
1.0049 1.00104 0.985299
1.0048 1.00045 0.985465
0.998972 1.00478 0.993121
1.00462 0.994795 0.990833
1.00226 1.0031 0.987969
1.00458 1.00215 0.98451
1.00496 0.995525 0.990583
1.00389 1.00092 0.98663
0.998909 0.99481 0.98266
0.997783 1.00479 0.993779
1.00365 0.994702 0.990944
1.00269 1.00315 0.986111
1.00304 1.00075 0.987526
1.0035 0.997556 0.990675
0.999963 0.994895 0.939808
0.994937 0.994791 0.961737
0.996112 0.998049 0.98738
0.997517 0.994784 0.850555
0.994707 0.994883 0.8104
0.997966 1.00208 0.996424
0.997319 1.00207 0.997586
0.996708 1.00338 0.997316
1.00017 1.00399 0.990613
1.00014 1.00458 0.98997
0.99956 1.00501 0.990606
0.999276 1.00371 0.992703
0.998563 0.999153 0.997949
0.999706 1.00498 0.990554
1.00031 1.00409 0.990191
1.00068 1.00449 0.989392
0.997921 1.0015 0.996709
0.999627 1.00423 0.991346
1.00032 1.00391 0.991644
0.997971 1.00409 0.993945
0.999542 1.00477 0.991096
1.00061 1.00466 0.988912
1.00016 1.00424 0.990215
1.00007 1.00488 0.989722
1.00036 1.00369 0.991128
0.999651 1.00504 0.990706
1.00016 1.00502 0.989774
1.00012 1.00436 0.990348
1.00009 1.0043 0.990167
0.9999 1.00255 0.992485
0.999926 1.00248 0.992508
0.999675 0.999413 0.995944
0.999872 1.00262 0.992445
0.999682 0.99944 0.99589
0.999935 0.997429 0.999119
0.999769 0.99945 0.995772
0.999937 0.997443 0.998467
1.00005 0.997328 0.99776
0.999876 1.00074 0.994279
0.999974 1.00108 0.993856
1.00008 0.998421 0.996343
1.00017 1.00103 0.993569
1.00006 0.998651 0.996375
0.999925 0.997108 0.999158
1.00005 0.999128 0.99566
0.999892 0.997569 0.99904
0.999856 0.997881 0.998951
1.00533 0.994875 0.991086
1.00527 0.994893 0.991343
1.00563 0.994891 0.990693
1.00024 0.994824 0.980812
1.00545 0.994858 0.991144
1.00507 0.994893 0.991022
1.00549 0.99476 0.991172
0.9958 0.994889 0.962615
1.00245 0.994861 0.981252
1.00025 1.00177 0.992788
1.00018 1.00233 0.992336
0.999494 1.00395 0.991587
0.999908 1.00272 0.992196
1.00539 0.994866 0.990979
1.00538 0.994855 0.990414
1.00527 0.99484 0.990351
1.00361 1.00303 0.987361
1.00486 0.99639 0.988827
1.00522 0.994946 0.990051
1.00202 1.00055 0.989826
1.0044 1.00478 0.984659
1.00289 1.00272 0.986707
0.999891 1.00276 0.992434
1.00179 1.00454 0.987291
1.00066 1.00412 0.989695
1.0001 1.00282 0.991952
1.00037 1.00204 0.992179
1.00544 0.994761 0.990913
0.999985 1.00345 0.99137
1.00189 1.00091 0.991054
0.998162 1.00182 0.995103
1.00534 0.994853 0.990481
1.00525 0.994899 0.990016
1.00299 0.998724 0.991192
1.0048 0.996199 0.99034
1.00164 1.00449 0.988436
1.00117 1.00376 0.988133
1.00122 0.999707 0.993507
1.00252 1.00326 0.988051
1.00417 0.995864 0.990867
1.00523 0.995134 0.990602
1.00501 0.995975 0.989803
1.00362 0.995713 0.993435
0.997197 1.00495 0.994207
1.00236 1.00219 0.988809
0.998354 1.00391 0.993757
0.99893 1.00372 0.99285
1.00001 0.994935 0.925227
0.998693 1.00456 0.993737
1.00201 1.00337 0.987913
1.00418 0.994756 0.991086
1.00479 0.995445 0.990892
1.00418 1.00084 0.98668
1.00461 1.00217 0.984487
0.998828 0.995188 0.980723
0.99812 1.00449 0.993865
1.00334 0.99495 0.990812
1.00269 1.00383 0.986051
1.00366 1.00052 0.987674
1.00377 0.99787 0.990451
0.999819 0.994874 0.925733
0.995452 0.994825 0.958466
0.996174 0.997461 0.987769
0.997209 0.994758 0.855059
0.994732 0.994995 0.803613
0.998428 1.00457 0.992497
0.99934 0.994806 0.860428
0.994748 0.994846 0.800895
1.00093 0.997935 0.99269
1.00143 1.00162 0.990135
1.00144 0.999764 0.992873
0.994862 0.996991 0.99104
0.997422 0.994769 0.939402
0.994873 0.994774 0.954671
0.995305 0.994772 0.876416
0.99474 0.994839 0.788801
0.997006 1.00223 0.99771
0.996696 1.0032 0.997209
0.996493 1.00515 0.996352
1.00043 1.00399 0.990257
1.00064 1.00455 0.98934
0.999155 1.00505 0.99069
0.999281 1.00451 0.991755
0.998381 1.00064 0.996411
1.00029 1.00408 0.990198
0.999994 1.00418 0.991326
0.99946 1.00489 0.990773
1.00081 1.00468 0.989052
0.997975 1.00371 0.994174
0.998911 1.00372 0.993675
0.996673 1.00508 0.994881
0.999719 1.00503 0.990007
1.0005 1.00471 0.989483
1.0003 1.00488 0.98969
1.00008 1.00324 0.991566
0.999703 1.00485 0.990845
1.00032 1.00243 0.992207
0.99897 1.00182 0.993941
0.998315 1.00468 0.992422
0.999101 1.00502 0.991027
0.99965 1.00491 0.990739
1.00003 1.0046 0.990137
0.999947 1.005 0.989836
1.00021 1.00429 0.990256
0.999967 1.00266 0.992278
1.00016 1.00428 0.990174
0.999919 1.00248 0.992501
0.99989 0.999359 0.996382
0.999865 1.00254 0.992515
0.99974 0.999365 0.996203
0.999898 0.99738 0.997963
0.99967 0.999435 0.995888
0.999926 0.997446 0.999128
0.999921 0.997486 0.997845
1.00031 1.00188 0.99257
0.999897 1.00055 0.994472
0.999882 1.00079 0.994269
1.00003 0.998316 0.9965
0.999947 1.00115 0.993864
1.00008 0.998403 0.996339
0.999969 0.996946 0.999204
1.00006 0.99867 0.99662
0.999925 0.997282 0.998533
0.999905 0.997574 0.997762
0.999695 0.994819 0.980937
1.00548 0.994849 0.991092
1.00501 0.994907 0.990995
0.996192 0.994822 0.963037
1.00253 0.994867 0.981649
1.00548 0.995118 0.991166
1.00357 0.995363 0.986024
0.99795 0.994797 0.964733
0.999754 0.994836 0.939203
0.996923 0.994796 0.877164
0.994678 0.99484 0.808758
0.999599 1.00281 0.992387
1.00024 1.00177 0.992772
1.00027 1.00226 0.992296
0.999777 1.00335 0.991912
0.99855 1.00479 0.992861
1.00047 1.00273 0.991493
1.00019 1.00363 0.991191
1.00021 1.00247 0.992102
1.00546 0.994798 0.990897
1.00535 0.994867 0.990428
1.00526 0.995041 0.990019
1.00299 0.99938 0.991256
1.00454 0.99641 0.990267
1.00111 0.999693 0.993489
1.00385 1.00339 0.987524
1.00256 1.00405 0.987355
1.00159 1.00063 0.991563
1.00183 1.00457 0.98766
1.00037 1.00351 0.991054
0.996378 1.00279 0.998019
1.00425 0.995207 0.991176
0.997587 1.00468 0.99404
1.00163 1.0023 0.990529
1.00499 0.994932 0.99057
1.00457 0.996421 0.990107
1.00309 0.995823 0.993316
0.999739 1.00409 0.991844
0.999957 1.00239 0.993043
1.00323 0.995581 0.989988
1.00339 0.998613 0.990698
1.00408 0.996585 0.991708
1.00095 0.997321 0.995294
0.998814 1.00498 0.991946
0.998155 1.00501 0.992771
0.998576 1.00471 0.993189
0.999807 0.994969 0.861794
1.00015 0.994881 0.940525
0.999008 1.00407 0.993962
1.00287 1.00435 0.986012
1.00303 0.994944 0.990663
1.00407 0.998167 0.990243
1.00409 1.00048 0.987861
0.999993 0.994852 0.937818
0.995835 0.994794 0.958009
0.996237 0.997511 0.988258
0.996859 0.99481 0.874608
0.994759 0.994853 0.796398
0.998768 1.00457 0.992455
0.999827 0.994861 0.858375
0.994713 0.994823 0.794306
1.00097 0.998011 0.992557
1.00141 1.00197 0.990164
1.00133 0.999893 0.993282
0.994861 0.998283 0.991867
0.997393 0.99477 0.932605
0.994877 0.994799 0.955019
0.994886 0.994785 0.876042
0.99476 0.994845 0.786819
0.997533 1.00496 0.994977
0.994741 0.994785 0.788767
0.994741 0.994771 0.792298
0.996815 1.00155 0.997213
0.999574 1.00177 0.995971
0.994892 0.99917 0.988354
0.994893 0.994814 0.958007
0.994869 0.994744 0.92825
0.994762 0.994871 0.879442
0.994845 0.994869 0.797731
0.996886 1.0028 0.997108
0.997215 1.00477 0.995925
0.996303 1.00404 0.996781
1.00037 1.00398 0.99018
1.00087 1.00466 0.989193
0.999617 1.00504 0.990448
0.999507 1.00445 0.991011
0.997742 1.00337 0.994404
1.00051 1.00475 0.989456
0.999 1.00346 0.993143
1.00005 1.00499 0.990024
0.996293 1.00496 0.995148
0.996006 1.00512 0.997201
0.998188 1.00475 0.993346
1.00036 1.00499 0.990105
1.00054 1.00458 0.989659
0.999874 1.00277 0.991993
0.999648 1.00468 0.990808
1.00047 1.0021 0.992106
0.998574 1.00234 0.994295
0.998583 1.00398 0.992567
0.997734 1.00511 0.993152
0.998557 1.00118 0.99596
1.00006 1.00218 0.992927
1.00345 0.999436 0.990625
0.998647 1.00474 0.99164
0.998643 1.00464 0.992443
0.999306 1.00507 0.99005
0.999282 1.00505 0.991073
1.00019 1.0047 0.98979
0.999445 1.00505 0.99077
1.00007 1.00459 0.990216
1.00002 1.00291 0.991819
1.00029 1.0043 0.990165
0.999981 1.00262 0.992287
1.00002 0.999386 0.996121
0.999934 1.00246 0.992519
0.999873 0.999345 0.996019
1.00002 0.997277 0.997806
0.999735 0.999355 0.995915
0.999954 0.997353 0.999142
0.999921 0.997431 0.999138
1.00037 1.00237 0.992305
0.999943 1.00073 0.994269
1.00022 1.00199 0.992584
1.00003 0.99824 0.996571
0.999888 1.00056 0.994464
0.999866 1.00085 0.994259
1.00004 0.998315 0.996488
0.999991 0.996856 0.999229
1.00006 0.998444 0.996858
0.999974 0.996963 0.99864
0.99994 0.997252 0.99799
0.999513 0.994853 0.845507
0.994732 0.994816 0.787752
0.996195 0.994843 0.963557
1.00212 0.994852 0.982182
1.00543 0.994789 0.991176
0.997909 0.994866 0.963437
1.00342 0.994717 0.986593
0.999911 0.994859 0.9348
0.996871 0.994752 0.85593
0.994722 0.994901 0.80232
0.997676 0.994758 0.971618
0.997018 0.994803 0.940407
0.99571 0.994791 0.876107
0.994788 0.994868 0.798055
0.999856 1.00373 0.991841
0.999835 1.00254 0.992478
1.00016 1.00192 0.992762
0.999928 1.00292 0.992241
0.998196 1.00435 0.99363
1.00035 1.00413 0.990194
0.99995 1.00349 0.991574
1.00072 1.00384 0.989782
1.00017 1.00361 0.99106
0.999837 1.00306 0.991999
1.00408 0.994778 0.991468
1.00487 0.99486 0.990533
1.00385 0.996713 0.990415
1.0024 0.995785 0.993193
1.00041 1.00235 0.993213
0.999708 1.0044 0.989985
1.00054 1.00215 0.99242
0.997836 1.00439 0.993827
1.00227 0.995322 0.990542
0.998858 1.00508 0.991684
0.997894 1.00499 0.992969
1.00311 0.998494 0.990614
1.00368 0.996356 0.99192
1.00068 0.99752 0.995654
0.998626 1.00462 0.992956
0.999727 0.995604 0.988969
1.00071 0.999315 0.9949
0.997016 1.00248 0.996723
0.998601 1.00467 0.991112
0.997592 1.00516 0.99254
0.998043 1.00484 0.993575
0.994718 0.994813 0.811133
0.999804 0.994878 0.867825
1.00009 0.994884 0.925529
0.99888 1.00482 0.992391
1.00167 1.00217 0.990151
1.00099 0.997506 0.992417
1.00108 0.999811 0.993695
0.999832 0.994928 0.872972
0.997115 0.994804 0.926179
0.994872 0.994816 0.954704
0.994872 0.999014 0.992542
0.995298 0.994788 0.860146
0.994688 0.994806 0.80076
0.994811 0.995039 0.802725
0.997567 1.00435 0.994658
0.994726 0.994799 0.798569
0.994764 0.994777 0.79163
0.996933 0.999937 0.99786
0.99904 1.00168 0.995874
0.9949 0.997793 0.99025
0.995123 0.994791 0.956514
0.995302 0.994782 0.939874
0.994702 0.995968 0.860021
0.995136 0.994872 0.807707
0.996615 1.00386 0.9983
0.994763 0.994812 0.800294
0.99481 0.994817 0.790662
0.994839 1.00245 0.999912
0.99498 0.99673 0.966093
0.994774 0.994831 0.937217
0.994903 0.994915 0.854351
0.995788 0.994897 0.821724
0.997846 1.00374 0.995467
0.996706 1.00422 0.996944
0.995563 1.00399 0.998428
1.00036 1.0048 0.989425
1.0002 1.00504 0.990044
0.99909 1.00313 0.99261
0.996115 1.00475 0.995419
0.999812 1.00501 0.990122
0.997949 1.0049 0.993332
0.995496 1.00486 0.997464
0.99489 1.00428 0.99865
0.995609 1.00506 0.997511
0.998685 1.00513 0.992841
0.999744 1.00479 0.990764
1.00056 1.00163 0.992009
0.998094 1.00293 0.994641
0.997843 1.00504 0.993227
0.999137 1.00371 0.992514
0.997951 1.00204 0.995987
0.998097 1.00357 0.994387
0.995596 1.0051 0.997558
1.00122 0.998846 0.994986
0.999596 1.00158 0.993867
1.00195 1.00027 0.991203
1.00473 1.00003 0.987755
1.00256 1.00133 0.990271
1.00252 0.998985 0.991869
0.999275 1.00453 0.991432
0.999513 1.00512 0.989524
0.999044 1.00455 0.992464
0.999887 1.00506 0.990054
1.00048 1.00473 0.989159
0.999776 1.00481 0.991113
1.00033 1.00469 0.989775
1.00009 1.00349 0.991233
1.00019 1.00448 0.990298
1.00011 1.00294 0.991815
1.00017 0.999509 0.995806
1.00009 1.00246 0.992296
1.00002 0.999409 0.995718
1.00011 0.997369 0.997605
0.999878 0.999316 0.99572
1.00001 0.997284 0.998475
0.999969 0.997308 0.999124
1.00033 1.00317 0.991141
1.00008 1.00092 0.993892
1.00027 1.00239 0.992098
1.00004 0.998288 0.996505
0.99996 1.00066 0.994282
1.00024 1.00187 0.992598
1.00002 0.996795 0.999242
1.00002 0.998246 0.99657
0.999889 1.00061 0.994458
1.00005 0.998307 0.996476
0.999993 0.996885 0.999223
0.999965 0.996959 0.999198
0.99471 0.994764 0.788817
0.999579 0.994845 0.858728
0.994766 0.994776 0.790208
0.994744 0.994805 0.788186
0.997942 0.994873 0.962225
1.00318 0.994759 0.987156
0.999715 0.994813 0.929608
0.998021 0.994797 0.876917
0.994766 0.994845 0.795802
0.998249 0.994803 0.970543
0.997256 0.994781 0.925883
0.994999 0.994789 0.874998
0.994732 0.99486 0.790446
0.994902 0.994798 0.962709
0.995639 0.99472 0.926483
0.994822 0.996724 0.852441
0.994832 0.994881 0.799803
1.00067 1.00476 0.990209
0.999314 1.00378 0.99199
1.00004 1.0023 0.992565
0.997571 1.00389 0.994408
1.00101 1.00372 0.989404
1.00022 1.00409 0.990415
0.99941 1.00382 0.991658
1.00123 1.00318 0.989997
1.00077 1.00411 0.989792
1.00032 1.00329 0.990929
1.00199 0.994806 0.991057
1.00274 0.99829 0.990547
1.00361 0.996038 0.992131
1.00019 0.997326 0.996015
1.00005 1.00454 0.992698
0.998158 1.00493 0.993173
0.998913 1.00511 0.991424
0.999641 1.00455 0.990909
0.999458 0.996518 0.989621
0.998543 1.00513 0.992247
0.998756 1.00473 0.993457
1.00039 0.999265 0.995188
0.998391 1.00121 0.996579
0.996053 1.00091 0.988666
0.996638 1.00034 1.00031
0.995047 1.0051 0.99716
0.998038 1.00477 0.993241
0.996771 1.00514 0.994867
0.994788 0.994801 0.806927
0.994715 0.994785 0.806509
0.999824 0.994948 0.848784
0.997751 1.00441 0.994402
0.998809 1.00115 0.99578
0.99717 0.999456 0.998505
0.994698 0.994782 0.796213
0.995368 0.994734 0.927836
0.995202 0.994788 0.956033
0.994878 0.996047 0.992555
0.994771 0.995227 0.879882
0.994774 0.994781 0.791897
0.995622 0.994867 0.809476
0.996671 1.00376 0.998441
0.994775 0.994817 0.802734
0.994796 0.994817 0.791833
0.994991 1.0022 0.998894
0.995071 0.995855 0.967881
0.994811 0.995198 0.92498
0.995506 0.994891 0.816821
0.99529 0.998104 0.863146
0.994846 1.00505 1.00026
0.994787 0.994833 0.790286
0.994861 0.994836 0.803945
0.99483 0.994868 0.799694
0.99479 0.999163 0.988832
0.994904 0.996173 0.940517
0.997748 0.994892 0.874694
0.997055 1.00493 0.997129
0.995721 1.00475 0.998147
0.995104 1.00525 0.998933
0.999686 1.00498 0.990143
0.997845 1.0051 0.993314
0.995119 1.00507 0.997723
0.998114 1.00513 0.99285
0.995737 1.00502 0.997495
0.994894 1.00501 0.998558
0.994873 1.005 0.99887
0.995406 1.00505 0.997624
0.997644 1.005 0.993326
0.999608 1.00361 0.992459
0.997517 1.0028 0.996014
0.995613 1.00484 0.997469
0.997823 1.00382 0.994408
0.998268 1.00125 0.997033
0.998338 0.998776 0.998823
1.00194 1.0002 0.990355
0.999181 1.00103 0.994742
1.00234 1.00016 0.990857
1.00442 1.0015 0.986224
1.00473 1.00268 0.984511
1.00433 0.999276 0.98905
1.0038 1.00015 0.987859
1.00156 1.00391 0.988688
1.00166 1.00172 0.990585
1.0015 0.998587 0.993083
0.999908 1.00434 0.991225
0.99996 1.00511 0.989456
1.00052 1.00509 0.988452
1.00045 1.00506 0.990063
1.00066 1.00477 0.989144
1.00025 1.00385 0.990555
1.00048 1.00455 0.989757
1.00017 1.00333 0.991226
1.0002 0.999821 0.995461
1.00008 1.00301 0.99181
1.00013 0.999582 0.995362
1.00022 0.997459 0.997381
1.00003 0.999418 0.995389
1.00011 0.997335 0.998336
1.00005 0.997279 0.999056
1.00071 1.00324 0.990286
1.00013 1.00139 0.992978
1.00046 1.00304 0.991146
1.00011 0.998392 0.996293
1.00008 1.00092 0.99371
1.00022 1.00244 0.991892
1.00004 0.996806 0.999224
1.00005 0.998256 0.996519
0.99999 1.00055 0.994295
1.00001 0.996827 0.999239
1.00001 0.998266 0.996569
0.999995 0.996873 0.999218
0.994816 0.994811 0.797065
0.994717 0.994808 0.803253
0.999491 0.994826 0.857403
1.00103 1.003 0.99027
0.994796 0.994802 0.796505
0.994767 0.994779 0.790148
0.994777 0.994807 0.802669
0.998597 0.994817 0.969992
0.996972 0.994789 0.940091
0.995621 0.994863 0.857739
0.994701 0.994846 0.801152
0.995845 0.994805 0.960392
0.995462 0.994776 0.938596
0.994731 0.995167 0.855961
0.99485 0.99488 0.802564
0.994844 0.994792 0.954815
0.994769 0.994802 0.935113
0.996119 0.998412 0.866679
0.995424 0.994901 0.821939
0.999249 1.0045 0.991361
0.999931 1.00468 0.990324
0.99953 1.00353 0.992143
1.00118 1.00227 0.99067
1.00093 1.00405 0.98952
1.00012 1.00443 0.990635
1.00131 1.00326 0.989912
1.00081 1.00418 0.989802
0.99846 0.997353 0.990121
0.999694 0.999162 0.995394
0.999764 1.00457 0.9907
0.999798 0.999892 0.996442
0.999063 1.00454 0.993346
0.999203 1.00512 0.991947
0.998193 1.00444 0.993095
0.995659 1.00008 0.989023
0.997501 1.00505 0.994771
0.996315 1.00365 0.997424
0.995914 1.00069 1.00037
0.99733 1.00427 0.995058
0.994795 1.00092 0.986627
0.995238 1.00294 0.998749
0.995713 1.00498 0.997573
0.996864 1.00536 0.995857
0.994766 0.994812 0.794947
0.994787 0.994805 0.80378
0.994708 0.994763 0.801709
0.996749 1.00397 0.998559
0.995117 1.0012 0.997844
0.994791 0.994824 0.804972
0.994738 0.994819 0.938731
0.995286 0.995864 0.964932
0.995405 0.996791 0.86145
0.994793 0.994819 0.792752
0.994889 0.994891 0.811876
0.995073 1.00506 1.00008
0.994789 0.994829 0.79055
0.994867 0.994849 0.803553
0.99483 0.999781 0.992562
0.994851 0.994875 0.802533
0.994853 0.996667 0.932748
0.996419 0.997429 0.876441
0.99507 1.00372 0.99753
0.994841 0.994841 0.800458
0.9948 0.99481 0.798251
0.994789 0.994869 0.797727
0.996169 0.998404 0.866342
0.994879 1.00111 0.972105
0.995203 0.997194 0.925628
0.996162 1.00509 0.997882
0.995274 1.00522 0.998956
0.994822 1.00531 0.998226
0.997449 1.00514 0.992857
0.995104 1.00491 0.997485
0.994897 1.0051 0.998502
0.995255 1.00483 0.997598
0.994885 1.0049 0.998868
0.997489 1.00202 0.998753
0.995487 1.00465 0.997371
0.997263 1.00418 0.994467
0.997722 1.00156 0.997463
0.997984 1.00076 0.994911
0.995767 0.998774 1.00236
1.00155 0.999886 0.991663
1.00438 1.00445 0.982554
1.00432 1.00303 0.98436
1.00276 0.999977 0.990435
1.00424 1.00184 0.985727
1.0051 1.00239 0.983986
1.00511 1.00108 0.985746
1.00431 1.00249 0.984786
1.00333 1.00112 0.988452
1.00371 0.999859 0.988872
1.00308 1.00022 0.98799
1.00068 1.00514 0.988086
1.00105 1.00413 0.988863
1.00072 1.00209 0.990889
1.00043 1.0051 0.989388
1.00086 1.00508 0.988487
1.00041 1.00451 0.989569
1.00081 1.00498 0.989127
1.00036 1.00378 0.990549
1.00018 1.00015 0.994339
1.00038 1.00323 0.991223
1.00022 0.999872 0.994627
1.00014 0.997523 0.998817
1.0001 0.999728 0.994996
1.00018 0.997422 0.998176
1.00013 0.997307 0.998964
1.00062 1.00342 0.990272
1.00033 1.00196 0.99215
1.00065 1.00332 0.990481
1.00019 0.998621 0.99595
1.00024 1.00138 0.992876
1.0005 1.00302 0.991145
1.00008 0.996835 0.999174
1.00013 0.998349 0.996311
1.00009 1.00091 0.993529
1.00004 0.996793 0.999231
1.00006 0.998222 0.996533
1.00001 0.996855 0.999236
0.994791 0.994824 0.799279
0.994811 0.994809 0.797457
0.994708 0.994817 0.802679
1.00114 1.00295 0.990303
1.00032 1.00437 0.989779
1.00167 1.00135 0.991426
0.994868 0.994853 0.802905
0.994803 0.994803 0.797543
0.99477 0.99477 0.790235
0.996803 0.994796 0.96051
0.994839 0.994737 0.9265
0.994755 0.996314 0.878165
0.994837 0.994864 0.796794
0.994964 0.994785 0.956046
0.994787 0.995953 0.930965
0.996031 0.99735 0.863863
0.995255 0.9949 0.816861
0.994865 0.995096 0.954215
0.994863 0.99621 0.934924
0.997039 0.994915 0.874975
0.994845 0.994874 0.799281
0.999073 1.00251 0.993425
0.999917 1.00394 0.991142
0.999873 1.00447 0.990436
1.0012 1.00237 0.990596
1.00059 1.00451 0.989632
1.00136 1.00335 0.989827
0.99553 1.00011 0.989679
0.995726 1.00108 1.00056
0.998865 1.00355 0.992956
0.998007 1.00253 0.997591
0.998138 1.00465 0.994677
0.996828 1.0038 0.995709
0.996237 1.0051 0.995956
0.994768 1.00249 0.986551
0.995399 1.00515 0.997875
0.995018 1.00343 0.998076
0.995957 1.00478 0.997353
0.995406 0.999784 0.98492
0.99525 1.00516 0.99475
0.994816 1.00348 0.999212
0.994865 0.994843 0.794174
0.994773 0.994821 0.793969
0.994787 0.994804 0.80068
0.995121 1.00507 0.999853
0.994852 0.999958 0.988191
0.994784 0.994826 0.790826
0.994827 0.997041 0.932306
0.996317 0.994885 0.861494
0.994877 0.994847 0.803132
0.994835 0.994858 0.796913
0.994953 1.00351 0.998043
0.994826 0.99484 0.800021
0.994814 0.994803 0.799389
0.994913 1.00076 0.969406
0.994721 0.994862 0.790502
0.995831 0.99785 0.86324
0.994839 0.996001 0.939585
0.99497 1.00522 0.988959
0.994786 0.99483 0.800295
0.994771 0.99479 0.791653
0.994674 0.994848 0.810124
0.994824 0.996413 0.851395
0.994884 0.99688 0.935675
0.994837 1.00134 0.963568
0.995201 1.0052 0.998925
0.994911 1.00528 0.998155
0.995564 1.00477 0.9975
0.995602 1.00454 0.997574
0.994911 1.00494 0.99886
0.996026 1.00379 0.99865
0.998778 1.00019 0.998226
0.997192 1.00192 0.997869
1.00068 1.00039 0.993839
1.00211 1.00482 0.986422
1.00087 0.999683 0.993359
1.00421 1.00427 0.983488
1.00428 1.00393 0.982841
1.005 1.00091 0.985017
1.00509 1.00163 0.98461
1.00427 1.00307 0.98426
1.00422 1.00219 0.985241
1.00519 1.00195 0.984265
1.00511 1.0022 0.984126
1.00478 1.00073 0.986533
1.0046 1.00117 0.985947
1.00374 1.00233 0.985068
1.0015 1.00408 0.988069
1.00297 1.00172 0.988348
1.00295 1.00051 0.988677
1.00064 1.00504 0.988598
1.0011 1.00513 0.988091
1.00058 1.00431 0.989039
1.00119 1.00508 0.988524
1.00066 1.00433 0.989581
1.00015 1.00082 0.993732
1.00058 1.00355 0.990541
1.00023 1.00016 0.994318
1.0002 0.997723 0.998753
1.00024 0.999857 0.994636
1.00022 0.997562 0.998014
1.00018 0.997473 0.998864
1.00115 1.00341 0.989824
1.0005 1.0023 0.991783
1.00084 1.00317 0.990291
1.00027 0.998945 0.99549
1.00034 1.00196 0.992236
1.0006 1.00335 0.990681
1.00011 0.996933 0.999096
1.00021 0.998554 0.995972
1.00031 1.00136 0.992775
1.00008 0.99683 0.999189
1.00014 0.99831 0.996329
1.00004 0.996816 0.999239
0.99483 0.99484 0.798903
0.994792 0.99484 0.799581
0.994811 0.994815 0.797823
0.999697 1.00521 0.98965
1.00138 1.00321 0.991124
1.00098 1.00294 0.990345
1.00039 1.0042 0.989677
1.0007 1.00165 0.991804
1.00039 1.00271 0.991225
0.999344 1.0013 0.994149
0.994827 0.994823 0.792142
0.994869 0.994854 0.802547
0.994803 0.99483 0.798582
0.994889 0.994899 0.811774
0.995531 0.99479 0.954848
0.994792 0.996675 0.925403
0.995942 0.994904 0.877546
0.994886 0.995293 0.953653
0.994871 0.998367 0.921403
0.996318 0.997395 0.876029
0.99502 0.994871 0.809095
0.995275 0.995988 0.957787
0.994863 0.998256 0.923795
0.994905 0.994912 0.854894
0.994752 0.994841 0.79017
0.996582 1.00442 0.995918
0.998785 1.003 0.993978
0.999888 1.00427 0.990922
1.00109 1.00281 0.99053
0.994776 1.00187 0.986375
0.99477 1.00385 0.997347
0.996432 1.00451 0.996362
0.996536 1.00507 0.996066
0.995175 1.00514 0.998299
0.995416 1.00502 0.997337
0.995581 1.00375 0.999285
0.995395 1.00048 0.981777
0.995294 1.00519 0.994838
0.995676 1.00363 0.9988
0.995342 1.00232 0.978164
0.99472 1.00318 0.999323
0.994766 0.994826 0.796402
0.99485 0.994842 0.798232
0.994783 0.994837 0.792968
0.994852 1.00363 0.998544
0.994877 1.00085 0.972919
0.994815 0.994841 0.799618
0.994867 0.997768 0.92684
0.996077 0.994904 0.877135
0.994811 0.994832 0.80037
0.994687 0.99485 0.800967
0.994908 1.00503 0.989946
0.994799 0.994837 0.800635
0.994762 0.994792 0.791651
0.994826 1.0002 0.963679
0.994727 0.994852 0.803743
0.994721 0.995907 0.854445
0.99488 0.997196 0.922913
0.994853 1.00428 0.984131
0.994832 0.994813 0.797324
0.994719 0.994823 0.789265
0.995074 0.994779 0.877927
0.994763 0.995093 0.935284
0.994804 0.999961 0.957944
0.994929 1.00529 0.99854
0.995311 1.00464 0.997568
0.996629 1.0028 0.997257
0.995034 1.00495 0.998549
0.996854 1.00275 0.998557
1.0013 1.00093 0.993048
1.00328 0.999807 0.992778
1.0029 1.0049 0.98555
1.00434 1.00242 0.984357
1.00383 1.00409 0.984423
1.00447 1.00393 0.982782
1.00467 1.00237 0.984233
1.00525 0.99853 0.986793
1.00512 1.00031 0.985793
1.005 1.00106 0.985001
1.00514 1.00153 0.984672
1.00503 1.0015 0.984601
1.0042 1.00314 0.984158
1.00518 1.00203 0.984254
1.00519 1.00208 0.984228
1.00512 1.00203 0.984272
1.00365 1.0018 0.98753
1.00407 1.00112 0.986942
1.00428 1.00112 0.986152
1.00102 1.00511 0.987708
1.00182 1.00393 0.988095
1.00248 1.00244 0.988246
1.00028 1.00146 0.992899
1.00086 1.0049 0.988634
1.00145 1.00511 0.988094
1.00079 1.00421 0.989592
1.00018 1.00083 0.993705
1.00016 0.997993 0.998646
1.00026 1.00019 0.994298
1.0002 0.997691 0.998731
1.00022 0.997507 0.998786
1.00039 1.00504 0.989951
1.00101 1.00509 0.988955
1.00078 1.00277 0.990886
1.00083 1.00387 0.9898
1.00026 0.999372 0.995055
1.0005 1.00233 0.991778
1.00094 1.00314 0.990312
1.00013 0.997166 0.998984
1.00026 0.998936 0.995513
1.00037 1.00199 0.99232
1.00011 0.996929 0.99912
1.00021 0.998519 0.996
1.00008 0.996809 0.999206
0.994798 0.994846 0.791625
0.994824 0.994833 0.798495
0.994798 0.99483 0.799878
1.0001 1.00518 0.989579
1.00029 1.00259 0.991423
1.00165 1.00214 0.988278
0.998748 1.00398 0.991302
1.00174 1.00129 0.991761
1.00074 1.00423 0.989571
1.00018 1.00218 0.992185
1.00028 1.00362 0.991244
0.999851 1.00097 0.994472
0.998984 1.00364 0.994298
0.994755 0.99477 0.793231
0.994809 0.994828 0.793423
0.994872 0.99484 0.802151
0.995217 0.994866 0.810773
0.99588 0.994912 0.861591
0.994849 0.994884 0.952711
0.994822 0.996664 0.93404
0.995401 0.996146 0.953706
0.994873 0.99674 0.93621
0.995069 0.998235 0.864083
0.994768 0.994846 0.788206
0.994923 0.998197 0.956468
0.994832 0.997732 0.935916
0.994766 0.994895 0.879784
0.99471 0.994885 0.812116
0.998883 1.00035 0.996484
0.996275 1.0044 0.996409
0.998847 1.00274 0.99455
0.995256 1.00258 0.978291
0.995118 1.00517 0.994627
0.99514 1.00498 0.997291
0.994737 1.00434 0.999371
0.995615 1.00359 0.998687
0.994743 1.00236 0.999772
0.994863 1.00193 0.978188
0.996122 1.00125 1.00091
0.994891 1.00067 0.98478
0.994802 0.994818 0.806617
0.994789 0.994836 0.795387
0.994834 0.994834 0.802402
0.994955 1.00497 0.990257
0.994858 0.999932 0.961417
0.994816 0.994842 0.80098
0.994859 0.997149 0.935106
0.994749 0.995946 0.875548
0.994762 0.994771 0.791927
0.994771 0.994849 0.797205
0.995199 1.00481 0.984763
0.994817 0.994816 0.797539
0.994734 0.994817 0.789702
0.994947 0.998527 0.959033
0.994867 0.994784 0.875858
0.994802 0.996258 0.928802
0.995394 1.00252 0.981564
0.99471 0.994777 0.789644
0.997083 0.994801 0.877985
0.995316 0.994716 0.926877
0.994843 0.995207 0.959397
0.995467 1.00519 0.997671
0.995751 1.00389 0.997144
0.99819 1.00116 0.997142
0.994855 1.00517 0.998933
0.999902 1.00166 0.994202
1.00419 0.997474 0.9907
1.00383 1.00501 0.984657
1.0042 1.00252 0.984256
1.00466 0.999295 0.986922
1.00474 1.00402 0.982719
1.00473 1.00199 0.984309
1.00506 0.998459 0.987295
1.00534 0.995893 0.989149
1.00528 0.998093 0.986986
1.00525 0.998455 0.986846
1.00517 1.00029 0.9859
1.00512 1.00035 0.985725
1.00496 1.00115 0.984983
1.00517 1.00218 0.984114
1.00515 1.00143 0.984618
1.00498 1.00139 0.984592
1.00499 1.00161 0.98547
1.00481 1.00238 0.984544
1.0052 1.00228 0.98419
1.002 1.00399 0.987172
1.00325 1.00194 0.987458
1.00367 1.00139 0.987347
1.00039 1.00251 0.992801
1.00127 1.00511 0.987764
1.00207 1.00375 0.988121
1.00018 0.998639 0.996119
1.00032 1.00161 0.993311
1.00107 1.0048 0.98867
1.00023 1.00088 0.993674
1.00018 0.998104 0.998579
1.00021 0.997699 0.998706
1.00135 1.00367 0.988819
1.00152 1.00513 0.988201
0.999512 1.00506 0.98984
1.00075 1.00396 0.989803
1.00077 1.00479 0.988917
1.00021 0.999851 0.994659
1.00063 1.00302 0.990898
1.00062 1.00424 0.989769
1.00012 0.997466 0.998894
1.00028 0.999321 0.995078
1.00049 1.00233 0.991774
1.00012 0.99714 0.999018
1.00025 0.99889 0.995533
1.00011 0.996898 0.999143
0.994779 0.994821 0.806833
0.994801 0.994844 0.791943
0.994811 0.994851 0.798057
1.00338 1.002 0.986527
0.999993 1.00498 0.989507
0.99974 1.00284 0.991777
1.00002 1.00484 0.990841
1.0029 1.00197 0.988366
1.00078 1.00168 0.993202
1.00373 1.00203 0.987062
0.996717 1.0047 0.99405
0.999645 1.00391 0.991262
0.99981 0.999727 0.994796
0.997793 1.00336 0.994254
0.998256 1.00311 0.994581
0.99475 0.994839 0.80176
0.994774 0.994776 0.792611
0.994801 0.994832 0.794443
0.994811 0.995348 0.803782
0.995148 0.996912 0.862531
0.994862 0.998352 0.923856
0.995687 0.995064 0.953035
0.995134 0.997737 0.956938
0.994736 0.995213 0.805097
0.994859 0.996728 0.927262
0.99472 0.996616 0.860468
0.994886 0.996525 0.961744
0.994778 0.995636 0.937935
0.994902 0.994809 0.877996
1.00012 0.994973 1.00082
0.998715 1.00098 0.996339
0.995748 1.00449 0.996867
0.994921 1.00168 0.97816
0.995516 1.00114 1.00015
0.996024 1.0034 0.998619
0.996723 1.00024 1.00126
0.994944 0.999655 0.984904
0.995788 0.998866 0.992373
0.994713 0.994807 0.805924
0.994797 0.994816 0.807267
0.994806 0.994837 0.794221
0.994916 1.00445 0.984941
0.994879 0.99987 0.958268
0.9948 0.994825 0.798
0.994829 0.996376 0.923214
0.995298 0.994782 0.85921
0.994772 0.994823 0.80377
0.995008 1.00495 0.981312
0.994719 0.994821 0.803778
0.996793 0.994748 0.856707
0.994872 0.99543 0.954998
0.99517 0.994774 0.938976
0.994881 1.00076 0.990132
0.999625 0.994876 0.845469
0.997062 0.994801 0.940553
0.994878 0.994815 0.953646
0.994857 1.00515 0.99698
0.997382 1.00176 0.996993
1.00061 0.99965 0.993683
0.998687 1.00167 0.995343
1.0038 0.997665 0.990442
1.00475 0.997298 0.989481
1.00405 1.00258 0.984155
1.00464 0.999237 0.986816
1.00511 0.996139 0.989153
1.00472 1.00151 0.984393
1.00495 0.998395 0.98725
1.00536 0.995276 0.989811
1.00528 0.995008 0.990636
1.00532 0.99609 0.989087
1.00535 0.995876 0.989205
1.00531 0.998056 0.987077
1.00528 0.998064 0.987181
1.00524 0.99841 0.986897
1.00524 1.00098 0.984949
1.00518 1.00017 0.985831
1.00512 1.00035 0.985656
1.00518 1.00277 0.983651
1.00511 1.00224 0.984164
1.00515 1.00131 0.984563
1.00304 1.00304 0.986786
1.00438 1.00221 0.985415
1.00423 1.00277 0.984835
1.00081 1.00303 0.99046
1.00226 1.00399 0.987167
1.00296 1.00237 0.987379
0.999887 0.999754 0.998106
1.00053 1.00242 0.991544
1.00156 1.00509 0.987821
1.00019 0.998621 0.998339
1.00037 1.00162 0.99274
1.00021 0.998179 0.998499
1.00415 1.0018 0.987456
1.00186 1.00328 0.988545
1.00171 1.00462 0.987952
1.00096 1.00469 0.988945
1.00105 1.00514 0.988205
0.999809 1.00513 0.989732
1.00006 1.00075 0.994059
1.00069 1.00399 0.989815
1.00075 1.0044 0.988875
1.0001 0.997671 0.998802
1.00019 0.999851 0.994678
1.00044 1.00326 0.990906
1.00011 0.997408 0.998918
1.00028 0.999297 0.995096
1.00011 0.997092 0.999053
0.994738 0.994784 0.790984
0.994795 0.994822 0.807203
0.994808 0.994839 0.792313
1.00337 1.00257 0.986378
1.00469 1.00312 0.985635
1.00245 1.00358 0.98674
0.999754 1.00481 0.990375
1.00387 1.00153 0.988465
0.998765 1.00089 0.994567
0.998234 1.00382 0.993546
1.00207 1.00255 0.988409
1.0016 1.00058 0.991556
0.998757 0.999918 0.996278
0.998538 1.00353 0.994182
0.998979 1.00346 0.994263
0.997646 0.994785 0.850674
0.99472 0.99482 0.795437
0.994783 0.99478 0.792861
0.994764 0.994872 0.79759
0.99477 0.995963 0.880144
0.994848 0.99634 0.923245
0.99486 0.996822 0.955472
0.994893 0.99683 0.959216
0.995236 0.99482 0.875998
0.994802 0.995644 0.925091
0.99485 0.99741 0.963096
0.99539 0.994709 0.927338
0.99925 0.995492 1.00368
0.999829 0.995258 1.00081
0.998349 1.00066 0.996332
0.994863 0.999326 0.985179
0.997008 0.999343 1.00162
0.99624 0.998982 0.991937
0.995811 0.996506 0.989946
0.999805 0.995194 0.860465
0.994707 0.994787 0.802734
0.9948 0.994819 0.807661
0.994838 1.00459 0.981784
0.994848 0.994878 0.953025
0.994712 0.994825 0.803009
0.99494 0.994731 0.927704
0.997388 0.9948 0.87788
0.994925 0.998651 0.986603
0.999609 0.994858 0.858846
0.997141 0.994788 0.92635
0.994859 0.994792 0.95463
0.996045 0.998273 0.986998
0.999737 0.994842 0.939324
0.994998 0.994834 0.961134
0.996338 1.00136 0.996869
0.999852 0.999547 0.993633
1.0033 0.998834 0.991553
1.00292 0.998658 0.990206
1.00446 0.997249 0.989397
1.00515 0.995732 0.989888
1.00467 0.999248 0.986712
1.00497 0.996562 0.98908
1.00533 0.994843 0.990169
1.0049 0.998367 0.987202
1.00535 0.995287 0.989756
1.00529 0.994849 0.990647
1.00532 0.994873 0.990744
1.00528 0.994995 0.990698
1.00526 0.995213 0.99064
1.0053 0.996549 0.98902
1.00532 0.996121 0.989236
1.00538 0.995833 0.989264
1.00532 0.999114 0.986467
1.00531 0.998116 0.987008
1.00528 0.998013 0.987376
1.00532 1.00232 0.983593
1.00524 1.00102 0.984969
1.00519 1.00009 0.985762
1.00396 1.00303 0.985369
1.00503 1.00271 0.983734
1.00499 1.0023 0.984216
1.00118 1.00324 0.98959
1.00301 1.00306 0.986709
1.0039 1.00231 0.985368
1.00017 1.00014 0.997695
1.00096 1.00283 0.990472
1.0025 1.00391 0.987154
1.00008 0.999712 0.996772
1.00073 1.00228 0.991571
1.00022 0.998847 0.998191
1.00495 1.00197 0.985483
1.0033 1.00199 0.987326
1.00221 1.0033 0.987687
1.00195 1.00342 0.988272
1.00145 1.00478 0.98799
1.00104 1.00511 0.988457
1.00015 1.00147 0.993222
1.00077 1.00478 0.988922
1.00032 1.00512 0.988215
1.00007 0.998167 0.99861
1.00007 1.00059 0.994085
1.0007 1.00401 0.989827
1.00007 0.997716 0.998832
1.00016 0.999798 0.994716
1.0001 0.997377 0.998943
0.999272 0.994806 0.859789
0.994725 0.994791 0.797071
0.994805 0.994821 0.807669
1.00329 1.00277 0.986241
1.00304 1.0037 0.985764
1.00435 1.00352 0.985369
1.00465 1.0033 0.984253
1.00184 1.00263 0.989307
0.999479 1.00404 0.993088
1.00212 1.00296 0.989741
1.00131 1.001 0.99196
1.00462 0.995656 0.990713
1.00198 0.998431 0.994148
1.00164 0.997428 0.99518
1.00033 0.998872 0.995927
0.999943 1.00181 0.993931
0.99743 0.994815 0.937133
0.997812 0.994756 0.854986
0.994698 0.994808 0.801638
0.995418 0.994802 0.861086
0.994785 0.995589 0.936081
0.995016 0.99627 0.960906
0.994838 0.996741 0.96477
0.995941 0.994759 0.940024
0.995741 0.994779 0.963062
0.998338 0.996681 1.00157
0.998259 0.996134 1.00377
0.999646 0.996505 1.00067
0.996454 0.998342 0.991623
0.996978 0.996967 0.990245
1.00004 0.994975 0.924852
0.999807 0.994893 0.866849
0.994698 0.994769 0.799653
0.995044 0.998277 0.982697
0.99495 0.994772 0.954167
0.99961 0.994837 0.857738
0.997085 0.994802 0.940301
0.995887 0.997792 0.987254
0.99993 0.994862 0.934661
0.995607 0.994825 0.958953
1.00013 0.995133 0.985704
0.997642 0.994737 0.970296
0.999363 0.99907 0.993596
1.00242 0.997505 0.991568
1.00508 0.994847 0.99148
1.0045 0.996976 0.989301
1.00511 0.99558 0.989813
1.00528 0.994834 0.990467
1.00474 0.996915 0.989008
1.00532 0.994851 0.990128
1.00532 0.994826 0.990442
1.00534 0.99528 0.989699
1.00528 0.994854 0.990635
1.00534 0.994823 0.990607
1.00531 0.994861 0.990778
1.00533 0.994945 0.990713
1.00529 0.99499 0.990759
1.00526 0.995194 0.990646
1.00523 0.995642 0.99022
1.0053 0.997721 0.988068
1.0053 0.996597 0.989012
1.00532 0.996157 0.989385
1.00535 1.00127 0.984486
1.00534 0.999232 0.986277
1.00531 0.998178 0.986939
1.00484 1.00264 0.984141
1.00531 1.0023 0.983652
1.00525 1.00107 0.984989
1.0017 1.00331 0.988393
1.00362 1.00328 0.985398
1.00471 1.00288 0.983816
1.00047 1.00083 0.997257
1.00128 1.0031 0.989574
1.00296 1.00314 0.986641
1.00034 1.00036 0.997518
1.00105 1.00265 0.990488
1.00029 0.999727 0.997783
1.00507 1.00342 0.983833
1.00461 1.00166 0.985527
1.00328 1.00296 0.98647
1.00289 1.00186 0.987189
1.00205 1.00357 0.987638
1.00165 1.00464 0.987687
1.00105 1.00471 0.988022
1.00087 1.00512 0.988409
1.00038 1.00221 0.992206
1.00008 0.998717 0.998325
1.00002 1.00158 0.993231
1.00051 1.00493 0.988899
1.00004 0.998055 0.998682
1.00009 1.00053 0.994086
1.00005 0.997664 0.998858
0.999969 0.994877 0.93968
0.999834 0.994861 0.85796
0.994704 0.994773 0.790857
1.00297 1.00469 0.984777
1.0038 1.00352 0.985098
1.00306 1.00258 0.988259
1.00417 1.00324 0.984407
1.00519 0.999976 0.985811
1.00363 0.998985 0.988423
1.00076 1.00166 0.992333
1.00453 0.995453 0.990783
1.00195 0.998074 0.994189
1.00413 0.996065 0.990839
1.00273 0.998588 0.992952
1.00179 0.998868 0.993994
1.00117 0.998092 0.995195
1.00029 0.999463 0.995593
0.995309 0.994788 0.96164
0.997783 0.994811 0.932299
0.996796 0.994811 0.873753
0.994959 0.994702 0.927045
0.994855 0.99672 0.965088
0.995632 0.995676 0.968707
0.999108 0.994802 0.991216
0.999508 0.996056 1.00068
0.997736 0.996605 1.00389
0.998568 0.998746 0.990614
0.997591 0.994828 0.963666
1.00008 0.994889 0.940075
0.999822 0.995171 0.847731
0.995577 0.997864 0.98767
0.996159 0.99481 0.958998
0.999567 0.994827 0.929501
0.999382 0.996393 0.986212
0.997836 0.994786 0.969303
1.00278 0.996572 0.988021
1.0033 0.994646 0.985376
1.0015 0.996852 0.991569
1.0045 0.994902 0.991526
1.00525 0.994811 0.990811
1.00503 0.995564 0.989739
1.00528 0.994831 0.990417
1.00536 0.994866 0.990448
1.00532 0.994859 0.990085
1.00532 0.994836 0.990435
1.00536 0.994875 0.990484
1.00527 0.99486 0.990622
1.00534 0.99483 0.990632
1.00537 0.994848 0.990644
1.00529 0.994847 0.990813
1.00533 0.994935 0.990715
1.00529 0.995235 0.990665
1.00527 0.995178 0.990652
1.00523 0.995622 0.990236
1.00527 0.99691 0.989034
1.00531 0.999895 0.985958
1.0053 0.997938 0.987768
1.0053 0.996646 0.989004
1.00532 1.00181 0.984141
1.00535 1.00131 0.984524
1.00537 0.999353 0.986088
1.00269 1.00271 0.987415
1.00457 1.0029 0.984161
1.00532 1.00229 0.983711
1.00095 1.00115 0.996845
1.00192 1.0032 0.988325
1.00332 1.00356 0.985426
1.00066 1.00089 0.997116
1.00136 1.00298 0.98956
1.00051 1.00051 0.99735
1.00526 1.0014 0.984681
1.00497 1.00302 0.983839
1.00455 1.00309 0.984276
1.00448 1.00192 0.985573
1.0035 1.00281 0.986181
1.00293 1.00344 0.986534
1.00189 1.00413 0.987595
1.00161 1.00464 0.987686
1.00081 1.00269 0.990955
1.00061 1.0051 0.988371
1.00021 1.00231 0.992209
1.00009 0.999584 0.99795
1.00004 0.998684 0.998434
0.999935 1.00161 0.993249
1.00002 0.998027 0.998745
0.996127 0.994931 0.9647
0.999775 0.994891 0.924358
0.999838 0.994966 0.872414
1.00526 0.997862 0.987543
1.00453 1.00269 0.987233
1.00373 1.00318 0.984559
1.00423 0.999001 0.988799
1.00518 1.00015 0.985807
1.00515 0.996618 0.9891
1.00481 0.996188 0.99085
1.00161 0.997712 0.994248
1.00464 0.995983 0.990869
1.00232 0.998548 0.992723
1.00402 0.997414 0.990116
1.00321 0.994825 0.994426
1.0017 0.997669 0.994154
1.00105 0.998224 0.995208
0.9985 0.994718 0.989991
0.995703 0.994784 0.960142
0.997654 0.994777 0.926026
0.995397 0.996071 0.969372
0.998829 0.994808 0.993911
0.99976 0.995626 0.999735
1.00236 0.995009 0.980129
0.997779 0.994896 0.962737
1.00012 0.994895 0.924952
0.99829 0.996965 0.986708
0.997967 0.994802 0.968737
1.00194 0.995626 0.988633
1.00299 0.994699 0.98586
1.00369 0.996502 0.990356
1.00553 0.994798 0.990757
1.00396 0.994856 0.991572
1.00522 0.994831 0.990779
1.00539 0.994869 0.990412
1.00527 0.994832 0.990369
1.00535 0.994861 0.990456
1.00538 0.994871 0.99047
1.00533 0.994844 0.990428
1.00535 0.994869 0.990491
1.00535 0.994889 0.990645
1.00534 0.994838 0.990657
1.00536 0.994849 0.990637
1.0053 0.99489 0.990859
1.00532 0.99493 0.990718
1.00529 0.995156 0.990696
1.00528 0.995879 0.99016
1.00524 0.995596 0.990252
1.00527 0.996751 0.989175
1.0053 0.999318 0.986739
1.00534 1.00124 0.984689
1.00532 1.00012 0.985724
1.00531 0.998152 0.987468
1.00325 1.00149 0.987765
1.00521 1.00194 0.984143
1.00535 1.00135 0.984563
1.00157 1.00122 0.996354
1.00287 1.00249 0.987388
1.00436 1.00309 0.984187
1.00116 1.00123 0.996636
1.00217 1.00311 0.988266
1.00082 1.001 0.996962
1.00527 0.999606 0.986038
1.00523 1.00142 0.984627
1.0053 1.0021 0.983891
1.00485 1.00262 0.983849
1.00492 1.00287 0.984006
1.00342 1.00331 0.985891
1.00395 1.0023 0.985893
1.00278 1.00366 0.986567
1.0011 1.00308 0.989837
1.0015 1.00472 0.987656
1.00063 1.00285 0.990994
1.00021 1.0005 0.99752
1.00003 1.00243 0.992213
1.00003 0.999367 0.998097
0.999987 0.998528 0.99853
0.99973 0.995307 0.985969
0.996329 0.994896 0.960374
1.00002 0.99485 0.939404
1.00532 0.996139 0.989195
1.00529 0.995846 0.989513
1.00527 0.997535 0.987806
1.00483 0.998609 0.989172
1.00517 1.00033 0.985808
1.00517 0.996582 0.989272
1.00533 0.995107 0.98977
1.00488 0.995637 0.990905
1.00205 0.998427 0.992511
1.00393 0.99762 0.990644
1.00518 0.994803 0.990942
1.00366 0.994792 0.993078
1.00279 0.994877 0.994155
1.00198 0.996958 0.994323
0.999092 0.994689 0.989972
0.996074 0.994803 0.958992
0.998957 0.994797 0.996754
1.00496 0.994975 0.990211
1.00245 0.99499 0.980281
0.997898 0.994897 0.961877
1.00164 0.994765 0.989172
1.00269 0.994675 0.986358
1.00381 0.995648 0.990808
1.00549 0.994712 0.990803
1.00548 0.994732 0.990821
1.00557 0.994778 0.991048
1.00522 0.994857 0.990743
1.00541 0.994852 0.990413
1.00537 0.99485 0.99069
1.00534 0.994851 0.990462
1.00538 0.99487 0.990492
1.00533 0.994885 0.990727
1.00535 0.994865 0.990498
1.00536 0.994889 0.990644
1.00531 0.994899 0.990895
1.00536 0.994849 0.990631
1.00531 0.99489 0.990841
1.00529 0.995264 0.990718
1.00529 0.995071 0.990726
1.00528 0.99584 0.990124
1.00531 0.998526 0.987525
1.00527 0.996593 0.989316
1.0053 0.999187 0.986883
1.0053 1.00082 0.98523
1.00333 1.00073 0.988448
1.00533 1.00123 0.984706
1.00532 1.00034 0.985489
1.00191 1.00091 0.996214
1.00327 1.00149 0.987773
1.00502 1.00216 0.984137
1.00171 1.0012 0.996241
1.00306 1.00239 0.987347
1.0014 1.00131 0.996417
1.00531 0.997415 0.988044
1.00527 0.999416 0.986282
1.00537 1.00122 0.984716
1.00521 1.00143 0.984567
1.00532 1.00218 0.983809
1.00403 1.00277 0.985285
1.00525 1.00272 0.983736
1.00355 1.00296 0.985897
1.00156 1.00349 0.988685
1.00278 1.00365 0.986616
1.00105 1.00321 0.98986
1.00042 1.00119 0.997138
1.00043 1.00301 0.991026
1.00009 1.00029 0.997684
0.999991 0.999261 0.99823
1.00406 0.995351 0.991868
0.999547 0.995185 0.983628
0.996401 0.994895 0.960607
1.00532 0.995234 0.990099
1.0053 0.995772 0.989471
1.00528 0.995057 0.990588
1.0053 0.995975 0.989468
1.00527 0.997205 0.988063
1.00541 0.994843 0.990262
1.00518 0.996734 0.989436
1.0053 0.99538 0.989765
1.00535 0.99478 0.990635
1.00393 0.997466 0.991166
1.00518 0.994865 0.990591
1.00318 0.994878 0.993334
1.00204 0.995183 0.993898
0.999345 0.99466 0.989683
1.00556 0.994813 0.991048
1.00508 0.9951 0.990185
1.0023 0.995047 0.980546
1.00382 0.994713 0.99125
1.0055 0.994723 0.990855
1.00547 0.994733 0.990819
1.0056 0.994822 0.99114
1.00537 0.994861 0.991216
1.00543 0.99484 0.990416
1.00537 0.99486 0.990695
1.00531 0.994897 0.990991
1.00539 0.994872 0.990514
1.00534 0.99489 0.990725
1.00529 0.994925 0.990997
1.00536 0.99489 0.990643
1.00531 0.994899 0.990894
1.00531 0.994965 0.99108
1.00532 0.99489 0.990823
1.00528 0.995277 0.990687
1.00532 0.997657 0.988446
1.00528 0.995804 0.990088
1.0053 0.99854 0.98754
1.0053 1.00043 0.985658
1.00529 0.999053 0.987027
1.00531 1.0008 0.985256
1.00328 1.00045 0.990598
1.00213 1.00006 0.992863
1.00332 1.00077 0.989348
1.00534 1.00122 0.984724
1.00182 1.00087 0.99631
1.00329 1.00135 0.987785
1.00171 1.00127 0.996209
1.00522 0.995078 0.990893
1.00527 0.996146 0.98963
1.00532 0.99738 0.988264
1.00533 1.00006 0.985817
1.00527 0.999211 0.986526
1.00535 1.00124 0.984638
1.00484 1.00195 0.984579
1.00534 1.00223 0.983727
1.0043 1.0023 0.985242
1.00247 1.00299 0.987588
1.0037 1.0026 0.985905
1.00151 1.00355 0.98867
1.00091 1.00177 0.996573
1.00099 1.00334 0.989896
1.0003 1.00101 0.997283
0.999982 1.00005 0.997847
1.00549 0.994833 0.990941
1.00391 0.995107 0.99145
0.999759 0.9949 0.981364
1.00532 0.994865 0.990653
1.00531 0.995277 0.99002
1.00529 0.995408 0.989758
1.00526 0.995187 0.990543
1.0053 0.996106 0.989421
1.00539 0.994847 0.990643
1.00539 0.99484 0.990237
1.00529 0.995548 0.989762
1.00532 0.994778 0.990687
1.00517 0.995004 0.990241
1.00294 0.994694 0.99358
1.0053 0.994872 0.991319
1.00554 0.994805 0.991069
1.00523 0.995138 0.990153
1.00543 0.994733 0.990804
1.0056 0.99485 0.991231
1.00539 0.994861 0.991173
1.00529 0.99491 0.991305
1.00537 0.994864 0.9907
1.00531 0.994898 0.990949
1.00526 0.994927 0.991191
1.00534 0.994892 0.990723
1.00529 0.994925 0.991001
1.0053 0.994917 0.991241
1.0053 0.994898 0.990893
1.0053 0.994966 0.991047
1.00532 0.996829 0.989366
1.00527 0.995288 0.990657
1.00533 0.997682 0.988451
1.0053 1.00008 0.986056
1.00529 0.998553 0.987556
1.00531 1.00041 0.985691
1.00335 1.00027 0.990688
1.00532 1.00076 0.985281
1.00351 1.00032 0.990451
1.0022 0.999729 0.993063
1.0018 1.0004 0.994759
1.00351 1.00078 0.990052
1.00177 1.00081 0.996388
1.00525 0.994894 0.990977
1.00524 0.995924 0.990071
1.00521 0.995055 0.990965
1.00529 0.998918 0.98704
1.00527 0.996157 0.989674
1.00532 0.997358 0.988484
1.00532 1.00005 0.985782
1.00529 1.00119 0.984806
1.00534 1.00128 0.98456
1.00507 1.00172 0.984589
1.00307 1.00175 0.987731
1.00451 1.0021 0.985209
1.00232 1.00313 0.98765
1.00137 1.00183 0.996248
1.0014 1.00356 0.988665
1.0007 1.00153 0.996817
1.00012 1.00089 0.997425
1.00534 0.994885 0.990953
1.00541 0.99484 0.991009
1.00354 0.995063 0.991039
1.00531 0.994885 0.990822
1.00532 0.994868 0.990601
1.0053 0.995304 0.989945
1.00525 0.995322 0.990497
1.0054 0.994852 0.990631
1.00536 0.994839 0.990211
1.00527 0.994779 0.990734
1.00528 0.994909 0.991347
1.0053 0.994875 0.991278
1.00552 0.99481 0.991086
1.00528 0.994924 0.991375
1.00542 0.99486 0.991131
1.00529 0.99491 0.991295
1.00525 0.994939 0.99134
1.00531 0.9949 0.990906
1.00526 0.994928 0.991195
1.00525 0.994945 0.991395
1.00529 0.994925 0.991004
1.0053 0.994916 0.991222
1.00532 0.996159 0.990147
1.0053 0.994967 0.991014
1.00534 0.996848 0.989359
1.00527 0.999807 0.986437
1.00533 0.997709 0.988455
1.00531 1.00006 0.986088
1.00334 1.00026 0.990681
1.00532 1.00038 0.985723
1.00355 1.00017 0.99051
1.00226 0.99969 0.99301
1.00374 1.00019 0.990311
1.0017 0.999904 0.993414
1.00111 1.00079 0.997034
1.00526 0.994906 0.991013
1.00527 0.995253 0.990673
1.00525 0.994901 0.991001
1.00532 0.998427 0.98759
1.00524 0.995633 0.99028
1.0052 0.995029 0.991038
1.00534 1.00049 0.985484
1.0053 0.998894 0.987013
1.00527 0.996163 0.98972
1.0053 1.00003 0.985746
1.00529 1.00119 0.984787
1.00312 1.001 0.988489
1.0053 1.00144 0.984591
1.00299 1.0019 0.987753
1.00151 1.00132 0.996379
1.00226 1.00322 0.987688
1.00125 1.00172 0.996333
1.00054 1.00138 0.997017
1.0053 0.994921 0.991117
1.00535 0.994881 0.990891
1.00534 0.994844 0.991083
1.00532 0.994886 0.990825
1.00533 0.994869 0.99055
1.00541 0.994854 0.99062
1.00528 0.994931 0.991358
1.00527 0.99491 0.991364
1.00531 0.994879 0.991237
1.00527 0.994924 0.991389
1.00524 0.994948 0.99146
1.00528 0.99491 0.991285
1.00524 0.994941 0.991364
1.00522 0.994956 0.991481
1.00527 0.994929 0.991199
1.00526 0.994947 0.991393
1.00533 0.995751 0.990587
1.00531 0.994915 0.991203
1.00532 0.996182 0.990144
1.00523 0.999584 0.986747
1.00536 0.996868 0.989352
1.00527 0.999787 0.986471
1.00326 1.00032 0.990696
1.00532 1.00004 0.986121
1.00353 1.00019 0.990498
1.00221 0.999815 0.992934
1.00375 1.00009 0.99034
1.00181 0.999751 0.99339
1.00122 1.0001 0.993752
1.00526 0.994933 0.991143
1.00529 0.994926 0.991092
1.00526 0.994905 0.990982
1.00534 0.997204 0.988814
1.00527 0.995304 0.99067
1.00524 0.994908 0.991023
1.00533 1.00007 0.985973
1.00532 0.997966 0.987982
1.00525 0.995345 0.990487
1.00325 1.00038 0.988927
1.00532 1.00052 0.985454
1.0053 0.998878 0.986987
1.00532 1.00118 0.984763
1.00315 1.00098 0.988467
1.00159 1.00084 0.996526
1.00292 1.00213 0.987785
1.00154 1.00139 0.996311
1.00111 1.0016 0.99651
1.00528 0.994937 0.99129
1.0053 0.99492 0.991081
1.00536 0.994877 0.990829
1.00532 0.994889 0.990828
1.00525 0.994954 0.991431
1.00528 0.994929 0.991367
1.00527 0.994911 0.99138
1.00527 0.994925 0.991403
1.00524 0.994949 0.991457
1.00525 0.99496 0.991422
1.00524 0.994944 0.991388
1.00523 0.994956 0.991468
1.00532 0.995714 0.990777
1.00526 0.994948 0.991391
1.0053 0.995815 0.990587
1.00522 0.999378 0.986959
1.00531 0.996213 0.990142
1.00523 0.999562 0.986763
1.00327 1.00035 0.989002
1.00526 0.999768 0.986504
1.00344 1.00029 0.989663
1.00188 0.999923 0.996486
1.00372 1.00012 0.990314
1.00181 0.999808 0.993317
1.00138 0.999806 0.993754
1.00526 0.994946 0.991261
1.0053 0.994948 0.991167
1.00526 0.994934 0.991166
1.00532 0.996277 0.989884
1.0053 0.995053 0.990962
1.00526 0.994904 0.990951
1.00529 0.999319 0.986851
1.00533 0.997239 0.988813
1.00527 0.995354 0.990666
1.00336 1.00004 0.989109
1.00531 0.999844 0.986183
1.00532 0.997497 0.988372
1.00173 1.00035 0.996603
1.00328 1.00032 0.98891
1.00531 1.00054 0.985422
1.00315 1.00094 0.988451
1.00161 1.00087 0.99648
1.00151 1.00142 0.996236
1.00526 0.994954 0.991342
1.00528 0.99494 0.991283
1.0053 0.994919 0.991045
1.00528 0.994968 0.991402
1.00525 0.994951 0.991414
1.00528 0.994926 0.991377
1.00524 0.994948 0.991455
1.00526 0.994977 0.991417
1.00533 0.996305 0.990085
1.00523 0.994955 0.991455
1.00532 0.996 0.990402
1.00521 0.998678 0.987864
1.00527 0.99587 0.990588
1.00524 0.999355 0.986956
1.00322 1.0002 0.989234
1.00523 0.999541 0.986782
1.0033 1.00032 0.989006
1.00182 1 0.99648
1.00349 1.00027 0.988796
1.00172 0.999956 0.994958
1.00141 0.99979 0.993699
1.00524 0.994953 0.991355
1.00529 0.994957 0.991319
1.00526 0.994946 0.991268
1.00529 0.996272 0.990002
1.0053 0.994947 0.991188
1.00526 0.994935 0.991189
1.00521 0.999085 0.987226
1.00531 0.996681 0.989503
1.0053 0.995175 0.990833
1.00338 1.00002 0.98911
1.00528 0.999269 0.986894
1.00533 0.997275 0.988811
1.00186 1.00001 0.996598
1.00338 1.00001 0.989098
1.0053 0.999613 0.986392
1.00176 1.00038 0.996578
1.00333 1.00026 0.988892
1.00161 1.00094 0.996442
1.00528 0.995008 0.991303
1.00526 0.994954 0.991354
1.00528 0.994943 0.991276
1.00531 0.996319 0.990072
1.00528 0.995002 0.991381
1.00525 0.994949 0.991396
1.00526 0.995005 0.991412
1.00533 0.996297 0.990096
1.00513 0.998561 0.98809
1.00531 0.996281 0.990026
1.00523 0.998906 0.98749
1.00316 1.00003 0.989513
1.00526 0.99933 0.986951
1.00322 1.0002 0.989236
1.00171 1.00002 0.996506
1.00332 1.00029 0.989004
1.00177 1.00002 0.99648
1.00182 0.999941 0.993097
1.00528 0.995051 0.991271
1.00524 0.994949 0.991295
1.0053 0.996121 0.990208
1.00529 0.994958 0.991321
1.00525 0.994946 0.991274
1.0052 0.999457 0.986868
1.0053 0.996289 0.990005
1.0053 0.994944 0.991209
1.00336 1.00012 0.98908
1.00521 0.999328 0.986959
1.0053 0.997091 0.989124
1.00189 0.999905 0.996533
1.00339 1.00003 0.989103
1.00527 0.999215 0.986938
1.00187 1.00005 0.996604
1.0034 0.999991 0.989085
1.00178 1.00041 0.996548
1.00531 0.996406 0.989976
1.00529 0.995034 0.991321
1.00526 0.994954 0.991366
1.00504 0.998556 0.988201
1.00531 0.996358 0.990077
1.00528 0.995045 0.99136
1.00532 0.996287 0.990106
1.00515 0.998517 0.988056
1.00303 0.999937 0.989818
1.00526 0.999142 0.987117
1.00315 1.00003 0.989521
1.00163 1.00002 0.996577
1.00324 1.0002 0.989241
1.00167 1.00005 0.996538
1.00175 1.00004 0.996494
1.00532 0.996111 0.990291
1.00528 0.995011 0.991313
1.00525 0.994945 0.991234
1.0052 0.999283 0.987074
1.00531 0.99614 0.990211
1.00528 0.99496 0.991324
1.00328 1.00015 0.989186
1.00519 0.999481 0.986864
1.00531 0.996316 0.990007
1.00183 0.999945 0.996481
1.00334 1.00015 0.989079
1.00521 0.999563 0.986692
1.0019 0.999925 0.99656
1.00339 1.00005 0.989094
1.00191 1.00006 0.996601
1.00504 0.999072 0.987566
1.00531 0.996196 0.990257
1.00529 0.995061 0.991339
1.00294 0.999859 0.990079
1.00506 0.99853 0.988188
1.00531 0.996386 0.990082
1.00518 0.998461 0.988021
1.00305 0.999904 0.989829
1.00153 1.00001 0.996636
1.00315 1.00002 0.989529
1.00159 1.00002 0.996593
1.00161 1.00007 0.996563
1.00509 0.999207 0.98735
1.00531 0.996069 0.990372
1.00528 0.99496 0.991356
1.00333 1.00005 0.990908
1.00516 0.999324 0.987088
1.00532 0.996157 0.990215
1.00173 0.999999 0.996503
1.00327 1.00018 0.989189
1.00517 0.999506 0.986862
1.00187 0.999943 0.996501
1.00333 1.00018 0.989077
1.00193 0.999931 0.996582
1.00304 0.999847 0.99
1.00503 0.998853 0.987844
1.00531 0.995986 0.990537
1.00141 0.999983 0.996727
1.00293 0.999849 0.990076
1.00507 0.998508 0.988177
1.00305 0.999873 0.989837
1.0015 1 0.996668
1.00156 1.00004 0.996616
1.00325 0.999954 0.991168
1.00509 0.999194 0.987361
1.00531 0.996036 0.990452
1.00109 1.00003 0.997177
1.00316 1.00008 0.989469
1.00511 0.999363 0.987103
1.00176 0.999995 0.996498
1.00325 1.00022 0.989188
1.0019 0.999939 0.996521
1.00137 0.999936 0.9938
1.00306 0.999868 0.990702
1.00503 0.998629 0.988122
1.00143 0.999983 0.996744
1.00294 0.999841 0.990081
1.00149 0.999988 0.996697
1.00085 1 0.99427
1.00315 0.999932 0.990488
1.00508 0.999183 0.987369
1.00132 1.00002 0.995316
1.00313 1.00011 0.9895
1.00181 0.999985 0.996499
1.0014 0.999973 0.996748
1.0029 0.999873 0.990099
1.00138 0.99998 0.996748
1.00116 0.999968 0.99551
1.00302 0.999921 0.989878
1.00165 1.00001 0.996546
1.00142 0.99998 0.996745
1.00149 0.999986 0.996657

TENSORS stress float
0.00245557 -0.000174213 0.000287829
-0.000174213 0.00124258 -5.15814e-05
0.000287829 -5.15814e-05 0.00121508
0.00762304 0.000123209 0.000346246
0.000123209 0.00455353 4.21894e-05
0.000346246 4.21894e-05 0.00456598
0.00208093 -0.000104808 0.000116767
-0.000104808 0.000997929 -2e-05
0.000116767 -2e-05 0.000957105
0.0023463 -9.72109e-05 0.000273022
-9.72109e-05 0.00115118 -2.93487e-05
0.000273022 -2.93487e-05 0.00113446
0.00247644 -0.000152878 0.000281649
-0.000152878 0.00124502 -4.53576e-05
0.000281649 -4.53576e-05 0.00122139
0.00247088 -0.000180573 0.000299743
-0.000180573 0.001254 -5.37187e-05
0.000299743 -5.37187e-05 0.00122638
0.00201514 -0.000186361 5.7926e-05
-0.000186361 0.000828339 -1.49306e-05
5.7926e-05 -1.49306e-05 0.000695255
0.00771764 0.000116289 -9.23263e-06
0.000116289 0.00460447 -2.6349e-06
-9.23263e-06 -2.6349e-06 0.00462146
0.00697497 0.000254665 0.000171397
0.000254665 0.00414699 1.87362e-05
0.000171397 1.87362e-05 0.00411608
0.00708682 4.11184e-05 0.00010833
4.11184e-05 0.0041868 6.68242e-06
0.00010833 6.68242e-06 0.00416723
0.00201458 0.000241947 0.000320234
0.000241947 0.000973728 4.63118e-05
0.000320234 4.63118e-05 0.000956347
0.000252275 0.000271713 2.67649e-05
0.000271713 -0.000241912 2.14509e-05
2.67649e-05 2.14509e-05 -0.000406319
0.00191579 -3.23502e-05 0.000268031
-3.23502e-05 0.0008714 4.64808e-06
0.000268031 4.64808e-06 0.00087536
0.00166497 5.22159e-06 7.41522e-05
5.22159e-06 0.000735286 2.75917e-06
7.41522e-05 2.75917e-06 0.000684857
0.00178915 -0.00010374 -6.88616e-05
-0.00010374 0.000823479 1.23994e-05
-6.88616e-05 1.23994e-05 0.000761419
0.00199646 -9.56755e-05 8.78482e-05
-9.56755e-05 0.000945573 -5.72347e-06
8.78482e-05 -5.72347e-06 0.000908181
0.00211424 -9.50285e-05 0.000127499
-9.50285e-05 0.00102385 -2.21836e-05
0.000127499 -2.21836e-05 0.000979591
0.00207672 -0.000109121 0.00010469
-0.000109121 0.000991093 -1.51597e-05
0.00010469 -1.51597e-05 0.000952594
0.00212812 -0.00022348 -4.46783e-05
-0.00022348 0.000901129 7.2598e-06
-4.46783e-05 7.2598e-06 0.000777264
0.00651278 -0.000161201 0.000352689
-0.000161201 0.00385892 -1.69011e-05
0.000352689 -1.69011e-05 0.00388271
0.00225293 -7.3139e-05 0.000269847
-7.3139e-05 0.00109114 -2.17837e-05
0.000269847 -2.17837e-05 0.00107762
0.00244944 -0.000125765 0.000278062
-0.000125765 0.00121968 -3.75219e-05
0.000278062 -3.75219e-05 0.00120006
0.00195345 -0.000155344 7.4414e-05
-0.000155344 0.000809444 -1.1687e-05
7.4414e-05 -1.1687e-05 0.000702082
0.00202385 -0.000184826 6.58862e-05
-0.000184826 0.000831954 -1.46914e-05
6.58862e-05 -1.46914e-05 0.000709859
0.00246151 -0.000163775 0.000308626
-0.000163775 0.00124042 -5.09933e-05
0.000308626 -5.09933e-05 0.00121602
0.00203295 -0.000189452 5.31641e-05
-0.000189452 0.000856516 -1.538e-05
5.31641e-05 -1.538e-05 0.000707684
0.00210112 -0.000400519 1.91334e-05
-0.000400519 0.000600376 -7.06269e-06
1.91334e-05 -7.06269e-06 0.000344284
0.00767437 0.000107037 -0.000361898
0.000107037 0.0045657 -3.39197e-05
-0.000361898 -3.39197e-05 0.00458848
0.00459187 0.000186321 -0.000159742
0.000186321 0.00260872 -1.92283e-05
-0.000159742 -1.92283e-05 0.00258487
0.00462892 0.000114889 -0.00016444
0.000114889 0.00263553 -1.86931e-05
-0.00016444 -1.86931e-05 0.00261415
0.00778804 4.742e-05 -2.73351e-06
4.742e-05 0.0046548 -1.32375e-06
-2.73351e-06 -1.32375e-06 0.00467006
0.00029014 0.000258908 -8.88056e-07
0.000258908 -0.000213653 -1.37889e-06
-8.88056e-07 -1.37889e-06 -0.000377699
0.00200057 7.55992e-05 0.00027687
7.55992e-05 0.000925003 2.7743e-05
0.00027687 2.7743e-05 0.000914507
0.00215829 0.000168707 0.000288129
0.000168707 0.0010587 4.32794e-05
0.000288129 4.32794e-05 0.00103517
0.00293746 0.000242001 0.000170057
0.000242001 0.00141088 2.63268e-05
0.000170057 2.63268e-05 0.00131541
0.00689835 -0.000244273 3.90247e-05
-0.000244273 0.004144 3.69627e-06
3.90247e-05 3.69627e-06 0.00409772
0.00304868 0.00032965 0.000180935
0.00032965 0.00153359 3.33759e-05
0.000180935 3.33759e-05 0.0014153
0.000338849 0.000256749 2.5867e-05
0.000256749 -0.000177867 3.0138e-05
2.5867e-05 3.0138e-05 -0.000346694
0.00104223 0.000365865 2.48507e-05
0.000365865 4.52651e-05 7.50667e-06
2.48507e-05 7.50667e-06 -0.000239761
0.00550653 -0.000122868 0.000204423
-0.000122868 0.00329664 2.5969e-05
0.000204423 2.5969e-05 0.00328554
0.00651071 8.86726e-05 3.40258e-06
8.86726e-05 0.00384082 -2.09095e-06
3.40258e-06 -2.09095e-06 0.00387346
0.00426644 0.000100086 -0.000133993
0.000100086 0.00239855 -6.40681e-06
-0.000133993 -6.40681e-06 0.00238792
0.00633485 5.72142e-05 0.000342681
5.72142e-05 0.0037318 4.86535e-06
0.000342681 4.86535e-06 0.00376539
0.00158071 9.22725e-05 7.64474e-05
9.22725e-05 0.000685044 5.47998e-06
7.64474e-05 5.47998e-06 0.000638876
0.000466754 1.34326e-05 1.41046e-05
1.34326e-05 -0.000160172 1.78597e-06
1.41046e-05 1.78597e-06 -0.000254027
0.00667786 0.000245349 0.000197745
0.000245349 0.00397973 1.9905e-05
0.000197745 1.9905e-05 0.00395382
0.0029159 8.67428e-05 0.000157585
8.67428e-05 0.00139302 1.12034e-05
0.000157585 1.12034e-05 0.00133012
0.00162593 -9.63465e-05 -8.87353e-05
-9.63465e-05 0.000727517 1.16766e-05
-8.87353e-05 1.16766e-05 0.000668885
0.00168757 -0.000127129 -8.19726e-05
-0.000127129 0.000768155 1.48792e-05
-8.19726e-05 1.48792e-05 0.000703473
0.00186795 -6.45069e-05 -5.6792e-05
-6.45069e-05 0.000866575 1.01297e-05
-5.6792e-05 1.01297e-05 0.000805269
0.0022018 -0.000226276 -0.000154936
-0.000226276 0.00093908 2.94471e-05
-0.000154936 2.94471e-05 0.000828381
0.00408836 -3.37876e-05 -0.000137023
-3.37876e-05 0.00229587 -1.03628e-06
-0.000137023 -1.03628e-06 0.00228576
0.00196567 -7.61245e-05 9.27399e-05
-7.61245e-05 0.000922315 -4.67239e-06
9.27399e-05 -4.67239e-06 0.000889282
0.00222692 -7.06256e-05 0.000133403
-7.06256e-05 0.00109273 -2.08298e-05
0.000133403 -2.08298e-05 0.00104612
0.00204637 -0.000102775 9.46004e-05
-0.000102775 0.000972639 -9.79233e-06
9.46004e-05 -9.79233e-06 0.000935011
0.00203479 -0.000133111 -3.62237e-05
-0.000133111 0.000849188 2.9711e-06
-3.62237e-05 2.9711e-06 0.000755442
0.00213683 -0.000235629 -5.16795e-05
-0.000235629 0.000921826 8.4209e-06
-5.16795e-05 8.4209e-06 0.000784643
0.00211338 -0.000200419 -3.9462e-05
-0.000200419 0.000887886 5.31745e-06
-3.9462e-05 5.31745e-06 0.000775423
0.00218821 -0.000407634 -1.03501e-05
-0.000407634 0.000654656 2.74803e-06
-1.03501e-05 2.74803e-06 0.000398993
0.00631566 -9.45562e-06 0.000338734
-9.45562e-06 0.00371758 -3.82114e-06
0.000338734 -3.82114e-06 0.00375234
0.00219085 -4.75649e-05 0.0002661
-4.75649e-05 0.00105358 -1.48657e-05
0.0002661 -1.48657e-05 0.00104525
0.00250132 -2.04515e-05 5.80101e-05
-2.04515e-05 0.0011631 -5.89658e-07
5.80101e-05 -5.89658e-07 0.00109001
0.00192421 -0.000125203 6.75714e-05
-0.000125203 0.000796128 -7.65718e-06
6.75714e-05 -7.65718e-06 0.000698906
0.00199704 -0.000171744 7.18014e-05
-0.000171744 0.000821742 -1.3726e-05
7.18014e-05 -1.3726e-05 0.000707419
0.00201259 -0.000254189 4.42368e-06
-0.000254189 0.000461515 -1.92939e-06
4.42368e-06 -1.92939e-06 0.000280545
0.00201456 -0.00035441 1.52414e-05
-0.00035441 0.000503067 -4.70795e-06
1.52414e-05 -4.70795e-06 0.000279624
0.00199253 -0.000124639 0.000286007
-0.000124639 0.000937756 -4.347e-05
0.000286007 -4.347e-05 0.000911478
0.00212773 -0.000157295 4.63395e-05
-0.000157295 0.00094619 -1.35617e-05
4.63395e-05 -1.35617e-05 0.000790661
0.00207749 -0.000448768 2.35916e-05
-0.000448768 0.00062691 -7.68069e-06
2.35916e-05 -7.68069e-06 0.000335631
0.00195294 -0.000535177 6.66904e-06
-0.000535177 0.000258432 1.01001e-06
6.66904e-06 1.01001e-06 -4.13505e-05
0.00742898 0.00030991 -0.000390353
0.00030991 0.00443354 -4.77113e-05
-0.000390353 -4.77113e-05 0.00444191
0.00760978 1.08558e-05 -0.000319626
1.08558e-05 0.00454398 -2.70924e-05
-0.000319626 -2.70924e-05 0.00456018
0.00750609 0.000177842 -0.000364707
0.000177842 0.00446047 -3.84568e-05
-0.000364707 -3.84568e-05 0.00448213
0.000376748 0.000252546 -2.64914e-05
0.000252546 -0.000152693 -2.11071e-05
-2.64914e-05 -2.11071e-05 -0.000319103
0.00719231 0.000264502 -1.80055e-06
0.000264502 0.00427625 -2.58901e-06
-1.80055e-06 -2.58901e-06 0.00429128
0.00744077 0.000270322 -8.36698e-06
0.000270322 0.00443123 -3.55942e-06
-8.36698e-06 -3.55942e-06 0.0044426
0.000349377 0.000155654 3.30256e-07
0.000155654 -0.000251593 -2.59841e-07
3.30256e-07 -2.59841e-07 -0.000384057
0.0041798 -5.179e-05 -0.000138877
-5.179e-05 0.00239262 -8.11913e-06
-0.000138877 -8.11913e-06 0.00236186
0.000295639 0.000231895 1.07646e-06
0.000231895 -0.000229074 -4.09519e-07
1.07646e-06 -4.09519e-07 -0.000385237
0.00192074 0.000273985 7.18037e-05
0.000273985 0.00083989 4.44624e-06
7.18037e-05 4.44624e-06 0.000700217
0.0010277 0.000366472 1.55026e-06
0.000366472 3.09139e-05 2.00501e-07
1.55026e-06 2.00501e-07 -0.0002537
0.00621946 -9.88858e-05 0.000246483
-9.88858e-05 0.00373473 3.04297e-05
0.000246483 3.04297e-05 0.00372685
0.000555364 0.000121235 2.48714e-05
0.000121235 1.4037e-05 1.51433e-05
2.48714e-05 1.51433e-05 -7.52897e-05
0.000447907 0.000121609 1.42456e-05
0.000121609 -0.000202307 1.18587e-05
1.42456e-05 1.18587e-05 -0.000325496
0.000453424 0.000186716 1.88158e-05
0.000186716 -0.00017234 1.99651e-05
1.88158e-05 1.99651e-05 -0.00031452
0.00138226 0.000330194 1.45527e-05
0.000330194 4.78481e-05 5.84169e-06
1.45527e-05 5.84169e-06 -0.000185577
0.0033785 0.000286381 0.000171651
0.000286381 0.0017879 2.69652e-05
0.000171651 2.69652e-05 0.00168857
0.00124554 0.000384668 2.49514e-05
0.000384668 9.46535e-05 8.50601e-06
2.49514e-05 8.50601e-06 -0.000182576
0.00079502 0.000332561 1.86945e-05
0.000332561 -1.09159e-05 6.69474e-06
1.86945e-05 6.69474e-06 -0.000293896
0.00163054 0.000590292 9.83565e-06
0.000590292 0.000249326 -3.03648e-06
9.83565e-06 -3.03648e-06 -0.000133365
0.0046192 -0.000143001 0.000140526
-0.000143001 0.00270709 1.29896e-05
0.000140526 1.29896e-05 0.00269805
0.00506868 -0.000164637 1.79315e-05
-0.000164637 0.00300777 1.32878e-06
1.79315e-05 1.32878e-06 0.00299173
0.00696876 7.52639e-05 -0.000361969
7.52639e-05 0.00411657 -1.95985e-05
-0.000361969 -1.95985e-05 0.00414725
0.00662151 8.04245e-05 -0.000355874
8.04245e-05 0.00390686 -1.20168e-05
-0.000355874 -1.20168e-05 0.00394071
0.0064403 8.36872e-05 3.5412e-07
8.36872e-05 0.00380345 -4.27352e-06
3.5412e-07 -4.27352e-06 0.00383431
0.00413876 4.12656e-05 -0.000145938
4.12656e-05 0.00231623 -8.34112e-06
-0.000145938 -8.34112e-06 0.00231146
0.00156444 4.16504e-05 6.9458e-05
4.16504e-05 0.000544684 2.12657e-06
6.9458e-05 2.12657e-06 0.000470915
0.00444359 0.000162325 -0.000137002
0.000162325 0.00251773 -8.52594e-06
-0.000137002 -8.52594e-06 0.0024986
0.00164161 0.00010157 7.00533e-05
0.00010157 0.000579352 3.83081e-06
7.00533e-05 3.83081e-06 0.000492198
0.00635928 0.00011292 0.000344721
0.00011292 0.00376063 7.41272e-06
0.000344721 7.41272e-06 0.00378683
0.000338537 1.02444e-05 1.77451e-05
1.02444e-05 -0.000235235 9.76737e-07
1.77451e-05 9.76737e-07 -0.00032481
0.00289705 4.73895e-05 0.000156744
4.73895e-05 0.00138877 7.42633e-06
0.000156744 7.42633e-06 0.00133295
0.00116501 8.12717e-05 8.73846e-06
8.12717e-05 -6.71062e-05 5.6071e-07
8.73846e-06 5.6071e-07 -0.00020329
0.00283815 0.000138179 0.000162473
0.000138179 0.00133684 1.48455e-05
0.000162473 1.48455e-05 0.00126482
0.00129159 0.000167608 4.49932e-06
0.000167608 -4.47316e-05 1.56721e-06
4.49932e-06 1.56721e-06 -0.00020467
0.00193345 4.02179e-05 -0.000266741
4.02179e-05 0.000880449 3.63162e-06
-0.000266741 3.63162e-06 0.000887531
0.00162458 -2.68809e-05 -7.56468e-05
-2.68809e-05 0.00071648 3.68289e-06
-7.56468e-05 3.68289e-06 0.000664819
0.00192439 -3.0076e-05 -5.05587e-05
-3.0076e-05 0.000897266 8.86839e-06
-5.05587e-05 8.86839e-06 0.000834102
0.00162891 -0.000114398 -9.01081e-05
-0.000114398 0.000730734 1.44023e-05
-9.01081e-05 1.44023e-05 0.00066926
0.0021431 -0.000110688 -0.000142019
-0.000110688 0.000906449 1.40477e-05
-0.000142019 1.40477e-05 0.000826398
0.00221388 -0.000186093 -0.000149595
-0.000186093 0.000938814 2.47367e-05
-0.000149595 2.47367e-05 0.000841367
0.0022221 -0.000257692 -0.000162132
-0.000257692 0.000974725 3.18143e-05
-0.000162132 3.18143e-05 0.000848636
0.00227741 -0.000415535 -3.62768e-05
-0.000415535 0.000710897 1.15307e-05
-3.62768e-05 1.15307e-05 0.000455516
0.00640869 -0.000117508 2.63314e-06
-0.000117508 0.00379129 -2.08079e-06
2.63314e-06 -2.08079e-06 0.00381741
0.00187684 1.98822e-05 0.000100066
1.98822e-05 0.000855661 -5.47413e-06
0.000100066 -5.47413e-06 0.000833558
0.00118592 -1.64571e-05 -7.20902e-05
-1.64571e-05 0.000309799 2.66653e-06
-7.20902e-05 2.66653e-06 0.000236409
0.00199685 -8.90198e-05 -3.91224e-05
-8.90198e-05 0.000833376 3.57275e-06
-3.91224e-05 3.57275e-06 0.000748196
0.00515864 -9.56699e-05 0.000300516
-9.56699e-05 0.00297089 -2.66549e-05
0.000300516 -2.66549e-05 0.00296504
0.00275703 -0.000239266 -5.00569e-05
-0.000239266 0.00134074 5.60216e-06
-5.00569e-05 5.60216e-06 0.00120174
0.00208628 -0.000167892 -3.65822e-05
-0.000167892 0.000871976 3.85929e-06
-3.65822e-05 3.85929e-06 0.00076962
0.00205625 -0.000254509 -9.08476e-06
-0.000254509 0.000486122 1.79979e-06
-9.08476e-06 1.79979e-06 0.000310272
0.00220179 -0.000462093 -9.22252e-06
-0.000462093 0.000714028 2.70492e-06
-9.22252e-06 2.70492e-06 0.000421316
0.00209994 -0.000358688 -1.00852e-05
-0.000358688 0.000558335 2.78099e-06
-1.00852e-05 2.78099e-06 0.000332399
0.0019757 -0.000536736 9.17853e-07
-0.000536736 0.000275026 -2.57629e-07
9.17853e-07 -2.57629e-07 -2.45061e-05
0.000343883 7.06964e-06 1.82249e-05
7.06964e-06 -0.000233692 3.3103e-08
1.82249e-05 3.3103e-08 -0.000319628
0.00184094 -1.5701e-05 5.98211e-05
-1.5701e-05 0.00073371 -2.36317e-06
5.98211e-05 -2.36317e-06 0.000652016
0.00196396 -8.90458e-05 7.2871e-06
-8.90458e-05 0.000462179 2.84745e-07
7.2871e-06 2.84745e-07 0.000343315
0.00208497 -0.00020224 4.0496e-06
-0.00020224 0.000521329 -3.71295e-07
4.0496e-06 -3.71295e-07 0.000369349
0.00205397 -0.000308333 9.80189e-06
-0.000308333 0.000495511 -2.78235e-06
9.80189e-06 -2.78235e-06 0.00029933
0.00213016 -0.000364785 -5.23828e-07
-0.000364785 0.000210389 9.38344e-08
-5.23828e-07 9.38344e-08 3.30242e-05
0.00717489 4.30475e-05 0.000271755
4.30475e-05 0.0042925 -2.40097e-05
0.000271755 -2.40097e-05 0.00429736
0.00188523 -0.000487943 5.6596e-06
-0.000487943 0.000155199 8.67911e-07
5.6596e-06 8.67911e-07 -0.000104146
0.000170697 -0.000218326 2.04138e-05
-0.000218326 -0.000308367 -2.50152e-05
2.04138e-05 -2.50152e-05 -0.000462744
0.00105525 -0.000388245 2.37598e-05
-0.000388245 5.41125e-05 -9.16828e-06
2.37598e-05 -9.16828e-06 -0.000254021
0.00208567 -0.000602275 8.24756e-06
-0.000602275 0.000410579 1.34696e-06
8.24756e-06 1.34696e-06 5.90473e-05
0.00204474 -0.000601125 2.7116e-06
-0.000601125 0.000214189 4.98489e-06
2.7116e-06 4.98489e-06 -6.1936e-05
0.000429218 -0.000179909 2.38029e-05
-0.000179909 -9.17714e-05 -2.07598e-05
2.38029e-05 -2.07598e-05 -0.000218771
0.00072625 -0.000163281 -2.69703e-07
-0.000163281 0.00014951 -4.16303e-06
-2.69703e-07 -4.16303e-06 -0.000117902
0.00731882 0.000291489 -0.000394035
0.000291489 0.00436292 -4.37592e-05
-0.000394035 -4.37592e-05 0.00437463
0.00747859 0.000262576 -0.000379175
0.000262576 0.00445379 -4.50752e-05
-0.000379175 -4.50752e-05 0.00446876
0.000316967 0.000154242 -1.77053e-05
0.000154242 -0.000273506 -1.45944e-05
-1.77053e-05 -1.45944e-05 -0.000406726
0.00675 -7.19283e-05 -0.000255408
-7.19283e-05 0.00403492 -2.08405e-05
-0.000255408 -2.08405e-05 0.00403999
0.000101998 0.000215532 -2.12691e-05
0.000215532 -0.000322283 -2.37237e-05
-2.12691e-05 -2.37237e-05 -0.000472954
0.00027555 0.00021871 -2.12767e-05
0.00021871 -0.000240759 -2.02784e-05
-2.12767e-05 -2.02784e-05 -0.00039681
0.001045 0.000366514 -2.68325e-05
0.000366514 3.74504e-05 -9.17644e-06
-2.68325e-05 -9.17644e-06 -0.000245977
0.00609313 -9.72031e-05 -1.15387e-05
-9.72031e-05 0.00364717 1.92848e-06
-1.15387e-05 1.92848e-06 0.00364355
0.00061553 9.97998e-05 3.32575e-07
9.97998e-05 5.65566e-05 5.6394e-07
3.32575e-07 5.6394e-07 -3.0534e-05
0.00171788 0.000168566 7.33575e-05
0.000168566 0.000614828 6.84423e-06
7.33575e-05 6.84423e-06 0.000508884
0.00170714 0.000238113 7.65346e-05
0.000238113 0.000640145 8.38111e-06
7.65346e-05 8.38111e-06 0.000513863
0.00134476 0.000328235 -1.11204e-07
0.000328235 2.95084e-05 -3.50723e-07
-1.11204e-07 -3.50723e-07 -0.000204957
0.000388849 0.000204898 -1.11181e-06
0.000204898 -0.000120968 -1.35419e-07
-1.11181e-06 -1.35419e-07 -0.000253101
0.00119526 0.000380896 8.77348e-07
0.000380896 6.17042e-05 1.49527e-07
8.77348e-07 1.49527e-07 -0.000215585
0.000795751 0.000320701 1.43761e-06
0.000320701 -7.47993e-06 -1.00145e-06
1.43761e-06 -1.00145e-06 -0.00028425
0.00173105 0.000607211 -1.84818e-06
0.000607211 0.000303079 -5.05017e-07
-1.84818e-06 -5.05017e-07 -8.11551e-05
0.000458524 0.000169272 2.05694e-05
0.000169272 -6.04662e-05 1.91688e-05
2.05694e-05 1.91688e-05 -0.00017513
0.000596815 6.55696e-05 1.57057e-05
6.55696e-05 6.672e-05 1.41188e-05
1.57057e-05 1.41188e-05 -9.54777e-06
0.00142843 0.00029995 2.05042e-06
0.00029995 0.000619188 3.46338e-06
2.05042e-06 3.46338e-06 0.000377026
0.00139404 0.000283137 1.03711e-05
0.000283137 1.92911e-05 4.0447e-06
1.03711e-05 4.0447e-06 -0.000188257
0.00134264 0.000366274 2.00199e-05
0.000366274 7.60354e-05 7.53507e-06
2.00199e-05 7.53507e-06 -0.00018168
0.0021145 0.000520836 4.98525e-06
0.000520836 0.000274334 -4.6487e-07
4.98525e-06 -4.6487e-07 1.00409e-05
0.00054386 0.000265824 1.11379e-05
0.000265824 -6.21627e-05 6.63252e-06
1.11379e-05 6.63252e-06 -0.000325299
0.00211312 0.000632446 5.26912e-06
0.000632446 0.000437861 -2.30569e-06
5.26912e-06 -2.30569e-06 8.66044e-05
0.00161453 0.000600572 4.93679e-06
0.000600572 0.000387981 -4.68403e-06
4.93679e-06 -4.68403e-06 -3.30587e-05
0.00171114 0.000656714 -7.43894e-06
0.000656714 0.000193198 -7.0096e-06
-7.43894e-06 -7.0096e-06 -0.00018942
0.00412649 -0.00014444 0.000100524
-0.00014444 0.00237907 7.42264e-06
0.000100524 7.42264e-06 0.00237036
0.00449688 -0.00018431 2.03544e-05
-0.00018431 0.002637 -1.52224e-06
2.03544e-05 -1.52224e-06 0.00261682
0.004941 -0.000219289 -0.000115731
-0.000219289 0.00293621 -1.08602e-05
-0.000115731 -1.08602e-05 0.00290639
0.000487783 -0.000171982 2.35303e-05
-0.000171982 -3.40272e-05 -1.82775e-05
2.35303e-05 -1.82775e-05 -0.000143374
0.00630911 9.5567e-05 0.000221937
9.5567e-05 0.00377673 -2.28227e-05
0.000221937 -2.28227e-05 0.00377056
0.00717359 0.000238259 -0.000389158
0.000238259 0.00426333 -3.55811e-05
-0.000389158 -3.55811e-05 0.004283
0.00673029 0.000107669 -0.000357498
0.000107669 0.00397259 -1.69568e-05
-0.000357498 -1.69568e-05 0.00400401
0.000323013 0.000105465 -1.73145e-05
0.000105465 -0.000264966 -6.75979e-06
-1.73145e-05 -6.75979e-06 -0.000372425
0.000302777 4.50524e-05 -1.76001e-05
4.50524e-05 -0.000259065 -2.81695e-06
-1.76001e-05 -2.81695e-06 -0.000353948
0.00637749 -3.18099e-06 -0.000341256
-3.18099e-06 0.00375458 -3.30826e-06
-0.000341256 -3.30826e-06 0.0037895
0.00630553 -7.57373e-07 -5.56549e-08
-7.57373e-07 0.00371061 -1.25773e-06
-5.56549e-08 -1.25773e-06 0.0037457
0.000309451 1.12032e-06 -1.82515e-07
1.12032e-06 -0.000256474 2.25344e-07
-1.82515e-07 2.25344e-07 -0.000344368
0.00156637 4.56996e-05 6.9911e-05
4.56996e-05 0.000537978 3.38428e-06
6.9911e-05 3.38428e-06 0.000460546
0.00114895 8.46515e-05 4.34373e-08
8.46515e-05 -8.09761e-05 -1.40291e-07
4.34373e-08 -1.40291e-07 -0.000218125
0.000366182 9.86594e-05 -7.31733e-07
9.86594e-05 -0.000245799 -3.43405e-07
-7.31733e-07 -3.43405e-07 -0.000361252
0.00126627 0.00016956 -2.18347e-07
0.00016956 -5.3839e-05 2.22054e-08
-2.18347e-07 2.22054e-08 -0.000215263
0.000296483 -3.33254e-05 1.80226e-05
-3.33254e-05 -0.000265164 -5.51863e-07
1.80226e-05 -5.51863e-07 -0.000350048
0.00109322 3.6454e-05 9.80226e-06
3.6454e-05 -9.73096e-05 2.6829e-07
9.80226e-06 2.6829e-07 -0.000227534
0.00122728 0.000125983 6.22351e-06
0.000125983 -5.03593e-05 1.28218e-06
6.22351e-06 1.28218e-06 -0.000196507
0.00205572 0.000134675 1.66358e-06
0.000134675 8.17064e-05 4.74749e-07
1.66358e-06 4.74749e-07 9.13739e-08
0.00135561 0.000224225 6.55724e-06
0.000224225 -1.80911e-05 2.36231e-06
6.55724e-06 2.36231e-06 -0.000199586
0.00212068 0.00029261 2.16159e-06
0.00029261 0.000126452 -1.18271e-07
2.16159e-06 -1.18271e-07 -4.45393e-06
0.00632547 -7.9346e-05 -0.000343968
-7.9346e-05 0.00373213 4.66971e-06
-0.000343968 4.66971e-06 0.00376228
0.00153103 -0.000166124 -7.57254e-05
-0.000166124 0.000678058 9.29214e-06
-7.57254e-05 9.29214e-06 0.000619187
-0.000231545 -9.92262e-06 -1.09836e-05
-9.92262e-06 -0.000593019 8.45551e-07
-1.09836e-05 8.45551e-07 -0.000695004
0.00211107 -7.9318e-05 -0.000140437
-7.9318e-05 0.000898878 9.74712e-06
-0.000140437 9.74712e-06 0.000825214
0.00791145 0.000205244 -6.17942e-05
0.000205244 0.00473719 3.31175e-06
-6.17942e-05 3.31175e-06 0.00469409
0.0030838 -0.000304837 -0.000167111
-0.000304837 0.00155681 3.20478e-05
-0.000167111 3.20478e-05 0.00142663
0.00219466 -0.000147769 -0.000145504
-0.000147769 0.000927789 1.92335e-05
-0.000145504 1.92335e-05 0.000840041
0.00208652 -0.000254359 -2.51242e-05
-0.000254359 0.000501703 4.64606e-06
-2.51242e-05 4.64606e-06 0.000331067
0.00215834 -0.000361305 -3.17671e-05
-0.000361305 0.000594705 9.98548e-06
-3.17671e-05 9.98548e-06 0.000366647
0.00228126 -0.000470621 -3.97613e-05
-0.000470621 0.000772992 1.25124e-05
-3.97613e-05 1.25124e-05 0.000480025
0.00198954 -0.000537239 -5.27471e-06
-0.000537239 0.000286621 -1.35948e-06
-5.27471e-06 -1.35948e-06 -1.24605e-05
0.000305487 2.30717e-06 1.43221e-07
2.30717e-06 -0.000256949 3.93663e-07
1.43221e-07 3.93663e-07 -0.000343774
0.00195746 -9.77129e-05 -3.81465e-05
-9.77129e-05 0.000817208 6.43133e-07
-3.81465e-05 6.43133e-07 0.000737051
0.00165354 -8.59199e-05 -1.28836e-05
-8.59199e-05 0.000262023 7.32698e-07
-1.28836e-05 7.32698e-07 0.000139444
0.002002 -0.00019785 -1.1587e-05
-0.00019785 0.000460795 1.99462e-06
-1.1587e-05 1.99462e-06 0.000305005
0.00744152 3.88597e-05 3.46165e-06
3.88597e-05 0.00446313 2.81447e-07
3.46165e-06 2.81447e-07 0.00446687
0.0017112 -0.000223258 8.77267e-06
-0.000223258 0.000695217 3.39319e-08
8.77267e-06 3.39319e-08 0.000534082
0.00155704 -0.000417006 -1.1253e-06
-0.000417006 0.000374319 -1.17333e-06
-1.1253e-06 -1.17333e-06 6.83126e-05
0.00210712 -0.000313671 -1.00517e-05
-0.000313671 0.000526777 2.72605e-06
-1.00517e-05 2.72605e-06 0.000329204
0.00215441 -0.000371536 1.32801e-06
-0.000371536 0.00021838 -8.50966e-07
1.32801e-06 -8.50966e-07 4.70979e-05
0.00206348 -0.000600283 1.60559e-06
-0.000600283 0.0003941 7.04319e-08
1.60559e-06 7.04319e-08 4.43231e-05
0.00198203 -0.00049007 1.54498e-07
-0.00049007 0.000222739 -9.98738e-08
1.54498e-07 -9.98738e-08 -3.75944e-05
0.00212254 -0.000606575 9.17936e-07
-0.000606575 0.000269725 2.61389e-07
9.17936e-07 2.61389e-07 -7.62277e-06
0.000430328 -0.000198917 1.72605e-06
-0.000198917 -9.90751e-05 1.75747e-07
1.72605e-06 1.75747e-07 -0.000224478
0.000865065 -0.000233637 1.00373e-07
-0.000233637 0.000231063 5.91231e-07
1.00373e-07 5.91231e-07 -3.69617e-05
0.00111064 -4.25052e-05 1.04914e-05
-4.25052e-05 -7.6678e-05 -7.29971e-08
1.04914e-05 -7.29971e-08 -0.000207157
0.00205275 -0.000142046 4.3869e-06
-0.000142046 0.000515576 1.25297e-07
4.3869e-06 1.25297e-07 0.00038375
0.00185528 -0.000146068 3.07482e-06
-0.000146068 -2.58089e-05 -3.21199e-07
3.07482e-06 -3.21199e-07 -0.000126655
0.00217415 -0.000299936 -9.16735e-07
-0.000299936 0.000198328 1.35528e-06
-9.16735e-07 1.35528e-06 7.17503e-05
0.00187055 -0.000432546 -2.94052e-07
-0.000432546 8.65654e-05 9.5762e-07
-2.94052e-07 9.5762e-07 -0.000129649
0.00228418 -0.00041619 5.22907e-06
-0.00041619 0.000219828 -1.21538e-06
5.22907e-06 -1.21538e-06 8.62073e-05
0.000167713 -0.000200439 2.11506e-05
-0.000200439 -0.000279021 -2.38251e-05
2.11506e-05 -2.38251e-05 -0.000423683
0.00208317 -0.000548991 2.04085e-06
-0.000548991 0.000188941 3.02537e-06
2.04085e-06 3.02537e-06 -3.587e-05
0.00114971 -0.0003434 1.65785e-05
-0.0003434 0.000216525 -8.56048e-06
1.65785e-05 -8.56048e-06 -7.50202e-05
0.00175256 -0.000653752 1.68272e-05
-0.000653752 0.000285072 1.18048e-06
1.68272e-05 1.18048e-06 -0.000131684
0.00238608 -0.000680968 2.45658e-06
-0.000680968 0.000501054 4.26832e-06
2.45658e-06 4.26832e-06 0.000156189
0.00238927 -0.000645693 -1.44902e-06
-0.000645693 0.00040528 4.89984e-06
-1.44902e-06 4.89984e-06 0.000151634
0.000653131 -0.000228748 4.31059e-06
-0.000228748 6.67526e-05 -3.25513e-06
4.31059e-06 -3.25513e-06 -0.000218325
0.00126567 -0.000200108 4.48527e-06
-0.000200108 0.000487974 -4.40969e-06
4.48527e-06 -4.40969e-06 0.000256648
0.00153119 -0.000365983 -2.4585e-07
-0.000365983 0.000676012 -1.76781e-06
-2.4585e-07 -1.76781e-06 0.000325316
0.000336579 0.000129372 -1.65775e-05
0.000129372 -0.000269747 -1.14147e-05
-1.65775e-05 -1.14147e-05 -0.000395253
0.00553307 -0.000133081 -0.000187074
-0.000133081 0.00329035 -1.48873e-05
-0.000187074 -1.48873e-05 0.00328318
0.000379905 8.81065e-05 -1.87156e-05
8.81065e-05 -9.17188e-05 -1.43785e-05
-1.87156e-05 -1.43785e-05 -0.00017289
0.000291236 0.000186251 -1.94457e-05
0.000186251 -0.00026636 -1.79875e-05
-1.94457e-05 -1.79875e-05 -0.000409957
0.00130588 0.000326714 -1.59752e-05
0.000326714 9.28045e-06 -6.40422e-06
-1.59752e-05 -6.40422e-06 -0.000226345
0.000255931 0.000200282 -2.32459e-05
0.000200282 -0.000213483 -2.24877e-05
-2.32459e-05 -2.24877e-05 -0.00034316
0.000852242 0.000318428 -1.76275e-05
0.000318428 3.00079e-05 -9.54141e-06
-1.76275e-05 -9.54141e-06 -0.000243271
0.00118271 0.000379044 -2.58808e-05
0.000379044 5.57565e-05 -8.90992e-06
-2.58808e-05 -8.90992e-06 -0.000221694
0.00186293 0.000630029 -1.03365e-05
0.000630029 0.000372729 2.25732e-06
-1.03365e-05 2.25732e-06 -1.47295e-05
0.000439644 0.000171358 -3.93246e-06
0.000171358 -7.99091e-05 1.71854e-06
-3.93246e-06 1.71854e-06 -0.000185964
0.000397066 3.82567e-05 1.38616e-06
3.82567e-05 -5.1892e-05 2.86078e-07
1.38616e-06 2.86078e-07 -0.000127501
0.000873644 0.000219256 7.85472e-07
0.000219256 0.000231373 8.96397e-07
7.85472e-07 8.96397e-07 1.80006e-05
0.00135941 0.000281692 -2.51675e-07
0.000281692 4.55116e-06 -3.42631e-07
-2.51675e-07 -3.42631e-07 -0.000204126
0.00130562 0.000362678 1.82881e-07
0.000362678 5.77794e-05 -3.19158e-07
1.82881e-07 -3.19158e-07 -0.000200197
0.00209439 0.00051912 -3.90327e-07
0.00051912 0.000260015 -1.61792e-07
-3.90327e-07 -1.61792e-07 -4.16386e-06
0.000624399 0.000255962 -5.72422e-07
0.000255962 -1.56421e-05 2.3337e-07
-5.72422e-07 2.3337e-07 -0.000269529
0.0021092 0.000627723 -1.09633e-06
0.000627723 0.000436164 -4.90559e-07
-1.09633e-06 -4.90559e-07 8.48322e-05
0.00165796 0.000616412 -6.08294e-07
0.000616412 0.000391902 -1.76578e-06
-6.08294e-07 -1.76578e-06 -3.54555e-05
0.00169091 0.000665983 -1.3667e-06
0.000665983 0.000157549 2.66783e-06
-1.3667e-06 2.66783e-06 -0.000223611
0.000397406 1.94424e-05 5.86385e-06
1.94424e-05 -4.49309e-05 1.3496e-05
5.86385e-06 1.3496e-05 -0.000111557
0.00147843 0.000265904 5.60315e-06
0.000265904 0.000603329 2.53871e-06
5.60315e-06 2.53871e-06 0.000349783
0.000923086 0.000144902 4.80936e-06
0.000144902 0.000279515 1.75179e-06
4.80936e-06 1.75179e-06 8.94714e-05
-0.000145362 0.000144773 -3.21405e-06
0.000144773 -0.000389173 4.33582e-06
-3.21405e-06 4.33582e-06 -0.000658173
0.00215149 0.000456824 2.42766e-06
0.000456824 0.00023548 -1.86646e-06
2.42766e-06 -1.86646e-06 1.77998e-05
0.00207264 0.00057801 5.05985e-06
0.00057801 0.000327243 -8.44041e-07
5.05985e-06 -8.44041e-07 1.59425e-05
0.0022136 0.000584133 8.41905e-07
0.000584133 0.000255309 -1.383e-06
8.41905e-07 -1.383e-06 9.39505e-06
0.00119764 0.000481385 -1.87808e-06
0.000481385 0.000214778 -3.39375e-06
-1.87808e-06 -3.39375e-06 -0.000164452
0.00247149 0.000733344 -6.15511e-06
0.000733344 0.000571346 -3.79422e-06
-6.15511e-06 -3.79422e-06 0.000224786
0.00215577 0.000777869 -1.17928e-05
0.000777869 0.000594639 -1.23834e-05
-1.17928e-05 -1.23834e-05 0.000110815
0.00209587 0.000706635 -4.02225e-06
0.000706635 0.000307449 -3.65428e-06
-4.02225e-06 -3.65428e-06 -5.30763e-05
0.000623089 7.7449e-05 7.00781e-07
7.7449e-05 0.000136471 6.54278e-06
7.00781e-07 6.54278e-06 3.34682e-05
0.000480153 9.52123e-06 2.69081e-06
9.52123e-06 2.31273e-06 1.03276e-05
2.69081e-06 1.03276e-05 -4.1832e-05
0.00355424 -0.000129508 6.919e-05
-0.000129508 0.00199989 5.85349e-06
6.919e-05 5.85349e-06 0.0019946
0.00394886 -0.000167395 1.18829e-05
-0.000167395 0.00227056 -1.16214e-06
1.18829e-05 -1.16214e-06 0.00225499
0.00434496 -0.000212102 -7.60883e-05
-0.000212102 0.00254555 -7.68706e-06
-7.60883e-05 -7.68706e-06 0.00251688
0.000478755 -0.000182146 2.77177e-05
-0.000182146 -2.31999e-05 -1.76125e-05
2.77177e-05 -1.76125e-05 -0.000116904
0.00576071 0.000125837 0.000187839
0.000125837 0.00344231 -2.11792e-05
0.000187839 -2.11792e-05 0.00343037
0.000514812 -0.00018212 2.46941e-06
-0.00018212 -2.42929e-05 8.07403e-07
2.46941e-06 8.07403e-07 -0.000136175
0.00663055 7.14269e-05 6.43285e-06
7.14269e-05 0.00397564 2.58086e-07
6.43285e-06 2.58086e-07 0.0039727
0.000348676 0.000123909 -1.73748e-05
0.000123909 -0.000256971 -9.07748e-06
-1.73748e-05 -9.07748e-06 -0.000375403
0.000306702 3.74009e-05 -1.60545e-05
3.74009e-05 -0.000266918 -3.81302e-06
-1.60545e-05 -3.81302e-06 -0.000365528
0.00124906 0.000171325 -5.41835e-06
0.000171325 -6.25393e-05 -1.50935e-06
-5.41835e-06 -1.50935e-06 -0.000225386
0.00112073 8.72814e-05 -8.68218e-06
8.72814e-05 -0.00010181 -7.85701e-07
-8.68218e-06 -7.85701e-07 -0.000239867
0.000345542 -7.40784e-06 -1.786e-05
-7.40784e-06 -0.000236107 -7.99141e-07
-1.786e-05 -7.99141e-07 -0.000322476
0.00640721 -0.000103817 -0.000351683
-0.000103817 0.0037884 6.36242e-06
-0.000351683 6.36242e-06 0.00381712
0.00035361 -3.44545e-06 -6.06539e-08
-3.44545e-06 -0.000229876 -7.25552e-07
-6.06539e-08 -7.25552e-07 -0.000314541
0.00110093 4.17094e-05 1.66379e-08
4.17094e-05 -9.47312e-05 8.48291e-08
1.66379e-08 8.48291e-08 -0.000225309
0.00120275 0.000127136 -1.14514e-07
0.000127136 -6.98895e-05 4.59795e-08
-1.14514e-07 4.59795e-08 -0.000217091
0.00203605 0.000132944 -2.97605e-08
0.000132944 7.35614e-05 2.21146e-07
-2.97605e-08 2.21146e-07 -8.39913e-06
0.00134033 0.000224708 -3.54404e-07
0.000224708 -2.05512e-05 -2.82367e-07
-3.54404e-07 -2.82367e-07 -0.000203423
0.00209619 0.000289501 -4.88254e-07
0.000289501 0.000116665 1.9892e-07
-4.88254e-07 1.9892e-07 -1.38881e-05
0.00107323 -4.92215e-06 1.03536e-05
-4.92215e-06 -0.000102841 -8.82997e-08
1.03536e-05 -8.82997e-08 -0.000231466
0.00206818 6.55072e-05 3.34596e-06
6.55072e-05 0.000102881 3.06702e-07
3.34596e-06 3.06702e-07 2.69606e-05
0.00202639 0.000206863 7.67054e-07
0.000206863 5.36893e-05 4.15456e-07
7.67054e-07 4.15456e-07 -4.5659e-05
0.00221505 0.000158603 5.58039e-06
0.000158603 7.91621e-05 9.30726e-07
5.58039e-06 9.30726e-07 5.21352e-05
0.00218598 0.000381602 3.06696e-06
0.000381602 0.000204456 -7.74114e-07
3.06696e-06 -7.74114e-07 3.23454e-05
0.00214564 0.000316553 4.74943e-06
0.000316553 5.66784e-05 1.17381e-06
4.74943e-06 1.17381e-06 -2.26101e-05
0.00034109 -4.75992e-06 -1.72892e-05
-4.75992e-06 -0.000231007 2.30966e-07
-1.72892e-05 2.30966e-07 -0.000320082
0.002068 -5.3332e-05 -0.000139577
-5.3332e-05 0.000876821 6.29264e-06
-0.000139577 6.29264e-06 0.000809545
0.00127953 -8.13745e-05 -1.95333e-05
-8.13745e-05 2.10482e-05 1.22307e-06
-1.95333e-05 1.22307e-06 -0.000105655
0.00190458 -0.000193729 -2.25793e-05
-0.000193729 0.000390577 3.41161e-06
-2.25793e-05 3.41161e-06 0.000230964
0.00776917 7.48675e-06 -0.000323585
7.48675e-06 0.0046638 3.45861e-05
-0.000323585 3.45861e-05 0.00467061
0.00364164 -0.000313802 -0.000187998
-0.000313802 0.00192539 3.00208e-05
-0.000187998 3.00208e-05 0.00180007
0.00182081 -0.000451139 -3.26806e-05
-0.000451139 0.000557813 1.04132e-05
-3.26806e-05 1.04132e-05 0.000247655
0.00214828 -0.000318118 -2.95086e-05
-0.000318118 0.000549923 7.67284e-06
-2.95086e-05 7.67284e-06 0.000351177
0.00217796 -0.000378114 -1.9342e-06
-0.000378114 0.000226235 -1.36926e-06
-1.9342e-06 -1.36926e-06 6.10458e-05
0.00208601 -0.000492628 -3.49167e-06
-0.000492628 0.000296451 -3.02955e-07
-3.49167e-06 -3.02955e-07 3.50683e-05
0.00208167 -0.000602344 -6.56507e-06
-0.000602344 0.000401624 -2.15719e-06
-6.56507e-06 -2.15719e-06 5.27879e-05
0.00219923 -0.000612375 -1.29103e-06
-0.000612375 0.000323343 -4.19419e-06
-1.29103e-06 -4.19419e-06 4.46764e-05
0.000425056 -0.000211185 -2.35806e-05
-0.000211185 -0.000101149 2.12981e-05
-2.35806e-05 2.12981e-05 -0.000230909
0.000486345 -0.000229636 -1.57856e-06
-0.000229636 3.77569e-06 3.54538e-06
-1.57856e-06 3.54538e-06 -0.000272169
0.00115968 -3.78161e-05 5.03358e-07
-3.78161e-05 -4.57689e-05 9.42019e-09
5.03358e-07 9.42019e-09 -0.000170943
0.00202554 -0.000141589 -1.13913e-05
-0.000141589 0.000495242 1.47781e-06
-1.13913e-05 1.47781e-06 0.000363818
0.00192076 -0.000143627 1.75394e-06
-0.000143627 1.54848e-05 -2.50931e-07
1.75394e-06 -2.50931e-07 -8.01375e-05
0.00202798 -0.000295891 -2.19247e-06
-0.000295891 0.000101652 8.69165e-07
-2.19247e-06 8.69165e-07 -3.57239e-05
0.000359656 -0.000224391 9.22517e-07
-0.000224391 -0.000156166 6.92341e-07
9.22517e-07 6.92341e-07 -0.00030296
0.000728111 -0.000332422 -2.38215e-06
-0.000332422 -4.54777e-05 6.5125e-08
-2.38215e-06 6.5125e-08 -0.000341787
0.00177218 -0.000652858 1.79107e-06
-0.000652858 0.000302079 -2.71289e-08
1.79107e-06 -2.71289e-08 -0.000116436
0.00197479 -0.000435636 -2.39257e-06
-0.000435636 0.000161985 6.62137e-07
-2.39257e-06 6.62137e-07 -5.72746e-05
0.00219792 -0.000413885 1.77714e-06
-0.000413885 0.000153174 -5.46499e-07
1.77714e-06 -5.46499e-07 2.67177e-05
0.00242632 -0.000687625 -3.43742e-07
-0.000687625 0.00052358 -1.04868e-06
-3.43742e-07 -1.04868e-06 0.000181026
0.00212165 -0.000552883 4.8415e-07
-0.000552883 0.000212132 2.12009e-07
4.8415e-07 2.12009e-07 -1.37818e-05
0.0022017 -0.000636642 5.12607e-07
-0.000636642 0.000278254 9.64406e-07
5.12607e-07 9.64406e-07 2.32782e-05
0.000606424 -0.000229474 -2.75268e-08
-0.000229474 4.04492e-05 -1.02021e-06
-2.75268e-08 -1.02021e-06 -0.00024668
0.000539787 -0.000231226 -1.37484e-06
-0.000231226 1.16724e-05 -1.55452e-06
-1.37484e-06 -1.55452e-06 -0.000304309
0.000623611 -0.000182478 3.23181e-06
-0.000182478 0.000112937 1.3179e-06
3.23181e-06 1.3179e-06 -0.000132484
0.00184731 -6.92908e-05 3.60263e-06
-6.92908e-05 -2.72794e-05 -1.92164e-07
3.60263e-06 -1.92164e-07 -0.000118161
0.00200814 -0.000215522 -7.67298e-07
-0.000215522 6.61477e-05 3.74619e-07
-7.67298e-07 3.74619e-07 -4.24854e-05
0.002074 -0.000151215 8.07273e-06
-0.000151215 2.69144e-06 -6.98333e-07
8.07273e-06 -6.98333e-07 -4.01241e-05
0.00221425 -0.000338655 3.28309e-06
-0.000338655 0.000109593 -1.13038e-06
3.28309e-06 -1.13038e-06 2.83316e-05
0.00203247 -0.000492747 9.08852e-07
-0.000492747 9.89326e-05 2.03682e-06
9.08852e-07 2.03682e-06 -7.55859e-05
0.00229332 -0.000434983 3.37278e-06
-0.000434983 0.00014606 -3.92493e-07
3.37278e-06 -3.92493e-07 6.93234e-05
0.000613193 -0.000259948 1.03512e-05
-0.000259948 -2.21128e-05 -5.58558e-06
1.03512e-05 -5.58558e-06 -0.000293602
0.00219035 -0.000595138 6.1801e-07
-0.000595138 0.000198332 1.08211e-06
6.1801e-07 1.08211e-06 -1.64971e-06
0.00157844 -0.000633176 1.4029e-05
-0.000633176 0.000342048 -9.97792e-07
1.4029e-05 -9.97792e-07 -0.000104783
0.00209789 -0.00078843 1.02612e-05
-0.00078843 0.000398573 6.22518e-06
1.02612e-05 6.22518e-06 -4.86695e-05
0.00247289 -0.000708001 3.08489e-06
-0.000708001 0.000523361 5.25886e-06
3.08489e-06 5.25886e-06 0.000200279
0.002477 -0.000679309 -3.70784e-07
-0.000679309 0.000456089 1.37377e-06
-3.70784e-07 1.37377e-06 0.000208612
0.00053928 -0.000146532 -3.47386e-07
-0.000146532 0.000104514 -6.16746e-06
-3.47386e-07 -6.16746e-06 -0.000135885
0.00176282 -0.000416354 1.18545e-06
-0.000416354 0.000679297 -2.27003e-06
1.18545e-06 -2.27003e-06 0.0003414
-0.000588624 -0.000120404 4.42138e-06
-0.000120404 -0.000598431 -2.29647e-07
4.42138e-06 -2.29647e-07 -0.000907496
0.00213851 -0.000521526 5.06872e-06
-0.000521526 0.00100361 2.83429e-06
5.06872e-06 2.83429e-06 0.000600338
0.00132208 0.00028042 -1.18904e-05
0.00028042 -1.24402e-05 -4.64343e-06
-1.18904e-05 -4.64343e-06 -0.000222277
0.000379727 1.23301e-05 -4.34637e-06
1.23301e-05 -5.21083e-05 -1.57482e-05
-4.34637e-06 -1.57482e-05 -0.000130307
0.000408934 0.000132453 -2.27917e-05
0.000132453 -8.83449e-05 -1.63475e-05
-2.27917e-05 -1.63475e-05 -0.000193121
-0.000146528 0.000155084 -5.94023e-06
0.000155084 -0.000398638 1.40741e-06
-5.94023e-06 1.40741e-06 -0.000614418
0.00125078 0.000358393 -2.08468e-05
0.000358393 2.70329e-05 -8.11656e-06
-2.08468e-05 -8.11656e-06 -0.000231231
0.0020726 0.000516984 -4.84647e-06
0.000516984 0.000245174 5.40016e-07
-4.84647e-06 5.40016e-07 -1.87698e-05
0.000423268 0.000219786 -9.00178e-06
0.000219786 -0.000147605 -3.90647e-06
-9.00178e-06 -3.90647e-06 -0.000385481
0.00157475 0.000610267 -8.15308e-06
0.000610267 0.000325235 8.50812e-07
-8.15308e-06 8.50812e-07 -0.000101027
0.00210968 0.000623721 -4.87064e-06
0.000623721 0.000435564 2.02181e-06
-4.87064e-06 2.02181e-06 8.39493e-05
0.00165708 0.000668513 7.18456e-06
0.000668513 0.000124148 1.13873e-05
7.18456e-06 1.13873e-05 -0.000253148
0.000390485 1.52739e-06 -3.83378e-06
1.52739e-06 -4.21304e-05 8.07664e-07
-3.83378e-06 8.07664e-07 -0.000108928
0.000597712 0.000225172 1.47036e-07
0.000225172 7.01958e-05 -1.40011e-06
1.47036e-07 -1.40011e-06 -0.000186941
0.000517321 0.000126349 2.55223e-06
0.000126349 2.41887e-05 -1.53307e-06
2.55223e-06 -1.53307e-06 -0.000164428
0.000636081 0.000192889 -2.36321e-06
0.000192889 9.76328e-05 3.35697e-06
-2.36321e-06 3.35697e-06 -0.00017606
0.00212489 0.000454564 -1.77172e-06
0.000454564 0.000216994 -1.3428e-06
-1.77172e-06 -1.3428e-06 -4.6839e-07
0.00203337 0.000575648 -6.36032e-07
0.000575648 0.000300792 -2.91243e-07
-6.36032e-07 -2.91243e-07 -1.06587e-05
0.00219247 0.000580351 1.24559e-07
0.000580351 0.000246211 2.20852e-07
1.24559e-07 2.20852e-07 1.4981e-06
0.00150885 0.000502396 2.98686e-06
0.000502396 0.000429596 1.50609e-08
2.98686e-06 1.50609e-08 4.86742e-05
0.00236072 0.00071607 1.02992e-06
0.00071607 0.000511741 7.83068e-07
1.02992e-06 7.83068e-07 0.000165395
0.00188844 0.000742123 -1.06744e-06
0.000742123 0.000435903 -2.107e-06
-1.06744e-06 -2.107e-06 -4.01887e-05
0.00212938 0.000692128 -6.18629e-06
0.000692128 0.000338469 2.66353e-06
-6.18629e-06 2.66353e-06 -9.80134e-06
0.000512289 6.81332e-06 3.99212e-06
6.81332e-06 2.1927e-05 1.19105e-05
3.99212e-06 1.19105e-05 -3.0007e-05
0.00121274 0.000101125 5.07956e-07
0.000101125 0.000496248 8.171e-06
5.07956e-07 8.171e-06 0.00032319
0.000782575 0.000336554 -5.33731e-06
0.000336554 0.000103129 5.67476e-07
-5.33731e-06 5.67476e-07 -0.000199346
0.00135535 0.000166528 4.24119e-06
0.000166528 0.00058875 -3.99802e-06
4.24119e-06 -3.99802e-06 0.000306879
0.000912194 0.000155896 -1.08193e-06
0.000155896 0.000167539 1.14468e-05
-1.08193e-06 1.14468e-05 -7.4714e-05
0.00221419 0.000507393 6.06192e-07
0.000507393 0.000184204 -2.7844e-06
6.06192e-07 -2.7844e-06 -7.01731e-06
0.00220568 0.000659033 -1.58495e-06
0.000659033 0.000326032 -2.2756e-06
-1.58495e-06 -2.2756e-06 2.49466e-05
0.00216124 0.000629922 -3.7146e-06
0.000629922 0.000208117 -1.40762e-06
-3.7146e-06 -1.40762e-06 -3.75543e-05
0.0017279 0.00072628 -2.46785e-06
0.00072628 0.00055058 -6.34453e-06
-2.46785e-06 -6.34453e-06 3.91532e-05
0.00254001 0.000776785 -6.04581e-06
0.000776785 0.000552428 -3.4726e-06
-6.04581e-06 -3.4726e-06 0.000209999
0.00183463 0.000783543 4.95996e-06
0.000783543 0.000325677 -6.58262e-06
4.95996e-06 -6.58262e-06 -0.000133308
0.000562274 7.73143e-05 2.71912e-07
7.73143e-05 8.69886e-05 6.74332e-06
2.71912e-07 6.74332e-06 -2.66659e-05
0.000687134 0.000136266 -2.96393e-06
0.000136266 0.000244802 2.60266e-06
-2.96393e-06 2.60266e-06 6.53297e-05
0.000591768 7.01963e-05 3.12351e-07
7.01963e-05 0.000112783 5.56737e-06
3.12351e-07 5.56737e-06 2.27629e-05
0.000500493 2.46749e-05 -9.37842e-07
2.46749e-05 5.49376e-05 8.99311e-08
-9.37842e-07 8.99311e-08 -4.54196e-05
0.00152514 -1.79652e-05 2.01783e-06
-1.79652e-05 0.000677321 6.04416e-06
2.01783e-06 6.04416e-06 0.000644468
0.000972363 -5.12655e-06 6.60447e-08
-5.12655e-06 0.000321053 2.4689e-09
6.60447e-08 2.4689e-09 0.000279689
0.000912341 -3.81614e-05 5.1372e-05
-3.81614e-05 0.000280239 1.21956e-05
5.1372e-05 1.21956e-05 0.000274308
0.003486 -0.000138657 1.11664e-05
-0.000138657 0.00195779 -1.06755e-06
1.11664e-05 -1.06755e-06 0.00195
0.00378713 -0.000171747 -6.39899e-05
-0.000171747 0.00216824 -6.22917e-06
-6.39899e-05 -6.22917e-06 0.00215109
0.000340882 -0.000108441 1.58725e-05
-0.000108441 -7.25408e-05 -1.4982e-05
1.58725e-05 -1.4982e-05 -0.000151678
0.0052278 0.000181986 0.000130103
0.000181986 0.00312355 -1.69272e-05
0.000130103 -1.69272e-05 0.00309664
0.000479467 -0.000155066 1.23051e-06
-0.000155066 -1.3421e-05 1.03725e-06
1.23051e-06 1.03725e-06 -0.000115478
0.00594933 0.000121435 -9.7411e-08
0.000121435 0.00356928 1.12091e-06
-9.7411e-08 1.12091e-06 0.00355443
0.000495498 -0.000184306 -2.4198e-05
-0.000184306 -3.86173e-05 1.9858e-05
-2.4198e-05 1.9858e-05 -0.00015341
0.00690396 7.47058e-05 -0.000263433
7.47058e-05 0.00415298 3.06901e-05
-0.000263433 3.06901e-05 0.00414813
0.00131612 0.000224352 -7.90595e-06
0.000224352 -2.7501e-05 -2.88093e-06
-7.90595e-06 -2.88093e-06 -0.000211588
0.00115948 0.000129343 -6.55721e-06
0.000129343 -9.81087e-05 -1.14925e-06
-6.55721e-06 -1.14925e-06 -0.00024666
0.00209725 0.000283645 -2.18156e-06
0.000283645 0.000124682 9.92646e-07
-2.18156e-06 9.92646e-07 -4.71935e-06
0.00201036 0.000131245 -1.96874e-06
0.000131245 6.22366e-05 -4.04116e-08
-1.96874e-06 -4.04116e-08 -2.01147e-05
0.00111732 4.67947e-05 -1.0049e-05
4.67947e-05 -8.70792e-05 -1.4756e-07
-1.0049e-05 -1.4756e-07 -0.000217974
0.000303111 2.84719e-05 -1.80827e-05
2.84719e-05 -0.000264131 -1.04285e-06
-1.80827e-05 -1.04285e-06 -0.000347158
0.00107222 -8.44183e-07 3.3299e-08
-8.44183e-07 -0.000102881 2.705e-09
3.3299e-08 2.705e-09 -0.000231558
0.00201441 6.45009e-05 2.49413e-08
6.45009e-05 6.94758e-05 1.28169e-07
2.49413e-08 1.28169e-07 -6.84634e-06
0.00206734 0.000204889 -2.05268e-07
0.000204889 8.90462e-05 2.99894e-07
-2.05268e-07 2.99894e-07 -9.85803e-06
0.00219074 0.000153404 -3.79683e-07
0.000153404 5.3832e-05 1.70074e-07
-3.79683e-07 1.70074e-07 3.23115e-05
0.00212972 0.000376367 -7.75873e-07
0.000376367 0.000170811 -1.74294e-07
-7.75873e-07 -1.74294e-07 -4.59069e-07
0.00219895 0.000320979 1.35685e-07
0.000320979 9.0972e-05 1.86995e-07
1.35685e-07 1.86995e-07 1.01834e-05
0.00203975 -3.2817e-06 3.65556e-06
-3.2817e-06 9.39867e-05 1.21026e-07
3.65556e-06 1.21026e-07 1.81121e-05
0.00213497 7.25211e-05 4.82816e-06
7.25211e-05 2.56976e-05 4.07006e-07
4.82816e-06 4.07006e-07 9.42039e-06
0.00221883 0.000232304 5.72755e-06
0.000232304 8.53872e-05 1.15718e-06
5.72755e-06 1.15718e-06 4.40164e-05
0.00213967 0.00013443 3.89945e-06
0.00013443 1.11517e-05 1.092e-06
3.89945e-06 1.092e-06 1.32243e-05
0.00217335 0.000420786 2.70853e-06
0.000420786 0.000111343 4.01865e-07
2.70853e-06 4.01865e-07 -2.34905e-05
0.00222345 0.000336664 2.09005e-06
0.000336664 -3.97898e-07 2.99012e-07
2.09005e-06 2.99012e-07 -1.51397e-05
0.00121529 -3.41629e-05 -1.13815e-05
-3.41629e-05 -1.06676e-05 3.72732e-07
-1.13815e-05 3.72732e-07 -0.000130579
0.00202458 -0.000141303 -2.62124e-05
-0.000141303 0.000492673 2.39776e-06
-2.62124e-05 2.39776e-06 0.000361659
0.00202114 -0.000140093 -1.11912e-06
-0.000140093 7.89626e-05 -4.025e-07
-1.11912e-06 -4.025e-07 -1.12707e-05
0.00185613 -0.000290188 -7.84737e-08
-0.000290188 -1.33288e-05 4.61091e-07
-7.84737e-08 4.61091e-07 -0.000161587
0.000588974 -0.000266164 -2.81254e-05
-0.000266164 -1.05576e-05 2.45209e-05
-2.81254e-05 2.45209e-05 -0.000159859
0.000753789 -0.000342179 -1.56565e-05
-0.000342179 -3.77445e-05 7.2284e-06
-1.56565e-05 7.2284e-06 -0.000338967
0.00178267 -0.000656416 -1.16466e-05
-0.000656416 0.000304726 -5.79121e-08
-1.16466e-05 -5.79121e-08 -0.000117583
0.00206956 -0.000437789 -3.88806e-06
-0.000437789 0.00023114 2.01916e-07
-3.88806e-06 2.01916e-07 9.04772e-06
0.00210942 -0.000411051 -9.39739e-07
-0.000411051 8.45204e-05 -1.1716e-07
-9.39739e-07 -1.1716e-07 -3.44797e-05
0.00216559 -0.000557411 -2.45657e-06
-0.000557411 0.00023872 -2.19781e-06
-2.45657e-06 -2.19781e-06 1.15208e-05
0.00240314 -0.000687605 -1.10813e-06
-0.000687605 0.000506638 -7.82683e-06
-1.10813e-06 -7.82683e-06 0.000167952
0.00198863 -0.000622905 2.11167e-06
-0.000622905 0.00013566 -2.36941e-06
2.11167e-06 -2.36941e-06 -0.000119282
0.00103311 -0.000281505 -9.23383e-06
-0.000281505 0.000309499 3.54251e-06
-9.23383e-06 3.54251e-06 1.78407e-05
0.000281274 -0.000184123 -2.60321e-06
-0.000184123 -0.000157485 2.88635e-06
-2.60321e-06 2.88635e-06 -0.00045848
0.000455378 -0.000225766 -9.33516e-08
-0.000225766 1.39793e-05 6.09316e-06
-9.33516e-08 6.09316e-06 -0.000234847
0.00193075 -6.60702e-05 2.13109e-06
-6.60702e-05 2.67617e-05 -1.7725e-07
2.13109e-06 -1.7725e-07 -5.83674e-05
0.00201905 -0.000223713 7.47385e-08
-0.000223713 7.67925e-05 -2.24474e-07
7.47385e-08 -2.24474e-07 -3.18967e-05
0.00214496 -0.000149272 1.32755e-06
-0.000149272 4.14471e-05 -1.27347e-07
1.32755e-06 -1.27347e-07 6.05847e-06
0.00210805 -0.000325048 -1.56014e-06
-0.000325048 4.532e-05 2.69683e-07
-1.56014e-06 2.69683e-07 -3.90428e-05
0.000772691 -0.000289049 1.19096e-06
-0.000289049 7.7875e-05 -3.08144e-07
1.19096e-06 -3.08144e-07 -0.000205729
0.00169707 -0.000652642 -3.53744e-07
-0.000652642 0.000421463 -8.78179e-07
-3.53744e-07 -8.78179e-07 -3.04432e-05
0.00201071 -0.000776565 1.34435e-06
-0.000776565 0.000354466 1.13499e-06
1.34435e-06 1.13499e-06 -9.53486e-05
0.00203937 -0.000489146 -4.81383e-07
-0.000489146 0.000110895 6.99468e-07
-4.81383e-07 6.99468e-07 -7.02241e-05
0.00223573 -0.000436349 1.74393e-07
-0.000436349 9.46175e-05 -4.30315e-08
1.74393e-07 -4.30315e-08 2.46596e-05
0.00229614 -0.000699278 -8.40557e-07
-0.000699278 0.00039521 4.7194e-07
-8.40557e-07 4.7194e-07 7.20365e-05
0.00213555 -0.000590059 -6.05728e-07
-0.000590059 0.000161504 7.71357e-07
-6.05728e-07 7.71357e-07 -3.80446e-05
0.00235146 -0.000660527 1.15673e-06
-0.000660527 0.000370162 -6.02897e-07
1.15673e-06 -6.02897e-07 0.000128408
0.000798496 -0.000361189 -2.21327e-06
-0.000361189 9.93385e-05 5.50398e-07
-2.21327e-06 5.50398e-07 -0.000248678
0.00136594 -0.000431765 1.9604e-08
-0.000431765 0.000516878 1.99907e-06
1.9604e-08 1.99907e-06 0.000125366
0.00076634 -0.000176082 -1.60533e-06
-0.000176082 0.000229688 -1.90346e-06
-1.60533e-06 -1.90346e-06 -2.16873e-06
0.000300906 -0.000155051 1.53188e-06
-0.000155051 -8.73629e-05 1.77777e-06
1.53188e-06 1.77777e-06 -0.000366943
0.00218386 -8.17286e-05 7.43378e-06
-8.17286e-05 7.79706e-05 -5.52697e-07
7.43378e-06 -5.52697e-07 4.9897e-05
0.00204474 -0.000234651 4.13225e-06
-0.000234651 -4.34705e-05 -8.24294e-07
4.13225e-06 -8.24294e-07 -9.82545e-05
0.00211465 -0.000138237 5.16176e-06
-0.000138237 2.61797e-05 -8.79244e-07
5.16176e-06 -8.79244e-07 3.11253e-05
0.00223113 -0.000352818 4.09819e-08
-0.000352818 3.74087e-05 -4.8544e-08
4.09819e-08 -4.8544e-08 2.10664e-05
0.00219596 -0.00052851 4.69004e-08
-0.00052851 0.000127357 6.06731e-07
4.69004e-08 6.06731e-07 -6.77549e-06
0.00229324 -0.000463692 2.35199e-06
-0.000463692 6.65818e-05 -8.59064e-08
2.35199e-06 -8.59064e-08 1.50795e-05
0.00146979 -0.000543537 5.51833e-06
-0.000543537 0.000440257 -1.76672e-06
5.51833e-06 -1.76672e-06 2.08292e-05
0.00219279 -0.000633855 -1.52571e-06
-0.000633855 0.000149437 7.50838e-07
-1.52571e-06 7.50838e-07 -2.03378e-05
0.00181331 -0.000818147 -1.67322e-06
-0.000818147 0.000410942 8.89275e-06
-1.67322e-06 8.89275e-06 -0.000110049
0.00231282 -0.000841121 5.75778e-06
-0.000841121 0.000494345 5.2744e-06
5.75778e-06 5.2744e-06 4.28858e-05
0.00229782 -0.000707474 1.50368e-06
-0.000707474 0.000374955 4.0778e-06
1.50368e-06 4.0778e-06 6.06852e-05
0.00223693 -0.000697711 -4.51908e-06
-0.000697711 0.000240064 -1.28851e-06
-4.51908e-06 -1.28851e-06 -9.47717e-06
0.000482016 -0.000176073 -5.13878e-07
-0.000176073 5.11752e-05 -8.72624e-06
-5.13878e-07 -8.72624e-06 -0.000141035
0.00091652 -0.000204253 1.54198e-06
-0.000204253 0.000355153 3.97298e-07
1.54198e-06 3.97298e-07 8.85534e-06
0.00133719 -0.000549887 1.48539e-05
-0.000549887 0.000397149 3.05044e-06
1.48539e-05 3.05044e-06 -4.25347e-05
-0.000281317 -0.000166419 1.84285e-05
-0.000166419 -0.000515526 -7.68529e-06
1.84285e-05 -7.68529e-06 -0.000792503
0.00161435 -0.0005271 7.27585e-07
-0.0005271 0.000692173 1.0487e-05
7.27585e-07 1.0487e-05 0.000224946
0.000342672 -9.96336e-06 -4.6493e-06
-9.96336e-06 -6.99659e-05 -1.31329e-05
-4.6493e-06 -1.31329e-05 -0.000133961
0.0020967 0.000451956 -5.21028e-06
0.000451956 0.000197954 -4.42057e-07
-5.21028e-06 -4.42057e-07 -1.92079e-05
0.000339434 6.03866e-05 2.73471e-07
6.03866e-05 -7.40767e-05 -4.4586e-06
2.73471e-07 -4.4586e-06 -0.000271911
5.13191e-05 0.000226013 -6.89908e-06
0.000226013 -0.000314895 5.49215e-07
-6.89908e-06 5.49215e-07 -0.000539274
0.000751433 0.000218258 -1.36005e-06
0.000218258 0.000177067 6.02177e-06
-1.36005e-06 6.02177e-06 -0.000101413
0.00199928 0.000573601 -4.78732e-06
0.000573601 0.000278241 8.04506e-07
-4.78732e-06 8.04506e-07 -3.34059e-05
0.00216875 0.000576459 3.36343e-07
0.000576459 0.000235189 2.01773e-06
3.36343e-07 2.01773e-06 -8.3305e-06
0.00126513 0.000510768 2.48955e-06
0.000510768 0.00029684 -2.54942e-07
2.48955e-06 -2.54942e-07 -9.75326e-05
0.00178193 0.000736287 5.96374e-06
0.000736287 0.000366237 8.09231e-06
5.96374e-06 8.09231e-06 -0.00011196
0.00222745 0.000695744 4.21596e-06
0.000695744 0.000436588 5.36024e-06
4.21596e-06 5.36024e-06 9.13677e-05
0.0022039 0.000688136 1.0041e-05
0.000688136 0.00039183 1.45086e-05
1.0041e-05 1.45086e-05 5.18637e-05
0.000435009 1.03581e-05 -3.82975e-07
1.03581e-05 -2.48408e-05 8.53224e-08
-3.82975e-07 8.53224e-08 -7.63452e-05
0.000647498 8.37032e-05 -1.17138e-06
8.37032e-05 0.000144507 8.1656e-09
-1.17138e-06 8.1656e-09 -2.71252e-05
0.000855988 0.000365619 4.20755e-06
0.000365619 0.000173273 2.24457e-07
4.20755e-06 2.24457e-07 -0.000134562
0.000453409 0.000111561 2.85987e-07
0.000111561 2.27323e-05 -3.13435e-06
2.85987e-07 -3.13435e-06 -0.00025677
0.000295751 0.000121465 1.89295e-07
0.000121465 -0.000228347 3.20368e-06
1.89295e-07 3.20368e-06 -0.000474667
0.00221372 0.000507232 -1.97752e-06
0.000507232 0.000186471 -1.85251e-06
-1.97752e-06 -1.85251e-06 -4.63783e-06
0.00217749 0.00065536 4.17441e-07
0.00065536 0.00031141 9.04533e-08
4.17441e-07 9.04533e-08 1.14806e-05
0.00215868 0.000630895 1.50532e-06
0.000630895 0.000211042 2.04005e-07
1.50532e-06 2.04005e-07 -3.51249e-05
0.00181873 0.000738883 1.32367e-06
0.000738883 0.000618478 -1.65443e-06
1.32367e-06 -1.65443e-06 9.88407e-05
0.00243471 0.000765692 3.0903e-06
0.000765692 0.000466743 4.18998e-07
3.0903e-06 4.18998e-07 0.000124143
0.00219149 0.000819187 -4.30499e-06
0.000819187 0.000565263 2.86641e-07
-4.30499e-06 2.86641e-07 0.000102594
0.000846898 0.000102252 1.15913e-06
0.000102252 0.000256814 7.06829e-06
1.15913e-06 7.06829e-06 0.000124163
0.00238818 0.000345636 1.82326e-07
0.000345636 0.00132294 1.10288e-06
1.82326e-07 1.10288e-06 0.00104342
0.000574166 0.000443567 -8.28874e-07
0.000443567 -1.61671e-05 3.06654e-06
-8.28874e-07 3.06654e-06 -0.000397006
0.00120986 0.000141038 5.97467e-06
0.000141038 0.000345204 8.64495e-07
5.97467e-06 8.64495e-07 9.91465e-05
0.00319572 0.000560574 -1.498e-06
0.000560574 0.00152851 -7.33843e-07
-1.498e-06 -7.33843e-07 0.00117687
0.00218875 0.000536096 -3.90647e-06
0.000536096 0.000114576 -1.65219e-06
-3.90647e-06 -1.65219e-06 -5.4027e-05
0.0021827 0.000711688 -4.72261e-06
0.000711688 0.000281022 -1.45222e-06
-4.72261e-06 -1.45222e-06 -2.10613e-05
0.00214957 0.000693678 5.34546e-07
0.000693678 0.000165681 -8.50782e-07
5.34546e-07 -8.50782e-07 -8.91832e-05
0.00129542 0.000756411 8.53489e-06
0.000756411 0.000330855 -6.8371e-06
8.53489e-06 -6.8371e-06 -0.000209706
0.00192347 0.000809156 1.29334e-05
0.000809156 0.000278312 -3.00497e-06
1.29334e-05 -3.00497e-06 -0.000141184
0.000581325 6.97005e-05 -2.04739e-07
6.97005e-05 0.000100377 1.60257e-07
-2.04739e-07 1.60257e-07 -1.29319e-05
0.0005305 0.000151027 1.1912e-06
0.000151027 9.08408e-05 6.01971e-07
1.1912e-06 6.01971e-07 -6.33301e-05
-7.5485e-05 8.91412e-05 2.06419e-07
8.91412e-05 -0.000261659 -1.37905e-06
2.06419e-07 -1.37905e-06 -0.000421085
0.00146088 0.000241492 -3.17191e-06
0.000241492 0.000755672 -3.33664e-06
-3.17191e-06 -3.33664e-06 0.000549782
0.00108077 0.000178802 -1.16691e-06
0.000178802 0.000495863 2.53827e-06
-1.16691e-06 2.53827e-06 0.000328708
0.000538595 7.96571e-05 1.45347e-06
7.96571e-05 8.64504e-05 4.34622e-06
1.45347e-06 4.34622e-06 1.69973e-07
0.000523834 2.68255e-05 -1.05437e-06
2.68255e-05 7.34027e-05 1.95253e-08
-1.05437e-06 1.95253e-08 -1.63888e-05
0.00136168 -2.74079e-06 1.74986e-06
-2.74079e-06 0.000570652 4.85123e-06
1.74986e-06 4.85123e-06 0.000544829
0.000500457 4.7986e-05 7.18882e-07
4.7986e-05 4.78525e-05 -6.42016e-06
7.18882e-07 -6.42016e-06 -4.75034e-05
0.00144556 -1.45217e-05 -1.1304e-05
-1.45217e-05 0.000624633 -1.83947e-06
-1.1304e-05 -1.83947e-06 0.000595155
0.00072746 -2.63851e-05 4.30032e-05
-2.63851e-05 0.000155962 1.09757e-05
4.30032e-05 1.09757e-05 0.000156627
0.00148482 -9.97992e-06 -2.2278e-05
-9.97992e-06 0.000653951 -7.95487e-06
-2.2278e-05 -7.95487e-06 0.000617802
0.00203019 -7.64746e-05 4.82332e-05
-7.64746e-05 0.00100694 1.32676e-06
4.82332e-05 1.32676e-06 0.00100255
0.00337029 -0.000137694 -5.20869e-05
-0.000137694 0.0018828 -5.95492e-06
-5.20869e-05 -5.95492e-06 0.00187492
0.000288756 4.96486e-05 -3.09699e-06
4.96486e-05 -8.15782e-05 -1.12405e-05
-3.09699e-06 -1.12405e-05 -0.000145361
0.000386935 -9.17462e-05 -1.81166e-06
-9.17462e-05 -4.25028e-05 3.9185e-07
-1.81166e-06 3.9185e-07 -0.000128084
0.00422084 0.000207777 2.74638e-05
0.000207777 0.00246568 -9.41071e-06
2.74638e-05 -9.41071e-06 0.00243281
0.00528439 0.00013255 -1.26751e-05
0.00013255 0.00315028 -1.02261e-06
-1.26751e-05 -1.02261e-06 0.00313437
0.00052206 -0.000157979 -2.19961e-05
-0.000157979 9.73555e-06 1.7884e-05
-2.19961e-05 1.7884e-05 -9.66243e-05
0.00616264 0.00011711 -0.000218783
0.00011711 0.00371506 3.10745e-05
-0.000218783 3.10745e-05 0.00369715
0.00207535 0.000371639 -3.05543e-06
0.000371639 0.000137739 1.00315e-06
-3.05543e-06 1.00315e-06 -3.28128e-05
0.0020797 0.000205256 -1.3766e-06
0.000205256 0.000104331 3.3742e-07
-1.3766e-06 3.3742e-07 5.15685e-06
0.00224061 0.000325837 -4.63941e-06
0.000325837 0.00011693 -8.98134e-07
-4.63941e-06 -8.98134e-07 3.45892e-05
0.00216369 0.000148183 -5.0228e-06
0.000148183 2.55554e-05 -5.20426e-07
-5.0228e-06 -5.20426e-07 9.59471e-06
0.00196681 6.47437e-05 -3.41864e-06
6.47437e-05 4.06028e-05 -5.28877e-08
-3.41864e-06 -5.28877e-08 -3.61197e-05
0.00110559 3.91588e-06 -1.00826e-05
3.91588e-06 -8.17629e-05 -3.76289e-08
-1.00826e-05 -3.76289e-08 -0.000210255
0.00200548 -9.74766e-07 1.03362e-07
-9.74766e-07 7.2372e-05 1.05797e-07
1.03362e-07 1.05797e-07 -3.77079e-06
0.00214327 6.41681e-05 -5.56744e-07
6.41681e-05 3.4855e-05 -3.27498e-08
-5.56744e-07 -3.27498e-08 1.78647e-05
0.00221482 0.00023084 -2.89888e-08
0.00023084 7.60509e-05 5.11172e-08
-2.89888e-08 5.11172e-08 3.56066e-05
0.00210835 0.000134914 -1.10508e-07
0.000134914 -1.70194e-05 6.51806e-08
-1.10508e-07 6.51806e-08 -9.7163e-06
0.00220731 0.000426522 -9.17963e-08
0.000426522 0.000128943 3.95363e-07
-9.17963e-08 3.95363e-07 -7.54626e-06
0.0022116 0.000326935 -4.77568e-08
0.000326935 -9.60212e-06 -4.22235e-08
-4.77568e-08 -4.22235e-08 -2.24534e-05
0.00212906 -7.98697e-06 5.81907e-06
-7.98697e-06 3.14154e-05 -7.25816e-08
5.81907e-06 -7.25816e-08 1.1873e-05
0.00213331 5.75219e-05 3.86221e-06
5.75219e-05 1.07763e-05 1.08768e-07
3.86221e-06 1.08768e-07 3.19565e-05
0.00215448 0.000210494 4.27289e-07
0.000210494 -1.42317e-05 2.83211e-07
4.27289e-07 2.83211e-07 -1.54567e-05
0.00222996 0.000140081 -7.23262e-07
0.000140081 -1.55854e-05 6.57229e-07
-7.23262e-07 6.57229e-07 2.53654e-05
0.00221117 0.000431521 6.51122e-07
0.000431521 3.94524e-05 4.24991e-07
6.51122e-07 4.24991e-07 -3.52548e-05
0.00236083 0.00032738 1.14575e-07
0.00032738 4.29983e-06 -3.03529e-08
1.14575e-07 -3.03529e-08 1.94681e-05
0.00201248 -6.28357e-05 -1.89749e-06
-6.28357e-05 8.00122e-05 -9.46354e-08
-1.89749e-06 -9.46354e-08 6.60621e-07
0.00203103 -0.000230618 5.91769e-07
-0.000230618 8.55742e-05 -7.0742e-07
5.91769e-07 -7.0742e-07 -2.26125e-05
0.00221018 -0.000147882 -4.07823e-06
-0.000147882 7.71612e-05 2.89205e-07
-4.07823e-06 2.89205e-07 4.93411e-05
0.00203381 -0.000313214 -4.59027e-06
-0.000313214 4.3925e-06 9.87517e-07
-4.59027e-06 9.87517e-07 -8.30827e-05
0.000626008 -0.000291059 -1.19632e-05
-0.000291059 -1.3539e-05 7.46868e-06
-1.19632e-05 7.46868e-06 -0.000302971
0.00166656 -0.000646908 -1.50398e-05
-0.000646908 0.000419572 1.01454e-07
-1.50398e-05 1.01454e-07 -2.96188e-05
0.00184582 -0.000753766 -1.60443e-06
-0.000753766 0.000267797 -4.94063e-06
-1.60443e-06 -4.94063e-06 -0.000182203
0.00205382 -0.000486363 -3.17417e-06
-0.000486363 0.000127627 -3.92424e-07
-3.17417e-06 -3.92424e-07 -6.03376e-05
0.00217494 -0.000437422 -1.37989e-06
-0.000437422 4.1923e-05 -3.37108e-08
-1.37989e-06 -3.37108e-08 -2.18389e-05
0.00208396 -0.00058468 -6.44638e-07
-0.00058468 0.000126441 -2.99437e-07
-6.44638e-07 -2.99437e-07 -7.24419e-05
0.00217062 -0.000700811 -1.96289e-07
-0.000700811 0.000299209 -5.77004e-06
-1.96289e-07 -5.77004e-06 -2.73334e-05
0.00225983 -0.00065073 3.75956e-06
-0.00065073 0.000305231 -2.54705e-06
3.75956e-06 -2.54705e-06 6.65027e-05
0.000764095 -0.000363255 -3.60779e-07
-0.000363255 8.10889e-05 -3.8608e-07
-3.60779e-07 -3.8608e-07 -0.00027638
0.000242164 -0.000303909 -1.00242e-05
-0.000303909 -0.000216743 -7.72667e-08
-1.00242e-05 -7.72667e-08 -0.000580765
0.000624822 -0.000175099 -3.99103e-06
-0.000175099 0.000129835 5.05157e-06
-3.99103e-06 5.05157e-06 -9.78177e-05
-3.6076e-05 -0.000174569 -2.47802e-06
-0.000174569 -0.000344769 1.20774e-06
-2.47802e-06 1.20774e-06 -0.000594338
0.00218903 -8.19044e-05 -1.34277e-07
-8.19044e-05 8.11167e-05 3.19441e-08
-1.34277e-07 3.19441e-08 5.28304e-05
0.00208815 -0.00023934 2.18741e-06
-0.00023934 -9.26375e-06 -4.46456e-07
2.18741e-06 -4.46456e-07 -6.54054e-05
0.00208351 -0.000137115 5.81879e-07
-0.000137115 -9.13422e-07 -2.39721e-07
5.81879e-07 -2.39721e-07 6.20291e-06
0.00219923 -0.000350484 -3.95957e-07
-0.000350484 2.59961e-05 1.2413e-07
-3.95957e-07 1.2413e-07 2.30809e-06
0.00144345 -0.00051553 -3.24217e-06
-0.00051553 0.00039886 1.41997e-07
-3.24217e-06 1.41997e-07 -4.40811e-06
0.0017882 -0.000812746 2.67325e-06
-0.000812746 0.000407023 6.44364e-08
2.67325e-06 6.44364e-08 -0.000114813
0.0022409 -0.000850097 -5.90382e-07
-0.000850097 0.000445134 5.9111e-07
-5.90382e-07 5.9111e-07 -1.43783e-05
0.00220771 -0.000525208 -1.15087e-06
-0.000525208 0.000144598 3.49098e-07
-1.15087e-06 3.49098e-07 4.79341e-06
0.00225061 -0.000461568 9.49439e-07
-0.000461568 4.01344e-05 -4.43534e-07
9.49439e-07 -4.43534e-07 -5.87792e-06
0.00227506 -0.000710696 -9.17312e-07
-0.000710696 0.000371598 8.35395e-07
-9.17312e-07 8.35395e-07 5.58812e-05
0.00219774 -0.000638733 -1.04858e-06
-0.000638733 0.000141546 7.97994e-07
-1.04858e-06 7.97994e-07 -2.85358e-05
0.0022513 -0.000699631 5.1557e-06
-0.000699631 0.000245562 -4.3691e-06
5.1557e-06 -4.3691e-06 -5.79757e-07
0.00141857 -0.000568556 -2.1297e-07
-0.000568556 0.000458639 -1.55872e-06
-2.1297e-07 -1.55872e-06 1.19108e-05
0.00148539 -0.000524505 2.87508e-06
-0.000524505 0.000589078 2.58906e-06
2.87508e-06 2.58906e-06 0.000139305
0.000969068 -0.000238806 4.45025e-09
-0.000238806 0.000291814 -5.13187e-06
4.45025e-09 -5.13187e-06 -2.70245e-06
0.000174929 -0.000117372 -2.72303e-06
-0.000117372 -0.000139204 1.08674e-06
-2.72303e-06 1.08674e-06 -0.000332993
6.27828e-05 -0.000171475 -1.76306e-06
-0.000171475 -0.000198471 -2.81754e-07
-1.76306e-06 -2.81754e-07 -0.000525244
0.00208197 -8.209e-05 2.50381e-06
-8.209e-05 -1.87412e-05 -5.63875e-07
2.50381e-06 -5.63875e-07 7.88151e-07
0.00215014 -0.000210095 6.65921e-07
-0.000210095 -1.42153e-05 -5.59954e-07
6.65921e-07 -5.59954e-07 -3.53534e-06
0.00229687 -0.000421793 -7.57015e-07
-0.000421793 -2.49191e-05 2.03953e-07
-7.57015e-07 2.03953e-07 -1.51985e-05
0.00225454 -0.000550214 6.75329e-07
-0.000550214 6.411e-05 4.72927e-07
6.75329e-07 4.72927e-07 -6.87235e-06
0.00156223 -0.000711134 2.87921e-06
-0.000711134 0.000456415 5.01928e-06
2.87921e-06 5.01928e-06 -5.39968e-05
0.00247601 -0.000767476 -6.60632e-06
-0.000767476 0.000215639 -1.01142e-06
-6.60632e-06 -1.01142e-06 1.26124e-05
0.00149938 -0.000869865 -1.46956e-05
-0.000869865 0.000229975 8.70818e-06
-1.46956e-05 8.70818e-06 -0.000323262
0.00247561 -0.000922014 -1.18539e-06
-0.000922014 0.000559456 3.70046e-06
-1.18539e-06 3.70046e-06 8.59132e-05
0.00197602 -0.000680288 -9.10477e-06
-0.000680288 0.000169987 1.79572e-07
-9.10477e-06 1.79572e-07 -0.000127678
4.72332e-06 -5.91035e-05 -1.68927e-06
-5.91035e-05 -0.000236843 -7.98431e-06
-1.68927e-06 -7.98431e-06 -0.00037672
0.00109366 -0.000271787 -4.2777e-06
-0.000271787 0.000556797 -2.29943e-06
-4.2777e-06 -2.29943e-06 0.000215546
0.00325185 -0.000227054 -2.89463e-06
-0.000227054 0.00176499 -3.46406e-06
-2.89463e-06 -3.46406e-06 0.00143708
0.00202559 -0.000710386 -2.70283e-06
-0.000710386 0.000828962 3.01082e-06
-2.70283e-06 3.01082e-06 0.0003252
0.000535721 -0.000334579 1.54159e-05
-0.000334579 -4.62129e-05 -4.01524e-06
1.54159e-05 -4.01524e-06 -0.000420946
0.00173275 -0.000613435 -1.92943e-06
-0.000613435 0.00073429 1.32403e-05
-1.92943e-06 1.32403e-05 0.000228568
0.000405246 1.21781e-05 -3.89293e-06
1.21781e-05 -4.20972e-05 -1.16335e-05
-3.89293e-06 -1.16335e-05 -9.33392e-05
0.000144776 6.99554e-05 -1.00766e-06
6.99554e-05 -0.000170106 -7.91023e-06
-1.00766e-06 -7.91023e-06 -0.000337704
0.00221289 0.000507024 -3.79004e-06
0.000507024 0.000188916 -7.60568e-07
-3.79004e-06 -7.60568e-07 -2.10145e-06
-0.00057427 2.21123e-05 -1.8863e-06
2.21123e-05 -0.000614587 1.43957e-06
-1.8863e-06 1.43957e-06 -0.000895019
0.00210997 0.000447404 8.67192e-06
0.000447404 0.000969648 -4.13578e-06
8.67192e-06 -4.13578e-06 0.000660951
0.000310599 0.000140351 -6.93507e-06
0.000140351 -0.000228465 -2.43627e-06
-6.93507e-06 -2.43627e-06 -0.000492693
0.00214877 0.000651224 2.41764e-06
0.000651224 0.00029735 2.39069e-06
2.41764e-06 2.39069e-06 -1.25582e-06
0.00216457 0.000632683 3.69752e-06
0.000632683 0.000218325 1.14131e-06
3.69752e-06 1.14131e-06 -2.84644e-05
0.00174958 0.000727524 6.0562e-06
0.000727524 0.000587657 4.73759e-06
6.0562e-06 4.73759e-06 6.67993e-05
0.0024934 0.000841026 -3.75186e-06
0.000841026 0.00077324 6.40636e-06
-3.75186e-06 6.40636e-06 0.000313451
0.00232279 0.000756031 4.58825e-06
0.000756031 0.000374495 4.05763e-06
4.58825e-06 4.05763e-06 3.10743e-05
0.000662269 9.51169e-05 5.61155e-07
9.51169e-05 0.000140162 2.81592e-07
5.61155e-07 2.81592e-07 1.12396e-05
0.000757452 0.00017048 -1.44848e-06
0.00017048 0.000279882 1.11109e-07
-1.44848e-06 1.11109e-07 2.06438e-05
0.000926067 0.000495045 6.86624e-07
0.000495045 0.000190001 1.13305e-06
6.86624e-07 1.13305e-06 -0.000212994
0.000649084 7.63058e-05 9.55675e-08
7.63058e-05 2.78236e-06 -6.27486e-07
9.55675e-08 -6.27486e-07 -0.000244249
0.00143188 0.000362509 3.83538e-06
0.000362509 0.000364973 -5.31918e-06
3.83538e-06 -5.31918e-06 5.80598e-05
0.00218111 0.000537361 -2.27666e-06
0.000537361 0.000122345 -1.18993e-06
-2.27666e-06 -1.18993e-06 -4.80977e-05
0.00224926 0.000718764 2.4658e-06
0.000718764 0.000312037 7.16601e-07
2.4658e-06 7.16601e-07 8.45168e-06
0.00217108 0.000694682 1.24572e-06
0.000694682 0.000166631 1.35334e-07
1.24572e-06 1.35334e-07 -8.82372e-05
0.00162954 0.000814067 2.1196e-06
0.000814067 0.000510354 8.23109e-07
2.1196e-06 8.23109e-07 -3.90309e-05
0.00194964 0.000816431 -2.05972e-06
0.000816431 0.000321556 -2.32291e-06
-2.05972e-06 -2.32291e-06 -0.000105406
0.00141786 0.000245074 2.18351e-06
0.000245074 0.000678632 2.17169e-06
2.18351e-06 2.17169e-06 0.000474145
-0.000305227 8.08697e-05 3.07721e-09
8.08697e-05 -0.000384354 -5.96899e-07
3.07721e-09 -5.96899e-07 -0.000683278
0.00136623 0.000624092 1.52382e-06
0.000624092 0.000469592 -6.03122e-06
1.52382e-06 -6.03122e-06 1.11497e-06
-0.000617262 0.000181252 4.94916e-06
0.000181252 -0.000933401 3.04099e-06
4.94916e-06 3.04099e-06 -0.00118571
0.00263563 0.00068281 2.28638e-06
0.00068281 0.00106409 -4.67708e-06
2.28638e-06 -4.67708e-06 0.000657346
0.00235363 0.000618543 -3.12381e-06
0.000618543 0.000111934 -4.14905e-07
-3.12381e-06 -4.14905e-07 -7.49248e-06
0.0022735 0.000776711 8.6861e-06
0.000776711 0.000281218 -3.3011e-06
8.6861e-06 -3.3011e-06 -5.90739e-05
0.0021621 0.000719012 6.67389e-06
0.000719012 9.72957e-05 7.45098e-07
6.67389e-06 7.45098e-07 -0.00017673
0.00197264 0.000879791 1.49401e-05
0.000879791 0.000653619 6.69003e-07
1.49401e-05 6.69003e-07 0.000104315
0.00224262 0.00095122 7.61571e-06
0.00095122 0.000531959 -2.47108e-07
7.61571e-06 -2.47108e-07 4.34218e-05
0.000548487 5.62572e-05 4.60069e-07
5.62572e-05 7.89813e-05 -7.35357e-06
4.60069e-07 -7.35357e-06 -3.22024e-05
0.000728971 0.000140339 8.49653e-07
0.000140339 0.000223473 -1.16263e-06
8.49653e-07 -1.16263e-06 6.34142e-05
8.18792e-05 0.000100893 -2.29852e-06
0.000100893 -0.000191151 -5.97564e-06
-2.29852e-06 -5.97564e-06 -0.000320968
-0.000373723 -1.99919e-05 3.75099e-06
-1.99919e-05 -0.000466035 -2.23845e-06
3.75099e-06 -2.23845e-06 -0.000611542
0.000546245 8.99033e-05 -1.33574e-06
8.99033e-05 0.000140613 4.13871e-07
-1.33574e-06 4.13871e-07 -1.02413e-05
0.000306647 0.000106052 1.59265e-06
0.000106052 -6.09069e-06 -3.31651e-07
1.59265e-06 -3.31651e-07 -0.000174326
0.0005855 0.000171586 -1.71801e-06
0.000171586 0.000162986 -1.03552e-05
-1.71801e-06 -1.03552e-05 5.971e-06
0.000322375 3.81446e-05 -4.3219e-06
3.81446e-05 2.38251e-05 1.19543e-06
-4.3219e-06 1.19543e-06 -0.000155311
0.000704304 0.000117241 -3.91575e-07
0.000117241 0.000221838 2.43943e-06
-3.91575e-07 2.43943e-06 9.227e-05
0.000515251 8.42554e-05 2.50406e-06
8.42554e-05 7.22738e-05 4.42116e-06
2.50406e-06 4.42116e-06 -1.46324e-05
0.000473841 3.16005e-05 -2.82535e-06
3.16005e-05 3.9881e-05 1.02765e-07
-2.82535e-06 1.02765e-07 -4.35288e-05
0.00132337 7.03643e-06 2.39373e-06
7.03643e-06 0.00054861 4.18889e-06
2.39373e-06 4.18889e-06 0.000525688
0.000319294 -7.59844e-05 5.11195e-06
-7.59844e-05 -4.84772e-05 -4.9466e-06
5.11195e-06 -4.9466e-06 -0.000142394
0.00139433 -3.78793e-07 -9.61538e-06
-3.78793e-07 0.000590999 -1.77315e-06
-9.61538e-06 -1.77315e-06 0.000567183
0.000733354 -1.93858e-05 3.62084e-05
-1.93858e-05 0.000159035 9.92661e-06
3.62084e-05 9.92661e-06 0.000162695
0.00145564 -4.82962e-06 -1.73846e-05
-4.82962e-06 0.000629022 -9.29835e-06
-1.73846e-05 -9.29835e-06 0.000601784
0.000743636 -3.61518e-05 1.61441e-05
-3.61518e-05 0.000166865 3.95131e-06
1.61441e-05 3.95131e-06 0.000163284
0.00301864 -0.000131673 1.48696e-06
-0.000131673 0.00164825 -3.95434e-06
1.48696e-06 -3.95434e-06 0.0016409
0.000282061 7.52988e-05 -5.30771e-06
7.52988e-05 -8.21312e-05 -8.08833e-06
-5.30771e-06 -8.08833e-06 -0.000135868
0.00037783 -1.99741e-05 -3.97036e-06
-1.99741e-05 -3.44278e-05 5.28876e-07
-3.97036e-06 5.28876e-07 -9.75433e-05
0.00340311 0.000191836 -1.96048e-05
0.000191836 0.00193496 -1.02762e-05
-1.96048e-05 -1.02762e-05 0.00191063
0.000609322 -0.000125318 -1.60856e-05
-0.000125318 9.35429e-05 1.42964e-05
-1.60856e-05 1.42964e-05 5.43521e-06
0.00460771 0.000155455 -4.27009e-05
0.000155455 0.0027082 -3.97341e-08
-4.27009e-05 -3.97341e-08 0.00268898
0.00558352 0.000129016 -0.000180451
0.000129016 0.00334726 2.755e-05
-0.000180451 2.755e-05 0.00332919
0.00224309 0.000432287 -3.71349e-06
0.000432287 0.000147644 1.23887e-07
-3.71349e-06 1.23887e-07 9.51959e-06
0.00222036 0.000228668 -5.4167e-06
0.000228668 7.48245e-05 -9.43592e-07
-5.4167e-06 -9.43592e-07 3.54521e-05
0.00220282 0.000317244 -5.87633e-08
0.000317244 -1.64661e-05 -2.292e-07
-5.87633e-08 -2.292e-07 -2.75069e-05
0.00207477 0.000135598 -1.96123e-07
0.000135598 -4.60995e-05 -5.44125e-07
-1.96123e-07 -5.44125e-07 -3.39276e-05
0.00215393 5.7099e-05 -6.41969e-06
5.7099e-05 4.58299e-05 -1.1589e-07
-6.41969e-06 -1.1589e-07 2.79034e-05
0.00197343 6.58522e-07 -3.50446e-06
6.58522e-07 5.16499e-05 1.11432e-07
-3.50446e-06 1.11432e-07 -2.4691e-05
0.0021568 -9.6573e-06 1.29311e-07
-9.6573e-06 5.49601e-05 2.35683e-08
1.29311e-07 2.35683e-08 3.31714e-05
0.00212188 5.93407e-05 1.0649e-06
5.93407e-05 6.99128e-06 4.76349e-09
1.0649e-06 4.76349e-09 2.41637e-05
0.0021739 0.000211027 -3.25366e-07
0.000211027 3.69003e-06 -5.10833e-08
-3.25366e-07 -5.10833e-08 2.549e-06
0.00219778 0.000140435 5.35433e-07
0.000140435 -4.16571e-05 9.30382e-08
5.35433e-07 9.30382e-08 6.36588e-06
0.00223268 0.000431428 -4.17878e-07
0.000431428 6.08799e-05 2.34976e-07
-4.17878e-07 2.34976e-07 -1.54482e-05
0.00231775 0.000329759 2.34077e-06
0.000329759 -2.36856e-05 5.99745e-07
2.34077e-06 5.99745e-07 -1.61795e-06
0.00207679 -1.47317e-05 2.78242e-06
-1.47317e-05 -1.78995e-05 -1.42175e-07
2.78242e-06 -1.42175e-07 -3.78056e-06
0.00220636 6.82179e-05 -1.16917e-06
6.82179e-05 -4.58187e-05 9.89128e-08
-1.16917e-06 9.89128e-08 1.58951e-05
0.00229242 0.000215482 -3.5978e-06
0.000215482 -2.87095e-05 -2.39283e-07
-3.5978e-06 -2.39283e-07 1.76441e-05
0.0024143 0.000465829 -2.71096e-06
0.000465829 1.88697e-05 -5.55871e-07
-2.71096e-06 -5.55871e-07 2.63483e-05
0.00219403 -8.21638e-05 -7.65725e-06
-8.21638e-05 8.37328e-05 6.28304e-07
-7.65725e-06 6.28304e-07 5.52213e-05
0.00212069 -0.00024449 -2.86929e-06
-0.00024449 1.86061e-05 1.41808e-07
-2.86929e-06 1.41808e-07 -3.9248e-05
0.00205622 -0.000136701 -2.93806e-06
-0.000136701 -2.54156e-05 4.9177e-07
-2.93806e-06 4.9177e-07 -1.63779e-05
0.00216725 -0.000348175 -3.80045e-06
-0.000348175 1.28693e-05 4.8442e-07
-3.80045e-06 4.8442e-07 -1.78072e-05
0.00105292 -0.000481964 -4.84678e-06
-0.000481964 0.000138917 -8.5847e-07
-4.84678e-06 -8.5847e-07 -0.000258148
0.00183006 -0.000813765 7.04856e-06
-0.000813765 0.000443873 -8.80688e-06
7.04856e-06 -8.80688e-06 -7.95873e-05
0.00223146 -0.000867832 -2.66279e-06
-0.000867832 0.000433622 -5.01108e-06
-2.66279e-06 -5.01108e-06 -3.66134e-05
0.0022105 -0.000521184 -3.84948e-06
-0.000521184 0.000156538 4.15681e-07
-3.84948e-06 4.15681e-07 1.16774e-05
0.00220699 -0.000459813 1.19379e-06
-0.000459813 1.27207e-05 -1.83242e-07
1.19379e-06 -1.83242e-07 -2.73968e-05
0.00218439 -0.000641415 -9.41644e-07
-0.000641415 0.000123602 7.67697e-07
-9.41644e-07 7.67697e-07 -4.66202e-05
0.00221761 -0.000701364 -2.84496e-06
-0.000701364 0.000345908 -2.88279e-06
-2.84496e-06 -2.88279e-06 3.31934e-05
0.00232218 -0.000702447 9.95696e-06
-0.000702447 0.000289562 -3.63456e-06
9.95696e-06 -3.63456e-06 4.47271e-05
0.00134962 -0.000554097 -1.68435e-05
-0.000554097 0.000450811 -2.8459e-06
-1.68435e-05 -2.8459e-06 4.80033e-06
0.00065701 -0.000437498 3.66618e-06
-0.000437498 3.92653e-05 -9.74081e-06
3.66618e-06 -9.74081e-06 -0.000387878
0.00267197 -0.000321528 -7.68756e-06
-0.000321528 0.00133215 -2.57283e-06
-7.68756e-06 -2.57283e-06 0.00104411
-4.46482e-05 -8.20996e-05 2.38374e-06
-8.20996e-05 -0.000278702 6.26883e-06
2.38374e-06 6.26883e-06 -0.00047145
-0.000162865 -0.000152457 3.68709e-06
-0.000152457 -0.000330917 -2.32473e-06
3.68709e-06 -2.32473e-06 -0.000653836
0.00206623 -8.9802e-05 7.75322e-08
-8.9802e-05 -2.98894e-05 -8.72073e-08
7.75322e-08 -8.72073e-08 -1.15467e-05
0.00216029 -0.000210881 1.73572e-06
-0.000210881 -1.15313e-05 -1.51084e-08
1.73572e-06 -1.51084e-08 -1.39687e-06
0.00227957 -0.000414402 -7.57633e-07
-0.000414402 -1.81448e-05 1.91426e-07
-7.57633e-07 1.91426e-07 -1.59701e-05
0.00175646 -0.000721261 -1.80298e-06
-0.000721261 0.000573959 -3.82455e-07
-1.80298e-06 -3.82455e-07 6.56195e-05
0.00155346 -0.000855041 4.57614e-06
-0.000855041 0.000268544 -5.92648e-07
4.57614e-06 -5.92648e-07 -0.000277226
0.00232611 -0.000921374 -1.31857e-06
-0.000921374 0.000471427 2.95895e-08
-1.31857e-06 2.95895e-08 -7.47932e-06
0.00225885 -0.000546063 4.99782e-07
-0.000546063 7.14982e-05 -1.77932e-07
4.99782e-07 -1.77932e-07 -1.70126e-06
0.0021957 -0.000722548 3.10145e-06
-0.000722548 0.000274619 -4.42101e-06
3.10145e-06 -4.42101e-06 -2.77984e-05
0.00241271 -0.000746579 -1.00302e-06
-0.000746579 0.000209341 -4.73813e-07
-1.00302e-06 -4.73813e-07 1.4072e-05
-0.000239076 2.2631e-05 -2.02371e-06
2.2631e-05 -0.000408903 -6.05338e-07
-2.02371e-06 -6.05338e-07 -0.000533595
0.00147174 -0.000625181 -3.84241e-07
-0.000625181 0.000518103 -1.53574e-06
-3.84241e-07 -1.53574e-06 2.50221e-05
0.00115945 -0.000550516 -4.93371e-06
-0.000550516 0.000383232 -9.52166e-07
-4.93371e-06 -9.52166e-07 -0.000133726
0.00113342 -0.00034104 -4.1841e-06
-0.00034104 0.000343019 3.37506e-06
-4.1841e-06 3.37506e-06 -4.41372e-05
0.00177339 -0.000413905 1.34369e-06
-0.000413905 0.000862712 -1.81793e-06
1.34369e-06 -1.81793e-06 0.000504676
0.000417714 -0.000141207 -5.01736e-07
-0.000141207 0.000109715 1.00129e-06
-5.01736e-07 1.00129e-06 -0.000213679
0.00216835 -0.000112412 -1.12517e-06
-0.000112412 -5.23792e-05 -4.14063e-07
-1.12517e-06 -4.14063e-07 -2.29297e-06
0.00233045 -0.00028374 -1.59611e-06
-0.00028374 -6.42862e-05 4.36999e-07
-1.59611e-06 4.36999e-07 5.79191e-06
0.00236269 -0.000512168 -2.81e-07
-0.000512168 -1.79684e-05 5.07114e-07
-2.81e-07 5.07114e-07 1.6571e-06
0.00240076 -0.000659764 -1.10949e-06
-0.000659764 5.23509e-05 -5.53936e-07
-1.10949e-06 -5.53936e-07 2.96095e-06
0.00194105 -0.000825522 -6.64855e-06
-0.000825522 0.000686997 5.06178e-06
-6.64855e-06 5.06178e-06 0.000134124
0.00243078 -0.000863716 -8.68297e-06
-0.000863716 0.00029096 -3.29777e-06
-8.68297e-06 -3.29777e-06 6.88485e-07
0.00198115 -0.000996648 -5.13613e-05
-0.000996648 0.000517271 9.88244e-06
-5.13613e-05 9.88244e-06 -7.95016e-05
0.00220798 -0.000954849 -2.76943e-05
-0.000954849 0.000419801 4.98449e-06
-2.76943e-05 4.98449e-06 -6.98488e-05
-0.000238926 4.46293e-05 -5.82418e-06
4.46293e-05 -0.000412403 -5.3641e-06
-5.82418e-06 -5.3641e-06 -0.000503617
0.00103989 -2.65256e-05 -3.05112e-06
-2.65256e-05 0.000491745 -1.94006e-06
-3.05112e-06 -1.94006e-06 0.000256925
0.0023984 -0.00045198 -1.00632e-05
-0.00045198 0.00139424 -1.4271e-06
-1.00632e-05 -1.4271e-06 0.00101785
0.000159615 -0.000254193 -1.73983e-06
-0.000254193 -0.000182622 -9.68176e-06
-1.73983e-06 -9.68176e-06 -0.000549844
0.00314273 -0.000864213 -9.40382e-06
-0.000864213 0.0015261 1.56619e-05
-9.40382e-06 1.56619e-05 0.000971337
0.00174373 -0.000628198 6.49978e-06
-0.000628198 0.000751571 1.23646e-05
6.49978e-06 1.23646e-05 0.000172379
0.000512741 8.1132e-05 -2.91426e-07
8.1132e-05 4.5776e-05 -7.86802e-06
-2.91426e-07 -7.86802e-06 -8.02305e-05
-0.000621605 5.24307e-05 8.24611e-07
5.24307e-05 -0.000597865 2.76459e-07
8.24611e-07 2.76459e-07 -0.00084414
0.00217331 0.000539009 -1.11088e-06
0.000539009 0.000128986 -8.89359e-07
-1.11088e-06 -8.89359e-07 -4.3414e-05
0.000178989 4.65526e-05 -4.83684e-06
4.65526e-05 -0.000279942 2.16651e-06
-4.83684e-06 2.16651e-06 -0.00052957
0.00141149 0.000563352 5.02872e-06
0.000563352 0.000480905 -4.72676e-06
5.02872e-06 -4.72676e-06 5.21327e-05
1.86489e-05 0.000171599 -7.08137e-06
0.000171599 -0.000532598 -8.09532e-06
-7.08137e-06 -8.09532e-06 -0.000783018
0.00231266 0.000725752 5.09841e-06
0.000725752 0.000340291 1.90603e-06
5.09841e-06 1.90603e-06 3.51825e-05
0.00217603 0.000693444 -3.16192e-06
0.000693444 0.000158474 6.78888e-07
-3.16192e-06 6.78888e-07 -9.59216e-05
0.0021325 0.000892377 -4.60953e-06
0.000892377 0.000794116 5.28278e-06
-4.60953e-06 5.28278e-06 0.000230397
0.00201284 0.000826575 -7.92585e-06
0.000826575 0.000392764 2.18301e-06
-7.92585e-06 2.18301e-06 -4.34397e-05
0.000829064 0.000180376 -8.27922e-07
0.000180376 0.000296405 -2.99747e-07
-8.27922e-07 -2.99747e-07 0.000103749
0.000504385 0.000186283 2.16038e-06
0.000186283 0.000124946 -8.39352e-07
2.16038e-06 -8.39352e-07 -0.000187953
0.0012553 0.000600475 -3.28045e-06
0.000600475 0.000398852 -9.14233e-07
-3.28045e-06 -9.14233e-07 -6.19003e-05
0.00148558 0.000268482 -2.25106e-06
0.000268482 0.000386906 2.01335e-06
-2.25106e-06 2.01335e-06 0.00013222
0.00243663 0.00061715 7.25717e-09
0.00061715 0.000921497 -1.56183e-06
7.25717e-09 -1.56183e-06 0.000534106
0.00239719 0.000628326 -2.44613e-06
0.000628326 0.000120998 -6.7943e-07
-2.44613e-06 -6.7943e-07 -1.61505e-06
0.00244591 0.000774673 2.94648e-06
0.000774673 0.000395145 -7.74094e-07
2.94648e-06 -7.74094e-07 6.44611e-05
0.0024695 0.000750962 9.11754e-07
0.000750962 0.000284789 2.68112e-06
9.11754e-07 2.68112e-06 5.07048e-06
0.00184619 0.000874506 4.80828e-06
0.000874506 0.000573316 1.34645e-06
4.80828e-06 1.34645e-06 1.96924e-05
0.00220884 0.000984581 -4.8773e-06
0.000984581 0.000514974 8.50512e-07
-4.8773e-06 8.50512e-07 4.39427e-06
-0.00168755 3.03647e-05 -6.63262e-06
3.03647e-05 -0.00128024 2.63798e-06
-6.63262e-06 2.63798e-06 -0.0014622
-0.00208008 0.000118415 -1.30503e-06
0.000118415 -0.00142844 -1.34e-06
-1.30503e-06 -1.34e-06 -0.00177928
0.00178509 0.000712004 6.72719e-06
0.000712004 0.000643094 -4.22933e-06
6.72719e-06 -4.22933e-06 0.000158326
0.00173856 0.000463399 5.60372e-06
0.000463399 0.000460424 -3.40178e-07
5.60372e-06 -3.40178e-07 0.000142592
0.00259803 0.000614288 5.00248e-08
0.000614288 -8.60549e-05 3.86026e-07
5.00248e-08 3.86026e-07 -1.67664e-05
0.00261931 0.000757321 5.86604e-06
0.000757321 0.000273122 9.22255e-07
5.86604e-06 9.22255e-07 6.98362e-05
0.00248942 0.000926441 8.47786e-06
0.000926441 0.000428257 -4.44264e-06
8.47786e-06 -4.44264e-06 -6.57849e-06
0.00175757 0.000965963 5.81982e-06
0.000965963 0.000361482 -7.95546e-07
5.81982e-06 -7.95546e-07 -0.000219499
0.00121769 0.00018623 1.1496e-06
0.00018623 0.000557659 -5.05e-08
1.1496e-06 -5.05e-08 0.000376023
0.000477643 0.000185643 -3.14243e-06
0.000185643 8.71583e-05 -3.49961e-07
-3.14243e-06 -3.49961e-07 -6.40529e-05
0.00119535 0.000144652 -9.80502e-06
0.000144652 0.000552259 -6.4848e-06
-9.80502e-06 -6.4848e-06 0.000441532
0.000324249 5.29853e-05 8.23437e-07
5.29853e-05 -2.68581e-05 -2.89863e-06
8.23437e-07 -2.89863e-06 -0.000156502
-0.000935358 5.6353e-05 5.37565e-07
5.6353e-05 -0.000773551 1.67736e-06
5.37565e-07 1.67736e-06 -0.00093896
0.000675087 6.95226e-05 -8.30879e-07
6.95226e-05 0.000205175 1.24502e-08
-8.30879e-07 1.24502e-08 7.37652e-05
0.000619599 0.00019147 1.85378e-06
0.00019147 0.000219829 1.27031e-06
1.85378e-06 1.27031e-06 5.53685e-05
0.000554117 9.41226e-05 7.80453e-07
9.41226e-05 0.000193809 1.32624e-06
7.80453e-07 1.32624e-06 -3.95128e-06
0.000593603 0.000147505 2.36555e-06
0.000147505 0.000111692 -1.03659e-05
2.36555e-06 -1.03659e-05 2.38475e-05
0.000663163 5.44416e-05 2.25273e-07
5.44416e-05 0.000250937 -6.57591e-06
2.25273e-07 -6.57591e-06 6.05482e-05
-7.49096e-05 7.40205e-05 -5.87014e-07
7.40205e-05 -0.00023999 2.85191e-06
-5.87014e-07 2.85191e-06 -0.000408401
0.000698551 0.000128973 2.0757e-06
0.000128973 0.000216506 4.2699e-06
2.0757e-06 4.2699e-06 8.26451e-05
0.000444182 8.89809e-05 2.65052e-06
8.89809e-05 3.28169e-05 4.21468e-06
2.65052e-06 4.21468e-06 -5.99088e-05
0.000432363 2.05265e-05 -1.61866e-06
2.05265e-05 1.56713e-05 -4.22668e-07
-1.61866e-06 -4.22668e-07 -6.85328e-05
0.00126193 1.28442e-05 7.09581e-07
1.28442e-05 0.000514572 3.49573e-06
7.09581e-07 3.49573e-06 0.000491891
0.000414327 -4.22862e-05 1.41131e-06
-4.22862e-05 -2.23147e-06 -3.85459e-06
1.41131e-06 -3.85459e-06 -8.25012e-05
0.0013333 -4.40094e-07 -9.08527e-06
-4.40094e-07 0.000554752 -1.75729e-06
-9.08527e-06 -1.75729e-06 0.000532873
0.000676541 -9.49409e-06 3.31856e-05
-9.49409e-06 0.000125437 1.00046e-05
3.31856e-05 1.00046e-05 0.000129927
0.00136787 -2.55627e-05 -1.15679e-05
-2.55627e-05 0.000574685 -7.93904e-06
-1.15679e-05 -7.93904e-06 0.000551765
0.000731723 -2.55997e-05 1.38837e-05
-2.55997e-05 0.000156348 3.74627e-06
1.38837e-05 3.74627e-06 0.000157529
0.000735854 -4.03028e-05 1.88784e-06
-4.03028e-05 0.000162082 -4.2602e-06
1.88784e-06 -4.2602e-06 0.000156415
0.000334583 4.81624e-05 -2.57932e-06
4.81624e-05 -7.56241e-05 -6.23322e-06
-2.57932e-06 -6.23322e-06 -0.000109841
0.000406439 6.49134e-05 -1.44234e-06
6.49134e-05 -1.07604e-05 1.22094e-07
-1.44234e-06 1.22094e-07 -6.14598e-05
0.00275156 0.000140213 -5.76764e-06
0.000140213 0.00149804 -7.4152e-06
-5.76764e-06 -7.4152e-06 0.00148829
0.000429013 -2.58975e-05 -1.04348e-05
-2.58975e-05 -2.24255e-06 1.23676e-05
-1.04348e-05 1.23676e-05 -6.86954e-05
0.00357854 0.000165658 -2.46846e-05
0.000165658 0.00203753 -2.16244e-06
-2.46846e-05 -2.16244e-06 0.00201837
0.0046871 8.18061e-05 -0.000162537
8.18061e-05 0.00275067 2.09731e-05
-0.000162537 2.09731e-05 0.00274875
0.00224966 0.00043083 -4.702e-07
0.00043083 8.00989e-05 8.58306e-08
-4.702e-07 8.58306e-08 2.29888e-06
0.00219426 0.000211833 -1.96294e-06
0.000211833 2.13092e-05 -1.011e-06
-1.96294e-06 -1.011e-06 2.02658e-05
0.00227331 0.00033166 2.68328e-06
0.00033166 -5.28802e-05 1.58372e-06
2.68328e-06 1.58372e-06 -2.39373e-05
0.00216094 0.000140907 2.52813e-06
0.000140907 -7.12065e-05 -2.53452e-07
2.52813e-06 -2.53452e-07 -1.54998e-05
0.00211248 6.11571e-05 -2.98993e-06
6.11571e-05 4.00164e-06 -3.18453e-07
-2.98993e-06 -3.18453e-07 1.75457e-05
0.00218551 -1.28627e-05 -8.13885e-06
-1.28627e-05 7.88319e-05 2.98502e-07
-8.13885e-06 2.98502e-07 5.49133e-05
0.00208935 -1.35126e-05 3.04404e-07
-1.35126e-05 -8.64141e-06 -1.31101e-08
3.04404e-07 -1.31101e-08 6.46079e-06
0.00218663 7.13199e-05 9.12849e-07
7.13199e-05 -5.47039e-05 5.57098e-08
9.12849e-07 5.57098e-08 5.38937e-06
0.00226922 0.000221531 1.02628e-06
0.000221531 -4.69211e-05 2.03882e-07
1.02628e-06 2.03882e-07 3.3956e-06
0.00239078 0.000452432 4.876e-07
0.000452432 -2.0121e-06 1.45366e-07
4.876e-07 1.45366e-07 8.8417e-06
0.00215218 -1.69265e-05 -1.72409e-06
-1.69265e-05 -6.76357e-05 -2.2032e-07
-1.72409e-06 -2.2032e-07 -1.3232e-05
0.00231315 0.000120609 -5.75156e-06
0.000120609 -9.21878e-05 4.03409e-08
-5.75156e-06 4.03409e-08 1.41442e-05
0.00254173 0.000336021 -3.40768e-06
0.000336021 -2.31179e-05 -1.25369e-06
-3.40768e-06 -1.25369e-06 5.6635e-05
0.00204779 -9.74045e-05 -1.97118e-06
-9.74045e-05 -4.27174e-05 5.1082e-07
-1.97118e-06 5.1082e-07 -2.55588e-05
0.00216904 -0.000211149 -1.56231e-06
-0.000211149 -9.01155e-06 3.61113e-08
-1.56231e-06 3.61113e-08 6.05745e-07
0.00226028 -0.000406733 -5.60964e-07
-0.000406733 -1.17979e-05 -1.75338e-07
-5.60964e-07 -1.75338e-07 -1.79234e-05
0.00191177 -0.000738664 -3.48076e-06
-0.000738664 0.000644975 -6.21349e-06
-3.48076e-06 -6.21349e-06 0.000135747
0.00176476 -0.000855693 1.76432e-05
-0.000855693 0.000401649 -9.34156e-06
1.76432e-05 -9.34156e-06 -0.000138753
0.0021767 -0.000918914 3.15284e-06
-0.000918914 0.000387676 -2.58302e-06
3.15284e-06 -2.58302e-06 -9.46081e-05
0.00226385 -0.000542751 -9.64623e-07
-0.000542751 7.8045e-05 -1.11723e-07
-9.64623e-07 -1.11723e-07 2.70645e-06
0.00232567 -0.000725338 6.28722e-06
-0.000725338 0.000181793 -3.54242e-08
6.28722e-06 -3.54242e-08 -1.22917e-06
0.00236761 -0.000764379 8.35999e-06
-0.000764379 0.000349187 -7.38909e-06
8.35999e-06 -7.38909e-06 4.25622e-05
0.00107539 -0.000560381 -5.49497e-06
-0.000560381 0.000290602 -4.89967e-06
-5.49497e-06 -4.89967e-06 -0.000194156
0.00206023 -0.00068692 -7.36453e-08
-0.00068692 0.000921422 -1.45572e-05
-7.36453e-08 -1.45572e-05 0.000391927
0.00257095 -0.000446907 -1.49337e-05
-0.000446907 0.00130551 1.61558e-05
-1.49337e-05 1.61558e-05 0.000867323
0.00021085 3.37324e-05 5.41917e-06
3.37324e-05 -0.000120826 4.27858e-06
5.41917e-06 4.27858e-06 -0.000245049
0.00140432 -0.000449997 1.75847e-06
-0.000449997 0.000625203 8.36168e-08
1.75847e-06 8.36168e-08 0.0002667
-0.00025596 -1.56369e-05 7.9451e-06
-1.56369e-05 -0.000334904 1.1529e-06
7.9451e-06 1.1529e-06 -0.000642073
0.00217562 -0.000108197 -4.50692e-07
-0.000108197 -4.69246e-05 5.80966e-08
-4.50692e-07 5.80966e-08 1.21146e-06
0.00230896 -0.000294063 4.03726e-07
-0.000294063 -8.21995e-05 2.95653e-08
4.03726e-07 2.95653e-08 -1.00893e-05
0.00236478 -0.000503884 -6.82556e-07
-0.000503884 -1.26985e-05 2.71447e-07
-6.82556e-07 2.71447e-07 5.52759e-06
0.00207061 -0.00084465 -1.26513e-06
-0.00084465 0.00075983 1.31885e-06
-1.26513e-06 1.31885e-06 0.000204972
0.0018494 -0.000968549 8.61408e-06
-0.000968549 0.000446743 -1.84853e-06
8.61408e-06 -1.84853e-06 -0.000138944
0.00235441 -0.000947691 -1.82707e-06
-0.000947691 0.000511299 -1.92219e-06
-1.82707e-06 -1.92219e-06 3.72806e-05
0.0023971 -0.000670274 2.99591e-07
-0.000670274 5.29604e-05 -1.10125e-07
2.99591e-07 -1.10125e-07 -7.14776e-06
0.00233607 -0.000835173 2.19674e-06
-0.000835173 0.000255858 -1.46413e-06
2.19674e-06 -1.46413e-06 -1.97591e-05
0.000208216 6.55577e-05 -2.50268e-06
6.55577e-05 -0.000123146 -1.83242e-06
-2.50268e-06 -1.83242e-06 -0.000213598
0.000762065 -5.99485e-05 -1.44239e-06
-5.99485e-05 0.000297956 7.25103e-07
-1.44239e-06 7.25103e-07 7.75681e-05
0.00121249 -0.000625831 -3.07943e-06
-0.000625831 0.00036442 7.22441e-07
-3.07943e-06 7.22441e-07 -0.00012839
0.00169675 -0.000583166 -4.77138e-06
-0.000583166 0.000762183 3.17632e-06
-4.77138e-06 3.17632e-06 0.00019079
0.00118693 -0.000221496 1.187e-06
-0.000221496 0.000437472 -2.81013e-06
1.187e-06 -2.81013e-06 7.14917e-05
0.00153713 -0.000333063 -1.02277e-06
-0.000333063 0.000839258 2.04507e-06
-1.02277e-06 2.04507e-06 0.000474859
0.00229924 -0.000143608 -4.46717e-06
-0.000143608 -9.18753e-05 5.03988e-07
-4.46717e-06 5.03988e-07 1.53495e-05
0.00248079 -0.000430706 -2.08893e-06
-0.000430706 -0.000131013 1.27445e-06
-2.08893e-06 1.27445e-06 1.12746e-05
0.00243499 -0.000630503 2.46005e-06
-0.000630503 -3.13846e-05 -9.2124e-07
2.46005e-06 -9.2124e-07 -1.62187e-05
0.00255201 -0.000852831 1.29731e-06
-0.000852831 0.000175908 -1.46636e-06
1.29731e-06 -1.46636e-06 1.72641e-05
0.00097817 -0.000734055 -7.01612e-06
-0.000734055 0.000121212 -2.84027e-06
-7.01612e-06 -2.84027e-06 -0.000399123
0.00247528 -0.00102643 -3.15295e-06
-0.00102643 0.000488884 5.84733e-07
-3.15295e-06 5.84733e-07 4.3822e-05
0.00235547 -0.00113384 -5.91794e-05
-0.00113384 0.00066408 6.35803e-06
-5.91794e-05 6.35803e-06 2.78955e-05
0.000560571 4.60821e-05 -4.08949e-07
4.60821e-05 8.27515e-05 -2.36821e-06
-4.08949e-07 -2.36821e-06 1.39576e-05
0.000802286 -0.00016892 3.85218e-06
-0.00016892 0.000314752 -4.72148e-06
3.85218e-06 -4.72148e-06 0.000174839
0.000147072 8.22714e-05 -8.3163e-06
8.22714e-05 -0.000110176 -2.93897e-06
-8.3163e-06 -2.93897e-06 -0.00025221
0.00104275 -9.51277e-05 -6.02871e-06
-9.51277e-05 0.000500641 9.16538e-07
-6.02871e-06 9.16538e-07 0.000218779
0.00026512 -0.000172128 -4.9298e-06
-0.000172128 -4.98171e-05 -1.39249e-05
-4.9298e-06 -1.39249e-05 -0.00037437
0.0013847 -0.000342912 -3.89618e-07
-0.000342912 0.000683565 -9.885e-06
-3.89618e-07 -9.885e-06 0.000202929
0.00124878 -0.000672318 -1.92458e-05
-0.000672318 0.000389926 3.81678e-05
-1.92458e-05 3.81678e-05 -0.000109067
0.00288093 -0.00068579 -1.94544e-05
-0.00068579 0.00162822 1.75095e-05
-1.94544e-05 1.75095e-05 0.0008685
9.04194e-05 7.92324e-05 7.27643e-07
7.92324e-05 -0.000198426 -8.76722e-08
7.27643e-07 -8.76722e-08 -0.000365889
0.00157109 0.00032102 2.48685e-07
0.00032102 0.00078513 2.14636e-06
2.48685e-07 2.14636e-06 0.000459694
0.00244131 0.000639087 -4.25659e-08
0.000639087 0.000130023 -8.97971e-07
-4.25659e-08 -8.97971e-07 3.42835e-06
0.00129655 0.000204477 -3.80559e-06
0.000204477 0.000238586 -3.05358e-06
-3.80559e-06 -3.05358e-06 -1.66975e-05
0.00116977 0.000579507 -1.08004e-06
0.000579507 0.000348642 6.0713e-08
-1.08004e-06 6.0713e-08 -0.000107045
0.00249667 0.000589849 -3.7112e-06
0.000589849 0.000939054 5.49455e-06
-3.7112e-06 5.49455e-06 0.000560318
0.00260687 0.000769769 -4.94033e-06
0.000769769 0.000503073 4.03585e-07
-4.94033e-06 4.03585e-07 0.000183139
0.00275514 0.000781684 -6.36932e-06
0.000781684 0.000459261 6.99929e-06
-6.36932e-06 6.99929e-06 0.000174199
0.00164629 0.000862189 -4.61831e-06
0.000862189 0.00044416 1.83457e-06
-4.61831e-06 1.83457e-06 -0.00011133
0.00205594 0.00100688 -1.30638e-05
0.00100688 0.000426977 -5.81891e-07
-1.30638e-05 -5.81891e-07 -0.000102778
-0.000242937 9.19952e-05 1.70849e-06
9.19952e-05 -0.000337384 1.42489e-06
1.70849e-06 1.42489e-06 -0.000562222
0.000336788 0.000337523 4.61373e-06
0.000337523 0.000101496 -2.37123e-06
4.61373e-06 -2.37123e-06 -0.000275851
0.0015502 0.000699055 7.57603e-07
0.000699055 0.000466326 -2.67991e-07
7.57603e-07 -2.67991e-07 -2.4535e-05
0.00204841 0.000505343 -5.81018e-06
0.000505343 0.000694497 8.95349e-07
-5.81018e-06 8.95349e-07 0.000358158
0.00255304 0.000590983 2.29984e-07
0.000590983 -0.000145673 -9.47524e-07
2.29984e-07 -9.47524e-07 -5.54286e-05
0.00269556 0.000772186 3.28316e-06
0.000772186 0.000313946 -3.93749e-07
3.28316e-06 -3.93749e-07 9.63707e-05
0.00229303 0.000886094 -3.13506e-06
0.000886094 0.000344991 2.94357e-08
-3.13506e-06 2.94357e-08 -7.53929e-05
0.0021119 0.000997529 2.1835e-06
0.000997529 0.000553307 3.25495e-07
2.1835e-06 3.25495e-07 -2.46315e-05
-0.000640809 3.54835e-05 -5.02265e-06
3.54835e-05 -0.000568448 -4.02837e-07
-5.02265e-06 -4.02837e-07 -0.000757514
0.00247004 0.000423937 1.05356e-06
0.000423937 -0.000219453 -1.32945e-06
1.05356e-06 -1.32945e-06 -9.66245e-05
0.00237047 0.000608171 -3.19377e-06
0.000608171 0.00133063 9.22102e-06
-3.19377e-06 9.22102e-06 0.000892487
0.00172375 0.000703543 4.65502e-07
0.000703543 0.000492477 -4.42355e-06
4.65502e-07 -4.42355e-06 2.59242e-05
0.00264009 0.000753678 -1.55456e-05
0.000753678 5.75838e-05 -1.0074e-05
-1.55456e-05 -1.0074e-05 5.50674e-05
0.00129574 0.000814002 4.49508e-06
0.000814002 -0.000331088 -1.07303e-05
4.49508e-06 -1.07303e-05 -0.000717167
0.00305202 0.00113861 3.0131e-06
0.00113861 0.00103328 3.93684e-06
3.0131e-06 3.93684e-06 0.000425503
0.000436093 0.000147645 1.53681e-07
0.000147645 7.97581e-05 1.5567e-06
1.53681e-07 1.5567e-06 -8.06445e-05
0.000449355 0.000135009 -2.62377e-06
0.000135009 9.83852e-05 -1.0549e-06
-2.62377e-06 -1.0549e-06 -1.8017e-05
0.000362618 9.85933e-05 -3.61107e-06
9.85933e-05 6.98674e-05 -2.63864e-06
-3.61107e-06 -2.63864e-06 -1.27068e-05
0.000329258 8.63204e-06 1.7582e-06
8.63204e-06 -2.09472e-05 -3.74899e-06
1.7582e-06 -3.74899e-06 -0.000147203
0.000504022 9.90407e-05 2.83918e-06
9.90407e-05 0.000157537 -3.48671e-06
2.83918e-06 -3.48671e-06 -3.63725e-05
-0.000540495 0.000146178 -4.67607e-06
0.000146178 -0.000467392 1.18947e-05
-4.67607e-06 1.18947e-05 -0.000620763
0.000506927 2.88493e-05 -1.71895e-06
2.88493e-05 9.59924e-05 -7.70435e-08
-1.71895e-06 -7.70435e-08 -3.8886e-05
0.000224608 2.35885e-06 -5.78433e-07
2.35885e-06 -2.91988e-05 -4.95417e-07
-5.78433e-07 -4.95417e-07 -0.000212191
7.39659e-06 8.64441e-05 -4.87514e-06
8.64441e-05 -0.000222018 2.95257e-06
-4.87514e-06 2.95257e-06 -0.000295931
0.00074636 0.000145125 1.60946e-06
0.000145125 0.000315424 -1.33353e-06
1.60946e-06 -1.33353e-06 0.000115492
0.00188553 0.000198035 -1.15292e-06
0.000198035 0.000925588 -8.98413e-06
-1.15292e-06 -8.98413e-06 0.000867191
-0.000137732 2.31412e-05 1.25783e-05
2.31412e-05 -0.000297937 -1.2556e-05
1.25783e-05 -1.2556e-05 -0.000396411
0.000459032 0.000127768 6.18592e-07
0.000127768 0.000140257 2.53724e-06
6.18592e-07 2.53724e-06 -6.16107e-05
0.000500904 6.92337e-05 3.23367e-07
6.92337e-05 0.000123509 3.8725e-06
3.23367e-07 3.8725e-06 -6.55998e-05
0.000529399 2.33746e-05 2.02764e-06
2.33746e-05 9.51269e-05 3.4436e-06
2.02764e-06 3.4436e-06 -4.06612e-05
0.000484753 -7.26897e-05 -1.64154e-06
-7.26897e-05 5.07827e-05 3.09556e-06
-1.64154e-06 3.09556e-06 -3.9834e-05
0.000461083 1.57511e-05 7.07241e-07
1.57511e-05 3.03755e-05 -4.80774e-07
7.07241e-07 -4.80774e-07 -5.39529e-05
0.00131863 2.85815e-05 3.62459e-06
2.85815e-05 0.000556626 3.72586e-06
3.62459e-06 3.72586e-06 0.00053341
0.000461157 1.49445e-05 9.19008e-07
1.49445e-05 2.00952e-05 -4.04237e-06
9.19008e-07 -4.04237e-06 -5.49967e-05
0.0013393 1.91881e-05 -9.29141e-06
1.91881e-05 0.000565555 -1.92346e-06
-9.29141e-06 -1.92346e-06 0.000542421
0.000749731 -3.24019e-06 2.87063e-05
-3.24019e-06 0.000177924 9.48714e-06
2.87063e-05 9.48714e-06 0.000181604
0.00133368 -1.21095e-05 -9.86681e-06
-1.21095e-05 0.00055428 -7.61263e-06
-9.86681e-06 -7.61263e-06 0.000533512
0.00074915 -1.59529e-05 1.14765e-05
-1.59529e-05 0.000169194 3.73213e-06
1.14765e-05 3.73213e-06 0.000171608
0.000742283 -2.94921e-05 1.43046e-06
-2.94921e-05 0.000161211 -3.31886e-06
1.43046e-06 -3.31886e-06 0.000161094
0.000575061 -1.92752e-05 4.87444e-07
-1.92752e-05 8.50208e-05 -3.10453e-06
4.87444e-07 -3.10453e-06 2.38168e-05
0.00032629 2.92261e-05 -7.40308e-07
2.92261e-05 -9.04646e-05 -5.44033e-06
-7.40308e-07 -5.44033e-06 -0.000115949
0.000364744 4.44646e-05 7.76759e-07
4.44646e-05 -5.50935e-05 4.20173e-07
7.76759e-07 4.20173e-07 -9.00534e-05
0.00263606 0.000111524 3.99906e-06
0.000111524 0.00141064 -6.01964e-06
3.99906e-06 -6.01964e-06 0.00140902
0.000358944 3.77788e-05 2.65814e-06
3.77788e-05 -5.45852e-05 9.44109e-06
2.65814e-06 9.44109e-06 -9.95082e-05
0.0030539 0.000157153 -4.85326e-06
0.000157153 0.00169676 -5.74298e-07
-4.85326e-06 -5.74298e-07 0.00168317
0.00391748 0.000117888 -7.09093e-05
0.000117888 0.00224312 8.80395e-06
-7.09093e-05 8.80395e-06 0.0022343
0.00236759 0.00043959 2.93802e-06
0.00043959 -2.27246e-05 9.67249e-07
2.93802e-06 9.67249e-07 -8.74822e-06
0.00225137 0.000228245 2.67709e-06
0.000228245 -6.11813e-05 3.35513e-07
2.67709e-06 3.35513e-07 -7.41333e-06
0.00216821 7.51446e-05 1.4693e-06
7.51446e-05 -6.22384e-05 -2.52368e-07
1.4693e-06 -2.52368e-07 -4.15616e-06
0.00210091 -1.2054e-05 -3.32174e-06
-1.2054e-05 4.79213e-07 1.37714e-07
-3.32174e-06 1.37714e-07 1.65288e-05
0.00216836 -1.18158e-05 -6.69887e-07
-1.18158e-05 -6.0045e-05 3.13349e-08
-6.69887e-07 3.13349e-08 -2.18709e-06
0.00230355 0.000115102 5.55611e-07
0.000115102 -9.05376e-05 6.3528e-07
5.55611e-07 6.3528e-07 1.32741e-05
0.00243893 0.000345555 -8.60649e-07
0.000345555 -7.20341e-05 -3.41354e-07
-8.60649e-07 -3.41354e-07 7.72182e-06
0.00227596 -1.30952e-05 -4.22532e-06
-1.30952e-05 -0.000118201 1.11725e-07
-4.22532e-06 1.11725e-07 1.08759e-06
0.00261402 0.000167168 -5.79486e-06
0.000167168 -5.8136e-05 -2.24736e-06
-5.79486e-06 -2.24736e-06 7.04637e-05
0.00238946 0.000137127 9.4221e-07
0.000137127 -0.000181083 6.09056e-06
9.4221e-07 6.09056e-06 -4.99818e-05
0.00219386 -0.000104204 8.5764e-07
-0.000104204 -3.41185e-05 4.45649e-07
8.5764e-07 4.45649e-07 1.18124e-05
0.00229459 -0.000304792 6.26434e-07
-0.000304792 -9.75283e-05 -7.18547e-07
6.26434e-07 -7.18547e-07 -2.16624e-05
0.00236178 -0.00049392 7.65706e-07
-0.00049392 -9.29964e-06 -7.44266e-07
7.65706e-07 -7.44266e-07 7.47323e-06
0.0014452 -0.000771178 1.30318e-06
-0.000771178 0.000370568 -1.98486e-06
1.30318e-06 -1.98486e-06 -0.000165496
0.0017613 -0.000956144 3.51631e-05
-0.000956144 0.000389553 -5.93371e-06
3.51631e-05 -5.93371e-06 -0.000191807
0.0024795 -0.000944159 1.4973e-05
-0.000944159 0.000577256 -5.22618e-06
1.4973e-05 -5.22618e-06 0.000116688
0.00238796 -0.000676673 3.275e-06
-0.000676673 5.65419e-05 6.66247e-08
3.275e-06 6.66247e-08 -1.70194e-05
0.00228763 -0.000807218 1.15314e-05
-0.000807218 0.000255486 -4.16434e-07
1.15314e-05 -4.16434e-07 -7.79776e-06
0.000802644 -0.000563724 1.76394e-06
-0.000563724 0.00014353 -2.15654e-05
1.76394e-06 -2.15654e-05 -0.00035779
0.00118572 -0.000480712 3.64939e-06
-0.000480712 0.000514123 -1.91603e-05
3.64939e-06 -1.91603e-05 -5.38323e-05
-0.000378852 -0.00015052 -3.6095e-06
-0.00015052 -0.00058536 8.53563e-06
-3.6095e-06 8.53563e-06 -0.000927645
0.000447649 1.47034e-05 1.96802e-06
1.47034e-05 2.82532e-05 3.72861e-06
1.96802e-06 3.72861e-06 -5.82634e-05
0.000115029 -5.24205e-06 7.52854e-06
-5.24205e-06 -0.000130589 2.02701e-06
7.52854e-06 2.02701e-06 -0.000333042
0.00101584 -0.000262638 1.28284e-06
-0.000262638 0.000497896 8.31664e-06
1.28284e-06 8.31664e-06 0.000138913
0.0022945 -0.000146612 3.03071e-07
-0.000146612 -0.000106658 3.68916e-07
3.03071e-07 3.68916e-07 4.8765e-06
0.000451794 1.6893e-06 1.91466e-06
1.6893e-06 1.14693e-05 3.63875e-07
1.91466e-06 3.63875e-07 -5.68927e-05
0.000305043 -8.67702e-05 -3.87785e-06
-8.67702e-05 -4.68567e-05 -1.15977e-06
-3.87785e-06 -1.15977e-06 -0.000160442
0.00245154 -0.000417439 -3.76646e-07
-0.000417439 -0.000120516 -2.47978e-07
-3.76646e-07 -2.47978e-07 5.02847e-06
0.00241353 -0.000614037 -1.95102e-06
-0.000614037 -2.66352e-05 6.52152e-07
-1.95102e-06 6.52152e-07 -5.53566e-06
0.00208019 -0.000898633 1.47313e-06
-0.000898633 0.000772094 1.92613e-06
1.47313e-06 1.92613e-06 0.00020303
0.0023412 -0.00113374 1.00674e-05
-0.00113374 0.000661024 -1.16797e-06
1.00674e-05 -1.16797e-06 2.52799e-05
0.00237532 -0.00101524 2.07081e-06
-0.00101524 0.000419224 -3.48616e-06
2.07081e-06 -3.48616e-06 -1.40887e-05
0.00248062 -0.000849636 2.29736e-06
-0.000849636 0.000130526 -6.65731e-07
2.29736e-06 -6.65731e-07 -2.11902e-05
0.000595715 8.61179e-06 -1.62104e-06
8.61179e-06 0.000187834 -1.02258e-06
-1.62104e-06 -1.02258e-06 3.64326e-05
0.000788563 -9.69683e-05 1.12492e-06
-9.69683e-05 0.000336105 1.90103e-06
1.12492e-06 1.90103e-06 5.75649e-05
0.00143093 -0.000670842 1.1464e-05
-0.000670842 0.000540578 1.1792e-05
1.1464e-05 1.1792e-05 4.28302e-05
0.00155751 -0.000543805 2.21199e-05
-0.000543805 0.000801114 -1.22044e-05
2.21199e-05 -1.22044e-05 0.000123061
0.000775986 -0.000221906 -3.40584e-06
-0.000221906 0.000263739 -1.64368e-07
-3.40584e-06 -1.64368e-07 -0.000163496
-0.000193232 -0.000191942 2.03741e-06
-0.000191942 -0.000322512 -2.17658e-06
2.03741e-06 -2.17658e-06 -0.000651093
0.00231366 -0.000169876 -4.96307e-06
-0.000169876 -0.000294329 5.34573e-06
-4.96307e-06 5.34573e-06 -0.000132271
0.00249655 -0.00054703 8.58633e-07
-0.00054703 -0.000253443 2.41955e-06
8.58633e-07 2.41955e-06 -6.5838e-08
0.00278759 -0.00087544 -6.24779e-06
-0.00087544 0.000128223 -3.12621e-06
-6.24779e-06 -3.12621e-06 8.68348e-05
0.00275639 -0.00110163 9.64495e-06
-0.00110163 0.00039031 -9.34889e-07
9.64495e-06 -9.34889e-07 9.37237e-05
0.00101909 -0.000831289 -2.25454e-07
-0.000831289 0.000225596 -7.75169e-06
-2.25454e-07 -7.75169e-06 -0.000348886
0.00362243 -0.00139768 -9.70034e-06
-0.00139768 0.00124013 5.70239e-06
-9.70034e-06 5.70239e-06 0.000570907
0.00021289 6.52167e-05 -4.04485e-06
6.52167e-05 -0.000107453 -7.47531e-06
-4.04485e-06 -7.47531e-06 -0.00022484
0.00038479 -5.66574e-05 6.32873e-06
-5.66574e-05 6.58521e-06 -2.58673e-06
6.32873e-06 -2.58673e-06 -9.74571e-05
0.00185806 -0.000229364 -8.71245e-06
-0.000229364 0.000907789 1.58501e-05
-8.71245e-06 1.58501e-05 0.000753981
0.000225084 2.74684e-05 -5.01728e-06
2.74684e-05 -7.44855e-05 8.80947e-07
-5.01728e-06 8.80947e-07 -0.000266454
0.00110358 -0.000203615 -9.70759e-06
-0.000203615 0.000530685 7.53048e-06
-9.70759e-06 7.53048e-06 0.000207688
0.000152377 -7.11637e-05 4.21453e-06
-7.11637e-05 -0.000195795 -2.41703e-05
4.21453e-06 -2.41703e-05 -0.000475118
-0.00222729 -0.000231685 -4.6656e-06
-0.000231685 -0.001095 4.70301e-07
-4.6656e-06 4.70301e-07 -0.00203718
0.00102369 -0.000843856 -5.0928e-05
-0.000843856 0.000160487 2.90488e-05
-5.0928e-05 2.90488e-05 -0.000232414
0.000162686 0.000203139 -2.89755e-07
0.000203139 -3.38506e-05 -7.38617e-07
-2.89755e-07 -7.38617e-07 -0.000306195
0.00323845 0.000529957 -1.60812e-05
0.000529957 0.00188732 -7.22055e-06
-1.60812e-05 -7.22055e-06 0.0015177
0.00251378 0.000565131 -3.19666e-06
0.000565131 -0.000192802 -2.80283e-07
-3.19666e-06 -2.80283e-07 -8.46426e-05
0.00279497 0.000787777 -5.3266e-06
0.000787777 0.000372337 -1.15826e-06
-5.3266e-06 -1.15826e-06 0.000140408
0.00278684 0.000542149 -6.43482e-06
0.000542149 0.00117384 2.22911e-06
-6.43482e-06 2.22911e-06 0.00083951
0.00137892 0.000694526 -9.43123e-06
0.000694526 0.000330468 -3.37749e-07
-9.43123e-06 -3.37749e-07 -0.000168503
0.00215473 0.000851571 -5.69261e-06
0.000851571 0.000294409 2.72655e-06
-5.69261e-06 2.72655e-06 -0.000113016
0.00252305 0.00103107 -1.02589e-05
0.00103107 0.000779425 -9.70007e-07
-1.02589e-05 -9.70007e-07 0.000204249
2.77943e-05 0.000169916 2.1152e-06
0.000169916 -9.87384e-05 -2.80085e-07
2.1152e-06 -2.80085e-07 -0.000344319
0.00252921 0.00040874 -1.21661e-06
0.00040874 -0.000181715 -2.66733e-06
-1.21661e-06 -2.66733e-06 -4.76424e-05
0.00149986 0.00045027 3.33801e-06
0.00045027 0.000790162 6.09882e-06
3.33801e-06 6.09882e-06 0.000411663
0.00157821 0.000672483 3.2515e-06
0.000672483 0.000431863 1.887e-06
3.2515e-06 1.887e-06 -2.61499e-05
0.00275804 0.000737262 8.82073e-07
0.000737262 0.000160787 -3.58418e-07
8.82073e-07 -3.58418e-07 0.000151962
0.00193753 0.000891174 -2.37413e-06
0.000891174 4.03327e-05 -5.90522e-06
-2.37413e-06 -5.90522e-06 -0.000358619
0.0024621 0.00103754 -1.02453e-06
0.00103754 0.000716923 -1.84624e-07
-1.02453e-06 -1.84624e-07 0.000133964
0.00175146 0.00040405 -5.09432e-06
0.00040405 0.00109179 -2.45103e-06
-5.09432e-06 -2.45103e-06 0.000761431
0.00395295 0.000692122 -9.46519e-05
0.000692122 0.000609367 -3.44655e-05
-9.46519e-05 -3.44655e-05 0.000857208
0.000707588 0.000528447 -1.15022e-05
0.000528447 0.000241341 8.2833e-06
-1.15022e-05 8.2833e-06 -0.000185021
0.00145388 0.000749816 -7.46605e-06
0.000749816 0.00031463 -1.07962e-05
-7.46605e-06 -1.07962e-05 -0.000203938
0.00324106 0.00103916 -4.11375e-05
0.00103916 0.000613905 -2.43234e-05
-4.11375e-05 -2.43234e-05 0.000346048
0.00111783 0.000875028 -3.04627e-05
0.000875028 -6.15242e-05 -4.17915e-06
-3.04627e-05 -4.17915e-06 -0.000579322
0.00141339 0.00130035 1.51182e-05
0.00130035 -0.00196691 -5.33439e-05
1.51182e-05 -5.33439e-05 -0.00113444
0.000189533 0.000170702 7.55055e-06
0.000170702 -2.44416e-05 4.83923e-06
7.55055e-06 4.83923e-06 -0.000157642
0.00035405 0.000132416 3.03565e-06
0.000132416 9.99606e-05 1.60362e-06
3.03565e-06 1.60362e-06 -3.59062e-07
0.000520825 0.000127719 1.97046e-06
0.000127719 0.000180509 -4.9949e-06
1.97046e-06 -4.9949e-06 9.13939e-05
0.000366914 -6.54103e-05 1.71654e-06
-6.54103e-05 1.2744e-05 -4.92335e-06
1.71654e-06 -4.92335e-06 -0.000124656
0.000252792 -1.40235e-05 -1.56652e-08
-1.40235e-05 -1.28665e-05 -2.92088e-06
-1.56652e-08 -2.92088e-06 -0.00019497
0.00154149 0.000265385 -2.29345e-07
0.000265385 0.000824374 2.73667e-07
-2.29345e-07 2.73667e-07 0.000611308
-0.000546041 5.55527e-05 -7.75209e-06
5.55527e-05 -0.000541597 2.18886e-05
-7.75209e-06 2.18886e-05 -0.000610834
0.000488151 -1.66729e-05 -1.10584e-07
-1.66729e-05 8.75877e-05 -2.77347e-07
-1.10584e-07 -2.77347e-07 -5.80985e-05
0.000406352 8.67304e-05 1.42991e-07
8.67304e-05 3.74815e-05 -6.55961e-07
1.42991e-07 -6.55961e-07 -0.000129504
0.000723651 0.000143425 4.31786e-06
0.000143425 0.000201943 3.65935e-06
4.31786e-06 3.65935e-06 0.000155013
0.000336875 8.18879e-05 1.20374e-06
8.18879e-05 3.47774e-05 8.84662e-07
1.20374e-06 8.84662e-07 -0.000148844
0.000579277 8.50085e-05 1.3674e-07
8.50085e-05 0.000145245 -1.97891e-06
1.3674e-07 -1.97891e-06 3.2991e-05
0.000966042 0.000145258 -2.74875e-06
0.000145258 0.000420751 -1.60968e-05
-2.74875e-06 -1.60968e-05 0.000343553
0.000832435 0.00015849 -2.93087e-06
0.00015849 0.000275187 -6.66804e-06
-2.93087e-06 -6.66804e-06 0.000125623
0.000997118 0.000151053 1.80725e-06
0.000151053 0.000442627 3.18745e-06
1.80725e-06 3.18745e-06 0.000249159
0.000880658 0.000127976 -1.13216e-06
0.000127976 0.000355742 5.38571e-07
-1.13216e-06 5.38571e-07 0.000162074
0.000211968 -2.53433e-05 -2.12846e-06
-2.53433e-05 -0.000115591 1.2317e-06
-2.12846e-06 1.2317e-06 -0.000252676
0.00136397 -0.000124625 1.10285e-06
-0.000124625 0.000739699 -2.14721e-06
1.10285e-06 -2.14721e-06 0.000501973
7.31344e-05 -5.18613e-05 -4.52353e-07
-5.18613e-05 -0.000194334 3.33473e-06
-4.52353e-07 3.33473e-06 -0.00033581
0.000402026 2.60003e-06 -2.08484e-06
2.60003e-06 4.82619e-06 2.93487e-06
-2.08484e-06 2.93487e-06 -8.90924e-05
0.000428081 4.29471e-05 2.48561e-06
4.29471e-05 1.99554e-05 -9.76976e-08
2.48561e-06 -9.76976e-08 -7.31951e-05
0.000337935 2.07585e-05 -1.59994e-06
2.07585e-05 -6.60632e-05 4.9113e-06
-1.59994e-06 4.9113e-06 -9.39718e-05
0.000368119 8.91741e-07 -1.40235e-06
8.91741e-07 -1.71115e-05 -4.30581e-06
-1.40235e-06 -4.30581e-06 -0.000108996
0.000859535 1.71512e-05 -4.26791e-06
1.71512e-05 0.000263953 -1.51822e-06
-4.26791e-06 -1.51822e-06 0.000238791
0.00266004 2.03642e-06 2.67024e-05
2.03642e-06 0.00140441 5.90197e-06
2.67024e-05 5.90197e-06 0.00141664
0.00141278 4.43534e-05 -1.53211e-05
4.43534e-05 0.000614976 -7.81267e-06
-1.53211e-05 -7.81267e-06 0.000590871
0.00076595 -6.74447e-06 1.08078e-05
-6.74447e-06 0.000184632 3.69023e-06
1.08078e-05 3.69023e-06 0.000187334
0.000834614 -1.97408e-05 1.3049e-06
-1.97408e-05 0.000219999 -3.12821e-06
1.3049e-06 -3.12821e-06 0.000221632
0.000430339 1.10017e-05 -2.67217e-06
1.10017e-05 1.84357e-06 -4.07094e-06
-2.67217e-06 -4.07094e-06 -5.90732e-05
0.000525993 -3.86239e-05 5.32946e-07
-3.86239e-05 5.90642e-05 -3.28566e-07
5.32946e-07 -3.28566e-07 -5.43035e-06
0.000441397 2.35075e-05 -3.39864e-07
2.35075e-05 -2.44008e-05 -4.55215e-06
-3.39864e-07 -4.55215e-06 -4.40944e-05
0.000788725 4.70198e-05 1.24762e-08
4.70198e-05 0.000209084 1.23221e-07
1.24762e-08 1.23221e-07 0.000183989
0.00244146 8.58341e-05 3.5218e-06
8.58341e-05 0.00127714 -5.47579e-06
3.5218e-06 -5.47579e-06 0.0012817
0.000468888 6.82033e-05 6.51464e-06
6.82033e-05 2.39264e-05 7.9514e-06
6.51464e-06 7.9514e-06 -1.82489e-05
0.00263711 0.000116645 -2.44399e-06
0.000116645 0.00141355 -2.36885e-07
-2.44399e-06 -2.36885e-07 0.0014106
0.00312796 0.000141781 2.0203e-06
0.000141781 0.00173777 8.18459e-06
2.0203e-06 8.18459e-06 0.00172696
0.00233475 0.000354504 2.89652e-06
0.000354504 -0.000124637 1.44646e-06
2.89652e-06 1.44646e-06 -4.38859e-05
0.00229645 0.000110718 6.05156e-06
0.000110718 -8.70216e-05 -5.44667e-07
6.05156e-06 -5.44667e-07 1.50549e-05
0.00217585 -7.43881e-06 1.06446e-06
-7.43881e-06 -5.8683e-05 2.8272e-08
1.06446e-06 2.8272e-08 2.7949e-06
0.00226682 -6.70453e-06 -2.78336e-09
-6.70453e-06 -0.000122202 -4.00632e-07
-2.78336e-09 -4.00632e-07 -2.76449e-06
0.00251849 0.000175208 1.18602e-06
0.000175208 -0.000104075 1.6469e-07
1.18602e-06 1.6469e-07 2.34735e-05
0.00262709 0.000121512 6.00258e-06
0.000121512 -2.61619e-05 -4.78639e-06
6.00258e-06 -4.78639e-06 9.08045e-05
0.00264952 1.724e-05 -1.28546e-05
1.724e-05 -0.000127577 -1.89974e-06
-1.28546e-05 -1.89974e-06 5.25157e-05
0.00521394 0.00130649 8.0006e-05
0.00130649 -0.000892656 9.79919e-06
8.0006e-05 9.79919e-06 0.000298252
0.00303945 0.000112196 -2.95184e-05
0.000112196 0.000358486 2.36944e-05
-2.95184e-05 2.36944e-05 0.000635314
0.000478283 0.000122031 -4.14332e-06
0.000122031 7.20629e-05 -3.56446e-06
-4.14332e-06 -3.56446e-06 -4.01306e-05
0.00228496 -0.000149526 4.26851e-06
-0.000149526 -0.000122867 -1.53894e-06
4.26851e-06 -1.53894e-06 -8.01394e-06
0.0024275 -0.000406423 2.38138e-06
-0.000406423 -0.000109869 -3.92797e-07
2.38138e-06 -3.92797e-07 -3.48337e-07
0.00240132 -0.000602108 2.87554e-07
-0.000602108 -2.34484e-05 2.83591e-07
2.87554e-07 2.83591e-07 7.04179e-06
0.00177386 -0.000883231 -5.01918e-06
-0.000883231 0.000595779 7.21179e-06
-5.01918e-06 7.21179e-06 3.03781e-05
0.00236452 -0.00110963 3.52921e-05
-0.00110963 0.000694705 3.03278e-06
3.52921e-05 3.03278e-06 7.38235e-05
0.00200937 -0.000967255 7.95447e-07
-0.000967255 0.000213116 -2.29805e-06
7.95447e-07 -2.29805e-06 -0.000202826
0.00244199 -0.000849918 2.41401e-06
-0.000849918 0.000103063 -1.55729e-06
2.41401e-06 -1.55729e-06 -4.07367e-05
0.00138784 -0.000637397 2.63292e-05
-0.000637397 0.000423469 -5.03006e-05
2.63292e-05 -5.03006e-05 -2.75998e-07
0.00192639 -0.000615262 1.16773e-05
-0.000615262 0.000951811 -5.32162e-05
1.16773e-05 -5.32162e-05 0.000301526
0.0014509 -0.000240034 8.22118e-06
-0.000240034 0.000652553 1.06845e-05
8.22118e-06 1.06845e-05 0.000260256
0.00043567 7.12971e-06 3.32169e-06
7.12971e-06 3.27671e-06 3.41983e-06
3.32169e-06 3.41983e-06 -6.67142e-05
0.00137559 -0.000247059 3.48051e-06
-0.000247059 0.000682578 1.3796e-05
3.48051e-06 1.3796e-05 0.00033175
0.000990883 -3.86587e-05 7.60015e-06
-3.86587e-05 0.000463854 1.31384e-06
7.60015e-06 1.31384e-06 0.000298975
0.00044585 -8.37895e-05 4.18185e-06
-8.37895e-05 9.75366e-05 -2.20328e-07
4.18185e-06 -2.20328e-07 -0.000167376
-0.00018613 -2.85942e-05 -4.33813e-06
-2.85942e-05 -0.000377842 1.80648e-06
-4.33813e-06 1.80648e-06 -0.00048013
0.00243262 -0.000195491 8.36571e-10
-0.000195491 -0.000243477 8.25419e-07
8.36571e-10 8.25419e-07 -5.75522e-05
0.000355542 4.42304e-05 7.07667e-07
4.42304e-05 -1.46048e-06 -2.89409e-06
7.07667e-07 -2.89409e-06 -0.000125161
0.000599773 -8.0454e-05 3.3073e-06
-8.0454e-05 0.000172943 1.55865e-06
3.3073e-06 1.55865e-06 5.02768e-05
0.00106372 -0.000145289 6.45139e-06
-0.000145289 0.000394817 -1.03759e-06
6.45139e-06 -1.03759e-06 0.000266884
0.00249495 -0.000562518 2.17087e-06
-0.000562518 -0.000239898 -7.72605e-07
2.17087e-06 -7.72605e-07 -2.4283e-05
0.00267222 -0.000860971 -3.04625e-07
-0.000860971 6.72007e-05 4.70494e-07
-3.04625e-07 4.70494e-07 3.3292e-05
0.000710209 -0.000699718 6.60194e-06
-0.000699718 1.08439e-05 -1.32388e-08
6.60194e-06 -1.32388e-08 -0.000472643
0.0026356 -0.00126477 1.66825e-05
-0.00126477 0.000689046 1.45082e-06
1.66825e-05 1.45082e-06 5.85244e-05
0.00262328 -0.00109727 -2.97841e-08
-0.00109727 0.000327694 1.45381e-06
-2.97841e-08 1.45381e-06 2.20637e-05
0.000214819 -1.39093e-05 -4.35337e-07
-1.39093e-05 -8.44806e-05 1.08314e-07
-4.35337e-07 1.08314e-07 -0.000269158
0.00129374 -0.000206038 2.30115e-06
-0.000206038 0.000671674 3.92702e-06
2.30115e-06 3.92702e-06 0.000328604
0.00216091 -0.0010098 -1.35294e-06
-0.0010098 0.000821628 4.14363e-06
-1.35294e-06 4.14363e-06 0.000293478
0.00123585 -0.000377794 -4.81664e-07
-0.000377794 0.000716754 6.77933e-06
-4.81664e-07 6.77933e-06 1.67485e-05
0.00155244 -0.000192732 4.14197e-06
-0.000192732 0.000713184 9.90388e-06
4.14197e-06 9.90388e-06 0.000407349
0.00285115 -0.000391923 -1.21768e-05
-0.000391923 -4.09508e-05 1.36894e-05
-1.21768e-05 1.36894e-05 0.000186778
0.00223507 -0.000632238 -1.15343e-05
-0.000632238 -0.000372584 5.92704e-06
-1.15343e-05 5.92704e-06 -7.79952e-05
0.00252719 -0.00101552 -1.43662e-05
-0.00101552 0.000134458 -4.25382e-06
-1.43662e-05 -4.25382e-06 -7.97583e-05
0.00455318 -0.00147588 3.89497e-06
-0.00147588 0.001576 7.74121e-06
3.89497e-06 7.74121e-06 0.00110736
-0.000222019 -0.000801622 -1.12969e-05
-0.000801622 -0.00062142 1.54777e-05
-1.12969e-05 1.54777e-05 -0.00111303
-7.52997e-05 -2.72971e-05 -1.03842e-06
-2.72971e-05 -0.00027709 1.32456e-06
-1.03842e-06 1.32456e-06 -0.000399784
0.00105751 9.83061e-06 -3.4596e-06
9.83061e-06 0.000346611 1.36454e-05
-3.4596e-06 1.36454e-05 0.000212102
-0.000697545 -0.00020959 -1.07827e-05
-0.00020959 -0.000701335 -2.38431e-06
-1.07827e-05 -2.38431e-06 -0.000827516
0.00187222 -0.000312704 -4.01854e-05
-0.000312704 0.000975023 3.13625e-05
-4.01854e-05 3.13625e-05 0.000694166
0.000874963 -0.000165006 -6.08449e-06
-0.000165006 0.000371876 2.68461e-05
-6.08449e-06 2.68461e-05 7.2536e-05
-0.00175474 -0.000100279 7.2751e-06
-0.000100279 -0.000697037 2.92229e-06
7.2751e-06 2.92229e-06 -0.00148559
0.00115566 -0.00107053 -1.00664e-05
-0.00107053 0.000574416 -9.56226e-06
-1.00664e-05 -9.56226e-06 -0.000190096
0.00190763 0.000452625 3.89476e-07
0.000452625 0.00108857 -3.07915e-06
3.89476e-07 -3.07915e-06 0.00079616
0.000246207 0.000265031 -2.91448e-06
0.000265031 3.84912e-05 -1.20109e-06
-2.91448e-06 -1.20109e-06 -0.000280313
0.00259717 0.00038694 1.10904e-05
0.00038694 -0.000146986 6.54138e-06
1.10904e-05 6.54138e-06 6.64235e-06
0.00286997 0.00072186 1.52645e-05
0.00072186 0.000250778 9.96395e-06
1.52645e-05 9.96395e-06 0.000241241
0.00247083 0.000956252 7.12884e-06
0.000956252 0.000349559 4.47874e-06
7.12884e-06 4.47874e-06 -5.88595e-05
0.00144785 0.00064182 -1.95923e-06
0.00064182 0.000392404 3.07268e-06
-1.95923e-06 3.07268e-06 -5.73835e-05
0.0017564 0.00092485 1.78698e-06
0.00092485 0.000336749 4.40932e-06
1.78698e-06 4.40932e-06 -0.000219471
0.00245789 0.000456487 5.89473e-09
0.000456487 0.00146759 4.49094e-07
5.89473e-09 4.49094e-07 0.00117839
0.00301944 0.000551619 1.14685e-05
0.000551619 0.000104526 4.66998e-06
1.14685e-05 4.66998e-06 0.000410541
0.00103334 0.000490733 -5.94849e-06
0.000490733 0.000411074 5.51287e-06
-5.94849e-06 5.51287e-06 2.90358e-05
0.00170455 0.00079261 3.08345e-06
0.00079261 0.000506616 -2.23256e-06
3.08345e-06 -2.23256e-06 -3.59535e-05
0.00282965 0.000979598 -2.14923e-06
0.000979598 0.000418246 -4.19445e-06
-2.14923e-06 -4.19445e-06 0.000187222
0.00202149 0.000998346 -6.05825e-06
0.000998346 0.000438916 6.71743e-06
-6.05825e-06 6.71743e-06 -0.000109561
0.0029567 0.00161546 5.22332e-05
0.00161546 -0.00147529 1.06416e-05
5.22332e-05 1.06416e-05 -0.000809379
0.000459559 0.000341227 1.59779e-06
0.000341227 0.000351644 1.06819e-06
1.59779e-06 1.06819e-06 9.55392e-06
0.00392632 0.00110505 -0.000110864
0.00110505 0.000687029 -4.68999e-05
-0.000110864 -4.68999e-05 0.000681759
0.000187081 0.000467269 -1.73464e-05
0.000467269 -0.000311506 5.26956e-06
-1.73464e-05 5.26956e-06 -0.000708815
0.000142954 0.000660733 -6.88269e-06
0.000660733 -0.000436579 -2.10384e-05
-6.88269e-06 -2.10384e-05 -0.000931921
0.00178444 0.00110723 -4.72275e-05
0.00110723 4.73211e-05 -2.14155e-05
-4.72275e-05 -2.14155e-05 -0.000326635
0.0157201 0.000732168 -0.000708652
0.000732168 0.0014881 -0.000105221
-0.000708652 -0.000105221 0.001642
0.00266659 0.00242047 -0.00010111
0.00242047 -0.00364898 -9.27882e-05
-0.00010111 -9.27882e-05 -0.0010796
0.00156988 0.00197664 1.77441e-05
0.00197664 -0.000627111 -3.69877e-06
1.77441e-05 -3.69877e-06 -0.000815781
0.00475684 -0.00381763 0.00246425
-0.00381763 0.00272998 0.000321262
0.00246425 0.000321262 -0.00247178
0.0288177 -0.0128645 -4.54797e-05
-0.0128645 0.0144926 6.86762e-05
-4.54797e-05 6.86762e-05 0.00736364
0.000844761 0.000179179 6.68033e-06
0.000179179 0.000420304 8.80467e-06
6.68033e-06 8.80467e-06 0.000304628
0.000944658 0.000149081 -2.36231e-06
0.000149081 0.000483477 -1.5777e-06
-2.36231e-06 -1.5777e-06 0.000373946
0.000801403 0.000216787 7.9708e-06
0.000216787 0.000411128 -3.48074e-06
7.9708e-06 -3.48074e-06 0.000264463
0.000507337 -6.08996e-05 7.99621e-07
-6.08996e-05 0.000111108 -2.85876e-06
7.99621e-07 -2.85876e-06 -4.11586e-05
0.00040576 7.56565e-05 8.72943e-08
7.56565e-05 4.37672e-05 -3.81968e-06
8.72943e-08 -3.81968e-06 -0.000122933
0.000590676 -1.35743e-05 -2.95364e-07
-1.35743e-05 0.000193868 -1.15022e-06
-2.95364e-07 -1.15022e-06 1.1517e-05
0.00110243 0.000115783 7.68349e-07
0.000115783 0.000459763 1.3157e-05
7.68349e-07 1.3157e-05 0.000341358
0.000306467 0.000116138 2.79532e-06
0.000116138 -5.81908e-05 1.37806e-05
2.79532e-06 1.37806e-05 -9.69382e-05
0.000798341 0.000174265 -1.12133e-06
0.000174265 0.000361996 7.20284e-08
-1.12133e-06 7.20284e-08 0.00014223
0.000394377 -2.17611e-05 2.73663e-07
-2.17611e-05 1.17137e-05 1.11704e-06
2.73663e-07 1.11704e-06 -0.0001327
0.000694239 7.11743e-05 -8.75974e-07
7.11743e-05 0.000230779 1.77685e-07
-8.75974e-07 1.77685e-07 4.40801e-05
0.000347239 0.000114386 -2.80403e-06
0.000114386 1.35548e-05 -3.76613e-06
-2.80403e-06 -3.76613e-06 -5.53329e-05
0.000727706 0.000138124 -1.4334e-06
0.000138124 0.00023181 -4.83823e-07
-1.4334e-06 -4.83823e-07 8.29685e-05
0.00234177 0.000296014 -1.17635e-06
0.000296014 0.00129994 -2.19895e-06
-1.17635e-06 -2.19895e-06 0.00108271
0.000132881 0.000100867 -1.01544e-06
0.000100867 -3.75684e-06 -9.26187e-06
-1.01544e-06 -9.26187e-06 -0.000198966
0.000895331 0.000105602 3.5195e-06
0.000105602 0.000405711 -1.09449e-06
3.5195e-06 -1.09449e-06 0.000207236
9.339e-05 1.02851e-05 -7.85581e-07
1.02851e-05 -0.000182797 -1.11813e-06
-7.85581e-07 -1.11813e-06 -0.000357628
0.000289824 -7.40961e-05 -6.19433e-07
-7.40961e-05 -5.19314e-05 -2.62918e-07
-6.19433e-07 -2.62918e-07 -0.000195627
0.000326902 -2.18382e-05 -3.83173e-07
-2.18382e-05 -6.6214e-06 -3.21317e-06
-3.83173e-07 -3.21317e-06 -0.000178482
0.00134002 -6.69101e-05 2.29039e-06
-6.69101e-05 0.000631743 -1.05427e-05
2.29039e-06 -1.05427e-05 0.000459439
0.000965687 -7.94299e-05 -2.4446e-06
-7.94299e-05 0.000461877 -1.36248e-06
-2.4446e-06 -1.36248e-06 0.000268014
0.000789131 -9.79541e-05 2.18145e-06
-9.79541e-05 0.00032463 -7.47219e-07
2.18145e-06 -7.47219e-07 0.000125125
0.00056864 -0.000130203 -1.29144e-06
-0.000130203 0.000142699 4.92189e-06
-1.29144e-06 4.92189e-06 -9.32106e-06
0.00014646 -2.81906e-05 7.44572e-08
-2.81906e-05 -0.000139749 1.09619e-06
7.44572e-08 1.09619e-06 -0.000287178
0.000484583 -6.96237e-05 -1.30725e-06
-6.96237e-05 4.76304e-05 3.90321e-06
-1.30725e-06 3.90321e-06 -4.03098e-05
0.000480832 -4.70689e-05 2.11582e-06
-4.70689e-05 5.30376e-05 1.2859e-07
2.11582e-06 1.2859e-07 -3.98596e-05
0.000380372 4.67709e-07 3.94332e-06
4.67709e-07 -3.44988e-05 6.74223e-06
3.94332e-06 6.74223e-06 -6.4347e-05
0.000462656 6.23621e-05 -1.4322e-06
6.23621e-05 3.43882e-05 -3.4278e-06
-1.4322e-06 -3.4278e-06 -5.34422e-05
0.000363193 3.09074e-05 5.15209e-07
3.09074e-05 -4.87992e-05 1.11217e-07
5.15209e-07 1.11217e-07 -7.71366e-05
0.00258987 1.02558e-05 1.26617e-05
1.02558e-05 0.00136097 5.58575e-06
1.26617e-05 5.58575e-06 0.00137254
0.000402841 5.78537e-05 -4.71542e-06
5.78537e-05 -2.30412e-05 -8.11713e-06
-4.71542e-06 -8.11713e-06 -5.45958e-05
0.00169438 -1.72304e-06 -7.90821e-06
-1.72304e-06 0.000783907 1.58303e-07
-7.90821e-06 1.58303e-07 0.000790674
0.000809896 -9.13591e-06 8.63991e-07
-9.13591e-06 0.000207835 -2.51817e-06
8.63991e-07 -2.51817e-06 0.000210303
0.000379061 1.88806e-05 -1.16297e-06
1.88806e-05 -4.08118e-05 -3.15186e-06
-1.16297e-06 -3.15186e-06 -8.89195e-05
0.000483454 -4.24728e-05 4.66846e-07
-4.24728e-05 3.91056e-05 1.15666e-07
4.66846e-07 1.15666e-07 -2.3831e-05
0.000482809 8.77261e-06 1.15615e-06
8.77261e-06 -2.44077e-06 -4.14803e-06
1.15615e-06 -4.14803e-06 -1.72126e-05
0.000463754 -5.13065e-05 -5.45051e-07
-5.13065e-05 2.0447e-05 1.45584e-06
-5.45051e-07 1.45584e-06 -4.52125e-05
0.0008037 2.8149e-05 -5.19415e-08
2.8149e-05 0.000209051 -8.68045e-07
-5.19415e-08 -8.68045e-07 0.00019162
0.00214666 6.14685e-05 2.0312e-06
6.14685e-05 0.00107965 -5.2009e-06
2.0312e-06 -5.2009e-06 0.00109
0.000430858 3.37282e-05 1.45341e-06
3.37282e-05 -2.40551e-05 5.71637e-06
1.45341e-06 5.71637e-06 -5.08927e-05
0.00256662 9.39767e-05 -3.44899e-06
9.39767e-05 0.00136151 1.44086e-06
-3.44899e-06 1.44086e-06 0.00136414
0.00280899 0.000128661 1.52757e-05
0.000128661 0.00152834 8.43932e-06
1.52757e-05 8.43932e-06 0.00152281
0.00245048 0.000186297 5.63078e-06
0.000186297 -0.000127452 1.83781e-07
5.63078e-06 1.83781e-07 -1.62026e-06
0.00225204 -2.25855e-06 4.46841e-06
-2.25855e-06 -0.000130821 -5.01859e-07
4.46841e-06 -5.01859e-07 -1.13804e-05
0.00243729 8.91378e-05 5.2072e-06
8.91378e-05 -0.000170063 7.03491e-06
5.2072e-06 7.03491e-06 -5.29541e-05
0.00271408 0.00100157 0.00012307
0.00100157 -0.00218604 3.20696e-05
0.00012307 3.20696e-05 -0.000899577
0.00258702 -1.88126e-05 -1.75134e-06
-1.88126e-05 -0.000145825 -1.5168e-06
-1.75134e-06 -1.5168e-06 3.19547e-05
0.00255663 9.43107e-05 -5.63342e-06
9.43107e-05 4.89753e-05 -6.43273e-06
-5.63342e-06 -6.43273e-06 0.000266541
0.00245295 -4.97429e-05 -4.16142e-05
-4.97429e-05 4.92887e-05 -2.09035e-06
-4.16142e-05 -2.09035e-06 0.000163065
0.00328121 0.000585253 -7.80315e-05
0.000585253 -0.00251093 -4.5071e-05
-7.80315e-05 -4.5071e-05 -0.000810116
0.00279938 0.000319094 0.000156988
0.000319094 -0.00116759 6.60666e-05
0.000156988 6.60666e-05 -0.000420824
0.000562596 9.488e-05 -5.63618e-08
9.488e-05 0.000127776 -3.01812e-06
-5.63618e-08 -3.01812e-06 1.874e-05
0.000561423 -4.269e-06 -3.20244e-07
-4.269e-06 0.000138837 -1.48684e-07
-3.20244e-07 -1.48684e-07 1.77601e-05
0.000280972 -9.82894e-05 -7.56317e-06
-9.82894e-05 -3.76979e-05 1.31478e-06
-7.56317e-06 1.31478e-06 -0.000165881
0.000315356 -6.25857e-05 -4.29719e-06
-6.25857e-05 -5.3434e-06 4.98046e-07
-4.29719e-06 4.98046e-07 -0.0001367
0.00251315 -0.000214931 1.77646e-06
-0.000214931 -0.000209705 -7.53423e-06
1.77646e-06 -7.53423e-06 -7.35819e-06
0.0024699 -0.000569488 -1.25519e-06
-0.000569488 -0.000226894 -1.10648e-06
-1.25519e-06 -1.10648e-06 -5.31427e-05
0.00253557 -0.000845898 8.89111e-07
-0.000845898 -4.55634e-06 1.14761e-06
8.89111e-07 1.14761e-06 -3.58188e-05
0.00420308 -0.00111332 2.45287e-05
-0.00111332 0.00200366 1.89735e-06
2.45287e-05 1.89735e-06 0.00143737
0.00126926 -0.00112951 -8.56851e-06
-0.00112951 -0.000110595 5.44843e-07
-8.56851e-06 5.44843e-07 -0.000703873
0.00246861 -0.00109472 -1.47737e-06
-0.00109472 0.000250843 -5.084e-06
-1.47737e-06 -5.084e-06 -6.36917e-05
-0.000456658 -0.000701618 2.08334e-06
-0.000701618 -0.000621194 -2.16053e-05
2.08334e-06 -2.16053e-05 -0.00121832
0.00417273 -0.000534006 1.38783e-05
-0.000534006 0.00217269 -7.40823e-06
1.38783e-05 -7.40823e-06 0.00171015
-0.000289137 -9.3471e-05 1.20081e-07
-9.3471e-05 -0.000446677 1.07131e-05
1.20081e-07 1.07131e-05 -0.000737843
0.000671968 -7.54408e-05 4.4799e-06
-7.54408e-05 0.000217977 1.62393e-06
4.4799e-06 1.62393e-06 9.39248e-05
0.000482679 -0.000126721 -7.43262e-06
-0.000126721 0.000177455 -1.01024e-05
-7.43262e-06 -1.01024e-05 -0.000168704
0.000583117 -5.72558e-05 5.47236e-06
-5.72558e-05 0.000151401 2.00785e-06
5.47236e-06 2.00785e-06 -3.3211e-05
0.00054005 -2.28245e-06 1.07933e-06
-2.28245e-06 0.000140423 4.02233e-06
1.07933e-06 4.02233e-06 5.3249e-06
0.00049848 -7.11609e-05 -1.01111e-05
-7.11609e-05 2.51888e-05 6.06501e-06
-1.01111e-05 6.06501e-06 -8.02005e-05
0.00274324 -0.000366175 2.37863e-06
-0.000366175 -9.211e-05 9.57817e-07
2.37863e-06 9.57817e-07 0.000150192
0.000382634 -3.94083e-05 -7.00081e-07
-3.94083e-05 3.45653e-05 3.59098e-06
-7.00081e-07 3.59098e-06 -0.000109662
0.000811446 -7.50902e-05 8.83426e-06
-7.50902e-05 0.000198303 -1.69985e-06
8.83426e-06 -1.69985e-06 6.64929e-05
-0.000912983 -8.10084e-05 1.14835e-05
-8.10084e-05 -0.000762023 -1.49295e-07
1.14835e-05 -1.49295e-07 -0.000848064
0.00224483 -0.000653252 3.642e-07
-0.000653252 -0.000380505 -1.01836e-06
3.642e-07 -1.01836e-06 -0.000118327
0.00250417 -0.00102213 2.66863e-06
-0.00102213 0.000115514 -1.32128e-06
2.66863e-06 -1.32128e-06 -0.000101094
0.0018842 -0.00112202 -1.37317e-05
-0.00112202 0.000546818 7.68711e-07
-1.37317e-05 7.68711e-07 -1.76851e-05
0.00315839 -0.00133669 -4.04515e-06
-0.00133669 0.000802018 -1.55049e-07
-4.04515e-06 -1.55049e-07 0.000351927
0.00170938 -0.000205669 1.11866e-05
-0.000205669 0.000895292 -6.59268e-06
1.11866e-05 -6.59268e-06 0.000598003
-0.00091504 -3.44524e-05 8.73745e-06
-3.44524e-05 -0.000748144 8.42138e-06
8.73745e-06 8.42138e-06 -0.00106505
0.00141104 -0.00121387 -5.79913e-07
-0.00121387 0.000818785 -1.11382e-06
-5.79913e-07 -1.11382e-06 -3.71196e-05
0.00184408 -0.000548626 -1.15164e-05
-0.000548626 0.000990025 -1.82847e-06
-1.15164e-05 -1.82847e-06 0.000405329
0.00384178 -0.000546652 -5.24988e-05
-0.000546652 0.000546949 2.01114e-05
-5.24988e-05 2.01114e-05 0.000859684
0.00282668 -0.000858219 -3.52614e-05
-0.000858219 0.000178338 1.42328e-05
-3.52614e-05 1.42328e-05 0.000255824
0.00284102 -0.00118274 -3.77603e-06
-0.00118274 0.000557122 -1.684e-05
-3.77603e-06 -1.684e-05 0.000137024
0.00272771 -0.00130905 1.81334e-05
-0.00130905 0.000787529 3.9084e-05
1.81334e-05 3.9084e-05 0.00036377
9.85757e-06 -0.000144319 -7.67677e-06
-0.000144319 -4.94685e-05 -1.17286e-05
-7.67677e-06 -1.17286e-05 -0.000224797
0.000601538 -0.000212793 -1.77408e-05
-0.000212793 0.000157682 -7.88792e-06
-1.77408e-05 -7.88792e-06 -0.000114395
0.0003726 -0.000258561 -1.28068e-05
-0.000258561 0.000344877 7.39949e-05
-1.28068e-05 7.39949e-05 -4.02701e-05
-4.54919e-05 -0.00101231 -3.04522e-06
-0.00101231 0.000671484 -4.36329e-05
-3.04522e-06 -4.36329e-05 -0.000513775
0.00479646 -0.000459566 8.13282e-05
-0.000459566 -0.00612665 6.81558e-07
8.13282e-05 6.81558e-07 -0.00634422
0.00233429 0.000358351 1.07121e-05
0.000358351 0.00138279 -4.32198e-06
1.07121e-05 -4.32198e-06 0.00110162
0.0006917 0.000398625 1.11531e-06
0.000398625 0.000193216 -2.79104e-06
1.11531e-06 -2.79104e-06 -0.000154974
0.00184295 0.000433647 5.64297e-05
0.000433647 -0.000585251 2.68868e-05
5.64297e-05 2.68868e-05 -0.000214436
0.00246206 0.000927382 2.72276e-05
0.000927382 0.000245102 1.34594e-05
2.72276e-05 1.34594e-05 4.85388e-05
0.00281982 0.00110466 1.43595e-05
0.00110466 0.000884243 1.51609e-05
1.43595e-05 1.51609e-05 0.000308419
0.00178681 0.000813714 1.51429e-05
0.000813714 0.000585442 1.17967e-05
1.51429e-05 1.17967e-05 2.54744e-05
0.00517777 0.00204246 0.00010079
0.00204246 -0.0006938 3.54448e-05
0.00010079 3.54448e-05 -0.00024396
0.000992365 0.000340382 3.73652e-06
0.000340382 0.000627218 -3.5579e-06
3.73652e-06 -3.5579e-06 0.000317192
0.00301757 0.000988476 -1.08546e-05
0.000988476 0.000166197 3.1814e-06
-1.08546e-05 3.1814e-06 0.000244893
0.000997265 0.000572193 -7.56137e-06
0.000572193 0.00022965 6.02704e-06
-7.56137e-06 6.02704e-06 -0.000206215
0.00171823 0.000896253 1.30617e-06
0.000896253 0.000460082 -8.52088e-06
1.30617e-06 -8.52088e-06 -8.85361e-05
0.00271256 0.00118175 -1.31751e-05
0.00118175 0.000565049 -1.63199e-07
-1.31751e-05 -1.63199e-07 0.00015778
0.00539394 -0.000434536 -0.000208306
-0.000434536 -0.00609136 -0.000140332
-0.000208306 -0.000140332 -0.00645299
0.00680526 0.00266178 -0.000185791
0.00266178 -0.00126337 -7.86538e-05
-0.000185791 -7.86538e-05 0.000801003
0.00127648 0.00186858 -4.28381e-06
0.00186858 -0.000722601 2.16683e-06
-4.28381e-06 2.16683e-06 -0.00100576
0.00499402 -0.00338962 0.000786347
-0.00338962 0.00422416 0.00026799
0.000786347 0.00026799 0.00025562
0.0225133 -0.0137494 -0.000608193
-0.0137494 0.0131483 -0.000538936
-0.000608193 -0.000538936 0.00576101
0.000133892 0.000267158 -1.11073e-05
0.000267158 -7.46162e-05 -2.89102e-06
-1.11073e-05 -2.89102e-06 -0.000340493
0.00244065 0.000287161 0.00125321
0.000287161 0.00486591 8.7083e-05
0.00125321 8.7083e-05 0.00261658
0.00724688 -0.00581997 -9.20916e-05
-0.00581997 0.00873891 -0.000203843
-9.20916e-05 -0.000203843 0.00072682
0.00374357 0.00161791 -8.36449e-05
0.00161791 0.000747711 -3.01704e-05
-8.36449e-05 -3.01704e-05 0.000440832
0.000534569 0.000494003 -3.37501e-05
0.000494003 -9.67761e-05 -7.90276e-06
-3.37501e-05 -7.90276e-06 -0.000480698
0.00141522 0.00091484 -4.77812e-05
0.00091484 0.000313767 -3.82062e-05
-4.77812e-05 -3.82062e-05 -0.000159565
-4.58864e-05 0.00178049 0.000127638
0.00178049 -0.00102467 0.000119631
0.000127638 0.000119631 -0.00136104
0.0146045 0.00371813 0.000144434
0.00371813 0.000542003 -5.92429e-06
0.000144434 -5.92429e-06 0.000985458
0.00634987 0.00403091 -9.02899e-05
0.00403091 -0.000585412 -9.15959e-05
-9.02899e-05 -9.15959e-05 0.00103838
0.0217684 -0.00811309 0.00136719
-0.00811309 0.00864958 0.000458615
0.00136719 0.000458615 0.00187635
0.0168292 -0.00332637 -0.000254224
-0.00332637 0.00703965 0.000731751
-0.000254224 0.000731751 0.00348774
0.000586814 0.000120213 1.59436e-06
0.000120213 0.000302237 4.56649e-06
1.59436e-06 4.56649e-06 0.0001785
0.000350408 0.000186218 5.31663e-06
0.000186218 0.000165838 5.55842e-07
5.31663e-06 5.55842e-07 1.2133e-05
0.00116197 0.000283965 3.68461e-06
0.000283965 0.000700243 -4.98895e-06
3.68461e-06 -4.98895e-06 0.00045356
0.000603989 -2.40224e-06 2.18928e-06
-2.40224e-06 0.000175005 1.1164e-06
2.18928e-06 1.1164e-06 1.0814e-05
0.000624287 7.89516e-05 1.07421e-06
7.89516e-05 0.000175513 -1.5228e-06
1.07421e-06 -1.5228e-06 -3.38256e-06
-0.000194506 3.47383e-05 -1.38152e-06
3.47383e-05 -0.000300622 2.47155e-06
-1.38152e-06 2.47155e-06 -0.000486676
0.000890193 0.000145195 -4.65134e-06
0.000145195 0.000361316 5.37166e-06
-4.65134e-06 5.37166e-06 0.000203754
-0.000209617 8.3156e-05 -3.82333e-06
8.3156e-05 -0.0003571 7.05309e-06
-3.82333e-06 7.05309e-06 -0.000415545
0.000329973 -1.13264e-05 -4.82967e-07
-1.13264e-05 -2.15092e-05 6.85869e-07
-4.82967e-07 6.85869e-07 -0.00017096
0.00150892 0.000188031 3.20906e-06
0.000188031 0.000748543 1.2323e-06
3.20906e-06 1.2323e-06 0.000549222
0.000406323 6.51707e-05 -7.29149e-07
6.51707e-05 0.0001051 -8.90056e-07
-7.29149e-07 -8.90056e-07 -0.000103313
0.000787137 4.42574e-05 1.6406e-06
4.42574e-05 0.000303414 1.99869e-08
1.6406e-06 1.99869e-08 9.97154e-05
-7.39195e-05 8.24152e-05 -9.92778e-07
8.24152e-05 -0.000130007 -3.6341e-06
-9.92778e-07 -3.6341e-06 -0.000327482
0.00162641 0.000172709 -1.82355e-06
0.000172709 0.000857178 -6.82915e-06
-1.82355e-06 -6.82915e-06 0.00067451
-0.000374796 7.80746e-05 -6.72646e-06
7.80746e-05 -0.000114589 -6.07494e-06
-6.72646e-06 -6.07494e-06 -0.000448101
0.000118541 -4.02294e-05 1.51974e-07
-4.02294e-05 -0.000110416 1.49428e-06
1.51974e-07 1.49428e-06 -0.000305418
0.000705197 -8.12122e-05 -3.61058e-06
-8.12122e-05 0.000258711 -1.90986e-06
-3.61058e-06 -1.90986e-06 6.08865e-05
0.000794761 -6.32283e-05 -4.50803e-07
-6.32283e-05 0.000321623 -1.44489e-06
-4.50803e-07 -1.44489e-06 0.000126552
0.000659563 -6.91652e-05 -4.73e-06
-6.91652e-05 0.000188393 1.65354e-06
-4.73e-06 1.65354e-06 3.50837e-05
0.00100035 2.2848e-05 -8.47229e-06
2.2848e-05 0.000504264 -6.72008e-06
-8.47229e-06 -6.72008e-06 0.000290462
0.00100124 -0.000145491 4.96004e-06
-0.000145491 0.000375632 -1.31262e-05
4.96004e-06 -1.31262e-05 0.000244486
-0.000652098 -2.53277e-05 -4.68683e-06
-2.53277e-05 -0.000597744 -7.69243e-06
-4.68683e-06 -7.69243e-06 -0.000733013
-0.00026106 -2.83883e-05 2.15773e-06
-2.83883e-05 -0.000260496 -5.43924e-06
2.15773e-06 -5.43924e-06 -0.000490036
0.000128879 -7.21683e-05 7.01878e-07
-7.21683e-05 -0.000115876 -2.39833e-07
7.01878e-07 -2.39833e-07 -0.000266742
0.000838631 -0.00014348 -1.18042e-06
-0.00014348 0.000357171 1.07635e-06
-1.18042e-06 1.07635e-06 0.000179173
0.000401558 -9.15489e-05 3.541e-08
-9.15489e-05 1.40534e-05 4.60017e-06
3.541e-08 4.60017e-06 -0.000124794
0.000374345 -0.000102697 4.09363e-06
-0.000102697 1.63394e-05 -3.04003e-07
4.09363e-06 -3.04003e-07 -0.000149129
0.000543548 -0.000131425 6.45854e-09
-0.000131425 0.000123992 1.53994e-07
6.45854e-09 1.53994e-07 -2.95693e-05
0.000502793 -6.86545e-05 -1.46374e-06
-6.86545e-05 5.82838e-05 5.60733e-06
-1.46374e-06 5.60733e-06 -3.25697e-05
0.000292668 1.46171e-06 1.61951e-07
1.46171e-06 -2.6334e-05 -3.825e-07
1.61951e-07 -3.825e-07 -0.000188218
0.000453893 1.684e-07 2.57281e-06
1.684e-07 3.72727e-05 1.24898e-07
2.57281e-06 1.24898e-07 -5.63642e-05
0.00141893 -4.11982e-05 -1.34087e-05
-4.11982e-05 0.000621157 7.25671e-06
-1.34087e-05 7.25671e-06 0.000597283
0.000433768 7.87705e-05 -2.50327e-06
7.87705e-05 2.37443e-05 -3.00873e-06
-2.50327e-06 -3.00873e-06 -6.82223e-05
0.000826481 -2.59888e-05 -5.30325e-06
-2.59888e-05 0.00025041 7.57124e-07
-5.30325e-06 7.57124e-07 0.000222835
0.000818166 1.46662e-06 -6.02705e-06
1.46662e-06 0.000224751 4.76009e-06
-6.02705e-06 4.76009e-06 0.000228559
0.000325595 -3.57186e-05 5.17211e-06
-3.57186e-05 -7.29269e-05 -5.34262e-06
5.17211e-06 -5.34262e-06 -0.000100755
0.00260725 4.45261e-06 1.10125e-05
4.45261e-06 0.00137257 2.26849e-08
1.10125e-05 2.26849e-08 0.001384
0.000852405 5.99148e-06 -1.33889e-05
5.99148e-06 0.000246723 -5.61441e-06
-1.33889e-05 -5.61441e-06 0.00024907
0.000548867 8.0027e-05 2.0897e-06
8.0027e-05 0.00012648 -9.30456e-07
2.0897e-06 -9.30456e-07 8.67963e-06
0.000416838 6.22165e-05 -2.80492e-06
6.22165e-05 -2.43776e-06 -3.69845e-06
-2.80492e-06 -3.69845e-06 -5.75347e-05
0.00044589 2.11376e-06 1.39175e-06
2.11376e-06 1.64615e-05 2.62121e-07
1.39175e-06 2.62121e-07 -4.08402e-05
0.000436415 1.02854e-05 1.01628e-06
1.02854e-05 -3.11247e-05 -3.83526e-06
1.01628e-06 -3.83526e-06 -4.39432e-05
0.000537189 -7.59999e-05 -1.44219e-06
-7.59999e-05 8.51482e-05 3.61187e-06
-1.44219e-06 3.61187e-06 1.55564e-05
0.000459247 1.11285e-05 2.25866e-07
1.11285e-05 -1.78517e-05 -7.52391e-07
2.25866e-07 -7.52391e-07 -3.26252e-05
0.00208241 4.26644e-05 1.10495e-06
4.26644e-05 0.00103316 -5.10932e-06
1.10495e-06 -5.10932e-06 0.00104677
0.00117177 4.17065e-05 1.22625e-06
4.17065e-05 0.000447533 2.68302e-06
1.22625e-06 2.68302e-06 0.000430455
0.00151902 5.19637e-05 -8.20086e-07
5.19637e-05 0.000677084 1.62361e-06
-8.20086e-07 1.62361e-06 0.000682241
0.000803207 5.4203e-05 1.92929e-06
5.4203e-05 0.000223433 1.05022e-05
1.92929e-06 1.05022e-05 0.000219455
0.000920923 0.000736121 8.41167e-05
0.000736121 -0.00302458 2.83361e-05
8.41167e-05 2.83361e-05 -0.0017139
0.00252623 -4.94015e-05 1.28016e-05
-4.94015e-05 -0.000163438 3.95905e-06
1.28016e-05 3.95905e-06 8.95603e-06
0.00236392 8.57436e-05 4.60561e-05
8.57436e-05 -3.8427e-05 -1.18638e-05
4.60561e-05 -1.18638e-05 0.000125519
0.0036901 0.000693064 -8.49574e-05
0.000693064 -0.002584 -4.65034e-05
-8.49574e-05 -4.65034e-05 -0.000232352
0.00322721 0.000118562 7.75727e-05
0.000118562 -0.000806711 -3.79287e-06
7.75727e-05 -3.79287e-06 -6.19532e-05
0.00290359 -6.12623e-05 -7.58648e-06
-6.12623e-05 0.00028691 -6.23456e-06
-7.58648e-06 -6.23456e-06 0.000432546
0.00515559 -0.000582536 -7.31463e-05
-0.000582536 0.000710925 -1.9692e-05
-7.31463e-05 -1.9692e-05 0.0012631
0.00476734 -0.000690417 4.93377e-05
-0.000690417 -0.000931315 -4.40539e-07
4.93377e-05 -4.40539e-07 0.000653806
0.0203654 -0.00114063 0.000102796
-0.00114063 0.00291215 -7.18806e-05
0.000102796 -7.18806e-05 0.00255053
0.0188808 0.00845477 0.00208304
0.00845477 0.00763538 -0.000442419
0.00208304 -0.000442419 0.00228173
0.0285863 0.00982185 0.000143131
0.00982185 0.0184686 6.10749e-05
0.000143131 6.10749e-05 0.0120464
7.57432e-07 -0.000107972 6.92522e-07
-0.000107972 -0.000202537 -2.56288e-06
6.92522e-07 -2.56288e-06 -0.000328646
0.000519519 -6.88827e-06 2.13464e-06
-6.88827e-06 0.000100221 3.89648e-08
2.13464e-06 3.89648e-08 -8.66569e-06
0.000601469 -9.66184e-05 -7.08913e-07
-9.66184e-05 0.000173001 5.68475e-06
-7.08913e-07 5.68475e-06 4.45713e-05
0.000540831 -4.15126e-05 2.09265e-06
-4.15126e-05 0.000117865 -3.34986e-08
2.09265e-06 -3.34986e-08 -6.80507e-06
0.0011116 0.000159091 -7.36799e-06
0.000159091 0.000572708 -2.47799e-06
-7.36799e-06 -2.47799e-06 0.00041554
0.000636613 0.000156794 -1.41951e-06
0.000156794 0.000180852 4.87381e-06
-1.41951e-06 4.87381e-06 3.68801e-05
0.000873027 1.88971e-05 1.91815e-06
1.88971e-05 0.000358863 1.56366e-06
1.91815e-06 1.56366e-06 0.000200147
0.000531687 -2.31984e-05 -1.46427e-06
-2.31984e-05 0.000117311 1.27558e-06
-1.46427e-06 1.27558e-06 -1.37895e-05
0.00272984 -0.000358026 1.4978e-05
-0.000358026 -0.000106312 -1.40953e-05
1.4978e-05 -1.40953e-05 0.000161174
0.00230063 -0.000684851 1.04421e-05
-0.000684851 -0.000374755 -5.39061e-06
1.04421e-05 -5.39061e-06 -0.000141316
0.00270963 -0.00104167 6.82398e-06
-0.00104167 0.000227782 5.74235e-06
6.82398e-06 5.74235e-06 1.31025e-05
0.00297724 -0.00124567 8.51906e-06
-0.00124567 0.00110372 -5.0913e-06
8.51906e-06 -5.0913e-06 0.000540721
0.00264045 -0.00127607 -3.21146e-05
-0.00127607 0.000541376 -3.71395e-06
-3.21146e-05 -3.71395e-06 7.3946e-05
0.00100994 -0.00120224 2.60072e-05
-0.00120224 0.000593498 1.12945e-05
2.60072e-05 1.12945e-05 -0.00030468
0.00505321 -0.000907079 8.74773e-06
-0.000907079 0.00264536 6.01799e-06
8.74773e-06 6.01799e-06 0.00214235
0.00174723 -0.000406062 2.15848e-05
-0.000406062 0.00100606 -5.41776e-05
2.15848e-05 -5.41776e-05 0.000571146
0.000463777 -0.00012483 -9.23982e-07
-0.00012483 -4.38628e-05 6.59414e-06
-9.23982e-07 6.59414e-06 -0.00014834
0.00113783 -9.50863e-05 1.6132e-05
-9.50863e-05 0.000499801 -2.13856e-05
1.6132e-05 -2.13856e-05 0.000218066
0.000939921 -6.74878e-05 5.45843e-06
-6.74878e-05 0.000387484 4.3929e-06
5.45843e-06 4.3929e-06 0.000230448
0.000495648 -4.3163e-06 1.00849e-05
-4.3163e-06 0.000150416 -3.95908e-06
1.00849e-05 -3.95908e-06 0.000113828
0.00262682 -0.000481797 -2.24903e-07
-0.000481797 -0.000173899 3.4292e-06
-2.24903e-07 3.4292e-06 0.00022505
0.000321086 -0.0001135 -5.88576e-06
-0.0001135 0.00011379 -1.84417e-07
-5.88576e-06 -1.84417e-07 -5.17755e-05
0.00150843 -0.000270402 -7.42296e-06
-0.000270402 0.000728267 6.13639e-06
-7.42296e-06 6.13639e-06 0.000492342
0.00175708 -0.000773715 8.67247e-06
-0.000773715 -0.000440561 -4.73131e-06
8.67247e-06 -4.73131e-06 -0.000298214
0.00242664 -0.00108977 1.77763e-06
-0.00108977 0.000341366 5.7382e-06
1.77763e-06 5.7382e-06 -9.74492e-06
0.00132863 -0.00112052 -3.05451e-06
-0.00112052 -4.66775e-05 -1.6246e-05
-3.05451e-06 -1.6246e-05 -0.000408345
0.00149548 -0.000419047 -3.14146e-06
-0.000419047 0.00093481 -3.38662e-05
-3.14146e-06 -3.38662e-05 0.000442044
0.00116979 -0.000779189 1.26986e-05
-0.000779189 0.00115828 2.39231e-06
1.26986e-05 2.39231e-06 0.00019274
0.00621102 -0.00113257 -5.24424e-05
-0.00113257 0.00160336 3.6535e-05
-5.24424e-05 3.6535e-05 0.00188715
0.00334188 -0.00115001 -4.06427e-05
-0.00115001 0.00082776 1.50986e-05
-4.06427e-05 1.50986e-05 0.0005664
0.00274389 -0.00131059 1.07193e-05
-0.00131059 0.000639866 1.93026e-05
1.07193e-05 1.93026e-05 0.000257649
-3.95466e-05 -0.000716852 -7.82318e-06
-0.000716852 -0.000458167 2.87989e-05
-7.82318e-06 2.87989e-05 -0.000613746
0.000640027 -0.000190771 3.17188e-07
-0.000190771 0.000376565 3.26726e-06
3.17188e-07 3.26726e-06 9.07319e-05
0.000191438 -0.000199863 3.93835e-06
-0.000199863 0.000180997 3.31371e-06
3.93835e-06 3.31371e-06 -0.000176597
0.00110137 -0.00034775 -1.82718e-05
-0.00034775 0.00110921 -1.95117e-05
-1.82718e-05 -1.95117e-05 0.000300651
-0.00778116 -0.000601603 0.000870412
-0.000601603 -0.00333967 -4.49638e-05
0.000870412 -4.49638e-05 -0.00486527
0.0121998 -0.00048955 8.25335e-05
-0.00048955 -0.000432066 4.82088e-05
8.25335e-05 4.82088e-05 0.000500551
0.00276396 0.000443349 1.01432e-05
0.000443349 0.0016232 -1.02948e-05
1.01432e-05 -1.02948e-05 0.00135248
0.00208573 0.000712863 1.25372e-06
0.000712863 0.000941311 7.88224e-06
1.25372e-06 7.88224e-06 0.000457037
0.00170256 0.000799756 0.000107998
0.000799756 -0.00054548 5.34421e-05
0.000107998 5.34421e-05 -0.000393941
0.00374941 0.00127787 3.33772e-05
0.00127787 0.00113662 1.84081e-05
3.33772e-05 1.84081e-05 0.000691909
0.00308319 0.00109514 2.66264e-05
0.00109514 0.00123158 7.90911e-06
2.66264e-05 7.90911e-06 0.000641527
0.0181345 0.000869378 0.000104712
0.000869378 0.00210797 -0.000107439
0.000104712 -0.000107439 0.00211673
0.00864993 0.00327864 -0.000282789
0.00327864 -0.00178586 -3.68446e-05
-0.000282789 -3.68446e-05 0.000821453
0.0019575 0.00187731 3.77241e-06
0.00187731 -0.000245559 -3.50494e-05
3.77241e-06 -3.50494e-05 -0.000663137
0.0171706 -0.006605 -0.00081417
-0.006605 0.00763657 5.50523e-05
-0.00081417 5.50523e-05 0.00266963
0.0142531 -0.0150058 -0.00319777
-0.0150058 0.0118009 -0.00179918
-0.00319777 -0.00179918 0.00399508
0.000747002 0.000369821 5.88499e-06
0.000369821 0.000368984 -2.87772e-06
5.88499e-06 -2.87772e-06 5.67606e-05
8.85734e-05 -0.00390147 0.00078773
-0.00390147 -0.0018537 9.41995e-05
0.00078773 9.41995e-05 -0.00544994
0.000551017 -0.0045917 -0.000818428
-0.0045917 0.00918157 -0.000182211
-0.000818428 -0.000182211 0.00149671
0.00396473 0.00153365 -1.90729e-05
0.00153365 0.00081441 2.51582e-06
-1.90729e-05 2.51582e-06 0.000564854
0.000891779 0.000597318 -1.14176e-05
0.000597318 0.000176027 8.82214e-06
-1.14176e-05 8.82214e-06 -0.000261647
0.0018789 0.00106032 4.22932e-06
0.00106032 0.000566662 1.43984e-06
4.22932e-06 1.43984e-06 3.2258e-05
0.00192632 0.00179281 7.2894e-05
0.00179281 0.00035373 5.04434e-05
7.2894e-05 5.04434e-05 3.23153e-05
0.0142502 0.00405922 -0.00017052
0.00405922 -0.000610711 -0.000123787
-0.00017052 -0.000123787 -0.00136907
0.00316241 0.00378607 -1.43517e-05
0.00378607 -0.0014089 -4.41662e-05
-1.43517e-05 -4.41662e-05 0.00034557
0.0224906 -0.00685768 0.000757588
-0.00685768 0.0100695 -3.97517e-05
0.000757588 -3.97517e-05 0.00338162
0.0226409 -0.00565706 -2.12473e-05
-0.00565706 0.00688112 0.000886665
-2.12473e-05 0.000886665 0.00200825
0.0014462 0.000449093 -1.66748e-05
0.000449093 0.000731446 -1.85708e-05
-1.66748e-05 -1.85708e-05 0.000444498
-0.00862219 0.00126305 -7.35708e-05
0.00126305 0.00532941 -0.00015679
-7.35708e-05 -0.00015679 -0.00298075
0.0067681 0.00161538 -0.000564127
0.00161538 0.00549872 -0.000602193
-0.000564127 -0.000602193 0.000122004
0.00282353 0.00115267 -4.61121e-05
0.00115267 0.000677541 -2.23403e-05
-4.61121e-05 -2.23403e-05 0.000556978
0.00299075 0.0011195 -8.96556e-05
0.0011195 0.00133532 -3.44487e-05
-8.96556e-05 -3.44487e-05 0.000823581
0.00233006 0.00139459 -0.000102436
0.00139459 0.00141661 -3.44028e-05
-0.000102436 -3.44028e-05 0.000597523
-0.00332366 0.00251691 4.96437e-05
0.00251691 -0.00116997 -2.80309e-05
4.96437e-05 -2.80309e-05 -0.00120076
0.00436871 0.00574892 0.00072587
0.00574892 -0.00190829 0.000106584
0.00072587 0.000106584 -0.00316955
0.0244399 -0.00865 -0.000101469
-0.00865 0.0136499 0.000916004
-0.000101469 0.000916004 0.00614528
0.0093134 0.000241112 -0.000209932
0.000241112 -0.00178902 -0.000207769
-0.000209932 -0.000207769 -0.00148517
5.64356e-05 0.000195664 -1.65978e-06
0.000195664 1.98476e-05 -1.31418e-06
-1.65978e-06 -1.31418e-06 -0.000158029
0.00183803 0.000382227 8.02582e-06
0.000382227 0.00109104 2.17665e-06
8.02582e-06 2.17665e-06 0.000829173
-0.000562947 0.000133254 -6.94766e-06
0.000133254 -0.00032046 3.21356e-06
-6.94766e-06 3.21356e-06 -0.000536711
0.000348697 5.65684e-05 2.53167e-06
5.65684e-05 -1.09654e-05 2.29018e-06
2.53167e-06 2.29018e-06 -0.000161349
0.00110346 8.69381e-05 5.35984e-07
8.69381e-05 0.000520927 -3.61775e-07
5.35984e-07 -3.61775e-07 0.000309079
0.000524787 3.75246e-05 -2.57075e-06
3.75246e-05 0.00018467 2.69611e-06
-2.57075e-06 2.69611e-06 -3.65454e-05
0.000256138 0.00011229 7.53885e-06
0.00011229 -1.29819e-05 9.64151e-06
7.53885e-06 9.64151e-06 -0.000224882
-0.000831032 2.42863e-05 -5.2552e-06
2.42863e-05 -0.000587122 4.30026e-06
-5.2552e-06 4.30026e-06 -0.00077946
0.00077042 3.67432e-05 3.51797e-07
3.67432e-05 0.000305433 -6.89237e-07
3.51797e-07 -6.89237e-07 0.000103664
0.000673865 0.000100923 3.34136e-07
0.000100923 0.000251724 -2.62456e-08
3.34136e-07 -2.62456e-08 7.6351e-05
0.000855353 -4.09206e-05 -1.24579e-06
-4.09206e-05 0.000382842 2.41914e-06
-1.24579e-06 2.41914e-06 0.000164338
-0.00112427 4.95262e-05 1.4655e-06
4.95262e-05 -0.000552991 1.38709e-06
1.4655e-06 1.38709e-06 -0.000885504
0.00128197 0.000101698 -7.07583e-08
0.000101698 0.000989104 7.02e-06
-7.07583e-08 7.02e-06 0.000598554
0.000831808 -1.12456e-05 7.07295e-08
-1.12456e-05 0.000493032 -6.85292e-06
7.07295e-08 -6.85292e-06 0.000236719
0.0016699 -1.96063e-05 -3.14621e-06
-1.96063e-05 0.00095648 3.50223e-06
-3.14621e-06 3.50223e-06 0.000699433
0.000871781 -9.63403e-05 -4.50158e-07
-9.63403e-05 0.000373292 -7.74141e-07
-4.50158e-07 -7.74141e-07 0.000171794
0.000102456 -0.000117978 3.61685e-06
-0.000117978 -0.000175898 1.30165e-05
3.61685e-06 1.30165e-05 -0.000315431
0.000583587 -9.40333e-05 6.29158e-07
-9.40333e-05 0.000212435 -4.5155e-07
6.29158e-07 -4.5155e-07 1.43865e-05
0.00073457 -0.000127328 -2.83247e-06
-0.000127328 0.000195577 -1.3982e-06
-2.83247e-06 -1.3982e-06 6.38292e-05
-0.000335603 -6.85837e-05 9.28193e-07
-6.85837e-05 -0.000389974 6.13453e-06
9.28193e-07 6.13453e-06 -0.000512857
-0.000432804 -4.64021e-05 6.05951e-07
-4.64021e-05 -0.000416999 -8.6666e-06
6.05951e-07 -8.6666e-06 -0.000594503
-9.93286e-06 -4.84988e-05 -8.1242e-06
-4.84988e-05 -5.79761e-05 -2.03259e-06
-8.1242e-06 -2.03259e-06 -0.000274508
0.000249417 -0.000132376 1.9327e-06
-0.000132376 -1.23722e-05 -1.08113e-05
1.9327e-06 -1.08113e-05 -0.000141517
0.00117912 -0.000149525 2.47731e-05
-0.000149525 0.000449547 -1.8001e-05
2.47731e-05 -1.8001e-05 0.000329607
0.00246083 -0.000451738 -1.20186e-06
-0.000451738 0.00117856 2.80295e-06
-1.20186e-06 2.80295e-06 0.000929225
-0.000495099 -9.90655e-05 -3.99374e-06
-9.90655e-05 -0.00045446 -2.55878e-06
-3.99374e-06 -2.55878e-06 -0.000663086
0.00051732 -5.04361e-05 2.48872e-06
-5.04361e-05 0.000207494 -5.60828e-07
2.48872e-06 -5.60828e-07 -1.07537e-05
-0.000746403 -1.24004e-05 5.03139e-06
-1.24004e-05 -0.000618161 -1.05385e-06
5.03139e-06 -1.05385e-06 -0.000845794
0.000678195 -0.000180105 -1.66136e-06
-0.000180105 0.000254837 -9.32201e-07
-1.66136e-06 -9.32201e-07 7.57637e-05
0.000429709 -4.95646e-05 1.87955e-06
-4.95646e-05 3.01227e-05 9.6579e-07
1.87955e-06 9.6579e-07 -0.000116833
0.000605692 -0.000167844 1.48135e-06
-0.000167844 0.000190871 -1.23621e-07
1.48135e-06 -1.23621e-07 2.74269e-05
0.000592899 -9.97128e-05 -6.62079e-07
-9.97128e-05 0.000155923 7.8911e-08
-6.62079e-07 7.8911e-08 4.12283e-06
0.000334208 3.34483e-05 1.16467e-06
3.34483e-05 -5.09855e-05 5.54561e-06
1.16467e-06 5.54561e-06 -0.000146669
0.000597242 -0.000130377 2.83824e-08
-0.000130377 0.000149865 -2.96646e-06
2.83824e-08 -2.96646e-06 -1.90576e-06
0.000501945 -5.38045e-05 -6.21433e-07
-5.38045e-05 5.14551e-05 1.86168e-07
-6.21433e-07 1.86168e-07 -3.56005e-05
0.00139652 2.60444e-05 -8.4354e-06
2.60444e-05 0.000598312 7.91524e-06
-8.4354e-06 7.91524e-06 0.00057463
0.000477291 -7.64698e-05 7.77033e-07
-7.64698e-05 4.55733e-05 -3.43871e-06
7.77033e-07 -3.43871e-06 -4.412e-05
0.000845637 -2.72883e-05 -1.01294e-05
-2.72883e-05 0.000254484 8.97835e-07
-1.01294e-05 8.97835e-07 0.000227626
0.000739589 1.05977e-05 1.72469e-06
1.05977e-05 0.000163832 2.23947e-06
1.72469e-06 2.23947e-06 0.000166942
0.00040355 -3.40461e-05 3.79262e-06
-3.40461e-05 -2.76788e-05 -4.88911e-06
3.79262e-06 -4.88911e-06 -5.42128e-05
0.00255699 8.19057e-06 7.05611e-06
8.19057e-06 0.00133858 -2.16536e-09
7.05611e-06 -2.16536e-09 0.00135086
0.00258987 -1.95672e-06 7.07898e-06
-1.95672e-06 0.00136115 -5.07894e-06
7.07898e-06 -5.07894e-06 0.00137267
0.00104134 8.06623e-05 -1.00185e-06
8.06623e-05 0.000441125 -8.69441e-07
-1.00185e-06 -8.69441e-07 0.000317747
0.00049597 7.2523e-05 -2.0103e-06
7.2523e-05 5.28627e-05 -4.01886e-06
-2.0103e-06 -4.01886e-06 -8.89021e-06
0.000521183 -1.90176e-05 -7.79987e-07
-1.90176e-05 0.000109903 8.69303e-07
-7.79987e-07 8.69303e-07 -6.89386e-06
0.000426842 1.05759e-05 1.1715e-06
1.05759e-05 -3.77513e-05 -4.03968e-06
1.1715e-06 -4.03968e-06 -4.95032e-05
0.000410021 -8.8521e-06 1.69122e-06
-8.8521e-06 -9.31061e-06 -2.32233e-07
1.69122e-06 -2.32233e-07 -6.28088e-05
0.000478648 -6.68299e-05 -2.00428e-06
-6.68299e-05 4.28481e-05 3.77732e-06
-2.00428e-06 3.77732e-06 -1.77326e-05
0.000441801 6.20899e-06 -6.52641e-07
6.20899e-06 -2.8172e-05 1.49864e-08
-6.52641e-07 1.49864e-08 -4.09398e-05
0.00203866 2.75338e-05 -4.21174e-06
2.75338e-05 0.00100214 -5.12478e-06
-4.21174e-06 -5.12478e-06 0.00101765
0.00118594 2.30835e-05 -6.64155e-07
2.30835e-05 0.00045174 2.8037e-06
-6.64155e-07 2.8037e-06 0.000439797
0.00132983 3.2973e-05 -3.30609e-06
3.2973e-05 0.000547267 3.62846e-08
-3.30609e-06 3.62846e-08 0.000557259
0.000751825 3.87898e-05 -3.74649e-06
3.87898e-05 0.00018197 8.56588e-06
-3.74649e-06 8.56588e-06 0.000184311
-0.00693529 0.00231873 0.000884752
0.00231873 -0.00208693 -0.00010853
0.000884752 -0.00010853 -0.00642483
0.00189062 0.00170937 0.00197439
0.00170937 0.00925455 -0.000378517
0.00197439 -0.000378517 0.00348238
0.00222322 0.000717785 -0.000159996
0.000717785 -0.003172 -3.975e-05
-0.000159996 -3.975e-05 -0.000569668
0.00246793 -5.17912e-05 1.85781e-05
-5.17912e-05 -0.00121581 -3.31377e-05
1.85781e-05 -3.31377e-05 -0.000384109
0.00235044 -8.26606e-05 5.02706e-05
-8.26606e-05 -0.00013109 1.51934e-05
5.02706e-05 1.51934e-05 3.60809e-05
-0.00132552 -0.00010566 -0.000132343
-0.00010566 -0.00266042 -3.70061e-05
-0.000132343 -3.70061e-05 -0.000780912
0.00409656 -0.000618455 2.17411e-06
-0.000618455 1.89073e-05 3.91241e-06
2.17411e-06 3.91241e-06 0.000483878
0.0124203 -0.000354935 0.000270149
-0.000354935 -0.00248693 -0.000116031
0.000270149 -0.000116031 -0.00263011
0.00503423 0.00562911 -6.67775e-06
0.00562911 0.00190912 -8.64136e-05
-6.67775e-06 -8.64136e-05 -0.0028185
0.0233839 0.0119586 -0.000779559
0.0119586 0.0154957 0.000310117
-0.000779559 0.000310117 0.00862607
0.00202792 -0.00129788 1.12979e-05
-0.00129788 -0.00338673 -3.18929e-05
1.12979e-05 -3.18929e-05 -0.00122021
0.0156483 -0.00380368 0.000279706
-0.00380368 0.000442646 -7.20248e-05
0.000279706 -7.20248e-05 -0.000363987
0.02441 0.00777095 0.000496775
0.00777095 0.00900632 -0.000515882
0.000496775 -0.000515882 0.00214399
0.0272861 0.0057527 -0.000365235
0.0057527 0.0100536 0.000357436
-0.000365235 0.000357436 0.00562952
0.00117717 0.000182674 -6.20418e-06
0.000182674 0.000619977 -1.46366e-07
-6.20418e-06 -1.46366e-07 0.000407975
0.000314411 3.9862e-05 9.30004e-07
3.9862e-05 -2.69622e-05 -7.84029e-07
9.30004e-07 -7.84029e-07 -0.000142589
0.000519136 -0.000102988 3.37147e-06
-0.000102988 0.000113061 3.45472e-06
3.37147e-06 3.45472e-06 -2.4287e-06
0.000738776 -4.27085e-06 7.52361e-06
-4.27085e-06 0.000254203 4.87809e-07
7.52361e-06 4.87809e-07 0.000123676
0.00074496 8.16172e-05 3.71211e-06
8.16172e-05 0.000330381 1.72507e-07
3.71211e-06 1.72507e-07 0.000197391
0.000574271 7.03751e-05 -1.09678e-06
7.03751e-05 0.000172169 6.68263e-06
-1.09678e-06 6.68263e-06 -1.56507e-05
0.000650381 8.46487e-05 -8.06648e-07
8.46487e-05 0.000214225 3.0005e-06
-8.06648e-07 3.0005e-06 6.49515e-05
0.000423796 0.000100559 3.97697e-06
0.000100559 2.26528e-05 3.38977e-06
3.97697e-06 3.38977e-06 -0.000135628
0.00060547 -4.73532e-06 1.83315e-06
-4.73532e-06 0.000184954 -1.18799e-06
1.83315e-06 -1.18799e-06 2.79741e-05
0.000381179 -2.96318e-05 3.24159e-06
-2.96318e-05 1.25012e-05 -5.43728e-07
3.24159e-06 -5.43728e-07 -0.000106539
0.00109669 -0.000386345 3.993e-05
-0.000386345 -0.00108448 -1.99941e-05
3.993e-05 -1.99941e-05 -0.000583285
0.00110535 -0.000712953 2.17978e-05
-0.000712953 -0.000788501 -9.32341e-06
2.17978e-05 -9.32341e-06 -0.000609969
0.00100585 -0.000888739 7.72738e-06
-0.000888739 -0.000441518 4.47281e-06
7.72738e-06 4.47281e-06 -0.000691501
-0.000815852 -0.000810741 -1.86444e-05
-0.000810741 -0.00122985 -1.3996e-05
-1.86444e-05 -1.3996e-05 -0.001523
0.00271934 -0.000692697 8.7058e-06
-0.000692697 0.00186498 5.19734e-05
8.7058e-06 5.19734e-05 0.00107812
-0.000678288 -0.000699805 -7.18043e-06
-0.000699805 -0.000340764 -1.44634e-05
-7.18043e-06 -1.44634e-05 -0.00103054
0.00137423 -0.000327632 1.26658e-05
-0.000327632 0.000671265 -4.13246e-06
1.26658e-05 -4.13246e-06 0.000470964
0.000184268 -5.87945e-05 4.30346e-06
-5.87945e-05 -4.35649e-06 5.18641e-06
4.30346e-06 5.18641e-06 -0.000153517
0.00274486 -0.000810715 1.52014e-05
-0.000810715 -0.000367883 -1.02281e-05
1.52014e-05 -1.02281e-05 0.00010338
0.000528027 -0.000110879 5.15043e-07
-0.000110879 0.000293219 2.53649e-06
5.15043e-07 2.53649e-06 5.49741e-06
-0.000174145 -0.000242907 -5.59598e-06
-0.000242907 -4.22553e-05 -4.31327e-06
-5.59598e-06 -4.31327e-06 -0.000397082
0.00196758 -0.000973994 1.92461e-05
-0.000973994 5.55929e-05 -1.53435e-06
1.92461e-05 -1.53435e-06 -8.11968e-05
0.00182784 -0.00117532 -1.90942e-06
-0.00117532 7.72425e-05 -3.621e-06
-1.90942e-06 -3.621e-06 -0.000186213
5.32186e-06 -0.000800436 1.44568e-05
-0.000800436 -0.000385492 -1.86564e-05
1.44568e-05 -1.86564e-05 -0.00064208
0.000869061 -0.000449869 1.73195e-05
-0.000449869 0.000948141 -2.46927e-05
1.73195e-05 -2.46927e-05 0.00017354
0.00175861 -0.00124524 -5.15206e-05
-0.00124524 -0.0004163 4.66603e-05
-5.15206e-05 4.66603e-05 -0.000540606
0.00201508 -0.00105452 -3.74796e-05
-0.00105452 0.000330764 2.57489e-05
-3.74796e-05 2.57489e-05 0.000247368
-0.00100381 -0.000551233 -3.95355e-05
-0.000551233 -0.000468997 3.60367e-05
-3.95355e-05 3.60367e-05 -0.000886852
-0.00152295 -0.000136174 -1.00246e-05
-0.000136174 -0.00103239 1.0597e-05
-1.00246e-05 1.0597e-05 -0.00129932
-0.00122824 -2.67166e-06 -2.36689e-06
-2.67166e-06 -0.000716122 1.30659e-05
-2.36689e-06 1.30659e-05 -0.00104212
0.000884233 -8.44106e-05 1.61929e-06
-8.44106e-05 0.000624476 -1.01171e-05
1.61929e-06 -1.01171e-05 0.00022697
-0.00289306 0.00152784 -0.000596273
0.00152784 0.00808227 2.54222e-05
-0.000596273 2.54222e-05 0.0016572
-0.000236167 -0.00216241 -2.45561e-05
-0.00216241 0.00355378 -2.5632e-05
-2.45561e-05 -2.5632e-05 0.00171043
0.00497788 0.000862145 -0.000177311
0.000862145 -0.00648887 -4.00637e-05
-0.000177311 -4.00637e-05 -0.00655063
0.00115075 0.000433281 1.78627e-05
0.000433281 0.000678981 -5.94483e-06
1.78627e-05 -5.94483e-06 0.000336355
0.00180289 0.000783153 1.9457e-05
0.000783153 0.000763825 2.74086e-05
1.9457e-05 2.74086e-05 0.000250225
0.00328695 0.00133651 8.59107e-05
0.00133651 0.000417873 3.85125e-05
8.59107e-05 3.85125e-05 0.000244558
0.00159797 0.00111082 2.29866e-05
0.00111082 0.000455284 2.93438e-05
2.29866e-05 2.93438e-05 -0.000129815
0.0151713 -0.00463515 0.000333538
-0.00463515 0.0068906 9.88884e-05
0.000333538 9.88884e-05 0.00340314
0.00354113 0.00270145 -0.000505068
0.00270145 -0.00639462 -0.000129013
-0.000505068 -0.000129013 -0.00710175
0.00603941 0.00386472 4.96229e-05
0.00386472 0.000524111 3.05621e-05
4.96229e-05 3.05621e-05 0.00159294
0.00302039 0.00167883 8.3868e-05
0.00167883 0.00125522 7.21214e-06
8.3868e-05 7.21214e-06 0.000948445
0.0142583 -0.00392807 -0.000705278
-0.00392807 0.00610944 -0.000299756
-0.000705278 -0.000299756 0.00018228
0.00224449 -0.00594956 -0.00122057
-0.00594956 0.0101139 -0.000286451
-0.00122057 -0.000286451 0.00241941
0.0331397 -0.00807717 0.0011394
-0.00807717 0.0108225 0.000476485
0.0011394 0.000476485 0.00513671
0.000162063 0.000335254 1.51773e-05
0.000335254 -9.07677e-06 -5.58372e-06
1.51773e-05 -5.58372e-06 -0.000292376
-0.00301864 0.000249336 -0.000193596
0.000249336 0.00761273 -2.6799e-05
-0.000193596 -2.6799e-05 0.000348521
0.00737956 0.00213542 -0.000230608
0.00213542 0.00421498 -0.000201663
-0.000230608 -0.000201663 -0.00190621
0.00190891 0.00117356 1.07822e-05
0.00117356 0.0003137 3.26663e-06
1.07822e-05 3.26663e-06 0.000110385
0.000950217 0.000871844 1.79224e-05
0.000871844 0.000350734 7.74418e-06
1.79224e-05 7.74418e-06 -0.000165293
0.00117517 0.00143125 -0.000100626
0.00143125 0.000721051 -8.22956e-05
-0.000100626 -8.22956e-05 5.74302e-05
0.00369182 0.00438986 6.42661e-05
0.00438986 0.000856657 5.05482e-05
6.42661e-05 5.05482e-05 0.00101917
0.0140333 0.00666256 -1.00527e-05
0.00666256 0.00140417 8.04576e-07
-1.00527e-05 8.04576e-07 -0.00071027
0.0110145 -0.00471344 0.000108735
-0.00471344 0.00765616 -0.000140819
0.000108735 -0.000140819 -0.000101304
0.0179383 -0.00216515 -3.93951e-05
-0.00216515 0.00270439 -6.72346e-05
-3.93951e-05 -6.72346e-05 0.00316111
0.00127391 0.000746395 -1.91104e-05
0.000746395 0.000615631 -9.03452e-06
-1.91104e-05 -9.03452e-06 0.000203065
0.00149483 0.000385871 -0.000503132
0.000385871 0.00311965 -0.000137636
-0.000503132 -0.000137636 -0.00318244
0.00202046 0.00141379 -0.000179053
0.00141379 0.000221317 -0.000198665
-0.000179053 -0.000198665 -0.00186922
-0.000898524 0.000460512 -5.60535e-06
0.000460512 -0.000170738 -2.59878e-05
-5.60535e-06 -2.59878e-05 -0.00053592
-0.00188432 0.00099731 -0.000182048
0.00099731 0.000741084 2.14711e-07
-0.000182048 2.14711e-07 -2.25974e-05
0.00964703 0.00662794 0.000187309
0.00662794 0.00356569 -2.38534e-05
0.000187309 -2.38534e-05 -0.00150247
0.00339982 -0.00670089 -2.02727e-05
-0.00670089 0.00126334 0.000229498
-2.02727e-05 0.000229498 -0.00534232
0.0147173 -0.000313184 7.46298e-05
-0.000313184 -0.00116145 -0.000349975
7.46298e-05 -0.000349975 0.000677049
0.00130949 0.000298358 2.10425e-06
0.000298358 0.000711493 2.28364e-05
2.10425e-06 2.28364e-05 0.000494144
0.00101745 0.000302985 -8.68671e-06
0.000302985 0.000660246 -6.37165e-06
-8.68671e-06 -6.37165e-06 0.00039138
-0.000606116 0.000147687 1.4352e-06
0.000147687 -0.000105594 -7.38982e-07
1.4352e-06 -7.38982e-07 -0.000505718
0.000450213 8.41059e-05 3.36108e-07
8.41059e-05 7.4343e-05 -3.16624e-07
3.36108e-07 -3.16624e-07 -0.000107582
0.00131658 -2.7052e-05 -3.7658e-06
-2.7052e-05 0.000699466 4.76595e-06
-3.7658e-06 4.76595e-06 0.000462893
-0.000356956 7.92194e-05 2.75836e-06
7.92194e-05 -0.000404344 5.47427e-06
2.75836e-06 5.47427e-06 -0.000574222
-0.00150584 7.07259e-05 2.14923e-06
7.07259e-05 -0.000764189 1.88678e-06
2.14923e-06 1.88678e-06 -0.00110767
0.000458929 -2.20246e-05 1.76744e-06
-2.20246e-05 0.000131645 5.93557e-07
1.76744e-06 5.93557e-07 -8.00336e-05
0.000450186 9.40458e-05 7.94339e-07
9.40458e-05 0.000252806 -2.42944e-06
7.94339e-07 -2.42944e-06 6.58936e-07
-6.24035e-05 4.93318e-05 4.14338e-06
4.93318e-05 0.000306784 2.77379e-06
4.14338e-06 2.77379e-06 -0.000185621
-0.00152384 -7.35341e-06 -4.19648e-07
-7.35341e-06 -0.000403287 9.96616e-06
-4.19648e-07 9.96616e-06 -0.000985685
0.00088846 1.85855e-05 -1.03851e-06
1.85855e-05 0.00080646 -6.48734e-06
-1.03851e-06 -6.48734e-06 0.000385011
0.00185632 5.45381e-05 -2.2033e-06
5.45381e-05 0.00113116 1.96991e-06
-2.2033e-06 1.96991e-06 0.000886912
0.000904193 -0.000178739 4.41631e-06
-0.000178739 0.000421351 3.3287e-06
4.41631e-06 3.3287e-06 0.000217014
0.000140189 -9.17435e-05 6.06037e-07
-9.17435e-05 -0.000197388 7.33928e-06
6.06037e-07 7.33928e-06 -0.00032137
-0.000130232 -8.34088e-05 1.00475e-05
-8.34088e-05 -0.000263589 1.76962e-05
1.00475e-05 1.76962e-05 -0.000363206
0.000263013 -2.67878e-05 8.93822e-07
-2.67878e-05 9.86966e-05 1.36824e-06
8.93822e-07 1.36824e-06 -0.000105513
0.000453813 -4.41186e-05 -1.5227e-07
-4.41186e-05 0.000110986 1.72249e-06
-1.5227e-07 1.72249e-06 -5.7324e-05
0.000100647 -7.72407e-05 -3.68105e-06
-7.72407e-05 -7.03987e-05 -9.49532e-07
-3.68105e-06 -9.49532e-07 -0.000209908
0.000447808 -9.87033e-05 -3.15837e-06
-9.87033e-05 0.000132053 -6.57215e-06
-3.15837e-06 -6.57215e-06 -1.30152e-05
0.00107879 -0.000119343 9.16501e-06
-0.000119343 0.000729512 -1.1642e-05
9.16501e-06 -1.1642e-05 0.000522186
0.002302 -0.000383112 6.51157e-06
-0.000383112 0.00109159 3.52537e-06
6.51157e-06 3.52537e-06 0.000970051
0.000599914 -0.000143716 -1.93558e-05
-0.000143716 0.000102678 1.62833e-07
-1.93558e-05 1.62833e-07 -1.41035e-05
0.000830053 -0.000322264 9.02261e-06
-0.000322264 0.000182891 4.60103e-06
9.02261e-06 4.60103e-06 -2.62626e-05
0.0026762 -0.000752168 -4.77017e-06
-0.000752168 0.00126537 2.03875e-05
-4.77017e-06 2.03875e-05 0.000834567
0.00226107 -0.000310731 9.18898e-06
-0.000310731 0.00109449 -8.78249e-06
9.18898e-06 -8.78249e-06 0.000876827
0.00123597 -0.000334535 -3.04024e-06
-0.000334535 0.00043917 -6.45277e-06
-3.04024e-06 -6.45277e-06 0.000236803
0.000438151 -0.00012508 -6.61588e-07
-0.00012508 0.000106791 -9.43309e-07
-6.61588e-07 -9.43309e-07 -0.000104881
-0.000952859 -6.43108e-05 1.97345e-07
-6.43108e-05 -0.000714284 -2.82196e-06
1.97345e-07 -2.82196e-06 -0.000997943
0.00139115 -5.70005e-05 2.0057e-06
-5.70005e-05 0.000739067 3.28661e-06
2.0057e-06 3.28661e-06 0.000529378
0.000671865 -0.000179141 1.76382e-06
-0.000179141 0.000260256 -1.11201e-06
1.76382e-06 -1.11201e-06 2.83738e-05
0.000286818 -7.19969e-05 8.27259e-07
-7.19969e-05 -8.31357e-05 -1.0754e-06
8.27259e-07 -1.0754e-06 -0.000234867
0.00155937 -0.000293816 -5.22943e-06
-0.000293816 0.000828592 1.05516e-06
-5.22943e-06 1.05516e-06 0.000622404
0.000725653 -0.000143313 4.04089e-08
-0.000143313 0.000227993 2.0177e-07
4.04089e-08 2.0177e-07 7.18095e-05
0.000491505 -6.52008e-06 -1.69482e-08
-6.52008e-06 4.03665e-05 4.44007e-06
-1.69482e-08 4.44007e-06 -5.79944e-05
0.000825892 -0.000154698 -1.25703e-06
-0.000154698 0.000312754 -2.55072e-06
-1.25703e-06 -2.55072e-06 0.000154758
0.000574581 -7.05546e-05 -3.22088e-07
-7.05546e-05 0.000100601 1.19296e-08
-3.22088e-07 1.19296e-08 4.09054e-06
0.00144941 4.78365e-06 -1.3939e-05
4.78365e-06 0.000628603 8.78595e-06
-1.3939e-05 8.78595e-06 0.000601434
0.000521634 -7.85763e-05 9.40115e-07
-7.85763e-05 7.22112e-05 -5.4339e-06
9.40115e-07 -5.4339e-06 -2.16752e-05
0.000842098 -1.78898e-05 -1.18401e-05
-1.78898e-05 0.000244256 8.3752e-07
-1.18401e-05 8.3752e-07 0.000216611
0.000784261 1.9242e-05 1.78486e-06
1.9242e-05 0.000190471 3.13134e-06
1.78486e-06 3.13134e-06 0.000190992
0.000400381 -4.61907e-05 3.26119e-06
-4.61907e-05 -3.34273e-05 -5.50183e-06
3.26119e-06 -5.50183e-06 -6.25496e-05
0.00166296 1.69858e-05 1.43407e-05
1.69858e-05 0.000760455 -1.56256e-06
1.43407e-05 -1.56256e-06 0.000768568
0.00249954 5.58964e-06 1.77055e-05
5.58964e-06 0.00130079 -5.23038e-06
1.77055e-05 -5.23038e-06 0.00131352
0.000465206 7.51011e-05 1.21879e-06
7.51011e-05 4.23174e-05 -1.79259e-06
1.21879e-06 -1.79259e-06 -7.73919e-05
0.000564236 7.47959e-05 -1.23198e-06
7.47959e-05 9.16103e-05 -3.55791e-06
-1.23198e-06 -3.55791e-06 2.5543e-05
0.000544405 1.44473e-05 5.08648e-07
1.44473e-05 0.000111584 7.95321e-07
5.08648e-07 7.95321e-07 -4.99197e-06
0.000429904 1.00636e-05 2.01383e-06
1.00636e-05 -3.55744e-05 -4.44639e-06
2.01383e-06 -4.44639e-06 -4.80814e-05
0.000459193 6.30741e-05 -8.91624e-08
6.30741e-05 2.3383e-05 -2.36246e-07
-8.91624e-08 -2.36246e-07 -3.4598e-05
0.000417288 -0.000115816 -2.57983e-06
-0.000115816 2.63548e-05 2.96813e-06
-2.57983e-06 2.96813e-06 -8.02331e-05
0.0020344 1.30125e-05 -9.18891e-06
1.30125e-05 0.000997105 -5.12382e-06
-9.18891e-06 -5.12382e-06 0.00101388
0.000416239 8.01319e-06 -2.77375e-07
8.01319e-06 -4.43049e-05 2.95038e-08
-2.77375e-07 2.95038e-08 -5.60174e-05
0.000479157 3.19309e-06 -5.43026e-07
3.19309e-06 2.63939e-05 3.46401e-06
-5.43026e-07 3.46401e-06 -2.20094e-05
0.000438708 2.71815e-06 -1.9451e-06
2.71815e-06 -3.09525e-05 4.11394e-06
-1.9451e-06 4.11394e-06 -4.37239e-05
0.0020774 2.88643e-05 -5.80811e-06
2.88643e-05 0.00102733 -1.46383e-07
-5.80811e-06 -1.46383e-07 0.00104251
0.00208337 4.40836e-05 -1.52539e-06
4.40836e-05 0.00103417 5.20846e-06
-1.52539e-06 5.20846e-06 0.00104754
-0.00415931 -0.00216843 -0.000304093
-0.00216843 0.00791502 7.14272e-05
-0.000304093 7.14272e-05 0.002964
0.00448128 0.00251197 -0.000400399
0.00251197 0.00216073 0.000128773
-0.000400399 0.000128773 -0.001545
0.00298837 -0.00118753 -0.00067748
-0.00118753 0.00140632 0.000302527
-0.00067748 0.000302527 -0.00364153
0.00392978 0.00245204 0.00148035
0.00245204 0.00902049 -0.000313228
0.00148035 -0.000313228 0.00267322
0.00473022 0.000912588 -5.01975e-05
0.000912588 -0.00064003 2.403e-06
-5.01975e-05 2.403e-06 0.000784194
0.00360105 -0.000680279 0.00010705
-0.000680279 -0.000227698 4.52323e-06
0.00010705 4.52323e-06 0.000141092
0.00198942 -0.000505272 0.000403793
-0.000505272 -0.00679123 -4.99891e-05
0.000403793 -4.99891e-05 -0.0073374
0.027159 0.00498074 -0.00147701
0.00498074 0.0123488 3.72063e-05
-0.00147701 3.72063e-05 0.00721068
0.0159091 0.0143732 -0.00304225
0.0143732 0.0113597 0.00180955
-0.00304225 0.00180955 0.00385967
0.00545327 -0.00106044 5.53676e-05
-0.00106044 -0.00107603 3.2016e-06
5.53676e-05 3.2016e-06 0.000393598
0.00784524 -0.00368769 0.000224951
-0.00368769 -0.00408598 -0.000189768
0.000224951 -0.000189768 -0.00549817
0.023914 0.00757639 -0.000438314
0.00757639 0.00910429 -0.000156764
-0.000438314 -0.000156764 0.00222809
0.02003 0.00545294 0.000168386
0.00545294 0.00685146 0.000487163
0.000168386 0.000487163 0.00240969
0.00171625 -0.00247957 -0.00010533
-0.00247957 -0.00420634 4.77085e-05
-0.00010533 4.77085e-05 -0.00189214
0.00706117 -0.0059331 0.000676251
-0.0059331 -0.000643013 -0.000273328
0.000676251 -0.000273328 -0.0035746
0.014247 0.00400281 -8.4099e-05
0.00400281 0.00493494 -0.00105434
-8.4099e-05 -0.00105434 -0.00201241
0.00994782 -0.000116222 -0.000401103
-0.000116222 -0.000947327 4.79383e-05
-0.000401103 4.79383e-05 -0.00113862
0.00230418 -4.69618e-05 1.17431e-07
-4.69618e-05 0.00137164 1.60528e-05
1.17431e-07 1.60528e-05 0.00107238
0.000181506 7.82139e-05 -1.62648e-06
7.82139e-05 -6.01154e-05 -2.16003e-06
-1.62648e-06 -2.16003e-06 -0.000218191
0.000576058 0.000119455 4.53779e-06
0.000119455 0.000130069 1.91333e-06
4.53779e-06 1.91333e-06 1.74133e-05
-0.00025467 -6.15778e-05 4.80093e-06
-6.15778e-05 -0.000354681 -2.02115e-06
4.80093e-06 -2.02115e-06 -0.000427615
0.000447444 0.000144964 9.61343e-07
0.000144964 6.04988e-05 8.52391e-06
9.61343e-07 8.52391e-06 -0.000137473
0.000516299 7.83384e-05 -7.03402e-08
7.83384e-05 0.000131392 1.2987e-06
-7.03402e-08 1.2987e-06 -4.54284e-05
1.00692e-05 1.29467e-05 2.99164e-06
1.29467e-05 -0.000199328 -4.73355e-07
2.99164e-06 -4.73355e-07 -0.000333652
0.000920855 0.000189928 5.70849e-06
0.000189928 0.000386177 1.0071e-05
5.70849e-06 1.0071e-05 0.000190065
0.00093596 0.000166223 9.51428e-08
0.000166223 0.000407465 -5.14614e-07
9.51428e-08 -5.14614e-07 0.000209663
0.000297429 1.34429e-05 -2.4489e-06
1.34429e-05 -2.82698e-05 -5.02047e-06
-2.4489e-06 -5.02047e-06 -0.000179257
0.000690468 -0.000655818 9.91384e-05
-0.000655818 -0.00152636 -6.30637e-05
9.91384e-05 -6.30637e-05 -0.000965612
0.000288076 -0.000795406 2.83488e-06
-0.000795406 -0.000912829 -1.10034e-05
2.83488e-06 -1.10034e-05 -0.000927604
0.00160025 -0.00114561 -1.62496e-06
-0.00114561 -0.000101161 7.80086e-06
-1.62496e-06 7.80086e-06 -0.000267299
-0.0011404 -0.000810905 2.4775e-06
-0.000810905 -0.00103553 -1.14349e-05
2.4775e-06 -1.14349e-05 -0.00133827
0.00418861 -0.000623866 -4.27538e-05
-0.000623866 0.00267361 7.83625e-05
-4.27538e-05 7.83625e-05 0.00211721
0.000683739 -0.000270145 -1.39008e-06
-0.000270145 0.000504843 4.70952e-06
-1.39008e-06 4.70952e-06 0.000130437
0.000340492 9.59478e-05 5.29716e-08
9.59478e-05 0.000147241 -1.31661e-05
5.29716e-08 -1.31661e-05 -0.000127985
0.000562145 -8.54702e-06 -5.08276e-06
-8.54702e-06 0.000272151 7.58476e-06
-5.08276e-06 7.58476e-06 -2.73906e-05
0.00263152 -0.00124038 -2.48247e-05
-0.00124038 -1.14974e-05 1.57988e-06
-2.48247e-05 1.57988e-06 4.47191e-05
0.00063806 -5.29489e-05 2.05289e-06
-5.29489e-05 0.000391697 2.92265e-06
2.05289e-06 2.92265e-06 7.89621e-05
0.00233346 -0.000410979 7.42128e-06
-0.000410979 0.00148937 -4.07732e-06
7.42128e-06 -4.07732e-06 0.00107278
0.00160236 -0.00101298 1.63782e-05
-0.00101298 9.79141e-05 -5.12678e-06
1.63782e-05 -5.12678e-06 7.08302e-06
0.000527174 -0.000724624 -3.74095e-05
-0.000724624 0.000341008 1.14617e-05
-3.74095e-05 1.14617e-05 -5.13642e-05
0.0025212 -0.00210144 6.00303e-05
-0.00210144 0.000266839 -3.36256e-05
6.00303e-05 -3.36256e-05 -0.000115778
0.000901149 -0.000761202 -1.53901e-05
-0.000761202 0.000368696 3.4151e-05
-1.53901e-05 3.4151e-05 0.000189818
-0.00182869 -0.000154097 8.8614e-06
-0.000154097 -0.000718364 5.53713e-06
8.8614e-06 5.53713e-06 -0.00126031
0.000357543 7.28491e-05 -3.33281e-06
7.28491e-05 0.00014214 7.94053e-06
-3.33281e-06 7.94053e-06 -6.90915e-05
5.86891e-05 -0.000115429 -5.61581e-07
-0.000115429 0.000146524 9.65309e-06
-5.61581e-07 9.65309e-06 -0.000214963
0.00164487 0.000274205 -9.60225e-05
0.000274205 0.00227535 -3.47549e-05
-9.60225e-05 -3.47549e-05 -0.0026788
-0.00777325 0.000426981 -0.000576281
0.000426981 0.00746532 -2.10237e-05
-0.000576281 -2.10237e-05 0.00142984
-0.0138803 -0.00368655 -0.00109699
-0.00368655 -0.00426876 -4.70014e-06
-0.00109699 -4.70014e-06 -0.00671829
0.000263829 0.000394924 1.77584e-05
0.000394924 0.000136999 -1.49666e-06
1.77584e-05 -1.49666e-06 -0.000199595
-0.000788728 0.000669392 -4.93318e-07
0.000669392 -0.000522551 1.04001e-05
-4.93318e-07 1.04001e-05 -0.00103249
0.00300794 0.00141203 5.31724e-05
0.00141203 0.000915738 4.4783e-05
5.31724e-05 4.4783e-05 0.000622629
-0.00428436 0.00241578 0.000148616
0.00241578 0.00857917 6.91212e-05
0.000148616 6.91212e-05 0.00302805
0.00660456 0.00588326 -0.000555697
0.00588326 -0.00113842 -0.000209203
-0.000555697 -0.000209203 -0.00369109
0.000389373 0.00283391 0.000508438
0.00283391 -0.000322999 0.000207114
0.000508438 0.000207114 -0.000132287
-0.00013224 0.00126522 -1.41946e-05
0.00126522 7.15429e-06 -4.54133e-05
-1.41946e-05 -4.54133e-05 -0.000297656
0.0306923 -0.00451477 -5.4185e-05
-0.00451477 0.0115532 -0.000502038
-5.4185e-05 -0.000502038 0.00550191
0.00798875 0.00275172 0.000870342
0.00275172 0.00395154 0.000301326
0.000870342 0.000301326 -0.00277421
0.0141093 -0.00133936 0.00017947
-0.00133936 0.00275895 6.00554e-05
0.00017947 6.00554e-05 0.00390309
0.00139069 0.000741072 9.50137e-06
0.000741072 0.000764887 -1.19296e-06
9.50137e-06 -1.19296e-06 0.000358517
0.00391229 0.00112298 -5.09256e-05
0.00112298 0.00414371 2.7301e-06
-5.09256e-05 2.7301e-06 -0.000772407
0.00222548 0.00118958 0.000112567
0.00118958 0.000566863 -1.07152e-05
0.000112567 -1.07152e-05 -0.00146757
-0.000136229 0.000745162 -6.07569e-06
0.000745162 0.000133693 -5.91258e-06
-6.07569e-06 -5.91258e-06 -0.000326733
-0.000511409 0.00194132 -0.000148733
0.00194132 0.000526845 -8.29825e-05
-0.000148733 -8.29825e-05 -0.000825519
0.00262436 0.00673841 0.000346555
0.00673841 0.0014764 0.000129066
0.000346555 0.000129066 -0.003097
0.0120092 -0.000444623 1.446e-05
-0.000444623 -0.00314349 -0.000230337
1.446e-05 -0.000230337 -0.000908882
0.00886237 -0.00292932 -0.000114767
-0.00292932 0.00496401 -0.000215856
-0.000114767 -0.000215856 -0.00154885
0.0011189 0.000636163 -2.93478e-06
0.000636163 0.000964576 -1.19602e-05
-2.93478e-06 -1.19602e-05 0.000465215
-0.00402601 0.000628842 4.17996e-05
0.000628842 0.000766969 6.12957e-05
4.17996e-05 6.12957e-05 -0.000753922
0.00696115 -0.000743019 0.000226321
-0.000743019 5.77342e-05 -0.000131666
0.000226321 -0.000131666 -0.00162027
0.0096948 4.1506e-05 0.000358966
4.1506e-05 -0.000913162 -1.27747e-05
0.000358966 -1.27747e-05 -0.000949576
-0.00292327 0.000307271 6.07225e-05
0.000307271 0.000148777 -1.50667e-05
6.07225e-05 -1.50667e-05 -0.000872536
0.00990877 0.00416351 0.000409024
0.00416351 0.00594015 0.000161178
0.000409024 0.000161178 -0.000583028
0.00531084 -0.000719952 -4.15794e-05
-0.000719952 0.00320317 0.000375329
-4.15794e-05 0.000375329 -0.00133638
0.00323052 0.000545645 2.79586e-05
0.000545645 0.00204451 1.08973e-05
2.79586e-05 1.08973e-05 0.00170753
0.000374466 0.000289392 -9.03077e-06
0.000289392 0.000491542 -2.03647e-06
-9.03077e-06 -2.03647e-06 4.30631e-05
0.000204212 0.000264643 9.33323e-07
0.000264643 0.000561021 -1.35272e-05
9.33323e-07 -1.35272e-05 -3.88181e-05
0.000147526 0.000111524 2.1551e-06
0.000111524 -5.86804e-05 -3.94979e-06
2.1551e-06 -3.94979e-06 -0.00027196
0.000472904 0.000132294 -1.80787e-07
0.000132294 0.000250016 2.34241e-07
-1.80787e-07 2.34241e-07 1.66568e-05
-0.000238224 1.3896e-05 4.2925e-06
1.3896e-05 0.000235799 -4.61669e-06
4.2925e-06 -4.61669e-06 -0.000276899
0.000516219 3.77918e-05 6.18855e-07
3.77918e-05 0.000258365 -5.63781e-07
6.18855e-07 -5.63781e-07 4.31642e-05
0.00105727 -4.28982e-05 -8.62176e-07
-4.28982e-05 0.000942155 -2.90006e-06
-8.62176e-07 -2.90006e-06 0.000497798
-0.00021935 2.4374e-05 3.15503e-06
2.4374e-05 0.000348296 8.22225e-07
3.15503e-06 8.22225e-07 -0.00020399
-4.40353e-05 -6.36832e-05 1.88042e-06
-6.36832e-05 0.000417554 1.58955e-05
1.88042e-06 1.58955e-05 -6.86961e-05
0.000605348 -4.96961e-05 1.1167e-06
-4.96961e-05 0.000602079 -1.42518e-05
1.1167e-06 -1.42518e-05 0.000255165
-0.000105885 -4.16801e-05 5.31271e-06
-4.16801e-05 -0.000169119 8.36181e-06
5.31271e-06 8.36181e-06 -0.000342833
0.00137623 -4.8975e-05 1.27121e-06
-4.8975e-05 0.000665835 6.04328e-06
1.27121e-06 6.04328e-06 0.000504455
0.000229128 -6.39396e-05 -1.01282e-05
-6.39396e-05 4.10395e-05 1.13149e-05
-1.01282e-05 1.13149e-05 -0.00011281
0.00062746 -9.18878e-05 1.35953e-06
-9.18878e-05 0.000440357 6.31221e-07
1.35953e-06 6.31221e-07 0.000242046
0.000144136 -4.93049e-05 -2.49146e-06
-4.93049e-05 -4.15729e-05 -1.8296e-06
-2.49146e-06 -1.8296e-06 -0.000186861
0.00119381 -0.000297383 3.00717e-06
-0.000297383 0.000587991 2.75383e-06
3.00717e-06 2.75383e-06 0.000436379
0.000514867 -0.000223888 -2.18137e-05
-0.000223888 0.000102403 1.90293e-07
-2.18137e-05 1.90293e-07 3.68406e-05
-0.000600845 -0.000328072 1.56806e-05
-0.000328072 -0.00052888 2.15168e-05
1.56806e-05 2.15168e-05 -0.000869162
7.79149e-05 -0.000124016 1.68585e-06
-0.000124016 -0.000197512 1.49664e-06
1.68585e-06 1.49664e-06 -0.000312116
0.00114316 -0.000357039 -5.99868e-06
-0.000357039 0.000362272 1.04027e-05
-5.99868e-06 1.04027e-05 0.000140503
0.00213691 -0.000713458 -6.42014e-06
-0.000713458 0.000916239 1.19586e-05
-6.42014e-06 1.19586e-05 0.000460342
0.00202511 -0.00074636 -4.54324e-06
-0.00074636 0.000757996 -2.31215e-06
-4.54324e-06 -2.31215e-06 0.000259365
0.001943 -0.00048661 2.99327e-06
-0.00048661 0.000861811 1.20896e-06
2.99327e-06 1.20896e-06 0.000561213
0.000623477 -0.000470453 1.10883e-05
-0.000470453 -7.59256e-06 -3.79905e-06
1.10883e-05 -3.79905e-06 -0.000359065
0.00110824 -0.000214842 3.43357e-06
-0.000214842 0.000510109 -4.35721e-06
3.43357e-06 -4.35721e-06 0.000200231
0.00107283 -0.000244596 -7.94688e-06
-0.000244596 0.000401503 1.86571e-06
-7.94688e-06 1.86571e-06 0.000171874
-0.000160841 -0.000198231 2.17401e-05
-0.000198231 -0.000420212 -1.56171e-05
2.17401e-05 -1.56171e-05 -0.000569964
0.00142076 -0.000152696 -5.31722e-06
-0.000152696 0.00069932 3.66205e-06
-5.31722e-06 3.66205e-06 0.000482122
3.05482e-05 -0.000120204 6.044e-07
-0.000120204 -0.000113783 1.32923e-06
6.044e-07 1.32923e-06 -0.000393326
-0.000138569 -4.48193e-05 1.33169e-06
-4.48193e-05 -0.000317608 -1.45221e-06
1.33169e-06 -1.45221e-06 -0.000521653
0.00207192 -0.000349902 -3.31134e-06
-0.000349902 0.00113791 -1.21273e-07
-3.31134e-06 -1.21273e-07 0.000892361
0.000720259 -0.000147352 -6.14591e-07
-0.000147352 0.000215364 -7.43342e-08
-6.14591e-07 -7.43342e-08 4.22786e-05
0.000425187 -4.70319e-06 3.29268e-06
-4.70319e-06 1.14971e-05 5.16891e-06
3.29268e-06 5.16891e-06 -0.000107543
0.000852283 -0.000183821 -2.65706e-07
-0.000183821 0.0003229 -2.06027e-06
-2.65706e-07 -2.06027e-06 0.000153856
0.000432311 9.00314e-07 -2.0894e-06
9.00314e-07 1.89789e-05 -2.21742e-07
-2.0894e-06 -2.21742e-07 -9.11512e-05
0.00148612 -1.00155e-05 -2.16982e-05
-1.00155e-05 0.000652268 6.44993e-06
-2.16982e-05 6.44993e-06 0.000621511
0.00060097 -8.23444e-05 9.81345e-07
-8.23444e-05 0.000126456 -5.98917e-06
9.81345e-07 -5.98917e-06 2.51444e-05
0.000842284 -1.75924e-05 -1.11755e-05
-1.75924e-05 0.000239577 5.30587e-07
-1.11755e-05 5.30587e-07 0.000209287
0.000857634 3.01266e-05 1.07038e-06
3.01266e-05 0.000234496 3.64211e-06
1.07038e-06 3.64211e-06 0.000231861
0.000429238 -4.00885e-05 3.44087e-06
-4.00885e-05 -2.24835e-05 -6.88991e-06
3.44087e-06 -6.88991e-06 -5.36066e-05
0.0017525 2.90881e-05 1.76167e-05
2.90881e-05 0.000815361 -1.30502e-06
1.76167e-05 -1.30502e-06 0.000821822
0.00255016 1.86482e-05 2.29946e-05
1.86482e-05 0.00133014 -5.62475e-06
2.29946e-05 -5.62475e-06 0.00134273
0.000198235 2.9801e-05 1.36588e-06
2.9801e-05 -0.00011392 2.4891e-06
1.36588e-06 2.4891e-06 -0.000263339
4.00069e-05 2.62272e-05 1.84831e-07
2.62272e-05 -0.000251816 -5.29718e-06
1.84831e-07 -5.29718e-06 -0.000326329
0.000571325 7.3497e-05 -1.5499e-07
7.3497e-05 0.000123499 4.67817e-07
-1.5499e-07 4.67817e-07 -7.29691e-06
0.00043797 1.13435e-05 1.92281e-06
1.13435e-05 -3.20743e-05 -4.72351e-06
1.92281e-06 -4.72351e-06 -4.69512e-05
0.00029742 9.19861e-06 1.75148e-06
9.19861e-06 -8.89929e-05 4.6361e-08
1.75148e-06 4.6361e-08 -0.000151186
0.000186833 -9.96315e-05 -9.83027e-08
-9.96315e-05 -0.000120379 1.32569e-06
-9.83027e-08 1.32569e-06 -0.000236685
0.00208175 -1.31442e-06 -1.36597e-05
-1.31442e-06 0.00102647 -5.21066e-06
-1.36597e-05 -5.21066e-06 0.00104337
0.000423946 7.30648e-06 8.31198e-08
7.30648e-06 -4.02718e-05 -7.79891e-08
8.31198e-08 -7.79891e-08 -5.2397e-05
0.000393909 -1.03809e-05 -3.23955e-06
-1.03809e-05 -2.53921e-05 3.70066e-06
-3.23955e-06 3.70066e-06 -7.90877e-05
0.0020658 1.43065e-05 -4.94576e-06
1.43065e-05 0.00101783 -8.61891e-09
-4.94576e-06 -8.61891e-09 0.00103426
0.000423286 6.5821e-06 -1.69443e-06
6.5821e-06 -3.92996e-05 3.96168e-06
-1.69443e-06 3.96168e-06 -5.10949e-05
0.0020553 2.98109e-05 4.37641e-06
2.98109e-05 0.00101312 5.33371e-06
4.37641e-06 5.33371e-06 0.0010282
-0.000781697 -0.00136597 -0.000332119
-0.00136597 -0.000140545 0.00014297
-0.000332119 0.00014297 -0.00426687
0.00346003 0.00149339 -0.000205325
0.00149339 0.0100317 5.26983e-05
-0.000205325 5.26983e-05 0.00407835
0.0043087 0.000591274 -0.00134972
0.000591274 0.00473235 0.000304848
-0.00134972 0.000304848 0.00243067
0.00059791 0.000127077 8.46564e-06
0.000127077 0.000151315 8.06307e-06
8.46564e-06 8.06307e-06 -1.91138e-05
0.00620147 -0.00136346 -0.000188553
-0.00136346 0.0038914 0.000316962
-0.000188553 0.000316962 0.00115088
0.00451702 -0.00159514 -0.000324706
-0.00159514 0.0021503 3.72232e-05
-0.000324706 3.72232e-05 -0.00297101
0.0175192 0.00643678 0.000313191
0.00643678 0.0108088 -0.000483139
0.000313191 -0.000483139 0.00382392
0.00783441 -0.00163677 0.000150789
-0.00163677 2.00307e-05 -3.10215e-05
0.000150789 -3.10215e-05 0.0010124
0.0151334 -0.00350642 0.000360308
-0.00350642 0.000611231 -0.000217658
0.000360308 -0.000217658 0.000634047
0.0169156 0.00587785 -0.000973765
0.00587785 0.0043992 0.00043777
-0.000973765 0.00043777 -0.00212994
0.0159258 0.00481665 0.000236339
0.00481665 0.00844135 0.000280815
0.000236339 0.000280815 0.00458614
0.0077941 -0.00324772 -0.000101285
-0.00324772 -0.000594828 -5.79283e-06
-0.000101285 -5.79283e-06 0.000655009
0.0139386 -0.00628943 3.97701e-06
-0.00628943 0.00168033 -4.45966e-05
3.97701e-06 -4.45966e-05 -0.000705066
0.0108151 0.00296188 0.00012989
0.00296188 0.00617803 -0.000437505
0.00012989 -0.000437505 -0.000394065
0.0149007 0.00136725 -6.75934e-06
0.00136725 0.00115655 6.3738e-05
-6.75934e-06 6.3738e-05 -2.09656e-05
0.00363204 -0.00341976 -5.46491e-05
-0.00341976 0.000415398 6.97677e-05
-5.46491e-05 6.97677e-05 0.00111165
0.0108462 -0.00620191 0.000267775
-0.00620191 0.00456297 -0.000160795
0.000267775 -0.000160795 0.000594797
0.00960322 -0.000209077 6.1872e-05
-0.000209077 0.00618133 -0.00050348
6.1872e-05 -0.00050348 0.00178117
0.0143722 -0.00019262 -0.000202139
-0.00019262 -0.000758559 0.000319094
-0.000202139 0.000319094 0.000611364
0.000177887 0.000155469 8.98247e-06
0.000155469 -1.49651e-05 1.58564e-05
8.98247e-06 1.58564e-05 -0.000234001
0.000566718 -0.000110263 4.41184e-07
-0.000110263 0.000255236 -8.49261e-08
4.41184e-07 -8.49261e-08 -8.31285e-06
0.000550676 7.73518e-05 5.59887e-06
7.73518e-05 0.000179307 -1.20408e-06
5.59887e-06 -1.20408e-06 1.96545e-05
0.000554555 0.000184263 2.94216e-06
0.000184263 7.37884e-05 1.79186e-05
2.94216e-06 1.79186e-05 -7.72098e-05
0.000882841 0.000247508 2.00261e-07
0.000247508 0.000369357 -6.65263e-07
2.00261e-07 -6.65263e-07 0.000152245
0.00108057 0.0001388 -9.06156e-07
0.0001388 0.000514466 -3.66362e-06
-9.06156e-07 -3.66362e-06 0.000328269
0.00112214 0.000207079 -1.91661e-06
0.000207079 0.000518576 -1.16203e-07
-1.91661e-06 -1.16203e-07 0.00031654
0.00112249 0.000230529 2.59953e-06
0.000230529 0.000547717 1.59494e-06
2.59953e-06 1.59494e-06 0.000335531
0.00103992 -0.000981558 0.000133861
-0.000981558 -0.000978297 -8.63295e-05
0.000133861 -8.63295e-05 -0.000637954
-0.000113632 -0.000828055 -3.24731e-05
-0.000828055 -0.000899315 -1.41201e-05
-3.24731e-05 -1.41201e-05 -0.000894066
0.000574939 -0.000183095 5.93045e-06
-0.000183095 0.000293058 -3.12169e-05
5.93045e-06 -3.12169e-05 -1.73404e-05
0.00201588 -0.000832077 2.76252e-05
-0.000832077 0.00114732 -2.68768e-05
2.76252e-05 -2.68768e-05 0.000766178
0.00276848 -0.000574119 -2.16303e-05
-0.000574119 0.00168606 2.04588e-05
-2.16303e-05 2.04588e-05 0.00127429
0.00182157 -0.000193697 1.10938e-05
-0.000193697 0.00112212 -2.06319e-05
1.10938e-05 -2.06319e-05 0.00078247
5.47089e-05 4.54642e-05 3.32528e-06
4.54642e-05 -5.47423e-05 7.51744e-06
3.32528e-06 7.51744e-06 -0.00027469
0.000497576 -0.00174356 -1.21068e-05
-0.00174356 -0.000661626 -6.88761e-06
-1.21068e-05 -6.88761e-06 -0.000939893
0.00152781 -7.16381e-05 -1.69352e-06
-7.16381e-05 0.0010548 -2.08758e-06
-1.69352e-06 -2.08758e-06 0.000680955
-0.000251347 -0.000260354 -1.17134e-05
-0.000260354 9.74232e-05 9.55997e-06
-1.17134e-05 9.55997e-06 -0.000387758
-0.000572525 -0.000559214 3.1625e-05
-0.000559214 -0.000554082 -3.51472e-06
3.1625e-05 -3.51472e-06 -0.000563122
0.00056085 0.000109475 4.88206e-06
0.000109475 0.000283579 7.0959e-06
4.88206e-06 7.0959e-06 9.56163e-05
-0.000622542 -0.001733 -0.0001176
-0.001733 -0.000221662 -2.21497e-05
-0.0001176 -2.21497e-05 -0.000816482
-0.000916949 -0.000509745 -2.20971e-05
-0.000509745 -0.000259356 2.26319e-05
-2.20971e-05 2.26319e-05 -0.00069632
0.000450932 0.000138174 2.06444e-06
0.000138174 0.000655972 -1.14306e-05
2.06444e-06 -1.14306e-05 0.000118921
0.00190689 0.000301332 -4.05357e-06
0.000301332 0.00141342 4.92149e-06
-4.05357e-06 4.92149e-06 0.000982931
-0.000951685 0.000108392 0.000220358
0.000108392 0.00290639 5.43703e-05
0.000220358 5.43703e-05 0.0010882
6.59309e-05 2.82203e-05 0.000205403
2.82203e-05 0.00131069 -3.7103e-05
0.000205403 -3.7103e-05 -0.00381771
-0.0138793 -0.00051979 -0.000444161
-0.00051979 0.00681752 2.88588e-05
-0.000444161 2.88588e-05 0.000869116
0.00191963 0.000775525 2.17562e-05
0.000775525 0.00117168 4.01402e-08
2.17562e-05 4.01402e-08 0.000763282
-0.000686072 0.000955848 1.2813e-05
0.000955848 -0.000179143 1.12433e-05
1.2813e-05 1.12433e-05 -0.000781748
0.00593369 0.00153325 0.000507845
0.00153325 0.00458347 0.000121547
0.000507845 0.000121547 0.000898933
0.00681696 0.00504505 0.000265974
0.00504505 0.00304815 0.000226324
0.000265974 0.000226324 -0.00100062
0.0035292 0.00341671 -0.000164165
0.00341671 0.00206602 -0.000149063
-0.000164165 -0.000149063 0.000405246
0.00483323 -0.00230065 -0.000184932
-0.00230065 0.00535621 -0.000520109
-0.000184932 -0.000520109 0.000412449
0.00336384 0.000751594 0.000142942
0.000751594 0.000867313 0.000166144
0.000142942 0.000166144 -0.00113825
0.00945948 -0.000439802 -4.89916e-05
-0.000439802 -0.00543963 -0.000268376
-4.89916e-05 -0.000268376 -0.00268621
0.000956742 0.000718453 4.01306e-06
0.000718453 0.00081933 -4.4115e-07
4.01306e-06 -4.4115e-07 0.000276255
-0.00310252 0.000333585 -1.25299e-06
0.000333585 0.000961029 7.65645e-06
-1.25299e-06 7.65645e-06 -0.000731888
0.00580386 -0.000372751 0.000174008
-0.000372751 7.21101e-06 1.49702e-05
0.000174008 1.49702e-05 -0.0012928
-0.00191899 0.000704865 -2.01119e-05
0.000704865 -3.75895e-05 -1.24593e-05
-2.01119e-05 -1.24593e-05 -0.000990637
0.0150888 0.00160602 7.66629e-06
0.00160602 0.00111592 -6.79336e-05
7.66629e-06 -6.79336e-05 -2.34229e-05
0.00392971 0.00261366 0.000313176
0.00261366 0.00502995 0.000189707
0.000313176 0.000189707 -0.00132887
0.0110861 0.000667484 -0.000197068
0.000667484 0.00425132 1.45965e-05
-0.000197068 1.45965e-05 -0.000240903
0.000676447 0.000678561 1.28972e-07
0.000678561 0.00084377 -2.228e-05
1.28972e-07 -2.228e-05 0.000133803
0.00253603 -3.58159e-05 4.91865e-06
-3.58159e-05 0.00127159 1.01252e-05
4.91865e-06 1.01252e-05 -4.00026e-05
0.00409596 -0.00210993 0.000195346
-0.00210993 0.00375021 -0.000281583
0.000195346 -0.000281583 0.00145264
0.0276376 0.00654135 0.000382459
0.00654135 0.0100164 -0.000349757
0.000382459 -0.000349757 0.00535587
0.0101999 -0.000444621 -0.000148188
-0.000444621 0.00672938 0.000570338
-0.000148188 0.000570338 0.00216382
-0.00123917 0.000693731 -0.00010587
0.000693731 0.000723887 -0.000131341
-0.00010587 -0.000131341 -0.000266984
0.00348991 0.00124603 0.0002669
0.00124603 0.00654951 2.1841e-05
0.0002669 2.1841e-05 -0.00281108
0.00154253 0.000480438 1.27682e-05
0.000480438 0.00114671 1.1188e-05
1.27682e-05 1.1188e-05 0.000668414
0.000886554 0.000336358 5.81109e-06
0.000336358 0.000972104 7.15582e-06
5.81109e-06 7.15582e-06 0.000407029
0.000572462 -8.27553e-05 -8.00163e-06
-8.27553e-05 0.00105256 1.50204e-05
-8.00163e-06 1.50204e-05 0.000525776
-0.00104677 -7.18554e-06 2.62993e-06
-7.18554e-06 -0.000732292 -3.39562e-06
2.62993e-06 -3.39562e-06 -0.000937884
-0.000779445 -2.38174e-05 1.48859e-06
-2.38174e-05 -5.75661e-05 4.64586e-06
1.48859e-06 4.64586e-06 -0.000600525
3.47302e-05 3.31932e-05 -3.62648e-06
3.31932e-05 0.000527189 -8.77014e-06
-3.62648e-06 -8.77014e-06 -4.46152e-05
-0.000111339 -1.33212e-05 9.27395e-08
-1.33212e-05 0.00011583 3.13463e-07
9.27395e-08 3.13463e-07 -0.000188955
-0.000212188 -7.66289e-05 2.96014e-06
-7.66289e-05 0.000309575 1.9017e-06
2.96014e-06 1.9017e-06 -0.00017859
0.0021027 -0.000506659 1.19794e-05
-0.000506659 0.00138695 -1.23705e-05
1.19794e-05 -1.23705e-05 0.00102611
-7.50526e-05 -5.16395e-05 -3.70209e-06
-5.16395e-05 4.78937e-06 9.20969e-06
-3.70209e-06 9.20969e-06 -0.000189151
-0.000626432 2.29491e-05 1.07394e-06
2.29491e-05 -0.000497098 4.16545e-06
1.07394e-06 4.16545e-06 -0.000639654
0.000975243 -0.00032867 -1.66222e-06
-0.00032867 0.000467307 6.09767e-06
-1.66222e-06 6.09767e-06 0.000261669
-0.00418652 5.41355e-05 2.63531e-05
5.41355e-05 -0.00241043 2.37774e-05
2.63531e-05 2.37774e-05 -0.00277137
-0.000826694 -9.94567e-05 1.77902e-05
-9.94567e-05 -0.000637122 -9.0428e-07
1.77902e-05 -9.0428e-07 -0.000655266
-3.29931e-05 -0.000377129 -5.62508e-06
-0.000377129 -0.000243338 -5.36817e-06
-5.62508e-06 -5.36817e-06 -0.000542779
0.00163459 -0.000730708 9.3675e-07
-0.000730708 0.00057849 -1.27171e-06
9.3675e-07 -1.27171e-06 -1.18373e-05
0.00191869 -0.000862743 -9.86131e-06
-0.000862743 0.000627975 7.05736e-07
-9.86131e-06 7.05736e-07 6.83024e-05
0.00136832 -0.000388927 4.41208e-06
-0.000388927 0.000481372 -5.33945e-06
4.41208e-06 -5.33945e-06 0.000248279
0.00148526 -0.000632251 1.0906e-06
-0.000632251 0.000507323 1.13271e-06
1.0906e-06 1.13271e-06 6.33234e-05
0.00180814 -0.000762011 4.59422e-06
-0.000762011 0.000561328 -6.34759e-06
4.59422e-06 -6.34759e-06 6.11426e-05
0.00198986 -0.000597073 1.44936e-06
-0.000597073 0.000824533 4.57209e-06
1.44936e-06 4.57209e-06 0.000416319
0.00104912 -0.000615339 2.45545e-06
-0.000615339 0.000161226 -5.29889e-06
2.45545e-06 -5.29889e-06 -0.000297841
0.00102281 -0.00023517 1.28351e-06
-0.00023517 0.000336323 -5.79998e-06
1.28351e-06 -5.79998e-06 6.04221e-05
0.00106352 -0.000412602 -3.86628e-06
-0.000412602 0.000314392 1.88853e-06
-3.86628e-06 1.88853e-06 1.20036e-05
-0.000936776 -0.000249339 1.95103e-07
-0.000249339 -0.000964242 -8.79829e-06
1.95103e-07 -8.79829e-06 -0.00125112
-0.000201796 -8.4691e-05 6.4054e-07
-8.4691e-05 -0.000307768 -5.46361e-06
6.4054e-07 -5.46361e-06 -0.000583971
0.000403691 -0.000192806 4.7992e-07
-0.000192806 0.000101488 1.12475e-07
4.7992e-07 1.12475e-07 -0.000211353
-0.00026465 -0.000174433 8.70573e-06
-0.000174433 -0.000378182 1.12812e-06
8.70573e-06 1.12812e-06 -0.000622089
0.00106754 -0.000185182 -1.16067e-06
-0.000185182 0.000509764 1.89232e-06
-1.16067e-06 1.89232e-06 0.000242834
0.000724457 -0.000150516 4.47722e-07
-0.000150516 0.000235329 3.9913e-07
4.47722e-07 3.9913e-07 1.86393e-05
0.000344489 -3.4018e-05 1.46614e-06
-3.4018e-05 -5.89162e-05 7.02496e-06
1.46614e-06 7.02496e-06 -0.000186106
0.00136098 -0.00023158 -1.73224e-06
-0.00023158 0.000647711 5.3224e-07
-1.73224e-06 5.3224e-07 0.000451827
0.000571415 -3.60938e-05 -1.38362e-06
-3.60938e-05 8.5702e-05 -2.99417e-07
-1.38362e-06 -2.99417e-07 -2.48746e-05
0.000327259 4.76156e-05 3.36051e-06
4.76156e-05 -8.19359e-05 8.83936e-06
3.36051e-06 8.83936e-06 -0.000129181
0.000768748 -9.27471e-05 9.80545e-07
-9.27471e-05 0.000221738 -4.21615e-06
9.80545e-07 -4.21615e-06 0.00011423
0.00043199 -1.73872e-05 -1.60367e-06
-1.73872e-05 -2.6745e-05 -8.0821e-08
-1.60367e-06 -8.0821e-08 -6.49396e-05
0.00277963 9.52359e-05 -7.49544e-07
9.52359e-05 0.00147956 2.98326e-06
-7.49544e-07 2.98326e-06 0.00148124
0.000481072 -3.49426e-05 3.35008e-06
-3.49426e-05 8.11681e-06 -7.49346e-06
3.35008e-06 -7.49346e-06 -2.68886e-05
0.00181165 4.30444e-05 2.08691e-05
4.30444e-05 0.000853005 -1.0021e-06
2.08691e-05 -1.0021e-06 0.000856998
0.00264241 3.44283e-05 3.00045e-05
3.44283e-05 0.00138746 -6.01559e-06
3.00045e-05 -6.01559e-06 0.00139915
0.000238359 3.757e-05 3.77383e-06
3.757e-05 -0.000104886 2.23208e-06
3.77383e-06 2.23208e-06 -0.00024309
0.000124238 1.4618e-05 2.20185e-06
1.4618e-05 -0.000198419 -3.87531e-06
2.20185e-06 -3.87531e-06 -0.000287428
0.000450795 4.84475e-05 -3.85122e-07
4.84475e-05 4.7807e-05 -1.03878e-06
-3.85122e-07 -1.03878e-06 -9.74864e-05
0.000465343 1.47939e-05 1.54865e-06
1.47939e-05 -1.46666e-05 -5.43828e-06
1.54865e-06 -5.43828e-06 -3.39935e-05
0.000119273 2.44057e-05 -8.12174e-07
2.44057e-05 -0.000200927 -2.10397e-06
-8.12174e-07 -2.10397e-06 -0.0002786
0.000624714 7.64322e-05 3.83829e-07
7.64322e-05 0.000174954 2.57213e-06
3.83829e-07 2.57213e-06 3.25849e-05
0.00213847 -1.5408e-05 -1.90589e-05
-1.5408e-05 0.00106185 -5.20526e-06
-1.90589e-05 -5.20526e-06 0.00107833
0.000436641 8.35175e-06 -8.55214e-07
8.35175e-06 -3.39298e-05 -1.31134e-07
-8.55214e-07 -1.31134e-07 -4.82196e-05
3.49784e-05 1.76108e-05 1.81086e-06
1.76108e-05 -0.000254072 3.36262e-06
1.81086e-06 3.36262e-06 -0.000320589
0.00207212 -4.68785e-07 -4.08659e-06
-4.68785e-07 0.00102024 6.28974e-08
-4.08659e-06 6.28974e-08 0.00103721
0.00041329 6.59414e-06 -2.137e-06
6.59414e-06 -4.7615e-05 4.16891e-06
-2.137e-06 4.16891e-06 -5.93364e-05
0.00209574 1.55813e-05 9.7702e-06
1.55813e-05 0.00103755 5.31987e-06
9.7702e-06 5.31987e-06 0.00105359
0.000720928 -0.000102412 0.000218139
-0.000102412 0.00370103 0.000117787
0.000218139 0.000117787 0.00222147
-0.000526306 -0.000555723 -7.26248e-05
-0.000555723 0.000523714 -9.57396e-07
-7.26248e-05 -9.57396e-07 -0.00432503
0.000688071 0.00150634 -0.000197409
0.00150634 0.00951284 -8.31324e-05
-0.000197409 -8.31324e-05 0.0031772
0.000855754 0.000159526 1.10139e-06
0.000159526 0.000299403 1.35907e-07
1.10139e-06 1.35907e-07 0.000137049
0.000247511 0.000115683 8.03819e-06
0.000115683 -7.26884e-05 4.81293e-06
8.03819e-06 4.81293e-06 -0.000236414
0.00142147 0.000247854 1.28315e-05
0.000247854 0.000654248 1.31822e-05
1.28315e-05 1.31822e-05 0.000488459
0.00807493 -0.000871886 -0.000226354
-0.000871886 -2.66974e-05 0.000190283
-0.000226354 0.000190283 -0.00185022
0.00645285 -0.00192267 0.000142713
-0.00192267 0.003468 2.79899e-05
0.000142713 2.79899e-05 0.00160118
0.00467815 -0.00290429 0.000307844
-0.00290429 0.00197897 -0.000330044
0.000307844 -0.000330044 -0.0030473
0.00971061 -0.00389889 -2.38125e-05
-0.00389889 -0.000356374 -4.15217e-05
-2.38125e-05 -4.15217e-05 0.00106924
0.00274491 -0.00548446 -0.000710015
-0.00548446 -0.00226327 6.25172e-05
-0.000710015 6.25172e-05 -0.00378789
0.0293513 0.00568512 0.000482181
0.00568512 0.0136649 0.000263266
0.000482181 0.000263266 0.00586766
0.00827792 -0.000742703 0.000412008
-0.000742703 -0.00189853 -0.00031428
0.000412008 -0.00031428 -0.00304932
0.00265029 -0.00353642 -1.85527e-05
-0.00353642 -0.000893919 1.8242e-05
-1.85527e-05 1.8242e-05 0.000406702
0.00669926 -0.00623086 -0.000211332
-0.00623086 0.00259412 1.28068e-05
-0.000211332 1.28068e-05 -0.00242546
0.00368314 0.00442331 -0.000114366
0.00442331 0.00630704 -0.000375643
-0.000114366 -0.000375643 0.000112061
0.0121461 -0.000237516 -0.000125233
-0.000237516 -0.00304513 0.00017152
-0.000125233 0.00017152 -0.000971143
-0.00123365 -0.00232711 -0.000167756
-0.00232711 0.000231826 8.66006e-05
-0.000167756 8.66006e-05 -0.000270175
0.00904084 -0.00358245 -0.00043242
-0.00358245 0.00595451 0.000247666
-0.00043242 0.000247666 0.000101907
0.00308022 -0.000181088 5.27683e-05
-0.000181088 0.00296735 -0.000341597
5.27683e-05 -0.000341597 -0.00166778
0.0097508 0.000110292 0.000108774
0.000110292 -0.00162653 0.00013978
0.000108774 0.00013978 -0.0016142
-0.000154051 9.45225e-05 1.0545e-05
9.45225e-05 -0.000277797 2.24916e-05
1.0545e-05 2.24916e-05 -0.000415707
0.000671017 2.18121e-05 1.8087e-06
2.18121e-05 0.000279636 -2.4054e-06
1.8087e-06 -2.4054e-06 4.96684e-05
0.000322114 -0.000191106 7.30173e-06
-0.000191106 3.03072e-05 -1.09036e-05
7.30173e-06 -1.09036e-05 -0.000196598
0.000638394 0.000167847 -2.11695e-06
0.000167847 0.000141299 2.3468e-06
-2.11695e-06 2.3468e-06 -1.85295e-05
0.000889878 0.000189997 3.97584e-06
0.000189997 0.00038434 -8.67707e-06
3.97584e-06 -8.67707e-06 0.000172968
0.00124276 0.00023568 -5.42022e-06
0.00023568 0.00059537 -6.56137e-06
-5.42022e-06 -6.56137e-06 0.000390683
0.000984632 -0.00159984 6.92105e-05
-0.00159984 -0.000188715 -1.91596e-05
6.92105e-05 -1.91596e-05 -0.000451974
-0.000123797 -0.000479189 1.2007e-05
-0.000479189 -0.000344309 -2.84312e-05
1.2007e-05 -2.84312e-05 -0.000305757
0.000188847 0.000143869 -3.00218e-06
0.000143869 4.45932e-05 -2.08689e-05
-3.00218e-06 -2.08689e-05 -0.000202519
0.00284135 -0.000582066 8.47401e-05
-0.000582066 0.00180495 -4.13404e-05
8.47401e-05 -4.13404e-05 0.0013565
0.00237737 -0.000166352 8.20863e-06
-0.000166352 0.00151133 -7.00926e-06
8.20863e-06 -7.00926e-06 0.00117359
-0.000454883 9.69493e-05 8.28975e-06
9.69493e-05 -0.000284338 2.41117e-06
8.28975e-06 2.41117e-06 -0.000498469
0.000146673 5.82525e-05 3.3509e-06
5.82525e-05 0.000312774 1.90421e-06
3.3509e-06 1.90421e-06 -6.97454e-05
0.00193653 -0.00184298 -5.8181e-05
-0.00184298 0.00100895 1.95267e-06
-5.8181e-05 1.95267e-06 0.000311018
0.000147349 -4.33738e-05 -6.34474e-06
-4.33738e-05 0.00056276 1.0392e-06
-6.34474e-06 1.0392e-06 -3.73835e-05
0.000205314 -0.000435824 -1.4032e-05
-0.000435824 0.000535826 -1.91132e-06
-1.4032e-05 -1.91132e-06 -3.82154e-05
0.00097393 0.00022537 5.62505e-06
0.00022537 0.000784765 -1.16655e-05
5.62505e-06 -1.16655e-05 0.000469512
-0.00272547 -0.000416537 -4.15731e-05
-0.000416537 -0.000220172 -1.56718e-05
-4.15731e-05 -1.56718e-05 -0.00125337
0.000413084 -0.000220792 -1.74529e-05
-0.000220792 0.00104762 -6.78349e-06
-1.74529e-05 -6.78349e-06 0.000369897
-0.002059 -5.03274e-05 -2.26862e-05
-5.03274e-05 -0.000489359 3.17075e-08
-2.26862e-05 3.17075e-08 -0.00111747
0.000358628 0.000416663 -1.00937e-05
0.000416663 -0.000389896 1.41447e-06
-1.00937e-05 1.41447e-06 -0.00292179
-0.00204148 0.000514197 0.000124644
0.000514197 0.00264188 -4.34844e-06
0.000124644 -4.34844e-06 0.000763332
-0.00112451 -9.65041e-05 0.000426031
-9.65041e-05 0.000523317 4.54445e-05
0.000426031 4.54445e-05 -0.00455609
0.00024883 0.000719316 9.47687e-06
0.000719316 0.000367127 1.96853e-05
9.47687e-06 1.96853e-05 -0.000207434
0.000171566 0.00112478 -2.0507e-05
0.00112478 0.000630668 -2.77988e-05
-2.0507e-05 -2.77988e-05 -0.000268332
-0.00268917 0.00029796 -0.000125063
0.00029796 0.00118333 -4.55536e-05
-0.000125063 -4.55536e-05 -0.000648661
-0.00447367 0.000873999 0.00013672
0.000873999 0.00350593 0.000225647
0.00013672 0.000225647 -0.00252787
0.00134483 0.000719568 -0.00015697
0.000719568 -0.00170599 -0.000492781
-0.00015697 -0.000492781 -0.00751308
0.00507047 -5.12572e-05 0.000110138
-5.12572e-05 -0.000197698 5.84403e-05
0.000110138 5.84403e-05 -0.000910687
0.00745411 -0.00047785 -0.000388351
-0.00047785 -0.00193337 0.000294117
-0.000388351 0.000294117 -0.00315161
0.000266015 0.000528503 -3.98043e-06
0.000528503 0.000678897 -3.45104e-07
-3.98043e-06 -3.45104e-07 5.59774e-05
0.00150165 0.000185913 4.78032e-05
0.000185913 0.00118884 1.60374e-05
4.78032e-05 1.60374e-05 -8.1869e-05
0.00535472 -0.00142386 -0.000132672
-0.00142386 0.00337546 -1.34732e-05
-0.000132672 -1.34732e-05 0.00154259
-0.000301837 0.000880603 -0.000151167
0.000880603 0.00194622 -1.47589e-05
-0.000151167 -1.47589e-05 6.19903e-05
0.0193918 0.00630116 -0.000150617
0.00630116 0.00702547 -0.000478745
-0.000150617 -0.000478745 0.00243438
0.00526163 0.00386748 9.89987e-05
0.00386748 0.00657217 0.000403655
9.89987e-05 0.000403655 -0.000165871
0.00565877 0.00140069 7.86486e-05
0.00140069 0.00669252 -1.02472e-05
7.86486e-05 -1.02472e-05 -0.00103188
0.000201348 4.17103e-05 2.77145e-05
4.17103e-05 0.00151589 -1.94262e-05
2.77145e-05 -1.94262e-05 0.000156153
0.000214632 -0.00011909 -0.000204994
-0.00011909 0.00417327 -7.93253e-08
-0.000204994 -7.93253e-08 0.00243083
0.00113898 -0.000952664 0.00085551
-0.000952664 0.000539749 -0.000279027
0.00085551 -0.000279027 -0.00498315
0.0272484 0.0106536 -0.000124449
0.0106536 0.0187883 -5.01209e-05
-0.000124449 -5.01209e-05 0.0119074
0.0130767 0.00472517 0.000138102
0.00472517 0.00518199 0.00103088
0.000138102 0.00103088 -0.00174933
0.0123697 -0.00486219 0.000438564
-0.00486219 0.00704047 -0.000309805
0.000438564 -0.000309805 5.05904e-06
0.00206844 -0.000805896 -7.54967e-05
-0.000805896 0.00340256 4.74759e-05
-7.54967e-05 4.74759e-05 0.00213454
0.000900529 0.000287943 -4.97498e-06
0.000287943 0.000993957 3.37672e-06
-4.97498e-06 3.37672e-06 0.000479065
-1.42374e-05 -9.31463e-05 -5.13183e-07
-9.31463e-05 0.00059449 -5.49538e-06
-5.13183e-07 -5.49538e-06 5.16343e-06
0.000995834 -0.000602512 5.18749e-05
-0.000602512 0.000911929 -1.61732e-05
5.18749e-05 -1.61732e-05 0.000242627
0.000255642 -7.51043e-05 -3.75032e-06
-7.51043e-05 0.000290251 1.29866e-05
-3.75032e-06 1.29866e-05 3.49764e-05
-0.000110468 -0.000104718 -5.24851e-06
-0.000104718 0.000308661 -1.94536e-05
-5.24851e-06 -1.94536e-05 -0.000139256
0.00075445 -0.000340048 -5.07458e-06
-0.000340048 0.000734842 7.5335e-07
-5.07458e-06 7.5335e-07 0.00035873
0.00119311 -0.000774033 2.96131e-05
-0.000774033 0.000584392 -1.6263e-05
2.96131e-05 -1.6263e-05 0.000152301
0.000828354 -0.000384253 3.162e-06
-0.000384253 0.000412129 7.53596e-07
3.162e-06 7.53596e-07 0.000123485
0.00137696 -0.000694893 1.82087e-05
-0.000694893 0.000635904 -4.26721e-06
1.82087e-05 -4.26721e-06 0.000172286
0.00146477 -0.00078246 1.27022e-05
-0.00078246 0.000645542 -2.24978e-06
1.27022e-05 -2.24978e-06 -0.000119429
0.000501119 -0.00039981 -8.77348e-06
-0.00039981 3.85622e-05 -5.8917e-06
-8.77348e-06 -5.8917e-06 -0.000206328
0.00233805 -0.000823306 -3.63706e-06
-0.000823306 0.000954796 -1.57354e-06
-3.63706e-06 -1.57354e-06 0.000366842
0.00175432 -0.000949714 -1.45167e-05
-0.000949714 0.000467543 -1.67459e-06
-1.45167e-05 -1.67459e-06 -0.000220861
0.00238921 -0.00111114 -1.38922e-05
-0.00111114 0.000653131 7.70397e-07
-1.38922e-05 7.70397e-07 3.6744e-05
0.00214609 -0.000967168 -4.68811e-06
-0.000967168 0.000695871 -1.12775e-06
-4.68811e-06 -1.12775e-06 0.000121345
0.0017279 -0.000836122 -5.49763e-06
-0.000836122 0.000511141 7.67752e-07
-5.49763e-06 7.67752e-07 -4.57444e-05
0.00127665 -0.000612881 -8.9813e-08
-0.000612881 0.000354605 -7.03605e-06
-8.9813e-08 -7.03605e-06 -9.09384e-05
0.00163404 -0.000711793 7.82451e-06
-0.000711793 0.000507907 -5.80579e-06
7.82451e-06 -5.80579e-06 2.90934e-05
0.00177003 -0.000769593 7.96959e-06
-0.000769593 0.000538449 -1.38314e-06
7.96959e-06 -1.38314e-06 3.71717e-05
0.00146032 -0.000358688 2.74283e-06
-0.000358688 0.000518949 1.72511e-07
2.74283e-06 1.72511e-07 0.000215452
0.00117121 -0.000519697 6.47023e-06
-0.000519697 0.000298096 -4.24127e-06
6.47023e-06 -4.24127e-06 -9.4017e-05
-0.000273752 -0.000441818 -1.19908e-05
-0.000441818 -0.000656676 -3.57234e-06
-1.19908e-05 -3.57234e-06 -0.00106664
0.000252563 -0.000130139 1.53197e-08
-0.000130139 -6.2131e-05 -6.12039e-06
1.53197e-08 -6.12039e-06 -0.000346881
0.000892889 -0.000282059 -7.33056e-07
-0.000282059 0.000279407 -8.0898e-07
-7.33056e-07 -8.0898e-07 -8.27464e-06
-8.92512e-05 -0.000313879 -7.16783e-06
-0.000313879 -0.000408042 -1.32862e-06
-7.16783e-06 -1.32862e-06 -0.000707617
0.000288902 -8.43901e-05 -5.15794e-07
-8.43901e-05 -8.07995e-05 6.92423e-06
-5.15794e-07 6.92423e-06 -0.000247319
0.000802438 -0.000152046 -8.88146e-09
-0.000152046 0.000314386 3.99368e-07
-8.88146e-09 3.99368e-07 4.16847e-05
-0.000222021 -0.000217312 -9.96046e-07
-0.000217312 -0.000274932 4.8579e-06
-9.96046e-07 4.8579e-06 -0.000580585
0.00156916 -0.000222272 -1.34007e-07
-0.000222272 0.0007794 2.15594e-06
-1.34007e-07 2.15594e-06 0.0005509
0.000707992 -9.03331e-05 -3.85463e-07
-9.03331e-05 0.000174505 -2.33063e-07
-3.85463e-07 -2.33063e-07 3.91354e-05
0.000342054 1.56537e-05 3.10594e-06
1.56537e-05 -6.95601e-05 1.19973e-05
3.10594e-06 1.19973e-05 -0.000125086
0.000739753 -8.96145e-05 4.40781e-07
-8.96145e-05 0.000193717 -5.05577e-06
4.40781e-07 -5.05577e-06 7.75038e-05
0.000443407 -8.40381e-07 -4.40067e-06
-8.40381e-07 -1.56031e-05 -3.57109e-07
-4.40067e-06 -3.57109e-07 -5.9992e-05
0.00308992 0.000100461 -4.69609e-05
0.000100461 0.00168661 5.49588e-06
-4.69609e-05 5.49588e-06 0.00168845
0.00048328 -2.76147e-05 2.99924e-06
-2.76147e-05 3.29361e-06 -7.62861e-06
2.99924e-06 -7.62861e-06 -3.43725e-05
0.00189282 6.22264e-05 2.6109e-05
6.22264e-05 0.000907974 -7.209e-07
2.6109e-05 -7.209e-07 0.000907976
0.00286143 5.54946e-05 3.80641e-05
5.54946e-05 0.00152944 -5.80175e-06
3.80641e-05 -5.80175e-06 0.00153852
0.000822333 0.000120126 6.02942e-06
0.000120126 0.000277055 -2.29096e-06
6.02942e-06 -2.29096e-06 0.00011454
0.000501111 6.17274e-05 3.91798e-06
6.17274e-05 4.55937e-05 -3.39459e-06
3.91798e-06 -3.39459e-06 -5.27683e-05
0.000406223 5.99289e-05 -3.80226e-07
5.99289e-05 1.84824e-05 -1.12853e-06
-3.80226e-07 -1.12853e-06 -0.000133569
0.000453172 1.57575e-05 1.33199e-06
1.57575e-05 -2.13121e-05 -6.79623e-06
1.33199e-06 -6.79623e-06 -4.68042e-05
0.000271901 4.60991e-05 -2.47782e-06
4.60991e-05 -0.000101142 -2.25259e-06
-2.47782e-06 -2.25259e-06 -0.000190449
0.000652063 9.79562e-05 -1.9715e-06
9.79562e-05 0.000183253 -2.99555e-06
-1.9715e-06 -2.99555e-06 3.75128e-05
0.00224675 -3.17896e-05 -2.2399e-05
-3.17896e-05 0.0011318 -5.42888e-06
-2.2399e-05 -5.42888e-06 0.00114661
0.000428371 -1.52614e-07 6.36909e-07
-1.52614e-07 -3.95404e-05 -2.1412e-07
6.36909e-07 -2.1412e-07 -5.78795e-05
0.000103565 2.0652e-05 -1.94815e-06
2.0652e-05 -0.000210876 1.13893e-06
-1.94815e-06 1.13893e-06 -0.000290962
0.0021502 -1.49813e-05 -5.90947e-06
-1.49813e-05 0.00106954 1.28343e-07
-5.90947e-06 1.28343e-07 0.00108604
0.000428388 2.70211e-06 -3.55011e-06
2.70211e-06 -4.00317e-05 4.47697e-06
-3.55011e-06 4.47697e-06 -5.37824e-05
0.00211915 9.7901e-07 1.46186e-05
9.7901e-07 0.00105074 5.26045e-06
1.46186e-05 5.26045e-06 0.00106747
0.00221196 -0.000363443 -0.000113881
-0.000363443 0.00103919 2.77328e-05
-0.000113881 2.77328e-05 -0.00030227
-0.00142983 -0.000147749 0.000112651
-0.000147749 0.00321113 -5.29843e-06
0.000112651 -5.29843e-06 0.00125452
-0.000908406 -0.00038978 0.00017054
-0.00038978 0.00115537 -0.000232685
0.00017054 -0.000232685 -0.00443788
-0.000194739 1.49624e-05 4.11872e-06
1.49624e-05 -0.000290325 -3.62353e-08
4.11872e-06 -3.62353e-08 -0.00052093
0.00309616 0.000212706 5.50515e-06
0.000212706 0.00173598 7.22829e-06
5.50515e-06 7.22829e-06 0.00152301
0.000516163 0.000156636 -4.7048e-06
0.000156636 8.57975e-05 -7.99101e-06
-4.7048e-06 -7.99101e-06 -7.39428e-05
2.69996e-05 7.08834e-05 1.15135e-06
7.08834e-05 -0.000230414 -1.04059e-06
1.15135e-06 -1.04059e-06 -0.000389798
0.000138636 9.1099e-05 1.51065e-07
9.1099e-05 -0.000189459 -1.80748e-06
1.51065e-07 -1.80748e-06 -0.000311327
8.83308e-05 9.03513e-05 6.17874e-06
9.03513e-05 -0.000184059 4.54295e-06
6.17874e-06 4.54295e-06 -0.00033875
-0.000218322 7.69826e-05 1.65236e-05
7.69826e-05 -0.0003585 4.65165e-06
1.65236e-05 4.65165e-06 -0.000460753
0.00329498 0.0016891 0.000284063
0.0016891 -0.000164263 0.000262298
0.000284063 0.000262298 -0.00198816
0.00663159 -0.000474446 -8.89161e-05
-0.000474446 0.000120488 4.94705e-05
-8.89161e-05 4.94705e-05 -0.00170252
0.00485724 -0.000972636 0.000372779
-0.000972636 0.00377798 -0.000131297
0.000372779 -0.000131297 0.0016044
0.00984675 -0.000109571 -1.08831e-05
-0.000109571 -0.00544011 0.000191652
-1.08831e-05 0.000191652 -0.00266494
0.00708676 -0.00456313 -0.000160662
-0.00456313 0.00108421 3.47551e-05
-0.000160662 3.47551e-05 0.00172175
0.00110009 -0.00545295 -0.000397823
-0.00545295 0.0018637 0.000144379
-0.000397823 0.000144379 -0.00449812
0.0207361 0.00487153 0.000209359
0.00487153 0.00853525 -0.000235405
0.000209359 -0.000235405 0.00255478
0.00242302 -0.00345863 -6.75832e-05
-0.00345863 0.000285019 3.765e-05
-6.75832e-05 3.765e-05 0.000802651
-0.00117986 -0.00126919 -8.59503e-05
-0.00126919 0.00498158 5.57508e-05
-8.59503e-05 5.57508e-05 -0.00314384
0.0123947 0.000382963 0.000288091
0.000382963 0.0047285 -4.11892e-05
0.000288091 -4.11892e-05 0.000248947
0.0179472 -0.00196164 -8.51282e-05
-0.00196164 0.00248047 -8.51747e-06
-8.51282e-05 -8.51747e-06 0.00311691
-0.00415049 -0.000555432 -0.000213577
-0.000555432 -0.000476663 0.000206451
-0.000213577 0.000206451 -0.000974174
0.00199651 0.00191775 -0.000260434
0.00191775 0.00570832 -0.00015388
-0.000260434 -0.00015388 -0.00248671
0.00324705 -0.00641245 -3.55248e-06
-0.00641245 0.0011797 -0.000252491
-3.55248e-06 -0.000252491 -0.00542078
0.0173595 -0.00306752 0.000269771
-0.00306752 0.00675922 -0.00073433
0.000269771 -0.00073433 0.00351638
0.00012521 -1.00352e-06 2.45866e-05
-1.00352e-06 0.000195278 -2.2086e-06
2.45866e-05 -2.2086e-06 -0.000141902
0.000678345 0.000195678 -2.17821e-06
0.000195678 0.000273202 -3.99871e-06
-2.17821e-06 -3.99871e-06 0.00011744
0.000766021 -1.80323e-06 -1.11573e-07
-1.80323e-06 0.000358319 -6.54387e-06
-1.11573e-07 -6.54387e-06 0.000105606
0.000914158 0.000179438 -3.0009e-06
0.000179438 0.000343926 -1.31955e-05
-3.0009e-06 -1.31955e-05 0.000166567
0.00100748 -0.00149232 0.000102226
-0.00149232 0.00048971 2.85038e-05
0.000102226 2.85038e-05 -0.00018649
0.000991941 -0.00041687 6.10151e-06
-0.00041687 0.00109161 -2.33909e-05
6.10151e-06 -2.33909e-05 0.000398117
0.000576662 0.000106191 -2.32324e-05
0.000106191 0.000349364 -2.27289e-05
-2.32324e-05 -2.27289e-05 0.000154847
0.000985424 -3.52273e-05 1.06986e-06
-3.52273e-05 0.000752744 -1.65143e-05
1.06986e-06 -1.65143e-05 0.000435927
0.000176861 -4.87862e-05 -6.05469e-07
-4.87862e-05 0.000591544 7.84226e-06
-6.05469e-07 7.84226e-06 7.03781e-05
8.08669e-05 9.49826e-05 2.07583e-06
9.49826e-05 0.000170171 3.78393e-06
2.07583e-06 3.78393e-06 -0.000100169
0.000510978 -4.51139e-05 9.96267e-07
-4.51139e-05 0.000881443 1.7082e-06
9.96267e-07 1.7082e-06 0.000326655
0.000242422 -0.000887911 4.85272e-06
-0.000887911 0.00120074 -4.34571e-06
4.85272e-06 -4.34571e-06 -0.000243202
0.000545024 -0.000147097 -4.10475e-06
-0.000147097 0.00125003 -1.20915e-05
-4.10475e-06 -1.20915e-05 0.000604103
0.000140284 0.000125787 2.15969e-06
0.000125787 0.000341272 -8.08915e-06
2.15969e-06 -8.08915e-06 2.7241e-05
-0.000412915 0.0003143 -0.000187108
0.0003143 0.00278391 -1.86334e-05
-0.000187108 -1.86334e-05 0.000587124
0.000456524 0.000370415 -1.32512e-05
0.000370415 0.001088 6.1008e-06
-1.32512e-05 6.1008e-06 0.000459668
-0.00284451 -1.85054e-05 -9.75457e-05
-1.85054e-05 0.00281913 -6.64491e-05
-9.75457e-05 -6.64491e-05 0.00101609
0.00157383 0.000157625 2.77942e-05
0.000157625 0.000481636 1.37462e-05
2.77942e-05 1.37462e-05 -0.000978814
-0.00389684 0.000797668 -6.42155e-05
0.000797668 0.00205503 -8.83381e-05
-6.42155e-05 -8.83381e-05 -7.71728e-05
0.000334023 0.000421081 -2.02364e-05
0.000421081 0.000829806 2.60988e-06
-2.02364e-05 2.60988e-06 0.000298394
-0.00132061 0.00106201 0.000209612
0.00106201 0.000673707 0.000115226
0.000209612 0.000115226 -0.000374755
0.00099959 6.80505e-05 9.35572e-05
6.80505e-05 0.00124072 -9.8764e-06
9.35572e-05 -9.8764e-06 0.000248801
0.00680236 -0.00242163 0.000346786
-0.00242163 0.00667387 -0.000203108
0.000346786 -0.000203108 -0.00247408
0.0223154 0.00438277 -0.000244933
0.00438277 0.00894017 0.000220907
-0.000244933 0.000220907 0.00276741
0.00318859 -0.000860534 -0.00033483
-0.000860534 0.00256023 0.000101781
-0.00033483 0.000101781 0.000605607
0.0148906 0.00534904 -0.000188999
0.00534904 0.00878085 -0.00028024
-0.000188999 -0.00028024 0.0045059
0.000462722 0.000255456 -5.11784e-05
0.000255456 0.00149194 9.13849e-06
-5.11784e-05 9.13849e-06 0.000193844
-0.000220247 -0.000404555 -0.000116545
-0.000404555 0.00318057 1.55286e-06
-0.000116545 1.55286e-06 0.0017489
0.00271845 -0.00191736 0.000308566
-0.00191736 0.00185571 -5.66379e-05
0.000308566 -5.66379e-05 -0.00351709
-0.00365788 -3.31049e-05 6.29046e-05
-3.31049e-05 -7.72197e-05 3.73095e-05
6.29046e-05 3.73095e-05 -0.000780905
0.022265 0.0126251 0.000853757
0.0126251 0.0156586 -0.000303177
0.000853757 -0.000303177 0.00840178
0.0109809 0.00339715 -0.000171005
0.00339715 0.00663438 0.000438793
-0.000171005 0.000438793 5.74222e-06
-0.00235328 -0.00156619 0.000239381
-0.00156619 0.00359892 -0.000180706
0.000239381 -0.000180706 -0.00486801
-0.00182663 -0.000546423 -2.46353e-05
-0.000546423 0.000426817 -3.22043e-05
-2.46353e-05 -3.22043e-05 -0.000913479
0.000988039 -0.00113877 0.000387505
-0.00113877 -1.18356e-05 -0.000100085
0.000387505 -0.000100085 -0.00414011
0.00151705 0.00204245 -0.00186125
0.00204245 0.00979177 0.000388772
-0.00186125 0.000388772 0.00386027
0.0233449 0.00856255 -0.000714281
0.00856255 0.00857066 0.00048913
-0.000714281 0.00048913 0.00157883
0.00636673 -0.00455389 -0.00023418
-0.00455389 0.00346893 0.000102673
-0.00023418 0.000102673 -5.73323e-05
0.00352741 -0.00232847 5.50836e-05
-0.00232847 0.00387539 1.64884e-05
5.50836e-05 1.64884e-05 0.00251201
8.66627e-05 -8.21202e-05 2.06014e-06
-8.21202e-05 0.000605141 -1.6941e-05
2.06014e-06 -1.6941e-05 -4.10069e-05
3.78649e-05 -0.000457748 4.8256e-06
-0.000457748 0.000475968 -2.04332e-06
4.8256e-06 -2.04332e-06 -0.000228952
0.00115111 -0.00111074 -1.17132e-06
-0.00111074 0.000772422 1.5036e-06
-1.17132e-06 1.5036e-06 0.000205694
-0.000217699 -0.000196488 -4.54987e-06
-0.000196488 0.000287862 9.08887e-06
-4.54987e-06 9.08887e-06 -9.74172e-05
0.000265797 -0.000556214 -2.29225e-06
-0.000556214 0.00022855 6.40855e-06
-2.29225e-06 6.40855e-06 -0.000153259
0.00260745 -0.00104454 4.02209e-05
-0.00104454 0.00105774 -3.21528e-05
4.02209e-05 -3.21528e-05 0.000550266
0.00634958 -0.00137477 -1.43172e-05
-0.00137477 0.003346 1.32858e-07
-1.43172e-05 1.32858e-07 0.00278269
0.00271482 -0.000963448 1.08021e-05
-0.000963448 0.00125317 -4.15209e-06
1.08021e-05 -4.15209e-06 0.000494021
0.00236099 -0.00114616 3.24242e-06
-0.00114616 0.000709136 -2.07405e-05
3.24242e-06 -2.07405e-05 -4.77336e-05
0.00242912 -0.00082958 -1.33803e-05
-0.00082958 0.000975057 -6.98789e-06
-1.33803e-05 -6.98789e-06 0.000406253
0.00222038 -0.00101986 5.1724e-07
-0.00101986 0.00071616 -1.88807e-06
5.1724e-07 -1.88807e-06 8.43564e-06
0.00281414 -0.00120174 -8.64195e-06
-0.00120174 0.000902173 -1.02158e-05
-8.64195e-06 -1.02158e-05 0.000212942
0.0024171 -0.000907739 -1.61264e-06
-0.000907739 0.000450175 -6.13135e-06
-1.61264e-06 -6.13135e-06 -3.49657e-07
0.00281443 -0.00114575 -1.09729e-05
-0.00114575 0.000859 9.00568e-08
-1.09729e-05 9.00568e-08 0.000266077
0.00264134 -0.00114419 -4.08665e-06
-0.00114419 0.000787394 -5.45221e-08
-4.08665e-06 -5.45221e-08 0.000160556
0.00198134 -0.000932629 6.15561e-06
-0.000932629 0.000612867 -6.00612e-06
6.15561e-06 -6.00612e-06 6.13887e-05
0.00171495 -0.000893452 3.24921e-06
-0.000893452 0.000450391 -1.3411e-06
3.24921e-06 -1.3411e-06 -9.78547e-05
0.00151964 -0.000805427 7.03165e-06
-0.000805427 0.000378115 -1.11308e-06
7.03165e-06 -1.11308e-06 -0.000174472
0.00148304 -0.000603183 7.8909e-06
-0.000603183 0.000459769 3.09619e-06
7.8909e-06 3.09619e-06 2.68196e-05
0.00177322 -0.000728504 -1.01848e-06
-0.000728504 0.000604514 -2.11642e-06
-1.01848e-06 -2.11642e-06 0.000120022
0.00175374 -0.000779987 4.35015e-06
-0.000779987 0.000529956 6.15556e-06
4.35015e-06 6.15556e-06 2.7096e-05
0.00149356 -0.000232463 1.25701e-07
-0.000232463 0.000575761 -5.15039e-06
1.25701e-07 -5.15039e-06 0.000325035
0.000865063 -0.000310461 -3.12368e-06
-0.000310461 0.000167031 2.53626e-06
-3.12368e-06 2.53626e-06 -0.000124266
0.000620619 -0.000462388 -5.40877e-06
-0.000462388 -6.24174e-05 -8.41919e-06
-5.40877e-06 -8.41919e-06 -0.000439682
1.9408e-05 -9.49465e-05 -1.62329e-06
-9.49465e-05 -0.000227074 3.12e-06
-1.62329e-06 3.12e-06 -0.000459314
0.000849035 -0.00024125 1.41161e-07
-0.00024125 0.000323554 1.01705e-06
1.41161e-07 1.01705e-06 2.63559e-05
0.000594743 -0.000293993 7.86237e-07
-0.000293993 0.000136462 1.43366e-06
7.86237e-07 1.43366e-06 -0.000173082
0.000374666 -4.08635e-05 -9.11217e-06
-4.08635e-05 -6.79882e-05 1.74543e-05
-9.11217e-06 1.74543e-05 -0.000125753
0.00066903 -0.000107007 5.18689e-07
-0.000107007 0.00014966 3.80066e-07
5.18689e-07 3.80066e-07 -1.72399e-05
0.00164857 -0.000246423 -7.28619e-07
-0.000246423 0.000836201 4.76509e-06
-7.28619e-07 4.76509e-06 0.000565994
0.000853763 -0.000104883 5.36701e-07
-0.000104883 0.000263701 -6.3529e-06
5.36701e-07 -6.3529e-06 0.000125623
0.000401848 -3.67422e-06 -8.79849e-07
-3.67422e-06 -4.00725e-05 -5.75547e-07
-8.79849e-07 -5.75547e-07 -9.206e-05
0.00323992 0.000130292 -4.67822e-05
0.000130292 0.00179366 5.70698e-06
-4.67822e-05 5.70698e-06 0.00178847
0.000515335 -1.96932e-05 3.13448e-06
-1.96932e-05 2.32497e-05 -9.34548e-06
3.13448e-06 -9.34548e-06 -1.80666e-05
0.00302637 0.000101516 6.00514e-06
0.000101516 0.00164522 7.62828e-07
6.00514e-06 7.62828e-07 0.00164709
0.00287832 7.66557e-05 4.18566e-05
7.66557e-05 0.00154268 -5.40625e-06
4.18566e-05 -5.40625e-06 0.00154931
0.00162487 0.000102656 6.51238e-06
0.000102656 0.000945919 -7.79856e-06
6.51238e-06 -7.79856e-06 0.000643167
0.00168613 0.000206162 8.3187e-06
0.000206162 0.000937296 -8.54958e-06
8.3187e-06 -8.54958e-06 0.000682478
0.000539351 4.86036e-05 6.27302e-06
4.86036e-05 6.20095e-05 -6.25753e-06
6.27302e-06 -6.25753e-06 -4.88054e-05
0.000698651 0.000137687 -1.72555e-07
0.000137687 0.000218903 6.38015e-07
-1.72555e-07 6.38015e-07 4.92768e-05
0.000424982 -8.45807e-06 4.20302e-06
-8.45807e-06 -3.62318e-05 -8.14616e-06
4.20302e-06 -8.14616e-06 -6.71043e-05
0.000521588 6.45734e-05 1.52137e-07
6.45734e-05 5.9204e-05 -3.00128e-07
1.52137e-07 -3.00128e-07 -3.92468e-05
0.000634994 6.69754e-05 -6.53142e-06
6.69754e-05 0.00015295 -2.92359e-06
-6.53142e-06 -2.92359e-06 6.74608e-06
0.00246203 -4.96675e-05 -2.90627e-05
-4.96675e-05 0.00127292 -5.76476e-06
-2.90627e-05 -5.76476e-06 0.00128479
0.000441148 7.09502e-06 -1.02659e-06
7.09502e-06 -2.8271e-05 -1.64157e-07
-1.02659e-06 -1.64157e-07 -5.31769e-05
0.000499715 6.91546e-05 -4.9729e-06
6.91546e-05 4.79869e-05 1.05409e-06
-4.9729e-06 1.05409e-06 -4.21549e-05
0.00226149 -3.1843e-05 -5.20914e-06
-3.1843e-05 0.00114136 2.86487e-07
-5.20914e-06 2.86487e-07 0.00115618
0.000439315 3.89237e-06 -3.59579e-06
3.89237e-06 -3.33921e-05 4.96482e-06
-3.59579e-06 4.96482e-06 -5.11694e-05
0.00214458 -1.47966e-05 1.78915e-05
-1.47966e-05 0.00106571 5.14938e-06
1.78915e-05 5.14938e-06 0.00108223
-0.00268309 0.00062579 -1.98355e-05
0.00062579 0.00139001 -9.88291e-05
-1.98355e-05 -9.88291e-05 -0.000197292
0.00271084 -0.000301307 -2.00684e-05
-0.000301307 0.00160572 -3.43112e-05
-2.00684e-05 -3.43112e-05 0.000484501
4.9418e-05 -0.000335836 2.51094e-05
-0.000335836 0.00302766 -5.51285e-05
2.51094e-05 -5.51285e-05 0.00144371
0.000577447 7.36344e-05 2.26582e-06
7.36344e-05 0.000273115 -5.53316e-06
2.26582e-06 -5.53316e-06 -2.12068e-05
3.20557e-05 0.000149431 6.89508e-06
0.000149431 -0.000184042 -3.54337e-06
6.89508e-06 -3.54337e-06 -0.000390693
-0.00188864 1.15921e-05 1.29108e-05
1.15921e-05 -0.00150012 -1.11191e-05
1.29108e-05 -1.11191e-05 -0.00167955
-0.0019184 -1.21729e-05 -5.16477e-06
-1.21729e-05 -0.00130078 1.89237e-05
-5.16477e-06 1.89237e-05 -0.00156508
0.00229614 0.000361175 3.18483e-06
0.000361175 0.00122226 -8.70349e-07
3.18483e-06 -8.70349e-07 0.000937821
0.000747865 5.0313e-05 -6.18428e-06
5.0313e-05 0.000225913 -1.90339e-06
-6.18428e-06 -1.90339e-06 5.05087e-05
0.000232794 0.000121271 -9.94997e-06
0.000121271 -0.000102639 -1.20513e-05
-9.94997e-06 -1.20513e-05 -0.000226718
0.00120417 2.39416e-05 3.77095e-06
2.39416e-05 0.000513982 6.72529e-07
3.77095e-06 6.72529e-07 0.00036741
0.000991329 0.000192912 -1.91092e-06
0.000192912 0.000412657 -4.94523e-06
-1.91092e-06 -4.94523e-06 0.000293451
0.00248254 0.000193318 4.74468e-08
0.000193318 0.00153989 -1.85696e-05
4.74468e-08 -1.85696e-05 0.00124709
0.00755222 0.00179488 0.000600625
0.00179488 0.00523106 0.000585722
0.000600625 0.000585722 9.42595e-05
0.00330942 0.00132007 2.52654e-05
0.00132007 0.000627654 8.88188e-05
2.52654e-05 8.88188e-05 -0.00145095
0.00612645 -0.000318499 0.000111257
-0.000318499 -0.000165391 -1.46903e-05
0.000111257 -1.46903e-05 -0.00127911
0.0145183 -0.00110729 -0.000304922
-0.00110729 0.00213006 -0.000146067
-0.000304922 -0.000146067 0.00383848
-0.000898339 0.000977255 0.000117095
0.000977255 -0.00212078 0.000428332
0.000117095 0.000428332 -0.00784021
0.00277918 -0.00360186 -4.63474e-05
-0.00360186 0.000935177 -2.77654e-05
-4.63474e-05 -2.77654e-05 0.00116012
0.0052534 -0.00210249 -0.000270246
-0.00210249 0.00556631 6.91669e-05
-0.000270246 6.91669e-05 -0.000591057
0.000641107 -0.00150725 -0.000139697
-0.00150725 0.00132034 0.00014076
-0.000139697 0.00014076 0.000688109
0.0109098 -0.000185578 -0.00027006
-0.000185578 0.00801722 -1.96201e-06
-0.00027006 -1.96201e-06 0.000642517
0.00833017 -0.00291392 0.000122947
-0.00291392 0.00503142 0.00023423
0.000122947 0.00023423 -0.00125589
0.0229717 -0.00535889 2.03168e-05
-0.00535889 0.00659397 -0.000879671
2.03168e-05 -0.000879671 0.00196191
0.000672297 0.000373814 -0.000152238
0.000373814 0.0031288 0.000103587
-0.000152238 0.000103587 0.00148259
0.00867528 0.00265442 -0.000290203
0.00265442 0.00681206 -6.24357e-05
-0.000290203 -6.24357e-05 0.000546479
0.0240325 -0.00891366 0.000173363
-0.00891366 0.0133126 -0.000923031
0.000173363 -0.000923031 0.00566074
0.0293837 -0.0122961 0.000105147
-0.0122961 0.0146612 -7.95791e-05
0.000105147 -7.95791e-05 0.00771682
0.000557358 0.000317643 2.72503e-05
0.000317643 0.000398926 2.51164e-06
2.72503e-05 2.51164e-06 -1.9221e-05
-1.52776e-05 5.47432e-05 7.6765e-06
5.47432e-05 0.000188211 1.5864e-06
7.6765e-06 1.5864e-06 -0.000200245
0.00127012 0.000216294 -2.47825e-05
0.000216294 0.000668393 -1.80807e-05
-2.47825e-05 -1.80807e-05 0.000494242
0.00463691 -0.001503 0.000130691
-0.001503 0.00315342 -1.70595e-05
0.000130691 -1.70595e-05 0.00132459
-0.000586362 -0.000170116 8.39761e-05
-0.000170116 0.000824378 -2.93862e-06
8.39761e-05 -2.93862e-06 0.000103463
-0.000615729 6.14964e-05 -7.2673e-06
6.14964e-05 -0.000273295 -9.91937e-07
-7.2673e-06 -9.91937e-07 -0.00053275
-0.000498426 -0.000167552 2.23379e-05
-0.000167552 0.000365202 -9.07343e-06
2.23379e-05 -9.07343e-06 -0.000279722
-0.000267984 0.000129331 -3.47014e-06
0.000129331 7.88324e-05 -2.89184e-07
-3.47014e-06 -2.89184e-07 -0.000239012
-0.000177111 0.000311658 1.94813e-05
0.000311658 0.000551332 5.25087e-06
1.94813e-05 5.25087e-06 -0.000109915
-0.00235042 9.17569e-05 0.000190064
9.17569e-05 0.00133323 -4.67168e-05
0.000190064 -4.67168e-05 -0.000815427
0.000847994 0.000717852 2.81635e-05
0.000717852 0.000488716 3.41364e-05
2.81635e-05 3.41364e-05 2.49811e-05
0.00131854 0.000982269 -0.000132825
0.000982269 0.00176996 -0.000107664
-0.000132825 -0.000107664 3.888e-05
0.000651467 -5.69063e-06 0.000259322
-5.69063e-06 0.00180123 9.48862e-05
0.000259322 9.48862e-05 -0.00331662
-0.00293755 0.000398287 -0.000135819
0.000398287 0.0025783 5.39093e-06
-0.000135819 5.39093e-06 0.000374481
0.00361974 -0.000366612 -7.47147e-05
-0.000366612 0.00179544 -1.66375e-06
-7.47147e-05 -1.66375e-06 0.00132757
0.000244504 0.000608298 8.89564e-05
0.000608298 0.00109756 1.81032e-05
8.89564e-05 1.81032e-05 -0.000260205
0.00103855 0.000311981 -0.000114575
0.000311981 0.00310608 0.000108393
-0.000114575 0.000108393 0.00130556
-0.000845812 -0.000275502 -1.11346e-05
-0.000275502 0.00251121 -4.28093e-05
-1.11346e-05 -4.28093e-05 0.00076895
0.0155879 -0.00535164 0.000320441
-0.00535164 0.00916472 -0.000186807
0.000320441 -0.000186807 0.00162022
0.026236 0.006609 -0.000462323
0.006609 0.0134391 -0.000257056
-0.000462323 -0.000257056 0.00556824
0.00585119 -0.00235172 -0.000444177
-0.00235172 0.00318977 0.00032321
-0.000444177 0.00032321 -0.001531
0.0149662 0.0149594 0.0031276
0.0149594 0.011484 -0.00184198
0.0031276 -0.00184198 0.00384558
0.00070025 -0.000690629 4.46424e-05
-0.000690629 0.00164143 -1.29423e-05
4.46424e-05 -1.29423e-05 0.000231896
-0.000271983 -0.000771458 7.14651e-05
-0.000771458 0.000809042 8.78251e-06
7.14651e-05 8.78251e-06 -0.00403597
0.00368833 0.00263422 -0.00152509
0.00263422 0.00924659 0.000305573
-0.00152509 0.000305573 0.00285992
5.59016e-05 -0.00123428 4.16996e-05
-0.00123428 0.0016707 2.60697e-05
4.16996e-05 2.60697e-05 0.000563632
0.0240783 0.00825815 0.000452259
0.00825815 0.00910442 0.000139047
0.000452259 0.000139047 0.0021741
0.00757307 -0.00704203 0.000321259
-0.00704203 0.00289833 -9.04654e-05
0.000321259 -9.04654e-05 -0.00142517
0.000478662 -0.00183387 -5.24625e-06
-0.00183387 0.000717251 4.06354e-05
-5.24625e-06 4.06354e-05 -0.000517968
-0.00406992 -0.00202803 0.000201655
-0.00202803 0.00781543 -0.000106767
0.000201655 -0.000106767 0.00295913
0.0196376 0.00865889 -0.0020844
0.00865889 0.00807196 0.000508671
-0.0020844 0.000508671 0.00258718
0.00671965 -0.00561345 -0.000620365
-0.00561345 -0.00110929 0.000226731
-0.000620365 0.000226731 -0.00354232
-0.000677102 -0.00237333 0.000192372
-0.00237333 -0.000346893 -0.000142719
0.000192372 -0.000142719 0.00061557
0.00134817 -0.000663455 -0.000117224
-0.000663455 0.0010558 4.04122e-05
-0.000117224 4.04122e-05 0.000394664
0.000412493 -0.00084694 -1.756e-05
-0.00084694 0.000430891 1.19141e-05
-1.756e-05 1.19141e-05 -0.000143968
0.00217476 -0.00107981 2.35293e-05
-0.00107981 0.000961781 -3.37249e-05
2.35293e-05 -3.37249e-05 0.00044219
-0.000977759 -0.000293433 8.91311e-06
-0.000293433 -0.000293958 2.72413e-06
8.91311e-06 2.72413e-06 -0.000626832
0.00119814 -0.000846909 3.29753e-07
-0.000846909 0.000353958 -2.21111e-06
3.29753e-07 -2.21111e-06 -0.000123524
0.00333287 -0.00130175 1.02504e-05
-0.00130175 0.00103899 -1.44981e-05
1.02504e-05 -1.44981e-05 0.000516996
0.00436225 -0.00120721 -3.35984e-05
-0.00120721 0.00207454 5.83437e-06
-3.35984e-05 5.83437e-06 0.00131735
0.00190795 -0.00105231 -3.20251e-06
-0.00105231 0.00045768 -1.00367e-06
-3.20251e-06 -1.00367e-06 -0.00027172
0.00264472 -0.00126734 -1.58043e-06
-0.00126734 0.000594762 -1.07916e-05
-1.58043e-06 -1.07916e-05 -3.72124e-06
0.00305531 -0.00113996 6.66494e-06
-0.00113996 0.00116479 6.24486e-06
6.66494e-06 6.24486e-06 0.000433739
0.00254307 -0.00116389 2.66281e-06
-0.00116389 0.000731313 -3.87953e-06
2.66281e-06 -3.87953e-06 6.44142e-05
0.00279302 -0.000980545 -4.36614e-06
-0.000980545 0.000617346 -7.59889e-06
-4.36614e-06 -7.59889e-06 0.000164569
0.00192516 -0.000598892 -7.29607e-07
-0.000598892 -7.63523e-07 -2.33261e-06
-7.29607e-07 -2.33261e-06 -0.000259727
0.00204398 -0.000886547 2.44654e-06
-0.000886547 0.000173851 -3.36451e-06
2.44654e-06 -3.36451e-06 -0.000271987
0.00239043 -0.000915462 3.49611e-06
-0.000915462 0.000421229 -2.51547e-06
3.49611e-06 -2.51547e-06 -3.084e-05
0.00266095 -0.00101781 -4.97983e-06
-0.00101781 0.00083334 -1.99329e-06
-4.97983e-06 -1.99329e-06 0.000298085
0.00280963 -0.0011429 -3.63211e-06
-0.0011429 0.000863612 -1.65422e-07
-3.63211e-06 -1.65422e-07 0.000266185
0.00267165 -0.00115061 1.06104e-05
-0.00115061 0.000794117 -4.53626e-06
1.06104e-05 -4.53626e-06 0.000161908
0.00182019 -0.00080968 7.04852e-06
-0.00080968 0.000567045 -4.36107e-06
7.04852e-06 -4.36107e-06 5.48742e-05
0.0017567 -0.000897475 2.02271e-06
-0.000897475 0.000490316 -7.90047e-07
2.02271e-06 -7.90047e-07 -5.03676e-05
0.00136316 -0.000832817 3.98592e-06
-0.000832817 0.000252075 3.28314e-06
3.98592e-06 3.28314e-06 -0.000273217
0.00170994 -0.000362612 1.40666e-06
-0.000362612 0.00064348 4.40384e-06
1.40666e-06 4.40384e-06 0.00034312
0.00147792 -0.000581742 1.35026e-06
-0.000581742 0.000487032 1.20997e-06
1.35026e-06 1.20997e-06 6.57117e-05
0.00204738 -0.000757297 -4.58145e-06
-0.000757297 0.000788051 5.14581e-06
-4.58145e-06 5.14581e-06 0.000295436
5.68814e-05 -0.0001487 -3.83812e-06
-0.0001487 -0.000266979 -3.81831e-07
-3.83812e-06 -3.81831e-07 -0.00051238
0.000611416 -0.000255972 -3.26121e-06
-0.000255972 5.68862e-05 -2.51812e-06
-3.26121e-06 -2.51812e-06 -0.000217526
0.000840301 -0.000310171 -3.97885e-06
-0.000310171 0.000168706 8.3887e-07
-3.97885e-06 8.3887e-07 -0.000120695
0.00200827 -1.77256e-05 -5.96276e-05
-1.77256e-05 0.000987427 1.15789e-05
-5.96276e-05 1.15789e-05 0.00092147
0.00073965 -0.000177295 1.12459e-06
-0.000177295 0.000196578 2.0915e-07
1.12459e-06 2.0915e-07 -2.14898e-05
0.00124452 -0.000327991 2.48999e-06
-0.000327991 0.000578679 6.19218e-06
2.48999e-06 6.19218e-06 0.000271684
0.000619285 1.07609e-05 -6.81731e-05
1.07609e-05 0.000101872 7.73067e-06
-6.81731e-05 7.73067e-06 8.96605e-05
0.00128185 -2.24802e-05 -2.17747e-05
-2.24802e-05 0.00051713 -6.93117e-07
-2.17747e-05 -6.93117e-07 0.000461339
0.0010803 -0.000128095 3.18364e-06
-0.000128095 0.000401541 -5.5989e-06
3.18364e-06 -5.5989e-06 0.000234221
0.00055927 -2.13916e-05 4.33206e-06
-2.13916e-05 5.30116e-05 -1.20298e-05
4.33206e-06 -1.20298e-05 3.09941e-06
0.00334713 0.000129651 1.11631e-05
0.000129651 0.00186279 9.29746e-07
1.11631e-05 9.29746e-07 0.00185802
0.00302171 0.000100057 4.63686e-05
0.000100057 0.00164169 -5.55566e-06
4.63686e-05 -5.55566e-06 0.00164418
0.000346327 0.000162744 7.84617e-06
0.000162744 2.09354e-05 3.19378e-06
7.84617e-06 3.19378e-06 -0.000248734
0.00189675 0.000197701 5.53413e-06
0.000197701 0.00108648 -8.95043e-06
5.53413e-06 -8.95043e-06 0.000776368
-0.000597601 3.93438e-05 3.22228e-06
3.93438e-05 -0.000488505 -1.98221e-07
3.22228e-06 -1.98221e-07 -0.000761639
0.000683711 8.01758e-05 2.20148e-06
8.01758e-05 0.000162484 -1.00963e-05
2.20148e-06 -1.00963e-05 2.72892e-05
0.000657803 0.000136161 1.48887e-06
0.000136161 0.000227552 -1.84188e-07
1.48887e-06 -1.84188e-07 1.071e-05
0.000412886 1.23152e-05 -8.71102e-07
1.23152e-05 -3.54728e-05 -1.1242e-05
-8.71102e-07 -1.1242e-05 -7.4703e-05
0.000558923 6.55707e-05 -6.73626e-08
6.55707e-05 8.47891e-05 -4.73617e-07
-6.73626e-08 -4.73617e-07 -2.92428e-05
0.000689335 6.62924e-05 -6.29323e-06
6.62924e-05 0.000237893 1.99237e-06
-6.29323e-06 1.99237e-06 5.80642e-05
0.00274195 -6.99817e-05 -3.82754e-05
-6.99817e-05 0.00145835 -5.65629e-06
-3.82754e-05 -5.65629e-06 0.00146673
0.000406156 5.8187e-06 -2.60558e-07
5.8187e-06 -4.6543e-05 -1.96186e-08
-2.60558e-07 -1.96186e-08 -7.7982e-05
0.000486155 6.99526e-05 -2.76617e-06
6.99526e-05 3.7632e-05 3.84746e-06
-2.76617e-06 3.84746e-06 -6.12306e-05
0.00245155 -5.08288e-05 -7.03509e-06
-5.08288e-05 0.00126633 4.62029e-07
-7.03509e-06 4.62029e-07 0.00127803
0.000382761 -1.58165e-05 -7.26189e-06
-1.58165e-05 -6.54953e-05 6.32375e-06
-7.26189e-06 6.32375e-06 -8.97083e-05
0.00225006 -3.03603e-05 2.3262e-05
-3.03603e-05 0.00113393 5.24148e-06
2.3262e-05 5.24148e-06 0.00114911
0.00690694 0.00114719 0.000501252
0.00114719 0.0048099 0.000123255
0.000501252 0.000123255 0.00166287
-0.0023845 0.000494124 -1.08682e-05
0.000494124 0.00121942 -1.26428e-05
-1.08682e-05 -1.26428e-05 -0.000698379
0.000465584 0.000590858 -8.68893e-06
0.000590858 0.00172964 -1.79335e-05
-8.68893e-06 -1.79335e-05 0.000210069
-0.00032076 0.00020437 -9.02493e-06
0.00020437 -0.000551676 8.90347e-06
-9.02493e-06 8.90347e-06 -0.000785645
-3.21616e-05 4.88644e-05 -8.23679e-06
4.88644e-05 -0.000188294 1.53804e-05
-8.23679e-06 1.53804e-05 -0.000427295
-0.000410392 6.75854e-05 -9.78258e-06
6.75854e-05 -0.000455294 -1.09993e-05
-9.78258e-06 -1.09993e-05 -0.000640814
0.00180451 0.000117574 6.61404e-06
0.000117574 0.000955304 3.74743e-07
6.61404e-06 3.74743e-07 0.000741199
0.00105088 0.000214247 -2.6239e-06
0.000214247 0.000328614 -8.14792e-06
-2.6239e-06 -8.14792e-06 0.000128273
0.0025414 0.000401137 -1.62603e-05
0.000401137 0.00138361 -6.19661e-06
-1.62603e-05 -6.19661e-06 0.00115883
0.00141998 0.000328555 1.74008e-06
0.000328555 0.000584795 -1.34421e-05
1.74008e-06 -1.34421e-05 0.000238553
-0.00196003 0.000171157 -6.46534e-06
0.000171157 -0.00103375 1.03352e-06
-6.46534e-06 1.03352e-06 -0.00144067
0.000123885 7.39172e-05 -5.43404e-06
7.39172e-05 -0.000127348 -7.54593e-06
-5.43404e-06 -7.54593e-06 -0.000285062
-0.000423198 5.67628e-05 -1.32486e-05
5.67628e-05 -0.000555695 -9.2008e-06
-1.32486e-05 -9.2008e-06 -0.000621384
-0.000914115 1.44748e-05 -3.52896e-06
1.44748e-05 -0.000544543 2.21556e-06
-3.52896e-06 2.21556e-06 -0.000848995
0.000301013 0.000333983 1.11165e-05
0.000333983 0.000349058 6.29977e-06
1.11165e-05 6.29977e-06 -0.00020133
0.00706994 -0.00570608 1.94294e-06
-0.00570608 0.00883165 0.000232347
1.94294e-06 0.000232347 0.000690075
0.00818791 0.00234769 0.000229389
0.00234769 0.00398677 0.0001977
0.000229389 0.0001977 -0.00181253
0.00405721 0.000706978 -1.24934e-06
0.000706978 0.00133722 -8.28189e-05
-1.24934e-06 -8.28189e-05 -0.00103954
0.0334634 -0.00765951 -0.00111985
-0.00765951 0.0105531 -0.000468873
-0.00111985 -0.000468873 0.00515247
0.00554837 -0.0015996 0.000330138
-0.0015996 0.00477711 0.000584506
0.000330138 0.000584506 0.000172613
0.002223 -0.00155892 -0.000267155
-0.00155892 0.00573539 0.000141927
-0.000267155 0.000141927 -0.00244112
-0.000583987 -0.00147329 8.97621e-05
-0.00147329 0.00156952 5.20241e-05
8.97621e-05 5.20241e-05 0.000254237
-0.00154388 -4.80208e-05 0.000183733
-4.80208e-05 0.00150936 5.20345e-05
0.000183733 5.20345e-05 0.00039689
0.0237008 -0.0135087 0.000551879
-0.0135087 0.0132851 0.000529523
0.000551879 0.000529523 0.00587725
0.00336416 0.00217622 -0.000160813
0.00217622 0.00534711 -0.000112551
-0.000160813 -0.000112551 -0.00194551
0.0116911 -0.00470232 -0.000160362
-0.00470232 0.00774356 0.00015883
-0.000160362 0.00015883 -0.000206875
-0.000230145 0.000940919 -1.03372e-05
0.000940919 0.00143805 3.24784e-05
-1.03372e-05 3.24784e-05 0.000632648
0.00802935 0.00539591 -0.000168232
0.00539591 0.00307086 -3.22416e-06
-0.000168232 -3.22416e-06 -0.00109525
0.0221029 -0.00821172 -0.00103715
-0.00821172 0.00835542 -0.00047192
-0.00103715 -0.00047192 0.0011217
0.0012031 0.000788825 1.4412e-05
0.000788825 0.000344512 4.99969e-06
1.4412e-05 4.99969e-06 0.000127743
0.000809434 0.000312023 8.55558e-06
0.000312023 0.00057828 6.46591e-06
8.55558e-06 6.46591e-06 0.000150386
-0.000572116 1.57152e-05 -2.43198e-05
1.57152e-05 -0.000150133 -6.03992e-07
-2.43198e-05 -6.03992e-07 -0.000543815
-0.00293975 -0.000263589 -0.00013181
-0.000263589 0.00079771 -4.86673e-05
-0.00013181 -4.86673e-05 -0.00124574
0.000568836 0.000311315 -8.65834e-06
0.000311315 0.000599468 -1.83345e-05
-8.65834e-06 -1.83345e-05 1.98693e-05
0.000310245 0.000233689 -6.19583e-06
0.000233689 0.000405656 5.42069e-06
-6.19583e-06 5.42069e-06 4.223e-05
0.00120188 0.000788907 1.34959e-05
0.000788907 0.000654074 2.9124e-06
1.34959e-05 2.9124e-06 0.000179964
-0.000230014 0.000792548 1.44324e-05
0.000792548 0.00104329 -4.27144e-05
1.44324e-05 -4.27144e-05 -0.000466334
0.00157729 0.0019734 9.34331e-05
0.0019734 0.000532432 1.11186e-05
9.34331e-05 1.11186e-05 -0.000650402
-0.00685584 0.00125894 0.000504546
0.00125894 0.00618997 -2.01842e-05
0.000504546 -2.01842e-05 -0.00246386
0.00219069 -0.000478309 -2.0342e-05
-0.000478309 0.00234557 8.8633e-05
-2.0342e-05 8.8633e-05 -0.00109674
-0.0031807 -1.21065e-06 -2.81703e-05
-1.21065e-06 0.00189735 8.891e-05
-2.81703e-05 8.891e-05 -8.10984e-05
-0.0010591 -0.000397389 -5.33477e-05
-0.000397389 0.000782096 1.10134e-05
-5.33477e-05 1.10134e-05 -0.000678814
-0.00168275 -0.000841989 -5.82928e-05
-0.000841989 0.000133519 4.87837e-05
-5.82928e-05 4.87837e-05 0.000124241
-0.00104318 -0.000824459 -0.000255789
-0.000824459 0.00133334 0.000171084
-0.000255789 0.000171084 -0.00395789
-0.00149896 -0.00528152 0.000263377
-0.00528152 0.00226349 -0.000144576
0.000263377 -0.000144576 -0.00453738
0.0174765 0.00653334 0.00093064
0.00653334 0.00427623 -0.000470788
0.00093064 -0.000470788 -0.00229854
0.0164999 0.00634418 -0.000456851
0.00634418 0.0108082 0.000457184
-0.000456851 0.000457184 0.00349211
0.000823474 -0.00125967 -3.73883e-05
-0.00125967 0.0015414 7.74059e-06
-3.73883e-05 7.74059e-06 0.000370233
0.00368063 0.00129502 0.000240305
0.00129502 0.00991374 -5.098e-05
0.000240305 -5.098e-05 0.00389421
0.00478269 0.00600365 2.33011e-05
0.00600365 0.00209552 9.73517e-05
2.33011e-05 9.73517e-05 -0.00290086
0.00242119 -0.00383696 8.36076e-05
-0.00383696 0.000863939 -5.7138e-05
8.36076e-05 -5.7138e-05 0.00108886
0.0139649 -0.00612971 -2.08134e-06
-0.00612971 0.000980234 1.08581e-05
-2.08134e-06 1.08581e-05 -0.000801105
0.00340822 -0.00231288 1.22744e-05
-0.00231288 0.00149444 1.81061e-05
1.22744e-05 1.81061e-05 0.00087233
-0.00638192 0.00211062 -0.00092888
0.00211062 -0.00114655 0.000161848
-0.00092888 0.000161848 -0.00558706
0.0159895 -0.0039316 -0.0002481
-0.0039316 0.000626388 7.29886e-05
-0.0002481 7.29886e-05 -0.000158828
0.00439242 -0.00364103 0.000140981
-0.00364103 1.86226e-05 -8.43875e-05
0.000140981 -8.43875e-05 0.00117746
-0.000314444 -0.000585273 8.71848e-06
-0.000585273 0.000178444 -1.30777e-06
8.71848e-06 -1.30777e-06 -0.000409583
0.00203801 -0.00122264 1.58124e-05
-0.00122264 0.000715413 -8.87494e-06
1.58124e-05 -8.87494e-06 0.000293011
0.00286949 -0.00114963 2.25774e-05
-0.00114963 0.000806339 -1.96684e-05
2.25774e-05 -1.96684e-05 0.000402997
-0.000643451 -0.000613015 -5.82239e-06
-0.000613015 -0.000621598 1.74542e-05
-5.82239e-06 1.74542e-05 -0.00104996
0.00203116 -0.00115672 -5.07745e-06
-0.00115672 0.000346953 1.20911e-06
-5.07745e-06 1.20911e-06 -0.000171084
0.00350109 -0.00134521 6.9576e-06
-0.00134521 0.000911386 -6.07428e-06
6.9576e-06 -6.07428e-06 0.000406798
0.00137894 -0.000947345 -8.39051e-06
-0.000947345 0.000157188 1.18739e-05
-8.39051e-06 1.18739e-05 -0.000544086
0.00236263 -0.00122467 -8.87361e-07
-0.00122467 0.000447718 2.94177e-06
-8.87361e-07 2.94177e-06 -0.000147396
0.00235211 -0.00095587 -3.2702e-06
-0.00095587 0.000197308 -4.04216e-06
-3.2702e-06 -4.04216e-06 -0.000157971
0.0019055 -0.00107684 9.23458e-06
-0.00107684 0.000368716 3.45048e-06
9.23458e-06 3.45048e-06 -0.000268633
0.00226905 -0.000904572 -1.82954e-06
-0.000904572 0.000332663 1.97364e-06
-1.82954e-06 1.97364e-06 -0.000100996
0.00230692 -0.000655375 -5.64893e-07
-0.000655375 0.000149101 -1.81185e-06
-5.64893e-07 -1.81185e-06 -7.93966e-05
0.00212121 -0.000570962 -2.15991e-06
-0.000570962 0.000125407 5.0032e-07
-2.15991e-06 5.0032e-07 -6.82747e-05
0.00188147 -0.000613175 -2.63948e-06
-0.000613175 2.08902e-06 -2.03646e-06
-2.63948e-06 -2.03646e-06 -0.000271312
0.00197473 -0.00059783 1.60092e-06
-0.00059783 2.57759e-05 2.95643e-06
1.60092e-06 2.95643e-06 -0.000229445
0.00186915 -0.000768901 -3.44698e-06
-0.000768901 0.000141056 -4.37609e-06
-3.44698e-06 -4.37609e-06 -0.000256598
0.00222776 -0.00089778 2.74622e-06
-0.00089778 0.000309506 1.45758e-07
2.74622e-06 1.45758e-07 -0.000133808
0.00236042 -0.000916458 2.28099e-06
-0.000916458 0.000399996 3.04278e-06
2.28099e-06 3.04278e-06 -5.12709e-05
0.00205086 -0.000877449 8.808e-07
-0.000877449 0.000501339 -3.48048e-06
8.808e-07 -3.48048e-06 -5.02639e-06
0.0024423 -0.000999555 1.95588e-06
-0.000999555 0.000692906 -6.6229e-07
1.95588e-06 -6.6229e-07 0.000158162
0.00273678 -0.00112955 3.68604e-06
-0.00112955 0.000830379 -1.56162e-06
3.68604e-06 -1.56162e-06 0.000230829
0.00162635 -0.0005632 -6.81945e-06
-0.0005632 0.000510827 3.79963e-06
-6.81945e-06 3.79963e-06 0.000112595
0.0018271 -0.000795641 7.06667e-07
-0.000795641 0.000577941 5.93799e-07
7.06667e-07 5.93799e-07 7.39504e-05
0.00147951 -0.000853927 -1.11655e-07
-0.000853927 0.000338794 3.55428e-06
-1.11655e-07 3.55428e-06 -0.000189017
0.000746156 -0.000242946 -5.58446e-06
-0.000242946 0.000117424 -9.97779e-07
-5.58446e-06 -9.97779e-07 -0.00012393
0.00104421 -0.000329482 3.37802e-06
-0.000329482 0.000229137 -5.77253e-07
3.37802e-06 -5.77253e-07 -7.22365e-05
0.000988162 -0.000518514 -5.82609e-06
-0.000518514 0.00021703 3.67912e-06
-5.82609e-06 3.67912e-06 -0.000186332
0.000452106 -0.000109961 -1.83359e-05
-0.000109961 -5.25676e-05 1.55021e-05
-1.83359e-05 1.55021e-05 -0.00014775
0.0006851 -0.000195751 4.37549e-07
-0.000195751 0.000151144 1.86893e-06
4.37549e-07 1.86893e-06 -0.000110803
0.000421033 -0.0003048 -3.85691e-06
-0.0003048 -2.48868e-05 4.25112e-07
-3.85691e-06 4.25112e-07 -0.000324585
0.00437733 0.000285158 1.84547e-05
0.000285158 0.00258771 8.71014e-06
1.84547e-05 8.71014e-06 0.00253299
0.000431293 -7.19984e-05 1.31228e-07
-7.19984e-05 -3.84541e-05 -4.35582e-07
1.31228e-07 -4.35582e-07 -0.000121547
0.00151339 -0.000194256 1.2608e-06
-0.000194256 0.000679833 -3.62321e-06
1.2608e-06 -3.62321e-06 0.000462828
0.00378505 0.000145427 9.98634e-06
0.000145427 0.00215362 6.73399e-07
9.98634e-06 6.73399e-07 0.00214463
0.00060988 -4.21785e-05 8.42262e-06
-4.21785e-05 8.17346e-05 -1.38986e-05
8.42262e-06 -1.38986e-05 1.74345e-05
0.00340546 0.000114602 7.15832e-05
0.000114602 0.00189735 -6.3952e-06
7.15832e-05 -6.3952e-06 0.00189649
0.00251884 0.000438671 2.3725e-06
0.000438671 0.00128056 1.95359e-06
2.3725e-06 1.95359e-06 0.000997073
0.000602923 0.000213173 -1.66291e-07
0.000213173 0.000187046 -1.40727e-06
-1.66291e-07 -1.40727e-06 -9.73785e-05
0.00133025 0.000380196 -3.69625e-06
0.000380196 0.000685271 -3.81855e-06
-3.69625e-06 -3.81855e-06 0.000368001
0.00104897 0.000133992 5.24506e-07
0.000133992 0.000398707 -9.81715e-06
5.24506e-07 -9.81715e-06 0.000229898
0.000808957 0.000139193 -4.58223e-09
0.000139193 0.000389276 9.64166e-07
-4.58223e-09 9.64166e-07 8.55962e-05
3.79819e-05 0.000114724 -2.84032e-06
0.000114724 -4.79233e-05 6.30931e-06
-2.84032e-06 6.30931e-06 -0.000358138
0.00050757 1.65451e-06 -1.34999e-06
1.65451e-06 3.59426e-05 -1.38919e-05
-1.34999e-06 -1.38919e-05 -1.47144e-05
0.000578993 6.20299e-05 -2.99305e-07
6.20299e-05 0.000100483 1.09179e-07
-2.99305e-07 1.09179e-07 -3.45258e-05
-2.18885e-05 8.62063e-05 -5.04795e-06
8.62063e-05 -0.000233788 9.59367e-06
-5.04795e-06 9.59367e-06 -0.000433957
0.00284806 -8.62924e-05 -4.76455e-05
-8.62924e-05 0.0015328 -6.1108e-06
-4.76455e-05 -6.1108e-06 0.00153854
0.000392302 -2.69763e-05 2.37998e-06
-2.69763e-05 -4.51134e-05 -3.56846e-07
2.37998e-06 -3.56846e-07 -8.5042e-05
0.000475805 5.52699e-05 -4.66692e-06
5.52699e-05 4.06462e-05 6.2231e-06
-4.66692e-06 6.2231e-06 -7.47705e-05
0.0026665 -7.0439e-05 -7.93423e-06
-7.0439e-05 0.00140985 6.13838e-07
-7.93423e-06 6.13838e-07 0.0014179
0.000413369 1.07727e-05 -2.17368e-06
1.07727e-05 -4.27531e-05 7.87705e-06
-2.17368e-06 7.87705e-06 -7.32282e-05
0.00240935 -5.04728e-05 2.44208e-05
-5.04728e-05 0.00123912 5.42813e-06
2.44208e-05 5.42813e-06 0.00125104
-0.00797521 0.000966621 -0.000262897
0.000966621 0.00512442 7.62462e-05
-0.000262897 7.62462e-05 -0.00281302
0.00652196 0.000947754 3.8302e-05
0.000947754 0.0042456 1.65429e-07
3.8302e-05 1.65429e-07 0.00123623
-0.00166746 0.00047502 0.000126531
0.00047502 0.00123465 6.56188e-05
0.000126531 6.56188e-05 -0.000926254
0.000225351 0.000219958 -4.30927e-06
0.000219958 -0.000172971 8.19503e-06
-4.30927e-06 8.19503e-06 -0.000454386
0.00366355 0.000892129 1.98605e-05
0.000892129 0.00196352 2.10373e-05
1.98605e-05 2.10373e-05 0.00147677
-0.000171644 0.000193693 -1.13992e-05
0.000193693 -0.000193362 7.88759e-06
-1.13992e-05 7.88759e-06 -0.00062254
0.000420174 9.97634e-05 -7.69262e-06
9.97634e-05 0.000100497 -1.76169e-05
-7.69262e-06 -1.76169e-05 -0.000122242
0.0029343 0.000391581 -7.61377e-07
0.000391581 0.00148654 -4.72926e-06
-7.61377e-07 -4.72926e-06 0.00126369
-0.00165312 6.4524e-06 -1.27374e-05
6.4524e-06 -0.00121777 1.57611e-05
-1.27374e-05 1.57611e-05 -0.00136151
-0.00016741 0.000236478 -3.69661e-07
0.000236478 -8.55643e-05 7.28343e-06
-3.69661e-07 7.28343e-06 -0.000414622
-9.46323e-05 0.000129009 -5.1412e-06
0.000129009 -0.000255608 -5.4463e-06
-5.1412e-06 -5.4463e-06 -0.000596498
0.000963152 0.000727309 -4.43844e-08
0.000727309 0.000451191 -2.01123e-05
-4.43844e-08 -2.01123e-05 -0.000100054
-0.000906488 0.000592012 -2.66905e-05
0.000592012 -0.000867026 6.87224e-05
-2.66905e-05 6.87224e-05 -0.00105665
0.00107835 6.70675e-05 -1.53097e-05
6.70675e-05 0.000606847 1.7119e-05
-1.53097e-05 1.7119e-05 0.000356478
0.00203658 0.000471184 1.03865e-05
0.000471184 0.00132688 -7.22257e-06
1.03865e-05 -7.22257e-06 0.000856577
0.00443254 -0.00377303 -0.00246549
-0.00377303 0.0031444 -0.000257246
-0.00246549 -0.000257246 -0.00259247
0.000888293 -0.00445992 0.000813756
-0.00445992 0.00929114 0.000178381
0.000813756 0.000178381 0.00149326
0.00889218 0.00292938 -0.000885571
0.00292938 0.00361128 -0.000291333
-0.000885571 -0.000291333 -0.00274679
0.0152306 -0.0147555 0.00309171
-0.0147555 0.0118093 0.00175609
0.00309171 0.00175609 0.00381813
0.0306428 -0.0046459 -4.66009e-05
-0.0046459 0.0117199 0.000489573
-4.66009e-05 0.000489573 0.00557834
-0.00299348 0.00150536 -7.89857e-05
0.00150536 0.00336716 -0.000210888
-7.89857e-05 -0.000210888 -0.00307102
-0.0024006 0.000264527 -0.000235109
0.000264527 0.00183006 -4.24177e-05
-0.000235109 -4.24177e-05 -0.000192362
0.000190346 0.000992431 7.30292e-05
0.000992431 0.0018406 5.85508e-05
7.30292e-05 5.85508e-05 0.00115542
0.0235218 -0.00667882 -0.000863382
-0.00667882 0.0104293 5.01946e-05
-0.000863382 5.01946e-05 0.00343175
-0.00164629 0.00469479 -0.000218456
0.00469479 0.000783393 -4.66856e-05
-0.000218456 -4.66856e-05 -0.00408621
0.00345158 0.00313509 5.90189e-05
0.00313509 0.00124254 -8.33395e-05
5.90189e-05 -8.33395e-05 0.00199678
0.00673931 0.00787051 -0.000720029
0.00787051 -0.00161742 -0.000107989
-0.000720029 -0.000107989 -0.0036899
0.00387151 0.00156264 3.24264e-05
0.00156264 0.00156396 -7.30872e-06
3.24264e-05 -7.30872e-06 0.00109058
0.000947421 0.000720173 -5.64679e-06
0.000720173 0.000185288 -3.57627e-06
-5.64679e-06 -3.57627e-06 3.44668e-06
-0.00059256 0.000195988 -2.38081e-05
0.000195988 -0.000276791 1.22674e-06
-2.38081e-05 1.22674e-06 -0.000686577
-0.0010752 0.000688452 -0.000125514
0.000688452 0.000688692 -7.65823e-05
-0.000125514 -7.65823e-05 -0.000623316
0.000977248 0.000825211 -5.75956e-05
0.000825211 0.000446454 -4.05355e-05
-5.75956e-05 -4.05355e-05 -1.70907e-05
0.0025533 0.00212375 4.89849e-06
0.00212375 0.000895468 -1.21398e-05
4.89849e-06 -1.21398e-05 -0.000264275
-0.00148955 0.00207066 0.000111884
0.00207066 -0.00210403 6.07281e-05
0.000111884 6.07281e-05 -0.00260525
-0.00702096 -0.000712329 -0.00087435
-0.000712329 -0.0031353 6.65526e-05
-0.00087435 6.65526e-05 -0.0049939
-0.010261 0.000511418 0.000610317
0.000511418 0.00666948 1.63917e-05
0.000610317 1.63917e-05 -0.000763522
0.00269689 5.49118e-05 -0.000186891
5.49118e-05 0.0022376 3.58083e-05
-0.000186891 3.58083e-05 5.02938e-05
0.000779774 -0.00129992 -5.64958e-05
-0.00129992 0.00104071 -5.33027e-05
-5.64958e-05 -5.33027e-05 -8.88102e-05
-0.00121494 -0.00263991 0.00018066
-0.00263991 -0.000308454 1.21273e-05
0.00018066 1.21273e-05 -0.000123989
0.00148656 0.00146 0.000238474
0.00146 0.00948369 8.26857e-05
0.000238474 8.26857e-05 0.00318509
0.00535646 -0.00572488 0.000764472
-0.00572488 -0.00177159 -6.65869e-05
0.000764472 -6.65869e-05 -0.00287241
0.0253703 0.00538844 0.00142648
0.00538844 0.0117011 -7.57894e-05
0.00142648 -7.57894e-05 0.00644586
0.00195396 -0.00251732 -2.28206e-05
-0.00251732 0.000529539 3.46484e-06
-2.28206e-05 3.46484e-06 -0.000351128
0.00447547 0.00258041 0.000409139
0.00258041 0.00224037 -0.00011998
0.000409139 -0.00011998 -0.00168384
0.00763114 -0.00352611 -0.000217616
-0.00352611 -0.00417756 0.00019486
-0.000217616 0.00019486 -0.00555139
0.0025562 -0.00338864 -6.30235e-06
-0.00338864 -0.001258 2.9012e-05
-6.30235e-06 2.9012e-05 0.000524079
0.0027945 -0.00203145 7.2047e-05
-0.00203145 0.000196728 -1.33629e-05
7.2047e-05 -1.33629e-05 -3.13765e-05
0.0195625 -0.00118378 -0.000118555
-0.00118378 0.00298369 8.8721e-05
-0.000118555 8.8721e-05 0.00238794
0.00273374 -0.00251464 0.00013639
-0.00251464 -0.00396286 -9.98607e-05
0.00013639 -9.98607e-05 -0.00150333
-0.000192455 -0.00104543 -4.22734e-05
-0.00104543 -0.00056351 4.84244e-05
-4.22734e-05 4.84244e-05 -0.000802302
0.000358786 -0.000855245 -3.29887e-05
-0.000855245 -0.000561604 3.79002e-06
-3.29887e-05 3.79002e-06 -0.000784441
0.00610152 -0.00142444 6.23444e-05
-0.00142444 0.00219566 -2.47281e-05
6.23444e-05 -2.47281e-05 0.00189983
0.000370854 -0.000940278 -1.38192e-05
-0.000940278 -0.000489256 1.3452e-05
-1.38192e-05 1.3452e-05 -0.000986012
0.00236797 -0.00119189 -1.51576e-06
-0.00119189 0.000332924 -1.69406e-06
-1.51576e-06 -1.69406e-06 -0.000131494
0.00305145 -0.00102902 3.60109e-06
-0.00102902 0.000389497 -3.42733e-06
3.60109e-06 -3.42733e-06 0.000169848
0.00233111 -0.00121544 1.01895e-05
-0.00121544 0.000429423 1.03677e-05
1.01895e-05 1.03677e-05 -0.000168851
0.00249865 -0.00096373 -2.62469e-06
-0.00096373 0.000276684 1.06048e-06
-2.62469e-06 1.06048e-06 -7.44239e-05
0.00237337 -0.000685045 6.26055e-07
-0.000685045 2.40644e-05 -8.38568e-07
6.26055e-07 -8.38568e-07 -7.27618e-05
0.00195417 -0.000858359 9.39254e-06
-0.000858359 0.000156071 6.42936e-06
9.39254e-06 6.42936e-06 -0.000265566
0.00221046 -0.000640853 -1.63952e-07
-0.000640853 8.7304e-05 2.59079e-06
-1.63952e-07 2.59079e-06 -0.000130083
0.0023255 -0.000643401 -7.85093e-07
-0.000643401 0.000106318 2.44778e-06
-7.85093e-07 2.44778e-06 -2.25503e-05
0.00222993 -0.000614171 -2.77348e-06
-0.000614171 0.000146418 1.46044e-06
-2.77348e-06 1.46044e-06 -1.5835e-05
0.00219474 -0.000577953 -3.25582e-06
-0.000577953 0.000159287 2.70898e-06
-3.25582e-06 2.70898e-06 -2.85822e-05
0.00223548 -0.000573167 -1.03627e-06
-0.000573167 0.000261834 -2.33801e-06
-1.03627e-06 -2.33801e-06 5.17132e-05
0.0022281 -0.000653999 -6.39131e-06
-0.000653999 0.000254814 -2.94918e-06
-6.39131e-06 -2.94918e-06 -3.30782e-05
0.00211464 -0.000630486 1.13124e-06
-0.000630486 0.000155605 1.32149e-06
1.13124e-06 1.32149e-06 -0.000118223
0.00202681 -0.000600338 1.77097e-06
-0.000600338 4.56617e-05 7.97045e-06
1.77097e-06 7.97045e-06 -0.000206859
0.00213979 -0.000775104 -5.6845e-06
-0.000775104 0.000369952 -4.63835e-06
-5.6845e-06 -4.63835e-06 -3.99269e-05
0.00185455 -0.000778638 -7.26549e-07
-0.000778638 0.000115317 2.00396e-07
-7.26549e-07 2.00396e-07 -0.000287553
0.00240364 -0.000910871 6.33731e-06
-0.000910871 0.000436283 3.38179e-06
6.33731e-06 3.38179e-06 -5.26991e-06
0.00165272 -0.000689357 -8.53956e-06
-0.000689357 0.000337643 1.02389e-06
-8.53956e-06 1.02389e-06 -0.000110397
0.00215963 -0.000892025 -2.68823e-07
-0.000892025 0.000563636 8.34199e-07
-2.68823e-07 8.34199e-07 5.38717e-05
0.00229183 -0.000990416 5.16633e-06
-0.000990416 0.000591864 1.97282e-06
5.16633e-06 1.97282e-06 5.56253e-05
0.00105165 -0.000300976 -9.14342e-06
-0.000300976 0.000257036 8.86908e-06
-9.14342e-06 8.86908e-06 -2.07581e-06
0.0013211 -0.000538838 1.77468e-06
-0.000538838 0.000305038 8.57888e-07
1.77468e-06 8.57888e-07 -8.85658e-05
0.00170085 -0.00077069 -3.4699e-06
-0.00077069 0.00049863 4.17672e-06
-3.4699e-06 4.17672e-06 4.31543e-06
0.000435283 -0.000179611 -2.98539e-05
-0.000179611 -9.44249e-05 1.62767e-05
-2.98539e-05 1.62767e-05 -0.000207332
0.000589768 -0.000232057 -2.28052e-06
-0.000232057 3.44575e-05 -9.45608e-07
-2.28052e-06 -9.45608e-07 -0.000218928
-9.24361e-06 -0.000306826 2.03857e-06
-0.000306826 -0.000434044 -2.26929e-06
2.03857e-06 -2.26929e-06 -0.000740772
0.00500556 0.000222779 -0.000109156
0.000222779 0.00297925 1.13557e-05
-0.000109156 1.13557e-05 0.0029454
0.000552884 -0.000135233 2.67097e-06
-0.000135233 4.68146e-06 2.00686e-07
2.67097e-06 2.00686e-07 -9.49454e-05
0.00116076 -0.000269188 5.73363e-06
-0.000269188 0.000441423 -1.37481e-06
5.73363e-06 -1.37481e-06 0.000179571
0.0028543 0.000145667 6.80294e-05
0.000145667 0.00157816 1.56719e-06
6.80294e-05 1.56719e-06 0.00154352
0.000744793 -7.89737e-05 1.46854e-05
-7.89737e-05 0.000155011 -1.58248e-05
1.46854e-05 -1.58248e-05 6.75384e-05
0.0039698 0.000133643 9.71978e-05
0.000133643 0.00227124 -8.30408e-06
9.71978e-05 -8.30408e-06 0.00226487
0.00214392 0.000458933 -6.07624e-07
0.000458933 0.000923887 1.19715e-06
-6.07624e-07 1.19715e-06 0.000624319
0.000590268 0.00021982 -4.40386e-06
0.00021982 2.35139e-05 4.44788e-07
-4.40386e-06 4.44788e-07 -0.000203344
0.000275638 0.000217688 -1.42264e-07
0.000217688 -6.51081e-05 -2.775e-06
-1.42264e-07 -2.775e-06 -0.000340846
0.000633702 0.000209544 -7.8192e-07
0.000209544 0.000191195 1.64772e-06
-7.8192e-07 1.64772e-06 -7.7981e-05
0.000960422 0.000131253 -2.72317e-07
0.000131253 0.000445149 9.00993e-08
-2.72317e-07 9.00993e-08 0.00014174
0.00118323 0.000159338 -1.91789e-06
0.000159338 0.000494968 -1.06212e-05
-1.91789e-06 -1.06212e-05 0.000289049
0.000570021 6.43119e-05 -9.49924e-06
6.43119e-05 7.11695e-05 -1.64541e-05
-9.49924e-06 -1.64541e-05 8.26558e-06
0.000663799 0.000113066 -2.31468e-07
0.000113066 0.000161805 2.26578e-07
-2.31468e-07 2.26578e-07 -5.18526e-06
-0.000935002 6.62359e-06 -7.58791e-06
6.62359e-06 -0.000763499 9.53642e-06
-7.58791e-06 9.53642e-06 -0.0010262
0.00324059 -9.99691e-05 -7.2593e-05
-9.99691e-05 0.00179533 -7.39537e-06
-7.2593e-05 -7.39537e-06 0.00179834
0.000337044 2.94289e-05 1.44884e-06
2.94289e-05 -7.2277e-05 -3.29692e-07
1.44884e-06 -3.29692e-07 -0.000122458
0.000647768 8.43952e-05 -3.83258e-06
8.43952e-05 0.000149314 1.02107e-05
-3.83258e-06 1.02107e-05 1.24322e-05
0.00290686 -9.14731e-05 -8.68784e-06
-9.14731e-05 0.00157227 7.94902e-07
-8.68784e-06 7.94902e-07 0.00157621
0.000295934 -1.11451e-05 -1.3059e-06
-1.11451e-05 -0.000103565 9.94274e-06
-1.3059e-06 9.94274e-06 -0.000143717
0.00264399 -7.10095e-05 3.04513e-05
-7.10095e-05 0.00139514 5.82832e-06
3.04513e-05 5.82832e-06 0.00140286
0.00243459 -0.000381326 -0.00138714
-0.000381326 0.00447939 -7.37943e-05
-0.00138714 -7.37943e-05 0.00197271
-0.00508577 -0.000181627 3.26364e-06
-0.000181627 0.00648117 -2.9079e-05
3.26364e-06 -2.9079e-05 -0.0018328
0.00651027 0.000498015 -0.000432944
0.000498015 0.00401086 -0.000117003
-0.000432944 -0.000117003 0.00117313
0.000140778 0.00012765 5.74318e-06
0.00012765 -0.000236704 7.33956e-07
5.74318e-06 7.33956e-07 -0.000509388
0.000114379 0.000148374 7.22933e-06
0.000148374 -0.000143048 3.40621e-06
7.22933e-06 3.40621e-06 -0.000528372
0.00293993 0.00077396 -3.60762e-06
0.00077396 0.00153152 2.03918e-06
-3.60762e-06 2.03918e-06 0.0010622
0.00239787 0.000927618 1.95605e-05
0.000927618 0.00103749 1.32009e-05
1.95605e-05 1.32009e-05 0.000452384
0.00104617 0.000655255 8.41899e-06
0.000655255 0.000564253 1.46198e-05
8.41899e-06 1.46198e-05 4.71542e-05
0.00254649 0.000344851 -5.61241e-06
0.000344851 0.00153679 5.97129e-06
-5.61241e-06 5.97129e-06 0.00123428
0.00245981 0.000349842 1.37903e-05
0.000349842 0.00137982 8.36951e-06
1.37903e-05 8.36951e-06 0.00104245
0.00131525 0.000690635 -4.35811e-06
0.000690635 0.000695725 1.72826e-06
-4.35811e-06 1.72826e-06 0.00016085
0.000651488 0.000916969 1.41854e-05
0.000916969 -0.000142151 -3.88182e-06
1.41854e-05 -3.88182e-06 -0.000594757
0.00283435 0.00111991 -5.67039e-06
0.00111991 0.00112267 3.3996e-05
-5.67039e-06 3.3996e-05 0.000799873
0.00151878 0.00115954 3.35471e-05
0.00115954 5.82611e-05 1.22398e-05
3.35471e-05 1.22398e-05 -0.000153659
0.00136754 0.000833251 4.95914e-06
0.000833251 0.000480482 5.07282e-08
4.95914e-06 5.07282e-08 0.000162743
0.00182233 0.000600733 -1.21207e-06
0.000600733 0.00111618 2.29439e-05
-1.21207e-06 2.29439e-05 0.000591601
0.0156504 0.00401545 -0.000151621
0.00401545 0.0014021 5.16744e-05
-0.000151621 5.16744e-05 0.000716248
0.00672984 -0.00326178 -0.000795275
-0.00326178 0.00511654 -0.000251338
-0.000795275 -0.000251338 0.000908606
0.00266926 -0.00599118 0.00130783
-0.00599118 0.0103064 0.000261182
0.00130783 0.000261182 0.00242821
0.0159166 -0.00351295 0.000541542
-0.00351295 0.0063458 0.000271836
0.000541542 0.000271836 0.000177544
0.0125177 0.00697166 -0.000149831
0.00697166 0.00444121 -6.24432e-05
-0.000149831 -6.24432e-05 0.000186018
-0.00236069 0.000631878 -4.09479e-06
0.000631878 0.000983119 -1.05451e-05
-4.09479e-06 -1.05451e-05 0.000159279
0.00194414 0.00267123 -9.4183e-05
0.00267123 0.000546198 -3.97437e-05
-9.4183e-05 -3.97437e-05 0.00156594
0.0149101 0.00711963 1.67013e-05
0.00711963 0.00158687 4.21697e-05
1.67013e-05 4.21697e-05 -0.00094855
0.0071983 0.00504158 -0.000161753
0.00504158 -0.000639529 -0.000138615
-0.000161753 -0.000138615 0.000409674
0.00166005 0.00153172 8.63787e-06
0.00153172 0.000122273 -2.01438e-06
8.63787e-06 -2.01438e-06 -0.000252688
0.00157813 0.00118215 1.37555e-05
0.00118215 0.000444308 -3.33326e-06
1.37555e-05 -3.33326e-06 7.17963e-05
0.00204443 0.000765458 -3.84084e-05
0.000765458 0.000956365 -1.05964e-05
-3.84084e-05 -1.05964e-05 0.000768369
0.00206876 0.00214867 -8.29013e-05
0.00214867 0.00046838 -3.3576e-05
-8.29013e-05 -3.3576e-05 -0.000645502
0.00177523 0.00248775 0.00010829
0.00248775 -0.000649244 5.7196e-05
0.00010829 5.7196e-05 -0.00133469
0.00454605 -0.000320306 -0.000146004
-0.000320306 -0.00568816 4.14304e-05
-0.000146004 4.14304e-05 -0.00609876
0.000114108 -0.00236841 1.51095e-05
-0.00236841 0.00335132 4.92792e-05
1.51095e-05 4.92792e-05 0.0012469
-0.0140147 -0.00043726 0.000519334
-0.00043726 0.00759527 -1.52761e-05
0.000519334 -1.52761e-05 0.00150378
0.00218818 -0.00305731 -9.8475e-05
-0.00305731 0.000252869 4.66355e-05
-9.8475e-05 4.66355e-05 -0.000910081
0.00657252 -0.00460465 2.41547e-05
-0.00460465 -0.000118313 6.36547e-05
2.41547e-05 6.36547e-05 0.00109424
0.00464486 0.000618081 0.00144527
0.000618081 0.00501049 -0.000340699
0.00144527 -0.000340699 0.00246753
0.0156188 -0.0036647 -0.000406817
-0.0036647 0.000834516 0.000230608
-0.000406817 0.000230608 0.000826873
0.00190884 -0.00198532 -3.0097e-05
-0.00198532 -0.000231364 7.01483e-06
-3.0097e-05 7.01483e-06 -0.000579041
0.0124268 -0.000336027 -0.000278602
-0.000336027 -0.00228182 9.62182e-05
-0.000278602 9.62182e-05 -0.0026094
0.0072982 -0.00291159 0.000100367
-0.00291159 -0.00115768 1.08805e-05
0.000100367 1.08805e-05 0.00049165
0.00374172 -0.00167131 6.37634e-05
-0.00167131 -2.8201e-05 -4.2927e-05
6.37634e-05 -4.2927e-05 -8.13523e-06
0.00268949 -0.00114262 3.39363e-05
-0.00114262 -0.00309534 -2.03049e-06
3.39363e-05 -2.03049e-06 -0.000864332
-0.00190942 -0.000633614 -8.76041e-06
-0.000633614 -0.00181807 2.2999e-05
-8.76041e-06 2.2999e-05 -0.00190156
0.001432 -0.000959815 -2.25133e-05
-0.000959815 -0.000421337 4.51487e-06
-2.25133e-05 4.51487e-06 -0.000431103
0.00394723 -0.000975567 4.375e-05
-0.000975567 0.000732368 -1.48324e-05
4.375e-05 -1.48324e-05 0.000798907
0.00192873 -0.00113857 -1.47564e-05
-0.00113857 0.000105241 8.301e-06
-1.47564e-05 8.301e-06 -0.000342169
0.00253562 -0.000985074 -4.53333e-06
-0.000985074 0.000103353 2.5229e-06
-4.53333e-06 2.5229e-06 -0.000112423
0.00267529 -0.000779779 7.07711e-06
-0.000779779 -4.70151e-06 -6.38785e-07
7.07711e-06 -6.38785e-07 -2.3581e-06
0.00223442 -0.00091522 -3.2681e-06
-0.00091522 0.000143048 8.97828e-06
-3.2681e-06 8.97828e-06 -0.000189375
0.00229381 -0.000678891 6.39183e-08
-0.000678891 -2.66226e-05 1.23237e-06
6.39183e-08 1.23237e-06 -0.000121607
0.0024704 -0.000681993 5.04636e-07
-0.000681993 4.38288e-05 2.93343e-07
5.04636e-07 2.93343e-07 1.84623e-05
0.00204316 -0.000615974 2.90594e-06
-0.000615974 -1.20271e-05 5.21216e-06
2.90594e-06 5.21216e-06 -0.000215351
0.0022669 -0.000636013 -1.5531e-08
-0.000636013 7.38946e-05 9.23682e-07
-1.5531e-08 9.23682e-07 -5.29527e-05
0.00242039 -0.000669655 -9.5833e-07
-0.000669655 0.000114192 1.69645e-06
-9.5833e-07 1.69645e-06 1.45576e-05
0.00223571 -0.000621837 -4.82897e-06
-0.000621837 0.000140875 1.21226e-06
-4.82897e-06 1.21226e-06 -1.51655e-05
0.00225046 -0.000596375 -5.71473e-07
-0.000596375 0.000206725 1.10044e-07
-5.71473e-07 1.10044e-07 3.35688e-05
0.00227016 -0.000585087 2.21661e-08
-0.000585087 0.000198021 3.49801e-06
2.21661e-08 3.49801e-06 1.60479e-05
0.00224397 -0.00057199 8.49353e-07
-0.00057199 0.000265815 -4.60494e-07
8.49353e-07 -4.60494e-07 5.61542e-05
0.00216163 -0.000587345 -2.7865e-06
-0.000587345 0.000226124 -1.45557e-06
-2.7865e-06 -1.45557e-06 -3.99051e-06
0.0022647 -0.000645411 -3.08065e-06
-0.000645411 0.000351496 -5.33352e-06
-3.08065e-06 -5.33352e-06 4.58357e-05
0.00229385 -0.000663375 -6.16723e-07
-0.000663375 0.000299671 1.23676e-07
-6.16723e-07 1.23676e-07 8.51012e-06
0.00235134 -0.000646859 7.08913e-06
-0.000646859 0.000314759 4.83361e-06
7.08913e-06 4.83361e-06 4.08303e-05
0.00186507 -0.000687351 -8.82217e-06
-0.000687351 0.00029716 -5.04114e-07
-8.82217e-06 -5.04114e-07 -0.000116213
0.00207568 -0.000771081 -1.74417e-06
-0.000771081 0.000324548 -7.50708e-07
-1.74417e-06 -7.50708e-07 -8.85067e-05
0.00184201 -0.000788243 4.21511e-06
-0.000788243 8.9229e-05 3.70337e-06
4.21511e-06 3.70337e-06 -0.000318782
0.00101546 -0.000348995 -1.4512e-05
-0.000348995 0.000115993 8.7306e-06
-1.4512e-05 8.7306e-06 -0.000171422
0.00170262 -0.000689068 5.48412e-07
-0.000689068 0.000380526 9.74352e-07
5.48412e-07 9.74352e-07 -6.52705e-05
0.00226336 -0.00090354 4.17613e-07
-0.00090354 0.000626306 4.40947e-06
4.17613e-07 4.40947e-06 0.000114399
8.01118e-05 -0.00020957 -1.81067e-05
-0.00020957 -0.000315372 2.23852e-05
-1.81067e-05 2.23852e-05 -0.0004639
0.000663852 -0.000286813 1.15721e-06
-0.000286813 1.34165e-05 4.55905e-07
1.15721e-06 4.55905e-07 -0.000250523
0.000912557 -0.000498219 7.24297e-06
-0.000498219 4.23871e-05 -1.1155e-06
7.24297e-06 -1.1155e-06 -0.000341482
0.00610101 0.000126316 -0.000197616
0.000126316 0.00364301 1.34244e-05
-0.000197616 1.34244e-05 0.00363551
0.000476289 -0.000203554 -8.03612e-06
-0.000203554 -6.5049e-05 -1.26927e-06
-8.03612e-06 -1.26927e-06 -0.000184129
0.00047305 -0.000257095 4.5135e-06
-0.000257095 -1.65318e-05 -5.2589e-06
4.5135e-06 -5.2589e-06 -0.000286194
0.00546002 0.00016762 1.43021e-05
0.00016762 0.00325554 -1.31612e-06
1.43021e-05 -1.31612e-06 0.00323745
0.000548726 -0.000164018 2.98965e-05
-0.000164018 3.61654e-07 -1.50872e-05
2.98965e-05 -1.50872e-05 -0.000104879
0.00481469 0.000140469 0.000150844
0.000140469 0.00282908 -1.22817e-05
0.000150844 -1.22817e-05 0.00282011
0.00275548 0.00084911 2.85781e-06
0.00084911 0.00125793 6.53955e-06
2.85781e-06 6.53955e-06 0.000732947
0.000894895 0.000383128 -2.886e-06
0.000383128 0.00015306 -7.50521e-07
-2.886e-06 -7.50521e-07 -0.000150102
0.00076183 0.000238824 6.35748e-06
0.000238824 0.000111467 -9.80895e-07
6.35748e-06 -9.80895e-07 -0.00012726
-0.000795124 9.13639e-05 -8.39399e-07
9.13639e-05 -0.000848093 -5.53131e-06
-8.39399e-07 -5.53131e-06 -0.00107009
0.000261395 0.000215698 3.08463e-06
0.000215698 -0.000119546 7.4894e-07
3.08463e-06 7.4894e-07 -0.000361135
0.000905917 0.000241249 -5.60579e-06
0.000241249 0.000276688 -9.02455e-06
-5.60579e-06 -9.02455e-06 5.45892e-05
-3.46842e-05 7.83329e-05 -3.02801e-06
7.83329e-05 -0.000192047 2.2352e-06
-3.02801e-06 2.2352e-06 -0.000490945
0.00071359 0.000134764 6.87728e-07
0.000134764 0.000211702 7.39926e-07
6.87728e-07 7.39926e-07 -1.34192e-06
0.000733857 9.0624e-05 -1.52039e-05
9.0624e-05 0.000168348 -1.8842e-05
-1.52039e-05 -1.8842e-05 8.60981e-05
0.00363153 -0.000110232 -9.86557e-05
-0.000110232 0.00205792 -1.05605e-05
-9.86557e-05 -1.05605e-05 0.00205779
0.000437918 3.63428e-05 1.98117e-06
3.63428e-05 -4.0407e-06 -4.83566e-07
1.98117e-06 -4.83566e-07 -6.74254e-05
0.000220507 7.16527e-05 -2.89938e-06
7.16527e-05 -0.000109316 1.11971e-05
-2.89938e-06 1.11971e-05 -0.000274974
0.00310768 -0.000113157 -1.08491e-05
-0.000113157 0.00171125 1.067e-06
-1.08491e-05 1.067e-06 0.00171016
0.000278914 -6.41236e-05 -9.998e-06
-6.41236e-05 -9.79687e-05 1.36254e-05
-9.998e-06 1.36254e-05 -0.000153894
0.00281131 -9.09476e-05 3.84032e-05
-9.09476e-05 0.00151117 6.02853e-06
3.84032e-05 6.02853e-06 0.0015147
0.0160444 0.000829509 0.000643644
0.000829509 0.00123248 0.000148098
0.000643644 0.000148098 0.00148351
0.000764415 -0.00431059 -0.000821173
-0.00431059 -0.00146015 -9.39579e-05
-0.000821173 -9.39579e-05 -0.00543869
-0.00885813 0.00172687 -0.000276181
0.00172687 0.00612205 -0.000127533
-0.000276181 -0.000127533 -0.00204213
-4.05071e-05 7.95611e-05 1.10746e-05
7.95611e-05 -0.000241388 -2.48018e-05
1.10746e-05 -2.48018e-05 -0.000653132
0.00109768 0.00054549 -7.46479e-06
0.00054549 0.000397842 -5.57405e-06
-7.46479e-06 -5.57405e-06 -3.69716e-05
0.00262335 0.000810472 -1.19069e-05
0.000810472 0.00143812 -4.89717e-06
-1.19069e-05 -4.89717e-06 0.000884948
0.00126318 0.000774781 9.18781e-07
0.000774781 0.000350308 -6.23554e-07
9.18781e-07 -6.23554e-07 -0.000196545
0.00176135 0.000876667 1.60517e-05
0.000876667 0.000390695 2.30935e-05
1.60517e-05 2.30935e-05 -0.000121317
-0.000447883 0.000679236 3.40057e-05
0.000679236 -0.000733407 1.28518e-05
3.40057e-05 1.28518e-05 -0.00118232
0.00125593 0.000598842 -1.20966e-05
0.000598842 0.000707051 3.92881e-06
-1.20966e-05 3.92881e-06 0.000185607
0.000240108 0.000838879 7.2034e-06
0.000838879 -0.000387728 1.58904e-06
7.2034e-06 1.58904e-06 -0.000814903
0.00226073 0.00103636 2.03504e-05
0.00103636 0.000851266 4.30165e-06
2.03504e-05 4.30165e-06 0.000477582
0.000723844 0.000859801 8.6959e-06
0.000859801 -0.00022902 -1.15146e-06
8.6959e-06 -1.15146e-06 -0.000599228
0.00345383 0.00126599 7.92186e-06
0.00126599 0.00113201 9.73826e-06
7.92186e-06 9.73826e-06 0.000871085
0.00257983 0.00128134 2.1621e-05
0.00128134 0.000660934 8.2908e-06
2.1621e-05 8.2908e-06 0.000228187
0.00105137 0.00108996 9.74104e-06
0.00108996 -0.000204851 -1.73806e-06
9.74104e-06 -1.73806e-06 -0.000362557
0.00168527 0.000792873 -1.9225e-05
0.000792873 0.000668895 -7.81156e-05
-1.9225e-05 -7.81156e-05 0.000359675
0.00403998 0.00243931 3.05549e-05
0.00243931 -0.00322119 4.68242e-05
3.05549e-05 4.68242e-05 -0.000626926
0.0133108 0.00475924 0.000362817
0.00475924 -0.000810655 0.000211594
0.000362817 0.000211594 -0.00192926
0.0150267 -0.00643234 0.000889862
-0.00643234 0.00740314 -9.85607e-05
0.000889862 -9.85607e-05 0.00200438
0.00567238 0.00755792 0.000828031
0.00755792 -0.00170437 0.000417196
0.000828031 0.000417196 -0.0054734
-0.000696379 0.00179309 -4.2701e-05
0.00179309 1.47497e-05 2.25275e-05
-4.2701e-05 2.25275e-05 0.000688987
0.00357148 0.00314739 -9.32288e-05
0.00314739 -0.00119058 -5.85064e-05
-9.32288e-05 -5.85064e-05 0.00038242
0.00684024 0.0028544 5.42271e-05
0.0028544 0.00108155 3.36887e-05
5.42271e-05 3.36887e-05 0.000882144
0.00550805 0.00216562 2.41691e-05
0.00216562 0.00185854 1.08584e-05
2.41691e-05 1.08584e-05 0.0013268
0.000732244 0.00103099 -3.63439e-05
0.00103099 -2.04887e-05 3.70485e-06
-3.63439e-05 3.70485e-06 -0.000322576
0.00869693 0.00345141 -0.000210587
0.00345141 0.00257065 -1.18144e-05
-0.000210587 -1.18144e-05 0.00157698
0.00430037 -0.000853715 -6.4791e-06
-0.000853715 -0.00143792 2.68219e-05
-6.4791e-06 2.68219e-05 0.000147768
0.01193 -0.000626163 -6.38097e-05
-0.000626163 -0.000159465 -3.82589e-05
-6.38097e-05 -3.82589e-05 0.000503444
-0.0131 -0.00395271 0.00113544
-0.00395271 -0.00399849 -1.02765e-05
0.00113544 -1.02765e-05 -0.00679342
0.00148082 -0.001778 -0.000144604
-0.001778 -0.000330539 4.42596e-05
-0.000144604 4.42596e-05 -0.00059261
0.00825892 -0.00349024 -5.61545e-05
-0.00349024 -0.00144206 0.000102971
-5.61545e-05 0.000102971 0.00044846
0.00187866 -0.000406782 -0.000407441
-0.000406782 -0.00674507 2.94495e-05
-0.000407441 2.94495e-05 -0.00739848
0.00346463 -0.00148597 3.98091e-05
-0.00148597 -0.000171847 1.3292e-06
3.98091e-05 1.3292e-06 0.00015347
0.0053167 -0.00113177 -7.19997e-05
-0.00113177 -0.00137722 -6.39897e-07
-7.19997e-05 -6.39897e-07 0.000255102
0.00713075 -0.00121847 6.56725e-05
-0.00121847 0.00175941 -4.02944e-05
6.56725e-05 -4.02944e-05 0.00223097
0.00599268 -0.000717286 0.000128698
-0.000717286 0.000786873 1.29189e-06
0.000128698 1.29189e-06 0.00151124
-0.00229383 -0.000613081 1.07169e-05
-0.000613081 -0.00260732 1.19326e-05
1.07169e-05 1.19326e-05 -0.00231
0.0022486 -0.000827336 -9.8846e-06
-0.000827336 -0.000268498 3.09309e-06
-9.8846e-06 3.09309e-06 -4.84112e-05
0.00256958 -0.000620728 2.74207e-05
-0.000620728 -0.000265177 -6.70649e-06
2.74207e-05 -6.70649e-06 6.55794e-05
0.00213924 -0.000958917 -3.84625e-06
-0.000958917 -0.000122848 4.28606e-06
-3.84625e-06 4.28606e-06 -0.000340799
0.00260202 -0.000771885 1.02643e-06
-0.000771885 -3.96347e-05 1.64134e-06
1.02643e-06 1.64134e-06 -3.61484e-05
0.00262706 -0.000670514 1.55361e-06
-0.000670514 -4.54221e-06 -2.49245e-07
1.55361e-06 -2.49245e-07 1.91664e-05
0.00223232 -0.000677333 1.33099e-06
-0.000677333 -6.85517e-05 4.39805e-06
1.33099e-06 4.39805e-06 -0.000165039
0.00243912 -0.000678218 1.92074e-07
-0.000678218 3.95865e-05 4.64901e-07
1.92074e-07 4.64901e-07 4.94542e-06
0.00241964 -0.000589789 -1.18035e-06
-0.000589789 2.29513e-05 -1.25364e-07
-1.18035e-06 -1.25364e-07 -1.75729e-05
0.00222611 -0.000631748 1.33738e-06
-0.000631748 5.00959e-05 1.50721e-07
1.33738e-06 1.50721e-07 -7.62309e-05
0.00242679 -0.000667386 -1.04498e-08
-0.000667386 0.000147123 -6.60213e-08
-1.04498e-08 -6.60213e-08 4.1114e-05
0.00231018 -0.000582455 1.21734e-06
-0.000582455 0.000127446 5.18445e-07
1.21734e-06 5.18445e-07 1.43574e-05
0.00224094 -0.000629497 -3.36003e-06
-0.000629497 0.000133721 -1.75536e-07
-3.36003e-06 -1.75536e-07 -1.64862e-05
0.00220779 -0.000590827 -1.63398e-06
-0.000590827 0.000177949 4.42181e-08
-1.63398e-06 4.42181e-08 7.4527e-06
0.00232596 -0.000576775 -2.14671e-06
-0.000576775 0.000297347 4.6636e-07
-2.14671e-06 4.6636e-07 9.9644e-05
0.00224812 -0.000568715 3.15346e-06
-0.000568715 0.000266678 1.48413e-06
3.15346e-06 1.48413e-06 5.80265e-05
0.00218267 -0.000586663 -3.08655e-07
-0.000586663 0.000236308 5.97663e-08
-3.08655e-07 5.97663e-08 6.94339e-06
0.0022162 -0.000586473 -6.88141e-07
-0.000586473 0.000289682 -2.29616e-06
-6.88141e-07 -2.29616e-06 3.53664e-05
0.00195537 -0.000584106 -6.46236e-06
-0.000584106 0.000261798 -2.31257e-06
-6.46236e-06 -2.31257e-06 -6.57973e-05
0.00216344 -0.000643303 -3.76038e-07
-0.000643303 0.00028429 -1.55409e-06
-3.76038e-07 -1.55409e-06 -2.83064e-05
0.00235947 -0.000673195 4.4142e-06
-0.000673195 0.000344928 3.49186e-06
4.4142e-06 3.49186e-06 5.02933e-05
0.00118787 -0.000412068 -2.11133e-05
-0.000412068 8.62408e-05 8.68611e-06
-2.11133e-05 8.68611e-06 -0.000217428
0.00195754 -0.000688423 -1.03299e-06
-0.000688423 0.000367957 6.25138e-07
-1.03299e-06 6.25138e-07 -4.29729e-05
0.00202252 -0.000768233 7.73331e-07
-0.000768233 0.000286005 3.30353e-06
7.73331e-07 3.30353e-06 -0.000130492
0.000178211 -0.000222911 -1.74103e-05
-0.000222911 -0.00029139 2.41846e-05
-1.74103e-05 2.41846e-05 -0.000451894
0.00082686 -0.000347441 3.04079e-06
-0.000347441 -8.5245e-06 2.00977e-07
3.04079e-06 2.00977e-07 -0.000300887
0.00178469 -0.000692756 9.53306e-06
-0.000692756 0.000442644 5.28569e-07
9.53306e-06 5.28569e-07 -1.94487e-06
0.00710474 3.60534e-05 -0.000273314
3.60534e-05 0.0042483 2.02051e-05
-0.000273314 2.02051e-05 0.00425559
0.000349273 -0.000234164 -2.78793e-06
-0.000234164 -0.000150076 -4.18352e-07
-2.78793e-06 -4.18352e-07 -0.000301268
0.0004103 -0.00027949 8.60514e-06
-0.00027949 -0.000148723 -7.0828e-06
8.60514e-06 -7.0828e-06 -0.000417636
0.00643507 9.00264e-05 -1.20888e-05
9.00264e-05 0.00385943 -2.50541e-06
-1.20888e-05 -2.50541e-06 0.00385306
0.000472365 -0.000213934 2.38629e-05
-0.000213934 -6.43065e-05 -1.9467e-05
2.38629e-05 -1.9467e-05 -0.000188045
0.00584602 0.000134334 0.000203387
0.000134334 0.00351225 -2.4814e-05
0.000203387 -2.4814e-05 0.00349509
0.0020347 0.000821875 -8.64145e-06
0.000821875 0.000594612 9.34099e-06
-8.64145e-06 9.34099e-06 9.8229e-05
0.0019045 0.000738592 -1.29751e-06
0.000738592 0.000697817 -7.10974e-07
-1.29751e-06 -7.10974e-07 0.000208605
0.00123758 0.000487754 -4.37015e-06
0.000487754 0.000321492 1.95144e-06
-4.37015e-06 1.95144e-06 -4.99353e-05
0.00099091 0.000438224 -2.0174e-06
0.000438224 0.000251927 -3.22433e-06
-2.0174e-06 -3.22433e-06 -8.28998e-05
0.000654646 0.000242983 -7.48656e-07
0.000242983 5.21495e-05 -1.60671e-06
-7.48656e-07 -1.60671e-06 -0.000197334
0.000613545 0.000238544 -4.59877e-06
0.000238544 6.54636e-05 -4.40547e-06
-4.59877e-06 -4.40547e-06 -0.000191827
0.000618726 0.000138134 1.16993e-06
0.000138134 0.000104249 4.81426e-07
1.16993e-06 4.81426e-07 -0.000124152
0.000764531 0.000178603 1.79433e-06
0.000178603 0.000230144 -1.18132e-06
1.79433e-06 -1.18132e-06 -2.05797e-05
0.00068075 0.000132277 -2.32347e-05
0.000132277 0.000105291 -2.02489e-05
-2.32347e-05 -2.02489e-05 3.76474e-06
-8.67389e-06 0.000105661 -8.84573e-07
0.000105661 -0.00022211 1.18536e-05
-8.84573e-07 1.18536e-05 -0.000447877
0.000476518 8.94581e-05 -3.4732e-08
8.94581e-05 9.90049e-06 -3.12711e-07
-3.4732e-08 -3.12711e-07 -7.00917e-05
0.00438456 -0.000137073 -0.000126894
-0.000137073 0.00255985 -1.49437e-05
-0.000126894 -1.49437e-05 0.00255026
0.00364893 -0.000137905 -1.32872e-05
-0.000137905 0.00207429 1.25813e-06
-1.32872e-05 1.25813e-06 0.00206682
0.000292028 6.97357e-05 9.55272e-06
6.97357e-05 -9.55519e-05 1.67344e-05
9.55272e-06 1.67344e-05 -0.00015671
0.00310512 -0.000116801 4.62495e-05
-0.000116801 0.00171029 6.52681e-06
4.62495e-05 6.52681e-06 0.00170795
0.00308674 0.000349952 0.000108248
0.000349952 -0.00200554 3.69098e-05
0.000108248 3.69098e-05 1.15574e-05
0.00592312 -0.000757066 0.000246733
-0.000757066 -0.00548802 0.000128113
0.000246733 0.000128113 -0.00615223
0.0153986 -0.00477469 -0.000302873
-0.00477469 0.00744299 -0.000130536
-0.000302873 -0.000130536 0.00378573
0.00173611 0.000794271 8.14733e-06
0.000794271 0.000153045 1.15634e-05
8.14733e-06 1.15634e-05 -0.000259363
0.00515743 0.00107151 -1.45364e-05
0.00107151 0.00285432 -9.75984e-06
-1.45364e-05 -9.75984e-06 0.00227809
0.000222804 0.000632614 -9.42424e-06
0.000632614 -0.000278816 -1.24566e-05
-9.42424e-06 -1.24566e-05 -0.000788284
0.00172276 0.000957371 1.84277e-06
0.000957371 0.000571506 -1.80114e-06
1.84277e-06 -1.80114e-06 5.27624e-05
0.00197131 0.000901526 -1.14339e-06
0.000901526 0.000544149 4.17579e-06
-1.14339e-06 4.17579e-06 2.01294e-05
0.00199716 0.000991634 2.79737e-05
0.000991634 0.000484909 1.79188e-05
2.79737e-05 1.79188e-05 1.85934e-05
0.00219725 0.00105338 -4.14424e-05
0.00105338 0.000792077 -5.47582e-06
-4.14424e-05 -5.47582e-06 0.000293875
0.000843806 0.000838514 7.6181e-06
0.000838514 8.63053e-05 -3.62446e-05
7.6181e-06 -3.62446e-05 -0.000271159
0.00201398 0.001102 -5.45689e-07
0.001102 0.000472474 -1.06164e-06
-5.45689e-07 -1.06164e-06 5.4879e-05
0.00190783 0.00109428 1.44175e-05
0.00109428 0.000214343 -2.30202e-05
1.44175e-05 -2.30202e-05 9.83236e-05
0.00223585 0.0011035 2.2079e-05
0.0011035 0.000343718 -3.42611e-06
2.2079e-05 -3.42611e-06 -8.47233e-05
0.00209223 0.00093791 3.27244e-05
0.00093791 0.000292582 2.87356e-05
3.27244e-05 2.87356e-05 8.48469e-05
0.000781689 0.00104237 -9.21798e-06
0.00104237 -0.00030374 -7.26078e-06
-9.21798e-06 -7.26078e-06 -0.000642294
0.000865279 0.00103807 -3.09727e-05
0.00103807 -0.00025092 -1.99519e-05
-3.09727e-05 -1.99519e-05 -0.000412
0.00234023 0.0011427 5.41205e-05
0.0011427 -0.00114953 4.17863e-05
5.41205e-05 4.17863e-05 -0.000373846
0.00632816 0.00264569 -0.000109492
0.00264569 -0.00207574 -3.6208e-05
-0.000109492 -3.6208e-05 0.000332251
0.0046304 0.00341956 0.000735083
0.00341956 -0.00629485 0.000201654
0.000735083 0.000201654 -0.00720304
0.00342081 0.00276605 -0.000265788
0.00276605 -0.000214006 -0.000115358
-0.000265788 -0.000115358 0.000933042
0.00536352 0.00234835 -3.2429e-05
0.00234835 0.000800688 -9.37534e-06
-3.2429e-05 -9.37534e-06 0.00072336
0.00655984 0.00235883 -0.000191805
0.00235883 0.0022587 -5.39764e-05
-0.000191805 -5.39764e-05 0.00168332
0.00324926 -0.000238532 -5.11574e-05
-0.000238532 -0.000686295 -2.22593e-05
-5.11574e-05 -2.22593e-05 -0.000124337
-0.000508033 -0.000515607 0.000122203
-0.000515607 -0.00210319 2.95452e-05
0.000122203 2.95452e-05 -0.000409656
0.00583664 0.00049197 0.000303243
0.00049197 -0.00583233 -1.46348e-05
0.000303243 -1.46348e-05 -0.00603015
0.00119867 -0.00116867 -7.03909e-05
-0.00116867 -0.00127387 8.56611e-05
-7.03909e-05 8.56611e-05 -0.000734564
0.00686895 -0.00123671 -0.000208092
-0.00123671 -0.000605351 5.64743e-05
-0.000208092 5.64743e-05 0.000563632
0.00313686 -0.000924024 -2.98167e-05
-0.000924024 -0.000563705 1.16589e-05
-2.98167e-05 1.16589e-05 0.000107439
0.0046124 -0.000672857 -1.77527e-05
-0.000672857 0.000146911 -7.1866e-07
-1.77527e-05 -7.1866e-07 0.000713533
0.00436468 -0.000503799 8.9418e-05
-0.000503799 0.00075017 -1.4591e-05
8.9418e-05 -1.4591e-05 0.00109963
0.00287337 -0.000112059 4.66974e-05
-0.000112059 0.000254215 -7.61974e-07
4.66974e-05 -7.61974e-07 0.000363229
0.0004779 -0.000652563 -2.06613e-05
-0.000652563 -0.00126127 1.17241e-05
-2.06613e-05 1.17241e-05 -0.000898478
0.00248245 -0.000646908 -3.30463e-06
-0.000646908 -0.000320708 5.96085e-07
-3.30463e-06 5.96085e-07 -1.64596e-05
0.00261657 -0.000506041 3.7451e-06
-0.000506041 -0.000225483 -4.1254e-07
3.7451e-06 -4.1254e-07 2.95587e-05
0.002527 -0.000758962 -3.52357e-06
-0.000758962 -6.92403e-05 2.72722e-06
-3.52357e-06 2.72722e-06 -6.22541e-05
0.00262707 -0.000649116 -1.43728e-07
-0.000649116 2.46049e-05 -5.15162e-07
-1.43728e-07 -5.15162e-07 5.88268e-05
0.0024601 -0.00049494 -9.7462e-07
-0.00049494 -7.27367e-05 -1.77818e-07
-9.7462e-07 -1.77818e-07 -1.94004e-05
0.00239993 -0.000671917 -1.27522e-06
-0.000671917 3.25882e-05 4.88267e-07
-1.27522e-06 4.88267e-07 -9.47966e-06
0.00241496 -0.000593246 -6.96375e-07
-0.000593246 3.27194e-05 4.14448e-08
-6.96375e-07 4.14448e-08 -5.20897e-06
0.002305 -0.00049409 -9.40859e-08
-0.00049409 4.68341e-05 3.34779e-07
-9.40859e-08 3.34779e-07 -7.69081e-06
0.00243373 -0.000664216 -9.2828e-07
-0.000664216 0.000181131 -1.43636e-06
-9.2828e-07 -1.43636e-06 6.93352e-05
0.00229498 -0.000582359 1.03748e-06
-0.000582359 0.000115705 -2.38924e-07
1.03748e-06 -2.38924e-07 2.37886e-06
0.00220414 -0.000522347 -1.08893e-06
-0.000522347 0.000137981 3.6384e-07
-1.08893e-06 3.6384e-07 -3.47463e-06
0.00217039 -0.000586267 -2.4529e-06
-0.000586267 0.000153033 2.62493e-07
-2.4529e-06 2.62493e-07 -1.48419e-05
0.00226351 -0.000571245 -1.25414e-06
-0.000571245 0.000249705 6.74991e-07
-1.25414e-06 6.74991e-07 5.50325e-05
0.00233066 -0.000560622 -1.26894e-06
-0.000560622 0.000318696 -1.72722e-06
-1.26894e-06 -1.72722e-06 0.000103388
0.00219819 -0.000586021 2.62602e-06
-0.000586021 0.000242527 2.33742e-06
2.62602e-06 2.33742e-06 1.38093e-05
0.002213 -0.000587565 -6.19899e-08
-0.000587565 0.000287117 -9.99616e-08
-6.19899e-08 -9.99616e-08 3.46723e-05
0.00208575 -0.00052718 -4.80137e-06
-0.00052718 0.000307999 -6.92369e-07
-4.80137e-06 -6.92369e-07 2.83844e-05
0.00125458 -0.000394309 -1.97684e-05
-0.000394309 3.87154e-05 7.75539e-06
-1.97684e-05 7.75539e-06 -0.000242588
0.00194467 -0.000583113 -6.08438e-07
-0.000583113 0.000259351 -1.02723e-06
-6.08438e-07 -1.02723e-06 -7.24249e-05
0.00206288 -0.000641469 1.47841e-06
-0.000641469 0.000217414 2.23507e-06
1.47841e-06 2.23507e-06 -0.000102232
0.000230526 -0.000245666 -2.20903e-05
-0.000245666 -0.000266856 1.99754e-05
-2.20903e-05 1.99754e-05 -0.000437092
0.00114549 -0.000408417 1.85545e-06
-0.000408417 6.12554e-05 -1.02477e-07
1.85545e-06 -1.02477e-07 -0.000242342
0.00204806 -0.000690069 6.96828e-06
-0.000690069 0.000436227 1.44715e-06
6.96828e-06 1.44715e-06 2.74748e-05
0.00798761 -1.14723e-05 -0.0003224
-1.14723e-05 0.00477792 2.67085e-05
-0.0003224 2.67085e-05 0.00479
0.000256471 -0.000273436 -1.25968e-06
-0.000273436 -0.000230767 2.49756e-06
-1.25968e-06 2.49756e-06 -0.000403851
0.000653274 -0.000348083 1.49162e-05
-0.000348083 -0.000126952 -6.52339e-06
1.49162e-05 -6.52339e-06 -0.000424209
0.00740984 1.91198e-05 -6.92936e-06
1.91198e-05 0.00444292 2.76874e-07
-6.92936e-06 2.76874e-07 0.00444878
0.000743391 -0.000291136 2.57978e-05
-0.000291136 9.78165e-05 -2.48176e-05
2.57978e-05 -2.48176e-05 -5.99236e-05
0.00674063 8.57126e-05 0.000257649
8.57126e-05 0.00406303 -3.14526e-05
0.000257649 -3.14526e-05 0.00405313
0.00177747 0.000736559 -4.25972e-06
0.000736559 0.000248399 9.63787e-06
-4.25972e-06 9.63787e-06 -0.000170312
0.0019318 0.000810626 -1.67539e-06
0.000810626 0.000525521 1.01547e-06
-1.67539e-06 1.01547e-06 3.07072e-05
0.00150197 0.000611248 -9.0473e-06
0.000611248 0.000310592 4.21303e-06
-9.0473e-06 4.21303e-06 -0.000103044
0.00101886 0.000625848 -3.98536e-06
0.000625848 0.000106946 -5.73204e-06
-3.98536e-06 -5.73204e-06 -0.000346011
0.00143183 0.000479435 -3.98029e-06
0.000479435 0.000405862 -2.13982e-06
-3.98029e-06 -2.13982e-06 4.36025e-05
0.00077595 0.00026964 -1.28159e-05
0.00026964 0.000107549 -1.75519e-06
-1.28159e-05 -1.75519e-06 -0.00015619
0.000600656 0.00021598 -5.59506e-07
0.00021598 -1.0333e-05 -4.76101e-06
-5.59506e-07 -4.76101e-06 -0.00025543
0.000629075 0.000217362 1.93828e-06
0.000217362 4.70713e-05 -4.21775e-07
1.93828e-06 -4.21775e-07 -0.000184528
0.000386223 0.00018389 -3.06761e-05
0.00018389 -0.000117797 -1.96778e-05
-3.06761e-05 -1.96778e-05 -0.000225316
0.000601641 0.000152025 1.77981e-06
0.000152025 0.000113709 9.41033e-06
1.77981e-06 9.41033e-06 -0.000125619
0.00052707 0.000124662 -1.34817e-06
0.000124662 1.43943e-05 -3.46223e-07
-1.34817e-06 -3.46223e-07 -8.15414e-05
0.00535054 -0.000164494 -0.000168391
-0.000164494 0.0031998 -1.97614e-05
-0.000168391 -1.97614e-05 0.00317907
0.00022019 9.39805e-05 1.545e-05
9.39805e-05 -0.000148136 1.90089e-05
1.545e-05 1.90089e-05 -0.000223747
0.00412758 -0.000160531 -1.3414e-05
-0.000160531 0.0024008 1.52077e-06
-1.3414e-05 1.52077e-06 0.00238489
0.00344214 -0.000147191 5.70964e-05
-0.000147191 0.00194168 7.72283e-06
5.70964e-05 7.72283e-06 0.0019308
0.00106285 0.000309171 5.6436e-06
0.000309171 -0.0019813 1.15853e-05
5.6436e-06 1.15853e-05 -0.000931112
0.00489475 0.000235587 7.22974e-05
0.000235587 -0.00141879 3.03158e-05
7.22974e-05 3.03158e-05 0.000561851
0.0163131 0.000868794 2.41659e-05
0.000868794 0.00146269 6.47447e-05
2.41659e-05 6.47447e-05 0.0019671
0.0021919 0.000916097 2.50085e-06
0.000916097 0.000381131 7.43551e-06
2.50085e-06 7.43551e-06 -2.7638e-05
0.0022736 0.000840461 9.60854e-07
0.000840461 0.000277272 6.11976e-06
9.60854e-07 6.11976e-06 -7.29677e-05
0.00172054 0.000794612 -5.91827e-07
0.000794612 0.000152014 -4.51904e-06
-5.91827e-07 -4.51904e-06 -0.000255851
0.00328917 0.00116118 -1.67886e-05
0.00116118 0.00150064 -2.97053e-06
-1.67886e-05 -2.97053e-06 0.000936103
0.00219468 0.00092507 -8.36004e-06
0.00092507 0.0007084 -1.24628e-05
-8.36004e-06 -1.24628e-05 0.000172889
0.00223577 0.00105303 7.36477e-06
0.00105303 0.000577364 3.54866e-06
7.36477e-06 3.54866e-06 0.00010491
0.00235435 0.00103265 -2.87908e-06
0.00103265 0.000230879 -7.29363e-07
-2.87908e-06 -7.29363e-07 -0.00013652
0.00217743 0.00117359 -1.50664e-05
0.00117359 0.000499823 -1.85262e-06
-1.50664e-05 -1.85262e-06 7.42484e-05
0.000518605 0.000950545 -2.83676e-05
0.000950545 -0.000601421 6.43145e-05
-2.83676e-05 6.43145e-05 -0.000613305
0.00290051 0.00119346 4.51056e-07
0.00119346 0.00071607 -8.56079e-07
4.51056e-07 -8.56079e-07 0.000266246
0.00295684 0.00100866 -4.62929e-06
0.00100866 0.000438489 8.70424e-06
-4.62929e-06 8.70424e-06 0.000201381
0.00166976 0.000475516 5.37955e-05
0.000475516 -0.0001687 1.40897e-05
5.37955e-05 1.40897e-05 -2.91296e-05
0.000386755 0.000766155 7.47405e-06
0.000766155 -0.000599767 -7.14015e-06
7.47405e-06 -7.14015e-06 -0.000786344
0.000725611 0.00102363 -4.02275e-05
0.00102363 -0.000330067 -5.87377e-06
-4.02275e-05 -5.87377e-06 -0.000660597
0.00374556 0.00128504 2.12079e-05
0.00128504 -0.000348317 1.16928e-05
2.12079e-05 1.16928e-05 0.000266592
0.00892498 0.00249118 -6.56292e-05
0.00249118 -0.00072943 -4.95379e-05
-6.56292e-05 -4.95379e-05 0.00117437
0.00525662 0.00198721 -6.70413e-05
0.00198721 0.00123322 -7.95615e-05
-6.70413e-05 -7.95615e-05 0.00123888
0.00294609 -7.82092e-05 6.02235e-05
-7.82092e-05 0.000201575 7.82027e-06
6.02235e-05 7.82027e-06 0.000467551
0.00329222 -0.000249635 -8.45028e-05
-0.000249635 -0.000717831 7.04414e-06
-8.45028e-05 7.04414e-06 1.08906e-05
0.00521188 0.000505211 1.08462e-05
0.000505211 -0.000135286 -2.02271e-05
1.08462e-05 -2.02271e-05 0.00106979
0.000582896 -0.000776124 -8.36527e-05
-0.000776124 -0.00206265 6.20091e-05
-8.36527e-05 6.20091e-05 -0.00127555
0.00309205 -0.000690143 -0.0001063
-0.000690143 -0.000574902 6.14267e-06
-0.0001063 6.14267e-06 -0.000159253
0.00309917 -0.000458286 2.32123e-06
-0.000458286 -3.15578e-05 -3.70857e-06
2.32123e-06 -3.70857e-06 0.000441267
0.00234655 -0.000104574 -1.3787e-05
-0.000104574 -9.73393e-05 -6.69175e-07
-1.3787e-05 -6.69175e-07 4.37588e-05
0.00254322 -0.000290669 1.07632e-05
-0.000290669 -0.000222089 -7.40643e-07
1.07632e-05 -7.40643e-07 1.50812e-05
0.00230232 5.70892e-05 6.0683e-06
5.70892e-05 -0.000352773 -4.05626e-07
6.0683e-06 -4.05626e-07 -0.000205419
0.00251437 -0.000682358 -2.05031e-05
-0.000682358 -0.000309875 5.00754e-06
-2.05031e-05 5.00754e-06 -3.70816e-05
0.0026549 -0.000530619 -2.83122e-06
-0.000530619 -0.000211307 6.8635e-07
-2.83122e-06 6.8635e-07 5.43593e-06
0.00252436 -0.000360889 -5.31656e-07
-0.000360889 -0.000147802 -1.0859e-08
-5.31656e-07 -1.0859e-08 1.34953e-06
0.0026145 -0.000627991 -4.06099e-06
-0.000627991 4.14909e-05 4.86455e-07
-4.06099e-06 4.86455e-07 8.71936e-05
0.00247498 -0.000495214 2.45107e-07
-0.000495214 -5.11725e-05 -1.8167e-07
2.45107e-07 -1.8167e-07 -4.12644e-06
0.00235112 -0.000404778 4.9329e-07
-0.000404778 -2.86617e-05 9.92639e-08
4.9329e-07 9.92639e-08 -7.47109e-06
0.00241136 -0.000597118 -1.39435e-06
-0.000597118 4.2389e-05 -1.85263e-07
-1.39435e-06 -1.85263e-07 6.67536e-06
0.00231727 -0.000493325 3.7844e-07
-0.000493325 4.95742e-05 -3.36517e-08
3.7844e-07 -3.36517e-08 -4.78099e-06
0.0022376 -0.000441116 -1.81461e-06
-0.000441116 8.43331e-05 7.26028e-07
-1.81461e-06 7.26028e-07 6.00272e-06
0.00228256 -0.000582605 1.43382e-06
-0.000582605 0.000105554 -1.00999e-06
1.43382e-06 -1.00999e-06 -8.05294e-06
0.00220375 -0.000522663 7.18252e-07
-0.000522663 0.000132127 -4.05923e-07
7.18252e-07 -4.05923e-07 -9.62508e-06
0.00221161 -0.000495237 -2.08491e-06
-0.000495237 0.000196057 -5.01274e-07
-2.08491e-06 -5.01274e-07 2.00142e-05
0.00219421 -0.000565339 -2.92762e-07
-0.000565339 0.000197327 6.36453e-07
-2.92762e-07 6.36453e-07 5.76387e-06
0.00223589 -0.000555712 -1.30333e-07
-0.000555712 0.000256965 -1.35817e-07
-1.30333e-07 -1.35817e-07 4.18629e-05
0.00205172 -0.000490081 -3.91609e-06
-0.000490081 0.000229528 -6.01639e-07
-3.91609e-06 -6.01639e-07 -1.67197e-05
0.00220974 -0.000588599 1.32766e-06
-0.000588599 0.000284766 2.99166e-06
1.32766e-06 2.99166e-06 3.42084e-05
0.0020998 -0.000530981 -7.16296e-07
-0.000530981 0.000316543 -2.53032e-08
-7.16296e-07 -2.53032e-08 3.81319e-05
0.0012896 -0.000341794 -1.60756e-05
-0.000341794 2.87412e-05 7.10959e-06
-1.60756e-05 7.10959e-06 -0.000218823
0.000302082 -0.000229785 -1.94228e-05
-0.000229785 -0.000247167 1.97037e-05
-1.94228e-05 1.97037e-05 -0.000407257
0.00126698 -0.000392578 2.01426e-07
-0.000392578 5.13457e-05 4.44247e-08
2.01426e-07 4.44247e-08 -0.000228487
0.00192695 -0.000581593 4.77357e-06
-0.000581593 0.000252171 5.57075e-08
4.77357e-06 5.57075e-08 -8.37183e-05
0.00814522 -0.000109377 -0.000373767
-0.000109377 0.00485542 3.27862e-05
-0.000373767 3.27862e-05 0.00487752
0.000312909 -0.000254307 -1.35965e-06
-0.000254307 -0.000225073 1.18325e-06
-1.35965e-06 1.18325e-06 -0.000392588
0.000995159 -0.000396738 1.95236e-05
-0.000396738 -2.57222e-05 -7.12055e-06
1.95236e-05 -7.12055e-06 -0.000328338
0.0081223 -5.42932e-05 1.71843e-06
-5.42932e-05 0.00486107 1.30285e-06
1.71843e-06 1.30285e-06 0.00487625
0.000503577 -0.000289966 2.68232e-05
-0.000289966 -8.19878e-05 -2.30108e-05
2.68232e-05 -2.30108e-05 -0.000256349
0.0077943 -2.76803e-05 0.000335927
-2.76803e-05 0.00467647 -3.4331e-05
0.000335927 -3.4331e-05 0.00468711
0.00199317 0.000763004 1.08964e-06
0.000763004 0.000222649 9.6356e-06
1.08964e-06 9.6356e-06 -0.000145607
0.00186052 0.000751519 9.07977e-07
0.000751519 0.00030636 3.02531e-07
9.07977e-07 3.02531e-07 -0.000113084
0.00195054 0.000675789 -7.30773e-06
0.000675789 0.000441965 5.51614e-06
-7.30773e-06 5.51614e-06 3.58623e-05
0.00178174 0.000790041 5.48008e-06
0.000790041 0.00043501 -7.14947e-06
5.48008e-06 -7.14947e-06 -5.54256e-05
0.00154693 0.000614161 -5.9211e-07
0.000614161 0.000340633 7.19003e-07
-5.9211e-07 7.19003e-07 -7.46861e-05
0.000864839 0.00031568 -1.73444e-05
0.00031568 3.54986e-05 -3.1807e-06
-1.73444e-05 -3.1807e-06 -0.000234505
0.00162149 0.000469974 1.62504e-06
0.000469974 0.000497022 -2.76916e-06
1.62504e-06 -2.76916e-06 0.000143291
0.000569744 0.000232246 1.07669e-06
0.000232246 -3.17292e-05 4.63725e-07
1.07669e-06 4.63725e-07 -0.000282654
0.000442804 0.000238838 -3.11383e-05
0.000238838 -9.57418e-05 -2.24462e-05
-3.11383e-05 -2.24462e-05 -0.000225002
0.000665927 0.000160035 3.01554e-06
0.000160035 8.43374e-05 5.25797e-06
3.01554e-06 5.25797e-06 -0.000155429
0.000474779 0.000168803 1.44101e-06
0.000168803 -5.84091e-05 -9.66974e-07
1.44101e-06 -9.66974e-07 -0.000164735
0.00631155 -0.00019153 -0.0002016
-0.00019153 0.00383293 -2.68587e-05
-0.0002016 -2.68587e-05 0.00379765
0.000330876 0.000118007 1.99883e-05
0.000118007 -0.000101007 2.07407e-05
1.99883e-05 2.07407e-05 -0.000195645
0.0050051 -0.000199029 -1.39718e-05
-0.000199029 0.00298698 1.58784e-06
-1.39718e-05 1.58784e-06 0.00295698
0.00407388 -0.000182978 8.16987e-05
-0.000182978 0.00236996 1.05673e-05
8.16987e-05 1.05673e-05 0.00234841
0.00169491 0.00027068 4.35567e-05
0.00027068 -0.000395336 2.0279e-05
4.35567e-05 2.0279e-05 -4.96908e-05
0.00227597 0.000372262 -2.47992e-05
0.000372262 -0.00168258 -3.88516e-06
-2.47992e-05 -3.88516e-06 -0.000564537
0.00498603 0.000637475 0.000262192
0.000637475 -0.00169126 8.27322e-05
0.000262192 8.27322e-05 0.000657487
0.00264316 0.0008981 -9.03461e-06
0.0008981 0.0004343 8.34845e-07
-9.03461e-06 8.34845e-07 0.000101766
0.00209436 0.000929265 -8.17257e-06
0.000929265 0.000303358 -5.39379e-06
-8.17257e-06 -5.39379e-06 -0.000103508
0.00236693 0.000681687 2.39402e-06
0.000681687 0.000222392 5.64907e-06
2.39402e-06 5.64907e-06 -1.99036e-05
0.0023687 0.000839265 1.4885e-06
0.000839265 0.000340628 4.91987e-07
1.4885e-06 4.91987e-07 -6.59329e-06
0.00168772 0.000792979 3.1258e-07
0.000792979 0.000140034 -1.46789e-05
3.1258e-07 -1.46789e-05 -0.000262882
0.00259936 0.000800502 -5.24612e-06
0.000800502 0.000160616 1.16835e-06
-5.24612e-06 1.16835e-06 -3.16988e-05
0.00273114 0.00114525 -1.03682e-05
0.00114525 0.000823534 -8.43014e-06
-1.03682e-05 -8.43014e-06 0.000334863
0.00267392 0.00103549 -4.01993e-07
0.00103549 0.000438504 -2.83634e-07
-4.01993e-07 -2.83634e-07 6.70113e-05
0.00221692 0.00049745 -1.80529e-05
0.00049745 -0.000254261 7.65832e-07
-1.80529e-05 7.65832e-07 -0.000176058
0.00333042 0.00127605 -9.28133e-06
0.00127605 0.000913234 1.38026e-05
-9.28133e-06 1.38026e-05 0.000481637
0.00263286 0.000974387 2.10167e-07
0.000974387 0.000259788 -1.22713e-06
2.10167e-07 -1.22713e-06 2.33242e-05
0.000610337 0.000459241 -8.63796e-06
0.000459241 -0.000820967 1.50382e-06
-8.63796e-06 1.50382e-06 -0.000627408
-0.00188034 0.000538557 -2.78526e-05
0.000538557 -0.00178673 -1.23179e-05
-2.78526e-05 -1.23179e-05 -0.0019251
0.00386334 0.00137154 -0.0001501
0.00137154 -0.000284661 -5.5347e-05
-0.0001501 -5.5347e-05 0.000210837
0.00254581 0.000164601 9.24016e-07
0.000164601 -0.000161381 -2.49445e-06
9.24016e-07 -2.49445e-06 1.51258e-06
0.00297987 -5.80794e-05 -1.76623e-06
-5.80794e-05 0.000316324 4.83793e-07
-1.76623e-06 4.83793e-07 0.000496761
0.00304079 -0.000301218 -0.000115337
-0.000301218 -0.000929998 -2.06976e-06
-0.000115337 -2.06976e-06 -3.74774e-05
0.00145646 -0.000395113 -8.12089e-05
-0.000395113 -0.00104078 1.37383e-05
-8.12089e-05 1.37383e-05 -0.000443967
0.00209866 -0.000110899 -1.86275e-05
-0.000110899 -0.000261487 1.1357e-06
-1.86275e-05 1.1357e-06 -9.56735e-05
0.0025212 -0.000295664 3.67788e-06
-0.000295664 -0.000246964 -7.57457e-07
3.67788e-06 -7.57457e-07 2.13507e-05
0.00262362 6.75137e-05 -3.46214e-06
6.75137e-05 -0.0001494 -8.87479e-08
-3.46214e-06 -8.87479e-08 -1.08861e-05
0.00256445 -6.82372e-05 -2.15813e-06
-6.82372e-05 -0.000148649 -5.80481e-07
-2.15813e-06 -5.80481e-07 2.43246e-05
0.00268835 -0.000551611 -4.02408e-06
-0.000551611 -0.000192018 -5.33243e-08
-4.02408e-06 -5.33243e-08 -1.4045e-05
0.0024783 -0.000346915 3.25225e-07
-0.000346915 -0.000156679 -3.08055e-07
3.25225e-07 -3.08055e-07 -1.75809e-05
0.00239411 -0.00026262 8.62108e-07
-0.00026262 -5.90484e-05 5.14843e-08
8.62108e-07 5.14843e-08 3.3831e-05
0.00249599 -0.000496154 -3.3123e-07
-0.000496154 -2.42944e-05 2.26618e-07
-3.3123e-07 2.26618e-07 1.55995e-05
0.00235495 -0.000402501 1.93965e-07
-0.000402501 -2.259e-05 7.75643e-08
1.93965e-07 7.75643e-08 -3.81196e-06
0.00224235 -0.000340628 -1.45998e-06
-0.000340628 3.18924e-05 5.96104e-07
-1.45998e-06 5.96104e-07 1.04002e-05
0.00232923 -0.00049234 8.64746e-07
-0.00049234 5.20526e-05 -3.08309e-07
8.64746e-07 -3.08309e-07 -2.12326e-06
0.00223077 -0.000441929 4.29219e-07
-0.000441929 7.58223e-05 -3.40213e-08
4.29219e-07 -3.40213e-08 -2.51785e-06
0.00224756 -0.000417952 -3.44974e-06
-0.000417952 0.000161782 9.14112e-07
-3.44974e-06 9.14112e-07 3.59805e-05
0.00220077 -0.000522806 2.06673e-06
-0.000522806 0.000124749 -1.00614e-06
2.06673e-06 -1.00614e-06 -1.72597e-05
0.00217108 -0.000491796 -1.48969e-09
-0.000491796 0.000168832 -4.78986e-07
-1.48969e-09 -4.78986e-07 -7.00022e-06
0.00205983 -0.000436868 -2.55324e-06
-0.000436868 0.000177719 -6.09953e-07
-2.55324e-06 -6.09953e-07 -2.97548e-05
0.00214667 -0.000551118 1.06838e-06
-0.000551118 0.000198569 1.08307e-06
1.06838e-06 1.08307e-06 -1.63446e-05
0.00206728 -0.000490754 -6.93172e-07
-0.000490754 0.000242698 8.96913e-08
-6.93172e-07 8.96913e-08 -3.41227e-06
0.00126508 -0.000298598 -1.26159e-05
-0.000298598 -9.82347e-06 5.84887e-06
-1.26159e-05 5.84887e-06 -0.00023265
0.00211205 -0.000534469 3.84433e-06
-0.000534469 0.000323826 9.33324e-07
3.84433e-06 9.33324e-07 4.67303e-05
0.00131094 -0.000343319 1.12832e-07
-0.000343319 3.76006e-05 1.75442e-07
1.12832e-07 1.75442e-07 -0.000209198
0.00288061 -0.000229996 -5.59456e-05
-0.000229996 0.00137987 1.44215e-05
-5.59456e-05 1.44215e-05 0.00125486
0.00258294 -0.000129773 -0.000293849
-0.000129773 0.00130135 4.39347e-05
-0.000293849 4.39347e-05 0.00128318
0.00164993 -0.000249341 -1.64497e-05
-0.000249341 0.000610159 2.20506e-07
-1.64497e-05 2.20506e-07 0.000461059
0.00129356 -0.000391837 1.84709e-05
-0.000391837 7.36561e-05 -7.34608e-06
1.84709e-05 -7.34608e-06 -0.000204863
0.00802032 -0.000112905 -1.15181e-05
-0.000112905 0.00478705 2.51148e-06
-1.15181e-05 2.51148e-06 0.00480244
0.000157082 -0.00027616 2.38067e-05
-0.00027616 -0.000322332 -2.12373e-05
2.38067e-05 -2.12373e-05 -0.000494056
0.00819105 -6.54567e-05 0.000348933
-6.54567e-05 0.00491119 -3.70923e-05
0.000348933 -3.70923e-05 0.00492075
0.00221638 0.000527766 1.32947e-07
0.000527766 0.000136061 1.71357e-06
1.32947e-07 1.71357e-06 -3.8509e-05
0.00225116 0.0006847 3.65053e-06
0.0006847 0.000295891 7.76641e-06
3.65053e-06 7.76641e-06 6.6789e-06
0.00228842 0.000785834 6.18412e-07
0.000785834 0.00040708 7.42787e-08
6.18412e-07 7.42787e-08 3.92512e-05
0.0020699 0.000668399 -4.79268e-06
0.000668399 0.000397952 5.57591e-06
-4.79268e-06 5.57591e-06 2.89148e-05
0.00195248 0.000771117 6.83923e-06
0.000771117 0.000363199 -8.14315e-06
6.83923e-06 -8.14315e-06 -5.86758e-05
0.00182383 0.000666483 9.7071e-08
0.000666483 0.000351592 8.74313e-07
9.7071e-08 8.74313e-07 -5.44312e-05
0.000798344 0.000367955 -2.79793e-05
0.000367955 -0.000100124 -4.74371e-06
-2.79793e-05 -4.74371e-06 -0.000389122
0.00153542 0.000614477 9.64775e-06
0.000614477 0.000327256 -2.98438e-06
9.64775e-06 -2.98438e-06 -8.95378e-05
0.000707047 0.000309632 -8.94641e-07
0.000309632 -4.8895e-05 -2.94277e-07
-8.94641e-07 -2.94277e-07 -0.000315851
0.000327177 0.000295646 -3.02766e-05
0.000295646 -0.000176259 -2.23698e-05
-3.02766e-05 -2.23698e-05 -0.000338078
0.000417718 0.000205607 9.37697e-06
0.000205607 -0.000130646 -1.50167e-06
9.37697e-06 -1.50167e-06 -0.000370902
0.000389539 0.000214673 4.38743e-06
0.000214673 -0.000129566 -1.64481e-06
4.38743e-06 -1.64481e-06 -0.000257639
0.00752514 -7.28116e-05 -0.000291595
-7.28116e-05 0.00454664 -3.15578e-05
-0.000291595 -3.15578e-05 0.00453767
0.000527616 0.000153419 2.76987e-05
0.000153419 -2.02135e-05 1.99765e-05
2.76987e-05 1.99765e-05 -0.000123168
0.0059929 -0.00017158 4.65409e-06
-0.00017158 0.00360262 -2.34131e-06
4.65409e-06 -2.34131e-06 0.00358035
0.00463544 -0.000216634 0.000104952
-0.000216634 0.00275626 1.48215e-05
0.000104952 1.48215e-05 0.00272106
0.00249619 0.000240256 -7.02513e-06
0.000240256 -0.000237737 -2.59678e-07
-7.02513e-06 -2.59678e-07 -2.42247e-05
0.00178524 0.000217572 1.32532e-05
0.000217572 -0.000574023 -3.34575e-06
1.32532e-05 -3.34575e-06 -0.000122893
0.00435574 0.000495681 -0.000138632
0.000495681 -0.000865662 -6.66817e-06
-0.000138632 -6.66817e-06 0.000301161
0.0024325 0.000635242 -2.78583e-06
0.000635242 0.000162318 1.54852e-06
-2.78583e-06 1.54852e-06 -2.11147e-06
0.00248436 0.000869616 -4.23016e-06
0.000869616 0.000381128 -5.01612e-07
-4.23016e-06 -5.01612e-07 5.60078e-05
0.00203708 0.000943433 -4.17496e-06
0.000943433 0.000250662 -1.1284e-05
-4.17496e-06 -1.1284e-05 -0.00015337
0.00239937 0.000670139 2.21326e-06
0.000670139 0.000259351 1.49611e-06
2.21326e-06 1.49611e-06 1.96681e-05
0.00246248 0.000838694 -9.74261e-07
0.000838694 0.000403233 -7.21628e-06
-9.74261e-07 -7.21628e-06 5.86818e-05
0.00263864 0.00050276 -2.32053e-08
0.00050276 -1.53991e-05 5.43444e-07
-2.32053e-08 5.43444e-07 3.47227e-05
0.00255135 0.000799273 -8.25695e-07
0.000799273 0.000149308 -7.58594e-08
-8.25695e-07 -7.58594e-08 -4.10564e-05
0.00288289 0.00102909 -3.33317e-06
0.00102909 0.000579621 -4.28075e-06
-3.33317e-06 -4.28075e-06 0.000205846
0.00219739 0.000474928 1.09423e-07
0.000474928 -0.000223164 -1.62321e-07
1.09423e-07 -1.62321e-07 -0.000141458
0.00245991 0.000944617 1.6206e-05
0.000944617 0.00015874 -6.14316e-07
1.6206e-05 -6.14316e-07 -7.85934e-05
-0.000284666 0.000414155 -4.48727e-05
0.000414155 -0.00137901 -1.62596e-05
-4.48727e-05 -1.62596e-05 -0.00112736
0.0024915 0.000104439 3.6897e-08
0.000104439 -0.000108745 -5.1646e-07
3.6897e-08 -5.1646e-07 2.73321e-05
0.00241966 0.000164879 -9.26074e-07
0.000164879 -0.000253169 1.31891e-06
-9.26074e-07 1.31891e-06 -8.64496e-05
0.00297539 -4.23608e-05 -5.98616e-05
-4.23608e-05 0.000385364 -5.96353e-06
-5.98616e-05 -5.96353e-06 0.000494816
0.00240274 -0.000296444 -2.30091e-05
-0.000296444 -0.000344106 2.94902e-06
-2.30091e-05 2.94902e-06 -3.99077e-05
0.00284492 8.27494e-05 1.83615e-06
8.27494e-05 -2.10159e-05 2.16724e-06
1.83615e-06 2.16724e-06 0.000109274
0.00254789 -7.78041e-05 -6.92161e-07
-7.78041e-05 -0.000173544 -7.00336e-07
-6.92161e-07 -7.00336e-07 4.1828e-06
0.00224999 -7.56633e-05 6.17632e-08
-7.56633e-05 -8.15691e-05 -2.78098e-08
6.17632e-08 -2.78098e-08 -1.24716e-06
0.00241875 -0.000331784 7.53986e-07
-0.000331784 -0.000174492 -7.64806e-07
7.53986e-07 -7.64806e-07 -4.45478e-05
0.0023475 -0.00026964 1.17955e-09
-0.00026964 -8.41056e-05 -3.55361e-09
1.17955e-09 -3.55361e-09 1.35211e-06
0.00217411 -0.000225727 -3.77826e-08
-0.000225727 -2.66095e-05 -2.61335e-08
-3.77826e-08 -2.61335e-08 -1.50435e-05
0.00235679 -0.000400158 -5.5267e-07
-0.000400158 -1.82678e-05 3.13128e-07
-5.5267e-07 3.13128e-07 -1.67492e-06
0.00223825 -0.000340571 6.02796e-08
-0.000340571 2.55057e-05 1.69891e-07
6.02796e-08 1.69891e-07 3.99121e-06
0.00226969 -0.000329602 -4.8977e-06
-0.000329602 0.000113216 1.28222e-06
-4.8977e-06 1.28222e-06 3.99604e-05
0.00222724 -0.000443042 2.42839e-06
-0.000443042 6.91566e-05 -7.59975e-07
2.42839e-06 -7.59975e-07 -9.26281e-06
0.00218754 -0.000412915 3.77714e-07
-0.000412915 0.000123063 -2.94764e-07
3.77714e-07 -2.94764e-07 -2.22706e-06
0.00205384 -0.000359237 -1.72397e-06
-0.000359237 0.000129622 -6.69997e-07
-1.72397e-06 -6.69997e-07 -3.49756e-05
0.00212541 -0.000488137 2.35863e-06
-0.000488137 0.000138027 -4.7932e-07
2.35863e-06 -4.7932e-07 -3.75878e-05
0.00211118 -0.000440048 -6.61046e-07
-0.000440048 0.00021452 7.61625e-08
-6.61046e-07 7.61625e-08 6.72378e-06
0.00127462 -0.000259014 -9.60982e-06
-0.000259014 -2.57676e-05 4.46255e-06
-9.60982e-06 4.46255e-06 -0.000227899
0.00208186 -0.000491278 2.96174e-06
-0.000491278 0.000255426 4.78744e-07
2.96174e-06 4.78744e-07 9.49386e-06
0.00131232 -0.000302501 -1.16908e-07
-0.000302501 1.10746e-05 2.10715e-07
-1.16908e-07 2.10715e-07 -0.0002113
0.00288168 -0.000216144 -6.36776e-05
-0.000216144 0.00137675 1.40193e-05
-6.36776e-05 1.40193e-05 0.00126283
0.00132542 -0.00034494 1.49772e-05
-0.00034494 4.16134e-05 -6.66293e-06
1.49772e-05 -6.66293e-06 -0.000204563
0.0030187 -0.000265467 5.42959e-05
-0.000265467 0.00147084 -9.15578e-06
5.42959e-05 -9.15578e-06 0.0013553
0.00252794 -0.000159334 -0.000289107
-0.000159334 0.00127453 4.83664e-05
-0.000289107 4.83664e-05 0.00125394
0.00502888 -0.000161332 -0.000284438
-0.000161332 0.00288547 3.35665e-05
-0.000284438 3.35665e-05 0.002883
0.0031023 -0.000328974 0.00018046
-0.000328974 0.0015459 -3.15195e-05
0.00018046 -3.15195e-05 0.00142654
0.00791234 -0.000127201 0.000350327
-0.000127201 0.00472827 -4.08961e-05
0.000350327 -4.08961e-05 0.00474022
0.00231068 0.000508113 -1.59561e-06
0.000508113 0.000144495 -1.06447e-07
-1.59561e-06 -1.06447e-07 2.34259e-05
0.00216452 0.000545381 -3.29514e-07
0.000545381 0.00020923 2.58898e-06
-3.29514e-07 2.58898e-06 -6.23429e-06
0.00222306 0.000519421 3.18516e-07
0.000519421 0.000147745 -7.93471e-07
3.18516e-07 -7.93471e-07 -1.74146e-05
0.00207098 0.000590891 -3.46281e-06
0.000590891 0.000291156 4.78675e-06
-3.46281e-06 4.78675e-06 -1.41727e-05
0.00234309 0.000694794 3.78469e-07
0.000694794 0.000340203 1.15511e-07
3.78469e-07 1.15511e-07 5.02982e-05
0.00259495 0.000810325 -1.03426e-06
0.000810325 0.000599818 -8.57324e-06
-1.03426e-06 -8.57324e-06 0.000231931
0.00198246 0.000662964 8.9697e-07
0.000662964 0.000337833 4.12395e-07
8.9697e-07 4.12395e-07 -3.15154e-05
0.00127251 0.000424103 -3.06982e-05
0.000424103 9.96732e-05 -6.36063e-06
-3.06982e-05 -6.36063e-06 -0.000192694
0.00176862 0.000663497 9.58371e-06
0.000663497 0.000309416 -3.67175e-06
9.58371e-06 -3.67175e-06 -9.78357e-05
0.00101265 0.000383517 -3.38825e-06
0.000383517 2.61795e-05 7.37586e-08
-3.38825e-06 7.37586e-08 -0.000263097
0.000151166 0.000283597 -2.82315e-05
0.000283597 -0.000309057 -2.03228e-05
-2.82315e-05 -2.03228e-05 -0.000478521
0.000828795 0.000307816 1.80737e-05
0.000307816 3.97095e-05 3.547e-06
1.80737e-05 3.547e-06 -0.000222946
0.000247392 0.000251102 1.26375e-06
0.000251102 -0.000231316 1.48384e-06
1.26375e-06 1.48384e-06 -0.000386476
0.0082484 2.12929e-05 -0.000333782
2.12929e-05 0.00497059 -3.74073e-05
-0.000333782 -3.74073e-05 0.00496963
0.000101426 0.000176565 2.69913e-05
0.000176565 -0.000314334 2.13184e-05
2.69913e-05 2.13184e-05 -0.000436558
0.00701866 -0.000116264 6.11034e-06
-0.000116264 0.0042251 -2.65096e-06
6.11034e-06 -2.65096e-06 0.00421319
0.0056011 -0.000205041 0.000151123
-0.000205041 0.00336067 1.48764e-05
0.000151123 1.48764e-05 0.00333078
0.00253543 0.000288229 9.5477e-07
0.000288229 -8.86457e-05 4.47635e-07
9.5477e-07 4.47635e-07 3.291e-05
0.00236202 0.000242645 2.23935e-06
0.000242645 -0.000265684 -7.31973e-07
2.23935e-06 -7.31973e-07 -5.30399e-05
0.00161885 0.000164753 -6.9178e-05
0.000164753 -0.000887937 -9.96011e-06
-6.9178e-05 -9.96011e-06 -0.00032802
0.00237567 0.000446581 1.86265e-06
0.000446581 -1.11198e-06 8.44053e-07
1.86265e-06 8.44053e-07 -1.33742e-05
0.00236897 0.000627755 -9.38556e-07
0.000627755 0.000140251 4.13201e-08
-9.38556e-07 4.13201e-08 -2.18973e-05
0.00228159 0.000836235 6.90551e-06
0.000836235 0.000301654 -3.48551e-06
6.90551e-06 -3.48551e-06 -1.51036e-05
0.00244316 0.000659108 -9.65755e-07
0.000659108 0.000303517 -3.68509e-06
-9.65755e-07 -3.68509e-06 6.66055e-05
0.00257638 0.000484122 -1.32256e-06
0.000484122 -3.69195e-05 -1.27211e-07
-1.32256e-06 -1.27211e-07 1.42964e-05
0.00246358 0.000794433 -5.20802e-07
0.000794433 0.000117263 -4.5274e-07
-5.20802e-07 -4.5274e-07 -7.01088e-05
0.00206274 0.000453005 1.62654e-05
0.000453005 -0.000219106 -1.63844e-06
1.62654e-05 -1.63844e-06 -0.000135825
0.00229684 7.86426e-05 2.05909e-06
7.86426e-05 -5.97953e-05 9.20206e-08
2.05909e-06 9.20206e-08 1.07539e-05
0.00244195 0.000101065 2.4616e-07
0.000101065 -0.000125099 1.85493e-07
2.4616e-07 1.85493e-07 7.15419e-06
0.00232685 0.000170464 -8.47265e-06
0.000170464 -0.000316938 -7.05504e-07
-8.47265e-06 -7.05504e-07 -0.000147243
0.00215281 -1.31992e-05 -1.28951e-06
-1.31992e-05 -4.46644e-05 6.52019e-08
-1.28951e-06 6.52019e-08 -2.43931e-06
0.00256509 -9.32708e-05 2.96216e-06
-9.32708e-05 -0.000173402 1.78442e-07
2.96216e-06 1.78442e-07 8.64822e-06
0.00225743 -7.93938e-05 -3.46729e-07
-7.93938e-05 -7.86603e-05 4.06952e-07
-3.46729e-07 4.06952e-07 8.57895e-07
0.00211875 -0.000119257 -1.45032e-06
-0.000119257 -4.59205e-05 3.52033e-07
-1.45032e-06 3.52033e-07 -2.45782e-05
0.00230124 -0.00027663 -6.5788e-07
-0.00027663 -0.000108086 1.12137e-08
-6.5788e-07 1.12137e-08 -3.07846e-05
0.00218471 -0.000222612 8.62148e-07
-0.000222612 -1.94832e-05 -4.19824e-07
8.62148e-07 -4.19824e-07 -7.14419e-06
0.00226073 -0.00023102 -3.71929e-06
-0.00023102 8.23985e-05 3.55454e-07
-3.71929e-06 3.55454e-07 4.32073e-05
0.00223561 -0.00034013 1.76689e-06
-0.00034013 2.01091e-05 -4.53226e-07
1.76689e-06 -4.53226e-07 -1.36344e-06
0.00224969 -0.00032611 3.74992e-07
-0.00032611 0.000104595 -2.72768e-08
3.74992e-07 -2.72768e-08 3.15855e-05
0.0020628 -0.000277114 -1.19056e-06
-0.000277114 0.00010792 -6.24244e-07
-1.19056e-06 -6.24244e-07 -1.82472e-05
0.00212504 -0.000407431 3.72821e-06
-0.000407431 8.33045e-05 -1.36972e-06
3.72821e-06 -1.36972e-06 -4.13523e-05
0.00211255 -0.000363265 -6.32648e-07
-0.000363265 0.000165166 1.27063e-07
-6.32648e-07 1.27063e-07 9.15526e-08
0.00128809 -0.000214071 -7.02497e-06
-0.000214071 -2.75528e-05 3.00685e-06
-7.02497e-06 3.00685e-06 -0.000209816
0.00216245 -0.000443035 2.22958e-06
-0.000443035 0.000251728 3.196e-07
2.22958e-06 3.196e-07 4.36671e-05
0.00131977 -0.000261349 -3.10752e-07
-0.000261349 -7.34671e-06 2.788e-07
-3.10752e-07 2.788e-07 -0.000208535
0.00280481 -0.000197646 -6.97311e-05
-0.000197646 0.0013329 1.32119e-05
-6.97311e-05 1.32119e-05 0.00122642
0.00135311 -0.000306264 1.16644e-05
-0.000306264 2.74321e-05 -5.52128e-06
1.16644e-05 -5.52128e-06 -0.000194466
0.00296365 -0.000234606 4.98965e-05
-0.000234606 0.00142954 -7.14681e-06
4.98965e-05 -7.14681e-06 0.00132554
0.00253073 -0.000135145 -0.000282598
-0.000135145 0.00126674 4.2126e-05
-0.000282598 4.2126e-05 0.00124898
0.00313732 -0.000270685 0.000170939
-0.000270685 0.00154151 -3.17488e-05
0.000170939 -3.17488e-05 0.00143884
0.00212554 -9.56037e-05 -0.000113759
-9.56037e-05 0.00101735 1.7795e-05
-0.000113759 1.7795e-05 0.000981459
0.00728668 -6.44747e-05 0.000119174
-6.44747e-05 0.00431226 -7.57807e-06
0.000119174 -7.57807e-06 0.00429271
0.00229848 0.000430471 -7.47561e-07
0.000430471 9.44193e-05 1.91514e-07
-7.47561e-07 1.91514e-07 2.50792e-05
0.00219406 0.0004815 -3.70287e-06
0.0004815 0.000146285 -4.0299e-07
-3.70287e-06 -4.0299e-07 -1.52339e-05
0.00232576 0.000508912 -3.09454e-06
0.000508912 0.000151176 -5.42916e-09
-3.09454e-06 -5.42916e-09 2.78185e-05
0.00206563 0.000504087 -2.66083e-06
0.000504087 0.000219625 1.84026e-06
-2.66083e-06 1.84026e-06 -3.27159e-05
0.00211082 0.000551169 -1.31249e-06
0.000551169 0.000152796 -2.49039e-06
-1.31249e-06 -2.49039e-06 -5.72726e-05
0.00221726 0.000509731 -3.30562e-06
0.000509731 0.000151249 -3.5921e-06
-3.30562e-06 -3.5921e-06 -4.07096e-06
0.00138329 0.000386965 -2.45735e-05
0.000386965 6.38797e-05 -5.99146e-06
-2.45735e-05 -5.99146e-06 -0.000195376
0.00202659 0.000587464 1.41778e-06
0.000587464 0.000262028 3.94187e-07
1.41778e-06 3.94187e-07 -4.31597e-05
0.00242231 0.000703491 1.96e-06
0.000703491 0.000375928 -7.02962e-06
1.96e-06 -7.02962e-06 8.56314e-05
0.00186071 0.000655294 6.23944e-06
0.000655294 0.000253685 -4.85176e-06
6.23944e-06 -4.85176e-06 -0.000115746
0.00122198 0.000421125 -1.10441e-06
0.000421125 6.21087e-05 -5.80211e-08
-1.10441e-06 -5.80211e-08 -0.000230503
0.000292818 0.00027129 -2.53109e-05
0.00027129 -0.000238447 -1.87803e-05
-2.53109e-05 -1.87803e-05 -0.00040493
0.00114794 0.000391958 2.9132e-05
0.000391958 0.000103773 7.89852e-06
2.9132e-05 7.89852e-06 -0.000183888
0.000221117 0.000275114 9.7042e-07
0.000275114 -0.000259214 1.45673e-06
9.7042e-07 1.45673e-06 -0.000428328
0.00803152 0.000111586 -0.000337491
0.000111586 0.00481906 -4.35392e-05
-0.000337491 -4.35392e-05 0.00481886
0.000295822 0.000223499 2.41395e-05
0.000223499 -0.00020494 2.27604e-05
2.41395e-05 2.27604e-05 -0.000356273
0.00792126 -2.25594e-05 7.17471e-06
-2.25594e-05 0.00475868 1.71533e-07
7.17471e-06 1.71533e-07 0.00476035
0.00673321 -0.00014719 0.000215995
-0.00014719 0.0040414 1.50136e-05
0.000215995 1.50136e-05 0.00402912
0.00229906 0.000233387 9.59971e-07
0.000233387 -4.4727e-05 -1.43813e-08
9.59971e-07 -1.43813e-08 3.73889e-06
0.00249739 0.000294238 -7.43911e-07
0.000294238 -0.000126923 7.9084e-07
-7.43911e-07 7.9084e-07 -1.97175e-06
0.00229808 0.000241594 2.21179e-06
0.000241594 -0.000282517 6.58344e-08
2.21179e-06 6.58344e-08 -6.85234e-05
0.00237092 0.000440982 2.31564e-07
0.000440982 -3.15211e-06 2.70119e-07
2.31564e-07 2.70119e-07 -1.28759e-05
0.00231599 0.000620733 3.45481e-07
0.000620733 0.000126783 -1.49227e-06
3.45481e-07 -1.49227e-06 -3.32028e-05
0.0025444 0.000467964 2.55199e-06
0.000467964 -4.89014e-05 -4.19519e-07
2.55199e-06 -4.19519e-07 2.76209e-06
0.00219642 7.29898e-05 8.42445e-07
7.29898e-05 -2.70696e-05 1.02613e-07
8.42445e-07 1.02613e-07 7.6287e-06
0.00228365 7.6744e-05 3.79207e-07
7.6744e-05 -6.49652e-05 -2.15404e-07
3.79207e-07 -2.15404e-07 6.37428e-06
0.00237564 9.77142e-05 -6.01199e-07
9.77142e-05 -0.000154111 1.50664e-07
-6.01199e-07 1.50664e-07 -2.44449e-05
0.00215876 -1.05835e-05 -7.51216e-07
-1.05835e-05 -3.97116e-05 1.024e-08
-7.51216e-07 1.024e-08 3.8996e-07
0.0021212 -3.52739e-05 -4.00195e-06
-3.52739e-05 7.95707e-06 3.85471e-07
-4.00195e-06 3.85471e-07 1.98874e-05
0.00226327 -8.26908e-05 -5.12658e-07
-8.26908e-05 -7.74339e-05 1.36513e-07
-5.12658e-07 1.36513e-07 1.69005e-06
0.00213667 -0.000119671 -1.34621e-06
-0.000119671 -2.7391e-05 2.44273e-07
-1.34621e-06 2.44273e-07 -1.01567e-05
0.0021605 -0.000145798 -5.62744e-06
-0.000145798 1.99669e-05 8.24486e-07
-5.62744e-06 8.24486e-07 -3.83488e-06
0.00219264 -0.000219752 2.10017e-06
-0.000219752 -1.39667e-05 -8.71147e-07
2.10017e-06 -8.71147e-07 -9.1055e-07
0.00225574 -0.000231942 1.93499e-06
-0.000231942 8.35869e-05 -4.89786e-07
1.93499e-06 -4.89786e-07 4.41018e-05
0.00205689 -0.000207926 1.73373e-07
-0.000207926 8.22798e-05 -8.08985e-08
1.73373e-07 -8.08985e-08 -1.83028e-05
0.00222459 -0.000323663 4.88995e-06
-0.000323663 9.28576e-05 -1.27228e-06
4.88995e-06 -1.27228e-06 1.98806e-05
0.00208432 -0.000280185 -5.05514e-07
-0.000280185 0.000111129 -2.78797e-07
-5.05514e-07 -2.78797e-07 -1.53628e-05
0.00124048 -0.000169481 -5.73159e-06
-0.000169481 -5.27093e-05 2.03244e-06
-5.73159e-06 2.03244e-06 -0.000218432
0.00217947 -0.000367796 2.07339e-06
-0.000367796 0.000205845 3.88099e-07
2.07339e-06 3.88099e-07 4.02496e-05
0.00130331 -0.00021301 -3.75218e-07
-0.00021301 -2.54078e-05 1.74429e-07
-3.75218e-07 1.74429e-07 -0.000206274
0.00269117 -0.000186752 -7.10666e-05
-0.000186752 0.00127022 1.12111e-05
-7.10666e-05 1.12111e-05 0.00116991
0.00136729 -0.000263948 8.7354e-06
-0.000263948 1.22182e-05 -4.01318e-06
8.7354e-06 -4.01318e-06 -0.000188023
0.00288003 -0.000195624 4.74237e-05
-0.000195624 0.00137601 -5.49817e-06
4.74237e-05 -5.49817e-06 0.00128137
0.00248606 -0.000110454 -0.000277651
-0.000110454 0.00123326 3.4976e-05
-0.000277651 3.4976e-05 0.00121716
0.00304765 -0.000224707 0.000166615
-0.000224707 0.00147437 -2.69391e-05
0.000166615 -2.69391e-05 0.00138438
0.00211062 -9.36604e-05 -0.000103747
-9.36604e-05 0.00100373 1.4048e-05
-0.000103747 1.4048e-05 0.000969853
0.00177995 -9.10453e-05 7.26137e-05
-9.10453e-05 0.000811216 -1.23101e-05
7.26137e-05 -1.23101e-05 0.000753922
0.00220776 0.000269848 -2.23585e-07
0.000269848 4.04937e-06 -5.16798e-07
-2.23585e-07 -5.16798e-07 -1.05916e-05
0.00224097 0.000395049 -4.3394e-06
0.000395049 0.000126287 -3.70887e-07
-4.3394e-06 -3.70887e-07 1.80635e-05
0.00228236 0.000431178 -3.50044e-07
0.000431178 6.48827e-05 -1.64096e-07
-3.50044e-07 -1.64096e-07 5.18892e-06
0.00210814 0.000453792 -2.95126e-07
0.000453792 0.000167501 1.35976e-06
-2.95126e-07 1.35976e-06 -3.76975e-05
0.0022431 0.000482879 -1.70393e-06
0.000482879 0.000187454 -6.03804e-07
-1.70393e-06 -6.03804e-07 2.36194e-05
0.00233844 0.000510571 2.01074e-06
0.000510571 0.000156083 -2.16584e-07
2.01074e-06 -2.16584e-07 3.00177e-05
0.00138583 0.000328365 -1.80716e-05
0.000328365 2.74083e-05 -5.07852e-06
-1.80716e-05 -5.07852e-06 -0.000198766
0.00201215 0.000507156 1.2229e-06
0.000507156 0.000175435 -7.31559e-07
1.2229e-06 -7.31559e-07 -7.13853e-05
0.0020817 0.000559646 -2.13794e-06
0.000559646 0.000112038 -6.23562e-06
-2.13794e-06 -6.23562e-06 -9.34224e-05
0.000323305 0.000216592 -2.23616e-05
0.000216592 -0.000248694 -1.59185e-05
-2.23616e-05 -1.59185e-05 -0.000397301
0.00133953 0.000381657 -2.59838e-07
0.000381657 4.13874e-05 1.40784e-07
-2.59838e-07 1.40784e-07 -0.000217615
0.00198894 0.000584635 5.42314e-06
0.000584635 0.000237191 -4.21378e-06
5.42314e-06 -4.21378e-06 -6.79787e-05
0.00123673 0.000422915 3.19681e-05
0.000422915 6.90417e-05 7.02746e-06
3.19681e-05 7.02746e-06 -0.000224508
0.000288496 0.000256853 3.17437e-07
0.000256853 -0.000237179 9.00159e-07
3.17437e-07 9.00159e-07 -0.000403164
0.00774579 0.000209133 -0.000340788
0.000209133 0.00462939 -4.80477e-05
-0.000340788 -4.80477e-05 0.00462899
0.000448581 0.000267199 2.63338e-05
0.000267199 -0.000112985 1.8672e-05
2.63338e-05 1.8672e-05 -0.000281245
0.00811341 8.91918e-05 8.69706e-06
8.91918e-05 0.00485853 1.19754e-06
8.69706e-06 1.19754e-06 0.00486712
0.00767436 -5.94785e-05 0.000280834
-5.94785e-05 0.00459709 2.02216e-05
0.000280834 2.02216e-05 0.00459909
0.00221348 0.000141233 -6.59122e-07
0.000141233 1.36516e-06 -2.23359e-07
-6.59122e-07 -2.23359e-07 2.70591e-05
0.0022767 0.000237906 6.66696e-07
0.000237906 -6.36523e-05 4.45723e-07
6.66696e-07 4.45723e-07 -1.76945e-05
0.0024551 0.000300538 1.2212e-07
0.000300538 -0.000160883 -6.39337e-07
1.2212e-07 -6.39337e-07 -3.34756e-05
0.00236897 0.000434494 8.11985e-08
0.000434494 -3.48918e-06 -1.06842e-06
8.11985e-08 -1.06842e-06 -1.02229e-05
0.00208912 2.91139e-05 -4.01925e-06
2.91139e-05 1.57785e-05 3.12694e-07
-4.01925e-06 3.12694e-07 8.43858e-06
0.00219392 6.4138e-05 -1.62029e-08
6.4138e-05 -2.93851e-05 -7.39508e-08
-1.62029e-08 -7.39508e-08 7.08225e-06
0.00227404 7.46218e-05 -1.3719e-06
7.46218e-05 -6.71267e-05 1.54353e-07
-1.3719e-06 1.54353e-07 4.20997e-06
0.00216536 -7.43312e-06 -1.66253e-06
-7.43312e-06 -3.37858e-05 -8.91382e-08
-1.66253e-06 -8.91382e-08 4.03558e-06
0.00212886 -2.96087e-05 -7.47864e-07
-2.96087e-05 7.43619e-06 -2.14549e-07
-7.47864e-07 -2.14549e-07 2.15383e-05
0.00203029 -6.27163e-05 -5.42654e-06
-6.27163e-05 -4.35389e-05 6.75531e-07
-5.42654e-06 6.75531e-07 -7.43128e-05
0.00215739 -0.000120278 1.74644e-06
-0.000120278 -6.79836e-06 -1.70435e-07
1.74644e-06 -1.70435e-07 6.21307e-06
0.0021413 -0.000147318 -1.80835e-06
-0.000147318 1.40185e-05 3.42808e-07
-1.80835e-06 3.42808e-07 -1.73375e-05
0.00222113 -0.0001452 -1.3555e-06
-0.0001452 0.000181904 2.5703e-07
-1.3555e-06 2.5703e-07 0.000103196
0.00225934 -0.000232086 7.49865e-06
-0.000232086 8.93284e-05 -1.35793e-06
7.49865e-06 -1.35793e-06 4.97328e-05
0.00208313 -0.000206893 9.85198e-07
-0.000206893 9.44101e-05 -3.72354e-07
9.85198e-07 -3.72354e-07 -5.15698e-06
0.00118502 -0.000126624 -6.36567e-06
-0.000126624 -7.40533e-05 1.38945e-06
-6.36567e-06 1.38945e-06 -0.00022687
0.00212193 -0.000281664 1.51526e-06
-0.000281664 0.000125552 -3.15357e-07
1.51526e-06 -3.15357e-07 -7.75133e-07
0.00123498 -0.000167056 -1.68356e-07
-0.000167056 -5.60924e-05 5.66019e-09
-1.68356e-07 5.66019e-09 -0.000220585
0.000306169 -9.61527e-05 -1.79388e-05
-9.61527e-05 -0.000267844 6.60697e-06
-1.79388e-05 6.60697e-06 -0.000376394
0.00130922 -0.000211457 5.95076e-06
-0.000211457 -2.92256e-05 -2.70863e-06
5.95076e-06 -2.70863e-06 -0.000208643
0.00157584 -0.000125706 6.97847e-05
-0.000125706 0.000541341 -5.7597e-06
6.97847e-05 -5.7597e-06 0.000446041
0.00699404 -0.000181321 -0.00036718
-0.000181321 0.00414214 2.93605e-05
-0.00036718 2.93605e-05 0.00416641
0.002961 -0.000176889 0.000161825
-0.000176889 0.00141719 -2.10561e-05
0.000161825 -2.10561e-05 0.00133675
0.00207388 -8.657e-05 -9.37335e-05
-8.657e-05 0.000981475 9.06825e-06
-9.37335e-05 9.06825e-06 0.000947572
0.0016975 -0.000109238 8.46068e-05
-0.000109238 0.000763984 -1.41194e-05
8.46068e-05 -1.41194e-05 0.000705566
0.00215166 0.000178206 -1.76836e-06
0.000178206 1.84416e-05 -8.38637e-07
-1.76836e-06 -8.38637e-07 5.66578e-06
0.00224227 0.000306121 -2.79224e-06
0.000306121 9.65092e-05 -4.88564e-07
-2.79224e-06 -4.88564e-07 2.57755e-05
0.0022085 0.000262215 -2.63268e-07
0.000262215 1.65299e-05 -7.58821e-08
-2.63268e-07 -7.58821e-08 -3.73953e-06
0.00210802 0.000361389 -1.20441e-06
0.000361389 0.000128304 1.27368e-06
-1.20441e-06 1.27368e-06 -2.34446e-05
0.00223686 0.000394741 5.33458e-07
0.000394741 0.000124954 4.83621e-09
5.33458e-07 4.83621e-09 1.71478e-05
0.00226574 0.000431865 -1.099e-07
0.000431865 3.51064e-05 -7.79942e-07
-1.099e-07 -7.79942e-07 -1.50583e-05
0.00141776 0.000284635 -1.24806e-05
0.000284635 3.11119e-05 -2.66515e-06
-1.24806e-05 -2.66515e-06 -0.00016381
0.00213662 0.000451304 1.49815e-06
0.000451304 0.000188594 1.30437e-07
1.49815e-06 1.30437e-07 -1.45601e-05
0.00228252 0.000482865 1.60202e-06
0.000482865 0.000222899 -1.57417e-06
1.60202e-06 -1.57417e-06 5.7379e-05
0.000337784 0.000155196 -1.91568e-05
0.000155196 -0.000257637 -1.2178e-05
-1.91568e-05 -1.2178e-05 -0.000386981
0.00132287 0.000323858 4.50867e-07
0.000323858 -8.36935e-06 5.48689e-07
4.50867e-07 5.48689e-07 -0.000230823
0.00193928 0.000507322 5.4175e-06
0.000507322 0.000119632 -4.11289e-06
5.4175e-06 -4.11289e-06 -0.000120878
0.00748949 0.000273355 -0.000346146
0.000273355 0.00446015 -4.73217e-05
-0.000346146 -4.73217e-05 0.00446203
0.000300157 0.000210968 -1.84161e-08
0.000210968 -0.000265975 7.24549e-07
-1.84161e-08 7.24549e-07 -0.00041536
0.00127295 0.000374918 2.59488e-05
0.000374918 4.17686e-06 6.47466e-06
2.59488e-05 6.47466e-06 -0.00025441
0.000220579 0.000240037 2.25174e-05
0.000240037 -0.000277199 1.84498e-05
2.25174e-05 1.84498e-05 -0.000442318
0.00777735 0.000202318 1.13616e-05
0.000202318 0.00464446 2.40002e-06
1.13616e-05 2.40002e-06 0.00465007
0.0079808 5.45542e-05 0.000337732
5.45542e-05 0.00476118 2.78456e-05
0.000337732 2.78456e-05 0.00477529
0.00207921 8.64375e-05 -5.53445e-06
8.64375e-05 1.62205e-05 -1.29873e-07
-5.53445e-06 -1.29873e-07 2.37747e-06
0.00220234 0.00013637 -1.68965e-08
0.00013637 -4.38008e-06 -3.38504e-08
-1.68965e-08 -3.38504e-08 1.90992e-05
0.00225173 0.000242228 -5.27412e-07
0.000242228 -8.48645e-05 7.40326e-09
-5.27412e-07 7.40326e-09 -4.08404e-05
0.00201353 8.25061e-06 -7.09885e-06
8.25061e-06 -3.10055e-05 3.22029e-07
-7.09885e-06 3.22029e-07 -7.158e-05
0.00207525 3.46947e-05 7.5378e-07
3.46947e-05 2.38291e-06 -1.58641e-08
7.5378e-07 -1.58641e-08 -1.37128e-06
0.0021929 5.43254e-05 -1.27374e-06
5.43254e-05 -3.11713e-05 4.33188e-08
-1.27374e-06 4.33188e-08 7.22043e-06
0.00213474 -2.41617e-05 2.1706e-06
-2.41617e-05 5.15703e-06 -2.99434e-07
2.1706e-06 -2.99434e-07 2.17298e-05
0.00204961 -6.1625e-05 -8.35063e-07
-6.1625e-05 -2.94743e-05 2.30392e-08
-8.35063e-07 2.30392e-08 -5.9266e-05
0.00200987 -7.12268e-05 -2.15581e-06
-7.12268e-05 5.9141e-05 1.08774e-07
-2.15581e-06 1.08774e-07 -2.59329e-05
0.00211827 -0.000148855 3.89382e-06
-0.000148855 6.23956e-06 -5.0031e-07
3.89382e-06 -5.0031e-07 -3.27664e-05
0.00206815 -0.000145428 8.37735e-07
-0.000145428 8.40484e-05 -5.67042e-08
8.37735e-07 -5.67042e-08 -4.62102e-06
0.00142224 -8.17236e-05 -8.05441e-06
-8.17236e-05 9.30723e-05 2.65054e-07
-8.05441e-06 2.65054e-07 -3.65467e-05
0.00208654 -0.000207217 1.89406e-06
-0.000207217 9.15904e-05 -7.76207e-07
1.89406e-06 -7.76207e-07 -7.44098e-06
0.00118896 -0.000122233 -4.58516e-10
-0.000122233 -7.12205e-05 1.19485e-07
-4.58516e-10 1.19485e-07 -0.000222818
0.000298101 -2.72768e-05 -1.67267e-05
-2.72768e-05 -0.000272461 3.29333e-06
-1.67267e-05 3.29333e-06 -0.000372316
0.00123917 -0.00016371 4.82575e-06
-0.00016371 -5.57805e-05 -1.97735e-06
4.82575e-06 -1.97735e-06 -0.000218812
0.000326554 -8.06227e-05 -4.6684e-07
-8.06227e-05 -0.000252686 5.47402e-07
-4.6684e-07 5.47402e-07 -0.00036113
0.00694758 -7.19447e-05 -0.000357615
-7.19447e-05 0.00410518 1.86186e-05
-0.000357615 1.86186e-05 0.0041355
0.000409138 -8.63245e-05 1.29159e-05
-8.63245e-05 -0.000208207 -8.92555e-06
1.29159e-05 -8.92555e-06 -0.000323088
0.00444196 -0.000118738 0.00015399
-0.000118738 0.00250898 -8.80216e-06
0.00015399 -8.80216e-06 0.00249341
0.00164817 -9.63581e-05 8.97037e-05
-9.63581e-05 0.00073253 -1.33178e-05
8.97037e-05 -1.33178e-05 0.000675813
0.00213345 0.000145129 -7.08049e-06
0.000145129 6.0632e-05 -6.34626e-07
-7.08049e-06 -6.34626e-07 3.98042e-05
0.00223439 0.000222385 -4.49949e-06
0.000222385 0.000106214 -5.93606e-07
-4.49949e-06 -5.93606e-07 4.55916e-05
0.00214218 0.000172086 -7.46649e-07
0.000172086 1.73851e-05 -1.93711e-07
-7.46649e-07 -1.93711e-07 4.45736e-06
0.00205205 0.000285677 -5.30496e-07
0.000285677 8.30395e-05 5.88122e-07
-5.30496e-07 5.88122e-07 -4.72524e-05
0.00226169 0.000304738 -1.209e-07
0.000304738 0.000105145 -2.48155e-07
-1.209e-07 -2.48155e-07 3.37191e-05
0.00221072 0.000254851 1.78353e-06
0.000254851 3.02856e-05 7.12693e-07
1.78353e-06 7.12693e-07 4.38392e-06
0.00134119 0.000221182 -7.4801e-06
0.000221182 -5.61921e-06 -1.39219e-06
-7.4801e-06 -1.39219e-06 -0.000175706
0.00208955 0.000357472 2.47386e-06
0.000357472 0.00013005 8.00772e-07
2.47386e-06 8.00772e-07 -2.94218e-05
0.00222481 0.00039426 3.39953e-06
0.00039426 0.000117812 -3.05201e-07
3.39953e-06 -3.05201e-07 1.02582e-05
0.000332011 0.000109743 -1.72582e-05
0.000109743 -0.000263929 -8.96842e-06
-1.72582e-05 -8.96842e-06 -0.000380949
0.00138034 0.00027772 5.01519e-07
0.00027772 1.25037e-05 8.74813e-07
5.01519e-07 8.74813e-07 -0.000180214
0.00216982 0.000449571 3.88864e-06
0.000449571 0.000212955 -8.77567e-07
3.88864e-06 -8.77567e-07 1.15185e-05
0.00724296 0.000311497 -0.000359337
0.000311497 0.00431108 -4.49457e-05
-0.000359337 -4.49457e-05 0.00431345
0.000332405 0.000156815 3.30249e-07
0.000156815 -0.00026548 4.26968e-07
3.30249e-07 4.26968e-07 -0.000396275
0.00126521 0.000321307 1.81727e-05
0.000321307 -4.22829e-05 4.73235e-06
1.81727e-05 4.73235e-06 -0.000261573
0.00753546 0.000293869 1.26033e-05
0.000293869 0.0044996 4.69891e-06
1.26033e-05 4.69891e-06 0.00449854
0.000301656 0.000206059 2.01712e-05
0.000206059 -0.000267975 1.61487e-05
2.01712e-05 1.61487e-05 -0.000418186
0.00781778 0.000175732 0.000357951
0.000175732 0.00465523 3.72594e-05
0.000357951 3.72594e-05 0.00467109
0.00200238 6.70169e-05 -7.32541e-06
6.70169e-05 -3.45591e-05 1.52728e-07
-7.32541e-06 1.52728e-07 -7.8966e-05
0.00208086 9.30139e-05 -1.05061e-06
9.30139e-05 2.19212e-05 -1.7477e-07
-1.05061e-06 -1.7477e-07 7.7742e-06
0.0021902 0.000131944 6.59188e-07
0.000131944 -9.89463e-06 2.47056e-07
6.59188e-07 2.47056e-07 1.10958e-05
0.0019317 -1.0279e-05 -1.67716e-06
-1.0279e-05 1.59813e-05 -1.05358e-07
-1.67716e-06 -1.05358e-07 -6.85973e-05
0.00204472 9.78164e-06 -9.73006e-07
9.78164e-06 -1.03479e-05 7.68629e-09
-9.73006e-07 7.68629e-09 -4.74952e-05
0.0020614 4.11281e-05 4.16316e-06
4.11281e-05 -1.07993e-05 5.35486e-08
4.16316e-06 5.35486e-08 -1.10897e-05
0.00208346 -6.084e-05 3.59718e-06
-6.084e-05 -4.95208e-06 -4.96799e-07
3.59718e-06 -4.96799e-07 -3.3649e-05
0.00199796 -7.09642e-05 1.10751e-07
-7.09642e-05 5.24792e-05 2.12594e-07
1.10751e-07 2.12594e-07 -3.16633e-05
0.00135364 -3.67534e-05 -9.8161e-06
-3.67534e-05 6.16915e-05 -5.64955e-07
-9.8161e-06 -5.64955e-07 -6.05276e-05
0.00190583 -0.000145422 1.56907e-07
-0.000145422 -2.07225e-05 -1.04806e-07
1.56907e-07 -1.04806e-07 -0.000119218
0.00128 -8.07351e-05 2.56312e-06
-8.07351e-05 -2.51986e-06 -3.09587e-07
2.56312e-06 -3.09587e-07 -0.000138092
0.000299277 -9.94632e-06 -1.73009e-05
-9.94632e-06 -0.000268424 1.64285e-06
-1.73009e-05 1.64285e-06 -0.000363457
0.00118646 -0.000119391 5.84449e-06
-0.000119391 -7.07228e-05 -1.14279e-06
5.84449e-06 -1.14279e-06 -0.000221361
0.000296421 -3.97087e-05 5.58108e-07
-3.97087e-05 -0.000272558 -3.08719e-07
5.58108e-07 -3.08719e-07 -0.000371838
0.00675699 -0.000167774 -0.000359855
-0.000167774 0.0040028 2.03243e-05
-0.000359855 2.03243e-05 0.00402612
0.000321567 -6.42484e-05 1.64884e-05
-6.42484e-05 -0.000254551 -5.01695e-06
1.64884e-05 -5.01695e-06 -0.000361937
0.00687848 -0.000108917 7.41523e-06
-0.000108917 0.00406553 9.9634e-08
7.41523e-06 9.9634e-08 0.00409486
0.00197595 -4.45244e-05 0.000274708
-4.45244e-05 0.000910068 -2.02194e-05
0.000274708 -2.02194e-05 0.000901995
0.00209606 0.000150714 -7.5547e-06
0.000150714 2.71114e-05 -5.14596e-07
-7.5547e-06 -5.14596e-07 -2.79356e-05
0.00208011 0.000145981 -1.58417e-06
0.000145981 1.45176e-05 -1.54239e-07
-1.58417e-06 -1.54239e-07 -7.51633e-07
0.00206342 0.00021411 9.95396e-07
0.00021411 8.7114e-05 6.71553e-07
9.95396e-07 6.71553e-07 -2.20009e-05
0.00224304 0.000222117 8.3547e-07
0.000222117 0.00010871 -7.60976e-10
8.3547e-07 -7.60976e-10 4.85933e-05
0.00212561 0.000165569 2.5985e-06
0.000165569 1.13448e-05 2.06864e-07
2.5985e-06 2.06864e-07 -1.58452e-06
0.00123212 0.000164313 -4.88787e-06
0.000164313 -5.53161e-05 -1.0262e-06
-4.88787e-06 -1.0262e-06 -0.000217231
0.0021125 0.000286184 3.74986e-07
0.000286184 0.000129805 -1.3212e-07
3.74986e-07 -1.3212e-07 -2.71968e-07
0.00229368 0.000303507 4.10429e-06
0.000303507 0.000122102 1.21145e-06
4.10429e-06 1.21145e-06 5.01389e-05
0.000335471 7.89846e-05 -1.6491e-05
7.89846e-05 -0.000255765 -6.43333e-06
-1.6491e-05 -6.43333e-06 -0.000365851
0.00129855 0.000218911 1.81274e-06
0.000218911 -2.85364e-05 7.94566e-07
1.81274e-06 7.94566e-07 -0.0002032
0.00208952 0.000354546 1.86406e-06
0.000354546 0.000144971 -1.53231e-07
1.86406e-06 -1.53231e-07 -2.21731e-05
0.00705553 0.000307244 -0.000373724
0.000307244 0.00420359 -4.09347e-05
-0.000373724 -4.09347e-05 0.0042073
0.000349793 0.000115422 5.13399e-07
0.000115422 -0.000256135 2.0488e-07
5.13399e-07 2.0488e-07 -0.0003749
0.00133716 0.000270243 1.0475e-05
0.000270243 -1.0391e-05 3.73306e-06
1.0475e-05 3.73306e-06 -0.00020069
0.00733037 0.000338122 9.33106e-06
0.000338122 0.00437903 5.38822e-06
9.33106e-06 5.38822e-06 0.00437571
0.000337262 0.000157723 1.77708e-05
0.000157723 -0.000267116 1.27506e-05
1.77708e-05 1.27506e-05 -0.000399167
0.00759812 0.000301402 0.000368665
0.000301402 0.0045333 4.75686e-05
0.000368665 4.75686e-05 0.0045369
0.00193006 6.36334e-05 -3.22085e-07
6.36334e-05 1.75654e-05 -3.6016e-08
-3.22085e-07 -3.6016e-08 -7.13914e-05
0.00204973 6.8528e-05 -2.98184e-06
6.8528e-05 4.47622e-06 -7.12961e-08
-2.98184e-06 -7.12961e-08 -4.10096e-05
0.00208 9.91803e-05 5.66309e-06
9.91803e-05 2.60353e-05 1.21429e-07
5.66309e-06 1.21429e-07 1.15751e-05
0.00127106 -1.26643e-05 -1.02813e-05
-1.26643e-05 1.79947e-05 -5.96404e-07
-1.02813e-05 -5.96404e-07 -0.00010218
0.00198272 -7.0554e-06 6.42665e-07
-7.0554e-06 5.41609e-05 1.24139e-07
6.42665e-07 1.24139e-07 -2.97354e-05
0.00208744 1.07848e-05 3.81237e-06
1.07848e-05 1.87991e-05 -1.4213e-07
3.81237e-06 -1.4213e-07 -1.4788e-05
0.00198239 -7.11521e-05 2.10952e-06
-7.11521e-05 4.33215e-05 3.06603e-07
2.10952e-06 3.06603e-07 -4.01777e-05
0.00129912 -3.87895e-05 1.96424e-06
-3.87895e-05 2.18243e-05 -1.15955e-07
1.96424e-06 -1.15955e-07 -0.000100792
0.000304279 -3.25219e-05 -1.79653e-05
-3.25219e-05 -0.000260716 5.51179e-07
-1.79653e-05 5.51179e-07 -0.000351449
0.00113724 -7.92063e-05 9.55146e-06
-7.92063e-05 -9.80453e-05 -6.94705e-07
9.55146e-06 -6.94705e-07 -0.000239578
0.000296871 9.66776e-07 1.3265e-07
9.66776e-07 -0.000271182 9.01134e-08
1.3265e-07 9.01134e-08 -0.000364766
0.00664929 -0.000135866 -0.000359489
-0.000135866 0.00393327 1.53411e-05
-0.000359489 1.53411e-05 0.00396028
0.000334881 -4.79569e-05 1.76457e-05
-4.79569e-05 -0.000245174 -3.11772e-06
1.76457e-05 -3.11772e-06 -0.000345434
0.00675354 -6.25339e-05 -2.89087e-06
-6.25339e-05 0.00398654 3.36202e-06
-2.89087e-06 3.36202e-06 0.00401859
0.00685536 -0.000123186 0.000358781
-0.000123186 0.0040528 -1.83137e-05
0.000358781 -1.83137e-05 0.00408202
0.00204694 0.000138771 9.43138e-08
0.000138771 8.70929e-05 2.57964e-07
9.43138e-08 2.57964e-07 -8.34786e-06
0.00212975 0.00014943 -2.32867e-06
0.00014943 4.35127e-05 -2.66104e-07
-2.32867e-06 -2.66104e-07 -5.89003e-06
0.00203566 0.00014734 5.02376e-06
0.00014734 -2.63232e-05 4.65035e-07
5.02376e-06 4.65035e-07 -3.59618e-05
0.00119514 0.000114652 -7.18323e-06
0.000114652 -6.27908e-05 -4.24507e-07
-7.18323e-06 -4.24507e-07 -0.000210688
0.00210214 0.00021412 1.40855e-07
0.00021412 0.000116935 -1.58094e-07
1.40855e-07 -1.58094e-07 7.81409e-06
0.00223787 0.000221274 4.47815e-06
0.000221274 0.00010206 3.05719e-07
4.47815e-06 3.05719e-07 4.24388e-05
0.000328169 5.32839e-05 -1.60209e-05
5.32839e-05 -0.000252395 -4.26845e-06
-1.60209e-05 -4.26845e-06 -0.000356617
0.00123253 0.000166653 1.78339e-07
0.000166653 -4.9997e-05 2.28504e-07
1.78339e-07 2.28504e-07 -0.000213224
0.00216519 0.000286346 9.52567e-07
0.000286346 0.000172728 -1.15041e-06
9.52567e-07 -1.15041e-06 4.27413e-05
0.00689823 0.000252272 -0.00038163
0.000252272 0.00410127 -3.31254e-05
-0.00038163 -3.31254e-05 0.00411495
0.000345276 8.67478e-05 8.30394e-07
8.67478e-05 -0.00025119 2.16369e-07
8.30394e-07 2.16369e-07 -0.000363311
0.00124012 0.000215479 5.77864e-06
0.000215479 -6.30344e-05 2.72204e-06
5.77864e-06 2.72204e-06 -0.000242071
0.00715043 0.000326169 4.84592e-06
0.000326169 0.00426883 3.4987e-06
4.84592e-06 3.4987e-06 0.00427025
0.000370404 0.00012292 1.67065e-05
0.00012292 -0.000245247 9.86772e-06
1.67065e-05 9.86772e-06 -0.000366352
0.00743708 0.000377479 0.000382046
0.000377479 0.00445885 5.39732e-05
0.000382046 5.39732e-05 0.00444967
0.00110599 3.38245e-05 -1.12955e-05
3.38245e-05 -9.17466e-05 -5.31859e-07
-1.12955e-05 -5.31859e-07 -0.000223801
0.00203122 6.10185e-05 5.77844e-07
6.10185e-05 8.48159e-05 -1.45232e-08
5.77844e-07 -1.45232e-08 1.6439e-06
0.00210078 7.04732e-05 3.76499e-06
7.04732e-05 4.53368e-05 -1.06563e-07
3.76499e-06 -1.06563e-07 -9.94316e-07
0.000359273 3.21043e-05 -1.87109e-05
3.21043e-05 -0.000231348 -1.19413e-06
-1.87109e-05 -1.19413e-06 -0.000312726
0.00125582 -7.74011e-06 1.45334e-06
-7.74011e-06 4.54417e-06 -4.67393e-08
1.45334e-06 -4.67393e-08 -0.000115685
0.00201893 -2.34742e-06 2.72148e-06
-2.34742e-06 8.15921e-05 1.41913e-07
2.72148e-06 1.41913e-07 -1.69043e-06
0.00124023 -4.0144e-05 1.268e-05
-4.0144e-05 -2.13154e-05 -4.22705e-08
1.268e-05 -4.22705e-08 -0.000144237
0.000321038 -5.91813e-06 3.54981e-07
-5.91813e-06 -0.000250654 4.4345e-07
3.54981e-07 4.4345e-07 -0.000340985
0.00650957 3.66615e-06 -0.00036029
3.66615e-06 0.0038358 2.9526e-06
-0.00036029 2.9526e-06 0.00387136
0.000302542 1.2413e-05 1.73186e-05
1.2413e-05 -0.000269636 -5.81163e-07
1.73186e-05 -5.81163e-07 -0.000361493
0.00660009 -0.000133127 -7.44092e-06
-0.000133127 0.00390403 2.23009e-06
-7.44092e-06 2.23009e-06 0.00393055
0.00668516 -4.49721e-05 0.000345377
-4.49721e-05 0.00394313 -1.02657e-05
0.000345377 -1.02657e-05 0.00397546
0.0011551 7.22011e-05 -1.01906e-05
7.22011e-05 -6.71968e-05 -6.50326e-07
-1.01906e-05 -6.50326e-07 -0.000205104
0.00210686 0.000135473 -3.63929e-07
0.000135473 0.000127217 -2.91527e-07
-3.63929e-07 -2.91527e-07 3.59452e-05
0.00215214 0.000147788 1.80999e-06
0.000147788 5.24035e-05 -3.5476e-07
1.80999e-06 -3.5476e-07 8.26733e-06
0.00275729 7.16234e-05 -0.000161682
7.16234e-05 0.00130696 -5.93709e-06
-0.000161682 -5.93709e-06 0.00125118
0.0011943 0.000115768 5.08779e-08
0.000115768 -6.1765e-05 1.61643e-07
5.08779e-08 1.61643e-07 -0.000210556
0.00215109 0.000214639 3.45705e-07
0.000214639 0.000152666 -7.65056e-07
3.45705e-07 -7.65056e-07 4.35273e-05
0.00676502 0.000184072 -0.000380257
0.000184072 0.00400951 -2.37153e-05
-0.000380257 -2.37153e-05 0.00403379
0.00034112 7.31002e-05 1.12364e-06
7.31002e-05 -0.00024329 5.33906e-07
1.12364e-06 5.33906e-07 -0.000350012
0.00123393 0.000168929 5.36378e-06
0.000168929 -4.59238e-05 1.40913e-06
5.36378e-06 1.40913e-06 -0.000210463
0.00700495 0.000269389 1.24385e-06
0.000269389 0.00417038 1.67544e-06
1.24385e-06 1.67544e-06 0.00418241
0.000360872 9.68168e-05 1.64791e-05
9.68168e-05 -0.000241714 7.64097e-06
1.64791e-05 7.64097e-06 -0.000356481
0.00724403 0.000362436 0.000387462
0.000362436 0.00434222 5.13703e-05
0.000387462 5.13703e-05 0.0043368
0.000452582 1.40709e-05 -1.4524e-05
1.40709e-05 -0.000160572 -1.89663e-06
-1.4524e-05 -1.89663e-06 -0.000250886
0.00116841 3.33863e-05 -2.98069e-07
3.33863e-05 -5.34195e-05 6.54152e-08
-2.98069e-07 6.54152e-08 -0.000181032
0.0021283 5.70284e-05 3.08984e-06
5.70284e-05 0.000149515 -1.40747e-07
3.08984e-06 -1.40747e-07 7.19957e-05
0.0063107 -0.000105117 -0.00034174
-0.000105117 0.00372895 5.36168e-06
-0.00034174 5.36168e-06 0.00375329
0.000312873 1.08451e-05 -6.54863e-07
1.08451e-05 -0.000256825 -2.18342e-07
-6.54863e-07 -2.18342e-07 -0.000340783
0.00125469 -4.04682e-06 1.317e-05
-4.04682e-06 5.2915e-08 2.40712e-07
1.317e-05 2.40712e-07 -0.000120173
0.00028649 2.03215e-05 1.75787e-05
2.03215e-05 -0.000274597 8.84659e-07
1.75787e-05 8.84659e-07 -0.000363459
0.00645261 -3.16231e-05 2.21284e-06
-3.16231e-05 0.00380669 -1.85187e-06
2.21284e-06 -1.85187e-06 0.00383708
0.00659487 -5.7296e-05 0.000349812
-5.7296e-05 0.00388743 -7.52516e-06
0.000349812 -7.52516e-06 0.00392064
0.00280083 2.21554e-05 -0.000154662
2.21554e-05 0.00133724 -3.0563e-06
-0.000154662 -3.0563e-06 0.00128646
0.00114787 7.51133e-05 -3.37013e-08
7.51133e-05 -7.64438e-05 -7.27454e-08
-3.37013e-08 -7.27454e-08 -0.000214959
0.00218406 0.000132652 1.58869e-06
0.000132652 0.000178871 -6.15403e-07
1.58869e-06 -6.15403e-07 9.20197e-05
0.00625769 -2.14407e-05 -0.000159152
-2.14407e-05 0.00369879 -1.39168e-07
-0.000159152 -1.39168e-07 0.00368893
0.000311122 6.2266e-05 7.26592e-07
6.2266e-05 -0.000256324 3.16606e-07
7.26592e-07 3.16606e-07 -0.000355125
0.00116118 0.00011737 7.36581e-06
0.00011737 -7.95845e-05 6.49807e-07
7.36581e-06 6.49807e-07 -0.000229508
0.00682783 0.000160703 -9.84687e-06
0.000160703 0.00404325 -1.87385e-06
-9.84687e-06 -1.87385e-06 0.00406866
0.000347121 9.57117e-05 1.77324e-05
9.57117e-05 -0.000239552 6.10657e-06
1.77324e-05 6.10657e-06 -0.000347891
0.00708938 0.000292634 0.000390983
0.000292634 0.00422935 4.24633e-05
0.000390983 4.24633e-05 0.00423936
0.00192008 -5.33176e-05 -0.000264684
-5.33176e-05 0.000881195 1.83516e-06
-0.000264684 1.83516e-06 0.000884598
0.00155437 3.44737e-05 -6.71357e-05
3.44737e-05 0.000537947 -1.29378e-07
-6.71357e-05 -1.29378e-07 0.000472838
0.00126613 3.59717e-05 1.21672e-05
3.59717e-05 6.48155e-06 4.84062e-07
1.21672e-05 4.84062e-07 -0.000116537
0.00637155 -5.16103e-05 6.56729e-06
-5.16103e-05 0.00376123 3.1841e-06
6.56729e-06 3.1841e-06 0.0037913
0.000332477 -9.56696e-06 1.80326e-05
-9.56696e-06 -0.000237804 1.02352e-06
1.80326e-05 1.02352e-06 -0.000325686
0.00646635 -9.26109e-05 0.000359309
-9.26109e-05 0.00382102 -6.60016e-06
0.000359309 -6.60016e-06 0.00385053
0.00145648 2.63453e-05 -7.33945e-05
2.63453e-05 0.000614296 -1.24015e-06
-7.33945e-05 -1.24015e-06 0.000571783
0.00154384 2.38197e-05 -6.85341e-05
2.38197e-05 0.000532871 -1.85884e-06
-6.85341e-05 -1.85884e-06 0.000462325
0.00113832 7.59588e-05 1.06509e-05
7.59588e-05 -8.62704e-05 4.44632e-07
1.06509e-05 4.44632e-07 -0.000225289
0.00411325 7.75523e-05 0.000134095
7.75523e-05 0.00230415 4.64468e-06
0.000134095 4.64468e-06 0.00229834
0.00033382 7.30374e-05 1.84171e-05
7.30374e-05 -0.00024237 4.24849e-06
1.84171e-05 4.24849e-06 -0.000341246
0.00692402 0.00014823 0.000373696
0.00014823 0.00409564 2.57411e-05
0.000373696 2.57411e-05 0.00412491
0.00629056 -1.80171e-05 -8.31251e-06
-1.80171e-05 0.00371428 -3.66424e-06
-8.31251e-06 -3.66424e-06 0.00374257
0.000300072 5.27858e-05 1.96077e-05
5.27858e-05 -0.000267369 2.45444e-06
1.96077e-05 2.45444e-06 -0.000348219
0.00626115 3.18977e-05 0.000344904
3.18977e-05 0.0036865 1.89859e-07
0.000344904 1.89859e-07 0.00372014
0.00394111 3.75489e-05 0.000145012
3.75489e-05 0.0022004 6.2492e-06
0.000145012 6.2492e-06 0.00219765
0.000327911 1.25405e-05 1.75841e-05
1.25405e-05 -0.00024288 2.17579e-06
1.75841e-05 2.17579e-06 -0.000333602
0.00667265 1.54698e-05 0.000359212
1.54698e-05 0.00393632 1.18406e-05
0.000359212 1.18406e-05 0.00396862
0.00635869 -0.000111718 0.000345064
-0.000111718 0.00376067 -4.53806e-06
0.000345064 -4.53806e-06 0.00378523
0.0064106 2.01327e-05 0.000349411
2.01327e-05 0.00377168 7.08609e-06
0.000349411 7.08609e-06 0.00380704
