# vtk DataFile Version 2.0
Wound Healing Simulation
ASCII
DATASET UNSTRUCTURED_GRID
POINTS 3012 float
69.9759 18.75 4
67.2507 60.3285 4
69.976 18.75 2
73.0099 25.446 4
71.1327 20.9142 4
68.6801 16.6661 4
67.8235 19.9265 3.97778
67.2507 60.3286 2
71.1327 54.0858 4
68.6801 58.3339 4
65.6939 62.2254 4
65.3103 59.0003 3.9771
74.6784 42.3946 4
73.7221 47.2057 4
69.9759 18.75 0
73.0099 25.446 2
68.6801 16.6661 2
71.1327 20.9142 2
67.8241 19.9301 2
74.6792 32.6053 4
73.7222 27.7943 4
72.1454 23.1494 4
70.6126 26.2214 3.97757
68.8838 21.9582 3.97824
67.2507 14.6715 4
66.6349 17.9728 3.97677
65.7914 21.0284 3.96675
67.2507 60.3285 0
71.1327 54.0858 2
68.6801 58.3339 2
65.694 62.2255 2
65.3115 58.9956 2
72.1454 51.8506 4
69.9759 56.25 4
68.8344 53.1131 3.97746
64.0165 64.0165 4
66.6088 57.1331 3.97751
63.8833 60.7641 3.9772
63.4954 57.7661 3.96788
60.3285 67.2507 4
74.6792 42.3947 2
73.7222 47.2057 2
74.9194 39.9526 4
74.2788 44.8158 4
72.167 42.0857 3.978
73.0099 49.554 4
71.2478 46.598 3.97716
73.0099 25.446 0
71.1327 20.9142 0
68.6801 16.6661 0
67.8235 19.9265 0.0222193
74.6792 32.6053 2
73.7222 27.7943 2
67.2508 14.6715 2
72.1455 23.1494 2
70.6124 26.222 2
66.6359 17.9776 2
68.8841 21.9605 2
65.7905 21.0295 2
74.9197 35.0474 4
74.2794 30.1841 4
72.1838 32.944 3.97834
71.2769 28.432 3.97748
69.8138 24.0598 3.97803
68.3422 26.9536 3.96653
66.7571 22.9356 3.96649
65.694 12.7746 4
65.3212 16.1051 3.97608
64.7077 19.1998 3.96719
63.8394 22.0542 3.96489
71.1327 54.0858 0
65.6939 62.2254 0
68.6801 58.3339 0
65.3103 59.0003 0.0229023
72.1455 51.8506 2
69.9759 56.25 2
68.8345 53.111 2
64.0165 64.0165 2
66.6096 57.1289 2
63.8852 60.7599 2
63.494 57.7656 2
62.2254 65.694 4
58.8929 65.4132 3.98646
69.767 50.989 3.9772
67.7817 55.167 3.97762
66.6438 52.2075 3.96625
62.3336 62.4251 3.97939
64.6552 56.028 3.96749
62.1973 59.3945 3.96748
61.8048 56.667 3.96342
58.3339 68.6801 4
60.3285 67.2508 2
73.7221 47.2057 0
74.6784 42.3946 0
74.9197 39.9526 2
74.2794 44.8159 2
72.1664 42.0855 2
73.0099 49.554 2
71.2475 46.5976 2
75 37.5 4
72.4044 39.8025 3.97888
71.7812 44.3529 3.97787
69.8001 41.7901 3.96766
70.5734 48.8135 3.97692
68.9075 46.0144 3.96691
74.6792 32.6053 0
73.7222 27.7943 0
67.2507 14.6715 0
72.1454 23.1494 0
70.6126 26.2214 0.0224267
68.8838 21.9582 0.0217595
66.6349 17.9728 0.0232285
65.7914 21.0284 0.0332522
74.9197 35.0474 2
74.2794 30.1841 2
72.1831 32.9443 2
71.2766 28.4324 2
65.694 12.7745 2
65.3228 16.1104 2
69.8138 24.0611 2
68.3419 26.9544 2
64.7067 19.2008 2
66.7566 22.9367 2
63.8396 22.0548 2
72.4122 35.2248 3.97883
71.8027 30.677 3.97813
69.8364 33.2703 3.96782
68.9619 29.0403 3.96694
67.6062 24.9142 3.96639
66.1337 27.6501 3.96723
64.0165 10.9835 4
64.7018 23.8481 3.96578
63.8871 14.3298 3.97671
63.5071 17.4553 3.96772
62.8654 20.3408 3.9638
61.9793 22.985 3.96751
60.6819 11.1007 3.98099
57.6082 11.4598 3.97201
72.1454 51.8506 0
69.9759 56.25 0
68.8344 53.1131 0.0225446
64.0165 64.0165 0
63.8833 60.7641 0.0228018
66.6088 57.1331 0.022488
63.4954 57.7661 0.0321203
62.2255 65.694 2
58.8952 65.4109 2
69.7669 50.9878 2
67.7821 55.1638 2
66.6431 52.2067 2
62.3357 62.4212 2
64.6541 56.0274 2
62.1962 59.3949 2
61.8067 56.6675 2
60.6667 63.9748 3.9826
57.0238 66.7346 3.98861
57.5554 63.6843 3.97431
67.502 50.1755 3.9661
65.6963 54.171 3.96674
64.4744 51.3676 3.96545
60.7686 60.9237 3.97054
62.7875 55.0531 3.96426
60.6462 58.1421 3.9632
60.2793 55.7571 3.96443
56.25 69.9759 4
58.3339 68.6801 2
60.3285 67.2507 0
58.9192 9.65838 3.98298
62.2254 9.30607 4
73.0099 49.554 0
74.2788 44.8158 0
71.2478 46.598 0.0228411
72.167 42.0857 0.0219992
74.9194 39.9526 0
75 37.5 2
72.4043 39.8025 2
71.7811 44.3524 2
69.7994 41.7898 2
70.5731 48.813 2
68.9073 46.0138 2
72.4878 37.5125 3.97842
70.0377 39.6582 3.96799
69.4261 43.9075 3.96744
67.5389 41.4929 3.96962
68.2606 48.1063 3.9663
66.6385 45.428 3.96867
74.9197 35.0474 0
74.2794 30.1841 0
72.1838 32.944 0.0216646
71.2769 28.432 0.022524
65.694 12.7746 0
65.3212 16.1051 0.0239218
69.8138 24.0598 0.0219678
68.3422 26.9536 0.0334732
66.7571 22.9356 0.0335116
64.7077 19.1998 0.032809
63.8394 22.0542 0.03511
72.4121 35.2248 2
71.8026 30.6775 2
69.8357 33.2708 2
68.9617 29.0409 2
64.0165 10.9835 2
63.8894 14.3351 2
63.5059 17.4563 2
67.6058 24.9151 2
66.1338 27.6506 2
62.866 20.3411 2
64.7016 23.8488 2
61.9783 22.9858 2
60.6848 11.1047 2
57.6101 11.4577 2
70.0544 35.3936 3.96789
69.4632 31.1515 3.96727
67.604 33.5983 3.96931
66.7116 29.6361 3.96801
65.4647 25.7163 3.96655
63.9951 28.29 3.97225
62.339 12.6585 3.97874
62.7289 24.6774 3.96914
62.1932 15.7986 3.96912
61.7858 18.7063 3.96314
61.1151 21.3858 3.96527
60.2445 23.7912 3.97086
59.2413 12.804 3.96997
55.8714 10.2434 3.97469
56.3979 13.1562 3.96907
69.767 50.989 0.0228029
62.2254 65.694 0
58.8929 65.4132 0.0135428
67.7817 55.167 0.0223816
66.6438 52.2075 0.0337495
62.3336 62.4251 0.0206145
62.1973 59.3945 0.0325188
64.6552 56.028 0.0325069
61.8048 56.667 0.0365762
60.6688 63.9718 2
57.0257 66.7333 2
57.5561 63.6852 2
67.5015 50.1747 2
65.6953 54.1702 2
64.4746 51.3673 2
60.7674 60.9247 2
62.788 55.0532 2
60.6461 58.1423 2
60.2802 55.7573 2
55.0697 67.9316 3.99029
59.2148 62.3469 3.97137
55.8025 64.904 3.97897
56.3198 62.0614 3.9716
65.2596 49.3911 3.96648
63.6555 53.2756 3.96467
62.2954 50.6128 3.96813
59.3231 59.5357 3.96578
60.9938 54.2762 3.96623
59.2485 56.9806 3.9627
59.1632 55.1437 3.96694
48.1004 68.5762 3.98604
50.9475 69.9314 3.991
54.0858 71.1327 4
56.25 69.976 2
58.3339 68.6801 0
57.0568 8.33778 3.98532
60.3285 7.74928 4
58.9224 9.66153 2
62.2255 9.30602 2
70.5734 48.8135 0.0230768
71.7812 44.3529 0.0221325
68.9075 46.0144 0.0330932
69.8001 41.7901 0.0323361
72.4044 39.8025 0.0211214
75 37.5 0
72.4871 37.5125 2
70.0376 39.6582 2
69.4259 43.9071 2
67.5383 41.4927 2
68.2603 48.1056 2
66.6375 45.4276 2
70.1257 37.5228 3.96794
67.7816 39.5109 3.96974
67.1584 43.4618 3.96937
65.4041 41.1969 3.97637
65.9935 47.4029 3.96763
64.4771 44.8206 3.97336
72.4122 35.2248 0.0211736
71.8027 30.677 0.021874
69.8364 33.2703 0.0321773
68.9619 29.0403 0.0330625
64.0165 10.9835 0
63.8871 14.3298 0.0232935
63.5071 17.4553 0.0322815
67.6062 24.9142 0.0336108
66.1337 27.6501 0.0327712
64.7018 23.8481 0.0342183
62.8654 20.3408 0.0361974
61.9793 22.985 0.0324933
60.6819 11.1007 0.0190141
57.6082 11.4598 0.0279869
70.0543 35.3938 2
69.463 31.152 2
67.6036 33.5986 2
66.7112 29.6366 2
62.3418 12.6632 2
62.1919 15.7992 2
61.7869 18.7064 2
65.4647 25.7169 2
63.993 28.2907 2
61.1137 21.3866 2
62.7276 24.6782 2
60.244 23.7922 2
59.2427 12.8038 2
56.3987 13.1537 2
55.8729 10.2432 2
67.8221 35.552 3.96959
67.2116 31.6326 3.96893
65.5566 33.9423 3.976
64.5095 30.2211 3.97348
63.3994 26.4518 3.97087
62.0223 28.8303 3.97627
60.7699 14.2436 3.96897
60.8447 25.399 3.97322
60.5975 17.1519 3.96318
60.1332 19.863 3.96283
59.4889 22.3261 3.96718
58.7414 24.403 3.97381
54.0354 9.14438 3.97731
57.9002 14.369 3.96784
54.7802 12.0413 3.97221
55.2989 14.7005 3.96595
67.502 50.1755 0.0339014
57.0238 66.7346 0.0113855
60.6667 63.9748 0.0174014
57.5554 63.6843 0.0256886
65.6963 54.171 0.0332587
64.4744 51.3676 0.0345485
60.7686 60.9237 0.0294601
60.6462 58.1421 0.0367996
62.7875 55.0531 0.0357397
60.2793 55.7571 0.0355699
55.0712 67.9308 2
59.2153 62.3491 2
55.8029 64.9044 2
56.319 62.064 2
65.2594 49.3907 2
63.6559 53.2755 2
62.2947 50.6123 2
59.3217 59.5366 2
60.9937 54.2761 2
59.2521 56.9813 2
59.1655 55.1439 2
53.0417 68.9996 3.99078
53.965 66.009 3.9819
57.8712 60.8424 3.96928
54.6791 63.1959 3.9738
55.1984 60.5782 3.96899
63.0325 48.6236 3.96991
61.623 52.5378 3.96712
60.0456 49.9594 3.97034
57.9961 58.2338 3.96433
59.2006 53.8993 3.96801
58.0251 55.7643 3.96263
50.1071 67.8544 3.98531
47.4617 66.5749 3.98168
46.0543 69.1554 3.98658
48.1007 68.5769 2
48.8014 70.7226 3.99125
50.9486 69.931 2
51.8506 72.1454 4
54.0858 71.1327 2
56.25 69.9759 0
55.1017 7.14199 3.98799
58.3339 6.31992 4
57.0595 8.33939 2
60.3286 7.74926 2
58.9192 9.65838 0.0170183
62.2254 9.30607 0
68.2606 48.1063 0.0337009
69.4261 43.9075 0.032563
66.6385 45.428 0.0313315
67.5389 41.4929 0.0303787
70.0377 39.6582 0.0320132
72.4878 37.5125 0.021578
70.1251 37.5229 2
67.7806 39.5108 2
67.1587 43.4615 2
65.4015 41.1964 2
65.9935 47.4025 2
64.4749 44.82 2
67.8828 37.5237 3.96979
65.6417 39.3647 3.97665
65.0152 43.0051 3.97542
63.5129 40.9078 3.97693
63.7901 46.6827 3.9715
62.5447 44.1733 3.97647
70.0544 35.3936 0.0321055
69.4632 31.1515 0.0327273
67.604 33.5983 0.0306882
66.7116 29.6361 0.0319894
62.339 12.6585 0.0212568
62.1932 15.7986 0.030876
61.7858 18.7063 0.0368593
65.4647 25.7163 0.0334539
63.9951 28.29 0.0277538
62.7289 24.6774 0.0308611
61.1151 21.3858 0.0347279
60.2445 23.7912 0.029143
59.2413 12.804 0.0300314
56.3979 13.1562 0.0309318
55.8714 10.2434 0.0253067
67.8208 35.5522 2
67.212 31.633 2
65.5536 33.9428 2
64.5072 30.2218 2
60.77 14.2445 2
60.5968 17.1522 2
60.1329 19.8635 2
63.3979 26.4526 2
62.0198 28.8314 2
59.4906 22.3269 2
60.8436 25.4001 2
58.7404 24.4045 2
57.9001 14.3686 2
55.2994 14.6995 2
54.0369 9.14293 2
54.781 12.0393 2
65.7385 35.6754 3.97641
65.0327 32.1768 3.97465
64.0719 34.272 3.9767
62.3437 30.6829 3.97675
61.4286 27.1303 3.97446
60.561 29.209 3.97694
59.2986 15.6987 3.96622
59.0623 25.8794 3.97622
59.0741 18.3994 3.96187
58.5934 20.9233 3.96367
58.0557 23.1804 3.96862
57.7057 24.7609 3.97487
52.1109 8.1596 3.9804
53.0532 11.0374 3.97354
56.6591 15.7899 3.96668
53.7982 13.7277 3.96966
54.3522 16.0604 3.96419
55.0697 67.9316 0.00971194
65.2596 49.3911 0.0335199
55.8025 64.904 0.0210281
59.2148 62.3469 0.0286289
56.3198 62.0614 0.0283953
63.6555 53.2756 0.0353289
62.2954 50.6128 0.0318678
59.3231 59.5357 0.0342191
59.2485 56.9806 0.0373011
60.9938 54.2762 0.0337732
59.1632 55.1437 0.0330568
53.043 68.9991 2
53.9654 66.0096 2
57.8701 60.844 2
54.6786 63.1966 2
55.1979 60.5801 2
63.0314 48.623 2
61.6231 52.5376 2
60.046 49.9589 2
57.9952 58.235 2
59.2031 53.8993 2
58.0224 55.7632 2
52.0684 66.997 3.98448
52.9506 64.2095 3.97899
56.631 59.4567 3.96836
53.671 61.5961 3.97416
54.2375 59.2809 3.97125
60.7267 47.8212 3.97186
59.5217 52.0482 3.96872
57.7326 49.5389 3.97237
56.7284 56.9467 3.96528
56.9605 54.0595 3.96616
50.1073 67.8547 2
49.3355 65.9153 3.98173
47.4619 66.5754 2
46.8904 64.7266 3.98043
45.5568 67.092 3.98188
43.9717 69.5873 3.98715
46.0545 69.1559 2
46.6078 71.3671 3.99144
48.1004 68.5762 0.0139565
48.8024 70.7226 2
49.554 73.0099 4
50.9475 69.9314 0.00900293
51.8506 72.1455 2
54.0858 71.1327 0
53.0639 6.07283 3.99035
55.104 7.1425 2
56.25 5.02411 4
58.3339 6.3199 2
57.0568 8.33778 0.0146791
60.3285 7.74928 0
65.9935 47.4029 0.032371
67.1584 43.4618 0.0306334
64.4771 44.8206 0.026638
65.4041 41.1969 0.0236264
67.7816 39.5109 0.0302602
70.1257 37.5228 0.0320568
67.8823 37.5237 2
65.6387 39.3645 2
65.0125 43.0044 2
63.5105 40.9076 2
63.7882 46.682 2
62.5427 44.1724 2
65.7494 37.5035 3.97659
63.6623 39.2575 3.97698
63.0721 42.5171 3.97646
62.1248 40.6713 3.97673
61.695 45.8673 3.97415
61.1179 43.6291 3.97623
67.8221 35.552 0.0304143
67.2116 31.6326 0.0310686
65.5566 33.9423 0.0240022
64.5095 30.2211 0.0265242
60.7699 14.2436 0.0310331
60.5975 17.1519 0.0368163
60.1332 19.863 0.0371681
63.3994 26.4518 0.0291259
62.0223 28.8303 0.0237276
60.8447 25.399 0.0267759
59.4889 22.3261 0.0328246
58.7414 24.403 0.0261916
57.9002 14.369 0.0321649
55.2989 14.7005 0.0340488
54.0354 9.14438 0.0226851
54.7802 12.0413 0.0277871
65.7357 35.6757 2
65.0303 32.1774 2
64.0692 34.2724 2
62.3417 30.6837 2
59.2974 15.6992 2
59.0751 18.3991 2
58.5976 20.9239 2
61.427 27.1314 2
60.56 29.2098 2
58.0522 23.1825 2
59.0619 25.8808 2
57.7069 24.7631 2
56.6585 15.7889 2
54.3532 16.0615 2
53.7976 13.721 2
52.112 8.15845 2
53.0544 11.0352 2
63.8686 35.646 3.97685
62.6683 33.0824 3.97658
60.2861 30.6791 3.97633
59.268 27.9929 3.97658
57.9149 17.0264 3.96242
57.4354 25.8302 3.97636
57.6132 19.542 3.96137
57.1633 21.9329 3.964
56.8991 24.0552 3.96928
50.1117 7.28891 3.98465
51.2297 10.1371 3.97567
52.162 12.8291 3.97449
55.5068 17.0303 3.96394
52.9591 15.323 3.96712
53.7253 17.0521 3.96531
53.0417 68.9996 0.00921551
53.965 66.009 0.0181015
63.0325 48.6236 0.0300865
54.6791 63.1959 0.0262017
57.8712 60.8424 0.0307189
55.1984 60.5782 0.0310128
61.623 52.5378 0.0328817
60.0456 49.9594 0.0296555
57.9961 58.2338 0.0356669
58.0251 55.7643 0.0373686
59.2006 53.8993 0.0319932
52.0688 66.9976 2
52.9505 64.2099 2
56.6301 59.4578 2
53.6699 61.5955 2
54.237 59.2831 2
60.7262 47.8204 2
59.5227 52.0479 2
57.7296 49.5375 2
56.7269 56.9508 2
56.9577 54.058 2
51.1663 65.1213 3.9809
52.0394 62.5255 3.97587
55.4502 58.2135 3.96779
52.8159 60.0937 3.97568
53.6083 58.4306 3.9718
57.9328 46.7645 3.97534
57.3273 51.714 3.96898
55.8967 49.462 3.97112
55.3878 55.7395 3.96529
55.1605 53.312 3.96318
50.1071 67.8544 0.0146895
49.3357 65.9154 2
48.6157 64.1138 3.98059
47.4617 66.5749 0.0183181
45.5569 67.0926 2
46.8907 64.727 2
46.3785 63.0412 3.98247
45.1311 65.1871 3.97981
43.6301 67.4631 3.98282
41.8594 69.8743 3.98675
43.9718 69.5878 2
44.3751 71.8617 3.99151
46.0543 69.1554 0.0134171
46.6087 71.3671 2
47.2057 73.7222 4
48.8014 70.7226 0.00875212
49.554 73.0099 2
51.8506 72.1454 0
50.9545 5.13321 3.99148
53.0654 6.07301 2
54.0858 3.86728 4
55.1017 7.14199 0.0120055
56.25 5.02406 2
58.3339 6.31992 0
63.7901 46.6827 0.0285039
65.0152 43.0051 0.0245788
62.5447 44.1733 0.0235258
63.5129 40.9078 0.0230693
65.6417 39.3647 0.0233515
67.8828 37.5237 0.0302119
65.7463 37.5036 2
63.6601 39.2575 2
63.0699 42.5165 2
62.124 40.6708 2
61.6932 45.8664 2
61.1165 43.6286 2
63.7254 37.4587 3.97683
61.8381 39.34 3.97694
60.8633 41.9153 3.9767
59.8956 44.7021 3.97667
65.7385 35.6754 0.0235928
65.0327 32.1768 0.02535
64.0719 34.272 0.0232975
62.3437 30.6829 0.0232512
59.2986 15.6987 0.0337818
59.0741 18.3994 0.038126
58.5934 20.9233 0.0363277
61.4286 27.1303 0.0255381
60.561 29.209 0.0230576
59.0623 25.8794 0.0237787
58.0557 23.1804 0.0313819
57.7057 24.7609 0.0251327
56.6591 15.7899 0.0333161
54.3522 16.0604 0.0358084
53.7982 13.7277 0.0303444
52.1109 8.1596 0.0196022
53.0532 11.0374 0.0264589
63.8663 35.6459 2
62.6669 33.0828 2
60.2857 30.6793 2
57.9138 17.0261 2
57.6196 19.5408 2
57.1619 21.9348 2
59.2669 27.9942 2
56.906 24.0572 2
57.4355 25.833 2
50.1125 7.28706 2
55.5085 17.03 2
53.7258 17.0491 2
52.9589 15.3197 2
52.1632 12.8323 2
51.2312 10.1352 2
61.8786 35.3786 3.97664
59.9145 32.7991 3.97644
58.2314 30.1627 3.97636
56.9284 27.4968 3.9769
56.5859 18.2152 3.96143
55.9687 25.2266 3.97525
56.2149 20.6086 3.96134
55.8478 22.9837 3.96283
48.0566 6.52962 3.9882
49.3234 9.34028 3.97912
50.4263 12.0179 3.97548
51.361 14.5424 3.9683
54.3684 17.9925 3.96151
52.3317 17.1219 3.95849
52.0684 66.997 0.0155162
52.9506 64.2095 0.021007
60.7267 47.8212 0.0281354
53.671 61.5961 0.0258389
56.631 59.4567 0.0316371
54.2375 59.2809 0.0287539
59.5217 52.0482 0.0312818
57.7326 49.5389 0.027633
56.7284 56.9467 0.0347224
56.9605 54.0595 0.0338385
51.1664 65.122 2
52.0387 62.5266 2
55.4495 58.2147 2
52.815 60.0973 2
53.6077 58.4322 2
57.9322 46.7635 2
57.3264 51.7129 2
55.892 49.4605 2
55.387 55.7395 2
55.1636 53.3125 2
50.3427 63.3711 3.98071
51.2313 60.909 3.97588
54.1717 57.2263 3.97025
52.2813 58.5882 3.97214
56.1966 44.0745 3.97704
55.0741 47.7915 3.97403
54.7749 51.3021 3.96552
53.8733 54.4829 3.96539
49.3355 65.9153 0.0182698
48.6158 64.1138 2
47.9567 62.4631 3.98083
45.5568 67.092 0.0181201
46.8904 64.7266 0.0195718
43.6302 67.4636 2
46.3788 63.0416 2
45.1314 65.1878 2
45.9823 61.572 3.98733
44.7647 63.4394 3.97886
43.3559 65.4974 3.98001
41.6624 67.6812 3.98232
39.7017 70.0201 3.98651
41.8594 69.8749 2
42.1095 72.2063 3.99188
43.9717 69.5873 0.0128504
44.3758 71.8618 2
44.8159 74.2794 4
46.6078 71.3671 0.00856439
47.2057 73.7222 2
49.554 73.0099 0
48.7855 4.32366 3.99235
50.9554 5.13273 2
51.8506 2.85458 4
53.0639 6.07283 0.0096516
54.0858 3.86728 2
56.25 5.02411 0
61.695 45.8673 0.025849
63.0721 42.5171 0.0235354
61.1179 43.6291 0.0237745
62.1248 40.6713 0.0232687
63.6623 39.2575 0.0230197
65.7494 37.5035 0.0234057
63.7232 37.4586 2
61.8379 39.34 2
60.8633 41.915 2
59.8953 44.7012 2
61.6698 37.444 3.97695
59.8349 39.818 3.9769
58.5371 42.8485 3.9765
63.8686 35.646 0.0231472
62.6683 33.0824 0.0234197
60.2861 30.6791 0.0236743
57.9149 17.0264 0.0375785
57.6132 19.542 0.0386277
57.1633 21.9329 0.0360014
59.268 27.9929 0.023421
57.4354 25.8302 0.0236361
56.8991 24.0552 0.0307189
55.5068 17.0303 0.0360635
53.7253 17.0521 0.0346856
52.9591 15.323 0.0328755
50.1117 7.28891 0.0153532
52.162 12.8291 0.0255057
51.2297 10.1371 0.0243267
61.8785 35.3787 2
59.9141 32.799 2
58.2319 30.1622 2
56.5885 18.2149 2
56.2211 20.6059 2
55.8527 22.9869 2
56.928 27.4981 2
55.9666 25.2303 2
48.057 6.5275 2
49.3245 9.33789 2
54.3704 17.9925 2
52.3296 17.1159 2
51.3595 14.5397 2
50.4281 12.0159 2
59.4753 35.1462 3.97672
57.52 32.3421 3.97595
56.1137 29.4569 3.97681
55.0371 26.7505 3.97631
55.2615 19.2656 3.96155
54.6262 24.1979 3.96625
54.8143 21.6713 3.9605
45.963 5.88341 3.98905
43.3745 7.4757 3.98525
47.3554 8.62853 3.98337
48.5961 11.3082 3.97515
49.6992 13.7715 3.97301
50.6052 16.1879 3.97126
53.0655 18.7518 3.95929
51.2603 18.1641 3.9728
51.1663 65.1213 0.0190973
52.0394 62.5255 0.0241337
57.9328 46.7645 0.0246647
52.8159 60.0937 0.0243224
55.4502 58.2135 0.0322131
53.6083 58.4306 0.0281998
57.3273 51.714 0.0310211
55.8967 49.462 0.0288808
55.3878 55.7395 0.0347136
55.1605 53.312 0.0368185
50.3425 63.3711 2
51.2299 60.9073 2
54.1724 57.2281 2
52.28 58.5899 2
56.197 44.074 2
55.0723 47.7901 2
54.7779 51.3021 2
53.8739 54.4847 2
49.5842 61.7338 3.97846
54.98 41.6522 3.9745
50.5416 59.2951 3.9706
52.1203 56.4463 3.96784
53.6318 45.4356 3.97448
52.9365 49.2212 3.9692
52.4523 52.7774 3.96161
48.6157 64.1138 0.0194135
47.9566 62.4623 2
47.3196 60.9951 3.98663
43.6301 67.4631 0.0171752
45.1311 65.1871 0.0201905
46.3785 63.0412 0.0175274
41.6627 67.6811 2
43.3561 65.4982 2
45.9818 61.5729 2
44.7652 63.44 2
45.7556 60.6172 3.98485
44.48 61.8165 3.98025
43.145 63.7124 3.97871
41.5456 65.6344 3.97846
39.6319 67.759 3.98205
37.5259 70.0445 3.98523
39.7017 70.0206 2
39.8166 72.4027 3.99163
41.8594 69.8743 0.0132547
42.1101 72.2066 2
42.3947 74.6792 4
44.3751 71.8617 0.00848931
44.8159 74.2794 2
47.2057 73.7222 0
43.852 5.36068 3.98853
46.5716 3.6478 3.99259
48.7859 4.32283 2
49.554 1.99015 4
50.9545 5.13321 0.00851745
51.8506 2.85453 2
54.0858 3.86728 0
59.8956 44.7021 0.0233337
60.8633 41.9153 0.0232986
61.8381 39.34 0.023056
63.7254 37.4587 0.0231655
61.6695 37.4439 2
59.8355 39.8176 2
58.5375 42.8481 2
59.3301 37.5667 3.97725
57.4756 40.6102 3.97705
54.3873 39.6667 3.97522
61.8786 35.3786 0.0233646
59.9145 32.7991 0.0235569
58.2314 30.1627 0.0236368
56.5859 18.2152 0.0385671
56.2149 20.6086 0.0386606
55.8478 22.9837 0.0371723
56.9284 27.4968 0.0230955
55.9687 25.2266 0.0247472
54.3684 17.9925 0.0384902
52.3317 17.1219 0.0415138
51.361 14.5424 0.0317034
48.0566 6.52962 0.0117991
49.3234 9.34028 0.0208794
50.4263 12.0179 0.024524
59.4762 35.1461 2
45.9627 5.88287 2
43.3743 7.47489 2
57.5209 32.3427 2
56.1138 29.4565 2
55.2553 19.2675 2
54.8271 21.673 2
54.6229 24.2009 2
55.0348 26.7529 2
47.356 8.62437 2
48.5979 11.3049 2
53.0654 18.7429 2
51.262 18.161 2
50.6051 16.1876 2
49.6989 13.7726 2
56.8604 34.7966 3.97712
55.2013 31.6124 3.97609
54.0339 28.557 3.97732
53.4147 25.6697 3.9766
53.8586 20.2334 3.96058
53.3564 22.8553 3.95499
41.3997 7.08156 3.98494
45.361 7.99551 3.98727
42.8668 9.41954 3.98124
46.6659 10.6618 3.98102
47.7338 13.1212 3.97617
48.9082 15.4389 3.97043
49.9625 17.7527 3.96542
51.5765 19.4433 3.9672
50.3427 63.3711 0.0192924
51.2313 60.909 0.0241215
56.1966 44.0745 0.0229603
55.0741 47.7915 0.0259655
52.2813 58.5882 0.0278624
54.1717 57.2263 0.0297478
54.7749 51.3021 0.0344827
53.8733 54.4829 0.0346086
49.5832 61.7333 2
54.9733 41.6484 2
50.5402 59.2948 2
52.1223 56.4493 2
53.629 45.434 2
52.9458 49.221 2
52.4541 52.7779 2
48.8316 60.1877 3.97588
51.7774 42.5239 3.98305
49.7421 57.592 3.96748
50.4587 54.3765 3.96352
51.2973 47.1428 3.97473
50.9133 50.8575 3.95486
47.4552 43.6277 3.97831
47.9567 62.4631 0.0191729
47.3188 60.9945 2
46.6023 59.7834 3.99105
41.6624 67.6812 0.0176828
43.3559 65.4974 0.0199932
44.7647 63.4394 0.0211387
45.9823 61.572 0.0126729
39.6324 67.7598 2
41.5457 65.6334 2
45.7552 60.6178 2
43.1455 63.713 2
44.4792 61.8176 2
44.6121 60.2747 3.99192
42.9476 62.0645 3.97463
41.5996 63.8048 3.9783
39.6471 65.5997 3.97776
37.563 67.7393 3.97999
31.6977 65.1158 3.97796
33.3924 67.4771 3.97988
35.3338 69.9547 3.98529
37.5257 70.0456 2
37.509 72.4572 3.99206
39.7017 70.0201 0.0134909
39.817 72.403 2
39.9526 74.9197 4
42.1095 72.2063 0.0081231
42.3947 74.6792 2
44.8159 74.2794 0
41.7366 4.96958 3.98886
43.8521 5.35969 2
44.3268 3.11102 3.99291
46.5716 3.64752 2
47.2057 1.27793 4
48.7855 4.32366 0.00765311
49.554 1.99013 2
51.8506 2.85458 0
58.5371 42.8485 0.0234997
59.8349 39.818 0.023103
61.6698 37.444 0.0230482
59.3306 37.5675 2
57.4755 40.6108 2
54.3805 39.6712 2
56.2285 37.8823 3.97693
48.805 41.2325 3.9782
52.3702 39.3054 3.98378
39.4434 6.8053 3.98554
59.4753 35.1462 0.0232776
57.52 32.3421 0.0240523
56.1137 29.4569 0.0231925
55.2615 19.2656 0.0384542
54.8143 21.6713 0.0394989
54.6262 24.1979 0.0337485
55.0371 26.7505 0.0236911
53.0655 18.7518 0.0407074
51.2603 18.1641 0.0271961
50.6052 16.1879 0.0287357
45.963 5.88341 0.0109548
49.6992 13.7715 0.0269877
47.3554 8.62853 0.0166302
48.5961 11.3082 0.0248507
43.3745 7.4757 0.0147528
56.8601 34.7975 2
41.3998 7.08061 2
45.3603 7.99535 2
42.8663 9.41937 2
55.2043 31.611 2
54.0343 28.5564 2
53.8612 20.2406 2
53.3532 22.8531 2
53.4115 25.6711 2
46.6667 10.6543 2
47.735 13.1158 2
51.5824 19.4428 2
49.9614 17.7494 2
48.9055 15.4431 2
54.2093 33.9929 3.97536
52.927 30.6515 3.97657
52.1311 27.3928 3.97493
51.8731 24.2833 3.97808
52.2538 21.1852 3.97091
41.0139 9.05462 3.98008
44.727 9.99482 3.98576
42.466 10.9045 3.99343
45.9962 12.7398 3.97507
47.6607 14.6104 3.97044
48.0694 17.018 3.96796
49.7677 19.8155 3.97153
49.5842 61.7338 0.0215414
50.5416 59.2951 0.0293993
54.98 41.6522 0.0254968
53.6318 45.4356 0.025517
52.9365 49.2212 0.0307962
52.1203 56.4463 0.0321615
52.4523 52.7774 0.0383922
48.8296 60.1859 2
51.7958 42.533 2
49.7399 57.5924 2
50.46 54.3799 2
51.3041 47.1432 2
50.9163 50.8565 2
47.4696 43.656 2
47.9551 58.7165 3.97839
49.4282 45.1552 3.98036
48.5139 55.8822 3.96317
48.9315 52.5345 3.97619
49.2891 48.9418 3.97279
45.2037 39.8119 3.86545
45.6871 42.514 3.89992
45.9147 45.6337 3.98301
43.0245 41.0393 3.70958
41.6628 41.8764 3.52044
47.3196 60.9951 0.0133719
46.6006 59.7822 2
45.4446 58.785 3.99233
39.6319 67.759 0.0179539
41.5456 65.6344 0.0215448
43.145 63.7124 0.0212934
44.48 61.8165 0.0197515
45.7556 60.6172 0.0151549
41.5998 63.8043 2
37.5633 67.7403 2
39.6472 65.6008 2
44.6124 60.2759 2
42.9468 62.0652 2
41.7508 62.4737 3.97697
42.4735 59.9559 3.97896
39.8942 63.5364 3.9766
37.642 65.4952 3.97675
35.4634 67.6487 3.97988
33.5756 65.3284 3.97651
31.9603 63.2818 3.97654
29.8847 64.7075 3.98068
31.6976 65.1168 2
31.3773 67.187 3.98036
33.3926 67.4782 2
33.1572 69.7483 3.98541
35.3336 69.9557 2
35.1954 72.3716 3.99199
37.5259 70.0445 0.0147685
37.5091 72.4578 2
37.5 75 4
39.8166 72.4027 0.00837239
39.9526 74.9197 2
42.3947 74.6792 0
39.6244 4.71742 3.98948
41.7367 4.96881 2
42.0632 2.7183 3.99324
43.852 5.36068 0.0114729
44.3268 3.11033 2
44.8158 0.721173 4
46.5716 3.6478 0.00740983
47.2057 1.27779 2
49.554 1.99015 0
57.4756 40.6102 0.0229549
59.3301 37.5667 0.0227511
54.3873 39.6667 0.0247843
48.8331 41.2503 2
56.2275 37.8799 2
52.3679 39.273 2
53.2269 36.6253 3.97809
46.7313 40.3286 3.90223
49.7504 38.5124 3.98541
37.5174 6.67624 3.98562
39.4435 6.80369 2
39.2116 8.69642 3.98295
35.9437 8.49576 3.98425
56.8604 34.7966 0.0228838
55.2013 31.6124 0.0239118
54.0339 28.557 0.022683
53.8586 20.2334 0.039421
53.3564 22.8553 0.0450052
53.4147 25.6697 0.0233992
51.5765 19.4433 0.0328035
49.9625 17.7527 0.034577
48.9082 15.4389 0.0295657
45.361 7.99551 0.0127308
47.7338 13.1212 0.0238281
46.6659 10.6618 0.0189779
41.3997 7.08156 0.0150569
42.8668 9.41954 0.0187611
54.2065 33.9935 2
41.0141 9.05397 2
44.725 9.99543 2
42.466 10.9059 2
52.9241 30.6506 2
52.1383 27.3938 2
52.2584 21.1877 2
51.8718 24.289 2
45.9975 12.7286 2
47.6588 14.6032 2
49.7755 19.8157 2
48.0655 17.0168 2
51.7285 32.902 3.98234
50.741 29.3508 3.97717
50.4201 25.9004 3.97103
49.8103 22.4114 3.98543
40.5672 11.6159 3.98175
43.8527 11.9105 3.97974
45.7787 15.4467 3.9867
47.4665 19.4209 3.97837
45.6512 37.479 3.8602
48.8316 60.1877 0.02412
49.7421 57.592 0.032523
51.7774 42.5239 0.0169466
51.2973 47.1428 0.0252687
50.9133 50.8575 0.0451352
50.4587 54.3765 0.036479
47.4552 43.6277 0.0216921
47.953 58.719 2
49.4439 45.1683 2
48.5094 55.8843 2
48.9328 52.5404 2
49.2949 48.9412 2
45.2764 39.8277 2
45.717 42.5576 2
45.9242 45.6457 2
43.0566 41.0744 2
41.6929 41.9 2
46.7894 57.3209 3.97662
43.76 39.3518 3.71181
42.0235 40.7804 3.55154
47.5723 47.1804 3.98123
47.0434 54.195 3.96365
47.3271 50.6809 3.97879
44.3933 47.263 3.97536
44.3365 41.8584 3.85319
44.4032 44.3801 3.90557
41.9993 42.49 3.74328
40.6461 42.1789 3.52871
46.6023 59.7834 0.00894661
45.4439 58.7834 2
43.8517 57.6808 3.98004
37.563 67.7393 0.0200131
39.6471 65.5997 0.0222406
41.5996 63.8048 0.0217042
42.9476 62.0645 0.0253652
44.6121 60.2747 0.00808016
35.4637 67.6496 2
41.7501 62.4763 2
39.8939 63.5373 2
37.6421 65.496 2
42.4744 59.9552 2
40.6217 61.6184 3.9794
40.4364 58.1452 3.97929
37.8378 63.1927 3.9747
35.5729 65.4177 3.97715
33.5758 65.3293 2
31.9604 63.2831 2
33.6297 63.3201 3.97502
30.3795 62.8425 3.97993
32.1268 61.9847 3.98527
26.8768 61.4737 3.97721
28.0648 64.1359 3.97824
29.8843 64.7085 2
29.4072 66.751 3.98129
31.6977 65.1158 0.022038
31.3775 67.1879 2
31.015 69.4134 3.98513
33.3924 67.4771 0.0201171
33.157 69.7493 2
32.8932 72.146 3.99167
35.3338 69.9547 0.01471
35.1951 72.3723 2
35.0474 74.9194 4
37.509 72.4572 0.00794211
37.5 75 2
39.9526 74.9197 0
35.622 6.72722 3.9853
37.5242 4.61683 3.98961
39.6245 4.71605 2
39.7897 2.47497 3.99318
41.7366 4.96958 0.0111356
42.0631 2.71779 2
42.3946 0.32156 4
44.3268 3.11102 0.00709448
44.8159 0.72056 2
47.2057 1.27793 0
48.805 41.2325 0.0217975
56.2285 37.8823 0.0230667
52.3702 39.3054 0.0162202
46.7579 40.3233 2
49.7521 38.5085 2
53.2265 36.6431 2
50.5519 35.5713 3.97478
47.4019 37.77 3.9174
45.2207 35.1648 3.86377
43.0484 33.9261 3.70662
41.6864 33.0935 3.51863
37.4591 8.5374 3.98462
37.5174 6.67502 2
39.4434 6.8053 0.0144585
39.2121 8.69451 2
38.9767 10.1318 3.98354
35.8999 9.77796 3.98021
34.1533 8.82739 3.98221
35.9435 8.49374 2
54.2093 33.9929 0.0246439
52.927 30.6515 0.0234322
52.1311 27.3928 0.0250654
52.2538 21.1852 0.0290933
51.8731 24.2833 0.0219171
49.7677 19.8155 0.0284672
48.0694 17.018 0.032037
47.6607 14.6104 0.0295573
44.727 9.99482 0.0142371
45.9962 12.7398 0.0249326
41.0139 9.05462 0.0199191
42.466 10.9045 0.00657075
51.7346 32.8992 2
40.5688 11.6168 2
43.851 11.9144 2
50.7634 29.3489 2
50.4205 25.9022 2
49.8118 22.4109 2
45.7726 15.4161 2
47.4691 19.4427 2
49.2992 31.53 3.9876
48.8133 27.6687 3.97833
49.1342 24.5605 3.97636
47.1096 22.1805 3.98711
38.3011 12.7446 3.97715
42.0922 14.3083 3.9799
44.7748 18.5666 3.97513
44.1672 37.4862 3.72058
45.7404 37.4828 2
47.9551 58.7165 0.0216141
48.5139 55.8822 0.0368303
49.4282 45.1552 0.0196389
49.2891 48.9418 0.0272088
48.9315 52.5345 0.0238138
45.2037 39.8119 0.134551
45.6871 42.514 0.10008
45.9147 45.6337 0.0169938
43.0245 41.0393 0.290417
41.6628 41.8764 0.479558
46.7863 57.323 2
43.8134 39.3753 2
42.0245 40.7947 2
47.5798 47.1826 2
47.0384 54.1994 2
47.3299 50.6908 2
44.4184 47.2438 2
44.371 41.8863 2
44.4457 44.4035 2
42.0503 42.5339 2
40.6722 42.1873 2
45.3292 55.9035 3.99318
42.364 39.2314 3.5614
40.5319 40.66 3.66696
45.75 48.8302 4.00089
45.3524 52.4676 3.98086
43.1275 48.2535 3.99406
43.0402 45.8986 3.89615
43.1516 43.6259 3.83952
40.7546 43.5404 3.72047
39.1987 42.4422 3.55671
45.4446 58.785 0.0076696
43.8497 57.6854 2
42.079 56.2674 3.98483
35.4634 67.6487 0.0201218
37.642 65.4952 0.0232487
39.8942 63.5364 0.0234017
41.7508 62.4737 0.0230306
42.4735 59.9559 0.0210381
35.5732 65.4184 2
40.622 61.6174 2
37.8379 63.193 2
40.4371 58.145 2
38.9108 56.4356 3.99438
38.2498 60.3041 3.97986
35.6076 63.1869 3.97484
33.5756 65.3284 0.0234853
31.9603 63.2818 0.0234611
33.6299 63.3212 2
30.3795 62.8434 2
32.1275 61.9861 2
28.6861 62.1802 3.9796
33.3475 61.492 3.97709
31.074 61.2063 3.98044
27.5845 59.5653 3.97975
23.815 59.0532 3.98714
25.0443 60.8474 3.97725
26.8772 61.4738 2
26.2332 63.4651 3.97746
28.0647 64.1347 2
27.4642 66.1755 3.98073
29.8847 64.7075 0.0193218
29.4072 66.7513 2
28.9075 68.9391 3.98476
31.3773 67.187 0.0196413
31.0147 69.414 2
30.616 71.7773 3.9911
33.1572 69.7483 0.0145948
32.8926 72.1465 2
32.6054 74.6784 4
35.1954 72.3716 0.00800814
35.0474 74.9197 2
37.5 75 0
33.7251 6.9831 3.98416
35.4363 4.68693 3.98945
35.622 6.726 2
37.5154 2.38743 3.99324
37.5241 4.61589 2
39.6244 4.71742 0.0105164
39.7894 2.47423 2
39.9526 0.0806499 4
42.0632 2.7183 0.00675712
42.3947 0.320817 2
44.8158 0.721173 0
43.7701 35.6215 3.71359
42.0382 34.1849 3.54311
46.7313 40.3286 0.0977671
49.7504 38.5124 0.0145887
53.2269 36.6253 0.0219142
47.3985 37.7347 2
50.5593 35.5642 2
45.2869 35.1412 2
43.087 33.8882 2
41.7131 33.07 2
47.5898 34.3172 3.94926
44.3674 33.0994 3.84071
42.0325 32.4829 3.73962
40.6669 32.8015 3.52713
37.3116 10.6346 3.98121
37.4594 8.5359 2
37.5174 6.67624 0.0143752
39.2116 8.69642 0.0170522
38.9785 10.1304 2
34.756 10.3871 3.98104
35.9006 9.77409 2
32.3803 9.37481 3.97879
34.152 8.82428 2
35.9437 8.49576 0.0157522
51.7285 32.902 0.0176634
50.741 29.3508 0.0228329
50.4201 25.9004 0.0289672
49.8103 22.4114 0.0145724
47.4665 19.4209 0.0216309
45.7787 15.4467 0.0132951
43.8527 11.9105 0.0202589
40.5672 11.6159 0.0182513
49.3172 31.5263 2
38.3015 12.7423 2
42.095 14.3158 2
48.8231 27.6699 2
49.1353 24.5577 2
47.0999 22.1704 2
44.7762 18.6143 2
47.1799 29.6607 3.98647
46.8219 25.2965 3.97284
44.2359 21.5487 3.979
36.5849 12.9513 3.97467
38.6821 14.842 3.9751
41.739 17.9093 3.97759
42.5103 37.4723 3.59492
44.2168 37.4851 2
45.6512 37.479 0.139803
46.7894 57.3209 0.0233818
47.0434 54.195 0.0363458
47.5723 47.1804 0.0187734
47.3271 50.6809 0.0212139
43.76 39.3518 0.288185
44.3365 41.8584 0.146812
44.4032 44.3801 0.0944343
44.3933 47.263 0.0246354
41.9993 42.49 0.256717
42.0235 40.7804 0.448463
40.6461 42.1789 0.471292
45.3249 55.9051 2
42.3617 39.2358 2
40.5509 40.6438 2
45.7545 48.8454 2
45.349 52.4699 2
43.1443 48.2725 2
43.0934 45.9394 2
43.198 43.657 2
40.7885 43.5969 2
39.1962 42.4534 2
43.6552 54.3773 3.99832
40.6376 39.0872 3.68235
39.0851 40.7307 3.64114
43.4522 50.3314 4.00472
41.7533 47.425 3.93213
41.6643 45.0005 3.85258
39.3379 44.1974 3.69647
37.5029 42.5435 3.59108
43.8517 57.6808 0.0199566
42.0792 56.2665 2
40.3878 54.8448 3.99152
35.5729 65.4177 0.0228462
37.8378 63.1927 0.0252965
40.6217 61.6184 0.0206031
40.4364 58.1452 0.0207107
35.6077 63.1869 2
38.25 60.3048 2
38.9124 56.427 2
37.9873 55.1279 3.99398
36.9337 57.6015 3.99111
35.3652 60.8918 3.97838
33.6297 63.3201 0.0249756
30.3795 62.8425 0.0200682
32.1268 61.9847 0.0147264
33.3483 61.4932 2
28.6862 62.1817 2
31.0749 61.2083 2
29.4155 60.2622 3.97606
32.3651 59.7148 3.98878
28.0509 58.348 4.0023
27.5865 59.5655 2
25.4032 58.5696 3.97926
22.7936 58.2067 3.96841
23.413 60.3198 3.97901
23.8167 59.0535 2
25.0449 60.8469 2
24.4379 62.7547 3.97701
26.8768 61.4737 0.0227861
26.2336 63.466 2
25.5491 65.4834 3.97911
28.0648 64.1359 0.0217572
27.4643 66.1755 2
26.8372 68.3278 3.98484
29.4072 66.751 0.0187135
28.9072 68.9391 2
28.3712 71.2626 3.99058
31.015 69.4134 0.0148653
30.6152 71.7774 2
30.1842 74.2788 4
32.8932 72.146 0.00833396
32.6053 74.6792 2
35.0474 74.9194 0
31.7897 7.423 3.98264
33.3488 4.92662 3.9886
33.7246 6.98101 2
35.2457 2.46338 3.99321
35.436 4.68627 2
35.622 6.72722 0.0146973
37.5 0 4
37.5148 2.38695 2
37.5242 4.61683 0.0103884
39.7897 2.47497 0.00682397
39.9526 0.0802889 2
42.3946 0.32156 0
42.3561 35.7131 3.55489
43.8364 35.5915 2
40.5565 34.3146 3.66666
42.0348 34.1691 2
47.4019 37.77 0.0826025
50.5519 35.5713 0.0252243
45.2207 35.1648 0.136225
43.0484 33.9261 0.293375
41.6864 33.0935 0.481373
47.6059 34.3402 2
44.4023 33.0776 2
42.0857 32.436 2
40.6923 32.7924 2
45.6666 31.7146 3.91313
43.1835 31.3456 3.83508
40.7805 31.4382 3.72064
39.2149 32.5534 3.55359
35.6951 11.7838 3.97845
37.314 10.6321 2
37.4591 8.5374 0.0153817
38.9767 10.1318 0.0164551
33.1014 11.2266 3.97466
34.755 10.3817 2
35.8999 9.77796 0.0197853
30.4853 10.0245 3.97881
32.379 9.37345 2
34.1533 8.82739 0.0177919
49.2992 31.53 0.0123951
48.8133 27.6687 0.0216742
49.1342 24.5605 0.0236353
47.1096 22.1805 0.0128947
44.7748 18.5666 0.0248705
42.0922 14.3083 0.0201004
38.3011 12.7446 0.022854
36.5819 12.9356 2
47.1967 29.6144 2
38.6798 14.824 2
41.7314 17.9049 2
46.826 25.2928 2
44.2259 21.5274 2
45.1156 27.7969 4.00459
43.6338 24.2291 4.02467
41.3044 20.9152 3.98289
35.7736 14.7909 3.9769
38.6769 17.6428 3.97999
40.6925 37.4629 3.6961
42.5178 37.4761 2
44.1672 37.4862 0.279422
45.3292 55.9035 0.00681855
45.3524 52.4676 0.0191407
45.75 48.8302 -0.000890804
42.364 39.2314 0.438603
43.1516 43.6259 0.160479
43.0402 45.8986 0.103849
43.1275 48.2535 0.00593699
40.7546 43.5404 0.279533
40.5319 40.66 0.333042
39.1987 42.4422 0.443287
43.6513 54.3746 2
40.6362 39.0854 2
39.0871 40.7205 2
43.4473 50.3508 2
41.7482 47.4566 2
41.6891 45.0414 2
37.4998 42.5583 2
39.3524 44.2531 2
41.8119 52.8706 3.99689
39.0972 39.112 3.65702
37.5058 40.7837 3.66488
35.81 42.4506 3.55728
40.838 49.4933 3.99496
39.7535 45.7772 3.82878
37.5019 44.4468 3.72049
42.079 56.2674 0.0151728
40.3837 54.8544 2
38.7223 53.6839 3.99571
35.6076 63.1869 0.0251635
38.2498 60.3041 0.0201431
38.9108 56.4356 0.00561936
35.3656 60.8909 2
36.9349 57.6014 2
37.9873 55.1289 2
36.3215 55.1916 3.99463
34.494 58.4978 3.99123
33.3475 61.492 0.0229067
28.6861 62.1802 0.0204038
31.074 61.2063 0.0195639
32.3662 59.7182 2
29.4167 60.2616 2
30.3249 57.7865 3.98479
28.0534 58.3477 2
27.0028 56.8019 3.96832
27.5845 59.5653 0.0202541
25.4058 58.57 2
23.9047 56.767 3.96061
21.3896 57.3559 3.96097
22.0116 59.5874 3.97379
22.7954 58.2081 2
22.7432 62.0061 3.97473
23.4137 60.3195 2
23.815 59.0532 0.0128573
25.0443 60.8474 0.0227485
24.4384 62.7564 2
23.6841 64.6997 3.97754
26.2332 63.4651 0.0225432
25.5491 65.4849 2
24.8097 67.5885 3.98387
27.4642 66.1755 0.0192742
26.8369 68.3285 2
26.1664 70.6036 3.99062
28.9075 68.9391 0.0152362
28.3703 71.2625 2
27.7943 73.7221 4
30.616 71.7773 0.00889931
30.1841 74.2794 2
32.6054 74.6784 0
29.8124 7.99779 3.9813
31.2543 5.33351 3.9876
31.789 7.42141 2
32.9817 2.70163 3.99285
33.3483 4.92531 2
33.7251 6.9831 0.0158436
35.0474 0.080333 4
35.2451 2.46313 2
35.4363 4.68693 0.0105459
37.5 0 2
37.5154 2.38743 0.00676334
39.9526 0.0806499 0
40.6636 35.8572 3.68186
42.3558 35.7151 2
43.7701 35.6215 0.286411
28.5455 10.6996 3.97811
39.0911 34.2644 3.64022
40.5613 34.3276 2
42.0382 34.1849 0.456891
47.5898 34.3172 0.0507358
44.3674 33.0994 0.159292
42.0325 32.4829 0.260376
40.6669 32.8015 0.472869
45.6992 31.695 2
43.2254 31.3131 2
40.8181 31.3807 2
39.2184 32.5447 2
43.9947 29.9132 3.9088
41.6718 29.9689 3.85438
39.3586 30.7908 3.69512
37.5255 32.4633 3.59045
34.0972 12.9506 3.97406
35.6939 11.7741 2
37.3116 10.6346 0.0187912
31.1899 11.9953 3.97789
33.1009 11.2251 2
34.756 10.3871 0.0189582
30.4836 10.022 2
32.3803 9.37481 0.0212052
47.1799 29.6607 0.0135302
46.8219 25.2965 0.0271575
36.5849 12.9513 0.0253295
44.2359 21.5487 0.0210035
41.739 17.9093 0.0224104
38.6821 14.842 0.0249036
35.7755 14.7967 2
45.1187 27.7943 2
38.6728 17.6499 2
41.2934 20.9099 2
43.6301 24.2139 2
33.6123 15.8999 3.97961
42.7877 26.6414 3.99109
40.8106 23.5025 3.99755
38.4054 20.4121 3.99268
35.8479 17.5459 3.97906
39.1111 37.4867 3.67502
40.6852 37.4649 2
42.5103 37.4723 0.405084
43.6552 54.3773 0.00167611
43.4522 50.3314 -0.00472146
40.6376 39.0872 0.317646
41.6643 45.0005 0.147419
41.7533 47.425 0.0678744
39.3379 44.1974 0.303525
39.0851 40.7307 0.358858
37.5029 42.5435 0.408921
41.8011 52.8742 2
39.0907 39.0983 2
37.5041 40.7689 2
40.8311 49.5142 2
35.8073 42.4594 2
39.7739 45.8315 2
37.4922 44.4961 2
39.749 51.6927 4.00216
37.5078 39.1182 3.68948
35.9319 40.7441 3.64155
34.3597 42.1953 3.52956
35.6702 44.2122 3.68844
38.6659 48.423 3.94603
37.521 46.0658 3.85475
40.3878 54.8448 0.00847564
38.7216 53.6695 2
36.7487 52.9877 3.99696
35.3652 60.8918 0.0216155
36.9337 57.6015 0.00889267
37.9873 55.1279 0.00601588
34.4947 58.4965 2
36.3227 55.1895 2
33.2519 55.3817 3.99208
32.3651 59.7148 0.0112204
29.4155 60.2622 0.023941
30.3275 57.7845 2
28.7807 55.2847 3.98285
28.0509 58.348 -0.00230142
27.0052 56.8018 2
25.4153 55.0992 3.96213
21.9134 55.2965 3.96047
25.4032 58.5696 0.0207418
23.9064 56.7693 2
20.2652 56.9867 3.96374
20.67 58.7401 3.97058
21.3913 57.3574 2
21.1766 61.1424 3.97425
22.0126 59.588 2
22.7936 58.2067 0.0315897
21.8987 63.8263 3.97719
22.744 62.0073 2
23.413 60.3198 0.0209888
24.4379 62.7547 0.0229857
23.6841 64.7006 2
22.8383 66.7311 3.98195
25.5491 65.4834 0.0208942
24.8094 67.5895 2
24.0106 69.8048 3.99046
26.8372 68.3278 0.0151554
26.1653 70.6037 2
25.446 73.0099 4
28.3712 71.2626 0.00941558
27.7943 73.7222 2
30.1842 74.2788 0
27.8221 8.65737 3.98131
29.1565 5.8798 3.98611
29.8113 7.99555 2
30.7271 3.09854 3.99258
31.2536 5.33214 2
31.7897 7.423 0.0173594
32.6053 0.320823 4
32.9809 2.70111 2
33.3488 4.92662 0.0114041
35.0474 0.0802903 2
35.2457 2.46338 0.0067905
37.5 0 0
39.0929 35.8734 3.66212
40.6478 35.8588 2
42.3561 35.7131 0.445109
28.5441 10.698 2
26.6239 11.3959 3.97831
29.2296 12.6495 3.98046
37.516 34.2254 3.6633
39.1003 34.2807 2
40.5565 34.3146 0.333344
45.6666 31.7146 0.0868704
43.1835 31.3456 0.164919
40.7805 31.4382 0.279359
39.2149 32.5534 0.446412
44.023 29.8864 2
41.6996 29.9309 2
39.3651 30.7342 2
37.5259 32.448 2
42.1025 28.6045 3.88119
39.7464 29.2007 3.84931
37.5215 30.5607 3.7186
35.8277 32.5584 3.55753
31.9219 14.4942 3.97944
34.0973 12.952 2
35.6951 11.7838 0.0215544
31.1889 11.9916 2
33.1014 11.2266 0.0253366
30.4853 10.0245 0.0211859
45.1156 27.7969 -0.00458789
43.6338 24.2291 -0.0246681
35.7736 14.7909 0.0230975
41.3044 20.9152 0.0171058
38.6769 17.6428 0.0200149
33.6096 15.8941 2
35.8442 17.5469 2
42.7976 26.6339 2
38.3908 20.4478 2
40.7978 23.4786 2
33.5525 17.4208 3.9807
40.2322 25.8808 3.95737
38.0462 23.2207 3.99978
35.5811 20.1357 3.99205
37.5107 37.4936 3.70612
39.1034 37.4822 2
40.6925 37.4629 0.3039
41.8119 52.8706 0.00311081
40.838 49.4933 0.00503662
39.0972 39.112 0.342982
39.7535 45.7772 0.17122
37.5019 44.4468 0.279506
37.5058 40.7837 0.335121
35.81 42.4506 0.442722
39.7405 51.7007 2
37.5091 39.1113 2
35.9295 40.7325 2
38.677 48.4754 2
34.335 42.2043 2
35.6485 44.2691 2
37.5163 46.1159 2
37.6745 50.7213 3.99767
35.9279 39.127 3.66124
34.4841 40.6843 3.66897
33.3378 41.8963 3.52242
34.2477 43.5501 3.71763
35.2179 45.7881 3.84522
36.9249 48.0309 3.91246
38.7223 53.6839 0.00429221
36.7565 52.9859 2
34.4301 52.3166 3.99944
34.494 58.4978 0.00876997
36.3215 55.1916 0.00537359
33.2552 55.3862 2
30.618 53.2834 3.99808
30.3249 57.7865 0.0152139
28.7825 55.2842 2
27.0346 53.3882 3.96239
27.0028 56.8019 0.0316803
25.417 55.1023 2
23.7478 53.4171 3.95763
20.681 53.1464 3.95952
20.0128 55.7823 3.96246
21.9107 55.2988 2
23.9047 56.767 0.0393902
19.4677 57.8515 3.96754
20.2643 56.9882 2
19.7189 60.1633 3.97145
20.6695 58.7413 2
21.3896 57.3559 0.039025
20.2123 62.8473 3.97391
21.1774 61.1442 2
22.0116 59.5874 0.0262063
20.9399 65.759 3.98015
21.8986 63.8276 2
22.7432 62.0061 0.0252663
23.6841 64.6997 0.022457
22.838 66.7316 2
21.9132 68.8719 3.98982
24.8097 67.5885 0.0161319
24.0092 69.8046 2
23.1494 72.1454 4
26.1664 70.6036 0.00938035
25.446 73.0099 2
27.7943 73.7221 0
25.8612 9.38641 3.98035
27.0712 6.54394 3.98498
27.8207 8.65606 2
28.4895 3.64442 3.99183
29.1556 5.87837 2
29.8124 7.99779 0.0187027
30.1841 0.720592 4
30.7259 3.0981 2
31.2543 5.33351 0.0124002
32.6053 0.320817 2
32.9817 2.70163 0.00715276
35.0474 0.080333 0
37.5102 35.8748 3.68711
39.0789 35.8764 2
40.6636 35.8572 0.318142
24.7799 12.0838 3.97702
23.759 14.3777 3.97528
28.5455 10.6996 0.0218888
26.6225 11.3945 2
29.2285 12.6482 2
27.2967 13.3828 3.97887
29.7888 14.2103 3.98081
35.9354 34.2678 3.6406
37.5222 34.2411 2
39.0911 34.2644 0.359783
37.5255 32.4633 0.409552
43.9947 29.9132 0.0912019
41.6718 29.9689 0.145618
39.3586 30.7908 0.304876
42.1311 28.5562 2
39.7628 29.15 2
37.524 30.5078 2
35.8272 32.5475 2
39.914 27.837 3.88656
37.4944 28.9337 3.85219
35.6888 30.8091 3.69947
34.3786 32.8138 3.53
30.9362 16.8537 3.98393
31.9203 14.4878 2
34.0972 12.9506 0.0259431
31.1899 11.9953 0.0221116
42.7877 26.6414 0.00891326
40.8106 23.5025 0.00244797
33.6123 15.8999 0.0203894
35.8479 17.5459 0.0209383
38.4054 20.4121 0.0073159
33.5481 17.4307 2
35.5848 20.1342 2
40.2945 25.8776 2
38.0277 23.1833 2
32.8765 19.8231 3.99347
37.6654 25.5304 3.97026
35.2115 22.8869 3.99959
35.9102 37.4952 3.67698
37.507 37.4939 2
39.1111 37.4867 0.324975
39.749 51.6927 -0.00216243
38.6659 48.423 0.0539749
37.5078 39.1182 0.310515
37.521 46.0658 0.145253
35.6702 44.2122 0.311562
35.9319 40.7441 0.35845
34.3597 42.1953 0.470443
37.6635 50.7501 2
35.9401 39.1139 2
34.4649 40.6711 2
36.9044 48.0857 2
33.3068 41.9197 2
34.218 43.6045 2
35.1976 45.8357 2
35.5426 49.9023 3.98557
34.3781 39.1249 3.68217
32.9844 40.8047 3.54756
32.9991 42.5052 3.74481
33.364 45.0073 3.84719
34.4155 47.1646 3.88484
36.7487 52.9877 0.00304002
34.4263 52.3237 2
32.1645 51.0949 4.01825
33.2519 55.3817 0.00792353
30.6202 53.2873 2
28.6188 51.512 3.99046
28.7807 55.2847 0.0171494
27.036 53.3908 2
25.3089 51.6638 3.95472
25.4153 55.0992 0.0378743
23.7465 53.4216 2
22.2345 51.7145 3.95198
19.5052 51.5432 3.96112
19.0802 54.2433 3.96204
20.6799 53.1458 2
18.4994 56.6803 3.96366
20.0104 55.784 2
21.9134 55.2965 0.0395277
18.3858 59.0742 3.96924
19.4672 57.8526 2
20.2652 56.9867 0.0362595
18.6266 61.737 3.97182
19.7195 60.1653 2
20.67 58.7401 0.0294213
19.1289 64.6681 3.97907
20.2124 62.8481 2
21.1766 61.1424 0.0257471
19.8874 67.8084 3.98914
20.9393 65.7596 2
21.8987 63.8263 0.0228142
22.8383 66.7311 0.018052
21.9116 68.8712 2
20.9142 71.1327 4
24.0106 69.8048 0.00953809
23.1494 72.1455 2
25.446 73.0099 0
23.1009 12.8004 3.97694
23.974 10.1757 3.97833
25.0248 7.31476 3.98377
25.8597 9.38532 2
26.2813 4.32852 3.99116
27.07 6.5431 2
27.8221 8.65737 0.0186889
27.7943 1.27781 4
28.4879 3.64426 2
29.1565 5.8798 0.0138902
30.1841 0.720551 2
30.7271 3.09854 0.00741944
32.6053 0.320823 0
35.9178 35.8692 3.65474
37.5184 35.8851 2
39.0929 35.8734 0.337881
24.7774 12.0803 2
23.7592 14.3808 2
22.4905 15.0583 3.98051
25.364 13.9235 3.97344
24.0425 15.6397 3.98356
26.6239 11.3959 0.0216933
29.2296 12.6495 0.0195448
27.2968 13.3812 2
29.7856 14.2083 2
28.3705 15.982 3.98205
34.4948 34.3311 3.6664
35.9319 34.2772 2
37.516 34.2254 0.336702
35.8277 32.5584 0.44247
37.5215 30.5607 0.281404
42.1025 28.6045 0.118808
39.7464 29.2007 0.150689
39.938 27.799 2
37.4925 28.8795 2
35.6719 30.7461 2
34.3507 32.808 2
37.5954 27.5707 3.89287
35.2486 29.2207 3.84895
34.2598 31.4577 3.71741
33.3552 33.11 3.52087
30.223 19.4002 3.98259
30.9322 16.8446 2
31.9219 14.4942 0.0205573
40.2322 25.8808 0.0426328
38.0462 23.2207 0.000223033
33.5525 17.4208 0.0193031
35.5811 20.1357 0.00795282
32.8721 19.8352 2
35.2073 22.8751 2
37.7269 25.5063 2
32.37 22.5487 3.99575
35.0712 25.4493 3.99684
34.328 37.5092 3.69777
35.914 37.4992 2
37.5107 37.4936 0.29388
37.6745 50.7213 0.00233304
36.9249 48.0309 0.0875402
35.9279 39.127 0.338765
35.2179 45.7881 0.154782
34.2477 43.5501 0.282367
34.4841 40.6843 0.331027
33.3378 41.8963 0.477575
35.5311 49.9121 2
34.3836 39.1209 2
32.9832 40.8175 2
34.412 47.2095 2
32.9575 42.5494 2
33.3397 45.0471 2
33.3699 48.9593 3.97727
32.6568 39.2688 3.55753
31.9721 41.0602 3.70891
31.8414 43.6416 3.8393
32.5517 46.1363 3.88752
34.4301 52.3166 0.000555733
32.1673 51.1063 2
30.132 49.6748 4.00246
30.618 53.2834 0.00191701
28.6185 51.5074 2
26.801 49.8845 3.96878
27.0346 53.3882 0.0376102
25.3067 51.6631 2
23.6688 50.077 3.96195
23.7478 53.4171 0.0423743
22.2332 51.7131 2
20.8182 50.2078 3.96493
18.3075 50.2399 3.96882
18.0797 52.7139 3.96363
19.5033 51.5424 2
17.5559 55.2853 3.9626
19.0753 54.2437 2
20.681 53.1464 0.0404803
17.1607 57.8394 3.96323
18.4981 56.6809 2
20.0128 55.7823 0.0375378
17.1456 60.5147 3.9675
18.3858 59.0751 2
19.4677 57.8515 0.0324576
17.4104 63.4586 3.97315
18.627 61.7376 2
19.7189 60.1633 0.0285472
17.9437 66.6167 3.98743
19.1284 64.6682 2
20.2123 62.8473 0.0260912
18.75 69.9759 4
19.8855 67.8073 2
20.9399 65.759 0.0198534
21.9132 68.8719 0.010182
20.9142 71.1327 2
23.1494 72.1454 0
21.5944 13.6272 3.97677
22.1924 11.038 3.97555
23.0995 12.8036 2
23.0425 8.18145 3.98209
23.9719 10.1739 2
24.1189 5.14332 3.99056
25.0233 7.31408 2
25.8612 9.38641 0.0196466
25.446 1.99014 4
26.2793 4.32883 2
27.0712 6.54394 0.0150222
27.7943 1.27778 2
28.4895 3.64442 0.0081671
30.1841 0.720592 0
34.3875 35.8906 3.68115
35.9269 35.8836 2
37.5102 35.8748 0.312889
21.3232 15.8626 3.98344
24.7799 12.0838 0.0229847
23.759 14.3777 0.0247248
25.3632 13.9166 2
22.4912 15.0581 2
24.044 15.6442 2
23.2881 16.2686 3.97345
25.3986 16.1101 3.98259
27.2967 13.3828 0.0211262
29.7888 14.2103 0.0191918
28.3663 15.9873 2
27.4607 18.8368 3.9806
32.9928 34.2087 3.55221
34.4761 34.3466 2
35.9354 34.2678 0.359403
34.3786 32.8138 0.470002
35.6888 30.8091 0.300534
37.4944 28.9337 0.147814
39.914 27.837 0.113442
37.5724 27.5343 2
33.3288 33.0894 2
35.2478 29.1611 2
34.2211 31.3986 2
35.1446 27.6664 3.89759
33.3612 29.9952 3.84851
33.022 32.4973 3.73312
29.6748 22.0016 3.99961
30.2225 19.4048 2
30.9362 16.8537 0.0160652
37.6654 25.5304 0.0297373
35.2115 22.8869 0.000409945
32.8765 19.8231 0.00653371
32.3735 22.5413 2
35.1013 25.441 2
31.9172 25.8004 4.00482
32.4978 37.5086 3.59573
34.3429 37.5056 2
35.9102 37.4952 0.323017
35.5426 49.9023 0.0144291
34.4155 47.1646 0.11516
34.3781 39.1249 0.317834
33.364 45.0073 0.152813
32.9991 42.5052 0.255188
32.9844 40.8047 0.452441
33.3598 48.9582 2
32.6678 39.272 2
31.9349 41.0947 2
32.5119 46.1806 2
31.8006 43.6724 2
31.4715 47.8052 3.97994
31.2493 39.3715 3.71381
30.6571 41.8931 3.84502
30.8869 44.7658 3.90404
32.1645 51.0949 -0.0182504
30.1344 49.6971 2
28.2573 48.0609 3.9602
28.6188 51.512 0.00954022
26.7997 49.8851 2
25.0538 48.3364 3.96763
25.3089 51.6638 0.0452799
23.6676 50.0755 2
22.0883 48.6624 3.97125
22.2345 51.7145 0.0480201
20.8158 50.2065 2
19.4056 48.9894 3.973
17.1905 49.2504 3.97424
17.0321 51.3311 3.96784
18.3097 50.2384 2
16.5537 53.8103 3.96487
18.0783 52.7135 2
19.5052 51.5432 0.0388777
16.0349 56.4376 3.96273
17.5518 55.2859 2
19.0802 54.2433 0.0379554
15.7609 59.1839 3.96772
17.1611 57.8401 2
18.4994 56.6803 0.0363379
15.7926 62.1139 3.97044
17.1459 60.5164 2
18.3858 59.0742 0.0307633
16.0905 65.2986 3.98594
17.4094 63.4603 2
18.6266 61.737 0.0281789
16.6661 68.6801 4
17.9416 66.6152 2
19.1289 64.6681 0.0209264
18.75 69.9759 2
19.8874 67.8084 0.0108593
20.9142 71.1327 0
20.2294 14.6286 3.97266
21.5937 13.63 2
20.5333 12.0128 3.97553
21.1453 9.1528 3.98037
22.1908 11.0378 2
23.1009 12.8004 0.0230564
22.0181 6.08228 3.99013
23.0405 8.18036 2
23.974 10.1757 0.0216667
23.1494 2.85457 4
24.1166 5.14395 2
25.0248 7.31476 0.0162341
25.446 1.99012 2
26.2813 4.32852 0.00884066
27.7943 1.27781 0
32.6484 35.7518 3.56039
34.3894 35.8922 2
35.9178 35.8692 0.34526
21.3248 15.8593 2
20.3312 16.9937 3.97566
22.1203 16.6628 3.96866
25.364 13.9235 0.0265611
22.4905 15.0583 0.0194916
24.0425 15.6397 0.0164427
25.3993 16.1037 2
23.29 16.269 2
24.2318 18.5219 3.96958
27.1101 21.5756 3.99366
28.3705 15.982 0.0179473
27.4584 18.8612 2
32.0014 33.959 3.70528
32.9964 34.1915 2
34.4948 34.3311 0.333597
33.3552 33.11 0.479129
34.2598 31.4577 0.282589
35.2486 29.2207 0.151055
37.5954 27.5707 0.10713
35.1522 27.6221 2
32.9494 32.4541 2
33.3376 29.9582 2
32.7972 28.3379 3.90862
31.8487 31.3704 3.83333
29.0373 24.4961 3.99309
29.6714 22.0125 2
30.223 19.4002 0.0174076
35.0712 25.4493 0.00316053
32.37 22.5487 0.00425071
31.9111 25.7758 2
29.9909 27.4483 3.97754
30.8421 37.506 3.71872
32.5058 37.507 2
34.328 37.5092 0.302231
33.3699 48.9593 0.0227333
32.5517 46.1363 0.112478
32.6568 39.2688 0.44247
31.8414 43.6416 0.160697
31.9721 41.0602 0.291094
31.441 47.8227 2
31.1838 39.3959 2
30.6234 41.9128 2
30.8455 44.8034 2
29.6616 46.4165 3.99589
29.7942 39.8355 3.86655
29.3465 43.0098 3.90684
30.132 49.6748 -0.00245663
28.251 48.0542 2
26.4452 46.5098 3.98209
26.801 49.8845 0.0312188
25.053 48.3351 2
23.319 46.9299 3.97469
23.6688 50.077 0.0380503
22.0858 48.6608 2
20.3959 47.5032 3.97665
20.8182 50.2078 0.0350736
19.4067 48.9879 2
18.0099 48.0878 3.97689
16.4255 48.6087 3.9764
17.1922 49.2491 2
16.1069 50.0994 3.97202
15.5685 52.3554 3.96754
17.0335 51.3301 2
18.3075 50.2399 0.0311784
14.9742 54.9335 3.96367
16.5552 53.8096 2
18.0797 52.7139 0.0363711
14.4767 57.7173 3.96315
16.0347 56.4378 2
17.5559 55.2853 0.0374014
14.2717 60.6741 3.96907
15.7622 59.1846 2
17.1607 57.8394 0.0367679
14.3355 63.8564 3.98189
15.7923 62.116 2
17.1456 60.5147 0.0324966
14.6715 67.2507 4
16.0878 65.2962 2
17.4104 63.4586 0.0268474
16.6661 68.6801 2
17.9437 66.6167 0.01257
18.75 69.9759 0
18.9479 15.815 3.97335
20.2298 14.6268 2
18.9858 13.1323 3.97506
21.5944 13.6272 0.0232318
20.5324 12.0146 2
19.3453 10.2437 3.97802
19.9928 7.14713 3.989
21.1432 9.15315 2
22.1924 11.038 0.0244511
20.9142 3.86727 4
22.0151 6.08325 2
23.0425 8.18145 0.0179126
23.1494 2.85451 2
24.1189 5.14332 0.00944243
25.446 1.99014 0
31.2695 35.6404 3.71029
32.6566 35.7458 2
34.3875 35.8906 0.31885
21.3232 15.8626 0.0165562
22.1217 16.6613 2
20.3325 16.989 2
19.2997 18.4483 3.9592
21.8102 17.9022 3.98247
25.3986 16.1101 0.0174122
23.2881 16.2686 0.0265482
24.2272 18.5357 2
22.369 19.9639 3.96259
24.6925 21.4623 3.98646
26.6484 23.7931 3.97793
27.1143 21.5323 2
27.4607 18.8368 0.0194
30.7073 33.1301 3.85635
31.9683 33.9115 2
32.9928 34.2087 0.447789
33.022 32.4973 0.266882
33.3612 29.9952 0.151492
35.1446 27.6664 0.102415
32.7633 28.3099 2
31.7943 31.3339 2
30.5792 29.7319 3.93452
28.2483 26.6464 3.99435
29.0257 24.5046 2
29.6748 22.0016 0.000385496
31.9172 25.8004 -0.00482383
29.9814 27.4255 2
29.3503 37.5072 3.8609
30.792 37.506 2
32.4978 37.5086 0.404267
31.4715 47.8052 0.0200575
30.8869 44.7658 0.0959637
31.2493 39.3715 0.286192
30.6571 41.8931 0.154984
29.6628 46.4141 2
29.7288 39.8521 2
29.3167 43.0516 2
27.9031 44.7393 3.9737
27.5569 40.572 3.93918
28.2573 48.0609 0.0397953
26.4409 46.51 2
24.61 45.0481 3.97791
25.0538 48.3364 0.0323703
23.3171 46.9298 2
21.4035 45.7741 3.97792
22.0883 48.6624 0.0287503
20.3952 47.5017 2
18.724 46.6367 3.97695
19.4056 48.9894 0.0270043
18.0105 48.0866 2
16.6527 47.6335 3.97672
16.4272 48.6076 2
15.4507 48.9496 3.97564
17.1905 49.2504 0.0257551
16.1092 50.0983 2
14.6863 50.9286 3.97048
13.9496 53.3921 3.9657
15.5696 52.3547 2
17.0321 51.3311 0.0321598
13.292 56.1453 3.96322
14.9744 54.9333 2
16.5537 53.8103 0.0351251
12.856 59.1123 3.96818
14.4789 57.7172 2
16.0349 56.4376 0.0372748
12.6817 62.2977 3.97808
14.2723 60.6741 2
15.7609 59.1839 0.0322802
12.7746 65.6939 4
14.3334 63.8529 2
15.7926 62.1139 0.0295606
14.6714 67.2507 2
16.0905 65.2986 0.0140563
16.6661 68.6801 0
17.6954 17.1911 3.96885
18.948 15.8132 2
17.5205 14.3995 3.97243
20.2294 14.6286 0.0273363
18.9852 13.1333 2
17.6413 11.4636 3.97565
20.5333 12.0128 0.0244695
19.3432 10.2445 2
18.053 8.34047 3.98726
18.75 5.0241 4
19.9895 7.14907 2
21.1453 9.1528 0.0196294
20.9142 3.86727 2
22.0181 6.08228 0.00987066
23.1494 2.85457 0
29.8177 35.1915 3.86589
31.2083 35.6184 2
32.6484 35.7518 0.43961
22.1203 16.6628 0.0313357
20.3312 16.9937 0.024337
21.81 17.9008 2
19.2997 18.4448 2
18.1066 20.0001 3.96021
20.957 19.4359 3.96194
24.2318 18.5219 0.0304205
22.365 19.9679 2
24.6958 21.4513 2
22.5126 21.8049 3.98198
24.9187 23.2341 3.97459
25.8447 26.0309 3.97929
26.647 23.7901 2
27.1101 21.5756 0.00634214
29.0941 32.479 3.90987
30.6507 33.0952 2
32.0014 33.959 0.294722
31.8487 31.3704 0.16667
32.7972 28.3379 0.0913809
30.5573 29.7256 2
27.5616 29.2334 4.0123
28.2343 26.656 2
29.0373 24.4961 0.00690795
29.9909 27.4483 0.0224601
27.6792 37.3539 3.91415
29.2828 37.4987 2
30.8421 37.506 0.281276
29.6616 46.4165 0.00411188
29.3465 43.0098 0.0931573
29.7942 39.8355 0.133451
27.8931 44.7805 2
27.5318 40.5588 2
25.9637 43.0569 3.98943
24.8171 39.4487 3.97298
26.4452 46.5098 0.0179072
24.599 45.0493 2
22.5097 43.8137 3.97721
23.319 46.9299 0.0253107
21.4001 45.7745 2
19.4676 44.8735 3.97674
20.3959 47.5032 0.0233475
18.7241 46.6368 2
16.997 46.1287 3.97666
18.0099 48.0878 0.0231126
16.6541 47.6325 2
15.2095 47.6042 3.97626
16.4255 48.6087 0.0236049
15.4528 48.9486 2
13.9932 49.4934 3.97296
16.1069 50.0994 0.0279822
14.6875 50.9279 2
13.0216 51.835 3.96769
12.1955 54.5052 3.96413
13.9496 53.3918 2
15.5685 52.3554 0.0324563
11.5422 57.4489 3.96723
13.2926 56.1452 2
14.9742 54.9335 0.0363306
11.1365 60.624 3.97669
12.8573 59.1116 2
14.4767 57.7173 0.0368546
10.9835 64.0165 4
12.6798 62.294 2
14.2717 60.6741 0.030927
12.7745 65.694 2
14.3355 63.8564 0.0181066
14.6715 67.2507 0
16.4627 18.6911 3.96174
17.6954 17.1898 2
16.1162 15.8108 3.96696
18.9479 15.815 0.0266548
17.5201 14.3974 2
16.0246 12.822 3.9728
18.9858 13.1323 0.0249425
17.6401 11.4665 2
16.204 9.66412 3.98594
19.3453 10.2437 0.0219836
18.0496 8.34349 2
16.6661 6.31991 4
18.75 5.02404 2
19.9928 7.14713 0.0110019
20.9142 3.86727 0
28.2113 34.8328 3.90543
29.7491 35.1643 2
31.2695 35.6404 0.289713
16.8301 21.4361 3.96609
21.8102 17.9022 0.0175312
19.2997 18.4483 0.0408043
20.9554 19.4336 2
18.104 19.9983 2
19.901 21.6486 3.97013
22.369 19.9639 0.037407
24.6925 21.4623 0.0135411
22.509 21.8095 2
24.9147 23.2363 2
23.1687 24.6939 3.97391
25.108 28.6222 3.98107
25.8355 26.0363 2
26.6484 23.7931 0.0220747
26.9458 31.8271 3.97935
29.0634 32.4617 2
30.7073 33.1301 0.143646
30.5792 29.7319 0.0654823
27.5738 29.2128 2
28.2483 26.6464 0.00564691
25.507 36.8559 3.97184
27.6648 37.3643 2
29.3503 37.5072 0.139101
27.9031 44.7393 0.0263019
27.5569 40.572 0.0608224
25.9442 43.0776 2
24.798 39.4543 2
23.7063 41.8075 3.98247
22.5359 38.5202 3.97837
24.61 45.0481 0.0220869
22.5096 43.8132 2
20.3267 42.8179 3.97604
21.4035 45.7741 0.0220802
19.4683 44.8738 2
17.3919 44.3043 3.97607
18.724 46.6367 0.0230486
16.9985 46.1285 2
15.1639 46.024 3.97633
16.6527 47.6335 0.0232819
15.2114 47.6033 2
13.5209 47.9582 3.97477
15.4507 48.9496 0.0243567
13.9947 49.4926 2
12.2502 50.2163 3.96936
14.6863 50.9286 0.0295236
13.0223 51.8344 2
11.1941 52.8171 3.96516
10.3331 55.7049 3.96695
12.1957 54.5049 2
13.9496 53.3921 0.0343032
9.70311 58.8469 3.97609
11.5428 57.4483 2
13.292 56.1453 0.0367798
9.30605 62.2254 4
11.1348 60.6199 2
12.856 59.1123 0.0318214
10.9835 64.0165 2
12.6817 62.2977 0.0219235
12.7746 65.6939 0
15.2463 20.2306 3.96321
16.4646 18.6911 2
14.7654 17.3301 3.96426
17.6954 17.1911 0.0311484
16.1165 15.8093 2
14.4888 14.3146 3.96976
17.5205 14.3995 0.0275662
16.0237 12.8215 2
14.447 11.1162 3.98328
17.6413 11.4636 0.0243465
16.2007 9.66785 2
14.6715 7.74927 4
18.053 8.34047 0.012739
16.6661 6.31988 2
18.75 5.0241 0
26.1721 34.3335 3.9806
28.1914 34.8397 2
29.8177 35.1915 0.134113
18.0639 22.3947 3.97273
15.7219 22.9804 3.96946
16.8304 21.436 2
20.957 19.4359 0.0380583
18.1066 20.0001 0.0397862
19.8983 21.6463 2
19.998 24.4797 3.97151
22.5126 21.8049 0.0180195
24.9187 23.2341 0.0254084
23.164 24.6923 2
22.4697 27.9449 3.97237
24.5069 31.3088 3.97823
25.1131 28.6171 2
25.8447 26.0309 0.0207096
26.9259 31.7924 2
29.0941 32.479 0.0901251
27.5616 29.2334 -0.0123039
23.2603 36.287 3.9829
25.4913 36.8559 2
27.6792 37.3539 0.085851
25.9637 43.0569 0.0105675
24.8171 39.4487 0.0270162
23.6918 41.8089 2
22.527 38.5182 2
21.4023 40.622 3.9751
20.7698 37.8028 3.9771
22.5097 43.8137 0.0227922
20.3256 42.8192 2
17.864 42.0435 3.97593
19.4676 44.8735 0.0232594
17.3925 44.3048 2
15.2078 44.1377 3.97587
16.997 46.1287 0.0233444
15.1651 46.0235 2
13.2173 46.2477 3.97571
15.2095 47.6042 0.0237384
13.5225 47.9575 2
11.6365 48.5154 3.97105
13.9932 49.4934 0.0270394
12.2514 50.2156 2
10.3238 51.0629 3.96604
13.0216 51.835 0.0323102
11.1947 52.8166 2
9.24193 53.8858 3.96676
8.38663 56.9806 3.97673
10.3338 55.704 2
12.1955 54.5052 0.035868
7.74927 60.3285 4
9.70184 58.8427 2
11.5422 57.4489 0.0327722
9.306 62.2255 2
11.1365 60.624 0.0233101
10.9835 64.0165 0
14.0747 21.7953 3.9658
15.2453 20.2301 2
13.479 18.9259 3.96391
16.4627 18.6911 0.0382646
14.7672 17.3296 2
13.0346 15.9039 3.96991
16.1162 15.8108 0.0330387
14.4889 14.3118 2
12.7844 12.6909 3.98063
16.0246 12.822 0.0271999
14.4439 11.1213 2
12.7746 9.30605 4
16.204 9.66412 0.0140628
14.6715 7.74924 2
16.6661 6.31991 0
23.8484 33.8698 3.98261
26.1501 34.3238 2
28.2113 34.8328 0.0945734
17.9265 24.1256 3.97119
18.0709 22.3954 2
14.5644 24.5139 3.97116
15.7241 22.9808 2
16.8301 21.4361 0.0339093
19.4887 27.3123 3.9736
19.901 21.6486 0.0298717
19.9944 24.4797 2
21.8273 30.7811 3.97517
23.1687 24.6939 0.0260872
22.4711 27.9461 2
24.4813 31.3052 2
25.108 28.6222 0.018925
26.9458 31.8271 0.0206467
20.8933 35.96 3.97656
23.2613 36.2881 2
25.507 36.8559 0.0281591
23.7063 41.8075 0.0175276
22.5359 38.5202 0.0216313
21.4078 40.6229 2
20.7701 37.8012 2
18.6161 38.9953 3.97706
20.3267 42.8179 0.0239626
17.8635 42.0438 2
15.1931 41.8774 3.97624
17.3919 44.3043 0.0239271
15.2082 44.1378 2
12.9796 44.3481 3.97612
15.1639 46.024 0.0236728
13.2189 46.247 2
11.1521 46.7024 3.97258
13.5209 47.9582 0.0252262
11.6381 48.5148 2
9.59236 49.2244 3.96676
12.2502 50.2163 0.0306432
10.3243 51.0624 2
8.27464 52.0001 3.96657
11.1941 52.8171 0.034839
9.24253 53.8847 2
7.19563 55.0319 3.97767
6.31991 58.3339 4
8.3857 56.9766 2
10.3331 55.7049 0.0330519
7.74924 60.3285 2
9.70311 58.8469 0.0239076
9.30605 62.2254 0
13.4372 25.4142 3.97474
12.9766 23.3245 3.96855
14.0743 21.795 2
12.2834 20.5736 3.96449
15.2463 20.2306 0.0367907
13.4785 18.9251 2
11.6654 17.5787 3.9691
14.7654 17.3301 0.0357447
13.0367 15.9032 2
11.2228 14.3776 3.97635
14.4888 14.3146 0.0302393
12.7822 12.6958 2
10.9835 10.9835 4
14.447 11.1162 0.0167172
12.7745 9.306 2
14.6715 7.74927 0
21.2557 33.4731 3.97571
23.8508 33.8581 2
26.1721 34.3335 0.0193995
16.2588 26.4829 3.97309
17.9305 24.126 2
18.0639 22.3947 0.0272653
14.5644 24.5143 2
15.7219 22.9804 0.0305357
18.8849 30.2806 3.97515
19.4883 27.3128 2
19.998 24.4797 0.0284926
21.8399 30.7818 2
22.4697 27.9449 0.0276308
24.5069 31.3088 0.0217694
18.2257 35.9904 3.97765
20.8957 35.9605 2
23.2603 36.287 0.0170958
21.4023 40.622 0.0248962
20.7698 37.8028 0.0229021
18.6142 38.9943 2
14.695 39.165 3.97715
17.864 42.0435 0.0240684
15.1929 41.8772 2
12.676 42.2444 3.97632
15.2078 44.1377 0.0241321
12.9809 44.3475 2
10.7389 44.7763 3.97416
13.2173 46.2477 0.0242943
11.1541 46.7017 2
8.97874 47.3052 3.96736
11.6365 48.5154 0.0289529
9.59262 49.2238 2
7.4413 50.034 3.96634
10.3238 51.0629 0.0339639
8.27508 51.9991 2
6.13625 53.0074 3.97807
9.24193 53.8858 0.0332364
7.19507 55.0287 2
5.0241 56.25 4
6.31988 58.3339 2
8.38663 56.9806 0.023268
7.74927 60.3285 0
13.7095 26.8687 3.97518
12.0871 24.8265 3.97084
13.4365 25.4144 2
11.208 22.2576 3.96546
12.9774 23.3247 2
14.0747 21.7953 0.0342047
12.284 20.5733 2
10.3978 19.3287 3.96784
13.479 18.9259 0.0360873
11.6675 17.5786 2
9.76331 16.1605 3.97648
13.0346 15.9039 0.0300859
11.221 14.3827 2
9.30607 12.7746 4
12.7844 12.6909 0.0193729
10.9835 10.9835 2
12.7746 9.30605 0
18.3914 33.1766 3.97654
21.2561 33.4758 2
23.8484 33.8698 0.0173909
15.8826 29.7156 3.97547
16.2596 26.4833 2
17.9265 24.1256 0.0288078
14.5644 24.5139 0.0288428
18.8836 30.2811 2
19.4887 27.3123 0.0264033
21.8273 30.7811 0.0248299
15.3209 36.0346 3.97728
18.2252 35.9907 2
20.8933 35.96 0.0234399
12.9075 37.8297 3.97725
18.6161 38.9953 0.0229425
14.6946 39.1649 2
12.18 40.1247 3.97685
15.1931 41.8774 0.0237589
12.6773 42.2441 2
10.3374 42.7587 3.97525
12.9796 44.3481 0.0238786
10.7407 44.7757 2
8.45641 45.3095 3.96819
11.1521 46.7024 0.027422
8.97861 47.3047 2
6.73213 47.9994 3.96636
9.59236 49.2244 0.0332368
7.44161 50.0331 2
5.21298 50.9109 3.9778
8.27464 52.0001 0.0334286
6.13599 53.0052 2
3.86727 54.0858 4
7.19563 55.0319 0.0223335
5.02404 56.25 2
6.31991 58.3339 0
13.1937 29.0827 3.97504
11.5323 26.5239 3.9714
13.7089 26.869 2
10.2667 23.9872 3.9668
12.0889 24.827 2
13.4372 25.4142 0.0252591
9.25041 21.1435 3.96721
11.2079 22.2575 2
12.9766 23.3245 0.0314455
12.2834 20.5736 0.0355123
10.3996 19.3289 2
8.41918 18.0312 3.9763
11.6654 17.5787 0.0309029
9.76207 16.1656 2
7.74928 14.6715 4
11.2228 14.3776 0.0236497
9.30602 12.7745 2
10.9835 10.9835 0
14.871 32.9133 3.97683
18.39 33.1757 2
21.2557 33.4731 0.0242936
15.8837 29.716 2
16.2588 26.4829 0.0269096
18.8849 30.2806 0.0248473
13.2029 36.2213 3.97694
15.32 36.0343 2
18.2257 35.9904 0.0223547
12.9083 37.8295 2
11.5152 38.308 3.97716
14.695 39.165 0.0228537
12.182 40.1245 2
9.91349 40.7431 3.97596
12.676 42.2444 0.0236772
10.3402 42.758 2
8.00265 43.2613 3.96879
10.7389 44.7763 0.0258432
8.45746 45.309 2
6.13784 45.9046 3.9666
8.97874 47.3052 0.0326426
6.73246 47.9986 2
4.42432 48.7515 3.97736
7.4413 50.034 0.0336595
5.21293 50.9095 2
2.85457 51.8506 4
6.13625 53.0074 0.0219276
3.86727 54.0858 2
5.0241 56.25 0
12.3259 31.2953 3.97622
10.9503 28.4473 3.97187
13.1942 29.0832 2
9.48394 25.815 3.9675
11.5336 26.5243 2
13.7095 26.8687 0.0248155
8.23714 23.0259 3.96694
10.2671 23.9874 2
12.0871 24.8265 0.0291567
7.20139 19.9803 3.97728
9.2518 21.1439 2
11.208 22.2576 0.034537
10.3978 19.3287 0.0321577
8.41857 18.0357 2
6.31992 16.6661 4
9.76331 16.1605 0.0235195
7.74926 14.6714 2
9.30607 12.7746 0
12.3635 34.3206 3.97676
14.8711 32.9141 2
18.3914 33.1766 0.0234558
15.8826 29.7156 0.024535
11.0555 36.6194 3.97686
13.2033 36.2212 2
15.3209 36.0346 0.0227208
12.9075 37.8297 0.0227486
11.5177 38.3075 2
9.49692 38.82 3.97616
12.18 40.1247 0.023146
9.91592 40.7427 2
7.61117 41.2059 3.96896
10.3374 42.7587 0.0247511
8.00234 43.261 2
5.64947 43.7676 3.96682
8.45641 45.3095 0.0318064
6.13809 45.9039 2
3.76973 46.537 3.97724
6.73213 47.9994 0.0336393
4.42452 48.7507 2
1.99014 49.554 4
5.21298 50.9109 0.0222033
2.85451 51.8506 2
3.86727 54.0858 0
11.1451 32.9456 3.97699
10.259 30.4081 3.97275
12.3271 31.2958 2
8.79409 27.7466 3.96783
10.9517 28.4477 2
13.1937 29.0827 0.0249613
7.36229 24.9839 3.96668
9.48395 25.8152 2
11.5323 26.5239 0.0286032
6.11838 22.0029 3.97814
8.23801 23.0264 2
10.2667 23.9872 0.0331996
5.02411 18.75 4
7.20121 19.9836 2
9.25041 21.1435 0.0327944
8.41918 18.0312 0.0237017
6.3199 16.6661 2
7.74928 14.6715 0
10.6482 35.0145 3.97654
12.3645 34.3209 2
14.871 32.9133 0.0231719
9.15976 36.9879 3.97595
11.0582 36.6192 2
13.2029 36.2213 0.023061
11.5152 38.308 0.022844
9.49938 38.8198 2
7.28709 39.1797 3.96933
9.91349 40.7431 0.0240412
7.61179 41.2055 2
5.26428 41.6135 3.96711
8.00265 43.2613 0.0312119
5.6497 43.7671 2
3.24733 44.2817 3.97749
6.13784 45.9046 0.0334046
3.77002 46.5364 2
1.27781 47.2057 4
4.42432 48.7515 0.0226449
1.99012 49.554 2
2.85457 51.8506 0
10.2863 33.8998 3.97623
9.5379 32.1732 3.97371
11.1474 32.9461 2
8.13767 29.7072 3.96827
10.261 30.4086 2
12.3259 31.2953 0.0237798
6.60542 27.0094 3.9667
8.79405 27.7468 2
10.9503 28.4473 0.0281337
5.17372 24.0952 3.97808
7.36279 24.9843 2
9.48394 25.815 0.0324957
3.86728 20.9142 4
6.1184 22.0047 2
8.23714 23.0259 0.0330576
5.02406 18.75 2
7.20139 19.9803 0.0227184
6.31992 16.6661 0
8.97944 35.2875 3.97579
10.6509 35.0145 2
12.3635 34.3206 0.02324
7.06372 37.2063 3.96957
9.16204 36.9879 2
11.0555 36.6194 0.0231441
9.49692 38.82 0.0238417
7.28824 39.1795 2
4.99165 39.4672 3.9675
7.61117 41.2059 0.0310364
5.26489 41.6131 2
2.85763 42.002 3.97778
5.64947 43.7676 0.0331817
3.24749 44.2812 2
0.720592 44.8159 4
3.76973 46.537 0.0227572
1.27778 47.2057 2
1.99014 49.554 0
9.02401 33.7105 3.97523
10.2893 33.9001 2
7.56861 31.6176 3.96883
9.54039 32.1736 2
11.1451 32.9456 0.0230124
5.95004 29.0703 3.96697
8.1376 29.7074 2
10.259 30.4081 0.0272472
4.36123 26.2475 3.97773
6.60574 27.0098 2
8.79409 27.7466 0.0321697
2.85458 23.1494 4
5.17388 24.096 2
7.36229 24.9839 0.033322
3.86728 20.9142 2
6.11838 22.0029 0.0218638
5.02411 18.75 0
7.01177 35.309 3.96965
8.98162 35.2876 2
10.6482 35.0145 0.0234552
4.84176 37.3399 3.96784
7.06514 37.2061 2
9.15976 36.9879 0.0240463
7.28709 39.1797 0.0306712
4.99224 39.467 2
2.60557 39.7136 3.97798
5.26428 41.6135 0.0328943
2.8581 42.0018 2
0.320823 42.3947 4
3.24733 44.2817 0.0225122
0.720551 44.8159 2
1.27781 47.2057 0
7.17723 33.4665 3.96938
9.02626 33.7108 2
10.2863 33.8998 0.0237737
5.42044 31.1341 3.96744
7.56897 31.6178 2
9.5379 32.1732 0.0262901
3.68272 28.4434 3.97758
5.95036 29.0707 2
8.13767 29.7072 0.031726
1.99015 25.446 4
4.36148 26.2478 2
6.60542 27.0094 0.0332969
2.85453 23.1494 2
5.17372 24.0952 0.0219239
3.86728 20.9142 0
4.85604 35.2518 3.96783
7.01235 35.309 2
8.97944 35.2875 0.0242064
2.49701 37.4283 3.97875
4.84186 37.3399 2
7.06372 37.2063 0.0304326
4.99165 39.4672 0.0325
2.60615 39.7139 2
0.080333 39.9526 4
2.85763 42.002 0.0222244
0.320817 42.3947 2
0.720592 44.8159 0
5.04944 33.1906 3.96783
7.1778 33.4666 2
9.02401 33.7105 0.0247728
3.14683 30.6662 3.97785
5.42074 31.1346 2
7.56861 31.6176 0.0311705
1.27793 27.7943 4
3.68308 28.4437 2
5.95004 29.0703 0.0330295
1.99013 25.446 2
4.36123 26.2475 0.022271
2.85458 23.1494 0
2.54909 35.1589 3.97849
4.85677 35.2521 2
7.01177 35.309 0.0303486
0 37.5 4
2.49711 37.4286 2
4.84176 37.3399 0.0321579
2.60557 39.7136 0.0220247
0.0802903 39.9526 2
0.320823 42.3947 0
2.76674 32.9057 3.97864
5.04971 33.191 2
7.17723 33.4665 0.0306185
0.721173 30.1842 4
3.14721 30.6666 2
5.42044 31.1341 0.0325564
1.27779 27.7943 2
3.68272 28.4434 0.0224212
1.99015 25.446 0
0.0806499 35.0474 4
2.54977 35.1593 2
4.85604 35.2518 0.0321731
0 37.5 2
2.49701 37.4283 0.021254
0.080333 39.9526 0
0.32156 32.6054 4
2.76694 32.9063 2
5.04944 33.1906 0.0321693
0.72056 30.1841 2
3.14683 30.6662 0.0221516
1.27793 27.7943 0
0.0802889 35.0474 2
2.54909 35.1589 0.0215088
0 37.5 0
0.320817 32.6053 2
2.76674 32.9057 0.0213634
0.721173 30.1842 0
0.0806499 35.0474 0
0.32156 32.6054 0
CELLS 1910 17190
8 18 6 25 56 2 0 5 16
8 57 23 6 18 17 4 0 2
8 78 36 9 29 31 11 1 7
8 31 11 1 7 79 37 10 30
8 110 57 18 50 48 17 2 14
8 50 18 56 111 14 2 16 49
8 116 62 22 55 52 20 3 15
8 56 25 67 118 16 5 24 53
8 119 63 23 57 54 21 4 17
8 55 22 63 119 15 3 21 54
8 58 26 68 121 18 6 25 56
8 122 65 26 58 57 23 6 18
8 73 31 7 27 142 79 30 71
8 143 78 29 72 73 31 7 27
8 83 147 76 34 32 74 28 8
8 84 148 78 36 33 75 29 9
8 76 34 8 28 148 84 33 75
8 37 79 150 86 10 30 77 35
8 151 87 36 78 80 38 11 31
8 80 38 11 31 152 88 37 79
8 175 100 42 94 96 44 12 40
8 44 96 176 101 12 40 95 43
8 101 176 98 46 43 95 41 13
8 46 98 178 103 13 41 97 45
8 178 103 45 97 147 83 32 74
8 189 116 55 109 106 52 15 47
8 111 56 118 191 49 16 53 107
8 192 119 57 110 108 54 17 48
8 109 55 119 192 47 15 54 108
8 194 122 58 112 110 57 18 50
8 112 58 121 195 50 18 56 111
8 115 61 19 51 197 124 59 113
8 115 61 125 198 51 19 60 114
8 198 125 62 116 114 60 20 52
8 200 127 64 120 116 62 22 55
8 118 67 132 202 53 24 66 117
8 121 68 133 203 56 25 67 118
8 120 64 128 204 55 22 63 119
8 204 128 65 122 119 63 23 57
8 206 134 68 121 123 69 26 58
8 123 69 26 58 207 131 65 122
8 226 147 74 138 140 76 28 70
8 229 148 75 139 143 78 29 72
8 140 76 28 70 229 148 75 139
8 142 79 30 71 231 150 77 141
8 144 80 31 73 232 152 79 142
8 233 151 78 143 144 80 31 73
8 150 86 35 77 235 154 81 145
8 235 154 81 145 146 82 39 91
8 146 82 39 91 236 155 90 165
8 238 157 83 147 149 85 34 76
8 239 158 84 148 151 87 36 78
8 149 85 34 76 239 158 84 148
8 152 88 37 79 241 160 86 150
8 242 161 87 151 153 89 38 80
8 153 89 38 80 243 162 88 152
8 171 98 41 92 265 178 97 169
8 265 178 97 169 226 147 74 138
8 172 96 40 93 266 176 95 170
8 266 176 95 170 171 98 41 92
8 269 175 94 173 172 96 40 93
8 271 180 99 174 175 100 42 94
8 197 124 59 113 271 180 99 174
8 272 181 100 175 177 102 44 96
8 273 182 101 176 179 104 46 98
8 177 102 44 96 273 182 101 176
8 179 104 46 98 275 184 103 178
8 275 184 103 178 238 157 83 147
8 188 115 51 105 283 197 113 186
8 188 115 198 284 105 51 114 187
8 284 198 116 189 187 114 52 106
8 286 200 120 193 189 116 55 109
8 191 118 202 288 107 53 117 190
8 195 121 203 289 111 56 118 191
8 193 120 204 290 109 55 119 192
8 290 204 122 194 192 119 57 110
8 196 123 58 112 292 207 122 194
8 293 206 121 195 196 123 58 112
8 199 126 61 115 297 211 124 197
8 298 212 127 200 198 125 62 116
8 199 126 212 298 115 61 125 198
8 205 129 64 120 300 214 127 200
8 301 217 130 201 202 132 66 117
8 209 136 168 264 301 217 130 201
8 302 219 132 202 203 133 67 118
8 303 220 133 203 206 134 68 121
8 205 129 215 304 120 64 128 204
8 304 215 131 207 204 128 65 122
8 306 221 134 206 208 135 69 123
8 208 135 69 123 307 218 131 207
8 210 137 167 263 309 223 136 209
8 328 238 147 226 230 149 76 140
8 228 146 91 166 329 236 165 260
8 231 150 77 141 330 235 145 227
8 330 235 145 227 228 146 91 166
8 332 239 148 229 233 151 78 143
8 230 149 76 140 332 239 148 229
8 232 152 79 142 334 241 150 231
8 234 153 80 144 335 243 152 232
8 336 242 151 233 234 153 80 144
8 236 155 90 165 338 245 164 259
8 241 160 86 150 339 246 154 235
8 339 246 154 235 237 156 82 146
8 237 156 82 146 340 247 155 236
8 342 249 157 238 240 159 85 149
8 343 250 158 239 242 161 87 151
8 240 159 85 149 343 250 158 239
8 243 162 88 152 345 252 160 241
8 244 163 253 346 153 89 161 242
8 244 163 89 153 347 254 162 243
8 311 224 261 371 210 137 167 263
8 263 167 262 372 209 136 168 264
8 267 179 98 171 375 275 178 265
8 375 275 178 265 328 238 147 226
8 376 273 176 266 267 179 98 171
8 268 177 96 172 376 273 176 266
8 379 272 175 269 268 177 96 172
8 380 271 174 270 269 175 94 173
8 283 197 113 186 380 271 174 270
8 381 277 180 271 272 181 100 175
8 297 211 124 197 381 277 180 271
8 382 278 181 272 274 183 102 177
8 274 183 102 177 383 279 182 273
8 383 279 182 273 276 185 104 179
8 385 281 184 275 342 249 157 238
8 276 185 104 179 385 281 184 275
8 285 199 115 188 393 297 197 283
8 394 298 200 286 284 198 116 189
8 285 199 298 394 188 115 198 284
8 291 205 120 193 396 300 200 286
8 397 301 201 287 288 202 117 190
8 295 209 264 374 397 301 201 287
8 398 302 202 288 289 203 118 191
8 399 303 203 289 293 206 121 195
8 291 205 304 400 193 120 204 290
8 400 304 207 292 290 204 122 194
8 294 208 123 196 402 307 207 292
8 403 306 206 293 294 208 123 196
8 296 210 263 373 405 309 209 295
8 408 312 213 299 297 211 126 199
8 299 213 313 409 199 126 212 298
8 409 313 214 300 298 212 127 200
8 305 216 129 205 411 315 214 300
8 412 318 217 301 302 219 132 202
8 309 223 136 209 412 318 217 301
8 413 320 219 302 303 220 133 203
8 306 221 321 414 206 134 220 303
8 307 218 131 207 415 316 215 304
8 305 216 316 415 205 129 215 304
8 417 322 221 306 308 222 135 208
8 308 222 135 208 418 319 218 307
8 310 225 137 210 420 325 223 309
8 423 326 224 311 310 225 137 210
8 329 236 165 260 441 338 259 368
8 442 342 238 328 333 240 149 230
8 331 237 146 228 443 340 236 329
8 334 241 150 231 444 339 235 330
8 444 339 235 330 331 237 146 228
8 446 343 239 332 336 242 151 233
8 333 240 149 230 446 343 239 332
8 335 243 152 232 448 345 241 334
8 337 244 153 234 449 347 243 335
8 337 244 346 450 234 153 242 336
8 338 245 164 259 452 349 258 367
8 340 247 155 236 453 350 245 338
8 345 252 160 241 454 351 246 339
8 454 351 246 339 341 248 156 237
8 341 248 156 237 455 352 247 340
8 240 159 251 344 342 249 354 457
8 242 161 253 346 343 250 355 458
8 343 250 355 458 240 159 251 344
8 347 254 162 243 460 357 252 345
8 348 255 358 461 244 163 253 346
8 348 255 163 244 462 359 254 347
8 473 360 257 365 363 256 364 482
8 452 349 258 367 365 257 366 485
8 422 324 369 488 311 224 261 371
8 371 261 370 490 263 167 262 372
8 407 311 371 491 296 210 263 373
8 373 263 372 492 295 209 264 374
8 493 385 275 375 442 342 238 328
8 377 276 179 267 493 385 275 375
8 378 274 177 268 494 383 273 376
8 494 383 273 376 377 276 179 267
8 497 382 272 379 378 274 177 268
8 498 381 271 380 379 272 175 269
8 393 297 197 283 498 381 271 380
8 499 387 277 381 382 278 181 272
8 408 312 211 297 499 387 277 381
8 500 388 278 382 384 280 183 274
8 501 389 279 383 386 282 185 276
8 384 280 183 274 501 389 279 383
8 386 282 185 276 503 391 281 385
8 503 391 281 385 457 354 249 342
8 511 408 299 395 393 297 199 285
8 395 299 409 512 285 199 298 394
8 512 409 300 396 394 298 200 286
8 401 305 205 291 514 411 300 396
8 515 412 301 397 398 302 202 288
8 405 309 209 295 515 412 301 397
8 516 413 302 398 399 303 203 289
8 403 306 414 517 293 206 303 399
8 402 307 207 292 518 415 304 400
8 401 305 415 518 291 205 304 400
8 404 308 208 294 520 418 307 402
8 521 417 306 403 404 308 208 294
8 406 310 210 296 523 420 309 405
8 526 423 311 407 406 310 210 296
8 410 314 213 299 527 424 312 408
8 528 425 315 411 409 313 214 300
8 410 314 425 528 299 213 313 409
8 416 317 216 305 530 427 315 411
8 531 430 318 412 413 320 219 302
8 420 325 223 309 531 430 318 412
8 532 432 320 413 414 321 220 303
8 417 322 433 533 306 221 321 414
8 418 319 218 307 534 428 316 415
8 416 317 428 534 305 216 316 415
8 419 323 434 536 308 222 322 417
8 419 323 222 308 537 431 319 418
8 421 327 225 310 539 438 325 420
8 421 327 439 541 310 225 326 423
8 543 437 324 422 423 326 224 311
8 441 338 259 368 559 452 367 486
8 443 340 236 329 560 453 338 441
8 333 240 344 447 442 342 457 561
8 445 341 237 331 562 455 340 443
8 448 345 241 334 563 454 339 444
8 563 454 339 444 445 341 237 331
8 336 242 346 450 446 343 458 565
8 446 343 458 565 333 240 344 447
8 449 347 243 335 567 460 345 448
8 451 348 244 337 568 462 347 449
8 451 348 461 569 337 244 346 450
8 570 463 349 452 473 360 257 365
8 453 350 245 338 570 463 349 452
8 455 352 247 340 571 464 350 453
8 460 357 252 345 572 465 351 454
8 572 465 351 454 456 353 248 341
8 456 353 248 341 573 466 352 455
8 344 251 356 459 457 354 468 575
8 458 355 469 576 344 251 356 459
8 346 253 358 461 458 355 469 576
8 462 359 254 347 578 471 357 460
8 348 255 359 462 461 358 472 579
8 591 474 360 473 475 361 256 363
8 475 361 256 363 594 477 362 479
8 363 256 364 482 479 362 480 603
8 590 473 365 484 481 363 482 605
8 482 364 257 365 606 483 366 485
8 559 452 367 486 484 365 485 607
8 542 436 487 609 422 324 369 488
8 525 422 488 611 407 311 371 491
8 488 369 489 612 371 261 370 490
8 491 371 490 613 373 263 372 492
8 495 386 276 377 614 503 385 493
8 614 503 385 493 561 457 342 442
8 615 501 383 494 495 386 276 377
8 496 384 274 378 615 501 383 494
8 618 500 382 497 496 384 274 378
8 619 499 381 498 497 382 272 379
8 511 408 297 393 619 499 381 498
8 620 505 387 499 500 388 278 382
8 527 424 312 408 620 505 387 499
8 502 390 506 621 384 280 388 500
8 622 507 389 501 504 392 282 386
8 502 390 280 384 622 507 389 501
8 504 392 282 386 624 509 391 503
8 624 509 391 503 575 468 354 457
8 513 410 299 395 630 527 408 511
8 631 528 411 514 512 409 300 396
8 513 410 528 631 395 299 409 512
8 519 416 305 401 633 530 411 514
8 634 531 412 515 516 413 302 398
8 523 420 309 405 634 531 412 515
8 635 532 413 516 517 414 303 399
8 521 417 533 636 403 306 414 517
8 520 418 307 402 637 534 415 518
8 519 416 534 637 401 305 415 518
8 522 419 308 404 639 537 418 520
8 522 419 536 640 404 308 417 521
8 524 421 310 406 642 539 420 523
8 524 421 541 644 406 310 423 526
8 646 543 422 525 526 423 311 407
8 529 426 314 410 647 544 424 527
8 528 425 545 648 411 315 427 530
8 529 426 545 648 410 314 425 528
8 535 429 317 416 649 546 427 530
8 650 548 430 531 532 432 320 413
8 539 438 325 420 650 548 430 531
8 533 433 550 651 414 321 432 532
8 536 434 551 652 417 322 433 533
8 537 431 319 418 653 547 428 534
8 535 429 547 653 416 317 428 534
8 538 435 552 654 419 323 434 536
8 538 435 323 419 655 549 431 537
8 540 440 327 421 657 556 438 539
8 540 440 557 659 421 327 439 541
8 541 439 555 660 423 326 437 543
8 661 554 436 542 543 437 324 422
8 676 570 452 559 590 473 365 484
8 560 453 338 441 676 570 452 559
8 562 455 340 443 677 571 453 560
8 447 344 459 566 561 457 575 678
8 564 456 341 445 679 573 455 562
8 567 460 345 448 680 572 454 563
8 680 572 454 563 564 456 341 445
8 565 458 576 682 447 344 459 566
8 450 346 461 569 565 458 576 682
8 568 462 347 449 684 578 460 567
8 451 348 462 568 569 461 579 685
8 686 580 463 570 591 474 360 473
8 571 464 350 453 686 580 463 570
8 573 466 352 455 687 581 464 571
8 572 465 582 688 460 357 471 578
8 574 467 582 688 456 353 465 572
8 574 467 353 456 689 583 466 573
8 459 356 470 577 575 468 585 691
8 576 469 586 692 459 356 470 577
8 461 358 472 579 576 469 586 692
8 462 359 471 578 579 472 588 694
8 704 591 473 590 593 475 363 481
8 595 476 592 705 475 361 474 591
8 593 475 363 481 707 594 479 602
8 594 477 362 479 709 598 478 600
8 595 476 361 475 711 597 477 594
8 479 362 480 603 600 478 601 720
8 481 363 482 605 602 479 603 722
8 603 480 364 482 723 604 483 606
8 605 482 365 484 724 606 485 607
8 656 553 608 726 542 436 487 609
8 645 542 609 728 525 422 488 611
8 609 487 610 729 488 369 489 612
8 611 488 612 730 491 371 490 613
8 616 504 386 495 731 624 503 614
8 731 624 503 614 678 575 457 561
8 732 622 501 615 616 504 386 495
8 617 502 384 496 732 622 501 615
8 617 502 621 735 496 384 500 618
8 736 620 499 619 618 500 382 497
8 630 527 408 511 736 620 499 619
8 621 506 626 737 500 388 505 620
8 647 544 424 527 737 626 505 620
8 623 508 627 738 502 390 506 621
8 623 508 390 502 739 628 507 622
8 625 510 628 739 504 392 507 622
8 740 629 509 624 691 585 468 575
8 625 510 392 504 740 629 509 624
8 632 529 410 513 744 647 527 630
8 631 528 648 745 514 411 530 633
8 632 529 648 745 513 410 528 631
8 638 535 416 519 746 649 530 633
8 747 650 531 634 635 532 413 516
8 642 539 420 523 747 650 531 634
8 636 533 651 748 517 414 532 635
8 640 536 652 749 521 417 533 636
8 639 537 418 520 750 653 534 637
8 638 535 653 750 519 416 534 637
8 641 538 419 522 751 655 537 639
8 641 538 654 752 522 419 536 640
8 643 540 421 524 753 657 539 642
8 643 540 659 755 524 421 541 644
8 644 541 660 757 526 423 543 646
8 758 661 542 645 646 543 422 525
8 529 426 544 647 648 545 662 759
8 530 427 545 648 649 546 663 760
8 535 429 546 649 653 547 664 761
8 762 666 548 650 651 550 432 532
8 657 556 438 539 762 666 548 650
8 652 551 668 763 533 433 550 651
8 654 552 669 764 536 434 551 652
8 655 549 431 537 765 665 547 653
8 538 435 549 655 654 552 667 766
8 661 554 671 768 542 436 553 656
8 658 558 440 540 769 674 556 657
8 658 558 675 770 540 440 557 659
8 659 557 673 771 541 439 555 660
8 660 555 672 772 543 437 554 661
8 788 686 570 676 704 591 473 590
8 677 571 453 560 788 686 570 676
8 679 573 455 562 789 687 571 677
8 566 459 577 683 678 575 691 790
8 681 574 456 564 791 689 573 679
8 680 572 688 792 567 460 578 684
8 681 574 688 792 564 456 572 680
8 682 576 692 794 566 459 577 683
8 569 461 579 685 682 576 692 794
8 568 462 578 684 685 579 694 796
8 687 581 464 571 798 696 580 686
8 798 696 580 686 705 592 474 591
8 689 583 466 573 799 697 581 687
8 688 582 698 800 578 471 588 694
8 690 584 698 800 574 467 582 688
8 690 584 467 574 801 699 583 689
8 693 587 701 803 577 470 585 691
8 693 587 470 577 804 702 586 692
8 695 589 702 804 579 472 586 692
8 695 589 472 579 805 703 588 694
8 708 595 705 813 593 475 591 704
8 710 596 706 814 595 476 592 705
8 707 594 479 602 816 709 600 719
8 708 595 475 593 817 711 594 707
8 709 598 478 600 819 715 599 717
8 711 597 477 594 820 714 598 709
8 710 596 476 595 822 713 597 711
8 600 478 601 720 717 599 718 832
8 602 479 603 722 719 600 720 834
8 720 601 480 603 835 721 604 723
8 722 603 482 605 836 723 606 724
8 767 670 725 839 656 553 608 726
8 756 656 726 841 645 542 609 728
8 726 608 727 842 609 487 610 729
8 728 609 729 843 611 488 612 730
8 844 740 624 731 790 691 575 678
8 733 625 504 616 844 740 624 731
8 734 623 502 617 845 739 622 732
8 733 625 739 845 616 504 622 732
8 734 623 738 846 617 502 621 735
8 735 621 737 847 618 500 620 736
8 744 647 527 630 847 737 620 736
8 621 506 627 738 737 626 741 848
8 647 544 626 737 759 662 741 848
8 623 508 628 739 738 627 742 849
8 740 629 585 691 850 743 700 802
8 625 510 629 740 739 628 743 850
8 632 529 647 744 745 648 759 854
8 633 530 648 745 746 649 760 855
8 638 535 649 746 750 653 761 856
8 857 762 650 747 748 651 532 635
8 753 657 539 642 857 762 650 747
8 749 652 763 858 636 533 651 748
8 752 654 764 859 640 536 652 749
8 751 655 537 639 860 765 653 750
8 641 538 655 751 752 654 766 861
8 754 658 540 643 862 769 657 753
8 754 658 770 863 643 540 659 755
8 755 659 771 864 644 541 660 757
8 758 661 768 866 645 542 656 756
8 757 660 772 867 646 543 661 758
8 759 662 773 868 648 545 663 760
8 649 546 663 760 761 664 774 871
8 765 665 547 653 872 775 664 761
8 873 777 666 762 763 668 550 651
8 769 674 556 657 873 777 666 762
8 764 669 779 874 652 551 668 763
8 654 552 667 766 764 669 778 875
8 655 549 665 765 766 667 776 876
8 768 671 782 877 656 553 670 767
8 772 672 783 878 661 554 671 768
8 658 558 674 769 770 675 786 879
8 659 557 675 770 771 673 785 881
8 882 784 672 772 771 673 555 660
8 789 687 571 677 897 798 686 788
8 897 798 686 788 813 705 591 704
8 791 689 573 679 898 799 687 789
8 795 693 803 900 683 577 691 790
8 793 690 574 681 901 801 689 791
8 792 688 800 902 684 578 694 796
8 793 690 800 902 681 574 688 792
8 795 693 577 683 903 804 692 794
8 797 695 804 903 685 579 692 794
8 797 695 579 685 904 805 694 796
8 905 806 697 799 798 696 581 687
8 814 706 806 905 705 592 696 798
8 689 583 697 799 801 699 808 907
8 800 698 809 908 694 588 703 805
8 690 584 699 801 800 698 809 908
8 803 701 810 909 691 585 700 802
8 693 587 702 804 803 701 811 910
8 695 589 703 805 804 702 812 911
8 818 710 814 919 708 595 705 813
8 821 712 815 920 710 596 706 814
8 816 709 600 719 922 819 717 831
8 817 711 594 707 923 820 709 816
8 818 710 595 708 924 822 711 817
8 819 715 599 717 926 827 716 829
8 820 714 598 709 927 826 715 819
8 929 825 713 822 820 714 597 711
8 821 712 596 710 930 824 713 822
8 717 599 718 832 829 716 830 942
8 719 600 720 834 831 717 832 944
8 832 718 601 720 945 833 721 835
8 834 720 603 722 946 835 723 836
8 869 780 838 950 767 670 725 839
8 865 767 839 952 756 656 726 841
8 839 725 840 953 726 608 727 842
8 841 726 842 954 728 609 729 843
8 844 740 691 790 955 850 802 899
8 733 625 740 844 845 739 850 955
8 734 623 739 845 846 738 849 956
8 735 621 738 846 847 737 848 957
8 744 647 737 847 854 759 848 957
8 738 627 742 849 848 741 851 958
8 848 741 851 958 759 662 773 868
8 850 743 700 802 959 852 807 906
8 849 742 628 739 959 852 743 850
8 854 759 868 965 745 648 760 855
8 746 649 760 855 856 761 871 966
8 860 765 653 750 967 872 761 856
8 968 873 762 857 858 763 651 748
8 862 769 657 753 968 873 762 857
8 859 764 874 969 749 652 763 858
8 752 654 766 861 859 764 875 970
8 751 655 765 860 861 766 876 971
8 754 658 769 862 863 770 879 972
8 755 659 770 863 864 771 881 974
8 976 882 772 867 864 771 660 757
8 866 768 877 977 756 656 767 865
8 867 772 878 978 758 661 768 866
8 760 663 773 868 871 774 883 980
8 870 781 837 948 982 890 780 869
8 982 890 780 869 877 782 670 767
8 761 664 774 871 872 775 884 984
8 876 776 665 765 985 885 775 872
8 873 777 668 763 986 887 779 874
8 769 674 777 873 879 786 887 986
8 764 669 778 875 874 779 888 987
8 766 667 776 876 875 778 886 988
8 878 783 892 989 768 671 782 877
8 878 783 672 772 990 893 784 882
8 880 787 675 770 991 896 786 879
8 880 787 895 992 770 675 785 881
8 881 785 894 993 771 673 784 882
8 1006 905 799 898 897 798 687 789
8 919 814 905 1006 813 705 798 897
8 791 689 799 898 901 801 907 1007
8 900 803 909 1009 790 691 802 899
8 795 693 804 903 900 803 910 1010
8 902 800 908 1011 796 694 805 904
8 793 690 801 901 902 800 908 1011
8 797 695 805 904 903 804 911 1012
8 799 697 806 905 907 808 912 1013
8 920 815 912 1013 814 706 806 905
8 802 700 810 909 906 807 913 1014
8 801 699 808 907 908 809 914 1015
8 805 703 809 908 911 812 915 1016
8 803 701 811 910 909 810 916 1017
8 911 812 917 1018 804 702 811 910
8 925 821 920 1030 818 710 814 919
8 928 823 921 1031 821 712 815 920
8 922 819 717 831 1033 926 829 941
8 923 820 709 816 1034 927 819 922
8 1035 929 822 924 923 820 711 817
8 925 821 710 818 1036 930 822 924
8 1038 933 825 929 927 826 714 820
8 926 827 716 829 1039 935 828 939
8 927 826 715 819 1040 934 827 926
8 928 823 712 821 1041 931 824 930
8 1042 932 824 930 929 825 713 822
8 829 716 830 942 939 828 940 1058
8 831 717 832 944 941 829 942 1060
8 942 830 718 832 1061 943 833 945
8 944 832 720 834 1062 945 835 946
8 981 889 947 1064 870 781 837 948
8 948 837 949 1067 869 780 838 950
8 975 869 950 1069 865 767 839 952
8 950 838 951 1070 839 725 840 953
8 952 839 953 1071 841 726 842 954
8 955 850 802 899 1072 959 906 1008
8 956 849 739 845 1072 959 850 955
8 846 738 849 956 957 848 958 1073
8 957 848 958 1073 854 759 868 965
8 849 742 852 959 958 851 961 1076
8 960 853 961 1076 906 807 852 959
8 958 851 961 1076 868 773 883 980
8 960 853 807 906 1077 963 913 1014
8 855 760 868 965 966 871 980 1085
8 856 761 871 966 967 872 984 1086
8 971 876 765 860 1087 985 872 967
8 968 873 763 858 1088 986 874 969
8 862 769 873 968 972 879 986 1088
8 859 764 875 970 969 874 987 1089
8 861 766 876 971 970 875 988 1090
8 973 880 770 863 1091 991 879 972
8 973 880 992 1092 863 770 881 974
8 974 881 993 1093 864 771 882 976
8 979 870 948 1066 1094 982 869 975
8 1094 982 869 975 977 877 767 865
8 978 878 772 867 1095 990 882 976
8 978 878 989 1096 866 768 877 977
8 871 774 883 980 984 884 994 1099
8 983 891 999 1100 870 781 889 981
8 1101 1000 890 982 989 892 782 877
8 983 891 781 870 1101 1000 890 982
8 872 775 884 984 985 885 995 1103
8 876 776 885 985 988 886 996 1104
8 986 887 779 874 1105 998 888 987
8 879 786 887 986 991 896 998 1105
8 875 778 886 988 987 888 997 1106
8 990 893 1002 1107 878 783 892 989
8 1108 1003 893 990 993 894 784 882
8 880 787 896 991 992 895 1005 1109
8 993 894 785 881 1110 1004 895 992
8 898 799 905 1006 1007 907 1013 1120
8 1030 920 1013 1120 919 814 905 1006
8 901 801 907 1007 1011 908 1015 1121
8 899 802 909 1009 1008 906 1014 1122
8 900 803 910 1010 1009 909 1017 1123
8 1012 911 1018 1124 903 804 910 1010
8 904 805 908 1011 1012 911 1016 1125
8 1013 912 1020 1127 907 808 914 1015
8 1031 921 1020 1127 920 815 912 1013
8 1019 918 962 1075 1128 1021 913 1014
8 1128 1021 913 1014 1017 916 810 909
8 1015 914 1022 1129 908 809 915 1016
8 1016 915 1023 1130 911 812 917 1018
8 1018 917 1024 1131 910 811 916 1017
8 1037 928 1031 1148 925 821 920 1030
8 928 823 931 1041 1031 921 1032 1149
8 1033 926 829 941 1151 1039 939 1057
8 1034 927 819 922 1152 1040 926 1033
8 1153 1038 929 1035 1034 927 820 923
8 1154 1042 930 1036 1035 929 822 924
8 1037 928 821 925 1155 1041 930 1036
8 1039 935 828 939 1156 1047 938 1055
8 1157 1043 932 1042 1038 933 825 929
8 1038 933 826 927 1158 1045 934 1040
8 1040 934 827 926 1159 1046 935 1039
8 930 824 932 1042 1041 931 1044 1160
8 1051 936 1048 1165 1175 1052 937 1053
8 1156 1047 938 1055 1053 937 1054 1178
8 939 828 940 1058 1055 938 1056 1181
8 941 829 942 1060 1057 939 1058 1183
8 942 830 943 1061 1058 940 1059 1184
8 1060 942 832 944 1185 1061 945 1062
8 1082 964 1063 1188 981 889 947 1064
8 1097 981 1064 1190 979 870 948 1066
8 1064 947 1065 1191 948 837 949 1067
8 1066 948 1067 1193 975 869 950 1069
8 1067 949 1068 1194 950 838 951 1070
8 1069 950 1070 1195 952 839 953 1071
8 956 849 959 1072 1073 958 1076 1197
8 1074 960 1076 1197 1008 906 959 1072
8 1073 958 1076 1197 965 868 980 1085
8 1074 960 906 1008 1198 1077 1014 1122
8 1133 1026 1079 1199 1019 918 962 1075
8 1077 963 913 1014 1200 1080 962 1075
8 960 853 963 1077 1076 961 1078 1201
8 980 883 961 1076 1099 994 1078 1201
8 1210 1083 964 1082 1100 999 889 981
8 966 871 980 1085 1086 984 1099 1215
8 967 872 984 1086 1087 985 1103 1216
8 971 876 985 1087 1090 988 1104 1217
8 1088 986 874 969 1218 1105 987 1089
8 972 879 986 1088 1091 991 1105 1218
8 970 875 988 1090 1089 987 1106 1219
8 973 880 991 1091 1092 992 1109 1220
8 1093 993 881 974 1221 1110 992 1092
8 1222 1108 990 1095 1093 993 882 976
8 1223 1101 982 1094 1096 989 877 977
8 1098 983 870 979 1223 1101 982 1094
8 1095 990 1107 1224 978 878 989 1096
8 1098 983 1100 1225 979 870 981 1097
8 984 884 994 1099 1103 995 1111 1227
8 1102 1001 1115 1228 983 891 999 1100
8 1101 1000 892 989 1229 1116 1002 1107
8 1102 1001 891 983 1229 1116 1000 1101
8 985 885 995 1103 1104 996 1112 1230
8 988 886 996 1104 1106 997 1113 1231
8 1105 998 888 987 1232 1114 997 1106
8 991 896 998 1105 1109 1005 1114 1232
8 1108 1003 1117 1233 990 893 1002 1107
8 1108 1003 894 993 1233 1117 1004 1110
8 992 895 1005 1109 1110 1004 1118 1234
8 1120 1013 1127 1244 1007 907 1015 1121
8 1148 1031 1127 1244 1030 920 1013 1120
8 1121 1015 1129 1245 1011 908 1016 1125
8 1126 1019 1075 1196 1246 1128 1014 1122
8 1246 1128 1014 1122 1123 1017 909 1009
8 1124 1018 1131 1247 1010 910 1017 1123
8 1125 1016 1130 1248 1012 911 1018 1124
8 1127 1020 1137 1254 1015 914 1022 1129
8 1031 921 1032 1149 1127 1020 1137 1254
8 1134 1027 918 1019 1257 1140 1021 1128
8 1257 1140 1021 1128 1131 1024 916 1017
8 1129 1022 1141 1258 1016 915 1023 1130
8 1130 1023 1142 1259 1018 917 1024 1131
8 1261 1144 1025 1132 1133 1026 1079 1199
8 1255 1138 1025 1132 1135 1028 1144 1261
8 1133 1026 918 1019 1262 1145 1027 1134
8 1136 1029 1139 1256 1263 1146 1028 1135
8 1037 928 1041 1155 1148 1031 1149 1275
8 1041 931 1044 1160 1149 1032 1150 1276
8 1151 1039 939 1057 1278 1156 1055 1180
8 1152 1040 926 1033 1279 1159 1039 1151
8 1153 1038 927 1034 1280 1158 1040 1152
8 1281 1157 1042 1154 1153 1038 929 1035
8 1036 930 1042 1154 1155 1041 1160 1282
8 1283 1164 1046 1159 1156 1047 935 1039
8 1165 1048 1164 1283 1053 937 1047 1156
8 1157 1043 933 1038 1284 1161 1045 1158
8 1157 1043 1161 1284 1042 932 1044 1160
8 1040 934 1046 1159 1158 1045 1163 1285
8 1166 1049 1167 1292 1051 936 1048 1165
8 1166 1049 936 1051 1293 1168 1050 1172
8 1051 936 1052 1175 1172 1050 1173 1306
8 1174 1051 1165 1290 1308 1175 1053 1177
8 1053 937 1054 1178 1175 1052 1176 1309
8 1278 1156 1055 1180 1177 1053 1178 1311
8 1055 938 1056 1181 1178 1054 1179 1312
8 1057 939 1058 1183 1180 1055 1181 1314
8 1058 940 1059 1184 1181 1056 1182 1315
8 1060 942 1061 1185 1183 1058 1184 1316
8 1208 1081 1187 1321 1082 964 1063 1188
8 1209 1082 1188 1322 1097 981 1064 1190
8 1188 1063 1189 1323 1064 947 1065 1191
8 1190 1064 1191 1325 1066 948 1067 1193
8 1191 1065 1192 1326 1067 949 1068 1194
8 1067 1193 1069 950 1194 1327 1195 1070
8 1250 1133 1199 1330 1126 1019 1075 1196
8 1198 1077 1014 1122 1331 1200 1075 1196
8 1074 960 1077 1198 1197 1076 1201 1332
8 1085 980 1076 1197 1215 1099 1201 1332
8 1199 1079 1203 1333 1075 962 1080 1200
8 1132 1025 1119 1243 1199 1079 1203 1333
8 1201 1078 963 1077 1334 1202 1080 1200
8 1099 994 1078 1201 1227 1111 1202 1334
8 1343 1207 1081 1208 1210 1083 964 1082
8 1214 1084 1186 1319 1343 1207 1081 1208
8 1345 1210 1082 1209 1225 1100 981 1097
8 1346 1211 1083 1210 1228 1115 999 1100
8 1086 984 1099 1215 1216 1103 1227 1352
8 1087 985 1103 1216 1217 1104 1230 1353
8 1090 988 1104 1217 1219 1106 1231 1354
8 1218 1105 987 1089 1355 1232 1106 1219
8 1091 991 1105 1218 1220 1109 1232 1355
8 1092 992 1109 1220 1221 1110 1234 1356
8 1222 1108 1233 1357 1095 990 1107 1224
8 1222 1108 993 1093 1357 1233 1110 1221
8 1223 1101 989 1096 1358 1229 1107 1224
8 1226 1102 983 1098 1358 1229 1101 1223
8 1226 1102 1228 1359 1098 983 1100 1225
8 1103 995 1111 1227 1230 1112 1235 1360
8 1107 1002 1117 1233 1229 1116 1240 1362
8 1102 1001 1116 1229 1228 1115 1240 1362
8 1104 996 1112 1230 1231 1113 1236 1363
8 1364 1237 1114 1232 1231 1113 997 1106
8 1109 1005 1114 1232 1234 1118 1238 1365
8 1110 1004 1118 1234 1233 1117 1241 1366
8 1242 1374 1255 1138 1119 1243 1132 1025
8 1244 1127 1254 1376 1121 1015 1129 1245
8 1148 1031 1149 1275 1244 1127 1254 1376
8 1245 1129 1258 1377 1125 1016 1130 1248
8 1251 1134 1019 1126 1378 1257 1128 1246
8 1378 1257 1128 1246 1247 1131 1017 1123
8 1248 1130 1259 1379 1124 1018 1131 1247
8 1261 1381 1250 1133 1132 1249 1330 1199
8 1255 1380 1252 1135 1132 1249 1381 1261
8 1250 1133 1019 1126 1382 1262 1134 1251
8 1253 1136 1256 1385 1384 1263 1135 1252
8 1254 1137 1265 1387 1129 1022 1141 1258
8 1149 1032 1150 1276 1254 1137 1265 1387
8 1028 1135 1255 1138 1139 1256 1388 1266
8 1136 1029 1147 1264 1256 1139 1267 1389
8 1390 1268 1140 1257 1259 1142 1024 1131
8 1260 1143 1027 1134 1390 1268 1140 1257
8 1258 1141 1269 1391 1130 1023 1142 1259
8 1262 1145 1027 1134 1393 1271 1143 1260
8 1261 1144 1026 1133 1394 1272 1145 1262
8 1135 1028 1144 1261 1263 1146 1272 1394
8 1136 1029 1146 1263 1264 1147 1273 1395
8 1155 1041 1160 1282 1275 1149 1276 1405
8 1276 1150 1044 1160 1406 1277 1162 1286
8 1408 1283 1159 1279 1278 1156 1039 1151
8 1290 1165 1283 1408 1177 1053 1156 1278
8 1152 1040 1159 1279 1280 1158 1285 1409
8 1281 1157 1038 1153 1410 1284 1158 1280
8 1281 1157 1284 1410 1154 1042 1160 1282
8 1159 1046 1164 1283 1285 1163 1289 1412
8 1292 1167 1289 1412 1165 1048 1164 1283
8 1158 1045 1163 1285 1284 1161 1288 1413
8 1284 1161 1288 1413 1160 1044 1162 1286
8 1291 1166 1292 1418 1174 1051 1165 1290
8 1291 1166 1051 1174 1419 1293 1172 1305
8 1294 1169 1296 1421 1166 1049 1167 1292
8 1293 1168 1050 1172 1422 1295 1171 1303
8 1294 1169 1049 1166 1423 1297 1168 1293
8 1422 1295 1171 1303 1301 1170 1302 1435
8 1172 1050 1173 1306 1303 1171 1304 1438
8 1174 1051 1175 1308 1305 1172 1306 1440
8 1175 1052 1176 1309 1306 1173 1307 1441
8 1177 1053 1178 1311 1308 1175 1309 1443
8 1178 1054 1179 1312 1309 1176 1310 1444
8 1180 1055 1181 1314 1311 1178 1312 1446
8 1056 1181 1312 1179 1182 1315 1447 1313
8 1183 1058 1184 1316 1314 1181 1315 1448
8 1319 1186 1084 1214 1451 1317 1213 1350
8 1319 1186 1318 1453 1208 1081 1187 1321
8 1321 1187 1320 1456 1188 1063 1189 1323
8 1344 1208 1321 1457 1209 1082 1188 1322
8 1322 1188 1323 1458 1190 1064 1191 1325
8 1323 1189 1324 1459 1191 1065 1192 1326
8 1191 1325 1193 1067 1326 1460 1327 1194
8 1242 1374 1243 1119 1328 1462 1335 1204
8 1330 1199 1333 1465 1196 1075 1200 1331
8 1132 1249 1330 1199 1243 1375 1465 1333
8 1332 1201 1077 1198 1466 1334 1200 1331
8 1215 1099 1201 1332 1352 1227 1334 1466
8 1119 1243 1333 1203 1204 1335 1470 1338
8 1333 1203 1338 1470 1200 1080 1202 1334
8 1227 1111 1202 1334 1360 1235 1338 1470
8 1328 1462 1335 1204 1205 1336 1471 1339
8 1337 1206 1340 1472 1464 1329 1205 1336
8 1346 1211 1342 1479 1210 1083 1207 1343
8 1346 1211 1115 1228 1479 1342 1239 1361
8 1348 1212 1084 1214 1479 1342 1207 1343
8 1480 1343 1208 1344 1345 1210 1082 1209
8 1351 1214 1319 1454 1480 1343 1208 1344
8 1481 1346 1210 1345 1359 1228 1100 1225
8 1348 1212 1347 1483 1214 1084 1213 1350
8 1216 1103 1227 1352 1353 1230 1360 1488
8 1217 1104 1230 1353 1354 1231 1363 1489
8 1490 1364 1232 1355 1354 1231 1106 1219
8 1220 1109 1232 1355 1356 1234 1365 1491
8 1221 1110 1234 1356 1357 1233 1366 1492
8 1224 1107 1233 1357 1358 1229 1362 1493
8 1226 1102 1229 1358 1359 1228 1362 1493
8 1230 1112 1235 1360 1363 1236 1367 1496
8 1361 1239 1115 1228 1497 1371 1240 1362
8 1366 1241 1372 1498 1233 1117 1240 1362
8 1364 1237 1113 1231 1499 1368 1236 1363
8 1364 1237 1368 1499 1232 1114 1238 1365
8 1234 1118 1238 1365 1366 1241 1369 1500
8 1507 1373 1242 1374 1388 1266 1138 1255
8 1508 1374 1243 1375 1380 1255 1132 1249
8 1376 1254 1387 1509 1245 1129 1258 1377
8 1275 1149 1276 1405 1376 1254 1387 1509
8 1377 1258 1391 1510 1248 1130 1259 1379
8 1511 1390 1257 1378 1379 1259 1131 1247
8 1383 1260 1134 1251 1511 1390 1257 1378
8 1252 1135 1256 1385 1380 1255 1388 1512
8 1261 1381 1513 1394 1133 1250 1382 1262
8 1135 1252 1384 1263 1261 1381 1513 1394
8 1382 1262 1134 1251 1514 1393 1260 1383
8 1253 1136 1263 1384 1386 1264 1395 1516
8 1253 1136 1264 1386 1385 1256 1389 1517
8 1387 1265 1397 1519 1258 1141 1269 1391
8 1276 1150 1277 1406 1387 1265 1397 1519
8 1256 1139 1267 1389 1388 1266 1398 1520
8 1264 1147 1274 1396 1389 1267 1399 1521
8 1392 1270 1143 1260 1522 1400 1268 1390
8 1390 1268 1142 1259 1522 1400 1269 1391
8 1392 1270 1401 1523 1260 1143 1271 1393
8 1272 1394 1524 1402 1145 1262 1393 1271
8 1395 1273 1146 1263 1524 1402 1272 1394
8 1273 1395 1264 1147 1403 1526 1396 1274
8 1405 1276 1160 1282 1534 1406 1286 1411
8 1414 1287 1407 1535 1286 1162 1277 1406
8 1279 1159 1283 1408 1409 1285 1412 1537
8 1418 1292 1412 1537 1290 1165 1283 1408
8 1280 1158 1285 1409 1410 1284 1413 1538
8 1410 1284 1413 1538 1282 1160 1286 1411
8 1285 1163 1289 1412 1413 1288 1417 1540
8 1421 1296 1417 1540 1292 1167 1289 1412
8 1414 1287 1162 1286 1541 1416 1288 1413
8 1420 1294 1421 1545 1291 1166 1292 1418
8 1419 1293 1172 1305 1546 1422 1303 1437
8 1420 1294 1166 1291 1547 1423 1293 1419
8 1294 1169 1297 1423 1421 1296 1425 1548
8 1423 1297 1168 1293 1549 1424 1295 1422
8 1301 1170 1298 1427 1422 1295 1424 1549
8 1432 1300 1428 1554 1301 1170 1298 1427
8 1431 1299 1428 1554 1560 1430 1300 1432
8 1563 1433 1300 1432 1435 1302 1170 1301
8 1546 1422 1303 1437 1434 1301 1435 1565
8 1303 1171 1304 1438 1435 1302 1436 1566
8 1305 1172 1306 1440 1437 1303 1438 1568
8 1306 1173 1307 1441 1438 1304 1439 1569
8 1308 1175 1309 1443 1440 1306 1441 1571
8 1309 1176 1310 1444 1441 1307 1442 1572
8 1311 1178 1312 1446 1443 1309 1444 1574
8 1179 1312 1444 1310 1313 1447 1575 1445
8 1314 1181 1315 1448 1446 1312 1447 1576
8 1350 1213 1349 1486 1451 1317 1449 1579
8 1451 1317 1450 1581 1319 1186 1318 1453
8 1454 1319 1214 1351 1582 1451 1350 1487
8 1453 1318 1452 1584 1321 1187 1320 1456
8 1454 1319 1453 1585 1344 1208 1321 1457
8 1456 1320 1455 1586 1323 1189 1324 1459
8 1457 1321 1456 1587 1322 1188 1323 1458
8 1458 1323 1459 1588 1325 1191 1326 1460
8 1205 1336 1464 1329 1328 1462 1590 1461
8 1507 1373 1461 1590 1374 1242 1328 1462
8 1508 1374 1462 1591 1375 1243 1335 1467
8 1337 1206 1329 1464 1473 1341 1463 1594
8 1375 1243 1335 1467 1465 1333 1470 1596
8 1465 1333 1470 1596 1331 1200 1334 1466
8 1352 1227 1334 1466 1488 1360 1470 1596
8 1591 1462 1336 1468 1467 1335 1471 1597
8 1469 1337 1472 1598 1595 1464 1336 1468
8 1471 1339 1474 1600 1335 1204 1338 1470
8 1600 1474 1367 1496 1470 1338 1235 1360
8 1336 1205 1340 1472 1471 1339 1475 1601
8 1337 1206 1341 1473 1472 1340 1476 1602
8 1495 1370 1478 1609 1361 1239 1342 1479
8 1348 1212 1342 1479 1483 1347 1478 1609
8 1481 1346 1479 1610 1345 1210 1343 1480
8 1481 1346 1228 1359 1610 1479 1361 1494
8 1484 1348 1214 1351 1610 1479 1343 1480
8 1483 1347 1482 1612 1350 1213 1349 1486
8 1484 1348 1483 1613 1351 1214 1350 1487
8 1353 1230 1360 1488 1489 1363 1496 1616
8 1490 1364 1231 1354 1617 1499 1363 1489
8 1490 1364 1499 1617 1355 1232 1365 1491
8 1356 1234 1365 1491 1492 1366 1500 1619
8 1492 1366 1498 1620 1357 1233 1362 1493
8 1494 1361 1228 1359 1621 1497 1362 1493
8 1495 1370 1239 1361 1622 1504 1371 1497
8 1363 1236 1367 1496 1499 1368 1501 1623
8 1497 1371 1240 1362 1624 1505 1372 1498
8 1625 1503 1372 1498 1500 1369 1241 1366
8 1365 1238 1368 1499 1500 1369 1502 1626
8 1520 1398 1506 1633 1388 1266 1373 1507
8 1634 1507 1374 1508 1512 1388 1255 1380
8 1509 1387 1519 1635 1377 1258 1391 1510
8 1405 1276 1406 1534 1509 1387 1519 1635
8 1515 1392 1260 1383 1636 1522 1390 1511
8 1511 1390 1259 1379 1636 1522 1391 1510
8 1385 1256 1389 1517 1512 1388 1520 1637
8 1513 1394 1262 1382 1638 1524 1393 1514
8 1395 1516 1638 1524 1263 1384 1513 1394
8 1515 1392 1523 1639 1383 1260 1393 1514
8 1516 1395 1526 1640 1386 1264 1396 1518
8 1386 1264 1396 1518 1517 1389 1521 1641
8 1519 1397 1527 1643 1391 1269 1400 1522
8 1535 1407 1527 1643 1406 1277 1397 1519
8 1389 1267 1399 1521 1520 1398 1528 1644
8 1645 1529 1399 1521 1525 1404 1274 1396
8 1392 1270 1400 1522 1523 1401 1531 1646
8 1524 1402 1271 1393 1648 1532 1401 1523
8 1403 1526 1648 1532 1273 1395 1524 1402
8 1525 1404 1274 1396 1649 1533 1403 1526
8 1539 1414 1535 1657 1411 1286 1406 1534
8 1542 1415 1536 1658 1414 1287 1407 1535
8 1409 1285 1412 1537 1538 1413 1540 1660
8 1545 1421 1540 1660 1418 1292 1412 1537
8 1539 1414 1286 1411 1661 1541 1413 1538
8 1540 1417 1544 1663 1413 1288 1416 1541
8 1421 1296 1425 1548 1540 1417 1544 1663
8 1542 1415 1287 1414 1664 1543 1416 1541
8 1420 1294 1423 1547 1545 1421 1548 1666
8 1547 1423 1293 1419 1667 1549 1422 1546
8 1434 1301 1427 1553 1546 1422 1549 1667
8 1423 1297 1424 1549 1548 1425 1550 1668
8 1551 1426 1550 1668 1427 1298 1424 1549
8 1551 1426 1298 1427 1671 1552 1428 1554
8 1562 1432 1554 1674 1434 1301 1427 1553
8 1431 1299 1429 1558 1554 1428 1555 1675
8 1431 1299 1430 1560 1558 1429 1557 1680
8 1560 1430 1300 1432 1683 1559 1433 1563
8 1561 1431 1554 1674 1684 1560 1432 1562
8 1685 1563 1432 1562 1565 1435 1301 1434
8 1435 1302 1436 1566 1563 1433 1564 1686
8 1437 1303 1438 1568 1565 1435 1566 1688
8 1438 1304 1439 1569 1566 1436 1567 1689
8 1440 1306 1441 1571 1568 1438 1569 1691
8 1441 1307 1442 1572 1569 1439 1570 1692
8 1443 1309 1444 1574 1571 1441 1572 1694
8 1310 1444 1572 1442 1445 1575 1695 1573
8 1446 1312 1447 1576 1574 1444 1575 1696
8 1486 1349 1485 1614 1579 1449 1577 1699
8 1451 1317 1449 1579 1581 1450 1578 1701
8 1487 1350 1486 1615 1582 1451 1579 1702
8 1581 1450 1580 1704 1453 1318 1452 1584
8 1582 1451 1581 1705 1454 1319 1453 1585
8 1584 1452 1583 1706 1456 1320 1455 1586
8 1585 1453 1584 1707 1457 1321 1456 1587
8 1587 1456 1586 1708 1458 1323 1459 1588
8 1633 1506 1589 1710 1507 1373 1461 1590
8 1464 1329 1461 1590 1594 1463 1589 1710
8 1468 1336 1462 1591 1595 1464 1590 1711
8 1634 1507 1590 1711 1508 1374 1462 1591
8 1473 1341 1463 1594 1603 1477 1593 1716
8 1469 1337 1464 1595 1599 1473 1594 1717
8 1471 1597 1467 1335 1600 1718 1596 1470
8 1718 1600 1496 1616 1596 1470 1360 1488
8 1336 1468 1597 1471 1472 1598 1719 1601
8 1469 1337 1473 1599 1598 1472 1602 1720
8 1722 1604 1501 1623 1600 1474 1367 1496
8 1475 1601 1471 1339 1604 1722 1600 1474
8 1602 1476 1605 1723 1472 1340 1475 1601
8 1476 1602 1724 1606 1341 1473 1603 1477
8 1483 1347 1478 1609 1612 1482 1608 1731
8 1495 1370 1504 1622 1609 1478 1608 1731
8 1618 1495 1609 1732 1494 1361 1479 1610
8 1484 1348 1479 1610 1613 1483 1609 1732
8 1486 1349 1482 1612 1614 1485 1611 1733
8 1613 1483 1612 1734 1487 1350 1486 1615
8 1489 1363 1496 1616 1617 1499 1623 1736
8 1491 1365 1499 1617 1619 1500 1626 1737
8 1618 1495 1361 1494 1738 1622 1497 1621
8 1739 1625 1498 1620 1619 1500 1366 1492
8 1621 1497 1362 1493 1740 1624 1498 1620
8 1742 1631 1504 1622 1624 1505 1371 1497
8 1743 1628 1502 1626 1623 1501 1368 1499
8 1744 1630 1505 1624 1625 1503 1372 1498
8 1745 1629 1503 1625 1626 1502 1369 1500
8 1520 1398 1528 1644 1633 1506 1632 1751
8 1637 1520 1633 1752 1512 1388 1507 1634
8 1635 1519 1643 1753 1510 1391 1522 1636
8 1657 1535 1643 1753 1534 1406 1519 1635
8 1515 1392 1522 1636 1639 1523 1646 1754
8 1517 1389 1521 1641 1637 1520 1644 1755
8 1524 1638 1756 1648 1393 1514 1639 1523
8 1640 1526 1395 1516 1756 1648 1524 1638
8 1642 1525 1396 1518 1757 1649 1526 1640
8 1758 1645 1521 1641 1642 1525 1396 1518
8 1646 1531 1400 1522 1760 1650 1527 1643
8 1535 1407 1536 1658 1643 1527 1650 1760
8 1521 1399 1529 1645 1644 1528 1651 1761
8 1647 1530 1652 1762 1525 1404 1529 1645
8 1401 1523 1648 1532 1531 1646 1763 1655
8 1525 1404 1533 1649 1647 1530 1654 1765
8 1533 1649 1766 1656 1403 1526 1648 1532
8 1662 1542 1658 1774 1539 1414 1535 1657
8 1542 1415 1543 1664 1658 1536 1659 1775
8 1660 1540 1663 1777 1538 1413 1541 1661
8 1545 1421 1548 1666 1660 1540 1663 1777
8 1662 1542 1414 1539 1778 1664 1541 1661
8 1664 1543 1416 1541 1779 1665 1544 1663
8 1548 1425 1550 1668 1663 1544 1665 1779
8 1547 1423 1549 1667 1666 1548 1668 1781
8 1670 1551 1668 1781 1553 1427 1549 1667
8 1551 1426 1552 1671 1668 1550 1669 1782
8 1670 1551 1427 1553 1784 1671 1554 1674
8 1675 1555 1672 1785 1554 1428 1552 1671
8 1678 1556 1673 1789 1558 1429 1555 1675
8 1561 1431 1558 1681 1674 1554 1675 1790
8 1794 1677 1556 1678 1680 1557 1429 1558
8 1560 1430 1559 1683 1680 1557 1679 1797
8 1561 1431 1560 1684 1681 1558 1680 1798
8 1563 1433 1564 1686 1683 1559 1682 1800
8 1684 1560 1432 1562 1801 1683 1563 1685
8 1565 1435 1566 1688 1685 1563 1686 1802
8 1566 1436 1567 1689 1686 1564 1687 1803
8 1568 1438 1569 1691 1688 1566 1689 1805
8 1569 1439 1570 1692 1689 1567 1690 1806
8 1571 1441 1572 1694 1691 1569 1692 1808
8 1442 1572 1692 1570 1573 1695 1809 1693
8 1574 1444 1575 1696 1694 1572 1695 1810
8 1614 1485 1592 1712 1699 1577 1697 1813
8 1579 1449 1577 1699 1701 1578 1698 1815
8 1615 1486 1614 1735 1702 1579 1699 1816
8 1701 1578 1700 1818 1581 1450 1580 1704
8 1582 1451 1579 1702 1705 1581 1701 1819
8 1704 1580 1703 1820 1584 1452 1583 1706
8 1705 1581 1704 1821 1585 1453 1584 1707
8 1707 1584 1706 1822 1587 1456 1586 1708
8 1710 1589 1506 1633 1824 1709 1632 1751
8 1594 1463 1589 1710 1716 1593 1709 1824
8 1752 1633 1710 1825 1634 1507 1590 1711
8 1595 1464 1590 1711 1717 1594 1710 1825
8 1830 1714 1592 1712 1733 1611 1485 1614
8 1603 1477 1593 1716 1725 1607 1715 1834
8 1599 1473 1594 1717 1721 1603 1716 1835
8 1837 1722 1623 1736 1718 1600 1496 1616
8 1719 1601 1722 1837 1597 1471 1600 1718
8 1602 1720 1598 1472 1723 1838 1719 1601
8 1720 1602 1473 1599 1839 1724 1603 1721
8 1723 1605 1726 1840 1601 1475 1604 1722
8 1840 1726 1628 1743 1722 1604 1501 1623
8 1724 1606 1727 1841 1602 1476 1605 1723
8 1725 1607 1728 1842 1603 1477 1606 1724
8 1612 1482 1608 1731 1733 1611 1730 1849
8 1741 1627 1730 1849 1622 1504 1608 1731
8 1613 1483 1609 1732 1734 1612 1731 1850
8 1618 1495 1622 1738 1732 1609 1731 1850
8 1615 1486 1612 1734 1735 1614 1733 1851
8 1852 1743 1626 1737 1736 1623 1499 1617
8 1853 1745 1625 1739 1737 1626 1500 1619
8 1855 1742 1622 1738 1740 1624 1497 1621
8 1856 1744 1624 1740 1739 1625 1498 1620
8 1741 1627 1504 1622 1857 1746 1631 1742
8 1742 1631 1505 1624 1858 1749 1630 1744
8 1859 1747 1629 1745 1743 1628 1502 1626
8 1860 1748 1630 1744 1745 1629 1503 1625
8 1644 1528 1651 1761 1751 1632 1750 1865
8 1637 1520 1644 1755 1752 1633 1751 1866
8 1754 1646 1522 1636 1867 1760 1643 1753
8 1657 1535 1658 1774 1753 1643 1760 1867
8 1639 1523 1646 1754 1756 1648 1763 1868
8 1641 1521 1645 1758 1755 1644 1761 1869
8 1757 1649 1526 1640 1870 1766 1648 1756
8 1642 1525 1649 1757 1759 1647 1765 1871
8 1759 1647 1762 1872 1642 1525 1645 1758
8 1760 1650 1767 1874 1646 1531 1655 1763
8 1658 1536 1659 1775 1760 1650 1767 1874
8 1762 1652 1768 1875 1645 1529 1651 1761
8 1764 1653 1769 1876 1647 1530 1652 1762
8 1656 1766 1877 1773 1532 1648 1763 1655
8 1771 1879 1765 1654 1653 1764 1647 1530
8 1533 1649 1765 1654 1656 1766 1880 1772
8 1662 1542 1664 1778 1774 1658 1775 1887
8 1664 1543 1665 1779 1775 1659 1776 1888
8 1778 1664 1541 1661 1890 1779 1663 1777
8 1666 1548 1668 1781 1777 1663 1779 1890
8 1782 1669 1780 1891 1668 1550 1665 1779
8 1670 1551 1671 1784 1781 1668 1782 1893
8 1671 1552 1672 1785 1782 1669 1783 1894
8 1790 1675 1785 1896 1674 1554 1671 1784
8 1675 1555 1673 1789 1785 1672 1786 1897
8 1792 1676 1788 1903 1678 1556 1673 1789
8 1795 1678 1789 1904 1681 1558 1675 1790
8 1792 1676 1556 1678 1906 1791 1677 1794
8 1680 1557 1679 1797 1794 1677 1793 1909
8 1910 1794 1678 1795 1798 1680 1558 1681
8 1683 1559 1682 1800 1797 1679 1796 1912
8 1684 1560 1683 1801 1798 1680 1797 1913
8 1686 1564 1687 1803 1800 1682 1799 1915
8 1685 1563 1686 1802 1801 1683 1800 1916
8 1688 1566 1689 1805 1802 1686 1803 1917
8 1689 1567 1690 1806 1803 1687 1804 1918
8 1691 1569 1692 1808 1805 1689 1806 1920
8 1692 1570 1693 1809 1806 1690 1807 1921
8 1694 1572 1695 1810 1808 1692 1809 1922
8 1829 1713 1811 1926 1712 1592 1697 1813
8 1813 1697 1812 1928 1699 1577 1698 1815
8 1735 1614 1712 1828 1816 1699 1813 1929
8 1815 1698 1814 1931 1701 1578 1700 1818
8 1702 1579 1699 1816 1819 1701 1815 1932
8 1818 1700 1817 1933 1704 1580 1703 1820
8 1819 1701 1818 1934 1705 1581 1704 1821
8 1821 1704 1820 1935 1707 1584 1706 1822
8 1824 1709 1632 1751 1937 1823 1750 1865
8 1716 1593 1709 1824 1834 1715 1823 1937
8 1825 1710 1633 1752 1938 1824 1751 1866
8 1717 1594 1710 1825 1835 1716 1824 1938
8 1945 1830 1712 1828 1851 1733 1614 1735
8 1830 1714 1831 1946 1712 1592 1713 1829
8 1947 1832 1714 1830 1849 1730 1611 1733
8 1843 1729 1607 1725 1950 1833 1715 1834
8 1721 1603 1716 1835 1836 1725 1834 1951
8 1836 1725 1842 1953 1721 1603 1724 1839
8 1723 1838 1719 1601 1840 1954 1837 1722
8 1954 1840 1743 1852 1837 1722 1623 1736
8 1724 1839 1720 1602 1841 1955 1838 1723
8 1841 1727 1844 1956 1723 1605 1726 1840
8 1956 1844 1747 1859 1840 1726 1628 1743
8 1728 1842 1724 1606 1845 1957 1841 1727
8 1725 1607 1729 1843 1842 1728 1846 1958
8 1741 1627 1746 1857 1849 1730 1848 1965
8 1734 1612 1731 1850 1851 1733 1849 1966
8 1854 1741 1849 1966 1738 1622 1731 1850
8 1967 1859 1745 1853 1852 1743 1626 1737
8 1968 1860 1744 1856 1853 1745 1625 1739
8 1854 1741 1622 1738 1969 1857 1742 1855
8 1855 1742 1624 1740 1970 1858 1744 1856
8 1857 1746 1631 1742 1971 1861 1749 1858
8 1858 1749 1630 1744 1972 1863 1748 1860
8 1859 1747 1862 1973 1745 1629 1748 1860
8 1875 1768 1864 1977 1761 1651 1750 1865
8 1755 1644 1761 1869 1866 1751 1865 1978
8 1867 1760 1874 1979 1754 1646 1763 1868
8 1774 1658 1775 1887 1867 1760 1874 1979
8 1870 1766 1648 1756 1980 1877 1763 1868
8 1872 1762 1875 1981 1758 1645 1761 1869
8 1757 1649 1766 1870 1871 1765 1880 1982
8 1983 1879 1764 1873 1871 1765 1647 1759
8 1873 1764 1876 1984 1759 1647 1762 1872
8 1877 1773 1655 1763 1986 1881 1767 1874
8 1775 1659 1776 1888 1874 1767 1881 1986
8 1876 1769 1882 1987 1762 1652 1768 1875
8 1878 1770 1883 1988 1764 1653 1769 1876
8 1880 1772 1656 1766 1989 1886 1773 1877
8 1878 1770 1653 1764 1990 1884 1771 1879
8 1765 1654 1772 1880 1879 1771 1885 1991
8 1778 1664 1779 1890 1887 1775 1888 1997
8 1998 1889 1776 1888 1891 1780 1665 1779
8 1893 1782 1891 2000 1781 1668 1779 1890
8 1894 1783 1892 2001 1782 1669 1780 1891
8 1784 1671 1785 1896 1893 1782 1894 2003
8 1897 1786 1895 2004 1785 1672 1783 1894
8 1790 1675 1789 1904 1896 1785 1897 2006
8 1901 1787 1898 2007 1789 1673 1786 1897
8 1903 1788 1900 2013 1789 1673 1787 1901
8 1792 1676 1791 1906 1903 1788 1902 2016
8 1907 1792 1903 2017 1795 1678 1789 1904
8 1906 1791 1677 1794 2019 1905 1793 1909
8 1907 1792 1678 1795 2020 1906 1794 1910
8 1797 1679 1796 1912 1909 1793 1908 2022
8 1798 1680 1797 1913 1910 1794 1909 2023
8 1800 1682 1799 1915 1912 1796 1911 2025
8 1801 1683 1800 1916 1913 1797 1912 2026
8 1803 1687 1804 1918 1915 1799 1914 2028
8 1802 1686 1803 1917 1916 1800 1915 2029
8 1805 1689 1806 1920 1917 1803 1918 2030
8 1806 1690 1807 1921 1918 1804 1919 2031
8 1808 1692 1809 1922 1920 1806 1921 2032
8 1939 1826 1924 2037 1829 1713 1811 1926
8 1926 1811 1925 2039 1813 1697 1812 1928
8 1944 1829 1926 2040 1828 1712 1813 1929
8 1928 1812 1927 2042 1815 1698 1814 1931
8 1929 1813 1928 2043 1816 1699 1815 1932
8 1931 1814 1930 2044 1818 1700 1817 1933
8 1932 1815 1931 2045 1819 1701 1818 1934
8 1934 1818 1933 2046 1821 1704 1820 1935
8 2048 1936 1823 1937 1977 1864 1750 1865
8 1950 1833 1715 1834 2048 1936 1823 1937
8 1938 1824 1751 1866 2049 1937 1865 1978
8 1835 1716 1824 1938 1951 1834 1937 2049
8 1939 1826 1713 1829 2053 1942 1831 1946
8 1940 1827 1923 2035 2053 1942 1826 1939
8 1945 1830 1946 2058 1828 1712 1829 1944
8 2059 1947 1830 1945 1966 1849 1733 1851
8 1947 1832 1730 1849 2060 1948 1848 1965
8 1947 1832 1948 2060 1830 1714 1831 1946
8 1959 1847 1729 1843 2063 1949 1833 1950
8 1952 1843 1725 1836 2064 1950 1834 1951
8 1836 1725 1843 1952 1953 1842 1958 2066
8 1953 1842 1957 2067 1839 1724 1841 1955
8 1841 1955 1838 1723 1956 2068 1954 1840
8 2068 1956 1859 1967 1954 1840 1743 1852
8 1956 1844 1960 2069 1859 1747 1862 1973
8 1845 1957 1841 1727 1960 2069 1956 1844
8 1728 1842 1957 1845 1846 1958 2071 1961
8 1962 2072 1959 1847 1846 1958 1843 1729
8 1971 1861 1964 2077 1857 1746 1848 1965
8 1854 1741 1857 1969 1966 1849 1965 2078
8 1967 1859 1973 2079 1853 1745 1860 1968
8 1970 1858 1744 1856 2080 1972 1860 1968
8 1969 1857 1742 1855 2081 1971 1858 1970
8 1971 1861 1749 1858 2082 1974 1863 1972
8 1973 1862 1975 2083 1860 1748 1863 1972
8 1987 1882 1976 2086 1875 1768 1864 1977
8 1981 1875 1977 2087 1869 1761 1865 1978
8 1980 1877 1763 1868 2088 1986 1874 1979
8 1887 1775 1888 1997 1979 1874 1986 2088
8 1880 1982 2089 1989 1766 1870 1980 1877
8 1984 1876 1987 2090 1872 1762 1875 1981
8 1765 1871 1983 1879 1880 1982 2091 1991
8 1985 1878 1764 1873 2092 1990 1879 1983
8 1985 1878 1988 2093 1873 1764 1876 1984
8 2094 1992 1881 1986 1998 1889 1776 1888
8 1986 1881 1992 2094 1877 1773 1886 1989
8 1988 1883 1993 2095 1876 1769 1882 1987
8 1878 1770 1884 1990 1988 1883 1994 2096
8 1991 1885 1772 1880 2097 1996 1886 1989
8 1879 1771 1885 1991 1990 1884 1995 2098
8 2103 1998 1888 1997 2000 1891 1779 1890
8 2104 1999 1889 1998 2001 1892 1780 1891
8 2003 1894 2001 2106 1893 1782 1891 2000
8 2004 1895 2002 2107 1894 1783 1892 2001
8 2006 1897 2004 2109 1896 1785 1894 2003
8 2007 1898 2005 2110 1897 1786 1895 2004
8 2014 1901 2007 2112 1904 1789 1897 2006
8 2011 1899 2008 2113 1901 1787 1898 2007
8 2119 2010 1899 2011 2013 1900 1787 1901
8 2016 1902 2012 2122 1903 1788 1900 2013
8 2017 1903 2013 2123 1904 1789 1901 2014
8 1906 1791 1905 2019 2016 1902 2015 2125
8 1907 1792 1906 2020 2017 1903 2016 2126
8 1909 1793 1908 2022 2019 1905 2018 2128
8 2020 1906 1794 1910 2129 2019 1909 2023
8 1912 1796 1911 2025 2022 1908 2021 2131
8 1913 1797 1912 2026 2023 1909 2022 2132
8 1915 1799 1914 2028 2025 1911 2024 2134
8 1916 1800 1915 2029 2026 1912 2025 2135
8 1918 1804 1919 2031 2028 1914 2027 2136
8 1917 1803 1918 2030 2029 1915 2028 2137
8 1920 1806 1921 2032 2030 1918 2031 2138
8 1940 1827 1941 2054 2035 1923 2033 2140
8 2035 1923 2034 2143 1939 1826 1924 2037
8 2037 1924 2036 2146 1926 1811 1925 2039
8 2051 1939 2037 2147 1944 1829 1926 2040
8 2039 1925 2038 2149 1928 1812 1927 2042
8 2040 1926 2039 2150 1929 1813 1928 2043
8 2042 1927 2041 2151 1931 1814 1930 2044
8 2043 1928 2042 2152 1932 1815 1931 2045
8 2045 1931 2044 2153 1934 1818 1933 2046
8 2155 2047 1936 2048 2086 1976 1864 1977
8 2063 1949 1833 1950 2155 2047 1936 2048
8 2156 2048 1937 2049 2087 1977 1865 1978
8 2064 1950 1834 1951 2156 2048 1937 2049
8 2051 1939 1829 1944 2160 2053 1946 2058
8 2052 1940 2035 2144 2160 2053 1939 2051
8 2053 1942 1831 1946 2163 2057 1948 2060
8 2055 1943 1827 1940 2163 2057 1942 2053
8 2055 1943 2056 2164 1940 1827 1941 2054
8 2059 1947 1849 1966 2167 2060 1965 2078
8 2059 1947 2060 2167 1945 1830 1946 2058
8 2077 1964 2061 2168 1965 1848 1948 2060
8 2070 1963 1847 1959 2170 2062 1949 2063
8 2065 1959 1843 1952 2171 2063 1950 2064
8 2173 2072 1958 2066 2065 1959 1843 1952
8 1953 1842 1958 2066 2067 1957 2071 2174
8 2068 1956 2069 2175 1967 1859 1973 2079
8 2067 1957 2069 2175 1955 1841 1956 2068
8 1845 1957 2069 1960 1961 2071 2176 2073
8 2069 1960 2073 2176 1973 1862 1975 2083
8 2070 1963 2075 2177 1959 1847 1962 2072
8 1846 1958 2071 1961 1962 2072 2178 2074
8 2077 1964 1861 1971 2182 2076 1974 2082
8 2081 1971 2077 2183 1969 1857 1965 2078
8 2079 1973 2083 2184 1968 1860 1972 2080
8 2081 1971 1858 1970 2185 2082 1972 2080
8 2083 1975 2084 2186 1972 1863 1974 2082
8 2086 1976 1882 1987 2189 2085 1993 2095
8 2090 1987 2086 2190 1981 1875 1977 2087
8 2191 2094 1986 2088 2103 1998 1888 1997
8 2088 1986 2094 2191 1980 1877 1989 2089
8 1991 2091 2192 2097 1880 1982 2089 1989
8 2093 1988 2095 2193 1984 1876 1987 2090
8 1879 1983 2092 1990 1991 2091 2194 2098
8 1985 1878 1990 2092 2093 1988 2096 2195
8 2097 1996 1886 1989 2196 2099 1992 2094
8 2196 2099 1992 2094 2104 1999 1889 1998
8 1994 2096 1988 1883 2100 2197 2095 1993
8 2096 1994 1884 1990 2198 2101 1995 2098
8 1995 2098 2199 2102 1885 1991 2097 1996
8 2203 2104 1998 2103 2106 2001 1891 2000
8 2107 2002 2105 2204 2001 1892 1999 2104
8 2109 2004 2107 2206 2003 1894 2001 2106
8 2110 2005 2108 2207 2004 1895 2002 2107
8 2112 2007 2110 2209 2006 1897 2004 2109
8 2113 2008 2111 2210 2007 1898 2005 2110
8 2120 2011 2113 2212 2014 1901 2007 2112
8 2117 2009 2114 2213 2011 1899 2008 2113
8 2219 2116 2009 2117 2119 2010 1899 2011
8 2222 2118 2010 2119 2122 2012 1900 2013
8 2223 2119 2011 2120 2123 2013 1901 2014
8 2016 1902 2015 2125 2122 2012 2121 2225
8 2126 2016 2122 2226 2017 1903 2013 2123
8 2019 1905 2018 2128 2125 2015 2124 2228
8 2020 1906 2019 2129 2126 2016 2125 2229
8 2022 1908 2021 2131 2128 2018 2127 2231
8 2023 1909 2022 2132 2129 2019 2128 2232
8 2025 1911 2024 2134 2131 2021 2130 2234
8 2026 1912 2025 2135 2132 2022 2131 2235
8 1914 2028 2134 2024 2027 2136 2236 2133
8 2029 1915 2028 2137 2135 2025 2134 2237
8 2030 1918 2031 2138 2137 2028 2136 2238
8 2157 2050 2139 2240 2054 1941 2033 2140
8 2052 1940 2054 2161 2144 2035 2140 2242
8 2140 2033 2141 2243 2035 1923 2034 2143
8 2143 2034 2142 2246 2037 1924 2036 2146
8 2144 2035 2143 2247 2051 1939 2037 2147
8 2146 2036 2145 2249 2039 1925 2038 2149
8 2147 2037 2146 2250 2040 1926 2039 2150
8 2149 2038 2148 2251 2042 1927 2041 2151
8 2150 2039 2149 2252 2043 1928 2042 2152
8 2152 2042 2151 2253 2045 1931 2044 2153
8 2255 2154 2047 2155 2189 2085 1976 2086
8 2170 2062 1949 2063 2255 2154 2047 2155
8 2256 2155 2048 2156 2190 2086 1977 2087
8 2171 2063 1950 2064 2256 2155 2048 2156
8 2258 2159 2050 2157 2164 2056 1941 2054
8 2160 2053 1946 2058 2262 2163 2060 2167
8 2162 2055 1940 2052 2262 2163 2053 2160
8 2162 2055 2164 2263 2052 1940 2054 2161
8 2163 2057 1948 2060 2264 2165 2061 2168
8 2055 1943 2057 2163 2164 2056 2165 2264
8 2182 2076 2166 2268 2077 1964 2061 2168
8 2183 2077 2168 2269 2078 1965 2060 2167
8 2070 1963 2062 2170 2177 2075 2169 2271
8 2172 2070 1959 2065 2272 2170 2063 2171
8 2172 2070 2177 2273 2065 1959 2072 2173
8 2066 1958 2072 2173 2174 2071 2178 2274
8 2067 1957 2071 2174 2175 2069 2176 2275
8 2175 2069 2176 2275 2079 1973 2083 2184
8 2071 1961 2074 2178 2176 2073 2179 2276
8 2176 2073 2179 2276 2083 1975 2084 2186
8 2072 1962 2075 2177 2178 2074 2180 2277
8 2182 2076 1974 2082 2280 2181 2084 2186
8 2183 2077 1971 2081 2281 2182 2082 2185
8 2184 2083 2186 2282 2080 1972 2082 2185
8 2189 2085 1993 2095 2285 2188 2100 2197
8 2190 2086 1987 2090 2286 2189 2095 2193
8 2192 2097 1989 2089 2287 2196 2094 2191
8 2287 2196 2094 2191 2203 2104 1998 2103
8 2194 2098 1991 2091 2288 2199 2097 2192
8 2195 2096 2197 2289 2093 1988 2095 2193
8 2096 2195 2290 2198 1990 2092 2194 2098
8 2097 1996 2099 2196 2199 2102 2200 2291
8 2196 2099 1999 2104 2291 2200 2105 2204
8 2100 2197 2292 2201 1994 2096 2198 2101
8 1995 2098 2198 2101 2102 2199 2293 2202
8 2206 2107 2204 2296 2106 2001 2104 2203
8 2207 2108 2205 2297 2107 2002 2105 2204
8 2209 2110 2207 2299 2109 2004 2107 2206
8 2210 2111 2208 2300 2110 2005 2108 2207
8 2212 2113 2210 2302 2112 2007 2110 2209
8 2213 2114 2211 2303 2113 2008 2111 2210
8 2220 2117 2213 2305 2120 2011 2113 2212
8 2216 2115 2214 2306 2117 2009 2114 2213
8 2216 2115 2009 2117 2311 2217 2116 2219
8 2219 2116 2010 2119 2314 2218 2118 2222
8 2315 2219 2117 2220 2223 2119 2011 2120
8 2122 2012 2121 2225 2222 2118 2221 2317
8 2318 2222 2119 2223 2226 2122 2013 2123
8 2125 2015 2124 2228 2225 2121 2224 2320
8 2126 2016 2125 2229 2226 2122 2225 2321
8 2128 2018 2127 2231 2228 2124 2227 2323
8 2129 2019 2128 2232 2229 2125 2228 2324
8 2131 2021 2130 2234 2231 2127 2230 2326
8 2132 2022 2131 2235 2232 2128 2231 2327
8 2134 2024 2133 2236 2234 2130 2233 2328
8 2135 2025 2134 2237 2235 2131 2234 2329
8 2137 2028 2136 2238 2237 2134 2236 2330
8 2157 2050 2158 2259 2240 2139 2239 2332
8 2257 2157 2240 2334 2161 2054 2140 2242
8 2240 2139 2241 2335 2140 2033 2141 2243
8 2242 2140 2243 2337 2144 2035 2143 2247
8 2243 2141 2244 2338 2143 2034 2142 2246
8 2246 2142 2245 2341 2146 2036 2145 2249
8 2247 2143 2246 2342 2147 2037 2146 2250
8 2249 2145 2248 2343 2149 2038 2148 2251
8 2250 2146 2249 2344 2150 2039 2149 2252
8 2252 2149 2251 2345 2152 2042 2151 2253
8 2169 2271 2347 2254 2062 2170 2255 2154
8 2189 2085 2188 2285 2255 2154 2254 2347
8 2348 2255 2155 2256 2286 2189 2086 2190
8 2272 2170 2063 2171 2348 2255 2155 2256
8 2349 2258 2157 2257 2263 2164 2054 2161
8 2258 2159 2261 2351 2157 2050 2158 2259
8 2258 2159 2056 2164 2351 2261 2165 2264
8 2262 2163 2060 2167 2355 2264 2168 2269
8 2162 2055 2163 2262 2263 2164 2264 2355
8 2357 2266 2165 2264 2268 2166 2061 2168
8 2268 2166 2076 2182 2361 2267 2181 2280
8 2281 2182 2268 2362 2183 2077 2168 2269
8 2271 2169 2270 2364 2177 2075 2180 2277
8 2172 2070 2170 2272 2273 2177 2271 2365
8 2072 2173 2274 2178 2177 2273 2366 2277
8 2071 2174 2275 2176 2178 2274 2367 2276
8 2275 2176 2276 2367 2184 2083 2186 2282
8 2283 2187 2084 2186 2368 2278 2179 2276
8 2178 2074 2180 2277 2276 2179 2278 2368
8 2283 2187 2279 2370 2186 2084 2181 2280
8 2281 2182 2082 2185 2371 2280 2186 2282
8 2188 2285 2374 2284 2100 2197 2292 2201
8 2286 2189 2095 2193 2375 2285 2197 2289
8 2192 2097 2196 2287 2288 2199 2291 2376
8 2287 2196 2104 2203 2376 2291 2204 2296
8 2194 2098 2199 2288 2290 2198 2293 2377
8 2289 2197 2096 2195 2378 2292 2198 2290
8 2291 2200 2105 2204 2379 2294 2205 2297
8 2199 2102 2200 2291 2293 2202 2294 2379
8 2198 2101 2202 2293 2292 2201 2295 2380
8 2299 2207 2297 2383 2206 2107 2204 2296
8 2300 2208 2298 2384 2207 2108 2205 2297
8 2302 2210 2300 2386 2209 2110 2207 2299
8 2303 2211 2301 2387 2210 2111 2208 2300
8 2305 2213 2303 2389 2212 2113 2210 2302
8 2306 2214 2304 2390 2213 2114 2211 2303
8 2310 2216 2306 2392 2220 2117 2213 2305
8 2308 2215 2307 2393 2216 2115 2214 2306
8 2308 2215 2115 2216 2396 2309 2217 2311
8 2310 2216 2117 2220 2398 2311 2219 2315
8 2311 2217 2116 2219 2399 2312 2218 2314
8 2314 2218 2118 2222 2402 2313 2221 2317
8 2315 2219 2119 2223 2403 2314 2222 2318
8 2225 2121 2224 2320 2317 2221 2316 2405
8 2226 2122 2225 2321 2318 2222 2317 2406
8 2228 2124 2227 2323 2320 2224 2319 2408
8 2229 2125 2228 2324 2321 2225 2320 2409
8 2231 2127 2230 2326 2323 2227 2322 2411
8 2232 2128 2231 2327 2324 2228 2323 2412
8 2234 2130 2233 2328 2326 2230 2325 2413
8 2235 2131 2234 2329 2327 2231 2326 2414
8 2237 2134 2236 2330 2329 2234 2328 2415
8 2259 2158 2260 2352 2332 2239 2331 2417
8 2257 2157 2259 2350 2334 2240 2332 2419
8 2240 2139 2239 2332 2335 2241 2333 2420
8 2334 2240 2335 2422 2242 2140 2243 2337
8 2335 2241 2336 2423 2243 2141 2244 2338
8 2337 2243 2338 2425 2247 2143 2246 2342
8 2338 2244 2339 2426 2246 2142 2245 2341
8 2341 2245 2340 2428 2249 2145 2248 2343
8 2342 2246 2341 2429 2250 2146 2249 2344
8 2344 2249 2343 2430 2252 2149 2251 2345
8 2188 2285 2347 2254 2284 2374 2432 2346
8 2347 2254 2346 2432 2271 2169 2270 2364
8 2365 2271 2170 2272 2433 2347 2255 2348
8 2286 2189 2285 2375 2348 2255 2347 2433
8 2349 2258 2351 2435 2257 2157 2259 2350
8 2349 2258 2164 2263 2435 2351 2264 2355
8 2259 2158 2261 2351 2352 2260 2354 2437
8 2356 2265 2354 2437 2264 2165 2261 2351
8 2441 2357 2264 2355 2362 2268 2168 2269
8 2356 2265 2165 2264 2442 2358 2266 2357
8 2443 2359 2266 2357 2361 2267 2166 2268
8 2370 2279 2360 2446 2280 2181 2267 2361
8 2362 2268 2182 2281 2447 2361 2280 2371
8 2180 2277 2368 2278 2270 2364 2449 2363
8 2271 2365 2273 2177 2364 2450 2366 2277
8 2372 2283 2186 2282 2451 2368 2276 2367
8 2178 2274 2367 2276 2277 2366 2451 2368
8 2283 2187 2278 2368 2370 2279 2369 2452
8 2372 2283 2370 2453 2282 2186 2280 2371
8 2284 2374 2455 2373 2201 2292 2380 2295
8 2375 2285 2197 2289 2456 2374 2292 2378
8 2376 2291 2204 2296 2457 2379 2297 2383
8 2288 2199 2291 2376 2377 2293 2379 2457
8 2198 2290 2378 2292 2293 2377 2458 2380
8 2293 2202 2294 2379 2380 2295 2381 2459
8 2384 2298 2381 2459 2297 2205 2294 2379
8 2386 2300 2384 2463 2299 2207 2297 2383
8 2387 2301 2385 2464 2300 2208 2298 2384
8 2389 2303 2387 2466 2302 2210 2300 2386
8 2390 2304 2388 2467 2303 2211 2301 2387
8 2392 2306 2390 2469 2305 2213 2303 2389
8 2393 2307 2391 2470 2306 2214 2304 2390
8 2395 2308 2393 2472 2310 2216 2306 2392
8 2308 2215 2309 2396 2393 2307 2394 2473
8 2395 2308 2216 2310 2475 2396 2311 2398
8 2396 2309 2217 2311 2476 2397 2312 2399
8 2398 2311 2219 2315 2478 2399 2314 2403
8 2399 2312 2218 2314 2479 2400 2313 2402
8 2317 2221 2316 2405 2402 2313 2401 2482
8 2403 2314 2222 2318 2483 2402 2317 2406
8 2320 2224 2319 2408 2405 2316 2404 2485
8 2321 2225 2320 2409 2406 2317 2405 2486
8 2323 2227 2322 2411 2408 2319 2407 2488
8 2324 2228 2323 2412 2409 2320 2408 2489
8 2326 2230 2325 2413 2411 2322 2410 2490
8 2327 2231 2326 2414 2412 2323 2411 2491
8 2329 2234 2328 2415 2414 2326 2413 2492
8 2417 2331 2260 2352 2494 2416 2353 2438
8 2350 2259 2352 2436 2419 2332 2417 2496
8 2332 2239 2331 2417 2420 2333 2418 2497
8 2334 2240 2332 2419 2422 2335 2420 2499
8 2420 2333 2421 2500 2335 2241 2336 2423
8 2422 2335 2423 2502 2337 2243 2338 2425
8 2423 2336 2424 2503 2338 2244 2339 2426
8 2425 2338 2426 2505 2342 2246 2341 2429
8 2426 2339 2427 2506 2341 2245 2340 2428
8 2429 2341 2428 2507 2344 2249 2343 2430
8 2432 2346 2284 2374 2509 2431 2373 2455
8 2432 2346 2431 2509 2364 2270 2363 2449
8 2375 2285 2374 2456 2433 2347 2432 2510
8 2347 2433 2365 2271 2432 2510 2450 2364
8 2350 2259 2351 2435 2436 2352 2437 2514
8 2440 2356 2437 2514 2355 2264 2351 2435
8 2352 2260 2354 2437 2438 2353 2439 2516
8 2356 2265 2358 2442 2437 2354 2439 2516
8 2440 2356 2264 2355 2518 2442 2357 2441
8 2519 2443 2357 2441 2447 2361 2268 2362
8 2443 2359 2444 2520 2357 2266 2358 2442
8 2443 2359 2267 2361 2520 2444 2360 2446
8 2446 2360 2279 2370 2523 2445 2369 2452
8 2453 2370 2446 2524 2371 2280 2361 2447
8 2449 2363 2448 2525 2368 2278 2369 2452
8 2366 2277 2364 2450 2451 2368 2449 2526
8 2372 2283 2368 2451 2453 2370 2452 2527
8 2455 2373 2295 2380 2529 2454 2382 2460
8 2456 2374 2292 2378 2530 2455 2380 2458
8 2377 2293 2379 2457 2458 2380 2459 2531
8 2463 2384 2459 2531 2383 2297 2379 2457
8 2533 2461 2382 2460 2459 2381 2295 2380
8 2464 2385 2461 2533 2384 2298 2381 2459
8 2466 2387 2464 2537 2386 2300 2384 2463
8 2467 2388 2465 2538 2387 2301 2385 2464
8 2469 2390 2467 2540 2389 2303 2387 2466
8 2470 2391 2468 2541 2390 2304 2388 2467
8 2472 2393 2470 2543 2392 2306 2390 2469
8 2393 2307 2394 2473 2470 2391 2471 2544
8 2395 2308 2396 2475 2472 2393 2473 2546
8 2396 2309 2397 2476 2473 2394 2474 2547
8 2475 2396 2311 2398 2549 2476 2399 2478
8 2476 2397 2312 2399 2550 2477 2400 2479
8 2478 2399 2314 2403 2552 2479 2402 2483
8 2479 2400 2313 2402 2553 2480 2401 2482
8 2405 2316 2404 2485 2482 2401 2481 2556
8 2406 2317 2405 2486 2483 2402 2482 2557
8 2408 2319 2407 2488 2485 2404 2484 2559
8 2409 2320 2408 2489 2486 2405 2485 2560
8 2411 2322 2410 2490 2488 2407 2487 2561
8 2412 2323 2411 2491 2489 2408 2488 2562
8 2414 2326 2413 2492 2491 2411 2490 2563
8 2513 2434 2493 2565 2438 2353 2416 2494
8 2496 2417 2352 2436 2567 2494 2438 2515
8 2494 2416 2495 2568 2417 2331 2418 2497
8 2419 2332 2417 2496 2499 2420 2497 2570
8 2497 2418 2498 2571 2420 2333 2421 2500
8 2499 2420 2500 2573 2422 2335 2423 2502
8 2500 2421 2501 2574 2423 2336 2424 2503
8 2502 2423 2503 2576 2425 2338 2426 2505
8 2503 2424 2504 2577 2426 2339 2427 2506
8 2505 2426 2506 2578 2429 2341 2428 2507
8 2509 2431 2373 2455 2580 2508 2454 2529
8 2509 2431 2508 2580 2449 2363 2448 2525
8 2432 2510 2581 2509 2374 2456 2530 2455
8 2432 2510 2450 2364 2509 2581 2526 2449
8 2583 2511 2434 2513 2516 2439 2353 2438
8 2436 2352 2437 2514 2515 2438 2516 2588
8 2440 2356 2442 2518 2514 2437 2516 2588
8 2442 2358 2444 2520 2516 2439 2517 2589
8 2519 2443 2520 2591 2441 2357 2442 2518
8 2519 2443 2361 2447 2591 2520 2446 2524
8 2446 2360 2445 2523 2520 2444 2521 2592
8 2525 2448 2522 2593 2452 2369 2445 2523
8 2524 2446 2370 2453 2594 2523 2452 2527
8 2526 2449 2525 2595 2451 2368 2452 2527
8 2534 2462 2528 2597 2460 2382 2454 2529
8 2530 2455 2380 2458 2598 2529 2460 2532
8 2599 2533 2460 2532 2531 2459 2380 2458
8 2537 2464 2533 2599 2463 2384 2459 2531
8 2534 2462 2382 2460 2601 2535 2461 2533
8 2538 2465 2535 2601 2464 2385 2461 2533
8 2540 2467 2538 2604 2466 2387 2464 2537
8 2541 2468 2539 2605 2467 2388 2465 2538
8 2543 2470 2541 2607 2469 2390 2467 2540
8 2470 2391 2471 2544 2541 2468 2542 2608
8 2472 2393 2473 2546 2543 2470 2544 2610
8 2473 2394 2474 2547 2544 2471 2545 2611
8 2475 2396 2476 2549 2546 2473 2547 2613
8 2476 2397 2477 2550 2547 2474 2548 2614
8 2549 2476 2399 2478 2616 2550 2479 2552
8 2479 2400 2480 2553 2550 2477 2551 2617
8 2552 2479 2402 2483 2619 2553 2482 2557
8 2482 2401 2481 2556 2553 2480 2554 2620
8 2485 2404 2484 2559 2556 2481 2555 2623
8 2486 2405 2485 2560 2557 2482 2556 2624
8 2488 2407 2487 2561 2559 2484 2558 2625
8 2489 2408 2488 2562 2560 2485 2559 2626
8 2491 2411 2490 2563 2562 2488 2561 2627
8 2513 2434 2512 2585 2565 2493 2564 2630
8 2586 2513 2565 2632 2515 2438 2494 2567
8 2565 2493 2566 2633 2494 2416 2495 2568
8 2567 2494 2568 2635 2496 2417 2497 2570
8 2568 2495 2569 2636 2497 2418 2498 2571
8 2570 2497 2571 2638 2499 2420 2500 2573
8 2571 2498 2572 2639 2500 2421 2501 2574
8 2573 2500 2574 2641 2502 2423 2503 2576
8 2574 2501 2575 2642 2503 2424 2504 2577
8 2576 2503 2577 2643 2505 2426 2506 2578
8 2597 2528 2579 2645 2529 2454 2508 2580
8 2580 2508 2579 2645 2525 2448 2522 2593
8 2581 2509 2455 2530 2646 2580 2529 2598
8 2581 2509 2580 2646 2526 2449 2525 2595
8 2583 2511 2582 2648 2513 2434 2512 2585
8 2583 2511 2439 2516 2648 2582 2517 2589
8 2649 2583 2513 2586 2588 2516 2438 2515
8 2589 2517 2444 2520 2653 2587 2521 2592
8 2518 2442 2520 2591 2588 2516 2589 2654
8 2593 2522 2590 2655 2523 2445 2521 2592
8 2524 2446 2523 2594 2591 2520 2592 2656
8 2595 2525 2593 2657 2527 2452 2523 2594
8 2602 2536 2596 2659 2534 2462 2528 2597
8 2600 2534 2597 2660 2532 2460 2529 2598
8 2600 2534 2460 2532 2661 2601 2533 2599
8 2604 2538 2601 2661 2537 2464 2533 2599
8 2602 2536 2462 2534 2663 2603 2535 2601
8 2601 2535 2465 2538 2663 2603 2539 2605
8 2607 2541 2605 2665 2540 2467 2538 2604
8 2608 2542 2606 2666 2541 2468 2539 2605
8 2543 2470 2544 2610 2607 2541 2608 2668
8 2544 2471 2545 2611 2608 2542 2609 2669
8 2546 2473 2547 2613 2610 2544 2611 2671
8 2547 2474 2548 2614 2611 2545 2612 2672
8 2549 2476 2550 2616 2613 2547 2614 2674
8 2550 2477 2551 2617 2614 2548 2615 2675
8 2552 2479 2553 2619 2616 2550 2617 2677
8 2553 2480 2554 2620 2617 2551 2618 2678
8 2557 2482 2556 2624 2619 2553 2620 2680
8 2556 2481 2555 2623 2620 2554 2621 2681
8 2559 2484 2558 2625 2623 2555 2622 2683
8 2560 2485 2559 2626 2624 2556 2623 2684
8 2562 2488 2561 2627 2626 2559 2625 2685
8 2690 2629 2564 2630 2650 2584 2512 2585
8 2586 2513 2585 2651 2632 2565 2630 2691
8 2630 2564 2631 2692 2565 2493 2566 2633
8 2632 2565 2633 2694 2567 2494 2568 2635
8 2633 2566 2634 2695 2568 2495 2569 2636
8 2635 2568 2636 2697 2570 2497 2571 2638
8 2636 2569 2637 2698 2571 2498 2572 2639
8 2638 2571 2639 2700 2573 2500 2574 2641
8 2639 2572 2640 2701 2574 2501 2575 2642
8 2641 2574 2642 2702 2576 2503 2577 2643
8 2597 2528 2596 2659 2645 2579 2644 2704
8 2645 2579 2644 2704 2593 2522 2590 2655
8 2660 2597 2645 2705 2598 2529 2580 2646
8 2646 2580 2645 2705 2595 2525 2593 2657
8 2650 2584 2512 2585 2707 2647 2582 2648
8 2648 2582 2517 2589 2707 2647 2587 2653
8 2649 2583 2648 2708 2586 2513 2585 2651
8 2649 2583 2516 2588 2708 2648 2589 2654
8 2655 2590 2652 2710 2592 2521 2587 2653
8 2654 2589 2520 2591 2711 2653 2592 2656
8 2657 2593 2655 2712 2594 2523 2592 2656
8 2602 2536 2603 2663 2659 2596 2658 2714
8 2662 2602 2659 2715 2600 2534 2597 2660
8 2662 2602 2534 2600 2717 2663 2601 2661
8 2661 2601 2538 2604 2717 2663 2605 2665
8 2666 2606 2664 2718 2605 2539 2603 2663
8 2668 2608 2666 2720 2607 2541 2605 2665
8 2608 2542 2609 2669 2666 2606 2667 2721
8 2610 2544 2611 2671 2668 2608 2669 2723
8 2611 2545 2612 2672 2669 2609 2670 2724
8 2613 2547 2614 2674 2671 2611 2672 2726
8 2614 2548 2615 2675 2672 2612 2673 2727
8 2616 2550 2617 2677 2674 2614 2675 2729
8 2617 2551 2618 2678 2675 2615 2676 2730
8 2619 2553 2620 2680 2677 2617 2678 2732
8 2620 2554 2621 2681 2678 2618 2679 2733
8 2624 2556 2623 2684 2680 2620 2681 2735
8 2681 2621 2555 2623 2736 2682 2622 2683
8 2626 2559 2625 2685 2684 2623 2683 2737
8 2688 2628 2584 2650 2740 2686 2647 2707
8 2688 2628 2687 2742 2650 2584 2629 2690
8 2690 2629 2689 2745 2630 2564 2631 2692
8 2746 2690 2630 2691 2709 2650 2585 2651
8 2691 2630 2692 2747 2632 2565 2633 2694
8 2692 2631 2693 2748 2633 2566 2634 2695
8 2694 2633 2695 2750 2635 2568 2636 2697
8 2695 2634 2696 2751 2636 2569 2637 2698
8 2697 2636 2698 2753 2638 2571 2639 2700
8 2698 2637 2699 2754 2639 2572 2640 2701
8 2700 2639 2701 2755 2641 2574 2642 2702
8 2659 2596 2658 2714 2704 2644 2703 2757
8 2704 2644 2703 2757 2655 2590 2652 2710
8 2660 2597 2659 2715 2705 2645 2704 2758
8 2705 2645 2704 2758 2657 2593 2655 2712
8 2759 2706 2647 2707 2710 2652 2587 2653
8 2709 2650 2585 2651 2760 2707 2648 2708
8 2708 2648 2589 2654 2760 2707 2653 2711
8 2712 2655 2710 2761 2656 2592 2653 2711
8 2763 2713 2658 2714 2718 2664 2603 2663
8 2662 2602 2663 2717 2715 2659 2714 2764
8 2720 2666 2718 2767 2665 2605 2663 2717
8 2768 2719 2664 2718 2721 2667 2606 2666
8 2668 2608 2669 2723 2720 2666 2721 2770
8 2669 2609 2670 2724 2721 2667 2722 2771
8 2671 2611 2672 2726 2723 2669 2724 2773
8 2672 2612 2673 2727 2724 2670 2725 2774
8 2674 2614 2675 2729 2726 2672 2727 2776
8 2675 2615 2676 2730 2727 2673 2728 2777
8 2677 2617 2678 2732 2729 2675 2730 2779
8 2678 2618 2679 2733 2730 2676 2731 2780
8 2680 2620 2681 2735 2732 2678 2733 2782
8 2733 2679 2621 2681 2783 2734 2682 2736
8 2735 2681 2623 2684 2784 2736 2683 2737
8 2740 2686 2647 2707 2787 2738 2706 2759
8 2688 2628 2686 2740 2742 2687 2739 2789
8 2743 2688 2650 2709 2790 2740 2707 2760
8 2742 2687 2741 2792 2690 2629 2689 2745
8 2743 2688 2742 2793 2709 2650 2690 2746
8 2745 2689 2744 2795 2692 2631 2693 2748
8 2746 2690 2745 2796 2691 2630 2692 2747
8 2747 2692 2748 2797 2694 2633 2695 2750
8 2748 2693 2749 2798 2695 2634 2696 2751
8 2750 2695 2751 2800 2697 2636 2698 2753
8 2751 2696 2752 2801 2698 2637 2699 2754
8 2753 2698 2754 2802 2700 2639 2701 2755
8 2763 2713 2756 2804 2714 2658 2703 2757
8 2759 2706 2652 2710 2804 2756 2703 2757
8 2715 2659 2714 2764 2758 2704 2757 2805
8 2758 2704 2757 2805 2712 2655 2710 2761
8 2806 2759 2707 2760 2761 2710 2653 2711
8 2765 2716 2762 2808 2718 2664 2713 2763
8 2809 2763 2714 2764 2767 2718 2663 2717
8 2765 2716 2664 2718 2811 2766 2719 2768
8 2813 2768 2718 2767 2770 2721 2666 2720
8 2814 2769 2719 2768 2771 2722 2667 2721
8 2723 2669 2724 2773 2770 2721 2771 2816
8 2724 2670 2725 2774 2771 2722 2772 2817
8 2726 2672 2727 2776 2773 2724 2774 2819
8 2727 2673 2728 2777 2774 2725 2775 2820
8 2729 2675 2730 2779 2776 2727 2777 2822
8 2730 2676 2731 2780 2777 2728 2778 2823
8 2732 2678 2733 2782 2779 2730 2780 2825
8 2780 2731 2679 2733 2826 2781 2734 2783
8 2782 2733 2681 2735 2827 2783 2736 2784
8 2830 2785 2738 2787 2804 2756 2706 2759
8 2789 2739 2686 2740 2832 2786 2738 2787
8 2790 2740 2707 2760 2833 2787 2759 2806
8 2742 2687 2739 2789 2792 2741 2788 2835
8 2743 2688 2740 2790 2793 2742 2789 2836
8 2792 2741 2791 2838 2745 2689 2744 2795
8 2793 2742 2792 2839 2746 2690 2745 2796
8 2795 2744 2794 2841 2748 2693 2749 2798
8 2796 2745 2795 2842 2747 2692 2748 2797
8 2797 2748 2798 2843 2750 2695 2751 2800
8 2798 2749 2799 2844 2751 2696 2752 2801
8 2800 2751 2801 2845 2753 2698 2754 2802
8 2808 2762 2803 2847 2763 2713 2756 2804
8 2809 2763 2804 2848 2764 2714 2757 2805
8 2806 2759 2710 2761 2848 2804 2757 2805
8 2765 2716 2766 2811 2808 2762 2807 2850
8 2810 2765 2808 2851 2767 2718 2763 2809
8 2810 2765 2718 2767 2852 2811 2768 2813
8 2811 2766 2719 2768 2853 2812 2769 2814
8 2855 2814 2768 2813 2816 2771 2721 2770
8 2856 2815 2769 2814 2817 2772 2722 2771
8 2773 2724 2774 2819 2816 2771 2817 2858
8 2774 2725 2775 2820 2817 2772 2818 2859
8 2776 2727 2777 2822 2819 2774 2820 2861
8 2777 2728 2778 2823 2820 2775 2821 2862
8 2779 2730 2780 2825 2822 2777 2823 2864
8 2823 2778 2731 2780 2865 2824 2781 2826
8 2825 2780 2733 2782 2866 2826 2783 2827
8 2869 2828 2785 2830 2847 2803 2756 2804
8 2871 2829 2786 2832 2830 2785 2738 2787
8 2872 2830 2787 2833 2848 2804 2759 2806
8 2789 2739 2786 2832 2835 2788 2831 2874
8 2836 2789 2740 2790 2875 2832 2787 2833
8 2792 2741 2788 2835 2838 2791 2834 2877
8 2793 2742 2789 2836 2839 2792 2835 2878
8 2838 2791 2837 2880 2795 2744 2794 2841
8 2839 2792 2838 2881 2796 2745 2795 2842
8 2841 2794 2840 2882 2798 2749 2799 2844
8 2842 2795 2841 2883 2797 2748 2798 2843
8 2843 2798 2844 2884 2800 2751 2801 2845
8 2886 2846 2803 2847 2850 2807 2762 2808
8 2851 2808 2847 2887 2809 2763 2804 2848
8 2850 2807 2766 2811 2889 2849 2812 2853
8 2810 2765 2811 2852 2851 2808 2850 2890
8 2852 2811 2768 2813 2891 2853 2814 2855
8 2853 2812 2769 2814 2892 2854 2815 2856
8 2894 2856 2814 2855 2858 2817 2771 2816
8 2817 2772 2818 2859 2856 2815 2857 2895
8 2819 2774 2820 2861 2858 2817 2859 2897
8 2820 2775 2821 2862 2859 2818 2860 2898
8 2822 2777 2823 2864 2861 2820 2862 2900
8 2823 2778 2824 2865 2862 2821 2863 2901
8 2864 2823 2780 2825 2902 2865 2826 2866
8 2904 2867 2828 2869 2886 2846 2803 2847
8 2869 2828 2868 2906 2830 2785 2829 2871
8 2907 2869 2830 2872 2887 2847 2804 2848
8 2871 2829 2870 2909 2832 2786 2831 2874
8 2910 2871 2832 2875 2872 2830 2787 2833
8 2835 2788 2831 2874 2877 2834 2873 2912
8 2836 2789 2832 2875 2878 2835 2874 2913
8 2877 2834 2876 2915 2838 2791 2837 2880
8 2839 2792 2835 2878 2881 2838 2877 2916
8 2880 2837 2879 2917 2841 2794 2840 2882
8 2881 2838 2880 2918 2842 2795 2841 2883
8 2883 2841 2882 2919 2843 2798 2844 2884
8 2921 2885 2846 2886 2889 2849 2807 2850
8 2922 2886 2847 2887 2890 2850 2808 2851
8 2889 2849 2812 2853 2924 2888 2854 2892
8 2890 2850 2811 2852 2925 2889 2853 2891
8 2891 2853 2814 2855 2926 2892 2856 2894
8 2892 2854 2815 2856 2927 2893 2857 2895
8 2858 2817 2859 2897 2894 2856 2895 2929
8 2859 2818 2860 2898 2895 2857 2896 2930
8 2861 2820 2862 2900 2897 2859 2898 2932
8 2862 2821 2863 2901 2898 2860 2899 2933
8 2864 2823 2865 2902 2900 2862 2901 2934
8 2904 2867 2846 2886 2936 2903 2885 2921
8 2904 2867 2903 2936 2869 2828 2868 2906
8 2937 2904 2869 2907 2922 2886 2847 2887
8 2906 2868 2905 2939 2871 2829 2870 2909
8 2907 2869 2906 2940 2872 2830 2871 2910
8 2909 2870 2908 2942 2874 2831 2873 2912
8 2910 2871 2909 2943 2875 2832 2874 2913
8 2912 2873 2911 2945 2877 2834 2876 2915
8 2878 2835 2874 2913 2916 2877 2912 2946
8 2915 2876 2914 2947 2880 2837 2879 2917
8 2916 2877 2915 2948 2881 2838 2880 2918
8 2918 2880 2917 2949 2883 2841 2882 2919
8 2921 2885 2849 2889 2951 2920 2888 2924
8 2952 2921 2886 2922 2925 2889 2850 2890
8 2924 2888 2854 2892 2954 2923 2893 2927
8 2925 2889 2853 2891 2955 2924 2892 2926
8 2926 2892 2856 2894 2956 2927 2895 2929
8 2895 2857 2896 2930 2927 2893 2928 2957
8 2897 2859 2898 2932 2929 2895 2930 2959
8 2898 2860 2899 2933 2930 2896 2931 2960
8 2900 2862 2901 2934 2932 2898 2933 2961
8 2936 2903 2885 2921 2963 2935 2920 2951
8 2936 2903 2935 2963 2906 2868 2905 2939
8 2937 2904 2886 2922 2964 2936 2921 2952
8 2937 2904 2936 2964 2907 2869 2906 2940
8 2939 2905 2938 2966 2909 2870 2908 2942
8 2940 2906 2939 2967 2910 2871 2909 2943
8 2942 2908 2941 2969 2912 2873 2911 2945
8 2943 2909 2942 2970 2913 2874 2912 2946
8 2945 2911 2944 2971 2915 2876 2914 2947
8 2946 2912 2945 2972 2916 2877 2915 2948
8 2948 2915 2947 2973 2918 2880 2917 2949
8 2951 2920 2888 2924 2975 2950 2923 2954
8 2952 2921 2889 2925 2976 2951 2924 2955
8 2927 2893 2928 2957 2954 2923 2953 2978
8 2955 2924 2892 2926 2979 2954 2927 2956
8 2929 2895 2930 2959 2956 2927 2957 2980
8 2930 2896 2931 2960 2957 2928 2958 2981
8 2932 2898 2933 2961 2959 2930 2960 2982
8 2951 2920 2950 2975 2963 2935 2962 2984
8 2963 2935 2962 2984 2939 2905 2938 2966
8 2964 2936 2921 2952 2985 2963 2951 2976
8 2964 2936 2963 2985 2940 2906 2939 2967
8 2966 2938 2965 2987 2942 2908 2941 2969
8 2967 2939 2966 2988 2943 2909 2942 2970
8 2969 2941 2968 2989 2945 2911 2944 2971
8 2970 2942 2969 2990 2946 2912 2945 2972
8 2972 2945 2971 2991 2948 2915 2947 2973
8 2954 2923 2953 2978 2975 2950 2974 2993
8 2976 2951 2924 2955 2994 2975 2954 2979
8 2957 2928 2958 2981 2978 2953 2977 2995
8 2956 2927 2957 2980 2979 2954 2978 2996
8 2959 2930 2960 2982 2980 2957 2981 2997
8 2984 2962 2983 2999 2966 2938 2965 2987
8 2975 2950 2974 2993 2984 2962 2983 2999
8 2976 2951 2975 2994 2985 2963 2984 3000
8 2985 2963 2984 3000 2967 2939 2966 2988
8 2987 2965 2986 3001 2969 2941 2968 2989
8 2988 2966 2987 3002 2970 2942 2969 2990
8 2990 2969 2989 3003 2972 2945 2971 2991
8 2978 2953 2977 2995 2993 2974 2992 3004
8 2979 2954 2978 2996 2994 2975 2993 3005
8 2980 2957 2981 2997 2996 2978 2995 3006
8 2974 2993 2999 2983 2992 3004 3007 2998
8 2983 2999 2987 2965 2998 3007 3001 2986
8 3000 2984 2999 3008 2988 2966 2987 3002
8 2994 2975 2993 3005 3000 2984 2999 3008
8 3002 2987 3001 3009 2990 2969 2989 3003
8 2996 2978 2995 3006 3005 2993 3004 3010
8 3005 2993 3004 3010 3008 2999 3007 3011
8 3008 2999 3007 3011 3002 2987 3001 3009

CELL_TYPES 1910
12
12
12
12
12
12
12
12
12
12
12
12
12
12
12
12
12
12
12
12
12
12
12
12
12
12
12
12
12
12
12
12
12
12
12
12
12
12
12
12
12
12
12
12
12
12
12
12
12
12
12
12
12
12
12
12
12
12
12
12
12
12
12
12
12
12
12
12
12
12
12
12
12
12
12
12
12
12
12
12
12
12
12
12
12
12
12
12
12
12
12
12
12
12
12
12
12
12
12
12
12
12
12
12
12
12
12
12
12
12
12
12
12
12
12
12
12
12
12
12
12
12
12
12
12
12
12
12
12
12
12
12
12
12
12
12
12
12
12
12
12
12
12
12
12
12
12
12
12
12
12
12
12
12
12
12
12
12
12
12
12
12
12
12
12
12
12
12
12
12
12
12
12
12
12
12
12
12
12
12
12
12
12
12
12
12
12
12
12
12
12
12
12
12
12
12
12
12
12
12
12
12
12
12
12
12
12
12
12
12
12
12
12
12
12
12
12
12
12
12
12
12
12
12
12
12
12
12
12
12
12
12
12
12
12
12
12
12
12
12
12
12
12
12
12
12
12
12
12
12
12
12
12
12
12
12
12
12
12
12
12
12
12
12
12
12
12
12
12
12
12
12
12
12
12
12
12
12
12
12
12
12
12
12
12
12
12
12
12
12
12
12
12
12
12
12
12
12
12
12
12
12
12
12
12
12
12
12
12
12
12
12
12
12
12
12
12
12
12
12
12
12
12
12
12
12
12
12
12
12
12
12
12
12
12
12
12
12
12
12
12
12
12
12
12
12
12
12
12
12
12
12
12
12
12
12
12
12
12
12
12
12
12
12
12
12
12
12
12
12
12
12
12
12
12
12
12
12
12
12
12
12
12
12
12
12
12
12
12
12
12
12
12
12
12
12
12
12
12
12
12
12
12
12
12
12
12
12
12
12
12
12
12
12
12
12
12
12
12
12
12
12
12
12
12
12
12
12
12
12
12
12
12
12
12
12
12
12
12
12
12
12
12
12
12
12
12
12
12
12
12
12
12
12
12
12
12
12
12
12
12
12
12
12
12
12
12
12
12
12
12
12
12
12
12
12
12
12
12
12
12
12
12
12
12
12
12
12
12
12
12
12
12
12
12
12
12
12
12
12
12
12
12
12
12
12
12
12
12
12
12
12
12
12
12
12
12
12
12
12
12
12
12
12
12
12
12
12
12
12
12
12
12
12
12
12
12
12
12
12
12
12
12
12
12
12
12
12
12
12
12
12
12
12
12
12
12
12
12
12
12
12
12
12
12
12
12
12
12
12
12
12
12
12
12
12
12
12
12
12
12
12
12
12
12
12
12
12
12
12
12
12
12
12
12
12
12
12
12
12
12
12
12
12
12
12
12
12
12
12
12
12
12
12
12
12
12
12
12
12
12
12
12
12
12
12
12
12
12
12
12
12
12
12
12
12
12
12
12
12
12
12
12
12
12
12
12
12
12
12
12
12
12
12
12
12
12
12
12
12
12
12
12
12
12
12
12
12
12
12
12
12
12
12
12
12
12
12
12
12
12
12
12
12
12
12
12
12
12
12
12
12
12
12
12
12
12
12
12
12
12
12
12
12
12
12
12
12
12
12
12
12
12
12
12
12
12
12
12
12
12
12
12
12
12
12
12
12
12
12
12
12
12
12
12
12
12
12
12
12
12
12
12
12
12
12
12
12
12
12
12
12
12
12
12
12
12
12
12
12
12
12
12
12
12
12
12
12
12
12
12
12
12
12
12
12
12
12
12
12
12
12
12
12
12
12
12
12
12
12
12
12
12
12
12
12
12
12
12
12
12
12
12
12
12
12
12
12
12
12
12
12
12
12
12
12
12
12
12
12
12
12
12
12
12
12
12
12
12
12
12
12
12
12
12
12
12
12
12
12
12
12
12
12
12
12
12
12
12
12
12
12
12
12
12
12
12
12
12
12
12
12
12
12
12
12
12
12
12
12
12
12
12
12
12
12
12
12
12
12
12
12
12
12
12
12
12
12
12
12
12
12
12
12
12
12
12
12
12
12
12
12
12
12
12
12
12
12
12
12
12
12
12
12
12
12
12
12
12
12
12
12
12
12
12
12
12
12
12
12
12
12
12
12
12
12
12
12
12
12
12
12
12
12
12
12
12
12
12
12
12
12
12
12
12
12
12
12
12
12
12
12
12
12
12
12
12
12
12
12
12
12
12
12
12
12
12
12
12
12
12
12
12
12
12
12
12
12
12
12
12
12
12
12
12
12
12
12
12
12
12
12
12
12
12
12
12
12
12
12
12
12
12
12
12
12
12
12
12
12
12
12
12
12
12
12
12
12
12
12
12
12
12
12
12
12
12
12
12
12
12
12
12
12
12
12
12
12
12
12
12
12
12
12
12
12
12
12
12
12
12
12
12
12
12
12
12
12
12
12
12
12
12
12
12
12
12
12
12
12
12
12
12
12
12
12
12
12
12
12
12
12
12
12
12
12
12
12
12
12
12
12
12
12
12
12
12
12
12
12
12
12
12
12
12
12
12
12
12
12
12
12
12
12
12
12
12
12
12
12
12
12
12
12
12
12
12
12
12
12
12
12
12
12
12
12
12
12
12
12
12
12
12
12
12
12
12
12
12
12
12
12
12
12
12
12
12
12
12
12
12
12
12
12
12
12
12
12
12
12
12
12
12
12
12
12
12
12
12
12
12
12
12
12
12
12
12
12
12
12
12
12
12
12
12
12
12
12
12
12
12
12
12
12
12
12
12
12
12
12
12
12
12
12
12
12
12
12
12
12
12
12
12
12
12
12
12
12
12
12
12
12
12
12
12
12
12
12
12
12
12
12
12
12
12
12
12
12
12
12
12
12
12
12
12
12
12
12
12
12
12
12
12
12
12
12
12
12
12
12
12
12
12
12
12
12
12
12
12
12
12
12
12
12
12
12
12
12
12
12
12
12
12
12
12
12
12
12
12
12
12
12
12
12
12
12
12
12
12
12
12
12
12
12
12
12
12
12
12
12
12
12
12
12
12
12
12
12
12
12
12
12
12
12
12
12
12
12
12
12
12
12
12
12
12
12
12
12
12
12
12
12
12
12
12
12
12
12
12
12
12
12
12
12
12
12
12
12
12
12
12
12
12
12
12
12
12
12
12
12
12
12
12
12
12
12
12
12
12
12
12
12
12
12
12
12
12
12
12
12
12
12
12
12
12
12
12
12
12
12
12
12
12
12
12
12
12
12
12
12
12
12
12
12
12
12
12
12
12
12
12
12
12
12
12
12
12
12
12
12
12
12
12
12
12
12
12
12
12
12
12
12
12
12
12
12
12
12
12
12
12
12
12
12
12
12
12
12
12
12
12
12
12
12
12
12
12
12
12
12
12
12
12
12
12
12
12
12
12
12
12
12
12
12
12
12
12
12
12
12
12
12
12
12
12
12
12
12
12
12
12
12
12
12
12
12
12
12
12
12
12
12
12
12
12
12
12
12
12
12
12
12
12
12
12
12
12
12
12
12
12
12
12
12
12
12
12
12
12
12
12
12
12
12
12
12
12
12
12
12
12
12
12
12
12
12
12
12
12
12
12
12
12
12
12
12
12
12
12
12
12
12
12
12
12
12
12
12
12
12
12
12
12
12
12
12
12
12
12
12
12
12
12
12
12
12
12
12
12
12
12
12
12
12
12
12
12
12
12
12
12
12
12
12
12
12
12
12
12
12
12
12
12
12
12
12
12
12
12
12
12
12
12
12
12
12
12
12
12
12
12
12
12
12
12
12
12
12
12
12
12
12
12
12
12
12
12
12
12
12
12
12
12
12
12
12
12
12
12
12
12
12
12
12
12
12
12
12
12
12
12
12
12
12
12
12
12
12
12
12
12
12
12
12
12
12
12
12
12
12
12
12
12
12
12
12
12
12
12
12
12
12
12
12
12
12
12
12
12
12
12
12
12
12
12
12
12
12
12
12
12
12
12
12
12
12
12
12
12
12
12
12
12
12
12
12
12
12
12
12
12
12
12
12
12
12
12
12
12
12
12
12
12
12
12
12
12
12
12
12
12
12
12
12
12
12
12
12
12
12
12
12
12
12
12
12
12
12
12
12
12
12
12
12
12
12
12
12
12
12
12
12
12
12
12
12
12
12
12
12
12
12
12
12
12
12
12
12
12
12
12
12
12
12
12
12
12
12
12
12
12
12
12
12
12
12
12
12
12
12
12
12
12
12
12
12
12
12
12
12
12
12
12
12
12
12
12
12
12
12
12
12
12
12
12
12
12
12
12
12
12
12
12
12
12
12
12
12
12
12
12
12
12
12
12
12
12
12
12
12

POINT_DATA 3012
SCALARS Jp_lamdaP float 4
LOOKUP_TABLE default
0.999751 1 1 0.999751
1 1 1 1
0.999759 1 1 0.999759
0.9997 1 1 0.9997
0.999752 1 1 0.999752
0.999738 1 1 0.999738
0.999041 1 1 0.999041
1 1 1 1
1 1 1 1
1 1 1 1
0.999825 1 1 0.999825
0.999173 1 1 0.999173
0.999679 1 1 0.999679
0.999698 1 1 0.999698
0.99976 1 1 0.99976
0.999722 1 1 0.999722
0.999744 1 1 0.999744
0.999766 1 1 0.999766
0.999043 1 1 0.999043
1 1 1 1
0.999679 1 1 0.999679
0.999731 1 1 0.999731
0.998911 1 1 0.998911
0.999015 1 1 0.999015
0.99975 1 1 0.99975
0.999063 1 1 0.999063
1.0061 1.00818 1 0.997941
1 1 1 1
0.999865 1 1 0.999865
0.999879 1 1 0.999879
1 1 1 1
0.999182 1 1 0.999182
0.999724 1 1 0.999724
0.99975 1 1 0.99975
0.999164 1 1 0.999164
1 1 1 1
0.999249 1 1 0.999249
0.999274 1 1 0.999274
1.00061 1.00267 1 0.99794
1 1 1 1
1 1 1 1
0.999848 1 1 0.999848
1 1 1 1
0.999697 1 1 0.999697
0.998838 1 1 0.998838
1 1 1 1
0.999064 1 1 0.999064
0.999741 1 1 0.999741
0.999775 1 1 0.999775
0.999745 1 1 0.999745
0.999049 1 1 0.999049
0.999832 1 1 0.999832
0.9997 1 1 0.9997
0.999762 1 1 0.999762
0.99975 1 1 0.99975
0.99891 1 1 0.99891
0.999067 1 1 0.999067
0.999017 1 1 0.999017
1.00653 1.00862 1 0.997926
1 1 1 1
0.999675 1 1 0.999675
0.999067 1 1 0.999067
0.998877 1 1 0.998877
0.998965 1 1 0.998965
1.00942 1.01179 1 0.997655
1.00756 1.00981 1 0.997778
0.999812 1 1 0.999812
0.999172 1 1 0.999172
1.00368 1.00566 1 0.998038
1.02082 1.0238 1 0.997086
1 1 1 1
1 1 1 1
1 1 1 1
0.99919 1 1 0.99919
1 1 1 1
1 1 1 1
0.999028 1 1 0.999028
0.999942 1 1 0.999942
0.999133 1 1 0.999133
0.999364 1 1 0.999364
0.999948 1.00201 1 0.997937
1 1 1 1
1.00057 1 1.00071 0.999857
0.998957 1 1 0.998957
0.999063 1 1 0.999063
1.00972 1.01224 1 0.997514
0.999669 1 1.00009 0.999575
1.00397 1.00614 1 0.997839
0.998788 1.00071 1 0.998084
1.00483 1.00757 1 0.997277
1 1 1 1
1 1 1 1
1 1 1 1
1 1 1 1
1 1 1 1
0.999846 1 1 0.999846
0.998946 1 1 0.998946
0.999851 1 1 0.999851
0.998991 1 1 0.998991
1 1 1 1
0.99884 1 1 0.99884
0.999047 1 1 0.999047
1.0087 1.01145 1 0.997275
0.9991 1 1 0.9991
1.01106 1.01376 1 0.997334
0.9997 1 1 0.9997
0.999719 1 1 0.999719
0.999772 1 1 0.999772
0.999766 1 1 0.999766
0.99891 1 1 0.99891
0.999021 1 1 0.999021
0.999073 1 1 0.999073
1.00694 1.00905 1 0.997911
1 1 1 1
0.999694 1 1 0.999694
0.998867 1 1 0.998867
0.998873 1 1 0.998873
0.999906 1 1 0.999906
0.99924 1 1 0.99924
0.998966 1 1 0.998966
1.00937 1.01178 1 0.997614
1.00435 1.00635 1 0.99802
1.00782 1.01003 1 0.997808
1.02072 1.0237 1 0.997092
0.998863 1 1 0.998863
0.998864 1 1 0.998864
1.00777 1.01031 1 0.997485
1.00937 1.01185 1 0.997546
1.00903 1.01139 1 0.997667
1.02943 1.03257 1 0.996956
1 1 1 1
1.02366 1.0267 1 0.997039
0.99959 1 1.0002 0.999394
1.00042 1.00238 1 0.998038
1.01737 1.0203 1 0.997133
1.02948 1.03268 1 0.9969
1.00077 1 1.0011 0.999669
1.00442 1 1.00569 0.998734
1 1 1 1
1 1 1 1
0.999034 1 1 0.999034
1 1 1 1
0.999338 1 1 0.999338
0.999139 1 1 0.999139
0.999133 1.0012 1 0.997934
1 1 1 1
1.00018 1 1.0003 0.999879
0.999047 1 1 0.999047
0.999146 1 1 0.999146
1.00911 1.01162 1 0.997516
0.999789 1 1.00024 0.999552
1.00291 1.00508 1 0.997842
0.998459 1.00038 1 0.998082
1.00483 1.00759 1 0.997261
1.00042 1 1.0007 0.999715
0.999943 1 1 0.999943
1.00159 1 1.00261 0.998987
1.01117 1.0138 1 0.997407
1.00733 1.00968 1 0.997677
1.0256 1.02879 1 0.996901
0.998594 1 1.00025 0.998344
1.01215 1.015 1 0.997191
1.00297 1.00505 1.00057 0.997368
1.0127 1.01566 1 0.997088
1 1 1 1
1 1 1 1
1 1 1 1
0.999993 1 1.00021 0.999781
1 1 1 1
1 1 1 1
1 1 1 1
0.998917 1 1 0.998917
0.998869 1 1 0.998869
1 1 1 1
1 1 1 1
0.998842 1 1 0.998842
0.998973 1 1 0.998973
1.00908 1.01184 1 0.997275
0.99894 1 1 0.99894
1.01127 1.01397 1 0.997333
0.998836 1 1 0.998836
1.00765 1.01045 1 0.997234
1.0099 1.01262 1 0.997315
1.03179 1.03508 1 0.996827
1.01155 1.01424 1 0.997354
1.03455 1.03781 1 0.996856
1 1 1 1
0.999714 1 1 0.999714
0.998647 1 1 0.998647
0.99887 1 1 0.99887
1 1 1 1
0.999311 1 1 0.999311
0.998969 1 1 0.998969
1.00929 1.01175 1 0.997573
1.00809 1.01028 1 0.997838
1.00503 1.00704 1 0.998002
1.02061 1.02358 1 0.997098
0.998861 1 1 0.998861
0.99886 1 1 0.99886
1.00762 1.01028 1 0.997372
1.00935 1.0118 1 0.997573
1 1 1 1
0.999496 1 1.00008 0.999417
1.00146 1.00336 1 0.998106
1.00898 1.01134 1 0.997664
1.02934 1.03251 1 0.996929
1.01672 1.01966 1 0.997123
1.02386 1.02686 1 0.997075
1.02907 1.03226 1 0.996908
1.00094 1 1.00128 0.999658
1.00366 1 1.00493 0.998736
1.00714 1.00991 1 0.997256
1.00817 1.01067 1 0.997523
1.02989 1.03309 1 0.996909
1.02992 1.03315 1 0.99688
1.02637 1.02942 1 0.997042
1.03903 1.04222 1 0.996942
1.00046 1 1.00093 0.999536
1.03173 1.03489 1 0.99694
0.998744 1.00042 1.00011 0.998215
1.01017 1.01297 1 0.997236
1.02706 1.03027 1 0.996888
1.03097 1.03405 1 0.997015
1.00301 1 1.00449 0.998534
1.00101 1 1.00203 0.998986
1.00334 1 1.00525 0.998099
0.998982 1 1 0.998982
1 1 1 1
0.9999 1 1 0.9999
0.999094 1 1 0.999094
1.00849 1.011 1 0.997517
0.999926 1 1.00037 0.999557
0.998264 1.00014 1.00004 0.998081
1.0019 1.00406 1 0.997846
1.00524 1.00801 1 0.997245
1.00032 1 1.00059 0.999736
0.999956 1 1 0.999956
1.00193 1 1.00294 0.998989
1.01082 1.01344 1 0.997406
1.00641 1.00875 1 0.997681
1.02572 1.02891 1 0.996897
0.998631 1 1.00028 0.998347
1.01306 1.0159 1 0.997199
1.00237 1.00454 1.00047 0.997363
1.01351 1.01649 1 0.997076
0.999982 1 1 0.999982
1.00033 1 1.00169 0.998644
1.00063 1 1.0013 0.999325
1.00219 1 1.00385 0.99835
1.02978 1.03305 1 0.996843
1.02 1.02303 1 0.997045
1.03235 1.03569 1 0.996777
1.00041 1.00226 1.00049 0.997669
1.02048 1.0235 1 0.997044
1.01132 1.01273 1.00158 0.997034
1.02245 1.02557 1 0.996962
0.999759 1 1 0.999759
0.999999 1 1 0.999999
1 1 1 1
1 1 1 1
1 1 1 1
0.999873 1 1 0.999873
1 1 1 1
1.00043 1 1.00067 0.999768
1 1 1 1
0.998941 1 1 0.998941
0.998896 1 1 0.998896
1.01158 1.01428 1 0.997333
1.00944 1.01219 1 0.997275
0.998844 1 1 0.998844
1 1 1 1
0.998835 1 1 0.998835
1.00793 1.01073 1 0.997234
1.0103 1.01302 1 0.997315
1.03155 1.03483 1 0.996825
1.01158 1.01426 1 0.997352
1.03443 1.03769 1 0.996854
1.00703 1.00983 1 0.997229
1.03062 1.03394 1 0.996791
1.03345 1.03671 1 0.996852
1.04478 1.04824 0.999691 0.997006
1.03358 1.03685 1 0.996844
1.0439 1.04709 1 0.996948
0.998858 1 1 0.998858
0.998856 1 1 0.998856
1.00749 1.01026 1 0.997258
1.00934 1.01177 1 0.9976
1 1 1 1
0.99944 1 1 0.99944
1.0024 1.00424 1 0.998173
1.00892 1.01129 1 0.997661
1.02928 1.03247 1 0.996901
1.02401 1.02698 1 0.99711
1.01609 1.01903 1 0.997114
1.02879 1.03197 1 0.996916
1.00113 1 1.00148 0.999647
1.00312 1 1.00438 0.998738
1.00706 1.00985 1 0.997233
1.00816 1.01067 1 0.997518
1.02985 1.03303 1 0.99692
1.0301 1.0333 1 0.996904
1.00025 1 1.00072 0.999525
0.999217 1.00094 1.00006 0.998213
1.01035 1.01311 1 0.997271
1.02668 1.02973 1 0.997032
1.03908 1.04224 1 0.996971
1.0265 1.02973 1 0.99686
1.03176 1.03492 1 0.996945
1.03121 1.0343 1 0.997014
1.00231 1 1.00378 0.998536
1.00353 1 1.00543 0.998101
1.0017 1 1.00272 0.998983
1.02927 1.03251 1 0.996867
1.03047 1.03363 1 0.99694
1.04383 1.04717 0.999849 0.996964
1.04059 1.04378 1 0.996941
1.03467 1.0378 1 0.996981
1.03709 1.0403 0.999692 0.997219
0.998973 1 1.00058 0.99839
1.03313 1.03613 1 0.997109
1.00242 1.00488 1 0.997556
1.01811 1.02136 1 0.996818
1.02772 1.03103 1 0.996787
1.02702 1.02987 1 0.997232
0.99985 1 1.00063 0.999217
0.998711 1.00002 1.00067 0.998025
1.00602 1 1.00779 0.998237
1.00064 1.00011 1.00266 0.997883
1.01048 1.01311 1 0.997405
0.999969 1 1 0.999969
1.00012 1 1.00036 0.999758
1.00209 1 1.0031 0.998991
1.00549 1.00782 1 0.997686
1.02582 1.02902 1 0.996893
0.998598 1 1.00025 0.998351
1.00125 1.00357 1.00033 0.997358
1.01389 1.01673 1 0.997206
1.01378 1.01676 1 0.997064
0.999987 1 1 0.999987
1.00091 1 1.00227 0.998645
1.00017 1 1.00084 0.999334
1.00272 1 1.00438 0.998344
1.0297 1.03296 1 0.996838
1.02009 1.02312 1 0.997045
1.03209 1.03543 1 0.996774
0.999506 1.00138 1.00045 0.997675
1.0204 1.02342 1 0.997052
1.01108 1.01235 1.00173 0.997023
1.02248 1.02552 1 0.997036
0.999996 1 1 0.999996
0.999552 1 1 0.999552
0.999727 1.00031 1.00138 0.998041
1.00212 1 1.00346 0.998666
1.00063 1 1.00259 0.998046
1.03656 1.03989 1 0.996796
1.0265 1.02971 1 0.996885
1.02906 1.0323 1 0.996858
1.00501 1.00574 1.00199 0.997289
1.02049 1.02355 1 0.99701
1.01309 1.0155 1.00086 0.996765
0.999729 1 1 0.999729
0.999267 1 1 0.999267
0.99978 1 1 0.99978
0.99976 1 1 0.99976
1 1 1 1
1 1 1 1
1 1 1 1
1 1 1 1
1 1 1 1
0.999945 1 1 0.999945
1 1 1 1
0.999858 1 1 0.999858
1 1 1 1
1.00082 1 1.00107 0.999754
1 1 1 1
1.01155 1.01424 1 0.99735
1.01063 1.01335 1 0.997314
1.03408 1.03734 1 0.996851
1.03128 1.03457 1 0.996823
1.00828 1.01108 1 0.997235
0.998834 1 1 0.998834
1.00721 1.01001 1 0.997229
1.03035 1.03367 1 0.996791
1.0332 1.03646 1 0.99685
1.04445 1.04818 0.99941 0.997024
1.03294 1.03622 1 0.99684
1.04355 1.04674 1 0.996946
1.0296 1.03292 1 0.996782
1.04314 1.04734 0.998961 0.997025
1.04561 1.04884 0.999924 0.996989
1.04338 1.04929 0.997126 0.997235
1.03961 1.04287 1 0.996877
1.0425 1.04651 0.998896 0.997267
1.00703 1.00984 1 0.99721
1.00817 1.01068 1 0.997514
1.02983 1.033 1 0.996931
1.03025 1.03343 1 0.996929
1.00003 1 1.00052 0.999514
0.999684 1.00148 1 0.99821
1.01076 1.01349 1 0.997306
1.027 1.03007 1 0.997022
1.03915 1.04228 1 0.997001
1.03181 1.03497 1 0.996949
1.02578 1.02904 1 0.996833
1.03147 1.03456 1 0.997013
1.00159 1 1.00305 0.998539
1.00374 1 1.00565 0.998104
1.00218 1 1.0032 0.998981
1.02931 1.03258 1 0.996836
1.03067 1.03384 1 0.996938
1.04339 1.04684 0.999708 0.996997
1.04076 1.04396 1 0.996934
0.999141 1.00007 1.00068 0.998388
1.00388 1.00635 1 0.99755
1.01684 1.02001 1.00003 0.996866
1.03494 1.03809 1 0.996962
1.03717 1.04035 0.999679 0.997266
1.02805 1.0314 1 0.996751
1.03281 1.0358 1 0.997112
1.02753 1.03035 1 0.997264
0.999405 1.00021 1.00117 0.998026
1.00083 1.00021 1.00277 0.99786
1.00021 1 1.001 0.999213
1.00557 1 1.00732 0.998271
1.0434 1.04694 0.999653 0.996973
1.04306 1.04636 0.999867 0.996975
1.04068 1.04659 0.997194 0.997149
1.03793 1.04295 0.997898 0.997283
1.03505 1.03796 0.999979 0.997215
1.03394 1.0388 0.997865 0.997447
0.998759 1.00091 1 0.997847
1.02836 1.03118 0.999827 0.997442
1.00779 1.0107 1 0.997125
1.0179 1.02119 1.00018 0.996597
1.02913 1.03248 1 0.996747
1.02764 1.03042 1 0.997302
0.999397 1 1 0.999397
1.00321 1 1.00473 0.998482
0.998409 1.00062 1 0.997791
1.00381 1 1.00583 0.997991
1.0004 1.00042 1.00217 0.997821
0.999992 1 1 0.999992
1.02955 1.03282 1 0.996833
0.999721 1 1.00038 0.999342
1.00169 1 1.00305 0.998646
1.00337 1 1.00504 0.998339
1.02022 1.02324 1 0.997044
1.03186 1.0352 1 0.996771
0.998787 1.0006 1.00051 0.997681
1.01181 1.01288 1.00193 0.997012
1.02042 1.02342 1 0.997059
1.02279 1.02576 1 0.997109
0.999997 1 1 0.999997
0.999561 1 1 0.999561
0.999321 1.00013 1.00115 0.998043
1.00255 1 1.00389 0.998666
1.00093 1 1.00291 0.998025
1.03654 1.03988 1 0.99679
1.02657 1.02978 1 0.996884
1.02899 1.03224 1 0.996847
1.00413 1.00471 1.00213 0.997295
1.02305 1.02611 1 0.997011
1.01306 1.01536 1.00096 0.996784
0.999672 1 1 0.999672
0.999788 1 1.00082 0.998965
0.99969 1.0015 1.00048 0.997713
1.00362 1 1.00532 0.998303
0.999668 1.00005 1.00168 0.997951
1.03399 1.03715 1 0.99695
1.02391 1.02709 1 0.996905
1.02781 1.03085 1 0.997053
1.00256 1.00168 1.00379 0.997101
1.01126 1.01462 1 0.996686
0.999732 1 1 0.999732
0.999196 1 1 0.999196
0.999243 1 1 0.999243
0.999005 1 1 0.999005
0.99928 1 1 0.99928
0.99979 1 1 0.99979
0.999782 1 1 0.999782
1 1 1 1
0.999762 1 1 0.999762
1 1 1 1
1 1 1 1
1 1 1 1
1 1 1 1
1 1 1 1
0.999987 1 1 0.999987
0.999929 1 1 0.999929
1 1 1 1
1 1 1 1
0.999844 1 1 0.999842
1 1 1 1
1.03242 1.0357 1 0.996837
1.03316 1.03643 1 0.996848
1.04333 1.04653 1 0.996943
1.04418 1.04819 0.999129 0.997042
1.02999 1.03331 1 0.996791
1.0073 1.0101 1 0.997229
1.02945 1.03277 1 0.996783
1.04318 1.04729 0.999053 0.997019
1.04518 1.0484 0.999939 0.996989
1.04278 1.04916 0.99664 0.997268
1.04033 1.04359 1 0.996871
1.04205 1.0464 0.998551 0.997289
1.04299 1.04696 0.999215 0.996993
1.04185 1.04839 0.996549 0.997207
1.04218 1.04814 0.996982 0.997318
1.03971 1.04834 0.994357 0.997397
1.03936 1.04247 0.999884 0.997132
1.03989 1.04631 0.99636 0.997496
1.02923 1.03253 1 0.996805
1.03085 1.03402 1 0.996935
1.04289 1.04647 0.999552 0.997031
1.04088 1.04409 1 0.996927
0.999367 1.0002 1.00078 0.998386
1.00512 1.00759 1 0.997544
1.01555 1.01851 1.00018 0.996913
1.0352 1.03838 1 0.996943
1.03718 1.04036 0.999632 0.997314
1.03243 1.03542 1 0.997116
1.02845 1.03184 1 0.996715
1.02766 1.03044 1 0.997296
1.00014 1.00043 1.00169 0.998028
1.00112 1.00038 1.0029 0.997836
1.00058 1 1.00138 0.999208
1.0047 1 1.0064 0.998306
1.04327 1.0468 0.999651 0.996973
1.04277 1.04603 0.999927 0.996952
1.0406 1.04653 0.997149 0.997182
1.03841 1.04301 0.998325 0.997265
0.99966 1.00183 1 0.997839
1.00675 1.00957 1.00003 0.99717
1.01849 1.02158 1.00039 0.996587
1.03442 1.03738 0.999979 0.997171
1.03327 1.03814 0.997798 0.997505
1.02703 1.0304 1 0.996733
1.02945 1.03221 0.999881 0.997444
1.02843 1.03115 1 0.997356
0.998972 1.00119 1 0.997789
0.999956 1.00068 1.00146 0.997827
1.00431 1 1.00634 0.997984
0.999533 1 1.00017 0.99936
1.00288 1 1.00437 0.998515
1.04041 1.04751 0.996015 0.997196
1.03899 1.04555 0.996483 0.997234
1.03413 1.0424 0.994561 0.997492
1.03044 1.0353 0.997778 0.997514
1.00082 1.00327 1 0.997555
1.03323 1.03603 0.999674 0.99762
1.00499 1.00786 1.00029 0.996867
1.0164 1.01958 1.00051 0.996377
1.02479 1.02816 1 0.996725
0.999507 1 1 0.999507
1.00081 1 1.00203 0.998789
1.00332 1 1.00509 0.99824
0.999609 1.00189 1 0.997723
1.00409 1 1.00635 0.997754
0.999619 1.00091 1.001 0.99771
0.999998 1 1 0.999998
0.999569 1 1 0.999569
1.03654 1.03989 1 0.996784
1.00312 1 1.00446 0.998666
0.998779 1 1.00074 0.998045
1.00141 1 1.00342 0.998004
1.02653 1.02974 1 0.996882
1.02874 1.03201 1 0.996835
1.00294 1.00336 1.00229 0.9973
1.01219 1.01465 1.00077 0.996803
1.02552 1.0286 1 0.997012
0.999677 1 1 0.999677
0.999601 1 1.00063 0.998969
0.999188 1.00107 1.00041 0.99771
1.00458 1 1.00629 0.998299
0.999627 1.00001 1.00166 0.997952
1.03401 1.03718 1 0.996943
1.0242 1.02739 1 0.996894
1.02752 1.03053 1 0.997079
1.00301 1.00271 1.00324 0.997061
1.01014 1.01347 1.00006 0.996657
0.999153 1 1 0.999153
1.0029 1 1.00436 0.998544
1.00151 1.00193 1.002 0.997588
1.00287 1 1.00483 0.998053
0.999352 1.00051 1.001 0.997847
1.03414 1.03714 0.999697 0.997415
1.02263 1.0259 1 0.996809
1.02392 1.0269 1 0.997091
1.00449 1.00326 1.00433 0.996907
1.00276 1.00631 1 0.996469
0.999735 1 1 0.999735
0.999214 1 1 0.999214
0.998925 1 1 0.998925
0.99922 1 1 0.99922
0.999279 1 1 0.999279
0.998974 1 1 0.998974
0.998848 1 1 0.998848
0.998925 1 1 0.998925
0.999288 1 1 0.999288
0.999785 1 1 0.999785
0.99979 1 1 0.99979
1 1 1 1
0.999783 1 1 0.999783
1 1 1 1
1 1 1 1
1 1 1 1
1 1 1 1
1 1 1 1
1 1 1 1
0.999977 1 1 0.999977
1 1 1 1
0.999913 1 1 0.999913
1 1 1 1
1 1 1 1
1.04099 1.04427 1 0.996864
1.04458 1.04778 0.999955 0.996988
1.04161 1.04631 0.998201 0.997311
1.04212 1.04899 0.996142 0.9973
1.04325 1.04726 0.99916 0.997013
1.02945 1.03277 1 0.996783
1.04318 1.04697 0.999405 0.996973
1.0422 1.04845 0.996833 0.9972
1.04236 1.04808 0.997231 0.997301
1.03903 1.04803 0.993986 0.997409
1.03877 1.04183 0.999934 0.997132
1.03839 1.0454 0.99575 0.997538
1.04191 1.04812 0.996881 0.997182
1.04029 1.04947 0.993851 0.997391
1.03967 1.04921 0.993386 0.997503
1.03656 1.04302 0.996223 0.997571
1.04323 1.04676 0.999649 0.996973
1.04253 1.04574 1 0.99693
1.04056 1.04646 0.997146 0.997214
1.03897 1.04314 0.998758 0.997248
1.00058 1.00275 1 0.997832
1.00575 1.00856 1 0.997215
1.01896 1.02186 1.00058 0.996577
1.03378 1.03676 1 0.997127
1.03261 1.03747 0.997752 0.997562
1.03073 1.03344 0.999934 0.997445
1.02534 1.02871 1 0.996719
1.03012 1.0328 1 0.99741
0.999462 1.00168 1 0.997787
0.999358 1.00084 1.00069 0.997831
1.00567 1 1.00771 0.997977
0.999678 1 1.00035 0.999324
1.00277 1 1.00423 0.998548
1.04091 1.04794 0.99609 0.997198
1.03916 1.04574 0.996463 0.997229
1.03397 1.04172 0.995058 0.997482
1.00142 1.00388 1 0.997548
1.00531 1.00816 1.00026 0.996912
1.0154 1.01833 1.00076 0.996365
1.03096 1.03576 0.997851 0.997501
1.02604 1.02931 1 0.996821
1.03016 1.03319 0.999483 0.997591
0.999531 1 1 0.999531
1.00023 1.00252 1 0.997711
0.998788 1.00044 1.00051 0.997836
1.00489 1 1.00717 0.99774
1.00351 1 1.00526 0.998259
1.00076 1 1.002 0.998756
1.03837 1.04786 0.993644 0.997282
1.03683 1.04854 0.991398 0.997412
1.02833 1.04012 0.991066 0.997578
1.03155 1.03932 0.99479 0.997719
1.00239 1.00504 1 0.997366
1.02485 1.02771 1 0.997217
1.00347 1.0054 1.00165 0.996442
1.0084 1.01118 1.00104 0.996214
0.999702 1 1 0.999702
0.999237 1 1.00021 0.999025
1.00147 1 1.00301 0.998463
1.00462 1 1.00675 0.997881
1.00054 1.00266 1.00034 0.997552
1.0058 1.00015 1.00815 0.997527
0.999682 1 1 0.999682
0.99929 1 1.00032 0.998972
1.03424 1.03742 1 0.996936
1.00499 1 1.00671 0.998294
0.998542 1.00057 1.00027 0.997706
0.999475 1 1.00152 0.997954
1.02476 1.02796 1 0.996883
1.02759 1.03057 1 0.997106
1.00373 1.00399 1.00273 0.997022
1.00903 1.01217 1.00027 0.996628
0.999156 1 1 0.999156
1.00291 1 1.00437 0.998543
1.00136 1.00178 1.00198 0.997597
1.00269 1 1.00464 0.998061
0.998868 1.00046 1.00048 0.997935
1.03479 1.038 0.999451 0.997458
1.02204 1.02529 1 0.996823
1.02546 1.02838 1 0.997164
1.00396 1.00251 1.00458 0.99687
1.00333 1.00692 1.00003 0.996408
0.998953 1 1.00012 0.998828
1.00395 1 1.00579 0.998176
1.00333 1.0021 1.00378 0.997453
0.999597 1.00027 1.00161 0.997728
1.03391 1.04935 0.987547 0.997707
1.02823 1.03094 0.99986 0.997511
1.01309 1.01658 1 0.996563
1.00438 1.00364 1.00426 0.996489
0.999233 1 1 0.999233
0.998937 1 1 0.998937
0.998831 1 1 0.998831
0.999278 1 1 0.999278
0.998943 1 1 0.998943
0.999286 1 1 0.999286
0.99884 1 1 0.99884
0.998938 1 1 0.998938
0.998806 1 1 0.998806
0.998756 1 1 0.998756
0.998891 1 1 0.998891
0.99927 1 1 0.99927
0.999768 1 1 0.999768
0.999784 1 1 0.999784
1 1 1 1
0.99979 1 1 0.99979
1 1 1 1
1 1 1 1
1 1 1 1
1 1 1 1
1 1 1 1
1 1 1 1
0.999997 1 1 0.999997
1 1 1 1
0.999968 1 1 0.999968
1 1 1 1
1 1 1 1
1.03809 1.04108 1 0.997132
1.04257 1.04807 0.997464 0.997284
1.03694 1.04453 0.995149 0.99758
1.0384 1.04778 0.993607 0.997422
1.04257 1.04853 0.997117 0.997192
1.04328 1.04691 0.999578 0.996953
1.04176 1.04806 0.996797 0.997181
1.04001 1.04905 0.993994 0.997382
1.03889 1.04851 0.993308 0.997503
1.03818 1.04437 0.99649 0.997579
1.0407 1.04938 0.994384 0.997334
1.04127 1.05451 0.989871 0.99755
1.0412 1.05304 0.991105 0.997631
1.04139 1.04836 0.996146 0.997201
1.03927 1.04591 0.996415 0.997224
1.03386 1.04104 0.995622 0.997473
1.00206 1.00453 1 0.997541
1.00533 1.00822 1.00018 0.996956
1.01424 1.01709 1.00085 0.996354
1.03146 1.03621 0.997921 0.997488
1.02674 1.02991 0.999353 0.997561
1.02647 1.02965 1 0.996917
1.00034 1.00265 1 0.997699
0.997969 1.00001 1 0.997962
1.00539 1 1.00768 0.997727
0.999556 1 1 0.999556
1.00288 1 1.00461 0.998279
1.00066 1 1.00194 0.998724
1.03902 1.04829 0.993848 0.997289
1.03644 1.04843 0.991121 0.99742
1.02849 1.03969 0.991633 0.99757
1.00139 1.00404 1 0.997356
1.00332 1.00542 1.0014 0.996523
1.00848 1.01134 1.0009 0.996276
1.03171 1.03911 0.995148 0.997725
1.02416 1.02729 0.999751 0.9972
0.999754 1 1 0.999754
0.999175 1 1.00015 0.999024
0.999048 1.00145 1 0.997602
1.00802 1.00035 1.01003 0.997654
1.00453 1 1.00663 0.997917
1.00133 1 1.0029 0.998435
1.03886 1.05192 0.990092 0.997471
1.02902 1.04753 0.984751 0.997536
1.02631 1.03981 0.989228 0.997767
1.02177 1.02975 0.994497 0.997741
1.00147 1.00354 1.00091 0.997035
1.00707 1.00925 1.0014 0.996453
1.00285 1.00399 1.00264 0.996233
0.999875 1 1 0.999875
0.999436 1 1 0.999436
0.999197 1 1 0.999197
0.999219 1 1.00061 0.998606
1.00196 1 1.00383 0.998138
1.00809 1 1.01036 0.997758
0.998473 1.00083 1 0.997646
1.02958 1.00032 1.03147 0.997852
0.999159 1 1 0.999159
1.00322 1 1.00468 0.998542
1.03537 1.03877 0.999216 0.997501
1.00303 1 1.00497 0.998069
1.00148 1.00172 1.00215 0.997607
0.998379 1.00032 1.00004 0.998023
1.02103 1.02427 1 0.996837
1.02675 1.0296 1 0.997236
1.00356 1.00192 1.00482 0.996833
1.00401 1.00769 1 0.996347
0.999091 1 1.00029 0.998801
1.00376 1 1.00558 0.998191
1.00374 1.00212 1.00415 0.997482
0.999508 1.00033 1.00142 0.997764
1.03593 1.0509 0.987998 0.997725
1.02808 1.03075 0.999949 0.997464
1.01414 1.0176 1 0.996606
1.00536 1.00516 1.00377 0.996439
0.999832 1 1.00124 0.998595
1.03358 1.05413 0.982738 0.997731
1.00144 1 1.00357 0.997871
1.00245 1.00258 1.00268 0.997199
1.0324 1.04103 0.993875 0.997817
1.013 1.01635 1 0.996703
1.00554 1.00606 1.00323 0.996265
0.99895 1 1 0.99895
0.998823 1 1 0.998823
0.998805 1 1 0.998805
0.999285 1 1 0.999285
0.998951 1 1 0.998951
0.998833 1 1 0.998833
0.999267 1 1 0.999267
0.998896 1 1 0.998896
0.998803 1 1 0.998803
0.998777 1 1 0.998777
0.998816 1 1 0.998816
0.998728 1 1 0.998728
0.998812 1 1.00013 0.998682
0.998855 1 1 0.998855
0.999223 1 1 0.999223
0.999744 1 1 0.999744
0.999766 1 1 0.999766
1 1 1 1
0.999783 1 1 0.999783
1 1 1 1
1 1 1 1
1 1 1 1
1 1 1 1
1 1 1 1
0.999902 1 1 0.999902
1 1 1 1
1 1 1 1
1 1 1 1
0.999995 1 1 0.999995
1 1 1 1
1 1 1 1
1.03981 1.04575 0.996731 0.997588
1.03809 1.04772 0.993285 0.997502
1.03969 1.04858 0.994135 0.997373
1.04163 1.04799 0.996734 0.997181
1.04035 1.04932 0.994085 0.997353
1.04131 1.0541 0.990305 0.99754
1.03983 1.05199 0.990781 0.997641
1.04089 1.05433 0.989706 0.997528
1.04765 1.06244 0.9884 0.997651
1.03427 1.05434 0.983026 0.997898
1.03969 1.04873 0.994069 0.997296
1.03603 1.04834 0.990799 0.997427
1.0285 1.03925 0.992069 0.997563
1.00138 1.00398 1.00006 0.997347
1.00361 1.00576 1.00126 0.996605
1.00918 1.0121 1.00078 0.996339
1.03198 1.03903 0.995471 0.997731
1.02374 1.02718 0.999467 0.997183
0.998387 1.00074 1 0.997653
1.01052 1.00078 1.01197 0.997779
1.00531 1 1.00738 0.997954
0.999806 1 1 0.999806
0.999146 1 1.00012 0.999024
1.00151 1 1.00311 0.998408
1.03882 1.05221 0.989766 0.997482
0.999871 1 1 0.999871
0.999408 1 1 0.999408
1.02903 1.04673 0.985524 0.997537
1.0256 1.03966 0.988718 0.997736
1.00113 1.00288 1.00114 0.997125
1.00347 1.00397 1.0033 0.996216
1.00775 1.01049 1.00084 0.996449
1.02061 1.02883 0.994282 0.997719
0.99927 1 1 0.99927
0.999292 1 1.00069 0.9986
0.999469 1.00112 1.0008 0.997552
1.02433 1.0004 1.02597 0.998007
1.00638 1 1.00863 0.99777
1.00246 1 1.00432 0.998156
1.04609 1.06086 0.988433 0.99761
1.01273 1.04492 0.971447 0.997677
1.01897 1.0347 0.986849 0.997927
1.00388 1.01242 0.994119 0.997435
1.00193 1.00111 1.00367 0.997162
1.00347 1.00188 1.00547 0.996142
0.9994 1 1 0.9994
0.999388 1 1 0.999388
0.999118 1 1 0.999118
0.99872 1 1 0.99872
1.00018 1 1.00181 0.99837
1.00113 1 1.00329 0.997852
1.03973 1 1.04206 0.997766
1.00238 1.00049 1.00387 0.998025
0.999299 1 1.00053 0.998774
1.00312 1 1.00492 0.998207
1.03729 1.05159 0.988635 0.997743
1.02785 1.03051 1 0.997417
0.999376 1.00043 1.00115 0.9978
1.00414 1.00222 1.00441 0.997511
1.01557 1.01895 1.00004 0.99665
1.00626 1.00653 1.00335 0.996388
0.999999 1 1.00142 0.998582
1.03547 1.0566 0.982188 0.997774
1.00158 1 1.0037 0.99789
1.00212 1.00228 1.00269 0.99715
1.03105 1.04026 0.993345 0.997791
1.0131 1.01638 1 0.996773
1.00584 1.00609 1.00348 0.996281
1.00126 1 1.00299 0.998269
1.01721 1.03807 0.981685 0.998185
1.0021 1.00232 1.00217 0.997614
1.00341 1.00283 1.00379 0.996791
1.01565 1.02297 0.995431 0.997405
1.00198 1.00333 1.00221 0.996453
0.991103 1.0052 0.988025 0.997926
0.998815 1 1 0.998815
0.999074 1 1.00027 0.998802
0.9988 1 1.0001 0.998698
0.999265 1 1 0.999265
0.998901 1 1 0.998901
0.998798 1 1 0.998798
0.9988 1 1 0.9988
0.999222 1 1 0.999222
0.998845 1 1 0.998845
0.998785 1 1 0.998785
0.998721 1 1.00004 0.998683
0.998727 1 1 0.998727
0.99877 1 1 0.99877
0.998844 1 1.00033 0.998517
0.999012 1 1.00035 0.998667
0.998756 1 1 0.998756
0.999117 1 1 0.999117
0.998914 1 1 0.998914
0.9991 1 1 0.9991
0.99973 1 1 0.99973
0.999742 1 1 0.999742
1 1 1 1
0.999763 1 1 0.999763
1 1 1 1
1 1 1 1
1 1 1 1
1 1 1 1
1 1 1 1
0.999923 1 1 0.999923
0.999901 1 1 0.999901
1 1 1 1
1 1 1 1
1 1 1 1
1 1 1 1
1 1 1 1
1 1 1 1
1.03862 1.05119 0.990374 0.99765
1.04131 1.05374 0.990646 0.99753
1.04 1.04926 0.993782 0.997372
1.0409 1.05428 0.98976 0.997526
1.04557 1.06037 0.988373 0.997649
1.03446 1.05348 0.984076 0.997841
1.04783 1.0652 0.985942 0.997716
0.982824 1.01605 0.970574 0.996624
1.00936 1.03514 0.976531 0.998526
0.999504 1 1 0.999504
1.03876 1.05247 0.989451 0.997494
1.02928 1.04599 0.986457 0.997538
1.02501 1.03955 0.988282 0.997705
0.999663 1.00163 1.00082 0.997215
1.0038 1.0036 1.00402 0.9962
1.00826 1.0114 1.00045 0.996445
1.01929 1.02765 0.994154 0.997696
0.998848 1.00139 1 0.997459
1.01823 1 1.0201 0.998164
1.00449 1 1.00672 0.997782
0.999866 1 1 0.999866
1.00276 1 1.0046 0.998175
0.999342 1 1 0.999342
0.99919 1 1.0006 0.998595
0.999381 1 1 0.999381
1.04359 1.06114 0.985803 0.997618
0.999437 1 1 0.999437
0.999386 1 1 0.999386
0.999081 1 1 0.999081
1.01599 1.04478 0.974709 0.997677
1.01961 1.03534 0.986888 0.997882
1.00036 1.00109 1.0021 0.997186
1.0039 1.00213 1.00556 0.996234
1.00302 1.01058 0.99508 0.997423
0.998765 1 1 0.998765
1.00022 1 1.0019 0.998332
1.0073 1.0003 1.00908 0.997937
1.03209 1 1.03436 0.997802
1.00102 1 1.00314 0.997889
1.03054 1.05211 0.981742 0.997712
1.00526 1.04126 0.967547 0.997811
1.01122 1.02145 0.992353 0.99761
0.99496 1.00411 0.993677 0.997194
1.0033 1 1.00573 0.997583
0.999005 1 1 0.999005
0.998918 1 1 0.998918
0.998934 1 1.00013 0.998803
0.999358 1 1.00086 0.9985
1.00111 1 1.00294 0.998176
1.02764 1 1.02985 0.997856
1.02597 1 1.02822 0.997808
1.00002 1 1.00145 0.998569
1.00171 1 1.00381 0.99791
1.03667 1.05979 0.980322 0.997816
1.02989 1.03985 0.992637 0.997764
1.01292 1.01613 1 0.996843
1.00177 1.002 1.00268 0.997101
1.00583 1.00595 1.0036 0.996298
1.00124 1 1.00293 0.99831
1.01523 1.03808 0.979745 0.99821
1.00068 1.00155 1.0015 0.997632
1.00283 1.00196 1.00408 0.996799
1.01565 1.02308 0.995219 0.997507
1.00193 1.00277 1.00273 0.996441
0.990351 1.00488 0.988358 0.997154
1.00108 1.00035 1.00261 0.998124
1.00703 1.02095 0.988182 0.998163
1.00075 1.00122 1.00194 0.997595
1.00444 1.00109 1.00644 0.996931
0.995183 1.0058 0.992207 0.997214
0.937779 0.98207 0.973878 0.980514
0.943881 0.978471 0.974264 0.990131
0.98118 0.99117 0.991942 0.997963
0.791795 0.867845 0.943261 0.96725
0.725862 0.847836 0.89303 0.958685
0.999173 1 1.00037 0.998799
0.99924 1 1.0005 0.998736
0.998993 1 1.00027 0.998726
0.999221 1 1 0.999221
0.998835 1 1 0.998835
0.998684 1 1 0.998684
0.998725 1 1 0.998725
0.998754 1 1 0.998754
0.999674 1 1.00103 0.998643
0.999147 1 1 0.999147
0.998773 1 1 0.998773
0.99875 1 1 0.99875
0.999197 1 1.00066 0.99854
1.00087 1 1.00232 0.998551
1.00102 1 1.00244 0.998579
0.999841 1 1.00127 0.998572
0.998733 1 1.00002 0.998713
0.999094 1 1 0.999094
0.998791 1 1 0.998791
0.99874 1 1 0.99874
0.998909 1 1 0.998909
0.998878 1 1 0.998878
0.999194 1 1 0.999194
0.999097 1 1 0.999097
0.999725 1 1 0.999725
0.99973 1 1 0.99973
1 1 1 1
0.99974 1 1 0.99974
1 1 1 1
1 1 1 1
1 1 1 1
1 1 1 1
1 1 1 1
0.999938 1 1 0.999938
0.99992 1 1 0.99992
1 1 1 1
0.999899 1 1 0.999899
1 1 1 1
1 1 1 1
1 1 1 1
1 1 1 1
1 1 1 1
1.04326 1.05808 0.988324 0.997646
1.04092 1.05421 0.989843 0.997524
1.03524 1.05289 0.985415 0.997784
0.986749 1.01587 0.974565 0.996687
1.04499 1.06262 0.985659 0.997714
1.01891 1.03806 0.98312 0.998412
1.03608 1.04662 0.992095 0.997819
0.943223 0.982368 0.970557 0.989279
0.997427 1.01935 0.981122 0.997319
0.999512 1 1 0.999512
0.999502 1 1 0.999502
0.99911 1 1 0.99911
0.999161 1 1 0.999161
1.04152 1.06135 0.983653 0.997625
1.0186 1.04419 0.977767 0.997677
1.01983 1.0357 0.986817 0.997837
0.999306 1.00073 1.00137 0.99721
1.00424 1.00257 1.00536 0.996324
1.00224 1.00923 0.995652 0.99741
1.01328 1 1.01546 0.997849
1.02507 1 1.02729 0.997837
1.00067 1 1.00275 0.997926
0.999385 1 1 0.999385
1.00017 1 1.00188 0.998293
0.99881 1 1 0.99881
0.999475 1 1 0.999475
0.999043 1 1 0.999043
1.02796 1.05179 0.979566 0.997726
0.99905 1 1 0.99905
0.998966 1 1 0.998966
0.998903 1 1 0.998903
1.0086 1.04349 0.968684 0.997807
1.01007 1.02102 0.991639 0.997609
1.00296 1.00005 1.00536 0.997566
0.996407 1.00455 0.99463 0.997246
0.999341 1 1.00087 0.998475
1.00081 1 1.00271 0.998109
1.02971 1.00028 1.0317 0.997795
1.02839 1 1.03065 0.99781
1.0001 1.03769 0.965839 0.997871
0.999087 1.02833 0.973727 0.997777
1.00339 1.00845 0.997679 0.997298
0.989401 1.00041 0.990964 0.998011
0.998673 1 1 0.998673
0.999672 1 1.00106 0.99861
1.00959 1 1.01124 0.998363
1.04573 1 1.04808 0.997754
0.913671 0.970799 0.961682 0.978654
1.00159 1 1.00325 0.998351
0.999441 1.0007 1.00109 0.997649
1.01447 1.03791 0.979146 0.998236
1.01591 1.02345 0.99501 0.997609
1.00221 1.0025 1.0033 0.996428
1.00258 1.00132 1.00447 0.996805
0.991129 1.00511 0.989687 0.996364
1.00063 1.00015 1.00231 0.998174
1.00726 1.02168 0.987714 0.998152
1.00021 1.00117 1.00144 0.997608
1.00439 1.00136 1.00611 0.99693
0.997904 1.00681 0.993915 0.997226
0.936943 0.987165 0.969769 0.978713
0.939294 0.976102 0.974203 0.987772
0.981588 0.989873 0.993636 0.997982
0.791134 0.865242 0.944839 0.967731
0.710821 0.836942 0.889024 0.955326
0.999947 1.00007 1.0015 0.998374
0.81987 0.888142 0.952405 0.969262
0.767626 0.852785 0.937481 0.960168
0.990165 1.00714 0.985056 0.998063
1.00615 1.00116 1.0071 0.997901
1.0122 1.0044 1.01032 0.997468
0.973769 0.985621 0.989778 0.998179
0.931414 0.969635 0.981203 0.978985
0.918009 0.95145 0.977963 0.986594
0.773994 0.866736 0.921578 0.968988
0.787265 0.896752 0.914961 0.959502
0.999811 1 1.00104 0.998774
0.999905 1 1.0012 0.998707
1.00065 1 1.00176 0.998896
0.999177 1 1 0.999177
0.998791 1 1 0.998791
0.999861 1 1.00124 0.998619
0.999743 1 1.00118 0.998563
0.99873 1 1 0.99873
0.999095 1 1 0.999095
1.00055 1 1.00201 0.998543
1.00022 1 1.00163 0.998588
0.998745 1 1 0.998745
1.00064 1 1.00206 0.998591
1.00261 1 1.00406 0.998556
1.00447 1 1.00582 0.998657
0.998696 1 1.00015 0.998544
0.998754 1 1 0.998754
0.998787 1 1 0.998787
0.998735 1 1 0.998735
0.998618 1 1.00001 0.99861
0.999178 1 1.00044 0.998742
0.999209 1 1.00051 0.998705
1.00069 1 1.00214 0.998553
0.999354 1 1.00048 0.998875
0.999001 1 1.00009 0.998909
0.999222 1 1 0.999222
0.998842 1 1 0.998842
0.999169 1 1 0.999169
0.999718 1 1 0.999718
0.999095 1 1 0.999095
0.999726 1 1 0.999726
1 1 1 1
0.99973 1 1 0.99973
1 1 1 1
1 1 1 1
1 1 1 1
1 1 1 1
1 1 1 1
0.999477 1 1 0.999477
0.999939 1 1 0.999939
0.999936 1 1 0.999936
1 1 1 1
0.999916 1 1 0.999916
1 1 1 1
1 1 1 1
1 1 1 1
1 1 1 1
1 1 1 1
0.989688 1.01578 0.977481 0.996754
1.04285 1.05988 0.98618 0.997713
1.02469 1.04086 0.986135 0.998296
0.93716 0.976056 0.969537 0.990318
0.997981 1.01907 0.981804 0.997455
1.03705 1.04994 0.989925 0.997774
1.01264 1.02601 0.989592 0.997348
0.952044 0.97718 0.982733 0.991395
0.936363 0.979753 0.976587 0.978627
0.781867 0.863512 0.934864 0.968537
0.700577 0.814811 0.897506 0.957991
0.99911 1 1 0.99911
0.999511 1 1 0.999511
0.999499 1 1 0.999499
0.999098 1 1 0.999098
0.998863 1 1 0.998863
0.998895 1 1 0.998895
0.999072 1 1 0.999072
0.999128 1 1 0.999128
1.02468 1.05179 0.976429 0.99774
1.01302 1.0468 0.969862 0.997803
1.00938 1.02072 0.991261 0.997608
1.00277 1.0003 1.00493 0.99755
0.99794 1.00462 0.996038 0.997298
1.03224 1 1.03453 0.997781
1.02966 1 1.03197 0.997764
1.00072 1 1.00268 0.998042
0.999013 1 1 0.999013
0.999216 1 1.00077 0.998449
0.999097 1 1 0.999097
0.999002 1 1 0.999002
1.00073 1.03835 0.965828 0.997871
0.998741 1 1.00004 0.998702
0.999168 1 1.00052 0.998648
0.998889 1.02755 0.974301 0.997753
1.00039 1.00796 0.995058 0.997421
0.991828 1.0008 0.993107 0.99791
1.01396 1 1.01575 0.998243
1.04121 1 1.04353 0.997775
0.992414 1.02676 0.968628 0.997855
0.985427 1.00855 0.97922 0.997808
0.984246 1.00106 0.985335 0.997834
0.995781 1.00039 0.99726 0.998126
1.00074 1 1.00236 0.998389
1.00522 1 1.00685 0.998384
1.04089 1 1.04293 0.998043
0.812642 0.896201 0.934447 0.970374
0.930782 0.976591 0.971174 0.981383
0.999878 1 1.00166 0.998224
0.999625 1.00094 1.00107 0.997622
1.00749 1.0224 0.987245 0.998143
1.00029 1.00776 0.99533 0.997239
1.00442 1.00179 1.00571 0.996931
0.931217 0.976473 0.974174 0.978935
0.945966 0.982992 0.973633 0.988394
0.981688 0.988257 0.99535 0.997993
0.790658 0.866902 0.940696 0.969548
0.698293 0.826262 0.887843 0.951883
0.999988 1.00005 1.00157 0.998372
0.815484 0.892872 0.941748 0.969821
0.758474 0.844051 0.937543 0.958476
0.990704 1.00785 0.984902 0.99806
1.00614 1.00142 1.0068 0.997927
1.01049 1.00272 1.01015 0.997622
0.966044 0.979405 0.988026 0.998312
0.936791 0.97883 0.979563 0.97702
0.918184 0.955207 0.972093 0.988835
0.776946 0.862482 0.931239 0.967341
0.784984 0.900373 0.90945 0.958649
1.00165 1 1.00291 0.998738
0.798993 0.863986 0.961553 0.961752
0.871955 0.931216 0.966959 0.968357
0.989996 0.998886 0.992392 0.998697
1.014 1.00264 1.01269 0.998661
0.975726 0.969968 1.00772 0.998232
0.910148 0.938775 0.979378 0.98992
0.908518 0.943753 0.986109 0.976225
0.784799 0.865065 0.937195 0.96801
0.822969 0.930808 0.918696 0.96239
1.00075 1 1.00207 0.998688
1.00056 1 1.0017 0.998863
1.00409 1 1.005 0.999102
0.999096 1 1 0.999096
0.998776 1 1 0.998776
1.00081 1 1.00221 0.998604
1.00072 1 1.00219 0.998536
1.00042 1 1.00182 0.998602
0.998752 1 1 0.998752
1.00136 1 1.00282 0.99855
0.998706 1 1.00016 0.998545
1.00538 1 1.00669 0.998704
1.02039 0.999527 1.02178 0.999111
1.00168 1 1.00313 0.998555
0.998508 1 1 0.998508
0.998784 1 1 0.998784
0.99873 1 1 0.99873
0.99873 1 1.00013 0.998605
0.999236 1 1.0005 0.998735
0.999096 1 1.00034 0.998752
1.00055 1 1.00189 0.99867
0.999201 1 1.00058 0.998621
1.00044 1 1.0017 0.998749
0.998803 1 1.00029 0.998514
0.998921 1 1.00093 0.997994
1.0006 1 1.00217 0.998438
1.00062 1 1.00207 0.998551
1.00043 1 1.00164 0.998792
0.999709 1 1.00084 0.998873
0.999209 1 1 0.999209
0.999217 1 1.00031 0.998909
0.999222 1 1 0.999222
0.999715 1 1 0.999715
0.999144 1 1 0.999144
0.99972 1 1 0.99972
1 1 1 1
0.999726 1 1 0.999726
1 1 1 1
1 1 1 1
1 1 1 1
1 1 1 1
1 1 1 1
0.999492 1 1 0.999492
0.999924 1 1 0.999924
0.999478 1 1 0.999478
1 1 1 1
0.99994 1 1 0.99994
0.999933 1 1 0.999933
1 1 1 1
1 1 1 1
1 1 1 1
1 1 1 1
1 1 1 1
0.811826 0.883638 0.949064 0.96804
0.765692 0.851408 0.936515 0.960288
0.939291 0.980487 0.96687 0.99081
0.999174 1.01871 0.983185 0.997595
1.04013 1.05342 0.989638 0.99773
0.93471 0.963129 0.977559 0.992771
1.01142 1.02544 0.98885 0.997453
0.945449 0.9895 0.975109 0.979871
0.787657 0.867522 0.938423 0.967517
0.69654 0.819268 0.890645 0.954587
0.965918 0.996298 0.974766 0.994605
0.935049 0.973064 0.981035 0.979509
0.769069 0.863845 0.9194 0.968334
0.772435 0.886633 0.909285 0.958115
0.999222 1 1.00048 0.998742
0.999138 1 1 0.999138
0.99951 1 1 0.99951
0.999086 1 1 0.999086
0.998907 1 1 0.998907
0.999304 1 1.00057 0.998738
0.998883 1 1 0.998883
0.998839 1 1 0.998839
0.999038 1 1 0.999038
0.999096 1 1 0.999096
1.00213 1.03853 0.967012 0.997872
0.996504 1.02544 0.973994 0.997732
0.997401 1.00773 0.992184 0.997544
0.993701 1.00102 0.994865 0.99781
1.03616 1.00056 1.03787 0.997795
1.01923 1 1.02115 0.998124
0.998686 1 1 0.998686
0.998772 1 1.00004 0.998731
0.992734 1.02704 0.96863 0.997896
1.0015 1 1.00315 0.998363
1.00534 1 1.007 0.998346
0.984313 1.00687 0.979818 0.997731
0.982219 1.00051 0.983758 0.99793
0.997748 1.0012 0.998516 0.998037
1.03597 1 1.03804 0.998009
0.990209 1.00425 0.987804 0.99819
0.978258 1 0.979638 0.998591
1.01482 1.00058 1.01603 0.99823
1.00477 1 1.00644 0.998333
1.00429 1 1.0061 0.998198
1.0221 1 1.02401 0.998136
0.81752 0.876894 0.963984 0.967121
0.822529 0.895247 0.946863 0.970334
0.919855 0.973719 0.965216 0.978727
0.999928 1 1.00156 0.998369
1.00604 1.00147 1.00662 0.997953
0.99271 1.00862 0.986141 0.998057
1.00912 1.00128 1.01008 0.997772
0.808398 0.887673 0.938493 0.970379
0.934027 0.975478 0.978213 0.978832
0.909723 0.951409 0.969081 0.986693
0.962422 0.97468 0.988963 0.998444
0.775204 0.861846 0.931104 0.966024
0.76009 0.847539 0.93536 0.958796
0.772799 0.890024 0.904605 0.959856
1.00224 1 1.0035 0.99874
0.800455 0.867307 0.957879 0.963504
0.880822 0.938779 0.969092 0.968188
0.991868 0.998662 0.994404 0.998787
1.01369 1.00135 1.01371 0.998627
0.972858 0.96874 1.0058 0.998459
0.908099 0.942067 0.975838 0.987811
0.913666 0.948752 0.984423 0.978257
0.804874 0.886156 0.93928 0.966992
0.810071 0.918874 0.914973 0.963516
1.00615 0.999541 1.00718 0.999438
0.888032 0.941335 0.969483 0.97307
0.861948 0.929978 0.953091 0.972465
0.994157 0.980232 1.01449 0.999715
0.931617 0.939083 0.998741 0.9933
0.919528 0.941198 0.999709 0.977261
0.842025 0.906655 0.961344 0.96606
0.838396 0.949945 0.916836 0.962629
1.00036 1 1.00153 0.998831
1.00388 1 1.00478 0.999102
1.02031 0.999808 1.02116 0.999354
0.998751 1 1 0.998751
0.998641 1 1.00009 0.998547
0.99985 1 1.00131 0.998544
1.00619 1 1.00745 0.998751
0.998506 1 1 0.998506
1.00206 1 1.00351 0.998547
1.02457 0.999894 1.02552 0.999181
1.03697 0.996974 1.0407 0.999446
1.02598 1 1.02694 0.999068
0.998515 1 1 0.998515
0.998774 1 1.00018 0.998599
0.999069 1 1.00034 0.998727
0.998798 1 1 0.998798
0.998917 1 1.00028 0.998636
1.0002 1 1.00154 0.99867
1.00081 1 1.00205 0.998761
1.00007 1 1.00143 0.998644
1.00511 1 1.00612 0.998996
0.998594 1 1 0.998594
0.999124 1.00021 1.00038 0.998541
0.99887 1 1.00069 0.998177
0.999147 1.00025 1.00153 0.997373
1.0012 1 1.00286 0.998347
0.998929 1 1.00079 0.998138
1.0004 1 1.00194 0.998465
1.0008 1 1.00215 0.998649
1.00041 1 1.00187 0.998549
1.00016 1 1.00137 0.998791
0.999142 1 1 0.999142
0.999745 1 1.00088 0.99887
0.999207 1 1 0.999207
0.999706 1 1 0.999706
0.999223 1 1 0.999223
0.999715 1 1 0.999715
0.999998 1 1 0.999998
0.999721 1 1 0.999721
0.999999 1 1 0.999999
1 1 1 1
1 1 1 1
1 1 1 1
1 1 1 1
0.999303 1 1 0.999303
0.999896 1 1 0.999896
0.999428 1 1 0.999428
1 1 1 1
0.999927 1 1 0.999927
0.999479 1 1 0.999479
1 1 1 1
1 1 1 1
0.99994 1 1 0.99994
1 1 1 1
1 1 1 1
1 1 1 1
0.797715 0.86532 0.95611 0.964191
0.816864 0.891014 0.946282 0.968824
0.877834 0.939027 0.96584 0.967897
0.759478 0.846558 0.935359 0.959137
0.934694 0.970838 0.971961 0.990544
1.00918 1.02486 0.987101 0.997565
0.952381 0.988536 0.982106 0.98098
0.794318 0.871276 0.941045 0.968788
0.697175 0.827351 0.885956 0.95113
0.964486 0.992357 0.977964 0.993814
0.931212 0.97354 0.979652 0.97639
0.781547 0.87227 0.926693 0.966871
0.774913 0.891674 0.908547 0.956532
0.945413 0.980108 0.972332 0.992049
0.921112 0.948014 0.995702 0.975817
0.805462 0.891307 0.935761 0.965723
0.817034 0.930018 0.915082 0.96004
1.00016 1 1.00164 0.998523
0.998841 1 1.00006 0.998782
0.999167 1 1 0.999167
0.998952 1 1 0.998952
0.998691 1 1.00023 0.998466
0.998886 1 1.00011 0.998772
0.998871 1 1 0.998871
0.998804 1 1 0.998804
0.998872 1 1 0.998872
0.999003 1 1 0.999003
0.994155 1.02828 0.968808 0.997938
0.986029 1.00618 0.982278 0.997658
0.980671 1.00034 0.982277 0.998026
1.00109 1.00225 1.00089 0.99795
1.02973 1 1.03182 0.997974
1.00444 1 1.00614 0.99831
1.00189 1 1.00356 0.998338
1.00408 1 1.00578 0.998307
0.987008 1.00474 0.984131 0.998196
1.0033 1 1.00511 0.998197
1.02228 1 1.02419 0.998127
0.97752 1.00042 0.978542 0.998536
1.01327 1.00144 1.01365 0.998195
0.960073 0.9874 0.973632 0.998657
0.996547 0.996664 1.00065 0.999234
1.03494 0.999882 1.03668 0.998443
1.00184 1 1.00364 0.99821
1.01111 1 1.01297 0.998161
0.89513 0.94355 0.972398 0.975612
0.821083 0.876872 0.96848 0.966853
0.811702 0.889421 0.941599 0.969223
1.00275 1 1.00401 0.998742
1.01341 1.00003 1.01481 0.998593
0.991132 0.998022 0.994217 0.998874
0.806691 0.871459 0.959893 0.964357
0.921134 0.947776 0.995804 0.975986
0.908963 0.940214 0.977297 0.98922
0.96286 0.964501 0.999633 0.998665
0.804523 0.885454 0.938438 0.968204
0.887129 0.94342 0.971366 0.968051
0.813885 0.92204 0.916015 0.96363
1.00459 0.999172 1.00602 0.999404
0.884629 0.939673 0.966286 0.974269
0.862928 0.930901 0.953209 0.972484
0.996858 0.983999 1.01351 0.99956
0.941376 0.947019 1.00106 0.992986
0.900195 0.93506 0.987391 0.975007
0.840517 0.950626 0.917686 0.96348
0.851819 0.91283 0.965336 0.966671
1.00538 0.987489 1.01841 0.999711
0.866756 0.925369 0.955358 0.980428
0.878453 0.947345 0.952409 0.973614
0.817805 0.929812 0.916005 0.96019
0.976185 0.963888 1.01455 0.998235
0.943843 0.954902 1.01037 0.97827
0.880913 0.931821 0.97707 0.967554
1.00391 1 1.00482 0.9991
1.02057 0.99984 1.02148 0.999273
1.02147 0.990434 1.03178 0.999566
0.998505 1 1 0.998505
1.0023 1 1.00377 0.998538
1.02953 1 1.03031 0.999251
0.998524 1 1 0.998524
1.02508 1 1.02603 0.999079
1.03836 0.997038 1.04204 0.999421
1.02642 0.995371 1.03172 0.999489
1.0185 1 1.01946 0.999059
0.998838 1 1.00019 0.998652
1.00016 1 1.00149 0.998671
1.00127 1 1.0025 0.998773
1.00413 1 1.00517 0.998973
0.999679 1 1.00103 0.998647
1.0024 1 1.0035 0.998907
0.998812 1 1 0.998812
1.00111 1 1.00324 0.997874
0.999421 1.00042 1.00043 0.99857
0.998948 1.00027 1.00057 0.998113
0.998213 1.00004 1.00101 0.997167
1.00538 1.0069 1.00129 0.9972
1.00099 1.00017 1.00276 0.99806
0.999133 1.00035 1.00138 0.997408
1.00358 1 1.0051 0.998487
1.00171 1 1.00339 0.998324
0.998927 1 1.00065 0.998282
1.00025 1 1.00176 0.998491
1.00059 1 1.00191 0.998682
0.999045 1 1 0.999045
1.00008 1 1.00129 0.998789
0.999142 1 1 0.999142
0.999672 1 1 0.999672
0.999205 1 1 0.999205
0.999704 1 1 0.999704
0.999996 1 1 0.999996
0.999715 1 1 0.999715
0.999997 1 1 0.999997
1 1 1 1
0.999999 1 1 0.999999
1 1 1 1
1 1 1 1
0.999102 1 1 0.999102
0.999743 1 1 0.999743
0.999302 1 1 0.999302
1 1 1 1
0.999854 1 1 0.999854
0.999365 1 1 0.999365
1 1 1 1
1 1 1 1
0.999931 1 1 0.999931
1 1 1 1
1 1 1 1
1 1 1 1
0.88211 0.940743 0.9629 0.973803
0.791322 0.864209 0.948745 0.965128
0.815046 0.887406 0.948272 0.96856
0.998688 1 1 0.998688
0.866441 0.927375 0.95904 0.974196
0.876602 0.93865 0.964984 0.967785
0.759277 0.850934 0.929355 0.960114
0.970529 0.994604 0.982855 0.992816
0.931551 0.96952 0.981427 0.97902
0.787919 0.88414 0.923009 0.965506
0.76981 0.882316 0.911572 0.957125
0.944662 0.978489 0.975757 0.989415
0.911382 0.94477 0.986237 0.978122
0.816747 0.896297 0.943346 0.965971
0.813867 0.924323 0.916944 0.960256
0.913841 0.94869 0.97598 0.986972
0.914467 0.935386 1.00183 0.975847
0.862985 0.923026 0.967119 0.966739
0.838639 0.948898 0.918148 0.962593
1.0001 1 1.0018 0.998307
1.00098 1 1.0025 0.998486
0.998822 1 1 0.998822
0.998491 1 1 0.998491
0.998804 1 1.00028 0.99852
0.998805 1 1 0.998805
0.998812 1 1 0.998812
0.998905 1 1 0.998905
0.982313 1.00531 0.978886 0.998199
0.975218 1.00026 0.976448 0.998484
1.00362 1 1.00535 0.998281
1.01243 1.00234 1.01194 0.998157
1.02414 1 1.02607 0.998116
1.00291 1 1.00472 0.998196
1.00217 1 1.00396 0.998217
0.96651 0.989827 0.97769 0.998725
1.01173 1 1.01356 0.998199
1.02686 1.00032 1.02811 0.998465
0.99158 0.996506 0.995772 0.999282
1.00153 1 1.00325 0.998287
0.959088 0.977443 0.982495 0.998704
1.00662 0.992644 1.01463 0.999455
1.04627 0.998523 1.04933 0.998555
1.00238 1 1.00403 0.998348
0.878534 0.928736 0.963012 0.982278
0.894122 0.942989 0.971816 0.975678
0.826083 0.876949 0.974564 0.966584
1.0026 0.998648 1.00459 0.999373
1.00105 0.987678 1.01414 0.99941
0.882691 0.939309 0.963375 0.97545
0.926368 0.93972 1.00808 0.977888
0.932786 0.944524 0.997433 0.990114
0.854232 0.915893 0.965918 0.965586
0.8637 0.931821 0.95311 0.972495
0.843802 0.952276 0.918866 0.964329
1.00804 0.991876 1.01663 0.999669
0.868127 0.926256 0.955972 0.980408
0.876874 0.945381 0.950982 0.975345
0.985662 0.970456 1.01607 0.999609
0.813929 0.923825 0.917424 0.960343
0.925351 0.940712 1.00704 0.976796
0.889775 0.941942 0.976799 0.967054
1.0073 0.985508 1.02235 0.999767
0.885797 0.942786 0.956754 0.982021
0.865131 0.926224 0.958644 0.974335
0.770781 0.885881 0.907962 0.95827
0.862954 0.924273 0.966183 0.966335
0.961262 0.959306 1.00568 0.996382
0.946701 0.949535 1.02369 0.973943
1.01819 1 1.01902 0.999194
1.02256 0.991194 1.03213 0.999534
1.00736 0.979899 1.02846 0.999582
0.998532 1 1 0.998532
1.02512 1 1.02606 0.999091
1.03866 0.998282 1.04108 0.999396
1.01376 1 1.01473 0.999045
1.02574 0.9965 1.02986 0.999488
1.01208 0.993864 1.01911 0.999239
1.00291 1 1.00396 0.998948
0.999276 1 1.00063 0.998651
1.00386 1 1.00499 0.998885
1.00719 1 1.00892 0.99828
0.999028 1 1 0.999028
1.00037 1 1.00234 0.998027
1.00164 1.00053 1.00413 0.996996
1.004 1.00556 1.00188 0.996576
0.999012 1.00056 1.0004 0.998048
0.998649 1.00054 1.00109 0.997018
1.00674 1.00895 1.00053 0.997294
1.00337 1.00307 1.00261 0.997692
1.0052 1.00669 1.00125 0.997273
1.0055 1 1.00721 0.998299
1.0019 1.0007 1.00316 0.998045
0.99893 1.00021 1.00128 0.997444
0.999249 1 1.00036 0.998887
1.00329 1 1.00481 0.998491
1.00228 1 1.00398 0.9983
1.00042 1 1.00171 0.998715
0.999043 1 1 0.999043
0.999605 1 1 0.999605
0.999141 1 1 0.999141
0.999668 1 1 0.999668
0.999995 1 1 0.999995
0.999702 1 1 0.999702
0.999996 1 1 0.999996
1 1 1 1
0.999997 1 1 0.999997
1 1 1 1
1 1 1 1
0.999021 1 1 0.999021
0.99963 1 1 0.99963
0.99914 1 1 0.99914
1 1 1 1
0.999731 1 1 0.999731
0.9993 1 1 0.9993
1 1 1 1
1 1 1 1
0.999812 1 1 0.999812
1 1 1 1
1 1 1 1
1 1 1 1
0.871249 0.92729 0.957944 0.980814
0.884962 0.940534 0.966247 0.973784
0.791349 0.864844 0.947938 0.965274
0.998714 1 1 0.998714
0.998648 1 1 0.998648
0.998558 1 1 0.998558
0.876728 0.948033 0.949987 0.973473
0.863547 0.926939 0.956261 0.974222
0.876807 0.938311 0.965666 0.967676
0.94888 0.981489 0.97528 0.991281
0.906676 0.943243 0.985137 0.975735
0.805461 0.879579 0.945951 0.968057
0.826753 0.933207 0.923389 0.95943
0.918028 0.951554 0.975141 0.989362
0.914776 0.936644 1.0002 0.976456
0.843057 0.901082 0.966739 0.967795
0.839527 0.950286 0.917005 0.963404
0.907832 0.940304 0.977655 0.987533
0.929672 0.943596 1.00815 0.977284
0.880953 0.929958 0.978859 0.967763
0.825741 0.932304 0.9204 0.962299
0.99849 1 1.00017 0.99832
1.00059 1 1.0023 0.998288
1.00088 1 1.00244 0.998448
0.998483 1 1 0.998483
0.998579 1 1 0.998575
0.99882 1 1 0.99882
0.972889 0.991165 0.982763 0.998777
0.986846 0.996611 0.990876 0.999321
1.00239 1 1.00417 0.998224
1.01954 1.00057 1.02051 0.998486
1.01296 1 1.01475 0.998237
1.00208 1 1.00382 0.998261
1.0017 1 1.00333 0.998371
0.966785 0.978712 0.989016 0.998784
1.04237 0.998647 1.04515 0.998688
1.00865 0.988606 1.02086 0.999427
1.00191 1 1.00341 0.998505
0.9808 0.96739 1.01517 0.998713
1.00786 0.983011 1.02582 0.999471
1.03249 0.997152 1.03667 0.998811
0.898769 0.947002 0.96448 0.984019
0.878899 0.928916 0.962764 0.98275
0.893505 0.942424 0.971664 0.975741
1.01205 0.996736 1.01575 0.999627
0.976096 0.968577 1.00906 0.998714
0.869808 0.927318 0.956747 0.980388
0.920619 0.9299 1.00953 0.980676
0.885075 0.938764 0.975434 0.966553
0.876481 0.943735 0.950526 0.977077
0.828012 0.933141 0.924711 0.959585
1.00301 0.982915 1.02067 0.999787
0.887032 0.942987 0.957291 0.982629
0.864445 0.927172 0.956878 0.974362
0.958946 0.955722 1.01038 0.993061
0.773534 0.890733 0.90767 0.956762
0.839727 0.901701 0.962759 0.967293
0.955893 0.953623 1.0257 0.977267
1.00088 0.966636 1.03622 0.999228
0.871999 0.927363 0.958579 0.98093
0.881972 0.942083 0.966994 0.968148
0.698841 0.81238 0.897579 0.958398
0.802746 0.888901 0.935136 0.965717
0.927464 0.940949 1.00918 0.976707
0.938059 0.951302 0.995207 0.990828
1.02628 0.992214 1.03485 0.999501
1.01097 0.98571 1.02605 0.999586
1.01364 0.990884 1.02345 0.999527
1.00908 1 1.01006 0.999032
1.02494 0.9974 1.02814 0.999487
1.01469 0.992546 1.02301 0.999321
1.00928 1 1.01048 0.998818
1.00548 1 1.00662 0.998862
1.00684 1 1.00871 0.998141
1.01528 1.00061 1.01768 0.997045
0.999625 1 1.00145 0.998182
1.00305 1.001 1.00509 0.996969
1.00453 1.00242 1.00596 0.996163
1.00391 1.00587 1.00191 0.996149
1.00413 1.00616 1.00108 0.996909
1.00376 1.00536 1.00189 0.996528
0.99899 1.00088 1.00124 0.99687
1.00213 1.00349 1.0011 0.997549
1.00672 1.00888 1.00048 0.997382
1.00257 1 1.00464 0.997948
1.00388 1.00341 1.00274 0.997745
1.00539 1.00689 1.00117 0.997346
1.00343 1 1.00482 0.99862
1.00458 1 1.00629 0.998299
1.0028 1.00129 1.00348 0.998031
0.999501 1 1 0.999501
0.999563 1 1.00068 0.998885
1.00285 1 1.00436 0.998496
0.999042 1 1 0.999042
0.9996 1 1 0.9996
0.999988 1 1 0.999988
0.999665 1 1 0.999665
0.999993 1 1 0.999993
1 1 1 1
0.999996 1 1 0.999996
1 1 1 1
1 1 1 1
0.998997 1 1 0.998997
0.999623 1 1 0.999623
0.999045 1 1 0.999045
1 1 1 1
0.999668 1 1 0.999668
0.999177 1 1 0.999177
1 1 1 1
1 1 1 1
0.99972 1 1 0.99972
1 1 1 1
1 1 1 1
1 1 1 1
0.885558 0.942628 0.956756 0.981918
0.872296 0.927907 0.958471 0.980799
0.885861 0.939995 0.967779 0.973787
0.998829 1 1.00025 0.99858
0.998664 1 1.00022 0.998441
0.99874 1 1 0.99874
0.998641 1 1 0.998641
0.998542 1 1 0.998542
0.998538 1 1 0.998538
0.998464 1 1 0.998464
0.860465 0.931058 0.950534 0.972273
0.877285 0.945706 0.951222 0.97522
0.860785 0.925975 0.954168 0.97425
0.840813 0.951824 0.916147 0.964223
0.908347 0.943251 0.975431 0.987251
0.914802 0.934395 1.00193 0.97715
0.851351 0.909732 0.966842 0.967922
0.899825 0.939325 0.970874 0.986686
0.924727 0.936269 1.01295 0.975044
0.890441 0.942388 0.97648 0.967636
0.810789 0.919774 0.914958 0.963441
0.916417 0.942926 0.982702 0.988994
0.936068 0.945404 1.01587 0.97466
0.846229 0.910477 0.961786 0.966363
0.787121 0.897974 0.913837 0.959201
1.00544 1 1.00695 0.998498
0.998949 1 1.00062 0.998327
1.00134 1 1.00308 0.998268
0.998476 1 1 0.998476
0.972423 0.978259 0.995146 0.998882
1.00917 0.985269 1.02488 0.999396
1.00128 1 1.00305 0.998235
1.00147 1 1.00308 0.998394
1.03526 0.997965 1.03859 0.998821
1.00134 1 1.00284 0.998498
1.03337 0.996515 1.03823 0.998798
0.978143 0.965767 1.01514 0.997711
1.00769 0.976706 1.03214 0.9996
1.01325 0.995216 1.01922 0.998923
0.965918 0.946739 1.02284 0.997473
1.02246 0.980644 1.04337 0.999296
0.879124 0.928579 0.963764 0.982337
0.896124 0.946094 0.961807 0.984795
0.878643 0.92877 0.962175 0.98322
0.997099 0.97859 1.01911 0.999805
0.965207 0.960571 1.00822 0.996639
0.886633 0.94232 0.956941 0.983242
0.953225 0.956515 1.02268 0.974456
0.843596 0.905891 0.962611 0.967404
0.862456 0.927883 0.953919 0.974389
0.769354 0.881318 0.911853 0.957346
1.00362 0.969521 1.03583 0.999368
0.871835 0.928424 0.957316 0.980918
0.878298 0.939737 0.965482 0.968036
0.940342 0.950823 0.995738 0.99321
0.695898 0.817862 0.89093 0.95504
0.810856 0.891597 0.941666 0.965781
0.925794 0.936438 1.01357 0.975393
0.998727 0.974139 1.02719 0.9981
0.882724 0.941385 0.962672 0.974046
0.766006 0.851024 0.9369 0.96072
0.770456 0.864758 0.919716 0.968723
0.90848 0.928637 1.00113 0.977188
0.911116 0.937752 0.983561 0.987835
1.01283 0.989209 1.0243 0.99959
1.0137 0.988436 1.02605 0.999521
0.993328 0.988027 1.00602 0.999345
1.01719 0.991197 1.02684 0.999402
1.00784 0.995234 1.01378 0.998898
1.00237 1.0008 1.00369 0.997881
1.00685 1 1.00886 0.998
1.01421 1.00055 1.01672 0.996974
1.00879 1.00039 1.01222 0.996219
1.00468 1.00171 1.00604 0.996943
1.00493 1.00224 1.00664 0.996076
1.00242 1.00214 1.00445 0.995839
1.01199 1.01581 1 0.996245
1.0084 1.01128 1.00077 0.99639
1.00442 1.00616 1.00218 0.996094
1.00153 1.00423 1.00013 0.997187
1.00324 1.00554 1.00074 0.996972
1.00354 1.00518 1.0019 0.99648
0.999593 1.0009 1.00112 0.997578
1.00237 1.00376 1.00108 0.997533
1.00641 1.00853 1.00043 0.997469
1.00461 1 1.00635 0.998268
1.00253 1.00002 1.00452 0.998003
1.00429 1.00361 1.00288 0.997799
0.99963 1 1.00034 0.999294
1.0029 1 1.00428 0.998623
1.00381 1 1.00552 0.9983
0.999977 1 1 0.999977
0.999494 1 1 0.999494
0.999899 1 1.00102 0.998883
0.999595 1 1 0.999595
0.999986 1 1 0.999986
1 1 1 1
0.999991 1 1 0.999991
1 1 1 1
1 1 1 1
0.999453 1 1.00089 0.998565
0.998898 1 1 0.998898
0.999534 1 1 0.999534
0.998994 1 1 0.998994
0.999996 1 1 0.999996
0.999626 1 1 0.999626
0.999069 1 1 0.999069
1 1 1 1
1 1 1 1
0.999706 1 1 0.999706
1 1 1 1
1 1 1 1
1 1 1 1
0.865558 0.925307 0.954196 0.98033
0.885226 0.942056 0.956375 0.982537
0.873264 0.929205 0.958214 0.98078
0.998749 1 1.00016 0.998592
0.999103 1 1.00067 0.998435
0.99898 1 1.00054 0.998443
0.998544 1 1.0001 0.998443
1.00214 1 1.00378 0.998376
0.998633 1 1 0.998633
0.998526 1 1 0.998526
0.998539 1 1 0.998539
0.998468 1 1 0.998468
1.00352 1 1.00501 0.998514
0.872145 0.932064 0.966565 0.968082
0.862716 0.931884 0.952139 0.972313
0.878694 0.944636 0.952128 0.976963
0.812335 0.922264 0.914106 0.96357
0.886005 0.937609 0.977394 0.966818
0.892416 0.934778 0.968742 0.985486
0.931847 0.943515 1.01089 0.976991
0.915056 0.94579 0.98086 0.986384
0.946893 0.954388 1.01552 0.976978
0.85452 0.913678 0.966805 0.967365
0.785839 0.902095 0.909067 0.958264
0.928842 0.942739 0.996871 0.988352
0.932716 0.942461 1.01241 0.977528
0.786053 0.866941 0.936988 0.967672
0.72659 0.848371 0.894145 0.957846
1.00649 1 1.00748 0.999015
1.00659 1 1.0081 0.998498
1.00006 1 1.00173 0.998334
0.979534 0.96863 1.01463 0.996679
1.01109 0.97254 1.03992 0.999735
1.00117 1 1.00268 0.998491
1.03495 0.995883 1.04049 0.998785
1.01434 0.997414 1.01806 0.998931
1.02653 0.985575 1.0423 0.999285
0.970123 0.95354 1.01998 0.997463
1.01891 0.995641 1.02404 0.999345
0.979207 0.965908 1.01624 0.99757
0.893888 0.943312 0.971532 0.975373
0.879876 0.929015 0.963681 0.982801
0.893689 0.945193 0.95935 0.985572
1.00762 0.974664 1.03434 0.999491
0.9397 0.951906 0.997701 0.989452
0.873797 0.929544 0.958333 0.980899
0.929929 0.945386 1.00934 0.974549
0.798952 0.873982 0.944504 0.967864
0.875934 0.9374 0.965385 0.967933
0.697072 0.826556 0.886214 0.951626
0.99825 0.973061 1.02766 0.99827
0.884826 0.94061 0.96578 0.974025
0.759811 0.846758 0.935112 0.959583
0.915531 0.942944 0.981602 0.989127
0.782238 0.872406 0.927035 0.967218
0.897792 0.929235 0.990494 0.975436
0.965665 0.965869 1.00287 0.996927
0.797955 0.86617 0.955074 0.96458
0.782021 0.863416 0.934734 0.96897
0.918859 0.948388 0.992796 0.975895
0.893407 0.933821 0.96658 0.989802
1.01313 0.986524 1.02747 0.999515
0.997548 0.987365 1.011 0.999319
0.998637 0.997673 1.00244 0.998534
1.00634 0.990098 1.01744 0.998976
1.00194 1.00093 1.00304 0.997968
0.998798 1.00199 0.999673 0.997145
1.01272 1.00046 1.01539 0.996902
1.00711 1.00054 1.01037 0.99623
0.999318 1.00158 1.00137 0.996375
1.00489 1.00195 1.00697 0.995989
1.00259 1.00304 1.0037 0.995868
1.01163 1.01524 1 0.996438
1.0288 1.03218 1 0.996722
1.01972 1.02348 1.00002 0.996309
1.01173 1.01551 1 0.99627
1.00813 1.01151 1 0.996666
1.00676 1.00937 1.00107 0.99634
1.00503 1.00657 1.00244 0.996039
1.00112 1.00379 1 0.997345
1.00039 1.00311 1.00002 0.99726
1.00233 1.00499 1.00032 0.997035
1.00006 1.00006 1.00208 0.997926
1.00019 1.00129 1.0013 0.997611
1.00271 1.0041 1.0011 0.997517
1.00274 1 1.00381 0.998928
1.00417 1 1.00591 0.998271
1.00245 1.00001 1.00439 0.998057
0.999952 1 1 0.999952
1.00004 1 1.00076 0.999286
1.00243 1 1.00381 0.998626
1 1 1 1
0.999972 1 1 0.999972
0.999487 1 1 0.999487
0.999983 1 1 0.999983
1 1 1 1
1 1 1 1
1.00033 1 1.00185 0.998485
0.998921 1 1.00013 0.998789
0.999488 1 1.00094 0.998549
0.999451 1 1 0.999451
0.998899 1 1 0.998897
0.999982 1 1 0.999982
0.999538 1 1 0.999538
0.998991 1 1 0.998991
1 1 1 1
0.999997 1 1 0.999997
0.999629 1 1 0.999629
1 1 1 1
1 1 1 1
1 1 1 1
0.884157 0.94169 0.962287 0.975701
0.867634 0.926598 0.955168 0.980315
0.885101 0.940867 0.956843 0.983159
0.998592 1 1.00013 0.998459
0.99889 1 1.00029 0.998604
0.999192 1 1.00077 0.998428
0.998655 1 1.00021 0.998449
0.998805 1 1.00034 0.998463
1.0009 1 1.00249 0.998421
1.00658 1 1.0084 0.998202
1.00753 1 1.00917 0.99838
0.998541 1 1 0.998541
0.998472 1 1 0.998472
1.00327 1 1.00477 0.998503
1.01204 1 1.01334 0.998711
0.768385 0.852948 0.938679 0.959709
0.880646 0.939729 0.968191 0.967915
0.864013 0.931848 0.953577 0.972343
0.775581 0.893346 0.904848 0.959471
0.859839 0.920811 0.966003 0.966648
0.937584 0.946113 1.01669 0.97472
0.918047 0.94172 0.9876 0.987102
0.927314 0.940675 0.995472 0.990281
0.71249 0.838649 0.889974 0.954599
0.926995 0.938451 1.01288 0.97523
0.803387 0.885646 0.938516 0.966547
0.924617 0.945143 0.987156 0.991011
0.918509 0.937372 1.00148 0.978429
0.77317 0.868025 0.920655 0.967489
1.00031 1 1.00076 0.99955
1.00631 1 1.00729 0.999021
1.00705 1 1.00857 0.998498
0.966684 0.950878 1.01918 0.997495
1.0305 0.99046 1.04118 0.999273
1.0151 0.998838 1.01737 0.998938
1.01894 0.997027 1.02265 0.999344
0.976901 0.965421 1.01431 0.997617
0.995693 0.988548 1.0089 0.998343
0.819725 0.877617 0.96831 0.964604
0.891486 0.942505 0.968167 0.976968
0.878946 0.92893 0.962299 0.983262
0.998712 0.971522 1.02964 0.998397
0.906728 0.938845 0.975589 0.989957
0.884299 0.939788 0.96605 0.974025
0.903099 0.923689 1.0009 0.976832
0.791091 0.886327 0.92404 0.965922
0.759335 0.850885 0.929058 0.96055
0.966838 0.964548 1.0054 0.996996
0.791395 0.864693 0.947938 0.965498
0.788462 0.867782 0.93865 0.967981
0.896739 0.934999 0.97169 0.987022
0.911369 0.947833 0.983012 0.978146
0.9565 0.973747 0.983786 0.998477
0.808935 0.881594 0.947568 0.968356
0.936258 0.975449 0.980073 0.979337
0.909609 0.949182 0.971126 0.986801
1.00166 0.986509 1.01607 0.999295
0.990366 0.996869 0.994833 0.998637
0.993652 1.00223 0.993616 0.997808
1.00206 1.0011 1.00291 0.998055
1.00167 1.00242 1.00213 0.99713
1.00023 1.00361 0.999428 0.997205
1.0058 1.00075 1.00884 0.996241
0.999236 1.00119 1.00167 0.996387
1.01749 1.02059 0.999822 0.997141
1.00301 1.00395 1.00319 0.995897
1.01078 1.01438 1 0.996448
1.029 1.03185 1 0.997248
1.03272 1.03555 1 0.997269
1.03142 1.0349 1 0.996643
1.0284 1.03175 1 0.996761
1.02006 1.02362 1 0.996522
1.01852 1.02224 1 0.99636
1.01118 1.01494 1 0.996294
1.00936 1.01236 1 0.997035
1.00811 1.01131 1.00014 0.996694
1.00515 1.0074 1.00148 0.996291
0.998795 1.00115 1 0.997646
1.00193 1.0046 1 0.997339
0.999188 1.00186 1 0.997332
1.00223 1 1.0037 0.998536
1.00045 1.00036 1.00217 0.997926
1.00073 1.00164 1.00145 0.997645
0.999908 1 1.00003 0.999873
1.00233 1 1.00341 0.998925
1.00343 1 1.00517 0.998273
1 1 1 1
0.99994 1 1 0.99994
1.0004 1 1.00112 0.999278
1 1 1 1
0.999966 1 1 0.999966
1 1 1 1
0.999111 1 1.00069 0.998417
1.00012 1 1.00165 0.998478
1.00025 1 1.00158 0.998666
0.999445 1 1.00008 0.999364
0.999068 1 1.00028 0.998788
0.999178 1 1.00065 0.998534
0.999962 1 1 0.999962
0.999454 1 1 0.999454
0.998896 1 1 0.998896
1 1 1 1
0.999987 1 1 0.999987
0.999541 1 1 0.999541
1 1 1 1
0.999999 1 1 0.999999
1 1 1 1
0.79842 0.863788 0.960779 0.962058
0.883388 0.940811 0.962345 0.975703
0.870301 0.928429 0.95623 0.980299
0.999885 1 1.00145 0.99844
1.00136 1.00049 1.00261 0.998266
1.00492 1 1.00661 0.998321
0.999118 1 1.00067 0.998454
0.998655 1 1.00017 0.998482
1.00085 1 1.00239 0.998465
1.0067 1 1.00836 0.998362
1.00612 1 1.00791 0.998224
1.00789 1 1.00979 0.998113
0.993923 1.00022 0.994705 0.99899
1.00234 1 1.00385 0.998491
1.00937 1 1.01071 0.99868
0.787087 0.864067 0.94248 0.966503
0.757781 0.843204 0.938099 0.957993
0.886982 0.944731 0.970122 0.967788
0.699793 0.827573 0.888901 0.951283
0.803755 0.884217 0.939286 0.967758
0.919514 0.93638 1.00469 0.977401
0.934717 0.946785 0.99934 0.987906
0.918376 0.941319 0.986464 0.989013
0.774833 0.860984 0.931155 0.966476
0.904337 0.929322 0.996292 0.976736
0.91109 0.945977 0.972889 0.989959
0.905245 0.948232 0.977804 0.976337
1.00565 1 1.00664 0.999021
0.999855 1 1.00037 0.999489
1.00606 1 1.00704 0.999026
0.976043 0.966362 1.01239 0.997661
1.01888 0.998377 1.0212 0.999344
0.996139 0.989349 1.00861 0.998264
0.986563 0.993791 0.9953 0.997414
0.813872 0.898217 0.933743 0.970392
0.821806 0.877032 0.970569 0.965444
0.891561 0.942978 0.966206 0.978543
0.968464 0.96977 1.00153 0.997126
0.898132 0.935633 0.971946 0.987626
0.791675 0.865649 0.947101 0.965626
0.904521 0.943043 0.982789 0.975949
0.796524 0.873932 0.94035 0.96924
0.960541 0.975414 0.987051 0.997671
0.816364 0.890747 0.945679 0.969138
0.934376 0.976582 0.97981 0.976497
0.916038 0.951566 0.973278 0.989094
0.965892 0.988422 0.978813 0.998358
0.939629 0.981842 0.977896 0.978637
0.944388 0.980467 0.972083 0.990865
0.981176 0.995313 0.98705 0.998729
0.990773 1.00267 0.990327 0.997783
0.982073 1.00733 0.977197 0.997673
1.00345 1.00278 1.00356 0.997115
0.999463 1.00363 0.998648 0.997201
1.02009 1.02821 0.994312 0.997778
0.998964 1.00071 1.00186 0.996399
1.01697 1.02056 0.999352 0.997125
1.03017 1.03537 0.997187 0.997778
1.00987 1.01346 1 0.996459
1.02842 1.03143 0.999839 0.997244
1.03369 1.03657 0.999501 0.997723
1.03035 1.03283 1 0.9976
1.03364 1.0364 1 0.997332
1.0329 1.03588 1 0.997129
1.03189 1.0353 1 0.99671
1.03172 1.03519 1 0.996654
1.02814 1.03145 1 0.996799
1.01952 1.02281 1 0.996783
1.02155 1.02508 1 0.996555
1.01741 1.02107 1 0.99641
1.00338 1.00602 1 0.99738
1.0088 1.0118 1 0.997029
1.00826 1.0114 1.00017 0.996722
0.99845 1 1.00019 0.998261
0.999953 1.00232 1 0.997643
1.00273 1.00542 1 0.997332
1.00033 1 1.00064 0.999697
1.00155 1 1.00302 0.998537
1.00108 1.00069 1.00247 0.997926
1 1 1 1
1.00031 1 1.00046 0.99985
1.00208 1 1.00316 0.998921
1 1 1 1
0.999927 1 1 0.999927
1 1 1 1
0.998339 1 1 0.998339
0.999657 1 1.00123 0.998425
1.00084 1 1.0023 0.998544
0.999865 1 1.0014 0.998471
1.00051 1 1.00184 0.998665
0.999999 1 1.00075 0.999248
0.999939 1 1 0.999939
0.999435 1 1.00007 0.999367
0.99943 1 1.00064 0.998787
1 1 1 1
0.999968 1 1 0.999968
0.999457 1 1 0.999457
1 1 1 1
0.999991 1 1 0.999991
1 1 1 1
0.818076 0.887108 0.951545 0.969143
0.801234 0.86738 0.960031 0.962198
0.882331 0.939976 0.962052 0.9757
1.00121 1 1.00279 0.998422
1.00626 1 1.00807 0.998211
1.00015 1.00027 1.00155 0.998332
0.998989 1.00105 1.00027 0.99767
1.00572 1.00017 1.00737 0.998201
1.00628 1 1.00795 0.998345
1.00482 1 1.00658 0.998246
1.00961 1.00004 1.01142 0.998167
0.99792 1 1 0.99792
0.986284 1.00065 0.986938 0.998689
0.988577 1.00035 0.990415 0.997794
0.994913 1.00012 0.99575 0.999038
1.00563 1 1.00699 0.998648
0.925574 0.969927 0.976012 0.977725
0.787545 0.861224 0.945417 0.967244
0.758368 0.84593 0.935503 0.958298
0.772841 0.862638 0.928413 0.964984
0.915577 0.938449 0.99971 0.975912
0.920321 0.93676 0.991254 0.99112
0.913001 0.945174 0.974321 0.991419
0.915372 0.949801 0.984413 0.97901
0.939674 0.975648 0.97236 0.990505
0.997416 1.00132 0.997881 0.998218
1.00516 1 1.00617 0.998999
0.999685 1 1.00026 0.999429
0.99742 0.991236 1.00804 0.998214
0.991526 0.997421 0.996599 0.997483
0.915742 0.969334 0.965297 0.978675
0.823504 0.896734 0.946305 0.970445
0.823828 0.875579 0.973703 0.966307
0.967018 0.979338 0.990567 0.996823
0.915779 0.951276 0.975412 0.986952
0.816433 0.887802 0.949176 0.968853
0.932269 0.970446 0.981369 0.978898
0.972863 0.988353 0.985884 0.998421
0.946781 0.98945 0.976696 0.979707
0.941101 0.977906 0.973436 0.988625
0.988655 1.00429 0.986596 0.997805
0.962803 0.994092 0.974695 0.99367
0.991087 1.00465 0.988706 0.997773
0.982721 1.00687 0.978343 0.997622
1.00221 1.03156 0.973576 0.997914
0.998956 1.00365 0.998123 0.997196
1.02047 1.02828 0.994637 0.997757
1.0298 1.04341 0.988895 0.998038
1.01646 1.02055 0.998884 0.997109
1.02965 1.03553 0.996555 0.997757
1.02722 1.0355 0.994032 0.997958
1.02783 1.03109 0.999591 0.99724
1.03378 1.03704 0.999157 0.997703
1.03175 1.03516 0.998917 0.997787
1.031 1.03343 1 0.997651
1.02984 1.03252 0.999996 0.997414
1.03453 1.03723 1 0.997394
1.03283 1.03581 1 0.997121
1.03435 1.03751 1 0.996959
1.02826 1.03157 1 0.996784
1.03173 1.03515 1 0.9967
1.03198 1.03543 1 0.996666
1.01243 1.01531 1 0.997164
1.01872 1.02199 1 0.996798
1.023 1.0265 1 0.996588
0.998801 1.00075 1 0.998055
1.00467 1.00731 1 0.997377
1.00813 1.01114 1 0.997024
1.00003 1 1.00055 0.999478
0.998715 1.00013 1.00032 0.998262
1.00115 1.00352 1 0.99764
1 1 1 1
1.0005 1 1.00083 0.999673
1.00085 1 1.00231 0.998538
1 1 1 1
1.00072 1 1.00089 0.999827
1 1 1 1
1.00126 1.00352 1 0.997739
0.998332 1 1 0.998332
0.999766 1 1.00139 0.998375
1.0003 1 1.00187 0.998432
1.00077 1 1.00225 0.99852
1.00034 1 1.00128 0.999064
1.00054 1 1.00187 0.998664
0.999701 1 1.00045 0.99925
0.999911 1 1 0.999911
1 1 1 1
0.999946 1 1 0.999946
0.99937 1 1 0.99937
1 1 1 1
0.999974 1 1 0.999974
1 1 1 1
0.939872 0.983085 0.975093 0.980463
0.814329 0.891849 0.94155 0.969762
0.809318 0.872406 0.964898 0.961433
1.0075 1 1.00942 0.998102
0.998773 1 1.00038 0.998399
1.00449 1.00008 1.00624 0.998183
1.0001 1.00198 1.0004 0.997721
1.0073 1.00994 1.00016 0.997226
0.998006 1.00012 1 0.997885
1.01162 1.00005 1.01337 0.99822
0.997799 1.00005 1 0.997748
0.990288 1.00059 0.991031 0.998665
0.99672 1.00068 0.99819 0.997847
0.985784 1.00303 0.984825 0.997951
0.99589 1.00129 0.997192 0.997409
0.988932 1.00082 0.990171 0.997931
0.997947 1 0.99886 0.999086
0.941253 0.979546 0.970014 0.990612
0.928657 0.972627 0.976085 0.978186
0.786746 0.862657 0.94118 0.969
0.924515 0.955231 0.99172 0.975925
0.915564 0.944121 0.977231 0.992348
0.94416 0.975012 0.974813 0.993377
0.990488 1.00377 0.988982 0.997764
0.995395 1.00067 0.9965 0.998222
1.0046 1 1.00563 0.998978
0.992876 0.999996 0.995337 0.997532
0.94979 0.975566 0.982626 0.990792
0.93077 0.975429 0.97235 0.98135
0.812111 0.890668 0.940691 0.969287
0.974738 0.98607 0.990017 0.998475
0.943285 0.980778 0.971295 0.990197
0.95338 0.988983 0.982921 0.98075
0.981836 1.00286 0.981158 0.997833
0.961351 0.990699 0.977261 0.992956
0.983578 1.02425 0.962506 0.997703
1.00262 1.01628 0.989599 0.996931
0.982676 1.0064 0.97881 0.997566
1.00049 1.03038 0.973022 0.997908
1.00682 1.04655 0.964011 0.997951
1.02121 1.0288 0.994869 0.997736
1.02961 1.04327 0.988866 0.998021
1.02304 1.03837 0.987301 0.997908
1.02932 1.03577 0.996029 0.997736
1.02666 1.03483 0.994153 0.99794
1.03163 1.03945 0.994708 0.997758
1.03395 1.03747 0.998923 0.997684
1.03015 1.03362 0.998859 0.99778
1.0312 1.03416 0.999633 0.997507
1.03162 1.03399 1 0.997702
1.03009 1.03272 1 0.997458
1.03324 1.03622 1 0.997121
1.03282 1.03581 1 0.997112
1.0343 1.03747 1 0.996948
1.03143 1.03461 1 0.996926
1.01959 1.02262 1 0.997035
1.02823 1.03154 1 0.996795
1.03152 1.03495 1 0.996689
1.00138 1.00352 1 0.997868
1.01225 1.01513 1 0.997166
1.01806 1.02131 1 0.996814
0.999285 1 1 0.999285
0.999478 1.00143 1 0.998053
1.00579 1.00844 1 0.997373
1 1 1 1
0.999815 1 1.00035 0.999461
0.998906 1.00024 1.0004 0.998262
1 1 1 1
1.00064 1 1.00099 0.999649
1 1 1 1
1.00717 1.00988 1 0.997319
1.0014 1.00365 1 0.997758
1.00126 1.00268 1.0006 0.997991
0.998324 1 1 0.998324
0.999647 1 1.00131 0.998341
1.00042 1 1.00161 0.998815
1.00083 1 1.00234 0.998496
1.0002 1 1.00114 0.999066
0.999878 1 1.00001 0.999866
0.999544 1 1.00029 0.999252
0.999919 1 1 0.999919
1 1 1 1
1 1 1 1
0.999953 1 1 0.999953
1 1 1 1
0.941718 0.979603 0.969892 0.991169
0.933519 0.982681 0.971109 0.978233
0.80693 0.885315 0.939383 0.970277
1.01862 1.02165 1.00007 0.99696
1.00339 1.00008 1.00515 0.998165
1.00157 1.0032 1.0006 0.997773
0.99798 1.00013 1 0.997855
1.00708 1.00947 1.00042 0.997211
1.00172 1.00399 1 0.997739
0.997744 1.00017 1 0.997577
0.992673 1.00048 0.993548 0.998641
0.995465 1.00092 0.996672 0.997869
0.981085 1.0021 0.981106 0.997879
1.00104 1.00598 0.997865 0.997211
1.00126 1.00674 0.997157 0.997398
0.996706 1.00195 0.997391 0.997364
0.988909 1.00134 0.989501 0.998068
0.989429 1.00613 0.985112 0.998267
0.937604 0.978951 0.96794 0.989486
0.931991 0.974416 0.976925 0.979053
0.937149 0.970215 0.974271 0.991428
0.9936 1.00568 0.989652 0.998321
0.995584 1.0002 0.997158 0.998222
0.989751 1.00668 0.986345 0.996792
0.937366 0.96351 0.980528 0.992186
0.91811 0.972434 0.964598 0.978787
0.976522 1.00113 0.977507 0.997861
0.967403 0.992432 0.982622 0.99202
0.986346 1.02527 0.964181 0.997779
1.00206 1.01562 0.989484 0.997136
0.996837 1.0365 0.963881 0.997777
1.03782 1.04582 0.994699 0.997646
0.998168 1.02858 0.972472 0.997902
1.00993 1.04795 0.965703 0.997941
1.01292 1.0473 0.969341 0.997767
1.02871 1.04255 0.988701 0.998003
1.02211 1.03776 0.986991 0.997904
1.03014 1.04385 0.989195 0.997646
1.02585 1.03407 0.99412 0.997923
1.03074 1.0386 0.994648 0.997771
1.03423 1.0388 0.998147 0.997453
1.02858 1.03213 0.998786 0.997773
1.03173 1.03464 0.999683 0.997506
1.03526 1.03818 1 0.99719
1.03031 1.0329 1 0.997501
1.03341 1.03636 1 0.997157
1.03343 1.03659 1 0.996948
1.03422 1.0374 1 0.996938
1.03119 1.03439 1 0.996906
1.02286 1.0259 1 0.997041
1.00508 1.00735 1 0.997747
1.01897 1.02198 1 0.997057
1.02819 1.03149 1 0.996807
0.999142 1 1 0.999142
1.00252 1.00466 1 0.997867
1.01214 1.01502 1 0.997167
1 1 1 1
0.999272 1 1 0.999272
1.0002 1.00216 1 0.998051
1 1 1 1
0.999622 1 1.00018 0.999445
1 1 1 1
1.01487 1.01793 1 0.996996
1.00792 1.01062 1 0.997322
1.00573 1.00813 1 0.997624
1.00132 1.00355 1.00001 0.997777
1.00021 1.00166 1.00056 0.997989
0.999984 1.00012 1.00134 0.998532
0.999527 1 1.00122 0.998306
1.00095 1 1.00214 0.998815
1.0005 1 1.00073 0.999779
0.999827 1 1.00076 0.999067
0.999876 1 1 0.999876
1 1 1 1
0.999927 1 1 0.999927
1 1 1 1
1 1 1 1
0.986767 1.01057 0.97827 0.998139
0.936123 0.976558 0.969237 0.98902
0.929108 0.972704 0.97387 0.980809
1.01362 1.01635 1.00001 0.997297
1.0262 1.02935 1 0.996935
1.01641 1.01932 1.00013 0.997017
0.997853 1.00003 1 0.997824
1.00659 1.00868 1.00073 0.997194
1.00276 1.00543 0.999641 0.997699
1.01523 1.01855 0.999559 0.997183
0.99474 1.00115 0.995698 0.997892
0.977555 1.00117 0.97856 0.997806
1.00219 1.00761 0.997327 0.997285
1.01795 1.02368 0.997405 0.99699
1.0099 1.02302 0.989481 0.997669
1.00307 1.0082 0.997532 0.997367
0.997949 1.00262 0.998012 0.997319
0.993508 1.00817 0.986978 0.998455
0.941192 0.980403 0.971432 0.988238
0.993844 1.00645 0.988566 0.998896
1.01976 1.03488 0.987108 0.998261
0.98935 1.00539 0.987103 0.996902
0.94118 0.972793 0.977108 0.99017
0.98964 1.02666 0.966014 0.997851
1.00151 1.01532 0.989014 0.997353
0.996467 1.03706 0.962901 0.997882
1.03809 1.04727 0.993566 0.997657
1.03301 1.05421 0.982202 0.997649
1.05776 1.06855 0.992109 0.997774
1.01352 1.05021 0.96707 0.997931
1.01713 1.04763 0.97306 0.997768
1.03339 1.05206 0.984676 0.997548
1.02158 1.03735 0.986866 0.9979
1.03004 1.04318 0.989745 0.997644
1.03547 1.04426 0.994154 0.997419
1.02988 1.03774 0.99463 0.997784
1.03468 1.03918 0.998215 0.99745
1.03826 1.04137 0.99983 0.997179
1.03219 1.03505 0.999732 0.997505
1.0353 1.03822 1 0.99719
1.03651 1.03969 1 0.996943
1.0336 1.03651 1 0.997193
1.03309 1.03624 1 0.99696
1.02509 1.02817 1 0.997006
1.03098 1.0342 1 0.996885
1.02275 1.02579 1 0.997034
1.00721 1.00956 1 0.997677
0.999073 1 1 0.999073
1.00572 1.00799 1 0.997746
1.0184 1.02139 1 0.997078
1 1 1 1
0.99913 1 1 0.99913
1.00363 1.00578 1 0.997867
1 1 1 1
0.999259 1 1 0.999259
1 1 1 1
1.02286 1.02609 1 0.99686
1.01536 1.01844 1 0.996978
1.01022 1.01294 1 0.997317
1.00862 1.01132 1 0.997324
1.00428 1.00667 1 0.997631
0.999746 1.00117 1.00032 0.998251
0.999072 1.00062 1.00046 0.997987
1.00046 1.00002 1.00191 0.998534
1.00028 1 1.00067 0.999613
1.00155 1 1.00274 0.998816
1.00016 1 1.00037 0.999794
1 1 1 1
0.999886 1 1 0.999886
1 1 1 1
1 1 1 1
1.00833 1.0326 0.978302 0.99816
0.984389 1.00952 0.97751 0.99754
0.935282 0.978257 0.965965 0.989757
1.02477 1.02777 1 0.997078
1.01455 1.01711 1 0.997478
1.04083 1.04402 1 0.996946
1.02688 1.03006 1 0.99692
1.01449 1.01728 1.00018 0.997075
1.03483 1.0384 0.999648 0.996917
1.00363 1.00695 0.999033 0.99766
1.01377 1.01704 0.999669 0.997121
1.03667 1.04889 0.991156 0.997171
1.00258 1.0092 0.996065 0.997358
1.01857 1.0244 0.997358 0.996946
1.01058 1.02389 0.989278 0.997697
1.00343 1.00851 0.997626 0.997334
0.997818 1.01009 0.989202 0.998635
1.04543 1.06166 0.986854 0.997831
1.01992 1.03473 0.987389 0.998275
0.988462 1.00409 0.987392 0.997005
0.996768 1.03699 0.96315 0.997986
1.03753 1.04783 0.99249 0.997669
1.02949 1.05369 0.979323 0.997668
1.05821 1.07009 0.991109 0.99777
1.04898 1.06388 0.988303 0.997666
1.0208 1.04759 0.976599 0.99777
1.03385 1.05149 0.985634 0.997558
1.03677 1.04984 0.990081 0.997438
1.02985 1.04247 0.990224 0.997642
1.0351 1.04382 0.994239 0.9974
1.03999 1.04458 0.998454 0.997155
1.0352 1.03963 0.998287 0.997447
1.03839 1.04149 0.999854 0.997176
1.03994 1.04315 1 0.996921
1.03535 1.03827 1 0.997191
1.03632 1.0395 1 0.996946
1.02805 1.03121 1 0.996941
1.03275 1.03589 1 0.996971
1.02527 1.02835 1 0.99701
1.00814 1.01056 1 0.997602
1.02259 1.02564 1 0.997027
1.00742 1.00977 1 0.997675
0.999214 1 1 0.999214
0.99972 1 1 0.99972
0.999136 1 1 0.999136
1.00631 1.00858 1 0.997745
1 1 1 1
0.999119 1 1 0.999119
1 1 1 1
1.04792 1.05105 1 0.997017
1.0327 1.0359 1 0.996911
1.02366 1.02689 1 0.996857
1.01535 1.01825 1 0.997151
1.01607 1.01917 1 0.996961
1.01009 1.0128 1 0.997318
1.00186 1.00385 1 0.998018
1.0028 1.00517 1 0.997638
0.99947 1.00076 1.00045 0.998255
0.9995 1 1.00011 0.999389
1.00115 1 1.00262 0.998536
1.0003 1 1.00067 0.999633
1 1 1 1
0.999839 1 1.00003 0.999809
1 1 1 1
1 1 1 1
1.04113 1.06016 0.984428 0.997581
1.01249 1.03706 0.978047 0.998228
0.982459 1.00962 0.976078 0.996948
1.03848 1.04167 1 0.996944
1.02342 1.02636 1 0.997136
1.01511 1.0175 1 0.997657
1.03967 1.04284 1 0.996964
1.02753 1.03072 1 0.996906
1.04431 1.05423 0.993423 0.99715
1.0313 1.03488 0.999658 0.996876
1.01254 1.01553 1 0.997059
1.03579 1.04798 0.991175 0.997165
1.02134 1.02684 0.997742 0.996902
1.01411 1.02809 0.988644 0.997731
1.04866 1.06301 0.988716 0.997763
1.04761 1.06308 0.987562 0.997857
1.02007 1.03473 0.987521 0.99829
1.02719 1.05415 0.976684 0.997687
1.05945 1.07233 0.990196 0.997767
1.049 1.06491 0.98736 0.997675
1.04166 1.05196 0.992668 0.997522
1.03422 1.05081 0.986614 0.997567
1.03682 1.04939 0.99057 0.997427
1.04183 1.0483 0.996629 0.997184
1.03473 1.04337 0.994326 0.997381
1.04051 1.04508 0.998475 0.997155
1.04277 1.04602 1 0.9969
1.03852 1.04159 0.999879 0.997174
1.03998 1.04319 1 0.996922
1.03071 1.03395 1 0.996869
1.03615 1.03932 1 0.99695
1.02834 1.03149 1 0.996944
1.00911 1.01163 1 0.997503
1.02546 1.02853 1 0.997014
1.00839 1.01082 1 0.997601
0.999221 1 1 0.999221
1.00764 1.00999 1 0.997673
0.999209 1 1 0.999209
0.999738 1 1 0.999738
0.999865 1 1 0.999865
0.999204 1 1 0.999204
1 1 1 1
1.04371 1.04688 1 0.996974
1.03855 1.04172 1 0.996962
1.04703 1.05004 1 0.997133
1.02408 1.02711 1 0.997055
1.03465 1.03787 1 0.996899
1.02451 1.02774 1 0.996853
1.01613 1.01904 1 0.997146
1.00588 1.00806 1 0.997834
1.01008 1.01279 1 0.997319
1.00099 1.00297 1 0.998019
0.999199 1 1 0.999199
0.999138 1.00036 1.00052 0.998258
0.999698 1 1.00029 0.999408
1 1 1 1
1.00029 1 1.00063 0.999653
1 1 1 1
1 1 1 1
1.04255 1.05805 0.987855 0.99747
1.03991 1.05878 0.984565 0.997577
1.01506 1.03935 0.978302 0.998289
1.0452 1.05043 0.997955 0.997061
1.03675 1.03993 1 0.996945
1.02223 1.02511 1 0.997194
1.03833 1.04147 1 0.996983
1.04309 1.05306 0.993388 0.997126
1.02758 1.03119 0.999669 0.996835
1.03179 1.04381 0.991301 0.99716
1.04371 1.05491 0.991779 0.997584
1.04767 1.06179 0.988951 0.997724
1.04965 1.06428 0.988342 0.997883
1.04065 1.04867 0.994922 0.997415
1.04872 1.06567 0.986383 0.997684
1.04143 1.05199 0.992431 0.997509
1.04343 1.05034 0.996132 0.997282
1.03695 1.04898 0.9911 0.997415
1.04187 1.04838 0.996597 0.997186
1.04392 1.04723 0.999945 0.996898
1.041 1.04554 0.998498 0.997154
1.0428 1.04604 1 0.996901
1.03209 1.03539 1 0.996816
1.03993 1.04314 1 0.996923
1.03099 1.03422 1 0.996871
1.00988 1.01251 1 0.997405
1.0286 1.03175 1 0.996947
1.00934 1.01187 1 0.997503
0.999196 1 1 0.999196
1.00865 1.01107 1 0.997599
0.999211 1 1 0.999211
0.999742 1 1 0.999742
0.999207 1 1 0.999207
0.999744 1 1 0.999744
1 1 1 1
1.04409 1.04759 0.999777 0.996876
1.03987 1.04313 1 0.996874
1.04519 1.04835 1 0.996979
1.02952 1.03255 1 0.997065
1.03944 1.04259 1 0.996984
1.0463 1.04918 1 0.997248
1.00917 1.01152 1 0.997678
1.02411 1.02714 1 0.997047
1.03673 1.03996 1 0.996888
1.01675 1.01966 1 0.997141
1.00458 1.00676 1 0.997835
0.999091 1 1 0.999091
0.999982 1.00196 1 0.99802
0.999212 1 1 0.999212
1 1 1 1
0.999894 1 1.00047 0.999427
1 1 1 1
1 1 1 1
1.04248 1.05171 0.993872 0.997332
1.04269 1.05852 0.987557 0.997455
1.04024 1.05912 0.984557 0.997572
1.04414 1.04959 0.997725 0.997077
1.03485 1.03802 1 0.996946
1.04253 1.05256 0.993346 0.997103
1.04138 1.05018 0.99419 0.997418
1.04413 1.05499 0.992105 0.997577
1.04672 1.06069 0.989118 0.997685
1.04119 1.0491 0.995013 0.997436
1.04454 1.05033 0.997261 0.997223
1.04117 1.05204 0.992159 0.997495
1.04356 1.05021 0.996423 0.997241
1.04385 1.04777 0.99928 0.996979
1.04187 1.04841 0.996563 0.997189
1.04436 1.04771 0.9999 0.996901
1.03213 1.03547 1 0.99678
1.043 1.04624 1 0.996902
1.03253 1.03583 1 0.996817
1.0101 1.0128 1 0.997335
1.03141 1.03464 1 0.996873
1.00998 1.01261 1 0.997405
0.999142 1 1 0.999142
1.00958 1.01211 1 0.997502
0.999181 1 1 0.999181
0.999723 1 1 0.999723
0.999205 1 1 0.999205
0.999756 1 1 0.999756
0.999745 1 1 0.999745
1.0447 1.04911 0.998669 0.997119
1.04221 1.0456 1 0.996763
1.04487 1.0487 0.999441 0.996902
1.03162 1.03477 1 0.996958
1.03916 1.04243 1 0.996867
1.04658 1.04974 1 0.996984
1.01025 1.01271 1 0.997569
1.02949 1.03256 1 0.997025
1.04019 1.04331 1 0.997007
0.999051 1 1 0.999051
1.00845 1.0108 1 0.997681
1.02425 1.02729 1 0.997039
1.00335 1.00553 1 0.997837
0.999102 1 1 0.999102
1 1 1 1
0.999226 1 1 0.999226
1 1 1 1
1 1 1 1
1.03989 1.04747 0.99544 0.997313
1.04207 1.05139 0.993793 0.997325
1.04253 1.05863 0.987321 0.997439
1.04307 1.04874 0.997498 0.997092
1.04373 1.04853 0.998233 0.997182
1.04191 1.05045 0.994434 0.997428
1.04459 1.05505 0.992504 0.99757
1.04177 1.04954 0.995125 0.997457
1.04426 1.05014 0.997164 0.997233
1.04418 1.04811 0.999273 0.99698
1.04379 1.05014 0.996738 0.997199
1.04429 1.048 0.999518 0.996939
1.03157 1.03488 1 0.9968
1.04475 1.04815 0.999854 0.996904
1.03225 1.03558 1 0.996782
1.00958 1.01234 1 0.997278
1.03273 1.03603 1 0.996819
1.00992 1.01262 1 0.997335
0.998941 1 1 0.998941
1.01002 1.01265 1 0.997405
0.99906 1 1 0.99906
1 1 1 1
0.999168 1 1 0.999168
0.999742 1 1 0.999742
0.999763 1 1 0.999763
1.0421 1.04661 0.998485 0.997206
1.04279 1.04606 1 0.996873
1.04468 1.04892 0.998847 0.99711
1.03276 1.03608 1 0.996797
1.04172 1.04508 1 0.996783
1.04571 1.04989 0.999095 0.996928
1.0107 1.01335 1 0.997383
1.0318 1.03495 1 0.996958
1.0385 1.04178 1 0.99686
0.999043 1 1 0.999043
1.01014 1.01264 1 0.997525
1.02944 1.03256 1 0.996986
1 1 1 1
0.999062 1 1 0.999062
1.00768 1.01002 1 0.997684
0.999113 1 1 0.999113
1 1 1 1
1 1 1 1
1.04217 1.04678 0.998396 0.997198
1.04037 1.04791 0.995482 0.997319
1.04159 1.05105 0.993659 0.997319
1.04417 1.04757 0.999835 0.996918
1.04303 1.04815 0.997909 0.997196
1.04241 1.05069 0.994667 0.997439
1.04394 1.04994 0.997035 0.997244
1.04395 1.04797 0.999186 0.996981
1.03021 1.03345 1 0.996864
1.04463 1.04815 0.999737 0.996899
1.03137 1.03466 1 0.996813
1.00904 1.01191 1 0.997167
1.03249 1.03582 1 0.996785
1.00946 1.01222 1 0.997278
0.998895 1 1 0.998895
1.00984 1.01254 1 0.997335
0.998939 1 1 0.998939
1 1 1 1
0.998966 1 1 0.998966
0.999853 1 1 0.999853
0.999758 1 1 0.999758
1.04193 1.04583 0.999106 0.997157
1.0433 1.04651 1 0.996932
1.04249 1.0469 0.998572 0.997213
1.03305 1.03637 1 0.996796
1.04319 1.04647 1 0.996858
1.0447 1.04874 0.999043 0.997102
1.01075 1.0135 1 0.997285
1.03268 1.03597 1 0.99683
1.04121 1.04455 1 0.996803
0.999019 1 1 0.999019
1.01066 1.01332 1 0.99737
1.03199 1.03514 1 0.996957
1 1 1 1
0.999053 1 1 0.999053
1.01006 1.01261 1 0.997481
1 1 1 1
0.999073 1 1 0.999073
1 1 1 1
1.04458 1.04799 0.999779 0.996967
1.04148 1.04604 0.998461 0.997183
1.04085 1.04832 0.995533 0.997326
1.03002 1.03327 1 0.996857
1.04389 1.04752 0.999601 0.99694
1.04234 1.04779 0.997585 0.997209
1.04375 1.04782 0.999124 0.996982
1.03027 1.03352 1 0.996864
1.00839 1.01128 1 0.997144
1.03118 1.03446 1 0.996825
1.009 1.01183 1 0.997198
0.99884 1 1 0.99884
1.00928 1.01203 1 0.997279
0.998892 1 1 0.998892
1 1 1 1
0.998936 1 1 0.998936
1 1 1 1
0.999734 1 1 0.999734
1.04493 1.04812 1 0.996954
1.04129 1.04548 0.998801 0.997181
1.03268 1.03597 1 0.996823
1.0435 1.04671 1 0.99693
1.04295 1.04727 0.998649 0.99722
1.01003 1.01275 1 0.997314
1.03266 1.03598 1 0.996792
1.04355 1.04686 1 0.996843
0.998967 1 1 0.998967
1.01091 1.01364 1 0.997313
1.03257 1.03582 1 0.996863
1 1 1 1
0.999025 1 1 0.999025
1.01061 1.01329 1 0.997356
1 1 1 1
0.999061 1 1 0.999061
1 1 1 1
1.0308 1.03401 1 0.996888
1.04449 1.04782 0.999861 0.996954
1.04079 1.04531 0.998504 0.997167
1.00735 1.01023 1 0.997153
1.03002 1.03327 1 0.996858
1.04361 1.04746 0.999354 0.996962
1.03034 1.03358 1 0.996863
1.00841 1.0113 1 0.997144
0.998803 1 1 0.998803
1.00897 1.01177 1 0.997229
0.998837 1 1 0.998837
1 1 1 1
0.99889 1 1 0.99889
1 1 1 1
1 1 1 1
1.03231 1.03559 1 0.996833
1.04451 1.04782 0.999848 0.996988
1.04059 1.04504 0.998539 0.997205
1.00914 1.01187 1 0.997302
1.03231 1.0356 1 0.996819
1.04364 1.04686 1 0.996929
0.998916 1 1 0.998916
1.01034 1.01306 1 0.997311
1.0323 1.03562 1 0.996789
1 1 1 1
0.998971 1 1 0.998971
1.01108 1.01378 1 0.997341
1 1 1 1
0.99903 1 1 0.99903
1 1 1 1
1.00727 1.01006 1 0.997237
1.03063 1.03388 1 0.996856
1.04443 1.04765 0.999981 0.996941
0.998813 1 1 0.998813
1.00744 1.01032 1 0.997151
1.03003 1.03328 1 0.996858
1.00844 1.01133 1 0.997145
0.998803 1 1 0.998803
1 1 1 1
0.998834 1 1 0.998834
1 1 1 1
1 1 1 1
1.00808 1.01083 1 0.997277
1.03188 1.03515 1 0.996844
1.04412 1.04759 0.999664 0.997023
0.99906 1 1 0.99906
1.00943 1.01216 1 0.9973
1.03195 1.03525 1 0.996816
1 1 1 1
0.998917 1 1 0.998917
1.01063 1.01336 1 0.997309
1 1 1 1
0.998974 1 1 0.998974
1 1 1 1
0.998807 1 1 0.998807
1.00746 1.01028 1 0.997209
1.03048 1.03376 1 0.996823
1 1 1 1
0.998812 1 1 0.998812
1.00752 1.0104 1 0.997149
0.998802 1 1 0.998802
1 1 1 1
1 1 1 1
0.999016 1 1 0.999016
1.00842 1.01117 1 0.997277
1.03141 1.03467 1 0.996856
1 1 1 1
0.998883 1 1 0.998883
1.00973 1.01246 1 0.997298
1 1 1 1
0.998919 1 1 0.998919
1 1 1 1
0.999667 1 1 0.999667
0.998918 1 1 0.998918
1.00765 1.0105 1 0.99718
1 1 1 1
0.998813 1 1 0.998813
1 1 1 1
0.999683 1 1 0.999683
0.99894 1 1 0.99894
1.00878 1.01153 1 0.997277
0.999842 1 1 0.999842
0.998883 1 1 0.998883
1 1 1 1
1 1 1 1
0.998835 1 1 0.998835
1 1 1 1
0.999839 1 1 0.999839
0.99886 1 1 0.99886
1 1 1 1
1 1 1 1
1 1 1 1

VECTORS lamdaE float
1.00097 1.00014 0.994113
1.0006 1.00064 0.99716
1.00056 1.00036 0.994378
1.00114 1.00001 0.994
1.00106 0.999972 0.994172
1.00091 1.00037 0.993949
1.00231 1.00047 0.991161
1.00062 1.00055 0.997165
1.00058 1.00017 0.997546
1.00008 1.00087 0.997591
1.00057 1.0006 0.994153
1.002 1.0013 0.990069
1.00081 0.99998 0.994351
1.00056 0.999996 0.994541
1.00018 1.00057 0.994615
1.00084 0.999993 0.994302
1.00045 1.00073 0.994189
1.00072 1.00003 0.99445
1.00252 1.00028 0.991044
1.00082 1.00002 0.997183
1.00109 1.00006 0.993995
1.00113 0.999944 0.994104
1.00249 1.0001 0.991227
1.00245 1.00014 0.991255
1.00089 1.00047 0.993844
1.00208 1.00101 0.990979
1.00491 1.00051 0.986669
1.00062 1.00052 0.997187
1.00077 1.00006 0.995853
1.00038 1.00062 0.995879
1.00058 1.0005 0.997238
1.0019 1.00143 0.990076
1.00107 0.999822 0.994085
1.00079 1.00027 0.994191
1.00276 1.00008 0.991517
0.999874 1.00059 0.997836
1.00241 1.00079 0.99149
1.00173 1.00171 0.990079
1.00418 1.0015 0.986146
0.999974 0.999174 0.998241
1.00084 0.999989 0.997166
1.00076 1 0.995833
1.00077 0.999977 0.997209
1.00043 1.00003 0.994697
1.00251 0.999948 0.990588
1.00071 0.999961 0.99747
1.00281 1.00005 0.991494
1.00054 0.999929 0.994604
1.00039 1.00007 0.994714
0.999995 1.00113 0.994411
1.00271 1.00009 0.990941
1.00065 1.00004 0.99592
1.00077 1.00008 0.994301
1.00039 1.00092 0.994058
1.00082 0.999923 0.994395
1.00263 1.00006 0.991086
1.00234 1.00074 0.990867
1.00261 1.00004 0.991134
1.00488 1.00053 0.986677
1.00074 1.00001 0.997212
1.00099 1.00007 0.994135
1.00226 1.00001 0.992236
1.00242 1.00013 0.991303
1.00251 1.00005 0.991248
1.00484 1.00016 0.987015
1.00491 1.00017 0.986817
1.00073 1.00037 0.994092
1.00156 1.00191 0.990871
1.0048 1.00082 0.986551
1.00526 1.00031 0.985493
1.00101 1.00009 0.997136
1.0005 1.0004 0.997358
1.00068 1.00047 0.997161
1.00185 1.00149 0.990077
1.00111 0.999954 0.99708
1.00088 1.00028 0.99716
1.00263 1.00003 0.990172
1.0001 1.00041 0.996249
1.00217 1.00085 0.990162
1.00161 1.00194 0.99087
1.00428 1.00135 0.986143
1.00024 0.99983 0.997796
1.00002 1.00151 0.993242
1.00282 0.99994 0.990007
1.00258 1.00024 0.990153
1.00496 1.00021 0.986156
1.00111 1.00236 0.992132
1.00459 1.00078 0.986174
1.00344 1.00268 0.986305
1.00513 1.00126 0.984683
0.999838 0.998404 0.998624
0.999839 0.999004 0.998403
1.00104 0.999985 0.997068
1.00089 0.999987 0.997152
1.00081 0.999983 0.997207
1.00067 0.999995 0.99593
1.00254 0.999938 0.991262
1.00088 0.999967 0.995774
1.00274 1.00006 0.990833
1.00078 0.999991 0.997216
1.00237 0.999871 0.990846
1.0027 1.00003 0.991692
1.00484 0.999482 0.987163
1.00283 0.999982 0.991459
1.00495 0.999767 0.9867
1.00078 1.00001 0.994395
1.00044 1.00009 0.994612
0.999899 1.00141 0.994273
1.00052 0.999876 0.994683
1.00276 1.00006 0.990945
1.00276 0.999953 0.991019
1.00259 1.00043 0.990764
1.00485 1.00054 0.986685
1.0008 0.999992 0.997212
1.00067 1.00006 0.994442
1.00242 0.999979 0.991104
1.00255 1.00011 0.991153
1.00048 1.00079 0.995635
1.00193 1.00167 0.990979
1.00264 1 0.99112
1.00486 1.00008 0.987066
1.00475 1.00086 0.986561
1.0049 1.00029 0.986789
1.00526 1.0003 0.985522
1.00235 0.999927 0.990841
1.00232 1.00006 0.991496
1.00471 0.999437 0.987894
1.00479 0.999852 0.987324
1.00488 1.00004 0.986986
1.00529 0.999184 0.98686
1.00014 1.00055 0.997577
1.00527 0.999849 0.985946
1.00115 1.00271 0.989937
1.00434 1.00125 0.986106
1.00525 1.00081 0.985053
1.00521 0.999049 0.986741
1.00037 1.00284 0.991263
1.00104 1.00511 0.987775
1.00111 0.999981 0.997097
1.00084 1.00029 0.997158
1.00264 1.00002 0.990165
1.00024 1.00013 0.997695
1.00126 1.00234 0.990211
1.00214 1.00086 0.990174
1.00435 1.00121 0.98614
1.00006 0.99972 0.997965
0.999919 1.00166 0.99328
1.00284 0.999977 0.990738
1.00258 1.00029 0.99084
1.00495 1.00021 0.986137
1.00077 1.00254 0.990891
1.00462 1.00075 0.986165
1.00351 1.00249 0.986311
1.00519 1.00117 0.984753
1.00024 1.00238 0.991966
0.999976 1.00057 0.994327
1.00109 1.00454 0.988819
1.005 1.00007 0.986248
1.00483 1.00041 0.98614
1.00531 0.999754 0.986032
1.00253 1.00362 0.986913
1.00525 1.0006 0.985269
1.00485 1.00176 0.984777
1.00522 1.00084 0.984961
0.999833 0.997894 0.998861
0.999794 0.998303 0.998722
0.999746 0.998818 0.99854
1.00012 1.0024 0.992109
0.99997 1.00014 0.997861
1.00112 0.999964 0.99706
1.00093 0.99999 0.997108
1.00262 1.00008 0.990212
1.00244 0.999938 0.990659
1.00079 0.999982 0.9972
1.00076 0.999986 0.997215
1.00236 0.999884 0.99084
1.00262 1.00002 0.991043
1.00482 0.999483 0.987168
1.00272 1.00002 0.990075
1.00492 0.999773 0.986694
1.00232 0.99989 0.990884
1.00479 0.999401 0.987314
1.00488 0.999607 0.986959
1.00531 0.997794 0.988184
1.005 0.999928 0.986433
1.0053 0.998373 0.987584
1.00077 0.999992 0.997208
1.00033 1.00011 0.994748
1.00244 0.999978 0.990101
1.00269 1.0001 0.991002
0.999845 1.00131 0.997551
1.00238 1.00127 0.991089
1.00278 0.999973 0.990992
1.00488 0.999979 0.987116
1.00489 1.00039 0.986761
1.0047 1.00092 0.986571
1.00526 1.00029 0.985551
1.00233 0.999918 0.990843
1.00246 1.00007 0.991344
1.00474 0.999423 0.987596
1.00482 0.999959 0.987249
1.00028 1.00059 0.997471
1.00137 1.00247 0.99073
1.0042 1.00158 0.986346
1.00489 1.00008 0.98695
1.00528 0.998919 0.987091
1.00525 1.00075 0.985108
1.00527 0.999925 0.985979
1.00521 0.999057 0.986764
1.00046 1.00274 0.991243
1.00119 1.00501 0.987773
1.00475 0.999482 0.987292
1.00474 0.999674 0.987642
1.00527 0.998238 0.98786
1.00527 0.998333 0.98766
1.00527 0.99929 0.986664
1.00524 0.997127 0.988813
1.00073 1.00299 0.990475
1.00522 0.998194 0.987609
1.00361 1.0022 0.986308
1.00523 1.00122 0.984579
1.00521 1.00015 0.985787
1.00519 0.997487 0.988444
1.00198 1.00447 0.986985
1.00069 1.00487 0.988752
1.0024 1.00459 0.986408
1.00273 0.999965 0.990093
0.999889 0.999587 0.998145
0.999847 1.00168 0.993316
1.00243 1.00032 0.990209
1.00495 1.00021 0.986117
1.00071 1.00267 0.990851
1.00355 1.00228 0.986315
1.00465 1.00071 0.986156
1.00521 1.00108 0.984823
1.0002 1.00245 0.991976
0.999957 1.00047 0.994372
1.00079 1.00466 0.988803
1.00499 1.00008 0.986228
1.00484 1.0004 0.986126
1.00531 0.999764 0.986009
1.00261 1.00344 0.986915
1.00526 1.00066 0.985206
1.00488 1.0017 0.984761
1.00521 1.00067 0.985071
1.00001 0.999749 0.995069
1.00175 1.00432 0.987713
1.00063 1.00366 0.990226
1.00169 1.00458 0.987521
1.00531 0.999269 0.986556
1.00529 1.00023 0.985552
1.00525 0.998445 0.987312
1.00422 1.00217 0.98544
1.00522 0.999757 0.986178
1.00505 1.00142 0.984784
1.00517 1.00017 0.985666
1.00023 1.00116 0.993291
1.00023 0.998757 0.99565
0.999883 0.997551 0.998981
0.999818 0.997824 0.99891
0.999768 0.998176 0.998804
1.00003 1.0016 0.993074
0.999856 0.999605 0.998141
1.00021 1.00233 0.992087
1.00006 1.00023 0.997755
1.00271 1.00005 0.990077
1.00253 1.00001 0.990432
1.0049 0.99978 0.986689
1.0048 0.999488 0.987173
1.00237 0.999901 0.99084
1.0008 0.999976 0.997214
1.00234 0.999885 0.990887
1.00477 0.999411 0.987316
1.00486 0.999618 0.986959
1.0053 0.997804 0.988181
1.00498 0.999942 0.986418
1.0053 0.998372 0.987565
1.00475 0.999417 0.987343
1.00533 0.997648 0.988297
1.00528 0.99804 0.987967
1.00521 0.995362 0.990737
1.00532 0.998791 0.987083
1.00528 0.996324 0.989606
1.00235 0.999914 0.990848
1.0026 1.00004 0.991191
1.00476 0.999391 0.987301
1.00484 1.00005 0.987175
1.00039 1.00067 0.99736
1.00166 1.00227 0.991343
1.00418 1.00184 0.986583
1.00489 1.00011 0.986915
1.00528 0.99865 0.987323
1.00527 1 0.986013
1.00525 1.00069 0.985163
1.00521 0.999062 0.986788
1.0005 1.00265 0.991225
1.00132 1.00492 0.98777
1.00476 0.999353 0.987373
1.00477 0.99965 0.987621
1.00527 0.998039 0.988096
1.00527 0.998616 0.987399
1.0008 1.00287 0.990476
1.00358 1.00238 0.986303
1.00521 1.00128 0.984546
1.00527 0.999445 0.986536
1.00525 0.996847 0.9891
1.00521 1.00001 0.985935
1.00523 0.998201 0.98762
1.00519 0.997412 0.988425
1.00199 1.00442 0.986992
1.00218 1.00443 0.986428
1.00077 1.00479 0.988759
1.00531 0.99802 0.988025
1.00524 0.998187 0.988
1.00524 0.99581 0.990211
1.00525 0.99633 0.989567
1.00523 0.997225 0.988519
1.00519 0.995485 0.990415
1.00293 1.00322 0.986541
1.0052 0.996381 0.989282
1.00513 1.00165 0.98452
1.00521 1.00099 0.984762
1.00517 0.998889 0.986995
1.00515 0.996524 0.989383
1.00031 1.00449 0.989838
1.00363 1.00294 0.985831
1.00123 1.00508 0.987362
1.00383 1.0033 0.985583
1.00498 1.0001 0.986208
0.999952 1.0004 0.994417
1.00006 1.00263 0.991992
1.00049 1.00484 0.988788
1.00486 1.00038 0.986111
1.00531 0.999774 0.985986
1.00266 1.00329 0.98692
1.00499 1.00168 0.984745
1.00527 1.00071 0.985143
1.00521 1.00051 0.985182
1.00002 0.999639 0.995106
1.00161 1.00437 0.987709
1.00046 1.0038 0.990245
1.00155 1.00473 0.987513
1.00531 0.999277 0.986535
1.00529 1.00023 0.985528
1.00524 0.998439 0.987304
1.00434 1.00202 0.985448
1.00522 0.999862 0.986034
1.00507 1.00131 0.984766
1.00517 1.0001 0.985812
1.00014 0.999088 0.995472
1.0004 1.00266 0.991553
1.00299 1.00319 0.986495
1.00099 1.00491 0.988744
1.00278 1.00327 0.987202
1.00525 0.997745 0.988049
1.00523 0.999111 0.986626
1.00521 0.997334 0.988289
1.00465 1.00136 0.985221
1.00517 0.999044 0.986822
1.00478 1.00104 0.985384
1.0003 1.00133 0.993013
1.00032 1.00258 0.991758
1.00014 1.0011 0.993522
1.00022 1.00117 0.993287
1.00022 0.998545 0.996417
1.00021 0.998723 0.995992
1.00006 0.997271 0.997732
0.999887 0.997502 0.998994
0.999811 0.997751 0.998946
0.999858 1.0008 0.99414
0.99981 0.999005 0.998458
1.00006 1.00159 0.99305
0.999964 0.999689 0.998038
1.00035 1.00214 0.992064
1.00019 1.00031 0.997649
1.00496 0.999955 0.986403
1.00484 0.999624 0.986958
1.00531 0.998391 0.987546
1.00529 0.997813 0.988177
1.00476 0.999421 0.987318
1.00233 0.999875 0.990887
1.00475 0.999418 0.987345
1.00533 0.997653 0.988298
1.00528 0.998055 0.987952
1.00523 0.995326 0.990745
1.00532 0.998797 0.987066
1.00527 0.996325 0.989604
1.00532 0.99764 0.988309
1.00522 0.995225 0.99092
1.00524 0.995695 0.990316
1.00521 0.994957 0.991066
1.00526 0.997068 0.988818
1.00528 0.995108 0.990516
1.00476 0.999227 0.987455
1.00479 0.999641 0.9876
1.00527 0.997862 0.988331
1.00527 0.998902 0.987138
1.00089 1.00278 0.990482
1.00339 1.00269 0.986303
1.00519 1.00136 0.984512
1.00527 0.999601 0.986409
1.00525 0.996573 0.989387
1.00523 0.998208 0.98763
1.00521 0.999871 0.986082
1.00518 0.997336 0.988404
1.00206 1.00436 0.986998
1.0021 1.00433 0.986448
1.00084 1.00472 0.988766
1.00531 0.997897 0.988129
1.00524 0.998173 0.987991
1.00523 0.995624 0.990445
1.00525 0.996499 0.989404
1.00289 1.00337 0.986538
1.00505 1.00167 0.98454
1.00521 1.00108 0.984666
1.00523 0.997523 0.988246
1.0052 0.995292 0.990531
1.00518 0.998825 0.986948
1.0052 0.99642 0.989274
1.00516 0.996384 0.989473
1.00362 1.003 0.985825
1.00366 1.00334 0.985437
1.00043 1.00427 0.989855
1.00108 1.00508 0.987526
1.00523 0.995278 0.990844
1.00524 0.996158 0.989773
1.0052 0.994976 0.991034
1.00522 0.994928 0.990814
1.00521 0.995626 0.989988
1.00519 0.995046 0.990727
1.00488 1.0016 0.985129
1.00517 0.995274 0.990275
1.00517 1.00194 0.983975
1.00514 1.00049 0.985234
1.00517 0.998151 0.987468
1.00517 0.996458 0.989407
1.00019 1.00356 0.990912
1.00064 1.00511 0.988435
1.00486 1.00188 0.984906
1.00189 1.00499 0.986801
1.00445 1.00336 0.984604
1.00002 0.999543 0.995142
1.00531 0.999284 0.986514
1.00032 1.00389 0.990264
1.00153 1.0044 0.987704
1.00139 1.00484 0.987505
1.0053 1.00024 0.985505
1.00524 0.998433 0.987296
1.00463 1.00163 0.985455
1.00515 1.00121 0.984748
1.00521 0.999962 0.985892
1.00516 1.00002 0.985957
1.00015 0.999044 0.995497
1.00032 1.00273 0.991583
1.00315 1.00311 0.986499
1.00067 1.00497 0.988737
1.00247 1.00328 0.987264
1.00525 0.997734 0.988042
1.00523 0.9991 0.986619
1.00521 0.997297 0.988273
1.0049 1.00129 0.985207
1.00516 0.999104 0.986679
1.0049 1.00101 0.985421
1.00036 1.00179 0.992505
1.00054 1.0041 0.990214
1.00421 1.00147 0.986117
1.00112 1.00502 0.988481
1.00318 1.00191 0.987825
1.00523 0.996595 0.989088
1.00519 0.99811 0.987477
1.00523 0.996545 0.988675
1.00442 1.00099 0.985695
1.00497 0.999714 0.986086
1.0003 1.00132 0.993012
1.00031 1.0026 0.991633
1.00017 1.00274 0.991724
1.00044 1.00295 0.991385
1.00022 1.00263 0.991889
1.00005 1.00106 0.993674
1.00013 1.00108 0.993527
1.00021 0.998462 0.996511
1.00021 1.00119 0.993283
1.00023 0.99855 0.996432
1.00013 0.997058 0.997801
1.0002 0.998709 0.996327
0.999995 0.997279 0.998382
0.999896 0.997435 0.999007
0.999806 0.999901 0.99512
0.999888 1.00085 0.994113
0.999726 0.998386 0.998786
0.999881 0.999119 0.998338
1.0001 1.0017 0.993025
1.00005 0.999805 0.997931
1.00531 0.998801 0.98705
1.00528 0.998053 0.987937
1.00526 0.996324 0.989602
1.00524 0.99529 0.990752
1.00532 0.99766 0.988298
1.00475 0.999419 0.987346
1.00532 0.997644 0.988309
1.00522 0.995205 0.99093
1.00524 0.995688 0.99032
1.0052 0.994955 0.991055
1.00526 0.997041 0.988805
1.00528 0.995112 0.990522
1.00523 0.995218 0.990935
1.00516 0.994966 0.99119
1.00525 0.994938 0.990865
1.00523 0.994948 0.990991
1.00526 0.995794 0.989873
1.00529 0.994913 0.99068
1.00531 0.997769 0.988232
1.00524 0.998171 0.987982
1.00523 0.995437 0.99068
1.00526 0.996662 0.989241
1.00285 1.00346 0.986533
1.00502 1.00167 0.984557
1.00521 1.00112 0.984571
1.00523 0.997818 0.987973
1.0052 0.995105 0.990648
1.0052 0.996459 0.989267
1.00518 0.998776 0.986903
1.00516 0.996235 0.989566
1.0034 1.00316 0.985819
1.00324 1.00337 0.98529
1.00056 1.0041 0.989871
1.00098 1.00508 0.987691
1.00522 0.995286 0.990841
1.00524 0.996209 0.989757
1.00522 0.994964 0.991046
1.00522 0.994926 0.990825
1.00458 1.00197 0.985104
1.00512 1.00199 0.983932
1.00515 1.00044 0.985213
1.00521 0.995838 0.989822
1.00518 0.994989 0.99075
1.00515 0.998203 0.987446
1.00518 0.995266 0.990262
1.00517 0.996233 0.989543
1.0047 1.00196 0.984908
1.0042 1.0035 0.984464
1.00184 1.00499 0.986805
1.00019 1.00345 0.990899
1.00049 1.00509 0.988562
1.00517 0.994957 0.991154
1.00523 0.994927 0.990958
1.00522 0.994897 0.990692
1.0052 0.99497 0.990645
1.00509 1.00226 0.984129
1.00518 0.995176 0.990358
1.00509 1.00172 0.983935
1.00514 1.00004 0.985529
1.00514 0.99801 0.987555
0.999948 1.00236 0.992209
1.0003 1.00485 0.989519
1.00108 1.00509 0.988158
1.00509 1.00263 0.983989
1.00244 1.00494 0.985523
1.00472 1.00347 0.983448
1.00015 0.999011 0.995522
1.00024 1.0028 0.991612
1.00525 0.997723 0.988035
1.0003 1.00505 0.988729
1.0031 1.00326 0.986505
1.0022 1.00328 0.987325
1.00522 0.99909 0.986611
1.00521 0.997261 0.988256
1.00507 1.00122 0.985193
1.00505 1.00101 0.985459
1.00516 0.999156 0.986537
1.00032 1.0018 0.992515
1.00023 1.00429 0.990217
1.00439 1.00136 0.986077
1.00085 1.00506 0.988464
1.00306 1.0017 0.987881
1.00523 0.996559 0.989087
1.00519 0.998125 0.987455
1.00523 0.996604 0.988669
1.00462 1.00099 0.985679
1.00499 0.999836 0.986095
1.00038 1.00313 0.991264
0.999808 1.00492 0.989837
1.0047 1.0004 0.986365
1.00109 1.00396 0.988785
1.004 1.0004 0.987717
1.00525 0.995533 0.989797
1.00521 0.998057 0.987356
1.00522 0.996806 0.988278
1.00464 1.00018 0.98623
1.00507 0.999689 0.986084
1.0003 1.00131 0.993012
1.00032 1.00264 0.991645
1.00008 1.00309 0.991467
1.00007 1.00283 0.99169
1.00015 1.00274 0.991879
1.00017 1.00315 0.991402
1.00006 1.0029 0.991925
1.00005 1.00345 0.991129
1.00011 1.00268 0.992031
1.00002 1.00117 0.993641
1.00006 1.00106 0.993674
1.00015 0.998478 0.996581
1.00012 1.00104 0.993532
1.00022 0.99847 0.996522
1.00016 0.996941 0.997849
1.00024 0.998541 0.996451
1.00011 0.997054 0.997805
0.999922 0.99727 0.999049
0.999869 0.999093 0.995853
0.999806 1.00001 0.995076
0.99969 0.997935 0.99899
0.999921 1.0009 0.994086
0.999786 0.998539 0.998672
0.999965 0.999194 0.998225
1.00526 0.997013 0.988793
1.00524 0.995683 0.990324
1.00528 0.995123 0.990527
1.0052 0.994952 0.991043
1.00521 0.995184 0.990941
1.00533 0.997648 0.98831
1.00522 0.995206 0.990942
1.00516 0.994969 0.991203
1.00525 0.994935 0.990899
1.00522 0.994944 0.990967
1.00526 0.995793 0.989892
1.00529 0.994908 0.990622
1.00516 0.994977 0.991207
1.00522 0.994943 0.991054
1.00526 0.994933 0.990804
1.00526 0.995061 0.990434
1.00521 0.995295 0.990838
1.00525 0.996248 0.989741
1.00523 0.994939 0.991058
1.00522 0.994926 0.990837
1.00442 1.00217 0.985082
1.0051 1.00203 0.98389
1.00515 1.00043 0.985194
1.00521 0.996048 0.989656
1.00518 0.994919 0.990772
1.00518 0.995251 0.990248
1.00513 0.998242 0.987422
1.00518 0.995989 0.989678
1.00459 1.00208 0.984912
1.00413 1.00332 0.98432
1.00172 1.00499 0.986808
1.00023 1.00326 0.990894
1.00041 1.00509 0.98869
1.00517 0.994956 0.991142
1.00524 0.994966 0.990912
1.00522 0.994898 0.99073
1.00497 1.00227 0.984152
1.00507 1.00186 0.983898
1.00511 1.00003 0.985519
1.00519 0.994997 0.990604
1.00516 0.997751 0.987864
1.00516 0.995249 0.99027
1.00001 1.00214 0.99242
1.00493 1.00241 0.984001
1.0045 1.00353 0.983701
1.00268 1.0049 0.985609
1.00108 1.00509 0.988289
1.00025 1.00488 0.98942
1.00521 0.994952 0.991045
1.00524 0.994911 0.990792
1.00523 0.994888 0.99064
1.00518 0.994899 0.990625
1.00508 1.00266 0.983618
1.00514 0.996019 0.989433
1.00499 1.00153 0.98422
1.00506 1.00042 0.985336
1.00006 1.00069 0.993773
0.999977 1.00408 0.990836
1.00058 1.00509 0.989155
1.00182 1.00507 0.986773
1.00493 1.00333 0.983147
1.00441 1.00432 0.983246
1.00027 1.0018 0.992525
0.999987 1.00441 0.990223
1.00523 0.996524 0.989087
1.00054 1.00511 0.988448
1.00463 1.00123 0.986036
1.00262 1.00172 0.987937
1.00519 0.99814 0.987433
1.00523 0.996675 0.988661
1.00476 1.00103 0.985662
1.00504 0.999963 0.986104
1.00026 1.0032 0.991271
1.00003 1.00493 0.989663
1.00491 1.00036 0.986287
1.00084 1.00423 0.988866
1.00391 1.00028 0.987718
1.00526 0.995533 0.989905
1.00521 0.997983 0.987517
1.00523 0.996961 0.988246
1.00462 1.00026 0.986283
1.00502 0.999865 0.985869
0.999693 1.00373 0.991072
0.999996 1.005 0.989279
1.00474 0.999552 0.986935
1.00272 1.00142 0.98789
1.00529 0.994872 0.990228
1.00523 0.996253 0.989416
1.00505 0.999094 0.98639
1.00508 0.999614 0.985962
1.00036 1.00262 0.991657
1.00017 1.00308 0.991461
0.999674 1.00343 0.992201
1.00006 1.00286 0.991869
0.999903 1.00335 0.991419
1.00008 1.00271 0.99202
0.99988 1.0029 0.992128
1.0001 1.0035 0.991111
0.999772 1.00188 0.993359
0.999908 1.00378 0.991277
1.00001 1.00372 0.990927
1.00014 1.0027 0.991961
0.999983 1.0014 0.993421
0.999997 1.00116 0.993636
1.00006 0.998544 0.996649
1.00005 1.00103 0.993674
1.00016 0.9985 0.99659
1.00013 0.996946 0.997885
1.00022 0.998481 0.996536
1.00014 0.996933 0.997853
1.00008 0.997059 0.997803
0.999997 0.998468 0.996295
0.999869 0.999193 0.995796
0.999714 0.997533 0.999115
0.999797 1.00013 0.99503
0.999723 0.998012 0.998937
0.999868 0.998634 0.998543
1.00525 0.995785 0.98991
1.00525 0.994932 0.990933
1.0053 0.994904 0.990565
1.00522 0.994942 0.990943
1.00516 0.994973 0.991216
1.00521 0.995195 0.990949
1.00516 0.994976 0.991204
1.00522 0.994944 0.991054
1.00526 0.994928 0.990796
1.00525 0.995048 0.990477
1.00522 0.994955 0.991082
1.00526 0.994927 0.990898
1.00528 0.994897 0.990644
1.00518 0.994954 0.99113
1.00524 0.995011 0.990867
1.00521 0.994898 0.990768
1.0048 1.00231 0.984174
1.00505 1.002 0.983857
1.00509 0.999983 0.985507
1.00519 0.995034 0.990564
1.00514 0.995303 0.990182
1.00518 0.997475 0.988173
1.0049 1.00237 0.984011
1.00414 1.00353 0.983955
1.00301 1.00487 0.985696
1.00006 1.00195 0.992633
1.00092 1.00509 0.988419
1.00014 1.00493 0.989317
1.00521 0.994952 0.991053
1.00524 0.994909 0.990767
1.00523 0.994885 0.990628
1.00498 1.00269 0.983665
1.00501 1.00153 0.984141
1.00508 1.00013 0.985668
1.00517 0.994904 0.990584
1.00512 0.996046 0.989362
1.00007 1.0006 0.993982
0.999965 1.00412 0.990815
1.00486 1.00283 0.983178
1.00393 1.00439 0.984059
1.00183 1.00505 0.98701
1.0005 1.00508 0.98902
1.00525 0.994926 0.990923
1.00527 0.994872 0.990524
1.00522 0.994882 0.990609
1.00512 0.994924 0.990453
1.00455 1.00274 0.983548
1.00507 0.99874 0.986926
1.00497 1.0021 0.984053
1.00025 0.999906 0.994539
1.00032 1.00103 0.993361
0.999875 1.0022 0.992676
1.00012 1.00499 0.989742
1.00076 1.00509 0.988195
1.00192 1.00455 0.985901
1.00467 1.00332 0.983427
1.00398 1.00414 0.985018
1.00012 1.00336 0.991278
1.0002 1.00508 0.989489
1.00526 0.995534 0.990013
1.00097 1.00417 0.988944
1.00507 1.00036 0.986213
1.00377 1.00019 0.98772
1.00521 0.997879 0.987681
1.00524 0.997073 0.988218
1.00473 1.0003 0.986336
1.00499 0.999989 0.985656
0.999862 1.00378 0.990942
1.00017 1.00503 0.989253
1.00499 0.999482 0.986911
1.00299 1.00156 0.987964
1.00531 0.994865 0.990277
1.00523 0.9962 0.989286
1.00504 0.999031 0.986488
1.00508 0.99975 0.985898
0.999787 1.0041 0.99067
1.00532 0.994881 0.990307
1.00194 1.00404 0.98823
1.00475 0.999734 0.986853
1.00524 0.995251 0.990425
1.00502 0.998173 0.986417
1.00483 1.00088 0.985393
1.00021 1.00312 0.991454
0.999668 1.00329 0.99212
0.999132 1.00297 0.993825
1.00007 1.00268 0.99201
1.00013 1.00358 0.991093
0.999374 1.00325 0.992329
1.00012 1.00269 0.991952
0.999939 1.00382 0.990951
0.999283 1.00221 0.993589
1.00004 1.00363 0.991232
0.999556 1.00067 0.995482
0.999418 1.00283 0.992927
0.999878 1.00453 0.990371
1.00036 1.0037 0.990542
1.00013 1.00302 0.99161
0.999913 1.0018 0.993124
0.999929 1.00151 0.993405
0.999961 0.99876 0.996651
0.999968 1.00122 0.99363
1.00007 0.998594 0.996646
1.00006 0.996979 0.997951
1.00016 0.998521 0.996601
1.00014 0.996928 0.997884
1.00014 0.996927 0.997852
1.00019 1.00007 0.994503
1.0001 0.99812 0.996491
0.999999 0.998531 0.996262
0.999803 0.997157 0.999185
0.999865 0.999298 0.995739
0.999735 0.997616 0.999085
0.999764 0.998128 0.998869
1.00524 0.995036 0.990519
1.00525 0.994924 0.990789
1.00522 0.994944 0.991054
1.00517 0.994976 0.9912
1.00522 0.994957 0.991074
1.00526 0.994927 0.990913
1.00526 0.994898 0.990624
1.00526 0.994921 0.990958
1.00532 0.994923 0.990702
1.00534 0.994992 0.991114
1.00521 0.994952 0.991061
1.00523 0.994909 0.990741
1.00523 0.994884 0.990615
1.00476 1.00269 0.983714
1.00503 1.00173 0.984075
1.00498 0.999886 0.986002
1.00517 0.99491 0.990545
1.0051 0.996162 0.98929
1.00481 1.0029 0.983212
1.00358 1.00456 0.984869
1.00164 1.00502 0.987247
1.00007 1.00046 0.99419
1.0001 1.00401 0.990797
1.0005 1.00508 0.988882
1.00525 0.994925 0.990906
1.0002 0.999946 0.994533
1.00025 1.00109 0.993262
1.00527 0.994883 0.990537
1.00521 0.994873 0.990617
1.00494 1.00275 0.983476
1.00478 1.00201 0.984148
1.00504 0.998564 0.986841
1.00512 0.99498 0.990371
0.999941 1.00217 0.992855
1.00016 1.00488 0.989705
1.00474 1.00361 0.98316
1.00319 1.00387 0.985748
1.00214 1.00477 0.986194
1.00084 1.00509 0.988215
1.00531 0.994906 0.990677
1.00527 0.994807 0.990528
1.00515 0.994849 0.990377
1.00493 0.99498 0.990381
1.00423 1.00298 0.984106
1.00446 1.00212 0.984817
1.00006 1.00169 0.992832
1.00026 1.00092 0.993527
1.00083 1.00078 0.992949
1.00031 1.00301 0.991252
1.00031 1.00507 0.989323
1.00224 1.00435 0.98723
1.00112 1.00514 0.986516
1.00394 1.00054 0.986184
1.0001 1.00369 0.990813
1.00048 1.00504 0.989228
1.00533 0.994861 0.990326
1.00523 0.996206 0.989157
1.0033 1.00177 0.988038
1.00512 0.999375 0.986885
1.00502 0.999005 0.986582
1.00509 0.999914 0.985834
1.00008 1.00397 0.990595
1.00533 0.994886 0.990525
1.00167 1.00407 0.988316
1.00487 0.999778 0.986694
1.00523 0.995236 0.99042
1.00502 0.998351 0.98665
1.00479 1.0008 0.98542
1.00011 1.0048 0.990129
1.00475 0.994832 0.991216
1.00304 1.00251 0.987584
1.00461 1.00118 0.985363
1.00482 0.996416 0.989586
1.0037 1.00142 0.985862
0.998601 0.996603 0.987457
0.99956 1.00329 0.992042
0.99873 1.00315 0.993804
0.999341 1.00225 0.994472
1.00004 1.00277 0.991942
0.999901 1.00392 0.990976
1.00032 1.00332 0.991191
0.998969 1.00233 0.993823
1.00009 1.00306 0.991609
1.00024 1.0038 0.990575
0.999542 1.00081 0.995023
0.999949 1.00452 0.990386
0.999689 1.00274 0.99264
0.998995 1.00137 0.995728
1.00029 1.00469 0.989842
1.0001 1.0046 0.990279
1.00056 1.00389 0.990132
1.00013 1.00347 0.990971
1.00028 1.0041 0.990531
1.00011 1.00365 0.990771
0.999926 1.00192 0.992982
0.999942 1.00178 0.993106
0.999856 0.998919 0.996066
0.99994 1.00149 0.993386
0.999954 0.998823 0.996332
1.00001 0.997141 0.999121
1.00008 0.998643 0.996643
1.00008 0.996953 0.997952
1.00014 0.996911 0.997878
1.00009 1.00009 0.994567
1.00021 0.999967 0.994528
1.0001 0.998032 0.996609
1.00007 0.998143 0.996753
0.999883 0.996961 0.999224
0.999993 0.998587 0.996228
0.999799 0.997273 0.999169
0.999757 0.997681 0.999055
1.00524 0.994897 0.990605
1.00526 0.994926 0.990929
1.00522 0.994959 0.991066
1.00526 0.994921 0.990957
1.00532 0.994918 0.990704
1.00533 0.994972 0.990767
1.00535 0.994916 0.990744
1.00126 0.994907 0.983467
1.00451 0.994968 0.99266
1.00001 1.0015 0.993291
1.00525 0.994924 0.99089
1.00527 0.994891 0.99055
1.00519 0.994866 0.990626
1.0049 1.00247 0.983395
1.00495 1.00185 0.984237
1.00506 0.998487 0.986764
1.00512 0.99506 0.990288
1.00498 1.0035 0.982893
1.00257 1.00363 0.986476
1.0022 1.00496 0.986493
1.00014 1.00005 0.994528
1.001 1.00509 0.988236
0.999916 1.00214 0.993025
1.00023 1.00489 0.989665
1.00025 1.00105 0.993162
1.00531 0.994895 0.99067
1.00007 1.00168 0.99294
1.00015 1.00108 0.993532
1.00069 1.00077 0.993081
1.00527 0.994826 0.990494
1.00516 0.994865 0.990374
1.00378 1.00351 0.984172
1.00466 1.0012 0.985386
1.0049 0.99545 0.990281
0.999949 1.00322 0.991416
1.00044 1.00507 0.989171
1.00379 1.00202 0.985992
1.00184 1.00491 0.986407
1.00198 1.00405 0.98744
1.00526 0.99485 0.990913
1.00516 0.994762 0.990833
1.00508 0.995089 0.989912
1.00476 0.997252 0.989702
1.00225 1.00298 0.987587
0.999763 1.00288 0.9921
1.00078 1.00089 0.992538
0.999946 1.00148 0.992771
0.99999 1.00453 0.991226
1.00021 1.00507 0.989621
1.00053 1.00458 0.988321
1.0023 1.00101 0.988731
1.00052 1.00378 0.990518
1.00118 1.0041 0.988401
1.00535 0.994886 0.990731
1.00523 0.99517 0.990409
1.005 0.998503 0.986885
1.00489 0.999775 0.986535
1.00474 1.00065 0.985452
1.00044 1.00463 0.990135
1.00461 0.994844 0.991397
1.00307 1.0022 0.987498
1.0048 1.00102 0.98533
1.00495 0.995935 0.989818
1.00381 1.00156 0.985937
0.998649 0.997241 0.985542
1.00034 1.00433 0.990115
1.00284 0.997337 0.991102
1.00369 1.00174 0.986227
1.00296 1.00119 0.987121
1.00308 0.997691 0.99074
0.999973 0.994912 0.947641
0.996122 0.994794 0.967601
0.995597 1.00062 0.988306
0.999574 0.994801 0.872843
0.994697 0.994793 0.838941
0.99844 1.00332 0.993786
0.998604 1.00274 0.994772
0.998721 1.00274 0.995187
1.00007 1.00308 0.991609
1.00032 1.00359 0.990608
1.00003 1.00446 0.990401
0.999913 1.00266 0.992346
0.999535 1.00095 0.994562
1.00015 1.00436 0.990243
1.00012 1.00346 0.991061
1.00049 1.00386 0.990196
0.999229 1.00082 0.995271
1.00005 1.00466 0.990125
1.00027 1.0046 0.99017
0.999297 1.0048 0.991036
1.00008 1.00461 0.990198
1.00048 1.00432 0.98964
1.00022 1.00354 0.990774
1.0004 1.00447 0.989777
1.00044 1.00396 0.990409
0.999807 1.00431 0.990816
1.0002 1.00416 0.990439
1.00019 1.00339 0.991175
1.00015 1.00366 0.990758
0.999955 1.0019 0.992969
0.999941 1.00192 0.992985
0.999829 0.999022 0.996058
0.999925 1.00185 0.993089
0.99985 0.998957 0.996057
0.999969 0.997151 0.999142
0.999941 0.998894 0.996013
1.00001 0.997138 0.998529
1.00009 0.996927 0.997951
0.999989 1.00007 0.994742
1.00011 1.00009 0.994571
1.0001 0.997931 0.996718
1.00023 0.999872 0.994551
1.0001 0.997968 0.996872
0.999932 0.996764 0.999259
1.00007 0.998212 0.996468
0.99987 0.997034 0.999208
0.999802 0.997329 0.999153
1.00531 0.994915 0.990705
1.00526 0.994922 0.990956
1.00531 0.99497 0.99043
1.00081 0.994887 0.98359
1.00534 0.994912 0.990757
1.00439 0.995245 0.99233
1.00501 0.996393 0.991285
0.996385 0.994942 0.96669
1.00084 0.996399 0.985701
1.00007 1.00135 0.993394
1.00006 1.0015 0.993264
0.999766 1.00289 0.992278
0.999849 1.00227 0.992763
1.00532 0.994889 0.990663
1.00528 0.994846 0.990461
1.00516 0.994871 0.990371
1.00463 1.00352 0.984235
1.00451 0.999754 0.98595
1.00479 0.995843 0.990176
1.0034 1.00324 0.985814
1.00292 1.00476 0.986294
1.00177 1.00354 0.987646
1.00002 1.00135 0.993538
1.00039 1.00507 0.98902
1 1.00334 0.991581
1.00006 1.00174 0.993049
1.00048 1.0008 0.993199
1.00527 0.994844 0.99092
0.999986 1.00279 0.992066
1.00085 1.00082 0.992748
0.999287 1.00151 0.994071
1.00515 0.994776 0.990731
1.00509 0.995132 0.989913
1.00327 1.00173 0.987561
1.00443 0.99668 0.990121
1.00021 1.00409 0.990836
1.00035 1.00493 0.989008
1.00204 1.00276 0.98858
1.00182 1.00408 0.987897
1.0044 0.994821 0.99186
1.00493 0.995018 0.991199
1.00497 0.99598 0.989526
1.00281 0.998128 0.992167
0.99912 1.0038 0.99233
1.00056 1.00168 0.991952
0.998463 1.00454 0.992608
0.999202 1.00509 0.990229
0.999971 0.994893 0.936256
1.00059 1.00452 0.990138
1.00307 1.00211 0.98741
1.00439 0.994862 0.991601
1.00506 0.995737 0.990047
1.0039 1.00166 0.985994
1.00476 1.00095 0.985291
0.998634 0.997327 0.983517
1.00038 1.00412 0.990506
1.00278 0.997217 0.991075
1.00352 1.0021 0.98626
1.00361 1.0009 0.987162
1.00349 0.997809 0.990439
1.00052 0.994896 0.935812
0.996363 0.9948 0.963589
0.995801 1.00154 0.98833
0.999117 0.994799 0.87726
0.994699 0.994801 0.828251
1.00025 1.00402 0.990617
0.99979 0.994854 0.884004
0.994698 0.99478 0.833629
1.00046 1.00009 0.992043
1.00205 1.00156 0.989256
1.00142 0.999532 0.992377
0.995055 1.00181 0.989726
0.998892 0.994878 0.944941
0.994889 0.994767 0.960478
0.997026 0.995193 0.890937
0.994724 0.994802 0.825713
0.997994 1.00312 0.995076
0.998401 1.00237 0.995048
0.998654 1.00438 0.993645
1.00017 1.00342 0.991149
1.00042 1.00391 0.990261
0.999796 1.00473 0.990209
0.999829 1.00464 0.990409
0.999505 1.00013 0.994815
1.00021 1.00357 0.990776
1.00005 1.00496 0.990103
1 1.00471 0.990137
1.00061 1.00412 0.989776
0.999225 1.00485 0.991246
0.999618 1.00505 0.990819
0.998602 1.00476 0.991915
1.00025 1.00473 0.989737
1.00046 1.00433 0.98984
1.00044 1.00441 0.989772
1.00033 1.00379 0.99057
1.00047 1.00468 0.989569
0.999932 1.0041 0.990921
0.999643 1.00335 0.991171
0.999717 1.00494 0.990341
0.999692 1.00465 0.990564
0.999927 1.00416 0.990837
1.00008 1.0033 0.991352
1.00014 1.00416 0.990349
1.00019 1.00337 0.991118
1.00001 1.00192 0.992888
1.00021 1.00362 0.990745
0.999948 1.00191 0.992979
0.999954 0.998988 0.996544
0.999926 1.00194 0.992988
0.999857 0.998988 0.996331
0.999935 0.997157 0.997987
0.999843 0.998977 0.996047
0.999966 0.997164 0.999148
1.00001 0.997151 0.997935
1.00014 1.00138 0.99321
0.999944 1.00008 0.994811
0.999996 1.00007 0.994739
1.00008 0.997913 0.996765
1.00012 1.00008 0.994574
1.00011 0.997885 0.996721
0.999973 0.996666 0.999279
1.00009 0.997954 0.997109
0.999948 0.996881 0.998728
0.999914 0.997115 0.998146
1.00039 0.994867 0.983715
1.00533 0.994911 0.99077
1.0041 0.996045 0.991992
0.996551 0.994915 0.967529
1.00077 0.996013 0.986049
1.00503 0.995751 0.991241
1.00325 0.996548 0.987281
0.996787 0.995805 0.970396
0.999974 0.994882 0.945285
0.999276 0.994944 0.892993
0.994664 0.994773 0.837689
0.99978 1.00235 0.992667
1.00008 1.00134 0.993385
1.00014 1.00145 0.993238
0.999865 1.00273 0.99232
0.999486 1.00362 0.992132
1.00032 1.00218 0.991983
1.00008 1.00283 0.992144
0.999988 1.0022 0.992608
1.00527 0.994827 0.990922
1.00516 0.994792 0.990632
1.00513 0.995111 0.989914
1.00334 1.00153 0.98754
1.00424 0.996452 0.990549
1.00227 1.00381 0.988414
1.00297 1.00379 0.987477
1.00076 1.00508 0.988399
1.0006 1.00083 0.992963
1.00014 1.00413 0.990434
1.00023 1.00267 0.99204
0.99883 1.00144 0.995356
1.00431 0.994786 0.992091
0.99928 1.00366 0.992343
1.00041 1.00207 0.992309
1.00482 0.994919 0.991149
1.00486 0.99559 0.989797
1.00249 0.998035 0.991737
0.999444 1.00508 0.99132
1.00052 1.00412 0.990417
1.00308 0.994777 0.992102
1.00413 0.997581 0.990807
1.00473 0.995389 0.990752
1.00101 0.99892 0.993234
0.999648 1.00473 0.990556
0.999315 1.00404 0.991878
0.999411 1.00528 0.991311
0.999814 0.994903 0.886556
1.0003 0.994889 0.948572
1.00051 1.00375 0.990895
1.00362 1.00227 0.986299
1.00277 0.99736 0.991044
1.00397 0.998045 0.990147
1.00411 1.00077 0.987223
0.999979 0.994889 0.946198
0.996231 0.994818 0.963239
0.996083 1.00248 0.988358
0.998751 0.994825 0.892272
0.994702 0.994803 0.817014
1.00024 1.00392 0.990572
0.999805 0.994855 0.883764
0.994668 0.99478 0.827155
1.00074 1.00002 0.992098
1.00206 1.00161 0.989291
1.00147 0.999679 0.992712
0.995382 1.00198 0.990344
1.00024 0.995829 0.93838
0.99486 0.994779 0.963131
0.997063 0.997812 0.889894
0.994746 0.99479 0.824469
0.999513 1.00396 0.992875
0.994701 0.994825 0.827009
0.994746 0.994798 0.839118
0.99802 1.00166 0.995948
0.999881 1.00181 0.994112
0.994946 1.00198 0.988612
0.994978 0.996012 0.963875
0.99669 0.995443 0.933992
0.994727 0.999069 0.8947
0.994825 0.994821 0.828008
0.998238 1.00216 0.994913
0.999017 1.00371 0.993361
0.998021 1.00325 0.994465
1.00017 1.00361 0.990777
1.0007 1.00392 0.989911
0.999995 1.00477 0.990074
0.999852 1.00499 0.990037
0.998966 1.00474 0.991458
1.00044 1.00435 0.989837
0.99964 1.00487 0.990635
1.00034 1.00464 0.989738
0.998233 1.00473 0.992372
0.996172 1.00482 0.995907
0.999325 1.00478 0.991293
1.0005 1.00459 0.989599
1.00051 1.00434 0.989767
1.00033 1.00358 0.990728
1.00042 1.00471 0.989528
1 1.00403 0.990857
0.999518 1.00329 0.991858
0.999354 1.00499 0.990765
0.999492 1.00464 0.99074
0.999032 1.00398 0.992136
1.00062 1.00204 0.991937
1.0012 1.00155 0.990313
0.999429 1.00477 0.990621
0.999827 1.00477 0.990377
0.999757 1.00498 0.990059
0.99974 1.00476 0.990562
1 1.0036 0.991154
0.999943 1.00424 0.990857
1.00011 1.00332 0.991356
1.00006 1.00185 0.992815
1.00019 1.00338 0.991061
1 1.0019 0.992905
1.00005 0.998987 0.996376
0.999942 1.00191 0.992989
0.999939 0.998973 0.996209
1.00001 0.997102 0.997897
0.999853 0.998976 0.996042
0.999967 0.997159 0.999151
0.999965 0.997167 0.999153
1.0002 1.00171 0.9931
0.999946 1.00022 0.994691
1.00009 1.00148 0.993221
1.00007 0.997912 0.996771
0.999942 1.00008 0.994812
1 1.00009 0.994737
1.00008 0.9979 0.996759
1 0.996615 0.999282
1.00009 0.997863 0.997196
0.99999 0.996671 0.998783
0.999967 0.996892 0.998233
0.999817 0.994855 0.873107
0.994673 0.994768 0.827645
0.997282 0.994889 0.967646
1.00073 0.995394 0.986457
1.00508 0.995026 0.991198
0.996455 0.995587 0.970749
1.00346 0.995909 0.987751
1.00109 0.994892 0.942788
0.999508 0.994805 0.877221
0.994693 0.994788 0.827183
0.998436 0.994862 0.97552
0.999731 0.994894 0.944634
0.997056 0.995907 0.890244
0.994719 0.994774 0.829733
1.00008 1.00323 0.991623
0.999854 1.00218 0.992787
1.00009 1.00135 0.993376
0.999904 1.00264 0.992362
0.999459 1.00348 0.992306
1.00007 1.00365 0.991079
1.00024 1.00273 0.991787
1.00036 1.00338 0.99078
1.00007 1.00279 0.992024
1.00001 1.0023 0.992455
1.00422 0.99477 0.99231
1.00469 0.994809 0.991107
1.00459 0.995288 0.990064
1.00216 0.998453 0.991307
1.00098 1.00401 0.990607
0.999552 1.0052 0.990039
1.00048 1.00191 0.992689
0.999384 1.0037 0.992349
1.00259 0.994941 0.992487
0.99972 1.00485 0.990374
0.999021 1.00423 0.991752
1.00404 0.99655 0.991044
1.00464 0.995517 0.990504
1.00098 0.999028 0.993462
0.999431 1.00524 0.99111
1.00042 0.995096 0.992497
1.00229 0.996988 0.99371
0.999877 1.00148 0.993927
0.998838 1.00501 0.990106
0.99927 1.00503 0.99039
0.998981 1.00514 0.991435
0.994731 0.994855 0.848666
0.999809 0.994898 0.891215
0.999972 0.994903 0.936551
1 1.00397 0.990517
1.00214 1.00154 0.989314
1.00087 1.00001 0.992158
1.00142 0.999609 0.993052
0.999815 0.99487 0.894106
0.99925 0.994863 0.935433
0.994848 0.994816 0.960657
0.995449 1.00243 0.990934
0.99708 0.995444 0.876701
0.994647 0.994788 0.831579
0.994738 0.994797 0.835965
0.999207 1.00344 0.992649
0.994697 0.994824 0.836176
0.994775 0.994802 0.83865
0.997567 1.0013 0.996494
0.999471 1.00175 0.994038
0.995064 0.999554 0.991094
0.995126 0.995466 0.96231
0.997016 0.9988 0.944664
0.995139 0.999066 0.879935
0.994865 0.994812 0.837738
0.997258 1.00362 0.99608
0.994792 0.994845 0.847407
0.994812 0.994793 0.836591
0.99499 1.00233 1.00004
0.995089 0.998116 0.970334
0.994912 0.999939 0.944677
0.995336 0.997012 0.872633
0.994972 0.994857 0.841257
0.999286 1.00321 0.993055
0.998267 1.00339 0.994694
0.99649 1.00382 0.996977
1.00039 1.00441 0.989836
1.00047 1.00456 0.98974
0.999742 1.00475 0.990451
0.99786 1.0046 0.992832
1.00037 1.00468 0.98962
0.999311 1.00478 0.991246
0.996171 1.00462 0.996333
0.995201 1.0049 0.997789
0.99602 1.00497 0.99635
0.999837 1.00426 0.990953
1.00038 1.00481 0.989485
1.00003 1.00394 0.990791
0.999292 1.00345 0.992531
0.999497 1.00469 0.990793
0.999439 1.00499 0.990784
0.999042 1.00416 0.992226
0.999261 1.00455 0.991498
0.997352 1.00494 0.994249
1.00236 0.99787 0.992408
1.00045 1.00184 0.992276
1.00097 1.00179 0.991035
1.00423 1.00133 0.986804
1.00084 1.00368 0.990366
1.00045 1.00175 0.991652
0.999841 1.00457 0.990434
0.99978 1.00498 0.989794
0.99997 1.00457 0.990412
0.999928 1.00496 0.990067
1.00003 1.00421 0.990553
1.00001 1.00464 0.990561
1.00015 1.00348 0.991139
1.00012 1.0019 0.992696
1.00025 1.00315 0.991361
1.00012 1.00183 0.992821
1.00014 0.999007 0.996214
1.00003 1.00185 0.992923
1.00004 0.998991 0.996017
1.00007 0.997156 0.99776
0.999942 0.998957 0.995913
0.999994 0.997124 0.998524
0.999974 0.997144 0.999141
1.00021 1.00229 0.992199
1.00004 1.00036 0.99444
1.00012 1.00176 0.992919
1.00007 0.997971 0.996715
0.999957 1.00019 0.994694
1.00005 1.00154 0.99323
1.00002 0.996587 0.999284
1.00007 0.997914 0.996772
0.999947 1.00009 0.994814
1.00009 0.997883 0.996754
1 0.996635 0.999282
0.999972 0.996654 0.99928
0.994683 0.994802 0.831885
0.999809 0.994861 0.883502
0.994764 0.994787 0.836723
0.994695 0.994775 0.826057
0.996349 0.995058 0.968423
1.00354 0.994902 0.988239
0.999987 0.994905 0.939721
0.999545 0.994842 0.89307
0.994723 0.994803 0.816318
0.998485 0.994882 0.974816
1.00108 0.996079 0.931655
0.997166 0.998358 0.888647
0.994742 0.994773 0.823269
0.995451 0.994896 0.967953
0.996995 0.997385 0.933054
0.994785 0.998177 0.87347
0.994816 0.994833 0.825105
1.00028 1.00445 0.99069
0.999919 1.00321 0.991734
0.999904 1.00207 0.992904
0.999389 1.00331 0.992483
1.00054 1.00404 0.989778
0.999958 1.00362 0.99126
1.00002 1.00312 0.991593
1.0008 1.00286 0.990837
1.00045 1.00339 0.99085
1.00007 1.0027 0.991904
1.0023 0.994796 0.992871
1.00407 0.995431 0.991298
1.00453 0.995698 0.990258
1.00094 0.998233 0.993713
1.00019 1.00508 0.990904
0.999244 1.0046 0.991635
0.999729 1.00494 0.99019
0.999918 1.00509 0.989838
1.00002 0.995048 0.99285
0.99976 1.00497 0.990254
0.999495 1.00518 0.991335
1.00225 0.996519 0.994227
1.00051 1.00026 0.993749
0.99746 0.997299 0.993209
0.997808 0.996875 1.00068
0.998079 1.00327 0.994324
0.999907 1.00476 0.990206
0.998768 1.00514 0.992076
0.994826 0.994828 0.852845
0.994726 0.994844 0.845233
0.999808 0.99489 0.876519
0.999165 1.00287 0.992454
0.999307 1.00162 0.993942
0.997547 1.00054 0.997037
0.994677 0.994818 0.835409
0.997107 0.997351 0.934249
0.995105 0.995516 0.962836
0.995431 0.997305 0.993775
0.994796 0.997709 0.896339
0.994788 0.994805 0.838542
0.994878 0.994822 0.838372
0.997494 1.00346 0.996273
0.994797 0.99484 0.850274
0.9948 0.994791 0.837092
0.995347 1.00184 0.999014
0.995059 0.997545 0.972147
0.995134 0.998576 0.933495
0.994883 0.994853 0.838552
0.994876 0.999375 0.880357
0.995139 1.00487 0.99934
0.99479 0.994828 0.848356
0.994849 0.994812 0.841913
0.994806 0.994833 0.825912
0.994872 0.999422 0.990934
0.994889 0.998953 0.948307
0.995727 0.997951 0.886624
0.998646 1.00368 0.994936
0.996755 1.0042 0.996605
0.994976 1.00521 0.998772
1.00029 1.00474 0.98964
0.999222 1.0048 0.991196
0.996291 1.00462 0.996753
0.999625 1.0045 0.99087
0.996336 1.00497 0.996327
0.995405 1.00509 0.997759
0.995191 1.00528 0.997752
0.996618 1.00477 0.995666
0.999434 1.00471 0.990854
0.999493 1.00499 0.990802
0.999087 1.00438 0.992331
0.997644 1.00485 0.99411
0.999259 1.00467 0.991411
0.999064 1.00271 0.993541
1.00051 0.998607 0.994941
1.00227 1.00098 0.988755
1.00026 1.00165 0.992604
1.00154 1.00186 0.990587
1.00413 1.00211 0.986087
1.00518 1.00144 0.984586
1.00227 1.00216 0.989043
1.00337 1.00135 0.987071
1.00055 1.00501 0.989162
1.00055 1.00368 0.990621
0.999684 1.00198 0.992978
1.00025 1.00439 0.990248
0.999852 1.00502 0.989801
1.0002 1.00449 0.990011
1.00003 1.00499 0.990075
1.00014 1.00406 0.990566
1.00012 1.00232 0.992276
1.00022 1.00347 0.991123
1.00014 1.00189 0.992682
1.00015 0.999011 0.99615
1.00014 1.00179 0.992826
1.00013 0.998994 0.995867
1.00012 0.99721 0.997653
1.00006 0.998977 0.995706
1.00005 0.997156 0.998432
1.00001 0.997135 0.999098
1.00045 1.0024 0.991517
1.0001 1.00069 0.993745
1.00027 1.00225 0.992196
1.00011 0.998049 0.99657
1.00003 1.00036 0.994292
1.00011 1.00176 0.992743
1.00004 0.996626 0.999267
1.00007 0.997951 0.996723
0.999961 1.00015 0.994698
1.00002 0.996608 0.999283
1.00006 0.997919 0.996772
0.999999 0.99662 0.999283
0.994824 0.994832 0.844396
0.994694 0.994825 0.842601
0.999806 0.994848 0.88315
1.00092 1.00269 0.990657
0.994819 0.994803 0.843611
0.994761 0.994786 0.836663
0.994718 0.994787 0.83618
0.998933 0.995264 0.973848
0.999398 0.994977 0.943165
0.996928 0.995646 0.874531
0.994728 0.994793 0.829746
0.996627 0.994898 0.965084
0.997089 0.999483 0.943206
0.994987 0.999322 0.876735
0.994808 0.99482 0.82956
0.994893 0.994874 0.960428
0.994877 0.998801 0.942225
0.995019 0.999981 0.883022
0.99492 0.99485 0.840875
1 1.00474 0.99015
1.00013 1.00425 0.990492
1.00003 1.003 0.991844
1.00063 1.00326 0.990501
1.00042 1.00417 0.990023
0.999955 1.00371 0.991439
1.00081 1.00296 0.990809
1.00049 1.00343 0.990914
0.999032 0.995934 0.993055
1.0024 0.996169 0.994671
1.00023 1.00509 0.989567
1.00101 0.999925 0.993574
0.999733 1.00518 0.991231
1.00005 1.00506 0.990123
0.999715 1.00478 0.990237
0.996517 0.996403 0.993944
0.998962 1.00481 0.992234
0.998453 1.0033 0.994529
0.997796 0.997867 1.00086
0.999542 1.00481 0.99126
0.995617 0.999727 0.989966
0.996016 1.00136 0.999518
0.9967 1.00465 0.995568
0.998905 1.00444 0.992686
0.994785 0.994805 0.85404
0.99483 0.994826 0.851283
0.994721 0.994838 0.841755
0.997613 1.0035 0.996474
0.995457 1.00099 0.998004
0.994807 0.994834 0.852997
0.994879 0.999902 0.944792
0.995127 0.99702 0.969564
0.994931 0.999467 0.879245
0.994799 0.994788 0.837466
0.994856 0.99485 0.835884
0.995337 1.00472 0.999092
0.994793 0.994828 0.848261
0.994847 0.994814 0.844134
0.994818 1.00002 0.994562
0.994797 0.994823 0.830093
0.994866 0.997191 0.941315
0.995315 0.998381 0.889114
0.99488 1.00373 0.998395
0.994818 0.994846 0.852899
0.9948 0.994802 0.844308
0.994707 0.99477 0.830271
0.994929 0.999986 0.882696
0.9949 1.00035 0.977522
0.995317 0.998454 0.934399
0.997184 1.0045 0.99625
0.99531 1.00522 0.998649
0.994927 1.00516 0.9984
0.999453 1.00461 0.990786
0.996517 1.00507 0.996309
0.99543 1.00515 0.997728
0.996789 1.00464 0.995623
0.995252 1.00518 0.997814
0.997759 1.00177 0.997595
0.997883 1.00468 0.993963
0.999229 1.00478 0.991334
0.99908 1.00293 0.993975
0.999001 1.00338 0.991924
0.99869 0.999331 0.997394
1.00219 1.00055 0.989703
1.00405 1.00322 0.9842
1.00497 1.0023 0.98372
1.00209 1.0019 0.990116
1.00411 1.00229 0.9854
1.00519 1.00149 0.984605
1.00417 1.00056 0.986864
1.00486 1.0013 0.984934
1.00069 1.0049 0.988603
1.00221 1.00238 0.988888
1.00257 1.00133 0.987342
1.00024 1.00481 0.989467
1.00022 1.00503 0.989335
1.00028 1.00362 0.990882
0.999916 1.00505 0.989808
1.00024 1.00447 0.99002
1.0002 1.00287 0.991581
1.00024 1.00399 0.990579
1.00013 1.00235 0.992261
1.00012 0.999201 0.995353
1.00018 1.00193 0.992669
1.00018 0.999011 0.995472
1.00003 0.997193 0.999006
1.00014 0.999005 0.995543
1.00008 0.99721 0.998341
1.00005 0.997169 0.999039
1.00045 1.00253 0.991361
1.00024 1.00103 0.993175
1.00041 1.00245 0.991651
1.00016 0.998186 0.996346
1.00014 1.00068 0.993675
1.00028 1.00225 0.992191
1.00006 0.99665 0.999235
1.00011 0.998024 0.996584
1.00004 1.00036 0.994146
1.00004 0.996603 0.999273
1.00008 0.99793 0.99673
1.00002 0.996631 0.999283
0.9948 0.994834 0.852785
0.994824 0.994836 0.844527
0.994687 0.994833 0.84268
1.00083 1.00273 0.990809
1.00069 1.00298 0.990612
1.0009 1.00247 0.991104
0.994864 0.994815 0.841234
0.994819 0.994794 0.844006
0.994757 0.994779 0.83664
0.996871 0.994874 0.96641
0.997138 0.995903 0.932002
0.994777 0.999923 0.894899
0.994824 0.994823 0.824548
0.995006 0.994845 0.963708
0.995056 0.999716 0.938872
0.994942 0.999075 0.880026
0.994888 0.994845 0.838008
0.994887 0.99551 0.960292
0.994885 0.998158 0.943745
0.995755 0.998311 0.886235
0.994847 0.99482 0.828424
1.00005 1.00353 0.991061
1.00028 1.00448 0.989947
1.00034 1.00408 0.990294
1.00075 1.00316 0.990449
1.00023 1.00431 0.990273
1.00082 1.00305 0.990781
0.996156 0.995414 0.994703
0.99727 0.998665 1.00113
0.99978 1.00454 0.990265
0.998952 1.00256 0.994707
0.999047 1.00465 0.992386
0.999284 1.00466 0.991349
0.998531 1.00484 0.992721
0.995355 0.999762 0.989914
0.996391 1.00498 0.996151
0.996517 1.00177 0.998707
0.998445 1.00449 0.993368
0.995047 1.00217 0.986072
0.995651 1.00421 0.995907
0.996264 1.00503 0.996585
0.994818 0.994823 0.854725
0.994785 0.994812 0.853923
0.994832 0.994823 0.849728
0.995355 1.00438 0.998792
0.994775 1.00036 0.990852
0.994794 0.994829 0.848177
0.994826 0.998941 0.941359
0.99564 0.99795 0.875107
0.994845 0.994813 0.846336
0.994815 0.994833 0.825433
0.994863 1.00359 0.998867
0.994814 0.994846 0.853765
0.994811 0.994798 0.844713
0.994894 0.999661 0.974798
0.994728 0.994771 0.82411
0.995336 0.999857 0.878485
0.995049 0.996915 0.946906
0.994916 1.00514 0.992053
0.994789 0.99484 0.852928
0.994778 0.994795 0.837686
0.99466 0.994771 0.839083
0.994757 0.997819 0.8732
0.994932 0.999577 0.942655
0.994896 1.00081 0.968801
0.995654 1.00511 0.998513
0.995054 1.00501 0.998419
0.997294 1.00219 0.997906
0.997029 1.00453 0.99558
0.995318 1.00516 0.99783
0.996476 1.0035 0.997531
0.99902 0.996956 1.00011
0.999081 1.00321 0.9944
1.00118 1.00243 0.991277
1.0024 1.00422 0.986564
1.00199 1.00019 0.990757
1.00409 1.00306 0.984455
1.00441 1.0042 0.982789
1.00494 1.00182 0.983938
1.00514 1.00174 0.984134
1.0049 1.00238 0.983701
1.00434 1.00238 0.984723
1.00509 1.00089 0.985794
1.00515 1.00159 0.984489
1.00239 1.00272 0.987681
1.00406 1.00068 0.987116
1.00446 1.00118 0.985286
1.0004 1.00499 0.988604
1.00098 1.00482 0.988579
1.00209 1.00268 0.988726
1.00032 1.00344 0.990916
1.00048 1.00465 0.989469
0.999979 1.00506 0.989507
1.00033 1.00431 0.99003
1.00027 1.00282 0.991581
1.00007 0.999577 0.995069
1.00018 1.00231 0.992247
1.00014 0.999234 0.995333
1.00002 0.997329 0.998975
1.00018 0.999039 0.995464
1.00008 0.997227 0.998318
1.00007 0.997205 0.999002
1.0005 1.00295 0.991129
1.00035 1.00125 0.99298
1.00054 1.00244 0.991428
1.00022 0.998394 0.996038
1.00024 1.00104 0.99326
1.0004 1.00247 0.991786
1.00008 0.996722 0.999183
1.00016 0.998157 0.996364
1.00017 1.00067 0.993605
1.00006 0.996653 0.999245
1.00011 0.998 0.996598
1.00004 0.996616 0.99928
0.994821 0.994843 0.852381
0.994799 0.994847 0.852687
0.994819 0.99485 0.844741
1.00037 1.00417 0.989815
1.0011 1.00392 0.989721
1.00069 1.0028 0.990966
1.00062 1.00318 0.990521
1.00055 1.00263 0.99121
1.00036 1.0031 0.991061
1.00037 1.00236 0.991824
0.994832 0.994793 0.836322
0.994863 0.994818 0.843552
0.994814 0.994803 0.844414
0.994865 0.994841 0.83524
0.994949 0.994847 0.960729
0.994875 0.999943 0.934707
0.995076 0.99728 0.89251
0.994885 0.996044 0.95928
0.994893 0.999349 0.932417
0.995113 0.998102 0.88932
0.994841 0.994811 0.838124
0.996031 0.996593 0.962187
0.994983 0.999229 0.934213
0.99527 0.997691 0.872901
0.994743 0.994795 0.826161
0.998587 1.0048 0.992653
0.999905 1.00382 0.991194
1.00029 1.00463 0.989744
1.00079 1.00328 0.9904
0.99495 0.999825 0.990158
0.996996 1.00244 0.99778
0.999155 1.00482 0.991441
0.998402 1.00478 0.992757
0.996398 1.0052 0.996717
0.998422 1.00413 0.993307
0.996283 1.0049 0.996567
0.99665 1.00182 0.982756
0.994989 1.00514 0.996394
0.996418 1.00435 0.996338
0.994762 1.00395 0.982771
0.995509 1.00364 0.998663
0.994781 0.994806 0.85422
0.994823 0.994823 0.857566
0.994785 0.994822 0.853796
0.994826 1.00349 0.999298
0.994905 0.998979 0.978286
0.994808 0.994845 0.854681
0.995541 0.997556 0.935281
0.995265 0.998033 0.89164
0.994819 0.994803 0.845096
0.994715 0.994793 0.83047
0.994899 1.00444 0.992848
0.994799 0.994838 0.852852
0.99476 0.99479 0.83766
0.994897 1.00029 0.96898
0.99469 0.994784 0.828675
0.995063 0.999209 0.875817
0.995232 0.999212 0.931843
0.995394 1.00446 0.986661
0.994827 0.994825 0.844724
0.994665 0.994763 0.828945
0.996795 0.995811 0.891788
0.994845 0.999592 0.942133
0.994872 0.999985 0.962039
0.995214 1.00504 0.998729
0.996215 1.00307 0.998054
0.996528 0.999229 1.0012
0.995357 1.0051 0.997454
0.997522 0.998523 1.00027
1.00189 0.998144 0.994427
1.00337 1.00133 0.990633
1.00321 1.00381 0.985984
1.00342 1.00442 0.983791
1.00395 1.00301 0.984708
1.00452 1.00416 0.982679
1.00433 1.00429 0.982778
1.00509 1.00053 0.985049
1.00508 1.0011 0.984771
1.00491 1.00202 0.983921
1.00507 1.00164 0.984763
1.00508 1.00163 0.984173
1.00472 1.00254 0.983681
1.00464 1.00088 0.986353
1.00489 1.00101 0.985611
1.0051 1.0017 0.984375
1.00141 1.00495 0.987473
1.00243 1.00285 0.987753
1.00395 1.00075 0.987368
1.00037 1.00404 0.989964
1.00073 1.00497 0.988629
1.00117 1.00473 0.988556
1.00006 0.999952 0.994718
1.00038 1.0033 0.990914
1.00066 1.0046 0.989472
1.00029 1.0028 0.991581
1.00008 0.99962 0.995043
0.999964 0.997557 0.998923
1.00015 0.999258 0.995312
1.00002 0.997361 0.998962
1.00005 0.997226 0.998988
1.00008 1.00494 0.989808
1.00067 1.00348 0.990343
1.00042 1.00168 0.992451
1.00051 1.00289 0.991118
1.00024 0.998674 0.995713
1.00035 1.00128 0.992974
1.00053 1.00245 0.991494
1.00009 0.996876 0.999109
1.00021 0.998386 0.996057
1.00024 1.00105 0.993342
1.00007 0.996721 0.999199
1.00016 0.998141 0.996383
1.00006 0.996631 0.999255
0.994793 0.994825 0.848018
0.994806 0.994839 0.853289
0.994807 0.99484 0.852581
1.00045 1.00436 0.989813
1.00074 1.00359 0.98988
1.00003 1.00245 0.990935
1.00003 1.00448 0.989936
1.0012 1.00358 0.990485
1.00068 1.0033 0.990428
1.00041 1.00277 0.991316
1.00043 1.00307 0.991081
1.00037 1.00259 0.991853
0.999359 1.00407 0.991946
0.994758 0.994786 0.839226
0.994818 0.994789 0.836875
0.994863 0.99481 0.845809
0.994863 0.99482 0.838712
0.995659 0.998315 0.875182
0.99487 0.996345 0.957766
0.994883 0.9989 0.943748
0.994926 0.99708 0.958965
0.994893 0.996314 0.945458
0.994857 0.999555 0.881417
0.994762 0.994782 0.824855
0.994789 0.998027 0.963307
0.994852 0.999991 0.944965
0.994726 0.999369 0.894014
0.994684 0.99477 0.838633
0.998173 1.00336 0.994633
0.998388 1.00467 0.992776
0.999913 1.00384 0.99133
0.997124 1.00158 0.979134
0.994813 1.00521 0.996971
0.998307 1.00428 0.993241
0.996073 1.00509 0.996553
0.996734 1.00424 0.996287
0.995263 1.00335 0.998944
0.99513 1.00182 0.981981
0.995768 1.00202 0.999116
0.995769 0.999907 0.987828
0.99482 0.99482 0.851843
0.994786 0.994814 0.854109
0.994825 0.994822 0.860421
0.994904 1.0035 0.993266
0.994865 0.999893 0.96618
0.99481 0.99484 0.85275
0.994959 0.999745 0.94249
0.994748 0.999824 0.893588
0.994742 0.994773 0.837709
0.994715 0.994796 0.817881
0.995619 1.00424 0.987357
0.994814 0.994832 0.844794
0.994689 0.994768 0.827481
0.995004 0.999635 0.962994
0.99705 0.997958 0.889695
0.995102 0.999565 0.937154
0.995062 1.00349 0.985216
0.994682 0.994796 0.83256
0.999283 0.994841 0.894102
0.99683 0.997332 0.933423
0.994867 0.996904 0.964898
0.995646 1.00387 0.998186
0.996252 0.999437 1.00119
0.998794 1.00246 0.996034
0.996012 1.00004 1.00041
1.00073 0.998691 0.994963
1.0033 0.999845 0.989234
1.00404 1.00329 0.985392
1.00345 1.00437 0.983682
1.00419 1.00176 0.984888
1.00472 1.00415 0.982572
1.00435 1.00392 0.98287
1.00484 1.00052 0.985615
1.00523 0.998051 0.987136
1.0052 0.999892 0.985417
1.00507 1.00042 0.985141
1.00511 1.00116 0.984868
1.00509 1.00114 0.984701
1.0049 1.00218 0.983902
1.00508 1.00151 0.98501
1.00484 1.00155 0.984803
1.00503 1.00155 0.984214
1.00337 1.00281 0.986491
1.00423 1.00125 0.986327
1.00472 1.00118 0.985426
1.00051 1.0049 0.9885
1.0015 1.00481 0.9875
1.00257 1.00298 0.987823
1.00004 1.00071 0.994849
1.00054 1.00401 0.989954
1.00105 1.00495 0.988655
0.999955 0.9979 0.997209
1.00005 1.0001 0.994998
1.00045 1.00318 0.990912
1.00008 0.999674 0.995017
0.999966 0.997603 0.998898
1.00001 0.997375 0.998948
1.00013 1.00507 0.989843
1.00051 1.00474 0.989594
0.999945 1.00494 0.989764
1.00047 1.00232 0.991767
1.00047 1.00384 0.99033
1.0002 0.999016 0.995426
1.00042 1.00166 0.992463
1.00062 1.00278 0.991104
1.00008 0.997092 0.999033
1.00024 0.998655 0.995728
1.00034 1.0013 0.992968
1.00008 0.996862 0.999132
1.0002 0.998368 0.996076
1.00007 0.996708 0.999215
0.99479 0.994823 0.853697
0.994803 0.99483 0.847924
0.994794 0.994848 0.854229
1.00052 1.00248 0.990811
1.00018 1.00473 0.989811
1.00061 1.0034 0.990044
1.00046 1.00452 0.989733
1.00068 1.00243 0.990979
1.00067 1.00319 0.99126
1.00216 1.00237 0.989031
0.998893 1.00487 0.991113
1.0005 1.00301 0.991102
1.00003 1.00259 0.991879
0.999249 1.00395 0.991883
0.9984 1.00524 0.992542
0.994689 0.994799 0.833585
0.994784 0.994789 0.838774
0.994813 0.994785 0.837319
0.99475 0.994779 0.836082
0.994844 0.999509 0.880713
0.995356 0.998289 0.934206
0.994895 0.99762 0.958128
0.995069 0.997497 0.963344
0.994698 0.994777 0.828171
0.994873 0.997655 0.937977
0.995094 0.99992 0.879134
0.994888 0.99623 0.967214
0.99489 0.999927 0.945405
0.997158 0.996619 0.888701
0.999331 0.998649 0.997246
0.998208 1.00324 0.994595
0.998291 1.00447 0.992894
0.995292 1.00112 0.981792
0.994923 1.00298 0.99921
0.997105 1.0038 0.996246
0.99685 1.00189 0.999156
0.99524 0.999047 0.987955
0.996703 0.998529 0.992136
0.994723 0.994857 0.843259
0.994821 0.994811 0.853864
0.994789 0.994816 0.85396
0.995282 1.00415 0.987736
0.994863 0.999968 0.962878
0.994801 0.994838 0.845014
0.994832 0.99989 0.933506
0.996783 0.995283 0.875951
0.994719 0.994782 0.837388
0.994825 1.00401 0.985243
0.994694 0.994821 0.843157
0.999238 0.994799 0.878282
0.994852 0.996111 0.960651
0.996906 0.999179 0.943651
0.994793 1.00334 0.990329
0.999801 0.994849 0.873368
0.999613 0.994895 0.945391
0.994866 0.994841 0.959889
0.995939 0.999509 1.00123
0.998189 1.00154 0.995712
1.00162 1.00338 0.990525
0.999565 0.999388 0.995502
1.00273 1.00059 0.989087
1.00426 0.999605 0.987524
1.00342 1.00442 0.983573
1.00409 1.00198 0.984862
1.00498 0.997197 0.98788
1.00435 1.00348 0.982961
1.00472 1.0003 0.985645
1.00525 0.996346 0.988741
1.00521 0.996333 0.989174
1.00523 0.998289 0.986992
1.00524 0.997945 0.987267
1.00521 0.999815 0.985552
1.00519 0.999871 0.985574
1.00508 1.00031 0.985233
1.00517 1.00137 0.984503
1.00511 1.00107 0.984852
1.0051 1.00114 0.98463
1.00487 1.00103 0.985653
1.00489 1.00147 0.985013
1.00463 1.00143 0.984841
1.00172 1.00447 0.98729
1.00331 1.0029 0.986459
1.0038 1.00161 0.986304
0.999912 1.00188 0.993021
1.00099 1.0047 0.988502
1.00163 1.00474 0.987524
0.999773 0.998437 0.998674
1.00006 1.00073 0.993907
1.00072 1.00386 0.989945
0.999938 0.997879 0.998813
1.00004 1.00017 0.994588
0.999971 0.997659 0.998872
1.00148 1.00377 0.989077
1.00015 1.00494 0.989727
1.00055 1.00506 0.989186
1.00034 1.00332 0.990981
1.0004 1.00463 0.989566
1.00009 1.00482 0.98972
1.00016 0.999433 0.995104
1.00042 1.00234 0.991789
1.00028 1.00396 0.990317
1.00005 0.997304 0.998968
1.00022 0.998958 0.995442
1.00042 1.00163 0.992474
1.00007 0.997057 0.999056
1.00023 0.998642 0.995743
1.00008 0.996837 0.999155
0.994709 0.994823 0.828943
0.994808 0.994825 0.853864
0.994811 0.994834 0.847842
1.00046 1.00281 0.99079
1.00368 1.00215 0.988127
1.00097 1.0034 0.99025
1.00048 1.00451 0.989529
1.00141 1.00229 0.991016
0.999813 1.00255 0.992025
0.999449 1.00474 0.990816
1.00146 1.0028 0.989409
1.00127 1.00431 0.988865
0.999785 0.999849 0.994866
0.999765 1.00389 0.99182
0.998618 1.00521 0.992347
0.999523 0.995284 0.871839
0.994666 0.994782 0.82729
0.994796 0.994793 0.8387
0.994711 0.994784 0.817221
0.995102 0.998796 0.895238
0.994808 0.999382 0.933816
0.995469 0.995504 0.960824
0.99485 0.996121 0.965643
0.997204 0.99842 0.888342
0.995052 0.999174 0.934111
0.994879 0.997286 0.967856
0.996853 0.99671 0.933242
1.00127 0.996263 0.997864
0.999266 0.999516 0.997199
0.998306 1.00322 0.994566
0.994794 0.998809 0.988182
0.997638 1.00158 0.999175
0.997169 0.998651 0.991873
0.997559 0.996146 0.990796
0.999813 0.994887 0.88586
0.994715 0.994845 0.841523
0.99483 0.994808 0.855769
0.994861 1.00405 0.985533
0.994851 0.995438 0.959063
0.99469 0.99483 0.843119
0.997012 0.995795 0.933164
0.999278 0.994834 0.894396
0.994895 1.00152 0.987299
0.999804 0.994862 0.883823
1.0006 0.995798 0.932811
0.994895 0.994817 0.962649
0.997266 0.998048 0.989171
0.999975 0.994892 0.946017
0.995514 0.994895 0.966173
0.997898 1.00067 0.995334
1.00094 1.00131 0.990629
1.0041 0.998885 0.990235
1.00223 1.00117 0.988951
1.00414 0.999482 0.987537
1.0051 0.996137 0.9893
1.00408 1.00214 0.98484
1.00493 0.997601 0.987813
1.00521 0.995235 0.989859
1.00463 1.00008 0.985674
1.00525 0.996426 0.988687
1.00523 0.995183 0.990169
1.0052 0.995601 0.990176
1.00521 0.996228 0.989359
1.0052 0.99684 0.988889
1.00525 0.99869 0.986863
1.00522 0.998359 0.987093
1.00525 0.997847 0.9874
1.00524 1.00046 0.985234
1.00522 0.999865 0.985511
1.00518 0.999832 0.985732
1.00515 1.00133 0.984852
1.00515 1.0014 0.984552
1.00507 1.00104 0.984841
1.003 1.00307 0.98666
1.0047 1.00121 0.985622
1.00472 1.00147 0.985015
1.0002 1.00268 0.991677
1.00183 1.00435 0.987312
1.00333 1.00276 0.986426
0.999838 0.998852 0.998453
1.00003 1.00174 0.992979
1.00136 1.0046 0.988502
0.999864 0.998442 0.997756
1.00009 1.0008 0.993914
0.99995 0.998001 0.998734
1.00285 1.00197 0.98832
1.00091 1.00384 0.989307
1.00049 1.00507 0.988869
1.0002 1.00486 0.98961
1.00034 1.00505 0.989186
1.00043 1.00407 0.990128
1.00008 1.00013 0.994588
1.0003 1.00337 0.990978
1.0002 1.00472 0.989538
1.00001 0.997543 0.998878
1.00014 0.999407 0.995124
1.00037 1.00239 0.99181
1.00005 0.99727 0.998987
1.00023 0.998916 0.995459
1.00007 0.997032 0.999078
0.999807 0.994848 0.883473
0.994698 0.994836 0.833916
0.994819 0.994824 0.854011
1.00035 1.00324 0.990766
1.00094 1.00414 0.989221
1.00288 1.00261 0.988451
1.00472 1.00357 0.983606
1.00096 1.00363 0.98921
0.999647 1.00479 0.990533
1.00101 1.00332 0.989791
1.00065 1.00428 0.989196
1.00297 1.00089 0.987633
1.00175 0.999751 0.992495
1.00375 0.995068 0.992701
1.00044 0.999476 0.994761
0.999352 1.00445 0.992157
0.998656 0.994993 0.943894
0.999743 0.99478 0.876775
0.994655 0.994783 0.831496
0.99727 0.997165 0.875085
0.994897 0.999895 0.942452
0.994849 0.995482 0.966429
0.994888 0.996934 0.969489
0.997223 0.999248 0.944956
0.995818 0.995382 0.969283
1.0007 0.995882 0.997813
1.00057 0.99673 0.997901
0.99909 1.00025 0.997146
0.997846 0.998093 0.991711
0.998173 0.997008 0.990971
0.999965 0.994898 0.936209
0.999807 0.994881 0.890788
0.994699 0.994833 0.839885
0.994899 0.999979 0.984067
0.994919 0.99483 0.959985
0.999802 0.994848 0.883589
0.999395 0.994886 0.943911
0.996789 0.997976 0.989501
1.00077 0.994898 0.943023
0.996478 0.994892 0.963738
1.00076 0.995482 0.989415
0.998715 0.994871 0.973567
1.00004 0.999334 0.990825
1.00369 0.997448 0.99022
1.00482 0.995303 0.991439
1.00388 0.999383 0.987546
1.00496 0.99615 0.989171
1.0052 0.994903 0.990349
1.00483 0.998046 0.987747
1.00521 0.995292 0.989804
1.00523 0.99491 0.990421
1.00525 0.996524 0.988634
1.00523 0.995253 0.990131
1.00521 0.995032 0.990514
1.0052 0.995463 0.99024
1.00519 0.995809 0.990031
1.00521 0.996116 0.989546
1.0052 0.996847 0.98888
1.00523 0.997574 0.988097
1.00527 0.999542 0.986184
1.00525 0.998751 0.986841
1.00521 0.998428 0.987195
1.00527 1.00108 0.984707
1.00525 1.00053 0.985122
1.00522 0.999908 0.985467
1.00382 1.00194 0.986268
1.00501 1.00139 0.984874
1.00508 1.00143 0.984601
1.00088 1.00274 0.990499
1.0029 1.00318 0.986665
1.00442 1.00152 0.985594
0.99996 0.999636 0.998086
1.00033 1.00257 0.991661
1.00205 1.00425 0.987335
0.999926 0.999037 0.998335
1.00021 1.00153 0.992935
0.999946 0.998462 0.998532
1.00428 1.00216 0.985145
1.00294 1.00169 0.988207
1.00115 1.00447 0.987951
1.00038 1.00377 0.989543
1.00051 1.005 0.988749
1.00063 1.00469 0.989178
1.00022 1.00507 0.989184
1.00029 1.00419 0.990106
1.0001 1.00078 0.993908
0.999969 0.997968 0.998716
1.00006 1.00005 0.994611
1.00025 1.00339 0.990976
1 0.99753 0.99891
1.00013 0.99936 0.99514
1.00005 0.997239 0.999007
0.999978 0.994897 0.94768
0.999822 0.994867 0.883116
0.994681 0.994826 0.828835
1.00088 1.00479 0.988188
1.00225 1.00286 0.988781
1.00186 1.00354 0.988703
1.00424 1.00357 0.98432
1.00477 1.00219 0.984077
1.00307 1.00239 0.985813
1.00018 1.00448 0.989514
1.00383 1.00085 0.986545
1.00168 0.999721 0.992699
1.0033 0.997833 0.990015
1.00438 0.995566 0.991811
1.00331 0.995955 0.992706
1.00336 0.995268 0.992909
1.00006 0.999851 0.994655
0.996053 0.994864 0.967606
0.99964 0.996034 0.940048
0.998518 0.99496 0.891592
0.99694 0.99774 0.932999
0.994893 0.997051 0.969977
0.995471 0.995907 0.974945
0.999366 0.996045 0.992556
1.00118 0.995369 0.997465
0.999937 0.997162 0.997954
0.999095 0.998453 0.991176
0.996954 0.996357 0.968645
1.00008 0.994894 0.948443
0.99981 0.994872 0.876005
0.996233 0.997623 0.989782
0.996933 0.994863 0.964788
0.99999 0.994895 0.93981
1.00017 0.99489 0.98961
0.998506 0.995048 0.972984
1.00303 0.99476 0.990995
1.00298 0.997361 0.98569
1.00314 0.995992 0.990177
1.00456 0.9952 0.991442
1.00512 0.994759 0.990947
1.00494 0.996216 0.989043
1.0052 0.994905 0.990309
1.00525 0.994893 0.990484
1.00521 0.995352 0.989748
1.00523 0.994916 0.990396
1.00525 0.994915 0.990507
1.00523 0.9953 0.990092
1.0052 0.995037 0.99049
1.00522 0.995066 0.990495
1.0052 0.995333 0.990303
1.00519 0.995688 0.990102
1.00521 0.996745 0.989117
1.0052 0.996858 0.988871
1.00523 0.997634 0.988075
1.00525 0.998807 0.98703
1.0053 1.00039 0.985323
1.00527 0.99966 0.986031
1.00525 0.998815 0.986818
1.0045 1.00103 0.986042
1.00524 1.0011 0.984738
1.00526 1.00059 0.98501
1.00142 1.00237 0.989905
1.00374 1.00215 0.986246
1.00485 1.00146 0.984892
1.0003 1.00023 0.997601
1.00096 1.0026 0.990489
1.0028 1.00327 0.986667
1.00011 0.999781 0.997893
1.00037 1.00243 0.991653
1.00004 0.999171 0.998186
1.00468 1.00194 0.984576
1.0046 1.00206 0.985293
1.00347 1.00248 0.986045
1.00287 1.00178 0.988093
1.00137 1.00421 0.987741
1.00135 1.00484 0.98803
1.00044 1.00498 0.988629
1.00058 1.00471 0.98917
1.00011 1.00161 0.993125
1.00022 1.00434 0.990085
1.00005 1.00078 0.993938
0.999923 0.998496 0.998522
0.999955 0.997902 0.998778
1.00004 1.00002 0.994636
0.999994 0.997477 0.998938
0.996966 0.994885 0.968864
0.999979 0.994877 0.935561
0.999814 0.994856 0.893566
1.00517 0.999886 0.985541
1.00276 1.00353 0.988206
1.00374 1.00353 0.985034
1.00371 1.00216 0.986113
1.00482 1.00239 0.983972
1.00435 0.999572 0.987294
1.00463 1.00153 0.985455
1.00136 0.999212 0.992904
1.00376 0.998268 0.989648
1.00426 0.995699 0.991167
1.00478 0.995541 0.990146
1.00364 0.995369 0.993103
1.00332 0.995578 0.992749
1.00314 0.995462 0.993111
0.999285 0.996066 0.990953
0.995905 0.994868 0.965937
0.999171 0.994863 0.936137
0.995007 0.996447 0.973385
0.999103 0.99589 0.994998
1.00111 0.994947 0.997071
1.00143 0.996732 0.983309
0.996986 0.995557 0.969358
0.999971 0.994901 0.936206
0.999296 0.994837 0.989853
0.998775 0.99527 0.972134
1.00215 0.995127 0.991457
1.00294 0.996866 0.986437
1.00405 0.99487 0.991386
1.00461 0.997441 0.990716
1.00432 0.995012 0.991434
1.00511 0.994786 0.990836
1.00528 0.994801 0.99048
1.0052 0.994905 0.990268
1.00524 0.994888 0.990477
1.00529 0.994885 0.990453
1.00522 0.994921 0.990371
1.00524 0.994914 0.990512
1.00524 0.994933 0.990621
1.00519 0.99504 0.990466
1.00522 0.995068 0.990476
1.00521 0.995754 0.989973
1.00519 0.995569 0.990174
1.00521 0.996591 0.989286
1.00525 0.998092 0.987812
1.00523 0.997691 0.988053
1.00526 0.998766 0.987067
1.00529 1.00007 0.985753
1.0048 1.00051 0.986057
1.0053 1.00049 0.985227
1.00527 0.999772 0.985879
1.00201 1.00147 0.989796
1.00442 1.00115 0.98605
1.00522 1.0011 0.98477
1.00059 1.0005 0.997268
1.00162 1.00206 0.989899
1.00366 1.0023 0.986228
1.00045 1.00031 0.997455
1.0011 1.00243 0.99048
1.00029 0.999965 0.997705
1.00525 1.00094 0.984711
1.00496 1.0019 0.984499
1.0049 1.00145 0.984924
1.00502 1.00193 0.985442
1.0038 1.00251 0.985861
1.00231 1.00413 0.98707
1.00165 1.00389 0.987531
1.00106 1.00502 0.988051
1.00031 1.00217 0.992145
1.00043 1.00477 0.989162
1.00005 1.00148 0.993155
0.999903 0.999086 0.998276
0.999995 1.00071 0.993967
0.999912 0.998385 0.998592
0.999944 0.997831 0.998832
1.0009 0.994865 0.98778
0.996757 0.994896 0.965638
0.999968 0.994886 0.947601
1.00508 0.998453 0.987364
1.00522 0.998009 0.987559
1.00516 0.999701 0.98579
1.00435 1.00171 0.986408
1.00486 1.00264 0.983864
1.00439 0.99939 0.987665
1.00512 0.995933 0.989096
1.00437 0.99826 0.989295
1.00422 0.996208 0.990522
1.00472 0.996088 0.990365
1.00513 0.995064 0.990595
1.0039 0.995525 0.992128
1.0033 0.995659 0.992972
1.00361 0.995166 0.992801
0.999894 0.995867 0.99108
0.995705 0.994859 0.96439
0.999177 0.995782 0.997542
1.00444 0.995213 0.990996
1.00125 0.996752 0.983478
0.997021 0.994881 0.967338
1.00176 0.994811 0.99189
1.00288 0.996296 0.987211
1.00408 0.994813 0.992013
1.00464 0.996636 0.990792
1.00528 0.994866 0.990753
1.00537 0.99493 0.990947
1.0051 0.994802 0.990728
1.0053 0.994823 0.99045
1.0053 0.994875 0.990461
1.00522 0.994883 0.99047
1.00529 0.994886 0.990473
1.00526 0.994892 0.990617
1.00523 0.994913 0.990518
1.00524 0.994932 0.990609
1.00523 0.99525 0.990485
1.00522 0.995068 0.990458
1.00522 0.995782 0.989954
1.00525 0.997373 0.988476
1.00522 0.996434 0.989454
1.00525 0.998018 0.987879
1.0053 0.99968 0.986131
1.00526 0.998728 0.987104
1.0053 1 0.985831
1.00489 1.00031 0.986128
1.00234 1.00074 0.989916
1.00478 1.00056 0.986061
1.00529 1.0006 0.985131
1.00072 1.00056 0.997127
1.00206 1.00141 0.98979
1.00432 1.00133 0.986059
1.00064 1.00054 0.997201
1.00174 1.00189 0.989894
1.00054 1.00041 0.997331
1.00527 0.99932 0.986216
1.00523 1.00083 0.984868
1.00517 1.00101 0.984979
1.00517 1.00182 0.984421
1.00501 1.00136 0.984957
1.00326 1.0027 0.986713
1.00408 1.00251 0.985679
1.00217 1.00405 0.987082
1.00059 1.00276 0.991016
1.0008 1.0051 0.988072
1.00016 1.00234 0.992176
0.999965 0.999832 0.997941
1.00001 1.00152 0.993185
0.999861 0.998991 0.998372
0.999891 0.998296 0.99866
1.0043 0.994851 0.992153
1.00097 0.994862 0.985711
0.996602 0.99491 0.964712
1.00514 0.997308 0.988559
1.00506 0.998023 0.987656
1.00527 0.996738 0.988776
1.00522 0.998022 0.987536
1.00516 0.999504 0.986035
1.00522 0.995347 0.989722
1.00447 0.999319 0.988027
1.00513 0.99632 0.989051
1.00526 0.99488 0.990402
1.00461 0.996421 0.990582
1.00508 0.995148 0.990353
1.00375 0.995551 0.992344
1.00273 0.995937 0.99284
1.0003 0.995616 0.991071
1.00533 0.99491 0.990707
1.0044 0.996192 0.991176
1.00113 0.996976 0.983677
1.00403 0.994792 0.992624
1.00464 0.995851 0.990874
1.00527 0.994844 0.990822
1.00539 0.994925 0.990887
1.00533 0.994909 0.990795
1.00531 0.994847 0.990422
1.0053 0.994885 0.990475
1.00525 0.994909 0.990719
1.00528 0.994888 0.990493
1.00526 0.994893 0.990613
1.00526 0.994981 0.990767
1.00525 0.99493 0.990596
1.00523 0.995252 0.990461
1.00525 0.996647 0.989226
1.00523 0.995809 0.989935
1.00525 0.997393 0.988484
1.00531 0.999273 0.986567
1.00525 0.997943 0.987946
1.0053 0.99968 0.986156
1.00491 1.00024 0.986181
1.0053 0.999933 0.985908
1.0049 1.00031 0.986135
1.00243 1.00034 0.991733
1.00104 1.00017 0.993942
1.00238 1.00073 0.990697
1.00475 1.00062 0.986065
1.00075 1.00059 0.997098
1.00218 1.00122 0.98978
1.00068 1.00059 0.997138
1.00526 0.996513 0.989229
1.00527 0.998192 0.987512
1.00527 0.999325 0.986382
1.00525 1.00042 0.9854
1.00522 1.00073 0.985026
1.0052 1.00102 0.98493
1.00395 1.00148 0.986571
1.00514 1.00128 0.984989
1.00334 1.00235 0.986703
1.00122 1.00261 0.990095
1.00204 1.00399 0.987092
1.00054 1.00288 0.991012
1.00017 1.00053 0.997504
1.00005 1.00235 0.992206
0.999891 0.999626 0.998075
0.999844 0.998847 0.998456
1.00533 0.994875 0.990644
1.00453 0.99484 0.991907
1.00129 0.994856 0.983696
1.00525 0.995873 0.989514
1.00511 0.997251 0.988427
1.00509 0.99758 0.987954
1.00527 0.996884 0.988765
1.00522 0.998027 0.987513
1.0053 0.994923 0.990479
1.00523 0.995324 0.989735
1.00513 0.996719 0.989006
1.00525 0.994883 0.99042
1.00506 0.995219 0.99011
1.00371 0.995606 0.992564
1.0053 0.994932 0.990863
1.00535 0.994916 0.990887
1.00438 0.996842 0.991358
1.00527 0.994823 0.990879
1.0054 0.99492 0.990831
1.00533 0.994907 0.990755
1.00523 0.99495 0.990987
1.0053 0.994892 0.990488
1.00525 0.99491 0.99069
1.00525 0.994923 0.99093
1.00527 0.994894 0.990609
1.00525 0.994971 0.990746
1.00524 0.996027 0.989889
1.00523 0.995254 0.990436
1.00526 0.996673 0.989225
1.00531 0.99889 0.986999
1.00525 0.997411 0.988492
1.00531 0.999271 0.98659
1.00491 1.0002 0.986243
1.0053 0.999679 0.986181
1.00493 1.00022 0.986194
1.00253 1.00008 0.991852
1.00491 1.00031 0.986141
1.00262 1.00024 0.991623
1.00108 0.999978 0.994107
1.00079 1.00045 0.995568
1.00258 1.00067 0.99132
1.00075 1.00064 0.99708
1.00523 0.995567 0.990283
1.00525 0.997834 0.987881
1.00525 0.996323 0.989422
1.00531 0.99977 0.98597
1.00527 0.998262 0.98749
1.00527 0.999332 0.986547
1.00527 1.00043 0.98535
1.00454 1.00061 0.986396
1.00523 1.00104 0.98488
1.00407 1.00124 0.986568
1.00176 1.0019 0.989801
1.00342 1.00201 0.986696
1.00105 1.00278 0.990093
1.00034 1.00104 0.997181
1.00035 1.00301 0.99102
1.00001 1.00037 0.99768
0.999811 0.999493 0.998197
1.00528 0.994864 0.99072
1.00531 0.994874 0.990634
1.00465 0.994838 0.991645
1.00526 0.995023 0.990491
1.00524 0.995925 0.989513
1.00504 0.997204 0.9883
1.00526 0.997035 0.988755
1.00529 0.994942 0.990448
1.00523 0.995308 0.989748
1.00521 0.994887 0.990439
1.00524 0.994955 0.990985
1.00529 0.994929 0.99085
1.00536 0.994923 0.991065
1.00519 0.994967 0.991109
1.00532 0.994905 0.990715
1.00523 0.994951 0.990972
1.00521 0.994953 0.991046
1.00526 0.994911 0.990661
1.00525 0.994923 0.990923
1.00523 0.995632 0.990374
1.00525 0.994962 0.990725
1.00525 0.996044 0.989881
1.00529 0.998557 0.987425
1.00526 0.9967 0.989223
1.00531 0.998885 0.987019
1.0049 1.00012 0.986366
1.00531 0.99927 0.986613
1.00494 1.00018 0.98626
1.00256 1.00005 0.991819
1.00496 1.0002 0.986207
1.00268 1.00001 0.991716
1.00114 0.999868 0.994146
1.0028 1.00013 0.991522
1.0007 1.00015 0.994363
1.00025 1.00078 0.99751
1.00523 0.995445 0.990288
1.00526 0.997051 0.988792
1.00524 0.99565 0.990098
1.00533 0.999437 0.986404
1.00526 0.997533 0.988127
1.00525 0.99614 0.989615
1.00491 1.00006 0.986354
1.00531 0.999777 0.985932
1.00528 0.998326 0.987468
1.00528 1.00043 0.985298
1.00459 1.00052 0.986388
1.0021 1.0012 0.989901
1.00417 1.00099 0.986565
1.00163 1.00208 0.989814
1.00043 1.00117 0.997088
1.00099 1.00293 0.990084
1.00028 1.00089 0.99729
0.999919 1.00017 0.997842
1.00522 0.994894 0.990953
1.00528 0.994865 0.990699
1.00531 0.994873 0.990625
1.00526 0.99504 0.990515
1.00522 0.995975 0.989512
1.00528 0.994955 0.990417
1.00522 0.994956 0.99105
1.00525 0.994952 0.99099
1.00528 0.994927 0.990837
1.00519 0.994967 0.991111
1.00517 0.994954 0.991183
1.00523 0.994952 0.990957
1.00522 0.994953 0.991047
1.00524 0.995445 0.990647
1.00524 0.994924 0.990916
1.00523 0.995634 0.990371
1.00526 0.998285 0.987758
1.00527 0.996053 0.989874
1.00528 0.998546 0.987441
1.00487 1.00001 0.986545
1.00531 0.99888 0.987038
1.00491 1.00011 0.986381
1.00253 1.00014 0.99175
1.00496 1.00015 0.986276
1.0027 1 0.99167
1.00119 0.999886 0.994066
1.00283 0.999957 0.991591
1.0008 0.999921 0.994424
1.00034 1.00033 0.994602
1.00522 0.995062 0.99083
1.00526 0.996729 0.989115
1.00524 0.995295 0.990381
1.00532 0.99877 0.987122
1.00525 0.99717 0.988649
1.00526 0.995729 0.989914
1.005 0.999876 0.986422
1.00533 0.999195 0.986571
1.00527 0.997235 0.988374
1.00237 1.00046 0.990134
1.00491 1.00004 0.986348
1.00531 0.999788 0.985893
1.00465 1.00042 0.986381
1.00204 1.00128 0.989915
1.00053 1.00108 0.997097
1.0015 1.00226 0.989827
1.00041 1.00109 0.997115
1.00013 1.00079 0.997429
1.00521 0.994919 0.991059
1.00522 0.994903 0.990915
1.00526 0.994866 0.990678
1.00526 0.995062 0.990538
1.00521 0.994957 0.991114
1.00521 0.994956 0.991057
1.00525 0.994948 0.990996
1.00519 0.994967 0.991113
1.00518 0.994955 0.991167
1.00524 0.995792 0.990317
1.00522 0.994954 0.991048
1.00522 0.995677 0.990404
1.00527 0.997709 0.988404
1.00522 0.995645 0.990366
1.00526 0.998279 0.987765
1.00484 0.99986 0.986744
1.00527 0.998546 0.987456
1.00488 0.999999 0.986555
1.00254 1.00021 0.990202
1.00493 1.00009 0.986396
1.00267 1.00011 0.990858
1.00101 0.999954 0.997114
1.00284 0.999969 0.991523
1.00088 0.999876 0.994353
1.00048 0.99996 0.994685
1.00523 0.99503 0.990954
1.00526 0.99624 0.989674
1.00523 0.995148 0.99074
1.0053 0.998323 0.98757
1.00525 0.996735 0.989084
1.00525 0.995145 0.990475
1.005 0.999629 0.986613
1.00532 0.998763 0.987133
1.00525 0.997287 0.988505
1.00254 0.999941 0.990358
1.00498 0.999782 0.986457
1.00532 0.998944 0.986738
1.00069 1.00069 0.997173
1.00239 1.00044 0.990143
1.00491 1.00001 0.98634
1.00198 1.00133 0.98993
1.00053 1.001 0.997088
1.00038 1.00104 0.997148
1.00523 0.994955 0.99104
1.0052 0.994921 0.991062
1.00523 0.994911 0.990878
1.00524 0.995813 0.990274
1.00521 0.994957 0.991122
1.0052 0.994956 0.991064
1.00519 0.994954 0.991151
1.00523 0.995785 0.99032
1.00529 0.997786 0.988373
1.00521 0.995905 0.990161
1.00527 0.998017 0.988076
1.00481 0.999473 0.987137
1.00526 0.998261 0.987773
1.00485 0.999851 0.986744
1.00251 1.00015 0.990323
1.00489 0.999987 0.986565
1.00255 1.0002 0.990208
1.00097 1.00001 0.9971
1.00269 1.00009 0.990091
1.00088 0.999954 0.995748
1.00057 0.999846 0.994638
1.00527 0.994986 0.990872
1.00528 0.996147 0.989835
1.00523 0.994995 0.990964
1.00529 0.998426 0.987493
1.00526 0.996324 0.989593
1.00523 0.995235 0.990649
1.00496 0.999553 0.986766
1.0053 0.998566 0.987349
1.00525 0.996738 0.989052
1.00262 0.999785 0.990398
1.00497 0.999618 0.986626
1.00532 0.998759 0.987143
1.00088 1.00026 0.997204
1.00257 0.999917 0.990362
1.00496 0.999685 0.98649
1.0007 1.00068 0.997138
1.0024 1.00043 0.99015
1.00048 1.00098 0.997103
1.00523 0.995835 0.990222
1.00523 0.994976 0.991019
1.00519 0.994925 0.991066
1.00527 0.997727 0.988458
1.00524 0.995789 0.990282
1.00522 0.994957 0.99113
1.00523 0.995777 0.990322
1.00529 0.997759 0.98838
1.00476 0.999328 0.987362
1.00528 0.998329 0.987748
1.00483 0.999581 0.987025
1.00248 1.00004 0.990489
1.00486 0.999838 0.986745
1.00249 1.00016 0.99033
1.00092 1.00002 0.997095
1.00254 1.00018 0.990211
1.00095 1.00002 0.997093
1.00097 0.999917 0.994129
1.00528 0.996115 0.989817
1.00528 0.994968 0.990871
1.00528 0.998222 0.987756
1.00527 0.996147 0.989844
1.00523 0.994957 0.990974
1.0049 0.999734 0.986778
1.00529 0.998434 0.987488
1.00526 0.996409 0.989511
1.00263 0.999847 0.990354
1.00493 0.999673 0.986692
1.0053 0.998813 0.987128
1.001 1 0.997164
1.00264 0.999781 0.990398
1.00495 0.9996 0.986638
1.00086 1.0003 0.997195
1.00259 0.999908 0.990365
1.00071 1.00067 0.997106
1.00525 0.997775 0.988404
1.00523 0.995877 0.990202
1.00524 0.995011 0.990999
1.00474 0.999261 0.987478
1.00528 0.997708 0.988465
1.00523 0.995779 0.99029
1.00529 0.997736 0.988388
1.00478 0.99932 0.987333
1.00239 0.999991 0.990684
1.00484 0.999689 0.986912
1.00246 1.00005 0.990497
1.0009 1.00002 0.997116
1.00249 1.00017 0.990337
1.0009 1.00004 0.997106
1.00094 1.00003 0.997091
1.00526 0.998046 0.98799
1.00527 0.995931 0.990041
1.00529 0.994932 0.990872
1.00483 0.999663 0.986986
1.00528 0.998229 0.987748
1.00527 0.996151 0.989854
1.00257 0.99996 0.990377
1.00487 0.999752 0.986774
1.00529 0.998441 0.987483
1.00102 0.999937 0.997109
1.00264 0.999862 0.990351
1.00491 0.999789 0.986619
1.00098 1.00005 0.997182
1.00266 0.999793 0.990398
1.00088 1.0003 0.997176
1.00473 0.99952 0.987281
1.00525 0.99764 0.988515
1.00523 0.995897 0.990182
1.00235 0.999919 0.990844
1.00474 0.999248 0.987466
1.00528 0.997681 0.988471
1.0048 0.999307 0.987305
1.0024 0.999967 0.990691
1.00085 1.00002 0.997137
1.00244 1.00006 0.990503
1.00087 1.00003 0.997118
1.00087 1.00006 0.997114
1.00477 0.999578 0.987181
1.00526 0.997863 0.988192
1.00527 0.995761 0.990264
1.00259 1 0.991834
1.00481 0.99967 0.986987
1.00528 0.998238 0.987739
1.00097 0.999958 0.997092
1.00258 0.999978 0.990375
1.00485 0.999771 0.986769
1.00103 0.999964 0.997131
1.00265 0.999883 0.990349
1.00097 1.00007 0.997195
1.00243 0.999918 0.990758
1.00473 0.999392 0.987375
1.00525 0.997504 0.988627
1.00078 0.999986 0.997189
1.00234 0.999918 0.99084
1.00475 0.999237 0.987455
1.00239 0.999944 0.990695
1.00082 1.00001 0.997154
1.00085 1.00004 0.997127
1.00258 0.999961 0.991945
1.00475 0.999581 0.98718
1.00527 0.997677 0.988394
1.00046 0.999997 0.997587
1.00248 1 0.990522
1.00479 0.999675 0.986988
1.00098 0.999967 0.997103
1.00258 0.999998 0.990371
1.00103 0.999984 0.99715
1.00077 0.999959 0.994464
1.00245 0.999919 0.991431
1.00472 0.999265 0.987467
1.0008 0.999989 0.997194
1.00234 0.999921 0.990843
1.00084 0.999999 0.997166
1.00032 0.999988 0.994895
1.00249 0.99995 0.991331
1.00474 0.999588 0.987179
1.00066 0.999988 0.995948
1.00248 1 0.990538
1.001 0.999976 0.997116
1.00079 0.999976 0.99719
1.00234 0.999911 0.990857
1.00077 0.999991 0.997193
1.00057 0.999972 0.996049
1.0024 0.999943 0.990749
1.00092 0.999983 0.997121
1.00081 0.999975 0.997202
1.00082 0.999978 0.997169

TENSORS stress float
0.00201618 -0.000132502 0.000230068
-0.000132502 0.00090907 -3.67103e-05
0.000230068 -3.67103e-05 0.00088466
0.00626242 1.01121e-06 0.000249982
1.01121e-06 0.00354113 2.70225e-05
0.000249982 2.70225e-05 0.0035392
0.00172176 -6.44064e-05 9.93304e-05
-6.44064e-05 0.0007282 -1.46496e-05
9.93304e-05 -1.46496e-05 0.000693582
0.00207858 -7.63289e-05 0.000225378
-7.63289e-05 0.000922747 -2.16053e-05
0.000225378 -2.16053e-05 0.000906115
0.00207008 -0.000117374 0.000225367
-0.000117374 0.000932415 -3.2434e-05
0.000225367 -3.2434e-05 0.000911015
0.00195774 -0.00013264 0.000236557
-0.00013264 0.000874457 -3.7711e-05
0.000236557 -3.7711e-05 0.00085075
0.00171204 -0.000117455 4.2707e-05
-0.000117455 0.000637098 -1.21755e-05
4.2707e-05 -1.21755e-05 0.000535706
0.00618574 -7.52724e-06 -6.98574e-06
-7.52724e-06 0.00348418 -7.86755e-07
-6.98574e-06 -7.86755e-07 0.00348713
0.00611652 0.000168087 0.000125182
0.000168087 0.00342727 1.07596e-05
0.000125182 1.07596e-05 0.00340594
0.0059856 -8.7846e-05 5.93969e-05
-8.7846e-05 0.0033505 2.89426e-06
5.93969e-05 2.89426e-06 0.00332851
0.00177447 0.000169673 0.000238501
0.000169673 0.000751945 2.72444e-05
0.000238501 2.72444e-05 0.00074828
0.000550221 0.000237574 2.62101e-05
0.000237574 -5.10604e-05 1.81525e-05
2.62101e-05 1.81525e-05 -0.000169266
0.00173271 -3.45862e-05 0.00022683
-3.45862e-05 0.000705727 3.53581e-06
0.00022683 3.53581e-06 0.000703976
0.00139772 -1.80347e-06 5.41771e-05
-1.80347e-06 0.000522347 1.49061e-06
5.41771e-05 1.49061e-06 0.000479739
0.00147799 -6.30009e-05 -4.79837e-05
-6.30009e-05 0.000584679 8.4491e-06
-4.79837e-05 8.4491e-06 0.000537694
0.00173482 -7.75632e-05 7.50089e-05
-7.75632e-05 0.000727054 -4.45391e-06
7.50089e-05 -4.45391e-06 0.000695428
0.00172332 -5.03458e-05 0.00010746
-5.03458e-05 0.000736797 -1.52787e-05
0.00010746 -1.52787e-05 0.000698488
0.00173528 -7.50331e-05 8.84762e-05
-7.50331e-05 0.00072812 -1.15874e-05
8.84762e-05 -1.15874e-05 0.000696944
0.00176617 -0.000154327 -3.73649e-05
-0.000154327 0.000666455 4.92778e-06
-3.73649e-05 4.92778e-06 0.000573981
0.00590039 -0.000131274 0.000288158
-0.000131274 0.00330415 -1.10826e-05
0.000288158 -1.10826e-05 0.00331734
0.00201991 -5.51088e-05 0.000224491
-5.51088e-05 0.000885985 -1.60777e-05
0.000224491 -1.60777e-05 0.000871436
0.0021004 -9.82552e-05 0.000225072
-9.82552e-05 0.000941601 -2.72632e-05
0.000225072 -2.72632e-05 0.000923079
0.00168783 -0.000126473 6.3826e-05
-0.000126473 0.000607001 -9.67094e-06
6.3826e-05 -9.67094e-06 0.000517173
0.00171153 -0.000126423 5.22405e-05
-0.000126423 0.000624264 -1.15527e-05
5.22405e-05 -1.15527e-05 0.000530311
0.00189857 -0.000108397 0.000234221
-0.000108397 0.00083043 -3.42337e-05
0.000234221 -3.42337e-05 0.000810582
0.0016907 -0.000110071 3.48522e-05
-0.000110071 0.000643535 -1.30094e-05
3.48522e-05 -1.30094e-05 0.000531934
0.00205754 -0.000281638 1.60589e-05
-0.000281638 0.000665535 -7.06051e-06
1.60589e-05 -7.06051e-06 0.000481644
0.00618036 -2.23306e-05 -0.000248289
-2.23306e-05 0.00347153 -1.78933e-05
-0.000248289 -1.78933e-05 0.00347916
0.00395344 0.000129087 -0.000131955
0.000129087 0.00209495 -1.38072e-05
-0.000131955 -1.38072e-05 0.00207424
0.00383979 3.26989e-05 -0.00012738
3.26989e-05 0.00203925 -1.04717e-05
-0.00012738 -1.04717e-05 0.00201803
0.00609411 -7.67323e-05 -3.7769e-06
-7.67323e-05 0.00344023 8.83152e-09
-3.7769e-06 8.83152e-09 0.00343757
0.000502848 0.000217905 -1.55167e-06
0.000217905 -7.73794e-05 -1.01471e-06
-1.55167e-06 -1.01471e-06 -0.000195231
0.00175924 6.33913e-05 0.000230889
6.33913e-05 0.000727109 2.00912e-05
0.000230889 2.00912e-05 0.000713501
0.00188847 0.000148375 0.000235207
0.000148375 0.0008377 3.09828e-05
0.000235207 3.09828e-05 0.000814158
0.00274893 0.000197759 0.000142081
0.000197759 0.00125542 1.95969e-05
0.000142081 1.95969e-05 0.00117933
0.00536271 -0.00034351 -8.49881e-06
-0.00034351 0.00306475 7.1767e-06
-8.49881e-06 7.1767e-06 0.00299748
0.0028542 0.00026477 0.000144376
0.00026477 0.00135797 2.39865e-05
0.000144376 2.39865e-05 0.00126976
0.000490785 0.000197894 2.71976e-05
0.000197894 -8.45651e-05 2.32492e-05
2.71976e-05 2.32492e-05 -0.000199512
0.000841394 0.000215186 1.19964e-05
0.000215186 1.53568e-05 5.96785e-06
1.19964e-05 5.96785e-06 -0.00017826
0.00411513 -0.000104925 0.000153266
-0.000104925 0.00224785 1.08244e-05
0.000153266 1.08244e-05 0.0022494
0.00590823 7.8008e-05 3.61903e-06
7.8008e-05 0.00329675 -1.693e-06
3.61903e-06 -1.693e-06 0.00331641
0.00379354 8.11068e-05 -0.000110017
8.11068e-05 0.00199292 -4.61465e-06
-0.000110017 -4.61465e-06 0.00198082
0.00577031 5.88815e-05 0.00028154
5.88815e-05 0.00321489 3.85115e-06
0.00028154 3.85115e-06 0.00323494
0.00137195 8.40726e-05 5.70802e-05
8.40726e-05 0.000507261 3.61787e-06
5.70802e-05 3.61787e-06 0.000469395
0.000573327 1.0679e-05 1.57081e-05
1.0679e-05 -0.000109073 1.82423e-06
1.57081e-05 1.82423e-06 -0.000190156
0.00596606 0.00021851 0.000157182
0.00021851 0.00335946 1.46825e-05
0.000157182 1.46825e-05 0.00333507
0.00277221 7.04425e-05 0.000134949
7.04425e-05 0.00123825 8.40667e-06
0.000134949 8.40667e-06 0.00118239
0.00134165 -8.05127e-05 -6.81409e-05
-8.05127e-05 0.000501936 8.48547e-06
-6.81409e-05 8.48547e-06 0.000454503
0.00138766 -9.58921e-05 -6.06179e-05
-9.58921e-05 0.000533202 1.00835e-05
-6.06179e-05 1.00835e-05 0.000484094
0.00154558 -1.80175e-05 -3.6136e-05
-1.80175e-05 0.000628427 7.67443e-06
-3.6136e-05 7.67443e-06 0.000580176
0.00180003 -0.000158448 -0.000124217
-0.000158448 0.000679968 2.19217e-05
-0.000124217 2.19217e-05 0.000597215
0.00369931 -9.30118e-06 -0.00011322
-9.30118e-06 0.00194384 -1.90506e-06
-0.00011322 -1.90506e-06 0.00193057
0.00170733 -5.99058e-05 8.05161e-05
-5.99058e-05 0.000706128 -3.64251e-06
8.05161e-05 -3.64251e-06 0.000677967
0.00167236 -2.73279e-05 0.000110888
-2.73279e-05 0.000708554 -1.3455e-05
0.000110888 -1.3455e-05 0.0006694
0.00174306 -7.76104e-05 8.0372e-05
-7.76104e-05 0.000730249 -7.6964e-06
8.0372e-05 -7.6964e-06 0.000699635
0.00175422 -0.000105153 -2.99931e-05
-0.000105153 0.000638256 1.83418e-06
-2.99931e-05 1.83418e-06 0.000558452
0.00174628 -0.000153001 -4.31247e-05
-0.000153001 0.000667419 5.45045e-06
-4.31247e-05 5.45045e-06 0.000568486
0.00176716 -0.000145264 -3.20676e-05
-0.000145264 0.000657467 3.49342e-06
-3.20676e-05 3.49342e-06 0.000570359
0.00203938 -0.00028083 -8.81013e-06
-0.00028083 0.000650285 2.36353e-06
-8.81013e-06 2.36353e-06 0.000466573
0.00574883 1.80253e-05 0.00027633
1.80253e-05 0.00320038 -1.262e-06
0.00027633 -1.262e-06 0.00322144
0.00196991 -3.2623e-05 0.000222068
-3.2623e-05 0.000858017 -1.10215e-05
0.000222068 -1.10215e-05 0.000846362
0.00243451 4.26044e-08 4.68664e-05
4.26044e-08 0.00105395 -8.81076e-07
4.68664e-05 -8.81076e-07 0.000988445
0.0016654 -0.000102667 5.67186e-05
-0.000102667 0.000586849 -6.46342e-06
5.67186e-05 -6.46342e-06 0.000503906
0.00170091 -0.000128438 5.96604e-05
-0.000128438 0.000614296 -1.09686e-05
5.96604e-05 -1.09686e-05 0.000522972
0.00189374 -0.000180083 1.14403e-05
-0.000180083 0.000496215 -2.90593e-06
1.14403e-05 -2.90593e-06 0.000345745
0.00181179 -0.000241472 1.64772e-05
-0.000241472 0.000477619 -5.58828e-06
1.64772e-05 -5.58828e-06 0.000306755
0.00173195 -6.6176e-05 0.000213241
-6.6176e-05 0.000727055 -2.66032e-05
0.000213241 -2.66032e-05 0.000711477
0.00158093 -7.27585e-05 2.55847e-05
-7.27585e-05 0.00059625 -1.26625e-05
2.55847e-05 -1.26625e-05 0.000483838
0.00205968 -0.000302933 1.58309e-05
-0.000302933 0.000708828 -8.06154e-06
1.58309e-05 -8.06154e-06 0.000513313
0.00150738 -0.000343456 6.06823e-06
-0.000343456 0.000141608 -1.30591e-06
6.06823e-06 -1.30591e-06 -8.7625e-05
0.00642871 0.00022619 -0.000304357
0.00022619 0.0036206 -3.1274e-05
-0.000304357 -3.1274e-05 0.00362483
0.00594196 -0.000101285 -0.000218439
-0.000101285 0.00334804 -1.42721e-05
-0.000218439 -1.42721e-05 0.00334651
0.00621986 5.45058e-05 -0.000264272
5.45058e-05 0.00348653 -2.19266e-05
-0.000264272 -2.19266e-05 0.00349814
0.000469014 0.00021201 -2.49531e-05
0.00021201 -9.3781e-05 -1.86833e-05
-2.49531e-05 -1.86833e-05 -0.000213816
0.00639814 0.000215721 -2.56292e-06
0.000215721 0.00359855 -2.20818e-06
-2.56292e-06 -2.20818e-06 0.00360558
0.00643068 0.000168768 -8.90904e-06
0.000168768 0.00361714 -2.38456e-06
-8.90904e-06 -2.38456e-06 0.00362381
0.0004192 0.000127955 1.3364e-07
0.000127955 -0.000180463 -2.87717e-07
1.3364e-07 -2.87717e-07 -0.000284299
0.00335355 -0.000114497 -9.82125e-05
-0.000114497 0.00177821 -3.4461e-06
-9.82125e-05 -3.4461e-06 0.00174572
0.000428431 0.000199987 -3.5926e-08
0.000199987 -0.000130382 -4.30302e-07
-3.5926e-08 -4.30302e-07 -0.000248373
0.00168339 0.00020095 5.01231e-05
0.00020095 0.000653205 2.60734e-06
5.01231e-05 2.60734e-06 0.000557359
0.000856525 0.000213825 2.73696e-07
0.000213825 2.41395e-05 2.01683e-09
2.73696e-07 2.01683e-09 -0.000168106
0.00507275 -0.000124452 0.000186732
-0.000124452 0.00284252 1.62527e-05
0.000186732 1.62527e-05 0.0028357
0.000509716 2.4693e-05 1.04079e-05
2.4693e-05 -8.87286e-06 1.20272e-05
1.04079e-05 1.20272e-05 -7.00328e-05
0.000516764 9.78018e-05 1.58747e-05
9.78018e-05 -0.000141082 9.58007e-06
1.58747e-05 9.58007e-06 -0.000239302
0.000559427 0.000155811 2.07409e-05
0.000155811 -8.02239e-05 1.68968e-05
2.07409e-05 1.68968e-05 -0.000190813
0.00106677 0.000204501 1.47329e-05
0.000204501 -1.19671e-06 5.30273e-06
1.47329e-05 5.30273e-06 -0.000178439
0.00286049 0.000157303 0.000124708
0.000157303 0.00139745 1.67378e-05
0.000124708 1.67378e-05 0.0013272
0.000914988 0.000222106 1.37671e-05
0.000222106 2.21919e-06 6.59129e-06
1.37671e-05 6.59129e-06 -0.00018731
0.000898638 0.000221348 1.15786e-05
0.000221348 0.000115937 5.71273e-06
1.15786e-05 5.71273e-06 -8.38069e-05
0.00106283 0.000311686 2.03859e-06
0.000311686 6.78251e-05 -1.42743e-08
2.03859e-06 -1.42743e-08 -0.000180689
0.00321671 -0.000120294 9.31689e-05
-0.000120294 0.0016869 4.50861e-06
9.31689e-05 4.50861e-06 0.00168683
0.00376943 -0.000153186 1.71658e-05
-0.000153186 0.00204263 -2.61429e-07
1.71658e-05 -2.61429e-07 0.0020327
0.00624166 4.90156e-05 -0.000292866
4.90156e-05 0.00348991 -1.37687e-05
-0.000292866 -1.37687e-05 0.0035082
0.00599137 6.86683e-05 -0.000290136
6.86683e-05 0.00334433 -8.49994e-06
-0.000290136 -8.49994e-06 0.003365
0.00585948 8.42119e-05 5.19687e-09
8.42119e-05 0.00327504 -3.45899e-06
5.19687e-09 -3.45899e-06 0.00329151
0.00370179 2.6332e-05 -0.000122324
2.6332e-05 0.00193541 -5.9655e-06
-0.000122324 -5.9655e-06 0.0019279
0.00162646 3.7021e-05 5.83289e-05
3.7021e-05 0.00054004 1.42808e-06
5.83289e-05 1.42808e-06 0.000474436
0.00393683 0.00013623 -0.000112594
0.00013623 0.00208555 -6.31703e-06
-0.000112594 -6.31703e-06 0.00206659
0.00167219 8.80543e-05 5.87449e-05
8.80543e-05 0.000565526 2.74225e-06
5.87449e-05 2.74225e-06 0.000491529
0.00582468 0.000128593 0.000284752
0.000128593 0.00326305 7.03369e-06
0.000284752 7.03369e-06 0.00327411
0.000487751 1.06577e-05 1.87898e-05
1.06577e-05 -0.000156653 8.37563e-07
1.87898e-05 8.37563e-07 -0.000235058
0.002778 3.53431e-05 0.000133945
3.53431e-05 0.00124276 5.73441e-06
0.000133945 5.73441e-06 0.00119158
0.00107578 5.24145e-05 1.2334e-05
5.24145e-05 -2.37474e-05 9.60723e-07
1.2334e-05 9.60723e-07 -0.000154035
0.00270636 0.000113947 0.000139433
0.000113947 0.00120317 1.09931e-05
0.000139433 1.09931e-05 0.00114155
0.00112834 0.000120385 1.22103e-05
0.000120385 -3.50021e-06 2.12195e-06
1.22103e-05 2.12195e-06 -0.00014983
0.00177052 4.28592e-05 -0.000226354
4.28592e-05 0.000728896 2.45814e-06
-0.000226354 2.45814e-06 0.000728427
0.00135803 -1.06507e-05 -5.49215e-05
-1.06507e-05 0.000503911 2.34181e-06
-5.49215e-05 2.34181e-06 0.000461436
0.00151848 1.84882e-05 -2.7799e-05
1.84882e-05 0.000617333 7.55537e-06
-2.7799e-05 7.55537e-06 0.000567255
0.00134543 -9.39975e-05 -6.90795e-05
-9.39975e-05 0.000506808 1.02165e-05
-6.90795e-05 1.02165e-05 0.000458398
0.00187343 -8.45883e-05 -0.000119874
-8.45883e-05 0.000702045 1.08886e-05
-0.000119874 1.08886e-05 0.000632366
0.00184991 -0.000133989 -0.000121526
-0.000133989 0.000698862 1.84988e-05
-0.000121526 1.84988e-05 0.000622272
0.00175482 -0.000170105 -0.000126773
-0.000170105 0.000664215 2.34761e-05
-0.000126773 2.34761e-05 0.000575708
0.00201118 -0.000279038 -3.10567e-05
-0.000279038 0.000629223 1.07767e-05
-3.10567e-05 1.07767e-05 0.000446033
0.00585605 -9.80107e-05 2.25822e-06
-9.80107e-05 0.0032761 -1.77327e-06
2.25822e-06 -1.77327e-06 0.00329061
0.00163026 3.53917e-05 8.82263e-05
3.53917e-05 0.000653903 -4.03973e-06
8.82263e-05 -4.03973e-06 0.000632277
0.00114496 -7.41172e-06 -6.12724e-05
-7.41172e-06 0.00025066 1.62236e-06
-6.12724e-05 1.62236e-06 0.000183551
0.00173175 -6.7064e-05 -3.3307e-05
-6.7064e-05 0.000621181 2.4462e-06
-3.3307e-05 2.4462e-06 0.000546353
0.00397423 -2.88202e-06 0.000219495
-2.88202e-06 0.00213204 -1.08907e-05
0.000219495 -1.08907e-05 0.00212183
0.00225992 -0.000151411 -3.85205e-05
-0.000151411 0.000997638 2.53237e-06
-3.85205e-05 2.53237e-06 0.000897694
0.00176732 -0.000127266 -2.95461e-05
-0.000127266 0.000650572 2.41023e-06
-2.95461e-05 2.41023e-06 0.000567493
0.0018992 -0.000177812 -9.74479e-06
-0.000177812 0.000495675 1.72084e-06
-9.74479e-06 1.72084e-06 0.000346797
0.00202077 -0.000303282 -7.53922e-06
-0.000303282 0.000680362 2.24647e-06
-7.53922e-06 2.24647e-06 0.00048409
0.00192339 -0.000246457 -6.76939e-06
-0.000246457 0.000547245 1.77006e-06
-6.76939e-06 1.77006e-06 0.000375904
0.00153652 -0.000344778 5.41749e-07
-0.000344778 0.000160656 -1.79033e-07
5.41749e-07 -1.79033e-07 -6.80441e-05
0.000523238 1.12121e-05 1.94356e-05
1.12121e-05 -0.000138043 -8.73355e-07
1.94356e-05 -8.73355e-07 -0.000213286
0.00158953 3.80558e-06 4.76262e-05
3.80558e-06 0.000532036 -2.61041e-06
4.76262e-05 -2.61041e-06 0.000458906
0.00173771 -5.33506e-05 1.15572e-05
-5.33506e-05 0.000390458 -7.5943e-07
1.15572e-05 -7.5943e-07 0.000271761
0.00174824 -0.000138717 1.16316e-05
-0.000138717 0.000396248 -1.85529e-06
1.16316e-05 -1.85529e-06 0.00025769
0.00178982 -0.000208833 1.42536e-05
-0.000208833 0.000438837 -3.97563e-06
1.42536e-05 -3.97563e-06 0.000279913
0.00183814 -0.000245989 4.81716e-07
-0.000245989 0.000228297 -2.45668e-07
4.81716e-07 -2.45668e-07 6.09303e-05
0.00558328 0.000150445 0.000179327
0.000150445 0.00315678 -1.32754e-05
0.000179327 -1.32754e-05 0.00314186
0.00153078 -0.00031611 4.93362e-06
-0.00031611 0.000110927 -1.00493e-06
4.93362e-06 -1.00493e-06 -9.80504e-05
0.000330846 -0.0001578 2.07521e-05
-0.0001578 -0.000183235 -1.86803e-05
2.07521e-05 -1.86803e-05 -0.000283557
0.000864141 -0.000225968 1.23015e-05
-0.000225968 2.48009e-05 -8.51615e-06
1.23015e-05 -8.51615e-06 -0.000171285
0.00153935 -0.000378591 6.9832e-06
-0.000378591 0.000220412 -2.07414e-06
6.9832e-06 -2.07414e-06 -3.35405e-05
0.0017769 -0.000418629 2.88208e-06
-0.000418629 0.000190706 1.43246e-06
2.88208e-06 1.43246e-06 -3.80577e-05
0.000467951 -0.000109354 1.91883e-05
-0.000109354 -5.67734e-05 -1.51237e-05
1.91883e-05 -1.51237e-05 -0.000140904
0.000433597 -8.83094e-05 -8.75824e-07
-8.83094e-05 -2.7365e-05 -4.5661e-06
-8.75824e-07 -4.5661e-06 -0.000230239
0.00644194 0.00023686 -0.000315583
0.00023686 0.00363105 -3.05529e-05
-0.000315583 -3.05529e-05 0.00363503
0.00633972 0.000152551 -0.000285553
0.000152551 0.00355957 -2.74359e-05
-0.000285553 -2.74359e-05 0.00356966
0.000420534 0.000124418 -1.85673e-05
0.000124418 -0.000181401 -1.1762e-05
-1.85673e-05 -1.1762e-05 -0.000285375
0.00536889 -0.000171659 -0.00016943
-0.000171659 0.0030283 -1.19785e-05
-0.00016943 -1.19785e-05 0.00301262
0.000456069 0.000176681 -2.34476e-05
0.000176681 -0.000103858 -1.74505e-05
-2.34476e-05 -1.74505e-05 -0.000204912
0.000407298 0.000185341 -2.09405e-05
0.000185341 -0.000140931 -1.71923e-05
-2.09405e-05 -1.71923e-05 -0.000260128
0.000817781 0.000208039 -1.30469e-05
0.000208039 1.71886e-06 -6.33286e-06
-1.30469e-05 -6.33286e-06 -0.000188489
0.004731 -0.00014181 9.88136e-06
-0.00014181 0.00263574 -5.23007e-07
9.88136e-06 -5.23007e-07 0.00262706
0.00053443 1.12072e-05 1.39179e-06
1.12072e-05 1.07284e-05 5.42281e-07
1.39179e-06 5.42281e-07 -4.74611e-05
0.00166968 0.000135242 6.03019e-05
0.000135242 0.000572344 4.86039e-06
6.03019e-05 4.86039e-06 0.000487432
0.00163419 0.000192805 5.9624e-05
0.000192805 0.000586938 5.11594e-06
5.9624e-05 5.11594e-06 0.000488914
0.00103317 0.000202949 8.13781e-08
0.000202949 -1.57634e-05 -2.70152e-07
8.13781e-08 -2.70152e-07 -0.000193499
0.000500584 0.000143975 -2.64239e-07
0.000143975 -5.86697e-05 -2.16545e-07
-2.64239e-07 -2.16545e-07 -0.000146545
0.00090807 0.000218919 7.299e-07
0.000218919 4.78501e-06 8.22478e-08
7.299e-07 8.22478e-08 -0.00018381
0.000812613 0.000211384 2.27167e-07
0.000211384 6.0899e-05 -8.81553e-07
2.27167e-07 -8.81553e-07 -0.000135993
0.0012026 0.00032995 2.70922e-07
0.00032995 0.000149113 -2.96691e-07
2.70922e-07 -2.96691e-07 -0.000102389
0.000495502 9.40981e-05 1.7238e-05
9.40981e-05 -2.90219e-05 1.4444e-05
1.7238e-05 1.4444e-05 -0.000108136
0.000587633 -2.22377e-05 4.32734e-06
-2.22377e-05 4.25136e-05 1.00034e-05
4.32734e-06 1.00034e-05 -2.429e-06
0.0012224 0.000134011 3.44514e-06
0.000134011 0.000455239 6.07129e-06
3.44514e-06 6.07129e-06 0.000278461
0.00111381 0.000181325 1.38375e-05
0.000181325 5.74378e-07 4.12163e-06
1.38375e-05 4.12163e-06 -0.000167235
0.000999912 0.000220224 1.4752e-05
0.000220224 -2.2342e-07 6.21665e-06
1.4752e-05 6.21665e-06 -0.0001853
0.00166973 0.000338581 4.39318e-06
0.000338581 0.000178523 4.66607e-07
4.39318e-06 4.66607e-07 -3.5894e-05
0.00080118 0.000218696 9.05726e-06
0.000218696 0.000123891 6.14395e-06
9.05726e-06 6.14395e-06 -7.5196e-05
0.00147261 0.000371288 3.56014e-06
0.000371288 0.000221764 1.31558e-07
3.56014e-06 1.31558e-07 -2.67507e-05
0.00112545 0.000306773 3.68163e-06
0.000306773 0.000165654 9.89909e-07
3.68163e-06 9.89909e-07 -9.03341e-05
0.00141152 0.00041469 -6.08112e-06
0.00041469 0.000194653 -3.19965e-06
-6.08112e-06 -3.19965e-06 -8.27355e-05
0.00280454 -0.000127071 5.22587e-05
-0.000127071 0.00142674 3.33259e-06
5.22587e-05 3.33259e-06 0.00142489
0.00310167 -0.000148974 1.20364e-05
-0.000148974 0.00162067 -8.26222e-07
1.20364e-05 -8.26222e-07 0.00161259
0.00346934 -0.000177468 -6.89327e-05
-0.000177468 0.00186156 -3.97517e-06
-6.89327e-05 -3.97517e-06 0.00184462
0.000400133 -7.93506e-05 1.43668e-05
-7.93506e-05 -8.24537e-05 -1.34414e-05
1.43668e-05 -1.34414e-05 -0.000152391
0.00495348 0.000181281 0.000142245
0.000181281 0.00279381 -1.391e-05
0.000142245 -1.391e-05 0.00276939
0.00639549 0.000204424 -0.00031626
0.000204424 0.00359816 -2.57524e-05
-0.00031626 -2.57524e-05 0.00360703
0.00605014 8.55937e-05 -0.000290084
8.55937e-05 0.0033778 -1.18432e-05
-0.000290084 -1.18432e-05 0.00339713
0.000497981 9.58006e-05 -1.97267e-05
9.58006e-05 -0.00015544 -5.34689e-06
-1.97267e-05 -5.34689e-06 -0.000243937
0.000484942 4.28562e-05 -1.92986e-05
4.28562e-05 -0.00015844 -2.6933e-06
-1.92986e-05 -2.6933e-06 -0.00024026
0.00580442 -8.18778e-06 -0.000278507
-8.18778e-06 0.00323193 -2.20763e-06
-0.000278507 -2.20763e-06 0.00325359
0.0057599 1.05691e-05 -2.41302e-07
1.05691e-05 0.00320598 -8.39086e-07
-2.41302e-07 -8.39086e-07 0.00322758
0.000470034 7.75002e-07 -1.12549e-07
7.75002e-07 -0.000170236 1.04416e-07
-1.12549e-07 1.04416e-07 -0.000246807
0.00161256 3.73855e-05 5.85958e-05
3.73855e-05 0.000527497 2.45892e-06
5.85958e-05 2.45892e-06 0.000460385
0.00103679 5.57854e-05 -8.51573e-08
5.57854e-05 -4.92095e-05 -1.6444e-07
-8.51573e-08 -1.6444e-07 -0.000180181
0.00045956 8.13682e-05 -4.00783e-07
8.13682e-05 -0.000177255 -3.86727e-07
-4.00783e-07 -3.86727e-07 -0.000271342
0.00106775 0.000121223 -2.26838e-07
0.000121223 -4.06833e-05 -1.2359e-07
-2.26838e-07 -1.2359e-07 -0.000188005
0.000464005 -3.07312e-05 1.9353e-05
-3.07312e-05 -0.000175625 -7.36918e-07
1.9353e-05 -7.36918e-07 -0.000249794
0.00103748 2.20939e-05 1.20454e-05
2.20939e-05 -3.93659e-05 4.95212e-07
1.20454e-05 4.95212e-07 -0.000166066
0.00107953 8.59701e-05 1.19866e-05
8.59701e-05 -2.73887e-05 1.69877e-06
1.19866e-05 1.69877e-06 -0.000164423
0.00167599 8.85931e-05 -7.36022e-07
8.85931e-05 7.33522e-05 -2.11676e-07
-7.36022e-07 -2.11676e-07 -4.31715e-05
0.00113772 0.000152048 1.29395e-05
0.000152048 2.86927e-06 2.91696e-06
1.29395e-05 2.91696e-06 -0.000154166
0.00174789 0.000199432 8.24797e-07
0.000199432 0.000109848 -6.1882e-07
8.24797e-07 -6.1882e-07 -3.48484e-05
0.00577974 -5.8909e-05 -0.000283752
-5.8909e-05 0.00322347 2.08477e-06
-0.000283752 2.08477e-06 0.00324197
0.00131183 -0.000149865 -5.65549e-05
-0.000149865 0.000487186 6.48543e-06
-5.65549e-05 6.48543e-06 0.000441901
-0.000261056 -4.68593e-06 -1.24661e-05
-4.68593e-06 -0.000610462 1.92514e-06
-1.24661e-05 1.92514e-06 -0.000701013
0.00183634 -5.95408e-05 -0.000118716
-5.95408e-05 0.000679133 7.69759e-06
-0.000118716 7.69759e-06 0.000612619
0.00595849 0.000311139 -1.01078e-05
0.000311139 0.0034055 5.10343e-06
-1.01078e-05 5.10343e-06 0.00334529
0.00291168 -0.00023724 -0.00012939
-0.00023724 0.00139159 2.42115e-05
-0.00012939 2.42115e-05 0.00129724
0.00187668 -0.000109255 -0.000120592
-0.000109255 0.000707314 1.46155e-05
-0.000120592 1.46155e-05 0.000634941
0.00187806 -0.000174137 -2.94619e-05
-0.000174137 0.000478607 5.46473e-06
-2.94619e-05 5.46473e-06 0.00033159
0.00201296 -0.000249856 -2.98907e-05
-0.000249856 0.0006028 9.1244e-06
-2.98907e-05 9.1244e-06 0.000431411
0.00200637 -0.000305027 -2.86734e-05
-0.000305027 0.000667846 1.15845e-05
-2.86734e-05 1.15845e-05 0.00047061
0.00156818 -0.000346269 -4.6342e-06
-0.000346269 0.000181405 9.70905e-07
-4.6342e-06 9.70905e-07 -4.67929e-05
0.000465214 5.65798e-06 -2.54319e-08
5.65798e-06 -0.000171715 1.99518e-07
-2.54319e-08 1.99518e-07 -0.000247944
0.0017207 -7.93445e-05 -3.2297e-05
-7.93445e-05 0.000616656 3.67931e-07
-3.2297e-05 3.67931e-07 0.000545519
0.00135812 -4.89926e-05 -9.36693e-06
-4.89926e-05 0.000158085 5.26e-07
-9.36693e-06 5.26e-07 3.50007e-05
0.00185756 -0.000139794 -7.59431e-06
-0.000139794 0.000463625 1.20014e-06
-7.59431e-06 1.20014e-06 0.000324892
0.00583851 0.000145737 3.92384e-06
0.000145737 0.00331469 7.12072e-07
3.92384e-06 7.12072e-07 0.00329891
0.00165174 -0.000152346 1.84225e-06
-0.000152346 0.000643337 4.90245e-07
1.84225e-06 4.90245e-07 0.00053248
0.00134227 -0.000259199 1.28327e-06
-0.000259199 0.00032201 -1.05276e-06
1.28327e-06 -1.05276e-06 0.000123286
0.00183192 -0.000210776 -7.74338e-06
-0.000210776 0.000464434 1.89701e-06
-7.74338e-06 1.89701e-06 0.000305094
0.00180859 -0.000247606 -1.34885e-06
-0.000247606 0.000205687 1.37623e-07
-1.34885e-06 1.37623e-07 4.16632e-05
0.00153143 -0.000377089 9.31533e-07
-0.000377089 0.000219976 -2.50197e-07
9.31533e-07 -2.50197e-07 -3.28096e-05
0.00167915 -0.000322494 5.34755e-07
-0.000322494 0.000204097 -1.8253e-07
5.34755e-07 -1.8253e-07 -4.48944e-06
0.00181676 -0.000419962 7.09089e-07
-0.000419962 0.000219485 8.66824e-08
7.09089e-07 8.66824e-08 -8.91463e-06
0.000521662 -0.000115047 6.89194e-07
-0.000115047 -2.52714e-05 6.32514e-07
6.89194e-07 6.32514e-07 -0.000113208
0.000679164 -0.000118853 1.88135e-07
-0.000118853 0.000112636 3.7937e-09
1.88135e-07 3.7937e-09 -8.58074e-05
0.00102338 -2.41749e-05 1.20803e-05
-2.41749e-05 -4.07802e-05 -7.58481e-07
1.20803e-05 -7.58481e-07 -0.000167909
0.00180609 -9.22579e-05 1.05229e-05
-9.22579e-05 0.000433772 -1.21548e-06
1.05229e-05 -1.21548e-06 0.000307718
0.00172576 -8.81569e-05 -7.01805e-07
-8.81569e-05 0.00012658 2.31142e-07
-7.01805e-07 2.31142e-07 5.27326e-06
0.00172528 -0.000196888 7.61508e-07
-0.000196888 0.000133305 8.23064e-07
7.61508e-07 8.23064e-07 -9.46257e-06
0.00175032 -0.000292657 1.69266e-06
-0.000292657 0.000208003 -2.58852e-10
1.69266e-06 -2.58852e-10 2.32512e-05
0.00194721 -0.000290434 6.70437e-07
-0.000290434 0.000166124 3.65584e-07
6.70437e-07 3.65584e-07 2.38079e-05
0.000459082 -0.00014264 1.96773e-05
-0.00014264 -8.06631e-05 -1.79107e-05
1.96773e-05 -1.79107e-05 -0.000177286
0.00183861 -0.00038441 1.07804e-06
-0.00038441 0.00018357 1.23083e-06
1.07804e-06 1.23083e-06 -1.28717e-05
0.000609875 -0.000206915 8.62085e-06
-0.000206915 -6.42822e-05 -7.32019e-06
8.62085e-06 -7.32019e-06 -0.000260478
0.00125964 -0.000372356 9.49796e-06
-0.000372356 0.000141421 -3.09903e-06
9.49796e-06 -3.09903e-06 -0.000129323
0.00194615 -0.000474221 2.56509e-06
-0.000474221 0.000356091 6.7923e-07
2.56509e-06 6.7923e-07 8.53684e-05
0.00212825 -0.000456277 -2.38179e-06
-0.000456277 0.000356098 3.67363e-06
-2.38179e-06 3.67363e-06 0.00015252
0.000720733 -0.0001921 1.27958e-06
-0.0001921 0.0001327 -5.77425e-06
1.27958e-06 -5.77425e-06 -9.79809e-05
0.000592337 -8.12383e-05 -3.75224e-07
-8.12383e-05 5.59836e-05 -4.85578e-06
-3.75224e-07 -4.85578e-06 -9.67217e-05
0.00112672 -0.000251465 -2.0459e-06
-0.000251465 0.000408143 -2.19904e-07
-2.0459e-06 -2.19904e-07 0.000129639
0.000449021 0.000103527 -1.79721e-05
0.000103527 -0.000177542 -8.99442e-06
-1.79721e-05 -8.99442e-06 -0.000276762
0.0043632 -0.000194505 -0.000111057
-0.000194505 0.00242584 -8.28857e-06
-0.000111057 -8.28857e-06 0.00240339
0.00042777 -4.15443e-06 -5.01722e-06
-4.15443e-06 -4.83232e-05 -1.15054e-05
-5.01722e-06 -1.15054e-05 -0.000105448
0.000405583 0.000154886 -1.98379e-05
0.000154886 -0.000167133 -1.48129e-05
-1.98379e-05 -1.48129e-05 -0.000278607
0.00100111 0.000201724 -1.53454e-05
0.000201724 -2.95331e-05 -5.84579e-06
-1.53454e-05 -5.84579e-06 -0.000207783
0.000480788 0.000134608 -2.22181e-05
0.000134608 -7.27755e-05 -1.6134e-05
-2.22181e-05 -1.6134e-05 -0.000157775
0.000596835 0.000193037 -9.4362e-06
0.000193037 -7.28139e-05 -7.25203e-06
-9.4362e-06 -7.25203e-06 -0.000266203
0.000925894 0.000217784 -1.38706e-05
0.000217784 2.20928e-05 -6.84061e-06
-1.38706e-05 -6.84061e-06 -0.000165889
0.00125716 0.000341881 -3.87378e-06
0.000341881 0.000175897 -1.09483e-06
-3.87378e-06 -1.09483e-06 -7.78584e-05
0.000517625 8.27957e-05 1.32695e-06
8.27957e-05 -1.70254e-05 9.87956e-07
1.32695e-06 9.87956e-07 -9.22946e-05
0.000449812 -4.24159e-05 2.66445e-08
-4.24159e-05 -3.35675e-05 4.57699e-07
2.66445e-08 4.57699e-07 -8.16126e-05
0.000639629 8.11969e-05 1.64946e-06
8.11969e-05 8.36857e-05 -1.49648e-07
1.64946e-06 -1.49648e-07 -7.59665e-05
0.00107152 0.000180695 -1.15961e-07
0.000180695 -2.10355e-05 -2.83297e-07
-1.15961e-07 -2.83297e-07 -0.000189719
0.000980485 0.000217565 3.35105e-07
0.000217565 -4.82804e-06 -1.95997e-07
3.35105e-07 -1.95997e-07 -0.000189659
0.00165242 0.000337744 -5.62421e-08
0.000337744 0.000166532 -9.15724e-08
-5.62421e-08 -9.15724e-08 -4.82733e-05
0.000743821 0.000208927 -8.3561e-07
0.000208927 8.52487e-05 -3.595e-09
-8.3561e-07 -3.595e-09 -0.000112064
0.00148709 0.000370903 -5.87819e-08
0.000370903 0.000225608 -1.66683e-07
-5.87819e-08 -1.66683e-07 -2.35059e-05
0.00108387 0.000301988 4.44057e-07
0.000301988 0.000142107 -8.45441e-07
4.44057e-07 -8.45441e-07 -0.000112023
0.00138403 0.000425644 -6.07995e-07
0.000425644 0.00016312 9.07471e-07
-6.07995e-07 9.07471e-07 -0.000116596
0.000541257 -4.50087e-05 -1.18154e-07
-4.50087e-05 1.45628e-05 8.11882e-06
-1.18154e-07 8.11882e-06 -2.23663e-05
0.000982903 0.000154714 5.43769e-06
0.000154714 0.000281905 4.581e-06
5.43769e-06 4.581e-06 8.83984e-05
0.000798964 4.6442e-05 1.72888e-06
4.6442e-05 0.0001675 5.86009e-06
1.72888e-06 5.86009e-06 5.0268e-05
0.000924575 0.000139095 1.31249e-06
0.000139095 0.000300035 -8.05069e-08
1.31249e-06 -8.05069e-08 5.75264e-05
0.00172728 0.000301383 2.45258e-06
0.000301383 0.000157454 -7.54365e-07
2.45258e-06 -7.54365e-07 -3.28927e-05
0.00157256 0.000363381 4.76332e-06
0.000363381 0.000192395 7.96633e-07
4.76332e-06 7.96633e-07 -4.33019e-05
0.00193754 0.000412399 9.4282e-07
0.000412399 0.000235773 -6.43868e-07
9.4282e-07 -6.43868e-07 2.3653e-05
0.000963168 0.000256321 4.97395e-06
0.000256321 0.000120741 2.7846e-06
4.97395e-06 2.7846e-06 -0.000112193
0.00202737 0.000505712 -2.4657e-06
0.000505712 0.000440755 -1.31887e-06
-2.4657e-06 -1.31887e-06 0.000168217
0.00145426 0.000414353 -3.21609e-06
0.000414353 0.000300178 -3.34691e-06
-3.21609e-06 -3.34691e-06 -4.79217e-06
0.00164247 0.000475187 -9.6898e-07
0.000475187 0.000220076 -1.17435e-06
-9.6898e-07 -1.17435e-06 -6.08143e-05
0.000572011 2.99593e-05 2.38334e-06
2.99593e-05 3.23455e-05 3.07678e-06
2.38334e-06 3.07678e-06 -2.97335e-05
0.000492384 -3.34274e-05 8.49867e-07
-3.34274e-05 -3.59563e-05 5.95119e-06
8.49867e-07 5.95119e-06 -6.01486e-05
0.00260263 -0.00011794 3.39783e-05
-0.00011794 0.00129442 3.62697e-06
3.39783e-05 3.62697e-06 0.00129508
0.00273721 -0.000136152 5.97433e-06
-0.000136152 0.00138711 -6.43191e-07
5.97433e-06 -6.43191e-07 0.00138263
0.00297362 -0.000160045 -4.31362e-05
-0.000160045 0.00154387 -3.36541e-06
-4.31362e-05 -3.36541e-06 0.00153232
0.000418693 -5.53466e-05 1.03104e-05
-5.53466e-05 -6.319e-05 -1.14569e-05
1.03104e-05 -1.14569e-05 -0.000121807
0.00430794 0.000156043 0.000120559
0.000156043 0.00238423 -1.03898e-05
0.000120559 -1.03898e-05 0.00236893
0.000523654 -8.07837e-05 -7.85564e-07
-8.07837e-05 -9.53733e-06 2.71574e-07
-7.85564e-07 2.71574e-07 -8.33906e-05
0.00517101 0.000147365 -4.52938e-06
0.000147365 0.00291215 -6.54008e-07
-4.52938e-06 -6.54008e-07 0.00289679
0.000493199 0.000106904 -1.9336e-05
0.000106904 -0.000154458 -7.17182e-06
-1.9336e-05 -7.17182e-06 -0.000250384
0.000500727 3.41283e-05 -1.83645e-05
3.41283e-05 -0.000154457 -3.492e-06
-1.83645e-05 -3.492e-06 -0.000237501
0.00103109 0.000122083 -1.21401e-05
0.000122083 -6.47124e-05 -2.33682e-06
-1.21401e-05 -2.33682e-06 -0.000212875
0.00100014 5.78192e-05 -1.20355e-05
5.78192e-05 -7.31328e-05 -1.2117e-06
-1.20355e-05 -1.2117e-06 -0.00020462
0.000524199 -7.71224e-06 -1.94702e-05
-7.71224e-06 -0.000140395 -8.21165e-07
-1.94702e-05 -8.21165e-07 -0.000215066
0.00584842 -9.79043e-05 -0.000290159
-9.79043e-05 0.0032708 4.8032e-06
-0.000290159 4.8032e-06 0.00328677
0.000510617 -1.73519e-06 6.93556e-08
-1.73519e-06 -0.000147805 -6.29612e-07
6.93556e-08 -6.29612e-07 -0.000221979
0.00101994 2.72371e-05 -8.62126e-08
2.72371e-05 -5.11641e-05 1.97017e-08
-8.62126e-08 1.97017e-08 -0.00017824
0.00105873 8.78718e-05 -1.71191e-07
8.78718e-05 -4.23517e-05 -3.41272e-08
-1.71191e-07 -3.41272e-08 -0.000180091
0.00166024 8.71223e-05 -4.31562e-08
8.71223e-05 6.55906e-05 1.21298e-07
-4.31562e-08 1.21298e-07 -5.10686e-05
0.00108588 0.000152974 -2.78069e-07
0.000152974 -2.73483e-05 -2.78865e-07
-2.78069e-07 -2.78865e-07 -0.000185609
0.00172919 0.000198538 -1.58281e-07
0.000198538 9.90608e-05 4.86988e-08
-1.58281e-07 4.86988e-08 -4.60242e-05
0.00100971 -2.78597e-06 1.19961e-05
-2.78597e-06 -4.9802e-05 -2.12201e-07
1.19961e-05 -2.12201e-07 -0.000175985
0.00164677 4.19112e-05 -1.5083e-07
4.19112e-05 5.99309e-05 -7.42754e-08
-1.5083e-07 -7.42754e-08 -5.0994e-05
0.00168524 0.0001403 -6.9174e-07
0.0001403 7.3889e-05 -3.73844e-07
-6.9174e-07 -3.73844e-07 -5.35769e-05
0.00188602 0.000115321 1.26077e-06
0.000115321 5.10875e-05 9.76992e-09
1.26077e-06 9.76992e-09 -2.08438e-05
0.0017709 0.000256546 1.87411e-06
0.000256546 0.000140016 -5.208e-07
1.87411e-06 -5.208e-07 -2.67654e-05
0.00198869 0.000240968 1.6765e-06
0.000240968 0.000136711 -1.41392e-06
1.6765e-06 -1.41392e-06 2.13938e-05
0.000495747 -1.64616e-06 -1.86044e-05
-1.64616e-06 -0.000150142 9.17324e-07
-1.86044e-05 9.17324e-07 -0.000228506
0.00181313 -3.57835e-05 -0.000117429
-3.57835e-05 0.000665439 5.12047e-06
-0.000117429 5.12047e-06 0.000603074
0.000942591 -4.35781e-05 -1.64817e-05
-4.35781e-05 -9.57816e-05 1.69805e-06
-1.64817e-05 1.69805e-06 -0.000223589
0.00194603 -0.000139808 -2.69179e-05
-0.000139808 0.000517667 4.06152e-06
-2.69179e-05 4.06152e-06 0.000378919
0.00603926 0.000132015 -0.000210599
0.000132015 0.00343565 2.00282e-05
-0.000210599 2.00282e-05 0.00342018
0.00297068 -0.000220765 -0.000135689
-0.000220765 0.00144421 1.96222e-05
-0.000135689 1.96222e-05 0.00136011
0.00202837 -0.000311117 -2.3971e-05
-0.000311117 0.000743048 1.055e-05
-2.3971e-05 1.055e-05 0.000538409
0.00185196 -0.000211104 -2.91809e-05
-0.000211104 0.000476088 7.29746e-06
-2.91809e-05 7.29746e-06 0.000316707
0.00177637 -0.000249219 -3.78234e-06
-0.000249219 0.000180826 7.26805e-08
-3.78234e-06 7.26805e-08 2.0143e-05
0.00182888 -0.000328956 -4.74394e-06
-0.000328956 0.000298732 1.18958e-06
-4.74394e-06 1.18958e-06 9.05235e-05
0.00151943 -0.000375471 -5.97549e-06
-0.000375471 0.0002163 1.24278e-06
-5.97549e-06 1.24278e-06 -3.52998e-05
0.001855 -0.000421583 -1.02965e-06
-0.000421583 0.000246043 -1.40443e-06
-1.02965e-06 -1.40443e-06 1.79093e-05
0.000468412 -0.000126278 -1.78223e-05
-0.000126278 -5.4348e-05 1.63562e-05
-1.78223e-05 1.63562e-05 -0.000147438
0.000849667 -0.000154072 -6.78996e-07
-0.000154072 0.000214173 4.52414e-06
-6.78996e-07 4.52414e-06 1.54347e-05
0.000967663 -1.88622e-05 2.77787e-08
-1.88622e-05 -7.6904e-05 -5.92076e-08
2.77787e-08 -5.92076e-08 -0.000202627
0.00180213 -9.26932e-05 -7.96168e-06
-9.26932e-05 0.000429644 9.49446e-07
-7.96168e-06 9.49446e-07 0.000303774
0.00178676 -8.47351e-05 -5.43476e-07
-8.47351e-05 0.000162744 2.05815e-07
-5.43476e-07 2.05815e-07 4.61192e-05
0.00173692 -0.000196822 -1.69477e-06
-0.000196822 0.000144265 5.78976e-07
-1.69477e-06 5.78976e-07 -2.77789e-06
0.0004643 -0.000159732 3.95239e-07
-0.000159732 -7.90426e-05 1.4004e-07
3.95239e-07 1.4004e-07 -0.000177004
0.000796003 -0.000217049 -1.87149e-07
-0.000217049 4.56679e-05 6.36391e-08
-1.87149e-07 6.36391e-08 -0.000152041
0.00124054 -0.000369955 1.72835e-06
-0.000369955 0.000131491 -5.91569e-07
1.72835e-06 -5.91569e-07 -0.000139128
0.00177998 -0.000292218 -3.12611e-06
-0.000292218 0.000226666 8.5913e-07
-3.12611e-06 8.5913e-07 3.99313e-05
0.00199246 -0.000294902 1.80676e-06
-0.000294902 0.000187404 -5.73333e-07
1.80676e-06 -5.73333e-07 4.98757e-05
0.00199643 -0.000482963 -9.71092e-07
-0.000482963 0.000385326 -3.24387e-07
-9.71092e-07 -3.24387e-07 0.000114466
0.00186505 -0.000386109 5.13683e-07
-0.000386109 0.000199838 -4.57483e-08
5.13683e-07 -4.57483e-08 3.31513e-06
0.00200388 -0.000450457 8.51651e-07
-0.000450457 0.000273392 7.33445e-07
8.51651e-07 7.33445e-07 7.00696e-05
0.000680889 -0.000185994 1.33094e-07
-0.000185994 0.000103716 -2.56017e-07
1.33094e-07 -2.56017e-07 -0.00012047
0.00038072 -0.000152876 -9.11353e-07
-0.000152876 -7.13455e-05 -3.48383e-07
-9.11353e-07 -3.48383e-07 -0.00032652
0.000696338 -0.000102474 6.02572e-07
-0.000102474 0.000120564 8.15931e-08
6.02572e-07 8.15931e-08 -3.86855e-05
0.00171483 -3.83338e-05 -8.09027e-07
-3.83338e-05 0.000118736 7.24693e-08
-8.09027e-07 7.24693e-08 3.93164e-06
0.00184578 -0.000137242 -1.90616e-06
-0.000137242 0.000199917 1.09421e-06
-1.90616e-06 1.09421e-06 7.49891e-05
0.0018364 -0.000107 2.70209e-06
-0.000107 3.26356e-05 1.88657e-07
2.70209e-06 1.88657e-07 -4.85482e-05
0.00187348 -0.000236238 -1.161e-06
-0.000236238 8.7794e-05 1.29194e-06
-1.161e-06 1.29194e-06 -2.73707e-05
0.00175985 -0.000343812 -7.23278e-07
-0.000343812 8.67736e-05 2.14642e-06
-7.23278e-07 2.14642e-06 -7.78612e-05
0.00207764 -0.00031822 2.30769e-06
-0.00031822 0.000201199 -4.46138e-07
2.30769e-06 -4.46138e-07 8.86002e-05
0.000662075 -0.000219416 4.95335e-06
-0.000219416 2.82371e-05 -7.09512e-06
4.95335e-06 -7.09512e-06 -0.000178496
0.0018702 -0.000415156 -1.91445e-06
-0.000415156 0.000139977 1.64734e-06
-1.91445e-06 1.64734e-06 -3.1587e-05
0.0012967 -0.000345821 6.70123e-06
-0.000345821 0.000269053 -5.80415e-06
6.70123e-06 -5.80415e-06 3.98573e-06
0.0016679 -0.000519082 4.61555e-06
-0.000519082 0.000286 5.10411e-07
4.61555e-06 5.10411e-07 -3.56003e-05
0.00208481 -0.000515777 1.83259e-06
-0.000515777 0.000382991 3.54979e-06
1.83259e-06 3.54979e-06 0.000122221
0.00218807 -0.000475504 -2.8184e-06
-0.000475504 0.000386389 2.52135e-06
-2.8184e-06 2.52135e-06 0.000197436
0.000650357 -7.25271e-05 -2.10337e-07
-7.25271e-05 0.000106308 -5.01943e-06
-2.10337e-07 -5.01943e-06 -2.37551e-05
0.00103076 -0.000259318 5.57169e-07
-0.000259318 0.000234701 -1.37258e-06
5.57169e-07 -1.37258e-06 1.13596e-06
0.000262776 -0.000134688 -1.42582e-06
-0.000134688 -7.13944e-05 9.88707e-07
-1.42582e-06 9.88707e-07 -0.00033835
0.00171923 -0.000332047 -4.03191e-06
-0.000332047 0.000685372 1.16549e-06
-4.03191e-06 1.16549e-06 0.000411972
0.00102647 0.000180209 -1.44786e-05
0.000180209 -4.45127e-05 -4.64422e-06
-1.44786e-05 -4.64422e-06 -0.000214084
0.000399415 -5.58375e-05 3.44707e-06
-5.58375e-05 -5.66432e-05 -1.03379e-05
3.44707e-06 -1.03379e-05 -0.000107984
0.000446135 6.35014e-05 -1.50547e-05
6.35014e-05 -5.95813e-05 -1.34851e-05
-1.50547e-05 -1.34851e-05 -0.000129341
0.000122778 4.92733e-05 -1.19518e-06
4.92733e-05 -0.000226841 -5.76122e-06
-1.19518e-06 -5.76122e-06 -0.000381819
0.000955119 0.000214826 -1.50115e-05
0.000214826 -1.30128e-05 -6.72135e-06
-1.50115e-05 -6.72135e-06 -0.000197629
0.00163813 0.000337004 -4.35195e-06
0.000337004 0.000156441 -4.58485e-07
-4.35195e-06 -4.58485e-07 -5.87364e-05
0.000642105 0.000197292 -6.35025e-06
0.000197292 1.90685e-05 -4.60192e-06
-6.35025e-06 -4.60192e-06 -0.000175096
0.00130851 0.00032044 -5.63178e-06
0.00032044 0.000284795 -3.68095e-06
-5.63178e-06 -3.68095e-06 2.895e-05
0.0014965 0.00036986 -3.6936e-06
0.00036986 0.000227257 -6.3252e-07
-3.6936e-06 -6.3252e-07 -2.23343e-05
0.00134684 0.000433224 2.31933e-06
0.000433224 0.000130247 3.44184e-06
2.31933e-06 3.44184e-06 -0.000150751
0.000457442 -5.32219e-05 -2.75436e-06
-5.32219e-05 -3.25703e-05 8.04961e-07
-2.75436e-06 8.04961e-07 -7.14375e-05
0.000686994 0.000169877 -8.20436e-08
0.000169877 0.000113929 -8.46836e-07
-8.20436e-08 -8.46836e-07 -8.60172e-05
0.000618731 2.50075e-05 5.21682e-07
2.50075e-05 6.01508e-05 4.55588e-07
5.21682e-07 4.55588e-07 -5.19207e-05
0.000773857 0.000131028 1.68562e-06
0.000131028 0.000207465 -5.58619e-07
1.68562e-06 -5.58619e-07 -3.33176e-05
0.00171044 0.000300128 -7.10707e-07
0.000300128 0.000147318 -7.53135e-07
-7.10707e-07 -7.53135e-07 -4.32816e-05
0.00155493 0.000363007 -5.26243e-08
0.000363007 0.000180964 -1.40604e-07
-5.26243e-08 -1.40604e-07 -5.53684e-05
0.00190828 0.000409468 2.9812e-07
0.000409468 0.000220216 2.43042e-07
2.9812e-07 2.43042e-07 8.49494e-06
0.00103021 0.000266102 1.62702e-06
0.000266102 0.000168317 4.05668e-07
1.62702e-06 4.05668e-07 -6.56118e-05
0.00192036 0.000488112 -6.83285e-07
0.000488112 0.000381978 1.01122e-07
-6.83285e-07 1.01122e-07 0.000111685
0.00134588 0.00040644 -3.7132e-07
0.00040644 0.000231789 -1.66234e-06
-3.7132e-07 -1.66234e-06 -7.35537e-05
0.00171326 0.000474609 -3.60173e-06
0.000474609 0.000265894 1.4383e-06
-3.60173e-06 1.4383e-06 -1.01598e-05
0.00050396 -4.21447e-05 4.39663e-07
-4.21447e-05 -1.98884e-05 6.74764e-06
4.39663e-07 6.74764e-06 -4.88816e-05
0.000689407 1.94413e-05 8.0256e-07
1.94413e-05 0.000105299 5.29931e-06
8.0256e-07 5.29931e-06 1.62394e-05
0.000725215 0.000217554 2.32631e-06
0.000217554 6.91265e-05 7.49486e-07
2.32631e-06 7.49486e-07 -0.000153107
0.00139503 0.000120077 -1.57388e-06
0.000120077 0.000604876 2.93488e-06
-1.57388e-06 2.93488e-06 0.000393862
0.0013655 0.00027608 -1.76118e-06
0.00027608 0.000515043 -1.96721e-06
-1.76118e-06 -1.96721e-06 0.000265048
0.00198909 0.000366721 2.9606e-07
0.000366721 0.000208089 -2.49487e-06
2.9606e-07 -2.49487e-06 2.91037e-05
0.00189247 0.000459545 3.15386e-07
0.000459545 0.000277735 -6.63666e-07
3.15386e-07 -6.63666e-07 3.2109e-05
0.00196784 0.000449506 -1.33623e-06
0.000449506 0.000228169 -8.3187e-07
-1.33623e-06 -8.3187e-07 2.41537e-05
0.000856555 0.000330319 2.25912e-06
0.000330319 1.60611e-05 1.74627e-06
2.25912e-06 1.74627e-06 -0.000268456
0.00214362 0.00055688 -8.5248e-07
0.00055688 0.000457624 -8.22019e-07
-8.5248e-07 -8.22019e-07 0.000181591
0.00139509 0.000462344 4.51273e-06
0.000462344 0.000199437 -2.94142e-06
4.51273e-06 -2.94142e-06 -0.000112085
0.000594214 2.51513e-05 2.46182e-06
2.51513e-05 4.46818e-05 3.37275e-06
2.46182e-06 3.37275e-06 -2.13978e-05
0.00063816 6.97262e-05 -2.21779e-07
6.97262e-05 0.000106233 1.41191e-06
-2.21779e-07 1.41191e-06 -9.21915e-07
0.000592857 3.98121e-05 2.36943e-06
3.98121e-05 5.03662e-05 3.06925e-06
2.36943e-06 3.06925e-06 -1.03091e-05
0.00055016 -6.85988e-07 -5.83974e-07
-6.85988e-07 1.99856e-05 6.61226e-09
-5.83974e-07 6.61226e-09 -4.24487e-05
0.00125824 -4.5664e-05 8.12022e-07
-4.5664e-05 0.000435331 3.35647e-06
8.12022e-07 3.35647e-06 0.000417457
0.000886728 -4.41572e-05 4.95919e-07
-4.41572e-05 0.000208881 -1.56426e-07
4.95919e-07 -1.56426e-07 0.000186507
0.000851009 -5.2844e-05 2.69489e-05
-5.2844e-05 0.000194339 8.44947e-06
2.69489e-05 8.44947e-06 0.000194049
0.00256156 -0.000115833 5.72211e-06
-0.000115833 0.00126801 -5.46891e-07
5.72211e-06 -5.46891e-07 0.00126914
0.00266573 -0.00013337 -3.77541e-05
-0.00013337 0.00134227 -3.42037e-06
-3.77541e-05 -3.42037e-06 0.00133855
0.00036075 -2.60756e-05 5.04412e-06
-2.60756e-05 -9.07775e-05 -8.84184e-06
5.04412e-06 -8.84184e-06 -0.000136578
0.00378597 0.000148014 8.77134e-05
0.000148014 0.00204901 -5.97011e-06
8.77134e-05 -5.97011e-06 0.00203801
0.000454248 -5.64694e-05 -1.28586e-06
-5.64694e-05 -4.36099e-05 3.91469e-07
-1.28586e-06 3.91469e-07 -0.000102885
0.00454868 0.00013842 -1.12626e-05
0.00013842 0.00252699 -1.24983e-06
-1.12626e-05 -1.24983e-06 0.00251548
0.000552019 -8.16999e-05 -1.48822e-05
-8.16999e-05 2.35805e-06 1.35858e-05
-1.48822e-05 1.35858e-05 -7.4437e-05
0.00544135 0.00014055 -0.0001858
0.00014055 0.00307869 1.79553e-05
-0.0001858 1.79553e-05 0.00306369
0.00103537 0.000153713 -1.31268e-05
0.000153713 -5.66472e-05 -3.41478e-06
-1.31268e-05 -3.41478e-06 -0.00021602
0.00101711 9.12388e-05 -1.19596e-05
9.12388e-05 -6.8828e-05 -1.71476e-06
-1.19596e-05 -1.71476e-06 -0.000207569
0.00173503 0.00019469 -2.00959e-06
0.00019469 0.000104446 6.11501e-07
-2.00959e-06 6.11501e-07 -4.03659e-05
0.00164789 8.59368e-05 1.28222e-07
8.59368e-05 6.022e-05 4.25363e-07
1.28222e-07 4.25363e-07 -5.65765e-05
0.00100823 3.17114e-05 -1.20441e-05
3.17114e-05 -6.00959e-05 -4.88156e-07
-1.20441e-05 -4.88156e-07 -0.000187555
0.000472595 2.90753e-05 -1.93253e-05
2.90753e-05 -0.00017236 -5.53626e-07
-1.93253e-05 -5.53626e-07 -0.000245492
0.0010081 5.2745e-07 -3.14307e-08
5.2745e-07 -5.18753e-05 -1.07624e-07
-3.14307e-08 -1.07624e-07 -0.000178108
0.00164473 4.26165e-05 -8.50357e-08
4.26165e-05 6.135e-05 1.20666e-07
-8.50357e-08 1.20666e-07 -4.9677e-05
0.00169829 0.000138167 -6.07188e-08
0.000138167 8.24679e-05 1.83449e-07
-6.07188e-08 1.83449e-07 -4.49415e-05
0.00191365 0.00011388 -1.45748e-07
0.00011388 6.32549e-05 2.53035e-07
-1.45748e-07 2.53035e-07 -5.36743e-06
0.00174341 0.000253939 -3.69297e-07
0.000253939 0.000127253 -9.50604e-08
-3.69297e-07 -9.50604e-08 -3.95032e-05
0.00195219 0.000237617 -5.44384e-07
0.000237617 0.000117458 -1.24862e-08
-5.44384e-07 -1.24862e-08 2.45952e-06
0.00161878 -2.69688e-07 5.5004e-08
-2.69688e-07 5.00477e-05 9.33366e-08
5.5004e-08 9.33366e-08 -5.96525e-05
0.00192208 5.72776e-05 8.24049e-07
5.72776e-05 7.46064e-05 7.97458e-08
8.24049e-07 7.97458e-08 1.78736e-05
0.00193021 0.000175103 1.72683e-06
0.000175103 7.92837e-05 -6.33954e-07
1.72683e-06 -6.33954e-07 -1.04566e-05
0.00194469 0.000113666 6.83335e-06
0.000113666 3.25174e-05 6.98483e-07
6.83335e-06 6.98483e-07 -7.28401e-06
0.00202057 0.000310964 7.27201e-07
0.000310964 0.000191645 -1.56176e-06
7.27201e-07 -1.56176e-06 4.51427e-05
0.00191551 0.000256506 2.17646e-06
0.000256506 2.49839e-05 4.76809e-07
2.17646e-06 4.76809e-07 -6.19614e-05
0.000913188 -1.4987e-05 -1.22198e-05
-1.4987e-05 -0.00011231 6.19677e-07
-1.22198e-05 6.19677e-07 -0.000236714
0.00182101 -9.40262e-05 -2.62775e-05
-9.40262e-05 0.000439617 2.93021e-06
-2.62775e-05 2.93021e-06 0.00031386
0.00187905 -7.97857e-05 -2.52377e-06
-7.97857e-05 0.000217792 -1.8795e-07
-2.52377e-06 -1.8795e-07 0.000106156
0.0017489 -0.000196431 -2.95487e-06
-0.000196431 0.000155747 6.55157e-07
-2.95487e-06 6.55157e-07 4.47342e-06
0.000554536 -0.000177588 -2.31825e-05
-0.000177588 -2.26455e-05 1.79772e-05
-2.31825e-05 1.79772e-05 -0.000124375
0.000812235 -0.000217067 -1.04898e-05
-0.000217067 5.9042e-05 7.97915e-06
-1.04898e-05 7.97915e-06 -0.000139424
0.00124094 -0.000369981 -4.50565e-06
-0.000369981 0.000132641 2.28508e-06
-4.50565e-06 2.28508e-06 -0.000138501
0.00181035 -0.000291609 -6.18771e-06
-0.000291609 0.000245749 1.51383e-06
-6.18771e-06 1.51383e-06 5.70753e-05
0.00204192 -0.000299403 6.03731e-07
-0.000299403 0.00021133 -1.44047e-06
6.03731e-07 -1.44047e-06 7.85887e-05
0.00189471 -0.000388052 -6.28222e-07
-0.000388052 0.000217837 -1.14975e-06
-6.28222e-07 -1.14975e-06 2.12073e-05
0.00202725 -0.000489547 -3.17527e-06
-0.000489547 0.000404423 -2.20412e-06
-3.17527e-06 -2.20412e-06 0.000133891
0.0018787 -0.000442903 3.53677e-06
-0.000442903 0.000190503 -2.57372e-06
3.53677e-06 -2.57372e-06 -1.19577e-05
0.00076965 -0.000175823 -3.23834e-06
-0.000175823 0.000143769 5.93678e-06
-3.23834e-06 5.93678e-06 -6.96951e-05
5.58225e-05 -0.000118391 8.0464e-07
-0.000118391 -0.0002702 -6.41058e-07
8.0464e-07 -6.41058e-07 -0.000523151
0.000797633 -0.000121834 -4.96101e-07
-0.000121834 0.000181449 4.51672e-06
-4.96101e-07 4.51672e-06 1.79831e-05
0.00169777 -3.54808e-05 -8.46848e-07
-3.54808e-05 0.000106194 9.79438e-08
-8.46848e-07 9.79438e-08 -6.92489e-06
0.00182207 -0.000144763 -2.92974e-06
-0.000144763 0.000183589 5.10633e-07
-2.92974e-06 5.10633e-07 5.72787e-05
0.00189802 -0.000105632 2.81029e-06
-0.000105632 6.92832e-05 -3.24728e-07
2.81029e-06 -3.24728e-07 -5.87296e-06
0.00188552 -0.000232084 -1.85798e-06
-0.000232084 9.56028e-05 5.77047e-07
-1.85798e-06 5.77047e-07 -2.16061e-05
0.000766956 -0.000223505 5.12528e-07
-0.000223505 9.41528e-05 -5.52332e-07
5.12528e-07 -5.52332e-07 -0.000114316
0.00116542 -0.000337848 -1.62074e-06
-0.000337848 0.000177393 -2.77819e-07
-1.62074e-06 -2.77819e-07 -8.65827e-05
0.00162848 -0.000509065 1.68723e-06
-0.000509065 0.000276892 2.00612e-07
1.68723e-06 2.00612e-07 -4.37711e-05
0.00177978 -0.000343218 -1.40383e-06
-0.000343218 0.000102799 9.52229e-07
-1.40383e-06 9.52229e-07 -6.68795e-05
0.00199663 -0.000315135 1.57996e-06
-0.000315135 0.000144924 -5.22225e-07
1.57996e-06 -5.22225e-07 3.57859e-05
0.00196866 -0.000514562 -5.49912e-07
-0.000514562 0.000304156 4.65433e-07
-5.49912e-07 4.65433e-07 4.10735e-05
0.00190649 -0.000416034 -3.08811e-08
-0.000416034 0.000164567 5.13916e-07
-3.08811e-08 5.13916e-07 -7.12864e-06
0.00213242 -0.000463795 1.84805e-06
-0.000463795 0.000344046 -5.73762e-07
1.84805e-06 -5.73762e-07 0.000160686
0.00107685 -0.000265527 -1.63914e-07
-0.000265527 0.000268394 2.90673e-07
-1.63914e-07 2.90673e-07 2.75e-05
0.00114565 -0.000287195 -8.90233e-07
-0.000287195 0.000339512 1.07411e-07
-8.90233e-07 1.07411e-07 6.57799e-05
0.000650434 -8.79711e-05 -1.52621e-07
-8.79711e-05 0.000102904 4.099e-08
-1.52621e-07 4.099e-08 -2.96219e-05
0.000120823 -7.7562e-05 1.78296e-07
-7.7562e-05 -0.000179493 -1.47086e-06
1.78296e-07 -1.47086e-06 -0.000423027
0.00191954 -5.56634e-05 1.62587e-06
-5.56634e-05 8.24767e-05 1.70723e-07
1.62587e-06 1.70723e-07 1.788e-05
0.00178785 -0.000170033 1.58996e-06
-0.000170033 8.63402e-06 1.78975e-07
1.58996e-06 1.78975e-07 -8.86554e-05
0.00187236 -0.000107075 6.49316e-06
-0.000107075 1.16219e-05 -5.41791e-07
6.49316e-06 -5.41791e-07 -2.91392e-05
0.00195502 -0.000258996 -3.94271e-07
-0.000258996 6.58547e-05 -4.12191e-07
-3.94271e-07 -4.12191e-07 -7.53611e-06
0.00176893 -0.000365821 -2.52551e-06
-0.000365821 4.0237e-05 1.04192e-06
-2.52551e-06 1.04192e-06 -9.94374e-05
0.00203311 -0.000327963 4.27347e-06
-0.000327963 0.000140689 -1.69761e-06
4.27347e-06 -1.69761e-06 5.20505e-05
0.0012811 -0.000314166 3.97549e-06
-0.000314166 0.000318911 -4.22352e-06
3.97549e-06 -4.22352e-06 7.37312e-05
0.00183833 -0.000429723 -3.87776e-06
-0.000429723 0.00011362 6.11548e-07
-3.87776e-06 6.11548e-07 -3.82604e-05
0.00149784 -0.000487861 2.55763e-06
-0.000487861 0.000327879 -1.11021e-06
2.55763e-06 -1.11021e-06 -6.7626e-06
0.00183417 -0.000581055 3.95485e-07
-0.000581055 0.000336905 1.69158e-06
3.95485e-07 1.69158e-06 1.38545e-06
0.00191813 -0.000523283 1.26425e-06
-0.000523283 0.00022613 4.03413e-06
1.26425e-06 4.03413e-06 -2.89067e-05
0.00222491 -0.000478813 -3.02038e-06
-0.000478813 0.00038101 -1.36928e-06
-3.02038e-06 -1.36928e-06 0.000194786
0.000539284 -6.91524e-05 -6.39202e-07
-6.91524e-05 3.90556e-05 -4.7977e-06
-6.39202e-07 -4.7977e-06 -7.08679e-05
0.000351682 -9.8028e-05 -3.63047e-06
-9.8028e-05 -1.97652e-05 -1.05553e-06
-3.63047e-06 -1.05553e-06 -0.000238241
0.0013454 -0.000341374 -3.98617e-07
-0.000341374 0.000375059 -3.2261e-07
-3.98617e-07 -3.2261e-07 0.000111785
0.00101466 -0.000214154 -2.94899e-06
-0.000214154 0.000356896 2.91793e-06
-2.94899e-06 2.91793e-06 8.65282e-05
0.00204996 -0.000410678 -8.82451e-06
-0.000410678 0.000869762 1.55661e-06
-8.82451e-06 1.55661e-06 0.000563812
0.000368908 -5.60596e-05 -5.18659e-07
-5.60596e-05 -8.49048e-05 -7.38689e-06
-5.18659e-07 -7.38689e-06 -0.000123928
0.00169017 0.000298483 -3.74011e-06
0.000298483 0.000135522 -6.27538e-07
-3.74011e-06 -6.27538e-07 -5.52744e-05
0.000437247 2.36855e-06 5.50083e-07
2.36855e-06 -4.54112e-05 -5.83396e-06
5.50083e-07 -5.83396e-06 -0.000154791
0.000523656 0.000171318 -4.47552e-06
0.000171318 2.76834e-06 -3.33936e-06
-4.47552e-06 -3.33936e-06 -0.000190905
0.000531386 0.000124681 1.81188e-06
0.000124681 5.95164e-05 5.50714e-07
1.81188e-06 5.50714e-07 -0.000180089
0.00153893 0.000362933 -4.6915e-06
0.000362933 0.000170162 -8.61054e-07
-4.6915e-06 -8.61054e-07 -6.6886e-05
0.00187812 0.000406548 2.38225e-07
0.000406548 0.000203929 1.26758e-06
2.38225e-07 1.26758e-06 -7.41814e-06
0.00116534 0.000288429 -4.81717e-06
0.000288429 0.000256869 -3.1743e-06
-4.81717e-06 -3.1743e-06 1.71027e-05
0.00142985 0.000423828 5.79698e-07
0.000423828 0.000273211 -7.37058e-08
5.79698e-07 -7.37058e-08 -3.85826e-05
0.00181251 0.000470807 5.14974e-07
0.000470807 0.000321537 1.81662e-06
5.14974e-07 1.81662e-06 5.34063e-05
0.00179841 0.000479212 1.31277e-06
0.000479212 0.000319668 7.1959e-06
1.31277e-06 7.1959e-06 4.66469e-05
0.000487958 -3.6276e-05 5.82331e-08
-3.6276e-05 -3.12477e-05 8.65156e-08
5.82331e-08 8.65156e-08 -5.89876e-05
0.000605545 8.02005e-06 -5.95352e-07
8.02005e-06 5.80792e-05 4.81789e-07
-5.95352e-07 4.81789e-07 -3.07587e-05
0.00100102 0.000248249 6.62962e-07
0.000248249 0.000241534 6.17173e-07
6.62962e-07 6.17173e-07 1.37741e-05
0.000683347 6.60799e-05 -7.665e-07
6.60799e-05 0.000160904 -3.31282e-07
-7.665e-07 -3.31282e-07 -3.6511e-05
0.000708431 0.000194831 7.58805e-07
0.000194831 9.0504e-05 -6.99737e-08
7.58805e-07 -6.99737e-08 -0.000133646
0.00196473 0.000366062 -1.09019e-06
0.000366062 0.000192659 -1.45784e-06
-1.09019e-06 -1.45784e-06 1.35033e-05
0.00185309 0.00045646 5.65339e-07
0.00045646 0.000253939 1.67572e-07
5.65339e-07 1.67572e-07 8.68924e-06
0.00190411 0.000446405 1.63012e-06
0.000446405 0.000191792 2.79147e-07
1.63012e-06 2.79147e-07 -1.24025e-05
0.00134225 0.000377753 1.48259e-06
0.000377753 0.000322869 8.62103e-07
1.48259e-06 8.62103e-07 2.84252e-05
0.00199588 0.000541214 1.77855e-06
0.000541214 0.000353257 1.46433e-07
1.77855e-06 1.46433e-07 7.84711e-05
0.00170377 0.000490634 -2.46306e-06
0.000490634 0.000388224 -2.31887e-07
-2.46306e-06 -2.31887e-07 7.26637e-05
0.00067381 2.01854e-05 1.2148e-06
2.01854e-05 9.41311e-05 3.902e-06
1.2148e-06 3.902e-06 1.9965e-05
0.0012068 0.000134508 3.81383e-07
0.000134508 0.000468394 3.16822e-06
3.81383e-07 3.16822e-06 0.000316579
0.000950657 0.00029179 -2.05079e-06
0.00029179 0.00013484 -5.54421e-07
-2.05079e-06 -5.54421e-07 -0.000105961
0.00154527 0.000154735 -1.6733e-06
0.000154735 0.000701868 7.57951e-07
-1.6733e-06 7.57951e-07 0.000462566
0.0013725 0.00023571 -8.38909e-06
0.00023571 0.000429893 -4.80038e-06
-8.38909e-06 -4.80038e-06 0.000227169
0.00196683 0.000381726 -3.9203e-06
0.000381726 0.000170237 -2.84374e-06
-3.9203e-06 -2.84374e-06 8.40399e-06
0.0019606 0.000509293 -5.47232e-07
0.000509293 0.000276662 -1.66863e-07
-5.47232e-07 -1.66863e-07 3.17122e-05
0.0017387 0.000481049 4.89517e-06
0.000481049 5.48283e-05 -1.79365e-07
4.89517e-06 -1.79365e-07 -0.000151124
0.00067412 0.000366067 2.34767e-06
0.000366067 -6.10925e-05 -1.85309e-06
2.34767e-06 -1.85309e-06 -0.000380031
0.00145075 0.000503786 8.24519e-06
0.000503786 0.000136384 -6.5044e-07
8.24519e-06 -6.5044e-07 -0.000156812
0.000580911 1.82057e-05 -2.60686e-07
1.82057e-05 3.47859e-05 1.13624e-07
-2.60686e-07 1.13624e-07 -3.01539e-05
0.00046347 4.67096e-05 6.66592e-07
4.67096e-05 -1.39536e-05 1.98014e-06
6.66592e-07 1.98014e-06 -0.000114949
0.000457386 4.14072e-05 -6.14659e-07
4.14072e-05 -1.80525e-05 -2.25413e-07
-6.14659e-07 -2.25413e-07 -0.000114037
0.000940088 0.000128254 -8.88486e-07
0.000128254 0.000294207 -1.33451e-06
-8.88486e-07 -1.33451e-06 0.00017183
0.000665877 9.83511e-05 1.86187e-06
9.83511e-05 0.000124834 1.91094e-06
1.86187e-06 1.91094e-06 2.01876e-05
0.000551983 5.08755e-05 2.66895e-06
5.08755e-05 3.15241e-05 3.07603e-06
2.66895e-06 3.07603e-06 -2.9442e-05
0.000549103 6.0593e-06 -6.36473e-07
6.0593e-06 2.36928e-05 -1.51452e-08
-6.36473e-07 -1.51452e-08 -3.67712e-05
0.0012417 -3.11564e-05 7.66543e-07
-3.11564e-05 0.000422903 3.01896e-06
7.66543e-07 3.01896e-06 0.000407615
0.000562635 9.42465e-06 -1.56188e-06
9.42465e-06 2.37814e-05 -3.20369e-06
-1.56188e-06 -3.20369e-06 -3.61104e-05
0.00130212 -4.16652e-05 -6.80817e-06
-4.16652e-05 0.000462044 -1.48399e-06
-6.80817e-06 -1.48399e-06 0.000445118
0.000825364 -3.96538e-05 2.81022e-05
-3.96538e-05 0.000170562 8.32123e-06
2.81022e-05 8.32123e-06 0.000174244
0.00132068 -5.07471e-05 -1.12803e-05
-5.07471e-05 0.000478669 -4.70277e-06
-1.12803e-05 -4.70277e-06 0.000458964
0.00164279 -7.43388e-05 2.63132e-05
-7.43388e-05 0.000687631 1.63845e-06
2.63132e-05 1.63845e-06 0.000690232
0.00250347 -0.000111932 -3.34041e-05
-0.000111932 0.00123062 -3.86793e-06
-3.34041e-05 -3.86793e-06 0.00123265
0.000328362 7.9468e-05 -5.2157e-06
7.9468e-05 -8.77224e-05 -7.2836e-06
-5.2157e-06 -7.2836e-06 -0.000135042
0.000474861 -1.16477e-05 5.23157e-07
-1.16477e-05 -1.61475e-05 5.56698e-07
5.23157e-07 5.56698e-07 -6.6952e-05
0.00315658 0.000163226 1.58852e-05
0.000163226 0.00165736 -5.49382e-06
1.58852e-05 -5.49382e-06 0.00164269
0.00394947 0.00012029 -1.12043e-05
0.00012029 0.00214738 -8.8012e-07
-1.12043e-05 -8.8012e-07 0.00214271
0.000684739 -6.00548e-05 -1.12002e-05
-6.00548e-05 9.50564e-05 1.14877e-05
-1.12002e-05 1.14877e-05 3.44765e-05
0.00477385 0.000116586 -0.00016217
0.000116586 0.00265904 1.47597e-05
-0.00016217 1.47597e-05 0.00265209
0.00171782 0.000251832 -2.71968e-06
0.000251832 0.000114792 3.64111e-07
-2.71968e-06 3.64111e-07 -5.2044e-05
0.00168285 0.000138528 -5.22417e-07
0.000138528 7.25035e-05 6.44328e-07
-5.22417e-07 6.44328e-07 -5.54593e-05
0.00191624 0.000235621 -1.71653e-06
0.000235621 9.80359e-05 1.65998e-06
-1.71653e-06 1.65998e-06 -1.69016e-05
0.00193461 0.000112182 -1.58665e-06
0.000112182 7.06166e-05 7.07652e-07
-1.58665e-06 7.07652e-07 5.32596e-06
0.00164207 4.46298e-05 5.1679e-08
4.46298e-05 6.33218e-05 3.26867e-07
5.1679e-08 3.26867e-07 -4.7827e-05
0.001015 5.32637e-06 -1.18179e-05
5.32637e-06 -4.8393e-05 -1.13153e-07
-1.18179e-05 -1.13153e-07 -0.000174578
0.00163232 3.30637e-06 5.67687e-08
3.30637e-06 6.05271e-05 1.5109e-07
5.67687e-08 1.5109e-07 -4.91743e-05
0.00189831 4.86721e-05 -9.61892e-07
4.86721e-05 6.04741e-05 5.45975e-09
-9.61892e-07 5.45975e-09 3.44121e-06
0.00192632 0.000172881 -5.97853e-07
0.000172881 8.01181e-05 2.76843e-07
-5.97853e-07 2.76843e-07 -9.22512e-06
0.00193982 0.000111869 1.04834e-06
0.000111869 2.3678e-05 2.47406e-07
1.04834e-06 2.47406e-07 -1.11025e-05
0.00198161 0.000311118 -3.90087e-07
0.000311118 0.000161227 -1.6761e-07
-3.90087e-07 -1.6761e-07 1.42706e-05
0.00192924 0.000252266 -1.81748e-08
0.000252266 3.24513e-05 5.04584e-07
-1.81748e-08 5.04584e-07 -4.98862e-05
0.00192949 -4.54939e-06 1.51294e-06
-4.54939e-06 8.59992e-05 1.75277e-07
1.51294e-06 1.75277e-07 2.86403e-05
0.00190896 4.97341e-05 6.47784e-06
4.97341e-05 2.13556e-05 1.81239e-07
6.47784e-06 1.81239e-07 -6.81072e-06
0.00193484 0.00017784 3.09672e-06
0.00017784 1.73997e-05 2.38151e-07
3.09672e-06 2.38151e-07 -3.18641e-05
0.00201204 0.000111259 4.95337e-06
0.000111259 4.13876e-05 6.06086e-07
4.95337e-06 6.06086e-07 2.79416e-05
0.0019142 0.000306585 9.23305e-07
0.000306585 8.05735e-05 -1.25701e-06
9.23305e-07 -1.25701e-06 -4.04436e-05
0.00209889 0.000260707 3.77115e-06
0.000260707 9.05e-05 1.25914e-06
3.77115e-06 1.25914e-06 3.23219e-05
0.00167668 -3.26472e-05 -1.27383e-06
-3.26472e-05 9.2195e-05 -1.05064e-07
-1.27383e-06 -1.05064e-07 -1.92001e-05
0.00181927 -0.000150402 -3.91476e-06
-0.000150402 0.000179706 1.08731e-07
-3.91476e-06 1.08731e-07 5.23569e-05
0.00196305 -0.000105524 8.03842e-07
-0.000105524 0.000108506 -1.08997e-06
8.03842e-07 -1.08997e-06 3.93396e-05
0.00188944 -0.000228342 -1.59138e-06
-0.000228342 9.88889e-05 -6.76742e-08
-1.59138e-06 -6.76742e-08 -2.04659e-05
0.000803958 -0.000229068 -7.91845e-06
-0.000229068 0.000118625 7.57457e-06
-7.91845e-06 7.57457e-06 -9.20332e-05
0.00113476 -0.000339243 -7.12862e-06
-0.000339243 0.000148978 4.00209e-06
-7.12862e-06 4.00209e-06 -0.000115691
0.00149992 -0.000489645 9.71533e-07
-0.000489645 0.000214266 -1.96957e-07
9.71533e-07 -1.96957e-07 -0.000104183
0.00179182 -0.000342331 -1.10819e-06
-0.000342331 0.00011379 -1.15221e-09
-1.10819e-06 -1.15221e-09 -6.09173e-05
0.00193014 -0.000312246 5.92377e-07
-0.000312246 9.77782e-05 -3.8101e-07
5.92377e-07 -3.8101e-07 -7.58555e-06
0.00193301 -0.000416218 1.8949e-06
-0.000416218 0.000183835 -5.78529e-07
1.8949e-06 -5.78529e-07 1.20654e-05
0.00188389 -0.000517581 -7.43369e-07
-0.000517581 0.000243337 -2.43303e-06
-7.43369e-07 -2.43303e-06 -2.30775e-05
0.00205315 -0.000453323 6.72532e-06
-0.000453323 0.000290946 -4.96827e-06
6.72532e-06 -4.96827e-06 0.000112454
0.000766971 -0.000235819 -1.13436e-06
-0.000235819 8.3621e-05 1.83215e-06
-1.13436e-06 1.83215e-06 -0.000156599
-6.15259e-05 -0.000157466 4.4072e-07
-0.000157466 -0.000412392 1.46632e-06
4.4072e-07 1.46632e-06 -0.000666193
0.000754681 -0.000100046 -5.82432e-07
-0.000100046 0.000162668 4.32391e-06
-5.82432e-07 4.32391e-06 2.74632e-05
0.000118317 -4.93759e-05 3.1098e-06
-4.93759e-05 -0.000197486 -2.72951e-06
3.1098e-06 -2.72951e-06 -0.000420399
0.00190181 -5.50672e-05 2.13695e-08
-5.50672e-05 7.28795e-05 1.99029e-07
2.13695e-08 1.99029e-07 8.14925e-06
0.00185045 -0.000171398 2.06818e-06
-0.000171398 5.15734e-05 -7.55188e-07
2.06818e-06 -7.55188e-07 -4.67865e-05
0.001922 -0.000108469 1.5827e-06
-0.000108469 4.09471e-05 -5.09638e-07
1.5827e-06 -5.09638e-07 1.35006e-06
0.00193521 -0.000255666 -1.7671e-06
-0.000255666 6.0352e-05 3.04766e-07
-1.7671e-06 3.04766e-07 -1.65385e-05
0.00106516 -0.000287235 -1.41514e-06
-0.000287235 0.000182302 6.94467e-07
-1.41514e-06 6.94467e-07 -5.74313e-05
0.00134072 -0.000462673 2.45486e-06
-0.000462673 0.000244042 -9.95366e-07
2.45486e-06 -9.95366e-07 -8.42134e-05
0.00176776 -0.000582262 -1.55598e-07
-0.000582262 0.000290786 4.14145e-07
-1.55598e-07 4.14145e-07 -4.86778e-05
0.00181462 -0.000365788 -1.46767e-06
-0.000365788 7.76604e-05 7.90558e-07
-1.46767e-06 7.90558e-07 -6.54641e-05
0.00197348 -0.000327264 1.26685e-06
-0.000327264 0.000107311 -5.85991e-07
1.26685e-06 -5.85991e-07 2.0212e-05
0.00190582 -0.000526225 -6.47891e-08
-0.000526225 0.000235028 4.69264e-07
-6.47891e-08 4.69264e-07 -2.22296e-05
0.00182273 -0.00043026 -9.06045e-07
-0.00043026 9.46232e-05 1.11915e-06
-9.06045e-07 1.11915e-06 -5.81038e-05
0.00208407 -0.000464776 4.08827e-06
-0.000464776 0.000289804 -5.49593e-06
4.08827e-06 -5.49593e-06 0.000110369
0.00109738 -0.000315877 3.07198e-07
-0.000315877 0.000219475 1.24845e-06
3.07198e-07 1.24845e-06 -3.88013e-05
0.00144437 -0.000343605 3.14644e-06
-0.000343605 0.000486592 1.10423e-06
3.14644e-06 1.10423e-06 0.000196238
0.000905817 -0.000192568 -1.48201e-07
-0.000192568 0.000288727 -6.11531e-08
-1.48201e-07 -6.11531e-08 1.75555e-05
0.000370862 -4.04571e-05 -2.16204e-06
-4.04571e-05 -6.62652e-05 5.97229e-07
-2.16204e-06 5.97229e-07 -0.000176331
0.000157828 -4.90881e-05 -4.4181e-07
-4.90881e-05 -0.000148848 -6.49312e-07
-4.4181e-07 -6.49312e-07 -0.000353023
0.00189525 -5.8919e-05 5.67866e-06
-5.8919e-05 1.16335e-05 5.63024e-09
5.67866e-06 5.63024e-09 -1.23962e-05
0.00194248 -0.000161071 4.81207e-06
-0.000161071 4.04448e-05 -8.40182e-07
4.81207e-06 -8.40182e-07 5.28682e-08
0.0019874 -0.000301923 2.08247e-06
-0.000301923 3.20008e-05 -8.74215e-07
2.08247e-06 -8.74215e-07 -1.84461e-05
0.00192183 -0.000373433 8.90099e-07
-0.000373433 9.60754e-05 -1.97689e-06
8.90099e-07 -1.97689e-06 -6.97307e-06
0.00155648 -0.000406943 2.31802e-07
-0.000406943 0.000469701 -3.96992e-06
2.31802e-07 -3.96992e-06 0.000170728
0.00212993 -0.000517196 -1.03818e-06
-0.000517196 0.000201288 -3.19061e-06
-1.03818e-06 -3.19061e-06 3.44705e-05
0.00126031 -0.000539014 -2.57934e-06
-0.000539014 0.000166579 1.60784e-06
-2.57934e-06 1.60784e-06 -0.00019973
0.00192745 -0.000647523 1.68447e-06
-0.000647523 0.000342112 1.1624e-07
1.68447e-06 1.1624e-07 -1.28808e-05
0.00187609 -0.000510042 -4.40085e-06
-0.000510042 0.000203032 2.05482e-06
-4.40085e-06 2.05482e-06 -4.45977e-05
5.5512e-05 -5.32e-06 -1.53244e-06
-5.32e-06 -0.000256448 -4.49776e-06
-1.53244e-06 -4.49776e-06 -0.000344723
0.000696265 -0.0001028 -1.83487e-06
-0.0001028 0.000190426 5.44818e-07
-1.83487e-06 5.44818e-07 9.59543e-06
0.00105209 -0.000141753 -2.46959e-06
-0.000141753 0.000402212 -2.19102e-06
-2.46959e-06 -2.19102e-06 0.00016537
0.00185368 -0.000426679 -7.98901e-06
-0.000426679 0.000669168 -2.95193e-07
-7.98901e-06 -2.95193e-07 0.000366123
0.000593603 -0.000171488 9.23233e-07
-0.000171488 5.31276e-05 4.55964e-06
9.23233e-07 4.55964e-06 -0.00022971
0.00143441 -0.000376308 -3.27468e-06
-0.000376308 0.000441301 4.34651e-06
-3.27468e-06 4.34651e-06 0.000130632
0.000473279 -3.98706e-05 -8.93251e-07
-3.98706e-05 -3.97028e-05 -6.18682e-06
-8.93251e-07 -6.18682e-06 -6.7661e-05
0.000553517 2.65265e-06 -7.87364e-07
2.65265e-06 3.04232e-05 -4.78722e-06
-7.87364e-07 -4.78722e-06 -5.8471e-05
0.00193994 0.000365365 -2.22304e-06
0.000365365 0.000177019 -3.32961e-07
-2.22304e-06 -3.32961e-07 -2.30277e-06
-0.00014178 -2.96349e-05 1.65089e-06
-2.96349e-05 -0.000342758 -2.79807e-06
1.65089e-06 -2.79807e-06 -0.000531444
0.0011053 0.000257127 -2.34132e-06
0.000257127 0.000309135 -3.40401e-07
-2.34132e-06 -3.40401e-07 8.26766e-05
0.000118184 0.000120869 3.19688e-06
0.000120869 -0.000289912 5.2778e-07
3.19688e-06 5.2778e-07 -0.000491983
0.00181435 0.000453045 6.14998e-07
0.000453045 0.000231537 9.68428e-07
6.14998e-07 9.68428e-07 -1.3218e-05
0.00183938 0.000442802 1.80987e-06
0.000442802 0.000156188 8.45808e-07
1.80987e-06 8.45808e-07 -4.80495e-05
0.00161601 0.000400868 3.5383e-07
0.000400868 0.000503884 -1.60834e-07
3.5383e-07 -1.60834e-07 0.000203809
0.00214451 0.000529539 -2.35959e-06
0.000529539 0.000657094 1.31938e-06
-2.35959e-06 1.31938e-06 0.000338492
0.0018383 0.000524679 -3.70026e-07
0.000524679 0.000242915 1.46792e-06
-3.70026e-07 1.46792e-06 -3.05053e-05
0.000586172 2.0391e-05 -4.26349e-07
2.0391e-05 4.21265e-05 4.78747e-07
-4.26349e-07 4.78747e-07 -3.16972e-05
0.000730846 5.18557e-05 -9.80773e-07
5.18557e-05 0.000171805 4.29099e-07
-9.80773e-07 4.29099e-07 3.34047e-05
0.00117148 0.000313955 1.22472e-07
0.000313955 0.00027082 2.20088e-07
1.22472e-07 2.20088e-07 2.63183e-05
0.00090933 0.000102187 5.73516e-07
0.000102187 0.000301919 6.16186e-07
5.73516e-07 6.16186e-07 7.5671e-05
0.00084972 0.000229885 4.48667e-06
0.000229885 0.000129809 7.51236e-07
4.48667e-06 7.51236e-07 -7.80099e-05
0.00191623 0.000381826 -2.30698e-06
0.000381826 0.000141447 -1.70146e-06
-2.30698e-06 -1.70146e-06 -2.12213e-05
0.00194642 0.000506837 1.76945e-06
0.000506837 0.000268181 5.85002e-07
1.76945e-06 5.85002e-07 2.35701e-05
0.00183044 0.000481592 3.76882e-07
0.000481592 0.000111084 -1.67027e-07
3.76882e-07 -1.67027e-07 -9.37115e-05
0.00117715 0.000430815 2.58597e-06
0.000430815 0.000227167 2.5013e-06
2.58597e-06 2.5013e-06 -0.000100677
0.00170339 0.000531029 -2.66955e-06
0.000531029 0.000300617 -1.88799e-06
-2.66955e-06 -1.88799e-06 -2.57948e-07
0.000871045 7.32199e-05 2.77118e-07
7.32199e-05 0.000250876 2.53595e-06
2.77118e-07 2.53595e-06 0.000132445
8.17067e-05 2.70374e-06 -2.20998e-06
2.70374e-06 -0.000191191 2.03679e-06
-2.20998e-06 2.03679e-06 -0.000366692
0.00117192 0.000344997 -4.20719e-06
0.000344997 0.000238974 -3.7195e-06
-4.20719e-06 -3.7195e-06 -2.43907e-05
0.00040678 0.000191969 -7.11082e-06
0.000191969 -7.82324e-06 -2.5193e-06
-7.11082e-06 -2.5193e-06 -0.000239888
0.00121382 0.000300064 -3.72305e-06
0.000300064 0.000292671 -3.69518e-06
-3.72305e-06 -3.69518e-06 7.76876e-05
0.00187278 0.000414337 -1.09381e-07
0.000414337 4.29135e-05 -1.27498e-06
-1.09381e-07 -1.27498e-06 -0.00010294
0.00204441 0.000561376 4.52973e-06
0.000561376 0.000303306 -1.64993e-06
4.52973e-06 -1.64993e-06 3.86007e-05
0.00174108 0.000501987 3.72023e-06
0.000501987 4.47811e-05 7.25404e-07
3.72023e-06 7.25404e-07 -0.000172471
0.00105113 0.0004367 5.28718e-06
0.0004367 0.000113674 3.06797e-06
5.28718e-06 3.06797e-06 -0.000218231
0.00191604 0.000594719 -1.89555e-06
0.000594719 0.000431639 -8.24653e-07
-1.89555e-06 -8.24653e-07 0.000110492
0.000548559 9.31323e-06 -1.7031e-06
9.31323e-06 1.41736e-05 -3.44496e-06
-1.7031e-06 -3.44496e-06 -5.00972e-05
0.000557001 5.31354e-05 1.24173e-06
5.31354e-05 4.56606e-05 4.08452e-07
1.24173e-06 4.08452e-07 -5.65826e-05
0.000397004 3.9396e-05 -6.20918e-07
3.9396e-05 -6.04241e-05 8.75103e-07
-6.20918e-07 8.75103e-07 -0.000160346
0.000297159 -2.10311e-05 -3.1424e-07
-2.10311e-05 -0.000111844 -1.96938e-06
-3.1424e-07 -1.96938e-06 -0.000208814
0.000614154 5.43107e-05 -3.27067e-07
5.43107e-05 9.25773e-05 2.18374e-08
-3.27067e-07 2.18374e-08 -1.00582e-05
0.000623277 7.78853e-05 -7.47386e-07
7.78853e-05 8.73939e-05 -1.46565e-07
-7.47386e-07 -1.46565e-07 -2.05402e-05
0.000749858 0.000113631 -3.13258e-06
0.000113631 0.000178692 -3.82448e-06
-3.13258e-06 -3.82448e-06 6.55693e-05
0.000358118 4.50169e-06 1.17671e-07
4.50169e-06 -5.66738e-05 -4.82317e-07
1.17671e-07 -4.82317e-07 -0.000176628
0.000673644 8.59922e-05 9.71726e-07
8.59922e-05 0.000123179 2.31959e-06
9.71726e-07 2.31959e-06 2.64698e-05
0.000582086 5.95258e-05 3.22784e-06
5.95258e-05 5.38884e-05 3.12896e-06
3.22784e-06 3.12896e-06 -9.3371e-06
0.00054791 1.52886e-05 -2.04997e-06
1.52886e-05 2.7429e-05 -3.44886e-09
-2.04997e-06 -3.44886e-09 -3.26519e-05
0.00122874 -1.70312e-05 1.10018e-06
-1.70312e-05 0.000416508 2.80212e-06
1.10018e-06 2.80212e-06 0.000402449
0.000479889 -5.73293e-05 1.21772e-06
-5.73293e-05 -1.32215e-05 -3.10044e-06
1.21772e-06 -3.10044e-06 -7.68454e-05
0.00128932 -2.69832e-05 -5.98341e-06
-2.69832e-05 0.000451915 -1.53867e-06
-5.98341e-06 -1.53867e-06 0.00043731
0.000796326 -3.01067e-05 2.43338e-05
-3.01067e-05 0.000148831 8.59579e-06
2.43338e-05 8.59579e-06 0.000154424
0.00133511 -3.88182e-05 -1.0186e-05
-3.88182e-05 0.000481996 -6.27456e-06
-1.0186e-05 -6.27456e-06 0.000465598
0.000775276 -4.21821e-05 9.23245e-06
-4.21821e-05 0.000139245 3.20283e-06
9.23245e-06 3.20283e-06 0.00014161
0.00239859 -0.000105121 -2.96582e-06
-0.000105121 0.00115784 -2.43562e-06
-2.96582e-06 -2.43562e-06 0.00116103
0.000380131 5.53401e-05 -2.52219e-06
5.53401e-05 -7.74631e-05 -4.46785e-06
-2.52219e-06 -4.46785e-06 -0.000106752
0.000433659 2.73811e-05 -3.11964e-06
2.73811e-05 -3.80291e-05 -1.68251e-08
-3.11964e-06 -1.68251e-08 -7.77463e-05
0.0027063 0.000129252 1.65636e-05
0.000129252 0.00137079 -4.49028e-06
1.65636e-05 -4.49028e-06 0.00136574
0.000591411 -3.88684e-05 -7.98956e-06
-3.88684e-05 4.71537e-05 9.35526e-06
-7.98956e-06 9.35526e-06 -9.08858e-07
0.00336157 0.00013108 -3.03171e-05
0.00013108 0.00177771 -6.40557e-07
-3.03171e-05 -6.40557e-07 0.00177136
0.00410081 9.64463e-05 -0.000139202
9.64463e-05 0.00223512 1.14243e-05
-0.000139202 1.14243e-05 0.00223556
0.0019413 0.000311044 -2.36764e-06
0.000311044 0.000130311 1.1274e-06
-2.36764e-06 1.1274e-06 -1.70509e-05
0.00192804 0.000169653 -9.51254e-07
0.000169653 8.53377e-05 1.55523e-06
-9.51254e-07 1.55523e-06 -3.37778e-06
0.00195059 0.000247919 -1.14581e-06
0.000247919 4.45071e-05 1.3756e-06
-1.14581e-06 1.3756e-06 -3.31614e-05
0.0019378 0.000110325 -3.59746e-06
0.000110325 1.67571e-05 -1.00244e-07
-3.59746e-06 -1.00244e-07 -1.29265e-05
0.00187354 4.20059e-05 -2.95507e-06
4.20059e-05 4.58206e-05 2.26295e-07
-2.95507e-06 2.26295e-07 -1.17277e-05
0.00164532 6.17677e-06 1.9189e-07
6.17677e-06 6.92388e-05 2.1699e-07
1.9189e-07 2.1699e-07 -4.04235e-05
0.00189137 -4.1696e-06 -6.96424e-07
-4.1696e-06 6.44396e-05 7.2458e-08
-6.96424e-07 7.2458e-08 5.17169e-06
0.00192354 4.92589e-05 1.44918e-06
4.92589e-05 3.43477e-05 -1.45131e-09
1.44918e-06 -1.45131e-09 3.58831e-06
0.00197641 0.000177875 -8.93357e-08
0.000177875 4.55044e-05 -2.50619e-08
-8.93357e-08 -2.50619e-08 -5.53019e-06
0.00197923 0.000111958 8.85345e-07
0.000111958 1.72389e-05 3.03749e-07
8.85345e-07 3.03749e-07 7.16951e-06
0.00191028 0.00030414 -7.20745e-07
0.00030414 8.70715e-05 -1.94576e-07
-7.20745e-07 -1.94576e-07 -3.36526e-05
0.00204702 0.000263043 3.24132e-06
0.000263043 5.54573e-05 6.67053e-07
3.24132e-06 6.67053e-07 2.15443e-06
0.00192049 -9.20484e-06 6.04587e-06
-9.20484e-06 3.85748e-05 2.61754e-07
6.04587e-06 2.61754e-07 8.32116e-06
0.00195974 5.25468e-05 3.45844e-06
5.25468e-05 4.29307e-06 -3.20193e-09
3.45844e-06 -3.20193e-09 7.32836e-07
0.0020339 0.000178242 2.29441e-06
0.000178242 1.72343e-05 5.98262e-07
2.29441e-06 5.98262e-07 2.84106e-06
0.00206072 0.000342503 -4.0971e-07
0.000342503 7.76242e-05 6.33035e-07
-4.0971e-07 6.33035e-07 -1.09763e-06
0.00187636 -5.43333e-05 -2.19016e-06
-5.43333e-05 5.77832e-05 2.22999e-07
-2.19016e-06 2.22999e-07 -7.11118e-06
0.00189319 -0.000173516 1.61e-06
-0.000173516 8.19834e-05 -1.30702e-06
1.61e-06 -1.30702e-06 -1.77128e-05
0.00194686 -0.000109295 -3.57813e-06
-0.000109295 5.51408e-05 -1.81921e-07
-3.57813e-06 -1.81921e-07 1.63361e-05
0.00191536 -0.000252079 -4.5023e-06
-0.000252079 5.39386e-05 1.58963e-06
-4.5023e-06 1.58963e-06 -2.64448e-05
0.000911425 -0.000272474 -4.20834e-06
-0.000272474 8.44148e-05 4.69756e-06
-4.20834e-06 4.69756e-06 -0.000153835
0.00123963 -0.000443321 -2.75247e-07
-0.000443321 0.000192374 1.88707e-07
-2.75247e-07 1.88707e-07 -0.000129949
0.00174297 -0.000589112 5.92164e-07
-0.000589112 0.000271061 -1.06982e-06
5.92164e-07 -1.06982e-06 -7.39694e-05
0.00186492 -0.00036634 -1.40571e-06
-0.00036634 0.000118045 3.6068e-07
-1.40571e-06 3.6068e-07 -2.87888e-05
0.00188928 -0.000325761 -5.8528e-07
-0.000325761 5.91647e-05 1.27113e-06
-5.8528e-07 1.27113e-06 -2.64984e-05
0.00180574 -0.000431465 2.22308e-06
-0.000431465 7.25377e-05 1.47962e-06
2.22308e-06 1.47962e-06 -8.11427e-05
0.00187783 -0.000523294 -1.11348e-06
-0.000523294 0.000232186 -2.30311e-06
-1.11348e-06 -2.30311e-06 -2.54744e-05
0.00194991 -0.000451315 5.37648e-06
-0.000451315 0.000194608 -7.63871e-06
5.37648e-06 -7.63871e-06 2.20278e-05
0.000990817 -0.000305912 1.76918e-06
-0.000305912 0.000152966 2.05825e-06
1.76918e-06 2.05825e-06 -0.000104153
0.000813715 -0.000274742 4.37264e-06
-0.000274742 7.28057e-05 9.36267e-07
4.37264e-06 9.36267e-07 -0.000195519
0.000603977 -0.000162 3.81303e-06
-0.000162 0.0001068 -4.04805e-06
3.81303e-06 -4.04805e-06 -0.00016726
0.000171976 -2.1411e-05 -1.07618e-07
-2.1411e-05 -0.000189392 3.88305e-06
-1.07618e-07 3.88305e-06 -0.000300915
0.000150024 -6.20514e-06 3.50722e-06
-6.20514e-06 -0.000159417 -9.76503e-09
3.50722e-06 -9.76503e-09 -0.0003552
0.00190469 -6.67458e-05 -1.7177e-07
-6.67458e-05 1.40683e-05 -1.29334e-07
-1.7177e-07 -1.29334e-07 -1.13357e-05
0.00193924 -0.000160681 1.14204e-06
-0.000160681 3.73977e-05 -1.49804e-07
1.14204e-06 -1.49804e-07 -3.97619e-06
0.00198703 -0.000296622 -9.4574e-07
-0.000296622 4.66155e-05 2.31339e-09
-9.4574e-07 2.31339e-09 -7.30794e-06
0.00132212 -0.000384696 -1.74853e-06
-0.000384696 0.000319224 -4.85138e-07
-1.74853e-06 -4.85138e-07 2.49402e-05
0.00131703 -0.000532464 2.97155e-06
-0.000532464 0.000201856 -8.80646e-07
2.97155e-06 -8.80646e-07 -0.000160416
0.00182889 -0.000640434 4.29261e-08
-0.000640434 0.000293118 -3.221e-07
4.29261e-08 -3.221e-07 -6.44104e-05
0.00188942 -0.000370614 3.34063e-07
-0.000370614 7.41804e-05 1.60579e-07
3.34063e-07 1.60579e-07 -2.97577e-05
0.00200744 -0.000529201 9.9721e-07
-0.000529201 0.000269091 -3.21173e-06
9.9721e-07 -3.21173e-06 2.4494e-05
0.0020152 -0.000500112 -8.04669e-07
-0.000500112 0.000161954 -5.72887e-07
-8.04669e-07 -5.72887e-07 -2.05377e-06
0.000189134 4.57953e-05 -1.40036e-06
4.57953e-05 -0.000182766 -7.82454e-07
-1.40036e-06 -7.82454e-07 -0.000264882
0.00115824 -0.000353045 4.10473e-08
-0.000353045 0.000229395 3.21918e-07
4.10473e-08 3.21918e-07 -5.57468e-05
0.00133135 -0.00036545 2.56249e-08
-0.00036545 0.000378647 2.21492e-06
2.56249e-08 2.21492e-06 7.78156e-05
0.001228 -0.000258696 -3.06128e-07
-0.000258696 0.000457744 4.40901e-07
-3.06128e-07 4.40901e-07 0.000151217
0.00124377 -0.000147955 9.54466e-07
-0.000147955 0.000518207 -2.85185e-06
9.54466e-07 -2.85185e-06 0.000283192
0.000469251 -3.03736e-05 -7.03092e-07
-3.03736e-05 4.09424e-05 1.37986e-06
-7.03092e-07 1.37986e-06 -0.000133105
0.00195233 -8.21436e-05 3.81725e-06
-8.21436e-05 1.06114e-05 -5.6652e-08
3.81725e-06 -5.6652e-08 5.81902e-06
0.00206793 -0.000207819 1.50719e-06
-0.000207819 1.32443e-05 -4.81147e-07
1.50719e-06 -4.81147e-07 1.166e-05
0.00207513 -0.000361036 1.44748e-06
-0.000361036 5.9315e-05 -1.05109e-06
1.44748e-06 -1.05109e-06 2.64996e-05
0.00212034 -0.000448973 1.76569e-06
-0.000448973 0.000118964 -2.34563e-06
1.76569e-06 -2.34563e-06 2.61766e-05
0.00165163 -0.000486759 -5.77167e-06
-0.000486759 0.000492737 -2.0997e-06
-5.77167e-06 -2.0997e-06 0.000152261
0.002007 -0.000568941 3.60451e-06
-0.000568941 0.000197481 -9.75849e-07
3.60451e-06 -9.75849e-07 -1.69922e-05
0.00154825 -0.000625661 -9.88502e-06
-0.000625661 0.000301647 1.66978e-06
-9.88502e-06 1.66978e-06 -0.000101681
0.00218181 -0.000701657 -8.49072e-06
-0.000701657 0.000509402 6.97094e-07
-8.49072e-06 6.97094e-07 0.000129618
0.000145541 5.83453e-05 -3.67415e-06
5.83453e-05 -0.000214133 -1.59522e-06
-3.67415e-06 -1.59522e-06 -0.000277254
0.000666994 5.47467e-06 -1.82262e-06
5.47467e-06 0.000152555 2.95593e-07
-1.82262e-06 2.95593e-07 1.84948e-05
0.00124011 -0.000170974 -4.73319e-06
-0.000170974 0.000533204 2.25767e-06
-4.73319e-06 2.25767e-06 0.000323358
0.000926349 -6.14822e-05 -2.76836e-06
-6.14822e-05 0.000285408 1.90247e-07
-2.76836e-06 1.90247e-07 2.43301e-05
0.00155833 -0.00044694 -1.42402e-06
-0.00044694 0.000453388 4.52443e-07
-1.42402e-06 4.52443e-07 0.000118241
0.00158294 -0.000381934 -1.19379e-05
-0.000381934 0.000589444 1.3264e-05
-1.19379e-05 1.3264e-05 0.000220767
0.000476554 1.20057e-05 -1.72222e-06
1.20057e-05 -2.45475e-05 -3.69467e-06
-1.72222e-06 -3.69467e-06 -9.72064e-05
0.000313396 -1.55046e-07 1.70708e-06
-1.55046e-07 -9.95172e-05 -2.2294e-06
1.70708e-06 -2.2294e-06 -0.000219264
0.00187062 0.000382911 -1.91523e-06
0.000382911 0.000113757 -6.80266e-07
-1.91523e-06 -6.80266e-07 -4.99527e-05
0.000195317 4.59052e-05 1.26897e-06
4.59052e-05 -0.00014817 -2.42748e-07
1.26897e-06 -2.42748e-07 -0.000356586
0.00149185 0.000346335 4.73614e-08
0.000346335 0.000467891 2.18956e-07
4.73614e-08 2.18956e-07 0.000218636
-0.000129289 0.000116218 5.38568e-06
0.000116218 -0.000485433 2.08992e-06
5.38568e-06 2.08992e-06 -0.000661784
0.00193262 0.000504876 1.57036e-06
0.000504876 0.000257963 8.05037e-07
1.57036e-06 8.05037e-07 1.35464e-05
0.00194739 0.000484328 -4.18321e-06
0.000484328 0.000179073 4.45299e-07
-4.18321e-06 4.45299e-07 -2.50067e-05
0.00158295 0.000483789 -6.85083e-07
0.000483789 0.00046136 2.74399e-06
-6.85083e-07 2.74399e-06 0.000125118
0.00201682 0.00056377 -3.17823e-06
0.00056377 0.000502596 1.72446e-07
-3.17823e-06 1.72446e-07 0.00019194
0.000682496 3.9052e-05 -9.43878e-07
3.9052e-05 0.000129783 1.34191e-07
-9.43878e-07 1.34191e-07 1.84998e-05
0.000390273 5.16867e-05 8.37577e-07
5.16867e-05 6.91292e-07 4.01627e-07
8.37577e-07 4.01627e-07 -0.000185421
0.00149034 0.000377705 -1.50735e-06
0.000377705 0.000437905 -1.4861e-06
-1.50735e-06 -1.4861e-06 0.000167048
0.000313581 8.73891e-05 -1.47453e-06
8.73891e-05 -0.000109983 -3.61449e-07
-1.47453e-06 -3.61449e-07 -0.000301243
0.000826403 0.000259857 9.00015e-07
0.000259857 4.47262e-05 -1.70323e-06
9.00015e-07 -1.70323e-06 -0.000154655
0.00205859 0.000427442 -2.86443e-06
0.000427442 0.000145495 -1.24198e-06
-2.86443e-06 -1.24198e-06 1.81172e-06
0.00216247 0.000561743 2.44895e-06
0.000561743 0.000377399 -2.76598e-07
2.44895e-06 -2.76598e-07 0.000117577
0.00196771 0.000526737 2.7904e-06
0.000526737 0.000167049 2.76968e-06
2.7904e-06 2.76968e-06 -5.56472e-05
0.001205 0.00045441 4.03025e-06
0.00045441 0.000214851 2.55253e-06
4.03025e-06 2.55253e-06 -0.000122188
0.00174206 0.000592677 -4.36059e-06
0.000592677 0.000329874 -1.42235e-07
-4.36059e-06 -1.42235e-07 1.09649e-06
-0.000183944 5.649e-06 -1.59081e-06
5.649e-06 -0.000393651 3.48497e-06
-1.59081e-06 3.48497e-06 -0.0005047
-0.000152205 0.000129185 1.62343e-06
0.000129185 -0.00028012 2.3149e-06
1.62343e-06 2.3149e-06 -0.000515883
0.000975087 0.000337578 6.16152e-07
0.000337578 0.000116211 -5.50132e-07
6.16152e-07 -5.50132e-07 -0.000158165
-0.000296915 0.000140584 2.17904e-06
0.000140584 -0.000584142 4.32551e-08
2.17904e-06 4.32551e-08 -0.000778138
0.00207669 0.000429027 1.82058e-06
0.000429027 -9.32734e-05 1.60342e-06
1.82058e-06 1.60342e-06 -0.000113214
0.00269822 0.000541149 3.55308e-06
0.000541149 0.000531658 9.8143e-08
3.55308e-06 9.8143e-08 0.000347067
0.00198457 0.00062092 -5.15055e-06
0.00062092 0.000303594 -4.3009e-06
-5.15055e-06 -4.3009e-06 -5.24594e-06
0.00142264 0.000544686 3.36229e-07
0.000544686 0.000248364 2.33174e-07
3.36229e-07 2.33174e-07 -0.000114728
0.000643195 8.9811e-05 -6.59311e-07
8.9811e-05 0.000104661 -1.25376e-06
-6.59311e-07 -1.25376e-06 -1.92338e-06
0.000598378 7.1907e-05 -4.26191e-07
7.1907e-05 7.56834e-05 -8.49033e-08
-4.26191e-07 -8.49033e-08 -3.42847e-05
0.000996404 7.06967e-05 -5.3332e-06
7.06967e-05 0.000319353 -2.2405e-06
-5.3332e-06 -2.2405e-06 0.000222263
0.000595958 3.39734e-05 -1.27763e-06
3.39734e-05 6.30138e-05 -2.16543e-06
-1.27763e-06 -2.16543e-06 -2.64679e-05
0.000279609 2.71789e-05 -1.20719e-07
2.71789e-05 -0.000122476 -9.23578e-08
-1.20719e-07 -9.23578e-08 -0.000224127
0.000620588 4.42896e-05 -3.91298e-07
4.42896e-05 9.31291e-05 9.69959e-08
-3.91298e-07 9.69959e-08 -4.40462e-06
0.000598491 0.000110262 -1.09733e-06
0.000110262 0.000100596 4.15809e-07
-1.09733e-06 4.15809e-07 -1.478e-05
0.000519259 4.16733e-05 1.05334e-06
4.16733e-05 4.71656e-05 1.27525e-07
1.05334e-06 1.27525e-07 -7.74375e-05
0.000665495 8.26532e-05 1.92966e-06
8.26532e-05 0.000111036 -1.88963e-06
1.92966e-06 -1.88963e-06 2.57462e-05
0.000735717 5.23743e-06 3.12471e-06
5.23743e-06 0.000175348 -4.07367e-06
3.12471e-06 -4.07367e-06 5.48068e-05
0.000364973 6.34679e-05 4.40454e-07
6.34679e-05 -4.65767e-05 1.77844e-06
4.40454e-07 1.77844e-06 -0.00017217
0.000665218 9.85952e-05 2.15532e-06
9.85952e-05 0.000123151 2.95548e-06
2.15532e-06 2.95548e-06 2.14845e-05
0.000495598 6.72521e-05 2.9909e-06
6.72521e-05 7.61877e-06 3.03323e-06
2.9909e-06 3.03323e-06 -6.14213e-05
0.00050148 8.49989e-06 -1.49436e-06
8.49989e-06 4.55682e-06 -2.02307e-07
-1.49436e-06 -2.02307e-07 -5.82157e-05
0.00120761 3.55555e-07 1.38774e-06
3.55555e-07 0.000408069 2.62558e-06
1.38774e-06 2.62558e-06 0.000394252
0.000499365 -4.60447e-05 3.77118e-08
-4.60447e-05 -1.5536e-06 -2.81314e-06
3.77118e-08 -2.81314e-06 -6.19633e-05
0.00128768 -1.1995e-05 -5.43653e-06
-1.1995e-05 0.000452905 -1.61982e-06
-5.43653e-06 -1.61982e-06 0.000439213
0.000789248 -2.05744e-05 2.16915e-05
-2.05744e-05 0.000144741 8.77079e-06
2.16915e-05 8.77079e-06 0.000151113
0.0013301 -2.38514e-05 -9.18173e-06
-2.38514e-05 0.000477263 -6.09431e-06
-9.18173e-06 -6.09431e-06 0.00046293
0.000762702 -3.2164e-05 7.9285e-06
-3.2164e-05 0.000127075 3.28358e-06
7.9285e-06 3.28358e-06 0.000131762
0.000719942 -4.17903e-05 -2.70528e-07
-4.17903e-05 0.000104665 -2.68218e-06
-2.70528e-07 -2.68218e-06 0.000106686
0.00043906 4.03316e-05 -2.98159e-07
4.03316e-05 -5.9703e-05 -3.17957e-06
-2.98159e-07 -3.17957e-06 -7.83218e-05
0.000442557 6.80851e-05 -1.72166e-07
6.80851e-05 -3.37816e-05 2.30642e-07
-1.72166e-07 2.30642e-07 -6.71024e-05
0.00236232 0.000103244 1.44011e-05
0.000103244 0.00114936 -4.08247e-06
1.44011e-05 -4.08247e-06 0.00115153
0.000531382 2.64812e-05 -4.33794e-06
2.64812e-05 2.47914e-05 7.68127e-06
-4.33794e-06 7.68127e-06 -1.76187e-05
0.00282435 0.000135878 -4.99957e-06
0.000135878 0.00144428 -5.63154e-07
-4.99957e-06 -5.63154e-07 0.00143746
0.00350939 8.52745e-05 -0.000111839
8.52745e-05 0.00186443 8.25686e-06
-0.000111839 8.25686e-06 0.00186909
0.00189561 0.000301088 -5.71682e-07
0.000301088 8.79154e-05 1.49518e-06
-5.71682e-07 1.49518e-06 -3.25646e-05
0.00201733 0.000178141 -5.03703e-06
0.000178141 7.26683e-05 -6.2944e-07
-5.03703e-06 -6.2944e-07 1.99781e-05
0.00199982 0.000265665 -4.43698e-07
0.000265665 2.31195e-05 -3.79784e-07
-4.43698e-07 -3.79784e-07 -2.54361e-05
0.00194889 0.000112922 -3.34379e-06
0.000112922 -5.89032e-06 -5.2593e-07
-3.34379e-06 -5.2593e-07 -1.25614e-05
0.00193861 4.91249e-05 -4.91743e-06
4.91249e-05 4.75265e-05 -2.14946e-07
-4.91743e-06 -2.14946e-07 1.41602e-05
0.00185799 -6.34526e-06 -3.22207e-06
-6.34526e-06 4.61228e-05 2.29532e-07
-3.22207e-06 2.29532e-07 -1.48548e-05
0.00191347 -7.29907e-06 -4.3548e-07
-7.29907e-06 3.43176e-05 -7.04544e-08
-4.3548e-07 -7.04544e-08 4.69319e-06
0.00196346 5.48166e-05 1.14323e-06
5.48166e-05 1.19679e-05 1.34303e-07
1.14323e-06 1.34303e-07 6.80316e-06
0.00203656 0.00018311 7.88525e-07
0.00018311 2.11456e-05 2.12823e-07
7.88525e-07 2.12823e-07 6.4468e-06
0.00208458 0.000337551 7.71363e-07
0.000337551 8.26136e-05 3.53355e-07
7.71363e-07 3.53355e-07 4.06139e-06
0.0019444 -1.32112e-05 2.47323e-06
-1.32112e-05 8.86443e-06 -4.16865e-08
2.47323e-06 -4.16865e-08 1.72195e-06
0.00208172 0.000104675 1.00904e-06
0.000104675 -1.81312e-05 -4.58876e-08
1.00904e-06 -4.58876e-08 9.85669e-06
0.00223811 0.000282052 2.08383e-06
0.000282052 5.44637e-05 1.05207e-06
2.08383e-06 1.05207e-06 4.01318e-05
0.00191804 -7.47297e-05 -5.16238e-06
-7.47297e-05 1.87081e-05 2.02405e-07
-5.16238e-06 2.02405e-07 -7.88808e-06
0.00194464 -0.000160366 -2.54004e-06
-0.000160366 3.99445e-05 3.89572e-08
-2.54004e-06 3.89572e-08 -2.16745e-06
0.0019869 -0.000291313 -3.06561e-06
-0.000291313 6.20419e-05 1.14185e-06
-3.06561e-06 1.14185e-06 4.09314e-06
0.000985473 -0.000350974 -2.60785e-06
-0.000350974 0.000105933 2.24185e-06
-2.60785e-06 2.24185e-06 -0.000181103
0.00136094 -0.00052173 7.16034e-06
-0.00052173 0.000232178 -2.07762e-06
7.16034e-06 -2.07762e-06 -0.000124103
0.00169221 -0.00062976 -1.52129e-07
-0.00062976 0.000222498 6.10579e-07
-1.52129e-07 6.10579e-07 -0.000135658
0.00186788 -0.000368068 -1.04211e-06
-0.000368068 5.90094e-05 1.20059e-06
-1.04211e-06 1.20059e-06 -4.57903e-05
0.00187589 -0.00047976 8.04293e-07
-0.00047976 0.000110634 1.00807e-06
8.04293e-07 1.00807e-06 -5.04115e-05
0.00208884 -0.000544246 3.44491e-06
-0.000544246 0.000311915 -7.00298e-06
3.44491e-06 -7.00298e-06 7.07831e-05
0.00105517 -0.000341735 3.50689e-06
-0.000341735 0.000163437 3.10129e-06
3.50689e-06 3.10129e-06 -0.000118684
0.00077376 -0.00030705 -1.08584e-05
-0.00030705 4.16529e-05 1.76187e-06
-1.08584e-05 1.76187e-06 -0.000239347
0.00212787 -0.000369419 1.64124e-06
-0.000369419 0.00103615 -7.86123e-07
1.64124e-06 -7.86123e-07 0.000696896
0.000361811 4.5958e-05 2.17643e-06
4.5958e-05 -7.95333e-05 7.4849e-07
2.17643e-06 7.4849e-07 -0.00015898
0.00104734 -0.000152809 3.61168e-06
-0.000152809 0.000382912 1.98194e-06
3.61168e-06 1.98194e-06 0.000166226
0.000133853 3.56138e-05 5.10716e-06
3.56138e-05 -0.000174268 6.92455e-07
5.10716e-06 6.92455e-07 -0.000340151
0.00196349 -8.18831e-05 -4.91706e-07
-8.18831e-05 1.68103e-05 8.50248e-08
-4.91706e-07 8.50248e-08 1.03061e-05
0.00203519 -0.000213892 1.70923e-07
-0.000213892 -9.79015e-06 -1.14081e-08
1.70923e-07 -1.14081e-08 -1.00743e-05
0.00204621 -0.00035539 -5.03498e-07
-0.00035539 4.88509e-05 3.2406e-07
-5.03498e-07 3.2406e-07 1.23175e-05
0.00151005 -0.000468978 -1.86721e-06
-0.000468978 0.000412039 -4.17985e-07
-1.86721e-06 -4.17985e-07 7.62036e-05
0.00143813 -0.000608771 1.89401e-06
-0.000608771 0.000238086 -1.01129e-06
1.89401e-06 -1.01129e-06 -0.000159616
0.00227329 -0.000702766 -5.10416e-06
-0.000702766 0.000556415 8.51558e-07
-5.10416e-06 8.51558e-07 0.000186495
0.00206411 -0.000453447 5.98851e-07
-0.000453447 8.81017e-05 -4.60301e-07
5.98851e-07 -4.60301e-07 -1.00789e-05
0.00188004 -0.000552798 1.43886e-06
-0.000552798 0.000125732 -3.07843e-06
1.43886e-06 -3.07843e-06 -8.44782e-05
0.000368691 5.90953e-05 -1.07932e-06
5.90953e-05 -8.0533e-05 -1.06287e-06
-1.07932e-06 -1.06287e-06 -0.00013917
0.000665256 -1.51039e-05 -7.91894e-07
-1.51039e-05 0.000146978 4.30239e-07
-7.91894e-07 4.30239e-07 1.61691e-05
0.000708048 -0.000358527 -4.84217e-06
-0.000358527 -6.18612e-05 2.5454e-06
-4.84217e-06 2.5454e-06 -0.000372938
0.00162026 -0.000356465 4.6888e-06
-0.000356465 0.000642783 -3.66798e-07
4.6888e-06 -3.66798e-07 0.000271931
0.00127505 -0.000123711 -2.49162e-07
-0.000123711 0.00050934 -1.99742e-06
-2.49162e-07 -1.99742e-06 0.000243538
0.000830099 -0.00012509 -5.71102e-07
-0.00012509 0.000275986 9.2844e-07
-5.71102e-07 9.2844e-07 7.11292e-05
0.00203333 -0.000112012 -4.74802e-07
-0.000112012 -2.1719e-05 -1.20102e-07
-4.74802e-07 -1.20102e-07 3.97435e-06
0.00214758 -0.000306633 -1.33448e-06
-0.000306633 -3.49338e-05 3.41662e-07
-1.33448e-06 3.41662e-07 3.90821e-06
0.00213037 -0.00041266 1.37293e-06
-0.00041266 6.16682e-05 -5.38588e-07
1.37293e-06 -5.38588e-07 3.51528e-05
0.00221474 -0.000602388 6.59099e-06
-0.000602388 0.000162193 -3.11351e-06
6.59099e-06 -3.11351e-06 2.17148e-05
0.000707769 -0.00044178 -3.05954e-07
-0.00044178 -7.89488e-05 -4.26491e-06
-3.05954e-07 -4.26491e-06 -0.000437122
0.0022707 -0.000731603 -9.92609e-07
-0.000731603 0.000487104 1.11235e-05
-9.92609e-07 1.11235e-05 0.000137392
0.00237013 -0.000764302 -1.06547e-05
-0.000764302 0.000731393 -3.38972e-06
-1.06547e-05 -3.38972e-06 0.000280807
0.00058826 4.96788e-05 7.7379e-07
4.96788e-05 3.84665e-05 -7.67135e-07
7.7379e-07 -7.67135e-07 -6.6369e-06
0.000660702 -0.000129539 4.4991e-06
-0.000129539 0.000132526 -2.44556e-06
4.4991e-06 -2.44556e-06 3.78188e-05
0.000329099 7.41642e-05 -5.15394e-06
7.41642e-05 -7.0013e-05 1.24456e-06
-5.15394e-06 1.24456e-06 -0.000167368
0.00078514 -5.03545e-05 -3.91574e-06
-5.03545e-05 0.0002461 5.26981e-06
-3.91574e-06 5.26981e-06 7.22152e-05
0.000354362 -7.42072e-05 1.72459e-06
-7.42072e-05 -5.83529e-05 -2.55225e-06
1.72459e-06 -2.55225e-06 -0.000261766
-0.000861152 -2.05933e-06 1.66768e-06
-2.05933e-06 -0.000761097 3.21459e-08
1.66768e-06 3.21459e-08 -0.00108328
0.00139223 -0.0004554 -1.37856e-05
-0.0004554 0.00034809 8.69601e-06
-1.37856e-05 8.69601e-06 1.99252e-05
0.00294565 -0.000507171 -1.78677e-05
-0.000507171 0.00154967 1.02162e-05
-1.78677e-05 1.02162e-05 0.00101306
0.000607083 1.07883e-05 -3.80973e-07
1.07883e-05 7.6883e-05 -1.40803e-06
-3.80973e-07 -1.40803e-06 -2.64999e-05
0.000764959 0.000112753 4.65135e-07
0.000112753 0.000235448 -1.27694e-06
4.65135e-07 -1.27694e-06 3.69595e-05
0.00224194 0.000440234 -2.08178e-06
0.000440234 0.00024764 -1.28125e-06
-2.08178e-06 -1.28125e-06 0.000106152
0.000666557 0.000134951 -1.53776e-06
0.000134951 0.000118646 2.4276e-06
-1.53776e-06 2.4276e-06 -8.62979e-05
0.00174925 0.000404999 -3.33818e-07
0.000404999 0.000599608 1.74475e-06
-3.33818e-07 1.74475e-06 0.00032119
0.000339389 0.000207914 -2.42961e-06
0.000207914 -0.000261304 -6.8649e-07
-2.42961e-06 -6.8649e-07 -0.000443571
0.00223465 0.000556223 -3.11381e-06
0.000556223 0.000428269 -3.34326e-07
-3.11381e-06 -3.34326e-07 0.000174783
0.00213301 0.000546414 -6.44069e-06
0.000546414 0.000255258 5.07041e-06
-6.44069e-06 5.07041e-06 2.82778e-05
0.0016657 0.000511253 -6.02731e-07
0.000511253 0.000493435 8.35278e-07
-6.02731e-07 8.35278e-07 0.000145325
0.0015568 0.000591346 6.11369e-07
0.000591346 0.000216731 3.752e-07
6.11369e-07 3.752e-07 -0.000119078
0.000120442 3.64608e-05 -2.92702e-08
3.64608e-05 -0.000200935 1.30364e-06
-2.92702e-08 1.30364e-06 -0.000322915
0.000287442 0.000163461 -9.76262e-07
0.000163461 -1.66816e-05 -3.24706e-06
-9.76262e-07 -3.24706e-06 -0.000252634
0.00150241 0.000402141 2.791e-06
0.000402141 0.000426411 -2.97587e-07
2.791e-06 -2.97587e-07 0.000138708
0.000699983 0.000225019 -2.4278e-06
0.000225019 2.35751e-05 -9.69077e-07
-2.4278e-06 -9.69077e-07 -0.000181644
0.00217924 0.000418652 8.7214e-07
0.000418652 -4.02224e-05 -9.46176e-07
8.7214e-07 -9.46176e-07 -5.87671e-05
0.00244391 0.000533911 3.12964e-06
0.000533911 0.000387953 5.84137e-07
3.12964e-06 5.84137e-07 0.000199333
0.00197598 0.000609641 -2.86708e-07
0.000609641 0.000298113 6.49762e-07
-2.86708e-07 6.49762e-07 -4.94733e-06
0.00156374 0.000559334 7.65444e-07
0.000559334 0.000314133 5.60823e-07
7.65444e-07 5.60823e-07 -4.71299e-05
3.90667e-05 4.79337e-05 -1.5071e-06
4.79337e-05 -0.00025565 4.3407e-06
-1.5071e-06 4.3407e-06 -0.000384581
0.00212014 0.000332915 5.38956e-06
0.000332915 -0.000137433 4.01329e-06
5.38956e-06 4.01329e-06 -8.76839e-05
0.00192273 0.000379479 5.74251e-06
0.000379479 0.000927824 8.21411e-06
5.74251e-06 8.21411e-06 0.000646369
0.00141126 0.000413397 3.43991e-06
0.000413397 0.000336087 -1.8877e-07
3.43991e-06 -1.8877e-07 5.10893e-05
0.00254816 0.000523126 -1.7248e-05
0.000523126 0.000305466 -7.08807e-06
-1.7248e-05 -7.08807e-06 0.000201794
0.00106216 0.000562949 -1.02842e-05
0.000562949 -0.000320824 -8.81756e-06
-1.02842e-05 -8.81756e-06 -0.00060738
0.00212365 0.000647975 -3.68018e-06
0.000647975 0.000581491 2.31774e-06
-3.68018e-06 2.31774e-06 0.000196321
0.000749038 8.93155e-05 -1.04198e-06
8.93155e-05 0.000167403 -9.50019e-07
-1.04198e-06 -9.50019e-07 5.7183e-05
0.00065357 8.37751e-05 -2.64627e-06
8.37751e-05 0.000119425 -7.54649e-07
-2.64627e-06 -7.54649e-07 1.71161e-05
0.00135626 8.47829e-05 -3.56788e-06
8.47829e-05 0.000554298 -1.52989e-06
-3.56788e-06 -1.52989e-06 0.000471592
0.000547258 3.45779e-06 2.03466e-07
3.45779e-06 5.11055e-05 -3.01168e-06
2.03466e-07 -3.01168e-06 -4.8119e-05
0.000682284 7.30626e-05 1.64184e-06
7.30626e-05 0.000150714 7.22211e-08
1.64184e-06 7.22211e-08 2.2645e-05
0.000139366 5.6176e-05 -1.05621e-06
5.6176e-05 -0.00016532 3.92078e-06
-1.05621e-06 3.92078e-06 -0.000274203
0.000581331 1.56459e-05 -1.03484e-06
1.56459e-05 7.91933e-05 1.65927e-08
-1.03484e-06 1.65927e-08 -2.66296e-05
0.000356713 -1.54354e-05 -8.57284e-07
-1.54354e-05 -4.00801e-05 1.54163e-07
-8.57284e-07 1.54163e-07 -0.000170574
0.000254922 3.44606e-05 6.81769e-07
3.44606e-05 -0.00012622 6.04388e-07
6.81769e-07 6.04388e-07 -0.000203456
0.00075743 7.45434e-05 8.67259e-07
7.45434e-05 0.000203562 -8.77873e-07
8.67259e-07 -8.77873e-07 7.02576e-05
0.00146341 9.75404e-05 -5.26932e-07
9.75404e-05 0.000585988 -2.91807e-06
-5.26932e-07 -2.91807e-06 0.000530434
0.000534391 1.11644e-05 6.92999e-06
1.11644e-05 4.23915e-05 -4.95355e-06
6.92999e-06 -4.95355e-06 -4.59526e-05
0.000432026 8.36015e-05 3.15853e-07
8.36015e-05 1.28914e-05 1.76678e-06
3.15853e-07 1.76678e-06 -0.000132105
0.000612065 4.43681e-05 2.48932e-06
4.43681e-05 0.000116078 2.47012e-06
2.48932e-06 2.47012e-06 -2.95888e-05
0.000604666 3.44455e-05 2.30057e-06
3.44455e-05 8.69646e-05 2.74484e-06
2.30057e-06 2.74484e-06 -1.95213e-05
0.000493243 -4.72267e-05 -1.38692e-07
-4.72267e-05 5.35946e-06 2.86955e-06
-1.38692e-07 2.86955e-06 -6.51623e-05
0.000518171 3.79181e-06 -1.66611e-07
3.79181e-06 1.61344e-05 -2.25117e-07
-1.66611e-07 -2.25117e-07 -4.87512e-05
0.00127644 1.6073e-05 2.22702e-06
1.6073e-05 0.00045735 2.65793e-06
2.22702e-06 2.65793e-06 0.000441603
0.000520171 -1.02638e-05 3.57731e-07
-1.02638e-05 1.03025e-05 -2.97184e-06
3.57731e-07 -2.97184e-06 -4.84307e-05
0.00129087 4.57096e-06 -4.28166e-06
4.57096e-06 0.000459767 -1.62317e-06
-4.28166e-06 -1.62317e-06 0.000445757
0.000755687 -1.21826e-05 1.68268e-05
-1.21826e-05 0.000127041 8.60125e-06
1.68268e-05 8.60125e-06 0.000133773
0.00134927 -9.01191e-06 -7.50949e-06
-9.01191e-06 0.000491063 -6.18781e-06
-7.50949e-06 -6.18781e-06 0.000477363
0.000784693 -2.30932e-05 5.77552e-06
-2.30932e-05 0.000139592 3.36871e-06
5.77552e-06 3.36871e-06 0.000145252
0.00074733 -3.24076e-05 -1.65974e-07
-3.24076e-05 0.000115717 -2.55857e-06
-1.65974e-07 -2.55857e-06 0.000120235
0.000642195 -6.009e-07 1.93486e-06
-6.009e-07 6.95318e-05 -1.78124e-06
1.93486e-06 -1.78124e-06 2.6585e-05
0.00047498 2.86978e-05 5.85658e-07
2.86978e-05 -4.86019e-05 -3.33947e-06
5.85658e-07 -3.33947e-06 -6.1676e-05
0.000483661 4.31358e-05 3.65462e-07
4.31358e-05 -3.04969e-05 2.22639e-07
3.65462e-07 2.22639e-07 -5.01359e-05
0.00213266 8.04012e-05 1.51208e-05
8.04012e-05 0.000996946 -3.99286e-06
1.51208e-05 -3.99286e-06 0.00100531
0.000506486 6.79982e-05 5.45235e-06
6.79982e-05 5.17906e-06 6.27627e-06
5.45235e-06 6.27627e-06 -2.88113e-05
0.00249045 0.000109194 -5.50823e-06
0.000109194 0.00122932 -5.36264e-07
-5.50823e-06 -5.36264e-07 0.00123007
0.00299649 0.000120828 -3.36177e-05
0.000120828 0.00154569 4.80542e-06
-3.36177e-05 4.80542e-06 0.0015419
0.00210713 0.00033299 1.1083e-07
0.00033299 8.62923e-05 -3.87581e-08
1.1083e-07 -3.87581e-08 8.0404e-06
0.00203785 0.000187691 -2.62444e-06
0.000187691 2.53571e-05 -7.26865e-07
-2.62444e-06 -7.26865e-07 9.88745e-06
0.00196485 5.83577e-05 -3.33614e-06
5.83577e-05 1.87094e-05 -2.55955e-07
-3.33614e-06 -2.55955e-07 1.19684e-05
0.00190541 -5.23689e-06 -5.21804e-06
-5.23689e-06 2.96212e-05 -1.87478e-07
-5.21804e-06 -1.87478e-07 4.67608e-07
0.0019428 -8.18237e-06 -8.887e-07
-8.18237e-06 5.26972e-06 8.10873e-09
-8.887e-07 8.10873e-09 9.44211e-07
0.0020643 9.77392e-05 -8.41649e-08
9.77392e-05 -1.97399e-05 1.36549e-07
-8.41649e-08 1.36549e-07 5.14859e-06
0.00216834 0.000286244 -1.05893e-06
0.000286244 1.66649e-05 -1.21373e-07
-1.05893e-06 -1.21373e-07 4.48705e-06
0.00203912 -1.02604e-05 -5.95533e-08
-1.02604e-05 -3.60375e-05 -5.00335e-07
-5.95533e-08 -5.00335e-07 -1.22283e-06
0.00223616 0.000150837 4.53521e-06
0.000150837 -2.52716e-05 -3.67066e-09
4.53521e-06 -3.67066e-09 1.07932e-05
0.00242205 0.000102032 4.61758e-06
0.000102032 0.000159561 1.22763e-05
4.61758e-06 1.22763e-05 0.000226541
0.00197231 -8.17576e-05 -3.76997e-06
-8.17576e-05 2.1659e-05 2.35406e-07
-3.76997e-06 2.35406e-07 1.33041e-05
0.00201003 -0.000221284 -1.95105e-06
-0.000221284 -2.91978e-05 2.19997e-07
-1.95105e-06 2.19997e-07 -2.81016e-05
0.00202423 -0.000349722 -1.48009e-06
-0.000349722 4.21649e-05 3.89184e-07
-1.48009e-06 3.89184e-07 2.94287e-06
0.00103673 -0.000418812 1.62817e-06
-0.000418812 0.000121082 9.64008e-07
1.62817e-06 9.64008e-07 -0.000204023
0.00167893 -0.000630105 6.12659e-06
-0.000630105 0.000377396 2.61245e-07
6.12659e-06 2.61245e-07 -2.3556e-05
0.00207433 -0.000669245 8.3966e-07
-0.000669245 0.000448914 2.74235e-07
8.3966e-07 2.74235e-07 9.42727e-05
0.00199421 -0.000456579 2.68312e-07
-0.000456579 4.92074e-05 2.3978e-06
2.68312e-07 2.3978e-06 -5.36616e-05
0.00186093 -0.000545971 -5.62707e-06
-0.000545971 0.000117321 -2.55386e-06
-5.62707e-06 -2.55386e-06 -9.01031e-05
0.00070082 -0.00035226 -7.30248e-06
-0.00035226 -6.01031e-05 -1.06026e-06
-7.30248e-06 -1.06026e-06 -0.000368172
0.00209238 -0.000381544 1.47881e-05
-0.000381544 0.000969597 -7.73269e-06
1.47881e-05 -7.73269e-06 0.000584484
0.00108423 -6.88468e-05 3.71829e-08
-6.88468e-05 0.000375819 1.93091e-06
3.71829e-08 1.93091e-06 0.000129349
0.000452428 1.72536e-05 1.27386e-06
1.72536e-05 -3.19285e-05 -3.66017e-07
1.27386e-06 -3.66017e-07 -8.59901e-05
0.000805101 3.79979e-05 5.0874e-06
3.79979e-05 0.00022796 1.22247e-07
5.0874e-06 1.22247e-07 9.63955e-05
0.000639076 -8.6544e-05 1.22768e-06
-8.6544e-05 0.000152867 2.91473e-06
1.22768e-06 2.91473e-06 -5.108e-05
0.00204148 -0.000114745 5.65644e-07
-0.000114745 -2.49918e-05 -1.77042e-08
5.65644e-07 -1.77042e-08 2.8739e-06
0.000517917 1.47575e-05 1.36726e-06
1.47575e-05 -3.82433e-06 2.50834e-07
1.36726e-06 2.50834e-07 -4.866e-05
0.000450956 -6.43965e-05 -1.88165e-06
-6.43965e-05 -2.27219e-05 -2.5091e-07
-1.88165e-06 -2.5091e-07 -0.000100582
0.00213304 -0.000296445 -2.48121e-07
-0.000296445 -2.43876e-05 1.91388e-07
-2.48121e-07 1.91388e-07 8.85228e-06
0.00207361 -0.000404313 -1.41085e-06
-0.000404313 2.90341e-05 1.21185e-07
-1.41085e-06 1.21185e-07 9.03728e-06
0.00163161 -0.000547815 -2.0436e-06
-0.000547815 0.000453831 8.8816e-07
-2.0436e-06 8.8816e-07 7.33427e-05
0.00183521 -0.000703053 1.85508e-06
-0.000703053 0.000443617 1.20435e-06
1.85508e-06 1.20435e-06 -2.91576e-06
0.00182741 -0.000685847 4.87222e-06
-0.000685847 0.000229653 -3.25803e-06
4.87222e-06 -3.25803e-06 -0.000107946
0.00217998 -0.000595789 2.79475e-06
-0.000595789 0.000152831 -8.19448e-07
2.79475e-06 -8.19448e-07 1.37173e-05
0.000697503 -8.32802e-07 2.1978e-08
-8.32802e-07 0.000164092 -1.4145e-06
2.1978e-08 -1.4145e-06 6.27705e-05
0.000674793 -3.6801e-05 2.87969e-07
-3.6801e-05 0.000175856 1.73987e-06
2.87969e-07 1.73987e-06 2.52538e-06
0.00159328 -0.000458516 3.58904e-06
-0.000458516 0.000467596 7.08663e-09
3.58904e-06 7.08663e-09 0.000130956
0.00154036 -0.000355338 1.62579e-05
-0.000355338 0.000696899 -4.11347e-06
1.62579e-05 -4.11347e-06 0.000239554
0.000480987 -6.3184e-05 -3.74483e-06
-6.3184e-05 1.43954e-05 -1.16466e-06
-3.74483e-06 -1.16466e-06 -0.000274542
0.000569037 -5.07225e-05 9.69599e-07
-5.07225e-05 8.72453e-05 -1.62628e-06
9.69599e-07 -1.62628e-06 -0.000128834
0.00207411 -0.000133468 2.36931e-06
-0.000133468 -0.0001125 -1.29499e-06
2.36931e-06 -1.29499e-06 -7.44167e-05
0.00210045 -0.000376113 -1.59838e-06
-0.000376113 -0.000171218 1.51733e-06
-1.59838e-06 1.51733e-06 -1.80824e-05
0.00219304 -0.000544797 -5.42398e-06
-0.000544797 3.59428e-05 3.6881e-07
-5.42398e-06 3.6881e-07 -1.06119e-05
0.00176528 -0.00070921 5.33414e-06
-0.00070921 2.23211e-05 -3.99823e-06
5.33414e-06 -3.99823e-06 -0.000171968
0.00107449 -0.000509626 -1.34836e-06
-0.000509626 0.000158453 -8.56566e-06
-1.34836e-06 -8.56566e-06 -0.000229095
0.00247461 -0.000843813 -1.25313e-05
-0.000843813 0.00072751 1.08321e-05
-1.25313e-05 1.08321e-05 0.000244785
0.00023669 4.80776e-05 -1.18686e-06
4.80776e-05 -0.00014253 -3.10057e-06
-1.18686e-06 -3.10057e-06 -0.000228154
0.000610223 -5.7246e-05 5.24513e-06
-5.7246e-05 7.26521e-05 -3.8298e-07
5.24513e-06 -3.8298e-07 -1.39919e-06
0.000997838 -0.000130339 1.55317e-06
-0.000130339 0.000312863 5.13949e-06
1.55317e-06 5.13949e-06 0.000209739
0.000537046 2.75097e-05 -4.02161e-06
2.75097e-05 7.44916e-05 8.93749e-06
-4.02161e-06 8.93749e-06 -6.94354e-05
0.000800996 -8.9671e-05 -5.2623e-06
-8.9671e-05 0.000230071 7.7584e-06
-5.2623e-06 7.7584e-06 5.26593e-05
0.00158729 -4.95478e-05 6.07493e-06
-4.95478e-05 0.000622557 -3.54289e-06
6.07493e-06 -3.54289e-06 0.000411651
-0.00106081 -0.000179807 7.42684e-06
-0.000179807 -0.000571471 7.20992e-07
7.42684e-06 7.20992e-07 -0.00122073
-0.000179263 -0.000415417 -3.4648e-05
-0.000415417 -0.000615867 7.32251e-06
-3.4648e-05 7.32251e-06 -0.000930244
0.000394157 5.79402e-05 -2.56525e-07
5.79402e-05 -2.36543e-05 -1.00035e-06
-2.56525e-07 -1.00035e-06 -0.000160769
0.00106147 0.000206725 -8.55565e-06
0.000206725 0.000441785 -6.10371e-06
-8.55565e-06 -6.10371e-06 0.000207685
0.00226879 0.000407805 -6.20981e-06
0.000407805 1.21866e-05 -2.96123e-06
-6.20981e-06 -2.96123e-06 -6.56088e-06
0.00226145 0.000530603 -3.73944e-06
0.000530603 0.000287282 5.08561e-07
-3.73944e-06 5.08561e-07 9.39993e-05
0.00190571 0.000307899 -6.8908e-06
0.000307899 0.000743063 -9.49296e-07
-6.8908e-06 -9.49296e-07 0.000532455
0.00166803 0.000423831 -4.36933e-06
0.000423831 0.000520119 -3.02431e-06
-4.36933e-06 -3.02431e-06 0.000227402
0.00201326 0.00060351 2.41076e-06
0.00060351 0.000316572 2.25802e-06
2.41076e-06 2.25802e-06 1.77605e-05
0.00175355 0.000576215 -2.20663e-07
0.000576215 0.000412068 -2.14488e-07
-2.20663e-07 -2.14488e-07 5.19007e-05
0.000472743 8.81323e-05 7.65782e-07
8.81323e-05 2.54748e-05 -1.04467e-06
7.65782e-07 -1.04467e-06 -0.000124469
0.00227052 0.000316929 -1.88059e-06
0.000316929 -4.45695e-05 -1.40454e-06
-1.88059e-06 -1.40454e-06 8.58815e-06
0.00142646 0.000285857 1.5224e-06
0.000285857 0.000604527 1.74838e-06
1.5224e-06 1.74838e-06 0.000350584
0.00151735 0.000423855 1.63361e-06
0.000423855 0.00041373 9.46498e-07
1.63361e-06 9.46498e-07 0.000122286
0.00248294 0.000519498 1.65556e-06
0.000519498 0.000275706 4.01708e-07
1.65556e-06 4.01708e-07 0.000173487
0.00164795 0.000608066 -1.87784e-06
0.000608066 1.33188e-05 -4.47952e-06
-1.87784e-06 -4.47952e-06 -0.000276572
0.00194941 0.000624323 4.04267e-07
0.000624323 0.000491566 2.77003e-07
4.04267e-07 2.77003e-07 0.000109861
0.0011274 0.000219054 -4.01027e-06
0.000219054 0.000463444 4.7675e-06
-4.01027e-06 4.7675e-06 0.000257496
0.00297253 0.000414639 -6.88562e-05
0.000414639 0.000414784 -1.89082e-05
-6.88562e-05 -1.89082e-05 0.000489969
0.00175924 0.000435529 -4.56488e-06
0.000435529 0.000709695 2.76551e-06
-4.56488e-06 2.76551e-06 0.000425188
0.00147179 0.00049381 -3.34999e-06
0.00049381 0.000304977 -5.88094e-06
-3.34999e-06 -5.88094e-06 -4.06103e-05
0.00211646 0.000659609 -3.54452e-05
0.000659609 0.000150306 -1.81935e-05
-3.54452e-05 -1.81935e-05 -5.14994e-05
0.00107535 0.000563068 -2.67377e-05
0.000563068 -6.35172e-05 -3.46705e-06
-2.67377e-05 -3.46705e-06 -0.000422322
0.000386402 0.000591761 2.96463e-05
0.000591761 -0.00131325 -3.42176e-05
2.96463e-05 -3.42176e-05 -0.00127268
0.000246458 9.61465e-05 2.27001e-06
9.61465e-05 -0.000112137 -4.60639e-07
2.27001e-06 -4.60639e-07 -0.000220823
0.000559565 8.86648e-05 -5.67215e-07
8.86648e-05 0.000100532 1.00163e-06
-5.67215e-07 1.00163e-06 1.17755e-05
0.00177714 0.000134745 8.64661e-07
0.000134745 0.000801189 -2.29837e-06
8.64661e-07 -2.29837e-06 0.000717697
0.000485851 -6.4215e-05 5.96808e-07
-6.4215e-05 2.94297e-05 -3.5546e-06
5.96808e-07 -3.5546e-06 -8.02935e-05
0.000448934 -4.10178e-05 -1.10067e-06
-4.10178e-05 1.26332e-05 -4.40049e-07
-1.10067e-06 -4.40049e-07 -0.000114182
0.000933952 0.000162683 1.87406e-07
0.000162683 0.000314919 1.4128e-06
1.87406e-07 1.4128e-06 0.000171838
-1.7786e-05 1.4825e-05 -3.22158e-06
1.4825e-05 -0.000275271 1.01073e-05
-3.22158e-06 1.01073e-05 -0.000351858
0.000562372 -1.63403e-05 -5.03817e-07
-1.63403e-05 7.597e-05 -4.31803e-08
-5.03817e-07 -4.31803e-08 -3.89473e-05
0.000525985 5.82723e-05 1.66336e-07
5.82723e-05 4.57202e-05 -6.05537e-07
1.66336e-07 -6.05537e-07 -8.53393e-05
0.000954518 8.14079e-05 1.34464e-06
8.14079e-05 0.000276856 3.39135e-06
1.34464e-06 3.39135e-06 0.000217341
0.000616317 5.10805e-05 1.44731e-06
5.10805e-05 0.000109919 6.62342e-07
1.44731e-06 6.62342e-07 -2.69819e-05
0.000666485 3.62044e-05 -1.6042e-06
3.62044e-05 0.000116373 -1.51522e-06
-1.6042e-06 -1.51522e-06 2.2304e-05
0.00143016 0.000100069 -2.81287e-07
0.000100069 0.000585747 -9.72981e-06
-2.81287e-07 -9.72981e-06 0.00052842
0.000948646 0.000103549 -2.20867e-06
0.000103549 0.000290571 -2.51299e-06
-2.20867e-06 -2.51299e-06 0.000146747
0.000953232 0.00011477 1.17393e-06
0.00011477 0.000307862 9.74154e-07
1.17393e-06 9.74154e-07 0.000169066
0.000784371 6.84475e-05 3.63013e-07
6.84475e-05 0.000223302 1.50004e-06
3.63013e-07 1.50004e-06 6.62783e-05
0.000341994 -2.32096e-05 1.01372e-07
-2.32096e-05 -7.68457e-05 3.09209e-06
1.01372e-07 3.09209e-06 -0.000189744
0.000970228 -4.16914e-05 -1.26784e-07
-4.16914e-05 0.000367751 -1.26078e-06
-1.26784e-07 -1.26078e-06 0.00020425
0.000274331 -3.39562e-05 -1.84234e-06
-3.39562e-05 -0.000114448 2.70726e-06
-1.84234e-06 2.70726e-06 -0.000231978
0.000488507 3.46297e-06 -1.97514e-06
3.46297e-06 6.95384e-06 3.00897e-06
-1.97514e-06 3.00897e-06 -6.84056e-05
0.000507924 3.34952e-05 2.25848e-06
3.34952e-05 1.64584e-05 -1.43467e-07
2.25848e-06 -1.43467e-07 -5.62812e-05
0.000422038 2.15281e-05 9.47426e-07
2.15281e-05 -6.32478e-05 4.15321e-06
9.47426e-07 4.15321e-06 -8.40069e-05
0.000485323 6.55223e-06 -2.92475e-06
6.55223e-06 1.20302e-06 -3.09843e-06
-2.92475e-06 -3.09843e-06 -6.74187e-05
0.000897115 1.52621e-05 -3.01343e-06
1.52621e-05 0.000224104 -1.60762e-06
-3.01343e-06 -1.60762e-06 0.00020631
0.00253874 -9.20702e-06 1.40133e-05
-9.20702e-06 0.0012291 5.33331e-06
1.40133e-05 5.33331e-06 0.00124276
0.00137302 8.14116e-06 -6.69128e-06
8.14116e-06 0.000510958 -6.10096e-06
-6.69128e-06 -6.10096e-06 0.000496542
0.000773465 -1.35187e-05 4.40776e-06
-1.35187e-05 0.000134865 3.32061e-06
4.40776e-06 3.32061e-06 0.000141342
0.000777162 -2.28139e-05 3.52027e-07
-2.28139e-05 0.000132251 -2.47386e-06
3.52027e-07 -2.47386e-06 0.000137941
0.000525598 1.6173e-05 -1.29232e-06
1.6173e-05 3.6296e-06 -1.77934e-06
-1.29232e-06 -1.77934e-06 -3.96154e-05
0.000570019 -1.37988e-05 9.67055e-07
-1.37988e-05 2.65796e-05 -2.88059e-07
9.67055e-07 -2.88059e-07 -1.72845e-05
0.00052807 2.27561e-05 5.17768e-07
2.27561e-05 -1.85667e-05 -3.37741e-06
5.17768e-07 -3.37741e-06 -2.95208e-05
0.000809212 3.68707e-05 -1.81642e-07
3.68707e-05 0.000160359 9.31236e-08
-1.81642e-07 9.31236e-08 0.000148387
0.00210144 6.44147e-05 1.18251e-05
6.44147e-05 0.000969774 -4.21403e-06
1.18251e-05 -4.21403e-06 0.000981675
0.000502202 4.97311e-05 2.82135e-06
4.97311e-05 -1.58336e-05 4.17918e-06
2.82135e-06 4.17918e-06 -3.7537e-05
0.00227008 8.6657e-05 -2.95346e-06
8.6657e-05 0.00108347 -2.40664e-07
-2.95346e-06 -2.40664e-07 0.00109022
0.00259639 0.000114894 -9.70479e-06
0.000114894 0.00129555 5.04838e-06
-9.70479e-06 5.04838e-06 0.00129488
0.00210187 0.000290717 -2.46594e-06
0.000290717 -2.15268e-05 -1.19734e-06
-2.46594e-06 -1.19734e-06 -3.08038e-05
0.00204735 9.23023e-05 2.90233e-07
9.23023e-05 -2.21493e-05 1.32568e-07
2.90233e-07 1.32568e-07 4.28599e-07
0.00194258 -4.26555e-06 -2.83992e-06
-4.26555e-06 2.39413e-06 -1.2271e-07
-2.83992e-06 -1.2271e-07 9.45826e-07
0.00203329 -7.09547e-06 1.40292e-07
-7.09547e-06 -3.81037e-05 -1.73678e-07
1.40292e-07 -1.73678e-07 -3.54665e-06
0.00221386 0.000154291 -2.24854e-07
0.000154291 -2.24474e-05 2.60426e-07
-2.24854e-07 2.60426e-07 1.23393e-05
0.00211286 8.06626e-05 7.61757e-06
8.06626e-05 -4.58271e-05 -4.46993e-06
7.61757e-06 -4.46993e-06 1.66515e-05
0.00222682 -6.07651e-06 1.95204e-06
-6.07651e-06 -6.57443e-05 -6.51011e-07
1.95204e-06 -6.51011e-07 2.14231e-06
0.00400206 0.000595338 4.26523e-05
0.000595338 -0.0003955 8.12999e-06
4.26523e-05 8.12999e-06 0.000115953
0.00241817 5.90857e-05 -2.79136e-05
5.90857e-05 0.00030039 2.8335e-05
-2.79136e-05 2.8335e-05 0.000464288
0.000506904 9.92957e-05 -1.18015e-06
9.92957e-05 3.28336e-05 -1.99239e-07
-1.18015e-06 -1.99239e-07 -5.17394e-05
0.00205027 -0.000116018 -3.2852e-07
-0.000116018 -2.72562e-05 5.36736e-08
-3.2852e-07 5.36736e-08 2.79704e-06
0.00210754 -0.000285989 1.55084e-06
-0.000285989 -2.04086e-05 -1.38321e-07
1.55084e-06 -1.38321e-07 6.17486e-06
0.00202098 -0.000398164 3.50375e-08
-0.000398164 -2.07669e-06 5.35506e-07
3.50375e-08 5.35506e-07 -1.66276e-05
0.000976817 -0.000481286 -8.57933e-06
-0.000481286 6.91546e-05 5.39238e-06
-8.57933e-06 5.39238e-06 -0.000296352
0.00220184 -0.000741074 7.32021e-06
-0.000741074 0.000646966 7.1792e-06
7.32021e-06 7.1792e-06 0.000193456
0.0016741 -0.000674394 -3.55059e-06
-0.000674394 0.000128703 -8.33386e-06
-3.55059e-06 -8.33386e-06 -0.000204047
0.00220666 -0.000593721 -3.83523e-06
-0.000593721 0.000180343 -1.0796e-07
-3.83523e-06 -1.0796e-07 4.05781e-05
0.00163693 -0.000449364 1.72017e-05
-0.000449364 0.000466855 -1.51071e-05
1.72017e-05 -1.51071e-05 0.000139194
0.000599561 -0.000242665 1.81247e-05
-0.000242665 0.000125398 -1.31151e-05
1.81247e-05 -1.31151e-05 -0.000267773
0.00134124 -8.22674e-05 2.02022e-06
-8.22674e-05 0.000507563 -1.7924e-07
2.02022e-06 -1.7924e-07 0.000247996
0.000526597 8.29294e-06 6.18625e-08
8.29294e-06 3.65233e-06 1.16493e-06
6.18625e-08 1.16493e-06 -4.12716e-05
0.000980715 -3.17625e-05 2.13856e-06
-3.17625e-05 0.000347748 2.83526e-06
2.13856e-06 2.83526e-06 0.000120466
0.000829269 -1.89932e-05 4.63676e-06
-1.89932e-05 0.000253507 -2.55354e-06
4.63676e-06 -2.55354e-06 0.000151209
0.000815165 -3.66323e-05 2.84435e-06
-3.66323e-05 0.00025743 -3.91246e-06
2.84435e-06 -3.91246e-06 8.40347e-05
0.000248585 -3.97288e-05 -4.19234e-06
-3.97288e-05 -0.000154738 1.14998e-06
-4.19234e-06 1.14998e-06 -0.000229076
0.00212798 -0.000149912 -5.75265e-07
-0.000149912 -0.000108978 -1.40409e-07
-5.75265e-07 -1.40409e-07 -4.9212e-05
0.000397336 3.05531e-05 -3.89961e-08
3.05531e-05 -3.36185e-05 -1.84114e-06
-3.89961e-08 -1.84114e-06 -0.000124468
0.000589159 -5.35465e-05 1.9376e-06
-5.35465e-05 7.79311e-05 8.48375e-07
1.9376e-06 8.48375e-07 -5.12032e-06
0.000824624 -0.00010334 1.82108e-06
-0.00010334 0.000202984 3.99342e-07
1.82108e-06 3.99342e-07 0.000106212
0.00212903 -0.000384486 1.66434e-06
-0.000384486 -0.000132329 -5.93318e-07
1.66434e-06 -5.93318e-07 -1.19358e-05
0.00220241 -0.000548815 6.66098e-07
-0.000548815 4.25107e-05 -1.1093e-06
6.66098e-07 -1.1093e-06 -6.17977e-06
0.000693639 -0.000425626 6.72816e-06
-0.000425626 -5.57989e-05 3.35471e-08
6.72816e-06 3.35471e-08 -0.000409109
0.00242704 -0.000842426 1.09649e-05
-0.000842426 0.000703853 -3.80241e-07
1.09649e-05 -3.80241e-07 0.000232726
0.00222289 -0.000746775 -2.40947e-06
-0.000746775 0.000296779 1.85007e-06
-2.40947e-06 1.85007e-06 8.33809e-05
0.000199171 -3.13681e-05 -6.83309e-07
-3.13681e-05 -0.000133326 -1.00779e-06
-6.83309e-07 -1.00779e-06 -0.000264766
0.000905794 -9.31354e-05 -1.22169e-06
-9.31354e-05 0.000308187 1.11232e-06
-1.22169e-06 1.11232e-06 0.000115378
0.00131844 -0.000582474 -5.60331e-06
-0.000582474 0.000256854 1.81132e-06
-5.60331e-06 1.81132e-06 -0.000120218
0.000388846 -0.000147592 2.95755e-07
-0.000147592 0.000111041 -2.5453e-06
2.95755e-07 -2.5453e-06 -0.000394554
0.00080258 -6.1991e-05 8.56845e-07
-6.1991e-05 0.000149925 2.16879e-06
8.56845e-07 2.16879e-06 -5.31111e-05
0.00255023 -0.000283382 -3.02176e-06
-0.000283382 0.000134672 -3.236e-07
-3.02176e-06 -3.236e-07 0.000200271
0.00192646 -0.000415897 -1.76528e-05
-0.000415897 -0.000237929 4.99501e-06
-1.76528e-05 4.99501e-06 -6.71681e-05
0.002046 -0.000681658 -1.02301e-05
-0.000681658 4.42913e-05 3.62261e-07
-1.02301e-05 3.62261e-07 -0.000113292
0.00343446 -0.000918518 -2.07221e-05
-0.000918518 0.0010936 -1.21818e-06
-2.07221e-05 -1.21818e-06 0.000803304
0.000785081 -0.000542298 -2.40849e-05
-0.000542298 -1.76181e-05 -2.63703e-06
-2.40849e-05 -2.63703e-06 -0.000403061
0.000220678 -1.99247e-05 1.85129e-06
-1.99247e-05 -0.000138447 7.88043e-07
1.85129e-06 7.88043e-07 -0.000240978
0.000455572 5.8394e-06 5.70577e-07
5.8394e-06 -4.30391e-05 4.43229e-06
5.70577e-07 4.43229e-06 -0.000136671
-0.000394406 -4.58295e-05 -1.34632e-06
-4.58295e-05 -0.000533017 -3.08059e-06
-1.34632e-06 -3.08059e-06 -0.000624709
0.00196818 -0.000251895 -1.27264e-05
-0.000251895 0.000978764 1.6532e-05
-1.27264e-05 1.6532e-05 0.000802899
0.00101818 -9.66367e-05 -6.088e-06
-9.66367e-05 0.000343732 1.55538e-05
-6.088e-06 1.55538e-05 0.000171753
-0.00114342 -9.09325e-05 2.87631e-06
-9.09325e-05 -0.000511913 3.50095e-06
2.87631e-06 3.50095e-06 -0.00111782
-0.000166867 -0.000707975 -8.1544e-06
-0.000707975 -0.000222347 -3.90875e-06
-8.1544e-06 -3.90875e-06 -0.000856852
0.00116474 0.000155566 -1.19946e-06
0.000155566 0.000459889 -6.00449e-06
-1.19946e-06 -6.00449e-06 0.000286842
0.000369224 0.000128454 -3.90696e-06
0.000128454 -6.52553e-05 -3.09987e-06
-3.90696e-06 -3.09987e-06 -0.000276285
0.00240963 0.00029442 6.30448e-06
0.00029442 3.26502e-05 -1.57376e-08
6.30448e-06 -1.57376e-08 9.80328e-05
0.00235717 0.000512874 1.60261e-05
0.000512874 0.00020846 5.34548e-06
1.60261e-05 5.34548e-06 0.000110797
0.00215564 0.000644833 1.84318e-05
0.000644833 0.000306981 4.68646e-06
1.84318e-05 4.68646e-06 1.54947e-05
0.00129916 0.000400205 -7.54704e-07
0.000400205 0.000291021 1.13852e-06
-7.54704e-07 1.13852e-06 7.78702e-07
0.0016422 0.000586799 3.68074e-06
0.000586799 0.000326692 3.32846e-06
3.68074e-06 3.32846e-06 -4.82993e-05
0.00171279 0.000218841 9.95745e-08
0.000218841 0.00078037 -9.64572e-08
9.95745e-08 -9.64572e-08 0.000590404
0.00255477 0.000347146 4.69987e-07
0.000347146 0.000209783 1.68605e-06
4.69987e-07 1.68605e-06 0.000302962
0.00126578 0.000350062 -2.06801e-06
0.000350062 0.000389687 2.16092e-06
-2.06801e-06 2.16092e-06 0.00013193
0.0016882 0.000522887 2.39559e-06
0.000522887 0.000460448 -7.26863e-07
2.39559e-06 -7.26863e-07 9.87525e-05
0.00206415 0.000647175 -3.49003e-06
0.000647175 0.000123212 -3.37372e-06
-3.49003e-06 -3.37372e-06 -6.04664e-05
0.00166441 0.000627271 -4.34833e-06
0.000627271 0.000282036 4.80964e-06
-4.34833e-06 4.80964e-06 -9.23793e-05
0.00308577 0.000845759 5.25714e-05
0.000845759 -0.00017269 4.35098e-06
5.25714e-05 4.35098e-06 -0.000263238
0.00104125 0.000265377 -4.94536e-06
0.000265377 0.000406218 2.30254e-06
-4.94536e-06 2.30254e-06 0.000189945
0.00305756 0.000622929 -8.23592e-05
0.000622929 0.000614725 -3.35989e-05
-8.23592e-05 -3.35989e-05 0.000563108
0.000919911 0.000369782 -4.11802e-06
0.000369782 4.17777e-05 2.81004e-07
-4.11802e-06 2.81004e-07 -0.000238014
8.77896e-05 0.000383072 -2.52653e-06
0.000383072 -0.000475448 -1.50487e-05
-2.52653e-06 -1.50487e-05 -0.00081631
0.000656295 0.000627183 -3.56118e-05
0.000627183 -0.000442721 -1.06145e-05
-3.56118e-05 -1.06145e-05 -0.000656081
0.0133838 0.000358269 -0.000378345
0.000358269 0.00233884 -4.50698e-05
-0.000378345 -4.50698e-05 0.00161369
0.00503127 0.00135449 2.50424e-05
0.00135449 -0.000559326 -8.34518e-05
2.50424e-05 -8.34518e-05 -3.66041e-06
-0.000695775 0.000874024 -2.51211e-06
0.000874024 -0.00128347 1.32727e-06
-2.51211e-06 1.32727e-06 -0.00156561
-0.00157638 -0.00155323 0.00103666
-0.00155323 0.000635241 0.000229613
0.00103666 0.000229613 -0.00198088
0.016667 -0.00606444 -1.15328e-05
-0.00606444 0.00544528 6.57028e-05
-1.15328e-05 6.57028e-05 0.0048884
3.44203e-05 8.83039e-05 6.96586e-06
8.83039e-05 -0.000194363 1.54336e-06
6.96586e-06 1.54336e-06 -0.000288083
0.00105566 9.70929e-05 3.61651e-07
9.70929e-05 0.000400471 -2.45758e-06
3.61651e-07 -2.45758e-06 0.000319544
0.00192724 0.000220184 -3.76575e-07
0.000220184 0.000949641 -8.66557e-07
-3.76575e-07 -8.66557e-07 0.000839201
0.000530429 -5.77051e-05 -8.93818e-07
-5.77051e-05 6.53682e-05 -2.60091e-06
-8.93818e-07 -2.60091e-06 -5.46261e-05
0.000469189 6.21478e-05 -1.07456e-06
6.21478e-05 1.23046e-05 -2.23088e-06
-1.07456e-06 -2.23088e-06 -0.000121344
0.00074376 -1.5502e-05 5.07343e-09
-1.5502e-05 0.000187925 -6.59113e-07
5.07343e-09 -6.59113e-07 4.90756e-05
0.000675904 5.82313e-05 -3.99707e-06
5.82313e-05 0.000116937 8.05629e-06
-3.99707e-06 8.05629e-06 1.79114e-05
0.000471005 6.15788e-05 2.83024e-06
6.15788e-05 -1.87273e-05 7.86909e-06
2.83024e-06 7.86909e-06 -8.12659e-05
0.000677069 0.000113722 -1.79404e-06
0.000113722 0.000159687 -5.14016e-07
-1.79404e-06 -5.14016e-07 4.15443e-06
0.000440369 -5.80946e-06 4.19921e-07
-5.80946e-06 -7.66624e-06 9.38182e-07
4.19921e-07 9.38182e-07 -0.000124624
0.000667631 3.61211e-05 -5.12609e-07
3.61211e-05 0.000145588 -3.55618e-08
-5.12609e-07 -3.55618e-08 -4.77899e-06
0.000530639 7.39642e-05 -4.38228e-07
7.39642e-05 2.98982e-05 -3.90445e-07
-4.38228e-07 -3.90445e-07 -2.76288e-05
0.000708342 9.7622e-05 -1.40401e-06
9.7622e-05 0.000152406 -3.48782e-07
-1.40401e-06 -3.48782e-07 1.2013e-05
0.00122103 0.000149863 -1.68443e-06
0.000149863 0.00048577 -1.06186e-06
-1.68443e-06 -1.06186e-06 0.000320524
0.00035291 9.11445e-05 9.38757e-07
9.11445e-05 -1.85478e-05 -2.70263e-06
9.38757e-07 -2.70263e-06 -0.00016776
0.000803619 9.74424e-05 2.48162e-06
9.74424e-05 0.000227486 5.74917e-07
2.48162e-06 5.74917e-07 7.82596e-05
0.000534821 -2.93387e-05 1.78193e-06
-2.93387e-05 4.94371e-05 6.8859e-07
1.78193e-06 6.8859e-07 -9.82314e-05
0.000361722 -6.57671e-05 -1.3808e-06
-6.57671e-05 -5.8686e-05 2.74885e-06
-1.3808e-06 2.74885e-06 -0.000179989
0.000743034 -2.08188e-05 -8.42606e-07
-2.08188e-05 0.000190327 -9.32474e-09
-8.42606e-07 -9.32474e-09 3.83493e-05
0.00102998 1.99566e-05 -5.8224e-08
1.99566e-05 0.000359808 -7.3894e-06
-5.8224e-08 -7.3894e-06 0.000213491
0.000555384 -3.09401e-05 -1.13437e-06
-3.09401e-05 0.000101208 -1.71309e-08
-1.13437e-06 -1.71309e-08 -4.04578e-05
0.000773752 -4.2e-05 1.72987e-06
-4.2e-05 0.000221077 -5.88563e-07
1.72987e-06 -5.88563e-07 7.44428e-05
0.000657786 -0.000111055 -2.68672e-06
-0.000111055 0.000129917 1.75096e-06
-2.68672e-06 1.75096e-06 1.0385e-05
0.000343687 -2.13262e-05 1.41033e-07
-2.13262e-05 -6.81082e-05 1.13464e-06
1.41033e-07 1.13464e-06 -0.000189018
0.000521528 -4.46963e-05 -2.29709e-06
-4.46963e-05 1.8554e-05 3.20658e-06
-2.29709e-06 3.20658e-06 -5.23503e-05
0.00052288 -3.20293e-05 1.72322e-06
-3.20293e-05 2.55906e-05 6.13532e-08
1.72322e-06 6.13532e-08 -4.86156e-05
0.000487417 4.36951e-06 1.76068e-06
4.36951e-06 -2.08257e-05 6.07093e-06
1.76068e-06 6.07093e-06 -4.255e-05
0.000543104 4.15495e-05 -1.60137e-06
4.15495e-05 3.30386e-05 -3.13693e-06
-1.60137e-06 -3.13693e-06 -3.65248e-05
0.000448083 2.44144e-05 4.37998e-07
2.44144e-05 -4.63649e-05 6.30163e-08
4.37998e-07 6.30163e-08 -6.76496e-05
0.00247642 1.30711e-06 1.40286e-06
1.30711e-06 0.00119254 5.30105e-06
1.40286e-06 5.30105e-06 0.001206
0.000513291 2.62194e-05 -2.52693e-06
2.62194e-05 -1.12191e-05 -6.55788e-06
-2.52693e-06 -6.55788e-06 -3.24533e-05
0.00168021 -7.69729e-06 -1.26276e-06
-7.69729e-06 0.000698144 1.25275e-07
-1.26276e-06 1.25275e-07 0.000707407
0.000789091 -1.30369e-05 5.63229e-07
-1.30369e-05 0.000140978 -2.26942e-06
5.63229e-07 -2.26942e-06 0.000147636
0.000502895 -5.78711e-06 5.72125e-07
-5.78711e-06 -1.07262e-05 -1.2906e-06
5.72125e-07 -1.2906e-06 -4.96908e-05
0.000567715 -3.32288e-05 2.23766e-07
-3.32288e-05 3.1378e-05 -4.34844e-08
2.23766e-07 -4.34844e-08 -1.35434e-05
0.000542453 1.33001e-05 9.93299e-07
1.33001e-05 -1.17334e-05 -3.04154e-06
9.93299e-07 -3.04154e-06 -2.05004e-05
0.000518148 -2.86489e-05 -2.03842e-06
-2.86489e-05 -5.9566e-06 1.1397e-06
-2.03842e-06 1.1397e-06 -4.96613e-05
0.000798317 2.69187e-05 -5.85151e-08
2.69187e-05 0.000148911 -7.31301e-07
-5.85151e-08 -7.31301e-07 0.000140062
0.00198434 4.78543e-05 8.22787e-06
4.78543e-05 0.000891884 -4.32326e-06
8.22787e-06 -4.32326e-06 0.000906929
0.000502758 3.27963e-05 -2.98661e-07
3.27963e-05 -2.83258e-05 3.31266e-06
-2.98661e-07 3.31266e-06 -4.25988e-05
0.00215067 6.76442e-05 -6.34982e-06
6.76442e-05 0.00100299 1.12197e-06
-6.34982e-06 1.12197e-06 0.00101403
0.00233746 9.16081e-05 -8.82588e-06
9.16081e-05 0.00112655 4.5358e-06
-8.82588e-06 4.5358e-06 0.00113212
0.00218613 0.000158917 -3.00759e-06
0.000158917 -2.15658e-05 -1.30947e-06
-3.00759e-06 -1.30947e-06 1.21533e-05
0.00202419 -6.08711e-06 2.65398e-07
-6.08711e-06 -4.20753e-05 7.55744e-08
2.65398e-07 7.55744e-08 -7.98098e-06
0.00186364 5.81804e-05 4.19904e-07
5.81804e-05 -0.000222185 6.30733e-07
4.19904e-07 6.30733e-07 -0.000163048
0.00241746 0.000433801 6.95994e-05
0.000433801 -0.00106157 1.62822e-05
6.95994e-05 1.62822e-05 -0.000619999
0.00220227 -2.80149e-05 -1.51589e-06
-2.80149e-05 -6.17695e-05 -2.06676e-06
-1.51589e-06 -2.06676e-06 6.45876e-06
0.0021234 6.18238e-05 1.43335e-06
6.18238e-05 0.000139207 -7.99599e-06
1.43335e-06 -7.99599e-06 0.000254838
0.00325592 -3.18908e-05 -2.58917e-05
-3.18908e-05 0.000911254 4.0234e-06
-2.58917e-05 4.0234e-06 0.000910991
0.00274141 -1.27747e-05 -3.41342e-06
-1.27747e-05 -0.001714 -2.53965e-05
-3.41342e-06 -2.53965e-05 -0.000968872
0.0027066 0.000162443 9.00912e-05
0.000162443 -0.000490954 5.37876e-05
9.00912e-05 5.37876e-05 -6.83421e-05
0.000585869 8.11139e-05 4.63537e-07
8.11139e-05 8.36229e-05 -2.30648e-07
4.63537e-07 -2.30648e-07 -2.50583e-06
0.000586289 -5.31738e-06 4.58929e-07
-5.31738e-06 8.99199e-05 -1.17027e-07
4.58929e-07 -1.17027e-07 -1.22077e-06
0.000488858 -0.000100721 -2.71556e-06
-0.000100721 3.48007e-05 1.33746e-06
-2.71556e-06 1.33746e-06 -7.09807e-05
0.000484792 -4.94867e-05 -1.68131e-06
-4.94867e-05 5.00073e-05 1.31128e-06
-1.68131e-06 1.31128e-06 -6.1758e-05
0.00219492 -0.000166964 -3.93874e-06
-0.000166964 -9.23246e-05 9.98866e-07
-3.93874e-06 9.98866e-07 -1.57655e-05
0.00214878 -0.000387856 2.08663e-06
-0.000387856 -9.37173e-05 -1.01317e-06
2.08663e-06 -1.01317e-06 -3.37565e-06
0.00217527 -0.000546076 -2.18643e-06
-0.000546076 3.02903e-05 1.02088e-06
-2.18643e-06 1.02088e-06 -1.75975e-05
0.00310999 -0.000691011 1.05119e-05
-0.000691011 0.00132186 4.12358e-06
1.05119e-05 4.12358e-06 0.000928553
0.00065329 -0.000657286 9.23858e-06
-0.000657286 -0.000272371 -2.91106e-06
9.23858e-06 -2.91106e-06 -0.000708554
0.00233275 -0.000749667 4.65052e-06
-0.000749667 0.000380281 -2.60606e-06
4.65052e-06 -2.60606e-06 0.000157531
0.00186672 -0.000657549 2.11138e-06
-0.000657549 0.000557212 -6.13328e-06
2.11138e-06 -6.13328e-06 0.00014463
0.00288238 -0.000201508 3.9965e-06
-0.000201508 0.00139912 -2.57358e-06
3.9965e-06 -2.57358e-06 0.0010413
-0.000174797 -2.21123e-05 -1.67966e-06
-2.21123e-05 -0.000464089 2.11922e-06
-1.67966e-06 2.11922e-06 -0.000642693
0.000668668 -5.41885e-05 6.09482e-07
-5.41885e-05 0.00013159 5.28814e-07
6.09482e-07 5.28814e-07 4.77797e-05
0.000565092 -0.000108825 8.32189e-07
-0.000108825 0.000113016 -7.11765e-06
8.32189e-07 -7.11765e-06 -8.80212e-05
0.000737422 -8.16408e-07 3.13245e-06
-8.16408e-07 0.000207901 -4.54499e-06
3.13245e-06 -4.54499e-06 6.90418e-05
0.000618583 1.42018e-06 -1.27923e-07
1.42018e-06 0.000116655 4.03357e-07
-1.27923e-07 4.03357e-07 1.84345e-05
0.000541354 -4.12366e-05 -7.88052e-06
-4.12366e-05 2.15744e-05 2.96813e-06
-7.88052e-06 2.96813e-06 -6.46356e-05
0.00250524 -0.000266303 1.66585e-06
-0.000266303 0.000115742 1.13709e-06
1.66585e-06 1.13709e-06 0.000198534
0.000579687 -2.66776e-05 2.67568e-07
-2.66776e-05 9.68644e-05 6.7251e-07
2.67568e-07 6.7251e-07 -2.0637e-05
0.000818454 -2.09805e-05 5.02e-06
-2.09805e-05 0.000200211 -7.02981e-07
5.02e-06 -7.02981e-07 9.30437e-05
-8.26748e-05 -9.9894e-06 1.63202e-06
-9.9894e-06 -0.000327579 8.662e-07
1.63202e-06 8.662e-07 -0.000399414
0.00187078 -0.000420104 2.83309e-07
-0.000420104 -0.000299226 -1.29641e-06
2.83309e-07 -1.29641e-06 -0.000132797
0.00212182 -0.000683724 2.00641e-06
-0.000683724 8.52259e-05 -1.33556e-06
2.00641e-06 -1.33556e-06 -6.48318e-05
0.00178162 -0.000688114 -1.29576e-06
-0.000688114 0.00052783 -3.35812e-07
-1.29576e-06 -3.35812e-07 0.000121014
0.00227613 -0.00081871 -5.87705e-06
-0.00081871 0.00046131 1.36921e-06
-5.87705e-06 1.36921e-06 0.000180439
0.00132378 -0.0001099 -5.0423e-07
-0.0001099 0.000550897 9.29849e-07
-5.0423e-07 9.29849e-07 0.00039265
0.000289226 -4.46415e-05 4.27605e-06
-4.46415e-05 -0.000114721 9.09827e-07
4.27605e-06 9.09827e-07 -0.000284203
0.00146066 -0.000835102 4.26622e-06
-0.000835102 0.000708161 -1.62819e-06
4.26622e-06 -1.62819e-06 5.42524e-05
0.00120443 -0.000305517 -3.51522e-06
-0.000305517 0.000553157 -4.80086e-09
-3.51522e-06 -4.80086e-09 0.000108969
0.0030078 -0.000373518 -3.17977e-05
-0.000373518 0.00028779 -1.05067e-06
-3.17977e-05 -1.05067e-06 0.000515555
0.00229505 -0.000547264 -4.25885e-05
-0.000547264 0.000107952 1.15482e-05
-4.25885e-05 1.15482e-05 0.00015802
0.00235881 -0.000810086 -7.14687e-06
-0.000810086 0.000362861 -4.0977e-06
-7.14687e-06 -4.0977e-06 9.3994e-05
0.00245324 -0.000784383 -1.35983e-05
-0.000784383 0.000742244 1.52943e-06
-1.35983e-05 1.52943e-06 0.000461957
0.000325593 -4.30542e-05 -8.96814e-07
-4.30542e-05 -2.75283e-05 -3.29074e-06
-8.96814e-07 -3.29074e-06 -0.000148926
0.000248999 -8.77029e-05 -5.05588e-06
-8.77029e-05 -0.000110678 -9.80291e-06
-5.05588e-06 -9.80291e-06 -0.000258534
3.9811e-05 -0.000153208 -4.52636e-06
-0.000153208 -8.28212e-06 2.78447e-05
-4.52636e-06 2.78447e-05 -0.000285021
-0.00089555 -0.000536353 -5.39287e-06
-0.000536353 -0.000120177 -2.37699e-05
-5.39287e-06 -2.37699e-05 -0.000996186
0.00179055 -0.000493989 3.66106e-05
-0.000493989 -0.00453532 8.03623e-07
3.66106e-05 8.03623e-07 -0.00459399
0.00194819 0.000208742 -8.52437e-07
0.000208742 0.000905328 -4.81143e-06
-8.52437e-07 -4.81143e-06 0.00072185
0.000992555 0.000300976 -5.36583e-07
0.000300976 0.000222782 -1.35293e-07
-5.36583e-07 -1.35293e-07 -2.36118e-05
0.00200995 0.00029732 6.54088e-05
0.00029732 -8.78253e-05 1.69516e-05
6.54088e-05 1.69516e-05 2.06916e-05
0.00234097 0.000657576 2.90472e-05
0.000657576 0.000277599 1.03307e-05
2.90472e-05 1.03307e-05 0.000103644
0.00210938 0.000676766 1.43832e-05
0.000676766 0.000548517 1.173e-05
1.43832e-05 1.173e-05 0.000159512
0.00141276 0.000497382 7.44342e-06
0.000497382 0.000318015 8.33265e-06
7.44342e-06 8.33265e-06 -4.76052e-05
0.00468785 0.00103747 0.000115527
0.00103747 0.000376467 4.44963e-05
0.000115527 4.44963e-05 0.000108809
0.00140897 0.000261875 4.43609e-06
0.000261875 0.000617339 6.54936e-08
4.43609e-06 6.54936e-08 0.000410533
0.00253633 0.000576689 -1.78172e-05
0.000576689 0.000315645 8.51421e-08
-1.78172e-05 8.51421e-08 0.000286523
0.000976961 0.000377319 -2.87251e-06
0.000377319 0.000109375 2.49929e-06
-2.87251e-06 2.49929e-06 -0.000176126
0.00143464 0.000551896 2.14092e-06
0.000551896 0.000292538 -4.80712e-06
2.14092e-06 -4.80712e-06 -7.92125e-05
0.00163092 0.00070896 -9.37743e-06
0.00070896 7.10532e-05 -7.72164e-08
-9.37743e-06 -7.72164e-08 -0.000164343
0.00397285 -0.000580805 -0.000158802
-0.000580805 -0.00391595 -5.81174e-05
-0.000158802 -5.81174e-05 -0.00493041
0.0070599 0.00128516 -8.5844e-05
0.00128516 0.000328303 -6.63807e-05
-8.5844e-05 -6.63807e-05 0.0006086
0.00109536 0.000925213 -1.02082e-05
0.000925213 -0.000289646 8.69738e-06
-1.02082e-05 8.69738e-06 -0.000644852
-0.000782949 -0.00132132 0.000384021
-0.00132132 0.00217995 0.00016274
0.000384021 0.00016274 -0.00029371
0.00824512 -0.00603651 -0.000350945
-0.00603651 0.00321937 -0.000334037
-0.000350945 -0.000334037 0.00262893
0.00132648 0.000272128 -1.25175e-05
0.000272128 0.000506294 9.93875e-07
-1.25175e-05 9.93875e-07 0.000309019
0.000578626 0.000524085 0.000534334
0.000524085 0.00329788 6.00384e-05
0.000534334 6.00384e-05 0.00156145
0.002013 -0.00193973 -0.000161555
-0.00193973 0.0043577 -0.000217962
-0.000161555 -0.000217962 0.000468966
0.00232119 0.000861314 -4.42003e-05
0.000861314 0.000279506 -1.33564e-05
-4.42003e-05 -1.33564e-05 0.000177944
0.000947061 0.000290453 -2.2696e-05
0.000290453 9.70462e-05 -7.26512e-06
-2.2696e-05 -7.26512e-06 -0.000151744
0.000663748 0.000566164 -3.10231e-05
0.000566164 -7.6321e-05 -2.80898e-05
-3.10231e-05 -2.80898e-05 -0.000393551
0.000212624 0.000907264 3.73856e-05
0.000907264 -0.00063551 9.01779e-05
3.73856e-05 9.01779e-05 -0.00095705
0.0119941 0.00180323 2.9245e-05
0.00180323 0.00181881 -4.74155e-05
2.9245e-05 -4.74155e-05 0.000369289
0.0032488 0.00181608 -1.34394e-05
0.00181608 3.4042e-05 -3.82975e-05
-1.34394e-05 -3.82975e-05 -0.000282638
0.00957555 -0.00513377 0.000802151
-0.00513377 0.00243385 0.000464455
0.000802151 0.000464455 0.000546496
0.0105018 -0.00241406 -5.07571e-05
-0.00241406 0.00185013 0.0004845
-5.07571e-05 0.0004845 0.00120717
0.000505857 8.39396e-05 6.67178e-06
8.39396e-05 9.78639e-05 -1.79484e-06
6.67178e-06 -1.79484e-06 1.69084e-05
0.000367954 0.000119926 7.7881e-06
0.000119926 1.65583e-05 3.17015e-07
7.7881e-06 3.17015e-07 -8.49217e-05
0.00187574 0.000260437 2.6197e-06
0.000260437 0.00093726 -2.60818e-06
2.6197e-06 -2.60818e-06 0.000779855
0.000589638 1.14339e-05 8.06045e-07
1.14339e-05 0.000106775 -7.88015e-07
8.06045e-07 -7.88015e-07 -2.4231e-05
0.000665799 5.99652e-05 -1.35597e-06
5.99652e-05 0.000141366 -1.78077e-06
-1.35597e-06 -1.78077e-06 -4.46924e-06
0.000298049 1.66019e-05 -1.44341e-06
1.66019e-05 -8.56674e-05 7.31215e-07
-1.44341e-06 7.31215e-07 -0.000224554
0.00055008 8.81775e-05 -6.77615e-06
8.81775e-05 6.94994e-05 1.65081e-06
-6.77615e-06 1.65081e-06 -7.21629e-05
-0.000457485 4.60602e-05 -3.61495e-06
4.60602e-05 -0.000580726 1.10474e-06
-3.61495e-06 1.10474e-06 -0.000637821
0.000377124 -1.103e-05 2.23736e-07
-1.103e-05 -4.2653e-05 9.61863e-07
2.23736e-07 9.61863e-07 -0.000167676
0.00113303 9.84936e-05 1.33062e-06
9.84936e-05 0.000428447 -4.48234e-07
1.33062e-06 -4.48234e-07 0.000270883
0.000659056 4.71865e-05 5.72986e-07
4.71865e-05 0.000146596 2.97062e-07
5.72986e-07 2.97062e-07 -7.15363e-06
0.000729787 2.7048e-05 1.17614e-06
2.7048e-05 0.000188301 -4.47488e-07
1.17614e-06 -4.47488e-07 2.73195e-05
0.000563051 0.000100971 -3.59675e-07
0.000100971 0.000109407 -1.81511e-06
-3.59675e-07 -1.81511e-06 -3.69434e-05
0.00122187 0.000106032 -2.0884e-06
0.000106032 0.000503734 -1.64244e-06
-2.0884e-06 -1.64244e-06 0.000343655
-0.000177602 4.15218e-05 -5.69174e-06
4.15218e-05 -0.000276341 -4.19212e-06
-5.69174e-06 -4.19212e-06 -0.000447781
0.000703037 -9.53928e-05 -1.67729e-07
-9.53928e-05 0.000166854 -2.01599e-07
-1.67729e-07 -2.01599e-07 1.29548e-05
0.00076761 -7.28847e-05 -6.29029e-07
-7.28847e-05 0.000221126 4.09927e-08
-6.29029e-07 4.09927e-08 5.85294e-05
0.000751311 -4.22522e-05 -1.29079e-07
-4.22522e-05 0.000207898 -3.5473e-07
-1.29079e-07 -3.5473e-07 4.70112e-05
0.00076922 -1.42207e-05 -2.60694e-06
-1.42207e-05 0.000186045 -5.91896e-08
-2.60694e-06 -5.91896e-08 5.31066e-05
0.000921519 1.63448e-05 -4.85514e-06
1.63448e-05 0.000328402 -3.92656e-06
-4.85514e-06 -3.92656e-06 0.000150165
0.000746259 -2.2383e-05 1.86586e-06
-2.2383e-05 0.000192246 -5.92423e-06
1.86586e-06 -5.92423e-06 5.81504e-05
-0.00071305 -1.8631e-05 -1.76925e-06
-1.8631e-05 -0.000715452 -4.84997e-06
-1.76925e-06 -4.84997e-06 -0.000827374
0.000638224 -3.80305e-05 1.42901e-06
-3.80305e-05 0.000113094 -9.39817e-07
1.42901e-06 -9.39817e-07 -2.79185e-05
0.000425496 -7.20083e-05 1.49649e-06
-7.20083e-05 -6.49057e-06 1.16504e-06
1.49649e-06 1.16504e-06 -0.000134193
0.000673332 -7.45404e-05 -9.92774e-07
-7.45404e-05 0.000165399 -2.80164e-07
-9.92774e-07 -2.80164e-07 2.49173e-05
0.000540046 -7.46948e-05 -2.24696e-06
-7.46948e-05 4.162e-05 1.53966e-06
-2.24696e-06 1.53966e-06 -6.31939e-05
0.000482751 -5.89914e-05 2.78486e-06
-5.89914e-05 1.51991e-05 2.55239e-07
2.78486e-06 2.55239e-07 -0.000113836
0.000535196 -0.000100862 9.23558e-08
-0.000100862 5.12894e-05 2.6351e-07
9.23558e-08 2.6351e-07 -6.69555e-05
0.000557943 -4.36983e-05 -2.43016e-06
-4.36983e-05 3.89019e-05 3.5727e-06
-2.43016e-06 3.5727e-06 -3.28578e-05
0.000425035 -8.26762e-06 1.5316e-06
-8.26762e-06 -5.05411e-06 -8.07587e-07
1.5316e-06 -8.07587e-07 -0.000135957
0.000519126 1.50937e-06 1.84119e-06
1.50937e-06 2.41033e-05 6.05754e-08
1.84119e-06 6.05754e-08 -5.0861e-05
0.00143152 -1.42816e-05 -6.43452e-06
-1.42816e-05 0.000555696 6.24721e-06
-6.43452e-06 6.24721e-06 0.000537976
0.000521681 5.72609e-05 -1.1681e-06
5.72609e-05 2.52321e-05 -3.08905e-06
-1.1681e-06 -3.08905e-06 -4.88171e-05
0.000893963 -9.04067e-06 -3.02836e-06
-9.04067e-06 0.000229318 7.47887e-07
-3.02836e-06 7.47887e-07 0.00020976
0.000776701 3.06495e-06 -3.65729e-06
3.06495e-06 0.000146251 4.82568e-06
-3.65729e-06 4.82568e-06 0.000151762
0.000447559 -5.90815e-06 2.19645e-06
-5.90815e-06 -4.66314e-05 -4.5063e-06
2.19645e-06 -4.5063e-06 -6.77899e-05
0.00249916 1.85053e-06 5.67307e-06
1.85053e-06 0.00120674 -1.5629e-08
5.67307e-06 -1.5629e-08 0.00122015
0.000884718 8.59012e-10 -5.93265e-06
8.59012e-10 0.000208357 -5.19735e-06
-5.93265e-06 -5.19735e-06 0.000213587
0.000524703 6.38539e-05 2.66733e-06
6.38539e-05 5.04038e-05 6.96755e-07
2.66733e-06 6.96755e-07 -4.25587e-05
0.000496311 4.45523e-05 -1.88769e-06
4.45523e-05 -5.12635e-06 -1.81011e-06
-1.88769e-06 -1.81011e-06 -4.84913e-05
0.000515112 -6.134e-06 1.38028e-06
-6.134e-06 5.07081e-06 3.96972e-08
1.38028e-06 3.96972e-08 -3.92745e-05
0.00052535 8.4842e-06 9.31064e-07
8.4842e-06 -2.16773e-05 -2.95017e-06
9.31064e-07 -2.95017e-06 -2.97181e-05
0.0005662 -5.1321e-05 -1.89461e-06
-5.1321e-05 3.47529e-05 1.70709e-06
-1.89461e-06 1.70709e-06 -1.31513e-05
0.000504199 1.36549e-05 7.40487e-08
1.36549e-05 -3.59738e-05 -7.45446e-07
7.40487e-08 -7.45446e-07 -4.44073e-05
0.00197147 3.28037e-05 5.67952e-06
3.28037e-05 0.000879974 -4.46702e-06
5.67952e-06 -4.46702e-06 0.000896916
0.00108721 3.4261e-05 -6.92438e-07
3.4261e-05 0.000328733 1.71374e-06
-6.92438e-07 1.71374e-06 0.000321132
0.00144883 4.15986e-05 -1.37486e-07
4.15986e-05 0.000560303 1.3816e-06
-1.37486e-07 1.3816e-06 0.000570999
0.000882704 4.54832e-05 -1.01272e-05
4.54832e-05 0.000215202 7.33279e-06
-1.01272e-05 7.33279e-06 0.000219361
0.000974779 0.000295616 8.91585e-05
0.000295616 -0.00170885 1.43428e-05
8.91585e-05 1.43428e-05 -0.00128926
0.00216145 -4.43083e-05 -2.6681e-06
-4.43083e-05 -5.82485e-05 3.36172e-06
-2.6681e-06 3.36172e-06 3.16674e-06
0.00209173 7.26987e-05 3.47511e-05
7.26987e-05 0.000143362 -1.53242e-05
3.47511e-05 -1.53242e-05 0.000244851
0.00218759 0.000265063 -4.13704e-05
0.000265063 -0.00155512 -2.97159e-05
-4.13704e-05 -2.97159e-05 -0.00059051
0.00197338 9.43442e-05 3.185e-05
9.43442e-05 -0.00068319 -2.22134e-06
3.185e-05 -2.22134e-06 -0.000390077
0.00243919 -4.07758e-05 3.13911e-06
-4.07758e-05 0.000346417 -7.0472e-06
3.13911e-06 -7.0472e-06 0.000365238
0.00397363 -0.000229079 -4.60969e-05
-0.000229079 0.000889824 -1.31107e-05
-4.60969e-05 -1.31107e-05 0.000881369
0.00264311 -0.000113679 2.37261e-05
-0.000113679 -6.02952e-05 2.62664e-05
2.37261e-05 2.62664e-05 0.000106109
0.0134708 -0.000730717 1.26806e-05
-0.000730717 0.00256637 2.18562e-05
1.26806e-05 2.18562e-05 0.00119325
0.0137767 0.00395153 0.00100543
0.00395153 0.00551684 -0.000392748
0.00100543 -0.000392748 0.00375396
0.0131555 0.00457048 -3.31869e-06
0.00457048 0.00878678 4.95463e-06
-3.31869e-06 4.95463e-06 0.0073628
0.000299675 -9.70075e-05 1.3706e-06
-9.70075e-05 -7.7245e-05 -3.31401e-07
1.3706e-06 -3.31401e-07 -0.000180736
0.000575579 -9.94249e-06 1.30387e-06
-9.94249e-06 7.89347e-05 -1.35965e-07
1.30387e-06 -1.35965e-07 -8.50711e-06
0.000661191 -8.74673e-05 -1.23838e-06
-8.74673e-05 0.000144119 1.74233e-06
-1.23838e-06 1.74233e-06 4.57057e-05
0.000569487 -4.31757e-05 1.48936e-07
-4.31757e-05 8.21754e-05 4.80524e-07
1.48936e-07 4.80524e-07 -2.42138e-05
0.000686965 7.55142e-05 -2.46218e-06
7.55142e-05 0.000182676 2.0147e-06
-2.46218e-06 2.0147e-06 5.94189e-05
0.000392983 0.000113907 2.02185e-06
0.000113907 -4.18133e-05 5.94669e-06
2.02185e-06 5.94669e-06 -0.000155321
0.000963164 -1.83809e-05 3.72781e-06
-1.83809e-05 0.000345026 2.06058e-06
3.72781e-06 2.06058e-06 0.000217225
0.000498591 -2.65291e-05 -1.5189e-06
-2.65291e-05 4.08844e-05 1.16113e-06
-1.5189e-06 1.16113e-06 -6.57891e-05
0.00244054 -0.000251583 6.88548e-06
-0.000251583 7.21145e-05 5.95004e-07
6.88548e-06 5.95004e-07 0.000181205
0.00189747 -0.000437683 1.56314e-05
-0.000437683 -0.00032103 -5.25899e-06
1.56314e-05 -5.25899e-06 -0.000165215
0.00215974 -0.000685198 4.97698e-06
-0.000685198 0.00010551 1.67813e-06
4.97698e-06 1.67813e-06 -4.01506e-05
0.00172814 -0.00066992 2.26717e-05
-0.00066992 0.000480597 1.19891e-06
2.26717e-05 1.19891e-06 8.75153e-05
0.00204056 -0.00081492 1.37238e-06
-0.00081492 0.000329366 5.52848e-06
1.37238e-06 5.52848e-06 4.2895e-05
0.0034 -0.000997483 2.21115e-05
-0.000997483 0.00180619 -1.82243e-06
2.21115e-05 -1.82243e-06 0.00111534
0.00339628 -0.000513261 2.69514e-06
-0.000513261 0.0016197 -2.39369e-06
2.69514e-06 -2.39369e-06 0.00127148
0.000629431 -0.000149657 8.76367e-06
-0.000149657 0.000121899 -1.4955e-05
8.76367e-06 -1.4955e-05 -8.45734e-05
0.000535496 -5.40424e-05 -4.48659e-07
-5.40424e-05 2.43141e-05 3.92009e-06
-4.48659e-07 3.92009e-06 -7.25435e-05
0.000625181 -8.77725e-05 8.01308e-06
-8.77725e-05 9.55772e-05 -1.85624e-05
8.01308e-06 -1.85624e-05 -4.36783e-05
0.000960193 -3.6151e-05 1.9616e-06
-3.6151e-05 0.000328615 -2.41305e-08
1.9616e-06 -2.41305e-08 0.000205598
0.000558064 3.83053e-05 2.56411e-06
3.83053e-05 7.16936e-05 8.27998e-07
2.56411e-06 8.27998e-07 1.8108e-05
0.0022448 -0.000338325 -1.12244e-06
-0.000338325 -7.27389e-05 3.46963e-06
-1.12244e-06 3.46963e-06 0.000148008
0.000534255 -3.14527e-05 -2.17675e-06
-3.14527e-05 9.609e-05 -9.64622e-07
-2.17675e-06 -9.64622e-07 -2.76956e-05
0.000961397 -0.000147837 -5.87007e-06
-0.000147837 0.000315841 5.87553e-06
-5.87007e-06 5.87553e-06 0.000180968
0.00176032 -0.000529651 5.22127e-06
-0.000529651 -0.00019957 -2.4406e-06
5.22127e-06 -2.4406e-06 -0.000134726
0.00169706 -0.000724015 7.92427e-07
-0.000724015 -2.70713e-06 -5.686e-07
7.92427e-07 -5.686e-07 -0.000216316
0.0008648 -0.000618371 -3.97563e-07
-0.000618371 -0.000150845 -1.25179e-06
-3.97563e-07 -1.25179e-06 -0.000405741
0.00157344 -0.000275476 1.17431e-06
-0.000275476 0.000822625 -1.54179e-05
1.17431e-06 -1.54179e-05 0.000522076
0.00159616 -0.000578225 -1.59798e-06
-0.000578225 0.00114685 2.61658e-06
-1.59798e-06 2.61658e-06 0.000406869
0.00403674 -0.000595855 -4.34278e-05
-0.000595855 0.000799726 9.44329e-06
-4.34278e-05 9.44329e-06 0.000948271
0.00366262 -0.000801756 -5.17249e-05
-0.000801756 0.00106551 1.52484e-05
-5.17249e-05 1.52484e-05 0.000942746
0.00198116 -0.000814957 -7.33597e-06
-0.000814957 0.000252057 1.10782e-06
-7.33597e-06 1.10782e-06 3.00316e-05
-0.000289121 -0.000411287 -1.4129e-05
-0.000411287 -0.00053947 1.92004e-05
-1.4129e-05 1.92004e-05 -0.000714587
0.000429529 -0.00013534 1.79283e-06
-0.00013534 5.44269e-05 6.37459e-06
1.79283e-06 6.37459e-06 -0.000126193
0.000493669 -0.000154551 4.19997e-06
-0.000154551 0.00013877 -9.55275e-08
4.19997e-06 -9.55275e-08 -6.987e-05
0.00164662 -0.000202531 -2.23515e-06
-0.000202531 0.00114448 -1.6894e-05
-2.23515e-06 -1.6894e-05 0.000564022
-0.00627816 -0.000256691 0.000416551
-0.000256691 -0.00456749 -5.62e-06
0.000416551 -5.62e-06 -0.00347576
0.0110437 -0.000257248 4.80878e-05
-0.000257248 0.00193404 6.69159e-06
4.80878e-05 6.69159e-06 0.00160052
0.00176605 0.000240904 7.14868e-06
0.000240904 0.000798301 -6.63539e-06
7.14868e-06 -6.63539e-06 0.000616316
0.00148624 0.000435276 -3.19147e-06
0.000435276 0.00044256 4.49007e-06
-3.19147e-06 4.49007e-06 0.000140978
0.00246352 0.000519365 8.43104e-05
0.000519365 0.00030666 3.57837e-05
8.43104e-05 3.57837e-05 0.000292066
0.00299822 0.00083104 2.69608e-05
0.00083104 0.000794122 1.02357e-05
2.69608e-05 1.02357e-05 0.000527797
0.00265739 0.000701785 1.73714e-05
0.000701785 0.000987351 6.26515e-06
1.73714e-05 6.26515e-06 0.000591082
0.0139687 0.000684316 7.32399e-05
0.000684316 0.00309359 -1.55453e-05
7.32399e-05 -1.55453e-05 0.0021311
0.0081068 0.00174991 -0.000196268
0.00174991 3.1003e-05 3.1961e-05
-0.000196268 3.1961e-05 0.000351549
0.00307066 0.00103761 2.39724e-06
0.00103761 0.000810301 -2.89342e-05
2.39724e-06 -2.89342e-05 0.000347575
0.0118418 -0.00303926 -0.00036127
-0.00303926 0.00505404 -2.72532e-05
-0.00036127 -2.72532e-05 0.00320758
-0.00166603 -0.00616221 -0.00177544
-0.00616221 0.00080169 -0.00120138
-0.00177544 -0.00120138 -0.000199126
0.00096852 0.000276319 8.47616e-07
0.000276319 0.000340326 3.71178e-07
8.47616e-07 3.71178e-07 0.000123497
-0.00223017 -0.00177754 0.00032743
-0.00177754 -0.00270294 5.74038e-05
0.00032743 5.74038e-05 -0.00384367
-0.00326538 -0.00142221 -0.000349353
-0.00142221 0.00380116 -0.000163403
-0.000349353 -0.000163403 -0.000419931
0.00319327 0.000851504 -1.81629e-05
0.000851504 0.0007221 -4.5877e-07
-1.81629e-05 -4.5877e-07 0.000635338
0.00104358 0.0003652 -6.45758e-06
0.0003652 0.00019571 5.72254e-06
-6.45758e-06 5.72254e-06 -9.02531e-05
0.00141387 0.000671585 4.1382e-06
0.000671585 0.000329096 2.73913e-06
4.1382e-06 2.73913e-06 -1.79315e-05
0.00149019 0.000892765 4.30669e-05
0.000892765 0.00020473 2.38231e-05
4.30669e-05 2.38231e-05 -9.07629e-06
0.0133039 0.00173038 -0.000124593
0.00173038 0.00161063 -7.21603e-05
-0.000124593 -7.21603e-05 -0.000336554
0.00524284 0.00242513 -6.38171e-05
0.00242513 0.000268311 -4.84879e-05
-6.38171e-05 -4.84879e-05 0.000314231
0.0160806 -0.00374461 0.000370256
-0.00374461 0.00648029 -1.61909e-05
0.000370256 -1.61909e-05 0.00447381
0.0116186 -0.00320984 0.000198834
-0.00320984 0.0010254 0.000585712
0.000198834 0.000585712 0.000357244
0.00244244 0.00035281 -1.97308e-05
0.00035281 0.00119938 -1.24396e-05
-1.97308e-05 -1.24396e-05 0.00100956
-0.00986516 0.000923976 -0.00012814
0.000923976 0.00258553 -0.0001158
-0.00012814 -0.0001158 -0.00264515
0.00432865 0.000639401 -0.000297601
0.000639401 0.00316796 -0.000396418
-0.000297601 -0.000396418 -0.00110012
0.00274624 0.000680359 -2.6603e-05
0.000680359 0.000737298 6.28988e-06
-2.6603e-05 6.28988e-06 0.000720867
0.00197762 0.000632773 -6.49698e-05
0.000632773 0.000777718 -2.52229e-05
-6.49698e-05 -2.52229e-05 0.000467007
0.00175277 0.000689568 -7.40728e-05
0.000689568 0.00119817 -1.61065e-05
-7.40728e-05 -1.61065e-05 0.000558953
-0.000148457 0.00150611 -5.55142e-05
0.00150611 -0.000308974 -3.28515e-05
-5.55142e-05 -3.28515e-05 -0.00049062
-0.000570199 0.0020277 0.000303215
0.0020277 -0.0017014 0.000130001
0.000303215 0.000130001 -0.00465163
0.0162566 -0.00449683 0.000252499
-0.00449683 0.00740483 0.000560344
0.000252499 0.000560344 0.00480617
0.00776204 -0.00127075 -0.000120939
-0.00127075 -0.00203067 -0.000119157
-0.000120939 -0.000119157 -0.00088816
-0.000582265 0.000100956 2.58818e-06
0.000100956 -0.000517546 -6.9633e-06
2.58818e-06 -6.9633e-06 -0.00063983
0.00140208 0.000236618 1.06134e-05
0.000236618 0.000636331 3.47178e-06
1.06134e-05 3.47178e-06 0.000481539
-0.000288516 8.06106e-05 6.72907e-07
8.06106e-05 -0.00032342 -9.6434e-06
6.72907e-07 -9.6434e-06 -0.000463752
0.000357477 5.2425e-05 1.91646e-06
5.2425e-05 -5.40215e-05 -8.78106e-07
1.91646e-06 -8.78106e-07 -0.000178666
0.000867243 7.08033e-05 -9.78979e-07
7.08033e-05 0.000279396 -1.71559e-06
-9.78979e-07 -1.71559e-06 0.000113597
0.000634655 1.35127e-06 -1.40402e-06
1.35127e-06 0.000137708 1.65815e-06
-1.40402e-06 1.65815e-06 -2.21315e-05
0.000574734 5.46904e-05 4.53695e-06
5.46904e-05 9.45663e-05 2.42863e-06
4.53695e-06 2.42863e-06 -6.29651e-05
4.79892e-05 6.74598e-05 -3.79944e-06
6.74598e-05 -0.000197067 7.01368e-07
-3.79944e-06 7.01368e-07 -0.000335764
0.000751687 4.66397e-05 1.01851e-07
4.66397e-05 0.000212026 -9.27529e-07
1.01851e-07 -9.27529e-07 4.94528e-05
0.000755398 7.09578e-05 7.22418e-07
7.09578e-05 0.000209935 -3.70878e-07
7.22418e-07 -3.70878e-07 5.8727e-05
0.00080519 -5.31784e-05 -8.9248e-07
-5.31784e-05 0.000228254 1.54384e-06
-8.9248e-07 1.54384e-06 7.25932e-05
-0.000505573 2.76425e-05 2.39266e-06
2.76425e-05 -0.000448641 6.01249e-07
2.39266e-06 6.01249e-07 -0.000624482
-0.000563726 3.80578e-05 -1.90224e-06
3.80578e-05 -0.000240096 3.49905e-06
-1.90224e-06 3.49905e-06 -0.000529765
0.000760678 -1.88491e-05 -4.89148e-06
-1.88491e-05 0.000246271 -6.84658e-06
-4.89148e-06 -6.84658e-06 9.14713e-05
0.00091917 -1.43429e-05 2.38009e-07
-1.43429e-05 0.000322786 -8.79108e-07
2.38009e-07 -8.79108e-07 0.00014614
0.000794384 -7.08013e-05 -2.26453e-07
-7.08013e-05 0.000241369 -1.01621e-06
-2.26453e-07 -1.01621e-06 7.45084e-05
0.00067777 -6.1778e-05 2.36256e-06
-6.1778e-05 0.000119969 4.0956e-06
2.36256e-06 4.0956e-06 -5.16764e-06
0.000794264 -6.70845e-05 9.57547e-07
-6.70845e-05 0.000235225 -1.29221e-06
9.57547e-07 -1.29221e-06 6.70137e-05
0.000730906 -2.26311e-05 -1.36553e-06
-2.26311e-05 0.000175972 1.83611e-07
-1.36553e-06 1.83611e-07 4.32335e-05
-0.000114557 -6.09654e-05 1.65993e-06
-6.09654e-05 -0.000337724 2.9443e-06
1.65993e-06 2.9443e-06 -0.000448006
0.000392696 -2.42638e-05 1.03744e-06
-2.42638e-05 -7.45534e-06 -4.66865e-07
1.03744e-06 -4.66865e-07 -0.000146611
0.000161225 -1.4303e-05 -5.88538e-06
-1.4303e-05 -0.00012604 -4.74716e-06
-5.88538e-06 -4.74716e-06 -0.00027632
8.643e-05 -6.6289e-05 2.95212e-06
-6.6289e-05 -0.000180162 -3.38392e-06
2.95212e-06 -3.38392e-06 -0.000304109
0.00102653 -9.23246e-05 6.01831e-06
-9.23246e-05 0.000272825 -1.25567e-05
6.01831e-06 -1.25567e-05 0.000173007
-0.000481339 -2.0112e-05 5.68137e-07
-2.0112e-05 -0.000653467 2.70186e-06
5.68137e-07 2.70186e-06 -0.000783153
8.37805e-05 -3.77474e-05 -4.54377e-06
-3.77474e-05 -0.000209946 -2.08672e-06
-4.54377e-06 -2.08672e-06 -0.000350889
0.000730974 -5.69037e-05 6.23743e-07
-5.69037e-05 0.000166005 -6.82475e-07
6.23743e-07 -6.82475e-07 2.3354e-05
0.000361551 -3.91327e-05 3.93959e-07
-3.91327e-05 -5.0744e-05 -4.74536e-07
3.93959e-07 -4.74536e-07 -0.000188484
0.000708975 -8.27531e-05 3.54279e-07
-8.27531e-05 0.00018765 4.01509e-08
3.54279e-07 4.01509e-08 4.35481e-05
0.000490782 -1.64412e-05 1.8582e-07
-1.64412e-05 1.82257e-05 1.68585e-06
1.8582e-07 1.68585e-06 -9.19406e-05
0.000860053 -7.33568e-05 -1.28006e-06
-7.33568e-05 0.000276019 3.90368e-07
-1.28006e-06 3.90368e-07 0.000136356
0.000628909 -7.01056e-05 -9.20546e-07
-7.01056e-05 0.0001084 5.10436e-08
-9.20546e-07 5.10436e-08 -4.88185e-06
0.000461498 3.38484e-05 -8.99891e-07
3.38484e-05 -2.15386e-05 3.27227e-06
-8.99891e-07 3.27227e-06 -9.41913e-05
0.000484848 -9.22632e-05 2.14479e-06
-9.22632e-05 1.45997e-05 -8.5743e-07
2.14479e-06 -8.5743e-07 -0.000101012
0.000539258 -2.72393e-05 -3.29141e-07
-2.72393e-05 2.48372e-05 9.87832e-08
-3.29141e-07 9.87832e-08 -4.49109e-05
0.00142141 9.01624e-06 -6.45866e-06
9.01624e-06 0.000544351 6.57852e-06
-6.45866e-06 6.57852e-06 0.000525932
0.000522067 -4.9186e-05 1.54424e-06
-4.9186e-05 2.20068e-05 -2.89701e-06
1.54424e-06 -2.89701e-06 -5.02715e-05
0.000897177 -9.11913e-06 -4.77292e-06
-9.11913e-06 0.000226428 7.40825e-07
-4.77292e-06 7.40825e-07 0.000206742
0.00075572 1.34492e-05 6.91189e-07
1.34492e-05 0.000126278 2.08977e-06
6.91189e-07 2.08977e-06 0.000131221
0.000462609 -6.35472e-06 1.90707e-06
-6.35472e-06 -3.85407e-05 -4.31468e-06
1.90707e-06 -4.31468e-06 -5.94054e-05
0.00249831 1.38329e-05 6.1938e-06
1.38329e-05 0.00120635 4.75405e-08
6.1938e-06 4.75405e-08 0.00121978
0.00250862 2.29353e-06 -2.76181e-07
2.29353e-06 0.00121262 -5.09041e-06
-2.76181e-07 -5.09041e-06 0.001226
0.000997581 7.52351e-05 -4.15821e-07
7.52351e-05 0.000337904 8.63418e-08
-4.15821e-07 8.63418e-08 0.000243602
0.000530995 5.34817e-05 -1.37368e-06
5.34817e-05 2.01748e-05 -2.13927e-06
-1.37368e-06 -2.13927e-06 -2.73991e-05
0.000570597 -1.33679e-05 2.4537e-07
-1.33679e-05 8.01312e-05 8.53099e-07
2.4537e-07 8.53099e-07 -1.26682e-05
0.000519265 5.37692e-06 9.35858e-07
5.37692e-06 -2.523e-05 -3.20725e-06
9.35858e-07 -3.20725e-06 -3.30989e-05
0.00050418 -1.45053e-05 5.31114e-07
-1.45053e-05 -5.49329e-07 -1.04631e-07
5.31114e-07 -1.04631e-07 -4.37327e-05
0.000558647 -5.13417e-05 -1.58449e-06
-5.13417e-05 3.37779e-05 1.48064e-06
-1.58449e-06 1.48064e-06 -1.21705e-05
0.000511882 7.38143e-06 -3.88972e-07
7.38143e-06 -3.02667e-05 -2.66013e-08
-3.88972e-07 -2.66013e-08 -3.82192e-05
0.00196783 1.93003e-05 7.49004e-07
1.93003e-05 0.000875238 -4.60994e-06
7.49004e-07 -4.60994e-06 0.000893203
0.00109111 2.22321e-05 -8.30497e-07
2.22321e-05 0.000328525 1.81121e-06
-8.30497e-07 1.81121e-06 0.000323126
0.00132665 2.72713e-05 -5.02877e-07
2.72713e-05 0.000479133 -1.57485e-08
-5.02877e-07 -1.57485e-08 0.000492794
0.000815648 3.24987e-05 -1.04437e-05
3.24987e-05 0.000167469 7.02041e-06
-1.04437e-05 7.02041e-06 0.000175328
-0.00929325 0.000865941 0.000364406
0.000865941 -0.00354566 -1.01603e-05
0.000364406 -1.01603e-05 -0.0056417
-0.00207838 -7.74654e-05 0.000716928
-7.74654e-05 0.00468127 -0.000175949
0.000716928 -0.000175949 0.00170936
0.00332405 0.000273108 -0.000186844
0.000273108 -0.00125569 -2.66e-05
-0.000186844 -2.66e-05 -4.43077e-05
0.00109355 4.54072e-05 2.13294e-05
4.54072e-05 -0.00111865 -3.73864e-05
2.13294e-05 -3.73864e-05 -0.000802397
0.00161687 -5.90704e-05 7.95147e-06
-5.90704e-05 -0.000221687 9.29858e-06
7.95147e-06 9.29858e-06 -0.000201955
-0.000857039 5.51449e-05 -6.70851e-05
5.51449e-05 -0.00115147 -1.96534e-05
-6.70851e-05 -1.96534e-05 -0.000480547
0.00369377 -0.000280935 1.27814e-06
-0.000280935 0.000551177 4.75664e-06
1.27814e-06 4.75664e-06 0.00060884
0.0111734 -6.46057e-06 0.000138046
-6.46057e-06 0.000109747 -5.12463e-05
0.000138046 -5.12463e-05 -0.00081035
-0.000437152 0.00258447 -7.2076e-06
0.00258447 0.000319985 -4.7411e-05
-7.2076e-06 -4.7411e-05 -0.00231747
0.00661902 0.00511026 -0.000359769
0.00511026 0.00507679 0.000192848
-0.000359769 0.000192848 0.00405377
0.00225377 -0.000545972 6.38597e-05
-0.000545972 -0.00141771 -4.05749e-05
6.38597e-05 -4.05749e-05 -0.000678549
0.0145804 -0.00150039 0.000177431
-0.00150039 0.0023276 -6.62933e-05
0.000177431 -6.62933e-05 0.000720621
0.0104598 0.00487672 0.000324243
0.00487672 0.00272069 -0.000472915
0.000324243 -0.000472915 0.00100658
0.0145067 0.00319996 -0.000301309
0.00319996 0.00369342 0.000223203
-0.000301309 0.000223203 0.00249545
0.000824162 0.000132679 -1.96021e-06
0.000132679 0.00027398 3.07174e-06
-1.96021e-06 3.07174e-06 0.000121523
0.00040155 2.91998e-05 1.36039e-07
2.91998e-05 -2.43713e-05 -8.75738e-07
1.36039e-07 -8.75738e-07 -0.000122186
0.000587793 -9.37725e-05 -8.35399e-08
-9.37725e-05 9.39769e-05 7.33985e-07
-8.35399e-08 7.33985e-07 1.54157e-06
0.000589471 2.89129e-07 3.14065e-06
2.89129e-07 0.000101066 -1.03865e-06
3.14065e-06 -1.03865e-06 -9.82609e-06
0.000649266 6.26293e-05 1.71941e-06
6.26293e-05 0.000167244 1.23058e-06
1.71941e-06 1.23058e-06 4.25015e-05
0.00061147 2.02028e-05 7.82715e-07
2.02028e-05 0.000136026 5.92791e-06
7.82715e-07 5.92791e-06 -1.51859e-05
0.000717504 9.21621e-05 1.16891e-06
9.21621e-05 0.000177294 2.56976e-06
1.16891e-06 2.56976e-06 4.99207e-05
0.000521883 4.64947e-05 5.07253e-06
4.64947e-05 4.12037e-05 9.92777e-07
5.07253e-06 9.92777e-07 -8.98534e-05
0.000731638 -3.48074e-05 2.35697e-06
-3.48074e-05 0.000202247 -1.12879e-06
2.35697e-06 -1.12879e-06 7.41141e-05
0.00047972 -8.16058e-06 1.07403e-07
-8.16058e-06 1.54291e-05 -1.58265e-06
1.07403e-07 -1.58265e-06 -8.50774e-05
0.00152554 -0.000298163 2.53745e-05
-0.000298163 -0.000395744 -1.44243e-06
2.53745e-05 -1.44243e-06 -0.00019575
0.00110769 -0.000488812 3.75118e-05
-0.000488812 -0.000565478 -9.06029e-06
3.75118e-05 -9.06029e-06 -0.000470129
0.00068806 -0.000601965 1.29267e-05
-0.000601965 -0.000565269 -5.08164e-07
1.29267e-05 -5.08164e-07 -0.000705884
-5.75869e-05 -0.000530692 4.69579e-06
-0.000530692 -0.000648498 9.7539e-07
4.69579e-06 9.7539e-07 -0.0008866
0.00304503 -0.000532 6.41629e-06
-0.000532 0.00185452 2.7828e-05
6.41629e-06 2.7828e-05 0.00124124
0.000266633 -0.000378922 5.083e-06
-0.000378922 2.47618e-05 -2.49971e-06
5.083e-06 -2.49971e-06 -0.000337704
0.00148283 -0.000188896 2.28399e-06
-0.000188896 0.000616642 -1.1732e-06
2.28399e-06 -1.1732e-06 0.000497324
0.000861033 -3.94508e-05 -2.50567e-06
-3.94508e-05 0.000294643 2.56652e-06
-2.50567e-06 2.56652e-06 0.000167245
0.00221336 -0.000456626 1.35963e-05
-0.000456626 -0.000128309 -7.32381e-06
1.35963e-05 -7.32381e-06 5.41088e-05
0.000516564 -6.37903e-05 9.94331e-08
-6.37903e-05 0.000113714 5.20485e-07
9.94331e-08 5.20485e-07 -7.89019e-05
-0.000159664 -0.000138514 1.71937e-07
-0.000138514 -0.000244704 -3.47992e-06
1.71937e-07 -3.47992e-06 -0.00045345
0.00194991 -0.000665595 1.36091e-05
-0.000665595 0.000113689 -1.90881e-06
1.36091e-05 -1.90881e-06 6.33795e-05
0.00177537 -0.00081699 -4.13265e-07
-0.00081699 5.14702e-05 3.99558e-06
-4.13265e-07 3.99558e-06 -0.000107916
0.000221542 -0.00054161 1.60246e-05
-0.00054161 -0.000232824 -9.71945e-06
1.60246e-05 -9.71945e-06 -0.000478991
0.0013652 -0.000276449 8.87733e-07
-0.000276449 0.000970444 -1.26468e-05
8.87733e-07 -1.26468e-05 0.000398069
0.00275724 -0.000746316 -6.5323e-05
-0.000746316 0.000617366 2.42888e-05
-6.5323e-05 2.42888e-05 0.000312132
0.00122416 -0.000614556 -4.33666e-05
-0.000614556 -6.97773e-05 1.40468e-05
-4.33666e-05 1.40468e-05 -0.00011971
0.00114382 -0.000549267 -7.27195e-05
-0.000549267 0.000591486 4.77723e-05
-7.27195e-05 4.77723e-05 0.000212311
-0.00185171 -0.000155347 -2.24605e-06
-0.000155347 -0.00130679 8.18764e-06
-2.24605e-06 8.18764e-06 -0.00150271
-0.000333043 -0.000104143 4.39294e-06
-0.000104143 -0.000339458 6.37793e-06
4.39294e-06 6.37793e-06 -0.000574074
0.000646241 -5.47955e-05 8.34601e-06
-5.47955e-05 0.000339879 -6.15073e-06
8.34601e-06 -6.15073e-06 3.56665e-06
-0.00169595 0.000896887 -0.000304291
0.000896887 0.00609688 1.56206e-05
-0.000304291 1.56206e-05 0.00235509
0.000883756 -0.0010735 -1.83541e-06
-0.0010735 0.00184767 2.23325e-05
-1.83541e-06 2.23325e-05 0.00147912
0.00170121 0.00100524 -8.82489e-05
0.00100524 -0.00448354 -3.7573e-05
-8.82489e-05 -3.7573e-05 -0.00479146
0.000270319 0.000214291 7.54577e-06
0.000214291 -5.51978e-05 -3.13177e-06
7.54577e-06 -3.13177e-06 -0.000266287
0.00115814 0.000451687 8.22163e-06
0.000451687 0.000300666 1.82102e-05
8.22163e-06 1.82102e-05 -2.81512e-05
0.00371777 0.000785281 5.86516e-05
0.000785281 0.00100913 1.85121e-05
5.86516e-05 1.85121e-05 0.000932354
0.00149351 0.000709773 1.85026e-05
0.000709773 0.00038897 2.34208e-05
1.85026e-05 2.34208e-05 1.88744e-05
0.0107545 -0.00203873 0.000146453
-0.00203873 0.00367003 4.30702e-05
0.000146453 4.30702e-05 0.00344068
0.00393212 0.000792512 -0.000315005
0.000792512 -0.00330063 -4.12725e-05
-0.000315005 -4.12725e-05 -0.00521086
0.00462048 0.00225208 -1.98531e-05
0.00225208 -2.19341e-05 1.34587e-05
-1.98531e-05 1.34587e-05 0.000102881
0.00241728 0.000775108 4.08926e-05
0.000775108 0.000947563 -2.62194e-05
4.08926e-05 -2.62194e-05 0.000779578
0.00123688 -0.00248294 -0.000326458
-0.00248294 0.00139087 -0.000299732
-0.000326458 -0.000299732 -0.000785678
-0.000756538 -0.0022273 -0.000427363
-0.0022273 0.00407921 -0.000147962
-0.000427363 -0.000147962 -0.000231058
0.0180836 -0.00402199 0.000488239
-0.00402199 0.00438687 0.000294885
0.000488239 0.000294885 0.00369709
0.00052957 0.000203641 1.38204e-05
0.000203641 8.99767e-05 -3.77395e-06
1.38204e-05 -3.77395e-06 -9.46658e-05
-0.00383481 0.000346377 -0.00015243
0.000346377 0.00431058 -3.36627e-05
-0.00015243 -3.36627e-05 -7.93312e-05
0.00482728 0.000812986 -7.12164e-05
0.000812986 0.00278705 -0.000141426
-7.12164e-05 -0.000141426 -0.00180346
0.0016737 0.000666813 4.33293e-06
0.000666813 0.000261861 5.02894e-06
4.33293e-06 5.02894e-06 0.000188195
0.000476734 0.00047255 9.50365e-06
0.00047255 5.11413e-05 4.0113e-06
9.50365e-06 4.0113e-06 -0.000273905
7.65801e-05 0.000677348 -2.84714e-05
0.000677348 0.000130669 -5.49746e-05
-2.84714e-05 -5.49746e-05 -0.00035738
0.00354899 0.00231257 1.1082e-05
0.00231257 0.00105704 1.46643e-05
1.1082e-05 1.46643e-05 0.000757384
0.0161944 0.00274907 7.53829e-05
0.00274907 0.00445795 2.2912e-05
7.53829e-05 2.2912e-05 0.0023592
0.00620516 -0.00283975 7.12275e-05
-0.00283975 0.00154557 -6.78326e-05
7.12275e-05 -6.78326e-05 -0.00156154
0.0133536 -0.00201323 -3.07894e-06
-0.00201323 0.00185161 -6.07643e-05
-3.07894e-06 -6.07643e-05 0.00315371
0.000335721 0.000309392 -7.26411e-06
0.000309392 2.42562e-05 -1.13029e-05
-7.26411e-06 -1.13029e-05 -0.000188456
0.00229352 0.000175266 -0.000253613
0.000175266 0.00171277 -5.35262e-05
-0.000253613 -5.35262e-05 -0.00190151
0.000393983 0.000432799 -7.57351e-05
0.000432799 -0.000157352 -0.000151549
-7.57351e-05 -0.000151549 -0.00169705
-0.00105207 0.000200948 4.25837e-06
0.000200948 -0.000414914 -2.42841e-05
4.25837e-06 -2.42841e-05 -0.000630814
-0.000133006 0.000429596 -0.000114325
0.000429596 0.00113013 8.76006e-06
-0.000114325 8.76006e-06 0.000298462
0.013343 0.00338705 8.09423e-05
0.00338705 0.00457467 -1.92349e-05
8.09423e-05 -1.92349e-05 0.000763549
-0.00417939 -0.00402033 -8.51061e-06
-0.00402033 -0.0012812 0.000216544
-8.51061e-06 0.000216544 -0.00512311
0.0106796 0.00055492 4.63402e-05
0.00055492 -0.00142828 -0.000281778
4.63402e-05 -0.000281778 0.00115303
0.000921552 0.00017511 -2.34197e-06
0.00017511 0.000320057 1.35051e-05
-2.34197e-06 1.35051e-05 0.000182391
0.00087806 0.000195588 -9.87516e-06
0.000195588 0.000388588 -3.19741e-06
-9.87516e-06 -3.19741e-06 0.000224415
-3.61333e-05 0.00011004 3.26291e-06
0.00011004 3.14411e-05 -3.79305e-06
3.26291e-06 -3.79305e-06 -0.000231893
0.00071863 8.43117e-05 -1.77642e-06
8.43117e-05 0.000177484 -2.09062e-06
-1.77642e-06 -2.09062e-06 2.50078e-05
0.0010146 -3.82995e-05 -8.32219e-07
-3.82995e-05 0.000362329 3.10805e-06
-8.32219e-07 3.10805e-06 0.000199697
0.000549369 6.8384e-05 2.751e-06
6.8384e-05 7.41261e-05 1.85629e-06
2.751e-06 1.85629e-06 -6.96291e-05
-0.000975811 1.15035e-05 2.67634e-06
1.15035e-05 -0.000705789 1.38483e-06
2.67634e-06 1.38483e-06 -0.000883974
0.000770397 -2.417e-05 1.19671e-06
-2.417e-05 0.000208958 1.70938e-07
1.19671e-06 1.70938e-07 4.99913e-05
0.00066282 1.23399e-05 -1.29558e-07
1.23399e-05 0.000190287 -2.25572e-06
-1.29558e-07 -2.25572e-06 3.20273e-05
-0.000260379 1.24836e-07 8.97932e-07
1.24836e-07 -4.57218e-05 2.61965e-06
8.97932e-07 2.61965e-06 -0.000346865
-0.000704671 4.26507e-05 -3.31691e-06
4.26507e-05 -9.49615e-05 7.50324e-06
-3.31691e-06 7.50324e-06 -0.000536777
-4.61825e-05 6.33559e-06 -2.62532e-06
6.33559e-06 0.000114754 -3.10617e-06
-2.62532e-06 -3.10617e-06 -0.000212273
0.000772114 1.33555e-05 -1.39069e-06
1.33555e-05 0.000230746 -6.01384e-06
-1.39069e-06 -6.01384e-06 8.54154e-05
0.000783824 -0.000133079 1.30356e-06
-0.000133079 0.000213622 1.2312e-06
1.30356e-06 1.2312e-06 5.53151e-05
0.000573754 -8.30877e-06 2.54208e-07
-8.30877e-06 7.08236e-05 1.13805e-06
2.54208e-07 1.13805e-06 -5.70397e-05
0.000533579 -8.85173e-05 7.17452e-07
-8.85173e-05 6.63437e-05 9.0135e-06
7.17452e-07 9.0135e-06 -3.66661e-05
0.000329214 -3.46969e-05 2.10928e-06
-3.46969e-05 -4.02442e-05 3.05027e-06
2.10928e-06 3.05027e-06 -0.000178552
0.000636683 -3.23279e-05 3.88885e-07
-3.23279e-05 0.000137077 2.72843e-07
3.88885e-07 2.72843e-07 -9.76141e-07
0.000518937 -4.32617e-05 9.40409e-08
-4.32617e-05 7.83675e-05 -1.66971e-06
9.40409e-08 -1.66971e-06 -4.37663e-05
0.000583369 -4.72745e-05 -5.45932e-06
-4.72745e-05 9.74296e-05 -4.88518e-06
-5.45932e-06 -4.88518e-06 -2.51527e-05
0.000321094 -5.39446e-05 5.9721e-06
-5.39446e-05 9.00485e-05 -6.54621e-06
5.9721e-06 -6.54621e-06 -6.3489e-05
0.000119719 -0.000132675 1.38671e-07
-0.000132675 -0.000356842 1.91451e-06
1.38671e-07 1.91451e-06 -0.000451186
0.000795837 -0.000125171 -7.74811e-06
-0.000125171 0.000150978 -7.27913e-07
-7.74811e-06 -7.27913e-07 4.27052e-05
0.000312145 -0.000140675 6.28278e-06
-0.000140675 -0.000141705 5.25326e-06
6.28278e-06 5.25326e-06 -0.00028758
0.00202055 -0.000437886 1.85741e-06
-0.000437886 0.000790242 1.53682e-05
1.85741e-06 1.53682e-05 0.00050717
0.0016828 -0.000196041 2.2731e-06
-0.000196041 0.000736294 -4.75869e-06
2.2731e-06 -4.75869e-06 0.000556881
-0.000195195 -5.96543e-05 -8.68938e-06
-5.96543e-05 -0.000436458 -4.48902e-06
-8.68938e-06 -4.48902e-06 -0.000562237
0.000554027 -5.79555e-05 3.41318e-08
-5.79555e-05 5.31046e-05 -2.89128e-08
3.41318e-08 -2.89128e-08 -8.70283e-05
3.70944e-05 -4.06292e-05 -6.65124e-07
-4.06292e-05 -0.000243985 -1.52819e-06
-6.65124e-07 -1.52819e-06 -0.000392351
0.000846384 -8.15904e-05 -1.08559e-06
-8.15904e-05 0.000231118 9.93958e-07
-1.08559e-06 9.93958e-07 8.76562e-05
0.000761893 -9.94712e-05 -7.87862e-07
-9.94712e-05 0.000206764 5.99051e-07
-7.87862e-07 5.99051e-07 5.59139e-05
0.00058947 -5.1563e-05 -3.27749e-07
-5.1563e-05 6.61757e-05 1.4872e-06
-3.27749e-07 1.4872e-06 -4.51594e-05
0.00118338 -0.000138699 -5.87639e-07
-0.000138699 0.00049706 -1.11033e-06
-5.87639e-07 -1.11033e-06 0.000332642
0.00065804 -8.64034e-05 -5.0046e-07
-8.64034e-05 0.000121849 -4.75556e-08
-5.0046e-07 -4.75556e-08 7.01165e-06
0.000517669 1.59935e-05 -2.28638e-06
1.59935e-05 1.03636e-05 2.76447e-06
-2.28638e-06 2.76447e-06 -6.3376e-05
0.000722779 -0.00011699 1.80193e-06
-0.00011699 0.000167548 -1.97042e-06
1.80193e-06 -1.97042e-06 4.99909e-05
0.000600256 -4.22321e-05 -2.25994e-07
-4.22321e-05 5.92836e-05 1.49022e-07
-2.25994e-07 1.49022e-07 -1.2182e-05
0.001437 1.43468e-05 -1.10134e-05
1.43468e-05 0.00055021 6.81016e-06
-1.10134e-05 6.81016e-06 0.000530403
0.000557075 -5.74777e-05 2.45952e-06
-5.74777e-05 4.17757e-05 -3.10284e-06
2.45952e-06 -3.10284e-06 -3.21042e-05
0.000901405 -2.94596e-06 -5.85225e-06
-2.94596e-06 0.000224014 6.76738e-07
-5.85225e-06 6.76738e-07 0.000203106
0.000780856 2.26238e-05 7.07682e-07
2.26238e-05 0.000140253 2.53929e-06
7.07682e-07 2.53929e-06 0.000143276
0.000467176 -1.64602e-05 1.62484e-06
-1.64602e-05 -4.02063e-05 -4.54425e-06
1.62484e-06 -4.54425e-06 -6.19022e-05
0.00162926 2.29687e-05 8.37153e-06
2.29687e-05 0.000668428 -1.48431e-06
8.37153e-06 -1.48431e-06 0.000677468
0.00247764 1.48527e-05 7.60678e-06
1.48527e-05 0.00119319 -5.10012e-06
7.60678e-06 -5.10012e-06 0.00120663
0.000594211 3.70948e-05 2.05572e-06
3.70948e-05 7.33609e-05 -1.00519e-06
2.05572e-06 -1.00519e-06 -2.27669e-05
0.000604534 5.21753e-05 -7.41552e-07
5.21753e-05 6.09927e-05 -1.85676e-06
-7.41552e-07 -1.85676e-06 1.09173e-05
0.000626761 -7.68499e-07 1.17049e-06
-7.68499e-07 0.00010548 5.57234e-07
1.17049e-06 5.57234e-07 1.3497e-05
0.000505439 1.20177e-06 1.3869e-06
1.20177e-06 -3.26563e-05 -3.52326e-06
1.3869e-06 -3.52326e-06 -4.12898e-05
0.000522464 4.35391e-05 1.20828e-07
4.35391e-05 1.12512e-05 -9.13647e-08
1.20828e-07 -9.13647e-08 -3.41168e-05
0.000562636 -0.000105753 -3.54878e-06
-0.000105753 6.84392e-05 7.54313e-07
-3.54878e-06 7.54313e-07 -1.90348e-05
0.0019861 5.87509e-06 -4.28573e-06
5.87509e-06 0.000884826 -4.70535e-06
-4.28573e-06 -4.70535e-06 0.000903364
0.00050038 4.14114e-06 -2.35575e-07
4.14114e-06 -3.63707e-05 1.402e-08
-2.35575e-07 1.402e-08 -4.42396e-05
0.000527791 -1.77213e-05 -2.04322e-06
-1.77213e-05 1.20497e-05 1.68322e-06
-2.04322e-06 1.68322e-06 -3.00219e-05
0.000492779 6.45256e-06 -1.30711e-06
6.45256e-06 -4.24113e-05 3.10003e-06
-1.30711e-06 3.10003e-06 -5.02884e-05
0.00199572 2.07823e-05 -4.83543e-06
2.07823e-05 0.000892678 -8.12034e-08
-4.83543e-06 -8.12034e-08 0.000910469
0.00195204 3.38197e-05 -7.06489e-06
3.38197e-05 0.000867979 4.36207e-06
-7.06489e-06 4.36207e-06 0.00088505
-0.00639691 -0.00122371 -0.000131792
-0.00122371 0.00409919 4.49605e-05
-0.000131792 4.49605e-05 0.000540537
0.000917193 0.000977056 -0.000190761
0.000977056 0.000102288 5.45622e-05
-0.000190761 5.45622e-05 -0.00131129
0.0029509 -0.000810879 -0.000505755
-0.000810879 0.00119056 0.000230941
-0.000505755 0.000230941 -0.00307803
-0.00214033 0.000211947 0.000829318
0.000211947 0.00466161 -0.00029592
0.000829318 -0.00029592 0.00142582
0.00111921 0.000423518 -1.66242e-05
0.000423518 -0.0013448 -2.71817e-05
-1.66242e-05 -2.71817e-05 -0.000749721
0.00242457 -0.0003446 8.77611e-05
-0.0003446 -0.000271479 4.48867e-06
8.77611e-05 4.48867e-06 -0.000214427
0.000630832 -0.000361156 0.000193381
-0.000361156 -0.00386306 -6.73511e-05
0.000193381 -6.73511e-05 -0.00579205
0.0166954 0.00237354 -0.000500713
0.00237354 0.00761059 4.26662e-05
-0.000500713 4.26662e-05 0.00558126
-0.00104915 0.00587683 -0.00168968
0.00587683 0.000702807 0.00118683
-0.00168968 0.00118683 -0.000234902
0.00387905 -0.000420406 1.25872e-05
-0.000420406 -0.000388048 8.90516e-06
1.25872e-05 8.90516e-06 3.75446e-05
0.00854167 -0.00145409 0.000116755
-0.00145409 -0.000588781 -0.000103913
0.000116755 -0.000103913 -0.00293833
0.0181619 0.0041975 -0.000230713
0.0041975 0.00539433 -9.81621e-05
-0.000230713 -9.81621e-05 0.00385227
0.0106222 0.00331928 -6.75823e-05
0.00331928 0.00105225 0.000318403
-6.75823e-05 0.000318403 -0.000370138
0.00170882 -0.00126194 -9.6119e-05
-0.00126194 -0.00243693 1.37715e-05
-9.6119e-05 1.37715e-05 -0.0017313
0.00430582 -0.00240906 0.000304458
-0.00240906 -0.000233536 -0.00019632
0.000304458 -0.00019632 -0.00411157
0.00115855 0.0026894 5.36399e-05
0.0026894 -0.00113615 -0.00062579
5.36399e-05 -0.00062579 -0.00352516
0.00746371 0.00116314 -0.000196866
0.00116314 -0.00271498 2.58215e-06
-0.000196866 2.58215e-06 -0.00151192
0.00175447 -6.88498e-05 2.3087e-06
-6.88498e-05 0.00089429 1.11512e-05
2.3087e-06 1.11512e-05 0.000679235
0.000563442 0.000112092 -1.78956e-06
0.000112092 9.92941e-05 -2.14257e-06
-1.78956e-06 -2.14257e-06 -3.54368e-05
0.000548233 9.00443e-05 3.65268e-07
9.00443e-05 5.79667e-05 -1.8807e-06
3.65268e-07 -1.8807e-06 -3.49484e-05
0.000484301 3.94079e-05 5.11649e-06
3.94079e-05 6.61135e-05 -1.5312e-07
5.11649e-06 -1.5312e-07 -5.34139e-05
0.000484309 7.84157e-05 3.46525e-06
7.84157e-05 4.01669e-05 2.74526e-06
3.46525e-06 2.74526e-06 -0.000129508
0.000577492 4.78974e-05 -3.00127e-08
4.78974e-05 0.000109991 2.03941e-06
-3.00127e-08 2.03941e-06 -3.15348e-05
0.000469108 4.13748e-05 1.4646e-07
4.13748e-05 2.69268e-05 -1.68732e-06
1.4646e-07 -1.68732e-06 -9.89097e-05
0.000891303 0.000158774 2.74979e-06
0.000158774 0.000294701 3.92845e-06
2.74979e-06 3.92845e-06 0.000135637
0.000845635 0.000113971 4.96546e-08
0.000113971 0.000272214 3.00585e-07
4.96546e-08 3.00585e-07 0.000118433
0.000397062 -1.34091e-05 -4.71168e-06
-1.34091e-05 -1.24653e-05 -4.03488e-06
-4.71168e-06 -4.03488e-06 -0.000135753
0.000534804 -0.000357209 6.62084e-05
-0.000357209 -0.00100156 -2.69177e-05
6.62084e-05 -2.69177e-05 -0.000794925
0.00049265 -0.000565797 3.32177e-05
-0.000565797 -0.000694494 -1.14953e-05
3.32177e-05 -1.14953e-05 -0.000706733
0.0015475 -0.000801102 6.35156e-06
-0.000801102 -0.000114583 7.0287e-06
6.35156e-06 7.0287e-06 -0.000226915
-0.000594804 -0.00053271 8.42238e-06
-0.00053271 -0.00066958 -1.61501e-05
8.42238e-06 -1.61501e-05 -0.000984851
0.00288692 -0.000346472 -1.24523e-05
-0.000346472 0.00171168 4.72737e-05
-1.24523e-05 4.72737e-05 0.00126145
0.000780371 -0.000140849 -2.7812e-06
-0.000140849 0.000331243 3.45705e-06
-2.7812e-06 3.45705e-06 0.000110365
0.000401725 0.000104818 -2.2733e-06
0.000104818 4.11144e-05 -1.11848e-05
-2.2733e-06 -1.11848e-05 -0.000152723
0.000592732 -9.36228e-05 -1.69675e-06
-9.36228e-05 0.000176396 7.46454e-06
-1.69675e-06 7.46454e-06 -5.12617e-05
0.00153394 -0.000609062 6.83912e-07
-0.000609062 -0.000162366 -4.70795e-06
6.83912e-07 -4.70795e-06 -0.000262091
0.000638612 -4.25841e-05 6.23587e-07
-4.25841e-05 0.000204061 3.92009e-06
6.23587e-07 3.92009e-06 -1.35271e-05
0.00187188 -0.000226132 5.93409e-07
-0.000226132 0.00106826 -1.28302e-06
5.93409e-07 -1.28302e-06 0.000716125
0.00134223 -0.000633822 1.16891e-06
-0.000633822 -2.30815e-05 4.43632e-06
1.16891e-06 4.43632e-06 -6.47654e-05
0.000790378 -0.000566958 -1.91663e-05
-0.000566958 0.000321172 6.72358e-06
-1.91663e-05 6.72358e-06 -3.44045e-05
0.00313177 -0.00117494 2.62822e-05
-0.00117494 0.000632644 -1.97736e-05
2.62822e-05 -1.97736e-05 0.000594589
-0.000961919 -0.000399262 -1.13417e-05
-0.000399262 -0.000853394 2.21036e-05
-1.13417e-05 2.21036e-05 -0.000915557
-0.000650344 -7.26317e-05 7.1117e-06
-7.26317e-05 -0.000245146 6.14038e-06
7.1117e-06 6.14038e-06 -0.000702404
0.000627629 1.25386e-05 -2.04471e-06
1.25386e-05 0.000156961 -5.50177e-07
-2.04471e-06 -5.50177e-07 -3.28558e-05
0.00105765 2.28947e-05 8.23327e-06
2.28947e-05 0.00055952 -6.76895e-06
8.23327e-06 -6.76895e-06 0.000290399
0.00139061 5.15373e-05 -2.62666e-05
5.15373e-05 0.00168749 -1.22019e-05
-2.62666e-05 -1.22019e-05 -0.00161379
-0.00532012 0.000318336 -0.000260852
0.000318336 0.00538175 -1.32916e-05
-0.000260852 -1.32916e-05 0.00117339
-0.0122909 -0.0016972 -0.000525253
-0.0016972 -0.0057335 -1.78211e-05
-0.000525253 -1.78211e-05 -0.00583744
-0.000713088 0.000136558 7.40549e-06
0.000136558 -0.000613538 -1.97836e-06
7.40549e-06 -1.97836e-06 -0.000812516
-0.000408984 0.000383337 -2.06136e-06
0.000383337 -0.000371655 1.092e-05
-2.06136e-06 1.092e-05 -0.000707524
0.00132141 0.000746906 2.9445e-05
0.000746906 7.28399e-05 1.79501e-05
2.9445e-05 1.79501e-05 -2.35244e-05
-0.00530969 0.00136737 2.91374e-05
0.00136737 0.00443664 4.40867e-05
2.91374e-05 4.40867e-05 0.000527226
0.00454565 0.00231862 -0.000194436
0.00231862 0.000109708 -0.000140078
-0.000194436 -0.000140078 -0.00363709
0.00206484 0.00164724 0.000303067
0.00164724 0.000444903 9.47809e-05
0.000303067 9.47809e-05 0.000267154
-0.000338321 0.000648604 1.67286e-05
0.000648604 -0.000284219 -3.76276e-05
1.67286e-05 -3.76276e-05 -0.000455903
0.0201895 -0.00294687 -0.000136412
-0.00294687 0.00633967 -0.000263837
-0.000136412 -0.000263837 0.00427378
0.0052948 0.00100009 0.000364185
0.00100009 0.00271957 0.000135609
0.000364185 0.000135609 -0.00220517
0.0129891 -0.00175554 0.000121818
-0.00175554 0.00201296 3.16315e-05
0.000121818 3.16315e-05 0.00339574
0.000958839 0.00037024 4.36103e-06
0.00037024 0.000447859 -1.87873e-06
4.36103e-06 -1.87873e-06 0.000223422
0.00376754 0.000345355 3.22196e-06
0.000345355 0.00251854 1.40498e-05
3.22196e-06 1.40498e-05 -0.00019238
0.00112937 0.000421986 4.55055e-05
0.000421986 2.09495e-05 7.64468e-06
4.55055e-05 7.64468e-06 -0.00156293
-0.00043839 0.000370883 -2.29085e-06
0.000370883 -0.000203889 -3.5909e-06
-2.29085e-06 -3.5909e-06 -0.000474312
0.000757145 0.000898817 -9.51318e-05
0.000898817 0.00101341 -4.30407e-05
-9.51318e-05 -4.30407e-05 -0.000160673
0.00151008 0.00321647 0.000143999
0.00321647 0.000622375 8.668e-05
0.000143999 8.668e-05 -0.00333952
0.00833332 0.00017337 -1.2317e-05
0.00017337 -0.0032778 -0.000187385
-1.2317e-05 -0.000187385 -0.000401099
0.00407702 -0.002229 -5.71555e-05
-0.002229 0.00227446 -0.000124538
-5.71555e-05 -0.000124538 -0.00139468
0.00105831 0.000296756 -3.09975e-06
0.000296756 0.000776349 -1.82495e-05
-3.09975e-06 -1.82495e-05 0.000508567
-0.00187064 6.92374e-05 6.48607e-06
6.92374e-05 -0.000144552 6.36256e-06
6.48607e-06 6.36256e-06 -0.000198631
0.00389031 -2.36245e-05 7.20213e-05
-2.36245e-05 -0.000223513 -0.000142283
7.20213e-05 -0.000142283 -0.00123283
0.00749239 0.00124217 0.000202574
0.00124217 -0.00246435 -1.58305e-05
0.000202574 -1.58305e-05 -0.00140014
-0.00190693 0.000106074 1.80694e-05
0.000106074 -9.89047e-05 -3.28465e-05
1.80694e-05 -3.28465e-05 -0.000813221
0.0123838 0.00258882 0.000220304
0.00258882 0.00562942 5.68649e-05
0.000220304 5.68649e-05 0.000947864
-0.00323082 -0.000439204 8.09216e-05
-0.000439204 0.00139253 0.000344694
8.09216e-05 0.000344694 -0.00157125
0.00262086 0.00036173 2.14197e-05
0.00036173 0.00145813 1.47768e-05
2.14197e-05 1.47768e-05 0.00125593
0.000606099 0.000191888 -5.28538e-06
0.000191888 0.000435433 -1.08947e-06
-5.28538e-06 -1.08947e-06 0.000137554
-8.1729e-05 9.25094e-05 2.07849e-06
9.25094e-05 0.000258705 2.57006e-06
2.07849e-06 2.57006e-06 -0.000114302
0.000677969 0.000152805 1.05318e-06
0.000152805 0.000168393 9.34293e-07
1.05318e-06 9.34293e-07 1.97462e-06
0.000393591 4.89457e-05 2.13043e-06
4.89457e-05 1.8318e-05 1.79958e-06
2.13043e-06 1.79958e-06 -0.000134239
0.000680741 -1.63424e-05 9.18369e-06
-1.63424e-05 0.000523549 8.25456e-07
9.18369e-06 8.25456e-07 0.000210758
0.000487339 3.01141e-05 2.76102e-07
3.01141e-05 5.0194e-05 -6.64372e-07
2.76102e-07 -6.64372e-07 -8.61712e-05
0.00072348 -2.18716e-05 -2.60709e-06
-2.18716e-05 0.000551853 -2.50692e-06
-2.60709e-06 -2.50692e-06 0.000239227
0.000245345 4.48797e-05 9.79709e-07
4.48797e-05 0.000436778 -9.82225e-07
9.79709e-07 -9.82225e-07 1.5431e-05
-0.000152175 1.89848e-05 -1.04158e-05
1.89848e-05 0.000133509 -1.09519e-06
-1.04158e-05 -1.09519e-06 -0.000200337
0.000226637 -2.28414e-05 -3.36171e-07
-2.28414e-05 0.00019809 -6.03184e-06
-3.36171e-07 -6.03184e-06 -7.31407e-05
0.00031359 -6.31567e-05 1.25874e-06
-6.31567e-05 -6.89586e-05 7.81874e-06
1.25874e-06 7.81874e-06 -0.00019284
0.000815858 -4.2285e-05 -1.12114e-06
-4.2285e-05 0.000243427 1.27323e-06
-1.12114e-06 1.27323e-06 0.000105206
0.0011167 -4.43524e-05 -1.03796e-05
-4.43524e-05 0.000440812 8.3122e-06
-1.03796e-05 8.3122e-06 0.00031709
0.000746718 -7.1622e-05 2.89438e-06
-7.1622e-05 0.000321766 -3.74834e-07
2.89438e-06 -3.74834e-07 0.000178851
0.000632148 -4.59748e-05 -9.52746e-07
-4.59748e-05 0.000125509 -5.85755e-07
-9.52746e-07 -5.85755e-07 4.36243e-06
0.000312565 -0.000130222 7.16123e-07
-0.000130222 -2.94932e-05 1.01259e-06
7.16123e-07 1.01259e-06 -0.000168649
9.75063e-05 -0.000120653 -8.62796e-06
-0.000120653 -0.000286318 -1.63378e-06
-8.62796e-06 -1.63378e-06 -0.000355174
-0.000837735 -0.000236261 8.82677e-06
-0.000236261 -0.000802412 1.14211e-05
8.82677e-06 1.14211e-05 -0.0010507
0.000541311 -0.000166506 4.08988e-06
-0.000166506 1.48495e-05 -1.17857e-07
4.08988e-06 -1.17857e-07 -0.00010068
0.00123236 -0.000249414 -1.99729e-06
-0.000249414 0.000404613 8.03416e-06
-1.99729e-06 8.03416e-06 0.000230837
0.00203013 -0.000475822 -8.80215e-06
-0.000475822 0.000814015 1.04269e-05
-8.80215e-06 1.04269e-05 0.00050175
0.00147672 -0.000409124 -5.86201e-06
-0.000409124 0.000359752 7.10351e-07
-5.86201e-06 7.10351e-07 5.44753e-05
0.00118038 -0.000282467 -2.09492e-06
-0.000282467 0.000409723 4.22806e-06
-2.09492e-06 4.22806e-06 0.0001779
0.000219703 -0.000229209 1.0179e-05
-0.000229209 -0.000295248 -3.51925e-06
1.0179e-05 -3.51925e-06 -0.000529853
0.00110892 -0.000134016 1.73844e-06
-0.000134016 0.000412101 -2.57221e-06
1.73844e-06 -2.57221e-06 0.000215143
0.00131931 -0.000195829 -5.90653e-06
-0.000195829 0.000546047 -4.52132e-07
-5.90653e-06 -4.52132e-07 0.000353667
9.77859e-05 -0.000100703 6.60312e-06
-0.000100703 -0.000218282 -1.36823e-05
6.60312e-06 -1.36823e-05 -0.000339497
0.00105092 -8.04696e-05 -3.77691e-08
-8.04696e-05 0.000332608 1.52101e-06
-3.77691e-08 1.52101e-06 0.000192882
0.000280125 -6.4765e-05 6.02571e-07
-6.4765e-05 -9.44317e-05 -6.09407e-07
6.02571e-07 -6.09407e-07 -0.000245199
0.000646404 -4.45854e-05 2.72024e-07
-4.45854e-05 9.06351e-05 5.097e-07
2.72024e-07 5.097e-07 -2.66492e-05
0.00106886 -0.000155712 -7.06154e-07
-0.000155712 0.000409405 3.38808e-07
-7.06154e-07 3.38808e-07 0.000245145
0.000656111 -7.31912e-05 -1.86988e-07
-7.31912e-05 0.000118516 -2.90861e-08
-1.86988e-07 -2.90861e-08 -2.96906e-06
0.000508345 1.91725e-05 9.77354e-07
1.91725e-05 1.31527e-05 3.27867e-06
9.77354e-07 3.27867e-06 -7.09442e-05
0.000765983 -0.000109776 4.19992e-07
-0.000109776 0.00019959 -2.23201e-06
4.19992e-07 -2.23201e-06 7.54114e-05
0.000529466 1.05095e-05 -1.77907e-06
1.05095e-05 2.22517e-05 -1.5973e-07
-1.77907e-06 -1.5973e-07 -5.50413e-05
0.00138614 2.47165e-05 -1.29413e-05
2.47165e-05 0.000519747 4.61289e-06
-1.29413e-05 4.61289e-06 0.000498922
0.000600788 -5.26486e-05 2.85274e-06
-5.26486e-05 6.23664e-05 -3.35195e-06
2.85274e-06 -3.35195e-06 -1.11226e-05
0.000906259 6.07614e-06 -6.67236e-06
6.07614e-06 0.000222966 6.26403e-07
-6.67236e-06 6.26403e-07 0.000200916
0.000825175 3.24756e-05 -5.50254e-08
3.24756e-05 0.000166784 2.76536e-06
-5.50254e-08 2.76536e-06 0.000167834
0.000475739 -7.97196e-06 1.67414e-06
-7.97196e-06 -4.0797e-05 -5.09865e-06
1.67414e-06 -5.09865e-06 -6.38545e-05
0.00167783 3.51796e-05 1.1365e-05
3.51796e-05 0.000697183 -1.30849e-06
1.1365e-05 -1.30849e-06 0.000704794
0.00249609 3.00487e-05 1.15897e-05
3.00487e-05 0.00120365 -5.29847e-06
1.15897e-05 -5.29847e-06 0.00121646
0.000337155 1.25369e-05 1.16676e-06
1.25369e-05 -7.30065e-05 -3.67248e-07
1.16676e-06 -3.67248e-07 -0.000191664
0.000227148 1.54466e-05 3.16485e-07
1.54466e-05 -0.000174088 -3.31616e-06
3.16485e-07 -3.31616e-06 -0.000232408
0.000656518 4.11722e-05 -1.1836e-08
4.11722e-05 0.000120534 1.13742e-07
-1.1836e-08 1.13742e-07 1.7375e-05
0.000503922 -5.99043e-07 1.23367e-06
-5.99043e-07 -3.44009e-05 -3.67113e-06
1.23367e-06 -3.67113e-06 -4.46526e-05
0.000365856 3.61562e-06 1.49811e-06
3.61562e-06 -9.01087e-05 -6.2414e-09
1.49811e-06 -6.2414e-09 -0.000138834
0.000333491 -9.2819e-05 -2.00564e-06
-9.2819e-05 -7.51748e-05 1.01388e-09
-2.00564e-06 1.01388e-09 -0.000168775
0.0020546 -7.92519e-06 -8.96481e-06
-7.92519e-06 0.000926772 -4.74969e-06
-8.96481e-06 -4.74969e-06 0.000944982
0.000500411 7.21057e-07 -4.00872e-08
7.21057e-07 -3.624e-05 -5.23663e-08
-4.00872e-08 -5.23663e-08 -4.47021e-05
0.000481659 -1.81057e-05 -2.47673e-06
-1.81057e-05 -1.72992e-05 1.96144e-06
-2.47673e-06 1.96144e-06 -6.03319e-05
0.00200781 7.27472e-06 -4.40041e-06
7.27472e-06 0.000898573 1.31994e-08
-4.40041e-06 1.31994e-08 0.000916925
0.000486725 3.40329e-06 -1.21119e-06
3.40329e-06 -4.42732e-05 3.15833e-06
-1.21119e-06 3.15833e-06 -5.21713e-05
0.00197317 2.20057e-05 -4.77363e-07
2.20057e-05 0.000878737 4.56721e-06
-4.77363e-07 4.56721e-06 0.000896547
6.82259e-05 -0.000510727 -0.000189147
-0.000510727 -0.000196079 5.8695e-05
-0.000189147 5.8695e-05 -0.00267141
0.00135216 0.000359366 -7.29453e-05
0.000359366 0.0059338 6.45843e-06
-7.29453e-05 6.45843e-06 0.00293219
0.00143497 -0.000238037 -0.000574057
-0.000238037 0.0031625 9.15977e-05
-0.000574057 9.15977e-05 0.00158661
0.000701985 0.00011033 3.41061e-06
0.00011033 0.000148153 2.98851e-06
3.41061e-06 2.98851e-06 2.6668e-06
0.00419125 -0.000616676 -3.85674e-05
-0.000616676 0.0028878 0.000178062
-3.85674e-05 0.000178062 0.00110876
0.00388548 -0.000974798 -0.000217434
-0.000974798 0.00154916 1.7222e-05
-0.000217434 1.7222e-05 -0.00264342
0.00695442 0.00192631 0.000320831
0.00192631 0.00599072 -0.000257321
0.000320831 -0.000257321 0.00315021
0.0063199 -0.000672081 8.07174e-05
-0.000672081 0.000886941 -2.0745e-05
8.07174e-05 -2.0745e-05 0.000911332
0.012308 -0.00154479 0.00021073
-0.00154479 0.00140086 -8.89008e-05
0.00021073 -8.89008e-05 -0.000133081
0.00316371 0.00365198 -0.000420881
0.00365198 -0.00179833 0.000337434
-0.000420881 0.000337434 -0.00324183
0.0109683 0.00336198 4.1318e-05
0.00336198 0.0028124 0.00015628
4.1318e-05 0.00015628 0.000913873
0.00638195 -0.00156508 -0.00012055
-0.00156508 0.000223501 -6.86917e-06
-0.00012055 -6.86917e-06 0.000334278
0.0162446 -0.00254803 4.52374e-05
-0.00254803 0.00462739 -2.57858e-05
4.52374e-05 -2.57858e-05 0.00231662
0.0079548 0.00221079 0.000143008
0.00221079 0.00159131 -0.000261167
0.000143008 -0.000261167 -0.000953384
0.00969018 0.00115923 1.4554e-05
0.00115923 -0.00104646 2.66689e-05
1.4554e-05 2.66689e-05 -0.000332911
0.00306322 -0.0019774 -2.57649e-05
-0.0019774 -9.21748e-05 3.51482e-05
-2.57649e-05 3.51482e-05 -0.000423342
0.0114282 -0.00311331 0.000139714
-0.00311331 0.00486749 -8.98921e-05
0.000139714 -8.98921e-05 0.000702152
0.00722994 -7.05219e-05 0.000121627
-7.05219e-05 0.00291571 -0.000356715
0.000121627 -0.000356715 0.000982464
0.0104535 0.000669607 -9.41615e-05
0.000669607 -0.00135373 0.000195388
-9.41615e-05 0.000195388 0.00100293
0.000728313 -5.12188e-06 3.23991e-06
-5.12188e-06 0.000240024 5.39366e-06
3.23991e-06 5.39366e-06 4.3582e-05
0.000811507 -0.000112647 -3.20765e-07
-0.000112647 0.000307804 3.61961e-07
-3.20765e-07 3.61961e-07 0.000100999
0.00069134 0.000129821 -1.93522e-07
0.000129821 0.00018046 -4.28154e-06
-1.93522e-07 -4.28154e-06 4.34895e-05
0.000643823 9.78613e-05 8.37651e-07
9.78613e-05 9.98989e-05 5.69884e-06
8.37651e-07 5.69884e-06 -3.8901e-05
0.000750322 0.000139861 1.00866e-07
0.000139861 0.000218925 5.73632e-07
1.00866e-07 5.73632e-07 4.45891e-05
0.00094602 7.7695e-05 -5.05557e-06
7.7695e-05 0.00034027 -2.64382e-06
-5.05557e-06 -2.64382e-06 0.000198528
0.00101699 0.000154946 -1.22595e-06
0.000154946 0.000372808 -8.62686e-09
-1.22595e-06 -8.62686e-09 0.000212478
0.00106349 0.000170497 6.23351e-07
0.000170497 0.000422934 2.01464e-06
6.23351e-07 2.01464e-06 0.000258099
-0.000330287 -0.000382463 8.22105e-05
-0.000382463 -0.00122725 -4.46182e-05
8.22105e-05 -4.46182e-05 -0.00113637
0.00203757 -0.000714533 8.61747e-06
-0.000714533 0.000314087 -1.60632e-05
8.61747e-06 -1.60632e-05 0.000279153
0.000979555 -0.000216292 -3.16513e-07
-0.000216292 0.000424086 -1.767e-05
-3.16513e-07 -1.767e-05 0.000178303
0.00142935 -0.000627672 2.16976e-05
-0.000627672 0.000652492 -2.60398e-05
2.16976e-05 -2.60398e-05 0.000309223
0.00240839 -0.000373064 -1.40486e-05
-0.000373064 0.00134159 1.13319e-05
-1.40486e-05 1.13319e-05 0.000999674
0.00129923 -0.000118775 -6.39517e-07
-0.000118775 0.000592287 -1.65901e-05
-6.39517e-07 -1.65901e-05 0.000369799
0.00022465 -4.87287e-05 1.52666e-06
-4.87287e-05 -8.47118e-05 4.8021e-06
1.52666e-06 4.8021e-06 -0.00027227
6.33345e-06 -0.000845987 -3.08373e-09
-0.000845987 -0.000980593 -2.88903e-06
-3.08373e-09 -2.88903e-06 -0.000933586
0.00126655 4.48073e-05 -7.32799e-07
4.48073e-05 0.00068729 4.68572e-07
-7.32799e-07 4.68572e-07 0.000407932
0.000811838 -0.000218189 6.54178e-06
-0.000218189 0.000514077 1.58704e-06
6.54178e-06 1.58704e-06 0.000117769
0.000651343 -0.000397631 1.09249e-05
-0.000397631 4.22015e-05 4.28712e-06
1.09249e-05 4.28712e-06 1.29624e-05
0.00133422 0.000123532 -4.5012e-07
0.000123532 0.00056822 -7.70085e-07
-4.5012e-07 -7.70085e-07 0.000414449
0.00120341 -0.000818623 -1.15618e-05
-0.000818623 9.3213e-05 -3.7768e-05
-1.15618e-05 -3.7768e-05 2.4302e-05
-0.00085205 -0.000366842 -1.59742e-05
-0.000366842 -0.000530233 2.86231e-05
-1.59742e-05 2.86231e-05 -0.000738614
-0.000361693 7.68482e-05 1.80124e-05
7.68482e-05 0.000113817 -1.25376e-05
1.80124e-05 -1.25376e-05 -0.000430489
0.00124442 0.000223334 5.79977e-07
0.000223334 0.000609769 -3.44847e-06
5.79977e-07 -3.44847e-06 0.000414369
-0.000772912 5.23198e-05 5.29129e-05
5.23198e-05 0.00100531 3.62633e-06
5.29129e-05 3.62633e-06 0.000329867
0.000759537 -3.35226e-05 0.000122493
-3.35226e-05 0.0012478 -2.68935e-05
0.000122493 -2.68935e-05 -0.0020186
-0.0092484 -0.000233564 -0.000207836
-0.000233564 0.0048052 1.95768e-05
-0.000207836 1.95768e-05 1.89673e-05
0.00153144 0.000411891 1.6785e-05
0.000411891 0.000870698 2.21114e-06
1.6785e-05 2.21114e-06 0.00063406
-0.00112065 0.000492919 5.63266e-06
0.000492919 -0.000616375 1.57209e-05
5.63266e-06 1.57209e-05 -0.000985429
0.0050781 0.000422569 0.000207688
0.000422569 0.00313013 3.23071e-05
0.000207688 3.23071e-05 0.00128847
0.0099604 0.00255893 0.000246229
0.00255893 0.00370247 0.000150438
0.000246229 0.000150438 -0.000344279
0.00294038 0.00152461 -7.66265e-05
0.00152461 0.0018564 -7.91545e-05
-7.66265e-05 -7.91545e-05 0.000559397
0.00530511 -0.0017887 -0.000125959
-0.0017887 0.0032025 -0.000376206
-0.000125959 -0.000376206 0.000303281
0.00195686 0.000388994 9.97305e-05
0.000388994 0.000190366 0.00017494
9.97305e-05 0.00017494 -0.00135983
0.0062215 -0.000127448 -3.52046e-05
-0.000127448 -0.00515632 -0.000208926
-3.52046e-05 -0.000208926 -0.00187179
0.000710049 0.000318235 5.8295e-06
0.000318235 0.000565827 1.1217e-06
5.8295e-06 1.1217e-06 0.000276365
-0.00164529 1.57168e-05 -1.42737e-06
1.57168e-05 -0.000107901 -3.23899e-07
-1.42737e-06 -3.23899e-07 -0.000260972
0.00368771 4.03063e-05 8.0254e-05
4.03063e-05 -0.000172377 2.3292e-05
8.0254e-05 2.3292e-05 -0.00058861
-0.00135911 0.000320341 -1.04593e-05
0.000320341 -0.000324832 -7.80622e-06
-1.04593e-05 -7.80622e-06 -0.000939833
0.00954913 0.00127453 -8.41998e-06
0.00127453 -0.000946166 -2.35068e-05
-8.41998e-06 -2.35068e-05 -0.000335421
0.00320517 0.00147489 0.000171238
0.00147489 0.00332834 0.000108898
0.000171238 0.000108898 -0.00176872
0.00547049 0.000627488 -0.00013863
0.000627488 0.00293682 1.77849e-06
-0.00013863 1.77849e-06 0.000201784
0.000522265 0.000337064 -8.22648e-06
0.000337064 0.000488071 -2.28157e-05
-8.22648e-06 -2.28157e-05 6.64424e-05
0.00127326 3.83335e-05 1.46401e-05
3.83335e-05 -0.000221199 -2.23945e-05
1.46401e-05 -2.23945e-05 -0.000119424
0.00368356 -0.000654976 2.93815e-05
-0.000654976 0.00283267 -0.000181887
2.93815e-05 -0.000181887 0.00120811
0.0143824 0.00344504 0.000283043
0.00344504 0.00353247 -0.000223198
0.000283043 -0.000223198 0.00242315
0.00689003 -3.00685e-05 -9.87467e-05
-3.00685e-05 0.00292082 0.000364731
-9.87467e-05 0.000364731 0.000834516
0.000649844 0.000337869 -6.37665e-06
0.000337869 0.000491486 -0.000111545
-6.37665e-06 -0.000111545 4.68983e-05
0.00243254 0.00147904 0.000221165
0.00147904 0.00472407 4.18005e-05
0.000221165 4.18005e-05 -0.0025589
0.00166414 0.000317307 1.4652e-06
0.000317307 0.00101859 1.35936e-05
1.4652e-06 1.35936e-05 0.000727148
0.000818923 0.000215013 1.80765e-06
0.000215013 0.000745526 -9.88793e-07
1.80765e-06 -9.88793e-07 0.000391951
5.55699e-06 -2.37816e-05 -1.1442e-05
-2.37816e-05 0.000359064 -9.69962e-06
-1.1442e-05 -9.69962e-06 7.5371e-05
0.000102113 -4.42111e-05 9.24302e-07
-4.42111e-05 -0.000199885 5.97428e-06
9.24302e-07 5.97428e-06 -0.000323035
0.00131209 -4.18237e-06 4.78902e-06
-4.18237e-06 0.000877672 -8.62288e-07
4.78902e-06 -8.62288e-07 0.000580042
0.000412589 4.90438e-05 2.07738e-06
4.90438e-05 0.00051465 -1.57379e-06
2.07738e-06 -1.57379e-06 0.000105373
0.000426746 -3.72872e-05 1.06524e-06
-3.72872e-05 0.000265006 -1.44717e-07
1.06524e-06 -1.44717e-07 4.02522e-05
-6.33277e-05 -9.9333e-06 4.73235e-06
-9.9333e-06 0.000183095 1.20408e-06
4.73235e-06 1.20408e-06 -0.000154477
0.00109366 -0.000227997 2.20268e-07
-0.000227997 0.000683853 -1.23904e-05
2.20268e-07 -1.23904e-05 0.000408098
0.00087794 -8.19004e-05 -4.59267e-06
-8.19004e-05 0.000377594 7.59409e-06
-4.59267e-06 7.59409e-06 0.000246001
0.000612186 -1.55196e-05 -1.23293e-06
-1.55196e-05 0.00011162 2.309e-06
-1.23293e-06 2.309e-06 -6.723e-06
0.00136707 -0.000221287 2.62395e-06
-0.000221287 0.000589285 3.89171e-06
2.62395e-06 3.89171e-06 0.000431237
-0.00140957 -0.000214409 1.5323e-05
-0.000214409 -0.000946094 7.88434e-06
1.5323e-05 7.88434e-06 -0.00123821
6.61188e-05 -0.000110074 2.55093e-06
-0.000110074 -0.000229081 -1.35611e-06
2.55093e-06 -1.35611e-06 -0.00027335
-0.000213971 -0.000269553 8.11065e-07
-0.000269553 -0.000460578 -3.14745e-06
8.11065e-07 -3.14745e-06 -0.00068685
0.00116567 -0.000436272 4.23765e-06
-0.000436272 0.000242651 -3.70195e-06
4.23765e-06 -3.70195e-06 -0.000123888
0.00156759 -0.000511644 -3.11057e-06
-0.000511644 0.00036334 -6.45783e-07
-3.11057e-06 -6.45783e-07 -3.63209e-06
0.00203573 -0.000348787 2.61719e-06
-0.000348787 0.000880383 -1.17541e-06
2.61719e-06 -1.17541e-06 0.000680033
0.00128881 -0.000393723 2.1945e-06
-0.000393723 0.00034508 2.65779e-07
2.1945e-06 2.65779e-07 4.02308e-05
0.00159916 -0.000425785 2.36019e-06
-0.000425785 0.000421638 -1.86802e-06
2.36019e-06 -1.86802e-06 0.000121718
0.000657451 -0.000265624 -3.23798e-06
-0.000265624 -4.93463e-05 4.16973e-06
-3.23798e-06 4.16973e-06 -0.000295543
0.000922386 -0.000342008 1.51882e-06
-0.000342008 3.15337e-05 -4.80973e-06
1.51882e-06 -4.80973e-06 -0.000253623
0.000485062 -0.000121324 1.08469e-06
-0.000121324 5.45816e-05 -2.93051e-06
1.08469e-06 -2.93051e-06 -0.000177872
0.00112895 -0.000300506 -6.22202e-06
-0.000300506 0.000391936 4.55856e-06
-6.22202e-06 4.55856e-06 0.000145275
-0.00146813 -3.27512e-05 -3.44613e-06
-3.27512e-05 -0.00131075 -6.76548e-06
-3.44613e-06 -6.76548e-06 -0.00149999
0.000435026 -4.27163e-05 7.08272e-07
-4.27163e-05 -3.83249e-05 4.87964e-07
7.08272e-07 4.87964e-07 -0.000168067
0.000562828 -0.000109885 1.07171e-08
-0.000109885 9.45545e-05 4.92669e-08
1.07171e-08 4.92669e-08 -9.91629e-05
0.000933038 -0.000193944 5.94502e-06
-0.000193944 0.000339361 -1.84146e-06
5.94502e-06 -1.84146e-06 0.000135005
0.000500385 -9.00221e-05 5.61014e-07
-9.00221e-05 4.09134e-05 1.43689e-06
5.61014e-07 1.43689e-06 -0.000111973
0.000718729 -6.70653e-05 -3.77158e-07
-6.70653e-05 0.000149995 2.52797e-07
-3.77158e-07 2.52797e-07 2.15764e-05
0.000514494 8.738e-06 5.60997e-07
8.738e-06 8.31616e-06 4.05419e-06
5.60997e-07 4.05419e-06 -8.08741e-05
0.00082369 -9.53325e-05 -1.16138e-07
-9.53325e-05 0.000232518 -9.85153e-07
-1.16138e-07 -9.85153e-07 0.000101
0.000565004 8.14612e-06 -1.19035e-06
8.14612e-06 4.25893e-05 -2.69557e-07
-1.19035e-06 -2.69557e-07 -3.86877e-05
0.000449108 3.51101e-05 -1.9902e-07
3.51101e-05 -5.36238e-05 5.77321e-06
-1.9902e-07 5.77321e-06 -8.33418e-05
0.000680979 -4.81804e-05 2.22528e-06
-4.81804e-05 0.000109088 -3.21642e-06
2.22528e-06 -3.21642e-06 3.43122e-05
0.000482359 1.33481e-05 -3.47998e-07
1.33481e-05 -4.08566e-05 -4.3877e-08
-3.47998e-07 -4.3877e-08 -6.63566e-05
0.00249041 8.71116e-05 -2.90225e-06
8.71116e-05 0.00120423 2.36771e-06
-2.90225e-06 2.36771e-06 0.00121063
0.000488791 1.5639e-06 1.95951e-06
1.5639e-06 -3.64378e-05 -5.31364e-06
1.95951e-06 -5.31364e-06 -6.08607e-05
0.00171231 4.84393e-05 1.37374e-05
4.84393e-05 0.000718897 -1.08665e-06
1.37374e-05 -1.08665e-06 0.000724543
0.00255531 4.59821e-05 1.80036e-05
4.59821e-05 0.0012401 -5.38955e-06
1.80036e-05 -5.38955e-06 0.00125166
0.000313996 1.29407e-05 1.0181e-06
1.29407e-05 -0.000103142 -1.01286e-06
1.0181e-06 -1.01286e-06 -0.000214354
0.00023769 8.84975e-06 8.81156e-07
8.84975e-06 -0.000170599 -3.08353e-06
8.81156e-07 -3.08353e-06 -0.000237396
0.000509105 2.77121e-05 -4.86314e-07
2.77121e-05 3.17647e-05 -1.11183e-06
-4.86314e-07 -1.11183e-06 -8.3534e-05
0.000517986 -4.29014e-06 1.78039e-06
-4.29014e-06 -2.63879e-05 -4.08356e-06
1.78039e-06 -4.08356e-06 -3.92806e-05
0.00021444 1.25568e-05 -6.36524e-07
1.25568e-05 -0.000182211 -1.60606e-06
-6.36524e-07 -1.60606e-06 -0.000241924
0.000670973 4.9556e-05 -6.48932e-07
4.9556e-05 0.000140269 1.31271e-06
-6.48932e-07 1.31271e-06 3.00208e-05
0.00209273 -2.1317e-05 -1.42941e-05
-2.1317e-05 0.000949963 -4.64862e-06
-1.42941e-05 -4.64862e-06 0.000967648
0.00050243 -2.08922e-06 -4.50168e-07
-2.08922e-06 -3.57989e-05 -6.30227e-08
-4.50168e-07 -6.30227e-08 -4.57658e-05
0.000157904 1.12995e-05 8.25941e-07
1.12995e-05 -0.000215513 1.63832e-06
8.25941e-07 1.63832e-06 -0.000267668
0.00203041 -6.53737e-06 -3.93374e-06
-6.53737e-06 0.000911641 5.16112e-08
-3.93374e-06 5.16112e-08 0.000930052
0.000491936 3.95013e-07 -1.33925e-06
3.95013e-07 -4.1773e-05 3.40723e-06
-1.33925e-06 3.40723e-06 -5.001e-05
0.00203304 8.78243e-06 4.66409e-06
8.78243e-06 0.000914495 4.71826e-06
4.66409e-06 4.71826e-06 0.000932586
0.000387591 -2.85355e-05 7.70272e-05
-2.85355e-05 0.00127406 1.99716e-05
7.70272e-05 1.99716e-05 0.00101395
-2.0828e-06 -0.000288043 -2.98272e-05
-0.000288043 0.000218584 -1.43787e-05
-2.98272e-05 -1.43787e-05 -0.00277429
0.000417123 0.000320841 2.31893e-05
0.000320841 0.00563832 -3.30064e-05
2.31893e-05 -3.30064e-05 0.00268514
0.000763226 0.000118698 1.35603e-07
0.000118698 0.000178451 2.36159e-07
1.35603e-07 2.36159e-07 4.15133e-05
0.000485761 8.07624e-05 3.98867e-06
8.07624e-05 -8.36652e-06 2.31705e-06
3.98867e-06 2.31705e-06 -0.000133859
0.000995054 0.00016872 4.91545e-06
0.00016872 0.000321509 4.54742e-06
4.91545e-06 4.54742e-06 0.00018027
0.00449045 -0.0001195 -2.97356e-05
-0.0001195 -0.000409843 0.000220679
-2.97356e-05 0.000220679 -0.00115131
0.00413204 -0.00061619 5.96668e-05
-0.00061619 0.00268539 -3.95937e-06
5.96668e-05 -3.95937e-06 0.00133633
0.00446783 -0.00116745 0.000125832
-0.00116745 0.00189047 -0.000198689
0.000125832 -0.000198689 -0.00242748
0.0079803 -0.00193022 -5.71496e-05
-0.00193022 0.000691686 -1.73968e-05
-5.71496e-05 -1.73968e-05 0.00100293
0.000436642 -0.00211174 -0.000277797
-0.00211174 -0.0016154 0.00010052
-0.000277797 0.00010052 -0.00463204
0.020739 0.00311383 0.000136756
0.00311383 0.00813471 0.000113982
0.000136756 0.000113982 0.00522164
0.00585007 0.000108749 0.000195308
0.000108749 -0.00305815 -0.000182019
0.000195308 -0.000182019 -0.00282916
0.00492727 -0.00222824 -3.47665e-05
-0.00222824 0.000533936 1.41243e-05
-3.47665e-05 1.41243e-05 0.000413601
0.00721596 -0.00271532 -8.02242e-05
-0.00271532 0.00286561 2.26822e-05
-8.02242e-05 2.26822e-05 -0.00130655
-0.00344147 0.00286575 -7.65342e-05
0.00286575 0.00227428 -0.000247184
-7.65342e-05 -0.000247184 -0.00149526
0.00834512 0.000259407 -4.70318e-05
0.000259407 -0.00344015 0.000111294
-4.70318e-05 0.000111294 -0.000470267
0.000688085 -0.00127413 -0.000109533
-0.00127413 0.000134378 3.31303e-05
-0.000109533 3.31303e-05 -0.000164593
0.0106334 -0.00239385 -0.000205368
-0.00239385 0.00520904 0.000133555
-0.000205368 0.000133555 0.00065044
-0.00373022 -7.46932e-06 3.74679e-05
-7.46932e-06 0.00149837 -0.000307468
3.74679e-05 -0.000307468 -0.00164637
0.00763453 -0.00127005 8.88485e-05
-0.00127005 -0.00198789 3.80324e-05
8.88485e-05 3.80324e-05 -0.00105178
0.000412804 8.47291e-05 2.44035e-06
8.47291e-05 -1.01684e-05 1.08961e-05
2.44035e-06 1.08961e-05 -0.000152536
0.000752514 -1.73106e-05 2.57934e-06
-1.73106e-05 0.000243059 -2.02553e-06
2.57934e-06 -2.02553e-06 4.10035e-05
0.000811855 -0.000114692 -5.35718e-07
-0.000114692 0.000269958 -7.7162e-06
-5.35718e-07 -7.7162e-06 7.49376e-05
0.0006938 0.000112284 -1.62572e-06
0.000112284 0.00013398 5.95558e-07
-1.62572e-06 5.95558e-07 -1.03589e-05
0.000827813 0.000147517 5.80723e-07
0.000147517 0.000271652 -2.92946e-06
5.80723e-07 -2.92946e-06 0.000103351
0.00114911 0.000171647 -3.54174e-06
0.000171647 0.000458082 -1.83727e-06
-3.54174e-06 -1.83727e-06 0.000294214
-0.00138036 -0.000707708 2.07957e-05
-0.000707708 -0.00173465 -2.42506e-06
2.07957e-05 -2.42506e-06 -0.00166839
0.000751305 -0.000313685 3.25752e-05
-0.000313685 9.36594e-05 -2.56196e-05
3.25752e-05 -2.56196e-05 0.00012061
6.88726e-05 1.52208e-05 -1.99786e-06
1.52208e-05 -0.000171768 -9.02513e-06
-1.99786e-06 -9.02513e-06 -0.000364102
0.00140547 -0.000370254 4.72752e-05
-0.000370254 0.000791229 -2.60413e-05
4.72752e-05 -2.60413e-05 0.000425185
0.00144833 -4.93375e-05 -6.45366e-06
-4.93375e-05 0.000782388 6.50251e-07
-6.45366e-06 6.50251e-07 0.000510633
0.000583662 9.82416e-05 2.59729e-06
9.82416e-05 0.000143163 1.92298e-06
2.59729e-06 1.92298e-06 -2.26418e-05
0.000975284 0.000160643 -6.99816e-07
0.000160643 0.000437258 -2.08792e-06
-6.99816e-07 -2.08792e-06 0.000265478
0.000338192 -0.000884957 2.02847e-06
-0.000884957 -0.000399767 -3.80168e-06
2.02847e-06 -3.80168e-06 -0.000577184
5.43799e-05 1.1606e-05 -6.34836e-06
1.1606e-05 0.000322739 4.54481e-06
-6.34836e-06 4.54481e-06 -0.000160593
0.00150572 -0.000275227 9.65646e-06
-0.000275227 0.000724345 -8.42297e-06
9.65646e-06 -8.42297e-06 0.000495362
0.00121347 0.000160827 1.41046e-06
0.000160827 0.000573063 -7.14552e-06
1.41046e-06 -7.14552e-06 0.000418464
-0.00313226 -5.53258e-05 -0.000126944
-5.53258e-05 -0.00098654 -1.33541e-05
-0.000126944 -1.33541e-05 -0.00171388
-8.20306e-05 -0.000127702 -1.55236e-05
-0.000127702 0.000239851 1.1915e-05
-1.55236e-05 1.1915e-05 -7.56217e-05
0.000346384 0.000136833 2.50401e-06
0.000136833 0.000446362 8.90385e-06
2.50401e-06 8.90385e-06 6.223e-05
4.10278e-05 7.04338e-05 -3.37961e-06
7.04338e-05 -0.000578512 6.13132e-07
-3.37961e-06 6.13132e-07 -0.00117715
-0.00118293 6.85084e-05 1.70278e-05
6.85084e-05 0.000705908 -1.55936e-05
1.70278e-05 -1.55936e-05 0.000120011
7.56225e-06 -0.000122087 0.000266874
-0.000122087 0.000792536 1.10046e-05
0.000266874 1.10046e-05 -0.0024847
-0.000509778 0.000251472 -5.65876e-06
0.000251472 -0.000145918 1.90139e-05
-5.65876e-06 1.90139e-05 -0.000459842
0.000822346 0.000664127 -7.60543e-06
0.000664127 0.000371597 -3.70819e-06
-7.60543e-06 -3.70819e-06 -0.000133523
-0.00150558 -8.84187e-06 -5.75211e-06
-8.84187e-06 -0.000102626 -6.95389e-06
-5.75211e-06 -6.95389e-06 -0.000365309
-0.00390127 0.000654113 5.0403e-05
0.000654113 0.00173202 0.000143972
5.0403e-05 0.000143972 -0.00313765
-0.0051874 0.00118009 -0.000173959
0.00118009 -0.00270909 -0.00039973
-0.000173959 -0.00039973 -0.00619066
0.0031761 8.15317e-05 6.50757e-05
8.15317e-05 -0.00016292 9.86738e-05
6.50757e-05 9.86738e-05 -0.000129231
0.00567937 0.000193459 -0.000199786
0.000193459 -0.00283731 0.000183113
-0.000199786 0.000183113 -0.00278805
0.000380508 0.000271038 2.33849e-06
0.000271038 0.000455268 -1.33575e-06
2.33849e-06 -1.33575e-06 9.37143e-05
0.00100768 -1.70569e-06 2.43869e-05
-1.70569e-06 -0.000323657 -2.6868e-05
2.43869e-05 -2.6868e-05 -0.000195186
0.0036583 -0.000493029 -6.12482e-05
-0.000493029 0.0026096 6.48061e-06
-6.12482e-05 6.48061e-06 0.00127025
0.000459735 0.000486273 -8.83118e-05
0.000486273 0.000998632 -6.46222e-06
-8.83118e-05 -6.46222e-06 -9.15593e-05
0.0102363 0.0035149 6.7252e-05
0.0035149 0.000962644 -0.000312992
6.7252e-05 -0.000312992 -0.000351951
-0.00124772 0.00221654 6.29204e-05
0.00221654 0.0023616 0.000248451
6.29204e-05 0.000248451 -0.0011763
0.00596991 0.000346239 4.88697e-05
0.000346239 0.00599823 -2.32605e-05
4.88697e-05 -2.32605e-05 -0.0006251
0.00094755 -3.5801e-06 2.87172e-05
-3.5801e-06 0.00135086 -2.58809e-05
2.87172e-05 -2.58809e-05 0.000547898
0.000216573 -6.73466e-05 -6.42065e-05
-6.73466e-05 0.00123018 3.70159e-06
-6.42065e-05 3.70159e-06 0.000930719
0.00248139 -0.000749825 0.000545329
-0.000749825 0.000883719 -0.000222873
0.000545329 -0.000222873 -0.00344383
0.0128077 0.0048818 -2.5298e-05
0.0048818 0.00887415 9.78129e-06
-2.5298e-05 9.78129e-06 0.00740638
0.000308773 0.00279409 -0.000110061
0.00279409 -0.00125076 0.000609295
-0.000110061 0.000609295 -0.00357269
0.0120648 -0.00255257 0.000205571
-0.00255257 0.00542974 -0.000178403
0.000205571 -0.000178403 0.000577529
0.00337345 -0.000672219 -6.2901e-05
-0.000672219 0.00238741 4.82559e-05
-6.2901e-05 4.82559e-05 0.00170144
0.00157329 0.000283826 6.97831e-06
0.000283826 0.00117622 5.27538e-06
6.97831e-06 5.27538e-06 0.000821344
-0.000140376 -2.23918e-05 -4.25955e-06
-2.23918e-05 0.000214601 -2.32312e-06
-4.25955e-06 -2.32312e-06 -7.84166e-05
0.00192123 -0.000409912 2.84154e-05
-0.000409912 0.0011626 -1.17392e-05
2.84154e-05 -1.17392e-05 0.000776852
0.000816871 -8.88663e-05 2.40161e-07
-8.88663e-05 0.000456811 4.20085e-06
2.40161e-07 4.20085e-06 0.000270825
0.000139363 -3.29842e-05 -4.32196e-06
-3.29842e-05 0.000288857 1.05409e-06
-4.32196e-06 1.05409e-06 -4.17611e-05
0.000219353 -0.000206837 -2.7401e-06
-0.000206837 0.000279467 -8.05866e-09
-2.7401e-06 -8.05866e-09 -9.49974e-06
0.000648308 -0.000413082 2.48537e-05
-0.000413082 0.000199864 -2.20213e-05
2.48537e-05 -2.20213e-05 6.13732e-06
0.00245096 -0.000315553 -3.35208e-06
-0.000315553 0.00123697 3.23039e-06
-3.35208e-06 3.23039e-06 0.00105105
0.00226926 -0.000589904 1.17506e-05
-0.000589904 0.00104691 -3.09934e-06
1.17506e-05 -3.09934e-06 0.000712984
0.0017737 -0.000548427 1.21657e-05
-0.000548427 0.000734075 -2.10374e-06
1.21657e-05 -2.10374e-06 0.000229794
0.000357945 -0.000273364 -3.73517e-06
-0.000273364 -0.00015495 -2.04799e-06
-3.73517e-06 -2.04799e-06 -0.000345861
0.00150739 -0.000473176 -2.21991e-06
-0.000473176 0.000395195 7.18984e-07
-2.21991e-06 7.18984e-07 2.57259e-05
0.0021407 -0.000643409 3.62362e-07
-0.000643409 0.000697482 8.21607e-07
3.62362e-07 8.21607e-07 0.000228214
0.00175429 -0.00065199 -4.70328e-06
-0.00065199 0.000355593 1.66142e-06
-4.70328e-06 1.66142e-06 -5.426e-05
0.00160063 -0.000523905 -1.39991e-06
-0.000523905 0.000388883 2.19584e-07
-1.39991e-06 2.19584e-07 3.48446e-05
0.00149826 -0.000507863 -4.35416e-06
-0.000507863 0.000317166 1.32122e-06
-4.35416e-06 1.32122e-06 -5.03689e-05
0.00108476 -0.000373157 -4.42158e-06
-0.000373157 0.000189852 -1.56524e-06
-4.42158e-06 -1.56524e-06 -0.000119138
0.00204292 -0.000442879 4.29886e-06
-0.000442879 0.000754214 1.75191e-06
4.29886e-06 1.75191e-06 0.000469681
0.00146177 -0.000414625 4.6418e-06
-0.000414625 0.000342424 -3.20513e-06
4.6418e-06 -3.20513e-06 4.30992e-05
0.000333968 -0.000159946 1.80746e-06
-0.000159946 -0.000136591 1.25576e-07
1.80746e-06 1.25576e-07 -0.000364198
0.000898018 -0.000303106 3.34377e-06
-0.000303106 0.000115575 -6.59858e-07
3.34377e-06 -6.59858e-07 -0.000138715
0.000198378 -0.00025664 -3.2686e-07
-0.00025664 -0.000400181 -7.70004e-06
-3.2686e-07 -7.70004e-06 -0.00066193
-0.000147308 -1.72764e-05 3.61983e-07
-1.72764e-05 -0.000354435 1.5364e-06
3.61983e-07 1.5364e-06 -0.00054508
0.00105505 -0.000177123 -3.73045e-07
-0.000177123 0.000405079 -1.3478e-07
-3.73045e-07 -1.3478e-07 0.000164154
0.00104827 -0.000318122 -2.03663e-07
-0.000318122 0.000360804 -1.65246e-06
-2.03663e-07 -1.65246e-06 9.79931e-05
0.000691427 -1.38184e-05 -1.09971e-06
-1.38184e-05 0.000113894 4.51548e-06
-1.09971e-06 4.51548e-06 1.43519e-05
0.000804127 -9.52774e-05 -3.0012e-07
-9.52774e-05 0.000188348 -2.6895e-07
-3.0012e-07 -2.6895e-07 4.93521e-05
0.000239346 -8.46414e-05 4.22894e-07
-8.46414e-05 -9.36819e-05 1.19042e-06
4.22894e-07 1.19042e-06 -0.000281756
0.000718786 -9.01585e-05 9.69255e-07
-9.01585e-05 0.000155608 -7.15933e-07
9.69255e-07 -7.15933e-07 2.11279e-05
0.000615626 -3.33448e-05 -1.41392e-08
-3.33448e-05 6.67643e-05 -2.32844e-07
-1.41392e-08 -2.32844e-07 -2.20305e-05
0.000458237 3.42279e-05 5.46366e-07
3.42279e-05 -4.17605e-05 7.02546e-06
5.46366e-07 7.02546e-06 -7.64989e-05
0.000630733 -3.93966e-05 1.40943e-06
-3.93966e-05 7.82769e-05 -3.32965e-06
1.40943e-06 -3.32965e-06 -1.78924e-06
0.000504305 2.59694e-05 -1.46673e-06
2.59694e-05 -2.14957e-05 -1.81103e-07
-1.46673e-06 -1.81103e-07 -5.07764e-05
0.00261298 9.51309e-05 -3.19844e-05
9.51309e-05 0.00128685 4.36567e-06
-3.19844e-05 4.36567e-06 0.00129218
0.000522497 1.11873e-05 1.89823e-06
1.11873e-05 -1.68398e-05 -5.40485e-06
1.89823e-06 -5.40485e-06 -4.23191e-05
0.00168716 6.28364e-05 1.59074e-05
6.28364e-05 0.000706372 -8.43532e-07
1.59074e-05 -8.43532e-07 0.000710177
0.00259283 6.35932e-05 2.27232e-05
6.35932e-05 0.001265 -5.05795e-06
2.27232e-05 -5.05795e-06 0.00127487
0.000709402 8.18578e-05 2.66727e-06
8.18578e-05 0.000150034 -8.3255e-08
2.66727e-06 -8.3255e-08 2.7365e-05
0.000538074 3.95016e-05 1.14559e-06
3.95016e-05 1.37253e-05 -2.59335e-06
1.14559e-06 -2.59335e-06 -5.73335e-05
0.000478366 4.5837e-05 -1.11911e-06
4.5837e-05 1.08836e-05 -1.19266e-06
-1.11911e-06 -1.19266e-06 -0.000109718
0.000506213 -3.94759e-06 9.18994e-07
-3.94759e-06 -3.32622e-05 -4.89193e-06
9.18994e-07 -4.89193e-06 -5.00197e-05
0.000366102 3.16297e-05 -2.01706e-06
3.16297e-05 -9.02843e-05 -1.60558e-06
-2.01706e-06 -1.60558e-06 -0.000156507
0.000700376 6.42248e-05 -8.49537e-07
6.42248e-05 0.00015239 -1.04819e-06
-8.49537e-07 -1.04819e-06 3.72821e-05
0.00216977 -3.60799e-05 -1.85731e-05
-3.60799e-05 0.000998087 -4.70474e-06
-1.85731e-05 -4.70474e-06 0.00101442
0.000500226 -6.30105e-06 -1.21383e-07
-6.30105e-06 -3.74971e-05 -1.0462e-07
-1.21383e-07 -1.0462e-07 -5.01128e-05
0.00016559 1.07344e-05 -1.66706e-06
1.07344e-05 -0.000212586 4.49929e-07
-1.66706e-06 4.49929e-07 -0.000273423
0.00210983 -2.04455e-05 -4.93263e-06
-2.04455e-05 0.000960522 1.13695e-07
-4.93263e-06 1.13695e-07 0.000978224
0.000496717 -4.12068e-06 -1.91367e-06
-4.12068e-06 -3.967e-05 3.48777e-06
-1.91367e-06 3.48777e-06 -4.94042e-05
0.002062 -5.0661e-06 9.53574e-06
-5.0661e-06 0.000931169 4.74685e-06
9.53574e-06 4.74685e-06 0.000949456
0.00119019 -0.000138493 -3.18635e-05
-0.000138493 -0.000268053 2.79859e-05
-3.18635e-05 2.79859e-05 -0.00020611
-4.30459e-05 -0.000170081 3.98952e-05
-0.000170081 0.00108258 -2.54343e-06
3.98952e-05 -2.54343e-06 0.000792004
-0.000256847 -0.000311872 0.000142722
-0.000311872 0.000383524 -9.14776e-05
0.000142722 -9.14776e-05 -0.00284341
0.000319788 4.41381e-05 2.82791e-06
4.41381e-05 -0.000115902 1.79307e-06
2.82791e-06 1.79307e-06 -0.00024184
0.00167953 9.72116e-05 5.02314e-07
9.72116e-05 0.000702142 2.55813e-06
5.02314e-07 2.55813e-06 0.000555527
0.000736621 0.000127315 -1.51746e-06
0.000127315 0.000161524 -1.84904e-06
-1.51746e-06 -1.84904e-06 3.03966e-05
0.000495628 6.88511e-05 5.81643e-07
6.88511e-05 -1.36754e-05 7.18904e-07
5.81643e-07 7.18904e-07 -0.00013146
0.000544554 8.7565e-05 2.46155e-07
8.7565e-05 3.69433e-05 -2.12864e-07
2.46155e-07 -2.12864e-07 -8.86087e-05
0.000552552 7.83267e-05 3.87792e-06
7.83267e-05 3.2787e-05 1.57106e-06
3.87792e-06 1.57106e-06 -8.45233e-05
0.00058009 0.000162767 7.36423e-06
0.000162767 9.71903e-05 4.50786e-06
7.36423e-06 4.50786e-06 -4.33645e-05
0.00077444 0.000444052 0.000126425
0.000444052 -0.000413722 0.000230187
0.000126425 0.000230187 -0.00165371
0.0037897 -9.30005e-05 -2.90292e-05
-9.30005e-05 -0.000172075 5.7278e-05
-2.90292e-05 5.7278e-05 -0.00069935
0.00364577 -0.000469448 0.000112337
-0.000469448 0.00245981 -9.40246e-05
0.000112337 -9.40246e-05 0.00145065
0.00630485 -0.000122145 -6.51935e-06
-0.000122145 -0.00551943 0.000134343
-6.51935e-06 0.000134343 -0.00185089
0.00278796 -0.00185865 -9.36676e-05
-0.00185865 0.000383867 6.12334e-05
-9.36676e-05 6.12334e-05 0.000117919
0.000293439 -0.00278766 -0.000139782
-0.00278766 0.00104587 7.92695e-05
-0.000139782 7.92695e-05 -0.00390212
0.0124911 0.00330412 8.60551e-05
0.00330412 0.00616125 -0.000115751
8.60551e-05 -0.000115751 0.00274592
0.00292708 -0.0016999 -3.75902e-05
-0.0016999 0.000584748 1.73728e-05
-3.75902e-05 1.73728e-05 0.000646771
-0.0012243 -0.000625652 -2.41978e-05
-0.000625652 0.00288467 4.47417e-05
-2.41978e-05 4.47417e-05 -0.00311552
0.00588737 0.00043578 0.000125021
0.00043578 0.00267343 -1.78479e-05
0.000125021 -1.78479e-05 4.95682e-06
0.0131426 -0.00198072 -5.74212e-05
-0.00198072 0.00173372 -2.76398e-05
-5.74212e-05 -2.76398e-05 0.00307931
-0.00118523 -0.000311607 -0.000118741
-0.000311607 -0.00035458 0.000103498
-0.000118741 0.000103498 -0.000204432
0.00287845 0.00195991 -0.000138175
0.00195991 0.00409528 -8.09924e-05
-0.000138175 -8.09924e-05 -0.00196305
-0.00398213 -0.00383187 4.13428e-05
-0.00383187 -0.00153145 -0.000213718
4.13428e-05 -0.000213718 -0.00530262
0.010567 -0.00234416 8.2806e-05
-0.00234416 0.00169258 -0.000480969
8.2806e-05 -0.000480969 0.00123375
0.000955062 2.739e-05 9.12855e-06
2.739e-05 0.000396032 3.14412e-06
9.12855e-06 3.14412e-06 0.000236209
0.000673191 0.000135752 -1.02916e-06
0.000135752 0.000158584 -1.27684e-06
-1.02916e-06 -1.27684e-06 1.22589e-05
0.000709389 -1.41898e-05 -2.53236e-08
-1.41898e-05 0.000225108 -3.70596e-06
-2.53236e-08 -3.70596e-06 1.10178e-05
0.000885591 0.000113421 -2.73942e-06
0.000113421 0.000274099 -6.00768e-06
-2.73942e-06 -6.00768e-06 0.000113262
-0.000524123 -0.000644831 -2.51457e-06
-0.000644831 -0.000785592 4.34329e-05
-2.51457e-06 4.34329e-05 -0.000943981
0.00384666 -0.000302402 -2.15667e-06
-0.000302402 0.00214765 -2.62094e-05
-2.15667e-06 -2.62094e-05 0.00184981
0.00062888 7.18447e-05 -4.06156e-06
7.18447e-05 0.000151527 -7.85524e-06
-4.06156e-06 -7.85524e-06 4.58583e-06
0.000629697 0.000196122 -2.15181e-06
0.000196122 0.000236853 -2.7684e-06
-2.15181e-06 -2.7684e-06 6.20451e-05
0.00112361 0.000103914 -9.88818e-06
0.000103914 0.000881723 1.71815e-06
-9.88818e-06 1.71815e-06 0.000501486
0.000546929 6.37657e-05 3.82467e-06
6.37657e-05 0.000130023 3.15814e-06
3.82467e-06 3.15814e-06 4.08374e-06
0.000184431 0.000145304 -4.52233e-07
0.000145304 0.000362209 1.01084e-06
-4.52233e-07 1.01084e-06 -3.62072e-05
0.00174841 -0.000348866 -2.39318e-06
-0.000348866 0.00142914 4.3839e-06
-2.39318e-06 4.3839e-06 0.000505697
-4.6967e-05 -0.000116449 1.79436e-05
-0.000116449 0.000420269 7.67228e-07
1.79436e-05 7.67228e-07 6.83342e-05
-0.00024812 0.000110309 3.63702e-06
0.000110309 -7.15617e-05 -3.86574e-06
3.63702e-06 -3.86574e-06 -0.000302861
0.00185832 -0.000101124 -2.14485e-05
-0.000101124 0.00271501 -3.83285e-05
-2.14485e-05 -3.83285e-05 0.00123843
0.00139074 0.000288061 -6.43126e-06
0.000288061 0.00115562 1.81666e-05
-6.43126e-06 1.81666e-05 0.000697435
-0.000963159 5.23087e-05 -4.49767e-05
5.23087e-05 0.00104004 8.93838e-06
-4.49767e-05 8.93838e-06 0.000304368
0.000914653 7.8708e-06 4.87162e-06
7.8708e-06 -0.000218203 1.68438e-06
4.87162e-06 1.68438e-06 -0.000321513
-0.0015713 7.93337e-05 -1.33979e-07
7.93337e-05 0.000398774 -3.84918e-05
-1.33979e-07 -3.84918e-05 -5.23638e-05
0.000209228 0.000182037 -1.0428e-05
0.000182037 0.000449591 8.94353e-06
-1.0428e-05 8.94353e-06 0.000163618
-0.00123317 0.00059639 9.66598e-05
0.00059639 -0.000506916 8.80601e-05
9.66598e-05 8.80601e-05 -0.00106123
0.00079298 2.78522e-06 3.76349e-05
2.78522e-06 -0.000405198 -4.8498e-06
3.76349e-05 -4.8498e-06 -0.000137635
0.0040262 -0.00170277 0.000147912
-0.00170277 0.00460965 -0.000167167
0.000147912 -0.000167167 -0.00260267
0.014174 0.00292941 -0.000134993
0.00292941 0.0063785 0.000108101
-0.000134993 0.000108101 0.00326974
0.00345916 -0.00037025 -0.000109623
-0.00037025 0.00224763 0.000101738
-0.000109623 0.000101738 0.00134537
0.0103878 0.00345635 -1.70377e-05
0.00345635 0.00281795 -0.000146357
-1.70377e-05 -0.000146357 0.000865792
0.000433702 0.000135603 -4.61724e-05
0.000135603 0.000958942 1.0271e-05
-4.61724e-05 1.0271e-05 0.000163743
0.000291691 -9.43805e-05 -4.67667e-05
-9.43805e-05 0.00103544 1.50088e-06
-4.67667e-05 1.50088e-06 0.000898952
0.00350737 -0.000984721 0.000215174
-0.000984721 0.00143242 -2.14692e-05
0.000215174 -2.14692e-05 -0.002739
-0.00150756 -0.000169052 3.00674e-05
-0.000169052 -0.000413551 2.93733e-05
3.00674e-05 2.93733e-05 -0.000736163
0.00614328 0.00537398 0.000388122
0.00537398 0.00509999 -0.000191715
0.000388122 -0.000191715 0.00406512
0.00716993 0.00223964 -0.000142528
0.00223964 0.00141743 0.000264944
-0.000142528 0.000264944 -0.00102013
-0.00272994 -0.00102823 0.000115658
-0.00102823 0.00209413 -0.000114232
0.000115658 -0.000114232 -0.00434444
-0.000162359 -0.000337293 1.69564e-05
-0.000337293 0.000505161 -2.10672e-05
1.69564e-05 -2.10672e-05 -0.000279441
0.000169233 -0.000475992 0.000197204
-0.000475992 -0.000293432 -4.48828e-05
0.000197204 -4.48828e-05 -0.00271968
-0.00210197 2.98556e-05 -0.00069169
2.98556e-05 0.0047644 0.000188025
-0.00069169 0.000188025 0.00180406
0.010505 0.00506879 -0.000464326
0.00506879 0.00265192 0.000487394
-0.000464326 0.000487394 0.000955176
0.00882215 -0.00235351 -8.03614e-05
-0.00235351 0.00361646 3.1556e-05
-8.03614e-05 3.1556e-05 -1.91767e-05
0.0028392 -0.00106129 -3.07679e-05
-0.00106129 0.00184351 2.15556e-05
-3.07679e-05 2.15556e-05 0.00129303
0.000547816 -5.50051e-05 6.38851e-06
-5.50051e-05 0.000542604 1.14723e-05
6.38851e-06 1.14723e-05 0.000263019
0.00032678 -0.000276352 2.72578e-06
-0.000276352 0.000373037 -4.53828e-07
2.72578e-06 -4.53828e-07 -2.05175e-05
0.00110707 -0.000562431 8.872e-06
-0.000562431 0.000537951 -6.82859e-07
8.872e-06 -6.82859e-07 0.00037513
-0.000438931 -0.000187886 5.76833e-07
-0.000187886 -8.56994e-06 7.28872e-06
5.76833e-07 7.28872e-06 -0.000304137
-0.000801012 -0.000275838 1.55663e-06
-0.000275838 -0.000487257 -1.29755e-06
1.55663e-06 -1.29755e-06 -0.000689953
0.00269978 -0.000685332 4.24999e-05
-0.000685332 0.00107944 -3.63663e-06
4.24999e-05 -3.63663e-06 0.000794155
0.00577428 -0.000972026 -1.44428e-05
-0.000972026 0.0029441 5.28224e-06
-1.44428e-05 5.28224e-06 0.00255966
0.00268408 -0.00066127 6.90537e-06
-0.00066127 0.00115081 5.10312e-08
6.90537e-06 5.10312e-08 0.000654598
0.00161148 -0.000634592 1.11284e-05
-0.000634592 0.000402698 -9.0406e-06
1.11284e-05 -9.0406e-06 -0.000120057
0.00149441 -0.000468727 -8.61118e-06
-0.000468727 0.00035318 -1.93539e-06
-8.61118e-06 -1.93539e-06 -1.32718e-05
0.00229456 -0.000670786 2.66923e-06
-0.000670786 0.00075732 -5.4093e-07
2.66923e-06 -5.4093e-07 0.000280033
0.00231329 -0.000716551 3.16905e-06
-0.000716551 0.000704264 -9.18985e-06
3.16905e-06 -9.18985e-06 0.000227245
0.00205323 -0.000623104 -2.11717e-06
-0.000623104 0.000395607 -4.67752e-06
-2.11717e-06 -4.67752e-06 5.3005e-05
0.00209393 -0.000688625 -1.93959e-06
-0.000688625 0.000526704 1.41769e-06
-1.93959e-06 1.41769e-06 0.000137067
0.00197906 -0.000677849 -2.12944e-06
-0.000677849 0.000479282 2.95146e-09
-2.12944e-06 2.95146e-09 6.09089e-05
0.00196804 -0.000528845 6.92756e-06
-0.000528845 0.000649754 2.0429e-06
6.92756e-06 2.0429e-06 0.000319669
0.00129058 -0.000482873 1.4743e-06
-0.000482873 0.00020949 -6.12464e-08
1.4743e-06 -6.12464e-08 -0.000129702
0.00125949 -0.000483361 -4.34016e-07
-0.000483361 0.000174342 1.29499e-07
-4.34016e-07 1.29499e-07 -0.000189698
0.00157383 -0.000359738 3.14321e-06
-0.000359738 0.000505202 5.22376e-07
3.14321e-06 5.22376e-07 0.000249324
0.00146242 -0.000381768 -8.62386e-07
-0.000381768 0.000397307 -1.43078e-06
-8.62386e-07 -1.43078e-06 0.000122809
0.00131843 -0.000402119 1.01987e-05
-0.000402119 0.000261353 -4.63359e-06
1.01987e-05 -4.63359e-06 -3.67569e-05
0.000693574 -0.000166248 3.25273e-06
-0.000166248 0.000180718 7.29197e-08
3.25273e-06 7.29197e-08 -8.28473e-05
0.000697941 -0.000196561 -1.88471e-06
-0.000196561 0.000100397 1.18773e-06
-1.88471e-06 1.18773e-06 -0.000136383
0.00104799 -0.000327783 7.35789e-06
-0.000327783 0.000222265 -6.36835e-06
7.35789e-06 -6.36835e-06 -3.64198e-05
0.000325517 -2.0553e-05 4.54376e-07
-2.0553e-05 -0.000116377 4.90349e-06
4.54376e-07 4.90349e-06 -0.000229622
0.00069194 -6.39228e-05 -9.71906e-07
-6.39228e-05 0.000161561 1.13427e-07
-9.71906e-07 1.13427e-07 -3.92191e-05
0.00137655 -0.000239267 8.56293e-07
-0.000239267 0.000608788 5.38117e-07
8.56293e-07 5.38117e-07 0.000358203
0.000455819 2.0261e-05 -3.55436e-06
2.0261e-05 -4.3666e-05 1.02232e-05
-3.55436e-06 1.02232e-05 -8.1318e-05
0.000639926 -2.32597e-05 -3.3359e-07
-2.32597e-05 7.69828e-05 -9.71262e-08
-3.3359e-07 -9.71262e-08 -2.11355e-05
0.00119207 -0.000137843 6.23862e-08
-0.000137843 0.000433681 -9.08253e-07
6.23862e-08 -9.08253e-07 0.000281907
0.000658855 -3.45579e-05 1.17221e-06
-3.45579e-05 9.21551e-05 -3.64388e-06
1.17221e-06 -3.64388e-06 3.18101e-06
0.00049207 2.83809e-05 9.54488e-08
2.83809e-05 -2.2936e-05 -1.17491e-07
9.54488e-08 -1.17491e-07 -5.69359e-05
0.00272923 0.000117098 -3.33865e-05
0.000117098 0.00136744 4.13784e-06
-3.33865e-05 4.13784e-06 0.00136773
0.000548266 2.46632e-05 7.78358e-07
2.46632e-05 3.74268e-06 -6.15994e-06
7.78358e-07 -6.15994e-06 -2.52696e-05
0.00263077 9.84867e-05 3.89215e-06
9.84867e-05 0.00129865 4.18854e-07
3.89215e-06 4.18854e-07 0.00130327
0.00256467 8.0686e-05 2.62369e-05
8.0686e-05 0.00125157 -4.60605e-06
2.62369e-05 -4.60605e-06 0.00125953
0.00070103 8.19127e-05 1.67115e-06
8.19127e-05 0.000185602 -2.23351e-06
1.67115e-06 -2.23351e-06 1.96124e-05
0.000772129 0.00010364 4.45324e-06
0.00010364 0.000201922 -6.06132e-07
4.45324e-06 -6.06132e-07 5.5974e-05
0.000585656 3.14076e-05 1.96582e-06
3.14076e-05 4.17054e-05 -3.24134e-06
1.96582e-06 -3.24134e-06 -3.70581e-05
0.000639434 9.47728e-05 1.85931e-07
9.47728e-05 0.000104159 -2.12927e-07
1.85931e-07 -2.12927e-07 -1.69242e-05
0.000492294 -8.01312e-06 4.21344e-07
-8.01312e-06 -3.92713e-05 -5.84665e-06
4.21344e-07 -5.84665e-06 -6.05891e-05
0.000558935 4.26996e-05 2.32565e-07
4.26996e-05 2.68313e-05 -1.41039e-07
2.32565e-07 -1.41039e-07 -4.42748e-05
0.000590938 5.01545e-05 -3.2704e-06
5.01545e-05 6.74849e-05 -4.83449e-07
-3.2704e-06 -4.83449e-07 -4.44405e-05
0.00230762 -5.17504e-05 -2.42613e-05
-5.17504e-05 0.00108532 -4.76929e-06
-2.42613e-05 -4.76929e-06 0.00109933
0.000500833 -9.13416e-06 -6.30332e-07
-9.13416e-06 -3.60508e-05 -9.61126e-08
-6.30332e-07 -9.61126e-08 -5.26603e-05
0.000500653 4.87679e-05 -2.73447e-06
4.87679e-05 -6.18679e-06 8.70365e-07
-2.73447e-06 8.70365e-07 -7.16939e-05
0.00218474 -3.53292e-05 -4.55859e-06
-3.53292e-05 0.00100732 2.09122e-07
-4.55859e-06 2.09122e-07 0.00102371
0.000499762 -6.49719e-06 -2.00869e-06
-6.49719e-06 -3.79052e-05 3.80313e-06
-2.00869e-06 3.80313e-06 -5.02924e-05
0.00209606 -1.95142e-05 1.37358e-05
-1.95142e-05 0.000951749 4.65718e-06
1.37358e-05 4.65718e-06 0.000969576
-0.00144672 3.11315e-05 -1.16422e-05
3.11315e-05 -9.55713e-05 -8.15253e-06
-1.16422e-05 -8.15253e-06 -4.12336e-05
0.00119065 -0.000149654 -1.68793e-05
-0.000149654 -0.000265089 2.43034e-05
-1.68793e-05 2.43034e-05 -7.80525e-05
0.000224469 -0.000167944 7.22125e-06
-0.000167944 0.0010397 -2.70145e-05
7.22125e-06 -2.70145e-05 0.000769989
0.000781819 8.69593e-05 -3.89775e-07
8.69593e-05 0.000200248 5.69586e-07
-3.89775e-07 5.69586e-07 5.12545e-05
0.00053179 8.01589e-05 3.456e-06
8.01589e-05 2.65929e-06 -1.06892e-06
3.456e-06 -1.06892e-06 -0.000134432
-0.00136521 -1.82187e-06 -4.02655e-06
-1.82187e-06 -0.00113478 -8.20289e-06
-4.02655e-06 -8.20289e-06 -0.00124726
0.000134322 3.30832e-05 2.28619e-06
3.30832e-05 -0.000212216 8.24256e-06
2.28619e-06 8.24256e-06 -0.000342415
0.0025746 0.000328348 -1.59314e-06
0.000328348 0.00130219 -7.23193e-07
-1.59314e-06 -7.23193e-07 0.00109111
0.000708829 4.2415e-05 -4.33423e-06
4.2415e-05 0.000107829 -2.32894e-06
-4.33423e-06 -2.32894e-06 -7.40937e-06
0.000557022 8.11728e-05 -4.34449e-06
8.11728e-05 3.72358e-05 -5.81254e-06
-4.34449e-06 -5.81254e-06 -7.95812e-05
0.000715802 6.91469e-05 1.51378e-07
6.91469e-05 0.000134905 -3.48297e-07
1.51378e-07 -3.48297e-07 1.50646e-05
0.000955414 0.000137133 -1.477e-07
0.000137133 0.000304008 -1.04112e-06
-1.477e-07 -1.04112e-06 0.000176453
0.000742427 0.000100798 5.66807e-06
0.000100798 0.000263132 -8.11526e-06
5.66807e-06 -8.11526e-06 8.61861e-05
0.00447097 0.000609245 0.000294255
0.000609245 0.00311765 0.000388359
0.000294255 0.000388359 -0.00115681
0.00141374 0.000398907 1.53861e-05
0.000398907 -7.81235e-05 8.337e-05
1.53861e-05 8.337e-05 -0.00155539
0.00331542 -7.81393e-05 5.90788e-06
-7.81393e-05 -3.55716e-05 -1.42648e-05
5.90788e-06 -1.42648e-05 -0.00028146
0.0130086 -0.00169238 -0.000192354
-0.00169238 0.00177734 -0.000138762
-0.000192354 -0.000138762 0.00345423
-0.00552938 0.00155832 4.24709e-05
0.00155832 -0.0024485 0.000379032
4.24709e-05 0.000379032 -0.00612151
0.00353882 -0.00178947 -8.65741e-05
-0.00178947 0.00116403 1.22741e-05
-8.65741e-05 1.22741e-05 0.00121303
0.0101529 -0.00167935 -0.000115516
-0.00167935 0.00528077 1.09302e-05
-0.000115516 1.09302e-05 0.000903664
0.000636307 -0.000420677 -1.84384e-05
-0.000420677 0.00028126 8.10063e-05
-1.84384e-05 8.10063e-05 0.000110887
0.0098852 -0.000255184 -9.17369e-05
-0.000255184 0.00598002 -6.89378e-06
-9.17369e-05 -6.89378e-06 0.000241175
0.00409035 -0.00218448 8.79451e-05
-0.00218448 0.00234654 0.000141275
8.79451e-05 0.000141275 -0.00121462
0.0115528 -0.00310145 -0.00018282
-0.00310145 0.000858572 -0.000569002
-0.00018282 -0.000569002 0.000280513
0.00375707 6.469e-05 -8.84534e-05
6.469e-05 0.00257262 8.07495e-05
-8.84534e-05 8.07495e-05 0.00185292
0.0121356 0.00206439 -0.000124196
0.00206439 0.00601262 2.83524e-05
-0.000124196 2.83524e-05 0.00160309
0.0158648 -0.00453418 -0.000193564
-0.00453418 0.00702155 -0.000529223
-0.000193564 -0.000529223 0.0045832
0.0162015 -0.00569435 7.403e-05
-0.00569435 0.0053889 -4.44391e-05
7.403e-05 -4.44391e-05 0.00476893
0.000493237 0.000158817 1.14651e-05
0.000158817 0.000192971 9.16337e-07
1.14651e-05 9.16337e-07 -7.51641e-06
0.00040617 4.15615e-05 1.86594e-06
4.15615e-05 0.000109646 2.37882e-06
1.86594e-06 2.37882e-06 -7.82765e-05
0.000910033 0.000159178 -5.95859e-06
0.000159178 0.000314016 -8.90914e-06
-5.95859e-06 -8.90914e-06 0.000158001
0.00348394 -0.00037354 -5.99125e-05
-0.00037354 0.00184668 3.95315e-05
-5.99125e-05 3.95315e-05 0.000806572
0.000208121 -8.11445e-05 -3.61456e-06
-8.11445e-05 0.000652771 -4.00372e-05
-3.61456e-06 -4.00372e-05 0.00027723
0.000394796 -4.89969e-06 -7.73414e-06
-4.89969e-06 2.9269e-05 -5.1037e-07
-7.73414e-06 -5.1037e-07 -8.84646e-05
-1.48643e-05 5.17605e-05 3.2191e-07
5.17605e-05 0.000249015 -5.062e-06
3.2191e-07 -5.062e-06 -0.000145829
0.00032699 0.000104201 1.74105e-06
0.000104201 0.000242436 -1.02386e-06
1.74105e-06 -1.02386e-06 2.57308e-06
0.000490791 0.000257975 8.77269e-06
0.000257975 0.000597022 7.24541e-07
8.77269e-06 7.24541e-07 0.000137349
-0.00152676 -9.98065e-05 0.000206186
-9.98065e-05 0.000689375 -1.46298e-05
0.000206186 -1.46298e-05 -0.000910743
-0.00187125 0.000166747 -1.50202e-05
0.000166747 -0.000955592 1.33861e-05
-1.50202e-05 1.33861e-05 -0.00128203
0.0027195 0.000644367 -0.000123481
0.000644367 0.00199734 -7.15176e-05
-0.000123481 -7.15176e-05 0.000856435
0.00157096 0.00017483 0.000135799
0.00017483 0.00157419 4.23001e-05
0.000135799 4.23001e-05 -0.00171783
-0.00129647 7.71744e-05 -1.70362e-05
7.71744e-05 0.000753725 1.77164e-05
-1.70362e-05 1.77164e-05 7.85217e-05
0.00180978 -0.000146316 -9.31099e-06
-0.000146316 0.000186 5.61247e-07
-9.31099e-06 5.61247e-07 0.000522905
-0.000958362 0.000408756 0.00011424
0.000408756 0.000102336 1.34794e-05
0.00011424 1.34794e-05 -0.00078125
0.00161475 0.000274866 -6.42233e-05
0.000274866 0.00157385 6.23323e-05
-6.42233e-05 6.23323e-05 0.000436048
0.000187484 -0.000161103 -1.47238e-05
-0.000161103 0.000995591 6.76284e-06
-1.47238e-05 6.76284e-06 0.000734594
0.0161427 -0.00304371 0.000169838
-0.00304371 0.00754748 -7.66573e-05
0.000169838 -7.66573e-05 0.00235982
0.018746 0.00336199 -5.52332e-05
0.00336199 0.00781171 -0.000105376
-5.52332e-05 -0.000105376 0.0049464
0.00453912 -0.001077 -0.000157126
-0.001077 0.00209469 0.000190426
-0.000157126 0.000190426 -0.00208653
-0.0012811 0.00612425 0.00175954
0.00612425 0.000719214 -0.00122078
0.00175954 -0.00122078 -0.000167666
0.000856553 -0.000365441 2.3209e-05
-0.000365441 0.00106637 -6.86883e-06
2.3209e-05 -6.86883e-06 0.000200673
3.21926e-05 -0.00034332 2.53492e-05
-0.00034332 0.000146684 1.52482e-05
2.53492e-05 1.52482e-05 -0.00273848
-0.00209128 0.000336774 -0.000843664
0.000336774 0.00463769 0.00029911
-0.000843664 0.00029911 0.00150516
0.000947929 -0.00062056 -6.30642e-06
-0.00062056 0.000849512 3.31623e-05
-6.30642e-06 3.31623e-05 0.00036476
0.0178301 0.00447896 0.000236795
0.00447896 0.00518905 8.24283e-05
0.000236795 8.24283e-05 0.0036516
0.0077402 -0.00325255 0.000146806
-0.00325255 0.00275539 -6.54557e-05
0.000146806 -6.54557e-05 -0.000769435
0.00216126 -0.000964294 -1.61419e-05
-0.000964294 0.00112861 2.95187e-05
-1.61419e-05 2.95187e-05 0.000631874
-0.00629642 -0.00120038 9.77314e-05
-0.00120038 0.00391302 -5.29368e-05
9.77314e-05 -5.29368e-05 0.000556732
0.0139525 0.00410429 -0.0010512
0.00410429 0.00557374 0.000443363
-0.0010512 0.000443363 0.00389407
0.00424498 -0.00228489 -0.000317911
-0.00228489 -0.000508715 0.000173836
-0.000317911 0.000173836 -0.00405842
0.00215175 -0.00159292 0.00017149
-0.00159292 0.000365031 -9.39251e-05
0.00017149 -9.39251e-05 0.00103959
1.94376e-05 -0.000311548 -6.88874e-05
-0.000311548 0.000176252 2.35799e-05
-6.88874e-05 2.35799e-05 -0.000189805
0.000699219 -0.000494466 -8.14483e-06
-0.000494466 0.000366956 1.20949e-05
-8.14483e-06 1.20949e-05 0.000127723
0.00338131 -0.000752434 2.77751e-05
-0.000752434 0.00155258 -7.30983e-07
2.77751e-05 -7.30983e-07 0.0012645
-0.00239916 -0.000138123 2.63077e-06
-0.000138123 -0.00124355 1.21889e-05
2.63077e-06 1.21889e-05 -0.00145649
0.000855212 -0.000472561 5.65304e-06
-0.000472561 0.000117748 4.54778e-07
5.65304e-06 4.54778e-07 -0.000150114
0.00224782 -0.000733121 9.31615e-06
-0.000733121 0.000561717 -7.57246e-07
9.31615e-06 -7.57246e-07 0.000242495
0.00346759 -0.000757423 -2.53979e-05
-0.000757423 0.0014994 6.97605e-06
-2.53979e-05 6.97605e-06 0.00101515
0.00144468 -0.000599247 -9.41723e-07
-0.000599247 0.000291729 -1.62026e-06
-9.41723e-07 -1.62026e-06 -0.000207243
0.00178396 -0.00073678 5.45449e-06
-0.00073678 0.000251977 -9.32169e-06
5.45449e-06 -9.32169e-06 -0.000152053
0.0027496 -0.000731415 -4.09644e-06
-0.000731415 0.000984139 2.80517e-06
-4.09644e-06 2.80517e-06 0.000497479
0.00194163 -0.000681564 2.74608e-07
-0.000681564 0.000477544 -4.8165e-06
2.74608e-07 -4.8165e-06 1.895e-05
0.00245079 -0.000667551 2.24499e-06
-0.000667551 0.000563996 -8.51351e-06
2.24499e-06 -8.51351e-06 0.000229885
0.00168314 -0.000457877 -4.28438e-06
-0.000457877 3.62439e-05 -3.21776e-06
-4.28438e-06 -3.21776e-06 -0.000197586
0.00176076 -0.000614222 5.83278e-07
-0.000614222 0.000186548 -9.9038e-07
5.83278e-07 -9.9038e-07 -0.000151613
0.00197021 -0.000614292 2.52877e-06
-0.000614292 0.000345224 -2.93864e-06
2.52877e-06 -2.93864e-06 6.57722e-06
0.00198985 -0.000602121 4.33879e-07
-0.000602121 0.000532386 -1.53195e-07
4.33879e-07 -1.53195e-07 0.000181192
0.00209117 -0.00068756 -2.27241e-06
-0.00068756 0.000538042 1.0522e-07
-2.27241e-06 1.0522e-07 0.000143664
0.00220452 -0.000705591 1.22548e-06
-0.000705591 0.000601806 -2.9934e-06
1.22548e-06 -2.9934e-06 0.000174748
0.00184852 -0.000441422 3.68226e-06
-0.000441422 0.000618948 3.06236e-06
3.68226e-06 3.06236e-06 0.000327316
0.00127488 -0.000450815 1.54264e-06
-0.000450815 0.000244921 9.34205e-07
1.54264e-06 9.34205e-07 -6.61329e-05
0.00103863 -0.000449699 3.62077e-06
-0.000449699 6.24541e-05 2.86439e-07
3.62077e-06 2.86439e-07 -0.000263124
0.00118705 -0.000307458 -1.09294e-06
-0.000307458 0.00035984 7.2231e-07
-1.09294e-06 7.2231e-07 0.000110221
0.00105722 -0.000301337 -3.79559e-07
-0.000301337 0.000195867 -9.509e-07
-3.79559e-07 -9.509e-07 -4.98208e-05
0.00103633 -0.000336501 -3.8884e-06
-0.000336501 0.000135298 -3.74829e-06
-3.8884e-06 -3.74829e-06 -0.000132777
-0.000148652 -4.58156e-05 -1.22193e-06
-4.58156e-05 -0.000391646 5.34211e-06
-1.22193e-06 5.34211e-06 -0.000554933
0.000763569 -0.000175803 2.27893e-06
-0.000175803 0.000218867 1.08008e-07
2.27893e-06 1.08008e-07 -4.24175e-05
0.00135043 -0.000251074 -1.92337e-06
-0.000251074 0.000514643 2.27804e-06
-1.92337e-06 2.27804e-06 0.000262892
0.00168432 5.82888e-05 -3.12206e-05
5.82888e-05 0.00072502 6.74603e-06
-3.12206e-05 6.74603e-06 0.000682567
0.000712006 -6.09771e-05 4.18516e-07
-6.09771e-05 0.000114399 -6.25631e-07
4.18516e-07 -6.25631e-07 -2.81617e-06
0.00149692 -0.000109254 -3.14032e-06
-0.000109254 0.000658769 -1.99383e-06
-3.14032e-06 -1.99383e-06 0.000446775
0.000766409 4.57408e-05 -4.05429e-05
4.57408e-05 0.000153135 4.75499e-06
-4.05429e-05 4.75499e-06 0.000146287
0.00105024 3.76839e-05 -1.30323e-05
3.76839e-05 0.000326667 -4.9368e-07
-1.30323e-05 -4.9368e-07 0.00028964
0.000634476 -3.19256e-05 1.47348e-06
-3.19256e-05 6.84837e-05 -4.57929e-06
1.47348e-06 -4.57929e-06 -2.85089e-05
0.000540461 2.66467e-05 1.63363e-06
2.66467e-05 6.06208e-06 -7.28339e-06
1.63363e-06 -7.28339e-06 -2.804e-05
0.00276392 0.00011825 6.5986e-06
0.00011825 0.00138943 6.06611e-07
6.5986e-06 6.06611e-07 0.00138957
0.00262127 9.98144e-05 2.90654e-05
9.98144e-05 0.00129348 -4.44224e-06
2.90654e-05 -4.44224e-06 0.00129782
0.00109736 0.000123971 6.11752e-06
0.000123971 0.000410237 2.34206e-06
6.11752e-06 2.34206e-06 0.000246616
0.00115308 0.000133644 2.65837e-06
0.000133644 0.000456372 -2.28328e-06
2.65837e-06 -2.28328e-06 0.000288129
0.000333441 6.76743e-05 -5.50356e-07
6.76743e-05 -6.49393e-05 1.2011e-06
-5.50356e-07 1.2011e-06 -0.000211892
0.000629715 2.43528e-05 2.04072e-06
2.43528e-05 6.89792e-05 -4.39388e-06
2.04072e-06 -4.39388e-06 -1.96635e-05
0.000793672 9.44652e-05 6.33229e-07
9.44652e-05 0.000207721 -1.85433e-08
6.33229e-07 -1.85433e-08 7.08064e-05
0.000485893 -2.05315e-06 -1.07626e-06
-2.05315e-06 -3.81583e-05 -6.85475e-06
-1.07626e-06 -6.85475e-06 -6.41594e-05
0.000562249 3.38317e-05 -8.53075e-08
3.38317e-05 2.92367e-05 -3.14908e-07
-8.53075e-08 -3.14908e-07 -5.02235e-05
0.000706278 6.59058e-05 -2.37313e-06
6.59058e-05 0.000165427 7.66216e-07
-2.37313e-06 7.66216e-07 2.92456e-05
0.00249108 -6.88323e-05 -3.16976e-05
-6.88323e-05 0.00120269 -4.65186e-06
-3.16976e-05 -4.65186e-06 0.00121374
0.000479305 -6.37919e-06 -7.85476e-07
-6.37919e-06 -4.68911e-05 -9.55655e-08
-7.85476e-07 -9.55655e-08 -6.79975e-05
0.000568049 4.71907e-05 -3.7512e-07
4.71907e-05 3.3256e-05 2.87899e-06
-3.7512e-07 2.87899e-06 -3.80558e-05
0.00231342 -5.14958e-05 -5.37541e-06
-5.14958e-05 0.00108882 3.17946e-07
-5.37541e-06 3.17946e-07 0.00110291
0.00048084 -1.29428e-05 -2.88207e-06
-1.29428e-05 -4.79572e-05 4.69039e-06
-2.88207e-06 4.69039e-06 -6.44476e-05
0.00218636 -3.39475e-05 1.91332e-05
-3.39475e-05 0.00100823 4.57835e-06
1.91332e-05 4.57835e-06 0.0010248
0.0060887 0.000383333 0.000226006
0.000383333 0.00304799 4.38546e-05
0.000226006 4.38546e-05 0.00130089
-0.00127897 8.97167e-07 -1.01742e-06
8.97167e-07 -9.49811e-05 -4.22643e-06
-1.01742e-06 -4.22643e-06 -0.000179603
0.00089116 -4.40257e-05 -2.229e-05
-4.40257e-05 -0.00024356 -1.248e-07
-2.229e-05 -1.248e-07 -8.90579e-06
-0.000284759 8.74917e-05 -7.09403e-06
8.74917e-05 -0.000474825 -1.69027e-06
-7.09403e-06 -1.69027e-06 -0.000605698
0.000662625 7.99204e-05 -4.50248e-06
7.99204e-05 0.000123588 -1.56153e-06
-4.50248e-06 -1.56153e-06 -1.65023e-05
0.00018004 6.14089e-05 3.28691e-07
6.14089e-05 -0.00021475 -2.35517e-06
3.28691e-07 -2.35517e-06 -0.000345161
0.000977396 6.15098e-05 5.78338e-07
6.15098e-05 0.000288428 -3.93111e-07
5.78338e-07 -3.93111e-07 0.000151469
0.000284875 8.74706e-05 -1.72062e-06
8.74706e-05 -0.000145823 -4.49751e-07
-1.72062e-06 -4.49751e-07 -0.000266307
0.00179961 0.000247991 1.2766e-07
0.000247991 0.000825607 -2.74966e-06
1.2766e-07 -2.74966e-06 0.00065246
0.00108274 0.000201609 -4.57066e-06
0.000201609 0.000358498 -1.46467e-05
-4.57066e-06 -1.46467e-05 0.000121407
-0.000474433 5.172e-05 2.44606e-06
5.172e-05 -0.000422349 2.50289e-06
2.44606e-06 2.50289e-06 -0.000653239
0.000796314 0.000136585 -3.75597e-06
0.000136585 0.000204593 -2.74081e-06
-3.75597e-06 -2.74081e-06 7.02642e-05
0.000181891 4.34338e-05 -5.09928e-06
4.34338e-05 -0.000200168 -5.01023e-06
-5.09928e-06 -5.01023e-06 -0.000297547
0.000210321 5.15369e-05 1.57268e-07
5.15369e-05 -7.39964e-05 9.37238e-07
1.57268e-07 9.37238e-07 -0.000238912
0.000942639 0.000211181 1.38712e-05
0.000211181 0.000491655 2.29883e-06
1.38712e-05 2.29883e-06 0.000218851
0.00168881 -0.0019111 0.000142842
-0.0019111 0.00432312 0.000248027
0.000142842 0.000248027 0.000196648
0.00511992 0.000817316 7.43629e-05
0.000817316 0.00273396 0.000141859
7.43629e-05 0.000141859 -0.00179204
0.00198154 0.000289478 -2.79326e-05
0.000289478 0.000318097 -7.45232e-05
-2.79326e-05 -7.45232e-05 -0.00137588
0.017949 -0.00383469 -0.00050462
-0.00383469 0.00417243 -0.000300161
-0.00050462 -0.000300161 0.00350255
0.00632077 -0.00139573 0.000190257
-0.00139573 0.00282568 0.000395583
0.000190257 0.000395583 0.000187339
0.0027675 -0.00120745 -0.000170365
-0.00120745 0.00397966 8.55804e-05
-0.000170365 8.55804e-05 -0.00220077
0.000725766 -0.000579275 6.38225e-05
-0.000579275 0.00118784 2.59916e-05
6.38225e-05 2.59916e-05 0.000378664
0.000881385 -0.000131833 3.07484e-05
-0.000131833 0.000941698 5.52134e-05
3.07484e-05 5.52134e-05 0.000544078
0.00806419 -0.00587059 0.00032315
-0.00587059 0.00309285 0.000312133
0.00032315 0.000312133 0.00236247
0.00295317 0.00133428 -6.26134e-05
0.00133428 0.00389949 -6.22054e-05
-6.26134e-05 -6.22054e-05 -0.00181113
0.00580472 -0.00275471 -9.41903e-05
-0.00275471 0.00150929 8.1578e-05
-9.41903e-05 8.1578e-05 -0.0014422
0.000419398 0.000503593 -2.52957e-05
0.000503593 0.000713288 6.08945e-05
-2.52957e-05 6.08945e-05 0.000527601
0.0107743 0.00264047 -9.21506e-05
0.00264047 0.0041216 5.24025e-06
-9.21506e-05 5.24025e-06 0.000592743
0.0101465 -0.00484839 -0.000612426
-0.00484839 0.00236507 -0.000426833
-0.000612426 -0.000426833 0.000461583
2.22434e-05 0.000382354 2.09908e-06
0.000382354 -0.000344703 -5.52941e-06
2.09908e-06 -5.52941e-06 -0.000499294
0.000416986 0.00010557 6.70602e-06
0.00010557 0.000127247 2.29972e-06
6.70602e-06 2.29972e-06 -4.78529e-05
4.22075e-05 4.50484e-05 -6.56901e-06
4.50484e-05 -0.000111331 -4.4682e-06
-6.56901e-06 -4.4682e-06 -0.000298487
-0.00304148 -0.00029849 -0.000108957
-0.00029849 -4.12238e-05 -5.72303e-05
-0.000108957 -5.72303e-05 -0.00161387
-0.00089614 0.000185214 9.80412e-06
0.000185214 -0.000247563 -1.70476e-05
9.80412e-06 -1.70476e-05 -0.000707336
0.00057023 0.000120532 -8.33204e-06
0.000120532 0.000353683 3.03041e-06
-8.33204e-06 3.03041e-06 0.000108954
0.000860224 0.000501983 1.51265e-05
0.000501983 0.000466991 3.56498e-06
1.51265e-05 3.56498e-06 0.000112188
-0.000340873 0.00034201 4.89278e-05
0.00034201 0.000507584 -2.71128e-05
4.89278e-05 -2.71128e-05 -0.000484006
0.000268826 0.000906043 4.3095e-05
0.000906043 -0.000234519 4.15999e-06
4.3095e-05 4.15999e-06 -0.000851862
-0.00450212 0.000828143 0.000261742
0.000828143 0.00466898 1.20948e-05
0.000261742 1.20948e-05 -0.000520547
0.00225694 -4.33697e-05 -5.87398e-06
-4.33697e-05 0.0017717 4.89954e-05
-5.87398e-06 4.89954e-05 -0.00058924
-0.00165558 -4.31641e-05 -7.25361e-06
-4.31641e-05 0.000365305 3.25055e-05
-7.25361e-06 3.25055e-05 -8.20537e-05
-0.000301444 -0.000192284 -5.58854e-05
-0.000192284 0.000578996 1.22535e-05
-5.58854e-05 1.22535e-05 -0.000316653
-0.00119932 -0.000273922 -5.42641e-05
-0.000273922 -0.000688418 3.69572e-05
-5.42641e-05 3.69572e-05 -0.000382165
0.000231854 -0.000269359 -0.000143336
-0.000269359 0.000369208 7.91799e-05
-0.000143336 7.91799e-05 -0.00263676
-0.000789064 -0.00268176 0.000182599
-0.00268176 0.00147748 -9.50913e-05
0.000182599 -9.50913e-05 -0.00352353
0.00349959 0.00387032 0.000471985
0.00387032 -0.00183775 -0.000363317
0.000471985 -0.000363317 -0.00331883
0.00646474 0.00200057 -0.000339378
0.00200057 0.00584458 0.000235799
-0.000339378 0.000235799 0.00307246
0.0013324 -0.000564654 -6.57592e-06
-0.000564654 0.000981728 -3.27324e-06
-6.57592e-06 -3.27324e-06 0.000520697
0.00139328 0.000340431 7.85568e-05
0.000340431 0.00573741 -6.83408e-06
7.85568e-05 -6.83408e-06 0.00287653
-0.00101279 0.00274025 1.51495e-05
0.00274025 0.000117682 4.80941e-05
1.51495e-05 4.80941e-05 -0.00252299
0.00251906 -0.00184079 7.89169e-05
-0.00184079 0.000742596 -2.89814e-05
7.89169e-05 -2.89814e-05 0.000710363
0.016286 -0.00244693 2.55067e-05
-0.00244693 0.00410879 -1.10801e-05
2.55067e-05 -1.10801e-05 0.00220726
0.003138 -0.00118592 -1.19568e-06
-0.00118592 0.00118438 2.31439e-05
-1.19568e-06 2.31439e-05 0.00101626
-0.00907673 0.000861304 -0.000387703
0.000861304 -0.00336424 4.21442e-05
-0.000387703 4.21442e-05 -0.0052901
0.0150196 -0.00156326 -0.000177803
-0.00156326 0.0025722 6.22283e-05
-0.000177803 6.22283e-05 0.0010587
0.00360842 -0.00211345 7.67689e-05
-0.00211345 -0.000185164 -6.00272e-05
7.67689e-05 -6.00272e-05 -0.000129324
7.12829e-05 -0.000378318 -1.32379e-05
-0.000378318 0.000103428 1.57682e-05
-1.32379e-05 1.57682e-05 -0.000208122
0.000940206 -0.00059758 -3.52229e-06
-0.00059758 0.000118302 5.29601e-07
-3.52229e-06 5.29601e-07 -3.64856e-05
0.0050744 -0.00085103 2.33701e-05
-0.00085103 0.00213053 -4.84389e-06
2.33701e-05 -4.84389e-06 0.00182371
-0.000802219 -0.000287394 -1.04202e-05
-0.000287394 -0.000731045 6.2103e-06
-1.04202e-05 6.2103e-06 -0.000991185
0.0014015 -0.000641098 -6.1598e-06
-0.000641098 0.00015056 -3.20148e-06
-6.1598e-06 -3.20148e-06 -0.000185677
0.00254579 -0.000822284 6.3102e-06
-0.000822284 0.000534183 -7.22217e-06
6.3102e-06 -7.22217e-06 0.000204532
0.00127642 -0.000565242 -1.56614e-05
-0.000565242 0.000179808 3.04727e-06
-1.56614e-05 3.04727e-06 -0.000297985
0.00176735 -0.000719631 -1.18593e-06
-0.000719631 0.00025514 -3.72489e-07
-1.18593e-06 -3.72489e-07 -0.000152862
0.00156618 -0.000595672 3.23548e-06
-0.000595672 -7.84496e-05 -4.83936e-06
3.23548e-06 -4.83936e-06 -0.000335057
0.00142806 -0.000632743 -7.27491e-06
-0.000632743 0.000172162 1.48906e-06
-7.27491e-06 1.48906e-06 -0.000268165
0.00180822 -0.000594196 -5.92384e-07
-0.000594196 0.000215739 1.27908e-06
-5.92384e-07 1.27908e-06 -0.000103514
0.00184609 -0.000462787 -6.90092e-07
-0.000462787 6.53194e-05 -4.24053e-06
-6.90092e-07 -4.24053e-06 -0.00012684
0.00175887 -0.000375196 -5.40019e-06
-0.000375196 5.84706e-05 -1.35795e-06
-5.40019e-06 -1.35795e-06 -0.000101502
0.00160481 -0.0004607 -5.04999e-06
-0.0004607 8.1884e-06 -1.87954e-06
-5.04999e-06 -1.87954e-06 -0.00023412
0.00171149 -0.00045245 1.2182e-06
-0.00045245 5.90436e-05 2.50865e-06
1.2182e-06 2.50865e-06 -0.000169989
0.00156428 -0.000529904 -3.49219e-06
-0.000529904 0.000126304 -1.67222e-06
-3.49219e-06 -1.67222e-06 -0.00018093
0.00191822 -0.000619999 2.35368e-06
-0.000619999 0.000293481 -4.93029e-07
2.35368e-06 -4.93029e-07 -4.1137e-05
0.00195788 -0.000611542 2.06012e-06
-0.000611542 0.000335244 9.93604e-07
2.06012e-06 9.93604e-07 -1.51224e-07
0.00147673 -0.000483862 -2.13727e-06
-0.000483862 0.000279641 8.26929e-07
-2.13727e-06 8.26929e-07 -3.96696e-05
0.00186328 -0.000593301 6.49054e-07
-0.000593301 0.000456361 -2.06702e-07
6.49054e-07 -2.06702e-07 0.000104886
0.00202715 -0.000678924 -3.19798e-06
-0.000678924 0.000514009 -1.00032e-06
-3.19798e-06 -1.00032e-06 0.000115956
0.00126982 -0.000307485 -4.04287e-06
-0.000307485 0.000287171 8.39625e-07
-4.04287e-06 8.39625e-07 5.42213e-05
0.00133465 -0.000390424 2.05857e-06
-0.000390424 0.00029611 6.02706e-07
2.05857e-06 6.02706e-07 1.53287e-05
0.000561663 -0.000369806 -2.70372e-07
-0.000369806 -0.000172924 -1.10423e-06
-2.70372e-07 -1.10423e-06 -0.000464434
0.000535182 -0.000164955 -3.25101e-06
-0.000164955 2.1381e-06 3.37888e-06
-3.25101e-06 3.37888e-06 -0.000204008
0.00111945 -0.000305039 -1.57931e-07
-0.000305039 0.000306459 5.10985e-07
-1.57931e-07 5.10985e-07 6.34537e-05
0.00043558 -0.000237069 -5.53826e-06
-0.000237069 -0.000176586 -1.2049e-06
-5.53826e-06 -1.2049e-06 -0.000411173
0.000459796 -8.27829e-06 -5.79846e-06
-8.27829e-06 -3.44096e-05 1.1324e-05
-5.79846e-06 1.1324e-05 -9.39143e-05
0.000746667 -0.000117339 2.09181e-07
-0.000117339 0.000157243 2.82326e-07
2.09181e-07 2.82326e-07 -2.04823e-05
0.00104138 -0.000189456 9.66673e-07
-0.000189456 0.000381381 -7.50831e-07
9.66673e-07 -7.50831e-07 0.000123923
0.00318647 0.000187857 -1.22286e-06
0.000187857 0.00167734 3.58531e-06
-1.22286e-06 3.58531e-06 0.00165586
0.00041932 9.09837e-06 -6.49363e-08
9.09837e-06 -6.43012e-05 -1.14982e-07
-6.49363e-08 -1.14982e-07 -0.000112327
0.000936545 -9.14618e-05 2.7534e-06
-9.14618e-05 0.000252233 -5.77173e-06
2.7534e-06 -5.77173e-06 0.000127455
0.0029728 0.000135576 6.44073e-06
0.000135576 0.00152605 5.09414e-07
6.44073e-06 5.09414e-07 0.00152221
0.000547201 1.80477e-05 2.54801e-06
1.80477e-05 1.33734e-05 -8.27986e-06
2.54801e-06 -8.27986e-06 -2.64063e-05
0.00282212 0.000118425 4.03784e-05
0.000118425 0.00142562 -3.89383e-06
4.03784e-05 -3.89383e-06 0.00142589
0.00144814 0.000218774 6.34013e-06
0.000218774 0.000586598 4.20528e-06
6.34013e-06 4.20528e-06 0.000403195
0.000786192 0.000121296 6.15554e-07
0.000121296 0.000228241 -7.00424e-07
6.15554e-07 -7.00424e-07 5.90899e-05
0.00112543 0.000111454 1.31924e-06
0.000111454 0.000452165 -4.31845e-06
1.31924e-06 -4.31845e-06 0.000261275
0.000651998 3.23225e-05 1.60241e-06
3.23225e-05 9.16317e-05 -5.80784e-06
1.60241e-06 -5.80784e-06 -1.08368e-05
0.000688688 7.36875e-05 -1.12017e-07
7.36875e-05 0.000154309 8.36404e-07
-1.12017e-07 8.36404e-07 -1.86103e-07
0.000431058 9.1241e-05 -4.74594e-07
9.1241e-05 1.39084e-07 2.6117e-06
-4.74594e-07 2.6117e-06 -0.000152969
0.000511056 -6.00381e-06 -1.69096e-06
-6.00381e-06 -1.79832e-05 -8.05744e-06
-1.69096e-06 -8.05744e-06 -4.93017e-05
0.000591148 3.05711e-05 -5.38074e-08
3.05711e-05 5.00372e-05 -2.50131e-07
-5.38074e-08 -2.50131e-07 -4.0168e-05
0.000493395 7.72241e-05 -2.74898e-06
7.72241e-05 1.42509e-05 8.85896e-07
-2.74898e-06 8.85896e-07 -0.000111945
0.00263636 -8.49318e-05 -4.01895e-05
-8.49318e-05 0.00129789 -4.33507e-06
-4.01895e-05 -4.33507e-06 0.0013061
0.000455881 -2.00025e-05 1.82209e-06
-2.00025e-05 -5.59754e-05 -1.26384e-07
1.82209e-06 -1.26384e-07 -8.22941e-05
0.000542661 3.80284e-05 -1.41859e-06
3.80284e-05 1.83135e-05 3.27035e-06
-1.41859e-06 3.27035e-06 -6.1563e-05
0.0024691 -6.85041e-05 -5.77636e-06
-6.85041e-05 0.00118876 4.03595e-07
-5.77636e-06 4.03595e-07 0.00119986
0.000474842 -1.28358e-05 -2.11943e-06
-1.28358e-05 -4.93804e-05 5.65236e-06
-2.11943e-06 5.65236e-06 -7.03955e-05
0.00230199 -5.06846e-05 2.24752e-05
-5.06846e-05 0.00108161 4.56267e-06
2.24752e-05 4.56267e-06 0.00109588
-0.00906893 0.000813439 -5.72205e-05
0.000813439 0.00281786 7.72776e-05
-5.72205e-05 7.72776e-05 -0.00217674
0.00575569 0.000230065 -5.63905e-06
0.000230065 0.003094 -2.70571e-06
-5.63905e-06 -2.70571e-06 0.00142101
-0.00105711 -2.86624e-05 1.18591e-05
-2.86624e-05 -0.000108028 -5.88502e-07
1.18591e-05 -5.88502e-07 -0.000341627
6.41282e-07 8.1122e-05 -2.65834e-06
8.1122e-05 -0.000294172 2.54983e-06
-2.65834e-06 2.54983e-06 -0.000435167
0.00342726 0.000560644 6.59347e-06
0.000560644 0.00174739 9.15704e-06
6.59347e-06 9.15704e-06 0.00145757
0.00133322 0.000133986 -6.33999e-06
0.000133986 0.000551564 -8.28944e-07
-6.33999e-06 -8.28944e-07 0.000347463
0.000699833 6.46645e-05 -5.25001e-06
6.46645e-05 0.000116267 -8.5857e-06
-5.25001e-06 -8.5857e-06 -2.19513e-05
0.00196816 0.000210167 2.74592e-06
0.000210167 0.000863218 -5.03102e-07
2.74592e-06 -5.03102e-07 0.000729099
-0.000194632 5.84998e-05 -7.0807e-06
5.84998e-05 -0.000397224 4.63771e-06
-7.0807e-06 4.63771e-06 -0.000521051
0.000316046 7.17606e-05 -1.39057e-06
7.17606e-05 1.77949e-05 4.14475e-06
-1.39057e-06 4.14475e-06 -0.000199537
0.000486184 0.000133938 -3.6128e-06
0.000133938 2.72919e-05 -4.65218e-06
-3.6128e-06 -4.65218e-06 -0.000204975
0.00162486 0.000328738 7.1992e-06
0.000328738 0.000758547 -1.99551e-05
7.1992e-06 -1.99551e-05 0.000427612
0.000424544 0.000389379 -9.20237e-06
0.000389379 -0.000105202 2.54427e-05
-9.20237e-06 2.54427e-05 -0.000257281
0.00131501 5.96855e-05 -7.23946e-06
5.96855e-05 0.000583287 7.6653e-06
-7.23946e-06 7.6653e-06 0.000415169
0.00108593 0.000189007 2.43058e-06
0.000189007 0.000588443 -4.07694e-06
2.43058e-06 -4.07694e-06 0.000319835
-0.00260813 -0.0016525 -0.00101295
-0.0016525 0.000488801 -0.000170326
-0.00101295 -0.000170326 -0.00225603
-0.00346612 -0.00141251 0.000360015
-0.00141251 0.00382521 0.000165042
0.000360015 0.000165042 -0.000565738
0.00574638 0.000993635 -0.00035884
0.000993635 0.00263822 -0.000130193
-0.00035884 -0.000130193 -0.00216793
-0.00200589 -0.00611408 0.00166821
-0.00611408 0.000658293 0.00114765
0.00166821 0.00114765 -0.000564808
0.0206236 -0.00289069 2.72014e-05
-0.00289069 0.00669269 0.000265656
2.72014e-05 0.000265656 0.00479792
-0.00226296 0.00145705 -7.85397e-07
0.00145705 0.00151085 -0.000156334
-7.85397e-07 -0.000156334 -0.00358224
-0.00143312 0.00019533 -0.000325847
0.00019533 0.000136571 -4.93953e-05
-0.000325847 -4.93953e-05 -0.00112408
0.00128797 0.000606052 5.81237e-05
0.000606052 0.00115084 4.43516e-05
5.81237e-05 4.43516e-05 0.000953947
0.0156845 -0.00354317 -0.00043428
-0.00354317 0.00657117 2.39547e-05
-0.00043428 2.39547e-05 0.00453004
-0.00181233 0.00209326 -6.93179e-05
0.00209326 0.000442877 -4.47328e-05
-6.93179e-05 -4.47328e-05 -0.00385835
0.00257214 0.00153078 -1.93743e-05
0.00153078 0.000725874 -6.43237e-05
-1.93743e-05 -6.43237e-05 0.00117023
0.00248139 0.00317037 -0.000278687
0.00317037 -0.00156168 -0.000113248
-0.000278687 -0.000113248 -0.00425157
0.00306076 0.000975227 1.88625e-05
0.000975227 0.00106432 -1.31534e-05
1.88625e-05 -1.31534e-05 0.000753444
0.00102296 0.000460364 -5.72351e-06
0.000460364 0.00029311 -6.9592e-07
-5.72351e-06 -6.9592e-07 0.000124993
0.000645434 0.000155895 -6.14679e-06
0.000155895 0.000263285 -7.4837e-07
-6.14679e-06 -7.4837e-07 8.12975e-05
-0.00193429 0.000205783 -6.58302e-05
0.000205783 -0.000373459 -6.21935e-05
-6.58302e-05 -6.21935e-05 -0.00123584
0.00239277 0.000694658 -3.04915e-05
0.000694658 0.00123892 -2.00673e-05
-3.04915e-05 -2.00673e-05 0.000867233
0.00149582 0.00105194 1.465e-05
0.00105194 0.000306829 -6.2055e-06
1.465e-05 -6.2055e-06 -0.000302778
0.000201817 0.00126418 9.97217e-05
0.00126418 -0.00113454 3.80131e-05
9.97217e-05 3.80131e-05 -0.00139496
-0.00565683 -0.000289306 -0.000435209
-0.000289306 -0.00462178 2.29541e-05
-0.000435209 2.29541e-05 -0.00355796
-0.00668741 0.000391418 0.000269507
0.000391418 0.00458002 1.07977e-05
0.000269507 1.07977e-05 -0.000448836
0.00287187 -0.000111412 -9.81007e-05
-0.000111412 0.00193929 3.34005e-05
-9.81007e-05 3.34005e-05 0.000342976
0.00204372 -0.000674111 -3.58928e-05
-0.000674111 0.00100882 -4.98475e-05
-3.58928e-05 -4.98475e-05 0.000561635
0.00023756 -0.00155239 -1.77125e-05
-0.00155239 -0.00051436 4.33933e-05
-1.77125e-05 4.33933e-05 -0.000423711
0.000724096 0.000372672 1.36998e-06
0.000372672 0.00547355 3.08609e-05
1.36998e-06 3.08609e-05 0.00263916
0.00142576 -0.00217831 0.000333774
-0.00217831 -0.00136152 -0.000133177
0.000333774 -0.000133177 -0.00402988
0.0167386 0.00246465 0.000504533
0.00246465 0.00743685 -7.32184e-05
0.000504533 -7.32184e-05 0.00547895
0.00199783 -0.0012696 -2.05166e-05
-0.0012696 0.000484285 6.79663e-06
-2.05166e-05 6.79663e-06 6.63815e-05
0.00091938 0.000999292 0.000182056
0.000999292 1.35714e-05 -5.18416e-05
0.000182056 -5.18416e-05 -0.00131452
0.00775641 -0.00139255 -0.000114561
-0.00139255 -0.00106255 0.000107006
-0.000114561 0.000107006 -0.00335463
0.00493096 -0.00221222 -2.04076e-05
-0.00221222 0.000359135 2.43529e-05
-2.04076e-05 2.43529e-05 0.000425107
0.00267856 -0.0010534 7.53262e-05
-0.0010534 0.000443431 -1.09496e-05
7.53262e-05 -1.09496e-05 0.000304257
0.0139554 -0.000695364 -1.40366e-05
-0.000695364 0.0029655 8.08742e-06
-1.40366e-05 8.08742e-06 0.00151229
0.00222521 -0.00128171 0.000100342
-0.00128171 -0.00243551 -8.18461e-05
0.000100342 -8.18461e-05 -0.00171759
-0.000572125 -0.000476208 -3.28689e-05
-0.000476208 -0.000797865 1.93735e-05
-3.28689e-05 1.93735e-05 -0.00083463
0.000213414 -0.000451521 -2.74551e-05
-0.000451521 -0.000547825 1.60186e-06
-2.74551e-05 1.60186e-06 -0.000656902
0.00508332 -0.000896514 5.65788e-05
-0.000896514 0.00176612 -2.0101e-05
5.65788e-05 -2.0101e-05 0.00162038
0.000543206 -0.000542753 -2.10469e-05
-0.000542753 -0.00027708 -5.1964e-06
-2.10469e-05 -5.1964e-06 -0.000619224
0.00201007 -0.000758293 -7.49709e-07
-0.000758293 0.000255275 -2.25209e-06
-7.49709e-07 -2.25209e-06 -5.59729e-05
0.00260244 -0.000700771 2.30243e-06
-0.000700771 0.000311478 -3.77115e-06
2.30243e-06 -3.77115e-06 0.000130469
0.00192405 -0.000721683 -6.14036e-06
-0.000721683 0.000345455 5.40931e-06
-6.14036e-06 5.40931e-06 -6.76194e-05
0.00197561 -0.0006316 -5.43226e-07
-0.0006316 0.000141214 1.51658e-06
-5.43226e-07 1.51658e-06 -0.000119997
0.00202683 -0.000480459 1.62179e-06
-0.000480459 6.01751e-05 -1.44436e-07
1.62179e-06 -1.44436e-07 -7.58493e-05
0.00123849 -0.000527929 3.55827e-06
-0.000527929 -9.39111e-05 6.7392e-06
3.55827e-06 6.7392e-06 -0.000399393
0.00186001 -0.000456721 -4.58737e-07
-0.000456721 7.85708e-05 1.7339e-06
-4.58737e-07 1.7339e-06 -0.000110897
0.00188365 -0.000407116 -2.73295e-06
-0.000407116 5.38893e-05 7.67722e-07
-2.73295e-06 7.67722e-07 -8.05126e-05
0.00207526 -0.000391218 -4.75301e-06
-0.000391218 0.00025204 8.69246e-07
-4.75301e-06 8.69246e-07 0.000114227
0.00186091 -0.000380546 -2.85346e-06
-0.000380546 0.000113292 3.34955e-06
-2.85346e-06 3.34955e-06 -4.30551e-05
0.00191846 -0.000398902 -2.96478e-06
-0.000398902 0.000184535 -4.36922e-06
-2.96478e-06 -4.36922e-06 9.39044e-06
0.0018602 -0.000478527 -5.48118e-06
-0.000478527 0.000192055 -2.14064e-06
-5.48118e-06 -2.14064e-06 -5.64955e-05
0.00181001 -0.000476786 1.58841e-06
-0.000476786 0.000135219 6.9404e-07
1.58841e-06 6.9404e-07 -0.000108361
0.00174386 -0.000447492 5.68097e-06
-0.000447492 8.30831e-05 7.07224e-06
5.68097e-06 7.07224e-06 -0.000141296
0.0017202 -0.000508286 -6.4798e-06
-0.000508286 0.000287388 -7.85705e-07
-6.4798e-06 -7.85705e-07 -1.60782e-05
0.00159161 -0.000537494 -5.86405e-07
-0.000537494 0.000131097 1.67799e-07
-5.86405e-07 1.67799e-07 -0.000178871
0.00204874 -0.000624504 4.73636e-06
-0.000624504 0.000383385 2.24403e-07
4.73636e-06 2.24403e-07 5.22886e-05
0.0014242 -0.000358803 -7.48804e-06
-0.000358803 0.000322947 5.37238e-06
-7.48804e-06 5.37238e-06 6.18729e-05
0.00155015 -0.00048748 -4.26167e-08
-0.00048748 0.000326984 9.83045e-07
-4.26167e-08 9.83045e-07 8.3023e-06
0.00169164 -0.000580508 1.30254e-06
-0.000580508 0.000350973 9.1397e-09
1.30254e-06 9.1397e-09 4.06069e-07
0.000820695 -0.000211918 -6.54872e-06
-0.000211918 0.000105221 5.29873e-06
-6.54872e-06 5.29873e-06 -9.22068e-05
0.00107263 -0.000293791 1.76861e-07
-0.000293791 0.000163922 -9.86619e-07
1.76861e-07 -9.86619e-07 -6.92684e-05
0.000904867 -0.000347769 1.30608e-06
-0.000347769 2.43137e-05 -1.48544e-06
1.30608e-06 -1.48544e-06 -0.00024738
0.000415357 -8.81176e-05 -1.63302e-05
-8.81176e-05 -8.71774e-05 1.39299e-05
-1.63302e-05 1.39299e-05 -0.000162074
0.000663446 -0.000163005 2.73234e-07
-0.000163005 9.01546e-05 9.70489e-07
2.73234e-07 9.70489e-07 -0.000122208
0.000946751 -0.000315962 2.10324e-06
-0.000315962 0.000191077 -2.78441e-07
2.10324e-06 -2.78441e-07 -5.06213e-05
0.00362171 0.000180037 -7.20834e-05
0.000180037 0.00195081 4.08586e-06
-7.20834e-05 4.08586e-06 0.00193344
0.000501252 -2.717e-05 7.25156e-07
-2.717e-05 -1.58784e-05 -4.99563e-07
7.25156e-07 -4.99563e-07 -7.77309e-05
0.00154622 -0.000168897 2.41361e-06
-0.000168897 0.000647184 -6.09579e-06
2.41361e-06 -6.09579e-06 0.000457657
0.002105 0.000116776 3.9002e-05
0.000116776 0.000998211 1.10764e-06
3.9002e-05 1.10764e-06 0.000983235
0.000616924 3.67923e-06 5.74821e-06
3.67923e-06 5.35256e-05 -1.02252e-05
5.74821e-06 -1.02252e-05 5.55186e-06
0.0030657 0.000129352 6.02832e-05
0.000129352 0.00158278 -3.6308e-06
6.02832e-05 -3.6308e-06 0.00158055
0.001224 0.000245779 6.25434e-06
0.000245779 0.000370357 1.4397e-06
6.25434e-06 1.4397e-06 0.00018588
0.000490905 0.000109888 -1.22813e-06
0.000109888 -1.11497e-05 -2.75318e-07
-1.22813e-06 -2.75318e-07 -0.000167915
0.000586735 0.000125882 1.4304e-06
0.000125882 8.56354e-05 -3.46172e-06
1.4304e-06 -3.46172e-06 -9.16488e-05
0.000622183 0.000117096 -1.68885e-06
0.000117096 0.000125757 2.05122e-06
-1.68885e-06 2.05122e-06 -4.31585e-05
0.000634307 7.83998e-05 4.74307e-07
7.83998e-05 0.000121979 3.74504e-07
4.74307e-07 3.74504e-07 -4.56758e-05
0.000775914 6.32518e-05 1.49052e-07
6.32518e-05 0.000164173 -7.20859e-06
1.49052e-07 -7.20859e-06 4.55908e-05
0.000575195 8.39762e-06 -3.54686e-06
8.39762e-06 2.75828e-05 -9.96236e-06
-3.54686e-06 -9.96236e-06 -1.16725e-05
0.00061618 2.97697e-05 4.377e-07
2.97697e-05 7.41834e-05 -1.05767e-07
4.377e-07 -1.05767e-07 -2.98719e-05
0.000308715 3.91769e-05 -3.35591e-06
3.91769e-05 -0.000105749 2.59078e-06
-3.35591e-06 2.59078e-06 -0.000239399
0.00276415 -9.86163e-05 -5.27782e-05
-9.86163e-05 0.00138354 -4.22067e-06
-5.27782e-05 -4.22067e-06 0.00138921
0.000460935 -1.54104e-06 7.17802e-07
-1.54104e-06 -4.62299e-05 -2.13242e-07
7.17802e-07 -2.13242e-07 -7.79634e-05
0.00055273 3.10684e-05 -1.98607e-06
3.10684e-05 3.27825e-05 4.2258e-06
-1.98607e-06 4.2258e-06 -5.95972e-05
0.00260975 -8.52069e-05 -6.28073e-06
-8.52069e-05 0.0012813 4.79632e-07
-6.28073e-06 4.79632e-07 0.00128927
0.000443529 -2.05292e-05 -7.98521e-08
-2.05292e-05 -6.20286e-05 6.59294e-06
-7.98521e-08 6.59294e-06 -8.8872e-05
0.00246382 -6.79287e-05 2.81104e-05
-6.79287e-05 0.00118514 4.63408e-06
2.81104e-05 4.63408e-06 0.00119631
0.000413987 0.000235697 -0.000559112
0.000235697 0.00300083 -2.88953e-05
-0.000559112 -2.88953e-05 0.00120067
-0.00506966 0.000155456 3.558e-05
0.000155456 0.00365236 5.05501e-06
3.558e-05 5.05501e-06 -0.0014625
0.00539394 9.38552e-05 -0.000157203
9.38552e-05 0.00308159 -4.0123e-05
-0.000157203 -4.0123e-05 0.00151693
0.000325694 5.0479e-05 8.63047e-07
5.0479e-05 -9.79105e-05 -5.07959e-06
8.63047e-07 -5.07959e-06 -0.000240051
0.000863413 7.47658e-05 5.25336e-06
7.47658e-05 0.000258713 3.95606e-06
5.25336e-06 3.95606e-06 4.34294e-05
0.0025044 0.000452785 -2.33531e-06
0.000452785 0.00121245 3.03027e-06
-2.33531e-06 3.03027e-06 0.000950239
0.00196964 0.000505956 5.98472e-06
0.000505956 0.000749487 -1.57402e-06
5.98472e-06 -1.57402e-06 0.000398687
0.000356026 0.000236048 -1.89893e-07
0.000236048 1.4e-06 -3.12843e-06
-1.89893e-07 -3.12843e-06 -0.000269436
0.000467753 0.000105115 -4.2299e-06
0.000105115 0.000110474 6.57483e-06
-4.2299e-06 6.57483e-06 -0.000115141
0.000641456 0.000145882 9.4945e-06
0.000145882 0.000149037 9.35714e-06
9.4945e-06 9.35714e-06 -7.83922e-05
0.000436845 0.000274197 -6.78207e-06
0.000274197 9.01116e-05 -3.28941e-06
-6.78207e-06 -3.28941e-06 -0.000246516
-0.000544707 0.000327033 6.01115e-06
0.000327033 -0.000731637 -6.46345e-06
6.01115e-06 -6.46345e-06 -0.00100276
0.00206748 0.000620343 1.32214e-07
0.000620343 0.000704823 1.5278e-05
1.32214e-07 1.5278e-05 0.000538048
0.00133972 0.000710649 2.01304e-05
0.000710649 -5.22969e-06 -1.12864e-06
2.01304e-05 -1.12864e-06 -0.000169607
0.00137926 0.000500952 -8.53165e-06
0.000500952 0.000468475 -1.90858e-06
-8.53165e-06 -1.90858e-06 0.000272788
0.00162846 0.000226847 -7.70823e-06
0.000226847 0.000819008 1.6922e-05
-7.70823e-06 1.6922e-05 0.000586634
0.0133382 0.00181842 -9.01727e-05
0.00181842 0.00220959 6.4536e-05
-9.01727e-05 6.4536e-05 0.000805497
0.000557412 -0.00136387 -0.000404689
-0.00136387 0.0030766 -0.00015404
-0.000404689 -0.00015404 0.000517295
-0.000969482 -0.00228075 0.000452822
-0.00228075 0.0041192 0.000122535
0.000452822 0.000122535 -0.000309963
0.00294923 -0.00212122 0.000186622
-0.00212122 0.00159116 0.000286704
0.000186622 0.000286704 -0.000392288
0.0125317 0.00309514 -6.41879e-05
0.00309514 0.00465367 -4.05275e-05
-6.41879e-05 -4.05275e-05 0.000814322
-0.00267859 0.000176708 -5.76854e-05
0.000176708 -0.000522442 -4.6618e-05
-5.76854e-05 -4.6618e-05 -0.000758728
0.00180439 0.00133847 -3.49701e-05
0.00133847 0.000454083 -1.26555e-05
-3.49701e-05 -1.26555e-05 0.000892614
0.0159388 0.00291394 2.0704e-05
0.00291394 0.00434353 3.33621e-05
2.0704e-05 3.33621e-05 0.00211101
0.00633523 0.00266047 -3.21653e-05
0.00266047 0.000477452 -8.52085e-05
-3.21653e-05 -8.52085e-05 0.000449939
0.00186495 0.000974654 1.11952e-05
0.000974654 0.000268088 -4.20963e-06
1.11952e-05 -4.20963e-06 4.75197e-05
0.00142233 0.000748067 7.34139e-06
0.000748067 0.000316751 -1.92727e-06
7.34139e-06 -1.92727e-06 3.80794e-05
0.00154566 0.000472007 -2.19434e-05
0.000472007 0.00064126 4.89887e-06
-2.19434e-05 4.89887e-06 0.000473787
0.00261178 0.00123036 -5.57021e-05
0.00123036 0.000782407 -2.01431e-05
-5.57021e-05 -2.01431e-05 0.000185961
0.0018222 0.00143313 4.09172e-05
0.00143313 -0.000481106 2.57651e-05
4.09172e-05 2.57651e-05 -0.000776222
0.00147611 -0.000364085 -8.43809e-05
-0.000364085 -0.00418786 3.8701e-05
-8.43809e-05 3.8701e-05 -0.00447828
0.00129479 -0.00115988 6.68764e-06
-0.00115988 0.00163027 -1.50277e-05
6.68764e-06 -1.50277e-05 0.00127815
-0.00937068 -0.000140991 0.00024303
-0.000140991 0.00464559 -2.1272e-05
0.00024303 -2.1272e-05 -0.000199679
0.000259 -0.00127206 -3.43521e-05
-0.00127206 -0.000608454 3.79114e-06
-3.43521e-05 3.79114e-06 -0.00121835
0.00382049 -0.00217758 2.84363e-05
-0.00217758 0.000204791 3.18824e-05
2.84363e-05 3.18824e-05 -8.97256e-05
0.00153192 -0.000208807 0.00059839
-0.000208807 0.00324368 -0.000125299
0.00059839 -0.000125299 0.00166021
0.012806 -0.00164409 -0.000219115
-0.00164409 0.00173214 0.000102486
-0.000219115 0.000102486 0.00025705
0.00151975 -0.00103402 -3.23973e-05
-0.00103402 -0.000117943 -6.73667e-07
-3.23973e-05 -6.73667e-07 -0.000352621
0.0103662 -3.56053e-05 -0.000150362
-3.56053e-05 -0.000143058 4.24692e-05
-0.000150362 4.24692e-05 -0.00115483
0.00634441 -0.00148372 9.77579e-05
-0.00148372 -8.54087e-05 1.48252e-05
9.77579e-05 1.48252e-05 0.000219095
0.0047752 -0.00099665 7.39843e-05
-0.00099665 0.00131599 -2.54326e-05
7.39843e-05 -2.54326e-05 0.00101435
0.00303001 -0.000578645 -5.45422e-05
-0.000578645 -0.00107701 1.95843e-05
-5.45422e-05 1.95843e-05 -0.000380908
-0.00504739 -2.91656e-05 -2.46978e-06
-2.91656e-05 -0.00341832 3.68144e-06
-2.46978e-06 3.68144e-06 -0.00337288
0.0015929 -0.00062315 -9.69955e-06
-0.00062315 -0.000138055 5.72875e-07
-9.69955e-06 5.72875e-07 -0.000169082
0.00300064 -0.000608885 2.90132e-05
-0.000608885 0.000416942 -1.15836e-05
2.90132e-05 -1.15836e-05 0.000466611
0.0010971 -0.000663026 -7.7164e-06
-0.000663026 -0.000213193 7.6368e-06
-7.7164e-06 7.6368e-06 -0.000502913
0.00196786 -0.000641974 -2.7297e-06
-0.000641974 -1.1908e-05 2.70926e-06
-2.7297e-06 2.70926e-06 -0.000187919
0.00224971 -0.000520057 4.66839e-06
-0.000520057 1.76041e-05 -3.16156e-07
4.66839e-06 -3.16156e-07 -2.8916e-05
0.00224704 -0.000651497 -6.07634e-06
-0.000651497 0.000290479 8.51897e-06
-6.07634e-06 8.51897e-06 2.69536e-05
0.00201266 -0.000477605 1.79498e-07
-0.000477605 5.03635e-05 1.4138e-06
1.79498e-07 1.4138e-06 -8.08732e-05
0.00213219 -0.000459708 -7.68589e-07
-0.000459708 0.000109836 9.40206e-07
-7.68589e-07 9.40206e-07 2.40937e-05
0.00189254 -0.000452001 2.82623e-06
-0.000452001 0.000102935 6.03235e-06
2.82623e-06 6.03235e-06 -8.34295e-05
0.00192774 -0.000412206 -1.95463e-07
-0.000412206 7.722e-05 1.34276e-06
-1.95463e-07 1.34276e-06 -5.64249e-05
0.0020623 -0.00043621 -2.40246e-06
-0.00043621 0.000162844 1.53367e-06
-2.40246e-06 1.53367e-06 3.53799e-05
0.00197962 -0.00039106 -4.11052e-06
-0.00039106 0.000186367 3.0218e-06
-4.11052e-06 3.0218e-06 4.98676e-05
0.00207271 -0.000396516 -1.04433e-06
-0.000396516 0.000274359 -1.7288e-06
-1.04433e-06 -1.7288e-06 0.00012855
0.00196062 -0.000386611 4.34077e-06
-0.000386611 0.000166961 6.78673e-06
4.34077e-06 6.78673e-06 1.4013e-05
0.00192671 -0.000399405 3.94165e-07
-0.000399405 0.000188457 -7.3775e-07
3.94165e-07 -7.3775e-07 1.31369e-05
0.00182334 -0.000410296 -2.69607e-06
-0.000410296 0.000136242 -3.30386e-06
-2.69607e-06 -3.30386e-06 -5.99431e-05
0.00186862 -0.000451752 -4.32273e-06
-0.000451752 0.000271869 -2.49365e-06
-4.32273e-06 -2.49365e-06 1.84598e-05
0.0019193 -0.000485155 -1.89195e-07
-0.000485155 0.000229633 -1.39444e-07
-1.89195e-07 -1.39444e-07 -2.11934e-05
0.00201861 -0.000492724 7.01845e-06
-0.000492724 0.000265307 3.45585e-06
7.01845e-06 3.45585e-06 2.05526e-05
0.00135884 -0.000381522 -8.85501e-06
-0.000381522 0.000173828 2.52911e-06
-8.85501e-06 2.52911e-06 -9.43599e-05
0.00164377 -0.000496937 -1.53527e-06
-0.000496937 0.000248011 -1.0732e-07
-1.53527e-06 -1.0732e-07 -5.45035e-05
0.00160542 -0.000542675 3.78733e-06
-0.000542675 0.000128811 1.03968e-06
3.78733e-06 1.03968e-06 -0.000183333
0.000705353 -0.000203432 -8.85797e-06
-0.000203432 -2.8311e-05 6.66879e-06
-8.85797e-06 6.66879e-06 -0.00022103
0.00119647 -0.000342878 1.90797e-06
-0.000342878 0.000176786 5.32317e-07
1.90797e-06 5.32317e-07 -8.2616e-05
0.00146804 -0.000474241 3.93466e-06
-0.000474241 0.000281717 1.46869e-07
3.93466e-06 1.46869e-07 -3.28211e-05
0.000484902 -0.000155149 -2.11991e-05
-0.000155149 -7.01367e-05 1.68291e-05
-2.11991e-05 1.68291e-05 -0.000166852
0.00073236 -0.000213964 -5.14063e-07
-0.000213964 5.72019e-05 4.75207e-07
-5.14063e-07 4.75207e-07 -0.000142514
0.00080321 -0.000265946 2.71488e-06
-0.000265946 -5.3126e-06 -2.54392e-06
2.71488e-06 -2.54392e-06 -0.000234288
0.00452622 0.000208203 -0.000104496
0.000208203 0.00252411 7.85774e-06
-0.000104496 7.85774e-06 0.00249793
0.000562508 -0.000103464 -4.45052e-07
-0.000103464 5.16601e-06 -8.4988e-07
-4.45052e-07 -8.4988e-07 -7.71876e-05
0.00108937 -0.000191904 3.91799e-06
-0.000191904 0.000355117 -3.97158e-06
3.91799e-06 -3.97158e-06 0.000136386
0.00393503 0.000163196 1.52093e-05
0.000163196 0.00214073 4.03229e-07
1.52093e-05 4.03229e-07 0.00212842
0.000568626 -4.65029e-05 1.29195e-05
-4.65029e-05 1.85392e-05 -1.25269e-05
1.29195e-05 -1.25269e-05 -4.70084e-05
0.00343465 0.000130421 9.2839e-05
0.000130421 0.00181682 -4.10706e-06
9.2839e-05 -4.10706e-06 0.00181457
0.00075683 0.000309693 3.43196e-06
0.000309693 2.08307e-06 -6.07262e-06
3.43196e-06 -6.07262e-06 -0.000260654
0.000873985 0.000224197 2.53061e-06
0.000224197 0.000155217 -9.7985e-07
2.53061e-06 -9.7985e-07 -2.86003e-05
2.71652e-05 0.000108099 3.67614e-06
0.000108099 -0.00029405 -5.64482e-07
3.67614e-06 -5.64482e-07 -0.000475209
-0.000597972 2.54897e-05 -3.38472e-06
2.54897e-05 -0.000664929 -1.39964e-06
-3.38472e-06 -1.39964e-06 -0.000811751
0.000366313 6.68385e-05 1.86472e-08
6.68385e-05 -6.22851e-05 1.0298e-06
1.86472e-08 1.0298e-06 -0.000231837
0.000819511 7.71402e-05 -5.74379e-08
7.71402e-05 0.000184501 -7.871e-06
-5.74379e-08 -7.871e-06 4.70349e-05
0.000363896 4.38192e-05 -1.58179e-06
4.38192e-05 -6.15854e-05 3.12139e-06
-1.58179e-06 3.12139e-06 -0.000214239
0.000568457 4.851e-05 -1.27595e-07
4.851e-05 4.2365e-05 -9.71423e-08
-1.27595e-07 -9.71423e-08 -7.45975e-05
0.00059952 1.0433e-05 -5.13049e-06
1.0433e-05 4.29073e-05 -1.19948e-05
-5.13049e-06 -1.19948e-05 -5.25649e-06
0.003039 -0.000111462 -7.17439e-05
-0.000111462 0.00156213 -4.65911e-06
-7.17439e-05 -4.65911e-06 0.00156469
0.000455494 -2.06847e-06 1.03165e-06
-2.06847e-06 -4.32982e-05 -3.06656e-07
1.03165e-06 -3.06656e-07 -8.27753e-05
0.000537001 2.91862e-05 -1.75603e-06
2.91862e-05 2.86538e-05 6.0876e-06
-1.75603e-06 6.0876e-06 -7.55923e-05
0.00277121 -0.000102724 -7.05289e-06
-0.000102724 0.00138845 5.92162e-07
-7.05289e-06 5.92162e-07 0.00139276
0.000384543 -4.15649e-05 -3.71819e-06
-4.15649e-05 -8.85676e-05 7.69798e-06
-3.71819e-06 7.69798e-06 -0.000122277
0.00260281 -8.54762e-05 3.47579e-05
-8.54762e-05 0.00127644 4.52519e-06
3.47579e-05 4.52519e-06 0.00128423
0.0136472 0.000519418 0.000377017
0.000519418 0.00233323 9.41325e-05
0.000377017 9.41325e-05 0.00165601
-0.00214746 -0.00199983 -0.000333791
-0.00199983 -0.00271893 -5.9604e-05
-0.000333791 -5.9604e-05 -0.00398208
-0.00841626 0.00106786 -0.000144393
0.00106786 0.00282877 -0.00010398
-0.000144393 -0.00010398 -0.00278429
0.000180316 2.38967e-05 1.826e-05
2.38967e-05 -0.000152607 8.73236e-07
1.826e-05 8.73236e-07 -0.000388935
0.00171741 0.000353072 -1.32454e-05
0.000353072 0.000745875 1.76406e-06
-1.32454e-05 1.76406e-06 0.000513938
0.001794 0.000397158 -6.95421e-06
0.000397158 0.000836675 -2.69098e-06
-6.95421e-06 -2.69098e-06 0.000528912
0.00174517 0.0004777 4.52623e-07
0.0004777 0.0006342 5.55588e-07
4.52623e-07 5.55588e-07 0.000295381
0.00110413 0.000463179 8.77824e-06
0.000463179 9.30782e-05 1.17178e-05
8.77824e-06 1.17178e-05 -0.000243245
-0.00064224 0.000276014 1.42981e-05
0.000276014 -0.000807752 2.42744e-07
1.42981e-05 2.42744e-07 -0.00108859
-8.35866e-05 0.000233457 -7.99039e-06
0.000233457 -0.000160223 4.87171e-06
-7.99039e-06 4.87171e-06 -0.00052458
0.000156738 0.000412044 6.87747e-06
0.000412044 -0.000354933 -1.65233e-07
6.87747e-06 -1.65233e-07 -0.000657798
0.00212916 0.000621873 2.39767e-06
0.000621873 0.000792372 4.05764e-06
2.39767e-06 4.05764e-06 0.000576998
-7.78236e-05 0.000441872 7.35302e-06
0.000441872 -0.000611194 2.88266e-06
7.35302e-06 2.88266e-06 -0.000833521
0.002664 0.00078547 2.8661e-06
0.00078547 0.000683961 7.034e-06
2.8661e-06 7.034e-06 0.000534747
0.00144832 0.000738516 1.44213e-05
0.000738516 4.6693e-05 3.79966e-06
1.44213e-05 3.79966e-06 -0.000184735
0.000830398 0.000647709 3.33539e-06
0.000647709 -0.00029345 -5.35287e-07
3.33539e-06 -5.35287e-07 -0.000419155
0.000713759 0.000424055 1.71958e-06
0.000424055 0.000102682 -2.68601e-05
1.71958e-06 -2.68601e-05 -9.06267e-05
0.00545337 0.00124923 9.52008e-06
0.00124923 -0.000599291 1.13006e-05
9.52008e-06 1.13006e-05 0.000320139
0.0125481 0.00189645 0.000211158
0.00189645 0.00157261 0.000104279
0.000211158 0.000104279 -9.88043e-05
0.00990737 -0.00292497 0.000315342
-0.00292497 0.0047268 -4.80012e-05
0.000315342 -4.80012e-05 0.00265627
0.00474815 0.00319343 0.000430671
0.00319343 -0.000639416 0.000250236
0.000430671 0.000250236 -0.00469885
0.000204686 0.000920148 -5.46206e-05
0.000920148 4.89981e-05 -6.01318e-06
-5.46206e-05 -6.01318e-06 0.00050319
0.00354313 0.00194735 -0.000109222
0.00194735 -0.000374157 -4.47474e-05
-0.000109222 -4.47474e-05 -0.00013579
0.00551287 0.00169182 7.02561e-05
0.00169182 0.00113645 2.34727e-05
7.02561e-05 2.34727e-05 0.000929704
0.00371742 0.00121162 1.55848e-05
0.00121162 0.00107218 5.89433e-06
1.55848e-05 5.89433e-06 0.00081957
6.5775e-05 0.000568103 -2.09855e-05
0.000568103 -0.000350719 1.17434e-05
-2.09855e-05 1.17434e-05 -0.000591011
0.00556708 0.00183755 -0.000160137
0.00183755 0.00123155 -1.89461e-05
-0.000160137 -1.89461e-05 0.000864429
0.00287258 -0.000365984 9.5187e-06
-0.000365984 0.000116004 2.75053e-06
9.5187e-06 2.75053e-06 0.000264175
0.010823 -0.000452033 -2.67924e-05
-0.000452033 0.00190935 2.50452e-06
-2.67924e-05 2.50452e-06 0.00148414
-0.0116213 -0.0017833 0.000550683
-0.0017833 -0.00569998 5.35932e-06
0.000550683 5.35932e-06 -0.00582972
-0.000310998 -0.000833651 -7.865e-05
-0.000833651 -0.00102279 1.34229e-05
-7.865e-05 1.34229e-05 -0.00123395
0.00862466 -0.0019256 5.51001e-05
-0.0019256 0.000622867 8.39838e-05
5.51001e-05 8.39838e-05 0.00121561
0.00103855 -0.000290163 -0.000201879
-0.000290163 -0.00358834 3.93603e-05
-0.000201879 3.93603e-05 -0.00560122
0.0019382 -0.000720728 1.78799e-05
-0.000720728 -0.000273532 2.00839e-06
1.78799e-05 2.00839e-06 -0.000303875
0.00435137 -0.000465931 -3.05011e-05
-0.000465931 -0.000282853 -5.61934e-06
-3.05011e-05 -5.61934e-06 0.000148332
0.00499826 -0.000670166 3.15164e-05
-0.000670166 0.0010856 -2.20415e-05
3.15164e-05 -2.20415e-05 0.0013195
0.00453101 -0.000280622 8.1453e-05
-0.000280622 0.00109268 5.70237e-06
8.1453e-05 5.70237e-06 0.00106196
-0.00232705 -0.000349343 -2.88123e-06
-0.000349343 -0.00233414 9.37361e-06
-2.88123e-06 9.37361e-06 -0.00219242
0.00197646 -0.000543437 -3.13535e-06
-0.000543437 -0.000161325 2.82035e-07
-3.13535e-06 2.82035e-07 -5.85046e-05
0.00205867 -0.000403534 1.9165e-05
-0.000403534 -0.000256407 -4.74949e-06
1.9165e-05 -4.74949e-06 -4.4142e-05
0.00177142 -0.000626094 -1.72135e-06
-0.000626094 -0.000116967 6.09681e-06
-1.72135e-06 6.09681e-06 -0.000294977
0.0021952 -0.000518748 1.52922e-06
-0.000518748 -9.17468e-06 1.03483e-06
1.52922e-06 1.03483e-06 -5.71935e-05
0.00218405 -0.00044597 1.17984e-06
-0.00044597 2.79646e-05 -6.39773e-08
1.17984e-06 -6.39773e-08 1.97307e-05
0.00201577 -0.000476621 6.41321e-07
-0.000476621 4.9695e-05 3.59176e-06
6.41321e-07 3.59176e-06 -7.77159e-05
0.00205997 -0.000449123 3.87242e-07
-0.000449123 7.93497e-05 3.73762e-07
3.87242e-07 3.73762e-07 -5.7869e-06
0.00204963 -0.000402107 -3.24292e-06
-0.000402107 6.74757e-05 5.6737e-07
-3.24292e-06 5.6737e-07 -8.35382e-06
0.00194207 -0.000415316 3.82696e-06
-0.000415316 8.28022e-05 2.12842e-06
3.82696e-06 2.12842e-06 -5.05824e-05
0.00197994 -0.000428657 -1.15544e-07
-0.000428657 0.000130549 1.86252e-07
-1.15544e-07 1.86252e-07 3.79702e-06
0.00188461 -0.000390731 1.48319e-07
-0.000390731 0.000106054 2.32115e-07
1.48319e-07 2.32115e-07 -2.27622e-05
0.00189107 -0.00039111 4.85225e-07
-0.00039111 0.000125456 3.30856e-06
4.85225e-07 3.30856e-06 -9.76213e-06
0.00200131 -0.000387852 -2.10877e-06
-0.000387852 0.000225823 3.86392e-07
-2.10877e-06 3.86392e-07 8.39052e-05
0.00200918 -0.000392096 -4.51597e-07
-0.000392096 0.000241308 -1.63664e-06
-4.51597e-07 -1.63664e-06 7.55711e-05
0.00193387 -0.000398844 4.56734e-06
-0.000398844 0.000191985 3.25339e-06
4.56734e-06 3.25339e-06 1.67888e-05
0.00188351 -0.000415732 9.95283e-08
-0.000415732 0.000173915 -3.86908e-07
9.95283e-08 -3.86908e-07 -2.39035e-05
0.00191086 -0.000401624 -1.46462e-06
-0.000401624 0.000252558 -2.24346e-06
-1.46462e-06 -2.24346e-06 3.88758e-05
0.00147729 -0.000368608 -8.69684e-06
-0.000368608 0.000147547 9.03127e-07
-8.69684e-06 9.03127e-07 -9.71827e-05
0.00182385 -0.000452106 -8.57559e-07
-0.000452106 0.000245215 -7.51688e-07
-8.57559e-07 -7.51688e-07 -1.18802e-05
0.00197825 -0.00049201 4.45025e-06
-0.00049201 0.000267668 1.70697e-06
4.45025e-06 1.70697e-06 1.44776e-05
0.000834238 -0.000219632 -1.22988e-05
-0.000219632 -1.60864e-05 7.52644e-06
-1.22988e-05 7.52644e-06 -0.000210143
0.00136314 -0.000379891 -6.46806e-08
-0.000379891 0.000178014 4.64346e-07
-6.46806e-08 4.64346e-07 -8.89136e-05
0.00156811 -0.000486173 2.79522e-06
-0.000486173 0.000207959 6.16235e-07
2.79522e-06 6.16235e-07 -9.37816e-05
0.000435505 -0.000169413 -2.09345e-05
-0.000169413 -0.000122089 1.71727e-05
-2.09345e-05 1.71727e-05 -0.000227919
0.000802902 -0.000212784 3.78444e-07
-0.000212784 3.09597e-05 1.80575e-07
3.78444e-07 1.80575e-07 -0.000164759
0.000921415 -0.000321604 8.14093e-06
-0.000321604 3.27302e-06 -2.65362e-06
8.14093e-06 -2.65362e-06 -0.000253377
0.00555054 0.000149283 -0.000175783
0.000149283 0.00312291 9.82562e-06
-0.000175783 9.82562e-06 0.0031118
0.000485981 -0.00016312 -4.94135e-07
-0.00016312 -7.01804e-05 4.42107e-09
-4.94135e-07 4.42107e-09 -0.000168728
0.000627095 -0.000215202 8.05523e-06
-0.000215202 -3.60218e-06 -5.75778e-06
8.05523e-06 -5.75778e-06 -0.000203961
0.00484751 0.000139417 7.23177e-06
0.000139417 0.00269886 -1.79585e-07
7.23177e-06 -1.79585e-07 0.0026897
0.000453381 -0.000113921 1.74467e-05
-0.000113921 -5.96555e-05 -1.51104e-05
1.74467e-05 -1.51104e-05 -0.000145657
0.00418947 0.000111493 0.000145646
0.000111493 0.00228789 -9.93107e-06
0.000145646 -9.93107e-06 0.00228701
0.000904591 0.000382625 -5.19393e-06
0.000382625 8.94118e-07 -1.63343e-06
-5.19393e-06 -1.63343e-06 -0.00029431
0.0016039 0.000392655 -6.52824e-07
0.000392655 0.000526168 -1.20732e-06
-6.52824e-07 -1.20732e-06 0.000249366
0.000331776 0.000198239 -1.49807e-06
0.000198239 -0.000232414 -2.36696e-06
-1.49807e-06 -2.36696e-06 -0.000448407
0.000647109 0.000218641 -4.70485e-06
0.000218641 3.28026e-05 -2.50391e-06
-4.70485e-06 -2.50391e-06 -0.00015759
-8.98918e-05 0.000111154 6.48825e-07
0.000111154 -0.000371189 -8.2994e-07
6.48825e-07 -8.2994e-07 -0.00055647
0.00117161 0.000211593 -3.12982e-06
0.000211593 0.000419338 -6.57701e-06
-3.12982e-06 -6.57701e-06 0.000229904
-4.29426e-06 3.61193e-05 -1.43642e-06
3.61193e-05 -0.000297705 1.1852e-06
-1.43642e-06 1.1852e-06 -0.000461139
0.000711478 8.31079e-05 3.19675e-07
8.31079e-05 0.000122616 -3.32305e-07
3.19675e-07 -3.32305e-07 -1.54458e-05
0.000710186 2.77968e-05 -8.42636e-06
2.77968e-05 0.000108767 -1.39029e-05
-8.42636e-06 -1.39029e-05 5.12258e-05
0.0005696 3.05059e-05 -1.31996e-06
3.05059e-05 4.90436e-05 8.26978e-06
-1.31996e-06 8.26978e-06 -6.89104e-05
0.000516551 1.49166e-05 2.0829e-07
1.49166e-05 -5.14835e-06 -1.59888e-07
2.0829e-07 -1.59888e-07 -5.26745e-05
0.00341256 -0.00012642 -9.11476e-05
-0.00012642 0.00180313 -5.26555e-06
-9.11476e-05 -5.26555e-06 0.00180149
0.00299751 -0.000120767 -7.43228e-06
-0.000120767 0.0015377 6.86293e-07
-7.43228e-06 6.86293e-07 0.00153756
0.000384433 1.78996e-05 4.24339e-06
1.78996e-05 -8.6665e-05 9.71662e-06
4.24339e-06 9.71662e-06 -0.000124797
0.00271122 -0.000102096 4.24756e-05
-0.000102096 0.00135132 4.29545e-06
4.24756e-05 4.29545e-06 0.00135547
0.00398874 0.000123454 7.96471e-05
0.000123454 -0.000884851 2.11431e-05
7.96471e-05 2.11431e-05 0.00015947
0.00406611 -0.000829804 0.000124075
-0.000829804 -0.00355014 6.11577e-05
0.000124075 6.11577e-05 -0.0046953
0.0105599 -0.00213769 -0.000165852
-0.00213769 0.00393523 -7.64266e-05
-0.000165852 -7.64266e-05 0.00356486
0.00121885 0.000488775 8.59234e-06
0.000488775 -1.36734e-05 7.05557e-06
8.59234e-06 7.05557e-06 -0.00031498
0.00339194 0.000569512 -6.09625e-06
0.000569512 0.00176965 7.00455e-06
-6.09625e-06 7.00455e-06 0.00142632
0.00139161 0.000436605 -4.50447e-07
0.000436605 0.000437746 -2.3466e-07
-4.50447e-07 -2.3466e-07 0.00011305
0.0011287 0.000474986 3.19402e-06
0.000474986 0.000248412 1.57044e-06
3.19402e-06 1.57044e-06 -7.30355e-05
0.00139162 0.000493092 -2.31481e-06
0.000493092 0.000281352 2.25489e-06
-2.31481e-06 2.25489e-06 -6.71935e-05
0.00134952 0.000572965 1.62021e-05
0.000572965 0.000197436 1.43626e-05
1.62021e-05 1.43626e-05 -0.000109792
0.00175541 0.000584147 -2.58517e-05
0.000584147 0.000570182 -5.11219e-06
-2.58517e-05 -5.11219e-06 0.000213725
0.000841286 0.000509683 1.53013e-05
0.000509683 8.48894e-05 -1.71555e-05
1.53013e-05 -1.71555e-05 -0.000138042
0.00123946 0.000593165 2.64284e-06
0.000593165 0.000125321 -2.32332e-06
2.64284e-06 -2.32332e-06 -0.000123295
0.0015894 0.000682031 4.9321e-06
0.000682031 4.48082e-05 1.40075e-06
4.9321e-06 1.40075e-06 -2.69315e-05
0.0017319 0.000720029 1.30531e-05
0.000720029 0.000109917 6.66548e-07
1.30531e-05 6.66548e-07 -0.000136604
0.00160509 0.000656298 2.14299e-05
0.000656298 8.94658e-05 1.37278e-05
2.14299e-05 1.37278e-05 -8.18055e-05
0.000989746 0.000695271 -4.22908e-06
0.000695271 -0.000202647 -5.40784e-06
-4.22908e-06 -5.40784e-06 -0.000420102
0.000741811 0.000628996 -9.85437e-06
0.000628996 -0.000332668 -1.12599e-05
-9.85437e-06 -1.12599e-05 -0.000440515
0.00140363 0.00063515 4.29346e-05
0.00063515 -0.000738416 3.83358e-05
4.29346e-05 3.83358e-05 -0.000553785
0.00583903 0.00131643 -8.17587e-05
0.00131643 -0.000769848 -2.40228e-05
-8.17587e-05 -2.40228e-05 0.000210104
0.00363349 0.00122298 0.000437669
0.00122298 -0.00332994 6.56454e-05
0.000437669 6.56454e-05 -0.00522187
0.000567179 0.00144854 -0.000102321
0.00144854 -0.00138731 -3.78155e-05
-0.000102321 -3.78155e-05 -0.00103616
0.00401736 0.001368 -3.24097e-05
0.001368 0.000722984 -7.86912e-06
-3.24097e-05 -7.86912e-06 0.00056919
0.00384493 0.00122941 -0.000115773
0.00122941 0.00108262 -3.15377e-05
-0.000115773 -3.15377e-05 0.000823077
0.00282127 -0.000268763 -4.78438e-05
-0.000268763 -0.000173256 -2.19271e-05
-4.78438e-05 -2.19271e-05 6.02179e-05
0.000258131 -0.000197776 5.23618e-05
-0.000197776 -0.000431609 1.22497e-05
5.23618e-05 1.22497e-05 -5.25956e-05
0.00194476 0.000853316 0.000151704
0.000853316 -0.00442025 -4.49346e-06
0.000151704 -4.49346e-06 -0.00462626
-0.000908368 -0.000494107 -3.11098e-05
-0.000494107 -0.0017781 4.72574e-05
-3.11098e-05 4.72574e-05 -0.00159866
0.00594771 -0.000489042 -0.000116922
-0.000489042 0.000651971 3.58707e-05
-0.000116922 3.58707e-05 0.000675878
0.00249487 -0.000497556 -2.34626e-05
-0.000497556 -0.000227641 1.03018e-05
-2.34626e-05 1.03018e-05 6.05746e-05
0.00400173 -0.00031344 -7.63678e-07
-0.00031344 0.000696442 -3.37916e-06
-7.63678e-07 -3.37916e-06 0.000717775
0.00226048 -0.000293289 4.58098e-05
-0.000293289 -0.000240861 -6.99882e-06
4.58098e-05 -6.99882e-06 5.57795e-05
0.00350385 -8.72156e-05 3.36304e-05
-8.72156e-05 0.00105061 -1.67021e-06
3.36304e-05 -1.67021e-06 0.00102092
0.000880075 -0.000463435 -2.55009e-05
-0.000463435 -0.000761822 1.12497e-05
-2.55009e-05 1.12497e-05 -0.000606624
0.00197811 -0.000416737 -9.07645e-07
-0.000416737 -0.000327631 2.11121e-06
-9.07645e-07 2.11121e-06 -0.000122352
0.00224668 -0.000373332 3.17624e-06
-0.000373332 -0.000144444 -1.48921e-06
3.17624e-06 -1.48921e-06 2.30459e-05
0.00213576 -0.000512309 -2.42088e-06
-0.000512309 -3.21138e-05 2.59292e-06
-2.42088e-06 2.59292e-06 -7.9931e-05
0.00217652 -0.000441914 2.51817e-07
-0.000441914 3.22893e-05 -1.80003e-07
2.51817e-07 -1.80003e-07 2.48835e-05
0.00213771 -0.00036019 -1.46625e-06
-0.00036019 2.32891e-05 -4.31854e-07
-1.46625e-06 -4.31854e-07 9.00661e-06
0.00198158 -0.000437393 3.31836e-07
-0.000437393 4.54686e-05 6.56547e-07
3.31836e-07 6.56547e-07 -3.76794e-05
0.00203859 -0.000408354 -7.56451e-07
-0.000408354 6.8925e-05 1.59687e-07
-7.56451e-07 1.59687e-07 -8.68955e-06
0.00195288 -0.000353132 -1.94313e-06
-0.000353132 8.3823e-05 8.97729e-07
-1.94313e-06 8.97729e-07 -1.5927e-05
0.00189403 -0.000420723 1.03874e-06
-0.000420723 9.595e-05 -7.05898e-07
1.03874e-06 -7.05898e-07 -2.99155e-05
0.00186638 -0.000390084 1.1276e-06
-0.000390084 9.10816e-05 -5.31352e-07
1.1276e-06 -5.31352e-07 -3.83871e-05
0.00189155 -0.000366697 6.63927e-07
-0.000366697 0.000126091 -1.51556e-06
6.63927e-07 -1.51556e-06 -1.44069e-05
0.00193148 -0.000379327 -2.43081e-06
-0.000379327 0.000178598 3.00368e-06
-2.43081e-06 3.00368e-06 4.05592e-05
0.00204865 -0.000391791 -1.88502e-06
-0.000391791 0.000260301 5.77514e-07
-1.88502e-06 5.77514e-07 9.86331e-05
0.00197846 -0.000376762 -1.09956e-06
-0.000376762 0.000259156 -1.74123e-06
-1.09956e-06 -1.74123e-06 7.16418e-05
0.00194404 -0.000421674 2.93975e-06
-0.000421674 0.000211552 2.33452e-06
2.93975e-06 2.33452e-06 1.19582e-05
0.00191585 -0.000404194 6.7047e-07
-0.000404194 0.000256061 -5.40321e-07
6.7047e-07 -5.40321e-07 4.19789e-05
0.00160076 -0.000333602 -6.74709e-06
-0.000333602 0.000175617 1.0359e-06
-6.74709e-06 1.0359e-06 -4.32437e-05
0.000914433 -0.000222024 -1.35299e-05
-0.000222024 -2.3835e-05 7.05384e-06
-1.35299e-05 7.05384e-06 -0.000213082
0.00146055 -0.000364889 -1.15225e-06
-0.000364889 0.000144754 -1.31228e-07
-1.15225e-06 -1.31228e-07 -0.000100578
0.00177546 -0.000452429 2.71462e-06
-0.000452429 0.00021593 5.1211e-07
2.71462e-06 5.1211e-07 -4.48863e-05
0.000443885 -0.000210577 -2.23302e-05
-0.000210577 -0.00011924 1.78153e-05
-2.23302e-05 1.78153e-05 -0.00024154
0.000845302 -0.000223814 6.47628e-07
-0.000223814 -1.35748e-05 1.26664e-07
6.47628e-07 1.26664e-07 -0.000209317
0.00137003 -0.000378839 8.17314e-06
-0.000378839 0.000183066 -1.54614e-06
8.17314e-06 -1.54614e-06 -8.27216e-05
0.00617037 0.000106485 -0.000219903
0.000106485 0.00348278 1.32798e-05
-0.000219903 1.32798e-05 0.00347904
0.000479935 -0.000211719 -1.14108e-06
-0.000211719 -8.91605e-05 4.15733e-07
-1.14108e-06 4.15733e-07 -0.000203704
0.000815296 -0.000220326 1.1049e-05
-0.000220326 3.91941e-05 -7.05192e-06
1.1049e-05 -7.05192e-06 -0.0001598
0.00579967 0.000131429 -4.32785e-06
0.000131429 0.00327772 -6.48111e-07
-4.32785e-06 -6.48111e-07 0.00326645
0.000578577 -0.000184675 2.2683e-05
-0.000184675 -1.17263e-05 -1.71093e-05
2.2683e-05 -1.71093e-05 -0.000115462
0.0052587 0.000122936 0.000186566
0.000122936 0.00295401 -1.68638e-05
0.000186566 -1.68638e-05 0.00294449
0.00139446 0.000448136 -2.24073e-06
0.000448136 0.000167717 3.14819e-06
-2.24073e-06 3.14819e-06 -0.000131167
0.00145291 0.000442728 -3.81657e-06
0.000442728 0.00032966 -1.0956e-06
-3.81657e-06 -1.0956e-06 2.06854e-05
0.000959781 0.000306616 -6.56537e-06
0.000306616 4.28825e-05 -1.3312e-06
-6.56537e-06 -1.3312e-06 -0.00020557
0.00267025 0.000497892 1.01275e-06
0.000497892 0.00118546 4.12628e-06
1.01275e-06 4.12628e-06 0.000890243
0.000912522 0.000255567 -2.32304e-06
0.000255567 0.00013344 -1.49369e-06
-2.32304e-06 -1.49369e-06 -9.57643e-05
0.00117217 0.000224929 -6.57246e-06
0.000224929 0.000376789 -3.7642e-06
-6.57246e-06 -3.7642e-06 0.000171753
-0.000150973 0.000101909 -2.46068e-06
0.000101909 -0.000421219 -1.45833e-06
-2.46068e-06 -1.45833e-06 -0.000607895
0.000743051 0.000118104 -9.24778e-07
0.000118104 0.00014446 -3.40977e-07
-9.24778e-07 -3.40977e-07 -2.96192e-05
0.000611277 6.04665e-05 -1.39442e-05
6.04665e-05 3.69204e-05 -1.52781e-05
-1.39442e-05 -1.52781e-05 -3.56198e-05
0.000418912 5.09545e-05 4.02225e-07
5.09545e-05 -5.88972e-05 8.26722e-06
4.02225e-07 8.26722e-06 -0.000189307
0.000414185 2.31169e-05 -2.38062e-08
2.31169e-05 -6.88937e-05 -4.36854e-07
-2.38062e-08 -4.36854e-07 -0.000125646
0.00386654 -0.000137809 -0.000115777
-0.000137809 0.00209354 -6.86294e-06
-0.000115777 -6.86294e-06 0.00208769
0.00031903 1.91116e-05 5.12792e-06
1.91116e-05 -0.000123569 1.18135e-05
5.12792e-06 1.18135e-05 -0.000170229
0.00332662 -0.000137348 -7.11931e-06
-0.000137348 0.00175151 7.04968e-07
-7.11931e-06 7.04968e-07 0.00174685
0.00294997 -0.000123181 5.16848e-05
-0.000123181 0.0015084 4.20716e-06
5.16848e-05 4.20716e-06 0.00150738
0.000494258 0.00010229 7.46202e-06
0.00010229 -0.00146787 1.63607e-05
7.46202e-06 1.63607e-05 -0.00103775
0.0052468 1.72034e-05 6.22178e-05
1.72034e-05 -0.000111889 1.13323e-05
6.22178e-05 1.13323e-05 0.000763614
0.0126668 0.000774003 -5.59122e-05
0.000774003 0.00264715 2.37678e-07
-5.59122e-05 2.37678e-07 0.00203058
0.00187429 0.000619609 2.24641e-06
0.000619609 0.000337518 4.24744e-06
2.24641e-06 4.24744e-06 3.82931e-05
0.00199935 0.000603608 -1.09376e-07
0.000603608 0.000285821 2.64892e-06
-1.09376e-07 2.64892e-06 8.97302e-06
0.00133965 0.000504827 1.63912e-07
0.000504827 7.23636e-05 -3.14712e-06
1.63912e-07 -3.14712e-06 -0.000228956
0.00257305 0.000639968 -4.21061e-06
0.000639968 0.00110499 6.35775e-06
-4.21061e-06 6.35775e-06 0.000751661
0.00171197 0.000523593 -3.83961e-06
0.000523593 0.000495146 -5.97048e-06
-3.83961e-06 -5.97048e-06 0.000133697
0.00172814 0.000618325 6.72304e-06
0.000618325 0.000392017 3.173e-06
6.72304e-06 3.173e-06 8.4872e-05
0.00164311 0.000660055 -5.8485e-07
0.000660055 1.45412e-05 -2.26941e-06
-5.8485e-07 -2.26941e-06 -0.000244224
0.00234832 0.000719889 -1.56377e-05
0.000719889 0.00072122 4.95293e-07
-1.56377e-05 4.95293e-07 0.000444901
0.00128423 0.000643995 -1.87597e-07
0.000643995 -0.000159095 1.33511e-05
-1.87597e-07 1.33511e-05 -0.000178374
0.0025895 0.00080543 -1.81939e-06
0.00080543 0.00059008 7.53526e-07
-1.81939e-06 7.53526e-07 0.000326804
0.00256038 0.000705067 -5.44205e-06
0.000705067 0.000405592 2.33601e-06
-5.44205e-06 2.33601e-06 0.000197464
0.00100045 0.000350269 2.55787e-05
0.000350269 -0.000399003 1.75762e-05
2.55787e-05 1.75762e-05 -0.000400592
0.000842072 0.00058581 1.0603e-05
0.00058581 -0.000294662 -2.38525e-06
1.0603e-05 -2.38525e-06 -0.000459723
0.0012462 0.000717438 -2.97416e-05
0.000717438 -7.07078e-05 -2.10555e-06
-2.97416e-05 -2.10555e-06 -0.000293934
0.00275917 0.000719824 2.9396e-06
0.000719824 -2.64725e-05 8.75301e-06
2.9396e-06 8.75301e-06 7.5344e-05
0.00580853 0.000908786 -8.39256e-06
0.000908786 -0.000706613 -3.00433e-05
-8.39256e-06 -3.00433e-05 -0.000127165
0.0037227 0.00114631 -2.29098e-05
0.00114631 0.000913037 -4.28894e-05
-2.29098e-05 -4.28894e-05 0.000813798
0.00130919 -5.69533e-05 2.66395e-05
-5.69533e-05 -0.000323762 1.51284e-06
2.66395e-05 1.51284e-06 -0.000248588
0.00226417 -0.000197658 -4.41887e-05
-0.000197658 -0.000357631 2.63974e-06
-4.41887e-05 2.63974e-06 -0.000220046
0.00215482 0.000267209 1.61217e-05
0.000267209 -0.000629336 -2.28896e-06
1.61217e-05 -2.28896e-06 -0.000432088
0.000311491 -0.000367017 -4.55941e-05
-0.000367017 -0.00135943 3.8255e-05
-4.55941e-05 3.8255e-05 -0.00106139
0.00320399 -0.000381096 -9.70676e-05
-0.000381096 0.00018278 -6.00397e-06
-9.70676e-05 -6.00397e-06 0.000229882
0.0023293 -0.000309206 7.38213e-06
-0.000309206 -0.000113373 -4.00152e-06
7.38213e-06 -4.00152e-06 0.000159382
0.00248449 -8.59988e-05 -1.11141e-05
-8.59988e-05 0.000393397 4.56164e-07
-1.11141e-05 4.56164e-07 0.000376223
0.00227596 -0.000221756 8.24359e-06
-0.000221756 -1.38731e-05 -3.20927e-07
8.24359e-06 -3.20927e-07 6.018e-05
0.00220657 -8.96326e-06 7.18467e-06
-8.96326e-06 -1.2245e-05 1.01406e-06
7.18467e-06 1.01406e-06 3.99686e-06
0.00191374 -0.00043652 -1.28435e-05
-0.00043652 -0.000400813 4.18123e-06
-1.28435e-05 4.18123e-06 -0.000201908
0.00226588 -0.000381306 -2.33551e-06
-0.000381306 -0.000119055 5.86364e-07
-2.33551e-06 5.86364e-07 1.60335e-05
0.00220786 -0.00027138 3.84169e-08
-0.00027138 -4.3279e-05 -1.09687e-06
3.84169e-08 -1.09687e-06 3.36291e-06
0.00216342 -0.000439105 -2.89603e-06
-0.000439105 3.11566e-05 5.94099e-07
-2.89603e-06 5.94099e-07 2.33646e-05
0.00213151 -0.000357164 -1.55331e-07
-0.000357164 3.11484e-05 4.04243e-08
-1.55331e-07 4.04243e-08 1.25755e-05
0.00205288 -0.000304178 -1.66936e-06
-0.000304178 4.29385e-05 4.84456e-07
-1.66936e-06 4.84456e-07 -5.73471e-06
0.00202848 -0.000414979 4.45233e-07
-0.000414979 7.08057e-05 -1.1006e-06
4.45233e-07 -1.1006e-06 -8.93982e-06
0.00194728 -0.000351145 5.93501e-07
-0.000351145 7.71954e-05 -3.02842e-07
5.93501e-07 -3.02842e-07 -2.27528e-05
0.00195351 -0.000324881 -7.84635e-07
-0.000324881 0.000118235 -2.41419e-08
-7.84635e-07 -2.41419e-08 2.68415e-06
0.00184456 -0.000389255 1.71992e-06
-0.000389255 7.42762e-05 -1.12636e-06
1.71992e-06 -1.12636e-06 -5.58104e-05
0.00191985 -0.000368371 2.65193e-07
-0.000368371 0.000141735 -4.94599e-07
2.65193e-07 -4.94599e-07 7.53406e-07
0.00188799 -0.000342895 -5.16018e-07
-0.000342895 0.000163793 -1.54691e-06
-5.16018e-07 -1.54691e-06 -8.70418e-07
0.00208382 -0.000391269 -1.53512e-06
-0.000391269 0.000276353 3.48161e-06
-1.53512e-06 3.48161e-06 0.000118772
0.00196801 -0.000376663 -5.75609e-07
-0.000376663 0.000253578 -1.11607e-07
-5.75609e-07 -1.11607e-07 6.72072e-05
0.00157928 -0.000304413 -5.43292e-06
-0.000304413 0.000126787 7.96636e-07
-5.43292e-06 7.96636e-07 -7.39962e-05
0.00192506 -0.000406965 3.37195e-06
-0.000406965 0.000262212 1.31478e-06
3.37195e-06 1.31478e-06 4.77033e-05
0.00162647 -0.000336884 -4.68538e-07
-0.000336884 0.000191419 1.91939e-08
-4.68538e-07 1.91939e-08 -2.69197e-05
0.000961313 -0.000207403 -1.43281e-05
-0.000207403 -2.95635e-05 6.68676e-06
-1.43281e-05 6.68676e-06 -0.00020982
0.000376478 -0.000187662 -1.99391e-05
-0.000187662 -0.000175348 1.65973e-05
-1.99391e-05 1.65973e-05 -0.000294738
0.000947994 -0.000225629 2.34894e-07
-0.000225629 -7.03813e-06 7.11129e-08
2.34894e-07 7.11129e-08 -0.000197151
0.00145151 -0.000361808 5.70172e-06
-0.000361808 0.000146477 -1.33953e-06
5.70172e-06 -1.33953e-06 -9.95706e-05
0.00640953 2.9174e-05 -0.00024841
2.9174e-05 0.00360663 1.59015e-05
-0.00024841 1.59015e-05 0.00361296
0.000452199 -0.000205845 -1.42272e-06
-0.000205845 -0.000121807 9.98216e-07
-1.42272e-06 9.98216e-07 -0.000239738
0.000891226 -0.000229059 1.23291e-05
-0.000229059 1.09387e-05 -6.69053e-06
1.23291e-05 -6.69053e-06 -0.000186586
0.00627317 8.1185e-05 -1.42796e-06
8.1185e-05 0.0035441 1.92847e-07
-1.42796e-06 1.92847e-07 0.00354129
0.000529264 -0.000216521 2.46656e-05
-0.000216521 -6.41038e-05 -1.77955e-05
2.46656e-05 -1.77955e-05 -0.000178878
0.00600662 0.000104453 0.000217716
0.000104453 0.00339745 -1.83996e-05
0.000217716 -1.83996e-05 0.0033895
0.0016374 0.000510303 -1.56912e-06
0.000510303 0.000179346 3.99674e-06
-1.56912e-06 3.99674e-06 -0.000102673
0.00143868 0.000460646 3.41059e-07
0.000460646 0.000192531 6.76225e-07
3.41059e-07 6.76225e-07 -0.000108185
0.00125903 0.000356516 -6.85289e-06
0.000356516 0.000153049 -5.12138e-07
-6.85289e-06 -5.12138e-07 -0.000104496
0.00173385 0.000474931 1.55984e-06
0.000474931 0.00049472 1.97356e-06
1.55984e-06 1.97356e-06 0.00017799
0.00111741 0.000314444 -1.67095e-06
0.000314444 0.000147086 2.17744e-07
-1.67095e-06 2.17744e-07 -0.000100321
0.00104039 0.000230448 -1.03885e-05
0.000230448 0.000218343 -3.98312e-06
-1.03885e-05 -3.98312e-06 2.0682e-05
0.00132825 0.000298562 -1.67846e-06
0.000298562 0.000395939 -8.35631e-08
-1.67846e-06 -8.35631e-08 0.000156794
0.000705657 0.000196404 4.83108e-07
0.000196404 9.75214e-05 9.48874e-07
4.83108e-07 9.48874e-07 -0.000107927
0.000568089 0.000141289 -2.3315e-05
0.000141289 -5.18257e-06 -1.63855e-05
-2.3315e-05 -1.63855e-05 -9.42736e-05
0.00024357 6.8858e-05 5.23492e-07
6.8858e-05 -0.000161372 5.57266e-06
5.23492e-07 5.57266e-06 -0.000329419
0.000543864 5.21285e-05 -9.38118e-07
5.21285e-05 1.15644e-06 -3.92742e-07
-9.38118e-07 -3.92742e-07 -6.80102e-05
0.00462036 -0.000151194 -0.000148026
-0.000151194 0.00256913 -1.01151e-05
-0.000148026 -1.01151e-05 0.00255704
0.000422014 2.01416e-05 7.02162e-06
2.01416e-05 -6.08387e-05 1.36491e-05
7.02162e-06 1.36491e-05 -0.000117607
0.00376225 -0.000158469 -7.03114e-06
-0.000158469 0.00203382 7.03377e-07
-7.03114e-06 7.03377e-07 0.00202262
0.00324395 -0.000144778 6.53265e-05
-0.000144778 0.00170165 4.38083e-06
6.53265e-05 4.38083e-06 0.00169458
0.000884684 0.000107803 2.25385e-05
0.000107803 -0.000561876 1.78298e-05
2.25385e-05 1.78298e-05 -0.000407748
0.0024564 0.000115438 -9.76464e-06
0.000115438 -0.000674838 -4.01314e-06
-9.76464e-06 -4.01314e-06 -0.000205147
0.00385013 0.000176361 0.000181008
0.000176361 -0.00138786 5.3051e-05
0.000181008 5.3051e-05 -1.41894e-05
0.00254924 0.000670313 -7.66034e-06
0.000670313 0.000546987 -4.97465e-07
-7.66034e-06 -4.97465e-07 0.000280187
0.00169159 0.000621174 -6.02047e-06
0.000621174 0.000215126 -4.42505e-06
-6.02047e-06 -4.42505e-06 -7.94214e-05
0.00206431 0.000503523 -9.64861e-07
0.000503523 0.000179464 3.98263e-06
-9.64861e-07 3.98263e-06 -3.25213e-05
0.00197911 0.000592877 1.1021e-06
0.000592877 0.00027316 3.5351e-07
1.1021e-06 3.5351e-07 -8.05424e-07
0.00146104 0.000520586 3.2339e-07
0.000520586 0.000156755 -9.59858e-06
3.2339e-07 -9.59858e-06 -0.000144536
0.00188129 0.000522256 -2.62181e-06
0.000522256 6.48705e-06 8.02967e-07
-2.62181e-06 8.02967e-07 -0.00018538
0.00237027 0.000692353 -7.05146e-06
0.000692353 0.000740254 -3.56446e-06
-7.05146e-06 -3.56446e-06 0.000428292
0.00213883 0.000692511 -2.00777e-07
0.000692511 0.000315335 -5.27371e-07
-2.00777e-07 -5.27371e-07 4.87504e-05
0.00198885 0.00038593 -1.00257e-05
0.00038593 -8.27289e-05 2.01646e-07
-1.00257e-05 2.01646e-07 -0.000134968
0.0029909 0.000854604 -4.22435e-06
0.000854604 0.000803627 5.59641e-06
-4.22435e-06 5.59641e-06 0.000540437
0.0023097 0.000686252 -6.96761e-07
0.000686252 0.000262682 -4.26259e-07
-6.96761e-07 -4.26259e-07 5.44814e-05
0.000722487 0.00034549 3.82077e-06
0.00034549 -0.000517012 2.84829e-06
3.82077e-06 2.84829e-06 -0.000523854
-0.000604446 0.000465967 -2.02234e-05
0.000465967 -0.00104443 -6.05257e-06
-2.02234e-05 -6.05257e-06 -0.0011891
0.00331952 0.000783976 -9.26688e-05
0.000783976 0.000238734 -3.35988e-05
-9.26688e-05 -3.35988e-05 0.000271424
0.00202425 6.53455e-05 -1.62054e-06
6.53455e-05 -0.00015098 -9.47583e-07
-1.62054e-06 -9.47583e-07 -9.44754e-05
0.00247216 -6.32293e-05 6.42588e-06
-6.32293e-05 0.000425483 1.42916e-09
6.42588e-06 1.42916e-09 0.000484022
0.00224107 -0.000173148 -7.30411e-05
-0.000173148 -0.000290893 9.50567e-06
-7.30411e-05 9.50567e-06 -0.000195146
0.00225888 -0.000321613 -5.31758e-05
-0.000321613 -6.53039e-05 8.3586e-06
-5.31758e-05 8.3586e-06 0.000172099
0.00141613 -9.66316e-05 -9.65903e-06
-9.66316e-05 -0.000290202 2.67109e-06
-9.65903e-06 2.67109e-06 -0.000294978
0.00225314 -0.000219939 2.06148e-07
-0.000219939 -3.64987e-05 -1.59469e-06
2.06148e-07 -1.59469e-06 5.62618e-05
0.00225579 -9.80258e-06 -2.33545e-06
-9.80258e-06 -1.10217e-05 1.50306e-06
-2.33545e-06 1.50306e-06 1.2646e-05
0.00226296 -7.34799e-05 -2.20492e-07
-7.34799e-05 -1.3669e-05 -5.63734e-08
-2.20492e-07 -5.63734e-08 3.04564e-05
0.00228407 -0.000385855 -5.06126e-06
-0.000385855 -8.95064e-05 8.60972e-07
-5.06126e-06 8.60972e-07 1.47377e-05
0.00217375 -0.000261547 4.23628e-07
-0.000261547 -4.63698e-05 -2.32049e-07
4.23628e-07 -2.32049e-07 -6.65431e-06
0.00211863 -0.000205705 -4.39401e-07
-0.000205705 5.28764e-06 -2.33815e-07
-4.39401e-07 -2.33815e-07 1.50907e-05
0.00212978 -0.000354341 7.64096e-07
-0.000354341 4.16798e-05 9.90548e-08
7.64096e-07 9.90548e-08 1.92183e-05
0.00204677 -0.000301091 1.22166e-07
-0.000301091 4.43902e-05 1.61238e-07
1.22166e-07 1.61238e-07 -4.60097e-06
0.00202359 -0.000260026 -1.925e-06
-0.000260026 0.000105872 5.22703e-07
-1.925e-06 5.22703e-07 2.53495e-05
0.00194101 -0.000349054 2.46272e-06
-0.000349054 6.96481e-05 -1.25185e-06
2.46272e-06 -1.25185e-06 -3.04967e-05
0.00192625 -0.000323029 4.11629e-07
-0.000323029 9.89582e-05 -3.09922e-07
4.11629e-07 -3.09922e-07 -1.68299e-05
0.00188774 -0.000295781 -2.03724e-07
-0.000295781 0.000119165 -1.17694e-06
-2.03724e-07 -1.17694e-06 -1.79997e-05
0.00195315 -0.00037043 4.52995e-07
-0.00037043 0.000160371 4.23061e-07
4.52995e-07 4.23061e-07 1.88572e-05
0.00191615 -0.000344033 -3.83641e-07
-0.000344033 0.000182731 -1.04477e-07
-3.83641e-07 -1.04477e-07 1.80489e-05
0.00162553 -0.000277203 -3.43973e-06
-0.000277203 0.000117897 4.40722e-07
-3.43973e-06 4.40722e-07 -6.56821e-05
0.00195788 -0.000376465 6.25016e-07
-0.000376465 0.000248013 1.64393e-06
6.25016e-07 1.64393e-06 6.284e-05
0.00161165 -0.000306537 -4.18084e-07
-0.000306537 0.000146088 9.57594e-08
-4.18084e-07 9.57594e-08 -5.44946e-05
0.000984901 -0.000187209 -1.44542e-05
-0.000187209 -3.43522e-05 5.98602e-06
-1.44542e-05 5.98602e-06 -0.000206436
0.00164896 -0.000339919 5.69398e-06
-0.000339919 0.000205322 -7.21775e-07
5.69398e-06 -7.21775e-07 -1.24486e-05
0.00100303 -0.000209063 9.21439e-08
-0.000209063 -6.94823e-06 9.57379e-08
9.21439e-08 9.57379e-08 -0.000186943
0.00264202 -0.000159005 -4.25988e-05
-0.000159005 0.00120074 1.07417e-05
-4.25988e-05 1.07417e-05 0.00110688
0.00197906 -8.10665e-05 -0.000227979
-8.10665e-05 0.000869455 2.91501e-05
-0.000227979 2.91501e-05 0.000850896
0.00157916 -0.000186657 -1.06171e-05
-0.000186657 0.000558701 -2.79372e-07
-1.06171e-05 -2.79372e-07 0.000448608
0.00097583 -0.000228873 1.33919e-05
-0.000228873 6.74565e-06 -6.51298e-06
1.33919e-05 -6.51298e-06 -0.000184216
0.00646025 1.22264e-05 -6.9487e-06
1.22264e-05 0.00364461 5.31883e-07
-6.9487e-06 5.31883e-07 0.00364739
0.000483984 -0.000231714 2.46691e-05
-0.000231714 -0.00010281 -1.7442e-05
2.46691e-05 -1.7442e-05 -0.000223114
0.00635277 6.04122e-05 0.000240621
6.04122e-05 0.00359782 -2.17683e-05
0.000240621 -2.17683e-05 0.00359245
0.00208492 0.000385826 5.06607e-08
0.000385826 0.000171937 7.89153e-07
5.06607e-08 7.89153e-07 1.01586e-05
0.00195213 0.000494871 2.29271e-06
0.000494871 0.000253268 4.48191e-06
2.29271e-06 4.48191e-06 1.25134e-05
0.0019176 0.000534852 9.19791e-08
0.000534852 0.000342544 1.78738e-07
9.19791e-08 1.78738e-07 5.89913e-05
0.00146738 0.000392519 -5.90896e-06
0.000392519 0.000195297 4.12202e-07
-5.90896e-06 4.12202e-07 -5.98159e-05
0.00149899 0.000476304 4.44218e-06
0.000476304 0.000225136 -1.59386e-06
4.44218e-06 -1.59386e-06 -7.84163e-05
0.00128438 0.000359065 -2.67123e-07
0.000359065 0.000168097 3.49783e-07
-2.67123e-07 3.49783e-07 -9.05619e-05
0.000861392 0.000214809 -1.18793e-05
0.000214809 2.88198e-05 -5.35476e-06
-1.18793e-05 -5.35476e-06 -0.000159636
0.00135837 0.000329687 5.82663e-06
0.000329687 0.000303579 2.41185e-06
5.82663e-06 2.41185e-06 5.58549e-05
0.000695727 0.000200149 8.98808e-07
0.000200149 1.70758e-06 5.10432e-07
8.98808e-07 5.10432e-07 -0.000190285
0.000584582 0.00021322 -2.61482e-05
0.00021322 -1.09263e-05 -1.75202e-05
-2.61482e-05 -1.75202e-05 -0.000120751
0.00033039 0.000158065 2.84974e-06
0.000158065 -0.000135881 3.24892e-06
2.84974e-06 3.24892e-06 -0.000337288
0.000594891 0.000120512 -9.36859e-07
0.000120512 1.14609e-05 -7.19564e-07
-9.36859e-07 -7.19564e-07 -7.49713e-05
0.00551648 -0.00014885 -0.000191277
-0.00014885 0.00312804 -1.69321e-05
-0.000191277 -1.69321e-05 0.00310856
0.000318462 4.48158e-05 1.06092e-05
4.48158e-05 -0.000132373 1.53278e-05
1.06092e-05 1.53278e-05 -0.000198221
0.0043298 -0.000178833 -1.0002e-05
-0.000178833 0.00239595 9.09066e-07
-1.0002e-05 9.09066e-07 0.00237753
0.00363219 -0.000166756 8.33227e-05
-0.000166756 0.00195458 4.88289e-06
8.33227e-05 4.88289e-06 0.00194111
0.00215155 0.000197735 -4.26045e-06
0.000197735 -9.81337e-05 -4.50361e-07
-4.26045e-06 -4.50361e-07 -3.61358e-05
0.00207762 7.45768e-05 2.41677e-05
7.45768e-05 4.52866e-05 -2.78304e-06
2.41677e-05 -2.78304e-06 0.000194824
0.00517055 0.000176268 -0.000108969
0.000176268 0.000553836 -1.23667e-05
-0.000108969 -1.23667e-05 0.00103534
0.00200045 0.000453231 -5.19622e-06
0.000453231 9.98066e-05 1.42655e-06
-5.19622e-06 1.42655e-06 -7.66388e-05
0.0021105 0.000624048 -3.24507e-06
0.000624048 0.000315384 -2.0128e-07
-3.24507e-06 -2.0128e-07 5.5176e-05
0.00163137 0.000633675 -5.27612e-06
0.000633675 0.000161929 -8.78251e-06
-5.27612e-06 -8.78251e-06 -0.000128969
0.00219247 0.000498153 3.11963e-06
0.000498153 0.000274786 1.37807e-06
3.11963e-06 1.37807e-06 6.57427e-05
0.00193965 0.000581732 8.899e-07
0.000581732 0.000249872 -3.57225e-06
8.899e-07 -3.57225e-06 -2.13828e-05
0.00230212 0.000373444 -5.77376e-07
0.000373444 0.000100431 3.08906e-07
-5.77376e-07 3.08906e-07 3.6541e-05
0.00187778 0.000524248 -1.38416e-07
0.000524248 2.95975e-05 6.21205e-07
-1.38416e-07 6.21205e-07 -0.000163247
0.00263755 0.000726043 -4.30622e-06
0.000726043 0.000619467 -1.13289e-06
-4.30622e-06 -1.13289e-06 0.000342484
0.00201531 0.000382177 -4.03375e-07
0.000382177 -5.78849e-05 -5.23399e-07
-4.03375e-07 -5.23399e-07 -0.000109068
0.00213122 0.000670627 1.26687e-05
0.000670627 0.000152032 1.51963e-06
1.26687e-05 1.51963e-06 -5.81697e-05
0.00078616 0.000343121 -3.74433e-05
0.000343121 -0.000458483 -1.63862e-05
-3.74433e-05 -1.63862e-05 -0.000471727
0.00223554 7.23218e-05 6.71917e-08
7.23218e-05 -9.22594e-06 4.58108e-07
6.71917e-08 4.58108e-07 3.2738e-05
0.00217599 7.66679e-05 -1.97039e-06
7.66679e-05 -4.1309e-05 2.31214e-07
-1.97039e-06 2.31214e-07 9.74541e-06
0.00321967 -5.81537e-05 -4.06649e-05
-5.81537e-05 0.000932076 2.67492e-06
-4.06649e-05 2.67492e-06 0.000972524
0.00220778 -0.000215295 -1.41739e-05
-0.000215295 -7.53333e-05 2.33976e-06
-1.41739e-05 2.33976e-06 3.48482e-05
0.00230817 -7.06982e-06 -3.69992e-06
-7.06982e-06 -1.23308e-05 -2.66973e-06
-3.69992e-06 -2.66973e-06 1.85862e-05
0.00221896 -7.93413e-05 -5.87291e-07
-7.93413e-05 -5.93838e-05 -8.42499e-08
-5.87291e-07 -8.42499e-08 -7.39209e-06
0.00200776 -6.49217e-05 -5.29584e-07
-6.49217e-05 -8.10609e-06 2.97597e-07
-5.29584e-07 2.97597e-07 -1.77924e-06
0.00213593 -0.000250612 7.57618e-08
-0.000250612 -5.02977e-05 6.03792e-07
7.57618e-08 6.03792e-07 -1.75283e-05
0.00207396 -0.000209372 -1.68154e-07
-0.000209372 -1.31764e-05 -2.30966e-08
-1.68154e-07 -2.30966e-08 -8.79531e-06
0.00203738 -0.000177786 -1.43387e-06
-0.000177786 7.21904e-05 -8.25672e-08
-1.43387e-06 -8.25672e-08 2.68348e-05
0.00204211 -0.000298161 1.87297e-06
-0.000298161 4.68669e-05 -1.04721e-07
1.87297e-06 -1.04721e-07 -2.46444e-06
0.00196968 -0.000256981 2.94335e-07
-0.000256981 6.83354e-05 -1.13143e-07
2.94335e-07 -1.13143e-07 -1.22837e-05
0.00189807 -0.000235342 -6.06661e-07
-0.000235342 8.26326e-05 -9.12033e-07
-6.06661e-07 -9.12033e-07 -2.75757e-05
0.00189949 -0.000321113 1.75237e-06
-0.000321113 7.99699e-05 -5.01483e-07
1.75237e-06 -5.01483e-07 -3.6025e-05
0.00193879 -0.000298444 -2.95721e-07
-0.000298444 0.000150303 -1.85923e-08
-2.95721e-07 -1.85923e-08 1.28167e-05
0.00167537 -0.000240098 -2.22709e-06
-0.000240098 0.000113719 1.38784e-07
-2.22709e-06 1.38784e-07 -5.16165e-05
0.0019421 -0.000345086 3.48627e-07
-0.000345086 0.000200237 1.13734e-06
3.48627e-07 1.13734e-06 3.55356e-05
0.00165936 -0.000279275 -3.3576e-07
-0.000279275 0.000137376 3.76216e-08
-3.3576e-07 3.76216e-08 -4.59626e-05
0.00100313 -0.000167146 -1.38549e-05
-0.000167146 -3.97746e-05 4.99355e-06
-1.38549e-05 4.99355e-06 -0.000205184
0.00164374 -0.000308689 4.38962e-06
-0.000308689 0.00016516 -6.30323e-07
4.38962e-06 -6.30323e-07 -3.5232e-05
0.00103123 -0.000188349 -2.7532e-08
-0.000188349 -1.00884e-05 1.55159e-07
-2.7532e-08 1.55159e-07 -0.000181493
0.00265644 -0.000157914 -5.07129e-05
-0.000157914 0.00119913 1.02175e-05
-5.07129e-05 1.02175e-05 0.00111331
0.00104226 -0.000210934 1.43725e-05
-0.000210934 1.41247e-05 -6.34848e-06
1.43725e-05 -6.34848e-06 -0.000165678
0.00277749 -0.000199204 4.47447e-05
-0.000199204 0.00128324 -6.60894e-06
4.47447e-05 -6.60894e-06 0.00119641
0.00204466 -0.000119403 -0.000230547
-0.000119403 0.000915934 3.38977e-05
-0.000230547 3.38977e-05 0.000895345
0.00413128 -8.13869e-05 -0.000225987
-8.13869e-05 0.00221166 2.05051e-05
-0.000225987 2.05051e-05 0.00220368
0.00286236 -0.000255055 0.000144694
-0.000255055 0.00134926 -2.23942e-05
0.000144694 -2.23942e-05 0.00126251
0.00650802 -3.27701e-06 0.000256426
-3.27701e-06 0.00368277 -2.5838e-05
0.000256426 -2.5838e-05 0.00368148
0.00228669 0.000385413 -2.17429e-06
0.000385413 0.000288711 -1.55958e-07
-2.17429e-06 -1.55958e-07 0.000149925
0.00177796 0.000380129 2.85156e-06
0.000380129 9.74314e-05 1.67621e-06
2.85156e-06 1.67621e-06 -9.37013e-05
0.00206293 0.000377177 5.45758e-07
0.000377177 0.000163159 -1.80345e-06
5.45758e-07 -1.80345e-06 8.30965e-06
0.00161465 0.000384155 -4.76618e-06
0.000384155 0.000180145 1.0043e-06
-4.76618e-06 1.0043e-06 -5.47579e-05
0.00203408 0.0005006 6.42765e-07
0.0005006 0.000290078 3.97373e-07
6.42765e-07 3.97373e-07 4.85577e-05
0.00219933 0.000560114 1.77288e-06
0.000560114 0.000506606 -3.21976e-06
1.77288e-06 -3.21976e-06 0.000221335
0.00143932 0.00039286 1.81738e-07
0.00039286 0.000171617 3.81925e-07
1.81738e-07 3.81925e-07 -8.49113e-05
0.000921793 0.000236162 -1.37135e-05
0.000236162 -7.25574e-06 -5.54455e-06
-1.37135e-05 -5.54455e-06 -0.000198414
0.00131047 0.000362057 8.01848e-06
0.000362057 0.000183083 1.83604e-06
8.01848e-06 1.83604e-06 -7.68997e-05
0.000777739 0.000208157 -3.74263e-07
0.000208157 -2.22494e-05 -1.64188e-07
-3.74263e-07 -1.64188e-07 -0.00020799
0.000468588 0.000234933 -2.57602e-05
0.000234933 -9.59073e-05 -1.80501e-05
-2.57602e-05 -1.80501e-05 -0.000215007
0.000367495 0.000180765 7.55294e-06
0.000180765 -0.00020066 3.32042e-06
7.55294e-06 3.32042e-06 -0.000389391
0.000401822 0.000181589 2.4572e-06
0.000181589 -0.000126147 4.30857e-07
2.4572e-06 4.30857e-07 -0.00022867
0.00622616 -0.000106089 -0.000221656
-0.000106089 0.00355243 -2.21182e-05
-0.000221656 -2.21182e-05 0.00353346
0.000328421 8.75357e-05 1.70922e-05
8.75357e-05 -0.000148925 1.55873e-05
1.70922e-05 1.55873e-05 -0.000229456
0.00515881 -0.000175785 -5.05564e-06
-0.000175785 0.00290538 -4.8395e-07
-5.05564e-06 -4.8395e-07 0.00288521
0.00411493 -0.000194918 9.86438e-05
-0.000194918 0.00226831 6.31077e-06
9.86438e-05 6.31077e-06 0.00224561
0.00226528 0.000225532 -6.1513e-07
0.000225532 6.06903e-06 4.39164e-07
-6.1513e-07 4.39164e-07 3.2963e-05
0.00208992 0.000202862 1.29308e-06
0.000202862 -0.000125223 9.89825e-08
1.29308e-06 9.89825e-08 -6.46143e-05
0.00293887 4.80176e-05 -8.02699e-05
4.80176e-05 0.00047273 -1.25257e-05
-8.02699e-05 -1.25257e-05 0.0006252
0.00202793 0.000325921 -5.25514e-07
0.000325921 3.46979e-05 2.65191e-07
-5.25514e-07 2.65191e-07 -6.31403e-05
0.00201898 0.000452411 -3.15518e-07
0.000452411 0.000132348 4.28033e-07
-3.15518e-07 4.28033e-07 -4.41339e-05
0.00161505 0.000570513 5.57254e-06
0.000570513 5.21021e-05 -1.92859e-06
5.57254e-06 -1.92859e-06 -0.000200041
0.00232782 0.000493065 4.98387e-07
0.000493065 0.000374748 -2.96451e-06
4.98387e-07 -2.96451e-06 0.000168678
0.00222291 0.000360501 -8.39527e-07
0.000360501 6.32444e-05 7.19369e-09
-8.39527e-07 7.19369e-09 1.5959e-06
0.00189018 0.000527497 -1.95505e-06
0.000527497 6.21252e-05 2.1728e-07
-1.95505e-06 2.1728e-07 -0.000131853
0.00193618 0.000372225 1.11025e-05
0.000372225 -6.94356e-05 -2.66412e-07
1.11025e-05 -2.66412e-07 -0.000119198
0.00206869 5.93194e-05 1.03495e-06
5.93194e-05 -9.24191e-08 5.15866e-07
1.03495e-06 5.15866e-07 1.51182e-05
0.00217546 6.9054e-05 9.02962e-08
6.9054e-05 -3.46824e-05 -5.12256e-09
9.02962e-08 -5.12256e-09 5.13358e-06
0.00231034 9.21338e-05 -7.75331e-06
9.21338e-05 6.06069e-05 -3.50896e-07
-7.75331e-06 -3.50896e-07 0.000105833
0.00194185 -1.23267e-05 -4.03539e-06
-1.23267e-05 1.60623e-05 5.53056e-07
-4.03539e-06 5.53056e-07 4.73015e-06
0.00217983 -9.07268e-05 1.01244e-06
-9.07268e-05 -0.000101013 -7.13578e-07
1.01244e-06 -7.13578e-07 -4.12552e-05
0.00203006 -6.77448e-05 -8.26775e-07
-6.77448e-05 5.78969e-07 3.19991e-07
-8.26775e-07 3.19991e-07 7.95617e-06
0.00196088 -0.000102341 -3.87893e-06
-0.000102341 2.02316e-05 3.01513e-07
-3.87893e-06 3.01513e-07 -8.75201e-06
0.00202958 -0.000212895 1.11837e-06
-0.000212895 -3.15346e-05 2.15518e-07
1.11837e-06 2.15518e-07 -3.29307e-05
0.00200503 -0.000175414 1.58733e-06
-0.000175414 5.18029e-05 -3.98533e-07
1.58733e-06 -3.98533e-07 6.89615e-06
0.00194359 -0.000164929 1.53426e-06
-0.000164929 9.11617e-05 -1.3067e-06
1.53426e-06 -1.3067e-06 3.64695e-06
0.00191132 -0.000253088 2.23586e-06
-0.000253088 2.8095e-05 -6.92209e-07
2.23586e-06 -6.92209e-07 -5.24889e-05
0.00195356 -0.000236381 -2.16622e-07
-0.000236381 0.000116205 -1.45519e-07
-2.16622e-07 -1.45519e-07 6.0403e-06
0.00170499 -0.000189723 -1.37944e-06
-0.000189723 0.000108802 -2.1561e-07
-1.37944e-06 -2.1561e-07 -3.76008e-05
0.00198762 -0.000300814 5.71598e-07
-0.000300814 0.000180799 8.97404e-07
5.71598e-07 8.97404e-07 4.30371e-05
0.00169341 -0.000240434 -2.68484e-07
-0.000240434 0.000123498 1.02941e-07
-2.68484e-07 1.02941e-07 -4.1372e-05
0.00102473 -0.000144136 -1.31352e-05
-0.000144136 -4.09675e-05 3.85734e-06
-1.31352e-05 3.85734e-06 -0.000199
0.0016924 -0.000281194 2.57936e-06
-0.000281194 0.000156524 -3.72989e-07
2.57936e-06 -3.72989e-07 -2.65404e-05
0.00104989 -0.000167251 -1.58201e-07
-0.000167251 -1.52242e-05 2.48079e-07
-1.58201e-07 2.48079e-07 -0.000179643
0.00264583 -0.000156351 -5.83051e-05
-0.000156351 0.00118978 9.99384e-06
-5.83051e-05 9.99384e-06 0.00110713
0.00107833 -0.000189551 1.44133e-05
-0.000189551 1.44396e-05 -5.69445e-06
1.44133e-05 -5.69445e-06 -0.000156235
0.00273897 -0.000182279 4.09291e-05
-0.000182279 0.00124971 -5.27113e-06
4.09291e-05 -5.27113e-06 0.00117001
0.00208039 -0.000102465 -0.000225325
-0.000102465 0.000930708 2.98416e-05
-0.000225325 2.98416e-05 0.00091234
0.0028942 -0.0002088 0.00014088
-0.0002088 0.00135062 -2.36529e-05
0.00014088 -2.36529e-05 0.00127206
0.0017422 -5.78995e-05 -9.62579e-05
-5.78995e-05 0.000732569 1.31742e-05
-9.62579e-05 1.31742e-05 0.000700578
0.00614864 6.50401e-05 7.02656e-05
6.50401e-05 0.00344439 -3.0349e-06
7.02656e-05 -3.0349e-06 0.00342422
0.00204346 0.000323715 1.03767e-06
0.000323715 0.000118478 4.85993e-07
1.03767e-06 4.85993e-07 -2.10369e-06
0.00208154 0.000358024 3.31536e-07
0.000358024 0.000233193 -1.86346e-07
3.31536e-07 -1.86346e-07 7.09654e-05
0.00216257 0.00038118 -3.93785e-06
0.00038118 0.000202966 -9.32282e-08
-3.93785e-06 -9.32282e-08 6.13567e-05
0.00179452 0.000345145 -2.01344e-06
0.000345145 0.00022871 4.65901e-07
-2.01344e-06 4.65901e-07 2.14818e-05
0.0017809 0.000386176 -5.39594e-07
0.000386176 8.32861e-05 -1.90175e-06
-5.39594e-07 -1.90175e-06 -0.000104575
0.00204634 0.00036895 -3.99107e-06
0.00036895 0.000157715 -5.51037e-06
-3.99107e-06 -5.51037e-06 9.73635e-06
0.00104688 0.000236211 -1.48384e-05
0.000236211 7.81482e-06 -5.21133e-06
-1.48384e-05 -5.21133e-06 -0.000177495
0.00156975 0.000381702 5.73005e-07
0.000381702 0.000151803 3.69633e-07
5.73005e-07 3.69633e-07 -8.3631e-05
0.00211411 0.000505848 2.70821e-06
0.000505848 0.000324834 -3.27795e-06
2.70821e-06 -3.27795e-06 8.26856e-05
0.0014023 0.000391986 6.90755e-06
0.000391986 0.000143627 5.70184e-07
6.90755e-06 5.70184e-07 -0.000114047
0.000881089 0.000228793 -8.85046e-07
0.000228793 -2.52074e-05 3.68251e-08
-8.85046e-07 3.68251e-08 -0.000214078
0.000427041 0.000231844 -2.50249e-05
0.000231844 -0.000126781 -1.70805e-05
-2.50249e-05 -1.70805e-05 -0.000249683
0.000650724 0.000196244 1.16349e-05
0.000196244 -9.88378e-05 5.51063e-06
1.16349e-05 5.51063e-06 -0.000280977
0.00042632 0.000221201 2.20472e-06
0.000221201 -0.000116064 5.96472e-07
2.20472e-06 5.96472e-07 -0.000235604
0.00649663 -2.05007e-05 -0.000243917
-2.05007e-05 0.00370249 -2.78567e-05
-0.000243917 -2.78567e-05 0.00368842
0.000470411 0.000164613 2.32625e-05
0.000164613 -8.75936e-05 1.75403e-05
2.32625e-05 1.75403e-05 -0.000186975
0.00600373 -0.00014144 3.6054e-06
-0.00014144 0.00341301 -1.19569e-06
3.6054e-06 -1.19569e-06 0.0033952
0.0048473 -0.000225745 0.000123092
-0.000225745 0.00273176 8.67241e-06
0.000123092 8.67241e-06 0.00269874
0.0020558 0.000177887 -1.17915e-06
0.000177887 2.06949e-05 -4.83896e-08
-1.17915e-06 -4.83896e-08 1.52059e-06
0.00223481 0.000227345 1.34296e-07
0.000227345 -2.04503e-05 5.85412e-07
1.34296e-07 5.85412e-07 9.06864e-06
0.00209681 0.00020805 3.98485e-06
0.00020805 -0.000126626 1.28285e-07
3.98485e-06 1.28285e-07 -6.67787e-05
0.00207087 0.000323626 -1.63566e-07
0.000323626 6.70593e-05 1.05028e-07
-1.63566e-07 1.05028e-07 -2.67368e-05
0.00201249 0.000449083 1.5344e-06
0.000449083 0.00015262 -6.41585e-07
1.5344e-06 -6.41585e-07 -2.35535e-05
0.00216514 0.000349107 1.56102e-06
0.000349107 3.38542e-05 -4.68109e-07
1.56102e-06 -4.68109e-07 -2.57233e-05
0.0019788 5.91835e-05 -2.00185e-06
5.91835e-05 1.2947e-05 3.79386e-07
-2.00185e-06 3.79386e-07 6.18238e-06
0.00205326 5.47427e-05 3.47697e-07
5.47427e-05 -5.4782e-06 -9.13106e-08
3.47697e-07 -9.13106e-08 7.25225e-06
0.00211714 6.59199e-05 -3.13189e-08
6.59199e-05 -6.05238e-05 -4.61604e-07
-3.13189e-08 -4.61604e-07 -2.21551e-05
0.0019416 -1.28472e-05 -1.21153e-06
-1.28472e-05 1.27448e-05 4.61419e-08
-1.21153e-06 4.61419e-08 9.5624e-07
0.00191013 -3.99095e-05 -5.93653e-06
-3.99095e-05 1.30346e-05 6.45078e-07
-5.93653e-06 6.45078e-07 -2.10657e-05
0.0020537 -7.03189e-05 7.40039e-07
-7.03189e-05 9.64553e-06 -4.96651e-08
7.40039e-07 -4.96651e-08 1.83772e-05
0.00195433 -0.000101565 -1.51092e-06
-0.000101565 2.1564e-05 3.01493e-07
-1.51092e-06 3.01493e-07 -1.04852e-05
0.00196778 -0.000105412 -3.36918e-06
-0.000105412 9.90377e-05 2.30688e-07
-3.36918e-06 2.30688e-07 3.09242e-05
0.00197811 -0.000173678 4.3948e-06
-0.000173678 3.55393e-05 -7.18257e-07
4.3948e-06 -7.18257e-07 -9.04055e-06
0.00193448 -0.000166313 2.66402e-06
-0.000166313 8.215e-05 -9.06012e-07
2.66402e-06 -9.06012e-07 -5.40516e-06
0.00168989 -0.000136136 1.40513e-06
-0.000136136 8.6935e-05 -5.98067e-07
1.40513e-06 -5.98067e-07 -4.43024e-05
0.00200205 -0.000238891 9.92791e-07
-0.000238891 0.000144549 4.67738e-07
9.92791e-07 4.67738e-07 3.4112e-05
0.00169741 -0.000190118 -2.14245e-07
-0.000190118 0.000100651 -4.01285e-08
-2.14245e-07 -4.01285e-08 -4.55713e-05
0.00103885 -0.000115402 -1.25692e-05
-0.000115402 -4.23082e-05 2.86252e-06
-1.25692e-05 2.86252e-06 -0.000191782
0.00171615 -0.000241169 1.44542e-06
-0.000241169 0.000135025 6.19962e-08
1.44542e-06 6.19962e-08 -2.94273e-05
0.00106018 -0.000142905 -2.87533e-07
-0.000142905 -2.17757e-05 2.54697e-07
-2.87533e-07 2.54697e-07 -0.000178761
0.00259053 -0.00016087 -6.10283e-05
-0.00016087 0.00115533 8.80096e-06
-6.10283e-05 8.80096e-06 0.00107432
0.00109649 -0.000167374 1.38574e-05
-0.000167374 8.98849e-06 -4.60751e-06
1.38574e-05 -4.60751e-06 -0.00015441
0.00270636 -0.000158613 3.92993e-05
-0.000158613 0.00122255 -4.00236e-06
3.92993e-05 -4.00236e-06 0.0011473
0.00210303 -8.61029e-05 -0.000224166
-8.61029e-05 0.000937806 2.52394e-05
-0.000224166 2.52394e-05 0.000920725
0.00282152 -0.000176445 0.000138049
-0.000176445 0.00129369 -2.02279e-05
0.000138049 -2.02279e-05 0.00122312
0.00173932 -6.41465e-05 -8.72755e-05
-6.41465e-05 0.000725424 1.0708e-05
-8.72755e-05 1.0708e-05 0.000696127
0.00148005 -5.52285e-05 5.15716e-05
-5.52285e-05 0.000580035 -7.89923e-06
5.15716e-05 -7.89923e-06 0.000534838
0.00201775 0.000205101 -3.6485e-07
0.000205101 7.71413e-05 8.53179e-07
-3.6485e-07 8.53179e-07 5.90689e-06
0.00202179 0.000297417 -7.20693e-07
0.000297417 0.000164283 6.66632e-07
-7.20693e-07 6.66632e-07 2.50967e-05
0.00202118 0.000324454 -1.1127e-07
0.000324454 8.77852e-05 1.45875e-07
-1.1127e-07 1.45875e-07 -2.77406e-05
0.00190166 0.000315493 -9.29289e-07
0.000315493 0.00024583 4.59634e-07
-9.29289e-07 4.59634e-07 6.37687e-05
0.0020109 0.000352002 -6.01433e-07
0.000352002 0.000198449 -3.15671e-07
-6.01433e-07 -3.15671e-07 3.4687e-05
0.00203184 0.000376986 2.38875e-07
0.000376986 0.000113207 -2.30522e-07
2.38875e-07 -2.30522e-07 -3.13068e-05
0.00111256 0.000216154 -1.53217e-05
0.000216154 1.98874e-05 -4.84914e-06
-1.53217e-05 -4.84914e-06 -0.000155193
0.00171192 0.000344554 2.67436e-06
0.000344554 0.000170431 1.72983e-07
2.67436e-06 1.72983e-07 -3.47124e-05
0.00179464 0.000393049 -1.08712e-06
0.000393049 7.61065e-05 -3.61931e-06
-1.08712e-06 -3.61931e-06 -0.000108595
0.000350199 0.00018466 -2.23982e-05
0.00018466 -0.000194567 -1.42066e-05
-2.23982e-05 -1.42066e-05 -0.000308711
0.000991074 0.000230255 -5.35492e-07
0.000230255 -2.08645e-05 1.00776e-07
-5.35492e-07 1.00776e-07 -0.000205074
0.0015299 0.000379989 6.56256e-06
0.000379989 0.000125754 -1.12969e-07
6.56256e-06 -1.12969e-07 -0.000110393
0.000870441 0.000224201 1.3783e-05
0.000224201 -2.53418e-05 6.29979e-06
1.3783e-05 6.29979e-06 -0.000212445
0.000424019 0.000216515 8.95641e-07
0.000216515 -0.000125802 8.94826e-07
8.95641e-07 8.94826e-07 -0.000249864
0.00665004 7.96144e-05 -0.000259072
7.96144e-05 0.00377752 -3.18778e-05
-0.000259072 -3.18778e-05 0.00376857
0.000393357 0.000204674 2.26852e-05
0.000204674 -0.000134103 1.69655e-05
2.26852e-05 1.69655e-05 -0.000252038
0.00639149 -4.88891e-05 6.97719e-06
-4.88891e-05 0.00362585 -4.01119e-07
6.97719e-06 -4.01119e-07 0.00361877
0.00570772 -0.000172073 0.000173602
-0.000172073 0.00322969 9.54208e-06
0.000173602 9.54208e-06 0.0032107
0.00200685 0.000119724 -4.37031e-06
0.000119724 5.55931e-05 -1.01618e-06
-4.37031e-06 -1.01618e-06 3.17305e-05
0.00204993 0.000180602 9.40529e-07
0.000180602 1.68497e-05 4.05288e-07
9.40529e-07 4.05288e-07 -2.33222e-06
0.00219387 0.000229389 -1.25056e-09
0.000229389 -5.03727e-05 -7.6761e-07
-1.25056e-09 -7.6761e-07 -1.87601e-05
0.00212105 0.000320821 2.8964e-06
0.000320821 0.000104129 -1.67465e-07
2.8964e-06 -1.67465e-07 1.44958e-05
0.00187688 9.23466e-06 -4.80725e-06
9.23466e-06 1.53279e-05 6.29262e-07
-4.80725e-06 6.29262e-07 -2.8063e-05
0.00195513 4.96468e-05 1.23566e-07
4.96468e-05 -5.6777e-07 8.36434e-08
1.23566e-07 8.36434e-08 -8.87061e-06
0.00203841 5.01197e-05 -3.2354e-07
5.01197e-05 -9.50929e-06 -3.56392e-07
-3.2354e-07 -3.56392e-07 2.41226e-08
0.00193931 -1.19256e-05 1.38679e-06
-1.19256e-05 8.46923e-06 -7.47426e-07
1.38679e-06 -7.47426e-07 -4.02939e-06
0.00191525 -3.47612e-05 -1.05063e-06
-3.47612e-05 1.5994e-05 -1.18076e-07
-1.05063e-06 -1.18076e-07 -1.71694e-05
0.00188817 -4.56235e-05 -1.73688e-06
-4.56235e-05 5.60595e-05 1.65583e-07
-1.73688e-06 1.65583e-07 -1.35313e-05
0.00194518 -0.000100925 2.85835e-06
-0.000100925 2.09187e-05 1.14441e-07
2.85835e-06 1.14441e-07 -1.44013e-05
0.00190349 -0.000105014 -1.74815e-06
-0.000105014 6.24595e-05 5.93423e-07
-1.74815e-06 5.93423e-07 -1.2611e-05
0.00178675 -8.6105e-05 -6.15505e-07
-8.6105e-05 0.000141391 -1.53374e-07
-6.15505e-07 -1.53374e-07 2.84543e-05
0.00193082 -0.000166478 4.53926e-06
-0.000166478 7.6182e-05 -5.97642e-07
4.53926e-06 -5.97642e-07 -1.11577e-05
0.0016883 -0.000133866 1.82628e-06
-0.000133866 8.43078e-05 -5.19229e-07
1.82628e-06 -5.19229e-07 -4.62892e-05
0.00102842 -8.35052e-05 -1.21921e-05
-8.35052e-05 -5.27367e-05 2.11117e-06
-1.21921e-05 2.11117e-06 -0.000194137
0.00169995 -0.000188452 8.57161e-07
-0.000188452 0.000100233 1.06132e-07
8.57161e-07 1.06132e-07 -4.53741e-05
0.00104561 -0.00011427 -1.34297e-07
-0.00011427 -3.74175e-05 1.31527e-07
-1.34297e-07 1.31527e-07 -0.000186251
0.000474089 -8.74415e-05 -1.99905e-05
-8.74415e-05 -0.000165096 5.66763e-06
-1.99905e-05 5.66763e-06 -0.000253345
0.0010922 -0.00014142 1.30485e-05
-0.00014142 -4.27355e-06 -3.44887e-06
1.30485e-05 -3.44887e-06 -0.000160161
0.0015804 -0.000104589 5.72007e-05
-0.000104589 0.000520539 -4.15518e-06
5.72007e-05 -4.15518e-06 0.000442559
0.0061988 -0.000147606 -0.000295253
-0.000147606 0.00347164 2.08018e-05
-0.000295253 2.08018e-05 0.00348548
0.00278232 -0.000142746 0.000135976
-0.000142746 0.00125969 -1.61285e-05
0.000135976 -1.61285e-05 0.00119422
0.00174745 -6.66118e-05 -7.88851e-05
-6.66118e-05 0.000728572 7.03974e-06
-7.88851e-05 7.03974e-06 0.000699268
0.0013975 -8.56099e-05 6.31588e-05
-8.56099e-05 0.000533046 -9.42749e-06
6.31588e-05 -9.42749e-06 0.000486702
0.00201058 0.00015363 -2.58057e-06
0.00015363 9.95789e-05 -1.06414e-07
-2.58057e-06 -1.06414e-07 4.17007e-05
0.00197888 0.000219039 1.04248e-07
0.000219039 0.000123015 1.50715e-06
1.04248e-07 1.50715e-06 1.35676e-05
0.00200251 0.000201037 9.12963e-07
0.000201037 7.2634e-05 4.91527e-07
9.12963e-07 4.91527e-07 -1.44066e-06
0.00181198 0.000254935 -8.96501e-07
0.000254935 0.000161243 7.31615e-07
-8.96501e-07 7.31615e-07 2.9278e-06
0.00196329 0.000292069 7.39986e-07
0.000292069 0.000131434 6.67965e-08
7.39986e-07 6.67965e-08 -7.16958e-06
0.00200008 0.000325822 6.32298e-07
0.000325822 5.72261e-05 1.93879e-07
6.32298e-07 1.93879e-07 -5.33068e-05
0.0010345 0.000185945 -1.59676e-05
0.000185945 -5.22286e-05 -3.80449e-06
-1.59676e-05 -3.80449e-06 -0.000216019
0.00190214 0.00031458 2.49566e-06
0.00031458 0.000245576 6.12044e-07
2.49566e-06 6.12044e-07 6.39808e-05
0.00193014 0.000345123 -1.3159e-06
0.000345123 0.000158062 -1.26164e-06
-1.3159e-06 -1.26164e-06 -7.13961e-06
0.000357168 0.000131853 -1.94841e-05
0.000131853 -0.000214413 -1.06065e-05
-1.94841e-05 -1.06065e-05 -0.000316258
0.000980488 0.000209511 3.84465e-07
0.000209511 -6.23688e-05 3.46718e-07
3.84465e-07 3.46718e-07 -0.000236779
0.00161875 0.000343111 7.26317e-06
0.000343111 0.000105447 -4.19324e-07
7.26317e-06 -4.19324e-07 -9.74299e-05
0.00660057 0.000160604 -0.000269813
0.000160604 0.00372833 -3.16351e-05
-0.000269813 -3.16351e-05 0.00372643
0.000380943 0.00017655 4.29245e-07
0.00017655 -0.00017663 7.8511e-07
4.29245e-07 7.8511e-07 -0.000291691
0.000927768 0.000223877 1.4943e-05
0.000223877 -5.36395e-05 5.77469e-06
1.4943e-05 5.77469e-06 -0.000236692
0.000369536 0.000200661 2.10865e-05
0.000200661 -0.000155686 1.69376e-05
2.10865e-05 1.69376e-05 -0.000280681
0.00652412 6.88788e-05 9.85835e-06
6.88788e-05 0.00369256 5.09714e-07
9.85835e-06 5.09714e-07 0.00369054
0.00629411 -8.05721e-05 0.00022834
-8.05721e-05 0.00355755 1.34825e-05
0.00022834 1.34825e-05 0.00355473
0.00192557 6.42742e-05 -7.38394e-06
6.42742e-05 4.76314e-05 1.59446e-08
-7.38394e-06 1.59446e-08 3.9767e-08
0.00198646 0.000116706 2.35527e-07
0.000116706 4.06906e-05 3.476e-08
2.35527e-07 3.476e-08 1.67434e-05
0.0020419 0.000183381 1.55429e-06
0.000183381 1.137e-05 3.52508e-07
1.55429e-06 3.52508e-07 -7.32371e-06
0.0018332 2.69221e-06 -1.44047e-06
2.69221e-06 3.28748e-05 3.03071e-08
-1.44047e-06 3.03071e-08 -4.20869e-05
0.00190774 1.43346e-05 8.90587e-08
1.43346e-05 3.37055e-05 8.70885e-08
8.90587e-08 8.70885e-08 -6.5433e-06
0.00193405 3.89679e-05 1.47447e-06
3.89679e-05 -1.26639e-05 -4.37368e-07
1.47447e-06 -4.37368e-07 -2.23552e-05
0.00192047 -3.05026e-05 2.92084e-06
-3.05026e-05 1.86868e-05 -4.89396e-07
2.92084e-06 -4.89396e-07 -1.3216e-05
0.00186912 -4.40362e-05 -1.03149e-06
-4.40362e-05 4.41782e-05 2.39108e-07
-1.03149e-06 2.39108e-07 -2.44951e-05
0.00186616 -3.78014e-05 1.88548e-06
-3.78014e-05 0.000204666 -5.90625e-07
1.88548e-06 -5.90625e-07 9.57634e-05
0.0018367 -0.00010437 -1.15673e-06
-0.00010437 2.47853e-05 7.83429e-07
-1.15673e-06 7.83429e-07 -5.7039e-05
0.00176565 -8.67855e-05 4.76552e-07
-8.67855e-05 0.000132616 2.87448e-08
4.76552e-07 2.87448e-08 1.43025e-05
0.000961897 -4.72466e-05 -1.30909e-05
-4.72466e-05 -9.929e-05 1.11986e-06
-1.30909e-05 1.11986e-06 -0.000231096
0.00167427 -0.000133534 1.96714e-06
-0.000133534 7.36855e-05 -4.30908e-07
1.96714e-06 -4.30908e-07 -5.66716e-05
0.00103433 -7.98307e-05 -5.47567e-08
-7.98307e-05 -4.90259e-05 1.39155e-07
-5.47567e-08 1.39155e-07 -0.000189683
0.000479654 -2.24374e-05 -1.85523e-05
-2.24374e-05 -0.000165888 3.50221e-06
-1.85523e-05 3.50221e-06 -0.000249835
0.00107254 -0.000112679 1.23126e-05
-0.000112679 -2.15395e-05 -2.61074e-06
1.23126e-05 -2.61074e-06 -0.000169537
0.000480174 -7.1569e-05 -2.21071e-07
-7.1569e-05 -0.000159896 3.89949e-07
-2.21071e-07 3.89949e-07 -0.000249047
0.00615267 -4.07339e-05 -0.00028539
-4.07339e-05 0.00343851 1.27257e-05
-0.00028539 1.27257e-05 0.00345629
0.000516925 -7.34344e-05 1.51641e-05
-7.34344e-05 -0.000138383 -7.53042e-06
1.51641e-05 -7.53042e-06 -0.000231369
0.00389293 -9.64221e-05 0.000127847
-9.64221e-05 0.00205403 -6.09448e-06
0.000127847 -6.09448e-06 0.00203826
0.00136231 -8.37175e-05 6.9182e-05
-8.37175e-05 0.000511731 -9.50385e-06
6.9182e-05 -9.50385e-06 0.000465166
0.00187177 0.000116486 -5.81506e-06
0.000116486 2.29635e-05 -2.88456e-07
-5.81506e-06 -2.88456e-07 -3.80171e-05
0.00196346 0.000159473 1.65643e-07
0.000159473 0.000115008 2.0181e-06
1.65643e-07 2.0181e-06 2.02743e-05
0.0019686 0.000148254 -5.41134e-07
0.000148254 7.08165e-05 -8.11995e-08
-5.41134e-07 -8.11995e-08 1.31847e-05
0.00173437 0.000189998 -3.01761e-07
0.000189998 0.000103073 7.90587e-07
-3.01761e-07 7.90587e-07 -4.13517e-05
0.00197688 0.000218737 4.09529e-07
0.000218737 0.000119356 1.64932e-07
4.09529e-07 1.64932e-07 8.48644e-06
0.00198712 0.000196668 2.24357e-06
0.000196668 6.80549e-05 8.73842e-08
2.24357e-06 8.73842e-08 -8.93999e-06
0.00102882 0.00015193 -1.45818e-05
0.00015193 -6.68044e-05 -2.80355e-06
-1.45818e-05 -2.80355e-06 -0.000219745
0.00181583 0.000253049 9.76833e-07
0.000253049 0.000169218 5.00674e-07
9.76833e-07 5.00674e-07 7.69931e-06
0.0019036 0.000286596 -2.20102e-07
0.000286596 9.77896e-05 -9.0985e-07
-2.20102e-07 -9.0985e-07 -4.01793e-05
0.000383589 9.3821e-05 -1.81534e-05
9.3821e-05 -0.000215801 -7.57857e-06
-1.81534e-05 -7.57857e-06 -0.000309109
0.000966331 0.000181846 -1.69596e-06
0.000181846 -9.2409e-05 6.94122e-09
-1.69596e-06 6.94122e-09 -0.000255851
0.00190745 0.000314088 5.9676e-06
0.000314088 0.000248283 8.59674e-07
5.9676e-06 8.59674e-07 6.70744e-05
0.0064595 0.000225032 -0.000286819
0.000225032 0.00363749 -3.05551e-05
-0.000286819 -3.05551e-05 0.00363882
0.000390823 0.000130078 -2.76294e-09
0.000130078 -0.000195467 4.20753e-07
-2.76294e-09 4.20753e-07 -0.000297825
0.000855385 0.000203666 1.46759e-05
0.000203666 -0.00014073 4.82268e-06
1.46759e-05 4.82268e-06 -0.000314559
0.00653703 0.000176561 1.36182e-05
0.000176561 0.00369528 2.88003e-06
1.36182e-05 2.88003e-06 0.00369218
0.00039961 0.000167152 1.99387e-05
0.000167152 -0.000166113 1.40555e-05
1.99387e-05 1.40555e-05 -0.000281905
0.0064021 3.33298e-05 0.000252705
3.33298e-05 0.00360589 2.00013e-05
0.000252705 2.00013e-05 0.00361137
0.0018269 4.46478e-05 -2.48005e-06
4.46478e-05 1.71759e-05 1.20801e-07
-2.48005e-06 1.20801e-07 -5.87613e-05
0.00192284 6.6724e-05 -8.93575e-07
6.6724e-05 5.49305e-05 -2.38161e-07
-8.93575e-07 -2.38161e-07 5.98011e-06
0.00196373 0.000113716 3.87318e-06
0.000113716 2.47657e-05 5.54954e-07
3.87318e-06 5.54954e-07 6.46729e-07
0.00184845 -3.57729e-06 2.38209e-06
-3.57729e-06 0.000195163 -4.99525e-07
2.38209e-06 -4.99525e-07 8.83294e-05
0.00181277 3.2368e-06 -1.57136e-06
3.2368e-06 1.68946e-05 2.56757e-07
-1.57136e-06 2.56757e-07 -5.55974e-05
0.00193722 2.07581e-05 6.62176e-06
2.07581e-05 5.11515e-05 -3.5963e-07
6.62176e-06 -3.5963e-07 1.39897e-05
0.0018478 -4.27551e-05 -5.6845e-07
-4.27551e-05 3.11488e-05 4.80528e-07
-5.6845e-07 4.80528e-07 -3.68356e-05
0.00183779 -3.67713e-05 3.23521e-06
-3.67713e-05 0.00018545 -2.51177e-07
3.23521e-06 -2.51177e-07 7.6782e-05
0.000955118 -1.81161e-05 -1.28221e-05
-1.81161e-05 -9.87119e-05 3.05827e-07
-1.28221e-05 3.05827e-07 -0.000225518
0.00174972 -8.77575e-05 1.83892e-07
-8.77575e-05 0.000127022 1.97078e-07
1.83892e-07 1.97078e-07 3.28776e-06
0.000994108 -4.72685e-05 -1.09292e-06
-4.72685e-05 -7.80829e-05 5.80621e-08
-1.09292e-06 5.80621e-08 -0.000211169
0.000486656 -7.70828e-06 -1.88688e-05
-7.70828e-06 -0.000163114 2.16002e-06
-1.88688e-05 2.16002e-06 -0.000244447
0.00104192 -7.74172e-05 1.17641e-05
-7.74172e-05 -4.3594e-05 -1.84311e-06
1.17641e-05 -1.84311e-06 -0.000183653
0.000460081 -3.46368e-05 8.46658e-07
-3.46368e-05 -0.00017837 -1.59106e-07
8.46658e-07 -1.59106e-07 -0.000261454
0.00603332 -0.000137605 -0.000290309
-0.000137605 0.00337838 1.39024e-05
-0.000290309 1.39024e-05 0.0033911
0.000449988 -5.48746e-05 1.79861e-05
-5.48746e-05 -0.000178371 -4.41334e-06
1.79861e-05 -4.41334e-06 -0.000267111
0.00611101 -7.69614e-05 7.57919e-06
-7.69614e-05 0.00341514 -6.4735e-08
7.57919e-06 -6.4735e-08 0.00343261
0.00170201 -3.00198e-05 0.000226322
-3.00198e-05 0.000691852 -1.42032e-05
0.000226322 -1.42032e-05 0.000681156
0.0018235 0.000105405 -1.34333e-06
0.000105405 1.53856e-05 4.82753e-07
-1.34333e-06 4.82753e-07 -7.35066e-05
0.00190748 0.000120619 -3.20423e-06
0.000120619 4.07153e-05 -7.19651e-07
-3.20423e-06 -7.19651e-07 -1.73016e-05
0.00171158 0.000130357 6.37915e-07
0.000130357 8.51363e-05 1.05511e-06
6.37915e-07 1.05511e-06 -4.37172e-05
0.00196245 0.000158414 8.90251e-07
0.000158414 0.000112718 2.23122e-07
8.90251e-07 2.23122e-07 1.81987e-05
0.00192659 0.000142983 3.23795e-06
0.000142983 4.1025e-05 -3.42019e-07
3.23795e-06 -3.42019e-07 -1.62725e-05
0.00110683 0.000114175 -1.2687e-05
0.000114175 -1.28971e-05 -1.97423e-06
-1.2687e-05 -1.97423e-06 -0.000157381
0.00173159 0.000188833 1.65218e-07
0.000188833 0.000104574 8.47734e-08
1.65218e-07 8.47734e-08 -3.98614e-05
0.0019744 0.000218353 8.13545e-07
0.000218353 0.000115694 -1.25699e-06
8.13545e-07 -1.25699e-06 3.39981e-06
0.000426543 6.84365e-05 -1.78354e-05
6.84365e-05 -0.000198616 -5.44568e-06
-1.78354e-05 -5.44568e-06 -0.000287374
0.00102746 0.000152044 -1.65962e-06
0.000152044 -6.40038e-05 7.20227e-08
-1.65962e-06 7.20227e-08 -0.000218353
0.00182374 0.000251164 2.71444e-06
0.000251164 0.000180131 4.17209e-07
2.71444e-06 4.17209e-07 1.54318e-05
0.00632911 0.000249345 -0.000303701
0.000249345 0.00356557 -2.87976e-05
-0.000303701 -2.87976e-05 0.00356579
0.000427663 9.61082e-05 -9.49894e-08
9.61082e-05 -0.000190417 1.80816e-07
-9.49894e-08 1.80816e-07 -0.000284171
0.000900555 0.000177835 1.09758e-05
0.000177835 -0.000131475 3.60151e-06
1.09758e-05 3.60151e-06 -0.000294485
0.00644815 0.000247388 1.10596e-05
0.000247388 0.00364237 4.26337e-06
1.10596e-05 4.26337e-06 0.00363817
0.000431597 0.000126823 1.87448e-05
0.000126823 -0.000172697 1.075e-05
1.87448e-05 1.075e-05 -0.000275197
0.0065085 0.000174663 0.000280734
0.000174663 0.00366789 2.87652e-05
0.000280734 2.87652e-05 0.00367151
0.00178962 3.79615e-05 3.46606e-06
3.79615e-05 0.00015258 5.91953e-08
3.46606e-06 5.91953e-08 4.39504e-05
0.00184494 4.31622e-05 -2.47295e-06
4.31622e-05 3.40024e-05 -2.63906e-08
-2.47295e-06 -2.63906e-08 -4.30974e-05
0.00194026 6.89427e-05 4.69882e-06
6.89427e-05 7.503e-05 -1.98843e-07
4.69882e-06 -1.98843e-07 2.49509e-05
0.000949501 -8.52634e-06 -1.31143e-05
-8.52634e-06 -9.272e-05 -1.63441e-07
-1.31143e-05 -1.63441e-07 -0.000217432
0.00182937 1.47819e-06 3.44177e-06
1.47819e-06 0.000182737 -1.10434e-07
3.44177e-06 -1.10434e-07 7.59988e-05
0.00181103 3.33284e-06 -8.34482e-07
3.33284e-06 1.3021e-05 3.35198e-07
-8.34482e-07 3.35198e-07 -5.68832e-05
0.00181533 -3.60605e-05 4.42705e-06
-3.60605e-05 0.000170032 1.72391e-07
4.42705e-06 1.72391e-07 6.15994e-05
0.000949878 -1.90317e-05 -7.52615e-07
-1.90317e-05 -0.000103429 1.97252e-08
-7.52615e-07 1.97252e-08 -0.000230519
0.000490726 -3.17828e-05 -1.9358e-05
-3.17828e-05 -0.00015976 9.97899e-07
-1.9358e-05 9.97899e-07 -0.000238158
0.00100707 -4.63488e-05 1.12057e-05
-4.63488e-05 -6.85064e-05 -1.26905e-06
1.12057e-05 -1.26905e-06 -0.000202901
0.000465373 3.63381e-06 3.59711e-07
3.63381e-06 -0.000176897 5.6982e-08
3.59711e-07 5.6982e-08 -0.000257218
0.00599877 -0.000110479 -0.000294043
-0.000110479 0.00335533 1.02289e-05
-0.000294043 1.02289e-05 0.003371
0.00047494 -4.13048e-05 1.88309e-05
-4.13048e-05 -0.000167119 -3.01543e-06
1.88309e-05 -3.01543e-06 -0.000251366
0.00604466 -3.19893e-05 -3.01468e-06
-3.19893e-05 0.00337387 2.40485e-06
-3.01468e-06 2.40485e-06 0.00339362
0.00609526 -9.23522e-05 0.000290062
-9.23522e-05 0.00340558 -1.23095e-05
0.000290062 -1.23095e-05 0.0034237
0.00165975 7.79948e-05 8.66177e-07
7.79948e-05 5.83976e-05 4.84089e-07
8.66177e-07 4.84089e-07 -6.07645e-05
0.00189562 0.000105657 -2.89072e-06
0.000105657 5.7169e-05 -9.41825e-07
-2.89072e-06 -9.41825e-07 -2.59744e-05
0.00191343 0.000124534 1.5117e-06
0.000124534 4.04533e-05 -6.01658e-08
1.5117e-06 -6.01658e-08 -1.49768e-05
0.0010978 7.23723e-05 -1.22415e-05
7.23723e-05 -1.35104e-05 -1.33899e-06
-1.22415e-05 -1.33899e-06 -0.000148774
0.00171121 0.000129155 2.34985e-07
0.000129155 8.80385e-05 5.61048e-09
2.34985e-07 5.61048e-09 -4.09952e-05
0.00196305 0.000157276 2.32816e-07
0.000157276 0.000112149 -1.93498e-06
2.32816e-07 -1.93498e-06 1.78411e-05
0.000457817 4.53997e-05 -1.74429e-05
4.53997e-05 -0.000181113 -3.9064e-06
-1.74429e-05 -3.9064e-06 -0.000266631
0.00107159 0.000115527 3.52593e-07
0.000115527 -3.49424e-05 2.64629e-07
3.52593e-07 2.64629e-07 -0.000180381
0.00172913 0.000187687 9.92306e-07
0.000187687 0.000105968 -5.45233e-07
9.92306e-07 -5.45233e-07 -3.84949e-05
0.00618735 0.000216133 -0.000313204
0.000216133 0.00347942 -2.40326e-05
-0.000313204 -2.40326e-05 0.00348465
0.0004595 7.37823e-05 3.78123e-07
7.37823e-05 -0.000178455 1.60455e-07
3.78123e-07 1.60455e-07 -0.000268216
0.0010244 0.000152012 1.10209e-05
0.000152012 -6.25194e-05 2.98406e-06
1.10209e-05 2.98406e-06 -0.000218216
0.00635681 0.000264254 6.23204e-06
0.000264254 0.0035884 3.27816e-06
6.23204e-06 3.27816e-06 0.00358622
0.00047579 0.00010034 1.81528e-05
0.00010034 -0.000161461 8.20928e-06
1.81528e-05 8.20928e-06 -0.000256139
0.00646058 0.000276896 0.000298435
0.000276896 0.00365516 3.51297e-05
0.000298435 3.51297e-05 0.00364837
0.00101732 2.05812e-05 -1.25979e-05
2.05812e-05 -4.49294e-05 -6.03005e-07
-1.25979e-05 -6.03005e-07 -0.00017271
0.00176173 3.441e-05 3.66552e-06
3.441e-05 0.000134446 1.04045e-07
3.66552e-06 1.04045e-07 2.7558e-05
0.00183307 4.11702e-05 -3.26021e-06
4.11702e-05 3.15209e-05 -1.28277e-07
-3.26021e-06 -1.28277e-07 -4.70606e-05
0.000526373 3.14603e-05 -1.99371e-05
3.14603e-05 -0.000145746 -5.9476e-07
-1.99371e-05 -5.9476e-07 -0.000216384
0.000930945 -2.61612e-06 -8.89134e-07
-2.61612e-06 -0.000105554 -1.06245e-08
-8.89134e-07 -1.06245e-08 -0.000230453
0.00180081 7.71806e-06 4.55872e-06
7.71806e-06 0.000164051 2.38974e-07
4.55872e-06 2.38974e-07 5.73981e-05
0.000942521 -1.95423e-05 1.13937e-05
-1.95423e-05 -0.000109694 -5.28703e-07
1.13937e-05 -5.28703e-07 -0.000237043
0.000486854 -5.41398e-06 3.70923e-07
-5.41398e-06 -0.000162085 3.72203e-07
3.70923e-07 3.72203e-07 -0.000240612
0.00591799 2.31886e-05 -0.000297056
2.31886e-05 0.00329971 7.25775e-07
-0.000297056 7.25775e-07 0.00332129
0.000444246 1.53013e-05 1.83921e-05
1.53013e-05 -0.000191312 -1.23817e-06
1.83921e-05 -1.23817e-06 -0.000270317
0.00596307 -0.000108616 -7.74453e-06
-0.000108616 0.00333486 1.83155e-06
-7.74453e-06 1.83155e-06 0.00335004
0.00599122 -1.34133e-05 0.000278976
-1.34133e-05 0.00334123 -6.1523e-06
0.000278976 -6.1523e-06 0.00336094
0.00105882 4.09178e-05 -1.24158e-05
4.09178e-05 -2.72265e-05 -1.18981e-06
-1.24158e-05 -1.18981e-06 -0.000156901
0.00170452 7.55002e-05 -2.36731e-07
7.55002e-05 8.71678e-05 -2.61289e-07
-2.36731e-07 -2.61289e-07 -2.82076e-05
0.0019904 0.000106128 -3.55816e-06
0.000106128 0.000112734 -2.39238e-06
-3.55816e-06 -2.39238e-06 3.55922e-05
0.00266376 5.9674e-05 -0.000138303
5.9674e-05 0.0011772 -4.68706e-06
-0.000138303 -4.68706e-06 0.00112628
0.00105137 7.40227e-05 3.32544e-07
7.40227e-05 -4.25956e-05 1.54339e-07
3.32544e-07 1.54339e-07 -0.000178624
0.00171285 0.000127927 8.36934e-07
0.000127927 9.20687e-05 -8.96756e-07
8.36934e-07 -8.96756e-07 -3.7152e-05
0.00605956 0.000159778 -0.000312689
0.000159778 0.00339581 -1.73251e-05
-0.000312689 -1.73251e-05 0.00340858
0.000491449 6.43212e-05 8.78848e-07
6.43212e-05 -0.00015832 4.12085e-07
8.78848e-07 4.12085e-07 -0.000245802
0.00103888 0.00011685 1.25828e-05
0.00011685 -5.53637e-05 2.39704e-06
1.25828e-05 2.39704e-06 -0.000201728
0.00626455 0.000230412 1.54141e-06
0.000230412 0.00352816 1.62009e-06
1.54141e-06 1.62009e-06 0.0035322
0.0005032 8.2045e-05 1.83557e-05
8.2045e-05 -0.000150563 6.44562e-06
1.83557e-05 6.44562e-06 -0.000241994
0.0063754 0.000296876 0.000309084
0.000296876 0.00361202 3.56868e-05
0.000309084 3.56868e-05 0.00360328
0.000587818 1.11218e-05 -1.60647e-05
1.11218e-05 -9.71139e-05 -1.8448e-06
-1.60647e-05 -1.8448e-06 -0.000176703
0.000969935 1.97048e-05 3.89315e-07
1.97048e-05 -7.79836e-05 2.06306e-07
3.89315e-07 2.06306e-07 -0.000204542
0.00172877 2.9881e-05 3.66659e-06
2.9881e-05 0.000112961 2.05076e-09
3.66659e-06 2.05076e-09 7.8586e-06
0.00576876 -9.92132e-05 -0.00028016
-9.92132e-05 0.00322591 3.00259e-06
-0.00028016 3.00259e-06 0.00323679
0.000481648 8.95755e-06 -5.76554e-07
8.95755e-06 -0.000168626 -1.08655e-08
-5.76554e-07 -1.08655e-08 -0.00024187
0.000930821 2.18141e-06 1.12957e-05
2.18141e-06 -0.000107312 6.72534e-09
1.12957e-05 6.72534e-09 -0.000232335
0.000442168 2.09324e-05 1.86192e-05
2.09324e-05 -0.00019062 1.73183e-07
1.86192e-05 1.73183e-07 -0.000268152
0.00586281 -1.26104e-05 2.16931e-06
-1.26104e-05 0.00327149 -1.41817e-06
2.16931e-06 -1.41817e-06 0.00328883
0.00595512 -2.87825e-05 0.000285803
-2.87825e-05 0.00331879 -4.05732e-06
0.000285803 -4.05732e-06 0.00333965
0.00274082 1.37988e-05 -0.000133239
1.37988e-05 0.00122307 -2.71775e-06
-0.000133239 -2.71775e-06 0.00117482
0.00103969 4.41592e-05 1.03596e-07
4.41592e-05 -4.08953e-05 -2.8651e-08
1.03596e-07 -2.8651e-08 -0.000171146
0.00174655 7.31075e-05 8.93259e-07
7.31075e-05 0.000114573 -9.23095e-07
8.93259e-07 -9.23095e-07 2.99664e-06
0.00558838 -4.08766e-05 -0.000116718
-4.08766e-05 0.00311782 4.92052e-07
-0.000116718 4.92052e-07 0.00310571
0.000503117 5.6529e-05 9.00754e-08
5.6529e-05 -0.000150683 2.46171e-07
9.00754e-08 2.46171e-07 -0.000233516
0.00102153 7.63039e-05 1.21585e-05
7.63039e-05 -6.21306e-05 1.6377e-06
1.21585e-05 1.6377e-06 -0.000198868
0.00613047 0.000134374 -1.06272e-05
0.000134374 0.0034342 -1.65865e-06
-1.06272e-05 -1.65865e-06 0.00344833
0.000520844 8.74482e-05 1.96719e-05
8.74482e-05 -0.000139679 5.47353e-06
1.96719e-05 5.47353e-06 -0.000228118
0.00631316 0.000254516 0.000317925
0.000254516 0.00356481 3.10139e-05
0.000317925 3.10139e-05 0.00356581
0.00175251 -5.28117e-05 -0.000226016
-5.28117e-05 0.000722027 1.19301e-06
-0.000226016 1.19301e-06 0.00071908
0.0016182 2.97357e-05 -5.67654e-05
2.97357e-05 0.000530024 1.46303e-07
-5.67654e-05 1.46303e-07 0.00047111
0.00091685 2.14664e-05 1.24482e-05
2.14664e-05 -0.000114092 8.10432e-07
1.24482e-05 8.10432e-07 -0.000239507
0.0058433 -4.58472e-05 7.11315e-06
-4.58472e-05 0.00326531 2.27059e-06
7.11315e-06 2.27059e-06 0.00328135
0.000497156 -1.22416e-05 1.92163e-05
-1.22416e-05 -0.000152737 7.20255e-07
1.92163e-05 7.20255e-07 -0.000229817
0.00590235 -7.70548e-05 0.00029895
-7.70548e-05 0.00329864 -4.01088e-06
0.00029895 -4.01088e-06 0.00331594
0.00131846 1.96516e-05 -5.54388e-05
1.96516e-05 0.000481291 -8.68005e-07
-5.54388e-05 -8.68005e-07 0.00044454
0.00160747 1.7e-05 -5.73832e-05
1.7e-05 0.000526599 -1.18596e-06
-5.73832e-05 -1.18596e-06 0.00046384
0.0010101 4.59736e-05 1.22764e-05
4.59736e-05 -6.07676e-05 1.16013e-06
1.22764e-05 1.16013e-06 -0.000191622
0.00368812 6.32565e-05 0.000110596
6.32565e-05 0.00192975 3.11646e-06
0.000110596 3.11646e-06 0.00192117
0.000515355 6.70505e-05 1.99481e-05
6.70505e-05 -0.000143255 4.17289e-06
1.99481e-05 4.17289e-06 -0.000226057
0.00620715 0.000122338 0.000303491
0.000122338 0.00347396 1.85749e-05
0.000303491 1.85749e-05 0.00349168
0.00579063 -2.04724e-05 -8.93407e-06
-2.04724e-05 0.00323615 -2.8659e-06
-8.93407e-06 -2.8659e-06 0.00325098
0.00049332 4.87639e-05 2.07564e-05
4.87639e-05 -0.000165408 2.28395e-06
2.07564e-05 2.28395e-06 -0.000235473
0.00575266 4.08601e-05 0.000286508
4.08601e-05 0.00320574 2.18924e-07
0.000286508 2.18924e-07 0.00322521
0.00358418 3.0378e-05 0.000122968
3.0378e-05 0.0018707 4.58493e-06
0.000122968 4.58493e-06 0.00186361
0.000526341 7.81614e-06 1.91702e-05
7.81614e-06 -0.000136339 2.56272e-06
1.91702e-05 2.56272e-06 -0.000214362
0.00601883 -6.3444e-06 0.000291751
-6.3444e-06 0.00336007 8.13476e-06
0.000291751 8.13476e-06 0.00337893
0.00583431 -0.000120919 0.000283522
-0.000120919 0.00326763 -3.98112e-06
0.000283522 -3.98112e-06 0.00327788
0.00584092 3.86019e-06 0.000285225
3.86019e-06 0.00325084 4.58437e-06
0.000285225 4.58437e-06 0.00327276
