# vtk DataFile Version 2.0
Wound Healing Simulation
ASCII
DATASET UNSTRUCTURED_GRID
POINTS 3012 float
69.9759 18.75 4
67.2507 60.3285 4
69.976 18.75 2
73.0099 25.446 4
71.1327 20.9142 4
68.6801 16.6661 4
67.8212 19.9262 3.97284
67.2507 60.3286 2
71.1327 54.0858 4
68.6801 58.3339 4
65.6939 62.2254 4
65.3079 58.9988 3.97144
74.6784 42.3946 4
73.7221 47.2057 4
69.9759 18.75 0
73.0099 25.446 2
68.6801 16.6661 2
71.1327 20.9142 2
67.8217 19.9299 2
74.6792 32.6053 4
73.7222 27.7943 4
72.1454 23.1494 4
70.6112 26.2217 3.9729
68.8816 21.9578 3.97305
67.2507 14.6715 4
66.6324 17.9734 3.97158
65.7444 21.0438 3.9619
67.2507 60.3285 0
71.1327 54.0858 2
68.6801 58.3339 2
65.694 62.2255 2
65.3094 58.9942 2
72.1454 51.8506 4
69.9759 56.25 4
68.8319 53.1143 3.97288
64.0165 64.0165 4
66.6061 57.1328 3.97268
63.8805 60.7618 3.968
63.475 57.7574 3.96106
60.3285 67.2507 4
74.6792 42.3947 2
73.7222 47.2057 2
74.9194 39.9526 4
74.2788 44.8158 4
72.1658 42.0859 3.97449
73.0099 49.554 4
71.2462 46.5985 3.9729
73.0099 25.446 0
71.1327 20.9142 0
68.6801 16.6661 0
67.8212 19.9262 0.0271579
74.6792 32.6053 2
73.7222 27.7943 2
67.2508 14.6715 2
72.1455 23.1494 2
70.6104 26.2226 2
66.6334 17.9776 2
68.8817 21.9605 2
65.7433 21.045 2
74.9197 35.0474 4
74.2794 30.1841 4
72.1825 32.9451 3.97474
71.2756 28.4328 3.97301
69.812 24.0597 3.97302
68.3193 26.9617 3.96419
66.7145 22.9492 3.9627
65.694 12.7746 4
65.3191 16.1065 3.97035
64.6612 19.2155 3.96075
63.7216 22.1002 3.96443
71.1327 54.0858 0
65.6939 62.2254 0
68.6801 58.3339 0
65.3079 58.9988 0.0285592
72.1455 51.8506 2
69.9759 56.25 2
68.8322 53.1112 2
64.0165 64.0165 2
66.6072 57.1281 2
63.8813 60.7568 2
63.4661 57.7555 2
62.2254 65.694 4
58.8905 65.4117 3.97954
69.7649 50.9902 3.97276
67.7791 55.1679 3.97303
66.5916 52.1943 3.96284
62.3314 62.4237 3.97366
64.6129 56.0159 3.9618
62.1898 59.3866 3.9609
61.6946 56.622 3.96044
58.3339 68.6801 4
60.3285 67.2508 2
73.7221 47.2057 0
74.6784 42.3946 0
74.9197 39.9526 2
74.2794 44.8159 2
72.1647 42.0854 2
73.0099 49.554 2
71.2455 46.5973 2
75 37.5 4
72.4031 39.8028 3.97549
71.7798 44.3532 3.97398
69.7931 41.7884 3.9661
70.5717 48.8145 3.97275
68.8852 46.0088 3.96557
74.6792 32.6053 0
73.7222 27.7943 0
67.2507 14.6715 0
72.1454 23.1494 0
70.6112 26.2217 0.027101
68.8816 21.9578 0.0269454
66.6324 17.9734 0.028418
65.7444 21.0438 0.0381022
74.9197 35.0474 2
74.2794 30.1841 2
72.1814 32.9448 2
71.2746 28.4333 2
65.694 12.7745 2
65.3199 16.111 2
69.8116 24.0614 2
68.3231 26.9622 2
64.6553 19.2171 2
66.716 22.9503 2
63.7208 22.1009 2
72.411 35.2256 3.9756
71.8015 30.6781 3.97415
69.8322 33.2735 3.96577
68.948 29.0462 3.96469
67.5713 24.9253 3.9634
66.0189 27.6829 3.97137
64.0165 10.9835 4
64.583 23.891 3.96683
63.8839 14.3323 3.96639
63.4792 17.4671 3.9588
62.7465 20.3901 3.96207
61.805 23.0568 3.97048
60.6801 11.1031 3.97454
57.6041 11.4838 3.96475
72.1454 51.8506 0
69.9759 56.25 0
68.8319 53.1143 0.0271206
64.0165 64.0165 0
63.8805 60.7618 0.0320013
66.6061 57.1328 0.0273243
63.475 57.7574 0.0389384
62.2255 65.694 2
58.893 65.4065 2
69.7647 50.9879 2
67.7798 55.1638 2
66.5926 52.193 2
62.3332 62.4172 2
64.6074 56.014 2
62.1855 59.3865 2
61.6916 56.6222 2
60.6649 63.9726 3.97685
57.0211 66.7321 3.98147
57.5496 63.6649 3.97187
67.454 50.1638 3.96363
65.647 54.1578 3.96216
64.3386 51.3244 3.96726
60.7655 60.9128 3.96633
62.6647 55.0074 3.96336
60.5588 58.101 3.95713
60.1122 55.6876 3.96562
56.25 69.9759 4
58.3339 68.6801 2
60.3285 67.2507 0
58.9176 9.66001 3.97679
62.2254 9.30607 4
73.0099 49.554 0
74.2788 44.8158 0
71.2462 46.5985 0.0271003
72.1658 42.0859 0.0255132
74.9194 39.9526 0
75 37.5 2
72.4027 39.8026 2
71.7793 44.3522 2
69.7946 41.7882 2
70.5712 48.8129 2
68.8897 46.0083 2
72.4866 37.513 3.97526
70.034 39.6579 3.96632
69.4155 43.9044 3.96585
67.4483 41.4831 3.97564
68.2237 48.0975 3.96473
66.5282 45.4039 3.97459
74.9197 35.0474 0
74.2794 30.1841 0
72.1825 32.9451 0.0252636
71.2756 28.4328 0.0269914
65.694 12.7746 0
65.3191 16.1065 0.0296469
69.812 24.0597 0.026978
68.3193 26.9617 0.0358067
66.7145 22.9492 0.0372994
64.6612 19.2155 0.0392463
63.7216 22.1002 0.0355683
72.4106 35.2251 2
71.8008 30.6783 2
69.8325 33.2738 2
68.9523 29.0465 2
64.0165 10.9835 2
63.8849 14.3378 2
63.4745 17.4673 2
67.5741 24.9261 2
66.0167 27.6841 2
62.7479 20.39 2
64.5814 23.892 2
61.8025 23.0572 2
60.6822 11.1083 2
57.6031 11.4759 2
70.0513 35.3957 3.96629
69.455 31.156 3.96491
67.5191 33.6099 3.97492
66.6129 29.661 3.97378
65.3444 25.7552 3.96898
63.8145 28.3459 3.97575
62.3365 12.6601 3.97222
62.5514 24.7442 3.97333
62.1831 15.807 3.9605
61.6642 18.7586 3.95938
60.9442 21.462 3.96664
60.028 23.8866 3.97374
59.2373 12.8179 3.96284
55.8669 10.2678 3.97359
56.3904 13.1863 3.96485
69.7649 50.9902 0.0272421
62.2254 65.694 0
58.8905 65.4117 0.0204601
67.7791 55.1679 0.0269695
66.5916 52.1943 0.0371591
62.3314 62.4237 0.0263397
62.1898 59.3866 0.0391033
64.6129 56.0159 0.0381999
61.6946 56.622 0.0395617
60.6676 63.9688 2
57.0243 66.7278 2
57.5507 63.6698 2
67.4559 50.1627 2
65.6452 54.1562 2
64.3365 51.3236 2
60.7617 60.9135 2
62.6648 55.0078 2
60.5532 58.1012 2
60.1116 55.688 2
55.067 67.93 3.98472
59.2117 62.3296 3.96616
55.7947 64.8783 3.97198
56.3157 62.0354 3.97856
65.1229 49.352 3.9693
63.5218 53.2297 3.96514
62.0891 50.5441 3.97187
59.281 59.5052 3.9573
60.8116 54.2057 3.96858
59.0749 56.9058 3.9603
58.9514 55.0574 3.96917
48.0989 68.5705 3.9809
50.9449 69.9306 3.98762
54.0858 71.1327 4
56.25 69.976 2
58.3339 68.6801 0
57.0542 8.3397 3.97723
60.3285 7.74928 4
58.92 9.66577 2
62.2255 9.30602 2
70.5717 48.8145 0.0272548
71.7798 44.3532 0.0260173
68.8852 46.0088 0.0344281
69.7931 41.7884 0.0338981
72.4031 39.8028 0.0245138
75 37.5 0
72.4856 37.5127 2
70.0341 39.6579 2
69.4171 43.9039 2
67.4449 41.4824 2
68.2256 48.0965 2
66.5249 45.4026 2
70.1223 37.5237 3.96644
67.696 39.5071 3.97542
67.0596 43.4451 3.97531
65.2335 41.182 3.97673
65.8658 47.3707 3.97174
64.295 44.7797 3.97572
72.411 35.2256 0.0244003
71.8015 30.6781 0.0258505
69.8322 33.2735 0.0342299
68.948 29.0462 0.0353142
64.0165 10.9835 0
63.8839 14.3323 0.0336137
63.4792 17.4671 0.0412021
67.5713 24.9253 0.0366038
66.0189 27.6829 0.0286267
64.583 23.891 0.0331739
62.7465 20.3901 0.0379275
61.805 23.0568 0.0295206
60.6801 11.1031 0.0254557
57.6041 11.4838 0.0352509
70.0509 35.3958 2
69.4573 31.1562 2
67.5167 33.6104 2
66.6112 29.6621 2
62.3383 12.666 2
62.1799 15.8067 2
61.6667 18.7581 2
65.3424 25.7564 2
63.8123 28.3466 2
60.9423 21.462 2
62.5494 24.7447 2
60.0274 23.8867 2
59.2357 12.8159 2
56.3894 13.1821 2
55.8671 10.2753 2
67.7393 35.5583 3.97505
67.1235 31.6504 3.9747
65.3945 33.9608 3.97672
64.3295 30.2664 3.97553
63.2198 26.5136 3.97522
61.7931 28.9003 3.97536
60.7652 14.2529 3.96322
60.6177 25.4931 3.97504
60.5164 17.1954 3.95667
59.9517 19.9462 3.96221
59.2729 22.4267 3.96958
58.4901 24.5207 3.97419
54.0302 9.16607 3.96934
57.8842 14.3946 3.95844
54.7761 12.077 3.96959
55.2769 14.7454 3.95664
67.454 50.1638 0.0363674
57.0211 66.7321 0.0185317
60.6649 63.9726 0.0231533
57.5496 63.6649 0.0281332
65.647 54.1578 0.037842
64.3386 51.3244 0.0327412
60.7655 60.9128 0.0336727
60.5588 58.101 0.0428742
62.6647 55.0074 0.036643
60.1122 55.6876 0.0343766
55.0707 67.9267 2
59.2102 62.3332 2
55.7966 64.878 2
56.3139 62.0364 2
65.1203 49.3509 2
63.5205 53.2294 2
62.0877 50.5436 2
59.2925 59.5125 2
60.8119 54.206 2
59.0838 56.9086 2
58.9595 55.0593 2
53.0388 68.9978 3.98532
53.9605 65.9999 3.97262
57.8556 60.82 3.96242
54.6625 63.1447 3.96704
55.1847 60.5525 3.97558
62.8282 48.5607 3.97425
61.429 52.4674 3.97026
59.7796 49.8642 3.97311
57.8702 58.171 3.95753
58.9806 53.8104 3.9714
57.7888 55.6656 3.96278
50.1047 67.8476 3.97844
47.4578 66.5648 3.97576
46.0531 69.1513 3.9833
48.1008 68.57 2
48.799 70.722 3.98883
50.9479 69.9288 2
51.8506 72.1454 4
54.0858 71.1327 2
56.25 69.9759 0
55.0989 7.14385 3.98231
58.3339 6.31992 4
57.0579 8.34601 2
60.3286 7.74926 2
58.9176 9.66001 0.0232092
62.2254 9.30607 0
68.2237 48.0975 0.0352698
69.4155 43.9044 0.0341502
66.5282 45.4039 0.0254073
67.4483 41.4831 0.0243616
70.034 39.6579 0.0336819
72.4866 37.513 0.0247394
70.1218 37.5237 2
67.6923 39.5067 2
67.0573 43.4441 2
65.2313 41.1813 2
65.8632 47.3695 2
64.2926 44.7789 2
67.799 37.525 3.97522
65.4762 39.3581 3.97682
64.8393 42.9762 3.97653
63.3059 40.8891 3.97671
63.5952 46.6279 3.97534
62.3069 44.1274 3.97579
70.0513 35.3957 0.0337136
69.455 31.156 0.0350872
67.5191 33.6099 0.0250758
66.6129 29.661 0.0262188
62.3365 12.6601 0.0277808
62.1831 15.807 0.0395023
61.6642 18.7586 0.0406238
65.3444 25.7552 0.031017
63.8145 28.3459 0.0242511
62.5514 24.7442 0.026668
60.9442 21.462 0.0333596
60.028 23.8866 0.0262643
59.2373 12.8179 0.0371594
56.3904 13.1863 0.0351493
55.8669 10.2678 0.0264102
67.7361 35.5586 2
67.1221 31.6513 2
65.3918 33.9615 2
64.3275 30.2673 2
60.7621 14.2526 2
60.5076 17.1973 2
59.9471 19.9463 2
63.2183 26.5142 2
61.7925 28.9004 2
59.2763 22.4258 2
60.6168 25.4934 2
58.4879 24.5228 2
57.8861 14.3933 2
55.2719 14.7364 2
54.0335 9.16211 2
54.7697 12.0841 2
65.5763 35.6856 3.9767
64.8596 32.2059 3.97618
63.883 34.2904 3.97652
62.1116 30.7325 3.97568
61.2001 27.2138 3.97519
60.2868 29.2865 3.97577
59.2526 15.7333 3.9561
58.7958 25.9968 3.97552
58.9167 18.4786 3.95905
58.3691 21.03 3.96395
57.8125 23.2998 3.97046
57.4344 24.8909 3.97569
52.1075 8.16535 3.97127
53.0407 11.0842 3.96593
56.6201 15.839 3.95603
53.7931 13.7667 3.97788
54.2982 16.1228 3.95832
55.067 67.93 0.0152831
65.1229 49.352 0.0306955
55.7947 64.8783 0.0280229
59.2117 62.3296 0.0338407
56.3157 62.0354 0.0214388
63.5218 53.2297 0.0348605
62.0891 50.5441 0.0281297
59.281 59.5052 0.0426967
59.0749 56.9058 0.0397022
60.8116 54.2057 0.0314186
58.9514 55.0574 0.0308265
53.0423 68.9958 2
53.9624 65.9982 2
57.8571 60.8227 2
54.6615 63.146 2
55.1829 60.5531 2
62.8266 48.56 2
61.4286 52.4673 2
59.7806 49.8639 2
57.8752 58.1742 2
58.9859 53.8113 2
57.7862 55.6644 2
52.0646 66.987 3.97575
52.9384 64.1785 3.97335
56.5792 59.4176 3.95701
53.6428 61.5352 3.97093
54.2015 59.2381 3.96315
60.4587 47.731 3.97436
59.279 51.9553 3.9719
57.421 49.4155 3.97467
56.5609 56.8634 3.96142
56.6739 53.9416 3.96683
50.1066 67.8461 2
49.3291 65.8957 3.9754
47.4597 66.5608 2
46.8834 64.6989 3.97694
45.5554 67.0834 3.97871
43.9711 69.5838 3.98444
46.0555 69.1514 2
46.6059 71.3664 3.99023
48.0989 68.5705 0.0190999
48.8018 70.721 2
49.554 73.0099 4
50.9449 69.9306 0.0123757
51.8506 72.1455 2
54.0858 71.1327 0
53.0618 6.07423 3.98675
55.1032 7.14607 2
56.25 5.02411 4
58.3339 6.3199 2
57.0542 8.3397 0.0227673
60.3285 7.74928 0
65.8658 47.3707 0.0282581
67.0596 43.4451 0.0246897
64.295 44.7797 0.0242763
65.2335 41.182 0.0232718
67.696 39.5071 0.0245807
70.1223 37.5237 0.0335624
67.7959 37.525 2
65.4738 39.3579 2
64.8366 42.9752 2
63.3058 40.8884 2
63.5933 46.627 2
62.3062 44.1271 2
65.5865 37.5055 3.97674
63.4576 39.25 3.97661
62.8526 42.4909 3.97631
61.88 40.6504 3.9766
61.4444 45.7973 3.97547
60.8366 43.5829 3.97614
67.7393 35.5583 0.0249496
67.1235 31.6504 0.0253028
65.3945 33.9608 0.0232836
64.3295 30.2664 0.0244703
60.7652 14.2529 0.0367784
60.5164 17.1954 0.0433304
59.9517 19.9462 0.0377926
63.2198 26.5136 0.0247784
61.7931 28.9003 0.0246364
60.6177 25.4931 0.0249576
59.2729 22.4267 0.0304163
58.4901 24.5207 0.0258094
57.8842 14.3946 0.0415589
55.2769 14.7454 0.0433614
54.0302 9.16607 0.0306626
54.7761 12.077 0.0304078
65.5736 35.686 2
64.8573 32.2068 2
63.8829 34.2908 2
62.1112 30.7328 2
59.2639 15.729 2
58.9159 18.4768 2
58.3682 21.0302 2
61.199 27.214 2
60.2877 29.2867 2
57.8087 23.3026 2
58.7937 25.9975 2
57.434 24.8936 2
56.5899 15.8419 2
54.2951 16.1093 2
53.7802 13.7629 2
52.11 8.16808 2
53.0435 11.0793 2
63.6687 35.6579 3.97645
62.4394 33.1143 3.97617
59.9944 30.7464 3.97564
58.968 28.0934 3.97542
57.8031 17.095 3.95677
57.1266 25.9701 3.97555
57.4 19.6477 3.95884
56.8995 22.061 3.96418
56.6305 24.1903 3.97253
50.1083 7.29485 3.98017
51.2199 10.1666 3.97008
52.1397 12.8967 3.96619
55.4113 17.1034 3.95606
52.927 15.3657 3.95977
53.6412 17.122 3.95751
53.0388 68.9978 0.0146832
53.9605 65.9999 0.0273756
62.8282 48.5607 0.0257545
54.6625 63.1447 0.0329581
57.8556 60.82 0.0375844
55.1847 60.5525 0.0244154
61.429 52.4674 0.0297401
59.7796 49.8642 0.0268936
57.8702 58.171 0.0424703
57.7888 55.6656 0.037218
58.9806 53.8104 0.0285978
52.0667 66.9861 2
52.9383 64.1792 2
56.5777 59.4182 2
53.6413 61.5346 2
54.1969 59.2398 2
60.4585 47.7303 2
59.2815 51.9554 2
57.4225 49.4151 2
56.5577 56.8671 2
56.6719 53.9405 2
51.1578 65.1043 3.97352
52.0159 62.472 3.96894
55.3537 58.1501 3.96071
52.7628 60.0268 3.96473
53.5468 58.3709 3.96173
57.5708 46.642 3.97533
57.0299 51.5932 3.97168
55.5543 49.3172 3.97376
55.1903 55.6402 3.96166
54.848 53.179 3.96204
50.1047 67.8476 0.0215642
49.33 65.9003 2
48.6046 64.0891 3.97839
47.4578 66.5648 0.0242439
45.5566 67.0858 2
46.8837 64.7011 2
46.3668 63.0046 3.98205
45.1262 65.1733 3.97897
43.6298 67.4569 3.98054
41.8589 69.8707 3.98426
43.9726 69.5838 2
44.3736 71.8611 3.99061
46.0531 69.1513 0.0166957
46.6082 71.3661 2
47.2057 73.7222 4
48.799 70.722 0.0111722
49.554 73.0099 2
51.8506 72.1454 0
50.953 5.13429 3.98913
53.0649 6.07604 2
54.0858 3.86728 4
55.0989 7.14385 0.0176908
56.25 5.02406 2
58.3339 6.31992 0
63.5952 46.6279 0.0246625
64.8393 42.9762 0.0234725
62.3069 44.1274 0.0242142
63.3059 40.8891 0.0232891
65.4762 39.3581 0.0231793
67.799 37.525 0.0247768
65.584 37.5056 2
63.4576 39.2499 2
62.853 42.4901 2
61.8807 40.6499 2
61.4437 45.7968 2
60.8369 43.5828 2
63.5222 37.461 3.97652
61.5839 39.3282 3.97686
60.5814 41.8776 3.97674
59.5694 44.626 3.97557
65.5763 35.6856 0.0232974
64.8596 32.2059 0.0238208
63.883 34.2904 0.0234845
62.1116 30.7325 0.0243242
59.2526 15.7333 0.0438992
58.9167 18.4786 0.0409452
58.3691 21.03 0.0360456
61.2001 27.2138 0.0248109
60.2868 29.2865 0.0242275
58.7958 25.9968 0.0244833
57.8125 23.2998 0.0295386
57.4344 24.8909 0.0243053
56.6201 15.839 0.043969
54.2982 16.1228 0.0416787
53.7931 13.7667 0.0221208
52.1075 8.16535 0.0287277
53.0407 11.0842 0.0340704
63.6689 35.6581 2
62.4406 33.1151 2
59.9954 30.7467 2
57.8093 17.0901 2
57.4099 19.6438 2
56.8989 22.0636 2
58.9686 28.0927 2
56.6383 24.192 2
57.1271 25.9687 2
50.1117 7.29216 2
55.4078 17.106 2
53.645 17.1136 2
52.9164 15.3705 2
52.1486 12.8939 2
51.2215 10.1642 2
61.6268 35.3965 3.97657
59.6061 32.8464 3.97591
57.8772 30.2547 3.97534
56.5865 27.623 3.97583
56.4335 18.3058 3.95804
55.6425 25.3801 3.97482
55.9721 20.7316 3.95796
55.5605 23.1279 3.96504
48.0549 6.53478 3.98335
49.317 9.35723 3.97463
50.4091 12.0689 3.96813
51.3204 14.6146 3.96449
54.2443 18.0843 3.96032
52.2642 17.1952 3.95389
52.0646 66.987 0.0242515
52.9384 64.1785 0.0266467
60.4587 47.731 0.025641
53.6428 61.5352 0.0290672
56.5792 59.4176 0.0429927
54.2015 59.2381 0.0368543
59.279 51.9553 0.0281025
57.421 49.4155 0.0253283
56.5609 56.8634 0.0385753
56.6739 53.9416 0.0331712
51.1577 65.1014 2
52.0155 62.4753 2
55.3506 58.1502 2
52.7614 60.0286 2
53.5438 58.3735 2
57.5709 46.6411 2
57.0285 51.5923 2
55.5534 49.3163 2
55.1895 55.6405 2
54.8464 53.1787 2
50.3261 63.3465 3.97409
51.1862 60.8433 3.97306
54.0526 57.148 3.96562
52.1716 58.5106 3.96495
55.7627 43.9825 3.97577
54.6698 47.6311 3.97532
54.3958 51.1468 3.96531
53.6414 54.3665 3.96434
49.3291 65.8957 0.0245985
48.6033 64.0924 2
47.9375 62.4361 3.98664
45.5554 67.0834 0.0212898
46.8834 64.6989 0.0230642
43.6305 67.4569 2
46.3669 63.0094 2
45.128 65.169 2
45.9621 61.5323 3.9931
44.7571 63.4081 3.97594
43.355 65.4876 3.97797
41.6627 67.675 3.97965
39.7014 70.0172 3.98367
41.8601 69.8713 2
42.1086 72.2051 3.99097
43.9711 69.5838 0.0155606
44.3754 71.8605 2
44.8159 74.2794 4
46.6059 71.3664 0.00977097
47.2057 73.7222 2
49.554 73.0099 0
48.7844 4.32452 3.9898
50.9552 5.1342 2
51.8506 2.85458 4
53.0618 6.07423 0.0132544
54.0858 3.86728 2
56.25 5.02411 0
61.4444 45.7973 0.0245293
62.8526 42.4909 0.0236905
60.8366 43.5829 0.0238581
61.88 40.6504 0.023403
63.4576 39.25 0.0233949
65.5865 37.5055 0.0232551
63.5224 37.4611 2
61.5842 39.3279 2
60.5828 41.8773 2
59.5703 44.6259 2
61.4079 37.4482 3.97676
59.5173 39.7995 3.97681
58.1737 42.7928 3.97581
63.6687 35.6579 0.0235519
62.4394 33.1143 0.023828
59.9944 30.7464 0.0243621
57.8031 17.095 0.0432291
57.4 19.6477 0.0411596
56.8995 22.061 0.0358173
58.968 28.0934 0.0245819
57.1266 25.9701 0.0244496
56.6305 24.1903 0.0274713
55.4113 17.1034 0.043937
53.6412 17.122 0.0424891
52.927 15.3657 0.0402254
50.1083 7.29485 0.0198304
52.1397 12.8967 0.0338109
51.2199 10.1666 0.0299157
61.6278 35.3971 2
59.6062 32.8463 2
57.8789 30.2544 2
56.4326 18.3042 2
55.9966 20.7258 2
55.5683 23.1308 2
56.5885 27.6234 2
55.6485 25.383 2
48.0558 6.53581 2
49.3176 9.35692 2
54.2506 18.0882 2
52.253 17.1941 2
51.3224 14.613 2
50.4134 12.0723 2
59.1449 35.1716 3.97661
57.1327 32.4097 3.9753
55.7058 29.5738 3.9755
54.6738 26.9129 3.97485
55.0937 19.3688 3.96182
54.333 24.3471 3.97191
54.5519 21.8118 3.96124
45.9616 5.88834 3.98551
43.3735 7.48299 3.98127
47.352 8.63867 3.97682
48.5827 11.3443 3.97069
49.6671 13.8271 3.96817
50.5434 16.2713 3.95882
52.9394 18.8667 3.96395
51.181 18.2769 3.95729
51.1578 65.1043 0.026479
52.0159 62.472 0.0310596
57.5708 46.642 0.024668
52.7628 60.0268 0.0352722
55.3537 58.1501 0.0392892
53.5468 58.3709 0.0382715
57.0299 51.5932 0.0283184
55.5543 49.3172 0.0262432
55.1903 55.6402 0.0383399
54.848 53.179 0.0379575
50.3245 63.3456 2
51.1855 60.8455 2
54.0495 57.1491 2
52.1646 58.512 2
55.7649 43.984 2
54.6692 47.6307 2
54.3917 51.1454 2
53.6349 54.367 2
49.552 61.7033 3.97447
54.4571 41.5931 3.97371
50.463 59.2243 3.96482
51.9355 56.3432 3.96376
53.1327 45.2667 3.97348
52.4955 49.045 3.97025
52.1318 52.6337 3.95907
48.6046 64.0891 0.0216096
47.9377 62.4349 2
47.2906 60.9625 3.99196
43.6298 67.4569 0.0194614
45.1262 65.1733 0.021028
46.3668 63.0046 0.017954
41.6639 67.6746 2
43.358 65.488 2
45.9624 61.5381 2
44.7574 63.4065 2
45.7267 60.5779 3.99502
44.4656 61.7786 3.97887
43.1403 63.6884 3.97839
41.5459 65.6257 3.97419
39.6325 67.7529 3.97868
37.5259 70.0415 3.98341
39.7023 70.0173 2
39.8162 72.4021 3.99127
41.8589 69.8707 0.0157401
42.1099 72.2054 2
42.3947 74.6792 4
44.3736 71.8611 0.00938634
44.8159 74.2794 2
47.2057 73.7222 0
43.851 5.36394 3.9857
46.5707 3.64918 3.9907
48.7854 4.32538 2
49.554 1.99015 4
50.953 5.13429 0.0108698
51.8506 2.85453 2
54.0858 3.86728 0
59.5694 44.626 0.0244298
60.5814 41.8776 0.0232624
61.5839 39.3282 0.0231369
63.5222 37.461 0.0234828
61.4076 37.4484 2
59.5181 39.7978 2
58.1751 42.7931 2
59.0011 37.567 3.97727
57.0868 40.5709 3.97747
53.8571 39.622 3.9756
61.6268 35.3965 0.0234304
59.6061 32.8464 0.0240877
57.8772 30.2547 0.0246578
56.4335 18.3058 0.0419608
55.9721 20.7316 0.0420417
55.5605 23.1279 0.0349617
56.5865 27.623 0.0241747
55.6425 25.3801 0.0251811
54.2443 18.0843 0.0396795
52.2642 17.1952 0.0461064
51.3204 14.6146 0.0355111
48.0549 6.53478 0.0166515
49.317 9.35723 0.0253729
50.4091 12.0689 0.0318727
59.146 35.1727 2
45.9621 5.88812 2
43.3735 7.482 2
57.1323 32.4114 2
55.7058 29.5721 2
55.0818 19.3739 2
54.5883 21.8079 2
54.3334 24.3522 2
54.6761 26.9126 2
47.3519 8.63799 2
48.5856 11.3403 2
52.9348 18.8292 2
51.1764 18.2731 2
50.5501 16.2731 2
49.6679 13.835 2
56.443 34.8384 3.9771
54.736 31.719 3.97474
53.6027 28.6966 3.97649
53.0537 25.8308 3.97406
53.6801 20.3547 3.96349
53.0775 23.0037 3.96327
41.3994 7.08459 3.98279
45.3588 8.00383 3.98543
42.8653 9.43175 3.97076
46.6579 10.6851 3.97734
47.7064 13.1575 3.9689
48.8553 15.4923 3.97061
49.887 17.8593 3.96295
51.4553 19.5681 3.98608
50.3261 63.3465 0.0259137
51.1862 60.8433 0.0269414
55.7627 43.9825 0.0242265
54.6698 47.6311 0.024679
52.1716 58.5106 0.0350507
54.0526 57.148 0.0343774
54.3958 51.1468 0.0346946
53.6414 54.3665 0.0356618
49.5522 61.7003 2
54.4566 41.5909 2
50.4602 59.231 2
51.9418 56.3476 2
53.1276 45.2628 2
52.4926 49.0427 2
52.1348 52.6339 2
48.778 60.1526 3.9914
51.1482 42.4588 3.98354
49.6205 57.5145 3.96371
50.2192 54.2548 3.96031
50.7976 46.9474 3.97578
50.5382 50.6966 3.95276
46.8728 43.4437 3.96499
47.9375 62.4361 0.0133614
47.2926 60.9641 2
46.563 59.7472 3.99343
41.6627 67.675 0.0203485
43.355 65.4876 0.0220265
44.7571 63.4081 0.0240602
45.9621 61.5323 0.00690437
39.6339 67.7536 2
41.5479 65.6235 2
45.7262 60.5837 2
43.1395 63.6867 2
44.4644 61.7811 2
44.5841 60.2316 3.99287
42.936 62.0365 3.97619
41.596 63.7925 3.97851
39.6466 65.5917 3.97448
37.5636 67.7343 3.9772
31.6988 65.1095 3.97345
33.3935 67.4729 3.97777
35.3343 69.9527 3.98385
37.526 70.0435 2
37.5093 72.4562 3.99178
39.7014 70.0172 0.0163261
39.8172 72.4021 2
39.9526 74.9197 4
42.1086 72.2051 0.00902593
42.3947 74.6792 2
44.8159 74.2794 0
41.736 4.9714 3.98768
43.8515 5.36294 2
44.3264 3.11186 3.99186
46.5716 3.6494 2
47.2057 1.27793 4
48.7844 4.32452 0.0102021
49.554 1.99013 2
51.8506 2.85458 0
58.1737 42.7928 0.0241914
59.5173 39.7995 0.0231931
61.4079 37.4482 0.0232446
58.9994 37.568 2
57.0921 40.5706 2
53.8606 39.6267 2
55.8 37.8761 3.97734
48.171 41.1684 3.96794
51.721 39.2368 3.97973
39.4425 6.80887 3.98177
59.1449 35.1716 0.0233943
57.1327 32.4097 0.0246992
55.7058 29.5738 0.0245001
55.0937 19.3688 0.0381799
54.5519 21.8118 0.0387556
54.333 24.3471 0.0280933
54.6738 26.9129 0.0251537
52.9394 18.8667 0.0360532
51.181 18.2769 0.0427148
50.5434 16.2713 0.0411759
45.9616 5.88834 0.0144949
49.6671 13.8271 0.0318338
47.352 8.63867 0.023184
48.5827 11.3443 0.0293058
43.3735 7.48299 0.0187283
56.4467 34.8383 2
41.3998 7.08611 2
45.3583 8.00383 2
42.8646 9.43311 2
54.739 31.7214 2
53.6006 28.6982 2
53.6809 20.3611 2
53.0595 23.0069 2
53.0552 25.8294 2
46.6586 10.6811 2
47.7102 13.1582 2
51.4613 19.5656 2
49.8842 17.8558 2
48.8582 15.5218 2
53.6715 34.0543 3.97517
52.4036 30.7888 3.97504
51.7237 27.5623 3.97491
51.5597 24.4529 3.97422
52.063 21.3203 3.98276
41.0123 9.0572 3.97693
44.7266 10.0067 3.98397
42.453 10.9186 4.00455
45.9688 12.7571 3.96557
47.6235 14.6842 3.96631
48.0029 17.0898 3.96788
49.6816 19.9679 3.98588
49.552 61.7033 0.0255259
50.463 59.2243 0.035185
54.4571 41.5931 0.026286
53.1327 45.2667 0.0265191
52.4955 49.045 0.0297475
51.9355 56.3432 0.0362437
52.1318 52.6337 0.04093
48.7765 60.1477 2
51.1624 42.4794 2
49.6197 57.513 2
50.2218 54.2573 2
50.7995 46.9469 2
50.5432 50.6964 2
46.8819 43.4879 2
47.8838 58.6526 3.99051
48.8741 44.9875 3.98195
48.3507 55.7882 3.95415
48.6502 52.3975 3.98042
48.8673 48.7639 3.96885
44.5713 39.7177 3.82964
45.1031 42.3716 3.87471
45.4175 45.4066 3.98247
42.4432 40.958 3.61366
41.3545 41.6099 3.41141
47.2906 60.9625 0.00804351
46.5594 59.754 2
45.3996 58.7404 3.99566
39.6325 67.7529 0.0213172
41.5459 65.6257 0.0258079
43.1403 63.6884 0.0216068
44.4656 61.7786 0.0211332
45.7267 60.5779 0.0049759
41.5973 63.7875 2
37.5645 67.737 2
39.6493 65.5923 2
44.5855 60.2347 2
42.9342 62.0396 2
41.7417 62.4457 3.97746
42.449 59.9318 3.98798
39.892 63.5273 3.97732
37.6413 65.4882 3.97384
35.464 67.6446 3.97708
33.5764 65.3206 3.97424
31.9628 63.264 3.97888
29.8879 64.6967 3.97921
31.6978 65.1091 2
31.3792 67.1833 3.97829
33.3929 67.4746 2
33.1582 69.7461 3.98382
35.3336 69.9542 2
35.1963 72.3712 3.99196
37.5259 70.0415 0.016586
37.5098 72.4568 2
37.5 75 4
39.8162 72.4021 0.00873269
39.9526 74.9197 2
42.3947 74.6792 0
39.6242 4.71898 3.98838
41.7362 4.97174 2
42.0631 2.71884 3.99239
43.851 5.36394 0.0142998
44.3269 3.11141 2
44.8158 0.721173 4
46.5707 3.64918 0.00929923
47.2057 1.27779 2
49.554 1.99015 0
57.0868 40.5709 0.0225331
59.0011 37.567 0.022728
53.8571 39.622 0.0243987
48.1979 41.1832 2
55.7998 37.8732 2
51.7199 39.2198 2
52.5904 36.6176 3.97715
46.1013 40.2512 3.88679
49.0906 38.4902 3.97665
37.5165 6.67765 3.98478
39.4436 6.80891 2
39.2099 8.70307 3.98003
35.9425 8.49992 3.98177
56.443 34.8384 0.0229036
54.736 31.719 0.0252615
53.6027 28.6966 0.0235104
53.6801 20.3547 0.0365056
53.0775 23.0037 0.0367327
53.0537 25.8308 0.0259423
51.4553 19.5681 0.0139155
49.887 17.8593 0.0370535
48.8553 15.4923 0.0293906
45.3588 8.00383 0.0145684
47.7064 13.1575 0.031101
46.6579 10.6851 0.0226566
41.3994 7.08459 0.0172096
42.8653 9.43175 0.0292438
53.6662 34.0462 2
41.0127 9.06115 2
44.7246 10.0068 2
42.4554 10.9257 2
52.3968 30.7864 2
51.7347 27.5616 2
52.0641 21.3249 2
51.5435 24.4544 2
45.9735 12.7549 2
47.6182 14.6581 2
49.6979 19.9857 2
47.9992 17.0931 2
51.123 33.0139 3.97844
50.2316 29.5317 3.97634
50.0333 26.0538 3.97055
49.6227 22.5627 3.98191
40.5573 11.6165 3.98505
43.8251 11.9204 3.96568
45.746 15.5596 3.99033
47.39 19.5839 3.98077
44.9901 37.4876 3.83364
48.778 60.1526 0.00859626
49.6205 57.5145 0.0362896
51.1482 42.4588 0.016459
50.7976 46.9474 0.0242221
50.5382 50.6966 0.0472352
50.2192 54.2548 0.0396905
46.8728 43.4437 0.03501
47.879 58.6573 2
48.8892 45.0002 2
48.3483 55.7901 2
48.6518 52.4027 2
48.8726 48.7669 2
44.6925 39.744 2
45.1353 42.3929 2
45.4275 45.4276 2
42.5098 41.0166 2
41.3987 41.6354 2
46.6922 57.2556 3.9864
43.1128 39.3504 3.60492
41.7402 40.5842 3.39751
47.1036 47.0004 3.98478
46.846 54.0789 3.96059
46.9979 50.5338 3.97672
44.0392 47.0377 3.98759
43.7626 41.731 3.83162
43.9359 44.154 3.86236
41.6062 42.2684 3.66813
40.4495 41.8929 3.35357
46.563 59.7472 0.00657365
45.3967 58.74 2
43.807 57.6062 3.9839
37.5636 67.7343 0.0228036
39.6466 65.5917 0.0255244
41.596 63.7925 0.0214942
42.936 62.0365 0.0238069
44.5841 60.2316 0.00712616
35.464 67.6469 2
41.7395 62.4502 2
39.8916 63.5287 2
37.6431 65.492 2
42.4508 59.9339 2
40.6119 61.5868 3.9853
40.4147 58.1056 3.98794
37.8361 63.1837 3.97249
35.5727 65.4118 3.97582
33.576 65.3201 2
31.9654 63.2643 2
33.6305 63.3124 3.97876
30.3846 62.8252 3.98164
32.1347 61.967 3.98829
26.8933 61.4269 3.98568
28.0716 64.1237 3.98177
29.8877 64.6954 2
29.4097 66.7468 3.9779
31.6988 65.1095 0.0265502
31.3785 67.184 2
31.0163 69.4114 3.98341
33.3935 67.4729 0.0222294
33.1571 69.7474 2
32.8946 72.1455 3.99121
35.3343 69.9527 0.0161484
35.1959 72.372 2
35.0474 74.9194 4
37.5093 72.4562 0.00821738
37.5 75 2
39.9526 74.9197 0
35.6209 6.7297 3.98303
37.5242 4.61816 3.98908
39.6245 4.71859 2
39.7897 2.47534 3.99261
41.736 4.9714 0.0123248
42.0632 2.71888 2
42.3946 0.32156 4
44.3264 3.11186 0.00813591
44.8159 0.72056 2
47.2057 1.27793 0
48.171 41.1684 0.0320552
55.8 37.8761 0.0226601
51.721 39.2368 0.0202678
46.1286 40.256 2
49.0959 38.4675 2
52.6213 36.6288 2
49.906 35.5484 3.9772
46.7344 37.726 3.87718
44.5982 35.2279 3.83188
42.4932 33.976 3.61355
41.3939 33.3214 3.41093
37.4579 8.53795 3.98387
37.5176 6.67804 2
39.4425 6.80887 0.0182254
39.2115 8.70366 2
38.9717 10.139 3.98986
35.898 9.7832 3.98084
34.1526 8.83237 3.97952
35.9441 8.49918 2
53.6715 34.0543 0.0248312
52.4036 30.7888 0.0249557
51.7237 27.5623 0.025092
52.063 21.3203 0.0172408
51.5597 24.4529 0.0257783
49.6816 19.9679 0.0141167
48.0029 17.0898 0.0321152
47.6235 14.6842 0.0336859
44.7266 10.0067 0.0160311
45.9688 12.7571 0.0344309
41.0123 9.0572 0.023068
42.453 10.9186 -0.0045485
51.1367 33.0021 2
40.5637 11.6263 2
43.8276 11.9162 2
50.2444 29.5329 2
50.0351 26.0667 2
49.6057 22.5268 2
45.7302 15.488 2
47.4006 19.6203 2
48.7165 31.5906 3.98279
48.3713 27.8272 3.97443
48.8366 24.6819 3.9801
46.9804 22.3757 3.99327
38.2971 12.7617 3.9782
42.0707 14.375 3.98418
44.7144 18.679 3.98081
43.4896 37.4754 3.62085
45.0941 37.4776 2
47.8838 58.6526 0.00948653
48.3507 55.7882 0.0458464
48.8741 44.9875 0.01805
48.8673 48.7639 0.0311507
48.6502 52.3975 0.0195807
44.5713 39.7177 0.170362
45.1031 42.3716 0.125293
45.4175 45.4066 0.0175307
42.4432 40.958 0.386342
41.3545 41.6099 0.58859
46.6899 57.2606 2
43.1997 39.3733 2
41.7577 40.5963 2
47.1119 47.0019 2
46.8414 54.0824 2
46.9997 50.5457 2
44.0819 47.0448 2
43.8338 41.78 2
43.9934 44.1882 2
41.6579 42.3498 2
40.4947 41.9142 2
45.2136 55.8153 4.00115
42.0758 39.1247 3.40715
40.3311 40.4877 3.4884
45.388 48.6463 4.00232
45.0986 52.3237 3.99022
42.8362 48.0183 3.98993
42.6962 45.6631 3.8662
42.7649 43.4807 3.82142
40.6551 43.2053 3.62801
39.1408 42.1622 3.42918
45.3996 58.7404 0.00433613
43.8028 57.6191 2
42.0275 56.1674 3.9909
35.464 67.6446 0.0229217
37.6413 65.4882 0.0261607
39.892 63.5273 0.022684
41.7417 62.4457 0.0225368
42.449 59.9318 0.0120211
35.5739 65.4157 2
40.6111 61.5862 2
37.8369 63.1826 2
40.4124 58.1136 2
38.8997 56.3059 3.99618
38.2412 60.2692 3.98473
35.6069 63.1788 3.97246
33.5764 65.3206 0.0257641
31.9628 63.264 0.0211221
33.6333 63.315 2
30.3865 62.8255 2
32.1375 61.9672 2
28.6937 62.1618 3.97952
33.3532 61.4752 3.98292
31.0883 61.1931 3.99172
27.6204 59.5247 3.98081
23.8633 58.9857 3.98553
25.0696 60.7886 3.97819
26.894 61.4293 2
26.2435 63.4509 3.97408
28.071 64.1195 2
27.4679 66.1644 3.97596
29.8879 64.6967 0.020792
29.4086 66.7453 2
28.9091 68.9368 3.98253
31.3792 67.1833 0.0217118
31.0147 69.4116 2
30.6177 71.7771 3.99048
33.1582 69.7461 0.0161796
32.8934 72.146 2
32.6054 74.6784 4
35.1963 72.3712 0.00804208
35.0474 74.9197 2
37.5 75 0
33.7241 6.98621 3.98158
35.4364 4.68813 3.98842
35.6222 6.72944 2
37.5156 2.38791 3.99279
37.5244 4.61782 2
39.6242 4.71898 0.0116195
39.7895 2.47507 2
39.9526 0.0806499 4
42.0631 2.71884 0.00761402
42.3947 0.320817 2
44.8158 0.721173 0
43.1405 35.5951 3.61211
41.7714 34.3415 3.38096
46.1013 40.2512 0.113214
49.0906 38.4902 0.0233511
52.5904 36.6176 0.022852
46.7365 37.7127 2
49.9245 35.5679 2
44.7015 35.2129 2
42.5496 33.9156 2
41.4212 33.2971 2
46.9804 34.4179 3.93275
43.8183 33.211 3.82497
41.6611 32.6668 3.66524
40.4746 33.0489 3.35303
37.3088 10.6359 3.98119
37.4599 8.53945 2
37.5165 6.67765 0.0152168
39.2099 8.70307 0.0199661
38.9776 10.1411 2
34.7557 10.3946 3.97692
35.9034 9.78052 2
32.3805 9.38099 3.97476
34.1529 8.83008 2
35.9425 8.49992 0.0182348
51.123 33.0139 0.02156
50.2316 29.5317 0.0236596
50.0333 26.0538 0.0294536
49.6227 22.5627 0.0180885
47.39 19.5839 0.0192331
45.746 15.5596 0.00966701
43.8251 11.9204 0.0343174
40.5573 11.6165 0.0149531
48.7348 31.5738 2
38.3004 12.7604 2
42.0789 14.3831 2
48.3685 27.8247 2
48.8361 24.6872 2
46.9699 22.3672 2
44.7269 18.7445 2
46.6764 29.8389 3.98039
46.5239 25.3908 3.97877
44.161 21.687 3.98346
36.5872 12.9773 3.97664
38.6692 14.8903 3.97765
41.694 18.0043 3.98203
42.249 37.4499 3.43768
43.5655 37.4769 2
44.9901 37.4876 0.166363
46.6922 57.2556 0.0135994
46.846 54.0789 0.0394145
47.1036 47.0004 0.015217
46.9979 50.5338 0.0232766
43.1128 39.3504 0.39508
43.7626 41.731 0.168385
43.9359 44.154 0.137637
44.0392 47.0377 0.0124107
41.6062 42.2684 0.331873
41.7402 40.5842 0.60249
40.4495 41.8929 0.646431
45.2117 55.8196 2
42.0909 39.1327 2
40.3962 40.4787 2
45.3892 48.6688 2
45.0939 52.3269 2
42.8773 48.04 2
42.7667 45.7262 2
42.8098 43.5155 2
40.716 43.288 2
39.1246 42.19 2
43.5335 54.2554 4.0022
40.4139 38.9722 3.51678
39.0376 40.5757 3.46502
43.1582 50.1186 4.00289
41.5078 47.152 3.91701
41.4261 44.7529 3.82025
39.3665 43.8572 3.60271
37.5116 42.3028 3.48773
43.807 57.6062 0.0161006
42.0342 56.1542 2
40.3342 54.7265 3.99468
35.5727 65.4118 0.0241778
37.8361 63.1837 0.027507
40.6119 61.5868 0.0147001
40.4147 58.1056 0.0120627
35.6091 63.1751 2
38.2375 60.2676 2
38.901 56.2852 2
37.9742 54.9873 3.99531
36.9214 57.5147 3.99282
35.3651 60.8725 3.9848
33.6305 63.3124 0.0212386
30.3846 62.8252 0.0183587
32.1347 61.967 0.0117083
33.356 61.4748 2
28.6942 62.1684 2
31.091 61.195 2
29.44 60.2502 3.9827
32.3699 59.6593 3.99613
28.1028 58.3156 4.01854
27.6215 59.5241 2
25.4541 58.5115 3.97807
22.8622 58.1391 3.97222
23.4443 60.2535 3.9758
23.8641 58.9867 2
25.0707 60.7893 2
24.4523 62.7232 3.97494
26.8933 61.4269 0.0143234
26.2436 63.4497 2
25.5542 65.4739 3.97453
28.0716 64.1237 0.0182306
27.4674 66.1665 2
26.8397 68.3228 3.9805
29.4097 66.7468 0.0220993
28.9076 68.9359 2
28.3731 71.2626 3.98952
31.0163 69.4114 0.0165915
30.6161 71.7768 2
30.1842 74.2788 4
32.8946 72.1455 0.00878956
32.6053 74.6792 2
35.0474 74.9194 0
31.7886 7.42695 3.97919
33.3489 4.92806 3.98711
33.7249 6.98485 2
35.2461 2.46369 3.99284
35.4364 4.68806 2
35.6209 6.7297 0.0169684
37.5 0 4
37.515 2.38772 2
37.5242 4.61816 0.0109243
39.7897 2.47534 0.00738637
39.9526 0.0802889 2
42.3946 0.32156 0
42.0718 35.7722 3.37435
43.2373 35.5705 2
40.3848 34.4311 3.49392
41.7784 34.3242 2
46.7344 37.726 0.122818
49.906 35.5484 0.0228034
44.5982 35.2279 0.168117
42.4932 33.976 0.38645
41.3939 33.3214 0.58907
47.0154 34.4258 2
43.8779 33.1581 2
41.7109 32.5884 2
40.5126 33.0287 2
45.1331 31.8702 3.88745
42.8207 31.4562 3.8119
40.7007 31.732 3.62915
39.1487 32.7948 3.42643
35.6969 11.7942 3.97443
37.3167 10.6376 2
37.4579 8.53795 0.0161326
38.9717 10.139 0.0101351
33.1025 11.2362 3.97273
34.7588 10.3886 2
35.898 9.7832 0.0191615
30.4873 10.034 3.97571
32.3807 9.38062 2
34.1526 8.83237 0.0204766
48.7165 31.5906 0.0172096
48.3713 27.8272 0.0255664
48.8366 24.6819 0.0199035
46.9804 22.3757 0.00673088
44.7144 18.679 0.0191874
42.0707 14.375 0.0158235
38.2971 12.7617 0.0218036
36.5852 12.9617 2
46.6663 29.7784 2
38.6716 14.872 2
41.6912 18.0043 2
46.5276 25.3752 2
44.1438 21.6729 2
44.7236 27.9823 3.99482
43.4397 24.3301 4.01982
41.2486 21.0302 3.99485
35.7719 14.8161 3.98472
38.6407 17.7397 3.98743
40.4687 37.4179 3.54115
42.2694 37.4554 2
43.4896 37.4754 0.379151
45.2136 55.8153 -0.0011464
45.0986 52.3237 0.00977789
45.388 48.6463 -0.00232094
42.0758 39.1247 0.592846
42.7649 43.4807 0.178578
42.6962 45.6631 0.133803
42.8362 48.0183 0.0100663
40.6551 43.2053 0.37199
40.3311 40.4877 0.511597
39.1408 42.1622 0.570824
43.5288 54.2503 2
40.446 38.975 2
39.0267 40.5775 2
43.1494 50.1402 2
41.5007 47.1805 2
41.4516 44.7955 2
37.5059 42.3266 2
39.3836 43.9358 2
41.6857 52.704 4.00072
39.0483 39.0296 3.45949
37.5089 40.6217 3.51958
35.8833 42.1754 3.42492
40.6948 49.2571 3.99119
39.6373 45.4366 3.78404
37.5066 44.1414 3.64869
42.0275 56.1674 0.00910429
40.3361 54.7342 2
38.7014 53.4784 3.99666
35.6069 63.1788 0.0275401
38.2412 60.2692 0.0152692
38.8997 56.3059 0.00382221
35.3647 60.857 2
36.923 57.522 2
37.9645 54.9784 2
36.3173 55.0811 3.99783
34.494 58.4395 3.99449
33.3532 61.4752 0.0170826
28.6937 62.1618 0.0204806
31.0883 61.1931 0.00828152
32.37 59.6649 2
29.4415 60.2531 2
30.3635 57.7518 3.99223
28.1048 58.3146 2
27.0955 56.751 3.96851
27.6204 59.5247 0.0191907
25.4553 58.5127 2
24.0175 56.6906 3.96023
21.5156 57.2697 3.95728
22.0502 59.5302 3.97644
22.8624 58.1409 2
22.7624 61.9469 3.97328
23.4452 60.2542 2
23.8633 58.9857 0.0144747
25.0696 60.7886 0.0218087
24.4527 62.7235 2
23.6906 64.6855 3.97215
26.2435 63.4509 0.0259209
25.5537 65.4758 2
24.8122 67.5838 3.97846
27.4679 66.1644 0.0240428
26.8377 68.3246 2
26.1686 70.6028 3.98866
28.9091 68.9368 0.0174723
28.3712 71.2618 2
27.7943 73.7221 4
30.6177 71.7771 0.00951688
30.1841 74.2794 2
32.6054 74.6784 0
29.8118 8.00464 3.977
31.2542 5.33553 3.98572
31.7891 7.426 2
32.9822 2.70191 3.99223
33.3485 4.9274 2
33.7241 6.98621 0.0184161
35.0474 0.080333 4
35.2453 2.4638 2
35.4364 4.68813 0.0115754
37.5 0 2
37.5156 2.38791 0.00721262
39.9526 0.0806499 0
40.5045 35.9059 3.5354
42.0957 35.7714 2
43.1405 35.5951 0.387886
28.5488 10.7088 3.97666
39.0458 34.3872 3.45602
40.3994 34.4299 2
41.7714 34.3415 0.61904
46.9804 34.4179 0.0672518
43.8183 33.211 0.175027
41.6611 32.6668 0.334758
40.4746 33.0489 0.64697
45.1645 31.8543 2
42.8657 31.4154 2
40.7548 31.6509 2
39.142 32.7626 2
43.5896 30.1355 3.87136
41.4513 30.1778 3.82129
39.3834 31.0886 3.60464
37.528 32.6687 3.48537
34.1023 12.9594 3.97612
35.6998 11.784 2
37.3088 10.6359 0.0188139
31.1935 12.008 3.97678
33.1061 11.2341 2
34.7557 10.3946 0.0230825
30.4851 10.0289 2
32.3805 9.38099 0.0252367
46.6764 29.8389 0.0196112
46.5239 25.3908 0.0212335
36.5872 12.9773 0.0233604
44.161 21.687 0.0165395
41.694 18.0043 0.0179722
38.6692 14.8903 0.0223475
35.7719 14.8243 2
44.7205 27.9854 2
38.6456 17.7287 2
41.2342 21.0084 2
43.4324 24.308 2
33.6258 15.9176 3.99114
42.5781 26.7957 3.97537
40.7592 23.666 3.99405
38.3677 20.537 3.99268
35.8384 17.6189 3.98526
39.0688 37.4811 3.45964
40.4884 37.4254 2
42.249 37.4499 0.562324
43.5335 54.2554 -0.00220142
43.1582 50.1186 -0.00289128
40.4139 38.9722 0.483222
41.4261 44.7529 0.179752
41.5078 47.152 0.082995
39.3665 43.8572 0.39729
39.0376 40.5757 0.534982
37.5116 42.3028 0.512271
41.6735 52.6971 2
39.0328 39.0207 2
37.5017 40.6208 2
40.6759 49.2637 2
35.8952 42.2014 2
39.6687 45.5062 2
37.5031 44.2247 2
39.6934 51.4663 3.99955
37.5136 39.027 3.51078
35.9965 40.5947 3.46507
34.571 41.9174 3.35461
35.6496 43.8739 3.60188
38.6232 48.0989 3.92523
37.5189 45.7315 3.81832
40.3342 54.7265 0.00531854
38.6993 53.4945 2
36.7714 52.8359 3.99729
35.3651 60.8725 0.0152007
36.9214 57.5147 0.00718266
37.9742 54.9873 0.00468539
34.4936 58.4514 2
36.3189 55.072 2
33.2981 55.2781 3.99408
32.3699 59.6593 0.0038681
29.44 60.2502 0.017303
30.3649 57.7476 2
28.9045 55.2574 3.99523
28.1028 58.3156 -0.0185373
27.0976 56.7501 2
25.5805 55.0192 3.9542
22.1181 55.185 3.95988
25.4541 58.5115 0.0219262
24.0188 56.6929 2
20.4011 56.8986 3.96221
20.7298 58.678 3.96008
21.5171 57.2713 2
21.2001 61.0819 3.97095
22.0504 59.5309 2
22.8622 58.1391 0.0277782
21.9086 63.7938 3.9719
22.7632 61.9488 2
23.4443 60.2535 0.0241997
24.4523 62.7232 0.0250602
23.6903 64.687 2
22.8405 66.7255 3.97574
25.5542 65.4739 0.025467
24.8101 67.5833 2
24.0131 69.8044 3.98805
26.8397 68.3228 0.0195036
26.1659 70.6028 2
25.446 73.0099 4
28.3731 71.2626 0.0104795
27.7943 73.7222 2
30.1842 74.2788 0
27.8221 8.66515 3.97748
29.1565 5.88315 3.98318
29.8111 8.00074 2
30.7278 3.09899 3.9917
31.2537 5.33437 2
31.7886 7.42695 0.0208099
32.6053 0.320823 4
32.981 2.70183 2
33.3489 4.92806 0.0128869
35.0474 0.0802903 2
35.2461 2.46369 0.00716201
37.5 0 0
38.9973 35.9374 3.47163
40.4847 35.9021 2
42.0718 35.7722 0.625651
28.5464 10.7056 2
26.6308 11.4086 3.97544
29.2348 12.6587 3.97985
37.5324 34.3541 3.52001
39.0705 34.4 2
40.3848 34.4311 0.506076
45.1331 31.8702 0.112552
42.8207 31.4562 0.188104
40.7007 31.732 0.370846
39.1487 32.7948 0.573568
43.617 30.1062 2
41.491 30.1336 2
39.3969 31.01 2
37.5339 32.6403 2
41.8654 28.8519 3.85635
39.6435 29.4956 3.80467
37.5231 30.821 3.65073
35.8962 32.8024 3.43206
31.9366 14.5053 3.98308
34.1044 12.9649 2
35.6969 11.7942 0.0255712
31.1948 11.9976 2
33.1025 11.2362 0.0272712
30.4873 10.034 0.0242853
44.7236 27.9823 0.00518249
43.4397 24.3301 -0.0198207
35.7719 14.8161 0.0152782
41.2486 21.0302 0.00514575
38.6407 17.7397 0.0125711
33.6127 15.906 2
35.8377 17.581 2
42.651 26.7666 2
38.3533 20.5712 2
40.7451 23.6648 2
33.5622 17.4606 3.99079
40.2036 26.158 3.96567
38.0174 23.4157 3.997
35.5293 20.326 3.99621
37.5272 37.475 3.52802
39.0423 37.4713 2
40.4687 37.4179 0.458848
41.6857 52.704 -0.000719114
40.6948 49.2571 0.00881091
39.0483 39.0296 0.540514
39.6373 45.4366 0.215962
37.5066 44.1414 0.35131
37.5089 40.6217 0.48042
35.8833 42.1754 0.575084
39.6765 51.4608 2
37.5097 39.0275 2
35.9884 40.578 2
38.6429 48.1627 2
34.5323 41.938 2
35.6342 43.9482 2
37.5065 45.7912 2
37.68 50.4272 3.99011
36.0275 39.0433 3.47393
34.6781 40.5215 3.49637
33.6553 41.6402 3.41405
34.3738 43.2301 3.62069
35.3282 45.4864 3.80936
36.924 47.7164 3.88524
38.7014 53.4784 0.00333858
36.7755 52.7839 2
34.5027 52.1532 4.00177
34.494 58.4395 0.00551464
36.3173 55.0811 0.00217048
33.2987 55.287 2
30.7588 53.2211 3.99908
30.3635 57.7518 0.00777144
28.9047 55.2534 2
27.2409 53.287 3.95554
27.0955 56.751 0.0314925
25.5831 55.0218 2
23.9983 53.2861 3.95358
20.9887 53.0074 3.95901
20.2213 55.675 3.96106
22.117 55.1862 2
24.0175 56.6906 0.0397718
19.5638 57.7773 3.96113
20.3965 56.9019 2
19.7391 60.1195 3.96873
20.7234 58.6819 2
21.5156 57.2697 0.0427199
20.2265 62.7891 3.97107
21.2019 61.0844 2
22.0502 59.5302 0.0235576
20.943 65.7509 3.97296
21.9087 63.7976 2
22.7624 61.9469 0.0267232
23.6906 64.6855 0.02785
22.8391 66.7246 2
21.9159 68.8716 3.9868
24.8122 67.5838 0.0215358
24.0097 69.8028 2
23.1494 72.1454 4
26.1686 70.6028 0.0113426
25.446 73.0099 2
27.7943 73.7221 0
25.8623 9.39608 3.97564
27.0714 6.5481 3.98144
27.8201 8.66252 2
28.4904 3.64499 3.99056
29.1553 5.88121 2
29.8118 8.00464 0.0230025
30.1841 0.720592 4
30.7259 3.09887 2
31.2542 5.33553 0.0142829
32.6053 0.320817 2
32.9822 2.70191 0.00776562
35.0474 0.080333 0
37.52 35.9292 3.50166
38.9774 35.9144 2
40.5045 35.9059 0.464605
24.7901 12.0877 3.97313
23.7797 14.4436 3.97981
28.5488 10.7088 0.0233433
26.6263 11.4031 2
29.2361 12.6564 2
27.3026 13.403 3.9735
29.8057 14.2155 3.98932
35.994 34.387 3.4706
37.545 34.3512 2
39.0458 34.3872 0.543977
37.528 32.6687 0.514632
43.5896 30.1355 0.128639
41.4513 30.1778 0.17871
39.3834 31.0886 0.395361
41.8982 28.7758 2
39.6686 29.4298 2
37.5258 30.7429 2
35.9104 32.7752 2
39.8194 28.122 3.85719
37.4964 29.2206 3.80752
35.672 31.1101 3.60513
34.5772 33.0677 3.35795
30.9654 16.8607 3.99749
31.9299 14.4918 2
34.1023 12.9594 0.0238809
31.1935 12.008 0.0232153
42.5781 26.7957 0.0246324
40.7592 23.666 0.00595399
33.6258 15.9176 0.0088605
35.8384 17.6189 0.0147418
38.3677 20.537 0.00732381
33.5469 17.4739 2
35.5271 20.3499 2
40.2494 26.1226 2
38.0216 23.4066 2
32.9428 19.9229 3.99731
37.709 25.7972 3.96153
35.3225 23.0775 4.00794
35.9991 37.4709 3.4639
37.5109 37.4743 2
39.0688 37.4811 0.540359
39.6934 51.4663 0.00045455
38.6232 48.0989 0.0747653
37.5136 39.027 0.489221
37.5189 45.7315 0.181682
35.6496 43.8739 0.398118
35.9965 40.5947 0.534927
34.571 41.9174 0.645391
37.6555 50.467 2
36.0631 39.0299 2
34.6243 40.5294 2
36.9263 47.7801 2
33.6118 41.6678 2
34.3104 43.3066 2
35.3025 45.5449 2
35.5728 49.6343 3.98164
34.5713 39.0304 3.53061
33.2738 40.6228 3.38612
33.4029 42.2959 3.67141
33.6322 44.7658 3.8098
34.6012 46.8851 3.85953
36.7714 52.8359 0.00271103
34.4835 52.1806 2
32.3303 50.9773 3.99885
33.2981 55.2781 0.00591557
30.7613 53.2146 2
28.8647 51.3638 3.98579
28.9045 55.2574 0.00476887
27.2428 53.2869 2
25.6043 51.5172 3.95351
25.5805 55.0192 0.0457968
24.0004 53.2903 2
22.5735 51.5641 3.95542
19.8885 51.3881 3.96361
19.3594 54.1182 3.96165
20.9936 53.0058 2
18.6722 56.5878 3.96209
20.2194 55.6772 2
22.1181 55.185 0.0401247
18.4243 59.0247 3.95916
19.563 57.7795 2
20.4011 56.8986 0.0377945
18.6384 61.6931 3.97513
19.7402 60.1228 2
20.7298 58.678 0.0399158
19.1351 64.6488 3.97225
20.2271 62.7929 2
21.2001 61.0819 0.0290482
19.8901 67.8073 3.98386
20.9416 65.7497 2
21.9086 63.7938 0.0281006
22.8405 66.7255 0.0242625
21.9118 68.8693 2
20.9142 71.1327 4
24.0131 69.8044 0.0119485
23.1494 72.1455 2
25.446 73.0099 0
23.1122 12.8552 3.97753
23.9756 10.1821 3.97454
25.0251 7.31975 3.97896
25.8589 9.39346 2
26.2823 4.32935 3.98944
27.0691 6.54721 2
27.8221 8.66515 0.0225185
27.7943 1.27781 4
28.4874 3.64537 2
29.1565 5.88315 0.0168215
30.1841 0.720551 2
30.7278 3.09899 0.00830208
32.6053 0.320823 0
35.9889 35.9208 3.46298
37.5527 35.9399 2
38.9973 35.9374 0.528373
24.7828 12.1135 2
23.7799 14.4479 2
22.521 15.1331 3.97877
25.3768 13.9895 3.97379
24.0797 15.6993 3.99224
26.6308 11.4086 0.0245634
29.2348 12.6587 0.0201492
27.3104 13.3921 2
29.799 14.2162 2
28.4055 15.9796 3.99149
34.6987 34.4663 3.48846
36.0049 34.3858 2
37.5324 34.3541 0.479989
35.8962 32.8024 0.567939
37.5231 30.821 0.349275
41.8654 28.8519 0.143655
39.6435 29.4956 0.195333
39.8678 28.0669 2
37.4984 29.1669 2
35.6552 31.0287 2
34.5336 33.0488 2
37.6239 27.8496 3.85999
35.3898 29.518 3.80391
34.3671 31.7545 3.62662
33.6639 33.3466 3.41225
30.2844 19.5396 3.97876
30.9454 16.859 2
31.9366 14.5053 0.0169245
40.2036 26.158 0.0343346
38.0174 23.4157 0.00299505
33.5622 17.4606 0.00921093
35.5293 20.326 0.00379107
32.9506 19.9452 2
35.291 23.0602 2
37.7125 25.7819 2
32.5446 22.6686 4.00151
35.1939 25.6824 3.98444
34.5477 37.5044 3.5519
35.9954 37.4887 2
37.5272 37.475 0.471981
37.68 50.4272 0.00989476
36.924 47.7164 0.114764
36.0275 39.0433 0.526071
35.3282 45.4864 0.190635
34.3738 43.2301 0.379311
34.6781 40.5215 0.503626
33.6553 41.6402 0.585952
35.5547 49.6449 2
34.5537 39.0347 2
33.2589 40.633 2
34.5415 46.9549 2
33.3543 42.3769 2
33.5885 44.8143 2
33.5155 48.7609 3.97264
32.9535 39.1789 3.38013
32.548 40.989 3.61378
32.2392 43.5094 3.81822
32.8491 45.8889 3.85692
34.5027 52.1532 -0.00176914
32.3474 50.9727 2
30.444 49.5 4.00539
30.7588 53.2211 0.000920664
28.8724 51.3794 2
27.1567 49.7327 3.97468
27.2409 53.287 0.0444567
25.6067 51.5177 2
24.0504 49.9172 3.96742
23.9983 53.2861 0.0464169
22.5795 51.5609 2
21.2415 50.0418 3.96677
18.6382 50.1019 3.97252
18.405 52.5786 3.96577
19.8802 51.3888 2
17.8017 55.1759 3.96274
19.3584 54.1184 2
20.9887 53.0074 0.0409912
17.2812 57.7694 3.96001
18.6725 56.5888 2
20.2213 55.675 0.0389405
17.1538 60.4889 3.96159
18.4242 59.0263 2
19.5638 57.7773 0.0388726
17.4193 63.4229 3.96759
18.6401 61.6952 2
19.7391 60.1195 0.0312695
17.9458 66.6154 3.98159
19.1339 64.6482 2
20.2265 62.7891 0.0289287
18.75 69.9759 4
19.8861 67.8032 2
20.943 65.7509 0.0270432
21.9159 68.8716 0.0131959
20.9142 71.1327 2
23.1494 72.1454 0
21.6114 13.69 3.97065
22.198 11.0606 3.96997
23.1116 12.8534 2
23.042 8.18703 3.97582
23.9743 10.1903 2
24.1203 5.14413 3.98908
25.0215 7.31879 2
25.8623 9.39608 0.0243639
25.446 1.99014 4
26.2785 4.33049 2
27.0714 6.5481 0.0185558
27.7943 1.27778 2
28.4904 3.64499 0.0094372
30.1841 0.720592 0
34.6234 35.9643 3.51815
36.0092 35.9337 2
37.52 35.9292 0.49834
21.3624 15.9344 3.9633
24.7901 12.0877 0.026868
23.7797 14.4436 0.0201909
25.3771 13.9636 2
22.5192 15.1219 2
24.0854 15.7065 2
23.3388 16.3407 3.96393
25.4389 16.1744 3.98841
27.3026 13.403 0.0265019
29.8057 14.2155 0.0106808
28.3974 16.003 2
27.5208 18.9653 3.9791
33.281 34.371 3.40121
34.6339 34.4753 2
35.994 34.387 0.5294
34.5772 33.0677 0.642052
35.672 31.1101 0.394866
37.4964 29.2206 0.192482
39.8194 28.122 0.142806
37.5932 27.8131 2
33.6271 33.3218 2
35.3794 29.4508 2
34.3178 31.676 2
35.2702 27.9411 3.87351
33.615 30.2047 3.81402
33.4034 32.685 3.66926
29.8648 22.1541 4.00881
30.2873 19.5404 2
30.9654 16.8607 0.00250654
37.709 25.7972 0.0384684
35.3225 23.0775 -0.00793826
32.9428 19.9229 0.00268953
32.5339 22.6403 2
35.2112 25.6723 2
32.164 25.9641 4.00949
32.7741 37.498 3.43249
34.5484 37.4963 2
35.9991 37.4709 0.5361
35.5728 49.6343 0.0183645
34.6012 46.8851 0.140469
34.5713 39.0304 0.469389
33.6322 44.7658 0.1902
33.4029 42.2959 0.328593
33.2738 40.6228 0.613875
33.5145 48.7529 2
32.9552 39.1875 2
32.4908 41.0457 2
32.8369 45.9446 2
32.1928 43.5454 2
31.8125 47.5902 3.98823
31.8995 39.3731 3.61291
31.2291 41.7634 3.82695
31.3487 44.5301 3.86393
32.3303 50.9773 0.00115134
30.4486 49.5321 2
28.6724 47.9121 3.97496
28.8647 51.3638 0.0142065
27.1553 49.7362 2
25.5043 48.1693 3.97163
25.6043 51.5172 0.0464942
24.0557 49.9135 2
22.5556 48.48 3.97152
22.5735 51.5641 0.0445819
21.2432 50.0402 2
19.7823 48.8364 3.97491
17.5048 49.123 3.9761
17.327 51.2085 3.97137
18.6396 50.1005 2
16.8247 53.6977 3.96671
18.4001 52.5791 2
19.8885 51.3881 0.0363855
16.2281 56.3514 3.96173
17.8007 55.1765 2
19.3594 54.1182 0.0383491
15.8 59.1489 3.95805
17.2766 57.7716 2
18.6722 56.5878 0.0379081
15.7932 62.0953 3.97105
17.1568 60.4902 2
18.4243 59.0247 0.0408367
16.0928 65.2943 3.97673
17.4182 63.4271 2
18.6384 61.6931 0.0248654
16.6661 68.6801 4
17.9424 66.611 2
19.1351 64.6488 0.0277532
18.75 69.9759 2
19.8901 67.8073 0.0161389
20.9142 71.1327 0
20.25 14.686 3.97172
21.6115 13.6922 2
20.5434 12.0625 3.97286
21.1456 9.16092 3.97429
22.1943 11.07 2
23.1122 12.8552 0.0224744
22.0197 6.08271 3.98767
23.0393 8.18959 2
23.9756 10.1821 0.0254618
23.1494 2.85457 4
24.1153 5.14587 2
25.0251 7.31975 0.0210445
25.446 1.99012 2
26.2823 4.32935 0.0105574
27.7943 1.27781 0
32.9389 35.8277 3.40815
34.5841 35.9642 2
35.9889 35.9208 0.537017
21.3669 15.9276 2
20.3976 17.0652 3.96242
22.1743 16.7368 3.95931
25.3768 13.9895 0.026214
22.521 15.1331 0.0212255
24.0797 15.6993 0.00775958
25.4422 16.1725 2
23.3472 16.3368 2
24.3039 18.6259 3.98044
27.3075 21.7591 3.99285
28.4055 15.9796 0.00850695
27.5175 18.987 2
32.5761 33.9927 3.61044
33.2663 34.3586 2
34.6987 34.4663 0.511543
33.6639 33.3466 0.587745
34.3671 31.7545 0.373377
35.3898 29.518 0.196093
37.6239 27.8496 0.140009
35.2631 27.8948 2
33.3402 32.6078 2
33.573 30.1566 2
33.0828 28.5772 3.88142
32.2355 31.4682 3.81013
29.3126 24.6261 4.01441
29.8401 22.1612 2
30.2844 19.5396 0.0212429
35.1939 25.6824 0.0155617
32.5446 22.6686 -0.00150533
32.1542 25.9327 2
30.3856 27.6391 3.97843
31.538 37.4844 3.61606
32.7703 37.4982 2
34.5477 37.5044 0.448102
33.5155 48.7609 0.0273627
32.8491 45.8889 0.143076
32.9535 39.1789 0.619866
32.2392 43.5094 0.181779
32.548 40.989 0.386223
31.7545 47.6205 2
31.8071 39.3896 2
31.165 41.8152 2
31.292 44.5754 2
30.1212 46.2048 3.98552
30.4362 39.75 3.83452
29.9151 42.8513 3.88172
30.444 49.5 -0.00539179
28.6708 47.9185 2
26.9541 46.3336 3.9785
27.1567 49.7327 0.0253191
25.505 48.166 2
23.8374 46.7423 3.97386
24.0504 49.9172 0.0325847
22.5554 48.48 2
20.8279 47.338 3.97568
21.2415 50.0418 0.0332348
19.7809 48.8353 2
18.3742 47.9494 3.97653
16.7431 48.4873 3.97638
17.5037 49.1226 2
16.3791 49.9877 3.97484
15.8185 52.253 3.97138
17.3284 51.2076 2
18.6382 50.1019 0.0274788
15.1842 54.846 3.96448
16.8245 53.6974 2
18.405 52.5786 0.0342286
14.5742 57.6684 3.95805
16.2274 56.352 2
17.8017 55.1759 0.0372638
14.2763 60.6605 3.96403
15.8006 59.1502 2
17.2812 57.7694 0.0399914
14.3377 63.8537 3.97555
15.795 62.0971 2
17.1538 60.4889 0.038408
14.6715 67.2507 4
16.0896 65.2897 2
17.4193 63.4229 0.032413
16.6661 68.6801 2
17.9458 66.6154 0.0184138
18.75 69.9759 0
18.9835 15.8698 3.9634
20.253 14.6797 2
18.9982 13.1844 3.96998
21.6114 13.69 0.0293547
20.5403 12.063 2
19.348 10.2575 3.97222
19.9945 7.14823 3.98523
21.1423 9.162 2
22.198 11.0606 0.0300307
20.9142 3.86727 4
22.0141 6.08622 2
23.042 8.18703 0.0241848
23.1494 2.85451 2
24.1203 5.14413 0.0109166
25.446 1.99014 0
31.9229 35.6088 3.60424
32.9355 35.8191 2
34.6234 35.9643 0.481847
21.3624 15.9344 0.0366986
22.1809 16.7299 2
20.405 17.0639 2
19.4529 18.5532 3.95903
21.8826 18.0059 3.98201
25.4389 16.1744 0.0115853
23.3388 16.3407 0.036069
24.2963 18.6483 2
22.5488 20.0866 3.97365
24.8943 21.6051 3.9888
26.9432 23.918 3.98327
27.3042 21.6688 2
27.5208 18.9653 0.0209023
31.2713 33.2224 3.82668
32.521 33.9375 2
33.281 34.371 0.59879
33.4034 32.685 0.330745
33.615 30.2047 0.185983
35.2702 27.9411 0.12649
33.0436 28.5394 2
32.1803 31.4166 2
31.0303 29.9471 3.90319
28.6644 26.8114 4.00359
29.3012 24.6327 2
29.8648 22.1541 -0.00880737
32.164 25.9641 -0.00948915
30.3753 27.6154 2
30.0298 37.4748 3.8335
31.4523 37.4823 2
32.7741 37.498 0.567515
31.8125 47.5902 0.0117682
31.3487 44.5301 0.136075
31.8995 39.3731 0.387088
31.2291 41.7634 0.173055
30.1243 46.2118 2
30.3397 39.7588 2
29.8835 42.8793 2
28.4537 44.5371 3.96552
28.1833 40.445 3.92421
28.6724 47.9121 0.0250405
26.9535 46.3347 2
25.1701 44.8542 3.9796
25.5043 48.1693 0.0283692
23.8347 46.7409 2
21.8861 45.6414 3.97727
22.5556 48.48 0.0284775
20.8275 47.3369 2
19.1369 46.5103 3.97584
19.7823 48.8364 0.025095
18.374 47.9487 2
17.001 47.5166 3.97561
16.7441 48.4871 2
15.7372 48.8395 3.97557
17.5048 49.123 0.0239008
16.3805 49.9869 2
14.9251 50.8351 3.97437
14.1446 53.3137 3.96854
15.8199 52.2523 2
17.327 51.2085 0.0286339
13.4346 56.0886 3.96089
15.1836 54.8461 2
16.8247 53.6977 0.0332931
12.8688 59.1018 3.95937
14.5735 57.6693 2
16.2281 56.3514 0.0382699
12.6835 62.2948 3.97081
14.2788 60.6615 2
15.8 59.1489 0.0419509
12.7746 65.6939 4
14.3349 63.8483 2
15.7932 62.0953 0.0289547
14.6714 67.2507 2
16.0928 65.2943 0.0232705
16.6661 68.6801 0
17.8038 17.2672 3.96044
18.985 15.8651 2
17.5363 14.4423 3.96941
20.25 14.686 0.0282758
18.9979 13.1839 2
17.6491 11.4965 3.97256
20.5434 12.0625 0.0271436
19.3445 10.2631 2
18.0544 8.34151 3.98299
18.75 5.0241 4
19.9885 7.1531 2
21.1456 9.16092 0.0257139
20.9142 3.86727 2
22.0197 6.08271 0.0123328
23.1494 2.85457 0
30.4501 35.2471 3.83056
31.8314 35.5865 2
32.9389 35.8277 0.591847
22.1743 16.7368 0.0406912
20.3976 17.0652 0.0375766
21.8869 18.0037 2
19.4455 18.5473 2
18.3354 20.1177 3.96309
21.1219 19.5603 3.97114
24.3039 18.6259 0.0195609
22.543 20.087 2
24.9074 21.5823 2
22.7768 21.9469 3.97876
25.2456 23.2964 3.9805
26.2815 26.1918 3.97999
26.9469 23.9099 2
27.3075 21.7591 0.0071514
29.6775 32.5833 3.88155
31.1902 33.1813 2
32.5761 33.9927 0.389558
32.2355 31.4682 0.189867
33.0828 28.5772 0.118579
31.0088 29.9307 2
28.0799 29.4148 4.01095
28.6478 26.8203 2
29.3126 24.6261 -0.0144066
30.3856 27.6391 0.0215728
28.3734 37.3895 3.8731
29.9466 37.4827 2
31.538 37.4844 0.383936
30.1212 46.2048 0.0144789
29.9151 42.8513 0.118276
30.4362 39.75 0.165485
28.452 44.5924 2
28.145 40.4495 2
26.5768 42.9807 3.97995
25.484 39.4281 3.97679
26.9541 46.3336 0.0215013
25.1596 44.8572 2
23.1036 43.6758 3.97498
23.8374 46.7423 0.0261406
21.8827 45.6422 2
19.9455 44.7507 3.97527
20.8279 47.338 0.0243236
19.1361 46.511 2
17.3753 46.0201 3.97557
18.3742 47.9494 0.0234711
17.0013 47.5165 2
15.5149 47.5033 3.97531
16.7431 48.4873 0.0236194
15.7389 48.8388 2
14.2411 49.4032 3.97508
16.3791 49.9877 0.0251595
14.9262 50.8344 2
13.2125 51.7638 3.9716
12.3304 54.4536 3.96332
14.1454 53.3131 2
15.8185 52.253 0.0286202
11.5833 57.4337 3.95998
13.4338 56.0889 2
15.1842 54.846 0.0355202
11.1397 60.6209 3.96788
12.8719 59.1012 2
14.5742 57.6684 0.0419451
10.9835 64.0165 4
12.6817 62.2891 2
14.2763 60.6605 0.0359728
12.7745 65.694 2
14.3377 63.8537 0.0244496
14.6715 67.2507 0
16.6331 18.7796 3.96113
17.7989 17.2617 2
16.1503 15.8477 3.95798
18.9835 15.8698 0.036596
17.5374 14.4379 2
16.031 12.8562 3.96626
18.9982 13.1844 0.0300203
17.6451 11.502 2
16.2057 9.66666 3.97859
19.348 10.2575 0.0277764
18.0493 8.34825 2
16.6661 6.31991 4
18.75 5.02404 2
19.9945 7.14823 0.014765
20.9142 3.86727 0
28.8501 34.8813 3.88899
30.3434 35.207 2
31.9229 35.6088 0.395764
17.083 21.5523 3.96944
21.8826 18.0059 0.0179941
19.4529 18.5532 0.0409745
21.1111 19.555 2
18.3326 20.1146 2
20.2004 21.7952 3.97317
22.5488 20.0866 0.0263536
24.8943 21.6051 0.0111974
22.7791 21.9459 2
25.2278 23.3471 2
23.5914 24.8503 3.97166
25.6449 28.7824 3.98439
26.2712 26.1986 2
26.9432 23.918 0.016727
27.5417 31.9403 3.97997
29.6342 32.5599 2
31.2713 33.2224 0.173323
31.0303 29.9471 0.0968056
28.0938 29.3818 2
28.6644 26.8114 -0.00358505
26.1911 36.8695 3.96811
28.3454 37.3902 2
30.0298 37.4748 0.166498
28.4537 44.5371 0.0344837
28.1833 40.445 0.075793
26.5532 43.0069 2
25.4496 39.4291 2
24.3397 41.6845 3.97835
23.1841 38.5157 3.97618
25.1701 44.8542 0.0204013
23.1015 43.6779 2
20.8409 42.7126 3.97489
21.8861 45.6414 0.0227311
19.9465 44.7512 2
17.7966 44.2095 3.97515
19.1369 46.5103 0.0241589
17.3753 46.0206 2
15.4844 45.9372 3.97528
17.001 47.5166 0.0243872
15.5155 47.5031 2
13.7748 47.8735 3.97527
15.7372 48.8395 0.0244264
14.2424 49.4024 2
12.4479 50.15 3.97383
14.9251 50.8351 0.0256307
13.2134 51.7631 2
11.3226 52.7711 3.96556
10.3908 55.6875 3.96142
12.3304 54.4533 2
14.1446 53.3137 0.031457
9.70553 58.8456 3.97076
11.5879 57.4322 2
13.4346 56.0886 0.0391091
9.30605 62.2254 4
11.1383 60.6153 2
12.8688 59.1018 0.0406321
10.9835 64.0165 2
12.6835 62.2948 0.029191
12.7746 65.6939 0
15.4427 20.32 3.96472
16.6417 18.7787 2
14.8583 17.3806 3.95883
17.8038 17.2672 0.0395624
16.1503 15.8437 2
14.4916 14.3304 3.96783
17.5363 14.4423 0.0305948
16.0317 12.8508 2
14.4492 11.1201 3.976
17.6491 11.4965 0.0274415
16.2014 9.67435 2
14.6715 7.74927 4
18.0544 8.34151 0.0170114
16.6661 6.31988 2
18.75 5.0241 0
26.8061 34.402 3.97241
28.8283 34.8887 2
30.4501 35.2471 0.169441
18.3689 22.5329 3.97503
15.9876 23.093 3.9726
17.0835 21.5506 2
21.1219 19.5603 0.028863
18.3354 20.1177 0.036907
20.1962 21.7923 2
20.3508 24.6439 3.97205
22.7768 21.9469 0.0212445
25.2456 23.2964 0.0194999
23.5842 24.847 2
23.0086 28.1377 3.97115
25.1082 31.4648 3.98293
25.652 28.7556 2
26.2815 26.1918 0.0200123
27.5091 31.9041 2
29.6775 32.5833 0.118451
28.0799 29.4148 -0.0109511
23.9322 36.3315 3.97807
26.1637 36.8605 2
28.3734 37.3895 0.126896
26.5768 42.9807 0.0200484
25.484 39.4281 0.0232051
24.3145 41.6854 2
23.1808 38.514 2
21.9852 40.5481 3.97523
21.2974 37.7921 3.97789
23.1036 43.6758 0.0250248
20.8422 42.7115 2
18.2787 41.9775 3.97574
19.9455 44.7507 0.0247272
17.7969 44.2096 2
15.534 44.0681 3.97536
17.3753 46.0201 0.0244252
15.4841 45.9374 2
13.4741 46.1764 3.97518
15.5149 47.5033 0.0246873
13.7758 47.873 2
11.8384 48.4536 3.97537
14.2411 49.4032 0.0249216
12.4495 50.149 2
10.4553 51.0204 3.96769
13.2125 51.7638 0.0283971
11.3233 52.7703 2
9.29803 53.8697 3.9624
8.38958 56.9806 3.97199
10.3926 55.686 2
12.3304 54.4536 0.036678
7.74927 60.3285 4
9.70436 58.8408 2
11.5833 57.4337 0.0400247
9.306 62.2255 2
11.1397 60.6209 0.032116
10.9835 64.0165 0
14.2785 21.8789 3.96868
15.4428 20.3177 2
13.6022 18.98 3.96127
16.6331 18.7796 0.0388669
14.8581 17.3778 2
13.0417 15.9148 3.96448
16.1503 15.8477 0.0420243
14.4971 14.3277 2
12.7869 12.6935 3.97349
16.031 12.8562 0.0337404
14.4456 11.1277 2
12.7746 9.30605 4
16.2057 9.66666 0.021406
14.6715 7.74924 2
16.6661 6.31991 0
24.4792 33.9106 3.98109
26.7832 34.3977 2
28.8501 34.8813 0.111012
18.2502 24.2703 3.97306
18.376 22.533 2
14.807 24.6141 3.97425
15.9873 23.0913 2
17.083 21.5523 0.0305578
19.9142 27.4677 3.97336
20.2004 21.7952 0.0268315
20.35 24.6418 2
22.397 30.9078 3.97395
23.5914 24.8503 0.0283375
23.0073 28.1397 2
25.0645 31.4803 2
25.6449 28.7824 0.0156094
27.5417 31.9403 0.0200289
21.401 35.9734 3.9772
23.9238 36.3287 2
26.1911 36.8695 0.0318856
24.3397 41.6845 0.0216525
23.1841 38.5157 0.023823
21.9892 40.5474 2
21.3017 37.7938 2
19.0506 38.9683 3.97715
20.8409 42.7126 0.0251139
18.2785 41.9776 2
15.5155 41.8344 3.97593
17.7966 44.2095 0.024848
15.5331 44.0682 2
13.2356 44.2952 3.97547
15.4844 45.9372 0.024721
13.4743 46.1764 2
11.3522 46.6459 3.9755
13.7748 47.8735 0.0247272
11.8405 48.4525 2
9.72778 49.1856 3.96986
12.4479 50.15 0.0261672
10.4566 51.0194 2
8.32494 51.9865 3.96322
11.3226 52.7711 0.0344424
9.29745 53.8683 2
7.19844 55.033 3.97296
6.31991 58.3339 4
8.38833 56.9761 2
10.3908 55.6875 0.0385832
7.74924 60.3285 2
9.70553 58.8456 0.0292423
9.30605 62.2254 0
13.6593 25.4995 3.97613
13.1754 23.3998 3.97257
14.2787 21.8772 2
12.4247 20.6272 3.96381
15.4427 20.32 0.0352843
13.6008 18.9774 2
11.6838 17.5878 3.96061
14.8583 17.3806 0.0411749
13.0489 15.9123 2
11.2253 14.3812 3.96669
14.4916 14.3304 0.0321735
12.7854 12.7018 2
10.9835 10.9835 4
14.4492 11.1201 0.0240016
12.7745 9.306 2
14.6715 7.74927 0
21.7647 33.5476 3.9764
24.4815 33.8916 2
26.8061 34.402 0.0275935
16.5677 26.6004 3.97423
18.2541 24.2699 2
18.3689 22.5329 0.0249681
14.805 24.6133 2
15.9876 23.093 0.0273989
19.3169 30.3812 3.97456
19.9167 27.4685 2
20.3508 24.6439 0.0279468
22.4194 30.9065 2
23.0086 28.1377 0.0288547
25.1082 31.4648 0.0170717
18.6333 36.0127 3.97788
21.4022 35.975 2
23.9322 36.3315 0.0219311
21.9852 40.5481 0.0247685
21.2974 37.7921 0.0221091
19.0512 38.967 2
14.9996 39.1486 3.97696
18.2787 41.9775 0.0242607
15.5148 41.8338 2
12.9247 42.2127 3.97606
15.534 44.0681 0.0246436
13.2353 44.295 2
10.936 44.7314 3.97563
13.4741 46.1764 0.0248189
11.3546 46.6451 2
9.107 47.2728 3.97215
11.8384 48.4536 0.0246294
9.72976 49.1844 2
7.4837 50.0231 3.96384
10.4553 51.0204 0.0323138
8.32319 51.9852 2
6.13892 53.0087 3.97299
9.29803 53.8697 0.0375966
7.19772 55.029 2
5.0241 56.25 4
6.31988 58.3339 2
8.38958 56.9806 0.0280059
7.74927 60.3285 0
13.9544 26.9534 3.97501
12.2821 24.8936 3.97513
13.6581 25.4987 2
11.3485 22.3065 3.96661
13.1773 23.3991 2
14.2785 21.8789 0.0313228
12.4229 20.6254 2
10.4542 19.3446 3.96171
13.6022 18.98 0.0387285
11.698 17.5891 2
9.76611 16.163 3.97029
13.0417 15.9148 0.0355205
11.2254 14.3867 2
9.30607 12.7746 4
12.7869 12.6935 0.0265114
10.9835 10.9835 2
12.7746 9.30605 0
18.8035 33.218 3.97573
21.7609 33.5503 2
24.4792 33.9106 0.018908
16.1977 29.7963 3.97515
16.5676 26.6002 2
18.2502 24.2703 0.0269433
14.807 24.6141 0.025747
19.3128 30.3815 2
19.9142 27.4677 0.0266376
22.397 30.9078 0.026053
15.6425 36.0473 3.97737
18.6332 36.0138 2
21.401 35.9734 0.0228024
13.1545 37.8277 3.9771
19.0506 38.9683 0.0228471
14.9994 39.1485 2
12.4148 40.1071 3.97656
15.5155 41.8344 0.0240697
12.924 42.2122 2
10.5309 42.7291 3.97615
13.2356 44.2952 0.024534
10.938 44.7308 2
8.56988 45.2847 3.97441
11.3522 46.6459 0.0245007
9.10907 47.2717 2
6.76176 47.9917 3.9646
9.72778 49.1856 0.0301366
7.48121 50.0221 2
5.21518 50.9121 3.97289
8.32494 51.9865 0.0367846
6.13867 53.0057 2
3.86727 54.0858 4
7.19844 55.033 0.0270373
5.02404 56.25 2
6.31991 58.3339 0
13.4311 29.1442 3.97453
11.7284 26.5846 3.9751
13.9539 26.9533 2
10.3981 24.029 3.96941
12.2848 24.8933 2
13.6593 25.4995 0.0238709
9.31531 21.1602 3.96295
11.3487 22.3058 2
13.1754 23.3998 0.0274335
12.4247 20.6272 0.0361945
10.4634 19.3459 2
8.42192 18.0314 3.97198
11.6838 17.5878 0.039389
9.76508 16.1671 2
7.74928 14.6715 4
11.2253 14.3812 0.0333096
9.30602 12.7745 2
10.9835 10.9835 0
15.1735 32.9417 3.97622
18.8036 33.2182 2
21.7647 33.5476 0.0236029
16.1966 29.7955 2
16.5677 26.6004 0.0257713
19.3169 30.3812 0.025438
13.4634 36.2263 3.97671
15.6425 36.0474 2
18.6333 36.0127 0.0221234
13.1536 37.8276 2
11.7291 38.3022 3.97672
14.9996 39.1486 0.0230423
12.4141 40.1071 2
10.1005 40.727 3.97657
12.9247 42.2127 0.0239417
10.5331 42.7286 2
8.10714 43.2442 3.97512
10.936 44.7314 0.0243714
8.57262 45.2836 2
6.15804 45.8994 3.96482
9.107 47.2728 0.0278458
6.75911 47.9909 2
4.42614 48.7522 3.97265
7.4837 50.0231 0.0361593
5.21532 50.9099 2
2.85457 51.8506 4
6.13892 53.0087 0.0270091
3.86727 54.0858 2
5.0241 56.25 0
12.5546 31.3293 3.97574
11.1353 28.4961 3.97501
13.4304 29.1436 2
9.60894 25.8504 3.97157
11.7302 26.5846 2
13.9544 26.9534 0.024989
8.28999 23.0393 3.96403
10.4004 24.0292 2
12.2821 24.8936 0.0248698
7.20429 19.9789 3.97308
9.32053 21.1617 2
11.3485 22.3065 0.0333923
10.4542 19.3446 0.0382941
8.42123 18.0356 2
6.31992 16.6661 4
9.76611 16.163 0.0297119
7.74926 14.6714 2
9.30607 12.7746 0
12.5903 34.337 3.97662
15.1732 32.9428 2
18.8035 33.218 0.0242703
16.1977 29.7963 0.024852
11.2566 36.6234 3.97657
13.463 36.2264 2
15.6425 36.0473 0.0226291
13.1545 37.8277 0.0229012
11.7285 38.302 2
9.6736 38.8141 3.97676
12.4148 40.1071 0.0234435
10.1021 40.7264 2
7.70837 41.1961 3.97526
10.5309 42.7291 0.0238479
8.10931 43.2432 2
5.6629 43.7641 3.9649
8.56988 45.2847 0.0255945
6.15444 45.8989 2
3.77136 46.5372 3.97266
6.76176 47.9917 0.0354042
4.4267 48.7507 2
1.99014 49.554 4
5.21518 50.9121 0.0271072
2.85451 51.8506 2
3.86727 54.0858 0
11.3414 32.9703 3.97638
10.4337 30.4409 3.97547
12.5538 31.3301 2
8.90299 27.7738 3.97309
11.1368 28.4962 2
13.4311 29.1442 0.0254699
7.40108 24.9935 3.96459
9.61155 25.8509 2
11.7284 26.5846 0.0248952
6.12099 22.0009 3.97362
8.29082 23.0403 2
10.3981 24.029 0.0305888
5.02411 18.75 4
7.2038 19.9825 2
9.31531 21.1602 0.0370461
8.42192 18.0314 0.0280216
6.3199 16.6661 2
7.74928 14.6715 0
10.8338 35.0246 3.9763
12.5891 34.3371 2
15.1735 32.9417 0.023775
9.32369 36.99 3.97656
11.2564 36.6235 2
13.4634 36.2263 0.023293
11.7291 38.3022 0.0232758
9.67521 38.8139 2
7.37622 39.1763 3.97503
10.1005 40.727 0.0234341
7.71151 41.1954 2
5.27302 41.6114 3.96532
8.10714 43.2442 0.0248759
5.66059 43.7637 2
3.24872 44.2817 3.97356
6.15804 45.8994 0.0351791
3.77217 46.5362 2
1.27781 47.2057 4
4.42614 48.7522 0.0273476
1.99012 49.554 2
2.85457 51.8506 0
10.4584 33.9145 3.97601
9.69749 32.1955 3.97605
11.3415 32.9709 2
8.23048 29.7267 3.97391
10.4356 30.4421 2
12.5546 31.3293 0.0242615
6.631 27.016 3.96475
8.90624 27.7746 2
11.1353 28.4961 0.0249913
5.17584 24.0935 3.97337
7.39911 24.9942 2
9.60894 25.8504 0.0284301
3.86728 20.9142 4
6.12092 22.0034 2
8.28999 23.0393 0.0359712
5.02406 18.75 2
7.20429 19.9789 0.0269217
6.31992 16.6661 0
9.13306 35.2964 3.97641
10.8339 35.0247 2
12.5903 34.337 0.0233785
7.14876 37.2076 3.97455
9.32605 36.99 2
11.2566 36.6234 0.0234289
9.6736 38.8141 0.0232428
7.37882 39.176 2
4.99648 39.4663 3.96588
7.70837 41.1961 0.0247433
5.27147 41.6111 2
2.85893 42.0018 3.97408
5.6629 43.7641 0.035103
3.24935 44.281 2
0.720592 44.8159 4
3.77136 46.5372 0.0273365
1.27778 47.2057 2
1.99014 49.554 0
9.16997 33.725 3.97642
10.4594 33.9147 2
7.6566 31.6314 3.97401
9.69999 32.1963 2
11.3414 32.9703 0.0236178
5.96662 29.075 3.96481
8.23316 29.7274 2
10.4337 30.4409 0.0245344
4.3629 26.2465 3.97306
6.6274 27.0164 2
8.90299 27.7738 0.02691
2.85458 23.1494 4
5.17616 24.0951 2
7.40108 24.9935 0.0354144
3.86728 20.9142 2
6.12099 22.0009 0.0263838
5.02411 18.75 0
7.09635 35.3142 3.97431
9.13604 35.2964 2
10.8338 35.0246 0.0236982
4.84474 37.3402 3.96639
7.15196 37.2077 2
9.32369 36.99 0.0234395
7.37622 39.1763 0.0249733
4.99579 39.4663 2
2.60683 39.7134 3.97449
5.27302 41.6114 0.0346811
2.85986 42.0017 2
0.320823 42.3947 4
3.24872 44.2817 0.0264389
0.720551 44.8159 2
1.27781 47.2057 0
7.26015 33.4756 3.97416
9.17298 33.7253 2
10.4584 33.9145 0.023991
5.42801 31.1373 3.96538
7.65791 31.6318 2
9.69749 32.1955 0.0239519
3.68407 28.4433 3.97325
5.96227 29.0752 2
8.23048 29.7267 0.0260857
1.99015 25.446 4
4.3635 26.2476 2
6.631 27.016 0.0352459
2.85453 23.1494 2
5.17584 24.0935 0.026629
3.86728 20.9142 0
4.85883 35.2531 3.96636
7.09854 35.3143 2
9.13306 35.2964 0.0235882
2.49826 37.4283 3.97554
4.84513 37.3404 2
7.14876 37.2076 0.02545
4.99648 39.4663 0.0341163
2.60784 39.714 2
0.080333 39.9526 4
2.85893 42.0018 0.0259207
0.320817 42.3947 2
0.720592 44.8159 0
5.05236 33.1928 3.96595
7.26202 33.4758 2
9.16997 33.725 0.0235772
3.148 30.6665 3.97398
5.42473 31.1375 2
7.6566 31.6314 0.025991
1.27793 27.7943 4
3.68494 28.444 2
5.96662 29.075 0.0351908
1.99013 25.446 2
4.3629 26.2465 0.0269385
2.85458 23.1494 0
2.55022 35.1591 3.97542
4.85969 35.2534 2
7.09635 35.3142 0.0256868
0 37.5 4
2.49859 37.4289 2
4.84474 37.3402 0.033613
2.60683 39.7134 0.0255078
0.0802903 39.9526 2
0.320823 42.3947 0
2.76797 32.9061 3.97518
5.05271 33.1929 2
7.26015 33.4756 0.0258406
0.721173 30.1842 4
3.14902 30.667 2
5.42801 31.1373 0.0346186
1.27779 27.7943 2
3.68407 28.4433 0.0267513
1.99015 25.446 0
0.0806499 35.0474 4
2.55112 35.1596 2
4.85883 35.2531 0.0336379
0 37.5 2
2.49826 37.4283 0.0244611
0.080333 39.9526 0
0.32156 32.6054 4
2.76846 32.9065 2
5.05236 33.1928 0.0340462
0.72056 30.1841 2
3.148 30.6665 0.0260231
1.27793 27.7943 0
0.0802889 35.0474 2
2.55022 35.1591 0.0245844
0 37.5 0
0.320817 32.6053 2
2.76797 32.9061 0.0248185
0.721173 30.1842 0
0.0806499 35.0474 0
0.32156 32.6054 0
CELLS 1910 17190
8 18 6 25 56 2 0 5 16
8 57 23 6 18 17 4 0 2
8 78 36 9 29 31 11 1 7
8 31 11 1 7 79 37 10 30
8 110 57 18 50 48 17 2 14
8 50 18 56 111 14 2 16 49
8 116 62 22 55 52 20 3 15
8 56 25 67 118 16 5 24 53
8 119 63 23 57 54 21 4 17
8 55 22 63 119 15 3 21 54
8 58 26 68 121 18 6 25 56
8 122 65 26 58 57 23 6 18
8 73 31 7 27 142 79 30 71
8 143 78 29 72 73 31 7 27
8 83 147 76 34 32 74 28 8
8 84 148 78 36 33 75 29 9
8 76 34 8 28 148 84 33 75
8 37 79 150 86 10 30 77 35
8 151 87 36 78 80 38 11 31
8 80 38 11 31 152 88 37 79
8 175 100 42 94 96 44 12 40
8 44 96 176 101 12 40 95 43
8 101 176 98 46 43 95 41 13
8 46 98 178 103 13 41 97 45
8 178 103 45 97 147 83 32 74
8 189 116 55 109 106 52 15 47
8 111 56 118 191 49 16 53 107
8 192 119 57 110 108 54 17 48
8 109 55 119 192 47 15 54 108
8 194 122 58 112 110 57 18 50
8 112 58 121 195 50 18 56 111
8 115 61 19 51 197 124 59 113
8 115 61 125 198 51 19 60 114
8 198 125 62 116 114 60 20 52
8 200 127 64 120 116 62 22 55
8 118 67 132 202 53 24 66 117
8 121 68 133 203 56 25 67 118
8 120 64 128 204 55 22 63 119
8 204 128 65 122 119 63 23 57
8 206 134 68 121 123 69 26 58
8 123 69 26 58 207 131 65 122
8 226 147 74 138 140 76 28 70
8 229 148 75 139 143 78 29 72
8 140 76 28 70 229 148 75 139
8 142 79 30 71 231 150 77 141
8 144 80 31 73 232 152 79 142
8 233 151 78 143 144 80 31 73
8 150 86 35 77 235 154 81 145
8 235 154 81 145 146 82 39 91
8 146 82 39 91 236 155 90 165
8 238 157 83 147 149 85 34 76
8 239 158 84 148 151 87 36 78
8 149 85 34 76 239 158 84 148
8 152 88 37 79 241 160 86 150
8 242 161 87 151 153 89 38 80
8 153 89 38 80 243 162 88 152
8 171 98 41 92 265 178 97 169
8 265 178 97 169 226 147 74 138
8 172 96 40 93 266 176 95 170
8 266 176 95 170 171 98 41 92
8 269 175 94 173 172 96 40 93
8 271 180 99 174 175 100 42 94
8 197 124 59 113 271 180 99 174
8 272 181 100 175 177 102 44 96
8 273 182 101 176 179 104 46 98
8 177 102 44 96 273 182 101 176
8 179 104 46 98 275 184 103 178
8 275 184 103 178 238 157 83 147
8 188 115 51 105 283 197 113 186
8 188 115 198 284 105 51 114 187
8 284 198 116 189 187 114 52 106
8 286 200 120 193 189 116 55 109
8 191 118 202 288 107 53 117 190
8 195 121 203 289 111 56 118 191
8 193 120 204 290 109 55 119 192
8 290 204 122 194 192 119 57 110
8 196 123 58 112 292 207 122 194
8 293 206 121 195 196 123 58 112
8 199 126 61 115 297 211 124 197
8 298 212 127 200 198 125 62 116
8 199 126 212 298 115 61 125 198
8 205 129 64 120 300 214 127 200
8 301 217 130 201 202 132 66 117
8 209 136 168 264 301 217 130 201
8 302 219 132 202 203 133 67 118
8 303 220 133 203 206 134 68 121
8 205 129 215 304 120 64 128 204
8 304 215 131 207 204 128 65 122
8 306 221 134 206 208 135 69 123
8 208 135 69 123 307 218 131 207
8 210 137 167 263 309 223 136 209
8 328 238 147 226 230 149 76 140
8 228 146 91 166 329 236 165 260
8 231 150 77 141 330 235 145 227
8 330 235 145 227 228 146 91 166
8 332 239 148 229 233 151 78 143
8 230 149 76 140 332 239 148 229
8 232 152 79 142 334 241 150 231
8 234 153 80 144 335 243 152 232
8 336 242 151 233 234 153 80 144
8 236 155 90 165 338 245 164 259
8 241 160 86 150 339 246 154 235
8 339 246 154 235 237 156 82 146
8 237 156 82 146 340 247 155 236
8 342 249 157 238 240 159 85 149
8 343 250 158 239 242 161 87 151
8 240 159 85 149 343 250 158 239
8 243 162 88 152 345 252 160 241
8 244 163 253 346 153 89 161 242
8 244 163 89 153 347 254 162 243
8 311 224 261 371 210 137 167 263
8 263 167 262 372 209 136 168 264
8 267 179 98 171 375 275 178 265
8 375 275 178 265 328 238 147 226
8 376 273 176 266 267 179 98 171
8 268 177 96 172 376 273 176 266
8 379 272 175 269 268 177 96 172
8 380 271 174 270 269 175 94 173
8 283 197 113 186 380 271 174 270
8 381 277 180 271 272 181 100 175
8 297 211 124 197 381 277 180 271
8 382 278 181 272 274 183 102 177
8 274 183 102 177 383 279 182 273
8 383 279 182 273 276 185 104 179
8 385 281 184 275 342 249 157 238
8 276 185 104 179 385 281 184 275
8 285 199 115 188 393 297 197 283
8 394 298 200 286 284 198 116 189
8 285 199 298 394 188 115 198 284
8 291 205 120 193 396 300 200 286
8 397 301 201 287 288 202 117 190
8 295 209 264 374 397 301 201 287
8 398 302 202 288 289 203 118 191
8 399 303 203 289 293 206 121 195
8 291 205 304 400 193 120 204 290
8 400 304 207 292 290 204 122 194
8 294 208 123 196 402 307 207 292
8 403 306 206 293 294 208 123 196
8 296 210 263 373 405 309 209 295
8 408 312 213 299 297 211 126 199
8 299 213 313 409 199 126 212 298
8 409 313 214 300 298 212 127 200
8 305 216 129 205 411 315 214 300
8 412 318 217 301 302 219 132 202
8 309 223 136 209 412 318 217 301
8 413 320 219 302 303 220 133 203
8 306 221 321 414 206 134 220 303
8 307 218 131 207 415 316 215 304
8 305 216 316 415 205 129 215 304
8 417 322 221 306 308 222 135 208
8 308 222 135 208 418 319 218 307
8 310 225 137 210 420 325 223 309
8 423 326 224 311 310 225 137 210
8 329 236 165 260 441 338 259 368
8 442 342 238 328 333 240 149 230
8 331 237 146 228 443 340 236 329
8 334 241 150 231 444 339 235 330
8 444 339 235 330 331 237 146 228
8 446 343 239 332 336 242 151 233
8 333 240 149 230 446 343 239 332
8 335 243 152 232 448 345 241 334
8 337 244 153 234 449 347 243 335
8 337 244 346 450 234 153 242 336
8 338 245 164 259 452 349 258 367
8 340 247 155 236 453 350 245 338
8 345 252 160 241 454 351 246 339
8 454 351 246 339 341 248 156 237
8 341 248 156 237 455 352 247 340
8 240 159 251 344 342 249 354 457
8 242 161 253 346 343 250 355 458
8 343 250 355 458 240 159 251 344
8 347 254 162 243 460 357 252 345
8 348 255 358 461 244 163 253 346
8 348 255 163 244 462 359 254 347
8 473 360 257 365 363 256 364 482
8 452 349 258 367 365 257 366 485
8 422 324 369 488 311 224 261 371
8 371 261 370 490 263 167 262 372
8 407 311 371 491 296 210 263 373
8 373 263 372 492 295 209 264 374
8 493 385 275 375 442 342 238 328
8 377 276 179 267 493 385 275 375
8 378 274 177 268 494 383 273 376
8 494 383 273 376 377 276 179 267
8 497 382 272 379 378 274 177 268
8 498 381 271 380 379 272 175 269
8 393 297 197 283 498 381 271 380
8 499 387 277 381 382 278 181 272
8 408 312 211 297 499 387 277 381
8 500 388 278 382 384 280 183 274
8 501 389 279 383 386 282 185 276
8 384 280 183 274 501 389 279 383
8 386 282 185 276 503 391 281 385
8 503 391 281 385 457 354 249 342
8 511 408 299 395 393 297 199 285
8 395 299 409 512 285 199 298 394
8 512 409 300 396 394 298 200 286
8 401 305 205 291 514 411 300 396
8 515 412 301 397 398 302 202 288
8 405 309 209 295 515 412 301 397
8 516 413 302 398 399 303 203 289
8 403 306 414 517 293 206 303 399
8 402 307 207 292 518 415 304 400
8 401 305 415 518 291 205 304 400
8 404 308 208 294 520 418 307 402
8 521 417 306 403 404 308 208 294
8 406 310 210 296 523 420 309 405
8 526 423 311 407 406 310 210 296
8 410 314 213 299 527 424 312 408
8 528 425 315 411 409 313 214 300
8 410 314 425 528 299 213 313 409
8 416 317 216 305 530 427 315 411
8 531 430 318 412 413 320 219 302
8 420 325 223 309 531 430 318 412
8 532 432 320 413 414 321 220 303
8 417 322 433 533 306 221 321 414
8 418 319 218 307 534 428 316 415
8 416 317 428 534 305 216 316 415
8 419 323 434 536 308 222 322 417
8 419 323 222 308 537 431 319 418
8 421 327 225 310 539 438 325 420
8 421 327 439 541 310 225 326 423
8 543 437 324 422 423 326 224 311
8 441 338 259 368 559 452 367 486
8 443 340 236 329 560 453 338 441
8 333 240 344 447 442 342 457 561
8 445 341 237 331 562 455 340 443
8 448 345 241 334 563 454 339 444
8 563 454 339 444 445 341 237 331
8 336 242 346 450 446 343 458 565
8 446 343 458 565 333 240 344 447
8 449 347 243 335 567 460 345 448
8 451 348 244 337 568 462 347 449
8 451 348 461 569 337 244 346 450
8 570 463 349 452 473 360 257 365
8 453 350 245 338 570 463 349 452
8 455 352 247 340 571 464 350 453
8 460 357 252 345 572 465 351 454
8 572 465 351 454 456 353 248 341
8 456 353 248 341 573 466 352 455
8 344 251 356 459 457 354 468 575
8 458 355 469 576 344 251 356 459
8 346 253 358 461 458 355 469 576
8 462 359 254 347 578 471 357 460
8 348 255 359 462 461 358 472 579
8 591 474 360 473 475 361 256 363
8 475 361 256 363 594 477 362 479
8 363 256 364 482 479 362 480 603
8 590 473 365 484 481 363 482 605
8 482 364 257 365 606 483 366 485
8 559 452 367 486 484 365 485 607
8 542 436 487 609 422 324 369 488
8 525 422 488 611 407 311 371 491
8 488 369 489 612 371 261 370 490
8 491 371 490 613 373 263 372 492
8 495 386 276 377 614 503 385 493
8 614 503 385 493 561 457 342 442
8 615 501 383 494 495 386 276 377
8 496 384 274 378 615 501 383 494
8 618 500 382 497 496 384 274 378
8 619 499 381 498 497 382 272 379
8 511 408 297 393 619 499 381 498
8 620 505 387 499 500 388 278 382
8 527 424 312 408 620 505 387 499
8 502 390 506 621 384 280 388 500
8 622 507 389 501 504 392 282 386
8 502 390 280 384 622 507 389 501
8 504 392 282 386 624 509 391 503
8 624 509 391 503 575 468 354 457
8 513 410 299 395 630 527 408 511
8 631 528 411 514 512 409 300 396
8 513 410 528 631 395 299 409 512
8 519 416 305 401 633 530 411 514
8 634 531 412 515 516 413 302 398
8 523 420 309 405 634 531 412 515
8 635 532 413 516 517 414 303 399
8 521 417 533 636 403 306 414 517
8 520 418 307 402 637 534 415 518
8 519 416 534 637 401 305 415 518
8 522 419 308 404 639 537 418 520
8 522 419 536 640 404 308 417 521
8 524 421 310 406 642 539 420 523
8 524 421 541 644 406 310 423 526
8 646 543 422 525 526 423 311 407
8 529 426 314 410 647 544 424 527
8 528 425 545 648 411 315 427 530
8 529 426 545 648 410 314 425 528
8 535 429 317 416 649 546 427 530
8 650 548 430 531 532 432 320 413
8 539 438 325 420 650 548 430 531
8 533 433 550 651 414 321 432 532
8 536 434 551 652 417 322 433 533
8 537 431 319 418 653 547 428 534
8 535 429 547 653 416 317 428 534
8 538 435 552 654 419 323 434 536
8 538 435 323 419 655 549 431 537
8 540 440 327 421 657 556 438 539
8 540 440 557 659 421 327 439 541
8 541 439 555 660 423 326 437 543
8 661 554 436 542 543 437 324 422
8 676 570 452 559 590 473 365 484
8 560 453 338 441 676 570 452 559
8 562 455 340 443 677 571 453 560
8 447 344 459 566 561 457 575 678
8 564 456 341 445 679 573 455 562
8 567 460 345 448 680 572 454 563
8 680 572 454 563 564 456 341 445
8 565 458 576 682 447 344 459 566
8 450 346 461 569 565 458 576 682
8 568 462 347 449 684 578 460 567
8 451 348 462 568 569 461 579 685
8 686 580 463 570 591 474 360 473
8 571 464 350 453 686 580 463 570
8 573 466 352 455 687 581 464 571
8 572 465 582 688 460 357 471 578
8 574 467 582 688 456 353 465 572
8 574 467 353 456 689 583 466 573
8 459 356 470 577 575 468 585 691
8 576 469 586 692 459 356 470 577
8 461 358 472 579 576 469 586 692
8 462 359 471 578 579 472 588 694
8 704 591 473 590 593 475 363 481
8 595 476 592 705 475 361 474 591
8 593 475 363 481 707 594 479 602
8 594 477 362 479 709 598 478 600
8 595 476 361 475 711 597 477 594
8 479 362 480 603 600 478 601 720
8 481 363 482 605 602 479 603 722
8 603 480 364 482 723 604 483 606
8 605 482 365 484 724 606 485 607
8 656 553 608 726 542 436 487 609
8 645 542 609 728 525 422 488 611
8 609 487 610 729 488 369 489 612
8 611 488 612 730 491 371 490 613
8 616 504 386 495 731 624 503 614
8 731 624 503 614 678 575 457 561
8 732 622 501 615 616 504 386 495
8 617 502 384 496 732 622 501 615
8 617 502 621 735 496 384 500 618
8 736 620 499 619 618 500 382 497
8 630 527 408 511 736 620 499 619
8 621 506 626 737 500 388 505 620
8 647 544 424 527 737 626 505 620
8 623 508 627 738 502 390 506 621
8 623 508 390 502 739 628 507 622
8 625 510 628 739 504 392 507 622
8 740 629 509 624 691 585 468 575
8 625 510 392 504 740 629 509 624
8 632 529 410 513 744 647 527 630
8 631 528 648 745 514 411 530 633
8 632 529 648 745 513 410 528 631
8 638 535 416 519 746 649 530 633
8 747 650 531 634 635 532 413 516
8 642 539 420 523 747 650 531 634
8 636 533 651 748 517 414 532 635
8 640 536 652 749 521 417 533 636
8 639 537 418 520 750 653 534 637
8 638 535 653 750 519 416 534 637
8 641 538 419 522 751 655 537 639
8 641 538 654 752 522 419 536 640
8 643 540 421 524 753 657 539 642
8 643 540 659 755 524 421 541 644
8 644 541 660 757 526 423 543 646
8 758 661 542 645 646 543 422 525
8 529 426 544 647 648 545 662 759
8 530 427 545 648 649 546 663 760
8 535 429 546 649 653 547 664 761
8 762 666 548 650 651 550 432 532
8 657 556 438 539 762 666 548 650
8 652 551 668 763 533 433 550 651
8 654 552 669 764 536 434 551 652
8 655 549 431 537 765 665 547 653
8 538 435 549 655 654 552 667 766
8 661 554 671 768 542 436 553 656
8 658 558 440 540 769 674 556 657
8 658 558 675 770 540 440 557 659
8 659 557 673 771 541 439 555 660
8 660 555 672 772 543 437 554 661
8 788 686 570 676 704 591 473 590
8 677 571 453 560 788 686 570 676
8 679 573 455 562 789 687 571 677
8 566 459 577 683 678 575 691 790
8 681 574 456 564 791 689 573 679
8 680 572 688 792 567 460 578 684
8 681 574 688 792 564 456 572 680
8 682 576 692 794 566 459 577 683
8 569 461 579 685 682 576 692 794
8 568 462 578 684 685 579 694 796
8 687 581 464 571 798 696 580 686
8 798 696 580 686 705 592 474 591
8 689 583 466 573 799 697 581 687
8 688 582 698 800 578 471 588 694
8 690 584 698 800 574 467 582 688
8 690 584 467 574 801 699 583 689
8 693 587 701 803 577 470 585 691
8 693 587 470 577 804 702 586 692
8 695 589 702 804 579 472 586 692
8 695 589 472 579 805 703 588 694
8 708 595 705 813 593 475 591 704
8 710 596 706 814 595 476 592 705
8 707 594 479 602 816 709 600 719
8 708 595 475 593 817 711 594 707
8 709 598 478 600 819 715 599 717
8 711 597 477 594 820 714 598 709
8 710 596 476 595 822 713 597 711
8 600 478 601 720 717 599 718 832
8 602 479 603 722 719 600 720 834
8 720 601 480 603 835 721 604 723
8 722 603 482 605 836 723 606 724
8 767 670 725 839 656 553 608 726
8 756 656 726 841 645 542 609 728
8 726 608 727 842 609 487 610 729
8 728 609 729 843 611 488 612 730
8 844 740 624 731 790 691 575 678
8 733 625 504 616 844 740 624 731
8 734 623 502 617 845 739 622 732
8 733 625 739 845 616 504 622 732
8 734 623 738 846 617 502 621 735
8 735 621 737 847 618 500 620 736
8 744 647 527 630 847 737 620 736
8 621 506 627 738 737 626 741 848
8 647 544 626 737 759 662 741 848
8 623 508 628 739 738 627 742 849
8 740 629 585 691 850 743 700 802
8 625 510 629 740 739 628 743 850
8 632 529 647 744 745 648 759 854
8 633 530 648 745 746 649 760 855
8 638 535 649 746 750 653 761 856
8 857 762 650 747 748 651 532 635
8 753 657 539 642 857 762 650 747
8 749 652 763 858 636 533 651 748
8 752 654 764 859 640 536 652 749
8 751 655 537 639 860 765 653 750
8 641 538 655 751 752 654 766 861
8 754 658 540 643 862 769 657 753
8 754 658 770 863 643 540 659 755
8 755 659 771 864 644 541 660 757
8 758 661 768 866 645 542 656 756
8 757 660 772 867 646 543 661 758
8 759 662 773 868 648 545 663 760
8 649 546 663 760 761 664 774 871
8 765 665 547 653 872 775 664 761
8 873 777 666 762 763 668 550 651
8 769 674 556 657 873 777 666 762
8 764 669 779 874 652 551 668 763
8 654 552 667 766 764 669 778 875
8 655 549 665 765 766 667 776 876
8 768 671 782 877 656 553 670 767
8 772 672 783 878 661 554 671 768
8 658 558 674 769 770 675 786 879
8 659 557 675 770 771 673 785 881
8 882 784 672 772 771 673 555 660
8 789 687 571 677 897 798 686 788
8 897 798 686 788 813 705 591 704
8 791 689 573 679 898 799 687 789
8 795 693 803 900 683 577 691 790
8 793 690 574 681 901 801 689 791
8 792 688 800 902 684 578 694 796
8 793 690 800 902 681 574 688 792
8 795 693 577 683 903 804 692 794
8 797 695 804 903 685 579 692 794
8 797 695 579 685 904 805 694 796
8 905 806 697 799 798 696 581 687
8 814 706 806 905 705 592 696 798
8 689 583 697 799 801 699 808 907
8 800 698 809 908 694 588 703 805
8 690 584 699 801 800 698 809 908
8 803 701 810 909 691 585 700 802
8 693 587 702 804 803 701 811 910
8 695 589 703 805 804 702 812 911
8 818 710 814 919 708 595 705 813
8 821 712 815 920 710 596 706 814
8 816 709 600 719 922 819 717 831
8 817 711 594 707 923 820 709 816
8 818 710 595 708 924 822 711 817
8 819 715 599 717 926 827 716 829
8 820 714 598 709 927 826 715 819
8 929 825 713 822 820 714 597 711
8 821 712 596 710 930 824 713 822
8 717 599 718 832 829 716 830 942
8 719 600 720 834 831 717 832 944
8 832 718 601 720 945 833 721 835
8 834 720 603 722 946 835 723 836
8 869 780 838 950 767 670 725 839
8 865 767 839 952 756 656 726 841
8 839 725 840 953 726 608 727 842
8 841 726 842 954 728 609 729 843
8 844 740 691 790 955 850 802 899
8 733 625 740 844 845 739 850 955
8 734 623 739 845 846 738 849 956
8 735 621 738 846 847 737 848 957
8 744 647 737 847 854 759 848 957
8 738 627 742 849 848 741 851 958
8 848 741 851 958 759 662 773 868
8 850 743 700 802 959 852 807 906
8 849 742 628 739 959 852 743 850
8 854 759 868 965 745 648 760 855
8 746 649 760 855 856 761 871 966
8 860 765 653 750 967 872 761 856
8 968 873 762 857 858 763 651 748
8 862 769 657 753 968 873 762 857
8 859 764 874 969 749 652 763 858
8 752 654 766 861 859 764 875 970
8 751 655 765 860 861 766 876 971
8 754 658 769 862 863 770 879 972
8 755 659 770 863 864 771 881 974
8 976 882 772 867 864 771 660 757
8 866 768 877 977 756 656 767 865
8 867 772 878 978 758 661 768 866
8 760 663 773 868 871 774 883 980
8 870 781 837 948 982 890 780 869
8 982 890 780 869 877 782 670 767
8 761 664 774 871 872 775 884 984
8 876 776 665 765 985 885 775 872
8 873 777 668 763 986 887 779 874
8 769 674 777 873 879 786 887 986
8 764 669 778 875 874 779 888 987
8 766 667 776 876 875 778 886 988
8 878 783 892 989 768 671 782 877
8 878 783 672 772 990 893 784 882
8 880 787 675 770 991 896 786 879
8 880 787 895 992 770 675 785 881
8 881 785 894 993 771 673 784 882
8 1006 905 799 898 897 798 687 789
8 919 814 905 1006 813 705 798 897
8 791 689 799 898 901 801 907 1007
8 900 803 909 1009 790 691 802 899
8 795 693 804 903 900 803 910 1010
8 902 800 908 1011 796 694 805 904
8 793 690 801 901 902 800 908 1011
8 797 695 805 904 903 804 911 1012
8 799 697 806 905 907 808 912 1013
8 920 815 912 1013 814 706 806 905
8 802 700 810 909 906 807 913 1014
8 801 699 808 907 908 809 914 1015
8 805 703 809 908 911 812 915 1016
8 803 701 811 910 909 810 916 1017
8 911 812 917 1018 804 702 811 910
8 925 821 920 1030 818 710 814 919
8 928 823 921 1031 821 712 815 920
8 922 819 717 831 1033 926 829 941
8 923 820 709 816 1034 927 819 922
8 1035 929 822 924 923 820 711 817
8 925 821 710 818 1036 930 822 924
8 1038 933 825 929 927 826 714 820
8 926 827 716 829 1039 935 828 939
8 927 826 715 819 1040 934 827 926
8 928 823 712 821 1041 931 824 930
8 1042 932 824 930 929 825 713 822
8 829 716 830 942 939 828 940 1058
8 831 717 832 944 941 829 942 1060
8 942 830 718 832 1061 943 833 945
8 944 832 720 834 1062 945 835 946
8 981 889 947 1064 870 781 837 948
8 948 837 949 1067 869 780 838 950
8 975 869 950 1069 865 767 839 952
8 950 838 951 1070 839 725 840 953
8 952 839 953 1071 841 726 842 954
8 955 850 802 899 1072 959 906 1008
8 956 849 739 845 1072 959 850 955
8 846 738 849 956 957 848 958 1073
8 957 848 958 1073 854 759 868 965
8 849 742 852 959 958 851 961 1076
8 960 853 961 1076 906 807 852 959
8 958 851 961 1076 868 773 883 980
8 960 853 807 906 1077 963 913 1014
8 855 760 868 965 966 871 980 1085
8 856 761 871 966 967 872 984 1086
8 971 876 765 860 1087 985 872 967
8 968 873 763 858 1088 986 874 969
8 862 769 873 968 972 879 986 1088
8 859 764 875 970 969 874 987 1089
8 861 766 876 971 970 875 988 1090
8 973 880 770 863 1091 991 879 972
8 973 880 992 1092 863 770 881 974
8 974 881 993 1093 864 771 882 976
8 979 870 948 1066 1094 982 869 975
8 1094 982 869 975 977 877 767 865
8 978 878 772 867 1095 990 882 976
8 978 878 989 1096 866 768 877 977
8 871 774 883 980 984 884 994 1099
8 983 891 999 1100 870 781 889 981
8 1101 1000 890 982 989 892 782 877
8 983 891 781 870 1101 1000 890 982
8 872 775 884 984 985 885 995 1103
8 876 776 885 985 988 886 996 1104
8 986 887 779 874 1105 998 888 987
8 879 786 887 986 991 896 998 1105
8 875 778 886 988 987 888 997 1106
8 990 893 1002 1107 878 783 892 989
8 1108 1003 893 990 993 894 784 882
8 880 787 896 991 992 895 1005 1109
8 993 894 785 881 1110 1004 895 992
8 898 799 905 1006 1007 907 1013 1120
8 1030 920 1013 1120 919 814 905 1006
8 901 801 907 1007 1011 908 1015 1121
8 899 802 909 1009 1008 906 1014 1122
8 900 803 910 1010 1009 909 1017 1123
8 1012 911 1018 1124 903 804 910 1010
8 904 805 908 1011 1012 911 1016 1125
8 1013 912 1020 1127 907 808 914 1015
8 1031 921 1020 1127 920 815 912 1013
8 1019 918 962 1075 1128 1021 913 1014
8 1128 1021 913 1014 1017 916 810 909
8 1015 914 1022 1129 908 809 915 1016
8 1016 915 1023 1130 911 812 917 1018
8 1018 917 1024 1131 910 811 916 1017
8 1037 928 1031 1148 925 821 920 1030
8 928 823 931 1041 1031 921 1032 1149
8 1033 926 829 941 1151 1039 939 1057
8 1034 927 819 922 1152 1040 926 1033
8 1153 1038 929 1035 1034 927 820 923
8 1154 1042 930 1036 1035 929 822 924
8 1037 928 821 925 1155 1041 930 1036
8 1039 935 828 939 1156 1047 938 1055
8 1157 1043 932 1042 1038 933 825 929
8 1038 933 826 927 1158 1045 934 1040
8 1040 934 827 926 1159 1046 935 1039
8 930 824 932 1042 1041 931 1044 1160
8 1051 936 1048 1165 1175 1052 937 1053
8 1156 1047 938 1055 1053 937 1054 1178
8 939 828 940 1058 1055 938 1056 1181
8 941 829 942 1060 1057 939 1058 1183
8 942 830 943 1061 1058 940 1059 1184
8 1060 942 832 944 1185 1061 945 1062
8 1082 964 1063 1188 981 889 947 1064
8 1097 981 1064 1190 979 870 948 1066
8 1064 947 1065 1191 948 837 949 1067
8 1066 948 1067 1193 975 869 950 1069
8 1067 949 1068 1194 950 838 951 1070
8 1069 950 1070 1195 952 839 953 1071
8 956 849 959 1072 1073 958 1076 1197
8 1074 960 1076 1197 1008 906 959 1072
8 1073 958 1076 1197 965 868 980 1085
8 1074 960 906 1008 1198 1077 1014 1122
8 1133 1026 1079 1199 1019 918 962 1075
8 1077 963 913 1014 1200 1080 962 1075
8 960 853 963 1077 1076 961 1078 1201
8 980 883 961 1076 1099 994 1078 1201
8 1210 1083 964 1082 1100 999 889 981
8 966 871 980 1085 1086 984 1099 1215
8 967 872 984 1086 1087 985 1103 1216
8 971 876 985 1087 1090 988 1104 1217
8 1088 986 874 969 1218 1105 987 1089
8 972 879 986 1088 1091 991 1105 1218
8 970 875 988 1090 1089 987 1106 1219
8 973 880 991 1091 1092 992 1109 1220
8 1093 993 881 974 1221 1110 992 1092
8 1222 1108 990 1095 1093 993 882 976
8 1223 1101 982 1094 1096 989 877 977
8 1098 983 870 979 1223 1101 982 1094
8 1095 990 1107 1224 978 878 989 1096
8 1098 983 1100 1225 979 870 981 1097
8 984 884 994 1099 1103 995 1111 1227
8 1102 1001 1115 1228 983 891 999 1100
8 1101 1000 892 989 1229 1116 1002 1107
8 1102 1001 891 983 1229 1116 1000 1101
8 985 885 995 1103 1104 996 1112 1230
8 988 886 996 1104 1106 997 1113 1231
8 1105 998 888 987 1232 1114 997 1106
8 991 896 998 1105 1109 1005 1114 1232
8 1108 1003 1117 1233 990 893 1002 1107
8 1108 1003 894 993 1233 1117 1004 1110
8 992 895 1005 1109 1110 1004 1118 1234
8 1120 1013 1127 1244 1007 907 1015 1121
8 1148 1031 1127 1244 1030 920 1013 1120
8 1121 1015 1129 1245 1011 908 1016 1125
8 1126 1019 1075 1196 1246 1128 1014 1122
8 1246 1128 1014 1122 1123 1017 909 1009
8 1124 1018 1131 1247 1010 910 1017 1123
8 1125 1016 1130 1248 1012 911 1018 1124
8 1127 1020 1137 1254 1015 914 1022 1129
8 1031 921 1032 1149 1127 1020 1137 1254
8 1134 1027 918 1019 1257 1140 1021 1128
8 1257 1140 1021 1128 1131 1024 916 1017
8 1129 1022 1141 1258 1016 915 1023 1130
8 1130 1023 1142 1259 1018 917 1024 1131
8 1261 1144 1025 1132 1133 1026 1079 1199
8 1255 1138 1025 1132 1135 1028 1144 1261
8 1133 1026 918 1019 1262 1145 1027 1134
8 1136 1029 1139 1256 1263 1146 1028 1135
8 1037 928 1041 1155 1148 1031 1149 1275
8 1041 931 1044 1160 1149 1032 1150 1276
8 1151 1039 939 1057 1278 1156 1055 1180
8 1152 1040 926 1033 1279 1159 1039 1151
8 1153 1038 927 1034 1280 1158 1040 1152
8 1281 1157 1042 1154 1153 1038 929 1035
8 1036 930 1042 1154 1155 1041 1160 1282
8 1283 1164 1046 1159 1156 1047 935 1039
8 1165 1048 1164 1283 1053 937 1047 1156
8 1157 1043 933 1038 1284 1161 1045 1158
8 1157 1043 1161 1284 1042 932 1044 1160
8 1040 934 1046 1159 1158 1045 1163 1285
8 1166 1049 1167 1292 1051 936 1048 1165
8 1166 1049 936 1051 1293 1168 1050 1172
8 1051 936 1052 1175 1172 1050 1173 1306
8 1174 1051 1165 1290 1308 1175 1053 1177
8 1053 937 1054 1178 1175 1052 1176 1309
8 1278 1156 1055 1180 1177 1053 1178 1311
8 1055 938 1056 1181 1178 1054 1179 1312
8 1057 939 1058 1183 1180 1055 1181 1314
8 1058 940 1059 1184 1181 1056 1182 1315
8 1060 942 1061 1185 1183 1058 1184 1316
8 1208 1081 1187 1321 1082 964 1063 1188
8 1209 1082 1188 1322 1097 981 1064 1190
8 1188 1063 1189 1323 1064 947 1065 1191
8 1190 1064 1191 1325 1066 948 1067 1193
8 1191 1065 1192 1326 1067 949 1068 1194
8 1067 1193 1069 950 1194 1327 1195 1070
8 1250 1133 1199 1330 1126 1019 1075 1196
8 1198 1077 1014 1122 1331 1200 1075 1196
8 1074 960 1077 1198 1197 1076 1201 1332
8 1085 980 1076 1197 1215 1099 1201 1332
8 1199 1079 1203 1333 1075 962 1080 1200
8 1132 1025 1119 1243 1199 1079 1203 1333
8 1201 1078 963 1077 1334 1202 1080 1200
8 1099 994 1078 1201 1227 1111 1202 1334
8 1343 1207 1081 1208 1210 1083 964 1082
8 1214 1084 1186 1319 1343 1207 1081 1208
8 1345 1210 1082 1209 1225 1100 981 1097
8 1346 1211 1083 1210 1228 1115 999 1100
8 1086 984 1099 1215 1216 1103 1227 1352
8 1087 985 1103 1216 1217 1104 1230 1353
8 1090 988 1104 1217 1219 1106 1231 1354
8 1218 1105 987 1089 1355 1232 1106 1219
8 1091 991 1105 1218 1220 1109 1232 1355
8 1092 992 1109 1220 1221 1110 1234 1356
8 1222 1108 1233 1357 1095 990 1107 1224
8 1222 1108 993 1093 1357 1233 1110 1221
8 1223 1101 989 1096 1358 1229 1107 1224
8 1226 1102 983 1098 1358 1229 1101 1223
8 1226 1102 1228 1359 1098 983 1100 1225
8 1103 995 1111 1227 1230 1112 1235 1360
8 1107 1002 1117 1233 1229 1116 1240 1362
8 1102 1001 1116 1229 1228 1115 1240 1362
8 1104 996 1112 1230 1231 1113 1236 1363
8 1364 1237 1114 1232 1231 1113 997 1106
8 1109 1005 1114 1232 1234 1118 1238 1365
8 1110 1004 1118 1234 1233 1117 1241 1366
8 1242 1374 1255 1138 1119 1243 1132 1025
8 1244 1127 1254 1376 1121 1015 1129 1245
8 1148 1031 1149 1275 1244 1127 1254 1376
8 1245 1129 1258 1377 1125 1016 1130 1248
8 1251 1134 1019 1126 1378 1257 1128 1246
8 1378 1257 1128 1246 1247 1131 1017 1123
8 1248 1130 1259 1379 1124 1018 1131 1247
8 1261 1381 1250 1133 1132 1249 1330 1199
8 1255 1380 1252 1135 1132 1249 1381 1261
8 1250 1133 1019 1126 1382 1262 1134 1251
8 1253 1136 1256 1385 1384 1263 1135 1252
8 1254 1137 1265 1387 1129 1022 1141 1258
8 1149 1032 1150 1276 1254 1137 1265 1387
8 1028 1135 1255 1138 1139 1256 1388 1266
8 1136 1029 1147 1264 1256 1139 1267 1389
8 1390 1268 1140 1257 1259 1142 1024 1131
8 1260 1143 1027 1134 1390 1268 1140 1257
8 1258 1141 1269 1391 1130 1023 1142 1259
8 1262 1145 1027 1134 1393 1271 1143 1260
8 1261 1144 1026 1133 1394 1272 1145 1262
8 1135 1028 1144 1261 1263 1146 1272 1394
8 1136 1029 1146 1263 1264 1147 1273 1395
8 1155 1041 1160 1282 1275 1149 1276 1405
8 1276 1150 1044 1160 1406 1277 1162 1286
8 1408 1283 1159 1279 1278 1156 1039 1151
8 1290 1165 1283 1408 1177 1053 1156 1278
8 1152 1040 1159 1279 1280 1158 1285 1409
8 1281 1157 1038 1153 1410 1284 1158 1280
8 1281 1157 1284 1410 1154 1042 1160 1282
8 1159 1046 1164 1283 1285 1163 1289 1412
8 1292 1167 1289 1412 1165 1048 1164 1283
8 1158 1045 1163 1285 1284 1161 1288 1413
8 1284 1161 1288 1413 1160 1044 1162 1286
8 1291 1166 1292 1418 1174 1051 1165 1290
8 1291 1166 1051 1174 1419 1293 1172 1305
8 1294 1169 1296 1421 1166 1049 1167 1292
8 1293 1168 1050 1172 1422 1295 1171 1303
8 1294 1169 1049 1166 1423 1297 1168 1293
8 1422 1295 1171 1303 1301 1170 1302 1435
8 1172 1050 1173 1306 1303 1171 1304 1438
8 1174 1051 1175 1308 1305 1172 1306 1440
8 1175 1052 1176 1309 1306 1173 1307 1441
8 1177 1053 1178 1311 1308 1175 1309 1443
8 1178 1054 1179 1312 1309 1176 1310 1444
8 1180 1055 1181 1314 1311 1178 1312 1446
8 1056 1181 1312 1179 1182 1315 1447 1313
8 1183 1058 1184 1316 1314 1181 1315 1448
8 1319 1186 1084 1214 1451 1317 1213 1350
8 1319 1186 1318 1453 1208 1081 1187 1321
8 1321 1187 1320 1456 1188 1063 1189 1323
8 1344 1208 1321 1457 1209 1082 1188 1322
8 1322 1188 1323 1458 1190 1064 1191 1325
8 1323 1189 1324 1459 1191 1065 1192 1326
8 1191 1325 1193 1067 1326 1460 1327 1194
8 1242 1374 1243 1119 1328 1462 1335 1204
8 1330 1199 1333 1465 1196 1075 1200 1331
8 1132 1249 1330 1199 1243 1375 1465 1333
8 1332 1201 1077 1198 1466 1334 1200 1331
8 1215 1099 1201 1332 1352 1227 1334 1466
8 1119 1243 1333 1203 1204 1335 1470 1338
8 1333 1203 1338 1470 1200 1080 1202 1334
8 1227 1111 1202 1334 1360 1235 1338 1470
8 1328 1462 1335 1204 1205 1336 1471 1339
8 1337 1206 1340 1472 1464 1329 1205 1336
8 1346 1211 1342 1479 1210 1083 1207 1343
8 1346 1211 1115 1228 1479 1342 1239 1361
8 1348 1212 1084 1214 1479 1342 1207 1343
8 1480 1343 1208 1344 1345 1210 1082 1209
8 1351 1214 1319 1454 1480 1343 1208 1344
8 1481 1346 1210 1345 1359 1228 1100 1225
8 1348 1212 1347 1483 1214 1084 1213 1350
8 1216 1103 1227 1352 1353 1230 1360 1488
8 1217 1104 1230 1353 1354 1231 1363 1489
8 1490 1364 1232 1355 1354 1231 1106 1219
8 1220 1109 1232 1355 1356 1234 1365 1491
8 1221 1110 1234 1356 1357 1233 1366 1492
8 1224 1107 1233 1357 1358 1229 1362 1493
8 1226 1102 1229 1358 1359 1228 1362 1493
8 1230 1112 1235 1360 1363 1236 1367 1496
8 1361 1239 1115 1228 1497 1371 1240 1362
8 1366 1241 1372 1498 1233 1117 1240 1362
8 1364 1237 1113 1231 1499 1368 1236 1363
8 1364 1237 1368 1499 1232 1114 1238 1365
8 1234 1118 1238 1365 1366 1241 1369 1500
8 1507 1373 1242 1374 1388 1266 1138 1255
8 1508 1374 1243 1375 1380 1255 1132 1249
8 1376 1254 1387 1509 1245 1129 1258 1377
8 1275 1149 1276 1405 1376 1254 1387 1509
8 1377 1258 1391 1510 1248 1130 1259 1379
8 1511 1390 1257 1378 1379 1259 1131 1247
8 1383 1260 1134 1251 1511 1390 1257 1378
8 1252 1135 1256 1385 1380 1255 1388 1512
8 1261 1381 1513 1394 1133 1250 1382 1262
8 1135 1252 1384 1263 1261 1381 1513 1394
8 1382 1262 1134 1251 1514 1393 1260 1383
8 1253 1136 1263 1384 1386 1264 1395 1516
8 1253 1136 1264 1386 1385 1256 1389 1517
8 1387 1265 1397 1519 1258 1141 1269 1391
8 1276 1150 1277 1406 1387 1265 1397 1519
8 1256 1139 1267 1389 1388 1266 1398 1520
8 1264 1147 1274 1396 1389 1267 1399 1521
8 1392 1270 1143 1260 1522 1400 1268 1390
8 1390 1268 1142 1259 1522 1400 1269 1391
8 1392 1270 1401 1523 1260 1143 1271 1393
8 1272 1394 1524 1402 1145 1262 1393 1271
8 1395 1273 1146 1263 1524 1402 1272 1394
8 1273 1395 1264 1147 1403 1526 1396 1274
8 1405 1276 1160 1282 1534 1406 1286 1411
8 1414 1287 1407 1535 1286 1162 1277 1406
8 1279 1159 1283 1408 1409 1285 1412 1537
8 1418 1292 1412 1537 1290 1165 1283 1408
8 1280 1158 1285 1409 1410 1284 1413 1538
8 1410 1284 1413 1538 1282 1160 1286 1411
8 1285 1163 1289 1412 1413 1288 1417 1540
8 1421 1296 1417 1540 1292 1167 1289 1412
8 1414 1287 1162 1286 1541 1416 1288 1413
8 1420 1294 1421 1545 1291 1166 1292 1418
8 1419 1293 1172 1305 1546 1422 1303 1437
8 1420 1294 1166 1291 1547 1423 1293 1419
8 1294 1169 1297 1423 1421 1296 1425 1548
8 1423 1297 1168 1293 1549 1424 1295 1422
8 1301 1170 1298 1427 1422 1295 1424 1549
8 1432 1300 1428 1554 1301 1170 1298 1427
8 1431 1299 1428 1554 1560 1430 1300 1432
8 1563 1433 1300 1432 1435 1302 1170 1301
8 1546 1422 1303 1437 1434 1301 1435 1565
8 1303 1171 1304 1438 1435 1302 1436 1566
8 1305 1172 1306 1440 1437 1303 1438 1568
8 1306 1173 1307 1441 1438 1304 1439 1569
8 1308 1175 1309 1443 1440 1306 1441 1571
8 1309 1176 1310 1444 1441 1307 1442 1572
8 1311 1178 1312 1446 1443 1309 1444 1574
8 1179 1312 1444 1310 1313 1447 1575 1445
8 1314 1181 1315 1448 1446 1312 1447 1576
8 1350 1213 1349 1486 1451 1317 1449 1579
8 1451 1317 1450 1581 1319 1186 1318 1453
8 1454 1319 1214 1351 1582 1451 1350 1487
8 1453 1318 1452 1584 1321 1187 1320 1456
8 1454 1319 1453 1585 1344 1208 1321 1457
8 1456 1320 1455 1586 1323 1189 1324 1459
8 1457 1321 1456 1587 1322 1188 1323 1458
8 1458 1323 1459 1588 1325 1191 1326 1460
8 1205 1336 1464 1329 1328 1462 1590 1461
8 1507 1373 1461 1590 1374 1242 1328 1462
8 1508 1374 1462 1591 1375 1243 1335 1467
8 1337 1206 1329 1464 1473 1341 1463 1594
8 1375 1243 1335 1467 1465 1333 1470 1596
8 1465 1333 1470 1596 1331 1200 1334 1466
8 1352 1227 1334 1466 1488 1360 1470 1596
8 1591 1462 1336 1468 1467 1335 1471 1597
8 1469 1337 1472 1598 1595 1464 1336 1468
8 1471 1339 1474 1600 1335 1204 1338 1470
8 1600 1474 1367 1496 1470 1338 1235 1360
8 1336 1205 1340 1472 1471 1339 1475 1601
8 1337 1206 1341 1473 1472 1340 1476 1602
8 1495 1370 1478 1609 1361 1239 1342 1479
8 1348 1212 1342 1479 1483 1347 1478 1609
8 1481 1346 1479 1610 1345 1210 1343 1480
8 1481 1346 1228 1359 1610 1479 1361 1494
8 1484 1348 1214 1351 1610 1479 1343 1480
8 1483 1347 1482 1612 1350 1213 1349 1486
8 1484 1348 1483 1613 1351 1214 1350 1487
8 1353 1230 1360 1488 1489 1363 1496 1616
8 1490 1364 1231 1354 1617 1499 1363 1489
8 1490 1364 1499 1617 1355 1232 1365 1491
8 1356 1234 1365 1491 1492 1366 1500 1619
8 1492 1366 1498 1620 1357 1233 1362 1493
8 1494 1361 1228 1359 1621 1497 1362 1493
8 1495 1370 1239 1361 1622 1504 1371 1497
8 1363 1236 1367 1496 1499 1368 1501 1623
8 1497 1371 1240 1362 1624 1505 1372 1498
8 1625 1503 1372 1498 1500 1369 1241 1366
8 1365 1238 1368 1499 1500 1369 1502 1626
8 1520 1398 1506 1633 1388 1266 1373 1507
8 1634 1507 1374 1508 1512 1388 1255 1380
8 1509 1387 1519 1635 1377 1258 1391 1510
8 1405 1276 1406 1534 1509 1387 1519 1635
8 1515 1392 1260 1383 1636 1522 1390 1511
8 1511 1390 1259 1379 1636 1522 1391 1510
8 1385 1256 1389 1517 1512 1388 1520 1637
8 1513 1394 1262 1382 1638 1524 1393 1514
8 1395 1516 1638 1524 1263 1384 1513 1394
8 1515 1392 1523 1639 1383 1260 1393 1514
8 1516 1395 1526 1640 1386 1264 1396 1518
8 1386 1264 1396 1518 1517 1389 1521 1641
8 1519 1397 1527 1643 1391 1269 1400 1522
8 1535 1407 1527 1643 1406 1277 1397 1519
8 1389 1267 1399 1521 1520 1398 1528 1644
8 1645 1529 1399 1521 1525 1404 1274 1396
8 1392 1270 1400 1522 1523 1401 1531 1646
8 1524 1402 1271 1393 1648 1532 1401 1523
8 1403 1526 1648 1532 1273 1395 1524 1402
8 1525 1404 1274 1396 1649 1533 1403 1526
8 1539 1414 1535 1657 1411 1286 1406 1534
8 1542 1415 1536 1658 1414 1287 1407 1535
8 1409 1285 1412 1537 1538 1413 1540 1660
8 1545 1421 1540 1660 1418 1292 1412 1537
8 1539 1414 1286 1411 1661 1541 1413 1538
8 1540 1417 1544 1663 1413 1288 1416 1541
8 1421 1296 1425 1548 1540 1417 1544 1663
8 1542 1415 1287 1414 1664 1543 1416 1541
8 1420 1294 1423 1547 1545 1421 1548 1666
8 1547 1423 1293 1419 1667 1549 1422 1546
8 1434 1301 1427 1553 1546 1422 1549 1667
8 1423 1297 1424 1549 1548 1425 1550 1668
8 1551 1426 1550 1668 1427 1298 1424 1549
8 1551 1426 1298 1427 1671 1552 1428 1554
8 1562 1432 1554 1674 1434 1301 1427 1553
8 1431 1299 1429 1558 1554 1428 1555 1675
8 1431 1299 1430 1560 1558 1429 1557 1680
8 1560 1430 1300 1432 1683 1559 1433 1563
8 1561 1431 1554 1674 1684 1560 1432 1562
8 1685 1563 1432 1562 1565 1435 1301 1434
8 1435 1302 1436 1566 1563 1433 1564 1686
8 1437 1303 1438 1568 1565 1435 1566 1688
8 1438 1304 1439 1569 1566 1436 1567 1689
8 1440 1306 1441 1571 1568 1438 1569 1691
8 1441 1307 1442 1572 1569 1439 1570 1692
8 1443 1309 1444 1574 1571 1441 1572 1694
8 1310 1444 1572 1442 1445 1575 1695 1573
8 1446 1312 1447 1576 1574 1444 1575 1696
8 1486 1349 1485 1614 1579 1449 1577 1699
8 1451 1317 1449 1579 1581 1450 1578 1701
8 1487 1350 1486 1615 1582 1451 1579 1702
8 1581 1450 1580 1704 1453 1318 1452 1584
8 1582 1451 1581 1705 1454 1319 1453 1585
8 1584 1452 1583 1706 1456 1320 1455 1586
8 1585 1453 1584 1707 1457 1321 1456 1587
8 1587 1456 1586 1708 1458 1323 1459 1588
8 1633 1506 1589 1710 1507 1373 1461 1590
8 1464 1329 1461 1590 1594 1463 1589 1710
8 1468 1336 1462 1591 1595 1464 1590 1711
8 1634 1507 1590 1711 1508 1374 1462 1591
8 1473 1341 1463 1594 1603 1477 1593 1716
8 1469 1337 1464 1595 1599 1473 1594 1717
8 1471 1597 1467 1335 1600 1718 1596 1470
8 1718 1600 1496 1616 1596 1470 1360 1488
8 1336 1468 1597 1471 1472 1598 1719 1601
8 1469 1337 1473 1599 1598 1472 1602 1720
8 1722 1604 1501 1623 1600 1474 1367 1496
8 1475 1601 1471 1339 1604 1722 1600 1474
8 1602 1476 1605 1723 1472 1340 1475 1601
8 1476 1602 1724 1606 1341 1473 1603 1477
8 1483 1347 1478 1609 1612 1482 1608 1731
8 1495 1370 1504 1622 1609 1478 1608 1731
8 1618 1495 1609 1732 1494 1361 1479 1610
8 1484 1348 1479 1610 1613 1483 1609 1732
8 1486 1349 1482 1612 1614 1485 1611 1733
8 1613 1483 1612 1734 1487 1350 1486 1615
8 1489 1363 1496 1616 1617 1499 1623 1736
8 1491 1365 1499 1617 1619 1500 1626 1737
8 1618 1495 1361 1494 1738 1622 1497 1621
8 1739 1625 1498 1620 1619 1500 1366 1492
8 1621 1497 1362 1493 1740 1624 1498 1620
8 1742 1631 1504 1622 1624 1505 1371 1497
8 1743 1628 1502 1626 1623 1501 1368 1499
8 1744 1630 1505 1624 1625 1503 1372 1498
8 1745 1629 1503 1625 1626 1502 1369 1500
8 1520 1398 1528 1644 1633 1506 1632 1751
8 1637 1520 1633 1752 1512 1388 1507 1634
8 1635 1519 1643 1753 1510 1391 1522 1636
8 1657 1535 1643 1753 1534 1406 1519 1635
8 1515 1392 1522 1636 1639 1523 1646 1754
8 1517 1389 1521 1641 1637 1520 1644 1755
8 1524 1638 1756 1648 1393 1514 1639 1523
8 1640 1526 1395 1516 1756 1648 1524 1638
8 1642 1525 1396 1518 1757 1649 1526 1640
8 1758 1645 1521 1641 1642 1525 1396 1518
8 1646 1531 1400 1522 1760 1650 1527 1643
8 1535 1407 1536 1658 1643 1527 1650 1760
8 1521 1399 1529 1645 1644 1528 1651 1761
8 1647 1530 1652 1762 1525 1404 1529 1645
8 1401 1523 1648 1532 1531 1646 1763 1655
8 1525 1404 1533 1649 1647 1530 1654 1765
8 1533 1649 1766 1656 1403 1526 1648 1532
8 1662 1542 1658 1774 1539 1414 1535 1657
8 1542 1415 1543 1664 1658 1536 1659 1775
8 1660 1540 1663 1777 1538 1413 1541 1661
8 1545 1421 1548 1666 1660 1540 1663 1777
8 1662 1542 1414 1539 1778 1664 1541 1661
8 1664 1543 1416 1541 1779 1665 1544 1663
8 1548 1425 1550 1668 1663 1544 1665 1779
8 1547 1423 1549 1667 1666 1548 1668 1781
8 1670 1551 1668 1781 1553 1427 1549 1667
8 1551 1426 1552 1671 1668 1550 1669 1782
8 1670 1551 1427 1553 1784 1671 1554 1674
8 1675 1555 1672 1785 1554 1428 1552 1671
8 1678 1556 1673 1789 1558 1429 1555 1675
8 1561 1431 1558 1681 1674 1554 1675 1790
8 1794 1677 1556 1678 1680 1557 1429 1558
8 1560 1430 1559 1683 1680 1557 1679 1797
8 1561 1431 1560 1684 1681 1558 1680 1798
8 1563 1433 1564 1686 1683 1559 1682 1800
8 1684 1560 1432 1562 1801 1683 1563 1685
8 1565 1435 1566 1688 1685 1563 1686 1802
8 1566 1436 1567 1689 1686 1564 1687 1803
8 1568 1438 1569 1691 1688 1566 1689 1805
8 1569 1439 1570 1692 1689 1567 1690 1806
8 1571 1441 1572 1694 1691 1569 1692 1808
8 1442 1572 1692 1570 1573 1695 1809 1693
8 1574 1444 1575 1696 1694 1572 1695 1810
8 1614 1485 1592 1712 1699 1577 1697 1813
8 1579 1449 1577 1699 1701 1578 1698 1815
8 1615 1486 1614 1735 1702 1579 1699 1816
8 1701 1578 1700 1818 1581 1450 1580 1704
8 1582 1451 1579 1702 1705 1581 1701 1819
8 1704 1580 1703 1820 1584 1452 1583 1706
8 1705 1581 1704 1821 1585 1453 1584 1707
8 1707 1584 1706 1822 1587 1456 1586 1708
8 1710 1589 1506 1633 1824 1709 1632 1751
8 1594 1463 1589 1710 1716 1593 1709 1824
8 1752 1633 1710 1825 1634 1507 1590 1711
8 1595 1464 1590 1711 1717 1594 1710 1825
8 1830 1714 1592 1712 1733 1611 1485 1614
8 1603 1477 1593 1716 1725 1607 1715 1834
8 1599 1473 1594 1717 1721 1603 1716 1835
8 1837 1722 1623 1736 1718 1600 1496 1616
8 1719 1601 1722 1837 1597 1471 1600 1718
8 1602 1720 1598 1472 1723 1838 1719 1601
8 1720 1602 1473 1599 1839 1724 1603 1721
8 1723 1605 1726 1840 1601 1475 1604 1722
8 1840 1726 1628 1743 1722 1604 1501 1623
8 1724 1606 1727 1841 1602 1476 1605 1723
8 1725 1607 1728 1842 1603 1477 1606 1724
8 1612 1482 1608 1731 1733 1611 1730 1849
8 1741 1627 1730 1849 1622 1504 1608 1731
8 1613 1483 1609 1732 1734 1612 1731 1850
8 1618 1495 1622 1738 1732 1609 1731 1850
8 1615 1486 1612 1734 1735 1614 1733 1851
8 1852 1743 1626 1737 1736 1623 1499 1617
8 1853 1745 1625 1739 1737 1626 1500 1619
8 1855 1742 1622 1738 1740 1624 1497 1621
8 1856 1744 1624 1740 1739 1625 1498 1620
8 1741 1627 1504 1622 1857 1746 1631 1742
8 1742 1631 1505 1624 1858 1749 1630 1744
8 1859 1747 1629 1745 1743 1628 1502 1626
8 1860 1748 1630 1744 1745 1629 1503 1625
8 1644 1528 1651 1761 1751 1632 1750 1865
8 1637 1520 1644 1755 1752 1633 1751 1866
8 1754 1646 1522 1636 1867 1760 1643 1753
8 1657 1535 1658 1774 1753 1643 1760 1867
8 1639 1523 1646 1754 1756 1648 1763 1868
8 1641 1521 1645 1758 1755 1644 1761 1869
8 1757 1649 1526 1640 1870 1766 1648 1756
8 1642 1525 1649 1757 1759 1647 1765 1871
8 1759 1647 1762 1872 1642 1525 1645 1758
8 1760 1650 1767 1874 1646 1531 1655 1763
8 1658 1536 1659 1775 1760 1650 1767 1874
8 1762 1652 1768 1875 1645 1529 1651 1761
8 1764 1653 1769 1876 1647 1530 1652 1762
8 1656 1766 1877 1773 1532 1648 1763 1655
8 1771 1879 1765 1654 1653 1764 1647 1530
8 1533 1649 1765 1654 1656 1766 1880 1772
8 1662 1542 1664 1778 1774 1658 1775 1887
8 1664 1543 1665 1779 1775 1659 1776 1888
8 1778 1664 1541 1661 1890 1779 1663 1777
8 1666 1548 1668 1781 1777 1663 1779 1890
8 1782 1669 1780 1891 1668 1550 1665 1779
8 1670 1551 1671 1784 1781 1668 1782 1893
8 1671 1552 1672 1785 1782 1669 1783 1894
8 1790 1675 1785 1896 1674 1554 1671 1784
8 1675 1555 1673 1789 1785 1672 1786 1897
8 1792 1676 1788 1903 1678 1556 1673 1789
8 1795 1678 1789 1904 1681 1558 1675 1790
8 1792 1676 1556 1678 1906 1791 1677 1794
8 1680 1557 1679 1797 1794 1677 1793 1909
8 1910 1794 1678 1795 1798 1680 1558 1681
8 1683 1559 1682 1800 1797 1679 1796 1912
8 1684 1560 1683 1801 1798 1680 1797 1913
8 1686 1564 1687 1803 1800 1682 1799 1915
8 1685 1563 1686 1802 1801 1683 1800 1916
8 1688 1566 1689 1805 1802 1686 1803 1917
8 1689 1567 1690 1806 1803 1687 1804 1918
8 1691 1569 1692 1808 1805 1689 1806 1920
8 1692 1570 1693 1809 1806 1690 1807 1921
8 1694 1572 1695 1810 1808 1692 1809 1922
8 1829 1713 1811 1926 1712 1592 1697 1813
8 1813 1697 1812 1928 1699 1577 1698 1815
8 1735 1614 1712 1828 1816 1699 1813 1929
8 1815 1698 1814 1931 1701 1578 1700 1818
8 1702 1579 1699 1816 1819 1701 1815 1932
8 1818 1700 1817 1933 1704 1580 1703 1820
8 1819 1701 1818 1934 1705 1581 1704 1821
8 1821 1704 1820 1935 1707 1584 1706 1822
8 1824 1709 1632 1751 1937 1823 1750 1865
8 1716 1593 1709 1824 1834 1715 1823 1937
8 1825 1710 1633 1752 1938 1824 1751 1866
8 1717 1594 1710 1825 1835 1716 1824 1938
8 1945 1830 1712 1828 1851 1733 1614 1735
8 1830 1714 1831 1946 1712 1592 1713 1829
8 1947 1832 1714 1830 1849 1730 1611 1733
8 1843 1729 1607 1725 1950 1833 1715 1834
8 1721 1603 1716 1835 1836 1725 1834 1951
8 1836 1725 1842 1953 1721 1603 1724 1839
8 1723 1838 1719 1601 1840 1954 1837 1722
8 1954 1840 1743 1852 1837 1722 1623 1736
8 1724 1839 1720 1602 1841 1955 1838 1723
8 1841 1727 1844 1956 1723 1605 1726 1840
8 1956 1844 1747 1859 1840 1726 1628 1743
8 1728 1842 1724 1606 1845 1957 1841 1727
8 1725 1607 1729 1843 1842 1728 1846 1958
8 1741 1627 1746 1857 1849 1730 1848 1965
8 1734 1612 1731 1850 1851 1733 1849 1966
8 1854 1741 1849 1966 1738 1622 1731 1850
8 1967 1859 1745 1853 1852 1743 1626 1737
8 1968 1860 1744 1856 1853 1745 1625 1739
8 1854 1741 1622 1738 1969 1857 1742 1855
8 1855 1742 1624 1740 1970 1858 1744 1856
8 1857 1746 1631 1742 1971 1861 1749 1858
8 1858 1749 1630 1744 1972 1863 1748 1860
8 1859 1747 1862 1973 1745 1629 1748 1860
8 1875 1768 1864 1977 1761 1651 1750 1865
8 1755 1644 1761 1869 1866 1751 1865 1978
8 1867 1760 1874 1979 1754 1646 1763 1868
8 1774 1658 1775 1887 1867 1760 1874 1979
8 1870 1766 1648 1756 1980 1877 1763 1868
8 1872 1762 1875 1981 1758 1645 1761 1869
8 1757 1649 1766 1870 1871 1765 1880 1982
8 1983 1879 1764 1873 1871 1765 1647 1759
8 1873 1764 1876 1984 1759 1647 1762 1872
8 1877 1773 1655 1763 1986 1881 1767 1874
8 1775 1659 1776 1888 1874 1767 1881 1986
8 1876 1769 1882 1987 1762 1652 1768 1875
8 1878 1770 1883 1988 1764 1653 1769 1876
8 1880 1772 1656 1766 1989 1886 1773 1877
8 1878 1770 1653 1764 1990 1884 1771 1879
8 1765 1654 1772 1880 1879 1771 1885 1991
8 1778 1664 1779 1890 1887 1775 1888 1997
8 1998 1889 1776 1888 1891 1780 1665 1779
8 1893 1782 1891 2000 1781 1668 1779 1890
8 1894 1783 1892 2001 1782 1669 1780 1891
8 1784 1671 1785 1896 1893 1782 1894 2003
8 1897 1786 1895 2004 1785 1672 1783 1894
8 1790 1675 1789 1904 1896 1785 1897 2006
8 1901 1787 1898 2007 1789 1673 1786 1897
8 1903 1788 1900 2013 1789 1673 1787 1901
8 1792 1676 1791 1906 1903 1788 1902 2016
8 1907 1792 1903 2017 1795 1678 1789 1904
8 1906 1791 1677 1794 2019 1905 1793 1909
8 1907 1792 1678 1795 2020 1906 1794 1910
8 1797 1679 1796 1912 1909 1793 1908 2022
8 1798 1680 1797 1913 1910 1794 1909 2023
8 1800 1682 1799 1915 1912 1796 1911 2025
8 1801 1683 1800 1916 1913 1797 1912 2026
8 1803 1687 1804 1918 1915 1799 1914 2028
8 1802 1686 1803 1917 1916 1800 1915 2029
8 1805 1689 1806 1920 1917 1803 1918 2030
8 1806 1690 1807 1921 1918 1804 1919 2031
8 1808 1692 1809 1922 1920 1806 1921 2032
8 1939 1826 1924 2037 1829 1713 1811 1926
8 1926 1811 1925 2039 1813 1697 1812 1928
8 1944 1829 1926 2040 1828 1712 1813 1929
8 1928 1812 1927 2042 1815 1698 1814 1931
8 1929 1813 1928 2043 1816 1699 1815 1932
8 1931 1814 1930 2044 1818 1700 1817 1933
8 1932 1815 1931 2045 1819 1701 1818 1934
8 1934 1818 1933 2046 1821 1704 1820 1935
8 2048 1936 1823 1937 1977 1864 1750 1865
8 1950 1833 1715 1834 2048 1936 1823 1937
8 1938 1824 1751 1866 2049 1937 1865 1978
8 1835 1716 1824 1938 1951 1834 1937 2049
8 1939 1826 1713 1829 2053 1942 1831 1946
8 1940 1827 1923 2035 2053 1942 1826 1939
8 1945 1830 1946 2058 1828 1712 1829 1944
8 2059 1947 1830 1945 1966 1849 1733 1851
8 1947 1832 1730 1849 2060 1948 1848 1965
8 1947 1832 1948 2060 1830 1714 1831 1946
8 1959 1847 1729 1843 2063 1949 1833 1950
8 1952 1843 1725 1836 2064 1950 1834 1951
8 1836 1725 1843 1952 1953 1842 1958 2066
8 1953 1842 1957 2067 1839 1724 1841 1955
8 1841 1955 1838 1723 1956 2068 1954 1840
8 2068 1956 1859 1967 1954 1840 1743 1852
8 1956 1844 1960 2069 1859 1747 1862 1973
8 1845 1957 1841 1727 1960 2069 1956 1844
8 1728 1842 1957 1845 1846 1958 2071 1961
8 1962 2072 1959 1847 1846 1958 1843 1729
8 1971 1861 1964 2077 1857 1746 1848 1965
8 1854 1741 1857 1969 1966 1849 1965 2078
8 1967 1859 1973 2079 1853 1745 1860 1968
8 1970 1858 1744 1856 2080 1972 1860 1968
8 1969 1857 1742 1855 2081 1971 1858 1970
8 1971 1861 1749 1858 2082 1974 1863 1972
8 1973 1862 1975 2083 1860 1748 1863 1972
8 1987 1882 1976 2086 1875 1768 1864 1977
8 1981 1875 1977 2087 1869 1761 1865 1978
8 1980 1877 1763 1868 2088 1986 1874 1979
8 1887 1775 1888 1997 1979 1874 1986 2088
8 1880 1982 2089 1989 1766 1870 1980 1877
8 1984 1876 1987 2090 1872 1762 1875 1981
8 1765 1871 1983 1879 1880 1982 2091 1991
8 1985 1878 1764 1873 2092 1990 1879 1983
8 1985 1878 1988 2093 1873 1764 1876 1984
8 2094 1992 1881 1986 1998 1889 1776 1888
8 1986 1881 1992 2094 1877 1773 1886 1989
8 1988 1883 1993 2095 1876 1769 1882 1987
8 1878 1770 1884 1990 1988 1883 1994 2096
8 1991 1885 1772 1880 2097 1996 1886 1989
8 1879 1771 1885 1991 1990 1884 1995 2098
8 2103 1998 1888 1997 2000 1891 1779 1890
8 2104 1999 1889 1998 2001 1892 1780 1891
8 2003 1894 2001 2106 1893 1782 1891 2000
8 2004 1895 2002 2107 1894 1783 1892 2001
8 2006 1897 2004 2109 1896 1785 1894 2003
8 2007 1898 2005 2110 1897 1786 1895 2004
8 2014 1901 2007 2112 1904 1789 1897 2006
8 2011 1899 2008 2113 1901 1787 1898 2007
8 2119 2010 1899 2011 2013 1900 1787 1901
8 2016 1902 2012 2122 1903 1788 1900 2013
8 2017 1903 2013 2123 1904 1789 1901 2014
8 1906 1791 1905 2019 2016 1902 2015 2125
8 1907 1792 1906 2020 2017 1903 2016 2126
8 1909 1793 1908 2022 2019 1905 2018 2128
8 2020 1906 1794 1910 2129 2019 1909 2023
8 1912 1796 1911 2025 2022 1908 2021 2131
8 1913 1797 1912 2026 2023 1909 2022 2132
8 1915 1799 1914 2028 2025 1911 2024 2134
8 1916 1800 1915 2029 2026 1912 2025 2135
8 1918 1804 1919 2031 2028 1914 2027 2136
8 1917 1803 1918 2030 2029 1915 2028 2137
8 1920 1806 1921 2032 2030 1918 2031 2138
8 1940 1827 1941 2054 2035 1923 2033 2140
8 2035 1923 2034 2143 1939 1826 1924 2037
8 2037 1924 2036 2146 1926 1811 1925 2039
8 2051 1939 2037 2147 1944 1829 1926 2040
8 2039 1925 2038 2149 1928 1812 1927 2042
8 2040 1926 2039 2150 1929 1813 1928 2043
8 2042 1927 2041 2151 1931 1814 1930 2044
8 2043 1928 2042 2152 1932 1815 1931 2045
8 2045 1931 2044 2153 1934 1818 1933 2046
8 2155 2047 1936 2048 2086 1976 1864 1977
8 2063 1949 1833 1950 2155 2047 1936 2048
8 2156 2048 1937 2049 2087 1977 1865 1978
8 2064 1950 1834 1951 2156 2048 1937 2049
8 2051 1939 1829 1944 2160 2053 1946 2058
8 2052 1940 2035 2144 2160 2053 1939 2051
8 2053 1942 1831 1946 2163 2057 1948 2060
8 2055 1943 1827 1940 2163 2057 1942 2053
8 2055 1943 2056 2164 1940 1827 1941 2054
8 2059 1947 1849 1966 2167 2060 1965 2078
8 2059 1947 2060 2167 1945 1830 1946 2058
8 2077 1964 2061 2168 1965 1848 1948 2060
8 2070 1963 1847 1959 2170 2062 1949 2063
8 2065 1959 1843 1952 2171 2063 1950 2064
8 2173 2072 1958 2066 2065 1959 1843 1952
8 1953 1842 1958 2066 2067 1957 2071 2174
8 2068 1956 2069 2175 1967 1859 1973 2079
8 2067 1957 2069 2175 1955 1841 1956 2068
8 1845 1957 2069 1960 1961 2071 2176 2073
8 2069 1960 2073 2176 1973 1862 1975 2083
8 2070 1963 2075 2177 1959 1847 1962 2072
8 1846 1958 2071 1961 1962 2072 2178 2074
8 2077 1964 1861 1971 2182 2076 1974 2082
8 2081 1971 2077 2183 1969 1857 1965 2078
8 2079 1973 2083 2184 1968 1860 1972 2080
8 2081 1971 1858 1970 2185 2082 1972 2080
8 2083 1975 2084 2186 1972 1863 1974 2082
8 2086 1976 1882 1987 2189 2085 1993 2095
8 2090 1987 2086 2190 1981 1875 1977 2087
8 2191 2094 1986 2088 2103 1998 1888 1997
8 2088 1986 2094 2191 1980 1877 1989 2089
8 1991 2091 2192 2097 1880 1982 2089 1989
8 2093 1988 2095 2193 1984 1876 1987 2090
8 1879 1983 2092 1990 1991 2091 2194 2098
8 1985 1878 1990 2092 2093 1988 2096 2195
8 2097 1996 1886 1989 2196 2099 1992 2094
8 2196 2099 1992 2094 2104 1999 1889 1998
8 1994 2096 1988 1883 2100 2197 2095 1993
8 2096 1994 1884 1990 2198 2101 1995 2098
8 1995 2098 2199 2102 1885 1991 2097 1996
8 2203 2104 1998 2103 2106 2001 1891 2000
8 2107 2002 2105 2204 2001 1892 1999 2104
8 2109 2004 2107 2206 2003 1894 2001 2106
8 2110 2005 2108 2207 2004 1895 2002 2107
8 2112 2007 2110 2209 2006 1897 2004 2109
8 2113 2008 2111 2210 2007 1898 2005 2110
8 2120 2011 2113 2212 2014 1901 2007 2112
8 2117 2009 2114 2213 2011 1899 2008 2113
8 2219 2116 2009 2117 2119 2010 1899 2011
8 2222 2118 2010 2119 2122 2012 1900 2013
8 2223 2119 2011 2120 2123 2013 1901 2014
8 2016 1902 2015 2125 2122 2012 2121 2225
8 2126 2016 2122 2226 2017 1903 2013 2123
8 2019 1905 2018 2128 2125 2015 2124 2228
8 2020 1906 2019 2129 2126 2016 2125 2229
8 2022 1908 2021 2131 2128 2018 2127 2231
8 2023 1909 2022 2132 2129 2019 2128 2232
8 2025 1911 2024 2134 2131 2021 2130 2234
8 2026 1912 2025 2135 2132 2022 2131 2235
8 1914 2028 2134 2024 2027 2136 2236 2133
8 2029 1915 2028 2137 2135 2025 2134 2237
8 2030 1918 2031 2138 2137 2028 2136 2238
8 2157 2050 2139 2240 2054 1941 2033 2140
8 2052 1940 2054 2161 2144 2035 2140 2242
8 2140 2033 2141 2243 2035 1923 2034 2143
8 2143 2034 2142 2246 2037 1924 2036 2146
8 2144 2035 2143 2247 2051 1939 2037 2147
8 2146 2036 2145 2249 2039 1925 2038 2149
8 2147 2037 2146 2250 2040 1926 2039 2150
8 2149 2038 2148 2251 2042 1927 2041 2151
8 2150 2039 2149 2252 2043 1928 2042 2152
8 2152 2042 2151 2253 2045 1931 2044 2153
8 2255 2154 2047 2155 2189 2085 1976 2086
8 2170 2062 1949 2063 2255 2154 2047 2155
8 2256 2155 2048 2156 2190 2086 1977 2087
8 2171 2063 1950 2064 2256 2155 2048 2156
8 2258 2159 2050 2157 2164 2056 1941 2054
8 2160 2053 1946 2058 2262 2163 2060 2167
8 2162 2055 1940 2052 2262 2163 2053 2160
8 2162 2055 2164 2263 2052 1940 2054 2161
8 2163 2057 1948 2060 2264 2165 2061 2168
8 2055 1943 2057 2163 2164 2056 2165 2264
8 2182 2076 2166 2268 2077 1964 2061 2168
8 2183 2077 2168 2269 2078 1965 2060 2167
8 2070 1963 2062 2170 2177 2075 2169 2271
8 2172 2070 1959 2065 2272 2170 2063 2171
8 2172 2070 2177 2273 2065 1959 2072 2173
8 2066 1958 2072 2173 2174 2071 2178 2274
8 2067 1957 2071 2174 2175 2069 2176 2275
8 2175 2069 2176 2275 2079 1973 2083 2184
8 2071 1961 2074 2178 2176 2073 2179 2276
8 2176 2073 2179 2276 2083 1975 2084 2186
8 2072 1962 2075 2177 2178 2074 2180 2277
8 2182 2076 1974 2082 2280 2181 2084 2186
8 2183 2077 1971 2081 2281 2182 2082 2185
8 2184 2083 2186 2282 2080 1972 2082 2185
8 2189 2085 1993 2095 2285 2188 2100 2197
8 2190 2086 1987 2090 2286 2189 2095 2193
8 2192 2097 1989 2089 2287 2196 2094 2191
8 2287 2196 2094 2191 2203 2104 1998 2103
8 2194 2098 1991 2091 2288 2199 2097 2192
8 2195 2096 2197 2289 2093 1988 2095 2193
8 2096 2195 2290 2198 1990 2092 2194 2098
8 2097 1996 2099 2196 2199 2102 2200 2291
8 2196 2099 1999 2104 2291 2200 2105 2204
8 2100 2197 2292 2201 1994 2096 2198 2101
8 1995 2098 2198 2101 2102 2199 2293 2202
8 2206 2107 2204 2296 2106 2001 2104 2203
8 2207 2108 2205 2297 2107 2002 2105 2204
8 2209 2110 2207 2299 2109 2004 2107 2206
8 2210 2111 2208 2300 2110 2005 2108 2207
8 2212 2113 2210 2302 2112 2007 2110 2209
8 2213 2114 2211 2303 2113 2008 2111 2210
8 2220 2117 2213 2305 2120 2011 2113 2212
8 2216 2115 2214 2306 2117 2009 2114 2213
8 2216 2115 2009 2117 2311 2217 2116 2219
8 2219 2116 2010 2119 2314 2218 2118 2222
8 2315 2219 2117 2220 2223 2119 2011 2120
8 2122 2012 2121 2225 2222 2118 2221 2317
8 2318 2222 2119 2223 2226 2122 2013 2123
8 2125 2015 2124 2228 2225 2121 2224 2320
8 2126 2016 2125 2229 2226 2122 2225 2321
8 2128 2018 2127 2231 2228 2124 2227 2323
8 2129 2019 2128 2232 2229 2125 2228 2324
8 2131 2021 2130 2234 2231 2127 2230 2326
8 2132 2022 2131 2235 2232 2128 2231 2327
8 2134 2024 2133 2236 2234 2130 2233 2328
8 2135 2025 2134 2237 2235 2131 2234 2329
8 2137 2028 2136 2238 2237 2134 2236 2330
8 2157 2050 2158 2259 2240 2139 2239 2332
8 2257 2157 2240 2334 2161 2054 2140 2242
8 2240 2139 2241 2335 2140 2033 2141 2243
8 2242 2140 2243 2337 2144 2035 2143 2247
8 2243 2141 2244 2338 2143 2034 2142 2246
8 2246 2142 2245 2341 2146 2036 2145 2249
8 2247 2143 2246 2342 2147 2037 2146 2250
8 2249 2145 2248 2343 2149 2038 2148 2251
8 2250 2146 2249 2344 2150 2039 2149 2252
8 2252 2149 2251 2345 2152 2042 2151 2253
8 2169 2271 2347 2254 2062 2170 2255 2154
8 2189 2085 2188 2285 2255 2154 2254 2347
8 2348 2255 2155 2256 2286 2189 2086 2190
8 2272 2170 2063 2171 2348 2255 2155 2256
8 2349 2258 2157 2257 2263 2164 2054 2161
8 2258 2159 2261 2351 2157 2050 2158 2259
8 2258 2159 2056 2164 2351 2261 2165 2264
8 2262 2163 2060 2167 2355 2264 2168 2269
8 2162 2055 2163 2262 2263 2164 2264 2355
8 2357 2266 2165 2264 2268 2166 2061 2168
8 2268 2166 2076 2182 2361 2267 2181 2280
8 2281 2182 2268 2362 2183 2077 2168 2269
8 2271 2169 2270 2364 2177 2075 2180 2277
8 2172 2070 2170 2272 2273 2177 2271 2365
8 2072 2173 2274 2178 2177 2273 2366 2277
8 2071 2174 2275 2176 2178 2274 2367 2276
8 2275 2176 2276 2367 2184 2083 2186 2282
8 2283 2187 2084 2186 2368 2278 2179 2276
8 2178 2074 2180 2277 2276 2179 2278 2368
8 2283 2187 2279 2370 2186 2084 2181 2280
8 2281 2182 2082 2185 2371 2280 2186 2282
8 2188 2285 2374 2284 2100 2197 2292 2201
8 2286 2189 2095 2193 2375 2285 2197 2289
8 2192 2097 2196 2287 2288 2199 2291 2376
8 2287 2196 2104 2203 2376 2291 2204 2296
8 2194 2098 2199 2288 2290 2198 2293 2377
8 2289 2197 2096 2195 2378 2292 2198 2290
8 2291 2200 2105 2204 2379 2294 2205 2297
8 2199 2102 2200 2291 2293 2202 2294 2379
8 2198 2101 2202 2293 2292 2201 2295 2380
8 2299 2207 2297 2383 2206 2107 2204 2296
8 2300 2208 2298 2384 2207 2108 2205 2297
8 2302 2210 2300 2386 2209 2110 2207 2299
8 2303 2211 2301 2387 2210 2111 2208 2300
8 2305 2213 2303 2389 2212 2113 2210 2302
8 2306 2214 2304 2390 2213 2114 2211 2303
8 2310 2216 2306 2392 2220 2117 2213 2305
8 2308 2215 2307 2393 2216 2115 2214 2306
8 2308 2215 2115 2216 2396 2309 2217 2311
8 2310 2216 2117 2220 2398 2311 2219 2315
8 2311 2217 2116 2219 2399 2312 2218 2314
8 2314 2218 2118 2222 2402 2313 2221 2317
8 2315 2219 2119 2223 2403 2314 2222 2318
8 2225 2121 2224 2320 2317 2221 2316 2405
8 2226 2122 2225 2321 2318 2222 2317 2406
8 2228 2124 2227 2323 2320 2224 2319 2408
8 2229 2125 2228 2324 2321 2225 2320 2409
8 2231 2127 2230 2326 2323 2227 2322 2411
8 2232 2128 2231 2327 2324 2228 2323 2412
8 2234 2130 2233 2328 2326 2230 2325 2413
8 2235 2131 2234 2329 2327 2231 2326 2414
8 2237 2134 2236 2330 2329 2234 2328 2415
8 2259 2158 2260 2352 2332 2239 2331 2417
8 2257 2157 2259 2350 2334 2240 2332 2419
8 2240 2139 2239 2332 2335 2241 2333 2420
8 2334 2240 2335 2422 2242 2140 2243 2337
8 2335 2241 2336 2423 2243 2141 2244 2338
8 2337 2243 2338 2425 2247 2143 2246 2342
8 2338 2244 2339 2426 2246 2142 2245 2341
8 2341 2245 2340 2428 2249 2145 2248 2343
8 2342 2246 2341 2429 2250 2146 2249 2344
8 2344 2249 2343 2430 2252 2149 2251 2345
8 2188 2285 2347 2254 2284 2374 2432 2346
8 2347 2254 2346 2432 2271 2169 2270 2364
8 2365 2271 2170 2272 2433 2347 2255 2348
8 2286 2189 2285 2375 2348 2255 2347 2433
8 2349 2258 2351 2435 2257 2157 2259 2350
8 2349 2258 2164 2263 2435 2351 2264 2355
8 2259 2158 2261 2351 2352 2260 2354 2437
8 2356 2265 2354 2437 2264 2165 2261 2351
8 2441 2357 2264 2355 2362 2268 2168 2269
8 2356 2265 2165 2264 2442 2358 2266 2357
8 2443 2359 2266 2357 2361 2267 2166 2268
8 2370 2279 2360 2446 2280 2181 2267 2361
8 2362 2268 2182 2281 2447 2361 2280 2371
8 2180 2277 2368 2278 2270 2364 2449 2363
8 2271 2365 2273 2177 2364 2450 2366 2277
8 2372 2283 2186 2282 2451 2368 2276 2367
8 2178 2274 2367 2276 2277 2366 2451 2368
8 2283 2187 2278 2368 2370 2279 2369 2452
8 2372 2283 2370 2453 2282 2186 2280 2371
8 2284 2374 2455 2373 2201 2292 2380 2295
8 2375 2285 2197 2289 2456 2374 2292 2378
8 2376 2291 2204 2296 2457 2379 2297 2383
8 2288 2199 2291 2376 2377 2293 2379 2457
8 2198 2290 2378 2292 2293 2377 2458 2380
8 2293 2202 2294 2379 2380 2295 2381 2459
8 2384 2298 2381 2459 2297 2205 2294 2379
8 2386 2300 2384 2463 2299 2207 2297 2383
8 2387 2301 2385 2464 2300 2208 2298 2384
8 2389 2303 2387 2466 2302 2210 2300 2386
8 2390 2304 2388 2467 2303 2211 2301 2387
8 2392 2306 2390 2469 2305 2213 2303 2389
8 2393 2307 2391 2470 2306 2214 2304 2390
8 2395 2308 2393 2472 2310 2216 2306 2392
8 2308 2215 2309 2396 2393 2307 2394 2473
8 2395 2308 2216 2310 2475 2396 2311 2398
8 2396 2309 2217 2311 2476 2397 2312 2399
8 2398 2311 2219 2315 2478 2399 2314 2403
8 2399 2312 2218 2314 2479 2400 2313 2402
8 2317 2221 2316 2405 2402 2313 2401 2482
8 2403 2314 2222 2318 2483 2402 2317 2406
8 2320 2224 2319 2408 2405 2316 2404 2485
8 2321 2225 2320 2409 2406 2317 2405 2486
8 2323 2227 2322 2411 2408 2319 2407 2488
8 2324 2228 2323 2412 2409 2320 2408 2489
8 2326 2230 2325 2413 2411 2322 2410 2490
8 2327 2231 2326 2414 2412 2323 2411 2491
8 2329 2234 2328 2415 2414 2326 2413 2492
8 2417 2331 2260 2352 2494 2416 2353 2438
8 2350 2259 2352 2436 2419 2332 2417 2496
8 2332 2239 2331 2417 2420 2333 2418 2497
8 2334 2240 2332 2419 2422 2335 2420 2499
8 2420 2333 2421 2500 2335 2241 2336 2423
8 2422 2335 2423 2502 2337 2243 2338 2425
8 2423 2336 2424 2503 2338 2244 2339 2426
8 2425 2338 2426 2505 2342 2246 2341 2429
8 2426 2339 2427 2506 2341 2245 2340 2428
8 2429 2341 2428 2507 2344 2249 2343 2430
8 2432 2346 2284 2374 2509 2431 2373 2455
8 2432 2346 2431 2509 2364 2270 2363 2449
8 2375 2285 2374 2456 2433 2347 2432 2510
8 2347 2433 2365 2271 2432 2510 2450 2364
8 2350 2259 2351 2435 2436 2352 2437 2514
8 2440 2356 2437 2514 2355 2264 2351 2435
8 2352 2260 2354 2437 2438 2353 2439 2516
8 2356 2265 2358 2442 2437 2354 2439 2516
8 2440 2356 2264 2355 2518 2442 2357 2441
8 2519 2443 2357 2441 2447 2361 2268 2362
8 2443 2359 2444 2520 2357 2266 2358 2442
8 2443 2359 2267 2361 2520 2444 2360 2446
8 2446 2360 2279 2370 2523 2445 2369 2452
8 2453 2370 2446 2524 2371 2280 2361 2447
8 2449 2363 2448 2525 2368 2278 2369 2452
8 2366 2277 2364 2450 2451 2368 2449 2526
8 2372 2283 2368 2451 2453 2370 2452 2527
8 2455 2373 2295 2380 2529 2454 2382 2460
8 2456 2374 2292 2378 2530 2455 2380 2458
8 2377 2293 2379 2457 2458 2380 2459 2531
8 2463 2384 2459 2531 2383 2297 2379 2457
8 2533 2461 2382 2460 2459 2381 2295 2380
8 2464 2385 2461 2533 2384 2298 2381 2459
8 2466 2387 2464 2537 2386 2300 2384 2463
8 2467 2388 2465 2538 2387 2301 2385 2464
8 2469 2390 2467 2540 2389 2303 2387 2466
8 2470 2391 2468 2541 2390 2304 2388 2467
8 2472 2393 2470 2543 2392 2306 2390 2469
8 2393 2307 2394 2473 2470 2391 2471 2544
8 2395 2308 2396 2475 2472 2393 2473 2546
8 2396 2309 2397 2476 2473 2394 2474 2547
8 2475 2396 2311 2398 2549 2476 2399 2478
8 2476 2397 2312 2399 2550 2477 2400 2479
8 2478 2399 2314 2403 2552 2479 2402 2483
8 2479 2400 2313 2402 2553 2480 2401 2482
8 2405 2316 2404 2485 2482 2401 2481 2556
8 2406 2317 2405 2486 2483 2402 2482 2557
8 2408 2319 2407 2488 2485 2404 2484 2559
8 2409 2320 2408 2489 2486 2405 2485 2560
8 2411 2322 2410 2490 2488 2407 2487 2561
8 2412 2323 2411 2491 2489 2408 2488 2562
8 2414 2326 2413 2492 2491 2411 2490 2563
8 2513 2434 2493 2565 2438 2353 2416 2494
8 2496 2417 2352 2436 2567 2494 2438 2515
8 2494 2416 2495 2568 2417 2331 2418 2497
8 2419 2332 2417 2496 2499 2420 2497 2570
8 2497 2418 2498 2571 2420 2333 2421 2500
8 2499 2420 2500 2573 2422 2335 2423 2502
8 2500 2421 2501 2574 2423 2336 2424 2503
8 2502 2423 2503 2576 2425 2338 2426 2505
8 2503 2424 2504 2577 2426 2339 2427 2506
8 2505 2426 2506 2578 2429 2341 2428 2507
8 2509 2431 2373 2455 2580 2508 2454 2529
8 2509 2431 2508 2580 2449 2363 2448 2525
8 2432 2510 2581 2509 2374 2456 2530 2455
8 2432 2510 2450 2364 2509 2581 2526 2449
8 2583 2511 2434 2513 2516 2439 2353 2438
8 2436 2352 2437 2514 2515 2438 2516 2588
8 2440 2356 2442 2518 2514 2437 2516 2588
8 2442 2358 2444 2520 2516 2439 2517 2589
8 2519 2443 2520 2591 2441 2357 2442 2518
8 2519 2443 2361 2447 2591 2520 2446 2524
8 2446 2360 2445 2523 2520 2444 2521 2592
8 2525 2448 2522 2593 2452 2369 2445 2523
8 2524 2446 2370 2453 2594 2523 2452 2527
8 2526 2449 2525 2595 2451 2368 2452 2527
8 2534 2462 2528 2597 2460 2382 2454 2529
8 2530 2455 2380 2458 2598 2529 2460 2532
8 2599 2533 2460 2532 2531 2459 2380 2458
8 2537 2464 2533 2599 2463 2384 2459 2531
8 2534 2462 2382 2460 2601 2535 2461 2533
8 2538 2465 2535 2601 2464 2385 2461 2533
8 2540 2467 2538 2604 2466 2387 2464 2537
8 2541 2468 2539 2605 2467 2388 2465 2538
8 2543 2470 2541 2607 2469 2390 2467 2540
8 2470 2391 2471 2544 2541 2468 2542 2608
8 2472 2393 2473 2546 2543 2470 2544 2610
8 2473 2394 2474 2547 2544 2471 2545 2611
8 2475 2396 2476 2549 2546 2473 2547 2613
8 2476 2397 2477 2550 2547 2474 2548 2614
8 2549 2476 2399 2478 2616 2550 2479 2552
8 2479 2400 2480 2553 2550 2477 2551 2617
8 2552 2479 2402 2483 2619 2553 2482 2557
8 2482 2401 2481 2556 2553 2480 2554 2620
8 2485 2404 2484 2559 2556 2481 2555 2623
8 2486 2405 2485 2560 2557 2482 2556 2624
8 2488 2407 2487 2561 2559 2484 2558 2625
8 2489 2408 2488 2562 2560 2485 2559 2626
8 2491 2411 2490 2563 2562 2488 2561 2627
8 2513 2434 2512 2585 2565 2493 2564 2630
8 2586 2513 2565 2632 2515 2438 2494 2567
8 2565 2493 2566 2633 2494 2416 2495 2568
8 2567 2494 2568 2635 2496 2417 2497 2570
8 2568 2495 2569 2636 2497 2418 2498 2571
8 2570 2497 2571 2638 2499 2420 2500 2573
8 2571 2498 2572 2639 2500 2421 2501 2574
8 2573 2500 2574 2641 2502 2423 2503 2576
8 2574 2501 2575 2642 2503 2424 2504 2577
8 2576 2503 2577 2643 2505 2426 2506 2578
8 2597 2528 2579 2645 2529 2454 2508 2580
8 2580 2508 2579 2645 2525 2448 2522 2593
8 2581 2509 2455 2530 2646 2580 2529 2598
8 2581 2509 2580 2646 2526 2449 2525 2595
8 2583 2511 2582 2648 2513 2434 2512 2585
8 2583 2511 2439 2516 2648 2582 2517 2589
8 2649 2583 2513 2586 2588 2516 2438 2515
8 2589 2517 2444 2520 2653 2587 2521 2592
8 2518 2442 2520 2591 2588 2516 2589 2654
8 2593 2522 2590 2655 2523 2445 2521 2592
8 2524 2446 2523 2594 2591 2520 2592 2656
8 2595 2525 2593 2657 2527 2452 2523 2594
8 2602 2536 2596 2659 2534 2462 2528 2597
8 2600 2534 2597 2660 2532 2460 2529 2598
8 2600 2534 2460 2532 2661 2601 2533 2599
8 2604 2538 2601 2661 2537 2464 2533 2599
8 2602 2536 2462 2534 2663 2603 2535 2601
8 2601 2535 2465 2538 2663 2603 2539 2605
8 2607 2541 2605 2665 2540 2467 2538 2604
8 2608 2542 2606 2666 2541 2468 2539 2605
8 2543 2470 2544 2610 2607 2541 2608 2668
8 2544 2471 2545 2611 2608 2542 2609 2669
8 2546 2473 2547 2613 2610 2544 2611 2671
8 2547 2474 2548 2614 2611 2545 2612 2672
8 2549 2476 2550 2616 2613 2547 2614 2674
8 2550 2477 2551 2617 2614 2548 2615 2675
8 2552 2479 2553 2619 2616 2550 2617 2677
8 2553 2480 2554 2620 2617 2551 2618 2678
8 2557 2482 2556 2624 2619 2553 2620 2680
8 2556 2481 2555 2623 2620 2554 2621 2681
8 2559 2484 2558 2625 2623 2555 2622 2683
8 2560 2485 2559 2626 2624 2556 2623 2684
8 2562 2488 2561 2627 2626 2559 2625 2685
8 2690 2629 2564 2630 2650 2584 2512 2585
8 2586 2513 2585 2651 2632 2565 2630 2691
8 2630 2564 2631 2692 2565 2493 2566 2633
8 2632 2565 2633 2694 2567 2494 2568 2635
8 2633 2566 2634 2695 2568 2495 2569 2636
8 2635 2568 2636 2697 2570 2497 2571 2638
8 2636 2569 2637 2698 2571 2498 2572 2639
8 2638 2571 2639 2700 2573 2500 2574 2641
8 2639 2572 2640 2701 2574 2501 2575 2642
8 2641 2574 2642 2702 2576 2503 2577 2643
8 2597 2528 2596 2659 2645 2579 2644 2704
8 2645 2579 2644 2704 2593 2522 2590 2655
8 2660 2597 2645 2705 2598 2529 2580 2646
8 2646 2580 2645 2705 2595 2525 2593 2657
8 2650 2584 2512 2585 2707 2647 2582 2648
8 2648 2582 2517 2589 2707 2647 2587 2653
8 2649 2583 2648 2708 2586 2513 2585 2651
8 2649 2583 2516 2588 2708 2648 2589 2654
8 2655 2590 2652 2710 2592 2521 2587 2653
8 2654 2589 2520 2591 2711 2653 2592 2656
8 2657 2593 2655 2712 2594 2523 2592 2656
8 2602 2536 2603 2663 2659 2596 2658 2714
8 2662 2602 2659 2715 2600 2534 2597 2660
8 2662 2602 2534 2600 2717 2663 2601 2661
8 2661 2601 2538 2604 2717 2663 2605 2665
8 2666 2606 2664 2718 2605 2539 2603 2663
8 2668 2608 2666 2720 2607 2541 2605 2665
8 2608 2542 2609 2669 2666 2606 2667 2721
8 2610 2544 2611 2671 2668 2608 2669 2723
8 2611 2545 2612 2672 2669 2609 2670 2724
8 2613 2547 2614 2674 2671 2611 2672 2726
8 2614 2548 2615 2675 2672 2612 2673 2727
8 2616 2550 2617 2677 2674 2614 2675 2729
8 2617 2551 2618 2678 2675 2615 2676 2730
8 2619 2553 2620 2680 2677 2617 2678 2732
8 2620 2554 2621 2681 2678 2618 2679 2733
8 2624 2556 2623 2684 2680 2620 2681 2735
8 2681 2621 2555 2623 2736 2682 2622 2683
8 2626 2559 2625 2685 2684 2623 2683 2737
8 2688 2628 2584 2650 2740 2686 2647 2707
8 2688 2628 2687 2742 2650 2584 2629 2690
8 2690 2629 2689 2745 2630 2564 2631 2692
8 2746 2690 2630 2691 2709 2650 2585 2651
8 2691 2630 2692 2747 2632 2565 2633 2694
8 2692 2631 2693 2748 2633 2566 2634 2695
8 2694 2633 2695 2750 2635 2568 2636 2697
8 2695 2634 2696 2751 2636 2569 2637 2698
8 2697 2636 2698 2753 2638 2571 2639 2700
8 2698 2637 2699 2754 2639 2572 2640 2701
8 2700 2639 2701 2755 2641 2574 2642 2702
8 2659 2596 2658 2714 2704 2644 2703 2757
8 2704 2644 2703 2757 2655 2590 2652 2710
8 2660 2597 2659 2715 2705 2645 2704 2758
8 2705 2645 2704 2758 2657 2593 2655 2712
8 2759 2706 2647 2707 2710 2652 2587 2653
8 2709 2650 2585 2651 2760 2707 2648 2708
8 2708 2648 2589 2654 2760 2707 2653 2711
8 2712 2655 2710 2761 2656 2592 2653 2711
8 2763 2713 2658 2714 2718 2664 2603 2663
8 2662 2602 2663 2717 2715 2659 2714 2764
8 2720 2666 2718 2767 2665 2605 2663 2717
8 2768 2719 2664 2718 2721 2667 2606 2666
8 2668 2608 2669 2723 2720 2666 2721 2770
8 2669 2609 2670 2724 2721 2667 2722 2771
8 2671 2611 2672 2726 2723 2669 2724 2773
8 2672 2612 2673 2727 2724 2670 2725 2774
8 2674 2614 2675 2729 2726 2672 2727 2776
8 2675 2615 2676 2730 2727 2673 2728 2777
8 2677 2617 2678 2732 2729 2675 2730 2779
8 2678 2618 2679 2733 2730 2676 2731 2780
8 2680 2620 2681 2735 2732 2678 2733 2782
8 2733 2679 2621 2681 2783 2734 2682 2736
8 2735 2681 2623 2684 2784 2736 2683 2737
8 2740 2686 2647 2707 2787 2738 2706 2759
8 2688 2628 2686 2740 2742 2687 2739 2789
8 2743 2688 2650 2709 2790 2740 2707 2760
8 2742 2687 2741 2792 2690 2629 2689 2745
8 2743 2688 2742 2793 2709 2650 2690 2746
8 2745 2689 2744 2795 2692 2631 2693 2748
8 2746 2690 2745 2796 2691 2630 2692 2747
8 2747 2692 2748 2797 2694 2633 2695 2750
8 2748 2693 2749 2798 2695 2634 2696 2751
8 2750 2695 2751 2800 2697 2636 2698 2753
8 2751 2696 2752 2801 2698 2637 2699 2754
8 2753 2698 2754 2802 2700 2639 2701 2755
8 2763 2713 2756 2804 2714 2658 2703 2757
8 2759 2706 2652 2710 2804 2756 2703 2757
8 2715 2659 2714 2764 2758 2704 2757 2805
8 2758 2704 2757 2805 2712 2655 2710 2761
8 2806 2759 2707 2760 2761 2710 2653 2711
8 2765 2716 2762 2808 2718 2664 2713 2763
8 2809 2763 2714 2764 2767 2718 2663 2717
8 2765 2716 2664 2718 2811 2766 2719 2768
8 2813 2768 2718 2767 2770 2721 2666 2720
8 2814 2769 2719 2768 2771 2722 2667 2721
8 2723 2669 2724 2773 2770 2721 2771 2816
8 2724 2670 2725 2774 2771 2722 2772 2817
8 2726 2672 2727 2776 2773 2724 2774 2819
8 2727 2673 2728 2777 2774 2725 2775 2820
8 2729 2675 2730 2779 2776 2727 2777 2822
8 2730 2676 2731 2780 2777 2728 2778 2823
8 2732 2678 2733 2782 2779 2730 2780 2825
8 2780 2731 2679 2733 2826 2781 2734 2783
8 2782 2733 2681 2735 2827 2783 2736 2784
8 2830 2785 2738 2787 2804 2756 2706 2759
8 2789 2739 2686 2740 2832 2786 2738 2787
8 2790 2740 2707 2760 2833 2787 2759 2806
8 2742 2687 2739 2789 2792 2741 2788 2835
8 2743 2688 2740 2790 2793 2742 2789 2836
8 2792 2741 2791 2838 2745 2689 2744 2795
8 2793 2742 2792 2839 2746 2690 2745 2796
8 2795 2744 2794 2841 2748 2693 2749 2798
8 2796 2745 2795 2842 2747 2692 2748 2797
8 2797 2748 2798 2843 2750 2695 2751 2800
8 2798 2749 2799 2844 2751 2696 2752 2801
8 2800 2751 2801 2845 2753 2698 2754 2802
8 2808 2762 2803 2847 2763 2713 2756 2804
8 2809 2763 2804 2848 2764 2714 2757 2805
8 2806 2759 2710 2761 2848 2804 2757 2805
8 2765 2716 2766 2811 2808 2762 2807 2850
8 2810 2765 2808 2851 2767 2718 2763 2809
8 2810 2765 2718 2767 2852 2811 2768 2813
8 2811 2766 2719 2768 2853 2812 2769 2814
8 2855 2814 2768 2813 2816 2771 2721 2770
8 2856 2815 2769 2814 2817 2772 2722 2771
8 2773 2724 2774 2819 2816 2771 2817 2858
8 2774 2725 2775 2820 2817 2772 2818 2859
8 2776 2727 2777 2822 2819 2774 2820 2861
8 2777 2728 2778 2823 2820 2775 2821 2862
8 2779 2730 2780 2825 2822 2777 2823 2864
8 2823 2778 2731 2780 2865 2824 2781 2826
8 2825 2780 2733 2782 2866 2826 2783 2827
8 2869 2828 2785 2830 2847 2803 2756 2804
8 2871 2829 2786 2832 2830 2785 2738 2787
8 2872 2830 2787 2833 2848 2804 2759 2806
8 2789 2739 2786 2832 2835 2788 2831 2874
8 2836 2789 2740 2790 2875 2832 2787 2833
8 2792 2741 2788 2835 2838 2791 2834 2877
8 2793 2742 2789 2836 2839 2792 2835 2878
8 2838 2791 2837 2880 2795 2744 2794 2841
8 2839 2792 2838 2881 2796 2745 2795 2842
8 2841 2794 2840 2882 2798 2749 2799 2844
8 2842 2795 2841 2883 2797 2748 2798 2843
8 2843 2798 2844 2884 2800 2751 2801 2845
8 2886 2846 2803 2847 2850 2807 2762 2808
8 2851 2808 2847 2887 2809 2763 2804 2848
8 2850 2807 2766 2811 2889 2849 2812 2853
8 2810 2765 2811 2852 2851 2808 2850 2890
8 2852 2811 2768 2813 2891 2853 2814 2855
8 2853 2812 2769 2814 2892 2854 2815 2856
8 2894 2856 2814 2855 2858 2817 2771 2816
8 2817 2772 2818 2859 2856 2815 2857 2895
8 2819 2774 2820 2861 2858 2817 2859 2897
8 2820 2775 2821 2862 2859 2818 2860 2898
8 2822 2777 2823 2864 2861 2820 2862 2900
8 2823 2778 2824 2865 2862 2821 2863 2901
8 2864 2823 2780 2825 2902 2865 2826 2866
8 2904 2867 2828 2869 2886 2846 2803 2847
8 2869 2828 2868 2906 2830 2785 2829 2871
8 2907 2869 2830 2872 2887 2847 2804 2848
8 2871 2829 2870 2909 2832 2786 2831 2874
8 2910 2871 2832 2875 2872 2830 2787 2833
8 2835 2788 2831 2874 2877 2834 2873 2912
8 2836 2789 2832 2875 2878 2835 2874 2913
8 2877 2834 2876 2915 2838 2791 2837 2880
8 2839 2792 2835 2878 2881 2838 2877 2916
8 2880 2837 2879 2917 2841 2794 2840 2882
8 2881 2838 2880 2918 2842 2795 2841 2883
8 2883 2841 2882 2919 2843 2798 2844 2884
8 2921 2885 2846 2886 2889 2849 2807 2850
8 2922 2886 2847 2887 2890 2850 2808 2851
8 2889 2849 2812 2853 2924 2888 2854 2892
8 2890 2850 2811 2852 2925 2889 2853 2891
8 2891 2853 2814 2855 2926 2892 2856 2894
8 2892 2854 2815 2856 2927 2893 2857 2895
8 2858 2817 2859 2897 2894 2856 2895 2929
8 2859 2818 2860 2898 2895 2857 2896 2930
8 2861 2820 2862 2900 2897 2859 2898 2932
8 2862 2821 2863 2901 2898 2860 2899 2933
8 2864 2823 2865 2902 2900 2862 2901 2934
8 2904 2867 2846 2886 2936 2903 2885 2921
8 2904 2867 2903 2936 2869 2828 2868 2906
8 2937 2904 2869 2907 2922 2886 2847 2887
8 2906 2868 2905 2939 2871 2829 2870 2909
8 2907 2869 2906 2940 2872 2830 2871 2910
8 2909 2870 2908 2942 2874 2831 2873 2912
8 2910 2871 2909 2943 2875 2832 2874 2913
8 2912 2873 2911 2945 2877 2834 2876 2915
8 2878 2835 2874 2913 2916 2877 2912 2946
8 2915 2876 2914 2947 2880 2837 2879 2917
8 2916 2877 2915 2948 2881 2838 2880 2918
8 2918 2880 2917 2949 2883 2841 2882 2919
8 2921 2885 2849 2889 2951 2920 2888 2924
8 2952 2921 2886 2922 2925 2889 2850 2890
8 2924 2888 2854 2892 2954 2923 2893 2927
8 2925 2889 2853 2891 2955 2924 2892 2926
8 2926 2892 2856 2894 2956 2927 2895 2929
8 2895 2857 2896 2930 2927 2893 2928 2957
8 2897 2859 2898 2932 2929 2895 2930 2959
8 2898 2860 2899 2933 2930 2896 2931 2960
8 2900 2862 2901 2934 2932 2898 2933 2961
8 2936 2903 2885 2921 2963 2935 2920 2951
8 2936 2903 2935 2963 2906 2868 2905 2939
8 2937 2904 2886 2922 2964 2936 2921 2952
8 2937 2904 2936 2964 2907 2869 2906 2940
8 2939 2905 2938 2966 2909 2870 2908 2942
8 2940 2906 2939 2967 2910 2871 2909 2943
8 2942 2908 2941 2969 2912 2873 2911 2945
8 2943 2909 2942 2970 2913 2874 2912 2946
8 2945 2911 2944 2971 2915 2876 2914 2947
8 2946 2912 2945 2972 2916 2877 2915 2948
8 2948 2915 2947 2973 2918 2880 2917 2949
8 2951 2920 2888 2924 2975 2950 2923 2954
8 2952 2921 2889 2925 2976 2951 2924 2955
8 2927 2893 2928 2957 2954 2923 2953 2978
8 2955 2924 2892 2926 2979 2954 2927 2956
8 2929 2895 2930 2959 2956 2927 2957 2980
8 2930 2896 2931 2960 2957 2928 2958 2981
8 2932 2898 2933 2961 2959 2930 2960 2982
8 2951 2920 2950 2975 2963 2935 2962 2984
8 2963 2935 2962 2984 2939 2905 2938 2966
8 2964 2936 2921 2952 2985 2963 2951 2976
8 2964 2936 2963 2985 2940 2906 2939 2967
8 2966 2938 2965 2987 2942 2908 2941 2969
8 2967 2939 2966 2988 2943 2909 2942 2970
8 2969 2941 2968 2989 2945 2911 2944 2971
8 2970 2942 2969 2990 2946 2912 2945 2972
8 2972 2945 2971 2991 2948 2915 2947 2973
8 2954 2923 2953 2978 2975 2950 2974 2993
8 2976 2951 2924 2955 2994 2975 2954 2979
8 2957 2928 2958 2981 2978 2953 2977 2995
8 2956 2927 2957 2980 2979 2954 2978 2996
8 2959 2930 2960 2982 2980 2957 2981 2997
8 2984 2962 2983 2999 2966 2938 2965 2987
8 2975 2950 2974 2993 2984 2962 2983 2999
8 2976 2951 2975 2994 2985 2963 2984 3000
8 2985 2963 2984 3000 2967 2939 2966 2988
8 2987 2965 2986 3001 2969 2941 2968 2989
8 2988 2966 2987 3002 2970 2942 2969 2990
8 2990 2969 2989 3003 2972 2945 2971 2991
8 2978 2953 2977 2995 2993 2974 2992 3004
8 2979 2954 2978 2996 2994 2975 2993 3005
8 2980 2957 2981 2997 2996 2978 2995 3006
8 2974 2993 2999 2983 2992 3004 3007 2998
8 2983 2999 2987 2965 2998 3007 3001 2986
8 3000 2984 2999 3008 2988 2966 2987 3002
8 2994 2975 2993 3005 3000 2984 2999 3008
8 3002 2987 3001 3009 2990 2969 2989 3003
8 2996 2978 2995 3006 3005 2993 3004 3010
8 3005 2993 3004 3010 3008 2999 3007 3011
8 3008 2999 3007 3011 3002 2987 3001 3009

CELL_TYPES 1910
12
12
12
12
12
12
12
12
12
12
12
12
12
12
12
12
12
12
12
12
12
12
12
12
12
12
12
12
12
12
12
12
12
12
12
12
12
12
12
12
12
12
12
12
12
12
12
12
12
12
12
12
12
12
12
12
12
12
12
12
12
12
12
12
12
12
12
12
12
12
12
12
12
12
12
12
12
12
12
12
12
12
12
12
12
12
12
12
12
12
12
12
12
12
12
12
12
12
12
12
12
12
12
12
12
12
12
12
12
12
12
12
12
12
12
12
12
12
12
12
12
12
12
12
12
12
12
12
12
12
12
12
12
12
12
12
12
12
12
12
12
12
12
12
12
12
12
12
12
12
12
12
12
12
12
12
12
12
12
12
12
12
12
12
12
12
12
12
12
12
12
12
12
12
12
12
12
12
12
12
12
12
12
12
12
12
12
12
12
12
12
12
12
12
12
12
12
12
12
12
12
12
12
12
12
12
12
12
12
12
12
12
12
12
12
12
12
12
12
12
12
12
12
12
12
12
12
12
12
12
12
12
12
12
12
12
12
12
12
12
12
12
12
12
12
12
12
12
12
12
12
12
12
12
12
12
12
12
12
12
12
12
12
12
12
12
12
12
12
12
12
12
12
12
12
12
12
12
12
12
12
12
12
12
12
12
12
12
12
12
12
12
12
12
12
12
12
12
12
12
12
12
12
12
12
12
12
12
12
12
12
12
12
12
12
12
12
12
12
12
12
12
12
12
12
12
12
12
12
12
12
12
12
12
12
12
12
12
12
12
12
12
12
12
12
12
12
12
12
12
12
12
12
12
12
12
12
12
12
12
12
12
12
12
12
12
12
12
12
12
12
12
12
12
12
12
12
12
12
12
12
12
12
12
12
12
12
12
12
12
12
12
12
12
12
12
12
12
12
12
12
12
12
12
12
12
12
12
12
12
12
12
12
12
12
12
12
12
12
12
12
12
12
12
12
12
12
12
12
12
12
12
12
12
12
12
12
12
12
12
12
12
12
12
12
12
12
12
12
12
12
12
12
12
12
12
12
12
12
12
12
12
12
12
12
12
12
12
12
12
12
12
12
12
12
12
12
12
12
12
12
12
12
12
12
12
12
12
12
12
12
12
12
12
12
12
12
12
12
12
12
12
12
12
12
12
12
12
12
12
12
12
12
12
12
12
12
12
12
12
12
12
12
12
12
12
12
12
12
12
12
12
12
12
12
12
12
12
12
12
12
12
12
12
12
12
12
12
12
12
12
12
12
12
12
12
12
12
12
12
12
12
12
12
12
12
12
12
12
12
12
12
12
12
12
12
12
12
12
12
12
12
12
12
12
12
12
12
12
12
12
12
12
12
12
12
12
12
12
12
12
12
12
12
12
12
12
12
12
12
12
12
12
12
12
12
12
12
12
12
12
12
12
12
12
12
12
12
12
12
12
12
12
12
12
12
12
12
12
12
12
12
12
12
12
12
12
12
12
12
12
12
12
12
12
12
12
12
12
12
12
12
12
12
12
12
12
12
12
12
12
12
12
12
12
12
12
12
12
12
12
12
12
12
12
12
12
12
12
12
12
12
12
12
12
12
12
12
12
12
12
12
12
12
12
12
12
12
12
12
12
12
12
12
12
12
12
12
12
12
12
12
12
12
12
12
12
12
12
12
12
12
12
12
12
12
12
12
12
12
12
12
12
12
12
12
12
12
12
12
12
12
12
12
12
12
12
12
12
12
12
12
12
12
12
12
12
12
12
12
12
12
12
12
12
12
12
12
12
12
12
12
12
12
12
12
12
12
12
12
12
12
12
12
12
12
12
12
12
12
12
12
12
12
12
12
12
12
12
12
12
12
12
12
12
12
12
12
12
12
12
12
12
12
12
12
12
12
12
12
12
12
12
12
12
12
12
12
12
12
12
12
12
12
12
12
12
12
12
12
12
12
12
12
12
12
12
12
12
12
12
12
12
12
12
12
12
12
12
12
12
12
12
12
12
12
12
12
12
12
12
12
12
12
12
12
12
12
12
12
12
12
12
12
12
12
12
12
12
12
12
12
12
12
12
12
12
12
12
12
12
12
12
12
12
12
12
12
12
12
12
12
12
12
12
12
12
12
12
12
12
12
12
12
12
12
12
12
12
12
12
12
12
12
12
12
12
12
12
12
12
12
12
12
12
12
12
12
12
12
12
12
12
12
12
12
12
12
12
12
12
12
12
12
12
12
12
12
12
12
12
12
12
12
12
12
12
12
12
12
12
12
12
12
12
12
12
12
12
12
12
12
12
12
12
12
12
12
12
12
12
12
12
12
12
12
12
12
12
12
12
12
12
12
12
12
12
12
12
12
12
12
12
12
12
12
12
12
12
12
12
12
12
12
12
12
12
12
12
12
12
12
12
12
12
12
12
12
12
12
12
12
12
12
12
12
12
12
12
12
12
12
12
12
12
12
12
12
12
12
12
12
12
12
12
12
12
12
12
12
12
12
12
12
12
12
12
12
12
12
12
12
12
12
12
12
12
12
12
12
12
12
12
12
12
12
12
12
12
12
12
12
12
12
12
12
12
12
12
12
12
12
12
12
12
12
12
12
12
12
12
12
12
12
12
12
12
12
12
12
12
12
12
12
12
12
12
12
12
12
12
12
12
12
12
12
12
12
12
12
12
12
12
12
12
12
12
12
12
12
12
12
12
12
12
12
12
12
12
12
12
12
12
12
12
12
12
12
12
12
12
12
12
12
12
12
12
12
12
12
12
12
12
12
12
12
12
12
12
12
12
12
12
12
12
12
12
12
12
12
12
12
12
12
12
12
12
12
12
12
12
12
12
12
12
12
12
12
12
12
12
12
12
12
12
12
12
12
12
12
12
12
12
12
12
12
12
12
12
12
12
12
12
12
12
12
12
12
12
12
12
12
12
12
12
12
12
12
12
12
12
12
12
12
12
12
12
12
12
12
12
12
12
12
12
12
12
12
12
12
12
12
12
12
12
12
12
12
12
12
12
12
12
12
12
12
12
12
12
12
12
12
12
12
12
12
12
12
12
12
12
12
12
12
12
12
12
12
12
12
12
12
12
12
12
12
12
12
12
12
12
12
12
12
12
12
12
12
12
12
12
12
12
12
12
12
12
12
12
12
12
12
12
12
12
12
12
12
12
12
12
12
12
12
12
12
12
12
12
12
12
12
12
12
12
12
12
12
12
12
12
12
12
12
12
12
12
12
12
12
12
12
12
12
12
12
12
12
12
12
12
12
12
12
12
12
12
12
12
12
12
12
12
12
12
12
12
12
12
12
12
12
12
12
12
12
12
12
12
12
12
12
12
12
12
12
12
12
12
12
12
12
12
12
12
12
12
12
12
12
12
12
12
12
12
12
12
12
12
12
12
12
12
12
12
12
12
12
12
12
12
12
12
12
12
12
12
12
12
12
12
12
12
12
12
12
12
12
12
12
12
12
12
12
12
12
12
12
12
12
12
12
12
12
12
12
12
12
12
12
12
12
12
12
12
12
12
12
12
12
12
12
12
12
12
12
12
12
12
12
12
12
12
12
12
12
12
12
12
12
12
12
12
12
12
12
12
12
12
12
12
12
12
12
12
12
12
12
12
12
12
12
12
12
12
12
12
12
12
12
12
12
12
12
12
12
12
12
12
12
12
12
12
12
12
12
12
12
12
12
12
12
12
12
12
12
12
12
12
12
12
12
12
12
12
12
12
12
12
12
12
12
12
12
12
12
12
12
12
12
12
12
12
12
12
12
12
12
12
12
12
12
12
12
12
12
12
12
12
12
12
12
12
12
12
12
12
12
12
12
12
12
12
12
12
12
12
12
12
12
12
12
12
12
12
12
12
12
12
12
12
12
12
12
12
12
12
12
12
12
12
12
12
12
12
12
12
12
12
12
12
12
12
12
12
12
12
12
12
12
12
12
12
12
12
12
12
12
12
12
12
12
12
12
12
12
12
12
12
12
12
12
12
12
12
12
12
12
12
12
12
12
12
12
12
12
12
12
12
12
12
12
12
12
12
12
12
12
12
12
12
12
12
12
12
12
12
12
12
12
12
12
12
12
12
12
12
12
12
12
12
12
12
12
12
12
12
12
12
12
12
12
12
12
12
12
12
12
12
12
12
12
12
12
12
12
12
12
12
12
12
12
12
12
12
12
12
12
12
12
12
12
12
12
12
12
12
12
12
12
12
12
12
12
12
12
12
12
12
12
12
12
12
12
12
12
12
12
12
12
12
12
12
12
12
12
12
12
12
12
12
12
12
12
12
12
12
12
12
12
12
12
12
12
12
12
12
12
12
12
12
12
12
12
12
12
12
12
12
12

POINT_DATA 3012
SCALARS Jp_lamdaP float 4
LOOKUP_TABLE default
0.999505 1 1 0.999505
1 1 1 1
0.99952 1 1 0.99952
0.999446 1 1 0.999446
0.999507 1 1 0.999507
0.999477 1 1 0.999477
1.00777 1.00932 1 0.998465
1 1 1 1
1 1 1 1
1 1 1 1
0.999564 1 1 0.999564
1.00373 1.00524 1 0.998498
0.999479 1 1 0.999479
0.999468 1 1 0.999468
0.999525 1 1 0.999525
0.999481 1 1 0.999481
0.999486 1 1 0.999486
0.999531 1 1 0.999531
1.00776 1.00931 1 0.998464
1 1 1 1
0.999434 1 1 0.999434
0.99948 1 1 0.99948
1.00263 1.00427 1 0.998362
1.00682 1.00838 1 0.998453
0.999466 1 1 0.999466
1.00711 1.00867 1 0.998458
1.0322 1.03539 1 0.996918
1 1 1 1
0.99975 1 1 0.99975
0.999762 1 1 0.999762
1 1 1 1
1.00247 1.00396 1 0.998508
0.999491 1 1 0.999491
0.999521 1 1 0.999521
1.00826 1.00961 1 0.998662
1 1 1 1
1.00716 1.00844 1 0.99873
0.999957 1.00138 1 0.99858
1.02064 1.02386 1 0.996853
1 1 1 1
1 1 1 1
0.999736 1 1 0.999736
1 1 1 1
0.999485 1 1 0.999485
0.998662 1.00037 1 0.99829
1 1 1 1
1.00154 1.00297 1 0.998572
0.999512 1 1 0.999512
0.999549 1 1 0.999549
0.999488 1 1 0.999488
1.00779 1.00933 1 0.998468
0.999721 1 1 0.999721
0.999465 1 1 0.999465
0.99948 1 1 0.99948
0.999512 1 1 0.999512
1.00236 1.00401 1 0.998354
1.00715 1.00871 1 0.998459
1.00667 1.00823 1 0.998451
1.03246 1.03567 1 0.996908
1 1 1 1
0.999448 1 1 0.999448
0.998821 1.00017 1 0.998647
1.00058 1.00224 1 0.998344
1.00514 1.00674 1 0.998409
1.03376 1.03716 1 0.996723
1.03291 1.03622 1 0.996812
0.999512 1 1 0.999512
1.00139 1.00287 1 0.998528
1.0305 1.03363 1 0.996974
1.05255 1.05672 1 0.99605
1 1 1 1
1 1 1 1
1 1 1 1
1.00157 1.00306 1 0.998516
1 1 1 1
1 1 1 1
1.00811 1.00972 1 0.998402
0.99983 1 1 0.99983
1.00603 1.00755 1 0.99849
0.999956 1.00111 1.00009 0.998759
1.02155 1.02478 1 0.996848
1 1 1 1
1.00197 1 1.00245 0.999521
1.0066 1.0083 1 0.998315
1.00816 1.00974 1 0.998429
1.03855 1.04222 1 0.996477
0.99968 1 1.00058 0.999103
1.02835 1.03169 1 0.996763
1.0155 1.0185 1.00004 0.997019
1.03946 1.04355 1 0.996084
1 1 1 1
1 1 1 1
1 1 1 1
1 1 1 1
1 1 1 1
0.999743 1 1 0.999743
0.999101 1.00064 1 0.998457
0.999734 1 1 0.999734
1.00232 1.00389 1 0.998438
1 1 1 1
0.998382 1.00005 1 0.998328
0.999829 1.00125 1 0.998583
1.0279 1.0316 1 0.996414
1.00445 1.00585 1 0.998602
1.03581 1.03955 1 0.996406
0.999504 1 1 0.999504
0.999493 1 1 0.999493
0.99949 1 1 0.99949
0.99954 1 1 0.99954
1.0021 1.00375 1 0.998349
1.00653 1.00809 1 0.998452
1.00709 1.00864 1 0.998463
1.03283 1.03605 1 0.996897
1 1 1 1
0.999476 1 1 0.999476
0.998525 1.00016 1 0.998367
1.00028 1.00195 1 0.998334
0.99976 1 1 0.99976
1.00243 1.00381 1 0.998622
1.0049 1.0065 1 0.998405
1.03371 1.03713 1 0.996701
1.02986 1.033 1 0.996962
1.0336 1.03688 1 0.996829
1.05232 1.05648 1 0.996059
0.998425 1.00007 1 0.998353
0.999383 1.00103 1 0.99836
1.02539 1.02876 1 0.996722
1.0303 1.03372 1 0.996688
1.0346 1.03799 1 0.996741
1.06634 1.07047 1 0.996142
1 1 1 1
1.05633 1.06048 1 0.996083
0.999579 1.00047 1.00044 0.998671
1.02083 1.02401 1 0.996893
1.04911 1.0533 1 0.996015
1.05666 1.06081 1 0.996082
1.00181 1 1.00268 0.999123
1.00669 1 1.00889 0.997821
1 1 1 1
1 1 1 1
1.00815 1.00976 1 0.998406
1 1 1 1
0.99962 1.0006 1.00035 0.998671
1.00516 1.00667 1 0.998497
1.02182 1.02506 1 0.996844
1 1 1 1
1.00203 1 1.00248 0.999546
1.00724 1.00878 1 0.998474
1.00805 1.00949 1 0.998575
1.03772 1.04139 1 0.996476
0.999998 1 1.00102 0.998978
1.02846 1.0318 1 0.996764
1.01336 1.0163 1.00008 0.997015
1.04029 1.04438 1 0.996086
1.00138 1 1.00213 0.999253
1.00207 1 1.00235 0.999718
1.00575 1.00052 1.00706 0.99819
1.04019 1.04394 1 0.996401
1.03518 1.03869 1 0.996617
1.06073 1.06502 1 0.995973
1.00854 1.01021 1.001 0.997345
1.04734 1.0514 1 0.99613
1.02859 1.03199 1.00057 0.99614
1.04676 1.05096 1 0.996004
1 1 1 1
1 1 1 1
1 1 1 1
1.00203 1 1.00271 0.999318
1 1 1 1
1 1 1 1
1 1 1 1
1.00291 1.0046 1 0.998308
0.999156 1.00083 1 0.998328
1 1 1 1
1 1 1 1
0.99847 1.00014 1 0.998329
1.00012 1.00167 1 0.998451
1.02821 1.03191 1 0.996415
1.00489 1.00659 1 0.998311
1.03512 1.03885 1 0.996404
0.998334 1 1 0.998332
1.02566 1.02937 1 0.996396
1.03113 1.03483 1 0.996425
1.06914 1.07391 0.999326 0.996227
1.03916 1.04293 1 0.996385
1.07216 1.07648 0.999819 0.996167
1 1 1 1
0.999506 1 1 0.999506
0.998139 1.00009 1 0.998054
0.999997 1.00167 1 0.998325
1 1 1 1
1.00376 1.00504 1 0.99872
1.00465 1.00626 1 0.998404
1.03364 1.03708 1 0.99668
1.03441 1.03768 1 0.996847
1.02906 1.03221 1 0.996949
1.05194 1.0561 1 0.996069
0.998359 1.00001 1 0.99835
0.999176 1.00083 1 0.99835
1.02546 1.02898 1 0.996578
1.03068 1.0341 1 0.996694
1 1 1 1
1.00034 1.00134 1.00023 0.998769
1.02172 1.02481 1 0.996993
1.03505 1.03844 1 0.996733
1.06657 1.07071 0.999976 0.996156
1.04926 1.05346 1 0.996013
1.05639 1.06051 1 0.996113
1.05624 1.06038 1 0.996092
1.00152 1 1.00242 0.99911
1.00574 1.00025 1.00768 0.997821
1.02461 1.0283 1 0.996418
1.02625 1.02964 1 0.996715
1.06683 1.07127 0.999616 0.996238
1.06618 1.07147 0.998872 0.996189
1.06141 1.0655 0.999977 0.996182
1.06541 1.07199 0.997466 0.996391
1.00044 1 1.00154 0.998898
1.05913 1.06324 0.999891 0.996247
1.012 1.01483 1.00011 0.9971
1.04361 1.04778 1 0.99602
1.05508 1.05941 1 0.99592
1.05579 1.05975 0.999866 0.996395
1.00399 1.00146 1.00502 0.997514
1.00656 1 1.0084 0.998178
1.00568 1.00285 1.00576 0.997079
1.00758 1.00925 1 0.99835
1 1 1 1
1.00183 1 1.00226 0.99957
1.00765 1.00919 1 0.998466
1.03704 1.04071 1 0.996474
1.00022 1 1.00124 0.998974
1.01229 1.01528 1.00004 0.997013
1.02837 1.03171 1 0.996765
1.04191 1.046 1 0.996088
1.00149 1 1.00222 0.999276
1.00164 1 1.0019 0.999736
1.00606 1.0001 1.00778 0.99819
1.03918 1.04293 1 0.996397
1.0344 1.03791 1 0.996619
1.06091 1.06521 1 0.995967
1.00629 1.00824 1.00072 0.997349
1.04795 1.05202 1 0.996127
1.03238 1.03591 1.00047 0.99613
1.0481 1.05229 1 0.996014
1.00135 1 1.00151 0.999834
1.00499 1.00334 1.00392 0.997733
1.00667 1 1.00804 0.998641
1.00835 1.00417 1.00666 0.997514
1.06518 1.06946 1 0.995999
1.05465 1.05884 1 0.996037
1.06204 1.06625 1 0.996051
1.01883 1.02192 1.00049 0.996493
1.04906 1.0531 1 0.996162
1.04409 1.04676 1.00158 0.995878
1.05803 1.06227 1 0.996008
0.999946 1 1.00049 0.999455
0.999938 1 1 0.999938
1 1 1 1
1 1 1 1
1 1 1 1
1.00219 1 1.00268 0.99951
1 1 1 1
1.00234 1 1.00304 0.9993
1 1 1 1
1.00573 1.00743 1 0.998312
1.00052 1.00221 1 0.998321
1.03487 1.0386 1 0.996403
1.02868 1.03238 1 0.996416
0.998631 1.0003 1 0.99833
1 1 1 1
0.998354 1.00002 1 0.998332
1.02607 1.02978 1 0.996396
1.03142 1.03512 1 0.996424
1.06865 1.07336 0.999386 0.996226
1.03845 1.04222 1 0.996381
1.07161 1.0759 0.999852 0.996165
1.02463 1.02833 1 0.996398
1.06751 1.07212 0.999494 0.996208
1.07116 1.07585 0.999421 0.996217
1.0678 1.07728 0.994597 0.996588
1.07016 1.07437 1 0.996083
1.0683 1.07723 0.995229 0.99647
0.998368 1.00002 1 0.998349
0.998968 1.00063 1 0.998339
1.0256 1.02927 1 0.996434
1.03102 1.03443 1 0.9967
1 1 1 1
1.00084 1.00193 1.00004 0.998869
1.0223 1.02528 1 0.997092
1.03549 1.03889 1 0.996725
1.06677 1.07093 0.999945 0.996169
1.05629 1.06038 1 0.996144
1.0498 1.054 1 0.996012
1.05594 1.06008 1 0.996101
1.00139 1 1.00229 0.999097
1.00592 1.00075 1.00737 0.997821
1.02462 1.0283 1 0.996416
1.02674 1.03013 1 0.996708
1.06628 1.07108 0.999244 0.996267
1.06748 1.07224 0.999388 0.996172
1.00004 1 1.00115 0.998887
1.01323 1.01601 1.00016 0.9971
1.04356 1.0477 1 0.996042
1.06121 1.06532 0.999985 0.996155
1.06459 1.07164 0.996966 0.996444
1.05452 1.05885 1 0.995917
1.05932 1.06347 0.999847 0.996251
1.05587 1.05984 0.999865 0.996385
1.00491 1.0026 1.0048 0.997513
1.00689 1.00349 1.00633 0.997076
1.00768 1.00001 1.00951 0.998179
1.06615 1.07055 0.999668 0.996221
1.06736 1.07245 0.998981 0.996264
1.06824 1.07631 0.99598 0.996513
1.06622 1.07528 0.995083 0.996467
1.06087 1.06634 0.998471 0.996389
1.05665 1.06899 0.991673 0.996752
1.00377 1.00576 1.00071 0.997315
1.05633 1.06295 0.99719 0.996572
1.031 1.03487 1 0.996259
1.04693 1.05145 1 0.995697
1.05143 1.05567 1 0.995987
1.04854 1.05387 0.998267 0.99667
1.00857 1 1.0101 0.998482
1.00601 1.00815 1.00102 0.996866
1.00934 1.00086 1.01117 0.997324
1.00678 1.00709 1.00298 0.996729
1.03823 1.04199 1 0.996393
1.00125 1 1.00149 0.999755
1.00176 1 1.00246 0.9993
1.00728 1.00001 1.00909 0.998189
1.03374 1.03724 1 0.99662
1.06099 1.0653 1 0.995961
1.00295 1.00511 1.0005 0.997354
1.03379 1.03748 1.00033 0.99612
1.04874 1.05282 1 0.996125
1.04785 1.05203 1 0.996024
1.00074 1 1.00089 0.999848
1.00467 1.00218 1.00476 0.997739
1.00696 1.00001 1.00832 0.998647
1.00756 1.00309 1.00696 0.997511
1.06525 1.06953 1 0.995992
1.05487 1.05907 1 0.996034
1.06152 1.06573 1 0.996049
1.01655 1.01966 1.00045 0.996498
1.04855 1.05261 1 0.996146
1.0412 1.04372 1.00173 0.995865
1.05736 1.06149 1 0.996102
0.999901 1 1 0.999901
1.00437 1 1.00539 0.998985
1.00913 1.01019 1.00191 0.997043
1.01064 1.0018 1.01095 0.997895
1.00633 1.00585 1.00322 0.997267
1.06619 1.07084 0.999491 0.996166
1.05515 1.05931 1 0.996066
1.05603 1.06063 0.99942 0.996237
1.02005 1.022 1.00199 0.996103
1.04959 1.05357 1 0.996216
1.03438 1.03792 1.00086 0.995728
0.99976 1 1.0004 0.999364
1.00107 1 1.0023 0.998774
0.999533 1 1 0.999533
0.99958 1 1.00012 0.999457
0.999961 1 1 0.999961
0.999944 1 1 0.999944
1 1 1 1
1 1 1 1
1 1 1 1
1.00125 1 1.00154 0.999713
1 1 1 1
1.00226 1 1.00276 0.999493
1 1 1 1
1.00203 1 1.00275 0.999282
1 1 1 1
1.03756 1.04133 1 0.996376
1.03144 1.03514 1 0.996423
1.07074 1.07499 0.999884 0.996162
1.06804 1.07268 0.999447 0.996225
1.02641 1.03012 1 0.996397
0.998358 1.00003 1 0.99833
1.02483 1.02853 1 0.996398
1.0671 1.07167 0.999524 0.996208
1.07042 1.07503 0.999492 0.996215
1.06744 1.0775 0.994037 0.996605
1.06935 1.07356 0.999998 0.996078
1.0688 1.07762 0.995328 0.996469
1.06629 1.07081 0.999582 0.996197
1.06717 1.0768 0.994425 0.996612
1.06824 1.07797 0.994405 0.996552
1.06192 1.0742 0.991722 0.996818
1.06661 1.07345 0.997293 0.996334
1.06132 1.07718 0.988429 0.996809
1.02456 1.02824 1 0.996414
1.02725 1.03065 1 0.996702
1.06577 1.07092 0.998888 0.996296
1.0688 1.07304 0.9999 0.996155
0.999684 1.00004 1.00077 0.998877
1.01545 1.01825 1.00015 0.9971
1.04455 1.04868 1 0.996064
1.06099 1.06511 1 0.996128
1.0638 1.07132 0.996468 0.996498
1.05954 1.06373 0.999805 0.996255
1.05373 1.05805 1 0.995914
1.05593 1.0599 0.999875 0.996375
1.00575 1.0039 1.00434 0.997512
1.00623 1.00288 1.00629 0.997073
1.00785 1 1.00968 0.99818
1.06597 1.07039 0.99965 0.996215
1.06695 1.07228 0.998762 0.996262
1.0677 1.07642 0.995327 0.99656
1.06625 1.07478 0.995609 0.996441
1.00676 1.00852 1.00094 0.997314
1.03045 1.03432 1 0.996258
1.046 1.05046 1.00003 0.995724
1.06143 1.06653 0.998878 0.996341
1.05609 1.06927 0.990848 0.9968
1.0525 1.05679 1 0.995947
1.05646 1.06304 0.997226 0.996573
1.04965 1.05477 0.998433 0.996708
1.00697 1.00861 1.00151 0.996866
1.00632 1.00609 1.00355 0.996682
1.00746 1 1.009 0.998481
1.0085 1.00054 1.01061 0.997366
1.06752 1.07607 0.995478 0.996562
1.06963 1.07846 0.995305 0.996491
1.05702 1.06993 0.991178 0.996734
1.05502 1.07133 0.987912 0.996828
1.05601 1.06653 0.993391 0.996724
1.05583 1.07199 0.987921 0.996971
1.01465 1.01814 1 0.99657
1.04798 1.05918 0.992468 0.996941
1.03296 1.03725 1 0.995858
1.04267 1.04714 1.00018 0.995552
1.05054 1.05476 1 0.996005
1.05261 1.05809 0.998084 0.996736
1.00412 1 1.00536 0.998763
1.01257 1.00121 1.0138 0.997591
1.01061 1.01417 1 0.996489
1.00844 1.00458 1.00686 0.997014
1.00911 1.00641 1.00618 0.996521
1.00023 1 1.00037 0.999862
1.06527 1.06956 1 0.995985
1.00701 1.00006 1.00831 0.998653
1.00436 1.00113 1.00549 0.997744
1.00647 1.00193 1.00705 0.997507
1.05505 1.05926 1 0.996031
1.06104 1.06526 1 0.996046
1.01708 1.02013 1.00051 0.996503
1.04101 1.04333 1.00193 0.995851
1.04816 1.05224 1 0.99613
1.05753 1.06157 1 0.996195
0.99991 1 1 0.99991
1.00442 1 1.00543 0.998995
1.00685 1.00847 1.00135 0.997051
1.01155 1.00162 1.01204 0.997889
1.00623 1.00539 1.00363 0.997213
1.06601 1.0706 0.999551 0.996161
1.05487 1.05904 1 0.996065
1.05569 1.06035 0.999379 0.996225
1.02113 1.02295 1.00213 0.996101
1.05296 1.05698 1 0.996197
1.03463 1.03803 1.00096 0.995764
1.00096 1 1.00174 0.999224
1.00766 1 1.0094 0.998278
1.00362 1.00648 1.0005 0.996653
1.01374 1.0056 1.01059 0.997534
1.00956 1.01044 1.00203 0.997096
1.0617 1.06972 0.996081 0.996405
1.05028 1.05429 1 0.996193
1.05164 1.05775 0.997765 0.996456
1.00585 1.0061 1.00379 0.995973
1.0315 1.03589 1 0.995758
1.00004 1 1.00067 0.999366
0.999553 1 1.00088 0.998677
1.00129 1 1.00255 0.998749
1.00099 1 1.00249 0.998503
1.0005 1 1.00165 0.998843
0.999582 1 1 0.999582
0.999567 1 1.00003 0.999536
0.999979 1 1 0.999979
0.999573 1 1.00011 0.999459
0.999966 1 1 0.999966
1 1 1 1
0.999949 1 1 0.999949
1 1 1 1
1 1 1 1
1.00011 1 1.00023 0.999882
1.00198 1 1.00229 0.999693
1 1 1 1
1 1 1 1
1.00296 1 1.00349 0.999476
1 1 1 1
1.06867 1.07288 1 0.996073
1.06997 1.07451 0.999559 0.996213
1.06939 1.07812 0.995419 0.996468
1.06717 1.07782 0.99347 0.996622
1.06666 1.0712 0.999553 0.996209
1.02499 1.0287 1 0.996398
1.06607 1.07056 0.999598 0.996198
1.06711 1.07659 0.994574 0.996607
1.06871 1.0785 0.994352 0.996553
1.06124 1.07412 0.991135 0.996847
1.0676 1.07435 0.997376 0.996328
1.06156 1.07733 0.9885 0.996831
1.06737 1.07649 0.994931 0.996582
1.0595 1.07316 0.990445 0.996798
1.06253 1.07599 0.990578 0.996881
1.06228 1.07926 0.987268 0.996966
1.06149 1.07503 0.990735 0.996641
1.06367 1.0823 0.985715 0.99703
1.06576 1.07021 0.999632 0.996209
1.06653 1.07209 0.998548 0.996261
1.06709 1.07649 0.994639 0.996608
1.06622 1.07421 0.996137 0.996414
1.00864 1.01013 1.00121 0.997313
1.02754 1.0314 1 0.996257
1.04445 1.04872 1.00018 0.995751
1.06206 1.06677 0.999284 0.996294
1.05559 1.06953 0.990088 0.996847
1.05664 1.06319 0.997253 0.996574
1.05352 1.05785 1 0.995908
1.05056 1.05548 0.998584 0.996746
1.00929 1.01022 1.00222 0.996866
1.00699 1.00682 1.00354 0.996635
1.00708 1 1.00861 0.99848
1.00755 1.00012 1.01005 0.997409
1.06765 1.07619 0.995488 0.996562
1.06924 1.07803 0.995356 0.996474
1.05708 1.07013 0.991012 0.996765
1.05597 1.07138 0.988772 0.996811
1.0156 1.01878 1.00032 0.996563
1.0315 1.03572 1.00003 0.995891
1.0425 1.04677 1.00039 0.99554
1.05683 1.06659 0.994156 0.996674
1.05427 1.07097 0.987339 0.997027
1.04827 1.05249 1 0.99599
1.04917 1.06049 0.992367 0.996941
1.05257 1.05801 0.998047 0.996804
1.00955 1.0131 1 0.996493
1.00669 1.00659 1.0036 0.996507
1.00759 1.00313 1.00746 0.99701
1.00471 1 1.00598 0.998734
1.01193 1.0005 1.01382 0.997632
1.05838 1.07212 0.990364 0.996781
1.05863 1.07383 0.989011 0.996797
1.05445 1.07613 0.982797 0.997011
1.04939 1.0671 0.986333 0.997031
1.01743 1.0213 1 0.996212
1.0529 1.06477 0.991714 0.997113
1.01957 1.02375 1.00029 0.995631
1.03552 1.03979 1.00051 0.995388
1.04586 1.0502 0.999866 0.996006
1.00091 1 1.00185 0.999062
1.01031 1 1.01232 0.99802
1.00756 1.00012 1.01017 0.997305
1.0074 1.01063 1.00046 0.996354
1.00926 1.00514 1.00753 0.996599
1.00912 1.00683 1.00595 0.996348
0.999919 1 1 0.999919
1.00418 1 1.00518 0.999006
1.06579 1.07032 0.999615 0.996156
1.01295 1.0014 1.01367 0.997883
1.00348 1.0057 1.00074 0.997059
1.00621 1.00515 1.0039 0.997159
1.05447 1.05864 1 0.996063
1.0555 1.06021 0.999342 0.996214
1.02076 1.02241 1.00229 0.996099
1.03365 1.0372 1.00077 0.995799
1.05655 1.06061 1 0.996179
1.00042 1 1.00119 0.999229
1.00851 1 1.01025 0.998281
1.00641 1.00934 1.00047 0.996623
1.01383 1.00476 1.01153 0.99753
1.00982 1.01099 1.00176 0.997082
1.0605 1.06847 0.996124 0.9964
1.05216 1.05619 1 0.996179
1.05326 1.05917 0.997931 0.996479
1.00773 1.00857 1.00324 0.995942
1.02964 1.034 1.00006 0.995726
1.00262 1 1.00405 0.998574
1.01239 1.00058 1.014 0.997844
1.00484 1.00627 1.00211 0.996475
1.01588 1.01121 1.00741 0.997226
1.02185 1.02394 1.00107 0.996894
1.05196 1.0679 0.988136 0.996896
1.05345 1.05762 1 0.996053
1.05634 1.06197 0.998267 0.99643
1.00945 1.00925 1.00433 0.99589
1.01466 1.01923 1 0.99552
0.99971 1 1.00034 0.999369
0.999332 1 1.00064 0.99869
0.998725 1 1.00025 0.998471
1.00026 1 1.00154 0.998724
0.999944 1 1.00111 0.998841
1.00184 1 1.00336 0.998484
0.999857 1 1.00138 0.998484
1.0025 1 1.00408 0.998427
0.999218 1 1.00032 0.998898
0.999577 1 1 0.999577
0.999582 1 1 0.999582
0.999992 1 1 0.999992
0.999539 1 1 0.999539
0.999984 1 1 0.999984
1 1 1 1
0.999972 1 1 0.999972
1 1 1 1
1 1 1 1
0.999967 1 1 0.999967
1.00038 1 1.00052 0.999858
1 1 1 1
1.00221 1 1.00254 0.999674
1 1 1 1
1 1 1 1
1.06859 1.07526 0.997456 0.996323
1.06896 1.0788 0.994306 0.996553
1.06178 1.07745 0.988563 0.996853
1.06054 1.07399 0.990576 0.996876
1.06709 1.07639 0.994737 0.996601
1.0659 1.07038 0.999614 0.996199
1.06751 1.07639 0.995163 0.996563
1.06006 1.07323 0.990911 0.996791
1.06186 1.07531 0.990596 0.996867
1.06079 1.07856 0.986509 0.996976
1.06126 1.07462 0.990896 0.996644
1.06108 1.08058 0.984839 0.997067
1.06055 1.07331 0.991317 0.996772
1.06181 1.08036 0.985819 0.996967
1.06309 1.08214 0.985297 0.997055
1.05564 1.07874 0.981449 0.997081
1.0678 1.07633 0.995498 0.996561
1.06891 1.07766 0.995414 0.996456
1.05722 1.07038 0.990873 0.996795
1.05696 1.07152 0.989587 0.996794
1.01748 1.02061 1.00038 0.996557
1.03044 1.03466 1 0.995926
1.04236 1.04644 1.00058 0.995528
1.05744 1.0665 0.994869 0.996623
1.05265 1.06997 0.986698 0.997082
1.0502 1.0616 0.992299 0.996941
1.04651 1.05074 1 0.995975
1.05353 1.05855 0.998378 0.996872
1.00456 1.00766 1.00043 0.996496
1.00619 1.00699 1.00272 0.996492
1.00827 1.00257 1.00871 0.997006
1.00475 1 1.00605 0.998706
1.01137 1.0001 1.01362 0.997674
1.05842 1.07211 0.990417 0.996782
1.05925 1.07446 0.989014 0.996793
1.05483 1.07541 0.983818 0.997003
1.01741 1.02128 1 0.996211
1.01948 1.02365 1.00026 0.995666
1.03425 1.03826 1.00076 0.995377
1.04968 1.06701 0.986697 0.997017
1.04895 1.0534 0.99964 0.996129
1.04915 1.06134 0.991408 0.997079
1.00128 1 1.00216 0.999114
1.00678 1.00836 1.00209 0.99635
1.0093 1.00536 1.00748 0.996455
1.01251 1.0069 1.009 0.996594
1.01022 1.00215 1.01076 0.997328
1.01077 1 1.01281 0.997987
1.06065 1.07849 0.986563 0.996853
1.05884 1.08285 0.980815 0.996951
1.04787 1.074 0.978522 0.997086
1.04389 1.06844 0.97974 0.997225
1.01085 1.01459 1.00027 0.99604
1.04464 1.05206 0.996258 0.996671
1.00856 1.01168 1.00165 0.995272
1.02288 1.0267 1.00104 0.995244
0.999513 1 1.00005 0.999465
1.00505 1 1.00662 0.998445
1.00929 1.00022 1.01144 0.99766
1.01097 1.00261 1.01157 0.996793
1.00659 1.00504 1.00531 0.996259
1.01421 1.00574 1.01231 0.996165
1.00033 1 1.0011 0.999234
1.00917 1 1.0109 0.998285
1.05939 1.06732 0.996164 0.996395
1.01342 1.00373 1.01216 0.997527
1.00917 1.01235 1.00027 0.996593
1.00908 1.01051 1.00152 0.997067
1.05413 1.05818 1 0.996166
1.05467 1.06042 0.998069 0.996501
1.01018 1.01157 1.00273 0.995911
1.02761 1.03178 1.00027 0.995693
1.00282 1 1.00425 0.998578
1.01248 1.0003 1.01439 0.997819
1.00525 1.00679 1.002 0.996481
1.01548 1.01152 1.0067 0.997233
1.02418 1.02683 1.00048 0.996947
1.05437 1.07014 0.988279 0.996944
1.05299 1.05712 1 0.996091
1.05738 1.06268 0.9985 0.99651
1.01041 1.00999 1.00458 0.995855
1.01423 1.01885 1.00003 0.995433
1.00346 1 1.00519 0.998277
1.01174 1.00193 1.01237 0.997464
1.01445 1.01424 1.00378 0.996437
1.02007 1.0216 1.00173 0.996779
1.05256 1.08958 0.968747 0.997188
1.0526 1.064 0.992308 0.996949
1.03817 1.04269 1 0.995662
1.01729 1.01758 1.00426 0.995481
0.999924 1 1.00122 0.998703
0.998973 1 1.0005 0.998474
0.998856 1 1.0003 0.998558
1.00033 1 1.00149 0.998839
1.0033 1 1.00484 0.998466
0.999283 1 1.00039 0.998894
0.999719 1 1.00121 0.998508
1.0032 1 1.00478 0.998435
0.998661 1 1 0.998661
1.00279 1 1.00449 0.998312
1.00166 1 1.00327 0.998394
0.998872 1 1 0.998872
0.999535 1 1 0.999535
0.999575 1 1 0.999575
0.999997 1 1 0.999997
0.999582 1 1 0.999582
0.999994 1 1 0.999994
1 1 1 1
0.999988 1 1 0.999988
1 1 1 1
1 1 1 1
0.999993 1 1 0.999993
0.99995 1 1 0.99995
1 1 1 1
1.00093 1 1.0011 0.999833
1 1 1 1
1 1 1 1
1.06094 1.07411 0.991055 0.996646
1.06131 1.07475 0.990619 0.996852
1.05857 1.07892 0.983992 0.997103
1.05926 1.07788 0.985691 0.996986
1.06062 1.07333 0.991347 0.996784
1.06764 1.0763 0.995387 0.996545
1.06027 1.07316 0.991188 0.996772
1.06159 1.07997 0.985972 0.996958
1.0616 1.08126 0.984721 0.997052
1.05628 1.07923 0.981595 0.997092
1.06278 1.08028 0.986851 0.996913
1.0622 1.08676 0.980223 0.997115
1.06341 1.0905 0.977941 0.997157
1.05844 1.07209 0.990454 0.996783
1.05979 1.07501 0.989021 0.996789
1.05532 1.07468 0.984948 0.996996
1.02014 1.02403 1 0.996209
1.01899 1.0232 1.00018 0.995701
1.03279 1.03672 1.00085 0.995365
1.05005 1.06705 0.987023 0.997004
1.04483 1.05797 0.990503 0.997045
1.05134 1.05613 0.999213 0.996252
1.00677 1.0072 1.00324 0.996345
1.00389 1.00218 1.00516 0.996564
1.01403 1.00812 1.00931 0.996589
1.00146 1 1.00229 0.999167
1.01094 1.00342 1.01017 0.99735
1.01153 1 1.01361 0.997953
1.0613 1.07887 0.98681 0.996862
1.05804 1.08263 0.980274 0.996955
1.04826 1.07392 0.978966 0.997078
1.00894 1.01286 1.00009 0.996033
1.00826 1.01156 1.0014 0.995346
1.02306 1.02692 1.0009 0.995345
1.04452 1.06829 0.98047 0.997227
1.03993 1.04834 0.995315 0.996648
0.999556 1 1.00001 0.999541
1.0048 1 1.00637 0.998441
1.00344 1.00366 1.0035 0.996297
1.0168 1.00491 1.01554 0.996341
1.01153 1.00405 1.01063 0.996847
1.00913 1.00036 1.01118 0.997613
1.06048 1.08559 0.979774 0.997034
1.04856 1.08609 0.968313 0.997042
1.04437 1.07398 0.975088 0.99727
1.03257 1.05326 0.983095 0.997219
1.00208 1.00495 1.00133 0.995818
1.02388 1.02726 1.00098 0.995736
1.00876 1.01106 1.00264 0.995096
0.999752 1 1 0.999752
0.999176 1 1 0.999176
1.00017 1 1.00133 0.998844
1.0044 1 1.0065 0.997912
1.00983 1 1.01263 0.997239
1.01797 1.00399 1.01746 0.996529
1.00396 1.00192 1.00555 0.9965
1.04045 1.00269 1.04107 0.996728
1.00229 1 1.00372 0.998582
1.01293 1 1.01516 0.997794
1.05699 1.07249 0.988521 0.996991
1.0171 1.01353 1.0063 0.997239
1.00567 1.00704 1.00215 0.996488
1.02602 1.02907 1.00004 0.997001
1.05252 1.05661 1 0.99613
1.05837 1.06337 0.998698 0.99659
1.01096 1.01034 1.00482 0.995821
1.0136 1.01834 1 0.995346
1.00374 1 1.00552 0.998229
1.01034 1.00095 1.01197 0.997454
1.01828 1.01768 1.00415 0.996452
1.01963 1.02136 1.00149 0.99682
1.054 1.09208 0.967841 0.997207
1.05574 1.06633 0.99315 0.996894
1.03607 1.04056 0.999966 0.995719
1.0193 1.02013 1.00377 0.995431
1.00401 1 1.00592 0.998095
1.06266 1.09895 0.969674 0.997215
1.00641 1.00202 1.00732 0.997071
1.01845 1.01958 1.00268 0.996217
1.03679 1.07464 0.967362 0.997334
1.03139 1.03671 0.999061 0.995806
1.01354 1.01514 1.00323 0.995205
0.999409 1 1.00093 0.998477
0.998384 0.999475 1.00036 0.998549
0.998956 0.999122 1.00111 0.998725
0.999111 1 1.00022 0.998891
1.00316 1 1.00473 0.998443
0.999762 1 1.00123 0.998532
0.998869 1 1 0.998869
1.00184 1 1.00344 0.998401
0.998854 1 1.00016 0.998695
1.00196 1 1.00365 0.998321
0.998815 1 1 0.998815
0.999323 1 1.00081 0.998515
1.00286 1 1.0047 0.998165
0.999093 1 1.0008 0.998292
0.998779 1 1 0.998779
0.999487 1 1 0.999487
0.999531 1 1 0.999531
0.999998 1 1 0.999998
0.999573 1 1 0.999573
0.999997 1 1 0.999997
1 1 1 1
0.999995 1 1 0.999995
1 1 1 1
1 1 1 1
0.999788 1 1 0.999788
0.999999 1 1 0.999999
0.999988 1 1 0.999988
1 1 1 1
0.999933 1 1 0.999933
1 1 1 1
1 1 1 1
1.05693 1.0797 0.98176 0.997103
1.06014 1.08039 0.984166 0.997049
1.06143 1.07961 0.986169 0.996948
1.05996 1.07296 0.991081 0.996773
1.06254 1.08043 0.986474 0.996932
1.06225 1.08645 0.980562 0.997106
1.06027 1.08744 0.977788 0.997162
1.0618 1.08702 0.979642 0.997098
1.0746 1.10321 0.976804 0.997198
1.08042 1.11055 0.975341 0.997461
1.06207 1.07934 0.987093 0.996871
1.05704 1.08242 0.979537 0.996959
1.04871 1.07382 0.979486 0.99707
1.00733 1.0113 1.00006 0.996026
1.00921 1.01257 1.00126 0.995424
1.02517 1.02906 1.00078 0.995445
1.04539 1.06789 0.981649 0.997229
1.03534 1.04427 0.994802 0.996625
1.00489 1.00369 1.00488 0.996335
1.02213 1.00514 1.02045 0.996513
1.01342 1.00542 1.01109 0.996901
0.999617 1 1 0.999617
1.00462 1 1.00619 0.998438
1.00902 1.00012 1.01136 0.997566
1.06009 1.0859 0.97913 0.997043
0.999746 1 1 0.999746
0.999132 1 1 0.999132
1.05002 1.08513 0.970513 0.997044
1.04251 1.07229 0.974924 0.99724
1.00309 1.00529 1.00192 0.9959
1.00836 1.00997 1.00332 0.995108
1.02281 1.02732 0.999888 0.995722
1.03164 1.05314 0.982338 0.997191
1.00049 1 1.00156 0.998935
1.00472 1 1.00683 0.997901
1.00421 1.00193 1.00591 0.996387
1.0345 1.00254 1.03516 0.996833
1.01531 1.0026 1.01618 0.996548
1.00896 1 1.01174 0.997256
1.07139 1.10412 0.973138 0.997144
1.03097 1.08416 0.953646 0.99717
1.02898 1.06274 0.970739 0.997416
1.01533 1.03242 0.986494 0.996906
1.00537 1.0028 1.00649 0.996107
1.009 1.00831 1.0055 0.995208
0.999076 1 1 0.999076
0.999153 1 1 0.999153
0.999019 1.00021 1 0.998813
1.00012 1 1.00195 0.998174
1.00955 1 1.01196 0.997616
1.00779 1.00036 1.01056 0.996896
1.0601 1.00014 1.06354 0.996627
0.995115 1.00049 0.997259 0.997359
1.00441 1 1.00624 0.998182
1.00833 1 1.01091 0.997444
1.05488 1.09365 0.967232 0.997226
1.05852 1.06832 0.993977 0.996839
1.01943 1.02146 1.00115 0.996861
1.02314 1.02225 1.00441 0.996467
1.03435 1.03874 0.999993 0.995776
1.02207 1.02338 1.00335 0.995381
1.0042 1 1.00614 0.998071
1.06542 1.10274 0.968794 0.997284
1.00655 1.00119 1.00825 0.997124
1.01593 1.01711 1.00269 0.996152
1.03727 1.07438 0.968059 0.997309
1.02955 1.03498 0.998851 0.9959
1.01473 1.01606 1.00348 0.995219
1.00825 0.999354 1.0111 0.997826
1.00926 1.058 0.956135 0.997698
1.00465 1.00207 1.00576 0.996825
1.00568 1.00625 1.00379 0.995659
1.01718 1.03609 0.984857 0.996842
1.00289 1.00523 1.00221 0.995473
0.957159 1.00286 0.957667 0.996623
0.997628 0.998579 1.00051 0.998541
0.99889 0.997855 1.00231 0.998729
1.00096 0.999459 1.00283 0.998668
0.998865 1 1 0.998865
1.00283 1 1.00442 0.998408
1.00087 1 1.00255 0.998331
0.998966 1 1.00024 0.99873
0.998778 1 1 0.998778
0.999216 1 1.00092 0.998293
0.998781 1 1 0.998781
1.00267 1 1.00452 0.998166
0.999129 1 1.00065 0.998484
0.999986 1 1.00122 0.99877
0.998855 1 1.00086 0.997994
1.00296 1 1.00484 0.998128
0.998503 1 1.00034 0.99816
0.998609 1 1 0.998609
1.00055 1 1.0022 0.998356
0.998983 1 1.00041 0.998575
0.999467 1 1 0.999467
0.999483 1 1 0.999483
0.999999 1 1 0.999999
0.999526 1 1 0.999526
0.999999 1 1 0.999999
1 1 1 1
0.999998 1 1 0.999998
1 1 1 1
1 1 1 1
0.999831 1 1 0.999831
0.999791 1 1 0.999791
1 1 1 1
0.999998 1 1 0.999998
1 1 1 1
0.999982 1 1 0.999982
1 1 1 1
1 1 1 1
1.05725 1.08459 0.97756 0.997168
1.06215 1.0861 0.980799 0.997097
1.06222 1.08051 0.986076 0.996951
1.06157 1.08684 0.979589 0.997096
1.07129 1.09991 0.976718 0.997192
1.07928 1.10935 0.975455 0.997376
1.07935 1.11348 0.972005 0.997263
0.958543 1.01605 0.948598 0.994518
1.02875 1.0659 0.966918 0.998174
0.999261 1 1 0.999261
1.05975 1.08616 0.978573 0.997052
1.05155 1.08445 0.972533 0.997046
1.04034 1.07082 0.974255 0.997209
1.00009 1.0033 1.00082 0.995979
1.00677 1.00766 1.00402 0.995118
1.02069 1.02592 0.999191 0.995709
1.03046 1.05307 0.981311 0.997162
0.998812 1.00199 1.00055 0.996278
1.02837 1.00248 1.02897 0.996946
1.01199 1.00112 1.01434 0.996566
0.999741 1 1 0.999741
1.00938 1 1.01214 0.997274
1.00067 1 1.00165 0.999024
1.00495 1 1.00708 0.997889
0.999201 1 1.00011 0.99909
1.06839 1.10452 0.97005 0.997151
0.999131 1 1 0.999131
0.999415 1 1.00026 0.999155
0.998875 1.00057 0.999526 0.998775
1.03506 1.08467 0.956976 0.997168
1.02807 1.062 0.970608 0.997367
1.00174 1.00217 1.00344 0.996141
1.01369 1.01301 1.00534 0.995352
1.01404 1.03027 0.987318 0.996888
0.999923 1 1.00169 0.998239
1.00886 1 1.01132 0.997563
1.00615 1.00031 1.00867 0.99719
1.04901 1.0007 1.05181 0.996638
1.00769 1.00061 1.01015 0.996952
1.04342 1.09404 0.956353 0.997259
1.00801 1.07002 0.944566 0.997332
1.0204 1.04263 0.98157 0.997048
0.995542 1.01448 0.984623 0.996659
1.00212 1 1.00519 0.99695
0.998651 1 1 0.998651
0.999392 1.00038 1.00047 0.998547
1.00085 1 1.0023 0.998555
1.0112 1 1.01326 0.99796
1.01103 1 1.01354 0.997524
1.04351 0.999932 1.04663 0.997087
1.03011 1.00181 1.03096 0.997373
1.00422 1 1.00618 0.998045
1.00597 1 1.00882 0.997177
1.06704 1.10672 0.966699 0.997352
1.03826 1.0749 0.968545 0.997284
1.02792 1.03358 0.998523 0.995994
1.01208 1.01334 1.00268 0.996088
1.01536 1.01656 1.0036 0.995234
1.00852 0.999735 1.01092 0.997893
1.01078 1.05922 0.956416 0.997749
1.00166 1.00147 1.00338 0.996833
1.00435 1.00463 1.00408 0.995659
1.01494 1.03495 0.98364 0.996975
1.00368 1.0055 1.00273 0.99547
0.958256 1.00234 0.960387 0.995449
1.00828 0.998791 1.01175 0.997774
0.991753 1.02595 0.968906 0.997693
1.00101 1.00137 1.00305 0.996592
1.00438 1.00192 1.00644 0.996047
0.992318 1.00688 0.988765 0.996737
0.896574 0.973514 0.949405 0.970046
0.883923 0.960885 0.934502 0.984379
0.957259 0.97987 0.979946 0.996917
0.681981 0.814728 0.894474 0.935819
0.591907 0.757518 0.853967 0.914996
0.998932 0.996935 1.00327 0.998733
1.0017 0.997874 1.00512 0.998721
1.00306 0.999984 1.00438 0.998703
0.998777 1 1 0.998777
0.999118 1 1.00083 0.998293
1.0019 1 1.00374 0.998166
0.999075 1 1.00062 0.998452
0.998747 1 1 0.998747
1.00374 1 1.00564 0.99811
0.998647 1 1 0.998647
0.998466 1 1.00029 0.998179
0.999502 1 1.00079 0.998708
0.999578 1 1.00152 0.998058
1.00448 1 1.00641 0.998081
1.00637 0.999905 1.00817 0.998308
1.00419 1 1.00613 0.998068
0.998959 1 1.0009 0.998058
0.998589 1 1.00001 0.998577
0.999286 1 1.00111 0.998181
1.00029 1 1.00204 0.998258
1.00041 1 1.00198 0.998427
1.0004 1 1.00208 0.998318
0.998927 1 1.00022 0.998703
0.99913 1 1.00056 0.998572
0.99946 1 1 0.99946
0.999467 1 1 0.999467
1 1 1 1
0.99948 1 1 0.99948
1 1 1 1
1 1 1 1
0.999999 1 1 0.999999
1 1 1 1
1 1 1 1
0.999882 1 1 0.999882
0.999828 1 1 0.999828
1 1 1 1
0.999792 1 1 0.999792
1 1 1 1
1 1 1 1
0.999997 1 1 0.999997
1 1 1 1
1 1 1 1
1.06801 1.09665 0.976626 0.997187
1.06141 1.08668 0.979591 0.997095
1.07829 1.10762 0.976158 0.997292
0.959979 1.01579 0.950178 0.994607
1.077 1.11131 0.971791 0.997262
1.03762 1.06853 0.972973 0.998042
1.05673 1.08566 0.975889 0.997394
0.912356 0.975575 0.950843 0.983547
0.983585 1.02031 0.968358 0.995502
0.999301 1 1 0.999301
0.999254 1 1 0.999254
0.998759 1 1 0.998759
0.998885 1 1 0.998885
1.06569 1.10432 0.967774 0.997158
1.03912 1.08436 0.961007 0.997165
1.02777 1.06127 0.971039 0.997317
1.0005 1.00127 1.00306 0.996176
1.01835 1.01833 1.00455 0.995497
1.01278 1.02818 0.98812 0.996869
1.01798 1 1.02103 0.997016
1.03881 1.00114 1.04112 0.996649
1.00727 1.00037 1.00992 0.997007
0.999806 1 1.00065 0.999157
1.00678 1 1.00929 0.997512
0.999647 1 1.00134 0.998305
0.999186 1 1 0.999186
0.999117 1.00099 0.999389 0.998736
1.04231 1.094 0.95536 0.997274
0.998674 1 1 0.998674
0.999138 1.0006 0.999909 0.99863
1.0004 0.999608 1.00202 0.998778
1.0151 1.07354 0.948108 0.99732
1.02104 1.04258 0.982241 0.997048
1.00062 1.00083 1.00286 0.996935
0.99824 1.01365 0.988023 0.996735
1.00945 1 1.01161 0.997863
1.01091 1 1.01358 0.99737
1.03563 1.00242 1.03588 0.997352
1.04306 1.00098 1.0452 0.996979
0.996657 1.05681 0.94548 0.997461
0.997553 1.04527 0.95691 0.997328
1.00902 1.01754 0.994903 0.996702
0.975876 1.00114 0.976919 0.99779
1.00432 1 1.00584 0.998487
1.00439 1 1.00625 0.998158
1.01844 0.999516 1.02081 0.998162
1.06363 1.00091 1.06547 0.997366
0.878786 0.968537 0.939682 0.965575
1.00953 1 1.0116 0.99796
0.999929 1.00091 1.00219 0.996839
1.01225 1.06033 0.956755 0.997804
1.01259 1.03341 0.982692 0.997107
1.00439 1.00566 1.0033 0.995464
1.00358 1.00348 1.00447 0.995656
0.959034 1.00313 0.961586 0.994237
1.00666 0.99849 1.01037 0.997831
0.990738 1.02665 0.96727 0.997671
1.0009 1.00148 1.00283 0.996606
1.00493 1.00288 1.00601 0.996057
0.995514 1.008 0.990865 0.99672
0.889436 0.977678 0.942123 0.965631
0.878558 0.956406 0.936187 0.981218
0.961165 0.980502 0.98326 0.996967
0.675277 0.807881 0.89166 0.937422
0.579439 0.749994 0.849428 0.909544
1.00288 0.998544 1.00642 0.997938
0.70697 0.825939 0.909949 0.940667
0.626168 0.769142 0.889373 0.915377
0.986573 1.00556 0.983305 0.997776
1.00905 1.00152 1.01027 0.997283
1.01433 1.00569 1.01143 0.997201
0.948623 0.968682 0.981877 0.997368
0.862432 0.948769 0.938998 0.968053
0.844023 0.925826 0.931082 0.979123
0.663496 0.798182 0.882036 0.942431
0.644468 0.817502 0.865419 0.910933
1.00213 0.996301 1.00708 0.998773
1.00208 0.998512 1.0049 0.998676
1.0121 1 1.01328 0.998837
0.998686 1 1 0.998686
0.998237 1 1.00004 0.998198
1.00435 1 1.00627 0.998092
1.00066 1 1.00254 0.998122
0.998646 1 1 0.998646
0.998609 1 1.00003 0.998577
1.00508 1 1.00703 0.998055
1.00447 1 1.00642 0.998062
0.998487 1 1.00038 0.998105
1.0071 0.999799 1.00897 0.99835
1.0072 1 1.00897 0.998245
1.02225 0.999853 1.02394 0.998497
1.0025 1 1.00456 0.997949
0.998971 1 1.00083 0.998141
0.998844 1 1.00067 0.998175
1.00067 1 1.00239 0.998288
1.00035 1 1.0023 0.998053
0.999666 1 1.00131 0.998358
1.00442 1 1.00601 0.998417
1.00858 1 1.01046 0.998143
1.00082 1 1.00242 0.998403
0.999942 1 1.00151 0.99843
0.999274 1 1.00054 0.998736
1.00016 1 1.00188 0.99828
0.998924 1 1.00025 0.99867
0.999439 1 1 0.999439
0.999257 1 1.00069 0.998569
0.999462 1 1 0.999462
0.999997 1 1 0.999997
0.999467 1 1 0.999467
1 1 1 1
1 1 1 1
1 1 1 1
1 1 1 1
1 1 1 1
0.999243 1 1 0.999243
0.999897 1 1 0.999897
0.999878 1 1 0.999878
1 1 1 1
0.999825 1 1 0.999825
1 1 1 1
1 1 1 1
1 1 1 1
1 1 1 1
1 1 1 1
0.962423 1.01537 0.952903 0.994699
1.07579 1.11 0.971842 0.99726
1.04669 1.07225 0.978204 0.997907
0.901992 0.971654 0.942668 0.984765
0.983548 1.02049 0.967943 0.995718
1.05577 1.08892 0.97213 0.997349
0.991852 1.0326 0.964244 0.996161
0.918528 0.975191 0.954907 0.986374
0.894037 0.976466 0.946139 0.967705
0.68286 0.812403 0.891713 0.942616
0.54971 0.709553 0.847664 0.913956
0.998837 1 1 0.998837
0.999298 1 1 0.999298
0.999248 1 1 0.999248
0.998767 1 1 0.998767
0.998938 1 1.00036 0.998581
0.998536 1 1 0.998536
0.99871 1 1 0.998709
0.998839 1 1 0.998839
1.04173 1.09553 0.953476 0.997288
1.02232 1.07807 0.950845 0.997308
1.02074 1.04247 0.982052 0.997047
1.00053 1.00189 1.00173 0.99692
1.00096 1.01297 0.991299 0.996812
1.04422 1.00279 1.0441 0.997328
1.0436 1.00247 1.04429 0.996872
1.01099 1.00003 1.01378 0.997216
0.998427 1.00077 0.99894 0.998713
1.00985 1 1.01212 0.997761
0.998698 1 1 0.998698
0.999011 0.99943 1.00058 0.999002
0.994793 1.05769 0.942894 0.997497
1.00343 0.999829 1.00514 0.998474
1.00622 1 1.00797 0.998265
0.994968 1.04311 0.956433 0.997301
1.00647 1.01847 0.991329 0.99686
0.97955 1.00135 0.980535 0.997648
1.02933 1.00048 1.03105 0.997851
1.0581 1.00224 1.05847 0.99741
0.970208 1.03056 0.943935 0.99735
0.992467 1.01465 0.980768 0.997315
0.973742 1.00178 0.974536 0.997407
0.977189 0.999358 0.979787 0.997989
1.00783 1 1.0099 0.997955
1.01811 1 1.02006 0.998091
1.05426 0.99988 1.05679 0.997728
0.721003 0.835234 0.915126 0.943296
0.894654 0.976484 0.943408 0.97116
1.00445 0.99864 1.00794 0.99789
1.0006 1.00132 1.00267 0.996621
0.991316 1.02754 0.96702 0.997648
0.998351 1.0094 0.992322 0.996705
1.00583 1.00406 1.00571 0.996074
0.890609 0.973671 0.944891 0.968039
0.882502 0.965879 0.930584 0.981832
0.962545 0.979588 0.985541 0.997018
0.68662 0.809668 0.899011 0.943288
0.567935 0.743552 0.845017 0.903902
1.00296 0.99924 1.00579 0.997943
0.714531 0.835605 0.908124 0.941618
0.605761 0.750497 0.885077 0.911951
0.986347 1.00673 0.981951 0.997765
1.00893 1.00208 1.00957 0.997292
1.01222 1.00381 1.01106 0.99735
0.942633 0.962718 0.981491 0.997601
0.874354 0.962412 0.941761 0.964685
0.840967 0.921583 0.929498 0.981738
0.671889 0.798289 0.895107 0.940292
0.646252 0.826284 0.859685 0.909774
1.00494 0.999475 1.00693 0.998543
0.650149 0.781579 0.908929 0.915187
0.717761 0.858433 0.905972 0.922908
0.984126 0.990931 0.994487 0.998638
1.01562 1.00245 1.0146 0.998552
0.954002 0.95574 1.00125 0.99694
0.857546 0.912802 0.95545 0.98327
0.815845 0.905348 0.936131 0.962621
0.682039 0.792552 0.914098 0.941432
0.707023 0.882663 0.875438 0.914984
1.00226 0.998344 1.00528 0.99865
1.00972 1 1.01095 0.998787
1.01001 0.999018 1.01194 0.999074
0.998578 1 1 0.998578
0.99817 1 1.00002 0.998152
1.00545 1 1.00741 0.998056
1.00622 1 1.00821 0.998029
1.00727 0.999598 1.00929 0.998393
0.99876 1 1.00062 0.998138
1.00582 1 1.00764 0.998197
1.00248 1 1.00453 0.997952
1.0206 0.999011 1.02308 0.99856
1.03893 0.997229 1.04276 0.999094
1.01306 1 1.01483 0.998249
1.00114 1 1.00324 0.997909
0.998563 1 1.00039 0.998169
1.00098 1 1.00267 0.998317
1.00088 1 1.00284 0.998042
1.0005 1 1.00216 0.99834
1.00237 1 1.00384 0.998533
1.00496 1 1.00667 0.998298
1.00765 1 1.00939 0.998272
1.00396 0.99872 1.00669 0.998574
0.999545 1 1.00131 0.998237
0.999974 1.00153 1.00093 0.997518
1.00673 1 1.00873 0.99801
1.00719 1 1.00906 0.998145
1.00778 1 1.00956 0.998241
1.00233 1 1.00394 0.998402
0.99944 1 1.00074 0.998704
1.00008 1 1.00165 0.998433
0.999376 1 1.00064 0.998741
0.999408 1 1 0.999408
0.998972 1 1.00034 0.998637
0.999442 1 1 0.999442
0.999986 1 1 0.999986
0.999464 1 1 0.999464
0.999995 1 1 0.999995
1 1 1 1
0.999999 1 1 0.999999
1 1 1 1
1 1 1 1
0.999238 1 1 0.999238
0.999864 1 1 0.999864
0.999245 1 1 0.999245
1 1 1 1
0.999897 1 1 0.999897
0.999874 1 1 0.999874
1 1 1 1
1 1 1 1
1 1 1 1
1 1 1 1
1 1 1 1
0.705704 0.826937 0.911089 0.936675
0.611709 0.761728 0.879567 0.913011
0.901265 0.971559 0.941427 0.985364
0.984586 1.02044 0.968792 0.995948
1.05287 1.09016 0.9684 0.997305
0.9051 0.957984 0.956546 0.987717
0.991864 1.03213 0.96449 0.996368
0.905791 0.987249 0.947438 0.96839
0.673589 0.812326 0.884546 0.937442
0.558135 0.727322 0.844672 0.908498
0.929117 0.994839 0.942512 0.990902
0.884114 0.96307 0.947736 0.968641
0.667977 0.803032 0.883308 0.941709
0.639417 0.815427 0.860717 0.911042
1.00084 1 1.00247 0.998373
0.998879 1 1 0.998879
0.999296 1 1 0.999296
0.998776 1 1 0.998776
0.998947 1 1.00027 0.998672
0.999359 1 1.00111 0.998253
0.998527 1 1.00001 0.998513
0.998548 1 1.00024 0.998309
0.998661 1 1 0.998661
0.998791 1 1 0.998791
0.991575 1.05732 0.940145 0.997532
0.991887 1.04039 0.95598 0.997277
1.00559 1.01987 0.988947 0.997019
0.98222 1.00177 0.982932 0.997506
1.04896 1.00359 1.04788 0.997454
1.04064 1.00119 1.04197 0.997544
1.00664 1 1.00828 0.998373
1.00266 0.999529 1.00468 0.99846
0.969984 1.03109 0.943132 0.997458
1.00957 1 1.0117 0.997904
1.01787 1 1.01987 0.998047
0.985787 1.01217 0.976618 0.997254
0.971965 1.00175 0.972687 0.997514
0.977489 1.00032 0.979195 0.997936
1.0473 0.999757 1.05001 0.997664
0.963364 1.003 0.96282 0.99757
0.962957 0.997887 0.96668 0.998258
1.01253 0.998132 1.01629 0.998168
1.01007 1 1.01227 0.997825
1.01542 1 1.01767 0.997794
1.02919 1 1.03141 0.997848
0.679177 0.796426 0.920388 0.926545
0.722861 0.833614 0.918769 0.943806
0.883266 0.974062 0.938953 0.965742
1.00216 0.998617 1.00561 0.997944
1.00869 1.00232 1.00909 0.997296
0.988077 1.00802 0.982426 0.997754
1.01055 1.00241 1.01066 0.997493
0.716672 0.830917 0.913112 0.94458
0.870224 0.958599 0.940131 0.965619
0.839447 0.918155 0.933666 0.979233
0.942209 0.959321 0.984308 0.99782
0.669487 0.803926 0.890111 0.935583
0.601543 0.747263 0.881078 0.913647
0.647814 0.825424 0.85817 0.914534
1.00479 0.999196 1.00709 0.998512
0.652381 0.781853 0.907665 0.919286
0.732242 0.872782 0.909412 0.922545
0.982985 0.988622 0.99555 0.998742
1.01556 1.00168 1.01537 0.998503
0.951146 0.953813 0.999596 0.997607
0.847322 0.917892 0.941314 0.980668
0.848017 0.921471 0.951693 0.967
0.692686 0.806125 0.917527 0.936516
0.699978 0.87501 0.870839 0.918614
1.00785 0.997793 1.01065 0.999431
0.75583 0.880098 0.922792 0.930656
0.730052 0.877098 0.898246 0.926638
0.9782 0.961672 1.01748 0.999715
0.890707 0.915914 0.983917 0.988375
0.845529 0.896953 0.976679 0.965177
0.766633 0.872936 0.940863 0.933424
0.748345 0.922166 0.882449 0.919609
1.00857 1 1.00985 0.998737
1.01209 0.998542 1.01453 0.99906
1.02665 0.991173 1.03646 0.999354
0.998952 1 1.00082 0.998134
1.00252 1 1.00457 0.997956
1.00374 1 1.0056 0.998149
1.01948 0.998495 1.02242 0.998624
1.0018 1 1.0039 0.99791
1.01237 0.999945 1.01421 0.998239
1.04404 0.998115 1.04688 0.999173
1.04335 0.991659 1.05271 0.999446
1.04254 0.998749 1.04482 0.999068
1.00708 1 1.00895 0.99815
1.00103 1 1.003 0.998031
1.00083 1 1.00252 0.998323
1.00022 1 1.00158 0.998646
1.00701 1 1.00873 0.998295
1.00345 1 1.00516 0.998297
1.00614 0.999271 1.00828 0.998603
1.00319 0.999421 1.00542 0.998361
1.01303 0.997491 1.01663 0.998962
0.996701 1.00097 0.997333 0.9984
0.999993 1.00056 1.00119 0.998244
0.998605 1.00014 1.00069 0.997771
1.00429 1.00628 1.00153 0.996505
1.00409 1.00107 1.00517 0.997851
0.999365 1.00078 1.00075 0.997841
1.00683 1 1.00883 0.998011
1.01328 1 1.01526 0.998047
1.00522 1 1.00709 0.998147
1.00701 1 1.00878 0.99824
1.00016 1 1.0016 0.998567
1.00274 1 1.00434 0.998401
0.999052 1 1.00035 0.998701
0.999481 1 1.00011 0.999367
0.999106 1 1.00036 0.998746
0.999409 1 1 0.999409
0.999968 1 1 0.999968
0.999445 1 1 0.999445
0.999981 1 1 0.999981
1 1 1 1
0.999993 1 1 0.999993
1 1 1 1
1 1 1 1
0.99894 1 1 0.99894
0.999803 1 1 0.999803
0.999153 1 1 0.999153
1 1 1 1
0.999869 1 1 0.999869
0.999247 1 1 0.999247
1 1 1 1
1 1 1 1
0.999898 1 1 0.999898
1 1 1 1
1 1 1 1
1 1 1 1
0.638941 0.775828 0.896853 0.918277
0.712883 0.833613 0.909603 0.940161
0.725464 0.87108 0.903386 0.921901
0.608627 0.760662 0.877778 0.911539
0.90413 0.965638 0.950544 0.985018
0.992488 1.03244 0.964592 0.996588
0.907138 0.985452 0.950235 0.968739
0.689436 0.815328 0.89705 0.942638
0.568754 0.748194 0.841874 0.902949
0.931663 0.989324 0.951328 0.989898
0.871197 0.959323 0.943488 0.962532
0.680913 0.809914 0.894755 0.939612
0.631354 0.810182 0.858468 0.907751
0.894776 0.966694 0.938236 0.986537
0.823965 0.902931 0.948849 0.961739
0.717473 0.840455 0.914495 0.93349
0.702161 0.878551 0.876165 0.912187
1.00312 1 1.00513 0.998003
0.999997 1 1.00157 0.998427
0.99892 1 1 0.99892
0.998764 1 1 0.998764
0.998534 1 1.00069 0.997846
0.998663 1 1.00035 0.99831
0.99849 1 1 0.99849
0.998285 1 1 0.998285
0.998465 1 1.00011 0.998351
0.998612 1 1 0.998612
0.970488 1.03221 0.9425 0.997565
0.981133 1.01002 0.974134 0.997198
0.968092 1.00129 0.969154 0.997619
0.978765 1.00153 0.979339 0.997885
1.03876 1 1.04126 0.997598
1.01755 1 1.01958 0.998005
1.01064 1 1.01281 0.997852
1.00965 1 1.01191 0.997771
0.962676 1.00323 0.961852 0.997631
1.0137 1 1.01598 0.997764
1.02928 1 1.03153 0.997824
0.962363 0.998672 0.965322 0.998261
1.00696 0.999868 1.00898 0.998124
0.946094 0.975853 0.971535 0.99791
0.966948 0.974219 0.993296 0.999235
1.04374 0.998294 1.04722 0.998378
1.00564 1 1.00782 0.997838
1.02545 1 1.0275 0.998005
0.769136 0.891099 0.922833 0.935307
0.676259 0.794896 0.919445 0.925288
0.714561 0.830014 0.916723 0.939109
1.00394 0.998996 1.00647 0.998484
1.01588 1.00057 1.01687 0.998453
0.978518 0.986064 0.993491 0.998849
0.649554 0.779765 0.905646 0.9198
0.827965 0.907791 0.947903 0.962194
0.852292 0.914793 0.948542 0.982221
0.94045 0.947745 0.994 0.998292
0.703555 0.818865 0.912213 0.941867
0.740572 0.879761 0.912617 0.922389
0.701752 0.87488 0.872821 0.918988
1.00607 0.99793 1.00879 0.999376
0.755168 0.880707 0.919522 0.932502
0.728698 0.875087 0.898448 0.926837
0.97983 0.965676 1.01514 0.999523
0.904362 0.928441 0.985654 0.988242
0.815176 0.890692 0.952985 0.960368
0.744865 0.919562 0.880812 0.91963
0.784062 0.879141 0.953013 0.935822
0.998351 0.969809 1.02973 0.999711
0.742332 0.869472 0.910582 0.937612
0.765298 0.90947 0.904923 0.929888
0.699787 0.876732 0.874781 0.91243
0.94367 0.934002 1.01346 0.996937
0.893066 0.922997 1.00092 0.966687
0.838957 0.930704 0.959905 0.939074
1.01459 0.997997 1.0176 0.999044
1.02754 0.993443 1.03508 0.99927
1.03249 0.982414 1.05143 0.999566
1.00207 1 1.00417 0.99791
1.01034 0.999797 1.01234 0.998228
1.04861 0.998255 1.05123 0.999251
1.00737 1 1.00923 0.998156
1.04268 0.998717 1.04498 0.999079
1.04742 0.991694 1.0568 0.999421
1.03776 0.986442 1.05256 0.999489
1.02722 0.997395 1.03087 0.999058
1.00601 1 1.0077 0.99832
1.00283 1 1.00454 0.998295
1.00868 0.999748 1.01031 0.998633
1.01244 0.998229 1.01532 0.998933
1.00321 0.999692 1.00515 0.998368
1.00316 0.999524 1.00482 0.998827
0.997181 0.999933 0.998532 0.998714
1.00359 0.999971 1.00637 0.997264
1.00031 1.00112 1.00094 0.998259
0.999772 1.00156 1.00056 0.99766
1.00088 1.00279 1.00194 0.996165
1.01624 1.019 1.00129 0.996011
1.00495 1.00476 1.00276 0.997435
1.0023 1.00436 1.00138 0.996572
1.01188 1 1.01412 0.997794
1.00536 1.00179 1.00572 0.997866
0.998752 1.00006 1.00053 0.99816
1.00721 1 1.00921 0.998012
1.01217 1 1.01412 0.99808
1.00522 1 1.00684 0.998389
1.00674 1 1.00851 0.99824
1.0005 1 1.00193 0.998567
0.999427 1 1.00016 0.99927
0.999059 1 1.00036 0.998697
0.999433 1 1.00007 0.999364
0.999953 1 1 0.999953
0.999419 1 1.00001 0.99941
0.999963 1 1 0.999963
1 1 1 1
0.999976 1 1 0.999976
1 1 1 1
1 1 1 1
0.998643 1 1 0.998643
0.999564 1 1 0.999564
0.998937 1 1 0.998937
1 1 1 1
0.999743 1 1 0.999743
0.999069 1 1 0.999069
1 1 1 1
1 1 1 1
0.999874 1 1 0.999874
1 1 1 1
1 1 1 1
1 1 1 1
0.759108 0.891772 0.914451 0.93087
0.644453 0.776702 0.899594 0.922339
0.704086 0.827628 0.90564 0.939366
0.998173 1 1 0.998173
0.734857 0.874219 0.903931 0.929924
0.724671 0.870808 0.90285 0.921728
0.619298 0.773545 0.874427 0.915567
0.941352 0.993183 0.95866 0.988686
0.864441 0.947553 0.942554 0.967889
0.683832 0.824822 0.88703 0.934655
0.622279 0.79284 0.861964 0.910563
0.892374 0.962294 0.943132 0.983256
0.842789 0.914822 0.953169 0.966523
0.711063 0.825193 0.922331 0.934256
0.700596 0.875842 0.875768 0.913382
0.83764 0.910604 0.939177 0.979445
0.822587 0.8863 0.963535 0.963238
0.795289 0.886781 0.957474 0.936659
0.748571 0.920024 0.8848 0.919579
1.00145 1 1.00364 0.997826
1.00412 1 1.00617 0.997961
0.999455 1 1.00098 0.998481
0.998256 1 1.00026 0.997994
0.998749 1 1.00083 0.997925
0.998405 1 1.00004 0.998367
0.998311 1 1.00002 0.998287
0.998465 1 1.00007 0.998391
0.962307 1.00387 0.960827 0.997674
0.962882 1.0009 0.963685 0.998273
1.00937 1 1.01168 0.997715
1.00094 1.0013 1.00156 0.99808
1.03037 1 1.03264 0.9978
1.01347 1 1.01577 0.997735
1.00712 1 1.0093 0.997842
0.947794 0.974358 0.974633 0.998055
1.0228 1 1.02483 0.998015
1.03275 0.999293 1.03512 0.998422
0.967326 0.977943 0.989852 0.999283
1.00793 1 1.00988 0.998067
0.933271 0.949844 0.984991 0.997524
0.998597 0.975226 1.0245 0.999476
1.06099 0.996725 1.06603 0.998536
1.03163 0.998702 1.03482 0.998211
0.748252 0.86967 0.913977 0.941365
0.768861 0.891347 0.922721 0.934826
0.674686 0.792693 0.92114 0.923998
1.00339 0.998095 1.00598 0.999322
0.982939 0.969172 1.01488 0.999334
0.757654 0.884302 0.917049 0.934282
0.837174 0.885359 0.978648 0.966206
0.893365 0.927171 0.978737 0.984472
0.776318 0.871922 0.953233 0.934035
0.72963 0.876048 0.898465 0.926986
0.743522 0.918923 0.879815 0.919651
1.00423 0.978781 1.02634 0.999669
0.743825 0.871227 0.91059 0.937598
0.767213 0.907813 0.906649 0.932139
0.95662 0.942698 1.01567 0.999114
0.698374 0.874218 0.874476 0.913524
0.861744 0.902082 0.991495 0.963477
0.838582 0.928932 0.961766 0.938626
0.995669 0.965264 1.03181 0.9997
0.775409 0.899655 0.915772 0.941169
0.732939 0.870466 0.905006 0.930389
0.636642 0.813485 0.858859 0.911221
0.792403 0.885113 0.956443 0.936026
0.936109 0.937082 1.00618 0.992823
0.899179 0.921347 1.01787 0.958805
1.02648 0.996028 1.03141 0.999188
1.03147 0.979912 1.05311 0.999534
1.01896 0.964925 1.05644 0.999582
1.0089 1 1.01075 0.998162
1.0463 0.998333 1.049 0.999091
1.05511 0.992559 1.06366 0.999396
1.02314 0.997797 1.02638 0.999045
1.03583 0.988532 1.04838 0.999488
1.00782 0.985517 1.02342 0.999235
1.01236 0.999009 1.01448 0.998903
1.00322 0.999744 1.00511 0.998378
1.0065 0.999666 1.00804 0.998804
1.01312 0.998384 1.01672 0.998073
0.998057 0.999028 1 0.999028
1.00027 1.00013 1.00266 0.997488
1.00545 1.00178 1.00807 0.995632
1.00556 1.00766 1.00258 0.995343
1.00094 1.00306 1.00035 0.997541
1.0012 1.0035 1.00177 0.995947
1.01875 1.02222 1.00053 0.996077
1.01311 1.01379 1.00261 0.996727
1.01493 1.01761 1.00125 0.996121
1.00836 1.00116 1.00962 0.997592
1.0076 1.00686 1.00335 0.997398
0.999734 1.00182 1.00128 0.996641
1.0121 1 1.01395 0.998168
1.01109 1 1.0133 0.997822
1.00668 1.0025 1.0063 0.99788
1.01095 1 1.01287 0.998113
1.00522 1 1.00684 0.99839
1.00026 1 1.00117 0.999095
1.00075 1 1.00219 0.998567
0.999616 1 1.00035 0.999265
0.999938 1 1 0.999938
0.999361 1 1 0.999361
0.999949 1 1 0.999949
1 1 1 1
0.999958 1 1 0.999958
1 1 1 1
1 1 1 1
0.998553 1 1 0.998553
0.999372 1 1 0.999372
0.998698 1 1 0.998698
0.999999 1 1 0.999999
0.999543 1 1 0.999543
0.998935 1 1 0.998935
1 1 1 1
1 1 1 1
0.999684 1 1 0.999684
1 1 1 1
1 1 1 1
1 1 1 1
0.749474 0.873319 0.913156 0.939807
0.760743 0.890568 0.917644 0.930887
0.645511 0.775668 0.902138 0.922475
0.998214 1 1 0.998214
0.999715 1 1.0016 0.998118
0.998146 1 1 0.998146
0.767249 0.912093 0.905003 0.929495
0.732106 0.874259 0.900325 0.930111
0.722668 0.870395 0.900924 0.921583
0.899258 0.969973 0.940872 0.985359
0.811005 0.90055 0.936475 0.961655
0.711932 0.813565 0.929594 0.941353
0.706824 0.882848 0.878658 0.911184
0.841599 0.916732 0.934439 0.982454
0.838947 0.895409 0.972758 0.963182
0.781239 0.872801 0.95486 0.937408
0.745399 0.919339 0.881783 0.919499
0.854774 0.910332 0.958281 0.979848
0.867055 0.906021 0.99211 0.964603
0.83897 0.927753 0.962555 0.939481
0.711607 0.886059 0.877592 0.915135
0.998779 1 1.00077 0.998012
1.00172 1 1.00395 0.997784
1.00371 1 1.00581 0.997919
0.998121 1 1.00014 0.997979
0.998535 1 1.00053 0.998005
0.998289 1 1 0.998289
0.945015 0.968323 0.977688 0.998201
0.966371 0.977796 0.988999 0.999308
1.00785 1 1.01002 0.997846
1.02466 1.00021 1.02602 0.998466
1.02176 1 1.02378 0.998024
1.00935 0.99992 1.01137 0.998083
1.02453 0.995567 1.03089 0.998249
0.939627 0.948899 0.992589 0.997623
1.05587 0.994791 1.0628 0.998678
1.00201 0.969087 1.03469 0.999307
1.01523 0.993689 1.0233 0.998418
0.965719 0.949389 1.02004 0.997213
1.01322 0.970549 1.04477 0.999231
1.03407 0.974839 1.06204 0.998792
0.790631 0.908201 0.9228 0.943375
0.75196 0.871458 0.916205 0.941793
0.767962 0.891535 0.921919 0.934349
1.01055 0.987485 1.02374 0.999627
0.945782 0.940796 1.00784 0.997479
0.744377 0.871608 0.91088 0.937585
0.859041 0.889488 0.998004 0.967701
0.834743 0.93049 0.959607 0.934862
0.768482 0.907256 0.906523 0.934383
0.706744 0.881727 0.879395 0.911473
0.990794 0.961146 1.0311 0.999757
0.77482 0.89735 0.916586 0.942033
0.735442 0.875723 0.902449 0.930591
0.931601 0.933183 1.0099 0.988515
0.62835 0.806672 0.857762 0.908108
0.779449 0.872038 0.954514 0.936418
0.902253 0.924397 1.01111 0.965317
1.00643 0.952622 1.05825 0.998337
0.750289 0.871466 0.915836 0.940071
0.736307 0.878529 0.908546 0.922479
0.5505 0.70758 0.85052 0.914738
0.706023 0.830012 0.91144 0.933268
0.872581 0.905655 0.999617 0.963851
0.906286 0.924408 0.995171 0.985154
1.02765 0.978511 1.05075 0.999501
1.0262 0.975499 1.05241 0.999583
1.01001 0.977135 1.03418 0.999478
1.01686 0.998275 1.0196 0.999032
1.03155 0.990466 1.04202 0.999487
1.01135 0.981594 1.03102 0.999319
1.00673 0.996029 1.01199 0.998765
1.01005 0.999983 1.0113 0.998779
1.0103 0.999242 1.01328 0.997813
1.02298 1.00097 1.02605 0.996041
0.996551 0.999981 0.998851 0.997715
1.00661 1.00169 1.00927 0.995686
1.0063 1.00265 1.00892 0.994768
1.0091 1.01229 1.00191 0.99496
1.01123 1.01448 1.00108 0.995719
1.00555 1.00748 1.00282 0.995285
1.00134 1.00409 1.00154 0.995731
1.01522 1.01776 1.0011 0.99641
1.01999 1.02342 1.00048 0.99617
1.00682 1.0051 1.00464 0.997086
1.01541 1.01588 1.00274 0.996811
1.01483 1.01748 1.00117 0.996231
1.0129 1.00013 1.01495 0.997849
1.00934 1.00242 1.00934 0.997585
1.01042 1.00923 1.00383 0.997358
1.00401 1 1.00513 0.998886
1.01064 1 1.0125 0.998167
1.01043 1 1.01261 0.997851
1.00502 1 1.00664 0.998391
1.00069 1 1.0016 0.999091
0.999897 1 1 0.999897
0.999689 1 1.00043 0.999259
0.999931 1 1 0.999931
1 1 1 1
0.999946 1 1 0.999946
1 1 1 1
1 1 1 1
0.998491 1 1 0.998491
0.999332 1 1 0.999332
0.998582 1 1 0.998582
0.999988 1 1 0.999988
0.99942 1 1 0.99942
0.998755 1 1 0.998755
1 1 1 1
0.999999 1 1 0.999999
0.999523 1 1 0.999523
1 1 1 1
1 1 1 1
1 1 1 1
0.773359 0.898434 0.914965 0.940785
0.753972 0.874417 0.917485 0.939805
0.763012 0.889328 0.921605 0.930946
1.01004 1 1.01207 0.997987
1.00364 1 1.00574 0.997914
0.998256 1 1 0.998256
1.00021 1 1.00211 0.9981
0.998157 1 1 0.998157
1.00139 1 1.00328 0.998116
0.998218 1 1 0.998218
0.734407 0.882988 0.897668 0.926544
0.770582 0.910658 0.908134 0.931781
0.734053 0.872319 0.90454 0.930303
0.743749 0.91928 0.87995 0.919434
0.843063 0.919436 0.935835 0.979805
0.840651 0.891898 0.978859 0.962898
0.790284 0.887473 0.94696 0.940366
0.839157 0.911068 0.941006 0.978813
0.869128 0.900707 1.00564 0.95953
0.836748 0.926736 0.961197 0.939348
0.702308 0.877719 0.870919 0.918743
0.887305 0.923461 0.978546 0.981913
0.883616 0.91028 1.01186 0.959333
0.770707 0.875892 0.942159 0.93393
0.646958 0.821649 0.864484 0.91082
1.02924 0.999594 1.03133 0.998379
1.00044 1 1.0024 0.998041
1.00259 1 1.00486 0.997742
0.997965 1 1 0.997965
0.949998 0.951801 1.00035 0.997751
1.00378 0.966473 1.03951 0.99913
1.00904 0.999709 1.01126 0.998101
1.01817 0.994857 1.02519 0.998287
1.04428 0.988854 1.0573 0.998821
1.01614 0.997512 1.02029 0.99842
1.0381 0.974734 1.06631 0.998779
0.965624 0.949028 1.02202 0.995563
1.01271 0.962113 1.05323 0.99939
1.01198 0.97934 1.03446 0.998906
0.95139 0.924957 1.03396 0.994791
0.999981 0.949818 1.05358 0.999275
0.750944 0.869431 0.917265 0.941625
0.78772 0.905613 0.920312 0.945135
0.756685 0.873408 0.919492 0.942215
0.985951 0.954997 1.03261 0.999805
0.937367 0.936966 1.00721 0.993264
0.772541 0.894465 0.915984 0.94291
0.906526 0.929914 1.01581 0.959673
0.782355 0.881364 0.944842 0.939485
0.740134 0.878131 0.905541 0.930771
0.620783 0.789619 0.863125 0.910853
1.00687 0.95445 1.05643 0.99857
0.753866 0.876433 0.914982 0.940076
0.72933 0.87202 0.906811 0.922318
0.908327 0.924682 0.994379 0.987865
0.559894 0.727355 0.846504 0.909349
0.699664 0.815111 0.919327 0.933691
0.868628 0.9024 1.00268 0.960001
0.992298 0.957223 1.04042 0.996369
0.76232 0.89568 0.914003 0.931186
0.611003 0.758415 0.881584 0.913845
0.670511 0.80518 0.88357 0.942479
0.816036 0.871358 0.97086 0.96462
0.862315 0.899656 0.977394 0.980662
1.03456 0.980705 1.05535 0.99959
1.01298 0.974008 1.04054 0.999486
0.979575 0.973106 1.0074 0.999252
1.01566 0.977678 1.03947 0.999402
1.00359 0.986937 1.01802 0.998874
1.00438 1.0008 1.00596 0.997637
1.00707 1.00003 1.00952 0.997553
1.0217 1.00095 1.02495 0.995887
1.01068 1.00123 1.01454 0.994973
1.00813 1.00186 1.01056 0.99574
1.00697 1.00245 1.00988 0.994674
1.00191 1.00293 1.00448 0.994533
1.03569 1.04066 1 0.99522
1.02031 1.02435 1.00077 0.995295
1.00946 1.01243 1.00218 0.994901
1.01223 1.01614 1.00013 0.996024
1.00947 1.01299 1.00074 0.995783
1.00558 1.00723 1.00315 0.995226
1.01284 1.01529 1.00112 0.996481
1.01463 1.01722 1.00108 0.99638
1.02067 1.02406 1.00043 0.996262
1.00702 1.0015 1.00811 0.997421
1.00783 1.00603 1.00463 0.997179
1.01682 1.01706 1.00288 0.996896
1.00944 1 1.01089 0.998569
1.0119 1.00037 1.0137 0.997857
1.01028 1.00385 1.00885 0.997577
0.999961 1 1.00014 0.999823
1.00453 1 1.00566 0.998881
1.00944 1 1.0113 0.998166
1.0013 1 1.00222 0.999087
0.999885 1 1 0.999885
1 1 1 1
0.999923 1 1 0.999923
1 1 1 1
1 1 1 1
1.00941 1 1.01144 0.997991
1.00307 1 1.00478 0.998294
0.999163 1 1 0.999163
0.998976 1 1.00049 0.998486
0.999964 1 1 0.999964
0.999334 1 1 0.999334
0.998612 1 1 0.998612
1 1 1 1
0.999992 1 1 0.999992
0.999467 1 1 0.999467
1 1 1 1
1 1 1 1
1 1 1 1
0.744542 0.871087 0.911612 0.9376
0.769852 0.894791 0.913662 0.941672
0.754427 0.877723 0.914591 0.939795
1.0118 1 1.01383 0.997996
1.00612 1.00034 1.00787 0.997932
1.00038 1.00013 1.00243 0.997831
1.01217 1 1.01426 0.997938
1.00855 1.0009 1.00975 0.997913
1.00206 1 1.00398 0.998081
0.998167 1 1 0.998167
1.00105 1 1.00294 0.99812
0.998244 1 1 0.998243
1.01754 1 1.01928 0.998296
0.719336 0.861977 0.904457 0.922673
0.733082 0.879315 0.899551 0.926791
0.77117 0.910347 0.906925 0.934053
0.702817 0.878068 0.870849 0.919118
0.835514 0.928386 0.962204 0.935316
0.834712 0.906148 0.942607 0.977254
0.873754 0.902675 1.00404 0.964068
0.876423 0.923602 0.969987 0.97828
0.889309 0.921378 1.00094 0.964293
0.786946 0.878722 0.955872 0.936901
0.649004 0.830457 0.859197 0.909573
0.893034 0.913498 0.996602 0.980931
0.875484 0.898957 1.0092 0.965013
0.690211 0.798055 0.91895 0.941146
0.592535 0.757653 0.855296 0.91438
1.02658 0.999753 1.02792 0.998942
1.02935 0.99928 1.03175 0.99839
1.00308 1 1.00502 0.998071
0.965385 0.94825 1.02439 0.993829
1.0138 0.956032 1.06091 0.999548
1.01725 0.999646 1.01922 0.998422
1.04487 0.974041 1.07404 0.998767
1.01553 0.983814 1.03336 0.998912
1.00639 0.95819 1.05107 0.999273
0.95294 0.930249 1.02981 0.994743
1.0121 0.987131 1.02596 0.999345
0.964326 0.949562 1.01995 0.995684
0.770866 0.892653 0.923791 0.934808
0.757691 0.874273 0.919972 0.942042
0.78395 0.902623 0.917216 0.946914
1.00859 0.963039 1.0486 0.998761
0.903524 0.922749 0.995937 0.98316
0.760288 0.881788 0.917176 0.940073
0.87178 0.905712 1.00122 0.961361
0.698579 0.801601 0.926505 0.94061
0.720001 0.866403 0.901115 0.922216
0.568877 0.746881 0.842695 0.903851
0.989774 0.956255 1.03852 0.996656
0.761516 0.890553 0.918307 0.931176
0.609342 0.759318 0.87953 0.912402
0.874876 0.912435 0.976098 0.982316
0.681497 0.810796 0.893994 0.940195
0.816292 0.883544 0.960764 0.961613
0.94318 0.942502 1.00611 0.994641
0.640764 0.776886 0.897587 0.918892
0.68491 0.813356 0.892671 0.943325
0.822331 0.904442 0.94527 0.961856
0.838741 0.901147 0.946616 0.983237
1.01362 0.97241 1.04291 0.999495
0.983002 0.968737 1.01551 0.999225
0.992208 0.988457 1.00539 0.99841
1.00052 0.976305 1.02585 0.998979
1.00317 0.99992 1.00553 0.997732
0.998288 1.00281 0.998906 0.996577
1.02062 1.0008 1.02418 0.995731
1.0096 1.00163 1.01306 0.994971
0.999865 1.00316 1.00137 0.995356
1.00712 1.0021 1.01048 0.994581
1.00219 1.00394 1.0037 0.994572
1.03177 1.03647 1 0.995469
1.06208 1.06681 0.999615 0.995953
1.04714 1.05205 1.00002 0.99532
1.03592 1.04086 1 0.995253
1.02559 1.03013 1 0.995589
1.01915 1.02293 1.00107 0.995237
1.01056 1.01333 1.00244 0.994842
1.01874 1.02267 1 0.996158
1.01076 1.0147 1.00002 0.996097
1.0075 1.01138 1.00032 0.995847
1.00449 1.00551 1.00208 0.996919
1.00976 1.01196 1.0013 0.996532
1.01479 1.01739 1.0011 0.996351
1.01074 1.00024 1.01243 0.998083
1.00889 1.00258 1.00889 0.997421
1.00889 1.00682 1.0048 0.99727
1.00145 1 1.00173 0.999718
1.00887 1 1.01032 0.998563
1.01126 1.0006 1.01281 0.997865
0.999968 1 1 0.999968
1.00036 1 1.00055 0.999809
1.00496 1 1.00609 0.998876
0.999873 1 1 0.999873
1 1 1 1
1 1 1 1
1.00763 1.00119 1.00863 0.997828
1.0082 1 1.01012 0.9981
1.01081 1 1.01287 0.997966
1.00035 1 1.00137 0.998977
1.00243 1 1.00415 0.998289
0.999927 1 1 0.999927
0.999253 1 1.00008 0.999168
0.998907 1 1.00043 0.998481
1 1 1 1
0.999972 1 1 0.999972
0.999337 1 1 0.999337
1 1 1 1
0.999996 1 1 0.999996
1 1 1 1
0.754579 0.882517 0.914585 0.934883
0.748429 0.874424 0.912875 0.937599
0.770731 0.890446 0.918307 0.942557
1.00014 1.00195 1.00043 0.997761
1.00986 1 1.01188 0.998005
1.00396 1 1.00602 0.997952
1.00695 1 1.00906 0.997907
1.00078 1.00049 1.00243 0.99786
1.00442 1 1.00635 0.998083
1.01346 1.00066 1.01547 0.997369
1.01808 0.999964 1.02006 0.998088
1.00114 1 1.00303 0.998124
0.998267 1 1 0.998267
1.01895 0.99993 1.02077 0.998279
1.03501 1.00122 1.03531 0.998495
0.626226 0.768801 0.890291 0.914926
0.732761 0.875495 0.907455 0.922324
0.733767 0.878413 0.901133 0.926981
0.649873 0.829237 0.8572 0.914255
0.781624 0.875501 0.954208 0.935617
0.886018 0.912915 1.01158 0.959423
0.877756 0.919276 0.975308 0.979007
0.893239 0.915172 0.99285 0.983064
0.581669 0.752346 0.850544 0.908996
0.865659 0.900707 1.0003 0.960803
0.700117 0.811702 0.921428 0.936079
0.892103 0.922673 0.98177 0.984822
0.845182 0.894162 0.977857 0.966627
0.66953 0.802643 0.886394 0.941068
0.992216 1.00074 0.991951 0.999526
1.02687 1.00017 1.02778 0.998947
1.02914 0.999868 1.03093 0.998399
0.95534 0.934392 1.02779 0.994773
1.01369 0.967495 1.04851 0.999273
1.01943 0.990166 1.03066 0.998919
1.01033 0.986131 1.02521 0.999344
0.960388 0.948458 1.01692 0.995733
0.985616 0.980627 1.0079 0.99721
0.677956 0.794894 0.924401 0.922639
0.767209 0.891167 0.918934 0.936851
0.759942 0.877367 0.919073 0.94243
0.990957 0.956138 1.03971 0.996838
0.867342 0.910198 0.969194 0.983204
0.759089 0.885397 0.920644 0.931243
0.830556 0.880575 0.980374 0.962079
0.687196 0.828405 0.886821 0.935411
0.622101 0.773621 0.877567 0.916332
0.941707 0.936127 1.01132 0.9947
0.646435 0.777577 0.900823 0.922873
0.676182 0.813063 0.886461 0.938166
0.834072 0.903519 0.942556 0.979398
0.84428 0.919622 0.949778 0.966619
0.936863 0.953594 0.98491 0.997508
0.704218 0.823849 0.912203 0.937062
0.886115 0.965665 0.947365 0.968605
0.837341 0.915235 0.934423 0.979098
0.986239 0.965538 1.02225 0.999204
0.982688 0.988417 0.995702 0.998496
0.994498 1.00058 0.996504 0.997411
1.00215 0.999457 1.00487 0.997827
0.999909 1.00281 1.00057 0.996542
1.00171 1.00596 0.99931 0.996464
1.00876 1.00226 1.01158 0.99497
0.999642 1.00263 1.00167 0.995359
1.03197 1.0394 0.996423 0.996411
1.00243 1.00466 1.00319 0.994611
1.03024 1.03501 0.999909 0.995478
1.06124 1.06803 0.997034 0.996606
1.06015 1.0661 0.997704 0.996705
1.06336 1.06779 0.999979 0.995867
1.06308 1.06786 0.999519 0.996003
1.04974 1.05443 1 0.995551
1.04515 1.04999 1 0.995391
1.03475 1.03965 1 0.995285
1.03613 1.04042 1 0.995881
1.02646 1.03084 1.00014 0.995612
1.0179 1.02132 1.00148 0.995179
1.01436 1.01794 1 0.996484
1.01662 1.02055 1 0.996156
1.00902 1.0129 1 0.99617
1.00449 1.00149 1.0054 0.997608
1.00696 1.00772 1.00234 0.996911
1.00627 1.00826 1.00145 0.996584
1.00292 1 1.00343 0.999493
1.00925 1.00082 1.01036 0.99808
1.01006 1.00377 1.00887 0.997421
1 1 1 1
1.00208 1 1.00241 0.999669
1.00788 1 1.00934 0.998557
1 1 1 1
1.00078 1 1.00099 0.999789
1 1 1 1
1.00227 1.00279 1.00185 0.997632
1.0063 1.00068 1.00784 0.997801
1.00961 1 1.0117 0.997936
1.00415 1 1.00537 0.998788
1.00957 1 1.0115 0.998097
1.01429 1 1.01639 0.997941
0.999872 1 1 0.999872
0.99993 1 1.00095 0.998982
1.00302 1 1.00474 0.998285
1 1 1 1
0.999938 1 1 0.999938
0.999173 1 1 0.999173
1 1 1 1
0.999979 1 1 0.999979
1 1 1 1
0.650104 0.781591 0.907995 0.916051
0.758371 0.886438 0.91506 0.93494
0.752529 0.878305 0.913813 0.937607
1.00335 1.0011 1.00452 0.997732
1.00893 1.00473 1.00686 0.997332
1.01311 1.00149 1.01408 0.997558
1.00705 1 1.00919 0.997875
1.00282 1.00228 1.00265 0.997889
1.00533 1 1.0071 0.998248
1.01725 1 1.01927 0.998019
1.01427 1.00145 1.01534 0.997496
1.01868 1.00222 1.01894 0.997529
0.980829 1.00166 0.980214 0.998965
1.01772 1 1.0195 0.998262
1.03002 1.00038 1.03121 0.99847
0.681259 0.811472 0.89799 0.934904
0.605729 0.750059 0.885948 0.911539
0.741341 0.882925 0.910495 0.922182
0.571525 0.747166 0.846683 0.903435
0.71059 0.821733 0.918589 0.941384
0.852435 0.893186 0.991647 0.962414
0.895902 0.917343 0.996388 0.980168
0.879234 0.914378 0.978992 0.982198
0.67558 0.799717 0.899401 0.939263
0.824311 0.885357 0.967542 0.962283
0.858671 0.917798 0.950817 0.983971
0.816706 0.91304 0.929348 0.962493
0.997822 1 0.998793 0.999028
0.99267 1.00039 0.992805 0.999475
1.02769 0.99981 1.02896 0.998953
0.953234 0.944277 1.01375 0.995793
1.00757 0.9839 1.02473 0.999344
0.987311 0.983032 1.00721 0.997164
0.971399 0.987976 0.987094 0.996076
0.723558 0.837409 0.916183 0.943091
0.674169 0.79208 0.922275 0.922867
0.769544 0.893466 0.917427 0.938823
0.944712 0.94263 1.00735 0.9949
0.836606 0.900313 0.948399 0.979797
0.647552 0.777349 0.902567 0.922951
0.810523 0.902857 0.933061 0.962136
0.693352 0.818002 0.898476 0.943394
0.938996 0.957348 0.984634 0.996136
0.714738 0.833718 0.911463 0.940564
0.874113 0.961606 0.944069 0.962868
0.837306 0.916034 0.930934 0.981869
0.948735 0.978825 0.971893 0.997289
0.897939 0.977209 0.94941 0.967845
0.891775 0.965436 0.937781 0.984986
0.973287 0.987254 0.987272 0.998563
0.989111 1.00054 0.991179 0.99738
0.983832 1.00894 0.977847 0.997207
1.00092 1.00294 1.00149 0.996509
1.00091 1.00597 0.998506 0.996455
1.02561 1.04599 0.983321 0.997151
0.999332 1.00212 1.00186 0.995362
1.02976 1.03841 0.99527 0.996388
1.04671 1.06775 0.983024 0.997222
1.02967 1.03452 0.999819 0.995487
1.05963 1.06739 0.99612 0.996596
1.05219 1.06709 0.988785 0.997215
1.05445 1.0644 0.993534 0.997097
1.06098 1.06738 0.997222 0.996781
1.05914 1.06329 0.999541 0.996554
1.06414 1.06849 1 0.995929
1.06353 1.06794 0.99998 0.995893
1.06497 1.06983 0.999404 0.996053
1.05245 1.05693 1 0.995763
1.05145 1.05612 1 0.995578
1.04338 1.04814 1 0.995462
1.03385 1.03782 1 0.996174
1.03612 1.04041 1 0.995879
1.02732 1.03165 1.00017 0.995635
1.00265 1.00494 1.00047 0.997249
1.01568 1.01926 1 0.996483
1.01531 1.01923 1 0.996153
1.00239 1 1.00321 0.99919
1.00552 1.00248 1.00544 0.997606
1.0098 1.00991 1.003 0.996903
1 1 1 1
1.00324 1 1.00377 0.999468
1.00843 1.00115 1.00921 0.998077
0.999974 1 1 0.999974
1.00286 1 1.00321 0.999657
1 1 1 1
1.00118 1.00374 1 0.997455
1.00194 1.0014 1.00289 0.997647
1.00551 1 1.00775 0.997773
1.00378 1 1.00602 0.997773
1.0098 1 1.01189 0.997939
1.00769 1 1.00912 0.998584
1.0004 1 1.00061 0.999792
1.00316 1 1.00437 0.998789
1.00943 1 1.01136 0.998094
1 1 1 1
0.999888 1 1 0.999888
0.999581 1 1.00059 0.998988
1 1 1 1
0.999949 1 1 0.999949
1 1 1 1
0.706838 0.826263 0.909724 0.940356
0.65221 0.781551 0.90957 0.917474
0.75954 0.888255 0.914537 0.935
1.00603 1.0003 1.00805 0.997703
1.01621 1.00081 1.01809 0.997348
1.00614 1.00371 1.00504 0.997398
1.00683 1.00846 1.002 0.99639
1.01639 1.00261 1.01628 0.997497
1.01534 1 1.01742 0.997954
1.01213 1.0009 1.01363 0.997622
1.01958 1.00187 1.02008 0.997641
0.99984 1.00488 0.9977 0.997279
0.972674 1.00109 0.973109 0.998469
0.971435 1.00035 0.973356 0.997675
0.984172 1.00126 0.983929 0.998992
1.0256 1.00089 1.02628 0.998446
0.8655 0.951187 0.94172 0.966227
0.673249 0.804984 0.892813 0.936759
0.600741 0.746078 0.881759 0.913172
0.674437 0.807894 0.89327 0.934554
0.832442 0.8944 0.966036 0.96345
0.885124 0.91183 0.985631 0.984862
0.857686 0.915744 0.949983 0.985914
0.852413 0.924639 0.952595 0.967765
0.880297 0.958058 0.932821 0.985007
0.992626 1.00132 0.993088 0.998218
0.997637 1 0.998632 0.999004
0.992378 1 0.99295 0.999424
0.990468 0.987016 1.00634 0.997172
0.978186 0.990468 0.991044 0.996524
0.880817 0.966347 0.94399 0.965573
0.725755 0.835889 0.919975 0.943768
0.669091 0.787143 0.920788 0.923149
0.941825 0.963667 0.982566 0.994676
0.845246 0.927373 0.930674 0.979334
0.707972 0.829101 0.90861 0.939791
0.867328 0.949764 0.943477 0.967912
0.956642 0.979682 0.979041 0.997387
0.907704 0.987154 0.949658 0.96826
0.889231 0.962042 0.941107 0.982159
0.958799 1.0029 0.959174 0.996722
0.925228 0.991011 0.943417 0.989615
0.987757 1.00234 0.988037 0.997377
0.980289 1.00875 0.97455 0.997162
0.991651 1.04089 0.95507 0.997516
0.999969 1.00542 0.998123 0.996446
1.0281 1.04744 0.984376 0.997118
1.04164 1.07429 0.972016 0.997523
1.02728 1.03726 0.993991 0.996365
1.04677 1.06786 0.983007 0.997195
1.03925 1.06657 0.976881 0.997452
1.05713 1.06591 0.995157 0.996587
1.05181 1.06677 0.988755 0.997192
1.04955 1.06829 0.985118 0.997295
1.05314 1.06407 0.992555 0.997155
1.05398 1.06264 0.994924 0.996908
1.0614 1.06823 0.996738 0.996858
1.05916 1.06323 0.999629 0.996546
1.05986 1.06383 0.999949 0.99632
1.06133 1.06569 1 0.995912
1.0639 1.06826 1 0.995916
1.0636 1.06796 1 0.995919
1.04915 1.05337 1 0.995998
1.05314 1.05762 1 0.995762
1.05343 1.05808 1 0.995605
1.01193 1.015 1 0.996968
1.03232 1.03629 1 0.996175
1.03564 1.03993 1 0.995877
1.00037 1 1.00153 0.998848
1.00558 1.00763 1.00071 0.997251
1.01663 1.02021 1 0.996482
1 1 1 1
1.00192 1 1.00276 0.999165
1.00647 1.00381 1.00505 0.997604
1 1 1 1
1.00331 1 1.00387 0.999442
1 1 1 1
1.01503 1.01793 1.00063 0.996528
1.00222 1.00466 1.00013 0.997441
1.00151 1.00176 1.00226 0.997498
1.00227 1 1.00461 0.997664
1.00499 1.00004 1.00723 0.997734
1.00825 1.00014 1.00982 0.998304
1.01181 1 1.01389 0.997941
1.00834 1 1.00977 0.998582
1.00244 1 1.00277 0.999677
1 1 1 1
1.00017 1 1.00036 0.999806
1.00273 1 1.00395 0.99879
1 1 1 1
0.999901 1 1 0.999901
1 1 1 1
0.898997 0.976282 0.949396 0.969919
0.714653 0.835373 0.908731 0.941411
0.651408 0.781447 0.910756 0.915274
1.01905 1.0003 1.02167 0.997138
1.00363 1.00309 1.00308 0.997465
1.01365 1.00256 1.0137 0.9974
1.00762 1.00925 1.0019 0.996491
1.02542 1.02927 1.00016 0.996101
1.00182 1.00482 1 0.997012
1.02202 1.00178 1.0225 0.99775
1.00107 1.00587 0.998135 0.997093
0.979875 1.00245 0.978998 0.998451
0.996299 1.00338 0.995586 0.997345
0.972352 1.00345 0.97129 0.997652
0.992743 1.00154 0.994006 0.997194
0.972439 1.00082 0.973807 0.997778
0.98779 1.00016 0.988606 0.99902
0.89342 0.969298 0.935834 0.984916
0.87535 0.961447 0.942678 0.965813
0.685099 0.805544 0.902476 0.942384
0.832812 0.916342 0.944849 0.961893
0.869679 0.918013 0.959862 0.986964
0.882183 0.948997 0.939844 0.989094
0.96932 1.00377 0.96871 0.996875
0.990158 1.00045 0.991563 0.998133
0.996974 0.999563 0.998428 0.99898
0.980025 0.991474 0.991471 0.996955
0.917097 0.973146 0.956279 0.985491
0.894473 0.973355 0.946334 0.971072
0.715868 0.831495 0.916863 0.939007
0.954499 0.975036 0.9814 0.997491
0.893563 0.96777 0.938424 0.983906
0.907672 0.985463 0.951011 0.968507
0.95347 1.00069 0.955852 0.996816
0.927826 0.987697 0.950108 0.988712
0.956738 1.02521 0.936038 0.996981
0.973225 1.02069 0.957781 0.995523
0.975072 1.00855 0.969612 0.997108
0.988407 1.03824 0.954373 0.997514
1.00782 1.07328 0.941372 0.997488
1.03121 1.04954 0.985414 0.997086
1.04082 1.07376 0.971749 0.9975
1.04385 1.07363 0.974787 0.997402
1.04739 1.06829 0.98322 0.997169
1.0403 1.06627 0.978154 0.997432
1.05385 1.07544 0.982613 0.997256
1.05182 1.06674 0.988812 0.99717
1.04807 1.06603 0.985824 0.997288
1.05345 1.0683 0.989056 0.997018
1.05211 1.06398 0.991614 0.997212
1.05385 1.06257 0.994821 0.996954
1.05896 1.06444 0.998279 0.996573
1.0593 1.06329 0.999708 0.996537
1.06022 1.0642 0.999953 0.99631
1.06155 1.06564 1 0.996158
1.05481 1.05906 1 0.995986
1.06155 1.06592 1 0.995896
1.06359 1.06797 1 0.995904
1.02585 1.02918 1 0.99676
1.04774 1.05194 1 0.996005
1.05387 1.05836 1 0.995761
0.999815 1.00097 1.00027 0.99857
1.01397 1.01705 1.00001 0.996967
1.03101 1.03496 1 0.996176
1 1 1 1
1.00011 1.00016 1.00112 0.998828
1.00849 1.0103 1.00096 0.997252
1 1 1 1
1.0016 1 1.00246 0.99914
1 1 1 1
1.03009 1.03407 1 0.996152
1.01661 1.0198 1.00031 0.99656
1.0125 1.01499 1.00066 0.996885
1.00306 1.00534 1.0003 0.997427
1.00166 1.00203 1.0022 0.997439
1.00626 1.00301 1.00532 0.997935
1.00396 1 1.00628 0.997696
1.00853 1.00015 1.01009 0.998306
1.00388 1 1.00436 0.999521
1.00849 1 1.00992 0.99858
1.00169 1 1.002 0.999688
1 1 1 1
1 1 1 1
0.999862 1 1.00004 0.999822
1 1 1 1
0.908603 0.969704 0.950367 0.985924
0.887612 0.97376 0.94472 0.964869
0.71414 0.828421 0.912901 0.944297
1.04631 1.05041 1.00007 0.996032
1.01047 1.00194 1.01124 0.997305
1.00873 1.01042 1.00175 0.996592
1.00218 1.00518 1 0.997023
1.02392 1.02751 1.00042 0.996081
1.01019 1.01351 0.999721 0.997004
1.00168 1.00563 0.999169 0.996908
0.983714 1.0027 0.982608 0.998433
0.994213 1.00381 0.993059 0.997358
0.965956 1.00246 0.966002 0.997499
1.01358 1.01791 0.999109 0.996637
0.991079 1.00737 0.986522 0.997266
0.991992 1.00216 0.992666 0.997171
0.974724 1.00134 0.97549 0.997881
0.962826 1.00601 0.959551 0.997417
0.885674 0.9639 0.934351 0.983403
0.871993 0.962835 0.937778 0.965741
0.879985 0.942111 0.946656 0.986691
0.972176 1.00461 0.969804 0.997846
0.990206 1.0002 0.991954 0.998038
0.973615 1.00822 0.970816 0.994707
0.904063 0.956752 0.957461 0.986911
0.882103 0.9715 0.940211 0.96572
0.953124 0.99843 0.957584 0.996908
0.935922 0.989819 0.957432 0.987589
0.960328 1.02702 0.93774 0.997141
0.978336 1.02114 0.96206 0.995863
0.990885 1.04973 0.946503 0.997291
1.05507 1.08677 0.973585 0.997173
0.984604 1.03494 0.953734 0.997511
1.01391 1.07479 0.945743 0.99747
1.03551 1.08854 0.953899 0.997253
1.03945 1.07283 0.97134 0.997477
1.04028 1.07147 0.973426 0.997399
1.05442 1.08359 0.975877 0.997137
1.04099 1.06577 0.979282 0.997412
1.05148 1.07369 0.981994 0.99727
1.05688 1.07422 0.986851 0.996966
1.04648 1.06369 0.986508 0.997281
1.0538 1.06863 0.989073 0.997015
1.05892 1.06851 0.994302 0.9967
1.05359 1.0624 0.99469 0.997
1.05943 1.06485 0.998291 0.996619
1.06384 1.06791 0.9999 0.996292
1.06058 1.06456 0.999968 0.996299
1.06134 1.06545 1 0.996148
1.05681 1.06099 1 0.996061
1.03389 1.03736 1 0.996656
1.05475 1.05899 1 0.995989
1.06174 1.06613 1 0.995881
1.00374 1.00532 1 0.998431
1.02541 1.02874 1 0.996759
1.0465 1.05069 1 0.996011
1 1 1 1
1.00086 1.00221 1.0001 0.998555
1.01604 1.01913 1 0.996967
1 1 1 1
0.999723 1.00032 1.0006 0.99881
1 1 1 1
1.04513 1.0494 1 0.995931
1.03113 1.03512 1 0.996146
1.02934 1.03299 1 0.996459
1.01843 1.02189 1.00003 0.996593
1.01422 1.01684 1.00056 0.996868
1.00964 1.00956 1.00251 0.997572
1.00133 1.002 1.00196 0.997379
1.00566 1.00161 1.00612 0.997938
1.00234 1 1.00303 0.999317
1.00867 1 1.01038 0.998306
1.00315 1 1.00361 0.999534
1 1 1 1
1.00103 1 1.00133 0.999699
1 1 1 1
1 1 1 1
0.967835 1.01057 0.960615 0.996982
0.902641 0.968394 0.948298 0.98292
0.887244 0.968477 0.944191 0.970272
1.03822 1.04178 1.00001 0.996569
1.05642 1.06094 0.999502 0.996236
1.04449 1.04845 1.0001 0.996118
1.00306 1.00604 1 0.997031
1.02213 1.02542 1.00073 0.99606
1.01279 1.01699 0.998875 0.996992
1.03629 1.0454 0.99469 0.996571
0.993585 1.00507 0.991174 0.997372
0.962549 1.00189 0.963291 0.997346
1.01485 1.02053 0.99767 0.996758
1.02523 1.04594 0.983624 0.996521
0.993633 1.02819 0.968872 0.997434
0.997475 1.0099 0.990463 0.997206
0.993054 1.0027 0.993217 0.997146
0.965727 1.00749 0.960717 0.997738
0.891601 0.968085 0.93804 0.981829
0.972328 1.00427 0.969303 0.998851
1.03434 1.06623 0.972285 0.997745
0.971365 1.00672 0.969871 0.994856
0.906902 0.965859 0.953738 0.984505
0.963242 1.02929 0.938373 0.997291
0.982654 1.02142 0.965699 0.996221
0.985392 1.05009 0.940767 0.997472
1.0524 1.08628 0.971542 0.997197
1.04954 1.09856 0.95807 0.997188
1.09179 1.12337 0.974481 0.997339
1.02 1.07721 0.949317 0.997451
1.04179 1.09106 0.957471 0.997253
1.05682 1.09323 0.969551 0.997052
1.03679 1.06941 0.972032 0.997395
1.05433 1.08283 0.97648 0.997138
1.05682 1.07952 0.981984 0.996934
1.04917 1.07196 0.981406 0.997283
1.05764 1.07495 0.986894 0.996963
1.05969 1.07276 0.991072 0.996712
1.05416 1.06898 0.989088 0.997013
1.05966 1.06925 0.994321 0.996698
1.06681 1.07153 0.999227 0.996361
1.05988 1.06525 0.99829 0.996665
1.06343 1.06749 0.999893 0.996306
1.06082 1.06499 1 0.99609
1.06113 1.06525 1 0.996138
1.05666 1.06084 1 0.996067
1.03485 1.03837 1 0.996614
1.00806 1.00967 1 0.998405
1.03322 1.03668 1 0.996657
1.05468 1.05892 1 0.995991
1 1 1 1
1.00491 1.0065 1 0.998419
1.02465 1.02798 1 0.996759
1 1 1 1
1.00173 1.00319 1 0.99854
1 1 1 1
1.05485 1.05909 1 0.995997
1.04464 1.0489 1 0.995936
1.04271 1.0467 1 0.99619
1.03129 1.03529 1 0.996138
1.02979 1.03345 1 0.996463
1.0159 1.01827 1.00041 0.997257
1.01551 1.01824 1.00046 0.996851
1.00734 1.00704 1.00272 0.997574
1.00046 1 1.00143 0.999031
1.00575 1.00055 1.00727 0.997942
1.00274 1 1.0034 0.999335
1 1 1 1
1.00266 1 1.00311 0.999547
1 1 1 1
1 1 1 1
0.999573 1.04932 0.95467 0.99782
0.964969 1.00944 0.959834 0.995948
0.904775 0.970338 0.947896 0.983686
1.05095 1.05718 0.997628 0.996471
1.03893 1.04234 0.999946 0.996784
1.06821 1.0748 0.997483 0.996379
1.05656 1.06152 0.999104 0.996218
1.04269 1.04656 1.0001 0.996206
1.05966 1.07719 0.987304 0.996371
1.0153 1.02049 0.997929 0.996981
1.03569 1.04424 0.995289 0.996509
1.04775 1.08413 0.969671 0.996675
1.01289 1.0229 0.993314 0.99688
1.02644 1.04666 0.984183 0.996441
0.994073 1.03208 0.965612 0.997476
1.0009 1.01047 0.993369 0.997143
0.969114 1.00886 0.962511 0.998022
1.07915 1.11419 0.971105 0.997373
1.03976 1.06769 0.97601 0.99777
0.970082 1.00547 0.969642 0.995008
0.980863 1.04996 0.936389 0.99765
1.04969 1.08569 0.969533 0.997222
1.04402 1.09617 0.955087 0.997212
1.09672 1.12759 0.975217 0.997333
1.07497 1.10819 0.972727 0.997219
1.04785 1.09316 0.961191 0.997253
1.05772 1.09237 0.971131 0.997062
1.05724 1.08372 0.978529 0.996975
1.05429 1.08204 0.977148 0.997139
1.05725 1.07958 0.98234 0.996915
1.05937 1.07491 0.988797 0.996702
1.05842 1.07569 0.986945 0.99696
1.06006 1.07314 0.991074 0.996707
1.06876 1.07576 0.997076 0.99641
1.06038 1.06995 0.994339 0.996695
1.06658 1.07132 0.999215 0.996363
1.06615 1.07033 1 0.996102
1.06306 1.06711 0.999888 0.99632
1.06044 1.06459 1 0.996096
1.03551 1.03908 1 0.996563
1.05648 1.06065 1 0.996073
1.03543 1.03895 1 0.996614
1.00955 1.01085 1 0.998707
0.999464 1 1 0.999464
1.00862 1.01011 1 0.998532
1.03256 1.03602 1 0.996657
1 1 1 1
1.00641 1.00802 1 0.998407
1 1 1 1
1.07146 1.07779 0.997632 0.99649
1.062 1.06607 0.999963 0.996213
1.05563 1.05985 0.999997 0.996016
1.04901 1.05312 1 0.996102
1.04491 1.04916 1 0.995942
1.04309 1.04709 1 0.996183
1.01961 1.0227 1 0.996979
1.03076 1.03441 1 0.996467
1.01335 1.01554 1.00058 0.997258
0.999863 1.00104 1.00012 0.998701
1.00478 1.00439 1.00282 0.997576
1.00088 1 1.00183 0.99905
1 1 1 1
1.00279 1 1.00344 0.999354
1 1 1 1
1 1 1 1
1.06668 1.10894 0.964673 0.997116
1.00748 1.059 0.953406 0.997842
0.962119 1.00962 0.957804 0.994936
1.06286 1.07582 0.991502 0.996419
1.04666 1.05314 0.997321 0.996516
1.03954 1.04276 0.999914 0.996997
1.06668 1.07289 0.997813 0.996393
1.05677 1.0621 0.998778 0.996199
1.06588 1.09717 0.97475 0.996654
1.05554 1.07352 0.98688 0.99633
1.03539 1.04324 0.996019 0.996446
1.04431 1.08044 0.969778 0.996674
1.03159 1.05036 0.985717 0.996361
0.998463 1.04098 0.961537 0.997526
1.07222 1.10045 0.976965 0.997326
1.08098 1.11611 0.971041 0.997411
1.04453 1.06941 0.978894 0.997796
1.03927 1.09449 0.952183 0.997232
1.10209 1.13201 0.976171 0.997327
1.07576 1.10984 0.971988 0.997224
1.06387 1.08486 0.983509 0.99709
1.05851 1.09146 0.972661 0.997072
1.05782 1.0836 0.97919 0.996959
1.06055 1.07637 0.988515 0.996747
1.0577 1.0797 0.982675 0.996895
1.05992 1.07545 0.988816 0.996701
1.06926 1.07894 0.99457 0.996435
1.06048 1.07356 0.991077 0.996703
1.06833 1.07534 0.99706 0.996409
1.0696 1.07378 1 0.996105
1.06637 1.07112 0.9992 0.996364
1.06602 1.07019 1 0.996107
1.03673 1.04039 1 0.996489
1.06003 1.06418 1 0.996103
1.03679 1.04036 1 0.996565
1.00863 1.00992 1 0.998725
1.03611 1.03963 1 0.996614
1.00931 1.01062 1 0.998701
0.999494 1 1 0.999494
0.999745 1 1 0.999745
1.0092 1.01055 1 0.99867
1 1 1 1
1.06349 1.07505 0.992717 0.996506
1.06565 1.07018 0.999457 0.996308
1.06958 1.07639 0.997042 0.99662
1.05818 1.06231 1 0.996108
1.06408 1.06819 0.999949 0.996202
1.05625 1.06051 0.999941 0.996034
1.0494 1.05351 1 0.996092
1.02862 1.03195 1 0.996778
1.04361 1.04762 1 0.996177
1.0208 1.02389 1 0.99698
1.00422 1.00574 1 0.998487
1.01114 1.01339 1.00052 0.997259
1.00013 1.00086 1.00054 0.998721
1 1 1 1
1.00141 1 1.00235 0.99907
1 1 1 1
1 1 1 1
1.06477 1.09572 0.974677 0.997003
1.0596 1.10109 0.965105 0.997116
1.01323 1.06518 0.953266 0.997856
1.06313 1.08449 0.98366 0.996584
1.06018 1.07323 0.991394 0.996416
1.04232 1.04905 0.997019 0.996563
1.06493 1.07087 0.998041 0.996407
1.06449 1.09516 0.975282 0.99663
1.05083 1.06918 0.986501 0.996289
1.03543 1.07067 0.970307 0.996673
1.06741 1.08726 0.98455 0.997155
1.07084 1.09869 0.977312 0.997284
1.08235 1.11754 0.970995 0.997449
1.06271 1.07866 0.988178 0.996995
1.07631 1.11138 0.971139 0.997228
1.0636 1.0847 0.983421 0.997076
1.06228 1.07675 0.98967 0.996858
1.05844 1.08344 0.979918 0.996944
1.06065 1.0765 0.988484 0.99675
1.06955 1.07976 0.994055 0.996462
1.06042 1.07594 0.988839 0.9967
1.06873 1.07838 0.994593 0.996435
1.07063 1.07503 0.999792 0.996118
1.0678 1.07483 0.997045 0.996408
1.07037 1.07455 1 0.996108
1.03633 1.04005 1 0.99642
1.06583 1.06999 1 0.996112
1.03801 1.04166 1 0.996491
1.00698 1.0083 1 0.998698
1.0381 1.04168 1 0.996566
1.00817 1.00947 1 0.998711
0.999496 1 1 0.999496
1.00903 1.01034 1 0.998697
0.999507 1 1 0.999507
1 1 1 1
1.06131 1.07545 0.990403 0.996415
1.06692 1.0736 0.997449 0.996313
1.0652 1.0764 0.993067 0.996504
1.06546 1.06955 1 0.996172
1.06657 1.07157 0.998972 0.996357
1.06787 1.07514 0.996473 0.996749
1.0386 1.04209 1 0.996648
1.05821 1.06236 1 0.996096
1.0663 1.07038 1 0.996192
1.04989 1.05402 1 0.996081
1.02939 1.03272 1 0.996778
1.00921 1.01081 1 0.998421
1.02107 1.02416 1 0.996982
1.00256 1.00406 1 0.998504
1 1 1 1
1.00009 1.00043 1.00093 0.99874
1 1 1 1
1 1 1 1
1.06321 1.0837 0.984152 0.996887
1.06527 1.09669 0.97429 0.996982
1.05585 1.09709 0.965191 0.997116
1.06288 1.0842 0.983679 0.996601
1.05728 1.07042 0.991279 0.996413
1.06465 1.0948 0.975772 0.996605
1.06474 1.08021 0.988652 0.996993
1.06736 1.08718 0.984582 0.99715
1.06942 1.09693 0.977614 0.997242
1.06306 1.07872 0.988435 0.997016
1.06117 1.07364 0.991544 0.996817
1.06331 1.08455 0.983299 0.997061
1.0627 1.07673 0.990116 0.99682
1.06908 1.07897 0.994268 0.996553
1.06079 1.07667 0.988455 0.996752
1.06922 1.07943 0.994051 0.996464
1.07045 1.07512 0.999526 0.996131
1.06828 1.07791 0.994608 0.996435
1.07178 1.07622 0.99976 0.99612
1.03384 1.03759 1 0.996382
1.07123 1.07541 1 0.996112
1.03698 1.04071 1 0.996422
1.00468 1.00604 1 0.998643
1.03934 1.043 1 0.996494
1.00632 1.00765 1 0.998678
0.99947 1 1 0.99947
1.00769 1.009 1 0.998701
0.999521 1 1 0.999521
0.999515 1 1 0.999515
1.06301 1.07719 0.990124 0.996678
1.06798 1.07642 0.99588 0.996264
1.06106 1.07635 0.989319 0.996441
1.07001 1.07432 0.999813 0.996176
1.06666 1.07308 0.99771 0.996298
1.06685 1.0777 0.993408 0.996502
1.04079 1.04438 1 0.996566
1.06532 1.06951 0.999924 0.996167
1.06741 1.07291 0.998466 0.996407
1.01031 1.0119 1 0.998425
1.0378 1.04129 1 0.996648
1.05831 1.06247 1 0.996085
1.03012 1.03345 1 0.996779
1.00781 1.0094 1 0.998432
1 1 1 1
1.0013 1.00279 1 0.998521
1 1 1 1
1 1 1 1
1.06213 1.07743 0.988885 0.996883
1.0636 1.08392 0.984331 0.996877
1.0649 1.09671 0.973957 0.996961
1.06272 1.08398 0.983712 0.996617
1.06221 1.07252 0.993589 0.996774
1.06474 1.08032 0.988538 0.997004
1.06741 1.08712 0.984678 0.997144
1.06343 1.07877 0.988711 0.997036
1.06137 1.07408 0.991318 0.996826
1.06989 1.07826 0.995692 0.996534
1.06314 1.0767 0.990587 0.996781
1.06987 1.07909 0.994937 0.996499
1.06901 1.07432 0.998844 0.996207
1.06891 1.07912 0.994049 0.996466
1.07069 1.07545 0.999444 0.996133
1.03077 1.03453 1 0.996358
1.07274 1.07721 0.999731 0.996121
1.03372 1.03747 1 0.996384
1.00205 1.00374 1 0.998325
1.03756 1.04129 1 0.996425
1.00382 1.00533 1 0.998497
1 1 1 1
1.00564 1.00699 1 0.99866
0.999502 1 1 0.999502
0.999538 1 1 0.999538
1.06222 1.07382 0.992401 0.996777
1.06835 1.07739 0.99519 0.996401
1.06338 1.07671 0.99092 0.99667
1.0706 1.07543 0.999401 0.996103
1.06746 1.07609 0.995704 0.996266
1.06085 1.07728 0.988242 0.996467
1.03919 1.0429 1 0.996441
1.06968 1.0741 0.999701 0.996177
1.06641 1.07256 0.997977 0.996284
1.00808 1.00966 1 0.99844
1.03947 1.04308 1 0.996537
1.06497 1.06921 0.999873 0.996162
1 1 1 1
1.01039 1.01198 1 0.998435
1.03695 1.04044 1 0.996649
1.00638 1.00795 1 0.998444
1 1 1 1
1 1 1 1
1.06077 1.07073 0.993897 0.996781
1.06264 1.07756 0.989227 0.99689
1.06389 1.08408 0.984461 0.996866
1.07018 1.07728 0.99692 0.996474
1.06157 1.07234 0.99315 0.996785
1.06473 1.08044 0.98841 0.997015
1.06153 1.07452 0.99105 0.996836
1.0697 1.07815 0.995613 0.996534
1.06794 1.07298 0.999067 0.996235
1.07057 1.07914 0.995597 0.996446
1.06922 1.07424 0.999149 0.996179
1.02841 1.0322 1 0.99633
1.07099 1.07584 0.999362 0.996135
1.03073 1.0345 1 0.996359
1.00053 1.00223 1 0.998304
1.0338 1.03755 1 0.996385
1.0016 1.00328 1 0.998323
1 1 1 1
1.00297 1.00465 1 0.998327
0.999725 1 1 0.999725
0.999529 1 1 0.999529
1.05931 1.06932 0.993878 0.99674
1.06969 1.07703 0.996693 0.996482
1.06186 1.07327 0.992561 0.996785
1.07033 1.07468 0.999858 0.996096
1.06924 1.07811 0.995363 0.996387
1.0637 1.07617 0.99172 0.996662
1.0349 1.03867 1 0.996371
1.07019 1.07469 0.999715 0.996097
1.067 1.07579 0.995545 0.996267
1.00503 1.00662 1 0.998417
1.03851 1.04223 1 0.996431
1.06931 1.07388 0.999571 0.996177
1 1 1 1
1.00891 1.01047 1 0.998449
1.03841 1.04204 1 0.996509
1 1 1 1
1.0105 1.01207 1 0.998446
1 1 1 1
1.0696 1.07643 0.997134 0.996513
1.06035 1.07036 0.993857 0.996767
1.0631 1.07762 0.989596 0.996896
1.06707 1.07189 0.999265 0.99623
1.06958 1.07703 0.99658 0.996494
1.06093 1.07215 0.992715 0.996797
1.06953 1.07803 0.99556 0.996535
1.06761 1.07271 0.999009 0.996235
1.02656 1.03033 1 0.996336
1.06949 1.07421 0.999448 0.99615
1.02874 1.03253 1 0.996333
0.99947 1.0012 1 0.998277
1.03059 1.03435 1 0.99636
1.00016 1.00187 1 0.998302
1 1 1 1
1.00105 1.00274 1 0.998321
1 1 1 1
0.999501 1 1 0.999501
1.07002 1.07675 0.997249 0.996488
1.0586 1.0693 0.993212 0.996758
1.06918 1.07341 0.999909 0.996152
1.07003 1.0774 0.996664 0.996481
1.0615 1.07274 0.992701 0.996792
1.0315 1.03524 1 0.996381
1.0699 1.07419 0.999913 0.996092
1.07017 1.07889 0.995528 0.996374
1.00235 1.004 1 0.998362
1.0349 1.03867 1 0.996379
1.06968 1.07388 1 0.996091
1 1 1 1
1.00589 1.00748 1 0.998422
1.03787 1.0416 1 0.99642
1 1 1 1
1.00968 1.01124 1 0.998457
1 1 1 1
1.06721 1.07184 0.99943 0.996249
1.06954 1.07624 0.997263 0.996502
1.05991 1.06998 0.993816 0.996753
1.02538 1.02914 1 0.996355
1.06682 1.07167 0.999236 0.996231
1.06895 1.07675 0.996225 0.996513
1.06728 1.07243 0.998952 0.996236
1.02683 1.03061 1 0.996333
0.998732 1.00046 1 0.99827
1.02909 1.03287 1 0.996335
0.999212 1.00094 1 0.998275
1 1 1 1
0.999836 1.00154 1 0.9983
1 1 1 1
1 1 1 1
1.06875 1.07289 0.999963 0.996182
1.06943 1.0766 0.996797 0.996538
1.05796 1.06935 0.992548 0.996776
1.02891 1.03263 1 0.996398
1.06909 1.07328 0.999952 0.996149
1.0703 1.0777 0.996637 0.99648
1.00023 1.00192 1 0.998321
1.03121 1.03495 1 0.996379
1.06937 1.07357 1 0.996089
1 1 1 1
1.00305 1.0047 1 0.998365
1.03494 1.0387 1 0.996387
1 1 1 1
1.00672 1.00831 1 0.998428
1 1 1 1
1.02579 1.02951 1 0.996386
1.06689 1.0716 0.99936 0.996239
1.06948 1.07608 0.997368 0.996491
0.99841 1.00011 1 0.998303
1.02561 1.02937 1 0.996352
1.06658 1.07146 0.999214 0.996231
1.02715 1.03093 1 0.99633
0.99858 1.00031 1 0.998271
1 1 1 1
0.99894 1.00067 1 0.998273
1 1 1 1
1 1 1 1
1.02667 1.03038 1 0.996404
1.06809 1.07246 0.999712 0.996213
1.06885 1.07641 0.996372 0.996587
0.999056 1.00045 1 0.99861
1.02864 1.03236 1 0.996397
1.06907 1.07321 1 0.996145
1 1 1 1
1.00082 1.0025 1 0.998322
1.03108 1.03483 1 0.996376
1 1 1 1
1.00373 1.00537 1 0.998369
1 1 1 1
0.998286 1 1 0.998286
1.02597 1.0297 1 0.99638
1.0666 1.07137 0.999312 0.996229
1 1 1 1
0.998317 1.00002 1 0.998302
1.02576 1.02952 1 0.996349
0.998379 1.00011 1 0.998271
1 1 1 1
1 1 1 1
0.998587 1 1 0.998586
1.02709 1.0308 1 0.996404
1.06749 1.07214 0.99942 0.996244
1 1 1 1
0.999249 1.00094 1 0.998315
1.0285 1.03222 1 0.996396
1 1 1 1
1.00134 1.00302 1 0.998323
1 1 1 1
0.999485 1 1 0.999485
0.998454 1 1 0.998454
1.02614 1.02988 1 0.996372
1 1 1 1
0.998303 1 1 0.998303
1 1 1 1
0.999494 1 1 0.999494
0.998561 1.0001 1 0.998457
1.02727 1.03097 1 0.996405
0.999741 1 1 0.999741
0.999628 1.00131 1 0.998317
1 1 1 1
1 1 1 1
0.998325 1 1 0.998325
1 1 1 1
0.999747 1 1 0.999747
0.998678 1.00035 1 0.998329
1 1 1 1
1 1 1 1
1 1 1 1

VECTORS lamdaE float
1.00218 1 0.992831
1.00177 1.00078 0.996363
1.00165 1.0002 0.993214
1.00208 1.00013 0.992784
1.00223 0.999925 0.992838
1.00217 1.00024 0.992634
1.00325 1.00065 0.989876
1.00185 1.00081 0.996275
1.00152 1.00005 0.997027
1.00104 1.00088 0.99704
1.00156 1.00123 0.992188
1.00332 1.00136 0.987843
1.00158 0.999962 0.993486
1.0013 1.00005 0.993681
1.00118 1.0004 0.993571
1.0017 1.0001 0.9932
1.00156 1.00061 0.992988
1.00178 0.999976 0.993236
1.00349 1.00054 0.989676
1.00161 1.00003 0.996609
1.00199 1.00017 0.992835
1.00218 1 0.992812
1.00325 1.00025 0.990313
1.00333 1.00036 0.990064
1.00213 1.00054 0.992343
1.00318 1.00117 0.989449
1.00529 1.00132 0.985358
1.00191 1.00081 0.996174
1.00178 0.999934 0.995051
1.00142 1.00056 0.995014
1.00186 1.00105 0.996141
1.00325 1.00148 0.987834
1.00201 0.999756 0.993031
1.0019 0.999989 0.993085
1.00365 1.00023 0.990303
1.00044 1.00174 0.997171
1.0035 1.00085 0.99001
1.00332 1.00211 0.987188
1.00516 1.00212 0.984131
1.00056 1.00031 0.997421
1.00161 0.999979 0.996605
1.00157 1.00001 0.995088
1.00152 0.999958 0.996678
1.00113 1.00005 0.993894
1.0033 0.999896 0.989557
1.00148 0.999954 0.996984
1.00365 1.00016 0.990431
1.00134 1.00004 0.993616
1.00135 1.00002 0.993622
1.001 1.00098 0.993323
1.00372 1.00043 0.989492
1.00139 1.00004 0.995232
1.0016 1.00019 0.993256
1.00159 1.00096 0.992635
1.00178 0.999974 0.993216
1.00345 1.0002 0.990093
1.00346 1.001 0.989252
1.00354 1.00029 0.989858
1.0053 1.00128 0.985442
1.00149 1 0.996667
1.00184 1.00011 0.993089
1.003 0.999975 0.991396
1.0032 1.00021 0.990441
1.00332 1.00025 0.990192
1.00525 0.999997 0.986808
1.00531 1.00034 0.986251
1.00218 1.00075 0.991869
1.0031 1.0021 0.988606
1.00532 1.002 0.984589
1.00529 0.999704 0.98625
1.00213 0.999939 0.996465
1.00171 1.00097 0.99638
1.00184 1.0005 0.996411
1.0032 1.00158 0.98783
1.00209 0.999866 0.996425
1.00203 1.00009 0.996486
1.00351 1.00018 0.988771
1.00071 1.00134 0.995109
1.00329 1.00081 0.988471
1.0031 1.00233 0.988419
1.00524 1.00198 0.984125
1.0009 1.00065 0.997022
1.00093 1.00264 0.990743
1.00363 1.00013 0.988709
1.00359 1.00024 0.988656
1.00534 1.00038 0.985692
1.00235 1.00297 0.990103
1.00534 1.00135 0.984665
1.0043 1.00324 0.984283
1.00537 1.0016 0.984159
1.00033 0.999727 0.997783
1.0004 1.00012 0.997572
1.00192 0.999972 0.99643
1.00168 0.999977 0.996574
1.00156 0.999969 0.996669
1.00143 0.999989 0.995239
1.00333 0.99989 0.99029
1.00172 0.999958 0.995026
1.00352 1.00018 0.989722
1.00151 0.99998 0.996698
1.00313 0.999754 0.98989
1.00354 1.00006 0.990699
1.0053 0.998756 0.987513
1.00361 1.00015 0.99041
1.00525 0.999209 0.987148
1.00156 0.999966 0.993518
1.00119 1.0002 0.993681
1.00105 1.00135 0.992912
1.00139 0.999932 0.993617
1.00364 1.00019 0.989875
1.00374 1.00025 0.989661
1.00371 1.00086 0.989067
1.00531 1.00125 0.985522
1.00155 0.999979 0.996683
1.00146 1.0001 0.993501
1.00322 0.999888 0.990216
1.00338 1.00018 0.990221
1.00197 1.00128 0.993908
1.00342 1.00189 0.988816
1.00352 1.00021 0.989979
1.00524 0.999748 0.987089
1.00531 1.00198 0.984701
1.00531 1.00057 0.986089
1.00529 0.999704 0.986277
1.00309 0.999816 0.989899
1.00311 1.00003 0.990705
1.00522 0.998571 0.988419
1.00522 0.999242 0.987739
1.00531 0.999808 0.986866
1.00533 0.997279 0.989001
1.00114 1.00128 0.99667
1.00531 0.9987 0.987213
1.00285 1.00309 0.986711
1.00529 1.00269 0.983251
1.00529 1.00076 0.985268
1.00526 0.996936 0.988826
1.00153 1.00335 0.988888
1.00282 1.00442 0.985869
1.00213 0.999879 0.996434
1.00202 1.00015 0.996472
1.00352 1.00016 0.98875
1.001 1.00098 0.996893
1.00255 1.00265 0.987599
1.00334 1.00072 0.988468
1.00533 1.00185 0.984111
1.00072 1.0007 0.997181
1.0009 1.00273 0.990758
1.00365 1.00018 0.989514
1.00362 1.00031 0.989412
1.00533 1.00041 0.985658
1.0018 1.00311 0.988667
1.00534 1.00135 0.984637
1.00456 1.00289 0.984248
1.00534 1.00144 0.984393
1.00132 1.00286 0.989785
1.0006 1.00234 0.991628
1.00253 1.00356 0.987555
1.00532 0.999939 0.986217
1.00535 1.00085 0.985179
1.00531 0.998373 0.987642
1.00347 1.00363 0.985183
1.00532 1.00004 0.985958
1.0053 1.0028 0.983272
1.00534 0.999714 0.985809
1.0002 0.999178 0.99814
1.00022 0.99964 0.997933
1.00031 1.00003 0.997717
1.00126 1.00311 0.989666
1.00065 1.00106 0.997039
1.00206 0.999912 0.996414
1.00178 0.999982 0.996485
1.00333 1.00022 0.989057
1.00317 0.999895 0.989648
1.00154 0.999969 0.996652
1.00149 0.999967 0.996694
1.0031 0.999787 0.989884
1.00342 1.00004 0.989987
1.00529 0.998765 0.987523
1.00345 1.00022 0.988883
1.00524 0.99922 0.987128
1.00305 0.999768 0.989973
1.00528 0.998663 0.987633
1.0053 0.998933 0.98736
1.00529 0.995477 0.991057
1.00525 0.999548 0.986748
1.00526 0.995919 0.990466
1.0015 0.999976 0.996687
1.00104 1.00016 0.993912
1.00325 0.999856 0.989201
1.00358 1.00016 0.989999
1.0011 1.00198 0.996523
1.00374 1.00144 0.989037
1.00371 1.00018 0.989769
1.00524 0.999489 0.98737
1.00531 1.00079 0.985923
1.0053 1.00194 0.984816
1.00528 0.999707 0.986303
1.00307 0.999807 0.989902
1.00328 1.00005 0.990489
1.00525 0.9985 0.988201
1.00522 0.999484 0.987422
1.00134 1.00131 0.996496
1.00299 1.00284 0.987861
1.00511 1.00298 0.983638
1.00531 0.999886 0.986822
1.00533 0.996834 0.989406
1.00529 1.00065 0.98535
1.0053 0.998897 0.987114
1.00526 0.997 0.988823
1.0016 1.00324 0.988878
1.00295 1.00429 0.985799
1.00522 0.998803 0.987598
1.00524 0.99888 0.988081
1.00533 0.996186 0.99012
1.00531 0.996181 0.990209
1.00533 0.997748 0.988192
1.0053 0.995306 0.990849
1.00207 1.00332 0.987783
1.00526 0.995807 0.990038
1.00477 1.00365 0.983413
1.00529 1.00185 0.983959
1.0053 0.998718 0.987179
1.00525 0.995662 0.990271
1.00361 1.00427 0.984558
1.0027 1.00373 0.987205
1.00413 1.00406 0.984555
1.0035 1.00018 0.988792
1.00048 1.00053 0.997347
1.00079 1.00274 0.990776
1.00346 1.00029 0.988689
1.00533 1.00042 0.985626
1.00176 1.00317 0.988544
1.00479 1.00264 0.98422
1.00535 1.00136 0.984607
1.00534 1.00126 0.984628
1.00121 1.00298 0.989823
1.00047 1.00244 0.991614
1.00239 1.00354 0.98756
1.00532 0.999963 0.986185
1.00534 1.00087 0.985148
1.00532 0.998362 0.987629
1.00372 1.00337 0.985151
1.00532 1.00015 0.985849
1.00536 1.00279 0.983187
1.00534 0.99936 0.986087
1.00041 1.00177 0.992436
1.00312 1.00398 0.986272
1.00189 1.00395 0.987962
1.00306 1.00108 0.988058
1.00533 0.997487 0.988609
1.00532 0.9993 0.986649
1.0053 0.996042 0.989727
1.00494 1.00351 0.983103
1.00529 0.997699 0.988204
1.00534 1.00144 0.98457
1.00541 0.998108 0.987343
1.00016 1.0036 0.991169
1.00027 1.00065 0.993826
1.00018 0.998556 0.998382
1.00013 0.99906 0.998237
1.00012 0.999548 0.998068
1.00093 1.00295 0.990443
1.00052 1.00073 0.997266
1.00134 1.00307 0.98959
1.00084 1.00115 0.996915
1.00342 1.00025 0.988875
1.00327 1.00004 0.989343
1.00522 0.999232 0.987116
1.00527 0.998777 0.987535
1.00309 0.999824 0.989886
1.00155 0.999953 0.996689
1.00307 0.999759 0.989976
1.00526 0.99869 0.987643
1.00527 0.998949 0.987368
1.0053 0.995438 0.99106
1.00526 0.999565 0.986714
1.00529 0.995905 0.990468
1.00523 0.998711 0.987665
1.00533 0.995455 0.99106
1.00524 0.995618 0.990927
1.00515 0.994974 0.991662
1.00535 0.996584 0.989593
1.00529 0.9949 0.9913
1.00309 0.999803 0.989913
1.00348 1.00002 0.990273
1.00527 0.99841 0.987988
1.00522 0.999715 0.987104
1.00158 1.00139 0.996275
1.00341 1.0027 0.98874
1.00492 1.00311 0.984017
1.00531 0.999955 0.986777
1.00534 0.996388 0.989808
1.0053 0.999095 0.987017
1.0053 1.00056 0.985432
1.00527 0.99706 0.988819
1.00167 1.00316 0.988867
1.00295 1.00396 0.985733
1.00523 0.998527 0.987904
1.00525 0.998853 0.988074
1.00533 0.99618 0.990167
1.00531 0.996454 0.989825
1.00217 1.00334 0.987775
1.0045 1.00367 0.983444
1.00532 1.00202 0.983767
1.00533 0.997975 0.988063
1.0053 0.995116 0.990941
1.00528 0.998496 0.987446
1.00526 0.995858 0.990011
1.00525 0.995643 0.990141
1.00357 1.00433 0.984524
1.00368 1.00374 0.984601
1.00216 1.004 0.987236
1.00534 0.996091 0.990259
1.00532 0.996335 0.99
1.00519 0.994956 0.99156
1.00531 0.994923 0.991219
1.00526 0.995154 0.990685
1.00529 0.99492 0.990978
1.00408 1.00393 0.983975
1.00526 0.994996 0.990734
1.00533 1.00337 0.982499
1.0053 1.00011 0.985485
1.00525 0.997161 0.988729
1.00527 0.995429 0.990373
1.00159 1.00501 0.98731
1.00497 1.00427 0.982846
1.00265 1.002 0.987425
1.00514 1.00404 0.983139
1.00531 0.999985 0.986155
1.0004 1.00255 0.991597
1.00102 1.00324 0.989865
1.00193 1.00372 0.98756
1.00534 1.00088 0.985115
1.00532 0.998352 0.987616
1.00395 1.00293 0.985122
1.00538 1.00274 0.983098
1.00532 1.00028 0.985742
1.00533 0.999023 0.986365
1.0003 1.00189 0.992449
1.00283 1.00374 0.986392
1.00176 1.00405 0.987875
1.00337 1.0011 0.988127
1.00533 0.997466 0.988603
1.00532 0.999284 0.986634
1.0053 0.996026 0.989743
1.00513 1.00352 0.983035
1.00529 0.997934 0.987934
1.0053 1.00129 0.984553
1.0054 0.997944 0.987584
1.00038 1.00118 0.993146
1.00145 1.0049 0.988102
1.00346 1.0036 0.985368
1.00333 1.00207 0.987932
1.00367 1.00047 0.98843
1.00527 0.995318 0.990526
1.00531 0.996854 0.988827
1.00532 0.995203 0.990278
1.00516 1.00308 0.983156
1.00535 0.99652 0.989081
1.00522 0.999757 0.986021
1.00048 1.00403 0.990129
1.00019 1.005 0.989757
1.00009 1.00273 0.992069
1.00011 1.00352 0.991173
1.00017 1.00002 0.995354
1.00024 1.00053 0.994332
1.00033 0.997941 0.996821
1.00016 0.998493 0.998441
1.0001 0.998947 0.998308
1.00018 1.00277 0.991687
1.00022 1.00042 0.997662
1.00094 1.00291 0.99042
1.00055 1.00085 0.997186
1.00136 1.00303 0.989517
1.001 1.00119 0.996795
1.00527 0.999582 0.986678
1.00524 0.998962 0.987371
1.00531 0.995909 0.99047
1.00531 0.995397 0.991062
1.00525 0.998718 0.98765
1.00307 0.999744 0.989975
1.00523 0.998711 0.987669
1.00532 0.99543 0.991062
1.00528 0.99557 0.990926
1.00515 0.994969 0.991643
1.00532 0.996587 0.989602
1.00528 0.994897 0.991322
1.00534 0.995493 0.990997
1.00515 0.994964 0.991663
1.00521 0.994956 0.991539
1.00522 0.994951 0.991464
1.0053 0.99493 0.991016
1.00527 0.994935 0.991058
1.00524 0.998241 0.988208
1.00526 0.998841 0.988068
1.00532 0.99618 0.990214
1.00531 0.99673 0.989442
1.00227 1.00333 0.987777
1.00426 1.004 0.983488
1.00535 1.00217 0.983579
1.00533 0.998199 0.987935
1.00531 0.994923 0.991033
1.00527 0.995909 0.989983
1.00526 0.998241 0.987712
1.00525 0.995614 0.990011
1.00353 1.00458 0.98449
1.00368 1.00381 0.984647
1.00192 1.00436 0.987265
1.00533 0.995822 0.99059
1.00531 0.996354 0.990003
1.00519 0.994954 0.991569
1.0053 0.994925 0.99119
1.00395 1.00417 0.984024
1.00531 1.00341 0.982575
1.00532 1.00032 0.985209
1.00526 0.995378 0.990509
1.00529 0.994918 0.990934
1.00524 0.997036 0.988715
1.00527 0.994988 0.990706
1.00527 0.995352 0.990403
1.00451 1.00428 0.98286
1.00489 1.00408 0.982953
1.00185 1.00463 0.987382
1.00287 1.00247 0.987525
1.00519 0.994958 0.991669
1.00523 0.994946 0.99132
1.00522 0.994943 0.99147
1.00528 0.994919 0.991003
1.00528 0.994883 0.990863
1.00534 0.994902 0.990757
1.00522 1.00421 0.982062
1.0053 0.994868 0.990628
1.00528 1.00202 0.983634
1.0053 0.999237 0.986243
1.0052 0.996538 0.989192
1.00531 0.99517 0.990371
1.0014 1.0049 0.987711
1.00338 1.00333 0.986387
1.0052 1.00431 0.981794
1.00326 1.00081 0.987616
1.00472 1.00443 0.982585
1.00019 1.00199 0.992465
1.00532 0.997445 0.988598
1.00192 1.00385 0.987788
1.00256 1.0037 0.986517
1.00353 1.00093 0.988195
1.00532 0.999267 0.98662
1.00529 0.996011 0.989758
1.00527 1.00315 0.982967
1.00529 1.00121 0.984535
1.00529 0.998149 0.987664
1.0054 0.997794 0.987825
1.00033 1.00115 0.993183
1.00117 1.00497 0.988111
1.00375 1.00317 0.98545
1.00295 1.00207 0.987876
1.00397 1.0003 0.9876
1.00528 0.995308 0.990547
1.0053 0.996827 0.988845
1.00531 0.995206 0.990292
1.00517 1.00324 0.983092
1.00536 0.996643 0.988874
1.00522 0.999793 0.986282
1.00099 1.00448 0.989041
1.00218 1.00513 0.987628
1.00375 1.00357 0.984518
1.00393 1.00071 0.987839
1.00484 1.00251 0.985568
1.00533 0.994864 0.990731
1.0053 0.995692 0.989699
1.00522 0.995033 0.990391
1.0049 1.00169 0.984527
1.00522 0.998302 0.987224
1.00041 1.00417 0.990119
1.00042 1.00486 0.989305
0.99973 1.00501 0.989813
1.00045 1.0045 0.990357
1.00018 1.00446 0.990617
0.999982 1.00237 0.992594
0.999954 1.00291 0.992088
1.0001 0.999535 0.99585
1.00003 1.00365 0.991178
1.00018 0.999886 0.995434
1.00029 0.99746 0.997228
1.00023 1.00044 0.994824
1.0002 0.998027 0.997738
1.00014 0.998348 0.998501
0.999844 1.00165 0.993333
1.00037 1.00248 0.99173
0.999933 0.999533 0.998224
1.00041 1.00034 0.997482
1.00107 1.00272 0.990399
1.00064 1.00096 0.997097
1.0053 0.996587 0.98961
1.00532 0.995509 0.990924
1.00527 0.994894 0.991343
1.00515 0.994965 0.991625
1.00531 0.995403 0.991064
1.00523 0.99871 0.987672
1.00533 0.995488 0.990997
1.00516 0.994966 0.991664
1.0052 0.994956 0.991539
1.00522 0.994947 0.991435
1.0053 0.994913 0.99105
1.00527 0.994933 0.99107
1.00518 0.994957 0.991658
1.00523 0.994948 0.991522
1.00524 0.994948 0.991276
1.00527 0.994929 0.991363
1.00529 0.994872 0.990974
1.00531 0.994943 0.990954
1.00533 0.995561 0.990921
1.0053 0.996374 0.990006
1.0052 0.994952 0.991578
1.0053 0.994929 0.991161
1.00376 1.0043 0.984072
1.00529 1.00342 0.982644
1.00533 1.00047 0.984935
1.00526 0.995604 0.990332
1.00528 0.994916 0.990889
1.00527 0.994981 0.990678
1.00523 0.99692 0.988701
1.00527 0.995276 0.990434
1.00425 1.00464 0.982877
1.00425 1.00445 0.982768
1.00191 1.00422 0.98745
1.00293 1.00197 0.987613
1.00519 0.994957 0.991667
1.00523 0.994945 0.991362
1.00521 0.994945 0.991447
1.00528 0.99492 0.991004
1.0051 1.00433 0.982109
1.00528 1.0022 0.983482
1.00529 0.999231 0.986217
1.00528 0.994887 0.990892
1.00534 0.994895 0.990738
1.00523 0.996434 0.989202
1.0053 0.99487 0.990617
1.00528 0.995126 0.990502
1.0052 1.0044 0.981858
1.00483 1.00478 0.982462
1.00367 1.00126 0.987673
1.00114 1.00483 0.987931
1.00279 1.00349 0.98626
1.00523 0.994946 0.991456
1.00526 0.994924 0.991261
1.00533 0.994884 0.99076
1.00532 0.994883 0.990671
1.00521 1.00379 0.982287
1.0053 0.994856 0.990551
1.00521 1.00133 0.983903
1.00524 0.998677 0.986786
1.00528 0.99583 0.989418
1.0001 1.00435 0.990049
1.00199 1.00508 0.986793
1.00412 1.00385 0.986065
1.00509 1.00438 0.982227
1.00447 1.00205 0.984955
1.0047 1.00487 0.982556
1.00029 1.00115 0.993219
1.00089 1.00505 0.988121
1.0053 0.995297 0.990568
1.00233 1.00219 0.987816
1.00431 1.00322 0.985535
1.00442 1.00035 0.986778
1.00529 0.996801 0.988863
1.00531 0.995209 0.990306
1.00517 1.0033 0.983039
1.0052 0.999833 0.986546
1.00538 0.996754 0.988665
1.00084 1.0046 0.989029
1.00138 1.00513 0.987621
1.00419 1.00382 0.983847
1.00393 1.00036 0.987963
1.00459 1.00206 0.985315
1.00532 0.994861 0.990755
1.00533 0.995723 0.989677
1.00526 0.995045 0.990315
1.005 1.00159 0.98469
1.00519 0.998446 0.987132
1.00129 1.00507 0.98844
1.00124 1.00429 0.9878
1.00448 1.00307 0.984324
1.00322 1.00195 0.985913
1.00518 1.00211 0.984989
1.00533 0.994822 0.990629
1.00533 0.996191 0.988952
1.00536 0.995269 0.989637
1.00505 1.00049 0.985777
1.00509 0.999109 0.986767
1.00033 1.00424 0.99011
1.00057 1.005 0.989181
0.999528 1.00404 0.991194
0.999588 1.00497 0.98986
0.999841 1.00457 0.990596
0.999599 1.00478 0.990574
1.00001 1.00294 0.991975
0.999474 1.00503 0.990567
0.999848 1.00412 0.991159
1 1.00227 0.992641
1 1.00228 0.992591
1.00003 0.999343 0.996123
0.99991 1.00279 0.992102
1.00012 0.999468 0.995906
1.00021 0.997265 0.997545
1.00021 0.999752 0.99552
1.00024 0.997561 0.997204
1.00004 0.998094 0.99868
0.999851 1.00047 0.99454
0.999942 1.00162 0.993282
0.999811 0.998735 0.998654
1.00056 1.00232 0.991772
1.00012 0.999765 0.998011
1.00049 1.00057 0.997338
1.00531 0.994896 0.991084
1.00519 0.994957 0.99154
1.00527 0.994931 0.991081
1.00521 0.994942 0.991405
1.00517 0.994968 0.991665
1.00532 0.995485 0.990997
1.00518 0.994957 0.99168
1.00523 0.994953 0.991524
1.00524 0.994951 0.9913
1.00527 0.994926 0.991339
1.0053 0.99487 0.990976
1.0053 0.994939 0.990936
1.00524 0.99495 0.991485
1.00528 0.994927 0.991409
1.00529 0.994919 0.991215
1.00535 0.994895 0.990689
1.0052 0.994956 0.991665
1.00523 0.994941 0.991404
1.0052 0.994946 0.991423
1.00528 0.99492 0.991005
1.00494 1.00426 0.982155
1.00528 1.00241 0.98333
1.00527 0.999273 0.986191
1.00529 0.994892 0.990921
1.00534 0.994888 0.99072
1.0053 0.994872 0.990606
1.00525 0.996342 0.989209
1.00526 0.995102 0.990633
1.00511 1.00448 0.981916
1.00445 1.00458 0.982339
1.00425 1.00187 0.987718
1.00101 1.00461 0.988169
1.00246 1.00419 0.986146
1.00523 0.994945 0.99145
1.00526 0.994927 0.991265
1.00533 0.994887 0.990773
1.00519 1.00391 0.982323
1.00518 1.00159 0.983831
1.00526 0.998526 0.986794
1.00532 0.994883 0.990684
1.00528 0.995762 0.989623
1.0053 0.99486 0.990554
0.999987 1.00397 0.99032
1.00484 1.00445 0.982265
1.00442 1.00485 0.982366
1.00444 1.00259 0.984923
1.00401 1.00296 0.986072
1.00171 1.00508 0.986853
1.00528 0.994931 0.991357
1.00532 0.994901 0.99102
1.00534 0.994874 0.990615
1.00531 0.994834 0.990554
1.00496 1.00365 0.982918
1.00527 0.994975 0.990387
1.00509 1.00116 0.984563
1.00525 0.997857 0.987211
0.999923 1.00272 0.991796
1.0007 1.0051 0.988992
1.00286 1.00479 0.986661
1.00334 1.00351 0.985262
1.00451 1.00405 0.984075
1.00488 1.00491 0.981944
1.0007 1.00473 0.989016
1.00078 1.00513 0.987615
1.0053 0.994858 0.990779
1.00397 0.999945 0.988079
1.00472 1.00408 0.983165
1.00396 1.00245 0.98506
1.00535 0.995755 0.989656
1.0053 0.995054 0.990238
1.00506 1.00156 0.984852
1.00518 0.998599 0.98704
1.00096 1.00499 0.988465
1.00179 1.00428 0.98757
1.00437 1.00328 0.984211
1.00394 1.00271 0.985796
1.0051 1.00238 0.984657
1.00534 0.994822 0.99062
1.00534 0.996048 0.989219
1.00536 0.99534 0.989765
1.00506 1.0004 0.985721
1.00503 0.999445 0.986497
0.999537 1.00486 0.989202
1.00031 1.00417 0.988071
1.00489 1.00136 0.985449
1.00467 1.00181 0.985398
1.0054 0.994818 0.990402
1.00539 0.994849 0.99029
1.00524 0.997913 0.987315
1.00512 0.999831 0.985857
1.0009 1.00491 0.989059
0.999656 1.0045 0.990924
0.998308 1.0042 0.993841
0.999536 1.00482 0.990581
0.998693 1.0051 0.990788
0.99987 1.00411 0.991116
0.999571 1.0033 0.992389
0.999532 1.00508 0.990588
0.99962 1.0004 0.995118
0.999478 1.00472 0.991063
0.99943 1.00491 0.990452
1.00006 1.00398 0.99096
0.999965 1.00243 0.992491
0.999964 1.00229 0.992623
0.99994 0.999319 0.996247
0.999969 1.0023 0.992593
1.00005 0.999297 0.996139
1.00012 0.997253 0.997655
1.00012 0.999388 0.995962
1.00019 0.997307 0.997526
1.00017 0.997669 0.997169
1.00002 0.999622 0.995152
0.999882 1.00059 0.994464
0.999803 0.998091 0.998853
0.999974 1.00169 0.99323
0.999879 0.998854 0.998524
1.00032 0.99972 0.99777
1.00531 0.994867 0.990979
1.00523 0.994953 0.991323
1.00529 0.994935 0.990918
1.00526 0.994924 0.991315
1.00522 0.994958 0.991526
1.00519 0.994957 0.991701
1.00524 0.994949 0.991501
1.00528 0.994929 0.9914
1.00529 0.994923 0.991177
1.00533 0.994892 0.990713
1.00528 0.994931 0.991415
1.00528 0.994899 0.991346
1.00534 0.994908 0.990895
1.00522 0.994943 0.991444
1.00526 0.994929 0.99127
1.00533 0.994892 0.990787
1.0052 1.00388 0.982368
1.00519 1.00184 0.983756
1.00528 0.998369 0.986801
1.00532 0.994882 0.990696
1.0053 0.994859 0.990556
1.00527 0.995679 0.989828
1.00471 1.00452 0.982301
1.00496 1.00473 0.982192
1.00458 1.00348 0.98491
1.00012 1.00383 0.990592
1.00393 1.00259 0.986068
1.00143 1.00508 0.986897
1.00528 0.99493 0.991371
1.00532 0.994895 0.99098
1.00534 0.994878 0.99062
1.00506 1.0035 0.982888
1.00503 1.00112 0.984615
1.00527 0.997641 0.987539
1.00531 0.994835 0.990525
1.00526 0.994993 0.990341
0.999899 1.00289 0.991985
1.00059 1.0051 0.988971
1.00429 1.00344 0.983881
1.00464 1.00474 0.982622
1.00392 1.00342 0.985205
1.00243 1.00496 0.986583
1.00529 0.9949 0.991297
1.00537 0.994864 0.990647
1.00535 0.994837 0.990517
1.00526 0.994843 0.990333
1.00419 1.00247 0.984615
1.00523 0.995704 0.989512
1.00491 1.00037 0.985687
1.00014 1.0018 0.992929
1.0002 1.00311 0.991719
0.999478 1.00469 0.99074
1.00139 1.00509 0.987774
1.00214 1.00484 0.986532
1.00403 1.00486 0.983838
1.00298 1.00357 0.986196
1.00362 1.00384 0.986341
1.00067 1.00505 0.988491
1.00252 1.00422 0.987339
1.00535 0.994824 0.990611
1.00467 1.00187 0.985684
1.00434 1.00345 0.9841
1.0052 1.00258 0.984333
1.00535 0.995892 0.989487
1.00536 0.995435 0.989894
1.00507 1.00027 0.985663
1.00495 0.999749 0.986228
1.0004 1.00468 0.988925
1.00162 1.00437 0.987619
1.00489 1.00143 0.985206
1.00483 1.0019 0.985352
1.0054 0.994816 0.990397
1.00543 0.994861 0.990261
1.00518 0.997783 0.987474
1.00511 1.00001 0.985913
0.998698 1.0049 0.991261
1.00546 0.99486 0.990505
1.00303 1.00357 0.987392
1.00495 1.00081 0.985544
1.00535 0.994718 0.990756
1.00503 0.997155 0.987349
1.00504 1.00075 0.985626
0.999564 1.0047 0.990656
0.998444 1.0035 0.993878
0.997259 1.00276 0.996522
0.999803 1.00396 0.991074
0.999486 1.00511 0.990607
0.998075 1.00456 0.992815
1.00006 1.00385 0.990943
0.999518 1.00493 0.990517
0.998311 1.00174 0.995539
0.999699 1.0046 0.990944
0.999052 0.999905 0.997551
0.998184 1.00345 0.993836
0.999431 1.00512 0.990666
1.00042 1.00474 0.989464
1.00028 1.00392 0.990531
0.999983 1.00248 0.992429
0.999918 1.00253 0.992469
0.999821 0.999426 0.996365
0.999902 1.00242 0.992606
0.999953 0.999347 0.996253
0.999992 0.997425 0.997748
1.00007 0.999248 0.99616
1.00012 0.997307 0.99765
1.00018 0.997361 0.9975
1.00008 1.00144 0.993362
1 0.9992 0.995585
0.999977 0.999744 0.995118
0.999878 0.997813 0.998949
0.999918 1.00056 0.994392
0.99984 0.998292 0.998812
1.00001 0.999044 0.998375
1.00532 0.994891 0.990737
1.00528 0.994926 0.991138
1.00527 0.99493 0.991391
1.00524 0.99495 0.991517
1.00529 0.994931 0.99141
1.00527 0.9949 0.991347
1.00533 0.994905 0.990838
1.00528 0.994903 0.991375
1.00536 0.994856 0.99125
1.00559 0.994877 0.991085
1.00528 0.99493 0.991385
1.00533 0.994892 0.990939
1.00534 0.994883 0.990625
1.00502 1.00336 0.982864
1.00491 1.00119 0.984685
1.00528 0.997408 0.987856
1.00532 0.994833 0.990494
1.00526 0.99503 0.990295
1.00386 1.00412 0.983684
1.0042 1.00461 0.983259
1.00369 1.00283 0.985145
0.999947 1.00277 0.992177
1.00026 1.00511 0.98895
1.00224 1.00499 0.986506
1.00529 0.994896 0.991275
1.00016 1.0017 0.992914
1.00013 1.003 0.991571
1.00538 0.994867 0.990655
1.00535 0.994842 0.99053
1.00444 1.00278 0.984595
1.00497 0.999928 0.986061
1.00522 0.995682 0.98945
1.00526 0.994851 0.990273
0.99977 1.00447 0.990869
1.00134 1.00509 0.98771
1.00292 1.00404 0.98593
1.00427 1.00312 0.984979
1.00384 1.00469 0.983816
1.00206 1.00431 0.986618
1.00538 0.994815 0.991088
1.00539 0.994929 0.990402
1.00533 0.994823 0.990468
1.00521 0.995137 0.990044
1.00318 1.0019 0.98731
1.00502 0.99812 0.988305
1.00028 1.00279 0.9915
0.999809 1.00326 0.991852
1.00185 1.00189 0.990887
1.00068 1.00439 0.989184
1.0019 1.00509 0.987048
1.0024 1.00277 0.987426
1.00211 1.00382 0.985796
1.00123 1.00023 0.992775
1.00072 1.00466 0.988655
1.003 1.00482 0.987157
1.0054 0.99481 0.990395
1.00546 0.994852 0.990233
1.00489 1.00244 0.985299
1.00489 1.00151 0.98496
1.00512 0.997653 0.987632
1.00511 1.00019 0.985973
0.999328 1.00448 0.991157
1.00546 0.994847 0.99073
1.00209 1.0038 0.988113
1.00488 1.00093 0.985476
1.00536 0.994736 0.990802
1.00512 0.997293 0.987545
1.00498 1.00053 0.985591
0.998598 1.00508 0.992981
1.00499 0.994742 0.990546
1.00207 1.00326 0.988123
1.00442 1.00214 0.984528
1.00515 0.99567 0.990231
1.00351 1.00095 0.986692
0.999171 0.99472 0.983793
0.998494 1.00329 0.993902
0.997513 1.00231 0.996529
0.997242 1.00171 0.997592
0.999999 1.00386 0.990924
0.999403 1.005 0.990584
1.00026 1.00434 0.990826
0.997653 1.00196 0.995977
1.0002 1.004 0.990534
1.00021 1.00474 0.989706
0.998565 0.999347 0.997946
0.99936 1.00513 0.99064
0.998705 1.00361 0.993357
0.997199 1.00262 0.997066
0.999899 1.0042 0.991063
0.999797 1.00504 0.990515
1.00078 1.00437 0.989456
1.00026 1.00415 0.990085
1.00038 1.00501 0.989828
1.00005 1.00433 0.990172
0.999919 1.00249 0.992469
0.999938 1.00253 0.992416
0.999702 0.999426 0.995857
0.99992 1.00248 0.992449
0.999802 0.999447 0.996047
0.999978 0.997466 0.999078
0.999961 0.999374 0.996263
1.00001 0.997398 0.997741
1.00013 0.997351 0.99764
0.999989 1.00104 0.993832
1.00012 1.00134 0.993393
1.00006 0.998752 0.996013
1.00001 0.999231 0.995895
0.999888 0.997525 0.999054
0.99992 0.999947 0.995081
0.999868 0.997837 0.998929
0.999881 0.998318 0.998753
1.00532 0.994903 0.99078
1.00528 0.994901 0.991349
1.00529 0.994929 0.991405
1.00528 0.994897 0.991377
1.00534 0.994862 0.991202
1.00562 0.99496 0.990935
1.00543 0.994824 0.99129
1.00098 0.994788 0.980475
1.00517 0.995053 0.990878
1.00018 1.00229 0.99232
1.00529 0.994888 0.991252
1.00538 0.994864 0.990663
1.00534 0.994849 0.990543
1.00455 1.00246 0.984556
1.00502 0.99955 0.98642
1.00522 0.995548 0.989374
1.00527 0.994863 0.990213
1.0034 1.00343 0.985731
1.00473 1.00331 0.983701
1.00412 1.00451 0.983778
1.00015 1.00173 0.992901
1.00266 1.00427 0.986693
0.999928 1.00438 0.990985
1.00127 1.00509 0.987653
0.999965 1.00298 0.991432
1.00539 0.994838 0.991076
1.00027 1.00266 0.99174
0.9999 1.00323 0.991926
1.00102 1.00228 0.991281
1.00539 0.994888 0.990402
1.0053 0.994834 0.990427
1.00265 1.00249 0.98742
1.00487 0.997553 0.988596
1.00523 0.995012 0.990024
1.00067 1.00429 0.989263
1.00204 1.0049 0.98714
1.00217 1.00057 0.991436
1.00298 1.00473 0.985461
1.00325 1.00282 0.98738
1.00544 0.99478 0.990903
1.00534 0.994831 0.990541
1.00526 0.994874 0.990105
1.00493 0.997004 0.990313
1.00184 0.999599 0.991331
0.999997 1.0028 0.991767
1.00199 1.00192 0.989941
1.00049 1.00188 0.99156
1.00147 1.00439 0.98895
1.00145 1.00344 0.98923
1.00091 1.00276 0.989426
1.00142 0.998919 0.99382
1.00068 1.00381 0.991001
1.00102 1.00408 0.988853
1.00545 0.994859 0.990948
1.00537 0.994754 0.990836
1.00519 0.997407 0.987742
1.0048 1.00107 0.985409
1.0049 1.0003 0.985566
0.998629 1.00478 0.993767
1.00462 0.994767 0.990756
1.00206 1.00339 0.988086
1.0046 1.00215 0.984492
1.00498 0.995594 0.990539
1.00391 1.00083 0.986775
0.99897 0.994737 0.982089
0.997646 1.00486 0.994011
1.00379 0.994758 0.99073
1.00246 1.00332 0.986263
1.00309 1.00028 0.987948
1.00347 0.997563 0.990713
0.999972 0.99489 0.93884
0.994916 0.994758 0.960864
0.996177 0.997584 0.987092
0.996698 0.994771 0.849119
0.994699 0.994969 0.808774
0.998072 1.00191 0.996548
0.99722 1.00211 0.997693
0.996367 1.00345 0.997587
1.0002 1.00402 0.99054
1.00012 1.00468 0.989945
0.999437 1.00513 0.990613
0.999098 1.00387 0.992847
0.998275 0.999313 0.998331
0.999599 1.00504 0.990671
1.00035 1.00409 0.990152
1.00067 1.00453 0.989394
0.9977 1.0018 0.996803
0.999395 1.00446 0.991493
1.00007 1.00409 0.991794
0.997666 1.00414 0.994345
0.999455 1.00481 0.991231
1.00059 1.00464 0.988965
1.00018 1.00426 0.990166
1 1.00481 0.989903
1.00011 1.00379 0.991391
0.999576 1.00504 0.9908
1.0001 1.00499 0.989915
1.0001 1.00435 0.990404
1.00008 1.00432 0.990172
0.999882 1.0026 0.992458
0.999918 1.00253 0.992478
0.999676 0.999438 0.995919
0.999887 1.00264 0.992401
0.999687 0.999467 0.99586
0.999936 0.997451 0.999113
0.999774 0.999484 0.995733
0.999934 0.997469 0.998454
1.00004 0.997378 0.997731
0.999879 1.00078 0.994245
0.999991 1.00107 0.993837
1.00008 0.998445 0.996321
1.00016 1.00122 0.993423
1.00006 0.998727 0.996319
0.999931 0.997137 0.999149
1.00003 0.999336 0.995485
0.999902 0.997652 0.999006
0.999875 0.997974 0.998911
1.00533 0.994869 0.991153
1.00528 0.994891 0.991379
1.00567 0.994869 0.990787
1.00013 0.994782 0.980591
1.00545 0.994835 0.991234
1.00517 0.994831 0.990872
1.00548 0.99469 0.991274
0.995708 0.99488 0.962164
1.00275 0.994836 0.980365
1.00025 1.00184 0.992712
1.00024 1.00229 0.99229
0.999657 1.00362 0.991672
0.999911 1.00281 0.992127
1.00539 0.994853 0.991064
1.0054 0.99486 0.990402
1.00526 0.994831 0.990387
1.00371 1.00265 0.987524
1.00494 0.996286 0.988924
1.00523 0.994924 0.990021
1.00221 0.999893 0.990022
1.00403 1.00489 0.985133
1.00282 1.00224 0.987349
0.999946 1.0031 0.991998
1.00198 1.00423 0.987257
1.00072 1.00445 0.989342
1.00022 1.00262 0.991973
1.00039 1.00247 0.991679
1.00546 0.994753 0.990891
1.00012 1.00319 0.991448
1.0018 1.00168 0.990409
0.998093 1.00243 0.994584
1.00535 0.994848 0.990491
1.00525 0.994872 0.990104
1.00309 0.998351 0.99141
1.00471 0.996573 0.990224
1.00167 1.0047 0.98829
1.00123 1.00323 0.98841
1.00118 0.999295 0.993837
1.00227 1.00287 0.988923
1.00412 0.996133 0.99062
1.00524 0.994946 0.990668
1.00485 0.996357 0.989847
1.00353 0.996003 0.993346
0.997353 1.00488 0.994097
1.00245 1.00277 0.98814
0.998646 1.00339 0.993901
0.99865 1.00368 0.993243
1.00001 0.995013 0.924025
0.998176 1.00456 0.994593
1.00174 1.00359 0.98803
1.00416 0.994743 0.991003
1.00475 0.995558 0.990841
1.00422 1.00072 0.986827
1.00464 1.00229 0.984439
0.998937 0.994748 0.980173
0.997893 1.00454 0.994161
1.0034 0.994766 0.990598
1.00251 1.00405 0.986191
1.00366 1.00018 0.988116
1.00371 0.998001 0.990485
0.999702 0.994876 0.924603
0.99545 0.994801 0.957668
0.996258 0.997181 0.987526
0.997072 0.994757 0.853522
0.994744 0.994989 0.802565
0.998124 1.00462 0.992932
0.999019 0.994814 0.858511
0.994754 0.994864 0.798956
1.00095 0.99753 0.992838
1.00135 1.00145 0.990614
1.00132 1.00004 0.992946
0.994858 0.996763 0.990931
0.997404 0.994742 0.938589
0.994878 0.994794 0.953926
0.99485 0.99473 0.875594
0.994748 0.994841 0.786077
0.996931 1.00224 0.997797
0.996443 1.00336 0.99748
0.996085 1.00515 0.996715
1.00048 1.00396 0.990215
1.0006 1.00462 0.989333
0.99904 1.00508 0.990826
0.999057 1.00472 0.991921
0.998124 1.00094 0.996557
1.00031 1.0041 0.990147
0.999745 1.00439 0.991488
0.999357 1.00492 0.990902
1.00079 1.00466 0.989098
0.997714 1.00379 0.994596
0.998668 1.0038 0.993874
0.99628 1.00503 0.995491
0.999626 1.00504 0.99013
1.0005 1.00466 0.989527
1.00025 1.00479 0.989869
0.999799 1.0034 0.991834
0.999511 1.00472 0.991252
1.00007 1.00273 0.992272
0.998667 1.00227 0.994237
0.998149 1.00475 0.99255
0.999 1.00507 0.991091
0.999573 1.00497 0.990821
0.999899 1.0047 0.99022
0.999868 1.00498 0.990005
1.00018 1.0043 0.990311
0.999946 1.00269 0.992292
1.00016 1.00431 0.990171
0.999909 1.00253 0.992477
0.999888 0.999402 0.996348
0.999873 1.00257 0.992486
0.999741 0.999395 0.996175
0.999905 0.997398 0.99795
0.999674 0.999461 0.995859
0.999927 0.997467 0.999123
0.999921 0.997514 0.997826
1.00028 1.00203 0.992488
0.99988 1.00063 0.994421
0.999895 1.00081 0.994238
1.00003 0.998351 0.996479
0.999969 1.00115 0.993843
1.00009 0.998431 0.996315
0.999974 0.996961 0.999199
1.00006 0.998772 0.996555
0.999929 0.997313 0.998512
0.999911 0.99765 0.997686
0.999568 0.994792 0.980671
1.00546 0.994828 0.991177
1.0051 0.994867 0.990865
0.996225 0.994813 0.962498
1.00288 0.994836 0.980747
1.00548 0.994888 0.991277
1.0036 0.994959 0.985937
0.998195 0.994775 0.963686
0.999555 0.994856 0.938337
0.996833 0.99479 0.875926
0.994692 0.99484 0.807245
0.999584 1.00286 0.992376
1.00024 1.00185 0.992697
1.00035 1.00218 0.992252
0.999842 1.00315 0.992009
0.998483 1.00479 0.992905
1.00034 1.00299 0.99146
1.00015 1.00381 0.991075
1.00016 1.00261 0.992046
1.00547 0.994795 0.990871
1.00536 0.994868 0.990447
1.00528 0.994873 0.990103
1.00309 0.998814 0.991499
1.00446 0.996798 0.990116
1.00103 0.999355 0.993852
1.00369 1.00284 0.988428
1.00277 1.0035 0.987585
1.00154 1.00151 0.990866
1.00179 1.00476 0.987579
1.00028 1.00353 0.991142
0.996429 1.00331 0.997419
1.00422 0.995374 0.990944
0.99758 1.00474 0.993976
1.00161 1.00282 0.989988
1.00501 0.99484 0.990635
1.0044 0.996799 0.990132
1.00305 0.996081 0.993257
0.999873 1.00347 0.992134
0.99975 1.00238 0.993406
1.00315 0.995844 0.989644
1.00327 0.998632 0.990847
1.00389 0.997115 0.991693
1.00104 0.997375 0.995294
0.998874 1.00488 0.992035
0.998059 1.00497 0.992897
0.998268 1.00439 0.993806
0.999813 0.995163 0.859334
1.00028 0.994881 0.939494
0.998694 1.00412 0.994322
1.0027 1.00457 0.98614
1.00304 0.994779 0.990449
1.00402 0.998444 0.990274
1.00411 1.00001 0.988326
0.999997 0.994844 0.936762
0.995867 0.994786 0.957163
0.996322 0.997124 0.988088
0.996503 0.9948 0.873288
0.994776 0.994847 0.795944
0.998448 1.00466 0.992889
0.99984 0.99487 0.856172
0.994715 0.994838 0.792481
1.00097 0.997679 0.992685
1.00134 1.00164 0.990638
1.00125 1.00007 0.993386
0.994868 0.998099 0.991782
0.997095 0.994732 0.931765
0.994863 0.994795 0.954124
0.994755 0.994763 0.875041
0.994775 0.994876 0.784015
0.99716 1.00508 0.99533
0.99475 0.994789 0.786212
0.994743 0.994765 0.787854
0.996739 1.00163 0.997233
0.999402 1.00178 0.99636
0.99489 0.99912 0.988157
0.994908 0.994825 0.957545
0.994848 0.994731 0.927551
0.994775 0.994874 0.877973
0.994861 0.994876 0.795985
0.996675 1.00314 0.997379
0.996833 1.00496 0.996324
0.996 1.00436 0.997035
1.00042 1.00398 0.990126
1.00086 1.0047 0.989233
0.999517 1.00506 0.990571
0.999244 1.00471 0.991184
0.99754 1.00348 0.994846
1.00053 1.0047 0.989492
0.998771 1.00361 0.993351
0.999986 1.005 0.990139
0.996036 1.00487 0.995744
0.995565 1.00519 0.997568
0.998012 1.00471 0.993646
1.00028 1.00494 0.990347
1.00054 1.00443 0.989837
0.999599 1.00303 0.992268
0.999487 1.00451 0.991223
1.00022 1.00242 0.992181
0.99828 1.0027 0.994534
0.998363 1.00419 0.992554
0.997467 1.00509 0.993561
0.998256 1.00153 0.996193
0.999778 1.00195 0.993564
1.0037 0.999384 0.990675
0.99853 1.0047 0.991757
0.998552 1.00464 0.992566
0.99923 1.00509 0.990049
0.999215 1.00507 0.991148
1.00011 1.00492 0.989733
0.99943 1.00504 0.990839
0.99998 1.00465 0.990301
0.999953 1.00297 0.991849
1.00026 1.00432 0.990219
0.999949 1.00267 0.992303
1.00002 0.999424 0.996093
0.999907 1.00253 0.992496
0.999873 0.999391 0.995982
1.00003 0.997304 0.99778
0.999736 0.999393 0.995884
0.999957 0.997365 0.999136
0.999922 0.997446 0.999133
1.00035 1.00251 0.992195
0.999926 1.00083 0.994206
1.00022 1.00207 0.992502
1.00002 0.998275 0.996549
0.999896 1.00061 0.994411
0.999899 1.00082 0.994229
1.00004 0.998341 0.996468
0.999993 0.996878 0.999225
1.00006 0.998475 0.996838
0.999979 0.996983 0.998631
0.999947 0.997262 0.997974
0.999431 0.994942 0.843131
0.994745 0.994829 0.785106
0.996114 0.994823 0.963074
1.00256 0.994787 0.981278
1.0055 0.994767 0.991291
0.998545 0.994859 0.961992
1.00338 0.994684 0.986538
0.999868 0.994864 0.933859
0.996508 0.994734 0.854397
0.994735 0.994912 0.801419
0.997715 0.99474 0.971104
0.996799 0.99478 0.939554
0.99525 0.994762 0.875329
0.994793 0.994947 0.795993
0.999802 1.00382 0.991891
0.999805 1.00263 0.992458
1.00019 1.00196 0.992689
0.999936 1.00279 0.992352
0.998143 1.00424 0.993765
1.0003 1.00425 0.990183
0.999813 1.00367 0.991597
1.00072 1.00395 0.989698
1.00014 1.00378 0.990944
0.999744 1.00324 0.991955
1.00411 0.994775 0.99125
1.00488 0.994825 0.990597
1.00364 0.997222 0.99042
1.00237 0.995793 0.993165
1.00027 1.00229 0.993548
0.999765 1.00382 0.990418
1.00042 1.00273 0.992022
0.997707 1.00457 0.993806
1.00224 0.995432 0.99022
0.998848 1.00504 0.9918
0.997779 1.00493 0.993155
1.00302 0.998526 0.990734
1.00343 0.997053 0.991807
1.0007 0.997422 0.995716
0.998375 1.00433 0.993714
0.999652 0.995548 0.988785
1.00061 0.999643 0.994977
0.996963 1.00252 0.996767
0.998632 1.00454 0.99144
0.997337 1.0052 0.992912
0.997586 1.00488 0.994292
0.994725 0.994808 0.807839
0.999811 0.99488 0.865648
1.0001 0.994974 0.924301
0.998687 1.00492 0.992824
1.0016 1.00191 0.990615
1.00096 0.997529 0.992523
1.00105 0.999908 0.993829
0.999841 0.995026 0.871136
0.996834 0.994783 0.925073
0.99488 0.994777 0.953991
0.994888 0.998884 0.992457
0.994773 0.994774 0.859117
0.994694 0.994813 0.799049
0.994822 0.995037 0.800168
0.997259 1.00463 0.995001
0.994736 0.994804 0.795795
0.994765 0.994771 0.787187
0.996808 1.00006 0.997899
0.9989 1.00173 0.996277
0.994905 0.997711 0.989996
0.995035 0.994805 0.955759
0.994895 0.994756 0.939113
0.994724 0.995271 0.858148
0.995151 0.994881 0.805835
0.996391 1.00406 0.998676
0.994758 0.994806 0.795754
0.99481 0.994822 0.787003
0.99485 1.00241 0.999878
0.994968 0.996727 0.965594
0.994778 0.994815 0.935857
0.994914 0.994933 0.853056
0.995804 0.994897 0.8212
0.997477 1.0042 0.99591
0.996438 1.00443 0.99724
0.995457 1.00411 0.998566
1.00036 1.00477 0.989454
1.00016 1.00501 0.990149
0.998865 1.00337 0.992826
0.995986 1.00462 0.995999
0.999727 1.00496 0.99036
0.997785 1.00483 0.993641
0.995262 1.00502 0.997784
0.994793 1.0046 0.998709
0.995487 1.00503 0.997627
0.998489 1.00512 0.99314
0.999629 1.00456 0.991188
1.0003 1.00204 0.992095
0.997806 1.00317 0.994825
0.997621 1.00498 0.993628
0.99904 1.00392 0.992514
0.99757 1.00243 0.996203
0.997829 1.0036 0.994965
0.995446 1.00514 0.997709
1.00107 0.998639 0.995413
0.999321 1.00139 0.994436
1.00201 1.00005 0.991375
1.00473 0.999846 0.988022
1.00271 1.00129 0.990221
1.0028 0.998954 0.991624
0.999209 1.00447 0.991542
0.999439 1.00512 0.989552
0.999059 1.0045 0.992583
0.99989 1.00508 0.990065
1.00048 1.00503 0.988894
0.999716 1.00493 0.9912
1.00018 1.00498 0.98973
1.00003 1.00364 0.991098
1.00008 1.00462 0.990384
1.00004 1.00302 0.991847
1.00017 0.999545 0.99578
1.00004 1.00252 0.992314
1.00002 0.999447 0.995689
1.00012 0.997386 0.997587
0.999877 0.999362 0.995683
1.00002 0.997309 0.998458
0.999972 0.997328 0.999117
1.00031 1.00338 0.99097
1.00006 1.00106 0.993807
1.00024 1.00256 0.991986
1.00004 0.998326 0.996476
0.999938 1.00076 0.994221
1.00025 1.00194 0.992518
1.00002 0.996817 0.999238
1.00002 0.998281 0.996548
0.999897 1.00066 0.994404
1.00005 0.998328 0.996457
0.999995 0.996899 0.999219
0.99997 0.996979 0.999192
0.994717 0.994771 0.7853
0.999452 0.994859 0.856548
0.994772 0.994779 0.786375
0.994756 0.994818 0.785909
0.998271 0.99487 0.961179
1.003 0.994732 0.987135
0.99964 0.994812 0.928558
0.997354 0.994789 0.875669
0.994777 0.994849 0.795546
0.998186 0.994803 0.969991
0.996907 0.994765 0.924923
0.994796 0.994773 0.874092
0.994741 0.994877 0.788401
0.994904 0.994792 0.962115
0.995164 0.994696 0.925592
0.994827 0.996247 0.850683
0.994834 0.994883 0.798851
1.00063 1.00467 0.990288
0.999225 1.00386 0.992048
0.999972 1.00245 0.992537
0.997513 1.00372 0.994631
1.00093 1.00373 0.989524
1.00013 1.00427 0.990394
0.999272 1.00396 0.991739
1.00119 1.0034 0.989871
1.00077 1.00425 0.989683
1.00026 1.00351 0.990814
1.00201 0.994801 0.990754
1.00269 0.998344 0.990643
1.00339 0.99682 0.991921
1.00017 0.997408 0.99614
0.99968 1.00442 0.993601
0.998039 1.00485 0.993416
0.998859 1.0051 0.991573
0.999637 1.00427 0.991235
0.999398 0.996504 0.989463
0.998345 1.00513 0.992566
0.998407 1.00463 0.994221
1.00035 0.999476 0.995192
0.998269 1.0013 0.996655
0.996021 1.00091 0.988628
0.996651 1.00098 0.999979
0.994937 1.00515 0.997262
0.997695 1.00462 0.993909
0.996474 1.00518 0.995265
0.994782 0.994796 0.802442
0.994723 0.994779 0.803083
0.999826 0.995137 0.846205
0.997513 1.00475 0.994731
0.998744 1.00124 0.9962
0.997038 0.999564 0.998563
0.99471 0.99479 0.793152
0.994885 0.994705 0.926881
0.995049 0.994805 0.955453
0.994905 0.99598 0.992271
0.994771 0.994882 0.878106
0.994784 0.994776 0.787503
0.995664 0.994872 0.807701
0.996456 1.004 0.998856
0.994771 0.994812 0.79799
0.994798 0.994821 0.78822
0.994969 1.00236 0.998838
0.994972 0.995835 0.96741
0.994824 0.994809 0.92351
0.995531 0.994895 0.816126
0.9953 0.997772 0.861991
0.994838 1.00513 1.00038
0.994785 0.994832 0.784984
0.994865 0.994841 0.801464
0.994838 0.994876 0.798582
0.994811 0.999302 0.988482
0.994883 0.995538 0.939365
0.997631 0.994885 0.873939
0.996789 1.00511 0.997465
0.995605 1.00482 0.998312
0.995201 1.00528 0.99886
0.999528 1.00493 0.990377
0.997712 1.00503 0.993634
0.994874 1.00525 0.998002
0.997887 1.00513 0.993173
0.995557 1.00509 0.997625
0.994791 1.00524 0.998603
0.994832 1.00515 0.998852
0.995425 1.00508 0.99769
0.997428 1.00494 0.993721
0.999593 1.0037 0.99247
0.997106 1.00315 0.996213
0.995502 1.00484 0.997633
0.997405 1.0039 0.994942
0.998234 1.00094 0.997485
0.998186 0.998654 0.999231
1.00186 1.00029 0.990508
0.99896 1.00082 0.995246
1.00237 0.999954 0.991015
1.00441 1.00139 0.986355
1.00476 1.00256 0.984639
1.0045 0.999367 0.988745
1.00382 1.00002 0.98802
1.00174 1.00362 0.988721
1.00174 1.00165 0.9905
1.00182 0.998578 0.992545
0.999889 1.00426 0.991327
0.999951 1.00512 0.989417
1.00065 1.00513 0.988145
1.00046 1.00509 0.990087
1.00071 1.00499 0.988877
1.00031 1.00414 0.990175
1.00032 1.00488 0.989724
1.00014 1.00353 0.991082
1.00019 0.999901 0.9954
1.00002 1.00314 0.991843
1.00014 0.999614 0.995332
1.00023 0.997471 0.997353
1.00003 0.999464 0.99536
1.00011 0.997358 0.998322
1.00006 0.997306 0.999046
1.0007 1.00346 0.990079
1.00011 1.00154 0.992843
1.00043 1.00326 0.990977
1.00011 0.998458 0.996242
1.00007 1.00105 0.993621
1.0002 1.00258 0.991776
1.00004 0.996831 0.999217
1.00005 0.998297 0.99649
0.999985 1.00063 0.994235
1.00001 0.99685 0.999235
1.00001 0.998294 0.996548
0.999997 0.996891 0.999213
0.994815 0.994809 0.792756
0.994725 0.994816 0.800052
0.999412 0.994824 0.855237
1.0009 1.00329 0.990189
0.994787 0.994801 0.792512
0.994771 0.994782 0.786301
0.994792 0.994819 0.800592
0.998454 0.994825 0.969513
0.996772 0.994771 0.939334
0.995154 0.994867 0.856863
0.994707 0.994853 0.799481
0.995775 0.994795 0.959745
0.995062 0.994753 0.937853
0.994733 0.994916 0.854204
0.994853 0.994886 0.801274
0.994845 0.994798 0.954287
0.994768 0.9948 0.934027
0.996233 0.99755 0.865421
0.995501 0.994899 0.821414
0.999195 1.00426 0.991705
0.999859 1.00465 0.990454
0.999412 1.00355 0.99221
1.0012 1.00232 0.990641
1.0009 1.00406 0.989589
1.00003 1.00458 0.990603
1.00132 1.00341 0.989789
1.00082 1.0043 0.989669
0.998398 0.997328 0.989974
0.999637 0.999271 0.995323
0.999576 1.00439 0.99102
0.99974 1.00001 0.99655
0.998792 1.00433 0.994155
0.999054 1.00513 0.992203
0.997931 1.00442 0.993554
0.995599 1.00007 0.988936
0.997292 1.00509 0.995089
0.996253 1.00368 0.997484
0.995913 1.00095 1.00005
0.996911 1.00447 0.995435
0.9948 1.00124 0.986377
0.99527 1.00309 0.998607
0.995724 1.00489 0.997624
0.996725 1.00544 0.995979
0.994761 0.994812 0.789284
0.994779 0.9948 0.799147
0.994715 0.994752 0.79813
0.996435 1.00415 0.999011
0.995006 1.00156 0.997759
0.994785 0.99482 0.800025
0.994735 0.994844 0.937543
0.995083 0.995819 0.964416
0.995428 0.996406 0.860341
0.994791 0.994821 0.789179
0.994891 0.994903 0.810986
0.995018 1.00511 1.00021
0.994785 0.99483 0.785294
0.994871 0.994853 0.80075
0.994841 0.999979 0.992217
0.994859 0.994884 0.801148
0.994848 0.996736 0.931722
0.996471 0.997429 0.875736
0.995209 1.00387 0.99729
0.99484 0.994841 0.796169
0.994798 0.994814 0.794357
0.994805 0.994906 0.795542
0.996252 0.997579 0.865235
0.994882 1.00108 0.971575
0.995084 0.996736 0.924535
0.996093 1.00514 0.998071
0.995293 1.00525 0.998906
0.994797 1.00532 0.998135
0.997245 1.00513 0.993202
0.995026 1.00501 0.997627
0.994804 1.00528 0.998537
0.995222 1.00474 0.997669
0.994848 1.00501 0.998857
0.997461 1.00206 0.998908
0.995399 1.00461 0.997549
0.996795 1.00425 0.994957
0.997609 1.00135 0.997908
0.997851 1.0006 0.995261
0.995478 0.99876 1.00272
1.00141 0.999947 0.991833
1.00437 1.00438 0.982664
1.00428 1.00307 0.98439
1.00275 0.999821 0.990572
1.00422 1.00171 0.985891
1.00512 1.00226 0.984041
1.00518 1.00145 0.985394
1.00429 1.0024 0.984886
1.0039 1.00066 0.988147
1.0038 0.999943 0.988602
1.00308 1.00016 0.988041
1.00081 1.00511 0.987854
1.00124 1.00392 0.988849
1.00074 1.00201 0.990774
1.00051 1.00513 0.989283
1.00102 1.00512 0.988178
1.00053 1.00469 0.989144
1.00094 1.00507 0.988859
1.00045 1.00401 0.990169
1.00019 1.00031 0.99417
1.00036 1.0035 0.991072
1.00023 0.999952 0.99455
1.00013 0.997578 0.998804
1.00012 0.999742 0.994963
1.00019 0.997437 0.998158
1.00014 0.997334 0.998954
1.00062 1.00367 0.99004
1.00032 1.00218 0.991943
1.00063 1.00356 0.990276
1.00019 0.998725 0.995869
1.00023 1.00154 0.992733
1.00047 1.00325 0.99098
1.00008 0.996882 0.999161
1.00012 0.998411 0.996261
1.00007 1.00103 0.993435
1.00004 0.99682 0.999225
1.00005 0.998266 0.996505
1.00001 0.996867 0.999232
0.994786 0.994823 0.79428
0.994809 0.994808 0.793152
0.994717 0.994827 0.799326
1.00106 1.00323 0.990157
1.00028 1.00462 0.989521
1.00171 1.00149 0.991314
0.994866 0.994855 0.80038
0.994797 0.994803 0.793607
0.994775 0.994772 0.786385
0.99664 0.99478 0.959894
0.994821 0.994714 0.925692
0.994758 0.995884 0.876291
0.994843 0.994865 0.795487
0.994917 0.994785 0.955401
0.994789 0.995335 0.929803
0.996111 0.997181 0.862944
0.995308 0.994902 0.816193
0.994869 0.994867 0.9538
0.994876 0.995648 0.933897
0.997151 0.994901 0.873935
0.994853 0.99488 0.797633
0.998751 1.00284 0.993643
0.999775 1.00383 0.9915
0.999802 1.00454 0.990617
1.00117 1.00245 0.990563
1.00055 1.00453 0.989647
1.00137 1.00347 0.989708
0.995457 1.00012 0.989575
0.995731 1.00112 1.00023
0.998807 1.00343 0.993213
0.997956 1.0026 0.997592
0.998051 1.00473 0.994919
0.99659 1.00397 0.995937
0.996143 1.0052 0.995962
0.994779 1.00263 0.986294
0.995403 1.00518 0.997895
0.994973 1.00361 0.997888
0.995737 1.0048 0.997754
0.995128 1.00007 0.984587
0.995214 1.00514 0.994631
0.994821 1.00326 0.999138
0.994867 0.994846 0.788808
0.994769 0.994821 0.788312
0.994777 0.9948 0.795894
0.995072 1.00511 1.00001
0.994862 1.00018 0.987815
0.994782 0.994827 0.785616
0.994819 0.99675 0.931376
0.996253 0.994874 0.860885
0.99488 0.994849 0.800007
0.994852 0.994863 0.795466
0.995031 1.0036 0.997808
0.994825 0.994842 0.795579
0.994814 0.994805 0.79557
0.994914 1.00104 0.968784
0.994754 0.994881 0.788278
0.99588 0.997446 0.862588
0.994837 0.996228 0.938522
0.994985 1.00517 0.988641
0.994782 0.994827 0.795551
0.994776 0.994792 0.787721
0.994729 0.994863 0.808293
0.994818 0.995713 0.849579
0.994864 0.996462 0.934915
0.994835 1.00132 0.962843
0.995121 1.00521 0.998892
0.994898 1.00528 0.99808
0.995319 1.00501 0.997569
0.995595 1.00447 0.99765
0.99488 1.0051 0.998828
0.995967 1.00384 0.998783
0.998537 1.00043 0.998583
0.99693 1.00183 0.998303
1.00052 1.00028 0.994197
1.00193 1.00492 0.986686
1.00076 0.99969 0.993579
1.00421 1.00421 0.983584
1.00424 1.00371 0.983055
1.00503 1.0007 0.985233
1.00508 1.00158 0.984683
1.00426 1.00303 0.984344
1.0042 1.00204 0.985434
1.00515 1.00221 0.984158
1.00514 1.00209 0.984194
1.00513 1.0008 0.985977
1.00465 1.00157 0.985524
1.00368 1.00225 0.985142
1.0018 1.00364 0.988143
1.00341 1.00128 0.988009
1.003 1.00057 0.98844
1.00075 1.00516 0.988271
1.00127 1.00512 0.987852
1.00071 1.00413 0.988978
1.0014 1.00511 0.988214
1.00081 1.00456 0.989162
1.00017 1.00105 0.993484
1.00072 1.00379 0.990159
1.00024 1.00033 0.994146
1.0002 0.9978 0.998725
1.00027 0.999921 0.994549
1.00023 0.997613 0.99799
1.00019 0.997476 0.998853
1.00128 1.0035 0.989549
1.00052 1.00257 0.991503
1.00087 1.0034 0.990031
1.00026 0.999079 0.995383
1.00033 1.00218 0.992028
1.00056 1.0036 0.990476
1.00011 0.996997 0.999077
1.0002 0.998644 0.995894
1.0003 1.00153 0.992625
1.00007 0.996867 0.999179
1.00013 0.998369 0.99628
1.00004 0.996843 0.999234
0.99483 0.994842 0.794424
0.994787 0.994838 0.794632
0.99481 0.994811 0.793499
0.999803 1.00521 0.989469
1.00183 1.00244 0.9913
1.00092 1.00317 0.990131
1.00038 1.00448 0.989404
1.00062 1.00181 0.991749
1.00039 1.00275 0.991184
0.998961 1.00151 0.994363
0.994826 0.994829 0.788737
0.994867 0.994856 0.799678
0.994799 0.994831 0.794692
0.994888 0.994909 0.810933
0.99544 0.994784 0.954311
0.994789 0.996182 0.92412
0.995991 0.994908 0.876323
0.994869 0.995208 0.953179
0.994872 0.998189 0.920204
0.996433 0.997351 0.87505
0.995067 0.994879 0.807278
0.995032 0.995754 0.957261
0.994861 0.998266 0.922364
0.994914 0.994911 0.853458
0.994762 0.994852 0.787573
0.996325 1.00448 0.996154
0.998463 1.00324 0.994218
0.999649 1.00426 0.991293
1.00103 1.00295 0.990493
0.994772 1.00191 0.986094
0.994729 1.00391 0.997136
0.996387 1.0044 0.996442
0.996599 1.00522 0.995951
0.995083 1.00522 0.998308
0.99522 1.005 0.997664
0.995741 1.00365 0.999234
0.995247 1.00068 0.98148
0.995337 1.00516 0.994734
0.995816 1.00324 0.999257
0.995447 1.00207 0.977583
0.994728 1.00318 0.99935
0.994763 0.994828 0.791092
0.99485 0.994845 0.793164
0.99478 0.994838 0.78732
0.994875 1.00371 0.998314
0.994878 1.00106 0.972411
0.994811 0.994845 0.795017
0.994874 0.997465 0.925741
0.995948 0.994906 0.876148
0.994809 0.994832 0.796603
0.994704 0.99486 0.799105
0.994931 1.00509 0.989653
0.994793 0.994836 0.795948
0.994764 0.994795 0.787703
0.994825 1.00043 0.962971
0.99476 0.994865 0.802517
0.994747 0.995472 0.852743
0.994874 0.996745 0.921971
0.994857 1.0041 0.983812
0.994829 0.994812 0.793088
0.994732 0.994832 0.786376
0.994716 0.994761 0.876723
0.994774 0.994864 0.934328
0.994815 0.999874 0.957561
0.994947 1.00527 0.99851
0.995272 1.00469 0.997625
0.996262 1.0032 0.997433
0.99503 1.00485 0.998662
0.99668 1.00296 0.998866
1.00093 1.00064 0.994077
1.00304 0.999905 0.993147
1.0028 1.00487 0.985776
1.00442 1.00207 0.984654
1.00385 1.00401 0.984505
1.00448 1.00364 0.983007
1.00476 1.00171 0.984693
1.00527 0.998194 0.987132
1.00512 1.00021 0.98595
1.005 1.00086 0.98525
1.00512 1.00161 0.984747
1.00505 1.00146 0.984664
1.00424 1.00303 0.984295
1.00512 1.00261 0.983762
1.00515 1.00229 0.984172
1.00515 1.00196 0.984353
1.00384 1.00147 0.987736
1.0043 1.00139 0.986339
1.00427 1.00159 0.985658
1.00125 1.00502 0.987532
1.00201 1.00351 0.988143
1.00286 1.00215 0.987874
1.00033 1.00164 0.992639
1.001 1.00502 0.988309
1.00164 1.00512 0.987849
1.00094 1.00441 0.989177
1.0002 1.00104 0.993462
1.00017 0.998118 0.998594
1.00025 1.00038 0.994122
1.00021 0.997784 0.998694
1.00022 0.997566 0.998765
1.00066 1.00482 0.989839
1.0012 1.00511 0.98877
1.00083 1.003 0.990585
1.00096 1.00395 0.989538
1.00025 0.999546 0.99492
1.00051 1.0026 0.991498
1.00097 1.00341 0.990023
1.00012 0.997254 0.998959
1.00025 0.999068 0.995406
1.00038 1.0022 0.99211
1.0001 0.996989 0.999103
1.00021 0.998608 0.995923
1.00008 0.996843 0.999198
0.994795 0.994847 0.786627
0.994824 0.994834 0.793864
0.994792 0.99483 0.794977
1.00026 1.0052 0.989303
1.00053 1.00184 0.991632
1.00197 1.00168 0.988297
0.99867 1.00365 0.991505
1.00191 1.00021 0.992036
1.00078 1.00443 0.989283
0.999986 1.0025 0.992189
1.00028 1.0037 0.991202
0.999514 1.00107 0.994907
0.999035 1.00359 0.994428
0.994758 0.994766 0.789073
0.994807 0.994833 0.790074
0.994868 0.994843 0.798955
0.995307 0.99487 0.809054
0.995955 0.994896 0.860749
0.994858 0.994901 0.95218
0.994842 0.996209 0.932911
0.995284 0.996175 0.953057
0.99488 0.996959 0.934853
0.995115 0.997952 0.86277
0.99478 0.994862 0.785529
0.994924 0.998329 0.955529
0.994819 0.996811 0.934658
0.99479 0.994886 0.878236
0.994721 0.994938 0.810387
0.99865 1.00014 0.996635
0.996048 1.00467 0.996553
0.998582 1.00291 0.994813
0.995254 1.00255 0.977989
0.995067 1.00515 0.994448
0.994997 1.00505 0.997532
0.994733 1.0044 0.999352
0.995471 1.00347 0.999129
0.994741 1.00219 0.999806
0.994836 1.00193 0.977819
0.996098 1.00126 1.00132
0.994893 1.00058 0.984609
0.994799 0.994816 0.802456
0.994786 0.994838 0.790056
0.994834 0.994837 0.797658
0.994968 1.00511 0.989983
0.994856 0.999929 0.960746
0.99481 0.994842 0.796351
0.994859 0.996484 0.934209
0.994767 0.995371 0.873773
0.994767 0.994773 0.787989
0.994796 0.994851 0.796638
0.995164 1.00477 0.984487
0.994816 0.994815 0.793286
0.994746 0.994827 0.787138
0.994911 0.998519 0.958662
0.994742 0.994763 0.874664
0.994794 0.995727 0.927524
0.995229 1.00253 0.981579
0.994713 0.994786 0.786048
0.9968 0.994774 0.876601
0.994852 0.994713 0.925817
0.99483 0.99487 0.958847
0.995429 1.00517 0.997719
0.995608 1.00399 0.997335
0.997897 1.00077 0.997721
0.99485 1.00516 0.999177
0.999661 1.00129 0.995031
1.00432 0.996267 0.991385
1.00373 1.00498 0.984842
1.00429 1.00216 0.984529
1.00475 0.998874 0.98722
1.00477 1.00369 0.982955
1.00478 1.00149 0.984757
1.00508 0.997961 0.987728
1.00534 0.995656 0.989428
1.00529 0.997834 0.987227
1.00527 0.998107 0.987175
1.00518 1.00018 0.986039
1.00511 1.00024 0.985889
1.00492 1.00094 0.985267
1.00516 1.00244 0.98388
1.00512 1.00151 0.984667
1.00499 1.00134 0.984645
1.00503 1.00195 0.985229
1.00477 1.00289 0.984109
1.00515 1.00242 0.984184
1.00211 1.00385 0.987209
1.00332 1.00166 0.987654
1.00375 1.00175 0.986698
1.00048 1.00265 0.992526
1.00143 1.005 0.987614
1.00221 1.00336 0.988143
1.00022 0.998771 0.995969
1.00038 1.00178 0.993071
1.00122 1.00491 0.988348
1.00026 1.00111 0.993434
1.0002 0.998248 0.998521
1.00022 0.997823 0.998661
1.0015 1.00326 0.988907
1.00161 1.00515 0.98808
0.999692 1.00487 0.989732
1.00079 1.00413 0.989562
1.00086 1.00481 0.988732
1.00018 1.00006 0.994502
1.00066 1.00327 0.990591
1.00071 1.00437 0.989521
1.00011 0.997564 0.998865
1.00026 0.999486 0.994947
1.00049 1.00261 0.991494
1.00011 0.997217 0.998996
1.00025 0.999007 0.995428
1.0001 0.996946 0.999128
0.994777 0.99482 0.80237
0.994799 0.994844 0.787001
0.994811 0.994852 0.793255
1.00336 1.00239 0.986156
1.00023 1.00498 0.98914
1.00009 1.00219 0.992032
1.00015 1.00458 0.990989
1.00317 1.00157 0.988382
1.00131 1.00056 0.993567
1.00398 1.00154 0.987205
0.996549 1.00444 0.994501
0.999499 1.00411 0.99122
0.999475 0.99959 0.995451
0.99767 1.00336 0.994395
0.998419 1.00261 0.994652
0.994769 0.994849 0.799968
0.994777 0.994774 0.788448
0.994798 0.994837 0.791134
0.994819 0.995668 0.801313
0.995239 0.99657 0.861216
0.994875 0.998272 0.922443
0.995749 0.994992 0.95242
0.995192 0.997848 0.956091
0.994744 0.995432 0.804008
0.994854 0.996718 0.926013
0.994738 0.996171 0.858526
0.994887 0.996482 0.961171
0.994776 0.995019 0.936705
0.99475 0.994928 0.876639
0.999966 0.995048 1.00106
0.998844 1.00079 0.996477
0.99549 1.00498 0.996923
0.994938 1.00166 0.97786
0.9957 1.00078 1.0002
0.995802 1.00305 0.999058
0.996654 1.00001 1.00169
0.994922 0.999593 0.984718
0.995754 0.998884 0.992461
0.994717 0.9948 0.802674
0.994792 0.994815 0.802944
0.994805 0.994838 0.788848
0.994935 1.00444 0.984653
0.994865 0.999818 0.95779
0.994798 0.994821 0.793744
0.994827 0.995686 0.921945
0.994828 0.994746 0.857968
0.994796 0.994837 0.801414
0.99495 1.00485 0.981273
0.994724 0.994824 0.800504
0.996545 0.994741 0.854938
0.994871 0.995287 0.954343
0.99486 0.994754 0.938112
0.994868 1.00064 0.990178
0.999531 0.994963 0.842949
0.996841 0.994777 0.939769
0.994882 0.994787 0.95288
0.994827 1.00509 0.997195
0.99726 1.00166 0.997513
1.00055 0.999175 0.993841
0.99862 1.00151 0.995979
1.00396 0.996755 0.991102
1.00488 0.996345 0.989916
1.00415 1.00212 0.984407
1.00476 0.998761 0.987109
1.00513 0.996019 0.989269
1.00474 1.00112 0.984829
1.00499 0.997927 0.987678
1.00537 0.995012 0.990025
1.0053 0.994892 0.990786
1.00532 0.995815 0.989352
1.00535 0.995628 0.98947
1.00535 0.997772 0.987282
1.00529 0.997801 0.987415
1.00526 0.998043 0.987216
1.00527 1.00095 0.984953
1.00519 1.00006 0.985956
1.00511 1.00028 0.985826
1.00524 1.00319 0.983182
1.00513 1.00249 0.983922
1.00512 1.00139 0.984586
1.00306 1.00306 0.986775
1.00432 1.00254 0.98519
1.00421 1.00322 0.984458
1.00097 1.00316 0.990104
1.00238 1.00376 0.987195
1.00284 1.00209 0.987563
0.999893 0.999896 0.998028
1.00065 1.00255 0.991236
1.00171 1.00496 0.987697
1.00023 0.998748 0.998269
1.00046 1.00177 0.992485
1.00023 0.998295 0.998436
1.00436 1.00156 0.98735
1.00218 1.00269 0.988609
1.00189 1.00445 0.987849
1.00107 1.00479 0.988759
1.00116 1.00515 0.988076
1.00006 1.00486 0.989626
1.00006 1.00097 0.993869
1.00072 1.00422 0.98957
1.00087 1.00436 0.988687
1.00009 0.997799 0.998764
1.00017 1.00006 0.994518
1.00046 1.00359 0.990593
1.0001 0.99751 0.99889
1.00027 0.999463 0.994968
1.0001 0.997166 0.999032
0.994744 0.994783 0.788287
0.994793 0.99482 0.802729
0.994806 0.99484 0.787435
1.00339 1.00293 0.986023
1.00467 1.00356 0.985434
1.00233 1.00395 0.986759
0.999928 1.00455 0.990469
1.00412 1.00108 0.988483
0.999138 0.999775 0.995007
0.998233 1.00339 0.994044
1.0021 1.00218 0.988668
1.00142 1.00011 0.992225
0.998747 1.00005 0.996281
0.998303 1.0036 0.994335
0.999325 1.00309 0.994143
0.997021 0.9948 0.849207
0.994734 0.994837 0.793743
0.99479 0.994781 0.788735
0.994789 0.994858 0.797156
0.994775 0.995324 0.878335
0.994848 0.995925 0.922053
0.994854 0.99708 0.954852
0.994887 0.996937 0.958558
0.995081 0.99479 0.87481
0.994811 0.99539 0.923848
0.994856 0.997403 0.962484
0.995306 0.994715 0.926498
0.999125 0.995495 1.00418
0.999771 0.995109 1.00106
0.998556 1.00044 0.996468
0.994855 0.999287 0.984979
0.996652 0.999363 1.00205
0.996112 0.998982 0.992045
0.995657 0.996366 0.990003
0.999814 0.995638 0.857742
0.994715 0.994777 0.799367
0.994793 0.99482 0.803154
0.994838 1.00451 0.981779
0.99487 0.994864 0.952381
0.994717 0.994831 0.799578
0.9949 0.994722 0.92675
0.996819 0.994785 0.876389
0.994928 0.998442 0.986597
0.999479 0.994859 0.856661
0.996862 0.994751 0.925391
0.994857 0.994789 0.953847
0.995891 0.998543 0.986661
0.999554 0.994845 0.938497
0.994954 0.994812 0.960509
0.996349 1.00152 0.997329
0.999774 0.999523 0.993796
1.00323 0.998838 0.991274
1.00314 0.997869 0.99084
1.00467 0.996466 0.989824
1.00519 0.99545 0.990062
1.00482 0.998735 0.986999
1.00502 0.996425 0.989187
1.00536 0.994831 0.990145
1.00495 0.997945 0.987624
1.00537 0.995044 0.989973
1.00528 0.994838 0.990695
1.00532 0.994855 0.990792
1.00529 0.9949 0.990829
1.00527 0.995071 0.990789
1.00532 0.99628 0.989289
1.00533 0.995852 0.9895
1.00537 0.995587 0.989515
1.00537 0.998855 0.986628
1.00534 0.997838 0.987206
1.00529 0.997751 0.987604
1.00538 1.00248 0.983352
1.00528 1.001 0.984968
1.00521 0.999979 0.985874
1.0042 1.00309 0.985031
1.00507 1.00309 0.983294
1.00508 1.00255 0.983966
1.00132 1.00335 0.989191
1.00303 1.00307 0.986679
1.00378 1.00262 0.98516
1.0002 1.00037 0.997579
1.0011 1.00296 0.990122
1.0026 1.00366 0.987173
1.0001 0.999901 0.996638
1.00086 1.00238 0.991272
1.00026 0.998974 0.998116
1.00506 1.00255 0.984749
1.00346 1.00194 0.987191
1.00263 1.00275 0.987584
1.00234 1.00289 0.988311
1.00169 1.00459 0.987885
1.00113 1.00512 0.988293
1.00021 1.00159 0.993015
1.00083 1.00485 0.988735
1.00036 1.00513 0.988079
1.00008 0.99828 0.998556
1.00005 1.00079 0.993892
1.00074 1.00419 0.989579
1.00006 0.997825 0.998797
1.00014 0.999987 0.994555
1.00009 0.997469 0.998917
0.999023 0.994807 0.857802
0.994735 0.994788 0.794408
0.9948 0.994818 0.803204
1.00339 1.00307 0.985902
1.00304 1.00388 0.985647
1.0043 1.00378 0.985084
1.00463 1.00319 0.984446
1.00161 1.00224 0.990124
0.999689 1.0034 0.993622
1.00218 1.00248 0.990113
1.00131 1.00069 0.992478
1.00471 0.995466 0.991212
1.00186 0.998279 0.994464
1.00154 0.997924 0.995247
1.00031 0.998844 0.995891
1.00007 1.0018 0.993615
0.997425 0.994789 0.936313
0.99749 0.994779 0.853467
0.994696 0.994819 0.800012
0.995035 0.99481 0.859757
0.994783 0.994981 0.93497
0.994955 0.996395 0.960402
0.994846 0.996697 0.964198
0.99538 0.994763 0.939273
0.995733 0.994773 0.962317
0.998078 0.996525 1.00224
0.998052 0.996121 1.00428
0.999864 0.99616 1.00094
0.996245 0.998364 0.99176
0.996831 0.996716 0.9905
1.00009 0.995161 0.923521
0.999817 0.994895 0.864461
0.994709 0.994757 0.796158
0.995077 0.998097 0.982618
0.994893 0.994779 0.953459
0.999517 0.994837 0.855556
0.996757 0.994766 0.939549
0.99575 0.998028 0.986933
0.999851 0.994861 0.93377
0.99553 0.994807 0.958316
0.99993 0.995396 0.985238
0.99762 0.99479 0.969773
0.999309 0.999365 0.993757
1.0024 0.997602 0.991292
1.00511 0.99491 0.991127
1.00481 0.99623 0.98972
1.00515 0.995375 0.990004
1.00531 0.994842 0.990426
1.0048 0.996744 0.989104
1.00536 0.994837 0.990109
1.00532 0.994852 0.990421
1.00537 0.995057 0.989921
1.00527 0.994845 0.990688
1.00534 0.99486 0.990598
1.0053 0.994848 0.990812
1.00534 0.994878 0.990771
1.00529 0.9949 0.990872
1.00528 0.995055 0.990796
1.00522 0.995468 0.990427
1.00532 0.997438 0.988338
1.00532 0.996313 0.989287
1.00533 0.995889 0.989649
1.00538 1.00118 0.984481
1.0054 0.99898 0.986417
1.00533 0.9979 0.987131
1.00506 1.00283 0.983641
1.00538 1.00245 0.983415
1.00528 1.00105 0.984983
1.00193 1.0034 0.988014
1.00378 1.00337 0.985059
1.00472 1.00328 0.983404
1.00058 1.00103 0.997118
1.00144 1.00325 0.989171
1.00295 1.00312 0.986591
1.00041 1.00056 0.997392
1.00117 1.0028 0.990143
1.00034 0.999916 0.997672
1.00508 1.00367 0.983705
1.00487 1.00207 0.984819
1.00336 1.00328 0.986124
1.00287 1.00197 0.987018
1.00229 1.00321 0.987553
1.00175 1.00445 0.987548
1.00129 1.00434 0.987916
1.00098 1.00514 0.988241
1.00048 1.0023 0.99196
1.00008 0.998889 0.998262
1.00005 1.00176 0.993022
1.00054 1.00505 0.988713
1.00004 0.998206 0.998634
1.00007 1.00079 0.993886
1.00003 0.997775 0.998826
0.999972 0.994871 0.938708
0.999843 0.994864 0.855667
0.994716 0.99477 0.78815
1.00295 1.00488 0.984523
1.00382 1.00364 0.984728
1.00289 1.00213 0.988921
1.00407 1.00324 0.984563
1.0052 0.999736 0.986071
1.00357 0.998198 0.989332
1.00096 1.00132 0.992704
1.00461 0.995469 0.990886
1.00186 0.997854 0.994526
1.00402 0.996778 0.990775
1.0024 0.998495 0.993117
1.00172 0.999002 0.994076
1.00109 0.998354 0.995323
1.00065 0.999306 0.995517
0.995206 0.994781 0.960968
0.997499 0.994764 0.931431
0.996551 0.994822 0.872478
0.994804 0.994679 0.926118
0.99486 0.996643 0.964552
0.995657 0.995614 0.967987
0.999026 0.9948 0.990965
0.999347 0.995973 1.00122
0.997551 0.996579 1.0044
0.998486 0.99842 0.991077
0.997956 0.994765 0.962627
1.00022 0.994889 0.938923
0.999827 0.995613 0.844912
0.995407 0.998017 0.987384
0.996106 0.994797 0.958308
0.999463 0.994819 0.928527
0.999194 0.996729 0.985788
0.997747 0.994799 0.968747
1.0027 0.996796 0.987664
1.00329 0.994653 0.985171
1.00152 0.997238 0.991298
1.00459 0.994946 0.991186
1.00528 0.994832 0.990648
1.00503 0.99546 0.989949
1.00531 0.994835 0.990379
1.00537 0.994895 0.990405
1.00536 0.994841 0.990071
1.00533 0.994855 0.990419
1.00536 0.994886 0.990484
1.00526 0.994851 0.99068
1.00534 0.994858 0.990626
1.00537 0.994846 0.990661
1.00529 0.994838 0.990833
1.00533 0.994862 0.990768
1.00529 0.995109 0.990787
1.00528 0.995051 0.990803
1.00523 0.995444 0.990446
1.00527 0.996659 0.989293
1.00533 0.999726 0.986113
1.00532 0.99766 0.988019
1.00532 0.996344 0.989285
1.00535 1.00209 0.983808
1.00539 1.00124 0.98451
1.00543 0.99911 0.986206
1.00288 1.00272 0.987216
1.00475 1.0031 0.983661
1.00539 1.00244 0.98348
1.00105 1.00132 0.996698
1.00209 1.0033 0.987925
1.0034 1.00368 0.98509
1.00076 1.00109 0.996973
1.00154 1.00313 0.989153
1.00059 1.00071 0.997223
1.00525 1.00138 0.984725
1.00496 1.00325 0.983668
1.00443 1.00363 0.983941
1.00466 1.00204 0.984892
1.00362 1.00305 0.98581
1.00302 1.00323 0.986428
1.00209 1.0041 0.987529
1.00183 1.00446 0.987542
1.00091 1.00281 0.990641
1.00076 1.00511 0.988202
1.00029 1.00245 0.991962
1.00012 0.999747 0.997859
1.00004 0.998809 0.998374
0.999927 1.00183 0.993041
1.00001 0.998157 0.998703
0.995911 0.994942 0.964226
0.999693 0.994903 0.923107
0.999845 0.995154 0.870513
1.00528 0.997579 0.987791
1.0045 1.00223 0.987741
1.00363 1.00323 0.984679
1.00419 0.998427 0.989545
1.00519 0.999879 0.986092
1.00515 0.996443 0.989392
1.0048 0.996423 0.990555
1.00153 0.997794 0.994604
1.00455 0.996275 0.99079
1.002 0.998609 0.993162
1.00381 0.997754 0.990168
1.00319 0.994823 0.994492
1.00155 0.998166 0.994234
1.00089 0.998782 0.995402
0.998465 0.994726 0.989662
0.995635 0.994772 0.959478
0.997343 0.99477 0.925014
0.995394 0.995895 0.968956
0.998808 0.99482 0.993612
0.999622 0.995635 1.00015
1.00252 0.995114 0.979313
0.998322 0.994868 0.961284
1.00021 0.99499 0.923585
0.998145 0.997349 0.986317
0.997785 0.994784 0.968255
1.00188 0.995777 0.988279
1.0029 0.994662 0.985661
1.00363 0.996769 0.990166
1.0055 0.994639 0.990791
1.00412 0.994852 0.991247
1.00529 0.994845 0.990625
1.00541 0.994875 0.990377
1.00531 0.994835 0.990335
1.00536 0.99489 0.990414
1.00538 0.994889 0.990468
1.00533 0.994861 0.990418
1.00535 0.994888 0.990489
1.00535 0.994902 0.990671
1.00534 0.994858 0.990653
1.00537 0.994845 0.990656
1.00531 0.994875 0.990885
1.00533 0.994847 0.990766
1.00529 0.995038 0.990802
1.00528 0.995627 0.99042
1.00524 0.995419 0.990464
1.00528 0.996481 0.989448
1.00532 0.999107 0.986946
1.00534 1.00136 0.984566
1.00533 0.999969 0.985863
1.00533 0.997879 0.9877
1.00332 1.00148 0.987645
1.00526 1.00221 0.983822
1.0054 1.0013 0.984541
1.00168 1.00133 0.996234
1.00298 1.0025 0.987187
1.00452 1.00328 0.98368
1.00127 1.0014 0.996482
1.0023 1.00319 0.987838
1.00092 1.00119 0.996798
1.00529 0.999401 0.986197
1.00523 1.00138 0.984683
1.00532 1.00239 0.983591
1.00474 1.00292 0.983636
1.00485 1.00345 0.98359
1.00344 1.00339 0.985685
1.00421 1.00247 0.985495
1.00293 1.00348 0.986471
1.00124 1.00318 0.989514
1.00177 1.00454 0.987503
1.00077 1.00299 0.990677
1.00028 1.00075 0.997405
1.0001 1.00259 0.991966
1.00004 0.999563 0.99802
0.999981 0.99869 0.998473
0.999556 0.995298 0.985769
0.996386 0.994873 0.959676
1.00007 0.994841 0.938405
1.00536 0.995899 0.98938
1.00531 0.995672 0.989659
1.00528 0.997269 0.988047
1.00479 0.998197 0.989753
1.00518 1.00001 0.98612
1.00517 0.996337 0.989515
1.00535 0.99503 0.989835
1.00485 0.995723 0.990815
1.00186 0.998376 0.993229
1.00377 0.997921 0.990741
1.00518 0.994824 0.990977
1.00364 0.994761 0.993162
1.00272 0.994891 0.994234
1.00181 0.997301 0.994398
0.999031 0.994678 0.989617
0.996156 0.994793 0.958373
0.998988 0.994814 0.996408
1.00489 0.995106 0.990153
1.00272 0.995051 0.979456
0.998272 0.99489 0.960793
1.00162 0.994809 0.988814
1.00256 0.994664 0.986168
1.00378 0.995811 0.990565
1.00547 0.994635 0.990869
1.00548 0.994738 0.990849
1.00554 0.994746 0.991167
1.00531 0.994857 0.990599
1.00543 0.99487 0.990384
1.00537 0.994848 0.990733
1.00535 0.994883 0.990423
1.00538 0.994887 0.990495
1.00532 0.994895 0.990768
1.00535 0.994887 0.990494
1.00535 0.994903 0.99067
1.00531 0.994912 0.990912
1.00537 0.994844 0.990651
1.00531 0.994875 0.990872
1.0053 0.995093 0.990887
1.00529 0.994967 0.990816
1.00528 0.995601 0.990368
1.00533 0.998265 0.987773
1.00528 0.996303 0.989603
1.00531 0.998973 0.987092
1.00531 1.00087 0.985194
1.00342 1.00077 0.988277
1.00535 1.00135 0.984587
1.00532 1.00022 0.985613
1.00203 1.0009 0.996181
1.00333 1.00152 0.987667
1.00505 1.00243 0.983829
1.0018 1.00128 0.99617
1.00309 1.00242 0.987153
1.00149 1.0015 0.996291
1.00534 0.997155 0.988266
1.00528 0.999213 0.986458
1.00539 1.00123 0.984694
1.00521 1.00138 0.984633
1.00534 1.00249 0.983499
1.0041 1.00302 0.984891
1.00525 1.00333 0.983237
1.00362 1.00303 0.985695
1.00178 1.00356 0.988302
1.00304 1.00351 0.98653
1.00118 1.0033 0.989534
1.00054 1.00133 0.99702
1.00056 1.00312 0.990709
1.00013 1.00049 0.997575
1 0.999409 0.998163
1.00397 0.995325 0.991961
0.999351 0.995239 0.983372
0.99638 0.994873 0.960154
1.00533 0.995164 0.99014
1.00534 0.995591 0.989603
1.00532 0.99494 0.990628
1.00531 0.995803 0.989612
1.00528 0.99698 0.988295
1.00542 0.994839 0.990292
1.0052 0.996455 0.98963
1.00532 0.995289 0.989828
1.00537 0.994762 0.990675
1.00378 0.997506 0.991307
1.00518 0.994843 0.990625
1.00314 0.99473 0.993416
1.00193 0.995053 0.993995
0.999369 0.994629 0.989298
1.00555 0.994764 0.991193
1.00502 0.995108 0.990151
1.00262 0.995067 0.979717
1.0038 0.994801 0.99095
1.00547 0.994647 0.990949
1.00547 0.994736 0.990821
1.00557 0.994771 0.991287
1.00538 0.994838 0.991276
1.00544 0.994863 0.990394
1.00537 0.994859 0.990735
1.00531 0.994891 0.991041
1.00539 0.994886 0.990522
1.00533 0.994897 0.990768
1.00528 0.994931 0.991046
1.00536 0.994904 0.990668
1.0053 0.994912 0.990914
1.00531 0.99492 0.991152
1.00531 0.994875 0.990859
1.00529 0.995103 0.990852
1.00533 0.997354 0.988754
1.00528 0.995575 0.990316
1.00532 0.998285 0.987784
1.00531 1.00041 0.985692
1.00531 0.998836 0.987238
1.00532 1.00084 0.985221
1.00335 1.00053 0.990442
1.00231 1.00001 0.99273
1.00341 1.00082 0.989192
1.00536 1.00133 0.984608
1.00195 1.00086 0.996258
1.00334 1.00139 0.987691
1.00181 1.00133 0.996162
1.00527 0.99498 0.990919
1.0053 0.995867 0.98982
1.00534 0.997094 0.988489
1.00532 0.999935 0.985964
1.00528 0.998996 0.986719
1.00536 1.00125 0.98462
1.00492 1.00223 0.984236
1.00535 1.00255 0.983407
1.00438 1.00258 0.984839
1.00275 1.003 0.987165
1.00384 1.00263 0.985709
1.00171 1.0036 0.988297
1.00111 1.00187 0.996421
1.00113 1.00346 0.989567
1.00041 1.00122 0.997166
0.999995 1.00027 0.997752
1.00547 0.994814 0.991029
1.00377 0.995069 0.991517
0.999472 0.994985 0.981047
1.00533 0.994864 0.99066
1.00533 0.995196 0.990072
1.00533 0.995282 0.98984
1.00531 0.995044 0.990599
1.00532 0.995906 0.989564
1.00539 0.994849 0.990695
1.00539 0.994833 0.990261
1.0053 0.99543 0.989824
1.00532 0.994758 0.990727
1.00517 0.994999 0.990273
1.00287 0.994591 0.993652
1.00531 0.994854 0.991368
1.00552 0.994761 0.991219
1.00519 0.99502 0.990143
1.00544 0.994733 0.990782
1.00558 0.994786 0.991406
1.00539 0.994843 0.991242
1.0053 0.994906 0.991333
1.00536 0.994869 0.990737
1.00531 0.994895 0.991
1.00525 0.994932 0.991242
1.00533 0.9949 0.990769
1.00528 0.994931 0.991047
1.00526 0.994928 0.991313
1.0053 0.994913 0.990917
1.00531 0.994919 0.99112
1.00532 0.996546 0.989707
1.00529 0.995113 0.990817
1.00534 0.997384 0.988751
1.0053 1.00003 0.986157
1.00531 0.998304 0.987795
1.00532 1.00039 0.985725
1.00341 1.00035 0.990545
1.00533 1.00081 0.985248
1.00359 1.0004 0.99029
1.00237 0.999688 0.992906
1.00197 1.00035 0.994655
1.0036 1.00083 0.989907
1.00192 1.00078 0.996323
1.00528 0.994877 0.99095
1.00527 0.995683 0.990277
1.00527 0.994963 0.990968
1.00529 0.998696 0.987282
1.00531 0.995882 0.989891
1.00534 0.997075 0.988713
1.00532 0.999905 0.985932
1.00532 1.00131 0.984661
1.00534 1.00129 0.984547
1.00511 1.00202 0.984245
1.00322 1.0018 0.98746
1.0046 1.00242 0.984796
1.00256 1.00314 0.987238
1.00158 1.00182 0.996111
1.00158 1.00355 0.988301
1.00087 1.00161 0.996681
1.00019 1.00109 0.997303
1.00534 0.994881 0.991
1.00541 0.994821 0.991095
1.00333 0.995027 0.991086
1.00531 0.994892 0.990856
1.00533 0.99486 0.990613
1.00533 0.995206 0.990007
1.00529 0.995178 0.990567
1.0054 0.994855 0.990677
1.00536 0.99483 0.99023
1.00529 0.994759 0.990774
1.0053 0.994901 0.991369
1.00531 0.994857 0.991323
1.0055 0.994767 0.991242
1.00529 0.994923 0.991406
1.00541 0.994848 0.991208
1.0053 0.994905 0.991326
1.00524 0.994939 0.99138
1.00531 0.994899 0.990958
1.00526 0.994932 0.991245
1.0052 0.994956 0.991503
1.00528 0.994931 0.991048
1.00528 0.994928 0.991297
1.00532 0.995933 0.990458
1.00531 0.994918 0.991088
1.00533 0.996558 0.989698
1.00527 0.999724 0.986573
1.00535 0.997415 0.988748
1.00531 1.00001 0.986191
1.00338 1.00033 0.990575
1.00533 1.00037 0.985758
1.00362 1.00025 0.990365
1.0024 0.999679 0.99286
1.00382 1.00026 0.990145
1.00186 0.999856 0.993272
1.00127 1.00073 0.996972
1.00527 0.994915 0.991002
1.0053 0.9951 0.990778
1.00528 0.994887 0.990972
1.00532 0.998164 0.987873
1.00528 0.995422 0.990453
1.00526 0.994953 0.991019
1.00534 1.0005 0.98548
1.00529 0.998659 0.987262
1.00531 0.995859 0.989962
1.00531 0.99987 0.985901
1.00532 1.00131 0.984638
1.0032 1.00104 0.988339
1.00533 1.00176 0.984244
1.00312 1.00193 0.987472
1.00167 1.00127 0.996293
1.00244 1.00323 0.987285
1.00147 1.00173 0.996182
1.00071 1.00151 0.996895
1.0053 0.994917 0.991161
1.00536 0.994876 0.990933
1.00534 0.994824 0.991167
1.00531 0.994892 0.990867
1.00533 0.994858 0.990567
1.00541 0.994858 0.990658
1.00529 0.994928 0.991389
1.00529 0.994905 0.991383
1.00532 0.994862 0.991277
1.00528 0.994921 0.991419
1.00523 0.994946 0.991524
1.0053 0.994904 0.991319
1.00524 0.994942 0.991409
1.00517 0.994964 0.991585
1.00526 0.994933 0.991247
1.0052 0.994957 0.991502
1.00532 0.995563 0.990855
1.00529 0.994929 0.991281
1.00529 0.995947 0.990459
1.00524 0.999476 0.986867
1.00534 0.996568 0.989689
1.00526 0.999708 0.986606
1.0033 1.00037 0.990611
1.00531 0.999989 0.986225
1.00358 1.00025 0.99039
1.00231 0.999821 0.992817
1.00382 1.00016 0.990194
1.00194 0.99974 0.993252
1.00137 1.00005 0.993624
1.00526 0.994938 0.991184
1.00531 0.994928 0.991109
1.00527 0.99491 0.990978
1.00532 0.996941 0.989121
1.0053 0.995167 0.990765
1.00528 0.994893 0.990993
1.00532 1.00002 0.986077
1.00532 0.997705 0.988266
1.00529 0.995168 0.990628
1.00332 1.0004 0.988807
1.00533 1.00054 0.985448
1.0053 0.998627 0.987242
1.00534 1.00132 0.984612
1.00323 1.00101 0.988312
1.00173 1.0008 0.996457
1.00308 1.00217 0.987495
1.00173 1.00136 0.996206
1.00136 1.00162 0.99636
1.00528 0.99494 0.991342
1.0053 0.994916 0.991124
1.00538 0.994869 0.990865
1.00531 0.994896 0.990878
1.00525 0.994949 0.991484
1.00529 0.994927 0.991397
1.00529 0.994907 0.991397
1.00528 0.99492 0.991431
1.00524 0.994943 0.99152
1.0052 0.994956 0.991582
1.00524 0.994945 0.991438
1.00517 0.994965 0.991592
1.0053 0.995521 0.991005
1.00521 0.994958 0.991502
1.00529 0.995627 0.990856
1.00527 0.999244 0.987065
1.00526 0.99597 0.990461
1.00525 0.999455 0.986878
1.00333 1.00036 0.988916
1.00525 0.999692 0.98664
1.0035 1.00033 0.98956
1.00198 0.999929 0.996413
1.00377 1.00018 0.990204
1.0019 0.999818 0.99321
1.0015 0.999793 0.993627
1.00526 0.994955 0.99131
1.00529 0.994947 0.991244
1.00526 0.99494 0.991208
1.00528 0.996061 0.990258
1.00531 0.994988 0.99104
1.00527 0.994906 0.990954
1.00526 0.9992 0.98707
1.00531 0.996989 0.989117
1.00531 0.99523 0.990751
1.00341 1.00008 0.989002
1.00531 0.999771 0.986307
1.00532 0.997231 0.988657
1.00186 1.0003 0.996537
1.00336 1.00034 0.988784
1.00531 1.00057 0.985413
1.00325 1.00095 0.988288
1.00175 1.00082 0.996409
1.00171 1.00139 0.996105
1.00526 0.994956 0.991381
1.00528 0.99494 0.991333
1.0053 0.994916 0.991087
1.00525 0.994958 0.991532
1.00525 0.994948 0.991467
1.00529 0.994925 0.991404
1.00524 0.99494 0.991517
1.0052 0.994955 0.991577
1.00534 0.996157 0.990296
1.00518 0.994964 0.991598
1.0053 0.99584 0.990629
1.00528 0.998474 0.987988
1.00525 0.99568 0.990856
1.00529 0.99922 0.98706
1.00328 1.00019 0.989171
1.00527 0.999436 0.986894
1.00336 1.00033 0.988919
1.00191 1 0.996413
1.00355 1.00031 0.98868
1.00181 0.999968 0.994871
1.00149 0.999802 0.993603
1.00524 0.994959 0.991385
1.00526 0.994972 0.991389
1.00525 0.994955 0.991315
1.00527 0.996041 0.990367
1.00528 0.994949 0.991268
1.00525 0.994942 0.991231
1.00522 0.998948 0.987431
1.00529 0.996364 0.989888
1.0053 0.99504 0.99097
1.00343 1.00007 0.989004
1.00526 0.999143 0.987116
1.00531 0.997042 0.989113
1.00196 0.999981 0.99653
1.00343 1.00006 0.988988
1.00529 0.999517 0.986538
1.00189 1.00034 0.996511
1.0034 1.00029 0.988762
1.00176 1.00089 0.996368
1.00528 0.99497 0.991402
1.00526 0.994956 0.991391
1.00528 0.994942 0.991323
1.00534 0.996206 0.990234
1.00526 0.99496 0.991504
1.00525 0.994947 0.991449
1.0052 0.994955 0.991571
1.00533 0.996127 0.990305
1.00522 0.998371 0.988178
1.0053 0.996153 0.990253
1.0053 0.998734 0.987607
1.00322 1.00002 0.989439
1.00531 0.999195 0.987053
1.00328 1.0002 0.989173
1.00179 1.00002 0.996451
1.00338 1.00031 0.988915
1.00186 1.00003 0.996418
1.00191 0.999961 0.992987
1.00527 0.994998 0.991353
1.00525 0.994957 0.991327
1.00529 0.995949 0.990472
1.00527 0.99497 0.99139
1.00525 0.994954 0.991321
1.00522 0.999364 0.986955
1.00528 0.996002 0.990368
1.00527 0.994953 0.991292
1.00341 1.00016 0.988982
1.00521 0.999215 0.987127
1.00529 0.996692 0.98952
1.00198 0.999899 0.996465
1.00343 1.00009 0.988998
1.00525 0.999084 0.987163
1.00198 1.00002 0.996537
1.00345 1.00004 0.988971
1.00193 1.00036 0.99648
1.00532 0.996286 0.990127
1.00529 0.994979 0.991412
1.00525 0.994955 0.991402
1.00515 0.998402 0.988248
1.00533 0.996199 0.990241
1.00526 0.994967 0.991476
1.00532 0.996097 0.990313
1.00526 0.998311 0.98815
1.00313 0.999913 0.989704
1.00531 0.999002 0.987226
1.00322 1.00002 0.989446
1.0017 1.00001 0.996525
1.00329 1.0002 0.98918
1.00174 1.00005 0.996486
1.00183 1.00004 0.996437
1.00532 0.99592 0.99053
1.00527 0.994992 0.991377
1.00525 0.994956 0.991269
1.00522 0.999205 0.987146
1.0053 0.99592 0.990477
1.00527 0.994967 0.99139
1.00334 1.00018 0.989102
1.00521 0.999389 0.986958
1.0053 0.995941 0.990368
1.00192 0.999947 0.996419
1.0034 1.00019 0.988983
1.00521 0.999476 0.986823
1.002 0.999915 0.996492
1.00343 1.00011 0.98899
1.00203 1.00003 0.996534
1.00509 0.999013 0.987584
1.00532 0.996058 0.990433
1.00529 0.995002 0.991422
1.00304 0.999849 0.989939
1.00516 0.998371 0.988239
1.00533 0.996194 0.990247
1.00528 0.998247 0.988124
1.00315 0.999877 0.989712
1.00163 1.00001 0.996572
1.00322 1.00002 0.989454
1.00167 1.00002 0.996537
1.00168 1.00007 0.996511
1.00517 0.999072 0.987394
1.00532 0.995888 0.990589
1.00528 0.994971 0.991402
1.00339 1.00007 0.990821
1.0052 0.99922 0.98716
1.00531 0.995888 0.990482
1.0018 1 0.996443
1.00332 1.0002 0.989105
1.0052 0.999414 0.986962
1.00196 0.999942 0.996436
1.00338 1.00022 0.988983
1.00203 0.999919 0.996514
1.00313 0.999852 0.989857
1.0051 0.998759 0.987883
1.00532 0.995819 0.99074
1.00151 0.999987 0.996654
1.00304 0.99983 0.989934
1.00518 0.998335 0.988228
1.00316 0.999842 0.989716
1.00159 0.999996 0.9966
1.00164 1.00004 0.996554
1.00337 0.999944 0.991046
1.00515 0.9991 0.987405
1.00531 0.995883 0.990648
1.00117 1.00003 0.997132
1.00323 1.00009 0.989376
1.00519 0.999231 0.987176
1.00184 0.999995 0.996438
1.0033 1.00023 0.989105
1.00199 0.999935 0.996454
1.00147 0.999954 0.993685
1.00315 0.99987 0.990567
1.0051 0.998501 0.988181
1.00153 0.999981 0.996671
1.00306 0.999814 0.989939
1.0016 0.999983 0.996625
1.00094 0.999992 0.994174
1.00323 0.999942 0.990367
1.00512 0.999135 0.987411
1.0014 1.00001 0.995246
1.00319 1.0001 0.989404
1.00189 0.999984 0.996438
1.00149 0.999978 0.996676
1.003 0.999872 0.98996
1.00149 0.999975 0.996676
1.00125 0.999981 0.995425
1.00308 0.999962 0.989754
1.00174 1.00001 0.996486
1.00151 0.999985 0.996671
1.00158 0.999994 0.996589

TENSORS stress float
0.00250782 -0.000178994 0.000294442
-0.000178994 0.00128421 -5.34893e-05
0.000294442 -5.34893e-05 0.00125628
0.00777425 0.00013824 0.000357214
0.00013824 0.00467187 4.43335e-05
0.000357214 4.43335e-05 0.00468561
0.00213308 -0.000109525 0.000118469
-0.000109525 0.00103782 -2.05847e-05
0.000118469 -2.05847e-05 0.000996069
0.00237959 -9.97263e-05 0.000278273
-9.97263e-05 0.00118058 -3.04227e-05
0.000278273 -3.04227e-05 0.00116393
0.00252753 -0.000157012 0.000287963
-0.000157012 0.00128603 -4.69201e-05
0.000287963 -4.69201e-05 0.00126213
0.00254952 -0.000186446 0.000307383
-0.000186446 0.00131185 -5.58906e-05
0.000307383 -5.58906e-05 0.00128366
0.00205596 -0.000198566 5.92661e-05
-0.000198566 0.000850405 -1.50892e-05
5.92661e-05 -1.50892e-05 0.000711685
0.00789787 0.000130247 -1.04143e-05
0.000130247 0.00474086 -2.97339e-06
-1.04143e-05 -2.97339e-06 0.00475884
0.00708256 0.00026352 0.000176767
0.00026352 0.00423924 1.96895e-05
0.000176767 1.96895e-05 0.00420714
0.00724674 5.70665e-05 0.000114699
5.70665e-05 0.00430932 7.41158e-06
0.000114699 7.41158e-06 0.00428931
0.00190744 0.000254186 0.000328579
0.000254186 0.000912594 4.90052e-05
0.000328579 4.90052e-05 0.00089321
0.000252158 0.000277587 2.62271e-05
0.000277587 -0.000247005 2.19732e-05
2.62271e-05 2.19732e-05 -0.00042052
0.00195197 -3.13578e-05 0.000273053
-3.13578e-05 0.000901268 4.98904e-06
0.000273053 4.98904e-06 0.000906029
0.00170566 6.10036e-06 7.6293e-05
6.10036e-06 0.000768072 3.00265e-06
7.6293e-05 3.00265e-06 0.000716724
0.00184258 -0.000108264 -7.14218e-05
-0.000108264 0.000863904 1.29972e-05
-7.14218e-05 1.29972e-05 0.000799903
0.00203442 -9.79643e-05 8.94614e-05
-9.79643e-05 0.000977558 -5.92292e-06
8.94614e-05 -5.92292e-06 0.000939507
0.0021862 -0.000100726 0.000129998
-0.000100726 0.001076 -2.30868e-05
0.000129998 -2.30868e-05 0.00103078
0.00212615 -0.000113191 0.00010622
-0.000113191 0.00103001 -1.55429e-05
0.00010622 -1.55429e-05 0.000990527
0.00217719 -0.00023558 -4.55586e-05
-0.00023558 0.000929073 7.57694e-06
-4.55586e-05 7.57694e-06 0.000799802
0.00661764 -0.000165872 0.000360766
-0.000165872 0.00394679 -1.77762e-05
0.000360766 -1.77762e-05 0.00397176
0.00228315 -7.53937e-05 0.000274996
-7.53937e-05 0.00111812 -2.26908e-05
0.000274996 -2.26908e-05 0.00110491
0.00247889 -0.000128488 0.000282995
-0.000128488 0.00124742 -3.87454e-05
0.000282995 -3.87454e-05 0.00122773
0.00198854 -0.000160779 7.51763e-05
-0.000160779 0.000833264 -1.2015e-05
7.51763e-05 -1.2015e-05 0.000723683
0.00206639 -0.000195286 6.70628e-05
-0.000195286 0.000855746 -1.4908e-05
6.70628e-05 -1.4908e-05 0.0007291
0.00247067 -0.000169537 0.00031508
-0.000169537 0.00125481 -5.32521e-05
0.00031508 -5.32521e-05 0.00122967
0.00208936 -0.000203558 5.50904e-05
-0.000203558 0.000886647 -1.55482e-05
5.50904e-05 -1.55482e-05 0.000730793
0.00211777 -0.000419832 1.85193e-05
-0.000419832 0.000594593 -6.49519e-06
1.85193e-05 -6.49519e-06 0.000328314
0.00788762 0.000125831 -0.000380242
0.000125831 0.00472247 -3.67867e-05
-0.000380242 -3.67867e-05 0.00474747
0.00467016 0.000192506 -0.000162599
0.000192506 0.00267405 -1.98575e-05
-0.000162599 -1.98575e-05 0.00264975
0.00471842 0.000124838 -0.000168611
0.000124838 0.00270686 -1.97143e-05
-0.000168611 -1.97143e-05 0.00268514
0.00806713 6.56441e-05 -1.56421e-06
6.56441e-05 0.00485182 -1.50154e-06
-1.56421e-06 -1.50154e-06 0.00486952
0.000258528 0.000263036 -1.2954e-06
0.000263036 -0.000237397 -1.33361e-06
-1.2954e-06 -1.33361e-06 -0.00040969
0.00204193 7.74251e-05 0.000281692
7.74251e-05 0.000958513 2.85178e-05
0.000281692 2.85178e-05 0.000948419
0.00220757 0.000170972 0.000294371
0.000170972 0.0010969 4.47217e-05
0.000294371 4.47217e-05 0.00107348
0.00296388 0.000250767 0.000172948
0.000250767 0.00142839 2.69224e-05
0.000172948 2.69224e-05 0.00132926
0.00724774 -0.000233901 4.59681e-05
-0.000233901 0.00438414 3.63201e-06
4.59681e-05 3.63201e-06 0.0043389
0.0030755 0.000343171 0.000185086
0.000343171 0.00155314 3.45621e-05
0.000185086 3.45621e-05 0.00142853
0.000409629 0.000271377 2.63007e-05
0.000271377 -0.000139875 3.12841e-05
2.63007e-05 3.12841e-05 -0.000318258
0.00112932 0.000400368 2.61673e-05
0.000400368 8.62262e-05 7.29021e-06
2.61673e-05 7.29021e-06 -0.000218937
0.00572116 -0.000116224 0.000214666
-0.000116224 0.00345375 2.76269e-05
0.000214666 2.76269e-05 0.00344346
0.00656983 8.95694e-05 3.47902e-06
8.95694e-05 0.00389953 -2.11475e-06
3.47902e-06 -2.11475e-06 0.00393364
0.00431939 0.000102262 -0.000136699
0.000102262 0.00244676 -6.61297e-06
-0.000136699 -6.61297e-06 0.00243642
0.00642102 5.70299e-05 0.000350192
5.70299e-05 0.00380663 4.97399e-06
0.000350192 4.97399e-06 0.00384196
0.00160035 9.23948e-05 7.81855e-05
9.23948e-05 0.000704544 5.82689e-06
7.81855e-05 5.82689e-06 0.00065763
0.00044743 1.3922e-05 1.35488e-05
1.3922e-05 -0.000171605 2.12823e-06
1.35488e-05 2.12823e-06 -0.000266937
0.0067409 0.000247384 0.000201632
0.000247384 0.0040426 2.0442e-05
0.000201632 2.0442e-05 0.00401658
0.00293971 9.07367e-05 0.000160012
9.07367e-05 0.00141253 1.16576e-05
0.000160012 1.16576e-05 0.00134874
0.00167137 -9.88521e-05 -9.10274e-05
-9.88521e-05 0.000763816 1.21889e-05
-9.10274e-05 1.21889e-05 0.00070374
0.00173402 -0.000130537 -8.44392e-05
-0.000130537 0.000804724 1.55012e-05
-8.44392e-05 1.55012e-05 0.000738164
0.00193774 -7.00662e-05 -5.96209e-05
-7.00662e-05 0.000917152 1.06478e-05
-5.96209e-05 1.06478e-05 0.000853799
0.00225875 -0.000238234 -0.000158004
-0.000238234 0.00097184 3.01947e-05
-0.000158004 3.01947e-05 0.000856262
0.0041573 -3.68249e-05 -0.000139809
-3.68249e-05 0.00235307 -9.70686e-07
-0.000139809 -9.70686e-07 0.00234312
0.00199901 -7.82716e-05 9.39826e-05
-7.82716e-05 0.000951017 -4.79727e-06
9.39826e-05 -4.79727e-06 0.000917462
0.00227621 -7.52011e-05 0.000134602
-7.52011e-05 0.00112941 -2.15085e-05
0.000134602 -2.15085e-05 0.00108179
0.00208281 -0.000105583 9.59373e-05
-0.000105583 0.00100401 -9.99397e-06
9.59373e-05 -9.99397e-06 0.000965609
0.0020723 -0.000138399 -3.70256e-05
-0.000138399 0.000873989 3.14212e-06
-3.70256e-05 3.14212e-06 0.000778551
0.00219421 -0.00024994 -5.27788e-05
-0.00024994 0.000953482 8.85869e-06
-5.27788e-05 8.85869e-06 0.000809277
0.0021562 -0.000210494 -4.04264e-05
-0.000210494 0.00091216 5.5822e-06
-4.04264e-05 5.5822e-06 0.000795547
0.00222593 -0.000428584 -1.03653e-05
-0.000428584 0.000663082 2.7365e-06
-1.03653e-05 2.7365e-06 0.00039711
0.00640086 -1.27063e-05 0.000346342
-1.27063e-05 0.00379159 -4.20614e-06
0.000346342 -4.20614e-06 0.00382797
0.00221197 -4.9447e-05 0.000270122
-4.9447e-05 0.00107519 -1.56496e-05
0.000270122 -1.56496e-05 0.00106709
0.00251024 -2.29166e-05 5.90843e-05
-2.29166e-05 0.00117522 -5.86793e-07
5.90843e-05 -5.86793e-07 0.00110069
0.00195908 -0.000129457 6.83212e-05
-0.000129457 0.000819493 -7.9922e-06
6.83212e-05 -7.9922e-06 0.000720483
0.00202922 -0.000178875 7.26633e-05
-0.000178875 0.000840899 -1.39326e-05
7.26633e-05 -1.39326e-05 0.00072353
0.00201692 -0.000263172 3.49634e-06
-0.000263172 0.000448782 -1.73317e-06
3.49634e-06 -1.73317e-06 0.000265523
0.00203172 -0.000372181 1.42078e-05
-0.000372181 0.00049417 -4.21044e-06
1.42078e-05 -4.21044e-06 0.000263561
0.00220778 -0.000130854 0.000300257
-0.000130854 0.00107702 -4.61698e-05
0.000300257 -4.61698e-05 0.00104975
0.00206313 -0.000163757 4.73681e-05
-0.000163757 0.000902809 -1.32667e-05
4.73681e-05 -1.32667e-05 0.000740317
0.00208903 -0.000470929 2.31128e-05
-0.000470929 0.000614975 -6.78666e-06
2.31128e-05 -6.78666e-06 0.000309734
0.0020028 -0.000561628 5.25441e-06
-0.000561628 0.000270266 1.47697e-06
5.25441e-06 1.47697e-06 -3.87475e-05
0.00753728 0.000318301 -0.00039959
0.000318301 0.00452696 -4.96307e-05
-0.00039959 -4.96307e-05 0.00453583
0.00793789 2.68888e-05 -0.000336905
2.68888e-05 0.00477229 -2.95375e-05
-0.000336905 -2.95375e-05 0.00479072
0.00762033 0.000191166 -0.000373083
0.000191166 0.00455631 -4.05042e-05
-0.000373083 -4.05042e-05 0.0045783
0.000297022 0.00025142 -2.58977e-05
0.00025142 -0.000206486 -2.11601e-05
-2.58977e-05 -2.11601e-05 -0.000379718
0.00725841 0.000268524 -1.91577e-06
0.000268524 0.00434197 -2.64387e-06
-1.91577e-06 -2.64387e-06 0.00435796
0.00755617 0.000281264 -8.41646e-06
0.000281264 0.00452885 -3.69422e-06
-8.41646e-06 -3.69422e-06 0.0045406
0.000351457 0.000163146 3.52582e-07
0.000163146 -0.000257672 -2.88657e-07
3.52582e-07 -2.88657e-07 -0.000395162
0.00430825 -3.90731e-05 -0.000146075
-3.90731e-05 0.0024865 -9.05925e-06
-0.000146075 -9.05925e-06 0.00245607
0.000293032 0.000240885 1.40867e-06
0.000240885 -0.000237597 -4.18208e-07
1.40867e-06 -4.18208e-07 -0.000401102
0.00197408 0.000284606 7.44157e-05
0.000284606 0.000874146 4.34712e-06
7.44157e-05 4.34712e-06 0.000727091
0.00111039 0.000402822 1.47078e-06
0.000402822 6.39985e-05 2.79667e-07
1.47078e-06 2.79667e-07 -0.000241797
0.00646005 -8.47023e-05 0.000261954
-8.47023e-05 0.00390706 3.23873e-05
0.000261954 3.23873e-05 0.00390207
0.000565417 0.000137616 2.67281e-05
0.000137616 1.60225e-05 1.57825e-05
2.67281e-05 1.57825e-05 -7.76509e-05
0.000447957 0.000127555 1.40561e-05
0.000127555 -0.000207076 1.1934e-05
1.40561e-05 1.1934e-05 -0.000333883
0.000453091 0.000195039 1.85558e-05
0.000195039 -0.000180094 2.01601e-05
1.85558e-05 2.01601e-05 -0.000328124
0.00144053 0.000350615 1.39508e-05
0.000350615 5.82545e-05 5.48067e-06
1.39508e-05 5.48067e-06 -0.000182072
0.00356649 0.000311602 0.000180525
0.000311602 0.00191491 2.94711e-05
0.000180525 2.94711e-05 0.00180819
0.00131552 0.000413624 2.50197e-05
0.000413624 0.000114104 8.16315e-06
2.50197e-05 8.16315e-06 -0.000177743
0.000793119 0.000359676 2.03307e-05
0.000359676 -2.476e-05 6.55679e-06
2.03307e-05 6.55679e-06 -0.000328159
0.00170662 0.000629992 9.84639e-06
0.000629992 0.000271604 -3.78429e-06
9.84639e-06 -3.78429e-06 -0.000130927
0.00486089 -0.00014856 0.0001478
-0.00014856 0.00288443 1.47938e-05
0.0001478 1.47938e-05 0.00287299
0.00529593 -0.000162051 1.58589e-05
-0.000162051 0.00317337 2.03161e-06
1.58589e-05 2.03161e-06 0.0031573
0.00704217 7.82956e-05 -0.000369222
7.82956e-05 0.00418552 -2.03075e-05
-0.000369222 -2.03075e-05 0.00421772
0.00667861 8.14128e-05 -0.000362046
8.14128e-05 0.00396458 -1.24655e-05
-0.000362046 -1.24655e-05 0.00399998
0.00651847 8.36485e-05 1.63163e-07
8.36485e-05 0.00387357 -4.38206e-06
1.63163e-07 -4.38206e-06 0.00390623
0.00417904 4.31686e-05 -0.000148131
4.31686e-05 0.00235616 -8.51627e-06
-0.000148131 -8.51627e-06 0.00235182
0.00156832 4.27478e-05 7.03069e-05
4.27478e-05 0.000549931 2.20422e-06
7.03069e-05 2.20422e-06 0.000475326
0.00449625 0.000164634 -0.000139714
0.000164634 0.00256674 -8.80844e-06
-0.000139714 -8.80844e-06 0.00254767
0.00164204 0.000105065 7.13884e-05
0.000105065 0.000580013 3.90641e-06
7.13884e-05 3.90641e-06 0.000491234
0.00645599 0.000111246 0.000353134
0.000111246 0.00384195 7.42244e-06
0.000353134 7.42244e-06 0.0038702
0.000327439 1.03343e-05 1.72043e-05
1.03343e-05 -0.000242645 1.08064e-06
1.72043e-05 1.08064e-06 -0.00033363
0.00290612 4.97237e-05 0.000158351
4.97237e-05 0.00140039 7.80099e-06
0.000158351 7.80099e-06 0.00134429
0.00120215 8.38557e-05 6.98719e-06
8.38557e-05 -7.02404e-05 7.12489e-07
6.98719e-06 7.12489e-07 -0.000205905
0.00285545 0.00014348 0.000164674
0.00014348 0.00135143 1.52833e-05
0.000164674 1.52833e-05 0.0012778
0.00132962 0.000174703 3.68893e-06
0.000174703 -3.98191e-05 1.59912e-06
3.68893e-06 1.59912e-06 -0.000199963
0.00196996 3.90509e-05 -0.000272682
3.90509e-05 0.000909055 3.91392e-06
-0.000272682 3.91392e-06 0.000916943
0.00167005 -2.89917e-05 -7.79274e-05
-2.89917e-05 0.000752201 4.0566e-06
-7.79274e-05 4.0566e-06 0.000699429
0.00200482 -3.3412e-05 -5.29392e-05
-3.3412e-05 0.000951782 9.23888e-06
-5.29392e-05 9.23888e-06 0.000886878
0.00166948 -0.000116711 -9.2203e-05
-0.000116711 0.000763877 1.48988e-05
-9.2203e-05 1.48988e-05 0.000700984
0.00218299 -0.000115745 -0.000144573
-0.000115745 0.000932418 1.45409e-05
-0.000144573 1.45409e-05 0.000851204
0.00226011 -0.000196173 -0.000152343
-0.000196173 0.000965468 2.53431e-05
-0.000152343 2.53431e-05 0.000864358
0.00228621 -0.000273007 -0.00016632
-0.000273007 0.00101165 3.2776e-05
-0.00016632 3.2776e-05 0.000878686
0.00233459 -0.000438279 -3.58264e-05
-0.000438279 0.000732243 1.10592e-05
-3.58264e-05 1.10592e-05 0.000466345
0.00651461 -0.000120606 2.36602e-06
-0.000120606 0.00387917 -2.10787e-06
2.36602e-06 -2.10787e-06 0.00390689
0.00189513 1.77194e-05 0.000100914
1.77194e-05 0.000874056 -5.62483e-06
0.000100914 -5.62483e-06 0.000851864
0.00119481 -1.78018e-05 -7.35724e-05
-1.78018e-05 0.000316766 2.82636e-06
-7.35724e-05 2.82636e-06 0.00024222
0.00203254 -9.31105e-05 -3.98641e-05
-9.31105e-05 0.000857142 3.70241e-06
-3.98641e-05 3.70241e-06 0.000770724
0.00544463 -0.000106303 0.000313551
-0.000106303 0.00316356 -2.91296e-05
0.000313551 -2.91296e-05 0.00315825
0.00274679 -0.000250899 -5.05834e-05
-0.000250899 0.00133644 5.85102e-06
-5.05834e-05 5.85102e-06 0.00118989
0.00211765 -0.00017483 -3.73739e-05
-0.00017483 0.000890412 4.06363e-06
-3.73739e-05 4.06363e-06 0.000785443
0.00206198 -0.000263347 -8.97909e-06
-0.000263347 0.000474716 1.87339e-06
-8.97909e-06 1.87339e-06 0.000297095
0.00224157 -0.000487064 -9.19987e-06
-0.000487064 0.00072279 2.70467e-06
-9.19987e-06 2.70467e-06 0.000415706
0.00212715 -0.000377294 -1.02028e-05
-0.000377294 0.000557241 2.88217e-06
-1.02028e-05 2.88217e-06 0.000323739
0.00202665 -0.000563427 9.19164e-07
-0.000563427 0.00028804 -2.00366e-07
9.19164e-07 -2.00366e-07 -2.08468e-05
0.000332738 6.21656e-06 1.79602e-05
6.21656e-06 -0.000241608 2.52522e-07
1.79602e-05 2.52522e-07 -0.000329278
0.00185991 -1.8611e-05 6.0283e-05
-1.8611e-05 0.000747651 -2.54076e-06
6.0283e-05 -2.54076e-06 0.000664875
0.0020085 -9.36248e-05 5.78089e-06
-9.36248e-05 0.000472375 4.99659e-07
5.78089e-06 4.99659e-07 0.000353501
0.00209702 -0.000210469 2.54617e-06
-0.000210469 0.000516925 -4.60712e-07
2.54617e-06 -4.60712e-07 0.000364243
0.00208278 -0.000321921 8.911e-06
-0.000321921 0.000493191 -2.33677e-06
8.911e-06 -2.33677e-06 0.000293323
0.00218601 -0.000377587 -5.52456e-07
-0.000377587 0.000222493 1.29594e-07
-5.52456e-07 1.29594e-07 4.63617e-05
0.0074642 2.76353e-05 0.000286422
2.76353e-05 0.00449627 -2.60976e-05
0.000286422 -2.60976e-05 0.0045031
0.00192353 -0.000511656 4.3626e-06
-0.000511656 0.000156653 1.20383e-06
4.3626e-06 1.20383e-06 -0.000109141
9.7944e-05 -0.000223176 1.99534e-05
-0.000223176 -0.000359375 -2.60552e-05
1.99534e-05 -2.60552e-05 -0.000522868
0.00108627 -0.00042077 2.36532e-05
-0.00042077 5.51929e-05 -7.61016e-06
2.36532e-05 -7.61016e-06 -0.00027506
0.00215233 -0.000630423 6.21019e-06
-0.000630423 0.000434715 1.92274e-06
6.21019e-06 1.92274e-06 7.14555e-05
0.00208618 -0.000626967 3.17533e-06
-0.000626967 0.000223168 4.98845e-06
3.17533e-06 4.98845e-06 -5.96026e-05
0.000408949 -0.000186641 2.39544e-05
-0.000186641 -0.000105104 -2.18353e-05
2.39544e-05 -2.18353e-05 -0.000240001
0.000846683 -0.000178819 -3.24862e-07
-0.000178819 0.000221432 -5.07529e-06
-3.24862e-07 -5.07529e-06 -5.63092e-05
0.00740053 0.000296221 -0.000402258
0.000296221 0.00443875 -4.52046e-05
-0.000402258 -4.52046e-05 0.00445155
0.0076187 0.000275275 -0.000390595
0.000275275 0.00456734 -4.74351e-05
-0.000390595 -4.74351e-05 0.0045828
0.000318737 0.000162176 -1.75268e-05
0.000162176 -0.000279748 -1.47388e-05
-1.75268e-05 -1.47388e-05 -0.000418158
0.00701057 -5.92508e-05 -0.000267832
-5.92508e-05 0.00422054 -2.25997e-05
-0.000267832 -2.25997e-05 0.00422749
-3.97884e-05 0.000215117 -2.01181e-05
0.000215117 -0.000415211 -2.48689e-05
-2.01181e-05 -2.48689e-05 -0.000573304
0.000279343 0.000228269 -2.1411e-05
0.000228269 -0.000245334 -2.07194e-05
-2.1411e-05 -2.07194e-05 -0.000408677
0.00109244 0.000401698 -2.84143e-05
0.000401698 4.54703e-05 -8.76336e-06
-2.84143e-05 -8.76336e-06 -0.000259646
0.00633845 -8.64611e-05 -1.22146e-05
-8.64611e-05 0.00382303 1.74921e-06
-1.22146e-05 1.74921e-06 0.00382117
0.000644249 0.000114238 3.88292e-07
0.000114238 7.00914e-05 4.6271e-07
3.88292e-07 4.6271e-07 -2.1821e-05
0.00172553 0.000175473 7.4564e-05
0.000175473 0.00061816 7.08877e-06
7.4564e-05 7.08877e-06 0.000508858
0.00172266 0.000247816 7.82108e-05
0.000247816 0.000646218 8.80237e-06
7.82108e-05 8.80237e-06 0.000514446
0.0013963 0.000348014 -1.51799e-07
0.000348014 3.59112e-05 -3.40436e-07
-1.51799e-07 -3.40436e-07 -0.000205423
0.000387442 0.000217689 -1.53111e-06
0.000217689 -0.000123569 -6.50522e-08
-1.53111e-06 -6.50522e-08 -0.000263554
0.00126266 0.000409969 8.07436e-07
0.000409969 7.89874e-05 1.21688e-07
8.07436e-07 1.21688e-07 -0.00021315
0.000809234 0.000348395 2.13768e-06
0.000348395 -1.14662e-05 -1.27006e-06
2.13768e-06 -1.27006e-06 -0.000308639
0.00178945 0.000645215 -1.93992e-06
0.000645215 0.000316592 -3.55943e-07
-1.93992e-06 -3.55943e-07 -8.68664e-05
0.000475788 0.000180124 2.06969e-05
0.000180124 -5.28099e-05 2.00711e-05
2.06969e-05 2.00711e-05 -0.000172749
0.000597492 7.71688e-05 1.64241e-05
7.71688e-05 6.65447e-05 1.49914e-05
1.64241e-05 1.49914e-05 -1.70507e-05
0.00124513 0.000321881 2.14732e-06
0.000321881 0.000500815 2.70513e-06
2.14732e-06 2.70513e-06 0.000249694
0.00143957 0.000298317 9.88464e-06
0.000298317 2.2445e-05 3.69518e-06
9.88464e-06 3.69518e-06 -0.000188807
0.00140029 0.000390218 1.94518e-05
0.000390218 8.61867e-05 7.10301e-06
1.94518e-05 7.10301e-06 -0.000181863
0.0021521 0.000543532 5.092e-06
0.000543532 0.000275347 -7.47211e-07
5.092e-06 -7.47211e-07 6.55607e-06
0.000468536 0.000279377 1.07558e-05
0.000279377 -0.000117626 7.0869e-06
1.07558e-05 7.0869e-06 -0.000395217
0.00216276 0.000664278 4.94604e-06
0.000664278 0.000446926 -2.95562e-06
4.94604e-06 -2.95562e-06 8.29197e-05
0.00172397 0.000657704 5.49466e-06
0.000657704 0.000442738 -5.81524e-06
5.49466e-06 -5.81524e-06 -1.09433e-05
0.00176653 0.000688716 -8.44449e-06
0.000688716 0.000203579 -7.97881e-06
-8.44449e-06 -7.97881e-06 -0.000192032
0.00428338 -0.000145029 0.00010673
-0.000145029 0.00249701 8.42613e-06
0.00010673 8.42613e-06 0.00248753
0.00469835 -0.000184164 1.90889e-05
-0.000184164 0.00278412 -1.15682e-06
1.90889e-05 -1.15682e-06 0.00276345
0.00516683 -0.000213302 -0.000126027
-0.000213302 0.00309643 -1.13519e-05
-0.000126027 -1.13519e-05 0.00306824
0.000487067 -0.000183683 2.42156e-05
-0.000183683 -3.67248e-05 -1.94792e-05
2.42156e-05 -1.94792e-05 -0.000153341
0.00651194 8.22159e-05 0.000233277
8.22159e-05 0.00392463 -2.44559e-05
0.000233277 -2.44559e-05 0.00392055
0.0072364 0.000240981 -0.000395812
0.000240981 0.00432667 -3.65899e-05
-0.000395812 -3.65899e-05 0.00434757
0.00679273 0.000109855 -0.000364635
0.000109855 0.00403397 -1.75965e-05
-0.000364635 -1.75965e-05 0.004067
0.000307611 0.000108278 -1.67737e-05
0.000108278 -0.000278345 -7.05439e-06
-1.67737e-05 -7.05439e-06 -0.000388158
0.000273707 4.59345e-05 -1.70254e-05
4.59345e-05 -0.000278868 -3.11398e-06
-1.70254e-05 -3.11398e-06 -0.000375151
0.00645667 -3.03449e-06 -0.000348014
-3.03449e-06 0.00382545 -3.46381e-06
-0.000348014 -3.46381e-06 0.00386188
0.00639602 -2.26171e-06 2.26941e-07
-2.26171e-06 0.00378809 -1.3103e-06
2.26941e-07 -1.3103e-06 0.00382492
0.000290055 1.33272e-06 -2.48577e-07
1.33272e-06 -0.000268745 1.86478e-07
-2.48577e-07 1.86478e-07 -0.000358195
0.00156961 4.81021e-05 7.10333e-05
4.81021e-05 0.000541385 3.4927e-06
7.10333e-05 3.4927e-06 0.000462972
0.0011836 8.75016e-05 2.57011e-08
8.75016e-05 -8.29419e-05 -5.49144e-08
2.57011e-08 -5.49144e-08 -0.000219543
0.000361997 0.000103328 -7.77516e-07
0.000103328 -0.000252296 -3.34339e-07
-7.77516e-07 -3.34339e-07 -0.000370663
0.00128941 0.000175991 -2.1578e-07
0.000175991 -5.79131e-05 4.71212e-08
-2.1578e-07 4.71212e-08 -0.000219581
0.000286946 -3.34899e-05 1.78465e-05
-3.34899e-05 -0.000271171 -4.13595e-07
1.78465e-05 -4.13595e-07 -0.000357705
0.0011344 3.78309e-05 8.55466e-06
3.78309e-05 -9.72461e-05 2.93288e-07
8.55466e-06 2.93288e-07 -0.000226867
0.0012708 0.000132187 4.82965e-06
0.000132187 -4.72004e-05 1.25116e-06
4.82965e-06 1.25116e-06 -0.000193357
0.0021061 0.000139635 2.11337e-06
0.000139635 9.24302e-05 8.166e-07
2.11337e-06 8.166e-07 1.52094e-05
0.0013711 0.000233019 5.86181e-06
0.000233019 -2.91092e-05 2.20987e-06
5.86181e-06 2.20987e-06 -0.000211664
0.00209646 0.000299918 2.43696e-06
0.000299918 8.72331e-05 2.71035e-07
2.43696e-06 2.71035e-07 -3.82387e-05
0.00642186 -8.22389e-05 -0.00035194
-8.22389e-05 0.00381378 5.02959e-06
-0.00035194 5.02959e-06 0.00384546
0.00156145 -0.000167611 -7.783e-05
-0.000167611 0.000704647 9.80821e-06
-7.783e-05 9.80821e-06 0.000644401
-0.000231725 -1.01758e-05 -9.96138e-06
-1.01758e-05 -0.000595856 6.79921e-07
-9.96138e-06 6.79921e-07 -0.000699562
0.00214075 -8.31319e-05 -0.000142533
-8.31319e-05 0.000918923 1.01863e-05
-0.000142533 1.01863e-05 0.000844469
0.00825264 0.000191668 -6.93964e-05
0.000191668 0.00496822 3.40249e-06
-6.93964e-05 3.40249e-06 0.00492666
0.00310527 -0.000315793 -0.000169892
-0.000315793 0.00157315 3.2872e-05
-0.000169892 3.2872e-05 0.00143612
0.00222882 -0.000154903 -0.000147781
-0.000154903 0.000947981 1.96868e-05
-0.000147781 1.96868e-05 0.000858013
0.00208875 -0.000262682 -2.39102e-05
-0.000262682 0.000488403 4.48885e-06
-2.39102e-05 4.48885e-06 0.00031656
0.00219747 -0.000380867 -3.10365e-05
-0.000380867 0.000602623 9.60614e-06
-3.10365e-05 9.60614e-06 0.000366591
0.00233698 -0.000497173 -3.98202e-05
-0.000497173 0.00079368 1.18442e-05
-3.98202e-05 1.18442e-05 0.000486243
0.00203781 -0.000563546 -3.74502e-06
-0.000563546 0.000298959 -1.78454e-06
-3.74502e-06 -1.78454e-06 -9.44156e-06
0.000285689 1.80477e-06 3.20324e-08
1.80477e-06 -0.000270048 4.03305e-07
3.20324e-08 4.03305e-07 -0.000358607
0.00198202 -0.000100169 -3.85517e-05
-0.000100169 0.000835751 6.67877e-07
-3.85517e-05 6.67877e-07 0.000754585
0.00167826 -9.01837e-05 -1.34823e-05
-9.01837e-05 0.000257427 8.2787e-07
-1.34823e-05 8.2787e-07 0.000134938
0.00200062 -0.000205395 -1.21661e-05
-0.000205395 0.000447235 2.08734e-06
-1.21661e-05 2.08734e-06 0.000290271
0.0077319 2.19075e-05 4.09581e-06
2.19075e-05 0.00466708 1.29076e-07
4.09581e-06 1.29076e-07 0.00467331
0.00170799 -0.00023393 1.00196e-05
-0.00023393 0.000690437 -3.20612e-07
1.00196e-05 -3.20612e-07 0.000521226
0.0016365 -0.000449618 -8.92036e-07
-0.000449618 0.000411154 -1.31967e-06
-8.92036e-07 -1.31967e-06 8.47054e-05
0.00213888 -0.000328226 -1.01925e-05
-0.000328226 0.000527419 2.80101e-06
-1.01925e-05 2.80101e-06 0.000325777
0.00217305 -0.000382836 1.61127e-06
-0.000382836 0.000203509 -1.02426e-06
1.61127e-06 -1.02426e-06 3.37303e-05
0.00211558 -0.000627648 1.78195e-06
-0.000627648 0.000408673 7.94113e-08
1.78195e-06 7.94113e-08 4.7271e-05
0.00203149 -0.000513985 1.61434e-07
-0.000513985 0.000232798 -8.50845e-08
1.61434e-07 -8.50845e-08 -3.41042e-05
0.0021556 -0.000632081 8.58334e-07
-0.000632081 0.000273333 2.52376e-07
8.58334e-07 2.52376e-07 -1.07598e-05
0.000401543 -0.00020779 1.90201e-06
-0.00020779 -0.000118622 2.09625e-07
1.90201e-06 2.09625e-07 -0.000251253
0.000886564 -0.000243433 -6.46717e-07
-0.000243433 0.00024064 3.35374e-07
-6.46717e-07 3.35374e-07 -3.84417e-05
0.0011446 -4.4786e-05 1.00298e-05
-4.4786e-05 -7.73252e-05 1.2817e-07
1.00298e-05 1.2817e-07 -0.000208024
0.00207437 -0.000148476 2.4226e-06
-0.000148476 0.000514258 1.24651e-07
2.4226e-06 1.24651e-07 0.000382021
0.00191012 -0.000152522 2.23034e-06
-0.000152522 -1.8827e-05 -3.5133e-07
2.23034e-06 -3.5133e-07 -0.000116099
0.00221859 -0.000311536 -8.04961e-07
-0.000311536 0.000203282 1.21794e-06
-8.04961e-07 1.21794e-06 8.05138e-05
0.0018987 -0.000450429 -1.19174e-06
-0.000450429 7.85043e-05 1.13312e-06
-1.19174e-06 1.13312e-06 -0.000140837
0.00234991 -0.000430383 5.0322e-06
-0.000430383 0.00023624 -1.23971e-06
5.0322e-06 -1.23971e-06 0.000106889
0.000115685 -0.000210943 2.0867e-05
-0.000210943 -0.000317637 -2.492e-05
2.0867e-05 -2.492e-05 -0.00047008
0.00210799 -0.00057063 1.8488e-06
-0.00057063 0.000185987 3.18948e-06
1.8488e-06 3.18948e-06 -4.21249e-05
0.0012795 -0.000374863 1.68992e-05
-0.000374863 0.000284408 -7.98841e-06
1.68992e-05 -7.98841e-06 -2.73458e-05
0.00179804 -0.000690955 1.53503e-05
-0.000690955 0.000294884 2.02894e-06
1.53503e-05 2.02894e-06 -0.000141834
0.00242276 -0.000708701 2.96874e-06
-0.000708701 0.000506489 4.24897e-06
2.96874e-06 4.24897e-06 0.000152187
0.00239978 -0.000669231 -1.17408e-06
-0.000669231 0.000396707 5.29159e-06
-1.17408e-06 5.29159e-06 0.00013609
0.000744392 -0.000243439 5.09891e-06
-0.000243439 0.000124424 -1.57867e-06
5.09891e-06 -1.57867e-06 -0.000171834
0.00142243 -0.000234954 6.24825e-06
-0.000234954 0.000577109 -5.939e-06
6.24825e-06 -5.939e-06 0.000339134
0.00172909 -0.000401274 3.65801e-07
-0.000401274 0.000805753 -6.59087e-07
3.65801e-07 -6.59087e-07 0.000435984
0.000335987 0.000135924 -1.63762e-05
0.000135924 -0.000276126 -1.14663e-05
-1.63762e-05 -1.14663e-05 -0.000405697
0.00575753 -0.000121048 -0.000200823
-0.000121048 0.00345113 -1.61501e-05
-0.000200823 -1.61501e-05 0.00344654
0.000393896 0.00010009 -1.9518e-05
0.00010009 -8.7319e-05 -1.50681e-05
-1.9518e-05 -1.50681e-05 -0.000173931
0.000281104 0.000194031 -1.91749e-05
0.000194031 -0.000281416 -1.8167e-05
-1.91749e-05 -1.8167e-05 -0.000430998
0.0013498 0.000345881 -1.54708e-05
0.000345881 1.09555e-05 -6.01027e-06
-1.54708e-05 -6.01027e-06 -0.00023152
0.000194597 0.000210821 -2.31064e-05
0.000210821 -0.000255669 -2.37767e-05
-2.31064e-05 -2.37767e-05 -0.000392354
0.00094858 0.000353337 -1.90052e-05
0.000353337 7.63764e-05 -1.03888e-05
-1.90052e-05 -1.03888e-05 -0.000218454
0.00123563 0.000407741 -2.6093e-05
0.000407741 6.22906e-05 -8.5022e-06
-2.6093e-05 -8.5022e-06 -0.000230262
0.00190492 0.000667899 -1.08211e-05
0.000667899 0.000376144 3.35339e-06
-1.08211e-05 3.35339e-06 -3.05905e-05
0.000420836 0.00018189 -4.50845e-06
0.00018189 -9.38823e-05 1.67597e-06
-4.50845e-06 1.67597e-06 -0.000205619
0.000392278 5.05531e-05 1.10521e-06
5.05531e-05 -5.66485e-05 4.30829e-07
1.10521e-06 4.30829e-07 -0.000138895
0.000895776 0.000245088 5.85918e-07
0.000245088 0.000237804 1.02536e-06
5.85918e-07 1.02536e-06 1.82018e-05
0.00140988 0.000296867 -2.49738e-07
0.000296867 1.15488e-05 -3.69937e-07
-2.49738e-07 -3.69937e-07 -0.000200814
0.00136369 0.000386208 1.80811e-07
0.000386208 6.83605e-05 -3.25071e-07
1.80811e-07 -3.25071e-07 -0.000199902
0.00213712 0.000542192 -4.45889e-07
0.000542192 0.000263845 -1.84037e-07
-4.45889e-07 -1.84037e-07 -4.75842e-06
0.000611324 0.000270921 -5.41714e-07
0.000270921 -3.20897e-05 5.18426e-07
-5.41714e-07 5.18426e-07 -0.0002993
0.00216972 0.00066018 -1.10052e-06
0.00066018 0.000452342 -4.7275e-07
-1.10052e-06 -4.7275e-07 8.81562e-05
0.00176089 0.000674272 -7.96224e-07
0.000674272 0.000437179 -2.10257e-06
-7.96224e-07 -2.10257e-06 -2.35168e-05
0.00172939 0.000696807 -1.412e-06
0.000696807 0.00015634 2.96169e-06
-1.412e-06 2.96169e-06 -0.000237262
0.000436914 2.8785e-05 6.7229e-06
2.8785e-05 -1.77707e-05 1.40604e-05
6.7229e-06 1.40604e-05 -9.08619e-05
0.00150693 0.000292051 5.93151e-06
0.000292051 0.000625484 2.36855e-06
5.93151e-06 2.36855e-06 0.000360404
0.000817994 0.000161428 5.09461e-06
0.000161428 0.000214233 8.7086e-07
5.09461e-06 8.7086e-07 9.44928e-06
-0.000316919 0.000118354 -4.23447e-06
0.000118354 -0.000499352 4.67149e-06
-4.23447e-06 4.67149e-06 -0.000776952
0.00222159 0.00047716 2.57597e-06
0.00047716 0.000256009 -1.93956e-06
2.57597e-06 -1.93956e-06 3.68635e-05
0.0021191 0.000604961 5.09719e-06
0.000604961 0.000334287 -1.31698e-06
5.09719e-06 -1.31698e-06 1.44183e-05
0.00223273 0.000605688 1.22283e-06
0.000605688 0.000245944 -1.47514e-06
1.22283e-06 -1.47514e-06 -4.01061e-06
0.00129396 0.000531931 -2.93809e-06
0.000531931 0.000268142 -4.38298e-06
-2.93809e-06 -4.38298e-06 -0.000144333
0.00251707 0.000765098 -6.23032e-06
0.000765098 0.000581081 -4.24055e-06
-6.23032e-06 -4.24055e-06 0.000224793
0.00222463 0.000829293 -1.31856e-05
0.000829293 0.000617733 -1.41188e-05
-1.31856e-05 -1.41188e-05 0.000106321
0.00211248 0.000735612 -4.99815e-06
0.000735612 0.000287271 -4.38243e-06
-4.99815e-06 -4.38243e-06 -8.33795e-05
0.000696324 8.95313e-05 4.6258e-07
8.95313e-05 0.000193189 6.85781e-06
4.6258e-07 6.85781e-06 8.17102e-05
0.000504108 1.63256e-05 3.20991e-06
1.63256e-05 2.40851e-05 1.12684e-05
3.20991e-06 1.12684e-05 -2.3149e-05
0.00368735 -0.000129936 7.35579e-05
-0.000129936 0.00210022 6.35591e-06
7.35579e-05 6.35591e-06 0.00209426
0.00410902 -0.000171667 1.34079e-05
-0.000171667 0.00239127 -1.34569e-06
1.34079e-05 -1.34569e-06 0.00237397
0.00452402 -0.000219946 -7.93613e-05
-0.000219946 0.00268237 -8.87549e-06
-7.93613e-05 -8.87549e-06 0.00265052
0.000558694 -0.000202886 3.05011e-05
-0.000202886 2.3804e-05 -1.88981e-05
3.05011e-05 -1.88981e-05 -7.78032e-05
0.00602426 0.000114764 0.000201081
0.000114764 0.00362819 -2.28365e-05
0.000201081 -2.28365e-05 0.00361825
0.000535939 -0.000196529 2.88547e-06
-0.000196529 -1.47333e-05 8.69578e-07
2.88547e-06 8.69578e-07 -0.000133534
0.00690446 5.82784e-05 6.14295e-06
5.82784e-05 0.00416987 1.66944e-07
6.14295e-06 1.66944e-07 0.00416883
0.000339823 0.000128352 -1.70124e-05
0.000128352 -0.000266852 -9.26385e-06
-1.70124e-05 -9.26385e-06 -0.000388412
0.000291322 3.94229e-05 -1.551e-05
3.94229e-05 -0.000279642 -4.0527e-06
-1.551e-05 -4.0527e-06 -0.000379879
0.00126208 0.000177256 -4.50459e-06
0.000177256 -7.21447e-05 -1.51081e-06
-4.50459e-06 -1.51081e-06 -0.000235263
0.00118501 9.07634e-05 -7.02537e-06
9.07634e-05 -8.41492e-05 -7.16161e-07
-7.02537e-06 -7.16161e-07 -0.000221462
0.000328814 -6.89828e-06 -1.7583e-05
-6.89828e-06 -0.000246355 -9.92011e-07
-1.7583e-05 -9.92011e-07 -0.00033442
0.00648721 -0.000104842 -0.000359078
-0.000104842 0.0038598 6.5688e-06
-0.000359078 6.5688e-06 0.00389011
0.000327345 -3.61525e-06 3.06461e-08
-3.61525e-06 -0.000246374 -7.09907e-07
3.06461e-08 -7.09907e-07 -0.000332669
0.00114609 4.30042e-05 3.19729e-08
4.30042e-05 -9.05889e-05 4.19222e-08
3.19729e-08 4.19222e-08 -0.000220677
0.00124168 0.00013255 -1.27493e-07
0.00013255 -6.67747e-05 -2.01604e-08
-1.27493e-07 -2.01604e-08 -0.000213848
0.00208056 0.000137691 -2.7625e-08
0.000137691 7.84445e-05 2.35454e-07
-2.7625e-08 2.35454e-07 9.79264e-07
0.00137072 0.000234113 -3.72643e-07
0.000234113 -2.24058e-05 -2.07226e-07
-3.72643e-07 -2.07226e-07 -0.000206407
0.00211601 0.000299363 -6.27537e-07
0.000299363 0.000106515 4.1956e-07
-6.27537e-07 4.1956e-07 -1.90125e-05
0.00111202 -5.49595e-06 9.637e-06
-5.49595e-06 -0.000100053 4.30833e-08
9.637e-06 4.30833e-08 -0.000228662
0.00211196 6.59449e-05 3.19524e-06
6.59449e-05 0.00010492 5.7486e-07
3.19524e-06 5.7486e-07 3.36947e-05
0.00207331 0.000217486 1.40611e-06
0.000217486 6.79395e-05 6.91442e-07
1.40611e-06 6.91442e-07 -2.65164e-05
0.00221175 0.000160291 6.22007e-06
0.000160291 6.5887e-05 1.53067e-06
6.22007e-06 1.53067e-06 4.25852e-05
0.00220159 0.000391821 3.67755e-06
0.000391821 0.000184096 -9.27275e-07
3.67755e-06 -9.27275e-07 1.49297e-05
0.00223066 0.000328758 5.63452e-06
0.000328758 8.41452e-05 1.00864e-06
5.63452e-06 1.00864e-06 1.42413e-05
0.00032477 -5.34975e-06 -1.70653e-05
-5.34975e-06 -0.000241685 1.65728e-08
-1.70653e-05 1.65728e-08 -0.000332498
0.00208738 -5.56407e-05 -0.000140938
-5.56407e-05 0.000892051 6.61546e-06
-0.000140938 6.61546e-06 0.000824334
0.00131379 -8.58446e-05 -1.79854e-05
-8.58446e-05 2.00596e-05 9.75909e-07
-1.79854e-05 9.75909e-07 -0.000106449
0.00189718 -0.000200792 -2.13028e-05
-0.000200792 0.000372419 3.42567e-06
-2.13028e-05 3.42567e-06 0.000211136
0.00810206 -8.85793e-06 -0.000340683
-8.85793e-06 0.00489525 3.72532e-05
-0.000340683 3.72532e-05 0.00490418
0.00376605 -0.000336712 -0.000196712
-0.000336712 0.00200666 3.17184e-05
-0.000196712 3.17184e-05 0.0018743
0.00188326 -0.000480986 -3.28572e-05
-0.000480986 0.000590986 9.49331e-06
-3.28572e-05 9.49331e-06 0.00026145
0.00217981 -0.000333487 -2.87882e-05
-0.000333487 0.000551273 7.4672e-06
-2.87882e-05 7.4672e-06 0.000348092
0.00216864 -0.000388352 -1.51554e-06
-0.000388352 0.000190327 -1.58716e-06
-1.51554e-06 -1.58716e-06 2.69788e-05
0.00214029 -0.000516338 -2.29802e-06
-0.000516338 0.000310966 -6.90342e-07
-2.29802e-06 -6.90342e-07 4.29307e-05
0.00213728 -0.000630508 -4.89553e-06
-0.000630508 0.000418161 -2.69531e-06
-4.89553e-06 -2.69531e-06 5.75096e-05
0.00223304 -0.000638519 -1.87757e-06
-0.000638519 0.000327034 -4.18898e-06
-1.87757e-06 -4.18898e-06 4.13133e-05
0.000456109 -0.000222858 -2.39807e-05
-0.000222858 -8.53093e-05 2.21868e-05
-2.39807e-05 2.21868e-05 -0.000221069
0.000311132 -0.000222129 -2.15923e-06
-0.000222129 -0.000112227 3.62611e-06
-2.15923e-06 3.62611e-06 -0.000399895
0.00120594 -4.07051e-05 4.20549e-07
-4.07051e-05 -3.8194e-05 -6.04431e-09
4.20549e-07 -6.04431e-09 -0.000163174
0.00204929 -0.000148185 -1.1721e-05
-0.000148185 0.000494 1.46469e-06
-1.1721e-05 1.46469e-06 0.000362154
0.00196068 -0.000149528 2.13277e-06
-0.000149528 1.28685e-05 -3.14708e-07
2.13277e-06 -3.14708e-07 -7.92796e-05
0.00205145 -0.000306447 -1.98275e-06
-0.000306447 9.10219e-05 8.39449e-07
-1.98275e-06 8.39449e-07 -4.30773e-05
0.000369045 -0.000237994 1.31298e-06
-0.000237994 -0.000154945 7.42925e-07
1.31298e-06 7.42925e-07 -0.000310516
0.000723992 -0.000357231 -3.0494e-06
-0.000357231 -5.92124e-05 -5.53793e-08
-3.0494e-06 -5.53793e-08 -0.000376024
0.00183618 -0.000692526 1.08775e-06
-0.000692526 0.000321064 3.10048e-07
1.08775e-06 3.10048e-07 -0.000118299
0.00202055 -0.000454468 -2.18172e-06
-0.000454468 0.000166074 5.69204e-07
-2.18172e-06 5.69204e-07 -5.62319e-05
0.00225613 -0.000428468 1.48662e-06
-0.000428468 0.000163214 -6.0751e-07
1.48662e-06 -6.0751e-07 4.12718e-05
0.00247488 -0.000715642 6.41615e-08
-0.000715642 0.000538519 -1.06784e-06
6.41615e-08 -1.06784e-06 0.000186824
0.00215191 -0.000574573 4.43924e-07
-0.000574573 0.000212584 3.25212e-07
4.43924e-07 3.25212e-07 -1.65543e-05
0.00222902 -0.000661637 3.62872e-07
-0.000661637 0.000279549 9.55665e-07
3.62872e-07 9.55665e-07 1.7338e-05
0.000657715 -0.000242823 1.70087e-07
-0.000242823 7.12837e-05 -8.96881e-07
1.70087e-07 -8.96881e-07 -0.000226996
0.000258316 -0.000224534 -9.99406e-07
-0.000224534 -0.000173694 -1.90737e-06
-9.99406e-07 -1.90737e-06 -0.000504416
0.000552087 -0.000206592 4.31598e-06
-0.000206592 6.84283e-05 1.78251e-06
4.31598e-06 1.78251e-06 -0.000189186
0.00189478 -7.35e-05 3.54663e-06
-7.35e-05 -2.53546e-05 -1.42119e-07
3.54663e-06 -1.42119e-07 -0.000112433
0.00203907 -0.000225219 -1.10858e-06
-0.000225219 5.90338e-05 -1.78251e-07
-1.10858e-06 -1.78251e-07 -4.64758e-05
0.00211478 -0.000155187 7.69674e-06
-0.000155187 1.45991e-05 -1.10276e-06
7.69674e-06 -1.10276e-06 -2.25912e-05
0.00226255 -0.000350148 3.54674e-06
-0.000350148 0.000111741 -1.08084e-06
3.54674e-06 -1.08084e-06 3.74029e-05
0.00204004 -0.000510202 5.06498e-07
-0.000510202 8.11325e-05 1.82042e-06
5.06498e-07 1.82042e-06 -9.31883e-05
0.002316 -0.000450004 2.56252e-06
-0.000450004 0.000134054 -4.14868e-07
2.56252e-06 -4.14868e-07 6.07499e-05
0.000650937 -0.000275969 1.05398e-05
-0.000275969 -3.6477e-06 -5.47363e-06
1.05398e-05 -5.47363e-06 -0.000288632
0.00221084 -0.000618357 5.96825e-07
-0.000618357 0.000188447 1.47342e-06
5.96825e-07 1.47342e-06 -1.18213e-05
0.00165383 -0.000685279 1.03993e-05
-0.000685279 0.000370537 -5.8817e-07
1.03993e-05 -5.8817e-07 -0.000107207
0.0021552 -0.000824965 1.24689e-05
-0.000824965 0.000413673 6.24811e-06
1.24689e-05 6.24811e-06 -4.95156e-05
0.00252155 -0.000733508 3.14251e-06
-0.000733508 0.000541626 5.60187e-06
3.14251e-06 5.60187e-06 0.000210448
0.00247813 -0.000706196 -2.58103e-07
-0.000706196 0.000435067 1.71654e-06
-2.58103e-07 1.71654e-06 0.000183037
0.000631255 -0.000157104 -1.24805e-06
-0.000157104 0.000177469 -6.56394e-06
-1.24805e-06 -6.56394e-06 -8.63006e-05
0.00186425 -0.000444676 -8.87219e-07
-0.000444676 0.000731656 -1.72615e-06
-8.87219e-07 -1.72615e-06 0.000372006
-0.000935135 -9.17039e-05 6.41476e-06
-9.17039e-05 -0.000822554 -1.43688e-06
6.41476e-06 -1.43688e-06 -0.00113841
0.00232046 -0.000581553 1.02947e-05
-0.000581553 0.00112545 4.2158e-06
1.02947e-05 4.2158e-06 0.000684204
0.00137905 0.000295623 -1.14418e-05
0.000295623 -5.76815e-07 -4.33489e-06
-1.14418e-05 -4.33489e-06 -0.000214076
0.000359807 2.85779e-05 -6.30316e-06
2.85779e-05 -6.93797e-05 -1.6419e-05
-6.30316e-06 -1.6419e-05 -0.000152422
0.000396249 0.000139473 -2.30773e-05
0.000139473 -9.67665e-05 -1.72723e-05
-2.30773e-05 -1.72723e-05 -0.000207984
6.68528e-06 0.000168452 -5.98566e-06
0.000168452 -0.00031069 1.92908e-06
-5.98566e-06 1.92908e-06 -0.000530912
0.00131032 0.000381638 -2.05113e-05
0.000381638 3.86623e-05 -7.6809e-06
-2.05113e-05 -7.6809e-06 -0.000229871
0.00212063 0.000540436 -5.01678e-06
0.000540436 0.000251962 8.05945e-07
-5.01678e-06 8.05945e-07 -1.63307e-05
0.000427428 0.000230131 -9.8237e-06
0.000230131 -0.000153629 -4.31262e-06
-9.8237e-06 -4.31262e-06 -0.000402064
0.00163885 0.000662412 -8.85894e-06
0.000662412 0.000343081 1.6468e-06
-8.85894e-06 1.6468e-06 -0.000114946
0.00218215 0.00065651 -4.59753e-06
0.00065651 0.000460357 2.62076e-06
-4.59753e-06 2.62076e-06 9.59278e-05
0.00167301 0.000697072 8.48683e-06
0.000697072 0.000108523 1.28651e-05
8.48683e-06 1.28651e-05 -0.000280267
0.000382033 1.1842e-05 -3.66935e-06
1.1842e-05 -4.67191e-05 7.87406e-07
-3.66935e-06 7.87406e-07 -0.000118437
0.000590073 0.000232576 3.48924e-08
0.000232576 6.67317e-05 -1.362e-06
3.48924e-08 -1.362e-06 -0.000199175
0.000498778 0.000135228 2.76597e-06
0.000135228 1.47411e-05 -1.51516e-06
2.76597e-06 -1.51516e-06 -0.000190535
0.000557346 0.000191342 -2.51823e-06
0.000191342 5.34867e-05 3.98165e-06
-2.51823e-06 3.98165e-06 -0.000234916
0.00216891 0.000473112 -1.82708e-06
0.000473112 0.000219967 -1.35722e-06
-1.82708e-06 -1.35722e-06 1.39573e-06
0.0020859 0.000602972 -6.80548e-07
0.000602972 0.000311598 -3.13509e-07
-6.80548e-07 -3.13509e-07 -8.37471e-06
0.00222239 0.000602567 5.84996e-08
0.000602567 0.000244302 1.72908e-07
5.84996e-08 1.72908e-07 -4.49152e-06
0.00161912 0.000555312 2.78945e-06
0.000555312 0.00049219 -6.21253e-08
2.78945e-06 -6.21253e-08 7.68397e-05
0.002416 0.00074848 1.23034e-06
0.00074848 0.000527774 8.72252e-07
1.23034e-06 8.72252e-07 0.000171348
0.00195052 0.000789417 -1.07845e-06
0.000789417 0.000456809 -2.10167e-06
-1.07845e-06 -2.10167e-06 -4.4874e-05
0.0021725 0.000721476 -6.71125e-06
0.000721476 0.000336921 2.85414e-06
-6.71125e-06 2.85414e-06 -2.04461e-05
0.000551767 1.50198e-05 5.0412e-06
1.50198e-05 5.08468e-05 1.26074e-05
5.0412e-06 1.26074e-05 -4.31474e-06
0.00124169 0.000110781 3.30263e-07
0.000110781 0.000526345 8.70883e-06
3.30263e-07 8.70883e-06 0.000335362
0.000699025 0.00036912 -6.36376e-06
0.00036912 6.48696e-05 -6.34353e-08
-6.36376e-06 -6.34353e-08 -0.000264594
0.0015484 0.000190413 4.23163e-06
0.000190413 0.00070407 -4.03183e-06
4.23163e-06 -4.03183e-06 0.000411164
0.000972614 0.000140453 -2.04018e-06
0.000140453 0.000196667 1.18302e-05
-2.04018e-06 1.18302e-05 -5.22577e-05
0.00218865 0.000519606 8.99803e-07
0.000519606 0.000144956 -2.42075e-06
8.99803e-07 -2.42075e-06 -4.56068e-05
0.00224689 0.000687497 -1.32333e-06
0.000687497 0.000330856 -2.55356e-06
-1.32333e-06 -2.55356e-06 2.25279e-05
0.00219602 0.000653852 -3.58824e-06
0.000653852 0.00020507 -1.16903e-06
-3.58824e-06 -1.16903e-06 -4.43646e-05
0.00175485 0.000784077 -3.15187e-06
0.000784077 0.000559727 -8.17288e-06
-3.15187e-06 -8.17288e-06 9.14428e-06
0.00259535 0.00081064 -6.61323e-06
0.00081064 0.000564344 -3.95979e-06
-6.61323e-06 -3.95979e-06 0.00021218
0.00187208 0.000831796 4.03794e-06
0.000831796 0.000326671 -7.60093e-06
4.03794e-06 -7.60093e-06 -0.000157082
0.000578051 8.76873e-05 -2.16166e-08
8.76873e-05 0.000106219 7.61649e-06
-2.16166e-08 7.61649e-06 -1.71031e-05
0.000767179 0.000139966 -3.82041e-06
0.000139966 0.000316174 3.41617e-06
-3.82041e-06 3.41617e-06 0.000122709
0.000577461 7.2162e-05 -4.56409e-07
7.2162e-05 0.000110295 5.92902e-06
-4.56409e-07 5.92902e-06 1.65987e-05
0.000469754 2.83419e-05 -1.0574e-06
2.83419e-05 4.32275e-05 1.68268e-07
-1.0574e-06 1.68268e-07 -6.31195e-05
0.00155004 -1.33045e-05 2.14895e-06
-1.33045e-05 0.000702207 6.49564e-06
2.14895e-06 6.49564e-06 0.000667091
0.000979393 7.46166e-07 -1.44084e-07
7.46166e-07 0.000332818 -4.21765e-08
-1.44084e-07 -4.21765e-08 0.000288601
0.000944553 -3.43292e-05 5.69042e-05
-3.43292e-05 0.000307249 1.29273e-05
5.69042e-05 1.29273e-05 0.000300928
0.0036449 -0.000140589 1.19461e-05
-0.000140589 0.00207549 -1.13023e-06
1.19461e-05 -1.13023e-06 0.00206661
0.00396444 -0.000176934 -6.83345e-05
-0.000176934 0.00229981 -6.85637e-06
-6.83345e-05 -6.85637e-06 0.00228076
0.000306002 -0.000119521 1.70281e-05
-0.000119521 -9.2962e-05 -1.58149e-05
1.70281e-05 -1.58149e-05 -0.00017972
0.0054464 0.000174117 0.000139583
0.000174117 0.00328035 -1.79363e-05
0.000139583 -1.79363e-05 0.00325479
0.000486464 -0.000170805 2.07649e-06
-0.000170805 -1.11261e-05 1.14003e-06
2.07649e-06 1.14003e-06 -0.000121174
0.00616243 0.000109628 6.55898e-07
0.000109628 0.00372368 1.08482e-06
6.55898e-07 1.08482e-06 0.00371076
0.000428682 -0.000200977 -2.54871e-05
-0.000200977 -8.46376e-05 2.08131e-05
-2.54871e-05 2.08131e-05 -0.000205373
0.00716113 5.79057e-05 -0.00027973
5.79057e-05 0.00433594 3.29199e-05
-0.00027973 3.29199e-05 0.00433397
0.00135911 0.0002342 -7.55493e-06
0.0002342 -2.13638e-05 -2.63825e-06
-7.55493e-06 -2.63825e-06 -0.000206625
0.00119686 0.000133938 -5.05509e-06
0.000133938 -9.35358e-05 -1.18566e-06
-5.05509e-06 -1.18566e-06 -0.000241807
0.00216889 0.000296429 -2.70783e-06
0.000296429 0.000149043 1.05434e-06
-2.70783e-06 1.05434e-06 2.43131e-05
0.00204492 0.000135688 -2.42886e-06
0.000135688 5.87224e-05 -3.22957e-07
-2.42886e-06 -3.22957e-07 -1.90551e-05
0.00115835 4.804e-05 -8.50252e-06
4.804e-05 -8.29061e-05 -2.52101e-07
-8.50252e-06 -2.52101e-07 -0.000213463
0.000297438 2.86009e-05 -1.78285e-05
2.86009e-05 -0.0002686 -1.14867e-06
-1.78285e-05 -1.14867e-06 -0.000353009
0.00111934 -1.13166e-06 -7.24638e-08
-1.13166e-06 -9.59802e-05 2.86325e-08
-7.24638e-08 2.86325e-08 -0.00022454
0.00206288 6.49011e-05 6.60364e-08
6.49011e-05 7.49489e-05 1.29705e-07
6.60364e-08 1.29705e-07 3.41464e-06
0.00210879 0.000216226 -1.23756e-07
0.000216226 9.52464e-05 1.63015e-07
-1.23756e-07 1.63015e-07 9.94519e-07
0.00218995 0.000155076 -4.01007e-07
0.000155076 4.1714e-05 6.0913e-08
-4.01007e-07 6.0913e-08 2.45606e-05
0.00215893 0.000386646 -8.20934e-07
0.000386646 0.000162647 -2.60782e-07
-8.20934e-07 -2.60782e-07 -5.64241e-06
0.00224337 0.000330719 1.52366e-07
0.000330719 9.07015e-05 6.32176e-08
1.52366e-07 6.32176e-08 1.98508e-05
0.00208506 -5.38262e-06 3.37944e-06
-5.38262e-06 9.51715e-05 2.78428e-07
3.37944e-06 2.78428e-07 2.43037e-05
0.00212001 7.22033e-05 5.06135e-06
7.22033e-05 2.25842e-06 7.80959e-07
5.06135e-06 7.80959e-07 -9.04266e-06
0.00224476 0.0002374 6.3937e-06
0.0002374 8.59027e-05 1.5746e-06
6.3937e-06 1.5746e-06 4.92997e-05
0.00216019 0.000136798 4.393e-06
0.000136798 5.78856e-06 1.50724e-06
4.393e-06 1.50724e-06 1.38271e-05
0.00221046 0.000432984 3.16793e-06
0.000432984 0.000104897 4.60953e-07
3.16793e-06 4.60953e-07 -2.12956e-05
0.00224474 0.000342431 2.19278e-06
0.000342431 -1.1739e-05 2.78952e-07
2.19278e-06 2.78952e-07 -1.976e-05
0.00125215 -3.71744e-05 -1.0664e-05
-3.71744e-05 -8.62489e-06 1.08824e-07
-1.0664e-05 1.08824e-07 -0.000127956
0.00204397 -0.000148196 -2.50427e-05
-0.000148196 0.000487148 2.5376e-06
-2.50427e-05 2.5376e-06 0.000355655
0.00202922 -0.000145229 3.26917e-07
-0.000145229 5.50354e-05 -3.75707e-07
3.26917e-07 -3.75707e-07 -3.17573e-05
0.00187455 -0.000300294 4.46735e-07
-0.000300294 -2.78367e-05 6.34915e-07
4.46735e-07 6.34915e-07 -0.000173102
0.000613955 -0.000283141 -2.86899e-05
-0.000283141 2.30402e-06 2.60327e-05
-2.86899e-05 2.60327e-05 -0.000156971
0.000738438 -0.000365268 -1.5971e-05
-0.000365268 -5.94314e-05 5.95692e-06
-1.5971e-05 5.95692e-06 -0.000380466
0.00184723 -0.000697118 -8.41254e-06
-0.000697118 0.000321711 -6.97939e-07
-8.41254e-06 -6.97939e-07 -0.000122188
0.00213537 -0.000457693 -2.92285e-06
-0.000457693 0.00024916 -1.74683e-07
-2.92285e-06 -1.74683e-07 2.40321e-05
0.00215294 -0.000425759 -9.3359e-07
-0.000425759 8.35367e-05 -8.04913e-08
-9.3359e-07 -8.04913e-08 -3.08722e-05
0.00219587 -0.000578711 -2.20696e-06
-0.000578711 0.000238896 -2.12076e-06
-2.20696e-06 -2.12076e-06 8.64687e-06
0.00245655 -0.000715143 -1.83105e-06
-0.000715143 0.000526878 -7.99502e-06
-1.83105e-06 -7.99502e-06 0.000179518
0.00201826 -0.000648632 1.90641e-06
-0.000648632 0.000137919 -2.81729e-06
1.90641e-06 -2.81729e-06 -0.00012444
0.000846116 -0.000285987 -9.1343e-06
-0.000285987 0.000194586 2.792e-06
-9.1343e-06 2.792e-06 -0.000110527
0.00039939 -0.000211491 -3.13753e-06
-0.000211491 -9.54041e-05 2.49972e-06
-3.13753e-06 2.49972e-06 -0.000409002
0.000572875 -0.000263449 2.59458e-07
-0.000263449 9.00649e-05 7.8459e-06
2.59458e-07 7.8459e-06 -0.000172469
0.00197662 -7.01238e-05 2.59111e-06
-7.01238e-05 2.83748e-05 -1.91607e-07
2.59111e-06 -1.91607e-07 -5.24433e-05
0.00203408 -0.000232647 4.93498e-07
-0.000232647 6.00234e-05 -2.05681e-07
4.93498e-07 -2.05681e-07 -4.53582e-05
0.00216554 -0.000152394 1.20354e-06
-0.000152394 3.86129e-05 -1.15155e-07
1.20354e-06 -1.15155e-07 9.07095e-06
0.00217523 -0.000337811 -1.43044e-06
-0.000337811 6.11766e-05 2.09052e-07
-1.43044e-06 2.09052e-07 -1.64364e-05
0.000788062 -0.000306841 9.13946e-07
-0.000306841 8.13188e-05 -2.07439e-07
9.13946e-07 -2.07439e-07 -0.000217261
0.00177071 -0.000706196 -2.3477e-07
-0.000706196 0.000450237 -1.15298e-06
-2.3477e-07 -1.15298e-06 -3.31553e-05
0.00207402 -0.000812906 1.05096e-06
-0.000812906 0.000371922 1.32076e-06
1.05096e-06 1.32076e-06 -9.39001e-05
0.00207152 -0.000507141 -5.1393e-07
-0.000507141 0.000110505 6.15264e-07
-5.1393e-07 6.15264e-07 -7.0734e-05
0.00227122 -0.000451484 1.66962e-07
-0.000451484 9.08619e-05 -2.07556e-08
1.66962e-07 -2.07556e-08 2.4911e-05
0.00234621 -0.000724353 -9.22319e-07
-0.000724353 0.000414775 4.68568e-07
-9.22319e-07 4.68568e-07 8.37762e-05
0.00217237 -0.000614148 -6.26047e-07
-0.000614148 0.0001616 7.91622e-07
-6.26047e-07 7.91622e-07 -3.80977e-05
0.00236866 -0.00069 1.19244e-06
-0.00069 0.000360022 -6.24114e-07
1.19244e-06 -6.24114e-07 0.000113026
0.000791193 -0.000381304 -2.87205e-06
-0.000381304 8.79396e-05 4.05381e-07
-2.87205e-06 4.05381e-07 -0.000281
0.00154082 -0.000473357 -1.06885e-06
-0.000473357 0.000624813 1.80293e-06
-1.06885e-06 1.80293e-06 0.000205351
0.000828915 -0.00019674 -2.37791e-06
-0.00019674 0.000276209 -2.30871e-06
-2.37791e-06 -2.30871e-06 2.71856e-05
0.000437445 -0.00015921 6.84419e-07
-0.00015921 4.9065e-06 1.85873e-06
6.84419e-07 1.85873e-06 -0.000285376
0.00219503 -8.39512e-05 7.17418e-06
-8.39512e-05 6.94991e-05 -7.36429e-07
7.17418e-06 -7.36429e-07 4.67873e-05
0.00205189 -0.000241004 4.32676e-06
-0.000241004 -5.95028e-05 -1.47814e-06
4.32676e-06 -1.47814e-06 -0.000108408
0.00214588 -0.000141814 4.87457e-06
-0.000141814 2.66091e-05 -1.30458e-06
4.87457e-06 -1.30458e-06 3.84397e-05
0.00224917 -0.000362957 -3.51291e-07
-0.000362957 2.25499e-05 -3.07123e-07
-3.51291e-07 -3.07123e-07 1.25667e-05
0.00221186 -0.000546814 -3.39377e-07
-0.000546814 0.000109358 7.48034e-07
-3.39377e-07 7.48034e-07 -1.87883e-05
0.0023194 -0.000481192 1.57661e-06
-0.000481192 4.96759e-05 -2.14918e-07
1.57661e-06 -2.14918e-07 4.2453e-06
0.00151091 -0.000590311 1.56425e-06
-0.000590311 0.000459527 -8.79869e-07
1.56425e-06 -8.79869e-07 7.16893e-06
0.00225278 -0.000663615 -1.38041e-06
-0.000663615 0.000155836 1.00468e-06
-1.38041e-06 1.00468e-06 -1.11418e-05
0.00188741 -0.000871129 1.58435e-06
-0.000871129 0.000439615 9.08326e-06
1.58435e-06 9.08326e-06 -0.000109296
0.00237469 -0.00087394 7.3716e-06
-0.00087394 0.000511887 5.51076e-06
7.3716e-06 5.51076e-06 4.73442e-05
0.00235313 -0.000732575 -6.82487e-07
-0.000732575 0.000401002 4.73106e-06
-6.82487e-07 4.73106e-06 7.83872e-05
0.00227861 -0.000736144 -4.35338e-06
-0.000736144 0.000240004 -9.38793e-07
-4.35338e-06 -9.38793e-07 -1.68097e-05
0.000578768 -0.000197304 -9.8154e-08
-0.000197304 0.000122511 -9.4232e-06
-9.8154e-08 -9.4232e-06 -9.02824e-05
0.00121489 -0.000261341 2.26708e-07
-0.000261341 0.000552469 2.5568e-06
2.26708e-07 2.5568e-06 0.000190125
0.00133156 -0.000585034 2.49548e-05
-0.000585034 0.000384997 4.0759e-06
2.49548e-05 4.0759e-06 -8.45466e-05
-0.000718733 -0.00013318 2.02231e-05
-0.00013318 -0.000797088 -8.72549e-06
2.02231e-05 -8.72549e-06 -0.00107799
0.00130898 -0.000524914 2.6467e-06
-0.000524914 0.000494141 1.37158e-05
2.6467e-06 1.37158e-05 7.23971e-07
0.000284491 4.67596e-07 -5.67792e-06
4.67596e-07 -0.000106494 -1.37598e-05
-5.67792e-06 -1.37598e-05 -0.000174554
0.00211403 0.0004687 -5.3126e-06
0.0004687 0.000182968 -3.44921e-07
-5.3126e-06 -3.44921e-07 -3.49499e-05
0.000420602 5.88769e-05 1.14054e-06
5.88769e-05 -2.04778e-05 -4.11312e-06
1.14054e-06 -4.11312e-06 -0.000237065
0.000105259 0.000237674 -7.35061e-06
0.000237674 -0.00028421 1.27575e-06
-7.35061e-06 1.27575e-06 -0.000514399
0.000754446 0.000232821 -7.52135e-07
0.000232821 0.000191233 7.72093e-06
-7.52135e-07 7.72093e-06 -0.000108319
0.00205685 0.000601267 -4.89266e-06
0.000601267 0.000292019 1.26741e-06
-4.89266e-06 1.26741e-06 -2.8109e-05
0.00221045 0.000599358 -9.84363e-08
0.000599358 0.00024156 2.02617e-06
-9.84363e-08 2.02617e-06 -6.0786e-06
0.00129176 0.000562278 3.39579e-06
0.000562278 0.000304286 7.70021e-07
3.39579e-06 7.70021e-07 -0.000127496
0.00185009 0.000782736 6.75679e-06
0.000782736 0.000392391 9.61648e-06
6.75679e-06 9.61648e-06 -0.00011077
0.00229779 0.000729227 4.39748e-06
0.000729227 0.000462088 5.93855e-06
4.39748e-06 5.93855e-06 0.000106386
0.00227482 0.00071821 1.1795e-05
0.00071821 0.00040992 1.62721e-05
1.1795e-05 1.62721e-05 6.16996e-05
0.000442866 1.96955e-05 -2.95386e-07
1.96955e-05 -1.59963e-05 6.71089e-08
-2.95386e-07 6.71089e-08 -7.05539e-05
0.000682485 9.20329e-05 -1.71934e-06
9.20329e-05 0.000179284 -3.43338e-08
-1.71934e-06 -3.43338e-08 -1.25298e-05
0.000861409 0.00040139 4.91915e-06
0.00040139 0.000189346 -8.6549e-08
4.91915e-06 -8.6549e-08 -0.000146041
0.000508109 0.000115598 1.82101e-07
0.000115598 5.01449e-05 -3.70182e-06
1.82101e-07 -3.70182e-06 -0.000240833
0.000284035 0.00011998 4.82136e-07
0.00011998 -0.000240329 3.60011e-06
4.82136e-07 3.60011e-06 -0.000498575
0.00223417 0.000523308 -1.87566e-06
0.000523308 0.000177443 -1.63262e-06
-1.87566e-06 -1.63262e-06 -1.3907e-05
0.00221481 0.000683237 3.32464e-07
0.000683237 0.000314105 4.27094e-08
3.32464e-07 4.27094e-08 7.18245e-06
0.00220085 0.00065589 1.46539e-06
0.00065589 0.000213056 2.61701e-07
1.46539e-06 2.61701e-07 -3.70543e-05
0.0018962 0.000802217 1.29421e-06
0.000802217 0.000663338 -2.055e-06
1.29421e-06 -2.055e-06 0.000102981
0.00249721 0.000800312 3.29895e-06
0.000800312 0.000481792 3.57625e-07
3.29895e-06 3.57625e-07 0.000129206
0.00226407 0.00087166 -4.50544e-06
0.00087166 0.000591331 4.12921e-07
-4.50544e-06 4.12921e-07 0.000103337
0.0008933 0.000121052 1.4415e-06
0.000121052 0.000292382 7.70601e-06
1.4415e-06 7.70601e-06 0.000148566
0.002708 0.000407305 9.75893e-09
0.000407305 0.00153974 2.88539e-06
9.75893e-09 2.88539e-06 0.00123518
0.000406117 0.000462305 -1.24682e-06
0.000462305 -0.000113233 1.84766e-06
-1.24682e-06 1.84766e-06 -0.000520197
0.00108361 0.000152169 5.4718e-06
0.000152169 0.000249698 9.56592e-07
5.4718e-06 9.56592e-07 -1.34563e-06
0.0030186 0.000595757 -1.69612e-06
0.000595757 0.00141159 -1.86623e-06
-1.69612e-06 -1.86623e-06 0.00103376
0.00223551 0.000555482 -3.36469e-06
0.000555482 0.000109877 -1.40545e-06
-3.36469e-06 -1.40545e-06 -5.07929e-05
0.00221429 0.000742602 -4.95754e-06
0.000742602 0.000279951 -1.51239e-06
-4.95754e-06 -1.51239e-06 -3.15751e-05
0.00219149 0.000719395 1.2582e-07
0.000719395 0.000170159 -4.13168e-07
1.2582e-07 -4.13168e-07 -8.38693e-05
0.00136213 0.000820411 7.26751e-06
0.000820411 0.00037553 -7.74408e-06
7.26751e-06 -7.74408e-06 -0.000202444
0.00199473 0.000859318 1.25602e-05
0.000859318 0.000299622 -3.51246e-06
1.25602e-05 -3.51246e-06 -0.00014138
0.000607289 7.76615e-05 -4.69041e-07
7.76615e-05 0.000126445 1.8056e-07
-4.69041e-07 1.8056e-07 2.62057e-06
0.000466175 0.000181303 8.06776e-07
0.000181303 6.32582e-05 -2.52771e-07
8.06776e-07 -2.52771e-07 -0.000101972
-0.00020314 9.3016e-05 3.72749e-07
9.3016e-05 -0.000323836 -2.16881e-06
3.72749e-07 -2.16881e-06 -0.000497297
0.00154044 0.000258269 -4.0131e-06
0.000258269 0.000831458 -3.82297e-06
-4.0131e-06 -3.82297e-06 0.000611466
0.00119902 0.000197332 -1.77678e-06
0.000197332 0.000588209 2.84005e-06
-1.77678e-06 2.84005e-06 0.000409995
0.000541321 8.3691e-05 1.0399e-06
8.3691e-05 9.45362e-05 4.59373e-06
1.0399e-06 4.59373e-06 4.87306e-06
0.000549112 3.07203e-05 -1.15905e-06
3.07203e-05 9.77623e-05 -3.53517e-08
-1.15905e-06 -3.53517e-08 3.45319e-06
0.00139547 1.15961e-06 1.78725e-06
1.15961e-06 0.000601953 5.14271e-06
1.78725e-06 5.14271e-06 0.000574171
0.000494628 5.17971e-05 1.33926e-06
5.17971e-05 5.31936e-05 -7.03857e-06
1.33926e-06 -7.03857e-06 -4.80726e-05
0.00148514 -1.12162e-05 -1.2217e-05
-1.12162e-05 0.000659448 -1.95323e-06
-1.2217e-05 -1.95323e-06 0.000627808
0.00072953 -2.40995e-05 4.58542e-05
-2.40995e-05 0.000164185 1.13296e-05
4.58542e-05 1.13296e-05 0.000164003
0.00151826 -2.21536e-06 -2.42929e-05
-2.21536e-06 0.000683866 -8.55488e-06
-2.42929e-05 -8.55488e-06 0.000645455
0.00208154 -7.57446e-05 5.16745e-05
-7.57446e-05 0.00105079 1.29637e-06
5.16745e-05 1.29637e-06 0.00104545
0.00347188 -0.00013975 -5.46179e-05
-0.00013975 0.00196337 -6.41449e-06
-5.46179e-05 -6.41449e-06 0.00195424
0.000237032 4.00033e-05 -1.95439e-06
4.00033e-05 -0.000115491 -1.13157e-05
-1.95439e-06 -1.13157e-05 -0.000180395
0.000392268 -0.000106442 -2.69977e-06
-0.000106442 -3.97435e-05 3.85084e-07
-2.69977e-06 3.85084e-07 -0.0001324
0.0043148 0.000211692 2.97188e-05
0.000211692 0.00254465 -1.01462e-05
2.97188e-05 -1.01462e-05 0.00250955
0.00550638 0.000128219 -1.09565e-05
0.000128219 0.00331256 -5.81091e-07
-1.09565e-05 -5.81091e-07 0.00329642
0.00051788 -0.000172531 -2.32565e-05
-0.000172531 4.95279e-06 1.94165e-05
-2.32565e-05 1.94165e-05 -0.000110448
0.00641029 0.000106723 -0.000230414
0.000106723 0.00389269 3.28174e-05
-0.000230414 3.28174e-05 0.00387652
0.00211922 0.000382121 -3.18439e-06
0.000382121 0.00014223 1.13782e-06
-3.18439e-06 1.13782e-06 -2.53406e-05
0.00211323 0.000216978 -2.0647e-06
0.000216978 0.000100789 -2.56462e-07
-2.0647e-06 -2.56462e-07 6.02449e-06
0.00225191 0.000333451 -5.36863e-06
0.000333451 9.42951e-05 -9.35458e-07
-5.36863e-06 -9.35458e-07 2.23567e-05
0.0021692 0.000149812 -5.56538e-06
0.000149812 1.73653e-05 -1.1751e-06
-5.56538e-06 -1.1751e-06 6.39483e-06
0.00201483 6.49622e-05 -3.41722e-06
6.49622e-05 4.59316e-05 -3.72334e-07
-3.41722e-06 -3.72334e-07 -2.59275e-05
0.00113247 3.45654e-06 -9.34961e-06
3.45654e-06 -8.82999e-05 -1.2837e-07
-9.34961e-06 -1.2837e-07 -0.000216725
0.00205278 -3.28004e-06 1.13963e-07
-3.28004e-06 7.57462e-05 1.31537e-07
1.13963e-07 1.31537e-07 4.54261e-06
0.00213729 6.41401e-05 -5.89599e-07
6.41401e-05 1.71793e-05 -8.53953e-08
-5.89599e-07 -8.53953e-08 4.81921e-06
0.00222698 0.000235332 -1.59663e-07
0.000235332 6.79578e-05 1.65442e-07
-1.59663e-07 1.65442e-07 3.23904e-05
0.00212595 0.000137392 -1.02856e-07
0.000137392 -2.48079e-05 5.45207e-08
-1.02856e-07 5.45207e-08 -1.11323e-05
0.00225646 0.000439575 1.29253e-07
0.000439575 0.00012996 3.39674e-07
1.29253e-07 3.39674e-07 2.11027e-06
0.00223854 0.000333016 2.60676e-08
0.000333016 -1.7385e-05 6.69004e-08
2.60676e-08 6.69004e-08 -2.33015e-05
0.00212323 -9.25824e-06 5.74341e-06
-9.25824e-06 1.14948e-05 -3.37413e-08
5.74341e-06 -3.37413e-08 -2.51273e-06
0.00216731 5.82839e-05 4.11559e-06
5.82839e-05 1.25186e-05 3.76523e-07
4.11559e-06 3.76523e-07 4.00151e-05
0.00217081 0.000211735 9.67297e-07
0.000211735 -2.50997e-05 6.34985e-07
9.67297e-07 6.34985e-07 -2.02741e-05
0.00226055 0.000143401 3.56791e-07
0.000143401 -2.1032e-05 1.13494e-06
3.56791e-07 1.13494e-06 2.80246e-05
0.0022527 0.000445639 8.6683e-07
0.000445639 3.37e-05 3.91121e-07
8.6683e-07 3.91121e-07 -2.89539e-05
0.00237037 0.000331221 5.05356e-07
0.000331221 -1.68572e-05 3.14539e-07
5.05356e-07 3.14539e-07 4.45077e-06
0.00206512 -6.69502e-05 -1.40566e-06
-6.69502e-05 8.70264e-05 -2.17695e-07
-1.40566e-06 -2.17695e-07 1.2465e-05
0.00204573 -0.000238974 1.77264e-06
-0.000238974 7.00654e-05 -3.46177e-07
1.77264e-06 -3.46177e-07 -3.48479e-05
0.0022141 -0.000150223 -3.78494e-06
-0.000150223 6.20835e-05 7.48908e-07
-3.78494e-06 7.48908e-07 4.0274e-05
0.00209528 -0.000326333 -4.9127e-06
-0.000326333 1.66836e-05 1.38846e-06
-4.9127e-06 1.38846e-06 -6.4407e-05
0.000600607 -0.000311615 -1.11024e-05
-0.000311615 -3.05217e-05 6.96282e-06
-1.11024e-05 6.96282e-06 -0.000337588
0.00179466 -0.000706827 -1.18078e-05
-0.000706827 0.000486251 -4.73393e-07
-1.18078e-05 -4.73393e-07 4.10862e-06
0.00192586 -0.000791356 -3.13086e-06
-0.000791356 0.000293588 -4.82316e-06
-3.13086e-06 -4.82316e-06 -0.000172801
0.00210952 -0.000504948 -2.81929e-06
-0.000504948 0.000143756 -4.84941e-07
-2.81929e-06 -4.84941e-07 -4.45477e-05
0.0022234 -0.000452654 -6.45185e-07
-0.000452654 4.64488e-05 -6.11359e-08
-6.45185e-07 -6.11359e-08 -1.26778e-05
0.0021444 -0.000610518 -6.54106e-07
-0.000610518 0.000141128 -6.39237e-07
-6.54106e-07 -6.39237e-07 -5.79703e-05
0.00221017 -0.000723858 3.21517e-07
-0.000723858 0.00031176 -6.42311e-06
3.21517e-07 -6.42311e-06 -2.19595e-05
0.0022981 -0.000683254 3.4948e-06
-0.000683254 0.000308639 -2.71651e-06
3.4948e-06 -2.71651e-06 6.38257e-05
0.000723111 -0.000381703 1.39883e-06
-0.000381703 4.33264e-05 -1.75741e-06
1.39883e-06 -1.75741e-06 -0.000334815
0.000276255 -0.000338405 -1.58489e-05
-0.000338405 -0.000198231 -1.69847e-06
-1.58489e-05 -1.69847e-06 -0.000593521
0.000482259 -0.000196451 -5.98072e-06
-0.000196451 4.13828e-05 5.61512e-06
-5.98072e-06 5.61512e-06 -0.000199465
2.57985e-05 -0.000204349 -3.98152e-06
-0.000204349 -0.000300522 2.20806e-06
-3.98152e-06 2.20806e-06 -0.000563536
0.00220133 -8.43576e-05 -1.39967e-07
-8.43576e-05 7.28245e-05 3.03118e-08
-1.39967e-07 3.03118e-08 4.99401e-05
0.00211166 -0.000245874 2.1505e-06
-0.000245874 -1.4006e-05 -5.06067e-07
2.1505e-06 -5.06067e-07 -6.40412e-05
0.00210487 -0.000140475 3.83849e-07
-0.000140475 -6.2198e-06 -1.47486e-07
3.83849e-07 -1.47486e-07 7.65743e-06
0.00222349 -0.000360485 -4.23555e-07
-0.000360485 1.52754e-05 2.52321e-07
-4.23555e-07 2.52321e-07 -2.24194e-06
0.00150932 -0.000562496 -3.10801e-06
-0.000562496 0.000434243 9.23996e-08
-3.10801e-06 9.23996e-08 -1.67793e-06
0.00185775 -0.000867208 3.21807e-06
-0.000867208 0.000432406 -2.51394e-08
3.21807e-06 -2.51394e-08 -0.000118553
0.00231257 -0.000884573 -4.02714e-07
-0.000884573 0.000469084 6.40047e-07
-4.02714e-07 6.40047e-07 -4.39088e-06
0.00224672 -0.00054541 -1.12563e-06
-0.00054541 0.000142372 2.88054e-07
-1.12563e-06 2.88054e-07 7.36502e-06
0.00229033 -0.000479918 9.01502e-07
-0.000479918 3.16036e-05 -4.15072e-07
9.01502e-07 -4.15072e-07 -7.76923e-06
0.00232416 -0.000735261 -1.08858e-06
-0.000735261 0.00039089 9.06774e-07
-1.08858e-06 9.06774e-07 6.6783e-05
0.00224533 -0.000668256 -1.05384e-06
-0.000668256 0.000140422 8.70233e-07
-1.05384e-06 8.70233e-07 -2.70305e-05
0.00230258 -0.000737322 5.59108e-06
-0.000737322 0.000252898 -4.53795e-06
5.59108e-06 -4.53795e-06 1.57697e-08
0.00151034 -0.000622493 1.49948e-07
-0.000622493 0.000512361 -1.74903e-06
1.49948e-07 -1.74903e-06 2.86711e-05
0.00194967 -0.000616577 2.0427e-06
-0.000616577 0.000885964 2.53629e-06
2.0427e-06 2.53629e-06 0.000392351
0.000996483 -0.000254238 -3.57281e-07
-0.000254238 0.000316464 -5.52874e-06
-3.57281e-07 -5.52874e-06 8.66771e-06
0.000183273 -0.000118065 -2.6072e-06
-0.000118065 -0.000120173 1.34804e-06
-2.6072e-06 1.34804e-06 -0.000335266
-0.000138625 -0.000185825 -1.89471e-06
-0.000185825 -0.000326799 7.14502e-07
-1.89471e-06 7.14502e-07 -0.000663205
0.00209998 -8.53984e-05 2.66334e-06
-8.53984e-05 -2.88055e-05 -7.22046e-07
2.66334e-06 -7.22046e-07 -2.79351e-06
0.00216666 -0.000214129 7.64488e-07
-0.000214129 -2.88171e-05 -1.28577e-06
7.64488e-07 -1.28577e-06 -9.78535e-06
0.00233228 -0.000435304 -1.21004e-06
-0.000435304 -3.58626e-05 -4.79057e-07
-1.21004e-06 -4.79057e-07 -1.64253e-05
0.00229747 -0.000573615 2.86837e-07
-0.000573615 5.81825e-05 6.94474e-07
2.86837e-07 6.94474e-07 -7.55433e-06
0.00163568 -0.000778297 9.59701e-06
-0.000778297 0.000494305 5.33662e-06
9.59701e-06 5.33662e-06 -5.59052e-05
0.00251087 -0.000801792 -5.31221e-06
-0.000801792 0.000204599 -2.66543e-07
-5.31221e-06 -2.66543e-07 2.27184e-06
0.00144032 -0.000907093 -1.27496e-05
-0.000907093 0.00017719 1.00882e-05
-1.27496e-05 1.00882e-05 -0.000400149
0.00255108 -0.000953698 -1.51208e-06
-0.000953698 0.000587982 4.58536e-06
-1.51208e-06 4.58536e-06 0.000101055
0.00201436 -0.000707687 -1.02277e-05
-0.000707687 0.000175385 1.30426e-07
-1.02277e-05 1.30426e-07 -0.000130866
4.142e-05 -7.05644e-05 -8.4322e-07
-7.05644e-05 -0.000201891 -8.27716e-06
-8.4322e-07 -8.27716e-06 -0.000353009
0.000936607 -0.000312275 -4.51866e-06
-0.000312275 0.000464186 -2.07198e-06
-4.51866e-06 -2.07198e-06 0.000110062
0.00339465 -0.000242816 -6.54754e-06
-0.000242816 0.00187397 1.81695e-08
-6.54754e-06 1.81695e-08 0.00153888
0.00203744 -0.0007556 -2.01529e-07
-0.0007556 0.00083551 6.69226e-06
-2.01529e-07 6.69226e-06 0.000299723
0.000489132 -0.000339066 1.56445e-05
-0.000339066 -6.264e-05 -2.66985e-06
1.56445e-05 -2.66985e-06 -0.000449551
0.00213612 -0.000702851 -1.84201e-06
-0.000702851 0.000986152 1.62341e-05
-1.84201e-06 1.62341e-05 0.000440518
0.000385596 2.0524e-05 -4.50839e-06
2.0524e-05 -5.04226e-05 -1.2431e-05
-4.50839e-06 -1.2431e-05 -0.000104865
0.000155643 7.57681e-05 -1.24974e-06
7.57681e-05 -0.000149642 -8.29439e-06
-1.24974e-06 -8.29439e-06 -0.000339328
0.00227948 0.000527 -4.18465e-06
0.000527 0.000210094 -8.04599e-07
-4.18465e-06 -8.04599e-07 1.79325e-05
-0.000943885 1.41833e-05 -2.25714e-06
1.41833e-05 -0.000849489 6.80676e-07
-2.25714e-06 6.80676e-07 -0.00114612
0.00237344 0.000494919 1.03448e-05
0.000494919 0.00114656 -4.75488e-06
1.03448e-05 -4.75488e-06 0.000811545
0.000294424 0.00015435 -7.23891e-06
0.00015435 -0.000240802 -3.09753e-06
-7.23891e-06 -3.09753e-06 -0.000523126
0.00217963 0.000678224 2.07148e-06
0.000678224 0.000296445 2.57491e-06
2.07148e-06 2.57491e-06 -8.84265e-06
0.00221413 0.000658794 3.48054e-06
0.000658794 0.000225212 9.89827e-07
3.48054e-06 9.89827e-07 -2.57129e-05
0.00188319 0.000796173 6.68964e-06
0.000796173 0.000671465 6.19677e-06
6.68964e-06 6.19677e-06 0.000108759
0.00259647 0.000896609 -2.88195e-06
0.000896609 0.000821608 7.61025e-06
-2.88195e-06 7.61025e-06 0.000336274
0.0023911 0.000791462 5.1757e-06
0.000791462 0.00039133 4.53556e-06
5.1757e-06 4.53556e-06 3.76198e-05
0.000682085 0.000112035 7.95513e-07
0.000112035 0.000158876 1.27516e-07
7.95513e-07 1.27516e-07 1.91114e-05
0.000778308 0.000213814 -1.69415e-06
0.000213814 0.000301959 4.1104e-07
-1.69415e-06 4.1104e-07 2.09403e-05
0.000881963 0.000531565 6.43529e-07
0.000531565 0.000172352 9.22168e-07
6.43529e-07 9.22168e-07 -0.000264119
0.000717676 9.0601e-05 -6.50287e-07
9.0601e-05 2.31608e-05 -5.19596e-07
-6.50287e-07 -5.19596e-07 -0.000227096
0.00144742 0.000389752 2.90337e-06
0.000389752 0.000359284 -5.34532e-06
2.90337e-06 -5.34532e-06 3.01605e-05
0.00222688 0.000556174 -2.24329e-06
0.000556174 0.000117645 -1.1331e-06
-2.24329e-06 -1.1331e-06 -4.4472e-05
0.00229154 0.000751149 2.54179e-06
0.000751149 0.00031597 6.54055e-07
2.54179e-06 6.54055e-07 2.62498e-06
0.00222431 0.000723194 1.27526e-06
0.000723194 0.000175494 2.42736e-07
1.27526e-06 2.42736e-07 -8.04397e-05
0.00173612 0.000885585 2.23807e-06
0.000885585 0.00057602 1.02535e-06
2.23807e-06 1.02535e-06 -1.22815e-05
0.0020009 0.000865314 -2.05578e-06
0.000865314 0.000333677 -2.53578e-06
-2.05578e-06 -2.53578e-06 -0.000115322
0.00159364 0.00029027 3.25893e-06
0.00029027 0.00080608 3.12958e-06
3.25893e-06 3.12958e-06 0.00058306
-0.000458033 9.89646e-05 1.30055e-06
9.89646e-05 -0.000473354 -5.09099e-07
1.30055e-06 -5.09099e-07 -0.000788847
0.00148664 0.000687604 1.12899e-06
0.000687604 0.000549482 -6.16163e-06
1.12899e-06 -6.16163e-06 4.59753e-05
-0.00126559 0.000207739 5.68879e-06
0.000207739 -0.00134423 1.24618e-06
5.68879e-06 1.24618e-06 -0.00161407
0.0028166 0.000731372 2.54191e-06
0.000731372 0.00115745 -5.52577e-06
2.54191e-06 -5.52577e-06 0.000727735
0.00242266 0.000648699 -2.76351e-06
0.000648699 0.000115011 -1.98318e-07
-2.76351e-06 -1.98318e-07 5.46385e-06
0.0023024 0.000805291 8.6949e-06
0.000805291 0.000276424 -3.09101e-06
8.6949e-06 -3.09101e-06 -7.44715e-05
0.00224062 0.000745456 6.83785e-06
0.000745456 0.000113904 8.94564e-07
6.83785e-06 8.94564e-07 -0.000160782
0.00201099 0.000942013 1.51412e-05
0.000942013 0.000673084 3.91177e-07
1.51412e-05 3.91177e-07 8.9458e-05
0.00232521 0.00101726 7.97119e-06
0.00101726 0.00056927 -7.44912e-08
7.97119e-06 -7.44912e-08 5.02323e-05
0.000503182 6.31135e-05 1.05489e-06
6.31135e-05 5.6739e-05 -8.04641e-06
1.05489e-06 -8.04641e-06 -6.25781e-05
0.000865825 0.000154949 7.32402e-07
0.000154949 0.000325622 -1.45056e-06
7.32402e-07 -1.45056e-06 0.000154489
-5.51883e-05 0.000103457 -2.89917e-06
0.000103457 -0.000267329 -9.01905e-06
-2.89917e-06 -9.01905e-06 -0.000398267
-0.000515343 -1.77783e-05 4.3088e-06
-1.77783e-05 -0.00054516 -1.67534e-06
4.3088e-06 -1.67534e-06 -0.000697647
0.00055051 9.72638e-05 -1.36263e-06
9.72638e-05 0.000154404 3.62995e-07
-1.36263e-06 3.62995e-07 -3.11991e-06
0.000269576 0.000108763 2.00229e-06
0.000108763 -1.01711e-05 -3.82956e-07
2.00229e-06 -3.82956e-07 -0.000189509
0.000592522 0.000184337 -1.57861e-06
0.000184337 0.000184615 -1.15865e-05
-1.57861e-06 -1.15865e-05 1.82954e-05
0.000334336 3.03816e-05 -5.04956e-06
3.03816e-05 4.98368e-05 1.28446e-06
-5.04956e-06 1.28446e-06 -0.000141636
0.000730949 0.000123182 -8.35829e-07
0.000123182 0.000247885 2.15314e-06
-8.35829e-07 2.15314e-06 0.000113405
0.000512324 8.73912e-05 2.20975e-06
8.73912e-05 7.61184e-05 4.43218e-06
2.20975e-06 4.43218e-06 -1.3793e-05
0.000459473 3.32124e-05 -2.86786e-06
3.32124e-05 3.59736e-05 1.13137e-07
-2.86786e-06 1.13137e-07 -5.02653e-05
0.00134245 6.90327e-06 2.26986e-06
6.90327e-06 0.000568927 4.48516e-06
2.26986e-06 4.48516e-06 0.000544934
0.000284902 -7.79833e-05 5.93464e-06
-7.79833e-05 -6.35242e-05 -5.22766e-06
5.93464e-06 -5.22766e-06 -0.000161391
0.00141019 2.86253e-07 -1.05801e-05
2.86253e-07 0.000610076 -1.81456e-06
-1.05801e-05 -1.81456e-06 0.000584823
0.000733364 -1.80127e-05 3.78542e-05
-1.80127e-05 0.000165702 1.02137e-05
3.78542e-05 1.02137e-05 0.000168882
0.0014761 -3.38077e-06 -1.80695e-05
-3.38077e-06 0.000651134 -9.66048e-06
-1.80695e-05 -9.66048e-06 0.000622111
0.000747235 -3.507e-05 1.75762e-05
-3.507e-05 0.000175846 4.08341e-06
1.75762e-05 4.08341e-06 0.000171059
0.00315599 -0.000136958 2.56351e-06
-0.000136958 0.00175134 -4.29068e-06
2.56351e-06 -4.29068e-06 0.00174194
0.000262015 7.6688e-05 -5.26555e-06
7.6688e-05 -8.82775e-05 -8.43577e-06
-5.26555e-06 -8.43577e-06 -0.000145229
0.000359836 -2.61398e-05 -4.01279e-06
-2.61398e-05 -4.3139e-05 6.2441e-07
-4.01279e-06 6.2441e-07 -0.000110163
0.00349012 0.000200771 -2.52176e-05
0.000200771 0.00200714 -1.12979e-05
-2.52176e-05 -1.12979e-05 0.00198043
0.000670143 -0.000137761 -1.71787e-05
-0.000137761 0.000132632 1.49037e-05
-1.71787e-05 1.49037e-05 3.68896e-05
0.00477166 0.000160003 -4.47746e-05
0.000160003 0.00283436 -5.40987e-08
-4.47746e-05 -5.40987e-08 0.00281261
0.00583109 0.000136198 -0.000186675
0.000136198 0.00353352 3.04455e-05
-0.000186675 3.04455e-05 0.00351125
0.002299 0.000445894 -4.23295e-06
0.000445894 0.00015262 -2.4828e-07
-4.23295e-06 -2.4828e-07 2.31909e-05
0.00221603 0.000232513 -6.08203e-06
0.000232513 5.58689e-05 -1.04143e-06
-6.08203e-06 -1.04143e-06 2.14851e-05
0.00223576 0.000323692 -2.62881e-07
0.000323692 -2.06072e-05 -2.9039e-07
-2.62881e-07 -2.9039e-07 -2.44413e-05
0.00209086 0.000138293 -9.92191e-07
0.000138293 -5.5387e-05 -9.88825e-07
-9.92191e-07 -9.88825e-07 -3.63612e-05
0.00215309 5.72174e-05 -6.35254e-06
5.72174e-05 3.12207e-05 -3.88967e-07
-6.35254e-06 -3.88967e-07 1.76377e-05
0.00202733 -1.74012e-06 -3.31087e-06
-1.74012e-06 6.0326e-05 -5.27162e-08
-3.31087e-06 -5.27162e-08 -1.11253e-05
0.00216066 -1.09597e-05 1.32003e-07
-1.09597e-05 4.1318e-05 -4.74621e-09
1.32003e-07 -4.74621e-09 2.50855e-05
0.00215151 6.05309e-05 9.07308e-07
6.05309e-05 6.7074e-06 1.35696e-08
9.07308e-07 1.35696e-08 2.97028e-05
0.00219238 0.000212546 -3.40611e-07
0.000212546 -4.50905e-06 -1.06366e-08
-3.40611e-07 -1.06366e-08 -1.07159e-08
0.0022198 0.000143411 5.85854e-07
0.000143411 -5.29907e-05 9.27359e-08
5.85854e-07 9.27359e-08 3.70095e-06
0.00227708 0.000445711 -4.65624e-07
0.000445711 5.54458e-05 1.57327e-07
-4.65624e-07 1.57327e-07 -8.6845e-06
0.00233989 0.000333775 2.22924e-06
0.000333775 -3.55404e-05 6.53332e-07
2.22924e-06 6.53332e-07 -6.80567e-06
0.00209702 -1.53489e-05 2.80136e-06
-1.53489e-05 -2.70067e-05 -1.09504e-07
2.80136e-06 -1.09504e-07 -6.65529e-06
0.00224043 7.0711e-05 2.99343e-07
7.0711e-05 -5.07445e-05 4.40293e-07
2.99343e-07 4.40293e-07 1.96776e-05
0.00232183 0.000217571 -2.51505e-06
0.000217571 -3.70138e-05 3.87041e-07
-2.51505e-06 3.87041e-07 1.86988e-05
0.00245228 0.000476722 -2.1386e-06
0.000476722 9.17388e-06 -2.18377e-07
-2.1386e-06 -2.18377e-07 2.59137e-05
0.00220709 -8.47896e-05 -7.39946e-06
-8.47896e-05 7.55846e-05 8.06853e-07
-7.39946e-06 8.06853e-07 5.25325e-05
0.00216055 -0.000251287 -3.27403e-06
-0.000251287 2.47067e-05 8.23737e-07
-3.27403e-06 8.23737e-07 -2.66621e-05
0.00205799 -0.000139649 -2.71397e-06
-0.000139649 -4.28883e-05 9.23843e-07
-2.71397e-06 9.23843e-07 -2.72466e-05
0.00220124 -0.000358367 -3.27854e-06
-0.000358367 8.64006e-06 8.02262e-07
-3.27854e-06 8.02262e-07 -1.61007e-05
0.00112544 -0.000528291 -1.69884e-07
-0.000528291 0.000180444 -1.44104e-06
-1.69884e-07 -1.44104e-06 -0.00024923
0.0018898 -0.000868658 2.86303e-06
-0.000868658 0.000461833 -8.44923e-06
2.86303e-06 -8.44923e-06 -9.13686e-05
0.00230835 -0.000903401 -3.89683e-06
-0.000903401 0.000461383 -5.5595e-06
-3.89683e-06 -5.5595e-06 -2.35604e-05
0.00228103 -0.000543625 -3.41947e-06
-0.000543625 0.000175612 3.66832e-07
-3.41947e-06 3.66832e-07 3.43199e-05
0.00225969 -0.000478963 2.0671e-06
-0.000478963 1.2197e-05 -2.58445e-07
2.0671e-06 -2.58445e-07 -2.06386e-05
0.00222978 -0.000670713 -1.13419e-06
-0.000670713 0.000121818 5.25352e-07
-1.13419e-06 5.25352e-07 -4.59006e-05
0.0022772 -0.000727877 -8.7088e-07
-0.000727877 0.000369348 -3.36903e-06
-8.7088e-07 -3.36903e-06 4.7552e-05
0.00235861 -0.000738044 9.19711e-06
-0.000738044 0.000288277 -3.23342e-06
9.19711e-06 -3.23342e-06 3.67261e-05
0.00146006 -0.00061149 -2.71428e-05
-0.00061149 0.000523781 -3.81793e-06
-2.71428e-05 -3.81793e-06 3.90139e-05
0.000599409 -0.000462453 1.97086e-06
-0.000462453 3.82505e-06 -1.35771e-05
1.97086e-06 -1.35771e-05 -0.000451019
0.00331542 -0.000384371 -9.02205e-06
-0.000384371 0.00175182 -2.81926e-06
-9.02205e-06 -2.81926e-06 0.0014478
-9.96444e-05 -7.16875e-05 3.30959e-06
-7.16875e-05 -0.000299705 6.41185e-06
3.30959e-06 6.41185e-06 -0.000511989
-8.60582e-05 -0.000125169 5.65905e-06
-0.000125169 -0.00027488 -4.37715e-06
5.65905e-06 -4.37715e-06 -0.000608967
0.00208055 -9.27486e-05 1.4426e-08
-9.27486e-05 -4.17171e-05 -1.08435e-07
1.4426e-08 -1.08435e-07 -1.68228e-05
0.00218767 -0.00021548 1.69623e-06
-0.00021548 -1.86718e-05 -6.75611e-09
1.69623e-06 -6.75611e-09 -5.31239e-07
0.00231995 -0.000428347 -8.3571e-07
-0.000428347 -2.59123e-05 2.70653e-07
-8.3571e-07 2.70653e-07 -1.46116e-05
0.00184794 -0.000784158 -1.69369e-06
-0.000784158 0.000624738 -2.4436e-07
-1.69369e-06 -2.4436e-07 7.93564e-05
0.00158715 -0.000905171 5.76763e-06
-0.000905171 0.00027134 -8.79463e-07
5.76763e-06 -8.79463e-07 -0.000301714
0.00239266 -0.000954283 -1.52483e-06
-0.000954283 0.000491757 1.39541e-07
-1.52483e-06 1.39541e-07 -1.2052e-06
0.00230396 -0.000568741 4.50798e-07
-0.000568741 6.70748e-05 -3.31605e-07
4.50798e-07 -3.31605e-07 -4.88334e-07
0.00222925 -0.000751222 3.21484e-06
-0.000751222 0.000276416 -4.42587e-06
3.21484e-06 -4.42587e-06 -3.48997e-05
0.00246555 -0.000782567 -1.04005e-06
-0.000782567 0.000209574 -5.37754e-07
-1.04005e-06 -5.37754e-07 1.44304e-05
-0.00037694 9.9922e-06 -1.7734e-06
9.9922e-06 -0.000489556 -4.64228e-07
-1.7734e-06 -4.64228e-07 -0.000622735
0.00149809 -0.000670551 -1.21627e-08
-0.000670551 0.000527652 -1.06538e-06
-1.21627e-08 -1.06538e-06 2.977e-06
0.00118613 -0.000592081 -4.68837e-06
-0.000592081 0.000400866 -9.90222e-07
-4.68837e-06 -9.90222e-07 -0.000147942
0.00109632 -0.000351681 -3.54316e-06
-0.000351681 0.000322161 3.55873e-06
-3.54316e-06 3.55873e-06 -7.9207e-05
0.00181628 -0.000443781 1.08821e-06
-0.000443781 0.000909175 -9.54256e-07
1.08821e-06 -9.54256e-07 0.000539519
0.000374646 -0.000168432 -5.09709e-07
-0.000168432 8.89226e-05 8.6721e-07
-5.09709e-07 8.6721e-07 -0.000249386
0.00219604 -0.000116491 -4.76916e-07
-0.000116491 -6.09035e-05 -9.7744e-07
-4.76916e-07 -9.7744e-07 -2.79853e-06
0.00236154 -0.000289321 -9.21467e-07
-0.000289321 -7.53265e-05 -9.33348e-07
-9.21467e-07 -9.33348e-07 5.03904e-06
0.00240874 -0.000531798 -1.01218e-06
-0.000531798 -2.41592e-05 1.53974e-07
-1.01218e-06 1.53974e-07 3.84314e-06
0.00244176 -0.00068881 -1.5191e-06
-0.00068881 4.26719e-05 3.49835e-07
-1.5191e-06 3.49835e-07 8.3791e-07
0.002027 -0.000891299 -5.43766e-06
-0.000891299 0.000729815 6.42963e-06
-5.43766e-06 6.42963e-06 0.00014241
0.00247804 -0.000903063 -6.58546e-06
-0.000903063 0.000293926 -3.04175e-06
-6.58546e-06 -3.04175e-06 -6.84113e-06
0.00215278 -0.00106844 -5.43519e-05
-0.00106844 0.000604648 1.08782e-05
-5.43519e-05 1.08782e-05 -2.84318e-05
0.00221272 -0.00098046 -2.81179e-05
-0.00098046 0.000403577 5.39032e-06
-2.81179e-05 5.39032e-06 -9.85622e-05
-0.000244837 4.55489e-05 -5.29513e-06
4.55489e-05 -0.000409592 -5.68182e-06
-5.29513e-06 -5.68182e-06 -0.000507601
0.00105273 -4.86045e-05 -2.23165e-06
-4.86045e-05 0.000518196 -2.23252e-06
-2.23165e-06 -2.23252e-06 0.000265064
0.0024382 -0.000469732 -1.14031e-05
-0.000469732 0.00143022 -2.25798e-06
-1.14031e-05 -2.25798e-06 0.00104195
-8.23311e-05 -0.000288804 -4.92363e-06
-0.000288804 -0.00031896 -7.74067e-06
-4.92363e-06 -7.74067e-06 -0.000690209
0.00299968 -0.000891143 -8.5483e-06
-0.000891143 0.0014365 1.76599e-05
-8.5483e-06 1.76599e-05 0.00085698
0.0017442 -0.000666227 7.41369e-06
-0.000666227 0.000758938 1.58356e-05
7.41369e-06 1.58356e-05 0.000143466
0.000531122 9.32412e-05 1.64224e-07
9.32412e-05 6.55572e-05 -8.33764e-06
1.64224e-07 -8.33764e-06 -7.29903e-05
-0.000697906 7.57868e-05 4.77747e-07
7.57868e-05 -0.000645266 -1.41139e-06
4.77747e-07 -1.41139e-06 -0.000908321
0.00221768 0.000557232 -1.35647e-06
0.000557232 0.000124117 -9.36324e-07
-1.35647e-06 -9.36324e-07 -3.95568e-05
0.000365208 6.03061e-05 -5.01214e-06
6.03061e-05 -0.000187668 3.32331e-06
-5.01214e-06 3.32331e-06 -0.000440195
0.00156739 0.000626301 6.34655e-06
0.000626301 0.000594376 -4.0128e-06
6.34655e-06 -4.0128e-06 0.000122775
0.000106458 0.000186882 -7.57429e-06
0.000186882 -0.000490191 -6.10576e-06
-7.57429e-06 -6.10576e-06 -0.000757479
0.00236519 0.000759505 5.24214e-06
0.000759505 0.000349104 1.76702e-06
5.24214e-06 1.76702e-06 3.39485e-05
0.00224107 0.000724844 -3.03266e-06
0.000724844 0.000172168 2.29346e-07
-3.03266e-06 2.29346e-07 -8.49694e-05
0.00208847 0.000946646 -3.99122e-06
0.000946646 0.000764142 5.82964e-06
-3.99122e-06 5.82964e-06 0.000165784
0.00205066 0.00087505 -7.55256e-06
0.00087505 0.000399827 2.51581e-06
-7.55256e-06 2.51581e-06 -5.91259e-05
0.000741498 0.000207903 -7.1797e-07
0.000207903 0.000253078 -4.94116e-07
-7.1797e-07 -4.94116e-07 4.19054e-05
0.000526129 0.0002115 2.04204e-06
0.0002115 0.000140949 -1.59765e-06
2.04204e-06 -1.59765e-06 -0.000186144
0.00132278 0.00065432 -3.01588e-06
0.00065432 0.000451706 -7.38424e-07
-3.01588e-06 -7.38424e-07 -4.20668e-05
0.00141854 0.000300213 -2.30202e-06
0.000300213 0.000336031 1.95769e-06
-2.30202e-06 1.95769e-06 6.63478e-05
0.00254879 0.000663105 -8.72713e-08
0.000663105 0.000974715 -5.69357e-07
-8.72713e-08 -5.69357e-07 0.000565815
0.00245693 0.000657191 -2.41072e-06
0.000657191 0.000117729 -6.15063e-07
-2.41072e-06 -6.15063e-07 5.27555e-06
0.00247345 0.000801275 2.98199e-06
0.000801275 0.000390176 -7.98837e-07
2.98199e-06 -7.98837e-07 4.9939e-05
0.00251739 0.00077404 6.03232e-07
0.00077404 0.000285604 2.61953e-06
6.03232e-07 2.61953e-06 4.43788e-06
0.00189404 0.000938481 4.89428e-06
0.000938481 0.000597554 1.2248e-06
4.89428e-06 1.2248e-06 9.00783e-06
0.00227877 0.00105334 -4.81604e-06
0.00105334 0.000545587 9.86751e-07
-4.81604e-06 9.86751e-07 2.40584e-06
-0.00172512 2.64453e-05 -8.08602e-06
2.64453e-05 -0.00129328 2.38064e-06
-8.08602e-06 2.38064e-06 -0.00148986
-0.00247855 0.000143317 -2.30519e-06
0.000143317 -0.00165176 -2.8116e-06
-2.30519e-06 -2.8116e-06 -0.00201929
0.00187502 0.000771242 7.28027e-06
0.000771242 0.000695232 -3.9903e-06
7.28027e-06 -3.9903e-06 0.000179454
0.00171279 0.000476887 5.39799e-06
0.000476887 0.000435011 -3.02694e-06
5.39799e-06 -3.02694e-06 0.000106846
0.00263777 0.000631035 5.17986e-09
0.000631035 -0.000103412 2.46555e-07
5.17986e-09 2.46555e-07 -1.87766e-05
0.0026313 0.000791631 6.55239e-06
0.000791631 0.000238644 1.1712e-06
6.55239e-06 1.1712e-06 3.86068e-05
0.0025526 0.000969599 9.36186e-06
0.000969599 0.000443729 -4.16802e-06
9.36186e-06 -4.16802e-06 -9.8711e-06
0.00187456 0.00104381 6.42334e-06
0.00104381 0.000418563 -5.24916e-07
6.42334e-06 -5.24916e-07 -0.000199599
0.00127842 0.000202529 1.58684e-06
0.000202529 0.000619686 1.76906e-06
1.58684e-06 1.76906e-06 0.000420152
0.000499389 0.000198685 -3.74454e-06
0.000198685 0.000119545 -1.27244e-07
-3.74454e-06 -1.27244e-07 -3.84266e-05
0.0010939 0.000146486 -9.98944e-06
0.000146486 0.000509957 -6.74042e-06
-9.98944e-06 -6.74042e-06 0.000395924
0.000196094 4.85186e-05 1.63303e-06
4.85186e-05 -9.81894e-05 -3.27185e-06
1.63303e-06 -3.27185e-06 -0.000235008
-0.00110746 5.8206e-05 5.35533e-07
5.8206e-05 -0.00085939 2.22576e-06
5.35533e-07 2.22576e-06 -0.00104002
0.000697659 7.45432e-05 -9.74884e-07
7.45432e-05 0.000228257 -2.37683e-09
-9.74884e-07 -2.37683e-09 9.19893e-05
0.00066301 0.000207516 2.23642e-06
0.000207516 0.000267559 1.59887e-06
2.23642e-06 1.59887e-06 9.2418e-05
0.000563426 9.84761e-05 9.22231e-07
9.84761e-05 0.00022024 1.66273e-06
9.22231e-07 1.66273e-06 9.05835e-06
0.000569317 0.000150288 1.01214e-06
0.000150288 0.000105026 -1.15918e-05
1.01214e-06 -1.15918e-05 1.80034e-05
0.000616134 6.54684e-05 -6.94432e-07
6.54684e-05 0.000243308 -7.50088e-06
-6.94432e-07 -7.50088e-06 3.79596e-05
-0.000113486 6.97094e-05 -1.19614e-06
6.97094e-05 -0.000251803 2.95077e-06
-1.19614e-06 2.95077e-06 -0.000430132
0.000722474 0.000134745 2.00554e-06
0.000134745 0.000240558 4.14788e-06
2.00554e-06 4.14788e-06 0.000102074
0.000445923 9.18294e-05 2.4539e-06
9.18294e-05 3.99156e-05 4.22326e-06
2.4539e-06 4.22326e-06 -5.55594e-05
0.000429679 2.08206e-05 -1.70902e-06
2.08206e-05 1.94247e-05 -4.36294e-07
-1.70902e-06 -4.36294e-07 -6.76605e-05
0.00127039 1.2797e-05 2.26963e-07
1.2797e-05 0.000527819 3.61664e-06
2.26963e-07 3.61664e-06 0.000503975
0.000422429 -4.43476e-05 2.00349e-06
-4.43476e-05 8.41009e-06 -4.09554e-06
2.00349e-06 -4.09554e-06 -7.47238e-05
0.00133821 1.27164e-07 -9.50892e-06
1.27164e-07 0.000566582 -1.79083e-06
-9.50892e-06 -1.79083e-06 0.000543483
0.000659547 -8.14082e-06 3.45395e-05
-8.14082e-06 0.000120666 1.02601e-05
3.45395e-05 1.02601e-05 0.000124875
0.00137003 -2.83282e-05 -1.16404e-05
-2.83282e-05 0.000585349 -8.31418e-06
-1.16404e-05 -8.31418e-06 0.000560981
0.000724514 -2.47198e-05 1.47998e-05
-2.47198e-05 0.000158726 3.81549e-06
1.47998e-05 3.81549e-06 0.000159134
0.000703333 -3.90071e-05 2.2718e-06
-3.90071e-05 0.000148791 -4.42936e-06
2.2718e-06 -4.42936e-06 0.00014172
0.000322598 4.636e-05 -2.46854e-06
4.636e-05 -7.82834e-05 -6.79391e-06
-2.46854e-06 -6.79391e-06 -0.00011496
0.000425345 5.97268e-05 -1.46467e-06
5.97268e-05 3.71798e-06 1.01072e-07
-1.46467e-06 1.01072e-07 -4.77715e-05
0.00282598 0.000146304 -9.79443e-06
0.000146304 0.00155907 -8.14944e-06
-9.79443e-06 -8.14944e-06 0.00154752
0.000469557 -3.23569e-05 -1.13724e-05
-3.23569e-05 2.71993e-05 1.27775e-05
-1.13724e-05 1.27775e-05 -4.40318e-05
0.00363904 0.000165336 -2.53902e-05
0.000165336 0.00209019 -2.11253e-06
-2.53902e-05 -2.11253e-06 0.00207047
0.00482623 7.89231e-05 -0.000170741
7.89231e-05 0.00285972 2.33469e-05
-0.000170741 2.33469e-05 0.00285689
0.00229777 0.000445311 -6.96991e-07
0.000445311 7.56161e-05 3.31742e-08
-6.96991e-07 3.31742e-08 1.01459e-05
0.0022128 0.000213531 -2.37717e-06
0.000213531 1.44051e-05 -1.24038e-06
-2.37717e-06 -1.24038e-06 1.85744e-05
0.002306 0.000335618 2.17819e-06
0.000335618 -5.66221e-05 1.24644e-06
2.17819e-06 1.24644e-06 -2.04412e-05
0.00218587 0.000143731 1.25513e-06
0.000143731 -8.07546e-05 -7.82791e-07
1.25513e-06 -7.82791e-07 -1.59411e-05
0.00213602 6.26988e-05 -3.25027e-06
6.26988e-05 6.14041e-07 -5.54224e-07
-3.25027e-06 -5.54224e-07 1.94121e-05
0.00219853 -1.4106e-05 -7.84397e-06
-1.4106e-05 7.10335e-05 2.60259e-07
-7.84397e-06 2.60259e-07 5.26988e-05
0.002112 -1.43297e-05 4.20141e-07
-1.43297e-05 -1.59119e-05 4.66457e-09
4.20141e-07 4.66457e-09 5.54899e-06
0.00221485 7.41935e-05 7.54729e-07
7.41935e-05 -6.32821e-05 4.24211e-08
7.54729e-07 4.24211e-08 5.42156e-06
0.00230311 0.000223508 1.01477e-06
0.000223508 -5.17426e-05 2.46097e-07
1.01477e-06 2.46097e-07 7.57586e-06
0.00242558 0.000462653 4.51532e-07
0.000462653 -1.30886e-05 1.57298e-07
4.51532e-07 1.57298e-07 7.63222e-06
0.00218044 -1.69705e-05 -5.54109e-07
-1.69705e-05 -7.6749e-05 -2.92001e-07
-5.54109e-07 -2.92001e-07 -1.38869e-05
0.0023501 0.000122985 -3.66012e-06
0.000122985 -9.6514e-05 9.74017e-07
-3.66012e-06 9.74017e-07 2.19309e-05
0.00257175 0.000337371 -2.9281e-06
0.000337371 -3.6012e-05 -4.14797e-07
-2.9281e-06 -4.14797e-07 5.41986e-05
0.0020652 -0.000100163 -2.07659e-06
-0.000100163 -5.20453e-05 6.91958e-07
-2.07659e-06 6.91958e-07 -2.81206e-05
0.00220719 -0.000216237 -1.72083e-06
-0.000216237 -8.71189e-06 7.31687e-07
-1.72083e-06 7.31687e-07 8.65643e-06
0.00230614 -0.000421055 -4.34684e-08
-0.000421055 -1.59026e-05 3.26137e-07
-4.34684e-08 3.26137e-07 -1.36453e-05
0.00194684 -0.000791547 -9.78046e-06
-0.000791547 0.000657994 -6.24317e-06
-9.78046e-06 -6.24317e-06 0.000114812
0.00181333 -0.000908344 1.52256e-05
-0.000908344 0.000414648 -1.00174e-05
1.52256e-05 -1.00174e-05 -0.000153639
0.00224234 -0.000954173 3.2058e-06
-0.000954173 0.000403965 -3.34803e-06
3.2058e-06 -3.34803e-06 -9.33441e-05
0.00231223 -0.000565015 -4.26927e-07
-0.000565015 7.56951e-05 -1.5649e-07
-4.26927e-07 -1.5649e-07 6.33409e-06
0.00240947 -0.000763801 4.85437e-06
-0.000763801 0.000201457 -4.90655e-07
4.85437e-06 -4.90655e-07 1.85419e-05
0.00240289 -0.00079329 9.5385e-06
-0.00079329 0.000352468 -7.54034e-06
9.5385e-06 -7.54034e-06 3.75088e-05
0.0013173 -0.000634962 -6.99299e-06
-0.000634962 0.000431008 -7.51744e-06
-6.99299e-06 -7.51744e-06 -9.16029e-05
0.00219805 -0.000745829 -9.6015e-07
-0.000745829 0.00101009 -1.98281e-05
-9.6015e-07 -1.98281e-05 0.000445563
0.0026654 -0.000482084 -1.50604e-05
-0.000482084 0.00137031 1.77363e-05
-1.50604e-05 1.77363e-05 0.000911506
0.00011988 2.44626e-05 5.91668e-06
2.44626e-05 -0.00016917 4.54755e-06
5.91668e-06 4.54755e-06 -0.000302737
0.00110797 -0.00044478 6.09902e-06
-0.00044478 0.000442779 -5.35703e-06
6.09902e-06 -5.35703e-06 7.98707e-05
-0.000225246 -4.40407e-05 8.46617e-06
-4.40407e-05 -0.000307186 9.02227e-07
8.46617e-06 9.02227e-07 -0.000633921
0.00220735 -0.000111779 -3.23818e-07
-0.000111779 -5.30319e-05 7.82339e-08
-3.23818e-07 7.82339e-08 3.39954e-06
0.00234032 -0.000300176 4.48836e-07
-0.000300176 -9.44025e-05 8.83343e-08
4.48836e-07 8.83343e-08 -1.15158e-05
0.0024095 -0.000522632 -6.2564e-07
-0.000522632 -1.94172e-05 1.69125e-07
-6.2564e-07 1.69125e-07 7.08837e-06
0.00204335 -0.000896405 -1.32461e-06
-0.000896405 0.000732449 1.25492e-06
-1.32461e-06 1.25492e-06 0.000145885
0.00197153 -0.00103278 9.25619e-06
-0.00103278 0.000507435 -1.83799e-06
9.25619e-06 -1.83799e-06 -0.000111882
0.00237512 -0.000976948 -1.69401e-06
-0.000976948 0.00050203 -2.27337e-06
-1.69401e-06 -2.27337e-06 1.48704e-05
0.00243798 -0.000699706 4.91624e-07
-0.000699706 4.30039e-05 -1.15355e-07
4.91624e-07 -1.15355e-07 -1.01299e-05
0.00239824 -0.00087414 2.25725e-06
-0.00087414 0.000267803 -1.55889e-06
2.25725e-06 -1.55889e-06 -1.67293e-05
0.000225939 6.90454e-05 -2.69643e-06
6.90454e-05 -0.000102757 -2.15252e-06
-2.69643e-06 -2.15252e-06 -0.000200577
0.000778281 -7.42613e-05 -1.62358e-06
-7.42613e-05 0.000323572 7.45554e-07
-1.62358e-06 7.45554e-07 8.6176e-05
0.00124643 -0.000672453 -3.3868e-06
-0.000672453 0.000377488 1.01039e-06
-3.3868e-06 1.01039e-06 -0.000141278
0.00173902 -0.000625747 -6.25433e-06
-0.000625747 0.000795615 2.1884e-06
-6.25433e-06 2.1884e-06 0.000189691
0.00119329 -0.000224855 1.42995e-06
-0.000224855 0.000443402 -4.68229e-06
1.42995e-06 -4.68229e-06 7.69599e-05
0.00155411 -0.000359545 -1.95707e-06
-0.000359545 0.000859864 2.29134e-06
-1.95707e-06 2.29134e-06 0.000484937
0.00232206 -0.000146332 -2.67287e-06
-0.000146332 -0.000108045 -1.21079e-06
-2.67287e-06 -1.21079e-06 1.10681e-05
0.00252211 -0.000442267 -1.94415e-06
-0.000442267 -0.000142719 -7.63233e-07
-1.94415e-06 -7.63233e-07 1.2366e-05
0.00248078 -0.000657306 1.65081e-06
-0.000657306 -4.25592e-05 5.70772e-08
1.65081e-06 5.70772e-08 -1.8159e-05
0.00260124 -0.000888779 1.36733e-06
-0.000888779 0.000176659 -5.18421e-07
1.36733e-06 -5.18421e-07 1.82672e-05
0.00103629 -0.000792341 -7.44367e-06
-0.000792341 0.000154485 -2.70789e-06
-7.44367e-06 -2.70789e-06 -0.000397148
0.00255277 -0.00106859 -1.27575e-06
-0.00106859 0.000515989 9.54712e-07
-1.27575e-06 9.54712e-07 5.22304e-05
0.00238643 -0.00119021 -6.28333e-05
-0.00119021 0.000672998 7.65238e-06
-6.28333e-05 7.65238e-06 6.30698e-06
0.000570006 4.81373e-05 -5.16852e-07
4.81373e-05 9.7138e-05 -3.2278e-06
-5.16852e-07 -3.2278e-06 2.22718e-05
0.000833604 -0.000173454 4.00143e-06
-0.000173454 0.000346886 -6.24809e-06
4.00143e-06 -6.24809e-06 0.000199464
9.55311e-05 7.6225e-05 -7.23562e-06
7.6225e-05 -0.000136018 -3.12104e-06
-7.23562e-06 -3.12104e-06 -0.000288018
0.000955256 -0.000106946 -6.8122e-06
-0.000106946 0.000457785 1.01947e-07
-6.8122e-06 1.01947e-07 0.000161996
0.00069922 -0.000193784 -8.58986e-06
-0.000193784 0.000228817 -1.41274e-05
-8.58986e-06 -1.41274e-05 -9.78751e-05
0.00157222 -0.000374784 -4.07191e-06
-0.000374784 0.000838933 -5.44042e-06
-4.07191e-06 -5.44042e-06 0.00032717
0.00118784 -0.000724995 -1.72873e-05
-0.000724995 0.0003391 4.05707e-05
-1.72873e-05 4.05707e-05 -0.000187753
0.00340796 -0.000811828 -2.315e-05
-0.000811828 0.0019134 2.17991e-05
-2.315e-05 2.17991e-05 0.0011286
0.000178073 9.43267e-05 1.19297e-06
9.43267e-05 -0.00013238 -1.06716e-06
1.19297e-06 -1.06716e-06 -0.000316692
0.00189856 0.000366892 8.04639e-07
0.000366892 0.000986714 2.04708e-06
8.04639e-07 2.04708e-06 0.000648405
0.00249597 0.000667033 -5.10563e-07
0.000667033 0.000122987 -9.76291e-07
-5.10563e-07 -9.76291e-07 6.48121e-06
0.00181583 0.000231395 -2.06089e-06
0.000231395 0.000541124 -2.46085e-06
-2.06089e-06 -2.46085e-06 0.000273237
0.00130081 0.000639862 3.95609e-07
0.000639862 0.000442076 1.85018e-07
3.95609e-07 1.85018e-07 -4.85428e-05
0.00264228 0.000646688 -2.37143e-06
0.000646688 0.00101642 7.32463e-06
-2.37143e-06 7.32463e-06 0.000613812
0.00263469 0.000794713 -4.73381e-06
0.000794713 0.000498412 5.04766e-08
-4.73381e-06 5.04766e-08 0.000169925
0.00282909 0.000806178 -5.63875e-06
0.000806178 0.000479707 6.56992e-06
-5.63875e-06 6.56992e-06 0.000191508
0.00171752 0.000929124 -4.19202e-06
0.000929124 0.000483246 2.2093e-06
-4.19202e-06 2.2093e-06 -0.000108008
0.00211265 0.00107857 -1.44092e-05
0.00107857 0.000450148 -7.85251e-07
-1.44092e-05 -7.85251e-07 -0.000114367
-0.000353068 0.000102725 1.99861e-06
0.000102725 -0.000391365 1.65219e-06
1.99861e-06 1.65219e-06 -0.000632565
0.000333523 0.000375566 5.67324e-06
0.000375566 0.000130874 -1.76447e-06
5.67324e-06 -1.76447e-06 -0.000267715
0.00170117 0.000767966 5.12842e-07
0.000767966 0.000554071 -3.16715e-07
5.12842e-07 -3.16715e-07 2.96271e-05
0.00210292 0.000532092 -6.19416e-06
0.000532092 0.000725381 2.0657e-07
-6.19416e-06 2.0657e-07 0.000373749
0.00259394 0.000607005 1.44498e-07
0.000607005 -0.000164797 -9.78424e-07
1.44498e-07 -9.78424e-07 -5.78245e-05
0.00274525 0.000807134 3.22096e-06
0.000807134 0.000301333 -5.48537e-07
3.22096e-06 -5.48537e-07 8.71013e-05
0.0023429 0.000926142 -3.38917e-06
0.000926142 0.000356822 9.24642e-10
-3.38917e-06 9.24642e-10 -8.11531e-05
0.00222292 0.00107306 2.16572e-06
0.00107306 0.000608251 4.09339e-07
2.16572e-06 4.09339e-07 -5.94288e-06
-0.000734281 3.05611e-05 -5.309e-06
3.05611e-05 -0.000608908 -1.43781e-06
-5.309e-06 -1.43781e-06 -0.000802656
0.00251666 0.000428243 -1.15185e-06
0.000428243 -0.000232702 -1.64324e-06
-1.15185e-06 -1.64324e-06 -9.66436e-05
0.00249233 0.000646179 -6.77486e-06
0.000646179 0.0014424 8.54431e-06
-6.77486e-06 8.54431e-06 0.000974667
0.00174782 0.000745113 4.37846e-07
0.000745113 0.000494854 -3.82619e-06
4.37846e-07 -3.82619e-06 7.23775e-06
0.00269832 0.000786381 -1.58992e-05
0.000786381 4.55036e-05 -1.01082e-05
-1.58992e-05 -1.01082e-05 6.16659e-05
0.00129701 0.000845588 6.16794e-06
0.000845588 -0.000350504 -1.02861e-05
6.16794e-06 -1.02861e-05 -0.000750915
0.00309201 0.00120878 3.93594e-06
0.00120878 0.00104923 4.34847e-06
3.93594e-06 4.34847e-06 0.000405436
0.000171201 0.000141224 7.62e-07
0.000141224 -6.7474e-05 3.30304e-06
7.62e-07 3.30304e-06 -0.00023587
0.000428478 0.000141038 -2.24921e-06
0.000141038 0.000103046 -7.74081e-07
-2.24921e-06 -7.74081e-07 -1.64128e-05
0.000310857 0.00010005 -4.07096e-06
0.00010005 5.58532e-05 -4.95082e-06
-4.07096e-06 -4.95082e-06 -3.05186e-05
0.000265707 6.36403e-06 2.10772e-06
6.36403e-06 -5.57432e-05 -3.67288e-06
2.10772e-06 -3.67288e-06 -0.000184988
0.00052167 0.000109849 3.19204e-06
0.000109849 0.000188657 -3.63226e-06
3.19204e-06 -3.63226e-06 -1.79012e-05
-0.000459869 0.000164805 -5.17492e-06
0.000164805 -0.00039607 1.3392e-05
-5.17492e-06 1.3392e-05 -0.0005603
0.000504736 3.07437e-05 -1.7101e-06
3.07437e-05 0.000102243 -1.13245e-07
-1.7101e-06 -1.13245e-07 -3.64958e-05
0.000206638 7.01174e-06 -3.68904e-07
7.01174e-06 -2.68258e-05 -5.64548e-07
-3.68904e-07 -5.64548e-07 -0.000220161
-5.20016e-06 9.30527e-05 -5.77966e-06
9.30527e-05 -0.000220743 3.12877e-06
-5.77966e-06 3.12877e-06 -0.000294848
0.00077431 0.000157571 1.89636e-06
0.000157571 0.000357667 -1.57217e-06
1.89636e-06 -1.57217e-06 0.00014146
0.00200954 0.000214845 -1.36679e-06
0.000214845 0.00101363 -1.0585e-05
-1.36679e-06 -1.0585e-05 0.000952194
-0.000300922 2.34343e-05 1.31225e-05
2.34343e-05 -0.000385501 -1.36616e-05
1.31225e-05 -1.36616e-05 -0.000487068
0.000509178 0.000128961 -1.01496e-07
0.000128961 0.000194543 2.02113e-06
-1.01496e-07 2.02113e-06 -2.38557e-05
0.000532272 7.04755e-05 -2.16673e-07
7.04755e-05 0.000155188 3.32182e-06
-2.16673e-07 3.32182e-06 -4.28892e-05
0.000536986 2.40886e-05 1.71967e-06
2.40886e-05 0.000106905 3.31636e-06
1.71967e-06 3.31636e-06 -3.23175e-05
0.000479986 -7.42459e-05 -1.8812e-06
-7.42459e-05 5.322e-05 3.11674e-06
-1.8812e-06 3.11674e-06 -3.9342e-05
0.000457131 1.60777e-05 6.62618e-07
1.60777e-05 3.28702e-05 -4.81491e-07
6.62618e-07 -4.81491e-07 -5.3705e-05
0.00132231 2.82399e-05 3.56856e-06
2.82399e-05 0.000566371 3.83723e-06
3.56856e-06 3.83723e-06 0.000542388
0.000457234 1.55095e-05 1.40256e-06
1.55095e-05 2.24234e-05 -4.06405e-06
1.40256e-06 -4.06405e-06 -5.50741e-05
0.00134582 1.95914e-05 -9.89167e-06
1.95914e-05 0.000578066 -1.97869e-06
-9.89167e-06 -1.97869e-06 0.000553763
0.000752286 -2.07077e-06 3.02963e-05
-2.07077e-06 0.000185896 9.63992e-06
3.02963e-05 9.63992e-06 0.000189176
0.00132486 -1.44039e-05 -1.00482e-05
-1.44039e-05 0.000557059 -7.9068e-06
-1.00482e-05 -7.9068e-06 0.000535328
0.000747111 -1.52485e-05 1.23193e-05
-1.52485e-05 0.000174382 3.80136e-06
1.23193e-05 3.80136e-06 0.000176258
0.00075753 -2.95445e-05 1.80569e-06
-2.95445e-05 0.000177666 -3.46207e-06
1.80569e-06 -3.46207e-06 0.000176565
0.000544393 -1.78326e-05 3.31627e-08
-1.78326e-05 7.0204e-05 -3.76387e-06
3.31627e-08 -3.76387e-06 7.32717e-06
0.000296825 3.02163e-05 -9.30139e-07
3.02163e-05 -0.000102778 -5.96397e-06
-9.30139e-07 -5.96397e-06 -0.000130702
0.0003552 4.27691e-05 9.97548e-07
4.27691e-05 -5.55685e-05 4.62512e-07
9.97548e-07 4.62512e-07 -9.31884e-05
0.00274172 0.00011704 1.62559e-06
0.00011704 0.00149112 -6.49164e-06
1.62559e-06 -6.49164e-06 0.00148779
0.000354169 3.18546e-05 1.78365e-06
3.18546e-05 -5.58721e-05 9.81277e-06
1.78365e-06 9.81277e-06 -0.000101781
0.00314538 0.000164396 -5.14797e-06
0.000164396 0.00177021 -6.13123e-07
-5.14797e-06 -6.13123e-07 0.00175469
0.0040064 0.000116519 -7.49341e-05
0.000116519 0.00231523 9.6361e-06
-7.49341e-05 9.6361e-06 0.00230606
0.00240034 0.000449246 2.35375e-06
0.000449246 -3.4221e-05 5.86586e-07
2.35375e-06 5.86586e-07 -9.94068e-06
0.00228389 0.000230195 1.69051e-06
0.000230195 -6.67014e-05 -3.40083e-07
1.69051e-06 -3.40083e-07 -4.14025e-06
0.00218604 7.80605e-05 2.64956e-07
7.80605e-05 -7.75867e-05 -6.78767e-07
2.64956e-07 -6.78767e-07 -1.09797e-05
0.00212673 -1.29715e-05 -3.58127e-06
-1.29715e-05 -4.22817e-06 8.41699e-08
-3.58127e-06 8.41699e-08 1.81549e-05
0.00219802 -1.196e-05 -4.75273e-07
-1.196e-05 -6.91863e-05 1.2387e-07
-4.75273e-07 1.2387e-07 -2.79106e-06
0.00232393 0.000117531 7.44086e-07
0.000117531 -0.000106699 5.58675e-07
7.44086e-07 5.58675e-07 9.31108e-06
0.00247283 0.000348648 -7.19844e-07
0.000348648 -8.2338e-05 -3.89219e-07
-7.19844e-07 -3.89219e-07 8.02831e-06
0.00229895 -1.45178e-05 -1.25665e-06
-1.45178e-05 -0.000133641 -3.72554e-07
-1.25665e-06 -3.72554e-07 -2.04064e-06
0.0026462 0.000165402 -4.77064e-06
0.000165402 -7.69641e-05 2.42376e-07
-4.77064e-06 2.42376e-07 6.97032e-05
0.002399 0.000141921 -8.11682e-07
0.000141921 -0.000225612 5.49894e-06
-8.11682e-07 5.49894e-06 -8.24687e-05
0.00222875 -0.000107106 1.60859e-08
-0.000107106 -3.84712e-05 8.85783e-07
1.60859e-08 8.85783e-07 1.58361e-05
0.00233179 -0.000311548 -1.55467e-07
-0.000311548 -0.00010672 4.64382e-07
-1.55467e-07 4.64382e-07 -2.00214e-05
0.00240366 -0.000511522 1.46721e-06
-0.000511522 -1.70863e-05 -1.28311e-07
1.46721e-06 -1.28311e-07 7.71212e-06
0.00174241 -0.000861068 -1.05765e-06
-0.000861068 0.000542434 -3.23124e-06
-1.05765e-06 -3.23124e-06 -3.45463e-05
0.00178022 -0.001006 3.64009e-05
-0.001006 0.000391283 -6.95748e-06
3.64009e-05 -6.95748e-06 -0.000219408
0.00249202 -0.00097393 1.55194e-05
-0.00097393 0.000561171 -5.48709e-06
1.55194e-05 -5.48709e-06 8.74953e-05
0.00241617 -0.000705896 3.22967e-06
-0.000705896 3.78206e-05 -8.63598e-07
3.22967e-06 -8.63598e-07 -2.88965e-05
0.00234319 -0.000844659 9.43388e-06
-0.000844659 0.000263806 -7.21405e-07
9.43388e-06 -7.21405e-07 -7.37177e-06
0.000754943 -0.000601375 -1.58419e-07
-0.000601375 0.000103277 -2.3411e-05
-1.58419e-07 -2.3411e-05 -0.000424472
0.00119601 -0.000517619 5.53191e-06
-0.000517619 0.000521237 -2.0538e-05
5.53191e-06 -2.0538e-05 -7.86293e-05
-0.000318128 -0.000173307 4.21537e-07
-0.000173307 -0.000553109 7.26502e-06
4.21537e-07 7.26502e-06 -0.000900598
0.00044281 1.32021e-05 9.20671e-07
1.32021e-05 3.32158e-05 4.03422e-06
9.20671e-07 4.03422e-06 -6.01448e-05
-2.82872e-05 -1.45109e-05 6.83939e-06
-1.45109e-05 -0.000208241 2.16149e-06
6.83939e-06 2.16149e-06 -0.000426731
0.00105411 -0.00030065 2.51865e-06
-0.00030065 0.000532158 7.46203e-06
2.51865e-06 7.46203e-06 0.000164308
0.00231856 -0.000149759 2.67902e-07
-0.000149759 -0.000122292 2.76103e-07
2.67902e-07 2.76103e-07 1.71419e-06
0.000445272 1.94676e-07 1.85367e-06
1.94676e-07 1.48032e-05 4.03331e-07
1.85367e-06 4.03331e-07 -5.9382e-05
0.000323628 -8.7224e-05 -4.21338e-06
-8.7224e-05 -2.65266e-05 -1.2623e-06
-4.21338e-06 -1.2623e-06 -0.000146304
0.00249547 -0.000429261 -3.71966e-07
-0.000429261 -0.000131009 -2.39457e-07
-3.71966e-07 -2.39457e-07 6.8145e-06
0.00245665 -0.000640397 -1.95641e-06
-0.000640397 -3.90401e-05 3.96176e-07
-1.95641e-06 3.96176e-07 -9.15321e-06
0.00208584 -0.000955411 1.47486e-06
-0.000955411 0.000771892 2.17807e-06
1.47486e-06 2.17807e-06 0.000170355
0.00243578 -0.00119967 1.0912e-05
-0.00119967 0.000705229 -1.45697e-06
1.0912e-05 -1.45697e-06 3.70988e-05
0.00240204 -0.00104873 1.91197e-06
-0.00104873 0.0004185 -3.1572e-06
1.91197e-06 -3.1572e-06 -3.10225e-05
0.00252135 -0.000885324 2.35439e-06
-0.000885324 0.000126591 -9.42973e-07
2.35439e-06 -9.42973e-07 -2.52111e-05
0.000624584 1.40917e-06 -1.56622e-06
1.40917e-06 0.000217452 -8.69391e-07
-1.56622e-06 -8.69391e-07 5.2167e-05
0.000744139 -0.000121515 5.45837e-07
-0.000121515 0.000322326 1.87169e-06
5.45837e-07 1.87169e-06 2.80089e-05
0.00136386 -0.000715289 1.08336e-05
-0.000715289 0.000487391 1.20457e-05
1.08336e-05 1.20457e-05 -3.79178e-05
0.00209606 -0.000669502 2.64951e-05
-0.000669502 0.00109893 -1.50155e-05
2.64951e-05 -1.50155e-05 0.00038851
0.000755761 -0.000254672 -3.33666e-06
-0.000254672 0.000301677 -6.18737e-08
-3.33666e-06 -6.18737e-08 -0.000170186
-0.000156257 -0.000232301 2.63308e-06
-0.000232301 -0.000298456 -2.59359e-06
2.63308e-06 -2.59359e-06 -0.000628483
0.00233871 -0.000171133 -3.24483e-06
-0.000171133 -0.000324538 3.78397e-06
-3.24483e-06 3.78397e-06 -0.000139731
0.00255284 -0.000564703 -6.86979e-07
-0.000564703 -0.000250893 1.05288e-06
-6.86979e-07 1.05288e-06 6.49067e-06
0.00287936 -0.000920775 -5.43928e-06
-0.000920775 0.000145617 -7.01093e-07
-5.43928e-06 -7.01093e-07 0.000105654
0.00277561 -0.00113638 8.24329e-06
-0.00113638 0.000384013 -9.43755e-07
8.24329e-06 -9.43755e-07 7.40158e-05
0.00117976 -0.000908508 -9.47946e-08
-0.000908508 0.000314004 -7.77444e-06
-9.47946e-08 -7.77444e-06 -0.000294065
0.0036579 -0.00146382 -9.12722e-06
-0.00146382 0.001245 5.92876e-06
-9.12722e-06 5.92876e-06 0.000543026
0.000253225 6.76358e-05 -4.12025e-06
6.76358e-05 -7.86658e-05 -8.86079e-06
-4.12025e-06 -8.86079e-06 -0.000198381
0.000365682 -6.07695e-05 7.05301e-06
-6.07695e-05 5.85755e-07 -3.59583e-06
7.05301e-06 -3.59583e-06 -0.000109783
0.00186102 -0.000242547 -9.10589e-06
-0.000242547 0.000929335 1.31684e-05
-9.10589e-06 1.31684e-05 0.000763917
0.000266846 3.23171e-05 -4.85e-06
3.23171e-05 -2.98426e-05 5.88331e-07
-4.85e-06 5.88331e-07 -0.000237155
0.00117768 -0.000243317 -1.17782e-05
-0.000243317 0.000590728 6.57541e-06
-1.17782e-05 6.57541e-06 0.000252626
-0.0004548 -9.01773e-05 1.29417e-06
-9.01773e-05 -0.000560261 -2.51143e-05
1.29417e-06 -2.51143e-05 -0.000834237
-0.00160778 -0.000292433 -1.01897e-05
-0.000292433 -0.00071395 5.47324e-06
-1.01897e-05 5.47324e-06 -0.00167807
0.000971613 -0.000897127 -5.7359e-05
-0.000897127 0.000118627 3.27764e-05
-5.7359e-05 3.27764e-05 -0.0002884
-5.74817e-05 0.00024446 1.0209e-07
0.00024446 -0.000146333 -1.24375e-06
1.0209e-07 -1.24375e-06 -0.000440649
0.00368398 0.000583627 -1.57006e-05
0.000583627 0.00219573 -6.51614e-06
-1.57006e-05 -6.51614e-06 0.00180811
0.00253941 0.000579573 -2.83628e-06
0.000579573 -0.000224893 2.09742e-08
-2.83628e-06 2.09742e-08 -9.75381e-05
0.00282832 0.00081878 -5.7591e-06
0.00081878 0.000347603 -1.35021e-06
-5.7591e-06 -1.35021e-06 0.000120128
0.00292301 0.00057986 -6.46554e-06
0.00057986 0.00125953 2.75262e-06
-6.46554e-06 2.75262e-06 0.000907309
0.00150766 0.00076399 -1.00418e-05
0.00076399 0.000399094 -2.56291e-07
-1.00418e-05 -2.56291e-07 -0.000133786
0.00218412 0.000887727 -6.03817e-06
0.000887727 0.000298243 2.41566e-06
-6.03817e-06 2.41566e-06 -0.000125635
0.00259462 0.00110026 -1.0979e-05
0.00110026 0.000811422 -1.2858e-06
-1.0979e-05 -1.2858e-06 0.000201713
-1.49601e-05 0.000192771 2.4662e-06
0.000192771 -9.8218e-05 -1.4603e-07
2.4662e-06 -1.4603e-07 -0.000353783
0.00255934 0.000414354 -1.35662e-06
0.000414354 -0.000206046 -2.57217e-06
-1.35662e-06 -2.57217e-06 -5.68125e-05
0.0015328 0.000479408 3.64283e-06
0.000479408 0.000854671 7.27988e-06
3.64283e-06 7.27988e-06 0.00045075
0.00157415 0.000708055 3.49109e-06
0.000708055 0.000424208 1.92375e-06
3.49109e-06 1.92375e-06 -5.43531e-05
0.00281326 0.000764868 7.40455e-07
0.000764868 0.000152475 -4.17556e-07
7.40455e-07 -4.17556e-07 0.000161008
0.00198298 0.00093279 -2.46444e-06
0.00093279 4.50877e-05 -6.06366e-06
-2.46444e-06 -6.06366e-06 -0.000370632
0.00256307 0.00111259 -1.6122e-06
0.00111259 0.000765036 -4.26509e-07
-1.6122e-06 -4.26509e-07 0.000146567
0.00177331 0.000418795 -6.11992e-06
0.000418795 0.00113059 -3.23574e-06
-6.11992e-06 -3.23574e-06 0.000789441
0.00406418 0.000735039 -0.000100869
0.000735039 0.000616907 -3.77204e-05
-0.000100869 -3.77204e-05 0.00089163
0.00102678 0.000576524 -1.13551e-05
0.000576524 0.000467312 8.91467e-06
-1.13551e-05 8.91467e-06 1.19941e-05
0.00133551 0.000775402 -7.60629e-06
0.000775402 0.000245557 -1.06208e-05
-7.60629e-06 -1.06208e-05 -0.000295518
0.00336086 0.00108582 -4.26121e-05
0.00108582 0.000661716 -2.41349e-05
-4.26121e-05 -2.41349e-05 0.000384378
0.0010346 0.000917293 -3.1363e-05
0.000917293 -0.00011076 -3.08215e-06
-3.1363e-05 -3.08215e-06 -0.000654211
0.00150961 0.00142516 1.12878e-05
0.00142516 -0.00213021 -6.35268e-05
1.12878e-05 -6.35268e-05 -0.00114153
0.000240482 0.00017631 8.34265e-06
0.00017631 2.36279e-05 6.83356e-06
8.34265e-06 6.83356e-06 -0.000111514
0.000247378 0.000132834 2.68531e-06
0.000132834 4.92034e-05 1.00391e-06
2.68531e-06 1.00391e-06 -5.6228e-05
0.000218145 0.000111937 2.01784e-06
0.000111937 8.47882e-06 -7.25037e-06
2.01784e-06 -7.25037e-06 -8.57399e-05
0.000352502 -6.61154e-05 2.20667e-06
-6.61154e-05 9.75915e-06 -4.76645e-06
2.20667e-06 -4.76645e-06 -0.000131058
0.000135014 -1.04848e-05 4.24396e-07
-1.04848e-05 -7.31436e-05 -3.04448e-06
4.24396e-07 -3.04448e-06 -0.000265878
0.00156324 0.000277308 -2.3062e-07
0.000277308 0.000862186 3.8514e-07
-2.3062e-07 3.8514e-07 0.000635098
-0.000647836 6.03013e-05 -7.72374e-06
6.03013e-05 -0.000596979 2.31138e-05
-7.72374e-06 2.31138e-05 -0.000665436
0.000479871 -1.54737e-05 -1.60914e-07
-1.54737e-05 8.82334e-05 -2.88792e-07
-1.60914e-07 -2.88792e-07 -6.04922e-05
0.000395117 8.9247e-05 1.80849e-07
8.9247e-05 3.81595e-05 -4.74054e-07
1.80849e-07 -4.74054e-07 -0.000133843
0.000579391 0.0001442 4.93325e-06
0.0001442 0.000124989 3.42023e-06
4.93325e-06 3.42023e-06 7.80581e-05
0.000326812 8.63003e-05 1.15481e-06
8.63003e-05 5.03197e-05 7.33739e-07
1.15481e-06 7.33739e-07 -0.000148326
0.00050273 8.99866e-05 1.94019e-07
8.99866e-05 0.00011136 -1.89362e-06
1.94019e-07 -1.89362e-06 -3.16172e-06
0.000725174 0.000140857 -1.59724e-06
0.000140857 0.000290962 -1.64807e-05
-1.59724e-06 -1.64807e-05 0.00020794
0.000920339 0.000170624 -3.57731e-06
0.000170624 0.000355938 -8.19722e-06
-3.57731e-06 -8.19722e-06 0.000198476
0.00105372 0.000155263 9.26921e-07
0.000155263 0.000494948 3.25127e-06
9.26921e-07 3.25127e-06 0.000293736
0.000823281 0.000128575 -2.12311e-06
0.000128575 0.000326137 -3.10819e-07
-2.12311e-06 -3.10819e-07 0.000130701
0.000194354 -2.30428e-05 -2.35101e-06
-2.30428e-05 -0.000122748 1.01228e-06
-2.35101e-06 1.01228e-06 -0.000261714
0.00133871 -0.000128766 1.55073e-06
-0.000128766 0.000737512 -2.35907e-06
1.55073e-06 -2.35907e-06 0.000495158
8.14382e-05 -5.34107e-05 -5.84201e-07
-5.34107e-05 -0.000183994 3.27897e-06
-5.84201e-07 3.27897e-06 -0.000327202
0.000397137 3.20257e-06 -2.22223e-06
3.20257e-06 7.52113e-06 3.04442e-06
-2.22223e-06 3.04442e-06 -8.83898e-05
0.000422432 4.44207e-05 2.4537e-06
4.44207e-05 2.17299e-05 -8.57812e-08
2.4537e-06 -8.57812e-08 -7.34434e-05
0.000327737 2.05881e-05 -1.99477e-06
2.05881e-05 -6.77622e-05 5.01498e-06
-1.99477e-06 5.01498e-06 -9.66478e-05
0.000355412 -1.27207e-07 -1.05389e-06
-1.27207e-07 -2.02111e-05 -4.30384e-06
-1.05389e-06 -4.30384e-06 -0.000114564
0.000854047 1.74042e-05 -4.39018e-06
1.74042e-05 0.000267008 -1.52276e-06
-4.39018e-06 -1.52276e-06 0.000240826
0.00266186 3.21262e-06 2.79933e-05
3.21262e-06 0.00141741 6.01605e-06
2.79933e-05 6.01605e-06 0.00142953
0.00141239 4.8634e-05 -1.63703e-05
4.8634e-05 0.000623745 -8.04099e-06
-1.63703e-05 -8.04099e-06 0.000598279
0.000766164 -6.07219e-06 1.1721e-05
-6.07219e-06 0.000191072 3.76757e-06
1.1721e-05 3.76757e-06 0.000193264
0.000836236 -1.95188e-05 1.57363e-06
-1.95188e-05 0.00022819 -3.28378e-06
1.57363e-06 -3.28378e-06 0.000229112
0.000417642 9.98852e-06 -2.70499e-06
9.98852e-06 -1.19514e-06 -4.74505e-06
-2.70499e-06 -4.74505e-06 -6.31076e-05
0.000519734 -4.10379e-05 5.53e-07
-4.10379e-05 6.21049e-05 -2.31771e-07
5.53e-07 -2.31771e-07 -5.44965e-06
0.00042162 2.42562e-05 -5.02787e-07
2.42562e-05 -3.14183e-05 -4.83102e-06
-5.02787e-07 -4.83102e-06 -5.21076e-05
0.000792103 4.78805e-05 1.03434e-07
4.78805e-05 0.000219071 1.6449e-07
1.03434e-07 1.6449e-07 0.000191554
0.00249965 8.90262e-05 1.86506e-06
8.90262e-05 0.00132611 -5.7357e-06
1.86506e-06 -5.7357e-06 0.00132962
0.000464941 6.30298e-05 5.81711e-06
6.30298e-05 2.57544e-05 8.11182e-06
5.81711e-06 8.11182e-06 -1.79049e-05
0.00272045 0.000121945 -2.27301e-06
0.000121945 0.00147987 -2.08562e-07
-2.27301e-06 -2.08562e-07 0.00147526
0.0031989 0.000140433 -1.60684e-06
0.000140433 0.00179477 8.05226e-06
-1.60684e-06 8.05226e-06 0.0017838
0.00237279 0.000358882 2.27527e-06
0.000358882 -0.000132029 6.42258e-07
2.27527e-06 6.42258e-07 -4.05456e-05
0.00231612 0.000113415 3.61977e-06
0.000113415 -0.000104259 -1.44446e-06
3.61977e-06 -1.44446e-06 9.85579e-06
0.00220358 -7.49557e-06 -3.88004e-07
-7.49557e-06 -6.99482e-05 3.05142e-08
-3.88004e-07 3.05142e-08 3.4124e-07
0.00229729 -6.51255e-06 -1.9129e-08
-6.51255e-06 -0.000133183 -2.34726e-07
-1.9129e-08 -2.34726e-07 -9.32873e-07
0.002563 0.000174542 1.68133e-06
0.000174542 -0.000111475 -2.02941e-07
1.68133e-06 -2.02941e-07 3.28597e-05
0.00257503 0.000125523 3.96153e-06
0.000125523 -0.000120131 -3.26975e-06
3.96153e-06 -3.26975e-06 1.45042e-05
0.00270347 2.19152e-05 -9.17461e-06
2.19152e-05 -0.000136364 1.48035e-06
-9.17461e-06 1.48035e-06 6.37691e-05
0.00541277 0.00144009 7.77778e-05
0.00144009 -0.000997593 1.2241e-05
7.77778e-05 1.2241e-05 0.000347103
0.0029724 0.000121987 -3.50876e-05
0.000121987 0.000245232 2.1649e-05
-3.50876e-05 2.1649e-05 0.000541573
0.000471977 0.000122484 -4.43103e-06
0.000122484 7.44629e-05 -4.45088e-06
-4.43103e-06 -4.45088e-06 -3.97907e-05
0.00231437 -0.000152673 2.51538e-06
-0.000152673 -0.000135359 1.67199e-07
2.51538e-06 1.67199e-07 -7.25941e-06
0.00246195 -0.000418423 2.14886e-06
-0.000418423 -0.000128321 1.53237e-06
2.14886e-06 1.53237e-06 -6.10119e-06
0.00244168 -0.000627244 1.15735e-06
-0.000627244 -3.63548e-05 -1.85575e-07
1.15735e-06 -1.85575e-07 2.49469e-06
0.0017722 -0.000938971 -5.81136e-06
-0.000938971 0.000590636 7.66856e-06
-5.81136e-06 7.66856e-06 -7.86776e-06
0.00252691 -0.00118443 3.69693e-05
-0.00118443 0.000776831 1.76065e-06
3.69693e-05 1.76065e-06 0.000121992
0.00210969 -0.00100697 -6.75077e-07
-0.00100697 0.000252812 -2.56929e-06
-6.75077e-07 -2.56929e-06 -0.000179588
0.00250226 -0.00088875 2.55722e-06
-0.00088875 0.000110155 -2.11101e-06
2.55722e-06 -2.11101e-06 -3.58575e-05
0.00152543 -0.000701451 2.95664e-05
-0.000701451 0.000493213 -5.38002e-05
2.95664e-05 -5.38002e-05 3.68994e-05
0.00161908 -0.000626408 1.65409e-05
-0.000626408 0.000772275 -5.68304e-05
1.65409e-05 -5.68304e-05 9.2812e-05
0.00113455 -0.000253087 1.23025e-05
-0.000253087 0.000493924 7.24692e-06
1.23025e-05 7.24692e-06 6.11511e-05
0.000431973 5.42935e-06 3.32093e-06
5.42935e-06 9.29284e-06 4.16912e-06
3.32093e-06 4.16912e-06 -6.68872e-05
0.00138758 -0.000293816 3.68316e-06
-0.000293816 0.00068596 1.50477e-05
3.68316e-06 1.50477e-05 0.000333108
0.00101434 -4.5266e-05 6.80002e-06
-4.5266e-05 0.000493744 1.3215e-06
6.80002e-06 1.3215e-06 0.000312385
0.000502971 -0.000114153 4.63768e-06
-0.000114153 0.00014819 5.96729e-07
4.63768e-06 5.96729e-07 -0.000133523
-0.000296818 -1.70377e-05 -4.65499e-06
-1.70377e-05 -0.000444362 3.7155e-06
-4.65499e-06 3.7155e-06 -0.000550636
0.00246824 -0.000198041 -5.49374e-07
-0.000198041 -0.000262292 -9.21092e-08
-5.49374e-07 -9.21092e-08 -5.73262e-05
0.000380571 5.37429e-05 7.30704e-07
5.37429e-05 1.86758e-05 -2.75305e-06
7.30704e-07 -2.75305e-06 -0.000107493
0.000612381 -8.91261e-05 3.11472e-06
-8.91261e-05 0.00019312 1.56307e-06
3.11472e-06 1.56307e-06 5.94108e-05
0.00105292 -0.000139908 7.0353e-06
-0.000139908 0.000401521 -9.90178e-07
7.0353e-06 -9.90178e-07 0.000263709
0.00254261 -0.000579928 2.22658e-06
-0.000579928 -0.000246623 -6.65831e-07
2.22658e-06 -6.65831e-07 -2.33095e-05
0.00274061 -0.000901695 -3.67294e-07
-0.000901695 7.40484e-05 -6.77077e-09
-3.67294e-07 -6.77077e-09 4.24737e-05
0.000734813 -0.000757783 7.23853e-06
-0.000757783 2.05888e-05 -3.71638e-07
7.23853e-06 -3.71638e-07 -0.00049029
0.00275402 -0.00133622 1.64538e-05
-0.00133622 0.000743427 1.2883e-06
1.64538e-05 1.2883e-06 7.94215e-05
0.00264576 -0.00113228 2.7755e-08
-0.00113228 0.000320238 1.32581e-06
2.7755e-08 1.32581e-06 1.41201e-06
0.000206912 -1.91829e-05 -4.59306e-07
-1.91829e-05 -7.63452e-05 -9.78412e-08
-4.59306e-07 -9.78412e-08 -0.000273817
0.00139414 -0.000238051 2.80005e-06
-0.000238051 0.000747043 3.79726e-06
2.80005e-06 3.79726e-06 0.00038991
0.00216856 -0.00107778 -1.28265e-06
-0.00107778 0.000811269 4.70862e-06
-1.28265e-06 4.70862e-06 0.000253772
0.00144683 -0.000395843 -7.91188e-07
-0.000395843 0.000858617 8.15819e-06
-7.91188e-07 8.15819e-06 0.000144592
0.00161102 -0.000234792 5.89639e-06
-0.000234792 0.000771927 1.05248e-05
5.89639e-06 1.05248e-05 0.000457674
0.00288038 -0.000402187 -1.36141e-05
-0.000402187 -7.57393e-05 1.14068e-05
-1.36141e-05 1.14068e-05 0.000175639
0.0022957 -0.000657911 -1.43993e-05
-0.000657911 -0.00037634 6.12475e-06
-1.43993e-05 6.12475e-06 -6.96374e-05
0.00264965 -0.00107155 -1.40646e-05
-0.00107155 0.000177368 -3.40748e-06
-1.40646e-05 -3.40748e-06 -4.71354e-05
0.00460455 -0.00153381 2.08025e-06
-0.00153381 0.00160789 7.20006e-06
2.08025e-06 7.20006e-06 0.00110055
4.95954e-05 -0.000885313 -1.27423e-05
-0.000885313 -0.000480285 1.55158e-05
-1.27423e-05 1.55158e-05 -0.000998428
1.29488e-05 -2.14217e-05 -1.52365e-06
-2.14217e-05 -0.000220617 -8.47986e-07
-1.52365e-06 -8.47986e-07 -0.000347413
0.000865302 4.34125e-06 -3.20954e-06
4.34125e-06 0.000238119 1.17699e-05
-3.20954e-06 1.17699e-05 9.14127e-05
-0.000362689 -0.0001946 -1.1752e-05
-0.0001946 -0.000464536 -4.73388e-06
-1.1752e-05 -4.73388e-06 -0.000613268
0.00191531 -0.000329223 -4.36079e-05
-0.000329223 0.00101547 3.26618e-05
-4.36079e-05 3.26618e-05 0.000717864
0.000815448 -0.000175709 -5.94028e-06
-0.000175709 0.000338023 2.60415e-05
-5.94028e-06 2.60415e-05 3.50412e-05
-0.00161743 -7.80092e-05 7.7584e-06
-7.80092e-05 -0.000640988 4.15487e-06
7.7584e-06 4.15487e-06 -0.00140857
0.00133853 -0.00113925 -9.40195e-06
-0.00113925 0.000660805 -7.60687e-06
-9.40195e-06 -7.60687e-06 -0.000116357
0.00205077 0.000493531 2.54111e-06
0.000493531 0.00120819 -2.4815e-06
2.54111e-06 -2.4815e-06 0.000901359
0.000303814 0.000294558 -2.56744e-06
0.000294558 0.000128098 -3.60243e-07
-2.56744e-06 -3.60243e-07 -0.000213142
0.00257627 0.000393457 1.34357e-05
0.000393457 -0.00020325 6.42098e-06
1.34357e-05 6.42098e-06 -3.28006e-05
0.00292792 0.000745246 1.57288e-05
0.000745246 0.000249572 1.03658e-05
1.57288e-05 1.03658e-05 0.000256461
0.00259709 0.00101156 6.45304e-06
0.00101156 0.000399068 3.80486e-06
6.45304e-06 3.80486e-06 -2.89014e-05
0.00142271 0.000672024 -2.22017e-06
0.000672024 0.000379824 2.68127e-06
-2.22017e-06 2.68127e-06 -9.00242e-05
0.00199932 0.00101601 1.78795e-06
0.00101601 0.000462983 4.07915e-06
1.78795e-06 4.07915e-06 -0.00013028
0.00253414 0.000471759 -2.09942e-07
0.000471759 0.0015475 1.04314e-06
-2.09942e-07 1.04314e-06 0.00124769
0.00305797 0.000583094 1.26038e-05
0.000583094 6.70644e-05 5.3921e-06
1.26038e-05 5.3921e-06 0.000407736
0.00112144 0.000517445 -6.48954e-06
0.000517445 0.000491503 5.22903e-06
-6.48954e-06 5.22903e-06 8.75452e-05
0.00176352 0.000844519 2.72074e-06
0.000844519 0.000539374 -2.38353e-06
2.72074e-06 -2.38353e-06 -3.26934e-05
0.00296577 0.00102779 -1.83973e-06
0.00102779 0.000476191 -4.05184e-06
-1.83973e-06 -4.05184e-06 0.000236559
0.00213907 0.00107221 -6.78551e-06
0.00107221 0.000495655 7.2898e-06
-6.78551e-06 7.2898e-06 -8.59933e-05
0.00308956 0.00176 5.85121e-05
0.00176 -0.00161813 1.31186e-05
5.85121e-05 1.31186e-05 -0.000802896
0.000544775 0.000352878 1.08528e-06
0.000352878 0.000432759 7.58074e-07
1.08528e-06 7.58074e-07 6.94541e-05
0.00446548 0.00121319 -0.000122518
0.00121319 0.000906753 -5.16198e-05
-0.000122518 -5.16198e-05 0.000917355
3.5445e-05 0.000473709 -2.03265e-05
0.000473709 -0.000381223 6.01094e-06
-2.03265e-05 6.01094e-06 -0.000795547
0.00018475 0.000718393 -6.8161e-06
0.000718393 -0.000417219 -2.08264e-05
-6.8161e-06 -2.08264e-05 -0.000936483
0.00175612 0.0011658 -4.87358e-05
0.0011658 1.94563e-05 -2.2056e-05
-4.87358e-05 -2.2056e-05 -0.000378433
0.01581 0.000830068 -0.000755254
0.000830068 0.00124485 -0.000104862
-0.000755254 -0.000104862 0.00156009
0.00247638 0.0025901 -0.000113339
0.0025901 -0.00403597 -0.00010464
-0.000113339 -0.00010464 -0.00113305
0.00137276 0.00211828 1.82437e-05
0.00211828 -0.000823844 -5.35764e-06
1.82437e-05 -5.35764e-06 -0.000965784
0.00412644 -0.00438502 0.00271415
-0.00438502 0.00250871 0.000288487
0.00271415 0.000288487 -0.00316318
0.0302677 -0.0139786 -5.73785e-05
-0.0139786 0.0161512 5.90777e-05
-5.73785e-05 5.90777e-05 0.00774728
0.00103015 0.000198018 6.88223e-06
0.000198018 0.000549971 1.04825e-05
6.88223e-06 1.04825e-05 0.000426283
0.000907274 0.000149492 -2.3609e-06
0.000149492 0.000479349 -8.08415e-07
-2.3609e-06 -8.08415e-07 0.000361136
0.00042078 0.00018741 1.00051e-05
0.00018741 0.000196136 -3.78842e-06
1.00051e-05 -3.78842e-06 4.5087e-05
0.0005072 -6.1349e-05 1.14034e-06
-6.1349e-05 0.000117304 -2.61477e-06
1.14034e-06 -2.61477e-06 -3.83673e-05
0.000428497 7.53072e-05 1.12414e-06
7.53072e-05 6.91098e-05 -3.68886e-06
1.12414e-06 -3.68886e-06 -0.000103363
0.000467589 -1.1064e-05 4.72533e-08
-1.1064e-05 0.000134185 -8.86641e-07
4.72533e-08 -8.86641e-07 -5.94345e-05
0.0011011 0.000124686 2.00645e-06
0.000124686 0.00047354 1.39837e-05
2.00645e-06 1.39837e-05 0.000351817
0.000394633 0.000124172 2.95868e-06
0.000124172 1.27798e-05 1.4617e-05
2.95868e-06 1.4617e-05 -2.64026e-05
0.000791526 0.000175733 -1.29928e-06
0.000175733 0.00037638 1.02298e-07
-1.29928e-06 1.02298e-07 0.000147396
0.000394614 -2.17904e-05 2.78767e-07
-2.17904e-05 1.70283e-05 1.06992e-06
2.78767e-07 1.06992e-06 -0.000129931
0.000711989 7.08047e-05 -9.74902e-07
7.08047e-05 0.000252752 2.65013e-07
-9.74902e-07 2.65013e-07 6.16529e-05
0.000377653 0.000120687 -3.21123e-06
0.000120687 4.81273e-05 -3.99129e-06
-3.21123e-06 -3.99129e-06 -2.52046e-05
0.000708116 0.000138807 -1.30352e-06
0.000138807 0.000239095 -1.75385e-07
-1.30352e-06 -1.75385e-07 8.4426e-05
0.0022105 0.000286371 -1.68448e-06
0.000286371 0.00124048 -2.82938e-06
-1.68448e-06 -2.82938e-06 0.00101741
2.91846e-05 9.06386e-05 -5.42096e-07
9.06386e-05 -4.17277e-05 -1.12769e-05
-5.42096e-07 -1.12769e-05 -0.000242962
0.000929984 0.000107937 2.91169e-06
0.000107937 0.00044407 -1.57098e-06
2.91169e-06 -1.57098e-06 0.000238478
8.84968e-05 1.43132e-05 -1.20798e-06
1.43132e-05 -0.00018051 -1.85488e-06
-1.20798e-06 -1.85488e-06 -0.000356807
0.000278583 -7.35884e-05 -6.49315e-07
-7.35884e-05 -5.45817e-05 -1.57786e-07
-6.49315e-07 -1.57786e-07 -0.000200473
0.000306488 -2.48162e-05 -1.36517e-07
-2.48162e-05 -1.25685e-05 -3.67587e-06
-1.36517e-07 -3.67587e-06 -0.000184178
0.00124215 -6.19479e-05 2.75667e-06
-6.19479e-05 0.000589518 -8.22305e-06
2.75667e-06 -8.22305e-06 0.000414857
0.000918944 -7.64837e-05 -1.93873e-06
-7.64837e-05 0.000446714 -7.12778e-07
-1.93873e-06 -7.12778e-07 0.000246132
0.000797231 -9.87352e-05 2.2068e-06
-9.87352e-05 0.000341729 -5.37963e-07
2.2068e-06 -5.37963e-07 0.000138599
0.000546817 -0.000131175 -1.64176e-06
-0.000131175 0.000136739 4.23976e-06
-1.64176e-06 4.23976e-06 -1.73309e-05
0.000143056 -2.97575e-05 2.13241e-08
-2.97575e-05 -0.00013617 1.1362e-06
2.13241e-08 1.1362e-06 -0.000285746
0.000467271 -7.08922e-05 -1.37145e-06
-7.08922e-05 4.27737e-05 3.90814e-06
-1.37145e-06 3.90814e-06 -4.68049e-05
0.000469585 -4.72936e-05 2.15003e-06
-4.72936e-05 5.20779e-05 1.44258e-07
2.15003e-06 1.44258e-07 -4.26957e-05
0.000367909 1.48902e-07 4.10566e-06
1.48902e-07 -3.70579e-05 6.89032e-06
4.10566e-06 6.89032e-06 -6.80588e-05
0.000458523 6.45627e-05 -1.31554e-06
6.45627e-05 3.66675e-05 -3.50204e-06
-1.31554e-06 -3.50204e-06 -5.28665e-05
0.00035712 3.04959e-05 5.5182e-07
3.04959e-05 -4.80987e-05 1.25678e-07
5.5182e-07 1.25678e-07 -7.7258e-05
0.00259437 1.11538e-05 1.39859e-05
1.11538e-05 0.00137534 5.6691e-06
1.39859e-05 5.6691e-06 0.00138677
0.000391511 6.14787e-05 -4.89225e-06
6.14787e-05 -2.46935e-05 -8.27741e-06
-4.89225e-06 -8.27741e-06 -5.76353e-05
0.00168692 -1.21379e-06 -8.75411e-06
-1.21379e-06 0.000787928 1.41441e-07
-8.75411e-06 1.41441e-07 0.000794436
0.000806288 -8.97816e-06 1.09512e-06
-8.97816e-06 0.000211934 -2.55369e-06
1.09512e-06 -2.55369e-06 0.000213827
0.000375098 2.10037e-05 -1.5416e-06
2.10037e-05 -3.87709e-05 -3.65568e-06
-1.5416e-06 -3.65568e-06 -8.77004e-05
0.000468422 -4.13659e-05 7.67422e-07
-4.13659e-05 3.36614e-05 1.10563e-07
7.67422e-07 1.10563e-07 -2.98783e-05
0.000473535 7.228e-06 1.19903e-06
7.228e-06 -3.48936e-06 -4.40365e-06
1.19903e-06 -4.40365e-06 -1.85599e-05
0.000474787 -5.40394e-05 -2.64363e-07
-5.40394e-05 3.54167e-05 2.20791e-06
-2.64363e-07 2.20791e-06 -3.38021e-05
0.000803654 2.8106e-05 1.89544e-07
2.8106e-05 0.000215795 -8.76865e-07
1.89544e-07 -8.76865e-07 0.000197337
0.00217021 6.31048e-05 9.79073e-07
6.31048e-05 0.00110491 -5.33885e-06
9.79073e-07 -5.33885e-06 0.00111479
0.000434614 3.28218e-05 1.16474e-06
3.28218e-05 -1.52395e-05 6.26354e-06
1.16474e-06 6.26354e-06 -4.46374e-05
0.00264367 9.83595e-05 -2.73615e-06
9.83595e-05 0.00142358 1.54384e-06
-2.73615e-06 1.54384e-06 0.00142482
0.00290905 0.000134975 1.96163e-05
0.000134975 0.00160659 9.2616e-06
1.96163e-05 9.2616e-06 0.00159924
0.00249694 0.00018632 3.72969e-06
0.00018632 -0.000131872 -1.74907e-06
3.72969e-06 -1.74907e-06 9.38086e-06
0.0022698 -1.20858e-06 1.53557e-06
-1.20858e-06 -0.000151231 -8.51335e-08
1.53557e-06 -8.51335e-08 -1.80481e-05
0.00258449 9.55169e-05 1.01827e-05
9.55169e-05 -0.000126997 4.56671e-06
1.01827e-05 4.56671e-06 2.41111e-06
0.00276604 0.00110617 0.000129795
0.00110617 -0.00235741 3.63144e-05
0.000129795 3.63144e-05 -0.000932286
0.00263843 -1.4438e-05 -3.22683e-06
-1.4438e-05 -0.000157602 -1.78728e-06
-3.22683e-06 -1.78728e-06 3.92892e-05
0.00266151 0.000101294 -5.42528e-06
0.000101294 4.84312e-05 -4.68306e-06
-5.42528e-06 -4.68306e-06 0.000288089
0.00257841 -5.0053e-05 -4.46317e-05
-5.0053e-05 5.42178e-05 -5.12747e-06
-4.46317e-05 -5.12747e-06 0.00020274
0.00325989 0.000732479 -0.000105159
0.000732479 -0.00263317 -3.69273e-05
-0.000105159 -3.69273e-05 -0.000782958
0.00280452 0.000340381 0.000156757
0.000340381 -0.00130813 7.51271e-05
0.000156757 7.51271e-05 -0.000492327
0.000535239 9.412e-05 -3.88737e-07
9.412e-05 0.000117263 -3.50495e-06
-3.88737e-07 -3.50495e-06 5.72541e-06
0.000560823 -7.0568e-06 -5.06978e-07
-7.0568e-06 0.000143003 -2.02744e-07
-5.06978e-07 -2.02744e-07 1.98176e-05
0.000295186 -0.00010451 -7.46067e-06
-0.00010451 -2.9234e-05 2.63783e-07
-7.46067e-06 2.63783e-07 -0.000158061
0.000329479 -6.79299e-05 -4.44586e-06
-6.79299e-05 1.19578e-05 1.63884e-07
-4.44586e-06 1.63884e-07 -0.000123379
0.00257671 -0.000218593 1.18806e-06
-0.000218593 -0.000204964 -4.23899e-06
1.18806e-06 -4.23899e-06 1.30916e-05
0.00253766 -0.000587789 3.20492e-07
-0.000587789 -0.000222907 4.47718e-07
3.20492e-07 4.47718e-07 -3.9988e-05
0.00254898 -0.000878863 6.22381e-07
-0.000878863 -2.79418e-05 -2.45885e-07
6.22381e-07 -2.45885e-07 -5.30354e-05
0.0041189 -0.00117853 2.51612e-05
-0.00117853 0.00194714 1.71042e-06
2.51612e-05 1.71042e-06 0.00134806
0.0015338 -0.00122122 -7.75594e-06
-0.00122122 1.96329e-05 2.03061e-07
-7.75594e-06 2.03061e-07 -0.000610853
0.00250642 -0.00112957 -7.42073e-07
-0.00112957 0.000251757 -5.3867e-06
-7.42073e-07 -5.3867e-06 -7.52869e-05
-0.000668069 -0.000723081 2.78512e-06
-0.000723081 -0.000737593 -2.28177e-05
2.78512e-06 -2.28177e-05 -0.00137158
0.00406048 -0.0005753 1.67033e-05
-0.0005753 0.00214966 -1.32543e-05
1.67033e-05 -1.32543e-05 0.00165272
-0.000264025 -0.000123796 3.25845e-06
-0.000123796 -0.000406455 1.20199e-05
3.25845e-06 1.20199e-05 -0.000710624
0.000641391 -8.2599e-05 3.52196e-06
-8.2599e-05 0.000209382 2.25449e-06
3.52196e-06 2.25449e-06 7.39229e-05
0.00041754 -0.000139423 -7.09855e-06
-0.000139423 0.000148166 -9.03744e-06
-7.09855e-06 -9.03744e-06 -0.000212696
0.000665972 -6.6115e-05 4.49961e-06
-6.6115e-05 0.000220671 1.96298e-06
4.49961e-06 1.96298e-06 2.10422e-05
0.000529163 -1.81951e-06 1.25954e-06
-1.81951e-06 0.00013417 5.32054e-06
1.25954e-06 5.32054e-06 -1.1802e-06
0.000432728 -7.5e-05 -1.0027e-05
-7.5e-05 -6.4743e-06 9.42386e-06
-1.0027e-05 9.42386e-06 -0.000123171
0.00275373 -0.000375638 2.68198e-06
-0.000375638 -0.000145005 1.17619e-06
2.68198e-06 1.17619e-06 0.000126667
0.000409359 -3.97875e-05 -3.54146e-07
-3.97875e-05 5.19331e-05 3.66368e-06
-3.54146e-07 3.66368e-06 -9.27089e-05
0.000771085 -8.27962e-05 8.49573e-06
-8.27962e-05 0.000188162 -2.14096e-06
8.49573e-06 -2.14096e-06 4.21117e-05
-0.000932854 -7.89823e-05 1.22976e-05
-7.89823e-05 -0.000758187 -9.37721e-07
1.22976e-05 -9.37721e-07 -0.000861469
0.00231513 -0.000682988 4.60001e-07
-0.000682988 -0.000377895 -8.64081e-07
4.60001e-07 -8.64081e-07 -0.000106257
0.00261311 -0.00107468 2.4615e-06
-0.00107468 0.000149062 -1.46216e-06
2.4615e-06 -1.46216e-06 -7.56783e-05
0.00191352 -0.00119738 -1.46481e-05
-0.00119738 0.000549893 1.34387e-06
-1.46481e-05 1.34387e-06 -4.19188e-05
0.00329864 -0.0014067 -4.61357e-06
-0.0014067 0.000874493 -6.76836e-08
-4.61357e-06 -6.76836e-08 0.000387628
0.00184593 -0.000228721 1.33862e-05
-0.000228721 0.00100636 -7.71602e-06
1.33862e-05 -7.71602e-06 0.000687781
-0.00116651 -3.80682e-05 9.0714e-06
-3.80682e-05 -0.000894925 7.43342e-06
9.0714e-06 7.43342e-06 -0.00122276
0.00112511 -0.0012153 -5.04687e-07
-0.0012153 0.000662997 -1.06596e-06
-5.04687e-07 -1.06596e-06 -0.000209222
0.00191247 -0.000552924 -1.16947e-05
-0.000552924 0.00104816 -2.52013e-06
-1.16947e-05 -2.52013e-06 0.000462092
0.00393099 -0.000566574 -5.72275e-05
-0.000566574 0.000565199 1.98894e-05
-5.72275e-05 1.98894e-05 0.000887769
0.00276404 -0.000896623 -3.72888e-05
-0.000896623 9.9104e-05 1.59673e-05
-3.72888e-05 1.59673e-05 0.000188462
0.00296955 -0.00124258 -6.01056e-06
-0.00124258 0.000627406 -1.71873e-05
-6.01056e-06 -1.71873e-05 0.000180696
0.00272942 -0.00138103 1.70529e-05
-0.00138103 0.000779505 3.78142e-05
1.70529e-05 3.78142e-05 0.000332905
0.000131144 -0.000170016 -7.84237e-06
-0.000170016 4.19557e-05 -1.43124e-05
-7.84237e-06 -1.43124e-05 -0.0001528
0.000693115 -0.000250115 -1.83017e-05
-0.000250115 0.000228959 -7.45818e-06
-1.83017e-05 -7.45818e-06 -6.70517e-05
0.000545273 -0.000289928 -1.58417e-05
-0.000289928 0.000445945 7.93817e-05
-1.58417e-05 7.93817e-05 5.13515e-05
-0.000249128 -0.00101904 2.22036e-06
-0.00101904 0.000553353 -4.15585e-05
2.22036e-06 -4.15585e-05 -0.000620934
0.00527984 -0.000475711 7.41271e-05
-0.000475711 -0.00630374 8.97848e-06
7.41271e-05 8.97848e-06 -0.00661345
0.00227749 0.000362601 1.28825e-05
0.000362601 0.00138965 -5.02479e-06
1.28825e-05 -5.02479e-06 0.00109727
0.000464991 0.000396078 1.54966e-06
0.000396078 8.17821e-05 -2.66e-06
1.54966e-06 -2.66e-06 -0.000284275
0.00183355 0.000456859 5.99235e-05
0.000456859 -0.000658963 2.78136e-05
5.99235e-05 2.78136e-05 -0.000239531
0.00248634 0.000962266 2.74608e-05
0.000962266 0.000245961 1.28311e-05
2.74608e-05 1.28311e-05 4.6572e-05
0.00297229 0.00118552 1.42104e-05
0.00118552 0.000957954 1.48842e-05
1.42104e-05 1.48842e-05 0.00034692
0.00201555 0.000889789 1.67755e-05
0.000889789 0.000718615 1.17516e-05
1.67755e-05 1.17516e-05 0.000122019
0.00500381 0.00218472 9.86304e-05
0.00218472 -0.00101151 3.90664e-05
9.86304e-05 3.90664e-05 -0.000414738
0.000908298 0.000336878 3.59853e-06
0.000336878 0.000606304 -4.71691e-06
3.59853e-06 -4.71691e-06 0.000280433
0.00298147 0.00103859 -6.06089e-06
0.00103859 6.98993e-05 4.1573e-06
-6.06089e-06 4.1573e-06 0.000187557
0.00103757 0.000607603 -7.97227e-06
0.000607603 0.00027227 6.86711e-06
-7.97227e-06 6.86711e-06 -0.000188614
0.00183955 0.000968245 1.52478e-06
0.000968245 0.000524105 -9.2283e-06
1.52478e-06 -9.2283e-06 -5.174e-05
0.0027944 0.00124868 -1.47974e-05
0.00124868 0.000602681 -3.69558e-07
-1.47974e-05 -3.69558e-07 0.000165202
0.00530566 -0.000330339 -0.000217088
-0.000330339 -0.00649513 -0.000152962
-0.000217088 -0.000152962 -0.00671154
0.00677968 0.00288417 -0.000193323
0.00288417 -0.00145718 -8.32614e-05
-0.000193323 -8.32614e-05 0.000835061
0.00146609 0.00204308 -6.76683e-06
0.00204308 -0.000722524 1.53771e-06
-6.76683e-06 1.53771e-06 -0.000959731
0.0066345 -0.0036993 0.00083575
-0.0036993 0.00483048 0.00027529
0.00083575 0.00027529 0.000564721
0.0244917 -0.0151576 -0.000622047
-0.0151576 0.0148619 -0.000556804
-0.000622047 -0.000556804 0.00616554
2.65055e-05 0.000271588 -9.16835e-06
0.000271588 -0.000114144 -2.61888e-06
-9.16835e-06 -2.61888e-06 -0.000393105
0.00237041 6.90542e-05 0.00140569
6.90542e-05 0.00478542 8.16659e-05
0.00140569 8.16659e-05 0.00244572
0.00808764 -0.00660452 -4.92496e-05
-0.00660452 0.00963502 -0.000200189
-4.92496e-05 -0.000200189 0.000765941
0.00369087 0.00171561 -8.78863e-05
0.00171561 0.000686121 -3.03336e-05
-8.78863e-05 -3.03336e-05 0.00035197
0.000700605 0.000560382 -3.49446e-05
0.000560382 6.49377e-06 -7.41428e-06
-3.49446e-05 -7.41428e-06 -0.000402532
0.00147137 0.000979199 -5.10663e-05
0.000979199 0.000337616 -3.94728e-05
-5.10663e-05 -3.94728e-05 -0.000166186
3.59132e-05 0.00193338 0.000140024
0.00193338 -0.00101303 0.000125564
0.000140024 0.000125564 -0.00133217
0.0152384 0.00409968 0.000164138
0.00409968 0.000276946 -4.81502e-06
0.000164138 -4.81502e-06 0.00114425
0.00668118 0.00440585 -0.000113083
0.00440585 -0.000616042 -0.000106507
-0.000113083 -0.000106507 0.00116645
0.0225452 -0.00855872 0.00139098
-0.00855872 0.00931387 0.000427783
0.00139098 0.000427783 0.00183346
0.0176509 -0.00331244 -0.000309355
-0.00331244 0.00788179 0.000750141
-0.000309355 0.000750141 0.00385425
0.000537285 0.000122951 1.84778e-06
0.000122951 0.000290887 7.21075e-06
1.84778e-06 7.21075e-06 0.000158952
0.000329796 0.000195233 4.05713e-06
0.000195233 0.000178328 2.93779e-07
4.05713e-06 2.93779e-07 1.33269e-05
0.000581395 0.000235458 4.91935e-06
0.000235458 0.000387376 -5.37236e-06
4.91935e-06 -5.37236e-06 0.000123307
0.000601871 -1.50297e-06 2.44355e-06
-1.50297e-06 0.000179337 1.31561e-06
2.44355e-06 1.31561e-06 1.23319e-05
0.000604169 8.76481e-05 1.61873e-06
8.76481e-05 0.000170558 -1.04004e-06
1.61873e-06 -1.04004e-06 -1.04201e-05
-0.00023813 3.29631e-05 -3.17586e-07
3.29631e-05 -0.000314593 2.91969e-06
-3.17586e-07 2.91969e-06 -0.00050788
0.000887068 0.000146194 -3.65968e-06
0.000146194 0.000378952 6.7787e-06
-3.65968e-06 6.7787e-06 0.000215211
-0.000183773 8.75262e-05 -4.58934e-06
8.75262e-05 -0.000326016 8.2643e-06
-4.58934e-06 8.2643e-06 -0.000386784
0.000322143 -9.94982e-06 -5.18728e-07
-9.94982e-06 -2.14011e-05 6.62137e-07
-5.18728e-07 6.62137e-07 -0.000173431
0.00144517 0.000185632 3.22858e-06
0.000185632 0.000731221 1.26149e-06
3.22858e-06 1.26149e-06 0.0005247
0.000375359 6.59764e-05 -7.57511e-07
6.59764e-05 9.789e-05 -1.00363e-06
-7.57511e-07 -1.00363e-06 -0.000115864
0.000762389 4.88555e-05 1.65041e-06
4.88555e-05 0.000296691 1.27969e-07
1.65041e-06 1.27969e-07 9.03742e-05
1.83665e-05 8.64183e-05 -9.60894e-07
8.64183e-05 -5.11007e-05 -3.70109e-06
-9.60894e-07 -3.70109e-06 -0.000254087
0.00143013 0.000160165 -1.64963e-06
0.000160165 0.000756238 -7.88752e-06
-1.64963e-06 -7.88752e-06 0.000567812
-0.000553612 5.25403e-05 -3.39341e-06
5.25403e-05 -0.000187183 -5.84535e-06
-3.39341e-06 -5.84535e-06 -0.00053734
7.17512e-05 -3.62316e-05 -3.15836e-07
-3.62316e-05 -0.000128881 5.78915e-07
-3.15836e-07 5.78915e-07 -0.000328831
0.000703696 -7.84139e-05 -3.96758e-06
-7.84139e-05 0.000265854 -2.26419e-06
-3.96758e-06 -2.26419e-06 6.54249e-05
0.000780417 -6.44457e-05 -4.64739e-07
-6.44457e-05 0.000321419 -1.76987e-06
-4.64739e-07 -1.76987e-06 0.000125943
0.00060417 -6.83721e-05 -4.60381e-06
-6.83721e-05 0.000171255 1.8479e-06
-4.60381e-06 1.8479e-06 1.67495e-05
0.000935677 1.63366e-05 -8.255e-06
1.63366e-05 0.000473259 -6.50367e-06
-8.255e-06 -6.50367e-06 0.000263613
0.000913307 -0.000141839 5.52569e-06
-0.000141839 0.000337065 -1.09295e-05
5.52569e-06 -1.09295e-05 0.000203458
-0.000307826 -3.56831e-05 -4.19398e-06
-3.56831e-05 -0.000357612 -5.78135e-06
-4.19398e-06 -5.78135e-06 -0.000502341
-0.000375602 -2.31801e-05 1.98024e-06
-2.31801e-05 -0.000311496 -6.7041e-06
1.98024e-06 -6.7041e-06 -0.00055386
4.19169e-05 -6.90928e-05 8.96759e-07
-6.90928e-05 -0.000157123 6.86312e-07
8.96759e-07 6.86312e-07 -0.00031562
0.000852047 -0.000152417 -1.23458e-06
-0.000152417 0.000382449 1.02486e-06
-1.23458e-06 1.02486e-06 0.000196339
0.000352503 -8.78638e-05 -1.53183e-07
-8.78638e-05 -5.55339e-06 3.3495e-06
-1.53183e-07 3.3495e-06 -0.000147459
0.000383336 -0.000107542 3.54842e-06
-0.000107542 3.27313e-05 -8.08669e-07
3.54842e-06 -8.08669e-07 -0.000135485
0.00055423 -0.000135177 1.02391e-07
-0.000135177 0.00013996 2.59279e-07
1.02391e-07 2.59279e-07 -1.65498e-05
0.000499726 -7.00647e-05 -1.46211e-06
-7.00647e-05 6.2756e-05 5.20931e-06
-1.46211e-06 5.20931e-06 -2.93431e-05
0.000285574 7.99713e-07 2.34804e-07
7.99713e-07 -2.38388e-05 -4.59871e-07
2.34804e-07 -4.59871e-07 -0.00018872
0.000449393 1.1496e-06 2.66057e-06
1.1496e-06 4.10406e-05 1.34783e-07
2.66057e-06 1.34783e-07 -5.46864e-05
0.00141009 -4.12217e-05 -1.43469e-05
-4.12217e-05 0.000623561 7.39315e-06
-1.43469e-05 7.39315e-06 0.000599018
0.000435832 8.28912e-05 -2.53111e-06
8.28912e-05 3.099e-05 -3.11992e-06
-2.53111e-06 -3.11992e-06 -6.30761e-05
0.000816761 -2.77056e-05 -5.61958e-06
-2.77056e-05 0.000251018 7.56518e-07
-5.61958e-06 7.56518e-07 0.000222285
0.000821456 4.9638e-07 -7.69754e-06
4.9638e-07 0.00023258 4.8149e-06
-7.69754e-06 4.8149e-06 0.000236206
0.00031546 -3.8991e-05 5.54807e-06
-3.8991e-05 -7.47475e-05 -5.4611e-06
5.54807e-06 -5.4611e-06 -0.000103472
0.00261 4.08094e-06 1.21975e-05
4.08094e-06 0.00138581 2.97516e-08
1.21975e-05 2.97516e-08 0.00139708
0.000845887 6.36401e-06 -1.39568e-05
6.36401e-06 0.000248841 -5.67117e-06
-1.39568e-05 -5.67117e-06 0.000250869
0.000553742 8.1733e-05 1.6958e-06
8.1733e-05 0.000139955 -1.38891e-06
1.6958e-06 -1.38891e-06 1.8083e-05
0.000408423 6.3553e-05 -3.16244e-06
6.3553e-05 -1.39121e-06 -3.99853e-06
-3.16244e-06 -3.99853e-06 -5.81155e-05
0.000442013 2.16931e-06 1.42116e-06
2.16931e-06 1.89177e-05 2.37505e-07
1.42116e-06 2.37505e-07 -3.94926e-05
0.000431541 1.00109e-05 9.05523e-07
1.00109e-05 -2.91693e-05 -4.0605e-06
9.05523e-07 -4.0605e-06 -4.23715e-05
0.000534315 -7.7812e-05 -1.32856e-06
-7.7812e-05 8.88224e-05 4.3468e-06
-1.32856e-06 4.3468e-06 1.78172e-05
0.00045206 1.00993e-05 3.18919e-07
1.00993e-05 -1.75581e-05 -7.62093e-07
3.18919e-07 -7.62093e-07 -3.26737e-05
0.00208775 4.35857e-05 3.41606e-07
4.35857e-05 0.00104629 -5.20812e-06
3.41606e-07 -5.20812e-06 0.00105967
0.00120096 4.32504e-05 1.70966e-06
4.32504e-05 0.000474477 3.09181e-06
1.70966e-06 3.09181e-06 0.000455952
0.00152354 5.31102e-05 -9.89641e-07
5.31102e-05 0.000688323 1.67645e-06
-9.89641e-07 1.67645e-06 0.000692956
0.000798141 5.57538e-05 4.53721e-06
5.57538e-05 0.000227189 1.12729e-05
4.53721e-06 1.12729e-05 0.000221793
0.000862611 0.000813528 9.33979e-05
0.000813528 -0.00324217 2.86258e-05
9.33979e-05 2.86258e-05 -0.00180094
0.00253001 -4.49212e-05 1.2033e-05
-4.49212e-05 -0.000215242 1.20696e-06
1.2033e-05 1.20696e-06 -2.06491e-05
0.00248679 8.47316e-05 5.04757e-05
8.47316e-05 -1.87926e-05 -1.32446e-05
5.04757e-05 -1.32446e-05 0.000155514
0.00410715 0.000764227 -9.27737e-05
0.000764227 -0.0026473 -4.84869e-05
-9.27737e-05 -4.84869e-05 -4.50337e-05
0.00333674 0.000120793 8.6537e-05
0.000120793 -0.000910769 -5.07033e-06
8.6537e-05 -5.07033e-06 -6.79279e-05
0.0028129 -6.9762e-05 -9.16615e-06
-6.9762e-05 0.000161528 -4.16272e-06
-9.16615e-06 -4.16272e-06 0.000327189
0.00500172 -0.000641264 -7.50178e-05
-0.000641264 0.000441771 -3.01221e-05
-7.50178e-05 -3.01221e-05 0.00109465
0.00492477 -0.000792947 3.63827e-05
-0.000792947 -0.00123 -4.18542e-08
3.63827e-05 -4.18542e-08 0.000620558
0.0205572 -0.0011732 0.000102706
-0.0011732 0.00251927 -8.45173e-05
0.000102706 -8.45173e-05 0.00239135
0.0202072 0.00915717 0.00222837
0.00915717 0.00835642 -0.000420489
0.00222837 -0.000420489 0.00229858
0.030949 0.0107664 0.000174331
0.0107664 0.0201083 7.93826e-05
0.000174331 7.93826e-05 0.0126471
1.52262e-05 -0.000111589 7.59887e-07
-0.000111589 -0.000186742 -2.94622e-06
7.59887e-07 -2.94622e-06 -0.000315497
0.000515012 -1.00305e-05 2.24974e-06
-1.00305e-05 0.000105324 5.25959e-08
2.24974e-06 5.25959e-08 -6.79809e-06
0.000600344 -9.71721e-05 -7.03403e-07
-9.71721e-05 0.000176327 6.48394e-06
-7.03403e-07 6.48394e-06 4.58719e-05
0.000530678 -4.8603e-05 2.28971e-06
-4.8603e-05 0.000113182 -9.76712e-08
2.28971e-06 -9.76712e-08 -1.10633e-05
0.00101798 0.000155955 -8.02267e-06
0.000155955 0.000518905 -4.38747e-06
-8.02267e-06 -4.38747e-06 0.000361761
0.000637085 0.000157824 -2.42464e-06
0.000157824 0.000195634 3.83778e-06
-2.42464e-06 3.83778e-06 4.75678e-05
0.000846226 2.46765e-05 1.36314e-06
2.46765e-05 0.000351345 3.058e-07
1.36314e-06 3.058e-07 0.000189039
0.00052586 -2.34066e-05 -1.53168e-06
-2.34066e-05 0.000123255 1.15341e-06
-1.53168e-06 1.15341e-06 -1.11572e-05
0.00270704 -0.00036815 1.50101e-05
-0.00036815 -0.000180431 -1.27521e-05
1.50101e-05 -1.27521e-05 0.0001149
0.00236953 -0.000718617 1.33419e-05
-0.000718617 -0.000371934 -5.59182e-06
1.33419e-05 -5.59182e-06 -0.000132495
0.00269231 -0.00108294 6.29934e-06
-0.00108294 0.00018569 4.63812e-06
6.29934e-06 4.63812e-06 -3.44967e-05
0.00277254 -0.00130109 8.45888e-06
-0.00130109 0.000970344 -3.40729e-06
8.45888e-06 -3.40729e-06 0.000386223
0.00275551 -0.00134019 -3.00516e-05
-0.00134019 0.000600591 -3.05535e-06
-3.00516e-05 -3.05535e-06 9.72016e-05
0.000735972 -0.00123081 2.3905e-05
-0.00123081 0.000459133 1.09823e-05
2.3905e-05 1.09823e-05 -0.000471614
0.00508554 -0.000928087 9.03658e-06
-0.000928087 0.00271366 4.8787e-06
9.03658e-06 4.8787e-06 0.0021914
0.00179706 -0.000436281 2.25886e-05
-0.000436281 0.00104579 -5.58374e-05
2.25886e-05 -5.58374e-05 0.00059396
0.000573937 -0.000122959 -2.79471e-06
-0.000122959 4.40424e-05 7.83663e-06
-2.79471e-06 7.83663e-06 -7.68843e-05
0.00116845 -0.000106548 1.72661e-05
-0.000106548 0.000544569 -2.08463e-05
1.72661e-05 -2.08463e-05 0.000243446
0.000854041 -6.98919e-05 5.49572e-06
-6.98919e-05 0.000339775 6.44082e-06
5.49572e-06 6.44082e-06 0.000184058
0.000523412 4.29612e-06 9.17855e-06
4.29612e-06 0.000181714 3.0461e-07
9.17855e-06 3.0461e-07 0.000130569
0.00266137 -0.000497358 6.76753e-07
-0.000497358 -0.000200536 3.9363e-06
6.76753e-07 3.9363e-06 0.000217624
0.000293732 -0.000105599 -6.12243e-06
-0.000105599 0.000109829 6.38242e-07
-6.12243e-06 6.38242e-07 -6.81843e-05
0.00144335 -0.000277975 -6.4264e-06
-0.000277975 0.000706598 6.20825e-06
-6.4264e-06 6.20825e-06 0.000449183
0.00184226 -0.000823963 8.56923e-06
-0.000823963 -0.000434428 -5.0428e-06
8.56923e-06 -5.0428e-06 -0.000285756
0.00248508 -0.00114402 2.10544e-06
-0.00114402 0.000374071 6.16269e-06
2.10544e-06 6.16269e-06 -4.66904e-06
0.00142569 -0.0011999 -2.73053e-06
-0.0011999 -1.8574e-06 -1.63092e-05
-2.73053e-06 -1.63092e-05 -0.000388081
0.00134344 -0.000424023 -2.77506e-06
-0.000424023 0.000852024 -3.39872e-05
-2.77506e-06 -3.39872e-05 0.000341947
0.00111228 -0.000820609 1.40248e-05
-0.000820609 0.00114785 1.97564e-06
1.40248e-05 1.97564e-06 0.000173217
0.00634289 -0.00119265 -5.55407e-05
-0.00119265 0.00162201 3.71158e-05
-5.55407e-05 3.71158e-05 0.0019351
0.00325928 -0.00120754 -4.37197e-05
-0.00120754 0.000768108 1.69195e-05
-4.37197e-05 1.69195e-05 0.000480913
0.002833 -0.00139534 6.97579e-06
-0.00139534 0.000688546 1.95588e-05
6.97579e-06 1.95588e-05 0.000269639
0.000239209 -0.000784086 -1.15189e-05
-0.000784086 -0.000309861 2.83865e-05
-1.15189e-05 2.83865e-05 -0.000475718
0.000748503 -0.000210084 -6.87779e-08
-0.000210084 0.000465038 1.27499e-06
-6.87779e-08 1.27499e-06 0.000162855
6.06134e-05 -0.000198211 3.61939e-06
-0.000198211 0.000124537 6.22627e-06
3.61939e-06 6.22627e-06 -0.000253321
0.000711558 -0.000361341 -1.75507e-05
-0.000361341 0.000904994 -1.68362e-05
-1.75507e-05 -1.68362e-05 9.08667e-05
-0.00794261 -0.00065271 0.000950359
-0.00065271 -0.00303109 -4.487e-05
0.000950359 -4.487e-05 -0.00511466
0.0124834 -0.000526985 8.1651e-05
-0.000526985 -0.00071512 5.33536e-05
8.1651e-05 5.33536e-05 0.000410726
0.00253971 0.000432676 9.54736e-06
0.000432676 0.00151442 -9.71091e-06
9.54736e-06 -9.71091e-06 0.00123224
0.00213274 0.000752 2.4748e-06
0.000752 0.000984743 7.47606e-06
2.4748e-06 7.47606e-06 0.000473656
0.00155803 0.000832706 0.000109689
0.000832706 -0.000701523 5.73023e-05
0.000109689 5.73023e-05 -0.000503566
0.00404901 0.00136907 3.5566e-05
0.00136907 0.00129638 1.86343e-05
3.5566e-05 1.86343e-05 0.000811141
0.00311373 0.00116273 2.73503e-05
0.00116273 0.00123701 6.26919e-06
2.73503e-05 6.26919e-06 0.000619091
0.0185974 0.000898121 0.000105583
0.000898121 0.00185687 -0.000132969
0.000105583 -0.000132969 0.00207959
0.00870165 0.003536 -0.000294248
0.003536 -0.00209676 -3.41416e-05
-0.000294248 -3.41416e-05 0.000817114
0.0020846 0.00206018 -9.8439e-07
0.00206018 -0.000286926 -3.78802e-05
-9.8439e-07 -3.78802e-05 -0.000657436
0.0177535 -0.00716563 -0.000921576
-0.00716563 0.00807378 8.62899e-05
-0.000921576 8.62899e-05 0.00247977
0.0167256 -0.0167127 -0.00334064
-0.0167127 0.0136595 -0.0018524
-0.00334064 -0.0018524 0.00454129
0.000643274 0.00037303 6.8814e-06
0.00037303 0.000331959 -3.39868e-06
6.8814e-06 -3.39868e-06 6.27046e-06
0.000723177 -0.00432154 0.000872665
-0.00432154 -0.00145475 9.09809e-05
0.000872665 9.09809e-05 -0.00559058
0.00141238 -0.00521692 -0.000897091
-0.00521692 0.0102008 -0.000161255
-0.000897091 -0.000161255 0.00185432
0.00390755 0.00163444 -1.94581e-05
0.00163444 0.000746501 3.07712e-06
-1.94581e-05 3.07712e-06 0.000470321
0.000846912 0.000636025 -1.19651e-05
0.000636025 0.000157775 8.67404e-06
-1.19651e-05 8.67404e-06 -0.00030073
0.0019797 0.00113765 3.31513e-06
0.00113765 0.000609492 1.02264e-06
3.31513e-06 1.02264e-06 4.39358e-05
0.00209984 0.00195822 7.83928e-05
0.00195822 0.000413834 5.35606e-05
7.83928e-05 5.35606e-05 9.67006e-05
0.0144159 0.00444926 -0.000187526
0.00444926 -0.00117186 -0.000132929
-0.000187526 -0.000132929 -0.00150526
0.00291188 0.00404741 -1.23881e-05
0.00404741 -0.00156514 -4.74721e-05
-1.23881e-05 -4.74721e-05 0.000326413
0.0241253 -0.00726418 0.000808182
-0.00726418 0.0110338 -5.35461e-05
0.000808182 -5.35461e-05 0.00367857
0.0241287 -0.00594511 -6.76814e-05
-0.00594511 0.00790155 0.000925289
-6.76814e-05 0.000925289 0.00225127
0.00106041 0.000434546 -1.37948e-05
0.000434546 0.000516151 -1.75004e-05
-1.37948e-05 -1.75004e-05 0.000218675
-0.00771024 0.00113874 -3.55709e-05
0.00113874 0.00573295 -0.000160002
-3.55709e-05 -0.000160002 -0.00293776
0.00725004 0.0018635 -0.000629592
0.0018635 0.00587009 -0.000619203
-0.000629592 -0.000619203 0.000366568
0.00289168 0.00125065 -5.0841e-05
0.00125065 0.000689891 -2.5803e-05
-5.0841e-05 -2.5803e-05 0.000544111
0.00291441 0.00119588 -9.07305e-05
0.00119588 0.00130072 -3.59693e-05
-9.07305e-05 -3.59693e-05 0.000750431
0.00249921 0.00153381 -0.000108988
0.00153381 0.00149411 -3.92119e-05
-0.000108988 -3.92119e-05 0.000635599
-0.00306079 0.00283959 5.33241e-05
0.00283959 -0.0010241 -2.83644e-05
5.33241e-05 -2.83644e-05 -0.00103999
0.00569695 0.00659563 0.000821104
0.00659563 -0.00178534 8.92898e-05
0.000821104 8.92898e-05 -0.00275771
0.0262019 -0.00915023 -0.000206046
-0.00915023 0.0147794 0.000974911
-0.000206046 0.000974911 0.00647821
0.00937281 0.000466396 -0.000205137
0.000466396 -0.00172306 -0.000216522
-0.000205137 -0.000216522 -0.00166486
0.000390519 0.000227778 -3.02232e-06
0.000227778 0.00024949 3.12433e-07
-3.02232e-06 3.12433e-07 5.90968e-05
0.00164844 0.000375694 5.43581e-06
0.000375694 0.00101164 1.41383e-06
5.43581e-06 1.41383e-06 0.00073149
-0.000569357 0.000151159 -5.98287e-06
0.000151159 -0.00029006 3.62026e-06
-5.98287e-06 3.62026e-06 -0.000532433
0.000363576 6.13393e-05 2.78778e-06
6.13393e-05 4.46778e-06 2.24714e-06
2.78778e-06 2.24714e-06 -0.000149403
0.00116396 9.26757e-05 7.86646e-07
9.26757e-05 0.000574945 3.13498e-07
7.86646e-07 3.13498e-07 0.000357089
0.000484184 3.18407e-05 -1.93715e-06
3.18407e-05 0.000171995 2.97136e-06
-1.93715e-06 2.97136e-06 -5.50125e-05
0.000237994 0.000112897 8.37322e-06
0.000112897 -4.37393e-07 1.04383e-05
8.37322e-06 1.04383e-05 -0.000222635
-0.000515543 4.1819e-05 -4.97848e-06
4.1819e-05 -0.000374942 5.64361e-06
-4.97848e-06 5.64361e-06 -0.000572779
0.000777434 3.877e-05 2.29996e-07
3.877e-05 0.000318445 -7.35231e-07
2.29996e-07 -7.35231e-07 0.000113607
0.000631726 9.50617e-05 7.18689e-08
9.50617e-05 0.000245689 1.77731e-07
7.18689e-08 1.77731e-07 6.41655e-05
0.000875472 -4.27295e-05 -1.13561e-06
-4.27295e-05 0.000412459 2.45248e-06
-1.13561e-06 2.45248e-06 0.000186063
-0.00103964 4.66372e-05 1.40806e-07
4.66372e-05 -0.000466846 1.54955e-06
1.40806e-07 1.54955e-06 -0.000816431
0.000773824 7.15483e-05 2.19664e-06
7.15483e-05 0.000742857 9.36397e-06
2.19664e-06 9.36397e-06 0.000315281
0.000777514 -2.18079e-05 1.04925e-06
-2.18079e-05 0.000484326 -7.10777e-06
1.04925e-06 -7.10777e-06 0.00021495
0.0017424 -3.27932e-05 -3.77263e-06
-3.27932e-05 0.0010226 2.97599e-06
-3.77263e-06 2.97599e-06 0.000759543
0.000890598 -0.00010192 -5.23663e-07
-0.00010192 0.000394569 -6.92362e-07
-5.23663e-07 -6.92362e-07 0.000191766
0.000207463 -0.000116718 2.26845e-06
-0.000116718 -9.09277e-05 1.09969e-05
2.26845e-06 1.09969e-05 -0.000232449
0.000545565 -0.000101576 6.42235e-07
-0.000101576 0.000197023 -1.63279e-07
6.42235e-07 -1.63279e-07 2.88768e-06
0.00070021 -0.000137628 -2.36909e-06
-0.000137628 0.000190958 -1.61651e-06
-2.36909e-06 -1.61651e-06 5.49939e-05
-0.000184371 -7.0555e-05 3.53549e-08
-7.0555e-05 -0.000269909 6.23104e-06
3.53549e-08 6.23104e-06 -0.000402694
-0.000667314 -4.50482e-05 1.28682e-06
-4.50482e-05 -0.000544401 -9.43207e-06
1.28682e-06 -9.43207e-06 -0.00073368
-7.75842e-05 -5.47855e-05 -8.32766e-06
-5.47855e-05 -7.85865e-05 -1.92053e-06
-8.32766e-06 -1.92053e-06 -0.000305191
0.000357457 -0.000135577 1.85573e-06
-0.000135577 7.93825e-05 -1.01899e-05
1.85573e-06 -1.01899e-05 -5.58575e-05
0.00107525 -0.00015338 2.59157e-05
-0.00015338 0.000401333 -1.85055e-05
2.59157e-05 -1.85055e-05 0.000285108
0.00308252 -0.000538231 -1.03864e-06
-0.000538231 0.00157632 1.8601e-06
-1.03864e-06 1.8601e-06 0.00130008
-0.000676272 -0.00011364 -2.50768e-06
-0.00011364 -0.000553523 -2.92741e-06
-2.50768e-06 -2.92741e-06 -0.000772548
0.000469952 -5.32707e-05 2.48512e-06
-5.32707e-05 0.000197699 -1.5702e-07
2.48512e-06 -1.5702e-07 -3.34367e-05
-0.000922321 -3.55658e-06 5.59353e-06
-3.55658e-06 -0.000714956 -1.28296e-06
5.59353e-06 -1.28296e-06 -0.000955437
0.000654499 -0.000195391 -1.75461e-06
-0.000195391 0.000255966 -8.30963e-07
-1.75461e-06 -8.30963e-07 6.58374e-05
0.000464581 -5.26721e-05 2.57282e-06
-5.26721e-05 6.7179e-05 -1.58267e-07
2.57282e-06 -1.58267e-07 -8.8234e-05
0.000649796 -0.000182403 1.25936e-06
-0.000182403 0.000231869 -1.08109e-06
1.25936e-06 -1.08109e-06 6.03395e-05
0.000579691 -0.000100732 -7.99723e-07
-0.000100732 0.000160675 1.43079e-07
-7.99723e-07 1.43079e-07 4.18754e-06
0.00029031 3.36755e-05 1.48882e-06
3.36755e-05 -7.15934e-05 4.93898e-06
1.48882e-06 4.93898e-06 -0.00016847
0.000629088 -0.000136478 1.78424e-07
-0.000136478 0.000180375 -2.46513e-06
1.78424e-07 -2.46513e-06 2.50008e-05
0.000496593 -5.60413e-05 -6.43308e-07
-5.60413e-05 5.48427e-05 2.25818e-07
-6.43308e-07 2.25818e-07 -3.34564e-05
0.00138792 2.87885e-05 -8.79769e-06
2.87885e-05 0.000601109 7.92419e-06
-8.79769e-06 7.92419e-06 0.000576675
0.000468916 -7.87583e-05 9.4094e-07
-7.87583e-05 4.72568e-05 -3.37258e-06
9.4094e-07 -3.37258e-06 -4.43595e-05
0.000841119 -2.92605e-05 -1.07498e-05
-2.92605e-05 0.000258613 9.29677e-07
-1.07498e-05 9.29677e-07 0.000230552
0.000740329 1.01968e-05 1.75178e-06
1.01968e-05 0.000169662 2.25067e-06
1.75178e-06 2.25067e-06 0.000172396
0.000402782 -3.74235e-05 4.10108e-06
-3.74235e-05 -2.3099e-05 -4.99871e-06
4.10108e-06 -4.99871e-06 -5.05804e-05
0.00255361 6.97626e-06 6.95663e-06
6.97626e-06 0.0013475 -9.78617e-09
6.95663e-06 -9.78617e-09 0.00135973
0.00258571 -3.11853e-06 8.80009e-06
-3.11853e-06 0.00136977 -5.12303e-06
8.80009e-06 -5.12303e-06 0.00138119
0.00102525 7.95632e-05 -1.49209e-06
7.95632e-05 0.00044118 -1.5894e-06
-1.49209e-06 -1.5894e-06 0.000314048
0.000495403 7.42941e-05 -2.28244e-06
7.42941e-05 5.98173e-05 -4.33031e-06
-2.28244e-06 -4.33031e-06 -4.0708e-06
0.000510321 -2.09558e-05 -8.20701e-07
-2.09558e-05 0.000110986 9.11709e-07
-8.20701e-07 9.11709e-07 -9.19438e-06
0.000414831 1.13703e-05 9.96407e-07
1.13703e-05 -4.02414e-05 -4.17398e-06
9.96407e-07 -4.17398e-06 -5.24366e-05
0.000407343 -9.16838e-06 1.8791e-06
-9.16838e-06 -5.26419e-06 -2.50619e-07
1.8791e-06 -2.50619e-07 -6.04369e-05
0.000458364 -6.86965e-05 -2.02302e-06
-6.86965e-05 3.42996e-05 4.30296e-06
-2.02302e-06 4.30296e-06 -2.73502e-05
0.000431504 5.14788e-06 -6.65214e-07
5.14788e-06 -2.9878e-05 1.13249e-08
-6.65214e-07 1.13249e-08 -4.29653e-05
0.00204865 2.83385e-05 -4.95453e-06
2.83385e-05 0.00101829 -5.20281e-06
-4.95453e-06 -5.20281e-06 0.00103357
0.00118844 2.0957e-05 -8.44923e-07
2.0957e-05 0.000460396 3.03078e-06
-8.44923e-07 3.03078e-06 0.000448156
0.00133708 3.35551e-05 -3.72151e-06
3.35551e-05 0.000559301 4.51075e-08
-3.72151e-06 4.51075e-08 0.000569027
0.000740821 3.93936e-05 -2.48254e-06
3.93936e-05 0.00018057 8.85617e-06
-2.48254e-06 8.85617e-06 0.000182576
-0.00633727 0.00268663 0.000986943
0.00268663 -0.0017301 -0.000117063
0.000986943 -0.000117063 -0.00660361
0.0026622 0.00224616 0.00218357
0.00224616 0.0100343 -0.000370986
0.00218357 -0.000370986 0.00360084
0.00213737 0.000849271 -0.000150882
0.000849271 -0.00343297 -4.69433e-05
-0.000150882 -4.69433e-05 -0.000554769
0.00276496 -6.00287e-05 2.64764e-05
-6.00287e-05 -0.00122563 -3.69393e-05
2.64764e-05 -3.69393e-05 -0.000278524
0.00270715 -8.59576e-05 5.45062e-05
-8.59576e-05 4.07869e-05 1.39161e-05
5.45062e-05 1.39161e-05 0.000223473
-0.000889207 -0.000153015 -0.000137707
-0.000153015 -0.00270159 -3.90307e-05
-0.000137707 -3.90307e-05 -0.000646425
0.0043245 -0.000663241 3.02753e-06
-0.000663241 2.65667e-05 3.17658e-06
3.02753e-06 3.17658e-06 0.000584088
0.0126204 -0.000463198 0.000297867
-0.000463198 -0.00276077 -0.000124394
0.000297867 -0.000124394 -0.00273345
0.00614631 0.00612119 -1.06107e-05
0.00612119 0.00226176 -9.31654e-05
-1.06107e-05 -9.31654e-05 -0.00282011
0.0259 0.0132792 -0.000833456
0.0132792 0.0172631 0.000314584
-0.000833456 0.000314584 0.00920951
0.00221981 -0.00143402 -8.48776e-07
-0.00143402 -0.0035638 -3.74901e-05
-8.48776e-07 -3.74901e-05 -0.00112504
0.0158322 -0.0041556 0.000304565
-0.0041556 2.27998e-05 -7.80694e-05
0.000304565 -7.80694e-05 -0.000532641
0.0252099 0.00820724 0.000556875
0.00820724 0.00970284 -0.000502479
0.000556875 -0.000502479 0.00205683
0.0288305 0.00599937 -0.00037824
0.00599937 0.011101 0.000374177
-0.00037824 0.000374177 0.00604157
0.00123702 0.000185636 -7.47701e-06
0.000185636 0.000673554 -1.27992e-06
-7.47701e-06 -1.27992e-06 0.000455002
0.000322153 3.6395e-05 1.04995e-06
3.6395e-05 -1.51782e-05 -6.99705e-07
1.04995e-06 -6.99705e-07 -0.000132937
0.000527965 -0.000107208 3.7763e-06
-0.000107208 0.000126217 3.87429e-06
3.7763e-06 3.87429e-06 7.21639e-06
0.000718444 -1.29999e-05 7.23352e-06
-1.29999e-05 0.000243976 1.83572e-06
7.23352e-06 1.83572e-06 0.000114711
0.000658392 7.82684e-05 3.93276e-06
7.82684e-05 0.000275657 1.0478e-07
3.93276e-06 1.0478e-07 0.000146372
0.000593172 8.15149e-05 -2.09256e-06
8.15149e-05 0.000195356 5.16339e-06
-2.09256e-06 5.16339e-06 3.27908e-06
0.000621619 8.40786e-05 -1.08671e-06
8.40786e-05 0.000208899 2.8791e-06
-1.08671e-06 2.8791e-06 5.68254e-05
0.000438578 0.000109067 2.98272e-06
0.000109067 4.10425e-05 3.25422e-06
2.98272e-06 3.25422e-06 -0.000122034
0.00058031 -1.84697e-07 1.60627e-06
-1.84697e-07 0.000177718 -1.21712e-06
1.60627e-06 -1.21712e-06 1.69846e-05
0.000341255 -3.2294e-05 3.46923e-06
-3.2294e-05 -5.45507e-06 2.08832e-07
3.46923e-06 2.08832e-07 -0.000125878
0.00106476 -0.000398728 4.32638e-05
-0.000398728 -0.00118899 -1.96657e-05
4.32638e-05 -1.96657e-05 -0.000637307
0.00124204 -0.000765159 2.41574e-05
-0.000765159 -0.000751788 -1.1073e-05
2.41574e-05 -1.1073e-05 -0.000567687
0.00109094 -0.000941114 1.00101e-05
-0.000941114 -0.000393546 4.6761e-06
1.00101e-05 4.6761e-06 -0.000668824
-0.00100168 -0.000844627 -1.65998e-05
-0.000844627 -0.00134311 -1.4527e-05
-1.65998e-05 -1.4527e-05 -0.00165371
0.00271205 -0.000772587 4.64509e-06
-0.000772587 0.00189733 5.01115e-05
4.64509e-06 5.01115e-05 0.00108664
-0.000787958 -0.000723892 -7.11037e-06
-0.000723892 -0.00038379 -1.76207e-05
-7.11037e-06 -1.76207e-05 -0.0011003
0.00135924 -0.000324371 1.43493e-05
-0.000324371 0.000684961 -4.09518e-06
1.43493e-05 -4.09518e-06 0.000465189
9.85612e-05 -4.75464e-05 5.1864e-06
-4.75464e-05 -4.45135e-05 6.65472e-06
5.1864e-06 6.65472e-06 -0.000202301
0.00282831 -0.000864969 1.46599e-05
-0.000864969 -0.000409376 -1.07363e-05
1.46599e-05 -1.07363e-05 0.000115696
0.000586376 -0.000125286 4.65912e-07
-0.000125286 0.000350281 2.31636e-06
4.65912e-07 2.31636e-06 4.7201e-05
-0.000286308 -0.000256877 -7.40607e-06
-0.000256877 -8.61713e-05 -2.94319e-06
-7.40607e-06 -2.94319e-06 -0.000461185
0.00197901 -0.0010324 1.97866e-05
-0.0010324 4.59762e-05 -1.31193e-06
1.97866e-05 -1.31193e-06 -0.000111037
0.00184904 -0.00124191 -1.67308e-06
-0.00124191 9.83255e-05 -4.55995e-06
-1.67308e-06 -4.55995e-06 -0.000201031
-6.46581e-05 -0.000818293 1.41596e-05
-0.000818293 -0.000429355 -1.68713e-05
1.41596e-05 -1.68713e-05 -0.000691301
0.000881078 -0.00050282 1.99945e-05
-0.00050282 0.000977401 -2.53972e-05
1.99945e-05 -2.53972e-05 0.000205771
0.00184008 -0.00136987 -4.64832e-05
-0.00136987 -0.000486509 4.70401e-05
-4.64832e-05 4.70401e-05 -0.000549812
0.00227021 -0.00115043 -4.3371e-05
-0.00115043 0.000472617 2.79525e-05
-4.3371e-05 2.79525e-05 0.000348466
-0.00104966 -0.000545437 -3.97141e-05
-0.000545437 -0.000482471 3.15607e-05
-3.97141e-05 3.15607e-05 -0.000899857
-0.00116825 -0.000102795 -9.70219e-06
-0.000102795 -0.000798488 7.46883e-06
-9.70219e-06 7.46883e-06 -0.00107183
-0.00126766 8.8224e-06 -3.25241e-06
8.8224e-06 -0.000706195 1.46641e-05
-3.25241e-06 1.46641e-05 -0.00105659
0.000816623 -9.52055e-05 1.54221e-06
-9.52055e-05 0.000613251 -5.5595e-06
1.54221e-06 -5.5595e-06 0.000215692
-0.00285032 0.00154561 -0.000642399
0.00154561 0.00826285 2.46596e-05
-0.000642399 2.46596e-05 0.00152768
-0.000206651 -0.00227972 -2.36113e-05
-0.00227972 0.00388705 -3.5758e-05
-2.36113e-05 -3.5758e-05 0.00178995
0.00550745 0.000788028 -0.000173201
0.000788028 -0.00677683 -4.56862e-05
-0.000173201 -4.56862e-05 -0.00682509
0.00138384 0.000476684 1.93094e-05
0.000476684 0.000852889 -7.29299e-06
1.93094e-05 -7.29299e-06 0.000486396
0.00182365 0.000831153 2.16024e-05
0.000831153 0.000782345 2.82668e-05
2.16024e-05 2.82668e-05 0.000244766
0.0036632 0.00146271 9.29982e-05
0.00146271 0.000572925 4.12149e-05
9.29982e-05 4.12149e-05 0.000376298
0.00177749 0.00119201 2.68859e-05
0.00119201 0.000535059 2.98569e-05
2.68859e-05 2.98569e-05 -7.65093e-05
0.0157155 -0.00514225 0.000350794
-0.00514225 0.00756281 0.000103446
0.000350794 0.000103446 0.0032987
0.00356038 0.00304885 -0.000560448
0.00304885 -0.00700928 -0.000141356
-0.000560448 -0.000141356 -0.00740158
0.00625491 0.00421274 4.89575e-05
0.00421274 0.000531551 2.81009e-05
4.89575e-05 2.81009e-05 0.0017066
0.00325276 0.00185008 9.34988e-05
0.00185008 0.00134576 1.11216e-05
9.34988e-05 1.11216e-05 0.00102774
0.0149642 -0.00414072 -0.00078053
-0.00414072 0.00650829 -0.000262384
-0.00078053 -0.000262384 3.08378e-05
0.00305233 -0.00665505 -0.00134971
-0.00665505 0.0112067 -0.000285369
-0.00134971 -0.000285369 0.00290187
0.0351126 -0.00872465 0.00124646
-0.00872465 0.011861 0.00049016
0.00124646 0.00049016 0.0052554
0.000158434 0.00036092 1.28909e-05
0.00036092 1.64515e-05 -5.7966e-06
1.28909e-05 -5.7966e-06 -0.000289026
-0.00246983 7.94126e-05 -0.000184547
7.94126e-05 0.00810721 -2.301e-05
-0.000184547 -2.301e-05 0.000436505
0.00778226 0.00241123 -0.000252851
0.00241123 0.00443204 -0.000205375
-0.000252851 -0.000205375 -0.00187435
0.00194401 0.00126537 1.18042e-05
0.00126537 0.000324796 3.77412e-06
1.18042e-05 3.77412e-06 9.18574e-05
0.00102964 0.000940555 1.63867e-05
0.000940555 0.000394372 7.95041e-06
1.63867e-05 7.95041e-06 -0.000147994
0.00123234 0.00155359 -0.000114341
0.00155359 0.000749139 -8.81348e-05
-0.000114341 -8.81348e-05 5.88989e-05
0.00343233 0.00468691 7.57093e-05
0.00468691 0.000692753 5.36648e-05
7.57093e-05 5.36648e-05 0.000926087
0.013228 0.00728934 -2.17485e-05
0.00728934 0.000748696 -2.44615e-06
-2.17485e-05 -2.44615e-06 -0.00121169
0.0111694 -0.00503419 0.000121922
-0.00503419 0.00858984 -0.000150399
0.000121922 -0.000150399 0.000138483
0.0184357 -0.0021541 -5.04341e-05
-0.0021541 0.00290555 -6.44734e-05
-5.04341e-05 -6.44734e-05 0.00307109
0.0013096 0.000802343 -1.95413e-05
0.000802343 0.000664628 -9.60972e-06
-1.95413e-05 -9.60972e-06 0.000218862
0.00147365 0.000458124 -0.000543625
0.000458124 0.00335297 -0.000150429
-0.000543625 -0.000150429 -0.0032631
0.00226224 0.00153873 -0.000182804
0.00153873 0.000401275 -0.00020388
-0.000182804 -0.00020388 -0.00191691
-0.000985953 0.00051 -6.38618e-06
0.00051 -0.000196253 -2.86211e-05
-6.38618e-06 -2.86211e-05 -0.000592324
-0.00192935 0.00112889 -0.00018236
0.00112889 0.000791604 2.58742e-06
-0.00018236 2.58742e-06 -2.00131e-06
0.00944545 0.00713049 0.0002355
0.00713049 0.00369053 -1.49055e-05
0.0002355 -1.49055e-05 -0.00145414
0.00537236 -0.00680921 -1.86245e-05
-0.00680921 0.00186048 0.000236445
-1.86245e-05 0.000236445 -0.00518656
0.0154199 -0.000444322 8.11734e-05
-0.000444322 -0.000986113 -0.00034543
8.11734e-05 -0.00034543 0.000615713
0.00162307 0.000349658 5.10157e-06
0.000349658 0.000943353 2.32717e-05
5.10157e-06 2.32717e-05 0.000698831
0.000997217 0.000317113 -8.76886e-06
0.000317113 0.0006795 -6.36256e-06
-8.76886e-06 -6.36256e-06 0.000387743
-0.000573608 0.000164802 1.585e-06
0.000164802 -6.10879e-05 -3.95181e-07
1.585e-06 -3.95181e-07 -0.000486754
0.000431306 8.30759e-05 5.862e-07
8.30759e-05 6.85823e-05 3.78145e-08
5.862e-07 3.78145e-08 -0.000115196
0.00130367 -2.79061e-05 -3.51272e-06
-2.79061e-05 0.000707039 5.70505e-06
-3.51272e-06 5.70505e-06 0.000463841
-0.000250939 8.38459e-05 2.91062e-06
8.38459e-05 -0.000320184 7.21742e-06
2.91062e-06 7.21742e-06 -0.000496417
-0.00119705 9.02154e-05 1.00973e-06
9.02154e-05 -0.000551198 1.81277e-06
1.00973e-06 1.81277e-06 -0.000907816
0.000509935 -3.07229e-05 2.0541e-06
-3.07229e-05 0.000177401 6.02258e-07
2.0541e-06 6.02258e-07 -3.7876e-05
0.000409008 9.02825e-05 5.85807e-07
9.02825e-05 0.000249286 -2.38383e-06
5.85807e-07 -2.38383e-06 -1.45732e-05
2.14517e-05 4.22725e-05 2.54336e-06
4.22725e-05 0.000384114 2.40446e-06
2.54336e-06 2.40446e-06 -0.000117737
-0.0012853 -1.92141e-06 5.33503e-07
-1.92141e-06 -0.000241599 1.08226e-05
5.33503e-07 1.08226e-05 -0.000825304
0.000690344 6.95506e-06 3.42148e-07
6.95506e-06 0.00072441 -4.29314e-06
3.42148e-07 -4.29314e-06 0.000274272
0.00179373 3.69108e-05 -3.95722e-06
3.69108e-05 0.00112435 2.18321e-06
-3.95722e-06 2.18321e-06 0.000863377
0.000900027 -0.000182289 4.51001e-06
-0.000182289 0.000430562 3.88103e-06
4.51001e-06 3.88103e-06 0.000227734
0.000214374 -0.000100172 -5.33838e-07
-0.000100172 -0.000129321 6.23709e-06
-5.33838e-07 6.23709e-06 -0.00026086
-0.000208705 -7.28858e-05 1.01132e-05
-7.28858e-05 -0.000290122 1.4653e-05
1.01132e-05 1.4653e-05 -0.000397581
0.000219512 -2.72748e-05 1.103e-06
-2.72748e-05 9.66883e-05 1.34617e-06
1.103e-06 1.34617e-06 -0.000119843
0.000512318 -4.76025e-05 4.40234e-07
-4.76025e-05 0.000163221 1.22863e-06
4.40234e-07 1.22863e-06 -1.33838e-05
5.68698e-05 -8.24544e-05 -3.73595e-06
-8.24544e-05 -7.14376e-05 -1.84959e-07
-3.73595e-06 -1.84959e-07 -0.000217587
0.000673493 -0.000115354 -2.51251e-06
-0.000115354 0.00028773 -8.421e-06
-2.51251e-06 -8.421e-06 0.000145615
0.000984952 -0.000115931 6.91101e-06
-0.000115931 0.000695008 -1.2296e-05
6.91101e-06 -1.2296e-05 0.000475002
0.00223514 -0.000398959 6.65512e-06
-0.000398959 0.00106572 3.04297e-06
6.65512e-06 3.04297e-06 0.000939732
0.000480621 -0.000149052 -2.1429e-05
-0.000149052 4.44219e-05 2.02562e-07
-2.1429e-05 2.02562e-07 -7.03021e-05
0.00090612 -0.000351988 1.0161e-05
-0.000351988 0.000233972 3.97005e-06
1.0161e-05 3.97005e-06 1.46392e-05
0.0027846 -0.00080107 -4.46073e-06
-0.00080107 0.00134246 1.96209e-05
-4.46073e-06 1.96209e-05 0.000888873
0.00246476 -0.00032996 1.12155e-05
-0.00032996 0.00122125 -8.40557e-06
1.12155e-05 -8.40557e-06 0.000999189
0.00152558 -0.000384607 -1.25485e-06
-0.000384607 0.000623167 -6.53496e-06
-1.25485e-06 -6.53496e-06 0.000401109
0.000339804 -0.000137606 -7.99727e-07
-0.000137606 6.25328e-05 -3.69539e-07
-7.99727e-07 -3.69539e-07 -0.000161787
-0.0011078 -7.92164e-05 6.36691e-07
-7.92164e-05 -0.000793921 -3.80064e-06
6.36691e-07 -3.80064e-06 -0.00109551
0.00152338 -6.93743e-05 1.64484e-06
-6.93743e-05 0.000839046 4.32053e-06
1.64484e-06 4.32053e-06 0.00061811
0.000716835 -0.000195969 2.0806e-06
-0.000195969 0.000301475 -1.32875e-06
2.0806e-06 -1.32875e-06 5.80143e-05
0.000298889 -7.56972e-05 2.15829e-06
-7.56972e-05 -6.38951e-05 -1.41557e-06
2.15829e-06 -1.41557e-06 -0.000226347
0.00171184 -0.000317387 -5.60105e-06
-0.000317387 0.000946146 3.56118e-07
-5.60105e-06 3.56118e-07 0.000728085
0.000716719 -0.000151359 -1.14036e-07
-0.000151359 0.000239352 5.63127e-08
-1.14036e-07 5.63127e-08 7.59097e-05
0.000366497 -9.95405e-06 1.25348e-06
-9.95405e-06 -3.20577e-05 4.64183e-06
1.25348e-06 4.64183e-06 -0.000134046
0.000888388 -0.00016344 -1.31922e-06
-0.00016344 0.000369183 -1.37601e-06
-1.31922e-06 -1.37601e-06 0.000205701
0.000556429 -7.40762e-05 -5.45156e-07
-7.40762e-05 9.83999e-05 -7.41022e-08
-5.45156e-07 -7.41022e-08 2.19591e-08
0.00144443 3.61717e-06 -1.43758e-05
3.61717e-06 0.000634036 8.73602e-06
-1.43758e-05 8.73602e-06 0.000606032
0.000510943 -8.06918e-05 1.05495e-06
-8.06918e-05 7.34857e-05 -4.98585e-06
1.05495e-06 -4.98585e-06 -2.21023e-05
0.000833098 -1.81944e-05 -1.26075e-05
-1.81944e-05 0.000245014 8.64552e-07
-1.26075e-05 8.64552e-07 0.00021661
0.000790454 1.89366e-05 1.92972e-06
1.89366e-05 0.000199689 3.10384e-06
1.92972e-06 3.10384e-06 0.000199973
0.000395065 -4.95007e-05 3.63553e-06
-4.95007e-05 -3.11857e-05 -5.57451e-06
3.63553e-06 -5.57451e-06 -6.15559e-05
0.0016688 1.61076e-05 1.51111e-05
1.61076e-05 0.00077252 -1.59918e-06
1.51111e-05 -1.59918e-06 0.000780418
0.00250351 4.12151e-06 1.92489e-05
4.12151e-06 0.00131436 -5.31857e-06
1.92489e-05 -5.31857e-06 0.00132701
0.000459305 7.89704e-05 4.44313e-07
7.89704e-05 4.68845e-05 -2.43974e-06
4.44313e-07 -2.43974e-06 -7.7312e-05
0.000556432 7.67046e-05 -1.52515e-06
7.67046e-05 9.48731e-05 -4.0364e-06
-1.52515e-06 -4.0364e-06 2.61786e-05
0.00053638 1.67136e-05 4.95721e-07
1.67136e-05 0.00011595 7.18388e-07
4.95721e-07 7.18388e-07 -4.65094e-06
0.000422335 1.0954e-05 1.89115e-06
1.0954e-05 -3.54016e-05 -4.60622e-06
1.89115e-06 -4.60622e-06 -4.84304e-05
0.000448744 6.45368e-05 -7.09731e-08
6.45368e-05 2.37282e-05 -2.40688e-07
-7.09731e-08 -2.40688e-07 -3.61823e-05
0.0004078 -0.00011759 -2.32713e-06
-0.00011759 2.72601e-05 3.46017e-06
-2.32713e-06 3.46017e-06 -8.23234e-05
0.0020361 1.36781e-05 -9.8755e-06
1.36781e-05 0.00100796 -5.18461e-06
-9.8755e-06 -5.18461e-06 0.00102456
0.000410789 8.34823e-06 -3.04521e-07
8.34823e-06 -4.27631e-05 2.02305e-08
-3.04521e-07 2.02305e-08 -5.48835e-05
0.000473061 4.48868e-06 -2.07505e-07
4.48868e-06 2.72707e-05 3.77496e-06
-2.07505e-07 3.77496e-06 -2.21577e-05
0.000429189 1.7088e-06 -1.96334e-06
1.7088e-06 -3.22607e-05 4.31504e-06
-1.96334e-06 4.31504e-06 -4.53196e-05
0.00207478 2.95234e-05 -5.86971e-06
2.95234e-05 0.00103537 -1.57459e-07
-5.86971e-06 -1.57459e-07 0.00105039
0.00209464 4.50847e-05 -6.12619e-07
4.50847e-05 0.0010512 5.32059e-06
-6.12619e-07 5.32059e-06 0.00106428
-0.0032516 -0.00214792 -0.000335377
-0.00214792 0.00847565 7.27667e-05
-0.000335377 7.27667e-05 0.00332448
0.00501278 0.00291152 -0.000432554
0.00291152 0.00255828 0.000138625
-0.000432554 0.000138625 -0.0016497
0.00302963 -0.00122544 -0.000667661
-0.00122544 0.00143662 0.000309852
-0.000667661 0.000309852 -0.00371512
0.00501159 0.00303772 0.00156225
0.00303772 0.00977073 -0.000295223
0.00156225 -0.000295223 0.00277167
0.00497203 0.000994779 -3.67289e-05
0.000994779 -0.000671785 -6.95834e-06
-3.67289e-05 -6.95834e-06 0.000885183
0.00356404 -0.000724981 0.000110524
-0.000724981 -0.000373287 1.39027e-05
0.000110524 1.39027e-05 9.01182e-05
0.00228705 -0.000552609 0.000439939
-0.000552609 -0.00732026 -4.18033e-05
0.000439939 -4.18033e-05 -0.00752066
0.0266689 0.00556142 -0.00164849
0.00556142 0.0124224 1.66947e-05
-0.00164849 1.66947e-05 0.00669713
0.0184071 0.016057 -0.00319681
0.016057 0.0131309 0.00187257
-0.00319681 0.00187257 0.00436081
0.00546633 -0.00115752 6.12138e-05
-0.00115752 -0.00133403 3.57096e-06
6.12138e-05 3.57096e-06 0.000354428
0.00769633 -0.00403349 0.000236196
-0.00403349 -0.00468446 -0.000204902
0.000236196 -0.000204902 -0.00574694
0.0252155 0.00806768 -0.000454482
0.00806768 0.0100231 -0.000170596
-0.000454482 -0.000170596 0.00239762
0.0210228 0.00559526 0.000214801
0.00559526 0.00784829 0.000504487
0.000214801 0.000504487 0.0028322
0.00188886 -0.00268119 -0.000108752
-0.00268119 -0.00431474 5.38276e-05
-0.000108752 5.38276e-05 -0.00175144
0.00635565 -0.00652169 0.000736594
-0.00652169 -0.00122607 -0.000280175
0.000736594 -0.000280175 -0.00378509
0.0153577 0.00402726 -0.000156792
0.00402726 0.00578166 -0.00110313
-0.000156792 -0.00110313 -0.00190809
0.0102338 -0.000355087 -0.000416292
-0.000355087 -0.000539274 4.88236e-05
-0.000416292 4.88236e-05 -0.00103112
0.00217614 -4.51289e-05 -1.43797e-06
-4.51289e-05 0.00130009 1.46527e-05
-1.43797e-06 1.46527e-05 0.000999353
0.000176563 7.12576e-05 -1.53456e-06
7.12576e-05 -5.429e-05 -2.1782e-06
-1.53456e-06 -2.1782e-06 -0.000214922
0.000572537 0.000120019 4.95757e-06
0.000120019 0.00013673 2.3288e-06
4.95757e-06 2.3288e-06 2.19107e-05
-0.000307325 -6.56119e-05 4.5133e-06
-6.56119e-05 -0.000393723 6.90268e-09
4.5133e-06 6.90268e-09 -0.000459476
0.000400086 0.000154934 -2.88003e-07
0.000154934 3.9324e-05 8.94381e-06
-2.88003e-07 8.94381e-06 -0.000159593
0.000523621 8.42234e-05 -6.65779e-08
8.42234e-05 0.000148598 1.07772e-06
-6.65779e-08 1.07772e-06 -3.25385e-05
-1.08633e-05 9.66648e-06 3.69279e-06
9.66648e-06 -0.000203856 4.89309e-07
3.69279e-06 4.89309e-07 -0.000339005
0.000939796 0.000196426 5.22492e-06
0.000196426 0.000412708 1.039e-05
5.22492e-06 1.039e-05 0.00021002
0.000954856 0.000177027 1.40725e-07
0.000177027 0.000432498 -5.53464e-07
1.40725e-07 -5.53464e-07 0.000227988
0.000300585 1.80326e-05 -1.56912e-06
1.80326e-05 -1.56579e-05 -3.60126e-06
-1.56912e-06 -3.60126e-06 -0.000171578
0.000772922 -0.000710885 0.000106753
-0.000710885 -0.00158021 -6.48079e-05
0.000106753 -6.48079e-05 -0.000963807
0.000403378 -0.000855536 5.32041e-06
-0.000855536 -0.000867213 -1.2835e-05
5.32041e-06 -1.2835e-05 -0.000897344
0.00168112 -0.00121404 3.54661e-06
-0.00121404 -3.21889e-05 8.66461e-06
3.54661e-06 8.66461e-06 -0.000246015
-0.000965803 -0.000835573 3.62002e-06
-0.000835573 -0.000943364 -1.3666e-05
3.62002e-06 -1.3666e-05 -0.00125757
0.00436619 -0.000671162 -5.05054e-05
-0.000671162 0.00281191 7.47794e-05
-5.05054e-05 7.47794e-05 0.00226038
0.000614853 -0.000283372 -4.55649e-07
-0.000283372 0.000481536 2.06873e-07
-4.55649e-07 2.06873e-07 9.20156e-05
0.000397007 7.96697e-05 2.00558e-06
7.96697e-05 0.0002048 -1.14803e-05
2.00558e-06 -1.14803e-05 -8.68461e-05
0.000607866 -3.87153e-06 -5.71828e-06
-3.87153e-06 0.000311736 6.42816e-06
-5.71828e-06 6.42816e-06 8.75739e-06
0.00282524 -0.00137107 -2.63635e-05
-0.00137107 -4.35523e-06 1.82755e-06
-2.63635e-05 1.82755e-06 0.000104534
0.000608514 -5.05468e-05 1.78577e-06
-5.05468e-05 0.000402252 2.97626e-06
1.78577e-06 2.97626e-06 7.24754e-05
0.00240612 -0.000446225 8.86575e-06
-0.000446225 0.00155915 -4.80454e-06
8.86575e-06 -4.80454e-06 0.00114372
0.00176656 -0.00110115 1.91695e-05
-0.00110115 0.000185315 -5.46525e-06
1.91695e-05 -5.46525e-06 5.13876e-05
0.00041836 -0.00072527 -3.54176e-05
-0.00072527 0.00028828 1.13035e-05
-3.54176e-05 1.13035e-05 -0.000104658
0.00280898 -0.00232524 6.08427e-05
-0.00232524 0.000419296 -3.12509e-05
6.08427e-05 -3.12509e-05 -3.83147e-05
0.00140957 -0.000820027 -1.90294e-05
-0.000820027 0.000691022 3.31421e-05
-1.90294e-05 3.31421e-05 0.000465729
-0.00191841 -0.000174352 6.2805e-06
-0.000174352 -0.000749961 4.0544e-06
6.2805e-06 4.0544e-06 -0.00131163
0.000270494 8.80199e-05 -1.0547e-06
8.80199e-05 0.00010696 5.34204e-06
-1.0547e-06 5.34204e-06 -0.000102077
-5.60366e-05 -0.000147513 -1.45075e-06
-0.000147513 0.000102147 1.76313e-05
-1.45075e-06 1.76313e-05 -0.000274715
0.00183786 0.000312973 -0.000113461
0.000312973 0.00237828 -3.98504e-05
-0.000113461 -3.98504e-05 -0.00274932
-0.00786017 0.000404451 -0.000638289
0.000404451 0.00758646 -1.83884e-05
-0.000638289 -1.83884e-05 0.00143157
-0.0137114 -0.00392663 -0.00119533
-0.00392663 -0.00392791 -6.17635e-07
-0.00119533 -6.17635e-07 -0.00686864
0.000517233 0.000446847 2.01537e-05
0.000446847 0.000321862 -1.2217e-06
2.01537e-05 -1.2217e-06 -4.38425e-05
-0.000416236 0.000761597 1.50009e-06
0.000761597 -0.00031808 1.0464e-05
1.50009e-06 1.0464e-05 -0.000853406
0.00304936 0.00151145 5.93666e-05
0.00151145 0.000933245 4.89732e-05
5.93666e-05 4.89732e-05 0.000606188
-0.00369585 0.00236475 0.000166037
0.00236475 0.00913886 7.22183e-05
0.000166037 7.22183e-05 0.00334529
0.00582664 0.00648076 -0.000616946
0.00648076 -0.00177749 -0.000212658
-0.000616946 -0.000212658 -0.00397321
0.000119095 0.00307074 0.000517531
0.00307074 -0.000515629 0.00021524
0.000517531 0.00021524 -0.000224639
-7.30776e-06 0.00138504 -1.25544e-05
0.00138504 7.58792e-05 -4.2565e-05
-1.25544e-05 -4.2565e-05 -0.000238162
0.0314294 -0.00469012 8.51134e-06
-0.00469012 0.0123291 -0.00053042
8.51134e-06 -0.00053042 0.00555855
0.00839886 0.00308395 0.000960295
0.00308395 0.00412741 0.00032607
0.000960295 0.00032607 -0.00282386
0.0141034 -0.00122672 0.000169775
-0.00122672 0.00285292 6.15242e-05
0.000169775 6.15242e-05 0.00389265
0.00157429 0.000815781 1.04181e-05
0.000815781 0.000891369 -1.08766e-06
1.04181e-05 -1.08766e-06 0.000449384
0.00395196 0.00128971 -6.43495e-05
0.00128971 0.00439099 -1.86423e-06
-6.43495e-05 -1.86423e-06 -0.000845001
0.0024016 0.00123995 0.000124386
0.00123995 0.000758883 -1.40765e-05
0.000124386 -1.40765e-05 -0.00144296
-1.26093e-05 0.0008391 -9.06912e-06
0.0008391 0.000216857 -6.32478e-06
-9.06912e-06 -6.32478e-06 -0.000288688
-0.000750232 0.00209687 -0.000147859
0.00209687 0.000425073 -8.72542e-05
-0.000147859 -8.72542e-05 -0.000946619
0.00243421 0.00726324 0.000388227
0.00726324 0.00148826 0.000129907
0.000388227 0.000129907 -0.00314537
0.0125027 -0.000481643 1.58096e-05
-0.000481643 -0.00297761 -0.000231037
1.58096e-05 -0.000231037 -0.000993234
0.00944606 -0.00304424 -0.000127383
-0.00304424 0.00530166 -0.000229809
-0.000127383 -0.000229809 -0.00163085
0.00120919 0.000705954 -5.77728e-06
0.000705954 0.00104532 -1.14867e-05
-5.77728e-06 -1.14867e-05 0.000498412
-0.00414362 0.000750738 5.01178e-05
0.000750738 0.0010336 6.81974e-05
5.01178e-05 6.81974e-05 -0.000846408
0.00737403 -0.000896269 0.000258751
-0.000896269 0.000189466 -0.000119685
0.000258751 -0.000119685 -0.00163421
0.0100029 -0.000180543 0.000374114
-0.000180543 -0.000583084 -8.80262e-06
0.000374114 -8.80262e-06 -0.00084002
-0.00300114 0.000363176 6.28423e-05
0.000363176 0.000224562 -1.50839e-05
6.28423e-05 -1.50839e-05 -0.000855756
0.00890337 0.00424762 0.000416652
0.00424762 0.0057592 0.000183772
0.000416652 0.000183772 -0.00107758
0.00634711 -0.000662984 -4.10831e-05
-0.000662984 0.0032602 0.000389337
-4.10831e-05 0.000389337 -0.00133878
0.00324113 0.000562066 2.72688e-05
0.000562066 0.00207854 1.12721e-05
2.72688e-05 1.12721e-05 0.0017226
0.000319841 0.000301399 -8.6812e-06
0.000301399 0.000485076 -2.04054e-06
-8.6812e-06 -2.04054e-06 8.35359e-06
0.000358787 0.00030032 -4.83921e-07
0.00030032 0.000664618 -1.54186e-05
-4.83921e-07 -1.54186e-05 1.9546e-05
2.87864e-05 9.77356e-05 2.76483e-06
9.77356e-05 -0.000125182 -3.36933e-06
2.76483e-06 -3.36933e-06 -0.000338352
0.00050707 0.000133841 -3.33425e-07
0.000133841 0.000297151 8.60441e-07
-3.33425e-07 8.60441e-07 5.03776e-05
-0.000198522 2.27391e-05 1.88057e-06
2.27391e-05 0.00030473 -7.07501e-06
1.88057e-06 -7.07501e-06 -0.000232146
0.000433451 2.75407e-05 2.05018e-07
2.75407e-05 0.000236337 -6.245e-07
2.05018e-07 -6.245e-07 4.70175e-06
0.000892966 -6.13463e-05 -1.82915e-07
-6.13463e-05 0.000882124 -2.99578e-06
-1.82915e-07 -2.99578e-06 0.000412206
-0.000125062 2.58765e-05 4.20844e-06
2.58765e-05 0.000438476 1.26427e-06
4.20844e-06 1.26427e-06 -0.000127059
1.05076e-05 -7.30891e-05 -2.41119e-07
-7.30891e-05 0.000474394 1.65753e-05
-2.41119e-07 1.65753e-05 -2.08137e-05
0.000808908 -6.65761e-05 5.65598e-07
-6.65761e-05 0.000741078 -1.4524e-05
5.65598e-07 -1.4524e-05 0.000383193
-0.000149129 -3.59279e-05 6.06611e-06
-3.59279e-05 -0.000171988 7.49518e-06
6.06611e-06 7.49518e-06 -0.000357595
0.00148836 -7.50525e-05 6.07847e-07
-7.50525e-05 0.000744706 6.33188e-06
6.07847e-07 6.33188e-06 0.000578422
3.88842e-05 -6.44551e-05 -8.31603e-06
-6.44551e-05 -4.68958e-05 1.03456e-05
-8.31603e-06 1.03456e-05 -0.000210168
0.000599785 -9.01122e-05 9.15183e-07
-9.01122e-05 0.00044296 5.42148e-07
9.15183e-07 5.42148e-07 0.00023359
1.46054e-05 -5.29789e-05 -3.01107e-06
-5.29789e-05 -0.000102992 -1.89653e-06
-3.01107e-06 -1.89653e-06 -0.000245485
0.00132192 -0.000323812 2.34536e-06
-0.000323812 0.000671872 2.31953e-06
2.34536e-06 2.31953e-06 0.000516606
0.000544223 -0.000240537 -2.27014e-05
-0.000240537 0.000133122 3.28176e-08
-2.27014e-05 3.28176e-08 6.43564e-05
-0.000466262 -0.000342946 1.67641e-05
-0.000342946 -0.0004322 2.0721e-05
1.67641e-05 2.0721e-05 -0.000785107
-2.84904e-05 -0.000135213 1.40857e-06
-0.000135213 -0.000249766 2.58297e-06
1.40857e-06 2.58297e-06 -0.000363581
0.00116173 -0.000379249 -6.20018e-06
-0.000379249 0.00037953 9.82446e-06
-6.20018e-06 9.82446e-06 0.000149337
0.00217109 -0.00075012 -6.43896e-06
-0.00075012 0.000939951 1.06787e-05
-6.43896e-06 1.06787e-05 0.000461352
0.0021278 -0.000804669 -3.15873e-06
-0.000804669 0.000825945 -2.28478e-06
-3.15873e-06 -2.28478e-06 0.000297002
0.00206663 -0.00052179 4.91788e-06
-0.00052179 0.000938993 1.41078e-06
4.91788e-06 1.41078e-06 0.000620082
0.000715441 -0.00051126 1.17116e-05
-0.00051126 5.95405e-05 -3.50543e-06
1.17116e-05 -3.50543e-06 -0.000312476
0.00114779 -0.00023098 3.6205e-06
-0.00023098 0.000545112 -5.52789e-06
3.6205e-06 -5.52789e-06 0.000220746
0.00104319 -0.000249186 -7.59559e-06
-0.000249186 0.000383354 1.87415e-06
-7.59559e-06 1.87415e-06 0.000148781
-0.000168239 -0.000220133 2.12618e-05
-0.000220133 -0.000425471 -1.38991e-05
2.12618e-05 -1.38991e-05 -0.000590756
0.00138481 -0.000160629 -5.44166e-06
-0.000160629 0.000696753 4.49189e-06
-5.44166e-06 4.49189e-06 0.000465147
-4.29858e-05 -0.000136767 4.58602e-07
-0.000136767 -0.000143281 1.19337e-06
4.58602e-07 1.19337e-06 -0.000440435
-0.0002229 -4.28066e-05 1.74982e-06
-4.28066e-05 -0.000358451 -1.49631e-06
1.74982e-06 -1.49631e-06 -0.000582142
0.00217221 -0.000405658 -3.91113e-06
-0.000405658 0.00121382 4.42323e-07
-3.91113e-06 4.42323e-07 0.000956656
0.000767486 -0.000172501 -4.98909e-07
-0.000172501 0.000257448 -7.45352e-08
-4.98909e-07 -7.45352e-08 7.17641e-05
0.000406679 -1.46859e-05 4.36836e-06
-1.46859e-05 5.49354e-06 6.07376e-06
4.36836e-06 6.07376e-06 -0.000121355
0.000866701 -0.00021186 -7.88782e-07
-0.00021186 0.000352563 -5.73361e-07
-7.88782e-07 -5.73361e-07 0.000174018
0.000443319 -6.09888e-06 -2.26223e-06
-6.09888e-06 3.50394e-05 -3.52774e-07
-2.26223e-06 -3.52774e-07 -8.01105e-05
0.00148706 -1.27996e-05 -2.21163e-05
-1.27996e-05 0.000661249 6.62265e-06
-2.21163e-05 6.62265e-06 0.000629599
0.000665157 -9.08613e-05 7.32569e-07
-9.08613e-05 0.00017844 -5.40848e-06
7.32569e-07 -5.40848e-06 7.41316e-05
0.00084373 -1.883e-05 -1.19411e-05
-1.883e-05 0.000246578 5.89109e-07
-1.19411e-05 5.89109e-07 0.00021566
0.000842106 2.96219e-05 1.31528e-06
2.96219e-05 0.000230063 3.60599e-06
1.31528e-06 3.60599e-06 0.000227155
0.000423187 -4.38863e-05 3.75384e-06
-4.38863e-05 -2.04839e-05 -6.78844e-06
3.75384e-06 -6.78844e-06 -5.2743e-05
0.00175921 2.81323e-05 1.83667e-05
2.81323e-05 0.00082821 -1.34725e-06
1.83667e-05 -1.34725e-06 0.000834536
0.00256375 1.7052e-05 2.45072e-05
1.7052e-05 0.00135003 -5.69453e-06
2.45072e-05 -5.69453e-06 0.00136254
0.000171267 3.4216e-05 6.64853e-07
3.4216e-05 -0.000123819 2.94739e-06
6.64853e-07 2.94739e-06 -0.000278223
2.53716e-06 2.65726e-05 -2.35166e-07
2.65726e-05 -0.000270373 -5.82613e-06
-2.35166e-07 -5.82613e-06 -0.000347681
0.000553078 7.94549e-05 -2.70365e-07
7.94549e-05 0.000120382 5.56914e-07
-2.70365e-07 5.56914e-07 -1.45949e-05
0.000433008 1.33904e-05 1.69004e-06
1.33904e-05 -2.96941e-05 -4.95387e-06
1.69004e-06 -4.95387e-06 -4.55248e-05
0.000291364 8.95991e-06 1.71788e-06
8.95991e-06 -8.64974e-05 3.84683e-08
1.71788e-06 3.84683e-08 -0.000150999
0.000175527 -0.000100887 4.6425e-07
-0.000100887 -0.000120109 2.22287e-06
4.6425e-07 2.22287e-06 -0.00024022
0.00208328 -7.0696e-07 -1.41905e-05
-7.0696e-07 0.00103739 -5.29681e-06
-1.41905e-05 -5.29681e-06 0.0010541
0.000416351 7.86887e-06 1.75532e-07
7.86887e-06 -4.00165e-05 -7.92985e-08
1.75532e-07 -7.92985e-08 -5.26708e-05
0.00038798 -1.01466e-05 -3.11852e-06
-1.01466e-05 -2.29798e-05 3.97244e-06
-3.11852e-06 3.97244e-06 -7.84886e-05
0.00207091 1.4941e-05 -5.01844e-06
1.4941e-05 0.00103098 -1.76114e-08
-5.01844e-06 -1.76114e-08 0.00104722
0.000414772 6.13458e-06 -1.6997e-06
6.13458e-06 -3.99201e-05 4.10932e-06
-1.6997e-06 4.10932e-06 -5.20709e-05
0.00206095 3.0519e-05 5.14904e-06
3.0519e-05 0.00102646 5.44192e-06
5.14904e-06 5.44192e-06 0.00104133
-0.000862727 -0.00153479 -0.000351173
-0.00153479 -0.000162723 0.000151255
-0.000351173 0.000151255 -0.00448515
0.0040389 0.00182155 -0.000236793
0.00182155 0.0106955 6.12406e-05
-0.000236793 6.12406e-05 0.00425224
0.00502647 0.000826221 -0.00147934
0.000826221 0.00507512 0.000328855
-0.00147934 0.000328855 0.00256688
0.000572529 0.000125962 8.39559e-06
0.000125962 0.000151333 8.52334e-06
8.39559e-06 8.52334e-06 -2.48987e-05
0.00643516 -0.00143644 -0.000210073
-0.00143644 0.00412589 0.000332196
-0.000210073 0.000332196 0.00121825
0.00462571 -0.00165376 -0.000330903
-0.00165376 0.00228843 3.89287e-05
-0.000330903 3.89287e-05 -0.00294004
0.0190826 0.00738931 0.000278306
0.00738931 0.0117061 -0.000515982
0.000278306 -0.000515982 0.00386514
0.00781062 -0.00177974 0.000160686
-0.00177974 -0.000277882 -2.53229e-05
0.000160686 -2.53229e-05 0.000926272
0.0154005 -0.00383198 0.000385588
-0.00383198 0.000225433 -0.000239586
0.000385588 -0.000239586 0.000572463
0.0178699 0.00622862 -0.00102324
0.00622862 0.0050516 0.000428572
-0.00102324 0.000428572 -0.00220587
0.0162979 0.00488209 0.000258333
0.00488209 0.00934458 0.000292564
0.000258333 0.000292564 0.00518487
0.0078124 -0.00347284 -9.7953e-05
-0.00347284 -0.000774571 -6.38253e-06
-9.7953e-05 -6.38253e-06 0.000683704
0.0131252 -0.00685359 1.2623e-06
-0.00685359 0.00110917 -4.65259e-05
1.2623e-06 -4.65259e-05 -0.00111784
0.011301 0.00282381 0.000133068
0.00282381 0.00702151 -0.000458009
0.000133068 -0.000458009 -9.32663e-05
0.0154954 0.00138067 -1.10857e-05
0.00138067 0.00163838 6.99766e-05
-1.10857e-05 6.99766e-05 3.59531e-05
0.00390502 -0.00375596 -4.81829e-05
-0.00375596 0.000540272 6.79382e-05
-4.81829e-05 6.79382e-05 0.00133817
0.0111023 -0.00675909 0.000292357
-0.00675909 0.00473265 -0.000172807
0.000292357 -0.000172807 0.000809152
0.00902139 -0.000112214 3.54257e-05
-0.000112214 0.0063396 -0.000513742
3.54257e-05 -0.000513742 0.00153396
0.0149997 -0.000321528 -0.000219579
-0.000321528 -0.000472964 0.000323163
-0.000219579 0.000323163 0.00061829
0.000190213 0.000162794 9.44261e-06
0.000162794 -2.35164e-06 1.49447e-05
9.44261e-06 1.49447e-05 -0.00021971
0.000519215 -0.000104463 4.43751e-07
-0.000104463 0.000231069 -4.19251e-07
4.43751e-07 -4.19251e-07 -3.22177e-05
0.000379445 6.21231e-05 6.83298e-06
6.21231e-05 7.17229e-05 3.00529e-07
6.83298e-06 3.00529e-07 -8.38427e-05
0.000626077 0.000193532 3.29291e-06
0.000193532 0.000128372 1.98581e-05
3.29291e-06 1.98581e-05 -2.7849e-05
0.000900017 0.000255884 -1.35124e-07
0.000255884 0.000393307 -1.02274e-06
-1.35124e-07 -1.02274e-06 0.000171421
0.00102791 0.000138289 8.37123e-07
0.000138289 0.000493699 -2.52618e-06
8.37123e-07 -2.52618e-06 0.000303708
0.00113557 0.000215206 -1.97582e-06
0.000215206 0.000540259 -2.19464e-07
-1.97582e-06 -2.19464e-07 0.000331942
0.00110992 0.000240192 3.54519e-06
0.000240192 0.000550982 2.09939e-06
3.54519e-06 2.09939e-06 0.000332729
0.00120631 -0.0010967 0.00014072
-0.0010967 -0.000972624 -9.13329e-05
0.00014072 -9.13329e-05 -0.000573473
-0.000275663 -0.000875706 -3.06268e-05
-0.000875706 -0.000994518 -1.53925e-05
-3.06268e-05 -1.53925e-05 -0.00101544
0.00030697 -0.000145622 5.48573e-06
-0.000145622 0.000123844 -2.72577e-05
5.48573e-06 -2.72577e-05 -0.000175866
0.00215741 -0.000856258 3.29368e-05
-0.000856258 0.00125128 -2.46594e-05
3.29368e-05 -2.46594e-05 0.000857622
0.0029355 -0.000624503 -2.35595e-05
-0.000624503 0.00180541 1.74436e-05
-2.35595e-05 1.74436e-05 0.00139672
0.00181579 -0.000194685 1.33472e-05
-0.000194685 0.00114693 -2.25172e-05
1.33472e-05 -2.25172e-05 0.00079038
4.56173e-05 7.05307e-05 2.5568e-06
7.05307e-05 -3.72626e-05 9.48356e-06
2.5568e-06 9.48356e-06 -0.000263821
0.00061324 -0.00191664 -1.51741e-05
-0.00191664 -0.000582459 -5.86697e-06
-1.51741e-05 -5.86697e-06 -0.000907345
0.00151301 -0.000100924 -2.44354e-06
-0.000100924 0.0010715 -2.16364e-06
-2.44354e-06 -2.16364e-06 0.000682629
-0.000315026 -0.000265008 -1.24126e-05
-0.000265008 8.21288e-05 1.00819e-05
-1.24126e-05 1.00819e-05 -0.000421974
-0.000673616 -0.000598383 3.34375e-05
-0.000598383 -0.000586907 -4.31924e-06
3.34375e-05 -4.31924e-06 -0.000619001
0.000379512 9.41505e-05 6.6201e-06
9.41505e-05 0.000198816 4.60805e-06
6.6201e-06 4.60805e-06 4.74882e-06
-0.000219224 -0.00192926 -0.000115241
-0.00192926 9.68854e-05 -2.12507e-05
-0.000115241 -2.12507e-05 -0.00060799
-0.000745654 -0.000554427 -2.57839e-05
-0.000554427 -0.000132887 1.96723e-05
-2.57839e-05 1.96723e-05 -0.000599148
0.000412329 0.000149931 1.42508e-06
0.000149931 0.00064001 -7.59023e-06
1.42508e-06 -7.59023e-06 9.26563e-05
0.00181121 0.000288921 -2.85564e-06
0.000288921 0.00141466 1.00903e-05
-2.85564e-06 1.00903e-05 0.000936609
-0.000744201 9.11795e-05 0.000247774
9.11795e-05 0.00335911 6.20273e-05
0.000247774 6.20273e-05 0.00121118
-4.86558e-06 4.75638e-05 0.000215014
4.75638e-05 0.00133788 -3.635e-05
0.000215014 -3.635e-05 -0.00401226
-0.0142932 -0.000555564 -0.000514134
-0.000555564 0.00683312 2.78668e-05
-0.000514134 2.78668e-05 0.000924886
0.00181449 0.000810447 2.15204e-05
0.000810447 0.00112068 6.37106e-07
2.15204e-05 6.37106e-07 0.000689412
-0.000545419 0.0010634 1.75813e-05
0.0010634 -7.59433e-05 1.28744e-05
1.75813e-05 1.28744e-05 -0.000733283
0.00597754 0.00175691 0.000564186
0.00175691 0.00477633 0.000139047
0.000564186 0.000139047 0.000748479
0.00677512 0.00538396 0.000265718
0.00538396 0.00326632 0.000231168
0.000265718 0.000231168 -0.0007196
0.00288068 0.00354548 -0.000162919
0.00354548 0.00182407 -0.000158892
-0.000162919 -0.000158892 0.000107782
0.00521785 -0.00220634 -0.000180619
-0.00220634 0.00561226 -0.000537205
-0.000180619 -0.000537205 0.000400246
0.00351499 0.00074124 0.000141643
0.00074124 0.00109314 0.000158491
0.000141643 0.000158491 -0.0010839
0.00980169 -0.000355966 -4.83968e-05
-0.000355966 -0.00522202 -0.000275523
-4.83968e-05 -0.000275523 -0.00284063
0.000896838 0.000775868 3.78232e-06
0.000775868 0.000799543 -1.17913e-06
3.78232e-06 -1.17913e-06 0.000212559
-0.00312407 0.000409631 3.10319e-07
0.000409631 0.00126069 8.46503e-06
3.10319e-07 8.46503e-06 -0.0008015
0.00610774 -0.00043357 0.00019211
-0.00043357 0.000124862 1.30942e-05
0.00019211 1.30942e-05 -0.00141424
-0.00190277 0.000805906 -2.11808e-05
0.000805906 3.84378e-05 -1.28742e-05
-2.11808e-05 -1.28742e-05 -0.000986069
0.0158337 0.00167545 1.16015e-05
0.00167545 0.00157453 -7.47371e-05
1.16015e-05 -7.47371e-05 1.51258e-05
0.00425498 0.00278936 0.000335062
0.00278936 0.00532961 0.000204935
0.000335062 0.000204935 -0.00120411
0.0121045 0.000639601 -0.000200949
0.000639601 0.00459657 1.15442e-05
-0.000200949 1.15442e-05 -9.05471e-05
0.00100154 0.000788416 -5.39519e-06
0.000788416 0.00103145 -2.4001e-05
-5.39519e-06 -2.4001e-05 0.000265128
0.00286774 -3.3187e-05 1.31464e-05
-3.3187e-05 0.00157335 1.88456e-05
1.31464e-05 1.88456e-05 -1.59239e-05
0.00404755 -0.00237892 0.000229774
-0.00237892 0.00391502 -0.000284556
0.000229774 -0.000284556 0.00146651
0.0294656 0.00689857 0.000414378
0.00689857 0.011136 -0.000362939
0.000414378 -0.000362939 0.0057309
0.00996173 -0.000437098 -0.00014472
-0.000437098 0.00701766 0.000594901
-0.00014472 0.000594901 0.00209745
-0.00161305 0.000785157 -0.000136504
0.000785157 0.000720965 -0.000129037
-0.000136504 -0.000129037 -0.000351308
0.00273878 0.00112146 0.000247517
0.00112146 0.0062962 2.1695e-05
0.000247517 2.1695e-05 -0.0032669
0.0015955 0.000514462 1.42051e-05
0.000514462 0.00119413 1.14656e-05
1.42051e-05 1.14656e-05 0.00068648
0.000871009 0.000355654 7.82156e-06
0.000355654 0.000992459 8.2181e-06
7.82156e-06 8.2181e-06 0.000385157
0.000483408 -9.94627e-05 -5.97101e-06
-9.94627e-05 0.00107712 1.79332e-05
-5.97101e-06 1.79332e-05 0.000500641
-0.00105788 -6.73668e-06 4.03726e-06
-6.73668e-06 -0.000712463 -3.27831e-06
4.03726e-06 -3.27831e-06 -0.000935363
-0.000599475 -6.41034e-06 2.11242e-06
-6.41034e-06 5.43818e-05 2.96e-06
2.11242e-06 2.96e-06 -0.000485721
8.87156e-05 3.06469e-05 -7.52046e-06
3.06469e-05 0.00060292 -1.09864e-05
-7.52046e-06 -1.09864e-05 1.04109e-05
-0.000230582 -5.76357e-06 -4.55257e-07
-5.76357e-06 6.24043e-05 3.21562e-07
-4.55257e-07 3.21562e-07 -0.000260484
-0.00020156 -7.67489e-05 3.12602e-06
-7.67489e-05 0.000343333 2.55552e-06
3.12602e-06 2.55552e-06 -0.000157627
0.00227528 -0.000538002 1.30249e-05
-0.000538002 0.00148983 -1.30453e-05
1.30249e-05 -1.30453e-05 0.0011219
-9.21579e-05 -4.89531e-05 -1.33535e-06
-4.89531e-05 1.05301e-05 9.63247e-06
-1.33535e-06 9.63247e-06 -0.000193283
-0.000944714 1.2973e-05 1.75275e-06
1.2973e-05 -0.000673031 4.67007e-06
1.75275e-06 4.67007e-06 -0.0008145
0.00102001 -0.000349671 -2.15563e-06
-0.000349671 0.000503966 5.99888e-06
-2.15563e-06 5.99888e-06 0.000293881
-0.00434094 8.53357e-05 2.88472e-05
8.53357e-05 -0.00247643 2.36354e-05
2.88472e-05 2.36354e-05 -0.00284429
-0.00105 -9.42216e-05 2.47799e-05
-9.42216e-05 -0.000761006 -2.47961e-06
2.47799e-05 -2.47961e-06 -0.000778547
-6.34213e-05 -0.000385468 -8.27199e-06
-0.000385468 -0.000248143 -4.78357e-06
-8.27199e-06 -4.78357e-06 -0.000557938
0.00167364 -0.000774875 1.09958e-06
-0.000774875 0.000611182 -2.09259e-06
1.09958e-06 -2.09259e-06 -1.31498e-05
0.00191477 -0.000912636 -1.00755e-05
-0.000912636 0.000629749 9.24652e-07
-1.00755e-05 9.24652e-07 3.66484e-05
0.00132147 -0.000400851 3.06121e-06
-0.000400851 0.000458249 -4.00918e-06
3.06121e-06 -4.00918e-06 0.000219664
0.00150145 -0.000665222 8.71246e-07
-0.000665222 0.000520558 1.13636e-06
8.71246e-07 1.13636e-06 5.63596e-05
0.00177065 -0.000811713 5.13347e-06
-0.000811713 0.000530883 -6.77561e-06
5.13347e-06 -6.77561e-06 7.29747e-07
0.0021976 -0.000661491 2.89665e-06
-0.000661491 0.000963007 3.34501e-06
2.89665e-06 3.34501e-06 0.000517918
0.00101473 -0.000653756 2.24405e-06
-0.000653756 0.000141657 -5.56035e-06
2.24405e-06 -5.56035e-06 -0.000342402
0.00130753 -0.000261388 2.42126e-06
-0.000261388 0.00048994 -5.27528e-06
2.42126e-06 -5.27528e-06 0.000209655
0.00102264 -0.000431245 -2.81591e-06
-0.000431245 0.000289576 1.47154e-06
-2.81591e-06 1.47154e-06 -2.84227e-05
-0.000937005 -0.00027304 -7.40856e-07
-0.00027304 -0.000955308 -8.21222e-06
-7.40856e-07 -8.21222e-06 -0.00125825
-0.000301503 -9.25261e-05 1.06118e-06
-9.25261e-05 -0.000356297 -5.09058e-06
1.06118e-06 -5.09058e-06 -0.000655196
0.000540333 -0.000215582 -3.83684e-08
-0.000215582 0.000198047 -1.4738e-07
-3.83684e-08 -1.4738e-07 -0.000131284
-0.000494198 -0.000166291 6.51346e-06
-0.000166291 -0.00052071 1.77331e-06
6.51346e-06 1.77331e-06 -0.000770383
0.00114446 -0.000203628 -1.60837e-06
-0.000203628 0.000575516 2.90454e-06
-1.60837e-06 2.90454e-06 0.000289818
0.000704797 -0.000166561 5.08573e-07
-0.000166561 0.000233867 3.98989e-07
5.08573e-07 3.98989e-07 -7.61934e-07
0.000272342 -4.10448e-05 2.04363e-06
-4.10448e-05 -0.000101517 7.62188e-06
2.04363e-06 7.62188e-06 -0.00023825
0.00139426 -0.000264283 -2.37215e-06
-0.000264283 0.000680188 1.2124e-06
-2.37215e-06 1.2124e-06 0.000470951
0.000556374 -4.41797e-05 -1.41137e-06
-4.41797e-05 8.13284e-05 -1.74988e-07
-1.41137e-06 -1.74988e-07 -3.73281e-05
0.000319406 4.65846e-05 3.50987e-06
4.65846e-05 -8.15703e-05 9.48781e-06
3.50987e-06 9.48781e-06 -0.000131435
0.000901483 -0.000104535 1.11626e-08
-0.000104535 0.00031763 -4.51596e-06
1.11626e-08 -4.51596e-06 0.000204325
0.000436164 -2.22629e-05 -1.69852e-06
-2.22629e-05 -1.91211e-05 -2.16187e-08
-1.69852e-06 -2.16187e-08 -5.86462e-05
0.00279993 9.57624e-05 -1.89396e-07
9.57624e-05 0.001505 3.12014e-06
-1.89396e-07 3.12014e-06 0.00150611
0.000486511 -3.92396e-05 3.49058e-06
-3.92396e-05 1.6142e-05 -7.5423e-06
3.49058e-06 -7.5423e-06 -1.97769e-05
0.00180729 4.18984e-05 2.18e-05
4.18984e-05 0.000858834 -1.06923e-06
2.18e-05 -1.06923e-06 0.000862767
0.00265721 3.2752e-05 3.1571e-05
3.2752e-05 0.0014084 -6.07307e-06
3.1571e-05 -6.07307e-06 0.00142008
0.000235554 4.21016e-05 3.32651e-06
4.21016e-05 -9.9019e-05 2.99981e-06
3.32651e-06 2.99981e-06 -0.000242925
0.000117583 1.56352e-05 1.77548e-06
1.56352e-05 -0.000195953 -4.04125e-06
1.77548e-06 -4.04125e-06 -0.000289508
0.00043061 5.33807e-05 -3.68068e-07
5.33807e-05 4.39586e-05 -9.63585e-07
-3.68068e-07 -9.63585e-07 -0.000106596
0.000463911 1.42399e-05 1.83147e-06
1.42399e-05 -1.00171e-05 -5.63706e-06
1.83147e-06 -5.63706e-06 -3.05037e-05
0.000102244 2.63724e-05 -8.72574e-07
2.63724e-05 -0.000205694 -2.14781e-06
-8.72574e-07 -2.14781e-06 -0.000286581
0.00061631 8.15527e-05 1.26857e-06
8.15527e-05 0.00018013 3.26038e-06
1.26857e-06 3.26038e-06 3.25828e-05
0.00215784 -1.49505e-05 -1.96858e-05
-1.49505e-05 0.0010847 -5.32742e-06
-1.96858e-05 -5.32742e-06 0.00110082
0.000429691 9.82047e-06 -9.60769e-07
9.82047e-06 -3.29816e-05 -1.50837e-07
-9.60769e-07 -1.50837e-07 -4.81304e-05
5.12946e-06 1.80106e-05 2.16914e-06
1.80106e-05 -0.000267666 3.87192e-06
2.16914e-06 3.87192e-06 -0.000336376
0.00207594 5.08731e-08 -4.08143e-06
5.08731e-08 0.00103264 6.90195e-08
-4.08143e-06 6.90195e-08 0.00104941
0.000404466 7.35815e-06 -2.06869e-06
7.35815e-06 -4.80583e-05 4.30191e-06
-2.06869e-06 4.30191e-06 -6.0314e-05
0.00208635 1.60657e-05 1.04057e-05
1.60657e-05 0.00104133 5.40189e-06
1.04057e-05 5.40189e-06 0.00105726
0.000830755 -0.000117577 0.000241118
-0.000117577 0.0041048 0.00013543
0.000241118 0.00013543 0.00238176
-0.000584485 -0.000596949 -7.53067e-05
-0.000596949 0.000530412 1.64756e-06
-7.53067e-05 1.64756e-06 -0.00453055
0.00099563 0.00184215 -0.000258312
0.00184215 0.010108 -9.59016e-05
-0.000258312 -9.59016e-05 0.00325306
0.000832205 0.000161372 1.08472e-06
0.000161372 0.000297982 1.8025e-07
1.08472e-06 1.8025e-07 0.000130155
9.534e-05 0.000107997 7.49753e-06
0.000107997 -0.000157296 5.08538e-06
7.49753e-06 5.08538e-06 -0.000332042
0.00152723 0.000261797 1.31822e-05
0.000261797 0.000735973 1.52026e-05
1.31822e-05 1.52026e-05 0.00056271
0.00846895 -0.000970016 -0.000263941
-0.000970016 0.00012471 0.000173186
-0.000263941 0.000173186 -0.00196444
0.00682812 -0.00216331 0.000154816
-0.00216331 0.00370976 3.31701e-05
0.000154816 3.31701e-05 0.00169553
0.00470522 -0.00322466 0.000332021
-0.00322466 0.00201822 -0.000343497
0.000332021 -0.000343497 -0.0030648
0.00941596 -0.0041076 -2.14611e-05
-0.0041076 -0.000723075 -4.42342e-05
-2.14611e-05 -4.42342e-05 0.000934003
0.0038099 -0.00623788 -0.000807278
-0.00623788 -0.00216879 4.65851e-05
-0.000807278 4.65851e-05 -0.00336818
0.0299069 0.00597362 0.000558795
0.00597362 0.0144847 0.000284701
0.000558795 0.000284701 0.00593728
0.00842498 -0.000906904 0.000432866
-0.000906904 -0.00167673 -0.000320303
0.000432866 -0.000320303 -0.00312198
0.00249709 -0.0038024 -8.67374e-06
-0.0038024 -0.000990533 1.64992e-05
-8.67374e-06 1.64992e-05 0.000469713
0.00607657 -0.00672529 -0.000247457
-0.00672529 0.00256117 9.06825e-06
-0.000247457 9.06825e-06 -0.00254545
0.00521758 0.00448964 -0.000120435
0.00448964 0.00681681 -0.000390564
-0.000120435 -0.000390564 0.000309399
0.0126112 -0.000292271 -0.000136611
-0.000292271 -0.00276563 0.000175446
-0.000136611 0.000175446 -0.00102429
-0.00132225 -0.00259186 -0.000169981
-0.00259186 0.000307574 9.40618e-05
-0.000169981 9.40618e-05 -0.00025451
0.00858457 -0.00370343 -0.000454006
-0.00370343 0.00594014 0.000261518
-0.000454006 0.000261518 -0.000108999
0.00442472 -0.000178082 5.09193e-05
-0.000178082 0.00319474 -0.000353659
5.09193e-05 -0.000353659 -0.00158113
0.0098162 0.000315158 9.2825e-05
0.000315158 -0.00150158 0.000156168
9.2825e-05 0.000156168 -0.001783
-0.000140532 8.47522e-05 9.96128e-06
8.47522e-05 -0.000249269 2.23203e-05
9.96128e-06 2.23203e-05 -0.000390203
0.000665843 2.12999e-05 1.1737e-06
2.12999e-05 0.00028732 -1.69146e-06
1.1737e-06 -1.69146e-06 5.8719e-05
0.000502694 -0.000210076 1.00478e-05
-0.000210076 0.000162196 -9.4175e-06
1.00478e-05 -9.4175e-06 -7.20663e-05
0.000606431 0.000177995 -1.96174e-06
0.000177995 0.000130029 2.27553e-06
-1.96174e-06 2.27553e-06 -3.33025e-05
0.000834862 0.000201016 4.4952e-06
0.000201016 0.000360219 -8.5798e-06
4.4952e-06 -8.5798e-06 0.000144985
0.00125612 0.00024657 -4.82022e-06
0.00024657 0.000618031 -7.04687e-06
-4.82022e-06 -7.04687e-06 0.000406418
0.00108174 -0.00174753 7.44457e-05
-0.00174753 -0.000107799 -2.29819e-05
7.44457e-05 -2.29819e-05 -0.000397966
-0.000545357 -0.000493636 7.40957e-06
-0.000493636 -0.000570254 -2.74474e-05
7.40957e-06 -2.74474e-05 -0.000539525
0.000223778 0.00017648 -3.84662e-06
0.00017648 8.68402e-05 -2.1992e-05
-3.84662e-06 -2.1992e-05 -0.000173132
0.00279103 -0.000600916 8.43236e-05
-0.000600916 0.00178588 -4.06198e-05
8.43236e-05 -4.06198e-05 0.0013292
0.00260553 -0.000164904 9.64663e-06
-0.000164904 0.00167902 -1.39219e-05
9.64663e-06 -1.39219e-05 0.00132644
-0.000454515 9.26525e-05 9.21797e-06
9.26525e-05 -0.000271696 1.68027e-06
9.21797e-06 1.68027e-06 -0.000485805
1.37746e-05 4.96896e-05 3.2182e-06
4.96896e-05 0.000290274 4.65439e-06
3.2182e-06 4.65439e-06 -0.00013857
0.00211832 -0.00199745 -6.45892e-05
-0.00199745 0.00120905 2.3308e-06
-6.45892e-05 2.3308e-06 0.000413232
0.000229182 -5.08061e-05 -6.52431e-06
-5.08061e-05 0.00062787 -8.493e-09
-6.52431e-06 -8.493e-09 9.89499e-06
0.00017767 -0.000443682 -1.2874e-05
-0.000443682 0.000574609 -5.79566e-07
-1.2874e-05 -5.79566e-07 -3.94548e-05
0.000972681 0.000231947 8.18315e-06
0.000231947 0.000822012 -1.51898e-05
8.18315e-06 -1.51898e-05 0.00048184
-0.00322193 -0.000332599 -8.30376e-05
-0.000332599 -0.000376064 -5.74998e-06
-8.30376e-05 -5.74998e-06 -0.00143812
0.000252372 -0.000226274 -1.2968e-05
-0.000226274 0.00104603 -1.06528e-05
-1.2968e-05 -1.06528e-05 0.000319253
-0.00256883 -6.99773e-05 -2.43594e-05
-6.99773e-05 -0.000719401 2.82858e-07
-2.43594e-05 2.82858e-07 -0.00139035
0.000631517 0.000489574 -7.95073e-06
0.000489574 -0.000299769 6.64426e-08
-7.95073e-06 6.64426e-08 -0.00329335
-0.00197995 0.000629054 0.000144346
0.000629054 0.00308945 -8.55151e-07
0.000144346 -8.55151e-07 0.000894901
-0.00134752 -5.28263e-05 0.000448873
-5.28263e-05 0.000508452 4.75916e-05
0.000448873 4.75916e-05 -0.0047715
0.000188177 0.000784131 1.25056e-05
0.000784131 0.000341646 2.09888e-05
1.25056e-05 2.09888e-05 -0.000282713
0.000334955 0.00125884 -1.87461e-05
0.00125884 0.000763753 -3.02717e-05
-1.87461e-05 -3.02717e-05 -0.000213236
-0.00264508 0.00038588 -0.000151898
0.00038588 0.00153685 -5.16111e-05
-0.000151898 -5.16111e-05 -0.000658216
-0.00442404 0.000946943 0.000172082
0.000946943 0.00369539 0.00023363
0.000172082 0.00023363 -0.0025092
0.00245333 0.000691994 -0.000167823
0.000691994 -0.0015405 -0.000506874
-0.000167823 -0.000506874 -0.00744529
0.00545781 6.08333e-06 0.000115333
6.08333e-06 -0.000137727 4.64074e-05
0.000115333 4.64074e-05 -0.00105941
0.00759617 -0.000630046 -0.000413967
-0.000630046 -0.00177329 0.000298521
-0.000413967 0.000298521 -0.00323222
0.000345989 0.000597485 -4.99473e-06
0.000597485 0.000744463 -2.29001e-07
-4.99473e-06 -2.29001e-07 6.98996e-05
0.00166428 0.000257854 5.3987e-05
0.000257854 0.00149852 2.40886e-05
5.3987e-05 2.40886e-05 -4.20782e-05
0.00572001 -0.00157904 -0.000143872
-0.00157904 0.00356181 -1.80221e-05
-0.000143872 -1.80221e-05 0.00162813
-0.000187596 0.000931329 -0.000149429
0.000931329 0.00220086 -1.84459e-05
-0.000149429 -1.84459e-05 0.000184216
0.0205655 0.00657311 -0.000202323
0.00657311 0.00811807 -0.000497478
-0.000202323 -0.000497478 0.00287055
0.00696283 0.00396828 0.000100857
0.00396828 0.00714623 0.000421493
0.000100857 0.000421493 1.52462e-06
0.00605408 0.00156823 8.34909e-05
0.00156823 0.00702507 -6.69323e-06
8.34909e-05 -6.69323e-06 -0.000676912
2.76201e-05 5.16184e-05 2.47737e-05
5.16184e-05 0.00151135 -1.70644e-05
2.47737e-05 -1.70644e-05 6.38863e-05
0.000393612 -7.95853e-05 -0.000229229
-7.95853e-05 0.00472184 -1.70402e-06
-0.000229229 -1.70402e-06 0.00272517
0.000930263 -0.000934158 0.000868766
-0.000934158 0.00053975 -0.00028086
0.000868766 -0.00028086 -0.00513682
0.0295411 0.0116798 -0.000130697
0.0116798 0.0204876 -6.84451e-05
-0.000130697 -6.84451e-05 0.012471
0.0142174 0.00496233 0.000250841
0.00496233 0.00599128 0.00108729
0.000250841 0.00108729 -0.00172657
0.012462 -0.00524283 0.000498318
-0.00524283 0.00725737 -0.00033174
0.000498318 -0.00033174 -0.00012342
0.00154981 -0.000797415 -7.7518e-05
-0.000797415 0.00341853 4.97665e-05
-7.7518e-05 4.97665e-05 0.00206259
0.000602125 0.000272539 -6.20601e-06
0.000272539 0.000867494 2.45947e-06
-6.20601e-06 2.45947e-06 0.000314386
-0.000113977 -0.000105357 2.27289e-06
-0.000105357 0.000593659 -6.02872e-06
2.27289e-06 -6.02872e-06 -5.18088e-05
0.000785852 -0.000617595 5.44253e-05
-0.000617595 0.000841335 -1.75212e-05
5.44253e-05 -1.75212e-05 0.000118982
0.00023938 -8.01399e-05 -2.70014e-06
-8.01399e-05 0.00029243 1.35958e-05
-2.70014e-06 1.35958e-05 2.6253e-05
-3.17476e-05 -0.000109156 -4.49663e-06
-0.000109156 0.000375949 -2.06638e-05
-4.49663e-06 -2.06638e-05 -8.19942e-05
0.000820842 -0.000359169 -5.09295e-06
-0.000359169 0.000778027 4.85568e-07
-5.09295e-06 4.85568e-07 0.000399598
0.00122907 -0.000825703 3.04888e-05
-0.000825703 0.000628069 -1.67952e-05
3.04888e-05 -1.67952e-05 0.000161827
0.000659297 -0.000391162 4.50697e-06
-0.000391162 0.000320997 1.15102e-06
4.50697e-06 1.15102e-06 2.60118e-05
0.00123634 -0.000690832 1.93603e-05
-0.000690832 0.000578771 -5.09657e-06
1.93603e-05 -5.09657e-06 9.89632e-05
0.00139615 -0.000811737 1.54543e-05
-0.000811737 0.000619566 -3.10919e-06
1.54543e-05 -3.10919e-06 -0.000178094
0.000554231 -0.000418989 -1.01631e-05
-0.000418989 8.51292e-05 -4.26039e-06
-1.01631e-05 -4.26039e-06 -0.000171632
0.00237596 -0.000868641 -3.32301e-06
-0.000868641 0.000986575 -1.06266e-06
-3.32301e-06 -1.06266e-06 0.000364864
0.00165039 -0.000986466 -1.51154e-05
-0.000986466 0.00041402 -1.30291e-06
-1.51154e-05 -1.30291e-06 -0.000307901
0.00250534 -0.00118548 -1.31116e-05
-0.00118548 0.000708815 -1.0241e-07
-1.31116e-05 -1.0241e-07 5.92929e-05
0.00214075 -0.00103283 -4.19201e-06
-0.00103283 0.000684189 -1.42428e-06
-4.19201e-06 -1.42428e-06 7.26256e-05
0.00177115 -0.000891131 -5.81588e-06
-0.000891131 0.000540669 5.2531e-07
-5.81588e-06 5.2531e-07 -4.91784e-05
0.00130906 -0.000648166 -4.3721e-07
-0.000648166 0.000377174 -6.1134e-06
-4.3721e-07 -6.1134e-06 -8.79438e-05
0.00176818 -0.000781439 7.29531e-06
-0.000781439 0.000586362 -6.82401e-06
7.29531e-06 -6.82401e-06 6.84399e-05
0.00178591 -0.000826615 8.86816e-06
-0.000826615 0.000542562 -1.31677e-06
8.86816e-06 -1.31677e-06 9.24648e-06
0.00162123 -0.000385256 2.54285e-06
-0.000385256 0.000599864 6.90438e-07
2.54285e-06 6.90438e-07 0.000278639
0.00126625 -0.000568005 6.54467e-06
-0.000568005 0.000361708 -4.17826e-06
6.54467e-06 -4.17826e-06 -6.34229e-05
-0.000418386 -0.000463702 -1.53661e-05
-0.000463702 -0.000748279 -2.16261e-06
-1.53661e-05 -2.16261e-06 -0.0011786
0.000427324 -0.000139102 -8.50518e-08
-0.000139102 4.56109e-05 -6.32209e-06
-8.50518e-08 -6.32209e-06 -0.000247868
0.000819163 -0.00030803 -3.34751e-07
-0.00030803 0.000210951 -1.45823e-06
-3.34751e-07 -1.45823e-06 -8.52946e-05
-0.000229733 -0.000321795 -9.1127e-06
-0.000321795 -0.000495808 -8.36723e-07
-9.1127e-06 -8.36723e-07 -0.000808854
0.000210601 -8.99453e-05 -3.87385e-07
-8.99453e-05 -0.000116883 7.32828e-06
-3.87385e-07 7.32828e-06 -0.000303068
0.000837777 -0.000166892 1.18829e-07
-0.000166892 0.000351908 3.28835e-07
1.18829e-07 3.28835e-07 5.74356e-05
-0.000261385 -0.000270678 -2.58597e-06
-0.000270678 -0.000288724 5.46205e-06
-2.58597e-06 5.46205e-06 -0.00061282
0.00165942 -0.00024964 -1.00107e-06
-0.00024964 0.000846742 2.12794e-06
-1.00107e-06 2.12794e-06 0.000601796
0.000755952 -0.00010493 -3.62586e-07
-0.00010493 0.000208858 -1.0594e-07
-3.62586e-07 -1.0594e-07 6.39316e-05
0.000344226 1.30224e-05 3.33413e-06
1.30224e-05 -6.26263e-05 1.28718e-05
3.33413e-06 1.28718e-05 -0.000122261
0.000837085 -9.81735e-05 -1.17616e-07
-9.81735e-05 0.000260827 -5.95994e-06
-1.17616e-07 -5.95994e-06 0.000136282
0.000435334 -5.04732e-06 -4.754e-06
-5.04732e-06 -1.49583e-05 -4.04623e-07
-4.754e-06 -4.04623e-07 -6.22074e-05
0.00314396 0.000100857 -4.80548e-05
0.000100857 0.00173491 5.77683e-06
-4.80548e-05 5.77683e-06 0.00173613
0.000482175 -3.25357e-05 2.95891e-06
-3.25357e-05 7.35878e-06 -8.25902e-06
2.95891e-06 -8.25902e-06 -3.1825e-05
0.00191831 6.2131e-05 2.71776e-05
6.2131e-05 0.000933681 -6.76271e-07
2.71776e-05 -6.76271e-07 0.000933251
0.00284468 5.32241e-05 3.95031e-05
5.32241e-05 0.00153036 -5.90261e-06
3.95031e-05 -5.90261e-06 0.00153969
0.000844339 0.0001315 5.30487e-06
0.0001315 0.000298507 -3.29936e-06
5.30487e-06 -3.29936e-06 0.000128081
0.000507547 6.74935e-05 3.6639e-06
6.74935e-05 5.77647e-05 -3.43056e-06
3.6639e-06 -3.43056e-06 -4.65635e-05
0.000416358 6.43228e-05 -2.95095e-07
6.43228e-05 3.45022e-05 -9.40902e-07
-2.95095e-07 -9.40902e-07 -0.000124777
0.000447508 1.91934e-05 1.00394e-06
1.91934e-05 -1.82847e-05 -7.09094e-06
1.00394e-06 -7.09094e-06 -4.57349e-05
0.000254834 4.89236e-05 -2.50069e-06
4.89236e-05 -0.000104953 -2.34646e-06
-2.50069e-06 -2.34646e-06 -0.000198744
0.000624438 0.000103788 -1.39897e-06
0.000103788 0.000174854 -3.26436e-06
-1.39897e-06 -3.26436e-06 2.42477e-05
0.00227452 -3.1555e-05 -2.29584e-05
-3.1555e-05 0.00116064 -5.57167e-06
-2.29584e-05 -5.57167e-06 0.00117495
0.000417722 8.88863e-07 8.65391e-07
8.88863e-07 -4.05496e-05 -2.4103e-07
8.65391e-07 -2.4103e-07 -6.02148e-05
9.28307e-05 2.26438e-05 -1.45207e-06
2.26438e-05 -0.000211242 1.44242e-06
-1.45207e-06 1.44242e-06 -0.000294867
0.00215656 -1.45748e-05 -6.01716e-06
-1.45748e-05 0.00108394 1.28484e-07
-6.01716e-06 1.28484e-07 0.00110016
0.000419737 2.9661e-06 -3.71074e-06
2.9661e-06 -4.02826e-05 4.67538e-06
-3.71074e-06 4.67538e-06 -5.48003e-05
0.00212277 1.49535e-06 1.52505e-05
1.49535e-06 0.0010632 5.32987e-06
1.52505e-05 5.32987e-06 0.00107973
0.002395 -0.000371078 -0.000132962
-0.000371078 0.00131077 2.32207e-05
-0.000132962 2.32207e-05 -0.000320463
-0.00156762 -0.000107598 0.000128349
-0.000107598 0.00360388 -5.42838e-06
0.000128349 -5.42838e-06 0.00131957
-0.00080069 -0.000389389 0.000168677
-0.000389389 0.00127948 -0.000252049
0.000168677 -0.000252049 -0.00458308
-0.000219964 7.0585e-06 2.992e-06
7.0585e-06 -0.000283166 -1.69635e-06
2.992e-06 -1.69635e-06 -0.000543207
0.0032802 0.000281715 6.79054e-06
0.000281715 0.00185091 9.49797e-06
6.79054e-06 9.49797e-06 0.00162987
0.000367554 0.000155227 -3.87198e-06
0.000155227 4.19887e-06 -8.82623e-06
-3.87198e-06 -8.82623e-06 -0.000162265
-2.77303e-05 6.85617e-05 1.05877e-06
6.85617e-05 -0.000251281 -1.92618e-06
1.05877e-06 -1.92618e-06 -0.000424635
7.48688e-05 9.08523e-05 2.74618e-09
9.08523e-05 -0.000221554 -2.02378e-06
2.74618e-09 -2.02378e-06 -0.000346293
7.72181e-05 8.86991e-05 5.23766e-06
8.86991e-05 -0.000180422 6.29212e-06
5.23766e-06 6.29212e-06 -0.000344388
-0.00050945 4.17197e-05 1.55678e-05
4.17197e-05 -0.000540085 4.72083e-06
1.55678e-05 4.72083e-06 -0.000633248
0.00372475 0.00179153 0.000288904
0.00179153 -2.24358e-05 0.000258712
0.000288904 0.000258712 -0.00205078
0.00695605 -0.000484564 -0.000100608
-0.000484564 0.000252197 4.72951e-05
-0.000100608 4.72951e-05 -0.00186658
0.00508113 -0.00100416 0.000414326
-0.00100416 0.00412294 -0.000133593
0.000414326 -0.000133593 0.00166749
0.0102036 -6.14297e-05 -1.68174e-05
-6.14297e-05 -0.00514347 0.000197605
-1.68174e-05 0.000197605 -0.00279878
0.00713369 -0.00495267 -0.000169325
-0.00495267 0.00100931 3.31553e-05
-0.000169325 3.31553e-05 0.00174685
0.000911731 -0.00581888 -0.000437104
-0.00581888 0.0020005 0.000156661
-0.000437104 0.000156661 -0.00453484
0.022222 0.00486681 0.000237706
0.00486681 0.00894703 -0.000249861
0.000237706 -0.000249861 0.00263915
0.00239346 -0.00381112 -7.29628e-05
-0.00381112 0.00037925 4.21133e-05
-7.29628e-05 4.21133e-05 0.000843902
-0.000801682 -0.00142792 -9.5102e-05
-0.00142792 0.00528697 5.98288e-05
-9.5102e-05 5.98288e-05 -0.00307225
0.0132268 0.000315422 0.000310074
0.000315422 0.00502908 -4.37534e-05
0.000310074 -4.37534e-05 0.00025166
0.0185013 -0.00197148 -8.4185e-05
-0.00197148 0.00267237 -5.86853e-06
-8.4185e-05 -5.86853e-06 0.00303702
-0.0051891 -0.000532639 -0.000245388
-0.000532639 -0.00087949 0.000226851
-0.000245388 0.000226851 -0.00147256
0.00186105 0.00170345 -0.00026665
0.00170345 0.00588578 -0.000171329
-0.00026665 -0.000171329 -0.00251636
0.00516413 -0.00650639 -1.86507e-05
-0.00650639 0.00175055 -0.000260258
-1.86507e-05 -0.000260258 -0.00529095
0.0182736 -0.00302505 0.000322489
-0.00302505 0.00756482 -0.000752732
0.000322489 -0.000752732 0.00385731
-8.19166e-05 9.73579e-06 2.6456e-05
9.73579e-06 0.000120065 -4.03521e-06
2.6456e-05 -4.03521e-06 -0.000253858
0.00059438 0.000190232 -1.32462e-06
0.000190232 0.000241679 -3.88053e-06
-1.32462e-06 -3.88053e-06 8.25192e-05
0.000699844 -1.44367e-05 7.95914e-07
-1.44367e-05 0.000329485 -5.90868e-06
7.95914e-07 -5.90868e-06 7.98958e-05
0.000891852 0.000185426 -1.92455e-06
0.000185426 0.000339935 -1.3955e-05
-1.92455e-06 -1.3955e-05 0.000159539
0.000986009 -0.00161421 0.0001114
-0.00161421 0.000599381 2.58486e-05
0.0001114 2.58486e-05 -0.000163525
0.000806251 -0.000431143 3.75722e-06
-0.000431143 0.00104525 -1.99113e-05
3.75722e-06 -1.99113e-05 0.000307333
0.000437414 9.89298e-05 -2.77239e-05
9.89298e-05 0.000275165 -1.92234e-05
-2.77239e-05 -1.92234e-05 7.596e-05
0.00113821 -7.84394e-05 3.02825e-06
-7.84394e-05 0.00087383 -2.75753e-05
3.02825e-06 -2.75753e-05 0.000533687
8.33915e-05 -5.02763e-05 -6.82651e-06
-5.02763e-05 0.000558847 6.34488e-06
-6.82651e-06 6.34488e-06 2.37463e-05
1.2803e-06 0.000102851 2.22096e-06
0.000102851 0.000159994 4.25296e-06
2.22096e-06 4.25296e-06 -0.00014061
0.000655037 -7.09022e-05 1.45494e-06
-7.09022e-05 0.000988616 1.69137e-06
1.45494e-06 1.69137e-06 0.000416824
0.000215905 -0.000969733 1.5191e-05
-0.000969733 0.00126515 -9.17684e-06
1.5191e-05 -9.17684e-06 -0.000272976
0.000691814 -0.000152527 -1.7142e-06
-0.000152527 0.00138908 -1.45378e-05
-1.7142e-06 -1.45378e-05 0.000706711
0.000528042 0.000134232 1.47113e-06
0.000134232 0.000576758 -8.67766e-06
1.47113e-06 -8.67766e-06 0.000250084
-0.000647863 0.000301115 -0.000202463
0.000301115 0.0026981 -1.69819e-05
-0.000202463 -1.69819e-05 0.000422354
0.000637535 0.00041038 -2.64973e-06
0.00041038 0.00121653 4.35981e-06
-2.64973e-06 4.35981e-06 0.000566944
-0.00310033 -5.29072e-05 -9.6289e-05
-5.29072e-05 0.00321834 -8.00986e-05
-9.6289e-05 -8.00986e-05 0.00115371
0.00183988 0.000180924 3.09172e-05
0.000180924 0.000691908 1.60707e-05
3.09172e-05 1.60707e-05 -0.00111521
-0.00409601 0.000994852 -7.94944e-05
0.000994852 0.00247175 -9.41233e-05
-7.94944e-05 -9.41233e-05 -5.05337e-05
0.000244795 0.000457089 -1.85738e-05
0.000457089 0.000817164 2.77653e-06
-1.85738e-05 2.77653e-06 0.000239253
-0.00124959 0.00112112 0.000230809
0.00112112 0.00088883 0.000117642
0.000230809 0.000117642 -0.000247739
0.00105797 6.91914e-05 9.84635e-05
6.91914e-05 0.00160514 -1.1185e-05
9.84635e-05 -1.1185e-05 0.00033116
0.00676543 -0.00239991 0.000365485
-0.00239991 0.0067302 -0.000213284
0.000365485 -0.000213284 -0.0026145
0.0236585 0.00444133 -0.000282486
0.00444133 0.00922152 0.000234956
-0.000282486 0.000234956 0.00264821
0.00316389 -0.000905726 -0.000374582
-0.000905726 0.00276534 9.24916e-05
-0.000374582 9.24916e-05 0.000552462
0.0153111 0.00548724 -0.000224915
0.00548724 0.00978584 -0.000293993
-0.000224915 -0.000293993 0.005131
0.000510171 0.000239651 -4.84638e-05
0.000239651 0.00159317 6.04901e-06
-4.84638e-05 6.04901e-06 0.000208919
-0.000322106 -0.000470588 -0.000128768
-0.000470588 0.00355971 1.91194e-06
-0.000128768 1.91194e-06 0.00186524
0.00255012 -0.00203298 0.000310794
-0.00203298 0.0019825 -6.03652e-05
0.000310794 -6.03652e-05 -0.00355382
-0.00380554 -2.7595e-06 7.08816e-05
-2.7595e-06 0.000157149 3.96861e-05
7.08816e-05 3.96861e-05 -0.00063274
0.0247587 0.0139702 0.000910576
0.0139702 0.0174644 -0.000305397
0.000910576 -0.000305397 0.00893009
0.011729 0.00339278 -0.000171367
0.00339278 0.00757289 0.000456883
-0.000171367 0.000456883 0.000335175
-0.00200462 -0.00172681 0.000264295
-0.00172681 0.00384871 -0.00019266
0.000264295 -0.00019266 -0.00484273
-0.0022549 -0.000609419 -3.8734e-05
-0.000609419 0.000333345 -3.44062e-05
-3.8734e-05 -3.44062e-05 -0.00111764
0.00121835 -0.00123546 0.000410677
-0.00123546 3.70924e-05 -0.000105682
0.000410677 -0.000105682 -0.00433031
0.00225492 0.00260703 -0.00206641
0.00260703 0.0106834 0.000379942
-0.00206641 0.000379942 0.00405008
0.0241432 0.00900204 -0.000738561
0.00900204 0.00935191 0.000471998
-0.000738561 0.000471998 0.00157584
0.00643731 -0.00496601 -0.000252563
-0.00496601 0.00364732 0.000113045
-0.000252563 0.000113045 0.000103572
0.00370435 -0.00257378 6.44029e-05
-0.00257378 0.00416995 2.36975e-05
6.44029e-05 2.36975e-05 0.00264124
7.50857e-05 -9.40527e-05 4.13724e-06
-9.40527e-05 0.000641007 -1.86968e-05
4.13724e-06 -1.86968e-05 -6.08669e-05
0.000103007 -0.000500146 6.25904e-06
-0.000500146 0.000554769 -2.40055e-06
6.25904e-06 -2.40055e-06 -0.000209063
0.000877756 -0.00118092 -4.97263e-06
-0.00118092 0.000646146 6.14242e-06
-4.97263e-06 6.14242e-06 1.3891e-05
-0.000265857 -0.000199771 -5.09791e-06
-0.000199771 0.000273774 1.03401e-05
-5.09791e-06 1.03401e-05 -0.000119704
0.000421497 -0.000593141 -2.54807e-06
-0.000593141 0.000340603 5.92859e-06
-2.54807e-06 5.92859e-06 -7.12865e-05
0.00252054 -0.0010829 3.82209e-05
-0.0010829 0.00102411 -3.64079e-05
3.82209e-05 -3.64079e-05 0.00049774
0.00632734 -0.00141189 -1.53033e-05
-0.00141189 0.00335101 1.01101e-06
-1.53033e-05 1.01101e-06 0.00276651
0.00267332 -0.00100399 1.14343e-05
-0.00100399 0.0012419 -4.23903e-06
1.14343e-05 -4.23903e-06 0.000447752
0.00250232 -0.00123492 4.54721e-06
-0.00123492 0.000770667 -2.02204e-05
4.54721e-06 -2.02204e-05 -2.24033e-05
0.00249456 -0.000878808 -1.44085e-05
-0.000878808 0.00102095 -7.38191e-06
-1.44085e-05 -7.38191e-06 0.000420061
0.00220009 -0.00107287 5.05613e-07
-0.00107287 0.000701871 -1.69985e-06
5.05613e-07 -1.69985e-06 -4.10582e-05
0.00283454 -0.00127468 -8.44252e-06
-0.00127468 0.000894067 -9.64484e-06
-8.44252e-06 -9.64484e-06 0.000175572
0.00249756 -0.000948652 -7.44843e-07
-0.000948652 0.000475044 -6.93891e-06
-7.44843e-07 -6.93891e-06 1.07097e-05
0.00292676 -0.00121546 -1.05854e-05
-0.00121546 0.00091457 -8.23268e-07
-1.05854e-05 -8.23268e-07 0.000288764
0.00273843 -0.00121463 -4.23244e-06
-0.00121463 0.00083417 -3.35976e-07
-4.23244e-06 -3.35976e-07 0.000175414
0.00214835 -0.00102012 6.56316e-06
-0.00102012 0.000705392 -6.35971e-06
6.56316e-06 -6.35971e-06 0.000110846
0.0018094 -0.00096823 3.39821e-06
-0.00096823 0.00050114 -1.28477e-06
3.39821e-06 -1.28477e-06 -8.54095e-05
0.00167371 -0.000872966 6.56839e-06
-0.000872966 0.000474304 -1.62862e-06
6.56839e-06 -1.62862e-06 -0.000112404
0.00148213 -0.000650222 7.86371e-06
-0.000650222 0.000462602 2.12328e-06
7.86371e-06 2.12328e-06 -8.84415e-06
0.00190721 -0.000799283 -1.04942e-06
-0.000799283 0.000684146 -2.00428e-06
-1.04942e-06 -2.00428e-06 0.000160776
0.00186348 -0.000849403 3.80085e-06
-0.000849403 0.00059513 6.92077e-06
3.80085e-06 6.92077e-06 5.66991e-05
0.00173008 -0.000241778 -7.7943e-07
-0.000241778 0.000725982 -5.00444e-06
-7.7943e-07 -5.00444e-06 0.000470985
0.00093638 -0.00032397 -3.18237e-06
-0.00032397 0.0001971 2.58985e-06
-3.18237e-06 2.58985e-06 -0.000112866
0.00057835 -0.000494294 -6.93672e-06
-0.000494294 -8.51644e-05 -7.1756e-06
-6.93672e-06 -7.1756e-06 -0.000492659
0.00014695 -9.75073e-05 -7.6336e-07
-9.75073e-05 -0.000139465 3.51514e-06
-7.6336e-07 3.51514e-06 -0.000389075
0.000756606 -0.000241518 1.28231e-07
-0.000241518 0.000262132 1.52425e-06
1.28231e-07 1.52425e-06 -4.14389e-05
0.000537644 -0.00029261 -7.30005e-07
-0.00029261 8.2479e-05 1.41271e-06
-7.30005e-07 1.41271e-06 -0.000240353
0.000357694 -4.98466e-05 -1.01945e-05
-4.98466e-05 -7.6485e-05 1.84668e-05
-1.01945e-05 1.84668e-05 -0.000138119
0.000679538 -0.000111437 1.65515e-07
-0.000111437 0.000168298 4.12314e-07
1.65515e-07 4.12314e-07 -1.60765e-05
0.00174554 -0.000273153 -1.26002e-06
-0.000273153 0.000911278 4.3452e-06
-1.26002e-06 4.3452e-06 0.000621329
0.000883838 -0.000120533 4.36153e-07
-0.000120533 0.000286086 -6.9496e-06
4.36153e-07 -6.9496e-06 0.000138588
0.000376467 -9.11393e-06 -8.93995e-07
-9.11393e-06 -5.14739e-05 -6.17524e-07
-8.93995e-07 -6.17524e-07 -0.000106915
0.00334882 0.000132552 -4.90754e-05
0.000132552 0.00187843 6.04308e-06
-4.90754e-05 6.04308e-06 0.00187201
0.000506229 -2.62664e-05 3.51703e-06
-2.62664e-05 2.35075e-05 -1.00772e-05
3.51703e-06 -1.00772e-05 -2.04928e-05
0.0030958 0.000101447 6.51204e-06
0.000101447 0.0017033 8.01853e-07
6.51204e-06 8.01853e-07 0.0017046
0.00292096 7.5367e-05 4.42674e-05
7.5367e-05 0.00158248 -5.60884e-06
4.42674e-05 -5.60884e-06 0.00158898
0.00176193 0.000102328 6.95536e-06
0.000102328 0.00104996 -8.25098e-06
6.95536e-06 -8.25098e-06 0.000726287
0.00187067 0.00021319 8.81601e-06
0.00021319 0.00108241 -1.19356e-05
8.81601e-06 -1.19356e-05 0.000803868
0.000533546 5.49751e-05 5.77456e-06
5.49751e-05 6.504e-05 -6.38928e-06
5.77456e-06 -6.38928e-06 -5.17494e-05
0.000713826 0.000148987 -1.68766e-07
0.000148987 0.000240095 8.8116e-07
-1.68766e-07 8.8116e-07 5.94662e-05
0.00042671 -1.14738e-05 4.63963e-06
-1.14738e-05 -2.84533e-05 -8.51732e-06
4.63963e-06 -8.51732e-06 -6.16186e-05
0.000519407 6.96956e-05 9.75064e-08
6.96956e-05 6.60085e-05 -3.45016e-07
9.75064e-08 -3.45016e-07 -3.8321e-05
0.0006588 7.29983e-05 -6.04917e-06
7.29983e-05 0.00017854 -3.59943e-06
-6.04917e-06 -3.59943e-06 2.47018e-05
0.00251135 -4.97708e-05 -3.00024e-05
-4.97708e-05 0.00131668 -5.93776e-06
-3.00024e-05 -5.93776e-06 0.00132789
0.000436825 6.7837e-06 -1.3564e-06
6.7837e-06 -2.47498e-05 -2.01313e-07
-1.3564e-06 -2.01313e-07 -5.14258e-05
0.000507164 7.2993e-05 -4.72919e-06
7.2993e-05 6.08148e-05 1.07504e-06
-4.72919e-06 1.07504e-06 -3.42246e-05
0.00228743 -3.17973e-05 -5.34751e-06
-3.17973e-05 0.00116903 2.98314e-07
-5.34751e-06 2.98314e-07 0.00118336
0.000433967 5.68344e-06 -3.44985e-06
5.68344e-06 -3.1097e-05 5.19268e-06
-3.44985e-06 5.19268e-06 -5.01281e-05
0.00215237 -1.44758e-05 1.82968e-05
-1.44758e-05 0.00108099 5.24161e-06
1.82968e-05 5.24161e-06 0.00109725
-0.00262316 0.000755059 -2.46115e-05
0.000755059 0.00179112 -0.000113718
-2.46115e-05 -0.000113718 -0.000212182
0.00316511 -0.000320057 -2.32449e-05
-0.000320057 0.00199547 -4.51515e-05
-2.32449e-05 -4.51515e-05 0.000597099
0.000143537 -0.000377987 3.43128e-05
-0.000377987 0.0034475 -6.09084e-05
3.43128e-05 -6.09084e-05 0.00157566
0.000569601 6.84565e-05 2.60947e-06
6.84565e-05 0.000302233 -6.80885e-06
2.60947e-06 -6.80885e-06 -3.14994e-05
-0.00021474 0.000163396 6.57335e-06
0.000163396 -0.000344573 -4.21642e-06
6.57335e-06 -4.21642e-06 -0.000555611
-0.00179278 3.0694e-05 1.59445e-05
3.0694e-05 -0.00145359 -1.19697e-05
1.59445e-05 -1.19697e-05 -0.00163595
-0.00230335 -1.43978e-05 -6.59173e-06
-1.43978e-05 -0.00151376 2.16446e-05
-6.59173e-06 2.16446e-05 -0.00181231
0.00149841 0.000305682 2.46092e-06
0.000305682 0.000712705 4.05969e-07
2.46092e-06 4.05969e-07 0.000435377
0.000671441 5.16231e-05 -5.97423e-06
5.16231e-05 0.000195354 -1.49574e-06
-5.97423e-06 -1.49574e-06 1.27523e-06
0.000225446 0.000125197 -9.03984e-06
0.000125197 -9.16403e-05 -1.27288e-05
-9.03984e-06 -1.27288e-05 -0.000220109
0.00124541 1.48448e-05 5.14532e-06
1.48448e-05 0.000552953 1.32263e-06
5.14532e-06 1.32263e-06 0.000396353
0.000942122 0.000192764 -2.07841e-06
0.000192764 0.000401913 -5.54314e-06
-2.07841e-06 -5.54314e-06 0.000283781
0.00270783 0.000210228 -2.69314e-06
0.000210228 0.00170524 -1.79351e-05
-2.69314e-06 -1.79351e-05 0.00139399
0.00816422 0.00208052 0.000669382
0.00208052 0.00557146 0.000602159
0.000669382 0.000602159 0.000343722
0.00358458 0.00141108 2.60484e-05
0.00141108 0.000872171 8.65523e-05
2.60484e-05 8.65523e-05 -0.00142754
0.00660657 -0.000322327 0.000131629
-0.000322327 -6.38558e-05 -1.03606e-05
0.000131629 -1.03606e-05 -0.0014021
0.0146878 -0.000971908 -0.000304774
-0.000971908 0.00221039 -0.000143584
-0.000304774 -0.000143584 0.00384235
0.000466158 0.00091105 0.000129417
0.00091105 -0.00180631 0.000442172
0.000129417 0.000442172 -0.0077308
0.00291739 -0.0039654 -5.64404e-05
-0.0039654 0.00116747 -2.14925e-05
-5.64404e-05 -2.14925e-05 0.00127491
0.00458771 -0.00210411 -0.000308708
-0.00210411 0.00559924 8.53955e-05
-0.000308708 8.53955e-05 -0.000767945
0.000306472 -0.00161315 -0.000130835
-0.00161315 0.00129074 0.000142571
-0.000130835 0.000142571 0.000526477
0.0111964 -0.000230074 -0.000300895
-0.000230074 0.00829233 -4.63828e-07
-0.000300895 -4.63828e-07 0.000733714
0.00894366 -0.00300809 0.00013663
-0.00300809 0.00538368 0.00024795
0.00013663 0.00024795 -0.00129195
0.0245056 -0.00562779 6.94304e-05
-0.00562779 0.00758336 -0.000916189
6.94304e-05 -0.000916189 0.0022044
0.000384602 0.000391746 -0.00016225
0.000391746 0.00314073 0.000106053
-0.00016225 0.000106053 0.00134991
0.00709554 0.00248986 -0.000288535
0.00248986 0.0066822 -7.86223e-05
-0.000288535 -7.86223e-05 0.00012743
0.0258296 -0.00939747 0.000288189
-0.00939747 0.0144262 -0.000982201
0.000288189 -0.000982201 0.00597641
0.0307833 -0.0133988 0.000102473
-0.0133988 0.0162685 -7.97459e-05
0.000102473 -7.97459e-05 0.00806512
-0.000140602 0.000303493 2.71832e-05
0.000303493 8.85894e-06 8.17588e-06
2.71832e-05 8.17588e-06 -0.000434703
2.00483e-05 6.7937e-05 9.88675e-06
6.7937e-05 0.000252219 1.3141e-06
9.88675e-06 1.3141e-06 -0.000165154
0.00126191 0.000215158 -2.66639e-05
0.000215158 0.000679396 -1.64323e-05
-2.66639e-05 -1.64323e-05 0.000506052
0.00478526 -0.00165771 0.000141916
-0.00165771 0.00330369 -1.99088e-05
0.000141916 -1.99088e-05 0.00133998
-0.000820843 -0.00018988 9.76284e-05
-0.00018988 0.000775764 5.6224e-06
9.76284e-05 5.6224e-06 5.65967e-06
-0.000551052 7.57679e-05 -1.01233e-05
7.57679e-05 -0.000198751 1.91933e-06
-1.01233e-05 1.91933e-06 -0.00048712
-0.000493829 -0.000200117 1.93392e-05
-0.000200117 0.000411345 -1.10521e-05
1.93392e-05 -1.10521e-05 -0.000272764
-0.00024118 0.000136522 -4.73584e-06
0.000136522 0.000119216 4.25244e-07
-4.73584e-06 4.25244e-07 -0.000213407
-0.000277384 0.000327862 2.13256e-05
0.000327862 0.000528298 6.02481e-06
2.13256e-05 6.02481e-06 -0.000158413
-0.00236838 9.96241e-05 0.000177445
9.96241e-05 0.0014329 -5.76763e-05
0.000177445 -5.76763e-05 -0.000763889
0.00137833 0.000814762 3.64838e-05
0.000814762 0.000775722 4.16888e-05
3.64838e-05 4.16888e-05 0.000290666
0.00141904 0.00107576 -0.000127395
0.00107576 0.00187553 -0.000114808
-0.000127395 -0.000114808 5.70397e-05
0.000472459 -0.000109327 0.000279314
-0.000109327 0.00179583 0.000104261
0.000279314 0.000104261 -0.00354425
-0.00305476 0.000467931 -0.000156511
0.000467931 0.00298728 2.12505e-06
-0.000156511 2.12505e-06 0.000430996
0.00404583 -0.000409745 -9.11277e-05
-0.000409745 0.00216997 -3.19931e-07
-9.11277e-05 -3.19931e-07 0.00149489
0.000415279 0.000605853 7.28715e-05
0.000605853 0.00123531 2.1113e-05
7.28715e-05 2.1113e-05 -0.000214615
0.00088041 0.000305862 -0.000114398
0.000305862 0.00314593 0.000109834
-0.000114398 0.000109834 0.00124028
-0.000982214 -0.000266868 -1.72789e-05
-0.000266868 0.00277776 -5.22191e-05
-1.72789e-05 -5.22191e-05 0.000739814
0.0151948 -0.00563522 0.00034504
-0.00563522 0.00929657 -0.000209649
0.00034504 -0.000209649 0.00133755
0.0271086 0.00713397 -0.00055087
0.00713397 0.0143372 -0.000286642
-0.00055087 -0.000286642 0.00567153
0.00612622 -0.0025394 -0.000484108
-0.0025394 0.0033928 0.000336758
-0.000484108 0.000336758 -0.00138691
0.0174286 0.0166573 0.00323987
0.0166573 0.0132688 -0.00189518
0.00323987 -0.00189518 0.00430103
0.000462866 -0.000737248 4.53196e-05
-0.000737248 0.00161877 -1.25829e-05
4.53196e-05 -1.25829e-05 0.000106475
-0.000164813 -0.000825892 7.86745e-05
-0.000825892 0.00092486 7.77604e-06
7.86745e-05 7.77604e-06 -0.00417409
0.00470622 0.00323098 -0.00160528
0.00323098 0.0100891 0.000284332
-0.00160528 0.000284332 0.0029976
0.000177569 -0.00140826 4.71527e-05
-0.00140826 0.00186107 2.67905e-05
4.71527e-05 2.67905e-05 0.000664856
0.0255427 0.00878667 0.000471414
0.00878667 0.0101146 0.000154532
0.000471414 0.000154532 0.00243085
0.00700543 -0.00756329 0.0003612
-0.00756329 0.00291865 -9.41547e-05
0.0003612 -9.41547e-05 -0.00154796
0.00028934 -0.0019843 -2.852e-06
-0.0019843 0.000707661 4.42356e-05
-2.852e-06 4.42356e-05 -0.000615692
-0.00320874 -0.00196808 0.000209298
-0.00196808 0.00843933 -0.000113164
0.000209298 -0.000113164 0.00332227
0.0202932 0.00940398 -0.00221604
0.00940398 0.00854791 0.000488159
-0.00221604 0.000488159 0.00234854
0.00594297 -0.00616113 -0.000668879
-0.00616113 -0.00175358 0.000235539
-0.000668879 0.000235539 -0.00378164
-0.00113452 -0.00249149 0.000193798
-0.00249149 -0.000429179 -0.000148405
0.000193798 -0.000148405 0.000515212
0.0013015 -0.00069254 -0.00012069
-0.00069254 0.00107228 4.26395e-05
-0.00012069 4.26395e-05 0.000347945
0.000361773 -0.000926121 -1.76068e-05
-0.000926121 0.000433708 1.21696e-05
-1.76068e-05 1.21696e-05 -0.000199196
0.00158542 -0.00110996 1.94413e-05
-0.00110996 0.000641658 -3.61606e-05
1.94413e-05 -3.61606e-05 9.61883e-05
-0.000785498 -0.000331123 7.2778e-06
-0.000331123 -0.000155429 1.65674e-06
7.2778e-06 1.65674e-06 -0.000520382
0.00107021 -0.000885292 3.76631e-06
-0.000885292 0.000290581 -5.14845e-07
3.76631e-06 -5.14845e-07 -0.000204541
0.00296244 -0.00133647 9.19394e-06
-0.00133647 0.00080631 -1.80445e-05
9.19394e-06 -1.80445e-05 0.000277201
0.00429502 -0.00125423 -3.59837e-05
-0.00125423 0.00204731 6.05384e-06
-3.59837e-05 6.05384e-06 0.00125008
0.00204391 -0.0011411 -4.24375e-06
-0.0011411 0.000515335 -4.77204e-07
-4.24375e-06 -4.77204e-07 -0.000250406
0.00272709 -0.0013482 8.45561e-07
-0.0013482 0.000618389 -8.58878e-06
8.45561e-07 -8.58878e-06 -1.16825e-05
0.00306296 -0.00120006 6.0827e-06
-0.00120006 0.00116834 4.6466e-06
6.0827e-06 4.6466e-06 0.000399945
0.00261637 -0.00123749 3.06886e-06
-0.00123749 0.000761438 -3.60232e-06
3.06886e-06 -3.60232e-06 6.43374e-05
0.00278389 -0.00101903 -3.87672e-06
-0.00101903 0.00058492 -7.12822e-06
-3.87672e-06 -7.12822e-06 0.000119774
0.00200846 -0.000620689 -4.03528e-07
-0.000620689 2.68773e-05 -2.5603e-06
-4.03528e-07 -2.5603e-06 -0.00023299
0.00208897 -0.000919874 2.8935e-06
-0.000919874 0.000176362 -3.82717e-06
2.8935e-06 -3.82717e-06 -0.000282755
0.00243804 -0.000953641 3.59905e-06
-0.000953641 0.000425829 -2.38838e-06
3.59905e-06 -2.38838e-06 -3.97406e-05
0.00277373 -0.00108435 -4.5675e-06
-0.00108435 0.000886423 -2.40114e-06
-4.5675e-06 -2.40114e-06 0.000320193
0.00290016 -0.00120939 -3.90431e-06
-0.00120939 0.000906076 -2.61369e-07
-3.90431e-06 -2.61369e-07 0.000276606
0.00268763 -0.00120894 1.00854e-05
-0.00120894 0.000796943 -3.32713e-06
1.00854e-05 -3.32713e-06 0.00013596
0.00184496 -0.000881287 7.13868e-06
-0.000881287 0.000575454 -6.09584e-06
7.13868e-06 -6.09584e-06 1.84023e-05
0.00186719 -0.000979692 1.92125e-06
-0.000979692 0.000547645 -7.83547e-07
1.92125e-06 -7.83547e-07 -3.55266e-05
0.00140524 -0.000898054 4.16651e-06
-0.000898054 0.00027319 3.29358e-06
4.16651e-06 3.29358e-06 -0.0002874
0.00196358 -0.00039851 2.42624e-06
-0.00039851 0.000810765 7.00061e-06
2.42624e-06 7.00061e-06 0.000490557
0.00149307 -0.000632707 7.78068e-07
-0.000632707 0.000501242 1.85306e-06
7.78068e-07 1.85306e-06 4.16352e-05
0.00212971 -0.000822377 -5.03405e-06
-0.000822377 0.000834897 6.79582e-06
-5.03405e-06 6.79582e-06 0.000305713
0.000141863 -0.000162774 -4.80985e-06
-0.000162774 -0.000216668 -1.51182e-06
-4.80985e-06 -1.51182e-06 -0.000465023
0.000630224 -0.000256165 -4.29495e-06
-0.000256165 6.13211e-05 -3.56232e-06
-4.29495e-06 -3.56232e-06 -0.000211759
0.000608383 -0.000301879 -2.73347e-06
-0.000301879 1.36884e-05 -4.1035e-07
-2.73347e-06 -4.1035e-07 -0.000293246
0.00203059 -2.64805e-05 -6.21561e-05
-2.64805e-05 0.00101021 1.24998e-05
-6.21561e-05 1.24998e-05 0.000937434
0.000724947 -0.000200441 1.95543e-06
-0.000200441 0.000193295 6.02276e-07
1.95543e-06 6.02276e-07 -4.04302e-05
0.0010332 -0.000324566 4.26721e-06
-0.000324566 0.000439257 5.74288e-06
4.26721e-06 5.74288e-06 0.000128455
0.000651137 5.46781e-06 -7.36893e-05
5.46781e-06 0.000126766 8.24291e-06
-7.36893e-05 8.24291e-06 0.000114041
0.00131128 -3.22771e-05 -2.32495e-05
-3.22771e-05 0.000541392 -6.5286e-07
-2.32495e-05 -6.5286e-07 0.000481368
0.00112105 -0.000138586 2.64177e-06
-0.000138586 0.000437389 -6.04377e-06
2.64177e-06 -6.04377e-06 0.000254668
0.000595092 -2.93173e-05 5.22208e-06
-2.93173e-05 8.02922e-05 -1.26424e-05
5.22208e-06 -1.26424e-05 2.71661e-05
0.0034973 0.000132442 1.21963e-05
0.000132442 0.00197459 1.01074e-06
1.21963e-05 1.01074e-06 0.0019686
0.00313614 0.000100453 4.9852e-05
0.000100453 0.00172882 -5.81443e-06
4.9852e-05 -5.81443e-06 0.00173062
0.00023781 0.000162191 6.39049e-06
0.000162191 -5.63236e-05 5.29451e-06
6.39049e-06 5.29451e-06 -0.000326107
0.00193399 0.000206202 5.95197e-06
0.000206202 0.0011333 -1.25935e-05
5.95197e-06 -1.25935e-05 0.000802315
-0.000615953 4.99377e-05 3.87906e-06
4.99377e-05 -0.000483812 2.47887e-09
3.87906e-06 2.47887e-09 -0.000779823
0.000635681 9.09871e-05 1.55456e-06
9.09871e-05 0.000139893 -1.03987e-05
1.55456e-06 -1.03987e-05 -3.12479e-06
0.000593011 0.000139273 1.98513e-06
0.000139273 0.000202784 -2.98263e-07
1.98513e-06 -2.98263e-07 -3.12303e-05
0.000400885 1.35543e-05 -1.217e-06
1.35543e-05 -3.53885e-05 -1.16696e-05
-1.217e-06 -1.16696e-05 -7.76562e-05
0.000545802 7.11845e-05 -3.47967e-08
7.11845e-05 8.43101e-05 -3.27377e-07
-3.47967e-08 -3.27377e-07 -3.65595e-05
0.00071308 7.5337e-05 -6.04972e-06
7.5337e-05 0.00026434 2.22589e-06
-6.04972e-06 2.22589e-06 7.41253e-05
0.00279824 -7.0282e-05 -3.95769e-05
-7.0282e-05 0.00150768 -5.87639e-06
-3.95769e-05 -5.87639e-06 0.00151537
0.000397032 6.96397e-06 -3.57172e-07
6.96397e-06 -4.53072e-05 -1.4546e-08
-3.57172e-07 -1.4546e-08 -7.91619e-05
0.000475234 7.48362e-05 -2.50363e-06
7.48362e-05 3.89248e-05 3.95413e-06
-2.50363e-06 3.95413e-06 -6.58131e-05
0.0024857 -5.11504e-05 -7.31776e-06
-5.11504e-05 0.00130021 4.82558e-07
-7.31776e-06 4.82558e-07 0.00131126
0.000365163 -1.76724e-05 -7.4925e-06
-1.76724e-05 -7.0632e-05 6.56719e-06
-7.4925e-06 6.56719e-06 -9.65901e-05
0.00226228 -3.02778e-05 2.35614e-05
-3.02778e-05 0.00115261 5.37549e-06
2.35614e-05 5.37549e-06 0.00116738
0.00695146 0.00127704 0.000546681
0.00127704 0.00505638 0.000135677
0.000546681 0.000135677 0.00167515
-0.00236677 0.000630622 -1.43358e-05
0.000630622 0.00155392 -1.344e-05
-1.43358e-05 -1.344e-05 -0.000776499
0.000490275 0.000755818 -8.47484e-06
0.000755818 0.00212132 -1.91772e-05
-8.47484e-06 -1.91772e-05 0.000226769
-0.000353839 0.000232517 -9.43016e-06
0.000232517 -0.000555354 1.07531e-05
-9.43016e-06 1.07531e-05 -0.000813581
-2.0546e-05 6.71766e-05 -9.41786e-06
6.71766e-05 -0.000154332 1.99688e-05
-9.41786e-06 1.99688e-05 -0.000429193
-0.000147962 9.84877e-05 -1.07656e-05
9.84877e-05 -0.000300641 -1.31211e-05
-1.07656e-05 -1.31211e-05 -0.000488974
0.00192852 0.000150961 8.32223e-06
0.000150961 0.00104687 3.54448e-07
8.32223e-06 3.54448e-07 0.000819514
0.00112266 0.00023612 -1.22808e-06
0.00023612 0.000362806 -9.37506e-06
-1.22808e-06 -9.37506e-06 0.000157818
0.00272495 0.000433571 -1.90937e-05
0.000433571 0.00148523 -7.37047e-06
-1.90937e-05 -7.37047e-06 0.00125735
0.00154905 0.00034565 1.00815e-06
0.00034565 0.000656066 -1.47738e-05
1.00815e-06 -1.47738e-05 0.000302614
-0.00209591 0.000187683 -1.02062e-05
0.000187683 -0.0011067 2.91879e-06
-1.02062e-05 2.91879e-06 -0.0015172
-1.04414e-05 6.26494e-05 -3.90704e-06
6.26494e-05 -0.000192582 -9.73403e-06
-3.90704e-06 -9.73403e-06 -0.000363254
-0.000489644 5.73465e-05 -1.17098e-05
5.73465e-05 -0.000582723 -1.01108e-05
-1.17098e-05 -1.01108e-05 -0.000643518
-0.00100936 2.62336e-05 -4.59864e-06
2.62336e-05 -0.00058681 2.24496e-06
-4.59864e-06 2.24496e-06 -0.000904529
3.59067e-05 0.000323913 7.15705e-07
0.000323913 0.000190925 8.14151e-06
7.15705e-07 8.14151e-06 -0.000371344
0.00813365 -0.00655374 -4.48803e-05
-0.00655374 0.00971563 0.000218913
-4.48803e-05 0.000218913 0.000752656
0.00869668 0.00264978 0.000250037
0.00264978 0.00418455 0.000201476
0.000250037 0.000201476 -0.00176109
0.00424723 0.000780802 1.72304e-05
0.000780802 0.0016279 -7.94731e-05
1.72304e-05 -7.94731e-05 -0.000991824
0.0356102 -0.00834311 -0.00121782
-0.00834311 0.011626 -0.000481194
-0.00121782 -0.000481194 0.0053237
0.00586595 -0.00150788 0.000345036
-0.00150788 0.00505843 0.000606341
0.000345036 0.000606341 0.000185929
0.00204921 -0.0014158 -0.000259693
-0.0014158 0.00589543 0.000155971
-0.000259693 0.000155971 -0.0025105
-0.000404442 -0.0017332 8.37279e-05
-0.0017332 0.00170514 5.68217e-05
8.37279e-05 5.68217e-05 0.000218097
-0.0015531 -4.75714e-05 0.000199031
-4.75714e-05 0.00163455 4.87043e-05
0.000199031 4.87043e-05 0.000397243
0.0258258 -0.0149065 0.000558272
-0.0149065 0.0150249 0.000544263
0.000558272 0.000544263 0.00630388
0.00379561 0.00235165 -0.000183818
0.00235165 0.00562495 -0.000121769
-0.000183818 -0.000121769 -0.00186367
0.0121562 -0.00493076 -0.00016726
-0.00493076 0.00867927 0.000170258
-0.00016726 0.000170258 9.97855e-06
-0.000316054 0.00103116 -4.78846e-06
0.00103116 0.00152239 2.60463e-05
-4.78846e-06 2.60463e-05 0.000593856
0.00705995 0.00568125 -0.000190678
0.00568125 0.00294412 -2.17983e-06
-0.000190678 -2.17983e-06 -0.00129574
0.0236771 -0.0085137 -0.00109421
-0.0085137 0.00935506 -0.000439919
-0.00109421 -0.000439919 0.00137647
0.00114416 0.000816018 1.6631e-05
0.000816018 0.000324338 1.20525e-05
1.6631e-05 1.20525e-05 9.50023e-05
0.00102534 0.000371423 9.06973e-06
0.000371423 0.000732051 5.95563e-06
9.06973e-06 5.95563e-06 0.000267893
-0.000377476 3.51442e-05 -2.7583e-05
3.51442e-05 -2.0033e-06 2.06248e-06
-2.7583e-05 2.06248e-06 -0.000412154
-0.00272181 -0.000242793 -0.00014339
-0.000242793 0.00101033 -4.22914e-05
-0.00014339 -4.22914e-05 -0.00107346
0.000729258 0.000342434 -2.04924e-05
0.000342434 0.000685718 -1.65857e-05
-2.04924e-05 -1.65857e-05 0.000101811
-0.000221658 0.000206928 -6.66256e-06
0.000206928 0.000135419 3.60028e-06
-6.66256e-06 3.60028e-06 -0.000256838
0.00125293 0.000818956 1.15545e-05
0.000818956 0.000681833 2.03535e-06
1.15545e-05 2.03535e-06 0.000190598
-0.000176917 0.000879433 8.20247e-06
0.000879433 0.00112081 -4.61521e-05
8.20247e-06 -4.61521e-05 -0.000465808
0.00191318 0.00218007 0.000102025
0.00218007 0.000734986 1.84776e-05
0.000102025 1.84776e-05 -0.000547195
-0.00689121 0.00124439 0.000542154
0.00124439 0.00632307 -2.91187e-05
0.000542154 -2.91187e-05 -0.0026556
0.00212406 -0.000577665 -2.4695e-05
-0.000577665 0.00244807 9.35855e-05
-2.4695e-05 9.35855e-05 -0.00116139
-0.00318826 2.77425e-05 -3.29731e-05
2.77425e-05 0.00225147 9.76301e-05
-3.29731e-05 9.76301e-05 -9.11275e-05
-0.00110666 -0.000445271 -5.53984e-05
-0.000445271 0.000843424 9.77616e-06
-5.53984e-05 9.77616e-06 -0.000710568
-0.00176268 -0.000946415 -5.38646e-05
-0.000946415 0.000232688 4.5871e-05
-5.38646e-05 4.5871e-05 0.000130855
-0.0012775 -0.000952767 -0.000271063
-0.000952767 0.00142586 0.000182284
-0.000271063 0.000182284 -0.00414263
-0.00176611 -0.00564871 0.00027635
-0.00564871 0.00233717 -0.000153287
0.00027635 -0.000153287 -0.00468573
0.0181978 0.00696851 0.000944046
0.00696851 0.00483204 -0.00046558
0.000944046 -0.00046558 -0.00247908
0.0180293 0.00729006 -0.000443424
0.00729006 0.011803 0.000492039
-0.000443424 0.000492039 0.00352435
0.000683246 -0.00138055 -4.14672e-05
-0.00138055 0.00156498 9.3423e-06
-4.14672e-05 9.3423e-06 0.000302079
0.00430202 0.00159675 0.00027917
0.00159675 0.0106282 -5.91196e-05
0.00027917 -5.91196e-05 0.00405962
0.00617369 0.00648295 2.84875e-05
0.00648295 0.00259797 0.000105346
2.84875e-05 0.000105346 -0.00278412
0.00230256 -0.00417266 7.79152e-05
-0.00417266 0.000874443 -5.86875e-05
7.79152e-05 -5.86875e-05 0.00104592
0.0134177 -0.00673764 -5.04038e-06
-0.00673764 0.000454672 1.2197e-05
-5.04038e-06 1.2197e-05 -0.00115547
0.00358295 -0.00252039 2.20185e-05
-0.00252039 0.00162232 2.0275e-05
2.20185e-05 2.0275e-05 0.000940656
-0.00584825 0.00243682 -0.00104789
0.00243682 -0.000754835 0.000172229
-0.00104789 0.000172229 -0.00575925
0.0162753 -0.00430788 -0.0002726
-0.00430788 0.000245297 8.36702e-05
-0.0002726 8.36702e-05 -0.00027962
0.00443594 -0.00395252 0.000148115
-0.00395252 -2.86528e-05 -9.33235e-05
0.000148115 -9.33235e-05 0.00123724
-0.000231234 -0.000661357 8.32911e-06
-0.000661357 0.00025366 -3.66643e-06
8.32911e-06 -3.66643e-06 -0.000392736
0.00232224 -0.0013759 2.33993e-05
-0.0013759 0.000853311 -1.0088e-05
2.33993e-05 -1.0088e-05 0.000372979
0.00241852 -0.00120936 1.51058e-05
-0.00120936 0.000537563 -1.92612e-05
1.51058e-05 -1.92612e-05 0.000110361
-0.000282437 -0.000705751 -6.03252e-06
-0.000705751 -0.000411365 2.12658e-05
-6.03252e-06 2.12658e-05 -0.000874141
0.00213838 -0.00124748 -6.22521e-06
-0.00124748 0.00037512 4.34512e-07
-6.22521e-06 4.34512e-07 -0.000163724
0.00320279 -0.0013745 7.58264e-06
-0.0013745 0.000724692 -4.50973e-06
7.58264e-06 -4.50973e-06 0.000210758
0.00140116 -0.00101874 -1.00101e-05
-0.00101874 0.000151601 1.04435e-05
-1.00101e-05 1.04435e-05 -0.000584568
0.00246541 -0.00130984 -4.74411e-07
-0.00130984 0.000479259 3.40453e-06
-4.74411e-07 3.40453e-06 -0.000147705
0.00242402 -0.00100927 -1.81786e-06
-0.00100927 0.000208856 -2.77127e-06
-1.81786e-06 -2.77127e-06 -0.000159053
0.00202976 -0.00115248 9.89073e-06
-0.00115248 0.000428262 3.2889e-06
9.89073e-06 3.2889e-06 -0.000238717
0.00232626 -0.000948974 -1.81521e-06
-0.000948974 0.000337875 2.05523e-06
-1.81521e-06 2.05523e-06 -0.000108196
0.00230056 -0.000678208 2.5957e-07
-0.000678208 0.000110698 -1.56286e-06
2.5957e-07 -1.56286e-06 -0.000114488
0.00222232 -0.000608121 -2.13945e-06
-0.000608121 0.000162338 5.08223e-07
-2.13945e-06 5.08223e-07 -3.13594e-05
0.00190227 -0.000629274 -2.79594e-06
-0.000629274 -8.65579e-06 -1.97486e-06
-2.79594e-06 -1.97486e-06 -0.000284797
0.00201893 -0.000616303 1.46812e-06
-0.000616303 2.65845e-05 3.02654e-06
1.46812e-06 3.02654e-06 -0.000228822
0.00192195 -0.000797881 -3.09602e-06
-0.000797881 0.000146686 -4.60007e-06
-3.09602e-06 -4.60007e-06 -0.000261629
0.00225678 -0.000929263 2.78904e-06
-0.000929263 0.000303611 3.70862e-07
2.78904e-06 3.70862e-07 -0.00015264
0.00239635 -0.000953875 1.36799e-06
-0.000953875 0.000396955 4.14524e-06
1.36799e-06 4.14524e-06 -6.77353e-05
0.00214154 -0.000939531 1.22923e-06
-0.000939531 0.000540185 -4.56283e-06
1.22923e-06 -4.56283e-06 1.73263e-06
0.0025323 -0.00106332 1.88951e-06
-0.00106332 0.000731403 -7.73915e-07
1.88951e-06 -7.73915e-07 0.000166016
0.00286971 -0.00120064 3.16005e-06
-0.00120064 0.000897278 -7.83459e-07
3.16005e-06 -7.83459e-07 0.000264938
0.00173237 -0.000621456 -5.77819e-06
-0.000621456 0.000572453 2.907e-06
-5.77819e-06 2.907e-06 0.000136606
0.00190476 -0.00087239 6.39495e-07
-0.00087239 0.000621131 5.9674e-07
6.39495e-07 5.9674e-07 7.145e-05
0.00154196 -0.000932239 9.78129e-07
-0.000932239 0.000365845 3.97874e-06
9.78129e-07 3.97874e-06 -0.000204181
0.000784734 -0.000250363 -4.27469e-06
-0.000250363 0.000154601 -1.72103e-06
-4.27469e-06 -1.72103e-06 -9.91474e-05
0.0010726 -0.000358564 4.37e-06
-0.000358564 0.00025461 -2.54088e-07
4.37e-06 -2.54088e-07 -6.51061e-05
0.00105396 -0.000574281 -4.97292e-06
-0.000574281 0.000262947 4.60201e-06
-4.97292e-06 4.60201e-06 -0.000177824
0.000476505 -0.000125725 -1.95689e-05
-0.000125725 -4.10369e-05 1.63179e-05
-1.95689e-05 1.63179e-05 -0.000142379
0.00065056 -0.000199751 -9.04291e-07
-0.000199751 0.000128238 1.59016e-06
-9.04291e-07 1.59016e-06 -0.000138514
-9.414e-06 -0.000298464 -4.66853e-06
-0.000298464 -0.00030887 -1.35023e-06
-4.66853e-06 -1.35023e-06 -0.000602467
0.00446007 0.000298071 2.28141e-05
0.000298071 0.0026649 9.77699e-06
2.28141e-05 9.77699e-06 0.00260504
0.000436194 -8.41553e-05 1.04027e-07
-8.41553e-05 -3.45479e-05 -5.50963e-07
1.04027e-07 -5.50963e-07 -0.000124485
0.00149289 -0.000218454 1.81075e-06
-0.000218454 0.000673892 -3.09918e-06
1.81075e-06 -3.09918e-06 0.000443162
0.0039261 0.000147209 1.0491e-05
0.000147209 0.00226061 7.31729e-07
1.0491e-05 7.31729e-07 0.00225066
0.000643875 -5.17974e-05 9.50629e-06
-5.17974e-05 0.000106509 -1.46268e-05
9.50629e-06 -1.46268e-05 3.70237e-05
0.00352278 0.000113793 7.6396e-05
0.000113793 0.00198697 -6.92684e-06
7.6396e-05 -6.92684e-06 0.00198577
0.00251832 0.00045621 2.92753e-06
0.00045621 0.00127813 2.81812e-06
2.92753e-06 2.81812e-06 0.000985172
0.00059558 0.000224122 2.49387e-07
0.000224122 0.000174453 -6.55366e-07
2.49387e-07 -6.55366e-07 -0.000114402
0.00131958 0.000456324 -3.75425e-06
0.000456324 0.000685845 -4.60659e-06
-3.75425e-06 -4.60659e-06 0.000353115
0.00115552 0.000158397 -6.63452e-08
0.000158397 0.000474964 -1.08138e-05
-6.63452e-08 -1.08138e-05 0.000294748
0.000862803 0.000152362 -1.22547e-07
0.000152362 0.000451742 7.40465e-07
-1.22547e-07 7.40465e-07 0.00011952
9.01922e-05 0.000127854 -1.88376e-06
0.000127854 7.47407e-08 5.86459e-06
-1.88376e-06 5.86459e-06 -0.000335086
0.000536844 3.92839e-06 -1.90923e-06
3.92839e-06 6.14036e-05 -1.44168e-05
-1.90923e-06 -1.44168e-05 7.20711e-06
0.000625852 7.12686e-05 8.25404e-08
7.12686e-05 0.000139107 2.53616e-07
8.25404e-08 2.53616e-07 -3.61776e-06
-0.000104134 8.52732e-05 -5.06162e-06
8.52732e-05 -0.000269394 1.30386e-05
-5.06162e-06 1.30386e-05 -0.000489549
0.00293945 -8.69547e-05 -5.01659e-05
-8.69547e-05 0.00160548 -6.44001e-06
-5.01659e-05 -6.44001e-06 0.00161046
0.000391938 -2.79832e-05 2.13315e-06
-2.79832e-05 -3.79984e-05 -3.9608e-07
2.13315e-06 -3.9608e-07 -8.09086e-05
0.000536871 6.25703e-05 -4.39972e-06
6.25703e-05 8.90012e-05 6.43399e-06
-4.39972e-06 6.43399e-06 -3.37826e-05
0.00272351 -7.12535e-05 -8.3951e-06
-7.12535e-05 0.00145956 6.52494e-07
-8.3951e-06 6.52494e-07 0.00146677
0.000405396 1.51799e-05 -1.63689e-06
1.51799e-05 -4.10305e-05 8.18885e-06
-1.63689e-06 8.18885e-06 -7.37199e-05
0.00243939 -5.09343e-05 2.45743e-05
-5.09343e-05 0.0012702 5.59936e-06
2.45743e-05 5.59936e-06 0.00128145
-0.00718069 0.000800786 -0.000320162
0.000800786 0.00543399 7.39723e-05
-0.000320162 7.39723e-05 -0.00281496
0.00659145 0.00107813 4.96767e-05
0.00107813 0.00438849 5.07917e-07
4.96767e-05 5.07917e-07 0.00115557
-0.00154643 0.00062514 0.000153199
0.00062514 0.00156968 7.75869e-05
0.000153199 7.75869e-05 -0.00098316
0.000272706 0.000251661 -6.9837e-06
0.000251661 -0.000121365 9.73052e-06
-6.9837e-06 9.73052e-06 -0.000433347
0.00393645 0.000973122 2.11976e-05
0.000973122 0.00214884 2.38435e-05
2.11976e-05 2.38435e-05 0.00162371
5.45018e-05 0.000236652 -1.50312e-05
0.000236652 7.25405e-06 7.59622e-06
-1.50312e-05 7.59622e-06 -0.000469793
0.000566037 0.000125133 -7.74427e-06
0.000125133 0.000201698 -1.78922e-05
-7.74427e-06 -1.78922e-05 -3.23878e-05
0.00290321 0.000411058 -1.77928e-06
0.000411058 0.00145874 -6.37899e-06
-1.77928e-06 -6.37899e-06 0.00122872
-0.00174966 1.88249e-05 -8.92354e-06
1.88249e-05 -0.0013055 1.56634e-05
-8.92354e-06 1.56634e-05 -0.00143973
-8.36844e-05 0.000269298 -7.25176e-07
0.000269298 -2.92868e-05 6.71291e-06
-7.25176e-07 6.71291e-06 -0.000360263
-0.000210033 0.00012434 -5.28806e-06
0.00012434 -0.000325784 -5.33574e-06
-5.28806e-06 -5.33574e-06 -0.000671097
0.000779288 0.000756718 -5.36738e-06
0.000756718 0.000347234 -2.20697e-05
-5.36738e-06 -2.20697e-05 -0.000219118
-0.000866881 0.000645509 -2.91094e-05
0.000645509 -0.000843707 7.02703e-05
-2.91094e-05 7.02703e-05 -0.00105946
0.000812352 8.013e-05 -1.31639e-05
8.013e-05 0.000467076 1.56763e-05
-1.31639e-05 1.56763e-05 0.000200396
0.0021914 0.000539148 1.16182e-05
0.000539148 0.00140511 -4.63885e-06
1.16182e-05 -4.63885e-06 0.000910431
0.00451919 -0.00428458 -0.0027086
-0.00428458 0.00320589 -0.000232829
-0.0027086 -0.000232829 -0.00309078
0.00194868 -0.00512669 0.000885905
-0.00512669 0.0102918 0.000156352
0.000885905 0.000156352 0.00184004
0.00935101 0.00327155 -0.000976029
0.00327155 0.00375688 -0.000314586
-0.000976029 -0.000314586 -0.00278516
0.0179709 -0.0164207 0.00318929
-0.0164207 0.0136755 0.00179768
0.00318929 0.00179768 0.00437639
0.0309072 -0.00481705 -9.90839e-05
-0.00481705 0.0123748 0.00051297
-9.90839e-05 0.00051297 0.00550706
-0.00284379 0.00152544 -0.000103321
0.00152544 0.00357884 -0.000216711
-0.000103321 -0.000216711 -0.00306003
-0.00196212 0.000232668 -0.00021155
0.000232668 0.00222419 -2.7392e-05
-0.00021155 -2.7392e-05 0.000123704
0.000282502 0.00110173 7.53595e-05
0.00110173 0.00203076 5.94762e-05
7.53595e-05 5.94762e-05 0.00121366
0.0250636 -0.00708184 -0.00090205
-0.00708184 0.0113129 6.92302e-05
-0.00090205 6.92302e-05 0.00361561
-0.00137599 0.00516908 -0.000252951
0.00516908 0.000932818 -4.26253e-05
-0.000252951 -4.26253e-05 -0.00395442
0.00339678 0.00336401 7.33894e-05
0.00336401 0.00131423 -8.28293e-05
7.33894e-05 -8.28293e-05 0.00200409
0.00770224 0.00879789 -0.000821255
0.00879789 -0.00152008 -0.000101902
-0.000821255 -0.000101902 -0.00343156
0.00410593 0.00167991 3.57307e-05
0.00167991 0.00169108 -8.57995e-06
3.57307e-05 -8.57995e-06 0.00117692
0.000856156 0.000746188 -4.70927e-06
0.000746188 0.000130121 -3.76004e-06
-4.70927e-06 -3.76004e-06 -6.0544e-05
-0.000226403 0.000250582 -2.80152e-05
0.000250582 -3.57013e-05 -4.37013e-06
-2.80152e-05 -4.37013e-06 -0.000478859
-0.000993412 0.000787977 -0.000140604
0.000787977 0.000794125 -7.9265e-05
-0.000140604 -7.9265e-05 -0.000587779
0.000621462 0.000808935 -6.0602e-05
0.000808935 0.000261738 -4.67002e-05
-6.0602e-05 -4.67002e-05 -0.000198411
0.00261362 0.00229069 4.10282e-06
0.00229069 0.000951038 -1.31173e-05
4.10282e-06 -1.31173e-05 -0.00029189
-0.00162291 0.00221408 0.000117802
0.00221408 -0.00218639 6.65959e-05
0.000117802 6.65959e-05 -0.00270923
-0.0070564 -0.000762432 -0.000952555
-0.000762432 -0.00269717 6.92724e-05
-0.000952555 6.92724e-05 -0.00517186
-0.0104596 0.000504829 0.000674573
0.000504829 0.00681853 1.29842e-05
0.000674573 1.29842e-05 -0.000763305
0.00258538 0.000116195 -0.000205509
0.000116195 0.00231389 3.68588e-05
-0.000205509 3.68588e-05 -3.17653e-06
0.000926634 -0.0014605 -6.05803e-05
-0.0014605 0.00117411 -5.74308e-05
-6.05803e-05 -5.74308e-05 -5.21697e-05
-0.00117941 -0.0029096 0.000210071
-0.0029096 -0.00015501 5.7347e-06
0.000210071 5.7347e-06 -5.20171e-05
0.00186937 0.00178036 0.000309869
0.00178036 0.0101398 9.69044e-05
0.000309869 9.69044e-05 0.00329078
0.00623123 -0.00648823 0.000851323
-0.00648823 -0.00180407 -5.94201e-05
0.000851323 -5.94201e-05 -0.00257831
0.0250332 0.00593214 0.00158657
0.00593214 0.011902 -5.91074e-05
0.00158657 -5.91074e-05 0.00606966
0.00211177 -0.00276305 -2.50062e-05
-0.00276305 0.000618838 2.64785e-06
-2.50062e-05 2.64785e-06 -0.000326384
0.00503068 0.00298593 0.000442239
0.00298593 0.0026701 -0.000130609
0.000442239 -0.000130609 -0.00179903
0.00782227 -0.00390646 -0.000234544
-0.00390646 -0.00464315 0.000210072
-0.000234544 0.000210072 -0.00566793
0.0024559 -0.00363724 -8.43713e-06
-0.00363724 -0.00135996 3.18737e-05
-8.43713e-06 3.18737e-05 0.000605783
0.00292067 -0.00221808 6.92964e-05
-0.00221808 0.000220012 -8.97421e-06
6.92964e-05 -8.97421e-06 -1.27026e-05
0.019755 -0.00124249 -0.000124577
-0.00124249 0.00261599 0.000105092
-0.000124577 0.000105092 0.00226857
0.002722 -0.00269758 0.0001374
-0.00269758 -0.00418543 -0.000112086
0.0001374 -0.000112086 -0.00149466
0.000805333 -0.00128635 -5.52201e-05
-0.00128635 -4.3407e-05 5.17435e-05
-5.52201e-05 5.17435e-05 -0.000360369
0.000500438 -0.000948283 -2.31458e-05
-0.000948283 -0.000493038 2.08815e-06
-2.31458e-05 2.08815e-06 -0.00075074
0.0057742 -0.001466 5.4142e-05
-0.001466 0.001983 -2.47379e-05
5.4142e-05 -2.47379e-05 0.00167526
0.000767563 -0.00106979 -1.57516e-05
-0.00106979 -0.000315195 1.62979e-05
-1.57516e-05 1.62979e-05 -0.000838709
0.00252397 -0.00127767 -6.81652e-07
-0.00127767 0.000383798 -9.5533e-07
-6.81652e-07 -9.5533e-07 -0.000103291
0.00301905 -0.00106432 4.55162e-06
-0.00106432 0.000351789 -2.00199e-06
4.55162e-06 -2.00199e-06 0.000128801
0.00249603 -0.00130923 9.0287e-06
-0.00130923 0.000490985 8.84478e-06
9.0287e-06 8.84478e-06 -0.000140388
0.00261811 -0.00102211 -3.28298e-06
-0.00102211 0.000313997 1.08575e-06
-3.28298e-06 1.08575e-06 -5.08799e-05
0.00242287 -0.000716233 1.35428e-06
-0.000716233 1.62022e-05 -4.47299e-07
1.35428e-06 -4.47299e-07 -7.48445e-05
0.00212916 -0.000917026 8.86854e-06
-0.000917026 0.000225991 6.42819e-06
8.86854e-06 6.42819e-06 -0.000210388
0.00224866 -0.000667268 -3.11594e-08
-0.000667268 7.70269e-05 2.41881e-06
-3.11594e-08 2.41881e-06 -0.000137396
0.00237512 -0.000680438 -4.59143e-07
-0.000680438 0.000103909 2.22244e-06
-4.59143e-07 2.22244e-06 -1.98627e-05
0.00229312 -0.0006526 -3.03932e-06
-0.0006526 0.000148974 1.21604e-06
-3.03932e-06 1.21604e-06 -9.96789e-06
0.00227387 -0.000613516 -3.41102e-06
-0.000613516 0.000183186 2.61058e-06
-3.41102e-06 2.61058e-06 -5.15394e-06
0.00228221 -0.000602786 -7.86316e-07
-0.000602786 0.000272022 -2.13211e-06
-7.86316e-07 -2.13211e-06 5.63714e-05
0.00228838 -0.000675783 -6.60191e-06
-0.000675783 0.000273181 -2.83177e-06
-6.60191e-06 -2.83177e-06 -1.95951e-05
0.00214309 -0.00064713 1.06775e-06
-0.00064713 0.000151008 1.40609e-06
1.06775e-06 1.40609e-06 -0.000125713
0.00202902 -0.00061574 1.42173e-06
-0.00061574 1.76052e-05 8.17058e-06
1.42173e-06 8.17058e-06 -0.000234499
0.00219903 -0.000803582 -5.18782e-06
-0.000803582 0.000380143 -5.27444e-06
-5.18782e-06 -5.27444e-06 -4.09225e-05
0.00189348 -0.000807092 -6.63889e-07
-0.000807092 0.000111905 1.83041e-07
-6.63889e-07 1.83041e-07 -0.000301907
0.00242511 -0.000941926 6.26071e-06
-0.000941926 0.000426448 4.06866e-06
6.26071e-06 4.06866e-06 -2.81384e-05
0.00175708 -0.000750462 -6.73966e-06
-0.000750462 0.000376877 -3.18124e-07
-6.73966e-06 -3.18124e-07 -0.000105353
0.00225376 -0.000954645 -3.68129e-07
-0.000954645 0.000602995 7.20431e-07
-3.68129e-07 7.20431e-07 6.09482e-05
0.00236915 -0.00105267 5.03821e-06
-0.00105267 0.000621492 2.21739e-06
5.03821e-06 2.21739e-06 5.45832e-05
0.00123043 -0.000332034 -1.01401e-05
-0.000332034 0.000362198 9.46731e-06
-1.01401e-05 9.46731e-06 8.57704e-05
0.00137069 -0.000589376 1.7432e-06
-0.000589376 0.000331263 1.02487e-06
1.7432e-06 1.02487e-06 -9.73679e-05
0.00191638 -0.000862318 -3.37706e-06
-0.000862318 0.000630902 5.43386e-06
-3.37706e-06 5.43386e-06 8.77203e-05
0.000344689 -0.000191321 -3.07307e-05
-0.000191321 -0.000155833 1.71716e-05
-3.07307e-05 1.71716e-05 -0.000275688
0.000583216 -0.000234735 -1.7192e-06
-0.000234735 3.99169e-05 -1.16442e-06
-1.7192e-06 -1.16442e-06 -0.000225371
-0.000140991 -0.000318869 1.73592e-06
-0.000318869 -0.000510619 -2.44051e-06
1.73592e-06 -2.44051e-06 -0.000832989
0.00522049 0.000216727 -0.000117621
0.000216727 0.00313299 1.18954e-05
-0.000117621 1.18954e-05 0.00310052
0.000551772 -0.000153438 2.62297e-06
-0.000153438 -7.19751e-07 1.23398e-07
2.62297e-06 1.23398e-07 -0.000105903
0.00102239 -0.000276738 4.28412e-06
-0.000276738 0.000354107 -1.23771e-06
4.28412e-06 -1.23771e-06 8.50885e-05
0.00296332 0.000151003 7.18012e-05
0.000151003 0.00166469 1.48895e-06
7.18012e-05 1.48895e-06 0.00162658
0.000758492 -9.12429e-05 1.54591e-05
-9.12429e-05 0.000165235 -1.64598e-05
1.54591e-05 -1.64598e-05 7.03573e-05
0.00410513 0.000135695 0.000100468
0.000135695 0.00237517 -9.27601e-06
0.000100468 -9.27601e-06 0.00236771
0.00219274 0.000488886 -8.90858e-07
0.000488886 0.00095384 3.91632e-06
-8.90858e-07 3.91632e-06 0.000627663
0.000681049 0.000243752 -4.70165e-06
0.000243752 8.29669e-05 6.36026e-07
-4.70165e-06 6.36026e-07 -0.000154413
0.000333984 0.000242515 6.55714e-07
0.000242515 -3.79755e-05 -8.39349e-07
6.55714e-07 -8.39349e-07 -0.000320015
0.0008315 0.000234286 -6.73352e-07
0.000234286 0.000308832 -1.19309e-06
-6.73352e-07 -1.19309e-06 3.47403e-05
0.0011032 0.000150526 -2.69572e-07
0.000150526 0.000541729 6.52345e-08
-2.69572e-07 6.52345e-08 0.000225614
0.00115654 0.000163604 -1.67381e-06
0.000163604 0.000492825 -1.19368e-05
-1.67381e-06 -1.19368e-05 0.000269551
0.000560541 7.20022e-05 -1.08545e-05
7.20022e-05 6.95053e-05 -1.7344e-05
-1.08545e-05 -1.7344e-05 1.92953e-06
0.000625038 0.000122777 -4.44413e-07
0.000122777 0.000149223 2.50849e-07
-4.44413e-07 2.50849e-07 -3.12258e-05
-0.0010563 3.97651e-06 -8.66725e-06
3.97651e-06 -0.000822422 1.42179e-05
-8.66725e-06 1.42179e-05 -0.00110802
0.00330718 -9.90735e-05 -7.57056e-05
-9.90735e-05 0.00185306 -8.15355e-06
-7.57056e-05 -8.15355e-06 0.00185565
0.000292421 3.36498e-05 1.42283e-06
3.36498e-05 -9.42835e-05 -3.64845e-07
1.42283e-06 -3.64845e-07 -0.000147853
0.000632561 9.60857e-05 -3.41909e-06
9.60857e-05 0.000147139 1.02385e-05
-3.41909e-06 1.02385e-05 3.32868e-06
0.00296432 -9.24066e-05 -9.15282e-06
-9.24066e-05 0.00162329 8.37279e-07
-9.15282e-06 8.37279e-07 0.00162633
0.000269014 -9.65446e-06 -9.40697e-07
-9.65446e-06 -0.000113527 1.03636e-05
-9.40697e-07 1.03636e-05 -0.000156698
0.00268248 -7.19085e-05 3.06388e-05
-7.19085e-05 0.00143285 6.05098e-06
3.06388e-05 6.05098e-06 0.00143969
0.00256702 -0.000606714 -0.00154419
-0.000606714 0.00447183 -7.53086e-05
-0.00154419 -7.53086e-05 0.00187621
-0.00455371 -0.000386391 -1.28201e-05
-0.000386391 0.00688544 -3.69846e-05
-1.28201e-05 -3.69846e-05 -0.00177938
0.00667648 0.000590765 -0.000485497
0.000590765 0.00413121 -0.000130136
-0.000485497 -0.000130136 0.0010682
0.000311643 0.000153185 5.56287e-06
0.000153185 -0.000118208 2.61376e-06
5.56287e-06 2.61376e-06 -0.000412897
0.000206331 0.000172393 8.44252e-06
0.000172393 -6.56216e-05 3.27728e-06
8.44252e-06 3.27728e-06 -0.000478492
0.00276717 0.000795919 -5.22396e-06
0.000795919 0.0014296 9.55383e-07
-5.22396e-06 9.55383e-07 0.000932279
0.00244125 0.000990878 2.36373e-05
0.000990878 0.00106967 1.42742e-05
2.36373e-05 1.42742e-05 0.000447009
0.00106117 0.000701291 5.02434e-06
0.000701291 0.000600319 1.39253e-05
5.02434e-06 1.39253e-05 5.78816e-05
0.00289735 0.000390595 -3.63814e-06
0.000390595 0.00175411 4.60074e-06
-3.63814e-06 4.60074e-06 0.00145432
0.0024385 0.000372453 1.68783e-05
0.000372453 0.00137422 8.21897e-06
1.68783e-05 8.21897e-06 0.00102852
0.00161806 0.00076819 -3.5088e-06
0.00076819 0.000877301 2.43243e-06
-3.5088e-06 2.43243e-06 0.000319474
0.00134009 0.00106905 1.12561e-05
0.00106905 0.000264845 -5.2356e-06
1.12561e-05 -5.2356e-06 -0.000237029
0.00267116 0.00117258 -4.54168e-06
0.00117258 0.00102592 3.39848e-05
-4.54168e-06 3.39848e-05 0.000696194
0.00184572 0.00128908 3.55045e-05
0.00128908 0.00022873 9.16097e-06
3.55045e-05 9.16097e-06 -3.45106e-05
0.00113063 0.000862504 1.11173e-05
0.000862504 0.000332108 1.69741e-06
1.11173e-05 1.69741e-06 -5.07409e-06
0.00167865 0.000672776 1.48674e-06
0.000672776 0.00103746 1.6682e-05
1.48674e-06 1.6682e-05 0.000467249
0.0164645 0.00447853 -0.000152989
0.00447853 0.00133632 5.55053e-05
-0.000152989 5.55053e-05 0.00086763
0.00783255 -0.00364047 -0.000840106
-0.00364047 0.00549463 -0.000258827
-0.000840106 -0.000258827 0.000916393
0.00351665 -0.00668 0.0014392
-0.00668 0.0113869 0.000264667
0.0014392 0.000264667 0.00290463
0.0169004 -0.00371905 0.000634904
-0.00371905 0.00686776 0.000242254
0.000634904 0.000242254 3.76326e-05
0.0118765 0.00743649 -0.000176245
0.00743649 0.00441547 -6.68666e-05
-0.000176245 -6.68666e-05 8.08761e-05
-0.00226347 0.000740937 -9.27697e-06
0.000740937 0.00116228 -5.4726e-06
-9.27697e-06 -5.4726e-06 0.000219629
0.00183886 0.00288132 -0.000100638
0.00288132 0.000567188 -4.45502e-05
-0.000100638 -4.45502e-05 0.00158447
0.0134727 0.00765541 1.57978e-05
0.00765541 0.00079931 4.50211e-05
1.57978e-05 4.50211e-05 -0.00162154
0.00736808 0.00543105 -0.000176619
0.00543105 -0.000719745 -0.000143082
-0.000176619 -0.000143082 0.000444321
0.00158916 0.00160652 1.24141e-05
0.00160652 8.76303e-05 -8.47669e-06
1.24141e-05 -8.47669e-06 -0.000310438
0.0015651 0.00124783 1.46194e-05
0.00124783 0.000439633 -2.42351e-06
1.46194e-05 -2.42351e-06 4.43135e-05
0.00239808 0.000847517 -4.11237e-05
0.000847517 0.0011713 -1.70864e-05
-4.11237e-05 -1.70864e-05 0.00096456
0.00197802 0.00228902 -8.72852e-05
0.00228902 0.00044307 -3.93386e-05
-8.72852e-05 -3.93386e-05 -0.000744155
0.00181279 0.00265839 0.000114921
0.00265839 -0.000637436 6.04258e-05
0.000114921 6.04258e-05 -0.00137935
0.00523308 -0.000358495 -0.000138652
-0.000358495 -0.00573098 3.45194e-05
-0.000138652 3.45194e-05 -0.00626017
1.25907e-06 -0.00250307 1.1387e-05
-0.00250307 0.00364785 6.12857e-05
1.1387e-05 6.12857e-05 0.00121485
-0.014341 -0.000446464 0.000603485
-0.000446464 0.0078309 -1.01178e-05
0.000603485 -1.01178e-05 0.00175834
0.00249487 -0.00339086 -0.000109025
-0.00339086 0.000379331 4.83941e-05
-0.000109025 4.83941e-05 -0.000861414
0.00663568 -0.00497504 1.82243e-05
-0.00497504 -0.000242427 7.40147e-05
1.82243e-05 7.40147e-05 0.00114469
0.00536005 0.000863853 0.00159667
0.000863853 0.00538035 -0.000365289
0.00159667 -0.000365289 0.00257412
0.0153723 -0.00395495 -0.000427202
-0.00395495 0.00023904 0.000246507
-0.000427202 0.000246507 0.000550483
0.00207766 -0.0021691 -3.05769e-05
-0.0021691 -0.000195354 8.95285e-06
-3.05769e-05 8.95285e-06 -0.00055236
0.0126397 -0.000426742 -0.0003063
-0.000426742 -0.00255213 0.000103659
-0.0003063 0.000103659 -0.00272054
0.00732321 -0.00313751 0.000102414
-0.00313751 -0.00136359 1.02691e-05
0.000102414 1.02691e-05 0.000501031
0.00365307 -0.00177289 6.2839e-05
-0.00177289 -0.000180665 -4.6782e-05
6.2839e-05 -4.6782e-05 -0.000100356
0.00281067 -0.0012366 4.93038e-05
-0.0012366 -0.00332825 -5.75911e-06
4.93038e-05 -5.75911e-06 -0.000812112
-0.00122285 -0.000764762 -1.26604e-05
-0.000764762 -0.00145442 2.57126e-05
-1.26604e-05 2.57126e-05 -0.00158186
0.00139404 -0.00100589 -2.07823e-05
-0.00100589 -0.000466012 4.07986e-06
-2.07823e-05 4.07986e-06 -0.00049156
0.00379307 -0.00100299 4.34574e-05
-0.00100299 0.000594497 -1.61746e-05
4.34574e-05 -1.61746e-05 0.000680449
0.00242809 -0.00126858 -1.57422e-05
-0.00126858 0.00033236 7.76651e-06
-1.57422e-05 7.76651e-06 -0.00014917
0.00266846 -0.00103895 -4.58121e-06
-0.00103895 0.000152997 1.9883e-06
-4.58121e-06 1.9883e-06 -7.06807e-05
0.00274179 -0.000812384 7.46813e-06
-0.000812384 4.22243e-06 -3.67409e-07
7.46813e-06 -3.67409e-07 8.36386e-06
0.00230836 -0.000965631 -5.78583e-06
-0.000965631 0.000158548 7.5778e-06
-5.78583e-06 7.5778e-06 -0.000185631
0.00235628 -0.000711391 4.40101e-08
-0.000711391 -2.66114e-05 1.33642e-06
4.40101e-08 1.33642e-06 -0.000116621
0.0025235 -0.000712125 6.24497e-07
-0.000712125 4.17526e-05 1.1373e-07
6.24497e-07 1.1373e-07 2.10447e-05
0.00215003 -0.000647558 1.84991e-06
-0.000647558 2.06887e-05 5.23541e-06
1.84991e-06 5.23541e-06 -0.000180048
0.00232611 -0.000672198 -1.24071e-08
-0.000672198 8.02512e-05 7.90664e-07
-1.24071e-08 7.90664e-07 -4.18234e-05
0.00248634 -0.000701097 -1.05895e-06
-0.000701097 0.000117265 1.33932e-06
-1.05895e-06 1.33932e-06 2.34039e-05
0.00228095 -0.000658773 -4.92914e-06
-0.000658773 0.000132544 8.99168e-07
-4.92914e-06 8.99168e-07 -1.90373e-05
0.00227586 -0.00062616 -8.44707e-07
-0.00062616 0.0001867 1.67147e-07
-8.44707e-07 1.67147e-07 1.6694e-05
0.00231354 -0.000617894 -8.4349e-08
-0.000617894 0.000199639 3.59179e-06
-8.4349e-08 3.59179e-06 1.6776e-05
0.00229763 -0.000601092 9.32169e-07
-0.000601092 0.000280811 -5.00616e-07
9.32169e-07 -5.00616e-07 6.52238e-05
0.00220386 -0.000612607 -2.81835e-06
-0.000612607 0.00024013 -1.16347e-06
-2.81835e-06 -1.16347e-06 3.41216e-06
0.00231436 -0.000669836 -2.93446e-06
-0.000669836 0.000362481 -5.75323e-06
-2.93446e-06 -5.75323e-06 5.04726e-05
0.00234784 -0.000684651 -6.1627e-07
-0.000684651 0.000313805 1.93453e-07
-6.1627e-07 1.93453e-07 1.79946e-05
0.0023822 -0.000663268 7.3365e-06
-0.000663268 0.000313105 4.69882e-06
7.3365e-06 4.69882e-06 3.62086e-05
0.00190139 -0.000723573 -7.68738e-06
-0.000723573 0.000288997 -1.89649e-06
-7.68738e-06 -1.89649e-06 -0.000142904
0.00213006 -0.000801394 -1.6385e-06
-0.000801394 0.000328265 -9.26956e-07
-1.6385e-06 -9.26956e-07 -9.7184e-05
0.0018505 -0.000814226 3.95455e-06
-0.000814226 6.65004e-05 4.06485e-06
3.95455e-06 4.06485e-06 -0.000352238
0.00114019 -0.000388118 -1.62672e-05
-0.000388118 0.000168553 9.31998e-06
-1.62672e-05 9.31998e-06 -0.000141729
0.00182716 -0.00075229 4.62096e-07
-0.00075229 0.000432317 1.23824e-06
4.62096e-07 1.23824e-06 -4.79398e-05
0.00236341 -0.000966821 -3.69288e-07
-0.000966821 0.000667767 5.31619e-06
-3.69288e-07 5.31619e-06 0.000123416
0.000189144 -0.000218123 -1.73171e-05
-0.000218123 -0.000249955 2.37499e-05
-1.73171e-05 2.37499e-05 -0.000408057
0.000713411 -0.000313793 2.00875e-06
-0.000313793 3.62005e-05 1.39921e-07
2.00875e-06 1.39921e-07 -0.00024622
0.000936952 -0.000545369 5.87239e-06
-0.000545369 5.25593e-05 -1.11248e-07
5.87239e-06 -1.11248e-07 -0.000364815
0.00640152 0.000113884 -0.00021296
0.000113884 0.00385272 1.48885e-05
-0.00021296 1.48885e-05 0.00384742
0.000458628 -0.000215353 -9.1396e-06
-0.000215353 -7.98977e-05 -1.34453e-06
-9.1396e-06 -1.34453e-06 -0.000206234
0.000345208 -0.000256833 4.24637e-06
-0.000256833 -9.15103e-05 -5.27063e-06
4.24637e-06 -5.27063e-06 -0.000372669
0.00570712 0.000161936 1.16885e-05
0.000161936 0.00343367 -1.88582e-06
1.16885e-05 -1.88582e-06 0.00341612
0.000544694 -0.000183679 3.18611e-05
-0.000183679 -6.0215e-06 -1.57672e-05
3.18611e-05 -1.57672e-05 -0.000117185
0.00502582 0.000138818 0.000161936
0.000138818 0.00298538 -1.39854e-05
0.000161936 -1.39854e-05 0.00297584
0.00295805 0.000928898 2.73036e-06
0.000928898 0.00138548 8.1189e-06
2.73036e-06 8.1189e-06 0.000816197
0.00112456 0.000442753 -2.90288e-06
0.000442753 0.000290645 2.4641e-07
-2.90288e-06 2.4641e-07 -4.95288e-05
0.000919149 0.000273145 7.98548e-06
0.000273145 0.000214366 -1.99853e-06
7.98548e-06 -1.99853e-06 -4.08247e-05
-0.00096739 9.66027e-05 -1.2896e-06
9.66027e-05 -0.000948945 -7.41873e-06
-1.2896e-06 -7.41873e-06 -0.0011782
0.000166305 0.000239163 3.95135e-06
0.000239163 -0.000187854 1.37422e-07
3.95135e-06 1.37422e-07 -0.000433328
0.00066091 0.000298069 -7.32156e-06
0.000298069 0.000114007 -7.3789e-06
-7.32156e-06 -7.3789e-06 -0.000113999
-0.000191543 8.02806e-05 -4.32913e-06
8.02806e-05 -0.000283692 3.17136e-06
-4.32913e-06 3.17136e-06 -0.000600317
0.00072448 0.000162545 1.02721e-06
0.000162545 0.00022773 6.61572e-07
1.02721e-06 6.61572e-07 -1.58472e-06
0.000741323 0.000106513 -1.74967e-05
0.000106513 0.0001759 -1.96551e-05
-1.74967e-05 -1.96551e-05 8.68804e-05
0.00378151 -0.00011291 -0.000102059
-0.00011291 0.00217219 -1.16889e-05
-0.000102059 -1.16889e-05 0.00217074
0.000439659 4.22341e-05 2.7367e-06
4.22341e-05 3.02432e-06 -4.01613e-07
2.7367e-06 -4.01613e-07 -6.54513e-05
0.000173571 6.74085e-05 -3.36417e-06
6.74085e-05 -0.000121598 1.2409e-05
-3.36417e-06 1.2409e-05 -0.000305406
0.00322582 -0.000115911 -1.1752e-05
-0.000115911 0.00180278 1.17226e-06
-1.1752e-05 1.17226e-06 0.00180036
0.000297439 -6.84194e-05 -1.07367e-05
-6.84194e-05 -7.78935e-05 1.43419e-05
-1.07367e-05 1.43419e-05 -0.000138378
0.00287289 -9.24872e-05 3.90589e-05
-9.24872e-05 0.00156465 6.33116e-06
3.90589e-05 6.33116e-06 0.00156712
0.0161663 0.000878342 0.000680769
0.000878342 0.000956136 0.00015551
0.000680769 0.00015551 0.00140341
0.00139945 -0.00473316 -0.000909169
-0.00473316 -0.00107767 -9.03452e-05
-0.000909169 -9.03452e-05 -0.00559623
-0.00829904 0.00166007 -0.000286101
0.00166007 0.00653139 -0.000121111
-0.000286101 -0.000121111 -0.00184551
-0.000198258 8.19223e-05 1.31323e-05
8.19223e-05 -0.000314149 -2.94142e-05
1.31323e-05 -2.94142e-05 -0.000762311
0.000783147 0.000554948 -5.87056e-06
0.000554948 0.000202908 -6.39715e-06
-5.87056e-06 -6.39715e-06 -0.000263105
0.00247709 0.000836665 -1.25064e-05
0.000836665 0.0013662 -5.25338e-06
-1.25064e-05 -5.25338e-06 0.000791435
0.00119675 0.000821051 3.92603e-07
0.000821051 0.000315554 -5.63162e-07
3.92603e-07 -5.63162e-07 -0.000264684
0.00183725 0.000934305 1.97011e-05
0.000934305 0.000424587 2.39609e-05
1.97011e-05 2.39609e-05 -0.000114212
-0.000457599 0.000738354 3.46109e-05
0.000738354 -0.000746917 1.1563e-05
3.46109e-05 1.1563e-05 -0.00121357
0.00179738 0.000696736 -1.14152e-05
0.000696736 0.00101806 2.99913e-06
-1.14152e-05 2.99913e-06 0.000481337
0.000615514 0.000949198 8.45817e-06
0.000949198 -0.000170511 3.76519e-06
8.45817e-06 3.76519e-06 -0.000639263
0.0021128 0.00107385 2.51419e-05
0.00107385 0.000760701 3.67825e-06
2.51419e-05 3.67825e-06 0.000379097
0.00131634 0.000965488 8.7676e-06
0.000965488 0.000127938 4.13109e-08
8.7676e-06 4.13109e-08 -0.000294991
0.00251387 0.00123004 8.4753e-06
0.00123004 0.000597408 6.98548e-06
8.4753e-06 6.98548e-06 0.000351585
0.00253815 0.00136712 2.29682e-05
0.00136712 0.000624529 1.03143e-05
2.29682e-05 1.03143e-05 0.000150533
0.0011939 0.00119674 1.11591e-05
0.00119674 -0.000120951 -2.02681e-06
1.11591e-05 -2.02681e-06 -0.000333191
0.00220201 0.000899598 -2.68983e-05
0.000899598 0.000956045 -8.33096e-05
-2.68983e-05 -8.33096e-05 0.000606757
0.00394602 0.00262262 3.34101e-05
0.00262262 -0.00357498 5.1768e-05
3.34101e-05 5.1768e-05 -0.000670449
0.0134211 0.00523811 0.000389455
0.00523811 -0.00126128 0.000229195
0.000389455 0.000229195 -0.00209642
0.0161459 -0.00700824 0.000991108
-0.00700824 0.00800301 -0.000117667
0.000991108 -0.000117667 0.00194576
0.00616756 0.00839952 0.000918476
0.00839952 -0.00179411 0.000440211
0.000918476 0.000440211 -0.00527249
-0.000875031 0.00194802 -3.88987e-05
0.00194802 2.59039e-05 2.47702e-05
-3.88987e-05 2.47702e-05 0.000672863
0.00355555 0.00333563 -9.29731e-05
0.00333563 -0.00129027 -6.25467e-05
-9.29731e-05 -6.25467e-05 0.000432437
0.00694419 0.0030196 5.28312e-05
0.0030196 0.00103279 3.24899e-05
5.28312e-05 3.24899e-05 0.00084518
0.00577706 0.0023177 2.46689e-05
0.0023177 0.00198197 1.18585e-05
2.46689e-05 1.18585e-05 0.00140264
0.000789087 0.00110007 -3.99364e-05
0.00110007 6.64919e-06 4.68886e-06
-3.99364e-05 4.68886e-06 -0.000319694
0.00915915 0.00371337 -0.000216189
0.00371337 0.00278596 -9.64701e-06
-0.000216189 -9.64701e-06 0.00169107
0.00488006 -0.000974022 -7.74609e-06
-0.000974022 -0.00156991 3.1612e-05
-7.74609e-06 3.1612e-05 0.000263513
0.0120694 -0.000617994 -6.75158e-05
-0.000617994 -0.000511298 -4.38528e-05
-6.75158e-05 -4.38528e-05 0.000328437
-0.0128025 -0.00420792 0.00123696
-0.00420792 -0.00351949 -1.68034e-05
0.00123696 -1.68034e-05 -0.00687175
0.0014784 -0.00192437 -0.00014778
-0.00192437 -0.000373324 4.54011e-05
-0.00014778 4.54011e-05 -0.000621891
0.00820809 -0.00373297 -7.23069e-05
-0.00373297 -0.00168114 0.000117241
-7.23069e-05 0.000117241 0.000432049
0.00220399 -0.000444489 -0.000436173
-0.000444489 -0.00720408 2.00381e-05
-0.000436173 2.00381e-05 -0.00753811
0.00356989 -0.00159804 4.34126e-05
-0.00159804 -0.000214795 2.97431e-07
4.34126e-05 2.97431e-07 0.000174718
0.00524108 -0.00125491 -7.90494e-05
-0.00125491 -0.00169946 -2.28773e-06
-7.90494e-05 -2.28773e-06 0.000178816
0.00729323 -0.00129341 6.96553e-05
-0.00129341 0.00176891 -4.37171e-05
6.96553e-05 -4.37171e-05 0.00228596
0.00628828 -0.000784882 0.000136926
-0.000784882 0.00076868 2.62246e-06
0.000136926 2.62246e-06 0.00163175
-0.00181782 -0.000685922 9.58193e-06
-0.000685922 -0.00235786 1.35307e-05
9.58193e-06 1.35307e-05 -0.00209112
0.00223316 -0.000860261 -9.0996e-06
-0.000860261 -0.000318976 3.40864e-06
-9.0996e-06 3.40864e-06 -9.02917e-05
0.00250161 -0.000642272 2.74628e-05
-0.000642272 -0.000364804 -7.50249e-06
2.74628e-05 -7.50249e-06 -7.42254e-06
0.00231295 -0.00101674 -6.00347e-06
-0.00101674 -4.72328e-05 2.74382e-06
-6.00347e-06 2.74382e-06 -0.000274265
0.00268263 -0.000804738 9.64125e-07
-0.000804738 -2.21968e-05 1.50607e-06
9.64125e-07 1.50607e-06 -1.62393e-05
0.0026838 -0.000694569 1.31329e-06
-0.000694569 -7.4489e-06 -4.90232e-07
1.31329e-06 -4.90232e-07 1.8904e-05
0.00230101 -0.000710892 7.65585e-07
-0.000710892 -6.53111e-05 3.795e-06
7.65585e-07 3.795e-06 -0.000157289
0.00249086 -0.000708562 1.51848e-07
-0.000708562 3.578e-05 4.36452e-07
1.51848e-07 4.36452e-07 5.57478e-06
0.00245502 -0.000611395 -1.16492e-06
-0.000611395 9.47521e-06 -4.45348e-07
-1.16492e-06 -4.45348e-07 -2.58033e-05
0.00228812 -0.000666917 8.53576e-07
-0.000666917 6.04657e-05 3.13644e-07
8.53576e-07 3.13644e-07 -6.12628e-05
0.00248616 -0.000698604 -1.02144e-07
-0.000698604 0.000145801 -1.11503e-07
-1.02144e-07 -1.11503e-07 4.55032e-05
0.0023635 -0.000607373 1.08831e-06
-0.000607373 0.000120861 4.1405e-07
1.08831e-06 4.1405e-07 1.64933e-05
0.00226418 -0.000664918 -3.03922e-06
-0.000664918 0.000111671 -2.27847e-07
-3.03922e-06 -2.27847e-07 -3.28221e-05
0.00222743 -0.000622607 -1.62135e-06
-0.000622607 0.000152782 -5.70247e-09
-1.62135e-06 -5.70247e-09 -1.40148e-05
0.00235468 -0.000602485 -2.28637e-06
-0.000602485 0.000290116 6.79329e-07
-2.28637e-06 6.79329e-07 9.09334e-05
0.00231563 -0.000597961 3.11206e-06
-0.000597961 0.000291499 1.26033e-06
3.11206e-06 1.26033e-06 7.65309e-05
0.00222371 -0.000610587 -2.61968e-07
-0.000610587 0.000249075 1.13059e-07
-2.61968e-07 1.13059e-07 1.35761e-05
0.00226352 -0.0006121 -7.04977e-07
-0.0006121 0.000302565 -2.19818e-06
-7.04977e-07 -2.19818e-06 4.1935e-05
0.00201333 -0.000610212 -5.79163e-06
-0.000610212 0.000275404 -3.00628e-06
-5.79163e-06 -3.00628e-06 -6.14847e-05
0.00220603 -0.000667295 -3.72595e-07
-0.000667295 0.000289574 -1.66139e-06
-3.72595e-07 -1.66139e-06 -2.96747e-05
0.00240299 -0.000693825 4.61511e-06
-0.000693825 0.000352048 3.54427e-06
4.61511e-06 3.54427e-06 5.29872e-05
0.00123599 -0.000449437 -2.22107e-05
-0.000449437 9.04965e-05 7.78247e-06
-2.22107e-05 7.78247e-06 -0.000235981
0.00203017 -0.000728916 -1.30601e-06
-0.000728916 0.000383255 4.85152e-07
-1.30601e-06 4.85152e-07 -4.73628e-05
0.00207397 -0.000800734 1.4058e-07
-0.000800734 0.000284339 3.86467e-06
1.4058e-07 3.86467e-06 -0.000145883
0.000337665 -0.000242032 -1.98869e-05
-0.000242032 -0.000195122 2.46895e-05
-1.98869e-05 2.46895e-05 -0.000363023
0.000853323 -0.00037881 4.01194e-06
-0.00037881 -1.43802e-05 4.20168e-07
4.01194e-06 4.20168e-07 -0.000328916
0.0019158 -0.000756697 7.79474e-06
-0.000756697 0.000498402 2.11177e-06
7.79474e-06 2.11177e-06 1.93457e-05
0.00736235 1.92255e-05 -0.000288495
1.92255e-05 0.0044334 2.24675e-05
-0.000288495 2.24675e-05 0.00444232
0.00031283 -0.000240432 -1.38597e-06
-0.000240432 -0.000174564 -7.68078e-08
-1.38597e-06 -7.68078e-08 -0.000335232
0.000310873 -0.000301047 7.7716e-06
-0.000301047 -0.000220695 -6.91893e-06
7.7716e-06 -6.91893e-06 -0.000508782
0.00670227 7.77953e-05 -1.11951e-05
7.77953e-05 0.00404929 -2.44388e-06
-1.11951e-05 -2.44388e-06 0.00404439
0.000517223 -0.000229006 2.445e-05
-0.000229006 -4.24077e-05 -2.05358e-05
2.445e-05 -2.05358e-05 -0.000171958
0.00610364 0.00014359 0.000208301
0.00014359 0.0037053 -2.75236e-05
0.000208301 -2.75236e-05 0.00368351
0.00209199 0.000873945 -8.93801e-06
0.000873945 0.000615303 1.05009e-05
-8.93801e-06 1.05009e-05 9.042e-05
0.00200351 0.000802514 -1.39879e-06
0.000802514 0.000757072 -4.98269e-07
-1.39879e-06 -4.98269e-07 0.000228806
0.00127205 0.000536274 -4.69364e-06
0.000536274 0.000346873 3.8421e-06
-4.69364e-06 3.8421e-06 -5.74811e-05
0.000667711 0.000442858 1.15455e-06
0.000442858 3.14802e-05 -3.45233e-06
1.15455e-06 -3.45233e-06 -0.000328349
0.000751669 0.000265542 -2.05412e-06
0.000265542 0.000107785 -2.31936e-06
-2.05412e-06 -2.31936e-06 -0.000155603
0.000340452 0.000223739 -4.47284e-06
0.000223739 -0.000115526 -2.99124e-06
-4.47284e-06 -2.99124e-06 -0.000377551
0.000954754 0.000156283 1.58619e-07
0.000156283 0.000310176 -9.15345e-07
1.58619e-07 -9.15345e-07 7.93126e-05
0.000819385 0.000185143 2.02164e-06
0.000185143 0.000261197 -1.23596e-06
2.02164e-06 -1.23596e-06 3.37301e-06
0.000621319 0.000150194 -2.6009e-05
0.000150194 6.50681e-05 -2.03604e-05
-2.6009e-05 -2.03604e-05 -4.18766e-05
8.79708e-05 0.000123065 -9.572e-07
0.000123065 -0.000153882 1.33888e-05
-9.572e-07 1.33888e-05 -0.000394546
0.000485683 0.000103589 -6.65968e-07
0.000103589 1.86376e-05 -3.58182e-07
-6.65968e-07 -3.58182e-07 -6.72909e-05
0.00451488 -0.000137363 -0.00013282
-0.000137363 0.00266403 -1.67051e-05
-0.00013282 -1.67051e-05 0.00265309
0.00373139 -0.000139286 -1.38338e-05
-0.000139286 0.00214472 1.35659e-06
-1.38338e-05 1.35659e-06 0.00213609
0.000280577 8.24611e-05 1.14907e-05
8.24611e-05 -9.77141e-05 1.74317e-05
1.14907e-05 1.74317e-05 -0.000162248
0.00318446 -0.000119516 4.70088e-05
-0.000119516 0.00177673 6.97452e-06
4.70088e-05 6.97452e-06 0.00177296
0.00254096 0.000422844 0.000116479
0.000422844 -0.00237164 3.43051e-05
0.000116479 3.43051e-05 -0.000177004
0.00585796 -0.000653841 0.000260981
-0.000653841 -0.00583046 0.000143811
0.000260981 0.000143811 -0.00644188
0.0161356 -0.00528827 -0.000321769
-0.00528827 0.00821288 -0.000133546
-0.000321769 -0.000133546 0.00376164
0.0017832 0.000830633 9.96212e-06
0.000830633 0.00016344 1.19837e-05
9.96212e-06 1.19837e-05 -0.000263506
0.00515385 0.00111182 -1.48586e-05
0.00111182 0.00285119 -1.13905e-05
-1.48586e-05 -1.13905e-05 0.00226012
0.000185904 0.000679043 -1.05443e-05
0.000679043 -0.00029436 -1.44171e-05
-1.05443e-05 -1.44171e-05 -0.000837399
0.00181151 0.00103225 7.93409e-07
0.00103225 0.000618904 -6.28904e-07
7.93409e-07 -6.28904e-07 7.31946e-05
0.00204142 0.000959715 -4.5677e-07
0.000959715 0.000574656 4.61943e-06
-4.5677e-07 4.61943e-06 2.38231e-05
0.00218951 0.0010672 2.95309e-05
0.0010672 0.000584835 1.81691e-05
2.95309e-05 1.81691e-05 8.82511e-05
0.00206491 0.00110048 -3.91581e-05
0.00110048 0.000707578 -1.676e-06
-3.91581e-05 -1.676e-06 0.000177507
0.00118241 0.000915511 4.81624e-06
0.000915511 0.00028021 -3.4698e-05
4.81624e-06 -3.4698e-05 -9.51588e-05
0.00205572 0.00116082 4.22651e-07
0.00116082 0.000498568 -1.24963e-06
4.22651e-07 -1.24963e-06 4.61739e-05
0.00154201 0.00111998 1.52165e-05
0.00111998 2.70409e-05 -2.93775e-05
1.52165e-05 -2.93775e-05 -0.000112978
0.00216822 0.00113554 2.49763e-05
0.00113554 0.000327644 -2.78489e-06
2.49763e-05 -2.78489e-06 -0.000141454
0.0022186 0.000988815 3.5247e-05
0.000988815 0.000343117 3.4762e-05
3.5247e-05 3.4762e-05 0.000133088
0.0010383 0.00114049 -1.01005e-05
0.00114049 -0.00017162 -8.16743e-06
-1.01005e-05 -8.16743e-06 -0.000543473
0.00130438 0.00116726 -3.54131e-05
0.00116726 -4.05015e-06 -1.57034e-05
-3.54131e-05 -1.57034e-05 -0.000216512
0.00256778 0.00124115 4.93325e-05
0.00124115 -0.00120515 4.23195e-05
4.93325e-05 4.23195e-05 -0.000296437
0.00631622 0.00286069 -0.00011513
0.00286069 -0.00236807 -4.13015e-05
-0.00011513 -4.13015e-05 0.00035117
0.00468373 0.00376847 0.000787697
0.00376847 -0.00686402 0.000225523
0.000787697 0.000225523 -0.00747138
0.0035071 0.00296861 -0.000287217
0.00296861 -0.000203688 -0.00012706
-0.000287217 -0.00012706 0.00101519
0.00554831 0.00249694 -3.28267e-05
0.00249694 0.000806291 -9.57676e-06
-3.28267e-05 -9.57676e-06 0.000747721
0.00694467 0.00253907 -0.00020461
0.00253907 0.00243254 -5.554e-05
-0.00020461 -5.554e-05 0.00180147
0.0032956 -0.000240329 -4.99791e-05
-0.000240329 -0.000820448 -2.36922e-05
-4.99791e-05 -2.36922e-05 -0.000175507
-0.000268459 -0.000631248 0.000133729
-0.000631248 -0.00227564 3.37803e-05
0.000133729 3.37803e-05 -0.000394707
0.00656969 0.000353233 0.000313358
0.000353233 -0.00601477 -1.15636e-05
0.000313358 -1.15636e-05 -0.00621933
0.00153948 -0.00128651 -7.56064e-05
-0.00128651 -0.00119192 9.17323e-05
-7.56064e-05 9.17323e-05 -0.000590959
0.00675008 -0.00133465 -0.000218276
-0.00133465 -0.00101209 5.8113e-05
-0.000218276 5.8113e-05 0.000417372
0.0032567 -0.000989105 -3.0945e-05
-0.000989105 -0.000601003 1.19814e-05
-3.0945e-05 1.19814e-05 0.00013677
0.00460796 -0.000721212 -2.30007e-05
-0.000721212 -2.40001e-05 3.57246e-08
-2.30007e-05 3.57246e-08 0.000666026
0.00459925 -0.000531887 9.67065e-05
-0.000531887 0.000854887 -1.62667e-05
9.67065e-05 -1.62667e-05 0.001213
0.00277116 -0.000111884 4.54948e-05
-0.000111884 9.80855e-05 9.32484e-07
4.54948e-05 9.32484e-07 0.00024964
0.000582608 -0.000682338 -2.06914e-05
-0.000682338 -0.00122094 1.22977e-05
-2.06914e-05 1.22977e-05 -0.000863393
0.00252994 -0.000672469 -3.07001e-06
-0.000672469 -0.000331028 6.66379e-07
-3.07001e-06 6.66379e-07 -1.89613e-05
0.00263208 -0.000518508 3.56892e-06
-0.000518508 -0.00025912 -7.81938e-07
3.56892e-06 -7.81938e-07 1.05819e-05
0.00260669 -0.000791315 -4.19965e-06
-0.000791315 -5.23397e-05 2.43505e-06
-4.19965e-06 2.43505e-06 -4.21038e-05
0.00267586 -0.000670765 -1.43239e-07
-0.000670765 1.9212e-05 -5.44544e-07
-1.43239e-07 -5.44544e-07 5.703e-05
0.00249313 -0.000507054 -1.1804e-06
-0.000507054 -8.8696e-05 -4.23552e-07
-1.1804e-06 -4.23552e-07 -2.57536e-05
0.00245672 -0.00070276 -1.43242e-06
-0.00070276 3.16225e-05 4.46723e-07
-1.43242e-06 4.46723e-07 -6.67365e-06
0.00245539 -0.000614571 -6.529e-07
-0.000614571 2.3344e-05 2.02867e-08
-6.529e-07 2.02867e-08 -9.28752e-06
0.00235137 -0.000511105 1.87435e-08
-0.000511105 4.31415e-05 -9.77876e-08
1.87435e-08 -9.77876e-08 -5.01029e-06
0.00248631 -0.000694985 -8.20765e-07
-0.000694985 0.000175601 -1.0387e-06
-8.20765e-07 -1.0387e-06 6.92302e-05
0.00235929 -0.000608239 1.06172e-06
-0.000608239 0.000115923 -1.0926e-07
1.06172e-06 -1.0926e-07 1.12443e-05
0.00226368 -0.000543482 -1.11407e-06
-0.000543482 0.000144242 5.19546e-07
-1.11407e-06 5.19546e-07 9.07365e-06
0.00218038 -0.000619536 -2.13371e-06
-0.000619536 0.00012008 1.55348e-07
-2.13371e-06 1.55348e-07 -4.33836e-05
0.00227161 -0.000596501 -1.21452e-06
-0.000596501 0.000228763 5.74678e-07
-1.21452e-06 5.74678e-07 3.23634e-05
0.00235812 -0.000584141 -1.33736e-06
-0.000584141 0.000316491 -1.56845e-06
-1.33736e-06 -1.56845e-06 9.70667e-05
0.00225012 -0.000609367 2.67319e-06
-0.000609367 0.000262023 2.03771e-06
2.67319e-06 2.03771e-06 2.74497e-05
0.00225108 -0.000612183 -1.80007e-07
-0.000612183 0.000293328 4.0283e-08
-1.80007e-07 4.0283e-08 3.50902e-05
0.00213892 -0.000553415 -4.41369e-06
-0.000553415 0.000319705 -1.14862e-06
-4.41369e-06 -1.14862e-06 3.26108e-05
0.00130625 -0.000418711 -1.98002e-05
-0.000418711 4.34145e-05 7.3012e-06
-1.98002e-05 7.3012e-06 -0.000250935
0.00199257 -0.000608695 -4.91403e-07
-0.000608695 0.000266134 -1.18793e-06
-4.91403e-07 -1.18793e-06 -7.53358e-05
0.00210025 -0.000665201 1.31101e-06
-0.000665201 0.000218072 2.51922e-06
1.31101e-06 2.51922e-06 -0.000108561
0.000184417 -0.000253626 -2.17363e-05
-0.000253626 -0.000301416 2.10909e-05
-2.17363e-05 2.10909e-05 -0.000478222
0.0012248 -0.000445554 1.39925e-06
-0.000445554 8.88508e-05 -9.80044e-08
1.39925e-06 -9.80044e-08 -0.000236306
0.00215769 -0.00073484 5.64553e-06
-0.00073484 0.000475581 2.47714e-06
5.64553e-06 2.47714e-06 4.59986e-05
0.0082017 -2.96559e-05 -0.000336612
-2.96559e-05 0.00493681 2.90779e-05
-0.000336612 2.90779e-05 0.00495053
0.000211119 -0.000279371 -1.20769e-07
-0.000279371 -0.000262669 2.27922e-06
-1.20769e-07 2.27922e-06 -0.000442745
0.000623609 -0.000375758 1.64847e-05
-0.000375758 -0.000164763 -6.00798e-06
1.64847e-05 -6.00798e-06 -0.000484054
0.00768115 2.13453e-06 -8.72317e-06
2.13453e-06 0.00463734 6.2871e-07
-8.72317e-06 6.2871e-07 0.00464476
0.00054707 -0.000286222 2.34479e-05
-0.000286222 -2.58364e-05 -2.58639e-05
2.34479e-05 -2.58639e-05 -0.000192691
0.00698231 6.85539e-05 0.000273999
6.85539e-05 0.00423651 -3.40079e-05
0.000273999 -3.40079e-05 0.00422907
0.00181232 0.000770438 -3.99904e-06
0.000770438 0.000249764 1.04468e-05
-3.99904e-06 1.04468e-05 -0.000184483
0.00199938 0.00086177 -1.76865e-06
0.00086177 0.00055458 1.03759e-06
-1.76865e-06 1.03759e-06 3.22431e-05
0.00158288 0.000664011 -8.39346e-06
0.000664011 0.000344659 5.93417e-06
-8.39346e-06 5.93417e-06 -0.000101681
0.000894838 0.000658736 -4.01729e-06
0.000658736 2.66527e-05 -6.57008e-06
-4.01729e-06 -6.57008e-06 -0.000457043
0.00152956 0.000532057 -3.74954e-06
0.000532057 0.000465108 -1.98499e-06
-3.74954e-06 -1.98499e-06 6.89391e-05
0.000641288 0.000284145 -1.27983e-05
0.000284145 1.62403e-05 -1.91339e-06
-1.27983e-05 -1.91339e-06 -0.000261233
0.000908106 0.000248309 -7.06033e-07
0.000248309 0.000168401 -6.28531e-06
-7.06033e-07 -6.28531e-06 -9.10947e-05
0.000570584 0.000240516 2.79685e-06
0.000240516 1.59981e-06 -6.91903e-07
2.79685e-06 -6.91903e-07 -0.000235179
0.000370628 0.000199137 -3.16448e-05
0.000199137 -0.000133579 -2.01832e-05
-3.16448e-05 -2.01832e-05 -0.000245474
0.000762004 0.000177306 1.98813e-06
0.000177306 0.000209064 8.39916e-06
1.98813e-06 8.39916e-06 -3.93115e-05
0.000585899 0.000140984 -9.98575e-07
0.000140984 4.91559e-05 -5.30947e-07
-9.98575e-07 -5.30947e-07 -5.28818e-05
0.00568877 -0.000171601 -0.000178913
-0.000171601 0.003443 -2.21771e-05
-0.000178913 -2.21771e-05 0.00341894
0.000236768 0.000103082 1.68609e-05
0.000103082 -0.000133885 1.98608e-05
1.68609e-05 1.98608e-05 -0.000216354
0.00428947 -0.000166796 -1.41617e-05
-0.000166796 0.00252662 1.65884e-06
-1.41617e-05 1.65884e-06 0.00250783
0.00356076 -0.000151255 5.9413e-05
-0.000151255 0.00203566 8.47929e-06
5.9413e-05 8.47929e-06 0.00202291
0.00100628 0.00036492 1.02552e-05
0.00036492 -0.00217906 1.302e-05
1.02552e-05 1.302e-05 -0.00100243
0.0050307 0.000305311 7.35033e-05
0.000305311 -0.00156253 3.19052e-05
7.35033e-05 3.19052e-05 0.000614971
0.0168238 0.00086851 3.14137e-05
0.00086851 0.00122403 8.59766e-05
3.14137e-05 8.59766e-05 0.00197266
0.00228716 0.000962825 3.48919e-06
0.000962825 0.000412773 7.21217e-06
3.48919e-06 7.21217e-06 -1.45526e-05
0.00233345 0.000874663 1.38399e-06
0.000874663 0.000292072 6.43228e-06
1.38399e-06 6.43228e-06 -6.96228e-05
0.00177272 0.000831914 -6.74608e-07
0.000831914 0.000164679 -4.63392e-06
-6.74608e-07 -4.63392e-06 -0.000258118
0.00342244 0.0012423 -1.821e-05
0.0012423 0.00157591 -2.1609e-06
-1.821e-05 -2.1609e-06 0.000978859
0.00223453 0.000980537 -1.19258e-05
0.000980537 0.000720015 -1.30187e-05
-1.19258e-05 -1.30187e-05 0.000158737
0.00226018 0.00111208 6.97325e-06
0.00111208 0.000576035 3.20576e-06
6.97325e-06 3.20576e-06 7.68147e-05
0.00246542 0.0010848 -4.23809e-06
0.0010848 0.000263771 -4.54041e-07
-4.23809e-06 -4.54041e-07 -0.000117557
0.00207392 0.00122769 -1.30946e-05
0.00122769 0.000435355 -2.50462e-06
-1.30946e-05 -2.50462e-06 -2.2566e-05
0.000691968 0.00104528 -3.14419e-05
0.00104528 -0.000468627 8.1507e-05
-3.14419e-05 8.1507e-05 -0.000556585
0.00295756 0.00124963 5.19527e-07
0.00124963 0.000760649 -2.90395e-06
5.19527e-07 -2.90395e-06 0.000265561
0.00304258 0.00105615 -3.1807e-06
0.00105615 0.000458046 1.16806e-05
-3.1807e-06 1.16806e-05 0.000219689
0.00186325 0.000502064 5.82809e-05
0.000502064 -8.30381e-05 1.18517e-05
5.82809e-05 1.18517e-05 7.69582e-05
0.000393365 0.000799174 7.01368e-06
0.000799174 -0.000609751 -9.05653e-06
7.01368e-06 -9.05653e-06 -0.000795317
0.000706703 0.00108027 -4.32348e-05
0.00108027 -0.000340926 -7.1794e-06
-4.32348e-05 -7.1794e-06 -0.000694605
0.00385193 0.00138054 2.52147e-05
0.00138054 -0.000476899 1.28022e-05
2.52147e-05 1.28022e-05 0.000281847
0.00944139 0.00278784 -7.46635e-05
0.00278784 -0.000688796 -5.37585e-05
-7.46635e-05 -5.37585e-05 0.00143057
0.00547966 0.00211795 -7.39915e-05
0.00211795 0.00127334 -8.60877e-05
-7.39915e-05 -8.60877e-05 0.00130118
0.00311465 -6.96134e-05 6.51846e-05
-6.96134e-05 0.000247741 8.21667e-06
6.51846e-05 8.21667e-06 0.000538458
0.00347338 -0.000259925 -9.24922e-05
-0.000259925 -0.000779627 8.23227e-06
-9.24922e-05 8.23227e-06 5.32355e-05
0.00545215 0.000533183 -5.26248e-07
0.000533183 -0.000129608 -1.82891e-05
-5.26248e-07 -1.82891e-05 0.00120828
0.000677935 -0.000840967 -9.11691e-05
-0.000840967 -0.00213542 6.78334e-05
-9.11691e-05 6.78334e-05 -0.00127047
0.00297109 -0.000727359 -0.000107271
-0.000727359 -0.000793242 6.99555e-06
-0.000107271 6.99555e-06 -0.000264709
0.00318692 -0.00047905 9.02519e-07
-0.00047905 -4.32874e-05 -4.26508e-06
9.02519e-07 -4.26508e-06 0.000462656
0.00239294 -0.000106666 -1.41744e-05
-0.000106666 -0.000155204 -9.85011e-07
-1.41744e-05 -9.85011e-07 2.9473e-05
0.00259806 -0.000300126 9.50649e-06
-0.000300126 -0.000250175 4.06286e-07
9.50649e-06 4.06286e-07 1.55971e-05
0.00234437 6.90163e-05 4.17192e-06
6.90163e-05 -0.00039197 7.30395e-08
4.17192e-06 7.30395e-08 -0.000215006
0.00260612 -0.000710854 -2.11813e-05
-0.000710854 -0.000284299 5.38405e-06
-2.11813e-05 5.38405e-06 -1.30207e-05
0.00269313 -0.000545134 -2.80633e-06
-0.000545134 -0.000230315 7.17147e-07
-2.80633e-06 7.17147e-07 -1.35968e-06
0.00255935 -0.000369838 -7.73615e-07
-0.000369838 -0.000165113 -1.93932e-07
-7.73615e-07 -1.93932e-07 1.20691e-06
0.00267285 -0.000648008 -3.90396e-06
-0.000648008 4.43757e-05 7.1414e-07
-3.90396e-06 7.1414e-07 9.45309e-05
0.00251457 -0.000508538 2.87105e-07
-0.000508538 -6.33697e-05 -2.08405e-07
2.87105e-07 -2.08405e-07 -7.01002e-06
0.00238375 -0.000414155 5.45004e-07
-0.000414155 -3.96537e-05 -1.74817e-07
5.45004e-07 -1.74817e-07 -7.97909e-06
0.00245675 -0.000618214 -1.31064e-06
-0.000618214 3.6791e-05 8.68011e-08
-1.31064e-06 8.68011e-08 6.5938e-06
0.00236439 -0.000510289 3.77451e-07
-0.000510289 4.60458e-05 -4.96788e-08
3.77451e-07 -4.96788e-08 -1.97906e-06
0.00227302 -0.000455229 -1.5658e-06
-0.000455229 7.76284e-05 5.47765e-07
-1.5658e-06 5.47765e-07 5.85963e-06
0.00235719 -0.000609575 1.56008e-06
-0.000609575 0.000111996 -6.90622e-07
1.56008e-06 -6.90622e-07 6.93069e-06
0.00225218 -0.000543553 6.94751e-07
-0.000543553 0.000130939 -3.19201e-07
6.94751e-07 -3.19201e-07 -4.38697e-06
0.00224762 -0.00051448 -2.33742e-06
-0.00051448 0.000195366 -2.48858e-07
-2.33742e-06 -2.48858e-07 1.84517e-05
0.00219214 -0.000590957 6.02205e-09
-0.000590957 0.000169494 2.23323e-07
6.02205e-09 2.23323e-07 -2.41172e-05
0.00226093 -0.000579065 -4.8326e-08
-0.000579065 0.00025266 -1.86507e-07
-4.8326e-08 -1.86507e-07 3.32289e-05
0.00209982 -0.000515214 -3.60618e-06
-0.000515214 0.000235705 -9.35321e-07
-3.60618e-06 -9.35321e-07 -1.60804e-05
0.00223849 -0.000612202 9.57531e-07
-0.000612202 0.000284252 3.13244e-06
9.57531e-07 3.13244e-06 2.84341e-05
0.00215195 -0.000557172 -7.07786e-07
-0.000557172 0.000328201 -5.77877e-08
-7.07786e-07 -5.77877e-08 4.23285e-05
0.00134025 -0.000363287 -1.56779e-05
-0.000363287 3.69952e-05 6.65264e-06
-1.56779e-05 6.65264e-06 -0.000220183
0.000315429 -0.000240562 -1.9297e-05
-0.000240562 -0.000248164 2.02528e-05
-1.9297e-05 2.02528e-05 -0.000415677
0.00133274 -0.0004182 9.37626e-08
-0.0004182 6.5152e-05 1.03833e-07
9.37626e-08 1.03833e-07 -0.000227776
0.00196927 -0.000606835 4.29006e-06
-0.000606835 0.00025549 5.88193e-07
4.29006e-06 5.88193e-07 -9.04879e-05
0.00833835 -0.000125992 -0.000385612
-0.000125992 0.00500158 3.49539e-05
-0.000385612 3.49539e-05 0.00502526
0.000316061 -0.000264637 -1.33277e-06
-0.000264637 -0.000228358 1.14837e-06
-1.33277e-06 1.14837e-06 -0.000402894
0.00106135 -0.000430271 2.04122e-05
-0.000430271 -1.9538e-06 -6.72447e-06
2.04122e-05 -6.72447e-06 -0.000324525
0.00832268 -7.19239e-05 7.53879e-07
-7.19239e-05 0.00501225 1.43243e-06
7.53879e-07 1.43243e-06 0.00502904
0.000299194 -0.000293817 2.64628e-05
-0.000293817 -0.000211313 -2.40431e-05
2.64628e-05 -2.40431e-05 -0.000392853
0.00807629 -4.43372e-05 0.000349963
-4.43372e-05 0.00487972 -3.65654e-05
0.000349963 -3.65654e-05 0.00489139
0.00205462 0.000796989 1.43982e-06
0.000796989 0.000236623 1.03055e-05
1.43982e-06 1.03055e-05 -0.000143891
0.00191173 0.000787797 1.07703e-06
0.000787797 0.000320034 1.4794e-07
1.07703e-06 1.4794e-07 -0.000115515
0.00204587 0.000720789 -5.93114e-06
0.000720789 0.00047571 6.91507e-06
-5.93114e-06 6.91507e-06 4.74508e-05
0.00186491 0.000840327 5.90484e-06
0.000840327 0.000477128 -7.87666e-06
5.90484e-06 -7.87666e-06 -3.98981e-05
0.0016318 0.000668088 -4.65401e-07
0.000668088 0.000376108 1.03399e-06
-4.65401e-07 1.03399e-06 -7.26327e-05
0.000847384 0.000340879 -1.97912e-05
0.000340879 9.84942e-06 -2.84663e-06
-1.97912e-05 -2.84663e-06 -0.000279351
0.00180967 0.000524936 4.51777e-07
0.000524936 0.000603389 -3.19245e-06
4.51777e-07 -3.19245e-06 0.000216101
0.000571286 0.000246713 1.08492e-06
0.000246713 -4.05049e-05 1.25571e-07
1.08492e-06 1.25571e-07 -0.000302132
0.000503748 0.000256499 -3.21739e-05
0.000256499 -6.22832e-05 -2.40412e-05
-3.21739e-05 -2.40412e-05 -0.000199711
0.000941972 0.000174294 2.76402e-06
0.000174294 0.000247314 3.58521e-06
2.76402e-06 3.58521e-06 5.96545e-06
0.000433381 0.000185383 2.2767e-06
0.000185383 -9.04604e-05 -1.07164e-06
2.2767e-06 -1.07164e-06 -0.000201384
0.00659961 -0.000179844 -0.000216847
-0.000179844 0.00403278 -2.83594e-05
-0.000216847 -2.83594e-05 0.00400088
0.000318513 0.000137047 2.27466e-05
0.000137047 -0.000113018 2.13453e-05
2.27466e-05 2.13453e-05 -0.000212732
0.00520724 -0.000196424 -1.26094e-05
-0.000196424 0.00313534 1.00332e-06
-1.26094e-05 1.00332e-06 0.00310544
0.00418883 -0.000188314 8.40213e-05
-0.000188314 0.00246465 1.18322e-05
8.40213e-05 1.18322e-05 0.00244057
0.00174908 0.000296111 4.67175e-05
0.000296111 -0.000410655 1.821e-05
4.67175e-05 1.821e-05 -3.00642e-05
0.0022348 0.00043499 -1.84155e-05
0.00043499 -0.0018692 -5.09866e-06
-1.84155e-05 -5.09866e-06 -0.000633649
0.00514842 0.000768735 0.000271404
0.000768735 -0.00176381 9.39826e-05
0.000271404 9.39826e-05 0.000772974
0.0026952 0.00093168 -8.936e-06
0.00093168 0.00043956 5.08442e-07
-8.936e-06 5.08442e-07 9.93202e-05
0.0021932 0.000974913 -8.60473e-06
0.000974913 0.00033847 -5.29255e-06
-8.60473e-06 -5.29255e-06 -8.73186e-05
0.00240009 0.000703464 3.0156e-06
0.000703464 0.000216546 5.05706e-06
3.0156e-06 5.05706e-06 -2.56767e-05
0.00242714 0.000873276 1.462e-06
0.000873276 0.000354077 4.64916e-07
1.462e-06 4.64916e-07 -3.02549e-06
0.00176489 0.000832284 -2.02025e-06
0.000832284 0.00016921 -1.52348e-05
-2.02025e-06 -1.52348e-05 -0.000249236
0.00270512 0.000836325 -6.27381e-06
0.000836325 0.000186116 1.11679e-06
-6.27381e-06 1.11679e-06 -2.7751e-06
0.00269254 0.00120186 -1.03637e-05
0.00120186 0.000781581 -8.2605e-06
-1.03637e-05 -8.2605e-06 0.000265242
0.00274517 0.00107916 -8.74505e-07
0.00107916 0.000452436 -6.88535e-07
-8.74505e-07 -6.88535e-07 6.93024e-05
0.00228243 0.000517694 -1.72655e-05
0.000517694 -0.000262895 7.01711e-07
-1.72655e-05 7.01711e-07 -0.000165322
0.0031135 0.00130952 -1.12237e-05
0.00130952 0.000788328 1.59315e-05
-1.12237e-05 1.59315e-05 0.000328097
0.00267976 0.00101623 5.81442e-07
0.00101623 0.000256828 -1.83676e-06
5.81442e-07 -1.83676e-06 2.0029e-05
0.000564482 0.000476732 -1.17209e-05
0.000476732 -0.000899127 1.15413e-06
-1.17209e-05 1.15413e-06 -0.000663742
-0.00221584 0.00053858 -2.80518e-05
0.00053858 -0.00198802 -1.44484e-05
-2.80518e-05 -1.44484e-05 -0.00211771
0.00417076 0.00148184 -0.00016076
0.00148184 -0.000301331 -5.91669e-05
-0.00016076 -5.91669e-05 0.000338277
0.00261839 0.000177306 5.81906e-07
0.000177306 -0.000169719 -2.24022e-06
5.81906e-07 -2.24022e-06 1.76502e-05
0.00303713 -4.73091e-05 -1.63029e-06
-4.73091e-05 0.000280298 4.10195e-07
-1.63029e-06 4.10195e-07 0.000487429
0.00325182 -0.000320924 -0.000123429
-0.000320924 -0.000965014 -5.11111e-06
-0.000123429 -5.11111e-06 3.93178e-05
0.001391 -0.000405813 -8.58223e-05
-0.000405813 -0.00117193 1.58424e-05
-8.58223e-05 1.58424e-05 -0.000515804
0.00211925 -0.000113957 -1.6636e-05
-0.000113957 -0.000331639 -2.23433e-07
-1.6636e-05 -2.23433e-07 -0.000122932
0.00253066 -0.000306629 4.13981e-06
-0.000306629 -0.000310042 -7.18826e-07
4.13981e-06 -7.18826e-07 -7.37156e-06
0.00265719 8.09778e-05 -3.27308e-06
8.09778e-05 -0.00018908 -5.77098e-07
-3.27308e-06 -5.77098e-07 -2.49774e-05
0.00259096 -6.68324e-05 -2.43402e-06
-6.68324e-05 -0.000174171 -6.13675e-07
-2.43402e-06 -6.13675e-07 1.8538e-05
0.00272314 -0.000566784 -3.56426e-06
-0.000566784 -0.000213592 3.05632e-07
-3.56426e-06 3.05632e-07 -2.47672e-05
0.00250468 -0.000355066 3.19702e-07
-0.000355066 -0.000179118 -3.5017e-07
3.19702e-07 -3.5017e-07 -2.37793e-05
0.00242107 -0.000267205 9.61542e-07
-0.000267205 -7.28764e-05 -7.45824e-08
9.61542e-07 -7.45824e-08 3.26183e-05
0.0025343 -0.000510335 -1.88488e-07
-0.000510335 -3.7852e-05 5.61807e-07
-1.88488e-07 5.61807e-07 1.113e-05
0.00238857 -0.000412328 2.22151e-07
-0.000412328 -3.30441e-05 6.30222e-08
2.22151e-07 6.30222e-08 -4.22271e-06
0.00226312 -0.000348775 -1.11326e-06
-0.000348775 1.99458e-05 2.65786e-07
-1.11326e-06 2.65786e-07 4.94648e-06
0.00237706 -0.000509239 7.78024e-07
-0.000509239 4.8701e-05 5.56536e-08
7.78024e-07 5.56536e-08 8.19937e-07
0.00226993 -0.000456239 3.71135e-07
-0.000456239 7.20988e-05 3.92873e-08
3.71135e-07 3.92873e-08 2.20416e-07
0.00229292 -0.000431807 -3.84365e-06
-0.000431807 0.000162933 1.04697e-06
-3.84365e-06 1.04697e-06 4.19491e-05
0.00223906 -0.000543493 2.1313e-06
-0.000543493 0.000116834 -1.02862e-06
2.1313e-06 -1.02862e-06 -1.86233e-05
0.00220045 -0.000510026 1.54572e-07
-0.000510026 0.000164099 -5.73866e-07
1.54572e-07 -5.73866e-07 -1.23508e-05
0.00209305 -0.000453908 -2.40069e-06
-0.000453908 0.000172767 -9.26083e-07
-2.40069e-06 -9.26083e-07 -3.5981e-05
0.00216299 -0.000573907 1.11243e-06
-0.000573907 0.000187941 8.47987e-07
1.11243e-06 8.47987e-07 -3.14569e-05
0.00211884 -0.000515911 -7.0359e-07
-0.000515911 0.00025217 1.04109e-07
-7.0359e-07 1.04109e-07 4.62825e-07
0.00131355 -0.000317296 -1.21901e-05
-0.000317296 -3.30793e-06 5.46642e-06
-1.21901e-05 5.46642e-06 -0.00023295
0.00215847 -0.000560197 3.42592e-06
-0.000560197 0.000332372 1.30695e-06
3.42592e-06 1.30695e-06 4.79086e-05
0.00136174 -0.000365085 8.71037e-08
-0.000365085 4.55823e-05 1.77537e-07
8.71037e-08 1.77537e-07 -0.00021086
0.00292662 -0.000242653 -5.75047e-05
-0.000242653 0.00140904 1.48501e-05
-5.75047e-05 1.48501e-05 0.00127782
0.00269293 -0.000136642 -0.000303462
-0.000136642 0.00137729 4.61437e-05
-0.000303462 4.61437e-05 0.00135954
0.0016772 -0.000261298 -1.71236e-05
-0.000261298 0.000622402 2.78897e-07
-1.71236e-05 2.78897e-07 0.000466307
0.00136262 -0.000417983 1.84089e-05
-0.000417983 8.91357e-05 -6.9239e-06
1.84089e-05 -6.9239e-06 -0.000202442
0.00819477 -0.000129197 -1.08931e-05
-0.000129197 0.00492072 2.66312e-06
-1.08931e-05 2.66312e-06 0.00493777
0.000161024 -0.000285037 2.3504e-05
-0.000285037 -0.000326082 -2.19469e-05
2.3504e-05 -2.19469e-05 -0.000505313
0.00839626 -8.20307e-05 0.000360456
-8.20307e-05 0.00506518 -3.91842e-05
0.000360456 -3.91842e-05 0.00507651
0.00225927 0.000545755 5.10343e-07
0.000545755 0.000139848 1.61145e-06
5.10343e-07 1.61145e-06 -3.2669e-05
0.00225273 0.000707083 3.66698e-06
0.000707083 0.000275923 7.77198e-06
3.66698e-06 7.77198e-06 -2.02753e-05
0.00231137 0.00081555 5.67908e-07
0.00081555 0.000397396 5.73756e-08
5.67908e-07 5.73756e-08 1.85959e-05
0.00211846 0.000698558 -3.64279e-06
0.000698558 0.000405721 6.72354e-06
-3.64279e-06 6.72354e-06 2.39856e-05
0.00199338 0.000807649 6.42675e-06
0.000807649 0.000370639 -9.08442e-06
6.42675e-06 -9.08442e-06 -6.74597e-05
0.00189561 0.000707372 3.75112e-07
0.000707372 0.00037231 7.33095e-07
3.75112e-07 7.33095e-07 -5.4651e-05
0.000907685 0.000404323 -3.09322e-05
0.000404323 -4.55768e-05 -4.42103e-06
-3.09322e-05 -4.42103e-06 -0.000355553
0.00161712 0.000668567 8.99049e-06
0.000668567 0.000359354 -4.72435e-06
8.99049e-06 -4.72435e-06 -9.12619e-05
0.000749586 0.000337916 -1.57087e-06
0.000337916 -3.59871e-05 -3.94615e-08
-1.57087e-06 -3.94615e-08 -0.000322727
0.000387449 0.000312414 -3.14964e-05
0.000312414 -0.000146754 -2.31953e-05
-3.14964e-05 -2.31953e-05 -0.000317712
0.000510074 0.000222469 1.00657e-05
0.000222469 -8.07502e-05 -1.91614e-06
1.00657e-05 -1.91614e-06 -0.000330453
0.000387562 0.000228921 5.19752e-06
0.000228921 -0.000135879 -1.71388e-06
5.19752e-06 -1.71388e-06 -0.000271493
0.00788638 -5.82606e-05 -0.000308889
-5.82606e-05 0.00479421 -3.41258e-05
-0.000308889 -3.41258e-05 0.00478777
0.000560731 0.000164047 2.84926e-05
0.000164047 -1.66456e-06 2.05043e-05
2.84926e-05 2.05043e-05 -0.000111254
0.00635121 -0.000169708 7.10829e-06
-0.000169708 0.00385363 -2.95804e-06
7.10829e-06 -2.95804e-06 0.00383102
0.00482537 -0.00022697 0.000107568
-0.00022697 0.00290384 1.66352e-05
0.000107568 1.66352e-05 0.00286396
0.00252589 0.000244386 -6.91944e-06
0.000244386 -0.000266351 1.93106e-07
-6.91944e-06 1.93106e-07 -3.2281e-05
0.00173368 0.000239379 1.24208e-05
0.000239379 -0.000678908 -3.01537e-06
1.24208e-05 -3.01537e-06 -0.00018144
0.00406354 0.000550608 -0.000147603
0.000550608 -0.00120277 -8.90942e-06
-0.000147603 -8.90942e-06 8.96081e-05
0.00248189 0.000655823 -3.02327e-06
0.000655823 0.000162772 1.26204e-06
-3.02327e-06 1.26204e-06 5.55644e-06
0.00254787 0.000904968 -4.08142e-06
0.000904968 0.000391317 -5.71155e-07
-4.08142e-06 -5.71155e-07 5.92747e-05
0.0021275 0.000987157 -5.14353e-06
0.000987157 0.000281686 -1.04343e-05
-5.14353e-06 -1.04343e-05 -0.000141499
0.00241585 0.000689346 1.82846e-06
0.000689346 0.00024435 1.47343e-06
1.82846e-06 1.47343e-06 4.39003e-06
0.00248267 0.000868968 -1.51734e-06
0.000868968 0.000391415 -7.56639e-06
-1.51734e-06 -7.56639e-06 3.88059e-05
0.00267938 0.000519369 1.56122e-06
0.000519369 -2.58481e-05 3.29083e-07
1.56122e-06 3.29083e-07 3.75909e-05
0.00262671 0.000831761 -1.3785e-06
0.000831761 0.000156207 8.17767e-08
-1.3785e-06 8.17767e-08 -2.91387e-05
0.00288439 0.00106244 -1.09717e-06
0.00106244 0.000555339 -3.99531e-06
-1.09717e-06 -3.99531e-06 0.000172811
0.00222026 0.000489054 1.17278e-07
0.000489054 -0.000251451 9.69973e-08
1.17278e-07 9.69973e-08 -0.000147747
0.00251335 0.000983227 1.47843e-05
0.000983227 0.000161089 -2.1131e-06
1.47843e-05 -2.1131e-06 -7.59725e-05
-0.00034952 0.000433106 -4.50875e-05
0.000433106 -0.00149076 -1.41146e-05
-4.50875e-05 -1.41146e-05 -0.00117454
0.00252707 0.000105818 -6.0623e-07
0.000105818 -0.000119988 -5.84935e-07
-6.0623e-07 -5.84935e-07 3.3263e-05
0.00251459 0.000174375 -6.17908e-07
0.000174375 -0.000245333 1.06066e-06
-6.17908e-07 1.06066e-06 -5.33247e-05
0.00297967 -2.98557e-05 -6.14498e-05
-2.98557e-05 0.000299257 -6.11065e-06
-6.14498e-05 -6.11065e-06 0.000438604
0.00240816 -0.000311174 -2.25921e-05
-0.000311174 -0.0004139 1.68848e-06
-2.25921e-05 1.68848e-06 -7.16724e-05
0.00291928 9.83183e-05 3.45073e-06
9.83183e-05 -2.48516e-05 3.07378e-06
3.45073e-06 3.07378e-06 0.000126878
0.00259183 -7.58471e-05 -8.67789e-07
-7.58471e-05 -0.000186194 -7.06974e-07
-8.67789e-07 -7.06974e-07 1.01689e-05
0.00227795 -7.71916e-05 4.66499e-07
-7.71916e-05 -9.46343e-05 1.31177e-07
4.66499e-07 1.31177e-07 -3.09e-06
0.00244686 -0.000339457 1.01485e-06
-0.000339457 -0.000195195 -5.17038e-07
1.01485e-06 -5.17038e-07 -4.98594e-05
0.00237618 -0.000274679 -2.26045e-08
-0.000274679 -9.66017e-05 -1.89476e-08
-2.26045e-08 -1.89476e-08 8.60403e-07
0.00219183 -0.000229253 2.53123e-07
-0.000229253 -3.84763e-05 -1.91934e-07
2.53123e-07 -1.91934e-07 -1.89004e-05
0.00239227 -0.000410478 -6.39705e-07
-0.000410478 -2.75754e-05 5.88973e-07
-6.39705e-07 5.88973e-07 -1.37581e-06
0.0022641 -0.000348526 6.95917e-08
-0.000348526 1.69837e-05 9.85347e-08
6.95917e-08 9.85347e-08 1.93684e-06
0.00228472 -0.000337839 -5.14578e-06
-0.000337839 9.79019e-05 9.54677e-07
-5.14578e-06 9.54677e-07 3.21954e-05
0.00226673 -0.000457312 2.21941e-06
-0.000457312 6.61584e-05 -4.93338e-07
2.21941e-06 -4.93338e-07 -5.83419e-06
0.00223855 -0.000427094 5.11562e-07
-0.000427094 0.00012824 -1.65483e-07
5.11562e-07 -1.65483e-07 7.88538e-06
0.00210806 -0.000371672 -1.76563e-06
-0.000371672 0.000141303 -8.64273e-07
-1.76563e-06 -8.64273e-07 -2.17036e-05
0.00215087 -0.000505404 2.4997e-06
-0.000505404 0.000131134 -7.94623e-07
2.4997e-06 -7.94623e-07 -4.48189e-05
0.00215736 -0.000458162 -7.10442e-07
-0.000458162 0.00021761 7.7955e-08
-7.10442e-07 7.7955e-08 8.28119e-06
0.00133508 -0.000273402 -9.33974e-06
-0.000273402 -1.1243e-05 4.11129e-06
-9.33974e-06 4.11129e-06 -0.000217159
0.00213838 -0.000516598 2.76816e-06
-0.000516598 0.000269146 7.90922e-07
2.76816e-06 7.90922e-07 1.7528e-05
0.00136264 -0.000321741 -1.26677e-07
-0.000321741 1.82782e-05 2.28675e-07
-1.26677e-07 2.28675e-07 -0.000211029
0.00291191 -0.000226251 -6.49531e-05
-0.000226251 0.00139718 1.43267e-05
-6.49531e-05 1.43267e-05 0.00127802
0.00138005 -0.000367352 1.44674e-05
-0.000367352 5.14948e-05 -6.25771e-06
1.44674e-05 -6.25771e-06 -0.000204425
0.00305511 -0.00027714 5.5452e-05
-0.00027714 0.00149455 -9.47693e-06
5.5452e-05 -9.47693e-06 0.0013733
0.00259317 -0.000163784 -0.000296409
-0.000163784 0.00132254 5.02186e-05
-0.000296409 5.02186e-05 0.00130184
0.00516872 -0.00017115 -0.00029114
-0.00017115 0.00298768 3.52582e-05
-0.00029114 3.52582e-05 0.00298605
0.00315119 -0.000340933 0.000184625
-0.000340933 0.00157696 -3.27124e-05
0.000184625 -3.27124e-05 0.00145172
0.00807661 -0.000142797 0.0003615
-0.000142797 0.0048546 -4.30806e-05
0.0003615 -4.30806e-05 0.00486818
0.0023289 0.000522815 -1.18487e-06
0.000522815 0.000127383 -1.52157e-07
-1.18487e-06 -1.52157e-07 1.40769e-05
0.00220845 0.000565694 -5.95804e-07
0.000565694 0.000217421 2.67006e-06
-5.95804e-07 2.67006e-06 -8.40689e-08
0.00225085 0.000536458 3.92392e-07
0.000536458 0.000141215 -5.29694e-07
3.92392e-07 -5.29694e-07 -2.07627e-05
0.00212843 0.00061738 -3.00713e-06
0.00061738 0.000309201 5.44106e-06
-3.00713e-06 5.44106e-06 -4.04197e-06
0.00238608 0.000721153 1.34069e-07
0.000721153 0.000347393 1.62656e-08
1.34069e-07 1.62656e-08 5.00975e-05
0.00262739 0.000840307 -1.17013e-06
0.000840307 0.000597674 -9.11129e-06
-1.17013e-06 -9.11129e-06 0.000219444
0.00203883 0.000693755 9.9815e-07
0.000693755 0.000350122 4.42508e-07
9.9815e-07 4.42508e-07 -3.18463e-05
0.00134133 0.000453501 -3.12035e-05
0.000453501 0.000118244 -5.87961e-06
-3.12035e-05 -5.87961e-06 -0.000189423
0.00181979 0.000701429 8.4297e-06
0.000701429 0.000318222 -5.50315e-06
8.4297e-06 -5.50315e-06 -0.000109175
0.00108307 0.000420092 -3.47731e-06
0.000420092 5.04299e-05 -2.88448e-08
-3.47731e-06 -2.88448e-08 -0.000260757
0.000162614 0.000289307 -2.80697e-05
0.000289307 -0.000310033 -2.08478e-05
-2.80697e-05 -2.08478e-05 -0.000488764
0.000924548 0.00034062 2.05581e-05
0.00034062 8.69341e-05 4.46659e-06
2.05581e-05 4.46659e-06 -0.000196279
0.000240578 0.000261576 1.59601e-06
0.000261576 -0.000243211 1.94692e-06
1.59601e-06 1.94692e-06 -0.000406851
0.00850206 3.82005e-05 -0.000347
3.82005e-05 0.00514981 -3.97525e-05
-0.000347 -3.97525e-05 0.00515094
-3.64026e-06 0.000189816 2.7117e-05
0.000189816 -0.000388411 2.24273e-05
2.7117e-05 2.24273e-05 -0.000516432
0.00733469 -0.000101854 6.6299e-06
-0.000101854 0.00444252 -2.56942e-06
6.6299e-06 -2.56942e-06 0.0044337
0.00585901 -0.000196404 0.00016285
-0.000196404 0.00354125 1.57591e-05
0.00016285 1.57591e-05 0.00351365
0.00256688 0.000296353 1.22916e-06
0.000296353 -0.000101614 7.90852e-09
1.22916e-06 7.90852e-09 3.26759e-05
0.0024031 0.000246459 2.25421e-06
0.000246459 -0.000279818 -8.86831e-07
2.25421e-06 -8.86831e-07 -4.75402e-05
0.00142103 0.000185317 -6.86886e-05
0.000185317 -0.00110614 -7.62924e-06
-6.86886e-05 -7.62924e-06 -0.000486594
0.00241147 0.000459966 2.53068e-06
0.000459966 -7.80308e-06 7.76384e-07
2.53068e-06 7.76384e-07 -1.07703e-05
0.00241513 0.000648336 -8.12778e-07
0.000648336 0.000137183 9.46173e-08
-8.12778e-07 9.46173e-08 -1.75296e-05
0.00235947 0.000873702 6.61487e-06
0.000873702 0.000318149 -3.24919e-06
6.61487e-06 -3.24919e-06 -4.5001e-06
0.00246786 0.000678825 -1.21972e-06
0.000678825 0.00029498 -3.47738e-06
-1.21972e-06 -3.47738e-06 5.72992e-05
0.00262895 0.000501418 -1.86486e-06
0.000501418 -4.00705e-05 -7.85382e-08
-1.86486e-06 -7.85382e-08 2.34936e-05
0.00251773 0.000823041 1.51542e-06
0.000823041 0.000113491 -7.22718e-07
1.51542e-06 -7.22718e-07 -6.74801e-05
0.00210564 0.000467658 1.52113e-05
0.000467658 -0.000225788 -1.9943e-06
1.52113e-05 -1.9943e-06 -0.000121567
0.00232985 7.99225e-05 1.69717e-06
7.99225e-05 -6.93995e-05 7.47691e-08
1.69717e-06 7.47691e-08 1.27356e-05
0.00246228 0.00010372 3.00293e-07
0.00010372 -0.000148165 1.1496e-07
3.00293e-07 1.1496e-07 1.20965e-06
0.0024154 0.00017618 -8.57477e-06
0.00017618 -0.000312725 -4.56169e-07
-8.57477e-06 -4.56169e-07 -0.000117416
0.00217872 -1.42461e-05 -6.76303e-07
-1.42461e-05 -5.69915e-05 1.53001e-07
-6.76303e-07 1.53001e-07 -5.3999e-06
0.00260483 -9.0165e-05 3.47653e-06
-9.0165e-05 -0.000189785 -6.23203e-09
3.47653e-06 -6.23203e-09 1.0653e-05
0.00228747 -8.11625e-05 -4.3874e-07
-8.11625e-05 -8.99607e-05 3.23765e-07
-4.3874e-07 3.23765e-07 8.91951e-07
0.00213631 -0.000121086 -8.40002e-07
-0.000121086 -5.71969e-05 2.74744e-07
-8.40002e-07 2.74744e-07 -2.87469e-05
0.00233148 -0.000282137 -7.44903e-07
-0.000282137 -0.00011952 2.25994e-07
-7.44903e-07 2.25994e-07 -3.07236e-05
0.00220466 -0.000226089 8.15632e-07
-0.000226089 -3.03782e-05 -4.00861e-07
8.15632e-07 -4.00861e-07 -1.01063e-05
0.00225431 -0.000234975 -3.96607e-06
-0.000234975 6.16079e-05 3.39824e-07
-3.96607e-06 3.39824e-07 2.79007e-05
0.00226861 -0.000347972 1.43864e-06
-0.000347972 1.63463e-05 -2.35691e-07
1.43864e-06 -2.35691e-07 1.28977e-06
0.00228935 -0.000336103 3.39698e-07
-0.000336103 0.000105065 -2.79138e-08
3.39698e-07 -2.79138e-08 3.9297e-05
0.00214978 -0.000292544 -1.54212e-06
-0.000292544 0.000143071 -5.16234e-07
-1.54212e-06 -5.16234e-07 1.96525e-05
0.00218325 -0.000422113 4.04778e-06
-0.000422113 9.3539e-05 -1.15951e-06
4.04778e-06 -1.15951e-06 -2.61088e-05
0.00214301 -0.000374904 -6.81416e-07
-0.000374904 0.000158808 5.81778e-08
-6.81416e-07 5.81778e-08 -4.69242e-06
0.00132141 -0.000224492 -6.68163e-06
-0.000224492 -2.77848e-05 2.77452e-06
-6.68163e-06 2.77452e-06 -0.000211918
0.0022236 -0.000462365 2.3364e-06
-0.000462365 0.000264299 5.62183e-07
2.3364e-06 5.62183e-07 5.44215e-05
0.00136812 -0.000275432 -2.79246e-07
-0.000275432 -1.04401e-06 2.70771e-07
-2.79246e-07 2.70771e-07 -0.000206021
0.00281571 -0.000204808 -7.05599e-05
-0.000204808 0.00134218 1.34172e-05
-7.05599e-05 1.34172e-05 0.00123174
0.00140588 -0.000326079 1.11713e-05
-0.000326079 3.57689e-05 -5.117e-06
1.11713e-05 -5.117e-06 -0.000193175
0.00299024 -0.000243858 5.09167e-05
-0.000243858 0.00144786 -7.36273e-06
5.09167e-05 -7.36273e-06 0.00133925
0.00258568 -0.000138624 -0.000289288
-0.000138624 0.00130905 4.35224e-05
-0.000289288 4.35224e-05 0.00129123
0.00316495 -0.00028149 0.000174267
-0.00028149 0.00155989 -3.26829e-05
0.000174267 -3.26829e-05 0.00145221
0.00218626 -9.98302e-05 -0.000115699
-9.98302e-05 0.00106095 1.8379e-05
-0.000115699 1.8379e-05 0.00102442
0.00744976 -7.99163e-05 0.000125561
-7.99163e-05 0.00443568 -8.38775e-06
0.000125561 -8.38775e-06 0.00441589
0.00231811 0.000442866 -8.05156e-08
0.000442866 8.1414e-05 4.78725e-07
-8.05156e-08 4.78725e-07 1.83952e-05
0.00219638 0.000495109 -3.60065e-06
0.000495109 0.000119152 -5.01113e-07
-3.60065e-06 -5.01113e-07 -3.78259e-05
0.00235723 0.000523838 -3.00068e-06
0.000523838 0.000144042 -2.31181e-08
-3.00068e-06 -2.31181e-08 2.75406e-05
0.00209953 0.000523994 -2.7232e-06
0.000523994 0.000218637 2.08801e-06
-2.7232e-06 2.08801e-06 -3.74458e-05
0.00215602 0.000572692 -1.26094e-06
0.000572692 0.000160524 -2.41677e-06
-1.26094e-06 -2.41677e-06 -5.11388e-05
0.00224692 0.00052631 -3.56365e-06
0.00052631 0.000146278 -3.29408e-06
-3.56365e-06 -3.29408e-06 -5.04584e-06
0.00143613 0.000408918 -2.40464e-05
0.000408918 7.03326e-05 -5.47434e-06
-2.40464e-05 -5.47434e-06 -0.000198397
0.00207194 0.000612927 1.4286e-06
0.000612927 0.000270574 3.42442e-07
1.4286e-06 3.42442e-07 -4.21553e-05
0.0024607 0.000729472 2.46534e-06
0.000729472 0.000380831 -7.34287e-06
2.46534e-06 -7.34287e-06 8.33143e-05
0.00192207 0.000685834 4.93861e-06
0.000685834 0.000269736 -5.93719e-06
4.93861e-06 -5.93719e-06 -0.000111972
0.00129558 0.000452199 -9.91859e-07
0.000452199 8.40072e-05 -1.10747e-08
-9.91859e-07 -1.10747e-08 -0.000224685
0.000288042 0.000282257 -2.51133e-05
0.000282257 -0.000249957 -1.93503e-05
-2.51133e-05 -1.93503e-05 -0.000424197
0.00121293 0.000429203 3.22236e-05
0.000429203 0.000121826 7.47644e-06
3.22236e-05 7.47644e-06 -0.000188326
0.000158361 0.000278904 1.02588e-06
0.000278904 -0.000304279 1.44402e-06
1.02588e-06 1.44402e-06 -0.00048196
0.00817763 0.000128178 -0.000347752
0.000128178 0.00493245 -4.57702e-05
-0.000347752 -4.57702e-05 0.00493375
0.000141158 0.000222751 2.32971e-05
0.000222751 -0.000306829 2.38294e-05
2.32971e-05 2.38294e-05 -0.000465991
0.0082272 -4.33813e-06 6.60255e-06
-4.33813e-06 0.0049704 4.14163e-07
6.60255e-06 4.14163e-07 0.00497493
0.00711157 -0.00013472 0.000233824
-0.00013472 0.00429885 1.64149e-05
0.000233824 1.64149e-05 0.00428983
0.00233221 0.000240528 9.72567e-07
0.000240528 -5.20639e-05 -4.27124e-07
9.72567e-07 -4.27124e-07 5.0691e-06
0.00252467 0.000302486 -8.59512e-07
0.000302486 -0.000145228 6.23944e-07
-8.59512e-07 6.23944e-07 -6.53996e-06
0.0023189 0.000243217 1.98013e-06
0.000243217 -0.000304749 -7.56878e-08
1.98013e-06 -7.56878e-08 -7.03637e-05
0.00240423 0.00045455 4.51081e-07
0.00045455 -1.14338e-05 4.74508e-07
4.51081e-07 4.74508e-07 -1.17923e-05
0.00236711 0.000642256 4.14259e-07
0.000642256 0.000125054 -1.49843e-06
4.14259e-07 -1.49843e-06 -2.74835e-05
0.00258436 0.000485241 2.1068e-06
0.000485241 -6.27637e-05 -2.65341e-07
2.1068e-06 -2.65341e-07 1.46071e-06
0.00222485 7.49973e-05 9.07692e-07
7.49973e-05 -3.65575e-05 1.98142e-08
9.07692e-07 1.98142e-08 6.62486e-06
0.00231836 7.86617e-05 3.056e-07
7.86617e-05 -7.28268e-05 -2.26753e-07
3.056e-07 -2.26753e-07 9.68057e-06
0.00240233 0.000101647 -1.05527e-08
0.000101647 -0.000173008 3.06437e-07
-1.05527e-08 3.06437e-07 -2.70933e-05
0.00218605 -1.13743e-05 -6.45898e-07
-1.13743e-05 -5.05637e-05 4.27942e-08
-6.45898e-07 4.27942e-08 -1.02966e-06
0.00215929 -3.51392e-05 -2.88255e-06
-3.51392e-05 1.21998e-05 3.23039e-07
-2.88255e-06 3.23039e-07 3.06129e-05
0.00229747 -8.47325e-05 -6.93865e-07
-8.47325e-05 -8.53508e-05 1.435e-07
-6.93865e-07 1.435e-07 5.10227e-06
0.00215978 -0.00012188 -1.27884e-06
-0.00012188 -3.42856e-05 2.28557e-07
-1.27884e-06 2.28557e-07 -1.01939e-05
0.00215207 -0.00014715 -5.3798e-06
-0.00014715 6.04307e-07 9.23417e-07
-5.3798e-06 9.23417e-07 -1.81678e-05
0.00221374 -0.000223219 1.64679e-06
-0.000223219 -2.45777e-05 -6.53529e-07
1.64679e-06 -6.53529e-07 -3.66562e-06
0.00226253 -0.000236159 1.74149e-06
-0.000236159 7.1391e-05 -4.79145e-07
1.74149e-06 -4.79145e-07 3.71873e-05
0.00211481 -0.000219812 -3.43783e-07
-0.000219812 9.57767e-05 1.80971e-07
-3.43783e-07 1.80971e-07 -6.94717e-07
0.00228828 -0.000335336 5.20768e-06
-0.000335336 0.000108819 -9.56882e-07
5.20768e-06 -9.56882e-07 4.2776e-05
0.00211285 -0.000292675 -5.78926e-07
-0.000292675 0.000107959 -2.9448e-07
-5.78926e-07 -2.9448e-07 -1.5573e-05
0.00125313 -0.000177478 -4.80583e-06
-0.000177478 -6.46219e-05 2.0088e-06
-4.80583e-06 2.0088e-06 -0.000231504
0.00218339 -0.000378525 2.32445e-06
-0.000378525 0.000179312 4.0303e-07
2.32445e-06 4.0303e-07 1.52843e-05
0.00133249 -0.000223304 -3.86417e-07
-0.000223304 -2.76073e-05 9.56488e-08
-3.86417e-07 9.56488e-08 -0.000210331
0.00270025 -0.000191504 -7.18004e-05
-0.000191504 0.00127925 1.14431e-05
-7.18004e-05 1.14431e-05 0.00117607
0.00140301 -0.000277661 8.28578e-06
-0.000277661 9.87163e-06 -3.66071e-06
8.28578e-06 -3.66071e-06 -0.000194152
0.00289544 -0.000202373 4.81396e-05
-0.000202373 0.00138848 -5.68825e-06
4.81396e-05 -5.68825e-06 0.00129051
0.00252002 -0.000112637 -0.000282862
-0.000112637 0.00126322 3.6022e-05
-0.000282862 3.6022e-05 0.0012472
0.00307224 -0.000233465 0.000169531
-0.000233465 0.00149147 -2.75577e-05
0.000169531 -2.75577e-05 0.00139752
0.00216317 -9.67091e-05 -0.000105446
-9.67091e-05 0.00104334 1.44183e-05
-0.000105446 1.44183e-05 0.0010087
0.00183295 -9.47342e-05 7.54114e-05
-9.47342e-05 0.000849408 -1.29149e-05
7.54114e-05 -1.29149e-05 0.00079055
0.00223295 0.000277029 5.05072e-08
0.000277029 -3.2921e-06 -7.12925e-07
5.05072e-08 -7.12925e-07 -1.18425e-05
0.00228741 0.000408568 -4.21223e-06
0.000408568 0.000129847 -3.14635e-07
-4.21223e-06 -3.14635e-07 2.61556e-05
0.00231048 0.000443798 -3.34266e-07
0.000443798 5.71913e-05 -1.33521e-07
-3.34266e-07 -1.33521e-07 4.27471e-06
0.0021241 0.000467791 -6.70587e-07
0.000467791 0.000152173 1.16206e-06
-6.70587e-07 1.16206e-06 -5.20419e-05
0.00226124 0.000497481 -1.47713e-06
0.000497481 0.000171793 -5.75126e-07
-1.47713e-06 -5.75126e-07 1.17806e-05
0.00237395 0.000525339 1.44213e-06
0.000525339 0.000152833 -1.13345e-07
1.44213e-06 -1.13345e-07 3.29666e-05
0.00143256 0.000344801 -1.74914e-05
0.000344801 3.2439e-05 -4.77271e-06
-1.74914e-05 -4.77271e-06 -0.000198914
0.00205289 0.000527522 9.58811e-07
0.000527522 0.000177866 -9.26141e-07
9.58811e-07 -9.26141e-07 -7.19699e-05
0.00213341 0.000583124 -2.00295e-06
0.000583124 0.000122559 -6.01993e-06
-2.00295e-06 -6.01993e-06 -8.389e-05
0.000337758 0.000223796 -2.21689e-05
0.000223796 -0.000248698 -1.63128e-05
-2.21689e-05 -1.63128e-05 -0.000402878
0.00139726 0.000403024 -2.24885e-07
0.000403024 5.20995e-05 1.8767e-07
-2.24885e-07 1.8767e-07 -0.000216207
0.00203365 0.000609998 5.01607e-06
0.000609998 0.000243841 -4.98657e-06
5.01607e-06 -4.98657e-06 -6.86241e-05
0.00129724 0.000455478 3.27263e-05
0.000455478 8.04606e-05 6.51161e-06
3.27263e-05 6.51161e-06 -0.000230218
0.000290473 0.000266452 1.11587e-07
0.000266452 -0.00024522 8.92953e-07
1.11587e-07 8.92953e-07 -0.000418725
0.0078671 0.000223956 -0.000350048
0.000223956 0.0047288 -5.02305e-05
-0.000350048 -5.02305e-05 0.00472914
0.000436523 0.00027297 2.6582e-05
0.00027297 -0.000125731 1.89453e-05
2.6582e-05 1.89453e-05 -0.000302144
0.00832249 0.000105372 9.65931e-06
0.000105372 0.0050113 1.52647e-06
9.65931e-06 1.52647e-06 0.00502131
0.00803681 -4.36007e-05 0.0002985
-4.36007e-05 0.0048434 2.23982e-05
0.0002985 2.23982e-05 0.00484832
0.00224392 0.000145566 -2.09201e-07
0.000145566 -4.22324e-06 -5.72398e-07
-2.09201e-07 -5.72398e-07 2.87496e-05
0.00230583 0.000245046 6.87498e-07
0.000245046 -7.41906e-05 4.69579e-07
6.87498e-07 4.69579e-07 -1.93934e-05
0.0024914 0.000309416 1.51224e-07
0.000309416 -0.000175451 1.50694e-07
1.51224e-07 1.50694e-07 -3.38146e-05
0.00240672 0.000448189 -9.69125e-07
0.000448189 -8.43911e-06 -1.37694e-06
-9.69125e-07 -1.37694e-06 -6.1649e-06
0.0021219 3.12909e-05 -3.18194e-06
3.12909e-05 1.41816e-05 3.17437e-07
-3.18194e-06 3.17437e-07 1.27935e-05
0.00222365 6.61095e-05 8.92459e-09
6.61095e-05 -3.83196e-05 -3.50824e-08
8.92459e-09 -3.50824e-08 6.85995e-06
0.00230401 7.71337e-05 -9.73269e-07
7.71337e-05 -7.79585e-05 1.54144e-07
-9.73269e-07 1.54144e-07 4.36786e-06
0.00219222 -7.89382e-06 -2.27678e-06
-7.89382e-06 -4.44648e-05 -2.52826e-07
-2.27678e-06 -2.52826e-07 2.83292e-06
0.00215986 -2.92091e-05 -7.45224e-07
-2.92091e-05 6.36743e-06 -1.86342e-07
-7.45224e-07 -1.86342e-07 2.71684e-05
0.00207651 -6.22449e-05 -4.69966e-06
-6.22449e-05 -2.93409e-05 6.07851e-07
-4.69966e-06 6.07851e-07 -5.37648e-05
0.00218529 -0.000122774 1.24778e-06
-0.000122774 -9.71482e-06 -7.01528e-08
1.24778e-06 -7.01528e-08 9.77186e-06
0.0021572 -0.000148589 -1.822e-06
-0.000148589 1.12816e-05 3.41132e-07
-1.822e-06 3.41132e-07 -1.4838e-05
0.00220217 -0.000148818 -1.51545e-06
-0.000148818 0.000142331 4.37486e-07
-1.51545e-06 4.37486e-07 6.81394e-05
0.00227877 -0.000236564 7.41994e-06
-0.000236564 8.52278e-05 -1.31723e-06
7.41994e-06 -1.31723e-06 5.07292e-05
0.00212539 -0.000217777 9.4101e-07
-0.000217777 0.000100654 -3.12135e-07
9.4101e-07 -3.12135e-07 5.20687e-06
0.0012283 -0.00013274 -5.11064e-06
-0.00013274 -6.86391e-05 1.344e-06
-5.11064e-06 1.344e-06 -0.000221672
0.00209276 -0.000291321 1.67738e-06
-0.000291321 8.46145e-05 -4.4432e-07
1.67738e-06 -4.4432e-07 -3.85407e-05
0.001266 -0.000175903 -1.60591e-07
-0.000175903 -5.67356e-05 2.88929e-08
-1.60591e-07 2.88929e-08 -0.000222387
0.000295212 -9.90774e-05 -1.7528e-05
-9.90774e-05 -0.000278968 6.74772e-06
-1.7528e-05 6.74772e-06 -0.000390035
0.00133399 -0.000221585 5.37387e-06
-0.000221585 -3.3202e-05 -2.60709e-06
5.37387e-06 -2.60709e-06 -0.000214449
0.00158122 -0.00013069 7.11941e-05
-0.00013069 0.00054434 -5.92514e-06
7.11941e-05 -5.92514e-06 0.000446398
0.00708135 -0.000184743 -0.000375117
-0.000184743 0.00422004 3.03685e-05
-0.000375117 3.03685e-05 0.00424562
0.00298203 -0.000183494 0.000164241
-0.000183494 0.00143361 -2.14837e-05
0.000164241 -2.14837e-05 0.00135043
0.00211442 -8.85286e-05 -9.53099e-05
-8.85286e-05 0.00101466 9.26711e-06
-9.53099e-05 9.26711e-06 0.000980177
0.00174434 -0.000111182 8.70889e-05
-0.000111182 0.000799132 -1.46105e-05
8.70889e-05 -1.46105e-05 0.000739188
0.00217896 0.000182322 -1.34486e-06
0.000182322 1.37677e-05 -1.22559e-06
-1.34486e-06 -1.22559e-06 6.54075e-06
0.00229279 0.000316717 -2.97835e-06
0.000316717 0.000105449 -6.94542e-07
-2.97835e-06 -6.94542e-07 3.87828e-05
0.00223601 0.000269226 -3.38382e-07
0.000269226 1.12036e-05 -4.50159e-08
-3.38382e-07 -4.50159e-08 -3.09234e-06
0.00222662 0.000376757 -1.29656e-06
0.000376757 0.000187174 8.97817e-07
-1.29656e-06 8.97817e-07 3.98774e-05
0.0022677 0.000407206 4.31237e-07
0.000407206 0.000117754 -4.85851e-08
4.31237e-07 -4.85851e-08 1.477e-05
0.00230776 0.000444981 -7.5484e-07
0.000444981 3.62006e-05 -9.15493e-07
-7.5484e-07 -9.15493e-07 -6.82136e-06
0.00147419 0.000297657 -1.1527e-05
0.000297657 4.79118e-05 -2.31471e-06
-1.1527e-05 -2.31471e-06 -0.000148613
0.00216403 0.000465639 9.44218e-07
0.000465639 0.000181955 -4.46965e-08
9.44218e-07 -4.46965e-08 -2.02364e-05
0.00231247 0.00049802 2.01418e-06
0.00049802 0.000216143 -1.41325e-06
2.01418e-06 -1.41325e-06 5.34802e-05
0.000340594 0.00016086 -1.88997e-05
0.00016086 -0.000261991 -1.25121e-05
-1.88997e-05 -1.25121e-05 -0.000395567
0.00137285 0.000339781 4.18982e-07
0.000339781 -4.52204e-07 5.46325e-07
4.18982e-07 5.46325e-07 -0.00022747
0.00197439 0.00052711 4.96448e-06
0.00052711 0.000117155 -4.75736e-06
4.96448e-06 -4.75736e-06 -0.000125653
0.00757919 0.000284738 -0.000354134
0.000284738 0.00454017 -4.92103e-05
-0.000354134 -4.92103e-05 0.00454237
0.000303443 0.000218774 7.68899e-08
0.000218774 -0.000273588 7.39815e-07
7.68899e-08 7.39815e-07 -0.000428755
0.0013293 0.000395112 2.55853e-05
0.000395112 1.51669e-05 5.95859e-06
2.55853e-05 5.95859e-06 -0.00025244
0.00022344 0.000249921 2.2645e-05
0.000249921 -0.00028483 1.90953e-05
2.2645e-05 1.90953e-05 -0.00045726
0.00788558 0.000218334 1.128e-05
0.000218334 0.00473601 2.55567e-06
1.128e-05 2.55567e-06 0.00474232
0.00818994 7.51645e-05 0.000355679
7.51645e-05 0.0049132 3.05631e-05
0.000355679 3.05631e-05 0.00492987
0.00211262 9.01891e-05 -4.60386e-06
9.01891e-05 1.41515e-05 -1.63863e-07
-4.60386e-06 -1.63863e-07 5.53108e-06
0.00223043 0.000140383 -7.55813e-08
0.000140383 -1.19086e-05 1.07505e-08
-7.55813e-08 1.07505e-08 1.86686e-05
0.0022722 0.000249097 -6.4244e-07
0.000249097 -0.000101518 3.71131e-07
-6.4244e-07 3.71131e-07 -4.83826e-05
0.00208632 1.07169e-05 -6.89227e-06
1.07169e-05 -3.20353e-06 2.75863e-07
-6.89227e-06 2.75863e-07 -3.85348e-05
0.00210471 3.69767e-05 7.4572e-07
3.69767e-05 -1.56877e-06 1.18715e-08
7.4572e-07 1.18715e-08 8.69405e-07
0.00222188 5.61944e-05 -1.37512e-06
5.61944e-05 -4.09287e-05 3.91812e-08
-1.37512e-06 3.91812e-08 6.45e-06
0.00216162 -2.35041e-05 1.35767e-06
-2.35041e-05 7.58409e-07 -3.18428e-07
1.35767e-06 -3.18428e-07 2.43317e-05
0.00207418 -6.11583e-05 -7.72514e-07
-6.11583e-05 -3.09502e-05 1.86539e-08
-7.72514e-07 1.86539e-08 -5.46505e-05
0.00207398 -7.17822e-05 -1.09603e-06
-7.17822e-05 7.30125e-05 2.15578e-07
-1.09603e-06 2.15578e-07 -7.36627e-06
0.00215971 -0.000150177 4.13039e-06
-0.000150177 2.07075e-05 -7.12518e-07
4.13039e-06 -7.12518e-07 -1.26414e-05
0.00209828 -0.000149717 8.81252e-07
-0.000149717 7.85733e-05 -6.30162e-08
8.81252e-07 -6.30162e-08 -5.58645e-06
0.0014413 -8.43689e-05 -6.33011e-06
-8.43689e-05 8.23735e-05 2.48166e-07
-6.33011e-06 2.48166e-07 -4.61331e-05
0.00211153 -0.000216966 2.24407e-06
-0.000216966 8.95028e-05 -9.27824e-07
2.24407e-06 -9.27824e-07 -5.40371e-06
0.00123434 -0.000128809 -3.83288e-08
-0.000128809 -6.64737e-05 1.42599e-07
-3.83288e-08 1.42599e-07 -0.000218335
0.000287828 -2.96988e-05 -1.63069e-05
-2.96988e-05 -0.000282964 3.42608e-06
-1.63069e-05 3.42608e-06 -0.000384505
0.00129145 -0.000173505 4.04758e-06
-0.000173505 -4.31198e-05 -1.91879e-06
4.04758e-06 -1.91879e-06 -0.0002073
0.000319111 -8.3721e-05 -5.01213e-07
-8.3721e-05 -0.000261523 5.69551e-07
-5.01213e-07 5.69551e-07 -0.000372357
0.00702517 -7.5462e-05 -0.000365436
-7.5462e-05 0.00417651 1.93517e-05
-0.000365436 1.93517e-05 0.00420842
0.000407386 -9.06908e-05 1.27253e-05
-9.06908e-05 -0.000213287 -9.09121e-06
1.27253e-05 -9.09121e-06 -0.000331357
0.00450696 -0.000121179 0.000156766
-0.000121179 0.00256521 -9.0781e-06
0.000156766 -9.0781e-06 0.00254969
0.00169289 -9.754e-05 9.18203e-05
-9.754e-05 0.00076735 -1.36548e-05
9.18203e-05 -1.36548e-05 0.000709455
0.00215398 0.00014968 -6.41702e-06
0.00014968 5.23699e-05 -8.66591e-07
-6.41702e-06 -8.66591e-07 3.64284e-05
0.00226834 0.000228712 -4.7693e-06
0.000228712 0.000107039 -9.15041e-07
-4.7693e-06 -9.15041e-07 4.96591e-05
0.00216679 0.000175851 -6.90652e-07
0.000175851 1.11549e-05 -1.87088e-07
-6.90652e-07 -1.87088e-07 3.79843e-06
0.00217131 0.000298964 -5.487e-07
0.000298964 0.000143722 2.00773e-07
-5.487e-07 2.00773e-07 1.73241e-05
0.0023059 0.000314599 -8.57964e-08
0.000314599 0.000110782 -2.44541e-07
-8.57964e-08 -2.44541e-07 4.35114e-05
0.00223353 0.000261563 1.54532e-06
0.000261563 2.24278e-05 8.95925e-07
1.54532e-06 8.95925e-07 2.33916e-06
0.00141079 0.000231139 -6.25091e-06
0.000231139 2.45633e-05 -1.26437e-06
-6.25091e-06 -1.26437e-06 -0.000145556
0.00211569 0.000368592 2.21784e-06
0.000368592 0.000124286 5.53662e-07
2.21784e-06 5.53662e-07 -3.13501e-05
0.00223994 0.000405646 3.65453e-06
0.000405646 9.95412e-05 -2.87017e-07
3.65453e-06 -2.87017e-07 -2.77207e-06
0.000329796 0.000114229 -1.69555e-05
0.000114229 -0.000269297 -9.29383e-06
-1.69555e-05 -9.29383e-06 -0.000389778
0.00143218 0.000289696 8.14618e-07
0.000289696 2.66197e-05 9.92677e-07
8.14618e-07 9.92677e-07 -0.000167338
0.00221247 0.00046449 3.15742e-06
0.00046449 0.000217394 -1.22722e-06
3.15742e-06 -1.22722e-06 1.71111e-05
0.00731545 0.00031912 -0.00036692
0.00031912 0.00438084 -4.66185e-05
-0.00036692 -4.66185e-05 0.00438352
0.000336896 0.000163378 4.11942e-07
0.000163378 -0.000269167 4.06067e-07
4.11942e-07 4.06067e-07 -0.000404522
0.00131886 0.000336842 1.78875e-05
0.000336842 -3.14062e-05 4.31502e-06
1.78875e-05 4.31502e-06 -0.000254663
0.0076482 0.000306033 1.2247e-05
0.000306033 0.0045946 4.8757e-06
1.2247e-05 4.8757e-06 0.0045938
0.000300323 0.000214572 1.98617e-05
0.000214572 -0.000279135 1.66159e-05
1.98617e-05 1.66159e-05 -0.000435365
0.00795865 0.00019185 0.000367941
0.00019185 0.00476677 3.96195e-05
0.000367941 3.96195e-05 0.00478325
0.00206008 7.08587e-05 -6.92849e-06
7.08587e-05 -2.06738e-05 -4.67436e-09
-6.92849e-06 -4.67436e-09 -6.11425e-05
0.00210454 9.68335e-05 -1.06952e-06
9.68335e-05 1.37035e-05 -2.24753e-07
-1.06952e-06 -2.24753e-07 4.76185e-06
0.00221616 0.000135622 3.941e-07
0.000135622 -1.90704e-05 5.79813e-07
3.941e-07 5.79813e-07 8.77941e-06
0.00201927 -8.79372e-06 -1.73097e-06
-8.79372e-06 4.69246e-05 -4.09019e-08
-1.73097e-06 -4.09019e-08 -3.39597e-05
0.00207032 1.1992e-05 -8.38106e-07
1.1992e-05 -1.66855e-05 -5.12695e-09
-8.38106e-07 -5.12695e-09 -4.89267e-05
0.00208642 4.34756e-05 3.36115e-06
4.34756e-05 -1.79343e-05 6.80826e-09
3.36115e-06 6.80826e-09 -1.17402e-05
0.00207343 -6.0235e-05 2.93752e-06
-6.0235e-05 -3.10649e-05 -4.6099e-07
2.93752e-06 -4.6099e-07 -5.42859e-05
0.00201792 -7.1062e-05 -3.84534e-07
-7.1062e-05 3.58132e-05 2.23052e-07
-3.84534e-07 2.23052e-07 -4.38925e-05
0.00139039 -3.66329e-05 -7.51548e-06
-3.66329e-05 6.55414e-05 -4.37915e-07
-7.51548e-06 -4.37915e-07 -5.55139e-05
0.00198557 -0.000150218 1.8222e-07
-0.000150218 8.3762e-06 -3.91698e-07
1.8222e-07 -3.91698e-07 -8.56928e-05
0.0013116 -8.37762e-05 2.92427e-06
-8.37762e-05 -7.55611e-06 -3.5341e-07
2.92427e-06 -3.5341e-07 -0.000142365
0.00028565 -1.14044e-05 -1.69255e-05
-1.14044e-05 -0.000279479 1.79214e-06
-1.69255e-05 1.79214e-06 -0.000376019
0.00123802 -0.000126465 4.57959e-06
-0.000126465 -6.43913e-05 -1.0996e-06
4.57959e-06 -1.0996e-06 -0.000215322
0.000292997 -4.18694e-05 5.1741e-07
-4.18694e-05 -0.000278081 -3.379e-07
5.1741e-07 -3.379e-07 -0.000379023
0.00681451 -0.000170114 -0.000366471
-0.000170114 0.0040614 2.10515e-05
-0.000366471 2.10515e-05 0.00408612
0.00031932 -6.75534e-05 1.61517e-05
-6.75534e-05 -0.000260101 -5.14999e-06
1.61517e-05 -5.14999e-06 -0.000369773
0.00694965 -0.000112187 7.23943e-06
-0.000112187 0.00413288 1.44296e-07
7.23943e-06 1.44296e-07 0.00416366
0.00201886 -4.67037e-05 0.000279931
-4.67037e-05 0.000944375 -2.09457e-05
0.000279931 -2.09457e-05 0.000936505
0.00209445 0.000154525 -7.36334e-06
0.000154525 8.85993e-07 -7.30589e-07
-7.36334e-06 -7.30589e-07 -5.07243e-05
0.00210721 0.000150816 -1.48812e-06
0.000150816 1.00591e-05 -1.31765e-07
-1.48812e-06 -1.31765e-07 2.88745e-09
0.00215308 0.000223043 1.27277e-06
0.000223043 0.000124413 3.90428e-07
1.27277e-06 3.90428e-07 1.81829e-05
0.00227684 0.000228245 8.42166e-07
0.000228245 0.000108955 -9.65882e-09
8.42166e-07 -9.65882e-09 5.21801e-05
0.00216271 0.000169359 2.09132e-06
0.000169359 1.34904e-05 5.47323e-07
2.09132e-06 5.47323e-07 6.17382e-06
0.00124103 0.000169272 -3.13552e-06
0.000169272 -6.80418e-05 -1.04431e-06
-3.13552e-06 -1.04431e-06 -0.000230866
0.0021477 0.000296656 3.42258e-07
0.000296656 0.000130797 -9.75687e-08
3.42258e-07 -9.75687e-08 4.29279e-06
0.00232191 0.000312279 4.46998e-06
0.000312279 0.000117746 1.22146e-06
4.46998e-06 1.22146e-06 4.99665e-05
0.000329369 8.26061e-05 -1.61411e-05
8.26061e-05 -0.000262489 -6.78427e-06
-1.61411e-05 -6.78427e-06 -0.00037541
0.00133811 0.000227477 2.36076e-06
0.000227477 -1.8519e-05 8.69176e-07
2.36076e-06 8.69176e-07 -0.000193844
0.00203967 0.000362193 1.55745e-06
0.000362193 8.65268e-05 -9.88976e-08
1.55745e-06 -9.88976e-08 -7.74716e-05
0.00712455 0.000311838 -0.000380922
0.000311838 0.00427073 -4.22988e-05
-0.000380922 -4.22988e-05 0.00427519
0.000346878 0.000120463 5.92734e-07
0.000120463 -0.000261934 2.2118e-07
5.92734e-07 2.2118e-07 -0.000384399
0.00138877 0.000281472 1.00949e-05
0.000281472 4.12853e-06 3.63637e-06
1.00949e-05 3.63637e-06 -0.00018709
0.00741128 0.000346103 8.9831e-06
0.000346103 0.00445429 5.44945e-06
8.9831e-06 5.44945e-06 0.00445127
0.000340519 0.000165123 1.75338e-05
0.000165123 -0.000271812 1.30983e-05
1.75338e-05 1.30983e-05 -0.00040877
0.00772201 0.000315329 0.0003792
0.000315329 0.00463621 5.01481e-05
0.0003792 5.01481e-05 0.00463984
0.00196605 6.70572e-05 -3.48253e-07
6.70572e-05 1.3748e-05 -1.1992e-07
-3.48253e-07 -1.1992e-07 -7.27402e-05
0.00207857 7.19604e-05 -2.78719e-06
7.19604e-05 -2.36771e-06 -1.14345e-07
-2.78719e-06 -1.14345e-07 -4.41367e-05
0.0020971 0.000103182 4.83265e-06
0.000103182 1.3622e-05 1.94024e-07
4.83265e-06 1.94024e-07 4.40232e-06
0.00133009 -1.14052e-05 -9.68538e-06
-1.14052e-05 3.97162e-05 -6.10053e-07
-9.68538e-06 -6.10053e-07 -7.96589e-05
0.0020034 -5.58401e-06 1.41844e-07
-5.58401e-06 3.82625e-05 1.51904e-07
1.41844e-07 1.51904e-07 -4.2275e-05
0.00206287 1.2752e-05 3.72076e-06
1.2752e-05 -2.38768e-05 -9.17241e-08
3.72076e-06 -9.17241e-08 -5.29056e-05
0.00196217 -7.08571e-05 1.59801e-07
-7.08571e-05 -9.87873e-07 2.82687e-07
1.59801e-07 2.82687e-07 -8.00586e-05
0.00134976 -3.89203e-05 2.43601e-06
-3.89203e-05 3.17706e-05 -1.17663e-07
2.43601e-06 -1.17663e-07 -8.94111e-05
0.000299614 -3.34334e-05 -1.77037e-05
-3.34334e-05 -0.000265587 6.18584e-07
-1.77037e-05 6.18584e-07 -0.000357813
0.00118441 -8.27253e-05 8.21862e-06
-8.27253e-05 -9.5397e-05 -8.41551e-07
8.21862e-06 -8.41551e-07 -0.000236506
0.000292635 -2.83003e-07 1.02986e-07
-2.83003e-07 -0.000275721 6.3619e-08
1.02986e-07 6.3619e-08 -0.00037073
0.00670261 -0.000137855 -0.000365469
-0.000137855 0.00398891 1.59418e-05
-0.000365469 1.59418e-05 0.0040173
0.000332848 -4.99298e-05 1.73572e-05
-4.99298e-05 -0.000249046 -3.33025e-06
1.73572e-05 -3.33025e-06 -0.000350861
0.00680464 -6.5484e-05 -2.85e-06
-6.5484e-05 0.00404099 3.44816e-06
-2.85e-06 3.44816e-06 0.00407444
0.00691949 -0.000126254 0.000365114
-0.000126254 0.00411594 -1.9014e-05
0.000365114 -1.9014e-05 0.00414641
0.00211268 0.000144029 7.20919e-07
0.000144029 0.000103889 1.36124e-07
7.20919e-07 1.36124e-07 1.14161e-05
0.00215755 0.000154045 -2.11257e-06
0.000154045 3.81654e-05 -2.29129e-07
-2.11257e-06 -2.29129e-07 -7.75022e-06
0.00205681 0.000152107 4.15885e-06
0.000152107 -3.50164e-05 7.02847e-07
4.15885e-06 7.02847e-07 -3.91978e-05
0.00121789 0.00011671 -4.99998e-06
0.00011671 -6.72128e-05 -3.7266e-07
-4.99998e-06 -3.7266e-07 -0.0002155
0.00214547 0.000221776 8.387e-08
0.000221776 0.0001203 -1.0459e-07
8.387e-08 -1.0459e-07 1.38699e-05
0.00228041 0.000227459 4.72618e-06
0.000227459 0.00010808 6.29794e-07
4.72618e-06 6.29794e-07 5.19312e-05
0.000324265 5.57498e-05 -1.56725e-05
5.57498e-05 -0.000256374 -4.64853e-06
-1.56725e-05 -4.64853e-06 -0.000362742
0.00125602 0.000171668 1.58766e-07
0.000171668 -5.13228e-05 2.76002e-07
1.58766e-07 2.76002e-07 -0.000215323
0.0021052 0.000293515 9.63286e-07
0.000293515 0.000105091 -6.0771e-07
9.63286e-07 -6.0771e-07 -2.16554e-05
0.00696164 0.000255246 -0.000388246
0.000255246 0.00416421 -3.41686e-05
-0.000388246 -3.41686e-05 0.00417905
0.000338169 9.06273e-05 8.70354e-07
9.06273e-05 -0.000258523 2.26804e-07
8.70354e-07 2.26804e-07 -0.000373608
0.00125163 0.000222663 4.99742e-06
0.000222663 -7.17355e-05 2.7852e-06
4.99742e-06 2.7852e-06 -0.000252037
0.00722493 0.000331177 4.68318e-06
0.000331177 0.0043397 3.51737e-06
4.68318e-06 3.51737e-06 0.00434184
0.000366794 0.000128462 1.63523e-05
0.000128462 -0.000251487 1.02202e-05
1.63523e-05 1.02202e-05 -0.000376545
0.00752933 0.000386308 0.000390871
0.000386308 0.00454216 5.6187e-05
0.000390871 5.6187e-05 0.00453311
0.00110521 3.55526e-05 -1.06917e-05
3.55526e-05 -0.000104465 -4.39546e-07
-1.06917e-05 -4.39546e-07 -0.000237225
0.00207777 6.43514e-05 4.22824e-08
6.43514e-05 8.91049e-05 1.02598e-08
4.22824e-08 1.02598e-08 8.82224e-06
0.00211524 7.35923e-05 3.75371e-06
7.35923e-05 2.84213e-05 -6.20532e-08
3.75371e-06 -6.20532e-08 -1.44632e-05
0.000333237 3.25369e-05 -1.81998e-05
3.25369e-05 -0.000248181 -1.37311e-06
-1.81998e-05 -1.37311e-06 -0.000331349
0.0012988 -6.89847e-06 1.93204e-06
-6.89847e-06 1.57837e-05 -2.2048e-08
1.93204e-06 -2.2048e-08 -0.000103685
0.00199111 -1.00669e-06 1.90241e-06
-1.00669e-06 3.17717e-05 2.14259e-07
1.90241e-06 2.14259e-07 -4.85055e-05
0.001277 -4.04498e-05 1.10875e-05
-4.04498e-05 -2.25099e-05 -1.50888e-07
1.10875e-05 -1.50888e-07 -0.000143947
0.000297257 -6.40926e-06 2.29092e-07
-6.40926e-06 -0.00026679 4.68895e-07
2.29092e-07 4.68895e-07 -0.000358747
0.00659457 2.23738e-06 -0.000367222
2.23738e-06 0.00391052 3.22394e-06
-0.000367222 3.22394e-06 0.0039477
0.000295183 1.11059e-05 1.69477e-05
1.11059e-05 -0.000275239 -7.75599e-07
1.69477e-05 -7.75599e-07 -0.000368577
0.00666268 -0.000135343 -7.63999e-06
-0.000135343 0.00396544 2.28198e-06
-7.63999e-06 2.28198e-06 0.0039933
0.00673105 -4.80997e-05 0.000351106
-4.80997e-05 0.00399412 -1.07918e-05
0.000351106 -1.07918e-05 0.00402784
0.00116114 7.4681e-05 -8.9563e-06
7.4681e-05 -8.12439e-05 -3.96995e-07
-8.9563e-06 -3.96995e-07 -0.000219326
0.00214208 0.00013997 -4.31599e-07
0.00013997 0.000123744 -2.57892e-07
-4.31599e-07 -2.57892e-07 3.52624e-05
0.00220303 0.000153158 1.88853e-06
0.000153158 6.30649e-05 -1.96346e-08
1.88853e-06 -1.96346e-08 2.26136e-05
0.00274418 7.29197e-05 -0.00016329
7.29197e-05 0.00130705 -6.28502e-06
-0.00016329 -6.28502e-06 0.00125054
0.0011983 0.000117789 1.29444e-07
0.000117789 -7.54564e-05 1.28687e-07
1.29444e-07 1.28687e-07 -0.000224581
0.00210833 0.000219983 6.54644e-08
0.000219983 9.56135e-05 -4.2343e-07
6.54644e-08 -4.2343e-07 -1.12101e-05
0.00681083 0.000186162 -0.000385945
0.000186162 0.00406087 -2.45015e-05
-0.000385945 -2.45015e-05 0.00408641
0.000331856 7.56142e-05 1.15537e-06
7.56142e-05 -0.000251017 5.34549e-07
1.15537e-06 5.34549e-07 -0.000359977
0.00126293 0.000173554 3.52382e-06
0.000173554 -4.16048e-05 1.4508e-06
3.52382e-06 1.4508e-06 -0.000206798
0.00706995 0.000272447 1.25904e-06
0.000272447 0.00423456 1.71073e-06
1.25904e-06 1.71073e-06 0.00424775
0.00035171 0.000100843 1.6073e-05
0.000100843 -0.000250357 7.98419e-06
1.6073e-05 7.98419e-06 -0.000368203
0.00731957 0.000367218 0.000395108
0.000367218 0.00441396 5.30519e-05
0.000395108 5.30519e-05 0.00440934
0.000423913 1.45336e-05 -1.38626e-05
1.45336e-05 -0.000177278 -2.05416e-06
-1.38626e-05 -2.05416e-06 -0.000269613
0.00119936 3.55865e-05 -1.6255e-07
3.55865e-05 -4.68887e-05 3.26351e-08
-1.6255e-07 3.26351e-08 -0.000174556
0.00217654 6.02892e-05 2.08402e-06
6.02892e-05 0.000155027 -5.60202e-08
2.08402e-06 -5.60202e-08 8.08085e-05
0.00639745 -0.000105853 -0.000349247
-0.000105853 0.00380412 5.62584e-06
-0.000349247 5.62584e-06 0.00383013
0.000300131 1.07569e-05 -6.7557e-07
1.07569e-05 -0.000265221 -2.22452e-07
-6.7557e-07 -2.22452e-07 -0.000350934
0.00128646 -3.51151e-06 1.27481e-05
-3.51151e-06 3.3701e-06 2.65628e-07
1.27481e-05 2.65628e-07 -0.000116034
0.000283585 2.00355e-05 1.72357e-05
2.00355e-05 -0.000277512 8.95296e-07
1.72357e-05 8.95296e-07 -0.000367877
0.00652821 -3.29616e-05 1.99901e-06
-3.29616e-05 0.00387525 -1.90269e-06
1.99901e-06 -1.90269e-06 0.00390726
0.00665206 -5.99132e-05 0.000356515
-5.99132e-05 0.00394517 -7.98488e-06
0.000356515 -7.98488e-06 0.00397987
0.00284276 2.37108e-05 -0.000157418
2.37108e-05 0.0013713 -3.13622e-06
-0.000157418 -3.13622e-06 0.00132012
0.00116513 7.73544e-05 -7.0614e-08
7.73544e-05 -8.08538e-05 -6.0905e-08
-7.0614e-08 -6.0905e-08 -0.000219748
0.00221858 0.000137068 1.08076e-06
0.000137068 0.000176224 -4.84046e-07
1.08076e-06 -4.84046e-07 9.20816e-05
0.00634585 -1.84934e-05 -0.00016413
-1.84934e-05 0.00377546 -3.52705e-07
-0.00016413 -3.52705e-07 0.00376596
0.000317682 6.36488e-05 7.28793e-07
6.36488e-05 -0.000252929 2.4495e-07
7.28793e-07 2.4495e-07 -0.000353509
0.00120974 0.000120188 5.22385e-06
0.000120188 -6.49423e-05 4.64335e-07
5.22385e-06 4.64335e-07 -0.000214822
0.00689242 0.000163321 -9.5189e-06
0.000163321 0.00410644 -1.86473e-06
-9.5189e-06 -1.86473e-06 0.00413326
0.000336434 9.79923e-05 1.72938e-05
9.79923e-05 -0.000248669 6.4747e-06
1.72938e-05 6.4747e-06 -0.000359341
0.00715913 0.000295583 0.000398293
0.000295583 0.00429659 4.37292e-05
0.000398293 4.37292e-05 0.00430786
0.00197081 -5.28963e-05 -0.000270837
-5.28963e-05 0.000919924 1.81154e-06
-0.000270837 1.81154e-06 0.000923976
0.00153317 3.53186e-05 -6.86833e-05
3.53186e-05 0.000529266 -1.54286e-07
-6.86833e-05 -1.54286e-07 0.000462863
0.00128513 3.79081e-05 1.16624e-05
3.79081e-05 5.33018e-06 3.74185e-07
1.16624e-05 3.74185e-07 -0.00011731
0.00646988 -5.16533e-05 7.15427e-06
-5.16533e-05 0.00384371 3.29278e-06
7.15427e-06 3.29278e-06 0.00387575
0.00031457 -9.30692e-06 1.79861e-05
-9.30692e-06 -0.000249304 1.20628e-06
1.79861e-05 1.20628e-06 -0.000338887
0.00657096 -9.4403e-05 0.000367808
-9.4403e-05 0.003908 -6.91452e-06
0.000367808 -6.91452e-06 0.00393927
0.00147876 2.76387e-05 -7.58944e-05
2.76387e-05 0.0006336 -1.28376e-06
-7.58944e-05 -1.28376e-06 0.000590272
0.0015369 2.50827e-05 -6.97448e-05
2.50827e-05 0.000533213 -1.90261e-06
-6.97448e-05 -1.90261e-06 0.000461324
0.00116624 7.82311e-05 9.03714e-06
7.82311e-05 -8.00953e-05 2.06216e-07
9.03714e-06 2.06216e-07 -0.000219729
0.00415006 7.92542e-05 0.000136308
7.92542e-05 0.00234134 4.75943e-06
0.000136308 4.75943e-06 0.00233583
0.000292994 7.45544e-05 1.78005e-05
7.45544e-05 -0.000269494 4.50687e-06
1.78005e-05 4.50687e-06 -0.000370263
0.00698346 0.000150945 0.000380553
0.000150945 0.00415576 2.66202e-05
0.000380553 2.66202e-05 0.00418645
0.00637941 -1.74647e-05 -8.42013e-06
-1.74647e-05 0.00379094 -3.7567e-06
-8.42013e-06 -3.7567e-06 0.00382099
0.000295839 5.35322e-05 1.93349e-05
5.35322e-05 -0.000269777 2.55499e-06
1.93349e-05 2.55499e-06 -0.00035252
0.00636113 3.18277e-05 0.000353285
3.18277e-05 0.00376969 2.71378e-07
0.000353285 2.71378e-07 0.00380525
0.00400777 3.94092e-05 0.000147571
3.94092e-05 0.00225611 6.50326e-06
0.000147571 6.50326e-06 0.00225362
0.000302637 1.36123e-05 1.74028e-05
1.36123e-05 -0.000257275 2.23775e-06
1.74028e-05 2.23775e-06 -0.000350188
0.00674316 1.8094e-05 0.000366091
1.8094e-05 0.0040023 1.23832e-05
0.000366091 1.23832e-05 0.00403627
0.00642826 -0.000110177 0.000352372
-0.000110177 0.00382503 -4.51408e-06
0.000352372 -4.51408e-06 0.00385138
0.00649049 2.21071e-05 0.000356442
2.21071e-05 0.00384313 7.46841e-06
0.000356442 7.46841e-06 0.00388
