# vtk DataFile Version 2.0
Wound Healing Simulation
ASCII
DATASET UNSTRUCTURED_GRID
POINTS 3012 float
69.9759 18.75 4
67.2507 60.3285 4
69.976 18.75 2
73.0099 25.446 4
71.1327 20.9142 4
68.6801 16.6661 4
67.8237 19.9265 3.97806
67.2507 60.3286 2
71.1327 54.0858 4
68.6801 58.3339 4
65.6939 62.2254 4
65.3104 59.0004 3.97731
74.6784 42.3946 4
73.7221 47.2057 4
69.9759 18.75 0
73.0099 25.446 2
68.6801 16.6661 2
71.1327 20.9142 2
67.8242 19.9301 2
74.6792 32.6053 4
73.7222 27.7943 4
72.1454 23.1494 4
70.6127 26.2213 3.9778
68.8839 21.9582 3.97851
67.2507 14.6715 4
66.6351 17.9728 3.97707
65.7917 21.0283 3.96707
67.2507 60.3285 0
71.1327 54.0858 2
68.6801 58.3339 2
65.694 62.2255 2
65.3116 58.9956 2
72.1454 51.8506 4
69.9759 56.25 4
68.8345 53.1131 3.97775
64.0165 64.0165 4
66.6089 57.1332 3.97782
63.8834 60.7643 3.97751
63.4955 57.7663 3.96815
60.3285 67.2507 4
74.6792 42.3947 2
73.7222 47.2057 2
74.9194 39.9526 4
74.2788 44.8158 4
72.1671 42.0857 3.97815
73.0099 49.554 4
71.2479 46.598 3.9774
73.0099 25.446 0
71.1327 20.9142 0
68.6801 16.6661 0
67.8237 19.9265 0.0219416
74.6792 32.6053 2
73.7222 27.7943 2
67.2508 14.6715 2
72.1455 23.1494 2
70.6125 26.2219 2
66.6361 17.9775 2
68.8842 21.9605 2
65.7909 21.0294 2
74.9197 35.0474 4
74.2794 30.1841 4
72.1838 32.944 3.9785
71.2769 28.4319 3.97771
69.8139 24.0598 3.9783
68.3423 26.9535 3.96673
66.7574 22.9356 3.96679
65.694 12.7746 4
65.3213 16.105 3.97642
64.708 19.1997 3.96749
63.8437 22.0527 3.96497
71.1327 54.0858 0
65.6939 62.2254 0
68.6801 58.3339 0
65.3104 59.0004 0.022688
72.1455 51.8506 2
69.9759 56.25 2
68.8346 53.111 2
64.0165 64.0165 2
66.6097 57.129 2
63.8853 60.7601 2
63.4942 57.7659 2
62.2254 65.694 4
58.893 65.4132 3.98677
69.7671 50.989 3.97748
67.7819 55.1671 3.9779
66.6441 52.2076 3.96652
62.3336 62.4253 3.9797
64.6555 56.0282 3.96777
62.1976 59.3948 3.96781
61.8076 56.6682 3.96365
58.3339 68.6801 4
60.3285 67.2508 2
73.7221 47.2057 0
74.6784 42.3946 0
74.9197 39.9526 2
74.2794 44.8159 2
72.1665 42.0855 2
73.0099 49.554 2
71.2476 46.5977 2
75 37.5 4
72.4045 39.8025 3.97903
71.7813 44.3529 3.9781
69.8003 41.7901 3.96777
70.5735 48.8135 3.97718
68.9077 46.0144 3.96711
74.6792 32.6053 0
73.7222 27.7943 0
67.2507 14.6715 0
72.1454 23.1494 0
70.6127 26.2213 0.0222021
68.8839 21.9582 0.0214875
66.6351 17.9728 0.0229329
65.7917 21.0283 0.0329326
74.9197 35.0474 2
74.2794 30.1841 2
72.1832 32.9443 2
71.2767 28.4324 2
65.694 12.7745 2
65.323 16.1103 2
69.8139 24.061 2
68.342 26.9543 2
64.7071 19.2007 2
66.7568 22.9366 2
63.8439 22.0532 2
72.4123 35.2247 3.97896
71.8028 30.6769 3.97836
69.8366 33.2701 3.96795
68.9621 29.0401 3.96715
67.6065 24.9141 3.96667
66.1384 27.6489 3.96713
64.0165 10.9835 4
64.7063 23.8467 3.9658
63.8873 14.3298 3.97705
63.5073 17.455 3.96797
62.8696 20.3391 3.96394
61.9864 22.9823 3.96741
60.6821 11.1007 3.9814
57.6086 11.4583 3.97237
72.1454 51.8506 0
69.9759 56.25 0
68.8345 53.1131 0.0222484
64.0165 64.0165 0
63.8834 60.7643 0.0224949
66.6089 57.1332 0.0221794
63.4955 57.7663 0.031847
62.2255 65.694 2
58.8952 65.4112 2
69.767 50.9879 2
67.7823 55.1638 2
66.6434 52.2068 2
62.3357 62.4214 2
64.6544 56.0276 2
62.1965 59.3953 2
61.8091 56.6686 2
60.6667 63.9749 3.98282
57.0239 66.7347 3.98883
57.5555 63.6849 3.97473
67.5022 50.1755 3.96635
65.6966 54.1711 3.967
64.4796 51.3691 3.96546
60.7687 60.9243 3.9707
62.7914 55.0545 3.96439
60.6468 58.1428 3.96356
60.2849 55.7593 3.96438
56.25 69.9759 4
58.3339 68.6801 2
60.3285 67.2507 0
58.9195 9.65827 3.98349
62.2254 9.30607 4
73.0099 49.554 0
74.2788 44.8158 0
71.2479 46.598 0.0226041
72.1671 42.0857 0.0218456
74.9194 39.9526 0
75 37.5 2
72.4043 39.8025 2
71.7812 44.3525 2
69.7996 41.7898 2
70.5732 48.8131 2
68.9075 46.0139 2
72.4878 37.5125 3.97858
70.0379 39.6582 3.96809
69.4264 43.9076 3.96764
67.544 41.4934 3.96951
68.2609 48.1063 3.96652
66.6435 45.4289 3.9685
74.9197 35.0474 0
74.2794 30.1841 0
72.1838 32.944 0.0214993
71.2769 28.4319 0.0222947
65.694 12.7746 0
65.3213 16.105 0.0235828
69.8139 24.0598 0.0217008
68.3423 26.9535 0.0332655
66.7574 22.9356 0.0332066
64.708 19.1997 0.0325058
63.8437 22.0527 0.0350319
72.4122 35.2248 2
71.8027 30.6775 2
69.8359 33.2706 2
68.9619 29.0408 2
64.0165 10.9835 2
63.8895 14.335 2
63.5062 17.456 2
67.6061 24.915 2
66.1385 27.6495 2
62.8702 20.3394 2
64.7061 23.8473 2
61.9855 22.983 2
60.6848 11.1044 2
57.6105 11.4571 2
70.0545 35.3935 3.96799
69.4635 31.1513 3.9675
67.6082 33.5977 3.96916
66.7159 29.6351 3.96787
65.4693 25.715 3.96652
64.0034 28.288 3.9719
62.3391 12.6584 3.97906
62.7364 24.6749 3.96898
62.1933 15.7981 3.96919
61.7895 18.7046 3.96326
61.1219 21.3829 3.96522
60.2536 23.7874 3.97065
59.2416 12.8025 3.97042
55.8717 10.243 3.97516
56.3985 13.1535 3.96952
69.7671 50.989 0.0225152
62.2254 65.694 0
58.893 65.4132 0.0132345
67.7819 55.1671 0.0220999
66.6441 52.2076 0.0334812
62.3336 62.4253 0.0203042
62.1976 59.3948 0.0321941
64.6555 56.0282 0.0322257
61.8076 56.6682 0.0363544
60.6689 63.9719 2
57.0258 66.7334 2
57.5562 63.6855 2
67.5018 50.1748 2
65.6956 54.1703 2
64.4797 51.3688 2
60.7675 60.9254 2
62.792 55.0546 2
60.6467 58.1431 2
60.2859 55.7595 2
55.0698 67.9316 3.99048
59.2149 62.3482 3.97159
55.8026 64.9044 3.97929
56.3202 62.0635 3.97202
65.2649 49.3924 3.96642
63.6604 53.2771 3.96475
62.3043 50.6152 3.96801
59.3233 59.5366 3.96564
61.001 54.2786 3.96618
59.2524 56.9827 3.96269
59.1706 55.1465 3.96686
48.1005 68.5764 3.9862
50.9476 69.9314 3.99109
54.0858 71.1327 4
56.25 69.976 2
58.3339 68.6801 0
57.0569 8.33757 3.98557
60.3285 7.74928 4
58.9225 9.66126 2
62.2255 9.30602 2
70.5735 48.8135 0.022817
71.7813 44.3529 0.0219035
68.9077 46.0144 0.0328941
69.8003 41.7901 0.0322302
72.4045 39.8025 0.0209679
75 37.5 0
72.4872 37.5125 2
70.0377 39.6581 2
69.4261 43.9072 2
67.5435 41.4931 2
68.2606 48.1056 2
66.6426 45.4285 2
70.1259 37.5227 3.96806
67.7865 39.5111 3.96953
67.1631 43.4624 3.96922
65.4124 41.1976 3.9762
65.9989 47.404 3.96754
64.4859 44.8221 3.97302
72.4123 35.2247 0.0210351
71.8028 30.6769 0.0216397
69.8366 33.2701 0.0320481
68.9621 29.0401 0.0328481
64.0165 10.9835 0
63.8873 14.3298 0.0229545
63.5073 17.455 0.0320285
67.6065 24.9141 0.0333298
66.1384 27.6489 0.0328652
64.7063 23.8467 0.0342013
62.8696 20.3391 0.0360648
61.9864 22.9823 0.0325927
60.6821 11.1007 0.0186041
57.6086 11.4583 0.0276251
70.0544 35.3937 2
69.4632 31.1519 2
67.6079 33.598 2
66.7156 29.6356 2
62.3419 12.6629 2
62.1921 15.7988 2
61.7906 18.7047 2
65.4693 25.7156 2
64.0014 28.2887 2
61.1207 21.3836 2
62.7353 24.6756 2
60.2532 23.7885 2
59.2431 12.8021 2
56.3993 13.1511 2
55.8731 10.2426 2
67.827 35.5517 3.96946
67.2157 31.6319 3.96876
65.5639 33.9415 3.97557
64.5171 30.2196 3.97305
63.4069 26.4496 3.97059
62.0334 28.8271 3.97617
60.7701 14.2426 3.96953
60.8548 25.3954 3.97303
60.5984 17.1505 3.96347
60.1399 19.8599 3.96286
59.4976 22.3221 3.96705
58.7524 24.3983 3.9736
54.0356 9.14404 3.97765
57.9007 14.3674 3.96828
54.7808 12.0392 3.97252
55.2999 14.6979 3.96629
67.5022 50.1755 0.0336453
57.0239 66.7347 0.011174
60.6667 63.9749 0.0171793
57.5555 63.6849 0.0252695
65.6966 54.1711 0.0330002
64.4796 51.3691 0.0345395
60.7687 60.9243 0.0292992
60.6468 58.1428 0.0364389
62.7914 55.0545 0.0356089
60.2849 55.7593 0.0356173
55.0713 67.9309 2
59.2155 62.3509 2
55.8031 64.9048 2
56.3195 62.0659 2
65.2648 49.392 2
63.6608 53.277 2
62.3037 50.6148 2
59.322 59.5376 2
61.0011 54.2785 2
59.2561 56.9834 2
59.173 55.1467 2
53.0418 68.9996 3.99091
53.965 66.0094 3.98222
57.8715 60.8439 3.9696
54.6795 63.1965 3.97436
55.1991 60.5806 3.96957
63.0414 48.6257 3.96972
61.6312 52.5403 3.96704
60.0576 49.9628 3.97019
57.9971 58.2354 3.96455
59.2095 53.9024 3.96793
58.0319 55.7672 3.96244
50.1072 67.8546 3.98551
47.4617 66.5752 3.9819
46.0543 69.1555 3.9867
48.1007 68.5771 2
48.8015 70.7226 3.99132
50.9486 69.931 2
51.8506 72.1454 4
54.0858 71.1327 2
56.25 69.9759 0
55.1018 7.14188 3.98821
58.3339 6.31992 4
57.0596 8.33924 2
60.3286 7.74926 2
58.9195 9.65827 0.0165073
62.2254 9.30607 0
68.2609 48.1063 0.0334832
69.4264 43.9076 0.032362
66.6435 45.4289 0.0315007
67.544 41.4934 0.0304888
70.0379 39.6582 0.0319099
72.4878 37.5125 0.0214162
70.1253 37.5228 2
67.7855 39.511 2
67.1635 43.4621 2
65.4101 41.1971 2
65.999 47.4036 2
64.4838 44.8215 2
67.8876 37.5236 3.9696
65.6507 39.3651 3.97646
65.0225 43.0062 3.97494
63.5237 40.9085 3.97684
63.7995 46.6847 3.97124
62.5562 44.1757 3.97657
70.0545 35.3935 0.0320104
69.4635 31.1513 0.0324958
67.6082 33.5977 0.0308386
66.7159 29.6351 0.0321258
62.3391 12.6584 0.0209377
62.1933 15.7981 0.0308115
61.7895 18.7046 0.03674
65.4693 25.715 0.0334808
64.0034 28.288 0.0281009
62.7364 24.6749 0.0310198
61.1219 21.3829 0.0347827
60.2536 23.7874 0.0293456
59.2416 12.8025 0.0295753
56.3985 13.1535 0.0304839
55.8717 10.243 0.0248422
67.8258 35.5519 2
67.2162 31.6322 2
65.561 33.9421 2
64.515 30.2203 2
60.7703 14.2435 2
60.5975 17.1509 2
60.14 19.8602 2
63.4056 26.4503 2
62.0308 28.8281 2
59.4994 22.323 2
60.854 25.3964 2
58.7515 24.3998 2
57.9007 14.3664 2
55.3005 14.6971 2
54.037 9.14242 2
54.7816 12.0366 2
65.7468 35.6751 3.97618
65.0396 32.1757 3.9741
64.0816 34.2712 3.97673
62.3543 30.68 3.97683
61.439 27.1269 3.97425
60.5732 29.205 3.9771
59.2989 15.6973 3.96645
59.0744 25.8747 3.97611
59.0793 18.3963 3.96173
58.6019 20.9191 3.96365
58.066 23.1754 3.96842
57.7173 24.7555 3.97475
52.1111 8.15928 3.98078
53.0537 11.0359 3.97386
56.6597 15.7878 3.96732
53.799 13.7245 3.97023
54.3537 16.0574 3.96533
55.0698 67.9316 0.0095171
65.2649 49.3924 0.0335783
55.8026 64.9044 0.0207107
59.2149 62.3482 0.0284138
56.3202 62.0635 0.0279814
63.6604 53.2771 0.0352467
62.3043 50.6152 0.0319899
59.3233 59.5366 0.034355
59.2524 56.9827 0.0373062
61.001 54.2786 0.0338168
59.1706 55.1465 0.0331424
53.043 68.9992 2
53.9655 66.01 2
57.8706 60.8459 2
54.6791 63.1973 2
55.1987 60.5824 2
63.0404 48.6252 2
61.6313 52.5401 2
60.0579 49.9623 2
57.9963 58.2366 2
59.2119 53.9024 2
58.0293 55.7662 2
52.0684 66.9973 3.98475
52.9508 64.21 3.97916
56.6313 59.4582 3.96797
53.6717 61.5984 3.97456
54.2385 59.2829 3.97089
60.739 47.8244 3.97164
59.532 52.0516 3.96859
57.7472 49.5434 3.97221
56.7315 56.949 3.96563
56.9705 54.0633 3.96611
50.1074 67.8549 2
49.3356 65.9156 3.98195
47.4619 66.5758 2
46.8905 64.7271 3.98061
45.5568 67.0922 3.98206
43.9718 69.5874 3.98723
46.0545 69.156 2
46.608 71.3671 3.9915
48.1005 68.5764 0.0138005
48.8025 70.7226 2
49.554 73.0099 4
50.9476 69.9314 0.00890609
51.8506 72.1455 2
54.0858 71.1327 0
53.0639 6.07273 3.99047
55.104 7.14235 2
56.25 5.02411 4
58.3339 6.3199 2
57.0569 8.33757 0.0144312
60.3285 7.74928 0
65.9989 47.404 0.0324606
67.1631 43.4624 0.0307846
64.4859 44.8221 0.0269792
65.4124 41.1976 0.0237971
67.7865 39.5111 0.0304722
70.1259 37.5227 0.03194
67.8872 37.5236 2
65.6478 39.3648 2
65.0198 43.0055 2
63.5211 40.9083 2
63.7977 46.684 2
62.554 44.1748 2
65.7581 37.5036 3.97639
63.673 39.2577 3.97698
63.0832 42.5183 3.97653
62.1372 40.6722 3.97674
61.7079 45.8701 3.97389
61.132 43.6315 3.97631
67.827 35.5517 0.030535
67.2157 31.6319 0.0312382
65.5639 33.9415 0.0244267
64.5171 30.2196 0.0269538
60.7701 14.2426 0.0304651
60.5984 17.1505 0.0365277
60.1399 19.8599 0.0371377
63.4069 26.4496 0.0294131
62.0334 28.8271 0.0238294
60.8548 25.3954 0.0269668
59.4976 22.3221 0.0329478
58.7524 24.3983 0.026396
57.9007 14.3674 0.031719
55.2999 14.6979 0.0337137
54.0356 9.14404 0.0223521
54.7808 12.0392 0.0274812
65.7442 35.6754 2
65.0372 32.1763 2
64.079 34.2717 2
62.3524 30.6809 2
59.2978 15.6978 2
59.0801 18.3961 2
58.6064 20.9196 2
61.4374 27.128 2
60.5722 29.206 2
58.0628 23.1776 2
59.0741 25.876 2
57.7183 24.7578 2
56.6594 15.7867 2
54.3546 16.0586 2
53.7986 13.7178 2
52.112 8.15802 2
53.0548 11.0339 2
63.879 35.6457 3.97681
62.6796 33.081 3.97675
60.2991 30.6758 3.97642
59.2809 27.9881 3.97657
57.9161 17.024 3.96297
57.4491 25.8243 3.97635
57.6209 19.5378 3.9613
57.173 21.9277 3.96393
56.9112 24.0495 3.96904
50.1119 7.28861 3.98488
51.2301 10.1364 3.97594
52.1629 12.8268 3.97481
55.5085 17.0271 3.96476
52.9604 15.3193 3.96778
53.7275 17.048 3.96746
53.0418 68.9996 0.00908933
53.965 66.0094 0.0177771
63.0414 48.6257 0.0302762
54.6795 63.1965 0.0256362
57.8715 60.8439 0.0303952
55.1991 60.5806 0.0304306
61.6312 52.5403 0.0329586
60.0576 49.9628 0.0298084
57.9971 58.2354 0.0354534
58.0319 55.7672 0.0375552
59.2095 53.9024 0.032074
52.0688 66.9978 2
52.9508 64.2106 2
56.6308 59.4594 2
53.6708 61.598 2
54.2382 59.2851 2
60.7386 47.8237 2
59.533 52.0512 2
57.7443 49.5421 2
56.73 56.9532 2
56.9677 54.0618 2
51.1664 65.1218 3.98121
52.0399 62.5262 3.97623
55.4512 58.2151 3.96836
52.8169 60.0972 3.97614
53.6097 58.4324 3.97286
57.9491 46.7691 3.9752
57.3398 51.7183 3.96886
55.9135 49.4672 3.97106
55.3928 55.7424 3.96518
55.1717 53.3162 3.96305
50.1072 67.8546 0.0144947
49.3357 65.9158 2
48.6158 64.1144 3.98078
47.4617 66.5752 0.0181025
45.557 67.0929 2
46.8908 64.7276 2
46.3788 63.0418 3.9825
45.1311 65.1875 3.97998
43.6301 67.4633 3.98293
41.8595 69.8745 3.98682
43.9718 69.5879 2
44.3752 71.8617 3.99155
46.0543 69.1555 0.0133037
46.6088 71.3671 2
47.2057 73.7222 4
48.8015 70.7226 0.00867893
49.554 73.0099 2
51.8506 72.1454 0
50.9545 5.1331 3.99157
53.0654 6.07289 2
54.0858 3.86728 4
55.1018 7.14188 0.01179
56.25 5.02406 2
58.3339 6.31992 0
63.7995 46.6847 0.0287617
65.0225 43.0062 0.0250597
62.5562 44.1757 0.0234294
63.5237 40.9085 0.0231594
65.6507 39.3651 0.0235441
67.8876 37.5236 0.0304028
65.7552 37.5036 2
63.6706 39.2578 2
63.081 42.5177 2
62.1362 40.6717 2
61.7061 45.8692 2
61.1304 43.6309 2
63.736 37.4589 3.97681
61.8508 39.3404 3.97697
60.8778 41.917 3.97673
59.9119 44.706 3.97671
65.7468 35.6751 0.0238207
65.0396 32.1757 0.0258955
64.0816 34.2712 0.0232687
62.3543 30.68 0.0231685
59.2989 15.6973 0.0335535
59.0793 18.3963 0.0382737
58.6019 20.9191 0.0363483
61.439 27.1269 0.02575
60.5732 29.205 0.0229036
59.0744 25.8747 0.0238939
58.066 23.1754 0.0315785
57.7173 24.7555 0.0252542
56.6597 15.7878 0.0326834
54.3537 16.0574 0.0346666
53.799 13.7245 0.0297678
52.1111 8.15928 0.0192242
53.0537 11.0359 0.0261389
63.8766 35.6457 2
62.6782 33.0815 2
60.2985 30.6762 2
57.9152 17.0235 2
57.6267 19.5367 2
57.1726 21.9295 2
59.2799 27.9894 2
56.9172 24.0514 2
57.4491 25.827 2
50.1125 7.28682 2
55.5101 17.0267 2
53.7277 17.0459 2
52.9603 15.316 2
52.1641 12.8295 2
51.2315 10.1347 2
61.8911 35.3782 3.97667
59.929 32.7971 3.97652
58.2468 30.1587 3.97645
56.9429 27.4909 3.97696
56.5902 18.2116 3.96155
55.9825 25.2203 3.97509
56.2235 20.6035 3.9613
55.8595 22.9776 3.9626
48.0566 6.52951 3.98827
49.3236 9.3397 3.97932
50.427 12.0163 3.97568
51.3623 14.5393 3.96876
54.3713 17.9881 3.96229
52.3336 17.118 3.95908
52.0684 66.9973 0.0152481
52.9508 64.21 0.0208413
60.739 47.8244 0.0283601
53.6717 61.5984 0.0254432
56.6313 59.4582 0.0320299
54.2385 59.2829 0.0291055
59.532 52.0516 0.0314062
57.7472 49.5434 0.0277873
56.7315 56.949 0.0343749
56.9705 54.0633 0.0338876
51.1666 65.1225 2
52.0393 62.5273 2
55.4509 58.2164 2
52.8161 60.1006 2
53.6093 58.434 2
57.9483 46.7682 2
57.339 51.7172 2
55.909 49.4657 2
55.3921 55.7425 2
55.1749 53.3167 2
50.3431 63.3718 3.98078
51.232 60.9114 3.97619
54.1737 57.2286 3.97081
52.2835 58.5911 3.97246
56.2176 44.0802 3.97713
55.0939 47.7973 3.97411
54.7906 51.3071 3.96549
53.8805 54.4863 3.96535
49.3356 65.9156 0.0180473
48.616 64.1144 2
47.9572 62.4638 3.98102
45.5568 67.0922 0.0179445
46.8905 64.7271 0.0193902
43.6302 67.4638 2
46.3791 63.0424 2
45.1314 65.1882 2
45.9826 61.5727 3.98704
44.7648 63.44 3.97899
43.3559 65.4977 3.98016
41.6624 67.6814 3.98242
39.7017 70.0203 3.98663
41.8595 69.875 2
42.1096 72.2064 3.99191
43.9718 69.5874 0.0127728
44.3759 71.8618 2
44.8159 74.2794 4
46.608 71.3671 0.00850392
47.2057 73.7222 2
49.554 73.0099 0
48.7855 4.3236 3.99239
50.9554 5.13265 2
51.8506 2.85458 4
53.0639 6.07273 0.00952567
54.0858 3.86728 2
56.25 5.02411 0
61.7079 45.8701 0.026111
63.0832 42.5183 0.0234673
61.132 43.6315 0.0236943
62.1372 40.6722 0.0232637
63.673 39.2577 0.0230244
65.7581 37.5036 0.0236064
63.7335 37.4588 2
61.8504 39.3404 2
60.8777 41.9167 2
59.9116 44.7052 2
61.6829 37.4437 3.97694
59.8507 39.8192 3.97692
58.5552 42.8514 3.97655
63.879 35.6457 0.0231887
62.6796 33.081 0.0232528
60.2991 30.6758 0.0235837
57.9161 17.024 0.0370305
57.6209 19.5378 0.0387037
57.173 21.9277 0.0360727
59.2809 27.9881 0.0234254
57.4491 25.8243 0.0236545
56.9112 24.0495 0.0309642
55.5085 17.0271 0.0352427
53.7275 17.048 0.0325436
52.9604 15.3193 0.032221
50.1119 7.28861 0.0151228
52.1629 12.8268 0.0251867
51.2301 10.1364 0.0240587
61.8908 35.3784 2
59.9285 32.7971 2
58.2474 30.1584 2
56.5917 18.2114 2
56.229 20.6011 2
55.8638 22.9805 2
56.9425 27.4923 2
55.9802 25.2234 2
48.0569 6.52736 2
49.3247 9.33748 2
54.373 17.9881 2
52.3321 17.1126 2
51.361 14.5359 2
50.4287 12.0143 2
59.4914 35.145 3.97676
57.5378 32.3395 3.97599
56.1311 29.4517 3.97688
55.0525 26.7431 3.97647
55.2672 19.2609 3.96109
54.6384 24.1912 3.9658
54.8239 21.6654 3.96041
45.963 5.88332 3.98905
43.3745 7.47548 3.98532
47.3555 8.62828 3.98345
48.5966 11.3073 3.97534
49.7003 13.7694 3.97334
50.607 16.1838 3.97204
53.0697 18.7467 3.96013
51.263 18.1575 3.97395
51.1664 65.1218 0.0187896
52.0399 62.5262 0.0237749
57.9491 46.7691 0.0248007
52.8169 60.0972 0.0238572
55.4512 58.2151 0.0316439
53.6097 58.4324 0.0271395
57.3398 51.7183 0.03114
55.9135 49.4672 0.0289374
55.3928 55.7424 0.0348208
55.1717 53.3162 0.0369489
50.3429 63.3719 2
51.2309 60.9101 2
54.1747 57.2305 2
52.2824 58.5927 2
56.2179 44.0794 2
55.0922 47.796 2
54.7936 51.3071 2
53.8812 54.4882 2
49.5849 61.7346 3.97884
55.0057 41.6541 3.97465
50.5433 59.2974 3.97099
52.1247 56.4493 3.96782
53.6553 45.4426 3.97456
52.9555 49.2269 3.96929
52.4636 52.7817 3.96159
48.6158 64.1144 0.0192153
47.9571 62.4631 2
47.3203 60.9962 3.98658
43.6301 67.4633 0.0170693
45.1311 65.1875 0.02002
46.3788 63.0418 0.0174976
41.6627 67.6814 2
43.3561 65.4984 2
45.9824 61.5738 2
44.7653 63.4406 2
45.7563 60.6178 3.98484
44.4802 61.8172 3.98037
43.1451 63.7128 3.97871
41.5456 65.6346 3.97862
39.632 67.7593 3.98221
37.5259 70.0448 3.98538
39.7017 70.0208 2
39.8166 72.4028 3.99166
41.8595 69.8745 0.0131821
42.1102 72.2066 2
42.3947 74.6792 4
44.3752 71.8617 0.00845314
44.8159 74.2794 2
47.2057 73.7222 0
43.852 5.36057 3.98858
46.5715 3.64775 3.99263
48.7859 4.32276 2
49.554 1.99015 4
50.9545 5.1331 0.00842698
51.8506 2.85453 2
54.0858 3.86728 0
59.9119 44.706 0.0232866
60.8778 41.917 0.023268
61.8508 39.3404 0.0230314
63.736 37.4589 0.0231853
61.6824 37.4437 2
59.8512 39.8188 2
58.5556 42.8509 2
59.3466 37.5668 3.97729
57.495 40.6124 3.97707
54.4138 39.6688 3.97523
61.8911 35.3782 0.0233297
59.929 32.7971 0.0234834
58.2468 30.1587 0.0235545
56.5902 18.2116 0.0384462
56.2235 20.6035 0.0387021
55.8595 22.9776 0.0374003
56.9429 27.4909 0.0230403
55.9825 25.2203 0.0249117
54.3713 17.9881 0.0377065
52.3336 17.118 0.0409175
51.3623 14.5393 0.0312371
48.0566 6.52951 0.0117276
49.3236 9.3397 0.020678
50.427 12.0163 0.0243238
59.4922 35.145 2
45.9627 5.88282 2
43.3743 7.47472 2
57.5386 32.3402 2
56.1312 29.4517 2
55.2614 19.2627 2
54.8351 21.667 2
54.6353 24.1938 2
55.0502 26.7455 2
47.3561 8.62415 2
48.5983 11.3043 2
53.0692 18.7389 2
51.2644 18.156 2
50.6072 16.184 2
49.7002 13.7698 2
56.8802 34.7953 3.97714
55.2222 31.6082 3.97617
54.0512 28.5503 3.97728
53.429 25.662 3.97662
53.8648 20.2284 3.96015
53.3662 22.8482 3.95479
41.3997 7.08142 3.98509
45.361 7.9954 3.98719
42.8668 9.41925 3.98137
46.6661 10.6614 3.98104
47.7347 13.12 3.97626
48.9098 15.4359 3.97081
49.9653 17.7489 3.96669
51.5812 19.4366 3.96765
50.3431 63.3718 0.0192225
51.232 60.9114 0.0238111
56.2176 44.0802 0.0228729
55.0939 47.7973 0.0258941
52.2835 58.5911 0.0275447
54.1737 57.2286 0.0291898
54.7906 51.3071 0.0345113
53.8805 54.4863 0.0346485
49.584 61.7342 2
54.9994 41.6502 2
50.5423 59.2974 2
52.126 56.452 2
53.6531 45.4411 2
52.9648 49.2268 2
52.4654 52.7823 2
48.8328 60.1888 3.97593
51.8078 42.5259 3.98299
49.7449 57.5942 3.96747
50.4658 54.3801 3.96371
51.32 47.1496 3.97505
50.9276 50.8622 3.95486
47.4853 43.6355 3.97868
47.9572 62.4638 0.0189816
47.3197 60.9955 2
46.6033 59.7844 3.99056
41.6624 67.6814 0.017578
43.3559 65.4977 0.0198352
44.7648 63.44 0.0210082
45.9826 61.5727 0.0129594
39.6324 67.7602 2
41.5456 65.6338 2
45.7562 60.6186 2
43.1456 63.7134 2
44.4796 61.8184 2
44.6128 60.2754 3.99124
42.9477 62.065 3.97462
41.5996 63.8051 3.97844
39.6471 65.6002 3.97793
37.563 67.7397 3.98019
31.6977 65.1164 3.97819
33.3923 67.4775 3.98009
35.3338 69.9549 3.98545
37.5257 70.0459 2
37.509 72.4573 3.99209
39.7017 70.0203 0.0133696
39.8171 72.4031 2
39.9526 74.9197 4
42.1096 72.2064 0.00809423
42.3947 74.6792 2
44.8159 74.2794 0
41.7366 4.96954 3.9889
43.8521 5.35961 2
44.3267 3.11098 3.99294
46.5716 3.64748 2
47.2057 1.27793 4
48.7855 4.3236 0.00760569
49.554 1.99013 2
51.8506 2.85458 0
58.5552 42.8514 0.023454
59.8507 39.8192 0.0230798
61.6829 37.4437 0.0230587
59.347 37.5677 2
57.4949 40.6129 2
54.4073 39.6733 2
56.2504 37.8829 3.97699
48.8351 41.2338 3.97917
52.3997 39.3069 3.98381
39.4434 6.80522 3.98559
59.4914 35.145 0.0232378
57.5378 32.3395 0.0240146
56.1311 29.4517 0.0231187
55.2672 19.2609 0.038911
54.8239 21.6654 0.0395914
54.6384 24.1912 0.0342042
55.0525 26.7431 0.0235278
53.0697 18.7467 0.0398684
51.263 18.1575 0.0260512
50.607 16.1838 0.0279576
45.963 5.88332 0.0109503
49.7003 13.7694 0.026663
47.3555 8.62828 0.0165526
48.5966 11.3073 0.0246574
43.3745 7.47548 0.0146754
56.8799 34.7961 2
41.3998 7.08036 2
45.3603 7.99533 2
42.8663 9.41911 2
55.2252 31.6069 2
54.0519 28.5502 2
53.8672 20.2343 2
53.3633 22.8461 2
53.426 25.6633 2
46.6669 10.654 2
47.7359 13.1145 2
51.5859 19.4368 2
49.9644 17.7457 2
48.9076 15.4395 2
54.2347 33.9917 3.97542
52.9499 30.6447 3.97665
52.1473 27.3844 3.97503
51.884 24.2745 3.97805
52.2601 21.1786 3.97089
41.0139 9.05433 3.98033
44.727 9.99475 3.98563
42.4664 10.9044 3.9928
45.997 12.7395 3.97552
47.6621 14.6083 3.97061
48.0722 17.0157 3.96855
49.7714 19.8064 3.97116
49.5849 61.7346 0.0211552
50.5433 59.2974 0.0290104
55.0057 41.6541 0.0253533
53.6553 45.4426 0.0254385
52.9555 49.2269 0.0307086
52.1247 56.4493 0.0321823
52.4636 52.7817 0.0384114
48.8312 60.187 2
51.8258 42.5353 2
49.7429 57.5947 2
50.4666 54.3832 2
51.3267 47.1498 2
50.9306 50.8616 2
47.4993 43.6634 2
47.9569 58.7184 3.97822
49.4557 45.161 3.9802
48.5179 55.8847 3.96353
48.9413 52.5389 3.97603
49.3062 48.9477 3.97299
45.2335 39.8144 3.86713
45.7166 42.518 3.90059
45.9378 45.6456 3.98253
43.0529 41.0441 3.71478
41.6781 41.8875 3.5277
47.3203 60.9962 0.013419
46.602 59.7833 2
45.4461 58.7852 3.99157
39.632 67.7593 0.0177946
41.5456 65.6346 0.0213847
43.1451 63.7128 0.0212928
44.4802 61.8172 0.0196299
45.7563 60.6178 0.0151648
41.5998 63.8048 2
37.5633 67.7407 2
39.6471 65.6013 2
44.6133 60.2769 2
42.9471 62.0656 2
41.7509 62.4747 3.97699
42.4739 59.9564 3.97881
39.8941 63.5369 3.97668
37.642 65.4958 3.97697
35.4634 67.6491 3.98012
33.5755 65.3291 3.97677
31.9603 63.2825 3.97693
29.8846 64.7081 3.98078
31.6976 65.1174 2
31.3773 67.1874 3.98058
33.3925 67.4786 2
33.1572 69.7486 3.98556
35.3336 69.9559 2
35.1954 72.3716 3.99199
37.5259 70.0448 0.0146187
37.5092 72.4578 2
37.5 75 4
39.8166 72.4028 0.0083398
39.9526 74.9197 2
42.3947 74.6792 0
39.6244 4.71737 3.98947
41.7367 4.96871 2
42.0631 2.71829 3.99326
43.852 5.36057 0.0114183
44.3268 3.1103 2
44.8158 0.721173 4
46.5715 3.64775 0.00737311
47.2057 1.27779 2
49.554 1.99015 0
57.495 40.6124 0.0229342
59.3466 37.5668 0.0227146
54.4138 39.6688 0.0247667
48.8631 41.2511 2
56.2494 37.8807 2
52.3976 39.2756 2
53.255 36.6268 3.97807
46.7608 40.3322 3.90327
49.7798 38.5141 3.98599
37.5174 6.67619 3.98565
39.4435 6.80358 2
39.2116 8.6963 3.98303
35.9436 8.49559 3.98425
56.8802 34.7953 0.0228555
55.2222 31.6082 0.0238346
54.0512 28.5503 0.0227181
53.8648 20.2284 0.0398456
53.3662 22.8482 0.0452136
53.429 25.662 0.0233783
51.5812 19.4366 0.0323472
49.9653 17.7489 0.033312
48.9098 15.4359 0.0291891
45.361 7.9954 0.0128144
47.7347 13.12 0.0237379
46.6661 10.6614 0.018959
41.3997 7.08142 0.0149104
42.8668 9.41925 0.0186309
54.2315 33.9922 2
41.0141 9.05345 2
44.725 9.99545 2
42.4663 10.9057 2
52.9467 30.6438 2
52.1553 27.3849 2
52.2649 21.1808 2
51.8828 24.2804 2
45.9981 12.7282 2
47.6606 14.6013 2
49.7777 19.8079 2
48.0688 17.0138 2
51.7554 32.9006 3.98232
50.7613 29.3424 3.97695
50.4341 25.8932 3.97132
49.816 22.4022 3.9854
40.5676 11.6156 3.98162
43.8534 11.9109 3.97975
45.7802 15.4444 3.9864
47.4692 19.412 3.97828
45.677 37.4792 3.86167
48.8328 60.1888 0.0240693
49.7449 57.5942 0.0325299
51.8078 42.5259 0.0170145
51.32 47.1496 0.0249499
50.9276 50.8622 0.0451365
50.4658 54.3801 0.0362919
47.4853 43.6355 0.0213174
47.9551 58.7209 2
49.4708 45.1743 2
48.514 55.8866 2
48.9421 52.5443 2
49.3124 48.9467 2
45.3037 39.8307 2
45.746 42.5611 2
45.9469 45.6548 2
43.0841 41.0784 2
41.7073 41.9107 2
46.7919 57.3225 3.97678
43.7902 39.3532 3.7173
42.0369 40.7878 3.56095
47.5928 47.1854 3.98063
47.0494 54.1977 3.96473
47.3393 50.6862 3.97852
44.4075 47.271 3.97514
44.3652 41.8629 3.853
44.4252 44.3897 3.90807
42.0212 42.4993 3.74657
40.6558 42.191 3.53924
46.6033 59.7844 0.00944285
45.4454 58.7841 2
43.8528 57.6828 3.97981
37.563 67.7397 0.0198095
39.6471 65.6002 0.0220701
41.5996 63.8051 0.0215579
42.9477 62.065 0.0253815
44.6128 60.2754 0.00875507
35.4637 67.65 2
41.7503 62.4769 2
39.8938 63.5378 2
37.6421 65.4965 2
42.4748 59.9558 2
40.6218 61.6197 3.97928
40.4365 58.1484 3.97926
37.8378 63.1935 3.97499
35.5729 65.4183 3.97743
33.5758 65.33 2
31.9602 63.284 2
33.6296 63.3209 3.97523
30.3795 62.8431 3.98011
32.1264 61.9856 3.98524
26.8762 61.4756 3.97713
28.0647 64.1363 3.97827
29.8842 64.7092 2
29.4072 66.7514 3.9815
31.6977 65.1164 0.0218142
31.3774 67.1884 2
31.0149 69.4136 3.9853
33.3923 67.4775 0.019906
33.157 69.7495 2
32.8932 72.1461 3.99171
35.3338 69.9549 0.014547
35.1951 72.3723 2
35.0474 74.9194 4
37.509 72.4573 0.00791411
37.5 75 2
39.9526 74.9197 0
35.622 6.7271 3.98535
37.5241 4.61678 3.9896
39.6245 4.71599 2
39.7896 2.47495 3.99319
41.7366 4.96954 0.0110989
42.063 2.71776 2
42.3946 0.32156 4
44.3267 3.11098 0.00705885
44.8159 0.72056 2
47.2057 1.27793 0
48.8351 41.2338 0.0208298
56.2504 37.8829 0.0230103
52.3997 39.3069 0.0161927
46.7873 40.3263 2
49.7818 38.5096 2
53.2555 36.6439 2
50.5797 35.5725 3.97496
47.4319 37.7693 3.91899
45.2489 35.1629 3.86541
43.0737 33.9239 3.71205
41.6993 33.0853 3.52583
37.4591 8.53739 3.98458
37.5174 6.67492 2
39.4434 6.80522 0.0144085
39.212 8.69436 2
38.9768 10.1316 3.98348
35.8998 9.77772 3.98032
34.1532 8.82714 3.98228
35.9434 8.49369 2
54.2347 33.9917 0.0245785
52.9499 30.6447 0.0233507
52.1473 27.3844 0.0249687
52.2601 21.1786 0.0291076
51.884 24.2745 0.0219545
49.7714 19.8064 0.028838
48.0722 17.0157 0.0314497
47.6621 14.6083 0.0293935
44.727 9.99475 0.0143702
45.997 12.7395 0.0244766
41.0139 9.05433 0.0196651
42.4664 10.9044 0.00719955
51.761 32.8976 2
40.569 11.6161 2
43.8516 11.9148 2
50.7833 29.3406 2
50.4345 25.8942 2
49.8181 22.402 2
45.7749 15.4162 2
47.4716 19.432 2
49.3237 31.5268 3.98756
48.8297 27.6611 3.97798
49.1447 24.5548 3.97616
47.1135 22.1701 3.98662
38.3013 12.7441 3.97725
42.0932 14.3081 3.97993
44.7769 18.5615 3.97515
44.1929 37.4866 3.72552
45.7645 37.4828 2
47.9569 58.7184 0.0217847
48.5179 55.8847 0.036468
49.4557 45.161 0.0198046
49.3062 48.9477 0.0270054
48.9413 52.5389 0.0239666
45.2335 39.8144 0.132868
45.7166 42.518 0.0994135
45.9378 45.6456 0.0174706
43.0529 41.0441 0.285224
41.6781 41.8875 0.472297
46.7892 57.3246 2
43.8412 39.3759 2
42.0372 40.802 2
47.6003 47.1884 2
47.0451 54.202 2
47.3427 50.6941 2
44.4314 47.2531 2
44.3985 41.8903 2
44.4661 44.4128 2
42.0719 42.5421 2
40.6809 42.1986 2
45.3324 55.9051 3.99231
42.3764 39.2354 3.5708
40.5411 40.6676 3.67595
45.7641 48.8364 3.99978
45.3613 52.4715 3.9811
43.1405 48.2626 3.99481
43.0536 45.9079 3.89725
43.172 43.6317 3.84063
40.7663 43.5561 3.7235
39.2034 42.4555 3.56479
45.4461 58.7852 0.00843272
43.8512 57.6871 2
42.0802 56.2702 3.98435
35.4634 67.6491 0.0198773
37.642 65.4958 0.0230276
39.8941 63.5369 0.0233212
41.7509 62.4747 0.0230056
42.4739 59.9564 0.0211938
35.5731 65.4191 2
40.622 61.6191 2
37.8378 63.1938 2
40.4372 58.1491 2
38.9111 56.4411 3.99372
38.2498 60.3052 3.97973
35.6075 63.1877 3.97498
33.5755 65.3291 0.0232261
31.9603 63.2825 0.0230731
33.6298 63.322 2
30.3794 62.8442 2
32.1271 61.9871 2
28.6857 62.1818 3.97937
33.3473 61.4933 3.97719
31.0735 61.2066 3.98043
27.5836 59.5673 3.9799
23.8134 59.0554 3.98595
25.0435 60.8495 3.97722
26.8765 61.4757 2
26.2328 63.4656 3.97757
28.0645 64.1353 2
27.4642 66.1758 3.98094
29.8846 64.7081 0.0192164
29.4071 66.7518 2
28.9075 68.9393 3.98493
31.3773 67.1874 0.0194209
31.0147 69.4142 2
30.616 71.7774 3.99115
33.1572 69.7486 0.0144372
32.8925 72.1465 2
32.6054 74.6784 4
35.1954 72.3716 0.00800529
35.0474 74.9197 2
37.5 75 0
33.725 6.98293 3.98424
35.4362 4.68687 3.98947
35.6219 6.72594 2
37.5153 2.38742 3.99324
37.5241 4.61582 2
39.6244 4.71737 0.0105263
39.7894 2.47421 2
39.9526 0.0806499 4
42.0631 2.71829 0.0067404
42.3947 0.320817 2
44.8158 0.721173 0
43.799 35.6211 3.71868
42.0501 34.1803 3.55283
46.7608 40.3322 0.0967256
49.7798 38.5141 0.0140137
53.255 36.6268 0.0219266
47.4281 37.736 2
50.5879 35.566 2
45.3135 35.1392 2
43.1119 33.8867 2
41.7255 33.0622 2
47.6174 34.3146 3.95015
44.3921 33.0947 3.84158
42.0508 32.4765 3.74259
40.6745 32.7919 3.53754
37.3116 10.6346 3.98113
37.4593 8.53578 2
37.5174 6.67619 0.014353
39.2116 8.6963 0.0169677
38.9784 10.1301 2
34.756 10.3867 3.98116
35.9005 9.77406 2
32.3802 9.37459 3.979
34.1519 8.82417 2
35.9436 8.49559 0.0157505
51.7554 32.9006 0.0176775
50.7613 29.3424 0.0230511
50.4341 25.8932 0.0286838
49.816 22.4022 0.0145971
47.4692 19.412 0.0217154
45.7802 15.4444 0.0136003
43.8534 11.9109 0.0202513
40.5676 11.6156 0.0183769
49.3409 31.5237 2
38.3016 12.742 2
42.0956 14.3152 2
48.8396 27.6619 2
49.1459 24.5515 2
47.1049 22.1615 2
44.7782 18.6052 2
47.1993 29.6535 3.98578
46.8323 25.2915 3.97399
44.2392 21.5371 3.9791
36.5848 12.9498 3.97482
38.6823 14.8391 3.97526
41.7401 17.9057 3.97749
42.5201 37.4736 3.60356
44.2413 37.4853 2
45.677 37.4792 0.138328
46.7919 57.3225 0.0232209
47.0494 54.1977 0.0352746
47.5928 47.1854 0.019375
47.3393 50.6862 0.021482
43.7902 39.3532 0.282703
44.3652 41.8629 0.146996
44.4252 44.3897 0.0919308
44.4075 47.271 0.0248637
42.0212 42.4993 0.253425
42.0369 40.7878 0.439052
40.6558 42.191 0.460765
45.3287 55.9064 2
42.3734 39.2396 2
40.5581 40.6512 2
45.7692 48.8488 2
45.3585 52.4754 2
43.1541 48.2811 2
43.1078 45.9485 2
43.2177 43.6624 2
40.8004 43.6112 2
39.201 42.4656 2
43.6591 54.3803 3.99888
40.6467 39.0926 3.69092
39.0881 40.7378 3.65134
43.4634 50.3386 4.00514
41.765 47.4367 3.93323
41.6745 45.0107 3.85429
39.3375 44.2139 3.70256
37.5036 42.5559 3.59838
43.8528 57.6828 0.0201869
42.0803 56.2709 2
40.3893 54.8473 3.98943
35.5729 65.4183 0.0225746
37.8378 63.1935 0.0250132
40.6218 61.6197 0.0207184
40.4365 58.1484 0.0207359
35.6076 63.1877 2
38.2501 60.3059 2
38.9124 56.4324 2
37.9873 55.1348 3.99375
36.9334 57.6025 3.99037
35.365 60.8926 3.9782
33.6296 63.3209 0.0247694
30.3795 62.8431 0.0198946
32.1264 61.9856 0.0147587
33.3481 61.4945 2
28.6858 62.1829 2
31.0744 61.2089 2
29.4148 60.2642 3.97609
32.3645 59.7168 3.98852
28.0493 58.3499 4.00134
27.5855 59.5677 2
25.4018 58.5716 3.97884
22.7911 58.2088 3.96898
23.412 60.3223 3.9789
23.815 59.0558 2
25.044 60.8492 2
24.4374 62.756 3.97696
26.8762 61.4756 0.0228666
26.2332 63.4665 2
25.549 65.4839 3.97937
28.0647 64.1363 0.021732
27.4642 66.1759 2
26.8372 68.328 3.98499
29.4072 66.7514 0.0185028
28.9072 68.9394 2
28.3711 71.2626 3.99065
31.0149 69.4136 0.0147006
30.6151 71.7775 2
30.1842 74.2788 4
32.8932 72.1461 0.00828515
32.6053 74.6792 2
35.0474 74.9194 0
31.7896 7.42286 3.98275
33.3488 4.92654 3.98864
33.7246 6.98092 2
35.2457 2.46335 3.99321
35.4359 4.68623 2
35.622 6.7271 0.0146525
37.5 0 4
37.5148 2.38692 2
37.5241 4.61678 0.0103957
39.7896 2.47495 0.00681422
39.9526 0.0802889 2
42.3946 0.32156 0
42.3676 35.712 3.565
43.8633 35.5916 2
40.5631 34.3097 3.67562
42.0465 34.1648 2
47.4319 37.7693 0.0810148
50.5797 35.5725 0.0250435
45.2489 35.1629 0.134593
43.0737 33.9239 0.28795
41.6993 33.0853 0.474165
47.6324 34.3361 2
44.426 33.0737 2
42.104 32.4308 2
40.6992 32.7835 2
45.6891 31.7086 3.91496
43.2005 31.343 3.83686
40.7893 31.4252 3.72376
39.2181 32.5421 3.56182
35.6951 11.7834 3.97882
37.3138 10.6321 2
37.4591 8.53739 0.015421
38.9768 10.1316 0.0165217
33.1013 11.2261 3.97497
34.7549 10.3815 2
35.8998 9.77772 0.0196822
30.4852 10.0243 3.97898
32.3789 9.37327 2
34.1532 8.82714 0.0177215
49.3237 31.5268 0.012437
48.8297 27.6611 0.0220173
49.1447 24.5548 0.0238432
47.1135 22.1701 0.0133809
44.7769 18.5615 0.0248468
42.0932 14.3081 0.0200686
38.3013 12.7441 0.0227535
36.5818 12.9349 2
47.2164 29.6103 2
38.6799 14.8223 2
41.7329 17.9001 2
46.8366 25.2881 2
44.2308 21.5169 2
45.1302 27.7885 4.00449
43.64 24.2234 4.0219
41.3068 20.907 3.98248
35.7736 14.7888 3.97708
38.6779 17.6398 3.97966
40.7009 37.4648 3.70451
42.5268 37.4772 2
44.1929 37.4866 0.274477
45.3324 55.9051 0.00769439
45.3613 52.4715 0.0189031
45.7641 48.8364 0.000222826
42.3764 39.2354 0.429202
43.172 43.6317 0.159368
43.0536 45.9079 0.102749
43.1405 48.2626 0.00518867
40.7663 43.5561 0.276499
40.5411 40.6676 0.324046
39.2034 42.4555 0.435209
43.6548 54.379 2
40.6439 39.0906 2
39.09 40.7267 2
43.4603 50.3582 2
41.7585 47.4675 2
41.6995 45.0508 2
37.5003 42.5696 2
39.3517 44.2682 2
41.8156 52.8782 3.9966
39.1004 39.1158 3.66798
37.5063 40.7904 3.67416
35.8061 42.4639 3.5654
40.8401 49.5032 3.99498
39.7571 45.7924 3.83064
37.5025 44.4611 3.72408
42.0802 56.2702 0.0156451
40.3849 54.8587 2
38.7216 53.6911 3.99596
35.6075 63.1877 0.02502
38.2498 60.3052 0.0202705
38.9111 56.4411 0.00628432
35.3654 60.8918 2
36.9344 57.6026 2
37.987 55.1338 2
36.321 55.2003 3.99498
34.4933 58.4986 3.99061
33.3473 61.4933 0.022808
28.6857 62.1818 0.0206295
31.0735 61.2066 0.0195671
32.3654 59.7202 2
29.4159 60.2635 2
30.3235 57.7886 3.98486
28.0516 58.3497 2
26.9993 56.8041 3.96942
27.5836 59.5673 0.0201009
25.4042 58.5721 2
23.9001 56.7692 3.96075
21.3852 57.3588 3.96108
22.0104 59.5894 3.97397
22.7927 58.2104 2
22.7426 62.0073 3.97506
23.4127 60.3222 2
23.8134 59.0554 0.014046
25.0435 60.8495 0.0227766
24.4378 62.7574 2
23.6839 64.7005 3.97807
26.2328 63.4656 0.022432
25.549 65.4853 2
24.8096 67.5887 3.98406
27.4642 66.1758 0.0190578
26.8369 68.3287 2
26.1663 70.6036 3.99071
28.9075 68.9393 0.0150659
28.3702 71.2625 2
27.7943 73.7221 4
30.616 71.7774 0.00884767
30.1841 74.2794 2
32.6054 74.6784 0
29.8123 7.9976 3.98146
31.2542 5.33344 3.98765
31.7889 7.42133 2
32.9816 2.70161 3.99286
33.3482 4.92526 2
33.725 6.98293 0.0157608
35.0474 0.080333 4
35.2451 2.46312 2
35.4362 4.68687 0.010533
37.5 0 2
37.5153 2.38742 0.00675513
39.9526 0.0806499 0
40.6698 35.855 3.69009
42.3668 35.7142 2
43.799 35.6211 0.281321
28.5454 10.6992 3.97823
39.0926 34.2593 3.65052
40.5671 34.3233 2
42.0501 34.1803 0.447166
47.6174 34.3146 0.0498521
44.3921 33.0947 0.158421
42.0508 32.4765 0.25741
40.6745 32.7919 0.46246
45.7211 31.6882 2
43.2422 31.3109 2
40.8267 31.3689 2
39.2216 32.5343 2
44.0115 29.906 3.9104
41.6802 29.9617 3.85605
39.3557 30.7767 3.70148
37.5239 32.4526 3.5978
34.0971 12.9496 3.97425
35.6937 11.7741 2
37.3116 10.6346 0.0188717
31.1898 11.9949 3.97787
33.1008 11.2246 2
34.756 10.3867 0.0188383
30.4834 10.0217 2
32.3802 9.37459 0.0209999
47.1993 29.6535 0.0142187
46.8323 25.2915 0.0260131
36.5848 12.9498 0.0251845
44.2392 21.5371 0.0209036
41.7401 17.9057 0.0225139
38.6823 14.8391 0.0247398
35.7754 14.7945 2
45.1337 27.7853 2
38.6735 17.6471 2
41.2973 20.9022 2
43.6372 24.2091 2
33.6122 15.899 3.97921
42.7959 26.636 3.99181
40.8161 23.4935 3.99764
38.4063 20.4107 3.99209
35.8485 17.5434 3.97899
39.1133 37.4871 3.68658
40.6927 37.4667 2
42.5201 37.4736 0.396443
43.6591 54.3803 0.00112448
43.4634 50.3386 -0.00513741
40.6467 39.0926 0.309082
41.6745 45.0107 0.145714
41.765 47.4367 0.0667696
39.3375 44.2139 0.297439
39.0881 40.7378 0.348658
37.5036 42.5559 0.401619
41.8058 52.8805 2
39.0938 39.1019 2
37.5048 40.7749 2
40.8344 49.5239 2
35.8033 42.4718 2
39.7792 45.8457 2
37.4927 44.5084 2
39.753 51.7041 4.00204
37.5077 39.1223 3.69988
35.9296 40.751 3.65176
34.351 42.2072 3.54
35.6717 44.228 3.69514
38.6662 48.438 3.94722
37.5203 46.081 3.85598
40.3893 54.8473 0.0105685
38.7204 53.6764 2
36.7486 52.9978 3.99686
35.365 60.8926 0.0217993
36.9334 57.6025 0.00962607
37.9873 55.1348 0.00625139
34.4939 58.4976 2
36.3219 55.1998 2
33.251 55.3905 3.99221
32.3645 59.7168 0.011477
29.4148 60.2642 0.0239084
30.3259 57.7869 2
28.7751 55.2867 3.9823
28.0493 58.3499 -0.00134165
27.0014 56.8042 2
25.4088 55.1025 3.96268
21.9048 55.3004 3.96086
25.4018 58.5716 0.0211613
23.9016 56.7717 2
20.262 56.9893 3.9642
20.6688 58.7419 3.9709
21.3867 57.3602 2
21.1758 61.1447 3.97415
22.0112 59.59 2
22.7911 58.2088 0.0310199
21.8983 63.8272 3.97747
22.7432 62.0084 2
23.412 60.3223 0.0210952
24.4374 62.756 0.023045
23.6838 64.7014 2
22.8382 66.7314 3.98231
25.549 65.4839 0.0206336
24.8094 67.5898 2
24.0105 69.8049 3.99055
26.8372 68.328 0.0150112
26.1652 70.6037 2
25.446 73.0099 4
28.3711 71.2626 0.00934768
27.7943 73.7222 2
30.1842 74.2788 0
27.8221 8.65713 3.98146
29.1565 5.87972 3.9862
29.8112 7.99538 2
30.7271 3.09853 3.99259
31.2535 5.33211 2
31.7896 7.42286 0.0172494
32.6053 0.320823 4
32.9808 2.70109 2
33.3488 4.92654 0.0113594
35.0474 0.0802903 2
35.2457 2.46335 0.00678595
37.5 0 0
39.0967 35.8706 3.67251
40.6542 35.8569 2
42.3676 35.712 0.434996
28.5439 10.6978 2
26.6237 11.3955 3.97841
29.2293 12.6492 3.98028
37.5147 34.2203 3.67257
39.1009 34.2756 2
40.5631 34.3097 0.324377
45.6891 31.7086 0.0850446
43.2005 31.343 0.163139
40.7893 31.4252 0.276241
39.2181 32.5421 0.438178
44.0386 29.881 2
41.7069 29.9247 2
39.3622 30.7213 2
37.5244 32.4384 2
42.1123 28.5959 3.88249
39.7515 29.1883 3.85153
37.5205 30.5475 3.72265
35.8227 32.5466 3.56544
31.9216 14.4938 3.97921
34.097 12.9511 2
35.6951 11.7834 0.0211841
31.1887 11.9913 2
33.1013 11.2261 0.0250283
30.4852 10.0243 0.0210166
45.1302 27.7885 -0.00448654
43.64 24.2234 -0.0218979
35.7736 14.7888 0.0229171
41.3068 20.907 0.017519
38.6779 17.6398 0.0203412
33.6096 15.8932 2
35.8448 17.5447 2
42.8044 26.6289 2
38.393 20.4384 2
40.8044 23.4699 2
33.5528 17.4184 3.9803
40.2389 25.8716 3.95794
38.0496 23.2089 3.99974
35.582 20.132 3.99202
37.51 37.4944 3.71673
39.1058 37.4829 2
40.7009 37.4648 0.295489
41.8156 52.8782 0.00340317
40.8401 49.5032 0.0050215
39.1004 39.1158 0.332023
39.7571 45.7924 0.169357
37.5025 44.4611 0.275915
37.5063 40.7904 0.32584
35.8061 42.4639 0.434601
39.7454 51.7119 2
37.5089 39.115 2
35.9274 40.739 2
38.6765 48.4894 2
34.3271 42.2154 2
35.6503 44.2837 2
37.5146 46.1299 2
37.6731 50.736 3.998
35.9239 39.1312 3.67169
34.4759 40.6917 3.67789
33.3236 41.9072 3.52963
34.2361 43.5651 3.72092
35.2155 45.802 3.84657
36.925 48.0465 3.91384
38.7216 53.6911 0.00404382
36.7556 52.9983 2
34.4276 52.3262 3.99966
34.4933 58.4986 0.00938734
36.321 55.2003 0.00502191
33.2538 55.3946 2
30.6121 53.2889 3.99757
30.3235 57.7886 0.0151444
28.7767 55.2865 2
27.0256 53.3924 3.96356
26.9993 56.8041 0.0305769
25.4101 55.1059 2
23.737 53.4221 3.95781
20.6679 53.1515 3.95978
20.0064 55.7857 3.96247
21.9021 55.3026 2
23.9001 56.7692 0.0392526
19.466 57.8537 3.96804
20.2612 56.9907 2
19.7181 60.1651 3.97173
20.6686 58.7429 2
21.3852 57.3588 0.0389226
20.2119 62.8481 3.97442
21.1765 61.1467 2
22.0104 59.5894 0.0260253
20.9397 65.7595 3.98055
21.8982 63.8284 2
22.7426 62.0073 0.0249387
23.6839 64.7005 0.0219258
22.8379 66.732 2
21.9131 68.872 3.98994
24.8096 67.5887 0.0159435
24.0091 69.8047 2
23.1494 72.1454 4
26.1663 70.6036 0.00929159
25.446 73.0099 2
27.7943 73.7221 0
25.8611 9.38612 3.98049
27.0711 6.54383 3.98509
27.8206 8.65591 2
28.4895 3.64441 3.99188
29.1555 5.87829 2
29.8123 7.9976 0.018544
30.1841 0.720592 4
30.7259 3.0981 2
31.2542 5.33344 0.0123494
32.6053 0.320817 2
32.9816 2.70161 0.00713856
35.0474 0.080333 0
37.5098 35.8723 3.69772
39.0828 35.8745 2
40.6698 35.855 0.309911
24.7796 12.0833 3.97721
23.7582 14.3769 3.97529
28.5454 10.6992 0.021767
26.6224 11.3945 2
29.2282 12.6481 2
27.2961 13.3824 3.9788
29.7882 14.21 3.98062
35.9321 34.2623 3.65067
37.5205 34.2366 2
39.0926 34.2593 0.349479
37.5239 32.4526 0.4022
44.0115 29.906 0.0895952
41.6802 29.9617 0.143946
39.3557 30.7767 0.298518
42.1404 28.5487 2
39.7669 29.1386 2
37.5231 30.496 2
35.8221 32.5366 2
39.9188 27.8257 3.8886
37.4941 28.9197 3.85363
35.6886 30.7942 3.70547
34.3692 32.8033 3.54014
30.9356 16.8531 3.98337
31.9198 14.4876 2
34.0971 12.9496 0.02575
31.1898 11.9949 0.0221344
42.7959 26.636 0.00818762
40.8161 23.4935 0.00236407
33.6122 15.899 0.0207945
35.8485 17.5434 0.021006
38.4063 20.4107 0.00791244
33.5485 17.4275 2
35.584 20.1317 2
40.3008 25.869 2
38.0327 23.1757 2
32.8763 19.8211 3.99327
37.6724 25.5184 3.9708
35.2085 22.8783 3.99963
35.9065 37.4964 3.68852
37.5069 37.4948 2
39.1133 37.4871 0.313418
39.753 51.7041 -0.00204151
38.6662 48.438 0.0527785
37.5077 39.1223 0.30012
37.5203 46.081 0.144016
35.6717 44.228 0.304862
35.9296 40.751 0.348237
34.351 42.2072 0.46
37.6623 50.7636 2
35.9356 39.118 2
34.4587 40.6779 2
36.9041 48.1006 2
33.2934 41.9299 2
34.2067 43.6186 2
35.1949 45.8486 2
35.5393 49.9159 3.98588
34.3699 39.1296 3.69061
32.9714 40.8115 3.55725
32.9787 42.5145 3.74764
33.3529 45.0174 3.84921
34.4086 47.178 3.88648
36.7486 52.9978 0.00314115
34.4236 52.3331 2
32.1558 51.1018 4.01836
33.251 55.3905 0.00778697
30.6139 53.2928 2
28.608 51.5175 3.99006
28.7751 55.2867 0.0177001
27.0268 53.3953 2
25.296 51.6694 3.95474
25.4088 55.1025 0.0373195
23.7356 53.4263 2
22.2198 51.7202 3.95216
19.4886 51.549 3.96123
19.0684 54.2478 3.96218
20.6667 53.1509 2
18.4953 56.683 3.96387
20.0041 55.7874 2
21.9048 55.3004 0.0391398
18.3851 59.0756 3.96961
19.4654 57.8548 2
20.262 56.9893 0.0358011
18.626 61.7388 3.97189
19.7187 60.1669 2
20.6688 58.7419 0.0291047
19.1287 64.6686 3.97939
20.2119 62.8491 2
21.1758 61.1447 0.0258514
19.8873 67.8085 3.98942
20.9391 65.7602 2
21.8983 63.8272 0.0225333
22.8382 66.7314 0.017686
21.9115 68.8713 2
20.9142 71.1327 4
24.0105 69.8049 0.00945394
23.1494 72.1455 2
25.446 73.0099 0
23.1003 12.7999 3.97688
23.9739 10.1754 3.97858
25.0247 7.31463 3.98389
25.8597 9.38524 2
26.2813 4.3285 3.99122
27.07 6.54301 2
27.8221 8.65713 0.0185378
27.7943 1.27781 4
28.4878 3.64424 2
29.1565 5.87972 0.0137961
30.1841 0.720551 2
30.7271 3.09853 0.00740537
32.6053 0.320823 0
35.9138 35.8671 3.6656
37.5167 35.8829 2
39.0967 35.8706 0.327494
24.7773 12.08 2
23.7584 14.3794 2
22.4895 15.0569 3.98042
25.3633 13.9229 3.97369
24.0412 15.6391 3.98327
26.6237 11.3955 0.0215912
29.2293 12.6492 0.0197243
27.2964 13.3815 2
29.7852 14.2083 2
28.3695 15.9818 3.98173
34.4852 34.3253 3.67551
35.9285 34.2727 2
37.5147 34.2203 0.327428
35.8227 32.5466 0.434559
37.5205 30.5475 0.277347
42.1123 28.5959 0.117509
39.7515 29.1883 0.148469
39.9398 27.7885 2
37.4932 28.8661 2
35.6722 30.7327 2
34.3421 32.7984 2
37.5926 27.5571 3.89509
35.2433 29.2074 3.85076
34.2479 31.4439 3.72093
33.3406 33.1009 3.52835
30.2228 19.3969 3.98234
30.9318 16.845 2
31.9216 14.4938 0.0207875
40.2389 25.8716 0.0420598
38.0496 23.2089 0.000262252
33.5528 17.4184 0.0196962
35.582 20.132 0.00798206
32.8714 19.8318 2
35.2039 22.8671 2
37.7338 25.4932 2
32.3647 22.5437 3.99588
35.0666 25.4387 3.99781
34.3191 37.5098 3.70605
35.9107 37.5 2
37.51 37.4944 0.283265
37.6731 50.736 0.00200012
36.925 48.0465 0.0861607
35.9239 39.1312 0.328306
35.2155 45.802 0.153428
34.2361 43.5651 0.279081
34.4759 40.6917 0.322106
33.3236 41.9072 0.470371
35.5276 49.9257 2
34.3766 39.1254 2
32.9707 40.8241 2
34.4053 47.2223 2
32.9372 42.557 2
33.3296 45.0565 2
33.3656 48.9687 3.97763
32.6443 39.2721 3.56745
31.9452 41.0644 3.71429
31.822 43.6468 3.84059
32.5404 46.1471 3.88873
34.4276 52.3262 0.00033868
32.158 51.1128 2
30.1186 49.6816 4.00252
30.6121 53.2889 0.00242577
28.6074 51.5132 2
26.7859 49.8907 3.96855
27.0256 53.3924 0.0364443
25.294 51.6686 2
23.6521 50.0834 3.96216
23.737 53.4221 0.0421903
22.2185 51.7188 2
20.8 50.2142 3.96494
18.2926 50.2453 3.96874
18.0658 52.719 3.96363
19.4866 51.5483 2
17.5462 55.2891 3.96256
19.0633 54.2483 2
20.6679 53.1515 0.0402247
17.159 57.8412 3.96366
18.494 56.6837 2
20.0064 55.7857 0.0375273
17.1452 60.5157 3.96789
18.3849 59.0766 2
19.466 57.8537 0.0319617
17.4101 63.4592 3.97375
18.6263 61.7393 2
19.7181 60.1651 0.0282735
17.9436 66.6168 3.9877
19.1281 64.6687 2
20.2119 62.8481 0.0255795
18.75 69.9759 4
19.8855 67.8074 2
20.9397 65.7595 0.0194533
21.9131 68.872 0.0100574
20.9142 71.1327 2
23.1494 72.1454 0
21.5937 13.6266 3.97692
22.1923 11.0373 3.97606
23.0992 12.8026 2
23.0424 8.18133 3.98232
23.9719 10.1736 2
24.1189 5.14329 3.99062
25.0233 7.31399 2
25.8611 9.38612 0.0195068
25.446 1.99014 4
26.2793 4.3288 2
27.0711 6.54383 0.0149111
27.7943 1.27778 2
28.4895 3.64441 0.00812474
30.1841 0.720592 0
34.3777 35.8873 3.68977
35.9227 35.8814 2
37.5098 35.8723 0.302283
21.322 15.8601 3.98365
24.7796 12.0833 0.0227889
23.7582 14.3769 0.0247107
25.3627 13.9165 2
22.4902 15.0568 2
24.0426 15.643 2
23.2865 16.2679 3.97389
25.3973 16.1094 3.98233
27.2961 13.3824 0.0211959
29.7882 14.21 0.0193835
28.3657 15.9875 2
27.4596 18.8369 3.98046
32.9787 34.2033 3.56143
34.4685 34.341 2
35.9321 34.2623 0.349334
34.3692 32.8033 0.459857
35.6886 30.7942 0.294533
37.4941 28.9197 0.146369
39.9188 27.8257 0.111404
37.5715 27.5211 2
33.3149 33.0811 2
35.241 29.1488 2
34.2095 31.3861 2
35.1387 27.6535 3.8988
33.3496 29.9872 3.85045
33.0003 32.4892 3.73411
29.6679 21.9987 3.9991
30.2214 19.4019 2
30.9356 16.8531 0.0166298
37.6724 25.5184 0.0292016
35.2085 22.8783 0.000373434
32.8763 19.8211 0.00673181
32.3679 22.5364 2
35.0954 25.4308 2
31.9075 25.7939 4.00446
32.4869 37.5092 3.60449
34.3343 37.5064 2
35.9065 37.4964 0.311478
35.5393 49.9159 0.0141178
34.4086 47.178 0.11352
34.3699 39.1296 0.309387
33.3529 45.0174 0.150785
32.9787 42.5145 0.252363
32.9714 40.8115 0.442754
33.3549 48.9678 2
32.6556 39.2747 2
31.9084 41.0982 2
32.5007 46.1909 2
31.7817 43.6773 2
31.4562 47.8142 3.98011
31.2194 39.3735 3.71894
30.6305 41.8991 3.84598
30.8658 44.7747 3.90599
32.1558 51.1018 -0.0183628
30.1204 49.7024 2
28.2398 48.0679 3.96002
28.608 51.5175 0.00993655
26.7845 49.8909 2
25.0348 48.3433 3.9681
25.296 51.6694 0.0452581
23.6508 50.082 2
22.0682 48.6695 3.97127
22.2198 51.7202 0.047842
20.7974 50.2131 2
19.3882 48.9955 3.97283
17.1765 49.2553 3.97417
17.0186 51.3359 3.96775
18.2949 50.2438 2
16.5427 53.8143 3.96487
18.0642 52.7186 2
19.4886 51.549 0.0387689
16.0284 56.4405 3.9627
17.542 55.2898 2
19.0684 54.2478 0.0378184
15.7606 59.1849 3.96796
17.1593 57.842 2
18.4953 56.683 0.0361271
15.7923 62.1151 3.9708
17.1454 60.5176 2
18.3851 59.0756 0.030392
16.0904 65.2986 3.98623
17.4091 63.4608 2
18.626 61.7388 0.0281104
16.6661 68.6801 4
17.9415 66.6153 2
19.1287 64.6686 0.0206094
18.75 69.9759 2
19.8873 67.8085 0.0105767
20.9142 71.1327 0
20.2286 14.6265 3.97301
21.5931 13.6281 2
20.533 12.0116 3.97551
21.1452 9.15245 3.98069
22.1908 11.0374 2
23.1003 12.7999 0.0231182
22.018 6.08228 3.99016
23.0405 8.18023 2
23.9739 10.1754 0.0214153
23.1494 2.85457 4
24.1166 5.14392 2
25.0247 7.31463 0.0161107
25.446 1.99012 2
26.2813 4.3285 0.00878136
27.7943 1.27781 0
32.6358 35.7497 3.56969
34.3813 35.8892 2
35.9138 35.8671 0.334402
21.3232 15.8573 2
20.3295 16.9913 3.97622
22.1188 16.6611 3.96891
25.3633 13.9229 0.0263118
22.4895 15.0569 0.0195797
24.0412 15.6391 0.016729
25.3979 16.1034 2
23.2882 16.2678 2
24.23 18.5183 3.97019
27.1039 21.5637 3.9934
28.3695 15.9818 0.018268
27.4573 18.8545 2
31.9728 33.9573 3.71106
32.9828 34.1865 2
34.4852 34.3253 0.324493
33.3406 33.1009 0.471652
34.2479 31.4439 0.279067
35.2433 29.2074 0.149243
37.5926 27.5571 0.104908
35.1466 27.6096 2
32.9285 32.447 2
33.3271 29.9513 2
32.7843 28.3281 3.90955
31.8287 31.3669 3.83553
29.0259 24.4927 3.99136
29.6646 22.009 2
30.2228 19.3969 0.0176598
35.0666 25.4387 0.00218512
32.3647 22.5437 0.00411668
31.9011 25.7696 2
29.9742 27.4416 3.97761
30.8146 37.5077 3.72396
32.4954 37.5076 2
34.3191 37.5098 0.293955
33.3656 48.9687 0.022368
32.5404 46.1471 0.111271
32.6443 39.2721 0.432551
31.822 43.6468 0.159411
31.9452 41.0644 0.285712
31.4309 47.8303 2
31.1555 39.3978 2
30.5975 41.9181 2
30.8254 44.8116 2
29.6416 46.4262 3.99646
29.7647 39.8392 3.86805
29.3212 43.0175 3.9084
30.1186 49.6816 -0.00251588
28.234 48.0609 2
26.4233 46.5171 3.98148
26.7859 49.8907 0.0314505
25.0335 48.3427 2
23.2967 46.938 3.97493
23.6521 50.0834 0.037837
22.0654 48.6681 2
20.3769 47.5098 3.97673
20.8 50.2142 0.0350599
19.3892 48.9941 2
17.9943 48.0933 3.97693
16.4118 48.6134 3.97639
17.178 49.2541 2
16.0943 50.1037 3.97188
15.5573 52.3593 3.96745
17.0199 51.3349 2
18.2926 50.2453 0.0312645
14.9656 54.9368 3.9637
16.5441 53.8138 2
18.0658 52.719 0.0363709
14.4756 57.7186 3.96346
16.0282 56.4407 2
17.5462 55.2891 0.037439
14.2715 60.675 3.96958
15.7618 59.1857 2
17.159 57.8412 0.0363381
14.3355 63.8565 3.98222
15.7921 62.1174 2
17.1452 60.5157 0.0321076
14.6715 67.2507 4
16.0877 65.2963 2
17.4101 63.4592 0.0262542
16.6661 68.6801 2
17.9436 66.6168 0.0123001
18.75 69.9759 0
18.9467 15.8127 3.97396
20.2289 14.6245 2
18.9852 13.1306 3.97515
21.5937 13.6266 0.0230837
20.5323 12.0133 2
19.3451 10.2434 3.97825
19.9926 7.14708 3.98914
21.1434 9.15283 2
22.1923 11.0373 0.0239449
20.9142 3.86727 4
22.0152 6.08321 2
23.0424 8.18133 0.0176829
23.1494 2.85451 2
24.1189 5.14329 0.00938225
25.446 1.99014 0
31.2389 35.6401 3.71543
32.6446 35.7442 2
34.3777 35.8873 0.310231
21.322 15.8601 0.016347
22.1199 16.6597 2
20.3305 16.9872 2
19.2959 18.4447 3.96046
21.8086 17.8978 3.98294
25.3973 16.1094 0.0176739
23.2865 16.2679 0.0261052
24.2256 18.5291 2
22.3634 19.9585 3.9629
24.6867 21.453 3.98652
26.6362 23.7906 3.97792
27.1079 21.5255 2
27.4596 18.8369 0.0195401
30.6789 33.1264 3.85751
31.9397 33.9106 2
32.9787 34.2033 0.438566
33.0003 32.4892 0.265887
33.3496 29.9872 0.149547
35.1387 27.6535 0.101205
32.7504 28.3006 2
31.7751 31.3316 2
30.5585 29.7238 3.93556
28.2302 26.643 3.99398
29.0144 24.501 2
29.6679 21.9987 0.000896316
31.9075 25.7939 -0.00445927
29.9647 27.4191 2
29.3234 37.5091 3.86242
30.7666 37.5077 2
32.4869 37.5092 0.395505
31.4562 47.8142 0.0198887
30.8658 44.7747 0.0940146
31.2194 39.3735 0.281055
30.6305 41.8991 0.154024
29.6425 46.4246 2
29.701 39.8562 2
29.2912 43.0584 2
27.8798 44.7484 3.97357
27.5279 40.5765 3.94029
28.2398 48.0679 0.0399848
26.4188 46.5193 2
24.5855 45.0561 3.97748
25.0348 48.3433 0.0319016
23.2947 46.9379 2
21.3823 45.7806 3.97789
22.0682 48.6695 0.0287261
20.3758 47.5085 2
18.706 46.6423 3.977
19.3882 48.9955 0.0271693
17.9948 48.0921 2
16.6376 47.6386 3.97678
16.4134 48.6123 2
15.4381 48.9538 3.97555
17.1765 49.2553 0.0258275
16.0965 50.1027 2
14.6757 50.9322 3.97029
13.9413 53.3951 3.96563
15.5583 52.3587 2
17.0186 51.3359 0.0322541
13.2874 56.1472 3.96337
14.9659 54.9365 2
16.5427 53.8143 0.0351342
12.8559 59.1129 3.96824
14.4774 57.7186 2
16.0284 56.4405 0.0372969
12.6816 62.2979 3.97843
14.2722 60.6751 2
15.7606 59.1849 0.0320424
12.7746 65.6939 4
14.3333 63.853 2
15.7923 62.1151 0.0292036
14.6714 67.2507 2
16.0904 65.2986 0.0137668
16.6661 68.6801 0
17.6939 17.1893 3.96914
18.9469 15.811 2
17.5198 14.3974 3.97284
20.2286 14.6265 0.0269912
18.9847 13.131 2
17.6412 11.4635 3.97615
20.533 12.0116 0.0244918
19.3433 10.244 2
18.0529 8.34051 3.98745
18.75 5.0241 4
19.9896 7.149 2
21.1452 9.15245 0.0193085
20.9142 3.86727 2
22.018 6.08228 0.00983862
23.1494 2.85457 0
29.7872 35.1907 3.86755
31.1792 35.6181 2
32.6358 35.7497 0.430314
22.1188 16.6611 0.0310863
20.3295 16.9913 0.0237751
21.8083 17.8963 2
19.2957 18.4414 2
18.0981 19.9961 3.95963
20.9518 19.4308 3.962
24.23 18.5183 0.0298132
22.3592 19.9618 2
24.6891 21.4419 2
22.5032 21.7986 3.98187
24.9062 23.2317 3.97476
25.8264 26.0266 3.9793
26.6346 23.7893 2
27.1039 21.5637 0.00659713
29.0649 32.4752 3.91175
30.6239 33.0919 2
31.9728 33.9573 0.288943
31.8287 31.3669 0.164468
32.7843 28.3281 0.0904521
30.5371 29.718 2
27.5375 29.2286 4.01123
28.2171 26.6517 2
29.0259 24.4927 0.00863798
29.9742 27.4416 0.0223919
27.6482 37.3552 3.9159
29.2567 37.5007 2
30.8146 37.5077 0.276039
29.6416 46.4262 0.00353787
29.3212 43.0175 0.0915962
29.7647 39.8392 0.131953
27.8682 44.7855 2
27.5041 40.5643 2
25.9363 43.0601 3.98947
24.7873 39.4491 3.97285
26.4233 46.5171 0.0185157
24.5741 45.0576 2
22.483 43.8209 3.97727
23.2967 46.938 0.0250651
21.3786 45.7808 2
19.446 44.8788 3.9768
20.3769 47.5098 0.0232683
18.7059 46.6423 2
16.9802 46.1335 3.97673
17.9943 48.0933 0.0230745
16.6389 47.6375 2
15.196 47.6084 3.97629
16.4118 48.6134 0.023612
15.4401 48.9528 2
13.9822 49.4967 3.97275
16.0943 50.1037 0.0281218
14.6768 50.9315 2
13.0135 51.8377 3.96756
12.1906 54.507 3.96422
13.9413 53.3948 2
15.5573 52.3593 0.0325544
11.5419 57.4492 3.96744
13.2881 56.1471 2
14.9656 54.9368 0.0363026
11.1364 60.6241 3.97699
12.8571 59.1122 2
14.4756 57.7186 0.0365428
10.9835 64.0165 4
12.6797 62.2942 2
14.2715 60.675 0.0304235
12.7745 65.694 2
14.3355 63.8565 0.0177767
14.6715 67.2507 0
16.4565 18.6881 3.9619
17.6935 17.1878 2
16.1154 15.8095 3.96735
18.9467 15.8127 0.0260384
17.5194 14.3957 2
16.0242 12.8202 3.97311
18.9852 13.1306 0.0248523
17.6401 11.4658 2
16.2039 9.66396 3.98614
19.3451 10.2434 0.0217525
18.0496 8.3433 2
16.6661 6.31991 4
18.75 5.02404 2
19.9926 7.14708 0.0108639
20.9142 3.86727 0
28.181 34.831 3.90653
29.7209 35.164 2
31.2389 35.6401 0.284568
16.8197 21.4322 3.96586
21.8086 17.8978 0.017059
19.2959 18.4447 0.039539
20.95 19.4289 2
18.0953 19.9943 2
19.8901 21.6436 3.96957
22.3634 19.9585 0.0370982
24.6867 21.453 0.0134777
22.4995 21.8028 2
24.9023 23.2348 2
23.1517 24.6899 3.97428
25.0831 28.6174 3.98043
25.8171 26.0339 2
26.6362 23.7906 0.0220824
26.9166 31.8215 3.97898
29.0351 32.4585 2
30.6789 33.1264 0.142493
30.5585 29.7238 0.0644357
27.5499 29.2085 2
28.2302 26.643 0.00602397
25.4765 36.8564 3.97258
27.6345 37.3638 2
29.3234 37.5091 0.137576
27.8798 44.7484 0.0264275
27.5279 40.5765 0.0597058
25.9172 43.0795 2
24.7691 39.4542 2
23.6771 41.8086 3.98236
22.5057 38.5196 3.97823
24.5855 45.0561 0.022515
22.483 43.8201 2
20.3026 42.8221 3.97612
21.3823 45.7806 0.022107
19.4467 44.8789 2
17.3732 44.3083 3.9761
18.706 46.6423 0.0229975
16.9817 46.1332 2
15.1494 46.0283 3.97637
16.6376 47.6386 0.0232169
15.1978 47.6076 2
13.5095 47.9614 3.97454
15.4381 48.9538 0.0244494
13.9836 49.496 2
12.2418 50.2187 3.96918
14.6757 50.9322 0.029709
13.0142 51.8371 2
11.1894 52.8188 3.96519
10.3328 55.7051 3.96723
12.1908 54.5068 2
13.9413 53.3951 0.034374
9.703 58.847 3.97641
11.5425 57.4487 2
13.2874 56.1472 0.0366287
9.30605 62.2254 4
11.1348 60.6201 2
12.8559 59.1129 0.0317634
10.9835 64.0165 2
12.6816 62.2979 0.0215696
12.7746 65.6939 0
15.2385 20.2275 3.96309
16.4585 18.6882 2
14.7647 17.3292 3.96479
17.6939 17.1893 0.0308598
16.1153 15.808 2
14.4885 14.3132 3.97039
17.5198 14.3974 0.0271566
16.0234 12.8209 2
14.4468 11.1162 3.98384
17.6412 11.4635 0.0238539
16.2008 9.66766 2
14.6715 7.74927 4
18.0529 8.34051 0.0125547
16.6661 6.31988 2
18.75 5.0241 0
26.1417 34.3313 3.98137
28.1605 34.8382 2
29.7872 35.1907 0.132447
18.0513 22.39 3.97238
15.7098 22.9765 3.96931
16.8198 21.432 2
20.9518 19.4308 0.0380029
18.0981 19.9961 0.0403707
19.8871 21.6417 2
19.9838 24.4739 3.97114
22.5032 21.7986 0.0181294
24.9062 23.2317 0.0252373
23.1475 24.688 2
22.4449 27.9385 3.97252
24.477 31.3031 3.97766
25.0882 28.613 2
25.8264 26.0266 0.0207015
26.8976 31.7877 2
29.0649 32.4752 0.0882477
27.5375 29.2286 -0.0112299
23.2298 36.2865 3.98277
25.4611 36.8568 2
27.6482 37.3552 0.0841033
25.9363 43.0601 0.0105306
24.7873 39.4491 0.027147
23.6632 41.8099 2
22.4973 38.5178 2
21.3748 40.6237 3.97506
20.7445 37.8025 3.97708
22.483 43.8209 0.0227312
20.3014 42.8232 2
17.8442 42.0459 3.97594
19.446 44.8788 0.0232037
17.3739 44.3089 2
15.1929 44.1409 3.97593
16.9802 46.1335 0.0232682
15.1507 46.0277 2
13.2054 46.2508 3.97554
15.196 47.6084 0.023709
13.5112 47.9607 2
11.6277 48.5177 3.97078
13.9822 49.4967 0.0272485
12.243 50.2181 2
10.319 51.0644 3.96601
13.0135 51.8377 0.0324379
11.1899 52.8183 2
9.24159 53.8859 3.96707
8.3865 56.9807 3.97703
10.3335 55.7042 2
12.1906 54.507 0.0357789
7.74927 60.3285 4
9.70174 58.8429 2
11.5419 57.4492 0.0325575
9.306 62.2255 2
11.1364 60.6241 0.0230091
10.9835 64.0165 0
14.0664 21.7923 3.96572
15.2375 20.2271 2
13.4754 18.9243 3.96412
16.4565 18.6881 0.0381022
14.7666 17.3289 2
13.0346 15.9034 3.96955
16.1154 15.8095 0.0326529
14.4884 14.3099 2
12.7844 12.6907 3.981
16.0242 12.8202 0.0268877
14.4439 11.1209 2
12.7746 9.30605 4
16.2039 9.66396 0.0138627
14.6715 7.74924 2
16.6661 6.31991 0
23.8182 33.8672 3.98278
26.1193 34.3213 2
28.181 34.831 0.0934725
17.9125 24.1207 3.97098
18.0577 22.3908 2
14.5524 24.5103 3.971
15.7116 22.9768 2
16.8197 21.4322 0.0341354
19.4692 27.3059 3.97334
19.8901 21.6436 0.0304307
19.98 24.474 2
21.8008 30.7758 3.97518
23.1517 24.6899 0.0257244
22.4464 27.9396 2
24.4525 31.3003 2
25.0831 28.6174 0.0195684
26.9166 31.8215 0.0210178
20.8679 35.9587 3.97653
23.2308 36.2876 2
25.4765 36.8564 0.0274176
23.6771 41.8086 0.0176364
22.5057 38.5196 0.0217747
21.3809 40.6245 2
20.7449 37.8011 2
18.5958 38.9961 3.97704
20.3026 42.8221 0.0238769
17.8439 42.0462 2
15.1779 41.8789 3.97624
17.3732 44.3083 0.0239038
15.1934 44.1408 2
12.9681 44.351 3.9762
15.1494 46.0283 0.0236288
13.2071 46.2501 2
11.1429 46.7044 3.97233
13.5095 47.9614 0.0254603
11.6292 48.5171 2
9.58712 49.2257 3.96669
12.2418 50.2187 0.0308193
10.3194 51.0639 2
8.27432 52.0002 3.96687
11.1894 52.8188 0.0348117
9.2422 53.8848 2
7.19549 55.0319 3.97795
6.31991 58.3339 4
8.38557 56.9768 2
10.3328 55.7051 0.0327738
7.74924 60.3285 2
9.703 58.847 0.0235863
9.30605 62.2254 0
13.4267 25.4111 3.97461
12.9679 23.3217 3.96839
14.0658 21.7921 2
12.2785 20.5719 3.96465
15.2385 20.2275 0.0369098
13.4752 18.9235 2
11.6652 17.5784 3.96931
14.7647 17.3292 0.0352095
13.0365 15.9027 2
11.2227 14.3774 3.97668
14.4885 14.3132 0.0296124
12.7821 12.6955 2
10.9835 10.9835 4
14.4468 11.1162 0.0161558
12.7745 9.306 2
14.6715 7.74927 0
21.2314 33.4704 3.97565
23.8203 33.856 2
26.1417 34.3313 0.0186292
16.2433 26.4781 3.97306
17.9153 24.121 2
18.0513 22.39 0.0276194
14.5525 24.5106 2
15.7098 22.9765 0.0306867
18.8639 30.2745 3.97513
19.4681 27.3065 2
19.9838 24.4739 0.028864
21.813 30.7766 2
22.4449 27.9385 0.0274752
24.477 31.3031 0.0223376
18.2053 35.9894 3.97765
20.8703 35.9594 2
23.2298 36.2865 0.0172331
21.3748 40.6237 0.0249379
20.7445 37.8025 0.022921
18.594 38.9952 2
14.6806 39.1655 3.97714
17.8442 42.0459 0.024059
15.1778 41.8787 2
12.6644 42.2459 3.97637
15.1929 44.1409 0.0240695
12.9694 44.3504 2
10.7307 44.7779 3.97386
13.2054 46.2508 0.0244596
11.1448 46.7038 2
8.97348 47.3063 3.96725
11.6277 48.5177 0.0292197
9.58735 49.2252 2
7.44102 50.0341 3.96662
10.319 51.0644 0.0339916
8.27476 51.9992 2
6.13612 53.0074 3.97836
9.24159 53.8859 0.0329295
7.19495 55.0287 2
5.0241 56.25 4
6.31988 58.3339 2
8.3865 56.9807 0.0229652
7.74927 60.3285 0
13.6983 26.8655 3.97501
12.0784 24.8241 3.97067
13.426 25.4113 2
11.2024 22.2559 3.96549
12.9687 23.322 2
14.0664 21.7923 0.0342833
12.2792 20.5716 2
10.3974 19.3286 3.96811
13.4754 18.9243 0.0358813
11.6672 17.5784 2
9.76325 16.1604 3.97675
13.0346 15.9034 0.0304498
11.2209 14.3824 2
9.30607 12.7746 4
12.7844 12.6907 0.0189986
10.9835 10.9835 2
12.7746 9.30605 0
18.3723 33.175 3.97658
21.232 33.4729 2
23.8182 33.8672 0.0172201
15.8671 29.7108 3.97549
16.2442 26.4786 2
17.9125 24.1207 0.0290171
14.5524 24.5103 0.0290039
18.8628 30.2751 2
19.4692 27.3059 0.0266563
21.8008 30.7758 0.0248185
15.3053 36.0345 3.9773
18.2049 35.9898 2
20.8679 35.9587 0.0234709
12.8954 37.8298 3.97725
18.5958 38.9961 0.022956
14.6802 39.1654 2
12.1684 40.1254 3.97677
15.1779 41.8789 0.0237598
12.6658 42.2455 2
10.3304 42.76 3.97487
12.9681 44.351 0.023803
10.7324 44.7774 2
8.45166 45.3104 3.968
11.1429 46.7044 0.0276662
8.97329 47.3059 2
6.73191 47.9995 3.96657
9.58712 49.2257 0.0333067
7.44133 50.0332 2
5.21286 50.9108 3.97808
8.27432 52.0002 0.0331284
6.13586 53.0052 2
3.86727 54.0858 4
7.19549 55.0319 0.0220487
5.02404 56.25 2
6.31991 58.3339 0
13.1817 29.0796 3.97491
11.5234 26.5216 3.97118
13.6978 26.8657 2
10.2617 23.9858 3.96674
12.0802 24.8245 2
13.4267 25.4111 0.0253871
9.25003 21.1434 3.96752
11.2024 22.2557 2
12.9679 23.3217 0.0316087
12.2785 20.5719 0.0353498
10.3992 19.3288 2
8.41906 18.0311 3.9766
11.6652 17.5784 0.0306898
9.76198 16.1654 2
7.74928 14.6715 4
11.2227 14.3774 0.0233232
9.30602 12.7745 2
10.9835 10.9835 0
14.8562 32.9118 3.97683
18.3709 33.1742 2
21.2314 33.4704 0.0243533
15.8683 29.7112 2
16.2433 26.4781 0.0269368
18.8639 30.2745 0.0248655
13.1903 36.2212 3.97695
15.3046 36.0342 2
18.2053 35.9894 0.0223483
12.8964 37.8295 2
11.5044 38.3083 3.97707
14.6806 39.1655 0.0228589
12.1705 40.1252 2
9.90552 40.744 3.97574
12.6644 42.2459 0.0236308
10.333 42.7594 2
7.99778 43.262 3.9687
10.7307 44.7779 0.0261435
8.45257 45.3099 2
6.13761 45.9047 3.96682
8.97348 47.3063 0.0327479
6.73224 47.9987 2
4.42423 48.7515 3.97759
7.44102 50.0341 0.0333835
5.21281 50.9096 2
2.85457 51.8506 4
6.13612 53.0074 0.0216438
3.86727 54.0858 2
5.0241 56.25 0
12.3147 31.2927 3.97614
10.9419 28.4454 3.97165
13.1824 29.08 2
9.47889 25.8138 3.96743
11.5248 26.522 2
13.6983 26.8655 0.0249883
8.2368 23.0259 3.96725
10.2621 23.9859 2
12.0784 24.8241 0.0293291
7.20126 19.9803 3.97756
9.25141 21.1439 2
11.2024 22.2559 0.0345065
10.3974 19.3286 0.0318858
8.41844 18.0356 2
6.31992 16.6661 4
9.76325 16.1604 0.0232471
7.74926 14.6714 2
9.30607 12.7746 0
12.352 34.3196 3.97675
14.8564 32.9125 2
18.3723 33.175 0.0234172
15.8671 29.7108 0.024514
11.0454 36.6192 3.97682
13.1908 36.2211 2
15.3053 36.0345 0.0226974
12.8954 37.8298 0.0227457
11.507 38.3079 2
9.48879 38.8204 3.97592
12.1684 40.1254 0.0232313
9.90773 40.7436 2
7.60627 41.2063 3.96891
10.3304 42.76 0.0251307
7.99735 43.2617 2
5.64923 43.7677 3.96705
8.45166 45.3104 0.0320039
6.13785 45.9041 2
3.76964 46.537 3.97749
6.73191 47.9995 0.033433
4.42442 48.7507 2
1.99014 49.554 4
5.21286 50.9108 0.0219247
2.85451 51.8506 2
3.86727 54.0858 0
11.1345 32.9438 3.977
10.2509 30.4067 3.97254
12.3159 31.2933 2
8.7892 27.7456 3.96773
10.9433 28.4458 2
13.1817 29.0796 0.0250936
7.36198 24.9839 3.96697
9.47889 25.814 2
11.5234 26.5216 0.0288178
6.11824 22.0029 3.97841
8.23766 23.0264 2
10.2617 23.9858 0.0332551
5.02411 18.75 4
7.20106 19.9835 2
9.25003 21.1434 0.0324814
8.41906 18.0311 0.0234045
6.3199 16.6661 2
7.74928 14.6715 0
10.6391 35.0138 3.97658
12.3532 34.3199 2
14.8562 32.9118 0.0231709
9.15253 36.9878 3.97561
11.0481 36.619 2
13.1903 36.2212 0.0230468
11.5044 38.3083 0.0229288
9.49103 38.8202 2
7.2824 39.1799 3.96924
9.90552 40.744 0.0242647
7.60682 41.206 2
5.26412 41.6135 3.96724
7.99778 43.262 0.031303
5.64944 43.7672 2
3.24724 44.2817 3.97773
6.13761 45.9047 0.0331834
3.76992 46.5365 2
1.27781 47.2057 4
4.42423 48.7515 0.0224088
1.99012 49.554 2
2.85457 51.8506 0
10.2773 33.8988 3.97638
9.53028 32.1723 3.97338
11.1368 32.9443 2
8.13307 29.7064 3.96815
10.2528 30.4071 2
12.3147 31.2927 0.0238633
6.60519 27.0095 3.96694
8.78907 27.7458 2
10.9419 28.4454 0.0283506
5.1736 24.0952 3.97836
7.36248 24.9844 2
9.47889 25.8138 0.0325667
3.86728 20.9142 4
6.11826 22.0047 2
8.2368 23.0259 0.0327539
5.02406 18.75 2
7.20126 19.9803 0.0224423
6.31992 16.6661 0
8.97317 35.2871 3.97551
10.6419 35.0139 2
12.352 34.3196 0.0232461
7.05931 37.2063 3.96948
9.15461 36.9878 2
11.0454 36.6192 0.0231769
9.48879 38.8204 0.0240838
7.28349 39.1797 2
4.99149 39.4672 3.96762
7.60627 41.2063 0.0310858
5.26472 41.6132 2
2.85757 42.002 3.97794
5.64923 43.7677 0.032949
3.24739 44.2813 2
0.720592 44.8159 4
3.76964 46.537 0.0225112
1.27778 47.2057 2
1.99014 49.554 0
9.01746 33.7099 3.97477
10.2802 33.8992 2
7.56426 31.6171 3.96872
9.53268 32.1726 2
11.1345 32.9438 0.0229988
5.94987 29.0703 3.96715
8.13289 29.7066 2
10.2509 30.4067 0.0274629
4.36113 26.2475 3.97797
6.6055 27.0099 2
8.7892 27.7456 0.0322704
2.85458 23.1494 4
5.17375 24.096 2
7.36198 24.9839 0.0330295
3.86728 20.9142 2
6.11824 22.0029 0.0215924
5.02411 18.75 0
7.00771 35.3088 3.96951
8.97517 35.2872 2
10.6391 35.0138 0.0234156
4.84156 37.3399 3.96801
7.06065 37.2062 2
9.15253 36.9878 0.0243859
7.2824 39.1799 0.0307644
4.99208 39.467 2
2.60551 39.7136 3.97814
5.26412 41.6135 0.0327638
2.85803 42.0018 2
0.320823 42.3947 4
3.24724 44.2817 0.0222688
0.720551 44.8159 2
1.27781 47.2057 0
7.17328 33.4662 3.96919
9.01965 33.7102 2
10.2773 33.8988 0.0236196
5.42025 31.1341 3.96764
7.56453 31.6172 2
9.53028 32.1723 0.0266219
3.68264 28.4435 3.97778
5.95018 29.0707 2
8.13307 29.7064 0.0318498
1.99015 25.446 4
4.36137 26.2478 2
6.60519 27.0095 0.0330633
2.85453 23.1494 2
5.1736 24.0952 0.0216444
3.86728 20.9142 0
4.85585 35.2518 3.96801
7.00813 35.3088 2
8.97317 35.2871 0.0244931
2.49693 37.4283 3.97893
4.84166 37.3399 2
7.05931 37.2063 0.0305242
4.99149 39.4672 0.0323776
2.60608 39.7139 2
0.080333 39.9526 4
2.85757 42.002 0.022057
0.320817 42.3947 2
0.720592 44.8159 0
5.04929 33.1906 3.96797
7.17376 33.4662 2
9.01746 33.7099 0.0252262
3.14676 30.6662 3.97806
5.42053 31.1345 2
7.56426 31.6171 0.0312828
1.27793 27.7943 4
3.683 28.4437 2
5.94987 29.0703 0.0328515
1.99013 25.446 2
4.36113 26.2475 0.0220256
2.85458 23.1494 0
2.54902 35.1589 3.97868
4.85657 35.2521 2
7.00771 35.3088 0.0304884
0 37.5 4
2.49703 37.4286 2
4.84156 37.3399 0.0319945
2.60551 39.7136 0.021863
0.0802903 39.9526 2
0.320823 42.3947 0
2.76668 32.9057 3.9788
5.04955 33.1909 2
7.17328 33.4662 0.0308121
0.721173 30.1842 4
3.14712 30.6666 2
5.42025 31.1341 0.032359
1.27779 27.7943 2
3.68264 28.4435 0.0222168
1.99015 25.446 0
0.0806499 35.0474 4
2.54969 35.1593 2
4.85585 35.2518 0.0319939
0 37.5 2
2.49693 37.4283 0.0210698
0.080333 39.9526 0
0.32156 32.6054 4
2.76687 32.9063 2
5.04929 33.1906 0.0320279
0.72056 30.1841 2
3.14676 30.6662 0.0219413
1.27793 27.7943 0
0.0802889 35.0474 2
2.54902 35.1589 0.0213239
0 37.5 0
0.320817 32.6053 2
2.76668 32.9057 0.0212019
0.721173 30.1842 0
0.0806499 35.0474 0
0.32156 32.6054 0
CELLS 1910 17190
8 18 6 25 56 2 0 5 16
8 57 23 6 18 17 4 0 2
8 78 36 9 29 31 11 1 7
8 31 11 1 7 79 37 10 30
8 110 57 18 50 48 17 2 14
8 50 18 56 111 14 2 16 49
8 116 62 22 55 52 20 3 15
8 56 25 67 118 16 5 24 53
8 119 63 23 57 54 21 4 17
8 55 22 63 119 15 3 21 54
8 58 26 68 121 18 6 25 56
8 122 65 26 58 57 23 6 18
8 73 31 7 27 142 79 30 71
8 143 78 29 72 73 31 7 27
8 83 147 76 34 32 74 28 8
8 84 148 78 36 33 75 29 9
8 76 34 8 28 148 84 33 75
8 37 79 150 86 10 30 77 35
8 151 87 36 78 80 38 11 31
8 80 38 11 31 152 88 37 79
8 175 100 42 94 96 44 12 40
8 44 96 176 101 12 40 95 43
8 101 176 98 46 43 95 41 13
8 46 98 178 103 13 41 97 45
8 178 103 45 97 147 83 32 74
8 189 116 55 109 106 52 15 47
8 111 56 118 191 49 16 53 107
8 192 119 57 110 108 54 17 48
8 109 55 119 192 47 15 54 108
8 194 122 58 112 110 57 18 50
8 112 58 121 195 50 18 56 111
8 115 61 19 51 197 124 59 113
8 115 61 125 198 51 19 60 114
8 198 125 62 116 114 60 20 52
8 200 127 64 120 116 62 22 55
8 118 67 132 202 53 24 66 117
8 121 68 133 203 56 25 67 118
8 120 64 128 204 55 22 63 119
8 204 128 65 122 119 63 23 57
8 206 134 68 121 123 69 26 58
8 123 69 26 58 207 131 65 122
8 226 147 74 138 140 76 28 70
8 229 148 75 139 143 78 29 72
8 140 76 28 70 229 148 75 139
8 142 79 30 71 231 150 77 141
8 144 80 31 73 232 152 79 142
8 233 151 78 143 144 80 31 73
8 150 86 35 77 235 154 81 145
8 235 154 81 145 146 82 39 91
8 146 82 39 91 236 155 90 165
8 238 157 83 147 149 85 34 76
8 239 158 84 148 151 87 36 78
8 149 85 34 76 239 158 84 148
8 152 88 37 79 241 160 86 150
8 242 161 87 151 153 89 38 80
8 153 89 38 80 243 162 88 152
8 171 98 41 92 265 178 97 169
8 265 178 97 169 226 147 74 138
8 172 96 40 93 266 176 95 170
8 266 176 95 170 171 98 41 92
8 269 175 94 173 172 96 40 93
8 271 180 99 174 175 100 42 94
8 197 124 59 113 271 180 99 174
8 272 181 100 175 177 102 44 96
8 273 182 101 176 179 104 46 98
8 177 102 44 96 273 182 101 176
8 179 104 46 98 275 184 103 178
8 275 184 103 178 238 157 83 147
8 188 115 51 105 283 197 113 186
8 188 115 198 284 105 51 114 187
8 284 198 116 189 187 114 52 106
8 286 200 120 193 189 116 55 109
8 191 118 202 288 107 53 117 190
8 195 121 203 289 111 56 118 191
8 193 120 204 290 109 55 119 192
8 290 204 122 194 192 119 57 110
8 196 123 58 112 292 207 122 194
8 293 206 121 195 196 123 58 112
8 199 126 61 115 297 211 124 197
8 298 212 127 200 198 125 62 116
8 199 126 212 298 115 61 125 198
8 205 129 64 120 300 214 127 200
8 301 217 130 201 202 132 66 117
8 209 136 168 264 301 217 130 201
8 302 219 132 202 203 133 67 118
8 303 220 133 203 206 134 68 121
8 205 129 215 304 120 64 128 204
8 304 215 131 207 204 128 65 122
8 306 221 134 206 208 135 69 123
8 208 135 69 123 307 218 131 207
8 210 137 167 263 309 223 136 209
8 328 238 147 226 230 149 76 140
8 228 146 91 166 329 236 165 260
8 231 150 77 141 330 235 145 227
8 330 235 145 227 228 146 91 166
8 332 239 148 229 233 151 78 143
8 230 149 76 140 332 239 148 229
8 232 152 79 142 334 241 150 231
8 234 153 80 144 335 243 152 232
8 336 242 151 233 234 153 80 144
8 236 155 90 165 338 245 164 259
8 241 160 86 150 339 246 154 235
8 339 246 154 235 237 156 82 146
8 237 156 82 146 340 247 155 236
8 342 249 157 238 240 159 85 149
8 343 250 158 239 242 161 87 151
8 240 159 85 149 343 250 158 239
8 243 162 88 152 345 252 160 241
8 244 163 253 346 153 89 161 242
8 244 163 89 153 347 254 162 243
8 311 224 261 371 210 137 167 263
8 263 167 262 372 209 136 168 264
8 267 179 98 171 375 275 178 265
8 375 275 178 265 328 238 147 226
8 376 273 176 266 267 179 98 171
8 268 177 96 172 376 273 176 266
8 379 272 175 269 268 177 96 172
8 380 271 174 270 269 175 94 173
8 283 197 113 186 380 271 174 270
8 381 277 180 271 272 181 100 175
8 297 211 124 197 381 277 180 271
8 382 278 181 272 274 183 102 177
8 274 183 102 177 383 279 182 273
8 383 279 182 273 276 185 104 179
8 385 281 184 275 342 249 157 238
8 276 185 104 179 385 281 184 275
8 285 199 115 188 393 297 197 283
8 394 298 200 286 284 198 116 189
8 285 199 298 394 188 115 198 284
8 291 205 120 193 396 300 200 286
8 397 301 201 287 288 202 117 190
8 295 209 264 374 397 301 201 287
8 398 302 202 288 289 203 118 191
8 399 303 203 289 293 206 121 195
8 291 205 304 400 193 120 204 290
8 400 304 207 292 290 204 122 194
8 294 208 123 196 402 307 207 292
8 403 306 206 293 294 208 123 196
8 296 210 263 373 405 309 209 295
8 408 312 213 299 297 211 126 199
8 299 213 313 409 199 126 212 298
8 409 313 214 300 298 212 127 200
8 305 216 129 205 411 315 214 300
8 412 318 217 301 302 219 132 202
8 309 223 136 209 412 318 217 301
8 413 320 219 302 303 220 133 203
8 306 221 321 414 206 134 220 303
8 307 218 131 207 415 316 215 304
8 305 216 316 415 205 129 215 304
8 417 322 221 306 308 222 135 208
8 308 222 135 208 418 319 218 307
8 310 225 137 210 420 325 223 309
8 423 326 224 311 310 225 137 210
8 329 236 165 260 441 338 259 368
8 442 342 238 328 333 240 149 230
8 331 237 146 228 443 340 236 329
8 334 241 150 231 444 339 235 330
8 444 339 235 330 331 237 146 228
8 446 343 239 332 336 242 151 233
8 333 240 149 230 446 343 239 332
8 335 243 152 232 448 345 241 334
8 337 244 153 234 449 347 243 335
8 337 244 346 450 234 153 242 336
8 338 245 164 259 452 349 258 367
8 340 247 155 236 453 350 245 338
8 345 252 160 241 454 351 246 339
8 454 351 246 339 341 248 156 237
8 341 248 156 237 455 352 247 340
8 240 159 251 344 342 249 354 457
8 242 161 253 346 343 250 355 458
8 343 250 355 458 240 159 251 344
8 347 254 162 243 460 357 252 345
8 348 255 358 461 244 163 253 346
8 348 255 163 244 462 359 254 347
8 473 360 257 365 363 256 364 482
8 452 349 258 367 365 257 366 485
8 422 324 369 488 311 224 261 371
8 371 261 370 490 263 167 262 372
8 407 311 371 491 296 210 263 373
8 373 263 372 492 295 209 264 374
8 493 385 275 375 442 342 238 328
8 377 276 179 267 493 385 275 375
8 378 274 177 268 494 383 273 376
8 494 383 273 376 377 276 179 267
8 497 382 272 379 378 274 177 268
8 498 381 271 380 379 272 175 269
8 393 297 197 283 498 381 271 380
8 499 387 277 381 382 278 181 272
8 408 312 211 297 499 387 277 381
8 500 388 278 382 384 280 183 274
8 501 389 279 383 386 282 185 276
8 384 280 183 274 501 389 279 383
8 386 282 185 276 503 391 281 385
8 503 391 281 385 457 354 249 342
8 511 408 299 395 393 297 199 285
8 395 299 409 512 285 199 298 394
8 512 409 300 396 394 298 200 286
8 401 305 205 291 514 411 300 396
8 515 412 301 397 398 302 202 288
8 405 309 209 295 515 412 301 397
8 516 413 302 398 399 303 203 289
8 403 306 414 517 293 206 303 399
8 402 307 207 292 518 415 304 400
8 401 305 415 518 291 205 304 400
8 404 308 208 294 520 418 307 402
8 521 417 306 403 404 308 208 294
8 406 310 210 296 523 420 309 405
8 526 423 311 407 406 310 210 296
8 410 314 213 299 527 424 312 408
8 528 425 315 411 409 313 214 300
8 410 314 425 528 299 213 313 409
8 416 317 216 305 530 427 315 411
8 531 430 318 412 413 320 219 302
8 420 325 223 309 531 430 318 412
8 532 432 320 413 414 321 220 303
8 417 322 433 533 306 221 321 414
8 418 319 218 307 534 428 316 415
8 416 317 428 534 305 216 316 415
8 419 323 434 536 308 222 322 417
8 419 323 222 308 537 431 319 418
8 421 327 225 310 539 438 325 420
8 421 327 439 541 310 225 326 423
8 543 437 324 422 423 326 224 311
8 441 338 259 368 559 452 367 486
8 443 340 236 329 560 453 338 441
8 333 240 344 447 442 342 457 561
8 445 341 237 331 562 455 340 443
8 448 345 241 334 563 454 339 444
8 563 454 339 444 445 341 237 331
8 336 242 346 450 446 343 458 565
8 446 343 458 565 333 240 344 447
8 449 347 243 335 567 460 345 448
8 451 348 244 337 568 462 347 449
8 451 348 461 569 337 244 346 450
8 570 463 349 452 473 360 257 365
8 453 350 245 338 570 463 349 452
8 455 352 247 340 571 464 350 453
8 460 357 252 345 572 465 351 454
8 572 465 351 454 456 353 248 341
8 456 353 248 341 573 466 352 455
8 344 251 356 459 457 354 468 575
8 458 355 469 576 344 251 356 459
8 346 253 358 461 458 355 469 576
8 462 359 254 347 578 471 357 460
8 348 255 359 462 461 358 472 579
8 591 474 360 473 475 361 256 363
8 475 361 256 363 594 477 362 479
8 363 256 364 482 479 362 480 603
8 590 473 365 484 481 363 482 605
8 482 364 257 365 606 483 366 485
8 559 452 367 486 484 365 485 607
8 542 436 487 609 422 324 369 488
8 525 422 488 611 407 311 371 491
8 488 369 489 612 371 261 370 490
8 491 371 490 613 373 263 372 492
8 495 386 276 377 614 503 385 493
8 614 503 385 493 561 457 342 442
8 615 501 383 494 495 386 276 377
8 496 384 274 378 615 501 383 494
8 618 500 382 497 496 384 274 378
8 619 499 381 498 497 382 272 379
8 511 408 297 393 619 499 381 498
8 620 505 387 499 500 388 278 382
8 527 424 312 408 620 505 387 499
8 502 390 506 621 384 280 388 500
8 622 507 389 501 504 392 282 386
8 502 390 280 384 622 507 389 501
8 504 392 282 386 624 509 391 503
8 624 509 391 503 575 468 354 457
8 513 410 299 395 630 527 408 511
8 631 528 411 514 512 409 300 396
8 513 410 528 631 395 299 409 512
8 519 416 305 401 633 530 411 514
8 634 531 412 515 516 413 302 398
8 523 420 309 405 634 531 412 515
8 635 532 413 516 517 414 303 399
8 521 417 533 636 403 306 414 517
8 520 418 307 402 637 534 415 518
8 519 416 534 637 401 305 415 518
8 522 419 308 404 639 537 418 520
8 522 419 536 640 404 308 417 521
8 524 421 310 406 642 539 420 523
8 524 421 541 644 406 310 423 526
8 646 543 422 525 526 423 311 407
8 529 426 314 410 647 544 424 527
8 528 425 545 648 411 315 427 530
8 529 426 545 648 410 314 425 528
8 535 429 317 416 649 546 427 530
8 650 548 430 531 532 432 320 413
8 539 438 325 420 650 548 430 531
8 533 433 550 651 414 321 432 532
8 536 434 551 652 417 322 433 533
8 537 431 319 418 653 547 428 534
8 535 429 547 653 416 317 428 534
8 538 435 552 654 419 323 434 536
8 538 435 323 419 655 549 431 537
8 540 440 327 421 657 556 438 539
8 540 440 557 659 421 327 439 541
8 541 439 555 660 423 326 437 543
8 661 554 436 542 543 437 324 422
8 676 570 452 559 590 473 365 484
8 560 453 338 441 676 570 452 559
8 562 455 340 443 677 571 453 560
8 447 344 459 566 561 457 575 678
8 564 456 341 445 679 573 455 562
8 567 460 345 448 680 572 454 563
8 680 572 454 563 564 456 341 445
8 565 458 576 682 447 344 459 566
8 450 346 461 569 565 458 576 682
8 568 462 347 449 684 578 460 567
8 451 348 462 568 569 461 579 685
8 686 580 463 570 591 474 360 473
8 571 464 350 453 686 580 463 570
8 573 466 352 455 687 581 464 571
8 572 465 582 688 460 357 471 578
8 574 467 582 688 456 353 465 572
8 574 467 353 456 689 583 466 573
8 459 356 470 577 575 468 585 691
8 576 469 586 692 459 356 470 577
8 461 358 472 579 576 469 586 692
8 462 359 471 578 579 472 588 694
8 704 591 473 590 593 475 363 481
8 595 476 592 705 475 361 474 591
8 593 475 363 481 707 594 479 602
8 594 477 362 479 709 598 478 600
8 595 476 361 475 711 597 477 594
8 479 362 480 603 600 478 601 720
8 481 363 482 605 602 479 603 722
8 603 480 364 482 723 604 483 606
8 605 482 365 484 724 606 485 607
8 656 553 608 726 542 436 487 609
8 645 542 609 728 525 422 488 611
8 609 487 610 729 488 369 489 612
8 611 488 612 730 491 371 490 613
8 616 504 386 495 731 624 503 614
8 731 624 503 614 678 575 457 561
8 732 622 501 615 616 504 386 495
8 617 502 384 496 732 622 501 615
8 617 502 621 735 496 384 500 618
8 736 620 499 619 618 500 382 497
8 630 527 408 511 736 620 499 619
8 621 506 626 737 500 388 505 620
8 647 544 424 527 737 626 505 620
8 623 508 627 738 502 390 506 621
8 623 508 390 502 739 628 507 622
8 625 510 628 739 504 392 507 622
8 740 629 509 624 691 585 468 575
8 625 510 392 504 740 629 509 624
8 632 529 410 513 744 647 527 630
8 631 528 648 745 514 411 530 633
8 632 529 648 745 513 410 528 631
8 638 535 416 519 746 649 530 633
8 747 650 531 634 635 532 413 516
8 642 539 420 523 747 650 531 634
8 636 533 651 748 517 414 532 635
8 640 536 652 749 521 417 533 636
8 639 537 418 520 750 653 534 637
8 638 535 653 750 519 416 534 637
8 641 538 419 522 751 655 537 639
8 641 538 654 752 522 419 536 640
8 643 540 421 524 753 657 539 642
8 643 540 659 755 524 421 541 644
8 644 541 660 757 526 423 543 646
8 758 661 542 645 646 543 422 525
8 529 426 544 647 648 545 662 759
8 530 427 545 648 649 546 663 760
8 535 429 546 649 653 547 664 761
8 762 666 548 650 651 550 432 532
8 657 556 438 539 762 666 548 650
8 652 551 668 763 533 433 550 651
8 654 552 669 764 536 434 551 652
8 655 549 431 537 765 665 547 653
8 538 435 549 655 654 552 667 766
8 661 554 671 768 542 436 553 656
8 658 558 440 540 769 674 556 657
8 658 558 675 770 540 440 557 659
8 659 557 673 771 541 439 555 660
8 660 555 672 772 543 437 554 661
8 788 686 570 676 704 591 473 590
8 677 571 453 560 788 686 570 676
8 679 573 455 562 789 687 571 677
8 566 459 577 683 678 575 691 790
8 681 574 456 564 791 689 573 679
8 680 572 688 792 567 460 578 684
8 681 574 688 792 564 456 572 680
8 682 576 692 794 566 459 577 683
8 569 461 579 685 682 576 692 794
8 568 462 578 684 685 579 694 796
8 687 581 464 571 798 696 580 686
8 798 696 580 686 705 592 474 591
8 689 583 466 573 799 697 581 687
8 688 582 698 800 578 471 588 694
8 690 584 698 800 574 467 582 688
8 690 584 467 574 801 699 583 689
8 693 587 701 803 577 470 585 691
8 693 587 470 577 804 702 586 692
8 695 589 702 804 579 472 586 692
8 695 589 472 579 805 703 588 694
8 708 595 705 813 593 475 591 704
8 710 596 706 814 595 476 592 705
8 707 594 479 602 816 709 600 719
8 708 595 475 593 817 711 594 707
8 709 598 478 600 819 715 599 717
8 711 597 477 594 820 714 598 709
8 710 596 476 595 822 713 597 711
8 600 478 601 720 717 599 718 832
8 602 479 603 722 719 600 720 834
8 720 601 480 603 835 721 604 723
8 722 603 482 605 836 723 606 724
8 767 670 725 839 656 553 608 726
8 756 656 726 841 645 542 609 728
8 726 608 727 842 609 487 610 729
8 728 609 729 843 611 488 612 730
8 844 740 624 731 790 691 575 678
8 733 625 504 616 844 740 624 731
8 734 623 502 617 845 739 622 732
8 733 625 739 845 616 504 622 732
8 734 623 738 846 617 502 621 735
8 735 621 737 847 618 500 620 736
8 744 647 527 630 847 737 620 736
8 621 506 627 738 737 626 741 848
8 647 544 626 737 759 662 741 848
8 623 508 628 739 738 627 742 849
8 740 629 585 691 850 743 700 802
8 625 510 629 740 739 628 743 850
8 632 529 647 744 745 648 759 854
8 633 530 648 745 746 649 760 855
8 638 535 649 746 750 653 761 856
8 857 762 650 747 748 651 532 635
8 753 657 539 642 857 762 650 747
8 749 652 763 858 636 533 651 748
8 752 654 764 859 640 536 652 749
8 751 655 537 639 860 765 653 750
8 641 538 655 751 752 654 766 861
8 754 658 540 643 862 769 657 753
8 754 658 770 863 643 540 659 755
8 755 659 771 864 644 541 660 757
8 758 661 768 866 645 542 656 756
8 757 660 772 867 646 543 661 758
8 759 662 773 868 648 545 663 760
8 649 546 663 760 761 664 774 871
8 765 665 547 653 872 775 664 761
8 873 777 666 762 763 668 550 651
8 769 674 556 657 873 777 666 762
8 764 669 779 874 652 551 668 763
8 654 552 667 766 764 669 778 875
8 655 549 665 765 766 667 776 876
8 768 671 782 877 656 553 670 767
8 772 672 783 878 661 554 671 768
8 658 558 674 769 770 675 786 879
8 659 557 675 770 771 673 785 881
8 882 784 672 772 771 673 555 660
8 789 687 571 677 897 798 686 788
8 897 798 686 788 813 705 591 704
8 791 689 573 679 898 799 687 789
8 795 693 803 900 683 577 691 790
8 793 690 574 681 901 801 689 791
8 792 688 800 902 684 578 694 796
8 793 690 800 902 681 574 688 792
8 795 693 577 683 903 804 692 794
8 797 695 804 903 685 579 692 794
8 797 695 579 685 904 805 694 796
8 905 806 697 799 798 696 581 687
8 814 706 806 905 705 592 696 798
8 689 583 697 799 801 699 808 907
8 800 698 809 908 694 588 703 805
8 690 584 699 801 800 698 809 908
8 803 701 810 909 691 585 700 802
8 693 587 702 804 803 701 811 910
8 695 589 703 805 804 702 812 911
8 818 710 814 919 708 595 705 813
8 821 712 815 920 710 596 706 814
8 816 709 600 719 922 819 717 831
8 817 711 594 707 923 820 709 816
8 818 710 595 708 924 822 711 817
8 819 715 599 717 926 827 716 829
8 820 714 598 709 927 826 715 819
8 929 825 713 822 820 714 597 711
8 821 712 596 710 930 824 713 822
8 717 599 718 832 829 716 830 942
8 719 600 720 834 831 717 832 944
8 832 718 601 720 945 833 721 835
8 834 720 603 722 946 835 723 836
8 869 780 838 950 767 670 725 839
8 865 767 839 952 756 656 726 841
8 839 725 840 953 726 608 727 842
8 841 726 842 954 728 609 729 843
8 844 740 691 790 955 850 802 899
8 733 625 740 844 845 739 850 955
8 734 623 739 845 846 738 849 956
8 735 621 738 846 847 737 848 957
8 744 647 737 847 854 759 848 957
8 738 627 742 849 848 741 851 958
8 848 741 851 958 759 662 773 868
8 850 743 700 802 959 852 807 906
8 849 742 628 739 959 852 743 850
8 854 759 868 965 745 648 760 855
8 746 649 760 855 856 761 871 966
8 860 765 653 750 967 872 761 856
8 968 873 762 857 858 763 651 748
8 862 769 657 753 968 873 762 857
8 859 764 874 969 749 652 763 858
8 752 654 766 861 859 764 875 970
8 751 655 765 860 861 766 876 971
8 754 658 769 862 863 770 879 972
8 755 659 770 863 864 771 881 974
8 976 882 772 867 864 771 660 757
8 866 768 877 977 756 656 767 865
8 867 772 878 978 758 661 768 866
8 760 663 773 868 871 774 883 980
8 870 781 837 948 982 890 780 869
8 982 890 780 869 877 782 670 767
8 761 664 774 871 872 775 884 984
8 876 776 665 765 985 885 775 872
8 873 777 668 763 986 887 779 874
8 769 674 777 873 879 786 887 986
8 764 669 778 875 874 779 888 987
8 766 667 776 876 875 778 886 988
8 878 783 892 989 768 671 782 877
8 878 783 672 772 990 893 784 882
8 880 787 675 770 991 896 786 879
8 880 787 895 992 770 675 785 881
8 881 785 894 993 771 673 784 882
8 1006 905 799 898 897 798 687 789
8 919 814 905 1006 813 705 798 897
8 791 689 799 898 901 801 907 1007
8 900 803 909 1009 790 691 802 899
8 795 693 804 903 900 803 910 1010
8 902 800 908 1011 796 694 805 904
8 793 690 801 901 902 800 908 1011
8 797 695 805 904 903 804 911 1012
8 799 697 806 905 907 808 912 1013
8 920 815 912 1013 814 706 806 905
8 802 700 810 909 906 807 913 1014
8 801 699 808 907 908 809 914 1015
8 805 703 809 908 911 812 915 1016
8 803 701 811 910 909 810 916 1017
8 911 812 917 1018 804 702 811 910
8 925 821 920 1030 818 710 814 919
8 928 823 921 1031 821 712 815 920
8 922 819 717 831 1033 926 829 941
8 923 820 709 816 1034 927 819 922
8 1035 929 822 924 923 820 711 817
8 925 821 710 818 1036 930 822 924
8 1038 933 825 929 927 826 714 820
8 926 827 716 829 1039 935 828 939
8 927 826 715 819 1040 934 827 926
8 928 823 712 821 1041 931 824 930
8 1042 932 824 930 929 825 713 822
8 829 716 830 942 939 828 940 1058
8 831 717 832 944 941 829 942 1060
8 942 830 718 832 1061 943 833 945
8 944 832 720 834 1062 945 835 946
8 981 889 947 1064 870 781 837 948
8 948 837 949 1067 869 780 838 950
8 975 869 950 1069 865 767 839 952
8 950 838 951 1070 839 725 840 953
8 952 839 953 1071 841 726 842 954
8 955 850 802 899 1072 959 906 1008
8 956 849 739 845 1072 959 850 955
8 846 738 849 956 957 848 958 1073
8 957 848 958 1073 854 759 868 965
8 849 742 852 959 958 851 961 1076
8 960 853 961 1076 906 807 852 959
8 958 851 961 1076 868 773 883 980
8 960 853 807 906 1077 963 913 1014
8 855 760 868 965 966 871 980 1085
8 856 761 871 966 967 872 984 1086
8 971 876 765 860 1087 985 872 967
8 968 873 763 858 1088 986 874 969
8 862 769 873 968 972 879 986 1088
8 859 764 875 970 969 874 987 1089
8 861 766 876 971 970 875 988 1090
8 973 880 770 863 1091 991 879 972
8 973 880 992 1092 863 770 881 974
8 974 881 993 1093 864 771 882 976
8 979 870 948 1066 1094 982 869 975
8 1094 982 869 975 977 877 767 865
8 978 878 772 867 1095 990 882 976
8 978 878 989 1096 866 768 877 977
8 871 774 883 980 984 884 994 1099
8 983 891 999 1100 870 781 889 981
8 1101 1000 890 982 989 892 782 877
8 983 891 781 870 1101 1000 890 982
8 872 775 884 984 985 885 995 1103
8 876 776 885 985 988 886 996 1104
8 986 887 779 874 1105 998 888 987
8 879 786 887 986 991 896 998 1105
8 875 778 886 988 987 888 997 1106
8 990 893 1002 1107 878 783 892 989
8 1108 1003 893 990 993 894 784 882
8 880 787 896 991 992 895 1005 1109
8 993 894 785 881 1110 1004 895 992
8 898 799 905 1006 1007 907 1013 1120
8 1030 920 1013 1120 919 814 905 1006
8 901 801 907 1007 1011 908 1015 1121
8 899 802 909 1009 1008 906 1014 1122
8 900 803 910 1010 1009 909 1017 1123
8 1012 911 1018 1124 903 804 910 1010
8 904 805 908 1011 1012 911 1016 1125
8 1013 912 1020 1127 907 808 914 1015
8 1031 921 1020 1127 920 815 912 1013
8 1019 918 962 1075 1128 1021 913 1014
8 1128 1021 913 1014 1017 916 810 909
8 1015 914 1022 1129 908 809 915 1016
8 1016 915 1023 1130 911 812 917 1018
8 1018 917 1024 1131 910 811 916 1017
8 1037 928 1031 1148 925 821 920 1030
8 928 823 931 1041 1031 921 1032 1149
8 1033 926 829 941 1151 1039 939 1057
8 1034 927 819 922 1152 1040 926 1033
8 1153 1038 929 1035 1034 927 820 923
8 1154 1042 930 1036 1035 929 822 924
8 1037 928 821 925 1155 1041 930 1036
8 1039 935 828 939 1156 1047 938 1055
8 1157 1043 932 1042 1038 933 825 929
8 1038 933 826 927 1158 1045 934 1040
8 1040 934 827 926 1159 1046 935 1039
8 930 824 932 1042 1041 931 1044 1160
8 1051 936 1048 1165 1175 1052 937 1053
8 1156 1047 938 1055 1053 937 1054 1178
8 939 828 940 1058 1055 938 1056 1181
8 941 829 942 1060 1057 939 1058 1183
8 942 830 943 1061 1058 940 1059 1184
8 1060 942 832 944 1185 1061 945 1062
8 1082 964 1063 1188 981 889 947 1064
8 1097 981 1064 1190 979 870 948 1066
8 1064 947 1065 1191 948 837 949 1067
8 1066 948 1067 1193 975 869 950 1069
8 1067 949 1068 1194 950 838 951 1070
8 1069 950 1070 1195 952 839 953 1071
8 956 849 959 1072 1073 958 1076 1197
8 1074 960 1076 1197 1008 906 959 1072
8 1073 958 1076 1197 965 868 980 1085
8 1074 960 906 1008 1198 1077 1014 1122
8 1133 1026 1079 1199 1019 918 962 1075
8 1077 963 913 1014 1200 1080 962 1075
8 960 853 963 1077 1076 961 1078 1201
8 980 883 961 1076 1099 994 1078 1201
8 1210 1083 964 1082 1100 999 889 981
8 966 871 980 1085 1086 984 1099 1215
8 967 872 984 1086 1087 985 1103 1216
8 971 876 985 1087 1090 988 1104 1217
8 1088 986 874 969 1218 1105 987 1089
8 972 879 986 1088 1091 991 1105 1218
8 970 875 988 1090 1089 987 1106 1219
8 973 880 991 1091 1092 992 1109 1220
8 1093 993 881 974 1221 1110 992 1092
8 1222 1108 990 1095 1093 993 882 976
8 1223 1101 982 1094 1096 989 877 977
8 1098 983 870 979 1223 1101 982 1094
8 1095 990 1107 1224 978 878 989 1096
8 1098 983 1100 1225 979 870 981 1097
8 984 884 994 1099 1103 995 1111 1227
8 1102 1001 1115 1228 983 891 999 1100
8 1101 1000 892 989 1229 1116 1002 1107
8 1102 1001 891 983 1229 1116 1000 1101
8 985 885 995 1103 1104 996 1112 1230
8 988 886 996 1104 1106 997 1113 1231
8 1105 998 888 987 1232 1114 997 1106
8 991 896 998 1105 1109 1005 1114 1232
8 1108 1003 1117 1233 990 893 1002 1107
8 1108 1003 894 993 1233 1117 1004 1110
8 992 895 1005 1109 1110 1004 1118 1234
8 1120 1013 1127 1244 1007 907 1015 1121
8 1148 1031 1127 1244 1030 920 1013 1120
8 1121 1015 1129 1245 1011 908 1016 1125
8 1126 1019 1075 1196 1246 1128 1014 1122
8 1246 1128 1014 1122 1123 1017 909 1009
8 1124 1018 1131 1247 1010 910 1017 1123
8 1125 1016 1130 1248 1012 911 1018 1124
8 1127 1020 1137 1254 1015 914 1022 1129
8 1031 921 1032 1149 1127 1020 1137 1254
8 1134 1027 918 1019 1257 1140 1021 1128
8 1257 1140 1021 1128 1131 1024 916 1017
8 1129 1022 1141 1258 1016 915 1023 1130
8 1130 1023 1142 1259 1018 917 1024 1131
8 1261 1144 1025 1132 1133 1026 1079 1199
8 1255 1138 1025 1132 1135 1028 1144 1261
8 1133 1026 918 1019 1262 1145 1027 1134
8 1136 1029 1139 1256 1263 1146 1028 1135
8 1037 928 1041 1155 1148 1031 1149 1275
8 1041 931 1044 1160 1149 1032 1150 1276
8 1151 1039 939 1057 1278 1156 1055 1180
8 1152 1040 926 1033 1279 1159 1039 1151
8 1153 1038 927 1034 1280 1158 1040 1152
8 1281 1157 1042 1154 1153 1038 929 1035
8 1036 930 1042 1154 1155 1041 1160 1282
8 1283 1164 1046 1159 1156 1047 935 1039
8 1165 1048 1164 1283 1053 937 1047 1156
8 1157 1043 933 1038 1284 1161 1045 1158
8 1157 1043 1161 1284 1042 932 1044 1160
8 1040 934 1046 1159 1158 1045 1163 1285
8 1166 1049 1167 1292 1051 936 1048 1165
8 1166 1049 936 1051 1293 1168 1050 1172
8 1051 936 1052 1175 1172 1050 1173 1306
8 1174 1051 1165 1290 1308 1175 1053 1177
8 1053 937 1054 1178 1175 1052 1176 1309
8 1278 1156 1055 1180 1177 1053 1178 1311
8 1055 938 1056 1181 1178 1054 1179 1312
8 1057 939 1058 1183 1180 1055 1181 1314
8 1058 940 1059 1184 1181 1056 1182 1315
8 1060 942 1061 1185 1183 1058 1184 1316
8 1208 1081 1187 1321 1082 964 1063 1188
8 1209 1082 1188 1322 1097 981 1064 1190
8 1188 1063 1189 1323 1064 947 1065 1191
8 1190 1064 1191 1325 1066 948 1067 1193
8 1191 1065 1192 1326 1067 949 1068 1194
8 1067 1193 1069 950 1194 1327 1195 1070
8 1250 1133 1199 1330 1126 1019 1075 1196
8 1198 1077 1014 1122 1331 1200 1075 1196
8 1074 960 1077 1198 1197 1076 1201 1332
8 1085 980 1076 1197 1215 1099 1201 1332
8 1199 1079 1203 1333 1075 962 1080 1200
8 1132 1025 1119 1243 1199 1079 1203 1333
8 1201 1078 963 1077 1334 1202 1080 1200
8 1099 994 1078 1201 1227 1111 1202 1334
8 1343 1207 1081 1208 1210 1083 964 1082
8 1214 1084 1186 1319 1343 1207 1081 1208
8 1345 1210 1082 1209 1225 1100 981 1097
8 1346 1211 1083 1210 1228 1115 999 1100
8 1086 984 1099 1215 1216 1103 1227 1352
8 1087 985 1103 1216 1217 1104 1230 1353
8 1090 988 1104 1217 1219 1106 1231 1354
8 1218 1105 987 1089 1355 1232 1106 1219
8 1091 991 1105 1218 1220 1109 1232 1355
8 1092 992 1109 1220 1221 1110 1234 1356
8 1222 1108 1233 1357 1095 990 1107 1224
8 1222 1108 993 1093 1357 1233 1110 1221
8 1223 1101 989 1096 1358 1229 1107 1224
8 1226 1102 983 1098 1358 1229 1101 1223
8 1226 1102 1228 1359 1098 983 1100 1225
8 1103 995 1111 1227 1230 1112 1235 1360
8 1107 1002 1117 1233 1229 1116 1240 1362
8 1102 1001 1116 1229 1228 1115 1240 1362
8 1104 996 1112 1230 1231 1113 1236 1363
8 1364 1237 1114 1232 1231 1113 997 1106
8 1109 1005 1114 1232 1234 1118 1238 1365
8 1110 1004 1118 1234 1233 1117 1241 1366
8 1242 1374 1255 1138 1119 1243 1132 1025
8 1244 1127 1254 1376 1121 1015 1129 1245
8 1148 1031 1149 1275 1244 1127 1254 1376
8 1245 1129 1258 1377 1125 1016 1130 1248
8 1251 1134 1019 1126 1378 1257 1128 1246
8 1378 1257 1128 1246 1247 1131 1017 1123
8 1248 1130 1259 1379 1124 1018 1131 1247
8 1261 1381 1250 1133 1132 1249 1330 1199
8 1255 1380 1252 1135 1132 1249 1381 1261
8 1250 1133 1019 1126 1382 1262 1134 1251
8 1253 1136 1256 1385 1384 1263 1135 1252
8 1254 1137 1265 1387 1129 1022 1141 1258
8 1149 1032 1150 1276 1254 1137 1265 1387
8 1028 1135 1255 1138 1139 1256 1388 1266
8 1136 1029 1147 1264 1256 1139 1267 1389
8 1390 1268 1140 1257 1259 1142 1024 1131
8 1260 1143 1027 1134 1390 1268 1140 1257
8 1258 1141 1269 1391 1130 1023 1142 1259
8 1262 1145 1027 1134 1393 1271 1143 1260
8 1261 1144 1026 1133 1394 1272 1145 1262
8 1135 1028 1144 1261 1263 1146 1272 1394
8 1136 1029 1146 1263 1264 1147 1273 1395
8 1155 1041 1160 1282 1275 1149 1276 1405
8 1276 1150 1044 1160 1406 1277 1162 1286
8 1408 1283 1159 1279 1278 1156 1039 1151
8 1290 1165 1283 1408 1177 1053 1156 1278
8 1152 1040 1159 1279 1280 1158 1285 1409
8 1281 1157 1038 1153 1410 1284 1158 1280
8 1281 1157 1284 1410 1154 1042 1160 1282
8 1159 1046 1164 1283 1285 1163 1289 1412
8 1292 1167 1289 1412 1165 1048 1164 1283
8 1158 1045 1163 1285 1284 1161 1288 1413
8 1284 1161 1288 1413 1160 1044 1162 1286
8 1291 1166 1292 1418 1174 1051 1165 1290
8 1291 1166 1051 1174 1419 1293 1172 1305
8 1294 1169 1296 1421 1166 1049 1167 1292
8 1293 1168 1050 1172 1422 1295 1171 1303
8 1294 1169 1049 1166 1423 1297 1168 1293
8 1422 1295 1171 1303 1301 1170 1302 1435
8 1172 1050 1173 1306 1303 1171 1304 1438
8 1174 1051 1175 1308 1305 1172 1306 1440
8 1175 1052 1176 1309 1306 1173 1307 1441
8 1177 1053 1178 1311 1308 1175 1309 1443
8 1178 1054 1179 1312 1309 1176 1310 1444
8 1180 1055 1181 1314 1311 1178 1312 1446
8 1056 1181 1312 1179 1182 1315 1447 1313
8 1183 1058 1184 1316 1314 1181 1315 1448
8 1319 1186 1084 1214 1451 1317 1213 1350
8 1319 1186 1318 1453 1208 1081 1187 1321
8 1321 1187 1320 1456 1188 1063 1189 1323
8 1344 1208 1321 1457 1209 1082 1188 1322
8 1322 1188 1323 1458 1190 1064 1191 1325
8 1323 1189 1324 1459 1191 1065 1192 1326
8 1191 1325 1193 1067 1326 1460 1327 1194
8 1242 1374 1243 1119 1328 1462 1335 1204
8 1330 1199 1333 1465 1196 1075 1200 1331
8 1132 1249 1330 1199 1243 1375 1465 1333
8 1332 1201 1077 1198 1466 1334 1200 1331
8 1215 1099 1201 1332 1352 1227 1334 1466
8 1119 1243 1333 1203 1204 1335 1470 1338
8 1333 1203 1338 1470 1200 1080 1202 1334
8 1227 1111 1202 1334 1360 1235 1338 1470
8 1328 1462 1335 1204 1205 1336 1471 1339
8 1337 1206 1340 1472 1464 1329 1205 1336
8 1346 1211 1342 1479 1210 1083 1207 1343
8 1346 1211 1115 1228 1479 1342 1239 1361
8 1348 1212 1084 1214 1479 1342 1207 1343
8 1480 1343 1208 1344 1345 1210 1082 1209
8 1351 1214 1319 1454 1480 1343 1208 1344
8 1481 1346 1210 1345 1359 1228 1100 1225
8 1348 1212 1347 1483 1214 1084 1213 1350
8 1216 1103 1227 1352 1353 1230 1360 1488
8 1217 1104 1230 1353 1354 1231 1363 1489
8 1490 1364 1232 1355 1354 1231 1106 1219
8 1220 1109 1232 1355 1356 1234 1365 1491
8 1221 1110 1234 1356 1357 1233 1366 1492
8 1224 1107 1233 1357 1358 1229 1362 1493
8 1226 1102 1229 1358 1359 1228 1362 1493
8 1230 1112 1235 1360 1363 1236 1367 1496
8 1361 1239 1115 1228 1497 1371 1240 1362
8 1366 1241 1372 1498 1233 1117 1240 1362
8 1364 1237 1113 1231 1499 1368 1236 1363
8 1364 1237 1368 1499 1232 1114 1238 1365
8 1234 1118 1238 1365 1366 1241 1369 1500
8 1507 1373 1242 1374 1388 1266 1138 1255
8 1508 1374 1243 1375 1380 1255 1132 1249
8 1376 1254 1387 1509 1245 1129 1258 1377
8 1275 1149 1276 1405 1376 1254 1387 1509
8 1377 1258 1391 1510 1248 1130 1259 1379
8 1511 1390 1257 1378 1379 1259 1131 1247
8 1383 1260 1134 1251 1511 1390 1257 1378
8 1252 1135 1256 1385 1380 1255 1388 1512
8 1261 1381 1513 1394 1133 1250 1382 1262
8 1135 1252 1384 1263 1261 1381 1513 1394
8 1382 1262 1134 1251 1514 1393 1260 1383
8 1253 1136 1263 1384 1386 1264 1395 1516
8 1253 1136 1264 1386 1385 1256 1389 1517
8 1387 1265 1397 1519 1258 1141 1269 1391
8 1276 1150 1277 1406 1387 1265 1397 1519
8 1256 1139 1267 1389 1388 1266 1398 1520
8 1264 1147 1274 1396 1389 1267 1399 1521
8 1392 1270 1143 1260 1522 1400 1268 1390
8 1390 1268 1142 1259 1522 1400 1269 1391
8 1392 1270 1401 1523 1260 1143 1271 1393
8 1272 1394 1524 1402 1145 1262 1393 1271
8 1395 1273 1146 1263 1524 1402 1272 1394
8 1273 1395 1264 1147 1403 1526 1396 1274
8 1405 1276 1160 1282 1534 1406 1286 1411
8 1414 1287 1407 1535 1286 1162 1277 1406
8 1279 1159 1283 1408 1409 1285 1412 1537
8 1418 1292 1412 1537 1290 1165 1283 1408
8 1280 1158 1285 1409 1410 1284 1413 1538
8 1410 1284 1413 1538 1282 1160 1286 1411
8 1285 1163 1289 1412 1413 1288 1417 1540
8 1421 1296 1417 1540 1292 1167 1289 1412
8 1414 1287 1162 1286 1541 1416 1288 1413
8 1420 1294 1421 1545 1291 1166 1292 1418
8 1419 1293 1172 1305 1546 1422 1303 1437
8 1420 1294 1166 1291 1547 1423 1293 1419
8 1294 1169 1297 1423 1421 1296 1425 1548
8 1423 1297 1168 1293 1549 1424 1295 1422
8 1301 1170 1298 1427 1422 1295 1424 1549
8 1432 1300 1428 1554 1301 1170 1298 1427
8 1431 1299 1428 1554 1560 1430 1300 1432
8 1563 1433 1300 1432 1435 1302 1170 1301
8 1546 1422 1303 1437 1434 1301 1435 1565
8 1303 1171 1304 1438 1435 1302 1436 1566
8 1305 1172 1306 1440 1437 1303 1438 1568
8 1306 1173 1307 1441 1438 1304 1439 1569
8 1308 1175 1309 1443 1440 1306 1441 1571
8 1309 1176 1310 1444 1441 1307 1442 1572
8 1311 1178 1312 1446 1443 1309 1444 1574
8 1179 1312 1444 1310 1313 1447 1575 1445
8 1314 1181 1315 1448 1446 1312 1447 1576
8 1350 1213 1349 1486 1451 1317 1449 1579
8 1451 1317 1450 1581 1319 1186 1318 1453
8 1454 1319 1214 1351 1582 1451 1350 1487
8 1453 1318 1452 1584 1321 1187 1320 1456
8 1454 1319 1453 1585 1344 1208 1321 1457
8 1456 1320 1455 1586 1323 1189 1324 1459
8 1457 1321 1456 1587 1322 1188 1323 1458
8 1458 1323 1459 1588 1325 1191 1326 1460
8 1205 1336 1464 1329 1328 1462 1590 1461
8 1507 1373 1461 1590 1374 1242 1328 1462
8 1508 1374 1462 1591 1375 1243 1335 1467
8 1337 1206 1329 1464 1473 1341 1463 1594
8 1375 1243 1335 1467 1465 1333 1470 1596
8 1465 1333 1470 1596 1331 1200 1334 1466
8 1352 1227 1334 1466 1488 1360 1470 1596
8 1591 1462 1336 1468 1467 1335 1471 1597
8 1469 1337 1472 1598 1595 1464 1336 1468
8 1471 1339 1474 1600 1335 1204 1338 1470
8 1600 1474 1367 1496 1470 1338 1235 1360
8 1336 1205 1340 1472 1471 1339 1475 1601
8 1337 1206 1341 1473 1472 1340 1476 1602
8 1495 1370 1478 1609 1361 1239 1342 1479
8 1348 1212 1342 1479 1483 1347 1478 1609
8 1481 1346 1479 1610 1345 1210 1343 1480
8 1481 1346 1228 1359 1610 1479 1361 1494
8 1484 1348 1214 1351 1610 1479 1343 1480
8 1483 1347 1482 1612 1350 1213 1349 1486
8 1484 1348 1483 1613 1351 1214 1350 1487
8 1353 1230 1360 1488 1489 1363 1496 1616
8 1490 1364 1231 1354 1617 1499 1363 1489
8 1490 1364 1499 1617 1355 1232 1365 1491
8 1356 1234 1365 1491 1492 1366 1500 1619
8 1492 1366 1498 1620 1357 1233 1362 1493
8 1494 1361 1228 1359 1621 1497 1362 1493
8 1495 1370 1239 1361 1622 1504 1371 1497
8 1363 1236 1367 1496 1499 1368 1501 1623
8 1497 1371 1240 1362 1624 1505 1372 1498
8 1625 1503 1372 1498 1500 1369 1241 1366
8 1365 1238 1368 1499 1500 1369 1502 1626
8 1520 1398 1506 1633 1388 1266 1373 1507
8 1634 1507 1374 1508 1512 1388 1255 1380
8 1509 1387 1519 1635 1377 1258 1391 1510
8 1405 1276 1406 1534 1509 1387 1519 1635
8 1515 1392 1260 1383 1636 1522 1390 1511
8 1511 1390 1259 1379 1636 1522 1391 1510
8 1385 1256 1389 1517 1512 1388 1520 1637
8 1513 1394 1262 1382 1638 1524 1393 1514
8 1395 1516 1638 1524 1263 1384 1513 1394
8 1515 1392 1523 1639 1383 1260 1393 1514
8 1516 1395 1526 1640 1386 1264 1396 1518
8 1386 1264 1396 1518 1517 1389 1521 1641
8 1519 1397 1527 1643 1391 1269 1400 1522
8 1535 1407 1527 1643 1406 1277 1397 1519
8 1389 1267 1399 1521 1520 1398 1528 1644
8 1645 1529 1399 1521 1525 1404 1274 1396
8 1392 1270 1400 1522 1523 1401 1531 1646
8 1524 1402 1271 1393 1648 1532 1401 1523
8 1403 1526 1648 1532 1273 1395 1524 1402
8 1525 1404 1274 1396 1649 1533 1403 1526
8 1539 1414 1535 1657 1411 1286 1406 1534
8 1542 1415 1536 1658 1414 1287 1407 1535
8 1409 1285 1412 1537 1538 1413 1540 1660
8 1545 1421 1540 1660 1418 1292 1412 1537
8 1539 1414 1286 1411 1661 1541 1413 1538
8 1540 1417 1544 1663 1413 1288 1416 1541
8 1421 1296 1425 1548 1540 1417 1544 1663
8 1542 1415 1287 1414 1664 1543 1416 1541
8 1420 1294 1423 1547 1545 1421 1548 1666
8 1547 1423 1293 1419 1667 1549 1422 1546
8 1434 1301 1427 1553 1546 1422 1549 1667
8 1423 1297 1424 1549 1548 1425 1550 1668
8 1551 1426 1550 1668 1427 1298 1424 1549
8 1551 1426 1298 1427 1671 1552 1428 1554
8 1562 1432 1554 1674 1434 1301 1427 1553
8 1431 1299 1429 1558 1554 1428 1555 1675
8 1431 1299 1430 1560 1558 1429 1557 1680
8 1560 1430 1300 1432 1683 1559 1433 1563
8 1561 1431 1554 1674 1684 1560 1432 1562
8 1685 1563 1432 1562 1565 1435 1301 1434
8 1435 1302 1436 1566 1563 1433 1564 1686
8 1437 1303 1438 1568 1565 1435 1566 1688
8 1438 1304 1439 1569 1566 1436 1567 1689
8 1440 1306 1441 1571 1568 1438 1569 1691
8 1441 1307 1442 1572 1569 1439 1570 1692
8 1443 1309 1444 1574 1571 1441 1572 1694
8 1310 1444 1572 1442 1445 1575 1695 1573
8 1446 1312 1447 1576 1574 1444 1575 1696
8 1486 1349 1485 1614 1579 1449 1577 1699
8 1451 1317 1449 1579 1581 1450 1578 1701
8 1487 1350 1486 1615 1582 1451 1579 1702
8 1581 1450 1580 1704 1453 1318 1452 1584
8 1582 1451 1581 1705 1454 1319 1453 1585
8 1584 1452 1583 1706 1456 1320 1455 1586
8 1585 1453 1584 1707 1457 1321 1456 1587
8 1587 1456 1586 1708 1458 1323 1459 1588
8 1633 1506 1589 1710 1507 1373 1461 1590
8 1464 1329 1461 1590 1594 1463 1589 1710
8 1468 1336 1462 1591 1595 1464 1590 1711
8 1634 1507 1590 1711 1508 1374 1462 1591
8 1473 1341 1463 1594 1603 1477 1593 1716
8 1469 1337 1464 1595 1599 1473 1594 1717
8 1471 1597 1467 1335 1600 1718 1596 1470
8 1718 1600 1496 1616 1596 1470 1360 1488
8 1336 1468 1597 1471 1472 1598 1719 1601
8 1469 1337 1473 1599 1598 1472 1602 1720
8 1722 1604 1501 1623 1600 1474 1367 1496
8 1475 1601 1471 1339 1604 1722 1600 1474
8 1602 1476 1605 1723 1472 1340 1475 1601
8 1476 1602 1724 1606 1341 1473 1603 1477
8 1483 1347 1478 1609 1612 1482 1608 1731
8 1495 1370 1504 1622 1609 1478 1608 1731
8 1618 1495 1609 1732 1494 1361 1479 1610
8 1484 1348 1479 1610 1613 1483 1609 1732
8 1486 1349 1482 1612 1614 1485 1611 1733
8 1613 1483 1612 1734 1487 1350 1486 1615
8 1489 1363 1496 1616 1617 1499 1623 1736
8 1491 1365 1499 1617 1619 1500 1626 1737
8 1618 1495 1361 1494 1738 1622 1497 1621
8 1739 1625 1498 1620 1619 1500 1366 1492
8 1621 1497 1362 1493 1740 1624 1498 1620
8 1742 1631 1504 1622 1624 1505 1371 1497
8 1743 1628 1502 1626 1623 1501 1368 1499
8 1744 1630 1505 1624 1625 1503 1372 1498
8 1745 1629 1503 1625 1626 1502 1369 1500
8 1520 1398 1528 1644 1633 1506 1632 1751
8 1637 1520 1633 1752 1512 1388 1507 1634
8 1635 1519 1643 1753 1510 1391 1522 1636
8 1657 1535 1643 1753 1534 1406 1519 1635
8 1515 1392 1522 1636 1639 1523 1646 1754
8 1517 1389 1521 1641 1637 1520 1644 1755
8 1524 1638 1756 1648 1393 1514 1639 1523
8 1640 1526 1395 1516 1756 1648 1524 1638
8 1642 1525 1396 1518 1757 1649 1526 1640
8 1758 1645 1521 1641 1642 1525 1396 1518
8 1646 1531 1400 1522 1760 1650 1527 1643
8 1535 1407 1536 1658 1643 1527 1650 1760
8 1521 1399 1529 1645 1644 1528 1651 1761
8 1647 1530 1652 1762 1525 1404 1529 1645
8 1401 1523 1648 1532 1531 1646 1763 1655
8 1525 1404 1533 1649 1647 1530 1654 1765
8 1533 1649 1766 1656 1403 1526 1648 1532
8 1662 1542 1658 1774 1539 1414 1535 1657
8 1542 1415 1543 1664 1658 1536 1659 1775
8 1660 1540 1663 1777 1538 1413 1541 1661
8 1545 1421 1548 1666 1660 1540 1663 1777
8 1662 1542 1414 1539 1778 1664 1541 1661
8 1664 1543 1416 1541 1779 1665 1544 1663
8 1548 1425 1550 1668 1663 1544 1665 1779
8 1547 1423 1549 1667 1666 1548 1668 1781
8 1670 1551 1668 1781 1553 1427 1549 1667
8 1551 1426 1552 1671 1668 1550 1669 1782
8 1670 1551 1427 1553 1784 1671 1554 1674
8 1675 1555 1672 1785 1554 1428 1552 1671
8 1678 1556 1673 1789 1558 1429 1555 1675
8 1561 1431 1558 1681 1674 1554 1675 1790
8 1794 1677 1556 1678 1680 1557 1429 1558
8 1560 1430 1559 1683 1680 1557 1679 1797
8 1561 1431 1560 1684 1681 1558 1680 1798
8 1563 1433 1564 1686 1683 1559 1682 1800
8 1684 1560 1432 1562 1801 1683 1563 1685
8 1565 1435 1566 1688 1685 1563 1686 1802
8 1566 1436 1567 1689 1686 1564 1687 1803
8 1568 1438 1569 1691 1688 1566 1689 1805
8 1569 1439 1570 1692 1689 1567 1690 1806
8 1571 1441 1572 1694 1691 1569 1692 1808
8 1442 1572 1692 1570 1573 1695 1809 1693
8 1574 1444 1575 1696 1694 1572 1695 1810
8 1614 1485 1592 1712 1699 1577 1697 1813
8 1579 1449 1577 1699 1701 1578 1698 1815
8 1615 1486 1614 1735 1702 1579 1699 1816
8 1701 1578 1700 1818 1581 1450 1580 1704
8 1582 1451 1579 1702 1705 1581 1701 1819
8 1704 1580 1703 1820 1584 1452 1583 1706
8 1705 1581 1704 1821 1585 1453 1584 1707
8 1707 1584 1706 1822 1587 1456 1586 1708
8 1710 1589 1506 1633 1824 1709 1632 1751
8 1594 1463 1589 1710 1716 1593 1709 1824
8 1752 1633 1710 1825 1634 1507 1590 1711
8 1595 1464 1590 1711 1717 1594 1710 1825
8 1830 1714 1592 1712 1733 1611 1485 1614
8 1603 1477 1593 1716 1725 1607 1715 1834
8 1599 1473 1594 1717 1721 1603 1716 1835
8 1837 1722 1623 1736 1718 1600 1496 1616
8 1719 1601 1722 1837 1597 1471 1600 1718
8 1602 1720 1598 1472 1723 1838 1719 1601
8 1720 1602 1473 1599 1839 1724 1603 1721
8 1723 1605 1726 1840 1601 1475 1604 1722
8 1840 1726 1628 1743 1722 1604 1501 1623
8 1724 1606 1727 1841 1602 1476 1605 1723
8 1725 1607 1728 1842 1603 1477 1606 1724
8 1612 1482 1608 1731 1733 1611 1730 1849
8 1741 1627 1730 1849 1622 1504 1608 1731
8 1613 1483 1609 1732 1734 1612 1731 1850
8 1618 1495 1622 1738 1732 1609 1731 1850
8 1615 1486 1612 1734 1735 1614 1733 1851
8 1852 1743 1626 1737 1736 1623 1499 1617
8 1853 1745 1625 1739 1737 1626 1500 1619
8 1855 1742 1622 1738 1740 1624 1497 1621
8 1856 1744 1624 1740 1739 1625 1498 1620
8 1741 1627 1504 1622 1857 1746 1631 1742
8 1742 1631 1505 1624 1858 1749 1630 1744
8 1859 1747 1629 1745 1743 1628 1502 1626
8 1860 1748 1630 1744 1745 1629 1503 1625
8 1644 1528 1651 1761 1751 1632 1750 1865
8 1637 1520 1644 1755 1752 1633 1751 1866
8 1754 1646 1522 1636 1867 1760 1643 1753
8 1657 1535 1658 1774 1753 1643 1760 1867
8 1639 1523 1646 1754 1756 1648 1763 1868
8 1641 1521 1645 1758 1755 1644 1761 1869
8 1757 1649 1526 1640 1870 1766 1648 1756
8 1642 1525 1649 1757 1759 1647 1765 1871
8 1759 1647 1762 1872 1642 1525 1645 1758
8 1760 1650 1767 1874 1646 1531 1655 1763
8 1658 1536 1659 1775 1760 1650 1767 1874
8 1762 1652 1768 1875 1645 1529 1651 1761
8 1764 1653 1769 1876 1647 1530 1652 1762
8 1656 1766 1877 1773 1532 1648 1763 1655
8 1771 1879 1765 1654 1653 1764 1647 1530
8 1533 1649 1765 1654 1656 1766 1880 1772
8 1662 1542 1664 1778 1774 1658 1775 1887
8 1664 1543 1665 1779 1775 1659 1776 1888
8 1778 1664 1541 1661 1890 1779 1663 1777
8 1666 1548 1668 1781 1777 1663 1779 1890
8 1782 1669 1780 1891 1668 1550 1665 1779
8 1670 1551 1671 1784 1781 1668 1782 1893
8 1671 1552 1672 1785 1782 1669 1783 1894
8 1790 1675 1785 1896 1674 1554 1671 1784
8 1675 1555 1673 1789 1785 1672 1786 1897
8 1792 1676 1788 1903 1678 1556 1673 1789
8 1795 1678 1789 1904 1681 1558 1675 1790
8 1792 1676 1556 1678 1906 1791 1677 1794
8 1680 1557 1679 1797 1794 1677 1793 1909
8 1910 1794 1678 1795 1798 1680 1558 1681
8 1683 1559 1682 1800 1797 1679 1796 1912
8 1684 1560 1683 1801 1798 1680 1797 1913
8 1686 1564 1687 1803 1800 1682 1799 1915
8 1685 1563 1686 1802 1801 1683 1800 1916
8 1688 1566 1689 1805 1802 1686 1803 1917
8 1689 1567 1690 1806 1803 1687 1804 1918
8 1691 1569 1692 1808 1805 1689 1806 1920
8 1692 1570 1693 1809 1806 1690 1807 1921
8 1694 1572 1695 1810 1808 1692 1809 1922
8 1829 1713 1811 1926 1712 1592 1697 1813
8 1813 1697 1812 1928 1699 1577 1698 1815
8 1735 1614 1712 1828 1816 1699 1813 1929
8 1815 1698 1814 1931 1701 1578 1700 1818
8 1702 1579 1699 1816 1819 1701 1815 1932
8 1818 1700 1817 1933 1704 1580 1703 1820
8 1819 1701 1818 1934 1705 1581 1704 1821
8 1821 1704 1820 1935 1707 1584 1706 1822
8 1824 1709 1632 1751 1937 1823 1750 1865
8 1716 1593 1709 1824 1834 1715 1823 1937
8 1825 1710 1633 1752 1938 1824 1751 1866
8 1717 1594 1710 1825 1835 1716 1824 1938
8 1945 1830 1712 1828 1851 1733 1614 1735
8 1830 1714 1831 1946 1712 1592 1713 1829
8 1947 1832 1714 1830 1849 1730 1611 1733
8 1843 1729 1607 1725 1950 1833 1715 1834
8 1721 1603 1716 1835 1836 1725 1834 1951
8 1836 1725 1842 1953 1721 1603 1724 1839
8 1723 1838 1719 1601 1840 1954 1837 1722
8 1954 1840 1743 1852 1837 1722 1623 1736
8 1724 1839 1720 1602 1841 1955 1838 1723
8 1841 1727 1844 1956 1723 1605 1726 1840
8 1956 1844 1747 1859 1840 1726 1628 1743
8 1728 1842 1724 1606 1845 1957 1841 1727
8 1725 1607 1729 1843 1842 1728 1846 1958
8 1741 1627 1746 1857 1849 1730 1848 1965
8 1734 1612 1731 1850 1851 1733 1849 1966
8 1854 1741 1849 1966 1738 1622 1731 1850
8 1967 1859 1745 1853 1852 1743 1626 1737
8 1968 1860 1744 1856 1853 1745 1625 1739
8 1854 1741 1622 1738 1969 1857 1742 1855
8 1855 1742 1624 1740 1970 1858 1744 1856
8 1857 1746 1631 1742 1971 1861 1749 1858
8 1858 1749 1630 1744 1972 1863 1748 1860
8 1859 1747 1862 1973 1745 1629 1748 1860
8 1875 1768 1864 1977 1761 1651 1750 1865
8 1755 1644 1761 1869 1866 1751 1865 1978
8 1867 1760 1874 1979 1754 1646 1763 1868
8 1774 1658 1775 1887 1867 1760 1874 1979
8 1870 1766 1648 1756 1980 1877 1763 1868
8 1872 1762 1875 1981 1758 1645 1761 1869
8 1757 1649 1766 1870 1871 1765 1880 1982
8 1983 1879 1764 1873 1871 1765 1647 1759
8 1873 1764 1876 1984 1759 1647 1762 1872
8 1877 1773 1655 1763 1986 1881 1767 1874
8 1775 1659 1776 1888 1874 1767 1881 1986
8 1876 1769 1882 1987 1762 1652 1768 1875
8 1878 1770 1883 1988 1764 1653 1769 1876
8 1880 1772 1656 1766 1989 1886 1773 1877
8 1878 1770 1653 1764 1990 1884 1771 1879
8 1765 1654 1772 1880 1879 1771 1885 1991
8 1778 1664 1779 1890 1887 1775 1888 1997
8 1998 1889 1776 1888 1891 1780 1665 1779
8 1893 1782 1891 2000 1781 1668 1779 1890
8 1894 1783 1892 2001 1782 1669 1780 1891
8 1784 1671 1785 1896 1893 1782 1894 2003
8 1897 1786 1895 2004 1785 1672 1783 1894
8 1790 1675 1789 1904 1896 1785 1897 2006
8 1901 1787 1898 2007 1789 1673 1786 1897
8 1903 1788 1900 2013 1789 1673 1787 1901
8 1792 1676 1791 1906 1903 1788 1902 2016
8 1907 1792 1903 2017 1795 1678 1789 1904
8 1906 1791 1677 1794 2019 1905 1793 1909
8 1907 1792 1678 1795 2020 1906 1794 1910
8 1797 1679 1796 1912 1909 1793 1908 2022
8 1798 1680 1797 1913 1910 1794 1909 2023
8 1800 1682 1799 1915 1912 1796 1911 2025
8 1801 1683 1800 1916 1913 1797 1912 2026
8 1803 1687 1804 1918 1915 1799 1914 2028
8 1802 1686 1803 1917 1916 1800 1915 2029
8 1805 1689 1806 1920 1917 1803 1918 2030
8 1806 1690 1807 1921 1918 1804 1919 2031
8 1808 1692 1809 1922 1920 1806 1921 2032
8 1939 1826 1924 2037 1829 1713 1811 1926
8 1926 1811 1925 2039 1813 1697 1812 1928
8 1944 1829 1926 2040 1828 1712 1813 1929
8 1928 1812 1927 2042 1815 1698 1814 1931
8 1929 1813 1928 2043 1816 1699 1815 1932
8 1931 1814 1930 2044 1818 1700 1817 1933
8 1932 1815 1931 2045 1819 1701 1818 1934
8 1934 1818 1933 2046 1821 1704 1820 1935
8 2048 1936 1823 1937 1977 1864 1750 1865
8 1950 1833 1715 1834 2048 1936 1823 1937
8 1938 1824 1751 1866 2049 1937 1865 1978
8 1835 1716 1824 1938 1951 1834 1937 2049
8 1939 1826 1713 1829 2053 1942 1831 1946
8 1940 1827 1923 2035 2053 1942 1826 1939
8 1945 1830 1946 2058 1828 1712 1829 1944
8 2059 1947 1830 1945 1966 1849 1733 1851
8 1947 1832 1730 1849 2060 1948 1848 1965
8 1947 1832 1948 2060 1830 1714 1831 1946
8 1959 1847 1729 1843 2063 1949 1833 1950
8 1952 1843 1725 1836 2064 1950 1834 1951
8 1836 1725 1843 1952 1953 1842 1958 2066
8 1953 1842 1957 2067 1839 1724 1841 1955
8 1841 1955 1838 1723 1956 2068 1954 1840
8 2068 1956 1859 1967 1954 1840 1743 1852
8 1956 1844 1960 2069 1859 1747 1862 1973
8 1845 1957 1841 1727 1960 2069 1956 1844
8 1728 1842 1957 1845 1846 1958 2071 1961
8 1962 2072 1959 1847 1846 1958 1843 1729
8 1971 1861 1964 2077 1857 1746 1848 1965
8 1854 1741 1857 1969 1966 1849 1965 2078
8 1967 1859 1973 2079 1853 1745 1860 1968
8 1970 1858 1744 1856 2080 1972 1860 1968
8 1969 1857 1742 1855 2081 1971 1858 1970
8 1971 1861 1749 1858 2082 1974 1863 1972
8 1973 1862 1975 2083 1860 1748 1863 1972
8 1987 1882 1976 2086 1875 1768 1864 1977
8 1981 1875 1977 2087 1869 1761 1865 1978
8 1980 1877 1763 1868 2088 1986 1874 1979
8 1887 1775 1888 1997 1979 1874 1986 2088
8 1880 1982 2089 1989 1766 1870 1980 1877
8 1984 1876 1987 2090 1872 1762 1875 1981
8 1765 1871 1983 1879 1880 1982 2091 1991
8 1985 1878 1764 1873 2092 1990 1879 1983
8 1985 1878 1988 2093 1873 1764 1876 1984
8 2094 1992 1881 1986 1998 1889 1776 1888
8 1986 1881 1992 2094 1877 1773 1886 1989
8 1988 1883 1993 2095 1876 1769 1882 1987
8 1878 1770 1884 1990 1988 1883 1994 2096
8 1991 1885 1772 1880 2097 1996 1886 1989
8 1879 1771 1885 1991 1990 1884 1995 2098
8 2103 1998 1888 1997 2000 1891 1779 1890
8 2104 1999 1889 1998 2001 1892 1780 1891
8 2003 1894 2001 2106 1893 1782 1891 2000
8 2004 1895 2002 2107 1894 1783 1892 2001
8 2006 1897 2004 2109 1896 1785 1894 2003
8 2007 1898 2005 2110 1897 1786 1895 2004
8 2014 1901 2007 2112 1904 1789 1897 2006
8 2011 1899 2008 2113 1901 1787 1898 2007
8 2119 2010 1899 2011 2013 1900 1787 1901
8 2016 1902 2012 2122 1903 1788 1900 2013
8 2017 1903 2013 2123 1904 1789 1901 2014
8 1906 1791 1905 2019 2016 1902 2015 2125
8 1907 1792 1906 2020 2017 1903 2016 2126
8 1909 1793 1908 2022 2019 1905 2018 2128
8 2020 1906 1794 1910 2129 2019 1909 2023
8 1912 1796 1911 2025 2022 1908 2021 2131
8 1913 1797 1912 2026 2023 1909 2022 2132
8 1915 1799 1914 2028 2025 1911 2024 2134
8 1916 1800 1915 2029 2026 1912 2025 2135
8 1918 1804 1919 2031 2028 1914 2027 2136
8 1917 1803 1918 2030 2029 1915 2028 2137
8 1920 1806 1921 2032 2030 1918 2031 2138
8 1940 1827 1941 2054 2035 1923 2033 2140
8 2035 1923 2034 2143 1939 1826 1924 2037
8 2037 1924 2036 2146 1926 1811 1925 2039
8 2051 1939 2037 2147 1944 1829 1926 2040
8 2039 1925 2038 2149 1928 1812 1927 2042
8 2040 1926 2039 2150 1929 1813 1928 2043
8 2042 1927 2041 2151 1931 1814 1930 2044
8 2043 1928 2042 2152 1932 1815 1931 2045
8 2045 1931 2044 2153 1934 1818 1933 2046
8 2155 2047 1936 2048 2086 1976 1864 1977
8 2063 1949 1833 1950 2155 2047 1936 2048
8 2156 2048 1937 2049 2087 1977 1865 1978
8 2064 1950 1834 1951 2156 2048 1937 2049
8 2051 1939 1829 1944 2160 2053 1946 2058
8 2052 1940 2035 2144 2160 2053 1939 2051
8 2053 1942 1831 1946 2163 2057 1948 2060
8 2055 1943 1827 1940 2163 2057 1942 2053
8 2055 1943 2056 2164 1940 1827 1941 2054
8 2059 1947 1849 1966 2167 2060 1965 2078
8 2059 1947 2060 2167 1945 1830 1946 2058
8 2077 1964 2061 2168 1965 1848 1948 2060
8 2070 1963 1847 1959 2170 2062 1949 2063
8 2065 1959 1843 1952 2171 2063 1950 2064
8 2173 2072 1958 2066 2065 1959 1843 1952
8 1953 1842 1958 2066 2067 1957 2071 2174
8 2068 1956 2069 2175 1967 1859 1973 2079
8 2067 1957 2069 2175 1955 1841 1956 2068
8 1845 1957 2069 1960 1961 2071 2176 2073
8 2069 1960 2073 2176 1973 1862 1975 2083
8 2070 1963 2075 2177 1959 1847 1962 2072
8 1846 1958 2071 1961 1962 2072 2178 2074
8 2077 1964 1861 1971 2182 2076 1974 2082
8 2081 1971 2077 2183 1969 1857 1965 2078
8 2079 1973 2083 2184 1968 1860 1972 2080
8 2081 1971 1858 1970 2185 2082 1972 2080
8 2083 1975 2084 2186 1972 1863 1974 2082
8 2086 1976 1882 1987 2189 2085 1993 2095
8 2090 1987 2086 2190 1981 1875 1977 2087
8 2191 2094 1986 2088 2103 1998 1888 1997
8 2088 1986 2094 2191 1980 1877 1989 2089
8 1991 2091 2192 2097 1880 1982 2089 1989
8 2093 1988 2095 2193 1984 1876 1987 2090
8 1879 1983 2092 1990 1991 2091 2194 2098
8 1985 1878 1990 2092 2093 1988 2096 2195
8 2097 1996 1886 1989 2196 2099 1992 2094
8 2196 2099 1992 2094 2104 1999 1889 1998
8 1994 2096 1988 1883 2100 2197 2095 1993
8 2096 1994 1884 1990 2198 2101 1995 2098
8 1995 2098 2199 2102 1885 1991 2097 1996
8 2203 2104 1998 2103 2106 2001 1891 2000
8 2107 2002 2105 2204 2001 1892 1999 2104
8 2109 2004 2107 2206 2003 1894 2001 2106
8 2110 2005 2108 2207 2004 1895 2002 2107
8 2112 2007 2110 2209 2006 1897 2004 2109
8 2113 2008 2111 2210 2007 1898 2005 2110
8 2120 2011 2113 2212 2014 1901 2007 2112
8 2117 2009 2114 2213 2011 1899 2008 2113
8 2219 2116 2009 2117 2119 2010 1899 2011
8 2222 2118 2010 2119 2122 2012 1900 2013
8 2223 2119 2011 2120 2123 2013 1901 2014
8 2016 1902 2015 2125 2122 2012 2121 2225
8 2126 2016 2122 2226 2017 1903 2013 2123
8 2019 1905 2018 2128 2125 2015 2124 2228
8 2020 1906 2019 2129 2126 2016 2125 2229
8 2022 1908 2021 2131 2128 2018 2127 2231
8 2023 1909 2022 2132 2129 2019 2128 2232
8 2025 1911 2024 2134 2131 2021 2130 2234
8 2026 1912 2025 2135 2132 2022 2131 2235
8 1914 2028 2134 2024 2027 2136 2236 2133
8 2029 1915 2028 2137 2135 2025 2134 2237
8 2030 1918 2031 2138 2137 2028 2136 2238
8 2157 2050 2139 2240 2054 1941 2033 2140
8 2052 1940 2054 2161 2144 2035 2140 2242
8 2140 2033 2141 2243 2035 1923 2034 2143
8 2143 2034 2142 2246 2037 1924 2036 2146
8 2144 2035 2143 2247 2051 1939 2037 2147
8 2146 2036 2145 2249 2039 1925 2038 2149
8 2147 2037 2146 2250 2040 1926 2039 2150
8 2149 2038 2148 2251 2042 1927 2041 2151
8 2150 2039 2149 2252 2043 1928 2042 2152
8 2152 2042 2151 2253 2045 1931 2044 2153
8 2255 2154 2047 2155 2189 2085 1976 2086
8 2170 2062 1949 2063 2255 2154 2047 2155
8 2256 2155 2048 2156 2190 2086 1977 2087
8 2171 2063 1950 2064 2256 2155 2048 2156
8 2258 2159 2050 2157 2164 2056 1941 2054
8 2160 2053 1946 2058 2262 2163 2060 2167
8 2162 2055 1940 2052 2262 2163 2053 2160
8 2162 2055 2164 2263 2052 1940 2054 2161
8 2163 2057 1948 2060 2264 2165 2061 2168
8 2055 1943 2057 2163 2164 2056 2165 2264
8 2182 2076 2166 2268 2077 1964 2061 2168
8 2183 2077 2168 2269 2078 1965 2060 2167
8 2070 1963 2062 2170 2177 2075 2169 2271
8 2172 2070 1959 2065 2272 2170 2063 2171
8 2172 2070 2177 2273 2065 1959 2072 2173
8 2066 1958 2072 2173 2174 2071 2178 2274
8 2067 1957 2071 2174 2175 2069 2176 2275
8 2175 2069 2176 2275 2079 1973 2083 2184
8 2071 1961 2074 2178 2176 2073 2179 2276
8 2176 2073 2179 2276 2083 1975 2084 2186
8 2072 1962 2075 2177 2178 2074 2180 2277
8 2182 2076 1974 2082 2280 2181 2084 2186
8 2183 2077 1971 2081 2281 2182 2082 2185
8 2184 2083 2186 2282 2080 1972 2082 2185
8 2189 2085 1993 2095 2285 2188 2100 2197
8 2190 2086 1987 2090 2286 2189 2095 2193
8 2192 2097 1989 2089 2287 2196 2094 2191
8 2287 2196 2094 2191 2203 2104 1998 2103
8 2194 2098 1991 2091 2288 2199 2097 2192
8 2195 2096 2197 2289 2093 1988 2095 2193
8 2096 2195 2290 2198 1990 2092 2194 2098
8 2097 1996 2099 2196 2199 2102 2200 2291
8 2196 2099 1999 2104 2291 2200 2105 2204
8 2100 2197 2292 2201 1994 2096 2198 2101
8 1995 2098 2198 2101 2102 2199 2293 2202
8 2206 2107 2204 2296 2106 2001 2104 2203
8 2207 2108 2205 2297 2107 2002 2105 2204
8 2209 2110 2207 2299 2109 2004 2107 2206
8 2210 2111 2208 2300 2110 2005 2108 2207
8 2212 2113 2210 2302 2112 2007 2110 2209
8 2213 2114 2211 2303 2113 2008 2111 2210
8 2220 2117 2213 2305 2120 2011 2113 2212
8 2216 2115 2214 2306 2117 2009 2114 2213
8 2216 2115 2009 2117 2311 2217 2116 2219
8 2219 2116 2010 2119 2314 2218 2118 2222
8 2315 2219 2117 2220 2223 2119 2011 2120
8 2122 2012 2121 2225 2222 2118 2221 2317
8 2318 2222 2119 2223 2226 2122 2013 2123
8 2125 2015 2124 2228 2225 2121 2224 2320
8 2126 2016 2125 2229 2226 2122 2225 2321
8 2128 2018 2127 2231 2228 2124 2227 2323
8 2129 2019 2128 2232 2229 2125 2228 2324
8 2131 2021 2130 2234 2231 2127 2230 2326
8 2132 2022 2131 2235 2232 2128 2231 2327
8 2134 2024 2133 2236 2234 2130 2233 2328
8 2135 2025 2134 2237 2235 2131 2234 2329
8 2137 2028 2136 2238 2237 2134 2236 2330
8 2157 2050 2158 2259 2240 2139 2239 2332
8 2257 2157 2240 2334 2161 2054 2140 2242
8 2240 2139 2241 2335 2140 2033 2141 2243
8 2242 2140 2243 2337 2144 2035 2143 2247
8 2243 2141 2244 2338 2143 2034 2142 2246
8 2246 2142 2245 2341 2146 2036 2145 2249
8 2247 2143 2246 2342 2147 2037 2146 2250
8 2249 2145 2248 2343 2149 2038 2148 2251
8 2250 2146 2249 2344 2150 2039 2149 2252
8 2252 2149 2251 2345 2152 2042 2151 2253
8 2169 2271 2347 2254 2062 2170 2255 2154
8 2189 2085 2188 2285 2255 2154 2254 2347
8 2348 2255 2155 2256 2286 2189 2086 2190
8 2272 2170 2063 2171 2348 2255 2155 2256
8 2349 2258 2157 2257 2263 2164 2054 2161
8 2258 2159 2261 2351 2157 2050 2158 2259
8 2258 2159 2056 2164 2351 2261 2165 2264
8 2262 2163 2060 2167 2355 2264 2168 2269
8 2162 2055 2163 2262 2263 2164 2264 2355
8 2357 2266 2165 2264 2268 2166 2061 2168
8 2268 2166 2076 2182 2361 2267 2181 2280
8 2281 2182 2268 2362 2183 2077 2168 2269
8 2271 2169 2270 2364 2177 2075 2180 2277
8 2172 2070 2170 2272 2273 2177 2271 2365
8 2072 2173 2274 2178 2177 2273 2366 2277
8 2071 2174 2275 2176 2178 2274 2367 2276
8 2275 2176 2276 2367 2184 2083 2186 2282
8 2283 2187 2084 2186 2368 2278 2179 2276
8 2178 2074 2180 2277 2276 2179 2278 2368
8 2283 2187 2279 2370 2186 2084 2181 2280
8 2281 2182 2082 2185 2371 2280 2186 2282
8 2188 2285 2374 2284 2100 2197 2292 2201
8 2286 2189 2095 2193 2375 2285 2197 2289
8 2192 2097 2196 2287 2288 2199 2291 2376
8 2287 2196 2104 2203 2376 2291 2204 2296
8 2194 2098 2199 2288 2290 2198 2293 2377
8 2289 2197 2096 2195 2378 2292 2198 2290
8 2291 2200 2105 2204 2379 2294 2205 2297
8 2199 2102 2200 2291 2293 2202 2294 2379
8 2198 2101 2202 2293 2292 2201 2295 2380
8 2299 2207 2297 2383 2206 2107 2204 2296
8 2300 2208 2298 2384 2207 2108 2205 2297
8 2302 2210 2300 2386 2209 2110 2207 2299
8 2303 2211 2301 2387 2210 2111 2208 2300
8 2305 2213 2303 2389 2212 2113 2210 2302
8 2306 2214 2304 2390 2213 2114 2211 2303
8 2310 2216 2306 2392 2220 2117 2213 2305
8 2308 2215 2307 2393 2216 2115 2214 2306
8 2308 2215 2115 2216 2396 2309 2217 2311
8 2310 2216 2117 2220 2398 2311 2219 2315
8 2311 2217 2116 2219 2399 2312 2218 2314
8 2314 2218 2118 2222 2402 2313 2221 2317
8 2315 2219 2119 2223 2403 2314 2222 2318
8 2225 2121 2224 2320 2317 2221 2316 2405
8 2226 2122 2225 2321 2318 2222 2317 2406
8 2228 2124 2227 2323 2320 2224 2319 2408
8 2229 2125 2228 2324 2321 2225 2320 2409
8 2231 2127 2230 2326 2323 2227 2322 2411
8 2232 2128 2231 2327 2324 2228 2323 2412
8 2234 2130 2233 2328 2326 2230 2325 2413
8 2235 2131 2234 2329 2327 2231 2326 2414
8 2237 2134 2236 2330 2329 2234 2328 2415
8 2259 2158 2260 2352 2332 2239 2331 2417
8 2257 2157 2259 2350 2334 2240 2332 2419
8 2240 2139 2239 2332 2335 2241 2333 2420
8 2334 2240 2335 2422 2242 2140 2243 2337
8 2335 2241 2336 2423 2243 2141 2244 2338
8 2337 2243 2338 2425 2247 2143 2246 2342
8 2338 2244 2339 2426 2246 2142 2245 2341
8 2341 2245 2340 2428 2249 2145 2248 2343
8 2342 2246 2341 2429 2250 2146 2249 2344
8 2344 2249 2343 2430 2252 2149 2251 2345
8 2188 2285 2347 2254 2284 2374 2432 2346
8 2347 2254 2346 2432 2271 2169 2270 2364
8 2365 2271 2170 2272 2433 2347 2255 2348
8 2286 2189 2285 2375 2348 2255 2347 2433
8 2349 2258 2351 2435 2257 2157 2259 2350
8 2349 2258 2164 2263 2435 2351 2264 2355
8 2259 2158 2261 2351 2352 2260 2354 2437
8 2356 2265 2354 2437 2264 2165 2261 2351
8 2441 2357 2264 2355 2362 2268 2168 2269
8 2356 2265 2165 2264 2442 2358 2266 2357
8 2443 2359 2266 2357 2361 2267 2166 2268
8 2370 2279 2360 2446 2280 2181 2267 2361
8 2362 2268 2182 2281 2447 2361 2280 2371
8 2180 2277 2368 2278 2270 2364 2449 2363
8 2271 2365 2273 2177 2364 2450 2366 2277
8 2372 2283 2186 2282 2451 2368 2276 2367
8 2178 2274 2367 2276 2277 2366 2451 2368
8 2283 2187 2278 2368 2370 2279 2369 2452
8 2372 2283 2370 2453 2282 2186 2280 2371
8 2284 2374 2455 2373 2201 2292 2380 2295
8 2375 2285 2197 2289 2456 2374 2292 2378
8 2376 2291 2204 2296 2457 2379 2297 2383
8 2288 2199 2291 2376 2377 2293 2379 2457
8 2198 2290 2378 2292 2293 2377 2458 2380
8 2293 2202 2294 2379 2380 2295 2381 2459
8 2384 2298 2381 2459 2297 2205 2294 2379
8 2386 2300 2384 2463 2299 2207 2297 2383
8 2387 2301 2385 2464 2300 2208 2298 2384
8 2389 2303 2387 2466 2302 2210 2300 2386
8 2390 2304 2388 2467 2303 2211 2301 2387
8 2392 2306 2390 2469 2305 2213 2303 2389
8 2393 2307 2391 2470 2306 2214 2304 2390
8 2395 2308 2393 2472 2310 2216 2306 2392
8 2308 2215 2309 2396 2393 2307 2394 2473
8 2395 2308 2216 2310 2475 2396 2311 2398
8 2396 2309 2217 2311 2476 2397 2312 2399
8 2398 2311 2219 2315 2478 2399 2314 2403
8 2399 2312 2218 2314 2479 2400 2313 2402
8 2317 2221 2316 2405 2402 2313 2401 2482
8 2403 2314 2222 2318 2483 2402 2317 2406
8 2320 2224 2319 2408 2405 2316 2404 2485
8 2321 2225 2320 2409 2406 2317 2405 2486
8 2323 2227 2322 2411 2408 2319 2407 2488
8 2324 2228 2323 2412 2409 2320 2408 2489
8 2326 2230 2325 2413 2411 2322 2410 2490
8 2327 2231 2326 2414 2412 2323 2411 2491
8 2329 2234 2328 2415 2414 2326 2413 2492
8 2417 2331 2260 2352 2494 2416 2353 2438
8 2350 2259 2352 2436 2419 2332 2417 2496
8 2332 2239 2331 2417 2420 2333 2418 2497
8 2334 2240 2332 2419 2422 2335 2420 2499
8 2420 2333 2421 2500 2335 2241 2336 2423
8 2422 2335 2423 2502 2337 2243 2338 2425
8 2423 2336 2424 2503 2338 2244 2339 2426
8 2425 2338 2426 2505 2342 2246 2341 2429
8 2426 2339 2427 2506 2341 2245 2340 2428
8 2429 2341 2428 2507 2344 2249 2343 2430
8 2432 2346 2284 2374 2509 2431 2373 2455
8 2432 2346 2431 2509 2364 2270 2363 2449
8 2375 2285 2374 2456 2433 2347 2432 2510
8 2347 2433 2365 2271 2432 2510 2450 2364
8 2350 2259 2351 2435 2436 2352 2437 2514
8 2440 2356 2437 2514 2355 2264 2351 2435
8 2352 2260 2354 2437 2438 2353 2439 2516
8 2356 2265 2358 2442 2437 2354 2439 2516
8 2440 2356 2264 2355 2518 2442 2357 2441
8 2519 2443 2357 2441 2447 2361 2268 2362
8 2443 2359 2444 2520 2357 2266 2358 2442
8 2443 2359 2267 2361 2520 2444 2360 2446
8 2446 2360 2279 2370 2523 2445 2369 2452
8 2453 2370 2446 2524 2371 2280 2361 2447
8 2449 2363 2448 2525 2368 2278 2369 2452
8 2366 2277 2364 2450 2451 2368 2449 2526
8 2372 2283 2368 2451 2453 2370 2452 2527
8 2455 2373 2295 2380 2529 2454 2382 2460
8 2456 2374 2292 2378 2530 2455 2380 2458
8 2377 2293 2379 2457 2458 2380 2459 2531
8 2463 2384 2459 2531 2383 2297 2379 2457
8 2533 2461 2382 2460 2459 2381 2295 2380
8 2464 2385 2461 2533 2384 2298 2381 2459
8 2466 2387 2464 2537 2386 2300 2384 2463
8 2467 2388 2465 2538 2387 2301 2385 2464
8 2469 2390 2467 2540 2389 2303 2387 2466
8 2470 2391 2468 2541 2390 2304 2388 2467
8 2472 2393 2470 2543 2392 2306 2390 2469
8 2393 2307 2394 2473 2470 2391 2471 2544
8 2395 2308 2396 2475 2472 2393 2473 2546
8 2396 2309 2397 2476 2473 2394 2474 2547
8 2475 2396 2311 2398 2549 2476 2399 2478
8 2476 2397 2312 2399 2550 2477 2400 2479
8 2478 2399 2314 2403 2552 2479 2402 2483
8 2479 2400 2313 2402 2553 2480 2401 2482
8 2405 2316 2404 2485 2482 2401 2481 2556
8 2406 2317 2405 2486 2483 2402 2482 2557
8 2408 2319 2407 2488 2485 2404 2484 2559
8 2409 2320 2408 2489 2486 2405 2485 2560
8 2411 2322 2410 2490 2488 2407 2487 2561
8 2412 2323 2411 2491 2489 2408 2488 2562
8 2414 2326 2413 2492 2491 2411 2490 2563
8 2513 2434 2493 2565 2438 2353 2416 2494
8 2496 2417 2352 2436 2567 2494 2438 2515
8 2494 2416 2495 2568 2417 2331 2418 2497
8 2419 2332 2417 2496 2499 2420 2497 2570
8 2497 2418 2498 2571 2420 2333 2421 2500
8 2499 2420 2500 2573 2422 2335 2423 2502
8 2500 2421 2501 2574 2423 2336 2424 2503
8 2502 2423 2503 2576 2425 2338 2426 2505
8 2503 2424 2504 2577 2426 2339 2427 2506
8 2505 2426 2506 2578 2429 2341 2428 2507
8 2509 2431 2373 2455 2580 2508 2454 2529
8 2509 2431 2508 2580 2449 2363 2448 2525
8 2432 2510 2581 2509 2374 2456 2530 2455
8 2432 2510 2450 2364 2509 2581 2526 2449
8 2583 2511 2434 2513 2516 2439 2353 2438
8 2436 2352 2437 2514 2515 2438 2516 2588
8 2440 2356 2442 2518 2514 2437 2516 2588
8 2442 2358 2444 2520 2516 2439 2517 2589
8 2519 2443 2520 2591 2441 2357 2442 2518
8 2519 2443 2361 2447 2591 2520 2446 2524
8 2446 2360 2445 2523 2520 2444 2521 2592
8 2525 2448 2522 2593 2452 2369 2445 2523
8 2524 2446 2370 2453 2594 2523 2452 2527
8 2526 2449 2525 2595 2451 2368 2452 2527
8 2534 2462 2528 2597 2460 2382 2454 2529
8 2530 2455 2380 2458 2598 2529 2460 2532
8 2599 2533 2460 2532 2531 2459 2380 2458
8 2537 2464 2533 2599 2463 2384 2459 2531
8 2534 2462 2382 2460 2601 2535 2461 2533
8 2538 2465 2535 2601 2464 2385 2461 2533
8 2540 2467 2538 2604 2466 2387 2464 2537
8 2541 2468 2539 2605 2467 2388 2465 2538
8 2543 2470 2541 2607 2469 2390 2467 2540
8 2470 2391 2471 2544 2541 2468 2542 2608
8 2472 2393 2473 2546 2543 2470 2544 2610
8 2473 2394 2474 2547 2544 2471 2545 2611
8 2475 2396 2476 2549 2546 2473 2547 2613
8 2476 2397 2477 2550 2547 2474 2548 2614
8 2549 2476 2399 2478 2616 2550 2479 2552
8 2479 2400 2480 2553 2550 2477 2551 2617
8 2552 2479 2402 2483 2619 2553 2482 2557
8 2482 2401 2481 2556 2553 2480 2554 2620
8 2485 2404 2484 2559 2556 2481 2555 2623
8 2486 2405 2485 2560 2557 2482 2556 2624
8 2488 2407 2487 2561 2559 2484 2558 2625
8 2489 2408 2488 2562 2560 2485 2559 2626
8 2491 2411 2490 2563 2562 2488 2561 2627
8 2513 2434 2512 2585 2565 2493 2564 2630
8 2586 2513 2565 2632 2515 2438 2494 2567
8 2565 2493 2566 2633 2494 2416 2495 2568
8 2567 2494 2568 2635 2496 2417 2497 2570
8 2568 2495 2569 2636 2497 2418 2498 2571
8 2570 2497 2571 2638 2499 2420 2500 2573
8 2571 2498 2572 2639 2500 2421 2501 2574
8 2573 2500 2574 2641 2502 2423 2503 2576
8 2574 2501 2575 2642 2503 2424 2504 2577
8 2576 2503 2577 2643 2505 2426 2506 2578
8 2597 2528 2579 2645 2529 2454 2508 2580
8 2580 2508 2579 2645 2525 2448 2522 2593
8 2581 2509 2455 2530 2646 2580 2529 2598
8 2581 2509 2580 2646 2526 2449 2525 2595
8 2583 2511 2582 2648 2513 2434 2512 2585
8 2583 2511 2439 2516 2648 2582 2517 2589
8 2649 2583 2513 2586 2588 2516 2438 2515
8 2589 2517 2444 2520 2653 2587 2521 2592
8 2518 2442 2520 2591 2588 2516 2589 2654
8 2593 2522 2590 2655 2523 2445 2521 2592
8 2524 2446 2523 2594 2591 2520 2592 2656
8 2595 2525 2593 2657 2527 2452 2523 2594
8 2602 2536 2596 2659 2534 2462 2528 2597
8 2600 2534 2597 2660 2532 2460 2529 2598
8 2600 2534 2460 2532 2661 2601 2533 2599
8 2604 2538 2601 2661 2537 2464 2533 2599
8 2602 2536 2462 2534 2663 2603 2535 2601
8 2601 2535 2465 2538 2663 2603 2539 2605
8 2607 2541 2605 2665 2540 2467 2538 2604
8 2608 2542 2606 2666 2541 2468 2539 2605
8 2543 2470 2544 2610 2607 2541 2608 2668
8 2544 2471 2545 2611 2608 2542 2609 2669
8 2546 2473 2547 2613 2610 2544 2611 2671
8 2547 2474 2548 2614 2611 2545 2612 2672
8 2549 2476 2550 2616 2613 2547 2614 2674
8 2550 2477 2551 2617 2614 2548 2615 2675
8 2552 2479 2553 2619 2616 2550 2617 2677
8 2553 2480 2554 2620 2617 2551 2618 2678
8 2557 2482 2556 2624 2619 2553 2620 2680
8 2556 2481 2555 2623 2620 2554 2621 2681
8 2559 2484 2558 2625 2623 2555 2622 2683
8 2560 2485 2559 2626 2624 2556 2623 2684
8 2562 2488 2561 2627 2626 2559 2625 2685
8 2690 2629 2564 2630 2650 2584 2512 2585
8 2586 2513 2585 2651 2632 2565 2630 2691
8 2630 2564 2631 2692 2565 2493 2566 2633
8 2632 2565 2633 2694 2567 2494 2568 2635
8 2633 2566 2634 2695 2568 2495 2569 2636
8 2635 2568 2636 2697 2570 2497 2571 2638
8 2636 2569 2637 2698 2571 2498 2572 2639
8 2638 2571 2639 2700 2573 2500 2574 2641
8 2639 2572 2640 2701 2574 2501 2575 2642
8 2641 2574 2642 2702 2576 2503 2577 2643
8 2597 2528 2596 2659 2645 2579 2644 2704
8 2645 2579 2644 2704 2593 2522 2590 2655
8 2660 2597 2645 2705 2598 2529 2580 2646
8 2646 2580 2645 2705 2595 2525 2593 2657
8 2650 2584 2512 2585 2707 2647 2582 2648
8 2648 2582 2517 2589 2707 2647 2587 2653
8 2649 2583 2648 2708 2586 2513 2585 2651
8 2649 2583 2516 2588 2708 2648 2589 2654
8 2655 2590 2652 2710 2592 2521 2587 2653
8 2654 2589 2520 2591 2711 2653 2592 2656
8 2657 2593 2655 2712 2594 2523 2592 2656
8 2602 2536 2603 2663 2659 2596 2658 2714
8 2662 2602 2659 2715 2600 2534 2597 2660
8 2662 2602 2534 2600 2717 2663 2601 2661
8 2661 2601 2538 2604 2717 2663 2605 2665
8 2666 2606 2664 2718 2605 2539 2603 2663
8 2668 2608 2666 2720 2607 2541 2605 2665
8 2608 2542 2609 2669 2666 2606 2667 2721
8 2610 2544 2611 2671 2668 2608 2669 2723
8 2611 2545 2612 2672 2669 2609 2670 2724
8 2613 2547 2614 2674 2671 2611 2672 2726
8 2614 2548 2615 2675 2672 2612 2673 2727
8 2616 2550 2617 2677 2674 2614 2675 2729
8 2617 2551 2618 2678 2675 2615 2676 2730
8 2619 2553 2620 2680 2677 2617 2678 2732
8 2620 2554 2621 2681 2678 2618 2679 2733
8 2624 2556 2623 2684 2680 2620 2681 2735
8 2681 2621 2555 2623 2736 2682 2622 2683
8 2626 2559 2625 2685 2684 2623 2683 2737
8 2688 2628 2584 2650 2740 2686 2647 2707
8 2688 2628 2687 2742 2650 2584 2629 2690
8 2690 2629 2689 2745 2630 2564 2631 2692
8 2746 2690 2630 2691 2709 2650 2585 2651
8 2691 2630 2692 2747 2632 2565 2633 2694
8 2692 2631 2693 2748 2633 2566 2634 2695
8 2694 2633 2695 2750 2635 2568 2636 2697
8 2695 2634 2696 2751 2636 2569 2637 2698
8 2697 2636 2698 2753 2638 2571 2639 2700
8 2698 2637 2699 2754 2639 2572 2640 2701
8 2700 2639 2701 2755 2641 2574 2642 2702
8 2659 2596 2658 2714 2704 2644 2703 2757
8 2704 2644 2703 2757 2655 2590 2652 2710
8 2660 2597 2659 2715 2705 2645 2704 2758
8 2705 2645 2704 2758 2657 2593 2655 2712
8 2759 2706 2647 2707 2710 2652 2587 2653
8 2709 2650 2585 2651 2760 2707 2648 2708
8 2708 2648 2589 2654 2760 2707 2653 2711
8 2712 2655 2710 2761 2656 2592 2653 2711
8 2763 2713 2658 2714 2718 2664 2603 2663
8 2662 2602 2663 2717 2715 2659 2714 2764
8 2720 2666 2718 2767 2665 2605 2663 2717
8 2768 2719 2664 2718 2721 2667 2606 2666
8 2668 2608 2669 2723 2720 2666 2721 2770
8 2669 2609 2670 2724 2721 2667 2722 2771
8 2671 2611 2672 2726 2723 2669 2724 2773
8 2672 2612 2673 2727 2724 2670 2725 2774
8 2674 2614 2675 2729 2726 2672 2727 2776
8 2675 2615 2676 2730 2727 2673 2728 2777
8 2677 2617 2678 2732 2729 2675 2730 2779
8 2678 2618 2679 2733 2730 2676 2731 2780
8 2680 2620 2681 2735 2732 2678 2733 2782
8 2733 2679 2621 2681 2783 2734 2682 2736
8 2735 2681 2623 2684 2784 2736 2683 2737
8 2740 2686 2647 2707 2787 2738 2706 2759
8 2688 2628 2686 2740 2742 2687 2739 2789
8 2743 2688 2650 2709 2790 2740 2707 2760
8 2742 2687 2741 2792 2690 2629 2689 2745
8 2743 2688 2742 2793 2709 2650 2690 2746
8 2745 2689 2744 2795 2692 2631 2693 2748
8 2746 2690 2745 2796 2691 2630 2692 2747
8 2747 2692 2748 2797 2694 2633 2695 2750
8 2748 2693 2749 2798 2695 2634 2696 2751
8 2750 2695 2751 2800 2697 2636 2698 2753
8 2751 2696 2752 2801 2698 2637 2699 2754
8 2753 2698 2754 2802 2700 2639 2701 2755
8 2763 2713 2756 2804 2714 2658 2703 2757
8 2759 2706 2652 2710 2804 2756 2703 2757
8 2715 2659 2714 2764 2758 2704 2757 2805
8 2758 2704 2757 2805 2712 2655 2710 2761
8 2806 2759 2707 2760 2761 2710 2653 2711
8 2765 2716 2762 2808 2718 2664 2713 2763
8 2809 2763 2714 2764 2767 2718 2663 2717
8 2765 2716 2664 2718 2811 2766 2719 2768
8 2813 2768 2718 2767 2770 2721 2666 2720
8 2814 2769 2719 2768 2771 2722 2667 2721
8 2723 2669 2724 2773 2770 2721 2771 2816
8 2724 2670 2725 2774 2771 2722 2772 2817
8 2726 2672 2727 2776 2773 2724 2774 2819
8 2727 2673 2728 2777 2774 2725 2775 2820
8 2729 2675 2730 2779 2776 2727 2777 2822
8 2730 2676 2731 2780 2777 2728 2778 2823
8 2732 2678 2733 2782 2779 2730 2780 2825
8 2780 2731 2679 2733 2826 2781 2734 2783
8 2782 2733 2681 2735 2827 2783 2736 2784
8 2830 2785 2738 2787 2804 2756 2706 2759
8 2789 2739 2686 2740 2832 2786 2738 2787
8 2790 2740 2707 2760 2833 2787 2759 2806
8 2742 2687 2739 2789 2792 2741 2788 2835
8 2743 2688 2740 2790 2793 2742 2789 2836
8 2792 2741 2791 2838 2745 2689 2744 2795
8 2793 2742 2792 2839 2746 2690 2745 2796
8 2795 2744 2794 2841 2748 2693 2749 2798
8 2796 2745 2795 2842 2747 2692 2748 2797
8 2797 2748 2798 2843 2750 2695 2751 2800
8 2798 2749 2799 2844 2751 2696 2752 2801
8 2800 2751 2801 2845 2753 2698 2754 2802
8 2808 2762 2803 2847 2763 2713 2756 2804
8 2809 2763 2804 2848 2764 2714 2757 2805
8 2806 2759 2710 2761 2848 2804 2757 2805
8 2765 2716 2766 2811 2808 2762 2807 2850
8 2810 2765 2808 2851 2767 2718 2763 2809
8 2810 2765 2718 2767 2852 2811 2768 2813
8 2811 2766 2719 2768 2853 2812 2769 2814
8 2855 2814 2768 2813 2816 2771 2721 2770
8 2856 2815 2769 2814 2817 2772 2722 2771
8 2773 2724 2774 2819 2816 2771 2817 2858
8 2774 2725 2775 2820 2817 2772 2818 2859
8 2776 2727 2777 2822 2819 2774 2820 2861
8 2777 2728 2778 2823 2820 2775 2821 2862
8 2779 2730 2780 2825 2822 2777 2823 2864
8 2823 2778 2731 2780 2865 2824 2781 2826
8 2825 2780 2733 2782 2866 2826 2783 2827
8 2869 2828 2785 2830 2847 2803 2756 2804
8 2871 2829 2786 2832 2830 2785 2738 2787
8 2872 2830 2787 2833 2848 2804 2759 2806
8 2789 2739 2786 2832 2835 2788 2831 2874
8 2836 2789 2740 2790 2875 2832 2787 2833
8 2792 2741 2788 2835 2838 2791 2834 2877
8 2793 2742 2789 2836 2839 2792 2835 2878
8 2838 2791 2837 2880 2795 2744 2794 2841
8 2839 2792 2838 2881 2796 2745 2795 2842
8 2841 2794 2840 2882 2798 2749 2799 2844
8 2842 2795 2841 2883 2797 2748 2798 2843
8 2843 2798 2844 2884 2800 2751 2801 2845
8 2886 2846 2803 2847 2850 2807 2762 2808
8 2851 2808 2847 2887 2809 2763 2804 2848
8 2850 2807 2766 2811 2889 2849 2812 2853
8 2810 2765 2811 2852 2851 2808 2850 2890
8 2852 2811 2768 2813 2891 2853 2814 2855
8 2853 2812 2769 2814 2892 2854 2815 2856
8 2894 2856 2814 2855 2858 2817 2771 2816
8 2817 2772 2818 2859 2856 2815 2857 2895
8 2819 2774 2820 2861 2858 2817 2859 2897
8 2820 2775 2821 2862 2859 2818 2860 2898
8 2822 2777 2823 2864 2861 2820 2862 2900
8 2823 2778 2824 2865 2862 2821 2863 2901
8 2864 2823 2780 2825 2902 2865 2826 2866
8 2904 2867 2828 2869 2886 2846 2803 2847
8 2869 2828 2868 2906 2830 2785 2829 2871
8 2907 2869 2830 2872 2887 2847 2804 2848
8 2871 2829 2870 2909 2832 2786 2831 2874
8 2910 2871 2832 2875 2872 2830 2787 2833
8 2835 2788 2831 2874 2877 2834 2873 2912
8 2836 2789 2832 2875 2878 2835 2874 2913
8 2877 2834 2876 2915 2838 2791 2837 2880
8 2839 2792 2835 2878 2881 2838 2877 2916
8 2880 2837 2879 2917 2841 2794 2840 2882
8 2881 2838 2880 2918 2842 2795 2841 2883
8 2883 2841 2882 2919 2843 2798 2844 2884
8 2921 2885 2846 2886 2889 2849 2807 2850
8 2922 2886 2847 2887 2890 2850 2808 2851
8 2889 2849 2812 2853 2924 2888 2854 2892
8 2890 2850 2811 2852 2925 2889 2853 2891
8 2891 2853 2814 2855 2926 2892 2856 2894
8 2892 2854 2815 2856 2927 2893 2857 2895
8 2858 2817 2859 2897 2894 2856 2895 2929
8 2859 2818 2860 2898 2895 2857 2896 2930
8 2861 2820 2862 2900 2897 2859 2898 2932
8 2862 2821 2863 2901 2898 2860 2899 2933
8 2864 2823 2865 2902 2900 2862 2901 2934
8 2904 2867 2846 2886 2936 2903 2885 2921
8 2904 2867 2903 2936 2869 2828 2868 2906
8 2937 2904 2869 2907 2922 2886 2847 2887
8 2906 2868 2905 2939 2871 2829 2870 2909
8 2907 2869 2906 2940 2872 2830 2871 2910
8 2909 2870 2908 2942 2874 2831 2873 2912
8 2910 2871 2909 2943 2875 2832 2874 2913
8 2912 2873 2911 2945 2877 2834 2876 2915
8 2878 2835 2874 2913 2916 2877 2912 2946
8 2915 2876 2914 2947 2880 2837 2879 2917
8 2916 2877 2915 2948 2881 2838 2880 2918
8 2918 2880 2917 2949 2883 2841 2882 2919
8 2921 2885 2849 2889 2951 2920 2888 2924
8 2952 2921 2886 2922 2925 2889 2850 2890
8 2924 2888 2854 2892 2954 2923 2893 2927
8 2925 2889 2853 2891 2955 2924 2892 2926
8 2926 2892 2856 2894 2956 2927 2895 2929
8 2895 2857 2896 2930 2927 2893 2928 2957
8 2897 2859 2898 2932 2929 2895 2930 2959
8 2898 2860 2899 2933 2930 2896 2931 2960
8 2900 2862 2901 2934 2932 2898 2933 2961
8 2936 2903 2885 2921 2963 2935 2920 2951
8 2936 2903 2935 2963 2906 2868 2905 2939
8 2937 2904 2886 2922 2964 2936 2921 2952
8 2937 2904 2936 2964 2907 2869 2906 2940
8 2939 2905 2938 2966 2909 2870 2908 2942
8 2940 2906 2939 2967 2910 2871 2909 2943
8 2942 2908 2941 2969 2912 2873 2911 2945
8 2943 2909 2942 2970 2913 2874 2912 2946
8 2945 2911 2944 2971 2915 2876 2914 2947
8 2946 2912 2945 2972 2916 2877 2915 2948
8 2948 2915 2947 2973 2918 2880 2917 2949
8 2951 2920 2888 2924 2975 2950 2923 2954
8 2952 2921 2889 2925 2976 2951 2924 2955
8 2927 2893 2928 2957 2954 2923 2953 2978
8 2955 2924 2892 2926 2979 2954 2927 2956
8 2929 2895 2930 2959 2956 2927 2957 2980
8 2930 2896 2931 2960 2957 2928 2958 2981
8 2932 2898 2933 2961 2959 2930 2960 2982
8 2951 2920 2950 2975 2963 2935 2962 2984
8 2963 2935 2962 2984 2939 2905 2938 2966
8 2964 2936 2921 2952 2985 2963 2951 2976
8 2964 2936 2963 2985 2940 2906 2939 2967
8 2966 2938 2965 2987 2942 2908 2941 2969
8 2967 2939 2966 2988 2943 2909 2942 2970
8 2969 2941 2968 2989 2945 2911 2944 2971
8 2970 2942 2969 2990 2946 2912 2945 2972
8 2972 2945 2971 2991 2948 2915 2947 2973
8 2954 2923 2953 2978 2975 2950 2974 2993
8 2976 2951 2924 2955 2994 2975 2954 2979
8 2957 2928 2958 2981 2978 2953 2977 2995
8 2956 2927 2957 2980 2979 2954 2978 2996
8 2959 2930 2960 2982 2980 2957 2981 2997
8 2984 2962 2983 2999 2966 2938 2965 2987
8 2975 2950 2974 2993 2984 2962 2983 2999
8 2976 2951 2975 2994 2985 2963 2984 3000
8 2985 2963 2984 3000 2967 2939 2966 2988
8 2987 2965 2986 3001 2969 2941 2968 2989
8 2988 2966 2987 3002 2970 2942 2969 2990
8 2990 2969 2989 3003 2972 2945 2971 2991
8 2978 2953 2977 2995 2993 2974 2992 3004
8 2979 2954 2978 2996 2994 2975 2993 3005
8 2980 2957 2981 2997 2996 2978 2995 3006
8 2974 2993 2999 2983 2992 3004 3007 2998
8 2983 2999 2987 2965 2998 3007 3001 2986
8 3000 2984 2999 3008 2988 2966 2987 3002
8 2994 2975 2993 3005 3000 2984 2999 3008
8 3002 2987 3001 3009 2990 2969 2989 3003
8 2996 2978 2995 3006 3005 2993 3004 3010
8 3005 2993 3004 3010 3008 2999 3007 3011
8 3008 2999 3007 3011 3002 2987 3001 3009

CELL_TYPES 1910
12
12
12
12
12
12
12
12
12
12
12
12
12
12
12
12
12
12
12
12
12
12
12
12
12
12
12
12
12
12
12
12
12
12
12
12
12
12
12
12
12
12
12
12
12
12
12
12
12
12
12
12
12
12
12
12
12
12
12
12
12
12
12
12
12
12
12
12
12
12
12
12
12
12
12
12
12
12
12
12
12
12
12
12
12
12
12
12
12
12
12
12
12
12
12
12
12
12
12
12
12
12
12
12
12
12
12
12
12
12
12
12
12
12
12
12
12
12
12
12
12
12
12
12
12
12
12
12
12
12
12
12
12
12
12
12
12
12
12
12
12
12
12
12
12
12
12
12
12
12
12
12
12
12
12
12
12
12
12
12
12
12
12
12
12
12
12
12
12
12
12
12
12
12
12
12
12
12
12
12
12
12
12
12
12
12
12
12
12
12
12
12
12
12
12
12
12
12
12
12
12
12
12
12
12
12
12
12
12
12
12
12
12
12
12
12
12
12
12
12
12
12
12
12
12
12
12
12
12
12
12
12
12
12
12
12
12
12
12
12
12
12
12
12
12
12
12
12
12
12
12
12
12
12
12
12
12
12
12
12
12
12
12
12
12
12
12
12
12
12
12
12
12
12
12
12
12
12
12
12
12
12
12
12
12
12
12
12
12
12
12
12
12
12
12
12
12
12
12
12
12
12
12
12
12
12
12
12
12
12
12
12
12
12
12
12
12
12
12
12
12
12
12
12
12
12
12
12
12
12
12
12
12
12
12
12
12
12
12
12
12
12
12
12
12
12
12
12
12
12
12
12
12
12
12
12
12
12
12
12
12
12
12
12
12
12
12
12
12
12
12
12
12
12
12
12
12
12
12
12
12
12
12
12
12
12
12
12
12
12
12
12
12
12
12
12
12
12
12
12
12
12
12
12
12
12
12
12
12
12
12
12
12
12
12
12
12
12
12
12
12
12
12
12
12
12
12
12
12
12
12
12
12
12
12
12
12
12
12
12
12
12
12
12
12
12
12
12
12
12
12
12
12
12
12
12
12
12
12
12
12
12
12
12
12
12
12
12
12
12
12
12
12
12
12
12
12
12
12
12
12
12
12
12
12
12
12
12
12
12
12
12
12
12
12
12
12
12
12
12
12
12
12
12
12
12
12
12
12
12
12
12
12
12
12
12
12
12
12
12
12
12
12
12
12
12
12
12
12
12
12
12
12
12
12
12
12
12
12
12
12
12
12
12
12
12
12
12
12
12
12
12
12
12
12
12
12
12
12
12
12
12
12
12
12
12
12
12
12
12
12
12
12
12
12
12
12
12
12
12
12
12
12
12
12
12
12
12
12
12
12
12
12
12
12
12
12
12
12
12
12
12
12
12
12
12
12
12
12
12
12
12
12
12
12
12
12
12
12
12
12
12
12
12
12
12
12
12
12
12
12
12
12
12
12
12
12
12
12
12
12
12
12
12
12
12
12
12
12
12
12
12
12
12
12
12
12
12
12
12
12
12
12
12
12
12
12
12
12
12
12
12
12
12
12
12
12
12
12
12
12
12
12
12
12
12
12
12
12
12
12
12
12
12
12
12
12
12
12
12
12
12
12
12
12
12
12
12
12
12
12
12
12
12
12
12
12
12
12
12
12
12
12
12
12
12
12
12
12
12
12
12
12
12
12
12
12
12
12
12
12
12
12
12
12
12
12
12
12
12
12
12
12
12
12
12
12
12
12
12
12
12
12
12
12
12
12
12
12
12
12
12
12
12
12
12
12
12
12
12
12
12
12
12
12
12
12
12
12
12
12
12
12
12
12
12
12
12
12
12
12
12
12
12
12
12
12
12
12
12
12
12
12
12
12
12
12
12
12
12
12
12
12
12
12
12
12
12
12
12
12
12
12
12
12
12
12
12
12
12
12
12
12
12
12
12
12
12
12
12
12
12
12
12
12
12
12
12
12
12
12
12
12
12
12
12
12
12
12
12
12
12
12
12
12
12
12
12
12
12
12
12
12
12
12
12
12
12
12
12
12
12
12
12
12
12
12
12
12
12
12
12
12
12
12
12
12
12
12
12
12
12
12
12
12
12
12
12
12
12
12
12
12
12
12
12
12
12
12
12
12
12
12
12
12
12
12
12
12
12
12
12
12
12
12
12
12
12
12
12
12
12
12
12
12
12
12
12
12
12
12
12
12
12
12
12
12
12
12
12
12
12
12
12
12
12
12
12
12
12
12
12
12
12
12
12
12
12
12
12
12
12
12
12
12
12
12
12
12
12
12
12
12
12
12
12
12
12
12
12
12
12
12
12
12
12
12
12
12
12
12
12
12
12
12
12
12
12
12
12
12
12
12
12
12
12
12
12
12
12
12
12
12
12
12
12
12
12
12
12
12
12
12
12
12
12
12
12
12
12
12
12
12
12
12
12
12
12
12
12
12
12
12
12
12
12
12
12
12
12
12
12
12
12
12
12
12
12
12
12
12
12
12
12
12
12
12
12
12
12
12
12
12
12
12
12
12
12
12
12
12
12
12
12
12
12
12
12
12
12
12
12
12
12
12
12
12
12
12
12
12
12
12
12
12
12
12
12
12
12
12
12
12
12
12
12
12
12
12
12
12
12
12
12
12
12
12
12
12
12
12
12
12
12
12
12
12
12
12
12
12
12
12
12
12
12
12
12
12
12
12
12
12
12
12
12
12
12
12
12
12
12
12
12
12
12
12
12
12
12
12
12
12
12
12
12
12
12
12
12
12
12
12
12
12
12
12
12
12
12
12
12
12
12
12
12
12
12
12
12
12
12
12
12
12
12
12
12
12
12
12
12
12
12
12
12
12
12
12
12
12
12
12
12
12
12
12
12
12
12
12
12
12
12
12
12
12
12
12
12
12
12
12
12
12
12
12
12
12
12
12
12
12
12
12
12
12
12
12
12
12
12
12
12
12
12
12
12
12
12
12
12
12
12
12
12
12
12
12
12
12
12
12
12
12
12
12
12
12
12
12
12
12
12
12
12
12
12
12
12
12
12
12
12
12
12
12
12
12
12
12
12
12
12
12
12
12
12
12
12
12
12
12
12
12
12
12
12
12
12
12
12
12
12
12
12
12
12
12
12
12
12
12
12
12
12
12
12
12
12
12
12
12
12
12
12
12
12
12
12
12
12
12
12
12
12
12
12
12
12
12
12
12
12
12
12
12
12
12
12
12
12
12
12
12
12
12
12
12
12
12
12
12
12
12
12
12
12
12
12
12
12
12
12
12
12
12
12
12
12
12
12
12
12
12
12
12
12
12
12
12
12
12
12
12
12
12
12
12
12
12
12
12
12
12
12
12
12
12
12
12
12
12
12
12
12
12
12
12
12
12
12
12
12
12
12
12
12
12
12
12
12
12
12
12
12
12
12
12
12
12
12
12
12
12
12
12
12
12
12
12
12
12
12
12
12
12
12
12
12
12
12
12
12
12
12
12
12
12
12
12
12
12
12
12
12
12
12
12
12
12
12
12
12
12
12
12
12
12
12
12
12
12
12
12
12
12
12
12
12
12
12
12
12
12
12
12
12
12
12
12
12
12
12
12
12
12
12
12
12
12
12
12
12
12
12
12
12
12
12
12
12
12
12
12
12
12
12
12
12
12
12
12
12
12
12
12
12
12
12
12
12
12
12
12
12
12
12
12
12
12
12
12
12
12
12
12
12
12
12
12
12
12
12
12
12
12
12
12
12
12
12
12
12
12
12
12
12
12
12
12
12
12
12
12
12
12
12
12
12
12
12
12
12
12
12
12
12
12
12
12
12
12
12
12
12
12
12
12
12
12
12
12
12
12
12
12
12
12
12
12
12
12
12
12
12
12
12
12
12
12
12
12
12
12
12
12
12
12
12
12
12
12
12
12
12
12
12
12
12
12
12
12
12
12
12
12
12
12
12
12
12
12
12
12
12
12
12
12
12
12
12
12
12
12
12
12
12
12
12
12
12
12
12
12
12
12
12
12
12
12
12
12
12
12
12
12
12
12
12
12
12
12
12
12
12
12
12
12
12
12
12
12
12
12
12
12
12
12
12
12
12
12
12
12
12
12
12
12
12
12
12
12
12
12
12
12
12
12
12
12
12
12
12
12
12
12
12
12
12
12
12
12
12
12
12
12
12
12
12
12
12
12
12
12
12
12
12
12
12
12
12
12
12
12
12
12
12
12
12
12
12
12
12
12
12
12
12
12
12
12
12
12
12
12
12
12
12
12
12
12
12
12
12
12
12
12
12
12
12
12
12
12
12
12
12
12
12
12
12
12
12
12
12
12
12
12
12
12
12
12
12
12
12
12
12
12
12
12
12

POINT_DATA 3012
SCALARS Jp_lamdaP float 4
LOOKUP_TABLE default
0.999762 1 1 0.999762
1 1 1 1
0.999769 1 1 0.999769
0.999711 1 1 0.999711
0.999763 1 1 0.999763
0.99975 1 1 0.99975
0.999068 1 1 0.999068
1 1 1 1
1 1 1 1
1 1 1 1
0.999836 1 1 0.999836
0.999203 1 1 0.999203
0.999689 1 1 0.999689
0.999708 1 1 0.999708
0.99977 1 1 0.99977
0.999733 1 1 0.999733
0.999755 1 1 0.999755
0.999776 1 1 0.999776
0.99907 1 1 0.99907
1 1 1 1
0.99969 1 1 0.99969
0.999742 1 1 0.999742
0.998938 1 1 0.998938
0.999042 1 1 0.999042
0.999762 1 1 0.999762
0.999092 1 1 0.999092
1.00522 1.00725 1 0.997991
1 1 1 1
0.999871 1 1 0.999871
0.999884 1 1 0.999884
1 1 1 1
0.999211 1 1 0.999211
0.999735 1 1 0.999735
0.99976 1 1 0.99976
0.999187 1 1 0.999187
1 1 1 1
0.999273 1 1 0.999273
0.999304 1 1 0.999304
1.00007 1.00208 1 0.997994
1 1 1 1
1 1 1 1
0.999853 1 1 0.999853
1 1 1 1
0.999706 1 1 0.999706
0.998865 1 1 0.998865
1 1 1 1
0.999088 1 1 0.999088
0.999751 1 1 0.999751
0.999784 1 1 0.999784
0.999756 1 1 0.999756
0.999076 1 1 0.999076
0.999837 1 1 0.999837
0.999711 1 1 0.999711
0.999774 1 1 0.999774
0.99976 1 1 0.99976
0.998936 1 1 0.998936
0.999095 1 1 0.999095
0.999044 1 1 0.999044
1.00564 1.00768 1 0.997976
1 1 1 1
0.999685 1 1 0.999685
0.999088 1 1 0.999088
0.998903 1 1 0.998903
0.998992 1 1 0.998992
1.00847 1.0108 1 0.997703
1.00666 1.00885 1 0.997828
0.999824 1 1 0.999824
0.9992 1 1 0.9992
1.00287 1.00479 1 0.99809
1.01922 1.02214 1 0.997144
1 1 1 1
1 1 1 1
1 1 1 1
0.999219 1 1 0.999219
1 1 1 1
1 1 1 1
0.999057 1 1 0.999057
0.999946 1 1 0.999946
0.999163 1 1 0.999163
0.99939 1 1 0.99939
0.999503 1.00152 1 0.997991
1 1 1 1
1.00047 1 1.0006 0.999868
0.998987 1 1 0.998987
0.999092 1 1 0.999092
1.00869 1.01115 1 0.997568
0.99965 1 1.00005 0.999595
1.00314 1.00526 1 0.997893
0.998616 1.00048 1 0.998136
1.00386 1.00654 1 0.99734
1 1 1 1
1 1 1 1
1 1 1 1
1 1 1 1
1 1 1 1
0.99985 1 1 0.99985
0.99897 1 1 0.99897
0.999857 1 1 0.999857
0.999017 1 1 0.999017
1 1 1 1
0.998865 1 1 0.998865
0.999069 1 1 0.999069
1.00767 1.01037 1 0.997322
0.999124 1 1 0.999124
1.01007 1.01271 1 0.997385
0.999709 1 1 0.999709
0.999729 1 1 0.999729
0.999783 1 1 0.999783
0.999776 1 1 0.999776
0.998937 1 1 0.998937
0.999048 1 1 0.999048
0.999101 1 1 0.999101
1.00605 1.00811 1 0.997962
1 1 1 1
0.999704 1 1 0.999704
0.998892 1 1 0.998892
0.998899 1 1 0.998899
0.999912 1 1 0.999912
0.999268 1 1 0.999268
0.998993 1 1 0.998993
1.00844 1.0108 1 0.997662
1.00353 1.00547 1 0.998072
1.00691 1.00907 1 0.997858
1.01912 1.02203 1 0.99715
0.998888 1 1 0.998888
0.998889 1 1 0.998889
1.00691 1.0094 1 0.997529
1.00847 1.0109 1 0.997593
1.0081 1.01041 1 0.997716
1.02765 1.03074 1 0.997006
1 1 1 1
1.022 1.02498 1 0.997095
0.999589 1 1.00016 0.999424
0.99994 1.00185 1 0.998092
1.01583 1.01869 1 0.997194
1.02821 1.03135 1 0.996951
1.00061 1 1.00092 0.999691
1.00379 1 1.00502 0.998778
1 1 1 1
1 1 1 1
0.999064 1 1 0.999064
1 1 1 1
0.999367 1 1 0.999367
0.999168 1 1 0.999168
0.998813 1.00083 1 0.997988
1 1 1 1
1.00009 1 1.0002 0.999889
0.999073 1 1 0.999073
0.999172 1 1 0.999172
1.00808 1.01054 1 0.997569
0.999753 1 1.00018 0.999577
1.00215 1.00426 1 0.997896
0.998367 1.00023 1 0.998135
1.00377 1.00646 1 0.997323
1.00028 1 1.00055 0.999733
0.999949 1 1 0.999949
1.00132 1 1.0023 0.999024
1.01011 1.01268 1 0.99746
1.00635 1.00864 1 0.997731
1.02375 1.02687 1 0.996955
0.99859 1 1.0002 0.998393
1.01072 1.0135 1 0.99725
1.00238 1.00439 1.00057 0.99743
1.01142 1.01431 1 0.997149
1 1 1 1
1 1 1 1
1 1 1 1
0.999939 1 1.00014 0.999798
1 1 1 1
1 1 1 1
1 1 1 1
0.998946 1 1 0.998946
0.998895 1 1 0.998895
1 1 1 1
1 1 1 1
0.998867 1 1 0.998867
0.998999 1 1 0.998999
1.00806 1.01077 1 0.997323
0.99897 1 1 0.99897
1.01026 1.0129 1 0.997384
0.998861 1 1 0.998861
1.00663 1.00938 1 0.997281
1.0089 1.01157 1 0.997364
1.02994 1.03317 1 0.996868
1.01051 1.01313 1 0.997406
1.0327 1.03591 1 0.996901
1 1 1 1
0.999724 1 1 0.999724
0.998677 1 1 0.998677
0.998897 1 1 0.998897
1 1 1 1
0.999337 1 1 0.999337
0.998996 1 1 0.998996
1.00838 1.01078 1 0.997621
1.00718 1.00931 1 0.997887
1.00419 1.00615 1 0.998053
1.019 1.02191 1 0.997156
0.998886 1 1 0.998886
0.998886 1 1 0.998886
1.00675 1.00936 1 0.997417
1.00846 1.01087 1 0.99762
1 1 1 1
0.999511 1 1.00007 0.999445
1.00088 1.00273 1 0.998158
1.00805 1.01036 1 0.997713
1.02756 1.03068 1 0.996977
1.0152 1.01806 1 0.997184
1.0222 1.02515 1 0.99713
1.02779 1.03093 1 0.996958
1.0008 1 1.00112 0.99968
1.00327 1 1.00449 0.99878
1.00612 1.00884 1 0.997303
1.00735 1.00981 1 0.997567
1.02825 1.03139 1 0.996953
1.02821 1.03138 1 0.996925
1.02469 1.02768 1 0.997093
1.03749 1.04064 1 0.99698
1.00038 1 1.00081 0.999563
1.03035 1.03347 1 0.996986
0.998682 1.00031 1.00011 0.998268
1.00881 1.01154 1 0.997299
1.02582 1.02896 1 0.996944
1.0298 1.03285 1 0.997055
1.0028 1 1.00422 0.998582
1.00074 1 1.00172 0.999023
1.00315 1 1.005 0.99815
0.999012 1 1 0.999012
1 1 1 1
0.99991 1 1 0.99991
0.999123 1 1 0.999123
1.00748 1.00993 1 0.997571
0.999885 1 1.0003 0.999582
0.998236 1.00006 1.00004 0.998133
1.00119 1.0033 1 0.997899
1.00404 1.00675 1 0.997307
1.00024 1 1.00048 0.999755
0.999961 1 1 0.999961
1.00161 1 1.00259 0.999026
1.00977 1.01234 1 0.997459
1.00545 1.00774 1 0.997735
1.02386 1.02699 1 0.996952
0.998659 1 1.00026 0.998396
1.01152 1.0143 1 0.997258
1.00177 1.00388 1.00047 0.997425
1.01224 1.01514 1 0.997136
0.999985 1 1 0.999985
1.00011 1 1.00143 0.998688
1.00052 1 1.00117 0.999354
1.00189 1 1.0035 0.998395
1.0279 1.0311 1 0.996895
1.01827 1.02123 1 0.997103
1.03087 1.03415 1 0.996824
1.00004 1.00183 1.00049 0.997727
1.01914 1.02211 1 0.997098
1.01061 1.01196 1.00158 0.997097
1.02145 1.0245 1 0.997019
0.999769 1 1 0.999769
1 1 1 1
1 1 1 1
1 1 1 1
1 1 1 1
0.999885 1 1 0.999885
1 1 1 1
1.00034 1 1.00056 0.999785
1 1 1 1
0.998971 1 1 0.998971
0.998924 1 1 0.998924
1.01054 1.01319 1 0.997383
1.00842 1.01113 1 0.997323
0.998869 1 1 0.998869
1 1 1 1
0.99886 1 1 0.99886
1.0069 1.00965 1 0.997281
1.00931 1.01197 1 0.997364
1.02975 1.03298 1 0.996867
1.01052 1.01315 1 0.997404
1.03256 1.03577 1 0.996899
1.00601 1.00876 1 0.997276
1.02863 1.0319 1 0.996832
1.03176 1.03497 1 0.996895
1.04359 1.0469 0.999807 0.997032
1.03162 1.03483 1 0.996892
1.04218 1.04533 1 0.996982
0.998883 1 1 0.998883
0.998882 1 1 0.998882
1.00661 1.00933 1 0.997305
1.00847 1.01085 1 0.997647
1 1 1 1
0.999465 1 1 0.999465
1.00173 1.00351 1 0.998225
1.00799 1.01031 1 0.99771
1.0275 1.03064 1 0.996949
1.02236 1.02526 1 0.997165
1.01457 1.01744 1 0.997174
1.02749 1.03062 1 0.996966
1.00097 1 1.00131 0.999669
1.00282 1 1.00405 0.998781
1.00605 1.0088 1 0.997279
1.00734 1.0098 1 0.997563
1.0282 1.03134 1 0.996963
1.02839 1.03153 1 0.996951
1.00019 1 1.00064 0.999552
0.999015 1.00069 1.00006 0.998265
1.00913 1.01183 1 0.997334
1.02499 1.02799 1 0.997084
1.03754 1.04065 1 0.997008
1.02525 1.02842 1 0.996916
1.03036 1.03348 1 0.99699
1.03008 1.03312 1 0.997054
1.00205 1 1.00347 0.998585
1.00332 1 1.00517 0.998153
1.00134 1 1.00233 0.999021
1.02743 1.03062 1 0.99691
1.02894 1.03205 1 0.996983
1.04238 1.0456 0.999924 0.996993
1.03904 1.04219 1 0.996975
1.03323 1.03632 1 0.99702
1.03605 1.03912 0.999801 0.997247
0.998984 1 1.00054 0.998441
1.03188 1.03484 1 0.997144
1.00167 1.00406 1 0.99762
1.0169 1.02008 1 0.99688
1.02668 1.02994 1 0.996836
1.0261 1.02891 1 0.997267
0.999734 1 1.00049 0.999248
0.998744 1 1.00067 0.99808
1.0055 1 1.00723 0.998283
1.00061 1.00002 1.00265 0.99794
1.00944 1.01201 1 0.997458
0.999973 1 1 0.999973
0.999976 1 1.0002 0.999776
1.00167 1 1.00265 0.999028
1.00456 1.00684 1 0.99774
1.02395 1.02709 1 0.996948
0.998647 1 1.00025 0.9984
1.00068 1.00294 1.00033 0.99742
1.01227 1.01505 1 0.997266
1.01253 1.01545 1 0.997124
0.999989 1 1 0.999989
1.00065 1 1.00197 0.998689
1.00009 1 1.00073 0.999362
1.00236 1 1.00397 0.998389
1.02781 1.03101 1 0.99689
1.01833 1.02128 1 0.997102
1.03063 1.03391 1 0.996821
0.99929 1.00111 1.00045 0.997734
1.01911 1.02206 1 0.997107
1.0103 1.0115 1.00173 0.997086
1.02149 1.02447 1 0.997092
0.999997 1 1 0.999997
0.999573 1 1 0.999573
0.999538 1.0002 1.00125 0.998093
1.00176 1 1.00306 0.998704
1.00049 1 1.00241 0.998093
1.03499 1.03828 1 0.996839
1.02511 1.02826 1 0.996937
1.02779 1.03099 1 0.996899
1.00476 1.00542 1.00199 0.997349
1.0195 1.0225 1 0.99706
1.01268 1.01503 1.00086 0.996824
0.999741 1 1 0.999741
0.999287 1 1 0.999287
0.999789 1 1 0.999789
0.999771 1 1 0.999771
1 1 1 1
1 1 1 1
1 1 1 1
1 1 1 1
1 1 1 1
0.999951 1 1 0.999951
1 1 1 1
0.99987 1 1 0.99987
1 1 1 1
1.00072 1 1.00095 0.999772
1 1 1 1
1.01049 1.01312 1 0.997402
1.00964 1.01231 1 0.997363
1.03219 1.0354 1 0.996897
1.02952 1.03276 1 0.996865
1.00725 1.01 1 0.997281
0.998859 1 1 0.998859
1.00619 1.00893 1 0.997276
1.02839 1.03166 1 0.996832
1.03148 1.03469 1 0.996893
1.04313 1.04672 0.999519 0.99705
1.031 1.03422 1 0.996889
1.04189 1.04504 1 0.996979
1.02768 1.03095 1 0.996823
1.0419 1.04596 0.999062 0.99705
1.04411 1.04725 0.999982 0.997018
1.04232 1.04791 0.997393 0.99726
1.03803 1.04124 1 0.996915
1.04117 1.04476 0.999267 0.997295
1.00602 1.00879 1 0.997256
1.00734 1.0098 1 0.997559
1.02819 1.03131 1 0.996972
1.02855 1.03167 1 0.996977
1 1 1.00046 0.999541
0.999356 1.0011 1 0.998263
1.00967 1.01234 1 0.99737
1.02531 1.02832 1 0.997074
1.03761 1.04069 1 0.997036
1.03039 1.0335 1 0.996994
1.02453 1.02773 1 0.996887
1.03036 1.0334 1 0.997053
1.00134 1 1.00276 0.998587
1.00353 1 1.00539 0.998156
1.00181 1 1.0028 0.999018
1.02746 1.03068 1 0.996878
1.02914 1.03226 1 0.996981
1.04203 1.04532 0.999826 0.997025
1.03917 1.04233 1 0.996969
0.999103 1.00003 1.00063 0.998439
1.00317 1.00557 1 0.997614
1.01562 1.01871 1.00003 0.996929
1.03349 1.03659 1 0.997003
1.03611 1.03913 0.999803 0.997294
1.02699 1.03029 1 0.9968
1.03157 1.03452 1 0.997148
1.02655 1.02933 1 0.997298
0.99932 1.00012 1.00112 0.998082
1.00076 1.00009 1.00276 0.997917
1.00005 1 1.00081 0.999244
1.00504 1 1.00673 0.998316
1.04207 1.04543 0.999781 0.996999
1.04164 1.04483 0.99994 0.997007
1.03966 1.04526 0.997462 0.997173
1.03701 1.0416 0.998278 0.997308
1.0338 1.03665 1 0.997246
1.03326 1.0377 0.998239 0.997473
0.998545 1.00064 1 0.997907
1.02736 1.03009 0.999877 0.997471
1.00679 1.00963 1 0.997192
1.0171 1.02033 1.00018 0.996656
1.02806 1.03137 1 0.996794
1.0266 1.02934 1 0.997337
0.999421 1 1 0.999421
1.00261 1 1.00409 0.998522
0.998141 1.00029 1 0.997852
1.0036 1 1.00557 0.99804
1.00023 1.00022 1.00213 0.997884
0.999994 1 1 0.999994
1.02765 1.03086 1 0.996885
0.999675 1 1.0003 0.999371
1.00145 1 1.00276 0.99869
1.00296 1 1.00458 0.998384
1.01842 1.02138 1 0.997102
1.03042 1.03371 1 0.996819
0.998718 1.00047 1.00051 0.99774
1.01093 1.01194 1.00193 0.997075
1.01916 1.02211 1 0.997115
1.02182 1.02473 1 0.997165
0.999998 1 1 0.999998
0.999581 1 1 0.999581
0.999233 1.00007 1.00107 0.998095
1.00216 1 1.00346 0.998704
1.00081 1 1.00275 0.998072
1.035 1.03829 1 0.996833
1.02521 1.02837 1 0.996935
1.02771 1.03092 1 0.996888
1.00381 1.00433 1.00213 0.997355
1.02209 1.0251 1 0.997062
1.01257 1.0148 1.00096 0.996843
0.999687 1 1 0.999687
0.999672 1 1.00068 0.998994
0.999557 1.00132 1.00048 0.997767
1.00315 1 1.00481 0.998342
0.999646 1 1.00165 0.997994
1.03259 1.03571 1 0.996986
1.0228 1.02593 1 0.996952
1.02645 1.02944 1 0.997092
1.00252 1.00158 1.00379 0.997157
1.0107 1.01401 1 0.996741
0.999744 1 1 0.999744
0.999216 1 1 0.999216
0.999263 1 1 0.999263
0.999026 1 1 0.999026
0.999299 1 1 0.999299
0.999798 1 1 0.999798
0.999791 1 1 0.999791
1 1 1 1
0.999773 1 1 0.999773
1 1 1 1
1 1 1 1
1 1 1 1
1 1 1 1
1 1 1 1
0.999989 1 1 0.999989
0.999935 1 1 0.999935
1 1 1 1
1 1 1 1
0.999854 1 1 0.999854
1 1 1 1
1.0305 1.03372 1 0.996885
1.03142 1.03463 1 0.996891
1.04173 1.04489 1 0.996977
1.04274 1.04663 0.999213 0.997068
1.02806 1.03132 1 0.996832
1.00628 1.00903 1 0.997275
1.0275 1.03077 1 0.996824
1.04193 1.04592 0.999138 0.997044
1.0437 1.04683 0.999983 0.997018
1.04174 1.04779 0.996919 0.997292
1.03872 1.04194 1 0.996909
1.04065 1.04463 0.998868 0.997317
1.04162 1.04547 0.99929 0.997018
1.04107 1.04736 0.996756 0.997231
1.04104 1.04654 0.997391 0.997343
1.03863 1.04687 0.99469 0.997421
1.03784 1.04083 0.999962 0.997163
1.03868 1.04447 0.996924 0.997522
1.02736 1.03061 1 0.996846
1.02932 1.03244 1 0.996978
1.04161 1.04498 0.999714 0.997057
1.03926 1.04243 1 0.996962
0.999264 1.00011 1.00072 0.998437
1.00444 1.00685 1 0.997607
1.01434 1.01723 1.00018 0.996977
1.03375 1.03687 1 0.996986
1.03611 1.0391 0.999789 0.99734
1.03123 1.03418 1 0.997151
1.02736 1.03069 1 0.996765
1.02665 1.0294 1 0.99733
0.999944 1.0003 1.00157 0.998083
1.00101 1.00022 1.0029 0.997894
1.00038 1 1.00114 0.999239
1.00423 1 1.00589 0.99835
1.04199 1.04536 0.999779 0.996999
1.04128 1.04447 0.999964 0.996985
1.03955 1.0451 0.997475 0.997206
1.03751 1.04167 0.998717 0.997291
0.999341 1.00145 1 0.997899
1.00593 1.00869 1.00003 0.997237
1.01764 1.02067 1.00039 0.996647
1.03317 1.03607 1 0.997203
1.03267 1.03708 0.998211 0.997531
1.02611 1.02942 1 0.996779
1.02841 1.03108 0.999932 0.997473
1.0274 1.03008 1 0.99739
0.998694 1.00085 1 0.99785
0.99981 1.00047 1.00145 0.99789
1.00412 1 1.0061 0.998034
0.999504 1 1.00012 0.999385
1.00234 1 1.00379 0.998554
1.03961 1.0464 0.996288 0.99722
1.03809 1.04411 0.996964 0.997258
1.03349 1.04107 0.995181 0.997519
1.02962 1.0341 0.998121 0.997541
1.0003 1.00268 1 0.997621
1.03226 1.03487 0.999821 0.997649
1.00448 1.00728 1.00029 0.996935
1.01556 1.01868 1.00051 0.996435
1.02395 1.02727 1 0.996771
0.999524 1 1 0.999524
1.00054 1 1.00172 0.998822
1.00278 1 1.00451 0.998281
0.999154 1.00137 1 0.997789
1.00406 1 1.00626 0.997811
0.999328 1.00057 1.00098 0.997779
0.999999 1 1 0.999999
0.99959 1 1 0.99959
1.03503 1.03832 1 0.996827
1.00267 1 1.00397 0.998703
0.998798 1 1.0007 0.998097
1.0013 1 1.00326 0.998051
1.0252 1.02836 1 0.996933
1.02746 1.03068 1 0.996877
1.00254 1.0029 1.00229 0.99736
1.01163 1.01403 1.00077 0.996862
1.0246 1.02761 1 0.997064
0.999692 1 1 0.999692
0.999516 1 1.00052 0.998997
0.999029 1.00085 1.00041 0.997764
1.00403 1 1.0057 0.998338
0.999639 1 1.00165 0.997995
1.03263 1.03576 1 0.99698
1.02309 1.02623 1 0.996941
1.02614 1.02911 1 0.997118
1.00287 1.00251 1.00324 0.997118
1.00958 1.01285 1.00006 0.996712
0.999176 1 1 0.999176
1.00234 1 1.00378 0.998575
1.00134 1.00171 1.002 0.99764
1.00263 1 1.00454 0.998091
0.999141 1.00026 1.001 0.997891
1.03272 1.03561 0.999763 0.997447
1.02139 1.02461 1 0.996856
1.02262 1.02556 1 0.997132
1.00432 1.00304 1.00433 0.99696
1.00244 1.00594 1 0.996523
0.999747 1 1 0.999747
0.999235 1 1 0.999235
0.998946 1 1 0.998946
0.99924 1 1 0.99924
0.999298 1 1 0.999298
0.998995 1 1 0.998995
0.998866 1 1 0.998866
0.998949 1 1 0.998949
0.999306 1 1 0.999306
0.999793 1 1 0.999793
0.999798 1 1 0.999798
1 1 1 1
0.999792 1 1 0.999792
1 1 1 1
1 1 1 1
1 1 1 1
1 1 1 1
1 1 1 1
1 1 1 1
0.99998 1 1 0.99998
1 1 1 1
0.99992 1 1 0.99992
1 1 1 1
1 1 1 1
1.03936 1.04259 1 0.996902
1.0431 1.04622 1 0.997017
1.04013 1.04451 0.998461 0.997339
1.0411 1.04762 0.996438 0.997324
1.04199 1.04589 0.999233 0.997038
1.02747 1.03074 1 0.996825
1.04189 1.04556 0.99949 0.996998
1.04139 1.04741 0.997022 0.997223
1.04123 1.04647 0.997656 0.997326
1.03799 1.04659 0.994341 0.997434
1.03724 1.04021 0.999974 0.997163
1.0372 1.04354 0.996345 0.997564
1.04101 1.04702 0.997038 0.997205
1.03932 1.04809 0.994197 0.997415
1.03853 1.04757 0.993825 0.997529
1.03555 1.04139 0.996781 0.997599
1.04203 1.0454 0.999778 0.996999
1.04098 1.04415 1 0.996963
1.03948 1.04494 0.997527 0.997239
1.03809 1.04181 0.999156 0.997273
1.00012 1.00223 1 0.997892
1.00508 1.00782 1 0.997282
1.01807 1.02091 1.00058 0.996637
1.03251 1.03545 1 0.99716
1.03207 1.03645 0.998185 0.997588
1.02964 1.03227 0.999977 0.997474
1.02454 1.02786 1 0.996765
1.02901 1.03165 1 0.997443
0.999142 1.0013 1 0.997848
0.999253 1.00067 1.00069 0.997895
1.00542 1 1.00741 0.998027
0.999617 1 1.00027 0.999348
1.00223 1 1.00365 0.998586
1.04009 1.04677 0.996381 0.997222
1.03821 1.04429 0.996909 0.997254
1.03334 1.04043 0.995671 0.997508
1.001 1.0034 1 0.997614
1.00483 1.00761 1.00026 0.99698
1.01474 1.01761 1.00076 0.996424
1.03013 1.03459 0.998165 0.997528
1.02502 1.02825 1 0.996865
1.02928 1.03214 0.999611 0.99762
0.999547 1 1 0.999547
0.999868 1.0021 1 0.997777
0.998621 1.00023 1.00049 0.997903
1.00481 1 1.00703 0.997797
1.00296 1 1.00467 0.9983
1.00047 1 1.00168 0.99879
1.03743 1.04656 0.99395 0.997306
1.03598 1.04705 0.991964 0.997438
1.02766 1.03869 0.991757 0.997604
1.03112 1.03822 0.995404 0.997746
1.00195 1.00452 1 0.997435
1.02399 1.02681 1 0.997251
1.00336 1.00522 1.00165 0.996508
1.00805 1.01077 1.00104 0.996273
0.99971 1 1 0.99971
0.999201 1 1.00015 0.99905
1.00095 1 1.00245 0.998498
1.0042 1 1.00628 0.99793
1.00006 1.0022 1.00025 0.997623
1.00551 1.00001 1.00793 0.997598
0.999697 1 1 0.999697
0.999246 1 1.00025 0.999001
1.03287 1.036 1 0.996973
1.00439 1 1.00607 0.998334
0.99838 1.00035 1.00027 0.997761
0.999518 1 1.00152 0.997997
1.02365 1.0268 1 0.99693
1.02618 1.02911 1 0.997144
1.00348 1.00368 1.00273 0.997079
1.00846 1.01155 1.00027 0.996683
0.999178 1 1 0.999178
1.00232 1 1.00375 0.998575
1.00111 1.00149 1.00198 0.99765
1.00251 1 1.00442 0.998098
0.998592 1.00014 1.00048 0.997979
1.03334 1.03641 0.999541 0.997489
1.02079 1.02399 1 0.996869
1.02411 1.02698 1 0.997205
1.00375 1.00225 1.00458 0.996923
1.00301 1.00654 1.00003 0.996464
0.998906 1 1.00005 0.998852
1.0034 1 1.0052 0.998211
1.00294 1.00166 1.00378 0.997501
0.999439 1.00006 1.00161 0.997771
1.033 1.04755 0.988349 0.997736
1.02688 1.02954 0.999872 0.997545
1.01234 1.01578 1 0.996615
1.00403 1.00324 1.00426 0.996545
0.999253 1 1 0.999253
0.998959 1 1 0.998959
0.998848 1 1 0.998848
0.999297 1 1 0.999297
0.998964 1 1 0.998964
0.999304 1 1 0.999304
0.998858 1 1 0.998858
0.998962 1 1 0.998962
0.998816 1 1 0.998816
0.998779 1 1 0.998779
0.998916 1 1 0.998916
0.999288 1 1 0.999288
0.999777 1 1 0.999777
0.999792 1 1 0.999792
1 1 1 1
0.999798 1 1 0.999798
1 1 1 1
1 1 1 1
1 1 1 1
1 1 1 1
1 1 1 1
1 1 1 1
0.999998 1 1 0.999998
1 1 1 1
0.999971 1 1 0.999971
1 1 1 1
1 1 1 1
1.03654 1.03948 1 0.997163
1.04146 1.04646 0.997906 0.997309
1.03575 1.04265 0.995771 0.997607
1.0374 1.04636 0.993979 0.997447
1.04172 1.04747 0.997282 0.997215
1.04206 1.04556 0.999672 0.996978
1.04085 1.04695 0.996952 0.997205
1.03901 1.04765 0.994334 0.997406
1.0378 1.04688 0.993775 0.997528
1.0372 1.04279 0.997024 0.997607
1.03962 1.04797 0.994658 0.997358
1.04014 1.05285 0.990326 0.997575
1.04015 1.05126 0.991758 0.997657
1.04053 1.04713 0.996458 0.997224
1.03828 1.04445 0.996834 0.99725
1.03326 1.03976 0.996236 0.997498
1.00179 1.00419 1 0.997607
1.00502 1.00784 1.00018 0.997024
1.01371 1.0165 1.00085 0.996412
1.03067 1.03506 0.998231 0.997515
1.02602 1.02901 0.999504 0.997591
1.02536 1.02849 1 0.996959
1.00015 1.00239 1 0.997765
0.998027 1 1 0.998027
1.00531 1 1.00754 0.997783
0.99957 1 1 0.99957
1.00238 1 1.00407 0.998318
1.00035 1 1.0016 0.998758
1.03808 1.04698 0.994167 0.997313
1.03562 1.04696 0.9917 0.997445
1.02784 1.03826 0.992344 0.997597
1.00115 1.00373 1 0.997425
1.00314 1.00517 1.0014 0.996589
1.008 1.0108 1.0009 0.996334
1.03128 1.03804 0.995732 0.997752
1.02351 1.02654 0.999821 0.997234
0.99976 1 1 0.99976
0.999146 1 1.0001 0.99905
0.998849 1.00118 1 0.997673
1.00767 1.00025 1.00972 0.99772
1.00421 1 1.00626 0.997965
1.00086 1 1.00239 0.998472
1.03784 1.05035 0.990567 0.997496
1.02822 1.04582 0.98557 0.997564
1.02576 1.03846 0.989955 0.997794
1.02158 1.02903 0.994975 0.997768
1.00137 1.00337 1.00091 0.997106
1.00674 1.00886 1.0014 0.996503
1.0028 1.00388 1.00264 0.9963
0.999878 1 1 0.999878
0.999446 1 1 0.999446
0.999211 1 1 0.999211
0.999035 1 1.0004 0.998638
1.00145 1 1.00328 0.998179
1.00783 1 1.01004 0.997813
0.998287 1.00057 1 0.997716
1.02871 1.0003 1.03055 0.997912
0.999181 1 1 0.999181
1.00257 1 1.00401 0.998575
1.03388 1.03714 0.999324 0.997531
1.00286 1 1.00476 0.998106
1.00115 1.00134 1.00215 0.99766
0.998113 1.00001 1.00004 0.998066
1.01978 1.02297 1 0.996882
1.02534 1.02814 1 0.997278
1.00334 1.00165 1.00482 0.996886
1.00371 1.00733 1 0.996404
0.999027 1 1.0002 0.998826
1.00328 1 1.00506 0.998226
1.0033 1.00163 1.00415 0.997531
0.99935 1.00013 1.00142 0.997807
1.0349 1.04896 0.988818 0.997754
1.02671 1.02933 0.999949 0.997499
1.01342 1.01682 1 0.996658
1.00499 1.00474 1.00377 0.996495
0.999665 1 1.00105 0.998621
1.03247 1.05214 0.983511 0.997759
1.00141 1 1.00351 0.997912
1.00209 1.00217 1.00268 0.997249
1.03182 1.03958 0.994682 0.997845
1.01257 1.01587 1 0.996756
1.0054 1.00586 1.00323 0.996323
0.998972 1 1 0.998972
0.998841 1 1 0.998841
0.998813 1 1 0.998813
0.999303 1 1 0.999303
0.998975 1 1 0.998975
0.998849 1 1 0.998849
0.999286 1 1 0.999286
0.998921 1 1 0.998921
0.998812 1 1 0.998812
0.9988 1 1 0.9988
0.998817 1 1 0.998817
0.998741 1 1 0.998741
0.998807 1 1.0001 0.998711
0.998882 1 1 0.998882
0.999243 1 1 0.999243
0.999755 1 1 0.999755
0.999775 1 1 0.999775
1 1 1 1
0.999791 1 1 0.999791
1 1 1 1
1 1 1 1
1 1 1 1
1 1 1 1
1 1 1 1
0.999905 1 1 0.999905
1 1 1 1
1 1 1 1
1 1 1 1
0.999996 1 1 0.999996
1 1 1 1
1 1 1 1
1.03887 1.04423 0.997245 0.997615
1.03703 1.04611 0.993779 0.997528
1.03866 1.04717 0.994471 0.997397
1.04071 1.04688 0.996888 0.997204
1.03924 1.0479 0.994341 0.997377
1.0402 1.05247 0.990757 0.997565
1.03892 1.05035 0.991432 0.997667
1.03983 1.05269 0.990203 0.997553
1.0462 1.0604 0.9889 0.997678
1.03237 1.05219 0.983206 0.997922
1.03875 1.04741 0.994399 0.99732
1.03524 1.04691 0.991376 0.997453
1.02785 1.03782 0.992785 0.99759
1.00108 1.00361 1.00006 0.997416
1.00332 1.00541 1.00126 0.996671
1.00853 1.01139 1.00078 0.996394
1.03154 1.03799 0.996019 0.997758
1.02324 1.02655 0.999563 0.997218
0.998241 1.00052 1 0.997723
1.01005 1.00063 1.0116 0.99784
1.00504 1 1.00705 0.998
0.99981 1 1 0.99981
0.999121 1 1.00007 0.999049
1.00107 1 1.00263 0.998445
1.0378 1.05064 0.990248 0.997507
0.999874 1 1 0.999874
0.999419 1 1 0.999419
1.02815 1.04501 0.986269 0.997564
1.02518 1.03838 0.989499 0.997763
1.00093 1.00267 1.00108 0.997196
1.0034 1.00384 1.0033 0.996283
1.00742 1.01011 1.00084 0.996499
1.02042 1.02811 0.994762 0.997747
0.999283 1 1 0.999283
0.999103 1 1.00047 0.998632
0.999173 1.0009 1.00065 0.997623
1.02331 1.00029 1.02501 0.998062
1.00621 1 1.00841 0.997823
1.00195 1 1.00376 0.998197
1.0448 1.0589 0.989021 0.997637
1.01244 1.04324 0.972711 0.997704
1.01901 1.03376 0.987745 0.997956
1.00389 1.01209 0.994421 0.997463
1.0018 1.00111 1.00348 0.997228
1.00349 1.00183 1.00547 0.996205
0.999413 1 1 0.999413
0.999397 1 1 0.999397
0.99913 1 1 0.99913
0.998743 1 1 0.998743
0.999799 1 1.0014 0.998405
1.00086 1 1.00297 0.997899
1.03835 1 1.04062 0.997816
1.00226 1.00043 1.00376 0.998078
0.99921 1 1.00041 0.998799
1.00273 1 1.0045 0.998242
1.03621 1.04955 0.98949 0.997771
1.0265 1.02912 1 0.997453
0.99919 1.0002 1.00115 0.997842
1.00358 1.00161 1.00441 0.99756
1.01486 1.01818 1.00004 0.996701
1.0058 1.00602 1.00335 0.996444
0.999824 1 1.00122 0.998609
1.03425 1.05453 0.982927 0.997801
1.00148 1 1.00356 0.997931
1.00177 1.00189 1.00269 0.997201
1.0305 1.03886 0.994121 0.997819
1.0127 1.01593 1 0.996824
1.00566 1.00585 1.00348 0.996339
1.00106 1 1.00277 0.998299
1.01746 1.03721 0.982717 0.998208
1.0019 1.00216 1.00208 0.99766
1.00331 1.00268 1.00379 0.99685
1.0154 1.02246 0.995647 0.997438
1.00204 1.00333 1.00221 0.996509
0.992692 1.00554 0.989221 0.997981
0.998833 1 1 0.998833
0.999047 1 1.00024 0.99881
0.998807 1 1.0001 0.998705
0.999283 1 1 0.999283
0.998925 1 1 0.998925
0.998821 1 1 0.998821
0.998807 1 1 0.998807
0.999242 1 1 0.999242
0.998872 1 1 0.998872
0.998787 1 1 0.998787
0.998738 1 1.00003 0.998711
0.998741 1 1 0.998741
0.99877 1 1 0.99877
0.998854 1 1.00031 0.998549
0.998926 1 1.00023 0.998696
0.998785 1 1 0.998785
0.999142 1 1 0.999142
0.998941 1 1 0.998941
0.999126 1 1 0.999126
0.999742 1 1 0.999742
0.999753 1 1 0.999753
1 1 1 1
0.999773 1 1 0.999773
1 1 1 1
1 1 1 1
1 1 1 1
1 1 1 1
1 1 1 1
0.999926 1 1 0.999926
0.999904 1 1 0.999904
1 1 1 1
1 1 1 1
1 1 1 1
1 1 1 1
1 1 1 1
1 1 1 1
1.03785 1.04968 0.991026 0.997677
1.04021 1.05213 0.991101 0.997555
1.03886 1.04784 0.994023 0.997396
1.03982 1.05262 0.99026 0.997551
1.04418 1.05837 0.988895 0.997675
1.0327 1.05143 0.984287 0.997867
1.0463 1.06303 0.98649 0.997742
0.983646 1.01605 0.971294 0.996719
1.00884 1.03432 0.976789 0.99854
0.999514 1 1 0.999514
1.03775 1.0509 0.989945 0.997519
1.02835 1.04428 0.98715 0.997565
1.02473 1.03836 0.989116 0.997731
0.999608 1.00151 1.00082 0.997286
1.00373 1.00346 1.00402 0.996266
1.00797 1.01106 1.00045 0.996496
1.01907 1.0269 0.994633 0.997725
0.998699 1.00117 1 0.997532
1.01734 1 1.01916 0.998214
1.00436 1 1.00654 0.997833
0.999869 1 1 0.999869
1.00224 1 1.00403 0.998216
0.999354 1 1 0.999354
0.999007 1 1.00038 0.998627
0.999392 1 1 0.999392
1.04238 1.05918 0.986464 0.997644
0.99945 1 1 0.99945
0.999395 1 1 0.999395
0.999093 1 1 0.999093
1.01551 1.04305 0.97584 0.997704
1.0195 1.03436 0.987698 0.99791
1.00035 1.00105 1.00205 0.997252
1.0038 1.00196 1.00556 0.996293
1.00304 1.01025 0.995396 0.997452
0.998786 1 1 0.998786
0.999837 1 1.00147 0.998367
1.00708 1.00026 1.00884 0.997992
1.03105 1 1.03327 0.997853
1.00076 1 1.00283 0.997934
1.02995 1.05046 0.982702 0.997736
1.00585 1.04027 0.969011 0.997836
1.01121 1.02096 0.992788 0.997641
0.995485 1.00404 0.994234 0.997226
1.00325 1 1.00564 0.997628
0.999022 1 1 0.999022
0.998933 1 1 0.998933
0.998904 1 1.00009 0.998817
0.999185 1 1.00066 0.998523
1.00076 1 1.00256 0.998209
1.02639 1 1.02855 0.997896
1.02531 1 1.02752 0.997847
0.99986 1 1.00127 0.998596
1.00153 1 1.00358 0.99795
1.03534 1.05762 0.981052 0.997842
1.02929 1.03847 0.993358 0.997792
1.01253 1.01568 1 0.996893
1.00151 1.00168 1.00268 0.997153
1.00562 1.00567 1.0036 0.996356
1.00102 1 1.00268 0.99834
1.0154 1.0372 0.980714 0.998233
1.00058 1.00145 1.00146 0.997678
1.00278 1.00185 1.00408 0.996858
1.01552 1.02261 0.995524 0.997538
1.00198 1.00277 1.00273 0.996496
0.991927 1.00513 0.989606 0.99723
1.00083 1.00029 1.00239 0.998154
1.00703 1.02072 0.988379 0.998188
1.00064 1.00105 1.00194 0.997648
1.00443 1.00103 1.00644 0.996979
0.995461 1.0058 0.992459 0.99724
0.939436 0.982329 0.974868 0.980989
0.94683 0.979282 0.976238 0.990396
0.982465 0.992076 0.992283 0.998014
0.797182 0.870473 0.94551 0.968582
0.733012 0.852094 0.895605 0.960522
0.999111 1 1.0003 0.998807
0.999192 1 1.00045 0.99874
0.998964 1 1.00023 0.99873
0.999242 1 1 0.999242
0.998862 1 1 0.998862
0.998712 1 1 0.998712
0.998742 1 1 0.998742
0.998757 1 1 0.998757
0.999539 1 1.00087 0.998672
0.999171 1 1 0.999171
0.998803 1 1 0.998803
0.998753 1 1 0.998753
0.99921 1 1.00064 0.99857
1.00072 1 1.00215 0.99858
1.00081 1 1.00221 0.998603
0.999681 1 1.00108 0.998601
0.998746 1 1 0.998746
0.999119 1 1 0.999119
0.998822 1 1 0.998822
0.998768 1 1 0.998768
0.998935 1 1 0.998935
0.998906 1 1 0.998906
0.999217 1 1 0.999217
0.999123 1 1 0.999123
0.999737 1 1 0.999737
0.999742 1 1 0.999742
1 1 1 1
0.999752 1 1 0.999752
1 1 1 1
1 1 1 1
1 1 1 1
1 1 1 1
1 1 1 1
0.99994 1 1 0.99994
0.999922 1 1 0.999922
1 1 1 1
0.999902 1 1 0.999902
1 1 1 1
1 1 1 1
1 1 1 1
1 1 1 1
1 1 1 1
1.04195 1.05614 0.988864 0.997672
1.03984 1.05256 0.990343 0.997549
1.03361 1.0509 0.985697 0.997812
0.987688 1.01587 0.975402 0.99678
1.04352 1.06049 0.986224 0.99774
1.01817 1.03718 0.983215 0.998428
1.03538 1.04547 0.992493 0.997841
0.944351 0.982575 0.971249 0.989548
0.997789 1.01935 0.981404 0.997394
0.999522 1 1 0.999522
0.999512 1 1 0.999512
0.999126 1 1 0.999126
0.999174 1 1 0.999174
1.04035 1.05937 0.984355 0.997652
1.01791 1.0424 0.978759 0.997704
1.01969 1.0347 0.987606 0.997865
0.999246 1.00073 1.00124 0.997276
1.004 1.00227 1.00536 0.99638
1.00229 1.00893 0.995974 0.99744
1.01272 1 1.01485 0.997905
1.02422 1 1.02639 0.997889
1.00043 1 1.00246 0.99797
0.999394 1 1 0.999394
0.999791 1 1.00146 0.998329
0.99883 1 1 0.99883
0.999486 1 1 0.999486
0.999055 1 1 0.999055
1.0274 1.05012 0.980569 0.997751
0.999068 1 1 0.999068
0.998979 1 1 0.998979
0.998909 1 1 0.998909
1.0091 1.04249 0.970071 0.997833
1.01005 1.02049 0.992115 0.99764
1.00291 1.00005 1.00526 0.997611
0.996801 1.00449 0.995055 0.997275
0.999253 1 1.00075 0.9985
1.00043 1 1.00228 0.998145
1.02872 1.00019 1.03075 0.997834
1.02727 1 1.02948 0.997852
1.00092 1.03718 0.967081 0.99789
0.999827 1.02803 0.974712 0.9978
1.00343 1.0083 0.99783 0.997332
0.99003 1.00037 0.991614 0.998028
0.998689 1 1 0.998689
0.999604 1 1.00098 0.998629
1.0091 1 1.01074 0.998378
1.0442 1 1.04652 0.997784
0.915629 0.971152 0.962826 0.97923
1.00134 1 1.00296 0.998381
0.999458 1.00067 1.00109 0.997695
1.01452 1.03703 0.980001 0.998257
1.01588 1.02301 0.995384 0.997639
1.00227 1.0025 1.0033 0.996483
1.00247 1.00115 1.00447 0.996865
0.992649 1.00522 0.990998 0.996461
1.00051 1.00013 1.00218 0.998202
1.00742 1.02132 0.988193 0.998177
1.00012 1.00102 1.00144 0.997661
1.0043 1.00123 1.00611 0.996978
0.998071 1.0068 0.994055 0.997254
0.938558 0.987161 0.970865 0.979296
0.942286 0.976949 0.976154 0.988081
0.98244 0.990542 0.993776 0.998033
0.796651 0.868016 0.947131 0.969014
0.71787 0.841173 0.891492 0.957288
0.999797 1 1.00139 0.998402
0.824921 0.890949 0.954076 0.970458
0.775086 0.856923 0.940211 0.962016
0.989626 1.00713 0.984504 0.998082
1.00595 1.00104 1.00698 0.997936
1.01221 1.0043 1.01041 0.997485
0.974168 0.986313 0.989444 0.998224
0.93351 0.970122 0.982398 0.979502
0.921914 0.952776 0.98041 0.986943
0.778387 0.869393 0.922866 0.970154
0.794329 0.900455 0.917478 0.961485
0.99974 1 1.00097 0.998774
0.999801 1 1.00109 0.998712
1.00044 1 1.00153 0.998906
0.9992 1 1 0.9992
0.99882 1 1 0.99882
0.999739 1 1.00109 0.998648
0.999727 1 1.00114 0.998591
0.998735 1 1 0.998735
0.99912 1 1 0.99912
1.00038 1 1.00181 0.998573
1.00006 1 1.00145 0.998618
0.998776 1 1 0.998776
1.00041 1 1.0018 0.998614
1.00231 1 1.00374 0.998582
1.0039 1 1.00523 0.998676
0.998688 1 1.00011 0.998576
0.998785 1 1 0.998785
0.998819 1 1 0.998819
0.998762 1 1 0.998762
0.998643 1 1 0.998643
0.99913 1 1.00036 0.998767
0.999121 1 1.00039 0.998728
1.00035 1 1.00177 0.998581
0.999296 1 1.00039 0.998902
0.999 1 1.00007 0.998934
0.999244 1 1 0.999244
0.99887 1 1 0.99887
0.999192 1 1 0.999192
0.999731 1 1 0.999731
0.99912 1 1 0.99912
0.999738 1 1 0.999738
1 1 1 1
0.999742 1 1 0.999742
1 1 1 1
1 1 1 1
1 1 1 1
1 1 1 1
1 1 1 1
0.999488 1 1 0.999488
0.999941 1 1 0.999941
0.999938 1 1 0.999938
1 1 1 1
0.999919 1 1 0.999919
1 1 1 1
1 1 1 1
1 1 1 1
1 1 1 1
1 1 1 1
0.990708 1.01579 0.978398 0.996846
1.04143 1.05782 0.986735 0.997739
1.02388 1.03996 0.986198 0.998315
0.93848 0.976333 0.970374 0.990576
0.998245 1.01907 0.981994 0.997527
1.03644 1.04876 0.990437 0.997797
1.01329 1.02588 0.990298 0.997404
0.953349 0.977606 0.983427 0.991622
0.93838 0.980066 0.977871 0.979133
0.78607 0.865827 0.936284 0.969668
0.708241 0.819546 0.900339 0.959845
0.999124 1 1 0.999124
0.999521 1 1 0.999521
0.99951 1 1 0.99951
0.999114 1 1 0.999114
0.998881 1 1 0.998881
0.998913 1 1 0.998913
0.999089 1 1 0.999089
0.999143 1 1 0.999143
1.02424 1.05012 0.977543 0.997765
1.01342 1.04579 0.971159 0.99783
1.00921 1.02001 0.991756 0.997639
1.00277 1.00025 1.00493 0.997596
0.998195 1.00454 0.996346 0.997325
1.0312 1 1.03345 0.997822
1.02869 1 1.03095 0.997809
1.00028 1 1.0022 0.998082
0.999026 1 1 0.999026
0.999128 1 1.00065 0.998477
0.999115 1 1 0.999115
0.999002 1 1 0.999002
1.00171 1.0378 0.96726 0.997889
0.998745 1 1.00003 0.998719
0.999098 1 1.00043 0.998664
0.999706 1.02728 0.975325 0.997777
1.00049 1.00779 0.995287 0.997452
0.992417 1.00077 0.993709 0.99793
1.01313 1 1.01489 0.998266
1.03978 1 1.04207 0.997803
0.99394 1.02673 0.970123 0.997874
0.985563 1.00846 0.979421 0.997833
0.984916 1.00099 0.986056 0.997859
0.996803 1.00035 0.998312 0.998137
1.00039 1 1.00198 0.998416
1.00479 1 1.0064 0.998403
1.03907 1 1.04108 0.998066
0.816859 0.898723 0.93557 0.971504
0.932421 0.976709 0.972307 0.981845
0.999839 1 1.00159 0.99825
0.999633 1.00089 1.00107 0.997675
1.00788 1.02194 0.988055 0.998168
1.00041 1.00776 0.995423 0.997268
1.00423 1.00155 1.00571 0.996978
0.933045 0.976715 0.975354 0.979428
0.948762 0.98381 0.975394 0.988704
0.982581 0.988977 0.995479 0.998044
0.795799 0.869662 0.942709 0.970679
0.705295 0.830446 0.89027 0.953976
0.999868 1.00002 1.00146 0.998399
0.820337 0.895535 0.943395 0.970993
0.766294 0.848579 0.940262 0.960404
0.990617 1.00793 0.984712 0.998078
1.00588 1.00127 1.00666 0.997962
1.01044 1.00264 1.01016 0.997638
0.966464 0.980106 0.987708 0.998353
0.93859 0.979158 0.980531 0.977602
0.922222 0.956756 0.974478 0.98915
0.78137 0.864973 0.932689 0.96854
0.791902 0.903798 0.912091 0.960644
1.00148 1 1.00273 0.998754
0.805959 0.867913 0.963663 0.963632
0.878758 0.934412 0.96943 0.970095
0.990083 0.999127 0.992234 0.998703
1.01387 1.00262 1.01257 0.998669
0.976341 0.970515 1.00772 0.998298
0.912374 0.940095 0.980093 0.990225
0.91188 0.945099 0.987702 0.976865
0.790123 0.868875 0.938275 0.969186
0.82878 0.933138 0.921005 0.964343
1.00056 1 1.00187 0.998694
1.00039 1 1.00152 0.998875
1.004 1 1.0049 0.999107
0.999121 1 1 0.999121
0.998807 1 1 0.998807
1.00062 1 1.00199 0.998634
1.00049 1 1.00193 0.998566
1.00024 1 1.00162 0.998624
0.998783 1 1 0.998783
1.00113 1 1.00256 0.998577
0.99869 1 1.00011 0.998577
1.00483 1 1.00612 0.998721
1.01992 0.999631 1.0212 0.999115
1.00131 1 1.00274 0.998577
0.99854 1 1 0.99854
0.998815 1 1 0.998815
0.998756 1 1 0.998756
0.998692 1 1.00005 0.998638
0.999172 1 1.00041 0.99876
0.999053 1 1.00028 0.998771
1.00027 1 1.00157 0.998696
0.999088 1 1.00044 0.998647
1.00017 1 1.0014 0.998766
0.998772 1 1.00024 0.998532
0.99895 1 1.00093 0.998023
1.00029 1 1.00183 0.998465
1.00028 1 1.00171 0.998579
1.00014 1 1.00132 0.998822
0.99958 1 1.00068 0.9989
0.999232 1 1 0.999232
0.999164 1 1.00023 0.998934
0.999244 1 1 0.999244
0.999728 1 1 0.999728
0.999168 1 1 0.999168
0.999732 1 1 0.999732
1 1 1 1
0.999738 1 1 0.999738
1 1 1 1
1 1 1 1
1 1 1 1
1 1 1 1
1 1 1 1
0.999504 1 1 0.999504
0.999926 1 1 0.999926
0.999489 1 1 0.999489
1 1 1 1
0.999941 1 1 0.999941
0.999935 1 1 0.999935
1 1 1 1
1 1 1 1
1 1 1 1
1 1 1 1
1 1 1 1
0.81668 0.886206 0.950697 0.969338
0.773519 0.8558 0.939366 0.962197
0.940768 0.980736 0.967893 0.991067
0.999555 1.01871 0.983494 0.997662
1.03946 1.05215 0.990162 0.997753
0.936652 0.964024 0.978464 0.992992
1.01201 1.0253 0.989512 0.997504
0.946979 0.989379 0.976289 0.98039
0.792842 0.87005 0.940611 0.968797
0.703751 0.823613 0.893267 0.956566
0.967413 0.996361 0.976048 0.994774
0.936797 0.973285 0.982127 0.980026
0.773201 0.866331 0.920569 0.969511
0.779895 0.890494 0.912218 0.960078
0.999147 1 1.00038 0.998762
0.999152 1 1 0.999152
0.99952 1 1 0.99952
0.999102 1 1 0.999102
0.998924 1 1 0.998924
0.999277 1 1.00052 0.998761
0.998902 1 1 0.998902
0.998864 1 1 0.998864
0.999056 1 1 0.999056
0.999112 1 1 0.999112
1.00315 1.03795 0.968515 0.997889
0.99748 1.02525 0.975101 0.997756
0.997639 1.00765 0.992471 0.997574
0.994255 1.001 0.995423 0.997833
1.03473 1.00038 1.03659 0.997822
1.01804 1 1.01992 0.998154
0.998701 1 1 0.998701
0.99875 1 1 0.998748
0.994065 1.02702 0.969935 0.997913
1.00112 1 1.00274 0.998391
1.00491 1 1.00656 0.998366
0.984655 1.00681 0.980192 0.997755
0.98309 1.00047 0.984638 0.997957
0.998488 1.0011 0.999342 0.998046
1.03447 1 1.0365 0.998033
0.991414 1.00428 0.988961 0.998208
0.979004 1 0.980365 0.998611
1.01471 1.00054 1.01595 0.998238
1.00437 1 1.00601 0.998363
1.00382 1 1.00561 0.998226
1.02121 1 1.0231 0.998158
0.82361 0.880377 0.965718 0.968729
0.826859 0.897812 0.948046 0.971442
0.921687 0.974086 0.966209 0.979298
0.999847 1 1.00145 0.998397
1.00575 1.00132 1.00645 0.997988
0.992584 1.00862 0.985998 0.998076
1.00902 1.00114 1.0101 0.997788
0.813017 0.890272 0.940046 0.971467
0.936471 0.976013 0.979639 0.979429
0.913572 0.953104 0.971108 0.987039
0.962718 0.975316 0.988583 0.998482
0.780029 0.864461 0.932778 0.967357
0.768033 0.852319 0.937994 0.960678
0.77967 0.893662 0.907163 0.961728
1.00211 1 1.00336 0.998756
0.8074 0.871286 0.960007 0.96528
0.887298 0.941618 0.971521 0.969935
0.99183 0.998986 0.994037 0.998793
1.0136 1.00127 1.01369 0.998636
0.973384 0.969224 1.0058 0.998501
0.910625 0.943209 0.97704 0.988142
0.916381 0.949906 0.985606 0.978796
0.809397 0.889072 0.940175 0.968314
0.815963 0.921333 0.917406 0.965366
1.00587 0.999622 1.00681 0.99944
0.89346 0.943803 0.97128 0.974651
0.867887 0.932277 0.955603 0.974183
0.995038 0.98117 1.01442 0.999715
0.933405 0.940403 0.999022 0.99353
0.921831 0.942391 1.00036 0.977826
0.846559 0.909338 0.962253 0.967482
0.843185 0.951578 0.918737 0.964467
1.00014 1 1.0013 0.998843
1.00362 1 1.00452 0.999108
1.01979 0.999906 1.02054 0.999354
0.998782 1 1 0.998782
0.998638 1 1.00006 0.998579
0.999714 1 1.00114 0.998572
1.00562 1 1.00686 0.998766
0.998539 1 1 0.998539
1.00171 1 1.00315 0.99857
1.02363 0.999943 1.02453 0.999183
1.03561 0.997104 1.0392 0.999446
1.02446 1 1.02541 0.999068
0.99854 1 1 0.99854
0.998706 1 1.00007 0.998633
0.999011 1 1.00026 0.998753
0.998813 1 1 0.998813
0.998846 1 1.00018 0.998662
0.999963 1 1.00127 0.998696
1.0005 1 1.00172 0.998778
0.999843 1 1.00118 0.998665
1.00447 1 1.00548 0.999003
0.99861 1 1 0.99861
0.999039 1.00016 1.00032 0.99856
0.998895 1 1.00069 0.998201
0.99896 1.00002 1.00153 0.997423
1.00105 1 1.00268 0.998375
0.99895 1 1.00079 0.998159
1.00013 1 1.00164 0.998493
1.00045 1 1.00178 0.99868
1.00013 1 1.00155 0.998577
0.99989 1 1.00107 0.998821
0.999169 1 1 0.999169
0.999598 1 1.0007 0.998897
0.99923 1 1 0.99923
0.99972 1 1 0.99972
0.999245 1 1 0.999245
0.999728 1 1 0.999728
0.999999 1 1 0.999999
0.999734 1 1 0.999734
0.999999 1 1 0.999999
1 1 1 1
1 1 1 1
1 1 1 1
1 1 1 1
0.99932 1 1 0.99932
0.999899 1 1 0.999899
0.999441 1 1 0.999441
1 1 1 1
0.999929 1 1 0.999929
0.999489 1 1 0.999489
1 1 1 1
1 1 1 1
0.999942 1 1 0.999942
1 1 1 1
1 1 1 1
1 1 1 1
0.805012 0.86944 0.958481 0.966004
0.821662 0.893625 0.947888 0.970019
0.884586 0.941992 0.968442 0.96966
0.767003 0.850713 0.938116 0.961076
0.936179 0.971324 0.972774 0.990793
1.00977 1.0247 0.98779 0.997611
0.95397 0.988676 0.983064 0.981518
0.799123 0.873816 0.94288 0.969923
0.703945 0.831266 0.888377 0.953237
0.965883 0.992577 0.978988 0.993991
0.933186 0.973759 0.980859 0.977035
0.785695 0.874648 0.927918 0.96808
0.782163 0.895213 0.911484 0.958566
0.94694 0.980355 0.973409 0.992302
0.924173 0.949338 0.996946 0.976474
0.810078 0.894264 0.936664 0.967113
0.822901 0.932488 0.917287 0.962054
1.00004 1 1.00149 0.998549
0.998831 1 1.00003 0.998802
0.999179 1 1 0.999179
0.998967 1 1 0.998967
0.998673 1 1.00018 0.998498
0.998882 1 1.00009 0.998794
0.998891 1 1 0.998891
0.99883 1 1 0.99883
0.998897 1 1 0.998897
0.999022 1 1 0.999022
0.99548 1.02826 0.970112 0.997951
0.98644 1.00612 0.982717 0.99768
0.981731 1.00034 0.983312 0.998055
1.00153 1.00211 1.00147 0.997958
1.02858 1 1.03064 0.997999
1.00409 1 1.00577 0.99833
1.00145 1 1.00309 0.998367
1.00362 1 1.00529 0.998339
0.988002 1.00479 0.985055 0.998214
1.00291 1 1.00469 0.998226
1.0212 1 1.02309 0.998149
0.978323 1.0004 0.979347 0.998552
1.01339 1.00137 1.01383 0.998203
0.961003 0.987721 0.974236 0.998679
0.997079 0.996683 1.00116 0.999235
1.03384 0.999931 1.03551 0.998452
1.00165 1 1.00342 0.998239
1.0103 1 1.01215 0.998179
0.900186 0.945531 0.974359 0.977096
0.827354 0.880391 0.970326 0.968496
0.816232 0.892042 0.942863 0.970465
1.00266 1 1.00391 0.998758
1.01332 0.999947 1.01479 0.998604
0.991181 0.998417 0.993866 0.998879
0.813895 0.87563 0.96208 0.966133
0.924422 0.949013 0.997396 0.97663
0.911243 0.941426 0.978173 0.989537
0.963234 0.964861 0.999633 0.99868
0.809216 0.888401 0.939657 0.969362
0.893451 0.946099 0.973758 0.969802
0.819489 0.924289 0.918319 0.965476
1.00443 0.999195 1.00584 0.999407
0.890027 0.942088 0.968154 0.975815
0.869018 0.933335 0.955749 0.974199
0.997709 0.984838 1.01351 0.999561
0.942824 0.948011 1.00133 0.993206
0.903377 0.936683 0.98848 0.975684
0.845471 0.952407 0.919602 0.965331
0.855415 0.914947 0.965818 0.968023
1.00521 0.988074 1.01764 0.999711
0.871999 0.927733 0.957258 0.981893
0.883833 0.949212 0.954721 0.975283
0.823762 0.93241 0.918189 0.962195
0.977417 0.965011 1.01459 0.998294
0.946098 0.956322 1.01073 0.978807
0.882417 0.931821 0.977448 0.96883
1.00362 1 1.00452 0.999108
1.02003 0.999965 1.0208 0.999274
1.02095 0.991225 1.03044 0.999566
0.998538 1 1 0.998538
1.00198 1 1.00342 0.998562
1.02827 1 1.02904 0.999251
0.998549 1 1 0.998549
1.02352 1 1.02447 0.999079
1.03736 0.997125 1.04096 0.999421
1.0248 0.995551 1.02991 0.999489
1.01728 1 1.01824 0.999061
0.998766 1 1.00009 0.998678
0.99992 1 1.00122 0.998697
1.00091 1 1.00212 0.99879
1.00357 1 1.0046 0.998979
0.99949 1 1.00082 0.998669
1.00208 1 1.00317 0.998916
0.99882 1 1 0.99882
1.00103 1 1.00313 0.997911
0.999284 1.00032 1.00037 0.99859
0.998919 1.00021 1.00057 0.99814
0.998231 1 1.00101 0.997221
1.00423 1.00569 1.00129 0.997264
1.00085 1.00001 1.00275 0.998096
0.999014 1.00018 1.00138 0.997457
1.00307 1 1.00455 0.998522
1.00149 1 1.00315 0.998351
0.99894 1 1.00065 0.998296
1 1 1.00149 0.99852
1.00027 1 1.00156 0.998714
0.999075 1 1 0.999075
0.999807 1 1.00099 0.998819
0.999168 1 1 0.999168
0.999688 1 1 0.999688
0.999229 1 1 0.999229
0.999718 1 1 0.999718
0.999997 1 1 0.999997
0.999728 1 1 0.999728
0.999998 1 1 0.999998
1 1 1 1
0.999999 1 1 0.999999
1 1 1 1
1 1 1 1
0.999123 1 1 0.999123
0.99975 1 1 0.99975
0.999319 1 1 0.999319
1 1 1 1
0.999858 1 1 0.999858
0.999379 1 1 0.999379
1 1 1 1
1 1 1 1
0.999933 1 1 0.999933
1 1 1 1
1 1 1 1
1 1 1 1
0.887297 0.942822 0.964847 0.975396
0.798152 0.868217 0.95084 0.966829
0.819994 0.890048 0.95001 0.969771
0.998714 1 1 0.998714
0.872132 0.929587 0.961424 0.975836
0.88341 0.941652 0.96761 0.969552
0.766352 0.854833 0.931956 0.961947
0.971646 0.994735 0.983669 0.993005
0.933465 0.969936 0.982483 0.979558
0.792196 0.886605 0.924148 0.966854
0.776945 0.886056 0.91426 0.95909
0.946329 0.978868 0.976816 0.989704
0.913846 0.94587 0.987193 0.978677
0.821189 0.898954 0.944338 0.967338
0.819946 0.92694 0.919301 0.962222
0.916591 0.949945 0.977278 0.987322
0.917563 0.936975 1.00291 0.976439
0.866033 0.924788 0.967367 0.968057
0.843471 0.950486 0.920136 0.964435
0.999989 1 1.00166 0.998337
1.00077 1 1.00226 0.998513
0.998841 1 1 0.998841
0.998518 1 1 0.998518
0.998808 1 1.00026 0.99855
0.998827 1 1 0.998827
0.998837 1 1 0.998837
0.99893 1 1 0.99893
0.983 1.00531 0.979552 0.998218
0.976121 1.00022 0.977372 0.998497
1.00314 1 1.00484 0.998314
1.0127 1.00223 1.01231 0.998167
1.02299 1 1.0249 0.998139
1.00261 1 1.00439 0.998226
1.00196 1 1.00372 0.998246
0.96734 0.990217 0.978125 0.998744
1.01133 1 1.01313 0.998217
1.02635 1.00032 1.0276 0.998471
0.992157 0.99652 0.996337 0.999282
1.00117 1 1.00286 0.99831
0.959455 0.977911 0.982351 0.998755
1.00664 0.992644 1.01465 0.999454
1.04604 0.998804 1.0488 0.998561
1.00234 1 1.00398 0.998364
0.883908 0.93108 0.965117 0.983648
0.899165 0.944922 0.973804 0.977173
0.832503 0.880501 0.97648 0.968262
1.0025 0.998649 1.00448 0.999378
1.0019 0.988515 1.01414 0.999412
0.888005 0.941605 0.965316 0.976961
0.92914 0.94116 1.00898 0.978442
0.934553 0.945669 0.997849 0.990376
0.858015 0.91807 0.966516 0.966963
0.869837 0.934262 0.955691 0.974208
0.848889 0.954171 0.920791 0.966193
1.00773 0.992242 1.01595 0.999669
0.87332 0.928568 0.957864 0.981875
0.882143 0.947231 0.953244 0.976965
0.987003 0.971757 1.01607 0.999629
0.820097 0.92659 0.919741 0.962303
0.928025 0.942436 1.00747 0.977409
0.891464 0.942261 0.977042 0.96832
1.00719 0.986302 1.02141 0.999768
0.890507 0.944787 0.958437 0.983422
0.871046 0.928678 0.961039 0.975967
0.778432 0.889915 0.910958 0.960226
0.865858 0.925934 0.966369 0.967662
0.96222 0.960161 1.00563 0.996538
0.948446 0.950418 1.02389 0.974637
1.01742 1 1.01824 0.999196
1.02161 0.991684 1.03066 0.999534
1.00684 0.980347 1.02746 0.999582
0.998558 1 1 0.998558
1.02336 1 1.02429 0.999091
1.0378 0.998282 1.04021 0.999396
1.01274 1 1.01371 0.999046
1.0243 0.996617 1.02831 0.999488
1.01173 0.994269 1.01834 0.99924
1.00245 1 1.0035 0.998955
0.99918 1 1.00051 0.998673
1.0035 1 1.00461 0.998893
1.00694 1 1.00865 0.998299
0.999028 1 1 0.999028
1.00034 1 1.00229 0.99806
1.00164 1.00046 1.00413 0.997061
1.00358 1.00507 1.00188 0.996644
0.998929 1.00045 1.0004 0.998078
0.998656 1.00049 1.00109 0.997077
1.00561 1.00775 1.00053 0.997357
1.00273 1.00239 1.00261 0.997741
1.00418 1.0056 1.00125 0.997334
1.00517 1 1.00685 0.998338
1.00161 1.00043 1.0031 0.998083
0.998904 1.00014 1.00128 0.997491
0.999216 1 1.0003 0.99892
1.00284 1 1.00432 0.998526
1.002 1 1.00368 0.998326
1.00009 1 1.00134 0.998747
0.999073 1 1 0.999073
0.999625 1 1 0.999625
0.999168 1 1 0.999168
0.999685 1 1 0.999685
0.999996 1 1 0.999996
0.999716 1 1 0.999716
0.999997 1 1 0.999997
1 1 1 1
0.999998 1 1 0.999998
1 1 1 1
1 1 1 1
0.999043 1 1 0.999043
0.999641 1 1 0.999641
0.99916 1 1 0.99916
1 1 1 1
0.999739 1 1 0.999739
0.999317 1 1 0.999317
1 1 1 1
1 1 1 1
0.999817 1 1 0.999817
1 1 1 1
1 1 1 1
1 1 1 1
0.876261 0.929505 0.959771 0.982233
0.890131 0.942625 0.968149 0.975377
0.798165 0.86892 0.949947 0.966971
0.998739 1 1 0.998739
0.998675 1 1 0.998675
0.998581 1 1 0.998581
0.881914 0.949709 0.952278 0.975151
0.869331 0.929163 0.958752 0.97586
0.883758 0.941371 0.968386 0.969447
0.950723 0.981838 0.976561 0.991551
0.9096 0.944592 0.986233 0.976397
0.810138 0.882725 0.946905 0.969231
0.832667 0.935578 0.925687 0.961451
0.920948 0.952665 0.976796 0.989671
0.917281 0.937959 1.0009 0.977072
0.846789 0.903421 0.967169 0.969131
0.844491 0.951962 0.919032 0.965261
0.910334 0.941625 0.978623 0.987888
0.932122 0.945127 1.00856 0.977866
0.88262 0.929958 0.979422 0.969037
0.831296 0.934349 0.922694 0.964249
0.998467 1 1.00012 0.998345
1.00045 1 1.00213 0.998318
1.00064 1 1.00216 0.998477
0.998511 1 1 0.998511
0.998603 1 1 0.998603
0.998845 1 1 0.998845
0.973852 0.991897 0.982994 0.998793
0.987355 0.996612 0.991385 0.99932
1.00219 1 1.00395 0.998253
1.01915 1.00057 1.02011 0.99849
1.0126 1 1.01437 0.998255
1.00162 1 1.00334 0.998284
1.00163 1 1.00325 0.998387
0.967406 0.979314 0.988996 0.998832
1.04145 0.998952 1.04391 0.998691
1.0084 0.988616 1.02059 0.999434
1.0015 1 1.00298 0.998517
0.980936 0.967628 1.01499 0.998785
1.00757 0.983624 1.02488 0.99948
1.0323 0.99783 1.03577 0.998815
0.903573 0.948936 0.966354 0.985349
0.884155 0.931232 0.964776 0.984111
0.898539 0.944317 0.973677 0.977247
1.0118 0.996979 1.01524 0.999627
0.977829 0.970201 1.0091 0.998768
0.874968 0.929599 0.958625 0.981857
0.923608 0.932028 1.00989 0.981264
0.887115 0.939185 0.97583 0.967954
0.88167 0.945575 0.952761 0.978647
0.833895 0.935619 0.926872 0.961596
1.00304 0.983825 1.01975 0.999787
0.891717 0.945005 0.958949 0.984006
0.870275 0.929493 0.959322 0.975991
0.960177 0.956739 1.0104 0.993266
0.780923 0.894433 0.910625 0.958784
0.843613 0.904239 0.963147 0.968651
0.957572 0.954476 1.026 0.977823
1.00062 0.967198 1.03532 0.999264
0.877069 0.929708 0.960336 0.982345
0.888498 0.944873 0.96952 0.969899
0.706595 0.817208 0.900454 0.960233
0.807735 0.892241 0.936075 0.96711
0.930258 0.942705 1.00971 0.977307
0.939335 0.952286 0.995268 0.99109
1.02493 0.992456 1.03324 0.999501
1.01037 0.986042 1.0251 0.999586
1.01405 0.991389 1.02334 0.999528
1.00831 1 1.00928 0.999032
1.02388 0.997428 1.02705 0.999487
1.01422 0.993069 1.02199 0.999321
1.00958 1 1.01078 0.998816
1.00501 1 1.00615 0.99887
1.00673 1 1.00858 0.998163
1.0151 1.00052 1.01753 0.997096
0.999654 1 1.00145 0.998211
1.00304 1.00094 1.00509 0.997033
1.00459 1.00241 1.00596 0.996237
1.00377 1.00567 1.00191 0.996216
1.00331 1.00527 1.00108 0.996975
1.00335 1.00487 1.00189 0.996596
0.999006 1.00084 1.00124 0.996933
1.00159 1.0029 1.0011 0.997605
1.00554 1.00763 1.00048 0.997446
1.00259 1 1.00461 0.997993
1.00322 1.00269 1.00274 0.997793
1.00442 1.00586 1.00117 0.997405
1.00311 1 1.00446 0.998659
1.00426 1 1.00593 0.998338
1.00234 1.00091 1.00336 0.998069
0.999526 1 1 0.999526
0.999498 1 1.00058 0.998918
1.00246 1 1.00394 0.998529
0.999071 1 1 0.999071
0.999621 1 1 0.999621
0.999991 1 1 0.999991
0.999681 1 1 0.999681
0.999994 1 1 0.999994
1 1 1 1
0.999997 1 1 0.999997
1 1 1 1
1 1 1 1
0.99902 1 1 0.99902
0.999635 1 1 0.999635
0.999066 1 1 0.999066
1 1 1 1
0.999679 1 1 0.999679
0.999197 1 1 0.999197
1 1 1 1
1 1 1 1
0.999728 1 1 0.999728
1 1 1 1
1 1 1 1
1 1 1 1
0.890266 0.94459 0.958471 0.983326
0.877202 0.930135 0.960164 0.982219
0.890953 0.942148 0.969532 0.975379
0.998822 1 1.00021 0.998611
0.998625 1 1.00015 0.998473
0.998765 1 1 0.998765
0.998668 1 1 0.998668
0.998565 1 1 0.998565
0.998562 1 1 0.998562
0.998484 1 1 0.998484
0.866214 0.933137 0.953064 0.973998
0.882349 0.947371 0.95344 0.976848
0.866522 0.928254 0.956563 0.975886
0.845915 0.953609 0.9182 0.966094
0.911086 0.944187 0.977061 0.987596
0.917561 0.936014 1.00254 0.977801
0.854706 0.911385 0.967672 0.969141
0.902633 0.940679 0.972141 0.987053
0.926737 0.937691 1.01289 0.975742
0.89243 0.942876 0.976885 0.968893
0.816496 0.922029 0.917387 0.965288
0.917691 0.943847 0.982775 0.989328
0.93803 0.946768 1.01581 0.975349
0.850644 0.913056 0.962666 0.967776
0.794023 0.901426 0.916425 0.961183
1.00484 1 1.00634 0.998513
0.998872 1 1.00052 0.998351
1.00116 1 1.00287 0.9983
0.998504 1 1 0.998504
0.973028 0.9788 0.995171 0.998926
1.00919 0.985296 1.02486 0.999411
1.00082 1 1.00256 0.998257
1.00136 1 1.00296 0.99841
1.03439 0.998407 1.03726 0.998821
1.00096 1 1.00245 0.998511
1.03292 0.997073 1.03719 0.998802
0.978433 0.966104 1.01498 0.997815
1.0079 0.977915 1.03107 0.999607
1.01301 0.995523 1.01866 0.998926
0.967406 0.949125 1.02173 0.997588
1.02288 0.982191 1.04216 0.999296
0.884519 0.930966 0.965847 0.983705
0.900795 0.947956 0.963659 0.986085
0.883767 0.931069 0.964068 0.984573
0.997238 0.979713 1.01809 0.999805
0.966223 0.961378 1.00828 0.996786
0.891336 0.944388 0.958589 0.984596
0.954599 0.957085 1.02283 0.975135
0.847273 0.907921 0.963414 0.968639
0.868136 0.930106 0.95631 0.976016
0.776585 0.885196 0.914522 0.959302
1.00366 0.970214 1.03509 0.999399
0.876825 0.930657 0.959101 0.982334
0.885079 0.942755 0.968067 0.96979
0.941627 0.951804 0.995824 0.993456
0.703212 0.822268 0.893638 0.956999
0.815584 0.89456 0.942673 0.96716
0.928294 0.93798 1.01391 0.976095
0.999143 0.974773 1.02687 0.998178
0.88794 0.943428 0.964691 0.975633
0.773999 0.855544 0.939826 0.962611
0.774635 0.867191 0.921008 0.969882
0.912039 0.930622 1.00231 0.977777
0.913092 0.939211 0.983823 0.988176
1.01214 0.989611 1.02318 0.99959
1.01411 0.989024 1.02586 0.999521
0.994733 0.989075 1.00638 0.999346
1.01657 0.991834 1.02555 0.999402
1.00827 0.995578 1.01387 0.998897
1.00243 1.0008 1.00374 0.997892
1.00687 1 1.00886 0.998027
1.01411 1.00047 1.01665 0.997029
1.00884 1.00037 1.01222 0.996287
1.00467 1.00164 1.00604 0.997005
1.00501 1.00223 1.00664 0.996151
1.00248 1.00214 1.00445 0.995913
1.01115 1.01489 1 0.996306
1.00799 1.0108 1.00077 0.996452
1.00431 1.00598 1.00218 0.996161
1.00115 1.00379 1.00013 0.997249
1.00255 1.00478 1.00074 0.997038
1.00314 1.00471 1.0019 0.996549
0.999325 1.00058 1.00112 0.99763
1.00182 1.00315 1.00108 0.99759
1.00523 1.00728 1.00043 0.997534
1.00433 1 1.00603 0.998314
1.00248 1 1.00445 0.998047
1.00359 1.00287 1.00288 0.997846
0.999589 1 1.00027 0.999324
1.00261 1 1.00395 0.998661
1.00353 1 1.0052 0.998339
0.999981 1 1 0.999981
0.999519 1 1 0.999519
0.999811 1 1.0009 0.998916
0.999616 1 1 0.999616
0.999988 1 1 0.999988
1 1 1 1
0.999993 1 1 0.999993
1 1 1 1
1 1 1 1
0.999362 1 1.00077 0.998596
0.998926 1 1 0.998926
0.99955 1 1 0.99955
0.999018 1 1 0.999018
0.999996 1 1 0.999996
0.999638 1 1 0.999638
0.99909 1 1 0.99909
1 1 1 1
1 1 1 1
0.999716 1 1 0.999716
1 1 1 1
1 1 1 1
1 1 1 1
0.870802 0.927649 0.956119 0.981801
0.890072 0.944165 0.958113 0.983921
0.878172 0.931346 0.959992 0.982203
0.998748 1 1.00012 0.998623
0.999027 1 1.00056 0.998466
0.99884 1 1.00037 0.998468
0.998545 1 1.00007 0.998474
1.00176 1 1.00336 0.998403
0.998661 1 1 0.998661
0.998549 1 1 0.998549
0.998563 1 1 0.998563
0.998487 1 1 0.998487
1.00307 1 1.00454 0.998533
0.878937 0.935107 0.969178 0.969824
0.868646 0.934111 0.954707 0.974034
0.883716 0.946264 0.954381 0.97854
0.817772 0.924323 0.916421 0.965413
0.888072 0.937957 0.977901 0.968212
0.895089 0.93629 0.969694 0.985873
0.934007 0.945121 1.01091 0.977579
0.916712 0.946856 0.981151 0.986763
0.94909 0.955776 1.01581 0.977554
0.858038 0.915793 0.967214 0.968695
0.792681 0.905314 0.911823 0.96026
0.931243 0.944826 0.996901 0.988688
0.935235 0.944368 1.0125 0.978099
0.791253 0.870718 0.937949 0.968855
0.73423 0.852835 0.897086 0.959694
1.00594 1 1.00692 0.999022
1.00592 1 1.00742 0.998512
0.999893 1 1.00154 0.998357
0.979855 0.968917 1.01452 0.996816
1.01129 0.974107 1.03844 0.999739
1.00085 1 1.00235 0.998503
1.03421 0.996331 1.03928 0.998788
1.01414 0.997602 1.01766 0.998934
1.02679 0.986935 1.04113 0.999285
0.971395 0.955087 1.01954 0.997584
1.01869 0.995882 1.02358 0.999345
0.980341 0.967167 1.01601 0.997652
0.899119 0.945388 0.973575 0.976872
0.885099 0.931324 0.965662 0.98416
0.898258 0.947006 0.961191 0.986821
1.00803 0.975308 1.03404 0.999519
0.941441 0.953357 0.99773 0.989748
0.878666 0.931659 0.960096 0.982318
0.932475 0.94684 1.00991 0.975163
0.804103 0.877549 0.945567 0.969054
0.883095 0.940652 0.968156 0.969691
0.704048 0.830581 0.888797 0.953713
0.998656 0.97367 1.02736 0.998342
0.890121 0.942807 0.967718 0.975613
0.767508 0.851023 0.937974 0.961503
0.917185 0.944096 0.981853 0.989451
0.78646 0.874782 0.928358 0.968414
0.900863 0.930723 0.991642 0.976075
0.966678 0.966948 1.0027 0.997033
0.805285 0.870283 0.957503 0.966382
0.786608 0.865813 0.936535 0.970085
0.922198 0.949843 0.994211 0.976549
0.89647 0.935304 0.968059 0.990104
1.01361 0.987189 1.02727 0.999515
0.998722 0.988341 1.01119 0.999319
0.999117 0.998275 1.0023 0.998544
1.00689 0.990809 1.01728 0.998975
1.00207 1.00093 1.00316 0.99798
0.998896 1.00199 0.999735 0.997181
1.01269 1.00038 1.01539 0.99696
1.00716 1.00053 1.01037 0.996299
0.999369 1.00157 1.00137 0.996436
1.00497 1.00195 1.00697 0.996065
1.00266 1.00303 1.0037 0.995942
1.01096 1.01452 1 0.996495
1.02741 1.03074 1 0.99677
1.01854 1.02224 1.00002 0.996368
1.01083 1.01456 1 0.99633
1.0075 1.01081 1 0.996728
1.00627 1.00882 1.00107 0.996403
1.00494 1.00641 1.00244 0.996106
1.00065 1.00326 1 0.997406
1.00011 1.00277 1.00002 0.997322
1.00174 1.00433 1.00032 0.997101
1.00005 1 1.00208 0.997978
0.999955 1.001 1.0013 0.997664
1.00213 1.00347 1.0011 0.997575
1.00243 1 1.00347 0.998967
1.00393 1 1.00563 0.998316
1.00236 1 1.00427 0.998101
0.999958 1 1 0.999958
0.999988 1 1.00067 0.999316
1.00217 1 1.00351 0.998664
1 1 1 1
0.999976 1 1 0.999976
0.999512 1 1 0.999512
0.999986 1 1 0.999986
1 1 1 1
1 1 1 1
0.999935 1 1.00142 0.998516
0.998949 1 1.00013 0.998822
0.999355 1 1.00077 0.998581
0.99947 1 1 0.99947
0.998925 1 1 0.998925
0.999983 1 1 0.999983
0.999553 1 1 0.999553
0.999015 1 1 0.999015
1 1 1 1
0.999998 1 1 0.999998
0.999641 1 1 0.999641
1 1 1 1
1 1 1 1
1 1 1 1
0.889726 0.94417 0.964324 0.977199
0.872721 0.928816 0.957036 0.981787
0.889928 0.943086 0.958472 0.984519
0.998578 1 1.00009 0.998484
0.998849 1 1.00021 0.998635
0.999103 1 1.00065 0.998458
0.998655 1 1.00017 0.998481
0.998685 1 1.0002 0.998487
1.00065 1 1.00221 0.998443
1.0059 1 1.00767 0.998238
1.00664 1 1.00825 0.998404
0.998565 1 1 0.998565
0.998491 1 1 0.998491
1.00287 1 1.00435 0.998522
1.0105 1 1.01179 0.998729
0.775755 0.857236 0.941123 0.961564
0.887146 0.942453 0.970764 0.969665
0.870042 0.934132 0.956193 0.974061
0.782543 0.896814 0.907665 0.961347
0.863573 0.922995 0.966556 0.967995
0.939555 0.947544 1.01657 0.975409
0.919717 0.943013 0.987654 0.987487
0.929266 0.942266 0.995557 0.990605
0.719872 0.842923 0.892792 0.95657
0.929675 0.940118 1.01334 0.975879
0.807833 0.888514 0.93937 0.967878
0.926467 0.946412 0.987521 0.991296
0.921099 0.938753 1.00226 0.978978
0.777492 0.870535 0.921989 0.968688
1.00056 1 1.00101 0.999552
1.00583 1 1.00681 0.999028
1.00643 1 1.00793 0.998511
0.967871 0.951981 1.01912 0.997615
1.03058 0.991625 1.04004 0.999273
1.01492 0.998951 1.01706 0.998942
1.01878 0.997237 1.02227 0.999344
0.978246 0.966842 1.01413 0.9977
0.995969 0.98877 1.0089 0.998395
0.825971 0.88121 0.970016 0.966288
0.896736 0.944555 0.970306 0.978428
0.884085 0.931195 0.964247 0.984613
0.998987 0.972075 1.02926 0.998467
0.908774 0.940311 0.975951 0.990276
0.88966 0.942127 0.967917 0.975611
0.90649 0.92578 1.0017 0.9775
0.795438 0.888752 0.925307 0.967253
0.766479 0.854823 0.931716 0.962366
0.968024 0.965863 1.00515 0.997102
0.79824 0.868696 0.950067 0.96719
0.793807 0.87041 0.940928 0.969247
0.900058 0.936677 0.973191 0.987377
0.913994 0.948974 0.984103 0.978698
0.957863 0.975373 0.983499 0.998525
0.813978 0.884357 0.949228 0.969648
0.938012 0.975641 0.981206 0.979847
0.912979 0.950703 0.972813 0.987158
1.00277 0.987542 1.01613 0.999296
0.990708 0.997328 0.994707 0.998648
0.993639 1.00234 0.993472 0.997838
1.00224 1.0011 1.00307 0.998068
1.00171 1.00242 1.00213 0.997166
1.00022 1.00356 0.999428 0.99725
1.00587 1.00075 1.00884 0.99631
0.999284 1.00117 1.00167 0.996448
1.01694 1.01995 0.999865 0.997185
1.00309 1.00395 1.00319 0.99597
1.01015 1.01369 1 0.996506
1.02749 1.03029 1 0.997286
1.03144 1.03423 1 0.997305
1.03006 1.03347 1 0.996692
1.02694 1.03023 1 0.996808
1.0188 1.0223 1 0.99658
1.01738 1.02104 1 0.996417
1.01023 1.01393 1 0.996353
1.00832 1.01126 1 0.997099
1.00746 1.0106 1.00014 0.996756
1.0046 1.00679 1.00148 0.996354
0.998568 1.00087 1 0.997702
1.00155 1.00416 1 0.997399
0.998998 1.00161 1 0.997394
1.00202 1 1.00344 0.998582
1.00035 1.00026 1.00212 0.997978
1.00052 1.00138 1.00145 0.997697
0.999885 1 1 0.999885
1.0021 1 1.00314 0.998964
1.00324 1 1.00493 0.998319
1 1 1 1
0.999946 1 1 0.999946
1.00032 1 1.00102 0.999308
1 1 1 1
0.999971 1 1 0.999971
1 1 1 1
0.999071 1 1.00062 0.998453
0.999884 1 1.00138 0.99851
0.999965 1 1.00126 0.998701
0.999395 1 1.00001 0.999389
0.998975 1 1.00015 0.998821
0.999083 1 1.00052 0.998566
0.999965 1 1 0.999965
0.999474 1 1 0.999474
0.998924 1 1 0.998924
1 1 1 1
0.999988 1 1 0.999988
0.999556 1 1 0.999556
1 1 1 1
0.999999 1 1 0.999999
1 1 1 1
0.805303 0.867636 0.962904 0.963916
0.888754 0.943092 0.964369 0.977201
0.87525 0.930538 0.958047 0.981774
0.999661 1 1.0012 0.998466
1.00087 1.0004 1.00217 0.998307
1.00422 1 1.00588 0.99835
0.999057 1 1.00057 0.998488
0.998612 1 1.00011 0.998506
1.00064 1 1.00216 0.998484
1.00602 1 1.00765 0.998387
1.00544 1 1.0072 0.998258
1.00723 1 1.0091 0.99815
0.994677 1.00007 0.99561 0.998994
1.00204 1 1.00353 0.998511
1.00808 1 1.0094 0.998697
0.79198 0.866742 0.944095 0.967852
0.765639 0.847803 0.940788 0.959926
0.893348 0.947316 0.972657 0.969541
0.706942 0.83167 0.891592 0.953382
0.808169 0.886954 0.940392 0.968929
0.922984 0.938713 1.00529 0.978074
0.936341 0.947872 0.999568 0.988262
0.92066 0.942962 0.986888 0.989321
0.779608 0.863594 0.932882 0.967698
0.907608 0.931259 0.997142 0.977397
0.913614 0.947296 0.973953 0.990238
0.908438 0.949315 0.979482 0.976985
1.00609 1 1.00707 0.999021
1.00001 1 1.00052 0.99949
1.00559 1 1.00656 0.999033
0.977621 0.967962 1.01226 0.997744
1.01873 0.998553 1.02087 0.999344
0.996395 0.989553 1.00861 0.998314
0.986938 0.99396 0.995452 0.997471
0.818272 0.900752 0.935055 0.971528
0.828243 0.880697 0.972396 0.967138
0.896671 0.944895 0.968364 0.979965
0.969456 0.970816 1.00137 0.997229
0.901267 0.93733 0.973213 0.987992
0.798468 0.869686 0.949133 0.967315
0.907794 0.944471 0.984199 0.976599
0.80148 0.87657 0.942266 0.970359
0.961785 0.97668 0.986977 0.997743
0.82119 0.893429 0.947251 0.970326
0.936318 0.976833 0.98096 0.977129
0.919709 0.953203 0.975183 0.989416
0.967285 0.989024 0.979586 0.998402
0.941496 0.982137 0.979047 0.979135
0.945825 0.980725 0.973038 0.991137
0.981474 0.995732 0.986921 0.998742
0.990839 1.00284 0.990197 0.997813
0.982227 1.00728 0.977369 0.997702
1.00349 1.00278 1.00356 0.997152
0.999476 1.00359 0.998648 0.997246
1.01973 1.02753 0.994582 0.997813
0.999026 1.00071 1.00186 0.996461
1.01647 1.01994 0.999425 0.997169
1.02922 1.03408 0.997489 0.99781
1.00926 1.01279 1 0.996516
1.02694 1.02987 0.999871 0.997283
1.03241 1.03516 0.999593 0.997753
1.02913 1.03157 1 0.997629
1.03236 1.03509 1 0.997366
1.03168 1.03461 1 0.997167
1.03039 1.03374 1 0.99676
1.0304 1.03381 1 0.996703
1.02661 1.02986 1 0.996845
1.01805 1.02128 1 0.996843
1.02023 1.0237 1 0.996613
1.0163 1.01991 1 0.996467
1.0025 1.00507 1 0.997442
1.00789 1.01082 1 0.997093
1.0076 1.01067 1.00017 0.996784
0.998471 1 1.00016 0.998312
0.99959 1.00189 1 0.9977
1.00248 1.0051 1 0.997393
1.00021 1 1.00049 0.999717
1.00136 1 1.00278 0.998583
1.00089 1.00055 1.00237 0.997978
1 1 1 1
1.00024 1 1.00038 0.999862
1.00189 1 1.00294 0.99896
1 1 1 1
0.999934 1 1 0.999934
1 1 1 1
0.998379 1 1 0.998379
0.999502 1 1.00104 0.998459
1.00047 1 1.00189 0.998582
0.999791 1 1.00129 0.998503
1.00022 1 1.00153 0.9987
0.999819 1 1.00054 0.999277
0.999944 1 1 0.999944
0.999418 1 1.00003 0.999391
0.999243 1 1.00042 0.99882
1 1 1 1
0.99997 1 1 0.99997
0.999477 1 1 0.999477
1 1 1 1
0.999992 1 1 0.999992
1 1 1 1
0.823002 0.889738 0.953262 0.970346
0.808081 0.871368 0.961993 0.964009
0.887593 0.942136 0.96409 0.977197
1.00071 1 1.00227 0.998447
1.00537 1 1.00714 0.998246
0.9998 1.00022 1.00121 0.998371
0.998818 1.00081 1.00027 0.997738
1.00481 1.0001 1.00649 0.998235
1.00574 1 1.00738 0.998372
1.00422 1 1.00595 0.998277
1.00854 1.00002 1.01034 0.998202
0.997965 1 1 0.997965
0.987844 1.00065 0.988484 0.998705
0.990518 1.00035 0.992345 0.997809
0.995993 1.00005 0.996896 0.999042
1.00492 1 1.00626 0.998666
0.927725 0.970548 0.977123 0.978257
0.793218 0.864021 0.947877 0.968537
0.76629 0.850636 0.938196 0.960187
0.777469 0.865175 0.929926 0.966341
0.918483 0.939808 1.00083 0.976498
0.922549 0.938413 0.991613 0.991409
0.915546 0.946465 0.975454 0.991675
0.917922 0.950907 0.985469 0.979545
0.942057 0.976372 0.973858 0.990754
0.997532 1.00132 0.997996 0.998218
1.00549 1 1.0065 0.998999
0.999884 1 1.00045 0.999429
0.997597 0.991362 1.00804 0.998261
0.991918 0.997644 0.996727 0.997525
0.917782 0.969806 0.96641 0.97925
0.828058 0.899345 0.947691 0.971556
0.830562 0.879409 0.975668 0.968009
0.968056 0.980164 0.990696 0.996922
0.918893 0.952433 0.977188 0.987307
0.821423 0.890512 0.950891 0.970056
0.934453 0.97098 0.982595 0.979428
0.97385 0.988981 0.986218 0.998462
0.948235 0.989357 0.977774 0.980223
0.942874 0.978352 0.974526 0.988928
0.989716 1.00429 0.987613 0.997845
0.964262 0.994185 0.975895 0.993859
0.990811 1.00465 0.988401 0.997802
0.983087 1.0068 0.978749 0.997652
1.00296 1.03123 0.974593 0.997936
0.998948 1.0036 0.998123 0.997241
1.02003 1.02754 0.994881 0.997793
1.0292 1.04215 0.98948 0.998067
1.01602 1.01994 0.998995 0.997153
1.02872 1.03422 0.996884 0.997789
1.0264 1.03406 0.994589 0.997986
1.02639 1.02954 0.999665 0.997279
1.03254 1.03561 0.9993 0.997733
1.03068 1.03384 0.999122 0.997815
1.02978 1.03217 1 0.99768
1.02867 1.0313 1 0.997444
1.03324 1.0359 1 0.997428
1.03161 1.03455 1 0.997158
1.03297 1.03608 1 0.997001
1.02661 1.02986 1 0.996838
1.03023 1.03359 1 0.99675
1.03069 1.03409 1 0.996713
1.01082 1.01364 1 0.997227
1.0172 1.0204 1 0.996859
1.02163 1.02507 1 0.996646
0.998677 1.00057 1 0.998108
1.00382 1.0064 1 0.997438
1.0073 1.01024 1 0.997087
0.999991 1 1.00049 0.999505
0.998663 1.00007 1.00028 0.998312
1.00062 1.00293 1 0.997697
1 1 1 1
1.0004 1 1.00071 0.999693
1.0007 1 1.00212 0.998584
1 1 1 1
1.00064 1 1.0008 0.999839
1 1 1 1
1.00106 1.00327 1 0.997799
0.998372 1 1 0.998372
0.999706 1 1.00129 0.998417
1 1 1.00154 0.998465
1.00046 1 1.0019 0.998558
1.00008 1 1.00098 0.999099
1.00017 1 1.00148 0.998699
0.999574 1 1.0003 0.999279
0.999918 1 1 0.999918
1 1 1 1
0.99995 1 1 0.99995
0.999394 1 1 0.999394
1 1 1 1
0.999976 1 1 0.999976
1 1 1 1
0.941606 0.983308 0.976197 0.98094
0.818878 0.894331 0.943033 0.970944
0.816524 0.876567 0.96699 0.963301
1.00647 1 1.00834 0.998143
0.998553 1 1.00012 0.998436
1.00369 1.00002 1.00546 0.998221
0.99981 1.00171 1.00032 0.997786
1.00694 1.00951 1.00016 0.997293
0.997973 1.00003 1 0.99794
1.01006 1 1.01183 0.998253
0.9978 1 1 0.9978
0.991444 1.00048 0.992275 0.99868
0.997042 1.00063 0.998533 0.997877
0.988211 1.00303 0.987231 0.99797
0.995922 1.00129 0.997209 0.997424
0.990741 1.00082 0.991969 0.997945
0.998815 1 0.999723 0.999092
0.943275 0.980022 0.971373 0.990869
0.930876 0.973018 0.97746 0.97875
0.791448 0.865418 0.942671 0.970144
0.927419 0.956444 0.992904 0.976583
0.917756 0.945377 0.978023 0.992598
0.946619 0.975926 0.976251 0.993566
0.990729 1.00377 0.989184 0.997803
0.995641 1.00067 0.996743 0.998226
1.0046 1 1.00563 0.998978
0.993377 1.00027 0.995538 0.997559
0.9512 0.975988 0.983419 0.991034
0.932501 0.975684 0.973445 0.981813
0.816823 0.893279 0.942172 0.970534
0.975862 0.987073 0.990115 0.998513
0.945286 0.981133 0.972718 0.990486
0.954944 0.989076 0.983902 0.981288
0.983178 1.00293 0.9824 0.997872
0.962626 0.990898 0.978168 0.993151
0.985347 1.02425 0.964211 0.997731
1.00329 1.01624 0.990226 0.996999
0.983302 1.00631 0.979492 0.997596
1.0013 1.0301 0.974054 0.99793
1.00743 1.04548 0.96556 0.997975
1.02073 1.02806 0.995086 0.997772
1.02902 1.04203 0.989441 0.998049
1.02221 1.0368 0.987967 0.997935
1.02836 1.03442 0.996361 0.997768
1.0258 1.0334 0.994668 0.997969
1.03064 1.03787 0.995233 0.997786
1.03273 1.03603 0.999104 0.997714
1.02914 1.03237 0.999067 0.997808
1.02999 1.03279 0.999748 0.997535
1.0304 1.03274 1 0.997731
1.02892 1.03151 1 0.997488
1.03197 1.03491 1 0.997157
1.03162 1.03457 1 0.99715
1.03292 1.03604 1 0.996991
1.02988 1.033 1 0.996975
1.01772 1.02069 1 0.997094
1.02658 1.02982 1 0.99685
1.03002 1.03339 1 0.996739
1.0008 1.00289 1 0.997922
1.01081 1.01362 1 0.997228
1.0165 1.01968 1 0.996875
0.999316 1 1 0.999316
0.999226 1.00112 1 0.998106
1.00504 1.00762 1 0.997435
1 1 1 1
0.99978 1 1.00029 0.999488
0.998798 1.00015 1.00034 0.998313
1 1 1 1
1.00052 1 1.00085 0.999669
1 1 1 1
1.00643 1.00907 1 0.997383
1.00106 1.00325 1 0.997817
1.00083 1.00222 1.00057 0.998045
0.998366 1 1 0.998366
0.999571 1 1.00119 0.998384
1.00028 1 1.00142 0.998857
1.00061 1 1.00208 0.998535
0.999899 1 1.0008 0.999101
0.999877 1 1 0.999877
0.999461 1 1.00018 0.999281
0.999926 1 1 0.999926
1 1 1 1
1 1 1 1
0.999957 1 1 0.999957
1 1 1 1
0.943453 0.980036 0.971011 0.991412
0.935567 0.982929 0.972412 0.97882
0.811599 0.887919 0.940983 0.971374
1.01759 1.02056 1.00007 0.997019
1.00269 1.00001 1.00448 0.998206
1.00117 1.0029 1.00044 0.997834
0.997961 1.00005 1 0.997909
1.00667 1.00899 1.00042 0.997278
1.00162 1.00384 1 0.997787
0.997708 1.00007 1 0.997635
0.993819 1.00034 0.994821 0.998655
0.996002 1.00085 0.997244 0.997902
0.983647 1.0021 0.983646 0.997902
1.0011 1.00556 0.99832 0.997241
1.00128 1.00668 0.997216 0.997411
0.99676 1.00195 0.997431 0.997378
0.99071 1.00134 0.991289 0.998082
0.990131 1.00613 0.985771 0.998307
0.939716 0.979535 0.96927 0.989764
0.934342 0.974843 0.97837 0.979644
0.939505 0.971291 0.97542 0.991649
0.993823 1.0057 0.98983 0.998342
0.995966 1.0002 0.997532 0.99823
0.990368 1.00668 0.986868 0.996884
0.939417 0.964348 0.981589 0.992419
0.920062 0.972866 0.965653 0.979361
0.977865 1.00127 0.97868 0.997897
0.968396 0.992574 0.983285 0.992226
0.987781 1.02526 0.965565 0.997803
1.00243 1.01551 0.989893 0.997198
0.997591 1.0361 0.964958 0.9978
1.03662 1.04427 0.994997 0.997672
0.999083 1.02832 0.973587 0.997924
1.01038 1.04688 0.9671 0.997966
1.0126 1.04549 0.970682 0.997794
1.02812 1.04131 0.989277 0.998032
1.0214 1.03627 0.987697 0.997932
1.0291 1.042 0.989923 0.997673
1.02499 1.03266 0.994608 0.997951
1.02981 1.03708 0.995177 0.997799
1.03317 1.03729 0.998536 0.99748
1.02765 1.03094 0.999001 0.997801
1.0305 1.03327 0.999782 0.997534
1.03394 1.03682 1 0.997221
1.02914 1.03169 1 0.997531
1.03211 1.03501 1 0.997192
1.03188 1.03499 1 0.996993
1.03284 1.03596 1 0.99698
1.02963 1.03278 1 0.996954
1.02106 1.02403 1 0.997098
1.00413 1.00634 1 0.997801
1.01713 1.02007 1 0.997116
1.02653 1.02976 1 0.996863
0.999173 1 1 0.999173
1.00181 1.00389 1 0.997922
1.01084 1.01365 1 0.99723
1 1 1 1
0.999303 1 1 0.999303
0.999782 1.00168 1 0.998105
1 1 1 1
0.999595 1 1.00012 0.999472
1 1 1 1
1.0134 1.01639 1 0.997059
1.00703 1.00966 1 0.997386
1.00492 1.00725 1 0.997685
1.00078 1.00295 1.00001 0.997835
0.999938 1.00134 1.00056 0.998044
0.999785 1.00002 1.00118 0.99858
0.999481 1 1.00113 0.998351
1.00073 1 1.00188 0.998857
1.00043 1 1.00063 0.999796
0.999648 1 1.00055 0.999102
0.999887 1 1 0.999887
1 1 1 1
0.999933 1 1 0.999933
1 1 1 1
1 1 1 1
0.987858 1.01057 0.979302 0.99819
0.937841 0.97701 0.970293 0.989299
0.931123 0.973093 0.975119 0.981284
1.01308 1.01577 1.00001 0.997344
1.02485 1.02795 1 0.996981
1.01542 1.01826 1.00013 0.997074
0.997877 1 1 0.997877
1.00615 1.00818 1.00073 0.997262
1.00272 1.00523 0.999757 0.997744
1.01473 1.01777 0.999785 0.99722
0.995476 1.00106 0.996486 0.997927
0.980019 1.0011 0.981064 0.997833
1.00219 1.00714 0.997766 0.997313
1.01721 1.02261 0.997696 0.997017
1.01008 1.0226 0.990048 0.997687
1.00298 1.00805 0.997588 0.997381
0.99805 1.00262 0.9981 0.997332
0.994213 1.00821 0.987608 0.998489
0.943364 0.980926 0.972863 0.988533
0.994139 1.00653 0.988783 0.998899
1.01921 1.03369 0.987682 0.998286
0.989977 1.00539 0.987639 0.996992
0.942878 0.973255 0.978152 0.990427
0.990933 1.02666 0.96726 0.997872
1.00156 1.01513 0.989199 0.997407
0.997357 1.03664 0.96413 0.9979
1.03708 1.04578 0.993989 0.997683
1.0321 1.05239 0.983003 0.997675
1.05587 1.06616 0.992541 0.997799
1.01389 1.04916 0.96836 0.997957
1.01655 1.04574 0.974229 0.997796
1.03236 1.05011 0.985489 0.997576
1.02099 1.03594 0.987608 0.997928
1.02903 1.04136 0.990472 0.997671
1.0346 1.04263 0.994845 0.997446
1.02901 1.03628 0.995162 0.997811
1.03361 1.03765 0.998622 0.997477
1.0369 1.03991 0.999892 0.997206
1.03095 1.03369 0.999817 0.997533
1.03394 1.03682 1 0.997222
1.03494 1.03807 1 0.996984
1.03228 1.03515 1 0.997227
1.03155 1.03465 1 0.997004
1.02325 1.02626 1 0.99706
1.02942 1.03259 1 0.996934
1.02093 1.02391 1 0.99709
1.00624 1.00852 1 0.997731
0.999104 1 1 0.999104
1.00476 1.00698 1 0.9978
1.01659 1.01951 1 0.997139
1 1 1 1
0.999162 1 1 0.999162
1.00282 1.00491 1 0.997921
1 1 1 1
0.99929 1 1 0.99929
1 1 1 1
1.0212 1.02436 1 0.996914
1.01397 1.01698 1 0.997041
1.00917 1.01183 1 0.997378
1.00762 1.01025 1 0.997389
1.00351 1.00583 1 0.997692
0.999505 1.00088 1.00032 0.998302
0.998947 1.00044 1.00046 0.998044
1.00031 1 1.00173 0.998582
1.00019 1 1.00056 0.999637
1.00097 1 1.00212 0.998858
1.00006 1 1.00025 0.999811
1 1 1 1
0.999897 1 1 0.999897
1 1 1 1
1 1 1 1
1.00844 1.0317 0.979234 0.998177
0.985543 1.00952 0.978586 0.997612
0.936909 0.978667 0.966961 0.990042
1.02388 1.02684 1 0.997118
1.01392 1.01644 1 0.997524
1.03917 1.04232 1 0.996985
1.02554 1.02866 1 0.996966
1.01351 1.01624 1.00018 0.997131
1.0335 1.03695 0.999728 0.99695
1.00364 1.00667 0.999278 0.997703
1.01308 1.01619 0.999788 0.997158
1.03582 1.0472 0.99191 0.997199
1.0025 1.00868 0.996482 0.997385
1.01792 1.02343 0.997632 0.996974
1.01062 1.02334 0.989835 0.997714
1.00327 1.00831 0.997646 0.997348
0.998484 1.01014 0.989788 0.998664
1.04392 1.05951 0.987409 0.997857
1.01932 1.03358 0.98789 0.998299
0.989327 1.00409 0.988169 0.997093
0.997708 1.03654 0.964463 0.998001
1.03668 1.0464 0.993 0.997694
1.02881 1.05193 0.980281 0.997694
1.05628 1.06761 0.991567 0.997796
1.04752 1.06177 0.988862 0.997692
1.01995 1.04563 0.977595 0.997798
1.03276 1.04956 0.986372 0.997585
1.03583 1.04824 0.990669 0.997464
1.02886 1.04069 0.990938 0.997669
1.0342 1.04215 0.994925 0.997427
1.0388 1.04294 0.998843 0.997181
1.03411 1.03807 0.998708 0.997474
1.03702 1.04001 0.999916 0.997204
1.03839 1.04156 1 0.996957
1.03394 1.03682 1 0.997222
1.03477 1.0379 1 0.996987
1.02614 1.02923 1 0.996992
1.03122 1.03431 1 0.997014
1.02344 1.02645 1 0.997064
1.00715 1.00952 1 0.997656
1.02076 1.02374 1 0.997083
1.00645 1.00874 1 0.997729
0.999238 1 1 0.999238
0.999731 1 1 0.999731
0.999164 1 1 0.999164
1.00535 1.00757 1 0.997799
1 1 1 1
0.99915 1 1 0.99915
1 1 1 1
1.04629 1.04939 1 0.997052
1.03108 1.03422 1 0.996957
1.022 1.02517 1 0.996909
1.01384 1.01668 1 0.997209
1.01476 1.01779 1 0.997022
1.00888 1.01153 1 0.997379
1.00124 1.00318 1 0.998069
1.00207 1.00438 1 0.997699
0.999304 1.00055 1.00045 0.998305
0.999529 1 1.00011 0.999419
1.0011 1 1.00252 0.998584
1.00024 1 1.00058 0.999657
1 1 1 1
0.999826 1 1 0.999826
1 1 1 1
1 1 1 1
1.03988 1.05803 0.985199 0.997608
1.01252 1.03602 0.97904 0.998247
0.983638 1.00962 0.97716 0.99704
1.03699 1.04013 1 0.996978
1.02273 1.02562 1 0.997176
1.01448 1.01682 1 0.997701
1.03805 1.04117 1 0.997003
1.02618 1.02932 1 0.996952
1.04324 1.05232 0.994184 0.997178
1.02997 1.03344 0.999737 0.996909
1.01174 1.01469 1 0.997096
1.03497 1.04635 0.99191 0.997193
1.02071 1.02588 0.998024 0.996931
1.0139 1.02728 0.989196 0.997746
1.04726 1.0611 0.989145 0.997788
1.046 1.06087 0.98808 0.997882
1.01947 1.0336 0.987999 0.998312
1.02671 1.05244 0.977788 0.997712
1.05746 1.06976 0.990687 0.997793
1.04757 1.06281 0.987936 0.997701
1.04057 1.05052 0.992968 0.997546
1.03308 1.0489 0.987295 0.997594
1.03585 1.04776 0.991155 0.997453
1.04072 1.04664 0.997119 0.997209
1.03379 1.04167 0.995015 0.997408
1.03935 1.04348 0.99886 0.997181
1.04132 1.04452 1 0.996931
1.03713 1.0401 0.99994 0.997202
1.0384 1.04157 1 0.996958
1.02878 1.03196 1 0.996918
1.03462 1.03775 1 0.99699
1.02642 1.02951 1 0.996995
1.00808 1.01054 1 0.997556
1.02363 1.02664 1 0.997068
1.0074 1.00976 1 0.997654
0.999244 1 1 0.999244
1.00667 1.00897 1 0.997727
0.999233 1 1 0.999233
0.999749 1 1 0.999749
0.999871 1 1 0.999871
0.999229 1 1 0.999229
1 1 1 1
1.04227 1.0454 1 0.997003
1.03701 1.04012 1 0.997005
1.04546 1.04843 1 0.997167
1.02219 1.02516 1 0.99711
1.03301 1.03618 1 0.996946
1.02287 1.02604 1 0.996905
1.01451 1.01736 1 0.997205
1.00494 1.00707 1 0.997886
1.00869 1.01133 1 0.997381
1.00048 1.00241 1 0.99807
0.99923 1 1 0.99923
0.999111 1.00028 1.00052 0.998308
0.999696 1 1.00026 0.999438
1 1 1 1
1.00015 1 1.00047 0.999677
1 1 1 1
1 1 1 1
1.04171 1.05624 0.988719 0.997497
1.03878 1.05677 0.985344 0.997603
1.01505 1.03825 0.97931 0.99831
1.04398 1.04879 0.998319 0.997089
1.03531 1.03845 1 0.996979
1.02162 1.02446 1 0.997235
1.03674 1.03984 1 0.997021
1.04211 1.05123 0.994153 0.997154
1.02625 1.02973 0.999747 0.996868
1.0312 1.04243 0.992015 0.997188
1.0425 1.05336 0.992065 0.997609
1.04633 1.05993 0.989394 0.99775
1.04794 1.06202 0.988812 0.997907
1.03966 1.04743 0.995126 0.997439
1.04733 1.06359 0.986971 0.99771
1.04031 1.05052 0.99273 0.997533
1.04232 1.04889 0.996422 0.997306
1.03594 1.04732 0.99167 0.997442
1.04082 1.04678 0.997083 0.997211
1.04254 1.04575 1 0.996927
1.03988 1.04399 0.998881 0.997181
1.04123 1.04444 1 0.996933
1.03031 1.03355 1 0.996863
1.03833 1.0415 1 0.996959
1.02905 1.03223 1 0.99692
1.00883 1.0114 1 0.997457
1.02668 1.02977 1 0.996998
1.0083 1.01077 1 0.997556
0.999219 1 1 0.999219
1.00764 1.01001 1 0.997653
0.999234 1 1 0.999234
0.999753 1 1 0.999753
0.99923 1 1 0.99923
0.999754 1 1 0.999754
1 1 1 1
1.04274 1.04611 0.999873 0.996905
1.03829 1.04151 1 0.996912
1.04367 1.0468 1 0.997009
1.02749 1.03046 1 0.997117
1.03784 1.04094 1 0.997026
1.04479 1.04764 1 0.997281
1.00813 1.01042 1 0.997731
1.02223 1.0252 1 0.997102
1.03506 1.03824 1 0.996934
1.01503 1.01788 1 0.9972
1.00371 1.00584 1 0.997887
0.999122 1 1 0.999122
0.999591 1.00152 1 0.998072
0.999244 1 1 0.999244
1 1 1 1
0.999877 1 1.00042 0.999456
1 1 1 1
1 1 1 1
1.04183 1.05033 0.994538 0.997357
1.04188 1.05676 0.988415 0.997481
1.03913 1.05712 0.985348 0.997599
1.04296 1.04794 0.998136 0.997104
1.03352 1.03665 1 0.99698
1.04157 1.05075 0.994114 0.997131
1.04034 1.0488 0.994482 0.997442
1.04293 1.05343 0.992416 0.997602
1.04544 1.05887 0.989577 0.997711
1.04022 1.04788 0.995219 0.99746
1.04368 1.04914 0.997537 0.997246
1.04003 1.05054 0.99246 0.99752
1.04244 1.04874 0.996712 0.997265
1.04251 1.04626 0.999406 0.997006
1.04086 1.04686 0.997045 0.997214
1.04297 1.04622 0.999967 0.99693
1.03057 1.03385 1 0.996824
1.04131 1.04451 1 0.996934
1.03079 1.03403 1 0.996864
1.00911 1.01176 1 0.997386
1.02946 1.03264 1 0.996922
1.00895 1.01152 1 0.997458
0.999166 1 1 0.999166
1.00854 1.01101 1 0.997555
0.999205 1 1 0.999205
0.999734 1 1 0.999734
0.999228 1 1 0.999228
0.999766 1 1 0.999766
0.999755 1 1 0.999755
1.04368 1.04771 0.999007 0.997144
1.04063 1.04397 1 0.996799
1.04351 1.04715 0.999585 0.99693
1.02966 1.03275 1 0.997006
1.03761 1.04083 1 0.996906
1.045 1.04813 1 0.997015
1.00922 1.01163 1 0.997621
1.02748 1.0305 1 0.997077
1.03853 1.0416 1 0.997047
0.999081 1 1 0.999081
1.00741 1.0097 1 0.997734
1.02238 1.02536 1 0.997095
1.00254 1.00466 1 0.997889
0.999132 1 1 0.999132
1 1 1 1
0.999257 1 1 0.999257
1 1 1 1
1 1 1 1
1.03912 1.04615 0.995933 0.997337
1.04131 1.04996 0.9944 0.99735
1.04178 1.05693 0.988169 0.997465
1.04193 1.04708 0.997951 0.99712
1.04265 1.04713 0.998509 0.997206
1.04092 1.04911 0.994723 0.997452
1.0434 1.05347 0.992834 0.997595
1.04081 1.04834 0.995329 0.997481
1.04333 1.04889 0.997438 0.997257
1.04285 1.0466 0.99941 0.997009
1.04265 1.04867 0.997023 0.997223
1.04302 1.04656 0.999641 0.996967
1.03001 1.03328 1 0.996841
1.04337 1.04666 0.999926 0.996933
1.03071 1.03399 1 0.996827
1.00865 1.01135 1 0.997328
1.03104 1.03429 1 0.996865
1.00896 1.0116 1 0.997386
0.99897 1 1 0.99897
1.00901 1.01158 1 0.997458
0.999087 1 1 0.999087
1 1 1 1
0.999192 1 1 0.999192
0.999752 1 1 0.999752
0.999773 1 1 0.999773
1.04108 1.04518 0.998845 0.997231
1.0412 1.04443 1 0.996906
1.04359 1.04748 0.999142 0.997137
1.03091 1.03418 1 0.996842
1.04017 1.04349 1 0.996819
1.04435 1.04828 0.99929 0.996956
1.00968 1.01227 1 0.997434
1.02984 1.03294 1 0.997006
1.03698 1.04021 1 0.9969
0.999071 1 1 0.999071
1.00909 1.01154 1 0.997577
1.02747 1.03052 1 0.997036
1 1 1 1
0.999091 1 1 0.999091
1.00665 1.00894 1 0.997736
0.999144 1 1 0.999144
1 1 1 1
1 1 1 1
1.04104 1.04531 0.998689 0.997222
1.03965 1.04665 0.995966 0.997344
1.04072 1.04957 0.994214 0.997344
1.04274 1.04603 0.999904 0.996947
1.04193 1.04673 0.998189 0.997219
1.04145 1.04939 0.994957 0.997463
1.04295 1.04862 0.997311 0.997268
1.04265 1.04649 0.999317 0.99701
1.02848 1.03168 1 0.996905
1.04343 1.04678 0.999867 0.996929
1.02978 1.03303 1 0.996855
1.0081 1.01091 1 0.997215
1.03096 1.03424 1 0.996829
1.00853 1.01123 1 0.997329
0.998924 1 1 0.998924
1.0089 1.01154 1 0.997386
0.998968 1 1 0.998968
1 1 1 1
0.998995 1 1 0.998995
0.999859 1 1 0.999859
0.999767 1 1 0.999767
1.04052 1.04415 0.999341 0.997182
1.04158 1.04475 1 0.996964
1.04147 1.04547 0.998931 0.997238
1.03125 1.03452 1 0.996842
1.04162 1.04487 1 0.996891
1.04353 1.04728 0.99929 0.997129
1.00977 1.01247 1 0.997335
1.03084 1.03407 1 0.996877
1.03969 1.04299 1 0.99684
0.999046 1 1 0.999046
1.00963 1.01224 1 0.997421
1.03003 1.03312 1 0.997005
1 1 1 1
0.99908 1 1 0.99908
1.009 1.01149 1 0.997532
1 1 1 1
0.999102 1 1 0.999102
1 1 1 1
1.04324 1.04654 0.999849 0.996997
1.04031 1.04454 0.998738 0.997207
1.04018 1.04713 0.996001 0.99735
1.0284 1.0316 1 0.996898
1.0425 1.046 0.999686 0.996969
1.04123 1.04635 0.99787 0.997233
1.04246 1.04638 0.999247 0.997011
1.02855 1.03174 1 0.996904
1.00745 1.01028 1 0.99719
1.02957 1.0328 1 0.996869
1.00804 1.01083 1 0.997246
0.998867 1 1 0.998867
1.00834 1.01104 1 0.99733
0.998921 1 1 0.998921
1 1 1 1
0.998965 1 1 0.998965
1 1 1 1
0.999744 1 1 0.999744
1.04319 1.04635 1 0.996986
1.03992 1.04376 0.999114 0.997206
1.03094 1.03418 1 0.996867
1.04182 1.04499 1 0.996962
1.04193 1.04584 0.999013 0.997244
1.00908 1.01175 1 0.997364
1.03087 1.03414 1 0.996838
1.04201 1.04527 1 0.996877
0.998995 1 1 0.998995
1.00992 1.01259 1 0.997364
1.03075 1.03394 1 0.996911
1 1 1 1
0.999052 1 1 0.999052
1.00959 1.01221 1 0.997407
1 1 1 1
0.999089 1 1 0.999089
1 1 1 1
1.02929 1.03246 1 0.996929
1.0431 1.04636 0.999909 0.996984
1.03956 1.04378 0.998765 0.997192
1.00645 1.00927 1 0.997199
1.02839 1.03159 1 0.996898
1.04226 1.04597 0.999463 0.996991
1.02861 1.03181 1 0.996904
1.00747 1.01031 1 0.997191
0.99883 1 1 0.99883
1.00801 1.01076 1 0.997278
0.998864 1 1 0.998864
1 1 1 1
0.998918 1 1 0.998918
1 1 1 1
1 1 1 1
1.03068 1.03391 1 0.996876
1.04284 1.04607 0.999886 0.997019
1.03928 1.04328 0.99893 0.99723
1.00824 1.01092 1 0.997351
1.03057 1.03381 1 0.996864
1.042 1.04518 1 0.996961
0.998944 1 1 0.998944
1.00938 1.01205 1 0.997361
1.03052 1.0338 1 0.996835
1 1 1 1
0.998999 1 1 0.998999
1.01008 1.01272 1 0.997392
1 1 1 1
0.999058 1 1 0.999058
1 1 1 1
1.00639 1.00913 1 0.997284
1.02913 1.03233 1 0.996896
1.043 1.04617 1 0.996971
0.998838 1 1 0.998838
1.00653 1.00935 1 0.997197
1.0284 1.0316 1 0.996898
1.00749 1.01033 1 0.997192
0.998829 1 1 0.998829
1 1 1 1
0.998861 1 1 0.998861
1 1 1 1
1 1 1 1
1.00721 1.00991 1 0.997324
1.03024 1.03346 1 0.996886
1.0425 1.04586 0.999735 0.997052
0.999082 1 1 0.999082
1.00851 1.01119 1 0.997349
1.03022 1.03346 1 0.996861
1 1 1 1
0.998945 1 1 0.998945
1.00966 1.01234 1 0.997359
1 1 1 1
0.999002 1 1 0.999002
1 1 1 1
0.998833 1 1 0.998833
1.00659 1.00936 1 0.997255
1.02898 1.03222 1 0.996862
1 1 1 1
0.998837 1 1 0.998837
1.0066 1.00943 1 0.997195
0.998828 1 1 0.998828
1 1 1 1
1 1 1 1
0.999037 1 1 0.999037
1.00754 1.01024 1 0.997324
1.02976 1.03296 1 0.996896
1 1 1 1
0.998911 1 1 0.998911
1.0088 1.01148 1 0.997347
1 1 1 1
0.998947 1 1 0.998947
1 1 1 1
0.999676 1 1 0.999676
0.998941 1 1 0.998941
1.00677 1.00957 1 0.997226
1 1 1 1
0.998838 1 1 0.998838
1 1 1 1
0.999692 1 1 0.999692
0.998963 1 1 0.998963
1.00789 1.01059 1 0.997324
0.999847 1 1 0.999847
0.99891 1 1 0.99891
1 1 1 1
1 1 1 1
0.998861 1 1 0.998861
1 1 1 1
0.999843 1 1 0.999843
0.998886 1 1 0.998886
1 1 1 1
1 1 1 1
1 1 1 1

VECTORS lamdaE float
1.00091 1.00015 0.994187
1.00055 1.00063 0.997198
1.0005 1.00036 0.994445
1.0011 1.00001 0.99406
1.001 0.999972 0.994245
1.00085 1.00037 0.994026
1.00224 1.00048 0.991245
1.00058 1.00053 0.997202
1.00053 1.00017 0.99758
1.00004 1.00086 0.997624
1.00054 1.00056 0.994224
1.00195 1.00129 0.99016
1.00078 0.999982 0.994392
1.00052 0.999993 0.994593
1.00014 1.00057 0.994676
1.00079 0.999987 0.994357
1.00039 1.00072 0.99426
1.00066 1.00003 0.994516
1.00244 1.00029 0.991131
1.00078 1.00002 0.99721
1.00105 1.00006 0.994056
1.00107 0.999941 0.994174
1.00245 1.00009 0.991286
1.00238 1.00014 0.991336
1.00083 1.00045 0.993929
1.00201 1.00102 0.991065
1.00486 1.00048 0.986761
1.00058 1.00049 0.997225
1.00072 1.00006 0.995906
1.00033 1.00061 0.995931
1.00054 1.00046 0.997278
1.00185 1.00143 0.990167
1.00102 0.999822 0.994156
1.00073 1.00028 0.994263
1.00269 1.00008 0.991606
0.999862 1.00053 0.997869
1.00234 1.00079 0.991575
1.00168 1.00169 0.99018
1.00412 1.0015 0.986232
0.999958 0.99911 0.998276
1.00081 0.99999 0.997192
1.00072 1 0.995876
1.00074 0.999978 0.997234
1.00039 1.00003 0.994746
1.00247 0.999954 0.990636
1.00066 0.99996 0.9975
1.00275 1.00005 0.991566
1.0005 0.999925 0.994654
1.00035 1.00008 0.994774
0.999952 1.00112 0.994477
1.00263 1.0001 0.991031
1.00062 1.00004 0.995953
1.00073 1.00007 0.994357
1.00034 1.0009 0.994137
1.00077 0.999921 0.994459
1.00258 1.00005 0.991148
1.00226 1.00075 0.990955
1.00254 1.00004 0.991218
1.00483 1.00051 0.986768
1.00071 1.00001 0.997237
1.00094 1.00007 0.994196
1.00222 1.00002 0.992276
1.00238 1.00011 0.991363
1.00245 1.00005 0.991323
1.00482 1.00014 0.987061
1.00486 1.00015 0.986881
1.00068 1.00034 0.994175
1.00151 1.0019 0.990955
1.00475 1.00081 0.986639
1.00526 1.00032 0.985477
1.00095 1.00009 0.997177
1.00047 1.00035 0.997399
1.00063 1.00047 0.997199
1.00179 1.00149 0.990169
1.00106 0.999955 0.997121
1.00082 1.00028 0.997201
1.00256 1.00004 0.990275
1.00008 1.00035 0.996301
1.0021 1.00085 0.990261
1.00156 1.00192 0.990963
1.00422 1.00135 0.98623
1.00022 0.999774 0.997831
0.999984 1.00146 0.993352
1.00276 0.99994 0.990106
1.00251 1.00025 0.990257
1.00491 1.0002 0.986221
1.00105 1.00234 0.992219
1.00453 1.00078 0.98625
1.00335 1.0027 0.986389
1.00509 1.00124 0.984732
0.999821 0.998371 0.998655
0.999821 0.998962 0.998435
1.00099 0.999984 0.997105
1.00085 0.999988 0.997182
1.00077 0.999984 0.997233
1.00063 0.999995 0.995969
1.0025 0.999944 0.991312
1.00083 0.999965 0.995822
1.00268 1.00006 0.990909
1.00075 0.999992 0.997241
1.00233 0.999877 0.990891
1.00265 1.00004 0.991754
1.00481 0.999506 0.987168
1.00277 0.999982 0.991537
1.00491 0.999771 0.986735
1.00075 1.00001 0.994438
1.00041 1.00008 0.994661
0.999863 1.00138 0.994346
1.00047 0.999875 0.994742
1.00271 1.00005 0.991011
1.00269 0.999954 0.991106
1.00251 1.00045 0.990855
1.0048 1.00053 0.986775
1.00076 0.999993 0.997237
1.00062 1.00006 0.994497
1.00238 0.999981 0.991148
1.00251 1.00009 0.991216
1.00043 1.00076 0.995699
1.00186 1.00167 0.991072
1.00258 0.999994 0.991198
1.00483 1.00007 0.987101
1.0047 1.00085 0.98665
1.00486 1.00027 0.986864
1.00526 1.00031 0.985506
1.00232 0.999932 0.990884
1.00227 1.00005 0.991556
1.00469 0.999464 0.987886
1.00477 0.99985 0.987342
1.00484 1.00003 0.987036
1.00529 0.999235 0.986787
1.0001 1.00051 0.997623
1.00527 0.999875 0.98591
1.0011 1.00269 0.990056
1.00429 1.00126 0.986164
1.00525 1.00081 0.985053
1.00521 0.999141 0.986644
1.00029 1.00281 0.991426
1.00095 1.00511 0.987939
1.00105 0.999981 0.997139
1.00078 1.00029 0.9972
1.00257 1.00003 0.990268
1.00022 1.00007 0.997732
1.00121 1.00232 0.990309
1.00208 1.00086 0.990273
1.00429 1.00121 0.986229
1.00005 0.99966 0.998
0.999894 1.00159 0.993391
1.00277 0.999978 0.990831
1.00251 1.0003 0.990938
1.0049 1.00021 0.986204
1.00074 1.0025 0.990992
1.00456 1.00075 0.986242
1.00344 1.00252 0.986391
1.00516 1.00115 0.98479
1.00022 1.00235 0.992065
0.999958 1.00048 0.994431
1.00101 1.00452 0.988951
1.00496 1.00006 0.986306
1.00478 1.00041 0.986211
1.00529 0.999801 0.985988
1.00242 1.00373 0.98697
1.00522 1.00063 0.985263
1.00481 1.00178 0.984809
1.00521 1.0009 0.984913
0.999818 0.99786 0.998884
0.999778 0.998258 0.998749
0.999731 0.998766 0.998571
1.00007 1.00232 0.992279
0.999925 1.00007 0.997915
1.00107 0.999963 0.9971
1.00089 0.99999 0.997142
1.00256 1.00008 0.990293
1.0024 0.999944 0.990711
1.00075 0.999983 0.997225
1.00072 0.999987 0.99724
1.00232 0.99989 0.990885
1.00257 1.00002 0.99111
1.00479 0.999507 0.987173
1.00266 1.00002 0.990164
1.00488 0.999776 0.98673
1.00229 0.999896 0.990928
1.00476 0.999428 0.987308
1.00484 0.999622 0.986985
1.00529 0.997902 0.988081
1.00496 0.999927 0.986478
1.0053 0.998461 0.987472
1.00073 0.999992 0.997233
1.0003 1.0001 0.994797
1.0024 0.99998 0.990146
1.00264 1.00009 0.991067
0.999813 1.00127 0.997587
1.0023 1.00127 0.991191
1.00272 0.999967 0.991075
1.00485 0.999974 0.98714
1.00485 1.00037 0.986846
1.00464 1.00091 0.986661
1.00526 1.0003 0.985534
1.0023 0.999923 0.990886
1.00241 1.00007 0.991407
1.00471 0.999451 0.987586
1.00479 0.99995 0.987281
1.00024 1.00055 0.997515
1.00131 1.00244 0.990835
1.00416 1.00158 0.986408
1.00485 1.00007 0.987
1.00529 0.998986 0.986999
1.00525 1.00075 0.985101
1.00527 0.999944 0.985952
1.00521 0.999148 0.986668
1.00038 1.00271 0.991408
1.0011 1.00499 0.987936
1.00472 0.999507 0.987288
1.00471 0.999687 0.98766
1.00526 0.998329 0.987765
1.00528 0.998417 0.987531
1.00527 0.999341 0.986609
1.00525 0.997273 0.98864
1.00066 1.00297 0.990611
1.00522 0.998312 0.987484
1.00353 1.00224 0.986381
1.00522 1.00124 0.984584
1.0052 1.00021 0.98572
1.00519 0.997609 0.988312
1.00183 1.00453 0.987162
1.00063 1.00478 0.988911
1.00224 1.00469 0.98657
1.00266 0.999965 0.990192
0.99987 0.99954 0.998179
0.999834 1.00157 0.993428
1.00236 1.00033 0.990313
1.0049 1.00021 0.986185
1.00068 1.00261 0.990951
1.00349 1.00232 0.986392
1.0046 1.00071 0.986235
1.00519 1.00107 0.984849
1.00017 1.0024 0.992076
0.999946 1.00039 0.994477
1.00072 1.00464 0.988938
1.00494 1.00008 0.986287
1.00479 1.0004 0.986197
1.00529 0.99981 0.985966
1.00251 1.00355 0.986972
1.00524 1.00067 0.985205
1.00484 1.00171 0.984796
1.00521 1.00074 0.985012
0.999999 0.999671 0.995155
1.00166 1.00439 0.987791
1.00059 1.00356 0.99037
1.00157 1.00464 0.987674
1.0053 0.999333 0.986488
1.00527 1.00026 0.985534
1.00524 0.998559 0.987207
1.00415 1.00233 0.985436
1.00521 0.99984 0.986103
1.00501 1.00148 0.984741
1.00516 1.00027 0.985565
1.00023 1.00109 0.993357
1.00022 0.998709 0.995701
0.999869 0.997532 0.998998
0.999803 0.997798 0.99893
0.999754 0.998139 0.998828
1.00002 1.00149 0.993204
0.999828 0.999529 0.998187
1.00017 1.00223 0.992257
1.00002 1.00017 0.997807
1.00265 1.00005 0.990166
1.00249 1.00001 0.990502
1.00487 0.999782 0.986725
1.00477 0.999512 0.987178
1.00233 0.999907 0.990884
1.00077 0.999977 0.99724
1.00231 0.999891 0.990932
1.00475 0.999438 0.98731
1.00483 0.999632 0.986984
1.00528 0.997912 0.988075
1.00494 0.999941 0.986463
1.0053 0.998461 0.987455
1.00472 0.999446 0.987339
1.00531 0.997768 0.98818
1.00527 0.998136 0.987859
1.00522 0.995458 0.990601
1.00531 0.99887 0.986992
1.00527 0.996498 0.989428
1.00231 0.999918 0.990891
1.00255 1.00004 0.991258
1.00473 0.99942 0.987287
1.00481 1.00004 0.987219
1.00035 1.00062 0.997405
1.0016 1.00224 0.99144
1.00414 1.00183 0.986649
1.00486 1.0001 0.986966
1.00529 0.998734 0.987211
1.00527 1.00001 0.985994
1.00524 1.00069 0.985149
1.00521 0.999152 0.986692
1.00042 1.00261 0.991393
1.00124 1.00489 0.987933
1.00473 0.999383 0.987361
1.00473 0.999664 0.987639
1.00526 0.998135 0.987992
1.00528 0.998688 0.987292
1.00074 1.00284 0.990609
1.00351 1.0024 0.986375
1.00519 1.00129 0.984554
1.00527 0.999487 0.986488
1.00525 0.996998 0.988928
1.0052 1.00009 0.985861
1.00522 0.998316 0.987496
1.00518 0.997538 0.988295
1.00185 1.00448 0.987169
1.00202 1.00457 0.986587
1.00072 1.00472 0.988916
1.00528 0.998124 0.987932
1.00525 0.998271 0.987879
1.00525 0.995962 0.990043
1.00525 0.996517 0.989361
1.00523 0.997359 0.988372
1.00518 0.995579 0.990332
1.00278 1.0033 0.986689
1.0052 0.996515 0.98915
1.00512 1.00162 0.984567
1.0052 1.00106 0.984703
1.00517 0.999005 0.986881
1.00515 0.996633 0.989261
1.00027 1.0044 0.989983
1.00341 1.00315 0.985984
1.00114 1.0051 0.987515
1.00365 1.00338 0.98578
1.00493 1.00009 0.986267
0.999942 1.0003 0.994521
1.00002 1.00259 0.992093
1.00044 1.00479 0.988925
1.0048 1.00038 0.986184
1.00529 0.99982 0.985944
1.00257 1.00339 0.986978
1.00495 1.00169 0.984782
1.00525 1.00073 0.985146
1.0052 1.00059 0.985111
1.00001 0.999561 0.995192
1.00152 1.00445 0.987791
1.00043 1.0037 0.990387
1.00142 1.00478 0.987671
1.0053 0.999342 0.986468
1.00528 1.00026 0.985511
1.00523 0.998554 0.987199
1.00424 1.00218 0.985443
1.00521 0.99994 0.985967
1.00505 1.00137 0.984729
1.00516 1.0002 0.985711
1.00014 0.999021 0.99554
1.00039 1.00255 0.991681
1.0029 1.00331 0.986549
1.00089 1.00487 0.988917
1.00255 1.00349 0.987342
1.00525 0.997876 0.987918
1.00522 0.999206 0.986542
1.0052 0.997465 0.98817
1.00461 1.00143 0.985179
1.00516 0.999151 0.986729
1.00472 1.00116 0.985311
1.0003 1.00124 0.993099
1.00032 1.0025 0.991838
1.00014 1.00104 0.993571
1.00022 1.0011 0.993353
1.00022 0.998506 0.996451
1.00021 0.998676 0.996039
1.00004 0.997265 0.997757
0.999873 0.997486 0.999009
0.999796 0.997728 0.998964
0.99985 1.00072 0.994233
0.999797 0.998943 0.998489
1.00005 1.00149 0.99318
0.999923 0.999627 0.998089
1.00028 1.00207 0.992233
1.00015 1.00025 0.997698
1.00492 0.999952 0.986448
1.00481 0.999638 0.986982
1.0053 0.99848 0.987437
1.00527 0.99792 0.988069
1.00473 0.999449 0.987313
1.0023 0.999882 0.990931
1.00472 0.999446 0.98734
1.0053 0.997774 0.988181
1.00527 0.998152 0.987841
1.00523 0.995428 0.990613
1.00531 0.998875 0.986976
1.00526 0.996495 0.989422
1.00529 0.997764 0.988192
1.00521 0.995312 0.990823
1.00526 0.995837 0.990133
1.00522 0.994957 0.991003
1.00525 0.997217 0.988666
1.00527 0.995133 0.990476
1.00473 0.999262 0.987436
1.00476 0.999654 0.987618
1.00526 0.997963 0.988219
1.00528 0.998962 0.987054
1.00083 1.00274 0.990611
1.00335 1.0027 0.986374
1.00517 1.00135 0.984523
1.00527 0.999635 0.986367
1.00525 0.996723 0.989217
1.00523 0.998319 0.987507
1.0052 0.999952 0.985999
1.00518 0.997466 0.988278
1.00193 1.0044 0.987175
1.00194 1.00448 0.986605
1.00078 1.00465 0.988922
1.00528 0.998007 0.98803
1.00525 0.99826 0.987869
1.00524 0.995752 0.990287
1.00525 0.996685 0.989207
1.00276 1.00343 0.986685
1.00502 1.00166 0.984585
1.0052 1.00115 0.984607
1.00523 0.997651 0.988103
1.00519 0.995368 0.990466
1.00517 0.998941 0.986834
1.0052 0.996552 0.989145
1.00516 0.996494 0.989355
1.00346 1.00312 0.985978
1.00348 1.00344 0.985653
1.00038 1.00418 0.99
1.00099 1.0051 0.987677
1.00523 0.995386 0.990703
1.00524 0.99629 0.989613
1.00521 0.995054 0.990958
1.0052 0.994963 0.990792
1.0052 0.995744 0.989879
1.00516 0.995106 0.990711
1.00481 1.00161 0.985233
1.00517 0.995358 0.990189
1.00516 1.002 0.983952
1.00513 1.00059 0.985154
1.00517 0.998279 0.987334
1.00517 0.996554 0.989297
1.00017 1.00344 0.991048
1.00057 1.00509 0.988561
1.00478 1.00181 0.985123
1.00172 1.00505 0.987014
1.00428 1.00326 0.985017
1.00001 0.999468 0.995228
1.0053 0.999349 0.986447
1.00029 1.00382 0.990405
1.00141 1.0045 0.98779
1.00127 1.00486 0.987668
1.00528 1.00027 0.985488
1.00523 0.998549 0.987191
1.00451 1.00178 0.985448
1.00514 1.00127 0.984717
1.0052 1.00003 0.985832
1.00516 1.00013 0.985857
1.00014 0.998981 0.995564
1.00031 1.00262 0.99171
1.00302 1.00326 0.986553
1.00059 1.00493 0.98891
1.00229 1.00345 0.987362
1.00524 0.997868 0.987911
1.00522 0.999195 0.986534
1.0052 0.997429 0.988153
1.00488 1.00135 0.985171
1.00515 0.99921 0.986586
1.00487 1.00112 0.985338
1.00036 1.00168 0.992614
1.00049 1.00403 0.990338
1.00407 1.00161 0.986141
1.00101 1.00503 0.988641
1.00294 1.00227 0.987869
1.00522 0.996734 0.988954
1.00518 0.998227 0.987374
1.00522 0.996664 0.98857
1.00434 1.00103 0.985772
1.00496 0.999826 0.98599
1.0003 1.00123 0.993099
1.00031 1.00251 0.991724
1.00018 1.00264 0.991802
1.00043 1.00288 0.99145
1.00023 1.00256 0.991952
1.00006 1.00102 0.993709
1.00013 1.00102 0.993576
1.0002 0.99843 0.996537
1.00021 1.00112 0.993349
1.00022 0.998515 0.996465
1.00012 0.997057 0.997819
1.0002 0.998666 0.996369
0.999982 0.99727 0.9984
0.999882 0.997422 0.99902
0.999812 0.999821 0.99519
0.99988 1.00077 0.994206
0.999722 0.998339 0.998804
0.999862 0.99905 0.998374
1.0001 1.00155 0.993155
1.00001 0.999745 0.997985
1.0053 0.998879 0.98696
1.00528 0.998149 0.987824
1.00526 0.99649 0.989417
1.00524 0.995412 0.990624
1.0053 0.997781 0.988181
1.00472 0.999448 0.98734
1.0053 0.997769 0.988192
1.00521 0.995292 0.990833
1.00525 0.995843 0.990139
1.00522 0.994956 0.991001
1.00526 0.997193 0.98865
1.00527 0.995153 0.990479
1.00523 0.995308 0.990831
1.00517 0.994967 0.99114
1.00525 0.994935 0.990832
1.00523 0.994946 0.990966
1.00525 0.995889 0.989767
1.00528 0.994913 0.990675
1.00529 0.997885 0.988127
1.00525 0.99826 0.98786
1.00524 0.995539 0.99053
1.00526 0.996847 0.989054
1.00274 1.00351 0.98668
1.00497 1.00169 0.984601
1.0052 1.00118 0.984513
1.00524 0.997942 0.987834
1.00519 0.995164 0.9906
1.00519 0.996589 0.989141
1.00518 0.998893 0.986788
1.00517 0.996353 0.989449
1.00326 1.00324 0.985972
1.00306 1.00349 0.985525
1.00051 1.00403 0.990016
1.00088 1.00509 0.98784
1.00523 0.995395 0.9907
1.00525 0.996372 0.98957
1.00523 0.995004 0.990989
1.0052 0.994958 0.990802
1.00449 1.00201 0.985206
1.0051 1.00205 0.983901
1.00514 1.00054 0.985135
1.0052 0.995959 0.989703
1.00516 0.995027 0.990752
1.00515 0.998329 0.987309
1.00518 0.995342 0.990177
1.00517 0.996325 0.989438
1.00461 1.00191 0.98512
1.00401 1.00337 0.984915
1.00167 1.00504 0.987013
1.00018 1.00336 0.991028
1.00042 1.00509 0.988684
1.00518 0.994958 0.991114
1.00522 0.994927 0.990971
1.0052 0.994908 0.99071
1.00518 0.995008 0.99061
1.00509 1.0022 0.984255
1.00519 0.99521 0.990307
1.00509 1.0018 0.983845
1.00514 1.00015 0.985418
1.00514 0.99815 0.9874
0.999961 1.00224 0.992304
1.00025 1.00483 0.989626
1.00099 1.00509 0.988292
1.00508 1.00245 0.984302
1.00223 1.00502 0.985804
1.00455 1.00328 0.983904
1.00015 0.998949 0.995588
1.00023 1.00268 0.991738
1.00524 0.997858 0.987904
1.00024 1.005 0.988901
1.00291 1.00346 0.98656
1.00205 1.00342 0.98738
1.00521 0.999186 0.986526
1.0052 0.997395 0.988136
1.00507 1.00127 0.985162
1.00504 1.00112 0.985365
1.00515 0.99926 0.986442
1.00031 1.00168 0.992625
1.00021 1.00421 0.99034
1.00429 1.00154 0.986051
1.00074 1.00506 0.98863
1.00279 1.00206 0.987942
1.00522 0.996703 0.98895
1.00518 0.998242 0.987351
1.00522 0.99672 0.988569
1.00456 1.00101 0.985738
1.00498 0.999949 0.985998
1.00036 1.00304 0.991364
0.999789 1.00485 0.989959
1.00459 1.0004 0.986505
1.0009 1.00423 0.98888
1.00368 1.00067 0.987848
1.00523 0.995631 0.989726
1.0052 0.998169 0.987261
1.0052 0.996888 0.988215
1.00458 1.00026 0.986247
1.00504 0.9998 0.985999
1.0003 1.00121 0.993098
1.00032 1.00254 0.99174
1.0001 1.00299 0.991538
1.00008 1.00274 0.991768
1.00015 1.00266 0.991942
1.00018 1.00307 0.991463
1.00009 1.00283 0.991942
1.00006 1.00339 0.99118
1.00011 1.00263 0.992075
1.00002 1.00113 0.993674
1.00006 1.00101 0.993708
1.00015 0.998453 0.996599
1.00013 1.00098 0.993581
1.00021 0.998441 0.996547
1.00015 0.996939 0.997863
1.00023 0.99851 0.996482
1.00009 0.99705 0.997824
0.999912 0.99726 0.999059
0.999874 0.99904 0.995898
0.999807 0.999935 0.995146
0.99969 0.997894 0.999002
0.999912 1.00082 0.994179
0.999778 0.998488 0.998696
0.999933 0.999139 0.998267
1.00526 0.997168 0.988634
1.00524 0.995837 0.990145
1.00527 0.99518 0.990481
1.00522 0.994953 0.990999
1.00521 0.99527 0.990842
1.00531 0.997772 0.988193
1.00522 0.995298 0.990832
1.00517 0.994969 0.991153
1.00525 0.994934 0.990868
1.00523 0.994943 0.990942
1.00525 0.995909 0.989783
1.00528 0.994908 0.990623
1.00518 0.994972 0.991165
1.00521 0.994947 0.991036
1.00525 0.994929 0.990796
1.00525 0.995092 0.990403
1.00522 0.995404 0.990697
1.00525 0.996443 0.989528
1.00524 0.994944 0.99102
1.0052 0.994954 0.990813
1.00434 1.00221 0.98518
1.00504 1.00211 0.983851
1.00515 1.00051 0.985118
1.0052 0.996181 0.989526
1.00515 0.994939 0.990793
1.00518 0.99533 0.990165
1.00514 0.998366 0.987283
1.00518 0.996061 0.989578
1.00448 1.00201 0.985117
1.00386 1.00323 0.984809
1.00157 1.00504 0.987013
1.0002 1.00319 0.991014
1.00036 1.00509 0.988809
1.00519 0.994954 0.991102
1.00522 0.994988 0.990896
1.00519 0.99491 0.990748
1.00492 1.00222 0.984272
1.00506 1.00196 0.983815
1.00512 1.00012 0.985409
1.00518 0.995047 0.990568
1.00517 0.99788 0.987716
1.00517 0.995298 0.99021
1.00001 1.00204 0.992507
1.00486 1.00223 0.984293
1.00427 1.00328 0.984308
1.00242 1.00503 0.985884
1.00099 1.00509 0.988421
1.00021 1.00485 0.989522
1.0052 0.994953 0.991041
1.00522 0.994915 0.990804
1.00522 0.994895 0.990647
1.00517 0.994908 0.990625
1.00508 1.0027 0.983666
1.00514 0.996133 0.989315
1.005 1.00162 0.984102
1.00507 1.00053 0.985187
1.00007 1.00064 0.993808
0.999977 1.00399 0.990909
1.00051 1.00508 0.989238
1.0017 1.00508 0.986965
1.00485 1.00315 0.98339
1.00422 1.00432 0.983563
1.00027 1.00168 0.992636
0.999979 1.00433 0.990343
1.00522 0.996673 0.988947
1.00045 1.00508 0.988621
1.00455 1.00143 0.985959
1.00236 1.00207 0.988017
1.00518 0.998257 0.987329
1.00522 0.996789 0.988565
1.00474 1.00102 0.985701
1.00503 1.00007 0.986006
1.00025 1.0031 0.991371
0.999991 1.00488 0.989793
1.00484 1.00038 0.986406
1.00065 1.00449 0.988967
1.0036 1.00053 0.987945
1.00524 0.995621 0.989843
1.0052 0.998091 0.987419
1.00521 0.997043 0.988182
1.00457 1.00035 0.986285
1.00501 0.999966 0.985774
0.999716 1.00365 0.991152
0.999926 1.00498 0.989412
1.00466 0.999483 0.987086
1.00245 1.00176 0.988003
1.00527 0.994904 0.990223
1.00521 0.99629 0.989397
1.00503 0.999189 0.98632
1.00505 0.999699 0.985902
1.00036 1.00251 0.991755
1.00018 1.00299 0.991533
0.999715 1.0033 0.992245
1.00007 1.00278 0.991932
0.999926 1.00327 0.991476
1.00008 1.00266 0.992064
0.99992 1.00283 0.992134
1.0001 1.00343 0.991167
0.999829 1.00185 0.993306
0.999936 1.00371 0.991296
1.00002 1.00367 0.990964
1.00013 1.00266 0.992003
0.999984 1.00135 0.993467
0.999999 1.00112 0.99367
1.00007 0.998515 0.996663
1.00005 1.00099 0.993708
1.00016 0.998475 0.996607
1.00013 0.996942 0.997894
1.00022 0.998454 0.99656
1.00013 0.996929 0.997868
1.00007 0.997052 0.997822
0.999997 0.99844 0.99632
0.999874 0.999135 0.995843
0.999717 0.997504 0.999123
0.999795 1.00006 0.9951
0.999722 0.997971 0.998951
0.999854 0.998573 0.998569
1.00524 0.995922 0.989799
1.00525 0.994932 0.990904
1.00529 0.994903 0.990572
1.00522 0.994941 0.990918
1.00517 0.994973 0.991166
1.00521 0.995288 0.990833
1.00518 0.994973 0.991156
1.00522 0.994948 0.991034
1.00525 0.994926 0.990789
1.00524 0.995078 0.990453
1.00522 0.994959 0.991061
1.00526 0.99493 0.990887
1.00527 0.994899 0.99064
1.0052 0.994949 0.99109
1.00522 0.995054 0.990821
1.00519 0.99491 0.990786
1.00472 1.00227 0.984289
1.005 1.00211 0.983781
1.0051 1.00006 0.985399
1.00517 0.995077 0.990527
1.00514 0.995343 0.990113
1.00518 0.997611 0.988032
1.0048 1.00216 0.984282
1.00382 1.00325 0.984709
1.00273 1.00504 0.985964
1.00006 1.00186 0.992714
1.00083 1.00508 0.988549
1.00011 1.00489 0.989414
1.0052 0.994949 0.991044
1.00522 0.994912 0.990778
1.00522 0.994892 0.990636
1.00493 1.00271 0.983713
1.00503 1.00162 0.984014
1.00509 1.00026 0.985517
1.00517 0.994912 0.990582
1.00512 0.996154 0.989242
1.00008 1.00056 0.994014
0.999972 1.00402 0.990889
1.00472 1.0027 0.983491
1.00372 1.00435 0.984431
1.00169 1.00506 0.987208
1.00045 1.00508 0.98911
1.00524 0.994927 0.990918
1.00526 0.994874 0.990526
1.00521 0.994887 0.99061
1.00511 0.994926 0.990448
1.00464 1.00279 0.983384
1.00506 0.998935 0.986738
1.00498 1.00222 0.983914
1.00025 0.999884 0.994552
1.00031 1.00101 0.993377
0.999911 1.00215 0.992682
1.00011 1.00493 0.989795
1.0007 1.00508 0.988306
1.0017 1.0046 0.986227
1.00459 1.0031 0.983695
1.00382 1.00402 0.985348
1.00012 1.00325 0.991378
1.00015 1.00502 0.989625
1.00525 0.995611 0.989961
1.00077 1.00444 0.98905
1.00505 1.0004 0.98631
1.00343 1.00041 0.988039
1.0052 0.997987 0.98758
1.00522 0.997156 0.988152
1.00468 1.00041 0.986324
1.00498 1.00009 0.98555
0.999863 1.00371 0.991025
1.0001 1.005 0.989391
1.00492 0.999454 0.987067
1.00271 1.00189 0.988094
1.00529 0.994894 0.990278
1.00521 0.996244 0.989259
1.00502 0.99913 0.986417
1.00505 0.999858 0.985829
0.999778 1.00405 0.990756
1.0053 0.994878 0.990324
1.00185 1.00404 0.988341
1.00469 0.999836 0.986859
1.00522 0.995264 0.990424
1.00501 0.998199 0.986395
1.00479 1.00101 0.985331
1.00021 1.00303 0.991528
0.999701 1.00319 0.992167
0.999198 1.00287 0.993779
1.00008 1.00263 0.992054
1.00014 1.00349 0.991153
0.999439 1.00316 0.992324
1.00011 1.00266 0.991994
0.999951 1.00376 0.990989
0.999361 1.00215 0.993525
1.00007 1.00355 0.991257
0.999624 1.00071 0.995299
0.999487 1.00279 0.992855
0.999926 1.00448 0.99037
1.00035 1.00365 0.990592
1.00012 1.00298 0.991668
0.999918 1.00174 0.993182
0.999933 1.00146 0.993451
0.99997 0.998722 0.996666
0.999971 1.00118 0.993665
1.00007 0.998566 0.99666
1.00006 0.996966 0.997959
1.00016 0.998498 0.996617
1.00013 0.996923 0.997893
1.00013 0.99692 0.997867
1.00019 1.00004 0.994521
1.0001 0.9981 0.996508
1 0.998499 0.996289
0.999805 0.997136 0.99919
0.999869 0.999239 0.995788
0.999736 0.997582 0.999094
0.999761 0.998084 0.998887
1.00523 0.995062 0.990502
1.00525 0.994923 0.990782
1.00522 0.994949 0.991032
1.00518 0.994975 0.991146
1.00522 0.994962 0.991053
1.00525 0.994931 0.990902
1.00525 0.9949 0.990618
1.00525 0.994923 0.990949
1.00531 0.994922 0.990695
1.00533 0.994974 0.991115
1.0052 0.994946 0.991048
1.00521 0.994912 0.990751
1.00522 0.994892 0.990626
1.00468 1.0027 0.98376
1.00505 1.00179 0.983937
1.00499 1.00003 0.985848
1.00516 0.994916 0.990539
1.0051 0.996264 0.98917
1.00468 1.00274 0.983595
1.0034 1.00444 0.985301
1.00148 1.00505 0.98745
1.00007 1.00041 0.99422
1.00011 1.00391 0.990872
1.00045 1.00507 0.988978
1.00524 0.994925 0.990904
1.0002 0.999925 0.994545
1.00024 1.00108 0.993279
1.00526 0.994886 0.990539
1.00519 0.994881 0.990619
1.00495 1.00282 0.983343
1.00481 1.0021 0.984005
1.00503 0.998764 0.986655
1.00511 0.995001 0.99037
0.999974 1.00211 0.992864
1.00015 1.00484 0.98976
1.00469 1.00344 0.983426
1.00305 1.00381 0.986136
1.00191 1.0048 0.986533
1.00078 1.00509 0.988329
1.0053 0.994911 0.990672
1.00526 0.994801 0.990533
1.00514 0.994866 0.990358
1.00487 0.995089 0.990361
1.00428 1.00309 0.983943
1.00446 1.00228 0.984643
1.00006 1.00164 0.992879
1.00027 1.0009 0.993518
1.00078 1.00086 0.992937
1.00032 1.00295 0.991285
1.00028 1.00506 0.989366
1.00214 1.00434 0.987406
1.00091 1.00515 0.986891
1.00387 1.00053 0.986306
1.00007 1.00365 0.990899
1.00041 1.00501 0.989372
1.00531 0.994874 0.990334
1.00521 0.996248 0.989122
1.003 1.00209 0.988186
1.00506 0.999389 0.987046
1.00501 0.9991 0.98651
1.00507 1.00003 0.985756
1.00005 1.00394 0.990682
1.00532 0.994884 0.990536
1.0016 1.00409 0.988404
1.0048 0.99988 0.986701
1.00521 0.995237 0.99042
1.005 0.998378 0.98664
1.00476 1.00089 0.985362
1.00012 1.00473 0.990159
1.0047 0.994855 0.991284
1.00305 1.00253 0.987574
1.00462 1.00119 0.985364
1.00482 0.996513 0.989598
1.00365 1.00154 0.985815
0.998534 0.996971 0.987531
0.999591 1.0032 0.992091
0.998818 1.00305 0.993754
0.999415 1.00222 0.994327
1.00004 1.00273 0.991983
0.999916 1.00385 0.991014
1.00034 1.00324 0.991221
0.999054 1.00228 0.993747
1.00009 1.00301 0.991667
1.00023 1.00376 0.990624
0.999599 1.00085 0.994886
0.999985 1.00446 0.990386
0.999741 1.00271 0.992584
0.999082 1.00143 0.995472
1.00031 1.0047 0.989804
1.0001 1.00455 0.990308
1.00053 1.00385 0.990186
1.00013 1.0034 0.991048
1.00027 1.00401 0.990611
1.00011 1.00357 0.990856
0.99993 1.00185 0.993046
0.999945 1.00172 0.993164
0.999871 0.998877 0.996083
0.999945 1.00144 0.993433
0.999964 0.998784 0.996349
1.00001 0.99712 0.999124
1.00008 0.998614 0.996658
1.00008 0.996939 0.99796
1.00013 0.996905 0.997888
1.0001 1.00006 0.994583
1.00021 0.99994 0.994544
1.0001 0.998014 0.996623
1.00007 0.998124 0.996769
0.999885 0.996944 0.999227
0.999995 0.998549 0.996256
0.999802 0.997249 0.999174
0.999758 0.997647 0.999065
1.00523 0.9949 0.990597
1.00525 0.994931 0.990917
1.00522 0.994965 0.991044
1.00525 0.994922 0.990948
1.00531 0.994919 0.990698
1.00532 0.994962 0.990762
1.00533 0.994913 0.990738
1.00122 0.994904 0.983715
1.00449 0.994948 0.992726
1.00001 1.00148 0.99331
1.00524 0.994923 0.990889
1.00526 0.994894 0.990552
1.00518 0.994873 0.990629
1.00486 1.00258 0.983292
1.00498 1.00195 0.984092
1.00505 0.998707 0.98658
1.00511 0.995095 0.990291
1.00495 1.00334 0.983154
1.00229 1.00361 0.986917
1.00198 1.00499 0.986844
1.00014 1.00004 0.99454
1.00091 1.00509 0.988353
0.999944 1.00207 0.993037
1.00022 1.00485 0.989723
1.00025 1.00103 0.993181
1.0053 0.994899 0.990665
1.00008 1.00162 0.992987
1.00016 1.00107 0.993523
1.00065 1.00085 0.993053
1.00527 0.994823 0.990499
1.00515 0.994878 0.990365
1.00388 1.00353 0.984008
1.00465 1.00139 0.985223
1.00484 0.995573 0.990258
0.999967 1.00316 0.991448
1.00042 1.00505 0.98922
1.00373 1.00199 0.986133
1.00162 1.00493 0.986798
1.00186 1.00406 0.987599
1.00525 0.994851 0.99091
1.00515 0.994779 0.990812
1.00507 0.995142 0.989916
1.00468 0.997394 0.989641
1.00228 1.00307 0.987516
0.999796 1.00281 0.992126
1.00074 1.00095 0.992516
0.999934 1.00162 0.99271
0.999986 1.00449 0.991248
1.00021 1.00501 0.989655
1.00046 1.00458 0.988464
1.00211 1.00134 0.988703
1.00045 1.00376 0.990607
1.00113 1.00415 0.988466
1.00533 0.994884 0.990735
1.00521 0.995177 0.990409
1.00498 0.998558 0.986886
1.0048 0.999893 0.986543
1.00474 1.00073 0.985398
1.00042 1.00458 0.990166
1.00458 0.994857 0.991466
1.00307 1.00225 0.987476
1.00475 1.00106 0.985351
1.00492 0.99598 0.989848
1.00378 1.00167 0.985884
0.998629 0.997455 0.985603
1.00041 1.00433 0.990032
1.0027 0.99785 0.991099
1.00367 1.00173 0.986296
1.00294 1.00119 0.987159
1.00309 0.997751 0.990661
0.999979 0.994905 0.94807
0.996299 0.9948 0.967788
0.995634 1.00088 0.988198
0.999631 0.99481 0.874457
0.994697 0.994796 0.841155
0.998546 1.00323 0.993732
0.998705 1.00271 0.994624
0.998839 1.00274 0.994944
1.00007 1.00303 0.991666
1.00032 1.00356 0.990654
1.00004 1.00442 0.990401
0.999959 1.00262 0.992307
0.999589 1.00096 0.994472
1.00016 1.00433 0.990266
1.00012 1.00339 0.991136
1.00047 1.00382 0.990249
0.999323 1.00089 0.995049
1.00008 1.00465 0.990081
1.00025 1.00458 0.990143
0.99937 1.00475 0.990941
1.00007 1.00461 0.990204
1.00047 1.00426 0.989721
1.00021 1.00345 0.990865
1.00039 1.00439 0.989866
1.0004 1.0039 0.990506
0.999827 1.00422 0.990859
1.0002 1.00408 0.990522
1.00018 1.00332 0.991258
1.00015 1.00357 0.990844
0.999961 1.00183 0.993034
0.999945 1.00184 0.993048
0.999845 0.998978 0.996071
0.999929 1.00178 0.993148
0.999865 0.998913 0.996073
0.999972 0.997127 0.999145
0.999951 0.998856 0.996032
1.00001 0.997116 0.998535
1.00009 0.996913 0.997959
0.999998 1.00005 0.994744
1.00011 1.00006 0.994586
1.0001 0.997916 0.996727
1.00023 0.999847 0.994566
1.0001 0.997951 0.996885
0.999932 0.996754 0.999262
1.00007 0.998194 0.996485
0.999872 0.997015 0.999212
0.999804 0.997301 0.99916
1.0053 0.994915 0.990701
1.00525 0.994922 0.990947
1.00531 0.994954 0.990419
1.0008 0.9949 0.983842
1.00533 0.994911 0.99075
1.00436 0.995251 0.992387
1.00501 0.99638 0.991297
0.99639 0.994936 0.966963
1.00071 0.996518 0.985966
1.00007 1.00134 0.993397
1.00006 1.00147 0.993286
0.999795 1.00281 0.992307
0.99986 1.00226 0.992756
1.0053 0.994892 0.990658
1.00528 0.994847 0.990465
1.00515 0.994881 0.990371
1.00469 1.00349 0.98407
1.00449 0.999985 0.985798
1.00475 0.99599 0.990149
1.00334 1.00322 0.985978
1.00263 1.00475 0.986703
1.00165 1.0036 0.987787
1.00003 1.00133 0.993527
1.00037 1.00506 0.989074
1.00002 1.00328 0.991612
1.00008 1.00166 0.993095
1.00046 1.00087 0.993156
1.00526 0.994844 0.990916
0.999998 1.00273 0.992104
1.00081 1.00089 0.992721
0.99932 1.00159 0.993943
1.00515 0.99479 0.990711
1.00505 0.995177 0.98992
1.00324 1.00186 0.987479
1.00436 0.996833 0.990071
1.0002 1.00403 0.990888
1.00035 1.00492 0.98904
1.00199 1.00287 0.988551
1.0017 1.00411 0.988073
1.0044 0.994798 0.991868
1.00493 0.995139 0.991099
1.00497 0.995944 0.989557
1.00271 0.998283 0.992123
0.9992 1.00374 0.992266
1.0005 1.00179 0.991923
0.998534 1.0045 0.992537
0.999238 1.00511 0.990174
0.999972 0.994893 0.936936
1.00058 1.0045 0.99017
1.00304 1.00215 0.987377
1.00439 0.994874 0.991668
1.00501 0.995713 0.990093
1.00388 1.00175 0.985935
1.00473 1.00099 0.985333
0.998689 0.997354 0.983569
1.00042 1.00411 0.990419
1.00269 0.997469 0.991084
1.00352 1.00207 0.986325
1.00355 1.00094 0.987198
1.0035 0.99781 0.990379
1.00061 0.994899 0.936334
0.996498 0.994817 0.96373
0.995958 1.0017 0.988212
0.999268 0.994803 0.878825
0.994701 0.994801 0.830387
1.00031 1.00402 0.990564
0.999794 0.994856 0.885655
0.994696 0.99478 0.836269
1.00065 1.00006 0.991848
1.00198 1.00158 0.98935
1.00144 0.999572 0.992294
0.995271 1.0018 0.9896
0.999144 0.994911 0.945086
0.994884 0.994782 0.96076
0.997099 0.995486 0.891745
0.994726 0.994803 0.828598
0.998109 1.00307 0.994925
0.998519 1.00242 0.994807
0.998775 1.00435 0.99344
1.00016 1.00335 0.991222
1.0004 1.00388 0.990314
0.999823 1.00469 0.990224
0.999865 1.00461 0.990358
0.999576 1.00025 0.994627
1.0002 1.00348 0.990866
1.00005 1.00495 0.990078
1 1.00469 0.990152
1.00059 1.00405 0.989855
0.999292 1.00485 0.991143
0.999639 1.00505 0.990752
0.998661 1.00477 0.991803
1.00026 1.00467 0.989777
1.00045 1.00425 0.989925
1.00043 1.00433 0.989859
1.0003 1.00376 0.990661
1.00046 1.00458 0.989632
0.999913 1.00409 0.99095
0.999648 1.00338 0.991202
0.999757 1.00492 0.990276
0.999716 1.0046 0.990573
0.99994 1.0041 0.990875
1.00008 1.00323 0.991431
1.00014 1.00408 0.990434
1.00018 1.00329 0.9912
1.00001 1.00185 0.992954
1.00021 1.00354 0.990832
0.999952 1.00183 0.993044
0.999964 0.998941 0.996564
0.99993 1.00186 0.993051
0.999871 0.998943 0.996348
0.999943 0.997132 0.997991
0.999858 0.998933 0.996064
0.99997 0.997139 0.99915
1.00002 0.997126 0.997943
1.00014 1.00137 0.99322
0.999952 1.00006 0.99481
1 1.00005 0.994742
1.00008 0.997901 0.996769
1.00013 1.00004 0.994589
1.00011 0.997871 0.996729
0.999974 0.996657 0.99928
1.00009 0.997937 0.997121
0.99995 0.996865 0.998734
0.999916 0.997095 0.998156
1.0004 0.994885 0.983974
1.00532 0.994913 0.990761
1.00406 0.996064 0.992041
0.996562 0.994909 0.967827
1.00065 0.996151 0.986312
1.00501 0.99576 0.991246
1.00317 0.996679 0.987397
0.996714 0.99593 0.970738
0.999974 0.994884 0.945704
0.999352 0.995155 0.894139
0.994666 0.994773 0.839885
0.999791 1.00235 0.992651
1.00008 1.00134 0.993389
1.00014 1.00142 0.993261
0.999879 1.00269 0.99234
0.999517 1.00358 0.992104
1.00032 1.00218 0.991989
1.00007 1.0028 0.992168
0.999986 1.0022 0.992604
1.00526 0.994826 0.990918
1.00516 0.994803 0.990611
1.0051 0.995139 0.989922
1.00333 1.00164 0.987449
1.00419 0.996592 0.99051
1.00224 1.00391 0.988386
1.00279 1.0038 0.987686
1.00073 1.00507 0.988431
1.00056 1.00092 0.99293
1.00013 1.00407 0.99052
1.00021 1.00264 0.99209
0.998899 1.00152 0.995164
1.00432 0.994774 0.992091
0.999334 1.00362 0.992289
1.00036 1.00216 0.992274
1.00483 0.99498 0.991056
1.00488 0.995567 0.989808
1.00243 0.998218 0.991684
0.999456 1.00503 0.9913
1.00044 1.00427 0.99035
1.0031 0.994778 0.992061
1.00418 0.997443 0.99081
1.00473 0.995317 0.990841
1.00102 0.999001 0.993182
0.999679 1.0047 0.99056
0.999344 1.00404 0.991824
0.99942 1.00529 0.991247
0.999815 0.994899 0.888124
1.0003 0.994897 0.949056
1.00052 1.00376 0.990805
1.00355 1.00227 0.986359
1.0027 0.997396 0.991066
1.00399 0.997994 0.990106
1.00408 1.00079 0.987257
0.999979 0.994894 0.946646
0.996357 0.994848 0.963315
0.996171 1.00249 0.988223
0.998938 0.994829 0.893437
0.994705 0.994802 0.819078
1.00029 1.00389 0.990513
0.999809 0.994855 0.885442
0.994667 0.994782 0.829856
1.00082 1.00004 0.991904
1.00204 1.00154 0.98939
1.0015 0.999704 0.992616
0.995487 1.00216 0.990234
1.00058 0.995894 0.938416
0.994867 0.994776 0.963614
0.997278 0.997978 0.890734
0.994748 0.994792 0.82736
0.999541 1.00395 0.992772
0.9947 0.994828 0.830014
0.994748 0.994802 0.842422
0.998071 1.00163 0.995776
0.999834 1.00179 0.994169
0.994925 1.00206 0.988751
0.994935 0.996223 0.964184
0.996858 0.99572 0.934206
0.994725 0.9992 0.895618
0.994824 0.994816 0.83071
0.998385 1.00223 0.994675
0.999117 1.00369 0.993156
0.998111 1.00344 0.994129
1.00017 1.00352 0.990867
1.00067 1.00387 0.989989
0.999992 1.00475 0.990099
0.999864 1.005 0.990015
0.999057 1.00475 0.991346
1.00043 1.00428 0.989923
0.999656 1.00491 0.990579
1.00034 1.00459 0.989779
0.998317 1.00476 0.992231
0.996296 1.00483 0.995623
0.999379 1.00476 0.991226
1.00051 1.00454 0.989624
1.00049 1.00427 0.989852
1.00029 1.00358 0.990812
1.00042 1.00465 0.989588
0.999991 1.00402 0.990888
0.999516 1.00331 0.991875
0.999404 1.00496 0.990709
0.999534 1.00459 0.990722
0.999012 1.00406 0.992098
1.0006 1.00211 0.991879
1.0011 1.00184 0.990199
0.999486 1.00479 0.990521
0.999867 1.00477 0.990309
0.999776 1.00496 0.99006
0.999765 1.00471 0.990569
0.999998 1.00353 0.991232
0.999957 1.00418 0.99089
1.00011 1.00324 0.991434
1.00006 1.00177 0.992881
1.00019 1.0033 0.991142
1.00001 1.00182 0.992972
1.00006 0.998942 0.996402
0.999947 1.00183 0.993053
0.99995 0.998925 0.996232
1.00001 0.997076 0.997908
0.999869 0.99893 0.996058
0.999971 0.997137 0.999153
0.999969 0.997142 0.999155
1.00019 1.00169 0.993121
0.999951 1.0002 0.994698
1.00009 1.00146 0.993231
1.00008 0.997899 0.996775
0.999949 1.00007 0.994812
1.00001 1.00007 0.994741
1.00009 0.997887 0.996764
1 0.996606 0.999283
1.00009 0.997846 0.997205
0.99999 0.996662 0.998786
0.999968 0.996876 0.998242
0.999819 0.994858 0.875013
0.994672 0.99477 0.83065
0.997421 0.994886 0.967869
1.00065 0.995402 0.986715
1.00506 0.995046 0.991196
0.996367 0.995637 0.971158
1.00342 0.995984 0.987857
1.0011 0.994891 0.943316
0.999601 0.994808 0.878801
0.994695 0.994788 0.829295
0.998477 0.994844 0.975805
0.999813 0.994994 0.945005
0.997161 0.996183 0.89097
0.994724 0.994774 0.832205
1.00008 1.00321 0.991615
0.999862 1.00218 0.992769
1.00009 1.00134 0.993381
0.999908 1.00262 0.992372
0.999502 1.00342 0.992272
1.00006 1.0036 0.991134
1.00025 1.00271 0.991798
1.00035 1.00333 0.990842
1.00008 1.00276 0.99205
1.00001 1.00229 0.992454
1.00426 0.994766 0.992303
1.00471 0.994837 0.991021
1.00457 0.99529 0.990056
1.00212 0.998585 0.991244
1.00098 1.00411 0.990529
0.999583 1.00519 0.990069
1.00045 1.00197 0.992647
0.999423 1.00367 0.992306
1.00266 0.995004 0.992436
0.999743 1.00479 0.990387
0.999062 1.00423 0.991707
1.00411 0.996478 0.991001
1.00465 0.995458 0.990537
1.00098 0.99909 0.993388
0.999458 1.00524 0.991048
1.00044 0.99525 0.992416
1.00241 0.996871 0.99375
0.999925 1.00154 0.99377
0.998891 1.00492 0.990168
0.999322 1.005 0.990382
0.999041 1.00514 0.991348
0.99473 0.994854 0.851355
0.999812 0.994897 0.892743
0.999968 0.99491 0.937223
1.00005 1.00392 0.990452
1.00216 1.00143 0.98942
1.00105 1.00004 0.991964
1.0015 0.999617 0.99294
0.999818 0.994862 0.895514
0.999424 0.994873 0.935823
0.994857 0.994805 0.960955
0.995543 1.00261 0.990847
0.997136 0.995718 0.877721
0.994648 0.994789 0.834114
0.994737 0.994799 0.838409
0.999265 1.00345 0.992553
0.994697 0.994826 0.83903
0.994776 0.994806 0.841964
0.997783 1.00123 0.996239
0.99945 1.00169 0.994107
0.995097 0.999512 0.991312
0.995027 0.995728 0.962686
0.997118 0.998939 0.944893
0.995328 0.999239 0.881023
0.994851 0.99481 0.840325
0.997267 1.00354 0.99606
0.994793 0.994849 0.85071
0.994812 0.994794 0.840149
0.995062 1.00221 1.00011
0.994979 0.998347 0.970654
0.994907 0.999939 0.945052
0.995286 0.997311 0.874023
0.994943 0.994854 0.843307
0.999369 1.00327 0.992852
0.998389 1.00349 0.994385
0.996618 1.00399 0.996618
1.00038 1.00433 0.989922
1.00046 1.0045 0.989782
0.999749 1.00479 0.990406
0.997961 1.00464 0.992664
1.00039 1.00462 0.989643
0.999374 1.00476 0.991179
0.996315 1.00467 0.996057
0.995179 1.00497 0.997681
0.99621 1.00497 0.996077
0.999911 1.00422 0.990874
1.00039 1.00475 0.989544
1.00003 1.00392 0.990824
0.999291 1.00345 0.992534
0.99954 1.00463 0.990786
0.999487 1.00496 0.990729
0.999035 1.00421 0.992193
0.999293 1.00455 0.991474
0.997421 1.00492 0.994137
1.00225 0.998034 0.992433
1.00046 1.0019 0.992196
1.00095 1.00196 0.99089
1.00411 1.00148 0.986875
1.00075 1.0039 0.990309
1.00042 1.00206 0.991405
0.999873 1.0046 0.990352
0.999789 1.00497 0.989808
1 1.00458 0.990342
0.999935 1.00495 0.990067
1.00003 1.00409 0.990668
1.00002 1.0046 0.990565
1.00014 1.00342 0.991217
1.00012 1.00183 0.992762
1.00023 1.00309 0.991437
1.00012 1.00176 0.992887
1.00014 0.998965 0.996243
1.00003 1.00178 0.992989
1.00005 0.998947 0.996046
1.00007 0.997135 0.997773
0.999954 0.998911 0.995937
0.999997 0.997098 0.998531
0.999977 0.997119 0.999143
1.00021 1.00226 0.99224
1.00004 1.00034 0.994456
1.00012 1.00173 0.992941
1.00007 0.997957 0.996719
0.999961 1.00017 0.994702
1.00004 1.00153 0.993239
1.00002 0.996577 0.999284
1.00007 0.997902 0.996775
0.999953 1.00008 0.994813
1.00009 0.997871 0.996758
1 0.996625 0.999283
0.999973 0.996645 0.999282
0.994682 0.994805 0.835005
0.999813 0.994861 0.885168
0.994765 0.994792 0.840084
0.994695 0.994778 0.82898
0.996224 0.995209 0.968802
1.00355 0.994926 0.988337
0.999989 0.994911 0.940373
0.999656 0.994842 0.894258
0.994726 0.994803 0.818348
0.998455 0.99493 0.975106
1.00122 0.996033 0.932159
0.997355 0.99841 0.889597
0.994745 0.994773 0.825869
0.995456 0.99489 0.968368
0.997111 0.997393 0.933494
0.994787 0.998473 0.874726
0.994817 0.99483 0.827619
1.00024 1.00434 0.990773
0.999942 1.00317 0.991731
0.999903 1.00209 0.992883
0.999456 1.00326 0.992443
1.00053 1.00401 0.98984
0.999959 1.00358 0.991308
1.00003 1.00309 0.991609
1.00077 1.00285 0.990881
1.00044 1.00334 0.990913
1.00008 1.00265 0.991931
1.00241 0.994806 0.99281
1.00414 0.995383 0.991208
1.00456 0.995649 0.990236
1.00094 0.998402 0.993615
1.00015 1.00512 0.990845
0.999267 1.00455 0.991599
0.999745 1.00492 0.990213
0.999905 1.00507 0.989894
1.00007 0.995241 0.992765
0.999769 1.00496 0.990257
0.999516 1.00517 0.991255
1.00239 0.996378 0.994171
1.00055 1.0003 0.993605
0.997624 0.997059 0.993263
0.99794 0.997385 1.00027
0.998113 1.00333 0.99415
0.999909 1.00473 0.990232
0.998862 1.00512 0.991929
0.994828 0.99483 0.856086
0.994726 0.994847 0.848007
0.999808 0.994888 0.87835
0.999195 1.00293 0.992361
0.999263 1.00154 0.994022
0.997792 1.00056 0.996705
0.994678 0.994821 0.838347
0.997183 0.997367 0.934598
0.995012 0.995817 0.963201
0.995435 0.997298 0.994071
0.994799 0.998004 0.897132
0.994788 0.994809 0.841835
0.994857 0.994819 0.840913
0.997474 1.00338 0.996318
0.994798 0.994842 0.853561
0.9948 0.994791 0.840605
0.995318 1.00182 0.999058
0.994986 0.997825 0.972451
0.995226 0.998789 0.933913
0.994872 0.994851 0.840776
0.994863 0.999446 0.88178
0.99519 1.0049 0.999232
0.994789 0.994827 0.852503
0.994845 0.99481 0.845198
0.994809 0.994831 0.828408
0.994905 0.999443 0.991066
0.994899 0.998969 0.948699
0.995559 0.998189 0.887617
0.998794 1.00373 0.99465
0.996924 1.00436 0.996127
0.994981 1.00521 0.998723
1.00031 1.00468 0.989662
0.999288 1.00476 0.991128
0.996405 1.00473 0.996483
0.999702 1.00445 0.990798
0.996496 1.00498 0.996058
0.995405 1.00511 0.997654
0.995187 1.00528 0.997782
0.996748 1.00475 0.995453
0.999478 1.00465 0.990857
0.999545 1.00496 0.990749
0.999083 1.0044 0.992301
0.997704 1.00486 0.993996
0.999284 1.00466 0.991391
0.999056 1.00278 0.993503
1.00049 0.99874 0.994839
1.00214 1.00101 0.988905
1.00031 1.0017 0.992505
1.00152 1.00201 0.990459
1.00403 1.00217 0.986138
1.00514 1.00139 0.984655
1.00212 1.00241 0.98906
1.00326 1.00152 0.987088
1.0005 1.005 0.989214
1.00047 1.00387 0.990537
0.999709 1.00232 0.9926
1.00025 1.00443 0.990183
0.999853 1.00501 0.989806
1.0002 1.00434 0.990161
1.00003 1.00497 0.990074
1.00014 1.00395 0.990678
1.00013 1.00221 0.992367
1.0002 1.00341 0.991201
1.00014 1.00182 0.992749
1.00015 0.998969 0.996184
1.00014 1.00172 0.992892
1.00013 0.998951 0.9959
1.00011 0.997194 0.997671
1.00006 0.998932 0.995736
1.00005 0.997135 0.998441
1.00001 0.997111 0.999102
1.00044 1.00236 0.991572
1.0001 1.00066 0.993769
1.00026 1.00221 0.992238
1.00011 0.998036 0.996577
1.00003 1.00034 0.994309
1.00011 1.00174 0.992765
1.00004 0.996618 0.999268
1.00007 0.997939 0.996727
0.999964 1.00014 0.994705
1.00002 0.9966 0.999284
1.00006 0.997908 0.996774
1 0.996612 0.999284
0.994825 0.994834 0.847805
0.994695 0.994827 0.84543
0.99981 0.994849 0.884891
1.0009 1.00271 0.99068
0.994818 0.994803 0.847163
0.994762 0.994789 0.840017
0.994717 0.994791 0.83878
0.998849 0.995377 0.974124
0.999475 0.995181 0.943526
0.997043 0.995942 0.875709
0.994732 0.994793 0.832038
0.996645 0.994893 0.965405
0.997185 0.999428 0.943561
0.995172 0.999472 0.87812
0.99481 0.994819 0.832073
0.994898 0.994878 0.960783
0.994879 0.998864 0.942714
0.994941 0.999981 0.884345
0.994883 0.994849 0.842968
1 1.00473 0.990176
1.00012 1.0042 0.990564
1.00005 1.00296 0.991848
1.00064 1.00327 0.990482
1.00041 1.00412 0.990082
0.999966 1.00363 0.99148
1.00078 1.00294 0.990858
1.00047 1.00337 0.990978
0.999125 0.996167 0.992974
1.00253 0.996007 0.994523
1.0002 1.00507 0.989616
1.00106 0.999946 0.99344
0.999756 1.00518 0.991159
1.00002 1.00505 0.990137
0.99974 1.00475 0.99024
0.996644 0.996371 0.993987
0.999035 1.00479 0.992107
0.998548 1.00335 0.994331
0.997871 0.998114 1.00045
0.999616 1.0048 0.991141
0.995771 0.99962 0.990136
0.995972 1.00187 0.999262
0.996773 1.00468 0.995357
0.998974 1.00434 0.992618
0.994784 0.994804 0.858181
0.994831 0.994827 0.854624
0.994722 0.994842 0.844617
0.997566 1.00342 0.99659
0.995405 1.00105 0.998019
0.994807 0.994835 0.856272
0.994891 0.999918 0.945121
0.995031 0.997335 0.969877
0.994903 0.999538 0.880752
0.994799 0.994787 0.840943
0.994856 0.994849 0.838276
0.995408 1.00472 0.998968
0.994791 0.994828 0.852394
0.994844 0.994811 0.84756
0.994825 1.0001 0.994651
0.9948 0.994822 0.832602
0.994869 0.997338 0.941811
0.995236 0.998604 0.890314
0.994883 1.00379 0.998369
0.994814 0.994844 0.856913
0.994798 0.994801 0.847843
0.994711 0.994768 0.832767
0.994988 0.999987 0.883939
0.994902 1.0003 0.97784
0.995284 0.998585 0.934853
0.997518 1.00458 0.995653
0.995364 1.0052 0.998531
0.994934 1.00516 0.998472
0.999529 1.00455 0.990721
0.99666 1.00507 0.996043
0.995531 1.00513 0.997629
0.996918 1.00465 0.995406
0.995252 1.00513 0.997833
0.997726 1.00184 0.997588
0.997945 1.0047 0.993846
0.999249 1.0047 0.991317
0.999082 1.00297 0.99391
0.998988 1.00342 0.991931
0.998777 0.999419 0.997171
1.00207 1.00062 0.989823
1.00403 1.00305 0.984413
1.00495 1.00224 0.983793
1.00209 1.00203 0.990006
1.00406 1.00233 0.98544
1.00518 1.00142 0.984674
1.00413 1.00058 0.986952
1.00481 1.00125 0.98502
1.00058 1.00505 0.988624
1.00205 1.00261 0.988913
1.00246 1.00153 0.987302
1.00023 1.00466 0.989618
1.0002 1.00504 0.989368
1.00022 1.0038 0.990769
0.999919 1.00506 0.989805
1.00024 1.0043 0.990171
1.00021 1.00271 0.991721
1.00024 1.00388 0.990689
1.00013 1.00224 0.992354
1.00012 0.999153 0.995399
1.00018 1.00186 0.992736
1.00018 0.998968 0.995513
1.00002 0.99718 0.999016
1.00014 0.99896 0.995578
1.00008 0.997194 0.998353
1.00005 0.997151 0.999045
1.00044 1.00249 0.991409
1.00024 1.00099 0.993213
1.0004 1.00241 0.991703
1.00016 0.998173 0.996358
1.00014 1.00066 0.993701
1.00027 1.00222 0.992233
1.00006 0.996645 0.999236
1.00011 0.998011 0.996591
1.00004 1.00034 0.994163
1.00004 0.996595 0.999274
1.00008 0.997919 0.996734
1.00002 0.996622 0.999284
0.994798 0.994834 0.856636
0.994823 0.994838 0.847917
0.994687 0.994835 0.845521
1.0008 1.00275 0.990826
1.00067 1.003 0.990623
1.00088 1.00255 0.991046
0.994861 0.994811 0.844533
0.994818 0.994794 0.847519
0.994758 0.994781 0.839982
0.996854 0.994871 0.966834
0.997223 0.996286 0.932393
0.99478 0.999928 0.895727
0.994825 0.994824 0.82714
0.995003 0.994904 0.964112
0.995134 0.99981 0.939308
0.994875 0.999097 0.881639
0.994874 0.994844 0.840268
0.994887 0.995574 0.96067
0.99488 0.998225 0.944379
0.995533 0.998513 0.88738
0.994845 0.994819 0.831054
1.0001 1.00356 0.990953
1.00026 1.00447 0.989973
1.00032 1.00407 0.990354
1.00074 1.00318 0.990433
1.00022 1.00424 0.990329
1.0008 1.00302 0.990835
0.996165 0.995701 0.994726
0.997367 0.998746 1.00072
0.999815 1.00451 0.990246
0.999028 1.00257 0.994491
0.9991 1.00462 0.992278
0.99937 1.00468 0.991202
0.998623 1.00471 0.992656
0.995396 0.999752 0.990085
0.996506 1.00499 0.995951
0.996454 1.00217 0.998464
0.998552 1.00445 0.993192
0.995147 1.00218 0.986246
0.995697 1.00427 0.995917
0.996316 1.00494 0.996541
0.994813 0.994819 0.859103
0.994784 0.994811 0.85815
0.994833 0.994824 0.853168
0.995359 1.00439 0.998654
0.994779 1.00044 0.990975
0.994794 0.994829 0.852294
0.994822 0.999025 0.941941
0.995506 0.998186 0.876468
0.994841 0.99481 0.849902
0.994818 0.994834 0.828003
0.994889 1.00364 0.998854
0.994811 0.994845 0.857845
0.994809 0.994797 0.848206
0.994896 0.999682 0.97508
0.994733 0.994773 0.826727
0.995265 0.999883 0.880112
0.994989 0.997307 0.947224
0.994935 1.00513 0.992233
0.994787 0.994839 0.856792
0.994778 0.994797 0.841048
0.994656 0.994767 0.841276
0.994755 0.998131 0.874488
0.994994 0.999673 0.943072
0.9949 1.00078 0.969091
0.995718 1.00514 0.998325
0.995078 1.00495 0.998482
0.997259 1.00215 0.998004
0.99714 1.00456 0.99536
0.995345 1.00509 0.997842
0.996472 1.00351 0.997539
0.999059 0.997036 0.999997
0.999097 1.00325 0.994308
1.00112 1.00245 0.99131
1.00243 1.00412 0.986686
1.0019 1.0003 0.990836
1.00408 1.0029 0.984656
1.0044 1.00413 0.982872
1.00492 1.00182 0.983971
1.00513 1.00172 0.98415
1.0049 1.00231 0.983763
1.0043 1.00241 0.984751
1.00509 1.00081 0.985932
1.00512 1.00154 0.984584
1.00226 1.00284 0.987749
1.00397 1.00072 0.987203
1.00442 1.00114 0.985389
1.00036 1.00494 0.98873
1.00089 1.00494 0.988605
1.00194 1.00287 0.98876
1.00032 1.00328 0.991073
1.00046 1.00453 0.989621
0.999975 1.00508 0.98952
1.00033 1.00415 0.99018
1.00027 1.00266 0.99172
1.00007 0.9995 0.995143
1.00018 1.0022 0.992342
1.00014 0.999181 0.995381
1.00001 0.997316 0.998985
1.00018 0.998995 0.995504
1.00007 0.997214 0.998333
1.00006 0.997189 0.99901
1.00047 1.00293 0.991187
1.00034 1.00122 0.993021
1.00052 1.00242 0.991477
1.00021 0.998376 0.996058
1.00024 1.001 0.993298
1.00039 1.00244 0.991836
1.00007 0.996718 0.999186
1.00016 0.998144 0.996376
1.00017 1.00065 0.993632
1.00006 0.996647 0.999246
1.00011 0.997989 0.996605
1.00004 0.996609 0.99928
0.994818 0.994841 0.856421
0.994797 0.994846 0.856523
0.994818 0.994851 0.848115
1.00037 1.00415 0.989845
1.00108 1.00392 0.989705
1.00067 1.00282 0.990976
1.00059 1.00321 0.990537
1.00055 1.0027 0.991139
1.00037 1.00314 0.991003
1.00037 1.0025 0.991689
0.994829 0.994791 0.839823
0.994859 0.994814 0.846988
0.994814 0.994802 0.847887
0.994863 0.994839 0.837662
0.994979 0.994856 0.961112
0.994866 0.999944 0.935184
0.994958 0.997489 0.89373
0.994888 0.996063 0.959642
0.994888 0.99929 0.933197
0.995024 0.998267 0.890598
0.994832 0.994809 0.840659
0.996133 0.996464 0.962632
0.994933 0.99929 0.934808
0.995231 0.997969 0.874358
0.994745 0.994798 0.828969
0.998697 1.00478 0.992456
0.999948 1.00386 0.991078
1.00029 1.0046 0.989769
1.00077 1.0033 0.990386
0.994943 0.999945 0.990328
0.996864 1.00267 0.997552
0.999236 1.00485 0.991265
0.998524 1.00468 0.992696
0.996539 1.00522 0.996524
0.99855 1.00413 0.99313
0.996335 1.00487 0.996527
0.996616 1.00192 0.982988
0.994983 1.00519 0.996427
0.996497 1.00438 0.99625
0.994746 1.00375 0.983119
0.995491 1.00363 0.998769
0.99478 0.994804 0.85835
0.994818 0.994819 0.861936
0.994783 0.99482 0.858108
0.994837 1.00352 0.999295
0.994917 0.998899 0.978606
0.994805 0.994844 0.858826
0.995561 0.99778 0.935715
0.995215 0.998263 0.892789
0.994817 0.994801 0.848551
0.994726 0.994795 0.83278
0.994903 1.00442 0.993019
0.994797 0.994837 0.856699
0.99476 0.994791 0.841008
0.994902 1.00035 0.9693
0.99469 0.994776 0.830787
0.995238 0.999412 0.877248
0.995165 0.999366 0.932482
0.995401 1.00446 0.986863
0.994827 0.994826 0.84816
0.99466 0.994761 0.831936
0.996924 0.996037 0.892468
0.99485 0.999679 0.942542
0.99488 0.999988 0.962326
0.995222 1.00494 0.998779
0.996217 1.00302 0.998146
0.996549 0.999254 1.00122
0.995359 1.00506 0.997479
0.997568 0.998521 1.00017
1.00193 0.99818 0.994301
1.00327 1.00134 0.990693
1.00319 1.00366 0.986161
1.00339 1.00442 0.983864
1.00394 1.00285 0.984898
1.00453 1.00407 0.982742
1.00433 1.0043 0.982776
1.00508 1.00058 0.985029
1.00507 1.00111 0.984752
1.00489 1.00202 0.983956
1.00507 1.00164 0.984803
1.00506 1.00163 0.984205
1.00474 1.00247 0.983731
1.00459 1.00083 0.986489
1.00487 1.00092 0.985745
1.00503 1.00165 0.984495
1.00129 1.00504 0.987562
1.00231 1.00299 0.987819
1.00383 1.00081 0.987454
1.00034 1.00394 0.990129
1.00068 1.00493 0.988753
1.00111 1.00482 0.988586
1.00005 0.999851 0.99483
1.00038 1.00314 0.99107
1.00063 1.00449 0.989623
1.0003 1.00265 0.991719
1.00008 0.999538 0.995119
0.999952 0.997538 0.998936
1.00015 0.999203 0.995362
1 0.997349 0.998972
1.00004 0.997215 0.998997
1.00008 1.0049 0.989806
1.00064 1.00342 0.990443
1.00041 1.00165 0.992507
1.00049 1.00286 0.991176
1.00023 0.998653 0.99574
1.00034 1.00124 0.993016
1.0005 1.00244 0.991544
1.00008 0.996868 0.999114
1.0002 0.998369 0.996077
1.00023 1.00102 0.99338
1.00007 0.996716 0.999202
1.00016 0.998128 0.996394
1.00006 0.996624 0.999256
0.994791 0.994824 0.852135
0.994803 0.994837 0.857395
0.994806 0.994839 0.8564
1.00044 1.00432 0.989851
1.00073 1.00363 0.989859
1.00004 1.0025 0.99096
1.00006 1.00447 0.989927
1.00115 1.00359 0.990476
1.00066 1.00332 0.990449
1.00043 1.00283 0.991233
1.00045 1.00311 0.991022
1.00039 1.00267 0.991723
0.999434 1.00408 0.991813
0.994761 0.99479 0.842509
0.994817 0.994787 0.840332
0.994859 0.994808 0.849385
0.994844 0.994818 0.841205
0.995501 0.998515 0.876622
0.994873 0.996399 0.958132
0.994871 0.998946 0.94438
0.994981 0.996866 0.959427
0.994898 0.996476 0.945947
0.994849 0.99961 0.882873
0.994763 0.994783 0.827657
0.994786 0.997727 0.963749
0.994859 0.999981 0.945412
0.994728 0.999453 0.894819
0.994681 0.994766 0.840559
0.99821 1.00342 0.994452
0.998532 1.00466 0.992566
0.99995 1.00387 0.991205
0.997005 1.00167 0.979437
0.994813 1.00524 0.997025
0.998471 1.0042 0.993065
0.996111 1.00508 0.996517
0.996794 1.0042 0.996197
0.995246 1.00335 0.999036
0.995179 1.00165 0.982307
0.995784 1.0021 0.999074
0.995743 0.999838 0.98814
0.99482 0.994822 0.855096
0.994784 0.994812 0.858321
0.994822 0.994819 0.86478
0.994907 1.00342 0.993431
0.994871 0.999934 0.966463
0.994807 0.99484 0.856579
0.995022 0.9998 0.94287
0.994744 0.99985 0.894481
0.994742 0.994776 0.841037
0.994719 0.994777 0.819914
0.995601 1.00424 0.987556
0.994814 0.994834 0.848216
0.994685 0.994767 0.830399
0.994985 0.999698 0.963288
0.997238 0.998086 0.890608
0.995188 0.999705 0.937594
0.995022 1.00363 0.985406
0.994684 0.9948 0.835664
0.999404 0.994838 0.895237
0.996949 0.997358 0.933806
0.994869 0.996973 0.965213
0.995636 1.00382 0.998272
0.99628 0.999419 1.0012
0.998818 1.00246 0.995982
0.996067 0.999962 1.00031
1.00077 0.998719 0.994845
1.00328 0.999906 0.989165
1.00398 1.0031 0.985624
1.00342 1.00436 0.983764
1.00419 1.00176 0.984888
1.00474 1.00407 0.982615
1.00433 1.00393 0.982871
1.00483 1.00057 0.98557
1.00522 0.998141 0.987066
1.00519 0.999948 0.985375
1.00506 1.00047 0.985121
1.00511 1.0012 0.984813
1.00508 1.00115 0.98469
1.00488 1.00218 0.98394
1.00508 1.00142 0.9851
1.00481 1.00154 0.984855
1.005 1.00155 0.984262
1.00324 1.00292 0.986589
1.00418 1.00119 0.98646
1.00468 1.00108 0.985556
1.00044 1.00485 0.988676
1.00139 1.00489 0.987592
1.00244 1.00314 0.987887
1.00002 1.00061 0.994955
1.00051 1.00389 0.990117
1.00099 1.00492 0.988777
0.999937 0.997864 0.997274
1.00004 0.999996 0.995099
1.00045 1.00302 0.991066
1.00008 0.999585 0.995094
0.999952 0.99758 0.998915
1 0.997363 0.998959
1.00011 1.00506 0.989869
1.00049 1.00461 0.989701
0.999972 1.00492 0.989768
1.00046 1.00224 0.991857
1.00045 1.00376 0.990433
1.0002 0.998995 0.995454
1.00041 1.00162 0.992517
1.0006 1.00275 0.991163
1.00007 0.997082 0.99904
1.00023 0.998634 0.995756
1.00033 1.00127 0.99301
1.00008 0.996856 0.999136
1.0002 0.998351 0.996096
1.00007 0.996703 0.999217
0.994791 0.994825 0.856997
0.9948 0.994829 0.852023
0.994792 0.994845 0.858401
1.0005 1.00248 0.990895
1.00019 1.00468 0.989856
1.00059 1.00345 0.990018
1.00046 1.0045 0.989738
1.00067 1.00246 0.990999
1.00066 1.00323 0.99121
1.00205 1.0024 0.989156
0.998958 1.00485 0.99107
1.00048 1.00307 0.991041
1.00008 1.00263 0.991755
0.999326 1.00397 0.991756
0.998478 1.00524 0.992469
0.994685 0.994804 0.836223
0.994786 0.994794 0.842062
0.994811 0.994783 0.84074
0.99475 0.994778 0.838476
0.994834 0.999561 0.882231
0.995318 0.998441 0.934825
0.994879 0.997534 0.958649
0.995092 0.99736 0.963894
0.994697 0.994773 0.830114
0.994877 0.997792 0.938558
0.995304 0.999932 0.880144
0.994885 0.996184 0.967564
0.99489 0.999927 0.945824
0.99744 0.996985 0.888846
0.999339 0.998948 0.996933
0.998263 1.00334 0.994413
0.998421 1.00449 0.992671
0.99535 1.00117 0.982125
0.99492 1.00299 0.999294
0.997125 1.00377 0.996155
0.99684 1.00196 0.999099
0.995219 0.999018 0.98825
0.996743 0.99868 0.992086
0.994724 0.994858 0.845938
0.99482 0.994812 0.857209
0.994786 0.994813 0.858259
0.995311 1.00416 0.987934
0.994862 0.999973 0.963192
0.994802 0.99484 0.848416
0.994838 0.999904 0.933988
0.996889 0.995589 0.877093
0.994712 0.994784 0.839985
0.994828 1.00401 0.985439
0.994695 0.994824 0.845988
0.999363 0.994797 0.87985
0.994853 0.996224 0.960994
0.997018 0.999195 0.943953
0.994793 1.00339 0.990433
0.999801 0.994857 0.875293
0.999723 0.994898 0.945754
0.994875 0.994846 0.960252
0.995969 0.999442 1.00124
0.998251 1.00158 0.995684
1.00168 1.00323 0.990424
0.999606 0.999416 0.995391
1.00275 1.00059 0.989019
1.00432 0.999452 0.987556
1.00338 1.00436 0.983665
1.00408 1.00197 0.984868
1.00497 0.997186 0.987884
1.00433 1.0035 0.982965
1.00471 1.00035 0.985602
1.00524 0.996431 0.988675
1.0052 0.996415 0.989098
1.00522 0.998384 0.986909
1.00523 0.998033 0.987198
1.00521 0.999886 0.985488
1.00519 0.999926 0.985528
1.00506 1.00037 0.985213
1.00517 1.00139 0.984497
1.0051 1.00111 0.98481
1.00509 1.00115 0.984626
1.00481 1.001 0.985749
1.00488 1.00139 0.9851
1.00458 1.00141 0.984904
1.0016 1.00451 0.987453
1.0032 1.00298 0.986558
1.00376 1.00153 0.986435
0.999879 1.00181 0.99315
1.0009 1.00466 0.988676
1.00154 1.00481 0.987621
0.999755 0.998385 0.998703
1.00004 1.00064 0.994031
1.00069 1.00374 0.990107
0.999918 0.997839 0.99884
1.00003 1.00007 0.994697
0.999956 0.997632 0.998893
1.00139 1.00375 0.989168
1.00013 1.00492 0.989759
1.00053 1.00502 0.989233
1.00032 1.00325 0.991086
1.00038 1.00457 0.989673
1.0001 1.00478 0.98973
1.00016 0.999389 0.99514
1.00041 1.00227 0.991877
1.00027 1.00389 0.990423
1.00004 0.997296 0.998974
1.00021 0.998936 0.995469
1.00041 1.0016 0.992528
1.00007 0.997047 0.999062
1.00023 0.998622 0.99577
1.00007 0.99683 0.999159
0.994708 0.994826 0.831871
0.994809 0.994827 0.857145
0.994809 0.994833 0.851924
1.00042 1.00276 0.990874
1.00351 1.00216 0.988391
1.0009 1.00327 0.990398
1.00048 1.00449 0.989549
1.00136 1.00228 0.991032
0.99983 1.00263 0.991934
0.999486 1.0047 0.990791
1.00139 1.00283 0.989499
1.00116 1.00429 0.988989
0.99984 0.999864 0.994761
0.999812 1.0039 0.991698
0.998669 1.0052 0.992261
0.999601 0.995591 0.873397
0.994663 0.994785 0.829958
0.994796 0.994797 0.841965
0.994712 0.994781 0.8192
0.99532 0.998834 0.895906
0.99482 0.999477 0.934509
0.995587 0.995391 0.961278
0.994846 0.996106 0.966027
0.997374 0.998394 0.889034
0.995158 0.999278 0.934592
0.994879 0.997392 0.968057
0.997079 0.996836 0.933578
1.0014 0.996376 0.997421
0.999267 0.99983 0.996888
0.998374 1.00337 0.994379
0.994789 0.998816 0.988457
0.997602 1.00167 0.999097
0.997197 0.998786 0.991837
0.99766 0.996358 0.990729
0.999815 0.994881 0.88751
0.994716 0.994849 0.84432
0.99483 0.994809 0.85921
0.994862 1.00402 0.985726
0.994857 0.995595 0.959353
0.994691 0.994832 0.845964
0.997152 0.996037 0.933481
0.999374 0.994835 0.895567
0.994927 1.00167 0.987441
0.999807 0.994866 0.8855
1.00076 0.995801 0.933292
0.994895 0.994828 0.96311
0.997379 0.998076 0.989297
0.999976 0.994897 0.946446
0.995525 0.994911 0.966559
0.997943 1.00074 0.995327
1.00108 1.0012 0.990518
1.00423 0.998674 0.990049
1.00228 1.00108 0.988885
1.00414 0.999404 0.987568
1.00508 0.996114 0.989338
1.00406 1.00215 0.984851
1.00493 0.997602 0.987816
1.0052 0.995247 0.989852
1.00462 1.00012 0.985633
1.00524 0.996498 0.988622
1.00522 0.995229 0.990138
1.00519 0.995656 0.990133
1.0052 0.996301 0.989288
1.0052 0.996934 0.98879
1.00524 0.998788 0.98677
1.00521 0.998455 0.987006
1.00524 0.997933 0.987332
1.00524 1.00053 0.985175
1.00522 0.999933 0.985446
1.00518 0.999887 0.985681
1.00514 1.00129 0.984909
1.00514 1.00142 0.984545
1.00504 1.00108 0.984812
1.00287 1.00314 0.986785
1.00465 1.0012 0.985717
1.00469 1.0014 0.985098
1.00015 1.00264 0.99181
1.00171 1.00439 0.987476
1.00324 1.00282 0.986527
0.999811 0.998811 0.998487
0.999991 1.00168 0.993108
1.00126 1.00457 0.988674
0.999842 0.998395 0.997807
1.00006 1.00071 0.99404
0.999929 0.997955 0.998764
1.00266 1.00205 0.988535
1.00084 1.00386 0.989403
1.00047 1.00506 0.988909
1.00019 1.00485 0.989648
1.00034 1.00502 0.98923
1.00039 1.00402 0.990238
1.00007 1.00007 0.994646
1.00029 1.00327 0.991086
1.0002 1.00466 0.989646
1 0.997528 0.998887
1.00014 0.999369 0.995159
1.00035 1.00232 0.991897
1.00004 0.997261 0.998993
1.00022 0.998895 0.995486
1.00007 0.997024 0.999083
0.999813 0.994857 0.885186
0.994698 0.99484 0.836723
0.994818 0.994826 0.857269
1.00031 1.00321 0.990849
1.00089 1.00407 0.989349
1.00273 1.00256 0.98871
1.00462 1.00344 0.983834
1.00091 1.0036 0.989368
0.999684 1.00474 0.990524
1.00098 1.00334 0.989846
1.0006 1.00428 0.989292
1.0027 1.00127 0.987673
1.00171 0.999762 0.992522
1.00381 0.995036 0.992627
1.00048 0.999459 0.994663
0.999401 1.00436 0.992056
0.998665 0.995293 0.944338
0.999788 0.994789 0.878402
0.994655 0.994784 0.833996
0.997505 0.997587 0.875741
0.994897 0.999906 0.942925
0.994821 0.995512 0.966784
0.99488 0.997058 0.969688
0.997263 0.99923 0.945306
0.995843 0.995503 0.969594
1.00081 0.995953 0.997504
1.00067 0.996883 0.997462
0.999118 1.00043 0.99684
0.997861 0.998235 0.991687
0.998251 0.997132 0.990937
0.999957 0.994894 0.93692
0.999808 0.994879 0.892343
0.994701 0.994837 0.842799
0.994895 1.0002 0.984263
0.994906 0.994844 0.960362
0.999803 0.994852 0.885329
0.999527 0.994889 0.944233
0.996817 0.997972 0.989655
1.00078 0.994902 0.94356
0.996498 0.994895 0.964081
1.00083 0.995672 0.989467
0.99873 0.994864 0.973852
1.00032 0.99923 0.990705
1.00384 0.997388 0.990027
1.00484 0.995418 0.991286
1.00384 0.999412 0.987576
1.00494 0.996154 0.989214
1.00519 0.994912 0.990342
1.00483 0.998048 0.987748
1.0052 0.995307 0.989795
1.00522 0.994914 0.990422
1.00524 0.996581 0.98857
1.00522 0.99529 0.990099
1.0052 0.995049 0.990512
1.00519 0.99551 0.9902
1.00519 0.995882 0.989954
1.0052 0.996181 0.98948
1.00519 0.996945 0.988779
1.00522 0.997691 0.987979
1.00526 0.999629 0.986101
1.00524 0.998849 0.986747
1.00521 0.998524 0.987103
1.00526 1.00107 0.984726
1.00524 1.00059 0.985068
1.00523 0.999976 0.985402
1.00374 1.00198 0.986329
1.00499 1.00136 0.98493
1.00505 1.00144 0.984593
1.00083 1.00267 0.990626
1.00279 1.00323 0.986789
1.00437 1.00153 0.985688
0.999934 0.999593 0.998124
1.00028 1.00252 0.991794
1.00192 1.00428 0.9875
0.999899 0.999 0.99837
1.00015 1.00148 0.993064
0.99992 0.998424 0.998566
1.00422 1.00209 0.985302
1.00276 1.00177 0.988427
1.00102 1.00454 0.988105
1.00033 1.00381 0.989642
1.00048 1.00501 0.988805
1.00059 1.00457 0.989317
1.00022 1.00505 0.989226
1.00027 1.00411 0.99022
1.00009 1.00071 0.993989
0.999958 0.997953 0.998733
1.00006 0.999995 0.99467
1.00025 1.00326 0.991087
0.999998 0.997519 0.998917
1.00013 0.999328 0.995174
1.00004 0.997229 0.999013
0.999984 0.994903 0.94815
0.999829 0.994873 0.884745
0.994682 0.99483 0.831753
1.00084 1.00476 0.988299
1.00213 1.00278 0.989036
1.00175 1.00354 0.98886
1.00415 1.00357 0.984512
1.00467 1.0024 0.983986
1.00292 1.00267 0.985853
1.00017 1.00448 0.989583
1.00365 1.00112 0.9866
1.00164 0.999722 0.992719
1.00323 0.998101 0.989952
1.00439 0.995514 0.991842
1.00341 0.995854 0.992634
1.00343 0.99522 0.992835
1.0001 0.999881 0.994565
0.996055 0.994861 0.967993
0.99971 0.995984 0.940556
0.998531 0.995272 0.892977
0.997004 0.998073 0.933376
0.994884 0.997185 0.970165
0.995489 0.995986 0.975182
0.999432 0.996255 0.99241
1.00131 0.995433 0.997153
1.00002 0.997566 0.997517
0.999159 0.998443 0.991171
0.996885 0.996439 0.969023
1.00007 0.994902 0.948964
0.99981 0.994868 0.877868
0.996252 0.997771 0.989942
0.996919 0.994861 0.965202
0.999994 0.994914 0.940465
1.00023 0.994985 0.989656
0.998483 0.995102 0.97327
1.00308 0.994749 0.990997
1.00296 0.997385 0.985748
1.00333 0.996043 0.989976
1.00461 0.995259 0.991293
1.00513 0.994766 0.990901
1.0049 0.996229 0.989092
1.00519 0.994914 0.990305
1.00524 0.994899 0.990474
1.00521 0.995369 0.989738
1.00522 0.994921 0.990395
1.00524 0.99492 0.990509
1.00522 0.995331 0.99006
1.00519 0.995056 0.990484
1.00521 0.995105 0.99046
1.00519 0.99537 0.990266
1.00519 0.99576 0.990034
1.0052 0.996875 0.988984
1.00519 0.996959 0.988768
1.00522 0.997751 0.987956
1.00525 0.998913 0.986928
1.0053 1.0004 0.985301
1.00527 0.999743 0.985957
1.00524 0.998912 0.986724
1.00445 1.00104 0.986092
1.00523 1.00109 0.984756
1.00525 1.00065 0.984962
1.00138 1.00232 0.990015
1.00368 1.00218 0.986307
1.00482 1.00144 0.984948
1.00028 1.00017 0.997645
1.00092 1.00254 0.990614
1.00271 1.00331 0.986791
1.00009 0.999728 0.997935
1.00032 1.0024 0.991786
1.00001 0.999127 0.998224
1.00464 1.00195 0.984572
1.00452 1.00201 0.98544
1.0033 1.00261 0.986194
1.0027 1.0018 0.988318
1.00124 1.00428 0.9879
1.00127 1.00481 0.988202
1.0004 1.00497 0.988701
1.00055 1.00463 0.989309
1.00011 1.00145 0.993247
1.00021 1.00423 0.990202
1.00004 1.0007 0.994017
0.999912 0.998445 0.998544
0.999945 0.997878 0.998791
1.00004 0.999953 0.994695
0.999989 0.997466 0.998944
0.996959 0.994881 0.969237
0.999981 0.994884 0.936239
0.999819 0.994862 0.895024
1.00517 1.00006 0.985349
1.00262 1.00355 0.988362
1.00366 1.00362 0.98519
1.00354 1.00241 0.986142
1.00474 1.00261 0.98388
1.00427 0.999879 0.987109
1.00452 1.00157 0.985525
1.00133 0.99925 0.992916
1.00368 0.998465 0.989589
1.00428 0.995594 0.991205
1.00478 0.99546 0.990219
1.00374 0.995431 0.992845
1.0034 0.995499 0.992678
1.00318 0.995398 0.993036
0.99939 0.996276 0.990871
0.995904 0.994863 0.96632
0.99924 0.994868 0.936821
0.995031 0.996487 0.973574
0.999212 0.996077 0.994776
1.00124 0.994941 0.996758
1.00132 0.996854 0.983568
0.996897 0.995604 0.969809
0.999959 0.994903 0.936916
0.999323 0.994848 0.989892
0.998743 0.995377 0.972402
1.00221 0.995199 0.991442
1.00294 0.996967 0.986489
1.00409 0.994823 0.991362
1.00463 0.997461 0.990657
1.00438 0.995047 0.991289
1.00512 0.994784 0.99079
1.00528 0.994785 0.990475
1.00519 0.994913 0.990268
1.00523 0.994892 0.990467
1.00529 0.994888 0.990445
1.00522 0.994925 0.990368
1.00523 0.99492 0.990514
1.00523 0.994946 0.990612
1.00518 0.995062 0.990455
1.00521 0.995107 0.990441
1.00521 0.995878 0.989845
1.00518 0.995638 0.990113
1.00521 0.996717 0.989158
1.00525 0.998219 0.987678
1.00522 0.997811 0.987933
1.00525 0.998875 0.986961
1.00529 1.0001 0.985714
1.00475 1.00051 0.986131
1.00529 1.0005 0.985211
1.00527 0.999851 0.985813
1.00196 1.00145 0.989898
1.00438 1.00115 0.986098
1.00521 1.00109 0.984785
1.00055 1.00045 0.997312
1.00158 1.00202 0.990007
1.00363 1.00231 0.986287
1.00042 1.00025 0.997499
1.00106 1.00239 0.990603
1.00026 0.99991 0.997748
1.00524 1.00101 0.984635
1.00495 1.00189 0.984505
1.00479 1.00152 0.985036
1.00493 1.00193 0.98558
1.00359 1.00269 0.986006
1.00221 1.00421 0.987189
1.00151 1.004 0.987696
1.00097 1.00495 0.988222
1.00025 1.00207 0.992319
1.0004 1.00468 0.9893
1.00005 1.00137 0.993277
0.999881 0.999035 0.998317
0.99999 1.00064 0.994046
0.999903 0.998354 0.998613
0.999938 0.997812 0.998843
1.00095 0.994856 0.987943
0.996753 0.994891 0.966033
0.999964 0.994883 0.948115
1.0051 0.998635 0.987146
1.00521 0.998155 0.987433
1.00517 0.999885 0.985588
1.00413 1.002 0.986425
1.0048 1.00286 0.983772
1.00432 0.999698 0.98747
1.00513 0.996032 0.988955
1.00427 0.998455 0.989239
1.00427 0.996075 0.990568
1.00472 0.996037 0.990386
1.00516 0.995046 0.990541
1.00395 0.995588 0.991957
1.00341 0.995708 0.992754
1.00367 0.995128 0.99273
0.99997 0.996037 0.991003
0.995687 0.994857 0.96476
0.999318 0.995942 0.99724
1.00443 0.995264 0.991047
1.00116 0.996873 0.983744
0.996911 0.994983 0.967749
1.00184 0.994818 0.991862
1.00289 0.996471 0.987258
1.00412 0.994815 0.991978
1.00466 0.996656 0.990731
1.00529 0.994884 0.990702
1.00538 0.994935 0.990895
1.00512 0.994799 0.990682
1.00529 0.994815 0.990446
1.0053 0.994872 0.990445
1.00522 0.994885 0.990459
1.00528 0.994887 0.990467
1.00525 0.994892 0.99061
1.00522 0.994919 0.99052
1.00524 0.994941 0.990597
1.00522 0.995337 0.990397
1.00521 0.995108 0.990424
1.00522 0.995905 0.989827
1.00525 0.997515 0.988326
1.00521 0.996556 0.989331
1.00525 0.998146 0.987746
1.00529 0.999726 0.986074
1.00525 0.99884 0.986994
1.00529 1.00003 0.985788
1.00485 1.00029 0.98621
1.00227 1.00075 0.990022
1.00473 1.00056 0.986134
1.00529 1.0006 0.98512
1.00068 1.00053 0.997169
1.002 1.00139 0.989893
1.00429 1.00133 0.986105
1.0006 1.0005 0.997244
1.0017 1.00185 0.99
1.00051 1.00036 0.997375
1.00527 0.99943 0.986118
1.00523 1.00091 0.984785
1.00517 1.00096 0.985023
1.00517 1.00181 0.984436
1.00492 1.00139 0.985069
1.00318 1.00283 0.986713
1.00387 1.0027 0.985819
1.00201 1.00419 0.987198
1.00054 1.00272 0.991163
1.00073 1.00509 0.988241
1.00012 1.00222 0.992349
0.999936 0.999743 0.997996
1.00002 1.00139 0.993307
0.999849 0.998919 0.998405
0.999882 0.998262 0.998679
1.00429 0.994856 0.992151
1.00099 0.994856 0.985901
0.996605 0.994895 0.965066
1.00515 0.997437 0.988423
1.00509 0.998192 0.987438
1.00526 0.99686 0.988672
1.00521 0.998157 0.987413
1.00517 0.999688 0.985823
1.00523 0.995432 0.989617
1.0044 0.9996 0.987824
1.00514 0.996438 0.988895
1.00527 0.994882 0.990365
1.00463 0.996372 0.990553
1.0051 0.995118 0.990319
1.00383 0.995613 0.99216
1.00284 0.995958 0.992664
1.00036 0.995746 0.991008
1.00534 0.994917 0.990662
1.00439 0.996212 0.991209
1.00106 0.996983 0.983947
1.00408 0.994816 0.992579
1.00467 0.995883 0.990809
1.00528 0.994857 0.990769
1.00539 0.994932 0.99084
1.00533 0.994918 0.990765
1.00531 0.994844 0.990417
1.0053 0.994885 0.990459
1.00525 0.994907 0.990695
1.00528 0.994889 0.990489
1.00526 0.994892 0.990606
1.00525 0.995014 0.99073
1.00524 0.994939 0.990581
1.00523 0.99534 0.990373
1.00525 0.996796 0.98907
1.00523 0.995932 0.989809
1.00525 0.997533 0.988335
1.00531 0.999337 0.98649
1.00524 0.998072 0.987814
1.00529 0.999725 0.986098
1.00487 1.00022 0.986259
1.00529 0.999965 0.985861
1.00485 1.00029 0.986216
1.00236 1.00035 0.99182
1.00098 1.00017 0.994021
1.00231 1.00073 0.990795
1.0047 1.00061 0.986138
1.0007 1.00056 0.997141
1.00213 1.00121 0.989886
1.00064 1.00055 0.997181
1.00526 0.996619 0.989115
1.00525 0.998316 0.987404
1.00526 0.999436 0.986283
1.00524 1.00043 0.985405
1.00522 1.00082 0.984936
1.00519 1.00096 0.984981
1.00391 1.0015 0.986581
1.00504 1.00128 0.985102
1.00325 1.00251 0.986704
1.00117 1.00258 0.990194
1.00185 1.0042 0.987205
1.00047 1.00282 0.991166
1.00014 1.00046 0.997552
1.00003 1.00224 0.992378
0.999861 0.999557 0.998126
0.999837 0.998792 0.998483
1.00533 0.994882 0.990604
1.00455 0.99485 0.991909
1.00128 0.994859 0.983911
1.00523 0.995956 0.989438
1.00512 0.997375 0.98828
1.00512 0.997753 0.987736
1.00526 0.997003 0.988662
1.00521 0.99816 0.987392
1.0053 0.994969 0.990441
1.00523 0.995423 0.989621
1.00513 0.996856 0.988834
1.00526 0.994885 0.99038
1.00507 0.995188 0.990097
1.00383 0.995669 0.992368
1.0053 0.994936 0.990839
1.00535 0.994922 0.990841
1.00437 0.99686 0.991375
1.00527 0.994833 0.990824
1.0054 0.994927 0.990788
1.00533 0.994914 0.990723
1.00523 0.994956 0.990958
1.0053 0.994895 0.990472
1.00526 0.994908 0.990669
1.00526 0.994924 0.990898
1.00526 0.994891 0.990603
1.00524 0.995005 0.990709
1.00523 0.996172 0.989728
1.00523 0.995343 0.990349
1.00525 0.99682 0.989072
1.00531 0.998967 0.986901
1.00525 0.997549 0.988344
1.00531 0.999334 0.986513
1.00488 1.00018 0.986306
1.00529 0.999723 0.986122
1.00489 1.00021 0.986272
1.00246 1.00008 0.991937
1.00486 1.0003 0.986222
1.00254 1.00025 0.991712
1.00102 0.999981 0.994182
1.00073 1.00044 0.995627
1.00251 1.00067 0.991413
1.0007 1.00061 0.997124
1.00523 0.995664 0.990179
1.00524 0.997945 0.987769
1.00525 0.996427 0.989314
1.0053 0.9998 0.985939
1.00526 0.998388 0.987379
1.00526 0.999443 0.986448
1.00526 1.00043 0.985355
1.00448 1.00062 0.986471
1.00523 1.00098 0.984938
1.00403 1.00127 0.98658
1.0017 1.0019 0.989897
1.0033 1.00218 0.986698
1.001 1.00276 0.990193
1.00031 1.00099 0.997223
1.00028 1.00297 0.991177
0.999982 1.0003 0.997732
0.999792 0.999407 0.998242
1.00528 0.994867 0.990697
1.00532 0.994881 0.99059
1.00468 0.994852 0.991651
1.00525 0.99508 0.990441
1.00523 0.996018 0.989427
1.00507 0.997316 0.988143
1.00525 0.997149 0.988653
1.00528 0.994975 0.990407
1.00522 0.99542 0.989623
1.00522 0.994887 0.990394
1.00524 0.994956 0.990966
1.00529 0.994934 0.990826
1.00535 0.994928 0.991018
1.00519 0.99497 0.991074
1.00532 0.994912 0.990681
1.00523 0.994956 0.990942
1.00524 0.994955 0.990994
1.00526 0.994911 0.990643
1.00525 0.994924 0.99089
1.00523 0.995767 0.990217
1.00524 0.994996 0.990689
1.00525 0.996193 0.989721
1.00528 0.998643 0.987317
1.00525 0.996845 0.989074
1.00531 0.998961 0.986921
1.00487 1.00011 0.986412
1.00531 0.999332 0.986537
1.00489 1.00016 0.986323
1.0025 1.00005 0.9919
1.00491 1.00019 0.986284
1.00261 1.00002 0.991804
1.00108 0.999871 0.994221
1.00272 1.00014 0.991614
1.00064 1.00015 0.994432
1.0002 1.00077 0.997544
1.00523 0.995524 0.990187
1.00525 0.997165 0.988672
1.00524 0.995748 0.989992
1.00532 0.999472 0.986371
1.00525 0.997648 0.988013
1.00524 0.996239 0.989511
1.00485 1.00006 0.986437
1.0053 0.999808 0.985901
1.00526 0.998453 0.987353
1.00527 1.00042 0.985305
1.00453 1.00052 0.986465
1.00203 1.00122 0.990001
1.00413 1.00103 0.98658
1.00158 1.00208 0.989904
1.00038 1.00114 0.997128
1.00094 1.00291 0.990188
1.00024 1.00084 0.997334
0.999883 1.0001 0.997897
1.00522 0.994899 0.990924
1.00528 0.994868 0.990678
1.00532 0.99488 0.990578
1.00525 0.995085 0.990474
1.00521 0.996078 0.989417
1.00528 0.994976 0.990374
1.00521 0.994955 0.99103
1.00524 0.994952 0.990972
1.00528 0.994931 0.990814
1.00519 0.994969 0.99108
1.0052 0.994959 0.991104
1.00523 0.994954 0.990927
1.00524 0.994955 0.990986
1.00523 0.995556 0.990521
1.00524 0.994925 0.990882
1.00524 0.995764 0.990211
1.00525 0.998375 0.987664
1.00527 0.996206 0.989716
1.00528 0.99863 0.987332
1.00483 1.00001 0.986586
1.00531 0.998955 0.986941
1.00488 1.0001 0.986426
1.00248 1.00014 0.991821
1.00491 1.00014 0.986339
1.00264 1 0.991753
1.00112 0.999888 0.994138
1.00275 0.999962 0.991681
1.00074 0.999924 0.994493
1.00029 1.00034 0.994665
1.00522 0.99513 0.990769
1.00525 0.996863 0.988982
1.00524 0.995378 0.990289
1.00531 0.99883 0.987066
1.00525 0.997287 0.988526
1.00525 0.995828 0.989804
1.00495 0.999864 0.986503
1.00532 0.999243 0.986521
1.00526 0.997354 0.988257
1.00229 1.00048 0.990235
1.00485 1.00003 0.986432
1.0053 0.999819 0.985864
1.0046 1.00043 0.986459
1.00197 1.0013 0.990014
1.00047 1.00107 0.997137
1.00146 1.00225 0.989912
1.00037 1.00106 0.997156
1.0001 1.00073 0.997474
1.0052 0.99493 0.991039
1.00522 0.994908 0.990886
1.00527 0.99487 0.990659
1.00525 0.995095 0.990507
1.00522 0.994959 0.991043
1.00521 0.994956 0.991036
1.00524 0.99495 0.990979
1.00519 0.99497 0.991085
1.00521 0.99496 0.991091
1.00524 0.995883 0.990205
1.00524 0.994957 0.990977
1.00522 0.995779 0.990276
1.00524 0.997825 0.988318
1.00524 0.995777 0.990204
1.00524 0.998369 0.987673
1.0048 0.999869 0.986779
1.00527 0.998628 0.987346
1.00484 0.999995 0.986596
1.00249 1.00021 0.990284
1.00489 1.00008 0.986441
1.00261 1.0001 0.990936
1.00096 0.999954 0.99715
1.00278 0.999969 0.991607
1.00082 0.999878 0.994419
1.00043 0.999963 0.994747
1.00522 0.995075 0.990915
1.00525 0.996382 0.989545
1.00522 0.995213 0.990674
1.00529 0.998411 0.987476
1.00524 0.996868 0.988957
1.00525 0.995232 0.990391
1.00495 0.999633 0.986661
1.00531 0.998825 0.987076
1.00524 0.997407 0.98838
1.00247 0.999961 0.990457
1.00493 0.999777 0.986526
1.00531 0.999006 0.986672
1.00063 1.0007 0.997212
1.0023 1.00047 0.990243
1.00486 1 0.986426
1.00191 1.00135 0.990029
1.00048 1.00099 0.997128
1.00034 1.001 0.99719
1.00523 0.994958 0.991013
1.00519 0.99493 0.991041
1.00523 0.994916 0.990848
1.00524 0.995928 0.990127
1.00523 0.994958 0.991062
1.0052 0.994956 0.991042
1.00522 0.994959 0.991079
1.00523 0.995875 0.990207
1.00526 0.997899 0.988294
1.00522 0.99599 0.990032
1.00524 0.998117 0.988003
1.00477 0.999504 0.987143
1.00524 0.998351 0.987682
1.00481 0.99986 0.986782
1.00246 1.00015 0.990398
1.00485 0.999984 0.986606
1.0025 1.00019 0.990289
1.00092 1 0.997136
1.00264 1.00009 0.990174
1.00083 0.999954 0.995794
1.00052 0.999847 0.994699
1.00526 0.995056 0.990798
1.00527 0.996313 0.989668
1.00522 0.995037 0.990929
1.00529 0.998506 0.987399
1.00524 0.996466 0.989458
1.00523 0.995296 0.990579
1.00492 0.999562 0.986792
1.00529 0.998642 0.98727
1.00524 0.99687 0.988933
1.00256 0.999792 0.990494
1.00492 0.999622 0.986672
1.00531 0.998823 0.987087
1.00081 1.00027 0.997244
1.00249 0.999937 0.990462
1.00492 0.999687 0.986546
1.00064 1.00068 0.997178
1.00231 1.00046 0.99025
1.00043 1.00096 0.997143
1.00523 0.995944 0.990101
1.00523 0.995001 0.990981
1.00518 0.994932 0.991043
1.00525 0.997824 0.988373
1.00524 0.995904 0.990147
1.00523 0.994956 0.991082
1.00523 0.995864 0.990209
1.00526 0.997871 0.988303
1.00473 0.999358 0.987357
1.00524 0.998414 0.987688
1.00479 0.999606 0.987038
1.00244 1.00004 0.990547
1.00482 0.999848 0.986785
1.00244 1.00016 0.990404
1.00087 1.00002 0.997131
1.00249 1.00018 0.990293
1.0009 1.00002 0.997129
1.00092 0.999916 0.99419
1.00527 0.996288 0.98964
1.00526 0.995014 0.990832
1.00528 0.998308 0.987649
1.00527 0.996312 0.989675
1.00522 0.994998 0.990943
1.00487 0.999728 0.986812
1.00528 0.998514 0.987394
1.00524 0.996551 0.989371
1.00258 0.999845 0.990437
1.0049 0.999674 0.986729
1.00529 0.998878 0.987064
1.00095 1.00001 0.997203
1.00258 0.999787 0.990494
1.0049 0.999604 0.986683
1.00079 1.00031 0.997235
1.00251 0.999929 0.990465
1.00065 1.00067 0.997146
1.00524 0.997864 0.988307
1.00523 0.995994 0.990069
1.00523 0.995059 0.99095
1.0047 0.999294 0.987483
1.00525 0.997814 0.98838
1.00523 0.995886 0.990167
1.00526 0.997847 0.988311
1.00475 0.999351 0.987327
1.00235 0.999992 0.990734
1.0048 0.999708 0.986933
1.00242 1.00005 0.990554
1.00085 1.00002 0.997147
1.00244 1.00016 0.990411
1.00086 1.00004 0.997141
1.00089 1.00002 0.997128
1.00526 0.998138 0.987868
1.00527 0.996077 0.989875
1.00526 0.994951 0.990867
1.0048 0.999662 0.987011
1.00528 0.998315 0.987642
1.00526 0.996312 0.989683
1.00253 0.999953 0.990448
1.00485 0.999745 0.986807
1.00528 0.998521 0.98739
1.00098 0.99994 0.997144
1.00259 0.99986 0.990435
1.00488 0.99978 0.986665
1.00092 1.00006 0.997221
1.00259 0.9998 0.990495
1.00081 1.00031 0.997216
1.0047 0.999534 0.987303
1.00524 0.997737 0.98841
1.00523 0.996029 0.990037
1.00231 0.999921 0.990901
1.0047 0.99928 0.987469
1.00525 0.997795 0.988387
1.00477 0.99934 0.987298
1.00236 0.999968 0.990742
1.00081 1.00002 0.997164
1.0024 1.00006 0.99056
1.00084 1.00003 0.997147
1.00082 1.00006 0.997146
1.00473 0.999586 0.987201
1.00526 0.997958 0.988065
1.00527 0.995883 0.990109
1.00255 0.999997 0.99189
1.00478 0.999669 0.987012
1.00528 0.998324 0.987634
1.00093 0.999958 0.997125
1.00253 0.999972 0.990446
1.00482 0.999762 0.986803
1.00098 0.999967 0.997167
1.00259 0.999882 0.990433
1.00091 1.00008 0.997234
1.00239 0.999921 0.990819
1.00469 0.999414 0.987385
1.00524 0.997609 0.988513
1.00074 0.999987 0.997217
1.0023 0.999921 0.990897
1.00472 0.999268 0.987457
1.00235 0.999946 0.990746
1.00079 1.00001 0.997181
1.00082 1.00004 0.997155
1.00254 0.999961 0.991996
1.00473 0.999589 0.987199
1.00526 0.997776 0.988261
1.00043 0.999996 0.997611
1.00244 1 0.990587
1.00476 0.999673 0.987014
1.00094 0.999968 0.997137
1.00253 0.999991 0.990442
1.00097 0.999987 0.997188
1.00073 0.999962 0.99451
1.00241 0.999922 0.991486
1.00469 0.999293 0.987466
1.00076 0.99999 0.997223
1.0023 0.999924 0.990901
1.0008 0.999999 0.997194
1.00029 0.999989 0.99493
1.00245 0.999951 0.991386
1.00471 0.999595 0.987198
1.00062 0.999987 0.995985
1.00244 1 0.990602
1.00096 0.999977 0.99715
1.00075 0.999977 0.99722
1.0023 0.999915 0.990914
1.00073 0.999991 0.997222
1.00054 0.999973 0.996081
1.00236 0.999945 0.990806
1.00088 0.999982 0.997152
1.00077 0.999976 0.99723
1.00078 0.999978 0.997198

TENSORS stress float
0.001993 -0.000129901 0.000226488
-0.000129901 0.000891454 -3.58361e-05
0.000226488 -3.58361e-05 0.000867283
0.00619462 -6.32664e-06 0.000244388
-6.32664e-06 0.00349026 2.62669e-05
0.000244388 2.62669e-05 0.00348725
0.00170337 -6.18559e-05 9.8228e-05
-6.18559e-05 0.000714415 -1.43066e-05
9.8228e-05 -1.43066e-05 0.000680173
0.00206335 -7.50471e-05 0.000222503
-7.50471e-05 0.000909615 -2.11885e-05
0.000222503 -2.11885e-05 0.000892942
0.00204889 -0.000115223 0.000221983
-0.000115223 0.000915974 -3.17082e-05
0.000221983 -3.17082e-05 0.000894723
0.00193436 -0.000129736 0.000232786
-0.000129736 0.000856643 -3.67292e-05
0.000232786 -3.67292e-05 0.000833268
0.00169108 -0.000114234 4.1678e-05
-0.000114234 0.000622362 -1.19875e-05
4.1678e-05 -1.19875e-05 0.000522345
0.00611763 -1.44588e-05 -6.98191e-06
-1.44588e-05 0.00343307 -7.08088e-07
-6.98191e-06 -7.08088e-07 0.00343503
0.00605311 0.00016163 0.000121995
0.00016163 0.00337784 1.0296e-05
0.000121995 1.0296e-05 0.00335716
0.00591571 -9.56473e-05 5.63971e-05
-9.56473e-05 0.00329973 2.7859e-06
5.63971e-05 2.7859e-06 0.00327729
0.00176285 0.000166422 0.000234777
0.000166422 0.000739959 2.63955e-05
0.000234777 2.63955e-05 0.000736937
0.000558997 0.000234945 2.61247e-05
0.000234945 -4.74374e-05 1.7857e-05
2.61247e-05 1.7857e-05 -0.000163423
0.00172521 -3.4568e-05 0.000224391
-3.4568e-05 0.000697942 3.46696e-06
0.000224391 3.46696e-06 0.000695778
0.0013848 -2.35498e-06 5.2884e-05
-2.35498e-06 0.000511847 1.44905e-06
5.2884e-05 1.44905e-06 0.000469721
0.00146499 -6.01268e-05 -4.66963e-05
-6.01268e-05 0.000574252 8.2109e-06
-4.66963e-05 8.2109e-06 0.000528163
0.0017221 -7.65125e-05 7.42464e-05
-7.65125e-05 0.000715862 -4.3974e-06
7.42464e-05 -4.3974e-06 0.000684523
0.00170237 -4.75662e-05 0.000106191
-4.75662e-05 0.000721441 -1.48476e-05
0.000106191 -1.48476e-05 0.000683535
0.0017182 -7.28837e-05 8.75329e-05
-7.28837e-05 0.000714842 -1.13748e-05
8.75329e-05 -1.13748e-05 0.000684077
0.00174727 -0.000151415 -3.68922e-05
-0.000151415 0.000652587 4.79891e-06
-3.68922e-05 4.79891e-06 0.000561415
0.00586688 -0.00012948 0.00028411
-0.00012948 0.0032732 -1.07618e-05
0.00028411 -1.07618e-05 0.00328576
0.00200737 -5.40295e-05 0.000221712
-5.40295e-05 0.000874669 -1.57516e-05
0.000221712 -1.57516e-05 0.00086004
0.00208122 -9.65623e-05 0.000221836
-9.65623e-05 0.000926283 -2.67096e-05
0.000221836 -2.67096e-05 0.000907812
0.00167624 -0.000125044 6.29587e-05
-0.000125044 0.000596407 -9.55107e-06
6.29587e-05 -9.55107e-06 0.000507601
0.00169377 -0.000123752 5.11999e-05
-0.000123752 0.000610915 -1.13535e-05
5.11999e-05 -1.13535e-05 0.000518317
0.00188462 -0.000105253 0.000230468
-0.000105253 0.000818332 -3.32117e-05
0.000230468 -3.32117e-05 0.00079888
0.00166751 -0.000106375 3.38679e-05
-0.000106375 0.00062758 -1.28261e-05
3.38679e-05 -1.28261e-05 0.000517497
0.00204853 -0.000275644 1.59214e-05
-0.000275644 0.00066259 -7.032e-06
1.59214e-05 -7.032e-06 0.000482244
0.00610726 -2.94399e-05 -0.000242493
-2.94399e-05 0.00341743 -1.72324e-05
-0.000242493 -1.72324e-05 0.003424
0.00391065 0.000125078 -0.00012991
0.000125078 0.0020622 -1.34249e-05
-0.00012991 -1.34249e-05 0.00204177
0.00379828 2.76535e-05 -0.000125136
2.76535e-05 0.002008 -1.00188e-05
-0.000125136 -1.00188e-05 0.00198673
0.00601533 -8.36245e-05 -3.61027e-06
-8.36245e-05 0.00338286 8.38299e-08
-3.61027e-06 8.38299e-08 0.00337893
0.000512043 0.000215489 -1.56976e-06
0.000215489 -7.31857e-05 -1.02475e-06
-1.56976e-06 -1.02475e-06 -0.000188845
0.00174446 6.25768e-05 0.000227553
6.25768e-05 0.000715465 1.96503e-05
0.000227553 1.96503e-05 0.000701738
0.00187239 0.000146663 0.000231485
0.000146663 0.000824597 3.02318e-05
0.000231485 3.02318e-05 0.000801251
0.00273634 0.000196005 0.000140001
0.000196005 0.00124387 1.92143e-05
0.000140001 1.92143e-05 0.00116868
0.00529483 -0.000349581 -1.12895e-05
-0.000349581 0.00301653 7.58662e-06
-1.12895e-05 7.58662e-06 0.00294767
0.00283416 0.000261551 0.000142066
0.000261551 0.00134072 2.34323e-05
0.000142066 2.34323e-05 0.00125394
0.000503043 0.000194833 2.72885e-05
0.000194833 -7.84195e-05 2.29101e-05
2.72885e-05 2.29101e-05 -0.000191032
0.000835459 0.000210725 1.19579e-05
0.000210725 1.35514e-05 5.87096e-06
1.19579e-05 5.87096e-06 -0.000176818
0.00404248 -0.00010439 0.000150165
-0.00010439 0.00219381 1.02338e-05
0.000150165 1.02338e-05 0.0021958
0.00587695 7.7456e-05 3.67835e-06
7.7456e-05 0.0032674 -1.67159e-06
3.67835e-06 -1.67159e-06 0.00328629
0.00376206 7.96813e-05 -0.00010829
7.96813e-05 0.00196716 -4.50122e-06
-0.00010829 -4.50122e-06 0.00195497
0.00573946 5.91482e-05 0.000277663
5.91482e-05 0.00318606 3.77903e-06
0.000277663 3.77903e-06 0.0032053
0.00136193 8.32406e-05 5.58e-05
8.32406e-05 0.00049845 3.50117e-06
5.58e-05 3.50117e-06 0.000461074
0.00058058 1.0579e-05 1.57654e-05
1.0579e-05 -0.000105883 1.80786e-06
1.57654e-05 1.80786e-06 -0.000186342
0.00591401 0.000216342 0.000154281
0.000216342 0.00331717 1.43488e-05
0.000154281 1.43488e-05 0.00329294
0.00276252 6.9473e-05 0.000133253
6.9473e-05 0.00122811 8.25114e-06
0.000133253 8.25114e-06 0.00117267
0.00133085 -7.97788e-05 -6.69116e-05
-7.97788e-05 0.000492458 8.33096e-06
-6.69116e-05 8.33096e-06 0.000445602
0.00137497 -9.37247e-05 -5.92881e-05
-9.37247e-05 0.000522717 9.80893e-06
-5.92881e-05 9.80893e-06 0.000474542
0.00152924 -1.47331e-05 -3.4851e-05
-1.47331e-05 0.00061617 7.48483e-06
-3.4851e-05 7.48483e-06 0.000568693
0.00178141 -0.000155899 -0.000122341
-0.000155899 0.000666278 2.14626e-05
-0.000122341 2.14626e-05 0.000584589
0.00367987 -7.74823e-06 -0.000111768
-7.74823e-06 0.00192533 -1.94069e-06
-0.000111768 -1.94069e-06 0.00191185
0.00169443 -5.88965e-05 7.9722e-05
-5.88965e-05 0.000694898 -3.58778e-06
7.9722e-05 -3.58778e-06 0.000666995
0.00165626 -2.44278e-05 0.000109651
-2.44278e-05 0.000696105 -1.29824e-05
0.000109651 -1.29824e-05 0.000657404
0.00172736 -7.60147e-05 7.95393e-05
-7.60147e-05 0.000717526 -7.58082e-06
7.95393e-05 -7.58082e-06 0.000687306
0.00174106 -0.000103803 -2.96619e-05
-0.000103803 0.000626794 1.77368e-06
-2.96619e-05 1.77368e-06 0.000547802
0.0017265 -0.000149549 -4.25707e-05
-0.000149549 0.000653139 5.278e-06
-4.25707e-05 5.278e-06 0.000555626
0.00174968 -0.000142925 -3.16576e-05
-0.000142925 0.000644142 3.40477e-06
-3.16576e-05 3.40477e-06 0.000558236
0.00203343 -0.000274956 -8.67536e-06
-0.000274956 0.000649369 2.33051e-06
-8.67536e-06 2.33051e-06 0.000469169
0.00572112 1.98416e-05 0.00027255
1.98416e-05 0.00317347 -1.14091e-06
0.00027255 -1.14091e-06 0.00319373
0.00195315 -3.17107e-05 0.000219056
-3.17107e-05 0.000844464 -1.08129e-05
0.000219056 -1.08129e-05 0.000832585
0.00243204 1.31102e-06 4.61012e-05
1.31102e-06 0.00104807 -9.15749e-07
4.61012e-05 -9.15749e-07 0.000982961
0.00165396 -0.000101328 5.58463e-05
-0.000101328 0.000576482 -6.36595e-06
5.58463e-05 -6.36595e-06 0.000494498
0.00168463 -0.000126324 5.8643e-05
-0.000126324 0.000601396 -1.08094e-05
5.8643e-05 -1.08094e-05 0.000511332
0.00189583 -0.00017634 1.1473e-05
-0.00017634 0.000500519 -2.97015e-06
1.1473e-05 -2.97015e-06 0.000352067
0.00179611 -0.000235698 1.64431e-05
-0.000235698 0.000471621 -5.62988e-06
1.64431e-05 -5.62988e-06 0.000303625
0.00169812 -6.34041e-05 0.000208989
-6.34041e-05 0.000703207 -2.56477e-05
0.000208989 -2.56477e-05 0.000687882
0.00156062 -6.84496e-05 2.47429e-05
-6.84496e-05 0.000581804 -1.25156e-05
2.47429e-05 -1.25156e-05 0.000471017
0.00204688 -0.000296177 1.56369e-05
-0.000296177 0.000702769 -7.99325e-06
1.56369e-05 -7.99325e-06 0.000511094
0.00148435 -0.000332912 6.11172e-06
-0.000332912 0.000136581 -1.43954e-06
6.11172e-06 -1.43954e-06 -8.87426e-05
0.00635954 0.000220219 -0.000298674
0.000220219 0.00356722 -3.0301e-05
-0.000298674 -3.0301e-05 0.00357134
0.00585936 -0.000107873 -0.000212455
-0.000107873 0.00328843 -1.37775e-05
-0.000212455 -1.37775e-05 0.00328561
0.00615074 4.75006e-05 -0.000258895
4.75006e-05 0.00343455 -2.11461e-05
-0.000258895 -2.11461e-05 0.00344549
0.000476017 0.000209245 -2.48632e-05
0.000209245 -9.06784e-05 -1.84175e-05
-2.48632e-05 -1.84175e-05 -0.000208473
0.00633727 0.000211906 -2.592e-06
0.000211906 0.0035505 -2.18061e-06
-2.592e-06 -2.18061e-06 0.00355714
0.00636164 0.000161947 -8.88865e-06
0.000161947 0.0035643 -2.30184e-06
-8.88865e-06 -2.30184e-06 0.00357071
0.000428563 0.000127425 1.11841e-07
0.000127425 -0.000174602 -2.82481e-07
1.11841e-07 -2.82481e-07 -0.000276952
0.00331387 -0.00011695 -9.49386e-05
-0.00011695 0.00174718 -3.3322e-06
-9.49386e-05 -3.3322e-06 0.00171482
0.000437416 0.000198523 -6.50855e-08
0.000198523 -0.000125733 -4.18208e-07
-6.50855e-08 -4.18208e-07 -0.000241702
0.0016701 0.000196246 4.89526e-05
0.000196246 0.000641987 2.49983e-06
4.89526e-05 2.49983e-06 0.0005481
0.000862142 0.000210393 3.18417e-07
0.000210393 2.87901e-05 -9.66219e-09
3.18417e-07 -9.66219e-09 -0.000160434
0.0050078 -0.000123804 0.00018361
-0.000123804 0.00279109 1.54397e-05
0.00018361 1.54397e-05 0.00278498
0.00051565 2.0783e-05 9.77388e-06
2.0783e-05 -6.10261e-06 1.17835e-05
9.77388e-06 1.17835e-05 -6.54977e-05
0.000527461 9.73661e-05 1.59852e-05
9.73661e-05 -0.000134724 9.51219e-06
1.59852e-05 9.51219e-06 -0.00023158
0.000570373 0.000155067 2.08721e-05
0.000155067 -7.36776e-05 1.67419e-05
2.08721e-05 1.67419e-05 -0.000182664
0.00105537 0.000199061 1.46542e-05
0.000199061 -2.25873e-06 5.27255e-06
1.46542e-05 5.27255e-06 -0.000176644
0.00283713 0.000150891 0.000121942
0.000150891 0.00137884 1.6338e-05
0.000121942 1.6338e-05 0.00130988
0.000915056 0.000216777 1.36529e-05
0.000216777 6.11193e-06 6.52006e-06
1.36529e-05 6.52006e-06 -0.000180048
0.000863569 0.000214627 1.14018e-05
0.000214627 9.46151e-05 5.58601e-06
1.14018e-05 5.58601e-06 -0.000101793
0.001037 0.000299305 2.44122e-06
0.000299305 5.56359e-05 1.74688e-07
2.44122e-06 1.74688e-07 -0.000186834
0.00318138 -0.000120574 9.0801e-05
-0.000120574 0.00165828 4.19637e-06
9.0801e-05 4.19637e-06 0.00165825
0.00372271 -0.000152128 1.64838e-05
-0.000152128 0.00200528 -2.31213e-07
1.64838e-05 -2.31213e-07 0.00199584
0.00619052 4.71817e-05 -0.000288039
4.71817e-05 0.00344835 -1.3424e-05
-0.000288039 -1.3424e-05 0.0034659
0.0059543 6.80125e-05 -0.000285767
6.80125e-05 0.00331148 -8.29356e-06
-0.000285767 -8.29356e-06 0.00333132
0.00582922 8.43436e-05 1.94937e-09
8.43436e-05 0.00324645 -3.40261e-06
1.94937e-09 -3.40261e-06 0.00326208
0.00367439 2.54379e-05 -0.000120703
2.54379e-05 0.0019123 -5.81595e-06
-0.000120703 -5.81595e-06 0.00190459
0.00162884 3.67432e-05 5.76167e-05
3.67432e-05 0.00053866 1.37463e-06
5.76167e-05 1.37463e-06 0.000473451
0.00390111 0.000134173 -0.000110861
0.000134173 0.0020569 -6.16871e-06
-0.000110861 -6.16871e-06 0.002038
0.00167306 8.72368e-05 5.78944e-05
8.72368e-05 0.000563572 2.66813e-06
5.78944e-05 2.66813e-06 0.00049035
0.00579592 0.000129605 0.000281062
0.000129605 0.00323548 6.97816e-06
0.000281062 6.97816e-06 0.00324566
0.000496199 1.06604e-05 1.88075e-05
1.06604e-05 -0.000152667 7.89442e-07
1.88075e-05 7.89442e-07 -0.000230496
0.0027702 3.46177e-05 0.000132344
3.46177e-05 0.00123363 5.64148e-06
0.000132344 5.64148e-06 0.00118271
0.00106504 5.05599e-05 1.23708e-05
5.05599e-05 -2.44057e-05 9.88333e-07
1.23708e-05 9.88333e-07 -0.000154107
0.00269799 0.000112898 0.00013763
0.000112898 0.00119407 1.07939e-05
0.00013763 1.07939e-05 0.00113301
0.00111853 0.000117015 1.22231e-05
0.000117015 -3.85229e-06 2.13507e-06
1.22231e-05 2.13507e-06 -0.000148685
0.00176443 4.28491e-05 -0.000223996
4.28491e-05 0.000722086 2.40411e-06
-0.000223996 2.40411e-06 0.000721131
0.0013453 -9.66111e-06 -5.36312e-05
-9.66111e-06 0.00049333 2.28434e-06
-5.36312e-05 2.28434e-06 0.000451368
0.00150077 2.17616e-05 -2.65451e-05
2.17616e-05 0.000604342 7.38107e-06
-2.65451e-05 7.38107e-06 0.00055498
0.00133369 -9.27414e-05 -6.77676e-05
-9.27414e-05 0.000496906 9.98748e-06
-6.77676e-05 9.98748e-06 0.000449249
0.00185904 -8.32603e-05 -0.000118389
-8.32603e-05 0.000689803 1.07355e-05
-0.000118389 1.07355e-05 0.000620747
0.00183209 -0.000131937 -0.000119767
-0.000131937 0.000685401 1.81425e-05
-0.000119767 1.81425e-05 0.000609744
0.00173632 -0.000167102 -0.00012475
-0.000167102 0.000650685 2.29337e-05
-0.00012475 2.29337e-05 0.000563377
0.00201135 -0.000273535 -3.07804e-05
-0.000273535 0.000632214 1.07081e-05
-3.07804e-05 1.07081e-05 0.00045246
0.00582747 -9.67826e-05 2.23743e-06
-9.67826e-05 0.00324821 -1.75381e-06
2.23743e-06 -1.75381e-06 0.00326208
0.00161562 3.61996e-05 8.74142e-05
3.61996e-05 0.000642322 -3.94387e-06
8.74142e-05 -3.94387e-06 0.000620673
0.00114219 -6.93909e-06 -6.05636e-05
-6.93909e-06 0.000246719 1.55581e-06
-6.05636e-05 1.55581e-06 0.000179956
0.00171828 -6.57917e-05 -3.30083e-05
-6.57917e-05 0.000609654 2.39092e-06
-3.30083e-05 2.39092e-06 0.000535561
0.00391579 1.65922e-06 0.000215605
1.65922e-06 0.00209006 -1.02013e-05
0.000215605 -1.02013e-05 0.00207948
0.00223637 -0.000146545 -3.80621e-05
-0.000146545 0.000979973 2.39083e-06
-3.80621e-05 2.39083e-06 0.000881758
0.00175144 -0.000125473 -2.91572e-05
-0.000125473 0.000637937 2.34233e-06
-2.91572e-05 2.34233e-06 0.000555899
0.00189416 -0.000173772 -9.70389e-06
-0.000173772 0.000495654 1.69918e-06
-9.70389e-06 1.69918e-06 0.000348607
0.00201576 -0.000296936 -7.40321e-06
-0.000296936 0.000679367 2.21383e-06
-7.40321e-06 2.21383e-06 0.000486907
0.00191494 -0.000241027 -6.55908e-06
-0.000241027 0.000545361 1.7091e-06
-6.55908e-06 1.7091e-06 0.000377003
0.00151048 -0.000333999 5.17006e-07
-0.000333999 0.000153774 -1.71194e-07
5.17006e-07 -1.71194e-07 -7.09923e-05
0.000532774 1.14197e-05 1.9442e-05
1.14197e-05 -0.00013351 -9.25684e-07
1.9442e-05 -9.25684e-07 -0.000208211
0.00157494 4.86096e-06 4.67087e-05
4.86096e-06 0.000520665 -2.63743e-06
4.67087e-05 -2.63743e-06 0.000448145
0.00172952 -5.10972e-05 1.16875e-05
-5.10972e-05 0.000389063 -8.32478e-07
1.16875e-05 -8.32478e-07 0.00027071
0.00173679 -0.000135305 1.17404e-05
-0.000135305 0.000392484 -1.92189e-06
1.17404e-05 -1.92189e-06 0.000255197
0.00177532 -0.00020377 1.42812e-05
-0.00020377 0.000433736 -4.05957e-06
1.42812e-05 -4.05957e-06 0.000277115
0.00182344 -0.000239324 5.36525e-07
-0.000239324 0.000229132 -3.4467e-07
5.36525e-07 -3.4467e-07 6.28232e-05
0.00549667 0.000156149 0.000174072
0.000156149 0.00309589 -1.27789e-05
0.000174072 -1.27789e-05 0.00307969
0.00150825 -0.000306514 4.9681e-06
-0.000306514 0.000106968 -1.12212e-06
4.9681e-06 -1.12212e-06 -9.90504e-05
0.000347123 -0.000154817 2.07749e-05
-0.000154817 -0.000173751 -1.82284e-05
2.07749e-05 -1.82284e-05 -0.00027147
0.000846835 -0.000219617 1.21064e-05
-0.000219617 1.51162e-05 -8.38682e-06
1.21064e-05 -8.38682e-06 -0.000177565
0.0015169 -0.000366906 6.99611e-06
-0.000366906 0.000214847 -2.17613e-06
6.99611e-06 -2.17613e-06 -3.41275e-05
0.00175996 -0.000408175 2.76541e-06
-0.000408175 0.000187823 1.39822e-06
2.76541e-06 1.39822e-06 -3.83602e-05
0.000473526 -0.000104108 1.88524e-05
-0.000104108 -5.21986e-05 -1.47041e-05
1.88524e-05 -1.47041e-05 -0.000133408
0.000459091 -8.3846e-05 -7.65634e-07
-8.3846e-05 -1.63616e-05 -5.07783e-06
-7.65634e-07 -5.07783e-06 -0.000210132
0.00637684 0.000232634 -0.000310074
0.000232634 0.0035803 -2.97229e-05
-0.000310074 -2.97229e-05 0.00358395
0.00626668 0.000145503 -0.000279724
0.000145503 0.00350446 -2.64769e-05
-0.000279724 -2.64769e-05 0.00351426
0.000429113 0.000123629 -1.85782e-05
0.000123629 -0.000176022 -1.16422e-05
-1.85782e-05 -1.16422e-05 -0.00027848
0.00530846 -0.000177447 -0.000164793
-0.000177447 0.00298271 -1.1723e-05
-0.000164793 -1.1723e-05 0.00296568
0.000455492 0.000172858 -2.33382e-05
0.000172858 -0.00010521 -1.71917e-05
-2.33382e-05 -1.71917e-05 -0.000203999
0.000416576 0.000183835 -2.09776e-05
0.000183835 -0.000135967 -1.69313e-05
-2.09776e-05 -1.69313e-05 -0.000253181
0.000834155 0.000205807 -1.29795e-05
0.000205807 1.22137e-05 -6.24517e-06
-1.29795e-05 -6.24517e-06 -0.000175248
0.00466796 -0.000144293 1.11165e-05
-0.000144293 0.00258787 -7.15863e-07
1.11165e-05 -7.15863e-07 0.00257883
0.000546452 7.03611e-06 1.40076e-06
7.03611e-06 1.67769e-05 5.81687e-07
1.40076e-06 5.81687e-07 -3.98043e-05
0.00166775 0.000134035 5.93097e-05
0.000134035 0.00056908 4.72369e-06
5.93097e-05 4.72369e-06 0.000485259
0.00163044 0.000190889 5.85179e-05
0.000190889 0.000582571 4.92187e-06
5.85179e-05 4.92187e-06 0.000485982
0.00102292 0.000197592 8.75983e-08
0.000197592 -1.61601e-05 -2.63783e-07
8.75983e-08 -2.63783e-07 -0.000191019
0.000510212 0.000138648 -3.27292e-07
0.000138648 -5.35383e-05 -2.21061e-07
-3.27292e-07 -2.21061e-07 -0.000139447
0.000904812 0.000213673 7.07472e-07
0.000213673 6.21228e-06 9.07834e-08
7.07472e-07 9.07834e-08 -0.000179075
0.000815325 0.000207757 2.88276e-07
0.000207757 6.20899e-05 -8.22112e-07
2.88276e-07 -8.22112e-07 -0.000132084
0.00117755 0.000316969 2.14484e-07
0.000316969 0.000137677 -3.31866e-07
2.14484e-07 -3.31866e-07 -0.000107643
0.000537468 8.90457e-05 1.70394e-05
8.90457e-05 -5.02762e-06 1.41913e-05
1.70394e-05 1.41913e-05 -8.18405e-05
0.000575886 -2.55134e-05 3.90412e-06
-2.55134e-05 3.38597e-05 9.79228e-06
3.90412e-06 9.79228e-06 -1.01342e-05
0.00119359 0.000127438 3.07997e-06
0.000127438 0.000434321 6.07537e-06
3.07997e-06 6.07537e-06 0.000262779
0.00110109 0.00017631 1.37658e-05
0.00017631 -9.30779e-07 4.12434e-06
1.37658e-05 4.12434e-06 -0.000166279
0.000988895 0.000214353 1.46609e-05
0.000214353 -1.4411e-06 6.16033e-06
1.46609e-05 6.16033e-06 -0.000183333
0.00163918 0.000328059 4.49232e-06
0.000328059 0.000171393 5.44676e-07
4.49232e-06 5.44676e-07 -4.00573e-05
0.000782892 0.000214117 8.91527e-06
0.000214117 0.000113251 5.74263e-06
8.91527e-06 5.74263e-06 -8.32111e-05
0.00143369 0.000357225 3.6945e-06
0.000357225 0.000206523 2.12918e-07
3.6945e-06 2.12918e-07 -3.6705e-05
0.00113466 0.000299254 3.87394e-06
0.000299254 0.000171101 1.05335e-06
3.87394e-06 1.05335e-06 -8.01099e-05
0.00139622 0.000399878 -5.96374e-06
0.000399878 0.000191697 -3.12794e-06
-5.96374e-06 -3.12794e-06 -7.97857e-05
0.00276252 -0.000126531 5.00341e-05
-0.000126531 0.00139474 3.28766e-06
5.00341e-05 3.28766e-06 0.00139305
0.0030478 -0.000147508 1.17636e-05
-0.000147508 0.00158051 -8.18384e-07
1.17636e-05 -8.18384e-07 0.00157286
0.00341277 -0.000175144 -6.69869e-05
-0.000175144 0.00181854 -3.74283e-06
-6.69869e-05 -3.74283e-06 0.00180233
0.00044147 -7.2125e-05 1.35862e-05
-7.2125e-05 -5.71067e-05 -1.3102e-05
1.35862e-05 -1.3102e-05 -0.000125039
0.00484145 0.000178746 0.000137669
0.000178746 0.00271392 -1.29711e-05
0.000137669 -1.29711e-05 0.00269066
0.00633764 0.000201814 -0.000311093
0.000201814 0.00355212 -2.51337e-05
-0.000311093 -2.51337e-05 0.00356039
0.00600228 8.40011e-05 -0.000285412
8.40011e-05 0.00333843 -1.15324e-05
-0.000285412 -1.15324e-05 0.00335702
0.000508924 9.52805e-05 -1.97462e-05
9.52805e-05 -0.000149395 -5.28533e-06
-1.97462e-05 -5.28533e-06 -0.000236798
0.000493661 4.26748e-05 -1.93045e-05
4.26748e-05 -0.000154078 -2.68395e-06
-1.93045e-05 -2.68395e-06 -0.000235238
0.00577408 -8.4194e-06 -0.00027466
-8.4194e-06 0.00320331 -2.14658e-06
-0.00027466 -2.14658e-06 0.00322421
0.00573017 1.13679e-05 -2.7327e-07
1.13679e-05 0.00317784 -8.09164e-07
-2.7327e-07 -8.09164e-07 0.00319864
0.000479062 7.65911e-07 -1.08238e-07
7.65911e-07 -0.000165862 9.63681e-08
-1.08238e-07 9.63681e-08 -0.00024186
0.0016137 3.6913e-05 5.77464e-05
3.6913e-05 0.000525784 2.41425e-06
5.77464e-05 2.41425e-06 0.000459248
0.0010283 5.39976e-05 -7.49984e-08
5.39976e-05 -4.84735e-05 -1.81846e-07
-7.49984e-08 -1.81846e-07 -0.000178829
0.000469885 8.08685e-05 -3.96553e-07
8.08685e-05 -0.000171304 -3.84519e-07
-3.96553e-07 -3.84519e-07 -0.000264168
0.00105935 0.000117878 -2.21806e-07
0.000117878 -3.99091e-05 -1.32548e-07
-2.21806e-07 -1.32548e-07 -0.000185688
0.000473249 -3.05267e-05 1.93712e-05
-3.05267e-05 -0.000171132 -7.50115e-07
1.93712e-05 -7.50115e-07 -0.000244727
0.00102827 2.12401e-05 1.21045e-05
2.12401e-05 -3.92753e-05 4.82154e-07
1.21045e-05 4.82154e-07 -0.000165641
0.0010683 8.32897e-05 1.19755e-05
8.32897e-05 -2.83495e-05 1.7602e-06
1.19755e-05 1.7602e-06 -0.000164324
0.00164459 8.48632e-05 -6.95835e-07
8.48632e-05 6.66007e-05 -1.28981e-07
-6.95835e-07 -1.28981e-07 -5.0922e-05
0.00112689 0.000147826 1.29199e-05
0.000147826 2.31767e-06 2.94006e-06
1.29199e-05 2.94006e-06 -0.000152766
0.00173126 0.000194055 9.65617e-07
0.000194055 0.000110898 -5.55666e-07
9.65617e-07 -5.55666e-07 -3.39718e-05
0.00575093 -5.76367e-05 -0.000279944
-5.76367e-05 0.00319561 1.94493e-06
-0.000279944 1.94493e-06 0.00321344
0.00130148 -0.000148541 -5.52989e-05
-0.000148541 0.000477642 6.30225e-06
-5.52989e-05 6.30225e-06 0.000433228
-0.000263906 -4.42892e-06 -1.25115e-05
-4.42892e-06 -0.000612259 1.99909e-06
-1.25115e-05 1.99909e-06 -0.000702136
0.00182034 -5.83603e-05 -0.00011719
-5.83603e-05 0.000665985 7.57451e-06
-0.00011719 7.57451e-06 0.000600022
0.00587674 0.000317698 -7.40211e-06
0.000317698 0.00334915 5.32415e-06
-7.40211e-06 5.32415e-06 0.00328743
0.00288626 -0.000232447 -0.000127316
-0.000232447 0.00137162 2.35658e-05
-0.000127316 2.35658e-05 0.00127909
0.00186088 -0.000107638 -0.000118948
-0.000107638 0.000694734 1.4368e-05
-0.000118948 1.4368e-05 0.000623181
0.00186572 -0.000169816 -2.93326e-05
-0.000169816 0.00047417 5.50137e-06
-2.93326e-05 5.50137e-06 0.000328796
0.00201127 -0.000244752 -2.95418e-05
-0.000244752 0.000604819 9.04554e-06
-2.95418e-05 9.04554e-06 0.000436523
0.00200968 -0.000299143 -2.84061e-05
-0.000299143 0.000672229 1.14912e-05
-2.84061e-05 1.14912e-05 0.000478762
0.00153959 -0.000335284 -4.68637e-06
-0.000335284 0.000172955 1.10593e-06
-4.68637e-06 1.10593e-06 -5.12919e-05
0.000473895 5.81833e-06 -3.54023e-08
5.81833e-06 -0.000167596 1.81679e-07
-3.54023e-08 1.81679e-07 -0.000243279
0.00170593 -7.81536e-05 -3.19401e-05
-7.81536e-05 0.000604554 3.64996e-07
-3.19401e-05 3.64996e-07 0.000534125
0.00134465 -4.67978e-05 -9.19812e-06
-4.67978e-05 0.000154143 5.2192e-07
-9.19812e-06 5.2192e-07 3.1374e-05
0.00185318 -0.000136524 -7.38311e-06
-0.000136524 0.000463932 1.16378e-06
-7.38311e-06 1.16378e-06 0.000326653
0.0057517 0.000148227 2.60966e-06
0.000148227 0.00325115 4.96784e-07
2.60966e-06 4.96784e-07 0.00323525
0.0016423 -0.000147793 1.39454e-06
-0.000147793 0.000635333 4.29287e-07
1.39454e-06 4.29287e-07 0.000526752
0.00133773 -0.000253212 1.34111e-06
-0.000253212 0.000319731 -1.0364e-06
1.34111e-06 -1.0364e-06 0.000124543
0.00181776 -0.000205634 -7.56118e-06
-0.000205634 0.000459491 1.84195e-06
-7.56118e-06 1.84195e-06 0.000302477
0.00179061 -0.000240662 -1.46177e-06
-0.000240662 0.000204738 1.74944e-07
-1.46177e-06 1.74944e-07 4.14871e-05
0.00150377 -0.000365057 8.81274e-07
-0.000365057 0.000211133 -2.22984e-07
8.81274e-07 -2.22984e-07 -3.67454e-05
0.00166143 -0.000313124 5.28992e-07
-0.000313124 0.000202557 -1.83254e-07
5.28992e-07 -1.83254e-07 -2.95423e-06
0.00179723 -0.000409313 7.02286e-07
-0.000409313 0.000215102 8.47684e-08
7.02286e-07 8.47684e-08 -1.06872e-05
0.000525111 -0.000109123 3.71791e-07
-0.000109123 -2.16373e-05 6.27133e-07
3.71791e-07 6.27133e-07 -0.000106837
0.00066125 -0.00011506 1.93255e-07
-0.00011506 9.88581e-05 -3.58129e-09
1.93255e-07 -3.58129e-09 -9.25918e-05
0.00101232 -2.29591e-05 1.20935e-05
-2.29591e-05 -4.18612e-05 -7.94948e-07
1.20935e-05 -7.94948e-07 -0.000168615
0.0017899 -8.93637e-05 1.06784e-05
-8.93637e-05 0.0004272 -1.28833e-06
1.06784e-05 -1.28833e-06 0.000301985
0.00171792 -8.42141e-05 -6.00413e-07
-8.42141e-05 0.000132075 2.06287e-07
-6.00413e-07 2.06287e-07 1.00812e-05
0.00168939 -0.000191236 9.65366e-07
-0.000191236 0.000120905 6.59147e-07
9.65366e-07 6.59147e-07 -2.22779e-05
0.00174222 -0.000284592 1.77222e-06
-0.000284592 0.000212775 -1.1796e-07
1.77222e-06 -1.1796e-07 2.99966e-05
0.0019312 -0.00028318 4.12187e-07
-0.00028318 0.000165398 3.82667e-07
4.12187e-07 3.82667e-07 2.24991e-05
0.000459385 -0.000138276 1.94661e-05
-0.000138276 -7.98562e-05 -1.73707e-05
1.94661e-05 -1.73707e-05 -0.000173532
0.00181907 -0.00037475 9.30801e-07
-0.00037475 0.000180194 1.18307e-06
9.30801e-07 1.18307e-06 -1.48188e-05
0.000585355 -0.000201159 8.22985e-06
-0.000201159 -7.92526e-05 -7.57164e-06
8.22985e-06 -7.57164e-06 -0.000272426
0.00126031 -0.000360048 9.54022e-06
-0.000360048 0.000148434 -3.36239e-06
9.54022e-06 -3.36239e-06 -0.000116223
0.00192819 -0.000462981 2.36808e-06
-0.000462981 0.000351701 6.62648e-07
2.36808e-06 6.62648e-07 8.48506e-05
0.00211132 -0.000444939 -2.54408e-06
-0.000444939 0.000351895 3.55995e-06
-2.54408e-06 3.55995e-06 0.000150415
0.000705265 -0.000185306 1.14918e-06
-0.000185306 0.00012396 -5.78036e-06
1.14918e-06 -5.78036e-06 -0.000100425
0.000579727 -7.55061e-05 -3.30965e-07
-7.55061e-05 4.55939e-05 -4.90567e-06
-3.30965e-07 -4.90567e-06 -0.000102203
0.00113352 -0.000245593 -2.11235e-06
-0.000245593 0.000410984 -9.40357e-08
-2.11235e-06 -9.40357e-08 0.000139501
0.000457499 0.000102806 -1.79665e-05
0.000102806 -0.000172376 -8.90976e-06
-1.79665e-05 -8.90976e-06 -0.000270191
0.00430999 -0.00019207 -0.000109132
-0.00019207 0.00238249 -7.69387e-06
-0.000109132 -7.69387e-06 0.00236104
0.000413369 -8.91021e-06 -4.30315e-06
-8.91021e-06 -5.78028e-05 -1.12863e-05
-4.30315e-06 -1.12863e-05 -0.000114161
0.000413356 0.000153764 -1.98268e-05
0.000153764 -0.000162323 -1.46676e-05
-1.98268e-05 -1.46676e-05 -0.00027208
0.00099199 0.000196446 -1.52637e-05
0.000196446 -2.92822e-05 -5.79615e-06
-1.52637e-05 -5.79615e-06 -0.000204636
0.000469881 0.000130387 -2.20544e-05
0.000130387 -8.07832e-05 -1.58519e-05
-2.20544e-05 -1.58519e-05 -0.000163312
0.000641895 0.000193325 -9.60842e-06
0.000193325 -4.59997e-05 -7.07522e-06
-9.60842e-06 -7.07522e-06 -0.000237446
0.000920284 0.000212575 -1.37502e-05
0.000212575 2.16967e-05 -6.74494e-06
-1.37502e-05 -6.74494e-06 -0.000163011
0.00122617 0.000327641 -4.075e-06
0.000327641 0.000161644 -1.29275e-06
-4.075e-06 -1.29275e-06 -8.56617e-05
0.000500685 7.80878e-05 1.49871e-06
7.80878e-05 -2.78591e-05 9.3733e-07
1.49871e-06 9.3733e-07 -0.000101278
0.000468225 -4.58477e-05 -1.13795e-08
-4.58477e-05 -2.3788e-05 4.33867e-07
-1.13795e-08 4.33867e-07 -7.10107e-05
0.00064543 7.73508e-05 1.56337e-06
7.73508e-05 8.42682e-05 -8.26131e-08
1.56337e-06 -8.26131e-08 -7.00265e-05
0.00106052 0.000175784 -1.01933e-07
0.000175784 -2.15457e-05 -2.76165e-07
-1.01933e-07 -2.76165e-07 -0.000187745
0.000972835 0.000212043 3.47606e-07
0.000212043 -4.21165e-06 -2.00773e-07
3.47606e-07 -2.00773e-07 -0.000185911
0.00162374 0.000327377 -3.21358e-08
0.000327377 0.000160593 -8.25849e-08
-3.21358e-08 -8.25849e-08 -5.12578e-05
0.000747551 0.000205835 -7.41042e-07
0.000205835 8.80543e-05 -6.91884e-08
-7.41042e-07 -6.91884e-08 -0.000107205
0.00145316 0.000357111 -5.86822e-08
0.000357111 0.000213884 -1.48473e-07
-5.86822e-08 -1.48473e-07 -2.98722e-05
0.00107932 0.000293224 2.59356e-07
0.000293224 0.0001391 -7.649e-07
2.59356e-07 -7.649e-07 -0.000110026
0.00136503 0.000410611 -7.03507e-07
0.000410611 0.000158254 8.10542e-07
-7.03507e-07 8.10542e-07 -0.000115713
0.000544464 -4.79129e-05 -4.28596e-07
-4.79129e-05 1.44835e-05 7.98089e-06
-4.28596e-07 7.98089e-06 -2.17451e-05
0.000980819 0.000152731 5.35925e-06
0.000152731 0.000278634 4.32806e-06
5.35925e-06 4.32806e-06 8.92651e-05
0.000794684 4.26307e-05 1.57145e-06
4.26307e-05 0.000161928 5.89931e-06
1.57145e-06 5.89931e-06 4.80242e-05
0.000955003 0.00014091 1.04835e-06
0.00014091 0.000316591 1.37471e-07
1.04835e-06 1.37471e-07 8.02226e-05
0.00169821 0.000291906 2.61413e-06
0.000291906 0.000151472 -6.53176e-07
2.61413e-06 -6.53176e-07 -3.69561e-05
0.00153962 0.000351324 4.84438e-06
0.000351324 0.000182912 8.706e-07
4.84438e-06 8.706e-07 -4.85687e-05
0.00191661 0.00040238 9.58049e-07
0.00040238 0.000232657 -6.1825e-07
9.58049e-07 -6.1825e-07 2.24448e-05
0.0010334 0.000258481 5.15677e-06
0.000258481 0.000167206 2.3917e-06
5.15677e-06 2.3917e-06 -6.51317e-05
0.00200023 0.000491438 -2.4846e-06
0.000491438 0.000432895 -1.32307e-06
-2.4846e-06 -1.32307e-06 0.000164994
0.00140144 0.000395081 -3.2373e-06
0.000395081 0.000268374 -3.20501e-06
-3.2373e-06 -3.20501e-06 -2.91729e-05
0.00160799 0.000459655 -1.03617e-06
0.000459655 0.000204089 -1.17641e-06
-1.03617e-06 -1.17641e-06 -7.20026e-05
0.000573656 2.79967e-05 2.33907e-06
2.79967e-05 2.96626e-05 2.96702e-06
2.33907e-06 2.96702e-06 -3.10521e-05
0.000494762 -3.49883e-05 7.46612e-07
-3.49883e-05 -3.70343e-05 5.81685e-06
7.46612e-07 5.81685e-06 -6.07113e-05
0.0025781 -0.000117005 3.29992e-05
-0.000117005 0.00127352 3.58537e-06
3.29992e-05 3.58537e-06 0.00127448
0.00270471 -0.000134823 5.58585e-06
-0.000134823 0.00136095 -6.13541e-07
5.58585e-06 -6.13541e-07 0.00135688
0.00293016 -0.000158 -4.17354e-05
-0.000158 0.00151025 -3.31047e-06
-4.17354e-05 -3.31047e-06 0.00149933
0.000424938 -5.01561e-05 9.75476e-06
-5.01561e-05 -6.11954e-05 -1.12409e-05
9.75476e-06 -1.12409e-05 -0.000118178
0.00420527 0.000152598 0.000117686
0.000152598 0.00231077 -9.70422e-06
0.000117686 -9.70422e-06 0.00229671
0.000514961 -7.43287e-05 -1.17334e-06
-7.43287e-05 -1.53708e-05 2.40391e-07
-1.17334e-06 2.40391e-07 -8.65783e-05
0.00507408 0.000148792 -6.03198e-06
0.000148792 0.00284351 -8.55184e-07
-6.03198e-06 -8.55184e-07 0.0028281
0.000502901 0.000106295 -1.93385e-05
0.000106295 -0.000148972 -7.10751e-06
-1.93385e-05 -7.10751e-06 -0.00024364
0.000510137 3.39966e-05 -1.84048e-05
3.39966e-05 -0.000149349 -3.46077e-06
-1.84048e-05 -3.46077e-06 -0.000231523
0.00102334 0.000118739 -1.21303e-05
0.000118739 -6.32673e-05 -2.36464e-06
-1.21303e-05 -2.36464e-06 -0.000209842
0.000993762 5.60672e-05 -1.20723e-05
5.60672e-05 -7.10845e-05 -1.28215e-06
-1.20723e-05 -1.28215e-06 -0.000201928
0.000533551 -7.65755e-06 -1.94987e-05
-7.65755e-06 -0.000135937 -7.84209e-07
-1.94987e-05 -7.84209e-07 -0.000210025
0.00581725 -9.74425e-05 -0.000286317
-9.74425e-05 0.00324147 4.7057e-06
-0.000286317 4.7057e-06 0.00325672
0.000519524 -1.61516e-06 7.15459e-08
-1.61516e-06 -0.000143557 -6.13072e-07
7.15459e-08 -6.13072e-07 -0.000217176
0.0010114 2.63341e-05 -8.7111e-08
2.63341e-05 -5.05588e-05 9.84949e-09
-8.7111e-08 9.84949e-09 -0.000177277
0.00105081 8.52761e-05 -1.65156e-07
8.52761e-05 -4.13114e-05 -1.34422e-08
-1.65156e-07 -1.34422e-08 -0.000177965
0.00163535 8.36223e-05 -4.61963e-08
8.36223e-05 6.24257e-05 1.57064e-07
-4.61963e-08 1.57064e-07 -5.52478e-05
0.00107548 0.000148746 -2.62953e-07
0.000148746 -2.74965e-05 -2.79982e-07
-2.62953e-07 -2.79982e-07 -0.00018376
0.0017074 0.000193039 -1.42289e-07
0.000193039 9.72236e-05 2.69619e-08
-1.42289e-07 2.69619e-08 -4.80474e-05
0.00100058 -2.60561e-06 1.20244e-05
-2.60561e-06 -4.94471e-05 -2.18912e-07
1.20244e-05 -2.18912e-07 -0.000175305
0.00162219 4.04639e-05 -7.40509e-08
4.04639e-05 5.87549e-05 -5.41904e-08
-7.40509e-08 -5.41904e-08 -5.36109e-05
0.00166127 0.000135717 -5.94218e-07
0.000135717 6.9655e-05 -3.83465e-07
-5.94218e-07 -3.83465e-07 -5.84921e-05
0.00187677 0.000111344 8.76676e-07
0.000111344 5.26872e-05 -2.10674e-08
8.76676e-07 -2.10674e-08 -2.16015e-05
0.00174413 0.000248681 1.97347e-06
0.000248681 0.000135947 -4.22094e-07
1.97347e-06 -4.22094e-07 -2.99758e-05
0.00198027 0.000236896 1.3627e-06
0.000236896 0.000143073 -1.40798e-06
1.3627e-06 -1.40798e-06 2.60065e-05
0.000503485 -1.45567e-06 -1.86207e-05
-1.45567e-06 -0.000146691 9.42844e-07
-1.86207e-05 9.42844e-07 -0.000224486
0.00179741 -3.47601e-05 -0.000115877
-3.47601e-05 0.00065281 5.04338e-06
-0.000115877 5.04338e-06 0.000590905
0.000924846 -4.14269e-05 -1.62896e-05
-4.14269e-05 -0.000101578 1.76277e-06
-1.62896e-05 1.76277e-06 -0.00022909
0.00194865 -0.000136654 -2.67131e-05
-0.000136654 0.00052206 4.05271e-06
-2.67131e-05 4.05271e-06 0.00038495
0.00594715 0.000137966 -0.000205067
0.000137966 0.0033707 1.94491e-05
-0.000205067 1.94491e-05 0.00335393
0.00294392 -0.000215153 -0.000133202
-0.000215153 0.00142292 1.8985e-05
-0.000133202 1.8985e-05 0.0013407
0.00202688 -0.000304708 -2.36933e-05
-0.000304708 0.000742008 1.04533e-05
-2.36933e-05 1.04533e-05 0.000541187
0.0018387 -0.000205928 -2.88642e-05
-0.000205928 0.000471691 7.27863e-06
-2.88642e-05 7.27863e-06 0.000314652
0.00175642 -0.000242043 -3.94894e-06
-0.000242043 0.000178999 2.30053e-07
-3.94894e-06 2.30053e-07 1.87962e-05
0.00181506 -0.000319757 -4.87469e-06
-0.000319757 0.000299035 1.30832e-06
-4.87469e-06 1.30832e-06 9.40229e-05
0.0014897 -0.000363388 -5.9482e-06
-0.000363388 0.000206202 1.3531e-06
-5.9482e-06 1.3531e-06 -4.06272e-05
0.00183374 -0.000410801 -9.18978e-07
-0.000410801 0.000240691 -1.37654e-06
-9.18978e-07 -1.37654e-06 1.51939e-05
0.000478899 -0.000120745 -1.74949e-05
-0.000120745 -4.69545e-05 1.57984e-05
-1.74949e-05 1.57984e-05 -0.000136883
0.000871544 -0.000148554 -7.74596e-07
-0.000148554 0.000224346 4.98357e-06
-7.74596e-07 4.98357e-06 3.18747e-05
0.000954142 -1.75781e-05 1.41107e-08
-1.75781e-05 -7.93078e-05 -6.38571e-08
1.41107e-08 -6.38571e-08 -0.00020479
0.00178722 -8.9854e-05 -7.75736e-06
-8.9854e-05 0.000423902 9.1507e-07
-7.75736e-06 9.1507e-07 0.000298861
0.0017678 -8.06571e-05 -6.55339e-07
-8.06571e-05 0.000161226 2.31426e-07
-6.55339e-07 2.31426e-07 4.37128e-05
0.00171966 -0.000191629 -1.56754e-06
-0.000191629 0.00014328 5.38872e-07
-1.56754e-06 5.38872e-07 -3.79079e-06
0.000473107 -0.000154871 4.67645e-07
-0.000154871 -7.33804e-05 1.82568e-07
4.67645e-07 1.82568e-07 -0.000168606
0.000791717 -0.00021289 -2.4695e-07
-0.00021289 4.33218e-05 -2.91286e-08
-2.4695e-07 -2.91286e-08 -0.000151505
0.00121689 -0.000355878 1.68291e-06
-0.000355878 0.000122421 -6.15962e-07
1.68291e-06 -6.15962e-07 -0.000141775
0.00177118 -0.000284196 -3.10046e-06
-0.000284196 0.000230779 8.43959e-07
-3.10046e-06 8.43959e-07 4.6128e-05
0.00197711 -0.000287518 1.71965e-06
-0.000287518 0.000187306 -4.95945e-07
1.71965e-06 -4.95945e-07 4.91927e-05
0.00197994 -0.000471809 -1.05254e-06
-0.000471809 0.000382005 -3.01267e-07
-1.05254e-06 -3.01267e-07 0.000114867
0.00184573 -0.000376347 5.088e-07
-0.000376347 0.000196563 -2.45171e-08
5.088e-07 -2.45171e-08 1.53833e-06
0.00199204 -0.000439526 8.2166e-07
-0.000439526 0.000272515 7.10613e-07
8.2166e-07 7.10613e-07 7.1242e-05
0.000688466 -0.000182709 1.29329e-07
-0.000182709 0.000108424 -2.8424e-07
1.29329e-07 -2.8424e-07 -0.000109605
0.000420617 -0.000150864 -9.51293e-07
-0.000150864 -4.51574e-05 -3.09039e-07
-9.51293e-07 -3.09039e-07 -0.000294678
0.000715057 -9.63421e-05 5.17647e-07
-9.63421e-05 0.000128102 1.19315e-07
5.17647e-07 1.19315e-07 -2.51893e-05
0.00169402 -3.61761e-05 -7.31303e-07
-3.61761e-05 0.000118405 6.92969e-08
-7.31303e-07 6.92969e-08 2.55643e-06
0.00183299 -0.000132968 -1.64146e-06
-0.000132968 0.000200142 1.03208e-06
-1.64146e-06 1.03208e-06 7.44866e-05
0.00183785 -0.000102968 2.05171e-06
-0.000102968 4.38817e-05 3.69348e-07
2.05171e-06 3.69348e-07 -3.99395e-05
0.00186569 -0.000231399 -1.53316e-06
-0.000231399 9.29789e-05 1.27049e-06
-1.53316e-06 1.27049e-06 -2.41747e-05
0.00174738 -0.000335017 -8.51006e-07
-0.000335017 8.82663e-05 2.1127e-06
-8.51006e-07 2.1127e-06 -7.58395e-05
0.0020619 -0.000310468 1.91317e-06
-0.000310468 0.000199553 -2.6795e-07
1.91317e-06 -2.6795e-07 8.67102e-05
0.00064731 -0.00021428 4.71009e-06
-0.00021428 2.13419e-05 -6.93984e-06
4.71009e-06 -6.93984e-06 -0.000181569
0.00186183 -0.00040533 -2.17405e-06
-0.00040533 0.000142769 1.69008e-06
-2.17405e-06 1.69008e-06 -2.74814e-05
0.0013112 -0.000336582 6.58008e-06
-0.000336582 0.000277412 -5.90909e-06
6.58008e-06 -5.90909e-06 1.85514e-05
0.00164753 -0.000504222 4.24784e-06
-0.000504222 0.000281311 6.53041e-07
4.24784e-06 6.53041e-07 -3.43279e-05
0.00206818 -0.00050448 1.47144e-06
-0.00050448 0.000378604 3.44201e-06
1.47144e-06 3.44201e-06 0.000120818
0.00216763 -0.000463491 -3.05949e-06
-0.000463491 0.000378204 2.55608e-06
-3.05949e-06 2.55608e-06 0.000191674
0.00065724 -6.79618e-05 1.60376e-08
-6.79618e-05 0.000107607 -4.74681e-06
1.60376e-08 -4.74681e-06 -1.8799e-05
0.00101324 -0.000251518 3.11669e-07
-0.000251518 0.000229709 -9.4892e-07
3.11669e-07 -9.4892e-07 -2.24717e-08
0.000296334 -0.000130406 -1.58887e-06
-0.000130406 -5.71298e-05 1.38159e-06
-1.58887e-06 1.38159e-06 -0.000314242
0.00168548 -0.00032265 -4.36376e-06
-0.00032265 0.000665617 1.48897e-06
-4.36376e-06 1.48897e-06 0.00039786
0.00101704 0.000175398 -1.4417e-05
0.000175398 -4.41129e-05 -4.63491e-06
-1.4417e-05 -4.63491e-06 -0.000211177
0.000395425 -5.67898e-05 3.4028e-06
-5.67898e-05 -6.16276e-05 -1.00579e-05
3.4028e-06 -1.00579e-05 -0.000111446
0.000458703 5.84771e-05 -1.43099e-05
5.84771e-05 -5.2088e-05 -1.33841e-05
-1.43099e-05 -1.33841e-05 -0.000120021
0.000150284 4.6239e-05 -1.10267e-06
4.6239e-05 -0.000214533 -5.68776e-06
-1.10267e-06 -5.68776e-06 -0.000362837
0.000950849 0.000209672 -1.49093e-05
0.000209672 -1.0561e-05 -6.6739e-06
-1.49093e-05 -6.6739e-06 -0.000192102
0.0016108 0.000326757 -4.43957e-06
0.000326757 0.000151406 -5.36468e-07
-4.43957e-06 -5.36468e-07 -6.08285e-05
0.000664671 0.000195522 -6.3214e-06
0.000195522 3.33162e-05 -4.32172e-06
-6.3214e-06 -4.32172e-06 -0.000159207
0.00129155 0.000310448 -5.85758e-06
0.000310448 0.000273463 -3.35305e-06
-5.85758e-06 -3.35305e-06 2.28952e-05
0.00146669 0.000356263 -3.76174e-06
0.000356263 0.000218357 -7.3392e-07
-3.76174e-06 -7.3392e-07 -2.57942e-05
0.00132419 0.000418048 2.13228e-06
0.000418048 0.000123328 3.22442e-06
2.13228e-06 3.22442e-06 -0.000152114
0.000458664 -5.5003e-05 -2.56807e-06
-5.5003e-05 -3.42413e-05 7.64564e-07
-2.56807e-06 7.64564e-07 -7.2113e-05
0.000696976 0.000165858 4.69527e-08
0.000165858 0.000118472 -8.12884e-07
4.69527e-08 -8.12884e-07 -7.68257e-05
0.000609195 2.19712e-05 6.03978e-07
2.19712e-05 5.19682e-05 4.35693e-07
6.03978e-07 4.35693e-07 -5.70536e-05
0.000777835 0.000130356 1.61906e-06
0.000130356 0.00020703 -5.24238e-07
1.61906e-06 -5.24238e-07 -2.63441e-05
0.00168288 0.000290753 -6.45723e-07
0.000290753 0.000142365 -7.23024e-07
-6.45723e-07 -7.23024e-07 -4.63284e-05
0.00152456 0.000351071 -3.11418e-08
0.000351071 0.000173247 -1.32378e-07
-3.11418e-08 -1.32378e-07 -5.88482e-05
0.00188901 0.000399673 2.95205e-07
0.000399673 0.000217948 2.35588e-07
2.95205e-07 2.35588e-07 8.07922e-06
0.00102809 0.000261312 1.69469e-06
0.000261312 0.000168662 2.53622e-07
1.69469e-06 2.53622e-07 -6.33565e-05
0.00189726 0.000474456 -7.35869e-07
0.000474456 0.000376108 6.70044e-08
-7.35869e-07 6.70044e-08 0.000110405
0.00133303 0.000391218 -1.87389e-07
0.000391218 0.000224886 -1.59832e-06
-1.87389e-07 -1.59832e-06 -7.35788e-05
0.00169156 0.00046032 -3.62589e-06
0.00046032 0.000257279 1.43094e-06
-3.62589e-06 1.43094e-06 -1.42482e-05
0.000502273 -4.3859e-05 2.97666e-07
-4.3859e-05 -2.33901e-05 6.58882e-06
2.97666e-07 6.58882e-06 -5.17042e-05
0.000678333 1.59291e-05 5.55598e-07
1.59291e-05 9.5533e-05 5.17884e-06
5.55598e-07 5.17884e-06 8.63842e-06
0.000797882 0.000220529 1.83604e-06
0.000220529 0.000114276 5.97984e-07
1.83604e-06 5.97984e-07 -0.000105936
0.00135141 0.000116213 -1.70212e-06
0.000116213 0.000573393 2.81515e-06
-1.70212e-06 2.81515e-06 0.000369832
0.00132998 0.000261882 -2.20933e-06
0.000261882 0.000495281 -1.35293e-06
-2.20933e-06 -1.35293e-06 0.000251587
0.00197049 0.000357558 3.52447e-07
0.000357558 0.000206945 -2.3973e-06
3.52447e-07 -2.3973e-06 2.87804e-05
0.00186995 0.000447804 3.00039e-07
0.000447804 0.000273088 -6.44019e-07
3.00039e-07 -6.44019e-07 3.07262e-05
0.00195147 0.000438864 -1.24399e-06
0.000438864 0.000226568 -7.79305e-07
-1.24399e-06 -7.79305e-07 2.44896e-05
0.000800426 0.000315126 1.85662e-06
0.000315126 -2.03708e-05 1.36602e-06
1.85662e-06 1.36602e-06 -0.000299074
0.00212399 0.00054328 -7.79387e-07
0.00054328 0.000452204 -8.03274e-07
-7.79387e-07 -8.03274e-07 0.000180396
0.00128422 0.000435383 4.41461e-06
0.000435383 0.000135074 -2.93187e-06
4.41461e-06 -2.93187e-06 -0.000168118
0.000593401 2.31427e-05 2.4322e-06
2.31427e-05 4.04637e-05 3.25264e-06
2.4322e-06 3.25264e-06 -2.39304e-05
0.000642731 6.74676e-05 -2.07768e-07
6.74676e-05 0.00010451 1.29344e-06
-2.07768e-07 1.29344e-06 -4.60906e-07
0.000595357 3.80156e-05 2.34153e-06
3.80156e-05 4.81883e-05 2.97749e-06
2.34153e-06 2.97749e-06 -1.13282e-05
0.000553531 -1.84639e-06 -5.79678e-07
-1.84639e-06 1.84571e-05 6.8138e-09
-5.79678e-07 6.8138e-09 -4.2651e-05
0.00125365 -4.64817e-05 8.00495e-07
-4.64817e-05 0.000428549 3.27537e-06
8.00495e-07 3.27537e-06 0.00041112
0.00088684 -4.53743e-05 4.86526e-07
-4.53743e-05 0.000205682 -1.54673e-07
4.86526e-07 -1.54673e-07 0.000183827
0.000852387 -5.30262e-05 2.63173e-05
-5.30262e-05 0.000192487 8.3508e-06
2.63173e-05 8.3508e-06 0.000192369
0.00253716 -0.000114665 5.56069e-06
-0.000114665 0.00124724 -5.27989e-07
5.56069e-06 -5.27989e-07 0.00124871
0.00263273 -0.000131589 -3.70712e-05
-0.000131589 0.0013159 -3.36308e-06
-3.70712e-05 -3.36308e-06 0.00131268
0.000364789 -2.19213e-05 4.57822e-06
-2.19213e-05 -9.02553e-05 -8.64779e-06
4.57822e-06 -8.64779e-06 -0.000134966
0.00372002 0.000146348 8.53273e-05
0.000146348 0.00199952 -5.63469e-06
8.53273e-05 -5.63469e-06 0.00198917
0.00046908 -5.05887e-05 -1.13714e-06
-5.05887e-05 -3.62369e-05 3.27814e-07
-1.13714e-06 3.27814e-07 -9.39661e-05
0.00444277 0.000136651 -1.02988e-05
0.000136651 0.00245202 -1.14734e-06
-1.02988e-05 -1.14734e-06 0.00244132
0.000535941 -7.59447e-05 -1.41389e-05
-7.59447e-05 -7.04917e-06 1.33217e-05
-1.41389e-05 1.33217e-05 -8.12966e-05
0.00534524 0.000138318 -0.000182516
0.000138318 0.00300774 1.69178e-05
-0.000182516 1.69178e-05 0.00299396
0.00102617 0.000149523 -1.30872e-05
0.000149523 -5.59569e-05 -3.44036e-06
-1.30872e-05 -3.44036e-06 -0.00021329
0.00101283 8.87546e-05 -1.19848e-05
8.87546e-05 -6.55607e-05 -1.74488e-06
-1.19848e-05 -1.74488e-06 -0.000203185
0.00171021 0.000189154 -2.07021e-06
0.000189154 0.000100976 5.11129e-07
-2.07021e-06 5.11129e-07 -4.40482e-05
0.00162617 8.26253e-05 8.29731e-09
8.26253e-05 5.86631e-05 4.10452e-07
8.29731e-09 4.10452e-07 -5.91807e-05
0.00100016 3.07353e-05 -1.20754e-05
3.07353e-05 -5.91266e-05 -4.93151e-07
-1.20754e-05 -4.93151e-07 -0.000186205
0.000481133 2.90507e-05 -1.93402e-05
2.90507e-05 -0.00016816 -5.02992e-07
-1.93402e-05 -5.02992e-07 -0.000240789
0.000999673 6.26739e-07 -2.4449e-08
6.26739e-07 -5.11795e-05 -1.02299e-07
-2.4449e-08 -1.02299e-07 -0.000177092
0.00161634 4.11752e-05 -8.02265e-08
4.11752e-05 5.76638e-05 8.92539e-08
-8.02265e-08 8.92539e-08 -5.48218e-05
0.00167884 0.000133675 -6.45706e-08
0.000133675 8.12833e-05 1.54198e-07
-6.45706e-08 1.54198e-07 -4.68229e-05
0.00190401 0.000109909 -1.53346e-07
0.000109909 6.58594e-05 3.02533e-07
-1.53346e-07 3.02533e-07 -5.07739e-06
0.00171655 0.000246168 -3.60072e-07
0.000246168 0.000122994 -8.26345e-08
-3.60072e-07 -8.26345e-08 -4.29209e-05
0.00194574 0.000233734 -5.32036e-07
0.000233734 0.000124314 2.1385e-08
-5.32036e-07 2.1385e-08 7.54781e-06
0.00158634 -1.13682e-07 1.63325e-07
-1.13682e-07 4.38557e-05 4.58272e-08
1.63325e-07 4.58272e-08 -6.74131e-05
0.00192203 5.63284e-05 3.79025e-07
5.63284e-05 8.31692e-05 5.98752e-08
3.79025e-07 5.98752e-08 2.43125e-05
0.0019294 0.000171995 1.51249e-06
0.000171995 8.77016e-05 -8.69114e-07
1.51249e-06 -8.69114e-07 -4.57446e-06
0.00192035 0.000111055 6.61183e-06
0.000111055 2.48307e-05 6.49641e-07
6.61183e-06 6.49641e-07 -1.74851e-05
0.00199836 0.000302945 6.1218e-07
0.000302945 0.000188583 -1.58036e-06
6.1218e-07 -1.58036e-06 4.1867e-05
0.00187888 0.000250731 1.98504e-06
0.000250731 1.5931e-05 4.50383e-07
1.98504e-06 4.50383e-07 -7.35702e-05
0.000897385 -1.36534e-05 -1.22437e-05
-1.36534e-05 -0.000115934 6.28286e-07
-1.22437e-05 6.28286e-07 -0.000240231
0.00180742 -9.12589e-05 -2.60364e-05
-9.12589e-05 0.000434663 2.9665e-06
-2.60364e-05 2.9665e-06 0.000309729
0.00184753 -7.54958e-05 -2.73274e-06
-7.54958e-05 0.000208229 -1.778e-07
-2.73274e-06 -1.778e-07 9.54964e-05
0.00175008 -0.0001917 -3.04682e-06
-0.0001917 0.000165994 7.15373e-07
-3.04682e-06 7.15373e-07 1.50802e-05
0.000564415 -0.000171308 -2.2774e-05
-0.000171308 -1.6609e-05 1.75437e-05
-2.2774e-05 1.75437e-05 -0.000115916
0.000845245 -0.000216512 -1.03683e-05
-0.000216512 8.00369e-05 8.00124e-06
-1.03683e-05 8.00124e-06 -0.000116117
0.00118979 -0.000353764 -4.50959e-06
-0.000353764 0.000105476 2.43081e-06
-4.50959e-06 2.43081e-06 -0.000158824
0.00179999 -0.000283605 -6.30197e-06
-0.000283605 0.000248628 1.64274e-06
-6.30197e-06 1.64274e-06 6.21498e-05
0.0020229 -0.000291691 7.48177e-07
-0.000291691 0.000208971 -1.41079e-06
7.48177e-07 -1.41079e-06 7.56826e-05
0.00187483 -0.000378127 -4.38783e-07
-0.000378127 0.000214256 -1.09239e-06
-4.38783e-07 -1.09239e-06 1.92021e-05
0.00200483 -0.000477893 -3.0511e-06
-0.000477893 0.000397538 -2.10014e-06
-3.0511e-06 -2.10014e-06 0.000130672
0.00186943 -0.000432256 3.75839e-06
-0.000432256 0.000191476 -2.54366e-06
3.75839e-06 -2.54366e-06 -8.99569e-06
0.000782109 -0.000174404 -3.17861e-06
-0.000174404 0.000151366 6.03856e-06
-3.17861e-06 6.03856e-06 -5.64159e-05
0.000111101 -0.000116834 9.77195e-07
-0.000116834 -0.000233351 -9.20814e-07
9.77195e-07 -9.20814e-07 -0.000481026
0.000768729 -0.000116775 -7.12867e-07
-0.000116775 0.000160335 4.5498e-06
-7.12867e-07 4.5498e-06 2.97547e-06
0.00167377 -3.32186e-05 -9.51366e-07
-3.32186e-05 0.000104208 1.31163e-07
-9.51366e-07 1.31163e-07 -1.00778e-05
0.00181081 -0.000140585 -2.91042e-06
-0.000140585 0.000184797 4.85965e-07
-2.91042e-06 4.85965e-07 5.77671e-05
0.00188601 -0.000101358 2.69798e-06
-0.000101358 7.14527e-05 -3.23482e-07
2.69798e-06 -3.23482e-07 -6.53877e-06
0.00188303 -0.000227364 -1.99157e-06
-0.000227364 0.000104465 5.91792e-07
-1.99157e-06 5.91792e-07 -1.46076e-05
0.000770452 -0.000221227 5.93057e-07
-0.000221227 9.84293e-05 -4.6328e-07
5.93057e-07 -4.6328e-07 -0.000106688
0.00115949 -0.00032681 -1.62037e-06
-0.00032681 0.000174271 -2.9801e-07
-1.62037e-06 -2.9801e-07 -8.34252e-05
0.0016004 -0.000493407 1.87181e-06
-0.000493407 0.000267393 1.42651e-07
1.87181e-06 1.42651e-07 -4.70763e-05
0.0017658 -0.000334456 -1.42123e-06
-0.000334456 0.000103237 9.15742e-07
-1.42123e-06 9.15742e-07 -6.58155e-05
0.00198596 -0.000307857 1.67728e-06
-0.000307857 0.000146691 -5.32538e-07
1.67728e-06 -5.32538e-07 3.73845e-05
0.00195102 -0.000503131 -5.88922e-07
-0.000503131 0.000299583 4.41485e-07
-5.88922e-07 4.41485e-07 3.95423e-05
0.00189152 -0.000405675 4.85099e-09
-0.000405675 0.000163304 5.13771e-07
4.85099e-09 5.13771e-07 -6.96742e-06
0.00212066 -0.000452669 1.91077e-06
-0.000452669 0.000341434 -5.28783e-07
1.91077e-06 -5.28783e-07 0.000160297
0.00108858 -0.000263417 -1.45067e-07
-0.000263417 0.000279963 3.57636e-07
-1.45067e-07 3.57636e-07 4.22338e-05
0.00115632 -0.000281183 -7.80571e-07
-0.000281183 0.000348635 3.3715e-08
-7.80571e-07 3.3715e-08 8.05543e-05
0.000635738 -8.12524e-05 -1.22139e-07
-8.12524e-05 9.10687e-05 5.99326e-08
-1.22139e-07 5.99326e-08 -3.74488e-05
0.000159922 -7.43235e-05 1.58195e-07
-7.43235e-05 -0.000160583 -1.3444e-06
1.58195e-07 -1.3444e-06 -0.000395059
0.00189529 -5.29652e-05 1.05698e-06
-5.29652e-05 7.65951e-05 3.4317e-07
1.05698e-06 3.4317e-07 9.09323e-06
0.00178096 -0.000165518 1.2453e-06
-0.000165518 1.41287e-05 2.88946e-07
1.2453e-06 2.88946e-07 -8.52996e-05
0.00192713 -0.000105328 6.19841e-06
-0.000105328 5.56455e-05 -5.82166e-07
6.19841e-06 -5.82166e-07 1.17582e-05
0.00192995 -0.000252655 -9.12219e-07
-0.000252655 6.19003e-05 -3.20355e-07
-9.12219e-07 -3.20355e-07 -1.38536e-05
0.00176764 -0.000357232 -2.82784e-06
-0.000357232 4.80975e-05 1.22424e-06
-2.82784e-06 1.22424e-06 -9.08008e-05
0.00202361 -0.000320844 4.12973e-06
-0.000320844 0.000145316 -1.76829e-06
4.12973e-06 -1.76829e-06 5.48762e-05
0.00128215 -0.00030892 3.5127e-06
-0.00030892 0.000318922 -4.01574e-06
3.5127e-06 -4.01574e-06 7.80402e-05
0.00182371 -0.000418935 -4.19587e-06
-0.000418935 0.000111448 7.51647e-07
-4.19587e-06 7.51647e-07 -3.85834e-05
0.00152634 -0.000474081 2.70421e-06
-0.000474081 0.000349306 -1.5738e-06
2.70421e-06 -1.5738e-06 2.23887e-05
0.00181703 -0.000567192 -3.62355e-07
-0.000567192 0.000332279 1.72062e-06
-3.62355e-07 1.72062e-06 2.03778e-06
0.00190406 -0.000511744 1.23854e-06
-0.000511744 0.000223655 4.06077e-06
1.23854e-06 4.06077e-06 -2.86026e-05
0.00221391 -0.000465408 -2.55193e-06
-0.000465408 0.000379509 -1.10893e-06
-2.55193e-06 -1.10893e-06 0.000196317
0.000518311 -6.43747e-05 -3.98267e-07
-6.43747e-05 2.30162e-05 -4.57729e-06
-3.98267e-07 -4.57729e-06 -8.40792e-05
0.000363171 -9.39568e-05 -3.46471e-06
-9.39568e-05 -2.01692e-05 -6.77459e-07
-3.46471e-06 -6.77459e-07 -0.000229029
0.00138776 -0.000339715 -1.01435e-06
-0.000339715 0.000400818 3.66134e-07
-1.01435e-06 3.66134e-07 0.000143159
0.000991295 -0.000206872 -2.91964e-06
-0.000206872 0.000342665 3.49589e-06
-2.91964e-06 3.49589e-06 7.91859e-05
0.00208105 -0.000404752 -8.72684e-06
-0.000404752 0.000889474 1.9785e-06
-8.72684e-06 1.9785e-06 0.000593104
0.000378294 -5.83915e-05 -3.06218e-07
-5.83915e-05 -8.1173e-05 -7.21268e-06
-3.06218e-07 -7.21268e-06 -0.000119459
0.00166479 0.000289253 -3.78071e-06
0.000289253 0.000132006 -6.7135e-07
-3.78071e-06 -6.7135e-07 -5.68994e-05
0.000465027 -1.13599e-06 7.07599e-07
-1.13599e-06 -2.99952e-05 -5.89348e-06
7.07599e-07 -5.89348e-06 -0.000136869
0.000520325 0.000167558 -4.16964e-06
0.000167558 1.21207e-06 -3.10905e-06
-4.16964e-06 -3.10905e-06 -0.000188293
0.000505773 0.000119968 2.09267e-06
0.000119968 3.99351e-05 5.36604e-07
2.09267e-06 5.36604e-07 -0.000190821
0.00151066 0.000351081 -4.75128e-06
0.000351081 0.00016392 -9.35569e-07
-4.75128e-06 -9.35569e-07 -6.88653e-05
0.00185992 0.000396947 2.29123e-07
0.000396947 0.000202123 1.23042e-06
2.29123e-07 1.23042e-06 -7.42444e-06
0.00111144 0.000278304 -4.53147e-06
0.000278304 0.000223274 -3.12943e-06
-4.53147e-06 -3.12943e-06 -1.34415e-05
0.00145935 0.000412632 6.49388e-07
0.000412632 0.000292514 -2.38255e-07
6.49388e-07 -2.38255e-07 -1.28849e-05
0.00179411 0.000457854 4.46952e-07
0.000457854 0.000318149 1.72298e-06
4.46952e-07 1.72298e-06 5.45408e-05
0.00178933 0.000466003 1.15564e-06
0.000466003 0.00031842 7.19464e-06
1.15564e-06 7.19464e-06 4.97223e-05
0.000492144 -3.84491e-05 9.54896e-08
-3.84491e-05 -3.11684e-05 6.99063e-08
9.54896e-08 6.99063e-08 -5.82686e-05
0.00060639 4.99705e-06 -6.05381e-07
4.99705e-06 5.56842e-05 4.89808e-07
-6.05381e-07 4.89808e-07 -3.10803e-05
0.00100509 0.000245147 6.22017e-07
0.000245147 0.000245391 6.48542e-07
6.22017e-07 6.48542e-07 2.02024e-05
0.000682862 6.25378e-05 -8.14488e-07
6.25378e-05 0.000156468 -2.82687e-07
-8.14488e-07 -2.82687e-07 -3.3654e-05
0.00065235 0.000181825 7.73311e-07
0.000181825 5.9027e-05 -1.21573e-07
7.73311e-07 -1.21573e-07 -0.000160609
0.00194447 0.000356882 -1.01287e-06
0.000356882 0.000190456 -1.39716e-06
-1.01287e-06 -1.39716e-06 1.20927e-05
0.00183124 0.000444903 5.63028e-07
0.000444903 0.000249427 1.63671e-07
5.63028e-07 1.63671e-07 7.37775e-06
0.00188845 0.000435896 1.62531e-06
0.000435896 0.000190738 2.71811e-07
1.62531e-06 2.71811e-07 -1.15608e-05
0.00132867 0.000366629 1.34056e-06
0.000366629 0.000311403 7.3734e-07
1.34056e-06 7.3734e-07 2.23245e-05
0.00197724 0.000527835 1.72847e-06
0.000527835 0.000348166 1.0764e-07
1.72847e-06 1.0764e-07 7.75376e-05
0.00166237 0.000470806 -2.3245e-06
0.000470806 0.000364861 -2.06176e-07
-2.3245e-06 -2.06176e-07 5.63544e-05
0.000676035 1.773e-05 1.1529e-06
1.773e-05 9.17889e-05 3.82207e-06
1.1529e-06 3.82207e-06 1.95943e-05
0.00117078 0.000126565 3.7312e-07
0.000126565 0.00044197 2.93161e-06
3.7312e-07 2.93161e-06 0.000294505
0.00085393 0.000275735 -2.14161e-06
0.000275735 7.63845e-05 -1.05821e-06
-2.14161e-06 -1.05821e-06 -0.000159239
0.00154834 0.000151279 -1.72324e-06
0.000151279 0.000697239 8.81796e-07
-1.72324e-06 8.81796e-07 0.000466691
0.0013678 0.00022791 -9.04947e-06
0.00022791 0.000435473 -5.39857e-06
-9.04947e-06 -5.39857e-06 0.000233843
0.00194242 0.00037151 -3.86908e-06
0.00037151 0.000165207 -2.79445e-06
-3.86908e-06 -2.79445e-06 4.21468e-06
0.0019453 0.000497176 -4.9182e-07
0.000497176 0.000274583 -1.02878e-07
-4.9182e-07 -1.02878e-07 3.28478e-05
0.00172597 0.000469755 4.64676e-06
0.000469755 5.66451e-05 -2.83527e-07
4.64676e-06 -2.83527e-07 -0.000146773
0.000627576 0.0003476 1.40003e-06
0.0003476 -8.90068e-05 -1.94758e-06
1.40003e-06 -1.94758e-06 -0.000398927
0.00144064 0.000488463 8.09625e-06
0.000488463 0.00013377 -7.17614e-07
8.09625e-06 -7.17614e-07 -0.000153974
0.000582629 1.61286e-05 -2.3695e-07
1.61286e-05 3.21623e-05 1.03108e-07
-2.3695e-07 1.03108e-07 -3.11655e-05
0.000473468 4.46505e-05 7.01818e-07
4.46505e-05 -1.1675e-05 1.91215e-06
7.01818e-07 1.91215e-06 -0.000110566
0.00046863 3.92586e-05 -6.25199e-07
3.92586e-05 -1.4811e-05 -2.1375e-07
-6.25199e-07 -2.1375e-07 -0.000109098
0.000937742 0.000125429 -7.92795e-07
0.000125429 0.000287734 -1.41824e-06
-7.92795e-07 -1.41824e-06 0.000167609
0.000665273 9.62514e-05 1.88745e-06
9.62514e-05 0.000120062 1.84192e-06
1.88745e-06 1.84192e-06 1.73393e-05
0.000555588 4.92394e-05 2.63757e-06
4.92394e-05 3.01801e-05 3.02392e-06
2.63757e-06 3.02392e-06 -2.98003e-05
0.000552806 4.92389e-06 -6.31767e-07
4.92389e-06 2.23742e-05 -1.26307e-08
-6.31767e-07 -1.26307e-08 -3.69756e-05
0.00123936 -3.19679e-05 7.76316e-07
-3.19679e-05 0.000417496 2.95596e-06
7.76316e-07 2.95596e-06 0.000402573
0.000565894 7.39243e-06 -1.50857e-06
7.39243e-06 2.23726e-05 -3.09239e-06
-1.50857e-06 -3.09239e-06 -3.63253e-05
0.00130006 -4.24769e-05 -6.64572e-06
-4.24769e-05 0.000456777 -1.4768e-06
-6.64572e-06 -1.4768e-06 0.000440244
0.000828669 -3.99802e-05 2.75408e-05
-3.99802e-05 0.000169937 8.24453e-06
2.75408e-05 8.24453e-06 0.000173689
0.00131952 -5.17191e-05 -1.09988e-05
-5.17191e-05 0.000473881 -4.61047e-06
-1.09988e-05 -4.61047e-06 0.000454657
0.00163476 -7.40607e-05 2.56104e-05
-7.40607e-05 0.000678583 1.66409e-06
2.56104e-05 1.66409e-06 0.000681384
0.00248127 -0.000110836 -3.28217e-05
-0.000110836 0.00121133 -3.82615e-06
-3.28217e-05 -3.82615e-06 0.00121367
0.000338411 7.83252e-05 -5.03772e-06
7.83252e-05 -8.55425e-05 -7.08521e-06
-5.03772e-06 -7.08521e-06 -0.000131248
0.00047265 -8.83761e-06 4.83527e-07
-8.83761e-06 -2.01527e-05 5.5238e-07
4.83527e-07 5.5238e-07 -6.94864e-05
0.00311373 0.000159098 1.827e-05
0.000159098 0.00162296 -5.19884e-06
1.827e-05 -5.19884e-06 0.00160959
0.00386475 0.000119116 -1.08811e-05
0.000119116 0.00208611 -8.30919e-07
-1.08811e-05 -8.30919e-07 0.00208201
0.000642327 -5.2836e-05 -1.0287e-05
-5.2836e-05 6.67584e-05 1.13338e-05
-1.0287e-05 1.13338e-05 7.95821e-06
0.00467768 0.000115101 -0.000158597
0.000115101 0.00258988 1.3848e-05
-0.000158597 1.3848e-05 0.00258376
0.00169027 0.00024412 -2.79796e-06
0.00024412 0.00011 2.88757e-07
-2.79796e-06 2.88757e-07 -5.60088e-05
0.00166713 0.00013409 -6.31097e-07
0.00013409 7.38082e-05 6.0801e-07
-6.31097e-07 6.0801e-07 -5.48519e-05
0.001904 0.000231651 -1.60805e-06
0.000231651 0.000100528 1.64543e-06
-1.60805e-06 1.64543e-06 -1.61979e-05
0.00194371 0.000108634 -1.23479e-06
0.000108634 8.63731e-05 9.58772e-07
-1.23479e-06 9.58772e-07 1.89034e-05
0.00161292 4.32505e-05 -2.03076e-08
4.32505e-05 5.90132e-05 2.34813e-07
-2.03076e-08 2.34813e-07 -5.3599e-05
0.00100732 5.39424e-06 -1.18823e-05
5.39424e-06 -4.73607e-05 -9.69834e-08
-1.18823e-05 -9.69834e-08 -0.00017323
0.00160448 3.46661e-06 5.41419e-08
3.46661e-06 5.73401e-05 1.38059e-07
5.41419e-08 1.38059e-07 -5.39028e-05
0.00190096 4.74893e-05 -1.02092e-06
4.74893e-05 7.05952e-05 -5.94334e-10
-1.02092e-06 -5.94334e-10 1.15977e-05
0.00192141 0.000169423 -5.66874e-07
0.000169423 8.6292e-05 1.6787e-07
-5.66874e-07 1.6787e-07 -5.52507e-06
0.0019311 0.000109663 1.23249e-06
0.000109663 2.60565e-05 2.35976e-07
1.23249e-06 2.35976e-07 -1.13112e-05
0.00196263 0.000303208 -3.73948e-07
0.000303208 0.000160424 -1.71247e-07
-3.73948e-07 -1.71247e-07 1.32049e-05
0.00190596 0.000247136 -1.34854e-07
0.000247136 3.1623e-05 5.82579e-07
-1.34854e-07 5.82579e-07 -5.29692e-05
0.00194149 -4.06562e-06 1.08439e-06
-4.06562e-06 0.000102665 2.05322e-07
1.08439e-06 2.05322e-07 4.33463e-05
0.00189572 4.96794e-05 6.42335e-06
4.96794e-05 1.79135e-05 1.35551e-07
6.42335e-06 1.35551e-07 -1.24326e-05
0.00189815 0.000173356 2.85564e-06
0.000173356 5.96308e-06 3.06115e-07
2.85564e-06 3.06115e-07 -4.64517e-05
0.00199141 0.000109482 5.18312e-06
0.000109482 3.82133e-05 6.09263e-07
5.18312e-06 6.09263e-07 2.19396e-05
0.00187429 0.000298045 9.84613e-07
0.000298045 6.76558e-05 -1.48347e-06
9.84613e-07 -1.48347e-06 -5.35983e-05
0.00206674 0.000254707 3.87694e-06
0.000254707 8.61349e-05 1.27631e-06
3.87694e-06 1.27631e-06 2.43259e-05
0.00164904 -3.02951e-05 -1.41489e-06
-3.02951e-05 8.83707e-05 -6.18248e-08
-1.41489e-06 -6.18248e-08 -2.43158e-05
0.00180879 -0.000146325 -4.13438e-06
-0.000146325 0.000181447 2.20173e-07
-4.13438e-06 2.20173e-07 5.33724e-05
0.00193596 -0.000101032 1.0096e-06
-0.000101032 0.00010071 -1.28507e-06
1.0096e-06 -1.28507e-06 2.85179e-05
0.00189227 -0.000223759 -1.41356e-06
-0.000223759 0.000111543 -2.84814e-08
-1.41356e-06 -2.84814e-08 -9.5594e-06
0.000830482 -0.000229663 -7.48059e-06
-0.000229663 0.000136943 7.60578e-06
-7.48059e-06 7.60578e-06 -7.06696e-05
0.00109972 -0.000325538 -6.97104e-06
-0.000325538 0.000128782 4.18635e-06
-6.97104e-06 4.18635e-06 -0.000129305
0.00146934 -0.000473734 1.07548e-06
-0.000473734 0.00020313 -1.91435e-07
1.07548e-06 -1.91435e-07 -0.000109019
0.00178203 -0.000333886 -9.56136e-07
-0.000333886 0.000116713 3.08415e-08
-9.56136e-07 3.08415e-08 -5.73037e-05
0.00192157 -0.000305339 9.2585e-07
-0.000305339 0.000101443 -6.01147e-07
9.2585e-07 -6.01147e-07 -4.16354e-06
0.0019145 -0.000405556 2.22461e-06
-0.000405556 0.000180214 -6.20762e-07
2.22461e-06 -6.20762e-07 9.95596e-06
0.00187079 -0.000506451 -3.23793e-07
-0.000506451 0.000241964 -2.28775e-06
-3.23793e-07 -2.28775e-06 -2.14114e-05
0.00206661 -0.000443871 6.81319e-06
-0.000443871 0.000303689 -5.08167e-06
6.81319e-06 -5.08167e-06 0.000127159
0.000770445 -0.000233763 -6.54305e-07
-0.000233763 8.89733e-05 1.42377e-06
-6.54305e-07 1.42377e-06 -0.000147166
5.1179e-06 -0.000156701 6.7166e-07
-0.000156701 -0.000365726 1.2189e-06
6.7166e-07 1.2189e-06 -0.000614616
0.00075118 -9.38385e-05 -7.58791e-07
-9.38385e-05 0.000157705 3.99744e-06
-7.58791e-07 3.99744e-06 2.67474e-05
0.000101675 -4.5375e-05 3.03074e-06
-4.5375e-05 -0.000211173 -3.17975e-06
3.03074e-06 -3.17975e-06 -0.00042588
0.00188281 -5.24684e-05 6.80799e-08
-5.24684e-05 6.98785e-05 2.45011e-07
6.80799e-08 2.45011e-07 2.24742e-06
0.00184821 -0.000167066 1.91298e-06
-0.000167066 6.0117e-05 -6.90296e-07
1.91298e-06 -6.90296e-07 -4.05371e-05
0.0019418 -0.000106017 1.74007e-06
-0.000106017 6.37499e-05 -5.31606e-07
1.74007e-06 -5.31606e-07 2.0937e-05
0.00190687 -0.000249301 -1.88033e-06
-0.000249301 5.42982e-05 3.83704e-07
-1.88033e-06 3.83704e-07 -2.50945e-05
0.0010387 -0.000279205 -1.40195e-06
-0.000279205 0.000167405 6.62554e-07
-1.40195e-06 6.62554e-07 -6.76238e-05
0.0013318 -0.00044581 2.20882e-06
-0.00044581 0.000241805 -1.03699e-06
2.20882e-06 -1.03699e-06 -7.844e-05
0.00175055 -0.000568217 -1.48739e-07
-0.000568217 0.000286366 3.71386e-07
-1.48739e-07 3.71386e-07 -4.76399e-05
0.00179658 -0.000356349 -1.48634e-06
-0.000356349 7.52996e-05 7.97723e-07
-1.48634e-06 7.97723e-07 -6.7112e-05
0.00196034 -0.000319993 1.29077e-06
-0.000319993 0.000109628 -7.02404e-07
1.29077e-06 -7.02404e-07 2.07164e-05
0.00188953 -0.000514532 -4.68972e-08
-0.000514532 0.000230293 4.86057e-07
-4.68972e-08 4.86057e-07 -2.41471e-05
0.00181153 -0.00041976 -8.83533e-07
-0.00041976 9.43284e-05 1.11582e-06
-8.83533e-07 1.11582e-06 -5.65229e-05
0.0020752 -0.000451938 4.06009e-06
-0.000451938 0.000289596 -5.56634e-06
4.06009e-06 -5.56634e-06 0.000113072
0.00110577 -0.000310572 4.58891e-07
-0.000310572 0.000224973 1.27998e-06
4.58891e-07 1.27998e-06 -2.70431e-05
0.00144154 -0.000334715 4.05062e-06
-0.000334715 0.000486741 1.14936e-06
4.05062e-06 1.14936e-06 0.000207078
0.000879871 -0.000182071 -1.53355e-07
-0.000182071 0.000272081 -2.46036e-08
-1.53355e-07 -2.46036e-08 8.43774e-06
0.000385305 -3.79531e-05 -2.12293e-06
-3.79531e-05 -6.01468e-05 5.5517e-07
-2.12293e-06 5.5517e-07 -0.000167498
0.000168985 -4.516e-05 -4.2997e-07
-4.516e-05 -0.000147836 -6.82867e-07
-4.2997e-07 -6.82867e-07 -0.000343521
0.0019043 -5.77304e-05 5.57322e-06
-5.77304e-05 2.36337e-05 -9.12749e-08
5.57322e-06 -9.12749e-08 -2.95933e-06
0.00192498 -0.000156588 4.71435e-06
-0.000156588 4.22388e-05 -9.99377e-07
4.71435e-06 -9.99377e-07 -1.59305e-06
0.00197202 -0.000295405 2.12665e-06
-0.000295405 3.59731e-05 -1.19946e-06
2.12665e-06 -1.19946e-06 -1.81956e-05
0.00189527 -0.000363986 6.1093e-07
-0.000363986 8.98518e-05 -1.88573e-06
6.1093e-07 -1.88573e-06 -1.40556e-05
0.00165039 -0.000404303 -1.30586e-07
-0.000404303 0.000525363 -3.82811e-06
-1.30586e-07 -3.82811e-06 0.000233142
0.00211826 -0.000503808 -9.34543e-07
-0.000503808 0.000201687 -2.69549e-06
-9.34543e-07 -2.69549e-06 3.75289e-05
0.00124525 -0.000521502 -1.39511e-06
-0.000521502 0.000159919 1.0253e-06
-1.39511e-06 1.0253e-06 -0.000198752
0.00191027 -0.000632023 1.25031e-06
-0.000632023 0.000338025 2.25216e-07
1.25031e-06 2.25216e-07 -1.13451e-05
0.00187243 -0.000499697 -3.43848e-06
-0.000499697 0.000204664 2.47022e-06
-3.43848e-06 2.47022e-06 -4.07846e-05
6.47678e-05 -3.9051e-06 -1.26748e-06
-3.9051e-06 -0.000254094 -4.48654e-06
-1.26748e-06 -4.48654e-06 -0.000340441
0.000696269 -9.70163e-05 -1.56826e-06
-9.70163e-05 0.000185063 5.18614e-07
-1.56826e-06 5.18614e-07 1.0216e-05
0.00103965 -0.000134588 -2.40454e-06
-0.000134588 0.000387462 -1.47787e-06
-2.40454e-06 -1.47787e-06 0.00015977
0.00204465 -0.000435849 -8.63373e-06
-0.000435849 0.000785322 -2.04015e-07
-8.63373e-06 -2.04015e-07 0.000488723
0.000573052 -0.000165922 1.48676e-06
-0.000165922 4.59397e-05 4.95002e-06
1.48676e-06 4.95002e-06 -0.000231343
0.00138171 -0.000361714 -3.01184e-06
-0.000361714 0.000410997 3.38791e-06
-3.01184e-06 3.38791e-06 0.000113077
0.000480265 -4.23824e-05 -7.16248e-07
-4.23824e-05 -3.78655e-05 -6.03514e-06
-7.16248e-07 -6.03514e-06 -6.52627e-05
0.000555291 1.61588e-07 -6.55768e-07
1.61588e-07 2.85078e-05 -4.70903e-06
-6.55768e-07 -4.70903e-06 -5.82835e-05
0.00191818 0.000356186 -2.15008e-06
0.000356186 0.000173822 -3.1498e-07
-2.15008e-06 -3.1498e-07 -4.73818e-06
-9.91574e-05 -3.28968e-05 1.83674e-06
-3.28968e-05 -0.000319887 -2.63044e-06
1.83674e-06 -2.63044e-06 -0.000501492
0.00103535 0.000247519 -1.87063e-06
0.000247519 0.000269163 -1.32593e-07
-1.87063e-06 -1.32593e-07 4.57204e-05
4.65348e-05 0.000109395 3.35984e-06
0.000109395 -0.000329889 5.08556e-07
3.35984e-06 5.08556e-07 -0.000529057
0.00179298 0.000441659 6.33572e-07
0.000441659 0.000227042 9.4848e-07
6.33572e-07 9.4848e-07 -1.45772e-05
0.0018232 0.000432329 1.75122e-06
0.000432329 0.000154977 7.73891e-07
1.75122e-06 7.73891e-07 -4.73932e-05
0.00166384 0.000396035 5.90082e-07
0.000396035 0.000529628 2.37225e-07
5.90082e-07 2.37225e-07 0.000233898
0.00214653 0.000513918 -1.91941e-06
0.000513918 0.000659016 1.11837e-06
-1.91941e-06 1.11837e-06 0.000346691
0.00182047 0.000511547 -4.04541e-07
0.000511547 0.000238016 1.42265e-06
-4.04541e-07 1.42265e-06 -3.13218e-05
0.000586216 1.82189e-05 -4.43088e-07
1.82189e-05 3.84229e-05 4.80596e-07
-4.43088e-07 4.80596e-07 -3.33688e-05
0.000728135 4.56446e-05 -9.20342e-07
4.56446e-05 0.000166795 3.7217e-07
-9.20342e-07 3.7217e-07 3.17643e-05
0.00116731 0.000308314 -7.29991e-08
0.000308314 0.000269161 1.16528e-07
-7.29991e-08 1.16528e-07 2.6647e-05
0.000900455 9.698e-05 4.88983e-07
9.698e-05 0.000291529 6.21352e-07
4.88983e-07 6.21352e-07 7.41953e-05
0.000805891 0.000216827 4.49552e-06
0.000216827 0.000111832 7.24997e-07
4.49552e-06 7.24997e-07 -9.34262e-05
0.00189777 0.000371935 -2.28199e-06
0.000371935 0.000139959 -1.67223e-06
-2.28199e-06 -1.67223e-06 -2.19259e-05
0.00192875 0.00049454 1.75357e-06
0.00049454 0.000264724 5.85451e-07
1.75357e-06 5.85451e-07 2.33394e-05
0.0018136 0.000469768 3.84584e-07
0.000469768 0.000110548 -1.71446e-07
3.84584e-07 -1.71446e-07 -9.1569e-05
0.00113085 0.000411914 2.50333e-06
0.000411914 0.000198732 2.5102e-06
2.50333e-06 2.5102e-06 -0.000119946
0.00169329 0.000515209 -2.71931e-06
0.000515209 0.00029795 -1.87824e-06
-2.71931e-06 -1.87824e-06 2.76628e-06
0.000857478 6.79266e-05 7.63479e-08
6.79266e-05 0.000238316 2.40136e-06
7.63479e-08 2.40136e-06 0.000122521
0.000117147 4.33255e-06 -2.27747e-06
4.33255e-06 -0.00017699 1.65852e-06
-2.27747e-06 1.65852e-06 -0.000344281
0.00112305 0.000331916 -4.85535e-06
0.000331916 0.00020845 -3.9652e-06
-4.85535e-06 -3.9652e-06 -4.77116e-05
0.000466569 0.000185329 -7.98111e-06
0.000185329 3.20775e-05 -2.80121e-06
-7.98111e-06 -2.80121e-06 -0.000194958
0.00100431 0.000281134 -3.77276e-06
0.000281134 0.000179994 -3.75911e-06
-3.77276e-06 -3.75911e-06 -3.10847e-05
0.00185028 0.000403061 -1.34337e-07
0.000403061 4.13014e-05 -1.43738e-06
-1.34337e-07 -1.43738e-06 -0.000103079
0.0020318 0.000547258 4.29811e-06
0.000547258 0.000303768 -1.66937e-06
4.29811e-06 -1.66937e-06 4.33633e-05
0.00172933 0.000489668 3.50147e-06
0.000489668 4.74773e-05 6.51876e-07
3.50147e-06 6.51876e-07 -0.000166125
0.00101443 0.0004168 4.41648e-06
0.0004168 9.21178e-05 3.46792e-06
4.41648e-06 3.46792e-06 -0.00023127
0.00188473 0.000574217 -1.96517e-06
0.000574217 0.000416728 -8.07164e-07
-1.96517e-06 -8.07164e-07 0.000102874
0.000552892 7.22329e-06 -1.62703e-06
7.22329e-06 1.32811e-05 -3.33726e-06
-1.62703e-06 -3.33726e-06 -4.94774e-05
0.000560334 5.06059e-05 1.23239e-06
5.06059e-05 4.3541e-05 4.13964e-07
1.23239e-06 4.13964e-07 -5.64293e-05
0.000417167 3.68209e-05 -6.95392e-07
3.68209e-05 -5.20229e-05 7.64194e-07
-6.95392e-07 7.64194e-07 -0.000150255
0.00031633 -2.13075e-05 -3.44236e-07
-2.13075e-05 -0.000103783 -1.83653e-06
-3.44236e-07 -1.83653e-06 -0.000198957
0.000617137 5.29886e-05 -3.2043e-07
5.29886e-05 9.00554e-05 2.0884e-08
-3.2043e-07 2.0884e-08 -1.07113e-05
0.000631896 7.56964e-05 -7.39477e-07
7.56964e-05 8.82959e-05 -1.76364e-07
-7.39477e-07 -1.76364e-07 -1.7778e-05
0.000755119 0.000111067 -3.02842e-06
0.000111067 0.000175967 -3.87045e-06
-3.02842e-06 -3.87045e-06 6.46144e-05
0.000371229 3.0204e-06 2.41093e-07
3.0204e-06 -5.21102e-05 -4.9029e-07
2.41093e-07 -4.9029e-07 -0.000170528
0.000673426 8.41067e-05 9.75633e-07
8.41067e-05 0.000119141 2.29146e-06
9.75633e-07 2.29146e-06 2.38923e-05
0.000584684 5.77723e-05 3.17146e-06
5.77723e-05 5.18901e-05 3.05082e-06
3.17146e-06 3.05082e-06 -1.03109e-05
0.000551952 1.42387e-05 -1.98636e-06
1.42387e-05 2.64012e-05 -6.2404e-09
-1.98636e-06 -6.2404e-09 -3.27368e-05
0.00123026 -1.80561e-05 1.08635e-06
-1.80561e-05 0.000413378 2.76815e-06
1.08635e-06 2.76815e-06 0.000399602
0.000487066 -5.61767e-05 1.11192e-06
-5.61767e-05 -1.25536e-05 -3.02068e-06
1.11192e-06 -3.02068e-06 -7.49288e-05
0.00128894 -2.79032e-05 -5.83441e-06
-2.79032e-05 0.000447646 -1.52724e-06
-5.83441e-06 -1.52724e-06 0.000433359
0.000800911 -3.05276e-05 2.3803e-05
-3.05276e-05 0.000148881 8.53233e-06
2.3803e-05 8.53233e-06 0.000154526
0.00133421 -3.96588e-05 -9.95918e-06
-3.96588e-05 0.000477424 -6.18082e-06
-9.95918e-06 -6.18082e-06 0.000461382
0.000777666 -4.23045e-05 8.95993e-06
-4.23045e-05 0.000138091 3.18244e-06
8.95993e-06 3.18244e-06 0.000140616
0.00238346 -0.000104054 -3.14137e-06
-0.000104054 0.00114308 -2.38582e-06
-3.14137e-06 -2.38582e-06 0.0011466
0.000390877 5.44519e-05 -2.39275e-06
5.44519e-05 -7.4417e-05 -4.39487e-06
-2.39275e-06 -4.39487e-06 -0.000102722
0.000438957 2.86351e-05 -2.88943e-06
2.86351e-05 -3.79362e-05 3.1488e-09
-2.88943e-06 3.1488e-09 -7.64601e-05
0.00267588 0.000126545 1.76974e-05
0.000126545 0.00134503 -4.35565e-06
1.76974e-05 -4.35565e-06 0.00134085
0.000596516 -3.48688e-05 -7.58908e-06
-3.48688e-05 4.77433e-05 9.12873e-06
-7.58908e-06 9.12873e-06 1.00124e-06
0.00331246 0.000130764 -2.98552e-05
0.000130764 0.00173986 -7.14494e-07
-2.98552e-05 -7.14494e-07 0.00173384
0.00401592 9.65563e-05 -0.000135186
9.65563e-05 0.00217433 1.07353e-05
-0.000135186 1.07353e-05 0.00217502
0.00192632 0.000303282 -2.34545e-06
0.000303282 0.000132251 1.08765e-06
-2.34545e-06 1.08765e-06 -1.54248e-05
0.00190991 0.000165714 -6.04832e-07
0.000165714 8.33915e-05 1.58009e-06
-6.04832e-07 1.58009e-06 -7.80758e-06
0.00194665 0.000243684 -9.91795e-07
0.000243684 5.55656e-05 1.65502e-06
-9.91795e-07 1.65502e-06 -2.40638e-05
0.00194777 0.000108606 -3.47341e-06
0.000108606 3.11983e-05 -1.22332e-07
-3.47341e-06 -1.22332e-07 -1.18645e-06
0.00187639 4.0608e-05 -2.65285e-06
4.0608e-05 5.59646e-05 1.97883e-07
-2.65285e-06 1.97883e-07 -3.42965e-06
0.00162243 6.3309e-06 1.08733e-07
6.3309e-06 6.92432e-05 2.32627e-07
1.08733e-07 2.32627e-07 -4.19317e-05
0.00188809 -3.63943e-06 -7.90829e-07
-3.63943e-06 7.10669e-05 8.15321e-08
-7.90829e-07 8.15321e-08 9.62237e-06
0.00190731 4.87634e-05 1.47869e-06
4.87634e-05 2.89414e-05 -1.78503e-08
1.47869e-06 -1.78503e-08 -3.77546e-06
0.00195692 0.000173854 -1.04622e-07
0.000173854 4.4867e-05 2.22141e-08
-1.04622e-07 2.22141e-08 -9.44432e-06
0.00196614 0.000110408 9.48751e-07
0.000110408 1.884e-05 3.09552e-07
9.48751e-07 3.09552e-07 5.69402e-06
0.00189601 0.000296535 -7.60292e-07
0.000296535 8.97952e-05 -3.20636e-07
-7.60292e-07 -3.20636e-07 -3.10133e-05
0.00202353 0.000257596 3.2566e-06
0.000257596 5.69609e-05 7.38956e-07
3.2566e-06 7.38956e-07 -2.74095e-07
0.00191938 -8.7007e-06 6.07172e-06
-8.7007e-06 4.29112e-05 2.43915e-07
6.07172e-06 2.43915e-07 1.11402e-05
0.00194831 5.17117e-05 3.77671e-06
5.17117e-05 6.9348e-06 9.15152e-09
3.77671e-06 9.15152e-09 2.71626e-07
0.00201707 0.000175184 2.59002e-06
0.000175184 1.90336e-05 7.09909e-07
2.59002e-06 7.09909e-07 1.30476e-06
0.00203737 0.000334366 -2.8237e-07
0.000334366 7.76212e-05 5.06252e-07
-2.8237e-07 5.06252e-07 -4.28559e-06
0.00186248 -5.18534e-05 -1.70795e-06
-5.18534e-05 5.74101e-05 1.51299e-07
-1.70795e-06 1.51299e-07 -1.03872e-05
0.00189804 -0.000169368 1.75095e-06
-0.000169368 9.51524e-05 -1.27727e-06
1.75095e-06 -1.27727e-06 -6.98225e-06
0.00193408 -0.000106124 -2.76367e-06
-0.000106124 5.81556e-05 -2.08813e-07
-2.76367e-06 -2.08813e-07 1.60767e-05
0.00188894 -0.000245818 -4.20767e-06
-0.000245818 4.87979e-05 1.59439e-06
-4.20767e-06 1.59439e-06 -3.41595e-05
0.00094161 -0.000270069 -4.01865e-06
-0.000270069 0.000105912 4.58446e-06
-4.01865e-06 4.58446e-06 -0.000128844
0.00113211 -0.000416789 -5.20208e-07
-0.000416789 0.000129611 2.18778e-07
-5.20208e-07 2.18778e-07 -0.000183069
0.00172005 -0.00057408 1.28608e-06
-0.00057408 0.000263353 -1.1069e-06
1.28608e-06 -1.1069e-06 -7.58097e-05
0.00183971 -0.000356439 -1.09389e-06
-0.000356439 0.000111348 2.64412e-07
-1.09389e-06 2.64412e-07 -3.4724e-05
0.00188031 -0.000318669 -2.81936e-07
-0.000318669 6.37897e-05 1.30268e-06
-2.81936e-07 1.30268e-06 -2.36029e-05
0.00180377 -0.000421441 2.59695e-06
-0.000421441 7.80139e-05 1.35145e-06
2.59695e-06 1.35145e-06 -7.37491e-05
0.00186201 -0.000512023 -1.10514e-06
-0.000512023 0.000226623 -2.26163e-06
-1.10514e-06 -2.26163e-06 -2.83254e-05
0.00192588 -0.00043798 4.76996e-06
-0.00043798 0.000185801 -8.09908e-06
4.76996e-06 -8.09908e-06 1.62238e-05
0.000941995 -0.000294411 2.11968e-06
-0.000294411 0.000123161 1.89286e-06
2.11968e-06 1.89286e-06 -0.000126305
0.000710037 -0.000255648 4.46285e-06
-0.000255648 1.47336e-05 7.79591e-07
4.46285e-06 7.79591e-07 -0.00024082
0.000603327 -0.000153396 3.8611e-06
-0.000153396 0.000104797 -4.59444e-06
3.8611e-06 -4.59444e-06 -0.000161113
0.000190561 -1.83211e-05 -2.62266e-07
-1.83211e-05 -0.000180201 3.78273e-06
-2.62266e-07 3.78273e-06 -0.000289061
0.000183814 -2.04953e-06 3.35149e-06
-2.04953e-06 -0.000143769 -2.04066e-07
3.35149e-06 -2.04066e-07 -0.000331904
0.00191004 -6.5496e-05 -2.41822e-07
-6.5496e-05 2.41661e-05 -1.20368e-07
-2.41822e-07 -1.20368e-07 -3.92153e-06
0.00191605 -0.000155921 1.21381e-06
-0.000155921 3.54097e-05 -2.1964e-07
1.21381e-06 -2.1964e-07 -9.47177e-06
0.00197491 -0.000290158 -1.05884e-06
-0.000290158 5.22752e-05 4.85131e-08
-1.05884e-06 4.85131e-08 -5.31861e-06
0.00129426 -0.000369787 -1.74232e-06
-0.000369787 0.000300518 -3.06762e-07
-1.74232e-06 -3.06762e-07 1.52909e-05
0.00130893 -0.000515348 2.89728e-06
-0.000515348 0.000199825 -9.13722e-07
2.89728e-06 -9.13722e-07 -0.000154882
0.00180492 -0.000624207 3.19743e-08
-0.000624207 0.000283721 -3.60348e-07
3.19743e-08 -3.60348e-07 -6.79028e-05
0.00187591 -0.000361951 3.84106e-07
-0.000361951 7.56699e-05 1.10481e-07
3.84106e-07 1.10481e-07 -2.90542e-05
0.00199304 -0.000516535 9.33899e-07
-0.000516535 0.000265961 -3.17631e-06
9.33899e-07 -3.17631e-06 2.42072e-05
0.00200981 -0.000487763 -7.53057e-07
-0.000487763 0.000165271 -6.63781e-07
-7.53057e-07 -6.63781e-07 3.67568e-06
0.000200208 4.54281e-05 -1.30727e-06
4.54281e-05 -0.000178935 -7.98906e-07
-1.30727e-06 -7.98906e-07 -0.000259397
0.0011488 -0.000341777 1.29764e-07
-0.000341777 0.00022224 5.18446e-07
1.29764e-07 5.18446e-07 -5.24443e-05
0.00124618 -0.000346484 2.62164e-07
-0.000346484 0.000330619 1.9971e-06
2.62164e-07 1.9971e-06 4.54118e-05
0.00117326 -0.000244487 -2.52646e-07
-0.000244487 0.000428547 3.79845e-07
-2.52646e-07 3.79845e-07 0.000130163
0.0012266 -0.000141097 8.65575e-07
-0.000141097 0.000500538 -2.71836e-06
8.65575e-07 -2.71836e-06 0.00027436
0.000475312 -2.6744e-05 -6.87879e-07
-2.6744e-05 3.9578e-05 1.3084e-06
-6.87879e-07 1.3084e-06 -0.000128711
0.00194424 -7.99434e-05 3.94677e-06
-7.99434e-05 1.47219e-05 -2.39492e-07
3.94677e-06 -2.39492e-07 7.43941e-06
0.00206077 -0.000202709 1.69054e-06
-0.000202709 2.20426e-05 -6.53536e-07
1.69054e-06 -6.53536e-07 1.64907e-05
0.00206042 -0.000352594 1.47323e-06
-0.000352594 6.44849e-05 -1.35754e-06
1.47323e-06 -1.35754e-06 2.79298e-05
0.00211065 -0.00043912 1.72671e-06
-0.00043912 0.000123506 -2.38876e-06
1.72671e-06 -2.38876e-06 2.85867e-05
0.00176105 -0.000480822 -4.89643e-06
-0.000480822 0.000559674 -2.94416e-06
-4.89643e-06 -2.94416e-06 0.000226561
0.00198316 -0.000552965 3.86777e-06
-0.000552965 0.000190082 2.31946e-08
3.86777e-06 2.31946e-08 -2.05808e-05
0.00152799 -0.000607648 -8.01109e-06
-0.000607648 0.000290262 1.49279e-06
-8.01109e-06 1.49279e-06 -0.000105731
0.00214625 -0.000682626 -7.3696e-06
-0.000682626 0.000492078 1.05435e-06
-7.3696e-06 1.05435e-06 0.000118558
0.000165554 5.86693e-05 -3.47223e-06
5.86693e-05 -0.000204957 -1.61472e-06
-3.47223e-06 -1.61472e-06 -0.000267214
0.000658398 6.59908e-06 -1.63449e-06
6.59908e-06 0.000142172 6.68878e-08
-1.63449e-06 6.68878e-08 1.11648e-05
0.00119369 -0.000162908 -4.49146e-06
-0.000162908 0.000495678 2.41807e-06
-4.49146e-06 2.41807e-06 0.000294716
0.000933501 -5.65409e-05 -2.93174e-06
-5.65409e-05 0.000286055 1.3595e-06
-2.93174e-06 1.3595e-06 3.3004e-05
0.00145125 -0.000423026 -1.86256e-06
-0.000423026 0.00039041 -1.05305e-06
-1.86256e-06 -1.05305e-06 6.89283e-05
0.00155629 -0.000369765 -1.24812e-05
-0.000369765 0.000575598 1.19398e-05
-1.24812e-05 1.19398e-05 0.00021929
0.000479703 1.00869e-05 -1.67146e-06
1.00869e-05 -2.62249e-05 -3.57235e-06
-1.67146e-06 -3.57235e-06 -9.68771e-05
0.000346569 -3.74561e-06 1.81029e-06
-3.74561e-06 -8.14434e-05 -2.13854e-06
1.81029e-06 -2.13854e-06 -0.000198902
0.00185909 0.000373384 -1.94807e-06
0.000373384 0.000116437 -7.00076e-07
-1.94807e-06 -7.00076e-07 -4.65456e-05
0.000186522 3.99118e-05 1.38834e-06
3.99118e-05 -0.000156773 -9.35142e-08
1.38834e-06 -9.35142e-08 -0.000356637
0.00148786 0.000341186 9.47172e-07
0.000341186 0.000464972 6.08856e-07
9.47172e-07 6.08856e-07 0.000216885
-0.000145229 0.000105147 5.81789e-06
0.000105147 -0.000484737 1.58072e-06
5.81789e-06 1.58072e-06 -0.000659179
0.00191369 0.000492474 1.49479e-06
0.000492474 0.000253756 7.42546e-07
1.49479e-06 7.42546e-07 1.25718e-05
0.00193143 0.000472311 -3.93619e-06
0.000472311 0.000179181 5.39829e-07
-3.93619e-06 5.39829e-07 -2.21216e-05
0.00157838 0.000469305 -2.87539e-07
0.000469305 0.000457127 2.74105e-06
-2.87539e-07 2.74105e-06 0.000129303
0.00201229 0.000548032 -2.94646e-06
0.000548032 0.000503067 2.10325e-07
-2.94646e-06 2.10325e-07 0.000198268
0.000680921 3.56651e-05 -9.66259e-07
3.56651e-05 0.000124979 1.70727e-07
-9.66259e-07 1.70727e-07 1.60126e-05
0.000409452 5.03401e-05 8.31574e-07
5.03401e-05 4.35746e-06 3.7702e-07
8.31574e-07 3.7702e-07 -0.000172664
0.00153456 0.000374321 -1.52221e-06
0.000374321 0.000464502 -1.50378e-06
-1.52221e-06 -1.50378e-06 0.000198511
0.000367677 8.25679e-05 -1.5754e-06
8.25679e-05 -7.14691e-05 -5.27499e-08
-1.5754e-06 -5.27499e-08 -0.000259325
0.000723189 0.000246156 8.10852e-07
0.000246156 -3.34396e-06 -1.43093e-06
8.10852e-07 -1.43093e-06 -0.000197939
0.00204039 0.000416232 -2.92649e-06
0.000416232 0.000146525 -1.20555e-06
-2.92649e-06 -1.20555e-06 4.2989e-06
0.00214283 0.000547382 2.38076e-06
0.000547382 0.000373495 -2.74678e-07
2.38076e-06 -2.74678e-07 0.00011786
0.00194474 0.000513055 2.65526e-06
0.000513055 0.000163606 2.75788e-06
2.65526e-06 2.75788e-06 -5.51673e-05
0.00119667 0.000437657 4.20533e-06
0.000437657 0.000210774 2.8085e-06
4.20533e-06 2.8085e-06 -0.000118263
0.0017301 0.000573709 -4.30551e-06
0.000573709 0.000325672 -9.32667e-08
-4.30551e-06 -9.32667e-08 4.02747e-06
-0.000116266 3.5907e-06 -1.6041e-06
3.5907e-06 -0.000355004 3.09206e-06
-1.6041e-06 3.09206e-06 -0.000464296
-0.000149745 0.000121267 1.26737e-06
0.000121267 -0.000287077 1.79239e-06
1.26737e-06 1.79239e-06 -0.000511526
0.000895624 0.000319445 1.79058e-07
0.000319445 6.81485e-05 -2.54072e-07
1.79058e-07 -2.54072e-07 -0.000197448
-0.00030996 0.000137672 2.65978e-06
0.000137672 -0.000576515 2.20355e-07
2.65978e-06 2.20355e-07 -0.000769825
0.00206012 0.000418896 1.49321e-06
0.000418896 -8.5297e-05 1.6545e-06
1.49321e-06 1.6545e-06 -0.000109606
0.00266666 0.000526826 3.17956e-06
0.000526826 0.00052287 1.56999e-08
3.17956e-06 1.56999e-08 0.000342447
0.00195497 0.000602234 -5.11617e-06
0.000602234 0.000293808 -4.31087e-06
-5.11617e-06 -4.31087e-06 -8.61293e-06
0.00139226 0.000523359 5.05957e-07
0.000523359 0.000233121 4.80106e-07
5.05957e-07 4.80106e-07 -0.00012163
0.000638191 8.68319e-05 -6.51407e-07
8.68319e-05 9.69307e-05 -1.15791e-06
-6.51407e-07 -1.15791e-06 -7.06882e-06
0.000602304 6.82047e-05 -4.00808e-07
6.82047e-05 7.36439e-05 -7.08206e-08
-4.00808e-07 -7.08206e-08 -3.42849e-05
0.000986056 6.74251e-05 -5.18825e-06
6.74251e-05 0.000307016 -2.23003e-06
-5.18825e-06 -2.23003e-06 0.000211768
0.000600599 3.22267e-05 -1.29701e-06
3.22267e-05 6.2159e-05 -2.08075e-06
-1.29701e-06 -2.08075e-06 -2.58948e-05
0.000305637 2.48969e-05 -1.34945e-07
2.48969e-05 -0.000110157 2.77812e-08
-1.34945e-07 2.77812e-08 -0.000210467
0.000623021 4.31342e-05 -3.67014e-07
4.31342e-05 9.0726e-05 8.85989e-08
-3.67014e-07 8.85989e-08 -5.36019e-06
0.000611033 0.000108328 -1.13412e-06
0.000108328 0.000102346 3.51031e-07
-1.13412e-06 3.51031e-07 -1.15084e-05
0.000522392 4.03367e-05 1.04946e-06
4.03367e-05 4.48635e-05 1.41813e-07
1.04946e-06 1.41813e-07 -7.77939e-05
0.000689116 8.07164e-05 1.54083e-06
8.07164e-05 0.000119579 -2.16407e-06
1.54083e-06 -2.16407e-06 3.48067e-05
0.000725608 3.92828e-06 3.15391e-06
3.92828e-06 0.000164352 -4.06873e-06
3.15391e-06 -4.06873e-06 4.50901e-05
0.000378597 6.2382e-05 4.76879e-07
6.2382e-05 -4.18062e-05 1.8617e-06
4.76879e-07 1.8617e-06 -0.000165995
0.000662852 9.65285e-05 2.09257e-06
9.65285e-05 0.000117965 2.84317e-06
2.09257e-06 2.84317e-06 1.78185e-05
0.000501144 6.57357e-05 2.92153e-06
6.57357e-05 7.47815e-06 2.92116e-06
2.92153e-06 2.92116e-06 -6.03094e-05
0.000507628 7.40819e-06 -1.48815e-06
7.40819e-06 5.14336e-06 -1.88203e-07
-1.48815e-06 -1.88203e-07 -5.67972e-05
0.00120978 -1.37586e-06 1.27634e-06
-1.37586e-06 0.000405058 2.5911e-06
1.27634e-06 2.5911e-06 0.000391586
0.000504453 -4.65563e-05 7.68368e-08
-4.65563e-05 -1.41532e-06 -2.79101e-06
7.68368e-08 -2.79101e-06 -6.11453e-05
0.00128759 -1.33759e-05 -5.25947e-06
-1.33759e-05 0.000448673 -1.61233e-06
-5.25947e-06 -1.61233e-06 0.00043525
0.00079451 -2.1103e-05 2.11117e-05
-2.1103e-05 0.00014498 8.73756e-06
2.11117e-05 8.73756e-06 0.000151387
0.00132959 -2.49291e-05 -8.92436e-06
-2.49291e-05 0.000472871 -6.02612e-06
-8.92436e-06 -6.02612e-06 0.000458824
0.000764784 -3.23934e-05 7.65764e-06
-3.23934e-05 0.000125673 3.26462e-06
7.65764e-06 3.26462e-06 0.000130481
0.000721263 -4.17693e-05 -3.61106e-07
-4.17693e-05 0.000102912 -2.62884e-06
-3.61106e-07 -2.62884e-06 0.000105146
0.000445008 4.00385e-05 -2.63488e-07
4.00385e-05 -5.89292e-05 -3.16958e-06
-2.63488e-07 -3.16958e-06 -7.70829e-05
0.000447201 6.68234e-05 -1.34232e-07
6.68234e-05 -3.47593e-05 2.25916e-07
-1.34232e-07 2.25916e-07 -6.69184e-05
0.00234867 0.000101589 1.50227e-05
0.000101589 0.00113468 -4.0173e-06
1.50227e-05 -4.0173e-06 0.00113741
0.000530449 2.74784e-05 -4.09484e-06
2.74784e-05 2.08495e-05 7.48618e-06
-4.09484e-06 7.48618e-06 -2.02034e-05
0.00279284 0.000132759 -5.15608e-06
0.000132759 0.00141757 -5.62844e-07
-5.15608e-06 -5.62844e-07 0.00141173
0.00343677 8.57148e-05 -0.000108112
8.57148e-05 0.00181173 7.85323e-06
-0.000108112 7.85323e-06 0.00181648
0.0019068 0.000294389 -5.74185e-07
0.000294389 0.000106208 1.55087e-06
-5.74185e-07 1.55087e-06 -1.41802e-05
0.00200426 0.000174208 -4.80285e-06
0.000174208 7.60772e-05 -6.32292e-07
-4.80285e-06 -6.32292e-07 1.99842e-05
0.00198185 0.000260656 -5.72464e-07
0.000260656 2.85478e-05 -4.44884e-07
-5.72464e-07 -4.44884e-07 -2.41836e-05
0.00194224 0.000111574 -3.50988e-06
0.000111574 -1.70274e-07 -5.13429e-07
-3.50988e-06 -5.13429e-07 -1.01255e-05
0.00192141 4.82061e-05 -4.68885e-06
4.82061e-05 4.13991e-05 -1.58965e-07
-4.68885e-06 -1.58965e-07 6.34301e-06
0.00183918 -5.81917e-06 -2.8002e-06
-5.81917e-06 4.25763e-05 1.99189e-07
-2.8002e-06 1.99189e-07 -2.07717e-05
0.0019079 -6.81021e-06 -5.06493e-07
-6.81021e-06 3.58034e-05 -7.26851e-08
-5.06493e-07 -7.26851e-08 4.58434e-06
0.00195077 5.38076e-05 1.14983e-06
5.38076e-05 1.39032e-05 1.13784e-07
1.14983e-06 1.13784e-07 5.67714e-06
0.00202295 0.000180035 7.30595e-07
0.000180035 2.51056e-05 2.06209e-07
7.30595e-07 2.06209e-07 6.8425e-06
0.00207051 0.00033006 7.66026e-07
0.00033006 8.76383e-05 3.62971e-07
7.66026e-07 3.62971e-07 6.05413e-06
0.0019309 -1.27586e-05 2.74159e-06
-1.27586e-05 9.94747e-06 -4.2297e-08
2.74159e-06 -4.2297e-08 3.24802e-07
0.00206939 0.000103254 1.25325e-06
0.000103254 -1.30426e-05 2.0204e-08
1.25325e-06 2.0204e-08 1.09578e-05
0.00222464 0.000277927 2.18167e-06
0.000277927 6.11172e-05 1.16976e-06
2.18167e-06 1.16976e-06 4.21082e-05
0.00192058 -7.34302e-05 -4.94805e-06
-7.34302e-05 2.75839e-05 3.29841e-07
-4.94805e-06 3.29841e-07 -1.84954e-06
0.0019134 -0.000155347 -2.21935e-06
-0.000155347 3.27023e-05 1.76283e-08
-2.21935e-06 1.76283e-08 -1.30437e-05
0.0019733 -0.000284786 -3.02786e-06
-0.000284786 6.66314e-05 1.37175e-06
-3.02786e-06 1.37175e-06 5.0106e-06
0.000914652 -0.00033237 -2.02935e-06
-0.00033237 6.10883e-05 2.30267e-06
-2.02935e-06 2.30267e-06 -0.000216511
0.00125763 -0.000494808 5.9802e-06
-0.000494808 0.000172509 -1.82446e-06
5.9802e-06 -1.82446e-06 -0.000174351
0.00166717 -0.000614032 3.35565e-07
-0.000614032 0.000211252 4.59533e-07
3.35565e-07 4.59533e-07 -0.000141091
0.00184494 -0.000359034 -8.32548e-07
-0.000359034 5.442e-05 1.18486e-06
-8.32548e-07 1.18486e-06 -5.11271e-05
0.00183809 -0.000466255 4.78597e-07
-0.000466255 9.37097e-05 4.45208e-07
4.78597e-07 4.45208e-07 -6.51409e-05
0.00207096 -0.000530048 2.458e-06
-0.000530048 0.000308147 -7.227e-06
2.458e-06 -7.227e-06 7.0265e-05
0.000900217 -0.000316007 3.40638e-06
-0.000316007 6.45235e-05 3.78791e-06
3.40638e-06 3.78791e-06 -0.000204233
0.000628929 -0.000281709 -1.13951e-05
-0.000281709 -4.06323e-05 3.54873e-06
-1.13951e-05 3.54873e-06 -0.000302968
0.00208538 -0.000350847 1.76599e-06
-0.000350847 0.00101237 -1.04232e-06
1.76599e-06 -1.04232e-06 0.00068232
0.000367695 4.53573e-05 1.96042e-06
4.53573e-05 -7.87773e-05 7.65078e-07
1.96042e-06 7.65078e-07 -0.000156764
0.00101818 -0.000145677 3.60572e-06
-0.000145677 0.000359653 1.21026e-06
3.60572e-06 1.21026e-06 0.000150731
0.000162437 3.57092e-05 4.80662e-06
3.57092e-05 -0.000161463 8.81691e-07
4.80662e-06 8.81691e-07 -0.00032203
0.00194697 -7.99094e-05 -5.07419e-07
-7.99094e-05 1.55894e-05 7.99578e-08
-5.07419e-07 7.99578e-08 6.48432e-06
0.00202133 -0.000208497 2.01644e-07
-0.000208497 -5.09989e-06 -2.2496e-08
2.01644e-07 -2.2496e-08 -9.43943e-06
0.00203045 -0.000347085 -4.6665e-07
-0.000347085 5.37248e-05 3.4602e-07
-4.6665e-07 3.4602e-07 1.32126e-05
0.001472 -0.000448734 -1.94398e-06
-0.000448734 0.000388494 -5.79434e-07
-1.94398e-06 -5.79434e-07 6.27872e-05
0.00144654 -0.000594401 1.76824e-06
-0.000594401 0.000242882 -9.99293e-07
1.76824e-06 -9.99293e-07 -0.000148336
0.00224137 -0.000683867 -5.12648e-06
-0.000683867 0.000542742 9.37612e-07
-5.12648e-06 9.37612e-07 0.000178788
0.00205136 -0.000443053 5.81612e-07
-0.000443053 9.05902e-05 -4.25757e-07
5.81612e-07 -4.25757e-07 -9.40647e-06
0.00185171 -0.000537709 1.43373e-06
-0.000537709 0.000114367 -3.12826e-06
1.43373e-06 -3.12826e-06 -9.29156e-05
0.000378595 5.8528e-05 -1.01697e-06
5.8528e-05 -7.7902e-05 -1.04727e-06
-1.01697e-06 -1.04727e-06 -0.000135635
0.000667362 -1.43669e-05 -7.68096e-07
-1.43669e-05 0.000143332 4.31873e-07
-7.68096e-07 4.31873e-07 1.52335e-05
0.000594993 -0.000334228 -4.80363e-06
-0.000334228 -0.000127452 3.06767e-06
-4.80363e-06 3.06767e-06 -0.000424775
0.00157665 -0.000341998 4.89455e-06
-0.000341998 0.000618771 -8.1155e-07
4.89455e-06 -8.1155e-07 0.000260122
0.00124525 -0.000117051 -2.57058e-07
-0.000117051 0.000488665 -2.11557e-06
-2.57058e-07 -2.11557e-06 0.000230323
0.000830966 -0.000120357 -6.03137e-07
-0.000120357 0.000269101 9.99009e-07
-6.03137e-07 9.99009e-07 7.19302e-05
0.00201839 -0.000109218 -2.70211e-07
-0.000109218 -1.85239e-05 -2.13645e-07
-2.70211e-07 -2.13645e-07 3.25687e-06
0.00212868 -0.000298929 -1.07057e-06
-0.000298929 -2.96815e-05 1.34524e-07
-1.07057e-06 1.34524e-07 3.61224e-06
0.00210579 -0.000399953 1.26108e-06
-0.000399953 6.12441e-05 -1.00213e-06
1.26108e-06 -1.00213e-06 3.16409e-05
0.00217135 -0.000586634 6.2701e-06
-0.000586634 0.000145627 -2.96178e-06
6.2701e-06 -2.96178e-06 6.41017e-06
0.000765993 -0.000434733 -2.20016e-07
-0.000434733 -4.94428e-05 -4.47317e-06
-2.20016e-07 -4.47317e-06 -0.000403086
0.00224593 -0.000710977 -9.09833e-07
-0.000710977 0.000478822 1.18067e-05
-9.09833e-07 1.18067e-05 0.000134551
0.00236736 -0.000745095 -8.272e-06
-0.000745095 0.000731548 -2.99559e-06
-8.272e-06 -2.99559e-06 0.000288915
0.000593056 5.02934e-05 7.51691e-07
5.02934e-05 3.82692e-05 -8.27144e-07
7.51691e-07 -8.27144e-07 -6.54465e-06
0.00065905 -0.000127797 4.34704e-06
-0.000127797 0.000127416 -2.47509e-06
4.34704e-06 -2.47509e-06 3.3907e-05
0.00035005 7.4012e-05 -4.93323e-06
7.4012e-05 -6.13863e-05 1.14682e-06
-4.93323e-06 1.14682e-06 -0.000158017
0.000775752 -4.89151e-05 -3.67897e-06
-4.89151e-05 0.000233328 5.12924e-06
-3.67897e-06 5.12924e-06 6.42591e-05
0.000365944 -6.9247e-05 1.64597e-06
-6.9247e-05 -5.68686e-05 -1.66436e-06
1.64597e-06 -1.66436e-06 -0.000252579
-0.000851344 8.19065e-07 9.68468e-07
8.19065e-07 -0.000754272 1.69848e-08
9.68468e-07 1.69848e-08 -0.00106554
0.00124351 -0.00042697 -1.31562e-05
-0.00042697 0.000261659 6.18289e-06
-1.31562e-05 6.18289e-06 -5.21639e-05
0.00285245 -0.000487171 -1.67477e-05
-0.000487171 0.00148749 8.36183e-06
-1.67477e-05 8.36183e-06 0.000969632
0.000606327 9.1611e-06 -3.54467e-07
9.1611e-06 7.26648e-05 -1.30774e-06
-3.54467e-07 -1.30774e-06 -2.85692e-05
0.000762055 0.000103553 6.86722e-07
0.000103553 0.000225457 -9.88963e-07
6.86722e-07 -9.88963e-07 3.65197e-05
0.00222642 0.000428882 -2.05023e-06
0.000428882 0.00025038 -1.22274e-06
-2.05023e-06 -1.22274e-06 0.00011042
0.000697733 0.000127655 -1.16237e-06
0.000127655 0.000142684 2.22069e-06
-1.16237e-06 2.22069e-06 -5.83895e-05
0.00193441 0.000416387 7.62476e-07
0.000416387 0.000713485 2.05959e-06
7.62476e-07 2.05959e-06 0.000436395
0.000267909 0.000191992 -1.71092e-06
0.000191992 -0.000290713 3.33557e-07
-1.71092e-06 3.33557e-07 -0.000465793
0.00220913 0.000541759 -2.88e-06
0.000541759 0.000420712 -3.04101e-07
-2.88e-06 -3.04101e-07 0.000171249
0.00209749 0.000531399 -5.77988e-06
0.000531399 0.000244745 5.21721e-06
-5.77988e-06 5.21721e-06 2.1929e-05
0.00168231 0.000497104 -3.86559e-07
0.000497104 0.000504633 7.99848e-07
-3.86559e-07 7.99848e-07 0.000164132
0.00153113 0.000570269 7.62903e-07
0.000570269 0.000204627 3.07214e-07
7.62903e-07 3.07214e-07 -0.000123585
0.000148452 3.39721e-05 -8.80484e-08
3.39721e-05 -0.000187141 1.18279e-06
-8.80484e-08 1.18279e-06 -0.000306547
0.000288323 0.00015588 -9.7694e-07
0.00015588 -2.36636e-05 -3.11254e-06
-9.7694e-07 -3.11254e-06 -0.000249899
0.00151469 0.000392736 3.20935e-06
0.000392736 0.00043484 -3.12786e-07
3.20935e-06 -3.12786e-07 0.00015451
0.000686044 0.000219032 -2.70667e-06
0.000219032 2.7878e-05 -1.5178e-06
-2.70667e-06 -1.5178e-06 -0.000175442
0.00216733 0.000409111 8.70139e-07
0.000409111 -2.80499e-05 -8.46319e-07
8.70139e-07 -8.46319e-07 -5.13502e-05
0.00240418 0.000519291 3.16812e-06
0.000519291 0.00037462 5.61341e-07
3.16812e-06 5.61341e-07 0.000190211
0.00196643 0.00059309 -3.77885e-07
0.00059309 0.000298652 6.05302e-07
-3.77885e-07 6.05302e-07 1.55946e-06
0.00152651 0.000537337 6.70512e-07
0.000537337 0.000295706 5.27685e-07
6.70512e-07 5.27685e-07 -5.73342e-05
8.29099e-05 4.80986e-05 -1.72078e-06
4.80986e-05 -0.000232402 4.18532e-06
-1.72078e-06 4.18532e-06 -0.000357911
0.00210472 0.000327132 4.96245e-06
0.000327132 -0.00012871 4.1763e-06
4.96245e-06 4.1763e-06 -8.38839e-05
0.00186439 0.000366345 5.20397e-06
0.000366345 0.000884918 7.63884e-06
5.20397e-06 7.63884e-06 0.000610845
0.00143006 0.000404715 4.72167e-06
0.000404715 0.000349677 4.99771e-07
4.72167e-06 4.99771e-07 6.92624e-05
0.00252211 0.000510419 -1.74344e-05
0.000510419 0.000303845 -7.11733e-06
-1.74344e-05 -7.11733e-06 0.000198274
0.00103716 0.000545857 -1.00395e-05
0.000545857 -0.000329223 -9.03304e-06
-1.00395e-05 -9.03304e-06 -0.00060913
0.00210109 0.00062633 -3.61134e-06
0.00062633 0.000572982 2.27983e-06
-3.61134e-06 2.27983e-06 0.000196277
0.000735717 8.558e-05 -9.83559e-07
8.558e-05 0.000154551 -8.20973e-07
-9.83559e-07 -8.20973e-07 4.65848e-05
0.000658286 8.04131e-05 -2.55836e-06
8.04131e-05 0.000116677 -6.79278e-07
-2.55836e-06 -6.79278e-07 1.63681e-05
0.00129798 7.97075e-05 -3.74361e-06
7.97075e-05 0.000511764 -1.25041e-06
-3.74361e-06 -1.25041e-06 0.0004301
0.000553386 2.87553e-06 1.77202e-07
2.87553e-06 5.1162e-05 -2.96117e-06
1.77202e-07 -2.96117e-06 -4.66813e-05
0.000678368 7.10635e-05 1.57359e-06
7.10635e-05 0.000143482 1.50772e-07
1.57359e-06 1.50772e-07 1.75672e-05
0.000170586 5.45282e-05 -9.78507e-07
5.45282e-05 -0.000151527 3.97879e-06
-9.78507e-07 3.97879e-06 -0.00025959
0.000585386 1.44545e-05 -9.81818e-07
1.44545e-05 7.82865e-05 1.65449e-08
-9.81818e-07 1.65449e-08 -2.61556e-05
0.000365762 -1.52736e-05 -8.28556e-07
-1.52736e-05 -3.84065e-05 2.01463e-07
-8.28556e-07 2.01463e-07 -0.00016735
0.000284927 3.28035e-05 6.10833e-07
3.28035e-05 -0.000113644 6.00247e-07
6.10833e-07 6.00247e-07 -0.000190743
0.000752427 7.28034e-05 8.76358e-07
7.28034e-05 0.000195232 -8.46096e-07
8.76358e-07 -8.46096e-07 6.34918e-05
0.00142592 9.29549e-05 -6.86285e-07
9.29549e-05 0.000556595 -3.0535e-06
-6.86285e-07 -3.0535e-06 0.000500151
0.000547499 1.04067e-05 6.29098e-06
1.04067e-05 4.48822e-05 -5.09599e-06
6.29098e-06 -5.09599e-06 -4.34545e-05
0.000477777 7.96792e-05 2.84496e-07
7.96792e-05 3.62488e-05 1.91573e-06
2.84496e-07 1.91573e-06 -0.000107996
0.000614507 4.38876e-05 2.55023e-06
4.38876e-05 0.000113416 2.28707e-06
2.55023e-06 2.28707e-06 -3.02566e-05
0.000609123 3.36581e-05 2.21439e-06
3.36581e-05 8.6365e-05 2.62011e-06
2.21439e-06 2.62011e-06 -1.85007e-05
0.000499706 -4.59477e-05 -1.07115e-07
-4.59477e-05 5.76889e-06 2.78741e-06
-1.07115e-07 2.78741e-06 -6.33774e-05
0.000523552 2.59021e-06 -2.18341e-07
2.59021e-06 1.62332e-05 -2.02833e-07
-2.18341e-07 -2.02833e-07 -4.76713e-05
0.00127548 1.42374e-05 2.08692e-06
1.42374e-05 0.000451979 2.59899e-06
2.08692e-06 2.59899e-06 0.000436744
0.000524814 -1.22464e-05 4.37384e-07
-1.22464e-05 1.0484e-05 -2.91556e-06
4.37384e-07 -2.91556e-06 -4.77436e-05
0.00129065 3.78701e-06 -4.01911e-06
3.78701e-06 0.00045525 -1.61442e-06
-4.01911e-06 -1.61442e-06 0.000441566
0.000758724 -1.26545e-05 1.62906e-05
-1.26545e-05 0.000125715 8.56808e-06
1.62906e-05 8.56808e-06 0.000132551
0.00135115 -8.63752e-06 -7.46724e-06
-8.63752e-06 0.000488018 -6.15706e-06
-7.46724e-06 -6.15706e-06 0.00047453
0.000787127 -2.34226e-05 5.52796e-06
-2.34226e-05 0.000138195 3.35531e-06
5.52796e-06 3.35531e-06 0.000143941
0.000748134 -3.24921e-05 -2.26367e-07
-3.24921e-05 0.000113567 -2.51961e-06
-2.26367e-07 -2.51961e-06 0.000118247
0.000643208 1.01973e-06 1.90322e-06
1.01973e-06 6.69119e-05 -1.75046e-06
1.90322e-06 -1.75046e-06 2.43635e-05
0.00048032 2.87493e-05 5.49087e-07
2.87493e-05 -4.80477e-05 -3.34665e-06
5.49087e-07 -3.34665e-06 -6.08441e-05
0.000489465 4.25873e-05 3.46743e-07
4.25873e-05 -3.0062e-05 2.1068e-07
3.46743e-07 2.1068e-07 -4.91438e-05
0.00212477 7.92716e-05 1.5413e-05
7.92716e-05 0.000986408 -3.96639e-06
1.5413e-05 -3.96639e-06 0.000995142
0.000510726 6.66184e-05 5.19687e-06
6.66184e-05 3.95721e-06 6.11638e-06
5.19687e-06 6.11638e-06 -2.88606e-05
0.00246839 0.000107103 -5.49012e-06
0.000107103 0.00120918 -5.24319e-07
-5.49012e-06 -5.24319e-07 0.0012106
0.00296308 0.000121415 -3.13848e-05
0.000121415 0.00151844 4.76309e-06
-3.13848e-05 4.76309e-06 0.0015148
0.00210132 0.000326141 1.32529e-08
0.000326141 9.56877e-05 8.9149e-08
1.32529e-08 8.9149e-08 1.45371e-05
0.00202958 0.000184639 -2.79536e-06
0.000184639 3.27442e-05 -8.23112e-07
-2.79536e-06 -8.23112e-07 1.34979e-05
0.00195071 5.72506e-05 -3.58949e-06
5.72506e-05 1.97961e-05 -2.3137e-07
-3.58949e-06 -2.3137e-07 1.00253e-05
0.00189419 -4.7628e-06 -5.11239e-06
-4.7628e-06 2.75126e-05 -1.38427e-07
-5.11239e-06 -1.38427e-07 -3.32336e-06
0.00193198 -7.75213e-06 -8.74971e-07
-7.75213e-06 7.95284e-06 2.14588e-08
-8.74971e-07 2.14588e-08 1.2846e-06
0.00205107 9.63774e-05 -7.84396e-08
9.63774e-05 -1.5387e-05 1.31884e-07
-7.84396e-08 1.31884e-07 5.53929e-06
0.00215302 0.000281596 -1.02013e-06
0.000281596 2.12525e-05 -1.42252e-07
-1.02013e-06 -1.42252e-07 4.49143e-06
0.00202456 -9.98431e-06 1.67753e-07
-9.98431e-06 -3.19296e-05 -5.32786e-07
1.67753e-07 -5.32786e-07 -1.54671e-06
0.00221795 0.000149484 4.41986e-06
0.000149484 -2.06848e-05 8.43614e-08
4.41986e-06 8.43614e-08 1.09851e-05
0.00240417 0.000100987 3.77832e-06
0.000100987 0.000159465 1.17995e-05
3.77832e-06 1.17995e-05 0.000225863
0.001949 -7.99806e-05 -3.99361e-06
-7.99806e-05 1.60581e-05 3.67973e-07
-3.99361e-06 3.67973e-07 5.01016e-06
0.00199098 -0.00021558 -2.17566e-06
-0.00021558 -2.78481e-05 4.30774e-07
-2.17566e-06 4.30774e-07 -3.07462e-05
0.00200927 -0.000341683 -1.57592e-06
-0.000341683 4.7762e-05 6.90121e-07
-1.57592e-06 6.90121e-07 4.42376e-06
0.00092896 -0.000391852 5.17201e-07
-0.000391852 5.57466e-05 1.51743e-06
5.17201e-07 1.51743e-06 -0.000257888
0.00162668 -0.000608976 4.68768e-06
-0.000608976 0.000347102 1.42013e-07
4.68768e-06 1.42013e-07 -4.59931e-05
0.00208087 -0.000654541 2.25387e-08
-0.000654541 0.000457447 4.9646e-08
2.25387e-08 4.9646e-08 0.000107857
0.00198152 -0.000445798 3.81192e-07
-0.000445798 5.14247e-05 2.30911e-06
3.81192e-07 2.30911e-06 -5.29094e-05
0.00184599 -0.000532202 -6.06337e-06
-0.000532202 0.000112696 -3.48727e-06
-6.06337e-06 -3.48727e-06 -9.2246e-05
0.000671914 -0.00033687 -7.10065e-06
-0.00033687 -7.61805e-05 1.04718e-06
-7.10065e-06 1.04718e-06 -0.000371312
0.00208455 -0.000371849 1.43138e-05
-0.000371849 0.000963614 -6.42714e-06
1.43138e-05 -6.42714e-06 0.000593132
0.00103247 -6.21976e-05 2.8654e-07
-6.21976e-05 0.000344188 1.2925e-06
2.8654e-07 1.2925e-06 0.000104277
0.000455268 1.72888e-05 1.09921e-06
1.72888e-05 -3.37014e-05 -3.86408e-07
1.09921e-06 -3.86408e-07 -8.68604e-05
0.000818529 3.64254e-05 4.73675e-06
3.64254e-05 0.000231102 3.57482e-07
4.73675e-06 3.57482e-07 0.000101996
0.000664302 -8.23294e-05 1.15477e-06
-8.23294e-05 0.000162096 2.39277e-06
1.15477e-06 2.39277e-06 -3.49181e-05
0.00202686 -0.000111839 5.45519e-07
-0.000111839 -2.15017e-05 -2.70118e-09
5.45519e-07 -2.70118e-09 2.43644e-06
0.00052301 1.54534e-05 1.32681e-06
1.54534e-05 -3.80617e-06 2.37575e-07
1.32681e-06 2.37575e-07 -4.82754e-05
0.000457862 -6.2657e-05 -1.8598e-06
-6.2657e-05 -2.1667e-05 -2.10311e-07
-1.8598e-06 -2.10311e-07 -9.87413e-05
0.00211701 -0.000288903 -2.45982e-07
-0.000288903 -1.79688e-05 1.8405e-07
-2.45982e-07 1.8405e-07 1.02762e-05
0.0020564 -0.000392423 -1.38353e-06
-0.000392423 3.28424e-05 1.2451e-07
-1.38353e-06 1.2451e-07 9.00928e-06
0.00156495 -0.000525671 -2.29878e-06
-0.000525671 0.000411173 7.90458e-07
-2.29878e-06 7.90458e-07 3.92147e-05
0.00182926 -0.000684707 1.3923e-06
-0.000684707 0.000440401 1.19314e-06
1.3923e-06 1.19314e-06 1.62754e-06
0.00178846 -0.000664708 4.82808e-06
-0.000664708 0.000213708 -3.04081e-06
4.82808e-06 -3.04081e-06 -0.00011861
0.00217365 -0.000582885 2.75014e-06
-0.000582885 0.000157393 -7.56046e-07
2.75014e-06 -7.56046e-07 1.88734e-05
0.000708333 -1.51347e-06 1.24463e-07
-1.51347e-06 0.000165455 -1.40868e-06
1.24463e-07 -1.40868e-06 6.52246e-05
0.000676004 -3.63963e-05 2.17931e-07
-3.63963e-05 0.000170476 1.67733e-06
2.17931e-07 1.67733e-06 1.6452e-06
0.00156437 -0.000442243 3.06228e-06
-0.000442243 0.000450362 -1.29788e-07
3.06228e-06 -1.29788e-07 0.000126893
0.00165649 -0.000357149 1.69428e-05
-0.000357149 0.000761972 -4.33058e-06
1.69428e-05 -4.33058e-06 0.000321885
0.000432955 -5.70706e-05 -3.84251e-06
-5.70706e-05 -1.14617e-05 -1.24083e-06
-3.84251e-06 -1.24083e-06 -0.000292133
0.000588698 -4.645e-05 9.79465e-07
-4.645e-05 9.31417e-05 -1.40726e-06
9.79465e-07 -1.40726e-06 -0.00011513
0.00206337 -0.000130379 2.45707e-06
-0.000130379 -0.000102728 -1.27134e-06
2.45707e-06 -1.27134e-06 -6.97354e-05
0.00207744 -0.000365172 -1.24069e-06
-0.000365172 -0.000164355 1.34704e-06
-1.24069e-06 1.34704e-06 -1.99588e-05
0.00216815 -0.000528608 -5.80438e-06
-0.000528608 3.4274e-05 -1.42686e-07
-5.80438e-06 -1.42686e-07 -1.54815e-05
0.00169057 -0.000684036 4.85684e-06
-0.000684036 -8.38377e-06 -3.40372e-06
4.85684e-06 -3.40372e-06 -0.000197514
0.00112217 -0.000497026 -1.61819e-06
-0.000497026 0.000180864 -7.89864e-06
-1.61819e-06 -7.89864e-06 -0.000198719
0.0024457 -0.000818753 -1.19445e-05
-0.000818753 0.000716041 1.0855e-05
-1.19445e-05 1.0855e-05 0.000241991
0.000250796 4.84388e-05 -1.16536e-06
4.84388e-05 -0.000136494 -2.89222e-06
-1.16536e-06 -2.89222e-06 -0.000221218
0.000617087 -5.79414e-05 5.09195e-06
-5.79414e-05 7.29823e-05 -5.0989e-07
5.09195e-06 -5.0989e-07 -6.97818e-07
0.000985465 -0.000127016 1.66298e-06
-0.000127016 0.000303238 4.68615e-06
1.66298e-06 4.68615e-06 0.000200614
0.000532836 2.63534e-05 -3.94808e-06
2.63534e-05 6.70861e-05 8.95327e-06
-3.94808e-06 8.95327e-06 -7.48367e-05
0.000795796 -8.83097e-05 -5.13383e-06
-8.83097e-05 0.000220149 7.81143e-06
-5.13383e-06 7.81143e-06 4.8425e-05
0.00158662 -5.02391e-05 5.38841e-06
-5.02391e-05 0.000620266 -2.43856e-06
5.38841e-06 -2.43856e-06 0.000414106
-0.00103107 -0.000169787 7.5367e-06
-0.000169787 -0.000562825 1.56732e-07
7.5367e-06 1.56732e-07 -0.00118676
-0.000202516 -0.000398001 -3.22126e-05
-0.000398001 -0.000623196 4.86672e-06
-3.22126e-05 4.86672e-06 -0.000927445
0.000375441 5.73123e-05 -8.51083e-08
5.73123e-05 -3.92896e-05 -7.98317e-07
-8.51083e-08 -7.98317e-07 -0.000172428
0.00104441 0.000200462 -8.01632e-06
0.000200462 0.000425226 -5.62775e-06
-8.01632e-06 -5.62775e-06 0.000198852
0.00224 0.000397886 -5.89655e-06
0.000397886 1.53575e-05 -3.2775e-06
-5.89655e-06 -3.2775e-06 -8.41535e-06
0.0022042 0.000515111 -3.31485e-06
0.000515111 0.000263794 5.89024e-07
-3.31485e-06 5.89024e-07 7.47869e-05
0.00185587 0.000294607 -7.02908e-06
0.000294607 0.000722653 -1.14625e-06
-7.02908e-06 -1.14625e-06 0.00051609
0.00177619 0.000423627 -4.31291e-06
0.000423627 0.00058848 -3.27228e-06
-4.31291e-06 -3.27228e-06 0.000301533
0.00200155 0.000586904 2.55963e-06
0.000586904 0.000315128 2.35671e-06
2.55963e-06 2.35671e-06 2.22313e-05
0.0017375 0.000556659 -1.75972e-07
0.000556659 0.000406326 -2.42253e-07
-1.75972e-07 -2.42253e-07 5.37411e-05
0.000474917 8.68881e-05 7.49246e-07
8.68881e-05 2.20275e-05 -9.75649e-07
7.49246e-07 -9.75649e-07 -0.000123171
0.00225063 0.000311314 -1.80999e-06
0.000311314 -3.92372e-05 -1.47766e-06
-1.80999e-06 -1.47766e-06 9.14292e-06
0.00140532 0.000278396 1.55086e-06
0.000278396 0.000586243 1.75071e-06
1.55086e-06 1.75071e-06 0.000337943
0.00149129 0.00041078 1.32637e-06
0.00041078 0.000399301 8.26989e-07
1.32637e-06 8.26989e-07 0.000113396
0.00244598 0.000506558 1.73789e-06
0.000506558 0.000266484 4.7165e-07
1.73789e-06 4.7165e-07 0.000162632
0.00162898 0.000590477 -1.86604e-06
0.000590477 7.89843e-06 -4.44491e-06
-1.86604e-06 -4.44491e-06 -0.000274998
0.0019159 0.000602502 4.67661e-07
0.000602502 0.00047553 3.64933e-07
4.67661e-07 3.64933e-07 0.000102274
0.00110043 0.000212166 -4.30122e-06
0.000212166 0.000437837 4.70801e-06
-4.30122e-06 4.70801e-06 0.000237629
0.00288005 0.000400619 -6.61972e-05
0.000400619 0.000382083 -1.86891e-05
-6.61972e-05 -1.86891e-05 0.00044979
0.0018232 0.000433201 -4.73289e-06
0.000433201 0.000741586 2.75812e-06
-4.73289e-06 2.75812e-06 0.000461491
0.00152425 0.000487027 -3.02584e-06
0.000487027 0.000334932 -5.43577e-06
-3.02584e-06 -5.43577e-06 -4.77768e-06
0.0022608 0.000654028 -3.49487e-05
0.000654028 0.00023713 -1.78265e-05
-3.49487e-05 -1.78265e-05 3.67139e-05
0.00100809 0.000537954 -2.59048e-05
0.000537954 -9.52963e-05 -3.48669e-06
-2.59048e-05 -3.48669e-06 -0.000445588
0.000444269 0.000567065 3.09933e-05
0.000567065 -0.00121179 -3.30808e-05
3.09933e-05 -3.30808e-05 -0.00122179
0.000270143 9.27258e-05 2.32731e-06
9.27258e-05 -0.000103241 -3.53757e-07
2.32731e-06 -3.53757e-07 -0.000209733
0.000560484 8.37882e-05 -5.54681e-07
8.37882e-05 9.30794e-05 1.02597e-06
-5.54681e-07 1.02597e-06 5.7876e-06
0.00171 0.0001284 4.27455e-07
0.0001284 0.000752621 -2.07049e-06
4.27455e-07 -2.07049e-06 0.000669327
0.000494489 -6.42042e-05 6.17488e-07
-6.42042e-05 3.13601e-05 -3.45218e-06
6.17488e-07 -3.45218e-06 -7.70131e-05
0.000446524 -4.05729e-05 -1.16227e-06
-4.05729e-05 6.71471e-06 -4.71531e-07
-1.16227e-06 -4.71531e-07 -0.000118342
0.000928579 0.000160232 1.66911e-07
0.000160232 0.000305619 1.51552e-06
1.66911e-07 1.51552e-06 0.000164661
1.56778e-05 1.4513e-05 -2.73942e-06
1.4513e-05 -0.000260404 9.83711e-06
-2.73942e-06 9.83711e-06 -0.000337062
0.000567044 -1.71881e-05 -5.0289e-07
-1.71881e-05 7.52711e-05 -3.47631e-08
-5.0289e-07 -3.47631e-08 -3.79653e-05
0.000534299 5.68024e-05 1.61489e-07
5.68024e-05 4.7118e-05 -5.74778e-07
1.61489e-07 -5.74778e-07 -8.22109e-05
0.000955913 7.86247e-05 9.14871e-07
7.86247e-05 0.000272396 3.11965e-06
9.14871e-07 3.11965e-06 0.000212199
0.00063175 4.80737e-05 1.42315e-06
4.80737e-05 0.000114504 6.13728e-07
1.42315e-06 6.13728e-07 -2.1381e-05
0.000672768 3.45454e-05 -1.55529e-06
3.45454e-05 0.000115108 -1.37611e-06
-1.55529e-06 -1.37611e-06 2.12367e-05
0.00135992 9.45015e-05 -1.41735e-07
9.45015e-05 0.000537146 -9.59995e-06
-1.41735e-07 -9.59995e-06 0.000478174
0.000967532 9.69708e-05 -2.26071e-06
9.69708e-05 0.000298436 -2.27084e-06
-2.26071e-06 -2.27084e-06 0.00015468
0.000941939 0.00011162 1.13751e-06
0.00011162 0.000295662 9.3035e-07
1.13751e-06 9.3035e-07 0.000159594
0.000763113 6.47273e-05 3.749e-07
6.47273e-05 0.000205797 1.41537e-06
3.749e-07 1.41537e-06 5.13363e-05
0.0003481 -2.32024e-05 6.4668e-08
-2.32024e-05 -7.62669e-05 3.03876e-06
6.4668e-08 3.03876e-06 -0.000187318
0.000963893 -3.94669e-05 -1.08493e-07
-3.94669e-05 0.000358234 -1.36538e-06
-1.08493e-07 -1.36538e-06 0.000197667
0.000284158 -3.24196e-05 -1.77113e-06
-3.24196e-05 -0.000111513 2.68263e-06
-1.77113e-06 2.68263e-06 -0.000227139
0.000493218 3.41249e-06 -1.92915e-06
3.41249e-06 6.13459e-06 2.9327e-06
-1.92915e-06 2.9327e-06 -6.76433e-05
0.000512805 3.26687e-05 2.20595e-06
3.26687e-05 1.58153e-05 -1.35773e-07
2.20595e-06 -1.35773e-07 -5.54671e-05
0.000429786 2.1516e-05 1.10057e-06
2.1516e-05 -6.1978e-05 4.10651e-06
1.10057e-06 4.10651e-06 -8.22868e-05
0.000493304 6.13811e-06 -2.88168e-06
6.13811e-06 2.48228e-06 -2.98508e-06
-2.88168e-06 -2.98508e-06 -6.48869e-05
0.00090014 1.4619e-05 -2.96998e-06
1.4619e-05 0.000221934 -1.61819e-06
-2.96998e-06 -1.61819e-06 0.000204544
0.00252629 -9.80995e-06 1.33214e-05
-9.80995e-06 0.00121536 5.30322e-06
1.33214e-05 5.30322e-06 0.00122916
0.00137091 6.28546e-06 -6.27044e-06
6.28546e-06 0.000505112 -6.03191e-06
-6.27044e-06 -6.03191e-06 0.000491054
0.000775256 -1.39086e-05 4.10509e-06
-1.39086e-05 0.000132784 3.31224e-06
4.10509e-06 3.31224e-06 0.000139394
0.000777405 -2.29772e-05 3.00393e-07
-2.29772e-05 0.000129605 -2.45595e-06
3.00393e-07 -2.45595e-06 0.000135407
0.000530713 1.64765e-05 -1.19962e-06
1.64765e-05 3.29213e-06 -1.68214e-06
-1.19962e-06 -1.68214e-06 -3.93922e-05
0.000573589 -1.23211e-05 9.89517e-07
-1.23211e-05 2.54649e-05 -2.73951e-07
9.89517e-07 -2.73951e-07 -1.79436e-05
0.000531149 2.27062e-05 4.872e-07
2.27062e-05 -1.94123e-05 -3.36726e-06
4.872e-07 -3.36726e-06 -3.01265e-05
0.000812606 3.67201e-05 -2.00162e-07
3.67201e-05 0.000159186 8.92071e-08
-2.00162e-07 8.92071e-08 0.000147498
0.00209816 6.36054e-05 1.20374e-05
6.36054e-05 0.000962241 -4.19557e-06
1.20374e-05 -4.19557e-06 0.0009744
0.000504714 4.88999e-05 2.63694e-06
4.88999e-05 -1.76829e-05 4.1023e-06
2.63694e-06 4.1023e-06 -3.86837e-05
0.00226081 8.53568e-05 -2.9567e-06
8.53568e-05 0.0010718 -2.37808e-07
-2.9567e-06 -2.37808e-07 0.00107898
0.00257295 0.00011245 -1.13153e-05
0.00011245 0.0012743 4.86443e-06
-1.13153e-05 4.86443e-06 0.00127438
0.00208703 0.000285604 -2.58969e-06
0.000285604 -1.74297e-05 -1.3151e-06
-2.58969e-06 -1.3151e-06 -3.12919e-05
0.00203441 9.09716e-05 5.39423e-08
9.09716e-05 -1.76871e-05 7.89635e-08
5.39423e-08 7.89635e-08 8.85832e-07
0.00193307 -3.92962e-06 -3.19338e-06
-3.92962e-06 5.82289e-06 -9.60934e-08
-3.19338e-06 -9.60934e-08 2.16421e-06
0.00201991 -6.84157e-06 1.40732e-07
-6.84157e-06 -3.31133e-05 -1.73852e-07
1.40732e-07 -1.73852e-07 -3.02065e-06
0.00219577 0.000152559 -2.25764e-07
0.000152559 -1.77702e-05 2.60436e-07
-2.25764e-07 2.60436e-07 1.25701e-05
0.00210206 8.03493e-05 7.53904e-06
8.03493e-05 -4.06982e-05 -4.34329e-06
7.53904e-06 -4.34329e-06 2.06789e-05
0.00220722 -5.53145e-06 1.66557e-06
-5.53145e-06 -6.08983e-05 -7.70189e-07
1.66557e-06 -7.70189e-07 2.17631e-06
0.00387838 0.000565745 4.28151e-05
0.000565745 -0.000419193 8.46739e-06
4.28151e-05 8.46739e-06 7.82796e-05
0.00239768 5.84345e-05 -2.82585e-05
5.84345e-05 0.000298244 2.75756e-05
-2.82585e-05 2.75756e-05 0.000458306
0.000513542 9.809e-05 -1.08704e-06
9.809e-05 3.32586e-05 -7.79891e-08
-1.08704e-06 -7.79891e-08 -5.02396e-05
0.00203505 -0.000113087 -5.43046e-07
-0.000113087 -2.39152e-05 1.4564e-07
-5.43046e-07 1.4564e-07 2.15446e-06
0.00209158 -0.000278577 1.33649e-06
-0.000278577 -1.43508e-05 8.95578e-08
1.33649e-06 8.95578e-08 7.64313e-06
0.00200607 -0.000386882 5.00535e-08
-0.000386882 2.81755e-06 9.24437e-07
5.00535e-08 9.24437e-07 -1.62257e-05
0.000876458 -0.000455887 -8.62005e-06
-0.000455887 7.85644e-06 5.45482e-06
-8.62005e-06 5.45482e-06 -0.000348697
0.00220934 -0.000724111 5.82612e-06
-0.000724111 0.000651957 6.91883e-06
5.82612e-06 6.91883e-06 0.000205803
0.00167107 -0.000656898 -3.19088e-06
-0.000656898 0.000132373 -8.79403e-06
-3.19088e-06 -8.79403e-06 -0.000195858
0.00221573 -0.000581797 -3.64375e-06
-0.000581797 0.000194063 -4.33671e-07
-3.64375e-06 -4.33671e-07 5.46569e-05
0.00170864 -0.000443055 1.68426e-05
-0.000443055 0.00051129 -1.2965e-05
1.68426e-05 -1.2965e-05 0.000193219
0.000505157 -0.000222745 1.65735e-05
-0.000222745 6.94411e-05 -9.75091e-06
1.65735e-05 -9.75091e-06 -0.000305778
0.00137441 -8.72525e-05 2.44736e-06
-8.72525e-05 0.00053139 -3.07151e-07
2.44736e-06 -3.07151e-07 0.000278237
0.000530616 8.02366e-06 -7.15359e-08
8.02366e-06 2.8847e-06 1.20157e-06
-7.15359e-08 1.20157e-06 -4.15453e-05
0.000950299 -2.74603e-05 2.20579e-06
-2.74603e-05 0.000323062 1.70761e-06
2.20579e-06 1.70761e-06 0.000104019
0.000830421 -1.94091e-05 4.38453e-06
-1.94091e-05 0.000248322 -2.47076e-06
4.38453e-06 -2.47076e-06 0.000147472
0.00083108 -3.57576e-05 2.58082e-06
-3.57576e-05 0.000260984 -3.71029e-06
2.58082e-06 -3.71029e-06 9.17024e-05
0.000260315 -3.87263e-05 -4.01921e-06
-3.87263e-05 -0.000150282 1.19314e-06
-4.01921e-06 1.19314e-06 -0.000223895
0.00211168 -0.00014658 -5.30934e-07
-0.00014658 -0.000102279 -1.03757e-07
-5.30934e-07 -1.03757e-07 -4.81156e-05
0.000405651 3.16281e-05 -6.52116e-08
3.16281e-05 -3.18917e-05 -1.79342e-06
-6.52116e-08 -1.79342e-06 -0.000121608
0.00059202 -5.31981e-05 1.84402e-06
-5.31981e-05 7.54705e-05 8.21664e-07
1.84402e-06 8.21664e-07 -6.88881e-06
0.000821757 -9.99261e-05 1.67797e-06
-9.99261e-05 0.000199568 4.4579e-07
1.67797e-06 4.4579e-07 0.000102816
0.00210665 -0.00037301 1.60406e-06
-0.00037301 -0.000125436 -6.01077e-07
1.60406e-06 -6.01077e-07 -1.24684e-05
0.00218564 -0.000532912 6.52673e-07
-0.000532912 4.53356e-05 -9.32733e-07
6.52673e-07 -9.32733e-07 -5.79936e-06
0.000758163 -0.000419939 6.86204e-06
-0.000419939 -2.43133e-05 3.39052e-08
6.86204e-06 3.39052e-08 -0.000372984
0.00241724 -0.000818901 1.03521e-05
-0.000818901 0.000704423 -4.54893e-07
1.03521e-05 -4.54893e-07 0.000241498
0.0021854 -0.000724231 -2.39047e-06
-0.000724231 0.000286643 1.76688e-06
-2.39047e-06 1.76688e-06 7.79284e-05
0.000212645 -3.02494e-05 -6.15361e-07
-3.02494e-05 -0.000128839 -1.03359e-06
-6.15361e-07 -1.03359e-06 -0.000258919
0.000908965 -9.13438e-05 -1.30236e-06
-9.13438e-05 0.000302299 1.00736e-06
-1.30236e-06 1.00736e-06 0.000115686
0.00128013 -0.000560237 -6.22391e-06
-0.000560237 0.000238195 1.57975e-06
-6.22391e-06 1.57975e-06 -0.000127038
0.000418366 -0.000142669 3.87942e-07
-0.000142669 0.000126954 -2.87973e-06
3.87942e-07 -2.87973e-06 -0.000360497
0.000758137 -6.03069e-05 7.45845e-07
-6.03069e-05 0.000120559 1.88623e-06
7.45845e-07 1.88623e-06 -7.65302e-05
0.00252941 -0.000277882 -2.52864e-06
-0.000277882 0.000137754 -1.30428e-07
-2.52864e-06 -1.30428e-07 0.000196877
0.00190693 -0.000402742 -1.67875e-05
-0.000402742 -0.000232687 4.77055e-06
-1.67875e-05 4.77055e-06 -7.14849e-05
0.00210536 -0.000670625 -1.07043e-05
-0.000670625 8.37348e-05 6.38114e-07
-1.07043e-05 6.38114e-07 -7.24209e-05
0.00331893 -0.000884508 -2.10496e-05
-0.000884508 0.00104006 -1.17165e-06
-2.10496e-05 -1.17165e-06 0.000756649
0.000879341 -0.000530683 -2.43728e-05
-0.000530683 3.80863e-05 -2.66726e-06
-2.43728e-05 -2.66726e-06 -0.000338942
0.000237469 -1.79254e-05 1.9319e-06
-1.79254e-05 -0.000131356 8.79195e-07
1.9319e-06 8.79195e-07 -0.000233321
0.000433555 6.78054e-06 7.33837e-07
6.78054e-06 -5.77404e-05 4.03937e-06
7.33837e-07 4.03937e-06 -0.000151361
-0.000291107 -3.92477e-05 -1.00277e-06
-3.92477e-05 -0.000467797 -2.99944e-06
-1.00277e-06 -2.99944e-06 -0.000561943
0.00194018 -0.00024723 -1.1763e-05
-0.00024723 0.000954413 1.57602e-05
-1.1763e-05 1.57602e-05 0.00078216
0.000995168 -9.52128e-05 -5.70984e-06
-9.52128e-05 0.00032271 1.50652e-05
-5.70984e-06 1.50652e-05 0.000155997
-0.00108584 -8.98821e-05 2.5373e-06
-8.98821e-05 -0.000505338 4.13842e-06
2.5373e-06 4.13842e-06 -0.00108299
-0.000261667 -0.000673013 -6.32241e-06
-0.000673013 -0.000273889 -5.3175e-06
-6.32241e-06 -5.3175e-06 -0.00089284
0.00110431 0.000151034 -8.84959e-07
0.000151034 0.000417585 -5.63804e-06
-8.84959e-07 -5.63804e-06 0.000250265
0.000429144 0.000131655 -3.61145e-06
0.000131655 -3.09051e-05 -2.89636e-06
-3.61145e-06 -2.89636e-06 -0.000239374
0.00238886 0.000289413 6.41213e-06
0.000289413 3.68473e-05 -3.65829e-08
6.41213e-06 -3.65829e-08 9.7415e-05
0.00233203 0.000500958 1.60339e-05
0.000500958 0.000205325 5.34956e-06
1.60339e-05 5.34956e-06 0.000106295
0.00217657 0.000629848 1.83502e-05
0.000629848 0.000323822 4.77292e-06
1.83502e-05 4.77292e-06 3.90383e-05
0.00125418 0.000385529 -9.66827e-07
0.000385529 0.000265957 8.23747e-07
-9.66827e-07 8.23747e-07 -1.87793e-05
0.00166159 0.000571512 3.37288e-06
0.000571512 0.000339221 3.28144e-06
3.37288e-06 3.28144e-06 -2.83243e-05
0.0016714 0.000210272 1.10136e-07
0.000210272 0.000747081 -8.17895e-08
1.10136e-07 -8.17895e-08 0.000562547
0.00252166 0.000337634 -4.0756e-07
0.000337634 0.00021096 1.43943e-06
-4.0756e-07 1.43943e-06 0.000294582
0.00131068 0.000349112 -2.02215e-06
0.000349112 0.000412746 2.18745e-06
-2.02215e-06 2.18745e-06 0.000157657
0.0016344 0.000503481 2.19717e-06
0.000503481 0.000428676 -7.03757e-07
2.19717e-06 -7.03757e-07 7.56285e-05
0.0020869 0.000632366 -3.04838e-06
0.000632366 0.000143626 -3.25727e-06
-3.04838e-06 -3.25727e-06 -3.65663e-05
0.00164921 0.00060743 -4.37641e-06
0.00060743 0.000277193 4.83553e-06
-4.37641e-06 4.83553e-06 -8.92812e-05
0.00302156 0.00080614 5.4952e-05
0.00080614 -0.000143467 4.83306e-06
5.4952e-05 4.83306e-06 -0.000276236
0.00109405 0.000265327 -5.56418e-06
0.000265327 0.000428882 2.05199e-06
-5.56418e-06 2.05199e-06 0.00021611
0.00327359 0.000611293 -8.19259e-05
0.000611293 0.000764178 -3.31234e-05
-8.19259e-05 -3.31234e-05 0.000707159
0.000946469 0.000365125 -4.32448e-06
0.000365125 5.71596e-05 3.32077e-07
-4.32448e-06 3.32077e-07 -0.000217658
6.86864e-05 0.000368214 -2.93283e-06
0.000368214 -0.000484329 -1.40702e-05
-2.93283e-06 -1.40702e-05 -0.000817655
0.000660069 0.000609054 -3.50683e-05
0.000609054 -0.000436247 -9.21774e-06
-3.50683e-05 -9.21774e-06 -0.000644664
0.0131641 0.00036829 -0.000362805
0.00036829 0.00232656 -4.68753e-05
-0.000362805 -4.68753e-05 0.00158218
0.00522926 0.00130723 3.8259e-05
0.00130723 -0.000357957 -7.934e-05
3.8259e-05 -7.934e-05 9.4067e-05
-0.00073916 0.000836877 -2.97061e-06
0.000836877 -0.00129969 3.33973e-06
-2.97061e-06 3.33973e-06 -0.00159745
-0.00203816 -0.00147374 0.000972996
-0.00147374 0.000463982 0.000211534
0.000972996 0.000211534 -0.00207264
0.0159763 -0.00574185 -1.3686e-05
-0.00574185 0.00508954 6.04923e-05
-1.3686e-05 6.04923e-05 0.00473121
9.62093e-05 8.48346e-05 7.0315e-06
8.48346e-05 -0.000166199 1.39438e-06
7.0315e-06 1.39438e-06 -0.000257979
0.00104877 9.32168e-05 5.78269e-07
9.32168e-05 0.000387685 -2.36247e-06
5.78269e-07 -2.36247e-06 0.00030706
0.00187933 0.000213121 -8.67981e-07
0.000213121 0.00091125 -1.0549e-06
-8.67981e-07 -1.0549e-06 0.000801198
0.000537177 -5.84536e-05 -8.56573e-07
-5.84536e-05 6.58963e-05 -2.4952e-06
-8.56573e-07 -2.4952e-06 -5.2446e-05
0.000491413 6.21171e-05 -1.09359e-06
6.21171e-05 2.28352e-05 -2.10614e-06
-1.09359e-06 -2.10614e-06 -0.000109491
0.000734173 -1.51262e-05 -3.82257e-08
-1.51262e-05 0.000177061 -8.17132e-07
-3.82257e-08 -8.17132e-07 3.9729e-05
0.00068162 5.6309e-05 -3.81494e-06
5.6309e-05 0.000115394 7.86903e-06
-3.81494e-06 7.86903e-06 1.67985e-05
0.000490834 5.96165e-05 2.72011e-06
5.96165e-05 -1.11827e-05 7.70764e-06
2.72011e-06 7.70764e-06 -7.39922e-05
0.000681634 0.000109218 -1.84129e-06
0.000109218 0.000157013 -4.99808e-07
-1.84129e-06 -4.99808e-07 4.50038e-06
0.00044829 -6.02647e-06 4.01686e-07
-6.02647e-06 -6.25801e-06 9.34275e-07
4.01686e-07 9.34275e-07 -0.000121318
0.000659944 3.38835e-05 -4.75429e-07
3.38835e-05 0.000136877 -4.02227e-08
-4.75429e-07 -4.02227e-08 -1.12524e-05
0.000560876 7.22877e-05 -2.64409e-07
7.22877e-05 4.24296e-05 -4.14441e-07
-2.64409e-07 -4.14441e-07 -1.68032e-05
0.00072215 9.37643e-05 -1.40011e-06
9.37643e-05 0.000156318 -3.77211e-07
-1.40011e-06 -3.77211e-07 1.64437e-05
0.00114204 0.000140861 -1.7059e-06
0.000140861 0.000430899 -1.02275e-06
-1.7059e-06 -1.02275e-06 0.000269367
0.000338006 8.75369e-05 7.83826e-07
8.75369e-05 -3.61902e-05 -2.77732e-06
7.83826e-07 -2.77732e-06 -0.000182251
0.0007886 9.57409e-05 2.48306e-06
9.57409e-05 0.000213182 5.40551e-07
2.48306e-06 5.40551e-07 6.69306e-05
0.000553141 -3.07841e-05 1.77734e-06
-3.07841e-05 5.71438e-05 7.04638e-07
1.77734e-06 7.04638e-07 -8.82842e-05
0.000369103 -6.49393e-05 -1.38833e-06
-6.49393e-05 -5.74451e-05 2.66556e-06
-1.38833e-06 2.66556e-06 -0.000176616
0.000738509 -1.85627e-05 -8.78046e-07
-1.85627e-05 0.000183027 5.24826e-08
-8.78046e-07 5.24826e-08 3.38312e-05
0.00100833 2.18801e-05 -1.20913e-07
2.18801e-05 0.000342895 -7.29521e-06
-1.20913e-07 -7.29521e-06 0.000199373
0.000546969 -3.01634e-05 -9.96611e-07
-3.01634e-05 9.08339e-05 -1.77354e-07
-9.96611e-07 -1.77354e-07 -4.86517e-05
0.000775028 -4.04939e-05 1.66001e-06
-4.04939e-05 0.000217239 -6.04593e-07
1.66001e-06 -6.04593e-07 7.31303e-05
0.000659298 -0.000109166 -2.6557e-06
-0.000109166 0.000126784 1.69042e-06
-2.6557e-06 1.69042e-06 9.50408e-06
0.000350802 -2.05696e-05 1.50287e-07
-2.05696e-05 -6.7164e-05 1.11221e-06
1.50287e-07 1.11221e-06 -0.000185983
0.000525972 -4.29427e-05 -2.2576e-06
-4.29427e-05 1.76699e-05 3.13445e-06
-2.2576e-06 3.13445e-06 -5.17784e-05
0.00052719 -3.11344e-05 1.67748e-06
-3.11344e-05 2.44929e-05 5.91656e-08
1.67748e-06 5.91656e-08 -4.81694e-05
0.000493873 4.57847e-06 1.64066e-06
4.57847e-06 -2.07192e-05 6.00924e-06
1.64066e-06 6.00924e-06 -4.18792e-05
0.000546801 3.99782e-05 -1.57e-06
3.99782e-05 3.17638e-05 -3.04252e-06
-1.57e-06 -3.04252e-06 -3.64557e-05
0.000454971 2.24335e-05 4.2804e-07
2.24335e-05 -4.58903e-05 5.93166e-08
4.2804e-07 5.93166e-08 -6.65939e-05
0.00246571 8.21245e-07 9.46924e-07
8.21245e-07 0.00117983 5.28233e-06
9.46924e-07 5.28233e-06 0.00119348
0.000519184 2.41369e-05 -2.37194e-06
2.41369e-05 -1.12399e-05 -6.4493e-06
-2.37194e-06 -6.4493e-06 -3.19066e-05
0.00167345 -8.04258e-06 -1.00702e-06
-8.04258e-06 0.000689212 1.16959e-07
-1.00702e-06 1.16959e-07 0.000698667
0.000785802 -1.3265e-05 5.50576e-07
-1.3265e-05 0.000135911 -2.25783e-06
5.50576e-07 -2.25783e-06 0.000142718
0.000511618 -7.42917e-06 6.591e-07
-7.42917e-06 -8.37341e-06 -1.23361e-06
6.591e-07 -1.23361e-06 -4.72399e-05
0.000572499 -3.25123e-05 2.47566e-07
-3.25123e-05 3.06108e-05 -4.63114e-08
2.47566e-07 -4.63114e-08 -1.36953e-05
0.000545305 1.34095e-05 9.40659e-07
1.34095e-05 -1.27769e-05 -3.02232e-06
9.40659e-07 -3.02232e-06 -2.13805e-05
0.000524842 -2.78072e-05 -2.00736e-06
-2.78072e-05 -5.20978e-06 1.1777e-06
-2.00736e-06 1.1777e-06 -4.84125e-05
0.000801195 2.68447e-05 -5.21194e-08
2.68447e-05 0.00014749 -7.31683e-07
-5.21194e-08 -7.31683e-07 0.000138866
0.00198647 4.72657e-05 8.45422e-06
4.72657e-05 0.000887996 -4.30576e-06
8.45422e-06 -4.30576e-06 0.000903206
0.000507633 3.26413e-05 -3.03813e-07
3.26413e-05 -2.80677e-05 3.31202e-06
-3.03813e-07 3.31202e-06 -4.20498e-05
0.00214413 6.66473e-05 -6.44234e-06
6.66473e-05 0.000993303 1.11788e-06
-6.44234e-06 1.11788e-06 0.00100464
0.00232125 8.99692e-05 -9.58612e-06
8.99692e-05 0.00111039 4.44945e-06
-9.58612e-06 4.44945e-06 0.00111647
0.00216545 0.000156711 -2.98498e-06
0.000156711 -1.8683e-05 -1.35146e-06
-2.98498e-06 -1.35146e-06 1.06173e-05
0.0020116 -5.72026e-06 3.6815e-08
-5.72026e-06 -3.6556e-05 1.08298e-07
3.6815e-08 1.08298e-07 -6.93578e-06
0.00183827 5.83098e-05 1.0722e-06
5.83098e-05 -0.000225027 7.56775e-07
1.0722e-06 7.56775e-07 -0.000167285
0.00240319 0.000412501 6.6267e-05
0.000412501 -0.00101324 1.54195e-05
6.6267e-05 1.54195e-05 -0.000599133
0.0021799 -2.68165e-05 -1.62511e-06
-2.68165e-05 -5.9211e-05 -1.96021e-06
-1.62511e-06 -1.96021e-06 4.28137e-06
0.00209667 6.17791e-05 1.6002e-06
6.17791e-05 0.000133713 -7.73673e-06
1.6002e-06 -7.73673e-06 0.000247881
0.0032303 -3.04588e-05 -2.6616e-05
-3.04588e-05 0.000902218 3.90544e-06
-2.6616e-05 3.90544e-06 0.000899253
0.00262645 -1.82467e-05 6.23985e-07
-1.82467e-05 -0.00172457 -2.58441e-05
6.23985e-07 -2.58441e-05 -0.00101755
0.00263832 0.000156723 8.48415e-05
0.000156723 -0.000487646 5.14408e-05
8.48415e-05 5.14408e-05 -8.33876e-05
0.0005883 8.03271e-05 4.80451e-07
8.03271e-05 8.1245e-05 -2.02847e-07
4.80451e-07 -2.02847e-07 -4.00266e-06
0.000589555 -5.54168e-06 4.58098e-07
-5.54168e-06 8.76729e-05 -1.26007e-07
4.58098e-07 -1.26007e-07 -2.19147e-06
0.000499343 -0.000100596 -2.42164e-06
-0.000100596 3.66039e-05 1.43037e-06
-2.42164e-06 1.43037e-06 -6.78864e-05
0.000493633 -4.859e-05 -1.57232e-06
-4.859e-05 5.1537e-05 1.21953e-06
-1.57232e-06 1.21953e-06 -5.94795e-05
0.00217309 -0.000163086 -4.08142e-06
-0.000163086 -8.88931e-05 9.23972e-07
-4.08142e-06 9.23972e-07 -1.81071e-05
0.00213205 -0.000375956 1.77104e-06
-0.000375956 -8.36628e-05 -8.59575e-07
1.77104e-06 -8.59575e-07 4.40868e-07
0.00217794 -0.000531583 -1.70771e-06
-0.000531583 4.42789e-05 1.2612e-06
-1.70771e-06 1.2612e-06 -6.18082e-06
0.00298755 -0.000664142 1.05299e-05
-0.000664142 0.00124521 3.2425e-06
1.05299e-05 3.2425e-06 0.000861201
0.00068779 -0.000640119 9.52565e-06
-0.000640119 -0.000245937 -2.97481e-06
9.52565e-06 -2.97481e-06 -0.000675316
0.00235911 -0.000732632 5.01387e-06
-0.000732632 0.000405039 -2.85259e-06
5.01387e-06 -2.85259e-06 0.000185782
0.00188136 -0.000633294 6.76907e-07
-0.000633294 0.000576333 -3.55843e-06
6.76907e-07 -3.55843e-06 0.000174473
0.00271366 -0.000183001 3.58146e-06
-0.000183001 0.00130799 -1.4147e-06
3.58146e-06 -1.4147e-06 0.000959441
-0.000148838 -2.71414e-05 -1.13392e-06
-2.71414e-05 -0.000446072 1.01419e-06
-1.13392e-06 1.01419e-06 -0.000621326
0.000669817 -5.30015e-05 4.84826e-07
-5.30015e-05 0.00012785 6.49104e-07
4.84826e-07 6.49104e-07 4.48461e-05
0.000585955 -0.000108805 1.09688e-06
-0.000108805 0.000117996 -7.10821e-06
1.09688e-06 -7.10821e-06 -7.64586e-05
0.000755648 1.07039e-06 2.80919e-06
1.07039e-06 0.000214381 -4.61723e-06
2.80919e-06 -4.61723e-06 7.68754e-05
0.00061975 2.01746e-06 -1.11703e-07
2.01746e-06 0.000112213 2.17973e-07
-1.11703e-07 2.17973e-07 1.5878e-05
0.000538209 -3.76166e-05 -7.5717e-06
-3.76166e-05 1.86533e-05 3.06835e-06
-7.5717e-06 3.06835e-06 -6.81237e-05
0.00248656 -0.000260825 1.6604e-06
-0.000260825 0.000119865 1.12793e-06
1.6604e-06 1.12793e-06 0.0001959
0.000583872 -2.5736e-05 3.66841e-07
-2.5736e-05 9.52649e-05 5.69373e-07
3.66841e-07 5.69373e-07 -2.08635e-05
0.000811471 -1.91677e-05 4.75231e-06
-1.91677e-05 0.000193803 -7.34673e-07
4.75231e-06 -7.34673e-07 8.68671e-05
-5.64608e-05 -7.3593e-06 1.44746e-06
-7.3593e-06 -0.000313005 8.87753e-07
1.44746e-06 8.87753e-07 -0.000386623
0.0018582 -0.000406598 1.73412e-07
-0.000406598 -0.00028936 -1.29306e-06
1.73412e-07 -1.29306e-06 -0.000132738
0.00208297 -0.000664387 2.01194e-06
-0.000664387 7.38336e-05 -1.27079e-06
2.01194e-06 -1.27079e-06 -7.38579e-05
0.00175827 -0.000663657 -1.28189e-06
-0.000663657 0.000517237 -2.31463e-07
-1.28189e-06 -2.31463e-07 0.000120577
0.00224134 -0.000793549 -5.87932e-06
-0.000793549 0.000450811 1.41634e-06
-5.87932e-06 1.41634e-06 0.000176145
0.00128954 -0.000104999 -6.95495e-07
-0.000104999 0.000523676 1.05937e-06
-6.95495e-07 1.05937e-06 0.000369237
0.000330087 -5.05148e-05 3.71897e-06
-5.05148e-05 -9.40552e-05 8.44942e-07
3.71897e-06 8.44942e-07 -0.000259694
0.00145625 -0.000802339 4.28043e-06
-0.000802339 0.000701098 -1.39598e-06
4.28043e-06 -1.39598e-06 6.55367e-05
0.00120061 -0.000294836 -3.03919e-06
-0.000294836 0.000550987 -1.23159e-07
-3.03919e-06 -1.23159e-07 0.000118739
0.00293202 -0.000361611 -3.01624e-05
-0.000361611 0.000257091 -9.45063e-07
-3.01624e-05 -9.45063e-07 0.000477843
0.00234553 -0.000538176 -4.13382e-05
-0.000538176 0.000142701 1.12351e-05
-4.13382e-05 1.12351e-05 0.000186279
0.00234491 -0.000792923 -7.22739e-06
-0.000792923 0.000357445 -2.98053e-06
-7.22739e-06 -2.98053e-06 9.54193e-05
0.00233679 -0.000751852 -1.40186e-05
-0.000751852 0.000684187 7.9737e-07
-1.40186e-05 7.9737e-07 0.000412347
0.000346956 -4.24102e-05 -7.33354e-07
-4.24102e-05 -2.00314e-05 -2.89784e-06
-7.33354e-07 -2.89784e-06 -0.000141551
0.00024344 -8.46454e-05 -4.30168e-06
-8.46454e-05 -0.0001168 -9.55518e-06
-4.30168e-06 -9.55518e-06 -0.0002623
6.53524e-05 -0.000149987 -4.55433e-06
-0.000149987 -8.94877e-06 2.58871e-05
-4.55433e-06 2.58871e-05 -0.000276333
-0.00082809 -0.000502651 -5.22989e-06
-0.000502651 -0.000115604 -2.23172e-05
-5.22989e-06 -2.23172e-05 -0.000956065
0.00172194 -0.000496068 3.52513e-05
-0.000496068 -0.00442127 1.638e-06
3.52513e-05 1.638e-06 -0.00449046
0.00193116 0.000202115 -5.469e-07
0.000202115 0.000886876 -4.77041e-06
-5.469e-07 -4.77041e-06 0.000708874
0.000945903 0.000292364 -2.12348e-07
0.000292364 0.000190764 4.52267e-08
-2.12348e-07 4.52267e-08 -5.23733e-05
0.00204579 0.000291993 6.5129e-05
0.000291993 -4.60311e-05 1.69363e-05
6.5129e-05 1.69363e-05 5.09303e-05
0.00224996 0.000634181 2.81123e-05
0.000634181 0.000234604 9.95958e-06
2.81123e-05 9.95958e-06 6.66456e-05
0.00209576 0.000656875 1.39355e-05
0.000656875 0.000543567 1.17087e-05
1.39355e-05 1.17087e-05 0.000162728
0.00145486 0.000488757 6.99934e-06
0.000488757 0.000342627 7.65088e-06
6.99934e-06 7.65088e-06 -1.62261e-05
0.0045424 0.000988241 0.000112862
0.000988241 0.000353815 4.29364e-05
0.000112862 4.29364e-05 5.16682e-05
0.00137909 0.000255288 4.4034e-06
0.000255288 0.000590735 5.44087e-08
4.4034e-06 5.44087e-08 0.000387305
0.00252483 0.000553262 -1.59515e-05
0.000553262 0.000335118 -9.70402e-08
-1.59515e-05 -9.70402e-08 0.000303907
0.00103933 0.000376187 -2.62737e-06
0.000376187 0.000143947 2.49043e-06
-2.62737e-06 2.49043e-06 -0.000136934
0.00140361 0.00053244 1.97105e-06
0.00053244 0.00027685 -4.59697e-06
1.97105e-06 -4.59697e-06 -8.55542e-05
0.00159672 0.000686936 -8.75107e-06
0.000686936 5.44928e-05 -2.42445e-07
-8.75107e-06 -2.42445e-07 -0.000173679
0.0038419 -0.00055705 -0.000158153
-0.00055705 -0.003815 -5.49888e-05
-0.000158153 -5.49888e-05 -0.00483736
0.00706966 0.00123145 -7.7957e-05
0.00123145 0.000422432 -6.56272e-05
-7.7957e-05 -6.56272e-05 0.000601381
0.00124119 0.000899632 -1.03285e-05
0.000899632 -0.000197279 8.40881e-06
-1.03285e-05 8.40881e-06 -0.000569365
-0.000891224 -0.00124043 0.000364321
-0.00124043 0.0021023 0.000154938
0.000364321 0.000154938 -0.000307202
0.0075673 -0.00570981 -0.000329626
-0.00570981 0.0028162 -0.000316208
-0.000329626 -0.000316208 0.00244502
0.00140208 0.000276743 -1.2729e-05
0.000276743 0.000547308 7.99286e-07
-1.2729e-05 7.99286e-07 0.000351172
0.000535276 0.000521518 0.000504338
0.000521518 0.00318199 5.39736e-05
0.000504338 5.39736e-05 0.0014876
0.00184556 -0.00180431 -0.000160087
-0.00180431 0.00420323 -0.000217109
-0.000160087 -0.000217109 0.000453658
0.00242954 0.000843238 -4.42356e-05
0.000843238 0.000338365 -1.23373e-05
-4.42356e-05 -1.23373e-05 0.000246308
0.000912949 0.000275226 -2.22736e-05
0.000275226 8.02135e-05 -7.01525e-06
-2.22736e-05 -7.01525e-06 -0.000161312
0.000698596 0.000549892 -3.20812e-05
0.000549892 -6.09447e-05 -2.5251e-05
-3.20812e-05 -2.5251e-05 -0.000371332
0.000250935 0.000878149 3.61906e-05
0.000878149 -0.000633687 8.89741e-05
3.61906e-05 8.89741e-05 -0.000936815
0.0120584 0.00171744 2.34726e-05
0.00171744 0.00195597 -4.97788e-05
2.34726e-05 -4.97788e-05 0.000477169
0.0029671 0.00170377 -9.50348e-06
0.00170377 1.96887e-05 -3.34365e-05
-9.50348e-06 -3.34365e-05 -0.000424512
0.00891024 -0.00489589 0.000761101
-0.00489589 0.00214154 0.000447688
0.000761101 0.000447688 0.000486937
0.010155 -0.00231805 -5.00169e-05
-0.00231805 0.00162892 0.000463434
-5.00169e-05 0.000463434 0.00110514
0.000509362 7.84867e-05 6.80384e-06
7.84867e-05 9.16044e-05 -1.90152e-06
6.80384e-06 -1.90152e-06 1.1053e-05
0.00039208 0.000118815 7.56693e-06
0.000118815 2.31988e-05 3.21039e-07
7.56693e-06 3.21039e-07 -7.85309e-05
0.00184531 0.000252347 2.06215e-06
0.000252347 0.000908457 -3.09515e-06
2.06215e-06 -3.09515e-06 0.000754371
0.000593327 1.10961e-05 8.07627e-07
1.10961e-05 0.000105148 -7.65746e-07
8.07627e-07 -7.65746e-07 -2.37345e-05
0.00068043 5.75848e-05 -1.33496e-06
5.75848e-05 0.000146939 -1.68187e-06
-1.33496e-06 -1.68187e-06 2.76866e-06
0.000328265 1.4365e-05 -1.46751e-06
1.4365e-05 -7.17145e-05 6.6474e-07
-1.46751e-06 6.6474e-07 -0.000208514
0.000535173 8.47815e-05 -6.43696e-06
8.47815e-05 5.49709e-05 1.38354e-06
-6.43696e-06 1.38354e-06 -8.54478e-05
-0.000367971 4.7034e-05 -3.29362e-06
4.7034e-05 -0.000530226 1.36289e-06
-3.29362e-06 1.36289e-06 -0.000589234
0.000381061 -1.0429e-05 2.12128e-07
-1.0429e-05 -4.37315e-05 9.47086e-07
2.12128e-07 9.47086e-07 -0.000166511
0.00109584 9.22062e-05 1.30404e-06
9.22062e-05 0.000400662 -3.46755e-07
1.30404e-06 -3.46755e-07 0.000245723
0.000673034 4.58584e-05 5.95021e-07
4.58584e-05 0.000150109 3.18492e-07
5.95021e-07 3.18492e-07 -7.82566e-07
0.000720012 2.54155e-05 1.15676e-06
2.54155e-05 0.00017756 -4.56406e-07
1.15676e-06 -4.56406e-07 1.94721e-05
0.000585792 9.89815e-05 -3.47305e-07
9.89815e-05 0.000114992 -1.84485e-06
-3.47305e-07 -1.84485e-06 -2.85508e-05
0.00119072 0.00010227 -2.09689e-06
0.00010227 0.000478473 -1.7843e-06
-2.09689e-06 -1.7843e-06 0.00032128
-0.000169717 3.95899e-05 -5.22562e-06
3.95899e-05 -0.000282617 -4.5494e-06
-5.22562e-06 -4.5494e-06 -0.000447536
0.000715182 -9.33646e-05 -1.51633e-07
-9.33646e-05 0.000168823 -1.82202e-07
-1.51633e-07 -1.82202e-07 1.74237e-05
0.000768078 -7.20644e-05 -6.22169e-07
-7.20644e-05 0.000216673 1.66221e-08
-6.22169e-07 1.66221e-08 5.67321e-05
0.000754334 -4.03506e-05 -1.44501e-07
-4.03506e-05 0.000205276 -3.33586e-07
-1.44501e-07 -3.33586e-07 4.69993e-05
0.000778767 -1.25637e-05 -2.46352e-06
-1.25637e-05 0.000189613 -9.5136e-08
-2.46352e-06 -9.5136e-08 5.86714e-05
0.000850558 1.91665e-05 -4.82888e-06
1.91665e-05 0.000276844 -3.73735e-06
-4.82888e-06 -3.73735e-06 0.00010333
0.00073253 -1.7018e-05 1.93705e-06
-1.7018e-05 0.000180665 -5.74173e-06
1.93705e-06 -5.74173e-06 4.8529e-05
-0.000604629 -2.07802e-05 -1.56495e-06
-2.07802e-05 -0.000651896 -4.98487e-06
-1.56495e-06 -4.98487e-06 -0.00076184
0.000629981 -3.52634e-05 1.50595e-06
-3.52634e-05 0.000100373 -9.19319e-07
1.50595e-06 -9.19319e-07 -3.68981e-05
0.000438628 -7.04017e-05 1.6211e-06
-7.04017e-05 -3.23916e-06 1.11596e-06
1.6211e-06 1.11596e-06 -0.000129002
0.000674766 -7.18296e-05 -9.84516e-07
-7.18296e-05 0.000161277 -2.91161e-07
-9.84516e-07 -2.91161e-07 2.29571e-05
0.000548939 -7.30815e-05 -2.18473e-06
-7.30815e-05 4.37161e-05 1.4475e-06
-2.18473e-06 1.4475e-06 -5.92191e-05
0.000502381 -5.75896e-05 2.66861e-06
-5.75896e-05 2.4025e-05 3.62244e-07
2.66861e-06 3.62244e-07 -0.000103124
0.000538572 -9.91081e-05 9.00226e-08
-9.91081e-05 4.95798e-05 2.59407e-07
9.00226e-08 2.59407e-07 -6.64775e-05
0.000563722 -4.19607e-05 -2.42226e-06
-4.19607e-05 3.88398e-05 3.47761e-06
-2.42226e-06 3.47761e-06 -3.14567e-05
0.000427279 -7.64348e-06 1.51862e-06
-7.64348e-06 -7.44709e-06 -8.03579e-07
1.51862e-06 -8.03579e-07 -0.000135999
0.000523932 1.36557e-06 1.80315e-06
1.36557e-06 2.3287e-05 5.5986e-08
1.80315e-06 5.5986e-08 -5.00876e-05
0.00142674 -1.20186e-05 -6.02811e-06
-1.20186e-05 0.000547694 6.17009e-06
-6.02811e-06 6.17009e-06 0.000530554
0.000526388 5.55516e-05 -1.12209e-06
5.55516e-05 2.43682e-05 -3.01169e-06
-1.12209e-06 -3.01169e-06 -4.81359e-05
0.000897656 -7.95879e-06 -2.91699e-06
-7.95879e-06 0.000227131 7.5088e-07
-2.91699e-06 7.5088e-07 0.000208158
0.000778608 2.98041e-06 -3.77135e-06
2.98041e-06 0.000143674 4.81959e-06
-3.77135e-06 4.81959e-06 0.000149392
0.000455029 -5.12525e-06 2.01265e-06
-5.12525e-06 -4.57046e-05 -4.42618e-06
2.01265e-06 -4.42618e-06 -6.63386e-05
0.00248518 1.56144e-06 5.54062e-06
1.56144e-06 0.00119195 -1.48801e-08
5.54062e-06 -1.48801e-08 0.00120557
0.000879995 -3.82608e-07 -5.59891e-06
-3.82608e-07 0.000201784 -5.15918e-06
-5.59891e-06 -5.15918e-06 0.000207245
0.000529665 6.38486e-05 2.66945e-06
6.38486e-05 4.98362e-05 6.19585e-07
2.66945e-06 6.19585e-07 -4.22009e-05
0.000502126 4.33561e-05 -1.81528e-06
4.33561e-05 -5.01223e-06 -1.77309e-06
-1.81528e-06 -1.77309e-06 -4.79718e-05
0.000520609 -6.1158e-06 1.33775e-06
-6.1158e-06 4.78963e-06 3.58931e-08
1.33775e-06 3.58931e-08 -3.90484e-05
0.000530336 8.46287e-06 8.90821e-07
8.46287e-06 -2.14921e-05 -2.93771e-06
8.90821e-07 -2.93771e-06 -2.94145e-05
0.000569312 -4.99098e-05 -1.89255e-06
-4.99098e-05 3.25839e-05 1.62319e-06
-1.89255e-06 1.62319e-06 -1.45384e-05
0.000508103 1.37252e-05 6.76672e-08
1.37252e-05 -3.63343e-05 -7.48774e-07
6.76672e-08 -7.48774e-07 -4.46023e-05
0.00197326 3.23547e-05 5.82052e-06
3.23547e-05 0.000875945 -4.45539e-06
5.82052e-06 -4.45539e-06 0.000893001
0.00109085 3.41229e-05 -6.68704e-07
3.41229e-05 0.000327275 1.73089e-06
-6.68704e-07 1.73089e-06 0.000319905
0.00144962 4.10637e-05 -1.15486e-07
4.10637e-05 0.000556396 1.37849e-06
-1.15486e-07 1.37849e-06 0.000567308
0.000883278 4.48938e-05 -1.04512e-05
4.48938e-05 0.000211958 7.29177e-06
-1.04512e-05 7.29177e-06 0.000216432
0.00103422 0.000280297 8.88415e-05
0.000280297 -0.00161307 1.39962e-05
8.88415e-05 1.39962e-05 -0.00122868
0.00214219 -4.28677e-05 -2.14273e-06
-4.28677e-05 -5.46054e-05 3.24781e-06
-2.14273e-06 3.24781e-06 2.19622e-06
0.00205515 7.29338e-05 3.52682e-05
7.29338e-05 0.000130771 -1.50252e-05
3.52682e-05 -1.50252e-05 0.000232054
0.00210028 0.000251884 -3.97559e-05
0.000251884 -0.00154486 -2.86007e-05
-3.97559e-05 -2.86007e-05 -0.000620462
0.00196473 9.31419e-05 3.05726e-05
9.31419e-05 -0.000656266 -2.12189e-06
3.05726e-05 -2.12189e-06 -0.000367431
0.00242269 -3.85634e-05 2.90589e-06
-3.85634e-05 0.000345753 -6.78776e-06
2.90589e-06 -6.78776e-06 0.000360669
0.00388815 -0.000213162 -4.61567e-05
-0.000213162 0.000867683 -1.23565e-05
-4.61567e-05 -1.23565e-05 0.000851303
0.00263946 -0.000106672 2.555e-05
-0.000106672 -2.39815e-05 2.54644e-05
2.555e-05 2.54644e-05 0.000110179
0.0131774 -0.000716879 9.70787e-06
-0.000716879 0.00255805 2.57792e-05
9.70787e-06 2.57792e-05 0.00114631
0.0135733 0.00375602 0.000949296
0.00375602 0.00545866 -0.000378129
0.000949296 -0.000378129 0.00386815
0.0123672 0.00432907 -8.24919e-06
0.00432907 0.00834883 6.05522e-06
-8.24919e-06 6.05522e-06 0.00709755
0.000312463 -9.65843e-05 1.43918e-06
-9.65843e-05 -7.30172e-05 -2.96669e-07
1.43918e-06 -2.96669e-07 -0.000175792
0.000580331 -1.00538e-05 1.29608e-06
-1.00538e-05 7.82735e-05 -1.37226e-07
1.29608e-06 -1.37226e-07 -8.37773e-06
0.000663307 -8.69523e-05 -1.33482e-06
-8.69523e-05 0.00014104 1.54768e-06
-1.33482e-06 1.54768e-06 4.3966e-05
0.000576778 -4.40459e-05 1.17985e-07
-4.40459e-05 8.26882e-05 4.64505e-07
1.17985e-07 4.64505e-07 -2.26829e-05
0.000668198 7.22212e-05 -2.28548e-06
7.22212e-05 0.000165787 2.15137e-06
-2.28548e-06 2.15137e-06 4.36753e-05
0.000409324 0.000114381 2.06781e-06
0.000114381 -3.47005e-05 5.77073e-06
2.06781e-06 5.77073e-06 -0.000147647
0.000953609 -1.78218e-05 3.71773e-06
-1.78218e-05 0.000333855 1.89566e-06
3.71773e-06 1.89566e-06 0.000208043
0.000501052 -2.54699e-05 -1.49272e-06
-2.54699e-05 3.86812e-05 1.15337e-06
-1.49272e-06 1.15337e-06 -6.69931e-05
0.00242197 -0.000246455 6.27e-06
-0.000246455 7.63491e-05 3.87301e-07
6.27e-06 3.87301e-07 0.000177876
0.00187228 -0.000422914 1.46706e-05
-0.000422914 -0.000319193 -5.10737e-06
1.46706e-05 -5.10737e-06 -0.000172037
0.00213427 -0.000666309 5.60915e-06
-0.000666309 0.00010195 1.33131e-06
5.60915e-06 1.33131e-06 -4.15349e-05
0.00170021 -0.00064908 2.24268e-05
-0.00064908 0.000469118 8.18073e-07
2.24268e-05 8.18073e-07 8.29646e-05
0.00202831 -0.000791316 2.06867e-06
-0.000791316 0.000330976 5.48501e-06
2.06867e-06 5.48501e-06 5.13229e-05
0.00339674 -0.000956125 1.99049e-05
-0.000956125 0.00179132 -6.09963e-07
1.99049e-05 -6.09963e-07 0.00112534
0.00325847 -0.000486191 2.63659e-06
-0.000486191 0.00155189 -2.79447e-06
2.63659e-06 -2.79447e-06 0.00120911
0.00059976 -0.000145067 8.75448e-06
-0.000145067 9.5552e-05 -1.43158e-05
8.75448e-06 -1.43158e-05 -0.000103901
0.000540672 -5.19376e-05 -5.72578e-07
-5.19376e-05 2.68266e-05 3.94126e-06
-5.72578e-07 3.94126e-06 -7.03862e-05
0.000631831 -8.56457e-05 7.34194e-06
-8.56457e-05 9.62072e-05 -1.81328e-05
7.34194e-06 -1.81328e-05 -4.0357e-05
0.000952337 -3.42866e-05 1.91467e-06
-3.42866e-05 0.000320059 -2.18086e-07
1.91467e-06 -2.18086e-07 0.000198636
0.000568064 4.23807e-05 2.26454e-06
4.23807e-05 7.4975e-05 1.04836e-06
2.26454e-06 1.04836e-06 1.86307e-05
0.00221292 -0.000328925 -1.29272e-06
-0.000328925 -7.58596e-05 3.37852e-06
-1.29272e-06 3.37852e-06 0.000134062
0.000539518 -2.47698e-05 -2.08811e-06
-2.47698e-05 9.41737e-05 -1.01787e-06
-2.08811e-06 -1.01787e-06 -2.92388e-05
0.000953882 -0.000144686 -5.56731e-06
-0.000144686 0.000308277 5.64985e-06
-5.56731e-06 5.64985e-06 0.000174975
0.00173624 -0.000515087 5.02252e-06
-0.000515087 -0.0002045 -2.21729e-06
5.02252e-06 -2.21729e-06 -0.000145796
0.00171815 -0.000711752 6.58174e-07
-0.000711752 1.21639e-05 -7.42154e-07
6.58174e-07 -7.42154e-07 -0.000197822
0.000876199 -0.000602031 -4.79222e-07
-0.000602031 -0.000134215 -1.1936e-06
-4.79222e-07 -1.1936e-06 -0.000385241
0.00151055 -0.000262354 1.0979e-06
-0.000262354 0.000775037 -1.40083e-05
1.0979e-06 -1.40083e-05 0.000484457
0.0015171 -0.000545346 -1.86519e-06
-0.000545346 0.0010806 2.51724e-06
-1.86519e-06 2.51724e-06 0.000366305
0.00382183 -0.000563757 -4.16151e-05
-0.000563757 0.000699694 8.3357e-06
-4.16151e-05 8.3357e-06 0.000838038
0.00358394 -0.000780461 -4.9861e-05
-0.000780461 0.00101799 1.48633e-05
-4.9861e-05 1.48633e-05 0.000904707
0.0020168 -0.000803883 -8.01529e-06
-0.000803883 0.000270087 1.20336e-06
-8.01529e-06 1.20336e-06 5.42297e-05
-0.000210384 -0.000404095 -1.50608e-05
-0.000404095 -0.000491881 1.80483e-05
-1.50608e-05 1.80483e-05 -0.00067301
0.000474044 -0.000137722 1.86378e-06
-0.000137722 7.34533e-05 5.83574e-06
1.86378e-06 5.83574e-06 -0.000102272
0.00049522 -0.000149558 4.14333e-06
-0.000149558 0.00013018 1.4707e-07
4.14333e-06 1.4707e-07 -7.25143e-05
0.00160669 -0.000191462 -2.11452e-06
-0.000191462 0.00109936 -1.46952e-05
-2.11452e-06 -1.46952e-05 0.000538923
-0.00624157 -0.0002428 0.000400633
-0.0002428 -0.00458381 -3.07032e-06
0.000400633 -3.07032e-06 -0.00342353
0.0109692 -0.000244603 4.46806e-05
-0.000244603 0.00201682 5.58375e-06
4.46806e-05 5.58375e-06 0.00164788
0.00170088 0.000231985 7.52567e-06
0.000231985 0.000752294 -6.4907e-06
7.52567e-06 -6.4907e-06 0.00057256
0.00137588 0.000413619 -2.75615e-06
0.000413619 0.000375218 4.16259e-06
-2.75615e-06 4.16259e-06 8.25685e-05
0.00220701 0.000482799 7.94504e-05
0.000482799 0.000186402 3.48169e-05
7.94504e-05 3.48169e-05 0.000173089
0.00292763 0.000804416 2.66535e-05
0.000804416 0.000755874 9.59338e-06
2.66535e-05 9.59338e-06 0.000499022
0.00265311 0.000683804 1.70489e-05
0.000683804 0.000986001 5.72458e-06
1.70489e-05 5.72458e-06 0.000599288
0.0137186 0.000686452 7.16708e-05
0.000686452 0.00309218 -7.5082e-06
7.16708e-05 -7.5082e-06 0.00209868
0.00803745 0.00168112 -0.000194627
0.00168112 8.6682e-05 2.83937e-05
-0.000194627 2.83937e-05 0.000315078
0.00277759 0.000965547 3.98103e-06
0.000965547 0.000682601 -2.91009e-05
3.98103e-06 -2.91009e-05 0.000221421
0.0117159 -0.00288488 -0.000335468
-0.00288488 0.00501586 -2.3421e-05
-0.000335468 -2.3421e-05 0.00326311
-0.00229354 -0.00582223 -0.00167236
-0.00582223 0.000349522 -0.00114649
-0.00167236 -0.00114649 -0.000409396
0.000983944 0.000272557 9.29963e-07
0.000272557 0.000341268 3.60843e-07
9.29963e-07 3.60843e-07 0.0001288
-0.00228883 -0.00168212 0.000309617
-0.00168212 -0.00269112 5.44306e-05
0.000309617 5.44306e-05 -0.00375176
-0.00331285 -0.00131696 -0.000331291
-0.00131696 0.0035901 -0.000157117
-0.000331291 -0.000157117 -0.000494909
0.00306168 0.000810536 -1.74854e-05
0.000810536 0.000658539 -5.47607e-07
-1.74854e-05 -5.47607e-07 0.000584943
0.00102386 0.000352051 -6.05542e-06
0.000352051 0.000184025 5.07154e-06
-6.05542e-06 5.07154e-06 -9.37423e-05
0.00143585 0.000658809 4.11568e-06
0.000658809 0.000338799 2.42503e-06
4.11568e-06 2.42503e-06 -3.48986e-06
0.00152571 0.00085258 3.96185e-05
0.00085258 0.000213274 2.24077e-05
3.96185e-05 2.24077e-05 1.87362e-05
0.013227 0.00161541 -0.000120154
0.00161541 0.00170929 -6.81547e-05
-0.000120154 -6.81547e-05 -0.000238364
0.00534314 0.00233846 -6.54478e-05
0.00233846 0.000404404 -4.69783e-05
-6.54478e-05 -4.69783e-05 0.000332783
0.0158311 -0.00356303 0.000346131
-0.00356303 0.00640626 -1.95266e-05
0.000346131 -1.95266e-05 0.00460947
0.011082 -0.00306223 0.000199182
-0.00306223 0.000804099 0.000564067
0.000199182 0.000564067 0.000290805
0.00234731 0.000334067 -1.97446e-05
0.000334067 0.00113778 -1.23012e-05
-1.97446e-05 -1.23012e-05 0.000953737
-0.00967607 0.00087304 -0.000124227
0.00087304 0.00244007 -0.000112501
-0.000124227 -0.000112501 -0.00260444
0.00426123 0.000616256 -0.000287863
0.000616256 0.00305298 -0.000381999
-0.000287863 -0.000381999 -0.00113105
0.00249591 0.000655406 -2.63879e-05
0.000655406 0.000606617 8.11129e-06
-2.63879e-05 8.11129e-06 0.00059902
0.00193094 0.000607789 -6.43074e-05
0.000607789 0.000755145 -2.49754e-05
-6.43074e-05 -2.49754e-05 0.000454616
0.00164081 0.000659515 -6.99525e-05
0.000659515 0.00113402 -1.57823e-05
-6.99525e-05 -1.57823e-05 0.000514433
-1.60728e-05 0.00145504 -6.06566e-05
0.00145504 -0.000288387 -3.41203e-05
-6.06566e-05 -3.41203e-05 -0.000467778
-0.000585833 0.00190314 0.000288888
0.00190314 -0.00162269 0.000131071
0.000288888 0.000131071 -0.00460896
0.0156725 -0.00428237 0.000242253
-0.00428237 0.00702128 0.000537277
0.000242253 0.000537277 0.00463129
0.00758241 -0.00126162 -0.000113803
-0.00126162 -0.00204085 -0.000112611
-0.000113803 -0.000112611 -0.00088115
-0.000449771 0.000104423 2.78912e-06
0.000104423 -0.000448911 -6.16578e-06
2.78912e-06 -6.16578e-06 -0.000569987
0.0013488 0.000227095 1.00473e-05
0.000227095 0.000594795 3.56498e-06
1.00473e-05 3.56498e-06 0.000443077
-0.000256456 8.074e-05 1.50577e-06
8.074e-05 -0.00030994 -1.13331e-05
1.50577e-06 -1.13331e-05 -0.000451566
0.000362071 5.1721e-05 1.89857e-06
5.1721e-05 -5.47342e-05 -8.24308e-07
1.89857e-06 -8.24308e-07 -0.000177131
0.000847351 6.75759e-05 -9.16993e-07
6.75759e-05 0.000262151 -1.6718e-06
-9.16993e-07 -1.6718e-06 9.95085e-05
0.000641612 3.07111e-07 -1.39121e-06
3.07111e-07 0.000136376 1.70442e-06
-1.39121e-06 1.70442e-06 -1.99095e-05
0.000600366 4.75197e-05 4.57405e-06
4.75197e-05 0.000106161 1.79749e-06
4.57405e-06 1.79749e-06 -4.9065e-05
0.000140752 6.9001e-05 -3.29412e-06
6.9001e-05 -0.000149136 1.05637e-06
-3.29412e-06 1.05637e-06 -0.000285824
0.000749646 4.63358e-05 1.11266e-07
4.63358e-05 0.000206051 -9.12881e-07
1.11266e-07 -9.12881e-07 4.62495e-05
0.000768757 6.96276e-05 6.98143e-07
6.96276e-05 0.000212677 -2.28365e-07
6.98143e-07 -2.28365e-07 6.39937e-05
0.000804889 -5.31184e-05 -8.89775e-07
-5.31184e-05 0.000223021 1.44567e-06
-8.89775e-07 1.44567e-06 6.991e-05
-0.000443473 2.94097e-05 2.02747e-06
2.94097e-05 -0.000422082 6.5616e-07
2.02747e-06 6.5616e-07 -0.000592448
-0.000660066 3.49644e-05 -1.66549e-06
3.49644e-05 -0.000308077 3.26349e-06
-1.66549e-06 3.26349e-06 -0.000595748
0.000780545 -1.56789e-05 -4.85482e-06
-1.56789e-05 0.000249218 -6.79622e-06
-4.85482e-06 -6.79622e-06 9.82853e-05
0.000918956 -1.1617e-05 2.04963e-07
-1.1617e-05 0.000316873 -8.12397e-07
2.04963e-07 -8.12397e-07 0.000142288
0.000792311 -6.9273e-05 -2.38062e-07
-6.9273e-05 0.000235381 -1.04003e-06
-2.38062e-07 -1.04003e-06 7.13484e-05
0.000710777 -6.13364e-05 2.16382e-06
-6.13364e-05 0.000138779 4.19603e-06
2.16382e-06 4.19603e-06 1.5239e-05
0.000793372 -6.315e-05 9.78913e-07
-6.315e-05 0.000228563 -1.24262e-06
9.78913e-07 -1.24262e-06 6.39588e-05
0.000733399 -2.02683e-05 -1.3536e-06
-2.02683e-05 0.000173864 1.20113e-07
-1.3536e-06 1.20113e-07 4.32143e-05
-5.40348e-05 -6.09381e-05 1.51672e-06
-6.09381e-05 -0.000303198 2.77632e-06
1.51672e-06 2.77632e-06 -0.000411921
0.000398103 -2.13028e-05 1.37151e-06
-2.13028e-05 -1.16486e-05 -2.56629e-07
1.37151e-06 -2.56629e-07 -0.000147453
0.000176707 -9.38671e-06 -5.65007e-06
-9.38671e-06 -0.000124875 -4.651e-06
-5.65007e-06 -4.651e-06 -0.000271344
0.000103668 -6.37686e-05 2.97636e-06
-6.37686e-05 -0.00017288 -3.52424e-06
2.97636e-06 -3.52424e-06 -0.000293759
0.000996385 -8.62101e-05 5.77943e-06
-8.62101e-05 0.000252729 -1.21839e-05
5.77943e-06 -1.21839e-05 0.000153488
-0.000463605 -1.78843e-05 5.31951e-07
-1.78843e-05 -0.00063951 2.24118e-06
5.31951e-07 2.24118e-06 -0.000770277
0.000106353 -3.39581e-05 -4.01394e-06
-3.39581e-05 -0.000203627 -2.0582e-06
-4.01394e-06 -2.0582e-06 -0.000341509
0.000734706 -5.33616e-05 5.9284e-07
-5.33616e-05 0.000160363 -5.71398e-07
5.9284e-07 -5.71398e-07 2.14532e-05
0.00038101 -3.78711e-05 4.25641e-07
-3.78711e-05 -4.51253e-05 -2.07586e-07
4.25641e-07 -2.07586e-07 -0.000179031
0.000708424 -7.77807e-05 4.03463e-07
-7.77807e-05 0.000181233 5.18027e-08
4.03463e-07 5.18027e-08 3.99191e-05
0.000495242 -1.51314e-05 2.65544e-07
-1.51314e-05 1.78248e-05 1.64872e-06
2.65544e-07 1.64872e-06 -9.04567e-05
0.00086429 -6.88121e-05 -1.38259e-06
-6.88121e-05 0.000273423 4.0772e-07
-1.38259e-06 4.0772e-07 0.000135987
0.000631013 -6.82616e-05 -9.08917e-07
-6.82616e-05 0.000105816 4.71994e-08
-9.08917e-07 4.71994e-08 -5.3505e-06
0.000467754 3.44963e-05 -8.68867e-07
3.44963e-05 -2.1086e-05 3.17045e-06
-8.68867e-07 3.17045e-06 -9.24013e-05
0.000484084 -9.02943e-05 2.12849e-06
-9.02943e-05 1.04509e-05 -8.33796e-07
2.12849e-06 -8.33796e-07 -0.000103001
0.000542587 -2.55158e-05 -3.45216e-07
-2.55158e-05 2.34938e-05 9.32666e-08
-3.45216e-07 9.32666e-08 -4.4902e-05
0.00141762 9.33083e-06 -6.28149e-06
9.33083e-06 0.000537293 6.51205e-06
-6.28149e-06 6.51205e-06 0.000519369
0.000526946 -4.76144e-05 1.5324e-06
-4.76144e-05 2.13679e-05 -2.83844e-06
1.5324e-06 -2.83844e-06 -4.94265e-05
0.000898869 -7.95053e-06 -4.47915e-06
-7.95053e-06 0.000223206 7.32574e-07
-4.47915e-06 7.32574e-07 0.000204096
0.000756103 1.35868e-05 6.65147e-07
1.35868e-05 0.000123096 2.08404e-06
6.65147e-07 2.08404e-06 0.00012831
0.000467582 -6.42357e-06 1.79101e-06
-6.42357e-06 -3.92043e-05 -4.25915e-06
1.79101e-06 -4.25915e-06 -5.95351e-05
0.00248827 1.38382e-05 6.04472e-06
1.38382e-05 0.00119401 4.85846e-08
6.04472e-06 4.85846e-08 0.0012076
0.00249551 2.22954e-06 -3.3871e-07
2.22954e-06 0.00119836 -5.08619e-06
-3.3871e-07 -5.08619e-06 0.00121194
0.000995516 7.47468e-05 -4.2099e-07
7.47468e-05 0.000332044 -2.73953e-08
-4.2099e-07 -2.73953e-08 0.000239042
0.000534885 5.22952e-05 -1.331e-06
5.22952e-05 1.90509e-05 -2.13824e-06
-1.331e-06 -2.13824e-06 -2.79517e-05
0.000576275 -1.31589e-05 2.88349e-07
-1.31589e-05 7.97435e-05 8.5799e-07
2.88349e-07 8.5799e-07 -1.20909e-05
0.0005243 5.17005e-06 9.06188e-07
5.17005e-06 -2.5058e-05 -3.19942e-06
9.06188e-07 -3.19942e-06 -3.28131e-05
0.000510681 -1.47009e-05 4.82985e-07
-1.47009e-05 1.68716e-07 -9.1822e-08
4.82985e-07 -9.1822e-08 -4.27021e-05
0.000561928 -5.00561e-05 -1.60635e-06
-5.00561e-05 3.1989e-05 1.3849e-06
-1.60635e-06 1.3849e-06 -1.33954e-05
0.000516113 7.43295e-06 -3.78506e-07
7.43295e-06 -3.04937e-05 -2.68439e-08
-3.78506e-07 -2.68439e-08 -3.83283e-05
0.00197032 1.89081e-05 9.36579e-07
1.89081e-05 0.000871654 -4.60074e-06
9.36579e-07 -4.60074e-06 0.000889705
0.0010918 2.21253e-05 -8.108e-07
2.21253e-05 0.000325201 1.79284e-06
-8.108e-07 1.79284e-06 0.000319991
0.00133113 2.6955e-05 -3.96023e-07
2.6955e-05 0.000477815 -1.83289e-08
-3.96023e-07 -1.83289e-08 0.000491597
0.000817697 3.20843e-05 -1.06274e-05
3.20843e-05 0.000165365 6.99074e-06
-1.06274e-05 6.99074e-06 0.000173456
-0.00932362 0.000825703 0.000346147
0.000825703 -0.00360603 -7.14213e-06
0.000346147 -7.14213e-06 -0.00560634
-0.00218218 -9.30507e-05 0.000669175
-9.30507e-05 0.00447007 -0.00016047
0.000669175 -0.00016047 0.00158909
0.00350577 0.000269633 -0.000193917
0.000269633 -0.00109159 -2.66194e-05
-0.000193917 -2.66194e-05 6.23777e-05
0.000975672 4.84118e-05 2.14671e-05
4.84118e-05 -0.00115315 -3.6007e-05
2.14671e-05 -3.6007e-05 -0.000851681
0.00159433 -5.63154e-05 9.45352e-06
-5.63154e-05 -0.000224107 8.8592e-06
9.45352e-06 8.8592e-06 -0.000208082
-0.000842515 5.53214e-05 -6.23185e-05
5.53214e-05 -0.0011445 -1.84785e-05
-6.23185e-05 -1.84785e-05 -0.000528503
0.00362644 -0.000264076 6.40423e-07
-0.000264076 0.000544339 4.71477e-06
6.40423e-07 4.71477e-06 0.000590267
0.0110028 3.51965e-06 0.000131533
3.51965e-06 0.000198774 -4.84771e-05
0.000131533 -4.84771e-05 -0.000745667
-0.000741137 0.00244546 -8.05564e-06
0.00244546 0.000227839 -4.47212e-05
-8.05564e-06 -4.47212e-05 -0.00230913
0.00582762 0.00483763 -0.000339647
0.00483763 0.00461964 0.000182563
-0.000339647 0.000182563 0.00379936
0.00227604 -0.000515735 6.68113e-05
-0.000515735 -0.00132201 -3.80942e-05
6.68113e-05 -3.80942e-05 -0.000645349
0.0144615 -0.00139756 0.000172262
-0.00139756 0.00241763 -6.27333e-05
0.000172262 -6.27333e-05 0.000796146
0.00976871 0.00464846 0.00031284
0.00464846 0.00243543 -0.000458994
0.00031284 -0.000458994 0.000965806
0.0138431 0.00305721 -0.000299287
0.00305721 0.00340997 0.000216923
-0.000299287 0.000216923 0.00231072
0.000807547 0.000128141 -1.97636e-06
0.000128141 0.000257565 2.96595e-06
-1.97636e-06 2.96595e-06 0.000107833
0.000408143 2.83503e-05 1.01272e-07
2.83503e-05 -2.38423e-05 -8.78805e-07
1.01272e-07 -8.78805e-07 -0.000121088
0.000593121 -9.34202e-05 -2.29705e-07
-9.34202e-05 9.34356e-05 6.74768e-07
-2.29705e-07 6.74768e-07 1.87078e-06
0.000584714 -8.65997e-07 2.84444e-06
-8.65997e-07 9.43369e-05 -1.13344e-06
2.84444e-06 -1.13344e-06 -1.54868e-05
0.000630692 6.07264e-05 1.62192e-06
6.07264e-05 0.000149619 1.23015e-06
1.62192e-06 1.23015e-06 2.62405e-05
0.000626412 2.45535e-05 8.9685e-07
2.45535e-05 0.000140902 5.74021e-06
8.9685e-07 5.74021e-06 -8.09961e-06
0.000725719 9.30056e-05 1.18404e-06
9.30056e-05 0.00017838 2.43879e-06
1.18404e-06 2.43879e-06 5.18348e-05
0.000526232 4.47067e-05 5.05294e-06
4.47067e-05 4.02483e-05 9.60073e-07
5.05294e-06 9.60073e-07 -8.89848e-05
0.000727949 -3.38475e-05 2.27414e-06
-3.38475e-05 0.000195093 -1.09033e-06
2.27414e-06 -1.09033e-06 6.8756e-05
0.000487096 -7.73673e-06 3.97378e-08
-7.73673e-06 1.62742e-05 -1.41228e-06
3.97378e-08 -1.41228e-06 -8.34024e-05
0.00157031 -0.0002926 2.40889e-05
-0.0002926 -0.000353201 -1.56209e-06
2.40889e-05 -1.56209e-06 -0.000166908
0.00108546 -0.000474804 3.6363e-05
-0.000474804 -0.000567289 -8.91271e-06
3.6363e-05 -8.91271e-06 -0.000480714
0.000625322 -0.000585289 1.32114e-05
-0.000585289 -0.00059178 -1.01811e-06
1.32114e-05 -1.01811e-06 -0.00073097
-6.69755e-05 -0.000513466 5.51007e-06
-0.000513466 -0.000644498 1.34191e-06
5.51007e-06 1.34191e-06 -0.0008796
0.0030769 -0.000528687 6.17724e-06
-0.000528687 0.00185799 2.57065e-05
6.17724e-06 2.57065e-05 0.00125906
0.000368751 -0.000362974 5.81254e-06
-0.000362974 7.78638e-05 -3.10984e-06
5.81254e-06 -3.10984e-06 -0.000269736
0.00145534 -0.000182166 1.74744e-06
-0.000182166 0.000595762 -1.1124e-06
1.74744e-06 -1.1124e-06 0.000477514
0.000857272 -3.77549e-05 -2.65624e-06
-3.77549e-05 0.000286562 2.4631e-06
-2.65624e-06 2.4631e-06 0.000160387
0.00222358 -0.000442402 1.33821e-05
-0.000442402 -0.000100766 -6.97248e-06
1.33821e-05 -6.97248e-06 6.84282e-05
0.000511649 -6.37651e-05 3.49298e-08
-6.37651e-05 0.00010099 3.9358e-07
3.49298e-08 3.9358e-07 -8.51446e-05
-0.000107681 -0.000135423 4.74169e-07
-0.000135423 -0.000221852 -3.32967e-06
4.74169e-07 -3.32967e-06 -0.000425064
0.00196854 -0.000653525 1.25109e-05
-0.000653525 0.00012565 -1.80729e-06
1.25109e-05 -1.80729e-06 7.49792e-05
0.00178446 -0.000802413 -6.04296e-08
-0.000802413 6.05941e-05 4.19846e-06
-6.04296e-08 4.19846e-06 -9.68735e-05
0.000201626 -0.00051632 1.5008e-05
-0.00051632 -0.000244628 -9.1912e-06
1.5008e-05 -9.1912e-06 -0.00048803
0.00136653 -0.000263306 4.10553e-07
-0.000263306 0.000946948 -1.16024e-05
4.10553e-07 -1.16024e-05 0.000396267
0.00259907 -0.000705358 -6.39057e-05
-0.000705358 0.000562199 2.17568e-05
-6.39057e-05 2.17568e-05 0.00024987
0.00141489 -0.000620399 -4.40729e-05
-0.000620399 3.83573e-05 1.37576e-05
-4.40729e-05 1.37576e-05 -1.98636e-05
0.00115353 -0.000521912 -7.08294e-05
-0.000521912 0.000582918 4.55459e-05
-7.08294e-05 4.55459e-05 0.000215893
-0.00174895 -0.000137837 -1.55221e-06
-0.000137837 -0.00125071 7.62635e-06
-1.55221e-06 7.62635e-06 -0.00144003
-0.000252187 -0.000106657 4.51899e-06
-0.000106657 -0.000302304 5.64155e-06
4.51899e-06 5.64155e-06 -0.000528934
0.00067668 -5.71029e-05 7.96927e-06
-5.71029e-05 0.00034584 -4.37719e-06
7.96927e-06 -4.37719e-06 1.74205e-05
-0.00158569 0.000841493 -0.000290837
0.000841493 0.00594357 1.47801e-05
-0.000290837 1.47801e-05 0.0023507
0.000971739 -0.00101717 -5.35642e-07
-0.00101717 0.00179202 2.28702e-05
-5.35642e-07 2.28702e-05 0.00149084
0.00164492 0.000993862 -8.54058e-05
0.000993862 -0.00437875 -3.51483e-05
-8.54058e-05 -3.51483e-05 -0.00468594
0.000226332 0.000204606 7.67414e-06
0.000204606 -9.06335e-05 -2.97977e-06
7.67414e-06 -2.97977e-06 -0.000296086
0.0012183 0.000444574 8.76986e-06
0.000444574 0.000329951 1.74677e-05
8.76986e-06 1.74677e-05 1.1872e-05
0.00385342 0.000765166 5.7169e-05
0.000765166 0.001092 1.68474e-05
5.7169e-05 1.68474e-05 0.00101785
0.00161508 0.000701764 2.02081e-05
0.000701764 0.000446915 2.14651e-05
2.02081e-05 2.14651e-05 8.33032e-05
0.0104413 -0.001926 0.000138211
-0.001926 0.00353545 4.20587e-05
0.000138211 4.20587e-05 0.00338767
0.0038684 0.00072037 -0.000301448
0.00072037 -0.00319535 -3.58332e-05
-0.000301448 -3.58332e-05 -0.00512829
0.00444135 0.00216478 -2.13122e-05
0.00216478 -6.75268e-05 1.20868e-05
-2.13122e-05 1.20868e-05 -3.09952e-05
0.00246898 0.000738816 3.95e-05
0.000738816 0.000958743 -2.63113e-05
3.95e-05 -2.63113e-05 0.000808525
0.000526374 -0.00235338 -0.000308601
-0.00235338 0.00111512 -0.000285806
-0.000308601 -0.000285806 -0.000899676
-0.000792144 -0.00208487 -0.000392678
-0.00208487 0.00383102 -0.000135028
-0.000392678 -0.000135028 -0.000334174
0.01734 -0.00383888 0.000463278
-0.00383888 0.0040772 0.000284226
0.000463278 0.000284226 0.00357223
0.000570178 0.000200007 1.31224e-05
0.000200007 0.000109197 -3.60599e-06
1.31224e-05 -3.60599e-06 -7.17447e-05
-0.00373179 0.000328419 -0.000147563
0.000328419 0.00414313 -3.27222e-05
-0.000147563 -3.27222e-05 -8.88659e-05
0.00472832 0.000771288 -6.43156e-05
0.000771288 0.00271293 -0.000136766
-6.43156e-05 -0.000136766 -0.00177511
0.00169892 0.000649309 2.8427e-06
0.000649309 0.000266603 5.37663e-06
2.8427e-06 5.37663e-06 0.000200685
0.000477102 0.000451857 9.12273e-06
0.000451857 4.76754e-05 3.82018e-06
9.12273e-06 3.82018e-06 -0.000265686
3.23378e-05 0.000645929 -2.16147e-05
0.000645929 0.000100753 -5.30724e-05
-2.16147e-05 -5.30724e-05 -0.000366372
0.00355825 0.00222116 6.06896e-06
0.00222116 0.00107914 1.28713e-05
6.06896e-06 1.28713e-05 0.000758324
0.0160342 0.0025621 7.77673e-05
0.0025621 0.00453282 2.38224e-05
7.77673e-05 2.38224e-05 0.00242779
0.00611461 -0.00271511 6.82817e-05
-0.00271511 0.00139742 -6.62362e-05
6.82817e-05 -6.62362e-05 -0.00146843
0.0130954 -0.00195836 -3.14744e-06
-0.00195836 0.00179592 -5.93273e-05
-3.14744e-06 -5.93273e-05 0.00310815
0.000238626 0.000286443 -6.38968e-06
0.000286443 -3.62751e-05 -1.29417e-05
-6.38968e-06 -1.29417e-05 -0.000238204
0.00235356 0.000171844 -0.000241897
0.000171844 0.00164933 -5.02821e-05
-0.000241897 -5.02821e-05 -0.00181687
0.000333973 0.000394502 -6.88117e-05
0.000394502 -0.000154591 -0.000146586
-6.88117e-05 -0.000146586 -0.00168272
-0.000978842 0.000194481 2.29936e-07
0.000194481 -0.000386718 -2.36457e-05
2.29936e-07 -2.36457e-05 -0.000595541
-0.00010732 0.000399666 -0.000105041
0.000399666 0.00109021 1.17121e-05
-0.000105041 1.17121e-05 0.000276795
0.0129414 0.00317255 7.0999e-05
0.00317255 0.00450814 -1.61636e-05
7.0999e-05 -1.61636e-05 0.000759494
-0.00441941 -0.00384305 -1.3172e-05
-0.00384305 -0.00147924 0.000213432
-1.3172e-05 0.000213432 -0.00516702
0.0104948 0.000558062 4.5484e-05
0.000558062 -0.00142378 -0.000273374
4.5484e-05 -0.000273374 0.00115248
0.00094113 0.00017322 -1.53698e-06
0.00017322 0.000324938 1.3244e-05
-1.53698e-06 1.3244e-05 0.000188147
0.000901908 0.000194821 -9.36358e-06
0.000194821 0.000393637 -2.63178e-06
-9.36358e-06 -2.63178e-06 0.000229723
4.82118e-05 0.000112835 2.94349e-06
0.000112835 7.02188e-05 -5.03524e-06
2.94349e-06 -5.03524e-06 -0.000191756
0.000718659 8.34612e-05 -1.80726e-06
8.34612e-05 0.00017313 -2.02402e-06
-1.80726e-06 -2.02402e-06 2.32517e-05
0.000985937 -3.81594e-05 -7.8975e-07
-3.81594e-05 0.000339126 2.94602e-06
-7.8975e-07 2.94602e-06 0.000179335
0.000568934 6.66024e-05 2.74606e-06
6.66024e-05 8.15908e-05 1.84713e-06
2.74606e-06 1.84713e-06 -6.00427e-05
-0.000907086 1.31063e-05 2.53725e-06
1.31063e-05 -0.000675369 2.04762e-06
2.53725e-06 2.04762e-06 -0.000848525
0.000774024 -2.28242e-05 1.19142e-06
-2.28242e-05 0.000205835 1.61778e-07
1.19142e-06 1.61778e-07 4.86976e-05
0.000687291 1.53473e-05 -9.27168e-08
1.53473e-05 0.000196286 -2.14664e-06
-9.27168e-08 -2.14664e-06 4.15248e-05
-0.00021408 -4.68537e-06 7.03971e-07
-4.68537e-06 -3.66193e-05 2.59552e-06
7.03971e-07 2.59552e-06 -0.000328999
-0.00079374 3.03732e-05 -2.46951e-06
3.03732e-05 -0.000151855 7.1147e-06
-2.46951e-06 7.1147e-06 -0.000587631
3.49977e-05 6.84067e-06 -2.53978e-06
6.84067e-06 0.000134931 -3.41613e-06
-2.53978e-06 -3.41613e-06 -0.000175545
0.000793239 1.71869e-05 -1.34178e-06
1.71869e-05 0.000236787 -5.82709e-06
-1.34178e-06 -5.82709e-06 9.17053e-05
0.000823686 -0.000132495 1.2803e-06
-0.000132495 0.000232328 1.13263e-06
1.2803e-06 1.13263e-06 7.70368e-05
0.000598818 -8.5834e-06 -2.11118e-07
-8.5834e-06 8.22874e-05 1.17021e-06
-2.11118e-07 1.17021e-06 -4.35262e-05
0.000554021 -8.69136e-05 7.03491e-07
-8.69136e-05 7.65328e-05 8.76075e-06
7.03491e-07 8.76075e-06 -2.56792e-05
0.000339349 -3.44222e-05 2.07615e-06
-3.44222e-05 -4.17334e-05 2.92809e-06
2.07615e-06 2.92809e-06 -0.000176808
0.000643747 -2.97777e-05 5.19116e-07
-2.97777e-05 0.000134007 2.16126e-07
5.19116e-07 2.16126e-07 -1.17715e-06
0.000525271 -4.24086e-05 1.62703e-08
-4.24086e-05 7.75803e-05 -1.59563e-06
1.62703e-08 -1.59563e-06 -4.11679e-05
0.000644087 -4.64072e-05 -4.86627e-06
-4.64072e-05 0.000128075 -4.96606e-06
-4.86627e-06 -4.96606e-06 8.20619e-06
0.00030993 -5.23156e-05 5.85834e-06
-5.23156e-05 7.19568e-05 -6.61369e-06
5.85834e-06 -6.61369e-06 -7.50769e-05
0.000108403 -0.000126545 2.79033e-07
-0.000126545 -0.000360173 1.45938e-06
2.79033e-07 1.45938e-06 -0.000453237
0.000810226 -0.00012177 -7.18967e-06
-0.00012177 0.000156669 -6.75767e-07
-7.18967e-06 -6.75767e-07 4.89517e-05
0.000289765 -0.000133797 6.30839e-06
-0.000133797 -0.000156639 4.63495e-06
6.30839e-06 4.63495e-06 -0.000302094
0.00205418 -0.000429732 1.62344e-06
-0.000429732 0.000811988 1.47485e-05
1.62344e-06 1.47485e-05 0.000534414
0.00170664 -0.000192391 2.17131e-06
-0.000192391 0.000748995 -4.36712e-06
2.17131e-06 -4.36712e-06 0.000571361
-0.000163708 -5.8498e-05 -7.83317e-06
-5.8498e-05 -0.000416269 -4.32142e-06
-7.83317e-06 -4.32142e-06 -0.000544699
0.000565426 -5.41378e-05 -2.42493e-08
-5.41378e-05 5.33357e-05 9.14239e-08
-2.42493e-08 9.14239e-08 -8.39793e-05
6.65574e-05 -3.77552e-05 -5.29543e-07
-3.77552e-05 -0.00023178 -1.21173e-06
-5.29543e-07 -1.21173e-06 -0.000375671
0.000860593 -7.83081e-05 -1.19324e-06
-7.83081e-05 0.000231896 1.05619e-06
-1.19324e-06 1.05619e-06 9.19138e-05
0.000767805 -9.45712e-05 -7.82698e-07
-9.45712e-05 0.000204035 5.42266e-07
-7.82698e-07 5.42266e-07 5.70279e-05
0.000592681 -4.95913e-05 -2.98064e-07
-4.95913e-05 6.44402e-05 1.54182e-06
-2.98064e-07 1.54182e-06 -4.45106e-05
0.00115861 -0.000130951 -5.96485e-07
-0.000130951 0.000474991 -1.08661e-06
-5.96485e-07 -1.08661e-06 0.000314007
0.000656623 -8.3828e-05 -4.89196e-07
-8.3828e-05 0.000117588 -4.24529e-08
-4.89196e-07 -4.24529e-08 4.82859e-06
0.000521298 1.64475e-05 -2.22779e-06
1.64475e-05 9.00975e-06 2.69285e-06
-2.22779e-06 2.69285e-06 -6.32711e-05
0.000719547 -0.000114456 1.7291e-06
-0.000114456 0.000161687 -1.90484e-06
1.7291e-06 -1.90484e-06 4.63451e-05
0.000601346 -4.00053e-05 -2.29737e-07
-4.00053e-05 5.63845e-05 1.35962e-07
-2.29737e-07 1.35962e-07 -1.36389e-05
0.00143269 1.46437e-05 -1.0796e-05
1.46437e-05 0.00054309 6.73075e-06
-1.0796e-05 6.73075e-06 0.000523723
0.000558688 -5.57342e-05 2.42624e-06
-5.57342e-05 3.91453e-05 -3.00804e-06
2.42624e-06 -3.00804e-06 -3.31817e-05
0.000904901 -1.67331e-06 -5.51509e-06
-1.67331e-06 0.000222183 6.6745e-07
-5.51509e-06 6.6745e-07 0.000201799
0.000779553 2.27596e-05 6.71915e-07
2.27596e-05 0.000136258 2.51375e-06
6.71915e-07 2.51375e-06 0.000139526
0.000473959 -1.44085e-05 1.45851e-06
-1.44085e-05 -3.96582e-05 -4.48495e-06
1.45851e-06 -4.48495e-06 -6.07633e-05
0.00162259 2.3086e-05 8.07116e-06
2.3086e-05 0.000659511 -1.47989e-06
8.07116e-06 -1.47989e-06 0.000668766
0.00246522 1.50505e-05 7.17852e-06
1.50505e-05 0.00117942 -5.08882e-06
7.17852e-06 -5.08882e-06 0.00119303
0.000604896 3.44834e-05 2.06872e-06
3.44834e-05 7.67039e-05 -1.01867e-06
2.06872e-06 -1.01867e-06 -1.83769e-05
0.00060634 5.0676e-05 -7.10219e-07
5.0676e-05 5.86394e-05 -1.88018e-06
-7.10219e-07 -1.88018e-06 9.23533e-06
0.000631557 -1.16647e-06 1.17761e-06
-1.16647e-06 0.000104605 5.35151e-07
1.17761e-06 5.35151e-07 1.37212e-05
0.000510603 8.56907e-07 1.3324e-06
8.56907e-07 -3.23886e-05 -3.51999e-06
1.3324e-06 -3.51999e-06 -4.08947e-05
0.000527203 4.22324e-05 1.22339e-07
4.22324e-05 1.08035e-05 -8.18403e-08
1.22339e-07 -8.18403e-08 -3.40809e-05
0.000568194 -0.000104675 -3.59329e-06
-0.000104675 6.82367e-05 8.32789e-07
-3.59329e-06 8.32789e-07 -1.83562e-05
0.00198644 5.52116e-06 -4.06624e-06
5.52116e-06 0.000879909 -4.70024e-06
-4.06624e-06 -4.70024e-06 0.000898521
0.000505876 4.00008e-06 -2.29585e-07
4.00008e-06 -3.58541e-05 1.45483e-08
-2.29585e-07 1.45483e-08 -4.36189e-05
0.000532916 -1.7968e-05 -2.0407e-06
-1.7968e-05 1.18798e-05 1.6391e-06
-2.0407e-06 1.6391e-06 -2.98683e-05
0.000496656 6.56251e-06 -1.25617e-06
6.56251e-06 -4.27842e-05 3.07741e-06
-1.25617e-06 3.07741e-06 -5.0544e-05
0.00199729 2.03912e-05 -4.76821e-06
2.03912e-05 0.000888481 -7.81881e-08
-4.76821e-06 -7.81881e-08 0.000906365
0.00195524 3.33581e-05 -7.27316e-06
3.33581e-05 0.000864827 4.34189e-06
-7.27316e-06 4.34189e-06 0.00088202
-0.00630519 -0.00115251 -0.000125829
-0.00115251 0.00389659 4.31212e-05
-0.000125829 4.31212e-05 0.000438139
0.000810556 0.000925666 -0.000182074
0.000925666 4.79579e-05 5.15008e-05
-0.000182074 5.15008e-05 -0.00128081
0.00295657 -0.000780893 -0.000489038
-0.000780893 0.00117747 0.000225762
-0.000489038 0.000225762 -0.00301977
-0.00233499 0.000175986 0.000791
0.000175986 0.00445665 -0.000287325
0.000791 -0.000287325 0.00134456
0.0010324 0.000411332 -1.55161e-05
0.000411332 -0.00133794 -2.63073e-05
-1.55161e-05 -2.63073e-05 -0.000778464
0.00239717 -0.000326999 8.92994e-05
-0.000326999 -0.00025718 3.99409e-06
8.92994e-05 3.99409e-06 -0.000209213
0.000632837 -0.000363232 0.000180114
-0.000363232 -0.00373577 -6.81026e-05
0.000180114 -6.81026e-05 -0.00567539
0.0161731 0.00225735 -0.000462158
0.00225735 0.00740252 3.71707e-05
-0.000462158 3.71707e-05 0.00548243
-0.00179068 0.0055666 -0.00159445
0.0055666 0.000245733 0.00113408
-0.00159445 0.00113408 -0.000448014
0.0037742 -0.000392957 1.04695e-05
-0.000392957 -0.000378097 8.24534e-06
1.04695e-05 8.24534e-06 7.10637e-06
0.00830632 -0.00136444 0.000111151
-0.00136444 -0.000532446 -9.9018e-05
0.000111151 -9.9018e-05 -0.00288445
0.0177393 0.00401539 -0.000217344
0.00401539 0.00524098 -9.77551e-05
-0.000217344 -9.77551e-05 0.00393626
0.0100305 0.00316228 -7.12182e-05
0.00316228 0.000832842 0.000305092
-7.12182e-05 0.000305092 -0.000485997
0.0016848 -0.00119718 -9.26645e-05
-0.00119718 -0.00235196 1.54696e-05
-9.26645e-05 1.54696e-05 -0.00169039
0.00403063 -0.00226101 0.000291977
-0.00226101 -0.000237892 -0.000193683
0.000291977 -0.000193683 -0.00410932
0.000565774 0.00257565 3.54617e-05
0.00257565 -0.00145816 -0.000601572
3.54617e-05 -0.000601572 -0.00363617
0.00725781 0.00116438 -0.000184248
0.00116438 -0.00276044 2.19293e-06
-0.000184248 2.19293e-06 -0.00152868
0.00162424 -6.62545e-05 2.37146e-06
-6.62545e-05 0.000802207 1.04986e-05
2.37146e-06 1.04986e-05 0.000596314
0.000573476 0.000109681 -1.7807e-06
0.000109681 0.000100385 -2.05834e-06
-1.7807e-06 -2.05834e-06 -3.2858e-05
0.00055614 8.87187e-05 2.31306e-07
8.87187e-05 5.95635e-05 -1.91097e-06
2.31306e-07 -1.91097e-06 -3.28992e-05
0.000520829 4.24852e-05 4.89334e-06
4.24852e-05 8.34375e-05 -6.54679e-08
4.89334e-06 -6.54679e-08 -3.62423e-05
0.000515175 7.61332e-05 3.55749e-06
7.61332e-05 5.61141e-05 2.60828e-06
3.55749e-06 2.60828e-06 -0.000111754
0.000596563 4.92175e-05 -7.26104e-08
4.92175e-05 0.000117863 1.99268e-06
-7.26104e-08 1.99268e-06 -2.19528e-05
0.000491008 4.35969e-05 2.9531e-07
4.35969e-05 3.66664e-05 -1.50873e-06
2.9531e-07 -1.50873e-06 -8.82054e-05
0.000881383 0.000155463 2.75091e-06
0.000155463 0.000283867 3.6572e-06
2.75091e-06 3.6572e-06 0.00012715
0.000842691 0.000110338 2.30767e-08
0.000110338 0.000265513 3.20218e-07
2.30767e-08 3.20218e-07 0.000114147
0.000409345 -1.41397e-05 -4.67377e-06
-1.41397e-05 -8.67125e-06 -3.82011e-06
-4.67377e-06 -3.82011e-06 -0.000130785
0.000560322 -0.00034504 6.31947e-05
-0.00034504 -0.000965383 -2.52084e-05
6.31947e-05 -2.52084e-05 -0.000773198
0.000489453 -0.000553516 3.40775e-05
-0.000553516 -0.000691129 -1.1222e-05
3.40775e-05 -1.1222e-05 -0.000706927
0.00151673 -0.00078209 7.32672e-06
-0.00078209 -0.000123007 5.99236e-06
7.32672e-06 5.99236e-06 -0.00023687
-0.000465277 -0.000516554 9.35874e-06
-0.000516554 -0.00059967 -1.47574e-05
9.35874e-06 -1.47574e-05 -0.000907693
0.0027767 -0.00032957 -1.07415e-05
-0.00032957 0.00163311 4.28965e-05
-1.07415e-05 4.28965e-05 0.00119521
0.000726498 -0.000133368 -2.86138e-06
-0.000133368 0.00028854 3.07355e-06
-2.86138e-06 3.07355e-06 7.39278e-05
0.000451786 9.96589e-05 -2.0659e-06
9.96589e-05 6.51872e-05 -1.03945e-05
-2.0659e-06 -1.03945e-05 -0.000123942
0.000618124 -9.36526e-05 -1.59401e-06
-9.36526e-05 0.0001849 7.15129e-06
-1.59401e-06 7.15129e-06 -3.61437e-05
0.00150501 -0.000583508 6.61526e-07
-0.000583508 -0.000152801 -4.51936e-06
6.61526e-07 -4.51936e-06 -0.000265181
0.00065982 -4.00558e-05 5.65279e-07
-4.00558e-05 0.000209466 3.68355e-06
5.65279e-07 3.68355e-06 -2.86674e-06
0.00181107 -0.000215958 4.18204e-07
-0.000215958 0.00101905 -1.21956e-06
4.18204e-07 -1.21956e-06 0.000676154
0.00141988 -0.000628834 1.38794e-06
-0.000628834 1.9109e-05 4.11835e-06
1.38794e-06 4.11835e-06 -2.69168e-05
0.000776171 -0.000542817 -1.83843e-05
-0.000542817 0.000301557 6.50681e-06
-1.83843e-05 6.50681e-06 -4.55619e-05
0.00296339 -0.00112209 2.27108e-05
-0.00112209 0.000569701 -1.98592e-05
2.27108e-05 -1.98592e-05 0.000523363
-0.000492748 -0.000401641 -1.30372e-05
-0.000401641 -0.000581443 2.06491e-05
-1.30372e-05 2.06491e-05 -0.000660123
-0.000702874 -6.03127e-05 6.77614e-06
-6.03127e-05 -0.000283937 7.91109e-06
6.77614e-06 7.91109e-06 -0.000734957
0.000634681 1.14141e-05 -1.69228e-06
1.14141e-05 0.000155318 -7.92899e-07
-1.69228e-06 -7.92899e-07 -3.04198e-05
0.00105828 2.79274e-05 8.14918e-06
2.79274e-05 0.000545802 -6.17161e-06
8.14918e-06 -6.17161e-06 0.000283551
0.00142109 4.29524e-05 -2.48379e-05
4.29524e-05 0.00166248 -1.20424e-05
-2.48379e-05 -1.20424e-05 -0.00153528
-0.00511792 0.000300084 -0.000248691
0.000300084 0.00522464 -1.24316e-05
-0.000248691 -1.24316e-05 0.00115174
-0.0121434 -0.0015975 -0.000504399
-0.0015975 -0.00576628 -1.84041e-05
-0.000504399 -1.84041e-05 -0.00579489
-0.000678354 0.000133317 7.884e-06
0.000133317 -0.00059639 -1.15583e-06
7.884e-06 -1.15583e-06 -0.00079193
-0.000490397 0.000363896 -1.6697e-06
0.000363896 -0.000415701 1.11363e-05
-1.6697e-06 1.11363e-05 -0.000743633
0.00144293 0.000724694 3.06594e-05
0.000724694 0.000130289 1.484e-05
3.06594e-05 1.484e-05 4.03485e-05
-0.00520707 0.00129037 2.33177e-05
0.00129037 0.00421233 4.24187e-05
2.33177e-05 4.24187e-05 0.000415204
0.00401828 0.00215296 -0.000181435
0.00215296 4.78975e-05 -0.000139057
-0.000181435 -0.000139057 -0.00373855
0.00218111 0.00160109 0.00029927
0.00160109 0.000491408 9.26789e-05
0.00029927 9.26789e-05 0.000308049
-0.000307003 0.000624579 1.21653e-05
0.000624579 -0.000267259 -3.79809e-05
1.21653e-05 -3.79809e-05 -0.000426103
0.0194916 -0.00281908 -0.000121281
-0.00281908 0.00607397 -0.000251477
-0.000121281 -0.000251477 0.00418984
0.00516962 0.00093789 0.000342733
0.00093789 0.00265973 0.000127924
0.000342733 0.000127924 -0.0021476
0.0128047 -0.00171235 0.000113997
-0.00171235 0.00196396 2.96269e-05
0.000113997 2.96269e-05 0.00334729
0.000884687 0.000349042 4.0358e-06
0.000349042 0.000402852 -2.16634e-06
4.0358e-06 -2.16634e-06 0.000188207
0.00376739 0.000322488 4.42075e-06
0.000322488 0.00243623 1.38781e-05
4.42075e-06 1.38781e-05 -0.000164781
0.00106717 0.000390522 4.28286e-05
0.000390522 9.32891e-06 8.28383e-06
4.28286e-05 8.28383e-06 -0.00156637
-0.000583587 0.000352616 -1.98467e-06
0.000352616 -0.000282944 -2.99097e-06
-1.98467e-06 -2.99097e-06 -0.000547782
0.000897293 0.000873545 -9.4472e-05
0.000873545 0.00105103 -4.30357e-05
-9.4472e-05 -4.30357e-05 -9.84864e-05
0.00164178 0.00306683 0.0001365
0.00306683 0.00066907 8.39328e-05
0.0001365 8.39328e-05 -0.00323354
0.00817097 0.000179651 -1.27676e-05
0.000179651 -0.00325972 -0.000183186
-1.27676e-05 -0.000183186 -0.000383641
0.00392718 -0.00216698 -5.51064e-05
-0.00216698 0.00211968 -0.0001168
-5.51064e-05 -0.0001168 -0.00138788
0.00110446 0.000285776 -3.73789e-06
0.000285776 0.000789383 -1.79253e-05
-3.73789e-06 -1.79253e-05 0.000533624
-0.00170536 5.47983e-05 5.80593e-06
5.47983e-05 -0.000153417 5.1166e-06
5.80593e-06 5.1166e-06 -0.000173717
0.0037776 -1.28935e-05 6.76903e-05
-1.28935e-05 -0.000204821 -0.000138704
6.76903e-05 -0.000138704 -0.00120687
0.00728868 0.00123816 0.000190179
0.00123816 -0.00253325 -1.44184e-05
0.000190179 -1.44184e-05 -0.00143424
-0.00180529 0.000104318 1.56802e-05
0.000104318 -8.80535e-05 -3.19974e-05
1.56802e-05 -3.19974e-05 -0.000786869
0.0122193 0.00247879 0.000208338
0.00247879 0.00553721 5.68537e-05
0.000208338 5.68537e-05 0.000932355
-0.00398792 -0.000449964 8.45703e-05
-0.000449964 0.00116706 0.000338238
8.45703e-05 0.000338238 -0.00171076
0.00266061 0.000360075 2.17928e-05
0.000360075 0.00146873 1.66786e-05
2.17928e-05 1.66786e-05 0.0012689
0.000618651 0.000188201 -5.26918e-06
0.000188201 0.000427644 -1.62671e-06
-5.26918e-06 -1.62671e-06 0.000132845
-0.000115692 8.73097e-05 2.24757e-06
8.73097e-05 0.000225233 2.7302e-06
2.24757e-06 2.7302e-06 -0.000135284
0.000675902 0.000151078 9.34522e-07
0.000151078 0.000161517 8.59754e-07
9.34522e-07 8.59754e-07 -2.86499e-06
0.000413978 5.08139e-05 2.10769e-06
5.08139e-05 2.28372e-05 2.05712e-06
2.10769e-06 2.05712e-06 -0.000126662
0.000730664 -9.75191e-06 9.47772e-06
-9.75191e-06 0.000537451 6.43464e-07
9.47772e-06 6.43464e-07 0.000232416
0.000504718 3.23758e-05 2.28123e-07
3.23758e-05 5.45452e-05 -6.50747e-07
2.28123e-07 -6.50747e-07 -8.16095e-05
0.000748222 -1.9447e-05 -2.7952e-06
-1.9447e-05 0.000541045 -2.45015e-06
-2.7952e-06 -2.45015e-06 0.000242711
0.000129713 4.11722e-05 1.13602e-06
4.11722e-05 0.000365198 -6.63287e-09
1.13602e-06 -6.63287e-09 -5.26284e-05
-9.40492e-05 1.52866e-05 -9.80889e-06
1.52866e-05 0.000150799 -2.63526e-06
-9.80889e-06 -2.63526e-06 -0.000165388
0.000221083 -2.44633e-05 -4.29971e-07
-2.44633e-05 0.000174122 -6.48935e-06
-4.29971e-07 -6.48935e-06 -8.51032e-05
0.000345894 -6.31893e-05 1.40909e-06
-6.31893e-05 -5.43345e-05 7.59178e-06
1.40909e-06 7.59178e-06 -0.000176385
0.000827799 -3.85911e-05 -1.26656e-06
-3.85911e-05 0.000243219 1.10151e-06
-1.26656e-06 1.10151e-06 0.000107646
0.00109249 -4.40215e-05 -1.0195e-05
-4.40215e-05 0.000419997 8.3563e-06
-1.0195e-05 8.3563e-06 0.000300255
0.000731519 -6.9095e-05 3.00527e-06
-6.9095e-05 0.000302033 -3.36453e-07
3.00527e-06 -3.36453e-07 0.000164611
0.000653713 -4.5495e-05 -1.07641e-06
-4.5495e-05 0.000133022 -5.94715e-07
-1.07641e-06 -5.94715e-07 1.43772e-05
0.000354455 -0.000125885 1.05077e-06
-0.000125885 -7.47439e-06 8.25094e-07
1.05077e-06 8.25094e-07 -0.0001427
0.000118659 -0.000116814 -7.84942e-06
-0.000116814 -0.000274686 -1.48802e-06
-7.84942e-06 -1.48802e-06 -0.000343577
-0.000882604 -0.000221779 9.02173e-06
-0.000221779 -0.000830979 1.01666e-05
9.02173e-06 1.01666e-05 -0.00106979
0.00060207 -0.000165049 3.43058e-06
-0.000165049 4.74092e-05 3.39641e-07
3.43058e-06 3.39641e-07 -6.7591e-05
0.00123431 -0.000243579 -1.73066e-06
-0.000243579 0.000402935 7.30839e-06
-1.73066e-06 7.30839e-06 0.000230192
0.0019503 -0.000455259 -8.49925e-06
-0.000455259 0.000762302 9.42369e-06
-8.49925e-06 9.42369e-06 0.000459038
0.00141965 -0.000390755 -5.76459e-06
-0.000390755 0.000327215 6.66487e-07
-5.76459e-06 6.66487e-07 3.11735e-05
0.00122007 -0.000280185 -2.90046e-06
-0.000280185 0.000437358 4.363e-06
-2.90046e-06 4.363e-06 0.000206951
0.00020785 -0.000218227 1.01183e-05
-0.000218227 -0.000299513 -3.23708e-06
1.01183e-05 -3.23708e-06 -0.000529418
0.00107218 -0.000129526 1.6179e-06
-0.000129526 0.000383657 -2.36058e-06
1.6179e-06 -2.36058e-06 0.000193117
0.0012886 -0.000186663 -5.31108e-06
-0.000186663 0.000523224 -4.42946e-07
-5.31108e-06 -4.42946e-07 0.000334817
0.000113 -9.78659e-05 6.52374e-06
-9.78659e-05 -0.000210069 -1.27096e-05
6.52374e-06 -1.27096e-05 -0.000334864
0.00103401 -7.61263e-05 -1.01766e-07
-7.61263e-05 0.000316446 1.46544e-06
-1.01766e-07 1.46544e-06 0.000179472
0.0002842 -5.94852e-05 5.47658e-07
-5.94852e-05 -9.73568e-05 -5.32092e-07
5.47658e-07 -5.32092e-07 -0.000243996
0.000650108 -4.22193e-05 1.70451e-07
-4.22193e-05 8.92272e-05 6.35293e-07
1.70451e-07 6.35293e-07 -2.51973e-05
0.00103204 -0.000146558 -7.72402e-07
-0.000146558 0.000380294 1.88689e-07
-7.72402e-07 1.88689e-07 0.000220231
0.000658549 -7.02901e-05 -1.50489e-07
-7.02901e-05 0.00011601 8.63502e-09
-1.50489e-07 8.63502e-09 -2.83042e-06
0.000520604 2.00529e-05 8.90653e-07
2.00529e-05 1.67168e-05 3.18055e-06
8.90653e-07 3.18055e-06 -6.54527e-05
0.000762296 -0.000106613 3.48866e-07
-0.000106613 0.000193471 -2.19122e-06
3.48866e-07 -2.19122e-06 7.16428e-05
0.000536169 1.12135e-05 -1.70911e-06
1.12135e-05 2.26327e-05 -1.51961e-07
-1.70911e-06 -1.51961e-07 -5.31136e-05
0.00138115 2.70537e-05 -1.23795e-05
2.70537e-05 0.000512459 4.55658e-06
-1.23795e-05 4.55658e-06 0.000492045
0.000603554 -5.08573e-05 2.79424e-06
-5.08573e-05 6.03597e-05 -3.23353e-06
2.79424e-06 -3.23353e-06 -1.16104e-05
0.000908923 8.39974e-06 -6.4687e-06
8.39974e-06 0.00022087 6.30032e-07
-6.4687e-06 6.30032e-07 0.000199305
0.000823257 3.254e-05 -8.76092e-08
3.254e-05 0.000162631 2.73157e-06
-8.76092e-08 2.73157e-06 0.000163926
0.000480971 -5.81082e-06 1.50491e-06
-5.81082e-06 -4.09073e-05 -5.01826e-06
1.50491e-06 -5.01826e-06 -6.33936e-05
0.00166972 3.53321e-05 1.10167e-05
3.53321e-05 0.000687534 -1.30901e-06
1.10167e-05 -1.30901e-06 0.000695336
0.00248221 3.03567e-05 1.10103e-05
3.03567e-05 0.00118909 -5.28148e-06
1.10103e-05 -5.28148e-06 0.00120206
0.000345137 1.20573e-05 1.23127e-06
1.20573e-05 -7.11905e-05 -3.70667e-07
1.23127e-06 -3.70667e-07 -0.00018829
0.0002349 1.45157e-05 3.1105e-07
1.45157e-05 -0.000171993 -3.30552e-06
3.1105e-07 -3.30552e-06 -0.000229639
0.000662989 3.92576e-05 -6.41443e-09
3.92576e-05 0.000120852 1.18691e-07
-6.41443e-09 1.18691e-07 1.90372e-05
0.000508826 -1.17002e-06 1.18464e-06
-1.17002e-06 -3.41765e-05 -3.66981e-06
1.18464e-06 -3.66981e-06 -4.42939e-05
0.000371745 3.22638e-06 1.47646e-06
3.22638e-06 -8.9363e-05 -1.27482e-08
1.47646e-06 -1.27482e-08 -0.000137571
0.000343408 -9.23997e-05 -2.027e-06
-9.23997e-05 -7.22615e-05 1.24427e-07
-2.027e-06 1.24427e-07 -0.000164929
0.00205566 -8.24877e-06 -8.72744e-06
-8.24877e-06 0.000922228 -4.74525e-06
-8.72744e-06 -4.74525e-06 0.00094049
0.000505473 4.19405e-07 -4.59449e-08
4.19405e-07 -3.59874e-05 -4.96676e-08
-4.59449e-08 -4.96676e-08 -4.43348e-05
0.000488498 -1.84339e-05 -2.44516e-06
-1.84339e-05 -1.617e-05 1.96024e-06
-2.44516e-06 1.96024e-06 -5.88331e-05
0.00200962 6.92502e-06 -4.36338e-06
6.92502e-06 0.000894526 1.44169e-08
-4.36338e-06 1.44169e-08 0.000912947
0.000491663 3.29737e-06 -1.17051e-06
3.29737e-06 -4.40523e-05 3.15462e-06
-1.17051e-06 3.15462e-06 -5.18527e-05
0.00197675 2.16394e-05 -6.33821e-07
2.16394e-05 0.000875825 4.55079e-06
-6.33821e-07 4.55079e-06 0.000893721
0.000117146 -0.000481175 -0.000182549
-0.000481175 -0.000210651 5.49471e-05
-0.000182549 5.49471e-05 -0.00259229
0.00132484 0.000335493 -6.84883e-05
0.000335493 0.00573303 4.97307e-06
-6.84883e-05 4.97307e-06 0.00287332
0.00137923 -0.000262358 -0.000542308
-0.000262358 0.00307446 8.33715e-05
-0.000542308 8.33715e-05 0.00154829
0.000710341 0.000107897 3.32712e-06
0.000107897 0.000150037 2.50999e-06
3.32712e-06 2.50999e-06 5.82169e-06
0.00409666 -0.00058194 -3.3831e-05
-0.00058194 0.00284925 0.000170769
-3.3831e-05 0.000170769 0.00111181
0.00386215 -0.000935293 -0.000209615
-0.000935293 0.00152246 1.63497e-05
-0.000209615 1.63497e-05 -0.00259424
0.00651207 0.00179246 0.000315567
0.00179246 0.00577972 -0.000248239
0.000315567 -0.000248239 0.00309449
0.00614603 -0.000624613 7.5828e-05
-0.000624613 0.000862358 -2.19582e-05
7.5828e-05 -2.19582e-05 0.000854956
0.012304 -0.00145434 0.000203946
-0.00145434 0.00152618 -8.57022e-05
0.000203946 -8.57022e-05 -2.05357e-05
0.00273279 0.00349348 -0.000395522
0.00349348 -0.0020092 0.000322776
-0.000395522 0.000322776 -0.00321084
0.010494 0.00322079 3.69136e-05
0.00322079 0.00256065 0.000145679
3.69136e-05 0.000145679 0.000761667
0.00625521 -0.00149675 -0.000118901
-0.00149675 0.000228198 -6.5375e-06
-0.000118901 -6.5375e-06 0.000306693
0.0159248 -0.00237946 4.62156e-05
-0.00237946 0.00461701 -2.45317e-05
4.62156e-05 -2.45317e-05 0.00232638
0.00808809 0.00211494 0.000138132
0.00211494 0.00154833 -0.000248314
0.000138132 -0.000248314 -0.000786811
0.00940411 0.00114568 1.42476e-05
0.00114568 -0.00110696 2.44283e-05
1.42476e-05 2.44283e-05 -0.000356379
0.00296398 -0.00190591 -2.2442e-05
-0.00190591 -0.000128284 3.21104e-05
-2.2442e-05 3.21104e-05 -0.000487201
0.0112831 -0.00295603 0.000137333
-0.00295603 0.0048589 -8.84981e-05
0.000137333 -8.84981e-05 0.000720444
0.00690424 -5.32293e-05 0.000120806
-5.32293e-05 0.00268716 -0.000345497
0.000120806 -0.000345497 0.000879681
0.0102553 0.000658812 -9.05687e-05
0.000658812 -0.00133332 0.000187947
-9.05687e-05 0.000187947 0.00100886
0.000749045 -8.40528e-06 3.57166e-06
-8.40528e-06 0.000245612 4.94843e-06
3.57166e-06 4.94843e-06 5.35331e-05
0.000816615 -0.000106474 -4.19186e-07
-0.000106474 0.000303074 3.64648e-07
-4.19186e-07 3.64648e-07 0.000102164
0.00068992 0.000128323 -3.10077e-07
0.000128323 0.000174154 -4.24674e-06
-3.10077e-07 -4.24674e-06 3.87486e-05
0.000655741 9.24243e-05 1.10606e-06
9.24243e-05 0.000103388 5.26187e-06
1.10606e-06 5.26187e-06 -3.47445e-05
0.000743946 0.000134477 6.31272e-09
0.000134477 0.000210063 6.17198e-07
6.31272e-09 6.17198e-07 3.85699e-05
0.000935611 7.6505e-05 -4.95072e-06
7.6505e-05 0.000328416 -2.52429e-06
-4.95072e-06 -2.52429e-06 0.000188715
0.00101445 0.000152409 -1.19707e-06
0.000152409 0.000366319 -7.70418e-09
-1.19707e-06 -7.70418e-09 0.000208238
0.0010505 0.000166696 4.98952e-07
0.000166696 0.000409055 2.01515e-06
4.98952e-07 2.01515e-06 0.000247192
-0.000179218 -0.000377618 7.94263e-05
-0.000377618 -0.00112366 -4.12446e-05
7.94263e-05 -4.12446e-05 -0.00104609
0.00193586 -0.000690529 7.68035e-06
-0.000690529 0.000254254 -1.51086e-05
7.68035e-06 -1.51086e-05 0.000221477
0.000945603 -0.000209955 -5.96017e-07
-0.000209955 0.000394205 -1.63313e-05
-5.96017e-07 -1.63313e-05 0.000156774
0.00140409 -0.000607552 2.25932e-05
-0.000607552 0.000628097 -2.47295e-05
2.25932e-05 -2.47295e-05 0.000290373
0.00237066 -0.000359109 -1.30097e-05
-0.000359109 0.00130993 9.3116e-06
-1.30097e-05 9.3116e-06 0.000975641
0.00123749 -0.000112773 -1.06611e-06
-0.000112773 0.000546486 -1.52631e-05
-1.06611e-06 -1.52631e-05 0.0003308
0.000259306 -4.34202e-05 1.48433e-06
-4.34202e-05 -6.87978e-05 4.52321e-06
1.48433e-06 4.52321e-06 -0.000253173
2.40546e-05 -0.000820793 1.06931e-07
-0.000820793 -0.000957814 -2.82519e-06
1.06931e-07 -2.82519e-06 -0.000918441
0.00123944 4.13659e-05 -7.00531e-07
4.13659e-05 0.000658351 9.63728e-07
-7.00531e-07 9.63728e-07 0.000384633
0.000873543 -0.000216977 5.14544e-06
-0.000216977 0.000536653 1.72316e-06
5.14544e-06 1.72316e-06 0.000148886
0.000572097 -0.000381308 1.34124e-05
-0.000381308 3.41235e-06 3.72682e-06
1.34124e-05 3.72682e-06 -3.28549e-05
0.00134727 0.000121246 -1.87569e-07
0.000121246 0.000565665 -6.8222e-07
-1.87569e-07 -6.8222e-07 0.000415159
0.00138065 -0.000808456 -1.2408e-05
-0.000808456 0.000180306 -3.63928e-05
-1.2408e-05 -3.63928e-05 0.000115509
-0.000668153 -0.000350658 -1.76988e-05
-0.000350658 -0.000419442 2.67333e-05
-1.76988e-05 2.67333e-05 -0.000625205
-0.000425143 6.94122e-05 1.61778e-05
6.94122e-05 6.81791e-05 -8.33936e-06
1.61778e-05 -8.33936e-06 -0.00047493
0.00118967 0.00021453 1.43211e-06
0.00021453 0.000565741 -3.50929e-06
1.43211e-06 -3.50929e-06 0.000374066
-0.00069134 4.66479e-05 4.62952e-05
4.66479e-05 0.000963963 2.00823e-06
4.62952e-05 2.00823e-06 0.000306129
0.000799353 -3.43702e-05 0.000118671
-3.43702e-05 0.00123852 -2.5858e-05
0.000118671 -2.5858e-05 -0.00192584
-0.00894156 -0.000219102 -0.000201552
-0.000219102 0.0046403 1.86921e-05
-0.000201552 1.86921e-05 -2.21645e-05
0.00148883 0.000394098 1.60317e-05
0.000394098 0.000842326 3.7776e-06
1.60317e-05 3.7776e-06 0.000615787
-0.0012711 0.000468162 4.6471e-06
0.000468162 -0.000699762 1.44376e-05
4.6471e-06 1.44376e-05 -0.00105997
0.00502772 0.000388145 0.000195929
0.000388145 0.00304471 2.93601e-05
0.000195929 2.93601e-05 0.00127609
0.00962003 0.00238215 0.000242274
0.00238215 0.00366967 0.000143082
0.000242274 0.000143082 -0.000365395
0.00300956 0.00147237 -7.77906e-05
0.00147237 0.00185969 -7.888e-05
-7.77906e-05 -7.888e-05 0.000586766
0.00529807 -0.00171354 -0.000113319
-0.00171354 0.00306079 -0.000365948
-0.000113319 -0.000365948 0.000276709
0.00186063 0.000366147 9.5414e-05
0.000366147 0.000166452 0.000170908
9.5414e-05 0.000170908 -0.00137829
0.0060664 -0.000121526 -3.42296e-05
-0.000121526 -0.00512311 -0.000204058
-3.42296e-05 -0.000204058 -0.00183923
0.000748309 0.000307003 4.2674e-06
0.000307003 0.000576499 4.3402e-08
4.2674e-06 4.3402e-08 0.000300336
-0.00150396 8.0339e-06 -1.19111e-06
8.0339e-06 -0.000122458 -5.23552e-07
-1.19111e-06 -5.23552e-07 -0.000234731
0.00361224 4.73368e-05 7.65897e-05
4.73368e-05 -0.000139111 2.29e-05
7.65897e-05 2.29e-05 -0.000560554
-0.00132222 0.000305071 -9.90131e-06
0.000305071 -0.000332022 -7.48784e-06
-9.90131e-06 -7.48784e-06 -0.000931237
0.00928958 0.00125391 -8.80423e-06
0.00125391 -0.00102051 -2.13963e-05
-8.80423e-06 -2.13963e-05 -0.000362714
0.00333166 0.00142531 0.000167061
0.00142531 0.00328559 0.000105145
0.000167061 0.000105145 -0.0017224
0.00532165 0.000633351 -0.000134114
0.000633351 0.00292638 2.36742e-06
-0.000134114 2.36742e-06 0.000331255
0.000484314 0.000322241 -9.13087e-06
0.000322241 0.000454453 -2.22346e-05
-9.13087e-06 -2.22346e-05 4.83142e-05
0.00128836 4.84497e-05 1.49517e-05
4.84497e-05 -0.00025441 -2.24634e-05
1.49517e-05 -2.24634e-05 -0.000112462
0.00365989 -0.000604747 2.56271e-05
-0.000604747 0.00279785 -0.000174156
2.56271e-05 -0.000174156 0.00119934
0.0137415 0.00328204 0.000281096
0.00328204 0.00325197 -0.000216926
0.000281096 -0.000216926 0.00224157
0.00677709 -3.37072e-05 -9.76759e-05
-3.37072e-05 0.00276918 0.00035217
-9.76759e-05 0.00035217 0.000834081
0.000659859 0.000321889 -5.67836e-06
0.000321889 0.000453212 -0.00010768
-5.67836e-06 -0.00010768 3.72232e-05
0.00211302 0.00145481 0.000214046
0.00145481 0.0045406 4.25251e-05
0.000214046 4.25251e-05 -0.00263325
0.00181639 0.000331101 2.5725e-06
0.000331101 0.00108029 1.62975e-05
2.5725e-06 1.62975e-05 0.00079492
0.000779017 0.000203394 1.66441e-06
0.000203394 0.000709122 -9.60049e-07
1.66441e-06 -9.60049e-07 0.00036715
6.71337e-05 -2.35036e-05 -1.11964e-05
-2.35036e-05 0.000378809 -1.10369e-05
-1.11964e-05 -1.10369e-05 0.000107871
0.00012239 -4.21678e-05 9.21306e-07
-4.21678e-05 -0.000193132 5.81223e-06
9.21306e-07 5.81223e-06 -0.000316003
0.00128413 -2.26307e-06 4.47707e-06
-2.26307e-06 0.000838196 -3.24494e-07
4.47707e-06 -3.24494e-07 0.000553144
0.000508213 3.40155e-05 2.01127e-06
3.40155e-05 0.000557727 -2.55122e-06
2.01127e-06 -2.55122e-06 0.000158435
0.000440547 -3.90251e-05 9.44067e-07
-3.90251e-05 0.000254504 -1.4657e-07
9.44067e-07 -1.4657e-07 3.95842e-05
-8.4362e-05 -1.19246e-05 4.23221e-06
-1.19246e-05 0.000156613 1.35586e-06
4.23221e-06 1.35586e-06 -0.000166052
0.00112333 -0.000225428 1.00448e-06
-0.000225428 0.000692906 -1.24736e-05
1.00448e-06 -1.24736e-05 0.000425947
0.000897584 -8.06238e-05 -4.37456e-06
-8.06238e-05 0.000379881 7.60509e-06
-4.37456e-06 7.60509e-06 0.000252465
0.000528426 -1.39198e-05 -1.13181e-06
-1.39198e-05 5.63142e-05 2.46152e-06
-1.13181e-06 2.46152e-06 -5.99211e-05
0.00134109 -0.000212851 2.65732e-06
-0.000212851 0.000569075 3.70788e-06
2.65732e-06 3.70788e-06 0.000415775
-0.00134146 -0.000210781 1.43557e-05
-0.000210781 -0.000911247 6.94522e-06
1.43557e-05 6.94522e-06 -0.00119484
9.60506e-05 -0.000106672 9.99013e-07
-0.000106672 -0.000215925 -6.16391e-07
9.99013e-07 -6.16391e-07 -0.000261087
-0.000234926 -0.000256011 1.53651e-06
-0.000256011 -0.000472645 -3.02275e-06
1.53651e-06 -3.02275e-06 -0.000691104
0.00114514 -0.000421526 5.2373e-06
-0.000421526 0.000226261 -4.04504e-06
5.2373e-06 -4.04504e-06 -0.000128874
0.00152814 -0.000492114 -2.85331e-06
-0.000492114 0.000339146 -3.50301e-07
-2.85331e-06 -3.50301e-07 -1.73441e-05
0.00207264 -0.000344141 1.80742e-06
-0.000344141 0.000898431 -6.6583e-07
1.80742e-06 -6.6583e-07 0.000699709
0.00128124 -0.000381793 1.92174e-06
-0.000381793 0.000336735 3.74073e-07
1.92174e-06 3.74073e-07 3.88467e-05
0.00158277 -0.000411853 2.32737e-06
-0.000411853 0.000413598 -1.75074e-06
2.32737e-06 -1.75074e-06 0.000121917
0.000727715 -0.000268248 -3.39097e-06
-0.000268248 -2.95506e-06 4.19166e-06
-3.39097e-06 4.19166e-06 -0.000246828
0.000859255 -0.000323069 1.2606e-06
-0.000323069 -4.93418e-06 -4.75141e-06
1.2606e-06 -4.75141e-06 -0.00028074
0.000473636 -0.000117866 1.18103e-06
-0.000117866 4.66174e-05 -2.65325e-06
1.18103e-06 -2.65325e-06 -0.00018139
0.0011327 -0.000295626 -6.11221e-06
-0.000295626 0.000398031 4.45693e-06
-6.11221e-06 4.45693e-06 0.000154148
-0.00151031 -2.03971e-05 -3.62817e-06
-2.03971e-05 -0.00133291 -6.25521e-06
-3.62817e-06 -6.25521e-06 -0.00151859
0.000435572 -3.98897e-05 7.97305e-07
-3.98897e-05 -4.15029e-05 7.03494e-07
7.97305e-07 7.03494e-07 -0.000167928
0.000583367 -0.000105949 2.64311e-09
-0.000105949 0.000100844 -2.57152e-08
2.64311e-09 -2.57152e-08 -8.70874e-05
0.000877568 -0.000181288 5.49513e-06
-0.000181288 0.000299557 -1.64677e-06
5.49513e-06 -1.64677e-06 0.000100724
0.000525853 -8.18656e-05 4.76897e-07
-8.18656e-05 5.1228e-05 1.03485e-06
4.76897e-07 1.03485e-06 -9.79551e-05
0.000706635 -6.16231e-05 -4.4433e-07
-6.16231e-05 0.000138488 1.94985e-07
-4.4433e-07 1.94985e-07 1.31495e-05
0.000513405 1.14157e-05 5.61124e-07
1.14157e-05 4.05726e-06 3.9155e-06
5.61124e-07 3.9155e-06 -8.28517e-05
0.000808072 -9.00556e-05 -4.7492e-08
-9.00556e-05 0.000218203 -1.13146e-06
-4.7492e-08 -1.13146e-06 8.97267e-05
0.000565517 9.82446e-06 -1.17959e-06
9.82446e-06 3.92304e-05 -2.45748e-07
-1.17959e-06 -2.45748e-07 -4.02681e-05
0.00045853 3.36353e-05 -4.11089e-07
3.36353e-05 -5.11476e-05 5.68338e-06
-4.11089e-07 5.68338e-06 -7.99825e-05
0.000678569 -4.58288e-05 2.19766e-06
-4.58288e-05 0.000103751 -3.1327e-06
2.19766e-06 -3.1327e-06 3.05418e-05
0.000487474 1.47511e-05 -2.12027e-07
1.47511e-05 -4.06012e-05 -3.97878e-08
-2.12027e-07 -3.97878e-08 -6.55421e-05
0.0024749 8.64781e-05 -2.96854e-06
8.64781e-05 0.00118914 2.34379e-06
-2.96854e-06 2.34379e-06 0.00119578
0.000492423 3.80246e-06 1.79599e-06
3.80246e-06 -3.72686e-05 -5.23786e-06
1.79599e-06 -5.23786e-06 -6.11635e-05
0.00170456 4.85473e-05 1.33262e-05
4.85473e-05 0.000709637 -1.09268e-06
1.33262e-05 -1.09268e-06 0.000715449
0.0025431 4.63026e-05 1.73293e-05
4.63026e-05 0.00122668 -5.36459e-06
1.73293e-05 -5.36459e-06 0.00123835
0.000316375 1.19281e-05 1.04443e-06
1.19281e-05 -0.000104704 -1.22961e-06
1.04443e-06 -1.22961e-06 -0.000214449
0.000245833 8.163e-06 8.4837e-07
8.163e-06 -0.000168327 -3.04484e-06
8.4837e-07 -3.04484e-06 -0.000234213
0.00051298 2.62296e-05 -4.85413e-07
2.62296e-05 3.09592e-05 -1.11617e-06
-4.85413e-07 -1.11617e-06 -8.29063e-05
0.000521664 -5.10997e-06 1.71851e-06
-5.10997e-06 -2.6801e-05 -4.0629e-06
1.71851e-06 -4.0629e-06 -3.95317e-05
0.000221504 1.18218e-05 -6.27508e-07
1.18218e-05 -0.000180538 -1.5712e-06
-6.27508e-07 -1.5712e-06 -0.00023952
0.000674461 4.76778e-05 -6.72229e-07
4.76778e-05 0.00013854 1.32844e-06
-6.72229e-07 1.32844e-06 2.98093e-05
0.00209392 -2.162e-05 -1.40282e-05
-2.162e-05 0.000945526 -4.64518e-06
-1.40282e-05 -4.64518e-06 0.000963238
0.000506842 -2.58302e-06 -4.27015e-07
-2.58302e-06 -3.58595e-05 -6.18022e-08
-4.27015e-07 -6.18022e-08 -4.57003e-05
0.000167546 1.0638e-05 7.89078e-07
1.0638e-05 -0.000212214 1.67223e-06
7.89078e-07 1.67223e-06 -0.000263807
0.00203054 -6.8417e-06 -3.91463e-06
-6.8417e-06 0.000906559 5.18701e-08
-3.91463e-06 5.18701e-08 0.000925029
0.000497513 1.20559e-07 -1.29283e-06
1.20559e-07 -4.11553e-05 3.41163e-06
-1.29283e-06 3.41163e-06 -4.92931e-05
0.00203361 8.43209e-06 4.45263e-06
8.43209e-06 0.000909647 4.70565e-06
4.45263e-06 4.70565e-06 0.000927818
0.000390831 -2.55832e-05 7.10363e-05
-2.55832e-05 0.00117534 1.725e-05
7.10363e-05 1.725e-05 0.000952717
3.61473e-05 -0.000276698 -2.71161e-05
-0.000276698 0.000187425 -1.46353e-05
-2.71161e-05 -1.46353e-05 -0.00269216
0.000461141 0.000292405 2.8074e-05
0.000292405 0.00544585 -3.16323e-05
2.8074e-05 -3.16323e-05 0.00265127
0.000761242 0.000116255 9.83889e-08
0.000116255 0.000173769 2.43532e-07
9.83889e-08 2.43532e-07 3.82064e-05
0.000494436 7.91772e-05 3.67359e-06
7.91772e-05 -5.78415e-06 1.57291e-06
3.67359e-06 1.57291e-06 -0.000130322
0.000987897 0.000165184 4.76705e-06
0.000165184 0.000313005 4.06975e-06
4.76705e-06 4.06975e-06 0.000172466
0.00432039 -0.000108426 -2.44415e-05
-0.000108426 -0.000389028 0.00021801
-2.44415e-05 0.00021801 -0.0011195
0.00404062 -0.000570738 5.57589e-05
-0.000570738 0.00266332 -4.67913e-06
5.57589e-05 -4.67913e-06 0.00132826
0.0044385 -0.00110426 0.000118403
-0.00110426 0.00186499 -0.000191596
0.000118403 -0.000191596 -0.00238004
0.00789434 -0.00185059 -6.12532e-05
-0.00185059 0.000742443 -1.7252e-05
-6.12532e-05 -1.7252e-05 0.00101114
0.000515582 -0.00199899 -0.000262183
-0.00199899 -0.00152515 0.000101113
-0.000262183 0.000101113 -0.00452433
0.0197285 0.00299366 0.000132749
0.00299366 0.00770995 0.000107654
0.000132749 0.000107654 0.00499672
0.00563186 0.00013785 0.000184135
0.00013785 -0.0030734 -0.000174972
0.000184135 -0.000174972 -0.00280268
0.00493728 -0.00215509 -3.34201e-05
-0.00215509 0.000592399 1.30191e-05
-3.34201e-05 1.30191e-05 0.000413742
0.00725048 -0.00256605 -7.68721e-05
-0.00256605 0.00291305 2.27124e-05
-7.68721e-05 2.27124e-05 -0.00118318
-0.0034492 0.00273482 -7.33541e-05
0.00273482 0.00205874 -0.000238173
-7.33541e-05 -0.000238173 -0.00155321
0.00817226 0.00025014 -4.43652e-05
0.00025014 -0.00338586 0.000107153
-4.43652e-05 0.000107153 -0.000439857
0.000832388 -0.00123728 -0.000100962
-0.00123728 0.000166905 2.83274e-05
-0.000100962 2.83274e-05 -0.000139421
0.010783 -0.00233118 -0.000188271
-0.00233118 0.00521473 0.000126261
-0.000188271 0.000126261 0.000746874
-0.0044228 5.02828e-07 3.75292e-05
5.02828e-07 0.0013087 -0.000299043
3.75292e-05 -0.000299043 -0.00176839
0.00740404 -0.00126505 8.44478e-05
-0.00126505 -0.00199405 3.23167e-05
8.44478e-05 3.23167e-05 -0.00103712
0.000433605 8.29724e-05 2.60687e-06
8.29724e-05 -3.08933e-06 1.02183e-05
2.60687e-06 1.02183e-05 -0.000145018
0.000741314 -1.72309e-05 2.5162e-06
-1.72309e-05 0.000229714 -1.99632e-06
2.5162e-06 -1.99632e-06 3.23227e-05
0.000867448 -0.000111577 -6.76323e-07
-0.000111577 0.000301082 -7.27495e-06
-6.76323e-07 -7.27495e-06 0.000108939
0.000694504 0.000107812 -1.54722e-06
0.000107812 0.000130499 4.61988e-07
-1.54722e-06 4.61988e-07 -1.27644e-05
0.000805383 0.000142239 3.06573e-07
0.000142239 0.000251992 -2.69871e-06
3.06573e-07 -2.69871e-06 8.69325e-05
0.00114264 0.000167813 -3.57824e-06
0.000167813 0.000449241 -1.74559e-06
-3.57824e-06 -1.74559e-06 0.000287575
-0.00127209 -0.000695018 2.00784e-05
-0.000695018 -0.00167316 -1.59339e-06
2.00784e-05 -1.59339e-06 -0.00160856
0.00046504 -0.000289798 2.92378e-05
-0.000289798 -6.20273e-05 -2.45236e-05
2.92378e-05 -2.45236e-05 -4.19842e-05
9.30477e-05 1.82775e-05 -2.38877e-06
1.82775e-05 -0.000163084 -8.20897e-06
-2.38877e-06 -8.20897e-06 -0.000352335
0.00132878 -0.000356953 4.63586e-05
-0.000356953 0.000731166 -2.68265e-05
4.63586e-05 -2.68265e-05 0.000375128
0.00140143 -4.42747e-05 -6.39747e-06
-4.42747e-05 0.000745393 -1.09562e-06
-6.39747e-06 -1.09562e-06 0.000476777
0.000615314 9.68136e-05 2.32557e-06
9.68136e-05 0.000151529 1.93102e-06
2.32557e-06 1.93102e-06 -1.05054e-05
0.000934082 0.000155354 -5.31194e-07
0.000155354 0.00040195 -2.2397e-06
-5.31194e-07 -2.2397e-06 0.000233034
0.000318368 -0.000853408 3.44327e-06
-0.000853408 -0.00041715 -3.90844e-06
3.44327e-06 -3.90844e-06 -0.00057838
8.24771e-05 9.75694e-06 -6.15716e-06
9.75694e-06 0.000318682 4.13232e-06
-6.15716e-06 4.13232e-06 -0.000151758
0.00142949 -0.000255633 9.82665e-06
-0.000255633 0.000703666 -7.67794e-06
9.82665e-06 -7.67794e-06 0.000474276
0.00117234 0.000156075 1.84781e-06
0.000156075 0.00053549 -6.15107e-06
1.84781e-06 -6.15107e-06 0.000384705
-0.00291027 -7.36539e-05 -0.00011887
-7.36539e-05 -0.00090102 -1.54657e-05
-0.00011887 -1.54657e-05 -0.00160568
2.5884e-05 -0.000129458 -1.70475e-05
-0.000129458 0.000278718 1.2743e-05
-1.70475e-05 1.2743e-05 -1.55954e-05
0.000288405 0.000127373 3.40747e-06
0.000127373 0.000393806 8.47546e-06
3.40747e-06 8.47546e-06 1.81451e-05
0.000102763 5.86152e-05 -2.70474e-06
5.86152e-05 -0.000560278 4.15133e-07
-2.70474e-06 4.15133e-07 -0.0011199
-0.00108574 5.92594e-05 1.33261e-05
5.92594e-05 0.000662757 -1.55979e-05
1.33261e-05 -1.55979e-05 0.000102455
6.17441e-05 -0.000113389 0.000258974
-0.000113389 0.000798657 9.2115e-06
0.000258974 9.2115e-06 -0.00237579
-0.000649524 0.000223321 -5.78459e-06
0.000223321 -0.000229722 1.94821e-05
-5.78459e-06 1.94821e-05 -0.000532619
0.000848103 0.000644066 -5.87078e-06
0.000644066 0.000356929 -4.30182e-06
-5.87078e-06 -4.30182e-06 -0.000131425
-0.00137659 -1.40469e-05 -3.08039e-06
-1.40469e-05 -0.000121344 -6.23373e-06
-3.08039e-06 -6.23373e-06 -0.000336414
-0.0038041 0.000648221 5.27779e-05
0.000648221 0.00159842 0.00013793
5.27779e-05 0.00013793 -0.00319646
-0.0058086 0.00112212 -0.000168995
0.00112212 -0.00285766 -0.000391802
-0.000168995 -0.000391802 -0.00621831
0.00314133 8.30157e-05 6.2986e-05
8.30157e-05 -0.000113394 9.67817e-05
6.2986e-05 9.67817e-05 -9.66721e-05
0.00549501 0.000214514 -0.000188897
0.000214514 -0.00287901 0.00017563
-0.000188897 0.00017563 -0.00276486
0.000420321 0.000265136 2.80471e-06
0.000265136 0.000460782 -1.28649e-06
2.80471e-06 -1.28649e-06 0.000112995
0.00102802 1.88229e-06 2.36075e-05
1.88229e-06 -0.000361106 -2.76479e-05
2.36075e-05 -2.76479e-05 -0.000191599
0.00362211 -0.000455922 -5.74324e-05
-0.000455922 0.00259308 6.82738e-06
-5.74324e-05 6.82738e-06 0.00126575
0.000541718 0.000461977 -8.43109e-05
0.000461977 0.000974597 -6.27022e-06
-8.43109e-05 -6.27022e-06 -7.86325e-05
0.00969423 0.00333789 6.99354e-05
0.00333789 0.000743919 -0.000299474
6.99354e-05 -0.000299474 -0.000467906
-0.00144895 0.00213495 6.21022e-05
0.00213495 0.00209077 0.000238414
6.21022e-05 0.000238414 -0.00128222
0.00611835 0.000319691 4.8184e-05
0.000319691 0.00603102 -2.37971e-05
4.8184e-05 -2.37971e-05 -0.000499016
0.00100235 -7.17356e-06 3.12805e-05
-7.17356e-06 0.00135231 -2.55734e-05
3.12805e-05 -2.55734e-05 0.00057696
0.000260562 -5.49706e-05 -5.89688e-05
-5.49706e-05 0.00113028 3.56808e-06
-5.89688e-05 3.56808e-06 0.00087516
0.00254455 -0.00072358 0.000523974
-0.00072358 0.000908817 -0.000217661
0.000523974 -0.000217661 -0.00334249
0.0120671 0.00461027 -1.98893e-05
0.00461027 0.00843922 8.71786e-06
-1.98893e-05 8.71786e-06 0.00714542
-0.000223557 0.00266255 -8.90199e-05
0.00266255 -0.00158346 0.000584871
-8.90199e-05 0.000584871 -0.00369635
0.0121543 -0.00246599 0.00020097
-0.00246599 0.00541304 -0.000172901
0.00020097 -0.000172901 0.000651014
0.00335591 -0.000656319 -6.06093e-05
-0.000656319 0.00230348 5.00968e-05
-6.06093e-05 5.00968e-05 0.00164178
0.00151859 0.000269359 7.42067e-06
0.000269359 0.00112981 5.29459e-06
7.42067e-06 5.29459e-06 0.000787415
-0.000115819 -2.19159e-05 -6.28771e-06
-2.19159e-05 0.000214031 -1.88043e-06
-6.28771e-06 -1.88043e-06 -6.54755e-05
0.00182406 -0.000391097 2.71359e-05
-0.000391097 0.00111285 -1.13522e-05
2.71359e-05 -1.13522e-05 0.000735177
0.000817604 -8.83232e-05 2.90213e-07
-8.83232e-05 0.00044121 4.28779e-06
2.90213e-07 4.28779e-06 0.000262258
0.000129481 -3.65212e-05 -4.70684e-06
-3.65212e-05 0.000271005 2.19017e-06
-4.70684e-06 2.19017e-06 -4.80116e-05
0.000252125 -0.000205255 -2.49907e-06
-0.000205255 0.000285158 -1.82211e-07
-2.49907e-06 -1.82211e-07 6.95212e-06
0.000750227 -0.000409504 2.58068e-05
-0.000409504 0.000256354 -2.17886e-05
2.58068e-05 -2.17886e-05 6.51402e-05
0.00242048 -0.000305101 -3.79755e-06
-0.000305101 0.001211 3.48306e-06
-3.79755e-06 3.48306e-06 0.00103185
0.00221862 -0.000568937 1.09084e-05
-0.000568937 0.00101538 -2.74334e-06
1.09084e-05 -2.74334e-06 0.00069191
0.00188289 -0.000546826 1.28199e-05
-0.000546826 0.000791921 -1.78967e-06
1.28199e-05 -1.78967e-06 0.000298258
0.000383418 -0.000263769 -3.77019e-06
-0.000263769 -0.000137225 -2.01115e-06
-3.77019e-06 -2.01115e-06 -0.000322992
0.00151377 -0.000461121 -2.33925e-06
-0.000461121 0.000396045 7.50691e-07
-2.33925e-06 7.50691e-07 3.7062e-05
0.0021341 -0.000626031 4.70867e-07
-0.000626031 0.000692629 9.9806e-07
4.70867e-07 9.9806e-07 0.000234187
0.00172863 -0.000630631 -4.22163e-06
-0.000630631 0.000343462 1.66469e-06
-4.22163e-06 1.66469e-06 -5.58747e-05
0.00157628 -0.000502409 -1.29569e-06
-0.000502409 0.000376638 5.55794e-07
-1.29569e-06 5.55794e-07 3.32714e-05
0.00148116 -0.000490845 -4.23216e-06
-0.000490845 0.000306505 1.24833e-06
-4.23216e-06 1.24833e-06 -5.12073e-05
0.00108122 -0.000361563 -4.96545e-06
-0.000361563 0.000183897 -8.48212e-07
-4.96545e-06 -8.48212e-07 -0.000118343
0.00213768 -0.000442467 4.47985e-06
-0.000442467 0.000809731 1.70316e-06
4.47985e-06 1.70316e-06 0.000530973
0.0014577 -0.000401412 4.59541e-06
-0.000401412 0.000343425 -3.17016e-06
4.59541e-06 -3.17016e-06 5.25234e-05
0.000296066 -0.000152417 1.6243e-06
-0.000152417 -0.000158128 -7.18171e-08
1.6243e-06 -7.18171e-08 -0.000382599
0.000859372 -0.000293866 3.50408e-06
-0.000293866 9.57867e-05 -6.44961e-07
3.50408e-06 -6.44961e-07 -0.000153808
0.00018742 -0.000243939 -7.272e-07
-0.000243939 -0.000403777 -7.7332e-06
-7.272e-07 -7.7332e-06 -0.000657519
-0.000130836 -1.60996e-05 3.9179e-07
-1.60996e-05 -0.000347918 1.54627e-06
3.9179e-07 1.54627e-06 -0.000532694
0.00106088 -0.000173234 -2.71309e-07
-0.000173234 0.000405446 -2.56725e-08
-2.71309e-07 -2.56725e-08 0.000169135
0.000986729 -0.000305868 -3.19619e-07
-0.000305868 0.000325625 -1.48092e-06
-3.19619e-07 -1.48092e-06 6.85859e-05
0.000695914 -1.05165e-05 -1.00936e-06
-1.05165e-05 0.000112855 4.42125e-06
-1.00936e-06 4.42125e-06 1.59638e-05
0.000808608 -9.01347e-05 -2.05989e-07
-9.01347e-05 0.000187564 -2.39161e-07
-2.05989e-07 -2.39161e-07 5.2149e-05
0.000283799 -8.15076e-05 1.01627e-07
-8.15076e-05 -7.23618e-05 1.03976e-06
1.01627e-07 1.03976e-06 -0.000255594
0.000715927 -8.40683e-05 7.72731e-07
-8.40683e-05 0.00014957 -8.80594e-07
7.72731e-07 -8.80594e-07 1.83448e-05
0.000613933 -3.03982e-05 -4.34853e-08
-3.03982e-05 6.15612e-05 -2.48681e-07
-4.34853e-08 -2.48681e-07 -2.46371e-05
0.000468648 3.52907e-05 4.33992e-07
3.52907e-05 -3.85902e-05 6.85063e-06
4.33992e-07 6.85063e-06 -7.22512e-05
0.000622552 -3.65881e-05 1.41458e-06
-3.65881e-05 6.94901e-05 -3.19478e-06
1.41458e-06 -3.19478e-06 -8.63344e-06
0.000506987 2.7521e-05 -1.28936e-06
2.7521e-05 -2.27645e-05 -1.64302e-07
-1.28936e-06 -1.64302e-07 -5.13943e-05
0.00259368 9.46449e-05 -3.12555e-05
9.46449e-05 0.00126918 4.34291e-06
-3.12555e-05 4.34291e-06 0.0012747
0.000524517 1.3498e-05 1.7301e-06
1.3498e-05 -1.84086e-05 -5.33602e-06
1.7301e-06 -5.33602e-06 -4.33997e-05
0.00167853 6.27099e-05 1.5456e-05
6.27099e-05 0.000696756 -8.52495e-07
1.5456e-05 -8.52495e-07 0.000700758
0.00257764 6.37004e-05 2.19699e-05
6.37004e-05 0.00124983 -5.03566e-06
2.19699e-05 -5.03566e-06 0.00125982
0.000707787 8.04345e-05 2.44215e-06
8.04345e-05 0.000145878 -3.42116e-07
2.44215e-06 -3.42116e-07 2.49538e-05
0.000543902 3.83568e-05 1.03334e-06
3.83568e-05 1.39977e-05 -2.60468e-06
1.03334e-06 -2.60468e-06 -5.5976e-05
0.000485034 4.50252e-05 -1.12227e-06
4.50252e-05 1.19933e-05 -1.1925e-06
-1.12227e-06 -1.1925e-06 -0.000107158
0.000509223 -5.14594e-06 9.45057e-07
-5.14594e-06 -3.40547e-05 -4.84011e-06
9.45057e-07 -4.84011e-06 -5.05362e-05
0.000372693 3.06712e-05 -1.99253e-06
3.06712e-05 -8.9206e-05 -1.56746e-06
-1.99253e-06 -1.56746e-06 -0.000154466
0.000707389 6.24652e-05 -8.90491e-07
6.24652e-05 0.000152865 -1.01799e-06
-8.90491e-07 -1.01799e-06 3.92952e-05
0.00217169 -3.6321e-05 -1.83543e-05
-3.6321e-05 0.000994062 -4.68775e-06
-1.83543e-05 -4.68775e-06 0.00101041
0.000504544 -6.86944e-06 -1.27966e-07
-6.86944e-06 -3.75198e-05 -1.01078e-07
-1.27966e-07 -1.01078e-07 -4.9977e-05
0.000172354 9.96972e-06 -1.62825e-06
9.96972e-06 -0.000211012 4.7946e-07
-1.62825e-06 4.7946e-07 -0.000271082
0.00211045 -2.07268e-05 -4.86692e-06
-2.07268e-05 0.000955695 1.12259e-07
-4.86692e-06 1.12259e-07 0.00097343
0.00050164 -4.50126e-06 -1.82828e-06
-4.50126e-06 -3.93957e-05 3.49132e-06
-1.82828e-06 3.49132e-06 -4.90141e-05
0.0020629 -5.37019e-06 9.30868e-06
-5.37019e-06 0.000926513 4.73801e-06
9.30868e-06 4.73801e-06 0.000944856
0.00119542 -0.000127966 -2.89082e-05
-0.000127966 -0.000298635 2.72048e-05
-2.89082e-05 2.72048e-05 -0.000194244
4.14603e-05 -0.000157968 3.72225e-05
-0.000157968 0.00100394 -2.39612e-06
3.72225e-05 -2.39612e-06 0.000762805
-0.000155536 -0.000295575 0.000140681
-0.000295575 0.000353687 -8.55044e-05
0.000140681 -8.55044e-05 -0.00273846
0.000356765 4.34746e-05 2.59134e-06
4.34746e-05 -9.64826e-05 1.41426e-06
2.59134e-06 1.41426e-06 -0.000221017
0.00162143 9.47065e-05 2.76564e-07
9.47065e-05 0.000660904 3.00006e-06
2.76564e-07 3.00006e-06 0.000516554
0.000744726 0.000125233 -1.44328e-06
0.000125233 0.000163225 -1.39623e-06
-1.44328e-06 -1.39623e-06 3.31768e-05
0.00050522 6.66717e-05 5.18677e-07
6.66717e-05 -1.01132e-05 6.90694e-07
5.18677e-07 6.90694e-07 -0.000126977
0.000558074 8.56101e-05 2.38173e-07
8.56101e-05 4.23191e-05 -1.70737e-07
2.38173e-07 -1.70737e-07 -8.36195e-05
0.000555727 7.56215e-05 3.40564e-06
7.56215e-05 3.11313e-05 5.53459e-07
3.40564e-06 5.53459e-07 -8.59226e-05
0.000596686 0.000163135 7.01829e-06
0.000163135 0.000104565 3.74161e-06
7.01829e-06 3.74161e-06 -3.71767e-05
0.000664716 0.000396646 0.000117649
0.000396646 -0.000397802 0.000225228
0.000117649 0.000225228 -0.00163858
0.00367022 -8.31507e-05 -2.69834e-05
-8.31507e-05 -0.000142149 5.71997e-05
-2.69834e-05 5.71997e-05 -0.000661076
0.0036073 -0.000438191 0.000103079
-0.000438191 0.00244272 -9.21037e-05
0.000103079 -9.21037e-05 0.00144708
0.00613448 -0.0001229 -6.83625e-06
-0.0001229 -0.0054446 0.000129738
-6.83625e-06 0.000129738 -0.00181074
0.00276793 -0.00178459 -9.31166e-05
-0.00178459 0.000439079 6.24316e-05
-9.31166e-05 6.24316e-05 0.000110019
-0.000103688 -0.00263585 -0.000124338
-0.00263585 0.000884534 8.44526e-05
-0.000124338 8.44526e-05 -0.00398614
0.0120393 0.00318904 8.44516e-05
0.00318904 0.00598028 -0.000111009
8.44516e-05 -0.000111009 0.00270405
0.00293314 -0.00163519 -3.54728e-05
-0.00163519 0.000584233 1.63105e-05
-3.54728e-05 1.63105e-05 0.000614581
-0.00121451 -0.00062375 -1.63653e-05
-0.00062375 0.00273699 4.33932e-05
-1.63653e-05 4.33932e-05 -0.00310771
0.00579398 0.000407981 0.000115497
0.000407981 0.00266963 -1.71076e-05
0.000115497 -1.71076e-05 0.000120282
0.012859 -0.00193246 -5.4113e-05
-0.00193246 0.0016889 -2.895e-05
-5.4113e-05 -2.895e-05 0.0030376
-0.000849673 -0.000311892 -0.00010651
-0.000311892 -0.000264948 9.84597e-05
-0.00010651 9.84597e-05 -7.68691e-05
0.00261041 0.00193954 -0.000130008
0.00193954 0.00387916 -7.99302e-05
-0.000130008 -7.99302e-05 -0.00204405
-0.00415124 -0.00365342 4.36738e-05
-0.00365342 -0.00169974 -0.000209962
4.36738e-05 -0.000209962 -0.00531558
0.0101666 -0.00225919 8.07137e-05
-0.00225919 0.00148612 -0.000460732
8.07137e-05 -0.000460732 0.00113205
0.000927826 2.78062e-05 8.98039e-06
2.78062e-05 0.000367209 2.8475e-06
8.98039e-06 2.8475e-06 0.000211201
0.000671174 0.000129056 -1.00969e-06
0.000129056 0.000150981 -1.24918e-06
-1.00969e-06 -1.24918e-06 5.70986e-06
0.000709687 -1.48082e-05 -4.74582e-07
-1.48082e-05 0.000218973 -3.3661e-06
-4.74582e-07 -3.3661e-06 9.45711e-06
0.000871256 0.000106525 -2.7841e-06
0.000106525 0.000261327 -5.74435e-06
-2.7841e-06 -5.74435e-06 0.000101693
-0.000503907 -0.000616405 -1.62922e-06
-0.000616405 -0.00077833 4.2129e-05
-1.62922e-06 4.2129e-05 -0.000922946
0.00332696 -0.000282137 9.94661e-07
-0.000282137 0.00188843 -2.49972e-05
9.94661e-07 -2.49972e-05 0.00158669
0.000632254 6.94733e-05 -4.08658e-06
6.94733e-05 0.00014325 -7.5381e-06
-4.08658e-06 -7.5381e-06 -2.97675e-07
0.00070651 0.00019409 -2.47333e-06
0.00019409 0.000274615 -2.2923e-06
-2.47333e-06 -2.2923e-06 0.000101266
0.00123905 9.33875e-05 -6.44523e-06
9.33875e-05 0.000928525 -2.53751e-06
-6.44523e-06 -2.53751e-06 0.000557824
0.000608586 6.72479e-05 3.82797e-06
6.72479e-05 0.000156489 2.93905e-06
3.82797e-06 2.93905e-06 3.26776e-05
0.000226626 0.000136518 -6.52286e-07
0.000136518 0.000370382 1.0563e-06
-6.52286e-07 1.0563e-06 -1.84312e-05
0.00173363 -0.000338157 -4.24743e-06
-0.000338157 0.00140956 4.6386e-06
-4.24743e-06 4.6386e-06 0.000511176
-6.41624e-05 -0.000106835 1.75137e-05
-0.000106835 0.00038147 -1.25491e-07
1.75137e-05 -1.25491e-07 4.30306e-05
-0.0001215 0.000110707 3.91762e-06
0.000110707 -4.90818e-06 -2.87646e-06
3.91762e-06 -2.87646e-06 -0.000233307
0.00171557 -9.1656e-05 -1.67657e-05
-9.1656e-05 0.00253489 -3.83063e-05
-1.67657e-05 -3.83063e-05 0.00110074
0.00140754 0.000275938 -4.57432e-06
0.000275938 0.00113797 1.75215e-05
-4.57432e-06 1.75215e-05 0.000695004
-0.000853107 5.02082e-05 -4.05378e-05
5.02082e-05 0.000998416 1.04409e-05
-4.05378e-05 1.04409e-05 0.000281479
0.000933834 3.19598e-06 3.9171e-06
3.19598e-06 -0.000216501 1.38564e-06
3.9171e-06 1.38564e-06 -0.000300784
-0.00144256 6.74663e-05 9.52154e-07
6.74663e-05 0.000358548 -3.64491e-05
9.52154e-07 -3.64491e-05 -5.76187e-05
0.000195374 0.000173738 -9.15582e-06
0.000173738 0.000422471 8.60902e-06
-9.15582e-06 8.60902e-06 0.000148109
-0.00123929 0.000567863 9.24542e-05
0.000567863 -0.000552674 8.47418e-05
9.24542e-05 8.47418e-05 -0.00108256
0.000831309 2.74655e-06 3.56714e-05
2.74655e-06 -0.000440323 -4.69012e-06
3.56714e-05 -4.69012e-06 -0.000138744
0.00394792 -0.00166775 0.000139556
-0.00166775 0.0045342 -0.000164761
0.000139556 -0.000164761 -0.00253942
0.0138124 0.00282966 -0.000132777
0.00282966 0.00622412 0.000102525
-0.000132777 0.000102525 0.00325732
0.00347554 -0.000342311 -0.000101271
-0.000342311 0.00226175 9.91082e-05
-0.000101271 9.91082e-05 0.0013633
0.00997092 0.00330067 -1.48103e-05
0.00330067 0.00256403 -0.000136158
-1.48103e-05 -0.000136158 0.000716346
0.000418717 0.000129982 -4.43114e-05
0.000129982 0.000929256 1.00686e-05
-4.43114e-05 1.00686e-05 0.000156327
0.000339246 -8.21136e-05 -4.34608e-05
-8.21136e-05 0.000956857 1.55292e-06
-4.34608e-05 1.55292e-06 0.000854538
0.00353717 -0.000936984 0.000207394
-0.000936984 0.00142165 -1.9983e-05
0.000207394 -1.9983e-05 -0.00267581
-0.00135459 -0.000175193 2.71783e-05
-0.000175193 -0.000389376 2.90234e-05
2.71783e-05 2.90234e-05 -0.000699285
0.00540735 0.00507605 0.00036465
0.00507605 0.00465638 -0.000180638
0.00036465 -0.000180638 0.00381717
0.00738549 0.00213331 -0.000135856
0.00213331 0.00137917 0.000251147
-0.000135856 0.000251147 -0.000842716
-0.0028266 -0.000997462 0.000107846
-0.000997462 0.00197452 -0.000111196
0.000107846 -0.000111196 -0.00434655
-0.000134171 -0.00032173 1.9359e-05
-0.00032173 0.000482592 -2.0245e-05
1.9359e-05 -2.0245e-05 -0.00027697
0.000193053 -0.000446655 0.000187648
-0.000446655 -0.000300735 -4.22914e-05
0.000187648 -4.22914e-05 -0.00264091
-0.0021916 5.05624e-06 -0.000646638
5.05624e-06 0.00455136 0.000172505
-0.000646638 0.000172505 0.00167276
0.00981187 0.00481463 -0.000444989
0.00481463 0.00237242 0.000473422
-0.000444989 0.000473422 0.000908305
0.00864728 -0.00220839 -7.39451e-05
-0.00220839 0.00359615 2.83713e-05
-7.39451e-05 2.83713e-05 -4.32637e-05
0.00280652 -0.00102181 -3.49465e-05
-0.00102181 0.00175938 2.37766e-05
-3.49465e-05 2.37766e-05 0.00123138
0.000465914 -5.0631e-05 6.58581e-06
-5.0631e-05 0.000482112 1.2697e-05
6.58581e-06 1.2697e-05 0.000216211
0.000334919 -0.000270003 3.87643e-06
-0.000270003 0.000371272 -5.11345e-07
3.87643e-06 -5.11345e-07 -1.10979e-05
0.001168 -0.000549584 1.04514e-05
-0.000549584 0.000561561 -5.27591e-07
1.04514e-05 -5.27591e-07 0.000406282
-0.000446664 -0.000187237 -2.25359e-07
-0.000187237 -2.97969e-05 7.47587e-06
-2.25359e-07 7.47587e-06 -0.000313314
-0.00079383 -0.000266779 1.45986e-06
-0.000266779 -0.00048741 -1.43013e-06
1.45986e-06 -1.43013e-06 -0.000687376
0.00271188 -0.00067055 4.23209e-05
-0.00067055 0.00108174 -3.46537e-06
4.23209e-05 -3.46537e-06 0.000802577
0.00560476 -0.000933631 -1.42633e-05
-0.000933631 0.00284568 5.35202e-06
-1.42633e-05 5.35202e-06 0.00247397
0.00267552 -0.000644396 6.80676e-06
-0.000644396 0.00114533 1.72115e-07
6.80676e-06 1.72115e-07 0.000661355
0.00160473 -0.000616605 1.0842e-05
-0.000616605 0.000402088 -8.90374e-06
1.0842e-05 -8.90374e-06 -0.000109762
0.00152241 -0.000459538 -8.99402e-06
-0.000459538 0.000367749 -1.23555e-06
-8.99402e-06 -1.23555e-06 1.07609e-05
0.00227327 -0.000651809 2.47724e-06
-0.000651809 0.000743516 -3.75603e-07
2.47724e-06 -3.75603e-07 0.000277184
0.00230181 -0.000697357 3.35412e-06
-0.000697357 0.000699017 -8.91265e-06
3.35412e-06 -8.91265e-06 0.000231937
0.00203864 -0.000608892 -1.78082e-06
-0.000608892 0.000393859 -4.61879e-06
-1.78082e-06 -4.61879e-06 5.77079e-05
0.00204787 -0.000664018 -1.42814e-06
-0.000664018 0.000503157 1.32946e-06
-1.42814e-06 1.32946e-06 0.00012408
0.00194359 -0.000655568 -2.01966e-06
-0.000655568 0.000461876 -1.15925e-08
-2.01966e-06 -1.15925e-08 5.41445e-05
0.0020251 -0.000515582 7.1679e-06
-0.000515582 0.000683838 2.23777e-06
7.1679e-06 2.23777e-06 0.000362763
0.00125971 -0.00046086 1.49416e-06
-0.00046086 0.000193593 -1.48173e-08
1.49416e-06 -1.48173e-08 -0.000134851
0.00128692 -0.000471348 -5.28508e-07
-0.000471348 0.000190859 -6.66004e-08
-5.28508e-07 -6.66004e-08 -0.000164617
0.00158897 -0.000355314 3.42615e-06
-0.000355314 0.000512471 2.56089e-07
3.42615e-06 2.56089e-07 0.000261704
0.00149316 -0.000375393 -1.04224e-06
-0.000375393 0.000414092 -1.51926e-06
-1.04224e-06 -1.51926e-06 0.000146433
0.00126008 -0.000382757 1.03833e-05
-0.000382757 0.000230788 -5.17278e-06
1.03833e-05 -5.17278e-06 -5.73549e-05
0.000673801 -0.000164618 3.2675e-06
-0.000164618 0.000166759 3.78266e-07
3.2675e-06 3.78266e-07 -9.09021e-05
0.000723368 -0.000193502 -2.03049e-06
-0.000193502 0.000117383 1.2493e-06
-2.03049e-06 1.2493e-06 -0.000117169
0.000987449 -0.0003184 7.59689e-06
-0.0003184 0.00019098 -6.53677e-06
7.59689e-06 -6.53677e-06 -6.34177e-05
0.000361828 -1.65179e-05 5.97869e-07
-1.65179e-05 -9.59119e-05 4.8881e-06
5.97869e-07 4.8881e-06 -0.000206222
0.000687529 -6.03732e-05 -9.91933e-07
-6.03732e-05 0.000154639 2.18072e-08
-9.91933e-07 2.18072e-08 -4.04216e-05
0.00140641 -0.000233132 9.35497e-07
-0.000233132 0.000621407 5.40914e-07
9.35497e-07 5.40914e-07 0.000376025
0.000465553 2.36702e-05 -3.26402e-06
2.36702e-05 -3.99157e-05 9.9413e-06
-3.26402e-06 9.9413e-06 -7.64208e-05
0.000637578 -1.88306e-05 -3.45855e-07
-1.88306e-05 7.22983e-05 -1.30214e-07
-3.45855e-07 -1.30214e-07 -2.33457e-05
0.00117449 -0.000129566 1.38004e-07
-0.000129566 0.000419449 -1.0355e-06
1.38004e-07 -1.0355e-06 0.00027153
0.000658269 -3.09224e-05 1.1024e-06
-3.09224e-05 8.77472e-05 -3.56252e-06
1.1024e-06 -3.56252e-06 1.27541e-06
0.000496331 3.02362e-05 1.54292e-07
3.02362e-05 -2.32527e-05 -8.35028e-08
1.54292e-07 -8.35028e-08 -5.631e-05
0.00270367 0.000116096 -3.26942e-05
0.000116096 0.00134566 4.10603e-06
-3.26942e-05 4.10603e-06 0.00134627
0.000547634 2.71616e-05 5.80414e-07
2.71616e-05 6.94194e-07 -6.04666e-06
5.80414e-07 -6.04666e-06 -2.78196e-05
0.0026126 9.80123e-05 3.80048e-06
9.80123e-05 0.00128169 4.0589e-07
3.80048e-06 4.0589e-07 0.00128648
0.00255012 8.05702e-05 2.55147e-05
8.05702e-05 0.00123696 -4.59348e-06
2.55147e-05 -4.59348e-06 0.00124502
0.000675432 8.09374e-05 1.26989e-06
8.09374e-05 0.000164246 -1.75615e-06
1.26989e-06 -1.75615e-06 9.93689e-07
0.000763119 0.000102029 3.98256e-06
0.000102029 0.000192462 -8.7033e-07
3.98256e-06 -8.7033e-07 4.93481e-05
0.000589323 3.04337e-05 1.72009e-06
3.04337e-05 4.09886e-05 -3.22617e-06
1.72009e-06 -3.22617e-06 -3.65358e-05
0.000642828 9.3099e-05 1.65932e-07
9.3099e-05 0.000102951 -1.98542e-07
1.65932e-07 -1.98542e-07 -1.6425e-05
0.00049623 -8.50134e-06 3.04389e-07
-8.50134e-06 -3.93917e-05 -5.79188e-06
3.04389e-07 -5.79188e-06 -6.03792e-05
0.000563593 4.142e-05 2.24679e-07
4.142e-05 2.6453e-05 -1.33771e-07
2.24679e-07 -1.33771e-07 -4.35827e-05
0.000594234 4.90841e-05 -3.21248e-06
4.90841e-05 6.67035e-05 -2.76958e-07
-3.21248e-06 -2.76958e-07 -4.37442e-05
0.0023041 -5.18391e-05 -2.3978e-05
-5.18391e-05 0.00107774 -4.7414e-06
-2.3978e-05 -4.7414e-06 0.00109181
0.000504996 -1.00468e-05 -5.96023e-07
-1.00468e-05 -3.61032e-05 -9.18925e-08
-5.96023e-07 -9.18925e-08 -5.24709e-05
0.000502923 4.71723e-05 -2.63942e-06
4.71723e-05 -8.00914e-06 8.56838e-07
-2.63942e-06 8.56838e-07 -7.25002e-05
0.00218404 -3.5514e-05 -4.52306e-06
-3.5514e-05 0.00100163 2.04813e-07
-4.52306e-06 2.04813e-07 0.00101806
0.000504252 -7.04261e-06 -1.92442e-06
-7.04261e-06 -3.78506e-05 3.79093e-06
-1.92442e-06 3.79093e-06 -5.00785e-05
0.00209545 -1.97549e-05 1.35065e-05
-1.97549e-05 0.000946175 4.65246e-06
1.35065e-05 4.65246e-06 0.000964048
-0.00131254 1.74391e-05 -1.0626e-05
1.74391e-05 -0.00011162 -6.25318e-06
-1.0626e-05 -6.25318e-06 -2.92068e-05
0.00119047 -0.000142512 -1.71578e-05
-0.000142512 -0.000311473 2.53766e-05
-1.71578e-05 2.53766e-05 -8.98465e-05
0.000262212 -0.00016158 7.33784e-06
-0.00016158 0.000963056 -2.57756e-05
7.33784e-06 -2.57756e-05 0.00073287
0.000769357 8.52745e-05 -3.7494e-07
8.52745e-05 0.000188092 4.94511e-07
-3.7494e-07 4.94511e-07 4.13058e-05
0.000547471 7.67651e-05 3.23974e-06
7.67651e-05 8.80808e-06 -9.73334e-07
3.23974e-06 -9.73334e-07 -0.000126677
-0.00124584 3.3118e-06 -4.23075e-06
3.3118e-06 -0.00106411 -7.4168e-06
-4.23075e-06 -7.4168e-06 -0.00117444
0.000177949 3.04385e-05 2.08829e-06
3.04385e-05 -0.000188942 7.65178e-06
2.08829e-06 7.65178e-06 -0.00031841
0.00246151 0.000311515 -1.4084e-06
0.000311515 0.00122648 6.85725e-08
-1.4084e-06 6.85725e-08 0.00102218
0.000710966 4.13727e-05 -3.96035e-06
4.13727e-05 0.000106665 -1.58936e-06
-3.96035e-06 -1.58936e-06 -7.70888e-06
0.000572009 7.93826e-05 -4.18031e-06
7.93826e-05 4.27638e-05 -5.11078e-06
-4.18031e-06 -5.11078e-06 -7.44348e-05
0.0007277 6.97811e-05 1.16062e-07
6.97811e-05 0.000138842 -3.31905e-07
1.16062e-07 -3.31905e-07 1.86255e-05
0.000957339 0.00013465 -9.54029e-08
0.00013465 0.000300257 -9.50626e-07
-9.54029e-08 -9.50626e-07 0.000172192
0.000754797 9.79687e-05 5.27659e-06
9.79687e-05 0.000258927 -6.99049e-06
5.27659e-06 -6.99049e-06 8.66378e-05
0.00436477 0.000574411 0.000282858
0.000574411 0.00302506 0.00037481
0.000282858 0.00037481 -0.00118507
0.00129922 0.000361839 1.47039e-05
0.000361839 -8.33333e-05 8.24118e-05
1.47039e-05 8.24118e-05 -0.00155979
0.00322013 -7.01937e-05 2.51127e-06
-7.01937e-05 1.07145e-05 -1.37019e-05
2.51127e-06 -1.37019e-05 -0.000241722
0.0127892 -0.00165799 -0.000181701
-0.00165799 0.0017394 -0.000136486
-0.000181701 -0.000136486 0.00340565
-0.00609099 0.00152258 3.56908e-05
0.00152258 -0.00256922 0.000368398
3.56908e-05 0.000368398 -0.00613128
0.00360976 -0.00174134 -9.25222e-05
-0.00174134 0.00115711 1.48191e-05
-9.25222e-05 1.48191e-05 0.0011926
0.0103416 -0.00162232 -0.000112976
-0.00162232 0.00525583 9.59626e-06
-0.000112976 9.59626e-06 0.00099344
0.000696778 -0.000409421 -1.94688e-05
-0.000409421 0.000231328 8.0781e-05
-1.94688e-05 8.0781e-05 9.11905e-05
0.0100175 -0.000276135 -8.28903e-05
-0.000276135 0.00595006 -7.41201e-06
-8.28903e-05 -7.41201e-06 0.000316562
0.00395974 -0.00211824 8.44254e-05
-0.00211824 0.00218818 0.00013374
8.44254e-05 0.00013374 -0.00121229
0.0109657 -0.00296246 -0.000180451
-0.00296246 0.000652415 -0.000545119
-0.000180451 -0.000545119 0.000210103
0.00354325 9.06165e-05 -9.9635e-05
9.06165e-05 0.00233271 8.04111e-05
-9.9635e-05 8.04111e-05 0.00164499
0.0119912 0.00197962 -0.000116196
0.00197962 0.00587607 2.78083e-05
-0.000116196 2.78083e-05 0.00155552
0.0152127 -0.00429449 -0.000184984
-0.00429449 0.00661294 -0.000503776
-0.000184984 -0.000503776 0.00439673
0.0153525 -0.00537239 7.52607e-05
-0.00537239 0.00499859 -3.86796e-05
7.52607e-05 -3.86796e-05 0.00455069
0.000424495 0.000140588 1.10118e-05
0.000140588 0.000139029 7.99633e-07
1.10118e-05 7.99633e-07 -5.14785e-05
0.000460596 3.98875e-05 1.65428e-06
3.98875e-05 0.000126275 2.27716e-06
1.65428e-06 2.27716e-06 -5.53678e-05
0.000879466 0.000151887 -5.74849e-06
0.000151887 0.000287148 -8.20016e-06
-5.74849e-06 -8.20016e-06 0.000133584
0.00322671 -0.000346842 -5.85654e-05
-0.000346842 0.001722 3.90091e-05
-5.85654e-05 3.90091e-05 0.000709508
0.000237464 -7.56199e-05 -6.56414e-06
-7.56199e-05 0.000625279 -3.8113e-05
-6.56414e-06 -3.8113e-05 0.000269796
0.000426243 -1.23664e-06 -7.71776e-06
-1.23664e-06 3.69516e-05 -9.65329e-07
-7.71776e-06 -9.65329e-07 -7.90094e-05
1.70967e-05 4.73092e-05 -4.54222e-07
4.73092e-05 0.000253429 -4.87493e-06
-4.54222e-07 -4.87493e-06 -0.000132595
0.000304853 0.000100505 1.41626e-06
0.000100505 0.00021959 -1.03627e-06
1.41626e-06 -1.03627e-06 -1.57114e-05
0.000505751 0.000243279 8.74266e-06
0.000243279 0.000583456 1.04745e-06
8.74266e-06 1.04745e-06 0.00013921
-0.00152461 -9.36458e-05 0.000200182
-9.36458e-05 0.000631973 -1.64596e-05
0.000200182 -1.64596e-05 -0.000934838
-0.0018054 0.000156179 -1.40604e-05
0.000156179 -0.000920388 1.33012e-05
-1.40604e-05 1.33012e-05 -0.00123667
0.00268996 0.000607348 -0.000118853
0.000607348 0.00194995 -7.06857e-05
-0.000118853 -7.06857e-05 0.000843878
0.00160497 0.000167208 0.000130682
0.000167208 0.00155277 4.02525e-05
0.000130682 4.02525e-05 -0.00164385
-0.00117982 6.8394e-05 -1.29297e-05
6.8394e-05 0.000712985 1.77055e-05
-1.29297e-05 1.77055e-05 6.73644e-05
0.00177408 -0.000134428 -7.77263e-06
-0.000134428 0.000163134 8.68687e-07
-7.77263e-06 8.68687e-07 0.000500672
-0.00107326 0.000401943 0.000115235
0.000401943 2.80941e-05 1.25338e-05
0.000115235 1.25338e-05 -0.000837362
0.00169854 0.000260089 -6.2062e-05
0.000260089 0.00150678 5.76885e-05
-6.2062e-05 5.76885e-05 0.000394203
0.000238573 -0.000148207 -1.48153e-05
-0.000148207 0.000926716 7.7545e-06
-1.48153e-05 7.7545e-06 0.000705148
0.0161011 -0.00292159 0.000160755
-0.00292159 0.00748871 -7.22788e-05
0.000160755 -7.22788e-05 0.00239705
0.0178475 0.00321309 -5.62158e-05
0.00321309 0.00739051 -9.83452e-05
-5.62158e-05 -9.83452e-05 0.00471921
0.00450002 -0.00102114 -0.000146346
-0.00102114 0.00204598 0.000183427
-0.000146346 0.000183427 -0.0020778
-0.00197385 0.00579108 0.0016577
0.00579108 0.000281838 -0.00116565
0.0016577 -0.00116565 -0.000380607
0.000805189 -0.000345287 2.22945e-05
-0.000345287 0.00101183 -6.46694e-06
2.22945e-05 -6.46694e-06 0.000171765
8.93347e-05 -0.000322174 2.30247e-05
-0.000322174 0.000119763 1.53064e-05
2.30247e-05 1.53064e-05 -0.00266011
-0.00225921 0.00029639 -0.000803363
0.00029639 0.00444261 0.00029033
-0.000803363 0.00029033 0.00141935
0.000948772 -0.000595544 -7.84681e-06
-0.000595544 0.00079364 3.37729e-05
-7.84681e-06 3.37729e-05 0.000327768
0.0174919 0.00427209 0.000223791
0.00427209 0.00507499 8.20464e-05
0.000223791 8.20464e-05 0.00376947
0.00781256 -0.00307501 0.000142134
-0.00307501 0.00284457 -6.46878e-05
0.000142134 -6.46878e-05 -0.000641132
0.00219167 -0.000923264 -1.40443e-05
-0.000923264 0.00113444 2.89122e-05
-1.40443e-05 2.89122e-05 0.00067414
-0.00620671 -0.00112944 9.21786e-05
-0.00112944 0.00372247 -5.00553e-05
9.21786e-05 -5.00553e-05 0.000454397
0.0136124 0.00389856 -0.000991933
0.00389856 0.00547325 0.000425949
-0.000991933 0.000425949 0.00393595
0.0039366 -0.00214103 -0.000305848
-0.00214103 -0.00052997 0.00017227
-0.000305848 0.00017227 -0.00409329
0.00220509 -0.00152816 0.000166312
-0.00152816 0.000401033 -9.16258e-05
0.000166312 -9.16258e-05 0.00101688
-1.88363e-05 -0.000294817 -6.65565e-05
-0.000294817 0.000153739 2.25244e-05
-6.65565e-05 2.25244e-05 -0.000203481
0.000695492 -0.000479562 -8.44788e-06
-0.000479562 0.000357441 1.2072e-05
-8.44788e-06 1.2072e-05 0.00012639
0.00333539 -0.000730044 2.72938e-05
-0.000730044 0.00152291 6.17952e-07
2.72938e-05 6.17952e-07 0.0012453
-0.00246931 -0.000124264 1.77811e-06
-0.000124264 -0.00129194 1.18883e-05
1.77811e-06 1.18883e-05 -0.00150168
0.00085366 -0.000457974 5.81128e-06
-0.000457974 0.000115874 6.19693e-07
5.81128e-06 6.19693e-07 -0.000148024
0.00221446 -0.000712053 9.12316e-06
-0.000712053 0.000544538 -9.15151e-07
9.12316e-06 -9.15151e-07 0.000233123
0.00337578 -0.000729318 -2.44273e-05
-0.000729318 0.00144872 7.05878e-06
-2.44273e-05 7.05878e-06 0.000978113
0.00144771 -0.000582668 -1.16185e-06
-0.000582668 0.000295034 -1.93492e-06
-1.16185e-06 -1.93492e-06 -0.00019335
0.00177874 -0.000718043 5.71383e-06
-0.000718043 0.000251063 -9.44792e-06
5.71383e-06 -9.44792e-06 -0.000143585
0.00271502 -0.00071038 -4.26989e-06
-0.00071038 0.000962891 2.32317e-06
-4.26989e-06 2.32317e-06 0.000487356
0.00191332 -0.000660789 3.09009e-07
-0.000660789 0.000463624 -4.75746e-06
3.09009e-07 -4.75746e-06 1.49608e-05
0.00241842 -0.000650131 2.59286e-06
-0.000650131 0.000551644 -8.46761e-06
2.59286e-06 -8.46761e-06 0.00022426
0.00167617 -0.000450474 -4.15552e-06
-0.000450474 4.11996e-05 -3.30703e-06
-4.15552e-06 -3.30703e-06 -0.000190517
0.00174604 -0.000599463 9.60082e-07
-0.000599463 0.000186953 -1.09937e-06
9.60082e-07 -1.09937e-06 -0.000144924
0.00194806 -0.000599221 2.47209e-06
-0.000599221 0.000340212 -2.90677e-06
2.47209e-06 -2.90677e-06 8.07335e-06
0.00196324 -0.000580469 6.3375e-07
-0.000580469 0.000519856 -2.00554e-07
6.3375e-07 -2.00554e-07 0.000177834
0.00205508 -0.000664249 -2.21137e-06
-0.000664249 0.000521067 1.26587e-07
-2.21137e-06 1.26587e-07 0.000137077
0.00215646 -0.000682197 8.82801e-07
-0.000682197 0.000577586 -2.98297e-06
8.82801e-07 -2.98297e-06 0.000161335
0.00186685 -0.000430023 4.08882e-06
-0.000430023 0.000625988 2.94148e-06
4.08882e-06 2.94148e-06 0.000342735
0.00125335 -0.000430366 1.50128e-06
-0.000430366 0.000231549 1.00154e-06
1.50128e-06 1.00154e-06 -6.90782e-05
0.00102901 -0.00043003 3.38993e-06
-0.00043003 5.93526e-05 2.98135e-07
3.38993e-06 2.98135e-07 -0.000255921
0.00116893 -0.000302371 -1.06101e-06
-0.000302371 0.000350141 4.95555e-07
-1.06101e-06 4.95555e-07 0.000103689
0.00104586 -0.000295148 -4.91056e-07
-0.000295148 0.000187251 -9.41639e-07
-4.91056e-07 -9.41639e-07 -5.31337e-05
0.000995928 -0.000323319 -3.95949e-06
-0.000323319 0.000109572 -3.89111e-06
-3.95949e-06 -3.89111e-06 -0.000150429
-0.000127398 -4.27012e-05 -1.17218e-06
-4.27012e-05 -0.000379971 5.26486e-06
-1.17218e-06 5.26486e-06 -0.00053769
0.000755469 -0.000170112 2.39567e-06
-0.000170112 0.000212033 1.86577e-07
2.39567e-06 1.86577e-07 -4.37033e-05
0.00134575 -0.000243314 -1.80413e-06
-0.000243314 0.000512311 2.21426e-06
-1.80413e-06 2.21426e-06 0.000263834
0.00165879 6.1706e-05 -2.94826e-05
6.1706e-05 0.000706015 6.63886e-06
-2.94826e-05 6.63886e-06 0.000664314
0.000709088 -5.62236e-05 4.90496e-07
-5.62236e-05 0.000110377 -5.73901e-07
4.90496e-07 -5.73901e-07 -3.67826e-06
0.00148895 -0.000104274 -3.33934e-06
-0.000104274 0.000649255 -2.07239e-06
-3.33934e-06 -2.07239e-06 0.000442597
0.000773218 4.69996e-05 -3.91712e-05
4.69996e-05 0.000154761 4.69582e-06
-3.91712e-05 4.69582e-06 0.000148357
0.00103645 4.06239e-05 -1.25291e-05
4.06239e-05 0.000315094 -4.79875e-07
-1.25291e-05 -4.79875e-07 0.000279084
0.000626688 -2.72498e-05 1.23841e-06
-2.72498e-05 6.06697e-05 -4.49764e-06
1.23841e-06 -4.49764e-06 -3.38572e-05
0.000534874 2.93338e-05 1.43108e-06
2.93338e-05 -8.35704e-08 -7.12102e-06
1.43108e-06 -7.12102e-06 -3.33357e-05
0.00273322 0.000117279 6.3864e-06
0.000117279 0.00136447 5.90127e-07
6.3864e-06 5.90127e-07 0.00136492
0.00260288 9.94729e-05 2.81843e-05
9.94729e-05 0.00127644 -4.42677e-06
2.81843e-05 -4.42677e-06 0.00128091
0.00110491 0.00012199 5.64372e-06
0.00012199 0.000407788 3.14681e-06
5.64372e-06 3.14681e-06 0.000249128
0.0010678 0.00012873 2.49255e-06
0.00012873 0.000395894 -2.38313e-06
2.49255e-06 -2.38313e-06 0.000233213
0.000382414 6.6999e-05 -5.89851e-07
6.6999e-05 -4.08034e-05 1.27935e-06
-5.89851e-07 1.27935e-06 -0.000184978
0.000635125 2.31488e-05 1.71842e-06
2.31488e-05 6.88748e-05 -4.2839e-06
1.71842e-06 -4.2839e-06 -1.79256e-05
0.000777005 9.07571e-05 6.10932e-07
9.07571e-05 0.000192698 -1.77403e-08
6.10932e-07 -1.77403e-08 5.90607e-05
0.000491305 -3.87268e-06 -9.98123e-07
-3.87268e-06 -3.73869e-05 -6.74752e-06
-9.98123e-07 -6.74752e-06 -6.30308e-05
0.000564121 3.24162e-05 -7.09641e-08
3.24162e-05 2.72727e-05 -2.90555e-07
-7.09641e-08 -2.90555e-07 -5.0901e-05
0.000705622 6.65185e-05 -2.21443e-06
6.65185e-05 0.000161044 1.03053e-06
-2.21443e-06 1.03053e-06 2.68331e-05
0.00248352 -6.87467e-05 -3.13172e-05
-6.87467e-05 0.00119231 -4.62662e-06
-3.13172e-05 -4.62662e-06 0.00120344
0.000483894 -7.84533e-06 -7.80313e-07
-7.84533e-06 -4.66279e-05 -8.98417e-08
-7.80313e-07 -8.98417e-08 -6.74029e-05
0.000569975 4.59396e-05 -2.78685e-07
4.59396e-05 3.12258e-05 2.86799e-06
-2.78685e-07 2.86799e-06 -3.89799e-05
0.00231147 -5.15618e-05 -5.29152e-06
-5.15618e-05 0.0010822 3.11127e-07
-5.29152e-06 3.11127e-07 0.00109634
0.000485434 -1.34863e-05 -2.74306e-06
-1.34863e-05 -4.77131e-05 4.64691e-06
-2.74306e-06 4.64691e-06 -6.39721e-05
0.0021858 -3.41418e-05 1.8869e-05
-3.41418e-05 0.00100261 4.56865e-06
1.8869e-05 4.56865e-06 0.00101921
0.00602294 0.000354634 0.000214841
0.000354634 0.00295971 4.06644e-05
0.000214841 4.06644e-05 0.00127156
-0.00116442 -8.50944e-06 -9.09034e-07
-8.50944e-06 -0.000111943 -3.87403e-06
-9.09034e-07 -3.87403e-06 -0.000155087
0.000931485 -4.85482e-05 -2.33136e-05
-4.85482e-05 -0.000298104 5.7314e-07
-2.33136e-05 5.7314e-07 -2.21587e-05
-0.000206553 8.9711e-05 -6.80825e-06
8.9711e-05 -0.000429139 -1.8837e-06
-6.80825e-06 -1.8837e-06 -0.000557839
0.000692079 7.85245e-05 -4.00822e-06
7.85245e-05 0.000136601 -1.28318e-06
-4.00822e-06 -1.28318e-06 -1.18531e-06
0.000191844 5.97167e-05 4.70794e-07
5.97167e-05 -0.000210195 -2.726e-06
4.70794e-07 -2.726e-06 -0.000339066
0.000952392 5.9418e-05 5.03653e-07
5.9418e-05 0.000268882 -3.94763e-07
5.03653e-07 -3.94763e-07 0.000133613
0.000336833 8.77785e-05 -1.52904e-06
8.77785e-05 -0.000118298 -1.91916e-07
-1.52904e-06 -1.91916e-07 -0.000236614
0.00175463 0.000239468 2.7468e-07
0.000239468 0.000792327 -2.65728e-06
2.7468e-07 -2.65728e-06 0.000622855
0.00106033 0.000192792 -3.82315e-06
0.000192792 0.000339464 -1.29542e-05
-3.82315e-06 -1.29542e-05 0.000111757
-0.00039792 4.77202e-05 2.43495e-06
4.77202e-05 -0.000393207 3.70969e-06
2.43495e-06 3.70969e-06 -0.000610729
0.000780778 0.000133008 -3.31385e-06
0.000133008 0.000190971 -1.68115e-06
-3.31385e-06 -1.68115e-06 5.73552e-05
0.000213425 4.25318e-05 -4.85033e-06
4.25318e-05 -0.000185515 -4.15141e-06
-4.85033e-06 -4.15141e-06 -0.000283657
0.000248201 5.2679e-05 1.48173e-07
5.2679e-05 -6.09111e-05 1.00062e-06
1.48173e-07 1.00062e-06 -0.000221885
0.0010395 0.000210475 1.39521e-05
0.000210475 0.000530024 4.8253e-06
1.39521e-05 4.8253e-06 0.000273354
0.00158179 -0.00180385 0.000144337
-0.00180385 0.00414842 0.000244487
0.000144337 0.000244487 0.000180535
0.00498279 0.000762772 6.76253e-05
0.000762772 0.00267949 0.00013771
6.76253e-05 0.00013771 -0.00176519
0.00183845 0.000268862 -2.77632e-05
0.000268862 0.000291398 -7.11936e-05
-2.77632e-05 -7.11936e-05 -0.00140017
0.0171747 -0.0036626 -0.000479873
-0.0036626 0.00389587 -0.00029114
-0.000479873 -0.00029114 0.00337307
0.00632621 -0.00133162 0.000177339
-0.00133162 0.00269493 0.000384738
0.000177339 0.000384738 0.000173403
0.00272015 -0.0011677 -0.000163622
-0.0011677 0.00381914 8.49358e-05
-0.000163622 8.49358e-05 -0.00221024
0.000891783 -0.000563143 5.23946e-05
-0.000563143 0.00117487 2.71476e-05
5.23946e-05 2.71476e-05 0.000420945
0.00114089 -0.000118677 1.76393e-05
-0.000118677 0.00098411 5.41806e-05
1.76393e-05 5.41806e-05 0.000621299
0.00727755 -0.00553992 0.000301601
-0.00553992 0.00268836 0.000292645
0.000301601 0.000292645 0.00215068
0.00301512 0.00129236 -5.89969e-05
0.00129236 0.00384746 -5.87696e-05
-5.89969e-05 -5.87696e-05 -0.00177155
0.00558342 -0.00261161 -8.85175e-05
-0.00261161 0.00129885 7.9109e-05
-8.85175e-05 7.9109e-05 -0.00140781
0.000418187 0.000484179 -2.39445e-05
0.000484179 0.00064348 5.98211e-05
-2.39445e-05 5.98211e-05 0.000471838
0.0104647 0.00247548 -8.76831e-05
0.00247548 0.00408696 1.29607e-06
-8.76831e-05 1.29607e-06 0.000589233
0.00972846 -0.00457108 -0.000581374
-0.00457108 0.00219207 -0.000404964
-0.000581374 -0.000404964 0.000542598
4.68079e-05 0.000373742 3.16608e-06
0.000373742 -0.000320341 -5.24528e-06
3.16608e-06 -5.24528e-06 -0.000476839
0.000446896 0.000106353 6.33531e-06
0.000106353 0.000136342 2.04042e-06
6.33531e-06 2.04042e-06 -3.51356e-05
7.78122e-05 4.5658e-05 -6.57373e-06
4.5658e-05 -0.000103138 -3.97631e-06
-6.57373e-06 -3.97631e-06 -0.000285386
-0.00267461 -0.000280548 -9.4314e-05
-0.000280548 0.000117835 -5.44813e-05
-9.4314e-05 -5.44813e-05 -0.00142336
-0.000829224 0.000175866 8.57062e-06
0.000175866 -0.000224171 -1.62624e-05
8.57062e-06 -1.62624e-05 -0.000668614
0.000458017 0.00010737 -8.60222e-06
0.00010737 0.000282232 1.95669e-06
-8.60222e-06 1.95669e-06 4.10509e-05
0.000821944 0.000477519 1.4683e-05
0.000477519 0.000445262 3.49637e-06
1.4683e-05 3.49637e-06 9.99115e-05
-0.000306158 0.000327189 4.74397e-05
0.000327189 0.000483402 -2.75104e-05
4.74397e-05 -2.75104e-05 -0.000480328
0.000300268 0.000871135 4.26556e-05
0.000871135 -0.00021852 3.85872e-06
4.26556e-05 3.85872e-06 -0.000812832
-0.00427505 0.000785515 0.000251118
0.000785515 0.00456654 1.21034e-05
0.000251118 1.21034e-05 -0.000419057
0.00225287 -3.48282e-05 -5.58574e-06
-3.48282e-05 0.0017445 4.70402e-05
-5.58574e-06 4.70402e-05 -0.000564033
-0.00153197 -3.98835e-05 -6.84263e-06
-3.98835e-05 0.000332175 3.08022e-05
-6.84263e-06 3.08022e-05 -8.7849e-05
-0.000209232 -0.000192743 -5.81883e-05
-0.000192743 0.00059729 1.22417e-05
-5.81883e-05 1.22417e-05 -0.000265908
-0.00115318 -0.000254783 -5.78413e-05
-0.000254783 -0.000723342 3.68153e-05
-5.78413e-05 3.68153e-05 -0.000417577
0.000295481 -0.000250743 -0.00013854
-0.000250743 0.00032393 7.46986e-05
-0.00013854 7.46986e-05 -0.00256311
-0.00111449 -0.00253535 0.000167272
-0.00253535 0.00130859 -9.91367e-05
0.000167272 -9.91367e-05 -0.00362424
0.00301803 0.00368885 0.000445107
0.00368885 -0.00204965 -0.000347937
0.000445107 -0.000347937 -0.00330055
0.00606219 0.00186662 -0.000331251
0.00186662 0.00564891 0.000226906
-0.000331251 0.000226906 0.0030272
0.00132402 -0.000535145 -5.86368e-06
-0.000535145 0.000944289 -3.28968e-06
-5.86368e-06 -3.28968e-06 0.000517565
0.00137043 0.000323097 7.37134e-05
0.000323097 0.00555013 -5.45664e-06
7.37134e-05 -5.45664e-06 0.00282499
-0.00120345 0.00258515 1.58903e-05
0.00258515 6.20487e-05 4.47921e-05
1.58903e-05 4.47921e-05 -0.00248061
0.00260788 -0.00176646 7.73451e-05
-0.00176646 0.000794064 -2.81142e-05
7.73451e-05 -2.81142e-05 0.000711773
0.0160567 -0.00227981 2.57917e-05
-0.00227981 0.00415024 -1.15215e-05
2.57917e-05 -1.15215e-05 0.00224742
0.00305954 -0.00113711 -6.95886e-06
-0.00113711 0.00111976 2.36111e-05
-6.95886e-06 2.36111e-05 0.000974002
-0.0090962 0.000824626 -0.000368544
0.000824626 -0.00344404 3.73135e-05
-0.000368544 3.73135e-05 -0.00527722
0.0148502 -0.00146039 -0.000171909
-0.00146039 0.0026387 5.96446e-05
-0.000171909 5.96446e-05 0.00110838
0.00353958 -0.00203017 7.26057e-05
-0.00203017 -0.000193269 -5.76782e-05
7.26057e-05 -5.76782e-05 -0.000196125
-7.78959e-06 -0.000361357 -1.38053e-05
-0.000361357 5.25292e-05 1.54296e-05
-1.38053e-05 1.54296e-05 -0.000250988
0.00103377 -0.000583083 -3.33319e-06
-0.000583083 0.000166301 5.19245e-07
-3.33319e-06 5.19245e-07 1.84838e-05
0.00478258 -0.000809937 2.15817e-05
-0.000809937 0.00196778 -4.43709e-06
2.15817e-05 -4.43709e-06 0.00167959
-0.0007866 -0.000275452 -1.05515e-05
-0.000275452 -0.000720846 5.71905e-06
-1.05515e-05 5.71905e-06 -0.000979537
0.00139964 -0.000624923 -6.35351e-06
-0.000624923 0.000148234 -3.26917e-06
-6.35351e-06 -3.26917e-06 -0.000180773
0.0025767 -0.000808046 6.47743e-06
-0.000808046 0.000547404 -7.53771e-06
6.47743e-06 -7.53771e-06 0.00022667
0.00121207 -0.000542074 -1.59126e-05
-0.000542074 0.000146429 2.69351e-06
-1.59126e-05 2.69351e-06 -0.0003202
0.00173579 -0.000698135 -9.98692e-07
-0.000698135 0.000240894 -3.396e-07
-9.98692e-07 -3.396e-07 -0.000157226
0.00153776 -0.000579817 3.84591e-06
-0.000579817 -8.89066e-05 -5.23528e-06
3.84591e-06 -5.23528e-06 -0.000339399
0.00139734 -0.000612167 -7.4046e-06
-0.000612167 0.000156687 1.32363e-06
-7.4046e-06 1.32363e-06 -0.000273918
0.00179285 -0.000579864 -5.3917e-07
-0.000579864 0.000212191 1.23536e-06
-5.3917e-07 1.23536e-06 -0.000101111
0.00184531 -0.000454213 -4.43149e-07
-0.000454213 7.48018e-05 -4.53738e-06
-4.43149e-07 -4.53738e-06 -0.000115029
0.00174502 -0.000366509 -5.16517e-06
-0.000366509 5.77157e-05 -1.58475e-06
-5.16517e-06 -1.58475e-06 -0.000100565
0.00159307 -0.00045167 -4.78323e-06
-0.00045167 1.02602e-05 -2.00909e-06
-4.78323e-06 -2.00909e-06 -0.000229529
0.00170114 -0.000444523 1.23367e-06
-0.000444523 6.26005e-05 2.42049e-06
1.23367e-06 2.42049e-06 -0.000164216
0.00154761 -0.000516471 -3.3552e-06
-0.000516471 0.000124955 -1.77068e-06
-3.3552e-06 -1.77068e-06 -0.000177104
0.00189908 -0.000604877 2.26568e-06
-0.000604877 0.000290654 -5.0294e-07
2.26568e-06 -5.0294e-07 -3.771e-05
0.00193237 -0.000595937 1.71734e-06
-0.000595937 0.000329251 9.8909e-07
1.71734e-06 9.8909e-07 3.88375e-07
0.00148285 -0.00046673 -1.98928e-06
-0.00046673 0.000287469 1.09161e-06
-1.98928e-06 1.09161e-06 -2.3145e-05
0.00182355 -0.000570252 6.58403e-07
-0.000570252 0.000436493 -1.72547e-07
6.58403e-07 -1.72547e-07 9.46533e-05
0.00199805 -0.000656625 -3.55396e-06
-0.000656625 0.000501857 -8.62784e-07
-3.55396e-06 -8.62784e-07 0.00011408
0.00124277 -0.000299928 -3.57271e-06
-0.000299928 0.000268742 7.42781e-07
-3.57271e-06 7.42781e-07 4.05339e-05
0.00132122 -0.00037647 1.98548e-06
-0.00037647 0.000284599 4.78796e-07
1.98548e-06 4.78796e-07 1.23852e-05
0.00049535 -0.000345723 -4.83127e-07
-0.000345723 -0.000213397 -1.26908e-06
-4.83127e-07 -1.26908e-06 -0.000493787
0.000532931 -0.00016108 -3.10173e-06
-0.00016108 1.90383e-06 3.38523e-06
-3.10173e-06 3.38523e-06 -0.000199386
0.00112364 -0.000298836 -1.9576e-07
-0.000298836 0.000310142 5.01856e-07
-1.9576e-07 5.01856e-07 7.02388e-05
0.000424772 -0.000230909 -5.64917e-06
-0.000230909 -0.000184924 -1.18367e-06
-5.64917e-06 -1.18367e-06 -0.000414176
0.000468545 -3.04618e-06 -5.16281e-06
-3.04618e-06 -2.89574e-05 1.11244e-05
-5.16281e-06 1.11244e-05 -8.74101e-05
0.000748233 -0.0001127 1.0128e-07
-0.0001127 0.000156465 2.21309e-07
1.0128e-07 2.21309e-07 -1.60339e-05
0.00106023 -0.000178899 9.32958e-07
-0.000178899 0.000391414 -8.24915e-07
9.32958e-07 -8.24915e-07 0.000138377
0.00311951 0.000183302 -1.77088e-06
0.000183302 0.00162867 3.44216e-06
-1.77088e-06 3.44216e-06 0.00160855
0.000428202 1.31531e-05 -8.11243e-08
1.31531e-05 -5.99948e-05 -1.07479e-07
-8.11243e-08 -1.07479e-07 -0.000106905
0.000915207 -8.60727e-05 2.80238e-06
-8.60727e-05 0.00023654 -5.76898e-06
2.80238e-06 -5.76898e-06 0.000115154
0.00291897 0.000134084 6.13589e-06
0.000134084 0.00148652 4.85701e-07
6.13589e-06 4.85701e-07 0.00148313
0.000548429 2.13166e-05 2.22912e-06
2.13166e-05 1.19558e-05 -8.12052e-06
2.22912e-06 -8.12052e-06 -2.66684e-05
0.00278602 0.000117733 3.87902e-05
0.000117733 0.00139732 -3.84232e-06
3.87902e-05 -3.84232e-06 0.00139783
0.0013553 0.000205816 5.94758e-06
0.000205816 0.000524018 4.86231e-06
5.94758e-06 4.86231e-06 0.000346391
0.000765477 0.000116035 5.93017e-07
0.000116035 0.000208255 -3.31963e-07
5.93017e-07 -3.31963e-07 4.43832e-05
0.00110135 0.000106436 1.23552e-06
0.000106436 0.000429498 -3.92436e-06
1.23552e-06 -3.92436e-06 0.000244225
0.000669693 2.95536e-05 1.38192e-06
2.95536e-05 9.93216e-05 -5.77779e-06
1.38192e-06 -5.77779e-06 -7.25271e-07
0.000700949 7.24336e-05 -2.36495e-08
7.24336e-05 0.000156322 6.77184e-07
-2.36495e-08 6.77184e-07 6.29287e-06
0.0004268 8.83185e-05 -2.79314e-07
8.83185e-05 -8.07814e-06 2.11407e-06
-2.79314e-07 2.11407e-06 -0.000158261
0.000513832 -6.39456e-06 -1.72981e-06
-6.39456e-06 -1.93372e-05 -7.89409e-06
-1.72981e-06 -7.89409e-06 -5.00277e-05
0.000593742 2.95401e-05 -5.91638e-08
2.95401e-05 4.83014e-05 -2.34957e-07
-5.91638e-08 -2.34957e-07 -4.00288e-05
0.000525338 7.5865e-05 -2.3906e-06
7.5865e-05 3.04391e-05 1.09509e-06
-2.3906e-06 1.09509e-06 -9.3388e-05
0.00262914 -8.47286e-05 -3.97938e-05
-8.47286e-05 0.00128746 -4.31778e-06
-3.97938e-05 -4.31778e-06 0.00129574
0.000460267 -1.94237e-05 1.74393e-06
-1.94237e-05 -5.59495e-05 -1.24309e-07
1.74393e-06 -1.24309e-07 -8.18274e-05
0.000551636 3.66799e-05 -1.23286e-06
3.66799e-05 2.06308e-05 3.26762e-06
-1.23286e-06 3.26762e-06 -5.79715e-05
0.00246211 -6.83672e-05 -5.6873e-06
-6.83672e-05 0.00117876 3.95127e-07
-5.6873e-06 3.95127e-07 0.00118997
0.000478456 -1.38487e-05 -2.0729e-06
-1.38487e-05 -4.96763e-05 5.59441e-06
-2.0729e-06 5.59441e-06 -7.03792e-05
0.00229842 -5.06918e-05 2.23052e-05
-5.06918e-05 0.00107401 4.5435e-06
2.23052e-05 4.5435e-06 0.00108835
-0.00889927 0.000773085 -5.23012e-05
0.000773085 0.00268715 7.56631e-05
-5.23012e-05 7.56631e-05 -0.00212717
0.00570089 0.000207785 -6.21962e-06
0.000207785 0.00302603 -2.7576e-06
-6.21962e-06 -2.7576e-06 0.00140811
-0.000963587 -3.52029e-05 8.29069e-06
-3.52029e-05 -0.000128231 -1.65007e-06
8.29069e-06 -1.65007e-06 -0.000307852
-3.22505e-05 7.57499e-05 -2.54812e-06
7.57499e-05 -0.000319633 2.49634e-06
-2.54812e-06 2.49634e-06 -0.0004545
0.0034215 0.000548622 6.33068e-06
0.000548622 0.00174175 8.65373e-06
6.33068e-06 8.65373e-06 0.00146184
0.00122146 0.000122085 -5.65363e-06
0.000122085 0.000469993 -4.40322e-07
-5.65363e-06 -4.40322e-07 0.000279177
0.00073293 6.34142e-05 -4.67635e-06
6.34142e-05 0.000131472 -8.01691e-06
-4.67635e-06 -8.01691e-06 -4.54582e-06
0.00187556 0.000201252 2.63407e-06
0.000201252 0.00080204 -9.44998e-07
2.63407e-06 -9.44998e-07 0.000670612
-0.000159538 5.8597e-05 -6.67138e-06
5.8597e-05 -0.000379627 3.39012e-06
-6.67138e-06 3.39012e-06 -0.000501958
0.000335822 7.21975e-05 -1.30846e-06
7.21975e-05 1.93109e-05 3.76615e-06
-1.30846e-06 3.76615e-06 -0.000190391
0.000504166 0.000130064 -3.56761e-06
0.000130064 3.03743e-05 -4.5773e-06
-3.56761e-06 -4.5773e-06 -0.000191538
0.00149557 0.000304217 7.2915e-06
0.000304217 0.000674692 -1.61303e-05
7.2915e-06 -1.61303e-05 0.000360534
0.000455359 0.000378436 -8.58365e-06
0.000378436 -8.838e-05 2.22844e-05
-8.58365e-06 2.22844e-05 -0.000239856
0.00128418 6.62783e-05 -6.53163e-06
6.62783e-05 0.000556983 6.34765e-06
-6.53163e-06 6.34765e-06 0.000390872
0.00109101 0.000186155 2.37018e-06
0.000186155 0.000570931 -2.58575e-06
2.37018e-06 -2.58575e-06 0.000318471
-0.00263914 -0.00157751 -0.00094855
-0.00157751 0.000439674 -0.000157198
-0.00094855 -0.000157198 -0.00215884
-0.00351723 -0.00132675 0.000341877
-0.00132675 0.00360628 0.000159067
0.000341877 0.000159067 -0.00064337
0.00558427 0.000919698 -0.000337536
0.000919698 0.0025978 -0.000122685
-0.000337536 -0.000122685 -0.00211338
-0.00267326 -0.00577256 0.00155028
-0.00577256 0.000233774 0.0010825
0.00155028 0.0010825 -0.000763114
0.0201821 -0.00274962 1.83797e-05
-0.00274962 0.0065141 0.000255503
1.83797e-05 0.000255503 0.00480313
-0.00212149 0.00145219 -1.24055e-06
0.00145219 0.00140909 -0.000150101
-1.24055e-06 -0.000150101 -0.00361346
-0.00102398 0.000180147 -0.000305598
0.000180147 0.00022834 -4.41576e-05
-0.000305598 -4.41576e-05 -0.000969252
0.00138498 0.00059282 5.27825e-05
0.00059282 0.00111263 4.2559e-05
5.27825e-05 4.2559e-05 0.000926213
0.0149825 -0.00335258 -0.000405876
-0.00335258 0.00634364 2.8878e-05
-0.000405876 2.8878e-05 0.00448758
-0.00164825 0.00200672 -6.37503e-05
0.00200672 0.000462061 -4.46031e-05
-6.37503e-05 -4.46031e-05 -0.00377962
0.00251539 0.00146419 -2.02208e-05
0.00146419 0.00069786 -6.26118e-05
-2.02208e-05 -6.26118e-05 0.00110647
0.00263804 0.00301977 -0.000267961
0.00301977 -0.00139335 -0.000118898
-0.000267961 -0.000118898 -0.00409579
0.00298964 0.000944792 1.82913e-05
0.000944792 0.00102446 -1.26329e-05
1.82913e-05 -1.26329e-05 0.000717431
0.00106606 0.000450482 -5.89322e-06
0.000450482 0.00031718 -5.84181e-07
-5.89322e-06 -5.84181e-07 0.000148479
0.000764812 0.000158461 -6.70104e-06
0.000158461 0.000325331 -8.15989e-07
-6.70104e-06 -8.15989e-07 0.000147662
-0.00180518 0.000207835 -6.34165e-05
0.000207835 -0.00036028 -5.94398e-05
-6.34165e-05 -5.94398e-05 -0.00119912
0.00229952 0.000667548 -3.06153e-05
0.000667548 0.00118713 -1.96513e-05
-3.06153e-05 -1.96513e-05 0.000825788
0.0014853 0.00101011 1.44222e-05
0.00101011 0.000303666 -6.02433e-06
1.44222e-05 -6.02433e-06 -0.000282385
0.000420412 0.00123898 0.000101165
0.00123898 -0.00101368 3.80447e-05
0.000101165 3.80447e-05 -0.00126124
-0.00559908 -0.000266746 -0.000419396
-0.000266746 -0.00460479 2.09107e-05
-0.000419396 2.09107e-05 -0.00348823
-0.00642278 0.000374648 0.000256109
0.000374648 0.0044389 9.87623e-06
0.000256109 9.87623e-06 -0.000422668
0.00285131 -0.000107191 -9.57328e-05
-0.000107191 0.00191887 3.32041e-05
-9.57328e-05 3.32041e-05 0.000345293
0.00197596 -0.00063427 -3.74752e-05
-0.00063427 0.000948765 -4.91759e-05
-3.74752e-05 -4.91759e-05 0.00053688
0.000368106 -0.00150515 -1.74834e-05
-0.00150515 -0.00047206 4.27239e-05
-1.74834e-05 4.27239e-05 -0.000421857
0.00075648 0.000348383 -3.05223e-06
0.000348383 0.00529101 2.96913e-05
-3.05223e-06 2.96913e-05 0.0026085
0.0013878 -0.00205995 0.000317935
-0.00205995 -0.00130859 -0.000134118
0.000317935 -0.000134118 -0.00398877
0.0161782 0.00233897 0.000465713
0.00233897 0.0072105 -6.7026e-05
0.000465713 -6.7026e-05 0.00535376
0.00213926 -0.00124293 -2.25544e-05
-0.00124293 0.000542451 7.14368e-06
-2.25544e-05 7.14368e-06 0.000137369
0.000813533 0.000947714 0.000173172
0.000947714 -4.8568e-05 -4.89206e-05
0.000173172 -4.89206e-05 -0.00128794
0.00765352 -0.0013059 -0.000110048
-0.0013059 -0.000950697 0.000101924
-0.000110048 0.000101924 -0.00324211
0.00500034 -0.00213951 -2.26862e-05
-0.00213951 0.000432386 2.34464e-05
-2.26862e-05 2.34464e-05 0.000418409
0.00277309 -0.00102149 7.72006e-05
-0.00102149 0.000525851 -1.04014e-05
7.72006e-05 -1.04014e-05 0.00036191
0.0136721 -0.000678235 -9.71355e-06
-0.000678235 0.00294915 3.5698e-06
-9.71355e-06 3.5698e-06 0.00146937
0.00220857 -0.00122263 9.92961e-05
-0.00122263 -0.00234843 -7.78037e-05
9.92961e-05 -7.78037e-05 -0.00167094
-0.000487381 -0.000463404 -3.22991e-05
-0.000463404 -0.000753196 1.81544e-05
-3.22991e-05 1.81544e-05 -0.000785477
0.000202554 -0.000437666 -2.47596e-05
-0.000437666 -0.000557161 1.31635e-06
-2.47596e-05 1.31635e-06 -0.000662351
0.00482881 -0.000862006 5.37709e-05
-0.000862006 0.00161886 -2.10226e-05
5.37709e-05 -2.10226e-05 0.00148681
0.000512235 -0.000526031 -2.08782e-05
-0.000526031 -0.000296768 -5.21776e-06
-2.08782e-05 -5.21776e-06 -0.000631381
0.00195781 -0.000735962 -7.057e-07
-0.000735962 0.000229352 -2.03887e-06
-7.057e-07 -2.03887e-06 -7.23252e-05
0.00255614 -0.000680927 2.81134e-06
-0.000680927 0.000294906 -3.85706e-06
2.81134e-06 -3.85706e-06 0.000118813
0.00190543 -0.000700871 -6.18498e-06
-0.000700871 0.000339146 5.65097e-06
-6.18498e-06 5.65097e-06 -6.43321e-05
0.00195884 -0.000616367 -6.26881e-07
-0.000616367 0.000137255 1.54089e-06
-6.26881e-07 1.54089e-06 -0.000118175
0.00200971 -0.000469548 2.12676e-06
-0.000469548 5.97151e-05 -2.5346e-07
2.12676e-06 -2.5346e-07 -7.53921e-05
0.00122459 -0.000514947 3.09466e-06
-0.000514947 -9.69975e-05 6.69484e-06
3.09466e-06 6.69484e-06 -0.000396998
0.00184566 -0.000447396 -5.2381e-07
-0.000447396 7.99483e-05 1.65865e-06
-5.2381e-07 1.65865e-06 -0.000107335
0.0018819 -0.000397694 -2.51697e-06
-0.000397694 6.22298e-05 5.39644e-07
-2.51697e-06 5.39644e-07 -7.04063e-05
0.00206643 -0.000381225 -4.45642e-06
-0.000381225 0.000253912 6.57148e-07
-4.45642e-06 6.57148e-07 0.000118524
0.00184536 -0.00037167 -2.80559e-06
-0.00037167 0.000111015 3.33225e-06
-2.80559e-06 3.33225e-06 -4.35255e-05
0.00190097 -0.000390412 -2.6681e-06
-0.000390412 0.000180479 -4.56841e-06
-2.6681e-06 -4.56841e-06 6.77022e-06
0.00184034 -0.000467881 -5.23706e-06
-0.000467881 0.000189755 -2.17116e-06
-5.23706e-06 -2.17116e-06 -5.59632e-05
0.00179586 -0.000467681 1.56488e-06
-0.000467681 0.000135058 6.7227e-07
1.56488e-06 6.7227e-07 -0.000106064
0.00173113 -0.000439149 5.36742e-06
-0.000439149 8.57226e-05 7.05754e-06
5.36742e-06 7.05754e-06 -0.000136355
0.0016912 -0.000492337 -6.55459e-06
-0.000492337 0.000279067 -7.90265e-07
-6.55459e-06 -7.90265e-07 -1.84228e-05
0.00157749 -0.000524054 -6.44016e-07
-0.000524054 0.000131565 1.86109e-07
-6.44016e-07 1.86109e-07 -0.00017315
0.00202943 -0.00060953 4.25895e-06
-0.00060953 0.00037968 3.12603e-07
4.25895e-06 3.12603e-07 5.47104e-05
0.00140707 -0.000345912 -6.82872e-06
-0.000345912 0.000313489 5.18499e-06
-6.82872e-06 5.18499e-06 5.93984e-05
0.00152563 -0.000467684 1.09741e-07
-0.000467684 0.000315569 1.05445e-06
1.09741e-07 1.05445e-06 5.98612e-06
0.0016351 -0.000555671 1.18645e-06
-0.000555671 0.000321629 1.75319e-07
1.18645e-06 1.75319e-07 -1.87636e-05
0.000807605 -0.000207431 -6.51896e-06
-0.000207431 9.87048e-05 5.07779e-06
-6.51896e-06 5.07779e-06 -9.55287e-05
0.0010783 -0.000288596 1.26711e-07
-0.000288596 0.000167265 -9.52268e-07
1.26711e-07 -9.52268e-07 -6.15608e-05
0.000857077 -0.000331032 7.44739e-07
-0.000331032 -7.58376e-06 -1.56835e-06
7.44739e-07 -1.56835e-06 -0.000270475
0.000421828 -8.29836e-05 -1.55269e-05
-8.29836e-05 -8.24732e-05 1.37508e-05
-1.55269e-05 1.37508e-05 -0.000155239
0.000668662 -0.000159372 4.49011e-07
-0.000159372 9.34266e-05 9.77526e-07
4.49011e-07 9.77526e-07 -0.000113785
0.00095058 -0.000307236 1.88819e-06
-0.000307236 0.000193285 -1.92266e-07
1.88819e-06 -1.92266e-07 -4.41649e-05
0.00355536 0.000177355 -6.99115e-05
0.000177355 0.00190206 3.87864e-06
-6.99115e-05 3.87864e-06 0.00188539
0.000506636 -2.26138e-05 7.00055e-07
-2.26138e-05 -1.28358e-05 -5.18749e-07
7.00055e-07 -5.18749e-07 -7.30609e-05
0.00151922 -0.00016131 2.14286e-06
-0.00016131 0.000628223 -6.10728e-06
2.14286e-06 -6.10728e-06 0.000443876
0.00206688 0.000115445 3.74492e-05
0.000115445 0.000969666 1.0732e-06
3.74492e-05 1.0732e-06 0.000955448
0.000605859 7.78379e-06 5.20141e-06
7.78379e-06 4.55072e-05 -9.98698e-06
5.20141e-06 -9.98698e-06 -1.25779e-06
0.00300319 0.000128364 5.77149e-05
0.000128364 0.00153784 -3.55771e-06
5.77149e-05 -3.55771e-06 0.00153589
0.00118593 0.000234235 6.43134e-06
0.000234235 0.000348624 1.08149e-06
6.43134e-06 1.08149e-06 0.000170008
0.000499387 0.000107948 -1.05588e-06
0.000107948 -7.61237e-06 -4.00567e-07
-1.05588e-06 -4.00567e-07 -0.000160833
0.0005986 0.000120914 1.17238e-06
0.000120914 8.58754e-05 -2.74263e-06
1.17238e-06 -2.74263e-06 -8.53329e-05
0.000658339 0.000114608 -1.51819e-06
0.000114608 0.000141853 6.22064e-07
-1.51819e-06 6.22064e-07 -2.34453e-05
0.000637088 7.75008e-05 3.73703e-07
7.75008e-05 0.000116489 3.97476e-07
3.73703e-07 3.97476e-07 -4.5835e-05
0.000755496 5.75865e-05 -2.09284e-07
5.75865e-05 0.000149328 -6.78722e-06
-2.09284e-07 -6.78722e-06 3.40267e-05
0.000569455 5.69988e-06 -3.37578e-06
5.69988e-06 2.16466e-05 -9.73648e-06
-3.37578e-06 -9.73648e-06 -1.68175e-05
0.000619027 2.73156e-05 4.82195e-07
2.73156e-05 7.23128e-05 -1.51521e-07
4.82195e-07 -1.51521e-07 -2.92989e-05
0.000371217 3.9524e-05 -2.96981e-06
3.9524e-05 -7.22198e-05 2.70743e-06
-2.96981e-06 2.70743e-06 -0.000201673
0.00274778 -9.83228e-05 -5.18711e-05
-9.83228e-05 0.0013672 -4.17398e-06
-5.18711e-05 -4.17398e-06 0.00137295
0.000467041 -3.17649e-06 6.46325e-07
-3.17649e-06 -4.54212e-05 -1.94529e-07
6.46325e-07 -1.94529e-07 -7.65459e-05
0.000547653 2.96742e-05 -1.66242e-06
2.96742e-05 2.62988e-05 4.15124e-06
-1.66242e-06 4.15124e-06 -6.41452e-05
0.00260172 -8.4943e-05 -6.17385e-06
-8.4943e-05 0.00127039 4.67283e-07
-6.17385e-06 4.67283e-07 0.00127846
0.000448613 -2.11432e-05 -1.24582e-07
-2.11432e-05 -6.16412e-05 6.51167e-06
-1.24582e-07 6.51167e-06 -8.80232e-05
0.00245828 -6.77845e-05 2.78897e-05
-6.77845e-05 0.00117606 4.60013e-06
2.78897e-05 4.60013e-06 0.00118733
0.000388668 0.000257431 -0.000524866
0.000257431 0.0029283 -2.4197e-05
-0.000524866 -2.4197e-05 0.00118314
-0.00490701 0.000147606 3.49709e-05
0.000147606 0.00350148 5.87625e-06
3.49709e-05 5.87625e-06 -0.00141635
0.00534341 8.07613e-05 -0.000148053
8.07613e-05 0.00302697 -3.71498e-05
-0.000148053 -3.71498e-05 0.00151078
0.000341894 5.15765e-05 4.46655e-07
5.15765e-05 -9.43053e-05 -5.00523e-06
4.46655e-07 -5.00523e-06 -0.000229685
0.000856572 7.38073e-05 4.96874e-06
7.38073e-05 0.00024402 3.57023e-06
4.96874e-06 3.57023e-06 3.99431e-05
0.00244487 0.000435916 -2.20104e-06
0.000435916 0.00117154 2.9568e-06
-2.20104e-06 2.9568e-06 0.000920802
0.0018528 0.000476996 6.24253e-06
0.000476996 0.000676784 -2.04527e-06
6.24253e-06 -2.04527e-06 0.000341077
0.000411008 0.000231413 -8.06069e-08
0.000231413 2.57618e-05 -2.89973e-06
-8.06069e-08 -2.89973e-06 -0.000232887
0.000496375 0.000106813 -3.70492e-06
0.000106813 0.00011756 5.17055e-06
-3.70492e-06 5.17055e-06 -0.000100967
0.000688285 0.000146522 9.04095e-06
0.000146522 0.00016752 7.6945e-06
9.04095e-06 7.6945e-06 -5.04102e-05
0.000449083 0.000261764 -6.78407e-06
0.000261764 8.68468e-05 -3.35173e-06
-6.78407e-06 -3.35173e-06 -0.000231649
-0.000621203 0.000295375 6.54279e-06
0.000295375 -0.000765272 -4.74448e-06
6.54279e-06 -4.74448e-06 -0.00102541
0.0020023 0.000590624 1.81203e-06
0.000590624 0.000671981 1.50074e-05
1.81203e-06 1.50074e-05 0.000512643
0.00137999 0.000694119 1.96574e-05
0.000694119 2.59639e-05 -4.78308e-06
1.96574e-05 -4.78308e-06 -0.000146975
0.00130704 0.000476744 -8.92551e-06
0.000476744 0.000419594 -1.33005e-06
-8.92551e-06 -1.33005e-06 0.000231483
0.00147764 0.000206472 -7.32557e-06
0.000206472 0.000713619 1.14157e-05
-7.32557e-06 1.14157e-05 0.000493796
0.0133892 0.00173454 -8.59945e-05
0.00173454 0.00232694 6.23573e-05
-8.59945e-05 6.23573e-05 0.000923312
0.000184499 -0.00130542 -0.000385393
-0.00130542 0.0029289 -0.000146187
-0.000385393 -0.000146187 0.000414247
-0.00104196 -0.00214704 0.000415824
-0.00214704 0.00387566 0.000109996
0.000415824 0.000109996 -0.000405146
0.00268037 -0.00199358 0.000170285
-0.00199358 0.00148538 0.000279736
0.000170285 0.000279736 -0.000319302
0.0122434 0.00290471 -5.64179e-05
0.00290471 0.00465809 -3.59091e-05
-5.64179e-05 -3.59091e-05 0.000834401
-0.00260197 0.000169472 -5.72155e-05
0.000169472 -0.000572627 -4.45488e-05
-5.72155e-05 -4.45488e-05 -0.000798401
0.00175368 0.00127664 -3.44918e-05
0.00127664 0.000431923 -1.21991e-05
-3.44918e-05 -1.21991e-05 0.000827681
0.0154886 0.00272391 2.20582e-05
0.00272391 0.00429529 3.24558e-05
2.20582e-05 3.24558e-05 0.00207583
0.0063672 0.00255866 -2.96146e-05
0.00255866 0.000577036 -8.31726e-05
-2.96146e-05 -8.31726e-05 0.000496032
0.0018156 0.000937862 1.07324e-05
0.000937862 0.00024517 -3.33349e-06
1.07324e-05 -3.33349e-06 3.28964e-05
0.0013063 0.000715192 6.77971e-06
0.000715192 0.000254354 -1.81099e-06
6.77971e-06 -1.81099e-06 -2.07546e-05
0.00147115 0.000452936 -2.17094e-05
0.000452936 0.000593825 5.69504e-06
-2.17094e-05 5.69504e-06 0.000427882
0.0025778 0.00118136 -5.48469e-05
0.00118136 0.000771469 -1.9296e-05
-5.48469e-05 -1.9296e-05 0.000199438
0.00187015 0.00138542 3.56068e-05
0.00138542 -0.000440728 2.38e-05
3.56068e-05 2.38e-05 -0.000718245
0.00140761 -0.000370267 -7.99257e-05
-0.000370267 -0.00408335 3.69425e-05
-7.99257e-05 3.69425e-05 -0.00439119
0.00136107 -0.00109752 6.41193e-06
-0.00109752 0.00158351 -1.68205e-05
6.41193e-06 -1.68205e-05 0.00128298
-0.00905087 -0.000126458 0.000235905
-0.000126458 0.00445721 -2.02953e-05
0.000235905 -2.02953e-05 -0.000265446
0.000413394 -0.00123936 -3.09026e-05
-0.00123936 -0.00052358 3.70326e-06
-3.09026e-05 3.70326e-06 -0.0011147
0.00366477 -0.00207282 3.08917e-05
-0.00207282 0.000201929 2.86383e-05
3.08917e-05 2.86383e-05 -0.000162208
0.00146399 -0.000230085 0.000564265
-0.000230085 0.00314085 -0.000115312
0.000564265 -0.000115312 0.00160869
0.01266 -0.00155156 -0.000212461
-0.00155156 0.00179042 9.83515e-05
-0.000212461 9.83515e-05 0.000287583
0.0013783 -0.000985595 -3.2219e-05
-0.000985595 -0.000170598 -5.78405e-07
-3.2219e-05 -5.78405e-07 -0.000406927
0.0101933 -2.78293e-05 -0.000143646
-2.78293e-05 -5.6688e-05 4.04659e-05
-0.000143646 4.04659e-05 -0.0010867
0.00625254 -0.00141756 9.64526e-05
-0.00141756 -5.45134e-05 1.43633e-05
9.64526e-05 1.43633e-05 0.000209094
0.00492718 -0.000973018 7.69372e-05
-0.000973018 0.00143924 -2.15226e-05
7.69372e-05 -2.15226e-05 0.0011237
0.00298872 -0.000548449 -5.88593e-05
-0.000548449 -0.00101301 1.93087e-05
-5.88593e-05 1.93087e-05 -0.00038088
-0.00462828 -5.37641e-05 -4.99169e-06
-5.37641e-05 -0.00320143 3.93622e-06
-4.99169e-06 3.93622e-06 -0.00316055
0.00159325 -0.000612491 -8.38885e-06
-0.000612491 -0.000140168 3.37683e-07
-8.38885e-06 3.37683e-07 -0.000171702
0.00295884 -0.000592689 2.84829e-05
-0.000592689 0.000400433 -1.20578e-05
2.84829e-05 -1.20578e-05 0.000446431
0.00105432 -0.000641826 -7.53874e-06
-0.000641826 -0.000229867 8.1698e-06
-7.53874e-06 8.1698e-06 -0.000510992
0.00196772 -0.000626866 -2.53083e-06
-0.000626866 -3.34903e-06 2.6127e-06
-2.53083e-06 2.6127e-06 -0.000175179
0.00222992 -0.000505187 4.94319e-06
-0.000505187 1.92904e-05 2.67794e-08
4.94319e-06 2.67794e-08 -2.83809e-05
0.00224056 -0.00063712 -6.65555e-06
-0.00063712 0.000291964 8.64987e-06
-6.65555e-06 8.64987e-06 3.38258e-05
0.00199574 -0.000466894 1.55585e-07
-0.000466894 5.03649e-05 1.43566e-06
1.55585e-07 1.43566e-06 -8.0259e-05
0.00211411 -0.000447704 -5.09965e-07
-0.000447704 0.000112204 1.02148e-06
-5.09965e-07 1.02148e-06 2.5245e-05
0.00185963 -0.00044168 2.48466e-06
-0.00044168 9.31846e-05 6.09408e-06
2.48466e-06 6.09408e-06 -9.11802e-05
0.00191143 -0.000402044 -1.99114e-07
-0.000402044 7.69621e-05 1.40267e-06
-1.99114e-07 1.40267e-06 -5.52226e-05
0.00204563 -0.000424472 -2.17912e-06
-0.000424472 0.000162889 1.3914e-06
-2.17912e-06 1.3914e-06 3.71471e-05
0.00196624 -0.00038058 -4.11545e-06
-0.00038058 0.000185557 3.10582e-06
-4.11545e-06 3.10582e-06 5.16586e-05
0.00205326 -0.000386268 -7.3539e-07
-0.000386268 0.000269167 -1.97059e-06
-7.3539e-07 -1.97059e-06 0.000125363
0.00194286 -0.000377492 4.0867e-06
-0.000377492 0.00016297 7.0397e-06
4.0867e-06 7.0397e-06 1.19491e-05
0.0019101 -0.000390944 3.81445e-07
-0.000390944 0.000184948 -7.57776e-07
3.81445e-07 -7.57776e-07 1.10245e-05
0.00180762 -0.000400982 -2.45851e-06
-0.000400982 0.000135183 -3.38966e-06
-2.45851e-06 -3.38966e-06 -5.94998e-05
0.00184282 -0.000440353 -4.28124e-06
-0.000440353 0.000266408 -2.40334e-06
-4.28124e-06 -2.40334e-06 1.62141e-05
0.00189845 -0.000474352 -1.63349e-07
-0.000474352 0.000226518 -1.48171e-07
-1.63349e-07 -1.48171e-07 -2.14189e-05
0.00200092 -0.000483468 6.67215e-06
-0.000483468 0.00026225 3.48821e-06
6.67215e-06 3.48821e-06 1.99013e-05
0.00134775 -0.00036692 -8.71719e-06
-0.00036692 0.000175389 2.55137e-06
-8.71719e-06 2.55137e-06 -8.58913e-05
0.00161616 -0.000481066 -1.58039e-06
-0.000481066 0.000241222 -8.656e-08
-1.58039e-06 -8.656e-08 -5.52445e-05
0.00159243 -0.000529124 3.69961e-06
-0.000529124 0.000130281 1.11405e-06
3.69961e-06 1.11405e-06 -0.000176538
0.000677883 -0.000197364 -8.55187e-06
-0.000197364 -4.48893e-05 6.74462e-06
-8.55187e-06 6.74462e-06 -0.000234725
0.00118651 -0.000330423 1.81103e-06
-0.000330423 0.000172277 5.45584e-07
1.81103e-06 5.45584e-07 -8.02707e-05
0.00140358 -0.000450809 3.89398e-06
-0.000450809 0.000245867 1.30749e-07
3.89398e-06 1.30749e-07 -5.89892e-05
0.000469633 -0.000150653 -2.09876e-05
-0.000150653 -8.04878e-05 1.6513e-05
-2.09876e-05 1.6513e-05 -0.000174207
0.000742781 -0.000212115 -6.16198e-07
-0.000212115 6.48122e-05 3.76225e-07
-6.16198e-07 3.76225e-07 -0.00013186
0.000822878 -0.000261688 2.45814e-06
-0.000261688 8.92166e-06 -2.48792e-06
2.45814e-06 -2.48792e-06 -0.000215903
0.00446651 0.000205467 -0.000102415
0.000205467 0.0024768 7.29257e-06
-0.000102415 7.29257e-06 0.00245168
0.000556144 -9.86823e-05 -2.72691e-07
-9.86823e-05 1.48497e-06 -8.18974e-07
-2.72691e-07 -8.18974e-07 -7.85195e-05
0.00108567 -0.000189182 3.96716e-06
-0.000189182 0.000352291 -3.80703e-06
3.96716e-06 -3.80703e-06 0.000138543
0.00387769 0.000161722 1.44601e-05
0.000161722 0.002097 3.64486e-07
1.44601e-05 3.64486e-07 0.00208519
0.000557848 -4.22622e-05 1.22609e-05
-4.22622e-05 1.17212e-05 -1.22723e-05
1.22609e-05 -1.22723e-05 -5.19367e-05
0.00337714 0.00012991 9.02724e-05
0.00012991 0.00177449 -3.85439e-06
9.02724e-05 -3.85439e-06 0.00177238
0.000740937 0.000297154 3.98674e-06
0.000297154 -1.02078e-05 -5.83426e-06
3.98674e-06 -5.83426e-06 -0.000264213
0.000871308 0.00021787 2.38476e-06
0.00021787 0.000156206 -8.95299e-07
2.38476e-06 -8.95299e-07 -2.28234e-05
6.38841e-05 0.000105089 3.63873e-06
0.000105089 -0.000269519 -6.74238e-07
3.63873e-06 -6.74238e-07 -0.000446957
-0.000508846 2.77865e-05 -3.40663e-06
2.77865e-05 -0.000612657 -2.06133e-06
-3.40663e-06 -2.06133e-06 -0.00075464
0.000395201 6.24906e-05 -5.65668e-09
6.24906e-05 -4.92655e-05 9.4911e-07
-5.65668e-09 9.4911e-07 -0.000213994
0.000766962 7.83956e-05 -6.55736e-07
7.83956e-05 0.000146607 -7.67114e-06
-6.55736e-07 -7.67114e-06 1.51872e-05
0.000400763 4.21198e-05 -1.48127e-06
4.21198e-05 -4.51608e-05 3.00846e-06
-1.48127e-06 3.00846e-06 -0.000192702
0.000573533 4.24319e-05 -7.93942e-08
4.24319e-05 4.30215e-05 -7.96035e-08
-7.93942e-08 -7.96035e-08 -7.11475e-05
0.000614021 7.3235e-06 -4.95394e-06
7.3235e-06 4.93811e-05 -1.16027e-05
-4.95394e-06 -1.16027e-05 2.25134e-06
0.00302925 -0.000111971 -7.03406e-05
-0.000111971 0.00154951 -4.47113e-06
-7.03406e-05 -4.47113e-06 0.00155198
0.000460527 -4.00042e-06 1.00186e-06
-4.00042e-06 -4.29064e-05 -3.00134e-07
1.00186e-06 -3.00134e-07 -8.15194e-05
0.000519252 2.72793e-05 -1.35514e-06
2.72793e-05 1.38663e-05 5.92587e-06
-1.35514e-06 5.92587e-06 -8.79635e-05
0.0027629 -0.000102254 -6.92887e-06
-0.000102254 0.001377 5.78004e-07
-6.92887e-06 5.78004e-07 0.00138146
0.00039344 -4.02131e-05 -3.351e-06
-4.02131e-05 -8.61548e-05 7.57442e-06
-3.351e-06 7.57442e-06 -0.000119119
0.00259486 -8.51473e-05 3.44712e-05
-8.51473e-05 0.00126557 4.48938e-06
3.44712e-05 4.48938e-06 0.0012735
0.0134898 0.000516654 0.00036335
0.000516654 0.00237394 9.1954e-05
0.00036335 9.1954e-05 0.00166354
-0.00226474 -0.00189345 -0.000314223
-0.00189345 -0.00273581 -5.61845e-05
-0.000314223 -5.61845e-05 -0.003893
-0.00821127 0.001015 -0.000136795
0.001015 0.00265074 -9.96195e-05
-0.000136795 -9.96195e-05 -0.00278237
0.000207616 2.52442e-05 1.76238e-05
2.52442e-05 -0.000146441 5.17395e-07
1.76238e-05 5.17395e-07 -0.000370371
0.00166074 0.00033845 -1.29463e-05
0.00033845 0.000706315 2.09765e-06
-1.29463e-05 2.09765e-06 0.000485453
0.00176311 0.000381337 -6.53651e-06
0.000381337 0.0008108 -2.69784e-06
-6.53651e-06 -2.69784e-06 0.000517865
0.00178155 0.000464307 -1.04437e-07
0.000464307 0.000657578 7.16831e-07
-1.04437e-07 7.16831e-07 0.000330095
0.00101611 0.000436395 9.75945e-06
0.000436395 4.35262e-05 1.07405e-05
9.75945e-06 1.07405e-05 -0.00028375
-0.000564784 0.000265306 1.46064e-05
0.000265306 -0.00075302 -5.64962e-07
1.46064e-05 -5.64962e-07 -0.00102696
1.81537e-05 0.000232505 -8.08726e-06
0.000232505 -0.00011755 1.75103e-06
-8.08726e-06 1.75103e-06 -0.000459283
0.000170774 0.000391936 6.05098e-06
0.000391936 -0.000338218 -8.76231e-08
6.05098e-06 -8.76231e-08 -0.000631651
0.00208617 0.000596477 2.46641e-06
0.000596477 0.000767736 3.3011e-06
2.46641e-06 3.3011e-06 0.000559957
1.48213e-05 0.00043279 8.04615e-06
0.00043279 -0.000548538 3.33327e-06
8.04615e-06 3.33327e-06 -0.000769891
0.00266405 0.000765671 2.90384e-06
0.000765671 0.000699419 5.276e-06
2.90384e-06 5.276e-06 0.00053942
0.00151255 0.000725809 1.369e-05
0.000725809 7.78608e-05 1.55584e-06
1.369e-05 1.55584e-06 -0.000146823
0.000865428 0.000631217 3.25837e-06
0.000631217 -0.000260994 -5.3389e-07
3.25837e-06 -5.3389e-07 -0.000398679
0.000742488 0.000409582 7.75431e-07
0.000409582 0.00011428 -2.48083e-05
7.75431e-07 -2.48083e-05 -7.23409e-05
0.00543752 0.00118665 6.80351e-06
0.00118665 -0.000518806 8.81376e-06
6.80351e-06 8.81376e-06 0.000331936
0.0122242 0.00177922 0.000201717
0.00177922 0.00159051 9.77959e-05
0.000201717 9.77959e-05 -0.000104052
0.00990267 -0.0027815 0.000287856
-0.0027815 0.00472263 -4.82559e-05
0.000287856 -4.82559e-05 0.00280483
0.00467818 0.00301442 0.000424065
0.00301442 -0.000553019 0.000244869
0.000424065 0.000244869 -0.00457835
0.000189001 0.000879202 -5.56355e-05
0.000879202 1.62735e-05 -5.93887e-06
-5.56355e-05 -5.93887e-06 0.000447273
0.00348285 0.00187175 -0.000108221
0.00187175 -0.000344706 -4.32716e-05
-0.000108221 -4.32716e-05 -0.000163115
0.00546444 0.0016363 6.84966e-05
0.0016363 0.00113457 2.22077e-05
6.84966e-05 2.22077e-05 0.000938806
0.00365383 0.00116896 1.55435e-05
0.00116896 0.00104721 5.24927e-06
1.55435e-05 5.24927e-06 0.00080356
0.000303564 0.000569409 -1.92137e-05
0.000569409 -0.000217505 1.13874e-05
-1.92137e-05 1.13874e-05 -0.000459903
0.0054109 0.00175947 -0.00015652
0.00175947 0.00117611 -1.86262e-05
-0.00015652 -1.86262e-05 0.000832402
0.0028553 -0.000350448 5.83223e-06
-0.000350448 0.000157347 3.09332e-06
5.83223e-06 3.09332e-06 0.000264211
0.0107639 -0.000435948 -2.43114e-05
-0.000435948 0.00198706 3.31035e-06
-2.43114e-05 3.31035e-06 0.00152961
-0.0114845 -0.00167179 0.000527337
-0.00167179 -0.00570834 4.30348e-06
0.000527337 4.30348e-06 -0.00577739
-0.000221576 -0.000813435 -7.11921e-05
-0.000813435 -0.000988164 1.04726e-05
-7.11921e-05 1.04726e-05 -0.00119158
0.00853464 -0.00184624 5.81423e-05
-0.00184624 0.000681595 7.95585e-05
5.81423e-05 7.95585e-05 0.00121626
0.00104914 -0.000293224 -0.000188172
-0.000293224 -0.00345547 4.1307e-05
-0.000188172 4.1307e-05 -0.00547677
0.00190634 -0.000690566 1.46738e-05
-0.000690566 -0.000257928 2.50112e-06
1.46738e-05 2.50112e-06 -0.000306427
0.00424596 -0.000434658 -2.75062e-05
-0.000434658 -0.00026786 -4.59392e-06
-2.75062e-05 -4.59392e-06 0.000121898
0.00484796 -0.000640321 3.17581e-05
-0.000640321 0.00103116 -1.92011e-05
3.17581e-05 -1.92011e-05 0.00124948
0.00430363 -0.000258374 7.74294e-05
-0.000258374 0.000994958 5.75264e-06
7.74294e-05 5.75264e-06 0.000950265
-0.00203907 -0.000361156 -4.49511e-06
-0.000361156 -0.00216181 1.06792e-05
-4.49511e-06 1.06792e-05 -0.00204504
0.00198021 -0.000530895 -2.80942e-06
-0.000530895 -0.000146936 9.72351e-08
-2.80942e-06 9.72351e-08 -5.54211e-05
0.00203311 -0.000392319 1.89271e-05
-0.000392319 -0.000253708 -4.25686e-06
1.89271e-05 -4.25686e-06 -5.25896e-05
0.00174429 -0.000607908 -2.15211e-06
-0.000607908 -0.000121169 6.05689e-06
-2.15211e-06 6.05689e-06 -0.000294495
0.00218285 -0.000504812 1.52291e-06
-0.000504812 -3.49572e-06 9.19906e-07
1.52291e-06 9.19906e-07 -5.26376e-05
0.00215996 -0.000432397 1.28701e-06
-0.000432397 3.07967e-05 2.93549e-07
1.28701e-06 2.93549e-07 1.99054e-05
0.00200201 -0.000466087 1.72601e-07
-0.000466087 5.19117e-05 3.67284e-06
1.72601e-07 3.67284e-06 -7.49791e-05
0.00204018 -0.000437138 3.83784e-07
-0.000437138 8.04815e-05 3.5693e-07
3.83784e-07 3.5693e-07 -5.59469e-06
0.0020299 -0.000391627 -3.21311e-06
-0.000391627 6.97465e-05 6.7116e-07
-3.21311e-06 6.7116e-07 -7.7255e-06
0.00191583 -0.000404677 3.75792e-06
-0.000404677 7.66986e-05 2.33097e-06
3.75792e-06 2.33097e-06 -5.54787e-05
0.00196114 -0.000417081 -8.92546e-08
-0.000417081 0.000128923 1.74506e-07
-8.92546e-08 1.74506e-07 3.75068e-06
0.00186729 -0.00038045 4.54812e-07
-0.00038045 0.000104862 1.78928e-09
4.54812e-07 1.78928e-09 -2.23796e-05
0.00187069 -0.000380015 1.87158e-07
-0.000380015 0.000120463 3.72062e-06
1.87158e-07 3.72062e-06 -1.19567e-05
0.00199072 -0.000378274 -2.15004e-06
-0.000378274 0.000226037 3.99314e-07
-2.15004e-06 3.99314e-07 8.61118e-05
0.00199412 -0.000382651 -2.40387e-07
-0.000382651 0.000239848 -1.71939e-06
-2.40387e-07 -1.71939e-06 7.51201e-05
0.00191777 -0.000390396 4.24824e-06
-0.000390396 0.00018871 3.38979e-06
4.24824e-06 3.38979e-06 1.48767e-05
0.00186768 -0.000406426 1.35741e-07
-0.000406426 0.000172726 -4.02971e-07
1.35741e-07 -4.02971e-07 -2.35949e-05
0.00189377 -0.000391582 -1.43599e-06
-0.000391582 0.000251673 -2.23447e-06
-1.43599e-06 -2.23447e-06 4.00424e-05
0.00144478 -0.000355962 -8.79016e-06
-0.000355962 0.000138609 9.59635e-07
-8.79016e-06 9.59635e-07 -0.000101463
0.00180552 -0.000440973 -8.8726e-07
-0.000440973 0.000244537 -7.19449e-07
-8.8726e-07 -7.19449e-07 -9.14988e-06
0.00195644 -0.000481022 4.23241e-06
-0.000481022 0.000263774 1.72436e-06
4.23241e-06 1.72436e-06 1.35423e-05
0.000832322 -0.000214223 -1.22002e-05
-0.000214223 -1.56178e-05 7.3073e-06
-1.22002e-05 7.3073e-06 -0.000206535
0.00133682 -0.000364786 1.92671e-08
-0.000364786 0.000169043 4.35831e-07
1.92671e-08 4.35831e-07 -9.11172e-05
0.00154438 -0.000470624 2.94775e-06
-0.000470624 0.000204079 5.82389e-07
2.94775e-06 5.82389e-07 -9.1576e-05
0.000437441 -0.000165607 -2.08311e-05
-0.000165607 -0.000122498 1.69035e-05
-2.08311e-05 1.69035e-05 -0.000225718
0.000802786 -0.000208303 4.07344e-07
-0.000208303 3.10218e-05 2.63504e-07
4.07344e-07 2.63504e-07 -0.000161845
0.000930299 -0.00031105 7.5687e-06
-0.00031105 1.04582e-05 -2.57015e-06
7.5687e-06 -2.57015e-06 -0.000239812
0.0054831 0.000155476 -0.000170726
0.000155476 0.00307286 9.47339e-06
-0.000170726 9.47339e-06 0.00306055
0.000494732 -0.000158449 -6.4709e-07
-0.000158449 -6.58705e-05 -4.25786e-08
-6.4709e-07 -4.25786e-08 -0.000161686
0.00065197 -0.000214997 7.8289e-06
-0.000214997 1.24373e-05 -5.6851e-06
7.8289e-06 -5.6851e-06 -0.000184758
0.00477743 0.000141886 8.3017e-06
0.000141886 0.002647 -1.02781e-08
8.3017e-06 -1.02781e-08 0.00263751
0.00047715 -0.000109804 1.72264e-05
-0.000109804 -4.57048e-05 -1.48044e-05
1.72264e-05 -1.48044e-05 -0.000128939
0.00412482 0.000111393 0.000142516
0.000111393 0.00223946 -9.36516e-06
0.000142516 -9.36516e-06 0.00223885
0.000824671 0.000360166 -5.11247e-06
0.000360166 -4.6206e-05 -2.20404e-06
-5.11247e-06 -2.20404e-06 -0.000332162
0.00155322 0.000375577 -5.79048e-07
0.000375577 0.000492814 -1.02757e-06
-5.79048e-07 -1.02757e-06 0.000225552
0.000301328 0.000186894 -1.02176e-06
0.000186894 -0.000244447 -2.69349e-06
-1.02176e-06 -2.69349e-06 -0.00045494
0.000607613 0.000209829 -4.80163e-06
0.000209829 9.77675e-06 -2.19228e-06
-4.80163e-06 -2.19228e-06 -0.000174916
-5.56763e-05 0.000106982 7.41669e-07
0.000106982 -0.000349288 -8.32444e-07
7.41669e-07 -8.32444e-07 -0.000529961
0.00118374 0.000202536 -3.20867e-06
0.000202536 0.000423237 -6.99229e-06
-3.20867e-06 -6.99229e-06 0.000239527
4.13591e-07 3.26513e-05 -1.23528e-06
3.26513e-05 -0.000297411 8.32334e-07
-1.23528e-06 8.32334e-07 -0.000456743
0.000737834 7.62718e-05 3.87148e-07
7.62718e-05 0.0001341 -3.84877e-07
3.87148e-07 -3.84877e-07 1.44505e-06
0.000651015 2.20591e-05 -7.71039e-06
2.20591e-05 7.02158e-05 -1.35421e-05
-7.71039e-06 -1.35421e-05 1.42144e-05
0.000569065 2.72945e-05 -1.09232e-06
2.72945e-05 4.48632e-05 7.86182e-06
-1.09232e-06 7.86182e-06 -6.99511e-05
0.000502785 1.19008e-05 1.62227e-07
1.19008e-05 -1.58439e-05 -1.72848e-07
1.62227e-07 -1.72848e-07 -6.22938e-05
0.00335641 -0.000126072 -8.82687e-05
-0.000126072 0.00176084 -5.03539e-06
-8.82687e-05 -5.03539e-06 0.00175929
0.00297261 -0.000119902 -7.09284e-06
-0.000119902 0.00151555 6.53877e-07
-7.09284e-06 6.53877e-07 0.00151566
0.000393054 1.52163e-05 4.13634e-06
1.52163e-05 -8.42891e-05 9.45182e-06
4.13634e-06 9.45182e-06 -0.000121508
0.0027037 -0.000101632 4.21492e-05
-0.000101632 0.00134043 4.25489e-06
4.21492e-05 4.25489e-06 0.00134475
0.00398758 0.000118056 7.78857e-05
0.000118056 -0.000824961 1.93331e-05
7.78857e-05 1.93331e-05 0.000158575
0.00392614 -0.000809339 0.000118081
-0.000809339 -0.00345278 5.92438e-05
0.000118081 5.92438e-05 -0.0046208
0.0103285 -0.00202591 -0.000160139
-0.00202591 0.00383874 -7.46047e-05
-0.000160139 -7.46047e-05 0.0035428
0.0011853 0.000472505 8.54831e-06
0.000472505 -2.79646e-05 6.98069e-06
8.54831e-06 6.98069e-06 -0.000325199
0.00327789 0.000543936 -6.1226e-06
0.000543936 0.00169529 7.07385e-06
-6.1226e-06 7.07385e-06 0.00136798
0.00154897 0.000436046 -1.45341e-06
0.000436046 0.000536172 1.17544e-06
-1.45341e-06 1.17544e-06 0.000220021
0.00108337 0.000449298 3.22368e-06
0.000449298 0.000228391 1.86856e-06
3.22368e-06 1.86856e-06 -8.2497e-05
0.00136571 0.000472642 -2.40317e-06
0.000472642 0.000269677 1.72691e-06
-2.40317e-06 1.72691e-06 -7.10808e-05
0.0013058 0.000550536 1.6433e-05
0.000550536 0.000176262 1.34834e-05
1.6433e-05 1.34834e-05 -0.00012508
0.00161701 0.000549679 -2.54983e-05
0.000549679 0.000490694 -5.98862e-06
-2.54983e-05 -5.98862e-06 0.000148366
0.000838434 0.000493514 1.45371e-05
0.000493514 8.17028e-05 -1.54762e-05
1.45371e-05 -1.54762e-05 -0.000135197
0.00122425 0.00057041 2.43098e-06
0.00057041 0.000125364 -2.15023e-06
2.43098e-06 -2.15023e-06 -0.00012012
0.00154401 0.000658418 4.51714e-06
0.000658418 3.79677e-05 1.27929e-06
4.51714e-06 1.27929e-06 -4.83767e-05
0.00172763 0.000702527 1.20831e-05
0.000702527 0.000114601 6.47616e-07
1.20831e-05 6.47616e-07 -0.000127518
0.00160514 0.000643055 2.08798e-05
0.000643055 8.64502e-05 1.18929e-05
2.08798e-05 1.18929e-05 -8.26114e-05
0.0010131 0.000679194 -4.05518e-06
0.000679194 -0.000192613 -5.70517e-06
-4.05518e-06 -5.70517e-06 -0.000403161
0.000682832 0.000602641 -9.76383e-06
0.000602641 -0.000349096 -7.38862e-06
-9.76383e-06 -7.38862e-06 -0.000468961
0.00149419 0.00062119 4.22043e-05
0.00062119 -0.000657902 3.7687e-05
4.22043e-05 3.7687e-05 -0.00049424
0.0057659 0.00125896 -7.97806e-05
0.00125896 -0.000723213 -2.35459e-05
-7.97806e-05 -2.35459e-05 0.000197788
0.003565 0.00115151 0.000421403
0.00115151 -0.00319258 6.25624e-05
0.000421403 6.25624e-05 -0.00509498
0.000449825 0.00138763 -9.63549e-05
0.00138763 -0.0014188 -3.48435e-05
-9.63549e-05 -3.48435e-05 -0.00111149
0.00398805 0.00132393 -3.24877e-05
0.00132393 0.000724631 -7.72933e-06
-3.24877e-05 -7.72933e-06 0.000576894
0.00363831 0.00117205 -0.000110871
0.00117205 0.000987495 -3.12698e-05
-0.000110871 -3.12698e-05 0.000737298
0.00278922 -0.000263304 -4.52744e-05
-0.000263304 -0.000152185 -2.05241e-05
-4.52744e-05 -2.05241e-05 6.20646e-05
0.000300015 -0.000183622 4.83445e-05
-0.000183622 -0.000394085 1.15552e-05
4.83445e-05 1.15552e-05 -7.52965e-05
0.001848 0.000849489 0.000145894
0.000849489 -0.00433309 -4.9889e-06
0.000145894 -4.9889e-06 -0.004544
-0.00117361 -0.000454319 -2.95678e-05
-0.000454319 -0.00187556 4.23255e-05
-2.95678e-05 4.23255e-05 -0.00172035
0.00587194 -0.000452327 -0.000110947
-0.000452327 0.000680359 3.52639e-05
-0.000110947 3.52639e-05 0.000673377
0.0024937 -0.000480569 -2.49284e-05
-0.000480569 -0.000202654 9.93723e-06
-2.49284e-05 9.93723e-06 7.23829e-05
0.00395138 -0.000294771 7.43267e-07
-0.000294771 0.000698782 -3.60073e-06
7.43267e-07 -3.60073e-06 0.000709773
0.00216786 -0.000282955 4.37318e-05
-0.000282955 -0.000280894 -6.04801e-06
4.37318e-05 -6.04801e-06 9.29012e-06
0.00348114 -8.40408e-05 3.19237e-05
-8.40408e-05 0.00104264 -1.69543e-06
3.19237e-05 -1.69543e-06 0.00101028
0.000868012 -0.000451643 -2.55078e-05
-0.000451643 -0.000754516 1.18442e-05
-2.55078e-05 1.18442e-05 -0.000613626
0.00195354 -0.000404576 -7.72838e-07
-0.000404576 -0.000324273 2.17095e-06
-7.72838e-07 2.17095e-06 -0.000130056
0.00221626 -0.000364753 2.92158e-06
-0.000364753 -0.000142639 -9.83183e-07
2.92158e-06 -9.83183e-07 1.59404e-05
0.00212491 -0.000498952 -2.87873e-06
-0.000498952 -2.58787e-05 2.21368e-06
-2.87873e-06 2.21368e-06 -7.47521e-05
0.00215212 -0.000429143 2.8477e-07
-0.000429143 3.38212e-05 -1.66489e-07
2.8477e-07 -1.66489e-07 2.34064e-05
0.00211777 -0.000351801 -1.62147e-06
-0.000351801 2.81396e-05 -2.43229e-07
-1.62147e-06 -2.43229e-07 9.55776e-06
0.00195872 -0.000425445 7.79783e-08
-0.000425445 4.45388e-05 6.54721e-07
7.79783e-08 6.54721e-07 -3.9404e-05
0.00201758 -0.000397696 -7.10278e-07
-0.000397696 7.00516e-05 1.37582e-07
-7.10278e-07 1.37582e-07 -9.15131e-06
0.00193774 -0.000345391 -1.80439e-06
-0.000345391 8.66816e-05 9.5194e-07
-1.80439e-06 9.5194e-07 -1.43243e-05
0.00187409 -0.000409325 8.08152e-07
-0.000409325 9.32631e-05 -5.11797e-07
8.08152e-07 -5.11797e-07 -3.11984e-05
0.00184844 -0.00037981 1.10043e-06
-0.00037981 8.94578e-05 -5.68174e-07
1.10043e-06 -5.68174e-07 -3.83166e-05
0.00187783 -0.000357899 8.73017e-07
-0.000357899 0.000125964 -1.58976e-06
8.73017e-07 -1.58976e-06 -1.38475e-05
0.00192724 -0.000370248 -2.74575e-06
-0.000370248 0.000182784 3.34523e-06
-2.74575e-06 3.34523e-06 4.67269e-05
0.00203311 -0.000382255 -1.85919e-06
-0.000382255 0.000258759 5.38562e-07
-1.85919e-06 5.38562e-07 9.81493e-05
0.00195324 -0.000366399 -1.09606e-06
-0.000366399 0.000253488 -1.72445e-06
-1.09606e-06 -1.72445e-06 6.7222e-05
0.00192947 -0.000412447 2.75214e-06
-0.000412447 0.000211094 2.3542e-06
2.75214e-06 2.3542e-06 1.29847e-05
0.0018964 -0.000394027 7.01043e-07
-0.000394027 0.000253796 -5.42917e-07
7.01043e-07 -5.42917e-07 4.17252e-05
0.00157167 -0.000322702 -6.82737e-06
-0.000322702 0.000168262 1.0719e-06
-6.82737e-06 1.0719e-06 -4.7229e-05
0.0009115 -0.000216166 -1.35037e-05
-0.000216166 -2.1009e-05 6.93168e-06
-1.35037e-05 6.93168e-06 -0.000206739
0.00143153 -0.000352558 -1.17586e-06
-0.000352558 0.000137764 -1.08693e-07
-1.17586e-06 -1.08693e-07 -0.000102877
0.00176285 -0.000441487 2.74957e-06
-0.000441487 0.000218943 5.01436e-07
2.74957e-06 5.01436e-07 -3.82741e-05
0.000453258 -0.000208051 -2.2445e-05
-0.000208051 -0.000114925 1.756e-05
-2.2445e-05 1.756e-05 -0.000234797
0.000842078 -0.000217964 5.84972e-07
-0.000217964 -1.3258e-05 1.3721e-07
5.84972e-07 1.3721e-07 -0.000205678
0.00134203 -0.000364259 8.022e-06
-0.000364259 0.000172057 -1.51237e-06
8.022e-06 -1.51237e-06 -8.72404e-05
0.00608614 0.000113218 -0.000214013
0.000113218 0.00342192 1.27695e-05
-0.000214013 1.27695e-05 0.00341697
0.000485212 -0.000208082 -1.1492e-06
-0.000208082 -8.78913e-05 4.15245e-07
-1.1492e-06 4.15245e-07 -0.000199737
0.000853635 -0.000218592 1.1006e-05
-0.000218592 6.30376e-05 -6.92481e-06
1.1006e-05 -6.92481e-06 -0.000133321
0.00572176 0.00013424 -2.86371e-06
0.00013424 0.00321906 -4.74409e-07
-2.86371e-06 -4.74409e-07 0.0032077
0.000600638 -0.00017978 2.24715e-05
-0.00017978 5.57186e-07 -1.69303e-05
2.24715e-05 -1.69303e-05 -0.000100607
0.00518627 0.000122345 0.000183161
0.000122345 0.00289797 -1.59822e-05
0.000183161 -1.59822e-05 0.00288924
0.00135888 0.000431077 -2.57524e-06
0.000431077 0.000154319 2.82816e-06
-2.57524e-06 2.82816e-06 -0.000138304
0.00143481 0.000425564 -3.72231e-06
0.000425564 0.000320059 -1.19918e-06
-3.72231e-06 -1.19918e-06 1.97333e-05
0.000962956 0.000296687 -6.30244e-06
0.000296687 5.08176e-05 -1.55421e-06
-6.30244e-06 -1.55421e-06 -0.000191692
0.00265006 0.000482377 6.72415e-08
0.000482377 0.00117137 4.07538e-06
6.72415e-08 4.07538e-06 0.000885301
0.000873431 0.000243804 -2.03302e-06
0.000243804 0.000115334 -1.33622e-06
-2.03302e-06 -1.33622e-06 -0.000108846
0.00122155 0.000227198 -6.03804e-06
0.000227198 0.000408144 -4.08456e-06
-6.03804e-06 -4.08456e-06 0.000205757
-9.23912e-05 9.99078e-05 -2.53446e-06
9.99078e-05 -0.000383108 -1.15914e-06
-2.53446e-06 -1.15914e-06 -0.000565754
0.000690163 0.000114418 -6.72276e-07
0.000114418 0.000108444 -2.98229e-07
-6.72276e-07 -2.98229e-07 -5.91229e-05
0.00060167 5.49907e-05 -1.3114e-05
5.49907e-05 3.09684e-05 -1.47833e-05
-1.3114e-05 -1.47833e-05 -3.91287e-05
0.000431006 4.44721e-05 3.78396e-07
4.44721e-05 -5.33599e-05 8.14904e-06
3.78396e-07 8.14904e-06 -0.000180366
0.000447698 1.78678e-05 9.62735e-08
1.78678e-05 -5.04219e-05 -3.43579e-07
9.62735e-08 -3.43579e-07 -0.000105882
0.00381104 -0.000137547 -0.000113002
-0.000137547 0.00205114 -6.29202e-06
-0.000113002 -6.29202e-06 0.0020456
0.000330476 1.54963e-05 4.86884e-06
1.54963e-05 -0.000118596 1.14837e-05
4.86884e-06 1.14837e-05 -0.000164331
0.00330093 -0.000136802 -6.77131e-06
-0.000136802 0.00172813 6.75199e-07
-6.77131e-06 6.75199e-07 0.0017237
0.00293465 -0.000122115 5.14493e-05
-0.000122115 0.00149212 4.13269e-06
5.14493e-05 4.13269e-06 0.00149145
0.000509551 9.73332e-05 8.08451e-06
9.73332e-05 -0.00141042 1.6079e-05
8.08451e-06 1.6079e-05 -0.00101421
0.00525754 1.93446e-05 6.15651e-05
1.93446e-05 -4.85016e-05 9.7353e-06
6.15651e-05 9.7353e-06 0.000769545
0.0125132 0.000767124 -5.92556e-05
0.000767124 0.00269627 -1.70864e-06
-5.92556e-05 -1.70864e-06 0.00203593
0.00186201 0.000603832 3.1873e-06
0.000603832 0.000333002 4.07136e-06
3.1873e-06 4.07136e-06 3.77067e-05
0.00198449 0.000589369 7.73345e-07
0.000589369 0.000287159 2.71599e-06
7.73345e-07 2.71599e-06 1.42253e-05
0.001309 0.000488822 3.57148e-07
0.000488822 5.97001e-05 -3.10924e-06
3.57148e-07 -3.10924e-06 -0.000237749
0.00243871 0.000602833 -4.90152e-06
0.000602833 0.00103179 6.56277e-06
-4.90152e-06 6.56277e-06 0.000691436
0.00173616 0.000508259 -4.09826e-06
0.000508259 0.000513738 -5.5049e-06
-4.09826e-06 -5.5049e-06 0.000159116
0.00169818 0.0005962 6.8035e-06
0.0005962 0.000380778 3.10898e-06
6.8035e-06 3.10898e-06 7.85701e-05
0.00161877 0.000642171 2.49901e-07
0.000642171 7.00367e-06 -2.16164e-06
2.49901e-07 -2.16164e-06 -0.000248844
0.00228473 0.000689861 -1.6137e-05
0.000689861 0.000696933 -2.15203e-07
-1.6137e-05 -2.15203e-07 0.000425452
0.00129311 0.000625312 7.47582e-08
0.000625312 -0.000135136 1.46354e-05
7.47582e-08 1.46354e-05 -0.000172418
0.00255243 0.000783399 -1.62377e-06
0.000783399 0.000575654 2.19608e-07
-1.62377e-06 2.19608e-07 0.000318295
0.00252781 0.000688265 -5.55444e-06
0.000688265 0.000395177 1.71943e-06
-5.55444e-06 1.71943e-06 0.000190672
0.000964308 0.000343064 2.41754e-05
0.000343064 -0.000414894 1.67018e-05
2.41754e-05 1.67018e-05 -0.000421898
0.000887883 0.000577144 1.06944e-05
0.000577144 -0.00027288 -2.267e-06
1.06944e-05 -2.267e-06 -0.000436298
0.00128087 0.000702462 -2.89478e-05
0.000702462 -5.32511e-05 1.28378e-06
-2.89478e-05 1.28378e-06 -0.000270636
0.00271554 0.000694534 3.443e-06
0.000694534 -1.61469e-05 8.84738e-06
3.443e-06 8.84738e-06 6.97932e-05
0.00565897 0.000861794 -6.26588e-06
0.000861794 -0.000696647 -2.76673e-05
-6.26588e-06 -2.76673e-05 -0.00018476
0.00366685 0.00110858 -2.04947e-05
0.00110858 0.000895412 -4.11358e-05
-2.04947e-05 -4.11358e-05 0.000797977
0.00134629 -5.5849e-05 2.65423e-05
-5.5849e-05 -0.000282161 1.12947e-06
2.65423e-05 1.12947e-06 -0.000215878
0.00226975 -0.000191932 -4.27664e-05
-0.000191932 -0.000316775 2.42281e-06
-4.27664e-05 2.42281e-06 -0.000193837
0.00206991 0.000260799 1.58783e-05
0.000260799 -0.000616146 -2.73076e-06
1.58783e-05 -2.73076e-06 -0.000460846
0.000261231 -0.000347932 -4.37253e-05
-0.000347932 -0.00136325 3.52557e-05
-4.37253e-05 3.52557e-05 -0.00107723
0.00333055 -0.000365227 -9.74164e-05
-0.000365227 0.00027806 -5.96218e-06
-9.74164e-05 -5.96218e-06 0.000323173
0.00229215 -0.000301883 7.20373e-06
-0.000301883 -0.000121162 -3.91587e-06
7.20373e-06 -3.91587e-06 0.000142675
0.00247393 -8.33473e-05 -1.05829e-05
-8.33473e-05 0.000395215 4.50406e-07
-1.05829e-05 4.50406e-07 0.000374327
0.00225943 -0.000219899 7.09024e-06
-0.000219899 -1.04224e-05 -1.89751e-07
7.09024e-06 -1.89751e-07 5.70724e-05
0.00218185 -1.06074e-05 6.6466e-06
-1.06074e-05 -1.32711e-05 7.60779e-07
6.6466e-06 7.60779e-07 -1.32751e-06
0.00191349 -0.000424338 -1.24656e-05
-0.000424338 -0.000381552 3.70522e-06
-1.24656e-05 3.70522e-06 -0.00019528
0.00224318 -0.000371881 -2.26322e-06
-0.000371881 -0.000111981 5.51508e-07
-2.26322e-06 5.51508e-07 1.52415e-05
0.00218793 -0.000266051 -2.82522e-07
-0.000266051 -3.83371e-05 -7.9327e-07
-2.82522e-07 -7.9327e-07 2.10263e-06
0.00214008 -0.000427199 -2.92588e-06
-0.000427199 3.22247e-05 2.65457e-07
-2.92588e-06 2.65457e-07 2.10699e-05
0.00211278 -0.000348748 -1.48435e-07
-0.000348748 3.65236e-05 5.66282e-08
-1.48435e-07 5.66282e-08 1.36872e-05
0.0020313 -0.000298312 -1.83226e-06
-0.000298312 4.45082e-05 5.82267e-07
-1.83226e-06 5.82267e-07 -8.74206e-06
0.00200714 -0.000404232 3.61064e-07
-0.000404232 7.13836e-05 -1.19348e-06
3.61064e-07 -1.19348e-06 -9.92003e-06
0.00192621 -0.000343035 6.22353e-07
-0.000343035 7.66649e-05 -2.96875e-07
6.22353e-07 -2.96875e-07 -2.46866e-05
0.00193446 -0.000317579 -5.32533e-07
-0.000317579 0.000116134 -1.82037e-07
-5.32533e-07 -1.82037e-07 6.98246e-07
0.00182621 -0.000379118 1.41456e-06
-0.000379118 7.2222e-05 -9.91266e-07
1.41456e-06 -9.91266e-07 -5.60698e-05
0.00190999 -0.000359713 2.42424e-07
-0.000359713 0.000144267 -4.61472e-07
2.42424e-07 -4.61472e-07 3.99143e-06
0.00187105 -0.000333915 -4.91555e-07
-0.000333915 0.000163478 -1.53851e-06
-4.91555e-07 -1.53851e-06 -7.63322e-07
0.00206724 -0.000381639 -1.74825e-06
-0.000381639 0.000274289 3.55088e-06
-1.74825e-06 3.55088e-06 0.000117823
0.00194617 -0.000366473 -5.66855e-07
-0.000366473 0.000249956 -1.2183e-07
-5.66855e-07 -1.2183e-07 6.48331e-05
0.00155232 -0.000294157 -5.54774e-06
-0.000294157 0.000121525 8.36962e-07
-5.54774e-06 8.36962e-07 -7.66752e-05
0.00190386 -0.000396703 3.36049e-06
-0.000396703 0.000258925 1.27823e-06
3.36049e-06 1.27823e-06 4.63838e-05
0.00159613 -0.000325808 -4.41562e-07
-0.000325808 0.000183346 1.4511e-08
-4.41562e-07 1.4511e-08 -3.16399e-05
0.000955479 -0.000201818 -1.42925e-05
-0.000201818 -2.81071e-05 6.60394e-06
-1.42925e-05 6.60394e-06 -0.000205007
0.000381781 -0.000185857 -1.99942e-05
-0.000185857 -0.000172375 1.63779e-05
-1.99942e-05 1.63779e-05 -0.000289678
0.000941317 -0.000219498 2.40689e-07
-0.000219498 -6.40106e-06 7.13477e-08
2.40689e-07 7.13477e-08 -0.000192969
0.00142887 -0.000349985 5.77998e-06
-0.000349985 0.000143211 -1.3167e-06
5.77998e-06 -1.3167e-06 -9.81321e-05
0.00632755 3.64415e-05 -0.000242381
3.64415e-05 0.00354674 1.52305e-05
-0.000242381 1.52305e-05 0.0035521
0.000462367 -0.000203432 -1.44499e-06
-0.000203432 -0.00011693 9.75505e-07
-1.44499e-06 9.75505e-07 -0.000232497
0.000889081 -0.000222897 1.2308e-05
-0.000222897 1.22772e-05 -6.5723e-06
1.2308e-05 -6.5723e-06 -0.000181762
0.00619167 8.82825e-05 -1.45118e-06
8.82825e-05 0.00348474 1.41952e-07
-1.45118e-06 1.41952e-07 0.00348073
0.000542804 -0.000212857 2.46494e-05
-0.000212857 -5.78477e-05 -1.75335e-05
2.46494e-05 -1.75335e-05 -0.000170054
0.005921 0.000111023 0.000211829
0.000111023 0.00333575 -1.7872e-05
0.000211829 -1.7872e-05 0.0033266
0.00162259 0.000495878 -1.52761e-06
0.000495878 0.000181991 3.83305e-06
-1.52761e-06 3.83305e-06 -9.53856e-05
0.00141523 0.000444774 3.34461e-07
0.000444774 0.000186072 7.84201e-07
3.34461e-07 7.84201e-07 -0.000108737
0.00126751 0.000346098 -7.01376e-06
0.000346098 0.000160668 -7.43829e-07
-7.01376e-06 -7.43829e-07 -9.0595e-05
0.00173998 0.000459523 1.47948e-06
0.000459523 0.000500145 2.192e-06
1.47948e-06 2.192e-06 0.000192029
0.00112099 0.000304948 -1.57733e-06
0.000304948 0.000153371 1.73751e-07
-1.57733e-06 1.73751e-07 -8.80412e-05
0.00103771 0.000229462 -1.01208e-05
0.000229462 0.000219272 -3.6843e-06
-1.01208e-05 -3.6843e-06 2.23392e-05
0.00130454 0.000287966 -2.12879e-06
0.000287966 0.000385478 1.25903e-08
-2.12879e-06 1.25903e-08 0.00015103
0.000697324 0.000191783 5.9865e-07
0.000191783 9.49844e-05 7.02987e-07
5.9865e-07 7.02987e-07 -0.000106624
0.000603202 0.000133649 -2.23121e-05
0.000133649 1.68763e-05 -1.60672e-05
-2.23121e-05 -1.60672e-05 -7.01895e-05
0.000327086 6.1212e-05 4.15188e-07
6.1212e-05 -0.000115637 6.11641e-06
4.15188e-07 6.11641e-06 -0.000274947
0.000532948 4.58688e-05 -1.05777e-06
4.58688e-05 -6.13326e-06 -4.18565e-07
-1.05777e-06 -4.18565e-07 -7.28803e-05
0.00451153 -0.000148442 -0.000144628
-0.000148442 0.0024918 -9.33914e-06
-0.000144628 -9.33914e-06 0.00248082
0.000412617 1.63127e-05 6.63905e-06
1.63127e-05 -6.89831e-05 1.32054e-05
6.63905e-06 1.32054e-05 -0.000124165
0.00368858 -0.000156341 -6.81113e-06
-0.000156341 0.00197944 6.71378e-07
-6.81113e-06 6.71378e-07 0.00196896
0.00321215 -0.000143328 6.42678e-05
-0.000143328 0.00167452 4.23519e-06
6.42678e-05 4.23519e-06 0.00166792
0.00082672 0.000103893 2.19808e-05
0.000103893 -0.00058162 1.69606e-05
2.19808e-05 1.69606e-05 -0.000436227
0.00240015 0.000106836 -9.7052e-06
0.000106836 -0.000650797 -4.04508e-06
-9.7052e-06 -4.04508e-06 -0.000217795
0.00385745 0.000162324 0.000176801
0.000162324 -0.00132268 5.25569e-05
0.000176801 5.25569e-05 -1.35186e-05
0.00254202 0.000656777 -6.37628e-06
0.000656777 0.000548253 -3.96297e-07
-6.37628e-06 -3.96297e-07 0.000285112
0.00169507 0.00060733 -5.68259e-06
0.00060733 0.000219592 -4.46291e-06
-5.68259e-06 -4.46291e-06 -7.13746e-05
0.00205093 0.000493036 -9.44246e-07
0.000493036 0.000182115 3.99826e-06
-9.44246e-07 3.99826e-06 -2.7627e-05
0.00195395 0.00057792 1.07381e-06
0.00057792 0.000267991 3.45083e-07
1.07381e-06 3.45083e-07 -1.92526e-06
0.00141927 0.00050352 2.94363e-07
0.00050352 0.000137058 -9.64122e-06
2.94363e-07 -9.64122e-06 -0.000160237
0.00186716 0.000510551 -2.02773e-06
0.000510551 6.41023e-06 7.24645e-07
-2.02773e-06 7.24645e-07 -0.00018336
0.00231104 0.000665744 -7.58506e-06
0.000665744 0.000713406 -3.30105e-06
-7.58506e-06 -3.30105e-06 0.000406636
0.00210059 0.000673481 -1.37259e-07
0.000673481 0.000300169 -5.68125e-07
-1.37259e-07 -5.68125e-07 3.73898e-05
0.00198496 0.000381121 -9.67773e-06
0.000381121 -7.17554e-05 1.3331e-07
-9.67773e-06 1.3331e-07 -0.00012906
0.00292984 0.000829601 -4.50112e-06
0.000829601 0.000775344 6.19439e-06
-4.50112e-06 6.19439e-06 0.000518448
0.00227132 0.000669755 -8.0257e-07
0.000669755 0.000247723 -3.44834e-07
-8.0257e-07 -3.44834e-07 4.3428e-05
0.000753227 0.000340798 4.26305e-06
0.000340798 -0.000495328 2.99577e-06
4.26305e-06 2.99577e-06 -0.000508112
-0.000527076 0.000460475 -1.93455e-05
0.000460475 -0.00100529 -4.42288e-06
-1.93455e-05 -4.42288e-06 -0.00114815
0.00317343 0.000748991 -8.86928e-05
0.000748991 0.000197871 -3.23996e-05
-8.86928e-05 -3.23996e-05 0.000218462
0.00201345 6.23169e-05 -1.64574e-06
6.23169e-05 -0.000142806 -1.15264e-06
-1.64574e-06 -1.15264e-06 -9.12781e-05
0.00244201 -6.02749e-05 5.64135e-06
-6.02749e-05 0.000421577 1.13428e-07
5.64135e-06 1.13428e-07 0.000473916
0.00215081 -0.00016237 -7.03933e-05
-0.00016237 -0.000296205 8.37995e-06
-7.03933e-05 8.37995e-06 -0.000230086
0.00226683 -0.000316865 -5.07811e-05
-0.000316865 -4.83528e-05 7.5094e-06
-5.07811e-05 7.5094e-06 0.000179245
0.00144297 -9.45789e-05 -8.95772e-06
-9.45789e-05 -0.000263166 2.76677e-06
-8.95772e-06 2.76677e-06 -0.000272561
0.00222936 -0.000217397 7.65834e-08
-0.000217397 -3.66366e-05 -1.528e-06
7.65834e-08 -1.528e-06 4.88446e-05
0.00223548 -1.17673e-05 -2.17466e-06
-1.17673e-05 -8.38016e-06 1.44715e-06
-2.17466e-06 1.44715e-06 1.08535e-05
0.00224603 -7.33515e-05 -6.70625e-07
-7.33515e-05 -8.16782e-06 -8.18602e-08
-6.70625e-07 -8.18602e-08 3.06565e-05
0.00226482 -0.000375537 -4.85222e-06
-0.000375537 -8.00161e-05 3.55286e-07
-4.85222e-06 3.55286e-07 1.76545e-05
0.00215726 -0.00025647 4.40678e-07
-0.00025647 -3.97913e-05 -2.30902e-07
4.40678e-07 -2.30902e-07 -5.71751e-06
0.00210337 -0.000202164 -7.60272e-07
-0.000202164 8.53356e-06 -1.34494e-07
-7.60272e-07 -1.34494e-07 1.36805e-05
0.00211286 -0.000345897 8.62113e-07
-0.000345897 4.78176e-05 -1.00674e-07
8.62113e-07 -1.00674e-07 2.12434e-05
0.00202747 -0.000295186 1.58481e-07
-0.000295186 4.75002e-05 1.58309e-07
1.58481e-07 1.58309e-07 -6.01926e-06
0.00200467 -0.000254788 -1.70518e-06
-0.000254788 0.000107168 3.29118e-07
-1.70518e-06 3.29118e-07 2.39496e-05
0.00191811 -0.000340705 2.35504e-06
-0.000340705 6.82751e-05 -1.3027e-06
2.35504e-06 -1.3027e-06 -3.34207e-05
0.00191698 -0.000316374 3.62168e-07
-0.000316374 0.000102861 -2.59205e-07
3.62168e-07 -2.59205e-07 -1.28705e-05
0.001881 -0.000289872 -1.33983e-07
-0.000289872 0.000125066 -1.27156e-06
-1.33983e-07 -1.27156e-06 -1.27333e-05
0.00194371 -0.000361666 2.14355e-07
-0.000361666 0.000163557 5.41001e-07
2.14355e-07 5.41001e-07 2.27971e-05
0.00189863 -0.000335012 -3.71969e-07
-0.000335012 0.000181876 -7.01606e-08
-3.71969e-07 -7.01606e-08 1.76469e-05
0.00160051 -0.000268142 -3.56851e-06
-0.000268142 0.000114491 4.7508e-07
-3.56851e-06 4.7508e-07 -6.74089e-05
0.00193949 -0.000366448 5.91175e-07
-0.000366448 0.00024651 1.61515e-06
5.91175e-07 1.61515e-06 6.25824e-05
0.00158499 -0.000296267 -4.0383e-07
-0.000296267 0.000140821 9.69863e-08
-4.0383e-07 9.69863e-08 -5.71687e-05
0.000978922 -0.000182151 -1.44315e-05
-0.000182151 -3.27832e-05 5.93864e-06
-1.44315e-05 5.93864e-06 -0.000201859
0.00161585 -0.00032858 5.78986e-06
-0.00032858 0.000195589 -7.54449e-07
5.78986e-06 -7.54449e-07 -1.88383e-05
0.000993805 -0.000203281 1.05398e-07
-0.000203281 -7.48445e-06 9.03766e-08
1.05398e-07 9.03766e-08 -0.000184145
0.00262259 -0.000155559 -4.16383e-05
-0.000155559 0.00118551 1.05431e-05
-4.16383e-05 1.05431e-05 0.00109303
0.00195293 -7.83433e-05 -0.000224092
-7.83433e-05 0.000850211 2.8333e-05
-0.000224092 2.8333e-05 0.000831801
0.001575 -0.000183744 -1.023e-05
-0.000183744 0.000554024 -2.95829e-07
-1.023e-05 -2.95829e-07 0.000445785
0.000963253 -0.000222324 1.33401e-05
-0.000222324 3.89637e-06 -6.42243e-06
1.33401e-05 -6.42243e-06 -0.000183474
0.00638037 1.94718e-05 -6.86886e-06
1.94718e-05 0.00358593 4.38175e-07
-6.86886e-06 4.38175e-07 0.00358779
0.00049348 -0.000229409 2.47388e-05
-0.000229409 -9.84801e-05 -1.71664e-05
2.47388e-05 -1.71664e-05 -0.000216317
0.00627391 6.75862e-05 0.000234784
6.75862e-05 0.00353996 -2.11072e-05
0.000234784 -2.11072e-05 0.00353344
0.00207045 0.00037824 -3.68668e-08
0.00037824 0.000171809 8.05656e-07
-3.68668e-08 8.05656e-07 1.07746e-05
0.00192874 0.000482724 2.1717e-06
0.000482724 0.000249742 4.40003e-06
2.1717e-06 4.40003e-06 1.19046e-05
0.00189509 0.000519897 9.19456e-08
0.000519897 0.000339917 1.98683e-07
9.19456e-08 1.98683e-07 6.10296e-05
0.00143529 0.000378284 -6.09302e-06
0.000378284 0.000184312 2.02793e-07
-6.09302e-06 2.02793e-07 -6.49668e-05
0.00148848 0.000461705 4.68958e-06
0.000461705 0.000225826 -1.09927e-06
4.68958e-06 -1.09927e-06 -7.21594e-05
0.00125667 0.000344481 -3.92216e-07
0.000344481 0.000154689 3.18942e-07
-3.92216e-07 3.18942e-07 -9.66281e-05
0.000844452 0.000209252 -1.17118e-05
0.000209252 2.02777e-05 -5.35459e-06
-1.17118e-05 -5.35459e-06 -0.000165633
0.00130049 0.000314885 5.37245e-06
0.000314885 0.000270251 2.44512e-06
5.37245e-06 2.44512e-06 2.95994e-05
0.000733862 0.000201577 7.93567e-07
0.000201577 2.84762e-05 7.42078e-07
7.93567e-07 7.42078e-07 -0.000163521
0.000589202 0.000207281 -2.57327e-05
0.000207281 -8.82895e-06 -1.72014e-05
-2.57327e-05 -1.72014e-05 -0.00011674
0.000319303 0.000153172 2.45084e-06
0.000153172 -0.000136607 3.26356e-06
2.45084e-06 3.26356e-06 -0.000335587
0.00058417 0.00011405 -1.18663e-06
0.00011405 5.9098e-06 -7.33589e-07
-1.18663e-06 -7.33589e-07 -7.83116e-05
0.00541965 -0.000146551 -0.000188128
-0.000146551 0.00305614 -1.59242e-05
-0.000188128 -1.59242e-05 0.00303809
0.000346819 3.72367e-05 9.81238e-06
3.72367e-05 -0.000114775 1.47405e-05
9.81238e-06 1.47405e-05 -0.000179161
0.00424258 -0.000176228 -9.11206e-06
-0.000176228 0.00233259 8.10771e-07
-9.11206e-06 8.10771e-07 0.00231517
0.003587 -0.000164666 8.19601e-05
-0.000164666 0.00191788 4.58356e-06
8.19601e-05 4.58356e-06 0.00190516
0.00214121 0.000194788 -4.07621e-06
0.000194788 -8.85989e-05 -5.31831e-07
-4.07621e-06 -5.31831e-07 -3.33252e-05
0.00205667 7.27057e-05 2.38158e-05
7.27057e-05 4.90572e-05 -2.77744e-06
2.38158e-05 -2.77744e-06 0.000187704
0.0050251 0.000162604 -0.000108705
0.000162604 0.000524276 -1.31038e-05
-0.000108705 -1.31038e-05 0.000974564
0.00197352 0.000442537 -5.01649e-06
0.000442537 9.32927e-05 1.45073e-06
-5.01649e-06 1.45073e-06 -8.08355e-05
0.00210901 0.00061187 -3.22381e-06
0.00061187 0.000318284 -2.11214e-07
-3.22381e-06 -2.11214e-07 6.13096e-05
0.00163524 0.000620181 -5.93692e-06
0.000620181 0.000167183 -8.69148e-06
-5.93692e-06 -8.69148e-06 -0.000120321
0.00217986 0.000487867 3.07875e-06
0.000487867 0.000277445 1.32723e-06
3.07875e-06 1.32723e-06 7.05949e-05
0.00191685 0.000567012 8.00687e-08
0.000567012 0.000245901 -3.64574e-06
8.00687e-08 -3.64574e-06 -2.13489e-05
0.00229056 0.000367293 -6.77127e-07
0.000367293 0.000110356 1.25191e-07
-6.77127e-07 1.25191e-07 4.10966e-05
0.00184924 0.000510866 1.88924e-08
0.000510866 2.23197e-05 7.00955e-07
1.88924e-08 7.00955e-07 -0.00016832
0.00258512 0.000705961 -5.03712e-06
0.000705961 0.000595694 -9.80685e-07
-5.03712e-06 -9.80685e-07 0.000323493
0.00201042 0.000377564 -4.72753e-07
0.000377564 -4.83228e-05 -5.10217e-07
-4.72753e-07 -5.10217e-07 -0.000104544
0.00211618 0.000656818 1.2667e-05
0.000656818 0.00014923 1.56947e-06
1.2667e-05 1.56947e-06 -5.75706e-05
0.000883248 0.000340936 -3.69312e-05
0.000340936 -0.000399769 -1.52221e-05
-3.69312e-05 -1.52221e-05 -0.000419646
0.0022149 6.99128e-05 -2.32182e-07
6.99128e-05 -8.31162e-06 3.96712e-07
-2.32182e-07 3.96712e-07 2.99191e-05
0.00215357 7.36122e-05 -1.96267e-06
7.36122e-05 -4.13008e-05 2.4476e-07
-1.96267e-06 2.4476e-07 5.26258e-06
0.00315666 -5.44728e-05 -4.0232e-05
-5.44728e-05 0.000903367 2.9743e-06
-4.0232e-05 2.9743e-06 0.000940104
0.00217415 -0.000212092 -1.27374e-05
-0.000212092 -8.04872e-05 2.02677e-06
-1.27374e-05 2.02677e-06 2.17714e-05
0.00228742 -9.34708e-06 -3.2278e-06
-9.34708e-06 -9.01351e-06 -2.25972e-06
-3.2278e-06 -2.25972e-06 1.73487e-05
0.00220281 -7.90014e-05 -6.19338e-07
-7.90014e-05 -5.35694e-05 -9.05239e-08
-6.19338e-07 -9.05239e-08 -7.01574e-06
0.0019989 -6.41404e-05 -8.13475e-07
-6.41404e-05 -4.11456e-06 2.71388e-07
-8.13475e-07 2.71388e-07 -5.71141e-07
0.00212069 -0.000245652 3.62822e-07
-0.000245652 -4.32728e-05 3.63447e-07
3.62822e-07 3.63447e-07 -1.56733e-05
0.00205882 -0.000205671 -1.66559e-07
-0.000205671 -9.37418e-06 -1.04117e-08
-1.66559e-07 -1.04117e-08 -9.5643e-06
0.00202957 -0.000173977 -1.24218e-06
-0.000173977 7.98058e-05 -3.18581e-08
-1.24218e-06 -3.18581e-08 3.05798e-05
0.00202443 -0.000292193 2.03974e-06
-0.000292193 5.12242e-05 -2.95548e-07
2.03974e-06 -2.95548e-07 -2.64569e-06
0.00194694 -0.000251734 2.27687e-07
-0.000251734 6.7035e-05 -1.79472e-07
2.27687e-07 -1.79472e-07 -1.62973e-05
0.00187831 -0.000231475 -4.46005e-07
-0.000231475 7.93252e-05 -9.80963e-07
-4.46005e-07 -9.80963e-07 -3.24121e-05
0.00190077 -0.00031518 1.59999e-06
-0.00031518 9.03496e-05 -2.86548e-07
1.59999e-06 -2.86548e-07 -2.56583e-05
0.00192221 -0.000291952 -3.0667e-07
-0.000291952 0.000150375 -3.14e-08
-3.0667e-07 -3.14e-08 1.23404e-05
0.00164588 -0.000232961 -2.31836e-06
-0.000232961 0.000107559 1.67305e-07
-2.31836e-06 1.67305e-07 -5.71896e-05
0.00192485 -0.000336082 3.23748e-07
-0.000336082 0.000199346 1.20762e-06
3.23748e-07 1.20762e-06 3.51213e-05
0.00163219 -0.000270068 -3.26017e-07
-0.000270068 0.000132548 4.5344e-08
-3.26017e-07 4.5344e-08 -4.90888e-05
0.000996194 -0.000162614 -1.38419e-05
-0.000162614 -3.83348e-05 4.97415e-06
-1.38419e-05 4.97415e-06 -0.000201225
0.00161739 -0.000298403 4.54104e-06
-0.000298403 0.000159905 -6.65658e-07
4.54104e-06 -6.65658e-07 -3.78811e-05
0.0010219 -0.000183089 -4.17434e-09
-0.000183089 -1.0392e-05 1.4958e-07
-4.17434e-09 1.4958e-07 -0.000178814
0.00263945 -0.000155126 -4.97152e-05
-0.000155126 0.00118512 9.99884e-06
-4.97152e-05 9.99884e-06 0.00110059
0.00103033 -0.000205001 1.43171e-05
-0.000205001 1.20308e-05 -6.2875e-06
1.43171e-05 -6.2875e-06 -0.000164464
0.00276053 -0.000196129 4.40919e-05
-0.000196129 0.00126905 -6.45337e-06
4.40919e-05 -6.45337e-06 0.00118349
0.002017 -0.000116792 -0.000226687
-0.000116792 0.000895714 3.30515e-05
-0.000226687 3.30515e-05 0.000875258
0.00407934 -7.65213e-05 -0.000222136
-7.65213e-05 0.00217327 1.97556e-05
-0.000222136 1.97556e-05 0.002165
0.00284787 -0.000251587 0.000142292
-0.000251587 0.00133583 -2.18451e-05
0.000142292 -2.18451e-05 0.00125048
0.00642735 4.13966e-06 0.00025049
4.13966e-06 0.00362357 -2.50591e-05
0.00025049 -2.50591e-05 0.00362132
0.00227822 0.000377906 -2.33361e-06
0.000377906 0.000290857 -1.41218e-07
-2.33361e-06 -1.41218e-07 0.000152859
0.00175896 0.000370958 2.78158e-06
0.000370958 9.5084e-05 1.65941e-06
2.78158e-06 1.65941e-06 -9.46236e-05
0.00204982 0.000370065 5.42093e-07
0.000370065 0.00016343 -1.77956e-06
5.42093e-07 -1.77956e-06 9.22158e-06
0.00158806 0.000372032 -4.98531e-06
0.000372032 0.000175394 8.35062e-07
-4.98531e-06 8.35062e-07 -5.52938e-05
0.00200969 0.000488089 5.99161e-07
0.000488089 0.000285958 4.12195e-07
5.99161e-07 4.12195e-07 4.73853e-05
0.00216785 0.000544533 1.71715e-06
0.000544533 0.000497897 -3.09599e-06
1.71715e-06 -3.09599e-06 0.000217334
0.00141331 0.000378894 1.58571e-07
0.000378894 0.000165032 3.38039e-07
1.58571e-07 3.38039e-07 -8.55987e-05
0.000908505 0.000229125 -1.35713e-05
0.000229125 -1.00545e-05 -5.61878e-06
-1.35713e-05 -5.61878e-06 -0.000197492
0.00129453 0.000347573 8.13152e-06
0.000347573 0.000178328 2.18828e-06
8.13152e-06 2.18828e-06 -7.40329e-05
0.000774671 0.000203088 -2.60615e-07
0.000203088 -2.32121e-05 -1.95706e-07
-2.60615e-07 -1.95706e-07 -0.000206491
0.00047859 0.000232519 -2.57846e-05
0.000232519 -9.10666e-05 -1.7764e-05
-2.57846e-05 -1.7764e-05 -0.00020773
0.000334413 0.000176111 6.86838e-06
0.000176111 -0.000217771 3.55393e-06
6.86838e-06 3.55393e-06 -0.000405544
0.000420216 0.000177094 2.17092e-06
0.000177094 -0.000115236 4.6574e-07
2.17092e-06 4.6574e-07 -0.000215907
0.00613712 -0.000112401 -0.00021648
-0.000112401 0.00348879 -2.15005e-05
-0.00021648 -2.15005e-05 0.00346869
0.000337616 8.14699e-05 1.62251e-05
8.14699e-05 -0.000141642 1.52629e-05
1.62251e-05 1.52629e-05 -0.000219894
0.00505785 -0.000176813 -6.61472e-06
-0.000176813 0.00283408 -2.33871e-07
-6.61472e-06 -2.33871e-07 0.00281393
0.00401954 -0.000190466 9.65629e-05
-0.000190466 0.00219934 5.76536e-06
9.65629e-05 5.76536e-06 0.00217812
0.00223638 0.000220737 -8.36954e-07
0.000220737 4.64839e-06 3.3432e-07
-8.36954e-07 3.3432e-07 2.46279e-05
0.00207748 0.000199409 1.23617e-06
0.000199409 -0.000117797 6.51544e-08
1.23617e-06 6.51544e-08 -6.39131e-05
0.00296055 4.76981e-05 -7.96532e-05
4.76981e-05 0.000503918 -1.24256e-05
-7.96532e-05 -1.24256e-05 0.000643368
0.00202395 0.000320011 -5.86133e-07
0.000320011 4.45983e-05 2.27363e-07
-5.86133e-07 2.27363e-07 -5.54945e-05
0.00200241 0.00044252 -1.86705e-07
0.00044252 0.000131714 4.2822e-07
-1.86705e-07 4.2822e-07 -4.27131e-05
0.00162976 0.000560804 4.21706e-06
0.000560804 6.27156e-05 -1.9625e-06
4.21706e-06 -1.9625e-06 -0.00018679
0.00231179 0.000482629 4.68147e-07
0.000482629 0.000375046 -2.99044e-06
4.68147e-07 -2.99044e-06 0.000171176
0.00219863 0.000354287 -7.3911e-07
0.000354287 6.47285e-05 2.93952e-08
-7.3911e-07 2.93952e-08 -2.46115e-06
0.00183873 0.000511696 -2.78669e-06
0.000511696 4.30552e-05 3.67306e-07
-2.78669e-06 3.67306e-07 -0.000148489
0.00192413 0.000367556 1.1004e-05
0.000367556 -6.60061e-05 -9.05341e-08
1.1004e-05 -9.05341e-08 -0.00012076
0.00205273 5.81994e-05 7.69989e-07
5.81994e-05 2.34554e-07 5.18747e-07
7.69989e-07 5.18747e-07 1.29725e-05
0.00215877 6.69985e-05 9.50259e-08
6.69985e-05 -3.1328e-05 3.89336e-09
9.50259e-08 3.89336e-09 4.57805e-06
0.00227681 8.86508e-05 -7.5729e-06
8.86508e-05 5.27334e-05 -1.40763e-07
-7.5729e-06 -1.40763e-07 9.40342e-05
0.00192528 -1.20236e-05 -4.23597e-06
-1.20236e-05 1.27923e-05 5.51197e-07
-4.23597e-06 5.51197e-07 -4.99596e-07
0.00216585 -9.01246e-05 1.48466e-06
-9.01246e-05 -9.41364e-05 -6.67081e-07
1.48466e-06 -6.67081e-07 -3.99402e-05
0.00201672 -6.69225e-05 -8.46437e-07
-6.69225e-05 1.86828e-06 3.30101e-07
-8.46437e-07 3.30101e-07 6.52102e-06
0.00197147 -0.000100589 -3.90619e-06
-0.000100589 3.55588e-05 2.68214e-07
-3.90619e-06 2.68214e-07 3.88997e-06
0.00201687 -0.000209124 1.43608e-06
-0.000209124 -2.58581e-05 1.08422e-07
1.43608e-06 1.08422e-07 -3.16686e-05
0.00198569 -0.000171282 1.68968e-06
-0.000171282 5.18527e-05 -3.87437e-07
1.68968e-06 -3.87437e-07 3.09352e-06
0.00191472 -0.000160512 1.76787e-06
-0.000160512 8.20424e-05 -1.45939e-06
1.76787e-06 -1.45939e-06 -7.7e-06
0.00188824 -0.000247977 2.07424e-06
-0.000247977 2.62443e-05 -6.39014e-07
2.07424e-06 -6.39014e-07 -5.7083e-05
0.00194432 -0.000232699 -2.05554e-07
-0.000232699 0.000120384 -1.54753e-07
-2.05554e-07 -1.54753e-07 8.72286e-06
0.00168473 -0.000184528 -1.42427e-06
-0.000184528 0.000107072 -1.83358e-07
-1.42427e-06 -1.83358e-07 -3.95427e-05
0.00196241 -0.000293796 4.04925e-07
-0.000293796 0.000175718 9.80305e-07
4.04925e-07 9.80305e-07 3.74932e-05
0.00166703 -0.000233371 -2.61854e-07
-0.000233371 0.000119182 9.02043e-08
-2.61854e-07 9.02043e-08 -4.50805e-05
0.00101644 -0.000140188 -1.31165e-05
-0.000140188 -4.02902e-05 3.86364e-06
-1.31165e-05 3.86364e-06 -0.00019631
0.00166321 -0.000271849 2.72689e-06
-0.000271849 0.000150342 -3.91254e-07
2.72689e-06 -3.91254e-07 -3.09987e-05
0.00104007 -0.000162571 -1.37631e-07
-0.000162571 -1.54456e-05 2.35013e-07
-1.37631e-07 2.35013e-07 -0.000177373
0.00263336 -0.000154366 -5.73487e-05
-0.000154366 0.00117821 9.7906e-06
-5.73487e-05 9.7906e-06 0.00109675
0.00106555 -0.000184093 1.43645e-05
-0.000184093 1.21967e-05 -5.65227e-06
1.43645e-05 -5.65227e-06 -0.000155523
0.00272437 -0.000179946 4.03274e-05
-0.000179946 0.00123693 -5.15907e-06
4.03274e-05 -5.15907e-06 0.00115835
0.00205441 -0.000100346 -0.000221639
-0.000100346 0.000911638 2.91304e-05
-0.000221639 2.91304e-05 0.000893306
0.0028796 -0.000206252 0.000138765
-0.000206252 0.00133775 -2.31608e-05
0.000138765 -2.31608e-05 0.00126018
0.00172227 -5.54317e-05 -9.5057e-05
-5.54317e-05 0.000717764 1.28708e-05
-9.5057e-05 1.28708e-05 0.000686115
0.00607352 7.28458e-05 6.71914e-05
7.28458e-05 0.00338966 -2.87501e-06
6.71914e-05 -2.87501e-06 0.00336922
0.00201401 0.000315741 9.70602e-07
0.000315741 0.000108998 5.79106e-07
9.70602e-07 5.79106e-07 -1.18316e-05
0.00205982 0.000349768 3.02852e-07
0.000349768 0.000228984 -1.7472e-07
3.02852e-07 -1.7472e-07 6.74313e-05
0.00214636 0.00037316 -3.91778e-06
0.00037316 0.000201169 -8.70659e-08
-3.91778e-06 -8.70659e-08 6.03762e-05
0.00178102 0.000335495 -2.19325e-06
0.000335495 0.000232299 4.10897e-07
-2.19325e-06 4.10897e-07 2.81373e-05
0.00176223 0.000376917 -4.71759e-07
0.000376917 8.1693e-05 -1.88307e-06
-4.71759e-07 -1.88307e-06 -0.000104778
0.002033 0.000362215 -3.78327e-06
0.000362215 0.00015735 -5.50653e-06
-3.78327e-06 -5.50653e-06 9.93224e-06
0.00102975 0.000229349 -1.47305e-05
0.000229349 3.72616e-06 -5.27858e-06
-1.47305e-05 -5.27858e-06 -0.000178
0.0015413 0.000369421 5.26911e-07
0.000369421 0.000145996 3.63071e-07
5.26911e-07 3.63071e-07 -8.51914e-05
0.00209002 0.00049311 2.83724e-06
0.00049311 0.000320974 -3.1408e-06
2.83724e-06 -3.1408e-06 8.17719e-05
0.00137705 0.000377863 7.11184e-06
0.000377863 0.000138167 7.52599e-07
7.11184e-06 7.52599e-07 -0.000113481
0.000872576 0.000222379 -8.84782e-07
0.000222379 -2.55942e-05 3.54959e-08
-8.84782e-07 3.54959e-08 -0.000210885
0.000443206 0.000230134 -2.5043e-05
0.000230134 -0.000117413 -1.69125e-05
-2.5043e-05 -1.69125e-05 -0.000238252
0.000643999 0.000190978 1.14495e-05
0.000190978 -0.000102692 5.21313e-06
1.14495e-05 5.21313e-06 -0.000282383
0.000435219 0.000218371 2.21853e-06
0.000218371 -0.000111953 5.76677e-07
2.21853e-06 5.76677e-07 -0.000229122
0.0064169 -2.8609e-05 -0.000238215
-2.8609e-05 0.00364434 -2.70337e-05
-0.000238215 -2.70337e-05 0.00362923
0.00048157 0.000161029 2.29893e-05
0.000161029 -8.1477e-05 1.71364e-05
2.29893e-05 1.71364e-05 -0.000178416
0.00591868 -0.00014692 3.18386e-06
-0.00014692 0.00335173 -1.17504e-06
3.18386e-06 -1.17504e-06 0.00333297
0.00474652 -0.000227547 0.000117881
-0.000227547 0.00266201 8.29559e-06
0.000117881 8.29559e-06 0.00262844
0.00204237 0.000174999 -1.33486e-06
0.000174999 2.41575e-05 7.78407e-09
-1.33486e-06 7.78407e-09 -6.35592e-07
0.0022164 0.000223031 1.7609e-07
0.000223031 -1.56234e-05 5.71217e-07
1.7609e-07 5.71217e-07 6.8486e-06
0.00208425 0.000204364 4.00589e-06
0.000204364 -0.000119467 2.6355e-07
4.00589e-06 2.6355e-07 -6.64048e-05
0.00206107 0.000317189 -1.4567e-07
0.000317189 7.3821e-05 8.93242e-08
-1.4567e-07 8.93242e-08 -2.24372e-05
0.00200845 0.000440244 1.02835e-06
0.000440244 0.000158718 -6.33744e-07
1.02835e-06 -6.33744e-07 -1.57101e-05
0.00213377 0.000342978 1.34196e-06
0.000342978 3.07033e-05 -3.67711e-07
1.34196e-06 -3.67711e-07 -3.45901e-05
0.0019701 5.88928e-05 -2.23384e-06
5.88928e-05 1.65777e-05 3.93918e-07
-2.23384e-06 3.93918e-07 7.22276e-06
0.00203939 5.37967e-05 3.58178e-07
5.37967e-05 -3.44896e-06 -8.5578e-08
3.58178e-07 -8.5578e-08 6.55347e-06
0.00210593 6.42674e-05 2.72678e-07
6.42674e-05 -5.37064e-05 -4.05564e-07
2.72678e-07 -4.05564e-07 -1.94798e-05
0.00193037 -1.29533e-05 -1.27772e-06
-1.29533e-05 1.27542e-05 7.62025e-08
-1.27772e-06 7.62025e-08 -9.93727e-07
0.00189129 -3.95896e-05 -5.80196e-06
-3.95896e-05 7.3441e-06 5.90163e-07
-5.80196e-06 5.90163e-07 -2.97803e-05
0.00203478 -6.94385e-05 1.01327e-06
-6.94385e-05 7.57355e-06 -5.35118e-08
1.01327e-06 -5.35118e-08 1.3614e-05
0.00194587 -9.94278e-05 -1.47885e-06
-9.94278e-05 2.4891e-05 2.78657e-07
-1.47885e-06 2.78657e-07 -9.9072e-06
0.00195424 -0.000101376 -3.01225e-06
-0.000101376 0.000100387 1.44598e-07
-3.01225e-06 1.44598e-07 2.973e-05
0.00194633 -0.000169145 4.36118e-06
-0.000169145 2.75966e-05 -7.06712e-07
4.36118e-06 -7.06712e-07 -2.08078e-05
0.00192398 -0.000162484 2.62814e-06
-0.000162484 8.42323e-05 -9.22338e-07
2.62814e-06 -9.22338e-07 -5.60278e-06
0.00168244 -0.0001319 1.19435e-06
-0.0001319 9.20583e-05 -6.72072e-07
1.19435e-06 -6.72072e-07 -3.96085e-05
0.00199738 -0.000235166 7.17071e-07
-0.000235166 0.00015262 5.43371e-07
7.17071e-07 5.43371e-07 4.07196e-05
0.00167953 -0.000185002 -1.97963e-07
-0.000185002 9.99703e-05 4.7755e-09
-1.97963e-07 4.7755e-09 -4.64553e-05
0.00103141 -0.000112132 -1.25733e-05
-0.000112132 -4.13873e-05 2.82941e-06
-1.25733e-05 2.82941e-06 -0.000189217
0.00169215 -0.000234139 1.52957e-06
-0.000234139 0.00013214 2.00864e-08
1.52957e-06 2.00864e-08 -3.16814e-05
0.00105111 -0.000138975 -2.62777e-07
-0.000138975 -2.17486e-05 2.70174e-07
-2.62777e-07 2.70174e-07 -0.000176771
0.0025843 -0.000159556 -6.01976e-05
-0.000159556 0.00114718 8.64192e-06
-6.01976e-05 8.64192e-06 0.00106718
0.00108389 -0.000162559 1.38034e-05
-0.000162559 7.16836e-06 -4.60022e-06
1.38034e-05 -4.60022e-06 -0.000153771
0.00269495 -0.000156977 3.87294e-05
-0.000156977 0.00121157 -3.92058e-06
3.87294e-05 -3.92058e-06 0.00113724
0.00207854 -8.44319e-05 -0.000220628
-8.44319e-05 0.000919613 2.46789e-05
-0.000220628 2.46789e-05 0.000902486
0.00280937 -0.000174534 0.000136065
-0.000174534 0.0012824 -1.98251e-05
0.000136065 -1.98251e-05 0.00121266
0.00172041 -6.21824e-05 -8.62015e-05
-6.21824e-05 0.000711174 1.05012e-05
-8.62015e-05 1.05012e-05 0.000682215
0.001468 -5.26025e-05 5.02141e-05
-5.26025e-05 0.000570068 -7.6604e-06
5.02141e-05 -7.6604e-06 0.000525724
0.00202044 0.000200357 -3.85231e-07
0.000200357 8.97753e-05 9.86081e-07
-3.85231e-07 9.86081e-07 1.55463e-05
0.00200303 0.000290433 -6.32078e-07
0.000290433 0.000162421 7.20637e-07
-6.32078e-07 7.20637e-07 2.29796e-05
0.00200393 0.000316745 -1.3883e-07
0.000316745 8.70751e-05 1.50416e-07
-1.3883e-07 1.50416e-07 -2.90698e-05
0.00188511 0.000306745 -1.10553e-06
0.000306745 0.000247366 4.12314e-07
-1.10553e-06 4.12314e-07 6.72843e-05
0.00199323 0.000344081 -5.32085e-07
0.000344081 0.000196736 -2.97398e-07
-5.32085e-07 -2.97398e-07 3.35638e-05
0.00200974 0.000368537 3.31946e-07
0.000368537 0.000108664 -2.86727e-07
3.31946e-07 -2.86727e-07 -3.5016e-05
0.00109759 0.00021031 -1.52517e-05
0.00021031 1.67991e-05 -4.88592e-06
-1.52517e-05 -4.88592e-06 -0.00015513
0.00169247 0.000334694 2.74957e-06
0.000334694 0.00017057 2.26853e-07
2.74957e-06 2.26853e-07 -3.18002e-05
0.00177723 0.000383758 -8.67847e-07
0.000383758 7.58347e-05 -3.55057e-06
-8.67847e-07 -3.55057e-06 -0.000107522
0.000363836 0.000184258 -2.24388e-05
0.000184258 -0.000185703 -1.41079e-05
-2.24388e-05 -1.41079e-05 -0.000298254
0.000980291 0.00022388 -5.48527e-07
0.00022388 -2.12339e-05 9.26418e-08
-5.48527e-07 9.26418e-08 -0.000201895
0.00150075 0.000367644 6.72469e-06
0.000367644 0.000119573 8.43416e-08
6.72469e-06 8.43416e-08 -0.000112308
0.000870537 0.000218658 1.36706e-05
0.000218658 -2.0972e-05 6.33791e-06
1.36706e-05 6.33791e-06 -0.000204663
0.000434628 0.0002144 9.75869e-07
0.0002144 -0.000119714 8.72392e-07
9.75869e-07 8.72392e-07 -0.000241667
0.00656931 7.13209e-05 -0.000253465
7.13209e-05 0.00371837 -3.09361e-05
-0.000253465 -3.09361e-05 0.00370882
0.000409297 0.000202597 2.28812e-05
0.000202597 -0.000126027 1.6814e-05
2.28812e-05 1.6814e-05 -0.000241706
0.00631157 -5.60091e-05 6.77748e-06
-5.60091e-05 0.00356769 -4.71174e-07
6.77748e-06 -4.71174e-07 0.00355965
0.00561687 -0.00017771 0.000168455
-0.00017771 0.00316618 9.14506e-06
0.000168455 9.14506e-06 0.00314588
0.00199617 0.000119113 -4.58207e-06
0.000119113 5.95872e-05 -9.92347e-07
-4.58207e-06 -9.92347e-07 3.13178e-05
0.00203367 0.000177357 9.48407e-07
0.000177357 1.86767e-05 4.00513e-07
9.48407e-07 4.00513e-07 -5.53652e-06
0.00218329 0.000225437 1.4145e-07
0.000225437 -4.11252e-05 -6.42855e-07
1.4145e-07 -6.42855e-07 -1.66308e-05
0.00210478 0.000313944 3.09377e-06
0.000313944 0.000107306 -9.33196e-08
3.09377e-06 -9.33196e-08 1.50056e-05
0.00183122 8.04511e-06 -4.47129e-06
8.04511e-06 -5.07293e-06 5.02613e-07
-4.47129e-06 5.02613e-07 -5.14904e-05
0.00194819 4.9419e-05 1.42402e-07
4.9419e-05 3.83806e-06 8.25174e-08
1.42402e-07 8.25174e-08 -7.06392e-06
0.00202655 4.93546e-05 -4.44131e-08
4.93546e-05 -5.87228e-06 -3.56969e-07
-4.44131e-08 -3.56969e-07 7.3568e-07
0.00193735 -1.23928e-05 1.52273e-06
-1.23928e-05 1.42009e-05 -7.19155e-07
1.52273e-06 -7.19155e-07 -2.31751e-07
0.00190122 -3.459e-05 -1.11444e-06
-3.459e-05 1.39149e-05 -9.71095e-08
-1.11444e-06 -9.71095e-08 -2.22477e-05
0.00188555 -4.42845e-05 -1.34631e-06
-4.42845e-05 6.41795e-05 1.29296e-07
-1.34631e-06 1.29296e-07 -7.98539e-06
0.00191717 -9.83756e-05 2.5935e-06
-9.83756e-05 1.19014e-05 1.14587e-07
2.5935e-06 1.14587e-07 -2.6206e-05
0.00189311 -0.000101304 -1.63588e-06
-0.000101304 6.48013e-05 6.21451e-07
-1.63588e-06 6.21451e-07 -1.27205e-05
0.00178343 -8.25288e-05 -6.43672e-07
-8.25288e-05 0.000150249 -1.4701e-07
-6.43672e-07 -1.4701e-07 3.64886e-05
0.0019521 -0.000163585 4.25309e-06
-0.000163585 9.78655e-05 -4.83417e-07
4.25309e-06 -4.83417e-07 8.23721e-06
0.00167107 -0.00012942 1.70051e-06
-0.00012942 8.332e-05 -5.25988e-07
1.70051e-06 -5.25988e-07 -4.77415e-05
0.00102259 -8.09153e-05 -1.22132e-05
-8.09153e-05 -5.06747e-05 2.10076e-06
-1.22132e-05 2.10076e-06 -0.000190831
0.00168587 -0.000183477 9.80083e-07
-0.000183477 0.000101399 1.61008e-07
9.80083e-07 1.61008e-07 -4.44121e-05
0.00103765 -0.000111048 -1.35719e-07
-0.000111048 -3.69753e-05 1.38625e-07
-1.35719e-07 1.38625e-07 -0.000184204
0.000485241 -8.69524e-05 -2.00039e-05
-8.69524e-05 -0.000159121 5.5702e-06
-2.00039e-05 5.5702e-06 -0.000246193
0.0010829 -0.000137541 1.30673e-05
-0.000137541 -4.57581e-06 -3.42194e-06
1.30673e-05 -3.42194e-06 -0.000158552
0.00158126 -0.000103647 5.63759e-05
-0.000103647 0.000518578 -4.05316e-06
5.63759e-05 -4.05316e-06 0.000441488
0.00615054 -0.000145397 -0.000290602
-0.000145397 0.00343163 2.03007e-05
-0.000290602 2.03007e-05 0.00344486
0.00277244 -0.000141352 0.000134141
-0.000141352 0.00124959 -1.58374e-05
0.000134141 -1.58374e-05 0.0011848
0.0017297 -6.52693e-05 -7.79212e-05
-6.52693e-05 0.000714894 6.92078e-06
-7.79212e-05 6.92078e-06 0.000685895
0.0013856 -8.3835e-05 6.17813e-05
-8.3835e-05 0.00052314 -9.15931e-06
6.17813e-05 -9.15931e-06 0.000477634
0.00199751 0.00015045 -2.44874e-06
0.00015045 0.0001031 1.01532e-07
-2.44874e-06 1.01532e-07 4.19654e-05
0.00198187 0.000213425 3.01411e-07
0.000213425 0.000135377 1.52836e-06
3.01411e-07 1.52836e-06 2.51211e-05
0.00200157 0.000196179 9.69923e-07
0.000196179 8.27913e-05 5.18985e-07
9.69923e-07 5.18985e-07 6.09488e-06
0.00178741 0.000247795 -1.01411e-06
0.000247795 0.000157434 6.88203e-07
-1.01411e-06 6.88203e-07 -3.40599e-07
0.00195496 0.000285568 6.86307e-07
0.000285568 0.000136013 6.00787e-08
6.86307e-07 6.00787e-08 -2.78541e-06
0.0019944 0.000318326 7.43232e-07
0.000318326 6.49113e-05 1.4723e-07
7.43232e-07 1.4723e-07 -4.66295e-05
0.00100715 0.000180153 -1.59839e-05
0.000180153 -6.26235e-05 -3.87864e-06
-1.59839e-05 -3.87864e-06 -0.000224068
0.00188742 0.000306053 2.52785e-06
0.000306053 0.000248278 6.34177e-07
2.52785e-06 6.34177e-07 6.86125e-05
0.0019149 0.000337465 -1.18407e-06
0.000337465 0.000157802 -1.26275e-06
-1.18407e-06 -1.26275e-06 -6.8907e-06
0.000368317 0.000131787 -1.94864e-05
0.000131787 -0.000206907 -1.05414e-05
-1.94864e-05 -1.05414e-05 -0.000307449
0.000962818 0.000203488 3.71894e-07
0.000203488 -6.68468e-05 3.51889e-07
3.71894e-07 3.51889e-07 -0.000238251
0.00159213 0.000332983 7.55821e-06
0.000332983 0.000101367 -2.49386e-07
7.55821e-06 -2.49386e-07 -9.90242e-05
0.00652803 0.000152835 -0.000264496
0.000152835 0.00367385 -3.06967e-05
-0.000264496 -3.06967e-05 0.00367167
0.00039153 0.000175677 4.87822e-07
0.000175677 -0.000169521 7.76226e-07
4.87822e-07 7.76226e-07 -0.000282977
0.000922004 0.000217911 1.4843e-05
0.000217911 -5.10979e-05 5.80387e-06
1.4843e-05 5.80387e-06 -0.000230634
0.000372025 0.000198148 2.10241e-05
0.000198148 -0.000154333 1.6759e-05
2.10241e-05 1.6759e-05 -0.000277173
0.00644516 6.04128e-05 9.84868e-06
6.04128e-05 0.00363445 4.19803e-07
9.84868e-06 4.19803e-07 0.00363183
0.00621657 -8.82016e-05 0.000222567
-8.82016e-05 0.00350128 1.28813e-05
0.000222567 1.28813e-05 0.00349721
0.00190575 6.39441e-05 -7.21883e-06
6.39441e-05 4.52915e-05 -8.75362e-08
-7.21883e-06 -8.75362e-08 -5.02102e-06
0.00197314 0.000116113 2.33077e-07
0.000116113 4.24249e-05 5.24244e-08
2.33077e-07 5.24244e-08 1.41231e-05
0.00202313 0.000179803 1.73252e-06
0.000179803 1.18229e-05 3.60741e-07
1.73252e-06 3.60741e-07 -1.13891e-05
0.00181186 1.80554e-06 -8.58432e-07
1.80554e-06 2.89868e-05 -8.06728e-09
-8.58432e-07 -8.06728e-09 -4.85649e-05
0.00188294 1.31935e-05 5.21169e-08
1.31935e-05 2.6704e-05 3.99401e-08
5.21169e-08 3.99401e-08 -1.64258e-05
0.00192718 3.87835e-05 1.70324e-06
3.87835e-05 -8.47838e-06 -4.6106e-07
1.70324e-06 -4.6106e-07 -2.08106e-05
0.00190943 -3.04572e-05 2.71149e-06
-3.04572e-05 1.91027e-05 -4.5092e-07
2.71149e-06 -4.5092e-07 -1.58089e-05
0.00186002 -4.26885e-05 -8.75541e-07
-4.26885e-05 4.79077e-05 2.11086e-07
-8.75541e-07 2.11086e-07 -2.33128e-05
0.00185787 -3.60549e-05 1.82733e-06
-3.60549e-05 0.000211661 -5.24539e-07
1.82733e-06 -5.24539e-07 0.000101774
0.00181934 -0.000100788 -1.30291e-06
-0.000100788 2.16866e-05 8.8927e-07
-1.30291e-06 8.8927e-07 -6.25484e-05
0.00174755 -8.299e-05 4.4725e-07
-8.299e-05 0.000132388 3.84258e-08
4.4725e-07 3.84258e-08 1.34574e-05
0.000952615 -4.53305e-05 -1.3134e-05
-4.53305e-05 -9.89395e-05 1.19666e-06
-1.3134e-05 1.19666e-06 -0.000230189
0.00164743 -0.000128865 1.95356e-06
-0.000128865 6.67485e-05 -3.88208e-07
1.95356e-06 -3.88208e-07 -6.40977e-05
0.00102597 -7.72148e-05 -5.20821e-08
-7.72148e-05 -4.84366e-05 1.11348e-07
-5.20821e-08 1.11348e-07 -0.000187868
0.000488459 -2.22462e-05 -1.85671e-05
-2.22462e-05 -0.000161063 3.46603e-06
-1.85671e-05 3.46603e-06 -0.000244076
0.00106335 -0.000109483 1.2325e-05
-0.000109483 -2.19905e-05 -2.56685e-06
1.2325e-05 -2.56685e-06 -0.000168426
0.000489785 -7.10266e-05 -2.02945e-07
-7.10266e-05 -0.000154774 3.83028e-07
-2.02945e-07 3.83028e-07 -0.000242788
0.00610421 -3.86916e-05 -0.000280757
-3.86916e-05 0.00339865 1.23921e-05
-0.000280757 1.23921e-05 0.0034157
0.000524584 -7.29764e-05 1.5221e-05
-7.29764e-05 -0.000134435 -7.44258e-06
1.5221e-05 -7.44258e-06 -0.000226252
0.00386163 -9.49988e-05 0.000126119
-9.49988e-05 0.00202819 -5.91751e-06
0.000126119 -5.91751e-06 0.0020124
0.00135062 -8.28914e-05 6.78622e-05
-8.28914e-05 0.000502104 -9.2825e-06
6.78622e-05 -9.2825e-06 0.000456198
0.00185052 0.000114625 -5.46383e-06
0.000114625 2.26738e-05 -2.1844e-07
-5.46383e-06 -2.1844e-07 -4.11956e-05
0.00195074 0.000154713 6.27621e-07
0.000154713 0.000119038 2.05579e-06
6.27621e-07 2.05579e-06 2.24935e-05
0.00195817 0.000145055 -3.87038e-07
0.000145055 7.60393e-05 -5.34682e-09
-3.87038e-07 -5.34682e-09 1.52072e-05
0.00170936 0.000183868 -3.85366e-07
0.000183868 9.88316e-05 7.65357e-07
-3.85366e-07 7.65357e-07 -4.55138e-05
0.00196742 0.000212724 4.32113e-07
0.000212724 0.000123812 1.30203e-07
4.32113e-07 1.30203e-07 1.20636e-05
0.00198309 0.000191708 2.16475e-06
0.000191708 7.60347e-05 -2.96722e-08
2.16475e-06 -2.96722e-08 -3.17378e-06
0.00100613 0.000147415 -1.45972e-05
0.000147415 -7.48642e-05 -2.87437e-06
-1.45972e-05 -2.87437e-06 -0.000226168
0.00179824 0.000246162 8.9732e-07
0.000246162 0.000169506 4.7811e-07
8.9732e-07 4.7811e-07 8.79088e-06
0.00190711 0.000280645 -2.12554e-07
0.000280645 0.000109714 -9.5915e-07
-2.12554e-07 -9.5915e-07 -2.83922e-05
0.000393697 9.37726e-05 -1.81384e-05
9.37726e-05 -0.000209307 -7.54593e-06
-1.81384e-05 -7.54593e-06 -0.000301422
0.00094189 0.000176288 -1.81401e-06
0.000176288 -0.000101018 -4.1912e-08
-1.81401e-06 -4.1912e-08 -0.000262156
0.0018951 0.000305817 6.21016e-06
0.000305817 0.000252492 9.28855e-07
6.21016e-06 9.28855e-07 7.31571e-05
0.00639606 0.00021841 -0.000281656
0.00021841 0.00358798 -2.96532e-05
-0.000281656 -2.96532e-05 0.00358928
0.000399978 0.000129673 2.08483e-08
0.000129673 -0.000189126 4.2053e-07
2.08483e-08 4.2053e-07 -0.000290162
0.000835582 0.000197496 1.46387e-05
0.000197496 -0.000146237 4.85536e-06
1.46387e-05 4.85536e-06 -0.000317211
0.00645972 0.000168544 1.35508e-05
0.000168544 0.00363763 2.74579e-06
1.35508e-05 2.74579e-06 0.0036344
0.000407526 0.000165893 1.99369e-05
0.000165893 -0.000160499 1.39518e-05
1.99369e-05 1.39518e-05 -0.00027468
0.00632986 2.56206e-05 0.00024771
2.56206e-05 0.00355218 1.92234e-05
0.00024771 1.92234e-05 0.00355705
0.00183789 4.39803e-05 -1.97437e-06
4.39803e-05 3.33136e-05 5.71381e-08
-1.97437e-06 5.71381e-08 -4.48027e-05
0.00191104 6.60576e-05 -1.02858e-06
6.60576e-05 5.81864e-05 -1.51802e-07
-1.02858e-06 -1.51802e-07 6.45386e-06
0.00194669 0.000113101 4.0039e-06
0.000113101 2.34561e-05 5.30984e-07
4.0039e-06 5.30984e-07 -4.88962e-06
0.00182354 -3.918e-06 2.24457e-06
-3.918e-06 0.000190097 -4.85087e-07
2.24457e-06 -4.85087e-07 8.21878e-05
0.00180342 2.23826e-06 -1.39345e-06
2.23826e-06 2.0825e-05 2.22405e-07
-1.39345e-06 2.22405e-07 -5.42354e-05
0.00193005 1.96472e-05 6.43732e-06
1.96472e-05 5.54373e-05 -2.89558e-07
6.43732e-06 -2.89558e-07 1.55373e-05
0.00183284 -4.1456e-05 -6.49498e-07
-4.1456e-05 3.08824e-05 4.5885e-07
-6.49498e-07 4.5885e-07 -3.96141e-05
0.00183031 -3.4946e-05 3.21042e-06
-3.4946e-05 0.000192963 -2.46906e-07
3.21042e-06 -2.46906e-07 8.3329e-05
0.000939116 -1.70668e-05 -1.28607e-05
-1.70668e-05 -0.000102795 3.14011e-07
-1.28607e-05 3.14011e-07 -0.000229322
0.00171679 -8.37307e-05 2.82442e-07
-8.37307e-05 0.00011761 2.09195e-07
2.82442e-07 2.09195e-07 -6.53235e-06
0.000984651 -4.52764e-05 -1.1701e-06
-4.52764e-05 -7.79219e-05 8.40866e-08
-1.1701e-06 8.40866e-08 -0.000210335
0.000494403 -7.56513e-06 -1.88465e-05
-7.56513e-06 -0.000159323 2.18042e-06
-1.88465e-05 2.18042e-06 -0.000239919
0.001031 -7.47614e-05 1.17302e-05
-7.47614e-05 -4.45216e-05 -1.87563e-06
1.17302e-05 -1.87563e-06 -0.000183371
0.000469322 -3.4339e-05 8.34301e-07
-3.4339e-05 -0.000173353 -1.66407e-07
8.34301e-07 -1.66407e-07 -0.000255475
0.0059852 -0.000135503 -0.000285662
-0.000135503 0.00333867 1.35123e-05
-0.000285662 1.35123e-05 0.00335077
0.000458486 -5.43191e-05 1.79864e-05
-5.43191e-05 -0.000173828 -4.33706e-06
1.79864e-05 -4.33706e-06 -0.000261447
0.00606171 -7.48699e-05 7.58755e-06
-7.48699e-05 0.00337476 -6.88137e-08
7.58755e-06 -6.88137e-08 0.00339154
0.00168749 -2.92088e-05 0.000223186
-2.92088e-05 0.000680205 -1.3867e-05
0.000223186 -1.3867e-05 0.000669299
0.00182178 0.0001032 -7.30314e-07
0.0001032 2.6514e-05 5.75879e-07
-7.30314e-07 5.75879e-07 -6.47033e-05
0.00188473 0.000118866 -3.31627e-06
0.000118866 4.05032e-05 -8.42181e-07
-3.31627e-06 -8.42181e-07 -2.06041e-05
0.00169465 0.000126021 5.04965e-07
0.000126021 8.57185e-05 9.55872e-07
5.04965e-07 9.55872e-07 -4.37129e-05
0.00194922 0.000153672 8.47686e-07
0.000153672 0.000116027 2.03386e-07
8.47686e-07 2.03386e-07 1.96756e-05
0.00192044 0.000139806 3.04759e-06
0.000139806 4.91371e-05 -5.28969e-07
3.04759e-06 -5.28969e-07 -1.13829e-05
0.00109883 0.000110938 -1.27008e-05
0.000110938 -1.29302e-05 -1.97075e-06
-1.27008e-05 -1.97075e-06 -0.00015591
0.00170693 0.00018279 1.59868e-07
0.00018279 0.000100445 9.34998e-08
1.59868e-07 9.34998e-08 -4.39197e-05
0.00195218 0.000211931 6.30429e-07
0.000211931 0.000112028 -1.28768e-06
6.30429e-07 -1.28768e-06 -1.2177e-06
0.000435908 6.8301e-05 -1.78149e-05
6.8301e-05 -0.000193273 -5.42413e-06
-1.78149e-05 -5.42413e-06 -0.000280954
0.00101122 0.00014778 -1.80322e-06
0.00014778 -6.82315e-05 2.14874e-08
-1.80322e-06 2.14874e-08 -0.00022076
0.00181344 0.000244535 2.77639e-06
0.000244535 0.000184692 4.49126e-07
2.77639e-06 4.49126e-07 2.10583e-05
0.00627541 0.000244548 -0.000298896
0.000244548 0.00352169 -2.80269e-05
-0.000298896 -2.80269e-05 0.00352185
0.000435885 9.57943e-05 -8.99434e-08
9.57943e-05 -0.000185065 1.72549e-07
-8.99434e-08 1.72549e-07 -0.000277593
0.000878789 0.000172502 1.08495e-05
0.000172502 -0.000138438 3.57995e-06
1.08495e-05 3.57995e-06 -0.000299188
0.00637963 0.00024052 1.10864e-05
0.00024052 0.0035896 4.16166e-06
1.10864e-05 4.16166e-06 0.00358545
0.000438063 0.000126027 1.87237e-05
0.000126027 -0.000167963 1.06692e-05
1.87237e-05 1.06692e-05 -0.000269108
0.00642539 0.00016619 0.000274728
0.00016619 0.00360662 2.76952e-05
0.000274728 2.76952e-05 0.00361017
0.00178421 3.68773e-05 3.37994e-06
3.68773e-05 0.000158117 1.64966e-07
3.37994e-06 1.64966e-07 4.84583e-05
0.00184859 4.22104e-05 -2.31978e-06
4.22104e-05 4.53214e-05 2.1791e-10
-2.31978e-06 2.1791e-10 -3.39452e-05
0.00194124 6.80093e-05 4.2071e-06
6.80093e-05 8.67662e-05 -1.53547e-07
4.2071e-06 -1.53547e-07 3.38598e-05
0.000934393 -8.37238e-06 -1.31858e-05
-8.37238e-06 -9.62074e-05 -1.70645e-07
-1.31858e-05 -1.70645e-07 -0.000220609
0.00181833 1.21429e-06 3.41977e-06
1.21429e-06 0.000186778 -8.51067e-08
3.41977e-06 -8.51067e-08 7.89588e-05
0.00180618 2.20553e-06 -9.19944e-07
2.20553e-06 1.98426e-05 2.87475e-07
-9.19944e-07 2.87475e-07 -5.26686e-05
0.00180758 -3.41412e-05 4.45563e-06
-3.41412e-05 0.000177352 1.57241e-07
4.45563e-06 1.57241e-07 6.79712e-05
0.000936501 -1.79135e-05 -8.40716e-07
-1.79135e-05 -0.00010584 3.05026e-08
-8.40716e-07 3.05026e-08 -0.000232652
0.000499674 -3.15905e-05 -1.93602e-05
-3.15905e-05 -0.000155505 9.75898e-07
-1.93602e-05 9.75898e-07 -0.00023323
0.000997169 -4.4289e-05 1.11061e-05
-4.4289e-05 -6.86662e-05 -1.26954e-06
1.11061e-05 -1.26954e-06 -0.00020227
0.000473652 3.72671e-06 3.56426e-07
3.72671e-06 -0.00017274 7.16591e-08
3.56426e-07 7.16591e-08 -0.000252353
0.00596163 -0.00010893 -0.000289721
-0.00010893 0.00332226 9.93506e-06
-0.000289721 9.93506e-06 0.00333724
0.000484218 -4.08368e-05 1.8829e-05
-4.08368e-05 -0.000162165 -3.00353e-06
1.8829e-05 -3.00353e-06 -0.000245441
0.00600007 -2.99797e-05 -3.02171e-06
-2.99797e-05 0.00333646 2.33793e-06
-3.02171e-06 2.33793e-06 0.00335546
0.00604569 -9.03538e-05 0.000285386
-9.03538e-05 0.00336501 -1.19522e-05
0.000285386 -1.19522e-05 0.00338246
0.00164688 7.546e-05 6.99876e-07
7.546e-05 6.04429e-05 5.19308e-07
6.99876e-07 5.19308e-07 -5.98387e-05
0.00188194 0.000103601 -2.78877e-06
0.000103601 6.01606e-05 -1.02784e-06
-2.78877e-06 -1.02784e-06 -2.54321e-05
0.00188684 0.000122798 6.06768e-07
0.000122798 3.88499e-05 -1.83632e-07
6.06768e-07 -1.83632e-07 -1.98533e-05
0.00109116 6.99311e-05 -1.22662e-05
6.99311e-05 -1.30229e-05 -1.3834e-06
-1.22662e-05 -1.3834e-06 -0.000147182
0.00168867 0.000124736 2.34298e-07
0.000124736 8.51515e-05 -1.68525e-08
2.34298e-07 -1.68525e-08 -4.44674e-05
0.00194751 0.00015251 3.08771e-08
0.00015251 0.000113505 -1.89458e-06
3.08771e-08 -1.89458e-06 1.73568e-05
0.000465568 4.50907e-05 -1.7422e-05
4.50907e-05 -0.000177281 -3.86213e-06
-1.7422e-05 -3.86213e-06 -0.000261818
0.00106242 0.000112217 3.4012e-07
0.000112217 -3.55927e-05 2.81426e-07
3.4012e-07 2.81426e-07 -0.000179487
0.00170435 0.00018172 1.03968e-06
0.00018172 0.000101667 -5.1414e-07
1.03968e-06 -5.1414e-07 -4.2735e-05
0.00614497 0.00021339 -0.000308906
0.00021339 0.00344271 -2.3477e-05
-0.000308906 -2.3477e-05 0.00344753
0.00046771 7.34437e-05 3.76149e-07
7.34437e-05 -0.00017383 1.58526e-07
3.76149e-07 1.58526e-07 -0.000262467
0.00101434 0.000148008 1.08862e-05
0.000148008 -6.30887e-05 2.9873e-06
1.08862e-05 2.9873e-06 -0.000216785
0.00629705 0.000259212 6.29591e-06
0.000259212 0.00354088 3.24432e-06
6.29591e-06 3.24432e-06 0.00353859
0.000481986 9.97144e-05 1.81261e-05
9.97144e-05 -0.00015737 8.13977e-06
1.81261e-05 8.13977e-06 -0.000250767
0.00638772 0.000269355 0.000292721
0.000269355 0.00359929 3.39842e-05
0.000292721 3.39842e-05 0.00359279
0.00101316 1.98816e-05 -1.26236e-05
1.98816e-05 -4.26055e-05 -6.02038e-07
-1.26236e-05 -6.02038e-07 -0.000169687
0.00174736 3.30599e-05 3.71264e-06
3.30599e-05 0.000134682 1.00015e-07
3.71264e-06 1.00015e-07 2.65841e-05
0.00183639 3.9897e-05 -3.58067e-06
3.9897e-05 4.27372e-05 -1.45375e-07
-3.58067e-06 -1.45375e-07 -3.79729e-05
0.00053482 3.12869e-05 -1.99274e-05
3.12869e-05 -0.00014152 -5.97272e-07
-1.99274e-05 -5.97272e-07 -0.000211509
0.000916362 -2.44999e-06 -9.91672e-07
-2.44999e-06 -0.000108689 -1.38334e-08
-9.91672e-07 -1.38334e-08 -0.000233276
0.00180205 7.50809e-06 4.62881e-06
7.50809e-06 0.0001762 2.2213e-07
4.62881e-06 2.2213e-07 6.8461e-05
0.000933044 -1.83715e-05 1.129e-05
-1.83715e-05 -0.000109658 -5.08059e-07
1.129e-05 -5.08059e-07 -0.000236727
0.000494849 -5.32982e-06 3.70716e-07
-5.32982e-06 -0.000158346 3.73062e-07
3.70716e-07 3.73062e-07 -0.000236214
0.00588866 2.44498e-05 -0.000293302
2.44498e-05 0.00327155 6.08466e-07
-0.000293302 6.08466e-07 0.00329234
0.000452901 1.53393e-05 1.8384e-05
1.53393e-05 -0.000186884 -1.23931e-06
1.8384e-05 -1.23931e-06 -0.000265212
0.00592889 -0.000107033 -7.75144e-06
-0.000107033 0.00330352 1.81508e-06
-7.75144e-06 1.81508e-06 0.00331808
0.00594951 -1.13904e-05 0.000274845
-1.13904e-05 0.00330563 -5.93826e-06
0.000274845 -5.93826e-06 0.00332461
0.00105289 3.93595e-05 -1.24561e-05
3.93595e-05 -2.63384e-05 -1.17405e-06
-1.24561e-05 -1.17405e-06 -0.000155221
0.00168194 7.30024e-05 -2.36165e-07
7.30024e-05 8.32092e-05 -1.80613e-07
-2.36165e-07 -1.80613e-07 -3.34321e-05
0.00196646 0.000104317 -3.74671e-06
0.000104317 0.000108703 -2.39204e-06
-3.74671e-06 -2.39204e-06 2.90173e-05
0.00265833 5.89913e-05 -0.000136735
5.89913e-05 0.00116932 -4.6027e-06
-0.000136735 -4.6027e-06 0.00111867
0.0010444 7.15709e-05 3.42784e-07
7.15709e-05 -4.21057e-05 1.34298e-07
3.42784e-07 1.34298e-07 -0.000176994
0.00168477 0.000123431 9.02273e-07
0.000123431 8.57599e-05 -8.5594e-07
9.02273e-07 -8.5594e-07 -4.40546e-05
0.00602216 0.000158358 -0.000308493
0.000158358 0.0033625 -1.6949e-05
-0.000308493 -1.6949e-05 0.00337459
0.000499879 6.39224e-05 8.64394e-07
6.39224e-05 -0.000154154 4.17658e-07
8.64394e-07 4.17658e-07 -0.000240626
0.00102878 0.000113487 1.25658e-05
0.000113487 -5.64853e-05 2.43222e-06
1.25658e-05 2.43222e-06 -0.000201266
0.00621702 0.000227369 1.61561e-06
0.000227369 0.00348826 1.6287e-06
1.61561e-06 1.6287e-06 0.00349191
0.000510245 8.14984e-05 1.83182e-05
8.14984e-05 -0.000146672 6.40337e-06
1.83182e-05 6.40337e-06 -0.000236931
0.00631065 0.000291363 0.00030359
0.000291363 0.00356118 3.46653e-05
0.00030359 3.46653e-05 0.00355246
0.000593829 1.09437e-05 -1.61007e-05
1.09437e-05 -9.44203e-05 -1.82417e-06
-1.61007e-05 -1.82417e-06 -0.000173268
0.000959988 1.89175e-05 4.3058e-07
1.89175e-05 -7.89717e-05 2.05122e-07
4.3058e-07 2.05122e-07 -0.000205014
0.00170885 2.82753e-05 3.66035e-06
2.82753e-05 0.000110079 -4.83704e-08
3.66035e-06 -4.83704e-08 3.58803e-06
0.00573594 -9.85958e-05 -0.000276286
-9.85958e-05 0.00319585 2.84263e-06
-0.000276286 2.84263e-06 0.00320601
0.00049003 8.81992e-06 -5.67335e-07
8.81992e-06 -0.000164338 -5.86857e-09
-5.67335e-07 -5.86857e-09 -0.000236921
0.000914872 2.39189e-06 1.11703e-05
2.39189e-06 -0.000111251 1.95186e-08
1.11703e-05 1.95186e-08 -0.00023597
0.000449553 2.09489e-05 1.86159e-05
2.09489e-05 -0.000187085 1.87487e-07
1.86159e-05 1.87487e-07 -0.000263987
0.00583287 -1.14337e-05 2.1959e-06
-1.14337e-05 0.00324299 -1.3838e-06
2.1959e-06 -1.3838e-06 0.0032596
0.00592485 -2.69398e-05 0.000282025
-2.69398e-05 0.00328993 -3.86831e-06
0.000282025 -3.86831e-06 0.0033101
0.00273416 1.33287e-05 -0.000131775
1.33287e-05 0.00121435 -2.67496e-06
-0.000131775 -2.67496e-06 0.00116625
0.00103467 4.25677e-05 9.86312e-08
4.25677e-05 -3.93307e-05 2.08682e-09
9.86312e-08 2.08682e-09 -0.00016876
0.00171393 7.06378e-05 9.86395e-07
7.06378e-05 0.000104401 -8.55094e-07
9.86395e-07 -8.55094e-07 -8.58544e-06
0.0055527 -4.1954e-05 -0.000114024
-4.1954e-05 0.00308624 5.09335e-07
-0.000114024 5.09335e-07 0.00307401
0.000512808 5.6126e-05 7.25497e-08
5.6126e-05 -0.000145848 2.33287e-07
7.25497e-08 2.33287e-07 -0.000227791
0.00101441 7.38376e-05 1.21678e-05
7.38376e-05 -6.15428e-05 1.64312e-06
1.21678e-05 1.64312e-06 -0.000197105
0.00609134 0.000132625 -1.0641e-05
0.000132625 0.00339974 -1.629e-06
-1.0641e-05 -1.629e-06 0.00341324
0.000530225 8.70265e-05 1.96602e-05
8.70265e-05 -0.000135011 5.42959e-06
1.96602e-05 5.42959e-06 -0.000222414
0.00625957 0.000251404 0.000312824
0.000251404 0.00352127 3.02633e-05
0.000312824 3.02633e-05 0.00352179
0.0017412 -5.26002e-05 -0.000223256
-5.26002e-05 0.000712051 1.15946e-06
-0.000223256 1.15946e-06 0.000708698
0.0016198 2.93782e-05 -5.60416e-05
2.93782e-05 0.000528308 1.47191e-07
-5.60416e-05 1.47191e-07 0.000469799
0.000901871 2.05929e-05 1.24308e-05
2.05929e-05 -0.000117921 7.83661e-07
1.24308e-05 7.83661e-07 -0.000242998
0.00580703 -4.52903e-05 7.16185e-06
-4.52903e-05 0.00323316 2.20283e-06
7.16185e-06 2.20283e-06 0.00324836
0.000505461 -1.23018e-05 1.9213e-05
-1.23018e-05 -0.000148587 7.25415e-07
1.9213e-05 7.25415e-07 -0.000224959
0.00586924 -7.60851e-05 0.000294948
-7.60851e-05 0.00326808 -3.85632e-06
0.000294948 -3.85632e-06 0.00328465
0.00131173 1.91694e-05 -5.42516e-05
1.91694e-05 0.000474369 -8.44605e-07
-5.42516e-05 -8.44605e-07 0.000437903
0.00160992 1.6659e-05 -5.66712e-05
1.6659e-05 0.00052527 -1.134e-06
-5.66712e-05 -1.134e-06 0.000462968
0.00100588 4.43559e-05 1.22878e-05
4.43559e-05 -5.86007e-05 1.20684e-06
1.22878e-05 1.20684e-06 -0.000188604
0.00366735 6.23638e-05 0.00010906
6.23638e-05 0.00191049 3.03635e-06
0.00010906 3.03635e-06 0.00190173
0.000524685 6.66698e-05 1.99524e-05
6.66698e-05 -0.000138671 4.12195e-06
1.99524e-05 4.12195e-06 -0.000220595
0.00616637 0.000120619 0.000298977
0.000120619 0.00343851 1.81428e-05
0.000298977 1.81428e-05 0.00345554
0.00575348 -2.04938e-05 -8.89977e-06
-2.04938e-05 0.00320353 -2.80398e-06
-8.89977e-06 -2.80398e-06 0.00321755
0.000503565 4.83105e-05 2.07501e-05
4.83105e-05 -0.000159977 2.23834e-06
2.07501e-05 2.23834e-06 -0.000229406
0.00571611 4.15269e-05 0.000282345
4.15269e-05 0.00317367 2.19348e-07
0.000282345 2.19348e-07 0.00319225
0.00356354 3.00484e-05 0.000121524
3.00484e-05 0.00185167 4.48485e-06
0.000121524 4.48485e-06 0.0018443
0.00053611 7.60399e-06 1.91533e-05
7.60399e-06 -0.000131464 2.56678e-06
1.91533e-05 2.56678e-06 -0.000208751
0.00598234 -7.63174e-06 0.00028755
-7.63174e-06 0.00332759 7.93447e-06
0.00028755 7.93447e-06 0.00334566
0.00579857 -0.000121158 0.000279466
-0.000121158 0.00323578 -3.9154e-06
0.000279466 -3.9154e-06 0.00324523
0.00580632 2.92214e-06 0.000281034
2.92214e-06 0.00321972 4.45124e-06
0.000281034 4.45124e-06 0.00324084
