# vtk DataFile Version 2.0
Wound Healing Simulation
ASCII
DATASET UNSTRUCTURED_GRID
POINTS 3012 float
69.9759 18.75 4
67.2507 60.3285 4
69.976 18.75 2
73.0099 25.446 4
71.1327 20.9142 4
68.6801 16.6661 4
67.8271 19.9187 3.99063
67.2507 60.3286 2
71.1327 54.0858 4
68.6801 58.3339 4
65.6939 62.2254 4
65.3135 59.008 3.99206
74.6784 42.3946 4
73.7221 47.2057 4
69.9759 18.75 0
73.0099 25.446 2
68.6801 16.6661 2
71.1327 20.9142 2
67.8271 19.9187 2
74.6792 32.6053 4
73.7222 27.7943 4
72.1454 23.1494 4
70.6167 26.2181 3.98906
68.8877 21.9519 3.99003
67.2507 14.6715 4
66.6384 17.9642 3.99141
65.8046 21.0135 3.98653
67.2507 60.3285 0
71.1327 54.0858 2
68.6801 58.3339 2
65.694 62.2255 2
65.3135 59.0081 2
72.1454 51.8506 4
69.9759 56.25 4
68.8387 53.1191 3.99009
64.0165 64.0165 4
66.6121 57.1411 3.99155
63.8869 60.7716 3.99255
63.5054 57.786 3.9873
60.3285 67.2507 4
74.6792 42.3947 2
73.7222 47.2057 2
74.9194 39.9526 4
74.2788 44.8158 4
72.1708 42.0862 3.98896
73.0099 49.554 4
71.2522 46.5998 3.98934
73.0099 25.446 0
71.1327 20.9142 0
68.6801 16.6661 0
67.8271 19.9187 0.00937135
74.6792 32.6053 2
73.7222 27.7943 2
67.2508 14.6715 2
72.1455 23.1494 2
70.6167 26.2184 2
66.6384 17.9641 2
68.8878 21.952 2
65.8046 21.0136 2
74.9197 35.0474 4
74.2794 30.1841 4
72.1873 32.9422 3.98899
71.2808 28.4295 3.9889
69.818 24.0552 3.98952
68.3555 26.9454 3.98481
66.7708 22.9235 3.98615
65.694 12.7746 4
65.3249 16.0964 3.99211
64.7202 19.181 3.98698
63.9004 22.0179 3.98467
71.1327 54.0858 0
65.6939 62.2254 0
68.6801 58.3339 0
65.3135 59.008 0.00793883
72.1455 51.8506 2
69.9759 56.25 2
68.8388 53.1191 2
64.0165 64.0165 2
66.6121 57.1412 2
63.887 60.7717 2
63.5055 57.7861 2
62.2254 65.694 4
58.8938 65.4177 3.99291
69.7716 50.9933 3.98958
67.7855 55.1745 3.99087
66.6585 52.2192 3.98636
62.3369 62.4321 3.9928
64.6673 56.0449 3.98735
62.2062 59.4187 3.98771
61.8322 56.7012 3.98565
58.3339 68.6801 4
60.3285 67.2508 2
73.7221 47.2057 0
74.6784 42.3946 0
74.9197 39.9526 2
74.2794 44.8159 2
72.1708 42.0859 2
73.0099 49.554 2
71.2522 46.5996 2
75 37.5 4
72.4079 39.8023 3.98878
71.7853 44.354 3.98923
69.8128 41.7917 3.98423
70.578 48.8164 3.98938
68.9217 46.0196 3.9848
74.6792 32.6053 0
73.7222 27.7943 0
67.2507 14.6715 0
72.1454 23.1494 0
70.6167 26.2181 0.0109446
68.8877 21.9519 0.0099651
66.6384 17.9642 0.00859403
65.8046 21.0135 0.0134653
74.9197 35.0474 2
74.2794 30.1841 2
72.1872 32.9426 2
71.2808 28.4298 2
65.694 12.7745 2
65.3249 16.0964 2
69.818 24.0554 2
68.3554 26.9455 2
64.7202 19.1811 2
66.7708 22.9236 2
63.9003 22.0181 2
72.4157 35.2234 3.98878
71.8065 30.6749 3.98907
69.8483 33.2662 3.98408
68.9746 29.0337 3.98418
67.6199 24.9042 3.98559
66.2096 27.6247 3.98297
64.0165 10.9835 4
64.7712 23.8151 3.98437
63.891 14.3215 3.99249
63.5179 17.4319 3.98748
62.9185 20.3009 3.985
62.1118 22.9211 3.9838
60.6843 11.0935 3.99267
57.6125 11.4377 3.98801
72.1454 51.8506 0
69.9759 56.25 0
68.8387 53.1191 0.00990842
64.0165 64.0165 0
63.8869 60.7716 0.00744619
66.6121 57.1411 0.00844632
63.5054 57.786 0.0127039
62.2255 65.694 2
58.8939 65.4178 2
69.7717 50.9932 2
67.7856 55.1746 2
66.6586 52.219 2
62.337 62.4322 2
64.6675 56.0449 2
62.2062 59.4189 2
61.8324 56.7013 2
60.6689 63.9811 3.99283
57.0242 66.7379 3.99304
57.5577 63.6998 3.98834
67.5169 50.1848 3.98575
65.71 54.1852 3.98705
64.5535 51.401 3.98427
60.7749 60.9506 3.98819
62.8318 55.0873 3.98585
60.665 58.1789 3.98566
60.3405 55.8103 3.98487
56.25 69.9759 4
58.3339 68.6801 2
60.3285 67.2507 0
58.9211 9.6522 3.99277
62.2254 9.30607 4
73.0099 49.554 0
74.2788 44.8158 0
71.2522 46.5998 0.0106586
72.1708 42.0862 0.0110369
74.9194 39.9526 0
75 37.5 2
72.4077 39.8021 2
71.7853 44.3537 2
69.8126 41.7914 2
70.5781 48.8162 2
68.9216 46.0192 2
72.4912 37.5117 3.98873
70.0494 39.6582 3.9836
69.4395 43.9108 3.98459
67.6129 41.5017 3.98217
68.2755 48.1135 3.98523
66.7262 45.4483 3.98306
74.9197 35.0474 0
74.2794 30.1841 0
72.1873 32.9422 0.0110072
71.2808 28.4295 0.0110989
65.694 12.7746 0
65.3249 16.0964 0.00788978
69.818 24.0552 0.0104792
68.3555 26.9454 0.0151942
66.7708 22.9235 0.0138495
64.7202 19.181 0.0130168
63.9004 22.0179 0.0153336
72.4156 35.2238 2
71.8064 30.6753 2
69.8481 33.2663 2
68.9745 29.0338 2
64.0165 10.9835 2
63.8911 14.3214 2
63.518 17.4319 2
67.6199 24.9043 2
66.2093 27.6247 2
62.9185 20.3011 2
64.771 23.8152 2
62.1116 22.9214 2
60.6844 11.0935 2
57.6126 11.4375 2
70.0661 35.3907 3.9839
69.4756 31.1462 3.98411
67.6702 33.5868 3.98197
66.787 29.615 3.98228
65.5391 25.6868 3.98377
64.1676 28.2418 3.98233
62.3423 12.6503 3.99262
62.8776 24.6175 3.98368
62.2017 15.7703 3.98783
61.8224 18.6646 3.98558
61.2339 21.3178 3.98377
60.4499 23.7017 3.98362
59.2471 12.7675 3.98796
55.8741 10.2253 3.98832
56.4066 13.1001 3.98526
69.7716 50.9933 0.0104188
62.2254 65.694 0
58.8938 65.4177 0.00709435
67.7855 55.1745 0.00912707
66.6585 52.2192 0.0136395
62.3369 62.4321 0.00719736
62.2062 59.4187 0.0122899
64.6673 56.0449 0.0126509
61.8322 56.7012 0.0143474
60.669 63.9812 2
57.0243 66.7381 2
57.5578 63.7 2
67.517 50.1846 2
65.7102 54.1851 2
64.5535 51.4009 2
60.775 60.9508 2
62.832 55.0872 2
60.6651 58.179 2
60.3406 55.8102 2
55.0697 67.9344 3.9932
59.2201 62.3767 3.98828
55.8036 64.9159 3.9885
56.3281 62.1007 3.98578
65.3483 49.4216 3.98377
63.7203 53.3103 3.98525
62.4643 50.6727 3.98318
59.3373 59.5738 3.986
61.0929 54.3331 3.98511
59.2984 57.0362 3.98435
59.2569 55.2101 3.98503
48.1017 68.5814 3.98958
50.9477 69.9333 3.99351
54.0858 71.1327 4
56.25 69.976 2
58.3339 68.6801 0
57.0581 8.33248 3.99299
60.3285 7.74928 4
58.9212 9.65213 2
62.2255 9.30602 2
70.578 48.8164 0.0106219
71.7853 44.354 0.0107735
68.9217 46.0196 0.0151964
69.8128 41.7917 0.0157721
72.4079 39.8023 0.0112215
75 37.5 0
72.491 37.5119 2
70.0491 39.658 2
69.4394 43.9105 2
67.6125 41.5016 2
68.2755 48.1132 2
66.726 45.4482 2
70.1373 37.5213 3.98352
67.8492 39.5142 3.98163
67.2397 43.4762 3.98265
65.5782 41.2158 3.98151
66.0854 47.4288 3.98344
64.6756 44.8602 3.98242
72.4157 35.2234 0.011221
71.8065 30.6749 0.0109275
69.8483 33.2662 0.0159176
68.9746 29.0337 0.0158234
64.0165 10.9835 0
63.891 14.3215 0.00751302
63.5179 17.4319 0.0125162
67.6199 24.9042 0.0144081
66.2096 27.6247 0.0170255
64.7712 23.8151 0.0156255
62.9185 20.3009 0.0150024
62.1118 22.9211 0.0162037
60.6843 11.0935 0.00733196
57.6125 11.4377 0.0119932
70.0658 35.3908 2
69.4754 31.1463 2
67.6699 33.5867 2
66.7868 29.615 2
62.3424 12.6502 2
62.2018 15.7702 2
61.8225 18.6647 2
65.5389 25.6869 2
64.1672 28.2418 2
61.2338 21.3181 2
62.8772 24.6177 2
60.4495 23.7021 2
59.2471 12.7674 2
56.4066 13.1 2
55.8741 10.2251 2
67.8852 35.5453 3.98195
67.2802 31.6164 3.98215
65.7188 33.9218 3.9813
64.6841 30.1813 3.98125
63.5595 26.3973 3.98312
62.2847 28.7608 3.98264
60.7767 14.2106 3.98795
61.0715 25.3143 3.98358
60.6182 17.109 3.98596
60.2348 19.7924 3.98436
59.6819 22.2313 3.98295
59.0067 24.2921 3.9839
54.037 9.12921 3.98884
57.9124 14.317 3.98561
54.7873 12.001 3.98519
55.3147 14.6311 3.98416
67.5169 50.1848 0.014246
57.0242 66.7379 0.00695891
60.6689 63.9811 0.00717082
57.5577 63.6998 0.0116603
65.71 54.1852 0.0129462
64.5535 51.401 0.0157294
60.7749 60.9506 0.0118054
60.665 58.1789 0.0143441
62.8318 55.0873 0.0141465
60.3405 55.8103 0.0151295
55.0698 67.9346 2
59.2202 62.3769 2
55.8036 64.9162 2
56.3282 62.101 2
65.3483 49.4215 2
63.7204 53.3103 2
62.4642 50.6725 2
59.3375 59.5741 2
61.0931 54.333 2
59.2985 57.0362 2
59.2571 55.21 2
53.0417 69.0018 3.99336
53.9655 66.0173 3.98871
57.8831 60.8839 3.98592
54.6838 63.2148 3.98585
55.2137 60.6285 3.98456
63.218 48.6791 3.98293
61.7615 52.598 3.9843
60.3028 50.044 3.98257
58.024 58.2811 3.9848
59.3457 53.9747 3.9844
58.1387 55.8399 3.98318
50.108 67.8597 3.98927
47.462 66.5846 3.98665
46.0557 69.1606 3.98982
48.1018 68.5817 2
48.8021 70.7243 3.99366
50.9478 69.9335 2
51.8506 72.1454 4
54.0858 71.1327 2
56.25 69.9759 0
55.1025 7.13735 3.99324
58.3339 6.31992 4
57.0583 8.33237 2
60.3286 7.74926 2
58.9211 9.6522 0.00723204
62.2254 9.30607 0
68.2755 48.1135 0.0147739
69.4395 43.9108 0.015406
66.7262 45.4483 0.0169361
67.6129 41.5017 0.0178341
70.0494 39.6582 0.0163964
72.4912 37.5117 0.0112691
70.137 37.5212 2
67.8487 39.5142 2
67.2394 43.4761 2
65.5778 41.2158 2
66.0853 47.4287 2
64.6753 44.8601 2
67.9452 37.5218 3.98141
65.8091 39.3732 3.98119
65.1989 43.0343 3.98184
63.7843 40.9371 3.98157
63.9894 46.7316 3.98271
62.8372 44.2308 3.98271
70.0661 35.3907 0.0160986
69.4756 31.1462 0.015888
67.6702 33.5868 0.0180279
66.787 29.615 0.0177204
62.3423 12.6503 0.00738085
62.2017 15.7703 0.0121696
61.8224 18.6646 0.0144171
65.5391 25.6868 0.0162266
64.1676 28.2418 0.0176709
62.8776 24.6175 0.0163201
61.2339 21.3178 0.0162304
60.4499 23.7017 0.0163782
59.2471 12.7675 0.0120355
56.4066 13.1001 0.0147401
55.8741 10.2253 0.0116826
67.8848 35.5452 2
67.2799 31.6163 2
65.7183 33.9215 2
64.6836 30.1812 2
60.7768 14.2105 2
60.6183 17.109 2
60.2348 19.7927 2
63.5591 26.3974 2
62.2841 28.7608 2
59.6816 22.2317 2
61.071 25.3146 2
59.0062 24.2926 2
57.9124 14.3169 2
55.3148 14.6311 2
54.0371 9.12887 2
54.7873 12.0008 2
65.8976 35.6639 3.98117
65.2075 32.1461 3.98106
64.3101 34.2438 3.98047
62.6227 30.622 3.98139
61.6789 27.0517 3.98302
60.8826 29.1215 3.98399
59.3137 15.6522 3.98589
59.3627 25.7703 3.98442
59.1311 18.3336 3.98508
58.7557 20.8273 3.9832
58.3096 23.063 3.98229
57.9992 24.6355 3.98469
52.1117 8.14799 3.98936
53.058 11.008 3.98563
56.6794 15.7253 3.98482
53.811 13.6684 3.98353
54.379 15.9824 3.9839
55.0697 67.9344 0.00680297
65.3483 49.4216 0.0162303
55.8036 64.9159 0.0115038
59.2201 62.3767 0.0117227
56.3281 62.1007 0.014221
63.7203 53.3103 0.0147507
62.4643 50.6727 0.016818
59.3373 59.5738 0.0139976
59.2984 57.0362 0.015647
61.0929 54.3331 0.0148908
59.2569 55.2101 0.0149696
53.0418 69.002 2
53.9655 66.0176 2
57.8832 60.8842 2
54.6839 63.2151 2
55.2138 60.6287 2
63.2178 48.6789 2
61.7616 52.5979 2
60.3027 50.0437 2
58.0242 58.2812 2
59.3459 53.9745 2
58.1389 55.8398 2
52.0689 67.0032 3.98897
52.9526 64.2238 3.98592
56.652 59.5049 3.98493
53.6821 61.631 3.98453
54.2631 59.3352 3.98392
61.0251 47.9027 3.98241
59.7348 52.132 3.9839
58.0607 49.6455 3.98302
56.7846 57.0112 3.98332
57.139 54.1525 3.98276
50.1081 67.86 2
49.3357 65.9249 3.98629
47.4621 66.585 2
46.8915 64.7401 3.98478
45.5573 67.1021 3.98703
43.9731 69.5931 3.98996
46.0558 69.161 2
46.609 71.3687 3.99378
48.1017 68.5814 0.0104243
48.8022 70.7246 2
49.554 73.0099 4
50.9477 69.9333 0.00648797
51.8506 72.1455 2
54.0858 71.1327 0
53.0636 6.06901 3.99353
55.1026 7.13718 2
56.25 5.02411 4
58.3339 6.3199 2
57.0581 8.33248 0.00700832
60.3285 7.74928 0
66.0854 47.4288 0.0165619
67.2397 43.4762 0.0173544
64.6756 44.8602 0.0175759
65.5782 41.2158 0.0184884
67.8492 39.5142 0.018372
70.1373 37.5213 0.0164818
67.9448 37.5217 2
65.8085 39.3732 2
65.1985 43.0342 2
63.7838 40.937 2
63.9891 46.7314 2
62.8368 44.2306 2
65.9116 37.5017 3.98082
63.9282 39.2708 3.98123
63.3584 42.561 3.98174
62.4655 40.7063 3.98107
61.9987 45.9374 3.98275
61.4874 43.6994 3.98414
67.8852 35.5453 0.0180539
67.2802 31.6164 0.0178477
65.7188 33.9218 0.0186995
64.6841 30.1813 0.01875
60.7767 14.2106 0.0120488
60.6182 17.109 0.0140389
60.2348 19.7924 0.0156375
63.5595 26.3973 0.0168826
62.2847 28.7608 0.017361
61.0715 25.3143 0.0164188
59.6819 22.2313 0.0170495
59.0067 24.2921 0.0161021
57.9124 14.317 0.0143885
55.3147 14.6311 0.0158409
54.037 9.12921 0.0111582
54.7873 12.001 0.0148144
65.8971 35.6637 2
65.207 32.146 2
64.3095 34.2436 2
62.622 30.6219 2
59.3138 15.6522 2
59.1312 18.3337 2
58.7557 20.8277 2
61.6783 27.052 2
60.8818 29.1216 2
58.3092 23.0636 2
59.3621 25.7708 2
57.9986 24.6362 2
56.6795 15.7253 2
54.3791 15.9825 2
53.811 13.6683 2
52.1118 8.14765 2
53.058 11.0077 2
64.1181 35.629 3.98053
62.9597 33.0368 3.98021
60.6494 30.5952 3.98212
59.6076 27.8873 3.9838
57.9436 16.9641 3.98515
57.775 25.6974 3.98551
57.7247 19.452 3.98419
57.3899 21.812 3.98178
57.2148 23.917 3.98227
50.112 7.28028 3.98985
51.2322 10.1168 3.98612
52.1729 12.7866 3.98359
55.5408 16.9539 3.98449
52.9796 15.2502 3.98263
53.7612 16.9641 3.98399
53.0417 69.0018 0.0066416
53.9655 66.0173 0.0112886
63.218 48.6791 0.0170703
54.6838 63.2148 0.0141482
57.8831 60.8839 0.0140811
55.2137 60.6285 0.0154422
61.7615 52.598 0.015704
60.3028 50.044 0.0174349
58.024 58.2811 0.0152019
58.1387 55.8399 0.0168182
59.3457 53.9747 0.0156026
52.069 67.0035 2
52.9526 64.2241 2
56.6521 59.5051 2
53.6822 61.6312 2
54.2632 59.3354 2
61.0248 47.9024 2
59.7348 52.1317 2
58.0605 49.6449 2
56.7848 57.0113 2
57.1392 54.1522 2
51.1667 65.1321 3.98603
52.0461 62.5444 3.9843
55.485 58.2676 3.98428
52.8363 60.1451 3.98392
53.6436 58.4859 3.98386
58.3484 46.8739 3.98413
57.5889 51.8166 3.9827
56.2862 49.5838 3.98417
55.4823 55.8196 3.98206
55.3785 53.4126 3.98057
50.108 67.8597 0.0107301
49.3358 65.9253 2
48.6173 64.1263 3.98455
47.462 66.5846 0.0133494
45.5573 67.1025 2
46.8915 64.7405 2
46.3812 63.0572 3.98351
45.1317 65.2019 3.98501
43.6306 67.4731 3.98729
41.8606 69.8809 3.99005
43.9732 69.5935 2
44.3765 71.8636 3.99389
46.0557 69.1606 0.010178
46.609 71.3689 2
47.2057 73.7222 4
48.8021 70.7243 0.00633792
49.554 73.0099 2
51.8506 72.1454 0
50.9534 5.12955 3.99373
53.0637 6.06881 2
54.0858 3.86728 4
55.1025 7.13735 0.00676447
56.25 5.02406 2
58.3339 6.31992 0
63.9894 46.7316 0.0172909
65.1989 43.0343 0.0181601
62.8372 44.2308 0.017293
63.7843 40.9371 0.0184283
65.8091 39.3732 0.0188146
67.9452 37.5218 0.0185879
65.9111 37.5016 2
63.9276 39.2707 2
63.3579 42.5609 2
62.4648 40.7062 2
61.9983 45.9372 2
61.4868 43.6992 2
63.9882 37.4573 3.98118
62.1946 39.3602 3.98115
61.257 41.9716 3.98204
60.2895 44.7898 3.98454
65.8976 35.6639 0.0188313
65.2075 32.1461 0.0189429
64.3101 34.2438 0.0195275
62.6227 30.622 0.0186083
59.3137 15.6522 0.0141117
59.1311 18.3336 0.0149239
58.7557 20.8273 0.0167966
61.6789 27.0517 0.0169802
60.8826 29.1215 0.0160058
59.3627 25.7703 0.0155774
58.3096 23.063 0.0177069
57.9992 24.6355 0.0153137
56.6794 15.7253 0.0151836
54.379 15.9824 0.0160958
53.811 13.6684 0.0164666
52.1117 8.14799 0.0106372
53.058 11.008 0.0143718
64.1175 35.6288 2
62.959 33.0366 2
60.6485 30.5952 2
57.9437 16.9641 2
57.7248 19.4523 2
57.3897 21.8125 2
59.6068 27.8875 2
57.2142 23.9178 2
57.7742 25.698 2
50.112 7.27997 2
55.5409 16.9541 2
53.7613 16.9643 2
52.9797 15.2502 2
52.1729 12.7863 2
51.2323 10.1164 2
62.2254 35.3546 3.98038
60.3302 32.7331 3.97972
58.6647 30.0546 3.98309
57.3344 27.3541 3.9849
56.6413 18.1354 3.98469
56.3277 25.0722 3.9834
56.3696 20.4966 3.98277
56.1325 22.84 3.98041
48.0559 6.52376 3.99007
49.3241 9.32475 3.98686
50.4335 11.9851 3.98413
51.3793 14.4874 3.98193
54.4189 17.9029 3.98385
52.3638 17.0221 3.98243
52.0689 67.0032 0.0110287
52.9526 64.2238 0.0140777
61.0251 47.9027 0.0175863
53.6821 61.631 0.0154743
56.652 59.5049 0.0150725
54.2631 59.3352 0.0160774
59.7348 52.132 0.0160959
58.0607 49.6455 0.0169791
56.7846 57.0112 0.0166764
57.139 54.1525 0.0172368
51.1668 65.1325 2
52.0462 62.5447 2
55.4852 58.2679 2
52.8364 60.1454 2
53.6437 58.4862 2
58.3479 46.8732 2
57.5889 51.8162 2
56.286 49.583 2
55.4826 55.8197 2
55.3787 53.4123 2
50.3457 63.3848 3.98433
51.2449 60.9414 3.98312
54.2246 57.2827 3.98329
52.3153 58.6458 3.9832
56.7752 44.206 3.98582
55.5413 47.9233 3.98356
55.1013 51.4198 3.98032
54.0189 54.572 3.9799
49.3357 65.9249 0.0137115
48.6174 64.1267 2
47.9617 62.478 3.98346
45.5573 67.1021 0.0129679
46.8915 64.7401 0.0152229
43.6307 67.4735 2
46.3813 63.0575 2
45.1317 65.2023 2
45.987 61.5892 3.98264
44.7664 63.4586 3.98359
43.3556 65.5119 3.98522
41.663 67.6925 3.9875
39.7025 70.0283 3.99009
41.8606 69.8813 2
42.1111 72.2085 3.99394
43.9731 69.5931 0.0100412
44.3766 71.8639 2
44.8159 74.2794 4
46.609 71.3687 0.0062189
47.2057 73.7222 2
49.554 73.0099 0
48.784 4.32074 3.99389
50.9535 5.12935 2
51.8506 2.85458 4
53.0636 6.06901 0.00646966
54.0858 3.86728 2
56.25 5.02411 0
61.9987 45.9374 0.0172533
63.3584 42.561 0.0182598
61.4874 43.6994 0.0158612
62.4655 40.7063 0.0189319
63.9282 39.2708 0.0187676
65.9116 37.5017 0.0191786
63.9875 37.4572 2
62.1938 39.3601 2
61.2562 41.9714 2
60.2889 44.7894 2
62.0338 37.4449 3.98178
60.2959 39.8557 3.98092
59.0442 42.9368 3.98413
64.1181 35.629 0.0194675
62.9597 33.0368 0.0197932
60.6494 30.5952 0.0178829
57.9436 16.9641 0.0148465
57.7247 19.452 0.0158067
57.3899 21.812 0.0182152
59.6076 27.8873 0.0162002
57.775 25.6974 0.0144881
57.2148 23.917 0.0177322
55.5408 16.9539 0.0155119
53.7612 16.9641 0.0160079
52.9796 15.2502 0.0173662
50.112 7.28028 0.0101477
52.1729 12.7866 0.0164105
51.2322 10.1168 0.0138836
62.2247 35.3544 2
60.3292 32.733 2
58.6636 30.0547 2
56.6414 18.1355 2
56.3697 20.497 2
56.1321 22.8408 2
57.3333 27.3546 2
56.3269 25.0732 2
48.0559 6.52343 2
49.3241 9.32443 2
54.419 17.9031 2
52.3639 17.0223 2
51.3793 14.4872 2
50.4335 11.9848 2
59.9418 35.1135 3.9805
58.0444 32.2528 3.98054
56.5969 29.3143 3.98461
55.4931 26.5702 3.9858
55.3487 19.1695 3.98386
54.9607 24.0267 3.98016
55.0177 21.5374 3.98095
45.962 5.87906 3.99028
43.3735 7.46848 3.98814
47.3546 8.61884 3.98745
48.6001 11.2865 3.98451
49.715 13.7343 3.98291
50.6353 16.1224 3.98083
53.1292 18.644 3.98325
51.306 18.0369 3.98255
51.1667 65.1321 0.0139677
52.0461 62.5444 0.0156971
58.3484 46.8739 0.0158676
52.8363 60.1451 0.016079
55.485 58.2676 0.0157154
53.6436 58.4859 0.016136
57.5889 51.8166 0.0173031
56.2862 49.5838 0.0158277
55.4823 55.8196 0.0179382
55.3785 53.4126 0.0194304
50.3457 63.3851 2
51.2449 60.9416 2
54.2248 57.2829 2
52.3153 58.6461 2
56.7742 44.2055 2
55.5408 47.9223 2
55.1013 51.4191 2
54.0192 54.5721 2
49.5918 61.7481 3.9832
55.7143 41.7252 3.98201
50.5683 59.3348 3.98201
52.1907 56.5049 3.98187
54.2527 45.5865 3.98495
53.3893 49.357 3.98096
52.6913 52.8796 3.97791
48.6173 64.1263 0.0154487
47.9617 62.4783 2
47.3292 61.0121 3.98269
43.6306 67.4731 0.0127077
45.1317 65.2019 0.0149856
46.3812 63.0572 0.0164908
41.6631 67.693 2
43.3557 65.5123 2
45.987 61.5895 2
44.7664 63.459 2
45.7658 60.6331 3.98184
44.4827 61.8389 3.98253
43.1456 63.7315 3.98379
41.5452 65.6502 3.98525
39.6325 67.7727 3.98757
37.5261 70.0536 3.99005
39.7025 70.0287 2
39.8179 72.4056 3.99391
41.8606 69.8809 0.00994557
42.1111 72.2087 2
42.3947 74.6792 4
44.3765 71.8636 0.00610844
44.8159 74.2794 2
47.2057 73.7222 0
43.8515 5.3562 3.99046
46.5701 3.64542 3.99406
48.784 4.32053 2
49.554 1.99015 4
50.9534 5.12955 0.00626986
51.8506 2.85453 2
54.0858 3.86728 0
60.2895 44.7898 0.0154555
61.257 41.9716 0.0179555
62.1946 39.3602 0.0188511
63.9882 37.4573 0.0188188
62.0331 37.4448 2
60.295 39.8556 2
59.0433 42.9365 2
59.8176 37.5676 3.98281
58.0636 40.6717 3.9817
55.2011 39.7312 3.98299
62.2254 35.3546 0.0196182
60.3302 32.7331 0.0202802
58.6647 30.0546 0.0169078
56.6413 18.1354 0.0153052
56.3696 20.4966 0.0172348
56.1325 22.84 0.0195924
57.3344 27.3541 0.0151038
56.3277 25.0722 0.0166002
54.4189 17.9029 0.0161495
52.3638 17.0221 0.0175746
51.3793 14.4874 0.0180732
48.0559 6.52376 0.00993401
49.3241 9.32475 0.0131409
50.4335 11.9851 0.0158712
59.9409 35.1134 2
45.962 5.87872 2
43.3735 7.46816 2
58.0431 32.2527 2
56.5955 29.3146 2
55.3488 19.1697 2
55.0176 21.5381 2
54.9601 24.0279 2
55.4919 26.5713 2
47.3546 8.61846 2
48.6001 11.2862 2
53.1293 18.6443 2
51.3061 18.0371 2
50.6354 16.1223 2
49.715 13.7341 2
57.4616 34.7515 3.98037
55.7894 31.4954 3.98213
54.5721 28.3758 3.98768
53.8133 25.4673 3.98189
53.9767 20.1176 3.98305
53.6024 22.6831 3.97826
41.3987 7.07379 3.98824
45.3594 7.99036 3.98783
42.8654 9.4097 3.98627
46.6663 10.6472 3.98532
47.7458 13.0948 3.98287
48.9328 15.3924 3.98173
50.0083 17.6918 3.97969
51.6578 19.3149 3.98275
50.3457 63.3848 0.0156721
51.2449 60.9414 0.0168822
56.7752 44.206 0.0141786
55.5413 47.9233 0.0164398
52.3153 58.6458 0.0168045
54.2246 57.2827 0.0167106
55.1013 51.4198 0.0196799
54.0189 54.572 0.0201026
49.5918 61.7484 2
55.7128 41.7249 2
50.5683 59.335 2
52.191 56.5053 2
54.2516 45.5856 2
53.3891 49.3556 2
52.6918 52.8792 2
48.8494 60.2052 3.98248
52.6275 42.6592 3.98454
49.7918 57.6347 3.98177
50.6083 54.4387 3.97943
51.8916 47.2925 3.98078
51.2538 50.972 3.9765
48.3344 43.7268 3.97471
47.9617 62.478 0.0165375
47.3291 61.0123 2
46.6186 59.7981 3.98185
41.663 67.6925 0.0125016
43.3556 65.5119 0.0147814
44.7664 63.4586 0.0164064
45.987 61.5892 0.0173574
39.6325 67.7732 2
41.5453 65.6506 2
45.7658 60.6333 2
43.1456 63.7319 2
44.4827 61.8392 2
44.6229 60.2951 3.98153
42.9498 62.0879 3.98223
41.5989 63.8252 3.98365
39.647 65.619 3.9853
37.5634 67.7554 3.98744
31.6981 65.1377 3.98531
33.3928 67.4928 3.98737
35.3336 69.9637 3.99001
37.5261 70.054 2
37.5097 72.4603 3.99387
39.7025 70.0283 0.00990565
39.8179 72.4059 2
39.9526 74.9197 4
42.1111 72.2085 0.00606313
42.3947 74.6792 2
44.8159 74.2794 0
41.7362 4.96536 3.99061
43.8515 5.35587 2
44.3255 3.10877 3.99419
46.5701 3.6452 2
47.2057 1.27793 4
48.784 4.32074 0.00611151
49.554 1.99013 2
51.8506 2.85458 0
59.0442 42.9368 0.015871
60.2959 39.8557 0.019084
62.0338 37.4449 0.0182151
59.8168 37.5675 2
58.0625 40.6716 2
55.1997 39.731 2
56.9074 37.9004 3.98314
49.7922 41.2938 3.98204
53.2492 39.315 3.98739
39.4421 6.79734 3.98846
59.9418 35.1135 0.0194962
58.0444 32.2528 0.0194621
56.5969 29.3143 0.0153866
55.3487 19.1695 0.0161391
55.0177 21.5374 0.0190524
54.9607 24.0267 0.0198418
55.4931 26.5702 0.0141981
53.1292 18.644 0.0167524
51.306 18.0369 0.0174459
50.6353 16.1224 0.019166
45.962 5.87906 0.00972231
49.715 13.7343 0.0170894
47.3546 8.61884 0.0125515
48.6001 11.2865 0.0154917
43.3735 7.46848 0.01186
57.4604 34.7514 2
41.3987 7.07343 2
45.3595 7.99005 2
42.8653 9.40937 2
55.7878 31.4953 2
54.5703 28.3765 2
53.9768 20.118 2
53.6021 22.6841 2
53.8122 25.4687 2
46.6663 10.6469 2
47.7458 13.0945 2
51.658 19.3152 2
50.0084 17.6919 2
48.9329 15.3922 2
54.9705 33.9555 3.98018
53.5709 30.4579 3.98755
52.6485 27.1699 3.98443
52.1755 24.0586 3.97956
52.4031 21.0551 3.98118
41.0135 9.04297 3.9865
44.7235 9.98987 3.98586
42.4681 10.8961 3.98467
46.0052 12.7222 3.98329
47.6824 14.5768 3.98225
48.1149 16.9801 3.97993
49.8207 19.5889 3.97886
49.5918 61.7481 0.0168008
50.5683 59.3348 0.0179894
55.7143 41.7252 0.0179861
54.2527 45.5865 0.0150452
53.3893 49.357 0.0190357
52.1907 56.5049 0.0181334
52.6913 52.8796 0.0220879
48.8493 60.2055 2
52.6256 42.6588 2
49.7919 57.6348 2
50.6089 54.4391 2
51.8906 47.2906 2
51.2541 50.9703 2
48.3308 43.7269 2
47.9875 58.7467 3.98166
50.2173 45.2826 3.97933
48.6041 55.9248 3.98111
49.154 52.615 3.97892
49.7312 49.0686 3.97587
46.1999 39.911 3.91909
46.5821 42.7733 3.99139
46.6334 45.7223 3.97646
44.0516 41.2534 3.97852
42.0991 41.9908 3.97772
47.3292 61.0121 0.0173114
46.6186 59.7982 2
45.468 58.7934 3.98038
39.6325 67.7727 0.0124325
41.5452 65.6502 0.0147532
43.1456 63.7315 0.0162139
44.4827 61.8389 0.0174665
45.7658 60.6331 0.0181619
41.599 63.8256 2
37.5634 67.7558 2
39.647 65.6194 2
44.6229 60.2952 2
42.9498 62.0882 2
41.7527 62.4991 3.98241
42.4802 59.9861 3.981
39.8926 63.5604 3.98312
37.6421 65.5183 3.98534
35.4638 67.6647 3.98741
33.576 65.3513 3.9854
31.9602 63.3094 3.98367
29.8843 64.7281 3.98497
31.698 65.1381 2
31.3777 67.2024 3.98733
33.3928 67.4933 2
33.1566 69.7569 3.98992
35.3336 69.9641 2
35.1951 72.3747 3.99383
37.5261 70.0536 0.00994697
37.5097 72.4605 2
37.5 75 4
39.8179 72.4056 0.00608901
39.9526 74.9197 2
42.3947 74.6792 0
39.6238 4.71259 3.99069
41.7362 4.96502 2
42.0619 2.71642 3.99435
43.8515 5.3562 0.00953716
44.3255 3.10855 2
44.8158 0.721173 4
46.5701 3.64542 0.00593753
47.2057 1.27779 2
49.554 1.99015 0
58.0636 40.6717 0.0183008
59.8176 37.5676 0.0171892
55.2011 39.7312 0.0170116
49.7903 41.2937 2
56.9063 37.9003 2
53.2476 39.3146 2
54.1023 36.6236 3.98281
47.7137 40.4579 3.997
50.744 38.4813 3.98527
37.516 6.66854 3.98851
39.4421 6.79695 2
39.2111 8.68548 3.98659
35.9415 8.48524 3.98677
57.4616 34.7515 0.0196262
55.7894 31.4954 0.0178664
54.5721 28.3758 0.0123202
53.9767 20.1176 0.0169514
53.6024 22.6831 0.0217369
53.8133 25.4673 0.0181128
51.6578 19.3149 0.0172491
50.0083 17.6918 0.0203064
48.9328 15.3924 0.0182652
45.3594 7.99036 0.0121698
47.7458 13.0948 0.0171308
46.6663 10.6472 0.014677
41.3987 7.07379 0.0117599
42.8654 9.4097 0.0137299
54.9691 33.9551 2
41.0134 9.0426 2
44.7235 9.98958 2
42.468 10.8958 2
53.5687 30.4571 2
52.6467 27.1717 2
52.4033 21.0556 2
52.1749 24.0601 2
46.0052 12.722 2
47.6824 14.5766 2
49.8209 19.5892 2
48.115 16.98 2
52.5198 32.8476 3.98268
51.4246 29.1302 3.98872
50.8407 25.697 3.97773
49.9527 22.1638 3.98016
40.5689 11.5997 3.98419
43.8579 11.9112 3.98396
45.8031 15.4125 3.98157
47.5063 19.2141 3.97925
46.5274 37.5053 3.91898
48.8494 60.2052 0.0175239
49.7918 57.6347 0.0182334
52.6275 42.6592 0.015462
51.8916 47.2925 0.0192204
51.2538 50.972 0.0234972
50.6083 54.4387 0.02057
48.3344 43.7268 0.0252943
47.9875 58.747 2
50.2153 45.281 2
48.6043 55.9248 2
49.1545 52.6158 2
49.7308 49.0665 2
46.2007 39.9135 2
46.5898 42.7767 2
46.6303 45.7182 2
44.0562 41.2506 2
42.105 41.9936 2
46.8399 57.3484 3.98206
44.8138 39.5092 3.96987
42.4673 40.8662 3.9892
48.1826 47.2616 3.98108
47.1803 54.2564 3.98163
47.628 50.7763 3.97835
44.9017 47.3369 3.97471
45.2677 42.0307 3.92539
45.0406 44.6626 3.98671
42.8424 42.7475 3.97229
40.9501 42.3598 3.97561
46.6186 59.7981 0.0181514
45.4679 58.7935 2
43.8756 57.7157 3.97977
37.5634 67.7554 0.0125619
39.647 65.619 0.014704
41.5989 63.8252 0.0163485
42.9498 62.0879 0.0177671
44.6229 60.2951 0.018473
35.4638 67.6652 2
41.7527 62.4995 2
39.8926 63.5608 2
37.6421 65.5188 2
42.4802 59.9864 2
40.6224 61.6566 3.98238
40.4436 58.2139 3.9788
37.8363 63.222 3.98338
35.5732 65.4405 3.98529
33.576 65.3518 2
31.9603 63.3098 2
33.6296 63.3494 3.98381
30.3792 62.8673 3.98336
32.1234 62.0148 3.98228
26.8682 61.5093 3.98243
28.063 64.1555 3.98453
29.8842 64.7285 2
29.4074 66.7658 3.98703
31.6981 65.1377 0.0146909
31.3777 67.2028 2
31.0141 69.4218 3.98983
33.3928 67.4928 0.0126271
33.1566 69.7573 2
32.8922 72.1489 3.9938
35.3336 69.9637 0.00999386
35.1951 72.3749 2
35.0474 74.9194 4
37.5097 72.4603 0.00612645
37.5 75 2
39.9526 74.9197 0
35.6206 6.71952 3.98846
37.523 4.61217 3.99068
39.6238 4.71225 2
39.7885 2.47293 3.99441
41.7362 4.96536 0.00938669
42.062 2.71618 2
42.3946 0.32156 4
44.3255 3.10877 0.00581134
44.8159 0.72056 2
47.2057 1.27793 0
49.7922 41.2938 0.017963
56.9074 37.9004 0.0168559
53.2492 39.315 0.0126086
47.7116 40.4539 2
50.7419 38.4815 2
54.101 36.6236 2
51.526 35.5657 3.97196
48.3771 37.7585 4.00124
46.1921 35.1014 3.92158
44.0431 33.7603 3.97885
42.086 33.0336 3.98118
37.4578 8.52713 3.98671
37.5159 6.66816 2
39.4421 6.79734 0.0115357
39.2111 8.68506 2
38.976 10.1179 3.98581
35.8979 9.7646 3.98585
34.1498 8.81461 3.9866
35.9414 8.48488 2
54.9705 33.9555 0.0198201
53.5709 30.4579 0.0124489
52.6485 27.1699 0.0155714
52.4031 21.0551 0.0188191
52.1755 24.0586 0.0204382
49.8207 19.5889 0.0211388
48.1149 16.9801 0.0200682
47.6824 14.5768 0.0177464
44.7235 9.98987 0.0141409
46.0052 12.7222 0.0167051
41.0135 9.04297 0.0134954
42.4681 10.8961 0.0153264
52.518 32.8466 2
40.5688 11.5993 2
43.8579 11.911 2
51.4221 29.1324 2
50.8394 25.6991 2
49.9529 22.1647 2
45.8031 15.4123 2
47.5065 19.2141 2
50.1323 31.3794 3.97721
49.3627 27.4548 3.97739
49.4391 24.3791 3.97767
47.1948 21.9174 3.97742
38.3014 12.7248 3.98316
42.1009 14.296 3.9821
44.8019 18.4503 3.97964
45.086 37.5069 3.96462
46.5317 37.5065 2
47.9875 58.7467 0.018345
48.6041 55.9248 0.0188929
50.2173 45.2826 0.0206687
49.7312 49.0686 0.0241323
49.154 52.615 0.0210793
46.1999 39.911 0.0809103
46.5821 42.7733 0.0086088
46.6334 45.7223 0.0235366
44.0516 41.2534 0.0214773
42.0991 41.9908 0.0222803
46.84 57.3485 2
44.8167 39.5055 2
42.4688 40.866 2
48.1811 47.2596 2
47.1804 54.2563 2
47.6282 50.776 2
44.9013 47.3279 2
45.2703 42.0326 2
45.053 44.6678 2
42.8527 42.7414 2
40.9557 42.3576 2
45.4006 55.9328 3.97929
42.7979 39.2614 3.98883
40.8979 40.8154 3.94912
46.158 48.938 3.98034
45.5679 52.5543 3.98423
43.5305 48.4772 3.94736
43.4224 46.2114 4.00426
43.8045 43.8324 3.92296
41.3062 43.9022 3.98729
39.3153 42.6572 3.96558
45.468 58.7934 0.0196222
43.8756 57.7157 2
42.1062 56.3366 3.97924
35.4638 67.6647 0.0125936
37.6421 65.5183 0.0146588
39.8926 63.5604 0.0168817
41.7527 62.4991 0.0175925
42.4802 59.9861 0.0190018
35.5733 65.441 2
40.6224 61.657 2
37.8363 63.2224 2
40.4437 58.2141 2
38.925 56.5009 3.9789
38.25 60.3395 3.98153
35.607 63.2158 3.98355
33.576 65.3513 0.0146014
31.9602 63.3094 0.0163283
33.6296 63.3498 2
30.3792 62.8677 2
32.1234 62.0151 2
28.6814 62.2118 3.9829
33.346 61.5271 3.98201
31.0661 61.2308 3.98194
27.5659 59.6054 3.98213
23.7874 59.0992 3.98486
25.0326 60.8834 3.98312
26.8682 61.5096 2
26.2293 63.4871 3.98407
28.063 64.1558 2
27.4642 66.1892 3.98662
29.8843 64.7281 0.0150318
29.4074 66.7662 2
28.9066 68.9472 3.9897
31.3777 67.2024 0.0126726
31.014 69.4222 2
30.6147 71.7799 3.99376
33.1566 69.7569 0.0100791
32.8922 72.1491 2
32.6054 74.6784 4
35.1951 72.3747 0.00617426
35.0474 74.9197 2
37.5 75 0
33.7232 6.97403 3.98819
35.4344 4.68255 3.99064
35.6205 6.71914 2
37.5141 2.3856 3.99444
37.523 4.61183 2
39.6238 4.71259 0.00931056
39.7885 2.47269 2
39.9526 0.0806499 4
42.0619 2.71642 0.00565393
42.3947 0.320817 2
44.8158 0.721173 0
44.8132 35.5046 3.96945
42.4585 34.1557 3.99126
47.7137 40.4579 0.00300468
50.744 38.4813 0.014729
54.1023 36.6236 0.0171872
48.3753 37.7582 2
51.5244 35.5655 2
46.1891 35.0996 2
44.0494 33.7615 2
42.091 33.0325 2
48.5445 34.2398 4.00621
45.2548 32.9832 3.92329
42.8331 32.2705 3.97445
40.9359 32.6735 3.97631
37.3099 10.6209 3.98508
37.4577 8.52673 2
37.516 6.66854 0.0114945
39.2111 8.68548 0.0134057
38.9759 10.1175 2
34.7531 10.3702 3.98511
35.8979 9.76428 2
32.3765 9.36105 3.98607
34.1498 8.8143 2
35.9415 8.48524 0.0132329
52.5198 32.8476 0.0173196
51.4246 29.1302 0.0112807
50.8407 25.697 0.0222716
49.9527 22.1638 0.0198352
47.5063 19.2141 0.0207515
45.8031 15.4125 0.0184284
43.8579 11.9112 0.016044
40.5689 11.5997 0.0158141
50.1295 31.3794 2
38.3014 12.7245 2
42.1008 14.2957 2
49.3605 27.4569 2
49.4385 24.3804 2
47.1948 21.9191 2
44.8019 18.4502 2
47.9171 29.5896 3.97191
47.1418 25.1051 3.9792
44.2938 21.3062 3.97805
36.581 12.921 3.98344
38.6802 14.7955 3.98211
41.7502 17.8266 3.98032
42.9236 37.5005 3.99213
45.0923 37.5066 2
46.5274 37.5053 0.0810158
46.8399 57.3484 0.0179426
47.1803 54.2564 0.0183701
48.1826 47.2616 0.0189218
47.628 50.7763 0.0216506
44.8138 39.5092 0.0301287
45.2677 42.0307 0.074614
45.0406 44.6626 0.0132857
44.9017 47.3369 0.0252924
42.8424 42.7475 0.0277129
42.4673 40.8662 0.0108035
40.9501 42.3598 0.0243946
45.4008 55.9328 2
42.8001 39.2607 2
40.898 40.815 2
46.158 48.9355 2
45.5683 52.5532 2
43.5301 48.4758 2
43.4547 46.2201 2
43.8065 43.8346 2
41.3098 43.8933 2
39.3176 42.6592 2
43.7411 54.4397 3.98299
40.9754 39.1878 3.94057
39.2356 40.8809 3.94062
43.7516 50.5295 3.99001
42.0321 47.736 4.029
41.9447 45.2178 3.92315
39.5182 44.6554 3.97712
37.504 42.7691 3.9643
43.8756 57.7157 0.020229
42.1062 56.3363 2
40.4203 54.9352 3.97861
35.5732 65.4405 0.014708
37.8363 63.222 0.0166156
40.6224 61.6566 0.0176236
40.4436 58.2139 0.0211996
35.607 63.2161 2
38.25 60.3397 2
38.9249 56.5021 2
37.9994 55.2535 3.97769
36.9343 57.6379 3.97892
35.3635 60.9253 3.98212
33.6296 63.3494 0.0161924
30.3792 62.8673 0.0166407
32.1234 62.0148 0.0177235
33.346 61.5274 2
28.6814 62.2121 2
31.0661 61.2311 2
29.4016 60.2991 3.98124
32.3552 59.7569 3.9812
28.0176 58.3841 3.98348
27.5659 59.6056 2
25.3744 58.6086 3.98283
22.7495 58.2605 3.98236
23.3973 60.3652 3.98387
23.7872 59.0995 2
25.0326 60.8837 2
24.4313 62.78 3.98433
26.8682 61.5093 0.0175675
26.2293 63.4875 2
25.5482 65.499 3.98613
28.063 64.1555 0.0154722
27.4641 66.1897 2
26.8366 68.3355 3.98951
29.4074 66.7658 0.0129701
28.9065 68.9476 2
28.37 71.2651 3.9937
31.0141 69.4218 0.0101745
30.6147 71.7802 2
30.1842 74.2788 4
32.8922 72.1489 0.00619734
32.6053 74.6792 2
35.0474 74.9194 0
31.7876 7.41345 3.98789
33.3464 4.92163 3.99049
33.7231 6.97366 2
35.2444 2.46175 3.99437
35.4344 4.68219 2
35.6206 6.71952 0.0115355
37.5 0 4
37.5141 2.38536 2
37.523 4.61217 0.00931563
39.7885 2.47293 0.00558894
39.9526 0.0802889 2
42.3946 0.32156 0
42.7969 35.7462 3.99054
44.8127 35.5068 2
40.8897 34.2171 3.95049
42.4616 34.1535 2
48.3771 37.7585 -0.0012355
51.526 35.5657 0.0280441
46.1921 35.1014 0.0784163
44.0431 33.7603 0.0211488
42.086 33.0336 0.0188229
48.5429 34.2407 2
45.2563 32.9778 2
42.8407 32.2728 2
40.9404 32.6701 2
46.4758 31.4831 4.00038
43.79 31.182 3.92366
41.2964 31.1274 3.98259
39.2974 32.3915 3.97357
35.6914 11.7655 3.98387
37.3099 10.6205 2
37.4578 8.52713 0.013286
38.976 10.1179 0.0141897
33.0969 11.2066 3.98441
34.753 10.37 2
35.8979 9.7646 0.0141453
30.4812 10.0089 3.98562
32.3764 9.36081 2
34.1498 8.81461 0.0133965
50.1323 31.3794 0.0227871
49.3627 27.4548 0.0226087
49.4391 24.3791 0.0223271
47.1948 21.9174 0.0225754
44.8019 18.4503 0.0203563
42.1009 14.296 0.0178955
38.3014 12.7248 0.0168367
36.581 12.921 2
47.9136 29.5917 2
38.6802 14.7956 2
41.7501 17.8262 2
47.1409 25.1064 2
44.2937 21.3061 2
45.6585 27.8103 3.97453
43.8255 24.0401 3.98076
41.3449 20.7054 3.97918
35.7704 14.7462 3.98234
38.6809 17.5823 3.98113
41.0188 37.4983 3.93926
42.9282 37.5003 2
45.086 37.5069 0.0353804
45.4006 55.9328 0.0207075
45.5679 52.5543 0.0157705
46.158 48.938 0.0196628
42.7979 39.2614 0.0111665
43.8045 43.8324 0.0770352
43.4224 46.2114 -0.00426093
43.5305 48.4772 0.0526413
41.3062 43.9022 0.012705
40.8979 40.8154 0.0508756
39.3153 42.6572 0.0344205
43.7416 54.4397 2
40.9763 39.1868 2
39.2353 40.8833 2
43.7509 50.5314 2
42.0334 47.7372 2
41.9505 45.2182 2
37.5048 42.772 2
39.5234 44.6584 2
41.8898 53.0032 3.98159
39.2307 39.1807 3.94184
37.5067 40.9284 3.95169
35.6943 42.6781 3.96979
40.992 49.7492 3.99878
39.8291 46.094 3.92837
37.4973 44.9344 3.97015
42.1062 56.3366 0.0207621
40.4201 54.9351 2
38.7303 53.8608 3.98015
35.607 63.2158 0.016446
38.25 60.3395 0.0184697
38.925 56.5009 0.0211044
35.3634 60.9256 2
36.9342 57.6381 2
37.9993 55.2533 2
36.3185 55.3923 3.97879
34.4867 58.5336 3.98062
33.346 61.5271 0.01799
28.6814 62.2118 0.0170975
31.0661 61.2308 0.0180582
32.3553 59.7571 2
29.4016 60.2994 2
30.2935 57.8265 3.98127
28.0175 58.3843 2
26.9355 56.8364 3.98164
27.5659 59.6054 0.0178699
25.3743 58.6088 2
23.8278 56.8259 3.98117
21.3238 57.4238 3.98366
21.9886 59.6404 3.9845
22.7492 58.2608 2
22.7343 62.0326 3.98447
23.3973 60.3654 2
23.7874 59.0992 0.0151385
25.0326 60.8834 0.0168818
24.4313 62.7803 2
23.6818 64.7174 3.98588
26.2293 63.4871 0.0159332
25.5481 65.4994 2
24.8091 67.5967 3.98924
27.4642 66.1892 0.013383
26.8364 68.3358 2
26.1653 70.6059 3.9936
28.9066 68.9472 0.0102974
28.3699 71.2653 2
27.7943 73.7221 4
30.6147 71.7799 0.00624087
30.1841 74.2794 2
32.6054 74.6784 0
29.8102 7.98643 3.98748
31.2516 5.32851 3.9903
31.7875 7.41314 2
32.9803 2.69981 3.99426
33.3464 4.92127 2
33.7232 6.97403 0.0118135
35.0474 0.080333 4
35.2444 2.4615 2
35.4344 4.68255 0.00936216
37.5 0 2
37.5141 2.3856 0.00556442
39.9526 0.0806499 0
40.9774 35.821 3.94304
42.7965 35.7457 2
44.8132 35.5046 0.0305471
28.5421 10.6841 3.98507
39.2258 34.1645 3.94576
40.8907 34.2143 2
42.4585 34.1557 0.00873915
48.5445 34.2398 -0.00620917
45.2548 32.9832 0.0767126
42.8331 32.2705 0.0255473
40.9359 32.6735 0.0236858
46.481 31.4801 2
43.7898 31.1785 2
41.3032 31.1281 2
39.3002 32.387 2
44.4701 29.6611 3.99368
41.9288 29.8102 3.92716
39.5035 30.405 3.97483
37.483 32.2973 3.96549
34.091 12.9231 3.98314
35.6914 11.7653 2
37.3099 10.6209 0.0149237
31.1849 11.9748 3.98411
33.0969 11.2065 2
34.7531 10.3702 0.0148909
30.4811 10.0086 2
32.3765 9.36105 0.0139295
47.9171 29.5896 0.0280897
47.1418 25.1051 0.0208037
36.581 12.921 0.0165597
44.2938 21.3062 0.0219455
41.7502 17.8266 0.0196822
38.6802 14.7955 0.0178876
35.7705 14.7463 2
45.6556 27.8161 2
38.6807 17.5831 2
41.3444 20.7046 2
43.8248 24.0451 2
33.6058 15.8633 3.98244
43.128 26.5337 3.97877
40.9284 23.2788 3.98079
38.4228 20.3108 3.98075
35.8467 17.496 3.98111
39.2385 37.5035 3.93973
41.021 37.4971 2
42.9236 37.5005 0.00786845
43.7411 54.4397 0.0170052
43.7516 50.5295 0.00998721
40.9754 39.1878 0.0594337
41.9447 45.2178 0.0768471
42.0321 47.736 -0.0290037
39.5182 44.6554 0.022883
39.2356 40.8809 0.0593762
37.504 42.7691 0.0357024
41.8897 53.0041 2
39.2313 39.1817 2
37.506 40.9313 2
40.9905 49.7486 2
35.6927 42.6792 2
39.835 46.0987 2
37.4996 44.9345 2
39.8289 51.9137 3.98625
37.5026 39.2004 3.94029
35.7806 40.9046 3.93754
34.0597 42.3855 3.97686
35.4723 44.662 3.97212
38.7767 48.8254 4.04037
37.5038 46.4043 3.92033
40.4203 54.9352 0.0213941
38.7301 53.8591 2
36.7169 53.2145 3.98258
35.3635 60.9253 0.0178824
36.9343 57.6379 0.021076
37.9994 55.2535 0.0223077
34.4866 58.5336 2
36.3184 55.3921 2
33.2217 55.5126 3.98066
32.3552 59.7569 0.0187966
29.4016 60.2991 0.0187589
30.2935 57.8267 2
28.6732 55.3189 3.979
28.0176 58.3841 0.0165233
26.9352 56.8368 2
25.2917 55.1632 3.98025
21.79 55.3746 3.98135
25.3744 58.6086 0.0171726
23.8274 56.826 2
20.2068 57.0561 3.98479
20.6382 58.8014 3.98482
21.3235 57.4239 2
21.1633 61.185 3.98528
21.9885 59.6407 2
22.7495 58.2605 0.0176409
21.8946 63.8461 3.98591
22.7342 62.0329 2
23.3973 60.3652 0.0161347
24.4313 62.78 0.0156659
23.6817 64.7177 2
22.8375 66.7406 3.98893
25.5482 65.499 0.0138745
24.809 67.597 2
24.0098 69.8072 3.99348
26.8366 68.3355 0.0104907
26.1652 70.6061 2
25.446 73.0099 4
28.37 71.2651 0.00630432
27.7943 73.7222 2
30.1842 74.2788 0
27.8201 8.64577 3.9872
29.1537 5.87401 3.99002
29.8101 7.98608 2
30.7256 3.09684 3.99412
31.2516 5.32818 2
31.7876 7.41345 0.0121114
32.6053 0.320823 4
32.9802 2.69957 2
33.3464 4.92163 0.00950946
35.0474 0.0802903 2
35.2444 2.46175 0.00562863
37.5 0 0
39.2338 35.8388 3.94357
40.9766 35.819 2
42.7969 35.7462 0.00946164
28.5421 10.6839 2
26.6211 11.3797 3.98465
29.2238 12.6318 3.98354
37.495 34.1353 3.96016
39.2264 34.1604 2
40.8897 34.2171 0.0495092
46.4758 31.4831 -0.00038388
43.79 31.182 0.0763409
41.2964 31.1274 0.0174123
39.2974 32.3915 0.0264321
44.48 29.6543 2
41.9378 29.8072 2
39.5083 30.4012 2
37.485 32.2912 2
42.3703 28.3532 3.99945
39.8185 28.953 3.92526
37.4736 30.1255 3.95991
35.6728 32.3897 3.97467
31.9125 14.4691 3.98253
34.0911 12.9231 2
35.6914 11.7655 0.0161284
31.1849 11.9746 2
33.0969 11.2066 0.0155931
30.4812 10.0089 0.014378
45.6585 27.8103 0.0254651
43.8255 24.0401 0.019244
35.7704 14.7462 0.0176592
41.3449 20.7054 0.0208239
38.6809 17.5823 0.0188716
33.6059 15.8636 2
35.8467 17.4963 2
43.1261 26.5411 2
38.4224 20.3131 2
40.9282 23.2784 2
33.5478 17.3726 3.982
40.4921 25.6267 3.98296
38.0849 22.8412 3.98734
35.5825 20.0647 3.98145
37.5028 37.5186 3.93973
39.2401 37.5029 2
41.0188 37.4983 0.0607427
41.8898 53.0032 0.0184098
40.992 49.7492 0.00122497
39.2307 39.1807 0.0581634
39.8291 46.094 0.0716344
37.4973 44.9344 0.0298506
37.5067 40.9284 0.0483075
35.6943 42.6781 0.0302103
39.8293 51.9127 2
37.5033 39.2018 2
35.7795 40.9068 2
38.7714 48.8279 2
34.0551 42.386 2
35.4717 44.6614 2
37.499 46.4133 2
37.6665 51.0029 3.97419
35.7789 39.2075 3.93842
34.1242 40.8444 3.94728
32.9105 42.0191 3.98031
33.6846 43.9305 3.98197
35.1737 46.1086 3.92488
36.9034 48.4333 4.03217
38.7303 53.8608 0.0198482
36.7167 53.214 2
34.347 52.4822 3.98317
34.4867 58.5336 0.0193763
36.3185 55.3923 0.0212121
33.2216 55.5122 2
30.4973 53.4135 3.98001
30.2935 57.8265 0.0187253
28.6728 55.3192 2
26.8529 53.4643 3.97808
26.9355 56.8364 0.0183597
25.291 55.1633 2
23.5422 53.5113 3.9781
20.436 53.2619 3.98073
19.9157 55.8616 3.98393
21.7894 55.3746 2
23.8278 56.8259 0.0188286
19.4289 57.9165 3.98464
20.2064 57.0561 2
19.7017 60.2213 3.98522
20.638 58.8016 2
21.3238 57.4238 0.0163372
20.206 62.869 3.98634
21.1632 61.1852 2
21.9886 59.6404 0.0155021
20.9388 65.7703 3.98878
21.8945 63.8464 2
22.7343 62.0326 0.0155304
23.6818 64.7174 0.0141197
22.8374 66.7409 2
21.9125 68.8745 3.99332
24.8091 67.5967 0.0107556
24.0096 69.8074 2
23.1494 72.1454 4
26.1653 70.6059 0.0063996
25.446 73.0099 2
27.7943 73.7221 0
25.8595 9.37399 3.98658
27.0686 6.53782 3.9898
27.8201 8.64547 2
28.4878 3.64262 3.99395
29.1536 5.87366 2
29.8102 7.98643 0.0125192
30.1841 0.720592 4
30.7255 3.09662 2
31.2516 5.32851 0.00970073
32.6053 0.320817 2
32.9803 2.69981 0.00574148
35.0474 0.080333 0
37.503 35.8444 3.94467
39.2332 35.8365 2
40.9774 35.821 0.0569603
24.776 12.0631 3.98432
23.7494 14.3483 3.98341
28.5421 10.6841 0.0149255
26.6211 11.3796 2
29.2239 12.6316 2
27.2899 13.3653 3.9832
29.7784 14.1915 3.98264
35.7695 34.1589 3.94574
37.4955 34.1305 2
39.2258 34.1645 0.0542399
37.483 32.2973 0.0345103
44.4701 29.6611 0.00632125
41.9288 29.8102 0.0728399
39.5035 30.405 0.0251711
42.3772 28.3438 2
39.8229 28.9476 2
37.4758 30.1185 2
35.6741 32.3849 2
40.0488 27.5398 4.0134
37.4824 28.6653 3.92258
35.4448 30.4055 3.97335
34.0435 32.6736 3.97712
30.9236 16.8273 3.98189
31.9125 14.4692 2
34.091 12.9231 0.0168609
31.1849 11.9748 0.0158863
43.128 26.5337 0.0212255
40.9284 23.2788 0.0192067
33.6058 15.8633 0.017558
35.8467 17.496 0.0188943
38.4228 20.3108 0.0192478
33.5477 17.373 2
35.5826 20.065 2
40.49 25.6332 2
38.0849 22.8458 2
32.8597 19.7816 3.97953
37.7886 25.1391 3.99603
35.2045 22.6247 3.97805
35.7701 37.5265 3.93711
37.5043 37.5179 2
39.2385 37.5035 0.0602709
39.8289 51.9137 0.0137502
38.7767 48.8254 -0.0403697
37.5026 39.2004 0.0597144
37.5038 46.4043 0.0796691
35.4723 44.662 0.0278758
35.7806 40.9046 0.0624556
34.0597 42.3855 0.0231357
37.6668 51.0085 2
35.7798 39.2085 2
34.1225 40.8455 2
36.8995 48.4357 2
32.9052 42.0201 2
33.6819 43.9263 2
35.1663 46.1135 2
35.4133 50.1535 3.97656
34.0422 39.2216 3.93796
32.5457 40.896 3.99056
32.1571 42.7789 3.97086
33.0665 45.2462 3.92551
34.2795 47.5346 4.01069
36.7169 53.2145 0.0174221
34.3467 52.4835 2
31.9612 51.2122 3.97996
33.2217 55.5126 0.0193363
30.4969 53.4155 2
28.386 51.6456 3.97873
28.6732 55.3189 0.0209969
26.8523 53.4651 2
25.0343 51.804 3.97643
25.2917 55.1632 0.0197485
23.5415 53.511 2
21.9206 51.8501 3.97968
19.1608 51.6749 3.98122
18.8976 54.3413 3.98229
20.4357 53.2614 2
18.4345 56.7507 3.98501
19.9153 55.8615 2
21.79 55.3746 0.0186542
18.3622 59.1315 3.98494
19.4287 57.9166 2
20.2068 57.0561 0.0152138
18.6159 61.7787 3.98629
19.7015 60.2214 2
20.6382 58.8014 0.0151772
19.1272 64.6821 3.98881
20.206 62.8693 2
21.1633 61.185 0.014719
19.8866 67.8114 3.99321
20.9387 65.7706 2
21.8946 63.8461 0.0140874
22.8375 66.7406 0.0110679
21.9123 68.8746 2
20.9142 71.1327 4
24.0098 69.8072 0.00652226
23.1494 72.1455 2
25.446 73.0099 0
23.0952 12.778 3.98413
23.9722 10.1607 3.98603
25.0226 7.30777 3.98948
25.8595 9.37371 2
26.2796 4.32671 3.99373
27.0685 6.53751 2
27.8201 8.64577 0.0127985
27.7943 1.27781 4
28.4877 3.64241 2
29.1537 5.87401 0.00997676
30.1841 0.720551 2
30.7256 3.09684 0.00588369
32.6053 0.320823 0
35.7745 35.8482 3.94116
37.5029 35.8415 2
39.2338 35.8388 0.0564299
24.776 12.063 2
23.7495 14.3483 2
22.4775 15.0243 3.98366
25.3559 13.8975 3.98329
24.0218 15.6102 3.98335
26.6211 11.3797 0.015352
29.2238 12.6318 0.0164572
27.29 13.3652 2
29.7786 14.1914 2
28.3541 15.9669 3.98227
34.117 34.2183 3.94939
35.7698 34.1553 2
37.495 34.1353 0.0398358
35.6728 32.3897 0.0253329
37.4736 30.1255 0.0400913
42.3703 28.3532 0.000546334
39.8185 28.953 0.0747395
40.0501 27.5402 2
37.4826 28.6506 2
35.4459 30.3983 2
34.0441 32.6711 2
37.605 27.2423 4.01284
35.1249 28.9511 3.92473
33.658 31.1341 3.98165
32.9004 33.0479 3.98336
30.2031 19.3316 3.98262
30.9237 16.8279 2
31.9125 14.4691 0.0174675
40.4921 25.6267 0.0170359
38.0849 22.8412 0.0126639
33.5478 17.3726 0.0179953
35.5825 20.0647 0.0185543
32.8596 19.7824 2
35.2054 22.6252 2
37.7878 25.148 2
32.3051 22.3992 3.98001
34.9343 25.1558 3.97862
33.9963 37.5316 3.93809
35.7716 37.5259 2
37.5028 37.5186 0.0602713
37.6665 51.0029 0.0258073
36.9034 48.4333 -0.0321693
35.7789 39.2075 0.061584
35.1737 46.1086 0.075123
33.6846 43.9305 0.0180328
34.1242 40.8444 0.0527155
32.9105 42.0191 0.0196933
35.4134 50.1575 2
34.043 39.2221 2
32.5419 40.8968 2
34.2717 47.5426 2
32.1493 42.7732 2
33.057 45.2494 2
33.1646 49.1323 3.97741
32.2105 39.2983 3.98885
30.9524 41.2816 3.97888
31.2011 43.8632 3.92396
32.2131 46.4779 3.9953
34.347 52.4822 0.0168293
31.9609 51.2154 2
29.7847 49.7381 3.97865
30.4973 53.4135 0.0199856
28.3855 51.6439 2
26.4392 50.0398 3.97524
26.8529 53.4643 0.0219217
25.0336 51.8022 2
23.2796 50.2462 3.98092
23.5422 53.5113 0.0219009
21.9205 51.849 2
20.4131 50.3599 3.98201
17.9455 50.3676 3.98288
17.8032 52.8265 3.98218
19.161 51.674 2
17.4195 55.3692 3.9838
18.8974 54.341 2
20.436 53.2619 0.019274
17.1261 57.896 3.9855
18.4341 56.7507 2
19.9157 55.8616 0.0160669
17.1323 60.5643 3.98598
18.362 59.1316 2
19.4289 57.9165 0.015359
17.4069 63.4761 3.98879
18.6159 61.7789 2
19.7017 60.2213 0.0147811
17.9427 66.6204 3.99317
19.1272 64.6824 2
20.206 62.869 0.0136643
18.75 69.9759 4
19.8865 67.8116 2
20.9388 65.7703 0.0112171
21.9125 68.8745 0.00667676
20.9142 71.1327 2
23.1494 72.1454 0
21.5856 13.5978 3.98421
22.1903 11.0201 3.98562
23.0952 12.7779 2
23.0409 8.173 3.98914
23.9722 10.1605 2
24.1173 5.1413 3.99354
25.0226 7.30747 2
25.8595 9.37399 0.0134175
25.446 1.99014 4
26.2795 4.32653 2
27.0686 6.53782 0.0102015
27.7943 1.27778 2
28.4878 3.64262 0.00604902
30.1841 0.720592 0
34.0366 35.8415 3.93907
35.7747 35.846 2
37.503 35.8444 0.055328
21.3019 15.8187 3.98382
24.776 12.0631 0.0156788
23.7494 14.3483 0.0165943
25.356 13.8975 2
22.4776 15.0243 2
24.022 15.6104 2
23.2605 16.2413 3.98304
25.3772 16.0785 3.98298
27.2899 13.3653 0.0168013
29.7784 14.1915 0.0173641
28.3544 15.9669 2
27.4345 18.7899 3.9827
32.5476 34.1786 3.99408
34.1166 34.2165 2
35.7695 34.1589 0.0542563
34.0435 32.6736 0.0228844
35.4448 30.4055 0.0266487
37.4824 28.6653 0.0774179
40.0488 27.5398 -0.0133957
37.6058 27.2196 2
32.8999 33.0492 2
35.1214 28.9438 2
33.656 31.1345 2
35.028 27.3469 4.013
33.0097 29.8205 3.92759
32.1381 32.2873 3.9781
29.5648 21.9287 3.98488
30.2033 19.3331 2
30.9236 16.8273 0.0181148
37.7886 25.1391 0.00397487
35.2045 22.6247 0.0219544
32.8597 19.7816 0.0204671
32.3059 22.4008 2
34.9361 25.1671 2
31.6205 25.6116 3.97991
32.0853 37.5375 3.99082
33.9974 37.5312 2
35.7701 37.5265 0.0628875
35.4133 50.1535 0.0234434
34.2795 47.5346 -0.0106948
34.0422 39.2216 0.0620368
33.0665 45.2462 0.0744905
32.1571 42.7789 0.0291442
32.5457 40.896 0.00943531
33.1651 49.1191 2
32.2102 39.2982 2
30.9455 41.2797 2
32.1965 46.4872 2
31.1974 43.8647 2
31.0288 47.8871 3.97851
30.1849 39.5354 3.96902
29.7403 42.0553 3.92398
30.3115 45.0682 3.99346
31.9612 51.2122 0.0200402
29.7852 49.7357 2
27.7707 48.2248 3.97824
28.386 51.6456 0.0212709
26.4392 50.0371 2
24.5628 48.5246 3.9835
25.0343 51.804 0.0235665
23.2798 50.2442 2
21.5814 48.8404 3.9843
21.9206 51.8501 0.0203216
20.4136 50.3584 2
18.9795 49.1328 3.98458
16.8523 49.3651 3.98469
16.7405 51.4405 3.98286
17.9459 50.3668 2
16.3674 53.9001 3.98326
17.8032 52.8259 2
19.1608 51.6749 0.0187811
15.9651 56.4994 3.98504
17.4192 55.369 2
18.8976 54.3413 0.0177146
15.7445 59.2271 3.98615
17.1259 57.8961 2
18.4345 56.7507 0.0149878
15.7867 62.1482 3.98853
17.1322 60.5645 2
18.3622 59.1315 0.0150638
16.0891 65.3034 3.99318
17.4069 63.4764 2
18.6159 61.7787 0.0137083
16.6661 68.6801 4
17.9426 66.6205 2
19.1272 64.6821 0.0111926
18.75 69.9759 2
19.8866 67.8114 0.00679436
20.9142 71.1327 0
20.2168 14.5854 3.98424
21.5856 13.5977 2
20.5294 11.9897 3.98548
21.1441 9.1427 3.98871
22.1903 11.0199 2
23.0952 12.778 0.0158692
22.0164 6.08021 3.99336
23.0408 8.17272 2
23.9722 10.1607 0.0139745
23.1494 2.85457 4
24.1172 5.14112 2
25.0226 7.30777 0.0105236
25.446 1.99012 2
26.2796 4.32671 0.00627393
27.7943 1.27781 0
32.2134 35.7759 3.99131
34.0367 35.8401 2
35.7745 35.8482 0.0588426
21.302 15.8188 2
20.2978 16.9504 3.9846
22.0932 16.6243 3.98358
25.3559 13.8975 0.0167087
22.4775 15.0243 0.0163423
24.0218 15.6102 0.016651
25.3774 16.0786 2
23.2608 16.2415 2
24.1988 18.4405 3.98234
27.0006 21.4504 3.98086
28.3541 15.9669 0.0177253
27.4349 18.7901 2
30.9592 33.7915 3.97363
32.5443 34.1775 2
34.117 34.2183 0.050614
32.9004 33.0479 0.0166403
33.658 31.1341 0.0183538
35.1249 28.9511 0.0752735
37.605 27.2423 -0.0128404
35.0235 27.3376 2
32.1389 32.2911 2
33.0121 29.8197 2
32.4385 28.064 4.01358
31.1654 31.2102 3.92994
28.7421 24.3953 3.98583
29.5653 21.9316 2
30.2031 19.3316 0.0173821
34.9343 25.1558 0.0213775
32.3051 22.3992 0.0199853
31.6218 25.6039 2
29.5375 27.2388 3.98607
29.9154 37.5356 3.96587
32.0849 37.5371 2
33.9963 37.5316 0.0619129
33.1646 49.1323 0.0225867
32.2131 46.4779 0.00470255
32.2105 39.2983 0.0111483
31.2011 43.8632 0.0760432
30.9524 41.2816 0.0211233
31.0318 47.8778 2
30.184 39.5343 2
29.7374 42.0592 2
30.2962 45.0757 2
29.0312 46.4568 3.9745
28.8022 39.9333 3.91957
28.4896 43.2853 3.99866
29.7847 49.7381 0.0213543
27.772 48.2214 2
25.8209 46.7089 3.98504
26.4392 50.0398 0.0247601
24.5638 48.5221 2
22.708 47.137 3.98944
23.2796 50.2462 0.0190753
21.5824 48.8383 2
19.9176 47.6618 3.98745
20.4131 50.3599 0.0179911
18.9802 49.1319 2
17.6224 48.2133 3.98594
16.1037 48.7139 3.98586
16.8528 49.3645 2
15.8167 50.2009 3.98402
15.3541 52.4442 3.98337
16.7407 51.44 2
17.9455 50.3676 0.0171198
14.8541 55.0014 3.98431
16.3674 53.8998 2
17.8032 52.8265 0.0178153
14.4525 57.7573 3.98605
15.9649 56.4994 2
17.4195 55.3692 0.0161977
14.2642 60.7039 3.9882
15.7444 59.2273 2
17.1261 57.896 0.0145013
14.333 63.863 3.99309
15.7867 62.1485 2
17.1323 60.5643 0.0140176
14.6715 67.2507 4
16.089 65.3035 2
17.4069 63.4761 0.0112073
16.6661 68.6801 2
17.9427 66.6204 0.0068317
18.75 69.9759 0
18.9295 15.7702 3.98465
20.2169 14.5854 2
18.9786 13.0994 3.98543
21.5856 13.5978 0.0157903
20.5294 11.9895 2
19.3435 10.2302 3.98836
19.9912 7.1448 3.99314
21.1441 9.14244 2
22.1903 11.0201 0.0143782
20.9142 3.86727 4
22.0163 6.08006 2
23.0409 8.173 0.010863
23.1494 2.85451 2
24.1173 5.1413 0.0064626
25.446 1.99014 0
30.1949 35.5384 3.97331
32.2124 35.7748 2
34.0366 35.8415 0.0609257
21.3019 15.8187 0.0161757
22.0934 16.6244 2
20.298 16.9504 2
19.2352 18.3948 3.9845
21.7764 17.8385 3.9838
25.3772 16.0785 0.017016
23.2605 16.2413 0.0169556
24.1992 18.4409 2
22.267 19.8782 3.98348
24.5762 21.3099 3.98311
26.3726 23.7143 3.98421
27.0018 21.4509 2
27.4345 18.7899 0.0172975
29.7377 33.0144 3.9262
30.9521 33.7931 2
32.5476 34.1786 0.00591745
32.1381 32.2873 0.0219027
33.0097 29.8205 0.0724053
35.028 27.3469 -0.0129989
32.4311 28.0607 2
31.1716 31.2134 2
29.9574 29.5007 4.00348
27.7856 26.5426 3.97255
28.7425 24.4008 2
29.5648 21.9287 0.015115
31.6205 25.6116 0.0200945
29.5351 27.2268 2
28.4725 37.5316 3.92298
29.9139 37.5367 2
32.0853 37.5375 0.00917613
31.0288 47.8871 0.0214914
30.3115 45.0682 0.00654401
30.1849 39.5354 0.0309824
29.7403 42.0553 0.0760175
29.035 46.4535 2
28.8025 39.9336 2
28.4801 43.2882 2
27.0973 44.8262 3.97279
26.5775 40.6763 4.00865
27.7707 48.2248 0.0217608
25.8232 46.7058 2
23.848 45.265 3.98738
24.5628 48.5246 0.0164993
22.7097 47.1341 2
20.8384 45.9434 3.98925
21.5814 48.8404 0.0157046
19.9186 47.6609 2
18.262 46.773 3.98716
18.9795 49.1328 0.0154182
17.6231 48.2126 2
16.291 47.7434 3.98567
16.1042 48.7134 2
15.1621 49.0435 3.98489
16.8523 49.3651 0.0153091
15.8171 50.2004 2
14.4661 51.0111 3.98382
13.8139 53.4574 3.98406
15.3541 52.4438 2
16.7405 51.4405 0.0171399
13.246 56.1857 3.98555
14.8539 55.0012 2
16.3674 53.9001 0.0167401
12.846 59.1383 3.9879
14.4523 57.7574 2
15.9651 56.4994 0.0149635
12.6781 62.3058 3.99284
14.2642 60.7042 2
15.7445 59.2271 0.0138529
12.7746 65.6939 4
14.3329 63.8631 2
15.7867 62.1482 0.0114684
14.6714 67.2507 2
16.0891 65.3034 0.00681728
16.6661 68.6801 0
17.6626 17.1436 3.98472
18.9296 15.7702 2
17.5091 14.3618 3.98553
20.2168 14.5854 0.0157568
18.9786 13.0993 2
17.6389 11.4483 3.98814
20.5294 11.9897 0.014519
19.3435 10.23 2
18.0514 8.33745 3.99295
18.75 5.0241 4
19.991 7.14468 2
21.1441 9.1427 0.0112916
20.9142 3.86727 2
22.0164 6.08021 0.00664172
23.1494 2.85457 0
28.8044 35.133 3.92418
30.1929 35.5424 2
32.2134 35.7759 0.00868816
22.0932 16.6243 0.0164216
20.2978 16.9504 0.0153964
21.7767 17.8385 2
19.2354 18.3949 2
17.9681 19.9242 3.98461
20.8666 19.3633 3.98426
24.1988 18.4405 0.0176579
22.2676 19.8781 2
24.5772 21.3104 2
22.3383 21.701 3.9842
24.6592 23.1548 3.98337
25.3806 25.9403 3.97609
26.3736 23.7136 2
27.0006 21.4504 0.0191396
28.1294 32.2779 3.99544
29.7354 33.0135 2
30.9592 33.7915 0.0263651
31.1654 31.2102 0.0700615
32.4385 28.064 -0.0135837
29.9436 29.4997 2
26.8833 29.1411 3.96841
27.7827 26.5369 2
28.7421 24.3953 0.0141703
29.5375 27.2388 0.0139311
26.6962 37.3779 3.99897
28.4727 37.5299 2
29.9154 37.5356 0.0341281
29.0312 46.4568 0.0254973
28.4896 43.2853 0.00134231
28.8022 39.9333 0.0804306
27.1013 44.8247 2
26.5793 40.6764 2
25.0686 43.2219 3.9775
23.8263 39.4488 3.97026
25.8209 46.7089 0.0149566
23.8502 45.2648 2
21.8061 43.9948 3.98855
22.708 47.137 0.0105645
20.8402 45.943 2
18.9157 45.0048 3.98581
19.9176 47.6618 0.0125535
18.2631 46.7725 2
16.5771 46.241 3.98467
17.6224 48.2133 0.0140574
16.2917 47.743 2
14.8895 47.6961 3.98465
16.1037 48.7139 0.014138
15.1626 49.0431 2
13.7628 49.57 3.98418
15.8167 50.2009 0.015977
14.4664 51.0108 2
12.8792 51.895 3.98405
12.1321 54.544 3.98517
13.8138 53.4571 2
15.3541 52.4442 0.0166333
11.5298 57.4706 3.98739
13.2458 56.1857 2
14.8541 55.0014 0.0156902
11.1326 60.6325 3.99262
12.8459 59.1385 2
14.4525 57.7573 0.0139508
10.9835 64.0165 4
12.678 62.306 2
14.2642 60.7039 0.0118005
12.7745 65.694 2
14.333 63.863 0.00690822
14.6715 67.2507 0
16.3932 18.6352 3.98496
17.6628 17.1436 2
16.0993 15.7693 3.98558
18.9295 15.7702 0.0153531
17.5092 14.3617 2
16.0201 12.8006 3.98795
18.9786 13.0994 0.0145721
17.6389 11.4481 2
16.2025 9.66016 3.99284
19.3435 10.2302 0.0116379
18.0513 8.33736 2
16.6661 6.31991 4
18.75 5.02404 2
19.9912 7.1448 0.00685663
20.9142 3.86727 0
27.2035 34.7486 3.9944
28.8025 35.1316 2
30.1949 35.5384 0.0266911
16.6645 21.3567 3.98358
21.7764 17.8385 0.0161969
19.2352 18.3948 0.0154951
20.8669 19.3632 2
17.9683 19.9243 2
19.706 21.5529 3.98562
22.267 19.8782 0.016517
24.5762 21.3099 0.0168931
22.3392 21.7004 2
24.6596 23.155 2
22.7954 24.5845 3.98045
24.4345 28.5198 3.97465
25.3785 25.9393 2
26.3726 23.7143 0.0157943
25.9677 31.7203 3.97471
28.1233 32.2765 2
29.7377 33.0144 0.0738002
29.9574 29.5007 -0.00347565
26.8864 29.1406 2
27.7856 26.5426 0.0274519
24.5108 36.8841 3.97929
26.6972 37.3798 2
28.4725 37.5316 0.0770216
27.0973 44.8262 0.0272068
26.5775 40.6763 -0.00864515
25.0705 43.2237 2
23.8279 39.4504 2
22.8496 41.8356 3.98269
21.5852 38.5115 3.98135
23.848 45.265 0.0126189
21.8078 43.9957 2
19.6604 42.9187 3.98317
20.8384 45.9434 0.0107521
18.917 45.0047 2
16.9016 44.4056 3.98298
18.262 46.773 0.0128396
16.5779 46.2408 2
14.8075 46.1141 3.98331
16.291 47.7434 0.0143307
14.8901 47.6959 2
13.2681 48.0304 3.9838
15.1621 49.0435 0.0151148
13.7631 49.5697 2
12.0971 50.2717 3.98406
14.4661 51.0111 0.0161839
12.8793 51.8948 2
11.1266 52.8519 3.9849
10.3195 55.7222 3.98697
12.132 54.5439 2
13.8139 53.4574 0.0159446
9.69926 58.8558 3.99217
11.5297 57.4707 2
13.246 56.1857 0.0144457
9.30605 62.2254 4
11.1326 60.6326 2
12.846 59.1383 0.0120966
10.9835 64.0165 2
12.6781 62.3058 0.00716291
12.7746 65.6939 0
15.1356 20.1674 3.98441
16.3934 18.6351 2
14.7439 17.2904 3.98545
17.6626 17.1436 0.0152777
16.0994 15.7691 2
14.482 14.2811 3.98773
17.5091 14.3618 0.0144725
16.0201 12.8003 2
14.4451 11.111 3.9927
17.6389 11.4483 0.011856
16.2024 9.66008 2
14.6715 7.74927 4
18.0514 8.33745 0.00704893
16.6661 6.31988 2
18.75 5.0241 0
25.1491 34.2926 3.98336
27.2039 34.7501 2
28.8044 35.133 0.0758249
17.8332 22.3016 3.98615
15.5057 22.8988 3.98252
16.6647 21.3566 2
20.8666 19.3633 0.0157408
17.9681 19.9242 0.015394
19.7065 21.5527 2
19.6231 24.3584 3.98317
22.3383 21.701 0.0158045
24.6592 23.1548 0.0166313
22.7942 24.5835 2
21.8244 27.8064 3.97587
23.5953 31.179 3.97858
24.4364 28.5225 2
25.3806 25.9403 0.0239137
25.9699 31.7202 2
28.1294 32.2779 0.00456134
26.8833 29.1411 0.0315864
22.2938 36.2737 3.98634
24.5122 36.8851 2
26.6962 37.3779 0.00103385
25.0686 43.2219 0.0225025
23.8263 39.4488 0.0297427
22.8509 41.8365 2
21.5865 38.5119 2
20.575 40.6514 3.98005
19.9519 37.788 3.98364
21.8061 43.9948 0.0114544
19.6617 42.9189 2
17.2923 42.1212 3.98119
18.9157 45.0048 0.0141948
16.9026 44.4056 2
14.8061 44.2209 3.98148
16.5771 46.241 0.0153348
14.8082 46.114 2
12.9386 46.3148 3.98259
14.8895 47.6961 0.0153544
13.2686 48.0302 2
11.4674 48.5668 3.98366
13.7628 49.57 0.0158246
12.0973 50.2715 2
10.2516 51.094 3.98466
12.8792 51.895 0.0159509
11.1267 52.8518 2
9.22768 53.8994 3.98673
8.38284 56.9891 3.99146
10.3194 55.7222 2
12.1321 54.544 0.0148342
7.74927 60.3285 4
9.6992 58.8559 2
11.5298 57.4706 0.012609
9.306 62.2255 2
11.1326 60.6325 0.00737551
10.9835 64.0165 0
13.9454 21.7328 3.98383
15.1358 20.1672 2
13.4432 18.8861 3.98528
16.3932 18.6352 0.0150447
14.744 17.2903 2
13.0269 15.8726 3.98741
16.0993 15.7693 0.014421
14.4821 14.2808 2
12.7821 12.6839 3.99251
16.0201 12.8006 0.0120472
14.445 11.1109 2
12.7746 9.30605 4
16.2025 9.66016 0.00716159
14.6715 7.74924 2
16.6661 6.31991 0
22.888 33.7943 3.98538
25.1494 34.2933 2
27.2035 34.7486 0.00559681
17.5943 24.0201 3.98374
17.8333 22.3014 2
14.2857 24.4309 3.98126
15.5054 22.8983 2
16.6645 21.3567 0.0164242
18.9693 27.1812 3.97678
19.706 21.5529 0.0143811
19.6223 24.3586 2
21.0515 30.6484 3.97827
22.7954 24.5845 0.0195485
21.8257 27.8076 2
23.597 31.1806 2
24.4345 28.5198 0.0253544
25.9677 31.7203 0.0252905
20.0654 35.9195 3.98541
22.2948 36.2747 2
24.5108 36.8841 0.0207052
22.8496 41.8356 0.0173083
21.5852 38.5115 0.0186479
20.5762 40.6516 2
19.9528 37.7885 2
17.9555 39.011 3.98198
19.6604 42.9187 0.0168282
17.2933 42.1214 2
14.7505 41.9336 3.98046
16.9016 44.4056 0.0170196
14.8069 44.2209 2
12.677 44.4081 3.98121
14.8075 46.1141 0.0166923
12.9391 46.3148 2
10.9682 46.7484 3.98266
13.2681 48.0304 0.0161957
11.4677 48.5667 2
9.51418 49.2522 3.98422
12.0971 50.2717 0.0159386
10.2517 51.0939 2
8.26016 52.0111 3.98646
11.1266 52.8519 0.0151013
9.22764 53.8993 2
7.19172 55.0394 3.99076
6.31991 58.3339 4
8.3828 56.9892 2
10.3195 55.7222 0.0130261
7.74924 60.3285 2
9.69926 58.8558 0.00783074
9.30605 62.2254 0
13.2063 25.3459 3.9845
12.8106 23.2623 3.983
13.9452 21.7324 2
12.2271 20.5344 3.98509
15.1356 20.1674 0.0155905
13.4434 18.8858 2
11.6559 17.5529 3.9872
14.7439 17.2904 0.0145501
13.027 15.8724 2
11.2194 14.3682 3.99225
14.482 14.2811 0.0122735
12.7821 12.6838 2
10.9835 10.9835 4
14.4451 11.111 0.00730488
12.7745 9.306 2
14.6715 7.74927 0
20.4559 33.3837 3.98335
22.8883 33.7949 2
25.1491 34.2926 0.0166448
15.8624 26.3816 3.97947
17.5938 24.0198 2
17.8332 22.3016 0.0138452
14.2857 24.4312 2
15.5057 22.8988 0.0174787
18.3021 30.1559 3.97772
18.9703 27.1819 2
19.6231 24.3584 0.0168259
21.0529 30.6489 2
21.8244 27.8064 0.0241292
23.5953 31.179 0.0214171
17.5762 35.9621 3.98526
20.0661 35.92 2
22.2938 36.2737 0.0136597
20.575 40.6514 0.0199465
19.9519 37.788 0.0163568
17.9563 39.0113 2
14.2521 39.1845 3.98244
17.2923 42.1212 0.0188086
14.7513 41.9338 2
12.3626 42.2893 3.98108
14.8061 44.2209 0.0185205
12.6776 44.4082 2
10.5443 44.815 3.98177
12.9386 46.3148 0.0174089
10.9685 46.7484 2
8.89619 47.3296 3.9834
11.4674 48.5668 0.0163366
9.51431 49.2521 2
7.42678 50.0432 3.98598
10.2516 51.094 0.0153435
8.26015 52.0111 2
6.13207 53.0134 3.9902
9.22768 53.8994 0.0132703
7.19169 55.0395 2
5.0241 56.25 4
6.31988 58.3339 2
8.38284 56.9891 0.00853565
7.74927 60.3285 0
13.4399 26.7986 3.98069
11.9232 24.7729 3.9823
13.2064 25.346 2
11.1287 22.2196 3.98443
12.8105 23.2623 2
13.9454 21.7328 0.016173
12.227 20.5341 2
10.3852 19.3076 3.98707
13.4432 18.8861 0.0147215
11.656 17.5527 2
9.76021 16.1508 3.99194
13.0269 15.8726 0.0125889
11.2194 14.3681 2
9.30607 12.7746 4
12.7821 12.6839 0.00749035
10.9835 10.9835 2
12.7746 9.30605 0
17.7617 33.1007 3.98167
20.4562 33.3839 2
22.888 33.7943 0.0146174
15.4444 29.6222 3.97905
15.8629 26.3821 2
17.5943 24.0201 0.0162583
14.2857 24.4309 0.0187429
18.303 30.1562 2
18.9693 27.1812 0.0232161
21.0515 30.6484 0.0217297
14.8412 36.0176 3.98378
17.5768 35.9624 2
20.0654 35.9195 0.0145851
12.5535 37.8334 3.98206
17.9555 39.011 0.0180179
14.2527 39.1847 2
11.8741 40.1502 3.98255
14.7505 41.9336 0.0195449
12.3631 42.2895 2
10.1428 42.7879 3.98123
12.677 44.4081 0.0187892
10.5448 44.815 2
8.37366 45.3299 3.98276
10.9682 46.7484 0.0173365
8.89639 47.3296 2
6.71794 48.0071 3.98524
9.51418 49.2522 0.0157824
7.4268 50.0431 2
5.20855 50.9154 3.98976
8.26016 52.0111 0.0135429
6.13205 53.0135 2
3.86727 54.0858 4
7.19172 55.0394 0.00924248
5.02404 56.25 2
6.31991 58.3339 0
12.8929 29.0207 3.97874
11.3518 26.4748 3.98162
13.4403 26.7986 2
10.1874 23.9554 3.98324
11.9232 24.7729 2
13.2063 25.3459 0.0155047
9.23664 21.1274 3.98656
11.1287 22.2195 2
12.8106 23.2623 0.0169954
12.2271 20.5344 0.0149148
10.3852 19.3073 2
8.416 18.0212 3.99146
11.6559 17.5529 0.0128025
9.76024 16.1506 2
7.74928 14.6715 4
11.2194 14.3682 0.00774634
9.30602 12.7745 2
10.9835 10.9835 0
14.4326 32.8536 3.98127
17.7621 33.1009 2
20.4559 33.3837 0.0166503
15.445 29.6225 2
15.8624 26.3816 0.0205346
18.3021 30.1559 0.0222845
12.8403 36.2091 3.98221
14.8417 36.0178 2
17.5762 35.9621 0.014741
12.5539 37.8336 2
11.2322 38.3152 3.98159
14.2521 39.1845 0.0175609
11.8745 40.1504 2
9.72745 40.762 3.9822
12.3626 42.2893 0.0189158
10.1432 42.7881 2
7.92258 43.2771 3.98224
10.5443 44.815 0.0182317
8.37394 45.3299 2
6.12399 45.9111 3.98466
8.89619 47.3296 0.0165951
6.718 48.007 2
4.41994 48.7549 3.98946
7.42678 50.0432 0.0140166
5.20854 50.9154 2
2.85457 51.8506 4
6.13207 53.0134 0.00980115
3.86727 54.0858 2
5.0241 56.25 0
12.0323 31.247 3.98151
10.7634 28.4049 3.9803
12.8933 29.0206 2
9.40178 25.788 3.98257
11.3521 26.4749 2
13.4399 26.7986 0.0193067
8.22347 23.0143 3.98542
10.1874 23.9553 2
11.9232 24.7729 0.0177021
7.19795 19.9712 3.99067
9.23661 21.1271 2
11.1287 22.2196 0.0155701
10.3852 19.3076 0.012927
8.41601 18.0209 2
6.31992 16.6661 4
9.76021 16.1508 0.00806426
7.74926 14.6714 2
9.30607 12.7746 0
12.0471 34.2906 3.98083
14.4328 32.8536 2
17.7617 33.1007 0.0183338
15.4444 29.6222 0.0209525
10.7972 36.6124 3.98127
12.8408 36.2093 2
14.8412 36.0176 0.0162239
12.5535 37.8334 0.0179383
11.2327 38.3155 2
9.3225 38.8286 3.98216
11.8741 40.1502 0.0174464
9.72782 40.7622 2
7.53366 41.2168 3.98249
10.1428 42.7879 0.0187652
7.92282 43.2773 2
5.63588 43.7729 3.98445
8.37366 45.3299 0.0172443
6.12412 45.9109 2
3.7655 46.5399 3.98938
6.71794 48.0071 0.014756
4.41994 48.7549 2
1.99014 49.554 4
5.20855 50.9154 0.0102412
2.85451 51.8506 2
3.86727 54.0858 0
10.896 32.9129 3.98147
10.0757 30.3743 3.98125
12.0325 31.2469 2
8.70949 27.724 3.98176
10.7636 28.4048 2
12.8929 29.0207 0.0212629
7.34878 24.9753 3.98471
9.40186 25.7879 2
11.3518 26.4748 0.0183779
6.11469 21.996 3.98961
8.22342 23.0141 2
10.1874 23.9554 0.0167557
5.02411 18.75 4
7.19793 19.971 2
9.23664 21.1274 0.0134423
8.416 18.0212 0.00853645
6.3199 16.6661 2
7.74928 14.6715 0
10.4102 34.9982 3.98144
12.0474 34.2907 2
14.4326 32.8536 0.0187275
8.99642 36.9869 3.98106
10.7976 36.6126 2
12.8403 36.2091 0.0177868
11.2322 38.3152 0.0184129
9.32285 38.8288 2
7.21441 39.1857 3.98265
9.72745 40.762 0.0178031
7.53391 41.217 2
5.25126 41.6175 3.98432
7.92258 43.2771 0.0177576
5.63598 43.7728 2
3.24321 44.2844 3.98931
6.12399 45.9111 0.0153414
3.76555 46.5398 2
1.27781 47.2057 4
4.41994 48.7549 0.0105429
1.99012 49.554 2
2.85457 51.8506 0
10.0645 33.8777 3.98129
9.3688 32.1488 3.98184
10.8963 32.9128 2
8.05848 29.6895 3.98188
10.0758 30.3742 2
12.0323 31.247 0.0184912
6.59232 27.003 3.98406
8.70961 27.7239 2
10.7634 28.4049 0.0196985
5.16971 24.0906 3.98894
7.34877 24.9752 2
9.40178 25.788 0.0174279
3.86728 20.9142 4
6.11464 21.9959 2
8.22347 23.0143 0.0145782
5.02406 18.75 2
7.19795 19.9712 0.00933138
6.31992 16.6661 0
8.82351 35.2786 3.9815
10.4105 34.9983 2
12.0471 34.2906 0.0191743
6.9995 37.2074 3.9818
8.9968 36.987 2
10.7972 36.6124 0.0187338
9.3225 38.8286 0.0178449
7.21468 39.1859 2
4.97923 39.4697 3.98422
7.53366 41.2168 0.0175149
5.25138 41.6175 2
2.85376 42.0043 3.98906
5.63588 43.7729 0.0155547
3.24324 44.2843 2
0.720592 44.8159 4
3.7655 46.5399 0.0106199
1.27778 47.2057 2
1.99014 49.554 0
8.86571 33.6944 3.98173
10.0648 33.8777 2
7.49577 31.6049 3.98235
9.36896 32.1487 2
10.896 32.9129 0.0185307
5.93743 29.0656 3.98383
8.05856 29.6894 2
10.0757 30.3743 0.0187518
4.35715 26.2447 3.98869
6.59235 27.003 2
8.70949 27.724 0.0182359
2.85458 23.1494 4
5.16966 24.0907 2
7.34878 24.9753 0.0152873
3.86728 20.9142 2
6.11469 21.996 0.0103905
5.02411 18.75 0
6.9502 35.3056 3.98185
8.82381 35.2787 2
10.4102 34.9982 0.018557
4.83 37.3409 3.98381
6.99984 37.2076 2
8.99642 36.9869 0.0189401
7.21441 39.1857 0.0173528
4.97939 39.4698 2
2.60191 39.7154 3.98877
5.25126 41.6175 0.0156772
2.8538 42.0043 2
0.320823 42.3947 4
3.24321 44.2844 0.0106872
0.720551 44.8159 2
1.27781 47.2057 0
7.10998 33.4585 3.98223
8.86593 33.6944 2
10.0645 33.8777 0.018712
5.40815 31.1309 3.98408
7.49586 31.6048 2
9.3688 32.1488 0.0181565
3.67882 28.4417 3.98877
5.93745 29.0656 2
8.05848 29.6895 0.0181158
1.99015 25.446 4
4.35711 26.245 2
6.59232 27.003 0.0159435
2.85453 23.1494 2
5.16971 24.0906 0.0110571
3.86728 20.9142 0
4.84456 35.2514 3.98374
6.95048 35.3057 2
8.82351 35.2786 0.0185037
2.49348 37.4292 3.98875
4.83025 37.3411 2
6.9995 37.2074 0.0181958
4.97923 39.4697 0.0157845
2.60197 39.7154 2
0.080333 39.9526 4
2.85376 42.0043 0.0109399
0.320817 42.3947 2
0.720592 44.8159 0
5.03779 33.1888 3.98403
7.11015 33.4585 2
8.86571 33.6944 0.0182735
3.14311 30.665 3.98901
5.40817 31.131 2
7.49577 31.6049 0.0176461
1.27793 27.7943 4
3.67879 28.4421 2
5.93743 29.0656 0.0161702
1.99013 25.446 2
4.35715 26.2447 0.0113137
2.85458 23.1494 0
2.54571 35.1591 3.98875
4.84476 35.2517 2
6.9502 35.3056 0.0181465
0 37.5 4
2.49361 37.4294 2
4.83 37.3409 0.0161905
2.60191 39.7154 0.011225
0.0802903 39.9526 2
0.320823 42.3947 0
2.76324 32.9052 3.98887
5.0379 33.1891 2
7.10998 33.4585 0.0177695
0.721173 30.1842 4
3.14309 30.6655 2
5.40815 31.1309 0.0159193
1.27779 27.7943 2
3.67882 28.4417 0.0112264
1.99015 25.446 0
0.0806499 35.0474 4
2.5458 35.1594 2
4.84456 35.2514 0.0162587
0 37.5 2
2.49348 37.4292 0.0112465
0.080333 39.9526 0
0.32156 32.6054 4
2.76328 32.9057 2
5.03779 33.1888 0.0159706
0.72056 30.1841 2
3.14311 30.665 0.0109947
1.27793 27.7943 0
0.0802889 35.0474 2
2.54571 35.1591 0.0112549
0 37.5 0
0.320817 32.6053 2
2.76324 32.9052 0.0111286
0.721173 30.1842 0
0.0806499 35.0474 0
0.32156 32.6054 0
CELLS 1910 17190
8 18 6 25 56 2 0 5 16
8 57 23 6 18 17 4 0 2
8 78 36 9 29 31 11 1 7
8 31 11 1 7 79 37 10 30
8 110 57 18 50 48 17 2 14
8 50 18 56 111 14 2 16 49
8 116 62 22 55 52 20 3 15
8 56 25 67 118 16 5 24 53
8 119 63 23 57 54 21 4 17
8 55 22 63 119 15 3 21 54
8 58 26 68 121 18 6 25 56
8 122 65 26 58 57 23 6 18
8 73 31 7 27 142 79 30 71
8 143 78 29 72 73 31 7 27
8 83 147 76 34 32 74 28 8
8 84 148 78 36 33 75 29 9
8 76 34 8 28 148 84 33 75
8 37 79 150 86 10 30 77 35
8 151 87 36 78 80 38 11 31
8 80 38 11 31 152 88 37 79
8 175 100 42 94 96 44 12 40
8 44 96 176 101 12 40 95 43
8 101 176 98 46 43 95 41 13
8 46 98 178 103 13 41 97 45
8 178 103 45 97 147 83 32 74
8 189 116 55 109 106 52 15 47
8 111 56 118 191 49 16 53 107
8 192 119 57 110 108 54 17 48
8 109 55 119 192 47 15 54 108
8 194 122 58 112 110 57 18 50
8 112 58 121 195 50 18 56 111
8 115 61 19 51 197 124 59 113
8 115 61 125 198 51 19 60 114
8 198 125 62 116 114 60 20 52
8 200 127 64 120 116 62 22 55
8 118 67 132 202 53 24 66 117
8 121 68 133 203 56 25 67 118
8 120 64 128 204 55 22 63 119
8 204 128 65 122 119 63 23 57
8 206 134 68 121 123 69 26 58
8 123 69 26 58 207 131 65 122
8 226 147 74 138 140 76 28 70
8 229 148 75 139 143 78 29 72
8 140 76 28 70 229 148 75 139
8 142 79 30 71 231 150 77 141
8 144 80 31 73 232 152 79 142
8 233 151 78 143 144 80 31 73
8 150 86 35 77 235 154 81 145
8 235 154 81 145 146 82 39 91
8 146 82 39 91 236 155 90 165
8 238 157 83 147 149 85 34 76
8 239 158 84 148 151 87 36 78
8 149 85 34 76 239 158 84 148
8 152 88 37 79 241 160 86 150
8 242 161 87 151 153 89 38 80
8 153 89 38 80 243 162 88 152
8 171 98 41 92 265 178 97 169
8 265 178 97 169 226 147 74 138
8 172 96 40 93 266 176 95 170
8 266 176 95 170 171 98 41 92
8 269 175 94 173 172 96 40 93
8 271 180 99 174 175 100 42 94
8 197 124 59 113 271 180 99 174
8 272 181 100 175 177 102 44 96
8 273 182 101 176 179 104 46 98
8 177 102 44 96 273 182 101 176
8 179 104 46 98 275 184 103 178
8 275 184 103 178 238 157 83 147
8 188 115 51 105 283 197 113 186
8 188 115 198 284 105 51 114 187
8 284 198 116 189 187 114 52 106
8 286 200 120 193 189 116 55 109
8 191 118 202 288 107 53 117 190
8 195 121 203 289 111 56 118 191
8 193 120 204 290 109 55 119 192
8 290 204 122 194 192 119 57 110
8 196 123 58 112 292 207 122 194
8 293 206 121 195 196 123 58 112
8 199 126 61 115 297 211 124 197
8 298 212 127 200 198 125 62 116
8 199 126 212 298 115 61 125 198
8 205 129 64 120 300 214 127 200
8 301 217 130 201 202 132 66 117
8 209 136 168 264 301 217 130 201
8 302 219 132 202 203 133 67 118
8 303 220 133 203 206 134 68 121
8 205 129 215 304 120 64 128 204
8 304 215 131 207 204 128 65 122
8 306 221 134 206 208 135 69 123
8 208 135 69 123 307 218 131 207
8 210 137 167 263 309 223 136 209
8 328 238 147 226 230 149 76 140
8 228 146 91 166 329 236 165 260
8 231 150 77 141 330 235 145 227
8 330 235 145 227 228 146 91 166
8 332 239 148 229 233 151 78 143
8 230 149 76 140 332 239 148 229
8 232 152 79 142 334 241 150 231
8 234 153 80 144 335 243 152 232
8 336 242 151 233 234 153 80 144
8 236 155 90 165 338 245 164 259
8 241 160 86 150 339 246 154 235
8 339 246 154 235 237 156 82 146
8 237 156 82 146 340 247 155 236
8 342 249 157 238 240 159 85 149
8 343 250 158 239 242 161 87 151
8 240 159 85 149 343 250 158 239
8 243 162 88 152 345 252 160 241
8 244 163 253 346 153 89 161 242
8 244 163 89 153 347 254 162 243
8 311 224 261 371 210 137 167 263
8 263 167 262 372 209 136 168 264
8 267 179 98 171 375 275 178 265
8 375 275 178 265 328 238 147 226
8 376 273 176 266 267 179 98 171
8 268 177 96 172 376 273 176 266
8 379 272 175 269 268 177 96 172
8 380 271 174 270 269 175 94 173
8 283 197 113 186 380 271 174 270
8 381 277 180 271 272 181 100 175
8 297 211 124 197 381 277 180 271
8 382 278 181 272 274 183 102 177
8 274 183 102 177 383 279 182 273
8 383 279 182 273 276 185 104 179
8 385 281 184 275 342 249 157 238
8 276 185 104 179 385 281 184 275
8 285 199 115 188 393 297 197 283
8 394 298 200 286 284 198 116 189
8 285 199 298 394 188 115 198 284
8 291 205 120 193 396 300 200 286
8 397 301 201 287 288 202 117 190
8 295 209 264 374 397 301 201 287
8 398 302 202 288 289 203 118 191
8 399 303 203 289 293 206 121 195
8 291 205 304 400 193 120 204 290
8 400 304 207 292 290 204 122 194
8 294 208 123 196 402 307 207 292
8 403 306 206 293 294 208 123 196
8 296 210 263 373 405 309 209 295
8 408 312 213 299 297 211 126 199
8 299 213 313 409 199 126 212 298
8 409 313 214 300 298 212 127 200
8 305 216 129 205 411 315 214 300
8 412 318 217 301 302 219 132 202
8 309 223 136 209 412 318 217 301
8 413 320 219 302 303 220 133 203
8 306 221 321 414 206 134 220 303
8 307 218 131 207 415 316 215 304
8 305 216 316 415 205 129 215 304
8 417 322 221 306 308 222 135 208
8 308 222 135 208 418 319 218 307
8 310 225 137 210 420 325 223 309
8 423 326 224 311 310 225 137 210
8 329 236 165 260 441 338 259 368
8 442 342 238 328 333 240 149 230
8 331 237 146 228 443 340 236 329
8 334 241 150 231 444 339 235 330
8 444 339 235 330 331 237 146 228
8 446 343 239 332 336 242 151 233
8 333 240 149 230 446 343 239 332
8 335 243 152 232 448 345 241 334
8 337 244 153 234 449 347 243 335
8 337 244 346 450 234 153 242 336
8 338 245 164 259 452 349 258 367
8 340 247 155 236 453 350 245 338
8 345 252 160 241 454 351 246 339
8 454 351 246 339 341 248 156 237
8 341 248 156 237 455 352 247 340
8 240 159 251 344 342 249 354 457
8 242 161 253 346 343 250 355 458
8 343 250 355 458 240 159 251 344
8 347 254 162 243 460 357 252 345
8 348 255 358 461 244 163 253 346
8 348 255 163 244 462 359 254 347
8 473 360 257 365 363 256 364 482
8 452 349 258 367 365 257 366 485
8 422 324 369 488 311 224 261 371
8 371 261 370 490 263 167 262 372
8 407 311 371 491 296 210 263 373
8 373 263 372 492 295 209 264 374
8 493 385 275 375 442 342 238 328
8 377 276 179 267 493 385 275 375
8 378 274 177 268 494 383 273 376
8 494 383 273 376 377 276 179 267
8 497 382 272 379 378 274 177 268
8 498 381 271 380 379 272 175 269
8 393 297 197 283 498 381 271 380
8 499 387 277 381 382 278 181 272
8 408 312 211 297 499 387 277 381
8 500 388 278 382 384 280 183 274
8 501 389 279 383 386 282 185 276
8 384 280 183 274 501 389 279 383
8 386 282 185 276 503 391 281 385
8 503 391 281 385 457 354 249 342
8 511 408 299 395 393 297 199 285
8 395 299 409 512 285 199 298 394
8 512 409 300 396 394 298 200 286
8 401 305 205 291 514 411 300 396
8 515 412 301 397 398 302 202 288
8 405 309 209 295 515 412 301 397
8 516 413 302 398 399 303 203 289
8 403 306 414 517 293 206 303 399
8 402 307 207 292 518 415 304 400
8 401 305 415 518 291 205 304 400
8 404 308 208 294 520 418 307 402
8 521 417 306 403 404 308 208 294
8 406 310 210 296 523 420 309 405
8 526 423 311 407 406 310 210 296
8 410 314 213 299 527 424 312 408
8 528 425 315 411 409 313 214 300
8 410 314 425 528 299 213 313 409
8 416 317 216 305 530 427 315 411
8 531 430 318 412 413 320 219 302
8 420 325 223 309 531 430 318 412
8 532 432 320 413 414 321 220 303
8 417 322 433 533 306 221 321 414
8 418 319 218 307 534 428 316 415
8 416 317 428 534 305 216 316 415
8 419 323 434 536 308 222 322 417
8 419 323 222 308 537 431 319 418
8 421 327 225 310 539 438 325 420
8 421 327 439 541 310 225 326 423
8 543 437 324 422 423 326 224 311
8 441 338 259 368 559 452 367 486
8 443 340 236 329 560 453 338 441
8 333 240 344 447 442 342 457 561
8 445 341 237 331 562 455 340 443
8 448 345 241 334 563 454 339 444
8 563 454 339 444 445 341 237 331
8 336 242 346 450 446 343 458 565
8 446 343 458 565 333 240 344 447
8 449 347 243 335 567 460 345 448
8 451 348 244 337 568 462 347 449
8 451 348 461 569 337 244 346 450
8 570 463 349 452 473 360 257 365
8 453 350 245 338 570 463 349 452
8 455 352 247 340 571 464 350 453
8 460 357 252 345 572 465 351 454
8 572 465 351 454 456 353 248 341
8 456 353 248 341 573 466 352 455
8 344 251 356 459 457 354 468 575
8 458 355 469 576 344 251 356 459
8 346 253 358 461 458 355 469 576
8 462 359 254 347 578 471 357 460
8 348 255 359 462 461 358 472 579
8 591 474 360 473 475 361 256 363
8 475 361 256 363 594 477 362 479
8 363 256 364 482 479 362 480 603
8 590 473 365 484 481 363 482 605
8 482 364 257 365 606 483 366 485
8 559 452 367 486 484 365 485 607
8 542 436 487 609 422 324 369 488
8 525 422 488 611 407 311 371 491
8 488 369 489 612 371 261 370 490
8 491 371 490 613 373 263 372 492
8 495 386 276 377 614 503 385 493
8 614 503 385 493 561 457 342 442
8 615 501 383 494 495 386 276 377
8 496 384 274 378 615 501 383 494
8 618 500 382 497 496 384 274 378
8 619 499 381 498 497 382 272 379
8 511 408 297 393 619 499 381 498
8 620 505 387 499 500 388 278 382
8 527 424 312 408 620 505 387 499
8 502 390 506 621 384 280 388 500
8 622 507 389 501 504 392 282 386
8 502 390 280 384 622 507 389 501
8 504 392 282 386 624 509 391 503
8 624 509 391 503 575 468 354 457
8 513 410 299 395 630 527 408 511
8 631 528 411 514 512 409 300 396
8 513 410 528 631 395 299 409 512
8 519 416 305 401 633 530 411 514
8 634 531 412 515 516 413 302 398
8 523 420 309 405 634 531 412 515
8 635 532 413 516 517 414 303 399
8 521 417 533 636 403 306 414 517
8 520 418 307 402 637 534 415 518
8 519 416 534 637 401 305 415 518
8 522 419 308 404 639 537 418 520
8 522 419 536 640 404 308 417 521
8 524 421 310 406 642 539 420 523
8 524 421 541 644 406 310 423 526
8 646 543 422 525 526 423 311 407
8 529 426 314 410 647 544 424 527
8 528 425 545 648 411 315 427 530
8 529 426 545 648 410 314 425 528
8 535 429 317 416 649 546 427 530
8 650 548 430 531 532 432 320 413
8 539 438 325 420 650 548 430 531
8 533 433 550 651 414 321 432 532
8 536 434 551 652 417 322 433 533
8 537 431 319 418 653 547 428 534
8 535 429 547 653 416 317 428 534
8 538 435 552 654 419 323 434 536
8 538 435 323 419 655 549 431 537
8 540 440 327 421 657 556 438 539
8 540 440 557 659 421 327 439 541
8 541 439 555 660 423 326 437 543
8 661 554 436 542 543 437 324 422
8 676 570 452 559 590 473 365 484
8 560 453 338 441 676 570 452 559
8 562 455 340 443 677 571 453 560
8 447 344 459 566 561 457 575 678
8 564 456 341 445 679 573 455 562
8 567 460 345 448 680 572 454 563
8 680 572 454 563 564 456 341 445
8 565 458 576 682 447 344 459 566
8 450 346 461 569 565 458 576 682
8 568 462 347 449 684 578 460 567
8 451 348 462 568 569 461 579 685
8 686 580 463 570 591 474 360 473
8 571 464 350 453 686 580 463 570
8 573 466 352 455 687 581 464 571
8 572 465 582 688 460 357 471 578
8 574 467 582 688 456 353 465 572
8 574 467 353 456 689 583 466 573
8 459 356 470 577 575 468 585 691
8 576 469 586 692 459 356 470 577
8 461 358 472 579 576 469 586 692
8 462 359 471 578 579 472 588 694
8 704 591 473 590 593 475 363 481
8 595 476 592 705 475 361 474 591
8 593 475 363 481 707 594 479 602
8 594 477 362 479 709 598 478 600
8 595 476 361 475 711 597 477 594
8 479 362 480 603 600 478 601 720
8 481 363 482 605 602 479 603 722
8 603 480 364 482 723 604 483 606
8 605 482 365 484 724 606 485 607
8 656 553 608 726 542 436 487 609
8 645 542 609 728 525 422 488 611
8 609 487 610 729 488 369 489 612
8 611 488 612 730 491 371 490 613
8 616 504 386 495 731 624 503 614
8 731 624 503 614 678 575 457 561
8 732 622 501 615 616 504 386 495
8 617 502 384 496 732 622 501 615
8 617 502 621 735 496 384 500 618
8 736 620 499 619 618 500 382 497
8 630 527 408 511 736 620 499 619
8 621 506 626 737 500 388 505 620
8 647 544 424 527 737 626 505 620
8 623 508 627 738 502 390 506 621
8 623 508 390 502 739 628 507 622
8 625 510 628 739 504 392 507 622
8 740 629 509 624 691 585 468 575
8 625 510 392 504 740 629 509 624
8 632 529 410 513 744 647 527 630
8 631 528 648 745 514 411 530 633
8 632 529 648 745 513 410 528 631
8 638 535 416 519 746 649 530 633
8 747 650 531 634 635 532 413 516
8 642 539 420 523 747 650 531 634
8 636 533 651 748 517 414 532 635
8 640 536 652 749 521 417 533 636
8 639 537 418 520 750 653 534 637
8 638 535 653 750 519 416 534 637
8 641 538 419 522 751 655 537 639
8 641 538 654 752 522 419 536 640
8 643 540 421 524 753 657 539 642
8 643 540 659 755 524 421 541 644
8 644 541 660 757 526 423 543 646
8 758 661 542 645 646 543 422 525
8 529 426 544 647 648 545 662 759
8 530 427 545 648 649 546 663 760
8 535 429 546 649 653 547 664 761
8 762 666 548 650 651 550 432 532
8 657 556 438 539 762 666 548 650
8 652 551 668 763 533 433 550 651
8 654 552 669 764 536 434 551 652
8 655 549 431 537 765 665 547 653
8 538 435 549 655 654 552 667 766
8 661 554 671 768 542 436 553 656
8 658 558 440 540 769 674 556 657
8 658 558 675 770 540 440 557 659
8 659 557 673 771 541 439 555 660
8 660 555 672 772 543 437 554 661
8 788 686 570 676 704 591 473 590
8 677 571 453 560 788 686 570 676
8 679 573 455 562 789 687 571 677
8 566 459 577 683 678 575 691 790
8 681 574 456 564 791 689 573 679
8 680 572 688 792 567 460 578 684
8 681 574 688 792 564 456 572 680
8 682 576 692 794 566 459 577 683
8 569 461 579 685 682 576 692 794
8 568 462 578 684 685 579 694 796
8 687 581 464 571 798 696 580 686
8 798 696 580 686 705 592 474 591
8 689 583 466 573 799 697 581 687
8 688 582 698 800 578 471 588 694
8 690 584 698 800 574 467 582 688
8 690 584 467 574 801 699 583 689
8 693 587 701 803 577 470 585 691
8 693 587 470 577 804 702 586 692
8 695 589 702 804 579 472 586 692
8 695 589 472 579 805 703 588 694
8 708 595 705 813 593 475 591 704
8 710 596 706 814 595 476 592 705
8 707 594 479 602 816 709 600 719
8 708 595 475 593 817 711 594 707
8 709 598 478 600 819 715 599 717
8 711 597 477 594 820 714 598 709
8 710 596 476 595 822 713 597 711
8 600 478 601 720 717 599 718 832
8 602 479 603 722 719 600 720 834
8 720 601 480 603 835 721 604 723
8 722 603 482 605 836 723 606 724
8 767 670 725 839 656 553 608 726
8 756 656 726 841 645 542 609 728
8 726 608 727 842 609 487 610 729
8 728 609 729 843 611 488 612 730
8 844 740 624 731 790 691 575 678
8 733 625 504 616 844 740 624 731
8 734 623 502 617 845 739 622 732
8 733 625 739 845 616 504 622 732
8 734 623 738 846 617 502 621 735
8 735 621 737 847 618 500 620 736
8 744 647 527 630 847 737 620 736
8 621 506 627 738 737 626 741 848
8 647 544 626 737 759 662 741 848
8 623 508 628 739 738 627 742 849
8 740 629 585 691 850 743 700 802
8 625 510 629 740 739 628 743 850
8 632 529 647 744 745 648 759 854
8 633 530 648 745 746 649 760 855
8 638 535 649 746 750 653 761 856
8 857 762 650 747 748 651 532 635
8 753 657 539 642 857 762 650 747
8 749 652 763 858 636 533 651 748
8 752 654 764 859 640 536 652 749
8 751 655 537 639 860 765 653 750
8 641 538 655 751 752 654 766 861
8 754 658 540 643 862 769 657 753
8 754 658 770 863 643 540 659 755
8 755 659 771 864 644 541 660 757
8 758 661 768 866 645 542 656 756
8 757 660 772 867 646 543 661 758
8 759 662 773 868 648 545 663 760
8 649 546 663 760 761 664 774 871
8 765 665 547 653 872 775 664 761
8 873 777 666 762 763 668 550 651
8 769 674 556 657 873 777 666 762
8 764 669 779 874 652 551 668 763
8 654 552 667 766 764 669 778 875
8 655 549 665 765 766 667 776 876
8 768 671 782 877 656 553 670 767
8 772 672 783 878 661 554 671 768
8 658 558 674 769 770 675 786 879
8 659 557 675 770 771 673 785 881
8 882 784 672 772 771 673 555 660
8 789 687 571 677 897 798 686 788
8 897 798 686 788 813 705 591 704
8 791 689 573 679 898 799 687 789
8 795 693 803 900 683 577 691 790
8 793 690 574 681 901 801 689 791
8 792 688 800 902 684 578 694 796
8 793 690 800 902 681 574 688 792
8 795 693 577 683 903 804 692 794
8 797 695 804 903 685 579 692 794
8 797 695 579 685 904 805 694 796
8 905 806 697 799 798 696 581 687
8 814 706 806 905 705 592 696 798
8 689 583 697 799 801 699 808 907
8 800 698 809 908 694 588 703 805
8 690 584 699 801 800 698 809 908
8 803 701 810 909 691 585 700 802
8 693 587 702 804 803 701 811 910
8 695 589 703 805 804 702 812 911
8 818 710 814 919 708 595 705 813
8 821 712 815 920 710 596 706 814
8 816 709 600 719 922 819 717 831
8 817 711 594 707 923 820 709 816
8 818 710 595 708 924 822 711 817
8 819 715 599 717 926 827 716 829
8 820 714 598 709 927 826 715 819
8 929 825 713 822 820 714 597 711
8 821 712 596 710 930 824 713 822
8 717 599 718 832 829 716 830 942
8 719 600 720 834 831 717 832 944
8 832 718 601 720 945 833 721 835
8 834 720 603 722 946 835 723 836
8 869 780 838 950 767 670 725 839
8 865 767 839 952 756 656 726 841
8 839 725 840 953 726 608 727 842
8 841 726 842 954 728 609 729 843
8 844 740 691 790 955 850 802 899
8 733 625 740 844 845 739 850 955
8 734 623 739 845 846 738 849 956
8 735 621 738 846 847 737 848 957
8 744 647 737 847 854 759 848 957
8 738 627 742 849 848 741 851 958
8 848 741 851 958 759 662 773 868
8 850 743 700 802 959 852 807 906
8 849 742 628 739 959 852 743 850
8 854 759 868 965 745 648 760 855
8 746 649 760 855 856 761 871 966
8 860 765 653 750 967 872 761 856
8 968 873 762 857 858 763 651 748
8 862 769 657 753 968 873 762 857
8 859 764 874 969 749 652 763 858
8 752 654 766 861 859 764 875 970
8 751 655 765 860 861 766 876 971
8 754 658 769 862 863 770 879 972
8 755 659 770 863 864 771 881 974
8 976 882 772 867 864 771 660 757
8 866 768 877 977 756 656 767 865
8 867 772 878 978 758 661 768 866
8 760 663 773 868 871 774 883 980
8 870 781 837 948 982 890 780 869
8 982 890 780 869 877 782 670 767
8 761 664 774 871 872 775 884 984
8 876 776 665 765 985 885 775 872
8 873 777 668 763 986 887 779 874
8 769 674 777 873 879 786 887 986
8 764 669 778 875 874 779 888 987
8 766 667 776 876 875 778 886 988
8 878 783 892 989 768 671 782 877
8 878 783 672 772 990 893 784 882
8 880 787 675 770 991 896 786 879
8 880 787 895 992 770 675 785 881
8 881 785 894 993 771 673 784 882
8 1006 905 799 898 897 798 687 789
8 919 814 905 1006 813 705 798 897
8 791 689 799 898 901 801 907 1007
8 900 803 909 1009 790 691 802 899
8 795 693 804 903 900 803 910 1010
8 902 800 908 1011 796 694 805 904
8 793 690 801 901 902 800 908 1011
8 797 695 805 904 903 804 911 1012
8 799 697 806 905 907 808 912 1013
8 920 815 912 1013 814 706 806 905
8 802 700 810 909 906 807 913 1014
8 801 699 808 907 908 809 914 1015
8 805 703 809 908 911 812 915 1016
8 803 701 811 910 909 810 916 1017
8 911 812 917 1018 804 702 811 910
8 925 821 920 1030 818 710 814 919
8 928 823 921 1031 821 712 815 920
8 922 819 717 831 1033 926 829 941
8 923 820 709 816 1034 927 819 922
8 1035 929 822 924 923 820 711 817
8 925 821 710 818 1036 930 822 924
8 1038 933 825 929 927 826 714 820
8 926 827 716 829 1039 935 828 939
8 927 826 715 819 1040 934 827 926
8 928 823 712 821 1041 931 824 930
8 1042 932 824 930 929 825 713 822
8 829 716 830 942 939 828 940 1058
8 831 717 832 944 941 829 942 1060
8 942 830 718 832 1061 943 833 945
8 944 832 720 834 1062 945 835 946
8 981 889 947 1064 870 781 837 948
8 948 837 949 1067 869 780 838 950
8 975 869 950 1069 865 767 839 952
8 950 838 951 1070 839 725 840 953
8 952 839 953 1071 841 726 842 954
8 955 850 802 899 1072 959 906 1008
8 956 849 739 845 1072 959 850 955
8 846 738 849 956 957 848 958 1073
8 957 848 958 1073 854 759 868 965
8 849 742 852 959 958 851 961 1076
8 960 853 961 1076 906 807 852 959
8 958 851 961 1076 868 773 883 980
8 960 853 807 906 1077 963 913 1014
8 855 760 868 965 966 871 980 1085
8 856 761 871 966 967 872 984 1086
8 971 876 765 860 1087 985 872 967
8 968 873 763 858 1088 986 874 969
8 862 769 873 968 972 879 986 1088
8 859 764 875 970 969 874 987 1089
8 861 766 876 971 970 875 988 1090
8 973 880 770 863 1091 991 879 972
8 973 880 992 1092 863 770 881 974
8 974 881 993 1093 864 771 882 976
8 979 870 948 1066 1094 982 869 975
8 1094 982 869 975 977 877 767 865
8 978 878 772 867 1095 990 882 976
8 978 878 989 1096 866 768 877 977
8 871 774 883 980 984 884 994 1099
8 983 891 999 1100 870 781 889 981
8 1101 1000 890 982 989 892 782 877
8 983 891 781 870 1101 1000 890 982
8 872 775 884 984 985 885 995 1103
8 876 776 885 985 988 886 996 1104
8 986 887 779 874 1105 998 888 987
8 879 786 887 986 991 896 998 1105
8 875 778 886 988 987 888 997 1106
8 990 893 1002 1107 878 783 892 989
8 1108 1003 893 990 993 894 784 882
8 880 787 896 991 992 895 1005 1109
8 993 894 785 881 1110 1004 895 992
8 898 799 905 1006 1007 907 1013 1120
8 1030 920 1013 1120 919 814 905 1006
8 901 801 907 1007 1011 908 1015 1121
8 899 802 909 1009 1008 906 1014 1122
8 900 803 910 1010 1009 909 1017 1123
8 1012 911 1018 1124 903 804 910 1010
8 904 805 908 1011 1012 911 1016 1125
8 1013 912 1020 1127 907 808 914 1015
8 1031 921 1020 1127 920 815 912 1013
8 1019 918 962 1075 1128 1021 913 1014
8 1128 1021 913 1014 1017 916 810 909
8 1015 914 1022 1129 908 809 915 1016
8 1016 915 1023 1130 911 812 917 1018
8 1018 917 1024 1131 910 811 916 1017
8 1037 928 1031 1148 925 821 920 1030
8 928 823 931 1041 1031 921 1032 1149
8 1033 926 829 941 1151 1039 939 1057
8 1034 927 819 922 1152 1040 926 1033
8 1153 1038 929 1035 1034 927 820 923
8 1154 1042 930 1036 1035 929 822 924
8 1037 928 821 925 1155 1041 930 1036
8 1039 935 828 939 1156 1047 938 1055
8 1157 1043 932 1042 1038 933 825 929
8 1038 933 826 927 1158 1045 934 1040
8 1040 934 827 926 1159 1046 935 1039
8 930 824 932 1042 1041 931 1044 1160
8 1051 936 1048 1165 1175 1052 937 1053
8 1156 1047 938 1055 1053 937 1054 1178
8 939 828 940 1058 1055 938 1056 1181
8 941 829 942 1060 1057 939 1058 1183
8 942 830 943 1061 1058 940 1059 1184
8 1060 942 832 944 1185 1061 945 1062
8 1082 964 1063 1188 981 889 947 1064
8 1097 981 1064 1190 979 870 948 1066
8 1064 947 1065 1191 948 837 949 1067
8 1066 948 1067 1193 975 869 950 1069
8 1067 949 1068 1194 950 838 951 1070
8 1069 950 1070 1195 952 839 953 1071
8 956 849 959 1072 1073 958 1076 1197
8 1074 960 1076 1197 1008 906 959 1072
8 1073 958 1076 1197 965 868 980 1085
8 1074 960 906 1008 1198 1077 1014 1122
8 1133 1026 1079 1199 1019 918 962 1075
8 1077 963 913 1014 1200 1080 962 1075
8 960 853 963 1077 1076 961 1078 1201
8 980 883 961 1076 1099 994 1078 1201
8 1210 1083 964 1082 1100 999 889 981
8 966 871 980 1085 1086 984 1099 1215
8 967 872 984 1086 1087 985 1103 1216
8 971 876 985 1087 1090 988 1104 1217
8 1088 986 874 969 1218 1105 987 1089
8 972 879 986 1088 1091 991 1105 1218
8 970 875 988 1090 1089 987 1106 1219
8 973 880 991 1091 1092 992 1109 1220
8 1093 993 881 974 1221 1110 992 1092
8 1222 1108 990 1095 1093 993 882 976
8 1223 1101 982 1094 1096 989 877 977
8 1098 983 870 979 1223 1101 982 1094
8 1095 990 1107 1224 978 878 989 1096
8 1098 983 1100 1225 979 870 981 1097
8 984 884 994 1099 1103 995 1111 1227
8 1102 1001 1115 1228 983 891 999 1100
8 1101 1000 892 989 1229 1116 1002 1107
8 1102 1001 891 983 1229 1116 1000 1101
8 985 885 995 1103 1104 996 1112 1230
8 988 886 996 1104 1106 997 1113 1231
8 1105 998 888 987 1232 1114 997 1106
8 991 896 998 1105 1109 1005 1114 1232
8 1108 1003 1117 1233 990 893 1002 1107
8 1108 1003 894 993 1233 1117 1004 1110
8 992 895 1005 1109 1110 1004 1118 1234
8 1120 1013 1127 1244 1007 907 1015 1121
8 1148 1031 1127 1244 1030 920 1013 1120
8 1121 1015 1129 1245 1011 908 1016 1125
8 1126 1019 1075 1196 1246 1128 1014 1122
8 1246 1128 1014 1122 1123 1017 909 1009
8 1124 1018 1131 1247 1010 910 1017 1123
8 1125 1016 1130 1248 1012 911 1018 1124
8 1127 1020 1137 1254 1015 914 1022 1129
8 1031 921 1032 1149 1127 1020 1137 1254
8 1134 1027 918 1019 1257 1140 1021 1128
8 1257 1140 1021 1128 1131 1024 916 1017
8 1129 1022 1141 1258 1016 915 1023 1130
8 1130 1023 1142 1259 1018 917 1024 1131
8 1261 1144 1025 1132 1133 1026 1079 1199
8 1255 1138 1025 1132 1135 1028 1144 1261
8 1133 1026 918 1019 1262 1145 1027 1134
8 1136 1029 1139 1256 1263 1146 1028 1135
8 1037 928 1041 1155 1148 1031 1149 1275
8 1041 931 1044 1160 1149 1032 1150 1276
8 1151 1039 939 1057 1278 1156 1055 1180
8 1152 1040 926 1033 1279 1159 1039 1151
8 1153 1038 927 1034 1280 1158 1040 1152
8 1281 1157 1042 1154 1153 1038 929 1035
8 1036 930 1042 1154 1155 1041 1160 1282
8 1283 1164 1046 1159 1156 1047 935 1039
8 1165 1048 1164 1283 1053 937 1047 1156
8 1157 1043 933 1038 1284 1161 1045 1158
8 1157 1043 1161 1284 1042 932 1044 1160
8 1040 934 1046 1159 1158 1045 1163 1285
8 1166 1049 1167 1292 1051 936 1048 1165
8 1166 1049 936 1051 1293 1168 1050 1172
8 1051 936 1052 1175 1172 1050 1173 1306
8 1174 1051 1165 1290 1308 1175 1053 1177
8 1053 937 1054 1178 1175 1052 1176 1309
8 1278 1156 1055 1180 1177 1053 1178 1311
8 1055 938 1056 1181 1178 1054 1179 1312
8 1057 939 1058 1183 1180 1055 1181 1314
8 1058 940 1059 1184 1181 1056 1182 1315
8 1060 942 1061 1185 1183 1058 1184 1316
8 1208 1081 1187 1321 1082 964 1063 1188
8 1209 1082 1188 1322 1097 981 1064 1190
8 1188 1063 1189 1323 1064 947 1065 1191
8 1190 1064 1191 1325 1066 948 1067 1193
8 1191 1065 1192 1326 1067 949 1068 1194
8 1067 1193 1069 950 1194 1327 1195 1070
8 1250 1133 1199 1330 1126 1019 1075 1196
8 1198 1077 1014 1122 1331 1200 1075 1196
8 1074 960 1077 1198 1197 1076 1201 1332
8 1085 980 1076 1197 1215 1099 1201 1332
8 1199 1079 1203 1333 1075 962 1080 1200
8 1132 1025 1119 1243 1199 1079 1203 1333
8 1201 1078 963 1077 1334 1202 1080 1200
8 1099 994 1078 1201 1227 1111 1202 1334
8 1343 1207 1081 1208 1210 1083 964 1082
8 1214 1084 1186 1319 1343 1207 1081 1208
8 1345 1210 1082 1209 1225 1100 981 1097
8 1346 1211 1083 1210 1228 1115 999 1100
8 1086 984 1099 1215 1216 1103 1227 1352
8 1087 985 1103 1216 1217 1104 1230 1353
8 1090 988 1104 1217 1219 1106 1231 1354
8 1218 1105 987 1089 1355 1232 1106 1219
8 1091 991 1105 1218 1220 1109 1232 1355
8 1092 992 1109 1220 1221 1110 1234 1356
8 1222 1108 1233 1357 1095 990 1107 1224
8 1222 1108 993 1093 1357 1233 1110 1221
8 1223 1101 989 1096 1358 1229 1107 1224
8 1226 1102 983 1098 1358 1229 1101 1223
8 1226 1102 1228 1359 1098 983 1100 1225
8 1103 995 1111 1227 1230 1112 1235 1360
8 1107 1002 1117 1233 1229 1116 1240 1362
8 1102 1001 1116 1229 1228 1115 1240 1362
8 1104 996 1112 1230 1231 1113 1236 1363
8 1364 1237 1114 1232 1231 1113 997 1106
8 1109 1005 1114 1232 1234 1118 1238 1365
8 1110 1004 1118 1234 1233 1117 1241 1366
8 1242 1374 1255 1138 1119 1243 1132 1025
8 1244 1127 1254 1376 1121 1015 1129 1245
8 1148 1031 1149 1275 1244 1127 1254 1376
8 1245 1129 1258 1377 1125 1016 1130 1248
8 1251 1134 1019 1126 1378 1257 1128 1246
8 1378 1257 1128 1246 1247 1131 1017 1123
8 1248 1130 1259 1379 1124 1018 1131 1247
8 1261 1381 1250 1133 1132 1249 1330 1199
8 1255 1380 1252 1135 1132 1249 1381 1261
8 1250 1133 1019 1126 1382 1262 1134 1251
8 1253 1136 1256 1385 1384 1263 1135 1252
8 1254 1137 1265 1387 1129 1022 1141 1258
8 1149 1032 1150 1276 1254 1137 1265 1387
8 1028 1135 1255 1138 1139 1256 1388 1266
8 1136 1029 1147 1264 1256 1139 1267 1389
8 1390 1268 1140 1257 1259 1142 1024 1131
8 1260 1143 1027 1134 1390 1268 1140 1257
8 1258 1141 1269 1391 1130 1023 1142 1259
8 1262 1145 1027 1134 1393 1271 1143 1260
8 1261 1144 1026 1133 1394 1272 1145 1262
8 1135 1028 1144 1261 1263 1146 1272 1394
8 1136 1029 1146 1263 1264 1147 1273 1395
8 1155 1041 1160 1282 1275 1149 1276 1405
8 1276 1150 1044 1160 1406 1277 1162 1286
8 1408 1283 1159 1279 1278 1156 1039 1151
8 1290 1165 1283 1408 1177 1053 1156 1278
8 1152 1040 1159 1279 1280 1158 1285 1409
8 1281 1157 1038 1153 1410 1284 1158 1280
8 1281 1157 1284 1410 1154 1042 1160 1282
8 1159 1046 1164 1283 1285 1163 1289 1412
8 1292 1167 1289 1412 1165 1048 1164 1283
8 1158 1045 1163 1285 1284 1161 1288 1413
8 1284 1161 1288 1413 1160 1044 1162 1286
8 1291 1166 1292 1418 1174 1051 1165 1290
8 1291 1166 1051 1174 1419 1293 1172 1305
8 1294 1169 1296 1421 1166 1049 1167 1292
8 1293 1168 1050 1172 1422 1295 1171 1303
8 1294 1169 1049 1166 1423 1297 1168 1293
8 1422 1295 1171 1303 1301 1170 1302 1435
8 1172 1050 1173 1306 1303 1171 1304 1438
8 1174 1051 1175 1308 1305 1172 1306 1440
8 1175 1052 1176 1309 1306 1173 1307 1441
8 1177 1053 1178 1311 1308 1175 1309 1443
8 1178 1054 1179 1312 1309 1176 1310 1444
8 1180 1055 1181 1314 1311 1178 1312 1446
8 1056 1181 1312 1179 1182 1315 1447 1313
8 1183 1058 1184 1316 1314 1181 1315 1448
8 1319 1186 1084 1214 1451 1317 1213 1350
8 1319 1186 1318 1453 1208 1081 1187 1321
8 1321 1187 1320 1456 1188 1063 1189 1323
8 1344 1208 1321 1457 1209 1082 1188 1322
8 1322 1188 1323 1458 1190 1064 1191 1325
8 1323 1189 1324 1459 1191 1065 1192 1326
8 1191 1325 1193 1067 1326 1460 1327 1194
8 1242 1374 1243 1119 1328 1462 1335 1204
8 1330 1199 1333 1465 1196 1075 1200 1331
8 1132 1249 1330 1199 1243 1375 1465 1333
8 1332 1201 1077 1198 1466 1334 1200 1331
8 1215 1099 1201 1332 1352 1227 1334 1466
8 1119 1243 1333 1203 1204 1335 1470 1338
8 1333 1203 1338 1470 1200 1080 1202 1334
8 1227 1111 1202 1334 1360 1235 1338 1470
8 1328 1462 1335 1204 1205 1336 1471 1339
8 1337 1206 1340 1472 1464 1329 1205 1336
8 1346 1211 1342 1479 1210 1083 1207 1343
8 1346 1211 1115 1228 1479 1342 1239 1361
8 1348 1212 1084 1214 1479 1342 1207 1343
8 1480 1343 1208 1344 1345 1210 1082 1209
8 1351 1214 1319 1454 1480 1343 1208 1344
8 1481 1346 1210 1345 1359 1228 1100 1225
8 1348 1212 1347 1483 1214 1084 1213 1350
8 1216 1103 1227 1352 1353 1230 1360 1488
8 1217 1104 1230 1353 1354 1231 1363 1489
8 1490 1364 1232 1355 1354 1231 1106 1219
8 1220 1109 1232 1355 1356 1234 1365 1491
8 1221 1110 1234 1356 1357 1233 1366 1492
8 1224 1107 1233 1357 1358 1229 1362 1493
8 1226 1102 1229 1358 1359 1228 1362 1493
8 1230 1112 1235 1360 1363 1236 1367 1496
8 1361 1239 1115 1228 1497 1371 1240 1362
8 1366 1241 1372 1498 1233 1117 1240 1362
8 1364 1237 1113 1231 1499 1368 1236 1363
8 1364 1237 1368 1499 1232 1114 1238 1365
8 1234 1118 1238 1365 1366 1241 1369 1500
8 1507 1373 1242 1374 1388 1266 1138 1255
8 1508 1374 1243 1375 1380 1255 1132 1249
8 1376 1254 1387 1509 1245 1129 1258 1377
8 1275 1149 1276 1405 1376 1254 1387 1509
8 1377 1258 1391 1510 1248 1130 1259 1379
8 1511 1390 1257 1378 1379 1259 1131 1247
8 1383 1260 1134 1251 1511 1390 1257 1378
8 1252 1135 1256 1385 1380 1255 1388 1512
8 1261 1381 1513 1394 1133 1250 1382 1262
8 1135 1252 1384 1263 1261 1381 1513 1394
8 1382 1262 1134 1251 1514 1393 1260 1383
8 1253 1136 1263 1384 1386 1264 1395 1516
8 1253 1136 1264 1386 1385 1256 1389 1517
8 1387 1265 1397 1519 1258 1141 1269 1391
8 1276 1150 1277 1406 1387 1265 1397 1519
8 1256 1139 1267 1389 1388 1266 1398 1520
8 1264 1147 1274 1396 1389 1267 1399 1521
8 1392 1270 1143 1260 1522 1400 1268 1390
8 1390 1268 1142 1259 1522 1400 1269 1391
8 1392 1270 1401 1523 1260 1143 1271 1393
8 1272 1394 1524 1402 1145 1262 1393 1271
8 1395 1273 1146 1263 1524 1402 1272 1394
8 1273 1395 1264 1147 1403 1526 1396 1274
8 1405 1276 1160 1282 1534 1406 1286 1411
8 1414 1287 1407 1535 1286 1162 1277 1406
8 1279 1159 1283 1408 1409 1285 1412 1537
8 1418 1292 1412 1537 1290 1165 1283 1408
8 1280 1158 1285 1409 1410 1284 1413 1538
8 1410 1284 1413 1538 1282 1160 1286 1411
8 1285 1163 1289 1412 1413 1288 1417 1540
8 1421 1296 1417 1540 1292 1167 1289 1412
8 1414 1287 1162 1286 1541 1416 1288 1413
8 1420 1294 1421 1545 1291 1166 1292 1418
8 1419 1293 1172 1305 1546 1422 1303 1437
8 1420 1294 1166 1291 1547 1423 1293 1419
8 1294 1169 1297 1423 1421 1296 1425 1548
8 1423 1297 1168 1293 1549 1424 1295 1422
8 1301 1170 1298 1427 1422 1295 1424 1549
8 1432 1300 1428 1554 1301 1170 1298 1427
8 1431 1299 1428 1554 1560 1430 1300 1432
8 1563 1433 1300 1432 1435 1302 1170 1301
8 1546 1422 1303 1437 1434 1301 1435 1565
8 1303 1171 1304 1438 1435 1302 1436 1566
8 1305 1172 1306 1440 1437 1303 1438 1568
8 1306 1173 1307 1441 1438 1304 1439 1569
8 1308 1175 1309 1443 1440 1306 1441 1571
8 1309 1176 1310 1444 1441 1307 1442 1572
8 1311 1178 1312 1446 1443 1309 1444 1574
8 1179 1312 1444 1310 1313 1447 1575 1445
8 1314 1181 1315 1448 1446 1312 1447 1576
8 1350 1213 1349 1486 1451 1317 1449 1579
8 1451 1317 1450 1581 1319 1186 1318 1453
8 1454 1319 1214 1351 1582 1451 1350 1487
8 1453 1318 1452 1584 1321 1187 1320 1456
8 1454 1319 1453 1585 1344 1208 1321 1457
8 1456 1320 1455 1586 1323 1189 1324 1459
8 1457 1321 1456 1587 1322 1188 1323 1458
8 1458 1323 1459 1588 1325 1191 1326 1460
8 1205 1336 1464 1329 1328 1462 1590 1461
8 1507 1373 1461 1590 1374 1242 1328 1462
8 1508 1374 1462 1591 1375 1243 1335 1467
8 1337 1206 1329 1464 1473 1341 1463 1594
8 1375 1243 1335 1467 1465 1333 1470 1596
8 1465 1333 1470 1596 1331 1200 1334 1466
8 1352 1227 1334 1466 1488 1360 1470 1596
8 1591 1462 1336 1468 1467 1335 1471 1597
8 1469 1337 1472 1598 1595 1464 1336 1468
8 1471 1339 1474 1600 1335 1204 1338 1470
8 1600 1474 1367 1496 1470 1338 1235 1360
8 1336 1205 1340 1472 1471 1339 1475 1601
8 1337 1206 1341 1473 1472 1340 1476 1602
8 1495 1370 1478 1609 1361 1239 1342 1479
8 1348 1212 1342 1479 1483 1347 1478 1609
8 1481 1346 1479 1610 1345 1210 1343 1480
8 1481 1346 1228 1359 1610 1479 1361 1494
8 1484 1348 1214 1351 1610 1479 1343 1480
8 1483 1347 1482 1612 1350 1213 1349 1486
8 1484 1348 1483 1613 1351 1214 1350 1487
8 1353 1230 1360 1488 1489 1363 1496 1616
8 1490 1364 1231 1354 1617 1499 1363 1489
8 1490 1364 1499 1617 1355 1232 1365 1491
8 1356 1234 1365 1491 1492 1366 1500 1619
8 1492 1366 1498 1620 1357 1233 1362 1493
8 1494 1361 1228 1359 1621 1497 1362 1493
8 1495 1370 1239 1361 1622 1504 1371 1497
8 1363 1236 1367 1496 1499 1368 1501 1623
8 1497 1371 1240 1362 1624 1505 1372 1498
8 1625 1503 1372 1498 1500 1369 1241 1366
8 1365 1238 1368 1499 1500 1369 1502 1626
8 1520 1398 1506 1633 1388 1266 1373 1507
8 1634 1507 1374 1508 1512 1388 1255 1380
8 1509 1387 1519 1635 1377 1258 1391 1510
8 1405 1276 1406 1534 1509 1387 1519 1635
8 1515 1392 1260 1383 1636 1522 1390 1511
8 1511 1390 1259 1379 1636 1522 1391 1510
8 1385 1256 1389 1517 1512 1388 1520 1637
8 1513 1394 1262 1382 1638 1524 1393 1514
8 1395 1516 1638 1524 1263 1384 1513 1394
8 1515 1392 1523 1639 1383 1260 1393 1514
8 1516 1395 1526 1640 1386 1264 1396 1518
8 1386 1264 1396 1518 1517 1389 1521 1641
8 1519 1397 1527 1643 1391 1269 1400 1522
8 1535 1407 1527 1643 1406 1277 1397 1519
8 1389 1267 1399 1521 1520 1398 1528 1644
8 1645 1529 1399 1521 1525 1404 1274 1396
8 1392 1270 1400 1522 1523 1401 1531 1646
8 1524 1402 1271 1393 1648 1532 1401 1523
8 1403 1526 1648 1532 1273 1395 1524 1402
8 1525 1404 1274 1396 1649 1533 1403 1526
8 1539 1414 1535 1657 1411 1286 1406 1534
8 1542 1415 1536 1658 1414 1287 1407 1535
8 1409 1285 1412 1537 1538 1413 1540 1660
8 1545 1421 1540 1660 1418 1292 1412 1537
8 1539 1414 1286 1411 1661 1541 1413 1538
8 1540 1417 1544 1663 1413 1288 1416 1541
8 1421 1296 1425 1548 1540 1417 1544 1663
8 1542 1415 1287 1414 1664 1543 1416 1541
8 1420 1294 1423 1547 1545 1421 1548 1666
8 1547 1423 1293 1419 1667 1549 1422 1546
8 1434 1301 1427 1553 1546 1422 1549 1667
8 1423 1297 1424 1549 1548 1425 1550 1668
8 1551 1426 1550 1668 1427 1298 1424 1549
8 1551 1426 1298 1427 1671 1552 1428 1554
8 1562 1432 1554 1674 1434 1301 1427 1553
8 1431 1299 1429 1558 1554 1428 1555 1675
8 1431 1299 1430 1560 1558 1429 1557 1680
8 1560 1430 1300 1432 1683 1559 1433 1563
8 1561 1431 1554 1674 1684 1560 1432 1562
8 1685 1563 1432 1562 1565 1435 1301 1434
8 1435 1302 1436 1566 1563 1433 1564 1686
8 1437 1303 1438 1568 1565 1435 1566 1688
8 1438 1304 1439 1569 1566 1436 1567 1689
8 1440 1306 1441 1571 1568 1438 1569 1691
8 1441 1307 1442 1572 1569 1439 1570 1692
8 1443 1309 1444 1574 1571 1441 1572 1694
8 1310 1444 1572 1442 1445 1575 1695 1573
8 1446 1312 1447 1576 1574 1444 1575 1696
8 1486 1349 1485 1614 1579 1449 1577 1699
8 1451 1317 1449 1579 1581 1450 1578 1701
8 1487 1350 1486 1615 1582 1451 1579 1702
8 1581 1450 1580 1704 1453 1318 1452 1584
8 1582 1451 1581 1705 1454 1319 1453 1585
8 1584 1452 1583 1706 1456 1320 1455 1586
8 1585 1453 1584 1707 1457 1321 1456 1587
8 1587 1456 1586 1708 1458 1323 1459 1588
8 1633 1506 1589 1710 1507 1373 1461 1590
8 1464 1329 1461 1590 1594 1463 1589 1710
8 1468 1336 1462 1591 1595 1464 1590 1711
8 1634 1507 1590 1711 1508 1374 1462 1591
8 1473 1341 1463 1594 1603 1477 1593 1716
8 1469 1337 1464 1595 1599 1473 1594 1717
8 1471 1597 1467 1335 1600 1718 1596 1470
8 1718 1600 1496 1616 1596 1470 1360 1488
8 1336 1468 1597 1471 1472 1598 1719 1601
8 1469 1337 1473 1599 1598 1472 1602 1720
8 1722 1604 1501 1623 1600 1474 1367 1496
8 1475 1601 1471 1339 1604 1722 1600 1474
8 1602 1476 1605 1723 1472 1340 1475 1601
8 1476 1602 1724 1606 1341 1473 1603 1477
8 1483 1347 1478 1609 1612 1482 1608 1731
8 1495 1370 1504 1622 1609 1478 1608 1731
8 1618 1495 1609 1732 1494 1361 1479 1610
8 1484 1348 1479 1610 1613 1483 1609 1732
8 1486 1349 1482 1612 1614 1485 1611 1733
8 1613 1483 1612 1734 1487 1350 1486 1615
8 1489 1363 1496 1616 1617 1499 1623 1736
8 1491 1365 1499 1617 1619 1500 1626 1737
8 1618 1495 1361 1494 1738 1622 1497 1621
8 1739 1625 1498 1620 1619 1500 1366 1492
8 1621 1497 1362 1493 1740 1624 1498 1620
8 1742 1631 1504 1622 1624 1505 1371 1497
8 1743 1628 1502 1626 1623 1501 1368 1499
8 1744 1630 1505 1624 1625 1503 1372 1498
8 1745 1629 1503 1625 1626 1502 1369 1500
8 1520 1398 1528 1644 1633 1506 1632 1751
8 1637 1520 1633 1752 1512 1388 1507 1634
8 1635 1519 1643 1753 1510 1391 1522 1636
8 1657 1535 1643 1753 1534 1406 1519 1635
8 1515 1392 1522 1636 1639 1523 1646 1754
8 1517 1389 1521 1641 1637 1520 1644 1755
8 1524 1638 1756 1648 1393 1514 1639 1523
8 1640 1526 1395 1516 1756 1648 1524 1638
8 1642 1525 1396 1518 1757 1649 1526 1640
8 1758 1645 1521 1641 1642 1525 1396 1518
8 1646 1531 1400 1522 1760 1650 1527 1643
8 1535 1407 1536 1658 1643 1527 1650 1760
8 1521 1399 1529 1645 1644 1528 1651 1761
8 1647 1530 1652 1762 1525 1404 1529 1645
8 1401 1523 1648 1532 1531 1646 1763 1655
8 1525 1404 1533 1649 1647 1530 1654 1765
8 1533 1649 1766 1656 1403 1526 1648 1532
8 1662 1542 1658 1774 1539 1414 1535 1657
8 1542 1415 1543 1664 1658 1536 1659 1775
8 1660 1540 1663 1777 1538 1413 1541 1661
8 1545 1421 1548 1666 1660 1540 1663 1777
8 1662 1542 1414 1539 1778 1664 1541 1661
8 1664 1543 1416 1541 1779 1665 1544 1663
8 1548 1425 1550 1668 1663 1544 1665 1779
8 1547 1423 1549 1667 1666 1548 1668 1781
8 1670 1551 1668 1781 1553 1427 1549 1667
8 1551 1426 1552 1671 1668 1550 1669 1782
8 1670 1551 1427 1553 1784 1671 1554 1674
8 1675 1555 1672 1785 1554 1428 1552 1671
8 1678 1556 1673 1789 1558 1429 1555 1675
8 1561 1431 1558 1681 1674 1554 1675 1790
8 1794 1677 1556 1678 1680 1557 1429 1558
8 1560 1430 1559 1683 1680 1557 1679 1797
8 1561 1431 1560 1684 1681 1558 1680 1798
8 1563 1433 1564 1686 1683 1559 1682 1800
8 1684 1560 1432 1562 1801 1683 1563 1685
8 1565 1435 1566 1688 1685 1563 1686 1802
8 1566 1436 1567 1689 1686 1564 1687 1803
8 1568 1438 1569 1691 1688 1566 1689 1805
8 1569 1439 1570 1692 1689 1567 1690 1806
8 1571 1441 1572 1694 1691 1569 1692 1808
8 1442 1572 1692 1570 1573 1695 1809 1693
8 1574 1444 1575 1696 1694 1572 1695 1810
8 1614 1485 1592 1712 1699 1577 1697 1813
8 1579 1449 1577 1699 1701 1578 1698 1815
8 1615 1486 1614 1735 1702 1579 1699 1816
8 1701 1578 1700 1818 1581 1450 1580 1704
8 1582 1451 1579 1702 1705 1581 1701 1819
8 1704 1580 1703 1820 1584 1452 1583 1706
8 1705 1581 1704 1821 1585 1453 1584 1707
8 1707 1584 1706 1822 1587 1456 1586 1708
8 1710 1589 1506 1633 1824 1709 1632 1751
8 1594 1463 1589 1710 1716 1593 1709 1824
8 1752 1633 1710 1825 1634 1507 1590 1711
8 1595 1464 1590 1711 1717 1594 1710 1825
8 1830 1714 1592 1712 1733 1611 1485 1614
8 1603 1477 1593 1716 1725 1607 1715 1834
8 1599 1473 1594 1717 1721 1603 1716 1835
8 1837 1722 1623 1736 1718 1600 1496 1616
8 1719 1601 1722 1837 1597 1471 1600 1718
8 1602 1720 1598 1472 1723 1838 1719 1601
8 1720 1602 1473 1599 1839 1724 1603 1721
8 1723 1605 1726 1840 1601 1475 1604 1722
8 1840 1726 1628 1743 1722 1604 1501 1623
8 1724 1606 1727 1841 1602 1476 1605 1723
8 1725 1607 1728 1842 1603 1477 1606 1724
8 1612 1482 1608 1731 1733 1611 1730 1849
8 1741 1627 1730 1849 1622 1504 1608 1731
8 1613 1483 1609 1732 1734 1612 1731 1850
8 1618 1495 1622 1738 1732 1609 1731 1850
8 1615 1486 1612 1734 1735 1614 1733 1851
8 1852 1743 1626 1737 1736 1623 1499 1617
8 1853 1745 1625 1739 1737 1626 1500 1619
8 1855 1742 1622 1738 1740 1624 1497 1621
8 1856 1744 1624 1740 1739 1625 1498 1620
8 1741 1627 1504 1622 1857 1746 1631 1742
8 1742 1631 1505 1624 1858 1749 1630 1744
8 1859 1747 1629 1745 1743 1628 1502 1626
8 1860 1748 1630 1744 1745 1629 1503 1625
8 1644 1528 1651 1761 1751 1632 1750 1865
8 1637 1520 1644 1755 1752 1633 1751 1866
8 1754 1646 1522 1636 1867 1760 1643 1753
8 1657 1535 1658 1774 1753 1643 1760 1867
8 1639 1523 1646 1754 1756 1648 1763 1868
8 1641 1521 1645 1758 1755 1644 1761 1869
8 1757 1649 1526 1640 1870 1766 1648 1756
8 1642 1525 1649 1757 1759 1647 1765 1871
8 1759 1647 1762 1872 1642 1525 1645 1758
8 1760 1650 1767 1874 1646 1531 1655 1763
8 1658 1536 1659 1775 1760 1650 1767 1874
8 1762 1652 1768 1875 1645 1529 1651 1761
8 1764 1653 1769 1876 1647 1530 1652 1762
8 1656 1766 1877 1773 1532 1648 1763 1655
8 1771 1879 1765 1654 1653 1764 1647 1530
8 1533 1649 1765 1654 1656 1766 1880 1772
8 1662 1542 1664 1778 1774 1658 1775 1887
8 1664 1543 1665 1779 1775 1659 1776 1888
8 1778 1664 1541 1661 1890 1779 1663 1777
8 1666 1548 1668 1781 1777 1663 1779 1890
8 1782 1669 1780 1891 1668 1550 1665 1779
8 1670 1551 1671 1784 1781 1668 1782 1893
8 1671 1552 1672 1785 1782 1669 1783 1894
8 1790 1675 1785 1896 1674 1554 1671 1784
8 1675 1555 1673 1789 1785 1672 1786 1897
8 1792 1676 1788 1903 1678 1556 1673 1789
8 1795 1678 1789 1904 1681 1558 1675 1790
8 1792 1676 1556 1678 1906 1791 1677 1794
8 1680 1557 1679 1797 1794 1677 1793 1909
8 1910 1794 1678 1795 1798 1680 1558 1681
8 1683 1559 1682 1800 1797 1679 1796 1912
8 1684 1560 1683 1801 1798 1680 1797 1913
8 1686 1564 1687 1803 1800 1682 1799 1915
8 1685 1563 1686 1802 1801 1683 1800 1916
8 1688 1566 1689 1805 1802 1686 1803 1917
8 1689 1567 1690 1806 1803 1687 1804 1918
8 1691 1569 1692 1808 1805 1689 1806 1920
8 1692 1570 1693 1809 1806 1690 1807 1921
8 1694 1572 1695 1810 1808 1692 1809 1922
8 1829 1713 1811 1926 1712 1592 1697 1813
8 1813 1697 1812 1928 1699 1577 1698 1815
8 1735 1614 1712 1828 1816 1699 1813 1929
8 1815 1698 1814 1931 1701 1578 1700 1818
8 1702 1579 1699 1816 1819 1701 1815 1932
8 1818 1700 1817 1933 1704 1580 1703 1820
8 1819 1701 1818 1934 1705 1581 1704 1821
8 1821 1704 1820 1935 1707 1584 1706 1822
8 1824 1709 1632 1751 1937 1823 1750 1865
8 1716 1593 1709 1824 1834 1715 1823 1937
8 1825 1710 1633 1752 1938 1824 1751 1866
8 1717 1594 1710 1825 1835 1716 1824 1938
8 1945 1830 1712 1828 1851 1733 1614 1735
8 1830 1714 1831 1946 1712 1592 1713 1829
8 1947 1832 1714 1830 1849 1730 1611 1733
8 1843 1729 1607 1725 1950 1833 1715 1834
8 1721 1603 1716 1835 1836 1725 1834 1951
8 1836 1725 1842 1953 1721 1603 1724 1839
8 1723 1838 1719 1601 1840 1954 1837 1722
8 1954 1840 1743 1852 1837 1722 1623 1736
8 1724 1839 1720 1602 1841 1955 1838 1723
8 1841 1727 1844 1956 1723 1605 1726 1840
8 1956 1844 1747 1859 1840 1726 1628 1743
8 1728 1842 1724 1606 1845 1957 1841 1727
8 1725 1607 1729 1843 1842 1728 1846 1958
8 1741 1627 1746 1857 1849 1730 1848 1965
8 1734 1612 1731 1850 1851 1733 1849 1966
8 1854 1741 1849 1966 1738 1622 1731 1850
8 1967 1859 1745 1853 1852 1743 1626 1737
8 1968 1860 1744 1856 1853 1745 1625 1739
8 1854 1741 1622 1738 1969 1857 1742 1855
8 1855 1742 1624 1740 1970 1858 1744 1856
8 1857 1746 1631 1742 1971 1861 1749 1858
8 1858 1749 1630 1744 1972 1863 1748 1860
8 1859 1747 1862 1973 1745 1629 1748 1860
8 1875 1768 1864 1977 1761 1651 1750 1865
8 1755 1644 1761 1869 1866 1751 1865 1978
8 1867 1760 1874 1979 1754 1646 1763 1868
8 1774 1658 1775 1887 1867 1760 1874 1979
8 1870 1766 1648 1756 1980 1877 1763 1868
8 1872 1762 1875 1981 1758 1645 1761 1869
8 1757 1649 1766 1870 1871 1765 1880 1982
8 1983 1879 1764 1873 1871 1765 1647 1759
8 1873 1764 1876 1984 1759 1647 1762 1872
8 1877 1773 1655 1763 1986 1881 1767 1874
8 1775 1659 1776 1888 1874 1767 1881 1986
8 1876 1769 1882 1987 1762 1652 1768 1875
8 1878 1770 1883 1988 1764 1653 1769 1876
8 1880 1772 1656 1766 1989 1886 1773 1877
8 1878 1770 1653 1764 1990 1884 1771 1879
8 1765 1654 1772 1880 1879 1771 1885 1991
8 1778 1664 1779 1890 1887 1775 1888 1997
8 1998 1889 1776 1888 1891 1780 1665 1779
8 1893 1782 1891 2000 1781 1668 1779 1890
8 1894 1783 1892 2001 1782 1669 1780 1891
8 1784 1671 1785 1896 1893 1782 1894 2003
8 1897 1786 1895 2004 1785 1672 1783 1894
8 1790 1675 1789 1904 1896 1785 1897 2006
8 1901 1787 1898 2007 1789 1673 1786 1897
8 1903 1788 1900 2013 1789 1673 1787 1901
8 1792 1676 1791 1906 1903 1788 1902 2016
8 1907 1792 1903 2017 1795 1678 1789 1904
8 1906 1791 1677 1794 2019 1905 1793 1909
8 1907 1792 1678 1795 2020 1906 1794 1910
8 1797 1679 1796 1912 1909 1793 1908 2022
8 1798 1680 1797 1913 1910 1794 1909 2023
8 1800 1682 1799 1915 1912 1796 1911 2025
8 1801 1683 1800 1916 1913 1797 1912 2026
8 1803 1687 1804 1918 1915 1799 1914 2028
8 1802 1686 1803 1917 1916 1800 1915 2029
8 1805 1689 1806 1920 1917 1803 1918 2030
8 1806 1690 1807 1921 1918 1804 1919 2031
8 1808 1692 1809 1922 1920 1806 1921 2032
8 1939 1826 1924 2037 1829 1713 1811 1926
8 1926 1811 1925 2039 1813 1697 1812 1928
8 1944 1829 1926 2040 1828 1712 1813 1929
8 1928 1812 1927 2042 1815 1698 1814 1931
8 1929 1813 1928 2043 1816 1699 1815 1932
8 1931 1814 1930 2044 1818 1700 1817 1933
8 1932 1815 1931 2045 1819 1701 1818 1934
8 1934 1818 1933 2046 1821 1704 1820 1935
8 2048 1936 1823 1937 1977 1864 1750 1865
8 1950 1833 1715 1834 2048 1936 1823 1937
8 1938 1824 1751 1866 2049 1937 1865 1978
8 1835 1716 1824 1938 1951 1834 1937 2049
8 1939 1826 1713 1829 2053 1942 1831 1946
8 1940 1827 1923 2035 2053 1942 1826 1939
8 1945 1830 1946 2058 1828 1712 1829 1944
8 2059 1947 1830 1945 1966 1849 1733 1851
8 1947 1832 1730 1849 2060 1948 1848 1965
8 1947 1832 1948 2060 1830 1714 1831 1946
8 1959 1847 1729 1843 2063 1949 1833 1950
8 1952 1843 1725 1836 2064 1950 1834 1951
8 1836 1725 1843 1952 1953 1842 1958 2066
8 1953 1842 1957 2067 1839 1724 1841 1955
8 1841 1955 1838 1723 1956 2068 1954 1840
8 2068 1956 1859 1967 1954 1840 1743 1852
8 1956 1844 1960 2069 1859 1747 1862 1973
8 1845 1957 1841 1727 1960 2069 1956 1844
8 1728 1842 1957 1845 1846 1958 2071 1961
8 1962 2072 1959 1847 1846 1958 1843 1729
8 1971 1861 1964 2077 1857 1746 1848 1965
8 1854 1741 1857 1969 1966 1849 1965 2078
8 1967 1859 1973 2079 1853 1745 1860 1968
8 1970 1858 1744 1856 2080 1972 1860 1968
8 1969 1857 1742 1855 2081 1971 1858 1970
8 1971 1861 1749 1858 2082 1974 1863 1972
8 1973 1862 1975 2083 1860 1748 1863 1972
8 1987 1882 1976 2086 1875 1768 1864 1977
8 1981 1875 1977 2087 1869 1761 1865 1978
8 1980 1877 1763 1868 2088 1986 1874 1979
8 1887 1775 1888 1997 1979 1874 1986 2088
8 1880 1982 2089 1989 1766 1870 1980 1877
8 1984 1876 1987 2090 1872 1762 1875 1981
8 1765 1871 1983 1879 1880 1982 2091 1991
8 1985 1878 1764 1873 2092 1990 1879 1983
8 1985 1878 1988 2093 1873 1764 1876 1984
8 2094 1992 1881 1986 1998 1889 1776 1888
8 1986 1881 1992 2094 1877 1773 1886 1989
8 1988 1883 1993 2095 1876 1769 1882 1987
8 1878 1770 1884 1990 1988 1883 1994 2096
8 1991 1885 1772 1880 2097 1996 1886 1989
8 1879 1771 1885 1991 1990 1884 1995 2098
8 2103 1998 1888 1997 2000 1891 1779 1890
8 2104 1999 1889 1998 2001 1892 1780 1891
8 2003 1894 2001 2106 1893 1782 1891 2000
8 2004 1895 2002 2107 1894 1783 1892 2001
8 2006 1897 2004 2109 1896 1785 1894 2003
8 2007 1898 2005 2110 1897 1786 1895 2004
8 2014 1901 2007 2112 1904 1789 1897 2006
8 2011 1899 2008 2113 1901 1787 1898 2007
8 2119 2010 1899 2011 2013 1900 1787 1901
8 2016 1902 2012 2122 1903 1788 1900 2013
8 2017 1903 2013 2123 1904 1789 1901 2014
8 1906 1791 1905 2019 2016 1902 2015 2125
8 1907 1792 1906 2020 2017 1903 2016 2126
8 1909 1793 1908 2022 2019 1905 2018 2128
8 2020 1906 1794 1910 2129 2019 1909 2023
8 1912 1796 1911 2025 2022 1908 2021 2131
8 1913 1797 1912 2026 2023 1909 2022 2132
8 1915 1799 1914 2028 2025 1911 2024 2134
8 1916 1800 1915 2029 2026 1912 2025 2135
8 1918 1804 1919 2031 2028 1914 2027 2136
8 1917 1803 1918 2030 2029 1915 2028 2137
8 1920 1806 1921 2032 2030 1918 2031 2138
8 1940 1827 1941 2054 2035 1923 2033 2140
8 2035 1923 2034 2143 1939 1826 1924 2037
8 2037 1924 2036 2146 1926 1811 1925 2039
8 2051 1939 2037 2147 1944 1829 1926 2040
8 2039 1925 2038 2149 1928 1812 1927 2042
8 2040 1926 2039 2150 1929 1813 1928 2043
8 2042 1927 2041 2151 1931 1814 1930 2044
8 2043 1928 2042 2152 1932 1815 1931 2045
8 2045 1931 2044 2153 1934 1818 1933 2046
8 2155 2047 1936 2048 2086 1976 1864 1977
8 2063 1949 1833 1950 2155 2047 1936 2048
8 2156 2048 1937 2049 2087 1977 1865 1978
8 2064 1950 1834 1951 2156 2048 1937 2049
8 2051 1939 1829 1944 2160 2053 1946 2058
8 2052 1940 2035 2144 2160 2053 1939 2051
8 2053 1942 1831 1946 2163 2057 1948 2060
8 2055 1943 1827 1940 2163 2057 1942 2053
8 2055 1943 2056 2164 1940 1827 1941 2054
8 2059 1947 1849 1966 2167 2060 1965 2078
8 2059 1947 2060 2167 1945 1830 1946 2058
8 2077 1964 2061 2168 1965 1848 1948 2060
8 2070 1963 1847 1959 2170 2062 1949 2063
8 2065 1959 1843 1952 2171 2063 1950 2064
8 2173 2072 1958 2066 2065 1959 1843 1952
8 1953 1842 1958 2066 2067 1957 2071 2174
8 2068 1956 2069 2175 1967 1859 1973 2079
8 2067 1957 2069 2175 1955 1841 1956 2068
8 1845 1957 2069 1960 1961 2071 2176 2073
8 2069 1960 2073 2176 1973 1862 1975 2083
8 2070 1963 2075 2177 1959 1847 1962 2072
8 1846 1958 2071 1961 1962 2072 2178 2074
8 2077 1964 1861 1971 2182 2076 1974 2082
8 2081 1971 2077 2183 1969 1857 1965 2078
8 2079 1973 2083 2184 1968 1860 1972 2080
8 2081 1971 1858 1970 2185 2082 1972 2080
8 2083 1975 2084 2186 1972 1863 1974 2082
8 2086 1976 1882 1987 2189 2085 1993 2095
8 2090 1987 2086 2190 1981 1875 1977 2087
8 2191 2094 1986 2088 2103 1998 1888 1997
8 2088 1986 2094 2191 1980 1877 1989 2089
8 1991 2091 2192 2097 1880 1982 2089 1989
8 2093 1988 2095 2193 1984 1876 1987 2090
8 1879 1983 2092 1990 1991 2091 2194 2098
8 1985 1878 1990 2092 2093 1988 2096 2195
8 2097 1996 1886 1989 2196 2099 1992 2094
8 2196 2099 1992 2094 2104 1999 1889 1998
8 1994 2096 1988 1883 2100 2197 2095 1993
8 2096 1994 1884 1990 2198 2101 1995 2098
8 1995 2098 2199 2102 1885 1991 2097 1996
8 2203 2104 1998 2103 2106 2001 1891 2000
8 2107 2002 2105 2204 2001 1892 1999 2104
8 2109 2004 2107 2206 2003 1894 2001 2106
8 2110 2005 2108 2207 2004 1895 2002 2107
8 2112 2007 2110 2209 2006 1897 2004 2109
8 2113 2008 2111 2210 2007 1898 2005 2110
8 2120 2011 2113 2212 2014 1901 2007 2112
8 2117 2009 2114 2213 2011 1899 2008 2113
8 2219 2116 2009 2117 2119 2010 1899 2011
8 2222 2118 2010 2119 2122 2012 1900 2013
8 2223 2119 2011 2120 2123 2013 1901 2014
8 2016 1902 2015 2125 2122 2012 2121 2225
8 2126 2016 2122 2226 2017 1903 2013 2123
8 2019 1905 2018 2128 2125 2015 2124 2228
8 2020 1906 2019 2129 2126 2016 2125 2229
8 2022 1908 2021 2131 2128 2018 2127 2231
8 2023 1909 2022 2132 2129 2019 2128 2232
8 2025 1911 2024 2134 2131 2021 2130 2234
8 2026 1912 2025 2135 2132 2022 2131 2235
8 1914 2028 2134 2024 2027 2136 2236 2133
8 2029 1915 2028 2137 2135 2025 2134 2237
8 2030 1918 2031 2138 2137 2028 2136 2238
8 2157 2050 2139 2240 2054 1941 2033 2140
8 2052 1940 2054 2161 2144 2035 2140 2242
8 2140 2033 2141 2243 2035 1923 2034 2143
8 2143 2034 2142 2246 2037 1924 2036 2146
8 2144 2035 2143 2247 2051 1939 2037 2147
8 2146 2036 2145 2249 2039 1925 2038 2149
8 2147 2037 2146 2250 2040 1926 2039 2150
8 2149 2038 2148 2251 2042 1927 2041 2151
8 2150 2039 2149 2252 2043 1928 2042 2152
8 2152 2042 2151 2253 2045 1931 2044 2153
8 2255 2154 2047 2155 2189 2085 1976 2086
8 2170 2062 1949 2063 2255 2154 2047 2155
8 2256 2155 2048 2156 2190 2086 1977 2087
8 2171 2063 1950 2064 2256 2155 2048 2156
8 2258 2159 2050 2157 2164 2056 1941 2054
8 2160 2053 1946 2058 2262 2163 2060 2167
8 2162 2055 1940 2052 2262 2163 2053 2160
8 2162 2055 2164 2263 2052 1940 2054 2161
8 2163 2057 1948 2060 2264 2165 2061 2168
8 2055 1943 2057 2163 2164 2056 2165 2264
8 2182 2076 2166 2268 2077 1964 2061 2168
8 2183 2077 2168 2269 2078 1965 2060 2167
8 2070 1963 2062 2170 2177 2075 2169 2271
8 2172 2070 1959 2065 2272 2170 2063 2171
8 2172 2070 2177 2273 2065 1959 2072 2173
8 2066 1958 2072 2173 2174 2071 2178 2274
8 2067 1957 2071 2174 2175 2069 2176 2275
8 2175 2069 2176 2275 2079 1973 2083 2184
8 2071 1961 2074 2178 2176 2073 2179 2276
8 2176 2073 2179 2276 2083 1975 2084 2186
8 2072 1962 2075 2177 2178 2074 2180 2277
8 2182 2076 1974 2082 2280 2181 2084 2186
8 2183 2077 1971 2081 2281 2182 2082 2185
8 2184 2083 2186 2282 2080 1972 2082 2185
8 2189 2085 1993 2095 2285 2188 2100 2197
8 2190 2086 1987 2090 2286 2189 2095 2193
8 2192 2097 1989 2089 2287 2196 2094 2191
8 2287 2196 2094 2191 2203 2104 1998 2103
8 2194 2098 1991 2091 2288 2199 2097 2192
8 2195 2096 2197 2289 2093 1988 2095 2193
8 2096 2195 2290 2198 1990 2092 2194 2098
8 2097 1996 2099 2196 2199 2102 2200 2291
8 2196 2099 1999 2104 2291 2200 2105 2204
8 2100 2197 2292 2201 1994 2096 2198 2101
8 1995 2098 2198 2101 2102 2199 2293 2202
8 2206 2107 2204 2296 2106 2001 2104 2203
8 2207 2108 2205 2297 2107 2002 2105 2204
8 2209 2110 2207 2299 2109 2004 2107 2206
8 2210 2111 2208 2300 2110 2005 2108 2207
8 2212 2113 2210 2302 2112 2007 2110 2209
8 2213 2114 2211 2303 2113 2008 2111 2210
8 2220 2117 2213 2305 2120 2011 2113 2212
8 2216 2115 2214 2306 2117 2009 2114 2213
8 2216 2115 2009 2117 2311 2217 2116 2219
8 2219 2116 2010 2119 2314 2218 2118 2222
8 2315 2219 2117 2220 2223 2119 2011 2120
8 2122 2012 2121 2225 2222 2118 2221 2317
8 2318 2222 2119 2223 2226 2122 2013 2123
8 2125 2015 2124 2228 2225 2121 2224 2320
8 2126 2016 2125 2229 2226 2122 2225 2321
8 2128 2018 2127 2231 2228 2124 2227 2323
8 2129 2019 2128 2232 2229 2125 2228 2324
8 2131 2021 2130 2234 2231 2127 2230 2326
8 2132 2022 2131 2235 2232 2128 2231 2327
8 2134 2024 2133 2236 2234 2130 2233 2328
8 2135 2025 2134 2237 2235 2131 2234 2329
8 2137 2028 2136 2238 2237 2134 2236 2330
8 2157 2050 2158 2259 2240 2139 2239 2332
8 2257 2157 2240 2334 2161 2054 2140 2242
8 2240 2139 2241 2335 2140 2033 2141 2243
8 2242 2140 2243 2337 2144 2035 2143 2247
8 2243 2141 2244 2338 2143 2034 2142 2246
8 2246 2142 2245 2341 2146 2036 2145 2249
8 2247 2143 2246 2342 2147 2037 2146 2250
8 2249 2145 2248 2343 2149 2038 2148 2251
8 2250 2146 2249 2344 2150 2039 2149 2252
8 2252 2149 2251 2345 2152 2042 2151 2253
8 2169 2271 2347 2254 2062 2170 2255 2154
8 2189 2085 2188 2285 2255 2154 2254 2347
8 2348 2255 2155 2256 2286 2189 2086 2190
8 2272 2170 2063 2171 2348 2255 2155 2256
8 2349 2258 2157 2257 2263 2164 2054 2161
8 2258 2159 2261 2351 2157 2050 2158 2259
8 2258 2159 2056 2164 2351 2261 2165 2264
8 2262 2163 2060 2167 2355 2264 2168 2269
8 2162 2055 2163 2262 2263 2164 2264 2355
8 2357 2266 2165 2264 2268 2166 2061 2168
8 2268 2166 2076 2182 2361 2267 2181 2280
8 2281 2182 2268 2362 2183 2077 2168 2269
8 2271 2169 2270 2364 2177 2075 2180 2277
8 2172 2070 2170 2272 2273 2177 2271 2365
8 2072 2173 2274 2178 2177 2273 2366 2277
8 2071 2174 2275 2176 2178 2274 2367 2276
8 2275 2176 2276 2367 2184 2083 2186 2282
8 2283 2187 2084 2186 2368 2278 2179 2276
8 2178 2074 2180 2277 2276 2179 2278 2368
8 2283 2187 2279 2370 2186 2084 2181 2280
8 2281 2182 2082 2185 2371 2280 2186 2282
8 2188 2285 2374 2284 2100 2197 2292 2201
8 2286 2189 2095 2193 2375 2285 2197 2289
8 2192 2097 2196 2287 2288 2199 2291 2376
8 2287 2196 2104 2203 2376 2291 2204 2296
8 2194 2098 2199 2288 2290 2198 2293 2377
8 2289 2197 2096 2195 2378 2292 2198 2290
8 2291 2200 2105 2204 2379 2294 2205 2297
8 2199 2102 2200 2291 2293 2202 2294 2379
8 2198 2101 2202 2293 2292 2201 2295 2380
8 2299 2207 2297 2383 2206 2107 2204 2296
8 2300 2208 2298 2384 2207 2108 2205 2297
8 2302 2210 2300 2386 2209 2110 2207 2299
8 2303 2211 2301 2387 2210 2111 2208 2300
8 2305 2213 2303 2389 2212 2113 2210 2302
8 2306 2214 2304 2390 2213 2114 2211 2303
8 2310 2216 2306 2392 2220 2117 2213 2305
8 2308 2215 2307 2393 2216 2115 2214 2306
8 2308 2215 2115 2216 2396 2309 2217 2311
8 2310 2216 2117 2220 2398 2311 2219 2315
8 2311 2217 2116 2219 2399 2312 2218 2314
8 2314 2218 2118 2222 2402 2313 2221 2317
8 2315 2219 2119 2223 2403 2314 2222 2318
8 2225 2121 2224 2320 2317 2221 2316 2405
8 2226 2122 2225 2321 2318 2222 2317 2406
8 2228 2124 2227 2323 2320 2224 2319 2408
8 2229 2125 2228 2324 2321 2225 2320 2409
8 2231 2127 2230 2326 2323 2227 2322 2411
8 2232 2128 2231 2327 2324 2228 2323 2412
8 2234 2130 2233 2328 2326 2230 2325 2413
8 2235 2131 2234 2329 2327 2231 2326 2414
8 2237 2134 2236 2330 2329 2234 2328 2415
8 2259 2158 2260 2352 2332 2239 2331 2417
8 2257 2157 2259 2350 2334 2240 2332 2419
8 2240 2139 2239 2332 2335 2241 2333 2420
8 2334 2240 2335 2422 2242 2140 2243 2337
8 2335 2241 2336 2423 2243 2141 2244 2338
8 2337 2243 2338 2425 2247 2143 2246 2342
8 2338 2244 2339 2426 2246 2142 2245 2341
8 2341 2245 2340 2428 2249 2145 2248 2343
8 2342 2246 2341 2429 2250 2146 2249 2344
8 2344 2249 2343 2430 2252 2149 2251 2345
8 2188 2285 2347 2254 2284 2374 2432 2346
8 2347 2254 2346 2432 2271 2169 2270 2364
8 2365 2271 2170 2272 2433 2347 2255 2348
8 2286 2189 2285 2375 2348 2255 2347 2433
8 2349 2258 2351 2435 2257 2157 2259 2350
8 2349 2258 2164 2263 2435 2351 2264 2355
8 2259 2158 2261 2351 2352 2260 2354 2437
8 2356 2265 2354 2437 2264 2165 2261 2351
8 2441 2357 2264 2355 2362 2268 2168 2269
8 2356 2265 2165 2264 2442 2358 2266 2357
8 2443 2359 2266 2357 2361 2267 2166 2268
8 2370 2279 2360 2446 2280 2181 2267 2361
8 2362 2268 2182 2281 2447 2361 2280 2371
8 2180 2277 2368 2278 2270 2364 2449 2363
8 2271 2365 2273 2177 2364 2450 2366 2277
8 2372 2283 2186 2282 2451 2368 2276 2367
8 2178 2274 2367 2276 2277 2366 2451 2368
8 2283 2187 2278 2368 2370 2279 2369 2452
8 2372 2283 2370 2453 2282 2186 2280 2371
8 2284 2374 2455 2373 2201 2292 2380 2295
8 2375 2285 2197 2289 2456 2374 2292 2378
8 2376 2291 2204 2296 2457 2379 2297 2383
8 2288 2199 2291 2376 2377 2293 2379 2457
8 2198 2290 2378 2292 2293 2377 2458 2380
8 2293 2202 2294 2379 2380 2295 2381 2459
8 2384 2298 2381 2459 2297 2205 2294 2379
8 2386 2300 2384 2463 2299 2207 2297 2383
8 2387 2301 2385 2464 2300 2208 2298 2384
8 2389 2303 2387 2466 2302 2210 2300 2386
8 2390 2304 2388 2467 2303 2211 2301 2387
8 2392 2306 2390 2469 2305 2213 2303 2389
8 2393 2307 2391 2470 2306 2214 2304 2390
8 2395 2308 2393 2472 2310 2216 2306 2392
8 2308 2215 2309 2396 2393 2307 2394 2473
8 2395 2308 2216 2310 2475 2396 2311 2398
8 2396 2309 2217 2311 2476 2397 2312 2399
8 2398 2311 2219 2315 2478 2399 2314 2403
8 2399 2312 2218 2314 2479 2400 2313 2402
8 2317 2221 2316 2405 2402 2313 2401 2482
8 2403 2314 2222 2318 2483 2402 2317 2406
8 2320 2224 2319 2408 2405 2316 2404 2485
8 2321 2225 2320 2409 2406 2317 2405 2486
8 2323 2227 2322 2411 2408 2319 2407 2488
8 2324 2228 2323 2412 2409 2320 2408 2489
8 2326 2230 2325 2413 2411 2322 2410 2490
8 2327 2231 2326 2414 2412 2323 2411 2491
8 2329 2234 2328 2415 2414 2326 2413 2492
8 2417 2331 2260 2352 2494 2416 2353 2438
8 2350 2259 2352 2436 2419 2332 2417 2496
8 2332 2239 2331 2417 2420 2333 2418 2497
8 2334 2240 2332 2419 2422 2335 2420 2499
8 2420 2333 2421 2500 2335 2241 2336 2423
8 2422 2335 2423 2502 2337 2243 2338 2425
8 2423 2336 2424 2503 2338 2244 2339 2426
8 2425 2338 2426 2505 2342 2246 2341 2429
8 2426 2339 2427 2506 2341 2245 2340 2428
8 2429 2341 2428 2507 2344 2249 2343 2430
8 2432 2346 2284 2374 2509 2431 2373 2455
8 2432 2346 2431 2509 2364 2270 2363 2449
8 2375 2285 2374 2456 2433 2347 2432 2510
8 2347 2433 2365 2271 2432 2510 2450 2364
8 2350 2259 2351 2435 2436 2352 2437 2514
8 2440 2356 2437 2514 2355 2264 2351 2435
8 2352 2260 2354 2437 2438 2353 2439 2516
8 2356 2265 2358 2442 2437 2354 2439 2516
8 2440 2356 2264 2355 2518 2442 2357 2441
8 2519 2443 2357 2441 2447 2361 2268 2362
8 2443 2359 2444 2520 2357 2266 2358 2442
8 2443 2359 2267 2361 2520 2444 2360 2446
8 2446 2360 2279 2370 2523 2445 2369 2452
8 2453 2370 2446 2524 2371 2280 2361 2447
8 2449 2363 2448 2525 2368 2278 2369 2452
8 2366 2277 2364 2450 2451 2368 2449 2526
8 2372 2283 2368 2451 2453 2370 2452 2527
8 2455 2373 2295 2380 2529 2454 2382 2460
8 2456 2374 2292 2378 2530 2455 2380 2458
8 2377 2293 2379 2457 2458 2380 2459 2531
8 2463 2384 2459 2531 2383 2297 2379 2457
8 2533 2461 2382 2460 2459 2381 2295 2380
8 2464 2385 2461 2533 2384 2298 2381 2459
8 2466 2387 2464 2537 2386 2300 2384 2463
8 2467 2388 2465 2538 2387 2301 2385 2464
8 2469 2390 2467 2540 2389 2303 2387 2466
8 2470 2391 2468 2541 2390 2304 2388 2467
8 2472 2393 2470 2543 2392 2306 2390 2469
8 2393 2307 2394 2473 2470 2391 2471 2544
8 2395 2308 2396 2475 2472 2393 2473 2546
8 2396 2309 2397 2476 2473 2394 2474 2547
8 2475 2396 2311 2398 2549 2476 2399 2478
8 2476 2397 2312 2399 2550 2477 2400 2479
8 2478 2399 2314 2403 2552 2479 2402 2483
8 2479 2400 2313 2402 2553 2480 2401 2482
8 2405 2316 2404 2485 2482 2401 2481 2556
8 2406 2317 2405 2486 2483 2402 2482 2557
8 2408 2319 2407 2488 2485 2404 2484 2559
8 2409 2320 2408 2489 2486 2405 2485 2560
8 2411 2322 2410 2490 2488 2407 2487 2561
8 2412 2323 2411 2491 2489 2408 2488 2562
8 2414 2326 2413 2492 2491 2411 2490 2563
8 2513 2434 2493 2565 2438 2353 2416 2494
8 2496 2417 2352 2436 2567 2494 2438 2515
8 2494 2416 2495 2568 2417 2331 2418 2497
8 2419 2332 2417 2496 2499 2420 2497 2570
8 2497 2418 2498 2571 2420 2333 2421 2500
8 2499 2420 2500 2573 2422 2335 2423 2502
8 2500 2421 2501 2574 2423 2336 2424 2503
8 2502 2423 2503 2576 2425 2338 2426 2505
8 2503 2424 2504 2577 2426 2339 2427 2506
8 2505 2426 2506 2578 2429 2341 2428 2507
8 2509 2431 2373 2455 2580 2508 2454 2529
8 2509 2431 2508 2580 2449 2363 2448 2525
8 2432 2510 2581 2509 2374 2456 2530 2455
8 2432 2510 2450 2364 2509 2581 2526 2449
8 2583 2511 2434 2513 2516 2439 2353 2438
8 2436 2352 2437 2514 2515 2438 2516 2588
8 2440 2356 2442 2518 2514 2437 2516 2588
8 2442 2358 2444 2520 2516 2439 2517 2589
8 2519 2443 2520 2591 2441 2357 2442 2518
8 2519 2443 2361 2447 2591 2520 2446 2524
8 2446 2360 2445 2523 2520 2444 2521 2592
8 2525 2448 2522 2593 2452 2369 2445 2523
8 2524 2446 2370 2453 2594 2523 2452 2527
8 2526 2449 2525 2595 2451 2368 2452 2527
8 2534 2462 2528 2597 2460 2382 2454 2529
8 2530 2455 2380 2458 2598 2529 2460 2532
8 2599 2533 2460 2532 2531 2459 2380 2458
8 2537 2464 2533 2599 2463 2384 2459 2531
8 2534 2462 2382 2460 2601 2535 2461 2533
8 2538 2465 2535 2601 2464 2385 2461 2533
8 2540 2467 2538 2604 2466 2387 2464 2537
8 2541 2468 2539 2605 2467 2388 2465 2538
8 2543 2470 2541 2607 2469 2390 2467 2540
8 2470 2391 2471 2544 2541 2468 2542 2608
8 2472 2393 2473 2546 2543 2470 2544 2610
8 2473 2394 2474 2547 2544 2471 2545 2611
8 2475 2396 2476 2549 2546 2473 2547 2613
8 2476 2397 2477 2550 2547 2474 2548 2614
8 2549 2476 2399 2478 2616 2550 2479 2552
8 2479 2400 2480 2553 2550 2477 2551 2617
8 2552 2479 2402 2483 2619 2553 2482 2557
8 2482 2401 2481 2556 2553 2480 2554 2620
8 2485 2404 2484 2559 2556 2481 2555 2623
8 2486 2405 2485 2560 2557 2482 2556 2624
8 2488 2407 2487 2561 2559 2484 2558 2625
8 2489 2408 2488 2562 2560 2485 2559 2626
8 2491 2411 2490 2563 2562 2488 2561 2627
8 2513 2434 2512 2585 2565 2493 2564 2630
8 2586 2513 2565 2632 2515 2438 2494 2567
8 2565 2493 2566 2633 2494 2416 2495 2568
8 2567 2494 2568 2635 2496 2417 2497 2570
8 2568 2495 2569 2636 2497 2418 2498 2571
8 2570 2497 2571 2638 2499 2420 2500 2573
8 2571 2498 2572 2639 2500 2421 2501 2574
8 2573 2500 2574 2641 2502 2423 2503 2576
8 2574 2501 2575 2642 2503 2424 2504 2577
8 2576 2503 2577 2643 2505 2426 2506 2578
8 2597 2528 2579 2645 2529 2454 2508 2580
8 2580 2508 2579 2645 2525 2448 2522 2593
8 2581 2509 2455 2530 2646 2580 2529 2598
8 2581 2509 2580 2646 2526 2449 2525 2595
8 2583 2511 2582 2648 2513 2434 2512 2585
8 2583 2511 2439 2516 2648 2582 2517 2589
8 2649 2583 2513 2586 2588 2516 2438 2515
8 2589 2517 2444 2520 2653 2587 2521 2592
8 2518 2442 2520 2591 2588 2516 2589 2654
8 2593 2522 2590 2655 2523 2445 2521 2592
8 2524 2446 2523 2594 2591 2520 2592 2656
8 2595 2525 2593 2657 2527 2452 2523 2594
8 2602 2536 2596 2659 2534 2462 2528 2597
8 2600 2534 2597 2660 2532 2460 2529 2598
8 2600 2534 2460 2532 2661 2601 2533 2599
8 2604 2538 2601 2661 2537 2464 2533 2599
8 2602 2536 2462 2534 2663 2603 2535 2601
8 2601 2535 2465 2538 2663 2603 2539 2605
8 2607 2541 2605 2665 2540 2467 2538 2604
8 2608 2542 2606 2666 2541 2468 2539 2605
8 2543 2470 2544 2610 2607 2541 2608 2668
8 2544 2471 2545 2611 2608 2542 2609 2669
8 2546 2473 2547 2613 2610 2544 2611 2671
8 2547 2474 2548 2614 2611 2545 2612 2672
8 2549 2476 2550 2616 2613 2547 2614 2674
8 2550 2477 2551 2617 2614 2548 2615 2675
8 2552 2479 2553 2619 2616 2550 2617 2677
8 2553 2480 2554 2620 2617 2551 2618 2678
8 2557 2482 2556 2624 2619 2553 2620 2680
8 2556 2481 2555 2623 2620 2554 2621 2681
8 2559 2484 2558 2625 2623 2555 2622 2683
8 2560 2485 2559 2626 2624 2556 2623 2684
8 2562 2488 2561 2627 2626 2559 2625 2685
8 2690 2629 2564 2630 2650 2584 2512 2585
8 2586 2513 2585 2651 2632 2565 2630 2691
8 2630 2564 2631 2692 2565 2493 2566 2633
8 2632 2565 2633 2694 2567 2494 2568 2635
8 2633 2566 2634 2695 2568 2495 2569 2636
8 2635 2568 2636 2697 2570 2497 2571 2638
8 2636 2569 2637 2698 2571 2498 2572 2639
8 2638 2571 2639 2700 2573 2500 2574 2641
8 2639 2572 2640 2701 2574 2501 2575 2642
8 2641 2574 2642 2702 2576 2503 2577 2643
8 2597 2528 2596 2659 2645 2579 2644 2704
8 2645 2579 2644 2704 2593 2522 2590 2655
8 2660 2597 2645 2705 2598 2529 2580 2646
8 2646 2580 2645 2705 2595 2525 2593 2657
8 2650 2584 2512 2585 2707 2647 2582 2648
8 2648 2582 2517 2589 2707 2647 2587 2653
8 2649 2583 2648 2708 2586 2513 2585 2651
8 2649 2583 2516 2588 2708 2648 2589 2654
8 2655 2590 2652 2710 2592 2521 2587 2653
8 2654 2589 2520 2591 2711 2653 2592 2656
8 2657 2593 2655 2712 2594 2523 2592 2656
8 2602 2536 2603 2663 2659 2596 2658 2714
8 2662 2602 2659 2715 2600 2534 2597 2660
8 2662 2602 2534 2600 2717 2663 2601 2661
8 2661 2601 2538 2604 2717 2663 2605 2665
8 2666 2606 2664 2718 2605 2539 2603 2663
8 2668 2608 2666 2720 2607 2541 2605 2665
8 2608 2542 2609 2669 2666 2606 2667 2721
8 2610 2544 2611 2671 2668 2608 2669 2723
8 2611 2545 2612 2672 2669 2609 2670 2724
8 2613 2547 2614 2674 2671 2611 2672 2726
8 2614 2548 2615 2675 2672 2612 2673 2727
8 2616 2550 2617 2677 2674 2614 2675 2729
8 2617 2551 2618 2678 2675 2615 2676 2730
8 2619 2553 2620 2680 2677 2617 2678 2732
8 2620 2554 2621 2681 2678 2618 2679 2733
8 2624 2556 2623 2684 2680 2620 2681 2735
8 2681 2621 2555 2623 2736 2682 2622 2683
8 2626 2559 2625 2685 2684 2623 2683 2737
8 2688 2628 2584 2650 2740 2686 2647 2707
8 2688 2628 2687 2742 2650 2584 2629 2690
8 2690 2629 2689 2745 2630 2564 2631 2692
8 2746 2690 2630 2691 2709 2650 2585 2651
8 2691 2630 2692 2747 2632 2565 2633 2694
8 2692 2631 2693 2748 2633 2566 2634 2695
8 2694 2633 2695 2750 2635 2568 2636 2697
8 2695 2634 2696 2751 2636 2569 2637 2698
8 2697 2636 2698 2753 2638 2571 2639 2700
8 2698 2637 2699 2754 2639 2572 2640 2701
8 2700 2639 2701 2755 2641 2574 2642 2702
8 2659 2596 2658 2714 2704 2644 2703 2757
8 2704 2644 2703 2757 2655 2590 2652 2710
8 2660 2597 2659 2715 2705 2645 2704 2758
8 2705 2645 2704 2758 2657 2593 2655 2712
8 2759 2706 2647 2707 2710 2652 2587 2653
8 2709 2650 2585 2651 2760 2707 2648 2708
8 2708 2648 2589 2654 2760 2707 2653 2711
8 2712 2655 2710 2761 2656 2592 2653 2711
8 2763 2713 2658 2714 2718 2664 2603 2663
8 2662 2602 2663 2717 2715 2659 2714 2764
8 2720 2666 2718 2767 2665 2605 2663 2717
8 2768 2719 2664 2718 2721 2667 2606 2666
8 2668 2608 2669 2723 2720 2666 2721 2770
8 2669 2609 2670 2724 2721 2667 2722 2771
8 2671 2611 2672 2726 2723 2669 2724 2773
8 2672 2612 2673 2727 2724 2670 2725 2774
8 2674 2614 2675 2729 2726 2672 2727 2776
8 2675 2615 2676 2730 2727 2673 2728 2777
8 2677 2617 2678 2732 2729 2675 2730 2779
8 2678 2618 2679 2733 2730 2676 2731 2780
8 2680 2620 2681 2735 2732 2678 2733 2782
8 2733 2679 2621 2681 2783 2734 2682 2736
8 2735 2681 2623 2684 2784 2736 2683 2737
8 2740 2686 2647 2707 2787 2738 2706 2759
8 2688 2628 2686 2740 2742 2687 2739 2789
8 2743 2688 2650 2709 2790 2740 2707 2760
8 2742 2687 2741 2792 2690 2629 2689 2745
8 2743 2688 2742 2793 2709 2650 2690 2746
8 2745 2689 2744 2795 2692 2631 2693 2748
8 2746 2690 2745 2796 2691 2630 2692 2747
8 2747 2692 2748 2797 2694 2633 2695 2750
8 2748 2693 2749 2798 2695 2634 2696 2751
8 2750 2695 2751 2800 2697 2636 2698 2753
8 2751 2696 2752 2801 2698 2637 2699 2754
8 2753 2698 2754 2802 2700 2639 2701 2755
8 2763 2713 2756 2804 2714 2658 2703 2757
8 2759 2706 2652 2710 2804 2756 2703 2757
8 2715 2659 2714 2764 2758 2704 2757 2805
8 2758 2704 2757 2805 2712 2655 2710 2761
8 2806 2759 2707 2760 2761 2710 2653 2711
8 2765 2716 2762 2808 2718 2664 2713 2763
8 2809 2763 2714 2764 2767 2718 2663 2717
8 2765 2716 2664 2718 2811 2766 2719 2768
8 2813 2768 2718 2767 2770 2721 2666 2720
8 2814 2769 2719 2768 2771 2722 2667 2721
8 2723 2669 2724 2773 2770 2721 2771 2816
8 2724 2670 2725 2774 2771 2722 2772 2817
8 2726 2672 2727 2776 2773 2724 2774 2819
8 2727 2673 2728 2777 2774 2725 2775 2820
8 2729 2675 2730 2779 2776 2727 2777 2822
8 2730 2676 2731 2780 2777 2728 2778 2823
8 2732 2678 2733 2782 2779 2730 2780 2825
8 2780 2731 2679 2733 2826 2781 2734 2783
8 2782 2733 2681 2735 2827 2783 2736 2784
8 2830 2785 2738 2787 2804 2756 2706 2759
8 2789 2739 2686 2740 2832 2786 2738 2787
8 2790 2740 2707 2760 2833 2787 2759 2806
8 2742 2687 2739 2789 2792 2741 2788 2835
8 2743 2688 2740 2790 2793 2742 2789 2836
8 2792 2741 2791 2838 2745 2689 2744 2795
8 2793 2742 2792 2839 2746 2690 2745 2796
8 2795 2744 2794 2841 2748 2693 2749 2798
8 2796 2745 2795 2842 2747 2692 2748 2797
8 2797 2748 2798 2843 2750 2695 2751 2800
8 2798 2749 2799 2844 2751 2696 2752 2801
8 2800 2751 2801 2845 2753 2698 2754 2802
8 2808 2762 2803 2847 2763 2713 2756 2804
8 2809 2763 2804 2848 2764 2714 2757 2805
8 2806 2759 2710 2761 2848 2804 2757 2805
8 2765 2716 2766 2811 2808 2762 2807 2850
8 2810 2765 2808 2851 2767 2718 2763 2809
8 2810 2765 2718 2767 2852 2811 2768 2813
8 2811 2766 2719 2768 2853 2812 2769 2814
8 2855 2814 2768 2813 2816 2771 2721 2770
8 2856 2815 2769 2814 2817 2772 2722 2771
8 2773 2724 2774 2819 2816 2771 2817 2858
8 2774 2725 2775 2820 2817 2772 2818 2859
8 2776 2727 2777 2822 2819 2774 2820 2861
8 2777 2728 2778 2823 2820 2775 2821 2862
8 2779 2730 2780 2825 2822 2777 2823 2864
8 2823 2778 2731 2780 2865 2824 2781 2826
8 2825 2780 2733 2782 2866 2826 2783 2827
8 2869 2828 2785 2830 2847 2803 2756 2804
8 2871 2829 2786 2832 2830 2785 2738 2787
8 2872 2830 2787 2833 2848 2804 2759 2806
8 2789 2739 2786 2832 2835 2788 2831 2874
8 2836 2789 2740 2790 2875 2832 2787 2833
8 2792 2741 2788 2835 2838 2791 2834 2877
8 2793 2742 2789 2836 2839 2792 2835 2878
8 2838 2791 2837 2880 2795 2744 2794 2841
8 2839 2792 2838 2881 2796 2745 2795 2842
8 2841 2794 2840 2882 2798 2749 2799 2844
8 2842 2795 2841 2883 2797 2748 2798 2843
8 2843 2798 2844 2884 2800 2751 2801 2845
8 2886 2846 2803 2847 2850 2807 2762 2808
8 2851 2808 2847 2887 2809 2763 2804 2848
8 2850 2807 2766 2811 2889 2849 2812 2853
8 2810 2765 2811 2852 2851 2808 2850 2890
8 2852 2811 2768 2813 2891 2853 2814 2855
8 2853 2812 2769 2814 2892 2854 2815 2856
8 2894 2856 2814 2855 2858 2817 2771 2816
8 2817 2772 2818 2859 2856 2815 2857 2895
8 2819 2774 2820 2861 2858 2817 2859 2897
8 2820 2775 2821 2862 2859 2818 2860 2898
8 2822 2777 2823 2864 2861 2820 2862 2900
8 2823 2778 2824 2865 2862 2821 2863 2901
8 2864 2823 2780 2825 2902 2865 2826 2866
8 2904 2867 2828 2869 2886 2846 2803 2847
8 2869 2828 2868 2906 2830 2785 2829 2871
8 2907 2869 2830 2872 2887 2847 2804 2848
8 2871 2829 2870 2909 2832 2786 2831 2874
8 2910 2871 2832 2875 2872 2830 2787 2833
8 2835 2788 2831 2874 2877 2834 2873 2912
8 2836 2789 2832 2875 2878 2835 2874 2913
8 2877 2834 2876 2915 2838 2791 2837 2880
8 2839 2792 2835 2878 2881 2838 2877 2916
8 2880 2837 2879 2917 2841 2794 2840 2882
8 2881 2838 2880 2918 2842 2795 2841 2883
8 2883 2841 2882 2919 2843 2798 2844 2884
8 2921 2885 2846 2886 2889 2849 2807 2850
8 2922 2886 2847 2887 2890 2850 2808 2851
8 2889 2849 2812 2853 2924 2888 2854 2892
8 2890 2850 2811 2852 2925 2889 2853 2891
8 2891 2853 2814 2855 2926 2892 2856 2894
8 2892 2854 2815 2856 2927 2893 2857 2895
8 2858 2817 2859 2897 2894 2856 2895 2929
8 2859 2818 2860 2898 2895 2857 2896 2930
8 2861 2820 2862 2900 2897 2859 2898 2932
8 2862 2821 2863 2901 2898 2860 2899 2933
8 2864 2823 2865 2902 2900 2862 2901 2934
8 2904 2867 2846 2886 2936 2903 2885 2921
8 2904 2867 2903 2936 2869 2828 2868 2906
8 2937 2904 2869 2907 2922 2886 2847 2887
8 2906 2868 2905 2939 2871 2829 2870 2909
8 2907 2869 2906 2940 2872 2830 2871 2910
8 2909 2870 2908 2942 2874 2831 2873 2912
8 2910 2871 2909 2943 2875 2832 2874 2913
8 2912 2873 2911 2945 2877 2834 2876 2915
8 2878 2835 2874 2913 2916 2877 2912 2946
8 2915 2876 2914 2947 2880 2837 2879 2917
8 2916 2877 2915 2948 2881 2838 2880 2918
8 2918 2880 2917 2949 2883 2841 2882 2919
8 2921 2885 2849 2889 2951 2920 2888 2924
8 2952 2921 2886 2922 2925 2889 2850 2890
8 2924 2888 2854 2892 2954 2923 2893 2927
8 2925 2889 2853 2891 2955 2924 2892 2926
8 2926 2892 2856 2894 2956 2927 2895 2929
8 2895 2857 2896 2930 2927 2893 2928 2957
8 2897 2859 2898 2932 2929 2895 2930 2959
8 2898 2860 2899 2933 2930 2896 2931 2960
8 2900 2862 2901 2934 2932 2898 2933 2961
8 2936 2903 2885 2921 2963 2935 2920 2951
8 2936 2903 2935 2963 2906 2868 2905 2939
8 2937 2904 2886 2922 2964 2936 2921 2952
8 2937 2904 2936 2964 2907 2869 2906 2940
8 2939 2905 2938 2966 2909 2870 2908 2942
8 2940 2906 2939 2967 2910 2871 2909 2943
8 2942 2908 2941 2969 2912 2873 2911 2945
8 2943 2909 2942 2970 2913 2874 2912 2946
8 2945 2911 2944 2971 2915 2876 2914 2947
8 2946 2912 2945 2972 2916 2877 2915 2948
8 2948 2915 2947 2973 2918 2880 2917 2949
8 2951 2920 2888 2924 2975 2950 2923 2954
8 2952 2921 2889 2925 2976 2951 2924 2955
8 2927 2893 2928 2957 2954 2923 2953 2978
8 2955 2924 2892 2926 2979 2954 2927 2956
8 2929 2895 2930 2959 2956 2927 2957 2980
8 2930 2896 2931 2960 2957 2928 2958 2981
8 2932 2898 2933 2961 2959 2930 2960 2982
8 2951 2920 2950 2975 2963 2935 2962 2984
8 2963 2935 2962 2984 2939 2905 2938 2966
8 2964 2936 2921 2952 2985 2963 2951 2976
8 2964 2936 2963 2985 2940 2906 2939 2967
8 2966 2938 2965 2987 2942 2908 2941 2969
8 2967 2939 2966 2988 2943 2909 2942 2970
8 2969 2941 2968 2989 2945 2911 2944 2971
8 2970 2942 2969 2990 2946 2912 2945 2972
8 2972 2945 2971 2991 2948 2915 2947 2973
8 2954 2923 2953 2978 2975 2950 2974 2993
8 2976 2951 2924 2955 2994 2975 2954 2979
8 2957 2928 2958 2981 2978 2953 2977 2995
8 2956 2927 2957 2980 2979 2954 2978 2996
8 2959 2930 2960 2982 2980 2957 2981 2997
8 2984 2962 2983 2999 2966 2938 2965 2987
8 2975 2950 2974 2993 2984 2962 2983 2999
8 2976 2951 2975 2994 2985 2963 2984 3000
8 2985 2963 2984 3000 2967 2939 2966 2988
8 2987 2965 2986 3001 2969 2941 2968 2989
8 2988 2966 2987 3002 2970 2942 2969 2990
8 2990 2969 2989 3003 2972 2945 2971 2991
8 2978 2953 2977 2995 2993 2974 2992 3004
8 2979 2954 2978 2996 2994 2975 2993 3005
8 2980 2957 2981 2997 2996 2978 2995 3006
8 2974 2993 2999 2983 2992 3004 3007 2998
8 2983 2999 2987 2965 2998 3007 3001 2986
8 3000 2984 2999 3008 2988 2966 2987 3002
8 2994 2975 2993 3005 3000 2984 2999 3008
8 3002 2987 3001 3009 2990 2969 2989 3003
8 2996 2978 2995 3006 3005 2993 3004 3010
8 3005 2993 3004 3010 3008 2999 3007 3011
8 3008 2999 3007 3011 3002 2987 3001 3009

CELL_TYPES 1910
12
12
12
12
12
12
12
12
12
12
12
12
12
12
12
12
12
12
12
12
12
12
12
12
12
12
12
12
12
12
12
12
12
12
12
12
12
12
12
12
12
12
12
12
12
12
12
12
12
12
12
12
12
12
12
12
12
12
12
12
12
12
12
12
12
12
12
12
12
12
12
12
12
12
12
12
12
12
12
12
12
12
12
12
12
12
12
12
12
12
12
12
12
12
12
12
12
12
12
12
12
12
12
12
12
12
12
12
12
12
12
12
12
12
12
12
12
12
12
12
12
12
12
12
12
12
12
12
12
12
12
12
12
12
12
12
12
12
12
12
12
12
12
12
12
12
12
12
12
12
12
12
12
12
12
12
12
12
12
12
12
12
12
12
12
12
12
12
12
12
12
12
12
12
12
12
12
12
12
12
12
12
12
12
12
12
12
12
12
12
12
12
12
12
12
12
12
12
12
12
12
12
12
12
12
12
12
12
12
12
12
12
12
12
12
12
12
12
12
12
12
12
12
12
12
12
12
12
12
12
12
12
12
12
12
12
12
12
12
12
12
12
12
12
12
12
12
12
12
12
12
12
12
12
12
12
12
12
12
12
12
12
12
12
12
12
12
12
12
12
12
12
12
12
12
12
12
12
12
12
12
12
12
12
12
12
12
12
12
12
12
12
12
12
12
12
12
12
12
12
12
12
12
12
12
12
12
12
12
12
12
12
12
12
12
12
12
12
12
12
12
12
12
12
12
12
12
12
12
12
12
12
12
12
12
12
12
12
12
12
12
12
12
12
12
12
12
12
12
12
12
12
12
12
12
12
12
12
12
12
12
12
12
12
12
12
12
12
12
12
12
12
12
12
12
12
12
12
12
12
12
12
12
12
12
12
12
12
12
12
12
12
12
12
12
12
12
12
12
12
12
12
12
12
12
12
12
12
12
12
12
12
12
12
12
12
12
12
12
12
12
12
12
12
12
12
12
12
12
12
12
12
12
12
12
12
12
12
12
12
12
12
12
12
12
12
12
12
12
12
12
12
12
12
12
12
12
12
12
12
12
12
12
12
12
12
12
12
12
12
12
12
12
12
12
12
12
12
12
12
12
12
12
12
12
12
12
12
12
12
12
12
12
12
12
12
12
12
12
12
12
12
12
12
12
12
12
12
12
12
12
12
12
12
12
12
12
12
12
12
12
12
12
12
12
12
12
12
12
12
12
12
12
12
12
12
12
12
12
12
12
12
12
12
12
12
12
12
12
12
12
12
12
12
12
12
12
12
12
12
12
12
12
12
12
12
12
12
12
12
12
12
12
12
12
12
12
12
12
12
12
12
12
12
12
12
12
12
12
12
12
12
12
12
12
12
12
12
12
12
12
12
12
12
12
12
12
12
12
12
12
12
12
12
12
12
12
12
12
12
12
12
12
12
12
12
12
12
12
12
12
12
12
12
12
12
12
12
12
12
12
12
12
12
12
12
12
12
12
12
12
12
12
12
12
12
12
12
12
12
12
12
12
12
12
12
12
12
12
12
12
12
12
12
12
12
12
12
12
12
12
12
12
12
12
12
12
12
12
12
12
12
12
12
12
12
12
12
12
12
12
12
12
12
12
12
12
12
12
12
12
12
12
12
12
12
12
12
12
12
12
12
12
12
12
12
12
12
12
12
12
12
12
12
12
12
12
12
12
12
12
12
12
12
12
12
12
12
12
12
12
12
12
12
12
12
12
12
12
12
12
12
12
12
12
12
12
12
12
12
12
12
12
12
12
12
12
12
12
12
12
12
12
12
12
12
12
12
12
12
12
12
12
12
12
12
12
12
12
12
12
12
12
12
12
12
12
12
12
12
12
12
12
12
12
12
12
12
12
12
12
12
12
12
12
12
12
12
12
12
12
12
12
12
12
12
12
12
12
12
12
12
12
12
12
12
12
12
12
12
12
12
12
12
12
12
12
12
12
12
12
12
12
12
12
12
12
12
12
12
12
12
12
12
12
12
12
12
12
12
12
12
12
12
12
12
12
12
12
12
12
12
12
12
12
12
12
12
12
12
12
12
12
12
12
12
12
12
12
12
12
12
12
12
12
12
12
12
12
12
12
12
12
12
12
12
12
12
12
12
12
12
12
12
12
12
12
12
12
12
12
12
12
12
12
12
12
12
12
12
12
12
12
12
12
12
12
12
12
12
12
12
12
12
12
12
12
12
12
12
12
12
12
12
12
12
12
12
12
12
12
12
12
12
12
12
12
12
12
12
12
12
12
12
12
12
12
12
12
12
12
12
12
12
12
12
12
12
12
12
12
12
12
12
12
12
12
12
12
12
12
12
12
12
12
12
12
12
12
12
12
12
12
12
12
12
12
12
12
12
12
12
12
12
12
12
12
12
12
12
12
12
12
12
12
12
12
12
12
12
12
12
12
12
12
12
12
12
12
12
12
12
12
12
12
12
12
12
12
12
12
12
12
12
12
12
12
12
12
12
12
12
12
12
12
12
12
12
12
12
12
12
12
12
12
12
12
12
12
12
12
12
12
12
12
12
12
12
12
12
12
12
12
12
12
12
12
12
12
12
12
12
12
12
12
12
12
12
12
12
12
12
12
12
12
12
12
12
12
12
12
12
12
12
12
12
12
12
12
12
12
12
12
12
12
12
12
12
12
12
12
12
12
12
12
12
12
12
12
12
12
12
12
12
12
12
12
12
12
12
12
12
12
12
12
12
12
12
12
12
12
12
12
12
12
12
12
12
12
12
12
12
12
12
12
12
12
12
12
12
12
12
12
12
12
12
12
12
12
12
12
12
12
12
12
12
12
12
12
12
12
12
12
12
12
12
12
12
12
12
12
12
12
12
12
12
12
12
12
12
12
12
12
12
12
12
12
12
12
12
12
12
12
12
12
12
12
12
12
12
12
12
12
12
12
12
12
12
12
12
12
12
12
12
12
12
12
12
12
12
12
12
12
12
12
12
12
12
12
12
12
12
12
12
12
12
12
12
12
12
12
12
12
12
12
12
12
12
12
12
12
12
12
12
12
12
12
12
12
12
12
12
12
12
12
12
12
12
12
12
12
12
12
12
12
12
12
12
12
12
12
12
12
12
12
12
12
12
12
12
12
12
12
12
12
12
12
12
12
12
12
12
12
12
12
12
12
12
12
12
12
12
12
12
12
12
12
12
12
12
12
12
12
12
12
12
12
12
12
12
12
12
12
12
12
12
12
12
12
12
12
12
12
12
12
12
12
12
12
12
12
12
12
12
12
12
12
12
12
12
12
12
12
12
12
12
12
12
12
12
12
12
12
12
12
12
12
12
12
12
12
12
12
12
12
12
12
12
12
12
12
12
12
12
12
12
12
12
12
12
12
12
12
12
12
12
12
12
12
12
12
12
12
12
12
12
12
12
12
12
12
12
12
12
12
12
12
12
12
12
12
12
12
12
12
12
12
12
12
12
12
12
12
12
12
12
12
12
12
12
12
12
12
12
12
12
12
12
12
12
12
12
12
12
12
12
12
12
12
12
12
12
12
12
12
12
12
12
12
12
12
12
12
12
12
12
12
12
12
12
12
12
12
12
12
12
12
12
12
12
12
12
12
12
12
12
12
12
12
12
12
12
12
12
12
12
12
12
12
12
12
12
12
12
12
12
12
12
12
12
12
12
12
12
12
12
12
12
12
12
12
12
12
12
12
12
12
12
12
12
12
12
12
12
12
12
12
12
12
12
12
12
12
12
12
12
12
12
12
12
12
12
12
12
12
12
12
12
12
12
12
12
12
12
12
12
12
12
12
12
12
12
12
12
12
12
12
12
12
12
12
12
12
12
12
12
12
12
12
12
12
12
12
12
12
12
12
12
12
12
12
12
12
12
12
12
12
12
12
12
12
12
12
12
12
12
12
12
12
12
12
12
12
12
12
12
12
12
12
12
12
12
12
12
12
12
12
12
12
12
12
12
12
12
12
12
12
12
12
12
12
12
12
12
12
12
12
12
12
12
12
12
12
12
12
12
12
12
12
12
12
12
12
12
12
12
12
12
12
12
12
12
12
12
12
12
12
12
12
12
12
12
12
12
12
12
12
12
12
12
12
12
12
12
12
12
12
12
12
12
12
12
12
12
12
12
12
12
12
12
12
12
12
12
12
12
12
12
12
12
12
12
12
12
12
12
12
12
12
12
12
12
12
12
12
12
12
12
12
12
12
12
12
12
12
12
12
12
12
12
12
12
12
12
12
12
12
12
12
12
12
12
12
12
12
12
12
12
12
12
12
12
12
12
12
12
12
12
12
12
12
12
12
12
12
12
12
12
12
12
12
12
12
12
12
12
12
12
12
12

POINT_DATA 3012
SCALARS Jp_lamdaP float 4
LOOKUP_TABLE default
1 1 1 1
1 1 1 1
1 1 1 1
1 1 1 1
1 1 1 1
1 1 1 1
0.99999 1 1 0.99999
1 1 1 1
1 1 1 1
1 1 1 1
1 1 1 1
1 1 1 1
1 1 1 1
1 1 1 1
1 1 1 1
1 1 1 1
1 1 1 1
1 1 1 1
0.999991 1 1 0.999991
1 1 1 1
1 1 1 1
1 1 1 1
0.999976 1 1 0.999976
0.999987 1 1 0.999987
1 1 1 1
0.999993 1 1 0.999993
0.999956 1 1 0.999956
1 1 1 1
1 1 1 1
1 1 1 1
1 1 1 1
1 1 1 1
1 1 1 1
1 1 1 1
0.999998 1 1 0.999998
1 1 1 1
1 1 1 1
1 1 1 1
0.999969 1 1 0.999969
1 1 1 1
1 1 1 1
1 1 1 1
1 1 1 1
1 1 1 1
0.999984 1 1 0.999984
1 1 1 1
0.999991 1 1 0.999991
1 1 1 1
1 1 1 1
1 1 1 1
0.999991 1 1 0.999991
1 1 1 1
1 1 1 1
1 1 1 1
1 1 1 1
0.999976 1 1 0.999976
0.999994 1 1 0.999994
0.999987 1 1 0.999987
0.999955 1 1 0.999955
1 1 1 1
1 1 1 1
0.999985 1 1 0.999985
0.999971 1 1 0.999971
0.999982 1 1 0.999982
0.999919 1 1 0.999919
0.99994 1 1 0.99994
1 1 1 1
0.999996 1 1 0.999996
0.999966 1 1 0.999966
0.999887 1 1 0.999887
1 1 1 1
1 1 1 1
1 1 1 1
1 1 1 1
1 1 1 1
1 1 1 1
0.999999 1 1 0.999999
1 1 1 1
1 1 1 1
1 1 1 1
0.999969 1 1 0.999969
1 1 1 1
1 1 1 1
0.999996 1 1 0.999996
1 1 1 1
0.999934 1 1 0.999934
1 1 1 1
0.999961 1 1 0.999961
0.999976 1 1 0.999976
0.999914 1 1 0.999914
1 1 1 1
1 1 1 1
1 1 1 1
1 1 1 1
1 1 1 1
1 1 1 1
0.999985 1 1 0.999985
1 1 1 1
0.999992 1 1 0.999992
1 1 1 1
0.999982 1 1 0.999982
0.999988 1 1 0.999988
0.999892 1 1 0.999892
0.999993 1 1 0.999993
0.999904 1 1 0.999904
1 1 1 1
1 1 1 1
1 1 1 1
1 1 1 1
0.999977 1 1 0.999977
0.999988 1 1 0.999988
0.999994 1 1 0.999994
0.999954 1 1 0.999954
1 1 1 1
1 1 1 1
0.999976 1 1 0.999976
0.999971 1 1 0.999971
1 1 1 1
0.999998 1 1 0.999998
0.999983 1 1 0.999983
0.999915 1 1 0.999915
0.999964 1 1 0.999964
0.999943 1 1 0.999943
0.999888 1 1 0.999888
0.999983 1 1 0.999983
0.999969 1 1 0.999969
0.999895 1 1 0.999895
0.999902 1 1 0.999902
0.999926 1 1 0.999926
0.999854 1 1 0.999854
1 1 1 1
0.99988 1 1 0.99988
1 1 1 1
0.999971 1 1 0.999971
0.999895 1 1 0.999895
0.99986 1 1 0.99986
1 1 1 1
0.999981 1 1 0.999981
1 1 1 1
1 1 1 1
0.999999 1 1 0.999999
1 1 1 1
1 1 1 1
1 1 1 1
0.99997 1 1 0.99997
1 1 1 1
1 1 1 1
0.999996 1 1 0.999996
1 1 1 1
0.999934 1 1 0.999934
1 1 1 1
0.999962 1 1 0.999962
0.999977 1 1 0.999977
0.999911 1 1 0.999911
1 1 1 1
1 1 1 1
0.999985 1 1 0.999985
0.999921 1 1 0.999921
0.999949 1 1 0.999949
0.999874 1 1 0.999874
0.999982 1 1 0.999982
0.999903 1 1 0.999903
0.999918 1 1 0.999918
0.999886 1 1 0.999886
1 1 1 1
1 1 1 1
1 1 1 1
1 1 1 1
1 1 1 1
1 1 1 1
1 1 1 1
0.999992 1 1 0.999992
0.999986 1 1 0.999986
1 1 1 1
1 1 1 1
0.999983 1 1 0.999983
0.999989 1 1 0.999989
0.999892 1 1 0.999892
0.999994 1 1 0.999994
0.999904 1 1 0.999904
0.999982 1 1 0.999982
0.999888 1 1 0.999888
0.999897 1 1 0.999897
0.999843 1 1 0.999843
0.999912 1 1 0.999912
0.999853 1 1 0.999853
1 1 1 1
1 1 1 1
0.999967 1 1 0.999967
0.999971 1 1 0.999971
1 1 1 1
1 1 1 1
0.999983 1 1 0.999983
0.99991 1 1 0.99991
0.999946 1 1 0.999946
0.999963 1 1 0.999963
0.999888 1 1 0.999888
0.999983 1 1 0.999983
0.999969 1 1 0.999969
0.999886 1 1 0.999886
0.999904 1 1 0.999904
1 1 1 1
1 1 1 1
0.999972 1 1 0.999972
0.999927 1 1 0.999927
0.999849 1 1 0.999849
0.999894 1 1 0.999894
0.999883 1 1 0.999883
0.99986 1 1 0.99986
1 1 1 1
0.999981 1 1 0.999981
0.999886 1 1 0.999886
0.999896 1 1 0.999896
0.999839 1 1 0.999839
0.999833 1 1 0.999833
0.999873 1 1 0.999873
0.999828 1 1 0.999828
1 1 1 1
0.999855 1 1 0.999855
0.999977 1 1 0.999977
0.999905 1 1 0.999905
0.999867 1 1 0.999867
0.999852 1 1 0.999852
0.99998 1 1 0.99998
0.999983 1 1 0.999983
0.999918 1 1 0.999918
0.999997 1 1 0.999997
1 1 1 1
1 1 1 1
1 1 1 1
0.999934 1 1 0.999934
1 1 1 1
0.999977 1 1 0.999977
0.999962 1 1 0.999962
0.999909 1 1 0.999909
1 1 1 1
1 1 1 1
0.999985 1 1 0.999985
0.99992 1 1 0.99992
0.99995 1 1 0.99995
0.999873 1 1 0.999873
0.999983 1 1 0.999983
0.999905 1 1 0.999905
0.999918 1 1 0.999918
0.999883 1 1 0.999883
1 1 1 1
0.999985 1 1 0.999985
0.999986 1 1 0.999986
0.999927 1 1 0.999927
0.999864 1 1 0.999864
0.999891 1 1 0.999891
0.999845 1 1 0.999845
0.999924 1 1 0.999924
0.999876 1 1 0.999876
0.999879 1 1 0.999879
0.999865 1 1 0.999865
0.999991 1 1 0.999991
1 1 1 1
1 1 1 1
1 1 1 1
1 1 1 1
1 1 1 1
1 1 1 1
1 1 1 1
1 1 1 1
0.999994 1 1 0.999994
0.99999 1 1 0.99999
0.999904 1 1 0.999904
0.999891 1 1 0.999891
0.999983 1 1 0.999983
1 1 1 1
0.999982 1 1 0.999982
0.999888 1 1 0.999888
0.999897 1 1 0.999897
0.999843 1 1 0.999843
0.999912 1 1 0.999912
0.999853 1 1 0.999853
0.999887 1 1 0.999887
0.999843 1 1 0.999843
0.999846 1 1 0.999846
0.999826 1 1 0.999826
0.999859 1 1 0.999859
0.999835 1 1 0.999835
0.999982 1 1 0.999982
0.999969 1 1 0.999969
0.999877 1 1 0.999877
0.999907 1 1 0.999907
1 1 1 1
1 1 1 1
0.999973 1 1 0.999973
0.999927 1 1 0.999927
0.999844 1 1 0.999844
0.999886 1 1 0.999886
0.999893 1 1 0.999893
0.99986 1 1 0.99986
1 1 1 1
0.999981 1 1 0.999981
0.999883 1 1 0.999883
0.999896 1 1 0.999896
0.999838 1 1 0.999838
0.999838 1 1 0.999838
1 1 1 1
0.999977 1 1 0.999977
0.999908 1 1 0.999908
0.999873 1 1 0.999873
0.999826 1 1 0.999826
0.999863 1 1 0.999863
0.999855 1 1 0.999855
0.999851 1 1 0.999851
0.99998 1 1 0.99998
0.999915 1 1 0.999915
0.999982 1 1 0.999982
0.999843 1 1 0.999843
0.999834 1 1 0.999834
0.999813 1 1 0.999813
0.999811 1 1 0.999811
0.999846 1 1 0.999846
0.999827 1 1 0.999827
0.99998 1 1 0.99998
0.99985 1 1 0.99985
0.999919 1 1 0.999919
0.999869 1 1 0.999869
0.999845 1 1 0.999845
0.999859 1 1 0.999859
0.999986 1 1 0.999986
0.999921 1 1 0.999921
0.999909 1 1 0.999909
0.999885 1 1 0.999885
0.99992 1 1 0.99992
1 1 1 1
1 1 1 1
0.999985 1 1 0.999985
0.99995 1 1 0.99995
0.999873 1 1 0.999873
0.999983 1 1 0.999983
0.999918 1 1 0.999918
0.999906 1 1 0.999906
0.999881 1 1 0.999881
1 1 1 1
0.999985 1 1 0.999985
0.999986 1 1 0.999986
0.999927 1 1 0.999927
0.999863 1 1 0.999863
0.999891 1 1 0.999891
0.999845 1 1 0.999845
0.999924 1 1 0.999924
0.999879 1 1 0.999879
0.999879 1 1 0.999879
0.99987 1 1 0.99987
1 1 1 1
0.999987 1 1 0.999987
0.999927 1 1 0.999927
0.999927 1 1 0.999927
0.999884 1 1 0.999884
0.999841 1 1 0.999841
0.999861 1 1 0.999861
0.999836 1 1 0.999836
0.999882 1 1 0.999882
0.999861 1 1 0.999861
0.999843 1 1 0.999843
0.99999 1 1 0.99999
0.999936 1 1 0.999936
0.999993 1 1 0.999993
0.999992 1 1 0.999992
1 1 1 1
1 1 1 1
1 1 1 1
1 1 1 1
1 1 1 1
1 1 1 1
1 1 1 1
1 1 1 1
1 1 1 1
1 1 1 1
1 1 1 1
0.999911 1 1 0.999911
0.999897 1 1 0.999897
0.999853 1 1 0.999853
0.999843 1 1 0.999843
0.999888 1 1 0.999888
0.999982 1 1 0.999982
0.999887 1 1 0.999887
0.999842 1 1 0.999842
0.999846 1 1 0.999846
0.999826 1 1 0.999826
0.999859 1 1 0.999859
0.999835 1 1 0.999835
0.999841 1 1 0.999841
0.99983 1 1 0.99983
0.999827 1 1 0.999827
0.99982 1 1 0.99982
0.999841 1 1 0.999841
0.999839 1 1 0.999839
0.99988 1 1 0.99988
0.999896 1 1 0.999896
0.999837 1 1 0.999837
0.999844 1 1 0.999844
1 1 1 1
0.999976 1 1 0.999976
0.999912 1 1 0.999912
0.999874 1 1 0.999874
0.999825 1 1 0.999825
0.999855 1 1 0.999855
0.999859 1 1 0.999859
0.999851 1 1 0.999851
0.999981 1 1 0.999981
0.999912 1 1 0.999912
0.999982 1 1 0.999982
0.999841 1 1 0.999841
0.999834 1 1 0.999834
0.999811 1 1 0.999811
0.999812 1 1 0.999812
0.99998 1 1 0.99998
0.999919 1 1 0.999919
0.999873 1 1 0.999873
0.999848 1 1 0.999848
0.999828 1 1 0.999828
0.999842 1 1 0.999842
0.99985 1 1 0.99985
0.999861 1 1 0.999861
0.999921 1 1 0.999921
0.999882 1 1 0.999882
0.999986 1 1 0.999986
0.999909 1 1 0.999909
0.999817 1 1 0.999817
0.999805 1 1 0.999805
0.999796 1 1 0.999796
0.999809 1 1 0.999809
0.999846 1 1 0.999846
0.999836 1 1 0.999836
0.999923 1 1 0.999923
0.999864 1 1 0.999864
0.999882 1 1 0.999882
0.999845 1 1 0.999845
0.999834 1 1 0.999834
0.999864 1 1 0.999864
0.999989 1 1 0.999989
0.99991 1 1 0.99991
0.999887 1 1 0.999887
0.999872 1 1 0.999872
0.999865 1 1 0.999865
1 1 1 1
0.999863 1 1 0.999863
0.999986 1 1 0.999986
0.999985 1 1 0.999985
0.999926 1 1 0.999926
0.999891 1 1 0.999891
0.999845 1 1 0.999845
0.999924 1 1 0.999924
0.999878 1 1 0.999878
0.999882 1 1 0.999882
0.999874 1 1 0.999874
1 1 1 1
0.999987 1 1 0.999987
0.999927 1 1 0.999927
0.999927 1 1 0.999927
0.999883 1 1 0.999883
0.999841 1 1 0.999841
0.999861 1 1 0.999861
0.999834 1 1 0.999834
0.999882 1 1 0.999882
0.999863 1 1 0.999863
0.999846 1 1 0.999846
0.999988 1 1 0.999988
0.999928 1 1 0.999928
0.999883 1 1 0.999883
0.999882 1 1 0.999882
0.999864 1 1 0.999864
0.999838 1 1 0.999838
0.999847 1 1 0.999847
0.999848 1 1 0.999848
0.999848 1 1 0.999848
0.999827 1 1 0.999827
0.99999 1 1 0.99999
0.999924 1 1 0.999924
0.999932 1 1 0.999932
0.999892 1 1 0.999892
0.999939 1 1 0.999939
0.999994 1 1 0.999994
0.999993 1 1 0.999993
1 1 1 1
0.999992 1 1 0.999992
1 1 1 1
1 1 1 1
1 1 1 1
1 1 1 1
1 1 1 1
1 1 1 1
1 1 1 1
1 1 1 1
1 1 1 1
1 1 1 1
1 1 1 1
0.999859 1 1 0.999859
0.999846 1 1 0.999846
0.999835 1 1 0.999835
0.999826 1 1 0.999826
0.999842 1 1 0.999842
0.999887 1 1 0.999887
0.999841 1 1 0.999841
0.99983 1 1 0.99983
0.999827 1 1 0.999827
0.999819 1 1 0.999819
0.999841 1 1 0.999841
0.999839 1 1 0.999839
0.999828 1 1 0.999828
0.999828 1 1 0.999828
0.999822 1 1 0.999822
0.999813 1 1 0.999813
0.999844 1 1 0.999844
0.999845 1 1 0.999845
0.999838 1 1 0.999838
0.999833 1 1 0.999833
0.999808 1 1 0.999808
0.999814 1 1 0.999814
0.99998 1 1 0.99998
0.999919 1 1 0.999919
0.999876 1 1 0.999876
0.99985 1 1 0.99985
0.999829 1 1 0.999829
0.99985 1 1 0.99985
0.999839 1 1 0.999839
0.999863 1 1 0.999863
0.999921 1 1 0.999921
0.999878 1 1 0.999878
0.999986 1 1 0.999986
0.999909 1 1 0.999909
0.999818 1 1 0.999818
0.999806 1 1 0.999806
0.999794 1 1 0.999794
0.99981 1 1 0.99981
0.999923 1 1 0.999923
0.999885 1 1 0.999885
0.999845 1 1 0.999845
0.999845 1 1 0.999845
0.99984 1 1 0.99984
0.999833 1 1 0.999833
0.999864 1 1 0.999864
0.99987 1 1 0.99987
0.999887 1 1 0.999887
0.999863 1 1 0.999863
0.999871 1 1 0.999871
0.999984 1 1 0.999984
0.999911 1 1 0.999911
0.999807 1 1 0.999807
0.999787 1 1 0.999787
0.99982 1 1 0.99982
0.999856 1 1 0.999856
0.99989 1 1 0.99989
0.999883 1 1 0.999883
0.999859 1 1 0.999859
0.999819 1 1 0.999819
0.999828 1 1 0.999828
0.999982 1 1 0.999982
0.999926 1 1 0.999926
0.999868 1 1 0.999868
0.999869 1 1 0.999869
0.999842 1 1 0.999842
0.999849 1 1 0.999849
1 1 1 1
0.999987 1 1 0.999987
0.99984 1 1 0.99984
0.999927 1 1 0.999927
0.999927 1 1 0.999927
0.999881 1 1 0.999881
0.999861 1 1 0.999861
0.999833 1 1 0.999833
0.999882 1 1 0.999882
0.999848 1 1 0.999848
0.999864 1 1 0.999864
0.999989 1 1 0.999989
0.999927 1 1 0.999927
0.999885 1 1 0.999885
0.999882 1 1 0.999882
0.999862 1 1 0.999862
0.999838 1 1 0.999838
0.999846 1 1 0.999846
0.99985 1 1 0.99985
0.999846 1 1 0.999846
0.999824 1 1 0.999824
0.999929 1 1 0.999929
0.999874 1 1 0.999874
0.999856 1 1 0.999856
0.999852 1 1 0.999852
0.999846 1 1 0.999846
0.999873 1 1 0.999873
0.999827 1 1 0.999827
0.999844 1 1 0.999844
0.999824 1 1 0.999824
0.99979 1 1 0.99979
0.999991 1 1 0.999991
0.999927 1 1 0.999927
0.999876 1 1 0.999876
0.999928 1 1 0.999928
0.999939 1 1 0.999939
0.999886 1 1 0.999886
0.999855 1 1 0.999855
0.999882 1 1 0.999882
0.999941 1 1 0.999941
0.999994 1 1 0.999994
0.999994 1 1 0.999994
1 1 1 1
0.999993 1 1 0.999993
1 1 1 1
1 1 1 1
1 1 1 1
1 1 1 1
1 1 1 1
1 1 1 1
1 1 1 1
1 1 1 1
1 1 1 1
1 1 1 1
1 1 1 1
0.99984 1 1 0.99984
0.999827 1 1 0.999827
0.999838 1 1 0.999838
0.999817 1 1 0.999817
0.999831 1 1 0.999831
0.999841 1 1 0.999841
0.999828 1 1 0.999828
0.999828 1 1 0.999828
0.999821 1 1 0.999821
0.999808 1 1 0.999808
0.999844 1 1 0.999844
0.999847 1 1 0.999847
0.999834 1 1 0.999834
0.999824 1 1 0.999824
0.999818 1 1 0.999818
0.999873 1 1 0.999873
0.999818 1 1 0.999818
0.999806 1 1 0.999806
0.999791 1 1 0.999791
0.99981 1 1 0.99981
0.999923 1 1 0.999923
0.999888 1 1 0.999888
0.999845 1 1 0.999845
0.999844 1 1 0.999844
0.999844 1 1 0.999844
0.999864 1 1 0.999864
0.999831 1 1 0.999831
0.999875 1 1 0.999875
0.999887 1 1 0.999887
0.999861 1 1 0.999861
0.999871 1 1 0.999871
0.999979 1 1 0.999979
0.999912 1 1 0.999912
0.999804 1 1 0.999804
0.99979 1 1 0.99979
0.999821 1 1 0.999821
0.99989 1 1 0.99989
0.999863 1 1 0.999863
0.999818 1 1 0.999818
0.999854 1 1 0.999854
0.999834 1 1 0.999834
0.999882 1 1 0.999882
0.999982 1 1 0.999982
0.999869 1 1 0.999869
0.99985 1 1 0.99985
0.999844 1 1 0.999844
0.99987 1 1 0.99987
0.999921 1 1 0.999921
0.999799 1 1 0.999799
0.999788 1 1 0.999788
0.999841 1 1 0.999841
0.999881 1 1 0.999881
0.99987 1 1 0.99987
0.999855 1 1 0.999855
0.999828 1 1 0.999828
0.999799 1 1 0.999799
0.999986 1 1 0.999986
0.999931 1 1 0.999931
0.999877 1 1 0.999877
0.999827 1 1 0.999827
0.99985 1 1 0.99985
0.999828 1 1 0.999828
0.999989 1 1 0.999989
0.999927 1 1 0.999927
0.999837 1 1 0.999837
0.999881 1 1 0.999881
0.999888 1 1 0.999888
0.999859 1 1 0.999859
0.999845 1 1 0.999845
0.999852 1 1 0.999852
0.999844 1 1 0.999844
0.99982 1 1 0.99982
0.999929 1 1 0.999929
0.999876 1 1 0.999876
0.999859 1 1 0.999859
0.999855 1 1 0.999855
0.999848 1 1 0.999848
0.999875 1 1 0.999875
0.999829 1 1 0.999829
0.999854 1 1 0.999854
0.999822 1 1 0.999822
0.999787 1 1 0.999787
0.999873 1 1 0.999873
0.999838 1 1 0.999838
0.999833 1 1 0.999833
0.999832 1 1 0.999832
0.999882 1 1 0.999882
0.999877 1 1 0.999877
0.999792 1 1 0.999792
0.999773 1 1 0.999773
0.999931 1 1 0.999931
0.999879 1 1 0.999879
0.999849 1 1 0.999849
0.999939 1 1 0.999939
0.99988 1 1 0.99988
0.999941 1 1 0.999941
0.999851 1 1 0.999851
0.999884 1 1 0.999884
0.999828 1 1 0.999828
0.999847 1 1 0.999847
0.999883 1 1 0.999883
0.999941 1 1 0.999941
0.999994 1 1 0.999994
0.999994 1 1 0.999994
1 1 1 1
0.999994 1 1 0.999994
1 1 1 1
1 1 1 1
1 1 1 1
1 1 1 1
1 1 1 1
1 1 1 1
1 1 1 1
1 1 1 1
1 1 1 1
1 1 1 1
1 1 1 1
0.999845 1 1 0.999845
0.99982 1 1 0.99982
0.999849 1 1 0.999849
0.999803 1 1 0.999803
0.999828 1 1 0.999828
0.999828 1 1 0.999828
0.99983 1 1 0.99983
0.999823 1 1 0.999823
0.999821 1 1 0.999821
0.99987 1 1 0.99987
0.999829 1 1 0.999829
0.999825 1 1 0.999825
0.999851 1 1 0.999851
0.9998 1 1 0.9998
0.999793 1 1 0.999793
0.999823 1 1 0.999823
0.99989 1 1 0.99989
0.999867 1 1 0.999867
0.999817 1 1 0.999817
0.999852 1 1 0.999852
0.999881 1 1 0.999881
0.99984 1 1 0.99984
0.999869 1 1 0.999869
0.999852 1 1 0.999852
0.999846 1 1 0.999846
0.999982 1 1 0.999982
0.999872 1 1 0.999872
0.999916 1 1 0.999916
0.999805 1 1 0.999805
0.999786 1 1 0.999786
0.999837 1 1 0.999837
0.99987 1 1 0.99987
0.999832 1 1 0.999832
0.999802 1 1 0.999802
0.999884 1 1 0.999884
0.999854 1 1 0.999854
0.999991 1 1 0.999991
0.999931 1 1 0.999931
0.99985 1 1 0.99985
0.999829 1 1 0.999829
0.99983 1 1 0.99983
0.999874 1 1 0.999874
0.999814 1 1 0.999814
0.999794 1 1 0.999794
0.999887 1 1 0.999887
0.999892 1 1 0.999892
0.999845 1 1 0.999845
0.999801 1 1 0.999801
0.999805 1 1 0.999805
0.999998 1 1 0.999998
0.999953 1 1 0.999953
0.999933 1 1 0.999933
0.999873 1 1 0.999873
0.999831 1 1 0.999831
0.999806 1 1 0.999806
0.999835 1 1 0.999835
0.999811 1 1 0.999811
0.999929 1 1 0.999929
0.999878 1 1 0.999878
0.999878 1 1 0.999878
0.999858 1 1 0.999858
0.999863 1 1 0.999863
0.999849 1 1 0.999849
0.99983 1 1 0.99983
0.999864 1 1 0.999864
0.999819 1 1 0.999819
0.999783 1 1 0.999783
0.999873 1 1 0.999873
0.999842 1 1 0.999842
0.999836 1 1 0.999836
0.999834 1 1 0.999834
0.999882 1 1 0.999882
0.999874 1 1 0.999874
0.999796 1 1 0.999796
0.999773 1 1 0.999773
0.999844 1 1 0.999844
0.999861 1 1 0.999861
0.999818 1 1 0.999818
0.999806 1 1 0.999806
0.9999 1 1 0.9999
0.999785 1 1 0.999785
0.999819 1 1.00007 0.999752
0.999883 1 1 0.999883
0.999849 1 1 0.999849
0.999825 1 1 0.999825
0.999941 1 1 0.999941
0.999887 1 1 0.999887
0.999847 1 1 0.999847
0.999941 1 1 0.999941
0.999883 1 1 0.999883
0.999825 1 1 0.999825
0.999851 1 1 0.999851
0.999809 1 1 0.999809
0.999819 1 1 0.999819
0.999852 1 1 0.999852
0.999886 1 1 0.999886
0.99994 1 1 0.99994
0.999994 1 1 0.999994
0.999994 1 1 0.999994
1 1 1 1
0.999994 1 1 0.999994
1 1 1 1
1 1 1 1
1 1 1 1
1 1 1 1
1 1 1 1
0.999999 1 1 0.999999
1 1 1 1
1 1 1 1
1 1 1 1
1 1 1 1
1 1 1 1
1 1 1 1
0.999868 1 1 0.999868
0.999825 1 1 0.999825
0.999823 1 1 0.999823
0.999827 1 1 0.999827
0.999833 1 1 0.999833
0.999822 1 1 0.999822
0.999858 1 1 0.999858
0.999834 1 1 0.999834
0.999834 1 1 0.999834
0.999892 1 1 0.999892
0.99981 1 1 0.99981
0.999785 1 1 0.999785
0.999834 1 1 0.999834
0.99987 1 1 0.99987
0.999836 1 1 0.999836
0.999805 1 1 0.999805
0.999887 1 1 0.999887
0.999853 1 1 0.999853
0.99985 1 1 0.99985
0.99983 1 1 0.99983
0.999833 1 1 0.999833
0.999995 1 1 0.999995
0.999931 1 1 0.999931
0.999871 1 1 0.999871
0.99981 1 1 0.99981
0.999997 1 1 0.999997
0.99995 1 1 0.99995
0.999796 1 1 0.999796
0.999878 1 1 0.999878
0.999847 1 1 0.999847
0.999802 1 1 0.999802
0.999802 1 1 0.999802
0.999891 1 1 0.999891
0.999942 1 1 0.999942
0.999873 1 1 0.999873
0.999837 1 1 0.999837
0.999815 1 1 0.999815
0.999802 1 1 0.999802
0.999833 1 1 0.999833
0.99979 1 1 0.99979
0.999841 1 1 0.999841
0.999934 1 1 0.999934
0.999836 1 1 0.999836
0.999828 1 1 0.999828
0.999778 1 1 0.999778
0.999952 1 1 0.999952
0.999948 1 1 0.999948
0.999907 1 1 0.999907
0.999872 1 1 0.999872
0.999837 1 1 0.999837
0.999792 1 1 0.999792
0.999779 1 1 0.999779
0.999814 1 1 0.999814
0.999872 1 1 0.999872
0.999846 1 1 0.999846
0.999882 1 1 0.999882
0.999871 1 1 0.999871
0.999836 1 1 0.999836
0.999839 1 1 0.999839
0.999801 1 1 0.999801
0.999772 1 1 0.999772
0.999844 1 1 0.999844
0.999875 1 1 0.999875
0.999818 1 1 0.999818
0.999801 1 1 0.999801
0.999897 1 1 0.999897
0.999786 1 1 0.999786
0.999823 1 1.00007 0.99975
0.999818 1 1 0.999818
0.999896 1 1 0.999896
0.999801 1 1 0.999801
0.999909 1 1.00015 0.999762
0.999789 1 1 0.999789
1.00044 1 1.00071 0.999727
0.984537 1.00295 0.981895 0.999737
0.999849 1 1 0.999849
0.999825 1 1 0.999825
0.999809 1 1 0.999809
0.999941 1 1 0.999941
0.999883 1 1 0.999883
0.999856 1 1 0.999856
0.999822 1 1 0.999822
0.99994 1 1 0.99994
0.999883 1 1 0.999883
0.999809 1 1 0.999809
0.999852 1 1 0.999852
0.999823 1 1 0.999823
0.999797 1 1 0.999797
0.999824 1 1 0.999824
0.999852 1 1 0.999852
0.999877 1 1 0.999877
0.999931 1 1 0.999931
0.999891 1 1 0.999891
0.999931 1 1 0.999931
0.999994 1 1 0.999994
0.999994 1 1 0.999994
1 1 1 1
0.999994 1 1 0.999994
1 1 1 1
1 1 1 1
1 1 1 1
1 1 1 1
1 1 1 1
1 1 1 1
0.999999 1 1 0.999999
1 1 1 1
1 1 1 1
1 1 1 1
1 1 1 1
1 1 1 1
1 1 1 1
0.999864 1 1 0.999864
0.999819 1 1 0.999819
0.999837 1 1 0.999837
0.999834 1 1 0.999834
0.999836 1 1 0.999836
0.999904 1 1 0.999904
0.999841 1 1 0.999841
0.996145 1.00031 0.995896 0.999944
0.999674 1 0.999705 0.999968
0.999964 1 1 0.999964
0.999807 1 1 0.999807
0.999798 1 1 0.999798
0.99987 1 1 0.99987
0.999848 1 1 0.999848
0.999799 1 1 0.999799
0.999804 1 1 0.999804
0.99989 1 1 0.99989
0.999838 1 1 0.999838
0.999818 1 1 0.999818
0.999797 1 1 0.999797
0.999997 1 1 0.999997
0.999834 1 1 0.999834
0.99995 1 1 0.99995
0.999872 1 1 0.999872
0.999946 1 1 0.999946
0.999783 1 1 0.999783
0.999956 1 1 0.999956
0.999948 1 1 0.999948
0.9999 1 1 0.9999
0.999842 1 1 0.999842
0.99987 1 0.999948 0.999922
0.999828 1 1 0.999828
0.999777 1 1 0.999777
0.999838 1 1 0.999838
0.999877 1 1 0.999877
0.999835 1 1 0.999835
0.999814 1 1 0.999814
0.999785 1 1 0.999785
0.999795 1 1 0.999795
0.999814 1 1.00004 0.999769
0.997848 1 0.997925 0.999923
0.999876 1 1 0.999876
0.999784 1 1 0.999784
0.999805 1 1 0.999805
0.999901 1 1 0.999901
0.999883 1 1 0.999883
0.999862 1 1 0.999862
0.999831 1 1 0.999831
0.999804 1 1 0.999804
0.999767 1 1 0.999767
1.00122 1 1.00145 0.999773
0.999844 1 1 0.999844
0.999817 1 1 0.999817
0.999889 1 1 0.999889
0.999894 1 1 0.999894
0.999787 1 1 0.999787
0.999796 1 1 0.999796
0.999747 1 1 0.999747
0.99982 1 1 0.99982
0.999874 1 0.99997 0.999904
0.9998 1 1 0.9998
0.999795 1 1.00003 0.999762
0.9998 1 1 0.9998
1.00093 1 1.00121 0.999725
0.98883 1.00546 0.983696 0.99976
0.999801 1 1 0.999801
0.999763 1 1 0.999763
0.999782 1 1 0.999782
1.00201 1 1.00228 0.999726
1.00055 1 1.00084 0.999706
0.964001 0.964837 1.00004 0.999094
0.988001 1.00162 0.986562 0.999836
0.98481 1.00805 0.977252 0.999684
0.972429 0.978762 0.993616 0.999914
0.977891 1.00155 0.976392 0.999986
0.999825 1 1 0.999825
0.999809 1 1 0.999809
0.999792 1 1 0.999792
0.99994 1 1 0.99994
0.999881 1 1 0.999881
0.999852 1 1 0.999852
0.999827 1 1 0.999827
0.999808 1 1 0.999808
0.999847 1 1 0.999847
0.999935 1 1 0.999935
0.99988 1 1 0.99988
0.999799 1 1 0.999799
0.999822 1 1 0.999822
0.999825 1 1 0.999825
0.999797 1 1 0.999797
0.999837 1 1 0.999837
0.999875 1 1 0.999875
0.999931 1 1 0.999931
0.999887 1 1 0.999887
0.99985 1 1 0.99985
0.99988 1 1 0.99988
0.999885 1 1 0.999885
0.999937 1 1 0.999937
0.999931 1 1 0.999931
0.999994 1 1 0.999994
0.999994 1 1 0.999994
1 1 1 1
0.999994 1 1 0.999994
1 1 1 1
1 1 1 1
1 1 1 1
1 1 1 1
1 1 1 1
1 1 1 1
1 1 1 1
1 1 1 1
0.999998 1 1 0.999998
1 1 1 1
1 1 1 1
1 1 1 1
1 1 1 1
1 1 1 1
0.999837 1 1 0.999837
0.999835 1 1 0.999835
0.999915 1 1 0.999915
0.99562 1 0.995675 0.999941
0.999841 1 1 0.999841
0.999808 1 0.999863 0.999945
0.999853 1 1.00004 0.999815
0.982108 0.985481 0.99692 0.999656
0.999704 1 0.999727 0.999977
0.999968 1 1 0.999968
0.999964 1 1 0.999964
0.999914 1 1 0.999914
0.999923 1 1 0.999923
0.999777 1 1 0.999777
0.999843 1 1 0.999843
0.999907 1 0.999996 0.999911
0.999829 1 1 0.999829
0.999776 1 1 0.999776
0.99984 1 1 0.99984
0.999814 1 1 0.999814
0.99979 1 1 0.99979
0.999798 1 1 0.999798
0.999948 1 1 0.999948
0.999833 1 1 0.999833
0.999882 1 1 0.999882
0.99996 1 1 0.99996
0.999893 1 1 0.999893
0.99981 1 1.00003 0.999775
0.999908 1 1 0.999908
0.999888 1 1 0.999888
0.999864 1 1 0.999864
0.998747 1 0.998826 0.999921
0.999875 1 0.999998 0.999877
0.999805 1 1 0.999804
0.999787 1 1 0.999787
0.999832 1 1 0.999832
0.999807 1 1 0.999807
1.00058 1 1.0008 0.999774
0.999767 1 1 0.999767
0.999859 1 1.00003 0.999829
0.998111 1 0.998189 0.999921
0.999777 1 1 0.999777
0.999953 1 1.00017 0.999778
0.999851 1 1 0.999851
0.99984 1 1 0.99984
0.999781 1 1 0.999781
1.00167 1 1.00194 0.999734
0.962951 0.965685 0.998058 0.999109
0.999822 1 1 0.999822
0.999799 1 1 0.999799
0.999865 1 0.999953 0.999912
0.999811 1 1 0.999811
1.00148 1 1.00176 0.999722
0.999761 1 1 0.999761
0.993496 1.00797 0.985851 0.999783
0.999803 1 1 0.999803
0.999765 1 1 0.999765
0.999783 1 1 0.999783
1.00168 1 1.00196 0.999728
1.00028 1 1.00056 0.999716
0.965338 0.965114 1.00105 0.999187
0.984581 0.998656 0.986318 0.999582
0.987413 1.00998 0.977968 0.999684
0.974481 0.980732 0.993843 0.999782
0.97841 1.00006 0.978359 0.999988
0.999795 1 1 0.999795
0.976895 0.979471 0.997714 0.999655
0.993347 1.00219 0.991188 0.999989
0.999691 1 1 0.999691
1.00121 1 1.00144 0.999768
1.00711 1 1.00741 0.999706
1.00144 1.01017 0.991723 0.99963
0.97706 0.973383 1.00478 0.999002
0.987071 1.00732 0.980333 0.999559
0.968392 0.981975 0.986262 0.999905
0.991004 1.00468 0.986402 0.999988
0.999809 1 1 0.999809
0.999792 1 1 0.999792
0.999778 1 1 0.999778
0.999939 1 1 0.999939
0.999883 1 1 0.999883
0.999842 1 1 0.999842
0.999821 1 1 0.999821
0.999802 1 1 0.999802
0.999931 1 1 0.999931
0.999824 1 1 0.999824
0.999842 1 1 0.999842
0.999879 1 1 0.999879
0.999794 1 1 0.999794
0.999809 1 1 0.999809
0.999974 1 1.0002 0.999777
0.999836 1 1 0.999836
0.999884 1 1 0.999884
0.999886 1 1 0.999886
0.999845 1 1 0.999845
0.999844 1 1 0.999844
0.99984 1 1 0.99984
0.99982 1 1 0.99982
0.999833 1 1 0.999833
0.999874 1 1 0.999874
0.99988 1 1 0.99988
0.999934 1 1 0.999934
0.999878 1 1 0.999878
0.999933 1 1 0.999933
0.999993 1 1 0.999993
0.999931 1 1 0.999931
0.999993 1 1 0.999993
1 1 1 1
0.999994 1 1 0.999994
1 1 1 1
1 1 1 1
1 1 1 1
1 1 1 1
1 1 1 1
0.999967 1 1 0.999967
1 1 1 1
1 1 1 1
1 1 1 1
1 1 1 1
1 1 1 1
1 1 1 1
1 1 1 1
1 1 1 1
1 1 1 1
0.995078 1 0.995139 0.999939
0.99984 1 1 0.99984
0.999922 1 1 0.999922
0.98334 0.985477 0.998029 0.999801
0.999858 1 0.999883 0.999975
0.999836 1 1.00003 0.999802
1.00139 1 1.00159 0.9998
0.989269 0.987977 1.00163 0.999682
0.967559 0.968558 1.00011 0.998854
0.971658 0.978507 0.993364 0.999633
0.984273 0.999503 0.984775 0.999988
0.999914 1 1 0.999914
0.999967 1 1 0.999967
0.999964 1 1 0.999964
0.999912 1 1 0.999912
0.99988 1 1 0.99988
0.999891 1 1 0.999891
0.999918 1 1 0.999918
0.99992 1 1 0.99992
0.999808 1 1.00003 0.999782
0.999465 1 0.999545 0.99992
0.999773 1 0.999896 0.999877
0.999804 1 1 0.999804
0.999789 1 1 0.999789
0.99997 1 1.0002 0.999774
0.999767 1 1 0.999767
0.99981 1 1 0.99981
0.999892 1 1 0.999892
0.999834 1 1 0.999834
0.999915 1 1 0.999915
0.999866 1 1 0.999866
0.999301 1 0.999476 0.999825
0.999853 1 1 0.999853
0.999842 1 1 0.999842
0.997688 1 0.997768 0.99992
0.999782 1 1 0.999782
1.00036 1 1.00059 0.99977
0.999782 1 1 0.999782
1.00161 1 1.00187 0.999736
0.988804 1.00274 0.986234 0.999862
1.00186 1 1.00206 0.999801
0.999746 1 1 0.999746
1.00411 1 1.00439 0.99972
0.99982 1 1 0.99982
0.999799 1 1 0.999799
1.00028 1 1.00054 0.999739
0.974713 0.980813 0.993909 0.999871
0.966212 0.967159 0.99988 0.999141
0.999805 1 1 0.999805
0.999784 1 1 0.999784
0.999767 1 1 0.999767
0.999989 1 1.00026 0.999725
1.00126 1 1.00154 0.999729
0.965056 0.966329 0.999863 0.998819
0.987806 0.998433 0.989468 0.999888
0.990538 1.01227 0.978839 0.999683
0.971709 0.980014 0.991877 0.999645
0.978435 0.998273 0.980137 0.999991
0.999794 1 1 0.999794
0.975451 0.980318 0.995156 0.999879
0.993316 1.00181 0.991529 0.999992
0.999693 1 1 0.99969
1.00047 1 1.0007 0.99977
1.00632 1 1.00661 0.999716
0.999266 1.0076 0.992104 0.999619
0.975806 0.973989 1.00302 0.998851
0.980736 1.00265 0.978272 0.999868
0.96847 0.981939 0.986655 0.999623
0.986878 1.00506 0.981916 0.999989
0.999781 1 1 0.999781
1.00169 1.00293 0.998769 0.99999
1.00122 1.00293 0.998304 0.999994
1.00946 1 1.00978 0.999687
1.00514 1 1.00536 0.999786
1.00443 1.00361 1.00103 0.999796
0.991701 1.00213 0.989656 0.999941
0.979695 0.976928 1.00391 0.998927
0.975956 0.991537 0.984692 0.999588
0.998663 1.00528 0.993433 0.999989
0.999793 1 1 0.999793
0.999777 1 1 0.999777
1.00019 1 1.00042 0.999768
0.999931 1 1 0.999931
0.999883 1 1 0.999883
0.999847 1 1 0.999847
0.999823 1 1 0.999823
0.99979 1 1 0.99979
0.999884 1 1 0.999884
0.999812 1 1 0.999812
0.999836 1 1 0.999836
1.00002 1 1.00024 0.999774
1.00031 1 1.00055 0.999757
0.999882 1 1.00009 0.999795
0.999839 1 1 0.999839
0.999886 1 1 0.999886
0.99984 1 1 0.99984
0.999843 1 1 0.999843
0.99984 1 1 0.99984
0.99982 1 1 0.99982
0.999833 1 1 0.999833
0.999813 1 1 0.999813
0.999806 1 1 0.999806
0.99982 1 1 0.99982
0.999845 1 1 0.999845
0.999842 1 1 0.999842
0.999833 1 1 0.999833
0.999871 1 1 0.999871
0.999874 1 1 0.999874
0.99993 1 1 0.99993
0.99988 1 1 0.99988
0.999934 1 1 0.999934
0.999992 1 1 0.999992
0.99993 1 1 0.99993
0.999993 1 1 0.999993
1 1 1 1
0.999993 1 1 0.999993
1 1 1 1
1 1 1 1
1 1 1 1
1 1 1 1
1 1 1 1
0.99997 1 1 0.99997
1 1 1 1
0.999967 1 1 0.999967
1 1 1 1
1 1 1 1
1 1 1 1
1 1 1 1
1 1 1 1
1 1 1 1
1 1 1 1
1 1 1 1
0.974717 0.978946 0.995782 0.999898
0.996581 1.00206 0.994536 0.999994
0.985128 0.98587 0.999328 0.999919
0.999956 1 0.999984 0.999972
0.999818 1 1.00003 0.999789
0.988641 0.986743 1.00196 0.999968
1.0006 1 1.0008 0.999807
0.971056 0.970611 1.00136 0.999104
0.973039 0.978781 0.994224 0.999909
0.983497 0.999219 0.984275 0.99999
0.999679 0.995153 1.00466 0.999893
0.976992 0.975295 1.00269 0.999052
0.968946 0.980917 0.987889 0.999906
0.986834 1.00471 0.982224 0.999986
0.999869 1 1 0.999869
0.999917 1 1 0.999917
0.999967 1 1 0.999967
0.99991 1 1 0.99991
0.999884 1 1 0.999884
0.999879 1 1 0.999879
0.999893 1 1 0.999893
0.999903 1 1 0.999903
0.999914 1 1 0.999914
0.999917 1 1 0.999917
0.998847 1 0.999025 0.999821
0.99754 1 0.997621 0.999919
0.999788 1 1 0.999788
1.00075 1 1.00099 0.999761
1.00146 1 1.00172 0.999738
0.999782 1 1 0.999782
0.999844 1 1 0.999844
0.999855 1 1 0.999855
0.991032 1.00142 0.989772 0.999849
0.999818 1 1 0.999818
0.999795 1 1 0.999795
1.00028 1 1.00048 0.999806
0.999821 1 1.00008 0.99974
1.00316 1 1.00344 0.999714
1.00084 1 1.00111 0.999734
0.98326 1.01025 0.973502 0.999778
1.0077 1 1.00797 0.999724
1.0043 1 1.0046 0.999696
0.999818 1 1 0.999818
0.99979 1 1 0.99979
0.999757 1 1 0.999757
0.998891 1.00114 0.997772 0.99998
0.975502 0.980085 0.995673 0.99965
0.964209 0.966909 0.998115 0.99909
0.999794 1 1 0.999794
0.999772 1 1 0.999772
0.999689 1 1 0.999689
1.00566 1 1.00594 0.999726
0.973789 0.979847 0.994176 0.999639
0.973029 0.972829 1.00092 0.999289
0.980975 1.00369 0.977761 0.9996
0.997828 1.00518 0.993072 0.99961
0.96874 0.981172 0.987417 0.999912
0.993783 1.00247 0.991345 0.999989
0.987552 1.00583 0.981841 0.999988
0.999781 1 1 0.999781
1.00028 1.00227 0.998033 0.999987
1.00192 1.00377 0.998163 0.999994
1.00976 1 1.01007 0.999688
1.00524 1 1.00545 0.999785
1.00738 1.00315 1.00461 0.999609
0.988329 1.00199 0.986777 0.999588
0.97965 0.978332 1.00243 0.998925
0.979722 0.99065 0.989062 0.999905
0.995072 1.00387 0.991247 0.999984
0.999798 1 1 0.999798
1.00142 1.00147 0.999947 0.999998
0.999618 1.00025 0.999373 1
1.00675 1 1.00688 0.999868
0.998111 0.995471 1.00269 0.999959
0.988842 0.984877 1.00501 0.999016
0.985714 1.0018 0.984071 0.999874
0.998621 1.00238 0.996274 0.999975
0.999776 1 1 0.999776
1.00013 1 1.00036 0.999771
1.00107 1 1.0013 0.999763
0.999884 1 1 0.999884
0.999836 1 1 0.999836
0.999815 1 1 0.999815
1.00005 1 1.00028 0.999771
0.999839 1 1 0.999839
0.999827 1 1.00003 0.999796
1.00069 1 1.00093 0.999756
1.00062 1 1.00086 0.999763
0.999973 1 1.00021 0.99976
0.999806 1 1 0.999806
0.999843 1 1 0.999843
0.99984 1 1 0.99984
0.99982 1 1 0.99982
0.999814 1 1 0.999814
0.999833 1 1 0.999833
0.999808 1 1 0.999808
0.999803 1 1 0.999803
0.999793 1 1 0.999793
0.999806 1 1 0.999806
0.999819 1 1 0.999819
0.999828 1 1 0.999828
0.999838 1 1 0.999838
0.999869 1 1 0.999869
0.999852 1 1 0.999852
0.999845 1 1 0.999845
0.999872 1 1 0.999872
0.999834 1 1 0.999834
0.999872 1 1 0.999872
0.999926 1 1 0.999926
0.999874 1 1 0.999874
0.99993 1 1 0.99993
0.999991 1 1 0.999991
0.999934 1 1 0.999934
0.999992 1 1 0.999992
1 1 1 1
0.999993 1 1 0.999993
1 1 1 1
1 1 1 1
1 1 1 1
1 1 1 1
1 1 1 1
0.999956 1 1 0.999956
1 1 1 1
0.999963 1 1 0.999963
1 1 1 1
1 1 1 1
0.999967 1 1 0.999967
1 1 1 1
1 1 1 1
1 1 1 1
1 1 1 1
1 1 1 1
1 1 1 1
1.00049 1.0016 0.998903 0.999994
0.974438 0.978662 0.99591 0.999774
1.0014 1.0034 0.998006 0.999995
0.995492 1.00083 0.994676 0.999994
0.985553 0.985323 1.00054 0.999695
0.999857 1 1.00004 0.999815
0.971339 0.970221 1.00178 0.99937
0.972179 0.978643 0.993746 0.999646
0.983095 0.999035 0.984052 0.999992
0.996694 0.996524 1.00037 0.999804
0.975852 0.972822 1.00412 0.998999
0.970972 0.982393 0.98875 0.99962
0.985871 1.00468 0.98129 0.999988
0.99699 1.00473 0.992394 0.999904
0.977971 0.974553 1.00461 0.998903
0.977378 0.991417 0.985937 0.999901
0.99653 1.00533 0.991261 0.99999
0.999845 1 1 0.999845
0.999874 1 1 0.999874
0.999921 1 1 0.999921
0.999887 1 1 0.999887
0.999856 1 1 0.999856
0.999882 1 1 0.999882
0.999894 1 1 0.999894
0.999898 1 1 0.999898
0.999907 1 1 0.999907
0.99991 1 1 0.99991
0.993425 1.00028 0.99331 0.999836
0.998719 1 0.998908 0.999811
0.999819 1 1.00008 0.999734
1.00244 1 1.00273 0.999707
1.00147 1 1.00174 0.99973
0.999791 1 1 0.999791
0.999816 1 1 0.999816
0.999818 1 1 0.999818
0.984971 1.0072 0.97815 0.999774
0.999792 1 1 0.999792
0.999845 1 1.00009 0.999755
1.00699 1 1.00727 0.999723
1.00405 1 1.00436 0.999697
0.987505 1.01043 0.977574 0.99973
1.01706 1 1.01735 0.999719
1.0005 1 1.00078 0.999716
0.999795 1 1 0.999795
0.999762 1 1 0.999762
1.00001 1.00004 0.999973 1
0.999696 1.00119 0.998524 0.999986
0.975776 0.980813 0.994979 0.999885
0.99978 1 1 0.99978
1.00516 1 1.00538 0.999785
1.00989 1 1.0102 0.999688
1.00115 1.00238 0.998783 0.999992
0.979588 0.976921 1.00385 0.99888
0.9842 1.00068 0.983587 0.999939
1.0082 1.002 1.00677 0.999416
0.973669 0.988647 0.985238 0.999606
1.00266 1.00468 0.997988 0.999993
0.996463 1.00321 0.993294 0.999982
0.999802 1 1 0.999802
1.00095 1.00098 0.999972 0.999998
0.999477 1.00003 0.999443 1
1.00704 0.999985 1.00724 0.999811
0.997595 0.996808 1.00094 0.999853
0.991836 0.987858 1.00511 0.998926
1.00128 1.00354 0.997763 0.999981
0.988454 0.997954 0.990706 0.999772
0.999821 1 1 0.999821
0.999353 0.99918 1.00017 1
0.998393 0.998053 1.00034 1
0.996348 1.00502 0.991379 0.99999
1.00221 0.997655 1.00463 0.99993
0.98771 0.984408 1.00421 0.999151
0.988537 1.00095 0.987787 0.999805
1.00004 1 1.00027 0.999773
1.00085 1 1.00109 0.999761
1.00321 1 1.00343 0.999773
0.999839 1 1 0.999839
0.999796 1 1 0.999796
1.00113 1 1.00138 0.999755
0.999807 1 1 0.999807
1.00008 1 1.00033 0.99976
1.00102 1 1.00126 0.999759
1.00012 1 1.00035 0.999768
0.999774 1 1 0.999774
0.999816 1 1 0.999816
0.999834 1 1 0.999834
0.999809 1 1 0.999809
0.999793 1 1 0.999793
0.999803 1 1 0.999803
0.999788 1 1 0.999788
0.999816 1 1 0.999816
0.999785 1 1 0.999785
0.999819 1 1 0.999819
0.999828 1 1 0.999828
0.999807 1 1 0.999807
0.999846 1 1 0.999846
0.999873 1 1 0.999873
0.999838 1 1 0.999838
0.999887 1 1 0.999887
0.999867 1 1 0.999867
0.999859 1 1 0.999859
0.999848 1 1 0.999848
0.999874 1 1 0.999874
0.999926 1 1 0.999926
0.999872 1 1 0.999872
0.999926 1 1 0.999926
0.99999 1 1 0.99999
0.99993 1 1 0.99993
0.999991 1 1 0.999991
1 1 1 1
0.999992 1 1 0.999992
1 1 1 1
1 1 1 1
1 1 1 1
1 1 1 1
1 1 1 1
0.999939 1 1 0.999939
0.999991 1 1 0.999991
0.999955 1 1 0.999955
1 1 1 1
0.999996 1 1 0.999996
0.999957 1 1 0.999957
1 1 1 1
1 1 1 1
1 1 1 1
1 1 1 1
1 1 1 1
1 1 1 1
1.00117 1.00121 0.999957 0.999998
0.998753 1.00121 0.997568 0.999983
0.976172 0.979024 0.99742 0.999666
0.99988 1 1 0.99988
0.99998 0.99983 1.00015 1
1.00192 1.00337 0.998562 0.999995
0.994059 1.00054 0.993537 0.999986
0.993945 0.997548 0.99669 0.999697
0.977496 0.972442 1.0062 0.999001
0.973005 0.982908 0.990015 0.999909
0.988769 1.00487 0.983987 0.999985
0.994891 1.00743 0.987931 0.999616
0.980458 0.976929 1.00467 0.998945
0.975801 0.990668 0.98524 0.99975
0.996494 1.00627 0.990296 0.999985
0.979609 1.00156 0.978478 0.9996
0.984539 0.981351 1.00459 0.99866
0.988256 0.995615 0.99299 0.999616
0.999221 1.00291 0.996352 0.999967
0.999819 1 1 0.999819
0.999842 1 1 0.999842
0.999878 1 1 0.999878
0.999849 1 1 0.999849
0.999861 1 1 0.999861
0.999884 1 1 0.999884
0.999899 1 1 0.999899
0.99991 1 1 0.99991
0.986668 1.00412 0.982843 0.99977
1.00615 1 1.00643 0.999722
0.999819 1 1 0.999819
1.00372 1 1.00402 0.999697
0.999919 1 1.00017 0.999752
0.999795 1 1 0.999795
0.999795 1 1 0.999795
0.988291 1.00934 0.979412 0.999727
0.99976 1 1 0.99976
1.00132 1 1.0016 0.999715
1.01728 1 1.01756 0.999719
0.999789 1 1 0.999789
1.0036 1.00289 1.00094 0.999767
1.01326 1 1.01352 0.999735
0.99974 1 1 0.99974
0.999764 1 1 0.999764
0.999107 0.999081 1.00002 1
1.00022 1.00025 0.99997 1
1.00031 1.00124 0.999085 0.999993
0.999806 1 1 0.999806
1.00766 0.999979 1.00793 0.999754
1.00048 1.00049 0.999995 0.999999
0.988403 0.982281 1.00733 0.998915
1.00121 1.00072 1.00089 0.999607
0.983516 0.994907 0.988869 0.999678
0.999268 0.999692 0.999575 1
1.00387 1.00465 0.999239 0.999987
0.99982 1 1 0.99982
0.999257 0.999039 1.00022 1
0.998636 0.998001 1.00063 1
0.999737 0.996504 1.00329 0.99995
0.996667 1.00598 0.990761 0.999985
0.987955 0.988299 1.00042 0.999236
0.985115 0.996377 0.989075 0.999618
1.00162 0.999037 1.00274 0.999845
0.999682 0.999411 1.00027 1
1.00008 0.999757 1.00032 1
0.987697 1.00462 0.983165 0.999987
0.985849 0.993022 0.993144 0.99963
0.995109 0.99344 1.00159 1.00009
0.981109 0.984546 0.9973 0.999207
1.00065 1 1.00089 0.999758
1.00235 1 1.00258 0.99977
1.01142 1 1.01166 0.999764
0.999808 1 1 0.999808
1.00012 1 1.00037 0.999759
1.00129 1 1.00154 0.999754
0.999774 1 1 0.999774
1.0002 1 1.00043 0.999767
1.00295 1 1.00319 0.99976
0.999794 1 1 0.999794
0.999802 1 1 0.999802
0.999965 1 1.00018 0.999786
1.00092 1 1.00116 0.999762
0.999827 1 1 0.999827
0.99979 1 1 0.999789
0.99977 1 1 0.99977
0.999808 1 1 0.999808
0.999829 1 1 0.999829
0.999805 1 1 0.999805
0.999859 1 1 0.999859
0.999872 1 1 0.999872
0.999849 1 1 0.999849
0.999896 1 1 0.999896
0.999872 1 1 0.999872
0.999838 1 1 0.999838
0.99993 1 1 0.99993
0.999886 1 1 0.999886
0.999865 1 1 0.999865
0.999876 1 1 0.999876
0.999926 1 1 0.999926
0.999988 1 1 0.999988
0.999926 1 1 0.999926
0.999989 1 1 0.999989
1 1 1 1
0.99999 1 1 0.99999
1 1 1 1
1 1 1 1
1 1 1 1
1 1 1 1
1 1 1 1
0.999929 1 1 0.999929
0.999988 1 1 0.999988
0.999942 1 1 0.999942
1 1 1 1
0.999991 1 1 0.999991
0.999955 1 1 0.999955
1 1 1 1
1 1 1 1
0.999993 1 1 0.999993
1 1 1 1
1 1 1 1
1 1 1 1
0.999486 0.999421 1.00006 1
1.0011 1.00109 1.00001 0.999999
0.999368 1.00158 0.997809 0.999981
0.999882 1 1 0.999882
0.999872 1 1 0.999872
0.999849 1 1 0.999849
0.998296 0.998154 1.00014 1
0.999695 0.999447 1.00025 1
1.00264 1.00333 0.99932 0.999995
0.998175 1.0114 0.987022 0.999897
0.978692 0.974942 1.00492 0.998933
0.97567 0.991229 0.984698 0.9996
1.00083 1.00737 0.993524 0.999985
0.978077 1.00002 0.978172 0.999887
0.988884 0.983633 1.00637 0.998974
0.991612 1.00192 0.989866 0.999842
1.00168 1.00392 0.997793 0.999976
0.977924 0.995574 0.98232 0.99995
0.986329 0.985079 1.00222 0.999049
0.988833 1.00271 0.986405 0.999755
0.997562 1.00514 0.992474 0.999989
0.999812 1 1 0.999812
0.999819 1 1 0.999819
0.999839 1 1 0.999839
0.999848 1 1 0.999848
0.999866 1 1 0.999866
0.999901 1 1 0.999901
0.988884 1.00806 0.981254 0.999723
1.01731 1 1.01759 0.999718
0.999796 1 1 0.999796
1.00203 1 1.00231 0.999714
0.999759 1 1 0.999759
0.999788 1 1 0.999788
0.999761 1 1 0.999761
1.00051 1.00389 0.996881 0.999759
0.999741 1 1 0.999741
1.0137 1 1.01397 0.999736
0.999759 1 1 0.999759
1.02068 1 1.02087 0.999813
1.0002 1 1.00044 0.999764
0.999738 1 1 0.999738
0.99997 0.999977 0.999993 1
0.99933 0.999311 1.00002 1
1.00044 1.00046 0.999978 1
0.99982 1 1 0.99982
0.99997 0.995708 1.0043 0.999983
0.999153 0.998898 1.00025 1
0.992092 0.991027 1.00151 0.999567
0.987961 1.00257 0.985601 0.999828
0.998854 0.997975 1.00088 1
1.00071 1.00716 0.993606 0.999986
1.00119 0.999488 1.00186 0.999851
0.999781 0.999616 1.00016 1
0.999729 0.999354 1.00037 1
0.995936 0.993937 1.00213 0.999882
0.986584 1.00448 0.982191 0.999988
0.988987 0.999306 0.989812 0.99986
0.979088 0.983391 0.996428 0.999193
1.00943 1 1.00951 0.999918
0.999405 0.999362 1.00004 1
1.00166 1.00368 0.997998 0.999995
0.983283 0.999152 0.98413 0.999987
0.97712 0.989349 0.987732 0.999906
0.992332 0.986439 1.00689 0.999087
0.983349 0.992109 0.991334 0.999834
1.00144 1 1.00167 0.999767
1.01221 1 1.01245 0.999765
1.01882 1 1.01907 0.999758
0.999775 1 1 0.999775
1.00032 1 1.00055 0.999767
1.00242 1 1.00266 0.99976
1.00919 1 1.00947 0.999723
1.0001 1 1.00032 0.999784
1.00136 1 1.00161 0.999757
1.00241 1 1.00268 0.999727
0.999794 1 1 0.999794
0.999838 1 1.00007 0.999768
0.999762 1 1 0.999762
0.999796 1 1 0.999796
0.99984 1 1 0.99984
0.999804 1 1 0.999804
0.999802 1 1 0.999802
0.999878 1 1 0.999878
0.999862 1 1 0.999862
0.999894 1 1 0.999894
0.999876 1 1 0.999876
0.999853 1 1 0.999853
0.999936 1 1 0.999936
0.999896 1 1 0.999896
0.999872 1 1 0.999872
0.999988 1 1 0.999988
0.999931 1 1 0.999931
0.999884 1 1 0.999884
0.999926 1 1 0.999926
0.999988 1 1 0.999988
1 1 1 1
0.999989 1 1 0.999989
1 1 1 1
1 1 1 1
1 1 1 1
1 1 1 1
1 1 1 1
0.999931 1 1 0.999931
0.999993 1 1 0.999993
0.999933 1 1 0.999933
1 1 1 1
0.999992 1 1 0.999992
0.999945 1 1 0.999945
1 1 1 1
1 1 1 1
0.999991 1 1 0.999991
1 1 1 1
1 1 1 1
1 1 1 1
0.999764 0.999458 1.00031 1
0.999403 0.999313 1.00009 1
1.00096 1.00097 0.999998 0.999999
0.999875 1 1 0.999875
0.999862 1 1 0.999862
0.999884 1 1 0.999884
0.999872 1 1 0.999872
0.999845 1 1 0.999845
0.999844 1 1 0.999844
0.999825 1 1 0.999825
0.99937 1.00013 0.999243 1
0.998627 0.99815 1.00048 1
0.999414 0.999055 1.00036 1
1.00418 1.00494 0.999255 0.999985
0.983921 1.00647 0.978012 0.999576
0.989249 0.983181 1.00693 0.99925
0.980243 0.999382 0.981267 0.999575
0.981188 0.994908 0.986433 0.999773
0.990426 0.989525 1.00184 0.999067
0.988573 0.99973 0.989266 0.999569
0.994161 1.00434 0.989884 0.99998
0.993058 0.993064 1.00003 0.999962
0.983765 0.989562 0.995055 0.999082
0.986044 1.00357 0.982695 0.999837
0.991431 1.00395 0.987541 0.999989
0.999798 1 1 0.999798
0.999811 1 1 0.999811
0.99982 1 1 0.99982
0.999848 1 1 0.999848
0.99654 1.00486 0.991965 0.999751
1.01445 1 1.01472 0.999736
0.999787 1 1 0.999787
0.999759 1 1 0.999759
0.999742 1 1 0.999742
0.999763 1 1 0.999763
0.999736 1 1 0.999736
1.01226 0.998719 1.01374 0.99982
1.00021 1 1.00044 0.999772
0.999733 1 1 0.999733
1.02554 0.995999 1.02976 0.999902
1.00356 1 1.00386 0.999696
0.999095 0.999086 1.00001 1
1.00004 1.00007 0.999979 1
0.999543 0.999541 1 1
1.00101 1 1.00115 0.999856
0.99587 0.993052 1.00277 1.00007
0.999894 0.999823 1.00007 1
0.981867 0.984324 0.998332 0.999171
0.979993 0.997556 0.982794 0.999592
0.9994 0.998938 1.00046 1
0.989067 1.0044 0.984751 0.999987
1.0101 0.999806 1.01039 0.999908
0.999316 0.999255 1.00006 1
1.0024 1.00364 0.998765 0.999995
0.987296 0.994509 0.992671 1.00008
0.982619 0.998774 0.983836 0.999989
0.974309 0.987747 0.986639 0.999753
0.992647 0.985786 1.00778 0.999183
1.0032 1 1.00328 0.999919
1.0014 1.00134 1.00006 0.999998
0.996511 1.00233 0.994203 0.999993
0.967503 0.979191 0.988159 0.999903
0.984967 0.979161 1.00698 0.99896
0.977491 0.997271 0.980483 0.999677
1.01313 1 1.01336 0.999766
1.01927 1 1.01952 0.999756
1.01947 1 1.01975 0.999722
1.00195 1 1.00219 0.999761
1.00942 1 1.0097 0.999728
1.00705 1 1.00737 0.999688
1.00195 1 1.0022 0.999752
1.00262 1 1.0029 0.999721
1.00156 1 1.00184 0.999719
1.00002 1 1.00025 0.999765
0.999821 1 1.00006 0.999757
0.999772 1 1 0.999772
0.999805 1 1 0.999805
0.999824 1 1 0.999824
0.999794 1 1 0.999794
0.999866 1 1 0.999866
0.999844 1 1 0.999844
0.9998 1 1 0.9998
0.999893 1 1 0.999893
0.999876 1 1 0.999876
0.999865 1 1 0.999865
0.999935 1 1 0.999935
0.999896 1 1 0.999896
0.999879 1 1 0.999879
0.99999 1 1 0.99999
0.999936 1 1 0.999936
0.999896 1 1 0.999896
1 1 1 1
0.999989 1 1 0.999989
0.999931 1 1 0.999931
0.999988 1 1 0.999988
1 1 1 1
1 1 1 1
1 1 1 1
1 1 1 1
1 1 1 1
0.999881 1 1 0.999881
0.999927 1 1 0.999927
0.99999 1 1 0.99999
0.999931 1 1 0.999931
1 1 1 1
0.999994 1 1 0.999994
0.999936 1 1 0.999936
1 1 1 1
1 1 1 1
0.999996 1 1 0.999996
1 1 1 1
1 1 1 1
1 1 1 1
0.999348 0.999249 1.0001 1
0.99984 0.999643 1.0002 1
0.999316 0.999207 1.00011 1
0.999877 1 1 0.999877
0.99986 1 1 0.99986
0.999862 1 1 0.999862
0.999852 1 1 0.999852
0.999849 1 1 0.999849
0.999872 1 1 0.999872
0.999841 1 1 0.999841
0.999845 1 1 0.999845
0.999825 1 1 0.999825
0.999827 1 1 0.999827
1.00142 1.00208 0.999347 0.999994
0.999206 0.99992 0.999286 1
0.998905 0.99812 1.00078 1
0.995169 1.00344 0.991778 0.999977
0.987738 1.00411 0.983908 0.999788
0.986346 0.995118 0.991553 0.999629
0.985156 0.985174 1.00086 0.999124
0.997082 0.992064 1.00535 0.999714
0.978377 0.986302 0.992866 0.999093
0.990093 1.0004 0.989962 0.999728
0.988839 1.0045 0.984422 0.99999
1.01899 0.989178 1.0304 0.999748
0.989439 0.987182 1.00319 0.999098
0.976323 0.991932 0.984656 0.999602
0.983567 1.00077 0.982818 0.999989
0.999817 1 1 0.999817
0.999801 1 1 0.999801
0.99981 1 1 0.99981
1.0047 0.997417 1.00747 0.999827
1.00019 1 1.00041 0.99978
0.999768 1 1 0.999768
0.999735 1 1 0.999735
0.999769 1 1.00003 0.999736
1.00407 1 1.00437 0.999694
1.02529 0.997172 1.0283 0.999901
1.00371 1 1.00399 0.999716
1.01278 0.999036 1.01397 0.999794
1.00007 1.00007 1 1
0.999323 0.999318 1 1
1.00013 1.00015 0.999975 1
1.01064 0.999545 1.0112 0.999899
0.9902 0.994016 0.996336 0.999825
0.999224 0.999149 1.00007 1
0.985528 0.982484 1.00424 0.998861
0.975779 0.989127 0.986898 0.999602
1.00313 1.00361 0.999526 0.999994
0.98248 0.998604 0.983861 0.999992
1.00419 1 1.00427 0.999921
1.00126 1.0012 1.00007 0.999998
0.995535 1.00118 0.994364 0.999993
0.973838 0.994488 0.979386 0.999846
0.970091 0.981172 0.989084 0.999618
0.988098 0.981367 1.00811 0.99876
0.98508 1.00028 0.98496 0.99984
1.00072 1.00184 0.998899 0.999992
0.971902 0.97895 0.993168 0.999629
0.977462 0.974186 1.00448 0.998891
0.972642 1.00068 0.972095 0.999882
1.01935 1 1.0196 0.999755
1.02064 1 1.02092 0.999722
1.01161 1 1.01192 0.999694
1.00947 1 1.00974 0.999733
1.00671 1 1.00702 0.999692
1.00183 1 1.00212 0.999711
1.00262 1 1.00291 0.999715
1.00106 1 1.00134 0.999722
0.999783 1 1 0.999783
0.999799 1 1.00005 0.999753
0.999775 1 1 0.999775
0.999822 1 1 0.999822
0.999835 1 1 0.999835
0.999817 1 1 0.999817
0.999807 1 1 0.999807
0.99985 1 1 0.99985
0.999819 1 1 0.999819
0.999791 1 1 0.999791
0.999892 1 1 0.999892
0.999869 1 1 0.999869
0.999847 1 1 0.999847
0.999931 1 1 0.999931
0.999893 1 1 0.999893
0.999874 1 1 0.999874
0.99999 1 1 0.99999
0.999935 1 1 0.999935
0.999898 1 1 0.999898
1 1 1 1
0.99999 1 1 0.99999
0.999936 1 1 0.999936
1 1 1 1
1 1 1 1
0.999989 1 1 0.999989
1 1 1 1
1 1 1 1
1 1 1 1
0.999881 1 1 0.999881
0.999925 1 1 0.999925
0.99988 1 1 0.99988
0.999988 1 1 0.999988
0.999927 1 1 0.999927
1 1 1 1
0.999991 1 1 0.999991
0.999931 1 1 0.999931
1 1 1 1
1 1 1 1
0.999995 1 1 0.999995
1 1 1 1
1 1 1 1
1 1 1 1
1.00018 1.00018 1 0.999999
0.999252 0.999113 1.00014 1
0.99993 0.999828 1.0001 1
0.999868 1 1 0.999868
0.999879 1 1 0.999879
0.999857 1 1 0.999857
0.999855 1 1 0.999855
0.999865 1 1 0.999865
0.99985 1 1 0.99985
0.999847 1 1 0.999847
0.999839 1 1 0.999839
0.999845 1 1 0.999845
0.999826 1 1 0.999826
0.999827 1 1 0.999827
0.999826 1 1 0.999826
0.995009 1.00108 0.993949 0.999989
1.00212 1.00289 0.99924 0.999994
0.999044 0.99972 0.999323 1
0.990802 1.00538 0.985519 0.999984
0.987465 0.998699 0.989131 0.999615
0.981964 0.987934 0.994869 0.999084
1.0002 0.989777 1.01053 1
1.02166 0.989873 1.0321 1.00001
0.984716 0.999479 0.985238 0.999991
0.990139 0.989964 1.00123 0.998944
0.976465 0.989703 0.986724 0.999898
1.00848 0.995258 1.01334 0.999949
0.989198 0.983572 1.00673 0.998997
0.969758 0.979629 0.99 0.999923
1.00023 1 1.00039 0.999841
0.999818 1 1 0.999818
0.999804 1 1 0.999804
1.02513 0.998494 1.02677 0.9999
1.00471 1 1.00502 0.999693
0.999788 1 1.00005 0.999738
1.00399 1 1.00427 0.999719
1.01178 0.999584 1.01241 0.999795
1.0045 1 1.00469 0.999815
0.999302 1.00183 0.9975 0.99998
0.999814 0.999814 1 1
0.999544 0.999548 0.999995 1
1.00507 1 1.00515 0.999924
0.973371 0.996135 0.977191 0.999956
1.00108 1.00105 1.00004 0.999998
0.992053 0.982587 1.01036 0.999281
0.97196 0.98184 0.990029 0.999907
0.994173 1.0009 0.993294 0.999985
0.983501 1.00103 0.982639 0.999844
0.998785 1.00145 0.997359 0.999981
0.972717 0.978728 0.993948 0.999909
0.973439 1.00135 0.972533 0.999578
0.980667 0.977133 1.00469 0.998932
0.977505 1.00817 0.969851 0.999723
0.975182 0.979759 0.99543 0.999899
0.976057 0.974471 1.00259 0.99904
0.977387 1.00528 0.97265 0.999589
1.02232 1 1.0226 0.999722
1.01122 1 1.01153 0.99969
1.0028 1 1.00305 0.999746
1.00654 1 1.00685 0.999695
1.00171 1 1.002 0.999713
0.999833 1 1 0.999833
1.00064 1 1.00092 0.999724
0.999788 1 1 0.999788
0.999875 1 1 0.999875
0.999778 1 1 0.999778
0.999823 1 1 0.999823
0.999874 1 1 0.999874
0.999868 1 1 0.999868
0.999835 1 1 0.999835
0.999838 1 1 0.999838
0.999839 1 1 0.999839
0.999821 1 1 0.999821
0.999808 1 1 0.999808
0.999883 1 1 0.999883
0.99985 1 1 0.99985
0.999815 1 1 0.999815
0.999926 1 1 0.999926
0.999892 1 1 0.999892
0.999873 1 1 0.999873
0.999988 1 1 0.999988
0.999931 1 1 0.999931
0.999892 1 1 0.999892
1 1 1 1
0.99999 1 1 0.99999
0.999935 1 1 0.999935
1 1 1 1
1 1 1 1
0.99999 1 1 0.99999
1 1 1 1
1 1 1 1
1 1 1 1
0.999889 1 1 0.999889
0.999882 1 1 0.999882
0.999924 1 1 0.999924
0.999986 1 1 0.999986
0.999925 1 1 0.999925
0.999879 1 1 0.999879
1 1 1 1
0.999989 1 1 0.999989
0.999927 1 1 0.999927
1 1 1 1
1 1 1 1
0.999992 1 1 0.999992
1 1 1 1
1 1 1 1
1 1 1 1
1.00055 1.00219 0.998373 0.999994
1.00022 1.00022 1 0.999999
0.999147 0.998981 1.00017 1
0.999866 1 1 0.999866
0.999871 1 1 0.999871
0.999856 1 1 0.999856
0.999857 1 1 0.999857
0.999867 1 1 0.999867
0.99985 1 1 0.99985
0.999841 1 1 0.999841
0.999849 1 1 0.999849
0.999836 1 1 0.999836
0.999838 1 1 0.999838
0.999827 1 1 0.999827
0.999826 1 1 0.999826
0.974598 0.978757 0.995832 0.999918
0.995046 1.00065 0.994405 0.999994
1.00289 1.00374 0.999163 0.999993
0.986256 0.998429 0.987815 0.999993
0.971669 0.988323 0.983523 0.999621
0.994516 0.991954 1.00328 0.999305
1.02594 0.990266 1.03629 0.999744
1.0093 0.995291 1.0144 0.999678
0.970114 0.98085 0.9894 0.999651
0.992198 0.986692 1.00643 0.999161
1.00209 0.996115 1.00637 0.999628
0.982561 0.979475 1.00413 0.999028
1.00369 1 1.00388 0.999817
1.0001 1 1.00026 0.999842
0.999818 1 1 0.999818
1.01059 1 1.0108 0.999796
1.00426 1 1.00454 0.999722
1.0038 1 1.00398 0.999822
0.999838 1 1.00003 0.999806
0.974503 0.981479 0.993015 0.999877
0.999966 1.00159 0.998394 0.999986
0.999583 0.999582 1 1
0.981253 1.00122 0.980207 0.999848
0.972586 1.00002 0.972638 0.999923
0.999156 1.00176 0.99742 0.99998
0.978616 0.975066 1.00473 0.998921
0.971844 0.978693 0.993359 0.999641
0.977227 1.00739 0.970316 0.999735
0.974531 0.979215 0.995445 0.99977
0.976344 0.973103 1.00435 0.998986
0.975544 1.00439 0.971388 0.999889
0.977626 1.01242 0.96592 0.999704
0.967752 0.968621 1.00026 0.998846
0.991324 1.00252 0.988919 0.99991
1.01091 1 1.01123 0.999686
1.00253 1 1.00279 0.999744
0.999343 1 0.999472 0.999872
1.00155 1 1.00183 0.999716
0.999773 1 0.999937 0.999835
0.999751 1 0.999797 0.999954
0.999792 1 1 0.999792
0.999876 1 1 0.999876
0.999928 1 1 0.999928
0.999825 1 1 0.999825
0.999873 1 1 0.999873
0.999896 1 1 0.999896
0.99988 1 1 0.99988
0.999871 1 1 0.999871
0.999862 1 1 0.999862
0.999846 1 1 0.999846
0.999836 1 1 0.999836
0.99984 1 1 0.99984
0.999866 1 1 0.999866
0.999843 1 1 0.999843
0.999824 1 1 0.999824
0.99992 1 1 0.99992
0.999883 1 1 0.999883
0.999849 1 1 0.999849
0.999984 1 1 0.999984
0.999927 1 1 0.999927
0.999892 1 1 0.999892
1 1 1 1
0.999988 1 1 0.999988
0.999931 1 1 0.999931
1 1 1 1
1 1 1 1
0.99999 1 1 0.99999
1 1 1 1
1 1 1 1
1 1 1 1
0.999889 1 1 0.999889
0.999885 1 1 0.999885
0.999923 1 1 0.999923
0.999884 1 1 0.999884
0.999924 1 1 0.999924
0.999984 1 1 0.999984
1 1 1 1
0.999986 1 1 0.999986
0.999925 1 1 0.999925
1 1 1 1
1 1 1 1
0.999989 1 1 0.999989
1 1 1 1
1 1 1 1
1 1 1 1
0.977673 0.980665 0.997277 0.999671
0.999729 1.00211 0.997639 0.99999
1.00021 1.00021 1 0.999999
0.999864 1 1 0.999864
0.999856 1 1 0.999856
0.999873 1 1 0.999873
0.999873 1 1 0.999873
0.999857 1 1 0.999857
0.999842 1 1 0.999842
0.99985 1 1 0.99985
0.999836 1 1 0.999836
0.99985 1 1 0.99985
0.999831 1 1 0.999831
0.999945 1 1.00011 0.999833
0.999834 1 1 0.999834
0.999826 1 1 0.999826
0.977054 0.977379 1.00086 0.998805
0.975996 0.980377 0.99574 0.99979
0.99449 1.00079 0.993714 0.99999
0.970152 0.980952 0.989065 0.999924
0.988565 0.983249 1.00673 0.998685
1.01182 0.996132 1.0158 0.999951
1.00276 0.996632 1.00638 0.999775
0.982201 0.979407 1.00381 0.999047
0.998098 0.997803 1.00059 0.999704
1.0019 1 1.00219 0.999707
1.00348 1 1.00367 0.999811
0.999844 1 1 0.999844
1.0031 1 1.00327 0.999829
0.999218 1 0.999349 0.99987
0.96428 0.967162 0.997893 0.999125
0.975806 0.980937 0.995102 0.999665
1.00043 1.00133 0.999106 0.999993
0.976978 1.00691 0.970524 0.999747
0.979584 1.00966 0.970625 0.999575
0.976446 0.979711 0.997005 0.999661
0.977688 0.972425 1.00642 0.998995
0.977408 1.01099 0.967073 0.999699
0.970656 0.970081 1.00149 0.9991
0.987983 1.00465 0.983784 0.999617
0.974981 1.00912 0.966381 0.999783
0.999032 0.993624 1.00554 0.999902
1.00204 1 1.00229 0.999742
0.998127 1 0.998256 0.999871
0.997122 1 0.99716 0.999962
0.999598 1 0.999761 0.999837
0.999507 1 0.999554 0.999953
0.999571 1 0.999602 0.999969
0.999876 1 1 0.999876
0.999925 1 1 0.999925
0.999917 1 1 0.999917
0.999873 1 1 0.999873
0.999894 1 1 0.999894
0.999885 1 1 0.999885
0.999884 1 1 0.999884
0.999868 1 1 0.999868
0.999874 1 1 0.999874
0.999862 1 1 0.999862
0.999858 1 1 0.999858
0.999861 1 1 0.999861
0.999846 1 1 0.999846
0.999836 1 1 0.999836
0.999908 1 1 0.999908
0.999869 1 1 0.999869
0.999846 1 1 0.999846
0.999979 1 1 0.999979
0.999919 1 1 0.999919
0.999883 1 1 0.999883
1 1 1 1
0.999984 1 1 0.999984
0.999927 1 1 0.999927
1 1 1 1
1 1 1 1
0.999987 1 1 0.999987
1 1 1 1
1 1 1 1
1 1 1 1
0.999884 1 1 0.999884
0.999889 1 1 0.999889
0.999917 1 1 0.999917
0.999881 1 1 0.999881
0.99992 1 1 0.99992
0.999983 1 1 0.999983
0.999924 1 1 0.999924
0.999984 1 1 0.999984
1 1 1 1
1 1 1 1
1 1 1 1
0.999986 1 1 0.999986
1 1 1 1
1 1 1 1
1 1 1 1
0.970844 0.971388 1.00031 0.999132
0.976927 0.98226 0.994678 0.999892
1.00101 1.00275 0.998264 0.999993
0.999856 1 1 0.999856
0.999874 1 1 0.999874
0.999858 1 1 0.999858
0.999873 1 1 0.999873
0.99987 1 1 0.99987
0.999862 1 1 0.999862
0.999836 1 1 0.999836
0.999849 1 1 0.999849
0.999832 1 1 0.999832
0.999847 1 1 0.999847
0.999834 1 1 0.999834
0.999732 1 1 0.999732
0.999831 1 1 0.999831
0.99983 1 1 0.99983
0.990481 0.99297 0.997549 0.999944
0.973479 0.974287 1.0001 0.999073
0.973126 0.979039 0.994303 0.999656
0.980925 0.978289 1.00371 0.998988
1.00308 0.996675 1.00649 0.999938
0.99783 0.996935 1.00098 0.999914
1.00008 1.00181 0.998594 0.999679
1.00254 1 1.00283 0.999717
1.0032 1 1.00339 0.999806
0.997633 1 0.997699 0.999934
0.98992 0.987826 1.00245 0.999674
0.9679 0.968368 1.00035 0.999165
0.975838 0.981445 0.994395 0.999892
0.977198 1.00938 0.968412 0.999693
0.990538 1.00832 0.982456 0.999903
0.971591 0.969597 1.00269 0.999366
0.977241 1.00637 0.971272 0.999779
0.994679 0.994664 1.00021 0.999806
0.983506 1.00203 0.981634 0.999875
1.00225 1 1.00249 0.999766
0.996937 1 0.997066 0.999871
0.996727 1 0.996766 0.999962
0.997596 1 0.997656 0.999939
0.999416 1 0.999464 0.999952
0.99966 1 0.999693 0.999966
0.999909 1 1 0.999909
0.999922 1 1 0.999922
0.999914 1 1 0.999914
0.999873 1 1 0.999873
0.999892 1 1 0.999892
0.999886 1 1 0.999886
0.999861 1 1 0.999861
0.999887 1 1 0.999887
0.999871 1 1 0.999871
0.999858 1 1 0.999858
0.999861 1 1 0.999861
0.999857 1 1 0.999857
0.999866 1 1 0.999866
0.999893 1 1 0.999893
0.999863 1 1 0.999863
0.999845 1 1 0.999845
0.999969 1 1 0.999969
0.999908 1 1 0.999908
0.999871 1 1 0.999871
1 1 1 1
0.999978 1 1 0.999978
0.999919 1 1 0.999919
1 1 1 1
1 1 1 1
0.999984 1 1 0.999984
1 1 1 1
1 1 1 1
1 1 1 1
0.999883 1 1 0.999883
0.999887 1 1 0.999887
0.999913 1 1 0.999913
0.999889 1 1 0.999889
0.999916 1 1 0.999916
0.99998 1 1 0.99998
0.999917 1 1 0.999917
0.999983 1 1 0.999983
1 1 1 1
0.999984 1 1 0.999984
1 1 1 1
1 1 1 1
1 1 1 1
1 1 1 1
1 1 1 1
0.985672 0.987127 0.998582 0.999944
0.966862 0.968793 0.998896 0.99911
0.975075 0.981581 0.99371 0.99966
0.999863 1 1 0.999863
0.999859 1 1 0.999859
0.999874 1 1 0.999874
0.999862 1 1 0.999862
0.999869 1 1 0.999869
0.99987 1 1 0.99987
0.999849 1 1 0.999849
0.999834 1 1 0.999834
0.99985 1 1 0.99985
0.999844 1 1 0.999844
0.999789 1 1 0.999789
0.999645 1 1 0.999645
0.999797 1 1.00006 0.999741
0.999828 1 1 0.999828
0.997566 1.0001 0.99777 0.999693
0.991342 0.994606 0.996917 0.9998
0.975013 0.974962 1.00072 0.999336
0.998678 0.998201 1.00084 0.999641
1.00096 1.00181 0.999535 0.999614
1.00394 1 1.00421 0.999728
0.999934 1 1.00002 0.999915
0.990973 0.987108 1.00397 0.999941
0.965458 0.968317 0.997922 0.999125
0.979335 1.00342 0.976221 0.999776
0.991105 0.995148 0.996243 0.999692
0.986864 1.00082 0.986191 0.999864
1.0012 1 1.00141 0.999797
0.999402 1 0.999592 0.999811
0.999778 1 1 0.999778
0.996306 1 0.996344 0.999961
0.998435 1 0.998497 0.999938
0.999861 1 1 0.999861
0.999709 1 0.999745 0.999963
0.999907 1 1 0.999907
0.99985 1 1 0.99985
0.999912 1 1 0.999912
0.999876 1 1 0.999876
0.999838 1 1 0.999838
0.999887 1 1 0.999887
0.999861 1 1 0.999861
0.999848 1 1 0.999848
0.999873 1 1 0.999873
0.999859 1 1 0.999859
0.99986 1 1 0.99986
0.999856 1 1 0.999856
0.999864 1 1 0.999864
0.999889 1 1 0.999889
0.999958 1 1 0.999958
0.999895 1 1 0.999895
0.999866 1 1 0.999866
1 1 1 1
0.999968 1 1 0.999968
0.999908 1 1 0.999908
1 1 1 1
1 1 1 1
0.999977 1 1 0.999977
1 1 1 1
1 1 1 1
1 1 1 1
0.999875 1 1 0.999875
0.999883 1 1 0.999883
0.999913 1 1 0.999913
0.99989 1 1 0.99989
0.999915 1 1 0.999915
0.999977 1 1 0.999977
0.999916 1 1 0.999916
0.99998 1 1 0.99998
1 1 1 1
0.999983 1 1 0.999983
1 1 1 1
1 1 1 1
1 1 1 1
1 1 1 1
1 1 1 1
0.998093 1 0.998211 0.999882
0.986187 0.988469 0.998008 0.999682
0.968425 0.969574 0.999659 0.999156
0.999864 1 1 0.999864
0.999841 1 1 0.999841
0.999863 1 1 0.999863
0.999861 1 1 0.999861
0.999869 1 1 0.999869
0.999868 1 1 0.999868
0.999803 1 1 0.999803
0.999852 1 1 0.999852
0.999853 1 1 0.999853
0.999787 1 1 0.999787
0.999695 1 1 0.999695
0.999764 1 1 0.999764
0.999654 1 1 0.999654
0.999749 1 1 0.999749
0.998753 1.00095 0.998104 0.999701
0.990409 0.994286 0.996435 0.999664
1.00117 1.00162 1 0.999549
0.99992 1 1 0.99992
1.00108 1 1.00116 0.999917
0.989294 0.986665 1.00298 0.999685
0.990646 1 0.990793 0.999852
1.00017 1 1.00034 0.999829
0.999008 1 0.99919 0.999818
0.999794 1 1 0.999794
0.999796 1 1 0.999796
0.999877 1 1 0.999877
0.999274 1 0.999338 0.999937
0.999864 1 1 0.999864
0.999812 1 1 0.999812
0.999906 1 1 0.999906
0.99985 1 1 0.99985
0.999816 1 1 0.999816
0.999879 1 1 0.999879
0.999838 1 1 0.999838
0.999827 1 1 0.999827
0.999861 1 1 0.999861
0.999848 1 1 0.999848
0.99985 1 1 0.99985
0.99986 1 1 0.99986
0.99986 1 1 0.99986
0.999882 1 1 0.999882
0.999862 1 1 0.999862
0.999888 1 1 0.999888
0.999948 1 1 0.999948
1 1 1 1
0.999957 1 1 0.999957
0.999898 1 1 0.999898
1 1 1 1
1 1 1 1
0.999968 1 1 0.999968
1 1 1 1
1 1 1 1
1 1 1 1
0.999857 1 1 0.999857
0.999873 1 1 0.999873
0.999905 1 1 0.999905
0.999883 1 1 0.999883
0.999912 1 1 0.999912
0.999971 1 1 0.999971
0.999917 1 1 0.999917
0.999977 1 1 0.999977
1 1 1 1
0.999981 1 1 0.999981
1 1 1 1
1 1 1 1
1 1 1 1
1 1 1 1
1 1 1 1
0.999906 1 1 0.999906
0.998215 1 0.998327 0.999887
0.985415 0.987117 0.998319 0.999957
0.999824 1 1 0.999824
0.999872 1 1 0.999872
0.999801 1 1 0.999801
0.999839 1 1 0.999839
0.999864 1 1 0.999864
0.999737 1 1 0.999737
0.999866 1 1 0.999866
0.999805 1 1 0.999805
0.999745 1 1 0.999745
0.999785 1 1 0.999785
0.999684 1 1 0.999684
0.99976 1 1 0.99976
0.999663 1 1 0.999663
0.999751 1.00167 0.998376 0.999708
0.999933 1 1 0.999933
0.999918 1 1 0.999918
1.00216 1 1.00224 0.99992
0.998736 1 0.998911 0.999825
0.99981 1 1 0.99981
0.999793 1 1 0.999793
0.999879 1 1 0.999879
0.999858 1 1 0.999858
0.999867 1 1 0.999867
0.999815 1 1 0.999815
0.99981 1 1 0.99981
0.99985 1 1 0.99985
0.999814 1 1 0.999814
0.99981 1 1 0.99981
0.999838 1 1 0.999838
0.999827 1 1 0.999827
0.999833 1 1 0.999833
0.999848 1 1 0.999848
0.99985 1 1 0.99985
0.999871 1 1 0.999871
0.99986 1 1 0.99986
0.999882 1 1 0.999882
0.999938 1 1 0.999938
0.999886 1 1 0.999886
0.999947 1 1 0.999947
1 1 1 1
1 1 1 1
1 1 1 1
0.999957 1 1 0.999957
1 1 1 1
1 1 1 1
1 1 1 1
0.999807 1 1 0.999807
0.999837 1 1 0.999837
0.999854 1 1 0.999854
0.999896 1 1 0.999896
0.99987 1 1 0.99987
0.999905 1 1 0.999905
0.999966 1 1 0.999966
0.999912 1 1 0.999912
0.999972 1 1 0.999972
1 1 1 1
0.999977 1 1 0.999977
1 1 1 1
1 1 1 1
1 1 1 1
1 1 1 1
1 1 1 1
0.999867 1 1 0.999867
0.999899 1 1 0.999899
0.998625 1.00028 0.998452 0.999893
0.999765 1 1 0.999765
0.999834 1 1 0.999834
0.99988 1 1 0.99988
0.999805 1 1 0.999805
0.999837 1 1 0.999837
0.999735 1 1 0.999735
0.999733 1 1 0.999733
0.999806 1 1 0.999806
0.999742 1 1 0.999742
0.999673 1 1 0.999673
0.999756 1 1 0.999756
0.999918 1 1 0.999918
0.99993 1 1 0.99993
0.999917 1 1 0.999917
0.99979 1 1 0.99979
0.999881 1 1 0.999881
0.999857 1 1 0.999857
0.999855 1 1 0.999855
0.999818 1 1 0.999818
0.999807 1 1 0.999807
0.999819 1 1 0.999819
0.999813 1 1 0.999813
0.999809 1 1 0.999809
0.999817 1 1 0.999817
0.999826 1 1 0.999826
0.999833 1 1 0.999833
0.999856 1 1 0.999856
0.99985 1 1 0.99985
0.999871 1 1 0.999871
0.999926 1 1 0.999926
0.999883 1 1 0.999883
0.999938 1 1 0.999938
0.999999 1 1 0.999999
0.999947 1 1 0.999947
1 1 1 1
1 1 1 1
1 1 1 1
1 1 1 1
1 1 1 1
0.999774 1 1 0.999774
0.999833 1 1 0.999833
0.999821 1 1 0.999821
0.999879 1 1 0.999879
0.999838 1 1 0.999838
0.999852 1 1 0.999852
0.999896 1 1 0.999896
0.999958 1 1 0.999958
0.999905 1 1 0.999905
0.999966 1 1 0.999966
1 1 1 1
0.999972 1 1 0.999972
1 1 1 1
1 1 1 1
1 1 1 1
1 1 1 1
1 1 1 1
0.999834 1 1 0.999834
0.999868 1 1 0.999868
0.999893 1 1 0.999893
0.999752 1 1 0.999752
0.999765 1 1 0.999765
0.999844 1 1 0.999844
0.99981 1 1 0.99981
0.999736 1 1 0.999736
0.999728 1 1 0.999728
0.999738 1 1 0.999738
0.999892 1 1 0.999892
0.999908 1 1 0.999908
0.999928 1 1 0.999928
0.999857 1 1 0.999857
0.999856 1 1 0.999856
0.999854 1 1 0.999854
0.999844 1 1 0.999844
0.999803 1 1 0.999803
0.999819 1 1 0.999819
0.99982 1 1 0.99982
0.999809 1 1 0.999809
0.999817 1 1 0.999817
0.999842 1 1 0.999842
0.999832 1 1 0.999832
0.999855 1 1 0.999855
0.999912 1 1 0.999912
0.999871 1 1 0.999871
0.999926 1 1 0.999926
0.999998 1 1 0.999998
0.999938 1 1 0.999938
0.999999 1 1 0.999999
1 1 1 1
1 1 1 1
1 1 1 1
1 1 1 1
0.999759 1 1 0.999759
0.999797 1 1 0.999797
0.99978 1 1 0.99978
0.999868 1 1 0.999868
0.999831 1 1 0.999831
0.999834 1 1 0.999834
0.999942 1 1 0.999942
0.999879 1 1 0.999879
0.999838 1 1 0.999838
0.999896 1 1 0.999896
0.999958 1 1 0.999958
1 1 1 1
0.999966 1 1 0.999966
1 1 1 1
1 1 1 1
1 1 1 1
1 1 1 1
1 1 1 1
0.99982 1 1 0.99982
0.999827 1 1 0.999827
0.999869 1 1 0.999869
0.999745 1 1 0.999745
0.999766 1 1 0.999766
0.999736 1 1 0.999736
0.99986 1 1 0.99986
0.999895 1 1 0.999895
0.999898 1 1 0.999898
0.999854 1 1 0.999854
0.999845 1 1 0.999845
0.999853 1 1 0.999853
0.999844 1 1 0.999844
0.99984 1 1 0.99984
0.99982 1 1 0.99982
0.99982 1 1 0.99982
0.999838 1 1 0.999838
0.999817 1 1 0.999817
0.999842 1 1 0.999842
0.999899 1 1 0.999899
0.999855 1 1 0.999855
0.999911 1 1 0.999911
0.999995 1 1 0.999995
0.999926 1 1 0.999926
0.999997 1 1 0.999997
1 1 1 1
0.999999 1 1 0.999999
1 1 1 1
1 1 1 1
0.999815 1 1 0.999815
0.999774 1 1 0.999774
0.999757 1 1 0.999757
0.999837 1 1 0.999837
0.9998 1 1 0.9998
0.999786 1 1 0.999786
0.999924 1 1 0.999924
0.999861 1 1 0.999861
0.99983 1 1 0.99983
0.999999 1 1 0.999999
0.999943 1 1 0.999943
0.999879 1 1 0.999879
0.999958 1 1 0.999958
1 1 1 1
1 1 1 1
1 1 1 1
1 1 1 1
1 1 1 1
0.999812 1 1 0.999812
0.999817 1 1 0.999817
0.99982 1 1 0.99982
0.999739 1 1 0.999739
0.999839 1 1 0.999839
0.999863 1 1 0.999863
0.999898 1 1 0.999898
0.99985 1 1 0.99985
0.999847 1 1 0.999847
0.999851 1 1 0.999851
0.999844 1 1 0.999844
0.99984 1 1 0.99984
0.999847 1 1 0.999847
0.999821 1 1 0.999821
0.999839 1 1 0.999839
0.999892 1 1 0.999892
0.999842 1 1 0.999842
0.999899 1 1 0.999899
0.999992 1 1 0.999992
0.999911 1 1 0.999911
0.999994 1 1 0.999994
1 1 1 1
0.999996 1 1 0.999996
1 1 1 1
1 1 1 1
0.999816 1 1 0.999816
0.999806 1 1 0.999806
0.999814 1 1 0.999814
0.999807 1 1 0.999807
0.99978 1 1 0.99978
0.999755 1 1 0.999755
0.999892 1 1 0.999892
0.999836 1 1 0.999836
0.999804 1 1 0.999804
0.999995 1 1 0.999995
0.999918 1 1 0.999918
0.999854 1 1 0.999854
1 1 1 1
0.999999 1 1 0.999999
0.999944 1 1 0.999944
1 1 1 1
1 1 1 1
1 1 1 1
0.999821 1 1 0.999821
0.99982 1 1 0.99982
0.999814 1 1 0.999814
0.999847 1 1 0.999847
0.999839 1 1 0.999839
0.999867 1 1 0.999867
0.999848 1 1 0.999848
0.999852 1 1 0.999852
0.999867 1 1 0.999867
0.99984 1 1 0.99984
0.99985 1 1 0.99985
0.999889 1 1 0.999889
0.999839 1 1 0.999839
0.999892 1 1 0.999892
0.999989 1 1 0.999989
0.999899 1 1 0.999899
0.999992 1 1 0.999992
1 1 1 1
0.999994 1 1 0.999994
1 1 1 1
1 1 1 1
0.999816 1 1 0.999816
0.999823 1 1 0.999823
0.999815 1 1 0.999815
0.999822 1 1 0.999822
0.999808 1 1 0.999808
0.999813 1 1 0.999813
0.999871 1 1 0.999871
0.999813 1 1 0.999813
0.999786 1 1 0.999786
0.999989 1 1 0.999989
0.999889 1 1 0.999889
0.999836 1 1 0.999836
1 1 1 1
0.999996 1 1 0.999996
0.999912 1 1 0.999912
1 1 1 1
1 1 1 1
1 1 1 1
0.999833 1 1 0.999833
0.999821 1 1 0.999821
0.999827 1 1 0.999827
0.999862 1 1 0.999862
0.999846 1 1 0.999846
0.999839 1 1 0.999839
0.999852 1 1 0.999852
0.999867 1 1 0.999867
0.999897 1 1 0.999897
0.999854 1 1 0.999854
0.999891 1 1 0.999891
0.999987 1 1 0.999987
0.999893 1 1 0.999893
0.999989 1 1 0.999989
1 1 1 1
0.999991 1 1 0.999991
1 1 1 1
1 1 1 1
0.999829 1 1 0.999829
0.999812 1 1 0.999812
0.999837 1 1 0.999837
0.999824 1 1 0.999824
0.999814 1 1 0.999814
0.999877 1 1 0.999877
0.999821 1 1 0.999821
0.99981 1 1 0.99981
0.999985 1 1 0.999985
0.999874 1 1 0.999874
0.99982 1 1 0.99982
1 1 1 1
0.999991 1 1 0.999991
0.999886 1 1 0.999886
1 1 1 1
0.999997 1 1 0.999997
1 1 1 1
0.999854 1 1 0.999854
0.999834 1 1 0.999834
0.999822 1 1 0.999822
0.999894 1 1 0.999894
0.999863 1 1 0.999863
0.999845 1 1 0.999845
0.999867 1 1 0.999867
0.999897 1 1 0.999897
0.999986 1 1 0.999986
0.999894 1 1 0.999894
0.999987 1 1 0.999987
1 1 1 1
0.999988 1 1 0.999988
1 1 1 1
1 1 1 1
0.999845 1 1 0.999845
0.999827 1 1 0.999827
0.999807 1 1 0.999807
0.999886 1 1 0.999886
0.999837 1 1 0.999837
0.999825 1 1 0.999825
0.999984 1 1 0.999984
0.999877 1 1 0.999877
0.99982 1 1 0.99982
1 1 1 1
0.999986 1 1 0.999986
0.999877 1 1 0.999877
1 1 1 1
0.999993 1 1 0.999993
1 1 1 1
0.999896 1 1 0.999896
0.999851 1 1 0.999851
0.999834 1 1 0.999834
0.999985 1 1 0.999985
0.999895 1 1 0.999895
0.999863 1 1 0.999863
0.999897 1 1 0.999897
0.999986 1 1 0.999986
1 1 1 1
0.999986 1 1 0.999986
1 1 1 1
1 1 1 1
0.999893 1 1 0.999893
0.999845 1 1 0.999845
0.999824 1 1 0.999824
0.999986 1 1 0.999986
0.999885 1 1 0.999885
0.999837 1 1 0.999837
1 1 1 1
0.999984 1 1 0.999984
0.999876 1 1 0.999876
1 1 1 1
0.999987 1 1 0.999987
1 1 1 1
0.999984 1 1 0.999984
0.999893 1 1 0.999893
0.999849 1 1 0.999849
1 1 1 1
0.999985 1 1 0.999985
0.999896 1 1 0.999896
0.999986 1 1 0.999986
1 1 1 1
1 1 1 1
0.999985 1 1 0.999985
0.999892 1 1 0.999892
0.999844 1 1 0.999844
1 1 1 1
0.999985 1 1 0.999985
0.999885 1 1 0.999885
1 1 1 1
0.999984 1 1 0.999984
1 1 1 1
1 1 1 1
0.999984 1 1 0.999984
0.99989 1 1 0.99989
1 1 1 1
0.999984 1 1 0.999984
1 1 1 1
1 1 1 1
0.999985 1 1 0.999985
0.999892 1 1 0.999892
1 1 1 1
0.999985 1 1 0.999985
1 1 1 1
1 1 1 1
0.999985 1 1 0.999985
1 1 1 1
1 1 1 1
0.999986 1 1 0.999986
1 1 1 1
1 1 1 1
1 1 1 1

VECTORS lamdaE float
0.999179 0.998757 0.997619
0.999341 0.997923 0.99913
0.999168 0.998744 0.99765
0.998919 0.999747 0.997231
0.999071 0.999153 0.997468
0.999272 0.99835 0.997808
0.999477 0.999728 0.995981
0.999358 0.997893 0.999147
0.999014 0.999007 0.998953
0.999251 0.99819 0.999103
0.999439 0.997662 0.998115
0.999517 0.999214 0.996197
0.998814 1.00013 0.997206
0.998775 0.999971 0.997334
0.999156 0.998728 0.997681
0.998907 0.999771 0.997255
0.999262 0.998329 0.997839
0.999061 0.999148 0.997497
0.999482 0.999739 0.995982
0.998829 0.99997 0.998801
0.998886 0.999878 0.997198
0.998974 0.999501 0.997338
0.999615 1.00011 0.995386
0.999506 0.999894 0.995781
0.999363 0.997972 0.997986
0.999448 0.999521 0.996221
1.00011 1.00077 0.993763
0.999376 0.997865 0.999163
0.99903 0.999092 0.998227
0.999263 0.998255 0.998475
0.999432 0.99763 0.99919
0.999506 0.999196 0.9962
0.998928 0.9996 0.997385
0.999138 0.998754 0.997696
0.999533 0.999888 0.996104
0.999511 0.99736 0.999236
0.999493 0.999422 0.996589
0.99956 0.998959 0.996366
0.999903 1.00075 0.993901
0.999676 0.997008 0.999239
0.998808 1.00003 0.998797
0.998782 0.999906 0.998086
0.998858 1.00003 0.998774
0.998749 1.00007 0.997307
0.999667 1.00023 0.994807
0.99883 0.999657 0.998877
0.999589 1.00018 0.995746
0.998893 0.999797 0.997279
0.99905 0.99914 0.997526
0.999252 0.998305 0.997871
0.999488 0.999754 0.995983
0.998826 1 0.998017
0.998871 0.999908 0.997215
0.999354 0.997951 0.99801
0.998964 0.999508 0.997366
0.999625 1.00011 0.995389
0.999455 0.999533 0.996224
0.999515 0.999895 0.995782
1.00013 1.00078 0.993731
0.998846 0.999995 0.998788
0.998839 0.99996 0.997225
0.999699 1.00011 0.995607
0.999675 1.00011 0.995285
0.999544 1.00003 0.995583
1.00072 1.00044 0.992921
1.00028 1.00062 0.993419
0.999485 0.997647 0.998096
0.999463 0.999215 0.996476
0.999921 1.00087 0.994017
1.00061 1.00077 0.992495
0.999054 0.998943 0.998962
0.999454 0.9976 0.999206
0.999285 0.998174 0.999106
0.999495 0.999178 0.996203
0.998925 0.999408 0.998877
0.999131 0.998631 0.999005
0.999499 0.999996 0.995412
0.999526 0.997383 0.998704
0.999484 0.999461 0.995995
0.999557 0.998913 0.996652
0.99989 1.00079 0.993892
0.999596 0.997185 0.999231
0.999811 0.998222 0.996589
0.999559 1.00014 0.995129
0.999495 0.999766 0.995649
1.00025 1.00061 0.99335
0.99964 0.998643 0.997024
0.999965 1.00072 0.993815
0.999874 1.00068 0.994037
1.0002 1.00109 0.992974
0.999741 0.996852 0.999252
0.99969 0.997003 0.999242
0.998804 0.999798 0.998849
0.998784 1 0.998812
0.998845 1.00003 0.998778
0.998765 1.00002 0.998059
0.999658 1.0002 0.995219
0.998845 0.99971 0.998102
0.999574 1.00019 0.995375
0.998869 1.00001 0.998774
0.999726 1.00015 0.99474
0.999616 1.0002 0.995686
1.00091 1.00028 0.992332
0.99958 1.00012 0.995803
1.00071 1.00037 0.992659
0.998841 1.00004 0.997206
0.998856 0.999942 0.997231
0.999345 0.99793 0.998034
0.998954 0.999513 0.997394
0.999636 1.0001 0.995392
0.999524 0.999898 0.995783
0.999461 0.999549 0.996226
1.00016 1.00078 0.9937
0.998856 1 0.998781
0.998828 0.999975 0.997241
0.999705 1.00013 0.995031
0.999685 1.00011 0.995282
0.999457 0.997633 0.998646
0.999474 0.999213 0.99663
0.999555 1.00003 0.995587
1.00072 1.00042 0.992842
0.999954 1.00089 0.99398
1.0003 1.00063 0.993465
1.00061 1.00077 0.9925
0.999734 1.00011 0.994756
0.999673 1.00011 0.995303
1.00099 1.00018 0.992479
1.00087 1.00029 0.992606
1.00048 1.00052 0.993121
1.00129 1.00031 0.991781
0.999555 0.997393 0.99921
1.00079 1.00054 0.992365
0.999566 0.998891 0.996389
0.99981 1.00088 0.99393
1.00041 1.00109 0.992631
1.00087 1.00072 0.992042
0.999752 0.998424 0.996476
1.00004 1.00023 0.994155
0.998953 0.999311 0.998898
0.99917 0.998542 0.999039
0.999451 1.00006 0.995407
0.999542 0.997368 0.999227
0.999552 0.998883 0.996395
0.999452 0.999488 0.995978
0.999876 1.00083 0.993882
0.999613 0.997178 0.999233
0.999813 0.998204 0.996591
0.999533 1.00011 0.995537
0.999466 0.999752 0.996019
1.00025 1.0006 0.993351
0.999648 0.998621 0.996515
0.999955 1.00074 0.993808
0.999855 1.00072 0.994033
1.00021 1.00108 0.992947
0.999737 0.99841 0.996554
0.999867 0.998052 0.996646
1.00003 1.0001 0.994305
1.00044 1.0005 0.993066
1.00007 1.00069 0.993637
1.00075 1.00063 0.992373
0.999917 1.00044 0.994194
1.00034 1.00083 0.992908
1.0001 1.00132 0.993003
1.00031 1.00133 0.9926
0.999792 0.996717 0.999269
0.999751 0.99685 0.999257
0.999703 0.996999 0.999246
0.999812 0.998252 0.996531
0.999634 0.99722 0.999219
0.998867 0.999598 0.998863
0.998772 0.999931 0.998836
0.999557 1.00025 0.994998
0.999644 1.00022 0.994837
0.998831 1.00002 0.998786
0.998868 1.00002 0.998772
0.999725 1.00014 0.994745
0.999597 1.00021 0.995317
1.00091 1.00028 0.992337
0.999558 1.0002 0.995051
1.00071 1.00037 0.992664
0.999755 1.00009 0.994719
1.00102 1.00025 0.992136
1.0008 1.00032 0.992518
1.00145 1.00027 0.991306
1.0006 1.00042 0.992834
1.00125 1.00026 0.991729
0.998866 1.00001 0.998774
0.998816 0.999991 0.997258
0.999703 1.00014 0.994467
0.999695 1.00011 0.995279
0.999426 0.997614 0.999202
0.999485 0.99921 0.996784
0.999567 1.00002 0.99559
1.00072 1.0004 0.992763
1.00032 1.00064 0.993511
0.999988 1.00089 0.993943
1.0006 1.00077 0.992505
0.999734 1.00012 0.994752
0.999687 1.0001 0.995296
1.00099 1.00018 0.992316
1.00088 1.00029 0.992653
0.999535 0.997403 0.999207
0.999563 0.998912 0.996649
0.999845 1.00084 0.994076
1.00049 1.00051 0.993124
1.00127 1.00028 0.991693
1.00037 1.0011 0.992612
1.00081 1.00054 0.992407
1.00087 1.00072 0.992051
0.999746 0.998448 0.996476
1.00004 1.00022 0.99416
1.00103 1.00018 0.992184
1.00095 1.0002 0.992528
1.00157 1.00014 0.991375
1.00144 1.00013 0.991364
1.00098 1.00041 0.99219
1.00157 1.00012 0.991344
0.999659 0.998637 0.996442
1.00108 1.00038 0.991958
0.99983 1.00074 0.994052
1.00014 1.00126 0.992816
1.00066 1.00123 0.992156
1.00102 1.00058 0.991941
0.999989 1.00036 0.994122
1.00005 1.00007 0.994285
1.00018 1.00132 0.992831
0.999498 1.0002 0.995178
0.99963 0.99717 0.999235
0.999816 0.998185 0.996593
0.999427 0.999811 0.995706
1.00025 1.00059 0.993352
0.999643 0.9986 0.996512
0.999836 1.00076 0.99403
0.999944 1.00076 0.993802
1.00021 1.00107 0.992921
0.999738 0.99839 0.996555
0.99987 0.998033 0.996649
1.00002 1.00011 0.994303
1.00045 1.00049 0.993067
1.00006 1.00069 0.993638
1.00074 1.00063 0.992373
0.999901 1.00047 0.994193
1.00035 1.00083 0.992944
1.00009 1.00132 0.992996
1.0003 1.00132 0.99256
0.999908 0.997897 0.996717
0.999983 1.00023 0.994269
1.00006 0.999972 0.994369
1.00015 1.00113 0.993064
1.00096 1.00044 0.992103
1.00051 1.00077 0.992725
1.00098 1.00066 0.991876
1.0001 1.00123 0.993076
1.00049 1.00098 0.99254
1.00017 1.00174 0.992445
1.00039 1.00138 0.992276
1.00009 0.99944 0.994848
0.999963 0.997641 0.99686
0.999831 0.996598 0.999287
0.999798 0.996716 0.999275
0.99976 0.996848 0.999262
0.999848 0.998086 0.996629
0.99969 0.997069 0.999235
0.999806 0.998276 0.996528
0.999619 0.997221 0.999216
0.999533 1.00024 0.995057
0.999585 1.00025 0.994932
1.00071 1.00036 0.992668
1.00091 1.00028 0.992341
0.999722 1.00013 0.99475
0.998871 1.00002 0.998771
0.999759 1.0001 0.994717
1.00103 1.00025 0.99214
1.0008 1.00032 0.992522
1.00145 1.00027 0.991304
1.0006 1.00042 0.992837
1.00125 1.00026 0.99173
1.00107 1.00021 0.992095
1.00155 1.00028 0.991089
1.00136 1.00024 0.991528
1.00169 1.00014 0.990991
1.00112 1.00033 0.991915
1.00151 1.00009 0.991381
0.999736 1.00013 0.994748
0.999701 1.0001 0.995288
1.00098 1.00017 0.992154
1.00089 1.0003 0.992701
0.999516 0.997411 0.999203
0.999562 0.998935 0.996905
0.999879 1.00081 0.994222
1.00049 1.00051 0.993126
1.00125 1.00026 0.991605
1.00083 1.00055 0.99245
1.00034 1.0011 0.992593
1.00086 1.00072 0.99206
0.99974 0.998472 0.996475
1.00004 1.00021 0.994166
1.00103 1.00018 0.992119
1.00095 1.00019 0.992531
1.00156 1.00012 0.991347
1.00146 1.00015 0.991461
0.999658 0.998661 0.99644
0.999852 1.00071 0.994054
1.00014 1.00127 0.992875
1.001 1.00042 0.992192
1.00155 1.00007 0.991326
1.00062 1.00123 0.992091
1.00108 1.00038 0.99196
1.001 1.00057 0.99193
0.999996 1.00034 0.994128
1.00019 1.00129 0.992795
1.00005 1.00007 0.994285
1.00158 1.00021 0.991278
1.00156 1.00008 0.991355
1.00183 1.00005 0.990858
1.00176 0.999969 0.990995
1.00123 1.00018 0.991771
1.00172 0.999746 0.991394
0.999905 1.00053 0.994114
1.0012 1.00016 0.991912
1.00009 1.00125 0.993059
1.00029 1.00156 0.992243
1.00076 1.00132 0.991755
1.00109 1.00041 0.992081
1.00005 0.999866 0.994501
1.00016 1.00122 0.992947
1.00016 1.0014 0.992676
1.00023 1.0018 0.992368
1.00045 1.00048 0.993068
0.999873 0.998015 0.996652
0.99974 0.998371 0.996556
1.00002 1.00013 0.994301
1.00005 1.00069 0.993638
1.00074 1.00063 0.992374
0.999884 1.0005 0.994193
1.00009 1.00133 0.992989
1.00035 1.00084 0.992979
1.0003 1.00131 0.99252
0.999911 0.997881 0.996721
0.999974 1.00025 0.994267
1.00006 0.999978 0.994368
1.00014 1.00115 0.99306
1.00097 1.00045 0.992099
1.0005 1.00077 0.992732
1.00097 1.00067 0.991877
1.00009 1.00125 0.993076
1.0005 1.00098 0.992583
1.00017 1.00175 0.99243
1.00037 1.00134 0.992374
0.999939 0.997759 0.996793
1.00009 0.999833 0.994464
1.00015 1.00111 0.993094
1.00015 1.00113 0.993071
1.00018 1.00168 0.992442
1.00121 1.00038 0.991659
1.00068 1.00088 0.992268
1.00106 1.00073 0.991663
1.00016 1.00175 0.99247
1.00056 1.00113 0.992261
1.00025 1.00201 0.991851
1.00009 0.999568 0.994711
1.00012 1.00078 0.993471
1.00009 0.999328 0.994964
1.00009 0.999435 0.994851
0.999981 0.997508 0.997395
0.999961 0.997627 0.997102
0.999878 0.996518 0.998373
0.999835 0.996597 0.999293
0.999803 0.996716 0.99928
0.999871 0.997919 0.996755
0.999729 0.996919 0.99926
0.999844 0.998109 0.996622
0.999681 0.997069 0.99923
0.999801 0.998299 0.996525
0.999604 0.997224 0.999213
1.0006 1.00042 0.992841
1.0008 1.00032 0.992526
1.00125 1.00026 0.991732
1.00146 1.00028 0.991301
1.00103 1.00025 0.992144
0.999758 1.0001 0.994715
1.00107 1.00021 0.992092
1.00156 1.00028 0.991089
1.00136 1.00025 0.991531
1.0017 1.00013 0.990977
1.00112 1.00033 0.991911
1.00151 1.00009 0.991382
1.0016 1.00026 0.991031
1.00173 1.00019 0.990819
1.00163 1.00007 0.991162
1.00185 0.999918 0.990943
1.00137 1.00019 0.991549
1.00166 0.999679 0.991531
1.00102 1.00019 0.992053
1.00096 1.00017 0.992533
1.00154 1.0001 0.991318
1.00147 1.00018 0.991559
0.999656 0.998685 0.996439
0.999873 1.00068 0.994056
1.00014 1.00127 0.992933
1.00102 1.00043 0.992194
1.00154 1.00003 0.991308
1.00108 1.00037 0.991962
1.00059 1.00122 0.992026
1.00098 1.00055 0.991919
1 1.00032 0.994134
1.0002 1.00126 0.992759
1.00005 1.00007 0.994286
1.00157 1.00021 0.991207
1.00157 1.00007 0.991354
1.00183 1.00004 0.990804
1.00178 0.999969 0.991012
0.99992 1.0005 0.994118
1.0001 1.00124 0.993057
1.00028 1.00158 0.992307
1.00125 1.00022 0.991793
1.00169 0.99967 0.991439
1.00073 1.00135 0.991694
1.00121 1.00016 0.991917
1.00107 1.00034 0.992111
1.00017 1.0012 0.992955
1.00023 1.00178 0.992315
1.00005 0.999871 0.994498
1.00016 1.00139 0.992686
1.00179 1.00019 0.990743
1.00194 0.999917 0.990807
1.00196 1.00002 0.99054
1.00192 0.999623 0.990984
1.00137 0.99987 0.991827
1.00186 0.999219 0.991655
1.00012 1.0012 0.993061
1.00125 0.999759 0.992214
1.00016 1.00154 0.992521
1.0004 1.00195 0.991769
1.00082 1.00141 0.991468
1.00118 1.00025 0.992104
1.00004 0.999671 0.994706
1.00013 1.0013 0.992795
1.00024 1.00152 0.992506
1.00016 1.00216 0.992038
1.00029 1.00189 0.992138
0.999914 0.997864 0.996725
1.00098 1.00045 0.992094
1.00005 0.999984 0.994367
0.999965 1.00027 0.994264
1.00014 1.00116 0.993055
1.00049 1.00077 0.992739
1.00097 1.00067 0.991877
1.00008 1.00126 0.993076
1.00018 1.00176 0.992415
1.00051 1.00098 0.992625
1.00035 1.00129 0.992472
0.99994 0.997747 0.996797
1.00008 0.999834 0.994463
1.00014 1.00113 0.993091
1.00014 1.00114 0.993066
1.00018 1.00168 0.992431
1.00123 1.00038 0.991652
1.00067 1.00089 0.99227
1.00105 1.00074 0.991642
1.00015 1.00175 0.992476
1.00056 1.00113 0.992294
1.00029 1.00197 0.991903
1.0001 0.999697 0.994578
1.00015 1.00108 0.993108
1.0002 1.00159 0.992478
1.00017 1.00178 0.992396
1.00021 1.00195 0.992182
1.00132 1.00027 0.991539
1.00075 1.00101 0.991995
1.00098 1.00071 0.991714
1.00018 1.00222 0.991924
1.00052 1.00195 0.991543
1.00009 0.999562 0.994713
1.00015 1.00092 0.99317
1.00012 1.0008 0.993395
1.0001 1.00174 0.992681
1.0001 1.0007 0.993604
1.00009 0.999249 0.995045
1.00009 0.99933 0.994967
1.00001 0.997397 0.997449
1.00009 0.999431 0.994854
0.999982 0.99751 0.997404
0.999914 0.996403 0.998415
0.99996 0.997616 0.997343
0.999871 0.99649 0.998842
0.999838 0.996595 0.999298
0.999898 0.997742 0.996884
0.999872 0.997935 0.996747
0.999765 0.996753 0.999289
0.999726 0.996924 0.999252
0.999842 0.99813 0.996616
0.999673 0.997072 0.999224
1.00113 1.00033 0.991908
1.00136 1.00025 0.991534
1.00151 1.0001 0.991383
1.00171 1.00012 0.990963
1.00156 1.00028 0.991089
1.00107 1.00021 0.99209
1.0016 1.00026 0.991033
1.00174 1.0002 0.990796
1.00163 1.00008 0.991163
1.00185 0.99991 0.990937
1.00138 1.0002 0.991541
1.00166 0.999647 0.991543
1.00178 1.00024 0.990717
1.00178 1.00015 0.990781
1.00178 0.999648 0.991187
1.00194 0.999869 0.990912
1.00151 0.999848 0.991577
1.00182 0.999209 0.991771
1.00156 1.00021 0.991136
1.00157 1.00006 0.991353
1.00183 1.00002 0.99075
1.0018 0.999967 0.99103
0.999935 1.00048 0.994122
1.00012 1.00123 0.993054
1.00027 1.00159 0.99237
1.00127 1.00026 0.991816
1.00167 0.999593 0.991484
1.00121 1.00016 0.991921
1.0007 1.00139 0.991632
1.00104 1.00027 0.992141
1.00018 1.00117 0.992963
1.00023 1.00175 0.992263
1.00004 0.999876 0.994495
1.00017 1.00138 0.992695
1.00179 1.00019 0.990752
1.00192 0.999922 0.990819
1.00196 1.00004 0.990513
1.00193 0.999633 0.990995
1.00013 1.00118 0.993064
1.00016 1.00154 0.992571
1.00039 1.00198 0.991763
1.00139 0.999925 0.991795
1.00177 0.999172 0.991791
1.00081 1.00146 0.99144
1.00125 0.999773 0.992221
1.00113 1.00009 0.992205
1.00024 1.00152 0.992507
1.00029 1.00185 0.99212
1.00016 1.00219 0.99202
1.00004 0.999671 0.99461
1.00014 1.00128 0.992826
1.0019 1.00019 0.990545
1.00214 0.999821 0.990401
1.00205 0.999114 0.991287
1.00157 0.999199 0.99209
1.00021 1.00145 0.992652
1.00143 0.999273 0.992493
1.00014 1.00191 0.992126
1.00049 1.00238 0.991177
1.00097 1.00137 0.991256
1.00006 0.999443 0.994727
1.00011 1.00107 0.993258
1.00011 1.00223 0.992059
1.00029 1.0016 0.992326
1.00023 1.00256 0.991539
1.00034 1.00191 0.991902
0.999942 0.997735 0.996801
1.00008 0.999834 0.994462
1.00124 1.00038 0.991645
1.00014 1.00115 0.993062
1.00013 1.00115 0.993089
1.00018 1.00167 0.99242
1.00066 1.00089 0.992272
1.00105 1.00074 0.991622
1.00014 1.00175 0.992482
1.00032 1.00193 0.991954
1.00057 1.00113 0.992326
1.0001 0.999695 0.994579
1.00015 1.00109 0.993103
1.0002 1.00158 0.992519
1.00017 1.00179 0.992389
1.0002 1.00195 0.992147
1.00132 1.00031 0.991525
1.00076 1.00101 0.99198
1.00101 1.00069 0.991732
1.00017 1.00221 0.991887
1.00052 1.00203 0.991462
1.00016 1.00101 0.993172
1.00016 1.00183 0.992258
1.00024 1.00197 0.992074
1.0002 1.00207 0.991966
1.00028 1.00206 0.991911
1.0015 0.99934 0.992079
1.00079 1.00157 0.991412
1.00106 1.00047 0.991486
1.00033 1.00256 0.99147
1.0005 1.0025 0.990661
1.0001 0.999556 0.994715
1.00014 1.00093 0.993217
1.00012 1.00183 0.992351
1.00012 1.00081 0.99332
1.0001 1.0007 0.993604
1.0001 1.00175 0.992574
1.0001 1.00237 0.992018
1.0001 1.00168 0.992552
1.00006 1.00063 0.993728
1.00009 0.9992 0.995093
1.00009 0.999252 0.995047
1.00003 0.997296 0.997492
1.00009 0.99933 0.99497
1 0.997402 0.997456
0.99995 0.996292 0.998446
0.999983 0.997512 0.997413
0.99991 0.996372 0.998413
0.999862 0.996456 0.999314
0.999933 0.997569 0.996989
0.999902 0.997752 0.996876
0.999807 0.996577 0.999317
0.999873 0.997949 0.996739
0.999763 0.996768 0.99928
0.999722 0.99693 0.999244
1.00138 1.00021 0.991534
1.00163 1.00009 0.991165
1.00167 0.99961 0.991555
1.00185 0.999901 0.990931
1.00176 1.00022 0.990772
1.0016 1.00026 0.991035
1.00178 1.00024 0.990703
1.00178 1.00015 0.990786
1.00182 0.999667 0.991141
1.0019 0.999874 0.990866
1.00151 0.999891 0.991572
1.00177 0.999079 0.991894
1.00177 1.00021 0.990736
1.00176 1.00014 0.990847
1.00191 0.999397 0.991269
1.0017 0.998889 0.992217
1.00178 1.00019 0.990761
1.00191 0.999927 0.990832
1.00196 1.00006 0.990486
1.00194 0.999642 0.991007
1.00014 1.00116 0.993067
1.00017 1.00154 0.992621
1.00037 1.00201 0.991757
1.00142 0.99998 0.991763
1.00168 0.999128 0.991928
1.00124 0.999787 0.992227
1.00081 1.00151 0.991412
1.00109 0.99993 0.992306
1.00025 1.00152 0.992509
1.0003 1.00181 0.992103
1.00016 1.00221 0.992003
1.00004 0.999673 0.994514
1.00015 1.00125 0.992858
1.0019 1.00017 0.990526
1.00212 0.999831 0.99046
1.00201 0.999171 0.991323
1.00022 1.00144 0.992647
1.00018 1.0019 0.9922
1.00047 1.00242 0.991159
1.00159 0.999242 0.992047
1.00095 1.00124 0.991396
1.00137 0.999291 0.992463
1.00005 0.999422 0.994755
1.0003 1.00162 0.992318
1.00034 1.00184 0.991966
1.00023 1.00254 0.991564
1.00011 1.00225 0.992086
1.00012 1.00106 0.993163
1.002 1.00012 0.990458
1.00226 0.999597 0.990401
1.00203 0.998576 0.991743
1.00184 0.998345 0.99254
1.00025 1.00165 0.992377
1.00129 1.00021 0.991753
1.00022 1.0025 0.991418
1.00061 1.00276 0.990686
1.00007 0.999242 0.994918
1.00011 1.00077 0.993573
1.00009 1.00207 0.992365
1.00013 1.00299 0.991252
1.00032 1.00181 0.992031
1.00032 1.00244 0.991421
1.0001 0.999692 0.994579
1.00015 1.0011 0.993098
1.00133 1.00035 0.99151
1.00016 1.0018 0.992382
1.0002 1.00157 0.992559
1.0002 1.00196 0.992113
1.00077 1.001 0.991964
1.00104 1.00067 0.99175
1.00016 1.00221 0.991851
1.00053 1.00213 0.99138
1.00015 1.00102 0.99317
1.00017 1.00185 0.99229
1.00023 1.00196 0.992131
1.0002 1.00208 0.992012
1.00025 1.00205 0.991958
1.00153 0.999379 0.992136
1.00082 1.00151 0.99145
1.00104 1.00053 0.99168
1.0003 1.00257 0.991416
1.00055 1.00264 0.990619
1.00015 1.00187 0.992266
1.00019 1.00237 0.991697
1.00028 1.00232 0.99165
1.00025 1.00226 0.991635
1.00226 0.997872 0.992272
1.00162 0.999077 0.992
1.0009 1.00216 0.990542
1.0003 1.00347 0.990306
1.00014 1.00095 0.993264
1.00012 1.00184 0.992404
1.00011 1.0024 0.991909
1.0001 1.0007 0.993605
1.0001 1.00175 0.992466
1.00006 1.00063 0.993728
1.0001 1.00237 0.991945
1.00009 1.00169 0.992591
1.00015 1.00272 0.991547
1.0001 1.00235 0.991884
1.00009 1.0016 0.992648
1.00004 1.0006 0.99381
1.00009 0.999183 0.99511
1.00009 0.9992 0.995095
1.00005 0.997223 0.997515
1.00009 0.999256 0.995049
1.00003 0.997304 0.997497
0.999985 0.996186 0.998472
1 0.997406 0.997464
0.999947 0.99626 0.998444
0.999906 0.996342 0.99841
0.999969 0.997415 0.99707
0.999938 0.997576 0.996983
0.999855 0.996413 0.999339
0.999906 0.997764 0.996868
0.999804 0.996598 0.999309
0.999761 0.996781 0.999271
1.0015 0.999934 0.991568
1.00185 0.999687 0.991096
1.00173 0.998957 0.992018
1.00187 0.999883 0.990821
1.00178 1.00015 0.990791
1.00178 1.00025 0.99069
1.00178 1.00022 0.990725
1.00176 1.00013 0.990846
1.0019 0.999382 0.991303
1.00171 0.998855 0.992193
1.00174 1.00021 0.99079
1.00178 0.999899 0.991105
1.00199 0.998648 0.991811
1.0019 1.00015 0.990506
1.0021 0.999842 0.990518
1.00198 0.999225 0.99136
1.00022 1.00144 0.992642
1.00022 1.0019 0.992274
1.00044 1.00247 0.99114
1.00162 0.999283 0.992003
1.00131 0.999311 0.992434
1.00093 1.00111 0.991536
1.0003 1.00163 0.99231
1.00033 1.00178 0.992031
1.00023 1.00252 0.991588
1.00005 0.999399 0.994782
1.00012 1.00228 0.992113
1.00013 1.00105 0.993068
1.00195 1.00011 0.990514
1.00228 0.999558 0.990379
1.00205 0.99867 0.991662
1.00026 1.00165 0.992367
1.00021 1.00248 0.991506
1.0006 1.00269 0.990746
1.00179 0.998404 0.992588
1.00129 1.00014 0.991744
1.00007 0.999228 0.995016
1.0001 1.00077 0.993577
1.00031 1.00181 0.992023
1.00032 1.00244 0.991439
1.00012 1.00296 0.991327
1.0001 1.00209 0.992295
1.00197 0.999926 0.990662
1.00237 0.999139 0.990661
1.00218 0.997449 0.992633
1.00183 0.998506 0.992549
1.00023 1.00209 0.99188
1.00085 1.00237 0.990529
1.00038 1.00311 0.990829
1.00009 0.999085 0.995211
1.00009 1.0002 0.99411
1.0001 1.0005 0.99368
1.00009 1.00189 0.992492
1.00006 1.00282 0.991531
1.00014 1.00338 0.990855
1.0003 1.00209 0.991693
1.00029 1.00319 0.991023
1.00015 1.00102 0.993168
1.00017 1.00187 0.992322
1.00157 0.999419 0.992193
1.0002 1.00209 0.992059
1.00023 1.00194 0.992188
1.00021 1.00204 0.992004
1.00084 1.00143 0.991488
1.00102 1.00058 0.991873
1.00027 1.00259 0.991362
1.00058 1.00275 0.990577
1.00015 1.00188 0.992256
1.0002 1.00233 0.99176
1.00027 1.00229 0.99171
1.00027 1.00227 0.991678
1.00223 0.997801 0.99233
1.00155 0.999354 0.991962
1.00092 1.00214 0.990641
1.00035 1.00337 0.990282
1.00013 1.00247 0.991812
1.00225 0.998209 0.991754
1.00023 1.00274 0.991379
1.00025 1.0029 0.991124
1.00251 0.997204 0.992242
1.00136 1.00146 0.99026
1.00052 1.004 0.989771
1.00012 1.00186 0.992457
1.0001 1.00241 0.991911
1.00013 1.00277 0.991496
1.00007 1.00064 0.993728
1.00009 1.0017 0.99263
1.00011 1.00237 0.991871
1.00004 1.0006 0.99381
1.00008 1.00161 0.992639
1.00015 1.00273 0.991487
1.0001 1.00235 0.99197
1.00025 1.00292 0.991166
1.00017 1.00275 0.991375
1.00011 1.00228 0.992017
1.00006 1.00161 0.992773
1.00004 1.00059 0.993835
1.00009 0.999201 0.995097
1.00009 0.999185 0.99511
1.00007 0.997186 0.997512
1.00009 0.9992 0.995097
1.00005 0.997235 0.997516
1.00002 0.996108 0.998482
1.00003 0.997312 0.997502
0.999983 0.996154 0.998471
0.999944 0.996229 0.998441
1.00011 0.998959 0.995302
1.00001 0.997271 0.997143
0.999974 0.997423 0.997066
0.999901 0.996266 0.999358
0.999942 0.997585 0.996978
0.99985 0.996433 0.999333
0.999801 0.996618 0.999301
1.00172 0.998818 0.992169
1.00188 0.999366 0.991338
1.00176 1.00011 0.990844
1.00179 1.00022 0.990715
1.00172 1.00022 0.990844
1.00178 0.999946 0.991032
1.00196 0.998606 0.991939
1.00168 1.00014 0.991032
1.00193 0.999357 0.991291
1.00202 0.998454 0.992002
1.00191 1.0001 0.990571
1.00231 0.999522 0.990357
1.00207 0.998764 0.99158
1.00026 1.00166 0.992357
1.0002 1.00245 0.991593
1.00058 1.00261 0.990806
1.00172 0.998458 0.992637
1.0013 1.00008 0.991735
1.0003 1.00182 0.992015
1.00032 1.00244 0.991457
1.0001 1.00293 0.991403
1.00007 0.999212 0.995115
1.0001 1.00076 0.99358
1.0001 1.00211 0.992226
1.00197 0.999909 0.990655
1.00009 0.999084 0.995208
1.00009 1.0002 0.994049
1.00239 0.999093 0.990681
1.00214 0.997626 0.992476
1.00022 1.00204 0.991921
1.00036 1.00314 0.990745
1.00086 1.00219 0.990565
1.00177 0.998506 0.992509
1.00009 1.00049 0.993844
1.00008 1.00189 0.992485
1.00033 1.0021 0.991739
1.00027 1.00292 0.991145
1.00013 1.00347 0.990755
1.00008 1.00279 0.991554
1.00204 0.999705 0.990719
1.00245 0.997984 0.991668
1.00234 0.996628 0.993319
1.00135 1.00064 0.991242
1.00021 1.00258 0.991455
1.0005 1.00372 0.990068
1.00008 1.00011 0.994084
1.00009 1.00032 0.993987
1.00006 1.00121 0.993332
1.00007 1.00162 0.992642
1.00011 1.00258 0.99179
1.00007 1.00338 0.990907
1.00008 1.00404 0.99036
1.00022 1.00292 0.991076
1.00014 1.0019 0.992246
1.00021 1.0023 0.991823
1.0022 0.997727 0.992388
1.00148 0.99963 0.991923
1.00029 1.00229 0.991721
1.00026 1.00227 0.99177
1.00094 1.00215 0.990741
1.00041 1.0033 0.990259
1.00013 1.00246 0.991809
1.00223 0.998057 0.991869
1.00023 1.0027 0.991375
1.00027 1.00288 0.991015
1.00247 0.997285 0.992218
1.00143 1.00144 0.990259
1.00049 1.004 0.989749
1.00013 1.00292 0.991379
1.00293 0.996545 0.991806
1.00031 1.00297 0.991079
1.00034 1.0039 0.990189
1.00231 0.99944 0.990167
1.00065 1.00369 0.989402
1.00417 0.997327 0.989462
1.0001 1.00241 0.991913
1.00012 1.00278 0.991497
1.00022 1.003 0.991161
1.00004 1.0006 0.993809
1.00008 1.00162 0.992631
1.0001 1.00236 0.992056
1.00015 1.00273 0.991427
1.00004 1.00058 0.993836
1.00007 1.00162 0.992712
1.00025 1.00288 0.991152
1.00011 1.00229 0.99202
1.00016 1.00276 0.991448
1.00032 1.003 0.990868
1.00018 1.00281 0.991441
1.00011 1.00232 0.992057
1.00007 1.00162 0.992631
1.00005 1.00059 0.993671
1.00006 1.00163 0.992891
1.00006 1.0006 0.993636
1.00009 0.999227 0.99507
1.00009 0.999202 0.995097
1.00009 0.997202 0.997058
1.00009 0.999185 0.99511
1.00007 0.997203 0.997292
1.00001 0.996033 0.999356
1.00005 0.997247 0.997517
1.00001 0.996076 0.998482
0.999981 0.996123 0.998469
1.00012 0.998862 0.995372
1.00011 0.998955 0.995301
1.00004 0.997145 0.99721
1 0.997278 0.997353
0.999942 0.996137 0.999375
0.999978 0.997429 0.997063
0.999896 0.996284 0.999352
0.999845 0.996452 0.999327
1.00193 0.998564 0.992067
1.00178 0.999991 0.990959
1.00171 1.00023 0.990899
1.00168 1.00013 0.991036
1.00187 0.99937 0.991357
1.00193 0.998768 0.99189
1.00177 0.999567 0.991452
1.00381 0.995929 0.99308
1.00206 0.997282 0.992817
1.00009 1.00004 0.994269
1.00196 0.999892 0.990648
1.0024 0.999045 0.9907
1.00211 0.99777 0.99232
1.00022 1.002 0.991962
1.00034 1.00316 0.990661
1.00087 1.00202 0.990601
1.00173 0.998525 0.992468
1.00035 1.00211 0.991785
1.00026 1.00265 0.991267
1.00012 1.00355 0.990654
1.00009 0.999086 0.995206
1.0001 1.00276 0.991577
1.00009 1.00049 0.994009
1.00008 1.0019 0.992478
1.00008 1.0002 0.993989
1.0021 0.999654 0.990647
1.00009 1.00011 0.994148
1.00009 1.00034 0.993983
1.00006 1.00121 0.993206
1.00245 0.99799 0.991684
1.00232 0.996705 0.993112
1.00024 1.00252 0.99148
1.00042 1.00364 0.99003
1.00132 1.00054 0.991276
1.00007 1.0016 0.992731
1.00012 1.00259 0.991752
1.00023 1.00293 0.991079
1.00009 1.00395 0.990442
1.00008 1.00335 0.990963
1.00231 0.999176 0.9906
1.00277 0.996096 0.992973
1.00215 0.998468 0.991917
1.00072 1.00324 0.990151
1.00004 1.00345 0.990827
1.00004 1.00107 0.9932
1.00007 1.00138 0.992902
1.00007 1.00193 0.992529
1.00009 1.00245 0.991929
1.00013 1.00301 0.991238
1.00003 1.00398 0.990525
1.00002 1.00423 0.990199
1.00013 1.00245 0.991806
1.00022 1.00266 0.99137
1.00221 0.9979 0.991984
1.00241 0.99737 0.992195
1.0015 1.0014 0.990257
1.00028 1.00285 0.990906
1.00045 1.00402 0.989727
1.00013 1.00289 0.991417
1.00291 0.996444 0.991884
1.00028 1.00292 0.991076
1.00023 1.00395 0.990188
1.00244 0.999173 0.990293
1.00067 1.00376 0.989393
1.00415 0.99742 0.990056
1.00019 1.00312 0.991077
1.00315 0.99779 0.98982
1.00022 1.00348 0.990689
1.00003 1.00473 0.989765
1.00106 1.00242 0.989372
0.996343 1.0029 0.97315
0.99974 0.999468 0.989947
1.00367 0.998813 0.989595
0.994246 0.998981 0.986585
0.998132 0.996355 0.988809
1.00011 1.00279 0.991498
1.00021 1.00299 0.991162
1.00035 1.0031 0.990715
1.00004 1.00058 0.993837
1.00007 1.00163 0.992652
1.0001 1.00229 0.992023
1.00015 1.00276 0.991522
1.00025 1.00285 0.991138
1.00012 1.00232 0.991957
1.00005 1.00059 0.993745
1.00006 1.00163 0.992699
1.0003 1.003 0.990923
1.00017 1.00279 0.991417
1.00017 1.00279 0.991511
1.00021 1.00332 0.990829
1.00013 1.00239 0.991786
1.00006 1.00161 0.992661
1.00005 1.0006 0.993645
1.00006 1.00156 0.992851
1.0001 1.00234 0.99208
1.00007 1.00176 0.992614
1.00006 1.00163 0.992766
1.00007 1.00063 0.993721
1.00006 1.00061 0.993639
1.00009 0.999249 0.995036
1.00009 0.999224 0.99507
1.00008 0.997239 0.997042
1.00009 0.999202 0.995096
1.00009 0.997205 0.997058
1.00002 0.996022 0.999354
1.00008 0.997222 0.997072
1.00002 0.996032 0.998917
1.00001 0.996045 0.998482
1.00013 0.998798 0.995414
1.00012 0.998856 0.995372
1.00006 0.997046 0.997266
1.00011 0.99895 0.9953
1.00003 0.997141 0.997419
0.999975 0.996029 0.999391
1.00001 0.997294 0.997129
0.999935 0.996173 0.999367
0.99989 0.996303 0.999346
1.0018 0.999385 0.991423
1.00168 1.00013 0.99104
1.00183 0.99908 0.991778
1.00374 0.99585 0.993098
1.00176 0.999585 0.991396
1.00199 0.997561 0.992501
1.00213 0.998847 0.990861
0.999579 0.999477 0.987023
1.00247 0.9976 0.994289
1.00009 1.00002 0.994298
1.00009 1.00005 0.994268
1.00006 1.00098 0.993419
1.00007 1.00088 0.99348
1.00216 0.999616 0.990574
1.00244 0.998033 0.9917
1.0023 0.996757 0.992904
1.00027 1.00247 0.991505
1.00035 1.00356 0.989991
1.0013 1.00042 0.991311
1.00024 1.00295 0.991081
1.00009 1.00385 0.990523
1.00009 1.00331 0.99102
1.00008 1.00035 0.993979
1.00012 1.00261 0.991714
1.00006 1.00158 0.992821
1.00009 1.00011 0.994211
1.00006 1.0012 0.99308
1.00234 0.999091 0.990732
1.00005 1.00108 0.993324
1.00006 1.00136 0.992983
1.00007 1.00187 0.992512
1.00267 0.996168 0.992996
1.0021 0.998263 0.991945
1.00009 1.00352 0.990805
1.00067 1.00312 0.990198
1.00008 1.00247 0.991956
1.00014 1.00295 0.991258
1.00002 1.00428 0.990207
1.00003 1.00405 0.990468
1.00294 0.997015 0.991084
1.00303 0.996414 0.992321
1.00138 1.00191 0.989948
1.00003 1.00432 0.990175
1.00005 1.00208 0.992299
1.00007 1.00218 0.99215
1.00009 1.00334 0.990983
0.999945 1.00477 0.98986
0.996135 1.00269 0.970706
1.00013 1.00285 0.991455
1.00026 1.00287 0.991074
1.0029 0.996318 0.991962
1.00258 0.998904 0.990419
1.00067 1.00385 0.989383
1.00012 1.00398 0.990187
1.00406 0.997431 0.990649
1.00018 1.00311 0.991102
1.00334 0.997665 0.989793
1.00018 1.00349 0.990693
1.00001 1.00467 0.989803
1.00109 1.00246 0.98942
0.996028 1.00226 0.973997
0.999732 0.999648 0.986095
1.00366 0.998607 0.989694
0.994631 0.999362 0.984808
0.997302 0.997125 0.988881
1.00014 1.00338 0.990861
0.995551 0.999286 0.981675
1.00024 0.995417 0.990403
1.00211 1.00052 0.989618
1.0001 1.00362 0.990538
0.999876 1.00494 0.990178
1.00347 0.999628 0.988808
0.996077 1.00212 0.973666
0.999742 0.99954 0.98706
0.994293 1.00145 0.984861
1.00566 0.994546 0.984127
1.0002 1.00298 0.991163
1.00035 1.00313 0.990726
1.00046 1.00343 0.990229
1.00005 1.00059 0.993819
1.00005 1.00164 0.992768
1.00013 1.00233 0.991858
1.00017 1.00277 0.991392
1.00028 1.00299 0.990977
1.00005 1.0006 0.993647
1.00017 1.00274 0.991477
1.00012 1.0024 0.991892
1.00006 1.0016 0.992729
1.00022 1.00332 0.990725
1.00015 1.00305 0.991189
1.00005 1.0043 0.990183
1.00011 1.00241 0.991881
1.00006 1.0016 0.992817
1.00006 1.00156 0.992849
1.00011 1.00234 0.991973
1.00012 1.00226 0.992026
1.00009 1.0025 0.99183
1.00017 1.00279 0.991448
1.0001 1.00274 0.99156
1.00007 1.00195 0.99241
1.00007 1.00176 0.992614
1.00008 1.00072 0.993602
1.00006 1.00163 0.992641
1.00007 1.00064 0.993652
1.0001 0.999284 0.994991
1.00006 1.00061 0.993642
1.0001 0.999245 0.995036
1.00006 0.997277 0.997472
1.00009 0.999222 0.99507
1.00008 0.997235 0.997262
1.00005 0.996035 0.998457
1.00009 0.997209 0.997057
1.00002 0.996022 0.999352
1.00004 0.996031 0.998477
1.0001 1.00005 0.994264
1.00014 0.998783 0.995419
1.00013 0.998796 0.995413
1.00007 0.996988 0.9973
1.00012 0.99885 0.995371
1.00006 0.997041 0.997269
0.999998 0.995949 0.999403
1.00003 0.997153 0.997617
0.999981 0.996064 0.998963
0.999957 0.996197 0.998511
1.00355 0.995796 0.993117
1.00174 0.999602 0.991341
1.00191 0.99782 0.992186
0.999477 0.999247 0.989636
1.00238 0.997552 0.994385
1.00219 0.998833 0.990768
1.00261 0.999343 0.992137
0.998755 1.00047 0.988494
0.995684 1.00326 0.968725
0.99516 0.998614 0.981951
0.997107 0.996554 0.989559
1.00006 1.0009 0.993358
1.00009 1.00002 0.994296
1.00009 1.00006 0.994267
1.00005 1.00098 0.993379
1.00004 1.00168 0.99282
1.00007 1.00145 0.992957
1.00007 1.00098 0.993405
1.00007 1.0009 0.993433
1.00238 0.999004 0.990864
1.00258 0.996269 0.993019
1.00206 0.9981 0.991974
1.00013 1.00358 0.990783
1.00062 1.00303 0.990245
1.00002 1.00432 0.990215
1.00004 1.00412 0.990412
1.00015 1.00289 0.991278
1.00006 1.00133 0.993063
1.00007 1.00248 0.991984
1.00005 1.00109 0.993449
1.00007 1.00181 0.992495
1.00305 0.997334 0.990958
1.00005 1.00205 0.992338
1.00007 1.00221 0.992162
1.00293 0.99629 0.992327
1.00125 1.0017 0.990016
1.00008 1.00435 0.990033
1.0001 1.00334 0.990974
0.999947 1.00476 0.989889
1.00395 0.995394 0.990495
1.002 1.00095 0.990132
1.00032 1.00379 0.989578
1.00004 1.00504 0.989592
1.00003 1.00256 0.991836
1.00008 1.00297 0.991372
1.00004 1.00429 0.990252
0.996738 0.99848 0.981752
0.996482 1.00319 0.972987
1.00018 1.0031 0.991127
1.00013 1.00349 0.990696
1.00356 0.997663 0.989765
1.00115 1.00255 0.989469
0.999993 1.00462 0.989841
0.996409 1.00295 0.967628
0.999778 0.999455 0.991362
1.00366 0.99833 0.989778
0.994533 0.999535 0.982842
0.99641 0.998033 0.988955
1.00018 1.00331 0.990847
0.996171 0.998252 0.9834
0.999629 0.995736 0.990903
1.0021 1.00061 0.989602
1.00005 1.00389 0.990551
0.999783 1.00495 0.990229
1.00334 1.00025 0.988567
0.995319 1.00239 0.971343
0.999804 1.00015 0.990937
0.99413 1.00046 0.982721
1.00488 0.995599 0.985076
1.00046 1.00305 0.990446
1.00184 0.995015 0.991084
1.01402 0.9954 0.977927
1.00056 1.00311 0.989858
0.999847 1.0038 0.991481
1.00254 0.999878 0.994614
0.999759 0.997516 0.997309
0.995248 1.00209 0.972764
0.994867 0.999778 0.983258
1.01337 0.989943 0.980972
1.00034 1.00316 0.990738
1.00044 1.00343 0.990202
1.00018 1.00409 0.989969
1.00005 1.0006 0.993649
1.00006 1.00159 0.992797
1.00011 1.00241 0.991999
1.00017 1.00269 0.991442
1.00023 1.0033 0.990622
1.00006 1.00159 0.992813
1.00015 1.00297 0.991246
1.00011 1.00241 0.991883
1.00004 1.00433 0.990107
0.999968 1.00494 0.989693
1.00009 1.00354 0.990867
1.00011 1.00234 0.991972
1.00006 1.00157 0.992848
1.00012 1.00234 0.991865
1.00012 1.00227 0.992025
1.00009 1.00251 0.991828
1.00019 1.00275 0.99141
1.00007 1.00274 0.991626
1.00019 1.0028 0.991379
1.00015 1.00304 0.991099
1.00015 1.00287 0.991357
1.00002 1.00254 0.991809
1.00011 1.00251 0.991723
1.0001 1.00273 0.991573
1.0001 1.00205 0.992266
1.00007 1.00195 0.99241
1.0001 1.00087 0.993415
1.00006 1.00176 0.992613
1.00008 1.00073 0.993599
1.0001 0.999349 0.994924
1.00007 1.00065 0.993584
1.0001 0.99928 0.994989
1.00004 0.997335 0.997454
1.0001 0.999239 0.995036
1.00007 0.997276 0.997245
1.00003 0.996052 0.998449
1.00009 0.997228 0.997038
1.00002 0.996036 0.999349
1.00002 0.996022 0.999351
1.00011 1.0001 0.994344
1.00014 0.998813 0.995387
1.00009 1.00004 0.994263
1.00008 0.996978 0.997304
1.00014 0.998784 0.995419
1.00013 0.998793 0.995412
1.00007 0.996991 0.997299
1.00001 0.995906 0.99941
1.00005 0.997043 0.997673
1.00001 0.995959 0.99899
0.999996 0.996072 0.998551
0.996095 0.997157 0.985387
1.00113 0.994769 0.989172
0.999555 0.998905 0.992121
1.00229 0.99765 0.994481
1.00226 0.998833 0.990674
0.998733 1.00054 0.993806
1.0027 0.998975 0.99201
0.996327 1.00247 0.973095
0.994423 0.99884 0.986586
0.996866 0.996644 0.98992
1.00009 0.999681 0.99496
0.995539 1.00252 0.974765
0.994079 1.00113 0.985574
1.00368 0.993535 0.98749
1.00003 1.00177 0.992621
1.00007 1.0009 0.993405
1.00009 1.00003 0.994295
1.00004 1.00099 0.993339
1.00003 1.0016 0.992871
1.00007 1.00168 0.99275
1.00007 1.0014 0.992976
1.00008 1.00123 0.99313
1.00007 1.001 0.993338
1.00006 1.00091 0.993385
1.00313 0.997589 0.990835
1.00285 0.99607 0.992329
1.00111 1.0015 0.990084
1.00012 1.00436 0.98989
0.999948 1.00473 0.989917
1.00011 1.00336 0.990964
1.00007 1.00224 0.992174
1.00005 1.00203 0.992377
1.00413 0.995583 0.990215
1.00003 1.00259 0.99181
1.0001 1.00298 0.991299
1.00193 1.00065 0.990046
1.00036 1.00402 0.989457
1.00006 1.00503 0.989483
1.00006 1.0043 0.990168
1.0037 0.998072 0.988878
1.00017 1.00468 0.98968
1.00003 1.00482 0.989591
1.00006 1.00257 0.991796
1.00012 1.003 0.991286
1.00019 1.00352 0.990626
1.00335 0.995858 0.98598
0.996533 0.998867 0.97998
0.996131 1.0028 0.97045
1.00023 1.00324 0.990833
1.00002 1.00413 0.990565
1.00209 1.00068 0.989586
0.999669 1.00494 0.990279
0.996404 0.998816 0.980286
0.995337 1.00185 0.977397
0.999836 0.999453 0.987215
1.00319 1.00073 0.988415
0.993912 1.00005 0.986172
0.999801 0.99598 0.990358
1.00223 0.997 0.986143
1.00042 1.00329 0.990415
1.00215 0.995306 0.988896
1.01379 0.995389 0.978193
1.00053 1.00327 0.989929
0.999713 1.00362 0.991488
1.00341 1.00189 0.989087
0.999826 0.99831 0.991101
0.995514 1.00209 0.973758
0.996186 0.998668 0.987484
1.01184 0.990248 0.982024
1.00013 1.00299 0.991271
1.01623 0.995769 0.977146
1.02231 0.9885 0.974263
0.999035 1.0034 0.992823
0.999213 0.997431 1.00183
0.995377 0.999582 0.976568
0.998096 0.999079 0.985083
1.01469 0.98633 0.982861
1.00042 1.00343 0.990175
1.00024 1.00397 0.990091
1.00021 1.00417 0.990217
1.00006 1.00159 0.99281
1.00011 1.00241 0.991885
1.00014 1.0029 0.991303
1.00003 1.00436 0.990031
1.00011 1.00234 0.991969
1.0001 1.00349 0.990886
0.999956 1.00493 0.989658
0.999961 1.00496 0.989805
1.00011 1.00433 0.989979
1.00019 1.00296 0.991264
1.00011 1.00227 0.992024
1.00009 1.00252 0.991826
1.0002 1.0027 0.991372
1.0002 1.00278 0.991392
1.00007 1.00274 0.991634
1.00016 1.003 0.991131
1.00013 1.0032 0.991049
1.00023 1.00318 0.990862
1.00015 1.0031 0.991128
1.00015 1.00289 0.991355
1.00003 1.0028 0.991526
1.00021 1.00247 0.991637
1.00015 1.00208 0.992222
0.999993 1.00243 0.992014
1.00012 1.0025 0.991763
1.00012 1.00198 0.992212
1.00011 1.00272 0.991586
1.0001 1.00204 0.992274
1.00012 1.00103 0.993223
1.00007 1.00195 0.99241
1.0001 1.00088 0.993412
1.00009 0.999458 0.994824
1.00008 1.00074 0.993596
1.0001 0.999351 0.99492
1.00002 0.997414 0.997427
1.0001 0.999276 0.994988
1.00005 0.997337 0.997223
1 0.996122 0.998438
1.00007 0.997267 0.99702
1.00002 0.996063 0.998898
1.00001 0.996043 0.999347
1.00012 1.00025 0.994063
1.00013 0.998877 0.995331
1.00011 1.0001 0.994208
1.00007 0.997013 0.997278
1.00013 0.998816 0.995388
1.00009 1.00004 0.994262
1.00001 0.9959 0.999409
1.00008 0.996977 0.997304
1.00014 0.998783 0.995419
1.00007 0.996994 0.997299
1.00001 0.995909 0.999408
0.999996 0.995953 0.999401
1.00274 0.995368 0.988284
0.995992 0.998116 0.982941
1.01416 0.993373 0.980135
1.00047 0.994804 0.989361
0.998743 1.00109 0.988079
1.00281 0.998596 0.991868
0.995944 1.00176 0.97783
0.994718 0.999492 0.982638
0.99659 0.99668 0.99028
1.00013 0.999715 0.99247
0.995376 1.00215 0.973207
0.994235 1.00084 0.982832
1.00397 0.99339 0.987802
1 0.998642 0.995104
0.994962 1.00176 0.97349
0.995822 0.998591 0.986698
1.01305 0.986627 0.984999
1.00007 1.00218 0.992225
1.00004 1.00175 0.992693
1.00007 1.00091 0.993451
1.00002 1.00153 0.992922
1.00009 1.00195 0.992359
1.00007 1.00164 0.992798
1.00007 1.00135 0.992996
1.0001 1.00138 0.993024
1.00008 1.00122 0.993197
1.00007 1.00102 0.99327
1.0043 0.995822 0.989934
1.00186 1.00035 0.989964
1.00042 1.00432 0.989335
1.00008 1.00504 0.989375
1.00008 1.00431 0.990084
1.00011 1.003 0.991227
1.00003 1.00261 0.991783
1.00006 1.00256 0.991822
1.00379 0.99794 0.988911
1.0001 1.00301 0.991326
1.00018 1.00365 0.990573
1.00016 1.00485 0.989544
1.0001 1.0048 0.989586
1.00272 1.00021 0.98907
0.999626 1.00506 0.990317
1.00028 1.00377 0.990187
1.00015 1.00281 0.991396
1.00027 1.00316 0.990794
1.01668 0.997024 0.976399
1.00335 0.995518 0.986975
0.996697 0.997857 0.983874
1.00038 1.00358 0.990383
0.999576 1.00354 0.991496
1.00054 1.0033 0.989995
1.00279 0.995818 0.98779
0.995166 1.00152 0.972713
0.999789 0.997904 0.995486
1.00426 1.00422 0.983448
0.995157 0.998901 0.983732
1.01361 0.995412 0.97846
1.01209 0.990253 0.981513
1.00013 1.00282 0.991369
1.01693 0.996259 0.97541
1.02263 0.988303 0.974178
0.999272 1.00316 0.992239
0.999331 0.998295 0.998015
0.995118 1.00104 0.974738
1.01525 0.986915 0.981928
0.998 0.998625 0.983721
0.999972 1.00228 0.992213
1.02322 0.991951 0.970664
1.02577 0.98447 0.97527
1.0127 0.988831 0.983471
0.996954 1.00131 0.998057
0.995128 0.998596 0.978987
0.998211 1.00036 0.98281
1.0003 1.00383 0.990212
1.00022 1.0042 0.990042
0.999792 1.00436 0.990668
1.00011 1.00234 0.991966
1.0001 1.00345 0.990905
0.999952 1.00492 0.989622
1.00019 1.00293 0.991294
1.00012 1.00432 0.989977
0.999993 1.00496 0.989605
0.99989 1.00453 0.99025
1.00029 1.00345 0.990465
1.0002 1.00277 0.991404
1.00006 1.00275 0.991642
1.00018 1.00296 0.991162
1.00023 1.00316 0.990865
1.00014 1.00318 0.991035
1.00003 1.00362 0.990829
1.0001 1.00297 0.991342
1.00005 1.00377 0.990682
1.00016 1.00291 0.991353
1.00009 1.00284 0.991519
1.00022 1.00289 0.991026
1.00018 1.00229 0.99185
1.00012 1.00195 0.992327
1.00017 1.00248 0.991653
1.00016 1.00174 0.992473
1.00014 1.0021 0.992198
0.999966 1.00232 0.99222
1.00014 1.00249 0.991804
1.00012 1.00197 0.992252
1.00014 1.0011 0.993114
1.0001 1.00204 0.99228
1.00012 1.00102 0.993225
1.00009 0.999601 0.994693
1.0001 1.00088 0.993409
1.00009 0.999464 0.994819
0.999987 0.997509 0.997381
1.0001 0.999352 0.994916
1.00002 0.99742 0.997192
0.999966 0.99621 0.998421
1.00005 0.997329 0.996997
0.999993 0.99613 0.998891
1 0.99609 0.999343
1.00013 1.0004 0.993709
1.00012 0.998987 0.995069
1.00012 1.00025 0.99406
1.00007 0.997083 0.997227
1.00013 0.998886 0.995245
1.0001 1.00011 0.994072
1.00001 0.995926 0.999401
1.00007 0.997007 0.99728
1.00013 0.998819 0.995389
1.00001 0.995898 0.99941
1.00008 0.996976 0.997305
1.00001 0.995912 0.999407
1.01571 0.995687 0.977577
1.00262 0.995611 0.986973
0.9962 0.998221 0.98165
1.00014 1.00153 0.992692
1.02233 0.987484 0.976154
1.0143 0.993074 0.980436
1.0005 0.995157 0.988345
1.00015 0.999206 0.990078
0.995548 1.00259 0.975074
0.994416 1.0013 0.986239
1.00306 0.993256 0.988222
1.00004 0.998752 0.989367
0.994884 1.00201 0.97471
0.996641 0.998516 0.984862
1.01153 0.98914 0.985117
0.999948 0.998138 0.988512
0.99484 1.00114 0.970818
0.999409 0.997365 0.980723
1.01517 0.984995 0.983271
1.00016 1.00239 0.991756
1.00007 1.00221 0.992175
1.00004 1.00173 0.992765
1.00012 1.00205 0.992187
1.0001 1.00191 0.99244
1.00008 1.00159 0.992845
1.00011 1.00135 0.993055
1.00008 1.0012 0.993265
1.00389 0.99778 0.988941
1.00015 1.00498 0.989408
1.00006 1.00255 0.991848
1.00018 1.0048 0.989582
1.00018 1.00372 0.990519
1.00008 1.00304 0.991367
1.00015 1.00281 0.991411
1.00278 1.00028 0.98911
1.00027 1.00317 0.990795
1.00029 1.00384 0.990149
0.9996 1.00504 0.990266
1.00022 1.00277 0.991347
1.002 1.00055 0.991021
0.999546 1.00455 0.990992
1.00038 1.00294 0.990786
1.00026 1.00311 0.990982
1.02237 0.99459 0.97025
1.0164 0.996628 0.976476
1.00332 0.995239 0.98797
1.00014 1.0026 0.991467
0.999503 1.00283 0.991651
1.01762 0.996714 0.973674
0.994976 0.999928 0.976314
1.00011 0.998856 0.990957
0.998793 0.998477 0.981442
1.02284 0.98804 0.974094
1.01588 0.987503 0.980995
0.999979 1.00264 0.99204
1.02317 0.991889 0.97068
1.02583 0.983753 0.974349
0.996952 1.0022 0.998467
1.01117 0.990611 0.98401
0.994891 0.998766 0.978446
0.999027 0.999725 0.979619
0.99865 1.00292 0.994438
1.02452 0.990426 0.970856
1.02294 0.989491 0.973031
1.00327 0.994632 0.986847
0.999199 0.998105 0.980843
0.996598 0.998817 1.00521
0.994848 1.00034 0.974079
1.0002 1.00425 0.989867
0.999911 1.00421 0.990624
0.999454 1.00484 0.990057
1.00019 1.0029 0.991323
1.00012 1.0043 0.989975
1.00003 1.00496 0.989406
1.00027 1.00346 0.99048
0.99993 1.00451 0.990152
0.999759 1.00435 0.990672
1.00024 1.00315 0.990868
1.00014 1.00317 0.991022
1.00008 1.00359 0.990811
0.999833 1.00453 0.990308
1.00003 1.00285 0.991556
0.999979 1.00369 0.990776
1.00009 1.00408 0.990262
1.00046 1.0026 0.991035
1.00015 1.00287 0.991511
1.00025 1.00297 0.990957
1.0002 1.00203 0.992209
1.00002 1.00203 0.992372
1.00018 1.00221 0.991929
1.00012 1.00163 0.992658
1.00013 1.00196 0.992312
1.00013 1.00249 0.991669
1.00016 1.00104 0.993142
1.00016 1.00174 0.992446
1.00013 1.00211 0.992175
1.00012 1.00196 0.992292
1.00015 1.00108 0.993121
1.00008 0.999735 0.994568
1.00013 1.00101 0.993228
1.00008 0.999605 0.99469
0.999965 0.997633 0.99686
1.00009 0.999469 0.994814
0.999997 0.99752 0.996915
0.99991 0.996311 0.999323
1.00003 0.997415 0.996963
0.999962 0.996217 0.998879
0.999976 0.996159 0.999337
1.00014 1.00056 0.99351
1.00011 0.999148 0.994919
1.00013 1.00041 0.993784
1.00005 0.997186 0.99716
1.00012 0.999006 0.995052
1.00012 1.00025 0.994056
0.999998 0.99598 0.999388
1.00006 0.997076 0.99723
1.00012 0.998897 0.995159
1.00001 0.995921 0.999404
1.00007 0.997002 0.997281
1.00001 0.995896 0.99941
1.02218 0.992606 0.97193
1.01581 0.995155 0.977631
1.00274 0.995568 0.98686
1.00014 1.00153 0.992713
1.00018 1.00167 0.992411
1.00014 1.00222 0.992112
1.02493 0.982369 0.978463
1.02278 0.986801 0.976059
1.01443 0.992769 0.980738
1.00003 0.99875 0.994237
0.995206 1.00235 0.973231
0.99536 0.998126 0.983822
1.01133 0.990292 0.984785
0.999846 0.998399 0.993006
0.994787 1.00041 0.97564
0.998219 0.998924 0.984072
1.01548 0.985661 0.982835
0.999165 0.996382 0.995422
0.994871 1.00062 0.976922
0.99992 1.0001 0.979826
1.01283 0.98747 0.983813
1.00019 1.0026 0.991545
1.00015 1.00242 0.991752
1.00007 1.00225 0.992126
1.00012 1.00207 0.992184
1.0001 1.00187 0.992521
1.00011 1.00134 0.993086
1.00285 1.00039 0.989149
0.999593 1.00501 0.990216
1.00014 1.0028 0.991425
1.0003 1.00388 0.990111
1.00026 1.00321 0.990796
1.00022 1.00272 0.991373
1.00027 1.00306 0.990931
1.00201 1.00016 0.990897
1.00041 1.00288 0.990895
0.999499 1.00446 0.991295
1.00023 1.00294 0.990984
0.999755 1.00287 0.992976
0.999841 1.00153 0.992988
1.00028 1.00325 0.99067
1.02344 0.9926 0.970231
1.0222 0.994088 0.970271
1.01612 0.996178 0.976553
0.999969 1.00299 0.991868
0.997021 0.999752 0.999709
1.02314 0.991835 0.970696
0.995314 0.999083 0.987973
0.999598 1.00017 0.982475
1.02594 0.983126 0.973429
1.01093 0.991653 0.983781
0.99892 1.00263 0.994074
1.02426 0.990569 0.970597
1.02343 0.988879 0.972917
0.996583 0.999469 0.997389
1.00362 0.99444 0.987297
0.998047 0.999461 0.983799
0.994896 1.00021 0.978105
0.998896 1.00374 0.99639
1.02267 0.994081 0.969574
1.01451 0.994509 0.978348
0.997132 0.997625 0.988966
0.995739 0.998831 0.98613
0.995099 1.0002 0.976877
0.998406 0.996381 0.995519
1.00003 1.00407 0.99058
0.999477 1.00483 0.990153
0.99925 1.00496 0.990547
1.00026 1.00347 0.990495
0.999968 1.0045 0.990054
0.999723 1.00439 0.990653
0.999645 1.00505 0.990125
1.00013 1.00357 0.990793
0.999937 1.00453 0.990207
1.00001 1.00504 0.989522
0.999914 1.00359 0.990871
1.00011 1.00413 0.990212
1.00048 1.00379 0.989981
1.00058 1.00267 0.990817
1.00026 1.00199 0.991842
1.00043 1.0027 0.990946
1.00028 1.00307 0.990889
1.00018 1.00173 0.992534
1.00017 1.00191 0.992297
1.00002 1.00173 0.992687
1.00003 1.00201 0.992425
1.00019 1.00213 0.992007
1.00012 1.00101 0.993243
1.00013 1.0016 0.992662
1.00014 1.00197 0.992298
1.00007 0.999814 0.994503
1.00016 1.00102 0.99315
1.00016 1.00173 0.992419
1.00015 1.00106 0.993127
1.00008 0.999734 0.994568
0.999935 0.997759 0.996791
1.00008 0.99961 0.994687
0.999967 0.997641 0.996855
0.999881 0.996446 0.999311
1 0.997523 0.996915
0.999922 0.996327 0.998861
0.999945 0.996246 0.999328
1.00016 1.00075 0.993417
1.0001 0.999305 0.994959
1.00014 1.00057 0.993572
1.00002 0.997317 0.997078
1.00011 0.999159 0.994997
1.00014 1.00042 0.99386
0.999976 0.996063 0.999372
1.00005 0.997176 0.997164
1.00012 0.999023 0.995034
1 0.995974 0.999392
1.00006 0.997069 0.997233
1.00001 0.995915 0.999407
1.02389 0.989219 0.973196
1.02232 0.992262 0.972
1.01593 0.994692 0.977683
1.00019 1.0018 0.992264
1.00022 1.00218 0.991925
1.00014 1.00153 0.992734
1.00017 1.0017 0.992385
1.00015 1.00222 0.992023
1.00018 1.00233 0.991838
1.00016 1.00263 0.991577
1.02114 0.98829 0.976454
1.02501 0.981789 0.977545
1.02324 0.986029 0.975963
1.01581 0.986209 0.982399
0.999725 0.998458 0.988578
0.994785 1.00002 0.979925
0.998329 0.999482 0.980745
0.998797 0.996921 0.99267
0.994857 0.999458 0.974104
0.999522 0.999479 0.978633
1.01199 0.988477 0.983702
0.997025 0.997508 0.997037
0.995456 1.00019 0.97245
0.999736 0.998187 0.983971
1.00529 0.99386 0.98538
1.00026 1.00274 0.991272
1.00019 1.00261 0.991524
1.00014 1.00244 0.991749
1.00013 1.00208 0.992181
1.00202 1.00023 0.99077
0.99939 1.00445 0.9916
1.00021 1.00268 0.991398
1.00027 1.00304 0.99088
1.00045 1.00283 0.991004
1.00024 1.00298 0.991002
1.00031 1.00323 0.990609
0.999353 1.00301 0.993985
0.999808 1.00143 0.993328
1.00026 1.00359 0.99051
0.997632 1.00339 0.998092
1.00019 1.0039 0.990444
1.02208 0.99604 0.969297
1.02321 0.992514 0.970125
1.02204 0.99362 0.970291
0.999229 1.00234 0.993721
0.99656 0.998467 1.00456
1.02397 0.990692 0.970337
0.994814 1.00034 0.97384
0.99748 0.999957 0.981094
1.02392 0.988146 0.972803
1.00276 0.99444 0.987522
0.998749 1.0038 0.996174
1.0228 0.993866 0.969595
1.01462 0.994316 0.978654
0.99833 0.99624 1.00262
0.996766 0.99751 0.98937
0.99658 0.999125 0.984252
0.995035 1.00014 0.976496
1.0005 1.00145 0.995592
1.01617 0.99685 0.975664
1.00128 0.995394 0.988412
0.994294 1.00174 0.984399
0.995021 1.00132 0.975317
0.999141 0.99557 0.990765
0.999525 1.00481 0.990247
0.999253 1.00496 0.990533
0.999808 1.00485 0.990021
0.999689 1.00443 0.990634
0.999521 1.00507 0.99022
1.00014 1.00498 0.98932
1.00005 1.00454 0.990106
1.00007 1.00504 0.989399
1.00053 1.00425 0.989288
1.00014 1.00413 0.990161
1.0005 1.00382 0.989851
1.00068 1.00307 0.990199
1.0008 1.00195 0.990991
1.00054 1.00213 0.991478
1.00057 1.00268 0.990768
1.0002 1.00162 0.992363
1.00027 1.002 0.991905
1.00041 1.00279 0.990856
1.00012 1.00161 0.992689
1.00016 1.00174 0.992509
1.00014 1.00179 0.992385
1.00006 1.00111 0.993254
1.00003 1.0017 0.992712
1.00005 1.00198 0.992477
1.00004 0.999877 0.994501
1.00013 1.00098 0.993248
1.00014 1.00158 0.992666
0.999915 0.997876 0.996739
1.00007 0.999811 0.994508
1.00017 1.001 0.993158
1.00008 0.999734 0.994569
0.999935 0.997768 0.996787
0.999844 0.996575 0.999295
0.999968 0.997649 0.996851
0.999878 0.996458 0.999306
0.999911 0.99635 0.999317
1.0002 1.00185 0.992254
1.00018 1.00095 0.993177
1.00008 0.99949 0.994802
1.00016 1.00075 0.993417
0.999995 0.997469 0.996985
1.0001 0.999305 0.994962
1.00014 1.00057 0.993635
0.999946 0.996175 0.999351
1.00002 0.997308 0.997082
1.00011 0.99917 0.995075
0.999979 0.996053 0.999377
1.00005 0.997167 0.997167
1 0.995967 0.999396
1.02224 0.993245 0.9709
1.02371 0.989345 0.972658
1.02246 0.991936 0.972071
1.00019 1.00182 0.992285
1.00022 1.00218 0.991892
1.00021 1.00211 0.991945
1.00021 1.00223 0.991811
1.00022 1.00239 0.991735
1.00017 1.00173 0.992358
1.00016 1.00222 0.991935
1.00018 1.00232 0.991846
1.00018 1.0026 0.991551
1.00018 1.00272 0.991464
1.01294 0.996847 0.978412
1.02143 0.988217 0.976322
1.02511 0.98127 0.976627
1.01218 0.988189 0.983323
1.00075 0.999759 0.981104
0.998535 0.996717 0.990714
0.9949 0.999595 0.976574
0.996634 0.997782 0.991987
0.99489 1.00015 0.975849
0.999006 0.998047 0.982749
1.00453 0.995129 0.986097
0.995418 0.999999 0.992959
0.994947 0.999505 0.976993
0.995603 0.999418 0.983209
0.998191 0.995071 0.990342
1.00011 1.00278 0.991488
1.00022 1.00282 0.991267
1.00019 1.00262 0.991503
0.999099 1.0027 0.994993
0.999751 1.00128 0.993669
1.00024 1.003 0.991019
1.00034 1.00321 0.990548
1.00022 1.00357 0.990555
0.99998 1.00407 0.990334
0.99748 1.00282 0.99811
0.999629 1.0045 0.990373
0.998716 1.00493 0.994309
1.01627 0.998443 0.975677
1.02189 0.995528 0.969392
1.02301 0.992466 0.970019
0.998582 1.00376 0.995982
0.998233 0.996246 0.993906
1.02294 0.993667 0.969616
0.995108 1.00008 0.970537
0.995406 0.998519 0.98329
1.01473 0.994138 0.97896
0.99641 0.997381 0.989774
1.00041 1.0016 0.995787
1.01629 0.996392 0.97567
1.00056 0.995397 0.988668
0.999363 0.995443 0.994125
0.994247 1.00161 0.982246
0.994992 1.00095 0.972338
1.00171 1.00008 0.993132
1.00305 0.995947 0.98724
0.995133 0.998669 0.981591
0.995142 1.00201 0.973096
0.999801 0.99752 0.992049
0.999272 1.00495 0.990519
0.999714 1.00489 0.989991
1.00053 1.00424 0.98955
0.999409 1.00509 0.990314
1.00006 1.00497 0.989367
1.00094 1.00326 0.989436
1.00014 1.00505 0.989277
1.00051 1.00415 0.989327
1.00105 1.00208 0.990538
1.00051 1.00388 0.989721
1.0007 1.00286 0.990257
1.00103 1.00123 0.991264
1.00111 1.00073 0.991561
1.0007 1.00178 0.99132
1.00082 1.00184 0.991022
1.00039 1.00176 0.992028
1.0005 1.00218 0.991375
1.00056 1.00269 0.99072
1.00017 1.00141 0.992746
1.0002 1.0016 0.992429
1.00028 1.00202 0.991969
1.00004 1.00122 0.99319
1.0001 1.00161 0.99269
1.00014 1.00175 0.992484
0.999976 1.00001 0.994479
1.00007 1.0011 0.993253
1.00004 1.00168 0.992737
0.99986 0.997966 0.997208
1.00004 0.999877 0.994504
1.00014 1.00096 0.993254
0.999821 0.996698 0.998299
0.999902 0.997883 0.996981
1.00007 0.999808 0.994512
0.999935 0.997778 0.996784
0.99984 0.996582 0.99929
0.999874 0.996468 0.999301
1.00021 1.00184 0.992219
1.00019 1.00112 0.993005
1.0002 1.00187 0.992228
1.00007 0.99969 0.994627
1.00018 1.00096 0.993175
0.999964 0.997623 0.996891
1.00008 0.999482 0.994808
1.00016 1.00076 0.993418
0.99991 0.99631 0.999329
0.999992 0.997459 0.996989
1.0001 0.999305 0.994965
0.999951 0.996162 0.999357
1.00002 0.997298 0.997086
0.999983 0.996044 0.999382
1.01621 0.998679 0.973324
1.02226 0.99317 0.97097
1.02348 0.989438 0.97212
1.00023 1.00196 0.992092
1.00018 1.00184 0.992306
1.00022 1.00219 0.991858
1.0002 1.00225 0.99186
1.00022 1.00212 0.991978
1.00021 1.00234 0.991759
1.00023 1.00233 0.991715
1.00017 1.00253 0.991595
1.00017 1.00232 0.991854
1.00019 1.00258 0.991525
1.00017 1.00273 0.991472
1.00026 1.00289 0.991351
0.999989 0.994997 0.991413
1.01261 0.996975 0.978728
1.02176 0.988149 0.976191
1.00274 0.996621 0.986793
0.999214 0.997698 0.98099
0.995416 1.00017 0.972486
0.996008 0.997702 0.999725
0.995165 0.999911 0.99915
0.997207 0.995742 0.990822
0.994982 1.00039 0.97213
0.996314 0.99809 0.986932
0.996234 1.0002 0.997654
0.994851 0.999606 0.978051
0.994062 0.999816 0.986794
0.9998 1.00279 0.992052
1.00019 1.0027 0.991492
1.00018 1.00291 0.991262
0.997363 1.00224 0.998139
0.99986 1.00418 0.990221
1.00017 1.00357 0.990598
0.999718 1.00454 0.990416
0.998604 1.00488 0.994367
0.999373 1.00241 0.993788
1.0022 0.99563 0.989746
1.01643 0.998579 0.973791
1.02171 0.995025 0.969487
1.0003 1.00177 0.995998
0.999374 0.995834 0.996231
1.01641 0.995989 0.975675
0.995004 0.999846 0.979123
0.994493 1.00196 0.985452
1.00052 0.995558 0.987716
1.0017 1.00006 0.993394
1.00293 0.996108 0.986037
0.994518 0.999087 0.986247
0.999771 0.997463 0.988351
0.994991 1.0021 0.9744
1.00273 0.999702 0.990092
0.996298 0.99668 0.985282
0.995405 1.00264 0.974601
0.999832 0.998583 0.98796
0.999641 1.00493 0.98996
1.00034 1.00409 0.989524
1.00114 1.00201 0.989992
0.99995 1.00496 0.989414
1.00097 1.00309 0.98946
1.00184 0.99955 0.991549
1.00047 1.00406 0.989365
1.00103 1.00181 0.990612
1.00149 0.999307 0.992317
1.00073 1.00266 0.990315
1.00106 1.00106 0.991295
1.00138 0.999409 0.99232
1.00125 0.999704 0.992307
1.00098 1.00094 0.991637
1.0011 1.00066 0.991629
1.00055 1.0015 0.991786
1.0007 1.00175 0.991391
1.00084 1.00172 0.991054
1.00024 1.00142 0.992609
1.00034 1.00177 0.99202
1.00045 1.00222 0.991272
1.00006 1.00119 0.993176
1.00019 1.00141 0.99274
1.0002 1.00159 0.992495
0.99991 1.00026 0.994379
1.00005 1.0012 0.993196
1.00008 1.00161 0.992691
0.999806 0.998097 0.996706
0.999982 1.00002 0.994477
1.00008 1.0011 0.993253
0.999743 0.996792 0.999278
0.999861 0.997975 0.996717
1.00004 0.999877 0.994507
0.999805 0.9967 0.999278
0.999901 0.997889 0.996736
0.999836 0.996589 0.999286
1.0002 1.00178 0.992372
1.0002 1.00186 0.992238
1.00018 1.00121 0.992916
1.00006 0.99988 0.99445
1.00018 1.00113 0.993
1.0002 1.00188 0.992202
0.99993 0.997782 0.996796
1.00007 0.999678 0.994631
1.00017 1.00097 0.993173
0.999871 0.996449 0.999307
0.999961 0.997613 0.996896
1.00009 0.999472 0.994813
0.999915 0.996293 0.999335
0.999989 0.997448 0.996993
0.999955 0.996147 0.999364
1.00145 0.994928 0.992013
1.01633 0.998724 0.973365
1.02227 0.993107 0.971039
1.00023 1.00197 0.992065
1.00019 1.0019 0.99231
1.00028 1.00203 0.991922
1.0002 1.00228 0.991909
1.00022 1.00213 0.992011
1.00021 1.00228 0.991783
1.00018 1.00252 0.991616
1.00024 1.0023 0.991743
1.00013 1.00272 0.991543
1.00017 1.00271 0.991449
1.00016 1.00274 0.991479
1.00019 1.00287 0.991369
0.994215 0.998499 0.987061
0.999317 0.994683 0.992288
1.01236 0.997077 0.979045
0.996314 0.996267 0.991305
0.995696 0.998288 0.983652
0.994884 1.0001 0.980425
0.994911 1.00006 0.992996
0.996191 1.0002 0.99172
0.993963 0.999213 0.983849
0.994815 0.999894 0.978574
0.997951 0.99725 0.991828
0.994868 1.00098 0.975293
0.999771 1.004 0.991307
0.999924 1.00256 0.99206
1.00028 1.00262 0.991495
0.99834 1.00489 0.994442
0.999794 1.00457 0.990459
1.00002 1.00242 0.993743
1.00161 0.999879 0.993233
0.996807 0.997766 0.98241
1.00264 0.995722 0.988663
1.01656 0.998655 0.971905
1.00188 1.00004 0.993615
0.999764 0.997533 0.993599
1.00307 0.996184 0.985886
0.995101 1.00234 0.972941
0.994888 0.999782 0.982259
1.00272 0.999716 0.990753
0.996348 0.997816 0.982654
0.995472 1.00214 0.973109
0.99969 0.998557 0.992594
1.00292 0.999815 0.989167
0.995898 1.00265 0.968796
0.999896 0.998489 0.994947
1.00013 1.00387 0.989499
1.001 1.00238 0.989913
1.00236 0.997825 0.991611
1.00101 1.00293 0.989485
1.0018 0.99932 0.991556
1.0022 0.996483 0.993785
1.00101 1.00156 0.990686
1.00151 0.999105 0.992323
1.00185 0.997407 0.993399
1.00108 1.00089 0.991327
1.00138 0.999373 0.992316
1.00152 0.998495 0.992918
1.00135 0.99919 0.992707
1.00125 0.999617 0.99239
1.00113 1.00006 0.992205
1.00087 1.0009 0.991893
1.00097 1.00095 0.991653
1.00109 1.00059 0.991697
1.00042 1.00127 0.99228
1.00056 1.00152 0.991856
1.0007 1.00171 0.991461
1.00011 1.00117 0.993106
1.00025 1.00142 0.9926
1.0003 1.00177 0.992011
0.999872 1.00047 0.994248
1.00008 1.00117 0.993182
1.0002 1.00141 0.992733
0.999725 0.998307 0.996655
0.999921 1.00024 0.994381
1.00006 1.00118 0.993203
0.999701 0.996936 0.99927
0.999804 0.998113 0.996704
0.999988 1.00003 0.994475
0.999754 0.996797 0.998783
0.999861 0.997989 0.996718
0.999794 0.996698 0.999275
1.00016 1.00172 0.992513
1.0002 1.00178 0.992321
1.00016 1.00127 0.992886
1.0002 1.00188 0.992257
1.00018 1.00122 0.992911
1.00006 1.00004 0.994302
0.999897 0.997942 0.996696
1.00007 0.999871 0.994451
1.00018 1.00114 0.992995
0.999829 0.996596 0.999286
0.999928 0.99777 0.996801
1.00008 0.999667 0.994635
0.999875 0.996436 0.999314
0.999957 0.997603 0.996901
0.99992 0.996278 0.999342
0.995569 0.998474 0.98245
1.00124 0.995101 0.991539
1.01642 0.998771 0.973406
1.00024 1.00197 0.992038
1.00026 1.00205 0.991925
1.00017 1.00188 0.992334
1.00012 1.00191 0.992418
1.00019 1.0021 0.992066
1.00019 1.00251 0.991636
1.00024 1.00228 0.991771
1.00011 1.00269 0.991565
1.00004 1.00223 0.991987
1.00007 1.00277 0.991467
1.00031 1.00337 0.991071
1.00013 1.0029 0.991389
1.00013 1.00286 0.991387
0.9958 1.00153 0.970609
0.994391 0.999419 0.985225
0.999287 0.994886 0.991569
0.993899 0.99857 0.987538
0.994875 0.999855 0.972237
0.9962 1.00025 0.997948
0.998211 0.99757 0.994549
0.994913 1.00022 0.977158
1.00082 0.996929 0.991818
1.00162 1.00292 0.988817
0.999685 1.00393 0.991233
1.00003 1.00234 0.992067
1.00061 1.00228 0.993679
1.00173 0.998878 0.993118
0.996322 1.00144 0.971466
0.996618 0.997949 0.980753
1.00308 0.995908 0.987579
1.00273 0.999691 0.991436
0.999562 0.998788 0.988087
0.996527 0.997893 0.98129
0.995441 1.00234 0.975078
1.00304 0.999897 0.989152
0.996609 1.00191 0.973092
0.999878 0.998647 0.989376
1.00368 0.99785 0.989201
1.00012 0.999483 0.995104
1.00088 1.00281 0.989831
1.0024 0.99803 0.991528
1.00306 0.99531 0.993093
1.00174 0.999091 0.991564
1.0021 0.996474 0.993763
1.0023 0.995713 0.994124
1.00156 0.998873 0.992329
1.00182 0.997448 0.993344
1.00187 0.997372 0.993352
1.00139 0.999343 0.992311
1.00152 0.998555 0.992876
1.00153 0.998595 0.992845
1.00131 0.999096 0.992799
1.00128 0.999574 0.992467
1.00125 0.999531 0.992473
1.00114 1.00006 0.992189
1.00107 1.00028 0.992114
1.00069 1.00087 0.992158
1.00086 1.00092 0.991878
1.00096 1.00098 0.991669
1.00024 1.00109 0.992918
1.00041 1.0013 0.992323
1.00056 1.00154 0.991927
0.999849 1.00067 0.994094
1.00012 1.00116 0.993103
1.00026 1.00143 0.992591
0.999646 0.99855 0.996559
0.999889 1.00044 0.994252
1.00009 1.00115 0.993187
0.999623 0.997102 0.999262
0.999726 0.998327 0.996651
0.99993 1.00023 0.994383
0.999687 0.996936 0.999269
0.999803 0.99813 0.996702
0.999741 0.996802 0.999271
1.0001 1.00179 0.992518
1.00015 1.00173 0.992517
1.00011 1.00135 0.992853
1.0002 1.00177 0.99227
1.00016 1.00128 0.992848
1.00003 1.00019 0.9942
1.00017 1.00123 0.992906
1.00006 1.00003 0.994301
0.999863 0.998091 0.996609
0.999788 0.99674 0.999263
0.999897 0.997927 0.996702
1.00007 0.999863 0.994452
0.999834 0.996584 0.999292
0.999925 0.997759 0.996807
0.99988 0.996422 0.99932
0.996082 1.00215 0.974512
0.995632 0.998355 0.984579
1.0013 0.994792 0.992232
1.00024 1.00208 0.991927
1.00015 1.00187 0.992359
1.00019 1.0021 0.99208
1.00012 1.00191 0.992415
1.00006 1.00204 0.992388
1.00006 1.00206 0.992251
1.0001 1.00265 0.991586
1.00007 1.00232 0.991957
1.00001 1.00292 0.991475
1.00008 1.00213 0.991971
1.00066 1.0027 0.99134
1.00113 1.00313 0.989301
1.00026 1.003 0.991043
1.0001 1.00309 0.991329
1.00003 0.998932 0.993396
0.995194 1.00192 0.974434
0.994664 0.999125 0.98239
0.994863 1.00097 0.975375
0.998578 0.997741 0.997505
1.0007 0.997248 0.994892
1.004 0.998012 0.989672
1.00116 1.00251 0.989221
0.99959 1.00387 0.991156
1.0018 0.998353 0.99301
0.998693 1.00156 0.988057
0.996589 1.00199 0.973847
0.996648 0.997127 0.984548
1.00315 1.00001 0.989141
0.999792 0.998657 0.993914
0.996266 1.00101 0.977677
1.00382 0.997616 0.98926
1.00015 0.999592 0.992494
1.00392 0.995599 0.990675
1.00281 0.999378 0.991124
1.00239 0.998255 0.991448
1.00297 0.995323 0.993122
1.00264 0.996044 0.993223
1.00201 0.996496 0.99374
1.00225 0.995913 0.994073
1.00223 0.996953 0.993037
1.00179 0.997515 0.993289
1.00183 0.997512 0.993298
1.00185 0.99829 0.992534
1.00153 0.99862 0.992834
1.00148 0.998665 0.992862
1.00141 0.999345 0.992338
1.00127 0.999012 0.992891
1.00126 0.999493 0.992521
1.00122 0.999968 0.992191
1.00114 1.00007 0.992173
1.00107 1.0003 0.992099
1.00093 1.00045 0.992241
1.00045 1.00081 0.992665
1.00068 1.0009 0.992198
1.00086 1.00095 0.991863
0.999881 1.00081 0.993887
1.00024 1.00109 0.992918
1.0004 1.00133 0.992366
0.999568 0.99882 0.996429
0.999875 1.00062 0.994095
1.00014 1.00115 0.993101
0.999543 0.997317 0.999242
0.999648 0.998575 0.996554
0.999904 1.00041 0.994257
0.999609 0.997116 0.999257
0.999728 0.998345 0.996646
0.999672 0.996937 0.999267
1.00008 1.00186 0.992504
1.00011 1.00179 0.992551
1.00004 1.00149 0.992871
1.00014 1.00173 0.992521
1.0001 1.00138 0.992857
0.999976 1.00039 0.994117
1.00015 1.0013 0.99281
1.00003 1.00019 0.994197
0.999814 0.998258 0.996542
1.00006 1.00002 0.9943
0.999866 0.998072 0.996613
0.99974 0.996876 0.999245
0.999793 0.996733 0.99927
0.999897 0.997911 0.996708
0.999838 0.996572 0.999299
0.999314 0.999821 0.991933
0.995812 1.00174 0.972685
0.995833 0.998864 0.981147
1.00021 1.00193 0.992221
1.00019 1.00211 0.992093
1.00011 1.0019 0.992411
1.00008 1.0021 0.992248
1.00005 1.00207 0.992372
0.999996 1.00183 0.992556
1.0001 1.00244 0.991926
0.999989 1.0031 0.991483
1.00016 1.00216 0.992032
1.00043 1.0026 0.991487
1.0011 1.00196 0.990459
1.00261 1.00125 0.988049
1.00112 1.0029 0.98931
1.00026 1.00265 0.991016
1.00417 0.997046 0.989163
0.99995 0.999093 0.991228
0.995208 1.00167 0.97835
1.00055 0.997396 0.9898
1.00395 0.998416 0.988628
1.0008 1.00189 0.989633
1.00232 1.00012 0.992759
0.998721 1.00127 0.992892
0.996303 1.0014 0.971706
1.00409 0.997429 0.989311
1.00017 0.999117 0.990001
1.00406 0.995696 0.990442
1.0028 0.999048 0.991627
1.00309 0.997044 0.990467
1.00211 0.999153 0.990081
1.00292 0.995288 0.993151
1.00258 0.996062 0.993271
1.0023 0.997946 0.992059
1.00222 0.99611 0.994022
1.00221 0.997116 0.993004
1.0021 0.998443 0.991893
1.00181 0.997654 0.993245
1.00177 0.998363 0.992613
1.00169 0.999312 0.99179
1.00143 0.998733 0.99288
1.0014 0.999355 0.992341
1.00133 0.999853 0.991986
1.00124 0.999409 0.992574
1.0012 0.999903 0.992214
1.00107 1.00021 0.992155
1.00107 1.00031 0.992084
1.00092 1.00045 0.992206
1.00068 1.00055 0.992594
1 1.00077 0.993683
1.00044 1.00084 0.99271
1.00066 1.00094 0.992237
0.999509 0.999128 0.996227
0.999902 1.00077 0.99389
1.00025 1.0011 0.992917
0.999462 0.997557 0.999214
0.999576 0.998845 0.996423
0.9999 1.00058 0.994096
0.999528 0.997336 0.999234
0.99965 0.998598 0.996549
0.999594 0.997129 0.999251
1.00014 1.00181 0.992362
1.00008 1.00184 0.992509
1.00004 1.00156 0.992878
1.00012 1.00179 0.992584
1.00004 1.0015 0.992896
0.999906 1.00064 0.994016
1.00009 1.0014 0.992861
0.999969 1.00041 0.994113
0.99974 0.998478 0.996473
1.00003 1.00019 0.994195
0.999818 0.998236 0.996545
0.999677 0.997026 0.99923
0.999869 0.998053 0.996618
0.999749 0.996874 0.99925
0.999797 0.996726 0.999277
1.00314 0.996875 0.991573
0.999279 1.00041 0.987813
0.996129 1.00173 0.974194
1.00022 1.00162 0.992371
1.00064 1.00158 0.991741
1.00011 1.00195 0.992261
1.00011 1.00211 0.992245
1.00004 1.0021 0.992356
1.00008 1.00183 0.992513
1.00101 1.00146 0.991054
1.0002 1.0022 0.992094
1.00011 1.00249 0.991633
1.00104 1.00196 0.990481
1.00226 1.00077 0.989001
1.00313 0.998446 0.989707
1.00265 1.00109 0.988152
1.00115 1.00262 0.98932
1.00407 0.997043 0.989302
0.999784 0.999658 0.988534
1.00394 0.999069 0.987572
1.00177 0.998825 0.991995
1.00227 0.999478 0.992906
0.998804 1.00125 0.987486
1.00411 0.995801 0.990209
1.00281 0.998678 0.992113
1.00318 0.997096 0.990619
1.00221 0.999292 0.990383
1.00223 0.999268 0.9908
1.00181 0.999208 0.991721
1.00251 0.996022 0.99332
1.00227 0.997904 0.992099
1.0022 0.999172 0.990988
1.00218 0.997234 0.99297
1.00206 0.998493 0.991911
1.00197 0.999295 0.991193
1.00169 0.998425 0.992691
1.00169 0.999319 0.991789
1.00159 0.999824 0.991497
1.00139 0.999365 0.992343
1.00133 0.99985 0.991985
1.0012 1.00015 0.991944
1.00119 0.999837 0.992238
1.00106 1.00019 0.992159
1.00082 1.00038 0.992478
1.00091 1.00045 0.992171
1.00066 1.00054 0.992575
1.00016 1.0006 0.993526
0.999502 0.999411 0.99599
1.00001 1.00074 0.993689
1.00043 1.00087 0.992756
0.999382 0.997822 0.999172
0.999524 0.999146 0.99622
0.999924 1.00073 0.993892
0.999448 0.997578 0.999203
0.999583 0.998869 0.996417
0.999514 0.997355 0.999226
1.00031 1.00171 0.991988
1.00014 1.00179 0.99232
1.00013 1.00148 0.992781
1.00008 1.00182 0.992514
1.00003 1.00156 0.992876
0.999856 1.00087 0.993897
1.00004 1.00152 0.992921
0.999892 1.00067 0.994013
0.999649 0.998756 0.996383
0.999961 1.00042 0.994109
0.999743 0.998456 0.996476
0.999596 0.997219 0.999212
0.999823 0.998215 0.996548
0.999691 0.997023 0.999234
0.999757 0.996874 0.999255
1.00255 0.997573 0.991774
1.00315 0.997251 0.991982
0.999317 1.00075 0.992903
1.00108 1.00116 0.991467
1.00012 1.00159 0.9926
1.00104 1.00114 0.990959
1.00064 1.00159 0.991703
1 1.00198 0.992301
1.0021 1.00054 0.989802
1.00017 1.00183 0.99247
1.00105 1.00135 0.991056
1.00287 0.998915 0.989761
1.00099 1.00196 0.990503
1.00238 1.00081 0.988878
1.00314 0.998453 0.989655
1.00263 1.00095 0.988254
1.00396 0.997057 0.98944
1.0017 0.998884 0.992411
1.00171 0.998595 0.991977
1.0022 0.99886 0.99306
1.00326 0.997146 0.990773
1.00231 0.999472 0.990684
1.00235 0.999135 0.990771
1.00179 0.999254 0.991772
1.0018 0.999515 0.991417
1.00224 0.9979 0.992138
1.00221 0.999071 0.991037
1.00211 0.99951 0.990807
1.00202 0.998552 0.991928
1.00197 0.99935 0.991174
1.00186 0.999785 0.990988
1.00169 0.999325 0.991789
1.00159 0.999821 0.991488
1.00142 1.0001 0.991552
1.00133 0.999847 0.991984
1.00121 1.00015 0.991942
1.00096 1.00032 0.992254
1.00105 1.00017 0.992162
1.00081 1.00038 0.992481
1.00031 1.00046 0.993369
1.00064 1.00054 0.992555
1.00016 1.0006 0.993532
0.999506 0.999624 0.996359
0.999331 0.998212 0.997848
0.999518 0.999397 0.996278
1.00002 1.00072 0.993695
0.99937 0.997851 0.999153
0.999538 0.999164 0.996213
0.999433 0.997598 0.999192
1.00137 1.0005 0.991151
1.00057 1.00155 0.99162
1.00037 1.00169 0.991937
1.00027 1.00136 0.992625
1.00015 1.00176 0.992277
1.00012 1.00148 0.992787
0.999846 1.001 0.993791
1.00002 1.00156 0.992875
0.999838 1.00089 0.993894
0.999558 0.999059 0.996269
0.999878 1.00069 0.99401
0.999649 0.998731 0.996387
0.9995 0.997458 0.999189
0.999746 0.998432 0.996479
0.999615 0.997206 0.999217
0.999705 0.99702 0.999238
1.00237 0.998351 0.991447
1.00249 0.99768 0.991684
1.00319 0.997627 0.992389
1.00193 1.00036 0.990274
1.0009 1.00117 0.991681
1.00001 1.00155 0.992828
1.00117 1.00108 0.991063
1.00064 1.0016 0.991664
1.00268 0.999431 0.989677
1.00213 1.00059 0.989678
1.00109 1.00128 0.991057
1.00292 0.998922 0.98972
1.00253 1.00081 0.988755
1.00313 0.998457 0.989602
1.00145 0.999363 0.992098
1.00165 0.998877 0.992367
1.00164 0.998314 0.991959
1.00249 0.999005 0.990745
1.00176 0.999281 0.991823
1.00183 0.999487 0.991429
1.00171 0.999782 0.991314
1.00223 0.998969 0.991085
1.00214 0.99946 0.990788
1.00195 0.999661 0.990909
1.00197 0.999403 0.991156
1.00187 0.999784 0.990977
1.00166 1.00003 0.991145
1.0016 0.999819 0.991478
1.00143 1.0001 0.991543
1.00115 1.00027 0.991927
1.00121 1.00015 0.991939
1.00096 1.00032 0.992253
1.00046 1.00039 0.993145
1.00081 1.00038 0.992484
1.00031 1.00046 0.993371
0.999519 0.999817 0.996157
1.00016 1.0006 0.993538
0.999531 0.999617 0.996324
0.999231 0.99863 0.997652
0.99931 0.998183 0.998468
0.999535 0.999386 0.996562
0.999357 0.997882 0.999134
1.00194 1.00008 0.990517
1.00101 1.00099 0.991572
1.00127 1.00038 0.99149
1.00042 1.00135 0.992314
1.00065 1.00154 0.991617
1.00043 1.00168 0.991886
1.00025 1.00139 0.992631
0.999882 1.00106 0.99366
1.00011 1.00147 0.992793
0.999828 1.00102 0.993788
0.999482 0.999359 0.996124
0.999819 1.00092 0.993892
0.999553 0.999036 0.996273
0.999392 0.997735 0.999159
0.999649 0.998704 0.996391
0.999522 0.997434 0.999196
0.999633 0.997194 0.999223
1.00219 0.99913 0.990967
1.00234 0.9984 0.991445
1.00244 0.997812 0.991594
1.00243 0.999527 0.989945
1.00192 1.00039 0.990289
1.00075 1.00118 0.991896
1.0013 1.00101 0.991166
1.0027 0.999445 0.989669
1.00216 1.00062 0.989554
1.00296 0.99893 0.989679
1.00154 0.999735 0.991654
1.00154 0.999415 0.991948
1.00162 0.998883 0.992323
1.00161 1.0001 0.991217
1.00186 0.99946 0.99144
1.00171 0.999798 0.991287
1.00177 0.999807 0.991173
1.00217 0.999414 0.990768
1.00196 0.999657 0.990913
1.00175 0.999972 0.991008
1.00187 0.999784 0.990967
1.00166 1.00003 0.991142
1.00134 1.00019 0.991611
1.00144 1.0001 0.991535
1.00115 1.00027 0.991923
1.00061 1.00036 0.992863
1.00096 1.00032 0.992251
1.00045 1.0004 0.993142
0.999536 0.99996 0.995991
1.0003 1.00047 0.993374
0.999547 0.999801 0.996126
0.999117 0.999023 0.997513
0.999555 0.999612 0.996289
0.999219 0.998609 0.997681
0.999284 0.998149 0.999096
1.00226 0.999905 0.990147
1.00164 1.00031 0.990948
1.00187 1.00015 0.990636
1.00076 1.00105 0.992084
1.001 1.00095 0.991561
1.00117 1.00028 0.991827
1 1.00111 0.993369
1.00042 1.00134 0.992313
1.00072 1.00155 0.991614
1.00022 1.00141 0.992636
0.999862 1.00109 0.993656
0.999445 0.999658 0.995906
0.99981 1.00105 0.993784
0.99947 0.999347 0.996127
0.999278 0.998051 0.999118
0.999548 0.999013 0.996277
0.999417 0.997702 0.999168
0.999543 0.997412 0.999203
1.00214 0.99941 0.990805
1.00228 0.999112 0.990858
1.0023 0.998446 0.991443
1.00252 0.999479 0.989897
1.00192 1.00042 0.990304
1.00274 0.99946 0.98966
1.00161 1.00006 0.991214
1.00151 0.99979 0.991668
1.00163 0.999468 0.991798
1.0016 1.00011 0.991205
1.0016 1.00028 0.991053
1.00171 0.999815 0.99126
1.00176 0.999816 0.991174
1.0017 1 0.99117
1.00197 0.999653 0.990916
1.00176 0.999956 0.991019
1.00144 1.00017 0.991434
1.00166 1.00003 0.991139
1.00134 1.0002 0.991606
1.00076 1.00031 0.992624
1.00115 1.00027 0.991919
1.00062 1.00036 0.992855
0.999568 1.00004 0.995857
1.00045 1.00041 0.993138
0.999565 0.999949 0.99596
0.999007 0.999372 0.997405
0.999575 0.999786 0.996094
0.999107 0.999007 0.99754
0.999206 0.998586 0.997711
1.00218 0.999378 0.990769
1.00198 1.00004 0.990496
1.00229 0.999855 0.990106
1.00121 1.00056 0.99159
1.00161 1.00035 0.991003
1.00179 1.00022 0.990755
1.00025 1.00093 0.992996
1.00075 1.00102 0.991975
1.00099 1.00089 0.99155
0.999467 0.999962 0.995561
0.999992 1.00111 0.993368
1.00043 1.00134 0.992312
0.999839 1.00112 0.993653
0.999414 0.999677 0.995911
0.999164 0.998422 0.999054
0.999456 0.999337 0.996129
0.999301 0.998007 0.999131
0.999441 0.997669 0.999178
1.00192 0.999888 0.990788
1.00218 0.999395 0.990765
1.00235 0.999091 0.990747
1.00261 0.999429 0.989849
1.00167 1.00027 0.990882
1.0016 1.00006 0.991247
1.00147 0.99984 0.991682
1.00159 1.00013 0.991193
1.00159 1.00027 0.991057
1.00153 1.00028 0.991178
1.00174 0.999823 0.991176
1.00168 1.00001 0.991185
1.00144 1.00017 0.991415
1.00176 0.999942 0.991031
1.00144 1.00016 0.99144
1.00084 1.00028 0.992486
1.00134 1.0002 0.991601
1.00076 1.00031 0.992617
0.999609 1.00012 0.995017
1.00062 1.00036 0.992847
0.999595 1.00007 0.995454
0.998919 0.999511 0.998866
0.999595 0.999939 0.99593
0.998997 0.99937 0.997429
0.999096 0.99899 0.997566
1.00198 0.999745 0.990852
1.00198 0.999678 0.990804
1.00215 0.999425 0.990771
1.0015 1.00021 0.991094
1.00196 1.00002 0.990576
1.00232 0.999806 0.990066
1.00058 1.00059 0.992472
1.00122 1.00055 0.991585
1.00159 1.00039 0.991058
0.999564 1.00014 0.995164
1.00026 1.00092 0.992899
1.00073 1.001 0.991865
0.999075 0.998849 0.998958
0.999421 0.999998 0.995573
0.999983 1.00111 0.993368
0.999381 0.999697 0.995916
0.999184 0.998367 0.999075
0.999328 0.997964 0.999144
1.00177 1.00009 0.990877
1.00189 0.999876 0.990846
1.00221 0.999384 0.990725
1.00167 1.00033 0.990853
1.00168 1.00028 0.990862
1.00161 1.00005 0.99128
1.00158 1.00026 0.991062
1.00154 1.00026 0.991182
1.00136 1.0003 0.991541
1.00165 1.00001 0.991201
1.00143 1.00019 0.991496
1.00087 1.00028 0.992288
1.00144 1.00016 0.991445
1.00084 1.00027 0.992486
0.999622 1.00015 0.994956
1.00076 1.00031 0.992609
0.999622 1.0001 0.995011
0.998874 0.999663 0.998856
0.99962 1.00009 0.995058
0.998913 0.999595 0.998115
0.998988 0.999368 0.997453
1.00183 1.00003 0.990921
1.00184 0.999787 0.99102
1.00196 0.99971 0.990853
1.0016 1.00001 0.991236
1.00195 0.999702 0.990838
1.00211 0.999474 0.990772
1.00087 1.00032 0.99217
1.00153 1.00023 0.991209
1.00194 1.00001 0.990656
0.999676 1.00018 0.994868
1.00063 1.00057 0.992428
1.00122 1.00055 0.991581
0.999021 0.999246 0.998861
0.999515 1.00019 0.995177
1.00027 1.0009 0.992802
0.999084 0.998777 0.99899
0.999374 1.00004 0.995585
0.999205 0.998307 0.999095
1.00169 1.00022 0.990915
1.00178 1.00009 0.990867
1.00187 0.999859 0.990904
1.00149 1.00033 0.991243
1.00166 1.00035 0.990869
1.0017 1.00029 0.990841
1.00155 1.00024 0.991187
1.00136 1.00028 0.991545
1.00088 1.00032 0.992207
1.00141 1.0002 0.991577
1.00087 1.00028 0.992359
0.999635 1.00022 0.994865
1.00084 1.00027 0.992486
0.999631 1.00014 0.994954
0.998829 0.999811 0.998844
0.999635 1.00009 0.995006
0.998865 0.99969 0.998852
0.998914 0.999686 0.997349
1.00172 1.00008 0.991074
1.00182 1 0.9909
1.00155 1.00004 0.991333
1.00184 0.999785 0.991023
1.00194 0.999678 0.990854
1.00099 1.00019 0.992249
1.00161 1.00002 0.991225
1.00193 0.999723 0.990872
0.999745 1.00014 0.994738
1.0009 1.00033 0.992228
1.00157 1.00025 0.991324
0.998982 0.999546 0.9988
0.999639 1.00022 0.994877
1.00067 1.00055 0.992385
0.999021 0.999177 0.998891
0.999465 1.00024 0.99519
0.999094 0.998704 0.99902
1.00149 1.00029 0.991303
1.00168 1.00023 0.990932
1.00179 1.00009 0.990858
1.00096 1.00034 0.992036
1.00148 1.00035 0.991244
1.00165 1.00037 0.990884
1.00137 1.00027 0.99155
1.00088 1.00032 0.992226
0.999661 1.00025 0.994776
1.00087 1.00028 0.992431
0.99964 1.00021 0.994864
0.998806 0.999927 0.998823
0.99964 1.00013 0.994952
0.998828 0.999829 0.998838
0.99886 0.999718 0.998848
1.00148 1.00021 0.991332
1.00172 1.00005 0.991047
1.00181 0.99997 0.99088
1.00098 1.00019 0.992282
1.00155 1.00004 0.991331
1.00184 0.999782 0.991027
0.99975 1.0001 0.994749
1.001 1.0002 0.992248
1.00163 1.00002 0.991214
0.998944 0.999735 0.99878
0.999723 1.00017 0.994744
1.00092 1.00034 0.992287
0.998982 0.999491 0.998816
0.999603 1.00027 0.994887
0.99902 0.999105 0.99892
1.00097 1.00033 0.992174
1.00149 1.0003 0.991221
1.00167 1.00023 0.990948
0.999682 1.00024 0.994733
1.00096 1.00034 0.992052
1.00148 1.00037 0.991245
1.00088 1.00031 0.992245
0.999662 1.00025 0.994773
0.998811 1 0.998793
0.999645 1.0002 0.994862
0.998812 0.99994 0.998811
0.998826 0.999845 0.99883
1.00095 1.00028 0.992253
1.00149 1.0002 0.991303
1.00172 1.00003 0.991021
0.999721 1.00009 0.995578
1.00098 1.0002 0.99228
1.00156 1.00004 0.991328
0.998892 0.999847 0.99879
0.999745 1.00011 0.994749
1.001 1.00021 0.992246
0.998947 0.9997 0.998784
0.999702 1.0002 0.99475
0.998982 0.999438 0.998833
0.999693 1.00024 0.994724
1.00097 1.00032 0.992111
1.00149 1.00031 0.99114
0.998821 1.00004 0.998777
0.999687 1.00024 0.994729
1.00096 1.00033 0.992068
0.999665 1.00025 0.994769
0.99882 1.00001 0.998785
0.998818 0.999953 0.998799
0.999708 1.00016 0.995554
1.00095 1.00028 0.992255
1.00149 1.00019 0.991274
0.998816 0.999926 0.998831
0.999714 1.00013 0.994796
1.00099 1.0002 0.992278
0.998901 0.999826 0.998786
0.999739 1.00013 0.994749
0.998949 0.999667 0.998789
0.998825 1.00012 0.997153
0.9997 1.00021 0.99513
1.00097 1.00033 0.992049
0.998824 1.00004 0.998774
0.999687 1.00024 0.994727
0.998824 1.00002 0.998779
0.998799 1.00006 0.99722
0.9997 1.00017 0.995172
1.00096 1.00028 0.992257
0.998839 0.999953 0.998016
0.999717 1.00013 0.994791
0.99891 0.999807 0.998782
0.998828 1.00004 0.998774
0.999695 1.00022 0.994735
0.998831 1.00004 0.998772
0.998816 1.00003 0.997999
0.999693 1.00019 0.994778
0.99886 0.999903 0.998795
0.998825 1.00003 0.998781
0.99883 0.999979 0.998795

TENSORS stress float
0.00117299 2.88078e-05 2.12218e-05
2.88078e-05 0.000184094 -5.30379e-06
2.12218e-05 -5.30379e-06 0.000175198
0.00267092 -4.25664e-05 1.9077e-05
-4.25664e-05 0.000911204 3.22964e-06
1.9077e-05 3.22964e-06 0.000918639
0.00116586 3.10373e-05 7.96981e-06
3.10373e-05 0.000181478 -1.97068e-06
7.96981e-06 -1.97068e-06 0.000172678
0.00124632 2.60258e-05 2.66315e-05
2.60258e-05 0.000250323 -3.77203e-06
2.66315e-05 -3.77203e-06 0.000232105
0.00119651 2.84176e-05 2.28107e-05
2.84176e-05 0.000208079 -4.90208e-06
2.28107e-05 -4.90208e-06 0.000195405
0.00114446 2.86251e-05 1.95333e-05
2.86251e-05 0.000158859 -5.56572e-06
1.95333e-05 -5.56572e-06 0.000154166
0.00114036 1.73082e-05 5.8848e-06
1.73082e-05 0.000147543 -2.27034e-06
5.8848e-06 -2.27034e-06 0.000119943
0.00270467 -4.29986e-05 2.42983e-07
-4.29986e-05 0.00092634 -1.03348e-07
2.42983e-07 -1.03348e-07 0.00093406
0.00298098 -5.45455e-05 9.07697e-06
-5.45455e-05 0.00110172 1.08278e-06
9.07697e-06 1.08278e-06 0.00109989
0.00274285 -4.87319e-05 8.26212e-06
-4.87319e-05 0.000956879 1.24268e-06
8.26212e-06 1.24268e-06 0.000961782
0.0011087 -2.70796e-05 1.55813e-05
-2.70796e-05 0.000121428 3.47192e-06
1.55813e-05 3.47192e-06 0.000123963
0.000827469 -2.47541e-05 4.82342e-06
-2.47541e-05 -1.55806e-05 2.89276e-06
4.82342e-06 2.89276e-06 -3.73462e-05
0.00144561 -1.66725e-05 3.202e-05
-1.66725e-05 0.000362346 7.58843e-07
3.202e-05 7.58843e-07 0.000342326
0.00127605 -3.52942e-05 6.47262e-06
-3.52942e-05 0.000279949 8.92993e-07
6.47262e-06 8.92993e-07 0.000260163
0.00115362 3.34345e-05 -5.72764e-06
3.34345e-05 0.000176416 1.41433e-06
-5.72764e-06 1.41433e-06 0.000167702
0.00127776 3.03297e-05 1.03108e-05
3.03297e-05 0.000267428 -1.34528e-06
1.03108e-05 -1.34528e-06 0.000248847
0.00112834 3.04887e-05 7.33317e-06
3.04887e-05 0.000151607 -2.03694e-06
7.33317e-06 -2.03694e-06 0.000147102
0.00119983 3.11485e-05 8.58841e-06
3.11485e-05 0.000210648 -1.78394e-06
8.58841e-06 -1.78394e-06 0.000197959
0.00117392 1.76136e-05 -2.80891e-06
1.76136e-05 0.000163834 4.13907e-07
-2.80891e-06 4.13907e-07 0.000136301
0.00359871 6.28039e-05 3.15547e-05
6.28039e-05 0.00143378 -6.10692e-07
3.15547e-05 -6.10692e-07 0.00142503
0.00128752 2.46742e-05 2.88198e-05
2.46742e-05 0.00027473 -2.923e-06
2.88198e-05 -2.923e-06 0.00025557
0.00121416 2.74255e-05 2.44674e-05
2.74255e-05 0.000227791 -4.43391e-06
2.44674e-05 -4.43391e-06 0.00021188
0.00126161 9.88726e-06 6.85115e-06
9.88726e-06 0.000198744 -1.85929e-06
6.85115e-06 -1.85929e-06 0.000163547
0.00117887 1.40575e-05 6.16628e-06
1.40575e-05 0.000165471 -2.06283e-06
6.16628e-06 -2.06283e-06 0.000135105
0.00113356 2.78772e-05 1.83392e-05
2.78772e-05 0.000142766 -5.64265e-06
1.83392e-05 -5.64265e-06 0.000142072
0.0010978 2.39791e-05 5.18498e-06
2.39791e-05 0.00012762 -2.52886e-06
5.18498e-06 -2.52886e-06 0.000103219
0.0014069 -1.36949e-05 2.04969e-06
-1.36949e-05 0.000231495 -1.1021e-06
2.04969e-06 -1.1021e-06 0.000180013
0.00274357 -4.35293e-05 -1.85891e-05
-4.35293e-05 0.000943953 -3.2199e-06
-1.85891e-05 -3.2199e-06 0.000951945
0.00209042 -4.16893e-05 -8.01589e-06
-4.16893e-05 0.000656979 -7.57265e-07
-8.01589e-06 -7.57265e-07 0.000649735
0.00195465 -3.87806e-05 -7.02295e-06
-3.87806e-05 0.00056308 -9.10235e-07
-7.02295e-06 -9.10235e-07 0.000563425
0.00261312 -4.01271e-05 1.58856e-07
-4.01271e-05 0.000872482 -7.79132e-08
1.58856e-07 -7.79132e-08 0.000882431
0.000772596 -2.63483e-05 1.57832e-07
-2.63483e-05 -4.19291e-05 -3.62443e-08
1.57832e-07 -3.62443e-08 -6.36619e-05
0.00128383 -2.86413e-05 2.15092e-05
-2.86413e-05 0.000267346 2.3602e-06
2.15092e-05 2.3602e-06 0.00025117
0.00115614 -2.93125e-05 1.82668e-05
-2.93125e-05 0.000179268 2.97201e-06
1.82668e-05 2.97201e-06 0.000171012
0.00173431 -1.03318e-05 1.18647e-05
-1.03318e-05 0.000439539 2.14662e-06
1.18647e-05 2.14662e-06 0.000412435
0.00252698 -3.98623e-05 7.27499e-06
-3.98623e-05 0.000820958 1.45461e-06
7.27499e-06 1.45461e-06 0.000832912
0.0016353 -2.71357e-05 1.05178e-05
-2.71357e-05 0.000390675 2.41852e-06
1.05178e-05 2.41852e-06 0.000370278
0.000835823 -2.66013e-05 5.80391e-06
-2.66013e-05 -1.70123e-05 4.35969e-06
5.80391e-06 4.35969e-06 -3.58253e-05
0.000928964 6.86624e-06 2.54995e-06
6.86624e-06 1.20621e-05 1.41071e-06
2.54995e-06 1.41071e-06 -3.83932e-05
0.00253285 -3.1383e-05 1.68024e-05
-3.1383e-05 0.000806785 3.9171e-06
1.68024e-05 3.9171e-06 0.000821793
0.0036097 -6.09569e-05 1.10531e-06
-6.09569e-05 0.00144181 -1.5303e-07
1.10531e-06 -1.5303e-07 0.00143278
0.00230766 -4.57033e-05 -1.00456e-05
-4.57033e-05 0.000793023 -2.93924e-07
-1.00456e-05 -2.93924e-07 0.000779332
0.00374397 -4.80424e-05 3.43621e-05
-4.80424e-05 0.001505 1.58198e-07
3.43621e-05 1.58198e-07 0.00149619
0.00130127 -3.6559e-05 6.35293e-06
-3.6559e-05 0.000295833 7.59624e-07
6.35293e-06 7.59624e-07 0.000275114
0.000747199 -1.59452e-05 8.6546e-06
-1.59452e-05 -6.15559e-05 1.70625e-06
8.6546e-06 1.70625e-06 -0.000101205
0.00325032 -6.14956e-05 9.86898e-06
-6.14956e-05 0.00125665 7.85483e-07
9.86898e-06 7.85483e-07 0.0012498
0.0018052 -2.72485e-05 1.56745e-05
-2.72485e-05 0.000472377 2.11064e-06
1.56745e-05 2.11064e-06 0.000440412
0.00131003 3.53074e-05 -6.81326e-06
3.53074e-05 0.000285057 1.16327e-06
-6.81326e-06 1.16327e-06 0.000266042
0.00119945 3.41175e-05 -6.09545e-06
3.41175e-05 0.000211443 1.33132e-06
-6.09545e-06 1.33132e-06 0.000198722
0.00110803 3.24774e-05 -5.27905e-06
3.24774e-05 0.000142365 1.45121e-06
-5.27905e-06 1.45121e-06 0.00013804
0.00121369 1.76539e-05 -1.17211e-05
1.76539e-05 0.000183166 3.11919e-06
-1.17211e-05 3.11919e-06 0.000155698
0.00248557 5.13028e-05 -1.07705e-05
5.13028e-05 0.000879501 -5.46878e-07
-1.07705e-05 -5.46878e-07 0.000864533
0.00131052 3.00367e-05 1.1209e-05
3.00367e-05 0.000287888 -1.02291e-06
1.1209e-05 -1.02291e-06 0.000268162
0.00111165 2.95859e-05 6.85331e-06
2.95859e-05 0.000132496 -2.02948e-06
6.85331e-06 -2.02948e-06 0.00013195
0.00123433 3.08328e-05 9.33202e-06
3.08328e-05 0.000238863 -1.5735e-06
9.33202e-06 -1.5735e-06 0.000222806
0.00129471 9.13542e-06 -3.73466e-06
9.13542e-06 0.000214201 2.39158e-07
-3.73466e-06 2.39158e-07 0.000179248
0.00113809 2.48347e-05 -2.60587e-06
2.48347e-05 0.000147228 3.65591e-07
-2.60587e-06 3.65591e-07 0.000122844
0.0012106 1.40769e-05 -3.10584e-06
1.40769e-05 0.000180404 4.16887e-07
-3.10584e-06 4.16887e-07 0.000150194
0.00144506 -1.58022e-05 -1.0447e-06
-1.58022e-05 0.000248411 5.42765e-07
-1.0447e-06 5.42765e-07 0.000196626
0.00366973 6.72586e-05 3.14561e-05
6.72586e-05 0.00146863 -1.45168e-07
3.14561e-05 -1.45168e-07 0.00145939
0.001301 2.37502e-05 3.02979e-05
2.37502e-05 0.00028626 -2.21746e-06
3.02979e-05 -2.21746e-06 0.000266891
0.00185585 3.28095e-05 6.11528e-06
3.28095e-05 0.000487813 -8.93017e-07
6.11528e-06 -8.93017e-07 0.000454594
0.00130368 1.04571e-05 7.43153e-06
1.04571e-05 0.00021452 -1.5055e-06
7.43153e-06 -1.5055e-06 0.000178409
0.00121367 1.17859e-05 6.37893e-06
1.17859e-05 0.000180526 -1.98898e-06
6.37893e-06 -1.98898e-06 0.000147544
0.00159812 -2.2824e-05 2.20686e-06
-2.2824e-05 0.000270859 -1.04084e-06
2.20686e-06 -1.04084e-06 0.000214106
0.00119752 -1.49834e-05 2.58086e-06
-1.49834e-05 0.000111379 -1.32614e-06
2.58086e-06 -1.32614e-06 5.77167e-05
0.00120183 2.69188e-05 1.81719e-05
2.69188e-05 0.000163672 -5.70279e-06
1.81719e-05 -5.70279e-06 0.000166153
0.0010645 2.816e-05 4.93504e-06
2.816e-05 0.000107931 -2.65695e-06
4.93504e-06 -2.65695e-06 8.7393e-05
0.00133634 -3.15668e-06 1.77286e-06
-3.15668e-06 0.000213909 -1.1839e-06
1.77286e-06 -1.1839e-06 0.00016375
0.00112734 -3.45247e-05 1.77314e-06
-3.45247e-05 4.82347e-05 -1.22013e-06
1.77314e-06 -1.22013e-06 -1.53841e-05
0.0030273 -5.14681e-05 -2.11342e-05
-5.14681e-05 0.00112059 -2.64533e-06
-2.11342e-05 -2.64533e-06 0.00111967
0.00266035 -4.05285e-05 -1.79136e-05
-4.05285e-05 0.000893917 -3.37633e-06
-1.79136e-05 -3.37633e-06 0.000904157
0.00283015 -4.63325e-05 -1.94933e-05
-4.63325e-05 0.000997081 -3.04768e-06
-1.94933e-05 -3.04768e-06 0.00100247
0.000715798 -2.65924e-05 -4.58801e-06
-2.65924e-05 -6.92779e-05 -3.1716e-06
-4.58801e-06 -3.1716e-06 -9.09261e-05
0.00318155 -5.31667e-05 2.47666e-07
-5.31667e-05 0.00121202 -1.37695e-07
2.47666e-07 -1.37695e-07 0.00120751
0.00287165 -4.80968e-05 1.94321e-07
-4.80968e-05 0.00103431 -1.07358e-07
1.94321e-07 -1.07358e-07 0.00103587
0.000768996 -3.42951e-06 3.90401e-08
-3.42951e-06 -3.77162e-05 -1.08214e-07
3.90401e-08 -1.08214e-07 -7.05832e-05
0.00183129 -3.2428e-05 -6.36429e-06
-3.2428e-05 0.000472528 -1.0503e-06
-6.36429e-06 -1.0503e-06 0.000480916
0.000792393 -2.1584e-05 3.67141e-08
-2.1584e-05 -2.84511e-05 -2.73055e-08
3.67141e-08 -2.73055e-08 -5.33686e-05
0.00117828 -2.84843e-05 3.23644e-06
-2.84843e-05 0.000153802 5.01223e-07
3.23644e-06 5.01223e-07 0.000137306
0.000929155 5.16475e-06 3.71159e-09
5.16475e-06 1.35487e-05 -1.8987e-07
3.71159e-09 -1.8987e-07 -3.71803e-05
0.00252971 -3.42984e-05 1.71743e-05
-3.42984e-05 0.00081353 3.69835e-06
1.71743e-05 3.69835e-06 0.00082712
0.000869813 -2.01389e-05 4.2483e-06
-2.01389e-05 -2.81532e-05 3.44153e-06
4.2483e-06 3.44153e-06 -3.99554e-05
0.00075255 4.68124e-06 7.6549e-06
4.68124e-06 -5.00151e-05 3.2467e-06
7.6549e-06 3.2467e-06 -8.61208e-05
0.000768064 -9.77526e-06 7.00365e-06
-9.77526e-06 -3.95593e-05 3.75544e-06
7.00365e-06 3.75544e-06 -6.90156e-05
0.000989594 1.99087e-05 2.57864e-06
1.99087e-05 1.1147e-05 1.62975e-06
2.57864e-06 1.62975e-06 -4.33129e-05
0.00158543 -2.93023e-05 9.66251e-06
-2.93023e-05 0.000347432 3.01197e-06
9.66251e-06 3.01197e-06 0.00033552
0.000941995 1.20874e-05 2.48384e-06
1.20874e-05 1.31837e-05 1.44259e-06
2.48384e-06 1.44259e-06 -3.79369e-05
0.00093837 2.267e-06 2.48075e-06
2.267e-06 1.84943e-05 1.78059e-06
2.48075e-06 1.78059e-06 -3.01538e-05
0.000999996 2.95288e-05 1.23395e-06
2.95288e-05 2.37632e-05 4.4093e-07
1.23395e-06 4.4093e-07 -3.74198e-05
0.00252687 -2.84091e-05 1.6169e-05
-2.84091e-05 0.000797006 4.06961e-06
1.6169e-05 4.06961e-06 0.000813308
0.00257378 -3.15108e-05 2.55118e-07
-3.15108e-05 0.000825978 -7.51765e-08
2.55118e-07 -7.51765e-08 0.000841028
0.00333773 -5.81437e-05 -2.56187e-05
-5.81437e-05 0.00130342 -1.50201e-06
-2.56187e-05 -1.50201e-06 0.00129605
0.00352184 -6.29543e-05 -2.89572e-05
-6.29543e-05 0.00139968 -6.41282e-07
-2.89572e-05 -6.41282e-07 0.00139067
0.00369832 -3.78866e-05 1.28635e-06
-3.78866e-05 0.00148208 -1.69741e-07
1.28635e-06 -1.69741e-07 0.00147397
0.0023746 -4.76072e-05 -1.09078e-05
-4.76072e-05 0.000829128 -1.52632e-07
-1.09078e-05 -1.52632e-07 0.000814476
0.00127925 -9.92513e-06 6.64255e-06
-9.92513e-06 0.000203892 -8.91341e-08
6.64255e-06 -8.91341e-08 0.000167973
0.00224061 -4.39491e-05 -9.35922e-06
-4.39491e-05 0.000752372 -4.52459e-07
-9.35922e-06 -4.52459e-07 0.000740109
0.00123596 -9.13042e-06 5.10391e-06
-9.13042e-06 0.000190196 5.98697e-08
5.10391e-06 5.98697e-08 0.00015528
0.00374676 2.18594e-05 3.19758e-05
2.18594e-05 0.00150341 3.12915e-07
3.19758e-05 3.12915e-07 0.00149572
0.000724385 -4.02995e-06 6.83543e-06
-4.02995e-06 -7.94933e-05 5.82635e-07
6.83543e-06 5.82635e-07 -0.000118691
0.00183021 -3.99596e-05 1.71026e-05
-3.99596e-05 0.000483519 1.76573e-06
1.71026e-05 1.76573e-06 0.00045037
0.00109429 -3.12879e-06 3.75365e-06
-3.12879e-06 8.94104e-07 1.23359e-06
3.75365e-06 1.23359e-06 -6.00832e-05
0.00178275 -5.64063e-06 1.3237e-05
-5.64063e-06 0.000461356 1.71025e-06
1.3237e-05 1.71025e-06 0.000430314
0.00108095 1.308e-05 3.13024e-06
1.308e-05 1.30838e-05 1.39644e-06
3.13024e-06 1.39644e-06 -4.55825e-05
0.00139947 2.3187e-05 -3.04434e-05
2.3187e-05 0.000336641 6.98534e-07
-3.04434e-05 6.98534e-07 0.000316836
0.00133848 3.59691e-05 -7.1185e-06
3.59691e-05 0.000303662 9.93684e-07
-7.1185e-06 9.93684e-07 0.00028328
0.00109033 3.13928e-05 -4.93297e-06
3.13928e-05 0.000122604 1.45128e-06
-4.93297e-06 1.45128e-06 0.000122184
0.00125194 3.46691e-05 -6.42825e-06
3.46691e-05 0.000248739 1.2536e-06
-6.42825e-06 1.2536e-06 0.000232499
0.0013243 7.84195e-06 -1.46268e-05
7.84195e-06 0.000227852 2.36554e-06
-1.46268e-05 2.36554e-06 0.000193184
0.00124546 1.38839e-05 -1.2521e-05
1.38839e-05 0.000196863 2.86328e-06
-1.2521e-05 2.86328e-06 0.000166813
0.00118596 2.54582e-05 -1.07425e-05
2.54582e-05 0.000170533 3.26026e-06
-1.07425e-05 3.26026e-06 0.000146179
0.00148271 -1.7817e-05 -4.17234e-06
-1.7817e-05 0.000265021 2.15336e-06
-4.17234e-06 2.15336e-06 0.000212936
0.00370171 6.55913e-05 -1.52181e-06
6.55913e-05 0.00148394 -1.87299e-07
-1.52181e-06 -1.87299e-07 0.00147482
0.00131282 2.99927e-05 1.18652e-05
2.99927e-05 0.000293547 -6.63803e-07
1.18652e-05 -6.63803e-07 0.000273611
0.00104871 2.01558e-05 -7.44604e-06
2.01558e-05 8.48849e-05 1.37994e-07
-7.44604e-06 1.37994e-07 4.74099e-05
0.00133142 9.41857e-06 -4.05732e-06
9.41857e-06 0.000227349 1.5374e-07
-4.05732e-06 1.5374e-07 0.00019145
0.00189614 3.35257e-05 1.15974e-05
3.35257e-05 0.00051256 -1.89044e-06
1.15974e-05 -1.89044e-06 0.000518809
0.00132524 3.13553e-05 -2.54282e-06
3.13553e-05 0.000236833 3.44367e-07
-2.54282e-06 3.44367e-07 0.000217676
0.00124782 1.15068e-05 -3.40651e-06
1.15068e-05 0.000196356 3.488e-07
-3.40651e-06 3.488e-07 0.000163612
0.00145231 -2.16452e-05 -1.30132e-06
-2.16452e-05 0.000197983 3.85825e-07
-1.30132e-06 3.85825e-07 0.000140537
0.00140565 -6.79203e-06 -8.65929e-07
-6.79203e-06 0.000245535 6.14853e-07
-8.65929e-07 6.14853e-07 0.000195053
0.0013473 -1.76259e-05 -4.9278e-07
-1.76259e-05 0.000184259 2.11383e-07
-4.9278e-07 2.11383e-07 0.000131042
0.00111901 -3.40587e-05 1.29069e-08
-3.40587e-05 4.4602e-05 -3.57162e-08
1.29069e-08 -3.57162e-08 -1.89604e-05
0.000718289 8.13637e-06 6.74479e-06
8.13637e-06 -8.32007e-05 -1.05179e-06
6.74479e-06 -1.05179e-06 -0.000122101
0.0013141 1.76626e-05 7.46336e-06
1.76626e-05 0.000219874 -1.19396e-06
7.46336e-06 -1.19396e-06 0.000183944
0.00142252 1.62703e-05 3.41676e-06
1.62703e-05 0.000157029 -5.48335e-07
3.41676e-06 -5.48335e-07 9.76916e-05
0.00136722 -1.754e-05 3.06255e-06
-1.754e-05 0.000141398 -9.96581e-07
3.06255e-06 -9.96581e-07 8.2669e-05
0.0012666 -1.82978e-05 2.62229e-06
-1.82978e-05 0.000126788 -1.35798e-06
2.62229e-06 -1.35798e-06 7.11116e-05
0.00152081 -3.28748e-05 1.26258e-06
-3.28748e-05 0.000180662 -6.87312e-07
1.26258e-06 -6.87312e-07 0.000113896
0.00267646 3.7583e-05 1.78567e-05
3.7583e-05 0.000891642 -3.60205e-06
1.78567e-05 -3.60205e-06 0.00090348
0.00114388 -3.27064e-05 1.67711e-06
-3.27064e-05 3.92415e-05 -1.04395e-06
1.67711e-06 -1.04395e-06 -2.39786e-05
0.000789067 2.55713e-05 4.62578e-06
2.55713e-05 -4.13782e-05 -3.14809e-06
4.62578e-06 -3.14809e-06 -5.95666e-05
0.000864702 -2.4626e-06 2.31159e-06
-2.4626e-06 -1.12869e-05 -1.85602e-06
2.31159e-06 -1.85602e-06 -6.21394e-05
0.00115592 -3.58188e-05 1.66423e-06
-3.58188e-05 8.28844e-05 -1.51994e-06
1.66423e-06 -1.51994e-06 1.84709e-05
0.00120116 -4.16991e-05 1.40933e-06
-4.16991e-05 6.11314e-05 -8.72406e-07
1.40933e-06 -8.72406e-07 -6.69215e-06
0.000813402 2.07697e-05 4.44091e-06
2.07697e-05 -4.93287e-05 -3.53628e-06
4.44091e-06 -3.53628e-06 -6.34311e-05
0.000957646 -2.94117e-06 2.75241e-06
-2.94117e-06 1.03944e-05 -2.42471e-06
2.75241e-06 -2.42471e-06 -3.41681e-05
0.00315627 -5.37195e-05 -2.27296e-05
-5.37195e-05 0.0011962 -2.34498e-06
-2.27296e-05 -2.34498e-06 0.00119239
0.00291312 -4.89991e-05 -2.00962e-05
-4.89991e-05 0.00105095 -2.85558e-06
-2.00962e-05 -2.85558e-06 0.00105328
0.000712358 -5.21073e-06 -5.19291e-06
-5.21073e-06 -6.12862e-05 -2.70675e-06
-5.19291e-06 -2.70675e-06 -9.45815e-05
0.00262429 -3.75191e-05 -1.77348e-05
-3.75191e-05 0.000866664 -3.57814e-06
-1.77348e-05 -3.57814e-06 0.000878794
0.00074203 -2.50203e-05 -4.60517e-06
-2.50203e-05 -6.35641e-05 -3.21576e-06
-4.60517e-06 -3.21576e-06 -8.16579e-05
0.000705756 -2.36661e-05 -4.7829e-06
-2.36661e-05 -6.8353e-05 -2.92231e-06
-4.7829e-06 -2.92231e-06 -9.36963e-05
0.000929712 3.08324e-06 -2.41308e-06
3.08324e-06 1.52505e-05 -1.75925e-06
-2.41308e-06 -1.75925e-06 -3.57759e-05
0.00257533 -3.44443e-05 2.25268e-07
-3.44443e-05 0.000834717 -8.16745e-08
2.25268e-07 -8.16745e-08 0.000848362
0.000852773 -1.98492e-05 1.1188e-07
-1.98492e-05 -3.69528e-05 -3.3314e-08
1.1188e-07 -3.3314e-08 -4.86169e-05
0.00123189 -1.48849e-06 4.29674e-06
-1.48849e-06 0.000190879 1.83082e-07
4.29674e-06 1.83082e-07 0.000158
0.00119774 -1.65736e-05 3.66843e-06
-1.65736e-05 0.000177102 4.16946e-07
3.66843e-06 4.16946e-07 0.000150403
0.000982014 2.05511e-05 3.04754e-08
2.05511e-05 7.10103e-06 -6.05502e-08
3.04754e-08 -6.05502e-08 -4.7277e-05
0.000835922 -2.39852e-05 -3.18358e-08
-2.39852e-05 -2.74798e-05 -3.00132e-08
-3.18358e-08 -3.00132e-08 -4.27715e-05
0.000933463 1.06318e-05 -1.05328e-07
1.06318e-05 9.87957e-06 -3.60859e-08
-1.05328e-07 -3.60859e-08 -4.13913e-05
0.000929991 1.33927e-07 1.00704e-08
1.33927e-07 1.61902e-05 -5.39249e-08
1.00704e-08 -5.39249e-08 -3.26896e-05
0.000965059 2.92469e-05 -3.21191e-08
2.92469e-05 5.70335e-06 -1.18707e-07
-3.21191e-08 -1.18707e-07 -5.56774e-05
0.000860176 -2.21374e-05 4.61701e-06
-2.21374e-05 -2.49131e-05 3.26697e-06
4.61701e-06 3.26697e-06 -3.83647e-05
0.000877957 -1.81276e-05 3.79808e-06
-1.81276e-05 -3.03555e-05 3.56832e-06
3.79808e-06 3.56832e-06 -4.04781e-05
0.000960636 -1.00775e-07 2.63452e-06
-1.00775e-07 1.17482e-05 1.95664e-06
2.63452e-06 1.95664e-06 -3.06541e-05
0.00101403 1.88508e-05 2.66094e-06
1.88508e-05 5.19874e-06 1.55307e-06
2.66094e-06 1.55307e-06 -5.09028e-05
0.000968791 1.73549e-05 2.4786e-06
1.73549e-05 1.74122e-05 1.6665e-06
2.4786e-06 1.6665e-06 -3.51433e-05
0.00115024 3.47601e-05 1.50389e-06
3.47601e-05 4.6945e-05 1.3437e-06
1.50389e-06 1.3437e-06 -1.69336e-05
0.000948485 -1.25129e-06 2.4994e-06
-1.25129e-06 1.79327e-05 1.86083e-06
2.4994e-06 1.86083e-06 -2.76828e-05
0.000980619 3.21385e-05 1.08998e-06
3.21385e-05 -3.06414e-07 7.12474e-07
1.08998e-06 7.12474e-07 -6.06876e-05
0.00104904 2.56718e-05 1.26604e-06
2.56718e-05 5.84823e-05 7.46649e-07
1.26604e-06 7.46649e-07 -3.63578e-06
0.00114789 4.17484e-05 -3.20387e-08
4.17484e-05 8.91707e-05 1.90731e-08
-3.20387e-08 1.90731e-08 2.25653e-05
0.0025119 -2.54411e-05 1.52784e-05
-2.54411e-05 0.000784207 4.16145e-06
1.52784e-05 4.16145e-06 0.000801664
0.00256077 -2.85299e-05 2.87315e-07
-2.85299e-05 0.000813092 -6.70361e-08
2.87315e-07 -6.70361e-08 0.000829422
0.00261492 -3.16637e-05 -1.68333e-05
-3.16637e-05 0.00084529 -3.94551e-06
-1.68333e-05 -3.94551e-06 0.000860378
0.00083114 1.88696e-05 3.92774e-06
1.88696e-05 -4.71956e-05 -3.69988e-06
3.92774e-06 -3.69988e-06 -5.96212e-05
0.00268457 3.46296e-05 1.76145e-05
3.46296e-05 0.000887515 -3.81624e-06
1.76145e-05 -3.81624e-06 0.00090075
0.00325888 -5.58794e-05 -2.42365e-05
-5.58794e-05 0.00125692 -1.94777e-06
-2.42365e-05 -1.94777e-06 0.00125098
0.0034128 -6.05863e-05 -2.70548e-05
-6.05863e-05 0.00134515 -1.0655e-06
-2.70548e-05 -1.0655e-06 0.00133678
0.000714274 3.19409e-06 -5.74636e-06
3.19409e-06 -6.82966e-05 -1.96729e-06
-5.74636e-06 -1.96729e-06 -0.000106111
0.000709181 3.25774e-06 -6.27658e-06
3.25774e-06 -7.9212e-05 -1.49703e-06
-6.27658e-06 -1.49703e-06 -0.000118043
0.00365583 -5.55079e-05 -3.10142e-05
-5.55079e-05 0.00146246 -2.12299e-07
-3.10142e-05 -2.12299e-07 0.00145381
0.00374463 1.17554e-05 -9.19633e-07
1.17554e-05 0.00150426 1.14892e-07
-9.19633e-07 1.14892e-07 0.00149558
0.000713226 -2.96532e-06 3.06427e-09
-2.96532e-06 -8.498e-05 -1.46501e-07
3.06427e-09 -1.46501e-07 -0.000124081
0.00125226 -1.67458e-05 5.85479e-06
-1.67458e-05 0.000196401 1.14409e-08
5.85479e-06 1.14409e-08 0.000160892
0.00110665 -7.0979e-07 1.22813e-07
-7.0979e-07 6.84265e-06 7.83347e-09
1.22813e-07 7.83347e-09 -5.40439e-05
0.00072911 1.45579e-06 2.7784e-08
1.45579e-06 -6.11484e-05 -1.20701e-07
2.7784e-08 -1.20701e-07 -9.83029e-05
0.00108746 1.34466e-05 2.66479e-08
1.34466e-05 1.63429e-05 -5.77012e-08
2.66479e-08 -5.77012e-08 -4.22947e-05
0.00069718 -1.40954e-06 6.88479e-06
-1.40954e-06 -9.59317e-05 -2.88002e-07
6.88479e-06 -2.88002e-07 -0.000134963
0.00111753 -2.94999e-06 4.03024e-06
-2.94999e-06 1.80263e-06 6.54801e-07
4.03024e-06 6.54801e-07 -6.07196e-05
0.00108888 5.72161e-06 3.39861e-06
5.72161e-06 8.07726e-06 1.31209e-06
3.39861e-06 1.31209e-06 -5.14542e-05
0.00126416 -4.39404e-06 2.21034e-06
-4.39404e-06 3.72123e-05 7.96424e-07
2.21034e-06 7.96424e-07 -3.31281e-05
0.00104972 1.62108e-05 2.83217e-06
1.62108e-05 8.40327e-06 1.51615e-06
2.83217e-06 1.51615e-06 -4.91272e-05
0.00124268 1.43129e-05 1.73506e-06
1.43129e-05 4.49941e-05 8.69606e-07
1.73506e-06 8.69606e-07 -2.15633e-05
0.00373504 6.26782e-05 -3.5527e-05
6.26782e-05 0.00149997 -1.64423e-07
-3.5527e-05 -1.64423e-07 0.00149098
0.00132226 3.66566e-05 -7.09637e-06
3.66566e-05 0.000299833 7.77127e-07
-7.09637e-06 7.77127e-07 0.000279261
0.00022478 8.57266e-06 -8.63316e-06
8.57266e-06 -0.000325866 1.64243e-06
-8.63316e-06 1.64243e-06 -0.000367894
0.00135319 8.19408e-06 -1.57823e-05
8.19408e-06 0.000237119 1.93648e-06
-1.57823e-05 1.93648e-06 0.000201492
0.00258742 4.2804e-05 -7.41227e-06
4.2804e-05 0.000860165 1.38177e-06
-7.41227e-06 1.38177e-06 0.000869977
0.00158368 3.45676e-05 -1.0186e-05
3.45676e-05 0.000364514 3.24908e-06
-1.0186e-05 3.24908e-06 0.000346749
0.00128248 1.08216e-05 -1.3412e-05
1.08216e-05 0.000212409 2.62996e-06
-1.3412e-05 2.62996e-06 0.000179921
0.00130613 -2.02894e-05 -4.72672e-06
-2.02894e-05 0.000124934 1.81483e-06
-4.72672e-06 1.81483e-06 6.67976e-05
0.00150156 -2.02266e-05 -3.5546e-06
-2.02266e-05 0.000259267 1.64517e-06
-3.5546e-06 1.64517e-06 0.000206493
0.0014703 -1.02197e-05 -3.81114e-06
-1.02197e-05 0.000274861 2.49544e-06
-3.81114e-06 2.49544e-06 0.000224048
0.00111019 -3.36386e-05 -1.58686e-06
-3.36386e-05 4.07192e-05 1.09273e-06
-1.58686e-06 1.09273e-06 -2.27872e-05
0.000722755 8.6875e-06 -6.6933e-08
8.6875e-06 -8.09065e-05 -1.31231e-07
-6.6933e-08 -1.31231e-07 -0.000119903
0.00133948 1.74643e-05 -4.40334e-06
1.74643e-05 0.000231129 1.23324e-07
-4.40334e-06 1.23324e-07 0.000195434
0.00115559 1.45552e-05 -6.93084e-07
1.45552e-05 2.42962e-05 7.50534e-08
-6.93084e-07 7.50534e-08 -3.64894e-05
0.00149041 -1.79333e-05 -7.31709e-07
-1.79333e-05 0.000201582 6.46505e-08
-7.31709e-07 6.46505e-08 0.00014338
0.00262488 3.74017e-05 -1.85168e-07
3.74017e-05 0.000867701 -8.19499e-08
-1.85168e-07 -8.19499e-08 0.000879461
0.0011933 2.9629e-05 6.98776e-07
2.9629e-05 0.000160645 2.45487e-09
6.98776e-07 2.45487e-09 0.00014405
0.00114124 -1.26985e-06 1.24788e-07
-1.26985e-06 0.000123293 -1.91712e-08
1.24788e-07 -1.91712e-08 7.38145e-05
0.00127594 -1.89248e-05 -5.68965e-07
-1.89248e-05 0.000131067 1.34034e-07
-5.68965e-07 1.34034e-07 7.54623e-05
0.0013002 -3.05736e-05 -5.9129e-07
-3.05736e-05 7.201e-05 3.15395e-07
-5.9129e-07 3.15395e-07 4.43858e-06
0.00102662 -3.33811e-05 -9.94088e-08
-3.33811e-05 2.14688e-05 -9.62608e-08
-9.94088e-08 -9.62608e-08 -4.31815e-05
0.00127397 -3.38146e-05 2.94083e-08
-3.38146e-05 0.000102445 7.51233e-08
2.94083e-08 7.51233e-08 3.96657e-05
0.00119223 -4.14774e-05 9.61597e-08
-4.14774e-05 5.72791e-05 6.39226e-09
9.61597e-08 6.39226e-09 -1.04524e-05
0.000829814 2.12142e-05 -7.43386e-08
2.12142e-05 -4.04774e-05 -5.497e-08
-7.43386e-08 -5.497e-08 -5.47545e-05
0.000956989 -2.4534e-06 -1.32164e-07
-2.4534e-06 9.74543e-06 -7.00667e-08
-1.32164e-07 -7.00667e-08 -3.46812e-05
0.00111789 8.15495e-06 4.02989e-06
8.15495e-06 9.45006e-07 -4.6027e-07
4.02989e-06 -4.6027e-07 -6.07969e-05
0.00138781 2.85892e-06 3.21253e-06
2.85892e-06 0.000143426 -7.41933e-07
3.21253e-06 -7.41933e-07 8.46586e-05
0.0015765 1.22297e-05 1.7633e-06
1.22297e-05 0.000181108 -2.63223e-08
1.7633e-06 -2.63223e-08 0.000112198
0.00113235 -2.05594e-05 2.52649e-06
-2.05594e-05 -2.87137e-05 -9.00155e-07
2.52649e-06 -9.00155e-07 -9.82147e-05
0.00128279 -3.28756e-05 1.35359e-06
-3.28756e-05 9.09839e-05 -1.04003e-06
1.35359e-06 -1.04003e-06 2.708e-05
0.00149257 -3.32092e-05 8.16231e-07
-3.32092e-05 0.000139122 -5.55711e-07
8.16231e-07 -5.55711e-07 6.94038e-05
0.000784731 2.30181e-05 4.65135e-06
2.30181e-05 -5.3742e-05 -3.31222e-06
4.65135e-06 -3.31222e-06 -6.96809e-05
0.00122855 -3.86975e-05 1.12635e-06
-3.86975e-05 5.38987e-05 -7.81982e-07
1.12635e-06 -7.81982e-07 -1.23412e-05
0.000906854 1.01744e-06 2.52744e-06
1.01744e-06 6.90838e-06 -1.78558e-06
2.52744e-06 -1.78558e-06 -4.19068e-05
0.000823997 -2.76989e-05 1.58591e-06
-2.76989e-05 -5.74724e-05 -1.67062e-06
1.58591e-06 -1.67062e-06 -0.000121258
0.00145934 -4.91928e-05 9.89102e-07
-4.91928e-05 0.000212321 -1.1049e-06
9.89102e-07 -1.1049e-06 0.000142253
0.00130377 -4.54226e-05 1.03109e-06
-4.54226e-05 9.75156e-05 -2.32233e-07
1.03109e-06 -2.32233e-07 2.95571e-05
0.000940419 -1.26062e-06 2.961e-06
-1.26062e-06 7.05671e-06 -2.11379e-06
2.961e-06 -2.11379e-06 -3.86206e-05
0.000963518 -3.68913e-06 2.32535e-06
-3.68913e-06 1.09102e-05 -2.53991e-06
2.32535e-06 -2.53991e-06 -3.15217e-05
0.00105295 -2.47516e-05 1.67935e-06
-2.47516e-05 5.35285e-05 -1.15187e-06
1.67935e-06 -1.15187e-06 -9.98425e-06
0.000721384 2.34728e-06 -5.56031e-06
2.34728e-06 -5.98544e-05 -2.48746e-06
-5.56031e-06 -2.48746e-06 -9.59139e-05
0.00262211 -3.46102e-05 -1.74409e-05
-3.46102e-05 0.000856472 -3.78784e-06
-1.74409e-05 -3.78784e-06 0.000870167
0.000836062 -1.95672e-05 -4.01558e-06
-1.95672e-05 -4.56225e-05 -3.55905e-06
-4.01558e-06 -3.55905e-06 -5.71447e-05
0.00070176 -1.51399e-05 -4.9374e-06
-1.51399e-05 -6.61644e-05 -2.78431e-06
-4.9374e-06 -2.78431e-06 -9.55193e-05
0.000975918 2.12635e-05 -2.4865e-06
2.12635e-05 3.75541e-06 -1.75311e-06
-2.4865e-06 -1.75311e-06 -5.05446e-05
0.000782973 -2.32183e-05 -4.68183e-06
-2.32183e-05 -5.34907e-05 -3.22624e-06
-4.68183e-06 -3.22624e-06 -6.8663e-05
0.000923297 -1.86535e-06 -2.36803e-06
-1.86535e-06 1.47735e-05 -1.97194e-06
-2.36803e-06 -1.97194e-06 -3.43471e-05
0.00092102 9.43727e-06 -2.35706e-06
9.43727e-06 4.59699e-06 -1.35575e-06
-2.35706e-06 -1.35575e-06 -4.67793e-05
0.000930404 2.8961e-05 -1.32798e-06
2.8961e-05 -1.22325e-05 -7.2604e-07
-1.32798e-06 -7.2604e-07 -7.3811e-05
0.000838164 -2.17615e-05 7.61445e-08
-2.17615e-05 -3.6134e-05 -5.22475e-08
7.61445e-08 -5.22475e-08 -4.94452e-05
0.000864189 -1.79033e-05 1.18067e-07
-1.79033e-05 -3.75804e-05 -1.2397e-08
1.18067e-07 -1.2397e-08 -4.75543e-05
0.000955381 2.02832e-07 8.18451e-08
2.02832e-07 9.77363e-06 -4.3559e-08
8.18451e-08 -4.3559e-08 -3.27364e-05
0.00102225 1.96525e-05 4.71746e-08
1.96525e-05 8.67919e-06 -2.9654e-08
4.71746e-08 -2.9654e-08 -4.73646e-05
0.000948798 1.71713e-05 -4.43648e-08
1.71713e-05 7.94181e-06 1.11425e-08
-4.43648e-08 1.11425e-08 -4.45596e-05
0.00114226 3.49107e-05 7.65184e-08
3.49107e-05 4.34094e-05 3.59536e-08
7.65184e-08 3.59536e-08 -2.05068e-05
0.000936613 -2.32017e-06 -1.05724e-07
-2.32017e-06 1.36141e-05 4.70652e-08
-1.05724e-07 4.70652e-08 -3.21658e-05
0.00104296 3.35754e-05 -1.98807e-08
3.35754e-05 3.05998e-05 -3.82607e-08
-1.98807e-08 -3.82607e-08 -2.94738e-05
0.00104247 2.60829e-05 5.77597e-08
2.60829e-05 5.53116e-05 -1.54248e-07
5.77597e-08 -1.54248e-07 -6.87413e-06
0.00106411 4.04899e-05 -4.93962e-07
4.04899e-05 4.76676e-05 1.67828e-07
-4.93962e-07 1.67828e-07 -1.92905e-05
0.000883786 -1.6134e-05 3.33825e-06
-1.6134e-05 -3.2266e-05 3.62062e-06
3.33825e-06 3.62062e-06 -4.07233e-05
0.000952456 -1.36551e-06 2.70191e-06
-1.36551e-06 1.26797e-05 1.78969e-06
2.70191e-06 1.78969e-06 -3.08767e-05
0.000969018 1.13246e-06 2.41913e-06
1.13246e-06 1.20308e-05 2.14079e-06
2.41913e-06 2.14079e-06 -2.89724e-05
0.00103947 1.64575e-05 1.4897e-06
1.64575e-05 4.74199e-05 8.03765e-07
1.4897e-06 8.03765e-07 -1.25055e-05
0.00115861 2.82063e-05 1.79413e-06
2.82063e-05 3.06961e-05 1.15203e-06
1.79413e-06 1.15203e-06 -3.41379e-05
0.00112227 3.64723e-05 1.28966e-06
3.64723e-05 5.53742e-05 1.31252e-06
1.28966e-06 1.31252e-06 -6.32875e-06
0.0012115 3.93726e-05 8.77156e-07
3.93726e-05 5.61815e-05 1.43766e-06
8.77156e-07 1.43766e-06 -1.27332e-05
0.00105708 2.22449e-05 1.25982e-06
2.22449e-05 6.12869e-05 9.99305e-07
1.25982e-06 9.99305e-07 4.98613e-07
0.00111253 4.12089e-05 2.60041e-07
4.12089e-05 5.29188e-05 7.41091e-07
2.60041e-07 7.41091e-07 -1.21377e-05
0.00108721 4.03462e-05 6.95066e-07
4.03462e-05 7.37864e-05 8.64852e-08
6.95066e-07 8.64852e-08 3.29516e-06
0.00102155 4.18843e-05 2.25196e-07
4.18843e-05 1.82447e-05 1.94863e-07
2.25196e-07 1.94863e-07 -5.19041e-05
0.000967815 2.50197e-07 1.24147e-06
2.50197e-07 5.53395e-06 2.2146e-06
1.24147e-06 2.2146e-06 -2.79636e-05
0.000888469 -1.23796e-05 2.4331e-06
-1.23796e-05 -3.67764e-05 3.56087e-06
2.4331e-06 3.56087e-06 -4.22622e-05
0.00248798 -2.25018e-05 1.41364e-05
-2.25018e-05 0.000767989 4.21048e-06
1.41364e-05 4.21048e-06 0.000786485
0.00253648 -2.55469e-05 3.32407e-07
-2.55469e-05 0.000795969 -5.97261e-08
3.32407e-07 -5.97261e-08 0.000813448
0.00259411 -2.86678e-05 -1.59619e-05
-2.86678e-05 0.000828918 -4.04888e-06
-1.59619e-05 -4.04888e-06 0.000845274
0.000843202 1.73798e-05 3.34411e-06
1.73798e-05 -4.56094e-05 -3.66575e-06
3.34411e-06 -3.66575e-06 -5.61067e-05
0.00266004 3.16619e-05 1.68289e-05
3.16619e-05 0.000869434 -3.94286e-06
1.68289e-05 -3.94286e-06 0.000883943
0.000843 1.91727e-05 -1.608e-07
1.91727e-05 -4.05987e-05 -3.85685e-08
-1.608e-07 -3.85685e-08 -5.32106e-05
0.00263497 3.44687e-05 -2.10361e-07
3.44687e-05 0.000864133 -8.01025e-08
-2.10361e-07 -8.01025e-08 0.000877352
0.000715469 5.82126e-06 -5.7139e-06
5.82126e-06 -6.5482e-05 -2.21868e-06
-5.7139e-06 -2.21868e-06 -0.000102832
0.000712788 6.64244e-06 -5.9237e-06
6.64244e-06 -7.16545e-05 -1.77382e-06
-5.9237e-06 -1.77382e-06 -0.000110003
0.00108791 1.24768e-05 -3.06678e-06
1.24768e-05 1.66638e-05 -1.5428e-06
-3.06678e-06 -1.5428e-06 -4.19429e-05
0.0011235 -2.55916e-08 -3.63658e-06
-2.55916e-08 1.50018e-05 -1.22191e-06
-3.63658e-06 -1.22191e-06 -4.58156e-05
0.000698534 7.31969e-07 -6.71885e-06
7.31969e-07 -9.2087e-05 -8.88478e-07
-6.71885e-06 -8.88478e-07 -0.000131097
0.00375449 2.73712e-05 -3.41263e-05
2.73712e-05 0.00150942 1.89945e-07
-3.41263e-05 1.89945e-07 0.00150036
0.000709359 1.21029e-06 4.24993e-09
1.21029e-06 -9.0183e-05 -1.44843e-07
4.24993e-09 -1.44843e-07 -0.000129228
0.00113074 -1.78585e-07 3.90906e-08
-1.78585e-07 8.07016e-06 -1.83007e-07
3.90906e-08 -1.83007e-07 -5.43591e-05
0.001095 4.3156e-06 1.80534e-08
4.3156e-06 1.123e-05 -4.48471e-09
1.80534e-08 -4.48471e-09 -4.82885e-05
0.00129035 -5.46559e-06 4.85354e-08
-5.46559e-06 4.96805e-05 -4.05722e-09
4.85354e-08 -4.05722e-09 -2.06958e-05
0.00105936 1.71971e-05 5.91996e-08
1.71971e-05 1.31015e-05 -2.21246e-08
5.91996e-08 -2.21246e-08 -4.44135e-05
0.00125059 1.61335e-05 2.46263e-09
1.61335e-05 4.8769e-05 7.52857e-09
2.46263e-09 7.52857e-09 -1.78056e-05
0.00113478 1.31826e-06 4.16202e-06
1.31826e-06 6.28235e-06 -1.35854e-07
4.16202e-06 -1.35854e-07 -5.63231e-05
0.00129427 6.1974e-07 2.31221e-06
6.1974e-07 4.24491e-05 5.01312e-07
2.31221e-06 5.01312e-07 -2.99511e-05
0.00126277 5.56724e-06 2.00914e-06
5.56724e-06 4.47961e-05 8.40174e-07
2.00914e-06 8.40174e-07 -2.33724e-05
0.00137625 -1.06214e-05 1.50352e-06
-1.06214e-05 7.02895e-05 4.67159e-07
1.50352e-06 4.67159e-07 -2.2324e-06
0.0012119 2.26387e-05 1.54574e-06
2.26387e-05 4.18963e-05 8.80188e-07
1.54574e-06 8.80188e-07 -2.36083e-05
0.00131627 1.6584e-05 1.01465e-06
1.6584e-05 5.60991e-05 7.8449e-07
1.01465e-06 7.8449e-07 -1.26043e-05
0.000730654 1.20592e-05 -6.78308e-06
1.20592e-05 -7.67854e-05 7.70009e-07
-6.78308e-06 7.70009e-07 -0.000116058
0.00136883 1.77321e-05 -1.65144e-05
1.77321e-05 0.00024438 1.44813e-06
-1.65144e-05 1.44813e-06 0.000208898
0.00089236 1.35606e-05 -4.39391e-06
1.35606e-05 -0.000106792 7.10072e-07
-4.39391e-06 7.10072e-07 -0.000169052
0.00162096 -1.83697e-05 -4.52793e-06
-1.83697e-05 0.000265452 1.27313e-06
-4.52793e-06 1.27313e-06 0.000207754
0.00257317 3.7177e-05 -1.73973e-05
3.7177e-05 0.000843676 3.49329e-06
-1.73973e-05 3.49329e-06 0.000855365
0.00159693 3.22792e-05 -9.42235e-06
3.22792e-05 0.000362266 2.85391e-06
-9.42235e-06 2.85391e-06 0.000347374
0.00141706 -1.28991e-07 -2.51685e-06
-1.28991e-07 0.000257633 1.86716e-06
-2.51685e-06 1.86716e-06 0.000209525
0.00128623 -1.93908e-05 -3.66078e-06
-1.93908e-05 0.000135828 1.6022e-06
-3.66078e-06 1.6022e-06 8.02928e-05
0.0010795 -2.82732e-05 -2.58012e-06
-2.82732e-05 -3.66729e-05 1.34733e-06
-2.58012e-06 1.34733e-06 -0.000105053
0.00139915 -3.4928e-05 -1.65608e-06
-3.4928e-05 0.000163276 1.0842e-06
-1.65608e-06 1.0842e-06 0.000100941
0.00088728 -3.06861e-05 -1.57059e-06
-3.06861e-05 -4.46541e-05 1.31502e-06
-1.57059e-06 1.31502e-06 -0.000109542
0.00118205 -4.12323e-05 -1.09781e-06
-4.12323e-05 5.2844e-05 8.41592e-07
-1.09781e-06 8.41592e-07 -1.47959e-05
0.000847125 2.16661e-05 -4.51788e-06
2.16661e-05 -3.12139e-05 3.37636e-06
-4.51788e-06 3.37636e-06 -4.56632e-05
0.000955955 -1.96181e-06 -2.76814e-06
-1.96181e-06 8.90683e-06 2.12584e-06
-2.76814e-06 2.12584e-06 -3.53817e-05
0.00101183 1.195e-05 -5.60517e-08
1.195e-05 -5.14951e-05 1.94121e-08
-5.60517e-08 1.94121e-08 -0.000113996
0.00138663 7.17296e-10 -7.3094e-07
7.17296e-10 0.00014238 8.05043e-08
-7.3094e-07 8.05043e-08 8.37119e-05
0.00145556 1.37176e-05 -6.78699e-07
1.37176e-05 0.000121926 1.15656e-07
-6.78699e-07 1.15656e-07 5.27927e-05
0.00135704 -2.25574e-05 3.20171e-07
-2.25574e-05 8.22308e-05 -2.86058e-07
3.20171e-07 -2.86058e-07 1.36647e-05
0.000814445 2.36241e-05 4.25723e-09
2.36241e-05 -3.86667e-05 -4.43817e-08
4.25723e-09 -4.43817e-08 -5.47795e-05
0.00092889 -6.65387e-07 8.96255e-08
-6.65387e-07 1.58126e-05 -6.08891e-09
8.96255e-08 -6.08891e-09 -3.27955e-05
0.000913761 -2.90568e-05 3.97338e-07
-2.90568e-05 -1.25471e-05 -2.63002e-07
3.97338e-07 -2.63002e-07 -7.58046e-05
0.00137069 -3.37016e-05 -3.68345e-07
-3.37016e-05 0.000132807 1.04634e-07
-3.68345e-07 1.04634e-07 6.89436e-05
0.00134609 -3.07182e-05 -1.86708e-07
-3.07182e-05 6.73102e-05 3.82134e-07
-1.86708e-07 3.82134e-07 -2.36877e-06
0.00124666 -4.5473e-05 -3.98794e-07
-4.5473e-05 0.000109381 1.1508e-07
-3.98794e-07 1.1508e-07 3.86635e-05
0.00122935 -3.86076e-05 6.90729e-08
-3.86076e-05 5.4299e-05 1.02095e-07
6.90729e-08 1.02095e-07 -1.19061e-05
0.00122118 -4.39547e-05 2.87748e-07
-4.39547e-05 5.76429e-05 2.62337e-07
2.87748e-07 2.62337e-07 -1.03731e-05
0.000948023 -1.07587e-06 -5.78735e-09
-1.07587e-06 1.00325e-05 -5.75843e-08
-5.78735e-09 -5.75843e-08 -3.54695e-05
0.000990735 -2.34104e-05 1.73886e-08
-2.34104e-05 2.13934e-05 -1.2927e-07
1.73886e-08 -1.2927e-07 -4.22811e-05
0.000961091 -2.79022e-06 -1.58751e-07
-2.79022e-06 9.76509e-06 -1.44881e-08
-1.58751e-07 -1.44881e-08 -3.2639e-05
0.0015584 1.79712e-05 1.92169e-06
1.79712e-05 0.000171617 -1.54278e-08
1.92169e-06 -1.54278e-08 0.000101404
0.00142659 -2.18101e-06 2.3143e-06
-2.18101e-06 0.000106687 -1.67656e-07
2.3143e-06 -1.67656e-07 3.78417e-05
0.00148962 1.68227e-05 2.02638e-06
1.68227e-05 0.00011366 2.40913e-07
2.02638e-06 2.40913e-07 4.03076e-05
0.00136625 -1.71922e-05 1.39032e-06
-1.71922e-05 5.7437e-05 -9.16795e-07
1.39032e-06 -9.16795e-07 -1.43424e-05
0.00112374 -3.49437e-05 1.13265e-06
-3.49437e-05 -1.29821e-05 -1.07724e-06
1.13265e-06 -1.07724e-06 -7.96235e-05
0.00147543 -3.03988e-05 2.22626e-07
-3.03988e-05 0.000114206 -2.56024e-07
2.22626e-07 -2.56024e-07 4.74334e-05
0.000921045 8.76384e-07 2.80452e-06
8.76384e-07 6.00389e-06 -1.87252e-06
2.80452e-06 -1.87252e-06 -4.08811e-05
0.00123752 -4.04911e-05 6.92122e-07
-4.04911e-05 4.47924e-05 -6.63989e-07
6.92122e-07 -6.63989e-07 -2.05798e-05
0.00101999 -2.69948e-05 1.1514e-06
-2.69948e-05 4.416e-05 -8.70804e-07
1.1514e-06 -8.70804e-07 -1.71013e-05
0.000895714 -3.98098e-05 1.42364e-06
-3.98098e-05 -3.32105e-05 -1.93924e-06
1.42364e-06 -1.93924e-06 -0.00010472
0.0013262 -4.98379e-05 1.68376e-06
-4.98379e-05 0.000135927 -6.31124e-07
1.68376e-06 -6.31124e-07 6.14506e-05
0.00151209 -4.96651e-05 3.57297e-07
-4.96651e-05 0.000191823 4.34517e-07
3.57297e-07 4.34517e-07 0.000126329
0.000968329 -1.09816e-06 1.77304e-06
-1.09816e-06 1.21442e-05 -2.42999e-06
1.77304e-06 -2.42999e-06 -2.70785e-05
0.00103761 -2.39843e-05 1.70006e-06
-2.39843e-05 4.6378e-05 -8.37446e-07
1.70006e-06 -8.37446e-07 -1.55042e-05
0.000876694 -1.81893e-05 1.87049e-06
-1.81893e-05 -3.23593e-05 -1.90728e-06
1.87049e-06 -1.90728e-06 -9.77413e-05
0.0012507 -4.17655e-05 5.50643e-07
-4.17655e-05 0.000150873 7.21695e-09
5.50643e-07 7.21695e-09 7.95403e-05
0.00103242 2.06683e-05 -2.77501e-06
2.06683e-05 1.31243e-05 -1.70317e-06
-2.77501e-06 -1.70317e-06 -4.28726e-05
0.000850827 -1.76842e-05 -3.55321e-06
-1.76842e-05 -4.46283e-05 -3.64566e-06
-3.55321e-06 -3.64566e-06 -5.44515e-05
0.000816477 -2.13926e-05 -4.4381e-06
-2.13926e-05 -4.72204e-05 -3.39453e-06
-4.4381e-06 -3.39453e-06 -6.03882e-05
0.000950785 6.01607e-07 -2.58783e-06
6.01607e-07 8.13585e-06 -2.10838e-06
-2.58783e-06 -2.10838e-06 -3.44859e-05
0.000929798 1.70606e-05 -2.23592e-06
1.70606e-05 -1.10158e-06 -1.52161e-06
-2.23592e-06 -1.52161e-06 -5.35457e-05
0.00113155 3.49284e-05 -1.46847e-06
3.49284e-05 3.85689e-05 -1.3176e-06
-1.46847e-06 -1.3176e-06 -2.53791e-05
0.00092407 -3.60994e-06 -2.68107e-06
-3.60994e-06 9.04046e-06 -1.85208e-06
-2.68107e-06 -1.85208e-06 -3.69165e-05
0.00103813 2.64107e-05 -1.19721e-06
2.64107e-05 5.32104e-05 -1.02779e-06
-1.19721e-06 -1.02779e-06 -9.05023e-06
0.00111597 3.51769e-05 -1.11193e-06
3.51769e-05 6.65568e-05 -7.89227e-07
-1.11193e-06 -7.89227e-07 6.79168e-06
0.000981034 3.92376e-05 -1.33363e-06
3.92376e-05 6.5688e-06 -3.26479e-07
-1.33363e-06 -3.26479e-07 -6.07515e-05
0.000873254 -1.59456e-05 1.19011e-07
-1.59456e-05 -3.78778e-05 -9.84673e-10
1.19011e-07 -9.84673e-10 -4.61896e-05
0.000947121 -1.2484e-06 2.63529e-08
-1.2484e-06 1.09279e-05 -3.04612e-08
2.63529e-08 -3.04612e-08 -3.2774e-05
0.00096253 1.4746e-06 8.20401e-08
1.4746e-06 9.27422e-06 -2.05831e-08
8.20401e-08 -2.05831e-08 -3.1796e-05
0.00103323 1.63757e-05 7.10279e-08
1.63757e-05 4.49373e-05 -8.14881e-08
7.10279e-08 -8.14881e-08 -1.51024e-05
0.00118663 2.88478e-05 2.83051e-07
2.88478e-05 4.37938e-05 1.47033e-07
2.83051e-07 1.47033e-07 -2.10989e-05
0.0010998 3.64361e-05 4.77916e-08
3.64361e-05 4.52116e-05 1.43277e-08
4.77916e-08 1.43277e-08 -1.64674e-05
0.00120513 3.92743e-05 -5.3155e-09
3.92743e-05 5.3331e-05 2.15722e-07
-5.3155e-09 2.15722e-07 -1.56044e-05
0.00104177 2.15474e-05 -9.47618e-08
2.15474e-05 5.46573e-05 2.93112e-08
-9.47618e-08 2.93112e-08 -6.16134e-06
0.00120528 4.27817e-05 -2.96841e-07
4.27817e-05 9.8597e-05 -3.12707e-07
-2.96841e-07 -3.12707e-07 3.39242e-05
0.00109929 4.09729e-05 1.46187e-07
4.09729e-05 7.93426e-05 -2.79979e-07
1.46187e-07 -2.79979e-07 8.62792e-06
0.00103427 4.19246e-05 -9.91615e-07
4.19246e-05 2.62188e-05 -1.495e-08
-9.91615e-07 -1.495e-08 -4.27394e-05
0.000890064 -1.41976e-05 2.88859e-06
-1.41976e-05 -3.29801e-05 3.60572e-06
2.88859e-06 3.60572e-06 -3.98521e-05
0.000972847 2.39738e-06 2.17172e-06
2.39738e-06 1.10357e-05 2.23708e-06
2.17172e-06 2.23708e-06 -2.82695e-05
0.00104843 2.067e-05 1.48241e-06
2.067e-05 5.22028e-05 7.58327e-07
1.48241e-06 7.58327e-07 -7.52178e-06
0.00103683 1.36431e-05 1.3451e-06
1.36431e-05 4.62158e-05 1.03973e-06
1.3451e-06 1.03973e-06 -1.35461e-05
0.00104551 3.07481e-05 8.63402e-07
3.07481e-05 5.10875e-05 1.44035e-07
8.63402e-07 1.44035e-07 -1.85162e-05
0.00120851 2.90395e-05 1.30046e-06
2.90395e-05 3.18301e-05 9.61282e-07
1.30046e-06 9.61282e-07 -3.67514e-05
0.00116441 4.24048e-05 6.58708e-07
4.24048e-05 6.11353e-05 1.30905e-06
6.58708e-07 1.30905e-06 -5.83044e-06
0.00125238 4.15438e-05 2.53516e-07
4.15438e-05 6.84804e-05 1.45845e-06
2.53516e-07 1.45845e-06 -2.88129e-06
0.00110045 3.80416e-05 1.28965e-06
3.80416e-05 8.13497e-05 1.27923e-06
1.28965e-06 1.27923e-06 1.12215e-05
0.00116749 4.48837e-05 9.64351e-07
4.48837e-05 7.32779e-05 8.84122e-07
9.64351e-07 8.84122e-07 4.58077e-06
0.000867895 4.03425e-05 9.38397e-07
4.03425e-05 -4.19824e-05 -6.38108e-08
9.38397e-07 -6.38108e-08 -0.000119935
0.000969176 2.54864e-06 1.64705e-06
2.54864e-06 6.70839e-06 2.27354e-06
1.64705e-06 2.27354e-06 -2.87878e-05
0.00103691 1.33515e-05 6.96997e-07
1.33515e-05 4.6489e-05 1.38122e-06
6.96997e-07 1.38122e-06 -7.77984e-06
0.000965967 1.3513e-06 8.9978e-07
1.3513e-06 4.04521e-06 2.11242e-06
8.9978e-07 2.11242e-06 -2.77509e-05
0.000968265 1.94244e-06 1.60204e-07
1.94244e-06 5.68013e-06 3.20839e-08
1.60204e-07 3.20839e-08 -2.77726e-05
0.00153084 -1.33176e-05 2.18493e-06
-1.33176e-05 0.00028144 2.16207e-06
2.18493e-06 2.16207e-06 0.000280525
0.0012168 -1.36516e-05 5.57724e-07
-1.36516e-05 0.000127284 1.03901e-09
5.57724e-07 1.03901e-09 0.000123495
0.00117905 -1.42588e-05 1.23139e-05
-1.42588e-05 0.000109599 6.92049e-06
1.23139e-05 6.92049e-06 0.000122671
0.00250409 -2.26002e-05 4.01876e-07
-2.26002e-05 0.000775734 -5.31133e-08
4.01876e-07 -5.31133e-08 0.000794256
0.00256243 -2.56746e-05 -1.48427e-05
-2.56746e-05 0.000808438 -4.11175e-06
-1.48427e-05 -4.11175e-06 0.000825929
0.000856875 1.62739e-05 2.77012e-06
1.62739e-05 -4.21654e-05 -3.53571e-06
2.77012e-06 -3.53571e-06 -5.05282e-05
0.00259948 2.86898e-05 1.56573e-05
2.86898e-05 0.000834804 -3.98223e-06
1.56573e-05 -3.98223e-06 0.000850623
0.000855622 1.75796e-05 -1.54049e-07
1.75796e-05 -3.8968e-05 2.65639e-10
-1.54049e-07 2.65639e-10 -4.96637e-05
0.00262705 3.14947e-05 -2.53004e-07
3.14947e-05 0.000853703 -7.63577e-08
-2.53004e-07 -7.63577e-08 0.000868188
0.000855645 1.95013e-05 -4.18551e-06
1.95013e-05 -3.36575e-05 3.56754e-06
-4.18551e-06 3.56754e-06 -4.6452e-05
0.0025876 3.43385e-05 -1.72458e-05
3.43385e-05 0.000841862 3.72482e-06
-1.72458e-05 3.72482e-06 0.000855054
0.0010726 1.81716e-05 -2.93136e-06
1.81716e-05 1.95176e-05 -1.65148e-06
-2.93136e-06 -1.65148e-06 -3.79805e-05
0.00110535 5.75595e-06 -3.25081e-06
5.75595e-06 1.63019e-05 -1.32265e-06
-3.25081e-06 -1.32265e-06 -4.31678e-05
0.0012555 1.39552e-05 -1.72031e-06
1.39552e-05 5.12508e-05 -8.73986e-07
-1.72031e-06 -8.73986e-07 -1.53322e-05
0.00131654 -6.1797e-06 -2.26987e-06
-6.1797e-06 6.21369e-05 -8.03205e-07
-2.26987e-06 -8.03205e-07 -8.26956e-06
0.00113813 2.08623e-06 -4.09537e-06
2.08623e-06 1.16596e-05 -9.82818e-07
-4.09537e-06 -9.82818e-07 -5.07214e-05
0.000714716 2.18178e-06 -6.877e-06
2.18178e-06 -8.74396e-05 -1.77614e-08
-6.877e-06 -1.77614e-08 -0.000126536
0.00113702 3.23841e-06 -7.89613e-09
3.23841e-06 7.17724e-06 -1.93802e-07
-7.89613e-09 -1.93802e-07 -5.54851e-05
0.00131018 1.70249e-06 -1.76639e-08
1.70249e-06 5.01157e-05 -1.09479e-07
-1.76639e-08 -1.09479e-07 -2.22979e-05
0.00127105 1.85665e-06 6.83533e-08
1.85665e-06 4.8994e-05 -2.25713e-09
6.83533e-08 -2.25713e-09 -1.9164e-05
0.00137713 -1.13842e-05 -2.39374e-09
-1.13842e-05 6.97236e-05 7.29684e-09
-2.39374e-09 7.29684e-09 -2.88926e-06
0.00121933 2.27156e-05 -4.82257e-08
2.27156e-05 4.53577e-05 -3.02197e-09
-4.82257e-08 -3.02197e-09 -2.0188e-05
0.00132413 1.58766e-05 -5.86979e-09
1.58766e-05 6.01823e-05 1.05843e-07
-5.86979e-09 1.05843e-07 -8.53717e-06
0.00131814 7.83424e-06 2.66675e-06
7.83424e-06 5.03012e-05 -1.63205e-07
2.66675e-06 -1.63205e-07 -2.25148e-05
0.00131964 -3.26761e-06 1.48373e-06
-3.26761e-06 3.88136e-05 5.61476e-07
1.48373e-06 5.61476e-07 -3.56628e-05
0.00133019 4.02866e-06 1.34634e-06
4.02866e-06 5.24802e-05 5.66178e-07
1.34634e-06 5.66178e-07 -1.8087e-05
0.00148809 -1.61974e-05 1.89003e-06
-1.61974e-05 0.000109691 3.60325e-07
1.89003e-06 3.60325e-07 3.80937e-05
0.00128138 2.07583e-05 7.90056e-07
2.07583e-05 5.20173e-05 5.87032e-07
7.90056e-07 5.87032e-07 -1.59365e-05
0.00138616 7.96813e-06 -3.88874e-07
7.96813e-06 7.44055e-05 1.01151e-06
-3.88874e-07 1.01151e-06 9.8948e-06
0.000907365 1.36414e-05 -4.05674e-06
1.36414e-05 -0.000103035 4.26105e-07
-4.05674e-06 4.26105e-07 -0.000166318
0.00137975 -4.97396e-06 -4.68543e-06
-4.97396e-06 0.00013831 9.5287e-07
-4.68543e-06 9.5287e-07 7.98401e-05
0.00134087 1.86735e-05 -3.21743e-06
1.86735e-05 6.59464e-05 1.87356e-07
-3.21743e-06 1.87356e-07 -3.48558e-06
0.00158018 -2.45637e-05 -1.9754e-06
-2.45637e-05 0.000192404 3.93374e-07
-1.9754e-06 3.93374e-07 0.000124777
0.000843724 2.42113e-05 -4.57174e-06
2.42113e-05 -2.38102e-05 3.18089e-06
-4.57174e-06 3.18089e-06 -4.00948e-05
0.000950476 -2.24544e-06 -2.4966e-06
-2.24544e-06 2.45641e-05 1.77739e-06
-2.4966e-06 1.77739e-06 -2.38457e-05
0.00101805 -3.07322e-05 -8.62137e-07
-3.07322e-05 3.92294e-05 1.04362e-06
-8.62137e-07 1.04362e-06 -2.35035e-05
0.00146249 -3.45451e-05 -2.02368e-06
-3.45451e-05 0.00017651 1.17926e-06
-2.02368e-06 1.17926e-06 0.000112684
0.00120024 -2.82798e-05 -1.36248e-06
-2.82798e-05 -4.2147e-06 1.26096e-06
-1.36248e-06 1.26096e-06 -7.38551e-05
0.00122927 -3.85082e-05 -1.01748e-06
-3.85082e-05 5.42823e-05 9.90699e-07
-1.01748e-06 9.90699e-07 -1.18879e-05
0.00103566 -4.18022e-05 -1.6331e-06
-4.18022e-05 7.24009e-06 1.38653e-06
-1.6331e-06 1.38653e-06 -6.41282e-05
0.00113002 -4.23556e-05 -6.44589e-07
-4.23556e-05 1.36809e-05 5.34455e-07
-6.44589e-07 5.34455e-07 -5.43879e-05
0.000954628 -9.32396e-07 -2.8015e-06
-9.32396e-07 1.25438e-05 1.89056e-06
-2.8015e-06 1.89056e-06 -3.27853e-05
0.000928926 -2.19589e-05 -1.78741e-06
-2.19589e-05 -1.05317e-05 9.14767e-07
-1.78741e-06 9.14767e-07 -7.43667e-05
0.0009585 -2.6141e-06 -2.42837e-06
-2.6141e-06 8.56512e-06 2.34489e-06
-2.42837e-06 2.34489e-06 -3.3827e-05
0.00141739 1.82236e-05 -6.73694e-07
1.82236e-05 0.000102415 1.957e-07
-6.73694e-07 1.957e-07 3.13969e-05
0.00142028 -7.75e-06 -2.80121e-07
-7.75e-06 0.000103055 1.56597e-08
-2.80121e-07 1.56597e-08 3.43424e-05
0.0013886 1.89769e-05 -3.45813e-07
1.89769e-05 6.32434e-05 3.07197e-08
-3.45813e-07 3.07197e-08 -1.06628e-05
0.0014525 -1.60532e-05 -4.10727e-08
-1.60532e-05 9.8654e-05 -3.08415e-07
-4.10727e-08 -3.08415e-07 2.71343e-05
0.000937296 2.48954e-07 5.63707e-08
2.48954e-07 1.25536e-05 -3.50098e-08
5.63707e-08 -3.50098e-08 -3.41222e-05
0.00104457 -2.74151e-05 6.71011e-08
-2.74151e-05 5.52914e-05 5.58972e-08
6.71011e-08 5.58972e-08 -5.95651e-06
0.000991709 -4.12835e-05 2.2988e-07
-4.12835e-05 1.53981e-05 -3.33565e-07
2.2988e-07 -3.33565e-07 -5.55863e-05
0.00128452 -3.68142e-05 -5.15932e-08
-3.68142e-05 6.53752e-05 -1.43034e-07
-5.15932e-08 -1.43034e-07 -1.18794e-06
0.00136231 -2.94433e-05 2.97786e-07
-2.94433e-05 5.91889e-05 6.4022e-07
2.97786e-07 6.4022e-07 -6.75019e-06
0.00118933 -4.77656e-05 7.06347e-08
-4.77656e-05 7.07745e-05 1.01734e-07
7.06347e-08 1.01734e-07 -4.58119e-06
0.00124726 -4.01264e-05 4.54002e-08
-4.01264e-05 4.94544e-05 1.70089e-07
4.54002e-08 1.70089e-07 -1.58331e-05
0.00137613 -4.72658e-05 4.674e-07
-4.72658e-05 0.000125903 3.24115e-07
4.674e-07 3.24115e-07 6.10733e-05
0.0010484 -2.46504e-05 1.01291e-07
-2.46504e-05 5.07772e-05 -8.04028e-08
1.01291e-07 -8.04028e-08 -1.09173e-05
0.00114236 -3.97621e-05 -3.5373e-07
-3.97621e-05 9.63915e-05 1.76197e-07
-3.5373e-07 1.76197e-07 2.47021e-05
0.000958439 -1.47549e-06 -1.50046e-07
-1.47549e-06 7.59463e-06 4.30426e-08
-1.50046e-07 4.30426e-08 -3.16991e-05
0.000893512 -1.767e-05 3.54863e-07
-1.767e-05 -2.45445e-05 -4.45625e-07
3.54863e-07 -4.45625e-07 -8.97608e-05
0.00141413 1.96209e-05 2.39198e-06
1.96209e-05 8.03214e-05 1.27369e-07
2.39198e-06 1.27369e-07 4.93369e-06
0.00157164 1.09907e-07 1.81065e-06
1.09907e-07 0.000143143 6.39072e-08
1.81065e-06 6.39072e-08 7.03154e-05
0.0013937 2.12589e-05 1.74829e-06
2.12589e-05 5.34459e-05 3.87902e-07
1.74829e-06 3.87902e-07 -2.29695e-05
0.00133805 -1.1987e-05 6.88628e-07
-1.1987e-05 2.61604e-05 -1.42792e-06
6.88628e-07 -1.42792e-06 -4.34528e-05
0.00119602 -3.60874e-05 3.60606e-07
-3.60874e-05 7.31082e-06 -5.83808e-07
3.60606e-07 -5.83808e-07 -5.67755e-05
0.00154383 -2.8667e-05 1.40634e-06
-2.8667e-05 0.000130457 -5.58815e-07
1.40634e-06 -5.58815e-07 6.97328e-05
0.0010262 -2.39804e-05 1.36838e-06
-2.39804e-05 4.47878e-05 -7.14669e-07
1.36838e-06 -7.14669e-07 -1.60054e-05
0.00123292 -4.02165e-05 -5.27287e-08
-4.02165e-05 3.44743e-05 -2.81484e-07
-5.27287e-08 -2.81484e-07 -2.54288e-05
0.000884527 -3.79486e-05 8.03635e-07
-3.79486e-05 -2.75937e-05 -1.36861e-06
8.03635e-07 -1.36861e-06 -9.63466e-05
0.00112875 -4.72544e-05 1.61093e-06
-4.72544e-05 7.45048e-05 -1.85116e-06
1.61093e-06 -1.85116e-06 -3.88096e-06
0.0012393 -5.12332e-05 2.06144e-06
-5.12332e-05 8.65728e-05 4.20451e-07
2.06144e-06 4.20451e-07 8.71035e-06
0.0015978 -5.10454e-05 1.20132e-06
-5.10454e-05 0.000223978 -2.47755e-07
1.20132e-06 -2.47755e-07 0.000159776
0.000953433 5.28064e-06 1.056e-06
5.28064e-06 4.19727e-06 -2.31919e-06
1.056e-06 -2.31919e-06 -3.20148e-05
0.000832706 -1.28838e-05 1.45492e-06
-1.28838e-05 -5.24623e-05 -2.2089e-06
1.45492e-06 -2.2089e-06 -0.000116281
0.00107883 -3.895e-05 8.74814e-07
-3.895e-05 6.25955e-05 -9.89891e-08
8.74814e-07 -9.89891e-08 -5.92343e-06
0.00110558 -3.81786e-05 1.16708e-06
-3.81786e-05 8.57499e-05 -4.52018e-07
1.16708e-06 -4.52018e-07 9.30114e-06
0.0012377 -4.47476e-05 6.00215e-07
-4.47476e-05 0.000138968 2.6197e-07
6.00215e-07 2.6197e-07 6.47277e-05
0.000863675 -1.57605e-05 -3.09645e-06
-1.57605e-05 -4.30398e-05 -3.66316e-06
-3.09645e-06 -3.66316e-06 -5.12048e-05
0.00120648 2.93956e-05 -1.26402e-06
2.93956e-05 5.30646e-05 -8.89334e-07
-1.26402e-06 -8.89334e-07 -1.18952e-05
0.000955448 1.79078e-06 -2.36351e-06
1.79078e-06 6.22919e-06 -2.25469e-06
-2.36351e-06 -2.25469e-06 -3.49071e-05
0.000940126 -1.24174e-06 -2.76833e-06
-1.24174e-06 8.39155e-06 -1.92992e-06
-2.76833e-06 -1.92992e-06 -3.54559e-05
0.00102838 1.6588e-05 -1.38365e-06
1.6588e-05 4.3146e-05 -9.8482e-07
-1.38365e-06 -9.8482e-07 -1.70157e-05
0.00107737 3.64157e-05 -1.25965e-06
3.64157e-05 3.50397e-05 -1.31974e-06
-1.25965e-06 -1.31974e-06 -2.66129e-05
0.00119848 3.91539e-05 -8.1168e-07
3.91539e-05 5.03531e-05 -9.9158e-07
-8.1168e-07 -9.9158e-07 -1.86037e-05
0.00102483 2.09732e-05 -1.25075e-06
2.09732e-05 4.7234e-05 -7.98216e-07
-1.25075e-06 -7.98216e-07 -1.36041e-05
0.00111487 4.1636e-05 -9.92754e-07
4.1636e-05 8.6573e-05 -9.83967e-07
-9.92754e-07 -9.83967e-07 1.5634e-05
0.00129638 4.43412e-05 -1.09899e-06
4.43412e-05 0.000143418 -1.07805e-06
-1.09899e-06 -1.07805e-06 7.91368e-05
0.00104399 4.19045e-05 -2.049e-06
4.19045e-05 3.2645e-05 1.16924e-07
-2.049e-06 1.16924e-07 -3.51057e-05
0.000882383 -1.40638e-05 1.27303e-07
-1.40638e-05 -3.69989e-05 5.11351e-09
1.27303e-07 5.11351e-09 -4.37542e-05
0.000967273 2.93388e-06 6.36328e-08
2.93388e-06 8.45315e-06 -5.81009e-09
6.36328e-08 -5.81009e-09 -3.08864e-05
0.00104079 1.95014e-05 -4.49552e-08
1.95014e-05 4.92113e-05 -3.97449e-08
-4.49552e-08 -3.97449e-08 -1.05936e-05
0.00103088 1.33969e-05 3.73764e-08
1.33969e-05 4.38125e-05 -3.42733e-08
3.73764e-08 -3.42733e-08 -1.60686e-05
0.00101453 2.97017e-05 6.13537e-08
2.97017e-05 3.55939e-05 -1.16082e-07
6.13537e-08 -1.16082e-07 -3.40388e-05
0.00124882 2.99181e-05 4.12578e-07
2.99181e-05 5.04139e-05 2.32282e-07
4.12578e-07 2.32282e-07 -1.82195e-05
0.001154 4.24353e-05 1.0226e-07
4.24353e-05 5.65814e-05 -5.7439e-08
1.0226e-07 -5.7439e-08 -1.04197e-05
0.00122188 4.20455e-05 4.32353e-07
4.20455e-05 5.36186e-05 3.51077e-07
4.32353e-07 3.51077e-07 -1.8046e-05
0.0010875 3.8482e-05 4.18954e-07
3.8482e-05 7.5705e-05 3.76847e-07
4.18954e-07 3.76847e-07 5.57345e-06
0.00121478 4.53456e-05 9.14833e-08
4.53456e-05 9.6853e-05 -2.83657e-07
9.14833e-08 -2.83657e-07 2.8509e-05
0.00100485 4.28367e-05 -6.8608e-07
4.28367e-05 2.26942e-05 -3.91319e-07
-6.8608e-07 -3.91319e-07 -5.44986e-05
0.000972147 3.32531e-06 1.96424e-06
3.32531e-06 8.87654e-06 2.27981e-06
1.96424e-06 2.27981e-06 -2.85829e-05
0.00103835 1.33667e-05 1.28494e-06
1.33667e-05 4.60951e-05 1.15959e-06
1.28494e-06 1.15959e-06 -1.30418e-05
0.00103182 3.43863e-05 6.70055e-07
3.43863e-05 4.20991e-05 2.49378e-07
6.70055e-07 2.49378e-07 -2.68989e-05
0.00106351 2.76648e-05 7.11972e-07
2.76648e-05 6.1742e-05 3.59958e-07
7.11972e-07 3.59958e-07 -8.60065e-06
0.00114482 3.96804e-05 4.81824e-08
3.96804e-05 9.9737e-05 -2.79444e-07
4.81824e-08 -2.79444e-07 2.57015e-05
0.00121722 2.81159e-05 -2.45589e-07
2.81159e-05 2.45017e-05 2.05195e-07
-2.45589e-07 2.05195e-07 -4.4396e-05
0.0011848 4.65496e-05 9.24769e-07
4.65496e-05 6.41798e-05 1.28833e-06
9.24769e-07 1.28833e-06 -6.30923e-06
0.00106764 4.53752e-05 -1.49191e-08
4.53752e-05 -1.87562e-05 6.91367e-07
-1.49191e-08 6.91367e-07 -8.97872e-05
0.0010862 4.4053e-05 7.24737e-07
4.4053e-05 7.39669e-05 1.49649e-06
7.24737e-07 1.49649e-06 -4.44785e-06
0.00118588 4.84859e-05 1.85435e-06
4.84859e-05 9.08105e-05 5.44289e-07
1.85435e-06 5.44289e-07 1.03534e-05
0.000968022 2.9449e-06 1.33027e-07
2.9449e-06 6.00269e-06 2.34523e-08
1.33027e-07 2.34523e-08 -2.94423e-05
0.000874144 1.0759e-05 1.23208e-06
1.0759e-05 -3.60952e-05 1.84226e-06
1.23208e-06 1.84226e-06 -9.38926e-05
0.000945727 1.09412e-05 -5.10422e-09
1.09412e-05 1.15294e-06 2.19416e-08
-5.10422e-09 2.19416e-08 -5.39066e-05
0.00122884 2.88116e-05 3.11748e-07
2.88116e-05 0.000149756 3.03565e-07
3.11748e-07 3.03565e-07 8.22027e-05
0.00101805 1.02054e-05 4.75046e-07
1.02054e-05 3.90442e-05 1.34138e-06
4.75046e-07 1.34138e-06 -1.34973e-05
0.00097227 3.98501e-06 7.50075e-07
3.98501e-06 6.52996e-06 2.0012e-06
7.50075e-07 2.0012e-06 -2.41078e-05
0.000972565 4.54605e-07 9.77989e-08
4.54605e-07 7.36646e-06 2.35387e-08
9.77989e-08 2.35387e-08 -2.44235e-05
0.00152521 -1.11237e-05 1.73287e-06
-1.11237e-05 0.000275584 2.10152e-06
1.73287e-06 2.10152e-06 0.000275897
0.000970433 2.85261e-06 -1.12005e-06
2.85261e-06 6.66161e-06 -2.17828e-06
-1.12005e-06 -2.17828e-06 -2.67502e-05
0.00155093 -1.26241e-05 -2.06902e-06
-1.26241e-05 0.000291414 -1.2993e-06
-2.06902e-06 -1.2993e-06 0.000290572
0.00118574 -1.23431e-05 1.06556e-05
-1.23431e-05 0.000108857 6.81072e-06
1.06556e-05 6.81072e-06 0.000123101
0.00155026 -1.40165e-05 -5.98814e-06
-1.40165e-05 0.000293878 -3.42619e-06
-5.98814e-06 -3.42619e-06 0.000291823
0.00180167 -1.70607e-05 8.5972e-06
-1.70607e-05 0.000421006 2.47558e-06
8.5972e-06 2.47558e-06 0.000437375
0.00251926 -2.27073e-05 -1.346e-05
-2.27073e-05 0.00078305 -4.14369e-06
-1.346e-05 -4.14369e-06 0.000801595
0.00087002 1.53235e-05 2.25148e-06
1.53235e-05 -3.93757e-05 -3.36038e-06
2.25148e-06 -3.36038e-06 -4.55054e-05
0.000870289 1.6371e-05 -1.64842e-07
1.6371e-05 -3.54568e-05 2.0735e-08
-1.64842e-07 2.0735e-08 -4.39751e-05
0.00251007 2.57824e-05 1.40876e-05
2.57824e-05 0.00078597 -3.95905e-06
1.40876e-05 -3.95905e-06 0.000803244
0.00258444 2.85466e-05 -2.83278e-07
2.85466e-05 0.000827604 -6.70441e-08
-2.83278e-07 -6.70441e-08 0.00084336
0.000868639 1.78024e-05 -3.65242e-06
1.78024e-05 -3.20811e-05 3.65315e-06
-3.65242e-06 3.65315e-06 -4.29697e-05
0.00259429 3.13997e-05 -1.69369e-05
3.13997e-05 0.000838146 3.93971e-06
-1.69369e-05 3.93971e-06 0.000852594
0.0012293 2.29292e-05 -1.62046e-06
2.29292e-05 5.00271e-05 -9.12549e-07
-1.62046e-06 -9.12549e-07 -1.55634e-05
0.00128035 1.69956e-06 -1.94351e-06
1.69956e-06 5.35872e-05 -8.49614e-07
-1.94351e-06 -8.49614e-07 -1.45762e-05
0.00133137 1.61154e-05 -9.63314e-07
1.61154e-05 6.39268e-05 -5.89974e-07
-9.63314e-07 -5.89974e-07 -4.80611e-06
0.00137226 -1.22239e-05 -1.57746e-06
-1.22239e-05 6.64114e-05 -4.89885e-07
-1.57746e-06 -4.89885e-07 -6.29351e-06
0.00133021 4.74046e-06 -2.4118e-06
4.74046e-06 5.97538e-05 -7.01228e-07
-2.4118e-06 -7.01228e-07 -1.27008e-05
0.00113432 7.56854e-06 -4.11999e-06
7.56854e-06 5.67049e-06 -1.9364e-07
-4.11999e-06 -1.9364e-07 -5.70007e-05
0.00132448 1.20082e-05 5.13642e-08
1.20082e-05 5.34534e-05 -2.35796e-07
5.13642e-08 -2.35796e-07 -1.93968e-05
0.00135256 -1.01906e-05 2.10706e-08
-1.01906e-05 5.39127e-05 5.11234e-08
2.10706e-08 5.11234e-08 -2.08446e-05
0.00134604 2.71414e-06 5.63336e-08
2.71414e-06 6.03233e-05 -7.93873e-08
5.63336e-08 -7.93873e-08 -1.0231e-05
0.0014704 -1.69652e-05 9.15894e-08
-1.69652e-05 0.000100681 -1.99274e-07
9.15894e-08 -1.99274e-07 2.90233e-05
0.0012882 2.14651e-05 -3.90878e-08
2.14651e-05 5.52014e-05 2.23432e-08
-3.90878e-08 2.23432e-08 -1.28713e-05
0.00137488 7.87924e-06 -5.76278e-08
7.87924e-06 6.79411e-05 6.30933e-07
-5.76278e-08 6.30933e-07 3.75197e-06
0.00139571 2.99034e-06 2.05398e-06
2.99034e-06 7.26019e-05 8.50342e-08
2.05398e-06 8.50342e-08 -3.14952e-06
0.00136684 -3.50935e-06 1.66967e-06
-3.50935e-06 5.74314e-05 1.77966e-07
1.66967e-06 1.77966e-07 -1.72773e-05
0.00123773 -3.5582e-06 1.02349e-06
-3.5582e-06 -1.11112e-05 1.47557e-06
1.02349e-06 1.47557e-06 -7.88254e-05
0.00166502 -2.24548e-05 1.80347e-06
-2.24548e-05 0.000188752 3.40431e-07
1.80347e-06 3.40431e-07 0.000117131
0.00125859 1.71683e-05 -2.85932e-07
1.71683e-05 2.44886e-05 9.7888e-08
-2.85932e-07 9.7888e-08 -4.08936e-05
0.00156758 1.75517e-06 5.29802e-07
1.75517e-06 0.000145594 7.63762e-07
5.29802e-07 7.63762e-07 8.65969e-05
0.00126743 1.75986e-05 -3.2315e-06
1.75986e-05 2.88729e-05 3.06632e-07
-3.2315e-06 3.06632e-07 -4.29267e-05
0.00141405 -9.93673e-06 -2.86363e-06
-9.93673e-06 9.96712e-05 3.17131e-07
-2.86363e-06 3.17131e-07 3.10209e-05
0.00129225 1.91171e-05 -2.51685e-06
1.91171e-05 1.50226e-05 -1.84532e-07
-2.51685e-06 -1.84532e-07 -5.94173e-05
0.00153366 -1.52328e-05 -1.62752e-06
-1.52328e-05 0.00013737 2.8085e-07
-1.62752e-06 2.8085e-07 6.61311e-05
0.000952132 -4.03852e-07 -2.64618e-06
-4.03852e-07 1.84689e-05 1.73844e-06
-2.64618e-06 1.73844e-06 -2.80059e-05
0.00106888 -2.80432e-05 -1.24186e-06
-2.80432e-05 6.62978e-05 1.10638e-06
-1.24186e-06 1.10638e-06 5.05215e-06
0.00107635 -4.25115e-05 -7.36123e-07
-4.25115e-05 5.8691e-05 1.21524e-06
-7.36123e-07 1.21524e-06 -1.17724e-05
0.00144554 -3.86276e-05 -1.01813e-06
-3.86276e-05 0.000143844 7.97273e-07
-1.01813e-06 7.97273e-07 7.7362e-05
0.00124929 -2.84365e-05 -4.74933e-07
-2.84365e-05 4.19296e-06 1.13717e-06
-4.74933e-07 1.13717e-06 -6.09061e-05
0.00125848 -3.98083e-05 -4.76971e-07
-3.98083e-05 5.48292e-05 9.56079e-07
-4.76971e-07 9.56079e-07 -1.03767e-05
0.00105967 -4.58133e-05 -1.6332e-06
-4.58133e-05 9.0534e-06 1.11114e-06
-1.6332e-06 1.11114e-06 -6.71853e-05
0.00123931 -4.48624e-05 -1.94127e-07
-4.48624e-05 5.94858e-05 -7.08943e-07
-1.94127e-07 -7.08943e-07 -4.6682e-06
0.00105755 -2.52892e-05 -1.55664e-06
-2.52892e-05 5.43611e-05 7.31618e-07
-1.55664e-06 7.31618e-07 -7.13974e-06
0.00103453 -3.77813e-05 -1.58236e-06
-3.77813e-05 4.21443e-05 3.28262e-07
-1.58236e-06 3.28262e-07 -2.99026e-05
0.00094926 -2.78332e-07 -2.01055e-06
-2.78332e-07 3.33867e-06 2.3873e-06
-2.01055e-06 2.3873e-06 -3.59948e-05
0.000911466 -1.72457e-05 -1.15321e-06
-1.72457e-05 -1.61274e-05 1.02854e-06
-1.15321e-06 1.02854e-06 -8.12048e-05
0.00140551 1.99235e-05 -7.19636e-08
1.99235e-05 7.65629e-05 2.87272e-08
-7.19636e-08 2.87272e-08 1.26223e-06
0.00154521 2.16906e-06 -2.09641e-07
2.16906e-06 0.000131536 1.17159e-07
-2.09641e-07 1.17159e-07 5.87749e-05
0.00138888 2.15359e-05 -5.64766e-07
2.15359e-05 5.11018e-05 -4.69733e-08
-5.64766e-07 -4.69733e-08 -2.57326e-05
0.00139997 -1.27093e-05 -2.10836e-07
-1.27093e-05 5.6204e-05 -1.7263e-07
-2.10836e-07 -1.7263e-07 -1.32998e-05
0.00104465 -2.49226e-05 9.78753e-08
-2.49226e-05 5.28318e-05 -2.95204e-08
9.78753e-08 -2.95204e-08 -7.86827e-06
0.000956142 -3.86206e-05 2.60306e-07
-3.86206e-05 8.06124e-06 -1.37458e-07
2.60306e-07 -1.37458e-07 -6.01546e-05
0.00113388 -4.72983e-05 2.81089e-08
-4.72983e-05 7.80977e-05 -1.04764e-07
2.81089e-08 -1.04764e-07 -5.13377e-07
0.00131146 -3.71229e-05 -3.89629e-07
-3.71229e-05 6.29489e-05 -7.01867e-08
-3.89629e-07 -7.01867e-08 -1.70187e-06
0.00138749 -2.83845e-05 4.25724e-07
-2.83845e-05 6.05891e-05 4.95844e-07
4.25724e-07 4.95844e-07 1.2958e-06
0.00124482 -5.11788e-05 -7.8619e-08
-5.11788e-05 9.02715e-05 3.56249e-07
-7.8619e-08 3.56249e-07 1.18396e-05
0.00125632 -4.01822e-05 2.62744e-08
-4.01822e-05 4.63892e-05 3.65911e-07
2.62744e-08 3.65911e-07 -1.35308e-05
0.00134444 -4.72385e-05 4.42008e-07
-4.72385e-05 0.000101288 -1.3727e-06
4.42008e-07 -1.3727e-06 3.90031e-05
0.00109264 -3.90739e-05 1.10857e-07
-3.90739e-05 6.90358e-05 1.90275e-09
1.10857e-07 1.90275e-09 5.52321e-07
0.00116581 -4.34248e-05 -6.38506e-08
-4.34248e-05 0.000102473 6.29048e-08
-6.38506e-08 6.29048e-08 2.82772e-05
0.00111498 -3.85536e-05 -8.04382e-08
-3.85536e-05 9.06312e-05 2.20689e-07
-8.04382e-08 2.20689e-07 1.38715e-05
0.000810434 8.22841e-06 -4.19485e-07
8.22841e-06 -6.68875e-05 2.56728e-08
-4.19485e-07 2.56728e-08 -0.000104129
0.000867202 -1.1854e-05 3.4449e-07
-1.1854e-05 -3.63441e-05 -5.28731e-07
3.4449e-07 -5.28731e-07 -9.96851e-05
0.00146676 2.63173e-05 1.97798e-06
2.63173e-05 9.6495e-05 5.4416e-07
1.97798e-06 5.4416e-07 1.90332e-05
0.00146945 1.55864e-05 1.99798e-06
1.55864e-05 7.31322e-05 2.61231e-07
1.99798e-06 2.61231e-07 -3.21381e-06
0.00143161 -1.51422e-05 1.52648e-06
-1.51422e-05 5.68148e-05 -2.11124e-06
1.52648e-06 -2.11124e-06 -6.42771e-06
0.00124102 -3.23149e-05 9.6212e-07
-3.23149e-05 5.19667e-06 -1.11821e-06
9.6212e-07 -1.11821e-06 -5.17367e-05
0.00107449 -3.97371e-05 6.26272e-07
-3.97371e-05 6.29082e-05 -3.53521e-07
6.26272e-07 -3.53521e-07 -3.90421e-06
0.00151111 -4.49848e-05 1.08576e-06
-4.49848e-05 0.000150636 -4.57606e-07
1.08576e-06 -4.57606e-07 9.66739e-05
0.00077375 -3.85376e-05 9.48591e-07
-3.85376e-05 -7.90447e-05 -2.1591e-06
9.48591e-07 -2.1591e-06 -0.000153887
0.00119576 -5.17535e-05 2.2619e-06
-5.17535e-05 0.000100521 -1.75019e-06
2.2619e-06 -1.75019e-06 1.39425e-05
0.00133961 -5.41011e-05 2.36112e-06
-5.41011e-05 0.000121308 4.64418e-07
2.36112e-06 4.64418e-07 4.18087e-05
0.000695072 1.03854e-05 8.69268e-07
1.03854e-05 -0.000127271 -2.86998e-06
8.69268e-07 -2.86998e-06 -0.000162179
0.00110146 -5.33604e-06 8.43792e-07
-5.33604e-06 8.18254e-05 -1.47131e-06
8.43792e-07 -1.47131e-06 2.36383e-05
0.00104346 -3.59594e-05 8.16794e-07
-3.59594e-05 6.02493e-05 -9.11191e-07
8.16794e-07 -9.11191e-07 -1.63852e-05
0.00110756 -4.21973e-05 5.54549e-07
-4.21973e-05 7.19982e-05 -7.37823e-08
5.54549e-07 -7.37823e-08 1.11661e-06
0.00116487 -4.36282e-05 1.0012e-06
-4.36282e-05 0.000111426 1.01911e-07
1.0012e-06 1.01911e-07 2.77352e-05
0.00109222 -4.33517e-05 3.18841e-07
-4.33517e-05 6.13581e-05 -2.28237e-07
3.18841e-07 -2.28237e-07 -1.53577e-05
0.000874957 -1.39336e-05 -2.62946e-06
-1.39336e-05 -4.09136e-05 -3.61463e-06
-2.62946e-06 -3.61463e-06 -4.75499e-05
0.000961892 3.16272e-06 -2.17047e-06
3.16272e-06 5.94185e-06 -2.35105e-06
-2.17047e-06 -2.35105e-06 -3.34214e-05
0.00128972 3.08907e-05 -5.98651e-07
3.08907e-05 6.9237e-05 -5.35653e-07
-5.98651e-07 -5.35653e-07 5.53218e-07
0.00102275 1.28778e-05 -1.32945e-06
1.28778e-05 4.03143e-05 -1.15572e-06
-1.32945e-06 -1.15572e-06 -1.96731e-05
0.00103081 1.83106e-05 -1.44988e-06
1.83106e-05 4.5072e-05 -7.67576e-07
-1.44988e-06 -7.67576e-07 -1.48074e-05
0.00098284 2.85374e-05 -5.83396e-07
2.85374e-05 1.9711e-05 -2.67363e-07
-5.83396e-07 -2.67363e-07 -4.99345e-05
0.00114299 4.24097e-05 -6.32597e-07
4.24097e-05 5.17538e-05 -1.47641e-06
-6.32597e-07 -1.47641e-06 -1.52812e-05
0.0011919 4.24479e-05 -1.87918e-07
4.24479e-05 3.89983e-05 -9.0532e-07
-1.87918e-07 -9.0532e-07 -3.2962e-05
0.00106918 3.88101e-05 -3.49389e-07
3.88101e-05 6.73731e-05 -4.6194e-07
-3.49389e-07 -4.6194e-07 -2.74426e-06
0.00113614 4.51849e-05 -1.1789e-06
4.51849e-05 8.46842e-05 -5.49254e-07
-1.1789e-06 -5.49254e-07 8.25314e-06
0.00126189 4.58166e-05 -1.45115e-06
4.58166e-05 0.00012044 -9.99296e-07
-1.45115e-06 -9.99296e-07 5.24372e-05
0.000969258 3.88317e-06 9.85177e-08
3.88317e-06 7.4708e-06 5.29927e-09
9.85177e-08 5.29927e-09 -2.99887e-05
0.00103331 1.3332e-05 -1.68114e-08
1.3332e-05 4.39313e-05 -5.07388e-08
-1.68114e-08 -5.07388e-08 -1.53194e-05
0.0010599 3.52231e-05 -1.2555e-07
3.52231e-05 5.63445e-05 -1.21809e-07
-1.2555e-07 -1.21809e-07 -1.22064e-05
0.00106923 2.86734e-05 -8.37562e-08
2.86734e-05 6.48623e-05 -2.00575e-08
-8.37562e-08 -2.00575e-08 -5.6905e-06
0.00107917 3.87827e-05 -3.06846e-07
3.87827e-05 6.77244e-05 -4.05628e-08
-3.06846e-07 -4.05628e-08 -6.70936e-06
0.00126402 2.9936e-05 -3.01246e-07
2.9936e-05 4.76491e-05 -1.39073e-07
-3.01246e-07 -1.39073e-07 -2.16508e-05
0.0011834 4.63149e-05 4.4488e-07
4.63149e-05 6.25804e-05 -9.39573e-08
4.4488e-07 -9.39573e-08 -8.0022e-06
0.00116082 4.5818e-05 1.98509e-07
4.5818e-05 2.46556e-05 4.17906e-07
1.98509e-07 4.17906e-07 -4.59762e-05
0.000993943 4.23949e-05 3.81042e-07
4.23949e-05 2.89733e-05 5.46017e-07
3.81042e-07 5.46017e-07 -4.9816e-05
0.00120684 4.90326e-05 -8.60198e-09
4.90326e-05 0.000101359 -1.42044e-07
-8.60198e-09 -1.42044e-07 1.9609e-05
0.00104187 1.42786e-05 1.25937e-06
1.42786e-05 4.70572e-05 1.29276e-06
1.25937e-06 1.29276e-06 -1.11308e-05
0.000936455 2.83126e-05 1.23026e-06
2.83126e-05 -7.82543e-07 7.92481e-07
1.23026e-06 7.92481e-07 -7.29705e-05
0.00110734 4.38267e-05 1.98391e-08
4.38267e-05 7.88123e-05 3.18217e-07
1.98391e-08 3.18217e-07 3.28701e-06
0.000977143 3.68361e-05 4.22919e-07
3.68361e-05 1.74701e-05 -4.99427e-08
4.22919e-07 -4.99427e-08 -5.93399e-05
0.00112674 4.25677e-05 -1.4606e-07
4.25677e-05 8.5281e-05 -2.46172e-07
-1.4606e-07 -2.46172e-07 7.82944e-06
0.00123269 3.16572e-05 2.48787e-07
3.16572e-05 6.31949e-06 2.76358e-07
2.48787e-07 2.76358e-07 -5.13984e-05
0.00129188 5.28979e-05 1.16716e-06
5.28979e-05 0.000115148 6.73018e-07
1.16716e-06 6.73018e-07 3.57284e-05
0.000651705 4.32011e-05 9.82994e-07
4.32011e-05 -0.000236403 9.27291e-07
9.82994e-07 9.27291e-07 -0.000308403
0.00137922 5.14928e-05 1.86758e-06
5.14928e-05 0.000208171 2.22673e-06
1.86758e-06 2.22673e-06 0.000123544
0.000667769 4.30811e-05 5.34259e-07
4.30811e-05 -0.000163124 7.74693e-07
5.34259e-07 7.74693e-07 -0.000255805
0.000967924 4.27268e-06 -1.4819e-06
4.27268e-06 5.8432e-06 -2.30194e-06
-1.4819e-06 -2.30194e-06 -2.95773e-05
0.000946744 1.15293e-05 4.12515e-07
1.15293e-05 6.29959e-07 4.70114e-07
4.12515e-07 4.70114e-07 -5.67926e-05
0.000940416 2.74754e-05 8.94071e-07
2.74754e-05 4.8133e-06 1.06401e-06
8.94071e-07 1.06401e-06 -6.64643e-05
0.000854875 6.98035e-06 -5.59733e-07
6.98035e-06 -4.40966e-05 -1.45337e-06
-5.59733e-07 -1.45337e-06 -9.99046e-05
0.00101734 1.22187e-05 6.74335e-08
1.22187e-05 3.88346e-05 4.26638e-08
6.74335e-08 4.26638e-08 -1.38042e-05
0.00108312 2.58085e-05 -2.48689e-07
2.58085e-05 7.69442e-05 -5.30984e-07
-2.48689e-07 -5.30984e-07 8.41364e-06
0.00118583 3.5675e-05 2.3922e-07
3.5675e-05 0.000131617 1.46582e-07
2.3922e-07 1.46582e-07 5.39452e-05
0.00091912 1.24847e-05 3.87445e-07
1.24847e-05 -4.96269e-06 1.32038e-06
3.87445e-07 1.32038e-06 -7.30029e-05
0.00100269 1.09796e-06 3.13398e-07
1.09796e-06 3.36604e-05 1.28322e-06
3.13398e-07 1.28322e-06 -1.72939e-05
0.000983045 5.90725e-06 6.30256e-07
5.90725e-06 1.129e-05 1.9002e-06
6.30256e-07 1.9002e-06 -1.86502e-05
0.000977683 -1.01094e-06 -6.75579e-08
-1.01094e-06 9.35398e-06 1.3362e-08
-6.75579e-08 1.3362e-08 -2.12954e-05
0.00151733 -8.74569e-06 1.29473e-06
-8.74569e-06 0.000268655 2.04943e-06
1.29473e-06 2.04943e-06 0.000270046
0.000977456 3.58803e-07 -6.67833e-07
3.58803e-07 9.78787e-06 -2.04049e-06
-6.67833e-07 -2.04049e-06 -2.19659e-05
0.00154031 -1.05214e-05 -1.70989e-06
-1.05214e-05 0.000283245 -1.28862e-06
-1.70989e-06 -1.28862e-06 0.00028359
0.00118021 -1.03837e-05 8.73445e-06
-1.03837e-05 0.000102114 6.76205e-06
8.73445e-06 6.76205e-06 0.000117414
0.00157012 -1.21073e-05 -5.53602e-06
-1.21073e-05 0.000300977 -4.6799e-06
-5.53602e-06 -4.6799e-06 0.000300192
0.00112516 -1.29575e-05 3.48132e-06
-1.29575e-05 7.87189e-05 2.58803e-06
3.48132e-06 2.58803e-06 9.31022e-05
0.00241315 -2.16704e-05 -4.49759e-06
-2.16704e-05 0.000726922 -1.723e-06
-4.49759e-06 -1.723e-06 0.000746515
0.000878829 1.39384e-05 1.90992e-06
1.39384e-05 -3.94923e-05 -3.27361e-06
1.90992e-06 -3.27361e-06 -4.35796e-05
0.000885505 1.5335e-05 -1.46222e-07
1.5335e-05 -3.1928e-05 3.69523e-08
-1.46222e-07 3.69523e-08 -3.8172e-05
0.0024234 2.29019e-05 1.2364e-05
2.29019e-05 0.000737817 -3.93704e-06
1.2364e-05 -3.93704e-06 0.000756619
0.00088278 1.6461e-05 -3.12703e-06
1.6461e-05 -2.92322e-05 3.57332e-06
-3.12703e-06 3.57332e-06 -3.79001e-05
0.00251426 2.56487e-05 -3.68195e-07
2.56487e-05 0.000788271 -5.87687e-08
-3.68195e-07 -5.87687e-08 0.000805402
0.00256977 2.84447e-05 -1.62174e-05
2.84447e-05 0.000820654 4.06845e-06
-1.62174e-05 4.06845e-06 0.000836332
0.00129471 2.21208e-05 -1.07226e-06
2.21208e-05 5.82556e-05 -6.22596e-07
-1.07226e-06 -6.22596e-07 -9.93751e-06
0.00136594 5.91326e-07 -1.141e-06
5.91326e-07 7.01415e-05 -7.17379e-07
-1.141e-06 -7.17379e-07 -4.01343e-07
0.00135949 7.80744e-06 3.33982e-07
7.80744e-06 5.93785e-05 -3.9687e-07
3.33982e-07 -3.9687e-07 -4.46778e-06
0.00144901 -1.77856e-05 -1.59767e-06
-1.77856e-05 8.99027e-05 -4.87748e-07
-1.59767e-06 -4.87748e-07 1.81859e-05
0.0013859 -1.45385e-05 -1.61067e-06
-1.45385e-05 6.92376e-05 -3.7726e-07
-1.61067e-06 -3.7726e-07 -5.81061e-06
0.00132664 1.508e-05 -2.42619e-06
1.508e-05 5.46247e-05 -2.71389e-07
-2.42619e-06 -2.71389e-07 -1.825e-05
0.00139161 6.37242e-06 1.94561e-08
6.37242e-06 7.04595e-05 -7.45533e-08
1.94561e-08 -7.45533e-08 -5.44048e-06
0.00136852 -7.17897e-06 2.26282e-07
-7.17897e-06 5.83676e-05 -3.82228e-08
2.26282e-07 -3.82228e-08 -1.62521e-05
0.00130665 -4.94458e-06 -1.18917e-07
-4.94458e-06 2.02154e-05 5.98495e-08
-1.18917e-07 5.98495e-08 -4.79844e-05
0.00148644 -2.16188e-05 -2.56783e-07
-2.16188e-05 0.000103251 -2.56055e-07
-2.56783e-07 -2.56055e-07 3.09765e-05
0.00128971 1.75773e-05 -2.4539e-07
1.75773e-05 4.10284e-05 5.31203e-08
-2.4539e-07 5.31203e-08 -2.4641e-05
0.00141189 2.46999e-06 1.29363e-06
2.46999e-06 7.13272e-05 -3.72795e-07
1.29363e-06 -3.72795e-07 1.42062e-05
0.00137161 1.32175e-05 1.25234e-06
1.32175e-05 6.09803e-05 4.63218e-07
1.25234e-06 4.63218e-07 -1.46264e-05
0.00138608 -1.46022e-05 1.88995e-06
-1.46022e-05 6.8688e-05 5.34937e-08
1.88995e-06 5.34937e-08 -5.39221e-06
0.00140567 -1.26095e-05 9.077e-07
-1.26095e-05 5.80428e-05 1.62587e-06
9.077e-07 1.62587e-06 -7.22097e-06
0.00139001 1.479e-05 7.77897e-08
1.479e-05 6.43149e-05 4.57578e-07
7.77897e-08 4.57578e-07 1.14376e-05
0.00139714 2.01733e-05 -1.93225e-06
2.01733e-05 7.29124e-05 -6.83578e-08
-1.93225e-06 -6.83578e-08 -2.29817e-06
0.00152285 2.57357e-06 -2.48321e-06
2.57357e-06 0.000121816 1.99334e-07
-2.48321e-06 1.99334e-07 4.91372e-05
0.00136697 2.16424e-05 -2.98991e-06
2.16424e-05 4.0658e-05 -3.06435e-07
-2.98991e-06 -3.06435e-07 -3.66025e-05
0.00146348 -1.3128e-05 -1.14091e-06
-1.3128e-05 8.69983e-05 7.47342e-07
-1.14091e-06 7.47342e-07 1.75976e-05
0.00106076 -2.55691e-05 -1.31733e-06
-2.55691e-05 5.97244e-05 7.67584e-07
-1.31733e-06 7.67584e-07 -8.6084e-07
0.0010431 -3.95771e-05 -2.8127e-07
-3.95771e-05 5.09213e-05 8.80974e-07
-2.8127e-07 8.80974e-07 -1.67523e-05
0.00113725 -4.73147e-05 -1.27174e-06
-4.73147e-05 8.08732e-05 2.00328e-06
-1.27174e-06 2.00328e-06 2.03511e-06
0.00142628 -3.81195e-05 -8.30871e-07
-3.81195e-05 0.000118277 7.48596e-07
-8.30871e-07 7.48596e-07 5.30656e-05
0.00123788 -2.81509e-05 -5.3545e-07
-2.81509e-05 -6.0297e-06 1.67651e-06
-5.3545e-07 1.67651e-06 -6.39007e-05
0.00126875 -4.00344e-05 -1.77592e-07
-4.00344e-05 5.31656e-05 1.06138e-06
-1.77592e-07 1.06138e-06 -6.77588e-06
0.00125175 -5.11291e-05 -1.95901e-06
-5.11291e-05 9.46427e-05 6.37701e-07
-1.95901e-06 6.37701e-07 1.56416e-05
0.00112063 -4.38117e-05 -1.84318e-06
-4.38117e-05 -7.02227e-06 -2.9821e-06
-1.84318e-06 -2.9821e-06 -6.74456e-05
0.00110591 -3.92985e-05 -7.85052e-07
-3.92985e-05 7.52245e-05 2.14083e-07
-7.85052e-07 2.14083e-07 6.76965e-06
0.00109322 -4.20879e-05 -1.38341e-06
-4.20879e-05 6.55966e-05 -1.16291e-07
-1.38341e-06 -1.16291e-07 -8.54837e-06
0.00112365 -3.87981e-05 -1.23249e-06
-3.87981e-05 9.51712e-05 9.40596e-07
-1.23249e-06 9.40596e-07 1.8108e-05
0.00067017 6.89372e-06 -1.52986e-06
6.89372e-06 -0.000136698 2.32468e-06
-1.52986e-06 2.32468e-06 -0.00017492
0.000907143 -1.05972e-05 -6.51813e-07
-1.05972e-05 -1.76541e-05 1.13062e-06
-6.51813e-07 1.13062e-06 -8.04662e-05
0.00140548 2.50909e-05 1.42544e-07
2.50909e-05 6.59692e-05 -2.42211e-07
1.42544e-07 -2.42211e-07 -1.16148e-05
0.00150304 1.49386e-05 -1.9287e-07
1.49386e-05 9.1891e-05 2.85108e-07
-1.9287e-07 2.85108e-07 1.60897e-05
0.00147018 -1.5046e-05 -5.3348e-07
-1.5046e-05 7.93732e-05 1.95182e-07
-5.3348e-07 1.95182e-07 1.61026e-05
0.00109663 -3.96255e-05 6.17588e-08
-3.96255e-05 7.29904e-05 8.42333e-08
6.17588e-08 8.42333e-08 6.18878e-06
0.00100464 -4.26671e-05 4.1006e-07
-4.26671e-05 3.23065e-05 -3.22592e-07
4.1006e-07 -3.22592e-07 -4.17269e-05
0.00116558 -5.11558e-05 -5.0258e-08
-5.11558e-05 8.77804e-05 4.01323e-08
-5.0258e-08 4.01323e-08 7.38881e-07
0.00131024 -3.27811e-05 1.73145e-07
-3.27811e-05 3.79882e-05 -2.93653e-07
1.73145e-07 -2.93653e-07 -1.95891e-05
0.00129265 -5.21108e-05 -5.19944e-08
-5.21108e-05 9.92659e-05 -4.52547e-07
-5.19944e-08 -4.52547e-07 2.18737e-05
0.00130185 -4.41031e-05 -4.80052e-07
-4.41031e-05 5.22259e-05 -5.05397e-07
-4.80052e-07 -5.05397e-07 -2.28541e-06
0.000691918 1.48031e-05 -1.50203e-08
1.48031e-05 -0.000128544 -6.65824e-07
-1.50203e-08 -6.65824e-07 -0.000163162
0.00111826 -4.24256e-05 5.44508e-08
-4.24256e-05 7.7349e-05 7.52655e-08
5.44508e-08 7.52655e-08 6.30713e-06
0.00107363 -4.29213e-05 -9.10121e-07
-4.29213e-05 5.21624e-05 -6.26319e-08
-9.10121e-07 -6.26319e-08 -2.35788e-05
0.00117597 -4.36525e-05 -4.40246e-07
-4.36525e-05 0.000116885 2.82139e-07
-4.40246e-07 2.82139e-07 3.35434e-05
0.00114642 -3.76843e-05 -1.31209e-07
-3.76843e-05 0.000111093 7.42521e-08
-1.31209e-07 7.42521e-08 3.46164e-05
0.000983307 -7.52639e-06 9.92477e-08
-7.52639e-06 2.18973e-05 2.28498e-07
9.92477e-08 2.28498e-07 -3.70152e-05
0.00153551 2.85321e-05 1.97134e-06
2.85321e-05 0.000121251 1.41746e-06
1.97134e-06 1.41746e-06 4.33549e-05
0.00151171 1.52716e-05 2.3155e-06
1.52716e-05 8.13774e-05 -2.76583e-07
2.3155e-06 -2.76583e-07 6.46682e-06
0.00127232 -1.98368e-05 1.86676e-06
-1.98368e-05 -2.64488e-05 -2.56436e-06
1.86676e-06 -2.56436e-06 -8.19335e-05
0.00152333 -3.92443e-05 1.57777e-06
-3.92443e-05 0.000111625 -1.43731e-06
1.57777e-06 -1.43731e-06 6.47411e-05
0.00110142 -4.28904e-05 6.02436e-07
-4.28904e-05 7.31884e-05 -7.16809e-07
6.02436e-07 -7.16809e-07 2.4359e-06
0.00136215 -5.21518e-05 2.9682e-06
-5.21518e-05 9.43921e-05 8.17966e-07
2.9682e-06 8.17966e-07 2.71219e-05
0.000889739 -4.41861e-05 1.23034e-06
-4.41861e-05 -2.64946e-05 -2.61728e-06
1.23034e-06 -2.61728e-06 -0.000111595
0.00142096 -5.85842e-05 1.9625e-06
-5.85842e-05 0.00020268 -9.19675e-07
1.9625e-06 -9.19675e-07 0.000109288
0.000707891 1.12838e-05 6.06176e-07
1.12838e-05 -0.000123244 -2.56736e-06
6.06176e-07 -2.56736e-06 -0.000155214
0.00111994 -8.126e-07 7.73888e-07
-8.126e-07 8.91612e-05 -1.54792e-06
7.73888e-07 -1.54792e-06 3.5624e-05
0.00122084 -3.53607e-05 -5.10372e-08
-3.53607e-05 0.000148771 -1.42393e-07
-5.10372e-08 -1.42393e-07 7.61277e-05
0.00107637 -4.01562e-05 6.87147e-07
-4.01562e-05 7.8073e-05 -1.29113e-06
6.87147e-07 -1.29113e-06 -1.06794e-05
0.00104774 -4.31342e-05 3.29922e-07
-4.31342e-05 4.08205e-05 -7.04764e-07
3.29922e-07 -7.04764e-07 -3.41807e-05
0.00111095 -4.42859e-05 1.21519e-06
-4.42859e-05 7.53196e-05 1.26973e-07
1.21519e-06 1.26973e-07 -9.00922e-06
0.000965588 4.18053e-06 -1.85692e-06
4.18053e-06 5.65844e-06 -2.37047e-06
-1.85692e-06 -2.37047e-06 -3.17916e-05
0.00103067 1.32932e-05 -1.31756e-06
1.32932e-05 4.29584e-05 -1.2873e-06
-1.31756e-06 -1.2873e-06 -1.641e-05
0.00131054 3.18562e-05 -4.33876e-07
3.18562e-05 7.0711e-05 -5.47806e-07
-4.33876e-07 -5.47806e-07 9.97437e-07
0.00107494 2.89979e-05 -9.54058e-07
2.89979e-05 6.79367e-05 -4.50142e-07
-9.54058e-07 -4.50142e-07 -2.78529e-06
0.00109019 3.61484e-05 -6.29693e-07
3.61484e-05 7.17787e-05 -3.23834e-07
-6.29693e-07 -3.23834e-07 3.65586e-06
0.00101723 3.80295e-05 -5.99136e-07
3.80295e-05 3.75916e-05 -1.92081e-07
-5.99136e-07 -1.92081e-07 -3.72601e-05
0.00118454 4.61332e-05 -7.4345e-07
4.61332e-05 6.218e-05 -1.57877e-06
-7.4345e-07 -1.57877e-06 -8.49669e-06
0.00126445 4.6498e-05 -3.02613e-07
4.6498e-05 7.30624e-05 -6.42821e-07
-3.02613e-07 -6.42821e-07 2.81434e-06
0.00090544 4.08411e-05 -2.8106e-07
4.08411e-05 -1.42086e-05 -5.01806e-07
-2.8106e-07 -5.01806e-07 -9.33788e-05
0.00124062 4.98345e-05 -1.21153e-06
4.98345e-05 0.000118385 -8.62855e-07
-1.21153e-06 -8.62855e-07 3.52964e-05
0.0010354 1.40155e-05 5.50688e-08
1.40155e-05 4.43449e-05 -4.77542e-08
5.50688e-08 -4.77542e-08 -1.39363e-05
0.00102026 3.02611e-05 4.02907e-07
3.02611e-05 4.08441e-05 2.39042e-07
4.02907e-07 2.39042e-07 -3.11581e-05
0.00115164 4.4583e-05 -1.80721e-07
4.4583e-05 0.000101356 -3.75693e-07
-1.80721e-07 -3.75693e-07 2.6456e-05
0.00104358 3.7404e-05 -2.87688e-07
3.7404e-05 5.10728e-05 1.36283e-08
-2.87688e-07 1.36283e-08 -2.52877e-05
0.00108773 4.19042e-05 -6.94403e-07
4.19042e-05 6.86592e-05 -3.65966e-07
-6.94403e-07 -3.65966e-07 -8.3537e-06
0.00147062 3.28751e-05 -3.63093e-07
3.28751e-05 0.000122052 -4.06716e-07
-3.63093e-07 -4.06716e-07 6.47437e-05
0.00134761 5.3704e-05 6.95446e-07
5.3704e-05 0.000139906 1.52445e-08
6.95446e-07 1.52445e-08 6.12436e-05
0.000957286 4.67382e-05 -6.02263e-07
4.67382e-05 -8.18211e-05 6.52014e-07
-6.02263e-07 6.52014e-07 -0.000152155
0.00124022 4.90073e-05 8.5824e-07
4.90073e-05 0.000141391 7.22896e-07
8.5824e-07 7.22896e-07 5.60961e-05
0.000944287 4.79139e-05 -1.33153e-06
4.79139e-05 -2.87126e-05 -3.31827e-07
-1.33153e-06 -3.31827e-07 -0.000122397
0.000947122 3.10067e-05 1.12144e-06
3.10067e-05 6.46615e-06 1.02932e-06
1.12144e-06 1.02932e-06 -6.60162e-05
0.000988809 4.03723e-05 7.03224e-07
4.03723e-05 2.62559e-05 1.68734e-07
7.03224e-07 1.68734e-07 -5.50497e-05
0.00115641 4.6138e-05 2.02542e-07
4.6138e-05 0.000100508 6.23177e-07
2.02542e-07 6.23177e-07 1.88925e-05
0.000935876 4.04711e-05 9.1278e-07
4.04711e-05 -6.6765e-06 1.57801e-08
9.1278e-07 1.57801e-08 -8.80648e-05
0.00174554 2.41683e-05 1.75057e-06
2.41683e-05 0.000180019 9.89714e-07
1.75057e-06 9.89714e-07 0.000134782
0.00111791 4.52655e-05 2.68945e-06
4.52655e-05 -6.64574e-05 1.10789e-06
2.68945e-06 1.10789e-06 -0.000123666
0.00123959 5.71165e-05 1.88146e-06
5.71165e-05 8.18994e-05 2.66573e-08
1.88146e-06 2.66573e-08 -9.61581e-06
0.000937408 4.70775e-05 8.34436e-07
4.70775e-05 -5.48188e-06 1.60778e-06
8.34436e-07 1.60778e-06 -0.000106783
0.00101912 1.25243e-05 -3.96156e-07
1.25243e-05 3.72669e-05 -9.27775e-07
-3.96156e-07 -9.27775e-07 -1.97879e-05
0.00102764 2.92016e-05 2.49814e-07
2.92016e-05 4.86937e-05 3.24755e-07
2.49814e-07 3.24755e-07 -2.21517e-05
0.00110336 3.82764e-05 4.2973e-07
3.82764e-05 9.0312e-05 3.78902e-07
4.2973e-07 3.78902e-07 1.11328e-05
0.00101782 1.29806e-05 -4.07632e-07
1.29806e-05 3.91308e-05 -1.3759e-06
-4.07632e-07 -1.3759e-06 -1.35553e-05
0.00093541 2.31546e-05 -6.95498e-07
2.31546e-05 3.24346e-06 -1.39705e-06
-6.95498e-07 -1.39705e-06 -6.63067e-05
0.00100731 3.67504e-06 2.38358e-07
3.67504e-06 3.58372e-05 4.5725e-08
2.38358e-07 4.5725e-08 -1.51119e-05
0.00108397 3.25466e-05 -1.84073e-07
3.25466e-05 8.07395e-05 -3.93611e-07
-1.84073e-07 -3.93611e-07 2.36556e-06
0.000985971 1.63231e-05 2.35988e-07
1.63231e-05 2.88974e-05 4.02373e-07
2.35988e-07 4.02373e-07 -3.89957e-05
0.00117202 3.84614e-05 4.63048e-07
3.84614e-05 0.000122397 3.50389e-07
4.63048e-07 3.50389e-07 3.80836e-05
0.000953283 1.21201e-05 5.31281e-07
1.21201e-05 1.47862e-05 9.83045e-07
5.31281e-07 9.83045e-07 -6.34473e-05
0.000913241 2.80728e-05 6.08148e-07
2.80728e-05 -6.53933e-06 1.3562e-06
6.08148e-07 1.3562e-06 -7.38596e-05
0.000999564 -1.08371e-05 -1.10885e-07
-1.08371e-05 3.37026e-05 1.22497e-06
-1.10885e-07 1.22497e-06 -1.62393e-05
0.000980487 7.6036e-06 4.55984e-07
7.6036e-06 1.00026e-05 1.80028e-06
4.55984e-07 1.80028e-06 -1.97029e-05
0.000982461 -2.11348e-06 -2.40476e-07
-2.11348e-06 1.11014e-05 2.34175e-08
-2.40476e-07 2.34175e-08 -1.88372e-05
0.0015113 -6.12187e-06 8.93043e-07
-6.12187e-06 0.000263119 2.0163e-06
8.93043e-07 2.0163e-06 0.000265233
0.000983529 -6.74128e-06 -9.30714e-08
-6.74128e-06 1.23667e-05 -1.93128e-06
-9.30714e-08 -1.93128e-06 -1.828e-05
0.00153164 -8.25064e-06 -1.32005e-06
-8.25064e-06 0.000276045 -1.2711e-06
-1.32005e-06 -1.2711e-06 0.000277411
0.00117301 -8.2461e-06 6.65861e-06
-8.2461e-06 9.4587e-05 6.67794e-06
6.65861e-06 6.67794e-06 0.000110876
0.00155507 -1.01182e-05 -4.24101e-06
-1.01182e-05 0.00029078 -4.62511e-06
-4.24101e-06 -4.62511e-06 0.00029114
0.00112169 -1.08479e-05 2.62298e-06
-1.08479e-05 7.2889e-05 2.57013e-06
2.62298e-06 2.57013e-06 8.83581e-05
0.00106549 -1.32221e-05 -2.08272e-06
-1.32221e-05 4.89999e-05 -1.66638e-06
-2.08272e-06 -1.66638e-06 6.3549e-05
0.00088629 1.21575e-05 1.57982e-06
1.21575e-05 -4.02624e-05 -3.25571e-06
1.57982e-06 -3.25571e-06 -4.2612e-05
0.000897165 1.39512e-05 -8.45305e-08
1.39512e-05 -3.07386e-05 2.35112e-08
-8.45305e-08 2.35112e-08 -3.49051e-05
0.00236543 1.98731e-05 1.08235e-05
1.98731e-05 0.00070349 -3.94097e-06
1.08235e-05 -3.94097e-06 0.00072369
0.000902164 1.53555e-05 -2.58293e-06
1.53555e-05 -2.38799e-05 3.43168e-06
-2.58293e-06 3.43168e-06 -3.02458e-05
0.00243327 2.28008e-05 -4.59848e-07
2.28008e-05 0.000743156 -4.51007e-08
-4.59848e-07 -4.51007e-08 0.000761767
0.00251428 2.55431e-05 -1.50727e-05
2.55431e-05 0.000788532 4.09123e-06
-1.50727e-05 4.09123e-06 0.000805528
0.00132106 1.80396e-05 -2.56878e-08
1.80396e-05 5.76598e-05 -3.36603e-08
-2.56878e-08 -3.36603e-08 -8.29503e-06
0.00137922 -6.42889e-06 -1.06311e-06
-6.42889e-06 5.33493e-05 -7.50316e-07
-1.06311e-06 -7.50316e-07 -1.53472e-05
0.00127817 3.04048e-06 1.45183e-06
3.04048e-06 7.71997e-06 -2.06403e-06
1.45183e-06 -2.06403e-06 -4.75554e-05
0.00132116 -2.08517e-05 -2.13314e-06
-2.08517e-05 2.41969e-05 -9.99668e-07
-2.13314e-06 -9.99668e-07 -4.87475e-05
0.00136581 -9.44299e-06 -1.43231e-06
-9.44299e-06 5.73533e-05 -2.90055e-07
-1.43231e-06 -2.90055e-07 -1.72343e-05
0.00138865 5.81989e-06 -1.58907e-06
5.81989e-06 6.88707e-05 -3.39653e-07
-1.58907e-06 -3.39653e-07 -7.17942e-06
0.00138323 1.56565e-05 2.29733e-07
1.56565e-05 6.61293e-05 -4.88812e-08
2.29733e-07 -4.88812e-08 -9.59377e-06
0.00137782 -1.82371e-05 -2.27275e-07
-1.82371e-05 6.42669e-05 2.85906e-07
-2.27275e-07 2.85906e-07 -9.7966e-06
0.00138987 -1.19661e-05 5.17947e-07
-1.19661e-05 5.13575e-05 -2.12777e-07
5.17947e-07 -2.12777e-07 -1.34996e-05
0.00133288 1.25748e-05 1.90571e-07
1.25748e-05 3.49435e-05 -2.60298e-07
1.90571e-07 -2.60298e-07 -1.79737e-05
0.00135181 9.95031e-06 1.4539e-06
9.95031e-06 5.39364e-05 1.51066e-07
1.4539e-06 1.51066e-07 -2.13475e-05
0.00150038 -2.80805e-05 1.98214e-06
-2.80805e-05 0.000120702 4.77066e-07
1.98214e-06 4.77066e-07 5.03643e-05
0.00135546 9.62015e-07 7.1054e-07
9.62015e-07 1.9002e-05 1.96149e-06
7.1054e-07 1.96149e-06 -3.60463e-05
0.00134969 2.40372e-05 -2.29901e-06
2.40372e-05 3.80475e-05 -9.57462e-07
-2.29901e-06 -9.57462e-07 -3.96618e-05
0.00153478 1.44606e-05 -2.12634e-06
1.44606e-05 0.00010984 5.52517e-07
-2.12634e-06 5.52517e-07 3.45753e-05
0.00150345 -1.50238e-05 -1.36919e-06
-1.50238e-05 9.92693e-05 1.72002e-06
-1.36919e-06 1.72002e-06 3.59924e-05
0.00111524 -3.93559e-05 -6.42933e-07
-3.93559e-05 8.1381e-05 6.21734e-07
-6.42933e-07 6.21734e-07 1.45982e-05
0.00124099 -4.68915e-05 -4.28437e-07
-4.68915e-05 0.00014624 1.2884e-06
-4.28437e-07 1.2884e-06 7.30163e-05
0.00113354 -5.05331e-05 -1.89519e-06
-5.05331e-05 7.418e-05 2.29288e-06
-1.89519e-06 2.29288e-06 -1.33279e-05
0.00137724 -3.32853e-05 -9.29116e-07
-3.32853e-05 6.96531e-05 9.7585e-07
-9.29116e-07 9.7585e-07 1.14422e-05
0.00110417 -4.32168e-05 -2.13954e-06
-4.32168e-05 -4.07151e-05 2.04609e-07
-2.13954e-06 2.04609e-07 -9.57781e-05
0.00123998 -5.01349e-05 -2.65756e-06
-5.01349e-05 7.44226e-05 -1.17565e-06
-2.65756e-06 -1.17565e-06 -8.44215e-07
0.00112845 -4.26445e-05 -6.55241e-07
-4.26445e-05 8.24718e-05 3.97797e-07
-6.55241e-07 3.97797e-07 1.12683e-05
0.00105631 -4.25124e-05 -2.21946e-06
-4.25124e-05 4.37054e-05 2.52153e-07
-2.21946e-06 2.52153e-07 -3.10761e-05
0.00118409 -4.36236e-05 -1.52681e-06
-4.36236e-05 0.00012086 3.59378e-07
-1.52681e-06 3.59378e-07 3.78769e-05
0.000684158 1.75463e-05 -5.91615e-07
1.75463e-05 -0.000132026 1.44944e-06
-5.91615e-07 1.44944e-06 -0.000166373
0.0012491 -4.0061e-05 -9.30088e-07
-4.0061e-05 0.000161909 1.28354e-06
-9.30088e-07 1.28354e-06 8.55466e-05
0.000862719 -7.30169e-06 -3.76585e-07
-7.30169e-06 -3.90157e-05 1.94358e-06
-3.76585e-07 1.94358e-06 -9.88087e-05
0.00147079 2.8172e-05 -4.34674e-08
2.8172e-05 9.29964e-05 2.69604e-07
-4.34674e-08 2.69604e-07 1.56422e-05
0.0015043 1.3946e-05 3.7934e-07
1.3946e-05 7.49016e-05 1.33194e-07
3.7934e-07 1.33194e-07 4.15506e-08
0.00134587 -1.98904e-05 -2.4302e-07
-1.98904e-05 9.41378e-06 -1.85626e-07
-2.4302e-07 -1.85626e-07 -4.74198e-05
0.00112325 -4.33017e-05 4.80997e-08
-4.33017e-05 8.33795e-05 2.14042e-07
4.80997e-08 2.14042e-07 1.24988e-05
0.000949543 -4.51325e-05 -1.05529e-07
-4.51325e-05 3.98673e-06 1.11009e-07
-1.05529e-07 1.11009e-07 -8.01052e-05
0.00136524 -5.69429e-05 -8.5202e-07
-5.69429e-05 0.000175755 7.71757e-07
-8.5202e-07 7.71757e-07 8.33471e-05
0.00151184 -4.01352e-05 1.70093e-07
-4.01352e-05 0.000111111 3.66805e-08
1.70093e-07 3.66805e-08 6.42049e-05
0.00126921 -5.07292e-05 1.61981e-07
-5.07292e-05 4.74332e-05 -5.3577e-07
1.61981e-07 -5.3577e-07 -1.95639e-05
0.000834688 1.2173e-05 2.73391e-08
1.2173e-05 -6.01479e-05 -6.03919e-07
2.73391e-08 -6.03919e-07 -9.11245e-05
0.00110555 1.15128e-06 -4.04234e-08
1.15128e-06 8.2588e-05 9.4499e-08
-4.04234e-08 9.4499e-08 2.9021e-05
0.00102665 -4.27299e-05 -4.48565e-07
-4.27299e-05 3.10166e-05 2.87233e-07
-4.48565e-07 2.87233e-07 -4.41158e-05
0.00113277 -4.46615e-05 9.6409e-08
-4.46615e-05 8.62439e-05 -1.22409e-08
9.6409e-08 -1.22409e-08 2.0838e-06
0.00110061 -3.9674e-05 -4.69319e-08
-3.9674e-05 9.11089e-05 -2.56628e-07
-4.69319e-08 -2.56628e-07 3.30838e-06
0.00116991 -3.52128e-05 -5.32204e-07
-3.52128e-05 0.000123036 9.24347e-07
-5.32204e-07 9.24347e-07 4.95643e-05
0.00146929 3.13204e-05 2.38222e-06
3.13204e-05 8.91879e-05 1.75217e-06
2.38222e-06 1.75217e-06 1.43057e-05
0.00158156 7.5347e-06 2.33804e-06
7.5347e-06 0.000101561 -1.1112e-06
2.33804e-06 -1.1112e-06 3.22997e-05
0.00142328 -2.95129e-05 1.07383e-06
-2.95129e-05 2.3134e-05 -2.27454e-06
1.07383e-06 -2.27454e-06 -1.6188e-05
0.00175787 -5.25572e-05 2.3288e-06
-5.25572e-05 0.000226885 -1.07231e-06
2.3288e-06 -1.07231e-06 0.000178619
0.000980333 -4.34268e-05 3.60774e-07
-4.34268e-05 1.60525e-05 -1.22068e-06
3.60774e-07 -1.22068e-06 -6.21294e-05
0.00138058 -5.90851e-05 2.54934e-06
-5.90851e-05 0.000156953 9.20076e-07
2.54934e-06 9.20076e-07 6.44425e-05
0.00144463 -5.81226e-05 2.01179e-06
-5.81226e-05 0.000237267 -3.09463e-06
2.01179e-06 -3.09463e-06 0.000143224
0.000976138 9.09917e-06 6.0587e-07
9.09917e-06 7.23592e-06 -1.8725e-06
6.0587e-07 -1.8725e-06 -2.10251e-05
0.0010164 -1.4782e-05 5.47443e-07
-1.4782e-05 3.55427e-05 -1.24014e-06
5.47443e-07 -1.24014e-06 -9.69993e-06
0.000832682 7.09023e-06 1.58132e-07
7.09023e-06 -5.41756e-05 -1.95073e-06
1.58132e-07 -1.95073e-06 -0.000105309
0.00112273 -2.55076e-05 7.33884e-08
-2.55076e-05 9.82806e-05 -7.04782e-07
7.33884e-08 -7.04782e-07 2.82218e-05
0.00101996 -3.59517e-05 2.53007e-07
-3.59517e-05 5.51103e-05 -1.18153e-06
2.53007e-07 -1.18153e-06 -2.99928e-05
0.00112373 -4.23951e-05 1.74375e-06
-4.23951e-05 0.00010192 -4.56867e-08
1.74375e-06 -4.56867e-08 7.14044e-06
0.000929148 -4.28306e-05 7.96509e-07
-4.28306e-05 -1.58742e-05 -8.21407e-07
7.96509e-07 -8.21407e-07 -9.58781e-05
0.00153275 -5.38892e-05 5.48004e-07
-5.38892e-05 0.000291448 -2.46342e-07
5.48004e-07 -2.46342e-07 0.000199295
0.00102735 1.3747e-05 -1.05897e-06
1.3747e-05 4.0858e-05 -1.37383e-06
-1.05897e-06 -1.37383e-06 -1.75158e-05
0.0011045 3.29471e-05 -5.85945e-07
3.29471e-05 8.26814e-05 -3.98512e-07
-5.85945e-07 -3.98512e-07 1.08243e-05
0.0017148 3.41167e-05 -4.13693e-07
3.41167e-05 0.000240743 -7.8409e-07
-4.13693e-07 -7.8409e-07 0.000183845
0.0011195 3.91289e-05 -9.51664e-07
3.91289e-05 8.91958e-05 6.07816e-09
-9.51664e-07 6.07816e-09 1.32209e-05
0.00119692 4.53592e-05 -7.91214e-07
4.53592e-05 0.000124273 -1.06594e-06
-7.91214e-07 -1.06594e-06 5.00092e-05
0.00103078 4.07002e-05 -9.04295e-07
4.07002e-05 4.33718e-05 -4.48003e-07
-9.04295e-07 -4.48003e-07 -3.31654e-05
0.0013839 5.418e-05 -4.11654e-07
5.418e-05 0.000155098 -8.83493e-07
-4.11654e-07 -8.83493e-07 7.72339e-05
0.00123378 4.99379e-05 -1.12108e-06
4.99379e-05 5.85825e-05 7.37306e-07
-1.12108e-06 7.37306e-07 -1.00336e-05
0.0010954 4.63748e-05 8.61076e-08
4.63748e-05 7.18123e-05 -4.19972e-07
8.61076e-08 -4.19972e-07 -1.41454e-05
0.00114765 5.1404e-05 -2.92421e-06
5.1404e-05 7.03859e-05 -1.2645e-06
-2.92421e-06 -1.2645e-06 -2.42342e-05
0.000951879 3.06551e-05 3.30414e-07
3.06551e-05 9.00256e-06 3.13366e-07
3.30414e-07 3.13366e-07 -6.36422e-05
0.00106232 4.16553e-05 -3.48609e-07
4.16553e-05 6.17855e-05 -4.11945e-07
-3.48609e-07 -4.11945e-07 -1.86917e-05
0.00116177 4.61363e-05 -2.34494e-07
4.61363e-05 0.000104193 -5.47478e-07
-2.34494e-07 -5.47478e-07 2.33042e-05
0.00107625 4.25998e-05 -2.85223e-08
4.25998e-05 6.16665e-05 -2.45223e-07
-2.85223e-08 -2.45223e-07 -1.92931e-05
0.00163099 2.25854e-05 -1.11203e-07
2.25854e-05 0.000125462 -1.04904e-06
-1.11203e-07 -1.04904e-06 8.11704e-05
0.00123776 4.57206e-05 1.35059e-07
4.57206e-05 2.25583e-06 1.32544e-07
1.35059e-07 1.32544e-07 -5.71261e-05
0.00141587 5.97699e-05 -4.4269e-07
5.97699e-05 0.000167281 -1.50648e-07
-4.4269e-07 -1.50648e-07 7.69878e-05
0.000928777 4.75218e-05 2.09102e-07
4.75218e-05 -1.50037e-05 2.2004e-07
2.09102e-07 2.2004e-07 -0.000116088
0.00112885 4.16013e-05 1.71069e-07
4.16013e-05 0.000101691 1.00689e-07
1.71069e-07 1.00689e-07 2.10287e-05
0.00142477 9.61942e-07 2.48384e-06
9.61942e-07 2.62682e-05 2.40762e-06
2.48384e-06 2.40762e-06 -2.60198e-05
0.00121963 4.62578e-05 8.95174e-07
4.62578e-05 0.000138769 5.40978e-07
8.95174e-07 5.40978e-07 5.22801e-05
0.00114621 4.74996e-05 5.98062e-07
4.74996e-05 0.000100282 8.94613e-07
5.98062e-07 8.94613e-07 1.03259e-05
0.00152881 4.65492e-05 5.1273e-06
4.65492e-05 3.95381e-05 3.82071e-07
5.1273e-06 3.82071e-07 -1.55514e-06
0.0012738 6.11471e-05 3.87646e-06
6.11471e-05 4.88801e-05 3.86225e-07
3.87646e-06 3.86225e-07 -4.13627e-05
0.00164009 6.41371e-05 7.41023e-07
6.41371e-05 0.000325514 2.19202e-06
7.41023e-07 2.19202e-06 0.000215952
0.00111471 3.05177e-05 -4.10719e-07
3.05177e-05 9.24164e-05 -4.32502e-07
-4.10719e-07 -4.32502e-07 2.20313e-05
0.00109534 3.8076e-05 -5.50507e-08
3.8076e-05 8.68743e-05 -7.36082e-08
-5.50507e-08 -7.36082e-08 7.68988e-06
0.00110844 4.15167e-05 6.45315e-07
4.15167e-05 9.2972e-05 5.15659e-07
6.45315e-07 5.15659e-07 7.56739e-06
0.00101247 1.0855e-05 -2.46113e-07
1.0855e-05 3.84799e-05 -1.31216e-06
-2.46113e-07 -1.31216e-06 -1.25866e-05
0.00105172 2.08206e-05 3.10672e-08
2.08206e-05 6.21683e-05 -5.00269e-07
3.10672e-08 -5.00269e-07 -5.52538e-06
0.000982358 2.87977e-05 -6.16202e-07
2.87977e-05 2.99246e-05 -9.71288e-07
-6.16202e-07 -9.71288e-07 -4.91213e-05
0.00100262 -6.75639e-06 2.20734e-07
-6.75639e-06 3.53624e-05 3.43801e-08
2.20734e-07 3.43801e-08 -1.47271e-05
0.000909037 1.68814e-05 -3.57754e-08
1.68814e-05 -8.94469e-06 4.1169e-07
-3.57754e-08 4.1169e-07 -7.60352e-05
0.00109233 3.41517e-05 -1.06207e-07
3.41517e-05 8.24588e-05 -3.33582e-07
-1.06207e-07 -3.33582e-07 -2.38998e-06
0.00108469 2.27738e-05 2.27636e-07
2.27738e-05 8.09629e-05 3.20604e-07
2.27636e-07 3.20604e-07 3.2681e-06
0.00122351 4.45378e-05 2.50281e-07
4.45378e-05 0.000140134 1.73385e-07
2.50281e-07 1.73385e-07 5.08009e-05
0.00103034 1.88226e-05 5.70949e-07
1.88226e-05 4.88404e-05 7.37924e-07
5.70949e-07 7.37924e-07 -3.65351e-05
0.00109015 3.3413e-05 4.14342e-07
3.3413e-05 8.27468e-05 8.85498e-07
4.14342e-07 8.85498e-07 5.49964e-06
0.00103586 1.59877e-05 5.11134e-07
1.59877e-05 5.65009e-05 1.00117e-06
5.11134e-07 1.00117e-06 -9.64251e-06
0.00101099 -1.01348e-05 -1.6499e-07
-1.01348e-05 3.97371e-05 1.1875e-06
-1.6499e-07 1.1875e-06 -1.00488e-05
0.000975103 9.81672e-06 4.00551e-07
9.81672e-06 7.87596e-06 1.75232e-06
4.00551e-07 1.75232e-06 -2.20927e-05
0.000980784 -7.91121e-07 -2.68765e-07
-7.91121e-07 1.02224e-05 1.61388e-08
-2.68765e-07 1.61388e-08 -1.94922e-05
0.00150344 -3.25907e-06 5.15746e-07
-3.25907e-06 0.000257491 1.98083e-06
5.15746e-07 1.98083e-06 0.000259878
0.00098253 -9.98779e-06 8.13337e-08
-9.98779e-06 1.12442e-05 -1.83889e-06
8.13337e-08 -1.83889e-06 -1.86925e-05
0.00152675 -5.71878e-06 -9.18235e-07
-5.71878e-06 0.000271107 -1.25883e-06
-9.18235e-07 -1.25883e-06 0.000273135
0.00116858 -5.90099e-06 4.56222e-06
-5.90099e-06 8.90539e-05 6.62646e-06
4.56222e-06 6.62646e-06 0.000106005
0.00154469 -7.95483e-06 -2.93119e-06
-7.95483e-06 0.000282823 -4.55534e-06
-2.93119e-06 -4.55534e-06 0.000284157
0.00111812 -8.54975e-06 1.72601e-06
-8.54975e-06 6.7073e-05 2.54237e-06
1.72601e-06 2.54237e-06 8.35593e-05
0.00106441 -1.09177e-05 -1.61629e-06
-1.09177e-05 4.42199e-05 -1.64544e-06
-1.61629e-06 -1.64544e-06 5.98867e-05
0.000981965 6.72695e-06 4.73502e-07
6.72695e-06 7.44735e-06 -1.88629e-06
4.73502e-07 -1.88629e-06 -1.91956e-05
0.000896043 1.01745e-05 1.23518e-06
1.01745e-05 -3.98183e-05 -3.23506e-06
1.23518e-06 -3.23506e-06 -4.05549e-05
0.000905911 1.21897e-05 -9.4117e-08
1.21897e-05 -3.08093e-05 1.41873e-08
-9.4117e-08 1.41873e-08 -3.3225e-05
0.00232065 1.66921e-05 9.27152e-06
1.66921e-05 0.000676027 -3.94502e-06
9.27152e-06 -3.94502e-06 0.000697493
0.000916365 1.39784e-05 -2.12842e-06
1.39784e-05 -2.14927e-05 3.31231e-06
-2.12842e-06 3.31231e-06 -2.57501e-05
0.00236814 1.98593e-05 -4.66724e-07
1.98593e-05 0.000705448 -3.75889e-08
-4.66724e-07 -3.75889e-08 0.000725483
0.00244043 2.26799e-05 -1.35504e-05
2.26799e-05 0.000747101 4.06494e-06
-1.35504e-05 4.06494e-06 0.00076554
0.00126914 1.04317e-05 2.16038e-07
1.04317e-05 2.28263e-06 -6.02565e-07
2.16038e-07 -6.02565e-07 -5.06532e-05
0.00136077 -1.12348e-05 -1.05712e-06
-1.12348e-05 3.84215e-05 -1.85209e-06
-1.05712e-06 -1.85209e-06 -2.60383e-05
0.00136384 -1.81786e-05 -1.81554e-06
-1.81786e-05 5.68708e-05 2.34804e-07
-1.81554e-06 2.34804e-07 -1.70581e-05
0.00140447 1.80584e-05 -1.40127e-06
1.80584e-05 7.57366e-05 -8.29339e-07
-1.40127e-06 -8.29339e-07 -3.47024e-08
0.00138986 1.00015e-05 4.06013e-08
1.00015e-05 7.43479e-05 -2.29321e-07
4.06013e-08 -2.29321e-07 -3.55293e-07
0.00145412 -2.66255e-05 -7.03961e-09
-2.66255e-05 9.82813e-05 1.7492e-07
-7.03961e-09 1.7492e-07 2.69616e-05
0.00136326 1.12038e-06 -6.68409e-07
1.12038e-06 2.60436e-05 2.84276e-07
-6.68409e-07 2.84276e-07 -2.75056e-05
0.00140906 2.44958e-06 2.40901e-06
2.44958e-06 8.69787e-05 -5.05957e-07
2.40901e-06 -5.05957e-07 1.41449e-05
0.00145602 -1.97504e-05 1.88089e-06
-1.97504e-05 7.95011e-05 1.45762e-06
1.88089e-06 1.45762e-06 1.46264e-05
0.00134221 -1.75742e-05 2.1194e-06
-1.75742e-05 1.33186e-05 1.58144e-07
2.1194e-06 1.58144e-07 -3.84099e-05
0.00140518 2.77838e-05 -1.64259e-06
2.77838e-05 6.42964e-05 -6.37773e-07
-1.64259e-06 -6.37773e-07 -1.25151e-05
0.00150642 1.23725e-05 -2.11499e-06
1.23725e-05 7.30663e-05 6.89217e-07
-2.11499e-06 6.89217e-07 -1.75355e-06
0.00142809 -1.99771e-05 -1.923e-06
-1.99771e-05 4.92899e-05 1.59315e-06
-1.923e-06 1.59315e-06 -8.88198e-06
0.00114206 -4.36599e-05 -6.17548e-07
-4.36599e-05 9.21554e-05 1.18928e-06
-6.17548e-07 1.18928e-06 2.1144e-05
0.00100333 -4.59545e-05 -9.87418e-07
-4.59545e-05 3.14574e-05 2.83358e-06
-9.87418e-07 2.83358e-06 -5.16078e-05
0.00129893 -5.50688e-05 -2.49818e-06
-5.50688e-05 0.000143672 2.02603e-06
-2.49818e-06 2.02603e-06 5.22675e-05
0.00144775 -4.07137e-05 4.09405e-07
-4.07137e-05 8.57602e-05 1.12763e-06
4.09405e-07 1.12763e-06 3.88411e-05
0.00118347 -4.94459e-05 -3.45948e-06
-4.94459e-05 3.95306e-06 -1.06915e-06
-3.45948e-06 -1.06915e-06 -6.27774e-05
0.00100532 -4.23217e-05 -1.06654e-06
-4.23217e-05 2.11008e-05 6.7969e-07
-1.06654e-06 6.7969e-07 -5.41636e-05
0.00115356 -4.50056e-05 -1.53807e-06
-4.50056e-05 9.65751e-05 -6.08184e-08
-1.53807e-06 -6.08184e-08 1.25953e-05
0.00112271 -3.86556e-05 -3.48125e-07
-3.86556e-05 0.00010313 5.65616e-07
-3.48125e-07 5.65616e-07 1.6308e-05
0.000962456 1.25027e-05 -6.42421e-07
1.25027e-05 3.25907e-06 1.32332e-06
-6.42421e-07 1.32332e-06 -2.66936e-05
0.00109253 6.67114e-06 -1.12807e-07
6.67114e-06 7.66718e-05 1.79651e-06
-1.12807e-07 1.79651e-06 2.30221e-05
0.00111409 -3.35453e-05 -1.21872e-06
-3.35453e-05 9.4797e-05 2.07413e-06
-1.21872e-06 2.07413e-06 2.05932e-05
0.00142086 3.07397e-05 1.66202e-07
3.07397e-05 6.53497e-05 3.45851e-07
1.66202e-07 3.45851e-07 -9.55625e-06
0.000974398 9.01888e-06 -2.96687e-08
9.01888e-06 6.24027e-06 1.12157e-09
-2.96687e-08 1.12157e-09 -2.2023e-05
0.00091121 -3.5667e-07 -3.18264e-07
-3.5667e-07 -1.66094e-05 9.56439e-09
-3.18264e-07 9.56439e-09 -6.23314e-05
0.00159731 7.22368e-06 1.54166e-07
7.22368e-06 0.000107395 3.29101e-07
1.54166e-07 3.29101e-07 3.86441e-05
0.00131719 -3.00572e-05 -2.70404e-07
-3.00572e-05 -2.40108e-05 -3.10478e-07
-2.70404e-07 -3.10478e-07 -6.61777e-05
0.000947291 -4.26537e-05 -2.08909e-07
-4.26537e-05 -2.7308e-09 6.59839e-07
-2.08909e-07 6.59839e-07 -7.75281e-05
0.00128484 -5.53758e-05 -3.05662e-07
-5.53758e-05 0.000159959 2.07117e-07
-3.05662e-07 2.07117e-07 6.48607e-05
0.00119849 -5.52406e-05 4.03145e-07
-5.52406e-05 6.49048e-05 4.61705e-07
4.03145e-07 4.61705e-07 -2.63431e-05
0.00151201 -5.0928e-05 -1.06653e-08
-5.0928e-05 0.000110326 -9.29045e-07
-1.06653e-08 -9.29045e-07 6.16516e-05
0.00105634 3.35601e-06 4.32935e-07
3.35601e-06 5.73277e-05 -5.03436e-07
4.32935e-07 -5.03436e-07 7.9627e-06
0.00110479 -1.99915e-05 -4.87724e-07
-1.99915e-05 9.01348e-05 5.34208e-07
-4.87724e-07 5.34208e-07 1.97519e-05
0.00108878 -4.56124e-05 4.20121e-07
-4.56124e-05 6.15062e-05 3.09945e-07
4.20121e-07 3.09945e-07 -1.80513e-05
0.00126622 -4.88357e-05 -1.17786e-06
-4.88357e-05 0.00015854 -1.10103e-07
-1.17786e-06 -1.10103e-07 6.88931e-05
0.00106047 -4.00063e-05 5.08263e-07
-4.00063e-05 7.19192e-05 3.49403e-07
5.08263e-07 3.49403e-07 -2.42485e-05
0.00105492 -3.54902e-05 2.6754e-07
-3.54902e-05 7.07451e-05 -2.7083e-07
2.6754e-07 -2.7083e-07 -1.38355e-05
0.00145955 3.2841e-05 3.12303e-06
3.2841e-05 7.52014e-05 1.33294e-06
3.12303e-06 1.33294e-06 1.93405e-06
0.00161343 -4.16864e-06 2.13318e-06
-4.16864e-06 9.98428e-05 -1.77512e-06
2.13318e-06 -1.77512e-06 4.81432e-05
0.001739 -4.77361e-05 3.80555e-07
-4.77361e-05 0.000154573 -1.71214e-06
3.80555e-07 -1.71214e-06 0.000127115
0.00146941 -6.20509e-05 3.69122e-06
-6.20509e-05 0.000141395 8.22615e-07
3.69122e-06 8.22615e-07 6.63107e-05
0.00101534 -4.66416e-05 4.61829e-07
-4.66416e-05 3.74011e-05 -2.34432e-06
4.61829e-07 -2.34432e-06 -4.77479e-05
0.0015969 -6.61163e-05 1.7996e-06
-6.61163e-05 0.000303975 -2.10784e-06
1.7996e-06 -2.10784e-06 0.000199177
0.000811179 8.32941e-06 -4.39342e-08
8.32941e-06 -6.66374e-05 -1.67652e-06
-4.39342e-08 -1.67652e-06 -0.000111382
0.00100255 -5.24585e-06 6.07321e-07
-5.24585e-06 2.97394e-05 -1.29858e-06
6.07321e-07 -1.29858e-06 -1.71992e-05
0.00125984 -5.78768e-06 -3.65576e-08
-5.78768e-06 0.000166474 -6.96785e-07
-3.65576e-08 -6.96785e-07 0.000107703
0.000899066 4.41124e-06 -2.19743e-07
4.41124e-06 -1.24326e-05 -1.28872e-06
-2.19743e-07 -1.28872e-06 -8.02055e-05
0.00118209 -3.12127e-05 1.57931e-07
-3.12127e-05 0.000129846 -6.91932e-07
1.57931e-07 -6.91932e-07 4.90357e-05
0.000965962 -3.24573e-05 3.82625e-08
-3.24573e-05 2.93783e-05 -6.70649e-07
3.82625e-08 -6.70649e-07 -6.4685e-05
0.00118893 -4.2743e-05 1.85677e-06
-4.2743e-05 0.000141976 -8.53418e-07
1.85677e-06 -8.53418e-07 3.89755e-05
0.00100608 -4.78717e-05 9.00995e-07
-4.78717e-05 3.32054e-05 -1.2306e-06
9.00995e-07 -1.2306e-06 -5.7507e-05
0.000960759 3.07369e-05 -4.38803e-07
3.07369e-05 1.36431e-05 -4.41649e-07
-4.38803e-07 -4.41649e-07 -5.92068e-05
0.00112963 4.18739e-05 -1.44187e-06
4.18739e-05 9.43419e-05 -6.95991e-07
-1.44187e-06 -6.95991e-07 1.47566e-05
0.00150822 2.09661e-05 -3.20027e-06
2.09661e-05 6.6883e-05 -2.65662e-06
-3.20027e-06 -2.65662e-06 2.35427e-05
0.00136934 4.63189e-05 -1.8108e-06
4.63189e-05 7.6466e-05 -1.15021e-07
-1.8108e-06 -1.15021e-07 1.49305e-05
0.00122618 4.51224e-05 -1.05141e-06
4.51224e-05 0.000134602 -2.75738e-07
-1.05141e-06 -2.75738e-07 5.40472e-05
0.00117706 4.6248e-05 -8.90098e-07
4.6248e-05 0.00011267 -1.47947e-06
-8.90098e-07 -1.47947e-06 3.25011e-05
0.00165823 6.35286e-05 -1.41957e-06
6.35286e-05 0.000284893 -5.69335e-07
-1.41957e-06 -5.69335e-07 0.000195741
0.000966581 4.87943e-05 -9.32657e-07
4.87943e-05 -1.91901e-06 -1.53735e-06
-9.32657e-07 -1.53735e-06 -0.000102836
0.00110407 4.15569e-05 -3.38299e-07
4.15569e-05 8.94219e-05 -3.20459e-07
-3.38299e-07 -3.20459e-07 8.75166e-06
0.00129992 1.04274e-06 7.69767e-07
1.04274e-06 -3.47687e-05 5.98837e-07
7.69767e-07 5.98837e-07 -8.4928e-05
0.00114213 4.48386e-05 2.88637e-07
4.48386e-05 0.0001003 3.47055e-07
2.88637e-07 3.47055e-07 1.3956e-05
0.00100295 4.47883e-05 2.66189e-07
4.47883e-05 2.77423e-05 -1.13894e-07
2.66189e-07 -1.13894e-07 -6.32642e-05
0.00147352 4.32747e-05 4.82155e-07
4.32747e-05 1.71377e-05 -3.58801e-07
4.82155e-07 -3.58801e-07 -2.48129e-05
0.00147496 6.59357e-05 7.889e-07
6.59357e-05 0.000140767 -4.2959e-07
7.889e-07 -4.2959e-07 5.0938e-05
0.00151393 6.21049e-05 2.26592e-07
6.21049e-05 0.000265829 5.76661e-07
2.26592e-07 5.76661e-07 0.000155828
0.0011654 4.3547e-05 3.59615e-07
4.3547e-05 0.000121649 3.5911e-07
3.59615e-07 3.5911e-07 3.42658e-05
0.00144253 3.36918e-05 5.20615e-06
3.36918e-05 -5.76549e-05 -3.84251e-07
5.20615e-06 -3.84251e-07 -9.75513e-05
0.00135702 4.97879e-05 4.8843e-07
4.97879e-05 0.00020088 2.12452e-07
4.8843e-07 2.12452e-07 0.000110274
0.00152844 5.76671e-05 -7.616e-07
5.76671e-05 0.000287235 1.6952e-06
-7.616e-07 1.6952e-06 0.000181883
0.00122665 6.9949e-05 5.88616e-06
6.9949e-05 -8.27998e-05 1.80878e-06
5.88616e-06 1.80878e-06 -0.000160798
0.0010963 6.13322e-05 -4.88311e-08
6.13322e-05 4.1788e-05 2.67369e-06
-4.88311e-08 2.67369e-06 -7.53581e-05
0.00212979 -4.88943e-05 -6.7206e-07
-4.88943e-05 9.22189e-05 -5.33455e-06
-6.7206e-07 -5.33455e-06 0.000111908
0.00108893 3.81e-05 -4.67657e-07
3.81e-05 8.42074e-05 -5.44723e-07
-4.67657e-07 -5.44723e-07 5.00502e-06
0.00109226 4.11456e-05 3.65827e-08
4.11456e-05 8.59247e-05 3.61906e-08
3.65827e-08 3.61906e-08 4.62247e-07
0.00124372 4.50859e-05 5.56261e-07
4.50859e-05 0.000153047 3.58429e-07
5.56261e-07 3.58429e-07 6.32124e-05
0.00100435 -6.39384e-06 1.92675e-07
-6.39384e-06 3.62608e-05 -1.23658e-06
1.92675e-07 -1.23658e-06 -1.39154e-05
0.000904164 5.54657e-06 -1.73856e-07
5.54657e-06 -1.16738e-05 -5.04178e-07
-1.73856e-07 -5.04178e-07 -7.85309e-05
0.00121623 3.28284e-05 -1.86843e-07
3.28284e-05 0.000147233 -3.11064e-07
-1.86843e-07 -3.11064e-07 7.00522e-05
0.00101095 3.09584e-05 -7.79747e-07
3.09584e-05 4.1785e-05 -9.28802e-07
-7.79747e-07 -9.28802e-07 -4.36608e-05
0.00100591 -1.31574e-05 -5.04393e-08
-1.31574e-05 3.74997e-05 8.89892e-09
-5.04393e-08 8.89892e-09 -1.24989e-05
0.000974296 1.67472e-05 2.16232e-07
1.67472e-05 2.54341e-05 2.5725e-09
2.16232e-07 2.5725e-09 -4.12297e-05
0.00114341 4.27875e-05 -6.58353e-07
4.27875e-05 0.000100208 -7.6464e-07
-6.58353e-07 -7.6464e-07 1.09194e-05
0.00108443 2.49264e-05 4.13272e-08
2.49264e-05 7.98103e-05 4.2755e-08
4.13272e-08 4.2755e-08 2.88377e-06
0.00111383 2.23932e-05 1.7332e-08
2.23932e-05 9.15046e-05 -4.3916e-08
1.7332e-08 -4.3916e-08 6.70871e-06
0.00112827 3.31288e-05 4.32759e-07
3.31288e-05 8.64044e-05 9.44003e-07
4.32759e-07 9.44003e-07 -5.78638e-06
0.00123284 3.67063e-05 1.00822e-07
3.67063e-05 0.000150272 1.92236e-07
1.00822e-07 1.92236e-07 6.46823e-05
0.00119742 3.82408e-05 2.81907e-07
3.82408e-05 0.000136633 4.72892e-07
2.81907e-07 4.72892e-07 5.94334e-05
0.000853771 5.32528e-06 -7.2187e-08
5.32528e-06 -3.48833e-05 1.00737e-06
-7.2187e-08 1.00737e-06 -0.000102245
0.000805663 -4.89001e-07 1.34309e-07
-4.89001e-07 -6.29199e-05 1.6229e-06
1.34309e-07 1.6229e-06 -0.000114581
0.00123364 -1.85112e-06 2.24044e-07
-1.85112e-06 0.000155719 4.11751e-07
2.24044e-07 4.11751e-07 9.03722e-05
0.000812827 -9.03632e-06 -4.89583e-07
-9.03632e-06 -6.07843e-05 1.55441e-06
-4.89583e-07 1.55441e-06 -0.000112545
0.000977272 9.92113e-06 2.71966e-07
9.92113e-06 9.03898e-06 1.75874e-06
2.71966e-07 1.75874e-06 -2.13096e-05
0.0009749 3.89384e-07 -2.78451e-07
3.89384e-07 7.77221e-06 5.03579e-09
-2.78451e-07 5.03579e-09 -2.21917e-05
0.000924744 -1.47164e-07 1.37574e-07
-1.47164e-07 -3.32962e-05 3.2054e-06
1.37574e-07 3.2054e-06 -3.40256e-05
0.000979843 -9.50221e-06 2.24484e-07
-9.50221e-06 9.8413e-06 -1.78754e-06
2.24484e-07 -1.78754e-06 -1.9889e-05
0.00122585 -2.82218e-06 -5.32273e-07
-2.82218e-06 0.000118433 -1.27864e-06
-5.32273e-07 -1.27864e-06 0.000119233
0.00231925 -4.01864e-06 2.46194e-06
-4.01864e-06 0.000663954 4.11058e-06
2.46194e-06 4.11058e-06 0.000687227
0.00154193 -5.51118e-06 -1.68422e-06
-5.51118e-06 0.000278975 -4.49027e-06
-1.68422e-06 -4.49027e-06 0.000280909
0.00111929 -6.0357e-06 8.65365e-07
-6.0357e-06 6.42361e-05 2.52016e-06
8.65365e-07 2.52016e-06 8.14159e-05
0.00106412 -8.45545e-06 -1.14308e-06
-8.45545e-06 3.99711e-05 -1.61718e-06
-1.14308e-06 -1.61718e-06 5.66763e-05
0.000988248 4.59861e-06 3.27839e-07
4.59861e-06 8.50258e-06 -1.87936e-06
3.27839e-07 -1.87936e-06 -1.6891e-05
0.000981653 6.57312e-06 -2.72725e-08
6.57312e-06 7.0563e-06 -8.30677e-09
-2.72725e-08 -8.30677e-09 -1.95551e-05
0.00090688 7.90345e-06 8.86918e-07
7.90345e-06 -3.81937e-05 -3.2382e-06
8.86918e-07 -3.2382e-06 -3.74992e-05
0.00120354 1.09406e-05 -3.50199e-07
1.09406e-05 0.000114177 2.71692e-08
-3.50199e-07 2.71692e-08 0.000114771
0.00228368 1.34263e-05 7.57157e-06
1.34263e-05 0.000653055 -3.95643e-06
7.57157e-06 -3.95643e-06 0.000675634
0.000923656 1.22134e-05 -1.79033e-06
1.22134e-05 -2.22809e-05 3.23287e-06
-1.79033e-06 3.23287e-06 -2.47566e-05
0.00232162 1.6742e-05 -5.39481e-07
1.6742e-05 0.00067714 -3.2997e-08
-5.39481e-07 -3.2997e-08 0.000698446
0.00237215 1.97986e-05 -1.17804e-05
1.97986e-05 0.000708017 4.01855e-06
-1.17804e-05 4.01855e-06 0.000727889
0.00139048 1.05583e-06 -1.66709e-06
1.05583e-06 4.21822e-05 -1.86714e-06
-1.66709e-06 -1.86714e-06 -9.85587e-06
0.00140822 -2.46135e-05 -1.43943e-06
-2.46135e-05 7.58786e-05 1.86257e-07
-1.43943e-06 1.86257e-07 3.61047e-06
0.00143244 6.43209e-06 -1.60134e-06
6.43209e-06 9.70327e-05 -6.93055e-07
-1.60134e-06 -6.93055e-07 2.28138e-05
0.00140885 2.23543e-06 -3.06984e-07
2.23543e-06 8.68688e-05 -8.52046e-07
-3.06984e-07 -8.52046e-07 1.41562e-05
0.00137628 -1.91689e-05 -1.67586e-07
-1.91689e-05 4.56465e-05 5.54644e-07
-1.67586e-07 5.54644e-07 -1.8782e-05
0.00134223 -1.94224e-05 1.23184e-06
-1.94224e-05 2.44538e-05 4.30869e-07
1.23184e-06 4.30869e-07 -3.03818e-05
0.00148927 2.85026e-06 1.42039e-06
2.85026e-06 0.000113524 2.75152e-07
1.42039e-06 2.75152e-07 4.84022e-05
0.00181024 -4.60108e-05 -4.14571e-06
-4.60108e-05 0.000193676 -5.44734e-06
-4.14571e-06 -5.44734e-06 0.000173725
0.00141769 1.04683e-05 2.09429e-06
1.04683e-05 8.73903e-06 1.87957e-07
2.09429e-06 1.87957e-07 -2.41112e-05
0.00100786 -4.24594e-06 2.47521e-07
-4.24594e-06 3.01178e-05 -1.16709e-06
2.47521e-07 -1.16709e-06 -1.22996e-05
0.00136732 3.01164e-05 -2.51105e-06
3.01164e-05 3.91567e-05 -8.77002e-07
-2.51105e-06 -8.77002e-07 -3.57817e-05
0.00160602 6.68503e-06 -1.93856e-06
6.68503e-06 0.000109829 1.22903e-06
-1.93856e-06 1.22903e-06 4.16022e-05
0.00119002 -3.05366e-05 -1.15869e-06
-3.05366e-05 -8.26801e-05 2.04593e-06
-1.15869e-06 2.04593e-06 -0.000127436
0.000920147 -4.19985e-05 -6.57921e-07
-4.19985e-05 -1.3137e-05 2.07767e-06
-6.57921e-07 2.07767e-06 -9.00206e-05
0.00112271 -5.25926e-05 -1.5968e-06
-5.25926e-05 8.14422e-05 3.75614e-06
-1.5968e-06 3.75614e-06 -1.47064e-05
0.00101553 -5.14546e-05 -2.66127e-06
-5.14546e-05 -2.74872e-05 5.80185e-07
-2.66127e-06 5.80185e-07 -0.000117472
0.0013341 -4.96646e-05 -2.5868e-06
-4.96646e-05 2.64369e-05 -1.2309e-06
-2.5868e-06 -1.2309e-06 -2.27688e-05
0.00125532 -4.85342e-05 -2.89957e-07
-4.85342e-05 0.000142343 8.1639e-07
-2.89957e-07 8.1639e-07 6.32097e-05
0.00100546 -4.39237e-05 -3.62362e-06
-4.39237e-05 2.85884e-05 -5.35051e-07
-3.62362e-06 -5.35051e-07 -5.85697e-05
0.000995104 -3.86681e-05 -3.1945e-07
-3.86681e-05 4.09152e-05 1.10401e-06
-3.1945e-07 1.10401e-06 -5.67048e-05
0.000976753 9.07735e-06 -6.6355e-07
9.07735e-06 7.35859e-06 1.91157e-06
-6.6355e-07 1.91157e-06 -2.09325e-05
0.00109289 -3.61743e-05 1.3902e-07
-3.61743e-05 8.78988e-05 5.39114e-07
1.3902e-07 5.39114e-07 3.77102e-06
0.00127903 -7.44918e-06 -9.61993e-08
-7.44918e-06 0.000168891 8.34453e-07
-9.61993e-08 8.34453e-07 0.000121066
0.00109084 -1.39967e-05 -4.88082e-07
-1.39967e-05 8.36893e-05 1.87038e-06
-4.88082e-07 1.87038e-06 1.30974e-05
0.000803577 8.83772e-06 -1.71485e-07
8.83772e-06 -7.02458e-05 1.24828e-06
-1.71485e-07 1.24828e-06 -0.000116261
0.00146767 3.18903e-05 2.15517e-07
3.18903e-05 7.33773e-05 3.87536e-09
2.15517e-07 3.87536e-09 -2.31889e-07
0.000919648 -3.65937e-08 2.19026e-07
-3.65937e-08 -1.30978e-05 -4.54923e-07
2.19026e-07 -4.54923e-07 -5.72155e-05
0.00100573 -7.39243e-06 -1.5338e-07
-7.39243e-06 3.16837e-05 3.44379e-08
-1.5338e-07 3.44379e-08 -1.54203e-05
0.00106305 -7.54261e-08 -4.24261e-07
-7.54261e-08 6.84594e-05 4.8451e-07
-4.24261e-07 4.8451e-07 8.49648e-06
0.00164935 -4.43853e-06 6.83472e-07
-4.43853e-06 0.000117256 7.37271e-07
6.83472e-07 7.37271e-07 6.56327e-05
0.00149386 -4.72748e-05 -7.04886e-07
-4.72748e-05 3.46694e-05 -1.27846e-06
-7.04886e-07 -1.27846e-06 5.2083e-06
0.00107453 -4.77808e-05 -1.05834e-07
-4.77808e-05 6.37245e-05 3.35231e-07
-1.05834e-07 3.35231e-07 -2.08569e-05
0.00118836 -5.90254e-05 8.47284e-07
-5.90254e-05 0.000107467 -2.0831e-07
8.47284e-07 -2.0831e-07 2.34683e-06
0.00128756 -5.91021e-05 -5.24562e-08
-5.91021e-05 5.27804e-05 6.10234e-07
-5.24562e-08 6.10234e-07 -2.13136e-05
0.00098729 2.15592e-06 -9.92391e-08
2.15592e-06 3.13258e-05 3.32744e-08
-9.92391e-08 3.32744e-08 -3.5193e-05
0.00117403 -3.08716e-05 1.05857e-07
-3.08716e-05 0.000125236 9.07833e-09
1.05857e-07 9.07833e-09 4.3871e-05
0.00104838 -4.85385e-05 -9.50542e-07
-4.85385e-05 5.36235e-05 -1.26197e-08
-9.50542e-07 -1.26197e-08 -3.70962e-05
0.00117661 -4.25369e-05 1.79394e-07
-4.25369e-05 0.000135343 -3.87611e-07
1.79394e-07 -3.87611e-07 3.36392e-05
0.00102008 -3.62269e-05 -2.62747e-07
-3.62269e-05 5.56654e-05 6.09996e-07
-2.62747e-07 6.09996e-07 -3.78016e-05
0.00139656 3.01782e-05 3.21406e-06
3.01782e-05 1.30394e-05 5.11896e-07
3.21406e-06 5.11896e-07 -5.84265e-05
0.00184471 -2.5939e-05 1.96772e-06
-2.5939e-05 0.000147581 -3.77854e-06
1.96772e-06 -3.77854e-06 0.000137127
0.0017651 -6.85671e-05 4.49208e-06
-6.85671e-05 0.000195929 3.48774e-07
4.49208e-06 3.48774e-07 0.000142028
0.00172778 -7.33686e-05 2.67325e-06
-7.33686e-05 0.00034236 -2.07093e-06
2.67325e-06 -2.07093e-06 0.000241113
0.000870219 -5.00636e-05 8.91984e-07
-5.00636e-05 -1.67187e-05 -3.20278e-06
8.91984e-07 -3.20278e-06 -0.000113112
0.000816589 1.73635e-05 3.2502e-08
1.73635e-05 -5.39653e-05 -1.29688e-06
3.2502e-08 -1.29688e-06 -0.000113208
0.000909606 7.06436e-06 3.30034e-07
7.06436e-06 -7.83716e-06 -1.25975e-06
3.30034e-07 -1.25975e-06 -7.17887e-05
0.00117914 1.73111e-05 2.43326e-07
1.73111e-05 0.000129093 -1.30208e-07
2.43326e-07 -1.30208e-07 5.83383e-05
0.0011351 -3.08457e-05 4.45965e-07
-3.08457e-05 0.000107472 -1.03658e-06
4.45965e-07 -1.03658e-06 2.8257e-05
0.00108659 -3.51063e-05 -1.64746e-07
-3.51063e-05 8.24226e-05 -1.72439e-07
-1.64746e-07 -1.72439e-07 -6.40665e-06
0.00116562 -3.83139e-05 3.99984e-07
-3.83139e-05 0.000134678 -1.56615e-06
3.99984e-07 -1.56615e-06 3.36851e-05
0.00103576 -4.51079e-05 2.67754e-06
-4.51079e-05 8.20576e-05 -9.44982e-07
2.67754e-06 -9.44982e-07 -3.52867e-05
0.00107539 4.10552e-05 -7.21457e-07
4.10552e-05 7.52559e-05 -7.94866e-07
-7.21457e-07 -7.94866e-07 -5.39278e-06
0.00106002 4.33522e-05 -2.77683e-07
4.33522e-05 5.96352e-05 1.42737e-09
-2.77683e-07 1.42737e-09 -2.65637e-05
0.00117174 7.14482e-07 -1.87181e-06
7.14482e-07 -9.74282e-05 -4.07635e-07
-1.87181e-06 -4.07635e-07 -0.000145413
0.00136533 3.99085e-05 -1.85277e-06
3.99085e-05 -2.93686e-05 -1.31475e-06
-1.85277e-06 -1.31475e-06 -7.22345e-05
0.00164225 7.02725e-05 -2.50729e-06
7.02725e-05 0.000215944 -1.61156e-06
-2.50729e-06 -1.61156e-06 0.000126589
0.00084878 4.19296e-05 -8.89464e-08
4.19296e-05 -5.02424e-05 -1.2145e-06
-8.89464e-08 -1.2145e-06 -0.000142274
0.00137725 5.98128e-05 -3.44649e-07
5.98128e-05 0.000200963 -5.47288e-07
-3.44649e-07 -5.47288e-07 9.10462e-05
0.00117139 4.36745e-05 5.70553e-08
4.36745e-05 0.00012452 8.40125e-08
5.70553e-08 8.40125e-08 3.76791e-05
0.00136406 3.30589e-05 -1.55517e-06
3.30589e-05 -9.63011e-05 1.10361e-07
-1.55517e-06 1.10361e-07 -0.000134499
0.00120094 4.67895e-05 -9.28209e-08
4.67895e-05 0.000125262 -1.49948e-07
-9.28209e-08 -1.49948e-07 3.48187e-05
0.00126054 5.1846e-05 -1.09789e-07
5.1846e-05 0.000163519 3.22965e-07
-1.09789e-07 3.22965e-07 5.85188e-05
0.00141615 7.08235e-05 2.22629e-06
7.08235e-05 -2.89959e-06 -1.02173e-06
2.22629e-06 -1.02173e-06 -7.76284e-05
0.0012347 6.45667e-05 -9.46128e-07
6.45667e-05 0.000112646 8.25851e-07
-9.46128e-07 8.25851e-07 -8.9406e-06
0.00202291 -3.34772e-05 -2.30162e-06
-3.34772e-05 0.000110913 -2.76983e-07
-2.30162e-06 -2.76983e-07 0.000117072
0.00119555 4.47015e-05 -8.10983e-08
4.47015e-05 0.00013259 -2.24408e-07
-8.10983e-08 -2.24408e-07 4.11746e-05
0.00111566 8.02625e-05 9.81424e-06
8.02625e-05 -0.000240289 3.96655e-06
9.81424e-06 3.96655e-06 -0.000311466
0.00126462 4.87041e-05 -9.6419e-07
4.87041e-05 0.000164492 9.25098e-08
-9.6419e-07 9.25098e-08 6.73111e-05
0.00118888 5.65224e-05 -1.671e-06
5.65224e-05 0.000160223 1.47471e-06
-1.671e-06 1.47471e-06 3.05692e-05
0.000480033 7.59858e-05 1.94129e-09
7.59858e-05 -0.000313355 8.61481e-07
1.94129e-09 8.61481e-07 -0.000428375
0.00490129 -6.11326e-05 -8.52009e-06
-6.11326e-05 0.00170512 2.45717e-06
-8.52009e-06 2.45717e-06 0.0012456
0.000874066 -0.000100402 3.91132e-05
-0.000100402 -0.000141724 1.61831e-05
3.91132e-05 1.61831e-05 -0.000329095
0.0027434 3.38469e-05 -4.48418e-06
3.38469e-05 0.00043918 1.47725e-07
-4.48418e-06 1.47725e-07 0.000470175
-0.00246619 -8.27159e-05 -5.44851e-05
-8.27159e-05 -0.0014321 -1.69148e-05
-5.44851e-05 -1.69148e-05 -0.00143236
0.0014128 -0.000106616 -3.80674e-06
-0.000106616 2.54077e-05 2.58197e-06
-3.80674e-06 2.58197e-06 0.000403447
0.00108154 4.08837e-05 -5.06053e-07
4.08837e-05 8.14246e-05 -4.65369e-07
-5.06053e-07 -4.65369e-07 -4.0915e-06
0.00120006 4.41278e-05 -1.38748e-07
4.41278e-05 0.00013222 -9.38863e-08
-1.38748e-07 -9.38863e-08 4.2424e-05
0.00115932 4.1749e-05 6.21727e-07
4.1749e-05 9.9679e-05 9.34672e-07
6.21727e-07 9.34672e-07 5.08573e-06
0.00100292 -1.51969e-05 1.07307e-07
-1.51969e-05 3.62885e-05 -1.11191e-06
1.07307e-07 -1.11191e-06 -1.39113e-05
0.000913792 2.10388e-05 -2.00453e-07
2.10388e-05 -5.06923e-06 -1.10809e-06
-2.00453e-07 -1.10809e-06 -7.22708e-05
0.00107824 1.68577e-05 -1.83788e-07
1.68577e-05 7.65516e-05 -7.79615e-07
-1.83788e-07 -7.79615e-07 2.18905e-08
0.00119737 2.81658e-05 -5.26216e-07
2.81658e-05 0.00013424 -6.59709e-07
-5.26216e-07 -6.59709e-07 4.99964e-05
0.00107356 3.96649e-05 -1.32404e-06
3.96649e-05 6.50772e-05 -1.4743e-06
-1.32404e-06 -1.4743e-06 -2.40589e-05
0.00108294 3.42829e-05 -2.4271e-07
3.42829e-05 7.87568e-05 -4.89825e-07
-2.4271e-07 -4.89825e-07 6.72929e-07
0.000907148 1.07832e-07 1.20158e-07
1.07832e-07 -1.23067e-05 4.90342e-07
1.20158e-07 4.90342e-07 -6.32217e-05
0.000950366 4.61946e-06 1.03286e-07
4.61946e-06 1.40459e-05 5.76171e-08
1.03286e-07 5.76171e-08 -5.27753e-05
0.00113293 3.47975e-05 1.20254e-07
3.47975e-05 9.05258e-05 -7.30033e-09
1.20254e-07 -7.30033e-09 -1.11418e-06
0.00115981 3.47412e-05 -3.1702e-07
3.47412e-05 0.000114089 -5.30266e-07
-3.1702e-07 -5.30266e-07 2.83582e-05
0.00129275 4.48226e-05 -1.40359e-07
4.48226e-05 0.000180975 -1.68358e-07
-1.40359e-07 -1.68358e-07 9.57344e-05
0.00119045 3.90375e-05 2.63907e-07
3.90375e-05 0.000129251 9.19468e-07
2.63907e-07 9.19468e-07 3.47579e-05
0.000952223 2.80899e-05 2.70218e-07
2.80899e-05 1.28635e-05 1.42977e-06
2.70218e-07 1.42977e-06 -6.70844e-05
0.000866138 -3.44324e-06 1.26252e-07
-3.44324e-06 -2.79374e-05 3.8618e-07
1.26252e-07 3.8618e-07 -9.53227e-05
0.000791025 -2.08713e-05 -7.68937e-07
-2.08713e-05 -7.02997e-05 1.58107e-06
-7.68937e-07 1.58107e-06 -0.000122335
0.0010941 9.73901e-07 -1.00815e-08
9.73901e-07 8.50384e-05 7.39556e-07
-1.00815e-08 7.39556e-07 1.98338e-05
0.00123115 1.44832e-05 1.73896e-07
1.44832e-05 0.000153575 5.91371e-07
1.73896e-07 5.91371e-07 7.68969e-05
0.00104148 -1.44049e-05 -9.15547e-08
-1.44049e-05 5.9764e-05 9.87989e-07
-9.15547e-08 9.87989e-07 -8.84013e-06
0.00106156 -5.8607e-06 2.42325e-07
-5.8607e-06 6.93652e-05 -5.13821e-07
2.42325e-07 -5.13821e-07 3.00542e-06
0.000999177 -1.61835e-05 -6.12872e-07
-1.61835e-05 3.21073e-05 1.13173e-06
-6.12872e-07 1.13173e-06 -1.92544e-05
0.000813782 -6.98416e-07 1.03249e-07
-6.98416e-07 -5.9909e-05 4.8862e-07
1.03249e-07 4.8862e-07 -0.00011184
0.000980119 7.57791e-06 2.22415e-08
7.57791e-06 9.94038e-06 1.78875e-06
2.22415e-08 1.78875e-06 -2.07653e-05
0.000973864 5.72608e-07 -2.45011e-07
5.72608e-07 7.25833e-06 -3.74877e-09
-2.45011e-07 -3.74877e-09 -2.30566e-05
0.000945412 2.14864e-06 -3.79629e-07
2.14864e-06 -2.24396e-05 4.49905e-06
-3.79629e-07 4.49905e-06 -2.35697e-05
0.000974748 -9.30213e-06 3.8648e-07
-9.30213e-06 7.71995e-06 -1.75667e-06
3.8648e-07 -1.75667e-06 -2.22518e-05
0.000928698 -2.04269e-07 9.47951e-08
-2.04269e-07 -3.13033e-05 -1.94142e-09
9.47951e-08 -1.94142e-09 -3.20609e-05
0.00232464 -8.64414e-07 -9.34404e-09
-8.64414e-07 0.000665803 4.11943e-06
-9.34404e-09 4.11943e-06 0.000689146
0.000946347 -2.58125e-06 -4.31714e-07
-2.58125e-06 -2.15769e-05 -4.50216e-06
-4.31714e-07 -4.50216e-06 -2.23684e-05
0.00171594 -3.56057e-06 -9.08545e-08
-3.56057e-06 0.000361267 3.73175e-08
-9.08545e-08 3.73175e-08 0.000381655
0.00107102 -5.78308e-06 -6.88206e-07
-5.78308e-06 3.98903e-05 -1.60024e-06
-6.88206e-07 -1.60024e-06 5.73137e-05
0.000990227 2.47131e-06 1.71089e-07
2.47131e-06 7.92593e-06 -1.87882e-06
1.71089e-07 -1.87882e-06 -1.66837e-05
0.000985653 4.37627e-06 -2.99865e-08
4.37627e-06 6.96021e-06 -1.48136e-08
-2.99865e-08 -1.48136e-08 -1.83925e-05
0.000915599 5.45828e-06 5.59044e-07
5.45828e-06 -3.66374e-05 -3.23088e-06
5.59044e-07 -3.23088e-06 -3.47891e-05
0.000980106 6.45443e-06 -5.56998e-07
6.45443e-06 6.06034e-06 1.88097e-06
-5.56998e-07 1.88097e-06 -2.05161e-05
0.00119738 8.44297e-06 -9.76708e-08
8.44297e-06 0.000107232 -6.11232e-07
-9.76708e-08 -6.11232e-07 0.000109334
0.00225081 1.00723e-05 5.78538e-06
1.00723e-05 0.00063298 -3.95373e-06
5.78538e-06 -3.95373e-06 0.000656506
0.000921114 1.02518e-05 -1.43394e-06
1.02518e-05 -2.74143e-05 3.22215e-06
-1.43394e-06 3.22215e-06 -2.84016e-05
0.00230338 1.31283e-05 -2.83804e-06
1.31283e-05 0.000663831 1.15386e-06
-2.83804e-06 1.15386e-06 0.000686123
0.00232382 1.67632e-05 -1.01337e-05
1.67632e-05 0.000678855 4.00906e-06
-1.01337e-05 4.00906e-06 0.0007
0.00127832 -1.82506e-05 -2.2122e-06
-1.82506e-05 3.29629e-06 -2.20525e-07
-2.2122e-06 -2.20525e-07 -6.06977e-05
0.00140922 1.46821e-06 -2.33834e-06
1.46821e-06 8.70083e-05 -1.3299e-06
-2.33834e-06 -1.3299e-06 1.44037e-05
0.00134752 -2.0168e-05 2.81854e-06
-2.0168e-05 3.76274e-05 9.52825e-07
2.81854e-06 9.52825e-07 -2.02893e-05
0.00150854 -4.08126e-05 -1.58965e-06
-4.08126e-05 4.32769e-05 -2.11135e-06
-1.58965e-06 -2.11135e-06 2.98678e-05
0.00134409 1.03729e-06 -6.994e-07
1.03729e-06 4.47334e-05 -5.98592e-07
-6.994e-07 -5.98592e-07 -2.10756e-05
0.00120298 9.42932e-06 -7.14637e-07
9.42932e-06 -9.087e-05 -5.75258e-07
-7.14637e-07 -5.75258e-07 -0.000130552
0.00135227 2.94638e-05 1.11745e-06
2.94638e-05 -2.77333e-05 2.78458e-06
1.11745e-06 2.78458e-06 -9.56244e-05
0.00206556 -9.90926e-05 0.000122068
-9.90926e-05 0.000420345 3.76929e-05
0.000122068 3.76929e-05 0.000223721
0.00119834 2.68102e-06 -5.23589e-06
2.68102e-06 7.73551e-05 9.43409e-07
-5.23589e-06 9.43409e-07 5.35324e-05
0.00101025 -3.54231e-07 -1.12676e-07
-3.54231e-07 3.12471e-05 -1.15563e-06
-1.12676e-07 -1.15563e-06 -1.08696e-05
0.00101623 -1.0041e-05 9.49897e-08
-1.0041e-05 3.45429e-05 1.15269e-08
9.49897e-08 1.15269e-08 -8.09941e-06
0.00103763 1.50536e-05 -1.93703e-07
1.50536e-05 5.405e-05 -7.23706e-07
-1.93703e-07 -7.23706e-07 -2.14845e-06
0.00103565 -7.66859e-06 -1.98949e-07
-7.66859e-06 5.17233e-05 -4.04161e-07
-1.98949e-07 -4.04161e-07 -3.59066e-06
0.00149695 3.13024e-05 -2.97157e-06
3.13024e-05 8.20108e-05 -7.28321e-07
-2.97157e-06 -7.28321e-07 7.99466e-06
0.00173477 -4.85777e-06 4.61436e-07
-4.85777e-06 0.00015958 1.93169e-06
4.61436e-07 1.93169e-06 0.000107774
0.00119915 -4.66736e-05 -3.58091e-06
-4.66736e-05 -0.000108916 -1.34979e-07
-3.58091e-06 -1.34979e-07 -0.00014112
0.00113581 -4.8956e-05 -8.98128e-07
-4.8956e-05 9.10709e-05 2.92695e-06
-8.98128e-07 2.92695e-06 7.056e-06
0.000777304 -5.18766e-05 -8.17235e-07
-5.18766e-05 -9.03479e-05 2.1719e-06
-8.17235e-07 2.1719e-06 -0.000195762
0.001091 -5.61353e-05 -3.0392e-06
-5.61353e-05 -4.31927e-05 -2.29994e-07
-3.0392e-06 -2.29994e-07 -0.000116213
0.00109704 -4.92886e-05 -2.70094e-06
-4.92886e-05 7.71898e-05 1.51828e-06
-2.70094e-06 1.51828e-06 -1.35507e-05
0.00115449 -4.1379e-05 -1.16455e-06
-4.1379e-05 0.000123615 6.8928e-07
-1.16455e-06 6.8928e-07 2.32894e-05
0.00107539 -3.8964e-05 -3.16263e-07
-3.8964e-05 8.25632e-05 1.87047e-06
-3.16263e-07 1.87047e-06 -1.02595e-05
0.00100585 8.20206e-07 -5.14741e-07
8.20206e-07 3.18251e-05 1.3258e-06
-5.14741e-07 1.3258e-06 -1.52765e-05
0.0011702 -3.28621e-05 -1.48146e-07
-3.28621e-05 0.000122784 8.90731e-07
-1.48146e-07 8.90731e-07 4.08367e-05
0.00107397 -2.04478e-06 -3.05487e-07
-2.04478e-06 7.43321e-05 1.28552e-06
-3.05487e-07 1.28552e-06 9.05491e-06
0.00103092 -6.47497e-06 -1.45264e-07
-6.47497e-06 4.17802e-05 6.7562e-07
-1.45264e-07 6.7562e-07 -1.70659e-06
0.000871219 8.25114e-06 -2.18916e-07
8.25114e-06 -2.70642e-05 1.68355e-06
-2.18916e-07 1.68355e-06 -8.83402e-05
0.00151241 3.01671e-05 1.55277e-07
3.01671e-05 6.96802e-05 1.33939e-06
1.55277e-07 1.33939e-06 3.32038e-07
0.0010192 1.47921e-05 -2.24276e-08
1.47921e-05 4.63796e-05 -4.97956e-07
-2.24276e-08 -4.97956e-07 -1.13189e-05
0.000975955 -2.49408e-06 3.06089e-07
-2.49408e-06 2.54475e-05 2.76151e-08
3.06089e-07 2.76151e-08 -3.76045e-05
0.00107471 1.77697e-05 4.66167e-08
1.77697e-05 7.6048e-05 9.57558e-07
4.66167e-08 9.57558e-07 5.86868e-06
0.00161891 -2.66696e-05 -2.23871e-06
-2.66696e-05 5.36259e-05 4.40258e-07
-2.23871e-06 4.40258e-07 3.68368e-05
0.00136879 -6.34736e-05 -6.89229e-07
-6.34736e-05 2.40781e-06 -4.86971e-07
-6.89229e-07 -4.86971e-07 -4.98742e-05
0.0010847 -5.36998e-05 2.23452e-07
-5.36998e-05 8.59386e-05 -3.64913e-07
2.23452e-07 -3.64913e-07 -1.0824e-05
0.00147179 -6.91899e-05 2.72732e-07
-6.91899e-05 0.000219106 5.15046e-07
2.72732e-07 5.15046e-07 0.000118731
0.00117498 -2.79551e-05 -9.11767e-08
-2.79551e-05 0.000127793 4.71653e-08
-9.11767e-08 4.71653e-08 4.89896e-05
0.00106224 -3.63751e-05 -3.10547e-07
-3.63751e-05 6.9279e-05 7.78468e-07
-3.10547e-07 7.78468e-07 -1.91565e-05
0.00110744 -4.644e-05 9.66467e-07
-4.644e-05 0.000113375 -8.35003e-08
9.66467e-07 -8.35003e-08 9.23726e-07
0.00119141 -3.92715e-05 1.88877e-07
-3.92715e-05 0.000147609 -5.37125e-07
1.88877e-07 -5.37125e-07 4.57327e-05
0.000871266 2.2489e-05 3.58137e-06
2.2489e-05 -0.000321974 -1.20757e-06
3.58137e-06 -1.20757e-06 -0.000372955
0.00224376 -7.36886e-05 8.53321e-06
-7.36886e-05 0.000309066 -4.40446e-06
8.53321e-06 -4.40446e-06 0.000287854
0.00152197 -7.82105e-05 6.26899e-06
-7.82105e-05 0.000168694 -9.31484e-07
6.26899e-06 -9.31484e-07 7.27477e-05
0.00117232 -6.65599e-05 1.19625e-06
-6.65599e-05 0.000136214 -2.816e-06
1.19625e-06 -2.816e-06 2.70824e-05
0.000989819 1.42928e-05 -2.4423e-07
1.42928e-05 3.68268e-05 -7.68385e-07
-2.4423e-07 -7.68385e-07 -3.66049e-05
0.0010044 -2.59702e-05 4.53729e-07
-2.59702e-05 4.29516e-05 -1.59103e-06
4.53729e-07 -1.59103e-06 -3.28052e-05
0.00106998 -3.93934e-05 1.89051e-07
-3.93934e-05 7.92078e-05 -1.19459e-06
1.89051e-07 -1.19459e-06 -1.42304e-05
0.00111224 -3.30546e-05 -9.01453e-08
-3.30546e-05 0.000132106 -9.79035e-07
-9.01453e-08 -9.79035e-07 5.48956e-06
0.000994472 -2.94657e-07 5.88435e-06
-2.94657e-07 -0.000189739 -7.93335e-07
5.88435e-06 -7.93335e-07 -0.00061635
0.0011718 4.36834e-05 -2.4663e-07
4.36834e-05 0.00012478 -3.45947e-07
-2.4663e-07 -3.45947e-07 3.84788e-05
0.00103979 4.36768e-05 1.29137e-07
4.36768e-05 4.71117e-05 -9.32659e-08
1.29137e-07 -9.32659e-08 -4.31538e-05
0.00129711 3.26862e-05 -5.99369e-06
3.26862e-05 -0.000132025 -2.24392e-09
-5.99369e-06 -2.24392e-09 -0.000168491
0.00163703 7.18094e-05 -4.23663e-06
7.18094e-05 9.15015e-05 -2.7098e-06
-4.23663e-06 -2.7098e-06 2.00624e-05
0.00137307 6.78677e-05 -1.61329e-06
6.78677e-05 0.000184927 -7.46143e-07
-1.61329e-06 -7.46143e-07 5.8202e-05
0.000964013 4.56024e-05 1.06863e-06
4.56024e-05 2.62728e-05 -5.14099e-07
1.06863e-06 -5.14099e-07 -7.89138e-05
0.00176941 -1.84204e-05 -3.49629e-07
-1.84204e-05 4.90553e-05 2.7846e-06
-3.49629e-07 2.7846e-06 4.2355e-05
0.00119406 4.47038e-05 -2.32873e-08
4.47038e-05 0.000132467 -1.39369e-07
-2.32873e-08 -1.39369e-07 4.13365e-05
0.00151458 8.32845e-05 1.78566e-06
8.32845e-05 -6.37491e-05 6.74142e-08
1.78566e-06 6.74142e-08 -0.000133693
0.00115132 4.63103e-05 3.56564e-07
4.63103e-05 0.000112239 1.03164e-07
3.56564e-07 1.03164e-07 1.49601e-05
0.00110869 5.4706e-05 -3.03493e-07
5.4706e-05 0.000120186 -1.83397e-07
-3.03493e-07 -1.83397e-07 -7.24831e-06
0.000710382 7.73021e-05 -1.54103e-06
7.73021e-05 -0.000205237 1.77589e-07
-1.54103e-06 1.77589e-07 -0.000316575
0.001325 -4.89834e-05 -1.28386e-05
-4.89834e-05 0.000164711 -6.47524e-06
-1.28386e-05 -6.47524e-06 -0.00030225
0.00189539 -9.69653e-05 3.22328e-06
-9.69653e-05 0.000186026 -2.52652e-06
3.22328e-06 -2.52652e-06 -0.000105071
0.00245971 4.14355e-05 -2.55255e-06
4.14355e-05 0.000307486 -3.26499e-07
-2.55255e-06 -3.26499e-07 0.000333784
-0.000226341 -9.37449e-05 -1.05174e-05
-9.37449e-05 -0.000499438 -3.85366e-06
-1.05174e-05 -3.85366e-06 -0.000549407
0.000660003 -0.000107257 -4.28851e-06
-0.000107257 -0.000346816 -2.77673e-06
-4.28851e-06 -2.77673e-06 -2.20401e-05
0.0011201 4.35708e-05 1.28219e-06
4.35708e-05 0.000100211 1.09071e-07
1.28219e-06 1.09071e-07 5.28138e-06
9.05778e-05 2.05716e-05 -9.08993e-05
2.05716e-05 -0.000279645 -7.96528e-06
-9.08993e-05 -7.96528e-06 -0.000456956
0.00239687 -4.99083e-05 5.40092e-06
-4.99083e-05 0.000952304 1.13524e-06
5.40092e-06 1.13524e-06 0.00106404
0.00155876 0.000108094 8.26828e-06
0.000108094 8.54343e-05 7.1621e-06
8.26828e-06 7.1621e-06 -7.63712e-06
0.000895766 3.43927e-05 3.85635e-08
3.43927e-05 -1.5749e-06 -7.95213e-07
3.85635e-08 -7.95213e-07 -0.00011063
0.00154928 5.20296e-05 -3.81142e-06
5.20296e-05 0.000385863 1.68036e-06
-3.81142e-06 1.68036e-06 0.00022057
0.00196004 3.47209e-05 -1.7931e-05
3.47209e-05 0.000169333 -1.57163e-05
-1.7931e-05 -1.57163e-05 9.59575e-05
0.00539704 -0.000140204 -6.45675e-05
-0.000140204 0.00165837 -1.51945e-05
-6.45675e-05 -1.51945e-05 0.00104984
0.00143092 -2.94077e-05 2.67754e-05
-2.94077e-05 0.000118942 2.63295e-05
2.67754e-05 2.63295e-05 -0.000291788
0.000293331 -0.000160109 -5.41552e-05
-0.000160109 -0.000133513 -2.60837e-05
-5.41552e-05 -2.60837e-05 -3.9188e-05
-0.00100118 -5.16378e-05 1.6344e-06
-5.16378e-05 -0.00123643 8.82382e-06
1.6344e-06 8.82382e-06 -0.001074
0.00113309 4.26613e-05 -1.09155e-06
4.26613e-05 0.000100298 -8.65515e-07
-1.09155e-06 -8.65515e-07 1.0547e-05
0.00118655 4.26901e-05 -4.76586e-07
4.26901e-05 0.000114046 2.75975e-07
-4.76586e-07 2.75975e-07 1.94159e-05
0.00127249 4.44557e-05 -1.14367e-07
4.44557e-05 0.000147934 3.6913e-07
-1.14367e-07 3.6913e-07 4.69593e-05
0.00100706 1.53556e-06 -1.60904e-08
1.53556e-06 3.76811e-05 -5.65404e-07
-1.60904e-08 -5.65404e-07 -1.25971e-05
0.00104662 6.80273e-07 1.94047e-07
6.80273e-07 6.26968e-05 -1.06892e-06
1.94047e-07 -1.06892e-06 -3.53979e-06
0.000966181 2.96759e-05 -7.23809e-07
2.96759e-05 1.97193e-05 -1.14991e-06
-7.23809e-07 -1.14991e-06 -5.92048e-05
0.00108765 3.38942e-05 -7.14334e-07
3.38942e-05 7.84019e-05 -1.14068e-06
-7.14334e-07 -1.14068e-06 -7.58544e-06
0.00113402 3.40144e-05 -6.27406e-07
3.40144e-05 9.2923e-05 -1.14209e-06
-6.27406e-07 -1.14209e-06 1.86468e-06
0.000800951 -6.88517e-06 1.8594e-07
-6.88517e-06 -6.55525e-05 5.01923e-07
1.8594e-07 5.01923e-07 -0.000117533
0.00116038 3.91101e-05 -3.20895e-07
3.91101e-05 0.000114836 -6.65859e-07
-3.20895e-07 -6.65859e-07 2.96821e-05
0.00110018 1.65073e-05 1.60647e-08
1.65073e-05 8.7131e-05 4.65693e-07
1.60647e-08 4.65693e-07 8.26769e-06
0.000962815 4.05522e-06 1.92949e-07
4.05522e-06 2.00556e-05 -4.22278e-07
1.92949e-07 -4.22278e-07 -4.6621e-05
0.00106587 3.68477e-05 -3.50864e-08
3.68477e-05 6.5983e-05 1.88291e-07
-3.50864e-08 1.88291e-07 -2.95128e-05
0.0011389 3.64461e-05 3.88977e-08
3.64461e-05 0.000106877 3.66301e-07
3.88977e-08 3.66301e-07 1.7403e-05
0.00119494 3.76759e-05 2.53009e-07
3.76759e-05 0.000151368 8.34838e-07
2.53009e-07 8.34838e-07 4.41379e-05
0.0010813 -2.32294e-05 -4.68876e-07
-2.32294e-05 7.77122e-05 7.65097e-07
-4.68876e-07 7.65097e-07 -1.10898e-06
0.00109238 -1.88627e-05 -2.05999e-07
-1.88627e-05 8.42149e-05 3.04055e-07
-2.05999e-07 3.04055e-07 1.86354e-05
0.00109237 -8.7271e-06 -8.18364e-08
-8.7271e-06 8.40969e-05 -5.97976e-08
-8.18364e-08 -5.97976e-08 1.8988e-05
0.00109961 -1.56522e-06 -5.19515e-08
-1.56522e-06 8.70549e-05 -4.31554e-07
-5.19515e-08 -4.31554e-07 9.46968e-06
0.00108834 5.85798e-06 1.24436e-07
5.85798e-06 8.14683e-05 9.93958e-07
1.24436e-07 9.93958e-07 4.06784e-06
0.00107168 -1.36599e-05 -1.20532e-07
-1.36599e-05 7.53665e-05 1.01021e-06
-1.20532e-07 1.01021e-06 -4.36256e-06
0.0011879 -4.99926e-06 1.92711e-09
-4.99926e-06 0.00012754 3.56507e-08
1.92711e-09 3.56507e-08 4.27442e-05
0.00105316 -3.74003e-05 -9.1264e-07
-3.74003e-05 6.80537e-05 5.82943e-07
-9.1264e-07 5.82943e-07 -1.6313e-05
0.00104569 -2.33623e-05 -2.3924e-07
-2.33623e-05 6.21123e-05 9.90845e-07
-2.3924e-07 9.90845e-07 -9.2715e-06
0.001042 -1.74509e-05 3.58987e-08
-1.74509e-05 6.00611e-05 -6.79047e-09
3.58987e-08 -6.79047e-09 -8.4846e-06
0.00100861 -1.26752e-05 -3.688e-07
-1.26752e-05 3.60064e-05 1.23997e-06
-3.688e-07 1.23997e-06 -1.70542e-05
0.000887865 -1.07361e-05 3.46982e-07
-1.07361e-05 -1.78543e-05 -1.44579e-06
3.46982e-07 -1.44579e-06 -8.51252e-05
0.00091149 -1.04558e-05 8.20772e-08
-1.04558e-05 -1.1851e-05 -2.79574e-08
8.20772e-08 -2.79574e-08 -6.376e-05
0.000983736 4.08761e-06 -3.51166e-07
4.08761e-06 1.14006e-05 1.82627e-06
-3.51166e-07 1.82627e-06 -1.986e-05
0.000817367 2.4478e-07 9.68796e-08
2.4478e-07 -5.82222e-05 -5.66141e-07
9.68796e-08 -5.66141e-07 -0.000109997
0.000977923 -4.00558e-07 -1.39272e-07
-4.00558e-07 8.71735e-06 -8.97279e-09
-1.39272e-07 -8.97279e-09 -2.19819e-05
0.00155126 4.80567e-06 -2.05341e-06
4.80567e-06 0.000282923 4.46251e-06
-2.05341e-06 4.46251e-06 0.000284331
0.000971995 -8.67105e-06 5.10544e-07
-8.67105e-06 6.30032e-06 -1.74749e-06
5.10544e-07 -1.74749e-06 -2.40165e-05
0.00124119 2.30586e-06 -6.69321e-07
2.30586e-06 0.000125952 6.27048e-07
-6.69321e-07 6.27048e-07 0.000126309
0.00112281 1.54878e-06 -1.5891e-06
1.54878e-06 6.28603e-05 4.03001e-06
-1.5891e-06 4.03001e-06 8.01991e-05
0.000932538 -2.61695e-07 5.58909e-08
-2.61695e-07 -2.93681e-05 -3.19316e-06
5.58909e-08 -3.19316e-06 -3.01536e-05
0.0023232 -7.09835e-07 8.84755e-07
-7.09835e-07 0.000665087 4.47221e-11
8.84755e-07 4.47221e-11 0.000688421
0.00111733 -2.6424e-06 -7.18574e-07
-2.6424e-06 6.09287e-05 -4.02748e-06
-7.18574e-07 -4.02748e-06 7.84383e-05
0.00102252 1.26206e-05 1.20591e-07
1.26206e-05 3.71453e-05 -6.59504e-07
1.20591e-07 -6.59504e-07 -5.5065e-06
0.000989441 4.59155e-07 1.2067e-08
4.59155e-07 6.95994e-06 -1.89143e-06
1.2067e-08 -1.89143e-06 -1.7496e-05
0.00098959 2.22586e-06 -3.33349e-08
2.22586e-06 7.47923e-06 -1.39664e-08
-3.33349e-08 -1.39664e-08 -1.71242e-05
0.000922852 2.81347e-06 2.77728e-07
2.81347e-06 -3.47352e-05 -3.24866e-06
2.77728e-07 -3.24866e-06 -3.22001e-05
0.000983164 4.15574e-06 -4.16966e-07
4.15574e-06 5.47579e-06 1.88108e-06
-4.16966e-07 1.88108e-06 -1.98375e-05
0.00091978 5.48102e-06 4.00399e-08
5.48102e-06 -3.48062e-05 -6.2666e-07
4.00399e-08 -6.2666e-07 -3.28927e-05
0.00222469 6.7327e-06 3.74263e-06
6.7327e-06 0.00061734 -3.96611e-06
3.74263e-06 -3.96611e-06 0.000641572
0.00147867 9.44751e-06 -1.21826e-06
9.44751e-06 0.000248588 1.9898e-06
-1.21826e-06 1.9898e-06 0.000251896
0.00169759 9.0428e-06 1.18418e-07
9.0428e-06 0.000356217 1.21864e-06
1.18418e-07 1.21864e-06 0.000376665
0.00115936 1.06218e-05 -8.18438e-06
1.06218e-05 9.03232e-05 6.48144e-06
-8.18438e-06 6.48144e-06 0.000106807
0.000821003 -3.19821e-05 -4.28169e-06
-3.19821e-05 -0.000287468 9.06179e-07
-4.28169e-06 9.06179e-07 -0.000288646
0.00119177 -1.57565e-06 -2.11995e-06
-1.57565e-06 -2.71971e-05 -9.25141e-07
-2.11995e-06 -9.25141e-07 -9.37237e-05
0.000925005 7.67771e-06 -5.20332e-06
7.67771e-06 -0.000220838 -3.92314e-06
-5.20332e-06 -3.92314e-06 -0.000267115
0.00089329 -8.56209e-05 3.81788e-05
-8.56209e-05 4.86824e-05 5.84395e-06
3.81788e-05 5.84395e-06 -0.000128435
0.00100013 -4.2538e-06 -1.72206e-06
-4.2538e-06 -2.09905e-05 -2.12584e-07
-1.72206e-06 -2.12584e-07 -3.77551e-05
0.00128142 3.15265e-05 -1.45703e-06
3.15265e-05 -6.31688e-05 -1.57089e-06
-1.45703e-06 -1.57089e-06 -0.000131893
0.00127886 4.91552e-05 7.29611e-07
4.91552e-05 9.61267e-05 3.3144e-06
7.29611e-07 3.3144e-06 4.66076e-05
0.000754221 -1.7122e-05 0.000101892
-1.7122e-05 -4.44199e-05 8.4221e-06
0.000101892 8.4221e-06 -0.000253621
0.00450958 3.83962e-05 -1.37115e-05
3.83962e-05 0.00128746 1.64069e-08
-1.37115e-05 1.64069e-08 0.000718861
0.0028648 0.000148923 -3.23238e-05
0.000148923 0.00102741 1.63359e-05
-3.23238e-05 1.63359e-05 0.000945759
0.000901461 7.89479e-05 -5.48759e-06
7.89479e-05 -0.000121561 9.61738e-07
-5.48759e-06 9.61738e-07 0.000121912
0.000835674 3.95069e-07 4.44052e-07
3.95069e-07 -4.66919e-05 -1.25146e-06
4.44052e-07 -1.25146e-06 -0.000103383
0.00101447 -3.29107e-06 -7.57042e-08
-3.29107e-06 3.34151e-05 2.34572e-09
-7.57042e-08 2.34572e-09 -8.70262e-06
0.00102519 -1.52004e-05 -4.69951e-07
-1.52004e-05 3.92571e-05 1.1302e-06
-4.69951e-07 1.1302e-06 -3.59635e-06
0.000957884 1.65289e-05 -1.11645e-07
1.65289e-05 1.51479e-05 -3.01881e-08
-1.11645e-07 -3.01881e-08 -4.15011e-05
0.0011584 3.43243e-05 2.0466e-07
3.43243e-05 0.000119742 3.86169e-08
2.0466e-07 3.86169e-08 5.33092e-05
0.00111292 3.39393e-05 1.64048e-07
3.39393e-05 9.36902e-05 -7.79478e-08
1.64048e-07 -7.79478e-08 2.98759e-05
0.00106102 2.91465e-06 2.55919e-07
2.91465e-06 6.52774e-05 -1.65023e-06
2.55919e-07 -1.65023e-06 8.43691e-06
0.000976677 -1.10331e-05 -1.2252e-07
-1.10331e-05 2.25078e-05 4.78104e-07
-1.2252e-07 4.78104e-07 -3.321e-05
0.00163225 3.01506e-05 -2.69477e-06
3.01506e-05 0.000128305 6.77792e-07
-2.69477e-06 6.77792e-07 6.10778e-05
0.00144151 -2.73451e-05 -2.53738e-06
-2.73451e-05 -1.70297e-05 1.51406e-06
-2.53738e-06 1.51406e-06 -3.9509e-05
0.00103132 -5.86991e-05 -7.05132e-06
-5.86991e-05 -0.000162314 -7.56038e-07
-7.05132e-06 -7.56038e-07 -0.000212391
0.00128889 -5.716e-05 -5.16391e-07
-5.716e-05 0.000183511 2.2645e-06
-5.16391e-07 2.2645e-06 8.63937e-05
0.00123652 -6.53037e-05 -1.76383e-06
-6.53037e-05 0.000106329 2.31354e-06
-1.76383e-06 2.31354e-06 6.73587e-06
0.00117787 -4.77265e-05 -5.31865e-07
-4.77265e-05 0.000144235 8.29496e-07
-5.31865e-07 8.29496e-07 3.64979e-05
0.00122562 -4.06704e-05 3.31215e-07
-4.06704e-05 0.000164789 6.74659e-07
3.31215e-07 6.74659e-07 6.19955e-05
0.0010296 -3.77055e-05 -6.09834e-07
-3.77055e-05 5.21727e-05 1.40275e-06
-6.09834e-07 1.40275e-06 -3.58706e-05
0.00104475 -9.86146e-06 -2.57917e-07
-9.86146e-06 6.00894e-05 1.23836e-06
-2.57917e-07 1.23836e-06 -2.16617e-06
0.0012121 -2.36562e-05 -1.11127e-07
-2.36562e-05 0.000146701 1.05147e-06
-1.11127e-07 1.05147e-06 6.82913e-05
0.0012173 1.14998e-05 -2.79061e-07
1.14998e-05 0.000144784 4.63914e-07
-2.79061e-07 4.63914e-07 8.84889e-05
0.000960952 1.74067e-05 1.51825e-07
1.74067e-05 1.8606e-05 2.09328e-06
1.51825e-07 2.09328e-06 -5.10026e-05
0.00175737 3.1779e-05 6.087e-07
3.1779e-05 9.2424e-05 -2.44193e-06
6.087e-07 -2.44193e-06 4.22543e-05
0.00102387 1.44909e-05 -1.86649e-07
1.44909e-05 5.35781e-05 2.81083e-07
-1.86649e-07 2.81083e-07 -1.93884e-05
0.00106254 -2.65747e-05 1.37833e-07
-2.65747e-05 7.21127e-05 -4.8167e-07
1.37833e-07 -4.8167e-07 -3.68511e-06
0.00168011 -6.81677e-05 -3.38276e-06
-6.81677e-05 3.94782e-05 -1.18076e-06
-3.38276e-06 -1.18076e-06 2.50419e-05
0.000876963 -6.95066e-05 1.53834e-06
-6.95066e-05 -0.000138698 9.89049e-07
1.53834e-06 9.89049e-07 -0.00023316
0.0011452 -6.65584e-05 -2.72124e-07
-6.65584e-05 0.00012247 -3.74199e-07
-2.72124e-07 -3.74199e-07 7.9127e-06
0.00110694 -3.69866e-05 -2.96628e-08
-3.69866e-05 9.62443e-05 -9.35605e-08
-2.96628e-08 -9.35605e-08 2.84727e-06
0.00113639 -3.43075e-05 5.90397e-10
-3.43075e-05 0.000143141 2.59235e-07
5.90397e-10 2.59235e-07 1.7689e-05
0.0011842 -2.48245e-05 -8.7283e-07
-2.48245e-05 -0.000407195 1.00954e-05
-8.7283e-07 1.00954e-05 -0.000349687
0.00241863 -0.000121447 1.16671e-05
-0.000121447 0.000536863 -1.68825e-06
1.16671e-05 -1.68825e-06 0.000435338
0.000387485 -6.96193e-05 1.67857e-06
-6.96193e-05 -0.00028519 -3.13341e-06
1.67857e-06 -3.13341e-06 -0.00039756
0.00139297 -5.13255e-05 6.49982e-07
-5.13255e-05 0.000279494 -1.58834e-06
6.49982e-07 -1.58834e-06 0.000128596
0.00099143 -2.39836e-05 8.65364e-09
-2.39836e-05 4.07409e-05 -1.14565e-06
8.65364e-09 -1.14565e-06 -3.96874e-05
0.00106997 -2.20645e-05 3.85685e-07
-2.20645e-05 7.68688e-05 -1.1679e-06
3.85685e-07 -1.1679e-06 -1.00851e-05
0.00124988 -2.13629e-05 -1.33747e-07
-2.13629e-05 0.000179439 -8.45029e-07
-1.33747e-07 -8.45029e-07 7.05324e-05
-0.000703135 -5.44943e-06 -8.3156e-05
-5.44943e-06 -0.000551514 9.19417e-08
-8.3156e-05 9.19417e-08 -0.000551124
0.0047385 -1.71313e-05 -2.269e-05
-1.71313e-05 0.00155178 -2.37166e-06
-2.269e-05 -2.37166e-06 0.00110853
0.00121154 4.51203e-05 -2.27863e-07
4.51203e-05 0.000141299 -1.87962e-07
-2.27863e-07 -1.87962e-07 5.0457e-05
0.00101633 4.34432e-05 7.14333e-07
4.34432e-05 4.93155e-05 -9.31096e-07
7.14333e-07 -9.31096e-07 -4.80185e-05
0.00215583 8.754e-05 -9.61875e-06
8.754e-05 0.000231423 -1.62886e-06
-9.61875e-06 -1.62886e-06 0.000162017
0.00110295 8.0931e-05 -2.06763e-06
8.0931e-05 -2.01567e-05 -2.438e-06
-2.06763e-06 -2.438e-06 -0.000127589
0.00103046 5.2718e-05 1.39518e-06
5.2718e-05 8.14258e-05 -1.59973e-06
1.39518e-06 -1.59973e-06 -4.32305e-05
0.0046788 -1.55636e-05 7.04497e-06
-1.55636e-05 0.00138704 -1.16063e-05
7.04497e-06 -1.16063e-05 0.000813322
0.000538832 -9.85907e-05 -3.36467e-05
-9.85907e-05 -0.0001266 -1.47267e-05
-3.36467e-05 -1.47267e-05 -0.000352451
0.00209575 5.04222e-05 1.16931e-05
5.04222e-05 0.000135678 -7.318e-08
1.16931e-05 -7.318e-08 0.000155636
0.00275121 -0.000141652 3.16515e-05
-0.000141652 0.00103778 9.94107e-06
3.16515e-05 9.94107e-06 0.000979282
-7.40661e-05 -0.000108385 3.55675e-06
-0.000108385 -0.000707032 7.63589e-06
3.55675e-06 7.63589e-06 -0.000429053
0.00113273 4.39868e-05 3.47224e-07
4.39868e-05 0.000102386 -2.08534e-07
3.47224e-07 -2.08534e-07 7.67456e-06
-0.000626002 -1.16826e-05 -1.68601e-05
-1.16826e-05 -0.000397227 -5.1462e-07
-1.68601e-05 -5.1462e-07 -0.000426168
0.00138939 -4.89215e-05 -1.42621e-06
-4.89215e-05 0.000372778 1.11173e-06
-1.42621e-06 1.11173e-06 0.000477284
0.0015951 0.000109923 1.54976e-06
0.000109923 0.000105256 1.79392e-06
1.54976e-06 1.79392e-06 1.19914e-05
0.00117002 3.97e-05 8.74837e-09
3.97e-05 0.000136813 -1.05724e-06
8.74837e-09 -1.05724e-06 3.14917e-05
0.00138133 5.52874e-05 5.00064e-07
5.52874e-05 0.00030457 4.11831e-08
5.00064e-07 4.11831e-08 0.000142799
0.00199485 3.19857e-05 -2.41708e-05
3.19857e-05 0.000215238 -1.75998e-05
-2.41708e-05 -1.75998e-05 0.000138679
0.00384143 -6.5557e-05 9.19212e-06
-6.5557e-05 0.000866608 7.4974e-06
9.19212e-06 7.4974e-06 0.000196157
0.000602609 -4.16339e-05 -6.88038e-06
-4.16339e-05 -4.99567e-05 -1.36152e-05
-6.88038e-06 -1.36152e-05 -0.00022895
0.00234493 -0.00022304 5.63827e-06
-0.00022304 0.000455223 -1.66e-06
5.63827e-06 -1.66e-06 0.000471274
0.000166861 -5.64107e-05 -1.09331e-06
-5.64107e-05 -0.000537664 -4.21948e-06
-1.09331e-06 -4.21948e-06 -0.000350493
0.00103532 2.86017e-05 -6.16439e-07
2.86017e-05 2.64327e-05 -5.87311e-07
-6.16439e-07 -5.87311e-07 -7.0058e-05
0.000407691 -1.051e-05 9.30435e-06
-1.051e-05 -8.60053e-05 2.11615e-06
9.30435e-06 2.11615e-06 -8.20253e-05
0.000731079 -8.1221e-06 7.83076e-06
-8.1221e-06 5.1781e-05 1.29953e-05
7.83076e-06 1.29953e-05 -9.32429e-06
0.000913677 4.66186e-05 1.31497e-05
4.66186e-05 2.28649e-06 7.0088e-06
1.31497e-05 7.0088e-06 -0.000192069
0.00168392 3.05336e-05 -4.68633e-06
3.05336e-05 0.000442325 -9.23985e-07
-4.68633e-06 -9.23985e-07 0.000313351
0.00246441 -3.15723e-05 -9.38797e-06
-3.15723e-05 0.000814467 -4.1028e-06
-9.38797e-06 -4.1028e-06 0.000785935
3.07152e-05 8.74636e-05 -4.41054e-05
8.74636e-05 -0.000107235 -3.4978e-06
-4.41054e-05 -3.4978e-06 -0.00032713
0.002622 -0.00017637 2.33158e-05
-0.00017637 0.000204307 3.11269e-05
2.33158e-05 3.11269e-05 -0.000472927
0.0031461 -0.000248414 -2.57305e-05
-0.000248414 0.000726732 -1.54301e-05
-2.57305e-05 -1.54301e-05 0.000750991
-0.000255004 -6.37049e-06 -2.24665e-06
-6.37049e-06 -0.000696847 6.54377e-06
-2.24665e-06 6.54377e-06 -0.00067578
0.0012252 4.41972e-05 -8.09048e-07
4.41972e-05 0.000134089 2.81903e-07
-8.09048e-07 2.81903e-07 3.93724e-05
0.00117031 4.19293e-05 2.5961e-07
4.19293e-05 9.87772e-05 3.91386e-07
2.5961e-07 3.91386e-07 -2.48575e-06
0.000975564 4.14362e-05 1.26821e-06
4.14362e-05 3.14004e-05 -3.23526e-07
1.26821e-06 -3.23526e-07 -7.93577e-05
0.000809415 7.89524e-06 6.07484e-08
7.89524e-06 -6.14844e-05 -5.68873e-07
6.07484e-08 -5.68873e-07 -0.000113421
0.00105869 9.47328e-06 7.61547e-08
9.47328e-06 6.76583e-05 -1.29002e-06
7.61547e-08 -1.29002e-06 1.72061e-06
0.00124753 3.3992e-06 8.00443e-08
3.3992e-06 0.000161138 -4.03031e-08
8.00443e-08 -4.03031e-08 8.33529e-05
0.00103176 3.39044e-05 -1.52128e-07
3.39044e-05 5.06126e-05 -1.33077e-06
-1.52128e-07 -1.33077e-06 -3.4489e-05
0.000934691 3.52281e-05 -3.52541e-07
3.52281e-05 -6.03753e-07 -5.3543e-07
-3.52541e-07 -5.3543e-07 -9.71252e-05
0.0010798 3.33513e-06 2.32356e-07
3.33513e-06 7.83109e-05 -5.0521e-07
2.32356e-07 -5.0521e-07 1.25149e-05
0.00109576 3.13279e-05 -9.22293e-08
3.13279e-05 8.53964e-05 -9.25588e-08
-9.22293e-08 -9.25588e-08 -3.02745e-06
0.00107981 -8.79887e-06 -1.79657e-08
-8.79887e-06 7.73171e-05 1.34901e-07
-1.79657e-08 1.34901e-07 -1.59708e-06
0.00109451 3.46412e-05 3.61105e-07
3.46412e-05 0.000102431 2.56745e-07
3.61105e-07 2.56745e-07 -6.10905e-06
0.00118151 1.24615e-05 4.23885e-07
1.24615e-05 0.000155386 -4.99496e-07
4.23885e-07 -4.99496e-07 3.81873e-05
0.00119408 1.60029e-05 -4.38803e-07
1.60029e-05 0.000141947 1.17721e-06
-4.38803e-07 1.17721e-06 4.66585e-05
0.00111005 7.15213e-06 1.63706e-07
7.15213e-06 9.23163e-05 6.60354e-07
1.63706e-07 6.60354e-07 1.44407e-05
0.00108846 -1.23332e-05 4.33217e-08
-1.23332e-05 8.24442e-05 -8.64744e-07
4.33217e-08 -8.64744e-07 1.72092e-05
0.000970968 -2.17944e-05 2.45005e-07
-2.17944e-05 2.21403e-05 -1.44015e-06
2.45005e-07 -1.44015e-06 -5.64791e-05
0.00109166 -7.69082e-07 1.83142e-07
-7.69082e-07 8.2722e-05 6.31363e-08
1.83142e-07 6.31363e-08 5.62511e-06
0.00107521 -1.58224e-05 -2.13157e-08
-1.58224e-05 7.75037e-05 1.29744e-08
-2.13157e-08 1.29744e-08 -2.33743e-06
0.00112107 -1.49835e-05 5.09051e-08
-1.49835e-05 9.26548e-05 -8.10198e-07
5.09051e-08 -8.10198e-07 7.58764e-06
0.00104166 -2.77092e-05 -4.93377e-07
-2.77092e-05 6.42498e-05 1.23126e-06
-4.93377e-07 1.23126e-06 -1.89409e-05
0.00118313 1.71058e-06 3.73839e-08
1.71058e-06 0.000123258 2.80032e-07
3.73839e-08 2.80032e-07 3.73663e-05
0.000990314 -2.71844e-05 -2.17469e-07
-2.71844e-05 3.21647e-05 4.11521e-07
-2.17469e-07 4.11521e-07 -5.77548e-05
0.00111188 -3.88145e-05 -6.83718e-08
-3.88145e-05 9.27228e-05 -1.08212e-06
-6.83718e-08 -1.08212e-06 5.71181e-06
0.000875017 -3.90875e-05 2.46635e-07
-3.90875e-05 -1.4929e-05 1.9787e-07
2.46635e-07 1.9787e-07 -9.62405e-05
0.000971395 -3.80817e-05 -9.23979e-07
-3.80817e-05 2.56589e-05 -4.2727e-07
-9.23979e-07 -4.2727e-07 -5.6039e-05
0.00107633 -3.70099e-05 -3.02138e-07
-3.70099e-05 7.88059e-05 2.01507e-07
-3.02138e-07 2.01507e-07 -5.31029e-06
0.0010597 -3.23633e-05 -1.00924e-06
-3.23633e-05 6.7873e-05 1.27882e-06
-1.00924e-06 1.27882e-06 -5.59255e-06
0.00105245 -2.52212e-05 2.39826e-08
-2.52212e-05 6.5447e-05 5.05785e-09
2.39826e-08 5.05785e-09 -5.97185e-06
0.00101257 -1.21421e-05 -4.47382e-07
-1.21421e-05 3.71492e-05 1.3583e-06
-4.47382e-07 1.3583e-06 -1.84393e-05
0.00104324 -1.96101e-05 3.52084e-07
-1.96101e-05 6.09048e-05 -9.47795e-07
3.52084e-07 -9.47795e-07 -7.72376e-06
0.0010114 -1.00668e-05 1.14952e-07
-1.00668e-05 3.73614e-05 -5.09192e-08
1.14952e-07 -5.09192e-08 -1.56474e-05
0.000976765 4.86647e-06 -5.7248e-07
4.86647e-06 8.5221e-06 1.88619e-06
-5.7248e-07 1.88619e-06 -2.37307e-05
0.000820039 -3.59146e-06 1.9837e-07
-3.59146e-06 -5.76223e-05 -1.1483e-06
1.9837e-07 -1.1483e-06 -0.000110102
0.000979234 -5.90593e-07 -1.17431e-07
-5.90593e-07 9.06277e-06 -7.83504e-09
-1.17431e-07 -7.83504e-09 -2.22384e-05
0.00155388 7.30496e-06 -3.2301e-06
7.30496e-06 0.00028624 4.4863e-06
-3.2301e-06 4.4863e-06 0.00028708
0.000974269 -7.02959e-06 6.60571e-07
-7.02959e-06 6.76521e-06 -1.77713e-06
6.60571e-07 -1.77713e-06 -2.39293e-05
0.00123944 4.8018e-06 -1.04962e-06
4.8018e-06 0.000126426 6.25467e-07
-1.04962e-06 6.25467e-07 0.000126349
0.00107907 4.99725e-06 -7.34225e-07
4.99725e-06 4.26308e-05 1.60349e-06
-7.34225e-07 1.60349e-06 5.97693e-05
0.000929599 2.12197e-06 3.98134e-07
2.12197e-06 -3.05935e-05 -3.20844e-06
3.98134e-07 -3.20844e-06 -3.16529e-05
0.0023336 2.69391e-06 8.26761e-07
2.69391e-06 0.000670489 5.01947e-09
8.26761e-07 5.01947e-09 0.000693694
0.00232181 -5.5509e-07 9.8389e-07
-5.5509e-07 0.000664392 -4.12287e-06
9.8389e-07 -4.12287e-06 0.000687716
0.0012652 1.42649e-05 -5.31668e-07
1.42649e-05 0.000157205 -1.02374e-06
-5.31668e-07 -1.02374e-06 0.000114888
0.000987114 -9.38984e-07 -1.9039e-07
-9.38984e-07 6.02735e-06 -1.89622e-06
-1.9039e-07 -1.89622e-06 -1.88932e-05
0.00101291 5.67787e-06 2.32245e-07
5.67787e-06 3.23264e-05 4.65113e-07
2.32245e-07 4.65113e-07 -1.0225e-05
0.000927925 1.80022e-07 -4.96634e-08
1.80022e-07 -3.26522e-05 -3.25399e-06
-4.96634e-08 -3.25399e-06 -3.00084e-05
0.000990679 2.29171e-07 -3.56464e-08
2.29171e-07 7.58094e-06 -5.51271e-09
-3.56464e-08 -5.51271e-09 -1.68837e-05
0.000987293 1.98487e-06 -2.7075e-07
1.98487e-06 6.19156e-06 1.90318e-06
-2.7075e-07 1.90318e-06 -1.83984e-05
0.00092735 2.88089e-06 -7.52686e-08
2.88089e-06 -3.25031e-05 -2.62613e-09
-7.52686e-08 -2.62613e-09 -2.99906e-05
0.00221276 3.37129e-06 1.67942e-06
3.37129e-06 0.000609912 -3.99015e-06
1.67942e-06 -3.99015e-06 0.00063452
0.00147173 6.5055e-06 -8.52737e-07
6.5055e-06 0.000242189 1.9887e-06
-8.52737e-07 1.9887e-06 0.000246733
0.00166563 6.24188e-06 1.04806e-06
6.24188e-06 0.000337081 3.24432e-08
1.04806e-06 3.24432e-08 0.000358533
0.00115784 7.98951e-06 -6.62234e-06
7.98951e-06 8.51006e-05 6.42636e-06
-6.62234e-06 6.42636e-06 0.000102828
-0.00269573 2.79019e-05 -5.14686e-05
2.79019e-05 -0.00159112 1.0889e-05
-5.14686e-05 1.0889e-05 -0.00161366
-0.00101536 3.486e-05 -3.82635e-06
3.486e-05 -0.00104183 5.46571e-06
-3.82635e-06 5.46571e-06 -0.000991483
0.000615086 -7.07315e-05 -4.68622e-05
-7.07315e-05 1.09653e-05 -1.38527e-05
-4.68622e-05 -1.38527e-05 -0.000160455
0.00100648 -1.06717e-05 -1.91535e-06
-1.06717e-05 -1.6137e-05 -1.88206e-07
-1.91535e-06 -1.88206e-07 -2.69652e-05
0.00123816 3.48785e-05 -1.05601e-05
3.48785e-05 -8.50112e-05 -1.86329e-06
-1.05601e-05 -1.86329e-06 -0.000154581
0.000596475 -2.67441e-05 1.86298e-05
-2.67441e-05 9.26786e-05 -2.82132e-07
1.86298e-05 -2.82132e-07 -4.33081e-06
0.00143131 5.31735e-05 2.46245e-06
5.31735e-05 0.000136966 1.9478e-06
2.46245e-06 1.9478e-06 8.2882e-05
0.00402765 6.0255e-05 -2.28887e-05
6.0255e-05 0.00112786 -3.70599e-07
-2.28887e-05 -3.70599e-07 0.000623967
-0.00144968 7.74155e-05 1.06783e-05
7.74155e-05 -0.000804091 -3.54858e-06
1.06783e-05 -3.54858e-06 -0.000810417
0.000513969 8.63483e-05 1.77203e-07
8.63483e-05 -0.00032903 1.13179e-06
1.77203e-07 1.13179e-06 -9.65505e-05
0.000916176 4.25457e-05 2.36239e-05
4.25457e-05 0.000289445 -1.30533e-05
2.36239e-05 -1.30533e-05 0.000137474
0.0043561 0.000172595 -2.10061e-05
0.000172595 0.0012088 1.79584e-05
-2.10061e-05 1.79584e-05 0.000683605
0.00046957 0.000142347 -5.05353e-05
0.000142347 -1.51527e-05 3.22916e-05
-5.05353e-05 3.22916e-05 8.00874e-05
0.00116485 5.41088e-05 1.37416e-06
5.41088e-05 -2.44371e-05 -4.37709e-06
1.37416e-06 -4.37709e-06 0.000218985
0.000958688 1.81759e-05 -2.51477e-07
1.81759e-05 2.20686e-05 -1.09594e-06
-2.51477e-07 -1.09594e-06 -4.69401e-05
0.000935418 8.81538e-06 -1.50022e-08
8.81538e-06 2.22851e-06 -3.90372e-07
-1.50022e-08 -3.90372e-07 -5.38569e-05
0.00101558 -1.08154e-05 -3.59272e-07
-1.08154e-05 3.41598e-05 1.16596e-06
-3.59272e-07 1.16596e-06 -8.03884e-06
0.000876933 1.66306e-05 -1.28167e-07
1.66306e-05 -2.44999e-05 8.77968e-07
-1.28167e-07 8.77968e-07 -8.14611e-05
0.00107945 3.38566e-05 4.76873e-07
3.38566e-05 8.12106e-05 9.04568e-07
4.76873e-07 9.04568e-07 1.56456e-05
0.00111989 2.19176e-05 -1.36038e-07
2.19176e-05 9.90887e-05 -8.12206e-07
-1.36038e-07 -8.12206e-07 3.1772e-05
0.00105306 1.76787e-05 5.04509e-07
1.76787e-05 6.36967e-05 9.01119e-07
5.04509e-07 9.01119e-07 4.83975e-07
0.00105657 5.48726e-06 2.62465e-07
5.48726e-06 6.37509e-05 -6.95287e-07
2.62465e-07 -6.95287e-07 2.9623e-06
0.000994972 -1.37316e-06 8.876e-08
-1.37316e-06 3.25089e-05 -4.97611e-07
8.876e-08 -4.97611e-07 -2.5091e-05
0.000909462 -1.10591e-05 -1.32766e-07
-1.10591e-05 -1.08306e-05 1.38436e-06
-1.32766e-07 1.38436e-06 -6.685e-05
0.00249382 3.99334e-05 -4.8136e-06
3.99334e-05 0.000433595 2.67731e-06
-4.8136e-06 2.67731e-06 0.00038423
0.00105885 -6.31799e-05 -1.30772e-05
-6.31799e-05 -0.000261448 1.63743e-06
-1.30772e-05 1.63743e-06 -0.000270045
0.000208881 -6.03364e-05 -3.65207e-06
-6.03364e-05 -0.000456005 3.07665e-06
-3.65207e-06 3.07665e-06 -0.000549046
0.00109689 -6.60775e-05 -1.46699e-06
-6.60775e-05 9.83991e-05 2.92819e-06
-1.46699e-06 2.92819e-06 -2.13984e-05
0.00114246 -3.52809e-05 1.80235e-07
-3.52809e-05 0.000144813 1.13781e-06
1.80235e-07 1.13781e-06 2.09811e-05
0.00115254 -3.51974e-05 -2.56791e-08
-3.51974e-05 0.000117486 7.19715e-07
-2.56791e-08 7.19715e-07 2.41286e-05
0.00112306 -2.90872e-05 -2.0986e-07
-2.90872e-05 0.000102382 5.60483e-07
-2.0986e-07 5.60483e-07 2.66268e-05
0.00105501 1.49515e-05 1.00305e-07
1.49515e-05 6.88876e-05 1.12785e-06
1.00305e-07 1.12785e-06 -3.60659e-06
0.00196386 -3.09604e-05 -3.47203e-06
-3.09604e-05 -2.49401e-05 7.29794e-07
-3.47203e-06 7.29794e-07 -9.87892e-07
0.000972592 -1.10033e-05 -1.01789e-07
-1.10033e-05 3.17901e-05 -1.0633e-07
-1.01789e-07 -1.0633e-07 -4.90236e-05
0.00103291 -2.46544e-05 2.38287e-07
-2.46544e-05 5.75474e-05 -4.82202e-07
2.38287e-07 -4.82202e-07 -3.04323e-05
0.00167462 -0.000106403 2.81228e-06
-0.000106403 0.000163064 4.95451e-07
2.81228e-06 4.95451e-07 7.58195e-05
0.000680779 -7.39398e-05 -5.47845e-07
-7.39398e-05 -0.000142114 6.58852e-07
-5.47845e-07 6.58852e-07 -0.000257076
0.00126863 -4.82911e-05 6.68762e-07
-4.82911e-05 0.000210546 -1.23149e-07
6.68762e-07 -1.23149e-07 6.52337e-05
0.00121514 -1.86961e-05 -8.95773e-08
-1.86961e-05 0.000163998 -4.3817e-07
-8.95773e-08 -4.3817e-07 5.0039e-05
0.00207347 -9.90127e-05 -2.59091e-08
-9.90127e-05 -3.14606e-05 2.56915e-06
-2.59091e-08 2.56915e-06 5.49369e-05
0.00146096 -0.000103902 2.37449e-06
-0.000103902 0.000296809 -5.69547e-06
2.37449e-06 -5.69547e-06 0.000127002
0.000985931 -3.47892e-06 -7.08322e-07
-3.47892e-06 8.34529e-05 -5.78605e-07
-7.08322e-07 -5.78605e-07 -6.747e-05
0.00102126 2.46799e-05 3.64844e-08
2.46799e-05 5.34423e-05 -3.08777e-07
3.64844e-08 -3.08777e-07 -2.74586e-05
0.00110786 -2.9105e-05 4.09324e-08
-2.9105e-05 9.271e-05 -1.36854e-06
4.09324e-08 -1.36854e-06 4.50194e-06
0.00114526 3.49388e-06 -2.17631e-07
3.49388e-06 0.000105312 -6.61309e-07
-2.17631e-07 -6.61309e-07 8.94625e-06
0.000941191 -4.909e-06 1.33943e-05
-4.909e-06 0.000146053 4.7205e-07
1.33943e-05 4.7205e-07 0.000142556
0.00140655 -1.22176e-06 3.65943e-06
-1.22176e-06 0.000312933 -3.0157e-06
3.65943e-06 -3.0157e-06 0.00018913
0.000701864 6.51142e-05 -5.84168e-05
6.51142e-05 -0.000395313 4.45135e-06
-5.84168e-05 4.45135e-06 -0.00083662
0.00115107 4.45164e-05 -4.02226e-07
4.45164e-05 0.000106925 -5.77753e-07
-4.02226e-07 -5.77753e-07 1.24718e-05
0.00143282 4.50391e-05 1.93057e-06
4.50391e-05 0.000267522 -1.0439e-07
1.93057e-06 -1.0439e-07 0.000166159
0.00163235 0.000111779 -2.3868e-06
0.000111779 0.000124267 -3.83774e-06
-2.3868e-06 -3.83774e-06 3.08298e-05
0.00109948 5.79433e-05 2.87425e-06
5.79433e-05 0.00017061 -2.71326e-06
2.87425e-06 -2.71326e-06 1.04143e-05
0.00342912 -8.22657e-05 3.32252e-05
-8.22657e-05 0.00130423 3.64308e-06
3.32252e-05 3.64308e-06 0.00121198
0.000585395 -0.000144195 5.78554e-05
-0.000144195 -0.000374072 3.24373e-05
5.78554e-05 3.24373e-05 -0.000767651
0.00219927 -3.86513e-05 -5.93691e-05
-3.86513e-05 0.000337386 -6.26946e-05
-5.93691e-05 -6.26946e-05 7.04415e-05
0.00191448 2.05016e-05 7.88454e-06
2.05016e-05 0.00021734 -2.47969e-06
7.88454e-06 -2.47969e-06 0.000133545
-0.00218865 -0.000150743 5.4101e-05
-0.000150743 -0.00158964 2.2774e-05
5.4101e-05 2.2774e-05 -0.0014834
0.00263416 -5.02944e-05 7.31622e-08
-5.02944e-05 0.0010776 1.59604e-06
7.31622e-08 1.59604e-06 0.00118259
0.0013661 -6.84347e-05 -8.58562e-06
-6.84347e-05 0.000116586 -1.39533e-05
-8.58562e-06 -1.39533e-05 0.000339709
0.00122984 3.58841e-05 -9.21969e-08
3.58841e-05 0.000127836 4.74019e-07
-9.21969e-08 4.74019e-07 2.97627e-05
0.000695062 -1.6482e-05 4.88665e-06
-1.6482e-05 3.66464e-05 9.91502e-07
4.88665e-06 9.91502e-07 4.52262e-05
0.000610611 -3.65296e-06 1.48021e-06
-3.65296e-06 -2.01097e-05 2.70739e-06
1.48021e-06 2.70739e-06 -7.98018e-05
0.00120027 5.73251e-05 2.1437e-06
5.73251e-05 0.000148527 3.17801e-06
2.1437e-06 3.17801e-06 -4.95146e-05
0.00100272 2.16861e-05 1.06005e-07
2.16861e-05 0.000119726 -6.7447e-07
1.06005e-07 -6.7447e-07 -1.2636e-05
0.00231632 -1.92316e-05 7.4627e-06
-1.92316e-05 0.000599017 1.03744e-05
7.4627e-06 1.03744e-05 0.000462961
0.00232126 0.00011681 -2.12368e-05
0.00011681 0.000585197 -2.96916e-05
-2.12368e-05 -2.96916e-05 0.000203925
0.00526774 -0.000207693 6.76307e-06
-0.000207693 0.00128507 5.53339e-06
6.76307e-06 5.53339e-06 0.000703447
0.000205095 -0.000186822 7.33295e-06
-0.000186822 -0.000359566 1.7499e-05
7.33295e-06 1.7499e-05 -0.000343796
0.00142065 -1.74145e-05 -1.2621e-06
-1.74145e-05 0.000261254 -7.19644e-07
-1.2621e-06 -7.19644e-07 0.000317411
0.00109661 3.90339e-05 4.3096e-07
3.90339e-05 8.60447e-05 -1.78391e-06
4.3096e-07 -1.78391e-06 -2.71565e-06
0.00181156 -1.56714e-06 1.15516e-05
-1.56714e-06 0.000741268 4.94833e-06
1.15516e-05 4.94833e-06 0.000668278
0.000840835 1.19866e-05 2.28878e-06
1.19866e-05 2.50255e-05 5.55379e-06
2.28878e-06 5.55379e-06 -3.37974e-05
0.00059213 -1.02658e-05 1.28595e-06
-1.02658e-05 -1.97961e-05 7.55815e-06
1.28595e-06 7.55815e-06 -0.000151449
0.00071865 8.85583e-05 1.87886e-06
8.85583e-05 0.000387633 2.91245e-05
1.87886e-06 2.91245e-05 0.000267746
0.0051728 -0.000149197 -3.25371e-05
-0.000149197 0.00104144 -1.61987e-05
-3.25371e-05 -1.61987e-05 0.000386103
-0.00126938 -0.000114934 -2.03939e-05
-0.000114934 -0.0016424 -4.54062e-05
-2.03939e-05 -4.54062e-05 -0.00142213
0.00189657 -7.58292e-06 -1.09199e-06
-7.58292e-06 0.000573696 5.78381e-06
-1.09199e-06 5.78381e-06 0.000589319
0.00105814 4.00638e-05 -6.91668e-07
4.00638e-05 4.49121e-05 -8.31533e-07
-6.91668e-07 -8.31533e-07 -5.66976e-05
0.0011699 4.25876e-05 1.30738e-07
4.25876e-05 0.000121223 9.04918e-08
1.30738e-07 9.04918e-08 1.32016e-05
0.00156659 4.43771e-05 1.81681e-07
4.43771e-05 0.000327789 -1.04375e-06
1.81681e-07 -1.04375e-06 0.000213358
0.00107232 2.14369e-05 -2.1503e-07
2.14369e-05 7.45049e-05 -1.31394e-06
-2.1503e-07 -1.31394e-06 8.70269e-06
0.00108461 4.61256e-06 3.11572e-08
4.61256e-06 7.98694e-05 -5.06321e-07
3.11572e-08 -5.06321e-07 8.72155e-07
0.00104968 2.65485e-05 9.99825e-08
2.65485e-05 6.25158e-05 -6.73393e-07
9.99825e-08 -6.73393e-07 -2.48424e-05
0.00100236 3.0377e-05 5.53394e-08
3.0377e-05 5.77651e-05 -3.98095e-07
5.53394e-08 -3.98095e-07 -5.1947e-05
0.00110296 1.15227e-05 1.12881e-07
1.15227e-05 8.84721e-05 2.04405e-08
1.12881e-07 2.04405e-08 1.08637e-05
0.0011767 1.96308e-05 -1.95145e-08
1.96308e-05 0.000131998 4.38805e-07
-1.95145e-08 4.38805e-07 3.75799e-05
0.00107519 1.24638e-05 2.88979e-07
1.24638e-05 0.000106635 -5.29926e-07
2.88979e-07 -5.29926e-07 -1.42577e-05
0.00135064 -1.21154e-06 -2.55463e-08
-1.21154e-06 0.000241255 -9.78648e-09
-2.55463e-08 -9.78648e-09 0.000123075
0.00113512 -1.28565e-05 -1.44557e-07
-1.28565e-05 0.000114054 1.02372e-06
-1.44557e-07 1.02372e-06 5.44428e-06
0.00121933 2.07585e-05 2.96045e-07
2.07585e-05 0.000142816 6.37096e-07
2.96045e-07 6.37096e-07 5.49764e-05
0.00109417 -7.55005e-06 3.33313e-07
-7.55005e-06 8.37468e-05 -8.39336e-07
3.33313e-07 -8.39336e-07 6.84239e-06
0.00107873 -1.60829e-05 1.56707e-07
-1.60829e-05 7.95113e-05 -9.05298e-07
1.56707e-07 -9.05298e-07 -4.09351e-07
0.00105665 -2.27025e-05 4.63566e-07
-2.27025e-05 5.86853e-05 -1.83764e-06
4.63566e-07 -1.83764e-06 -2.64862e-05
0.00118427 -2.6212e-06 -1.98958e-07
-2.6212e-06 0.000123446 -5.39738e-07
-1.98958e-07 -5.39738e-07 3.784e-05
0.00106549 -2.43752e-05 -6.62036e-09
-2.43752e-05 7.62278e-05 2.79166e-07
-6.62036e-09 2.79166e-07 -6.97029e-06
0.00101884 -2.24084e-05 1.01077e-07
-2.24084e-05 4.46865e-05 -1.34033e-07
1.01077e-07 -1.34033e-07 -4.44615e-05
0.0010856 -3.38611e-05 -8.23404e-07
-3.38611e-05 8.2849e-05 -7.16933e-08
-8.23404e-07 -7.16933e-08 -8.70021e-06
0.00109781 -3.51213e-05 -1.64053e-07
-3.51213e-05 7.9671e-05 3.56281e-07
-1.64053e-07 3.56281e-07 -1.36202e-05
0.00112352 -4.33071e-05 2.34271e-07
-4.33071e-05 9.95873e-05 -1.96078e-07
2.34271e-07 -1.96078e-07 8.78247e-06
0.00114716 -3.96985e-05 -3.96385e-07
-3.96985e-05 0.000110129 -1.16734e-07
-3.96385e-07 -1.16734e-07 2.29759e-05
0.000881375 -3.90753e-05 -1.42194e-07
-3.90753e-05 -1.14673e-05 6.48126e-07
-1.42194e-07 6.48126e-07 -9.69501e-05
0.0011136 -4.60537e-05 -9.73423e-07
-4.60537e-05 8.625e-05 1.56663e-06
-9.73423e-07 1.56663e-06 3.71549e-06
0.00118706 -4.22594e-05 -1.07388e-07
-4.22594e-05 0.000127449 -8.34888e-07
-1.07388e-07 -8.34888e-07 5.29802e-05
0.000926355 -3.99577e-05 4.53037e-07
-3.99577e-05 1.24771e-05 -9.24078e-07
4.53037e-07 -9.24078e-07 -6.62897e-05
0.00106272 -3.97384e-05 3.84591e-07
-3.97384e-05 6.98314e-05 -2.68977e-07
3.84591e-07 -2.68977e-07 -1.13926e-05
0.000950864 -3.26369e-05 -1.01195e-06
-3.26369e-05 1.13778e-05 5.26381e-07
-1.01195e-06 5.26381e-07 -6.23159e-05
0.00109695 -3.66175e-05 1.31794e-07
-3.66175e-05 8.83577e-05 3.51804e-08
1.31794e-07 3.51804e-08 4.4864e-06
0.0010602 -3.17508e-05 -2.22273e-07
-3.17508e-05 6.80905e-05 4.4008e-07
-2.22273e-07 4.4008e-07 -5.2601e-06
0.00102626 -1.41773e-05 -6.75509e-07
-1.41773e-05 4.30535e-05 1.44252e-06
-6.75509e-07 1.44252e-06 -1.50818e-05
0.0010574 -2.61448e-05 3.98386e-07
-2.61448e-05 6.77952e-05 -9.66072e-07
3.98386e-07 -9.66072e-07 -3.601e-06
0.0010186 -1.30456e-05 5.93508e-08
-1.30456e-05 4.0143e-05 -5.22109e-08
5.93508e-08 -5.22109e-08 -1.54922e-05
0.000970852 3.60123e-06 -7.92852e-07
3.60123e-06 6.84149e-06 2.00537e-06
-7.92852e-07 2.00537e-06 -2.69504e-05
0.00101642 -8.48426e-06 4.08774e-07
-8.48426e-06 3.9881e-05 -1.25518e-06
4.08774e-07 -1.25518e-06 -1.3121e-05
0.000975959 1.59523e-08 -1.20579e-07
1.59523e-08 8.08393e-06 -1.11885e-08
-1.20579e-07 -1.11885e-08 -2.42417e-05
0.0015577 9.70105e-06 -4.36458e-06
9.70105e-06 0.000290797 4.50891e-06
-4.36458e-06 4.50891e-06 0.000290856
0.000975907 -6.20265e-06 8.7934e-07
-6.20265e-06 7.29754e-06 -1.86196e-06
8.7934e-07 -1.86196e-06 -2.40371e-05
0.00123814 7.16525e-06 -1.41431e-06
7.16525e-06 0.000127952 6.2069e-07
-1.41431e-06 6.2069e-07 0.000127257
0.00107853 7.74817e-06 -1.18047e-06
7.74817e-06 4.53458e-05 1.6081e-06
-1.18047e-06 1.6081e-06 6.18433e-05
0.000925119 4.45728e-06 7.5493e-07
4.45728e-06 -3.15023e-05 -3.23365e-06
7.5493e-07 -3.23365e-06 -3.29921e-05
0.00171917 5.83918e-06 2.17425e-06
5.83918e-06 0.000363468 -1.24687e-06
2.17425e-06 -1.24687e-06 0.000383497
0.00233444 2.96698e-06 3.06303e-06
2.96698e-06 0.000671191 -4.11985e-06
3.06303e-06 -4.11985e-06 0.000694333
0.00108641 -1.40158e-06 -9.44944e-08
-1.40158e-06 6.86111e-05 -1.19371e-06
-9.44944e-08 -1.19371e-06 2.27891e-05
0.000989302 -2.50256e-06 -3.95129e-07
-2.50256e-06 7.90833e-06 -1.88696e-06
-3.95129e-07 -1.88696e-06 -1.78919e-05
0.00105805 5.74034e-06 7.5631e-08
5.74034e-06 5.44542e-05 7.31368e-08
7.5631e-08 7.31368e-08 1.08699e-05
0.000931356 -2.29975e-06 -4.1863e-07
-2.29975e-06 -3.04213e-05 -3.25409e-06
-4.1863e-07 -3.25409e-06 -2.8214e-05
0.000988957 -1.17847e-06 -5.26099e-08
-1.17847e-06 7.0707e-06 3.84161e-09
-5.26099e-08 3.84161e-09 -1.78626e-05
0.00100871 5.69548e-06 8.74466e-08
5.69548e-06 3.025e-05 1.65665e-06
8.74466e-08 1.65665e-06 -1.2243e-05
0.00221405 9.21183e-08 -6.56091e-07
9.21183e-08 0.000610179 -4.02134e-06
-6.56091e-07 -4.02134e-06 0.000634838
0.000927292 2.48944e-07 -9.87639e-08
2.48944e-07 -3.30005e-05 -8.12441e-09
-9.87639e-08 -8.12441e-09 -3.03445e-05
0.000990571 -1.74077e-08 -1.16238e-07
-1.74077e-08 7.51539e-06 1.88901e-06
-1.16238e-07 1.88901e-06 -1.69506e-05
0.000931972 2.94604e-06 -4.16222e-07
2.94604e-06 -3.02102e-05 3.21815e-06
-4.16222e-07 3.21815e-06 -2.77215e-05
0.00221079 3.4797e-06 -8.22932e-07
3.4797e-06 0.000609066 -6.6668e-09
-8.22932e-07 -6.6668e-09 0.000633649
0.00222171 6.65246e-06 -5.01307e-06
6.65246e-06 0.000616016 3.95676e-06
-5.01307e-06 3.95676e-06 0.000640224
-0.000923422 4.13771e-06 9.86367e-06
4.13771e-06 -0.000903342 -6.12791e-07
9.86367e-06 -6.12791e-07 -0.000914208
-0.000186841 4.55944e-05 2.31388e-05
4.55944e-05 -0.000281184 -4.40691e-06
2.31388e-05 -4.40691e-06 -0.000356758
0.00109426 2.87919e-06 1.74387e-05
2.87919e-06 0.000266131 -2.74959e-06
1.74387e-05 -2.74959e-06 0.000219767
-0.0011747 3.92862e-05 -8.59604e-06
3.92862e-05 -0.00113226 2.38244e-06
-8.59604e-06 2.38244e-06 -0.00106856
0.00149711 9.44691e-06 -6.12439e-05
9.44691e-06 0.000315519 -4.22903e-06
-6.12439e-05 -4.22903e-06 0.000142185
0.00138416 5.44465e-05 2.02662e-06
5.44465e-05 8.83305e-05 -1.87683e-06
2.02662e-06 -1.87683e-06 3.01935e-05
0.000658954 -1.83209e-05 -2.1712e-05
-1.83209e-05 -0.000226642 8.93283e-07
-2.1712e-05 8.93283e-07 -0.00062413
0.00293875 9.48292e-05 8.5049e-05
9.48292e-05 0.00124792 -2.75379e-05
8.5049e-05 -2.75379e-05 0.00115452
6.08194e-05 9.38922e-05 2.05245e-06
9.38922e-05 -0.000577903 -8.91186e-06
2.05245e-06 -8.91186e-06 -0.000356498
0.0010959 3.90037e-05 -3.9906e-06
3.90037e-05 0.000212945 3.39982e-06
-3.9906e-06 3.39982e-06 4.59683e-05
0.002564 7.55205e-05 9.59738e-06
7.55205e-05 0.000420216 -4.94085e-06
9.59738e-06 -4.94085e-06 -0.000258118
0.00269625 0.000205359 1.21969e-06
0.000205359 0.000797085 5.1533e-07
1.21969e-06 5.1533e-07 0.000778453
0.00100616 4.51138e-05 -7.96224e-07
4.51138e-05 -7.49343e-05 2.84354e-06
-7.96224e-07 2.84354e-06 0.000154814
0.000645019 4.06485e-05 8.08262e-06
4.06485e-05 0.000215718 6.61881e-07
8.08262e-06 6.61881e-07 -3.90582e-05
0.00289137 0.000154771 3.96225e-05
0.000154771 0.00046501 -1.85532e-05
3.96225e-05 -1.85532e-05 -0.000253221
-0.00193683 0.000164282 -3.32449e-05
0.000164282 -0.00162271 4.51084e-05
-3.32449e-05 4.51084e-05 -0.00152112
0.000115468 -4.84547e-06 1.24698e-06
-4.84547e-06 -0.000508213 -1.51152e-06
1.24698e-06 -1.51152e-06 -0.00043357
0.00110842 -2.35674e-06 4.52731e-07
-2.35674e-06 9.52442e-05 -1.02014e-06
4.52731e-07 -1.02014e-06 2.01212e-05
0.00105607 2.38496e-05 -4.93634e-07
2.38496e-05 6.97958e-05 -2.22122e-07
-4.93634e-07 -2.22122e-07 1.67843e-06
0.0010383 1.4496e-05 1.17449e-07
1.4496e-05 5.28008e-05 4.71882e-07
1.17449e-07 4.71882e-07 -2.76806e-06
0.0010105 3.33114e-05 6.59907e-07
3.33114e-05 4.74419e-05 1.61062e-06
6.59907e-07 1.61062e-06 -1.72497e-05
0.00102294 8.09852e-06 -2.16579e-07
8.09852e-06 4.95556e-05 -7.40394e-07
-2.16579e-07 -7.40394e-07 -2.27782e-05
0.00114665 1.925e-05 9.6456e-08
1.925e-05 0.000111525 4.68649e-07
9.6456e-08 4.68649e-07 4.50183e-05
0.0010046 4.15883e-06 -1.66403e-07
4.15883e-06 3.9188e-05 1.8791e-06
-1.66403e-07 1.8791e-06 -2.34472e-05
0.00117575 2.40222e-05 -4.7207e-07
2.40222e-05 0.000122588 -9.62077e-07
-4.7207e-07 -9.62077e-07 5.9661e-05
0.00113442 1.34297e-05 3.16052e-08
1.34297e-05 0.000102766 4.50156e-07
3.16052e-08 4.50156e-07 4.24442e-05
0.000930855 -7.08282e-06 -3.28452e-07
-7.08282e-06 6.40128e-07 6.20425e-07
-3.28452e-07 6.20425e-07 -5.76998e-05
0.00277755 -3.68023e-05 -8.1865e-06
-3.68023e-05 0.000378826 6.89449e-07
-8.1865e-06 6.89449e-07 0.000367223
0.000902197 -9.1068e-05 -8.01077e-06
-9.1068e-05 -0.000223841 5.0724e-06
-8.01077e-06 5.0724e-06 -0.000296426
0.00112862 -8.08242e-05 -1.41704e-06
-8.08242e-05 7.59245e-05 3.84562e-06
-1.41704e-06 3.84562e-06 -4.14096e-05
0.00116514 -4.57471e-05 -6.5413e-08
-4.57471e-05 0.00015314 1.9805e-06
-6.5413e-08 1.9805e-06 1.19554e-05
0.00117513 -1.55393e-05 1.65522e-07
-1.55393e-05 0.000146392 6.6382e-07
1.65522e-07 6.6382e-07 2.70636e-05
0.000988546 -2.99723e-05 7.42249e-08
-2.99723e-05 3.49119e-05 2.4574e-07
7.42249e-08 2.4574e-07 -5.41728e-05
0.000965387 1.03152e-05 7.50144e-08
1.03152e-05 2.81493e-05 8.11397e-07
7.50144e-08 8.11397e-07 -5.28117e-05
0.00104644 -3.06945e-06 1.01493e-07
-3.06945e-06 6.59657e-05 6.83437e-07
1.01493e-07 6.83437e-07 -1.46484e-05
0.00211584 -0.000103002 7.54003e-07
-0.000103002 2.75387e-05 7.97178e-08
7.54003e-07 7.97178e-08 7.89091e-05
0.00111889 -6.9082e-06 5.48286e-08
-6.9082e-06 9.99822e-05 -2.27059e-07
5.48286e-08 -2.27059e-07 1.23532e-05
0.00124211 -5.33844e-06 -7.95885e-08
-5.33844e-06 0.000155461 1.55434e-07
-7.95885e-08 1.55434e-07 5.70614e-05
0.00151316 -0.000101387 5.00783e-07
-0.000101387 0.000323834 -8.37954e-07
5.00783e-07 -8.37954e-07 0.000153057
0.00118191 -6.28974e-06 -3.06823e-07
-6.28974e-06 0.000171283 8.077e-08
-3.06823e-07 8.077e-08 2.38576e-05
0.00171954 -0.000137677 -8.55138e-06
-0.000137677 -1.15119e-05 -1.55609e-06
-8.55138e-06 -1.55609e-06 -8.45645e-06
0.00128967 -2.52272e-05 2.16776e-07
-2.52272e-05 0.000337955 -4.11149e-06
2.16776e-07 -4.11149e-06 0.000101125
0.0010906 9.88408e-06 -9.62686e-07
9.88408e-06 7.92989e-05 5.40646e-07
-9.62686e-07 5.40646e-07 -2.89429e-05
0.00107696 2.59261e-05 -3.32221e-07
2.59261e-05 7.41111e-05 -9.18932e-07
-3.32221e-07 -9.18932e-07 -1.18447e-05
0.00113259 1.89844e-05 -2.06156e-07
1.89844e-05 9.05434e-05 -1.94289e-06
-2.06156e-07 -1.94289e-06 -3.02867e-06
0.00210167 -4.27221e-06 2.99633e-06
-4.27221e-06 0.000944483 1.00513e-06
2.99633e-06 1.00513e-06 0.000865359
-5.97008e-05 -4.94767e-06 1.11933e-05
-4.94767e-06 -0.000415039 -5.55583e-08
1.11933e-05 -5.55583e-08 -0.000425833
-0.00259709 -5.55539e-06 8.06058e-05
-5.55539e-06 -0.00161328 -1.1341e-06
8.06058e-05 -1.1341e-06 -0.00162199
0.0014744 4.35578e-05 4.41841e-07
4.35578e-05 0.000254519 1.40653e-06
4.41841e-07 1.40653e-06 0.000154689
0.000457338 1.64187e-05 1.91811e-06
1.64187e-05 -0.000136488 -1.15409e-06
1.91811e-06 -1.15409e-06 -0.00027076
0.00134289 6.54502e-05 9.87393e-07
6.54502e-05 0.000218868 -7.94748e-06
9.87393e-07 -7.94748e-06 2.13487e-05
-0.000662665 -1.18483e-05 -2.77569e-07
-1.18483e-05 -0.000752211 -1.06571e-06
-2.77569e-07 -1.06571e-06 -0.000765886
0.00224959 -0.000195318 1.62703e-05
-0.000195318 -2.41932e-06 9.06701e-06
1.62703e-05 9.06701e-06 -0.000701788
0.000679992 8.11576e-05 1.72074e-05
8.11576e-05 8.48548e-05 -3.49508e-05
1.72074e-05 -3.49508e-05 -0.000117876
0.00262598 -8.34416e-06 7.02134e-05
-8.34416e-06 0.000568367 1.37662e-05
7.02134e-05 1.37662e-05 0.000336351
0.00333008 -0.000262973 3.96237e-05
-0.000262973 0.000839699 5.25943e-05
3.96237e-05 5.25943e-05 0.000847188
0.000550486 1.16717e-07 -1.37583e-05
1.16717e-07 -5.33415e-05 -7.85454e-06
-1.37583e-05 -7.85454e-06 -0.000111717
0.00111387 -1.06557e-05 -2.90464e-06
-1.06557e-05 0.000104175 -8.57196e-06
-2.90464e-06 -8.57196e-06 0.00013646
0.00100236 4.0962e-05 8.38418e-07
4.0962e-05 3.82735e-05 3.45561e-07
8.38418e-07 3.45561e-07 -4.87973e-05
0.00137573 -5.3914e-07 2.00833e-06
-5.3914e-07 0.000473525 1.42237e-06
2.00833e-06 1.42237e-06 0.000391558
0.000926254 1.20047e-05 1.12428e-06
1.20047e-05 7.91681e-05 1.98622e-08
1.12428e-06 1.98622e-08 1.81481e-05
3.41821e-05 1.16956e-07 1.01321e-05
1.16956e-07 -0.000302966 1.17872e-06
1.01321e-05 1.17872e-06 -0.000457296
0.00130197 0.000109725 -3.07471e-05
0.000109725 0.000436575 -1.24273e-05
-3.07471e-05 -1.24273e-05 0.000249294
0.00532639 -5.40133e-05 1.15567e-05
-5.40133e-05 0.00087298 9.09854e-06
1.15567e-05 9.09854e-06 0.000191739
0.000944518 -9.34796e-06 -1.3778e-06
-9.34796e-06 2.9734e-05 3.09603e-06
-1.3778e-06 3.09603e-06 2.51844e-05
0.0011891 -0.000178864 1.84055e-06
-0.000178864 -0.000361562 1.83965e-05
1.84055e-06 1.83965e-05 -0.000311356
0.00106238 2.45053e-05 3.83222e-07
2.45053e-05 7.23758e-05 -7.02444e-06
3.83222e-07 -7.02444e-06 -3.47357e-06
0.000927344 5.22548e-06 6.07435e-07
5.22548e-06 0.000113057 1.4367e-08
6.07435e-07 1.4367e-08 2.23557e-05
0.00208982 -5.89601e-06 4.76505e-06
-5.89601e-06 0.000745179 8.18928e-06
4.76505e-06 8.18928e-06 0.000705475
0.000183166 -1.40127e-05 -3.29311e-06
-1.40127e-05 -0.000449533 7.23392e-06
-3.29311e-06 7.23392e-06 -0.000389153
-0.000811157 4.72438e-05 -8.87511e-06
4.72438e-05 -0.000560909 1.45579e-06
-8.87511e-06 1.45579e-06 -0.000641187
0.00584008 -6.0442e-05 9.69787e-06
-6.0442e-05 0.00126777 1.30685e-05
9.69787e-06 1.30685e-05 0.000760848
-0.00016009 2.18046e-06 1.42534e-06
2.18046e-06 -0.0010593 -7.15515e-05
1.42534e-06 -7.15515e-05 -0.000834362
0.00134102 4.53447e-05 3.17638e-07
4.53447e-05 0.000198909 1.21147e-06
3.17638e-07 1.21147e-06 9.3768e-05
0.00136402 4.09857e-05 -2.1256e-07
4.09857e-05 0.000225157 7.29174e-07
-2.1256e-07 7.29174e-07 0.000110413
0.00124737 3.04945e-05 7.32108e-07
3.04945e-05 0.000216185 -5.00612e-07
7.32108e-07 -5.00612e-07 8.86e-05
0.001092 2.26158e-05 1.6387e-08
2.26158e-05 8.32072e-05 -6.39237e-07
1.6387e-08 -6.39237e-07 5.57509e-06
0.00115927 2.57605e-05 5.63391e-08
2.57605e-05 0.000122317 -6.1659e-07
5.63391e-08 -6.1659e-07 2.85594e-05
0.000998079 8.68834e-06 -2.7962e-07
8.68834e-06 7.19478e-05 4.04431e-07
-2.7962e-07 4.04431e-07 -5.29903e-05
0.00123229 1.37308e-05 -5.43524e-08
1.37308e-05 0.000148627 -1.6538e-07
-5.43524e-08 -1.6538e-07 6.14512e-05
0.00113764 -1.3469e-05 -2.08914e-08
-1.3469e-05 0.000115622 2.9376e-07
-2.08914e-08 2.9376e-07 6.01174e-06
0.00115796 -5.63734e-06 4.2831e-07
-5.63734e-06 0.000146031 4.785e-07
4.2831e-07 4.785e-07 2.2368e-05
0.0010427 -3.20091e-06 -5.17266e-07
-3.20091e-06 9.38171e-05 -3.55383e-08
-5.17266e-07 -3.55383e-08 -1.42406e-05
0.00112218 -3.11641e-05 -6.98124e-07
-3.11641e-05 8.65915e-05 6.25136e-07
-6.98124e-07 6.25136e-07 -1.17423e-05
0.00119227 -6.7754e-06 -4.77106e-07
-6.7754e-06 0.000126918 -1.1935e-06
-4.77106e-07 -1.1935e-06 4.16151e-05
0.00108878 -2.14468e-05 1.08842e-07
-2.14468e-05 8.80511e-05 -3.68022e-07
1.08842e-07 -3.68022e-07 4.82259e-06
0.00104235 -1.87756e-05 8.21462e-08
-1.87756e-05 5.48376e-05 -9.21155e-07
8.21462e-08 -9.21155e-07 -3.35968e-05
0.00109375 -3.41673e-05 1.21016e-07
-3.41673e-05 7.70092e-05 8.41847e-08
1.21016e-07 8.41847e-08 -1.60949e-05
0.00106042 -3.12105e-05 -3.77249e-07
-3.12105e-05 6.95219e-05 2.68327e-07
-3.77249e-07 2.68327e-07 -2.19889e-05
0.00108251 -4.11378e-05 -3.0104e-07
-4.11378e-05 9.18998e-05 7.1103e-07
-3.0104e-07 7.1103e-07 -4.53303e-06
0.00106971 -4.20581e-05 3.78705e-07
-4.20581e-05 7.74414e-05 -4.68643e-07
3.78705e-07 -4.68643e-07 -1.06445e-05
0.00114226 -4.60348e-05 5.96114e-07
-4.60348e-05 0.000120686 9.02636e-07
5.96114e-07 9.02636e-07 2.18139e-05
0.00120629 -4.09192e-05 5.98936e-07
-4.09192e-05 0.000138914 1.15018e-07
5.98936e-07 1.15018e-07 5.16163e-05
0.00111504 -4.36095e-05 7.11607e-08
-4.36095e-05 9.95633e-05 8.54405e-07
7.11607e-08 8.54405e-07 1.39152e-05
0.000877745 -4.42277e-05 8.03669e-08
-4.42277e-05 -3.0226e-05 1.85858e-06
8.03669e-08 1.85858e-06 -0.000121338
0.00107588 -4.49257e-05 -1.19183e-06
-4.49257e-05 6.94067e-05 5.69624e-07
-1.19183e-06 5.69624e-07 -1.01811e-05
0.00109349 -4.11179e-05 -1.19529e-06
-4.11179e-05 8.18214e-05 2.74063e-07
-1.19529e-06 2.74063e-07 8.95721e-06
0.0010278 -4.42246e-05 -4.65431e-07
-4.42246e-05 4.72815e-05 -4.17927e-08
-4.65431e-07 -4.17927e-08 -3.52265e-05
0.00108828 -3.54245e-05 -8.49449e-07
-3.54245e-05 7.56325e-05 3.31221e-07
-8.49449e-07 3.31221e-07 5.80752e-06
0.00116632 -4.21296e-05 -1.75934e-07
-4.21296e-05 0.000117578 -2.15239e-07
-1.75934e-07 -2.15239e-07 4.27458e-05
0.000984984 -4.08855e-05 2.31309e-07
-4.08855e-05 4.34589e-05 -1.36736e-06
2.31309e-07 -1.36736e-06 -3.27762e-05
0.00116069 -4.15094e-05 1.22074e-06
-4.15094e-05 0.00011708 -3.17579e-07
1.22074e-06 -3.17579e-07 3.63394e-05
0.000996308 -3.36817e-05 5.47685e-08
-3.36817e-05 3.39408e-05 2.18785e-09
5.47685e-08 2.18785e-09 -3.93115e-05
0.00103548 -1.63606e-05 -1.06776e-06
-1.63606e-05 4.60455e-05 1.34994e-06
-1.06776e-06 1.34994e-06 -1.33578e-05
0.00105814 -3.02348e-05 5.38252e-07
-3.02348e-05 6.70382e-05 -4.26411e-07
5.38252e-07 -4.26411e-07 -6.18271e-06
0.00102577 -1.40644e-05 1.16765e-07
-1.40644e-05 4.24946e-05 5.03342e-09
1.16765e-07 5.03342e-09 -1.55434e-05
0.000969305 1.73939e-06 -1.13009e-06
1.73939e-06 7.60975e-06 2.1542e-06
-1.13009e-06 2.1542e-06 -2.82006e-05
0.0010236 -1.31463e-05 5.55289e-07
-1.31463e-05 4.26193e-05 -1.35179e-06
5.55289e-07 -1.35179e-06 -1.30684e-05
0.000969352 2.24089e-06 1.22999e-09
2.24089e-06 6.18538e-06 -2.19157e-08
1.22999e-09 -2.19157e-08 -2.76913e-05
0.00153475 1.19918e-05 -4.8146e-06
1.19918e-05 0.000282838 3.24887e-06
-4.8146e-06 3.24887e-06 0.000281858
0.000973946 -3.72051e-06 9.42667e-07
-3.72051e-06 7.03158e-06 -1.96933e-06
9.42667e-07 -1.96933e-06 -2.53558e-05
0.00123683 9.40327e-06 -1.75058e-06
9.40327e-06 0.000130129 6.14091e-07
-1.75058e-06 6.14091e-07 0.000128582
0.00107513 1.03629e-05 -1.618e-06
1.03629e-05 4.73909e-05 1.61898e-06
-1.618e-06 1.61898e-06 6.30619e-05
0.000921789 6.68382e-06 1.1258e-06
6.68382e-06 -3.09263e-05 -3.25973e-06
1.1258e-06 -3.25973e-06 -3.30549e-05
0.00173006 8.94714e-06 2.91177e-06
8.94714e-06 0.000371582 -1.23555e-06
2.91177e-06 -1.23555e-06 0.000391031
0.00235023 6.42432e-06 5.12595e-06
6.42432e-06 0.000680752 -4.11319e-06
5.12595e-06 -4.11319e-06 0.00070351
0.000833272 -7.61879e-07 -3.61393e-07
-7.61879e-07 -5.71877e-05 -1.74783e-06
-3.61393e-07 -1.74783e-06 -0.00010738
0.000725763 -4.4152e-06 -5.50105e-07
-4.4152e-06 -0.000121354 -2.53245e-06
-5.50105e-07 -2.53245e-06 -0.000150197
0.00109556 -1.57705e-07 2.45549e-08
-1.57705e-07 7.29434e-05 1.06173e-07
2.45549e-08 1.06173e-07 2.70878e-05
0.000933147 -4.72358e-06 -7.67915e-07
-4.72358e-06 -2.82044e-05 -3.25765e-06
-7.67915e-07 -3.25765e-06 -2.68877e-05
0.000861 -2.71803e-06 -5.5058e-09
-2.71803e-06 -5.55291e-05 -7.51949e-09
-5.5058e-09 -7.51949e-09 -8.21701e-05
0.000849929 -4.59646e-06 3.39899e-09
-4.59646e-06 -4.89128e-05 1.31036e-06
3.39899e-09 1.31036e-06 -9.37234e-05
0.00222716 -3.16392e-06 -2.99434e-06
-3.16392e-06 0.000617307 -4.0465e-06
-2.99434e-06 -4.0465e-06 0.000641713
0.000925955 -2.24354e-06 -1.12198e-07
-2.24354e-06 -3.31504e-05 -1.19278e-08
-1.12198e-07 -1.19278e-08 -3.08971e-05
0.000991076 -1.42872e-06 4.75974e-08
-1.42872e-06 8.25838e-06 1.87074e-06
4.75974e-08 1.87074e-06 -1.66902e-05
0.00221221 1.64387e-07 -9.40266e-07
1.64387e-07 0.000609243 3.60515e-10
-9.40266e-07 3.60515e-10 0.000633921
0.000927247 3.16456e-07 -1.31144e-07
3.16456e-07 -3.30474e-05 3.24484e-06
-1.31144e-07 3.24484e-06 -3.03829e-05
0.00220852 3.5855e-06 -2.66985e-06
3.5855e-06 0.000608068 3.98163e-06
-2.66985e-06 3.98163e-06 0.000632626
0.00128213 -5.79447e-06 1.10188e-05
-5.79447e-06 0.000433334 -1.1578e-06
1.10188e-05 -1.1578e-06 0.000361107
0.00101047 1.08528e-05 1.6082e-06
1.08528e-05 0.000189708 5.58942e-07
1.6082e-06 5.58942e-07 0.000196272
0.000576758 -3.02532e-06 0.000104907
-3.02532e-06 -7.22601e-05 -1.52946e-05
0.000104907 -1.52946e-05 -0.000235437
0.00105468 1.75884e-05 -3.77501e-07
1.75884e-05 5.87722e-05 -1.17978e-06
-3.77501e-07 -1.17978e-06 -7.92162e-06
0.00115209 -1.55821e-05 1.4075e-07
-1.55821e-05 0.000228881 -5.53615e-06
1.4075e-07 -5.53615e-06 0.000182857
0.00119449 1.15097e-06 5.58221e-06
1.15097e-06 0.000329726 -7.0898e-07
5.58221e-06 -7.0898e-07 0.000284962
0.000973013 4.83637e-05 -1.21178e-05
4.83637e-05 9.1402e-05 5.35125e-06
-1.21178e-05 5.35125e-06 0.000182915
0.000974314 4.79674e-05 -4.11557e-05
4.79674e-05 -3.64585e-05 1.50161e-05
-4.11557e-05 1.50161e-05 -0.000247999
0.00546134 0.000173412 6.10234e-06
0.000173412 0.00190939 -9.64169e-06
6.10234e-06 -9.64169e-06 0.00126737
-0.000452335 0.000141724 5.19038e-05
0.000141724 -0.000465421 -3.46376e-05
5.19038e-05 -3.46376e-05 -0.000442332
0.00137722 4.19405e-05 2.01151e-06
4.19405e-05 0.000141235 5.50284e-06
2.01151e-06 5.50284e-06 0.000362593
0.00145484 2.29592e-05 -2.46618e-05
2.29592e-05 0.000305999 9.58643e-06
-2.46618e-05 9.58643e-06 -8.42192e-05
0.00407449 0.000173967 1.53642e-05
0.000173967 0.000928969 -2.06165e-05
1.53642e-05 -2.06165e-05 0.000278399
0.000625884 0.000180671 -4.50273e-06
0.000180671 -0.000542661 9.64589e-06
-4.50273e-06 9.64589e-06 -0.000461747
0.00171251 -1.01835e-06 1.03417e-06
-1.01835e-06 0.000458875 -1.19762e-06
1.03417e-06 -1.19762e-06 0.000536077
0.00152974 -6.29553e-05 2.71273e-05
-6.29553e-05 0.000274876 -3.17867e-05
2.71273e-05 -3.17867e-05 -0.000146889
0.00711154 0.000147621 2.53147e-05
0.000147621 0.00184392 -1.52586e-05
2.53147e-05 -1.52586e-05 0.00104211
0.00183581 0.000178358 6.1991e-06
0.000178358 -0.000245719 6.63829e-05
6.1991e-06 6.63829e-05 -0.000276353
0.0018494 1.22542e-05 -2.11018e-06
1.22542e-05 0.00052743 3.92998e-06
-2.11018e-06 3.92998e-06 0.000543537
0.00100451 -1.94377e-06 6.74235e-08
-1.94377e-06 3.60295e-05 -1.26747e-06
6.74235e-08 -1.26747e-06 -4.44182e-05
0.0010779 -1.00925e-05 1.62434e-07
-1.00925e-05 8.03125e-05 -4.60435e-08
1.62434e-07 -4.60435e-08 4.47016e-06
0.00114555 2.53136e-05 -1.91884e-07
2.53136e-05 0.000114072 8.21089e-07
-1.91884e-07 8.21089e-07 4.65934e-05
0.00102757 7.85801e-06 -1.3211e-07
7.85801e-06 4.82983e-05 -1.74804e-06
-1.3211e-07 -1.74804e-06 -2.54685e-05
0.00110255 2.13488e-05 -1.35656e-07
2.13488e-05 8.83588e-05 4.2991e-07
-1.35656e-07 4.2991e-07 1.70988e-05
0.00116949 1.39105e-05 3.18791e-07
1.39105e-05 0.000121974 1.67369e-06
3.18791e-07 1.67369e-06 5.63353e-05
0.00121522 2.38637e-05 -1.95758e-07
2.38637e-05 0.000141445 4.14757e-08
-1.95758e-07 4.14757e-08 7.89494e-05
0.00121782 2.4097e-05 4.43344e-07
2.4097e-05 0.000144077 1.62847e-06
4.43344e-07 1.62847e-06 8.44318e-05
0.00215353 -0.000106209 1.27238e-06
-0.000106209 8.03019e-05 -2.89318e-06
1.27238e-06 -2.89318e-06 9.77044e-05
0.00149817 -9.74692e-05 -2.44548e-06
-9.74692e-05 0.000318446 4.0174e-06
-2.44548e-06 4.0174e-06 0.000147218
0.00107099 -3.9979e-05 -3.36558e-07
-3.9979e-05 7.91504e-05 1.42227e-06
-3.36558e-07 1.42227e-06 -1.8559e-06
0.00141462 -9.16663e-06 -2.37144e-08
-9.16663e-06 0.000276002 7.27352e-07
-2.37144e-08 7.27352e-07 0.000132983
0.00127243 -8.2386e-06 1.0888e-08
-8.2386e-06 0.00017164 5.99565e-07
1.0888e-08 5.99565e-07 7.16177e-05
0.00115789 7.32523e-07 -5.38338e-08
7.32523e-07 0.000121294 6.58594e-07
-5.38338e-08 6.58594e-07 3.40157e-05
0.00109953 1.90388e-05 5.95593e-08
1.90388e-05 8.55862e-05 1.38911e-07
5.95593e-08 1.38911e-07 -4.8196e-07
0.00194236 -0.000141213 9.31701e-07
-0.000141213 9.31284e-05 -7.64218e-07
9.31701e-07 -7.64218e-07 0.000100466
0.00109928 1.18205e-05 1.23929e-07
1.18205e-05 7.56452e-05 4.67226e-08
1.23929e-07 4.67226e-08 -1.80379e-05
0.0011688 5.18229e-06 -2.30857e-07
5.18229e-06 0.000123098 5.92631e-08
-2.30857e-07 5.92631e-08 8.49185e-06
0.00112037 -2.21814e-05 -2.71331e-07
-2.21814e-05 0.000264074 4.6407e-07
-2.71331e-07 4.6407e-07 1.98729e-05
0.00118694 2.56273e-05 -5.78744e-08
2.56273e-05 0.000121221 -6.20575e-07
-5.78744e-08 -6.20575e-07 3.53152e-05
0.00228631 -0.000123855 -2.6776e-05
-0.000123855 0.00056987 6.60986e-07
-2.6776e-05 6.60986e-07 0.000407874
0.00132658 3.84047e-05 -3.65196e-06
3.84047e-05 0.000343392 -1.89162e-06
-3.65196e-06 -1.89162e-06 0.000141582
0.00107418 1.30273e-05 -1.97993e-07
1.30273e-05 5.26531e-05 -1.80947e-06
-1.97993e-07 -1.80947e-06 -3.96105e-05
0.00126049 3.0112e-05 -2.98258e-07
3.0112e-05 0.000156599 -1.21154e-06
-2.98258e-07 -1.21154e-06 6.50564e-05
0.00140811 -3.61889e-06 -1.48487e-06
-3.61889e-06 0.000441386 3.68863e-07
-1.48487e-06 3.68863e-07 0.00034193
0.00161806 -4.05208e-06 -7.11812e-06
-4.05208e-06 0.000645208 2.05001e-07
-7.11812e-06 2.05001e-07 0.000566014
-0.00106052 -4.26175e-06 8.43442e-06
-4.26175e-06 -0.000977433 -1.66814e-08
8.43442e-06 -1.66814e-08 -0.000992668
0.000835256 3.91106e-05 5.84956e-07
3.91106e-05 -4.62947e-05 1.71909e-06
5.84956e-07 1.71909e-06 -0.000131174
-0.000692623 -6.81024e-07 -5.14358e-06
-6.81024e-07 -0.000658403 4.1943e-06
-5.14358e-06 4.1943e-06 -0.000841435
0.000914721 4.56011e-07 -1.26371e-05
4.56011e-07 0.000190067 -2.56274e-06
-1.26371e-05 -2.56274e-06 9.90725e-05
0.00390019 -0.000226135 2.62954e-05
-0.000226135 0.000732336 7.03964e-06
2.62954e-05 7.03964e-06 -2.15456e-05
0.00303211 0.000136936 -2.67948e-05
0.000136936 0.000788002 -6.05505e-05
-2.67948e-05 -6.05505e-05 0.000432554
0.00247981 -0.000209409 1.05816e-07
-0.000209409 1.99409e-05 8.83457e-05
1.05816e-07 8.83457e-05 0.00013012
0.00086068 1.23043e-05 1.55653e-06
1.23043e-05 3.85871e-05 -5.27782e-06
1.55653e-06 -5.27782e-06 -2.35593e-05
6.92234e-05 -1.10018e-05 1.41558e-06
-1.10018e-05 -0.000466542 -2.58268e-06
1.41558e-06 -2.58268e-06 -0.000490573
0.00129904 3.23508e-05 -1.47166e-06
3.23508e-05 0.00019434 -7.15842e-07
-1.47166e-06 -7.15842e-07 0.000114962
0.000820409 4.04568e-06 -9.33246e-07
4.04568e-06 4.77082e-05 -1.63654e-07
-9.33246e-07 -1.63654e-07 -4.29058e-05
0.00102321 -7.71984e-06 2.62579e-06
-7.71984e-06 7.65383e-05 -7.47739e-07
2.62579e-06 -7.47739e-07 3.47571e-05
-5.18612e-05 3.75097e-05 5.62505e-06
3.75097e-05 -0.000148923 -4.26972e-06
5.62505e-06 -4.26972e-06 -0.000202096
0.00157126 -9.5308e-06 -1.52857e-06
-9.5308e-06 0.000383795 1.86256e-06
-1.52857e-06 1.86256e-06 0.000450167
0.0041169 2.73739e-05 1.806e-05
2.73739e-05 0.000273909 5.88309e-07
1.806e-05 5.88309e-07 -8.20302e-05
0.00325302 4.2264e-06 -1.24059e-05
4.2264e-06 0.000343435 -4.5611e-07
-1.24059e-05 -4.5611e-07 0.00053212
0.000568246 3.69553e-05 3.2706e-06
3.69553e-05 -6.78681e-06 -6.79751e-06
3.2706e-06 -6.79751e-06 -8.94748e-05
0.00137627 -4.51771e-06 -7.42661e-07
-4.51771e-06 0.000364521 1.24397e-06
-7.42661e-07 1.24397e-06 0.000280818
0.00112345 -2.08901e-05 -2.04597e-06
-2.08901e-05 0.000203953 8.21353e-06
-2.04597e-06 8.21353e-06 0.000134156
0.00104189 4.96903e-05 -2.70835e-06
4.96903e-05 -8.39807e-05 8.08741e-06
-2.70835e-06 8.08741e-06 0.000147623
0.00205026 0.000204095 -3.83501e-06
0.000204095 3.46748e-06 -5.85759e-05
-3.83501e-06 -5.85759e-05 -4.27693e-05
0.000949531 7.25219e-05 1.52474e-05
7.25219e-05 0.000592844 -6.50993e-06
1.52474e-05 -6.50993e-06 0.000551223
0.00306901 -8.00543e-05 3.91895e-05
-8.00543e-05 -6.90925e-05 3.06845e-05
3.91895e-05 3.06845e-05 -0.000499865
0.00114902 3.63815e-05 -1.01398e-06
3.63815e-05 0.000118044 1.77873e-06
-1.01398e-06 1.77873e-06 2.75747e-06
0.00127167 2.6078e-05 -1.82964e-06
2.6078e-05 0.000215399 -2.98061e-08
-1.82964e-06 -2.98061e-08 9.45297e-05
0.000517909 -1.08852e-05 -1.12337e-06
-1.08852e-05 -4.74184e-05 -3.43116e-06
-1.12337e-06 -3.43116e-06 -0.000281142
0.00122974 3.47061e-06 -4.7483e-08
3.47061e-06 0.000146585 -7.328e-07
-4.7483e-08 -7.328e-07 6.01989e-05
0.00112289 -1.22333e-05 4.67118e-07
-1.22333e-05 0.000108126 6.1779e-08
4.67118e-07 6.1779e-08 -1.8302e-06
0.000971953 -5.98478e-06 -2.06319e-07
-5.98478e-06 5.3197e-05 1.35062e-06
-2.06319e-07 1.35062e-06 -7.50571e-05
0.00110405 -3.2365e-05 -1.87872e-07
-3.2365e-05 7.94189e-05 4.95795e-08
-1.87872e-07 4.95795e-08 -1.89621e-05
0.000997343 -1.20349e-05 3.4401e-07
-1.20349e-05 6.80779e-05 1.13186e-06
3.4401e-07 1.13186e-06 -4.15828e-05
0.00101873 -2.42013e-05 6.62142e-07
-2.42013e-05 0.000114088 -9.15185e-07
6.62142e-07 -9.15185e-07 -1.35437e-05
0.00109451 -3.38511e-05 1.08667e-07
-3.38511e-05 7.70004e-05 -3.73759e-07
1.08667e-07 -3.73759e-07 -1.59869e-05
0.00103651 -2.74379e-05 8.2751e-08
-2.74379e-05 5.68019e-05 2.49836e-07
8.2751e-08 2.49836e-07 -3.46087e-05
0.00117846 -4.34732e-05 1.46797e-07
-4.34732e-05 0.000136032 4.72718e-07
1.46797e-07 4.72718e-07 3.82613e-05
0.00106375 -4.63178e-05 -1.49885e-07
-4.63178e-05 0.000112129 1.21223e-06
-1.49885e-07 1.21223e-06 -4.21559e-06
0.000991475 -4.02866e-05 2.60683e-07
-4.02866e-05 4.39013e-05 1.33527e-07
2.60683e-07 1.33527e-07 -4.14844e-05
0.000943597 -4.18669e-05 7.90817e-07
-4.18669e-05 2.7581e-05 -5.21624e-07
7.90817e-07 -5.21624e-07 -7.00298e-05
0.00111937 -5.08729e-05 8.16879e-07
-5.08729e-05 0.000106048 1.59699e-06
8.16879e-07 1.59699e-06 1.22257e-06
0.00121743 -5.28002e-05 -1.78826e-06
-5.28002e-05 0.000115385 1.99919e-06
-1.78826e-06 1.99919e-06 2.60802e-05
0.00132375 -4.76841e-05 2.83051e-07
-4.76841e-05 0.000198636 -7.41898e-08
2.83051e-07 -7.41898e-08 0.000112841
0.000996631 -4.67603e-05 -2.8322e-07
-4.67603e-05 2.64812e-05 -1.19138e-07
-2.8322e-07 -1.19138e-07 -6.5669e-05
0.00127055 -4.7743e-05 1.96579e-07
-4.7743e-05 0.000163533 3.07882e-07
1.96579e-07 3.07882e-07 8.88945e-05
0.000943342 -3.71516e-05 -7.95114e-07
-3.71516e-05 1.68821e-05 2.08406e-07
-7.95114e-07 2.08406e-07 -5.60397e-05
0.00108165 -4.48719e-05 4.64603e-07
-4.48719e-05 7.1478e-05 8.69193e-08
4.64603e-07 8.69193e-08 -6.89429e-06
0.00107777 -3.22913e-05 -1.1059e-06
-3.22913e-05 7.26749e-05 1.11309e-07
-1.1059e-06 1.11309e-07 5.3615e-06
0.00111371 -4.14974e-05 -7.7708e-07
-4.14974e-05 9.11526e-05 4.74928e-07
-7.7708e-07 4.74928e-07 1.81098e-05
0.000939102 -4.23772e-05 -1.33431e-07
-4.23772e-05 6.89968e-06 -8.09741e-07
-1.33431e-07 -8.09741e-07 -7.55783e-05
0.0010446 -1.59585e-05 -1.4001e-06
-1.59585e-05 4.90085e-05 1.11314e-06
-1.4001e-06 1.11314e-06 -9.82619e-06
0.00105003 -3.4836e-05 8.83043e-08
-3.4836e-05 5.63185e-05 1.18095e-07
8.83043e-08 1.18095e-07 -1.37558e-05
0.00113983 -4.19071e-05 1.52056e-06
-4.19071e-05 0.000105001 -3.30997e-07
1.52056e-06 -3.30997e-07 2.98003e-05
0.0010397 -3.46262e-05 9.82392e-07
-3.46262e-05 5.56142e-05 -5.64024e-07
9.82392e-07 -5.64024e-07 -1.72038e-05
0.00103413 -1.62559e-05 9.54067e-08
-1.62559e-05 4.4779e-05 4.91075e-08
9.54067e-08 4.91075e-08 -1.44329e-05
0.000971689 -1.23226e-06 -1.60944e-06
-1.23226e-06 1.00555e-05 2.27501e-06
-1.60944e-06 2.27501e-06 -2.77051e-05
0.00102771 -1.43622e-05 8.69811e-07
-1.43622e-05 4.31162e-05 -1.26493e-06
8.69811e-07 -1.26493e-06 -1.48142e-05
0.000965257 1.91799e-06 1.2527e-07
1.91799e-06 5.76593e-06 -2.66181e-08
1.2527e-07 -2.66181e-08 -3.01024e-05
0.000883903 1.24877e-05 -2.03351e-06
1.24877e-05 -3.9365e-05 3.39018e-06
-2.03351e-06 3.39018e-06 -4.48001e-05
0.000968248 -1.56207e-07 1.06905e-06
-1.56207e-07 5.70976e-06 -2.09434e-06
1.06905e-06 -2.09434e-06 -2.82436e-05
0.000900078 1.07142e-05 1.13435e-07
1.07142e-05 -3.50765e-05 2.55202e-09
1.13435e-07 2.55202e-09 -3.92474e-05
0.00236651 1.7767e-05 -3.68639e-06
1.7767e-05 0.000698223 1.6709e-06
-3.68639e-06 1.6709e-06 0.000719037
0.000919172 8.78329e-06 1.5075e-06
8.78329e-06 -2.92962e-05 -3.2944e-06
1.5075e-06 -3.2944e-06 -3.23249e-05
0.00174102 1.19362e-05 3.5929e-06
1.19362e-05 0.000380512 -1.221e-06
3.5929e-06 -1.221e-06 0.000399204
0.00236763 9.78606e-06 7.09697e-06
9.78606e-06 0.00069204 -4.10577e-06
7.09697e-06 -4.10577e-06 0.000714234
0.000816317 -1.94371e-06 -3.09601e-07
-1.94371e-06 -6.61631e-05 -1.98164e-06
-3.09601e-07 -1.98164e-06 -0.000119084
0.000708376 -5.98838e-06 -7.66318e-07
-5.98838e-06 -0.000127724 -2.56161e-06
-7.66318e-07 -2.56161e-06 -0.000158903
0.000976436 -1.76866e-06 -8.72739e-08
-1.76866e-06 1.35504e-05 -4.95246e-07
-8.72739e-08 -4.95246e-07 -3.59479e-05
0.000932758 -7.14042e-06 -1.07361e-06
-7.14042e-06 -2.60947e-05 -3.27731e-06
-1.07361e-06 -3.27731e-06 -2.60265e-05
0.000723705 -4.51862e-06 -1.07635e-07
-4.51862e-06 -0.000122126 -5.95777e-07
-1.07635e-07 -5.95777e-07 -0.000151243
0.00110296 -4.45419e-07 2.09957e-07
-4.45419e-07 7.6695e-05 1.39821e-06
2.09957e-07 1.39821e-06 3.06517e-05
0.00224743 -6.46636e-06 -5.08466e-06
-6.46636e-06 0.000628927 -4.05734e-06
-5.08466e-06 -4.05734e-06 0.000652834
0.000923222 -4.67807e-06 -1.00586e-07
-4.67807e-06 -3.3108e-05 -7.61016e-09
-1.00586e-07 -7.61016e-09 -3.17245e-05
0.000733173 -2.88537e-06 2.23744e-07
-2.88537e-06 -0.000118648 1.88564e-06
2.23744e-07 1.88564e-06 -0.000146142
0.00222752 -3.09581e-06 -9.23506e-07
-3.09581e-06 0.000617345 8.14261e-09
-9.23506e-07 8.14261e-09 0.000641804
0.000920249 -2.18647e-06 2.10349e-07
-2.18647e-06 -3.60238e-05 3.26866e-06
2.10349e-07 3.26866e-06 -3.37248e-05
0.00221117 2.40918e-07 -5.78469e-07
2.40918e-07 0.000608711 3.99559e-06
-5.78469e-07 3.99559e-06 0.000633404
0.00108419 -1.23551e-05 -1.09118e-07
-1.23551e-05 0.000233367 -5.99439e-07
-1.09118e-07 -5.99439e-07 0.00014778
0.00105963 -6.06466e-06 1.08018e-07
-6.06466e-06 0.000290954 4.7475e-07
1.08018e-07 4.7475e-07 0.000220184
0.00098671 5.89821e-06 -5.54226e-06
5.89821e-06 0.000173351 2.42198e-06
-5.54226e-06 2.42198e-06 0.000173765
0.00108623 2.38935e-05 -1.38865e-07
2.38935e-05 7.42645e-05 3.84067e-08
-1.38865e-07 3.84067e-08 7.93607e-06
0.000965458 2.27797e-05 -4.24842e-07
2.27797e-05 1.13232e-05 -1.18602e-06
-4.24842e-07 -1.18602e-06 -5.82971e-05
0.00122567 2.23901e-05 -5.94226e-08
2.23901e-05 0.000146496 -4.53195e-07
-5.94226e-08 -4.53195e-07 7.09019e-05
0.0018614 9.85896e-06 -5.9763e-06
9.85896e-06 0.000610924 -7.12521e-06
-5.9763e-06 -7.12521e-06 0.000595496
0.0010833 -1.62586e-05 2.63203e-06
-1.62586e-05 0.00017641 7.70074e-07
2.63203e-06 7.70074e-07 0.000133777
0.00129181 -8.6583e-07 -5.60408e-06
-8.6583e-07 0.000392575 7.52818e-06
-5.60408e-06 7.52818e-06 0.000348838
0.000379446 3.85552e-05 -2.88986e-05
3.85552e-05 5.89605e-05 1.21084e-05
-2.88986e-05 1.21084e-05 -0.000215507
0.00337147 0.000139401 8.31799e-06
0.000139401 0.000731614 -1.56236e-05
8.31799e-06 -1.56236e-05 -2.53395e-06
0.0027594 0.000234423 2.66964e-05
0.000234423 0.000492181 -2.25012e-05
2.66964e-05 -2.25012e-05 0.00055498
0.000853053 -9.94054e-06 8.27487e-07
-9.94054e-06 1.18222e-05 1.52795e-06
8.27487e-07 1.52795e-06 4.74626e-05
0.000107329 -1.75183e-05 -1.55187e-05
-1.75183e-05 -6.5948e-05 1.04074e-05
-1.55187e-05 1.04074e-05 -0.000324133
0.00479893 8.36576e-05 3.36376e-05
8.36576e-05 0.000923627 -4.61549e-05
3.36376e-05 -4.61549e-05 0.000177816
0.000123088 0.000106188 1.60107e-06
0.000106188 -0.000742055 1.24668e-05
1.60107e-06 1.24668e-05 -0.000674085
0.000981236 1.20345e-05 1.92413e-06
1.20345e-05 4.33039e-05 -2.0058e-06
1.92413e-06 -2.0058e-06 4.3882e-05
0.000852754 -0.000157403 2.54992e-05
-0.000157403 -2.41106e-05 -4.81352e-05
2.54992e-05 -4.81352e-05 -0.000217652
0.00846043 8.69208e-05 2.83624e-05
8.69208e-05 0.00229785 -3.63994e-05
2.83624e-05 -3.63994e-05 0.00182902
0.000432098 -1.62734e-06 -5.50233e-06
-1.62734e-06 -0.000991655 7.61053e-05
-5.50233e-06 7.61053e-05 -0.000751669
-0.000583936 2.72347e-05 -1.67211e-06
2.72347e-05 -0.0009241 2.01162e-06
-1.67211e-06 2.01162e-06 -0.000862968
0.00112284 1.2802e-05 5.8564e-08
1.2802e-05 9.17656e-05 -1.13827e-06
5.8564e-08 -1.13827e-06 8.83779e-06
0.00102102 -1.19215e-06 -2.25403e-08
-1.19215e-06 4.51519e-05 -2.6253e-07
-2.25403e-08 -2.6253e-07 -3.55939e-05
0.00105085 -1.26023e-05 4.59505e-08
-1.26023e-05 6.67065e-05 1.16625e-06
4.59505e-08 1.16625e-06 -9.56295e-06
0.00105323 1.35309e-05 -2.14084e-07
1.35309e-05 6.1139e-05 -7.52967e-07
-2.14084e-07 -7.52967e-07 -1.28288e-05
0.00118285 3.77993e-05 7.69809e-07
3.77993e-05 0.000127987 1.5031e-06
7.69809e-07 1.5031e-06 5.75643e-05
0.00125616 2.39522e-05 5.19357e-08
2.39522e-05 0.000161127 1.11811e-06
5.19357e-08 1.11811e-06 9.90413e-05
0.00224213 -0.00014439 6.57091e-06
-0.00014439 0.000233592 -7.95361e-07
6.57091e-06 -7.95361e-07 0.00024797
0.000991741 -1.06407e-05 -1.11887e-06
-1.06407e-05 0.000203389 6.10068e-06
-1.11887e-06 6.10068e-06 -4.33475e-05
0.00109561 2.07913e-05 4.04776e-07
2.07913e-05 8.35698e-05 1.10061e-06
4.04776e-07 1.10061e-06 -2.23546e-06
0.00120159 -8.92708e-07 5.0358e-07
-8.92708e-07 0.000144303 3.34582e-07
5.0358e-07 3.34582e-07 2.37288e-05
0.00113318 4.90617e-06 2.27485e-07
4.90617e-06 9.38643e-05 1.43302e-06
2.27485e-07 1.43302e-06 -5.38468e-08
0.00112425 2.22121e-05 2.41994e-07
2.22121e-05 9.06418e-05 3.04657e-07
2.41994e-07 3.04657e-07 5.19012e-06
0.00115662 2.33248e-05 8.66571e-08
2.33248e-05 0.000103371 6.88534e-08
8.66571e-08 6.88534e-08 1.16414e-05
0.00150049 -0.000116507 4.61388e-07
-0.000116507 0.000136683 1.09344e-06
4.61388e-07 1.09344e-06 1.45759e-05
0.00126597 4.94329e-06 3.84817e-07
4.94329e-06 0.000143769 -1.28308e-06
3.84817e-07 -1.28308e-06 5.3028e-05
0.00145802 4.43287e-05 -1.77368e-06
4.43287e-05 0.000411397 -1.02561e-06
-1.77368e-06 -1.02561e-06 0.000212736
0.000949603 9.95239e-06 -1.26204e-07
9.95239e-06 1.81291e-06 -1.84959e-06
-1.26204e-07 -1.84959e-06 -8.85075e-05
0.00125627 -2.93023e-05 -6.47642e-06
-2.93023e-05 0.000418079 2.77057e-06
-6.47642e-06 2.77057e-06 0.000155041
0.000663014 2.77191e-05 -1.16802e-06
2.77191e-05 -0.000124015 -9.76349e-07
-1.16802e-06 -9.76349e-07 -0.000193216
0.00108817 -2.87278e-06 2.3517e-08
-2.87278e-06 6.82035e-05 -1.5345e-06
2.3517e-08 -1.5345e-06 -2.68034e-05
0.00127686 -4.34488e-06 6.33767e-07
-4.34488e-06 0.000331978 -9.43944e-07
6.33767e-07 -9.43944e-07 0.000237409
0.0009329 -4.63951e-06 4.90213e-08
-4.63951e-06 0.000146003 2.88359e-07
4.90213e-08 2.88359e-07 4.67231e-05
0.00108787 -3.92218e-06 -1.7424e-05
-3.92218e-06 0.000316762 9.07784e-07
-1.7424e-05 9.07784e-07 0.000237582
0.00147515 4.82024e-05 1.14583e-06
4.82024e-05 0.000287949 4.31684e-06
1.14583e-06 4.31684e-06 0.000204572
-0.000118669 4.54957e-05 5.40948e-06
4.54957e-05 -0.000237977 -8.26782e-06
5.40948e-06 -8.26782e-06 -0.000286543
0.000742774 2.86791e-06 9.88586e-07
2.86791e-06 1.40657e-07 -1.96593e-07
9.88586e-07 -1.96593e-07 -9.03326e-05
0.00418967 -1.90002e-05 -1.85298e-05
-1.90002e-05 0.000739848 -1.15369e-05
-1.85298e-05 -1.15369e-05 0.000569798
-0.00120427 1.34194e-05 1.07136e-07
1.34194e-05 -0.00169547 7.24751e-05
1.07136e-07 7.24751e-05 -0.00143975
5.79193e-05 -9.43853e-06 6.81322e-07
-9.43853e-06 -0.000529309 -4.88632e-06
6.81322e-07 -4.88632e-06 -0.000573652
0.00066635 -1.78711e-05 6.29395e-07
-1.78711e-05 -9.60132e-05 -6.79501e-06
6.29395e-07 -6.79501e-06 -6.77899e-05
0.000828217 2.98922e-05 4.08323e-06
2.98922e-05 7.09613e-05 2.46385e-07
4.08323e-06 2.46385e-07 -5.89906e-06
0.00106679 -5.52633e-06 4.00551e-07
-5.52633e-06 0.000175298 2.20659e-06
4.00551e-07 2.20659e-06 8.91871e-05
0.0011215 -2.23843e-05 -3.5831e-06
-2.23843e-05 0.000193288 -2.69719e-07
-3.5831e-06 -2.69719e-07 0.000126336
0.000729093 0.000121799 1.18041e-05
0.000121799 0.000128208 8.76452e-07
1.18041e-05 8.76452e-07 -6.60678e-05
0.000990443 4.07902e-05 1.14123e-06
4.07902e-05 -5.94388e-05 -3.03109e-06
1.14123e-06 -3.03109e-06 0.000151912
0.000104902 0.000121222 1.11981e-06
0.000121222 -0.000690289 -1.24782e-05
1.11981e-06 -1.24782e-05 -0.000621924
0.00714331 -1.09793e-05 6.17547e-06
-1.09793e-05 0.00170379 -2.09325e-05
6.17547e-06 -2.09325e-05 0.00157119
-0.000246701 1.7674e-06 -1.15863e-05
1.7674e-06 -6.73285e-06 -1.14689e-05
-1.15863e-05 -1.14689e-05 -0.000231032
0.00107493 -1.23101e-05 -6.09668e-07
-1.23101e-05 0.000221338 1.16515e-06
-6.09668e-07 1.16515e-06 0.000118292
0.001074 -2.46058e-07 -1.85125e-05
-2.46058e-07 0.000247881 5.24166e-06
-1.85125e-05 5.24166e-06 0.000188965
0.00122636 7.71248e-05 5.96284e-06
7.71248e-05 8.76111e-05 1.25781e-06
5.96284e-06 1.25781e-06 0.000329183
-0.00243553 0.000183206 3.11178e-05
0.000183206 -0.00178017 -4.08988e-05
3.11178e-05 -4.08988e-05 -0.00172588
0.00768028 0.000129557 -4.36242e-06
0.000129557 0.0021505 -7.51103e-06
-4.36242e-06 -7.51103e-06 0.00147423
0.00128522 -7.51058e-06 -1.43024e-05
-7.51058e-06 0.000431382 8.86924e-05
-1.43024e-05 8.86924e-05 4.13994e-05
0.00130755 2.21117e-05 -4.73409e-08
2.21117e-05 0.000220942 2.56051e-06
-4.73409e-08 2.56051e-06 0.00010698
0.000678343 -8.61899e-06 8.82881e-07
-8.61899e-06 3.30247e-05 -1.91674e-06
8.82881e-07 -1.91674e-06 -0.000200506
0.000699475 -2.28398e-05 -6.15092e-07
-2.28398e-05 0.000117572 -4.59858e-07
-6.15092e-07 -4.59858e-07 -0.000168579
0.0010893 -3.39904e-05 3.09023e-07
-3.39904e-05 7.36148e-05 -7.79031e-07
3.09023e-07 -7.79031e-07 -2.4756e-05
0.000967054 -1.696e-05 9.5395e-07
-1.696e-05 5.02808e-05 1.74671e-06
9.5395e-07 1.74671e-06 -6.12893e-05
0.000929888 -1.85196e-05 -1.2333e-07
-1.85196e-05 6.89099e-05 5.5987e-07
-1.2333e-07 5.5987e-07 -5.44392e-05
0.000905922 -5.32156e-05 1.91387e-06
-5.32156e-05 0.000117883 -1.6357e-06
1.91387e-06 -1.6357e-06 -7.10909e-05
0.00128032 -4.66305e-05 1.32286e-07
-4.66305e-05 0.000182666 2.542e-07
1.32286e-07 2.542e-07 8.38258e-05
0.00123971 -5.21293e-05 -2.7022e-07
-5.21293e-05 0.000192222 4.94949e-07
-2.7022e-07 4.94949e-07 7.22088e-05
0.00122755 -6.13281e-05 8.84565e-07
-6.13281e-05 0.000188392 2.03485e-06
8.84565e-07 2.03485e-06 4.92285e-05
0.00072822 -3.74842e-05 2.11338e-07
-3.74842e-05 -7.42531e-05 -1.3656e-06
2.11338e-07 -1.3656e-06 -0.000170528
0.00118575 -5.18961e-05 -1.51019e-07
-5.18961e-05 0.00013761 -2.67675e-08
-1.51019e-07 -2.67675e-08 3.15508e-05
0.00153154 -6.40916e-05 -1.54079e-06
-6.40916e-05 0.000273194 1.52544e-06
-1.54079e-06 1.52544e-06 0.000167033
0.00139335 -5.79313e-05 -1.59865e-06
-5.79313e-05 0.000191465 2.0442e-06
-1.59865e-06 2.0442e-06 9.96705e-05
0.000886688 -4.29184e-05 -3.47853e-07
-4.29184e-05 -3.41676e-05 1.77845e-06
-3.47853e-07 1.77845e-06 -0.000112335
0.00113225 -5.14416e-05 -3.37803e-07
-5.14416e-05 7.63327e-05 2.75336e-07
-3.37803e-07 2.75336e-07 -1.44727e-05
0.00112543 -4.94229e-05 -2.92381e-07
-4.94229e-05 8.82337e-05 -1.02277e-06
-2.92381e-07 -1.02277e-06 -4.99301e-06
0.00123158 -4.46367e-05 3.24817e-07
-4.46367e-05 0.000144953 -4.37926e-08
3.24817e-07 -4.37926e-08 7.5218e-05
0.00112535 -4.4859e-05 9.32906e-07
-4.4859e-05 9.33068e-05 -5.97181e-07
9.32906e-07 -5.97181e-07 2.01359e-05
0.000944679 -2.71342e-05 -4.81735e-07
-2.71342e-05 1.57732e-05 5.85126e-07
-4.81735e-07 5.85126e-07 -5.17642e-05
0.00103349 -3.86579e-05 1.78062e-07
-3.86579e-05 6.02766e-05 -9.94127e-08
1.78062e-07 -9.94127e-08 -1.19737e-05
0.00108886 -4.48247e-05 2.44874e-06
-4.48247e-05 7.42533e-05 -1.37795e-06
2.44874e-06 -1.37795e-06 -2.90874e-06
0.00102456 -8.57667e-06 -1.59447e-06
-8.57667e-06 4.21332e-05 8.77111e-07
-1.59447e-06 8.77111e-07 -1.56349e-05
0.00108956 -3.29187e-05 -2.70387e-07
-3.29187e-05 7.74486e-05 -5.07144e-08
-2.70387e-07 -5.07144e-08 1.02732e-05
0.00113213 -4.18448e-05 3.88e-07
-4.18448e-05 9.96915e-05 -1.08195e-07
3.88e-07 -1.08195e-07 2.64631e-05
0.000965571 -2.38251e-06 -2.1948e-06
-2.38251e-06 8.40543e-06 2.21694e-06
-2.1948e-06 2.21694e-06 -3.04629e-05
0.00104104 -1.74011e-05 8.10815e-08
-1.74011e-05 4.65283e-05 1.20749e-07
8.10815e-08 1.20749e-07 -1.20466e-05
0.00101972 -3.45806e-05 1.30315e-06
-3.45806e-05 4.0798e-05 -1.5065e-07
1.30315e-06 -1.5065e-07 -2.95403e-05
0.00103299 -1.6626e-05 1.2776e-06
-1.6626e-05 4.36023e-05 -1.16397e-06
1.2776e-06 -1.16397e-06 -1.5402e-05
0.000964558 8.83616e-07 2.40705e-07
8.83616e-07 6.64775e-06 3.06161e-09
2.40705e-07 3.06161e-09 -3.10861e-05
0.000873859 1.41285e-05 -2.45283e-06
1.41285e-05 -4.07399e-05 3.47426e-06
-2.45283e-06 3.47426e-06 -4.76169e-05
0.00096174 2.28062e-06 1.29296e-06
2.28062e-06 4.14506e-06 -2.17579e-06
1.29296e-06 -2.17579e-06 -3.17662e-05
0.000894353 1.2566e-05 1.07221e-07
1.2566e-05 -3.42659e-05 -1.1825e-08
1.07221e-07 -1.1825e-08 -3.97809e-05
0.00245532 1.93239e-05 -1.13761e-05
1.93239e-05 0.00074618 4.02826e-06
-1.13761e-05 4.02826e-06 0.000765956
0.000914149 1.07477e-05 1.8896e-06
1.07477e-05 -2.83519e-05 -3.34465e-06
1.8896e-06 -3.34465e-06 -3.25421e-05
0.00175293 1.48717e-05 4.2187e-06
1.48717e-05 0.000390774 -1.20014e-06
4.2187e-06 -1.20014e-06 0.000408473
0.00238803 1.30449e-05 8.94965e-06
1.30449e-05 0.000705522 -4.09851e-06
8.94965e-06 -4.09851e-06 0.000726991
0.00100943 1.06748e-05 -4.84694e-07
1.06748e-05 3.01583e-05 -1.53389e-06
-4.84694e-07 -1.53389e-06 -2.4696e-05
0.000962034 -9.43365e-06 -6.99518e-07
-9.43365e-06 9.9763e-07 -2.05105e-06
-6.99518e-07 -2.05105e-06 -3.07603e-05
0.000914137 5.12068e-06 -3.72604e-07
5.12068e-06 -1.69415e-05 -5.73007e-07
-3.72604e-07 -5.73007e-07 -6.94048e-05
0.000928138 -9.44764e-06 -1.36094e-06
-9.44764e-06 -2.51524e-05 -3.29259e-06
-1.36094e-06 -3.29259e-06 -2.66551e-05
0.000844802 -6.26907e-06 -2.19674e-07
-6.26907e-06 -5.98368e-05 -5.81289e-07
-2.19674e-07 -5.81289e-07 -9.03585e-05
0.00112009 -2.78998e-06 2.06907e-07
-2.78998e-06 8.45356e-05 7.94245e-07
2.06907e-07 7.94245e-07 3.5736e-05
0.00227744 -9.80376e-06 -6.92238e-06
-9.80376e-06 0.000646397 -4.05629e-06
-6.92238e-06 -4.05629e-06 0.000669557
0.000919075 -7.0911e-06 -8.29349e-08
-7.0911e-06 -3.28604e-05 -7.29949e-09
-8.29349e-08 -7.29949e-09 -3.27016e-05
0.00072005 -4.58258e-06 2.95228e-07
-4.58258e-06 -0.000123737 1.36788e-06
2.95228e-07 1.36788e-06 -0.000153114
0.00225204 -6.38686e-06 -8.13855e-07
-6.38686e-06 0.000630985 1.74232e-08
-8.13855e-07 1.74232e-08 0.000654954
0.00091311 -4.62882e-06 5.74678e-07
-4.62882e-06 -3.80998e-05 3.27926e-06
5.74678e-07 3.27926e-06 -3.66505e-05
0.00222709 -3.02624e-06 1.78815e-06
-3.02624e-06 0.000616976 4.00655e-06
1.78815e-06 4.00655e-06 0.000641491
0.00139326 3.05735e-07 1.64268e-06
3.05735e-07 0.000385039 -2.7223e-06
1.64268e-06 -2.7223e-06 0.000317784
0.00103681 -1.21793e-05 4.29417e-07
-1.21793e-05 0.000199541 1.88295e-07
4.29417e-07 1.88295e-07 0.000116036
0.000881017 -6.25284e-06 -1.11767e-05
-6.25284e-06 0.000175755 9.90432e-07
-1.11767e-05 9.90432e-07 0.000106835
0.00098281 2.67774e-05 -6.06339e-07
2.67774e-05 1.97036e-05 -1.01101e-06
-6.06339e-07 -1.01101e-06 -5.20742e-05
0.00114137 3.98442e-05 -3.94687e-07
3.98442e-05 9.89514e-05 -2.70138e-07
-3.94687e-07 -2.70138e-07 2.12758e-05
0.00111591 2.87149e-05 7.09996e-07
2.87149e-05 8.90068e-05 1.16305e-06
7.09996e-07 1.16305e-06 2.29622e-05
0.000955553 2.35504e-05 -1.10584e-08
2.35504e-05 7.05833e-06 8.10169e-09
-1.10584e-08 8.10169e-09 -6.30359e-05
0.00112736 1.914e-05 -3.2614e-08
1.914e-05 9.64361e-05 4.2449e-07
-3.2614e-08 4.2449e-07 2.01666e-05
0.00110504 3.29529e-05 -4.8498e-07
3.29529e-05 8.44317e-05 -7.82988e-07
-4.8498e-07 -7.82988e-07 5.32688e-06
0.00111864 3.33532e-05 -6.8883e-08
3.33532e-05 9.39549e-05 -3.63808e-07
-6.8883e-08 -3.63808e-07 1.0565e-05
0.000796376 3.1726e-05 5.15803e-07
3.1726e-05 2.04772e-05 -9.58556e-06
5.15803e-07 -9.58556e-06 -2.64782e-05
0.000894724 8.41391e-06 -1.53128e-06
8.41391e-06 5.72973e-06 -7.42184e-07
-1.53128e-06 -7.42184e-07 -1.19496e-05
0.000965149 -1.68602e-05 5.26056e-06
-1.68602e-05 9.26938e-05 1.81077e-06
5.26056e-06 1.81077e-06 5.37428e-05
5.82617e-05 1.17097e-05 -6.31139e-07
1.17097e-05 -0.000475496 -3.83911e-06
-6.31139e-07 -3.83911e-06 -0.000491034
0.00168571 -4.40202e-05 -6.69775e-05
-4.40202e-05 0.000342103 6.06319e-05
-6.69775e-05 6.06319e-05 -7.46805e-05
0.00193682 7.52116e-05 4.88975e-05
7.52116e-05 -6.44226e-05 -6.27389e-05
4.88975e-05 -6.27389e-05 -0.000688204
0.00584817 0.00016571 8.2658e-06
0.00016571 0.00155009 -3.05888e-05
8.2658e-06 -3.05888e-05 0.00173381
0.000686633 -0.000137871 -2.62217e-05
-0.000137871 -0.000215449 2.58697e-05
-2.62217e-05 2.58697e-05 -0.000510044
0.00238565 -4.57764e-05 1.25501e-05
-4.57764e-05 -0.000584921 -5.13615e-05
1.25501e-05 -5.13615e-05 -0.00119011
0.00300407 8.18716e-06 -7.5528e-06
8.18716e-06 3.48174e-05 -3.12283e-07
-7.5528e-06 -3.12283e-07 0.000241221
0.00155328 1.70717e-05 1.39864e-07
1.70717e-05 0.000312195 4.00101e-06
1.39864e-07 4.00101e-06 0.000400208
0.00097112 -0.00013377 3.24237e-05
-0.00013377 0.000115104 -2.18641e-05
3.24237e-05 -2.18641e-05 -6.59966e-05
0.00365747 -0.00015427 -2.03611e-05
-0.00015427 -0.000261953 -0.00010539
-2.03611e-05 -0.00010539 -0.000633093
-0.000366309 -6.7706e-05 9.23382e-06
-6.7706e-05 -0.00122712 5.51362e-05
9.23382e-06 5.51362e-05 -0.00103156
-0.00107353 -2.71093e-05 -4.56716e-06
-2.71093e-05 -0.00125927 -6.50805e-07
-4.56716e-06 -6.50805e-07 -0.00109874
0.00115784 2.08022e-05 -8.57974e-07
2.08022e-05 0.000102966 -1.50361e-06
-8.57974e-07 -1.50361e-06 1.67747e-05
0.00110761 1.22301e-05 6.6098e-08
1.22301e-05 8.45846e-05 -2.4484e-07
6.6098e-08 -2.4484e-07 1.1887e-06
0.0010379 3.5472e-07 5.20789e-09
3.5472e-07 5.42143e-05 7.57165e-07
5.20789e-09 7.57165e-07 -2.67992e-05
0.00107369 1.451e-05 6.22944e-09
1.451e-05 7.1089e-05 2.54165e-07
6.22944e-09 2.54165e-07 -2.87931e-06
0.00139935 -0.000116684 9.86049e-06
-0.000116684 4.27944e-05 1.64235e-06
9.86049e-06 1.64235e-06 -4.20952e-05
0.001475 4.10187e-05 1.01617e-06
4.10187e-05 0.000439275 5.41846e-06
1.01617e-06 5.41846e-06 0.000236066
0.00107933 2.32178e-05 3.73204e-07
2.32178e-05 6.88406e-05 1.12365e-06
3.73204e-07 1.12365e-06 -1.63147e-05
0.00106052 1.16838e-05 -3.01824e-07
1.16838e-05 5.47798e-05 1.06941e-06
-3.01824e-07 1.06941e-06 -3.72112e-05
0.00147609 1.54166e-06 -5.73286e-07
1.54166e-06 0.000243817 1.02459e-06
-5.73286e-07 1.02459e-06 0.000154563
0.0010414 1.75799e-05 -7.9499e-07
1.75799e-05 4.7471e-05 -1.66306e-07
-7.9499e-07 -1.66306e-07 -4.30341e-05
0.00105161 -3.07959e-06 -9.49044e-07
-3.07959e-06 4.77899e-05 3.31203e-07
-9.49044e-07 3.31203e-07 -4.77965e-05
0.000895831 -1.9441e-05 1.42163e-05
-1.9441e-05 0.000266457 -6.91886e-07
1.42163e-05 -6.91886e-07 5.78083e-05
0.000939906 1.25325e-05 2.2655e-06
1.25325e-05 1.77217e-05 1.12708e-06
2.2655e-06 1.12708e-06 -4.73552e-05
0.00124183 4.26125e-06 -1.57044e-07
4.26125e-06 0.00015114 -2.29629e-06
-1.57044e-07 -2.29629e-06 5.24967e-05
0.00119628 1.63697e-05 9.09466e-06
1.63697e-05 0.000553007 7.51685e-06
9.09466e-06 7.51685e-06 0.000449216
0.00162642 -2.95687e-05 5.42599e-06
-2.95687e-05 0.000360424 -5.32603e-06
5.42599e-06 -5.32603e-06 0.000229277
0.00142243 -2.92031e-06 -1.76231e-08
-2.92031e-06 0.000460802 -8.71059e-07
-1.76231e-08 -8.71059e-07 0.000352149
0.000954132 -4.83444e-06 2.15338e-07
-4.83444e-06 0.000132243 -7.53509e-07
2.15338e-07 -7.53509e-07 3.6532e-05
0.000479397 -5.55239e-06 1.26114e-06
-5.55239e-06 -0.000135622 6.85872e-07
1.26114e-06 6.85872e-07 -0.000234781
0.00122174 2.35107e-05 -4.30447e-06
2.35107e-05 0.000212346 6.99402e-06
-4.30447e-06 6.99402e-06 0.000140088
0.00095202 7.06295e-05 -1.90438e-05
7.06295e-05 0.000478691 1.2564e-05
-1.90438e-05 1.2564e-05 0.000469873
0.000702469 -6.52254e-06 4.06362e-07
-6.52254e-06 -4.73092e-05 -4.68293e-07
4.06362e-07 -4.68293e-07 -0.000135948
0.00275424 0.000140103 8.37436e-06
0.000140103 -0.000177655 -9.26649e-05
8.37436e-06 -9.26649e-05 -0.000677863
0.00476402 0.000170179 -9.06287e-06
0.000170179 0.00115931 2.40443e-05
-9.06287e-06 2.40443e-05 0.00131635
0.00105252 -2.38719e-05 -4.99244e-06
-2.38719e-05 0.000140331 -5.35223e-06
-4.99244e-06 -5.35223e-06 7.65123e-05
0.00137151 3.72853e-05 1.0387e-07
3.72853e-05 0.000169835 -9.02175e-06
1.0387e-07 -9.02175e-06 0.000369095
6.59651e-05 -3.11606e-06 2.82049e-06
-3.11606e-06 7.70143e-05 -9.98857e-07
2.82049e-06 -9.98857e-07 -0.000120651
0.0010711 -1.22651e-05 -7.16943e-07
-1.22651e-05 0.00021548 -8.91687e-08
-7.16943e-07 -8.91687e-08 0.000113872
0.0012091 -2.60706e-06 -5.14783e-06
-2.60706e-06 0.000335404 1.14633e-06
-5.14783e-06 1.14633e-06 0.000276768
0.00189391 -2.24247e-05 -7.32557e-06
-2.24247e-05 0.000810927 1.50073e-05
-7.32557e-06 1.50073e-05 0.000686667
0.000618901 8.39264e-05 -6.68862e-07
8.39264e-05 -0.000254966 -1.82788e-06
-6.68862e-07 -1.82788e-06 -2.26142e-05
0.000571172 0.000202129 2.85004e-06
0.000202129 -0.000458885 -8.50492e-06
2.85004e-06 -8.50492e-06 -0.000421823
0.00254565 2.28417e-05 1.69036e-05
2.28417e-05 8.55719e-05 -1.43066e-05
1.69036e-05 -1.43066e-05 -0.000709136
0.000488791 -4.97813e-05 3.88412e-06
-4.97813e-05 0.000268787 -2.06017e-05
3.88412e-06 -2.06017e-05 -3.24883e-05
0.00130265 -7.20876e-06 -1.20631e-05
-7.20876e-06 0.000440111 2.40535e-06
-1.20631e-05 2.40535e-06 0.000354655
-0.000952846 3.51269e-05 3.8711e-06
3.51269e-05 -0.00100981 -4.13757e-06
3.8711e-06 -4.13757e-06 -0.000959384
0.000248145 0.000150485 5.21059e-05
0.000150485 -7.25333e-05 -2.60151e-05
5.21059e-05 -2.60151e-05 -7.96304e-07
0.00596669 0.000264288 2.6503e-05
0.000264288 0.00170558 -4.14858e-05
2.6503e-05 -4.14858e-05 0.00101013
0.00179448 -0.000132163 -4.24565e-05
-0.000132163 0.000138695 0.000100487
-4.24565e-05 0.000100487 -0.00037989
0.000891235 -8.58503e-06 -1.25457e-06
-8.58503e-06 0.000136189 -2.56225e-06
-1.25457e-06 -2.56225e-06 -9.62845e-05
0.000693857 -1.47493e-05 -1.34709e-07
-1.47493e-05 0.000117531 -8.3599e-07
-1.34709e-07 -8.3599e-07 -0.000171914
0.00122447 -7.13444e-05 -6.53293e-07
-7.13444e-05 0.000313696 4.43103e-06
-6.53293e-07 4.43103e-06 4.66924e-05
0.00084963 -1.72076e-05 -1.71774e-07
-1.72076e-05 2.87708e-05 8.59375e-07
-1.71774e-07 8.59375e-07 -9.08091e-05
0.000688471 -4.02433e-05 3.30541e-07
-4.02433e-05 2.43624e-05 1.77511e-08
3.30541e-07 1.77511e-08 -0.000166941
0.00116227 -7.74056e-05 2.24253e-06
-7.74056e-05 0.000175584 4.00187e-06
2.24253e-06 4.00187e-06 -1.34091e-06
0.00145924 -5.92061e-05 -1.04256e-06
-5.92061e-05 0.000294032 -3.94536e-08
-1.04256e-06 -3.94536e-08 0.000169391
0.00124765 -6.18629e-05 -3.97816e-07
-6.18629e-05 0.000192956 8.08475e-07
-3.97816e-07 8.08475e-07 5.17695e-05
0.00137815 -7.32541e-05 -1.53021e-06
-7.32541e-05 0.00020196 7.21106e-07
-1.53021e-06 7.21106e-07 7.13748e-05
0.00119383 -5.206e-05 -4.07269e-07
-5.206e-05 0.000140274 -1.32137e-06
-4.07269e-07 -1.32137e-06 3.23309e-05
0.00144196 -6.31109e-05 -4.56851e-07
-6.31109e-05 0.000227672 7.4037e-08
-4.56851e-07 7.4037e-08 0.000119555
0.00139117 -6.27407e-05 -9.28286e-07
-6.27407e-05 0.00018169 3.43169e-07
-9.28286e-07 3.43169e-07 8.16165e-05
0.00127755 -5.36848e-05 -1.29518e-06
-5.36848e-05 0.000109888 3.53251e-07
-1.29518e-06 3.53251e-07 2.40925e-05
0.00142608 -5.45074e-05 -1.51326e-06
-5.45074e-05 0.000209557 2.35389e-06
-1.51326e-06 2.35389e-06 0.000127383
0.00132093 -5.68014e-05 -1.43618e-07
-5.68014e-05 0.000156042 3.19002e-08
-1.43618e-07 3.19002e-08 6.36551e-05
0.000874797 -4.02035e-05 9.50276e-09
-4.02035e-05 -3.54239e-05 4.16662e-07
9.50276e-09 4.16662e-07 -0.000106346
0.00102328 -4.52595e-05 6.84259e-07
-4.52595e-05 3.31911e-05 -1.93341e-07
6.84259e-07 -1.93341e-07 -4.4384e-05
0.00107234 -5.06143e-05 4.47395e-07
-5.06143e-05 4.87778e-05 -1.78332e-06
4.47395e-07 -1.78332e-06 -4.34769e-05
0.00111541 -3.55475e-05 -1.41669e-07
-3.55475e-05 9.11086e-05 3.59511e-07
-1.41669e-07 3.59511e-07 2.39702e-05
0.00115334 -4.31517e-05 3.4537e-08
-4.31517e-05 0.000107636 -1.58882e-07
3.4537e-08 -1.58882e-07 3.75792e-05
0.000976649 -4.19375e-05 1.46832e-06
-4.19375e-05 2.14368e-05 -9.43137e-07
1.46832e-06 -9.43137e-07 -5.02669e-05
0.000978119 -9.82036e-08 -8.4022e-07
-9.82036e-08 2.55483e-05 9.59616e-07
-8.4022e-07 9.59616e-07 -3.28327e-05
0.000980903 -2.69513e-05 -1.60279e-07
-2.69513e-05 3.25722e-05 1.03036e-07
-1.60279e-07 1.03036e-07 -3.454e-05
0.00112739 -4.02161e-05 6.9104e-07
-4.02161e-05 0.000105434 -4.77579e-07
6.9104e-07 -4.77579e-07 3.38582e-05
0.000940099 4.15103e-06 -2.46797e-06
4.15103e-06 -7.20131e-07 2.03314e-06
-2.46797e-06 2.03314e-06 -4.00039e-05
0.0010311 -9.48986e-06 -3.20243e-07
-9.48986e-06 4.44689e-05 -5.23678e-09
-3.20243e-07 -5.23678e-09 -1.31258e-05
0.00109875 -3.34185e-05 5.73197e-07
-3.34185e-05 8.09455e-05 -2.35854e-07
5.73197e-07 -2.35854e-07 1.39197e-05
0.000906662 1.5837e-05 -4.04414e-06
1.5837e-05 -2.17259e-05 4.76254e-06
-4.04414e-06 4.76254e-06 -2.98515e-05
0.000962357 1.71343e-06 1.78698e-07
1.71343e-06 6.84383e-06 3.98381e-08
1.78698e-07 3.98381e-08 -3.19224e-05
0.0010374 -1.85244e-05 1.67069e-06
-1.85244e-05 4.40186e-05 -8.85066e-07
1.67069e-06 -8.85066e-07 -1.43215e-05
0.000958104 2.35713e-06 1.78157e-06
2.35713e-06 3.54905e-06 -2.17327e-06
1.78157e-06 -2.17327e-06 -3.41567e-05
0.000881922 1.42556e-05 1.55583e-07
1.42556e-05 -3.66418e-05 5.41292e-10
1.55583e-07 5.41292e-10 -4.36087e-05
0.00250428 2.24138e-05 -1.28419e-05
2.24138e-05 0.000774821 4.01023e-06
-1.28419e-05 4.01023e-06 0.000793495
0.000904506 1.26485e-05 2.2626e-06
1.26485e-05 -2.93021e-05 -3.41747e-06
2.2626e-06 -3.41747e-06 -3.48984e-05
0.00245395 1.93203e-05 4.49146e-07
1.93203e-05 0.000745896 3.91926e-08
4.49146e-07 3.91926e-08 0.000765571
0.00241504 1.62082e-05 1.06435e-05
1.62082e-05 0.000722797 -4.09059e-06
1.06435e-05 -4.09059e-06 0.000743389
0.00106392 3.22009e-05 -8.68177e-07
3.22009e-05 6.01053e-05 -8.08985e-07
-8.68177e-07 -8.08985e-07 -1.21806e-05
0.00102554 8.13798e-06 -6.73678e-07
8.13798e-06 3.75718e-05 -1.57466e-06
-6.73678e-07 -1.57466e-06 -2.06176e-05
0.000952692 -1.32685e-05 -9.54014e-07
-1.32685e-05 -7.96809e-07 -2.20312e-06
-9.54014e-07 -2.20312e-06 -3.5146e-05
0.00101804 8.86758e-06 2.88307e-08
8.86758e-06 3.43554e-05 -5.42056e-08
2.88307e-08 -5.42056e-08 -2.0452e-05
0.000921563 -1.14822e-05 -1.74683e-06
-1.14822e-05 -2.45898e-05 -3.33995e-06
-1.74683e-06 -3.33995e-06 -2.79e-05
0.000967737 -1.04526e-05 3.61659e-09
-1.04526e-05 3.86416e-06 -8.60181e-09
3.61659e-09 -8.60181e-09 -2.79049e-05
0.00101097 1.04654e-05 1.43236e-07
1.04654e-05 3.13483e-05 9.21378e-07
1.43236e-07 9.21378e-07 -2.03903e-05
0.00231907 -1.3104e-05 -8.64263e-06
-1.3104e-05 0.000670587 -4.07407e-06
-8.64263e-06 -4.07407e-06 0.000692747
0.000912453 -9.4209e-06 -8.30065e-08
-9.4209e-06 -3.28189e-05 -1.6079e-08
-8.30065e-08 -1.6079e-08 -3.42358e-05
0.000983035 -6.5388e-06 4.37888e-07
-6.5388e-06 8.92939e-06 1.36677e-06
4.37888e-07 1.36677e-06 -2.09407e-05
0.00228105 -9.72685e-06 -6.95367e-07
-9.72685e-06 0.000647818 2.42297e-08
-6.95367e-07 2.42297e-08 0.000671076
0.000906237 -7.03875e-06 9.03176e-07
-7.03875e-06 -3.92045e-05 3.29591e-06
9.03176e-07 3.29591e-06 -3.89576e-05
0.0022546 -6.30279e-06 4.0939e-06
-6.30279e-06 0.000632008 4.01997e-06
4.0939e-06 4.01997e-06 0.00065605
0.000841574 1.01138e-05 5.44895e-07
1.01138e-05 8.46536e-05 -1.34815e-06
5.44895e-07 -1.34815e-06 -8.83468e-06
0.000979637 -1.08814e-06 -4.29944e-07
-1.08814e-06 0.000128636 -2.9288e-06
-4.29944e-07 -2.9288e-06 5.75159e-05
0.000999663 -1.20719e-05 9.56252e-07
-1.20719e-05 0.000172125 2.11797e-06
9.56252e-07 2.11797e-06 9.06826e-05
0.00102453 2.71768e-05 1.02877e-08
2.71768e-05 4.1167e-05 5.10662e-08
1.02877e-08 5.10662e-08 -3.05129e-05
0.0010936 3.84497e-05 2.81192e-07
3.84497e-05 7.53327e-05 1.55714e-07
2.81192e-07 1.55714e-07 -2.6705e-06
0.00105097 3.57588e-05 -9.93815e-07
3.57588e-05 5.40205e-05 -6.75686e-07
-9.93815e-07 -6.75686e-07 -2.29834e-05
0.00101178 3.52394e-05 -8.08695e-07
3.52394e-05 3.53804e-05 -8.76644e-07
-8.08695e-07 -8.76644e-07 -4.35843e-05
0.00116684 4.10842e-05 -3.47087e-07
4.10842e-05 0.000113095 -3.81588e-07
-3.47087e-07 -3.81588e-07 3.23342e-05
0.000944426 2.45843e-05 4.75596e-07
2.45843e-05 2.17446e-06 1.1858e-06
4.75596e-07 1.1858e-06 -6.84029e-05
0.00102306 1.60959e-05 1.64029e-07
1.60959e-05 4.34324e-05 1.40731e-06
1.64029e-07 1.40731e-06 -3.35138e-05
0.00109539 3.59939e-05 -3.01177e-08
3.59939e-05 8.01074e-05 -1.25569e-08
-3.01177e-08 -1.25569e-08 9.26367e-07
0.00108054 2.38508e-05 1.02497e-07
2.38508e-05 7.27994e-05 5.30049e-07
1.02497e-07 5.30049e-07 -1.01406e-05
0.00113391 3.40339e-05 -5.30889e-07
3.40339e-05 0.000100565 -4.6746e-07
-5.30889e-07 -4.6746e-07 1.57509e-05
0.000751898 -2.8034e-06 -9.26256e-06
-2.8034e-06 0.000101976 -1.1516e-05
-9.26256e-06 -1.1516e-05 3.32179e-05
0.000902696 3.05111e-05 -1.28996e-06
3.05111e-05 8.85043e-05 -3.37716e-06
-1.28996e-06 -3.37716e-06 3.85472e-05
-1.0049e-05 6.89131e-06 -1.55237e-07
6.89131e-06 -0.000561848 3.11551e-07
-1.55237e-07 3.11551e-07 -0.000581544
0.0010949 2.00743e-05 7.0041e-06
2.00743e-05 5.39441e-05 6.03283e-06
7.0041e-06 6.03283e-06 0.000123692
-0.000335006 1.04234e-05 5.33569e-07
1.04234e-05 -0.00144226 -7.4213e-05
5.33569e-07 -7.4213e-05 -0.00115754
0.00135533 -0.000181343 -5.4685e-05
-0.000181343 -3.95217e-05 9.29235e-05
-5.4685e-05 9.29235e-05 -0.00044546
0.00707945 8.62538e-05 -1.07515e-05
8.62538e-05 0.00167789 -4.32912e-05
-1.07515e-05 -4.32912e-05 0.00128317
0.000377944 -0.000169326 -2.57071e-05
-0.000169326 -0.000362684 2.66332e-05
-2.57071e-05 2.66332e-05 -0.000765771
0.00700311 -5.90467e-05 6.26446e-06
-5.90467e-05 0.00116319 4.33045e-06
6.26446e-06 4.33045e-06 0.00115903
0.00136942 -0.000133186 4.02348e-06
-0.000133186 -0.000301104 -1.78413e-05
4.02348e-06 -1.78413e-05 -0.00028473
9.05014e-05 -2.67564e-05 1.33771e-06
-2.67564e-05 -0.000542787 4.87944e-06
1.33771e-06 4.87944e-06 -0.000378758
0.00163848 -7.75459e-05 -8.56261e-06
-7.75459e-05 0.000420503 -5.36989e-05
-8.56261e-06 -5.36989e-05 4.01144e-05
0.00681732 -0.000183504 -1.87587e-05
-0.000183504 0.00159934 5.18799e-05
-1.87587e-05 5.18799e-05 0.0010973
0.00407916 -0.000203444 7.21165e-06
-0.000203444 0.00118514 2.37073e-05
7.21165e-06 2.37073e-05 0.00123945
0.00151771 -8.12758e-05 -1.39742e-06
-8.12758e-05 0.000216536 -3.33497e-07
-1.39742e-06 -3.33497e-07 0.000489736
0.00103098 3.08785e-05 -7.28866e-07
3.08785e-05 5.46153e-05 -2.12115e-06
-7.28866e-07 -2.12115e-06 -3.0359e-05
0.00112963 2.11675e-05 -5.32885e-08
2.11675e-05 9.31475e-05 -1.29927e-07
-5.32885e-08 -1.29927e-07 6.48228e-06
0.00108834 7.49225e-06 1.49159e-07
7.49225e-06 7.49244e-05 8.47305e-07
1.49159e-07 8.47305e-07 -8.71827e-06
0.000694341 -1.10602e-05 1.33524e-05
-1.10602e-05 0.000156886 -4.29577e-06
1.33524e-05 -4.29577e-06 7.78949e-06
0.00106686 -1.41777e-06 8.62368e-07
-1.41777e-06 8.6011e-05 5.82492e-06
8.62368e-07 5.82492e-06 2.50279e-05
0.0011004 1.94634e-05 1.61073e-07
1.94634e-05 7.68346e-05 1.91614e-06
1.61073e-07 1.91614e-06 -1.35147e-05
0.00100989 7.43038e-08 -4.04141e-08
7.43038e-08 2.52961e-05 2.22006e-06
-4.04141e-08 2.22006e-06 -7.0758e-05
0.00114394 4.02255e-06 3.92423e-07
4.02255e-06 0.000106295 -4.54369e-08
3.92423e-07 -4.54369e-08 7.85636e-06
0.00105938 -2.29401e-05 6.60856e-07
-2.29401e-05 0.000108287 2.33647e-07
6.60856e-07 2.33647e-07 -3.34506e-05
-1.28173e-05 1.4172e-05 -1.99151e-06
1.4172e-05 4.21259e-06 1.77873e-06
-1.99151e-06 1.77873e-06 -0.00013505
0.000767644 2.00852e-05 -3.43916e-06
2.00852e-05 -5.74584e-06 -3.42312e-07
-3.43916e-06 -3.42312e-07 -0.000151836
0.000938152 1.82404e-05 -6.4745e-06
1.82404e-05 0.000341114 1.1934e-05
-6.4745e-06 1.1934e-05 0.000204568
0.00214618 -8.47786e-06 -1.39626e-05
-8.47786e-06 0.000981177 -3.62829e-07
-1.39626e-05 -3.62829e-07 0.000894672
0.000968221 -2.96268e-06 -1.16083e-07
-2.96268e-06 0.000179145 -6.40165e-07
-1.16083e-07 -6.40165e-07 7.09292e-05
0.000686456 -5.24244e-06 9.66396e-07
-5.24244e-06 -3.31653e-05 -2.30917e-07
9.66396e-07 -2.30917e-07 -0.000130169
-0.000224498 1.41467e-05 4.91079e-06
1.41467e-05 -9.9988e-05 1.64166e-05
4.91079e-06 1.64166e-05 -0.000273147
-5.7979e-05 2.53942e-05 2.31934e-05
2.53942e-05 -0.000324146 -4.87546e-05
2.31934e-05 -4.87546e-05 -0.00075606
0.00107722 -1.2253e-05 -7.86035e-07
-1.2253e-05 0.000215759 -1.6126e-06
-7.86035e-07 -1.6126e-06 0.000115614
0.00743968 0.000145933 2.84083e-05
0.000145933 0.00187545 -1.87755e-05
2.84083e-05 -1.87755e-05 0.00106948
0.00265476 0.000263381 -2.31069e-05
0.000263381 0.000560638 1.83647e-05
-2.31069e-05 1.83647e-05 0.000543736
0.00135342 -5.29024e-06 7.62845e-06
-5.29024e-06 0.000429014 -1.08266e-05
7.62845e-06 -1.08266e-05 0.00037094
1.25297e-05 9.09521e-05 -4.28137e-06
9.09521e-05 -0.000596847 9.1541e-06
-4.28137e-06 9.1541e-06 -0.000377339
0.000102778 -1.63823e-05 -4.06821e-06
-1.63823e-05 0.000106126 6.28259e-07
-4.06821e-06 6.28259e-07 -0.000174145
0.00110265 -7.12291e-06 -2.3057e-08
-7.12291e-06 0.000312055 1.20185e-07
-2.3057e-08 1.20185e-07 0.000227495
-0.00114409 3.95746e-05 9.17688e-06
3.95746e-05 -0.0011201 -2.75826e-06
9.17688e-06 -2.75826e-06 -0.00105638
0.00174661 -8.53782e-05 5.99221e-06
-8.53782e-05 0.000468356 3.59245e-05
5.99221e-06 3.59245e-05 3.63706e-05
0.00288601 0.000220673 -5.38422e-07
0.000220673 0.000936408 2.17577e-07
-5.38422e-07 2.17577e-07 0.000891486
0.00529558 0.000123204 1.41403e-05
0.000123204 0.00121897 -1.29299e-05
1.41403e-05 -1.29299e-05 0.000268384
0.00124407 -4.41782e-05 7.01734e-06
-4.41782e-05 0.000222722 -4.25502e-06
7.01734e-06 -4.25502e-06 0.000101619
-0.000918133 4.88294e-06 -1.0652e-05
4.88294e-06 -0.000905408 7.20316e-07
-1.0652e-05 7.20316e-07 -0.000921738
0.00242003 0.000151194 3.57674e-05
0.000151194 0.000789568 -1.50605e-05
3.57674e-05 -1.50605e-05 0.00071149
0.00335117 0.000221917 -3.69991e-05
0.000221917 0.000637103 2.70518e-05
-3.69991e-05 2.70518e-05 -8.34413e-05
0.00102137 -5.05085e-05 1.20565e-06
-5.05085e-05 -6.55796e-06 4.28346e-05
1.20565e-06 4.28346e-05 -0.000232594
0.000795207 -6.62246e-06 5.85661e-07
-6.62246e-06 0.000160503 1.1859e-06
5.85661e-07 1.1859e-06 -0.000126807
0.000955381 -6.82472e-05 -4.62629e-07
-6.82472e-05 0.000206338 1.47535e-07
-4.62629e-07 1.47535e-07 -8.13644e-05
0.00192084 -0.000121929 -8.80053e-07
-0.000121929 0.000509406 5.12832e-06
-8.80053e-07 5.12832e-06 0.000305921
0.00050071 -2.71369e-05 -1.1215e-06
-2.71369e-05 -5.76926e-05 1.97071e-06
-1.1215e-06 1.97071e-06 -0.000248986
0.000988158 -7.32009e-05 6.78894e-07
-7.32009e-05 9.52143e-05 -2.30094e-07
6.78894e-07 -2.30094e-07 -8.11893e-05
0.00134554 -9.38914e-05 -2.81752e-06
-9.38914e-05 0.000139547 6.81158e-07
-2.81752e-06 6.81158e-07 1.25886e-05
0.00129698 -6.23974e-05 -1.19519e-06
-6.23974e-05 0.000210202 -7.78406e-07
-1.19519e-06 -7.78406e-07 6.86435e-05
0.00121405 -6.91679e-05 -8.19268e-07
-6.91679e-05 0.000118845 -1.12086e-06
-8.19268e-07 -1.12086e-06 -6.81163e-06
0.00161613 -7.37594e-05 -1.56553e-06
-7.37594e-05 0.000248466 2.4706e-07
-1.56553e-06 2.4706e-07 0.00015733
0.0013614 -6.19681e-05 -1.12015e-07
-6.19681e-05 0.000186813 -1.96486e-06
-1.12015e-07 -1.96486e-06 7.72121e-05
0.0012358 -5.93552e-05 4.38529e-07
-5.93552e-05 0.000101668 -5.18643e-07
4.38529e-07 -5.18643e-07 3.18555e-06
0.00133931 -5.49621e-05 -1.25812e-06
-5.49621e-05 0.000113747 -6.04917e-07
-1.25812e-06 -6.04917e-07 3.5113e-05
0.00127371 -4.83456e-05 -1.11412e-06
-4.83456e-05 7.29254e-05 -1.43393e-07
-1.11412e-06 -1.43393e-07 3.49005e-07
0.0011716 -4.97606e-05 -1.08308e-06
-4.97606e-05 6.67393e-05 1.13022e-06
-1.08308e-06 1.13022e-06 -1.49342e-05
0.00121603 -5.21322e-05 2.39322e-07
-5.21322e-05 7.7094e-05 -5.26938e-07
2.39322e-07 -5.26938e-07 -7.75862e-06
0.00121828 -4.77238e-05 -6.89948e-07
-4.77238e-05 0.000118298 1.77824e-06
-6.89948e-07 1.77824e-06 4.35021e-05
0.00120647 -5.09136e-05 -3.03272e-07
-5.09136e-05 0.000104543 2.79929e-07
-3.03272e-07 2.79929e-07 2.09703e-05
0.00121233 -5.49493e-05 7.71046e-07
-5.49493e-05 0.000103688 -1.64601e-06
7.71046e-07 -1.64601e-06 1.06837e-05
0.00105281 -3.90512e-05 -3.7417e-07
-3.90512e-05 5.44915e-05 5.29135e-08
-3.7417e-07 5.29135e-08 -1.12345e-05
0.000954949 -4.14883e-05 -1.23215e-07
-4.14883e-05 4.0907e-06 -5.05615e-07
-1.23215e-07 -5.05615e-07 -6.60717e-05
0.00116831 -4.77494e-05 1.46345e-06
-4.77494e-05 0.000104606 -2.02704e-06
1.46345e-06 -2.02704e-06 2.76148e-05
0.000996523 -8.40747e-06 -6.96847e-07
-8.40747e-06 3.68239e-05 9.36199e-07
-6.96847e-07 9.36199e-07 -2.2784e-05
0.00104575 -3.33957e-05 1.64409e-07
-3.33957e-05 5.81697e-05 2.11185e-07
1.64409e-07 2.11185e-07 -8.92232e-06
0.00107188 -4.16357e-05 4.29388e-07
-4.16357e-05 6.87267e-05 -1.51178e-07
4.29388e-07 -1.51178e-07 -1.64507e-06
0.000916324 1.54129e-05 -2.267e-06
1.54129e-05 -5.87118e-06 1.90071e-06
-2.267e-06 1.90071e-06 -4.64976e-05
0.00101319 -1.85478e-06 -8.35555e-08
-1.85478e-06 4.19964e-05 -2.6854e-08
-8.35555e-08 -2.6854e-08 -1.63939e-05
0.00101511 -2.70901e-05 7.29794e-08
-2.70901e-05 4.8435e-05 -2.70903e-07
7.29794e-08 -2.70903e-07 -1.82651e-05
0.00155116 2.05884e-05 -8.14072e-06
2.05884e-05 0.000305762 3.26231e-06
-8.14072e-06 3.26231e-06 0.000300128
0.000953109 3.79986e-06 2.5918e-08
3.79986e-06 5.47226e-06 1.91106e-08
2.5918e-08 1.91106e-08 -3.37453e-05
0.00103774 -1.06556e-05 1.04918e-06
-1.06556e-05 4.68375e-05 -8.88382e-07
1.04918e-06 -8.88382e-07 -1.05476e-05
0.00115795 1.72939e-05 -1.19373e-05
1.72939e-05 0.000105359 3.99758e-06
-1.19373e-05 3.99758e-06 0.000116472
0.00123037 1.7387e-05 -2.71889e-06
1.7387e-05 0.000141133 5.89736e-07
-2.71889e-06 5.89736e-07 0.000134606
0.000959171 4.02417e-06 2.09509e-06
4.02417e-06 5.27379e-06 -2.01095e-06
2.09509e-06 -2.01095e-06 -3.33815e-05
0.000890344 1.43914e-05 2.75907e-06
1.43914e-05 -3.23678e-05 -3.45872e-06
2.75907e-06 -3.45872e-06 -3.94258e-05
0.00249622 2.23606e-05 4.00579e-07
2.23606e-05 0.000771158 4.8337e-08
4.00579e-07 4.8337e-08 0.000789769
0.00245086 1.92966e-05 1.21702e-05
1.92966e-05 0.000744753 -4.08889e-06
1.21702e-05 -4.08889e-06 0.000764337
0.00103053 3.02336e-05 -1.15317e-06
3.02336e-05 4.25745e-05 -7.5197e-07
-1.15317e-06 -7.5197e-07 -2.9948e-05
0.00103776 4.76313e-06 -9.75237e-07
4.76313e-06 4.37998e-05 -1.42652e-06
-9.75237e-07 -1.42652e-06 -1.67985e-05
0.00105031 3.04054e-05 -1.03585e-07
3.04054e-05 5.34181e-05 8.15873e-08
-1.03585e-07 8.15873e-08 -1.91643e-05
0.000945197 -1.07032e-05 -1.45463e-06
-1.07032e-05 -1.95987e-06 -2.3187e-06
-1.45463e-06 -2.3187e-06 -3.90452e-05
0.00102936 7.29845e-06 -5.3529e-08
7.29845e-06 3.96221e-05 -1.54418e-08
-5.3529e-08 -1.54418e-08 -1.86013e-05
0.000912369 -1.31624e-05 -2.19376e-06
-1.31624e-05 -2.52051e-05 -3.40525e-06
-2.19376e-06 -3.40525e-06 -3.03391e-05
0.00095675 -1.1892e-05 -1.63122e-07
-1.1892e-05 9.33214e-07 -2.18598e-08
-1.63122e-07 -2.18598e-08 -3.32879e-05
0.00102917 9.42241e-06 4.98343e-07
9.42241e-06 4.002e-05 1.62549e-06
4.98343e-07 1.62549e-06 -1.48826e-05
0.00237137 -1.63011e-05 -1.03646e-05
-1.63011e-05 0.00070079 -4.08322e-06
-1.03646e-05 -4.08322e-06 0.000721766
0.000903268 -1.14419e-05 -1.13606e-07
-1.14419e-05 -3.35153e-05 -1.56146e-08
-1.13606e-07 -1.56146e-08 -3.67325e-05
0.000973038 -9.32297e-06 7.65339e-07
-9.32297e-06 6.43675e-06 1.97851e-06
7.65339e-07 1.97851e-06 -2.5275e-05
0.00232272 -1.30702e-05 -6.06401e-07
-1.30702e-05 0.00067193 3.01345e-08
-6.06401e-07 3.01345e-08 0.000694216
0.000896334 -9.39007e-06 1.1913e-06
-9.39007e-06 -4.07039e-05 3.31835e-06
1.1913e-06 3.31835e-06 -4.2034e-05
0.00228679 -9.6364e-06 6.11019e-06
-9.6364e-06 0.000650303 4.02155e-06
6.11019e-06 4.02155e-06 0.000673648
0.000494991 -6.24214e-06 -1.41397e-05
-6.24214e-06 -4.40717e-05 -4.34372e-06
-1.41397e-05 -4.34372e-06 -0.00014313
0.000829794 8.96938e-06 9.26089e-07
8.96938e-06 7.76045e-05 -4.3794e-07
9.26089e-07 -4.3794e-07 -1.54097e-05
0.000503398 -2.40212e-06 -4.84e-07
-2.40212e-06 -0.000166123 6.04331e-07
-4.84e-07 6.04331e-07 -0.000241195
0.00108716 3.66777e-05 -7.66642e-07
3.66777e-05 6.98017e-05 3.8656e-08
-7.66642e-07 3.8656e-08 -4.94523e-06
0.00106577 2.6773e-05 4.84078e-07
2.6773e-05 6.23104e-05 1.10685e-06
4.84078e-07 1.10685e-06 -9.22831e-06
0.00104312 3.70654e-05 8.40459e-07
3.70654e-05 5.0456e-05 7.4395e-07
8.40459e-07 7.4395e-07 -2.78839e-05
0.00109707 3.69909e-05 -1.10295e-07
3.69909e-05 7.86363e-05 -2.28995e-07
-1.10295e-07 -2.28995e-07 1.96042e-08
0.00112495 3.75715e-05 -2.47747e-07
3.75715e-05 9.05114e-05 -8.79773e-08
-2.47747e-07 -8.79773e-08 1.37856e-05
0.0010989 3.95308e-05 2.95279e-07
3.95308e-05 7.95081e-05 1.93877e-07
2.95279e-07 1.93877e-07 -7.18275e-07
0.00109071 4.0572e-05 -1.0085e-06
4.0572e-05 7.32659e-05 -7.77333e-07
-1.0085e-06 -7.77333e-07 -7.38942e-06
0.00102546 3.80751e-05 -7.96969e-07
3.80751e-05 4.71825e-05 -6.2725e-07
-7.96969e-07 -6.2725e-07 -3.57461e-05
0.00108814 3.84382e-05 5.58775e-07
3.84382e-05 7.69473e-05 7.64771e-07
5.58775e-07 7.64771e-07 -2.28365e-06
0.00105503 1.79417e-05 3.85654e-07
1.79417e-05 5.85144e-05 1.19606e-06
3.85654e-07 1.19606e-06 -2.42692e-05
0.00113097 3.52796e-05 -3.66423e-08
3.52796e-05 0.000100333 2.69274e-08
-3.66423e-08 2.69274e-08 1.53884e-05
0.00146953 4.44793e-05 2.04353e-08
4.44793e-05 0.000262025 -8.23441e-07
2.04353e-08 -8.23441e-07 0.000175119
0.00240215 -4.23751e-05 -4.96778e-06
-4.23751e-05 0.00100828 -1.41142e-07
-4.96778e-06 -1.41142e-07 0.00108544
0.000640208 9.93819e-07 -8.96694e-07
9.93819e-07 3.78055e-05 -2.3563e-06
-8.96694e-07 -2.3563e-06 -2.98955e-05
0.00105272 2.91983e-05 -1.73941e-06
2.91983e-05 0.000183336 2.6688e-06
-1.73941e-06 2.6688e-06 0.000130371
0.00197442 -3.40221e-05 1.19687e-05
-3.40221e-05 0.000575732 1.03314e-05
1.19687e-05 1.03314e-05 0.000729958
0.00211528 -0.000147392 5.36294e-06
-0.000147392 -0.000260353 -9.58559e-05
5.36294e-06 -9.58559e-05 -0.00021741
0.00347323 2.3129e-05 -8.19499e-06
2.3129e-05 -0.000280665 0.000106321
-8.19499e-06 0.000106321 -0.000638133
0.000305711 -0.000150014 -5.52489e-05
-0.000150014 -6.29388e-05 5.16664e-05
-5.52489e-05 5.16664e-05 -0.000238388
0.00140554 -3.84535e-05 -8.18254e-06
-3.84535e-05 0.000568253 -2.57757e-06
-8.18254e-06 -2.57757e-06 0.000355329
0.000787465 -7.94405e-05 3.86962e-06
-7.94405e-05 -0.0001427 5.56639e-07
3.86962e-06 5.56639e-07 7.86405e-05
0.00554887 -6.99382e-05 1.16767e-05
-6.99382e-05 0.000704835 5.34833e-05
1.16767e-05 5.34833e-05 8.89453e-05
-0.000757616 -0.000135405 -6.72115e-06
-0.000135405 -0.000860962 -1.36105e-05
-6.72115e-06 -1.36105e-05 -0.000769961
0.00162361 8.60351e-05 -5.10454e-05
8.60351e-05 0.000524083 -4.55532e-05
-5.10454e-05 -4.55532e-05 0.000322287
0.00613663 -0.000183792 4.47309e-06
-0.000183792 0.00166148 3.25363e-05
4.47309e-06 3.25363e-05 0.000996171
0.000246898 -0.000115586 3.86707e-05
-0.000115586 -3.8283e-05 2.28095e-05
3.86707e-05 2.28095e-05 3.31e-05
0.000945089 5.18778e-05 -2.49771e-06
5.18778e-05 3.28621e-05 -3.71734e-06
-2.49771e-06 -3.71734e-06 -5.0064e-05
0.00119516 3.48319e-05 1.52247e-06
3.48319e-05 0.000128753 2.08072e-07
1.52247e-06 2.08072e-07 4.4198e-05
0.00113315 2.82766e-05 4.7596e-08
2.82766e-05 9.97142e-05 1.27203e-06
4.7596e-08 1.27203e-06 1.20876e-05
-0.0010819 1.05272e-05 5.4809e-07
1.05272e-05 -0.000497049 -3.98013e-06
5.4809e-07 -3.98013e-06 -0.000657752
0.000693642 -1.30208e-05 4.03716e-07
-1.30208e-05 -5.21178e-05 5.02104e-06
4.03716e-07 5.02104e-06 -0.000205101
0.00103374 5.98697e-06 2.18524e-06
5.98697e-06 5.68259e-05 2.69505e-06
2.18524e-06 2.69505e-06 -4.16151e-05
0.00115024 3.03445e-05 -2.80771e-08
3.03445e-05 0.000173599 2.13633e-07
-2.80771e-08 2.13633e-07 3.03282e-05
0.000653529 9.78423e-06 3.44895e-06
9.78423e-06 0.000216398 4.68249e-06
3.44895e-06 4.68249e-06 6.91306e-05
-0.00108212 5.72211e-05 -8.59913e-06
5.72211e-05 -0.000763865 1.4222e-05
-8.59913e-06 1.4222e-05 -0.000882587
0.00259005 -9.53466e-06 -1.39285e-05
-9.53466e-06 0.00117027 -4.21388e-07
-1.39285e-05 -4.21388e-07 0.00119074
0.000869204 -6.70653e-06 -1.22898e-06
-6.70653e-06 0.000193708 -4.05438e-07
-1.22898e-06 -4.05438e-07 9.62286e-05
0.000514214 -2.97767e-06 3.62176e-07
-2.97767e-06 -0.000102209 -6.51398e-07
3.62176e-07 -6.51398e-07 -0.000210011
0.000308578 -2.42328e-05 3.26804e-06
-2.42328e-05 0.000197128 1.91888e-05
3.26804e-06 1.91888e-05 -6.92336e-05
0.00144434 -7.66336e-05 -3.52363e-06
-7.66336e-05 0.00038985 -4.0131e-05
-3.52363e-06 -4.0131e-05 8.06715e-05
0.000948284 -7.10569e-06 1.2352e-05
-7.10569e-06 0.000212085 -9.04251e-07
1.2352e-05 -9.04251e-07 0.00012888
0.00111966 0.000139091 -3.44047e-05
0.000139091 -0.000296279 3.56992e-05
-3.44047e-05 3.56992e-05 -0.00111922
-0.00043652 0.000151001 -4.98486e-05
0.000151001 -0.000419878 3.01976e-05
-4.98486e-05 3.01976e-05 -0.000416851
0.000861549 4.87064e-05 1.23793e-05
4.87064e-05 1.22577e-05 -7.52052e-06
1.23793e-05 -7.52052e-06 0.000107986
0.00148516 -5.52743e-05 4.33875e-06
-5.52743e-05 0.000382493 1.11368e-06
4.33875e-06 1.11368e-06 0.000222111
0.00104596 1.12712e-05 -1.52165e-06
1.12712e-05 0.000201415 -5.50555e-07
-1.52165e-06 -5.50555e-07 0.000207207
-0.00138898 8.22727e-05 -1.09576e-05
8.22727e-05 -0.000781207 2.77247e-06
-1.09576e-05 2.77247e-06 -0.000784735
0.00268055 -9.98609e-05 -1.29998e-05
-9.98609e-05 0.000640156 2.77957e-05
-1.29998e-05 2.77957e-05 0.000129089
0.00433408 0.00021241 -3.28336e-06
0.00021241 0.00103695 5.33314e-06
-3.28336e-06 5.33314e-06 0.000370036
0.00167234 -8.6167e-05 1.08405e-05
-8.6167e-05 -1.75908e-05 4.92248e-07
1.08405e-05 4.92248e-07 5.25758e-05
-0.00276865 3.32704e-05 5.1274e-05
3.32704e-05 -0.00170371 -1.16986e-05
5.1274e-05 -1.16986e-05 -0.00171118
0.00418422 0.000187848 2.12646e-05
0.000187848 0.00116017 -1.14654e-05
2.12646e-05 -1.14654e-05 0.000624152
0.0017138 9.88741e-06 -1.58003e-05
9.88741e-06 0.000316755 3.02537e-05
-1.58003e-05 3.02537e-05 -0.000121398
0.000749756 -6.2632e-05 -9.27937e-07
-6.2632e-05 0.000133822 -2.88802e-06
-9.27937e-07 -2.88802e-06 -0.000180066
0.0010516 -0.000105847 -2.96968e-07
-0.000105847 0.000108533 1.15003e-06
-2.96968e-07 1.15003e-06 -0.000104606
0.0012952 -0.00012984 -6.11899e-06
-0.00012984 5.54399e-05 4.80121e-06
-6.11899e-06 4.80121e-06 -6.46482e-05
0.000733168 -6.76918e-05 -1.23453e-06
-6.76918e-05 -2.071e-05 -2.12766e-06
-1.23453e-06 -2.12766e-06 -0.000199283
0.00123654 -9.18385e-05 -1.81882e-06
-9.18385e-05 8.15452e-05 -1.68483e-06
-1.81882e-06 -1.68483e-06 -4.3473e-05
0.00184671 -8.90886e-05 -4.69183e-06
-8.90886e-05 0.000265568 3.4935e-07
-4.69183e-06 3.4935e-07 0.000199954
0.00100807 -6.45018e-05 1.16691e-07
-6.45018e-05 1.73083e-05 -3.17057e-06
1.16691e-07 -3.17057e-06 -0.000104361
0.00128694 -6.72573e-05 9.17604e-07
-6.72573e-05 8.56473e-05 -5.43875e-07
9.17604e-07 -5.43875e-07 -3.47634e-06
0.0015113 -5.70106e-05 -1.51817e-06
-5.70106e-05 0.000140974 -8.15644e-07
-1.51817e-06 -8.15644e-07 8.48149e-05
0.0011113 -5.65485e-05 1.61531e-06
-5.65485e-05 3.65731e-05 -1.22391e-06
1.61531e-06 -1.22391e-06 -6.03314e-05
0.00122554 -5.24201e-05 6.12287e-08
-5.24201e-05 5.37018e-05 -3.52686e-07
6.12287e-08 -3.52686e-07 -2.3638e-05
0.0013193 -4.54486e-05 -9.38489e-07
-4.54486e-05 5.95349e-05 -9.80336e-07
-9.38489e-07 -9.80336e-07 2.9209e-06
0.00131318 -4.25938e-05 -1.13698e-06
-4.25938e-05 7.26131e-05 -3.29575e-07
-1.13698e-06 -3.29575e-07 1.39391e-05
0.00128337 -4.82705e-05 -1.33126e-06
-4.82705e-05 9.1424e-05 3.13976e-07
-1.33126e-06 3.13976e-07 1.82462e-05
0.00124813 -4.68045e-05 3.36333e-07
-4.68045e-05 6.03989e-05 2.95504e-07
3.36333e-07 2.95504e-07 -1.10551e-05
0.000959867 -4.33681e-05 -1.09525e-06
-4.33681e-05 -2.60226e-05 1.34411e-06
-1.09525e-06 1.34411e-06 -0.000101576
0.0012373 -5.04878e-05 5.82318e-07
-5.04878e-05 9.89605e-05 -3.99434e-07
5.82318e-07 -3.99434e-07 1.82069e-05
0.0011477 -5.04417e-05 1.34107e-06
-5.04417e-05 4.08892e-05 -1.11405e-06
1.34107e-06 -1.11405e-06 -4.29893e-05
0.00107974 -4.2001e-05 -3.22887e-07
-4.2001e-05 6.21342e-05 9.97234e-07
-3.22887e-07 9.97234e-07 -5.11692e-06
0.00105248 -4.47709e-05 1.74798e-07
-4.47709e-05 4.03837e-05 -1.20838e-07
1.74798e-07 -1.20838e-07 -3.46016e-05
0.000983725 -4.72688e-05 7.10051e-07
-4.72688e-05 -2.07349e-06 -1.7738e-06
7.10051e-07 -1.7738e-06 -8.70318e-05
0.0010199 -2.07031e-05 -1.06286e-06
-2.07031e-05 4.59291e-05 5.4699e-07
-1.06286e-06 5.4699e-07 -1.3673e-05
0.00108164 -3.90647e-05 -1.45227e-07
-3.90647e-05 6.77499e-05 -1.96312e-07
-1.45227e-07 -1.96312e-07 2.00354e-06
0.00104509 -4.29781e-05 3.13234e-08
-4.29781e-05 4.85836e-05 -1.26728e-06
3.13234e-08 -1.26728e-06 -2.08516e-05
0.000931905 9.5243e-06 -2.17214e-06
9.5243e-06 8.94932e-06 1.88187e-06
-2.17214e-06 1.88187e-06 -3.38622e-05
0.00101622 -9.51273e-06 2.10751e-07
-9.51273e-06 4.55885e-05 1.50433e-07
2.10751e-07 1.50433e-07 -1.38955e-05
0.000976983 -3.10405e-05 5.69919e-07
-3.10405e-05 2.56075e-05 -4.91513e-08
5.69919e-07 -4.91513e-08 -4.14295e-05
0.000840733 1.9846e-05 -3.88912e-06
1.9846e-05 -4.3156e-05 3.26019e-06
-3.88912e-06 3.26019e-06 -5.32328e-05
0.000942951 8.72872e-06 -1.01675e-07
8.72872e-06 6.46696e-06 -1.71967e-08
-1.01675e-07 -1.71967e-08 -3.39269e-05
0.00104251 -3.48504e-06 7.74342e-07
-3.48504e-06 5.56511e-05 -1.01738e-06
7.74342e-07 -1.01738e-06 -2.73688e-06
0.00248135 3.06864e-05 -6.06098e-06
3.06864e-05 0.00077373 1.59623e-06
-6.06098e-06 1.59623e-06 0.000790383
0.000851945 1.77964e-05 1.12851e-07
1.77964e-05 -4.34678e-05 5.04092e-08
1.12851e-07 5.04092e-08 -5.25326e-05
0.00096616 7.41221e-06 2.2617e-06
7.41221e-06 1.16712e-05 -1.9208e-06
2.2617e-06 -1.9208e-06 -2.75008e-05
0.00254114 2.54108e-05 2.93319e-07
2.54108e-05 0.000797477 5.14036e-08
2.93319e-07 5.14036e-08 0.000815089
0.000876855 1.61155e-05 3.27706e-06
1.61155e-05 -3.52158e-05 -3.41258e-06
3.27706e-06 -3.41258e-06 -4.34682e-05
0.00248692 2.23343e-05 1.35454e-05
2.23343e-05 0.000766906 -4.06162e-06
1.35454e-05 -4.06162e-06 0.000785453
0.00114704 3.00409e-05 -6.52239e-07
3.00409e-05 0.000100636 -6.49764e-08
-6.52239e-07 -6.49764e-08 3.00268e-05
0.00106532 2.93208e-05 -1.54359e-07
2.93208e-05 6.03971e-05 -8.86923e-08
-1.54359e-07 -8.86923e-08 -1.19349e-05
0.00104403 2.36315e-06 -1.14313e-06
2.36315e-06 4.75549e-05 -1.23861e-06
-1.14313e-06 -1.23861e-06 -1.43899e-05
0.000948908 -3.979e-06 -2.04286e-06
-3.979e-06 1.39192e-06 -2.31208e-06
-2.04286e-06 -2.31208e-06 -3.82975e-05
0.00103354 5.63044e-06 -7.79733e-08
5.63044e-06 4.23053e-05 5.88286e-08
-7.79733e-08 5.88286e-08 -1.84899e-05
0.00103466 2.8971e-05 7.32699e-07
2.8971e-05 4.57894e-05 9.87859e-07
7.32699e-07 9.87859e-07 -2.71041e-05
0.000899041 -1.46413e-05 -2.67364e-06
-1.46413e-05 -2.75605e-05 -3.49627e-06
-2.67364e-06 -3.49627e-06 -3.45635e-05
0.000952182 -7.56337e-06 -2.35988e-07
-7.56337e-06 8.05965e-07 -3.72744e-08
-2.35988e-07 -3.72744e-08 -3.60784e-05
0.00102847 7.35116e-06 6.03443e-07
7.35116e-06 3.94236e-05 1.68159e-06
6.03443e-07 1.68159e-06 -1.88733e-05
0.00242064 -1.93579e-05 -1.20203e-05
-1.93579e-05 0.000729851 -4.0791e-06
-1.20203e-05 -4.0791e-06 0.000749619
0.000894158 -1.31006e-05 -1.19492e-07
-1.31006e-05 -3.40508e-05 -1.36583e-08
-1.19492e-07 -1.36583e-08 -3.90842e-05
0.000959865 -1.06081e-05 8.45945e-07
-1.06081e-05 2.1404e-06 2.09917e-06
8.45945e-07 2.09917e-06 -3.19322e-05
0.00237236 -1.63092e-05 -5.64312e-07
-1.63092e-05 0.00070074 3.75286e-08
-5.64312e-07 3.75286e-08 0.000721867
0.000884464 -1.13992e-05 1.50266e-06
-1.13992e-05 -4.26899e-05 3.36434e-06
1.50266e-06 3.36434e-06 -4.58116e-05
0.00232378 -1.30008e-05 7.841e-06
-1.30008e-05 0.000671978 4.0108e-06
7.841e-06 4.0108e-06 0.000694404
0.000395489 -1.37748e-05 -5.16504e-06
-1.37748e-05 -8.26672e-05 -2.25819e-06
-5.16504e-06 -2.25819e-06 -6.96076e-05
0.000621996 -2.77423e-06 -3.87894e-07
-2.77423e-06 3.75763e-05 -1.51419e-06
-3.87894e-07 -1.51419e-06 -6.11021e-05
0.000816292 7.86838e-06 -8.90662e-07
7.86838e-06 6.96814e-05 3.41999e-07
-8.90662e-07 3.41999e-07 -2.29034e-05
0.00107156 3.64032e-05 1.38973e-07
3.64032e-05 6.17267e-05 8.65291e-08
1.38973e-07 8.65291e-08 -1.33264e-05
0.00119576 4.06726e-05 -7.49439e-07
4.06726e-05 0.000127096 1.1507e-07
-7.49439e-07 1.1507e-07 5.45595e-05
0.00109394 4.18518e-05 -7.30036e-07
4.18518e-05 6.95023e-05 -1.22912e-07
-7.30036e-07 -1.22912e-07 -7.6109e-06
0.00118435 3.89998e-05 2.62889e-07
3.89998e-05 0.000122847 3.3502e-07
2.62889e-07 3.3502e-07 4.45657e-05
0.00120345 3.94905e-05 6.35726e-07
3.94905e-05 0.000129244 3.94131e-07
6.35726e-07 3.94131e-07 5.27828e-05
0.0010398 3.81748e-05 7.91915e-07
3.81748e-05 5.01213e-05 8.67988e-07
7.91915e-07 8.67988e-07 -2.95724e-05
0.00107735 3.91048e-05 -5.76835e-08
3.91048e-05 7.19872e-05 8.9928e-08
-5.76835e-08 8.9928e-08 -1.06756e-05
0.0011157 4.10551e-05 3.1325e-08
4.10551e-05 8.51828e-05 4.24748e-08
3.1325e-08 4.24748e-08 4.92169e-06
0.00108648 4.1395e-05 -1.4134e-06
4.1395e-05 8.20883e-05 -7.33876e-07
-1.4134e-06 -7.33876e-07 -2.48309e-06
0.00104377 4.23667e-05 -1.89928e-06
4.23667e-05 5.76652e-05 -9.5883e-07
-1.89928e-06 -9.5883e-07 -2.7882e-05
0.00112715 3.60737e-05 3.27843e-07
3.60737e-05 9.91852e-05 3.63295e-07
3.27843e-07 3.63295e-07 1.422e-05
0.00125435 4.12481e-05 8.29973e-08
4.12481e-05 0.000160844 -1.69177e-07
8.29973e-08 -1.69177e-07 7.40357e-05
-0.00252753 -6.51877e-05 5.0784e-05
-6.51877e-05 -0.00143336 2.15209e-05
5.0784e-05 2.15209e-05 -0.00146875
0.00117623 -4.19613e-05 -6.62771e-07
-4.19613e-05 0.000298115 -1.56736e-06
-6.62771e-07 -1.56736e-06 0.000369588
0.000593173 5.40544e-06 1.48779e-05
5.40544e-06 1.39294e-05 6.47961e-06
1.48779e-05 6.47961e-06 -5.26633e-05
6.06896e-05 -7.686e-05 3.70577e-06
-7.686e-05 -0.000498783 -6.18442e-06
3.70577e-06 -6.18442e-06 -0.000332534
0.00359426 -0.000210378 -1.33609e-05
-0.000210378 0.000929597 -5.62585e-05
-1.33609e-05 -5.62585e-05 0.00101347
0.00354026 -6.87602e-05 3.32607e-05
-6.87602e-05 0.000195332 2.90798e-05
3.32607e-05 2.90798e-05 -0.000245542
-0.000100274 -1.78266e-05 -1.42682e-05
-1.78266e-05 -0.000254345 5.50608e-05
-1.42682e-05 5.50608e-05 -0.000767396
0.00126068 8.59774e-05 -2.6102e-05
8.59774e-05 0.000145392 -3.44893e-05
-2.6102e-05 -3.44893e-05 -0.000293008
0.0019246 -0.000173043 -6.4948e-07
-0.000173043 0.000330038 -2.42175e-06
-6.4948e-07 -2.42175e-06 0.00034571
0.00363123 -8.34474e-05 3.17848e-05
-8.34474e-05 0.000416729 4.54165e-05
3.17848e-05 4.54165e-05 -0.000237361
0.000806907 0.000109243 -6.62404e-05
0.000109243 -0.000277585 -8.42025e-05
-6.62404e-05 -8.42025e-05 -0.000656559
0.00301898 -1.33074e-05 -9.55493e-06
-1.33074e-05 0.0003425 2.61399e-06
-9.55493e-06 2.61399e-06 -0.000297655
0.00161195 8.08359e-05 3.62361e-06
8.08359e-05 0.000386281 -4.90499e-06
3.62361e-06 -4.90499e-06 0.000264298
0.000969316 4.94566e-05 7.31831e-08
4.94566e-05 3.58376e-05 -4.62446e-07
7.31831e-08 -4.62446e-07 -4.47265e-05
0.00134456 3.60082e-05 1.43928e-06
3.60082e-05 0.000195225 1.98105e-06
1.43928e-06 1.98105e-06 0.000111296
-5.90164e-05 -7.55114e-06 -4.79928e-06
-7.55114e-06 -9.50042e-05 2.67489e-07
-4.79928e-06 2.67489e-07 -0.000255883
0.00150502 3.92296e-05 3.3899e-06
3.92296e-05 0.000339247 6.93956e-08
3.3899e-06 6.93956e-08 0.000197764
0.00101937 8.7475e-05 5.11961e-06
8.7475e-05 0.000192128 1.19423e-06
5.11961e-06 1.19423e-06 8.75932e-05
-0.000239858 8.02375e-05 1.04629e-05
8.02375e-05 -0.000503107 1.18028e-05
1.04629e-05 1.18028e-05 -0.000584393
-0.00065105 -4.86352e-06 7.09124e-05
-4.86352e-06 -0.000576109 -4.35648e-06
7.09124e-05 -4.35648e-06 -0.00053851
0.000731306 -8.17223e-06 -1.1484e-05
-8.17223e-06 7.8612e-05 2.27885e-09
-1.1484e-05 2.27885e-09 7.7761e-05
-0.000465722 -4.97301e-06 1.48039e-05
-4.97301e-06 -0.000629774 -8.96945e-07
1.48039e-05 -8.96945e-07 -0.000738422
0.00175696 -5.21476e-05 -1.76151e-05
-5.21476e-05 0.000585463 2.34896e-06
-1.76151e-05 2.34896e-06 0.000362577
0.000711441 -7.05522e-05 -3.01218e-05
-7.05522e-05 0.000135777 1.81591e-06
-3.01218e-05 1.81591e-06 -0.000246006
0.00109 6.69937e-06 6.84756e-06
6.69937e-06 0.000226483 -3.03156e-06
6.84756e-06 -3.03156e-06 0.000227863
0.002761 0.000178831 2.50765e-05
0.000178831 0.000392043 -3.48396e-05
2.50765e-05 -3.48396e-05 -0.000334008
0.00330339 0.000109202 -8.8276e-05
0.000109202 0.00138835 2.26139e-05
-8.8276e-05 2.26139e-05 0.00129679
0.00152423 -9.18381e-05 3.45917e-06
-9.18381e-05 5.89417e-05 -1.35564e-06
3.45917e-06 -1.35564e-06 3.80497e-05
-7.77911e-05 5.08092e-05 -2.68954e-05
5.08092e-05 -0.000289964 4.16873e-06
-2.68954e-05 4.16873e-06 -0.000354174
0.00283251 8.67021e-05 -1.12977e-05
8.67021e-05 0.000526855 4.86363e-06
-1.12977e-05 4.86363e-06 -0.00016647
0.000325047 3.49619e-05 2.88602e-06
3.49619e-05 -6.36768e-05 2.76334e-06
2.88602e-06 2.76334e-06 -0.000321044
0.00135441 -7.43751e-05 7.46762e-06
-7.43751e-05 -0.000251243 7.21221e-07
7.46762e-06 7.21221e-07 -0.000164375
0.00446859 7.07596e-05 1.2145e-05
7.07596e-05 0.00123565 6.37268e-06
1.2145e-05 6.37268e-06 0.000664388
0.000774278 5.71746e-05 -2.12379e-06
5.71746e-05 0.000268165 -9.77649e-07
-2.12379e-06 -9.77649e-07 -1.53033e-05
-8.69755e-06 -8.85412e-05 2.3536e-06
-8.85412e-05 -0.000379118 -8.78395e-06
2.3536e-06 -8.78395e-06 -0.000606771
0.00129281 -0.000127299 -5.04914e-08
-0.000127299 6.99868e-05 -4.83778e-07
-5.04914e-08 -4.83778e-07 -5.30952e-05
0.00126747 -0.000111498 -1.59698e-05
-0.000111498 -0.000111967 7.44801e-06
-1.59698e-05 7.44801e-06 -0.000160469
0.00115615 -9.01256e-05 -3.32358e-07
-9.01256e-05 3.71971e-05 -3.92838e-06
-3.32358e-07 -3.92838e-06 -8.54433e-05
0.00137972 -8.21948e-05 -1.84078e-07
-8.21948e-05 3.81153e-05 7.51026e-07
-1.84078e-07 7.51026e-07 -2.54825e-05
0.00176314 -6.075e-05 -3.71713e-06
-6.075e-05 0.000173074 2.52783e-06
-3.71713e-06 2.52783e-06 0.000151903
0.000953126 -6.06602e-05 2.83707e-06
-6.06602e-05 -7.87934e-05 -7.74063e-07
2.83707e-06 -7.74063e-07 -0.000165981
0.00131666 -5.41492e-05 -8.1164e-08
-5.41492e-05 4.01303e-05 7.54615e-08
-8.1164e-08 7.54615e-08 -1.46091e-05
0.00143334 -4.33453e-05 -5.48127e-07
-4.33453e-05 5.62328e-05 3.27474e-07
-5.48127e-07 3.27474e-07 2.35604e-05
0.0010913 -4.97098e-05 1.73656e-06
-4.97098e-05 -1.59987e-05 -1.52851e-07
1.73656e-06 -1.52851e-07 -9.2026e-05
0.0012607 -4.44886e-05 9.29278e-08
-4.44886e-05 3.02003e-05 2.34114e-07
9.29278e-08 2.34114e-07 -2.62166e-05
0.00125815 -3.84501e-05 -5.51234e-07
-3.84501e-05 1.14294e-05 3.4445e-07
-5.51234e-07 3.4445e-07 -3.33439e-05
0.00145249 -3.87045e-05 -7.63151e-07
-3.87045e-05 0.000129909 3.90371e-07
-7.63151e-07 3.90371e-07 7.85348e-05
0.00130436 -4.16028e-05 -4.37922e-07
-4.16028e-05 6.77557e-05 9.6693e-07
-4.37922e-07 9.6693e-07 1.04305e-05
0.00127717 -4.23843e-05 -8.05155e-07
-4.23843e-05 6.98099e-05 -8.48802e-07
-8.05155e-07 -8.48802e-07 7.80853e-06
0.00125023 -4.53943e-05 -1.21317e-06
-4.53943e-05 8.60466e-05 5.84899e-07
-1.21317e-06 5.84899e-07 1.5523e-05
0.00130402 -4.82289e-05 4.76292e-07
-4.82289e-05 0.000102775 -1.02726e-07
4.76292e-07 -1.02726e-07 2.96418e-05
0.0012194 -4.52899e-05 1.69532e-06
-4.52899e-05 4.64075e-05 6.50434e-07
1.69532e-06 6.50434e-07 -2.39309e-05
0.000940863 -4.03837e-05 -1.2744e-06
-4.03837e-05 -2.44354e-05 1.61162e-06
-1.2744e-06 1.61162e-06 -9.38431e-05
0.0011283 -4.6009e-05 1.01093e-07
-4.6009e-05 5.70638e-05 -6.60696e-08
1.01093e-07 -6.60696e-08 -1.78704e-05
0.00128463 -5.0892e-05 1.82099e-06
-5.0892e-05 0.000122217 -1.70327e-06
1.82099e-06 -1.70327e-06 4.24172e-05
0.00102509 -2.71881e-05 -8.23711e-07
-2.71881e-05 4.46661e-05 7.25372e-07
-8.23711e-07 7.25372e-07 -1.57071e-05
0.00109873 -4.18958e-05 6.2916e-08
-4.18958e-05 7.07232e-05 -7.47366e-08
6.2916e-08 -7.47366e-08 3.42545e-06
0.000908775 -4.22252e-05 4.80573e-07
-4.22252e-05 -2.72595e-05 -1.93052e-06
4.80573e-07 -1.93052e-06 -0.000102414
0.000931858 5.13659e-06 -2.36918e-06
5.13659e-06 1.37838e-05 1.75176e-06
-2.36918e-06 1.75176e-06 -3.15329e-05
0.00103514 -2.14708e-05 -6.37425e-08
-2.14708e-05 5.23792e-05 2.4248e-08
-6.37425e-08 2.4248e-08 -7.10904e-06
0.00110644 -3.89475e-05 4.04335e-07
-3.89475e-05 7.90956e-05 -6.43219e-07
4.04335e-07 -6.43219e-07 1.33335e-05
0.00081988 2.20217e-05 -4.05743e-06
2.20217e-05 -4.46834e-05 3.17586e-06
-4.05743e-06 3.17586e-06 -5.67036e-05
0.000938948 1.11414e-05 3.12462e-08
1.11414e-05 1.15597e-05 1.37357e-08
3.12462e-08 1.37357e-08 -3.12338e-05
0.00103718 -1.10654e-05 1.12248e-06
-1.10654e-05 5.49528e-05 -6.41133e-07
1.12248e-06 -6.41133e-07 -4.40393e-06
0.00255196 3.15716e-05 -1.57673e-05
3.15716e-05 0.000813568 3.71399e-06
-1.57673e-05 3.71399e-06 0.000829253
0.000857014 2.01064e-05 -1.3438e-09
2.01064e-05 -3.48175e-05 2.56891e-08
-1.3438e-09 2.56891e-08 -4.50252e-05
0.000967237 7.02965e-06 2.25235e-06
7.02965e-06 1.80187e-05 -1.91987e-06
2.25235e-06 -1.91987e-06 -2.23938e-05
0.00180045 2.5396e-05 5.88161e-06
2.5396e-05 0.000432823 -1.07741e-06
5.88161e-06 -1.07741e-06 0.000446263
0.000872664 1.80497e-05 3.75069e-06
1.80497e-05 -3.30569e-05 -3.30651e-06
3.75069e-06 -3.30651e-06 -4.22132e-05
0.00250127 2.5373e-05 1.45355e-05
2.5373e-05 0.000778472 -3.96837e-06
1.45355e-05 -3.96837e-06 0.000796094
0.00112768 2.83305e-05 -6.46689e-07
2.83305e-05 9.43975e-05 2.08459e-07
-6.46689e-07 2.08459e-07 2.54762e-05
0.00106526 2.68385e-05 2.38244e-07
2.68385e-05 5.96823e-05 3.29463e-07
2.38244e-07 3.29463e-07 -1.12851e-05
0.001025 -9.30341e-09 -1.30089e-06
-9.30341e-09 4.00777e-05 -9.93965e-07
-1.30089e-06 -9.93965e-07 -2.25072e-05
0.00110445 2.84527e-05 6.99607e-07
2.84527e-05 8.0328e-05 5.303e-07
6.99607e-07 5.303e-07 8.18246e-06
0.00103152 2.44934e-06 6.75571e-09
2.44934e-06 4.19699e-05 7.1382e-08
6.75571e-09 7.1382e-08 -2.01218e-05
0.00095772 -1.41312e-06 -2.40806e-06
-1.41312e-06 6.8584e-06 -2.20171e-06
-2.40806e-06 -2.20171e-06 -3.50671e-05
0.000883456 -1.60878e-05 -3.21075e-06
-1.60878e-05 -3.11597e-05 -3.55626e-06
-3.21075e-06 -3.55626e-06 -4.00744e-05
0.000954564 -1.88171e-06 -2.29141e-07
-1.88171e-06 3.71717e-06 -1.29268e-08
-2.29141e-07 -1.29268e-08 -3.59104e-05
0.00103155 6.20112e-06 8.74396e-07
6.20112e-06 4.19104e-05 1.60199e-06
8.74396e-07 1.60199e-06 -1.90724e-05
0.00247481 -2.23598e-05 -1.35363e-05
-2.23598e-05 0.000761521 -4.0774e-06
-1.35363e-05 -4.0774e-06 0.000780023
0.000882743 -1.45464e-05 -1.24495e-07
-1.45464e-05 -3.55439e-05 -1.76883e-08
-1.24495e-07 -1.76883e-08 -4.24282e-05
0.000962029 -5.95696e-06 1.24017e-06
-5.95696e-06 5.08502e-06 2.27379e-06
1.24017e-06 2.27379e-06 -3.16725e-05
0.00242582 -1.94144e-05 -4.89637e-07
-1.94144e-05 0.000731915 4.283e-08
-4.89637e-07 4.283e-08 0.000751801
0.000875772 -1.30458e-05 1.90961e-06
-1.30458e-05 -4.29462e-05 3.39331e-06
1.90961e-06 3.39331e-06 -4.78838e-05
0.00237577 -1.63068e-05 9.46005e-06
-1.63068e-05 0.000701904 4.007e-06
9.46005e-06 4.007e-06 0.000723171
0.000312362 3.1674e-05 8.96987e-05
3.1674e-05 -0.000273316 6.7961e-06
8.96987e-05 6.7961e-06 -0.000424627
0.00152504 -1.91969e-05 1.46708e-06
-1.91969e-05 0.000561647 -1.01795e-06
1.46708e-06 -1.01795e-06 0.000584537
0.000722454 6.183e-07 1.4031e-05
6.183e-07 0.000103199 1.04388e-06
1.4031e-05 1.04388e-06 4.92855e-06
0.00104708 3.58453e-05 1.30505e-06
3.58453e-05 4.91148e-05 2.09433e-07
1.30505e-06 2.09433e-07 -2.61964e-05
0.00106605 4.105e-05 7.29378e-07
4.105e-05 5.73328e-05 2.76972e-08
7.29378e-07 2.76972e-08 -1.98444e-05
0.00113928 4.00642e-05 2.94037e-08
4.00642e-05 0.0001008 -3.8902e-08
2.94037e-08 -3.8902e-08 2.85368e-05
0.00115149 4.27915e-05 -4.09634e-07
4.27915e-05 0.000111474 -3.60133e-08
-4.09634e-07 -3.60133e-08 3.95852e-05
0.00112939 4.30224e-05 -1.53426e-06
4.30224e-05 9.55589e-05 3.01212e-08
-1.53426e-06 3.01212e-08 1.92843e-05
0.0011186 3.98997e-05 6.8077e-07
3.98997e-05 9.17038e-05 7.33868e-07
6.8077e-07 7.33868e-07 9.31351e-06
0.00112319 4.11622e-05 1.25776e-06
4.11622e-05 8.8553e-05 5.94405e-07
1.25776e-06 5.94405e-07 8.72016e-06
0.00102845 4.03599e-05 -3.18878e-07
4.03599e-05 5.4484e-05 -1.72291e-07
-3.18878e-07 -1.72291e-07 -2.97799e-05
0.00072278 3.77227e-05 -1.25922e-06
3.77227e-05 -9.36348e-05 2.88454e-07
-1.25922e-06 2.88454e-07 -0.000171701
0.000875361 4.38198e-05 -1.91669e-06
4.38198e-05 -1.93891e-05 -6.0051e-07
-1.91669e-06 -6.0051e-07 -0.000105547
0.00193475 7.42084e-05 5.37303e-07
7.42084e-05 0.000485738 -9.41067e-07
5.37303e-07 -9.41067e-07 0.000392325
0.00115087 4.339e-05 -9.58496e-07
4.339e-05 0.00011415 1.38373e-07
-9.58496e-07 1.38373e-07 2.7117e-05
0.00108732 3.55725e-05 7.03615e-07
3.55725e-05 8.23832e-05 6.22626e-07
7.03615e-07 6.22626e-07 -4.14126e-06
0.00666899 -4.19304e-05 -1.22062e-05
-4.19304e-05 0.00176959 -8.53253e-06
-1.22062e-05 -8.53253e-06 0.00120783
-0.000119604 -8.01664e-05 9.75516e-06
-8.01664e-05 -0.000421752 4.56818e-06
9.75516e-06 4.56818e-06 -0.000504153
0.00207971 -4.61519e-05 -1.52174e-06
-4.61519e-05 0.000797276 -7.32478e-07
-1.52174e-06 -7.32478e-07 0.000874803
-0.0022749 -0.00011389 -3.23997e-05
-0.00011389 -0.00159553 -2.76274e-05
-3.23997e-05 -2.76274e-05 -0.0014816
0.0068642 -0.000174935 5.79915e-05
-0.000174935 0.00169535 5.44749e-05
5.79915e-05 5.44749e-05 0.000821358
0.00140693 6.65617e-05 2.77304e-05
6.65617e-05 0.00050304 1.50738e-06
2.77304e-05 1.50738e-06 0.000273048
0.00113476 9.74235e-05 -2.22541e-05
9.74235e-05 1.24507e-05 -2.49169e-05
-2.22541e-05 -2.49169e-05 -0.000256045
0.00430366 -0.00013297 1.63582e-05
-0.00013297 0.000963306 1.51773e-05
1.63582e-05 1.51773e-05 0.000428518
0.00117728 4.81865e-05 -4.32773e-05
4.81865e-05 1.27253e-05 -4.52339e-05
-4.32773e-05 -4.52339e-05 -0.000242713
0.00234788 0.000104578 1.57437e-05
0.000104578 0.000555967 6.4834e-06
1.57437e-05 6.4834e-06 0.000427389
0.00107775 7.03687e-05 -1.11787e-06
7.03687e-05 0.000137947 -3.0905e-06
-1.11787e-06 -3.0905e-06 1.19437e-05
0.000954739 4.52204e-05 1.35721e-06
4.52204e-05 2.04775e-05 3.62531e-06
1.35721e-06 3.62531e-06 -5.67739e-05
0.00231553 0.00010892 -1.15186e-05
0.00010892 0.000785438 -1.38232e-05
-1.15186e-05 -1.38232e-05 0.000689312
0.000354382 9.97122e-05 -5.79702e-06
9.97122e-05 -0.000339382 2.15072e-06
-5.79702e-06 2.15072e-06 -0.000400805
0.000991651 5.08106e-05 -1.33245e-05
5.08106e-05 -0.000311173 -3.37121e-06
-1.33245e-05 -3.37121e-06 -0.000707908
0.00150045 1.26423e-05 4.96988e-07
1.26423e-05 0.000278698 4.13363e-06
4.96988e-07 4.13363e-06 0.00019042
-0.00108788 -7.3574e-06 -4.28946e-06
-7.3574e-06 -0.000990085 4.50003e-07
-4.28946e-06 4.50003e-07 -0.0010094
0.00168142 -0.00010044 -2.16235e-05
-0.00010044 0.000281023 2.14691e-07
-2.16235e-05 2.14691e-07 0.000162462
0.00152221 2.40678e-05 2.24751e-05
2.40678e-05 0.000186349 -2.3368e-05
2.24751e-05 -2.3368e-05 -0.000235681
0.000430702 5.93333e-06 -0.000109142
5.93333e-06 -0.000195582 1.79304e-05
-0.000109142 1.79304e-05 -0.000351118
0.00502598 0.000185298 -1.38819e-05
0.000185298 0.00169867 4.7272e-06
-1.38819e-05 4.7272e-06 0.00105126
0.00179373 -7.75191e-05 1.11487e-06
-7.75191e-05 -4.2229e-05 -8.8686e-07
1.11487e-06 -8.8686e-07 4.19937e-05
0.00424473 0.000104369 2.3616e-05
0.000104369 0.00120478 2.74207e-06
2.3616e-05 2.74207e-06 0.000701302
0.00158099 5.23064e-05 2.55123e-05
5.23064e-05 0.000332187 -1.05205e-05
2.55123e-05 -1.05205e-05 -6.41689e-05
0.00177556 -4.86143e-05 -2.66593e-06
-4.86143e-05 -0.000181676 -2.72956e-06
-2.66593e-06 -2.72956e-06 -5.19554e-05
0.00101059 6.18818e-05 -2.22241e-05
6.18818e-05 0.000372894 1.31438e-05
-2.22241e-05 1.31438e-05 0.000192867
0.00146473 -0.000126616 9.47924e-06
-0.000126616 0.000166392 -7.25665e-06
9.47924e-06 -7.25665e-06 4.16192e-05
0.00163399 -0.000112926 -3.23445e-06
-0.000112926 5.35379e-05 1.74233e-06
-3.23445e-06 1.74233e-06 1.46949e-05
0.00189584 -5.92014e-05 -9.00381e-06
-5.92014e-05 0.000117135 4.41759e-06
-9.00381e-06 4.41759e-06 0.000120093
0.000856631 -7.4547e-05 6.66014e-06
-7.4547e-05 -0.00021595 -8.38524e-07
6.66014e-06 -8.38524e-07 -0.000276416
0.00138136 -5.71595e-05 1.18704e-06
-5.71595e-05 -7.39849e-06 8.15351e-07
1.18704e-06 8.15351e-07 -2.63715e-05
0.00143092 -3.46464e-05 -5.36806e-07
-3.46464e-05 -3.38759e-06 3.03634e-06
-5.36806e-07 3.03634e-06 -1.36869e-05
0.00111641 -5.1527e-05 2.22785e-06
-5.1527e-05 -6.48577e-05 5.86307e-07
2.22785e-06 5.86307e-07 -0.000117925
0.001341 -4.27677e-05 1.93118e-07
-4.27677e-05 1.30492e-05 1.12569e-06
1.93118e-07 1.12569e-06 -2.03673e-05
0.00135341 -3.3035e-05 5.18421e-07
-3.3035e-05 1.71722e-05 2.09605e-06
5.18421e-07 2.09605e-06 -1.54044e-05
0.00122295 -4.38248e-05 1.66077e-06
-4.38248e-05 1.08583e-05 1.19533e-06
1.66077e-06 1.19533e-06 -4.53859e-05
0.00130541 -3.94792e-05 6.55733e-08
-3.94792e-05 3.47919e-05 7.5843e-07
6.55733e-08 7.5843e-07 -1.07651e-05
0.0013353 -3.41258e-05 -4.16131e-07
-3.41258e-05 5.07112e-05 1.06133e-06
-4.16131e-07 1.06133e-06 4.74494e-06
0.0013064 -3.75798e-05 -8.20509e-07
-3.75798e-05 6.06018e-05 7.30581e-07
-8.20509e-07 7.30581e-07 1.0582e-05
0.00142257 -3.8672e-05 1.81174e-07
-3.8672e-05 0.000125777 -2.46493e-07
1.81174e-07 -2.46493e-07 6.95921e-05
0.00129835 -4.06924e-05 1.31882e-06
-4.06924e-05 6.42151e-05 1.55804e-06
1.31882e-06 1.55804e-06 8.24321e-06
0.00128828 -4.22529e-05 5.20016e-08
-4.22529e-05 7.46417e-05 -3.05841e-07
5.20016e-08 -3.05841e-07 1.2461e-05
0.00127848 -4.10892e-05 -6.49093e-07
-4.10892e-05 7.87106e-05 3.49605e-08
-6.49093e-07 3.49605e-08 1.44311e-05
0.00101636 -3.96277e-05 -1.41035e-06
-3.96277e-05 -1.34931e-05 1.12008e-06
-1.41035e-06 1.12008e-06 -8.13502e-05
0.00124692 -4.52795e-05 3.89624e-08
-4.52795e-05 8.49944e-05 -1.27704e-07
3.89624e-08 -1.27704e-07 1.41716e-05
0.00133641 -4.83938e-05 1.59068e-06
-4.83938e-05 0.000119977 -4.9473e-07
1.59068e-06 -4.9473e-07 4.68512e-05
0.00106124 -3.30144e-05 -1.05723e-06
-3.30144e-05 5.04684e-05 1.15161e-06
-1.05723e-06 1.15161e-06 -1.13701e-05
0.00101071 -4.15013e-05 -2.85109e-07
-4.15013e-05 1.16642e-05 2.85709e-07
-2.85109e-07 2.85709e-07 -5.75054e-05
0.00126945 -4.81221e-05 1.05296e-06
-4.81221e-05 0.000127286 -1.41934e-06
1.05296e-06 -1.41934e-06 5.29677e-05
0.000919473 2.28895e-06 -2.29468e-06
2.28895e-06 1.1071e-05 1.65035e-06
-2.29468e-06 1.65035e-06 -3.68877e-05
0.001047 -2.77013e-05 -4.70299e-08
-2.77013e-05 5.44105e-05 -3.62335e-08
-4.70299e-08 -3.62335e-08 -5.95256e-06
0.00112079 -4.18454e-05 5.00173e-07
-4.18454e-05 8.08139e-05 -1.16092e-06
5.00173e-07 -1.16092e-06 1.34634e-05
0.000789661 2.35546e-05 -4.27451e-06
2.35546e-05 -5.08458e-05 3.11711e-06
-4.27451e-06 3.11711e-06 -6.53519e-05
0.000941405 4.16709e-06 4.60441e-08
4.16709e-06 1.68357e-05 3.48363e-08
4.60441e-08 3.48363e-08 -2.82344e-05
0.00104883 -2.18344e-05 1.07255e-06
-2.18344e-05 5.81317e-05 -6.11422e-07
1.07255e-06 -6.11422e-07 -1.2453e-06
0.00254161 3.46731e-05 -1.59326e-05
3.46731e-05 0.000816415 3.52972e-06
-1.59326e-05 3.52972e-06 0.000830746
0.000845329 2.23394e-05 1.43456e-08
2.23394e-05 -3.19642e-05 6.15494e-09
1.43456e-08 6.15494e-09 -4.41474e-05
0.000949481 6.36282e-06 2.31774e-06
6.36282e-06 1.56237e-05 -1.73318e-06
2.31774e-06 -1.73318e-06 -2.69107e-05
0.00250341 3.15027e-05 1.85111e-07
3.15027e-05 0.000790663 6.26053e-08
1.85111e-07 6.26053e-08 0.000806348
0.000876075 2.03758e-05 3.99749e-06
2.03758e-05 -2.51163e-05 -3.21497e-06
3.99749e-06 -3.21497e-06 -3.54607e-05
0.00248145 2.8396e-05 1.50868e-05
2.8396e-05 0.00077398 -3.80581e-06
1.50868e-05 -3.80581e-06 0.000790753
0.00105726 3.19694e-05 -6.80107e-07
3.19694e-05 6.50174e-05 -1.67319e-07
-6.80107e-07 -1.67319e-07 -4.62915e-06
0.0011019 2.86054e-05 1.95338e-07
2.86054e-05 8.25946e-05 1.38331e-07
1.95338e-07 1.38331e-07 1.36439e-05
0.000919849 1.56121e-06 -1.66972e-06
1.56121e-06 -7.16891e-06 -8.48659e-07
-1.66972e-06 -8.48659e-07 -7.04861e-05
0.000980147 2.38339e-05 1.32156e-06
2.38339e-05 1.70789e-05 6.56575e-07
1.32156e-06 6.56575e-07 -5.42509e-05
0.000971808 3.34406e-07 -7.72295e-08
3.34406e-07 1.40206e-05 1.3009e-07
-7.72295e-08 1.3009e-07 -4.89513e-05
0.000956666 -3.32258e-06 -2.5314e-06
-3.32258e-06 9.66537e-06 -1.99911e-06
-2.5314e-06 -1.99911e-06 -3.41461e-05
0.00102101 2.48852e-06 1.14885e-06
2.48852e-06 3.73904e-05 1.38056e-06
1.14885e-06 1.38056e-06 -2.48562e-05
0.000954361 -6.24876e-07 -9.23021e-08
-6.24876e-07 5.04054e-06 2.25078e-08
-9.23021e-08 2.25078e-08 -3.68778e-05
0.000870388 -1.78208e-05 -3.72675e-06
-1.78208e-05 -3.35615e-05 -3.51525e-06
-3.72675e-06 -3.51525e-06 -4.42263e-05
0.00252404 -2.53987e-05 -1.47371e-05
-2.53987e-05 0.00079072 -4.04472e-06
-1.47371e-05 -4.04472e-06 0.000807957
0.000869374 -1.59142e-05 -1.40945e-07
-1.59142e-05 -3.82531e-05 -3.08698e-09
-1.40945e-07 -3.08698e-09 -4.70215e-05
0.000960797 -4.555e-07 1.85113e-06
-4.555e-07 6.35692e-06 2.41225e-06
1.85113e-06 2.41225e-06 -3.32232e-05
0.00248131 -2.24266e-05 -4.09968e-07
-2.24266e-05 0.000764304 5.00169e-08
-4.09968e-07 5.00169e-08 0.000782915
0.000867669 -1.44577e-05 2.3719e-06
-1.44577e-05 -4.29176e-05 3.46545e-06
2.3719e-06 3.46545e-06 -4.96878e-05
0.00242963 -1.94558e-05 1.11271e-05
-1.94558e-05 0.000733288 4.01036e-06
1.11271e-05 4.01036e-06 0.000753301
0.00514779 3.11876e-05 1.36229e-05
3.11876e-05 0.00153477 -7.0726e-07
1.36229e-05 -7.0726e-07 0.0011077
-0.000473031 -2.71916e-06 1.6595e-05
-2.71916e-06 -0.000360234 5.19939e-07
1.6595e-05 5.19939e-07 -0.000367847
0.000570771 -1.53495e-05 7.62395e-06
-1.53495e-05 1.66906e-05 7.53442e-07
7.62395e-06 7.53442e-07 2.97834e-05
0.00106561 4.07927e-05 1.83525e-06
4.07927e-05 5.87905e-05 1.08576e-08
1.83525e-06 1.08576e-08 -1.85306e-05
0.00108879 3.95408e-05 8.43792e-07
3.95408e-05 7.74377e-05 4.09204e-08
8.43792e-07 4.09204e-08 5.43622e-06
0.00116508 4.37848e-05 8.55283e-09
4.37848e-05 0.00011285 -2.72229e-08
8.55283e-09 -2.72229e-08 3.67082e-05
0.00112896 4.26869e-05 -1.25768e-07
4.26869e-05 0.000100535 -1.37654e-07
-1.25768e-07 -1.37654e-07 2.86217e-05
0.00112689 4.34379e-05 8.55332e-07
4.34379e-05 0.000104422 3.68214e-07
8.55332e-07 3.68214e-07 3.14178e-05
0.000939699 4.06889e-05 -1.43306e-06
4.06889e-05 1.18009e-05 4.34105e-07
-1.43306e-06 4.34105e-07 -6.27155e-05
0.000959447 3.90681e-05 1.21547e-06
3.90681e-05 2.12346e-05 5.58729e-07
1.21547e-06 5.58729e-07 -6.26627e-05
0.000903822 4.06194e-05 6.50066e-07
4.06194e-05 -5.54097e-06 -2.00296e-07
6.50066e-07 -2.00296e-07 -8.42943e-05
0.000916776 4.5099e-05 7.19532e-07
4.5099e-05 7.31789e-06 2.13325e-07
7.19532e-07 2.13325e-07 -7.95467e-05
0.00070092 4.40543e-05 -6.26788e-07
4.40543e-05 -0.000110747 6.1295e-08
-6.26788e-07 6.1295e-08 -0.000188833
0.00245633 8.21599e-05 2.19632e-07
8.21599e-05 0.000709133 1.12984e-07
2.19632e-07 1.12984e-07 0.000622663
0.00167041 8.51605e-05 1.90399e-07
8.51605e-05 0.000267049 -2.96475e-06
1.90399e-07 -2.96475e-06 0.000156897
0.00119078 6.04677e-05 3.6671e-07
6.04677e-05 0.000119678 -1.17215e-07
3.6671e-07 -1.17215e-07 2.796e-05
0.0012404 4.66797e-05 2.43648e-07
4.66797e-05 0.000162496 -7.15967e-08
2.43648e-07 -7.15967e-08 7.37716e-05
0.000130452 -2.57083e-05 -2.55625e-05
-2.57083e-05 -0.000251878 -1.61507e-05
-2.55625e-05 -1.61507e-05 -0.000344332
0.0032298 -4.44611e-05 -1.96286e-05
-4.44611e-05 0.000554227 -2.8776e-06
-1.96286e-05 -2.8776e-06 0.000113911
0.00247615 -0.000106672 -3.32752e-05
-0.000106672 0.000923939 -1.07115e-05
-3.32752e-05 -1.07115e-05 0.000829597
0.00395137 -7.20499e-05 6.22655e-05
-7.20499e-05 0.000717074 2.26299e-05
6.22655e-05 2.26299e-05 9.77396e-05
0.00293 0.000118035 2.208e-05
0.000118035 0.00100729 3.69477e-05
2.208e-05 3.69477e-05 0.000842958
0.00082163 3.82922e-05 -1.02332e-05
3.82922e-05 -2.66896e-06 -2.849e-06
-1.02332e-05 -2.849e-06 -0.00012162
0.00116971 3.7401e-05 1.91843e-05
3.7401e-05 -0.000147835 1.06911e-05
1.91843e-05 1.06911e-05 -0.000223825
0.000844763 9.02102e-05 -6.54042e-07
9.02102e-05 -0.000140076 3.55847e-06
-6.54042e-07 3.55847e-06 -0.000270218
0.000530209 5.93676e-05 -3.74887e-07
5.93676e-05 -0.000120541 3.61943e-06
-3.74887e-07 3.61943e-06 -0.000246882
0.00171735 0.000132031 -3.15931e-05
0.000132031 0.000176231 -3.54202e-05
-3.15931e-05 -3.54202e-05 0.000151673
0.00160826 1.92486e-05 -0.00010481
1.92486e-05 0.000382349 -6.89179e-06
-0.00010481 -6.89179e-06 0.000152116
0.00467527 4.62751e-05 1.52054e-05
4.62751e-05 0.00144811 -1.17682e-07
1.52054e-05 -1.17682e-07 0.00102554
-0.00268354 -6.15148e-06 -7.00653e-05
-6.15148e-06 -0.00171724 5.21579e-06
-7.00653e-05 5.21579e-06 -0.00169367
0.00221313 -7.96512e-05 -3.63931e-06
-7.96512e-05 0.000156922 1.40952e-06
-3.63931e-06 1.40952e-06 0.000240951
0.000298431 6.94741e-05 2.43419e-05
6.94741e-05 -4.6387e-05 -1.16704e-05
2.43419e-05 -1.16704e-05 -0.000322635
0.000456401 5.73747e-06 2.22927e-05
5.73747e-06 -0.000311988 -3.23588e-06
2.22927e-05 -3.23588e-06 -0.000732943
0.00181524 -5.63411e-05 -1.89802e-06
-5.63411e-05 -0.000131199 2.16101e-06
-1.89802e-06 2.16101e-06 -3.50324e-05
0.00110056 7.67339e-05 4.08359e-06
7.67339e-05 0.000241637 -4.19197e-06
4.08359e-06 -4.19197e-06 6.05407e-05
0.00146174 3.34359e-06 2.43064e-06
3.34359e-06 -0.000276171 -1.3158e-05
2.43064e-06 -1.3158e-05 -0.000193541
0.000838151 5.83014e-05 1.37351e-06
5.83014e-05 -0.000171762 -2.98913e-06
1.37351e-06 -2.98913e-06 -0.000225666
0.00186994 -0.000112275 9.19289e-06
-0.000112275 0.000160902 -3.12488e-06
9.19289e-06 -3.12488e-06 0.000131178
0.00164278 -5.73871e-05 2.38364e-06
-5.73871e-05 -1.90357e-06 -4.28689e-07
2.38364e-06 -4.28689e-07 7.03279e-06
0.00176057 -3.69987e-06 -1.53849e-06
-3.69987e-06 0.000114052 3.25709e-06
-1.53849e-06 3.25709e-06 0.000109452
0.00108544 -5.4812e-05 6.06144e-06
-5.4812e-05 -0.000145798 -8.96339e-07
6.06144e-06 -8.96339e-07 -0.000164025
0.00151019 -3.56144e-05 1.33231e-06
-3.56144e-05 4.19509e-05 4.91265e-07
1.33231e-06 4.91265e-07 2.93015e-05
0.00142681 -1.66588e-05 -7.0313e-08
-1.66588e-05 1.71579e-05 2.59259e-06
-7.0313e-08 2.59259e-06 -1.4605e-05
0.00125068 -4.21261e-05 2.23231e-06
-4.21261e-05 -2.79406e-05 8.70884e-07
2.23231e-06 8.70884e-07 -6.23126e-05
0.00137909 -3.36101e-05 3.5382e-07
-3.36101e-05 3.41409e-05 6.07445e-07
3.5382e-07 6.07445e-07 7.1812e-08
0.0014507 -2.55809e-05 -6.08985e-07
-2.55809e-05 7.61928e-05 1.62585e-06
-6.08985e-07 1.62585e-06 2.99361e-05
0.00135459 -4.04731e-05 9.43727e-07
-4.04731e-05 5.93338e-05 7.60655e-07
9.43727e-07 7.60655e-07 1.2951e-05
0.00129851 -3.5097e-05 -1.63567e-07
-3.5097e-05 3.77087e-05 9.22567e-09
-1.63567e-07 9.22567e-09 -8.669e-06
0.00129826 -3.38437e-05 5.01402e-07
-3.38437e-05 5.06552e-05 9.2483e-07
5.01402e-07 9.2483e-07 -5.1185e-06
0.00118513 -3.66468e-05 1.56313e-07
-3.66468e-05 3.36922e-06 8.19431e-07
1.56313e-07 8.19431e-07 -4.53442e-05
0.00131498 -3.70572e-05 -5.87676e-07
-3.70572e-05 7.34126e-05 -4.03299e-07
-5.87676e-07 -4.03299e-07 1.82221e-05
0.00139774 -3.81783e-05 -1.64864e-07
-3.81783e-05 0.000122879 1.92907e-07
-1.64864e-07 1.92907e-07 6.1592e-05
0.00129992 -4.21192e-05 9.07997e-07
-4.21192e-05 7.97232e-05 1.32755e-07
9.07997e-07 1.32755e-07 1.73639e-05
0.00127784 -4.09206e-05 1.1568e-07
-4.09206e-05 7.84525e-05 -2.36688e-07
1.1568e-07 -2.36688e-07 1.39485e-05
0.00128399 -3.93785e-05 -8.00718e-07
-3.93785e-05 9.54886e-05 5.16906e-07
-8.00718e-07 5.16906e-07 3.14309e-05
0.000917342 -3.19536e-05 -1.84136e-06
-3.19536e-05 -4.10981e-05 1.39316e-06
-1.84136e-06 1.39316e-06 -0.00010361
0.00109261 -4.08524e-05 -2.43583e-07
-4.08524e-05 2.57647e-05 1.2424e-07
-2.43583e-07 1.2424e-07 -4.19299e-05
0.00124191 -4.51427e-05 1.15698e-06
-4.51427e-05 8.30995e-05 -9.72916e-07
1.15698e-06 -9.72916e-07 1.19821e-05
0.000926298 -2.39735e-06 -2.11144e-06
-2.39735e-06 1.29007e-05 1.77349e-06
-2.11144e-06 1.77349e-06 -3.79309e-05
0.00106418 -3.23674e-05 4.55464e-08
-3.23674e-05 5.18615e-05 4.7342e-08
4.55464e-08 4.7342e-08 -9.96014e-06
0.00109475 -4.28704e-05 4.86652e-07
-4.28704e-05 5.44679e-05 -9.29587e-07
4.86652e-07 -9.29587e-07 -1.44634e-05
0.000751781 2.4921e-05 -4.4871e-06
2.4921e-05 -6.06745e-05 2.99483e-06
-4.4871e-06 2.99483e-06 -7.80872e-05
0.000938567 1.87792e-07 -6.54259e-08
1.87792e-07 1.80822e-05 -5.74852e-09
-6.54259e-08 -5.74852e-09 -2.96288e-05
0.00106882 -2.81199e-05 1.01018e-06
-2.81199e-05 6.41111e-05 -9.49485e-07
1.01018e-06 -9.49485e-07 3.75534e-06
0.0025764 3.77281e-05 -1.63562e-05
3.77281e-05 0.000842277 3.36904e-06
-1.63562e-05 3.36904e-06 0.000854829
0.000824387 2.40429e-05 7.9609e-08
2.40429e-05 -3.35499e-05 3.83766e-08
7.9609e-08 3.83766e-08 -4.82508e-05
0.000946823 3.16169e-06 2.3767e-06
3.16169e-06 1.79404e-05 -1.54943e-06
2.3767e-06 -1.54943e-06 -2.68828e-05
0.00250744 3.45525e-05 1.84565e-07
3.45525e-05 0.000800767 6.6935e-08
1.84565e-07 6.6935e-08 0.000814974
0.000871291 2.26759e-05 4.15433e-06
2.26759e-05 -1.90806e-05 -3.13432e-06
4.15433e-06 -3.13432e-06 -3.14177e-05
0.00245782 3.13899e-05 1.54306e-05
3.13899e-05 0.000769217 -3.63571e-06
1.54306e-05 -3.63571e-06 0.000784896
0.00108171 3.66892e-05 -8.32387e-07
3.66892e-05 7.93406e-05 -5.40955e-07
-8.32387e-07 -5.40955e-07 8.89978e-06
0.00113536 3.36056e-05 9.19193e-08
3.36056e-05 0.000103041 6.97043e-08
9.19193e-08 6.97043e-08 3.37326e-05
0.000942937 1.11699e-05 -1.46134e-06
1.11699e-05 1.06438e-05 -7.12293e-07
-1.46134e-06 -7.12293e-07 -5.32678e-05
0.00107723 2.89013e-05 8.91759e-07
2.89013e-05 7.13444e-05 2.80144e-07
8.91759e-07 2.80144e-07 2.36073e-06
0.00093225 2.60547e-06 -3.1733e-07
2.60547e-06 -5.37679e-08 -8.04363e-08
-3.1733e-07 -8.04363e-08 -6.34693e-05
0.000948943 -4.70686e-06 -2.54243e-06
-4.70686e-06 1.22697e-05 -1.76116e-06
-2.54243e-06 -1.76116e-06 -3.3576e-05
0.000917852 -2.65262e-06 1.25844e-06
-2.65262e-06 -1.2224e-05 1.15045e-06
1.25844e-06 1.15045e-06 -7.5734e-05
0.000948705 -3.11146e-06 -1.66619e-08
-3.11146e-06 5.90427e-06 3.48262e-08
-1.66619e-08 3.48262e-08 -3.79444e-05
0.000861292 -2.01425e-05 -4.04424e-06
-2.01425e-05 -3.24167e-05 -3.39093e-06
-4.04424e-06 -3.39093e-06 -4.48274e-05
0.000949384 1.17758e-07 2.41239e-06
1.17758e-07 2.41598e-06 2.37471e-06
2.41239e-06 2.37471e-06 -3.94917e-05
0.000857902 -1.75606e-05 -1.17798e-07
-1.75606e-05 -4.01515e-05 2.74663e-08
-1.17798e-07 2.74663e-08 -5.06506e-05
0.00254782 -2.84981e-05 -1.54941e-05
-2.84981e-05 0.000807694 -3.93126e-06
-1.54941e-05 -3.93126e-06 0.000823747
0.00253955 -2.54428e-05 -3.29275e-07
-2.54428e-05 0.000797969 5.94989e-08
-3.29275e-07 5.94989e-08 0.000815286
0.000855375 -1.57443e-05 2.88476e-06
-1.57443e-05 -4.53472e-05 3.55821e-06
2.88476e-06 3.55821e-06 -5.3964e-05
0.00248677 -2.2501e-05 1.27153e-05
-2.2501e-05 0.000766574 3.99551e-06
1.27153e-05 3.99551e-06 0.000785296
0.000324931 -2.45525e-05 -4.73926e-05
-2.45525e-05 -0.000174266 -9.18474e-06
-4.73926e-05 -9.18474e-06 -0.00027447
0.00174085 -8.35504e-07 -1.20672e-05
-8.35504e-07 3.62753e-05 -5.41536e-06
-1.20672e-05 -5.41536e-06 -0.000374138
0.00306218 -7.85835e-05 -3.07239e-05
-7.85835e-05 0.00107873 -3.3309e-06
-3.07239e-05 -3.3309e-06 0.00101109
0.00119588 4.68979e-05 1.58732e-06
4.68979e-05 0.000124329 2.15578e-07
1.58732e-06 2.15578e-07 5.03188e-05
0.00118724 4.43057e-05 1.25798e-06
4.43057e-05 0.000124054 -1.23494e-07
1.25798e-06 -1.23494e-07 4.80074e-05
0.00109848 4.23274e-05 6.48486e-07
4.23274e-05 8.56993e-05 1.19897e-09
6.48486e-07 1.19897e-09 1.37861e-05
0.00106166 4.30243e-05 -6.77567e-09
4.30243e-05 7.07692e-05 4.7212e-08
-6.77567e-09 4.7212e-08 -3.96023e-06
0.00109408 4.32558e-05 -1.56307e-07
4.32558e-05 8.96686e-05 -1.74405e-07
-1.56307e-07 -1.74405e-07 1.63118e-05
0.000845821 4.26675e-05 -1.31372e-06
4.26675e-05 -3.19558e-05 4.9642e-07
-1.31372e-06 4.9642e-07 -0.00010256
0.00115344 4.49607e-05 2.29749e-06
4.49607e-05 0.000116506 -8.93998e-07
2.29749e-06 -8.93998e-07 3.68724e-05
0.00115177 4.98601e-05 1.7768e-06
4.98601e-05 0.000126522 -3.69479e-07
1.7768e-06 -3.69479e-07 3.88519e-05
0.00108336 5.10599e-05 -1.5848e-07
5.10599e-05 7.26508e-05 -1.02113e-07
-1.5848e-07 -1.02113e-07 -4.88168e-06
0.00182106 7.13996e-05 2.26362e-07
7.13996e-05 0.000413064 3.85226e-07
2.26362e-07 3.85226e-07 0.000328184
0.00147063 7.15899e-05 1.21345e-07
7.15899e-05 0.000172995 -1.94658e-06
1.21345e-07 -1.94658e-06 8.13184e-05
0.00174115 7.71034e-05 -9.04258e-06
7.71034e-05 0.000157102 -2.87492e-06
-9.04258e-06 -2.87492e-06 4.57012e-05
0.00128748 7.7706e-05 2.94948e-06
7.7706e-05 7.98146e-05 1.32212e-06
2.94948e-06 1.32212e-06 -2.96353e-05
0.000626002 5.03482e-05 -6.08073e-07
5.03482e-05 -0.000162112 2.89756e-06
-6.08073e-07 2.89756e-06 -0.000252628
0.00200121 -2.83772e-05 2.05688e-06
-2.83772e-05 0.000102829 6.65576e-06
2.05688e-06 6.65576e-06 4.12292e-05
0.00108855 -4.18816e-06 2.48882e-06
-4.18816e-06 -6.04815e-06 1.29438e-06
2.48882e-06 1.29438e-06 -0.000147553
0.000680694 -4.9418e-05 -3.23671e-05
-4.9418e-05 -0.000410827 -1.18816e-05
-3.23671e-05 -1.18816e-05 -0.000774071
0.00278876 9.24068e-05 1.66164e-05
9.24068e-05 0.000470539 2.59164e-05
1.66164e-05 2.59164e-05 0.000261556
0.00156286 4.63261e-05 5.07389e-06
4.63261e-05 -2.84527e-05 1.64702e-06
5.07389e-06 1.64702e-06 -0.000116446
-0.000629518 7.39031e-05 -1.61741e-06
7.39031e-05 -0.000822253 1.31869e-06
-1.61741e-06 1.31869e-06 -0.000962156
0.00206644 1.12762e-05 6.97388e-06
1.12762e-05 0.000548283 -4.34096e-06
6.97388e-06 -4.34096e-06 0.000492526
0.000443419 5.88202e-06 -2.00162e-05
5.88202e-06 4.09847e-05 2.88953e-07
-2.00162e-05 2.88953e-07 -9.45183e-05
0.00118514 0.000107292 6.4238e-05
0.000107292 -0.000301092 -2.18888e-06
6.4238e-05 -2.18888e-06 -0.000696454
0.0023641 -6.95315e-05 -1.80606e-06
-6.95315e-05 0.000159238 6.3903e-06
-1.80606e-06 6.3903e-06 0.000217526
0.000969545 7.85136e-05 4.14003e-05
7.85136e-05 -2.49468e-06 -1.79335e-05
4.14003e-05 -1.79335e-05 -0.00024243
0.00206274 -6.28412e-06 3.77672e-06
-6.28412e-06 2.25658e-05 -9.12162e-07
3.77672e-06 -9.12162e-07 6.88295e-05
0.00116292 6.51124e-05 7.85182e-07
6.51124e-05 -6.39423e-06 -3.31066e-06
7.85182e-07 -3.31066e-06 -6.29107e-05
0.000981014 4.70964e-05 -6.42239e-06
4.70964e-05 -0.000312875 2.11034e-07
-6.42239e-06 2.11034e-07 -0.000367676
0.000440035 3.86261e-05 -4.82156e-06
3.86261e-05 -0.000470282 -4.09592e-06
-4.82156e-06 -4.09592e-06 -0.000548869
0.00142425 -5.5487e-05 1.01976e-05
-5.5487e-05 -0.000106841 -3.36797e-06
1.01976e-05 -3.36797e-06 -9.15343e-05
0.00159087 -5.73895e-06 2.34475e-06
-5.73895e-06 4.48674e-05 7.74897e-08
2.34475e-06 7.74897e-08 3.41643e-05
0.00165189 1.65992e-05 -1.58791e-06
1.65992e-05 0.00013256 1.25533e-06
-1.58791e-06 1.25533e-06 8.45538e-05
0.00164102 -3.63622e-05 1.18052e-06
-3.63622e-05 0.000111362 -7.44412e-07
1.18052e-06 -7.44412e-07 9.64773e-05
0.00155187 -1.7219e-05 -2.2089e-07
-1.7219e-05 8.2656e-05 1.57639e-08
-2.2089e-07 1.57639e-08 4.93253e-05
0.00152183 -7.63698e-06 -5.52805e-07
-7.63698e-06 9.03632e-05 1.92169e-06
-5.52805e-07 1.92169e-06 3.75487e-05
0.00143648 -3.43691e-05 -1.10895e-07
-3.43691e-05 6.60708e-05 -6.02097e-07
-1.10895e-07 -6.02097e-07 3.04973e-05
0.00141447 -2.69539e-05 -7.98068e-07
-2.69539e-05 6.62276e-05 -5.72036e-07
-7.98068e-07 -5.72036e-07 2.00826e-05
0.00133227 -2.62652e-05 -3.26202e-07
-2.62652e-05 4.17955e-05 1.84605e-06
-3.26202e-07 1.84605e-06 -1.84909e-05
0.00125931 -3.59906e-05 -3.75775e-07
-3.59906e-05 2.34665e-05 -1.32488e-06
-3.75775e-07 -1.32488e-06 -2.3304e-05
0.00128637 -3.3527e-05 8.94384e-08
-3.3527e-05 4.56821e-05 -3.99746e-07
8.94384e-08 -3.99746e-07 -1.01249e-05
0.00129032 -3.46988e-05 -1.61248e-07
-3.46988e-05 5.81869e-05 8.01152e-07
-1.61248e-07 8.01152e-07 -4.20887e-06
0.00120388 -3.54774e-05 -5.94359e-07
-3.54774e-05 1.93062e-05 8.29128e-09
-5.94359e-07 8.29128e-09 -3.48802e-05
0.00129437 -3.62543e-05 -1.72379e-07
-3.62543e-05 7.20277e-05 -2.55703e-07
-1.72379e-07 -2.55703e-07 1.13624e-05
0.0012433 -3.49382e-05 -7.89478e-07
-3.49382e-05 6.11213e-05 5.21461e-07
-7.89478e-07 5.21461e-07 -2.02012e-06
0.00127781 -4.07591e-05 9.03476e-07
-4.07591e-05 7.84803e-05 -4.82178e-07
9.03476e-07 -4.82178e-07 1.37522e-05
0.00118679 -3.79944e-05 1.68725e-07
-3.79944e-05 4.82191e-05 -1.36276e-07
1.68725e-07 -1.36276e-07 -1.6204e-05
0.00116372 -3.34198e-05 -1.5463e-06
-3.34198e-05 5.90307e-05 1.06306e-06
-1.5463e-06 1.06306e-06 -2.20782e-06
0.000943271 -9.98819e-06 -2.26673e-06
-9.98819e-06 1.05393e-05 1.71463e-06
-2.26673e-06 1.71463e-06 -4.18898e-05
0.000992069 -3.27685e-05 -3.83037e-07
-3.27685e-05 -2.78647e-06 2.29624e-07
-3.83037e-07 2.29624e-07 -6.4992e-05
0.00115695 -4.18564e-05 8.06217e-07
-4.18564e-05 5.93867e-05 -8.74327e-07
8.06217e-07 -8.74327e-07 -8.14371e-06
0.000719243 2.66073e-05 -4.35603e-06
2.66073e-05 -6.91153e-05 3.02763e-06
-4.35603e-06 3.02763e-06 -9.02479e-05
0.000937766 -5.40468e-06 -3.55529e-08
-5.40468e-06 1.6586e-05 7.13522e-08
-3.55529e-08 7.13522e-08 -3.40342e-05
0.00107096 -3.18913e-05 1.19612e-06
-3.18913e-05 5.50645e-05 -1.07964e-06
1.19612e-06 -1.07964e-06 -6.74511e-06
0.0026321 4.06706e-05 -1.69974e-05
4.06706e-05 0.00087883 3.20728e-06
-1.69974e-05 3.20728e-06 0.000889392
0.000801707 2.57538e-05 -3.22713e-08
2.57538e-05 -3.62759e-05 -9.58653e-09
-3.22713e-08 -9.58653e-09 -5.38975e-05
0.000956118 -2.01887e-06 2.32021e-06
-2.01887e-06 2.44179e-05 -1.64278e-06
2.32021e-06 -1.64278e-06 -2.30605e-05
0.00254441 3.74918e-05 2.17386e-07
3.74918e-05 0.000827793 8.14494e-08
2.17386e-07 8.14494e-08 0.000840181
0.000857057 2.45297e-05 4.41101e-06
2.45297e-05 -1.7285e-05 -2.99205e-06
4.41101e-06 -2.99205e-06 -3.21719e-05
0.00247054 3.43498e-05 1.59544e-05
3.43498e-05 0.000783761 -3.50468e-06
1.59544e-05 -3.50468e-06 0.000797859
0.000991736 3.9724e-05 -7.3322e-07
3.9724e-05 2.8589e-05 -6.52899e-07
-7.3322e-07 -6.52899e-07 -4.31663e-05
0.00106535 3.6493e-05 -7.59256e-08
3.6493e-05 7.09675e-05 -1.60085e-07
-7.59256e-08 -1.60085e-07 6.70566e-07
0.00106064 2.11891e-05 -1.21821e-06
2.11891e-05 6.96885e-05 -5.40045e-07
-1.21821e-06 -5.40045e-07 5.2677e-06
0.00121821 3.54578e-05 6.91395e-07
3.54578e-05 0.000143385 9.25602e-08
6.91395e-07 9.25602e-08 7.43965e-05
0.000994314 1.27734e-05 -2.33405e-07
1.27734e-05 3.64839e-05 -9.21306e-08
-2.33405e-07 -9.21306e-08 -2.72295e-05
0.000946434 -4.33645e-06 -2.49099e-06
-4.33645e-06 1.89206e-05 -1.5991e-06
-2.49099e-06 -1.5991e-06 -2.9431e-05
0.000942053 6.85438e-06 1.07567e-06
6.85438e-06 5.56996e-06 6.09172e-07
1.07567e-06 6.09172e-07 -5.77824e-05
0.000940886 -5.0765e-06 8.48629e-09
-5.0765e-06 9.07559e-06 3.24886e-08
8.48629e-09 3.24886e-08 -3.69033e-05
0.00085237 -2.28374e-05 -4.231e-06
-2.28374e-05 -2.85906e-05 -3.22042e-06
-4.231e-06 -3.22042e-06 -4.31469e-05
0.000939962 -3.03808e-06 2.61406e-06
-3.03808e-06 1.77648e-06 2.18574e-06
2.61406e-06 2.18574e-06 -4.21096e-05
0.000847455 -1.9796e-05 -4.64059e-08
-1.9796e-05 -3.98288e-05 3.06211e-08
-4.64059e-08 3.06211e-08 -5.20616e-05
0.00255 -3.16117e-05 -1.59491e-05
-3.16117e-05 0.00081533 -3.76911e-06
-1.59491e-05 -3.76911e-06 0.000830111
0.000845372 -1.73067e-05 3.45621e-06
-1.73067e-05 -4.67997e-05 3.58213e-06
3.45621e-06 3.58213e-06 -5.71273e-05
0.00257995 -2.85409e-05 -2.62494e-07
-2.85409e-05 0.000822938 6.82777e-08
-2.62494e-07 6.82777e-08 0.000839025
0.00255314 -2.55239e-05 1.41862e-05
-2.55239e-05 0.000804312 3.97597e-06
1.41862e-05 3.97597e-06 0.000821706
0.00140907 -4.69699e-05 3.52111e-06
-4.69699e-05 -6.24404e-05 3.28419e-07
3.52111e-06 3.28419e-07 -0.000100862
0.0013031 4.56327e-06 -4.82294e-06
4.56327e-06 0.000126818 6.15067e-06
-4.82294e-06 6.15067e-06 -6.32782e-05
0.00391877 3.49008e-05 -5.65233e-05
3.49008e-05 0.00107101 -1.37434e-05
-5.65233e-05 -1.37434e-05 0.00065673
0.000975195 4.38047e-05 7.45256e-07
4.38047e-05 1.12625e-05 1.78677e-07
7.45256e-07 1.78677e-07 -5.96547e-05
0.00130885 5.18783e-05 1.30324e-06
5.18783e-05 0.000139708 -9.81076e-07
1.30324e-06 -9.81076e-07 6.32244e-05
0.000951375 4.31054e-05 2.9669e-07
4.31054e-05 1.17654e-05 -2.32025e-07
2.9669e-07 -2.32025e-07 -6.20972e-05
0.00116085 4.49474e-05 1.11193e-06
4.49474e-05 0.000117808 -6.02154e-07
1.11193e-06 -6.02154e-07 4.30059e-05
0.00108748 4.36444e-05 1.90441e-07
4.36444e-05 8.73546e-05 5.56114e-08
1.90441e-07 5.56114e-08 1.36309e-05
0.00105415 4.69608e-05 4.43317e-07
4.69608e-05 6.42174e-05 4.84648e-07
4.43317e-07 4.84648e-07 -6.78078e-06
0.00130508 6.18688e-05 -1.32585e-06
6.18688e-05 9.89251e-05 -2.40986e-06
-1.32585e-06 -2.40986e-06 1.59688e-05
0.00136946 5.63008e-05 1.82665e-06
5.63008e-05 0.000211335 1.22535e-07
1.82665e-06 1.22535e-07 0.000134249
0.000880582 5.54914e-05 -1.40247e-06
5.54914e-05 -2.57148e-05 1.61475e-06
-1.40247e-06 1.61475e-06 -0.000109236
0.00131967 6.90357e-05 -5.03564e-07
6.90357e-05 0.000103996 -1.56297e-07
-5.03564e-07 -1.56297e-07 1.21956e-05
0.0012127 6.11624e-05 -3.13211e-06
6.11624e-05 -6.55631e-05 -2.40822e-06
-3.13211e-06 -2.40822e-06 -0.000164412
0.00171296 2.32311e-05 -7.45652e-06
2.32311e-05 7.83087e-05 1.41161e-06
-7.45652e-06 1.41161e-06 3.51668e-06
0.00180058 7.60927e-05 -8.18456e-07
7.60927e-05 0.000181393 1.27106e-06
-8.18456e-07 1.27106e-06 7.22525e-05
0.00094342 6.99046e-05 2.78196e-07
6.99046e-05 -9.20996e-05 4.09397e-06
2.78196e-07 4.09397e-06 -0.000199828
0.00185333 -2.18734e-05 1.14743e-06
-2.18734e-05 3.58334e-05 6.69836e-07
1.14743e-06 6.69836e-07 -2.48776e-05
0.00171893 -6.09315e-06 6.23559e-05
-6.09315e-06 0.000182945 2.42447e-05
6.23559e-05 2.42447e-05 -1.93396e-05
0.00227808 6.34479e-05 -4.30952e-06
6.34479e-05 0.000263799 -3.50998e-06
-4.30952e-06 -3.50998e-06 0.000160949
0.00168862 2.52322e-05 -3.90093e-06
2.52322e-05 0.00017751 -3.31e-06
-3.90093e-06 -3.31e-06 0.000122346
0.00123012 1.68265e-06 1.91311e-06
1.68265e-06 0.000122985 -5.19319e-07
1.91311e-06 -5.19319e-07 7.78036e-05
0.000986241 4.21943e-05 5.10073e-05
4.21943e-05 2.62093e-05 2.55933e-06
5.10073e-05 2.55933e-06 -0.000159155
0.00235124 -1.53446e-05 7.61544e-06
-1.53446e-05 0.000176053 -4.8332e-07
7.61544e-06 -4.8332e-07 0.000187654
0.00121855 6.90254e-05 -2.15836e-06
6.90254e-05 3.57463e-05 1.11958e-06
-2.15836e-06 1.11958e-06 -2.14572e-05
0.00161159 5.27581e-05 -1.30184e-06
5.27581e-05 -1.42478e-05 4.16865e-06
-1.30184e-06 4.16865e-06 -6.42855e-05
0.00123799 4.94412e-05 1.62012e-07
4.94412e-05 -7.39971e-05 1.36571e-06
1.62012e-07 1.36571e-06 -0.000149525
0.00145733 4.23255e-05 -3.89847e-06
4.23255e-05 5.55778e-05 -7.88334e-07
-3.89847e-06 -7.88334e-07 -1.43475e-05
0.00131999 3.91567e-05 -2.99125e-06
3.91567e-05 3.01869e-05 -2.02066e-06
-2.99125e-06 -2.02066e-06 -3.03073e-05
0.00130959 -7.53097e-06 4.61902e-06
-7.53097e-06 -7.95548e-05 -2.13149e-06
4.61902e-06 -2.13149e-06 -9.58205e-05
0.00157747 1.49227e-05 -9.39955e-07
1.49227e-05 9.66955e-05 -1.30049e-06
-9.39955e-07 -1.30049e-06 4.93032e-05
0.00157247 2.43232e-05 -1.53577e-06
2.43232e-05 0.000112173 7.81027e-07
-1.53577e-06 7.81027e-07 4.55117e-05
0.00158127 -1.74484e-05 -1.41144e-06
-1.74484e-05 0.000101052 -2.00936e-06
-1.41144e-06 -2.00936e-06 6.64982e-05
0.00148952 -7.6011e-06 -2.3774e-07
-7.6011e-06 7.84742e-05 -3.00728e-07
-2.3774e-07 -3.00728e-07 2.54222e-05
0.00132452 -5.6257e-06 -9.65124e-07
-5.6257e-06 1.19861e-05 1.66456e-06
-9.65124e-07 1.66456e-06 -5.34515e-05
0.00135962 -2.80894e-05 -1.61526e-06
-2.80894e-05 4.69757e-05 -2.34594e-06
-1.61526e-06 -2.34594e-06 1.01941e-06
0.00134051 -2.57848e-05 1.67932e-07
-2.57848e-05 4.59647e-05 -1.03272e-07
1.67932e-07 -1.03272e-07 -1.4344e-05
0.00132789 -2.83051e-05 -5.9216e-07
-2.83051e-05 5.36819e-05 1.39234e-06
-5.9216e-07 1.39234e-06 -1.27792e-05
0.00127555 -3.31998e-05 -2.57152e-07
-3.31998e-05 4.12045e-05 -1.7334e-06
-2.57152e-07 -1.7334e-06 -1.4634e-05
0.00128797 -3.41882e-05 2.18122e-08
-3.41882e-05 5.68974e-05 -2.85021e-07
2.18122e-08 -2.85021e-07 -5.46896e-06
0.00126151 -3.40577e-05 -7.6506e-07
-3.40577e-05 5.83104e-05 7.85802e-07
-7.6506e-07 7.85802e-07 -6.38787e-06
0.00119014 -3.43949e-05 1.53987e-07
-3.43949e-05 2.07538e-05 -4.83684e-07
1.53987e-07 -4.83684e-07 -3.92911e-05
0.00118522 -3.40945e-05 -1.28885e-07
-3.40945e-05 3.29614e-05 -1.11393e-07
-1.28885e-07 -1.11393e-07 -3.00443e-05
0.00116885 -3.08131e-05 -1.56427e-06
-3.08131e-05 4.85498e-05 9.31288e-07
-1.56427e-06 9.31288e-07 -1.25659e-05
0.00109617 -3.67127e-05 1.21276e-06
-3.67127e-05 4.0955e-06 -8.49256e-07
1.21276e-06 -8.49256e-07 -6.06977e-05
0.00105871 -3.15481e-05 2.07848e-08
-3.15481e-05 8.50123e-06 1.3893e-08
2.07848e-08 1.3893e-08 -5.29114e-05
0.000971433 -1.51884e-05 -2.526e-06
-1.51884e-05 9.25972e-06 1.52254e-06
-2.526e-06 1.52254e-06 -4.34358e-05
0.000769458 2.55015e-05 -4.35689e-06
2.55015e-05 -4.15754e-05 3.00499e-06
-4.35689e-06 3.00499e-06 -6.63629e-05
0.000947443 -1.13205e-05 1.20552e-09
-1.13205e-05 1.18476e-05 1.20395e-07
1.20552e-09 1.20395e-07 -4.04718e-05
0.0010779 -3.37968e-05 9.45082e-07
-3.37968e-05 4.0769e-05 -8.63552e-07
9.45082e-07 -8.63552e-07 -2.11311e-05
0.00271222 4.37144e-05 -1.75413e-05
4.37144e-05 0.000927481 3.05964e-06
-1.75413e-05 3.05964e-06 0.000935798
0.000782947 2.7265e-05 2.88365e-09
2.7265e-05 -3.86078e-05 -3.33061e-08
2.88365e-09 -3.33061e-08 -5.99002e-05
0.000952571 -7.86983e-06 2.35702e-06
-7.86983e-06 2.1914e-05 -1.69455e-06
2.35702e-06 -1.69455e-06 -2.85086e-05
0.00260296 4.04289e-05 1.73739e-07
4.04289e-05 0.000865689 7.85358e-08
1.73739e-07 7.85358e-08 0.00087605
0.000849946 2.65457e-05 4.29411e-06
2.65457e-05 -1.26831e-05 -2.95153e-06
4.29411e-06 -2.95153e-06 -3.05122e-05
0.00251504 3.72888e-05 1.65682e-05
3.72888e-05 0.000814568 -3.33146e-06
1.65682e-05 -3.33146e-06 0.000826788
0.000830775 4.06281e-05 -5.0394e-07
4.06281e-05 -6.79785e-05 -7.73935e-07
-5.0394e-07 -7.73935e-07 -0.000142863
0.00090047 3.84125e-05 -2.64025e-08
3.84125e-05 -1.71374e-05 -9.78584e-08
-2.64025e-08 -9.78584e-08 -8.92162e-05
0.00109206 2.89438e-05 -1.29909e-06
2.89438e-05 7.71845e-05 -4.89406e-07
-1.29909e-06 -4.89406e-07 1.20265e-05
0.00104626 3.6219e-05 4.91404e-07
3.6219e-05 6.12316e-05 1.13232e-07
4.91404e-07 1.13232e-07 -8.91088e-06
0.00102591 1.98774e-05 -6.06408e-09
1.98774e-05 5.33214e-05 4.83108e-09
-6.06408e-09 4.83108e-09 -1.10763e-05
0.000949566 -1.89565e-06 -2.53353e-06
-1.89565e-06 2.64136e-05 -1.41963e-06
-2.53353e-06 -1.41963e-06 -2.4468e-05
0.0010465 1.45195e-05 1.06479e-06
1.45195e-05 6.27411e-05 4.42974e-07
1.06479e-06 4.42974e-07 -7.77139e-07
0.000933617 -5.23431e-06 3.43088e-08
-5.23431e-06 1.39439e-05 1.95615e-08
3.43088e-08 1.95615e-08 -3.45894e-05
0.000843984 -2.55631e-05 -4.29365e-06
-2.55631e-05 -2.2528e-05 -3.05304e-06
-4.29365e-06 -3.05304e-06 -3.97851e-05
0.0009355 -5.40421e-06 2.64562e-06
-5.40421e-06 7.20589e-06 1.94358e-06
2.64562e-06 1.94358e-06 -3.89148e-05
0.000832861 -2.23893e-05 -2.23992e-08
-2.23893e-05 -3.87105e-05 3.0355e-08
-2.23992e-08 3.0355e-08 -5.30846e-05
0.00255256 -3.46821e-05 -1.63408e-05
-3.46821e-05 0.00082508 -3.58519e-06
-1.63408e-05 -3.58519e-06 0.000838268
0.000834629 -1.94656e-05 3.93585e-06
-1.94656e-05 -4.67601e-05 3.48241e-06
3.93585e-06 3.48241e-06 -5.88152e-05
0.00259482 -3.17225e-05 -2.12668e-07
-3.17225e-05 0.000836425 7.02466e-08
-2.12668e-07 7.02466e-08 0.000851247
0.00261288 -2.86274e-05 1.54039e-05
-2.86274e-05 0.00083864 3.93155e-06
1.54039e-05 3.93155e-06 0.000854748
0.0016705 -1.14271e-05 -1.59632e-06
-1.14271e-05 0.00010209 -2.46081e-07
-1.59632e-06 -2.46081e-07 5.4528e-05
0.00116124 -4.10197e-05 -8.99888e-07
-4.10197e-05 -0.000108311 -1.74202e-06
-8.99888e-07 -1.74202e-06 -0.000145155
-0.00030008 -1.25169e-05 3.96255e-05
-1.25169e-05 -0.000290311 1.42555e-05
3.96255e-05 1.42555e-05 -0.000392365
0.00167554 5.84931e-05 7.22397e-07
5.84931e-05 0.000278579 -1.83431e-06
7.22397e-07 -1.83431e-06 0.000202204
0.000960187 4.42253e-05 -5.03872e-07
4.42253e-05 1.25249e-05 1.99132e-07
-5.03872e-07 1.99132e-07 -5.62405e-05
0.000792647 4.5794e-05 -1.96559e-06
4.5794e-05 -0.000157977 -5.86665e-07
-1.96559e-06 -5.86665e-07 -0.000239549
0.00127235 5.1316e-05 1.00302e-07
5.1316e-05 0.00012158 4.88024e-08
1.00302e-07 4.88024e-08 4.46492e-05
0.000715418 3.93017e-05 -5.13237e-07
3.93017e-05 -9.58425e-05 7.49958e-07
-5.13237e-07 7.49958e-07 -0.000169665
0.00156484 5.85834e-05 -2.81372e-06
5.85834e-05 0.000122963 -3.94612e-06
-2.81372e-06 -3.94612e-06 3.41935e-05
0.00126143 5.11125e-05 3.46567e-07
5.11125e-05 0.000159666 1.61387e-09
3.46567e-07 1.61387e-09 8.83202e-05
0.00129998 6.0821e-05 8.76637e-08
6.0821e-05 9.2081e-05 5.43351e-07
8.76637e-08 5.43351e-07 9.81717e-06
0.00152126 2.03296e-05 -2.43206e-06
2.03296e-05 2.03952e-05 1.98439e-06
-2.43206e-06 1.98439e-06 -5.71502e-05
0.00120537 6.69649e-05 1.18232e-06
6.69649e-05 5.17181e-05 2.53267e-06
1.18232e-06 2.53267e-06 -4.01348e-05
0.00148279 6.61229e-05 -7.98723e-07
6.61229e-05 5.63285e-05 -5.52411e-07
-7.98723e-07 -5.52411e-07 -4.3805e-05
0.00169775 2.1751e-05 -2.6278e-07
2.1751e-05 6.89366e-05 8.02887e-07
-2.6278e-07 8.02887e-07 -6.4253e-06
0.00168374 7.16134e-05 3.57018e-06
7.16134e-05 0.000124765 2.58256e-06
3.57018e-06 2.58256e-06 1.76336e-05
0.00172835 -1.52585e-05 -8.66667e-06
-1.52585e-05 -2.11337e-05 -7.74718e-06
-8.66667e-06 -7.74718e-06 -8.03174e-05
0.00161372 2.27677e-06 -1.92467e-06
2.27677e-06 0.000177107 -1.51753e-06
-1.92467e-06 -1.51753e-06 0.000125876
0.00118227 1.97839e-05 1.95329e-06
1.97839e-05 -7.20826e-05 5.43005e-07
1.95329e-06 5.43005e-07 -0.000126395
0.000385396 -5.79041e-06 4.73224e-07
-5.79041e-06 -0.000301742 2.46048e-06
4.73224e-07 2.46048e-06 -0.000337802
0.00222244 5.75752e-05 3.66745e-06
5.75752e-05 0.000275396 -2.55591e-06
3.66745e-06 -2.55591e-06 0.00022893
0.0020788 6.02884e-05 1.28939e-05
6.02884e-05 0.000344872 5.47235e-06
1.28939e-05 5.47235e-06 0.000272205
0.0016585 4.52517e-05 -2.47055e-06
4.52517e-05 0.000140443 -1.08607e-06
-2.47055e-06 -1.08607e-06 7.11818e-05
0.00144511 3.93125e-05 8.59227e-07
3.93125e-05 9.29491e-05 1.65951e-06
8.59227e-07 1.65951e-06 3.27646e-05
0.00144025 3.77003e-05 -3.51682e-06
3.77003e-05 8.55151e-05 -2.49573e-06
-3.51682e-06 -2.49573e-06 2.02406e-05
0.00155306 1.3026e-05 -1.28146e-06
1.3026e-05 8.61258e-05 -2.48579e-06
-1.28146e-06 -2.48579e-06 3.90545e-05
0.00154416 2.31728e-05 1.07216e-08
2.31728e-05 9.58346e-05 -2.81951e-07
1.07216e-08 -2.81951e-07 3.03017e-05
0.00150689 2.524e-05 -2.5953e-06
2.524e-05 9.15041e-05 -5.00176e-07
-2.5953e-06 -5.00176e-07 2.08543e-05
0.00146836 -7.73452e-06 -3.45287e-07
-7.73452e-06 7.23127e-05 -2.1241e-06
-3.45287e-07 -2.1241e-06 1.89531e-05
0.00138257 -5.32792e-06 2.59131e-07
-5.32792e-06 4.12402e-05 1.87289e-07
2.59131e-07 1.87289e-07 -2.46839e-05
0.00139632 -6.04334e-06 -1.2649e-06
-6.04334e-06 6.21106e-05 1.05565e-06
-1.2649e-06 1.05565e-06 -8.43207e-06
0.00134642 -2.52397e-05 2.98282e-07
-2.52397e-05 4.90445e-05 -2.0121e-06
2.98282e-07 -2.0121e-06 -1.12876e-05
0.00133608 -2.75955e-05 1.26945e-07
-2.75955e-05 5.69842e-05 -4.60349e-08
1.26945e-07 -4.60349e-08 -9.51474e-06
0.00129615 -2.94988e-05 -1.0705e-06
-2.94988e-05 5.52151e-05 1.07245e-06
-1.0705e-06 1.07245e-06 -1.25497e-05
0.0012858 -3.37281e-05 2.26196e-07
-3.37281e-05 5.56883e-05 -1.36028e-06
2.26196e-07 -1.36028e-06 -6.64995e-06
0.00126001 -3.37659e-05 -8.82243e-09
-3.37659e-05 5.73377e-05 -1.71257e-07
-8.82243e-09 -1.71257e-07 -7.348e-06
0.00118639 -2.98528e-05 -1.5127e-06
-2.98528e-05 4.4344e-05 9.41835e-07
-1.5127e-06 9.41835e-07 -1.83733e-05
0.00112105 -3.31361e-05 7.41248e-07
-3.31361e-05 1.88254e-06 -7.60166e-07
7.41248e-07 -7.60166e-07 -6.09818e-05
0.00115692 -3.02594e-05 -2.13915e-08
-3.02594e-05 4.29094e-05 -3.46269e-08
-2.13915e-08 -3.46269e-08 -1.81515e-05
0.00100054 -1.66495e-05 -2.61236e-06
-1.66495e-05 9.48156e-06 1.40462e-06
-2.61236e-06 1.40462e-06 -4.36228e-05
0.000943739 -2.94843e-05 1.43896e-06
-2.94843e-05 -4.67491e-05 -9.7846e-07
1.43896e-06 -9.7846e-07 -0.000108333
0.000965712 -1.51679e-05 -3.06396e-08
-1.51679e-05 6.83433e-06 7.84222e-08
-3.06396e-08 7.84222e-08 -4.58514e-05
0.0016357 2.51623e-05 -4.88019e-06
2.51623e-05 0.000391094 1.60402e-06
-4.88019e-06 1.60402e-06 0.000367479
0.0011863 2.95678e-05 -1.89576e-05
2.95678e-05 0.000173488 5.24243e-06
-1.89576e-05 5.24243e-06 0.000169994
0.00121916 2.61998e-05 -5.86781e-07
2.61998e-05 0.000180945 3.29575e-09
-5.86781e-07 3.29575e-09 0.000158369
0.000949544 -1.28941e-05 2.52356e-06
-1.28941e-05 1.20596e-05 -1.58974e-06
2.52356e-06 -1.58974e-06 -4.01163e-05
0.00268795 4.33361e-05 1.8543e-07
4.33361e-05 0.000916693 8.59882e-08
1.8543e-07 8.59882e-08 0.00092471
0.00084334 2.55545e-05 4.39841e-06
2.55545e-05 -9.85387e-06 -2.93017e-06
4.39841e-06 -2.93017e-06 -3.11929e-05
0.00257083 4.00945e-05 1.72525e-05
4.00945e-05 0.000851071 -3.20756e-06
1.72525e-05 -3.20756e-06 0.000861244
0.00115551 4.81361e-05 -6.75827e-07
4.81361e-05 -1.01312e-05 -5.5179e-07
-6.75827e-07 -5.5179e-07 -8.55071e-05
0.000870578 4.33058e-05 3.11883e-07
4.33058e-05 -7.2645e-05 -2.97842e-07
3.11883e-07 -2.97842e-07 -0.000150151
0.000898499 4.21116e-05 -6.17147e-08
4.21116e-05 -3.89108e-05 -6.18291e-08
-6.17147e-08 -6.18291e-08 -0.00011419
0.0011139 3.4428e-05 -1.24218e-06
3.4428e-05 7.53595e-05 -7.4514e-07
-1.24218e-06 -7.4514e-07 9.25869e-06
0.000797494 3.68518e-05 4.56723e-07
3.68518e-05 -6.86606e-05 5.20624e-07
4.56723e-07 5.20624e-07 -0.000141027
0.0010485 2.72241e-05 -6.24933e-08
2.72241e-05 5.66187e-05 -3.7973e-09
-6.24933e-08 -3.7973e-09 -8.40187e-06
0.000954711 2.11267e-06 -2.51868e-06
2.11267e-06 3.08709e-05 -1.18543e-06
-2.51868e-06 -1.18543e-06 -2.18413e-05
0.000993814 1.86131e-05 1.19071e-06
1.86131e-05 3.81936e-05 5.21893e-07
1.19071e-06 5.21893e-07 -2.61803e-05
0.000926196 -3.38026e-06 5.23142e-09
-3.38026e-06 1.66034e-05 5.29207e-08
5.23142e-09 5.29207e-08 -3.447e-05
0.000836343 -2.79068e-05 -4.34948e-06
-2.79068e-05 -1.59206e-05 -2.84999e-06
-4.34948e-06 -2.84999e-06 -3.62191e-05
0.000918813 -6.07163e-06 2.58285e-06
-6.07163e-06 8.03019e-06 1.72029e-06
2.58285e-06 1.72029e-06 -4.06867e-05
0.000812558 -2.49434e-05 9.58472e-09
-2.49434e-05 -3.83544e-05 2.21847e-08
9.58472e-09 2.21847e-08 -5.54072e-05
0.00256859 -3.76356e-05 -1.68165e-05
-3.76356e-05 0.000843228 -3.39866e-06
-1.68165e-05 -3.39866e-06 0.000854458
0.000813088 -2.19437e-05 4.2094e-06
-2.19437e-05 -4.89935e-05 3.33465e-06
4.2094e-06 3.33465e-06 -6.31808e-05
0.00260136 -3.48816e-05 -2.0011e-07
-3.48816e-05 0.000847669 7.48577e-08
-2.0011e-07 7.48577e-08 0.000860966
0.00264112 -3.18234e-05 1.61662e-05
-3.18234e-05 0.000858276 3.81909e-06
1.61662e-05 3.81909e-06 0.000873131
0.00156889 -2.33817e-05 -4.74191e-07
-2.33817e-05 8.56393e-05 1.32006e-06
-4.74191e-07 1.32006e-06 2.90917e-05
0.00161223 -1.0792e-05 2.1353e-06
-1.0792e-05 7.44384e-05 -1.26939e-06
2.1353e-06 -1.26939e-06 2.51282e-05
0.00123859 -3.80875e-05 -5.6032e-06
-3.80875e-05 -8.92962e-06 -5.21541e-06
-5.6032e-06 -5.21541e-06 -4.44679e-05
0.00143287 5.2288e-05 -2.86177e-06
5.2288e-05 7.48198e-05 -2.70774e-06
-2.86177e-06 -2.70774e-06 -7.94425e-06
0.0014478 5.47392e-05 -6.97884e-08
5.47392e-05 0.000181809 3.47936e-07
-6.97884e-08 3.47936e-07 0.000107228
0.00087594 4.37267e-05 -2.34864e-06
4.37267e-05 -1.96386e-05 2.54651e-07
-2.34864e-06 2.54651e-07 -8.61793e-05
0.00126483 5.24213e-05 6.58019e-07
5.24213e-05 6.51536e-05 7.89337e-07
6.58019e-07 7.89337e-07 -1.4747e-05
0.00124986 5.09581e-05 -9.8854e-07
5.09581e-05 0.00011001 9.1924e-07
-9.8854e-07 9.1924e-07 3.26436e-05
0.00158431 1.79415e-05 -2.37169e-06
1.79415e-05 7.34706e-05 8.36093e-07
-2.37169e-06 8.36093e-07 -8.29413e-06
0.00154952 5.95224e-05 -1.20888e-06
5.95224e-05 0.000112807 -1.18198e-06
-1.20888e-06 -1.18198e-06 2.24153e-05
0.00129481 5.99991e-05 1.20753e-06
5.99991e-05 8.64764e-05 4.0596e-06
1.20753e-06 4.0596e-06 4.72866e-06
0.00161587 1.951e-05 -1.48206e-07
1.951e-05 6.30387e-05 5.92983e-07
-1.48206e-07 5.92983e-07 -1.4862e-05
0.00180296 7.17745e-05 2.55143e-06
7.17745e-05 0.00019963 2.06627e-06
2.55143e-06 2.06627e-06 9.84798e-05
0.00164527 2.03302e-05 7.18654e-06
2.03302e-05 4.1856e-05 -5.69639e-09
7.18654e-06 -5.69639e-09 -3.41038e-05
0.001125 2.44439e-06 -1.71442e-06
2.44439e-06 -4.1264e-05 -4.79259e-07
-1.71442e-06 -4.79259e-07 -9.89007e-05
0.00139249 3.41061e-06 -3.05929e-07
3.41061e-06 7.15556e-05 -5.47136e-07
-3.05929e-07 -5.47136e-07 1.98169e-05
0.000563055 1.38301e-05 7.06462e-06
1.38301e-05 -0.000377099 5.4784e-06
7.06462e-06 5.4784e-06 -0.000430276
0.00187668 4.85427e-05 4.62107e-06
4.85427e-05 0.000233644 -1.16544e-06
4.62107e-06 -1.16544e-06 0.000165063
0.00150151 3.89227e-05 6.00704e-06
3.89227e-05 0.000122362 4.90929e-06
6.00704e-06 4.90929e-06 6.25675e-05
0.00150703 3.82744e-05 -1.01405e-06
3.82744e-05 0.000116103 -2.36867e-07
-1.01405e-06 -2.36867e-07 5.11448e-05
0.00138367 3.19372e-05 -1.54497e-06
3.19372e-05 6.95085e-05 -1.11547e-06
-1.54497e-06 -1.11547e-06 1.7927e-06
0.00151352 2.18946e-05 1.51974e-06
2.18946e-05 7.83265e-05 -7.37587e-07
1.51974e-06 -7.37587e-07 1.39421e-05
0.00149786 2.34831e-05 -4.12539e-07
2.34831e-05 8.39393e-05 -1.22546e-07
-4.12539e-07 -1.22546e-07 1.34652e-05
0.00137452 1.75323e-05 -2.38226e-06
1.75323e-05 4.199e-05 -1.06543e-06
-2.38226e-06 -1.06543e-06 -2.84791e-05
0.00143726 -5.17766e-06 8.64916e-07
-5.17766e-06 6.87966e-05 -1.0898e-06
8.64916e-07 -1.0898e-06 2.39828e-06
0.00139286 -6.49053e-06 4.4128e-08
-6.49053e-06 6.00146e-05 3.25042e-07
4.4128e-08 3.25042e-07 -1.06175e-05
0.00134897 -1.26812e-05 -1.56592e-06
-1.26812e-05 5.87947e-05 7.60547e-07
-1.56592e-06 7.60547e-07 -1.18349e-05
0.00134364 -2.68151e-05 9.03969e-07
-2.68151e-05 5.99994e-05 -1.46676e-06
9.03969e-07 -1.46676e-06 -6.53559e-06
0.00130315 -2.9272e-05 6.68739e-08
-2.9272e-05 5.80307e-05 2.08048e-08
6.68739e-08 2.08048e-08 -9.78077e-06
0.0012208 -2.73343e-05 -1.69348e-06
-2.73343e-05 4.40577e-05 1.02936e-06
-1.69348e-06 1.02936e-06 -2.11885e-05
0.00125853 -3.3514e-05 8.07758e-07
-3.3514e-05 5.63754e-05 -1.12575e-06
8.07758e-07 -1.12575e-06 -8.29975e-06
0.00118714 -2.95394e-05 -1.45737e-08
-2.95394e-05 4.44877e-05 -8.62831e-08
-1.45737e-08 -8.62831e-08 -1.82083e-05
0.00102802 -1.80732e-05 -2.66997e-06
-1.80732e-05 1.00489e-05 1.41019e-06
-2.66997e-06 1.41019e-06 -4.46175e-05
0.0011443 -2.97174e-05 1.41975e-06
-2.97174e-05 3.69366e-05 -9.54492e-07
1.41975e-06 -9.54492e-07 -2.40693e-05
0.000990691 -1.63298e-05 -2.60119e-08
-1.63298e-05 5.34302e-06 1.11762e-08
-2.60119e-08 1.11762e-08 -4.78074e-05
0.00166199 1.87472e-05 -5.18205e-06
1.87472e-05 0.00040437 1.40087e-06
-5.18205e-06 1.40087e-06 0.000377954
0.000961295 -1.53344e-05 2.60204e-06
-1.53344e-05 4.97408e-06 -1.44743e-06
2.60204e-06 -1.44743e-06 -4.76983e-05
0.00164908 2.21655e-05 3.79912e-06
2.21655e-05 0.00039552 -8.99486e-07
3.79912e-06 -8.99486e-07 0.000371805
0.00119941 2.97244e-05 -2.08019e-05
2.97244e-05 0.00019172 5.08227e-06
-2.08019e-05 5.08227e-06 0.000183909
0.00198419 3.7699e-05 -1.2551e-05
3.7699e-05 0.000573113 1.71548e-06
-1.2551e-05 1.71548e-06 0.000574059
0.00167286 2.77322e-05 1.03939e-05
2.77322e-05 0.000405529 -2.48544e-06
1.03939e-05 -2.48544e-06 0.000385131
0.00266603 4.28803e-05 1.8328e-05
4.28803e-05 0.000907055 -3.14432e-06
1.8328e-05 -3.14432e-06 0.000914771
0.00141267 4.74253e-05 -2.37496e-06
4.74253e-05 6.28959e-05 -2.23362e-06
-2.37496e-06 -2.23362e-06 -1.54727e-05
0.00137109 4.98904e-05 1.16784e-06
4.98904e-05 0.000133786 -4.71285e-07
1.16784e-06 -4.71285e-07 5.95622e-05
0.00115949 4.8047e-05 8.70939e-07
4.8047e-05 1.5796e-07 5.13115e-07
8.70939e-07 5.13115e-07 -7.12746e-05
0.0011202 3.8974e-05 -1.19058e-06
3.8974e-05 6.44478e-05 -1.219e-06
-1.19058e-06 -1.219e-06 -4.63558e-06
0.00110706 4.77708e-05 -2.67267e-07
4.77708e-05 3.8188e-05 1.32395e-07
-2.67267e-07 1.32395e-07 -3.92412e-05
0.000992496 4.4126e-05 4.94328e-07
4.4126e-05 2.53271e-06 8.34821e-07
4.94328e-07 8.34821e-07 -7.31379e-05
0.00108787 3.37928e-05 -2.73185e-08
3.37928e-05 6.46561e-05 -9.8404e-08
-2.73185e-08 -9.8404e-08 -1.55108e-06
0.000964919 8.67666e-06 -2.38914e-06
8.67666e-06 3.32295e-05 -1.21855e-06
-2.38914e-06 -1.21855e-06 -2.11075e-05
0.00100756 2.56177e-05 1.00998e-06
2.56177e-05 3.7299e-05 3.97496e-07
1.00998e-06 3.97496e-07 -2.75879e-05
0.000927414 9.69126e-08 2.21844e-08
9.69126e-08 1.90388e-05 7.0856e-08
2.21844e-08 7.0856e-08 -3.38583e-05
0.000827169 -2.84881e-05 -4.4137e-06
-2.84881e-05 -1.15885e-05 -2.61823e-06
-4.4137e-06 -2.61823e-06 -3.50525e-05
0.000904601 -4.72686e-06 2.48522e-06
-4.72686e-06 7.67251e-06 1.54332e-06
2.48522e-06 1.54332e-06 -4.3598e-05
0.000790726 -2.71278e-05 -9.53111e-09
-2.71278e-05 -3.83043e-05 1.73727e-08
-9.53111e-09 1.73727e-08 -5.84209e-05
0.00259537 -4.03711e-05 -1.74447e-05
-4.03711e-05 0.000867936 -3.21299e-06
-1.74447e-05 -3.21299e-06 0.00087692
0.000780378 -2.42959e-05 4.37504e-06
-2.42959e-05 -5.45851e-05 3.15839e-06
4.37504e-06 3.15839e-06 -7.14258e-05
0.0026138 -3.79223e-05 -1.79394e-07
-3.79223e-05 0.000863644 7.78433e-08
-1.79394e-07 7.78433e-08 0.00087507
0.00264848 -3.50391e-05 1.6534e-05
-3.50391e-05 0.000869461 3.64531e-06
1.6534e-05 3.64531e-06 0.000882869
0.001482 -2.07314e-05 -2.13118e-06
-2.07314e-05 6.56399e-05 2.25637e-06
-2.13118e-06 2.25637e-06 -8.00156e-07
0.00152703 -2.21782e-05 3.11979e-07
-2.21782e-05 6.84287e-05 -6.38476e-07
3.11979e-07 -6.38476e-07 1.15428e-05
0.00163675 -1.06161e-05 5.95248e-06
-1.06161e-05 8.62277e-05 -1.08762e-06
5.95248e-06 -1.08762e-06 3.50003e-05
0.00129301 2.10478e-05 -2.17213e-06
2.10478e-05 -4.5472e-05 2.76903e-07
-2.17213e-06 2.76903e-07 -0.000125246
0.00147939 5.27692e-05 1.06813e-07
5.27692e-05 9.8684e-05 -5.62392e-07
1.06813e-07 -5.62392e-07 1.59029e-05
0.00129587 5.21279e-05 -9.34284e-07
5.21279e-05 0.000120492 1.79473e-06
-9.34284e-07 1.79473e-06 4.77697e-05
0.00169837 5.85447e-05 1.12196e-06
5.85447e-05 0.000269472 1.10971e-06
1.12196e-06 1.10971e-06 0.000191295
0.00166058 1.96884e-05 -5.12312e-09
1.96884e-05 0.000109474 -1.1574e-07
-5.12312e-09 -1.1574e-07 2.7617e-05
0.00152848 6.02392e-05 1.62747e-06
6.02392e-05 9.95132e-05 1.78844e-06
1.62747e-06 1.78844e-06 7.57304e-06
0.00169487 1.84108e-05 2.58509e-06
1.84108e-05 9.84663e-05 -5.47985e-07
2.58509e-06 -5.47985e-07 2.01812e-05
0.00129402 1.80115e-06 -5.22193e-08
1.80115e-06 3.8814e-05 1.32606e-07
-5.22193e-08 1.32606e-07 -2.51828e-05
0.00126094 3.87084e-06 -2.57621e-09
3.87084e-06 1.89209e-05 -1.24391e-07
-2.57621e-09 -1.24391e-07 -4.03674e-05
0.00121305 5.31394e-06 1.47381e-06
5.31394e-06 -1.36601e-05 1.23589e-06
1.47381e-06 1.23589e-06 -6.59808e-05
0.0014098 3.20447e-05 -7.71727e-07
3.20447e-05 9.3978e-05 -3.85947e-07
-7.71727e-07 -3.85947e-07 2.34157e-05
0.00159826 3.91904e-05 3.29453e-06
3.91904e-05 0.000158267 1.60384e-06
3.29453e-06 1.60384e-06 9.36331e-05
0.00138039 3.21135e-05 3.31761e-07
3.21135e-05 6.75321e-05 1.44364e-07
3.31761e-07 1.44364e-07 -5.67717e-07
0.00142794 2.92968e-05 -1.15112e-06
2.92968e-05 8.55966e-05 -4.09515e-07
-1.15112e-06 -4.09515e-07 1.65071e-05
0.00150681 2.1964e-05 1.70076e-06
2.1964e-05 8.5021e-05 2.32358e-07
1.70076e-06 2.32358e-07 1.47054e-05
0.00140764 1.74821e-05 -6.08173e-07
1.74821e-05 5.75628e-05 -2.64257e-07
-6.08173e-07 -2.64257e-07 -1.28112e-05
0.00135563 1.3163e-05 -2.32971e-06
1.3163e-05 5.31712e-05 -5.01854e-07
-2.32971e-06 -5.01854e-07 -1.83233e-05
0.00139091 -6.32873e-06 1.88077e-06
-6.32873e-06 5.86417e-05 -4.33238e-07
1.88077e-06 -4.33238e-07 -1.20842e-05
0.00134428 -1.14698e-05 3.84247e-08
-1.14698e-05 5.66185e-05 1.20234e-07
3.84247e-08 1.20234e-07 -1.40812e-05
0.00126664 -1.84225e-05 -2.04355e-06
-1.84225e-05 4.82735e-05 7.54288e-07
-2.04355e-06 7.54288e-07 -1.91013e-05
0.00131074 -2.89904e-05 1.34745e-06
-2.89904e-05 6.11153e-05 -1.03566e-06
1.34745e-06 -1.03566e-06 -6.73979e-06
0.00122583 -2.70955e-05 1.98333e-08
-2.70955e-05 4.61783e-05 4.89429e-08
1.98333e-08 4.89429e-08 -1.90848e-05
0.00106684 -1.85471e-05 -2.93156e-06
-1.85471e-05 1.51312e-05 1.45881e-06
-2.93156e-06 1.45881e-06 -4.18503e-05
0.00118761 -2.91651e-05 1.52774e-06
-2.91651e-05 4.4502e-05 -1.10291e-06
1.52774e-06 -1.10291e-06 -1.81708e-05
0.00102224 -1.73519e-05 4.5603e-08
-1.73519e-05 7.4744e-06 -4.10389e-08
4.5603e-08 -4.10389e-08 -4.72659e-05
0.00168 1.38914e-05 -5.20869e-06
1.38914e-05 0.000412936 1.25062e-06
-5.20869e-06 1.25062e-06 0.000384214
0.000982296 -1.60306e-05 2.60453e-06
-1.60306e-05 1.8852e-06 -1.37937e-06
2.60453e-06 -1.37937e-06 -5.13094e-05
0.00167966 1.63714e-05 4.0269e-06
1.63714e-05 0.000410578 -8.16338e-07
4.0269e-06 -8.16338e-07 0.00038412
0.00121618 2.96827e-05 -2.21395e-05
2.96827e-05 0.000212814 4.63584e-06
-2.21395e-05 4.63584e-06 0.000201296
0.00166567 1.9293e-05 1.27825e-05
1.9293e-05 0.000401511 -3.39513e-06
1.27825e-05 -3.39513e-06 0.000377709
0.00117291 3.16466e-05 -7.75286e-06
3.16466e-05 0.000179514 1.91377e-06
-7.75286e-06 1.91377e-06 0.000171852
0.00277538 4.90835e-05 8.05824e-06
4.90835e-05 0.000969817 -1.23342e-06
8.05824e-06 -1.23342e-06 0.000974946
0.00161393 2.73718e-05 -2.17704e-06
2.73718e-05 0.000132934 -6.95181e-07
-2.17704e-06 -6.95181e-07 5.30726e-05
0.00142033 4.58909e-05 -8.14286e-07
4.58909e-05 9.72946e-05 -2.00042e-06
-8.14286e-07 -2.00042e-06 2.16913e-05
0.00145924 4.84857e-05 -1.03373e-06
4.84857e-05 9.33468e-05 8.66052e-07
-1.03373e-06 8.66052e-07 1.56464e-05
0.00141645 4.47139e-05 -7.90996e-07
4.47139e-05 0.000180012 -6.42436e-07
-7.90996e-07 -6.42436e-07 0.000110648
0.00124568 4.85506e-05 4.25768e-07
4.85506e-05 7.20296e-05 -6.91438e-07
4.25768e-07 -6.91438e-07 -2.10109e-06
0.00119545 4.83407e-05 2.04364e-06
4.83407e-05 2.59889e-05 1.46372e-06
2.04364e-06 1.46372e-06 -4.15654e-05
0.00098758 1.8214e-05 -2.40061e-06
1.8214e-05 3.43276e-05 -1.57258e-06
-2.40061e-06 -1.57258e-06 -2.30433e-05
0.00111693 3.91806e-05 -4.75843e-08
3.91806e-05 6.28655e-05 -1.04239e-07
-4.75843e-08 -1.04239e-07 -6.24324e-06
0.00132594 5.18967e-05 1.15229e-06
5.18967e-05 0.000141185 1.29035e-06
1.15229e-06 1.29035e-06 6.37712e-05
0.00104975 3.28907e-05 1.04933e-06
3.28907e-05 4.81704e-05 4.79137e-07
1.04933e-06 4.79137e-07 -1.8134e-05
0.000939351 6.77992e-06 1.72545e-08
6.77992e-06 2.24322e-05 -5.47403e-09
1.72545e-08 -5.47403e-09 -3.20893e-05
0.000828814 -2.26849e-05 -4.77031e-06
-2.26849e-05 -5.54043e-06 -2.54133e-06
-4.77031e-06 -2.54133e-06 -3.25226e-05
0.000902885 -1.78484e-06 2.40578e-06
-1.78484e-06 8.51176e-06 1.26655e-06
2.40578e-06 1.26655e-06 -4.45672e-05
0.000773618 -2.8787e-05 -1.57449e-08
-2.8787e-05 -3.70698e-05 -8.04623e-09
-1.57449e-08 -8.04623e-09 -6.05133e-05
0.00264174 -4.28924e-05 -1.83178e-05
-4.28924e-05 0.000903281 -3.04874e-06
-1.83178e-05 -3.04874e-06 0.000909709
0.000747017 -2.63498e-05 4.43673e-06
-2.63498e-05 -5.979e-05 2.97993e-06
4.43673e-06 2.97993e-06 -7.9722e-05
0.0026367 -4.07542e-05 -1.80825e-07
-4.07542e-05 0.000886166 8.06492e-08
-1.80825e-07 8.06492e-08 0.000895418
0.00265949 -3.81564e-05 1.68588e-05
-3.81564e-05 0.000884331 3.45224e-06
1.68588e-05 3.45224e-06 0.000895951
0.00147535 -1.2887e-05 -8.5613e-07
-1.2887e-05 7.12962e-05 1.16402e-06
-8.5613e-07 1.16402e-06 1.7357e-06
0.00157962 -2.03463e-05 -1.14582e-07
-2.03463e-05 0.000105633 6.01486e-07
-1.14582e-07 6.01486e-07 3.83663e-05
0.00146498 -2.09422e-05 1.33333e-06
-2.09422e-05 4.16429e-05 -2.49981e-06
1.33333e-06 -2.49981e-06 -1.5572e-05
0.00145348 2.14249e-05 8.3276e-08
2.14249e-05 2.51227e-05 -1.80958e-07
8.3276e-08 -1.80958e-07 -5.46539e-05
0.00152692 5.32803e-05 1.50896e-06
5.32803e-05 0.000123403 1.19677e-06
1.50896e-06 1.19677e-06 4.05507e-05
0.00179969 2.12743e-05 2.45984e-06
2.12743e-05 0.000174938 -6.67581e-07
2.45984e-06 -6.67581e-07 9.30572e-05
0.00133427 5.30639e-07 -6.3756e-07
5.30639e-07 5.56738e-05 2.28615e-07
-6.3756e-07 2.28615e-07 -1.4544e-05
0.00128485 3.33224e-06 5.62416e-07
3.33224e-06 3.80438e-05 -1.41837e-07
5.62416e-07 -1.41837e-07 -2.61628e-05
0.00139057 4.94013e-06 1.75586e-06
4.94013e-06 7.61523e-05 3.50502e-07
1.75586e-06 3.50502e-07 1.51995e-05
0.0013763 2.44978e-05 -5.27808e-07
2.44978e-05 7.83229e-05 -2.28976e-08
-5.27808e-07 -2.28976e-08 7.71722e-06
0.00140001 2.28215e-05 -4.78814e-07
2.28215e-05 9.10256e-05 -7.00732e-08
-4.78814e-07 -7.00732e-08 1.79317e-05
0.0013668 3.23052e-05 1.86092e-06
3.23052e-05 6.07789e-05 9.02992e-07
1.86092e-06 9.02992e-07 -7.72427e-06
0.00139159 2.87892e-05 3.44792e-07
2.87892e-05 6.9125e-05 3.59854e-07
3.44792e-07 3.59854e-07 -2.89017e-08
0.00146903 2.68592e-05 -8.69759e-07
2.68592e-05 0.000114631 -2.96546e-07
-8.69759e-07 -2.96546e-07 4.43877e-05
0.00143829 1.68097e-05 1.70623e-06
1.68097e-05 7.19886e-05 4.83993e-07
1.70623e-06 4.83993e-07 1.71275e-06
0.00136438 1.18835e-05 -4.80045e-07
1.18835e-05 5.69881e-05 -7.89922e-08
-4.80045e-07 -7.89922e-08 -1.42959e-05
0.00128276 5.31283e-06 -2.74032e-06
5.31283e-06 4.7133e-05 2.70858e-07
-2.74032e-06 2.70858e-07 -2.16682e-05
0.00134004 -1.17306e-05 1.58037e-06
-1.17306e-05 5.45667e-05 -5.01395e-07
1.58037e-06 -5.01395e-07 -1.61793e-05
0.00126528 -1.77318e-05 4.49152e-08
-1.77318e-05 4.75223e-05 4.88824e-08
4.49152e-08 4.88824e-08 -1.99008e-05
0.00109208 -1.31146e-05 -3.28304e-06
-1.31146e-05 1.42697e-05 1.21823e-06
-3.28304e-06 1.21823e-06 -4.43979e-05
0.00123159 -2.68108e-05 1.85843e-06
-2.68108e-05 4.86437e-05 -9.29291e-07
1.85843e-06 -9.29291e-07 -1.66343e-05
0.00106156 -1.77706e-05 1.07785e-07
-1.77706e-05 1.22583e-05 4.09419e-08
1.07785e-07 4.09419e-08 -4.47823e-05
0.00170828 9.00639e-06 -5.32482e-06
9.00639e-06 0.000424962 1.10949e-06
-5.32482e-06 1.10949e-06 0.000394518
0.00101713 -1.67532e-05 2.71195e-06
-1.67532e-05 5.23696e-06 -1.43296e-06
2.71195e-06 -1.43296e-06 -4.95809e-05
0.00171301 1.13629e-05 4.27772e-06
1.13629e-05 0.0004267 -7.02911e-07
4.27772e-06 -7.02911e-07 0.000397902
0.00122566 2.90434e-05 -2.34282e-05
2.90434e-05 0.000229698 4.05964e-06
-2.34282e-05 4.05964e-06 0.000215062
0.00169885 1.37689e-05 1.34057e-05
1.37689e-05 0.000417497 -3.0817e-06
1.34057e-05 -3.0817e-06 0.000391009
0.00120046 3.20066e-05 -8.25162e-06
3.20066e-05 0.00020586 1.73618e-06
-8.25162e-06 1.73618e-06 0.000194395
0.00114281 3.36807e-05 5.61935e-06
3.36807e-05 0.00016561 -1.30761e-06
5.61935e-06 -1.30761e-06 0.000158088
0.00150054 -3.63878e-06 -1.01158e-06
-3.63878e-06 7.9833e-05 1.03438e-06
-1.01158e-06 1.03438e-06 1.02545e-05
0.00144127 2.98008e-05 -2.15198e-06
2.98008e-05 7.4271e-05 -5.26908e-07
-2.15198e-06 -5.26908e-07 -3.24533e-06
0.00157576 2.7033e-05 -7.47167e-07
2.7033e-05 0.000110691 -5.97267e-07
-7.47167e-07 -5.97267e-07 3.06724e-05
0.00136815 4.21823e-05 -1.52654e-06
4.21823e-05 0.000112628 -1.00919e-06
-1.52654e-06 -1.00919e-06 4.17432e-05
0.0014745 4.65063e-05 5.99594e-07
4.65063e-05 0.000127025 4.4467e-07
5.99594e-07 4.4467e-07 5.17536e-05
0.00147815 4.91459e-05 2.67442e-06
4.91459e-05 0.000110671 2.31613e-06
2.67442e-06 2.31613e-06 3.36551e-05
0.000973467 2.48046e-05 -2.68474e-06
2.48046e-05 3.81356e-06 -1.39826e-06
-2.68474e-06 -1.39826e-06 -5.58971e-05
0.00116339 4.15176e-05 6.67405e-07
4.15176e-05 5.51568e-05 4.93357e-07
6.67405e-07 4.93357e-07 -1.52163e-05
0.00111225 4.71119e-05 1.05825e-06
4.71119e-05 6.0234e-06 1.52018e-06
1.05825e-06 1.52018e-06 -6.79558e-05
0.000838488 -9.88369e-06 -5.25595e-06
-9.88369e-06 -8.06248e-07 -2.69182e-06
-5.25595e-06 -2.69182e-06 -3.22224e-05
0.000958942 1.7065e-05 -4.68752e-08
1.7065e-05 2.07445e-05 -7.81809e-08
-4.68752e-08 -7.81809e-08 -3.65479e-05
0.00111755 3.9437e-05 1.19211e-06
3.9437e-05 6.3171e-05 1.03079e-06
1.19211e-06 1.03079e-06 -5.96666e-06
0.000903495 4.61752e-06 2.21636e-06
4.61752e-06 6.6589e-06 1.08823e-06
2.21636e-06 1.08823e-06 -4.80239e-05
0.0007668 -2.36958e-05 -1.15002e-07
-2.36958e-05 -3.35015e-05 -5.82749e-08
-1.15002e-07 -5.82749e-08 -6.06019e-05
0.00273562 -4.52147e-05 -1.97696e-05
-4.52147e-05 0.000962653 -2.95879e-06
-1.97696e-05 -2.95879e-06 0.000966054
0.000719209 -2.78968e-05 4.46741e-06
-2.78968e-05 -6.30258e-05 2.77744e-06
4.46741e-06 2.77744e-06 -8.63804e-05
0.00266919 -4.33338e-05 -1.94278e-07
-4.33338e-05 0.000914601 8.23731e-08
-1.94278e-07 8.23731e-08 0.000921386
0.00267943 -4.11039e-05 1.72507e-05
-4.11039e-05 0.000905077 3.25238e-06
1.72507e-05 3.25238e-06 0.000914597
0.00143936 -1.86093e-05 -3.07495e-07
-1.86093e-05 7.78918e-05 -3.59794e-07
-3.07495e-07 -3.59794e-07 4.85215e-06
0.00150202 -1.30883e-05 -3.08525e-07
-1.30883e-05 8.11909e-05 2.77037e-07
-3.08525e-07 2.77037e-07 1.13158e-05
0.00160283 -1.97034e-05 1.13914e-06
-1.97034e-05 0.000110678 -1.37093e-06
1.13914e-06 -1.37093e-06 4.25188e-05
0.00159589 2.16668e-05 2.59913e-06
2.16668e-05 8.71484e-05 -8.02858e-08
2.59913e-06 -8.02858e-08 7.36397e-06
0.00133791 -1.74637e-06 -7.62505e-07
-1.74637e-06 5.32132e-05 -2.39931e-07
-7.62505e-07 -2.39931e-07 -2.11498e-05
0.00136713 6.22704e-07 -2.46044e-07
6.22704e-07 7.21269e-05 -9.92888e-08
-2.46044e-07 -9.92888e-08 2.32451e-06
0.00127593 4.86541e-06 6.94006e-07
4.86541e-06 3.71435e-05 8.89007e-08
6.94006e-07 8.89007e-08 -2.72385e-05
0.00133118 2.01083e-05 -1.628e-07
2.01083e-05 5.72401e-05 4.35061e-07
-1.628e-07 4.35061e-07 -1.3547e-05
0.00136111 2.68215e-05 1.07967e-07
2.68215e-05 7.25772e-05 -8.4422e-08
1.07967e-07 -8.4422e-08 -5.53336e-07
0.00136727 2.41277e-05 -1.35906e-06
2.41277e-05 8.09745e-05 6.71935e-08
-1.35906e-06 6.71935e-08 9.07342e-06
0.00135689 2.82669e-05 1.89362e-06
2.82669e-05 5.33507e-05 1.21587e-06
1.89362e-06 1.21587e-06 -1.58569e-05
0.00142392 2.66946e-05 3.79915e-07
2.66946e-05 9.44021e-05 2.32086e-07
3.79915e-07 2.32086e-07 2.42187e-05
0.00126542 2.43808e-05 -2.10336e-06
2.43808e-05 3.83577e-05 -2.51528e-07
-2.10336e-06 -2.51528e-07 -3.08291e-05
0.00136792 1.20558e-05 1.2829e-06
1.20558e-05 5.84396e-05 3.62063e-07
1.2829e-06 3.62063e-07 -1.26614e-05
0.00127904 6.73982e-06 -2.41334e-07
6.73982e-06 4.52723e-05 1.33632e-07
-2.41334e-07 1.33632e-07 -2.34222e-05
0.00110337 2.69722e-06 -3.49432e-06
2.69722e-06 1.1973e-05 8.2612e-07
-3.49432e-06 8.2612e-07 -4.77419e-05
0.00126262 -1.49062e-05 2.07711e-06
-1.49062e-05 4.62101e-05 -6.29599e-07
2.07711e-06 -6.29599e-07 -2.12494e-05
0.00109273 -1.45955e-05 7.30263e-08
-1.45955e-05 1.42826e-05 9.09704e-08
7.30263e-08 9.09704e-08 -4.44727e-05
0.000708067 1.05139e-06 -5.7121e-06
1.05139e-06 -7.6614e-05 1.62919e-06
-5.7121e-06 1.62919e-06 -0.000113487
0.00105811 -1.70858e-05 3.0247e-06
-1.70858e-05 1.02782e-05 -1.30569e-06
3.0247e-06 -1.30569e-06 -4.68276e-05
0.00123842 2.10507e-06 5.48341e-06
2.10507e-06 0.000188487 -4.99761e-07
5.48341e-06 -4.99761e-07 0.00015522
0.00329801 5.66587e-05 -2.45225e-05
5.66587e-05 0.00127123 1.88574e-06
-2.45225e-05 1.88574e-06 0.00126584
0.00174533 8.94209e-06 1.41402e-05
8.94209e-06 0.000440077 -2.76209e-06
1.41402e-05 -2.76209e-06 0.00041123
0.00122849 3.19277e-05 -8.82019e-06
3.19277e-05 0.000232002 1.50849e-06
-8.82019e-06 1.50849e-06 0.000217271
0.00118244 3.44898e-05 5.95768e-06
3.44898e-05 0.000197828 -1.20624e-06
5.95768e-06 -1.20624e-06 0.000186402
0.00152439 -1.30328e-05 -2.37287e-07
-1.30328e-05 0.000113324 -2.37131e-07
-2.37287e-07 -2.37131e-07 4.20373e-05
0.00135693 3.70321e-06 -1.40348e-06
3.70321e-06 2.94561e-05 6.73635e-07
-1.40348e-06 6.73635e-07 -4.20189e-05
0.00145086 -3.48531e-06 1.20586e-07
-3.48531e-06 5.91095e-05 -4.92192e-08
1.20586e-07 -4.92192e-08 -1.08171e-05
0.0010451 2.95109e-05 -2.42845e-06
2.95109e-05 -7.74406e-05 -8.01637e-07
-2.42845e-06 -8.01637e-07 -0.000150599
0.00147077 2.99255e-05 1.46884e-07
2.99255e-05 9.07522e-05 -1.03396e-10
1.46884e-07 -1.03396e-10 1.41524e-05
0.00153361 2.67977e-05 1.68395e-06
2.67977e-05 8.65801e-05 -3.02094e-07
1.68395e-06 -3.02094e-07 6.4033e-06
0.000732755 2.31624e-05 -3.81086e-06
2.31624e-05 -0.00014767 -1.71398e-06
-3.81086e-06 -1.71398e-06 -0.000210212
0.00137173 4.25607e-05 3.86703e-07
4.25607e-05 0.000113862 1.56152e-08
3.86703e-07 1.56152e-08 4.29478e-05
0.00153489 4.72647e-05 1.82026e-06
4.72647e-05 0.000160004 1.73398e-06
1.82026e-06 1.73398e-06 8.50227e-05
0.000826334 2.30478e-06 -5.91323e-06
2.30478e-06 -1.397e-05 -2.61638e-06
-5.91323e-06 -2.61638e-06 -4.97461e-05
0.000830745 2.26665e-05 -8.1227e-08
2.26665e-05 -6.81549e-05 9.77998e-08
-8.1227e-08 9.77998e-08 -0.000128706
0.000912494 3.83297e-05 2.11321e-06
3.83297e-05 -6.86908e-05 1.79734e-06
2.11321e-06 1.79734e-06 -0.000140071
0.00294792 -4.76283e-05 -2.24126e-05
-4.76283e-05 0.001079 -2.90318e-06
-2.24126e-05 -2.90318e-06 0.00107889
0.00076551 -1.24126e-05 -1.44213e-07
-1.24126e-05 -3.27664e-05 -7.30255e-08
-1.44213e-07 -7.30255e-08 -6.43802e-05
0.000931213 1.58124e-05 2.1641e-06
1.58124e-05 7.58994e-06 1.35234e-06
2.1641e-06 1.35234e-06 -4.96276e-05
0.000701149 -2.67543e-05 4.3953e-06
-2.67543e-05 -6.28941e-05 2.64923e-06
4.3953e-06 2.64923e-06 -9.02726e-05
0.00275116 -4.59367e-05 -1.85126e-07
-4.59367e-05 0.000968175 8.96848e-08
-1.85126e-07 8.96848e-08 0.00097203
0.00270945 -4.38108e-05 1.78152e-05
-4.38108e-05 0.000931971 3.05517e-06
1.78152e-05 3.05517e-06 0.000939112
0.00138257 -1.78785e-05 -1.01498e-06
-1.78785e-05 6.50225e-05 -1.07947e-07
-1.01498e-06 -1.07947e-07 -8.43852e-06
0.00142463 -1.83505e-05 -2.67534e-07
-1.83505e-05 7.27823e-05 -3.77198e-07
-2.67534e-07 -3.77198e-07 4.02994e-07
0.00154156 -1.32429e-05 9.26621e-07
-1.32429e-05 9.72751e-05 -8.50413e-07
9.26621e-07 -8.50413e-07 2.70839e-05
0.00140418 1.23405e-05 -1.00383e-06
1.23405e-05 8.65479e-05 -8.24327e-09
-1.00383e-06 -8.24327e-09 1.1673e-05
0.00138367 1.49261e-06 -2.16948e-07
1.49261e-06 7.45432e-05 -1.36851e-07
-2.16948e-07 -1.36851e-07 -8.89391e-08
0.00141522 -2.01361e-06 -1.63009e-07
-2.01361e-06 9.58188e-05 6.94983e-08
-1.63009e-07 6.94983e-08 2.65226e-05
0.00132464 2.94636e-05 7.23902e-07
2.94636e-05 5.51895e-05 -3.95286e-07
7.23902e-07 -3.95286e-07 -1.78933e-05
0.00136468 2.60738e-05 2.13405e-07
2.60738e-05 7.90369e-05 1.6044e-07
2.13405e-07 1.6044e-07 7.23295e-06
0.00138447 2.01163e-05 -1.57669e-06
2.01163e-05 0.000105291 2.25529e-07
-1.57669e-06 2.25529e-07 3.67526e-05
0.00138381 2.65611e-05 1.90096e-06
2.65611e-05 7.65525e-05 1.03711e-06
1.90096e-06 1.03711e-06 6.42944e-06
0.00135827 2.60503e-05 9.14599e-08
2.60503e-05 8.61151e-05 5.84897e-08
9.14599e-08 5.84897e-08 1.76307e-05
0.000908872 1.90166e-05 -4.16407e-06
1.90166e-05 -8.76288e-05 4.67716e-07
-4.16407e-06 4.67716e-07 -0.000149489
0.00127191 5.9093e-06 1.98473e-06
5.9093e-06 4.17837e-05 3.8084e-08
1.98473e-06 3.8084e-08 -2.68269e-05
0.00109597 3.83865e-06 -2.29184e-08
3.83865e-06 8.33379e-06 6.90873e-08
-2.29184e-08 6.90873e-08 -5.1362e-05
0.000709998 6.75542e-06 -5.71106e-06
6.75542e-06 -7.67717e-05 1.31345e-06
-5.71106e-06 1.31345e-06 -0.000114295
0.00109056 -1.41499e-05 3.41481e-06
-1.41499e-05 1.28925e-05 -1.00884e-06
3.41481e-06 -1.00884e-06 -4.59222e-05
0.000725375 3.84856e-06 -9.31662e-08
3.84856e-06 -6.915e-05 1.02652e-07
-9.31662e-08 1.02652e-07 -0.000106074
0.00336845 5.95017e-05 -2.53595e-05
5.95017e-05 0.00131145 1.41164e-06
-2.53595e-05 1.41164e-06 0.00130492
0.000762698 -5.59244e-06 7.8187e-06
-5.59244e-06 -5.06034e-05 -2.60868e-06
7.8187e-06 -2.60868e-06 -8.69581e-05
0.00230215 4.63254e-05 7.11488e-06
4.63254e-05 0.000776094 4.44038e-07
7.11488e-06 4.44038e-07 0.000764623
0.00123111 3.5106e-05 6.27364e-06
3.5106e-05 0.000234266 -1.08155e-06
6.27364e-06 -1.08155e-06 0.000219404
0.00156641 -2.03344e-05 -6.54276e-07
-2.03344e-05 0.000150482 -6.89681e-08
-6.54276e-07 -6.89681e-08 7.79078e-05
0.00139486 -8.75239e-06 -9.70881e-07
-8.75239e-06 6.20982e-05 -5.40371e-08
-9.70881e-07 -5.40371e-08 -7.89463e-06
0.00141693 -1.26717e-05 -2.33488e-07
-1.26717e-05 6.12651e-05 3.31996e-08
-2.33488e-07 3.31996e-08 -9.89333e-06
0.00126534 1.10581e-05 -1.96583e-06
1.10581e-05 2.22169e-05 2.03957e-07
-1.96583e-06 2.03957e-07 -4.75367e-05
0.00134851 3.17983e-06 4.24868e-07
3.17983e-06 2.82022e-05 -2.05524e-07
4.24868e-07 -2.05524e-07 -4.30823e-05
0.00141233 -3.4463e-06 1.2149e-06
-3.4463e-06 4.37162e-05 -7.42254e-07
1.2149e-06 -7.42254e-07 -2.6565e-05
0.000785462 2.06752e-05 -4.22533e-06
2.06752e-05 -0.000148582 -1.4327e-06
-4.22533e-06 -1.4327e-06 -0.000212089
0.00134617 3.3238e-05 -5.11688e-07
3.3238e-05 6.99286e-05 -5.75298e-08
-5.11688e-07 -5.75298e-08 -2.0693e-06
0.00149417 2.99995e-05 2.24917e-06
2.99995e-05 0.000104344 -1.16347e-07
2.24917e-06 -1.16347e-07 2.86563e-05
0.00079411 9.62773e-06 -6.56205e-06
9.62773e-06 -3.91329e-05 -2.45832e-06
-6.56205e-06 -2.45832e-06 -7.76473e-05
0.000782888 2.43831e-05 -9.30392e-07
2.43831e-05 -0.000126655 -3.91892e-07
-9.30392e-07 -3.91892e-07 -0.000189505
0.00137814 4.30134e-05 2.25949e-06
4.30134e-05 0.000116476 1.18972e-06
2.25949e-06 1.18972e-06 4.55261e-05
0.00322041 -4.99697e-05 -2.56623e-05
-4.99697e-05 0.00122205 -2.67518e-06
-2.56623e-05 -2.67518e-06 0.00121873
0.000763077 2.75332e-07 -2.1415e-07
2.75332e-07 -4.0812e-05 7.82665e-08
-2.1415e-07 7.82665e-08 -7.6775e-05
0.000691742 2.061e-05 2.44681e-06
2.061e-05 -0.000138446 1.70884e-06
2.44681e-06 1.70884e-06 -0.000199831
0.00291511 -4.86232e-05 -1.92101e-07
-4.86232e-05 0.00106143 1.1078e-07
-1.92101e-07 1.1078e-07 0.0010619
0.000693379 -1.42823e-05 4.64186e-06
-1.42823e-05 -6.42651e-05 2.74469e-06
4.64186e-06 2.74469e-06 -9.60381e-05
0.00275808 -4.63257e-05 1.84933e-05
-4.63257e-05 0.000969384 2.88416e-06
1.84933e-05 2.88416e-06 0.000973746
0.00140545 -3.9474e-06 -1.04871e-06
-3.9474e-06 8.42874e-05 -1.81806e-07
-1.04871e-06 -1.81806e-07 1.05186e-05
0.00140351 -1.70549e-05 3.0681e-07
-1.70549e-05 7.45257e-05 7.48431e-09
3.0681e-07 7.48431e-09 1.01581e-06
0.00140199 -1.78699e-05 6.09875e-08
-1.78699e-05 6.36959e-05 -6.18975e-07
6.09875e-08 -6.18975e-07 -7.98848e-06
0.0014013 1.12805e-06 -1.85762e-06
1.12805e-06 0.000101792 2.70654e-08
-1.85762e-06 2.70654e-08 3.05385e-05
0.00142124 1.23509e-05 1.66915e-07
1.23509e-05 9.62725e-05 -7.06494e-08
1.66915e-07 -7.06494e-08 2.14055e-05
0.00142826 7.00045e-06 1.00885e-06
7.00045e-06 9.55224e-05 8.31769e-08
1.00885e-06 8.31769e-08 2.04855e-05
0.00136549 2.69069e-05 1.3577e-06
2.69069e-05 7.87346e-05 -1.84307e-07
1.3577e-06 -1.84307e-07 7.06185e-06
0.00137874 2.06582e-05 3.78583e-07
2.06582e-05 0.000101931 -4.21689e-08
3.78583e-07 -4.21689e-08 3.3554e-05
0.000894833 1.31846e-05 -3.98816e-06
1.31846e-05 -9.59818e-05 4.89034e-07
-3.98816e-06 4.89034e-07 -0.000158721
0.00145824 2.77238e-05 2.19668e-06
2.77238e-05 0.000137318 2.69109e-07
2.19668e-06 2.69109e-07 6.95334e-05
0.00101073 2.03907e-05 -6.217e-07
2.03907e-05 -3.67086e-05 1.43424e-07
-6.217e-07 1.43424e-07 -9.78639e-05
0.000719462 1.04204e-05 -6.09014e-06
1.04204e-05 -7.27392e-05 1.08006e-06
-6.09014e-06 1.08006e-06 -0.000111644
0.00108946 2.68491e-06 3.39246e-06
2.68491e-06 5.0902e-06 -6.75566e-07
3.39246e-06 -6.75566e-07 -5.45887e-05
0.000717689 1.36999e-05 1.20064e-07
1.36999e-05 -7.33436e-05 4.79451e-08
1.20064e-07 4.79451e-08 -0.000111127
0.00342731 6.20752e-05 -2.68376e-05
6.20752e-05 0.00134624 9.40303e-07
-2.68376e-05 9.40303e-07 0.0013386
0.000739739 8.2021e-06 5.5913e-06
8.2021e-06 -6.32319e-05 -1.45345e-06
5.5913e-06 -1.45345e-06 -0.000100088
0.00337405 5.88899e-05 1.52441e-07
5.88899e-05 0.00131539 1.23056e-07
1.52441e-07 1.23056e-07 0.00130873
0.00131763 2.96068e-05 2.22434e-05
2.96068e-05 0.000286022 -1.79826e-06
2.22434e-05 -1.79826e-06 0.000268974
0.00152225 -1.51759e-05 -1.06475e-06
-1.51759e-05 0.0001391 -1.29845e-07
-1.06475e-06 -1.29845e-07 6.78112e-05
0.00145759 -2.01858e-05 3.57881e-07
-2.01858e-05 9.72844e-05 1.05431e-07
3.57881e-07 1.05431e-07 2.45451e-05
0.00128347 -8.16391e-06 -1.66516e-06
-8.16391e-06 3.58801e-05 -1.43125e-07
-1.66516e-06 -1.43125e-07 -3.28017e-05
0.00138574 -9.28201e-06 1.86361e-07
-9.28201e-06 5.78253e-05 -1.71528e-07
1.86361e-07 -1.71528e-07 -1.21234e-05
0.001307 -1.23341e-05 9.4524e-07
-1.23341e-05 8.14316e-06 3.00753e-07
9.4524e-07 3.00753e-07 -6.29004e-05
0.0011036 1.00783e-05 -3.66897e-06
1.00783e-05 -2.16722e-06 -6.75463e-07
-3.66897e-06 -6.75463e-07 -6.35334e-05
0.0013022 1.10853e-05 -9.08813e-09
1.10853e-05 3.92257e-05 1.04348e-07
-9.08813e-09 1.04348e-07 -3.06227e-05
0.00134438 2.71093e-06 1.19318e-06
2.71093e-06 2.88189e-05 -8.83494e-07
1.19318e-06 -8.83494e-07 -4.22539e-05
0.000762475 1.1379e-05 -6.95621e-06
1.1379e-05 -6.10861e-05 -2.21334e-06
-6.95621e-06 -2.21334e-06 -0.000100422
0.000965843 2.3119e-05 -1.07965e-06
2.3119e-05 -6.10621e-05 -2.57571e-07
-1.07965e-06 -2.57571e-07 -0.000123953
0.0016456 3.6833e-05 1.89179e-06
3.6833e-05 0.000216432 5.47321e-07
1.89179e-06 5.47321e-07 0.000145611
0.00345173 -5.20159e-05 -2.85293e-05
-5.20159e-05 0.00134252 -2.29743e-06
-2.85293e-05 -2.29743e-06 0.0013369
0.00075629 8.68612e-06 -1.00787e-07
8.68612e-06 -5.44924e-05 1.26758e-07
-1.00787e-07 1.26758e-07 -9.31876e-05
0.00083018 2.56484e-05 2.25536e-06
2.56484e-05 -0.000107039 1.10455e-06
2.25536e-06 1.10455e-06 -0.00017019
0.00316368 -5.121e-05 -2.92258e-07
-5.121e-05 0.00119329 1.52803e-07
-2.92258e-07 1.52803e-07 0.00119048
0.000701028 -1.68068e-06 5.20925e-06
-1.68068e-06 -6.70661e-05 2.89617e-06
5.20925e-06 2.89617e-06 -0.000103212
0.00288486 -4.90702e-05 1.95844e-05
-4.90702e-05 0.00104493 2.77818e-06
1.95844e-05 2.77818e-06 0.00104603
0.00141821 3.86508e-07 -1.51537e-06
3.86508e-07 0.000110002 -4.23061e-07
-1.51537e-06 -4.23061e-07 3.95989e-05
0.00140364 -6.35448e-06 1.09613e-07
-6.35448e-06 8.44685e-05 8.43912e-08
1.09613e-07 8.43912e-08 1.08761e-05
0.00142956 -1.67584e-05 1.38372e-06
-1.67584e-05 8.66356e-05 2.26564e-07
1.38372e-06 2.26564e-07 1.3046e-05
0.000902939 -1.08019e-05 -4.32476e-06
-1.08019e-05 -9.85121e-05 1.16649e-07
-4.32476e-06 1.16649e-07 -0.000162961
0.00141316 7.82569e-06 3.90379e-07
7.82569e-06 0.000108129 9.54739e-08
3.90379e-07 9.54739e-08 3.68224e-05
0.00142963 1.25803e-05 1.50625e-06
1.25803e-05 0.000101851 -1.65451e-07
1.50625e-06 -1.65451e-07 2.7004e-05
0.00137463 2.08758e-05 2.23526e-06
2.08758e-05 9.93798e-05 -3.62111e-08
2.23526e-06 -3.62111e-08 3.11596e-05
0.000910982 1.33486e-05 -4.76421e-07
1.33486e-05 -8.79663e-05 9.24644e-08
-4.76421e-07 9.24644e-08 -0.000150474
0.000713576 1.34395e-05 -6.28684e-06
1.34395e-05 -7.82203e-05 6.59136e-07
-6.28684e-06 6.59136e-07 -0.000117956
0.00110889 2.27357e-05 2.85409e-06
2.27357e-05 1.24001e-05 -3.57533e-07
2.85409e-06 -3.57533e-07 -4.80764e-05
0.000721636 1.88648e-05 1.71038e-07
1.88648e-05 -7.17798e-05 7.53169e-08
1.71038e-07 7.53169e-08 -0.000110892
0.00349499 6.52874e-05 -2.84643e-05
6.52874e-05 0.00138353 4.92156e-07
-2.84643e-05 4.92156e-07 0.00137489
0.000727844 2.1526e-05 5.70142e-06
2.1526e-05 -6.89594e-05 -1.18279e-06
5.70142e-06 -1.18279e-06 -0.000106843
0.00344003 6.1535e-05 3.23777e-07
6.1535e-05 0.00135302 1.21637e-07
3.23777e-07 1.21637e-07 0.00134531
0.0033942 5.82353e-05 2.75421e-05
5.82353e-05 0.00132619 -1.11661e-06
2.75421e-05 -1.11661e-06 0.00131942
0.00133112 -1.19792e-05 -1.82144e-06
-1.19792e-05 6.67798e-05 -4.51825e-07
-1.82144e-06 -4.51825e-07 -2.94454e-06
0.00143356 -1.60307e-05 1.30819e-07
-1.60307e-05 9.4913e-05 2.22257e-07
1.30819e-07 2.22257e-07 2.34227e-05
0.00133655 -1.97978e-05 9.83677e-07
-1.97978e-05 3.80342e-05 2.10637e-07
9.83677e-07 2.10637e-07 -3.48355e-05
0.00110012 -8.48562e-06 -3.46715e-06
-8.48562e-06 -2.2711e-06 -8.4417e-07
-3.46715e-06 -8.4417e-07 -6.32827e-05
0.00129849 -8.54123e-06 1.53861e-07
-8.54123e-06 4.29884e-05 -1.3542e-07
1.53861e-07 -1.3542e-07 -2.57303e-05
0.00137555 -9.78462e-06 8.37088e-07
-9.78462e-06 5.30729e-05 -4.13059e-07
8.37088e-07 -4.13059e-07 -1.68367e-05
0.00072909 5.17006e-06 -6.89712e-06
5.17006e-06 -7.85939e-05 -1.90239e-06
-6.89712e-06 -1.90239e-06 -0.00011745
0.0011265 9.5816e-06 -5.47268e-08
9.5816e-06 8.93624e-06 1.36571e-07
-5.47268e-08 1.36571e-07 -5.25234e-05
0.0013371 1.10419e-05 2.10735e-06
1.10419e-05 5.53054e-05 7.22619e-08
2.10735e-06 7.22619e-08 -1.46414e-05
0.00358051 -5.40038e-05 -3.04151e-05
-5.40038e-05 0.00141136 -1.8293e-06
-3.04151e-05 -1.8293e-06 0.0014044
0.000745982 1.10199e-05 -1.37745e-08
1.10199e-05 -6.72042e-05 1.64168e-07
-1.37745e-08 1.64168e-07 -0.000106673
0.00115258 2.57401e-05 2.70305e-06
2.57401e-05 2.96866e-05 1.02407e-06
2.70305e-06 1.02407e-06 -3.26222e-05
0.00339638 -5.33491e-05 -2.52647e-07
-5.33491e-05 0.00131461 1.61246e-07
-2.52647e-07 1.61246e-07 0.00130931
0.0007213 7.42804e-06 5.98499e-06
7.42804e-06 -6.86018e-05 2.72226e-06
5.98499e-06 2.72226e-06 -0.000107453
0.00309833 -5.19459e-05 2.16997e-05
-5.19459e-05 0.00116038 2.68792e-06
2.16997e-05 2.68792e-06 0.00115812
0.00112483 -5.84925e-06 -3.70069e-06
-5.84925e-06 1.08245e-05 -5.62222e-07
-3.70069e-06 -5.62222e-07 -5.2019e-05
0.00132429 -4.14002e-06 3.48096e-07
-4.14002e-06 6.32073e-05 -4.99462e-08
3.48096e-07 -4.99462e-08 -8.11702e-06
0.00140389 -9.68035e-06 1.53155e-06
-9.68035e-06 8.54545e-05 6.01078e-07
1.53155e-06 6.01078e-07 1.20451e-05
0.000700877 6.82072e-06 -6.42564e-06
6.82072e-06 -8.69242e-05 -2.91667e-08
-6.42564e-06 -2.91667e-08 -0.000126732
0.000924402 -3.51062e-06 -5.54421e-07
-3.51062e-06 -8.80941e-05 2.43134e-07
-5.54421e-07 2.43134e-07 -0.000152242
0.00142688 1.38557e-05 2.56323e-06
1.38557e-05 0.000115424 -1.72731e-07
2.56323e-06 -1.72731e-07 4.40474e-05
0.000926099 1.38139e-05 2.7975e-06
1.38139e-05 -8.05489e-05 -1.70334e-07
2.7975e-06 -1.70334e-07 -0.000142803
0.000716503 1.56491e-05 9.27803e-08
1.56491e-05 -7.66729e-05 1.30936e-07
9.27803e-08 1.30936e-07 -0.000116569
0.00357872 6.8795e-05 -2.97797e-05
6.8795e-05 0.00142645 4.2906e-08
-2.97797e-05 4.2906e-08 0.00141702
0.000724705 2.5901e-05 6.04804e-06
2.5901e-05 -7.03346e-05 -8.75218e-07
6.04804e-06 -8.75218e-07 -0.000109715
0.0035157 6.4469e-05 7.54992e-07
6.4469e-05 0.00139373 1.46328e-07
7.54992e-07 1.46328e-07 0.00138507
0.00344713 6.02196e-05 2.97277e-05
6.02196e-05 0.00135704 -6.72398e-07
2.97277e-05 -6.72398e-07 0.00134933
0.00111391 -1.20551e-05 -3.66647e-06
-1.20551e-05 7.08852e-06 -9.86399e-07
-3.66647e-06 -9.86399e-07 -5.47422e-05
0.00128606 -1.32507e-05 -5.27239e-08
-1.32507e-05 4.39484e-05 -2.85407e-08
-5.27239e-08 -2.85407e-08 -2.606e-05
0.00135161 -1.69754e-05 1.2402e-06
-1.69754e-05 5.40688e-05 2.91213e-07
1.2402e-06 2.91213e-07 -1.76414e-05
0.00184942 -1.51408e-05 -1.64466e-05
-1.51408e-05 0.000481997 -1.34175e-06
-1.64466e-05 -1.34175e-06 0.000449567
0.00112372 -9.43349e-06 1.4315e-07
-9.43349e-06 9.10327e-06 -2.53827e-08
1.4315e-07 -2.53827e-08 -5.20247e-05
0.00131764 -9.1503e-06 1.87312e-06
-9.1503e-06 5.20928e-05 -1.09624e-07
1.87312e-06 -1.09624e-07 -1.66715e-05
0.0035983 -5.6281e-05 -3.1268e-05
-5.6281e-05 0.00142584 -1.32539e-06
-3.1268e-05 -1.32539e-06 0.00141816
0.000735834 6.00056e-06 8.77885e-09
6.00056e-06 -7.46802e-05 1.58285e-07
8.77885e-09 1.58285e-07 -0.000113637
0.00115015 8.29776e-06 3.83318e-06
8.29776e-06 2.04697e-05 1.02983e-06
3.83318e-06 1.02983e-06 -4.11247e-05
0.0035452 -5.49892e-05 -1.89447e-07
-5.49892e-05 0.00139326 1.60812e-07
-1.89447e-07 1.60812e-07 0.00138644
0.000732214 1.09774e-05 6.56557e-06
1.09774e-05 -7.21082e-05 2.47777e-06
6.56557e-06 2.47777e-06 -0.000111709
0.00334079 -5.44027e-05 2.4888e-05
-5.44027e-05 0.00128663 2.46443e-06
2.4888e-05 2.46443e-06 0.00128165
0.0007225 1.2957e-06 -9.01044e-06
1.2957e-06 -7.71776e-05 -1.00127e-06
-9.01044e-06 -1.00127e-06 -0.000117041
0.00102844 -8.22024e-06 7.36379e-08
-8.22024e-06 -3.73095e-05 1.90839e-07
7.36379e-08 1.90839e-07 -0.000100728
0.00122156 -8.33145e-06 2.45283e-06
-8.33145e-06 1.19482e-05 4.58887e-07
2.45283e-06 4.58887e-07 -6.02274e-05
0.00364811 -1.18176e-06 -2.95354e-05
-1.18176e-06 0.00145983 -3.97806e-07
-2.95354e-05 -3.97806e-07 0.00145105
0.000713552 6.60235e-06 6.88778e-08
6.60235e-06 -8.09353e-05 1.2775e-07
6.88778e-08 1.2775e-07 -0.000120854
0.000938564 3.56078e-06 3.03894e-06
3.56078e-06 -8.11365e-05 1.26482e-07
3.03894e-06 1.26482e-07 -0.000144999
0.000722125 2.17497e-05 6.31554e-06
2.17497e-05 -7.3625e-05 -3.69741e-07
6.31554e-06 -3.69741e-07 -0.000113895
0.00360863 6.71102e-05 1.66238e-06
6.71102e-05 0.00144091 1.94287e-07
1.66238e-06 1.94287e-07 0.00143157
0.00353502 6.25043e-05 3.25073e-05
6.25043e-05 0.00140319 -2.09803e-07
3.25073e-05 -2.09803e-07 0.00139459
0.00186977 -2.4766e-05 -1.95847e-05
-2.4766e-05 0.000493894 -1.43617e-06
-1.95847e-05 -1.43617e-06 0.000460623
0.00112473 -1.10154e-05 -3.52754e-08
-1.10154e-05 1.20896e-05 1.60212e-08
-3.52754e-08 1.60212e-08 -4.96634e-05
0.00124085 -1.44018e-05 1.7625e-06
-1.44018e-05 2.10705e-05 3.87813e-07
1.7625e-06 3.87813e-07 -4.92202e-05
0.00353737 -7.12019e-05 -1.08258e-05
-7.12019e-05 0.00140368 -4.86498e-07
-1.08258e-05 -4.86498e-07 0.00139438
0.000731355 -5.04738e-06 2.81376e-08
-5.04738e-06 -7.42465e-05 5.27426e-08
2.81376e-08 5.27426e-08 -0.000112983
0.00114828 -9.04967e-06 3.70204e-06
-9.04967e-06 2.08466e-05 7.90982e-07
3.70204e-06 7.90982e-07 -4.03376e-05
0.00359193 -5.67315e-05 -1.82546e-07
-5.67315e-05 0.00142158 1.56898e-07
-1.82546e-07 1.56898e-07 0.00141394
0.000738361 7.35477e-06 6.99417e-06
7.35477e-06 -7.28036e-05 2.1587e-06
6.99417e-06 2.1587e-06 -0.000111859
0.00351031 -5.61722e-05 2.76899e-05
-5.61722e-05 0.00137544 2.09415e-06
2.76899e-05 2.09415e-06 0.00136874
0.00138465 -1.18898e-05 -3.13803e-05
-1.18898e-05 0.000331114 -3.73315e-07
-3.13803e-05 -3.73315e-07 0.000310866
0.00129898 -6.45766e-06 -6.82627e-06
-6.45766e-06 0.000209595 2.25982e-07
-6.82627e-06 2.25982e-07 0.000173101
0.00094031 -6.92176e-06 3.80963e-06
-6.92176e-06 -8.13905e-05 8.00551e-07
3.80963e-06 8.00551e-07 -0.000145329
0.00365176 4.73346e-06 1.3608e-06
4.73346e-06 0.00146249 -1.67594e-07
1.3608e-06 -1.67594e-07 0.00145319
0.000717737 5.78516e-06 6.58865e-06
5.78516e-06 -7.8874e-05 2.92891e-07
6.58865e-06 2.92891e-07 -0.000118837
0.00362903 6.32381e-05 3.30984e-05
6.32381e-05 0.00145093 2.40675e-07
3.30984e-05 2.40675e-07 0.00144172
0.00132395 -3.82519e-05 -6.51818e-06
-3.82519e-05 0.000303121 -7.31283e-07
-6.51818e-06 -7.31283e-07 0.000281656
0.00130654 -9.50969e-06 -6.40154e-06
-9.50969e-06 0.000213375 1.16255e-07
-6.40154e-06 1.16255e-07 0.000177391
0.00113519 -1.24992e-05 3.51061e-06
-1.24992e-05 1.70111e-05 9.85199e-07
3.51061e-06 9.85199e-07 -4.47517e-05
0.0024512 -4.70832e-05 1.16996e-05
-4.70832e-05 0.000860091 1.20786e-07
1.16996e-05 1.20786e-07 0.00084563
0.000742534 1.8793e-07 7.02359e-06
1.8793e-07 -6.90423e-05 1.85598e-06
7.02359e-06 1.85598e-06 -0.000107704
0.00358608 -5.75597e-05 2.97236e-05
-5.75597e-05 0.00141767 1.63367e-06
2.97236e-05 1.63367e-06 0.00141004
0.00365951 -5.60841e-05 -1.28769e-06
-5.60841e-05 0.0014651 1.87678e-07
-1.28769e-06 1.87678e-07 0.00145623
0.000720581 -2.02438e-06 6.80733e-06
-2.02438e-06 -7.82902e-05 1.08488e-06
6.80733e-06 1.08488e-06 -0.00011792
0.00366987 2.11787e-05 3.25771e-05
2.11787e-05 0.001471 -2.25114e-07
3.25771e-05 -2.25114e-07 0.00146154
0.00247428 -4.99587e-05 1.21328e-05
-4.99587e-05 0.000874943 1.14689e-08
1.21328e-05 1.14689e-08 0.000859676
0.000738589 -3.65729e-06 6.76493e-06
-3.65729e-06 -6.89355e-05 1.65824e-06
6.76493e-06 1.65824e-06 -0.000108079
0.00359022 -5.97194e-05 3.05068e-05
-5.97194e-05 0.00142522 1.15388e-06
3.05068e-05 1.15388e-06 0.00141697
0.00364113 -6.58967e-05 3.0858e-05
-6.58967e-05 0.00145642 2.16051e-07
3.0858e-05 2.16051e-07 0.001447
0.00360693 -6.32981e-05 3.06457e-05
-6.32981e-05 0.00143763 6.95171e-07
3.06457e-05 6.95171e-07 0.00142871
