# vtk DataFile Version 2.0
Wound Healing Simulation
ASCII
DATASET UNSTRUCTURED_GRID
POINTS 3012 float
69.9759 18.75 4
67.2507 60.3285 4
69.976 18.75 2
73.0099 25.446 4
71.1327 20.9142 4
68.6801 16.6661 4
67.8273 19.9256 3.98639
67.2507 60.3286 2
71.1327 54.0858 4
68.6801 58.3339 4
65.6939 62.2254 4
65.3138 59.0032 3.98741
74.6784 42.3946 4
73.7221 47.2057 4
69.9759 18.75 0
73.0099 25.446 2
68.6801 16.6661 2
71.1327 20.9142 2
67.8278 19.9276 2
74.6792 32.6053 4
73.7222 27.7943 4
72.1454 23.1494 4
70.6153 26.2221 3.98528
68.8874 21.9587 3.98609
67.2507 14.6715 4
66.6389 17.9703 3.98702
65.8017 21.0232 3.9801
67.2507 60.3285 0
71.1327 54.0858 2
68.6801 58.3339 2
65.694 62.2255 2
65.3146 59.002 2
72.1454 51.8506 4
69.9759 56.25 4
68.8379 53.1128 3.98551
64.0165 64.0165 4
66.6124 57.1352 3.98706
63.8872 60.768 3.98895
63.5043 57.7768 3.98219
60.3285 67.2507 4
74.6792 42.3947 2
73.7222 47.2057 2
74.9194 39.9526 4
74.2788 44.8158 4
72.1688 42.0857 3.98351
73.0099 49.554 4
71.2504 46.5979 3.98476
73.0099 25.446 0
71.1327 20.9142 0
68.6801 16.6661 0
67.8273 19.9256 0.0136109
74.6792 32.6053 2
73.7222 27.7943 2
67.2508 14.6715 2
72.1455 23.1494 2
70.6154 26.2227 2
66.6397 17.9718 2
68.8876 21.9605 2
65.8015 21.0229 2
74.9197 35.0474 4
74.2794 30.1841 4
72.1855 32.9434 3.98393
71.2793 28.432 3.98521
69.817 24.0609 3.98559
68.3497 26.9519 3.97667
66.7665 22.9327 3.97855
65.694 12.7746 4
65.3255 16.1011 3.98818
64.7186 19.1908 3.98166
63.8933 22.0317 3.97642
71.1327 54.0858 0
65.6939 62.2254 0
68.6801 58.3339 0
65.3138 59.0032 0.0125875
72.1455 51.8506 2
69.9759 56.25 2
68.8382 53.1108 2
64.0165 64.0165 2
66.6132 57.1334 2
63.8879 60.7675 2
63.5045 57.7776 2
62.2254 65.694 4
58.895 65.4154 3.99258
69.7703 50.9882 3.98508
67.7854 55.1679 3.9863
66.6531 52.2104 3.97786
62.3374 62.4292 3.99068
64.6654 56.0355 3.98183
62.2059 59.4102 3.98302
61.8288 56.6888 3.97921
58.3339 68.6801 4
60.3285 67.2508 2
73.7221 47.2057 0
74.6784 42.3946 0
74.9197 39.9526 2
74.2794 44.8159 2
72.1687 42.0857 2
73.0099 49.554 2
71.2504 46.5976 2
75 37.5 4
72.4059 39.8023 3.98316
71.7834 44.3529 3.98424
69.8059 41.7901 3.97507
70.5763 48.8129 3.98494
68.9151 46.0154 3.97613
74.6792 32.6053 0
73.7222 27.7943 0
67.2507 14.6715 0
72.1454 23.1494 0
70.6153 26.2221 0.0147226
68.8874 21.9587 0.0139097
66.6389 17.9703 0.0129758
65.8017 21.0232 0.0199029
74.9197 35.0474 2
74.2794 30.1841 2
72.1853 32.9434 2
71.2793 28.4321 2
65.694 12.7745 2
65.3262 16.1018 2
69.8171 24.0621 2
68.3495 26.952 2
64.7188 19.1899 2
66.7661 22.9327 2
63.8932 22.0311 2
72.4137 35.2242 3.98318
71.8049 30.6765 3.9848
69.8419 33.2684 3.97547
68.9691 29.0383 3.97681
67.6143 24.9124 3.97711
66.1981 27.6341 3.97343
64.0165 10.9835 4
64.7616 23.8283 3.9749
63.8915 14.3248 3.98944
63.5176 17.4409 3.9834
62.9139 20.3143 3.97782
62.0997 22.9384 3.97441
60.6849 11.0958 3.99142
57.6134 11.4416 3.98619
72.1454 51.8506 0
69.9759 56.25 0
68.8379 53.1128 0.0144941
64.0165 64.0165 0
63.8872 60.768 0.0110499
66.6124 57.1352 0.0129353
63.5043 57.7768 0.0178134
62.2255 65.694 2
58.8954 65.4154 2
69.7704 50.9868 2
67.786 55.1658 2
66.6529 52.2103 2
62.3379 62.4289 2
64.6655 56.0363 2
62.206 59.4111 2
61.8289 56.6898 2
60.6697 63.9784 3.99175
57.0257 66.7362 3.99318
57.559 63.696 3.98711
67.5104 50.1773 3.97651
65.7063 54.1757 3.97989
64.5422 51.3881 3.97387
60.7751 60.9435 3.98424
62.8267 55.0743 3.97893
60.6627 58.1678 3.97951
60.3345 55.7949 3.97807
56.25 69.9759 4
58.3339 68.6801 2
60.3285 67.2507 0
58.922 9.65418 3.99213
62.2254 9.30607 4
73.0099 49.554 0
74.2788 44.8158 0
71.2504 46.5979 0.0152362
72.1688 42.0857 0.0164868
74.9194 39.9526 0
75 37.5 2
72.4058 39.8024 2
71.7834 44.3528 2
69.8057 41.79 2
70.5764 48.8122 2
68.915 46.0152 2
72.4892 37.5121 3.98306
70.0424 39.6577 3.9742
69.4328 43.908 3.97578
67.5997 41.4987 3.97163
68.2687 48.1076 3.97621
66.7135 45.4417 3.97284
74.9197 35.0474 0
74.2794 30.1841 0
72.1855 32.9434 0.01607
71.2793 28.432 0.0147944
65.694 12.7746 0
65.3255 16.1011 0.0118223
69.817 24.0609 0.0144051
68.3497 26.9519 0.0233326
66.7665 22.9327 0.0214532
64.7186 19.1908 0.0183442
63.8933 22.0317 0.0235784
72.4136 35.2241 2
71.8049 30.6765 2
69.8418 33.2686 2
68.9692 29.0384 2
64.0165 10.9835 2
63.892 14.3252 2
63.5179 17.44 2
67.6141 24.9124 2
66.1979 27.634 2
62.914 20.3134 2
64.7613 23.8279 2
62.0996 22.9379 2
60.6853 11.0962 2
57.6135 11.4409 2
70.0591 35.3921 3.97442
69.4697 31.1495 3.97636
67.658 33.5907 3.97188
66.7762 29.6219 3.97338
65.5277 25.6987 3.97358
64.1502 28.2541 3.97273
62.3427 12.653 3.99047
62.862 24.6345 3.97287
62.2021 15.7783 3.98423
61.8201 18.6765 3.97984
61.2253 21.3345 3.97534
60.4323 23.7218 3.97386
59.2476 12.773 3.98459
55.8752 10.2283 3.98763
56.4065 13.1048 3.98297
69.7703 50.9882 0.0149151
62.2254 65.694 0
58.895 65.4154 0.00741846
67.7854 55.1679 0.0136973
66.6531 52.2104 0.0221388
62.3374 62.4292 0.00931917
62.2059 59.4102 0.016982
64.6654 56.0355 0.0181672
61.8288 56.6888 0.0207879
60.6701 63.9782 2
57.026 66.7363 2
57.559 63.6969 2
67.5102 50.177 2
65.7063 54.176 2
64.5421 51.3884 2
60.7752 60.9444 2
62.8269 55.0753 2
60.6629 58.1687 2
60.3348 55.7957 2
55.0711 67.9332 3.99345
59.2207 62.3711 3.98516
55.8056 64.9137 3.98892
56.3283 62.0968 3.98371
65.3353 49.4102 3.9727
63.7119 53.2968 3.97613
62.4461 50.6561 3.97171
59.3362 59.5651 3.98168
61.0843 54.317 3.97785
59.294 57.022 3.97683
59.249 55.1925 3.97927
48.1036 68.5814 3.9902
50.9487 69.9328 3.99387
54.0858 71.1327 4
56.25 69.976 2
58.3339 68.6801 0
57.0591 8.33416 3.99245
60.3285 7.74928 4
58.9224 9.65431 2
62.2255 9.30602 2
70.5763 48.8129 0.0150586
71.7834 44.3529 0.0157632
68.9151 46.0154 0.0238657
69.8059 41.7901 0.0249312
72.4059 39.8023 0.016835
75 37.5 0
72.4891 37.5121 2
70.0424 39.6577 2
69.4328 43.9079 2
67.5996 41.4987 2
68.2686 48.1073 2
66.7134 45.4418 2
70.1305 37.5218 3.97433
67.836 39.5131 3.97083
67.2268 43.4715 3.9723
65.5586 41.2116 3.97081
66.0723 47.4199 3.97297
64.6564 44.8513 3.97182
72.4137 35.2242 0.0168191
71.8049 30.6765 0.0152048
69.8419 33.2684 0.0245295
68.9691 29.0383 0.0231939
64.0165 10.9835 0
63.8915 14.3248 0.0105629
63.5176 17.4409 0.0165953
67.6143 24.9124 0.0228863
66.1981 27.6341 0.0265743
64.7616 23.8283 0.025101
62.9139 20.3143 0.0221845
62.0997 22.9384 0.0255944
60.6849 11.0958 0.00857673
57.6134 11.4416 0.0138137
70.0591 35.3923 2
69.4699 31.1496 2
67.6579 33.5906 2
66.7763 29.6218 2
62.3431 12.6534 2
62.2021 15.7777 2
61.8204 18.6755 2
65.5275 25.6984 2
64.15 28.2539 2
61.2255 21.3338 2
62.8618 24.6342 2
60.4322 23.7214 2
59.2476 12.7725 2
56.4065 13.104 2
55.8753 10.2276 2
67.8721 35.5477 3.9711
67.2689 31.6217 3.97281
65.7005 33.9269 3.97096
64.6674 30.1905 3.97195
63.5416 26.4129 3.9721
62.2614 28.7754 3.97222
60.7772 14.2176 3.9842
61.0494 25.3341 3.9725
60.6173 17.119 3.98171
60.2297 19.8072 3.97745
59.6685 22.2508 3.97356
58.9842 24.3138 3.97459
54.0382 9.1316 3.98829
57.912 14.3237 3.98258
54.7877 12.004 3.98432
55.3139 14.6359 3.98149
67.5104 50.1773 0.023494
57.0257 66.7362 0.00681978
60.6697 63.9784 0.00825423
57.559 63.696 0.0128906
65.7063 54.1757 0.0201092
64.5422 51.3881 0.0261302
60.7751 60.9435 0.0157613
60.6627 58.1678 0.0204947
62.8267 55.0743 0.02107
60.3345 55.7949 0.0219329
55.0713 67.9333 2
59.2207 62.372 2
55.8055 64.9145 2
56.3283 62.0978 2
65.3351 49.4103 2
63.7119 53.2975 2
62.4461 50.6564 2
59.3363 59.5662 2
61.0846 54.3178 2
59.2943 57.0228 2
59.2493 55.1931 2
53.0429 69.0011 3.9937
53.9678 66.0158 3.98956
57.8825 60.8773 3.98266
54.6849 63.2136 3.98542
55.2129 60.6246 3.98198
63.1976 48.6642 3.97101
61.7475 52.581 3.97423
60.277 50.0248 3.97064
58.0215 58.2702 3.97895
59.3342 53.956 3.97718
58.1318 55.8216 3.97482
50.1103 67.8594 3.99008
47.4642 66.5858 3.98792
46.0572 69.1609 3.99037
48.1036 68.5818 2
48.8028 70.7241 3.994
50.949 69.9329 2
51.8506 72.1454 4
54.0858 71.1327 2
56.25 69.9759 0
55.1034 7.13867 3.99273
58.3339 6.31992 4
57.0595 8.33414 2
60.3286 7.74926 2
58.922 9.65418 0.00787456
62.2254 9.30607 0
68.2687 48.1076 0.0237947
69.4328 43.908 0.0242222
66.7135 45.4417 0.027156
67.5997 41.4987 0.028368
70.0424 39.6577 0.025796
72.4892 37.5121 0.0169351
70.1304 37.5218 2
67.836 39.5131 2
67.2268 43.4715 2
65.5585 41.2117 2
66.0722 47.4199 2
64.6563 44.8515 2
67.9324 37.5225 3.97099
65.7893 39.3715 3.97017
65.1795 43.0278 3.97116
63.7588 40.9318 3.97131
63.9696 46.7198 3.97206
62.8117 44.2203 3.97186
70.0591 35.3921 0.0255763
69.4697 31.1495 0.02364
67.658 33.5907 0.028116
66.7762 29.6219 0.0266203
62.3427 12.653 0.0095333
62.2021 15.7783 0.0157729
61.8201 18.6765 0.0201555
65.5277 25.6987 0.026418
64.1502 28.2541 0.0272719
62.862 24.6345 0.0271292
61.2253 21.3345 0.0246633
60.4323 23.7218 0.0261398
59.2476 12.773 0.0154145
56.4065 13.1048 0.0170309
55.8752 10.2283 0.012375
67.8721 35.5477 2
67.269 31.6215 2
65.7005 33.9268 2
64.6675 30.1902 2
60.7772 14.2171 2
60.6173 17.1182 2
60.23 19.8063 2
63.5415 26.4126 2
62.2613 28.7753 2
59.6687 22.2503 2
61.0492 25.3338 2
58.9841 24.3136 2
57.9118 14.3231 2
55.3137 14.6351 2
54.0382 9.13103 2
54.7877 12.0032 2
65.8781 35.667 3.97029
65.1901 32.1531 3.97124
64.2871 34.2496 3.97111
62.6 30.634 3.97199
61.6541 27.0695 3.9715
60.8546 29.1376 3.97239
59.3133 15.6606 3.98243
59.3344 25.7915 3.974
59.1288 18.3457 3.98024
58.7469 20.8447 3.97487
58.2912 23.0847 3.97263
57.9732 24.6586 3.97602
52.1128 8.15016 3.98871
53.0586 11.0104 3.98519
56.6785 15.7327 3.98164
53.8105 13.6707 3.98278
54.3779 15.9874 3.98124
55.0711 67.9332 0.00654652
65.3353 49.4102 0.0273008
55.8056 64.9137 0.0110763
59.2207 62.3711 0.0148353
56.3283 62.0968 0.0162851
63.7119 53.2968 0.0238742
62.4461 50.6561 0.0282898
59.3362 59.5651 0.018321
59.294 57.022 0.023173
61.0843 54.317 0.0221501
59.249 55.1925 0.0207327
53.0432 69.0012 2
53.9677 66.0165 2
57.8825 60.8782 2
54.6848 63.2146 2
55.2129 60.6258 2
63.1974 48.6642 2
61.7478 52.5816 2
60.2771 50.025 2
58.0218 58.2713 2
59.3347 53.9566 2
58.1322 55.822 2
52.0713 67.0024 3.98989
52.9541 64.2239 3.98674
56.6505 59.4974 3.98107
53.6822 61.6305 3.98337
54.2619 59.3307 3.97996
60.9964 47.8853 3.97044
59.7151 52.1124 3.97375
58.0275 49.6247 3.97191
56.7805 56.9967 3.97524
57.1262 54.1302 3.97529
50.1102 67.8598 2
49.3379 65.9261 3.98783
47.464 66.5864 2
46.893 64.7432 3.98654
45.5593 67.1034 3.98774
43.9741 69.5933 3.99031
46.0572 69.1613 2
46.6094 71.3686 3.99412
48.1036 68.5814 0.00980426
48.8031 70.7243 2
49.554 73.0099 4
50.9487 69.9328 0.00612841
51.8506 72.1455 2
54.0858 71.1327 0
53.0643 6.07019 3.99295
55.1037 7.13864 2
56.25 5.02411 4
58.3339 6.3199 2
57.0591 8.33416 0.0075482
60.3285 7.74928 0
66.0723 47.4199 0.0270288
67.2268 43.4715 0.0277032
64.6564 44.8513 0.0281796
65.5586 41.2116 0.0291866
67.836 39.5131 0.0291667
70.1305 37.5218 0.0256695
67.9323 37.5225 2
65.7893 39.3715 2
65.1795 43.0279 2
63.7587 40.9319 2
63.9694 46.7198 2
62.8116 44.2204 2
65.8924 37.5024 3.97011
63.8976 39.2683 3.97071
63.3329 42.5531 3.97126
62.4314 40.7004 3.97192
61.9721 45.9241 3.97217
61.4561 43.6879 3.97279
67.8721 35.5477 0.0289043
67.2689 31.6217 0.0271874
65.7005 33.9269 0.0290409
64.6674 30.1905 0.0280497
60.7772 14.2176 0.0157966
60.6173 17.119 0.0182944
60.2297 19.8072 0.0225458
63.5416 26.4129 0.0278997
62.2614 28.7754 0.0277757
61.0494 25.3341 0.0274981
59.6685 22.2508 0.0264378
58.9842 24.3138 0.025414
57.912 14.3237 0.0174226
55.3139 14.6359 0.0185069
54.0382 9.1316 0.0117106
54.7877 12.004 0.0156818
65.8781 35.6669 2
65.1903 32.1529 2
64.2871 34.2495 2
62.6 30.6339 2
59.3131 15.6599 2
59.129 18.3447 2
58.7473 20.8438 2
61.6541 27.0693 2
60.8545 29.1374 2
58.2913 23.0843 2
59.3342 25.7912 2
57.9731 24.6585 2
56.6782 15.7319 2
54.3776 15.9866 2
53.8104 13.6698 2
52.1128 8.14963 2
53.0585 11.0097 2
64.0917 35.6325 3.97055
62.9348 33.0455 3.97119
60.6212 30.61 3.97283
59.5736 27.9059 3.972
57.9425 16.9737 3.98153
57.743 25.7207 3.97445
57.7201 19.4657 3.97851
57.3765 21.8318 3.97209
57.1912 23.941 3.97272
50.1128 7.28215 3.98905
51.2329 10.1189 3.98594
52.1726 12.7881 3.9839
55.5395 16.9616 3.98156
52.9787 15.252 3.98098
53.76 16.969 3.98144
53.0429 69.0011 0.00629866
53.9678 66.0158 0.0104436
63.1976 48.6642 0.0289913
54.6849 63.2136 0.0145849
57.8825 60.8773 0.0173376
55.2129 60.6246 0.0180215
61.7475 52.581 0.0257663
60.277 50.0248 0.0293605
58.0215 58.2702 0.0210524
58.1318 55.8216 0.0251766
59.3342 53.956 0.0228193
52.0712 67.0029 2
52.9539 64.2247 2
56.6506 59.4985 2
53.6821 61.6316 2
54.2619 59.3322 2
60.9963 47.8854 2
59.7155 52.1128 2
58.0276 49.6247 2
56.7809 56.9983 2
57.1268 54.1305 2
51.1688 65.1329 3.98749
52.0469 62.546 3.9849
55.4832 58.2588 3.97985
52.8357 60.1445 3.98144
53.6419 58.4809 3.98007
58.3089 46.8557 3.97322
57.5638 51.7945 3.97366
56.2482 49.5602 3.97786
55.4753 55.7995 3.97428
55.3603 53.3876 3.97006
50.1103 67.8594 0.00992135
49.3377 65.9266 2
48.6188 64.1295 3.9861
47.4642 66.5858 0.012081
45.559 67.1039 2
46.8929 64.7438 2
46.3824 63.0621 3.98541
45.1333 65.2047 3.9866
43.6322 67.4742 3.98781
41.8611 69.8807 3.99018
43.9741 69.5937 2
44.3768 71.8634 3.99404
46.0572 69.1609 0.00963411
46.6097 71.3688 2
47.2057 73.7222 4
48.8028 70.7241 0.00600452
49.554 73.0099 2
51.8506 72.1454 0
50.954 5.13056 3.99317
53.0647 6.0701 2
54.0858 3.86728 4
55.1034 7.13867 0.0072682
56.25 5.02406 2
58.3339 6.31992 0
63.9696 46.7198 0.0279367
65.1795 43.0278 0.0288407
62.8117 44.2203 0.0281367
63.7588 40.9318 0.0286929
65.7893 39.3715 0.0298295
67.9324 37.5225 0.0290097
65.8924 37.5024 2
63.8976 39.2683 2
63.3329 42.5533 2
62.4316 40.7005 2
61.9719 45.9241 2
61.4559 43.688 2
63.9583 37.4578 3.97057
62.1509 39.357 3.97157
61.2207 41.9622 3.97257
60.2566 44.7765 3.97379
65.8781 35.667 0.0297065
65.1901 32.1531 0.0287612
64.2871 34.2496 0.0288927
62.6 30.634 0.0280127
59.3133 15.6606 0.0175684
59.1288 18.3457 0.019755
58.7469 20.8447 0.0251329
61.6541 27.0695 0.0285029
60.8546 29.1376 0.0276067
59.3344 25.7915 0.0260031
58.2912 23.0847 0.0273684
57.9732 24.6586 0.0239841
56.6785 15.7327 0.0183614
54.3779 15.9874 0.018764
53.8105 13.6707 0.0172237
52.1128 8.15016 0.0112867
53.0586 11.0104 0.014806
64.0917 35.6325 2
62.9351 33.0454 2
60.6213 30.6098 2
57.9423 16.9729 2
57.7204 19.4647 2
57.377 21.8312 2
59.5738 27.9058 2
57.1913 23.9411 2
57.7428 25.7205 2
50.1128 7.28171 2
55.5393 16.9607 2
53.7596 16.9681 2
52.9785 15.2512 2
52.1725 12.7874 2
51.2328 10.1183 2
62.1873 35.3596 3.97114
60.2964 32.7445 3.97236
58.6284 30.0726 3.97299
57.2927 27.3765 3.97333
56.6392 18.1458 3.98126
56.296 25.097 3.97356
56.3618 20.5118 3.97474
56.1133 22.8633 3.96931
48.0564 6.52525 3.98942
49.3247 9.32685 3.98634
50.4334 11.9864 3.98428
51.3785 14.4876 3.98259
54.4171 17.9101 3.98177
52.3624 17.0241 3.98054
52.0713 67.0024 0.0101085
52.9541 64.2239 0.0132551
60.9964 47.8853 0.0295584
53.6822 61.6305 0.0166336
56.6505 59.4974 0.0189256
54.2619 59.3307 0.0200385
59.7151 52.1124 0.0262505
58.0275 49.6247 0.02809
56.7805 56.9967 0.0247565
57.1262 54.1302 0.0247089
51.1685 65.1336 2
52.0467 62.5469 2
55.4833 58.2603 2
52.8356 60.1457 2
53.6419 58.4823 2
58.3086 46.8557 2
57.5644 51.7947 2
56.2484 49.5601 2
55.476 55.8005 2
55.361 53.3881 2
50.3469 63.3877 3.98567
51.2449 60.9442 3.98291
54.222 57.2748 3.97945
52.3141 58.6438 3.97962
56.7195 44.1909 3.97569
55.4961 47.9036 3.97468
55.0706 51.391 3.97108
54.0068 54.5486 3.97272
49.3379 65.9261 0.0121734
48.6186 64.1301 2
47.9625 62.483 3.98493
45.5593 67.1034 0.0122627
46.893 64.7432 0.0134632
43.632 67.4747 2
46.3821 63.0628 2
45.1331 65.2053 2
45.9878 61.5958 3.98465
44.7676 63.4634 3.986
43.3572 65.5146 3.98669
41.664 67.6931 3.9877
39.7026 70.0279 3.99003
41.8612 69.8812 2
42.1111 72.2082 3.99391
43.9741 69.5933 0.00968661
44.377 71.8636 2
44.8159 74.2794 4
46.6094 71.3686 0.00588048
47.2057 73.7222 2
49.554 73.0099 0
48.7845 4.32157 3.99343
50.9543 5.13043 2
51.8506 2.85458 4
53.0643 6.07019 0.00704875
54.0858 3.86728 2
56.25 5.02411 0
61.9721 45.9241 0.0278306
63.3329 42.5531 0.0287427
61.4561 43.6879 0.0272063
62.4314 40.7004 0.0280773
63.8976 39.2683 0.0292857
65.8924 37.5024 0.0298936
63.9581 37.4578 2
62.1509 39.357 2
61.2208 41.9622 2
60.2563 44.7765 2
61.9851 37.4457 3.97147
60.2421 39.8503 3.9729
58.9962 42.9241 3.97349
64.0917 35.6325 0.0294527
62.9348 33.0455 0.0288127
60.6212 30.61 0.0271674
57.9425 16.9737 0.0184674
57.7201 19.4657 0.0214882
57.3765 21.8318 0.027908
59.5736 27.9059 0.0279983
57.743 25.7207 0.0255525
57.1912 23.941 0.0272788
55.5395 16.9616 0.018441
53.76 16.969 0.0185552
52.9787 15.252 0.0190199
50.1128 7.28215 0.0109519
52.1726 12.7881 0.0160987
51.2329 10.1189 0.0140628
62.187 35.3595 2
60.2967 32.7444 2
58.6284 30.0726 2
56.6392 18.1448 2
56.3624 20.5107 2
56.1139 22.8634 2
57.2933 27.3764 2
56.2958 25.0973 2
48.0565 6.52476 2
49.3246 9.32644 2
54.417 17.9091 2
52.3621 17.0234 2
51.3783 14.4868 2
50.4333 11.9858 2
59.8862 35.1199 3.97219
58.0016 32.2685 3.97409
56.549 29.3362 3.97388
55.4483 26.5937 3.97557
55.345 19.1794 3.98056
54.933 24.0527 3.96907
55.0051 21.5535 3.97321
45.9623 5.88026 3.98975
43.3735 7.47013 3.98763
47.3549 8.62065 3.98676
48.6001 11.288 3.98474
49.7143 13.7349 3.98334
50.6343 16.1213 3.98069
53.1265 18.6487 3.97913
51.3037 18.037 3.98563
51.1688 65.1329 0.0125116
52.0469 62.546 0.015101
58.3089 46.8557 0.026782
52.8357 60.1445 0.0185613
55.4832 58.2588 0.0201518
53.6419 58.4809 0.0199267
57.5638 51.7945 0.0263416
56.2482 49.5602 0.0221439
55.4753 55.7995 0.0257172
55.3603 53.3876 0.029945
50.3466 63.3883 2
51.2447 60.9451 2
54.2222 57.2763 2
52.314 58.6449 2
56.7184 44.1908 2
55.496 47.9033 2
55.0713 51.3909 2
54.0076 54.5505 2
49.5924 61.7529 3.98431
55.6266 41.7124 3.9758
50.5679 59.3379 3.9799
52.1871 56.4989 3.97607
54.1807 45.5717 3.9767
53.3373 49.3323 3.97456
52.669 52.8506 3.96946
48.6188 64.1295 0.0138964
47.9622 62.4835 2
47.3297 61.0185 3.98414
43.6322 67.4742 0.0121892
45.1333 65.2047 0.0133956
46.3824 63.0621 0.0145869
41.6639 67.6937 2
43.357 65.5151 2
45.9876 61.5965 2
44.7673 63.4641 2
45.7666 60.6406 3.98377
44.4837 61.8458 3.98466
43.1469 63.7361 3.98586
41.5466 65.6525 3.98654
39.6329 67.7729 3.98749
37.526 70.053 3.9899
39.7027 70.0284 2
39.8179 72.4053 3.99382
41.8611 69.8807 0.00981855
42.1113 72.2085 2
42.3947 74.6792 4
44.3768 71.8634 0.00596288
44.8159 74.2794 2
47.2057 73.7222 0
43.8516 5.35735 3.98995
46.5704 3.6461 3.99367
48.7847 4.32138 2
49.554 1.99015 4
50.954 5.13056 0.00682952
51.8506 2.85453 2
54.0858 3.86728 0
60.2566 44.7765 0.0262113
61.2207 41.9622 0.02743
62.1509 39.357 0.0284251
63.9583 37.4578 0.0294281
61.9851 37.4456 2
60.2418 39.8503 2
58.9957 42.9241 2
59.7453 37.5683 3.97231
57.9875 40.6617 3.97356
55.0951 39.7261 3.97513
62.1873 35.3596 0.0288622
60.2964 32.7445 0.0276365
58.6284 30.0726 0.0270056
56.6392 18.1458 0.0187354
56.3618 20.5118 0.0252631
56.1133 22.8633 0.0306866
57.2927 27.3765 0.026666
56.296 25.097 0.0264416
54.4171 17.9101 0.0182328
52.3624 17.0241 0.0194642
51.3785 14.4876 0.0174137
48.0564 6.52525 0.0105834
49.3247 9.32685 0.0136644
50.4334 11.9864 0.0157156
59.8857 35.1198 2
45.9623 5.87979 2
43.3735 7.46971 2
58.0021 32.2685 2
56.5504 29.3362 2
55.3452 19.1783 2
55.0057 21.5521 2
54.9333 24.0533 2
55.447 26.5941 2
47.3549 8.62012 2
48.5999 11.2877 2
53.1265 18.6478 2
51.3036 18.0365 2
50.634 16.1205 2
49.7142 13.7343 2
57.3883 34.7607 3.97487
55.7324 31.517 3.97506
54.4944 28.3996 3.97637
53.773 25.4931 3.97459
53.9718 20.1274 3.98013
53.5837 22.7042 3.96911
41.3985 7.07551 3.98792
45.3596 7.99204 3.98701
42.8652 9.41148 3.98614
46.6663 10.6489 3.98499
47.7455 13.0954 3.98344
48.9317 15.3923 3.98225
50.0074 17.6908 3.97979
51.6524 19.3126 3.98804
50.3469 63.3877 0.0143333
51.2449 60.9442 0.0170925
56.7195 44.1909 0.0243137
55.4961 47.9036 0.0253168
52.3141 58.6438 0.0203827
54.222 57.2748 0.0205462
55.0706 51.391 0.0289155
54.0068 54.5486 0.0272758
49.5921 61.7535 2
55.6256 41.7124 2
50.5677 59.339 2
52.1876 56.5001 2
54.184 45.5714 2
53.3383 49.3312 2
52.6702 52.8504 2
48.8496 60.2112 3.98286
52.5262 42.6499 3.97643
49.7906 57.6365 3.97848
50.5943 54.4339 3.97409
51.8009 47.2757 3.97652
51.2126 50.9451 3.96932
48.1485 43.8149 3.99187
47.9625 62.483 0.0150714
47.3294 61.019 2
46.6192 59.8056 3.98327
41.664 67.6931 0.012302
43.3572 65.5146 0.0133109
44.7676 63.4634 0.0140025
45.9878 61.5958 0.0153536
39.6328 67.7734 2
41.5464 65.6529 2
45.7664 60.6413 2
43.1466 63.7365 2
44.4835 61.8465 2
44.624 60.3035 3.98409
42.9508 62.0947 3.9852
41.6003 63.8297 3.98582
39.6479 65.6207 3.98618
37.5632 67.7552 3.98748
31.6965 65.1393 3.98641
33.3917 67.4928 3.98742
35.3331 69.9631 3.98986
37.526 70.0535 2
37.5095 72.4598 3.99369
39.7026 70.0279 0.00996978
39.818 72.4056 2
39.9526 74.9197 4
42.1111 72.2082 0.00608549
42.3947 74.6792 2
44.8159 74.2794 0
41.7361 4.9666 3.99013
43.8516 5.35694 2
44.3257 3.10939 3.99378
46.5707 3.64588 2
47.2057 1.27793 4
48.7845 4.32157 0.00657437
49.554 1.99013 2
51.8506 2.85458 0
58.9962 42.9241 0.026512
60.2421 39.8503 0.0270991
61.9851 37.4457 0.0285281
59.7458 37.5683 2
57.9867 40.6618 2
55.0943 39.7261 2
56.8096 37.8986 3.97557
49.5656 41.3437 3.98711
53.1279 39.3104 3.97736
39.4418 6.79905 3.98802
59.8862 35.1199 0.0278054
58.0016 32.2685 0.0259113
56.549 29.3362 0.026122
55.345 19.1794 0.0194439
55.0051 21.5535 0.0267917
54.933 24.0527 0.0309273
55.4483 26.5937 0.0244289
53.1265 18.6487 0.0208726
51.3037 18.037 0.0143664
50.6343 16.1213 0.0193093
45.9623 5.88026 0.0102461
49.7143 13.7349 0.0166605
47.3549 8.62065 0.0132415
48.6001 11.288 0.0152588
43.3735 7.47013 0.0123661
57.3882 34.7607 2
41.3985 7.07498 2
45.3596 7.99157 2
42.8652 9.41105 2
55.7295 31.5173 2
54.4957 28.4 2
53.9722 20.126 2
53.584 22.7007 2
53.7726 25.4935 2
46.6662 10.6484 2
47.7452 13.0951 2
51.6526 19.3123 2
50.0072 17.69 2
48.9315 15.3915 2
54.8804 33.971 3.97608
53.4851 30.4822 3.97496
52.5847 27.1931 3.97565
52.1461 24.09 3.97279
52.3927 21.0486 3.98124
41.0132 9.04478 3.98604
44.7234 9.99192 3.98527
42.468 10.8977 3.9844
46.005 12.7237 3.98334
47.6818 14.5774 3.98312
48.1148 16.9809 3.97954
49.8188 19.5952 3.97625
49.5924 61.7529 0.0156936
50.5679 59.3379 0.0201039
55.6266 41.7124 0.024203
54.1807 45.5717 0.0233041
53.3373 49.3323 0.0254392
52.1871 56.4989 0.0239304
52.669 52.8506 0.0305384
48.8493 60.2118 2
52.5272 42.6487 2
49.7906 57.6377 2
50.5949 54.4358 2
51.8005 47.2742 2
51.2141 50.9436 2
48.149 43.8215 2
47.9878 58.7535 3.98175
50.0826 45.2869 3.97538
48.5988 55.9274 3.97934
49.1281 52.5999 3.97349
49.6624 49.0517 3.97241
45.9714 39.8844 3.90029
46.3933 42.7003 3.9468
46.4819 45.8693 3.99625
43.8244 41.1843 3.89498
42.0221 42.0303 3.84979
47.3297 61.0185 0.0158592
46.6189 59.8062 2
45.469 58.8028 3.98381
39.6329 67.7729 0.012508
41.5466 65.6525 0.0134637
43.1469 63.7361 0.0141392
44.4837 61.8458 0.0153372
45.7666 60.6406 0.0162338
41.6 63.8301 2
37.5632 67.7558 2
39.6477 65.6212 2
44.6237 60.3042 2
42.9506 62.0951 2
41.7538 62.5055 3.98543
42.4819 59.9968 3.98542
39.8937 63.565 3.98546
37.6423 65.5197 3.98574
35.4632 67.6645 3.98741
33.575 65.3527 3.98604
31.9588 63.3132 3.98557
29.8825 64.7302 3.98657
31.6966 65.1398 2
31.376 67.2025 3.98754
33.3917 67.4934 2
33.1558 69.7563 3.98989
35.3331 69.9636 2
35.1948 72.3742 3.99367
37.526 70.053 0.0101019
37.5095 72.4601 2
37.5 75 4
39.8179 72.4053 0.00618111
39.9526 74.9197 2
42.3947 74.6792 0
39.6235 4.71375 3.99021
41.7361 4.96612 2
42.062 2.71705 3.99386
43.8516 5.35735 0.0100511
44.3259 3.10915 2
44.8158 0.721173 4
46.5704 3.6461 0.00632776
47.2057 1.27779 2
49.554 1.99015 0
57.9875 40.6617 0.0264405
59.7453 37.5683 0.0276946
55.0951 39.7261 0.0248721
49.5751 41.3474 2
56.8098 37.8987 2
53.127 39.3094 2
53.9777 36.6294 3.97724
47.4937 40.4331 3.95
50.5129 38.5127 3.98316
37.5156 6.67005 3.98799
39.4419 6.79855 2
39.2106 8.68736 3.98628
35.941 8.48694 3.9865
57.3883 34.7607 0.0251311
55.7324 31.517 0.0249353
54.4944 28.3996 0.0236306
53.9718 20.1274 0.0198734
53.5837 22.7042 0.0308896
53.773 25.4931 0.0254063
51.6524 19.3126 0.0119553
50.0074 17.6908 0.0202081
48.9317 15.3923 0.0177458
45.3596 7.99204 0.0129903
47.7455 13.0954 0.0165558
46.6663 10.6489 0.0150057
41.3985 7.07551 0.0120799
42.8652 9.41148 0.0138632
54.8825 33.9709 2
41.0132 9.04427 2
44.7233 9.99152 2
42.4678 10.8972 2
53.4825 30.4816 2
52.5863 27.1941 2
52.3933 21.0482 2
52.1467 24.0906 2
46.0047 12.7232 2
47.6815 14.5767 2
49.8189 19.5941 2
48.1146 16.9799 2
52.4337 32.8728 3.97826
51.3112 29.1518 3.97418
50.7903 25.7193 3.97169
49.9422 22.1772 3.97838
40.5688 11.6013 3.98401
43.8577 11.9132 3.98445
45.8031 15.4135 3.98225
47.505 19.2144 3.97775
46.307 37.5015 3.9072
48.8496 60.2112 0.0171356
49.7906 57.6365 0.021522
52.5262 42.6499 0.0235692
51.8009 47.2757 0.0234755
51.2126 50.9451 0.0306788
50.5943 54.4339 0.0259131
48.1485 43.8149 0.0081306
47.9875 58.754 2
50.0863 45.2881 2
48.599 55.9288 2
49.1291 52.6026 2
49.6635 49.0507 2
45.9879 39.8917 2
46.4068 42.7097 2
46.4817 45.8616 2
43.8402 41.1945 2
42.0277 42.0354 2
46.8396 57.3572 3.98373
44.5722 39.4691 3.88477
42.3807 40.8945 3.86995
48.0732 47.2528 3.97755
47.1671 54.2607 3.97904
47.5837 50.7567 3.97479
44.7923 47.4471 3.99814
45.0636 41.9806 3.90572
44.9109 44.6065 3.95196
42.6541 42.7114 3.89485
40.9051 42.3792 3.87893
46.6192 59.8056 0.0167262
45.4685 58.8036 2
43.8772 57.7292 3.98478
37.5632 67.7552 0.0125249
39.6479 65.6207 0.0138244
41.6003 63.8297 0.0141784
42.9508 62.0947 0.0148026
44.624 60.3035 0.0159136
35.4631 67.6652 2
41.7536 62.5059 2
39.8935 63.5654 2
37.6422 65.5202 2
42.4817 59.9974 2
40.6234 61.6646 3.98482
40.4459 58.232 3.98581
37.8369 63.2263 3.98516
35.5728 65.4418 3.98582
33.575 65.3532 2
31.9588 63.3136 2
33.6286 63.3531 3.98519
30.3777 62.8717 3.9858
32.1225 62.0207 3.9855
26.8673 61.5149 3.98494
28.0613 64.1581 3.98633
29.8826 64.7308 2
29.4053 66.7661 3.98765
31.6965 65.1393 0.0135867
31.3761 67.203 2
31.0128 69.4213 3.98991
33.3917 67.4928 0.0125794
33.1557 69.7569 2
32.8918 72.1484 3.99369
35.3331 69.9631 0.0101431
35.1948 72.3745 2
35.0474 74.9194 4
37.5095 72.4598 0.00630868
37.5 75 2
39.9526 74.9197 0
35.6201 6.72096 3.98807
37.5226 4.6132 3.99034
39.6236 4.71331 2
39.7884 2.4735 3.99397
41.7361 4.9666 0.00986936
42.0622 2.71677 2
42.3946 0.32156 4
44.3257 3.10939 0.00622301
44.8159 0.72056 2
47.2057 1.27793 0
49.5656 41.3437 0.0128936
56.8096 37.8986 0.0244302
53.1279 39.3104 0.0226414
47.5032 40.4385 2
50.5192 38.5134 2
53.9782 36.6297 2
51.3096 35.5834 3.97212
48.1524 37.7667 3.96861
45.9766 35.1407 3.90553
43.8285 33.8313 3.89055
42.0236 32.9875 3.84786
37.4573 8.5291 3.98618
37.5156 6.66952 2
39.4418 6.79905 0.0119828
39.2107 8.68683 2
38.9757 10.1198 3.98583
35.8975 9.76645 3.98528
34.1493 8.81624 3.98642
35.941 8.48633 2
54.8804 33.971 0.0239207
53.4851 30.4822 0.025036
52.5847 27.1931 0.0243468
52.3927 21.0486 0.0187583
52.1461 24.09 0.0272063
49.8188 19.5952 0.0237454
48.1148 16.9809 0.0204552
47.6818 14.5774 0.0168839
44.7234 9.99192 0.0147252
46.005 12.7237 0.0166558
41.0132 9.04478 0.0139591
42.468 10.8977 0.0155976
52.4341 32.8723 2
40.5685 11.6009 2
43.8574 11.9128 2
51.3195 29.1523 2
50.791 25.7207 2
49.9428 22.176 2
45.8026 15.4129 2
47.5051 19.2133 2
49.9704 31.4082 3.96884
49.2814 27.4673 3.97668
49.4063 24.3903 3.9783
47.1887 21.9296 3.97541
38.301 12.7255 3.98457
42.1012 14.2963 3.98339
44.8015 18.448 3.98213
44.8562 37.5146 3.88387
46.3291 37.5083 2
47.9878 58.7535 0.0182546
48.5988 55.9274 0.020657
50.0826 45.2869 0.0246172
49.6624 49.0517 0.0275935
49.1281 52.5999 0.0265079
45.9714 39.8844 0.0997106
46.3933 42.7003 0.0532034
46.4819 45.8693 0.00374621
43.8244 41.1843 0.105023
42.0221 42.0303 0.150208
46.8392 57.3581 2
44.5854 39.4755 2
42.3792 40.8946 2
48.0752 47.2532 2
47.1676 54.2635 2
47.5851 50.7588 2
44.7963 47.4238 2
45.0758 41.9897 2
44.9244 44.619 2
42.6757 42.7275 2
40.906 42.3781 2
45.3991 55.9454 3.98541
42.7184 39.2784 3.88385
40.8408 40.8204 3.92827
46.0857 48.9297 3.98381
45.5417 52.5536 3.98029
43.4485 48.4777 4.01218
43.3519 46.1748 3.9592
43.6585 43.8007 3.90326
41.1585 43.8897 3.89286
39.3038 42.7317 3.89549
45.469 58.8028 0.0161911
43.8767 57.7294 2
42.1077 56.358 3.98741
35.4632 67.6645 0.0125925
37.6423 65.5197 0.0142595
39.8937 63.565 0.0145389
41.7538 62.5055 0.0145702
42.4819 59.9968 0.0145792
35.5728 65.4424 2
40.6232 61.665 2
37.8367 63.2266 2
40.4459 58.2325 2
38.9263 56.5302 3.99034
38.2505 60.3496 3.98535
35.6068 63.2198 3.98497
33.575 65.3527 0.0139572
31.9588 63.3132 0.014433
33.6286 63.3535 2
30.3777 62.8721 2
32.1225 62.0211 2
28.6801 62.2167 3.98553
33.3453 61.5339 3.98534
31.0655 61.2383 3.98557
27.5663 59.6137 3.98329
23.789 59.0981 3.98227
25.0328 60.887 3.98367
26.8675 61.5153 2
26.2278 63.4903 3.98611
28.0615 64.1586 2
27.4618 66.1899 3.98769
29.8825 64.7302 0.0134263
29.4054 66.7667 2
28.905 68.9468 3.98998
31.376 67.2025 0.0124631
31.0128 69.4218 2
30.6142 71.7795 3.99375
33.1558 69.7563 0.0101148
32.8917 72.1487 2
32.6054 74.6784 4
35.1948 72.3742 0.00632988
35.0474 74.9197 2
37.5 75 0
33.7226 6.97542 3.98774
35.4339 4.68357 3.99031
35.62 6.7204 2
37.5139 2.38612 3.99405
37.5227 4.61275 2
39.6235 4.71375 0.00978657
39.7885 2.47321 2
39.9526 0.0806499 4
42.062 2.71705 0.00613522
42.3947 0.320817 2
44.8158 0.721173 0
44.5865 35.5487 3.88257
42.3864 34.1178 3.86829
47.4937 40.4331 0.0499971
50.5129 38.5127 0.0168402
53.9777 36.6294 0.0227588
48.16 37.7679 2
51.3141 35.5825 2
45.9877 35.1292 2
43.8467 33.8188 2
42.0298 32.9835 2
48.3298 34.2855 3.98849
45.0634 33.0386 3.90277
42.6575 32.3081 3.89496
40.9052 32.6409 3.87852
37.3096 10.6231 3.985
37.4573 8.52844 2
37.5156 6.67005 0.0120082
39.2106 8.68736 0.0137224
38.9757 10.1192 2
34.7526 10.3717 3.98517
35.8976 9.76579 2
32.3759 9.36256 3.98595
34.1493 8.81553 2
35.941 8.48694 0.0134959
52.4337 32.8728 0.0217423
51.3112 29.1518 0.0258226
50.7903 25.7193 0.0283087
49.9422 22.1772 0.0216225
47.505 19.2144 0.0222517
45.8031 15.4135 0.0177463
43.8577 11.9132 0.0155495
40.5688 11.6013 0.0159853
49.9723 31.4059 2
38.3007 12.7252 2
42.1006 14.2958 2
49.2816 27.4689 2
49.4068 24.3894 2
47.1895 21.9312 2
44.8016 18.4477 2
47.785 29.5552 3.98425
47.1055 25.122 3.98168
44.2916 21.2961 3.98111
36.5805 12.9217 3.98403
38.6805 14.7934 3.9838
41.75 17.8231 3.98152
42.8711 37.4964 3.88248
44.8807 37.5104 2
46.307 37.5015 0.0928016
46.8396 57.3572 0.0162716
47.1671 54.2607 0.020961
48.0732 47.2528 0.0224528
47.5837 50.7567 0.0252135
44.5722 39.4691 0.115233
45.0636 41.9806 0.0942839
44.9109 44.6065 0.0480366
44.7923 47.4471 0.00186082
42.6541 42.7114 0.105153
42.3807 40.8945 0.130051
40.9051 42.3792 0.121069
45.3986 55.9464 2
42.7216 39.2774 2
40.8387 40.8176 2
46.0872 48.9308 2
45.5431 52.5571 2
43.4508 48.4981 2
43.3762 46.1907 2
43.6742 43.8114 2
41.175 43.8972 2
39.3039 42.7269 2
43.7377 54.4612 3.99235
40.9515 39.1831 3.95511
39.208 40.9138 3.9559
43.7005 50.5318 3.99506
41.9593 47.7128 3.98346
41.8681 45.2115 3.90424
39.4066 44.6255 3.90372
37.4917 42.863 3.90162
43.8772 57.7292 0.0152186
42.1075 56.3578 2
40.4203 54.9694 3.98859
35.5728 65.4418 0.0141769
37.8369 63.2263 0.0148376
40.6234 61.6646 0.0151787
40.4459 58.232 0.0141866
35.6067 63.2202 2
38.2503 60.3497 2
38.9258 56.5322 2
38.0003 55.2897 3.98805
36.9349 57.6569 3.98676
35.3632 60.9336 3.98534
33.6286 63.3531 0.0148139
30.3777 62.8717 0.0142012
32.1225 62.0207 0.0145042
33.3453 61.5343 2
28.6802 62.2171 2
31.0655 61.2387 2
29.4016 60.3077 3.98489
32.3551 59.7676 3.9856
28.0188 58.3935 3.98388
27.5663 59.614 2
25.3759 58.6114 3.98058
22.7521 58.2555 3.97751
23.3983 60.3654 3.98162
23.7889 59.0988 2
25.0329 60.8876 2
24.4302 62.7824 3.98547
26.8673 61.5149 0.0150616
26.228 63.4907 2
25.5457 65.4998 3.98773
28.0613 64.1581 0.0136679
27.4619 66.1904 2
26.8345 68.3351 3.99
29.4053 66.7661 0.0123467
28.9049 68.9473 2
28.3692 71.2646 3.99381
31.0128 69.4213 0.0100907
30.614 71.7797 2
30.1842 74.2788 4
32.8918 72.1484 0.00630742
32.6053 74.6792 2
35.0474 74.9194 0
31.7868 7.41511 3.98754
33.3457 4.92268 3.99024
33.7225 6.97481 2
35.2441 2.46228 3.99403
35.4339 4.68308 2
35.6201 6.72096 0.0119325
37.5 0 4
37.514 2.38582 2
37.5226 4.6132 0.00965679
39.7884 2.4735 0.00603466
39.9526 0.0802889 2
42.3946 0.32156 0
42.7343 35.7226 3.88216
44.6 35.5429 2
40.847 34.1914 3.92688
42.3861 34.1184 2
48.1524 37.7667 0.0313935
51.3096 35.5834 0.0278838
45.9766 35.1407 0.0944712
43.8285 33.8313 0.10945
42.0236 32.9875 0.152144
48.3363 34.2786 2
45.0763 33.028 2
42.6759 32.2955 2
40.9041 32.641 2
46.308 31.5581 3.96992
43.6579 31.2263 3.90263
41.1685 31.1315 3.89144
39.3045 32.2769 3.89499
35.6907 11.7668 3.98408
37.3096 10.6225 2
37.4573 8.5291 0.0138231
38.9757 10.1198 0.0141675
33.0963 11.2079 3.98407
34.7526 10.371 2
35.8975 9.76645 0.0147225
30.4805 10.0105 3.98536
32.3758 9.36186 2
34.1493 8.81624 0.0135785
49.9704 31.4082 0.0311637
49.2814 27.4673 0.0233155
49.4063 24.3903 0.0216988
47.1887 21.9296 0.0245866
44.8015 18.448 0.0178709
42.1012 14.2963 0.0166141
38.301 12.7255 0.0154299
36.5802 12.9212 2
47.7852 29.5518 2
38.6798 14.7933 2
41.7497 17.8222 2
47.1066 25.124 2
44.2923 21.2958 2
45.5569 27.6495 4.00027
43.8056 24.0173 3.99803
41.3421 20.6983 3.98148
35.7702 14.7456 3.98364
38.6807 17.5775 3.98266
40.9983 37.4882 3.96546
42.8784 37.4981 2
44.8562 37.5146 0.116131
45.3991 55.9454 0.0145854
45.5417 52.5536 0.0197135
46.0857 48.9297 0.0161894
42.7184 39.2784 0.116147
43.6585 43.8007 0.0967377
43.3519 46.1748 0.0407979
43.4485 48.4777 -0.012183
41.1585 43.8897 0.107142
40.8408 40.8204 0.0717327
39.3038 42.7317 0.104512
43.7375 54.4609 2
40.9505 39.181 2
39.2057 40.9075 2
43.7023 50.5409 2
41.9632 47.727 2
41.8902 45.2231 2
37.4932 42.8586 2
39.4249 44.6291 2
41.8835 53.0381 3.99652
39.2146 39.1828 3.97968
37.4927 40.964 3.96542
35.686 42.7308 3.89595
40.9365 49.7656 4.00453
39.8002 46.1126 3.8906
37.4916 44.8753 3.90358
42.1077 56.358 0.0125861
40.4195 54.9704 2
38.7303 53.9032 3.99104
35.6068 63.2198 0.0150348
38.2505 60.3496 0.0146489
38.9263 56.5302 0.00966425
35.3631 60.9339 2
36.9344 57.657 2
37.9993 55.2905 2
36.3187 55.4227 3.9918
34.4869 58.5476 3.98603
33.3453 61.5339 0.014656
28.6801 62.2167 0.0144737
31.0655 61.2383 0.0144253
32.3551 59.7679 2
29.4016 60.3079 2
30.2943 57.8412 3.98714
28.0187 58.3939 2
26.9389 56.842 3.98048
27.5663 59.6137 0.0167072
25.3758 58.612 2
23.8326 56.82 3.97568
21.3279 57.4135 3.97717
21.9904 59.6365 3.98117
22.752 58.2564 2
22.734 62.033 3.98401
23.3984 60.3661 2
23.789 59.0981 0.0177298
25.0328 60.887 0.0163333
24.4304 62.7829 2
23.6796 64.7179 3.98731
26.2278 63.4903 0.0138902
25.5459 65.5003 2
24.8067 67.5961 3.98996
27.4618 66.1899 0.0123098
26.8345 68.3356 2
26.1644 70.6054 3.99385
28.905 68.9468 0.0100211
28.369 71.2649 2
27.7943 73.7221 4
30.6142 71.7795 0.00625249
30.1841 74.2794 2
32.6054 74.6784 0
29.8093 7.98822 3.98709
31.2508 5.32983 3.98996
31.7868 7.4144 2
32.9798 2.70039 3.99396
33.3458 4.92213 2
33.7226 6.97542 0.0122587
35.0474 0.080333 4
35.2441 2.46197 2
35.4339 4.68357 0.00968608
37.5 0 2
37.5139 2.38612 0.00594762
39.9526 0.0806499 0
40.9591 35.805 3.95579
42.7361 35.7249 2
44.5865 35.5487 0.117434
28.5412 10.6855 3.98545
39.2105 34.0971 3.95604
40.8452 34.1945 2
42.3864 34.1178 0.131708
48.3298 34.2855 0.0115064
45.0634 33.0386 0.0972275
42.6575 32.3081 0.105038
40.9052 32.6409 0.121477
46.3213 31.5518 2
43.6675 31.2148 2
41.1852 31.1197 2
39.3038 32.2809 2
44.4009 29.7388 3.95597
41.8827 29.8107 3.90651
39.419 30.3819 3.90433
37.4918 32.1418 3.90209
34.0904 12.9242 3.98355
35.6906 11.7661 2
37.3096 10.6231 0.0150015
31.1841 11.9758 3.98455
33.0963 11.2071 2
34.7526 10.3717 0.0148277
30.4804 10.0096 2
32.3759 9.36256 0.0140483
47.785 29.5552 0.0157546
47.1055 25.122 0.0183247
36.5805 12.9217 0.0159671
44.2916 21.2961 0.018889
41.75 17.8231 0.0184776
38.6805 14.7934 0.0162005
35.7697 14.7451 2
45.5566 27.6457 2
38.6801 17.5771 2
41.3424 20.696 2
43.8074 24.0218 2
33.6054 15.8614 3.98337
43.0675 26.4798 4.00194
40.9194 23.2657 3.99235
38.4217 20.3034 3.98384
35.8467 17.491 3.98428
39.2238 37.487 3.98617
40.9957 37.4882 2
42.8711 37.4964 0.117517
43.7377 54.4612 0.00765475
43.7005 50.5318 0.00494445
40.9515 39.1831 0.0448889
41.8681 45.2115 0.0957622
41.9593 47.7128 0.0165446
39.4066 44.6255 0.0962765
39.208 40.9138 0.0441026
37.4917 42.863 0.098376
41.8831 53.0395 2
39.2142 39.1821 2
37.4927 40.959 2
40.9386 49.7705 2
35.6857 42.7277 2
39.8226 46.1289 2
37.49 44.8721 2
39.8277 51.9582 3.99813
37.4907 39.1943 3.97827
35.7785 40.9202 3.95527
34.0827 42.373 3.87907
35.5606 44.6276 3.90131
38.7266 48.7693 3.99477
37.4889 46.4399 3.89088
40.4203 54.9694 0.0114084
38.7292 53.9034 2
36.7205 53.2633 4.00407
35.3632 60.9336 0.0146604
36.9349 57.6569 0.0132408
38.0003 55.2897 0.0119516
34.4866 58.5476 2
36.318 55.4221 2
33.2222 55.5355 3.98795
32.3551 59.7676 0.0144002
29.4016 60.3077 0.0151061
30.2944 57.8416 2
28.6816 55.3339 3.98009
28.0188 58.3935 0.0161179
26.9387 56.8424 2
25.3008 55.1584 3.97656
21.7991 55.3597 3.9731
25.3759 58.6114 0.0194189
23.8323 56.8207 2
20.2119 57.0425 3.97952
20.6408 58.7936 3.97983
21.3276 57.4144 2
21.164 61.1819 3.98297
21.9903 59.6374 2
22.7521 58.2555 0.0224851
21.893 63.8455 3.98651
22.7341 62.0337 2
23.3983 60.3654 0.0183842
24.4302 62.7824 0.0145328
23.6799 64.7185 2
22.8349 66.7396 3.98985
25.5457 65.4998 0.0122689
24.8067 67.5965 2
24.0086 69.8065 3.99379
26.8345 68.3351 0.0100038
26.1641 70.6056 2
25.446 73.0099 4
28.3692 71.2646 0.00619307
27.7943 73.7222 2
30.1842 74.2788 0
27.819 8.64769 3.98686
29.1527 5.87553 3.98965
29.8091 7.98745 2
30.725 3.09756 3.99377
31.2508 5.32923 2
31.7868 7.41511 0.012455
32.6053 0.320823 4
32.9797 2.70008 2
33.3457 4.92268 0.00976133
35.0474 0.0802903 2
35.2441 2.46228 0.00597153
37.5 0 0
39.2244 35.8035 3.9803
40.9577 35.8073 2
42.7343 35.7226 0.117843
28.5412 10.6847 2
26.62 11.3803 3.98527
29.2229 12.6319 3.98487
37.493 34.0425 3.96606
39.2084 34.102 2
40.847 34.1914 0.0731232
46.308 31.5581 0.0300838
43.6579 31.2263 0.0973746
41.1685 31.1315 0.108565
39.3045 32.2769 0.105008
44.4181 29.7265 2
41.9046 29.7955 2
39.4343 30.3772 2
37.4923 32.1461 2
42.3538 28.3753 3.94253
39.8406 28.8966 3.90273
37.5002 30.1213 3.9033
35.6831 32.2666 3.89438
31.9116 14.4683 3.98403
34.0903 12.9235 2
35.6907 11.7668 0.0159168
31.1842 11.975 2
33.0963 11.2079 0.0159324
30.4805 10.0105 0.0146362
45.5569 27.6495 -0.000266077
43.8056 24.0173 0.00196604
35.7702 14.7456 0.0163644
41.3421 20.6983 0.0185183
38.6807 17.5775 0.0173422
33.605 15.8613 2
35.846 17.4909 2
43.0688 26.4772 2
38.421 20.3029 2
40.9203 23.2608 2
33.5475 17.3686 3.98508
40.4429 25.6056 4.01199
38.0768 22.8286 3.99283
35.5823 20.0547 3.98606
37.4947 37.4944 3.97921
39.2222 37.4864 2
40.9983 37.4882 0.0345431
41.8835 53.0381 0.00347955
40.9365 49.7656 -0.00453354
39.2146 39.1828 0.0203158
39.8002 46.1126 0.109396
37.4916 44.8753 0.0964216
37.4927 40.964 0.0345802
35.686 42.7308 0.104049
39.8286 51.9604 2
37.4915 39.1928 2
35.781 40.9156 2
38.7251 48.797 2
34.0831 42.3721 2
35.5498 44.6359 2
37.4865 46.4607 2
37.6688 51.0613 4.01023
35.772 39.1961 3.98027
34.1498 40.8236 3.9281
32.9624 42.0236 3.84882
33.8111 43.8803 3.89065
35.1597 46.1064 3.89919
36.857 48.421 3.98155
38.7303 53.9032 0.00896093
36.7201 53.2618 2
34.3586 52.5157 3.98985
34.4869 58.5476 0.0139662
36.3187 55.4227 0.00819812
33.2221 55.535 2
30.5097 53.4249 3.98301
30.2943 57.8412 0.0128579
28.6815 55.3349 2
26.8689 53.4485 3.97501
26.9389 56.842 0.0195195
25.3006 55.1596 2
23.5597 53.4951 3.9718
20.4541 53.2346 3.96905
19.9233 55.8446 3.9769
21.7987 55.3606 2
23.8326 56.82 0.0243226
19.4329 57.904 3.97886
20.2116 57.0431 2
19.7033 60.215 3.98166
20.6407 58.7945 2
21.3279 57.4135 0.0228298
20.2055 62.8664 3.98507
21.1641 61.1828 2
21.9904 59.6365 0.0188283
20.9364 65.7685 3.98952
21.8932 63.8463 2
22.734 62.033 0.0159877
23.6796 64.7179 0.0126932
22.835 66.7401 2
21.9111 68.8736 3.99368
24.8067 67.5961 0.0100428
24.0083 69.8066 2
23.1494 72.1454 4
26.1644 70.6054 0.00615135
25.446 73.0099 2
27.7943 73.7221 0
25.8581 9.3755 3.98665
27.0674 6.53953 3.98933
27.8189 8.64692 2
28.4871 3.64348 3.9936
29.1526 5.87489 2
29.8093 7.98822 0.0129069
30.1841 0.720592 4
30.7248 3.09725 2
31.2508 5.32983 0.0100374
32.6053 0.320817 2
32.9798 2.70039 0.00604387
35.0474 0.080333 0
37.4971 35.8007 3.97919
39.2224 35.8031 2
40.9591 35.805 0.0442131
24.7748 12.063 3.98543
23.749 14.3468 3.98441
28.5412 10.6855 0.014548
26.6201 11.3798 2
29.223 12.6311 2
27.2891 13.3645 3.98465
29.7775 14.1903 3.98388
35.7813 34.0824 3.95575
37.4931 34.0471 2
39.2105 34.0971 0.0439553
37.4918 32.1418 0.0979116
44.4009 29.7388 0.0440333
41.8827 29.8107 0.0934929
39.419 30.3819 0.0956737
42.372 28.3616 2
39.8573 28.8784 2
37.5023 30.1227 2
35.6843 32.2704 2
40.0413 27.5174 3.94383
37.5131 28.5576 3.89937
35.571 30.3734 3.90466
34.0859 32.62 3.87784
30.923 16.8231 3.98418
31.9116 14.4677 2
34.0904 12.9242 0.0164539
31.1841 11.9758 0.0154523
43.0675 26.4798 -0.0019424
40.9194 23.2657 0.00765482
33.6054 15.8614 0.0166287
35.8467 17.491 0.0157164
38.4217 20.3034 0.0161642
33.5469 17.3689 2
35.5817 20.0541 2
40.4419 25.6028 2
38.0777 22.829 2
32.8603 19.772 3.98604
37.7993 25.1362 4.02275
35.2009 22.6079 3.98978
35.7687 37.4982 3.98594
37.4948 37.4936 2
39.2238 37.487 0.013828
39.8277 51.9582 0.00187478
38.7266 48.7693 0.00523006
37.4907 39.1943 0.0217315
37.4889 46.4399 0.109115
35.5606 44.6276 0.0986902
35.7785 40.9202 0.0447324
34.0827 42.373 0.120932
37.6702 51.0699 2
35.7742 39.1953 2
34.152 40.8203 2
36.8563 48.4353 2
32.9564 42.0269 2
33.7995 43.89 2
35.1387 46.1206 2
35.4493 50.1951 4.01431
34.0427 39.1923 3.95557
32.5993 40.892 3.86916
32.3235 42.702 3.89459
33.1208 45.1976 3.90555
34.2668 47.4819 3.95312
36.7205 53.2633 -0.00407276
34.3585 52.5159 2
31.9864 51.2322 3.99346
33.2222 55.5355 0.0120485
30.5096 53.4261 2
28.4125 51.6284 3.97908
28.6816 55.3339 0.0199072
26.8687 53.4491 2
25.0608 51.7679 3.96967
25.3008 55.1584 0.0234375
23.5595 53.4949 2
21.9477 51.8171 3.96849
19.1861 51.6446 3.9694
18.9106 54.3195 3.97165
20.4538 53.2344 2
18.44 56.7354 3.979
19.9229 55.8451 2
21.7991 55.3597 0.0269042
18.3649 59.1212 3.97921
19.4327 57.9047 2
20.2119 57.0425 0.020476
18.6164 61.7733 3.98352
19.7033 60.2159 2
20.6408 58.7936 0.0201707
19.1253 64.6792 3.98864
20.2056 62.8672 2
21.164 61.1819 0.0170323
19.8851 67.8101 3.99346
20.9364 65.7691 2
21.893 63.8455 0.0134935
22.8349 66.7396 0.0101525
21.9108 68.8737 2
20.9142 71.1327 4
24.0086 69.8065 0.00621161
23.1494 72.1455 2
25.446 73.0099 0
23.0942 12.7776 3.98499
23.9706 10.1619 3.98658
25.0211 7.30953 3.9892
25.8581 9.37486 2
26.2788 4.32766 3.99344
27.0672 6.53887 2
27.819 8.64769 0.0131367
27.7943 1.27781 4
28.4869 3.64319 2
29.1527 5.87553 0.010346
30.1841 0.720551 2
30.725 3.09756 0.00623011
32.6053 0.320823 0
35.7724 35.8028 3.98068
37.4967 35.8007 2
39.2244 35.8035 0.0196968
24.7751 12.0625 2
23.7494 14.3467 2
22.4776 15.0231 3.98392
25.3552 13.8962 3.98424
24.022 15.6085 3.98343
26.62 11.3803 0.0147309
29.2229 12.6319 0.0151329
27.2892 13.3642 2
29.7776 14.1896 2
28.3533 15.964 3.98425
34.1582 34.1763 3.92676
35.7836 34.0873 2
37.493 34.0425 0.0339364
35.6831 32.2666 0.105616
37.5002 30.1213 0.0967014
42.3538 28.3753 0.0574737
39.8406 28.8966 0.0972697
40.052 27.5044 2
37.5151 28.5388 2
35.5572 30.3681 2
34.0883 32.6198 2
37.6208 27.1883 3.95063
35.1685 28.8771 3.90046
33.8138 31.1154 3.89164
32.9721 32.9698 3.84915
30.2043 19.3242 3.98625
30.9228 16.8229 2
31.9116 14.4683 0.0159661
40.4429 25.6056 -0.0119889
38.0768 22.8286 0.00717333
33.5475 17.3686 0.01492
35.5823 20.0547 0.0139379
32.8591 19.7725 2
35.1996 22.6043 2
37.7929 25.1377 2
32.3063 22.3823 3.98815
34.9644 25.1316 4.01369
33.9972 37.4978 3.9637
35.7705 37.4975 2
37.4947 37.4944 0.0207894
37.6688 51.0613 -0.0102264
36.857 48.421 0.0184454
35.772 39.1961 0.0197302
35.1597 46.1064 0.100815
33.8111 43.8803 0.109345
34.1498 40.8236 0.0719039
32.9624 42.0236 0.151183
35.4479 50.2023 2
34.0462 39.1901 2
32.5993 40.8902 2
34.2598 47.5131 2
32.3062 42.7121 2
33.0993 45.2169 2
33.2199 49.1886 4.00637
32.2563 39.2815 3.88345
31.1523 41.1764 3.89188
31.3285 43.7892 3.9019
32.228 46.4054 3.95218
34.3586 52.5157 0.0101464
31.986 51.2357 2
29.8318 49.7423 3.9863
30.5097 53.4249 0.0169866
28.4122 51.6255 2
26.4834 50.0085 3.97082
26.8689 53.4485 0.0249878
25.0608 51.7665 2
23.3193 50.2115 3.97345
23.5597 53.4951 0.0281959
21.9478 51.8165 2
20.4475 50.3268 3.97031
17.9742 50.3382 3.97237
17.8219 52.8006 3.97035
19.1861 51.6446 2
17.4282 55.3506 3.97523
18.9102 54.3199 2
20.4541 53.2346 0.0309516
17.1298 57.8829 3.97977
18.4397 56.7361 2
19.9233 55.8446 0.0231011
17.1337 60.556 3.98144
18.3649 59.122 2
19.4329 57.904 0.0211406
17.4058 63.4715 3.98704
18.6164 61.7743 2
19.7033 60.215 0.0183432
17.9412 66.6185 3.99316
19.1254 64.6799 2
20.2055 62.8664 0.0149347
18.75 69.9759 4
19.8848 67.8102 2
20.9364 65.7685 0.0104758
21.9111 68.8736 0.00632055
20.9142 71.1327 2
23.1494 72.1454 0
21.5849 13.5976 3.98451
22.1886 11.021 3.98621
23.0945 12.7775 2
23.039 8.17487 3.98907
23.9707 10.1616 2
24.1164 5.14234 3.99331
25.021 7.30903 2
25.8581 9.3755 0.0133518
25.446 1.99014 4
26.2785 4.32743 2
27.0674 6.53953 0.0106664
27.7943 1.27778 2
28.4871 3.64348 0.00639649
30.1841 0.720592 0
34.0398 35.8043 3.9535
35.7737 35.8024 2
37.4971 35.8007 0.0208143
21.3026 15.8189 3.98301
24.7748 12.063 0.0145711
23.749 14.3468 0.0155919
25.3554 13.8959 2
22.478 15.0233 2
24.0225 15.6084 2
23.261 16.2398 3.98305
25.3772 16.0763 3.98414
27.2891 13.3645 0.015354
29.7775 14.1903 0.016117
28.3537 15.9636 2
27.4359 18.7849 3.98519
32.6188 34.1031 3.87015
34.1626 34.1783 2
35.7813 34.0824 0.0442534
34.0859 32.62 0.122161
35.571 30.3734 0.0953436
37.5131 28.5576 0.100628
40.0413 27.5174 0.0561724
37.619 27.1571 2
32.9679 32.9671 2
35.1528 28.8571 2
33.798 31.0976 2
35.068 27.319 3.95959
33.1165 29.7982 3.90006
32.3248 32.2824 3.89188
29.5689 21.917 3.9939
30.2037 19.3248 2
30.923 16.8231 0.0158199
37.7993 25.1362 -0.022753
35.2009 22.6079 0.0102167
32.8603 19.772 0.0139552
32.3048 22.3834 2
34.9721 25.134 2
31.6718 25.597 3.99951
32.1174 37.5011 3.88322
34.0011 37.4977 2
35.7687 37.4982 0.0140583
35.4493 50.1951 -0.0143138
34.2668 47.4819 0.0468802
34.0427 39.1923 0.0444282
33.1208 45.1976 0.0944525
32.3235 42.702 0.10541
32.5993 40.892 0.130844
33.2181 49.1747 2
32.2537 39.2782 2
31.1345 41.1835 2
32.2086 46.4217 2
31.3153 43.8001 2
31.1143 48.0115 3.99768
30.398 39.4538 3.88349
29.919 41.9733 3.90032
30.3939 44.9811 3.95351
31.9864 51.2322 0.0065429
29.8312 49.7375 2
27.8401 48.2063 3.97479
28.4125 51.6284 0.0209222
26.4837 50.0064 2
24.6206 48.4919 3.97908
25.0608 51.7679 0.0303301
23.3198 50.2104 2
21.6317 48.8073 3.97375
21.9477 51.8171 0.0315134
20.4478 50.3266 2
19.0163 49.1034 3.97451
16.882 49.3387 3.9754
16.7629 51.4139 3.97162
17.9747 50.3381 2
16.3805 53.8783 3.9728
17.8217 52.801 2
19.1861 51.6446 0.0305958
15.9705 56.4839 3.97789
17.4278 55.3512 2
18.9106 54.3195 0.0283519
15.7466 59.2165 3.98086
17.1296 57.8837 2
18.44 56.7354 0.0210034
15.7864 62.1416 3.98478
17.1337 60.5569 2
18.3649 59.1212 0.0207939
16.0879 65.3009 3.99256
17.4058 63.4723 2
18.6164 61.7733 0.0164762
16.6661 68.6801 4
17.9409 66.6185 2
19.1253 64.6792 0.0113566
18.75 69.9759 2
19.8851 67.8101 0.00654125
20.9142 71.1327 0
20.2169 14.5864 3.9837
21.5853 13.5976 2
20.5279 11.9906 3.98558
21.142 9.14455 3.98903
22.1889 11.0208 2
23.0942 12.7776 0.0150131
22.0154 6.08132 3.9932
23.039 8.17455 2
23.9706 10.1619 0.0134171
23.1494 2.85457 4
24.116 5.14223 2
25.0211 7.30953 0.0108048
25.446 1.99012 2
26.2788 4.32766 0.00656209
27.7943 1.27781 0
32.2683 35.7158 3.8833
34.043 35.8061 2
35.7724 35.8028 0.0193177
21.3029 15.8184 2
20.2998 16.9534 3.98293
22.0942 16.6242 3.98173
25.3552 13.8962 0.015764
22.4776 15.0231 0.0160759
24.022 15.6085 0.0165694
25.3776 16.0762 2
23.2615 16.2399 2
24.2003 18.4389 3.98125
27.006 21.4422 3.98664
28.3533 15.964 0.0157483
27.4357 18.7848 2
31.1709 33.8192 3.89155
32.6187 34.1064 2
34.1582 34.1763 0.0732355
32.9721 32.9698 0.150852
33.8138 31.1154 0.108355
35.1685 28.8771 0.099539
37.6208 27.1883 0.0493729
35.0513 27.2981 2
32.316 32.2827 2
33.0982 29.7753 2
32.5201 28.0525 3.97516
31.3184 31.2102 3.90198
28.7834 24.3828 3.98739
29.5672 21.919 2
30.2043 19.3242 0.013751
34.9644 25.1316 -0.0136863
32.3063 22.3823 0.0118475
31.6769 25.5845 2
29.6206 27.2907 3.97146
30.1217 37.4883 3.88262
32.1157 37.4993 2
33.9972 37.4978 0.036304
33.2199 49.1886 -0.00637442
32.228 46.4054 0.0478163
32.2563 39.2815 0.116546
31.3285 43.7892 0.0980975
31.1523 41.1764 0.108119
31.1148 48.011 2
30.3826 39.4641 2
29.9063 41.9841 2
30.3747 44.9949 2
29.1433 46.5977 3.99774
29.0047 39.8612 3.90122
28.6458 43.1872 3.95802
29.8318 49.7423 0.0137018
27.8401 48.2002 2
25.9125 46.6882 3.97803
26.4834 50.0085 0.0291797
24.6212 48.4903 2
22.7814 47.1023 3.97839
23.3193 50.2115 0.0265542
21.6319 48.8069 2
19.9626 47.6335 3.97707
20.4475 50.3268 0.0296931
19.0171 49.1031 2
17.6585 48.1872 3.97526
16.1336 48.6893 3.97618
16.8825 49.3388 2
15.8412 50.1758 3.97389
15.3707 52.4212 3.9725
16.7632 51.414 2
17.9742 50.3382 0.0276312
14.8624 54.9834 3.97526
16.3803 53.8788 2
17.8219 52.8006 0.0296538
14.4553 57.7451 3.97991
15.9702 56.4847 2
17.4282 55.3506 0.0247716
14.2645 60.6956 3.98351
15.7466 59.2174 2
17.1298 57.8829 0.0202325
14.3322 63.8601 3.99159
15.7864 62.1423 2
17.1337 60.556 0.0185624
14.6715 67.2507 4
16.0875 65.3009 2
17.4058 63.4715 0.012958
16.6661 68.6801 2
17.9412 66.6185 0.00684473
18.75 69.9759 0
18.9307 15.7741 3.98268
20.2171 14.5861 2
18.9776 13.1016 3.98473
21.5849 13.5976 0.0154944
20.5283 11.9905 2
19.3414 10.2321 3.98884
19.99 7.14597 3.99318
21.1421 9.14425 2
22.1886 11.021 0.0137895
20.9142 3.86727 4
22.015 6.08135 2
23.039 8.17487 0.0109303
23.1494 2.85451 2
24.1164 5.14234 0.00669032
25.446 1.99014 0
30.4156 35.5426 3.88676
32.2673 35.7177 2
34.0398 35.8043 0.0465024
21.3026 15.8189 0.0169878
22.0945 16.6239 2
20.2999 16.9527 2
19.2386 18.4007 3.98165
21.7784 17.8406 3.98218
25.3772 16.0763 0.0158607
23.261 16.2398 0.016953
24.2004 18.4391 2
22.2721 19.8827 3.97861
24.5833 21.311 3.98223
26.404 23.7073 3.98011
27.0058 21.4428 2
27.4359 18.7849 0.0148141
29.9294 33.017 3.9004
31.1516 33.7985 2
32.6188 34.1031 0.129854
32.3248 32.2824 0.108124
33.1165 29.7982 0.0999421
35.068 27.319 0.040413
32.5113 28.0448 2
31.3201 31.2063 2
30.0884 29.516 3.96752
27.8597 26.5247 3.97238
28.785 24.3891 2
29.5689 21.917 0.00610221
31.6718 25.597 0.000491321
29.6161 27.2528 2
28.6694 37.502 3.90676
30.1058 37.4929 2
32.1174 37.5011 0.116784
31.1143 48.0115 0.00231683
30.3939 44.9811 0.0464917
30.398 39.4538 0.116507
29.919 41.9733 0.0996753
29.1442 46.6136 2
28.991 39.8713 2
28.6308 43.1987 2
27.2379 44.8554 3.98934
26.778 40.6153 3.98145
27.8401 48.2063 0.0252076
25.9122 46.6899 2
23.9727 45.2344 3.97646
24.6206 48.4919 0.0209175
22.7818 47.1019 2
20.9123 45.9136 3.97799
21.6317 48.8073 0.0262546
19.9642 47.6329 2
18.306 46.7471 3.97604
19.0163 49.1034 0.0254864
17.6589 48.1874 2
16.3247 47.7195 3.97437
16.1341 48.6896 2
15.1886 49.0201 3.97484
16.882 49.3387 0.0246015
15.8417 50.176 2
14.4853 50.9887 3.97332
13.8251 53.4382 3.97409
15.3708 52.4214 2
16.7629 51.4139 0.0283805
13.2505 56.1718 3.97794
14.8621 54.9841 2
16.3805 53.8783 0.0272034
12.8466 59.1291 3.98308
14.4552 57.7459 2
15.9705 56.4839 0.0221124
12.6778 62.3026 3.99004
14.2644 60.6962 2
15.7466 59.2165 0.0191379
12.7746 65.6939 4
14.3318 63.8599 2
15.7864 62.1416 0.0152171
14.6714 67.2507 2
16.0879 65.3009 0.00743644
16.6661 68.6801 0
17.6646 17.15 3.9816
18.9308 15.7735 2
17.5092 14.3665 3.98353
20.2169 14.5864 0.0163014
18.9779 13.1011 2
17.6372 11.4511 3.98797
20.5279 11.9906 0.0144206
19.3417 10.2319 2
18.0501 8.33881 3.99313
18.75 5.0241 4
19.9896 7.1461 2
21.142 9.14455 0.0109661
20.9142 3.86727 2
22.0154 6.08132 0.00679644
23.1494 2.85457 0
29.0128 35.1129 3.90084
30.3983 35.5349 2
32.2683 35.7158 0.116704
22.0942 16.6242 0.0182672
20.2998 16.9534 0.0170719
21.7785 17.8399 2
19.2387 18.3999 2
17.9746 19.934 3.97936
20.8708 19.3692 3.98087
24.2003 18.4389 0.0187546
22.2724 19.8821 2
24.5836 21.3119 2
22.3488 21.7091 3.98074
24.6836 23.1565 3.97824
25.4428 25.9352 3.96829
26.4061 23.707 2
27.006 21.4422 0.0133625
28.306 32.2952 3.94755
29.9171 33.0138 2
31.1709 33.8192 0.108446
31.3184 31.2102 0.0980156
32.5201 28.0525 0.0248389
30.0672 29.5024 2
26.9976 29.1179 3.99215
27.8565 26.5223 2
28.7834 24.3828 0.0126098
29.6206 27.2907 0.028538
26.897 37.3621 3.96249
28.6536 37.4962 2
30.1217 37.4883 0.117375
29.1433 46.5977 0.0022553
28.6458 43.1872 0.0419757
29.0047 39.8612 0.098778
27.2394 44.8592 2
26.7687 40.6261 2
25.2399 43.1877 3.97206
24.0238 39.4297 3.97509
25.9125 46.6882 0.0219697
23.9675 45.2357 2
21.8773 43.966 3.97834
22.7814 47.1023 0.0216101
20.9158 45.9128 2
18.9599 44.9795 3.97668
19.9626 47.6335 0.0229348
18.3068 46.7472 2
16.6126 46.2182 3.97387
17.6585 48.1872 0.0247377
16.3251 47.7197 2
14.9188 47.6744 3.97319
16.1336 48.6893 0.0238188
15.1891 49.0203 2
13.7841 49.549 3.97343
15.8412 50.1758 0.0261132
14.4856 50.989 2
12.8928 51.8762 3.97387
12.1386 54.5291 3.97651
13.8252 53.4386 2
15.3707 52.4212 0.0274955
11.5312 57.4606 3.98175
13.2502 56.1727 2
14.8624 54.9834 0.0247404
11.1324 60.6285 3.98874
12.8465 59.1297 2
14.4553 57.7451 0.0200925
10.9835 64.0165 4
12.6773 62.3022 2
14.2645 60.6956 0.01649
12.7745 65.694 2
14.3322 63.8601 0.00840583
14.6715 67.2507 0
16.3968 18.6448 3.98044
17.6646 17.1493 2
16.1001 15.7757 3.98303
18.9307 15.7741 0.0173152
17.5094 14.3657 2
16.019 12.8048 3.98602
18.9776 13.1016 0.0152737
17.6374 11.4505 2
16.2013 9.66197 3.99289
19.3414 10.2321 0.0111622
18.0498 8.33902 2
16.6661 6.31991 4
18.75 5.02404 2
19.99 7.14597 0.00682499
20.9142 3.86727 0
27.405 34.7545 3.94784
28.9949 35.1045 2
30.4156 35.5426 0.113243
16.6757 21.3721 3.97533
21.7784 17.8406 0.0178209
19.2386 18.4007 0.0183492
20.871 19.3684 2
17.9748 19.9333 2
19.7167 21.5649 3.98132
22.2721 19.8827 0.0213878
24.5833 21.311 0.0177675
22.3493 21.7082 2
24.6843 23.1568 2
22.8333 24.5939 3.97101
24.5391 28.5163 3.96766
25.4408 25.9331 2
26.404 23.7073 0.0198895
26.1477 31.6908 3.9921
28.2918 32.2834 2
29.9294 33.017 0.099601
30.0884 29.516 0.0324779
27.0046 29.1181 2
27.8597 26.5247 0.0276213
24.7164 36.8553 3.98117
26.8864 37.3631 2
28.6694 37.502 0.093243
27.2379 44.8554 0.0106599
26.778 40.6153 0.0185506
25.2347 43.192 2
24.0171 39.431 2
22.9446 41.809 3.97971
21.7411 38.5012 3.97415
23.9727 45.2344 0.0235355
21.8789 43.9669 2
19.7155 42.8952 3.9766
20.9123 45.9136 0.0220109
18.9591 44.9797 2
16.9381 44.3846 3.97355
18.306 46.7471 0.0239625
16.6128 46.2184 2
14.8371 46.0943 3.97236
16.3247 47.7195 0.0256339
14.9191 47.6747 2
13.2917 48.0109 3.97259
15.1886 49.0201 0.0251566
13.7846 49.5492 2
12.1127 50.254 3.97353
14.4853 50.9887 0.0266847
12.8931 51.8766 2
11.1349 52.8373 3.97572
10.3221 55.7117 3.98032
12.1386 54.5298 2
13.8251 53.4382 0.0259131
9.69898 58.8506 3.98738
11.5309 57.4614 2
13.2505 56.1718 0.0220615
9.30605 62.2254 4
11.1317 60.628 2
12.8466 59.1291 0.0169206
10.9835 64.0165 2
12.6778 62.3026 0.00995847
12.7746 65.6939 0
15.1424 20.1807 3.9771
16.397 18.644 2
14.7456 17.2989 3.98141
17.6646 17.15 0.0183988
16.1002 15.7748 2
14.4816 14.287 3.98469
17.5092 14.3665 0.0164667
16.0192 12.8041 2
14.4441 11.1132 3.99225
17.6372 11.4511 0.0120264
16.201 9.66212 2
14.6715 7.74927 4
18.0501 8.33881 0.00686706
16.6661 6.31988 2
18.75 5.0241 0
25.3561 34.2564 3.98757
27.3928 34.7513 2
29.0128 35.1129 0.0991601
17.849 22.3179 3.98195
15.5223 22.9172 3.97175
16.676 21.3712 2
20.8708 19.3692 0.0191304
17.9746 19.934 0.0206437
19.717 21.5641 2
19.6545 24.3746 3.97199
22.3488 21.7091 0.0192606
24.6836 23.1565 0.0217609
22.8322 24.5927 2
21.9081 27.8131 3.97014
23.7233 31.1769 3.97267
24.5436 28.5163 2
25.4428 25.9352 0.0317147
26.1472 31.6847 2
28.306 32.2952 0.0524485
26.9976 29.1179 0.00784532
22.4746 36.2716 3.97629
24.7067 36.8553 2
26.897 37.3621 0.0375066
25.2399 43.1877 0.0279423
24.0238 39.4297 0.024907
22.9434 41.8093 2
21.7398 38.5015 2
20.6821 40.6347 3.97527
20.0864 37.7812 3.97579
21.8773 43.966 0.0216633
19.717 42.8954 2
17.3446 42.1034 3.97377
18.9599 44.9795 0.0233154
16.9381 44.3848 2
14.8365 44.2033 3.97213
16.6126 46.2182 0.0261277
14.8373 46.0945 2
12.9623 46.298 3.97216
14.9188 47.6744 0.0268082
13.2921 48.0112 2
11.4849 48.5505 3.97263
13.7841 49.549 0.0265713
12.1131 50.2543 2
10.2614 51.0803 3.97495
12.8928 51.8762 0.0261263
11.1352 52.8377 2
9.23136 53.8893 3.97939
8.38266 56.9828 3.98628
10.322 55.7123 2
12.1386 54.5291 0.0234923
7.74927 60.3285 4
9.69818 58.8495 2
11.5312 57.4606 0.0182471
9.306 62.2255 2
11.1324 60.6285 0.0112637
10.9835 64.0165 0
13.9557 21.7488 3.97436
15.1426 20.1798 2
13.4466 18.8969 3.97918
16.3968 18.6448 0.0195638
14.7457 17.2979 2
13.0269 15.88 3.98383
16.1001 15.7757 0.0169732
14.4816 14.2862 2
12.7815 12.6864 3.99112
16.019 12.8048 0.0139807
14.4438 11.1134 2
12.7746 9.30605 4
16.2013 9.66197 0.00710929
14.6715 7.74924 2
16.6661 6.31991 0
23.0467 33.7931 3.97469
25.3447 34.2549 2
27.405 34.7545 0.0521649
17.6204 24.0391 3.97276
17.8491 22.317 2
14.3047 24.4484 3.9727
15.5223 22.9162 2
16.6757 21.3721 0.0246695
19.0273 27.1938 3.96961
19.7167 21.5649 0.0186791
19.6538 24.3744 2
21.1617 30.654 3.97158
22.8333 24.5939 0.0289898
21.9096 27.8129 2
23.7151 31.1774 2
24.5391 28.5163 0.0323427
26.1477 31.6908 0.00790349
20.2268 35.9184 3.9749
22.473 36.2723 2
24.7164 36.8553 0.0188341
22.9446 41.809 0.0202857
21.7411 38.5012 0.0258516
20.6803 40.6351 2
20.0848 37.7814 2
18.0614 39.0013 3.97411
19.7155 42.8952 0.0233972
17.3448 42.1035 2
14.7919 41.9198 3.9718
16.9381 44.3846 0.0264461
14.8364 44.2035 2
12.7013 44.3939 3.97157
14.8371 46.0943 0.0276375
12.9624 46.2984 2
10.9858 46.7347 3.97255
13.2917 48.0109 0.0274131
11.4852 48.5508 2
9.52544 49.2398 3.97395
12.1127 50.254 0.0264698
10.2618 51.0806 2
8.26479 52.0018 3.97849
11.1349 52.8373 0.0242808
9.2316 53.8894 2
7.19177 55.0324 3.98586
6.31991 58.3339 4
8.38188 56.9809 2
10.3221 55.7117 0.0196756
7.74924 60.3285 2
9.69898 58.8506 0.0126214
9.30605 62.2254 0
13.2253 25.3607 3.97663
12.8236 23.2784 3.97414
13.9558 21.7478 2
12.2326 20.5471 3.97731
15.1424 20.1807 0.0229033
13.4467 18.8958 2
11.6567 17.5615 3.9828
14.7456 17.2989 0.0185862
13.0269 15.8791 2
11.219 14.3714 3.98956
14.4816 14.287 0.0153083
12.7812 12.6867 2
10.9835 10.9835 4
14.4441 11.1132 0.00774584
12.7745 9.306 2
14.6715 7.74927 0
20.597 33.3877 3.97362
23.0469 33.7936 2
25.3561 34.2564 0.0124282
15.8916 26.3965 3.97166
17.6201 24.0386 2
17.849 22.3179 0.0180511
14.3047 24.4477 2
15.5223 22.9172 0.0282472
18.3773 30.165 3.97147
19.0274 27.1938 2
19.6545 24.3746 0.0280105
21.1628 30.6538 2
21.9081 27.8131 0.0298634
23.7233 31.1769 0.027333
17.7026 35.961 3.97405
20.2276 35.9185 2
22.4746 36.2716 0.0237123
20.6821 40.6347 0.0247309
20.0864 37.7812 0.0242146
18.0614 39.0014 2
14.3192 39.1762 3.97223
17.3446 42.1034 0.0262318
14.7918 41.9199 2
12.3909 42.2777 3.97041
14.8365 44.2033 0.0278736
12.7013 44.3941 2
10.5622 44.8038 3.97189
12.9623 46.298 0.027841
10.986 46.7351 2
8.9077 47.3193 3.97362
11.4849 48.5505 0.0273725
9.52576 49.2401 2
7.43231 50.0348 3.97736
10.2614 51.0803 0.0250475
8.26516 52.0017 2
6.1325 53.0065 3.98585
9.23136 53.8893 0.0206111
7.19126 55.0301 2
5.0241 56.25 4
6.31988 58.3339 2
8.38266 56.9828 0.013721
7.74927 60.3285 0
13.4635 26.8117 3.9708
11.9377 24.7868 3.97367
13.2252 25.3601 2
11.1366 22.2329 3.97582
12.8238 23.2776 2
13.9557 21.7488 0.0256362
12.2328 20.5459 2
10.3872 19.3171 3.98139
13.4466 18.8969 0.0208241
11.6567 17.5604 2
9.75982 16.1552 3.98806
13.0269 15.88 0.0161688
11.2185 14.3717 2
9.30607 12.7746 4
12.7815 12.6864 0.00887923
10.9835 10.9835 2
12.7746 9.30605 0
17.8651 33.1054 3.9732
20.5982 33.3877 2
23.0467 33.7931 0.0253099
15.4836 29.6318 3.9719
15.8912 26.3963 2
17.6204 24.0391 0.0272417
14.3047 24.4484 0.0273019
18.3787 30.1651 2
19.0273 27.1938 0.0303923
21.1617 30.654 0.0284153
14.9276 36.0161 3.97272
17.7031 35.9611 2
20.2268 35.9184 0.0251014
12.606 37.8289 3.97218
18.0614 39.0013 0.0258929
14.3197 39.1762 2
11.9097 40.1409 3.97074
14.7919 41.9198 0.0281976
12.3907 42.2779 2
10.1631 42.7785 3.97011
12.7013 44.3939 0.0284349
10.5623 44.8041 2
8.38526 45.3215 3.97322
10.9858 46.7347 0.0274541
8.90787 47.3195 2
6.72373 48 3.97689
9.52544 49.2398 0.0260532
7.4326 50.0346 2
5.20953 50.9094 3.98564
8.26479 52.0018 0.0215079
6.13229 53.0046 2
3.86727 54.0858 4
7.19177 55.0324 0.0141416
5.02404 56.25 2
6.31991 58.3339 0
12.9163 29.0301 3.97023
11.3688 26.4867 3.97162
13.4633 26.8113 2
10.1967 23.9672 3.97454
11.9378 24.7862 2
13.2253 25.3607 0.0233681
9.24003 21.137 3.97963
11.137 22.232 2
12.8236 23.2784 0.0258587
12.2326 20.5471 0.0226904
10.3873 19.316 2
8.4157 18.0268 3.98695
11.6567 17.5615 0.0172015
9.75921 16.1558 2
7.74928 14.6715 4
11.219 14.3714 0.0104375
9.30602 12.7745 2
10.9835 10.9835 0
14.492 32.8589 3.97243
17.8675 33.1055 2
20.597 33.3877 0.026381
15.4839 29.6317 2
15.8916 26.3965 0.0283356
18.3773 30.165 0.0285295
12.9003 36.208 3.97163
14.9281 36.0162 2
17.7026 35.961 0.0259455
12.6063 37.8289 2
11.2679 38.3097 3.97119
14.3192 39.1762 0.0277726
11.9099 40.141 2
9.75006 40.7545 3.9699
12.3909 42.2777 0.0295866
10.163 42.7788 2
7.93561 43.2701 3.97157
10.5622 44.8038 0.0281122
8.3853 45.3218 2
6.12984 45.9054 3.97668
8.9077 47.3193 0.02638
6.72389 47.9999 2
4.42127 48.7504 3.98548
7.43231 50.0348 0.0226406
5.20944 50.9083 2
2.85457 51.8506 4
6.1325 53.0065 0.0141451
3.86727 54.0858 2
5.0241 56.25 0
12.0598 31.2542 3.97098
10.7805 28.4138 3.97108
12.9161 29.0299 2
9.41246 25.7981 3.97318
11.3686 26.4863 2
13.4635 26.8117 0.0292024
8.22779 23.0229 3.97805
10.1969 23.9665 2
11.9377 24.7868 0.0263278
7.19799 19.9777 3.98601
9.2404 21.1364 2
11.1366 22.2329 0.0241757
10.3872 19.3171 0.0186087
8.41507 18.0281 2
6.31992 16.6661 4
9.75982 16.1552 0.0119425
7.74926 14.6714 2
9.30607 12.7746 0
12.0888 34.2932 3.97168
14.4917 32.8589 2
17.8651 33.1054 0.0268047
15.4836 29.6318 0.0281034
10.8321 36.6107 3.97112
12.9007 36.208 2
14.9276 36.0161 0.0272768
12.606 37.8289 0.0278247
11.2681 38.3097 2
9.34526 38.8236 3.97015
11.9097 40.1409 0.0292611
9.75024 40.7546 2
7.54837 41.2111 3.97065
10.1631 42.7785 0.0298863
7.93555 43.2703 2
5.6425 43.7683 3.97573
8.38526 45.3215 0.026777
6.12989 45.9053 2
3.76699 46.5366 3.9853
6.72373 48 0.0231089
4.42125 48.7498 2
1.99014 49.554 4
5.20953 50.9094 0.0143564
2.85451 51.8506 2
3.86727 54.0858 0
10.92 32.9179 3.97149
10.0939 30.3812 3.9706
12.0595 31.2541 2
8.72051 27.7317 3.9728
10.7804 28.4136 2
12.9163 29.0301 0.029769
7.35393 24.9826 3.97681
9.41251 25.7977 2
11.3688 26.4867 0.0283754
6.11511 22.0023 3.98558
8.2282 23.0227 2
10.1967 23.9672 0.0254556
5.02411 18.75 4
7.19763 19.9795 2
9.24003 21.137 0.0203696
8.4157 18.0268 0.0130537
6.3199 16.6661 2
7.74928 14.6715 0
10.4408 34.9994 3.97096
12.0888 34.2932 2
14.492 32.8589 0.027569
9.0169 36.9849 3.97019
10.8326 36.6108 2
12.9003 36.208 0.028366
11.2679 38.3097 0.0288126
9.34526 38.8236 2
7.22964 39.1818 3.97067
9.75006 40.7545 0.0301016
7.54853 41.2111 2
5.25886 41.6139 3.97433
7.93561 43.2701 0.0284265
5.64245 43.7683 2
3.245 44.2818 3.98446
6.12984 45.9054 0.0233201
3.76702 46.5365 2
1.27781 47.2057 4
4.42127 48.7504 0.0145174
1.99012 49.554 2
2.85457 51.8506 0
10.0871 33.8808 3.97135
9.38725 32.1538 3.97116
10.9199 32.9179 2
8.07015 29.6954 3.97206
10.0938 30.3811 2
12.0598 31.2542 0.0290203
6.59783 27.0087 3.97636
8.72048 27.7315 2
10.7805 28.4138 0.0289199
5.17063 24.0958 3.98536
7.35411 24.9825 2
9.41246 25.7981 0.0268169
3.86728 20.9142 4
6.11501 22.0038 2
8.22779 23.0229 0.0219455
5.02406 18.75 2
7.19799 19.9777 0.0139888
6.31992 16.6661 0
8.84334 35.2792 3.97039
10.4408 34.9994 2
12.0888 34.2932 0.0283205
7.01344 37.2058 3.97077
9.01693 36.9849 2
10.8321 36.6107 0.028882
9.34526 38.8236 0.0298531
7.22968 39.1819 2
4.98729 39.4673 3.97364
7.54837 41.2111 0.0293523
5.25902 41.6138 2
2.85588 42.0023 3.98325
5.6425 43.7683 0.0242653
3.245 44.282 2
0.720592 44.8159 4
3.76699 46.5366 0.0146962
1.27778 47.2057 2
1.99014 49.554 0
8.88401 33.6973 3.97138
10.0871 33.8807 2
7.50814 31.609 3.97224
9.38713 32.1537 2
10.92 32.9179 0.0285056
5.94333 29.0697 3.97583
8.07004 29.6953 2
10.0939 30.3812 0.0294033
4.35846 26.2483 3.98514
6.59788 27.0087 2
8.72051 27.7317 0.0271985
2.85458 23.1494 4
5.17057 24.0966 2
7.35393 24.9826 0.0231872
3.86728 20.9142 2
6.11511 22.0023 0.0144209
5.02411 18.75 0
6.96378 35.306 3.97071
8.84347 35.2791 2
10.4408 34.9994 0.0290432
4.83746 37.3398 3.97401
7.01348 37.2058 2
9.0169 36.9849 0.0298079
7.22964 39.1818 0.0293315
4.98733 39.4673 2
2.60425 39.714 3.98248
5.25886 41.6139 0.0256734
2.85606 42.0025 2
0.320823 42.3947 4
3.245 44.2818 0.0155442
0.720551 44.8159 2
1.27781 47.2057 0
7.12267 33.4608 3.97196
8.88399 33.6972 2
10.0871 33.8808 0.0286457
5.41466 31.1337 3.97553
7.508 31.6089 2
9.38725 32.1538 0.0288411
3.6804 28.4439 3.98467
5.94326 29.0698 2
8.07015 29.6954 0.0279395
1.99015 25.446 4
4.35845 26.2486 2
6.59783 27.0087 0.0236394
2.85453 23.1494 2
5.17063 24.0958 0.0146434
3.86728 20.9142 0
4.85182 35.2516 3.97401
6.96391 35.306 2
8.84334 35.2792 0.0296126
2.49565 37.4286 3.98281
4.83751 37.3399 2
7.01344 37.2058 0.0292267
4.98729 39.4673 0.0263641
2.60433 39.7144 2
0.080333 39.9526 4
2.85588 42.0023 0.0167483
0.320817 42.3947 2
0.720592 44.8159 0
5.04459 33.1903 3.97504
7.12265 33.4607 2
8.88401 33.6973 0.0286202
3.14496 30.6663 3.98392
5.4145 31.1338 2
7.50814 31.609 0.0277583
1.27793 27.7943 4
3.68039 28.4439 2
5.94333 29.0697 0.0241725
1.99013 25.446 2
4.35846 26.2483 0.0148559
2.85458 23.1494 0
2.54781 35.1591 3.98282
4.85197 35.2518 2
6.96378 35.306 0.0292855
0 37.5 4
2.49577 37.4289 2
4.83746 37.3398 0.0259899
2.60425 39.714 0.0175242
0.0802903 39.9526 2
0.320823 42.3947 0
2.7652 32.9058 3.98336
5.04457 33.1905 2
7.12267 33.4608 0.028041
0.721173 30.1842 4
3.14494 30.6664 2
5.41466 31.1337 0.0244715
1.27779 27.7943 2
3.6804 28.4439 0.0153265
1.99015 25.446 0
0.0806499 35.0474 4
2.54798 35.1595 2
4.85182 35.2516 0.0259944
0 37.5 2
2.49565 37.4286 0.0171891
0.080333 39.9526 0
0.32156 32.6054 4
2.76526 32.9062 2
5.04459 33.1903 0.024963
0.72056 30.1841 2
3.14496 30.6663 0.0160815
1.27793 27.7943 0
0.0802889 35.0474 2
2.54781 35.1591 0.0171804
0 37.5 0
0.320817 32.6053 2
2.7652 32.9058 0.0166429
0.721173 30.1842 0
0.0806499 35.0474 0
0.32156 32.6054 0
CELLS 1910 17190
8 18 6 25 56 2 0 5 16
8 57 23 6 18 17 4 0 2
8 78 36 9 29 31 11 1 7
8 31 11 1 7 79 37 10 30
8 110 57 18 50 48 17 2 14
8 50 18 56 111 14 2 16 49
8 116 62 22 55 52 20 3 15
8 56 25 67 118 16 5 24 53
8 119 63 23 57 54 21 4 17
8 55 22 63 119 15 3 21 54
8 58 26 68 121 18 6 25 56
8 122 65 26 58 57 23 6 18
8 73 31 7 27 142 79 30 71
8 143 78 29 72 73 31 7 27
8 83 147 76 34 32 74 28 8
8 84 148 78 36 33 75 29 9
8 76 34 8 28 148 84 33 75
8 37 79 150 86 10 30 77 35
8 151 87 36 78 80 38 11 31
8 80 38 11 31 152 88 37 79
8 175 100 42 94 96 44 12 40
8 44 96 176 101 12 40 95 43
8 101 176 98 46 43 95 41 13
8 46 98 178 103 13 41 97 45
8 178 103 45 97 147 83 32 74
8 189 116 55 109 106 52 15 47
8 111 56 118 191 49 16 53 107
8 192 119 57 110 108 54 17 48
8 109 55 119 192 47 15 54 108
8 194 122 58 112 110 57 18 50
8 112 58 121 195 50 18 56 111
8 115 61 19 51 197 124 59 113
8 115 61 125 198 51 19 60 114
8 198 125 62 116 114 60 20 52
8 200 127 64 120 116 62 22 55
8 118 67 132 202 53 24 66 117
8 121 68 133 203 56 25 67 118
8 120 64 128 204 55 22 63 119
8 204 128 65 122 119 63 23 57
8 206 134 68 121 123 69 26 58
8 123 69 26 58 207 131 65 122
8 226 147 74 138 140 76 28 70
8 229 148 75 139 143 78 29 72
8 140 76 28 70 229 148 75 139
8 142 79 30 71 231 150 77 141
8 144 80 31 73 232 152 79 142
8 233 151 78 143 144 80 31 73
8 150 86 35 77 235 154 81 145
8 235 154 81 145 146 82 39 91
8 146 82 39 91 236 155 90 165
8 238 157 83 147 149 85 34 76
8 239 158 84 148 151 87 36 78
8 149 85 34 76 239 158 84 148
8 152 88 37 79 241 160 86 150
8 242 161 87 151 153 89 38 80
8 153 89 38 80 243 162 88 152
8 171 98 41 92 265 178 97 169
8 265 178 97 169 226 147 74 138
8 172 96 40 93 266 176 95 170
8 266 176 95 170 171 98 41 92
8 269 175 94 173 172 96 40 93
8 271 180 99 174 175 100 42 94
8 197 124 59 113 271 180 99 174
8 272 181 100 175 177 102 44 96
8 273 182 101 176 179 104 46 98
8 177 102 44 96 273 182 101 176
8 179 104 46 98 275 184 103 178
8 275 184 103 178 238 157 83 147
8 188 115 51 105 283 197 113 186
8 188 115 198 284 105 51 114 187
8 284 198 116 189 187 114 52 106
8 286 200 120 193 189 116 55 109
8 191 118 202 288 107 53 117 190
8 195 121 203 289 111 56 118 191
8 193 120 204 290 109 55 119 192
8 290 204 122 194 192 119 57 110
8 196 123 58 112 292 207 122 194
8 293 206 121 195 196 123 58 112
8 199 126 61 115 297 211 124 197
8 298 212 127 200 198 125 62 116
8 199 126 212 298 115 61 125 198
8 205 129 64 120 300 214 127 200
8 301 217 130 201 202 132 66 117
8 209 136 168 264 301 217 130 201
8 302 219 132 202 203 133 67 118
8 303 220 133 203 206 134 68 121
8 205 129 215 304 120 64 128 204
8 304 215 131 207 204 128 65 122
8 306 221 134 206 208 135 69 123
8 208 135 69 123 307 218 131 207
8 210 137 167 263 309 223 136 209
8 328 238 147 226 230 149 76 140
8 228 146 91 166 329 236 165 260
8 231 150 77 141 330 235 145 227
8 330 235 145 227 228 146 91 166
8 332 239 148 229 233 151 78 143
8 230 149 76 140 332 239 148 229
8 232 152 79 142 334 241 150 231
8 234 153 80 144 335 243 152 232
8 336 242 151 233 234 153 80 144
8 236 155 90 165 338 245 164 259
8 241 160 86 150 339 246 154 235
8 339 246 154 235 237 156 82 146
8 237 156 82 146 340 247 155 236
8 342 249 157 238 240 159 85 149
8 343 250 158 239 242 161 87 151
8 240 159 85 149 343 250 158 239
8 243 162 88 152 345 252 160 241
8 244 163 253 346 153 89 161 242
8 244 163 89 153 347 254 162 243
8 311 224 261 371 210 137 167 263
8 263 167 262 372 209 136 168 264
8 267 179 98 171 375 275 178 265
8 375 275 178 265 328 238 147 226
8 376 273 176 266 267 179 98 171
8 268 177 96 172 376 273 176 266
8 379 272 175 269 268 177 96 172
8 380 271 174 270 269 175 94 173
8 283 197 113 186 380 271 174 270
8 381 277 180 271 272 181 100 175
8 297 211 124 197 381 277 180 271
8 382 278 181 272 274 183 102 177
8 274 183 102 177 383 279 182 273
8 383 279 182 273 276 185 104 179
8 385 281 184 275 342 249 157 238
8 276 185 104 179 385 281 184 275
8 285 199 115 188 393 297 197 283
8 394 298 200 286 284 198 116 189
8 285 199 298 394 188 115 198 284
8 291 205 120 193 396 300 200 286
8 397 301 201 287 288 202 117 190
8 295 209 264 374 397 301 201 287
8 398 302 202 288 289 203 118 191
8 399 303 203 289 293 206 121 195
8 291 205 304 400 193 120 204 290
8 400 304 207 292 290 204 122 194
8 294 208 123 196 402 307 207 292
8 403 306 206 293 294 208 123 196
8 296 210 263 373 405 309 209 295
8 408 312 213 299 297 211 126 199
8 299 213 313 409 199 126 212 298
8 409 313 214 300 298 212 127 200
8 305 216 129 205 411 315 214 300
8 412 318 217 301 302 219 132 202
8 309 223 136 209 412 318 217 301
8 413 320 219 302 303 220 133 203
8 306 221 321 414 206 134 220 303
8 307 218 131 207 415 316 215 304
8 305 216 316 415 205 129 215 304
8 417 322 221 306 308 222 135 208
8 308 222 135 208 418 319 218 307
8 310 225 137 210 420 325 223 309
8 423 326 224 311 310 225 137 210
8 329 236 165 260 441 338 259 368
8 442 342 238 328 333 240 149 230
8 331 237 146 228 443 340 236 329
8 334 241 150 231 444 339 235 330
8 444 339 235 330 331 237 146 228
8 446 343 239 332 336 242 151 233
8 333 240 149 230 446 343 239 332
8 335 243 152 232 448 345 241 334
8 337 244 153 234 449 347 243 335
8 337 244 346 450 234 153 242 336
8 338 245 164 259 452 349 258 367
8 340 247 155 236 453 350 245 338
8 345 252 160 241 454 351 246 339
8 454 351 246 339 341 248 156 237
8 341 248 156 237 455 352 247 340
8 240 159 251 344 342 249 354 457
8 242 161 253 346 343 250 355 458
8 343 250 355 458 240 159 251 344
8 347 254 162 243 460 357 252 345
8 348 255 358 461 244 163 253 346
8 348 255 163 244 462 359 254 347
8 473 360 257 365 363 256 364 482
8 452 349 258 367 365 257 366 485
8 422 324 369 488 311 224 261 371
8 371 261 370 490 263 167 262 372
8 407 311 371 491 296 210 263 373
8 373 263 372 492 295 209 264 374
8 493 385 275 375 442 342 238 328
8 377 276 179 267 493 385 275 375
8 378 274 177 268 494 383 273 376
8 494 383 273 376 377 276 179 267
8 497 382 272 379 378 274 177 268
8 498 381 271 380 379 272 175 269
8 393 297 197 283 498 381 271 380
8 499 387 277 381 382 278 181 272
8 408 312 211 297 499 387 277 381
8 500 388 278 382 384 280 183 274
8 501 389 279 383 386 282 185 276
8 384 280 183 274 501 389 279 383
8 386 282 185 276 503 391 281 385
8 503 391 281 385 457 354 249 342
8 511 408 299 395 393 297 199 285
8 395 299 409 512 285 199 298 394
8 512 409 300 396 394 298 200 286
8 401 305 205 291 514 411 300 396
8 515 412 301 397 398 302 202 288
8 405 309 209 295 515 412 301 397
8 516 413 302 398 399 303 203 289
8 403 306 414 517 293 206 303 399
8 402 307 207 292 518 415 304 400
8 401 305 415 518 291 205 304 400
8 404 308 208 294 520 418 307 402
8 521 417 306 403 404 308 208 294
8 406 310 210 296 523 420 309 405
8 526 423 311 407 406 310 210 296
8 410 314 213 299 527 424 312 408
8 528 425 315 411 409 313 214 300
8 410 314 425 528 299 213 313 409
8 416 317 216 305 530 427 315 411
8 531 430 318 412 413 320 219 302
8 420 325 223 309 531 430 318 412
8 532 432 320 413 414 321 220 303
8 417 322 433 533 306 221 321 414
8 418 319 218 307 534 428 316 415
8 416 317 428 534 305 216 316 415
8 419 323 434 536 308 222 322 417
8 419 323 222 308 537 431 319 418
8 421 327 225 310 539 438 325 420
8 421 327 439 541 310 225 326 423
8 543 437 324 422 423 326 224 311
8 441 338 259 368 559 452 367 486
8 443 340 236 329 560 453 338 441
8 333 240 344 447 442 342 457 561
8 445 341 237 331 562 455 340 443
8 448 345 241 334 563 454 339 444
8 563 454 339 444 445 341 237 331
8 336 242 346 450 446 343 458 565
8 446 343 458 565 333 240 344 447
8 449 347 243 335 567 460 345 448
8 451 348 244 337 568 462 347 449
8 451 348 461 569 337 244 346 450
8 570 463 349 452 473 360 257 365
8 453 350 245 338 570 463 349 452
8 455 352 247 340 571 464 350 453
8 460 357 252 345 572 465 351 454
8 572 465 351 454 456 353 248 341
8 456 353 248 341 573 466 352 455
8 344 251 356 459 457 354 468 575
8 458 355 469 576 344 251 356 459
8 346 253 358 461 458 355 469 576
8 462 359 254 347 578 471 357 460
8 348 255 359 462 461 358 472 579
8 591 474 360 473 475 361 256 363
8 475 361 256 363 594 477 362 479
8 363 256 364 482 479 362 480 603
8 590 473 365 484 481 363 482 605
8 482 364 257 365 606 483 366 485
8 559 452 367 486 484 365 485 607
8 542 436 487 609 422 324 369 488
8 525 422 488 611 407 311 371 491
8 488 369 489 612 371 261 370 490
8 491 371 490 613 373 263 372 492
8 495 386 276 377 614 503 385 493
8 614 503 385 493 561 457 342 442
8 615 501 383 494 495 386 276 377
8 496 384 274 378 615 501 383 494
8 618 500 382 497 496 384 274 378
8 619 499 381 498 497 382 272 379
8 511 408 297 393 619 499 381 498
8 620 505 387 499 500 388 278 382
8 527 424 312 408 620 505 387 499
8 502 390 506 621 384 280 388 500
8 622 507 389 501 504 392 282 386
8 502 390 280 384 622 507 389 501
8 504 392 282 386 624 509 391 503
8 624 509 391 503 575 468 354 457
8 513 410 299 395 630 527 408 511
8 631 528 411 514 512 409 300 396
8 513 410 528 631 395 299 409 512
8 519 416 305 401 633 530 411 514
8 634 531 412 515 516 413 302 398
8 523 420 309 405 634 531 412 515
8 635 532 413 516 517 414 303 399
8 521 417 533 636 403 306 414 517
8 520 418 307 402 637 534 415 518
8 519 416 534 637 401 305 415 518
8 522 419 308 404 639 537 418 520
8 522 419 536 640 404 308 417 521
8 524 421 310 406 642 539 420 523
8 524 421 541 644 406 310 423 526
8 646 543 422 525 526 423 311 407
8 529 426 314 410 647 544 424 527
8 528 425 545 648 411 315 427 530
8 529 426 545 648 410 314 425 528
8 535 429 317 416 649 546 427 530
8 650 548 430 531 532 432 320 413
8 539 438 325 420 650 548 430 531
8 533 433 550 651 414 321 432 532
8 536 434 551 652 417 322 433 533
8 537 431 319 418 653 547 428 534
8 535 429 547 653 416 317 428 534
8 538 435 552 654 419 323 434 536
8 538 435 323 419 655 549 431 537
8 540 440 327 421 657 556 438 539
8 540 440 557 659 421 327 439 541
8 541 439 555 660 423 326 437 543
8 661 554 436 542 543 437 324 422
8 676 570 452 559 590 473 365 484
8 560 453 338 441 676 570 452 559
8 562 455 340 443 677 571 453 560
8 447 344 459 566 561 457 575 678
8 564 456 341 445 679 573 455 562
8 567 460 345 448 680 572 454 563
8 680 572 454 563 564 456 341 445
8 565 458 576 682 447 344 459 566
8 450 346 461 569 565 458 576 682
8 568 462 347 449 684 578 460 567
8 451 348 462 568 569 461 579 685
8 686 580 463 570 591 474 360 473
8 571 464 350 453 686 580 463 570
8 573 466 352 455 687 581 464 571
8 572 465 582 688 460 357 471 578
8 574 467 582 688 456 353 465 572
8 574 467 353 456 689 583 466 573
8 459 356 470 577 575 468 585 691
8 576 469 586 692 459 356 470 577
8 461 358 472 579 576 469 586 692
8 462 359 471 578 579 472 588 694
8 704 591 473 590 593 475 363 481
8 595 476 592 705 475 361 474 591
8 593 475 363 481 707 594 479 602
8 594 477 362 479 709 598 478 600
8 595 476 361 475 711 597 477 594
8 479 362 480 603 600 478 601 720
8 481 363 482 605 602 479 603 722
8 603 480 364 482 723 604 483 606
8 605 482 365 484 724 606 485 607
8 656 553 608 726 542 436 487 609
8 645 542 609 728 525 422 488 611
8 609 487 610 729 488 369 489 612
8 611 488 612 730 491 371 490 613
8 616 504 386 495 731 624 503 614
8 731 624 503 614 678 575 457 561
8 732 622 501 615 616 504 386 495
8 617 502 384 496 732 622 501 615
8 617 502 621 735 496 384 500 618
8 736 620 499 619 618 500 382 497
8 630 527 408 511 736 620 499 619
8 621 506 626 737 500 388 505 620
8 647 544 424 527 737 626 505 620
8 623 508 627 738 502 390 506 621
8 623 508 390 502 739 628 507 622
8 625 510 628 739 504 392 507 622
8 740 629 509 624 691 585 468 575
8 625 510 392 504 740 629 509 624
8 632 529 410 513 744 647 527 630
8 631 528 648 745 514 411 530 633
8 632 529 648 745 513 410 528 631
8 638 535 416 519 746 649 530 633
8 747 650 531 634 635 532 413 516
8 642 539 420 523 747 650 531 634
8 636 533 651 748 517 414 532 635
8 640 536 652 749 521 417 533 636
8 639 537 418 520 750 653 534 637
8 638 535 653 750 519 416 534 637
8 641 538 419 522 751 655 537 639
8 641 538 654 752 522 419 536 640
8 643 540 421 524 753 657 539 642
8 643 540 659 755 524 421 541 644
8 644 541 660 757 526 423 543 646
8 758 661 542 645 646 543 422 525
8 529 426 544 647 648 545 662 759
8 530 427 545 648 649 546 663 760
8 535 429 546 649 653 547 664 761
8 762 666 548 650 651 550 432 532
8 657 556 438 539 762 666 548 650
8 652 551 668 763 533 433 550 651
8 654 552 669 764 536 434 551 652
8 655 549 431 537 765 665 547 653
8 538 435 549 655 654 552 667 766
8 661 554 671 768 542 436 553 656
8 658 558 440 540 769 674 556 657
8 658 558 675 770 540 440 557 659
8 659 557 673 771 541 439 555 660
8 660 555 672 772 543 437 554 661
8 788 686 570 676 704 591 473 590
8 677 571 453 560 788 686 570 676
8 679 573 455 562 789 687 571 677
8 566 459 577 683 678 575 691 790
8 681 574 456 564 791 689 573 679
8 680 572 688 792 567 460 578 684
8 681 574 688 792 564 456 572 680
8 682 576 692 794 566 459 577 683
8 569 461 579 685 682 576 692 794
8 568 462 578 684 685 579 694 796
8 687 581 464 571 798 696 580 686
8 798 696 580 686 705 592 474 591
8 689 583 466 573 799 697 581 687
8 688 582 698 800 578 471 588 694
8 690 584 698 800 574 467 582 688
8 690 584 467 574 801 699 583 689
8 693 587 701 803 577 470 585 691
8 693 587 470 577 804 702 586 692
8 695 589 702 804 579 472 586 692
8 695 589 472 579 805 703 588 694
8 708 595 705 813 593 475 591 704
8 710 596 706 814 595 476 592 705
8 707 594 479 602 816 709 600 719
8 708 595 475 593 817 711 594 707
8 709 598 478 600 819 715 599 717
8 711 597 477 594 820 714 598 709
8 710 596 476 595 822 713 597 711
8 600 478 601 720 717 599 718 832
8 602 479 603 722 719 600 720 834
8 720 601 480 603 835 721 604 723
8 722 603 482 605 836 723 606 724
8 767 670 725 839 656 553 608 726
8 756 656 726 841 645 542 609 728
8 726 608 727 842 609 487 610 729
8 728 609 729 843 611 488 612 730
8 844 740 624 731 790 691 575 678
8 733 625 504 616 844 740 624 731
8 734 623 502 617 845 739 622 732
8 733 625 739 845 616 504 622 732
8 734 623 738 846 617 502 621 735
8 735 621 737 847 618 500 620 736
8 744 647 527 630 847 737 620 736
8 621 506 627 738 737 626 741 848
8 647 544 626 737 759 662 741 848
8 623 508 628 739 738 627 742 849
8 740 629 585 691 850 743 700 802
8 625 510 629 740 739 628 743 850
8 632 529 647 744 745 648 759 854
8 633 530 648 745 746 649 760 855
8 638 535 649 746 750 653 761 856
8 857 762 650 747 748 651 532 635
8 753 657 539 642 857 762 650 747
8 749 652 763 858 636 533 651 748
8 752 654 764 859 640 536 652 749
8 751 655 537 639 860 765 653 750
8 641 538 655 751 752 654 766 861
8 754 658 540 643 862 769 657 753
8 754 658 770 863 643 540 659 755
8 755 659 771 864 644 541 660 757
8 758 661 768 866 645 542 656 756
8 757 660 772 867 646 543 661 758
8 759 662 773 868 648 545 663 760
8 649 546 663 760 761 664 774 871
8 765 665 547 653 872 775 664 761
8 873 777 666 762 763 668 550 651
8 769 674 556 657 873 777 666 762
8 764 669 779 874 652 551 668 763
8 654 552 667 766 764 669 778 875
8 655 549 665 765 766 667 776 876
8 768 671 782 877 656 553 670 767
8 772 672 783 878 661 554 671 768
8 658 558 674 769 770 675 786 879
8 659 557 675 770 771 673 785 881
8 882 784 672 772 771 673 555 660
8 789 687 571 677 897 798 686 788
8 897 798 686 788 813 705 591 704
8 791 689 573 679 898 799 687 789
8 795 693 803 900 683 577 691 790
8 793 690 574 681 901 801 689 791
8 792 688 800 902 684 578 694 796
8 793 690 800 902 681 574 688 792
8 795 693 577 683 903 804 692 794
8 797 695 804 903 685 579 692 794
8 797 695 579 685 904 805 694 796
8 905 806 697 799 798 696 581 687
8 814 706 806 905 705 592 696 798
8 689 583 697 799 801 699 808 907
8 800 698 809 908 694 588 703 805
8 690 584 699 801 800 698 809 908
8 803 701 810 909 691 585 700 802
8 693 587 702 804 803 701 811 910
8 695 589 703 805 804 702 812 911
8 818 710 814 919 708 595 705 813
8 821 712 815 920 710 596 706 814
8 816 709 600 719 922 819 717 831
8 817 711 594 707 923 820 709 816
8 818 710 595 708 924 822 711 817
8 819 715 599 717 926 827 716 829
8 820 714 598 709 927 826 715 819
8 929 825 713 822 820 714 597 711
8 821 712 596 710 930 824 713 822
8 717 599 718 832 829 716 830 942
8 719 600 720 834 831 717 832 944
8 832 718 601 720 945 833 721 835
8 834 720 603 722 946 835 723 836
8 869 780 838 950 767 670 725 839
8 865 767 839 952 756 656 726 841
8 839 725 840 953 726 608 727 842
8 841 726 842 954 728 609 729 843
8 844 740 691 790 955 850 802 899
8 733 625 740 844 845 739 850 955
8 734 623 739 845 846 738 849 956
8 735 621 738 846 847 737 848 957
8 744 647 737 847 854 759 848 957
8 738 627 742 849 848 741 851 958
8 848 741 851 958 759 662 773 868
8 850 743 700 802 959 852 807 906
8 849 742 628 739 959 852 743 850
8 854 759 868 965 745 648 760 855
8 746 649 760 855 856 761 871 966
8 860 765 653 750 967 872 761 856
8 968 873 762 857 858 763 651 748
8 862 769 657 753 968 873 762 857
8 859 764 874 969 749 652 763 858
8 752 654 766 861 859 764 875 970
8 751 655 765 860 861 766 876 971
8 754 658 769 862 863 770 879 972
8 755 659 770 863 864 771 881 974
8 976 882 772 867 864 771 660 757
8 866 768 877 977 756 656 767 865
8 867 772 878 978 758 661 768 866
8 760 663 773 868 871 774 883 980
8 870 781 837 948 982 890 780 869
8 982 890 780 869 877 782 670 767
8 761 664 774 871 872 775 884 984
8 876 776 665 765 985 885 775 872
8 873 777 668 763 986 887 779 874
8 769 674 777 873 879 786 887 986
8 764 669 778 875 874 779 888 987
8 766 667 776 876 875 778 886 988
8 878 783 892 989 768 671 782 877
8 878 783 672 772 990 893 784 882
8 880 787 675 770 991 896 786 879
8 880 787 895 992 770 675 785 881
8 881 785 894 993 771 673 784 882
8 1006 905 799 898 897 798 687 789
8 919 814 905 1006 813 705 798 897
8 791 689 799 898 901 801 907 1007
8 900 803 909 1009 790 691 802 899
8 795 693 804 903 900 803 910 1010
8 902 800 908 1011 796 694 805 904
8 793 690 801 901 902 800 908 1011
8 797 695 805 904 903 804 911 1012
8 799 697 806 905 907 808 912 1013
8 920 815 912 1013 814 706 806 905
8 802 700 810 909 906 807 913 1014
8 801 699 808 907 908 809 914 1015
8 805 703 809 908 911 812 915 1016
8 803 701 811 910 909 810 916 1017
8 911 812 917 1018 804 702 811 910
8 925 821 920 1030 818 710 814 919
8 928 823 921 1031 821 712 815 920
8 922 819 717 831 1033 926 829 941
8 923 820 709 816 1034 927 819 922
8 1035 929 822 924 923 820 711 817
8 925 821 710 818 1036 930 822 924
8 1038 933 825 929 927 826 714 820
8 926 827 716 829 1039 935 828 939
8 927 826 715 819 1040 934 827 926
8 928 823 712 821 1041 931 824 930
8 1042 932 824 930 929 825 713 822
8 829 716 830 942 939 828 940 1058
8 831 717 832 944 941 829 942 1060
8 942 830 718 832 1061 943 833 945
8 944 832 720 834 1062 945 835 946
8 981 889 947 1064 870 781 837 948
8 948 837 949 1067 869 780 838 950
8 975 869 950 1069 865 767 839 952
8 950 838 951 1070 839 725 840 953
8 952 839 953 1071 841 726 842 954
8 955 850 802 899 1072 959 906 1008
8 956 849 739 845 1072 959 850 955
8 846 738 849 956 957 848 958 1073
8 957 848 958 1073 854 759 868 965
8 849 742 852 959 958 851 961 1076
8 960 853 961 1076 906 807 852 959
8 958 851 961 1076 868 773 883 980
8 960 853 807 906 1077 963 913 1014
8 855 760 868 965 966 871 980 1085
8 856 761 871 966 967 872 984 1086
8 971 876 765 860 1087 985 872 967
8 968 873 763 858 1088 986 874 969
8 862 769 873 968 972 879 986 1088
8 859 764 875 970 969 874 987 1089
8 861 766 876 971 970 875 988 1090
8 973 880 770 863 1091 991 879 972
8 973 880 992 1092 863 770 881 974
8 974 881 993 1093 864 771 882 976
8 979 870 948 1066 1094 982 869 975
8 1094 982 869 975 977 877 767 865
8 978 878 772 867 1095 990 882 976
8 978 878 989 1096 866 768 877 977
8 871 774 883 980 984 884 994 1099
8 983 891 999 1100 870 781 889 981
8 1101 1000 890 982 989 892 782 877
8 983 891 781 870 1101 1000 890 982
8 872 775 884 984 985 885 995 1103
8 876 776 885 985 988 886 996 1104
8 986 887 779 874 1105 998 888 987
8 879 786 887 986 991 896 998 1105
8 875 778 886 988 987 888 997 1106
8 990 893 1002 1107 878 783 892 989
8 1108 1003 893 990 993 894 784 882
8 880 787 896 991 992 895 1005 1109
8 993 894 785 881 1110 1004 895 992
8 898 799 905 1006 1007 907 1013 1120
8 1030 920 1013 1120 919 814 905 1006
8 901 801 907 1007 1011 908 1015 1121
8 899 802 909 1009 1008 906 1014 1122
8 900 803 910 1010 1009 909 1017 1123
8 1012 911 1018 1124 903 804 910 1010
8 904 805 908 1011 1012 911 1016 1125
8 1013 912 1020 1127 907 808 914 1015
8 1031 921 1020 1127 920 815 912 1013
8 1019 918 962 1075 1128 1021 913 1014
8 1128 1021 913 1014 1017 916 810 909
8 1015 914 1022 1129 908 809 915 1016
8 1016 915 1023 1130 911 812 917 1018
8 1018 917 1024 1131 910 811 916 1017
8 1037 928 1031 1148 925 821 920 1030
8 928 823 931 1041 1031 921 1032 1149
8 1033 926 829 941 1151 1039 939 1057
8 1034 927 819 922 1152 1040 926 1033
8 1153 1038 929 1035 1034 927 820 923
8 1154 1042 930 1036 1035 929 822 924
8 1037 928 821 925 1155 1041 930 1036
8 1039 935 828 939 1156 1047 938 1055
8 1157 1043 932 1042 1038 933 825 929
8 1038 933 826 927 1158 1045 934 1040
8 1040 934 827 926 1159 1046 935 1039
8 930 824 932 1042 1041 931 1044 1160
8 1051 936 1048 1165 1175 1052 937 1053
8 1156 1047 938 1055 1053 937 1054 1178
8 939 828 940 1058 1055 938 1056 1181
8 941 829 942 1060 1057 939 1058 1183
8 942 830 943 1061 1058 940 1059 1184
8 1060 942 832 944 1185 1061 945 1062
8 1082 964 1063 1188 981 889 947 1064
8 1097 981 1064 1190 979 870 948 1066
8 1064 947 1065 1191 948 837 949 1067
8 1066 948 1067 1193 975 869 950 1069
8 1067 949 1068 1194 950 838 951 1070
8 1069 950 1070 1195 952 839 953 1071
8 956 849 959 1072 1073 958 1076 1197
8 1074 960 1076 1197 1008 906 959 1072
8 1073 958 1076 1197 965 868 980 1085
8 1074 960 906 1008 1198 1077 1014 1122
8 1133 1026 1079 1199 1019 918 962 1075
8 1077 963 913 1014 1200 1080 962 1075
8 960 853 963 1077 1076 961 1078 1201
8 980 883 961 1076 1099 994 1078 1201
8 1210 1083 964 1082 1100 999 889 981
8 966 871 980 1085 1086 984 1099 1215
8 967 872 984 1086 1087 985 1103 1216
8 971 876 985 1087 1090 988 1104 1217
8 1088 986 874 969 1218 1105 987 1089
8 972 879 986 1088 1091 991 1105 1218
8 970 875 988 1090 1089 987 1106 1219
8 973 880 991 1091 1092 992 1109 1220
8 1093 993 881 974 1221 1110 992 1092
8 1222 1108 990 1095 1093 993 882 976
8 1223 1101 982 1094 1096 989 877 977
8 1098 983 870 979 1223 1101 982 1094
8 1095 990 1107 1224 978 878 989 1096
8 1098 983 1100 1225 979 870 981 1097
8 984 884 994 1099 1103 995 1111 1227
8 1102 1001 1115 1228 983 891 999 1100
8 1101 1000 892 989 1229 1116 1002 1107
8 1102 1001 891 983 1229 1116 1000 1101
8 985 885 995 1103 1104 996 1112 1230
8 988 886 996 1104 1106 997 1113 1231
8 1105 998 888 987 1232 1114 997 1106
8 991 896 998 1105 1109 1005 1114 1232
8 1108 1003 1117 1233 990 893 1002 1107
8 1108 1003 894 993 1233 1117 1004 1110
8 992 895 1005 1109 1110 1004 1118 1234
8 1120 1013 1127 1244 1007 907 1015 1121
8 1148 1031 1127 1244 1030 920 1013 1120
8 1121 1015 1129 1245 1011 908 1016 1125
8 1126 1019 1075 1196 1246 1128 1014 1122
8 1246 1128 1014 1122 1123 1017 909 1009
8 1124 1018 1131 1247 1010 910 1017 1123
8 1125 1016 1130 1248 1012 911 1018 1124
8 1127 1020 1137 1254 1015 914 1022 1129
8 1031 921 1032 1149 1127 1020 1137 1254
8 1134 1027 918 1019 1257 1140 1021 1128
8 1257 1140 1021 1128 1131 1024 916 1017
8 1129 1022 1141 1258 1016 915 1023 1130
8 1130 1023 1142 1259 1018 917 1024 1131
8 1261 1144 1025 1132 1133 1026 1079 1199
8 1255 1138 1025 1132 1135 1028 1144 1261
8 1133 1026 918 1019 1262 1145 1027 1134
8 1136 1029 1139 1256 1263 1146 1028 1135
8 1037 928 1041 1155 1148 1031 1149 1275
8 1041 931 1044 1160 1149 1032 1150 1276
8 1151 1039 939 1057 1278 1156 1055 1180
8 1152 1040 926 1033 1279 1159 1039 1151
8 1153 1038 927 1034 1280 1158 1040 1152
8 1281 1157 1042 1154 1153 1038 929 1035
8 1036 930 1042 1154 1155 1041 1160 1282
8 1283 1164 1046 1159 1156 1047 935 1039
8 1165 1048 1164 1283 1053 937 1047 1156
8 1157 1043 933 1038 1284 1161 1045 1158
8 1157 1043 1161 1284 1042 932 1044 1160
8 1040 934 1046 1159 1158 1045 1163 1285
8 1166 1049 1167 1292 1051 936 1048 1165
8 1166 1049 936 1051 1293 1168 1050 1172
8 1051 936 1052 1175 1172 1050 1173 1306
8 1174 1051 1165 1290 1308 1175 1053 1177
8 1053 937 1054 1178 1175 1052 1176 1309
8 1278 1156 1055 1180 1177 1053 1178 1311
8 1055 938 1056 1181 1178 1054 1179 1312
8 1057 939 1058 1183 1180 1055 1181 1314
8 1058 940 1059 1184 1181 1056 1182 1315
8 1060 942 1061 1185 1183 1058 1184 1316
8 1208 1081 1187 1321 1082 964 1063 1188
8 1209 1082 1188 1322 1097 981 1064 1190
8 1188 1063 1189 1323 1064 947 1065 1191
8 1190 1064 1191 1325 1066 948 1067 1193
8 1191 1065 1192 1326 1067 949 1068 1194
8 1067 1193 1069 950 1194 1327 1195 1070
8 1250 1133 1199 1330 1126 1019 1075 1196
8 1198 1077 1014 1122 1331 1200 1075 1196
8 1074 960 1077 1198 1197 1076 1201 1332
8 1085 980 1076 1197 1215 1099 1201 1332
8 1199 1079 1203 1333 1075 962 1080 1200
8 1132 1025 1119 1243 1199 1079 1203 1333
8 1201 1078 963 1077 1334 1202 1080 1200
8 1099 994 1078 1201 1227 1111 1202 1334
8 1343 1207 1081 1208 1210 1083 964 1082
8 1214 1084 1186 1319 1343 1207 1081 1208
8 1345 1210 1082 1209 1225 1100 981 1097
8 1346 1211 1083 1210 1228 1115 999 1100
8 1086 984 1099 1215 1216 1103 1227 1352
8 1087 985 1103 1216 1217 1104 1230 1353
8 1090 988 1104 1217 1219 1106 1231 1354
8 1218 1105 987 1089 1355 1232 1106 1219
8 1091 991 1105 1218 1220 1109 1232 1355
8 1092 992 1109 1220 1221 1110 1234 1356
8 1222 1108 1233 1357 1095 990 1107 1224
8 1222 1108 993 1093 1357 1233 1110 1221
8 1223 1101 989 1096 1358 1229 1107 1224
8 1226 1102 983 1098 1358 1229 1101 1223
8 1226 1102 1228 1359 1098 983 1100 1225
8 1103 995 1111 1227 1230 1112 1235 1360
8 1107 1002 1117 1233 1229 1116 1240 1362
8 1102 1001 1116 1229 1228 1115 1240 1362
8 1104 996 1112 1230 1231 1113 1236 1363
8 1364 1237 1114 1232 1231 1113 997 1106
8 1109 1005 1114 1232 1234 1118 1238 1365
8 1110 1004 1118 1234 1233 1117 1241 1366
8 1242 1374 1255 1138 1119 1243 1132 1025
8 1244 1127 1254 1376 1121 1015 1129 1245
8 1148 1031 1149 1275 1244 1127 1254 1376
8 1245 1129 1258 1377 1125 1016 1130 1248
8 1251 1134 1019 1126 1378 1257 1128 1246
8 1378 1257 1128 1246 1247 1131 1017 1123
8 1248 1130 1259 1379 1124 1018 1131 1247
8 1261 1381 1250 1133 1132 1249 1330 1199
8 1255 1380 1252 1135 1132 1249 1381 1261
8 1250 1133 1019 1126 1382 1262 1134 1251
8 1253 1136 1256 1385 1384 1263 1135 1252
8 1254 1137 1265 1387 1129 1022 1141 1258
8 1149 1032 1150 1276 1254 1137 1265 1387
8 1028 1135 1255 1138 1139 1256 1388 1266
8 1136 1029 1147 1264 1256 1139 1267 1389
8 1390 1268 1140 1257 1259 1142 1024 1131
8 1260 1143 1027 1134 1390 1268 1140 1257
8 1258 1141 1269 1391 1130 1023 1142 1259
8 1262 1145 1027 1134 1393 1271 1143 1260
8 1261 1144 1026 1133 1394 1272 1145 1262
8 1135 1028 1144 1261 1263 1146 1272 1394
8 1136 1029 1146 1263 1264 1147 1273 1395
8 1155 1041 1160 1282 1275 1149 1276 1405
8 1276 1150 1044 1160 1406 1277 1162 1286
8 1408 1283 1159 1279 1278 1156 1039 1151
8 1290 1165 1283 1408 1177 1053 1156 1278
8 1152 1040 1159 1279 1280 1158 1285 1409
8 1281 1157 1038 1153 1410 1284 1158 1280
8 1281 1157 1284 1410 1154 1042 1160 1282
8 1159 1046 1164 1283 1285 1163 1289 1412
8 1292 1167 1289 1412 1165 1048 1164 1283
8 1158 1045 1163 1285 1284 1161 1288 1413
8 1284 1161 1288 1413 1160 1044 1162 1286
8 1291 1166 1292 1418 1174 1051 1165 1290
8 1291 1166 1051 1174 1419 1293 1172 1305
8 1294 1169 1296 1421 1166 1049 1167 1292
8 1293 1168 1050 1172 1422 1295 1171 1303
8 1294 1169 1049 1166 1423 1297 1168 1293
8 1422 1295 1171 1303 1301 1170 1302 1435
8 1172 1050 1173 1306 1303 1171 1304 1438
8 1174 1051 1175 1308 1305 1172 1306 1440
8 1175 1052 1176 1309 1306 1173 1307 1441
8 1177 1053 1178 1311 1308 1175 1309 1443
8 1178 1054 1179 1312 1309 1176 1310 1444
8 1180 1055 1181 1314 1311 1178 1312 1446
8 1056 1181 1312 1179 1182 1315 1447 1313
8 1183 1058 1184 1316 1314 1181 1315 1448
8 1319 1186 1084 1214 1451 1317 1213 1350
8 1319 1186 1318 1453 1208 1081 1187 1321
8 1321 1187 1320 1456 1188 1063 1189 1323
8 1344 1208 1321 1457 1209 1082 1188 1322
8 1322 1188 1323 1458 1190 1064 1191 1325
8 1323 1189 1324 1459 1191 1065 1192 1326
8 1191 1325 1193 1067 1326 1460 1327 1194
8 1242 1374 1243 1119 1328 1462 1335 1204
8 1330 1199 1333 1465 1196 1075 1200 1331
8 1132 1249 1330 1199 1243 1375 1465 1333
8 1332 1201 1077 1198 1466 1334 1200 1331
8 1215 1099 1201 1332 1352 1227 1334 1466
8 1119 1243 1333 1203 1204 1335 1470 1338
8 1333 1203 1338 1470 1200 1080 1202 1334
8 1227 1111 1202 1334 1360 1235 1338 1470
8 1328 1462 1335 1204 1205 1336 1471 1339
8 1337 1206 1340 1472 1464 1329 1205 1336
8 1346 1211 1342 1479 1210 1083 1207 1343
8 1346 1211 1115 1228 1479 1342 1239 1361
8 1348 1212 1084 1214 1479 1342 1207 1343
8 1480 1343 1208 1344 1345 1210 1082 1209
8 1351 1214 1319 1454 1480 1343 1208 1344
8 1481 1346 1210 1345 1359 1228 1100 1225
8 1348 1212 1347 1483 1214 1084 1213 1350
8 1216 1103 1227 1352 1353 1230 1360 1488
8 1217 1104 1230 1353 1354 1231 1363 1489
8 1490 1364 1232 1355 1354 1231 1106 1219
8 1220 1109 1232 1355 1356 1234 1365 1491
8 1221 1110 1234 1356 1357 1233 1366 1492
8 1224 1107 1233 1357 1358 1229 1362 1493
8 1226 1102 1229 1358 1359 1228 1362 1493
8 1230 1112 1235 1360 1363 1236 1367 1496
8 1361 1239 1115 1228 1497 1371 1240 1362
8 1366 1241 1372 1498 1233 1117 1240 1362
8 1364 1237 1113 1231 1499 1368 1236 1363
8 1364 1237 1368 1499 1232 1114 1238 1365
8 1234 1118 1238 1365 1366 1241 1369 1500
8 1507 1373 1242 1374 1388 1266 1138 1255
8 1508 1374 1243 1375 1380 1255 1132 1249
8 1376 1254 1387 1509 1245 1129 1258 1377
8 1275 1149 1276 1405 1376 1254 1387 1509
8 1377 1258 1391 1510 1248 1130 1259 1379
8 1511 1390 1257 1378 1379 1259 1131 1247
8 1383 1260 1134 1251 1511 1390 1257 1378
8 1252 1135 1256 1385 1380 1255 1388 1512
8 1261 1381 1513 1394 1133 1250 1382 1262
8 1135 1252 1384 1263 1261 1381 1513 1394
8 1382 1262 1134 1251 1514 1393 1260 1383
8 1253 1136 1263 1384 1386 1264 1395 1516
8 1253 1136 1264 1386 1385 1256 1389 1517
8 1387 1265 1397 1519 1258 1141 1269 1391
8 1276 1150 1277 1406 1387 1265 1397 1519
8 1256 1139 1267 1389 1388 1266 1398 1520
8 1264 1147 1274 1396 1389 1267 1399 1521
8 1392 1270 1143 1260 1522 1400 1268 1390
8 1390 1268 1142 1259 1522 1400 1269 1391
8 1392 1270 1401 1523 1260 1143 1271 1393
8 1272 1394 1524 1402 1145 1262 1393 1271
8 1395 1273 1146 1263 1524 1402 1272 1394
8 1273 1395 1264 1147 1403 1526 1396 1274
8 1405 1276 1160 1282 1534 1406 1286 1411
8 1414 1287 1407 1535 1286 1162 1277 1406
8 1279 1159 1283 1408 1409 1285 1412 1537
8 1418 1292 1412 1537 1290 1165 1283 1408
8 1280 1158 1285 1409 1410 1284 1413 1538
8 1410 1284 1413 1538 1282 1160 1286 1411
8 1285 1163 1289 1412 1413 1288 1417 1540
8 1421 1296 1417 1540 1292 1167 1289 1412
8 1414 1287 1162 1286 1541 1416 1288 1413
8 1420 1294 1421 1545 1291 1166 1292 1418
8 1419 1293 1172 1305 1546 1422 1303 1437
8 1420 1294 1166 1291 1547 1423 1293 1419
8 1294 1169 1297 1423 1421 1296 1425 1548
8 1423 1297 1168 1293 1549 1424 1295 1422
8 1301 1170 1298 1427 1422 1295 1424 1549
8 1432 1300 1428 1554 1301 1170 1298 1427
8 1431 1299 1428 1554 1560 1430 1300 1432
8 1563 1433 1300 1432 1435 1302 1170 1301
8 1546 1422 1303 1437 1434 1301 1435 1565
8 1303 1171 1304 1438 1435 1302 1436 1566
8 1305 1172 1306 1440 1437 1303 1438 1568
8 1306 1173 1307 1441 1438 1304 1439 1569
8 1308 1175 1309 1443 1440 1306 1441 1571
8 1309 1176 1310 1444 1441 1307 1442 1572
8 1311 1178 1312 1446 1443 1309 1444 1574
8 1179 1312 1444 1310 1313 1447 1575 1445
8 1314 1181 1315 1448 1446 1312 1447 1576
8 1350 1213 1349 1486 1451 1317 1449 1579
8 1451 1317 1450 1581 1319 1186 1318 1453
8 1454 1319 1214 1351 1582 1451 1350 1487
8 1453 1318 1452 1584 1321 1187 1320 1456
8 1454 1319 1453 1585 1344 1208 1321 1457
8 1456 1320 1455 1586 1323 1189 1324 1459
8 1457 1321 1456 1587 1322 1188 1323 1458
8 1458 1323 1459 1588 1325 1191 1326 1460
8 1205 1336 1464 1329 1328 1462 1590 1461
8 1507 1373 1461 1590 1374 1242 1328 1462
8 1508 1374 1462 1591 1375 1243 1335 1467
8 1337 1206 1329 1464 1473 1341 1463 1594
8 1375 1243 1335 1467 1465 1333 1470 1596
8 1465 1333 1470 1596 1331 1200 1334 1466
8 1352 1227 1334 1466 1488 1360 1470 1596
8 1591 1462 1336 1468 1467 1335 1471 1597
8 1469 1337 1472 1598 1595 1464 1336 1468
8 1471 1339 1474 1600 1335 1204 1338 1470
8 1600 1474 1367 1496 1470 1338 1235 1360
8 1336 1205 1340 1472 1471 1339 1475 1601
8 1337 1206 1341 1473 1472 1340 1476 1602
8 1495 1370 1478 1609 1361 1239 1342 1479
8 1348 1212 1342 1479 1483 1347 1478 1609
8 1481 1346 1479 1610 1345 1210 1343 1480
8 1481 1346 1228 1359 1610 1479 1361 1494
8 1484 1348 1214 1351 1610 1479 1343 1480
8 1483 1347 1482 1612 1350 1213 1349 1486
8 1484 1348 1483 1613 1351 1214 1350 1487
8 1353 1230 1360 1488 1489 1363 1496 1616
8 1490 1364 1231 1354 1617 1499 1363 1489
8 1490 1364 1499 1617 1355 1232 1365 1491
8 1356 1234 1365 1491 1492 1366 1500 1619
8 1492 1366 1498 1620 1357 1233 1362 1493
8 1494 1361 1228 1359 1621 1497 1362 1493
8 1495 1370 1239 1361 1622 1504 1371 1497
8 1363 1236 1367 1496 1499 1368 1501 1623
8 1497 1371 1240 1362 1624 1505 1372 1498
8 1625 1503 1372 1498 1500 1369 1241 1366
8 1365 1238 1368 1499 1500 1369 1502 1626
8 1520 1398 1506 1633 1388 1266 1373 1507
8 1634 1507 1374 1508 1512 1388 1255 1380
8 1509 1387 1519 1635 1377 1258 1391 1510
8 1405 1276 1406 1534 1509 1387 1519 1635
8 1515 1392 1260 1383 1636 1522 1390 1511
8 1511 1390 1259 1379 1636 1522 1391 1510
8 1385 1256 1389 1517 1512 1388 1520 1637
8 1513 1394 1262 1382 1638 1524 1393 1514
8 1395 1516 1638 1524 1263 1384 1513 1394
8 1515 1392 1523 1639 1383 1260 1393 1514
8 1516 1395 1526 1640 1386 1264 1396 1518
8 1386 1264 1396 1518 1517 1389 1521 1641
8 1519 1397 1527 1643 1391 1269 1400 1522
8 1535 1407 1527 1643 1406 1277 1397 1519
8 1389 1267 1399 1521 1520 1398 1528 1644
8 1645 1529 1399 1521 1525 1404 1274 1396
8 1392 1270 1400 1522 1523 1401 1531 1646
8 1524 1402 1271 1393 1648 1532 1401 1523
8 1403 1526 1648 1532 1273 1395 1524 1402
8 1525 1404 1274 1396 1649 1533 1403 1526
8 1539 1414 1535 1657 1411 1286 1406 1534
8 1542 1415 1536 1658 1414 1287 1407 1535
8 1409 1285 1412 1537 1538 1413 1540 1660
8 1545 1421 1540 1660 1418 1292 1412 1537
8 1539 1414 1286 1411 1661 1541 1413 1538
8 1540 1417 1544 1663 1413 1288 1416 1541
8 1421 1296 1425 1548 1540 1417 1544 1663
8 1542 1415 1287 1414 1664 1543 1416 1541
8 1420 1294 1423 1547 1545 1421 1548 1666
8 1547 1423 1293 1419 1667 1549 1422 1546
8 1434 1301 1427 1553 1546 1422 1549 1667
8 1423 1297 1424 1549 1548 1425 1550 1668
8 1551 1426 1550 1668 1427 1298 1424 1549
8 1551 1426 1298 1427 1671 1552 1428 1554
8 1562 1432 1554 1674 1434 1301 1427 1553
8 1431 1299 1429 1558 1554 1428 1555 1675
8 1431 1299 1430 1560 1558 1429 1557 1680
8 1560 1430 1300 1432 1683 1559 1433 1563
8 1561 1431 1554 1674 1684 1560 1432 1562
8 1685 1563 1432 1562 1565 1435 1301 1434
8 1435 1302 1436 1566 1563 1433 1564 1686
8 1437 1303 1438 1568 1565 1435 1566 1688
8 1438 1304 1439 1569 1566 1436 1567 1689
8 1440 1306 1441 1571 1568 1438 1569 1691
8 1441 1307 1442 1572 1569 1439 1570 1692
8 1443 1309 1444 1574 1571 1441 1572 1694
8 1310 1444 1572 1442 1445 1575 1695 1573
8 1446 1312 1447 1576 1574 1444 1575 1696
8 1486 1349 1485 1614 1579 1449 1577 1699
8 1451 1317 1449 1579 1581 1450 1578 1701
8 1487 1350 1486 1615 1582 1451 1579 1702
8 1581 1450 1580 1704 1453 1318 1452 1584
8 1582 1451 1581 1705 1454 1319 1453 1585
8 1584 1452 1583 1706 1456 1320 1455 1586
8 1585 1453 1584 1707 1457 1321 1456 1587
8 1587 1456 1586 1708 1458 1323 1459 1588
8 1633 1506 1589 1710 1507 1373 1461 1590
8 1464 1329 1461 1590 1594 1463 1589 1710
8 1468 1336 1462 1591 1595 1464 1590 1711
8 1634 1507 1590 1711 1508 1374 1462 1591
8 1473 1341 1463 1594 1603 1477 1593 1716
8 1469 1337 1464 1595 1599 1473 1594 1717
8 1471 1597 1467 1335 1600 1718 1596 1470
8 1718 1600 1496 1616 1596 1470 1360 1488
8 1336 1468 1597 1471 1472 1598 1719 1601
8 1469 1337 1473 1599 1598 1472 1602 1720
8 1722 1604 1501 1623 1600 1474 1367 1496
8 1475 1601 1471 1339 1604 1722 1600 1474
8 1602 1476 1605 1723 1472 1340 1475 1601
8 1476 1602 1724 1606 1341 1473 1603 1477
8 1483 1347 1478 1609 1612 1482 1608 1731
8 1495 1370 1504 1622 1609 1478 1608 1731
8 1618 1495 1609 1732 1494 1361 1479 1610
8 1484 1348 1479 1610 1613 1483 1609 1732
8 1486 1349 1482 1612 1614 1485 1611 1733
8 1613 1483 1612 1734 1487 1350 1486 1615
8 1489 1363 1496 1616 1617 1499 1623 1736
8 1491 1365 1499 1617 1619 1500 1626 1737
8 1618 1495 1361 1494 1738 1622 1497 1621
8 1739 1625 1498 1620 1619 1500 1366 1492
8 1621 1497 1362 1493 1740 1624 1498 1620
8 1742 1631 1504 1622 1624 1505 1371 1497
8 1743 1628 1502 1626 1623 1501 1368 1499
8 1744 1630 1505 1624 1625 1503 1372 1498
8 1745 1629 1503 1625 1626 1502 1369 1500
8 1520 1398 1528 1644 1633 1506 1632 1751
8 1637 1520 1633 1752 1512 1388 1507 1634
8 1635 1519 1643 1753 1510 1391 1522 1636
8 1657 1535 1643 1753 1534 1406 1519 1635
8 1515 1392 1522 1636 1639 1523 1646 1754
8 1517 1389 1521 1641 1637 1520 1644 1755
8 1524 1638 1756 1648 1393 1514 1639 1523
8 1640 1526 1395 1516 1756 1648 1524 1638
8 1642 1525 1396 1518 1757 1649 1526 1640
8 1758 1645 1521 1641 1642 1525 1396 1518
8 1646 1531 1400 1522 1760 1650 1527 1643
8 1535 1407 1536 1658 1643 1527 1650 1760
8 1521 1399 1529 1645 1644 1528 1651 1761
8 1647 1530 1652 1762 1525 1404 1529 1645
8 1401 1523 1648 1532 1531 1646 1763 1655
8 1525 1404 1533 1649 1647 1530 1654 1765
8 1533 1649 1766 1656 1403 1526 1648 1532
8 1662 1542 1658 1774 1539 1414 1535 1657
8 1542 1415 1543 1664 1658 1536 1659 1775
8 1660 1540 1663 1777 1538 1413 1541 1661
8 1545 1421 1548 1666 1660 1540 1663 1777
8 1662 1542 1414 1539 1778 1664 1541 1661
8 1664 1543 1416 1541 1779 1665 1544 1663
8 1548 1425 1550 1668 1663 1544 1665 1779
8 1547 1423 1549 1667 1666 1548 1668 1781
8 1670 1551 1668 1781 1553 1427 1549 1667
8 1551 1426 1552 1671 1668 1550 1669 1782
8 1670 1551 1427 1553 1784 1671 1554 1674
8 1675 1555 1672 1785 1554 1428 1552 1671
8 1678 1556 1673 1789 1558 1429 1555 1675
8 1561 1431 1558 1681 1674 1554 1675 1790
8 1794 1677 1556 1678 1680 1557 1429 1558
8 1560 1430 1559 1683 1680 1557 1679 1797
8 1561 1431 1560 1684 1681 1558 1680 1798
8 1563 1433 1564 1686 1683 1559 1682 1800
8 1684 1560 1432 1562 1801 1683 1563 1685
8 1565 1435 1566 1688 1685 1563 1686 1802
8 1566 1436 1567 1689 1686 1564 1687 1803
8 1568 1438 1569 1691 1688 1566 1689 1805
8 1569 1439 1570 1692 1689 1567 1690 1806
8 1571 1441 1572 1694 1691 1569 1692 1808
8 1442 1572 1692 1570 1573 1695 1809 1693
8 1574 1444 1575 1696 1694 1572 1695 1810
8 1614 1485 1592 1712 1699 1577 1697 1813
8 1579 1449 1577 1699 1701 1578 1698 1815
8 1615 1486 1614 1735 1702 1579 1699 1816
8 1701 1578 1700 1818 1581 1450 1580 1704
8 1582 1451 1579 1702 1705 1581 1701 1819
8 1704 1580 1703 1820 1584 1452 1583 1706
8 1705 1581 1704 1821 1585 1453 1584 1707
8 1707 1584 1706 1822 1587 1456 1586 1708
8 1710 1589 1506 1633 1824 1709 1632 1751
8 1594 1463 1589 1710 1716 1593 1709 1824
8 1752 1633 1710 1825 1634 1507 1590 1711
8 1595 1464 1590 1711 1717 1594 1710 1825
8 1830 1714 1592 1712 1733 1611 1485 1614
8 1603 1477 1593 1716 1725 1607 1715 1834
8 1599 1473 1594 1717 1721 1603 1716 1835
8 1837 1722 1623 1736 1718 1600 1496 1616
8 1719 1601 1722 1837 1597 1471 1600 1718
8 1602 1720 1598 1472 1723 1838 1719 1601
8 1720 1602 1473 1599 1839 1724 1603 1721
8 1723 1605 1726 1840 1601 1475 1604 1722
8 1840 1726 1628 1743 1722 1604 1501 1623
8 1724 1606 1727 1841 1602 1476 1605 1723
8 1725 1607 1728 1842 1603 1477 1606 1724
8 1612 1482 1608 1731 1733 1611 1730 1849
8 1741 1627 1730 1849 1622 1504 1608 1731
8 1613 1483 1609 1732 1734 1612 1731 1850
8 1618 1495 1622 1738 1732 1609 1731 1850
8 1615 1486 1612 1734 1735 1614 1733 1851
8 1852 1743 1626 1737 1736 1623 1499 1617
8 1853 1745 1625 1739 1737 1626 1500 1619
8 1855 1742 1622 1738 1740 1624 1497 1621
8 1856 1744 1624 1740 1739 1625 1498 1620
8 1741 1627 1504 1622 1857 1746 1631 1742
8 1742 1631 1505 1624 1858 1749 1630 1744
8 1859 1747 1629 1745 1743 1628 1502 1626
8 1860 1748 1630 1744 1745 1629 1503 1625
8 1644 1528 1651 1761 1751 1632 1750 1865
8 1637 1520 1644 1755 1752 1633 1751 1866
8 1754 1646 1522 1636 1867 1760 1643 1753
8 1657 1535 1658 1774 1753 1643 1760 1867
8 1639 1523 1646 1754 1756 1648 1763 1868
8 1641 1521 1645 1758 1755 1644 1761 1869
8 1757 1649 1526 1640 1870 1766 1648 1756
8 1642 1525 1649 1757 1759 1647 1765 1871
8 1759 1647 1762 1872 1642 1525 1645 1758
8 1760 1650 1767 1874 1646 1531 1655 1763
8 1658 1536 1659 1775 1760 1650 1767 1874
8 1762 1652 1768 1875 1645 1529 1651 1761
8 1764 1653 1769 1876 1647 1530 1652 1762
8 1656 1766 1877 1773 1532 1648 1763 1655
8 1771 1879 1765 1654 1653 1764 1647 1530
8 1533 1649 1765 1654 1656 1766 1880 1772
8 1662 1542 1664 1778 1774 1658 1775 1887
8 1664 1543 1665 1779 1775 1659 1776 1888
8 1778 1664 1541 1661 1890 1779 1663 1777
8 1666 1548 1668 1781 1777 1663 1779 1890
8 1782 1669 1780 1891 1668 1550 1665 1779
8 1670 1551 1671 1784 1781 1668 1782 1893
8 1671 1552 1672 1785 1782 1669 1783 1894
8 1790 1675 1785 1896 1674 1554 1671 1784
8 1675 1555 1673 1789 1785 1672 1786 1897
8 1792 1676 1788 1903 1678 1556 1673 1789
8 1795 1678 1789 1904 1681 1558 1675 1790
8 1792 1676 1556 1678 1906 1791 1677 1794
8 1680 1557 1679 1797 1794 1677 1793 1909
8 1910 1794 1678 1795 1798 1680 1558 1681
8 1683 1559 1682 1800 1797 1679 1796 1912
8 1684 1560 1683 1801 1798 1680 1797 1913
8 1686 1564 1687 1803 1800 1682 1799 1915
8 1685 1563 1686 1802 1801 1683 1800 1916
8 1688 1566 1689 1805 1802 1686 1803 1917
8 1689 1567 1690 1806 1803 1687 1804 1918
8 1691 1569 1692 1808 1805 1689 1806 1920
8 1692 1570 1693 1809 1806 1690 1807 1921
8 1694 1572 1695 1810 1808 1692 1809 1922
8 1829 1713 1811 1926 1712 1592 1697 1813
8 1813 1697 1812 1928 1699 1577 1698 1815
8 1735 1614 1712 1828 1816 1699 1813 1929
8 1815 1698 1814 1931 1701 1578 1700 1818
8 1702 1579 1699 1816 1819 1701 1815 1932
8 1818 1700 1817 1933 1704 1580 1703 1820
8 1819 1701 1818 1934 1705 1581 1704 1821
8 1821 1704 1820 1935 1707 1584 1706 1822
8 1824 1709 1632 1751 1937 1823 1750 1865
8 1716 1593 1709 1824 1834 1715 1823 1937
8 1825 1710 1633 1752 1938 1824 1751 1866
8 1717 1594 1710 1825 1835 1716 1824 1938
8 1945 1830 1712 1828 1851 1733 1614 1735
8 1830 1714 1831 1946 1712 1592 1713 1829
8 1947 1832 1714 1830 1849 1730 1611 1733
8 1843 1729 1607 1725 1950 1833 1715 1834
8 1721 1603 1716 1835 1836 1725 1834 1951
8 1836 1725 1842 1953 1721 1603 1724 1839
8 1723 1838 1719 1601 1840 1954 1837 1722
8 1954 1840 1743 1852 1837 1722 1623 1736
8 1724 1839 1720 1602 1841 1955 1838 1723
8 1841 1727 1844 1956 1723 1605 1726 1840
8 1956 1844 1747 1859 1840 1726 1628 1743
8 1728 1842 1724 1606 1845 1957 1841 1727
8 1725 1607 1729 1843 1842 1728 1846 1958
8 1741 1627 1746 1857 1849 1730 1848 1965
8 1734 1612 1731 1850 1851 1733 1849 1966
8 1854 1741 1849 1966 1738 1622 1731 1850
8 1967 1859 1745 1853 1852 1743 1626 1737
8 1968 1860 1744 1856 1853 1745 1625 1739
8 1854 1741 1622 1738 1969 1857 1742 1855
8 1855 1742 1624 1740 1970 1858 1744 1856
8 1857 1746 1631 1742 1971 1861 1749 1858
8 1858 1749 1630 1744 1972 1863 1748 1860
8 1859 1747 1862 1973 1745 1629 1748 1860
8 1875 1768 1864 1977 1761 1651 1750 1865
8 1755 1644 1761 1869 1866 1751 1865 1978
8 1867 1760 1874 1979 1754 1646 1763 1868
8 1774 1658 1775 1887 1867 1760 1874 1979
8 1870 1766 1648 1756 1980 1877 1763 1868
8 1872 1762 1875 1981 1758 1645 1761 1869
8 1757 1649 1766 1870 1871 1765 1880 1982
8 1983 1879 1764 1873 1871 1765 1647 1759
8 1873 1764 1876 1984 1759 1647 1762 1872
8 1877 1773 1655 1763 1986 1881 1767 1874
8 1775 1659 1776 1888 1874 1767 1881 1986
8 1876 1769 1882 1987 1762 1652 1768 1875
8 1878 1770 1883 1988 1764 1653 1769 1876
8 1880 1772 1656 1766 1989 1886 1773 1877
8 1878 1770 1653 1764 1990 1884 1771 1879
8 1765 1654 1772 1880 1879 1771 1885 1991
8 1778 1664 1779 1890 1887 1775 1888 1997
8 1998 1889 1776 1888 1891 1780 1665 1779
8 1893 1782 1891 2000 1781 1668 1779 1890
8 1894 1783 1892 2001 1782 1669 1780 1891
8 1784 1671 1785 1896 1893 1782 1894 2003
8 1897 1786 1895 2004 1785 1672 1783 1894
8 1790 1675 1789 1904 1896 1785 1897 2006
8 1901 1787 1898 2007 1789 1673 1786 1897
8 1903 1788 1900 2013 1789 1673 1787 1901
8 1792 1676 1791 1906 1903 1788 1902 2016
8 1907 1792 1903 2017 1795 1678 1789 1904
8 1906 1791 1677 1794 2019 1905 1793 1909
8 1907 1792 1678 1795 2020 1906 1794 1910
8 1797 1679 1796 1912 1909 1793 1908 2022
8 1798 1680 1797 1913 1910 1794 1909 2023
8 1800 1682 1799 1915 1912 1796 1911 2025
8 1801 1683 1800 1916 1913 1797 1912 2026
8 1803 1687 1804 1918 1915 1799 1914 2028
8 1802 1686 1803 1917 1916 1800 1915 2029
8 1805 1689 1806 1920 1917 1803 1918 2030
8 1806 1690 1807 1921 1918 1804 1919 2031
8 1808 1692 1809 1922 1920 1806 1921 2032
8 1939 1826 1924 2037 1829 1713 1811 1926
8 1926 1811 1925 2039 1813 1697 1812 1928
8 1944 1829 1926 2040 1828 1712 1813 1929
8 1928 1812 1927 2042 1815 1698 1814 1931
8 1929 1813 1928 2043 1816 1699 1815 1932
8 1931 1814 1930 2044 1818 1700 1817 1933
8 1932 1815 1931 2045 1819 1701 1818 1934
8 1934 1818 1933 2046 1821 1704 1820 1935
8 2048 1936 1823 1937 1977 1864 1750 1865
8 1950 1833 1715 1834 2048 1936 1823 1937
8 1938 1824 1751 1866 2049 1937 1865 1978
8 1835 1716 1824 1938 1951 1834 1937 2049
8 1939 1826 1713 1829 2053 1942 1831 1946
8 1940 1827 1923 2035 2053 1942 1826 1939
8 1945 1830 1946 2058 1828 1712 1829 1944
8 2059 1947 1830 1945 1966 1849 1733 1851
8 1947 1832 1730 1849 2060 1948 1848 1965
8 1947 1832 1948 2060 1830 1714 1831 1946
8 1959 1847 1729 1843 2063 1949 1833 1950
8 1952 1843 1725 1836 2064 1950 1834 1951
8 1836 1725 1843 1952 1953 1842 1958 2066
8 1953 1842 1957 2067 1839 1724 1841 1955
8 1841 1955 1838 1723 1956 2068 1954 1840
8 2068 1956 1859 1967 1954 1840 1743 1852
8 1956 1844 1960 2069 1859 1747 1862 1973
8 1845 1957 1841 1727 1960 2069 1956 1844
8 1728 1842 1957 1845 1846 1958 2071 1961
8 1962 2072 1959 1847 1846 1958 1843 1729
8 1971 1861 1964 2077 1857 1746 1848 1965
8 1854 1741 1857 1969 1966 1849 1965 2078
8 1967 1859 1973 2079 1853 1745 1860 1968
8 1970 1858 1744 1856 2080 1972 1860 1968
8 1969 1857 1742 1855 2081 1971 1858 1970
8 1971 1861 1749 1858 2082 1974 1863 1972
8 1973 1862 1975 2083 1860 1748 1863 1972
8 1987 1882 1976 2086 1875 1768 1864 1977
8 1981 1875 1977 2087 1869 1761 1865 1978
8 1980 1877 1763 1868 2088 1986 1874 1979
8 1887 1775 1888 1997 1979 1874 1986 2088
8 1880 1982 2089 1989 1766 1870 1980 1877
8 1984 1876 1987 2090 1872 1762 1875 1981
8 1765 1871 1983 1879 1880 1982 2091 1991
8 1985 1878 1764 1873 2092 1990 1879 1983
8 1985 1878 1988 2093 1873 1764 1876 1984
8 2094 1992 1881 1986 1998 1889 1776 1888
8 1986 1881 1992 2094 1877 1773 1886 1989
8 1988 1883 1993 2095 1876 1769 1882 1987
8 1878 1770 1884 1990 1988 1883 1994 2096
8 1991 1885 1772 1880 2097 1996 1886 1989
8 1879 1771 1885 1991 1990 1884 1995 2098
8 2103 1998 1888 1997 2000 1891 1779 1890
8 2104 1999 1889 1998 2001 1892 1780 1891
8 2003 1894 2001 2106 1893 1782 1891 2000
8 2004 1895 2002 2107 1894 1783 1892 2001
8 2006 1897 2004 2109 1896 1785 1894 2003
8 2007 1898 2005 2110 1897 1786 1895 2004
8 2014 1901 2007 2112 1904 1789 1897 2006
8 2011 1899 2008 2113 1901 1787 1898 2007
8 2119 2010 1899 2011 2013 1900 1787 1901
8 2016 1902 2012 2122 1903 1788 1900 2013
8 2017 1903 2013 2123 1904 1789 1901 2014
8 1906 1791 1905 2019 2016 1902 2015 2125
8 1907 1792 1906 2020 2017 1903 2016 2126
8 1909 1793 1908 2022 2019 1905 2018 2128
8 2020 1906 1794 1910 2129 2019 1909 2023
8 1912 1796 1911 2025 2022 1908 2021 2131
8 1913 1797 1912 2026 2023 1909 2022 2132
8 1915 1799 1914 2028 2025 1911 2024 2134
8 1916 1800 1915 2029 2026 1912 2025 2135
8 1918 1804 1919 2031 2028 1914 2027 2136
8 1917 1803 1918 2030 2029 1915 2028 2137
8 1920 1806 1921 2032 2030 1918 2031 2138
8 1940 1827 1941 2054 2035 1923 2033 2140
8 2035 1923 2034 2143 1939 1826 1924 2037
8 2037 1924 2036 2146 1926 1811 1925 2039
8 2051 1939 2037 2147 1944 1829 1926 2040
8 2039 1925 2038 2149 1928 1812 1927 2042
8 2040 1926 2039 2150 1929 1813 1928 2043
8 2042 1927 2041 2151 1931 1814 1930 2044
8 2043 1928 2042 2152 1932 1815 1931 2045
8 2045 1931 2044 2153 1934 1818 1933 2046
8 2155 2047 1936 2048 2086 1976 1864 1977
8 2063 1949 1833 1950 2155 2047 1936 2048
8 2156 2048 1937 2049 2087 1977 1865 1978
8 2064 1950 1834 1951 2156 2048 1937 2049
8 2051 1939 1829 1944 2160 2053 1946 2058
8 2052 1940 2035 2144 2160 2053 1939 2051
8 2053 1942 1831 1946 2163 2057 1948 2060
8 2055 1943 1827 1940 2163 2057 1942 2053
8 2055 1943 2056 2164 1940 1827 1941 2054
8 2059 1947 1849 1966 2167 2060 1965 2078
8 2059 1947 2060 2167 1945 1830 1946 2058
8 2077 1964 2061 2168 1965 1848 1948 2060
8 2070 1963 1847 1959 2170 2062 1949 2063
8 2065 1959 1843 1952 2171 2063 1950 2064
8 2173 2072 1958 2066 2065 1959 1843 1952
8 1953 1842 1958 2066 2067 1957 2071 2174
8 2068 1956 2069 2175 1967 1859 1973 2079
8 2067 1957 2069 2175 1955 1841 1956 2068
8 1845 1957 2069 1960 1961 2071 2176 2073
8 2069 1960 2073 2176 1973 1862 1975 2083
8 2070 1963 2075 2177 1959 1847 1962 2072
8 1846 1958 2071 1961 1962 2072 2178 2074
8 2077 1964 1861 1971 2182 2076 1974 2082
8 2081 1971 2077 2183 1969 1857 1965 2078
8 2079 1973 2083 2184 1968 1860 1972 2080
8 2081 1971 1858 1970 2185 2082 1972 2080
8 2083 1975 2084 2186 1972 1863 1974 2082
8 2086 1976 1882 1987 2189 2085 1993 2095
8 2090 1987 2086 2190 1981 1875 1977 2087
8 2191 2094 1986 2088 2103 1998 1888 1997
8 2088 1986 2094 2191 1980 1877 1989 2089
8 1991 2091 2192 2097 1880 1982 2089 1989
8 2093 1988 2095 2193 1984 1876 1987 2090
8 1879 1983 2092 1990 1991 2091 2194 2098
8 1985 1878 1990 2092 2093 1988 2096 2195
8 2097 1996 1886 1989 2196 2099 1992 2094
8 2196 2099 1992 2094 2104 1999 1889 1998
8 1994 2096 1988 1883 2100 2197 2095 1993
8 2096 1994 1884 1990 2198 2101 1995 2098
8 1995 2098 2199 2102 1885 1991 2097 1996
8 2203 2104 1998 2103 2106 2001 1891 2000
8 2107 2002 2105 2204 2001 1892 1999 2104
8 2109 2004 2107 2206 2003 1894 2001 2106
8 2110 2005 2108 2207 2004 1895 2002 2107
8 2112 2007 2110 2209 2006 1897 2004 2109
8 2113 2008 2111 2210 2007 1898 2005 2110
8 2120 2011 2113 2212 2014 1901 2007 2112
8 2117 2009 2114 2213 2011 1899 2008 2113
8 2219 2116 2009 2117 2119 2010 1899 2011
8 2222 2118 2010 2119 2122 2012 1900 2013
8 2223 2119 2011 2120 2123 2013 1901 2014
8 2016 1902 2015 2125 2122 2012 2121 2225
8 2126 2016 2122 2226 2017 1903 2013 2123
8 2019 1905 2018 2128 2125 2015 2124 2228
8 2020 1906 2019 2129 2126 2016 2125 2229
8 2022 1908 2021 2131 2128 2018 2127 2231
8 2023 1909 2022 2132 2129 2019 2128 2232
8 2025 1911 2024 2134 2131 2021 2130 2234
8 2026 1912 2025 2135 2132 2022 2131 2235
8 1914 2028 2134 2024 2027 2136 2236 2133
8 2029 1915 2028 2137 2135 2025 2134 2237
8 2030 1918 2031 2138 2137 2028 2136 2238
8 2157 2050 2139 2240 2054 1941 2033 2140
8 2052 1940 2054 2161 2144 2035 2140 2242
8 2140 2033 2141 2243 2035 1923 2034 2143
8 2143 2034 2142 2246 2037 1924 2036 2146
8 2144 2035 2143 2247 2051 1939 2037 2147
8 2146 2036 2145 2249 2039 1925 2038 2149
8 2147 2037 2146 2250 2040 1926 2039 2150
8 2149 2038 2148 2251 2042 1927 2041 2151
8 2150 2039 2149 2252 2043 1928 2042 2152
8 2152 2042 2151 2253 2045 1931 2044 2153
8 2255 2154 2047 2155 2189 2085 1976 2086
8 2170 2062 1949 2063 2255 2154 2047 2155
8 2256 2155 2048 2156 2190 2086 1977 2087
8 2171 2063 1950 2064 2256 2155 2048 2156
8 2258 2159 2050 2157 2164 2056 1941 2054
8 2160 2053 1946 2058 2262 2163 2060 2167
8 2162 2055 1940 2052 2262 2163 2053 2160
8 2162 2055 2164 2263 2052 1940 2054 2161
8 2163 2057 1948 2060 2264 2165 2061 2168
8 2055 1943 2057 2163 2164 2056 2165 2264
8 2182 2076 2166 2268 2077 1964 2061 2168
8 2183 2077 2168 2269 2078 1965 2060 2167
8 2070 1963 2062 2170 2177 2075 2169 2271
8 2172 2070 1959 2065 2272 2170 2063 2171
8 2172 2070 2177 2273 2065 1959 2072 2173
8 2066 1958 2072 2173 2174 2071 2178 2274
8 2067 1957 2071 2174 2175 2069 2176 2275
8 2175 2069 2176 2275 2079 1973 2083 2184
8 2071 1961 2074 2178 2176 2073 2179 2276
8 2176 2073 2179 2276 2083 1975 2084 2186
8 2072 1962 2075 2177 2178 2074 2180 2277
8 2182 2076 1974 2082 2280 2181 2084 2186
8 2183 2077 1971 2081 2281 2182 2082 2185
8 2184 2083 2186 2282 2080 1972 2082 2185
8 2189 2085 1993 2095 2285 2188 2100 2197
8 2190 2086 1987 2090 2286 2189 2095 2193
8 2192 2097 1989 2089 2287 2196 2094 2191
8 2287 2196 2094 2191 2203 2104 1998 2103
8 2194 2098 1991 2091 2288 2199 2097 2192
8 2195 2096 2197 2289 2093 1988 2095 2193
8 2096 2195 2290 2198 1990 2092 2194 2098
8 2097 1996 2099 2196 2199 2102 2200 2291
8 2196 2099 1999 2104 2291 2200 2105 2204
8 2100 2197 2292 2201 1994 2096 2198 2101
8 1995 2098 2198 2101 2102 2199 2293 2202
8 2206 2107 2204 2296 2106 2001 2104 2203
8 2207 2108 2205 2297 2107 2002 2105 2204
8 2209 2110 2207 2299 2109 2004 2107 2206
8 2210 2111 2208 2300 2110 2005 2108 2207
8 2212 2113 2210 2302 2112 2007 2110 2209
8 2213 2114 2211 2303 2113 2008 2111 2210
8 2220 2117 2213 2305 2120 2011 2113 2212
8 2216 2115 2214 2306 2117 2009 2114 2213
8 2216 2115 2009 2117 2311 2217 2116 2219
8 2219 2116 2010 2119 2314 2218 2118 2222
8 2315 2219 2117 2220 2223 2119 2011 2120
8 2122 2012 2121 2225 2222 2118 2221 2317
8 2318 2222 2119 2223 2226 2122 2013 2123
8 2125 2015 2124 2228 2225 2121 2224 2320
8 2126 2016 2125 2229 2226 2122 2225 2321
8 2128 2018 2127 2231 2228 2124 2227 2323
8 2129 2019 2128 2232 2229 2125 2228 2324
8 2131 2021 2130 2234 2231 2127 2230 2326
8 2132 2022 2131 2235 2232 2128 2231 2327
8 2134 2024 2133 2236 2234 2130 2233 2328
8 2135 2025 2134 2237 2235 2131 2234 2329
8 2137 2028 2136 2238 2237 2134 2236 2330
8 2157 2050 2158 2259 2240 2139 2239 2332
8 2257 2157 2240 2334 2161 2054 2140 2242
8 2240 2139 2241 2335 2140 2033 2141 2243
8 2242 2140 2243 2337 2144 2035 2143 2247
8 2243 2141 2244 2338 2143 2034 2142 2246
8 2246 2142 2245 2341 2146 2036 2145 2249
8 2247 2143 2246 2342 2147 2037 2146 2250
8 2249 2145 2248 2343 2149 2038 2148 2251
8 2250 2146 2249 2344 2150 2039 2149 2252
8 2252 2149 2251 2345 2152 2042 2151 2253
8 2169 2271 2347 2254 2062 2170 2255 2154
8 2189 2085 2188 2285 2255 2154 2254 2347
8 2348 2255 2155 2256 2286 2189 2086 2190
8 2272 2170 2063 2171 2348 2255 2155 2256
8 2349 2258 2157 2257 2263 2164 2054 2161
8 2258 2159 2261 2351 2157 2050 2158 2259
8 2258 2159 2056 2164 2351 2261 2165 2264
8 2262 2163 2060 2167 2355 2264 2168 2269
8 2162 2055 2163 2262 2263 2164 2264 2355
8 2357 2266 2165 2264 2268 2166 2061 2168
8 2268 2166 2076 2182 2361 2267 2181 2280
8 2281 2182 2268 2362 2183 2077 2168 2269
8 2271 2169 2270 2364 2177 2075 2180 2277
8 2172 2070 2170 2272 2273 2177 2271 2365
8 2072 2173 2274 2178 2177 2273 2366 2277
8 2071 2174 2275 2176 2178 2274 2367 2276
8 2275 2176 2276 2367 2184 2083 2186 2282
8 2283 2187 2084 2186 2368 2278 2179 2276
8 2178 2074 2180 2277 2276 2179 2278 2368
8 2283 2187 2279 2370 2186 2084 2181 2280
8 2281 2182 2082 2185 2371 2280 2186 2282
8 2188 2285 2374 2284 2100 2197 2292 2201
8 2286 2189 2095 2193 2375 2285 2197 2289
8 2192 2097 2196 2287 2288 2199 2291 2376
8 2287 2196 2104 2203 2376 2291 2204 2296
8 2194 2098 2199 2288 2290 2198 2293 2377
8 2289 2197 2096 2195 2378 2292 2198 2290
8 2291 2200 2105 2204 2379 2294 2205 2297
8 2199 2102 2200 2291 2293 2202 2294 2379
8 2198 2101 2202 2293 2292 2201 2295 2380
8 2299 2207 2297 2383 2206 2107 2204 2296
8 2300 2208 2298 2384 2207 2108 2205 2297
8 2302 2210 2300 2386 2209 2110 2207 2299
8 2303 2211 2301 2387 2210 2111 2208 2300
8 2305 2213 2303 2389 2212 2113 2210 2302
8 2306 2214 2304 2390 2213 2114 2211 2303
8 2310 2216 2306 2392 2220 2117 2213 2305
8 2308 2215 2307 2393 2216 2115 2214 2306
8 2308 2215 2115 2216 2396 2309 2217 2311
8 2310 2216 2117 2220 2398 2311 2219 2315
8 2311 2217 2116 2219 2399 2312 2218 2314
8 2314 2218 2118 2222 2402 2313 2221 2317
8 2315 2219 2119 2223 2403 2314 2222 2318
8 2225 2121 2224 2320 2317 2221 2316 2405
8 2226 2122 2225 2321 2318 2222 2317 2406
8 2228 2124 2227 2323 2320 2224 2319 2408
8 2229 2125 2228 2324 2321 2225 2320 2409
8 2231 2127 2230 2326 2323 2227 2322 2411
8 2232 2128 2231 2327 2324 2228 2323 2412
8 2234 2130 2233 2328 2326 2230 2325 2413
8 2235 2131 2234 2329 2327 2231 2326 2414
8 2237 2134 2236 2330 2329 2234 2328 2415
8 2259 2158 2260 2352 2332 2239 2331 2417
8 2257 2157 2259 2350 2334 2240 2332 2419
8 2240 2139 2239 2332 2335 2241 2333 2420
8 2334 2240 2335 2422 2242 2140 2243 2337
8 2335 2241 2336 2423 2243 2141 2244 2338
8 2337 2243 2338 2425 2247 2143 2246 2342
8 2338 2244 2339 2426 2246 2142 2245 2341
8 2341 2245 2340 2428 2249 2145 2248 2343
8 2342 2246 2341 2429 2250 2146 2249 2344
8 2344 2249 2343 2430 2252 2149 2251 2345
8 2188 2285 2347 2254 2284 2374 2432 2346
8 2347 2254 2346 2432 2271 2169 2270 2364
8 2365 2271 2170 2272 2433 2347 2255 2348
8 2286 2189 2285 2375 2348 2255 2347 2433
8 2349 2258 2351 2435 2257 2157 2259 2350
8 2349 2258 2164 2263 2435 2351 2264 2355
8 2259 2158 2261 2351 2352 2260 2354 2437
8 2356 2265 2354 2437 2264 2165 2261 2351
8 2441 2357 2264 2355 2362 2268 2168 2269
8 2356 2265 2165 2264 2442 2358 2266 2357
8 2443 2359 2266 2357 2361 2267 2166 2268
8 2370 2279 2360 2446 2280 2181 2267 2361
8 2362 2268 2182 2281 2447 2361 2280 2371
8 2180 2277 2368 2278 2270 2364 2449 2363
8 2271 2365 2273 2177 2364 2450 2366 2277
8 2372 2283 2186 2282 2451 2368 2276 2367
8 2178 2274 2367 2276 2277 2366 2451 2368
8 2283 2187 2278 2368 2370 2279 2369 2452
8 2372 2283 2370 2453 2282 2186 2280 2371
8 2284 2374 2455 2373 2201 2292 2380 2295
8 2375 2285 2197 2289 2456 2374 2292 2378
8 2376 2291 2204 2296 2457 2379 2297 2383
8 2288 2199 2291 2376 2377 2293 2379 2457
8 2198 2290 2378 2292 2293 2377 2458 2380
8 2293 2202 2294 2379 2380 2295 2381 2459
8 2384 2298 2381 2459 2297 2205 2294 2379
8 2386 2300 2384 2463 2299 2207 2297 2383
8 2387 2301 2385 2464 2300 2208 2298 2384
8 2389 2303 2387 2466 2302 2210 2300 2386
8 2390 2304 2388 2467 2303 2211 2301 2387
8 2392 2306 2390 2469 2305 2213 2303 2389
8 2393 2307 2391 2470 2306 2214 2304 2390
8 2395 2308 2393 2472 2310 2216 2306 2392
8 2308 2215 2309 2396 2393 2307 2394 2473
8 2395 2308 2216 2310 2475 2396 2311 2398
8 2396 2309 2217 2311 2476 2397 2312 2399
8 2398 2311 2219 2315 2478 2399 2314 2403
8 2399 2312 2218 2314 2479 2400 2313 2402
8 2317 2221 2316 2405 2402 2313 2401 2482
8 2403 2314 2222 2318 2483 2402 2317 2406
8 2320 2224 2319 2408 2405 2316 2404 2485
8 2321 2225 2320 2409 2406 2317 2405 2486
8 2323 2227 2322 2411 2408 2319 2407 2488
8 2324 2228 2323 2412 2409 2320 2408 2489
8 2326 2230 2325 2413 2411 2322 2410 2490
8 2327 2231 2326 2414 2412 2323 2411 2491
8 2329 2234 2328 2415 2414 2326 2413 2492
8 2417 2331 2260 2352 2494 2416 2353 2438
8 2350 2259 2352 2436 2419 2332 2417 2496
8 2332 2239 2331 2417 2420 2333 2418 2497
8 2334 2240 2332 2419 2422 2335 2420 2499
8 2420 2333 2421 2500 2335 2241 2336 2423
8 2422 2335 2423 2502 2337 2243 2338 2425
8 2423 2336 2424 2503 2338 2244 2339 2426
8 2425 2338 2426 2505 2342 2246 2341 2429
8 2426 2339 2427 2506 2341 2245 2340 2428
8 2429 2341 2428 2507 2344 2249 2343 2430
8 2432 2346 2284 2374 2509 2431 2373 2455
8 2432 2346 2431 2509 2364 2270 2363 2449
8 2375 2285 2374 2456 2433 2347 2432 2510
8 2347 2433 2365 2271 2432 2510 2450 2364
8 2350 2259 2351 2435 2436 2352 2437 2514
8 2440 2356 2437 2514 2355 2264 2351 2435
8 2352 2260 2354 2437 2438 2353 2439 2516
8 2356 2265 2358 2442 2437 2354 2439 2516
8 2440 2356 2264 2355 2518 2442 2357 2441
8 2519 2443 2357 2441 2447 2361 2268 2362
8 2443 2359 2444 2520 2357 2266 2358 2442
8 2443 2359 2267 2361 2520 2444 2360 2446
8 2446 2360 2279 2370 2523 2445 2369 2452
8 2453 2370 2446 2524 2371 2280 2361 2447
8 2449 2363 2448 2525 2368 2278 2369 2452
8 2366 2277 2364 2450 2451 2368 2449 2526
8 2372 2283 2368 2451 2453 2370 2452 2527
8 2455 2373 2295 2380 2529 2454 2382 2460
8 2456 2374 2292 2378 2530 2455 2380 2458
8 2377 2293 2379 2457 2458 2380 2459 2531
8 2463 2384 2459 2531 2383 2297 2379 2457
8 2533 2461 2382 2460 2459 2381 2295 2380
8 2464 2385 2461 2533 2384 2298 2381 2459
8 2466 2387 2464 2537 2386 2300 2384 2463
8 2467 2388 2465 2538 2387 2301 2385 2464
8 2469 2390 2467 2540 2389 2303 2387 2466
8 2470 2391 2468 2541 2390 2304 2388 2467
8 2472 2393 2470 2543 2392 2306 2390 2469
8 2393 2307 2394 2473 2470 2391 2471 2544
8 2395 2308 2396 2475 2472 2393 2473 2546
8 2396 2309 2397 2476 2473 2394 2474 2547
8 2475 2396 2311 2398 2549 2476 2399 2478
8 2476 2397 2312 2399 2550 2477 2400 2479
8 2478 2399 2314 2403 2552 2479 2402 2483
8 2479 2400 2313 2402 2553 2480 2401 2482
8 2405 2316 2404 2485 2482 2401 2481 2556
8 2406 2317 2405 2486 2483 2402 2482 2557
8 2408 2319 2407 2488 2485 2404 2484 2559
8 2409 2320 2408 2489 2486 2405 2485 2560
8 2411 2322 2410 2490 2488 2407 2487 2561
8 2412 2323 2411 2491 2489 2408 2488 2562
8 2414 2326 2413 2492 2491 2411 2490 2563
8 2513 2434 2493 2565 2438 2353 2416 2494
8 2496 2417 2352 2436 2567 2494 2438 2515
8 2494 2416 2495 2568 2417 2331 2418 2497
8 2419 2332 2417 2496 2499 2420 2497 2570
8 2497 2418 2498 2571 2420 2333 2421 2500
8 2499 2420 2500 2573 2422 2335 2423 2502
8 2500 2421 2501 2574 2423 2336 2424 2503
8 2502 2423 2503 2576 2425 2338 2426 2505
8 2503 2424 2504 2577 2426 2339 2427 2506
8 2505 2426 2506 2578 2429 2341 2428 2507
8 2509 2431 2373 2455 2580 2508 2454 2529
8 2509 2431 2508 2580 2449 2363 2448 2525
8 2432 2510 2581 2509 2374 2456 2530 2455
8 2432 2510 2450 2364 2509 2581 2526 2449
8 2583 2511 2434 2513 2516 2439 2353 2438
8 2436 2352 2437 2514 2515 2438 2516 2588
8 2440 2356 2442 2518 2514 2437 2516 2588
8 2442 2358 2444 2520 2516 2439 2517 2589
8 2519 2443 2520 2591 2441 2357 2442 2518
8 2519 2443 2361 2447 2591 2520 2446 2524
8 2446 2360 2445 2523 2520 2444 2521 2592
8 2525 2448 2522 2593 2452 2369 2445 2523
8 2524 2446 2370 2453 2594 2523 2452 2527
8 2526 2449 2525 2595 2451 2368 2452 2527
8 2534 2462 2528 2597 2460 2382 2454 2529
8 2530 2455 2380 2458 2598 2529 2460 2532
8 2599 2533 2460 2532 2531 2459 2380 2458
8 2537 2464 2533 2599 2463 2384 2459 2531
8 2534 2462 2382 2460 2601 2535 2461 2533
8 2538 2465 2535 2601 2464 2385 2461 2533
8 2540 2467 2538 2604 2466 2387 2464 2537
8 2541 2468 2539 2605 2467 2388 2465 2538
8 2543 2470 2541 2607 2469 2390 2467 2540
8 2470 2391 2471 2544 2541 2468 2542 2608
8 2472 2393 2473 2546 2543 2470 2544 2610
8 2473 2394 2474 2547 2544 2471 2545 2611
8 2475 2396 2476 2549 2546 2473 2547 2613
8 2476 2397 2477 2550 2547 2474 2548 2614
8 2549 2476 2399 2478 2616 2550 2479 2552
8 2479 2400 2480 2553 2550 2477 2551 2617
8 2552 2479 2402 2483 2619 2553 2482 2557
8 2482 2401 2481 2556 2553 2480 2554 2620
8 2485 2404 2484 2559 2556 2481 2555 2623
8 2486 2405 2485 2560 2557 2482 2556 2624
8 2488 2407 2487 2561 2559 2484 2558 2625
8 2489 2408 2488 2562 2560 2485 2559 2626
8 2491 2411 2490 2563 2562 2488 2561 2627
8 2513 2434 2512 2585 2565 2493 2564 2630
8 2586 2513 2565 2632 2515 2438 2494 2567
8 2565 2493 2566 2633 2494 2416 2495 2568
8 2567 2494 2568 2635 2496 2417 2497 2570
8 2568 2495 2569 2636 2497 2418 2498 2571
8 2570 2497 2571 2638 2499 2420 2500 2573
8 2571 2498 2572 2639 2500 2421 2501 2574
8 2573 2500 2574 2641 2502 2423 2503 2576
8 2574 2501 2575 2642 2503 2424 2504 2577
8 2576 2503 2577 2643 2505 2426 2506 2578
8 2597 2528 2579 2645 2529 2454 2508 2580
8 2580 2508 2579 2645 2525 2448 2522 2593
8 2581 2509 2455 2530 2646 2580 2529 2598
8 2581 2509 2580 2646 2526 2449 2525 2595
8 2583 2511 2582 2648 2513 2434 2512 2585
8 2583 2511 2439 2516 2648 2582 2517 2589
8 2649 2583 2513 2586 2588 2516 2438 2515
8 2589 2517 2444 2520 2653 2587 2521 2592
8 2518 2442 2520 2591 2588 2516 2589 2654
8 2593 2522 2590 2655 2523 2445 2521 2592
8 2524 2446 2523 2594 2591 2520 2592 2656
8 2595 2525 2593 2657 2527 2452 2523 2594
8 2602 2536 2596 2659 2534 2462 2528 2597
8 2600 2534 2597 2660 2532 2460 2529 2598
8 2600 2534 2460 2532 2661 2601 2533 2599
8 2604 2538 2601 2661 2537 2464 2533 2599
8 2602 2536 2462 2534 2663 2603 2535 2601
8 2601 2535 2465 2538 2663 2603 2539 2605
8 2607 2541 2605 2665 2540 2467 2538 2604
8 2608 2542 2606 2666 2541 2468 2539 2605
8 2543 2470 2544 2610 2607 2541 2608 2668
8 2544 2471 2545 2611 2608 2542 2609 2669
8 2546 2473 2547 2613 2610 2544 2611 2671
8 2547 2474 2548 2614 2611 2545 2612 2672
8 2549 2476 2550 2616 2613 2547 2614 2674
8 2550 2477 2551 2617 2614 2548 2615 2675
8 2552 2479 2553 2619 2616 2550 2617 2677
8 2553 2480 2554 2620 2617 2551 2618 2678
8 2557 2482 2556 2624 2619 2553 2620 2680
8 2556 2481 2555 2623 2620 2554 2621 2681
8 2559 2484 2558 2625 2623 2555 2622 2683
8 2560 2485 2559 2626 2624 2556 2623 2684
8 2562 2488 2561 2627 2626 2559 2625 2685
8 2690 2629 2564 2630 2650 2584 2512 2585
8 2586 2513 2585 2651 2632 2565 2630 2691
8 2630 2564 2631 2692 2565 2493 2566 2633
8 2632 2565 2633 2694 2567 2494 2568 2635
8 2633 2566 2634 2695 2568 2495 2569 2636
8 2635 2568 2636 2697 2570 2497 2571 2638
8 2636 2569 2637 2698 2571 2498 2572 2639
8 2638 2571 2639 2700 2573 2500 2574 2641
8 2639 2572 2640 2701 2574 2501 2575 2642
8 2641 2574 2642 2702 2576 2503 2577 2643
8 2597 2528 2596 2659 2645 2579 2644 2704
8 2645 2579 2644 2704 2593 2522 2590 2655
8 2660 2597 2645 2705 2598 2529 2580 2646
8 2646 2580 2645 2705 2595 2525 2593 2657
8 2650 2584 2512 2585 2707 2647 2582 2648
8 2648 2582 2517 2589 2707 2647 2587 2653
8 2649 2583 2648 2708 2586 2513 2585 2651
8 2649 2583 2516 2588 2708 2648 2589 2654
8 2655 2590 2652 2710 2592 2521 2587 2653
8 2654 2589 2520 2591 2711 2653 2592 2656
8 2657 2593 2655 2712 2594 2523 2592 2656
8 2602 2536 2603 2663 2659 2596 2658 2714
8 2662 2602 2659 2715 2600 2534 2597 2660
8 2662 2602 2534 2600 2717 2663 2601 2661
8 2661 2601 2538 2604 2717 2663 2605 2665
8 2666 2606 2664 2718 2605 2539 2603 2663
8 2668 2608 2666 2720 2607 2541 2605 2665
8 2608 2542 2609 2669 2666 2606 2667 2721
8 2610 2544 2611 2671 2668 2608 2669 2723
8 2611 2545 2612 2672 2669 2609 2670 2724
8 2613 2547 2614 2674 2671 2611 2672 2726
8 2614 2548 2615 2675 2672 2612 2673 2727
8 2616 2550 2617 2677 2674 2614 2675 2729
8 2617 2551 2618 2678 2675 2615 2676 2730
8 2619 2553 2620 2680 2677 2617 2678 2732
8 2620 2554 2621 2681 2678 2618 2679 2733
8 2624 2556 2623 2684 2680 2620 2681 2735
8 2681 2621 2555 2623 2736 2682 2622 2683
8 2626 2559 2625 2685 2684 2623 2683 2737
8 2688 2628 2584 2650 2740 2686 2647 2707
8 2688 2628 2687 2742 2650 2584 2629 2690
8 2690 2629 2689 2745 2630 2564 2631 2692
8 2746 2690 2630 2691 2709 2650 2585 2651
8 2691 2630 2692 2747 2632 2565 2633 2694
8 2692 2631 2693 2748 2633 2566 2634 2695
8 2694 2633 2695 2750 2635 2568 2636 2697
8 2695 2634 2696 2751 2636 2569 2637 2698
8 2697 2636 2698 2753 2638 2571 2639 2700
8 2698 2637 2699 2754 2639 2572 2640 2701
8 2700 2639 2701 2755 2641 2574 2642 2702
8 2659 2596 2658 2714 2704 2644 2703 2757
8 2704 2644 2703 2757 2655 2590 2652 2710
8 2660 2597 2659 2715 2705 2645 2704 2758
8 2705 2645 2704 2758 2657 2593 2655 2712
8 2759 2706 2647 2707 2710 2652 2587 2653
8 2709 2650 2585 2651 2760 2707 2648 2708
8 2708 2648 2589 2654 2760 2707 2653 2711
8 2712 2655 2710 2761 2656 2592 2653 2711
8 2763 2713 2658 2714 2718 2664 2603 2663
8 2662 2602 2663 2717 2715 2659 2714 2764
8 2720 2666 2718 2767 2665 2605 2663 2717
8 2768 2719 2664 2718 2721 2667 2606 2666
8 2668 2608 2669 2723 2720 2666 2721 2770
8 2669 2609 2670 2724 2721 2667 2722 2771
8 2671 2611 2672 2726 2723 2669 2724 2773
8 2672 2612 2673 2727 2724 2670 2725 2774
8 2674 2614 2675 2729 2726 2672 2727 2776
8 2675 2615 2676 2730 2727 2673 2728 2777
8 2677 2617 2678 2732 2729 2675 2730 2779
8 2678 2618 2679 2733 2730 2676 2731 2780
8 2680 2620 2681 2735 2732 2678 2733 2782
8 2733 2679 2621 2681 2783 2734 2682 2736
8 2735 2681 2623 2684 2784 2736 2683 2737
8 2740 2686 2647 2707 2787 2738 2706 2759
8 2688 2628 2686 2740 2742 2687 2739 2789
8 2743 2688 2650 2709 2790 2740 2707 2760
8 2742 2687 2741 2792 2690 2629 2689 2745
8 2743 2688 2742 2793 2709 2650 2690 2746
8 2745 2689 2744 2795 2692 2631 2693 2748
8 2746 2690 2745 2796 2691 2630 2692 2747
8 2747 2692 2748 2797 2694 2633 2695 2750
8 2748 2693 2749 2798 2695 2634 2696 2751
8 2750 2695 2751 2800 2697 2636 2698 2753
8 2751 2696 2752 2801 2698 2637 2699 2754
8 2753 2698 2754 2802 2700 2639 2701 2755
8 2763 2713 2756 2804 2714 2658 2703 2757
8 2759 2706 2652 2710 2804 2756 2703 2757
8 2715 2659 2714 2764 2758 2704 2757 2805
8 2758 2704 2757 2805 2712 2655 2710 2761
8 2806 2759 2707 2760 2761 2710 2653 2711
8 2765 2716 2762 2808 2718 2664 2713 2763
8 2809 2763 2714 2764 2767 2718 2663 2717
8 2765 2716 2664 2718 2811 2766 2719 2768
8 2813 2768 2718 2767 2770 2721 2666 2720
8 2814 2769 2719 2768 2771 2722 2667 2721
8 2723 2669 2724 2773 2770 2721 2771 2816
8 2724 2670 2725 2774 2771 2722 2772 2817
8 2726 2672 2727 2776 2773 2724 2774 2819
8 2727 2673 2728 2777 2774 2725 2775 2820
8 2729 2675 2730 2779 2776 2727 2777 2822
8 2730 2676 2731 2780 2777 2728 2778 2823
8 2732 2678 2733 2782 2779 2730 2780 2825
8 2780 2731 2679 2733 2826 2781 2734 2783
8 2782 2733 2681 2735 2827 2783 2736 2784
8 2830 2785 2738 2787 2804 2756 2706 2759
8 2789 2739 2686 2740 2832 2786 2738 2787
8 2790 2740 2707 2760 2833 2787 2759 2806
8 2742 2687 2739 2789 2792 2741 2788 2835
8 2743 2688 2740 2790 2793 2742 2789 2836
8 2792 2741 2791 2838 2745 2689 2744 2795
8 2793 2742 2792 2839 2746 2690 2745 2796
8 2795 2744 2794 2841 2748 2693 2749 2798
8 2796 2745 2795 2842 2747 2692 2748 2797
8 2797 2748 2798 2843 2750 2695 2751 2800
8 2798 2749 2799 2844 2751 2696 2752 2801
8 2800 2751 2801 2845 2753 2698 2754 2802
8 2808 2762 2803 2847 2763 2713 2756 2804
8 2809 2763 2804 2848 2764 2714 2757 2805
8 2806 2759 2710 2761 2848 2804 2757 2805
8 2765 2716 2766 2811 2808 2762 2807 2850
8 2810 2765 2808 2851 2767 2718 2763 2809
8 2810 2765 2718 2767 2852 2811 2768 2813
8 2811 2766 2719 2768 2853 2812 2769 2814
8 2855 2814 2768 2813 2816 2771 2721 2770
8 2856 2815 2769 2814 2817 2772 2722 2771
8 2773 2724 2774 2819 2816 2771 2817 2858
8 2774 2725 2775 2820 2817 2772 2818 2859
8 2776 2727 2777 2822 2819 2774 2820 2861
8 2777 2728 2778 2823 2820 2775 2821 2862
8 2779 2730 2780 2825 2822 2777 2823 2864
8 2823 2778 2731 2780 2865 2824 2781 2826
8 2825 2780 2733 2782 2866 2826 2783 2827
8 2869 2828 2785 2830 2847 2803 2756 2804
8 2871 2829 2786 2832 2830 2785 2738 2787
8 2872 2830 2787 2833 2848 2804 2759 2806
8 2789 2739 2786 2832 2835 2788 2831 2874
8 2836 2789 2740 2790 2875 2832 2787 2833
8 2792 2741 2788 2835 2838 2791 2834 2877
8 2793 2742 2789 2836 2839 2792 2835 2878
8 2838 2791 2837 2880 2795 2744 2794 2841
8 2839 2792 2838 2881 2796 2745 2795 2842
8 2841 2794 2840 2882 2798 2749 2799 2844
8 2842 2795 2841 2883 2797 2748 2798 2843
8 2843 2798 2844 2884 2800 2751 2801 2845
8 2886 2846 2803 2847 2850 2807 2762 2808
8 2851 2808 2847 2887 2809 2763 2804 2848
8 2850 2807 2766 2811 2889 2849 2812 2853
8 2810 2765 2811 2852 2851 2808 2850 2890
8 2852 2811 2768 2813 2891 2853 2814 2855
8 2853 2812 2769 2814 2892 2854 2815 2856
8 2894 2856 2814 2855 2858 2817 2771 2816
8 2817 2772 2818 2859 2856 2815 2857 2895
8 2819 2774 2820 2861 2858 2817 2859 2897
8 2820 2775 2821 2862 2859 2818 2860 2898
8 2822 2777 2823 2864 2861 2820 2862 2900
8 2823 2778 2824 2865 2862 2821 2863 2901
8 2864 2823 2780 2825 2902 2865 2826 2866
8 2904 2867 2828 2869 2886 2846 2803 2847
8 2869 2828 2868 2906 2830 2785 2829 2871
8 2907 2869 2830 2872 2887 2847 2804 2848
8 2871 2829 2870 2909 2832 2786 2831 2874
8 2910 2871 2832 2875 2872 2830 2787 2833
8 2835 2788 2831 2874 2877 2834 2873 2912
8 2836 2789 2832 2875 2878 2835 2874 2913
8 2877 2834 2876 2915 2838 2791 2837 2880
8 2839 2792 2835 2878 2881 2838 2877 2916
8 2880 2837 2879 2917 2841 2794 2840 2882
8 2881 2838 2880 2918 2842 2795 2841 2883
8 2883 2841 2882 2919 2843 2798 2844 2884
8 2921 2885 2846 2886 2889 2849 2807 2850
8 2922 2886 2847 2887 2890 2850 2808 2851
8 2889 2849 2812 2853 2924 2888 2854 2892
8 2890 2850 2811 2852 2925 2889 2853 2891
8 2891 2853 2814 2855 2926 2892 2856 2894
8 2892 2854 2815 2856 2927 2893 2857 2895
8 2858 2817 2859 2897 2894 2856 2895 2929
8 2859 2818 2860 2898 2895 2857 2896 2930
8 2861 2820 2862 2900 2897 2859 2898 2932
8 2862 2821 2863 2901 2898 2860 2899 2933
8 2864 2823 2865 2902 2900 2862 2901 2934
8 2904 2867 2846 2886 2936 2903 2885 2921
8 2904 2867 2903 2936 2869 2828 2868 2906
8 2937 2904 2869 2907 2922 2886 2847 2887
8 2906 2868 2905 2939 2871 2829 2870 2909
8 2907 2869 2906 2940 2872 2830 2871 2910
8 2909 2870 2908 2942 2874 2831 2873 2912
8 2910 2871 2909 2943 2875 2832 2874 2913
8 2912 2873 2911 2945 2877 2834 2876 2915
8 2878 2835 2874 2913 2916 2877 2912 2946
8 2915 2876 2914 2947 2880 2837 2879 2917
8 2916 2877 2915 2948 2881 2838 2880 2918
8 2918 2880 2917 2949 2883 2841 2882 2919
8 2921 2885 2849 2889 2951 2920 2888 2924
8 2952 2921 2886 2922 2925 2889 2850 2890
8 2924 2888 2854 2892 2954 2923 2893 2927
8 2925 2889 2853 2891 2955 2924 2892 2926
8 2926 2892 2856 2894 2956 2927 2895 2929
8 2895 2857 2896 2930 2927 2893 2928 2957
8 2897 2859 2898 2932 2929 2895 2930 2959
8 2898 2860 2899 2933 2930 2896 2931 2960
8 2900 2862 2901 2934 2932 2898 2933 2961
8 2936 2903 2885 2921 2963 2935 2920 2951
8 2936 2903 2935 2963 2906 2868 2905 2939
8 2937 2904 2886 2922 2964 2936 2921 2952
8 2937 2904 2936 2964 2907 2869 2906 2940
8 2939 2905 2938 2966 2909 2870 2908 2942
8 2940 2906 2939 2967 2910 2871 2909 2943
8 2942 2908 2941 2969 2912 2873 2911 2945
8 2943 2909 2942 2970 2913 2874 2912 2946
8 2945 2911 2944 2971 2915 2876 2914 2947
8 2946 2912 2945 2972 2916 2877 2915 2948
8 2948 2915 2947 2973 2918 2880 2917 2949
8 2951 2920 2888 2924 2975 2950 2923 2954
8 2952 2921 2889 2925 2976 2951 2924 2955
8 2927 2893 2928 2957 2954 2923 2953 2978
8 2955 2924 2892 2926 2979 2954 2927 2956
8 2929 2895 2930 2959 2956 2927 2957 2980
8 2930 2896 2931 2960 2957 2928 2958 2981
8 2932 2898 2933 2961 2959 2930 2960 2982
8 2951 2920 2950 2975 2963 2935 2962 2984
8 2963 2935 2962 2984 2939 2905 2938 2966
8 2964 2936 2921 2952 2985 2963 2951 2976
8 2964 2936 2963 2985 2940 2906 2939 2967
8 2966 2938 2965 2987 2942 2908 2941 2969
8 2967 2939 2966 2988 2943 2909 2942 2970
8 2969 2941 2968 2989 2945 2911 2944 2971
8 2970 2942 2969 2990 2946 2912 2945 2972
8 2972 2945 2971 2991 2948 2915 2947 2973
8 2954 2923 2953 2978 2975 2950 2974 2993
8 2976 2951 2924 2955 2994 2975 2954 2979
8 2957 2928 2958 2981 2978 2953 2977 2995
8 2956 2927 2957 2980 2979 2954 2978 2996
8 2959 2930 2960 2982 2980 2957 2981 2997
8 2984 2962 2983 2999 2966 2938 2965 2987
8 2975 2950 2974 2993 2984 2962 2983 2999
8 2976 2951 2975 2994 2985 2963 2984 3000
8 2985 2963 2984 3000 2967 2939 2966 2988
8 2987 2965 2986 3001 2969 2941 2968 2989
8 2988 2966 2987 3002 2970 2942 2969 2990
8 2990 2969 2989 3003 2972 2945 2971 2991
8 2978 2953 2977 2995 2993 2974 2992 3004
8 2979 2954 2978 2996 2994 2975 2993 3005
8 2980 2957 2981 2997 2996 2978 2995 3006
8 2974 2993 2999 2983 2992 3004 3007 2998
8 2983 2999 2987 2965 2998 3007 3001 2986
8 3000 2984 2999 3008 2988 2966 2987 3002
8 2994 2975 2993 3005 3000 2984 2999 3008
8 3002 2987 3001 3009 2990 2969 2989 3003
8 2996 2978 2995 3006 3005 2993 3004 3010
8 3005 2993 3004 3010 3008 2999 3007 3011
8 3008 2999 3007 3011 3002 2987 3001 3009

CELL_TYPES 1910
12
12
12
12
12
12
12
12
12
12
12
12
12
12
12
12
12
12
12
12
12
12
12
12
12
12
12
12
12
12
12
12
12
12
12
12
12
12
12
12
12
12
12
12
12
12
12
12
12
12
12
12
12
12
12
12
12
12
12
12
12
12
12
12
12
12
12
12
12
12
12
12
12
12
12
12
12
12
12
12
12
12
12
12
12
12
12
12
12
12
12
12
12
12
12
12
12
12
12
12
12
12
12
12
12
12
12
12
12
12
12
12
12
12
12
12
12
12
12
12
12
12
12
12
12
12
12
12
12
12
12
12
12
12
12
12
12
12
12
12
12
12
12
12
12
12
12
12
12
12
12
12
12
12
12
12
12
12
12
12
12
12
12
12
12
12
12
12
12
12
12
12
12
12
12
12
12
12
12
12
12
12
12
12
12
12
12
12
12
12
12
12
12
12
12
12
12
12
12
12
12
12
12
12
12
12
12
12
12
12
12
12
12
12
12
12
12
12
12
12
12
12
12
12
12
12
12
12
12
12
12
12
12
12
12
12
12
12
12
12
12
12
12
12
12
12
12
12
12
12
12
12
12
12
12
12
12
12
12
12
12
12
12
12
12
12
12
12
12
12
12
12
12
12
12
12
12
12
12
12
12
12
12
12
12
12
12
12
12
12
12
12
12
12
12
12
12
12
12
12
12
12
12
12
12
12
12
12
12
12
12
12
12
12
12
12
12
12
12
12
12
12
12
12
12
12
12
12
12
12
12
12
12
12
12
12
12
12
12
12
12
12
12
12
12
12
12
12
12
12
12
12
12
12
12
12
12
12
12
12
12
12
12
12
12
12
12
12
12
12
12
12
12
12
12
12
12
12
12
12
12
12
12
12
12
12
12
12
12
12
12
12
12
12
12
12
12
12
12
12
12
12
12
12
12
12
12
12
12
12
12
12
12
12
12
12
12
12
12
12
12
12
12
12
12
12
12
12
12
12
12
12
12
12
12
12
12
12
12
12
12
12
12
12
12
12
12
12
12
12
12
12
12
12
12
12
12
12
12
12
12
12
12
12
12
12
12
12
12
12
12
12
12
12
12
12
12
12
12
12
12
12
12
12
12
12
12
12
12
12
12
12
12
12
12
12
12
12
12
12
12
12
12
12
12
12
12
12
12
12
12
12
12
12
12
12
12
12
12
12
12
12
12
12
12
12
12
12
12
12
12
12
12
12
12
12
12
12
12
12
12
12
12
12
12
12
12
12
12
12
12
12
12
12
12
12
12
12
12
12
12
12
12
12
12
12
12
12
12
12
12
12
12
12
12
12
12
12
12
12
12
12
12
12
12
12
12
12
12
12
12
12
12
12
12
12
12
12
12
12
12
12
12
12
12
12
12
12
12
12
12
12
12
12
12
12
12
12
12
12
12
12
12
12
12
12
12
12
12
12
12
12
12
12
12
12
12
12
12
12
12
12
12
12
12
12
12
12
12
12
12
12
12
12
12
12
12
12
12
12
12
12
12
12
12
12
12
12
12
12
12
12
12
12
12
12
12
12
12
12
12
12
12
12
12
12
12
12
12
12
12
12
12
12
12
12
12
12
12
12
12
12
12
12
12
12
12
12
12
12
12
12
12
12
12
12
12
12
12
12
12
12
12
12
12
12
12
12
12
12
12
12
12
12
12
12
12
12
12
12
12
12
12
12
12
12
12
12
12
12
12
12
12
12
12
12
12
12
12
12
12
12
12
12
12
12
12
12
12
12
12
12
12
12
12
12
12
12
12
12
12
12
12
12
12
12
12
12
12
12
12
12
12
12
12
12
12
12
12
12
12
12
12
12
12
12
12
12
12
12
12
12
12
12
12
12
12
12
12
12
12
12
12
12
12
12
12
12
12
12
12
12
12
12
12
12
12
12
12
12
12
12
12
12
12
12
12
12
12
12
12
12
12
12
12
12
12
12
12
12
12
12
12
12
12
12
12
12
12
12
12
12
12
12
12
12
12
12
12
12
12
12
12
12
12
12
12
12
12
12
12
12
12
12
12
12
12
12
12
12
12
12
12
12
12
12
12
12
12
12
12
12
12
12
12
12
12
12
12
12
12
12
12
12
12
12
12
12
12
12
12
12
12
12
12
12
12
12
12
12
12
12
12
12
12
12
12
12
12
12
12
12
12
12
12
12
12
12
12
12
12
12
12
12
12
12
12
12
12
12
12
12
12
12
12
12
12
12
12
12
12
12
12
12
12
12
12
12
12
12
12
12
12
12
12
12
12
12
12
12
12
12
12
12
12
12
12
12
12
12
12
12
12
12
12
12
12
12
12
12
12
12
12
12
12
12
12
12
12
12
12
12
12
12
12
12
12
12
12
12
12
12
12
12
12
12
12
12
12
12
12
12
12
12
12
12
12
12
12
12
12
12
12
12
12
12
12
12
12
12
12
12
12
12
12
12
12
12
12
12
12
12
12
12
12
12
12
12
12
12
12
12
12
12
12
12
12
12
12
12
12
12
12
12
12
12
12
12
12
12
12
12
12
12
12
12
12
12
12
12
12
12
12
12
12
12
12
12
12
12
12
12
12
12
12
12
12
12
12
12
12
12
12
12
12
12
12
12
12
12
12
12
12
12
12
12
12
12
12
12
12
12
12
12
12
12
12
12
12
12
12
12
12
12
12
12
12
12
12
12
12
12
12
12
12
12
12
12
12
12
12
12
12
12
12
12
12
12
12
12
12
12
12
12
12
12
12
12
12
12
12
12
12
12
12
12
12
12
12
12
12
12
12
12
12
12
12
12
12
12
12
12
12
12
12
12
12
12
12
12
12
12
12
12
12
12
12
12
12
12
12
12
12
12
12
12
12
12
12
12
12
12
12
12
12
12
12
12
12
12
12
12
12
12
12
12
12
12
12
12
12
12
12
12
12
12
12
12
12
12
12
12
12
12
12
12
12
12
12
12
12
12
12
12
12
12
12
12
12
12
12
12
12
12
12
12
12
12
12
12
12
12
12
12
12
12
12
12
12
12
12
12
12
12
12
12
12
12
12
12
12
12
12
12
12
12
12
12
12
12
12
12
12
12
12
12
12
12
12
12
12
12
12
12
12
12
12
12
12
12
12
12
12
12
12
12
12
12
12
12
12
12
12
12
12
12
12
12
12
12
12
12
12
12
12
12
12
12
12
12
12
12
12
12
12
12
12
12
12
12
12
12
12
12
12
12
12
12
12
12
12
12
12
12
12
12
12
12
12
12
12
12
12
12
12
12
12
12
12
12
12
12
12
12
12
12
12
12
12
12
12
12
12
12
12
12
12
12
12
12
12
12
12
12
12
12
12
12
12
12
12
12
12
12
12
12
12
12
12
12
12
12
12
12
12
12
12
12
12
12
12
12
12
12
12
12
12
12
12
12
12
12
12
12
12
12
12
12
12
12
12
12
12
12
12
12
12
12
12
12
12
12
12
12
12
12
12
12
12
12
12
12
12
12
12
12
12
12
12
12
12
12
12
12
12
12
12
12
12
12
12
12
12
12
12
12
12
12
12
12
12
12
12
12
12
12
12
12
12
12
12
12
12
12
12
12
12
12
12
12
12
12
12
12
12
12
12
12
12
12
12
12
12
12
12
12
12
12
12
12
12
12
12
12
12
12
12
12
12
12
12
12
12
12
12
12
12
12
12
12
12
12
12
12
12
12
12
12
12
12
12
12
12
12
12
12
12
12
12
12
12
12
12
12
12
12
12
12
12
12
12
12
12
12
12
12
12
12
12
12
12
12
12
12
12
12
12
12
12
12
12
12
12
12
12
12
12
12
12
12
12
12
12
12
12
12
12
12
12
12
12
12
12
12
12
12
12
12
12
12
12
12
12
12
12
12
12
12
12
12
12
12
12
12
12
12
12
12
12
12
12
12
12
12
12
12
12
12
12
12
12
12
12
12
12
12
12
12
12
12
12
12
12
12
12
12
12
12
12
12
12
12
12
12
12
12
12
12
12
12
12
12
12
12
12
12
12
12
12
12
12
12
12
12
12
12
12
12
12
12
12
12
12
12
12
12
12
12
12
12
12
12
12
12
12
12
12
12
12
12
12
12
12
12
12
12
12
12
12
12
12
12
12
12
12
12
12
12
12
12
12
12
12
12
12
12
12
12
12
12
12
12
12
12
12
12
12
12
12
12
12
12
12
12
12
12
12
12
12
12
12
12
12
12
12
12
12
12
12
12
12
12
12
12
12
12
12
12
12
12
12
12
12
12
12
12
12
12
12
12
12
12
12
12
12
12
12
12
12
12
12
12
12
12
12
12
12
12
12
12
12
12
12
12
12
12
12
12
12
12

POINT_DATA 3012
SCALARS Jp_lamdaP float 4
LOOKUP_TABLE default
0.999997 1 1 0.999997
1 1 1 1
0.999998 1 1 0.999998
0.999979 1 1 0.999979
0.999993 1 1 0.999993
0.999999 1 1 0.999999
0.99985 1 1 0.99985
1 1 1 1
1 1 1 1
1 1 1 1
1 1 1 1
0.999947 1 1 0.999947
0.999958 1 1 0.999958
0.99998 1 1 0.99998
0.999998 1 1 0.999998
0.999982 1 1 0.999982
1 1 1 1
0.999994 1 1 0.999994
0.999852 1 1 0.999852
1 1 1 1
0.999975 1 1 0.999975
0.999986 1 1 0.999986
0.999753 1 1 0.999753
0.999821 1 1 0.999821
1 1 1 1
0.999882 1 1 0.999882
0.999593 1 1 0.999593
1 1 1 1
0.999995 1 1 0.999995
1 1 1 1
1 1 1 1
0.999952 1 1 0.999952
0.999987 1 1 0.999987
0.999998 1 1 0.999998
0.999875 1 1 0.999875
1 1 1 1
0.99993 1 1 0.99993
0.999967 1 1 0.999967
0.999652 1 1 0.999652
1 1 1 1
1 1 1 1
0.999989 1 1 0.999989
1 1 1 1
0.999972 1 1 0.999972
0.999737 1 1 0.999737
1 1 1 1
0.999822 1 1 0.999822
0.999984 1 1 0.999984
0.999995 1 1 0.999995
1 1 1 1
0.999854 1 1 0.999854
0.99998 1 1 0.99998
0.999978 1 1 0.999978
1 1 1 1
0.999989 1 1 0.999989
0.999755 1 1 0.999755
0.999884 1 1 0.999884
0.999823 1 1 0.999823
0.999583 1 1 0.999583
1 1 1 1
0.999969 1 1 0.999969
0.999777 1 1 0.999777
0.999737 1 1 0.999737
0.999787 1 1 0.999787
0.999365 1 1 0.999365
0.999493 1 1 0.999493
1 1 1 1
0.999923 1 1 0.999923
0.999664 1 1 0.999664
0.999286 1 1 0.999286
1 1 1 1
1 1 1 1
1 1 1 1
0.999958 1 1 0.999958
1 1 1 1
1 1 1 1
0.999877 1 1 0.999877
1 1 1 1
0.999935 1 1 0.999935
0.999975 1 1 0.999975
0.99965 1 1 0.99965
1 1 1 1
1 1 1 1
0.999842 1 1 0.999842
0.999902 1 1 0.999902
0.999443 1 1 0.999443
0.99999 1 1 0.99999
0.999617 1 1 0.999617
0.999687 1 1 0.999687
0.999438 1 1 0.999438
1 1 1 1
1 1 1 1
1 1 1 1
1 1 1 1
1 1 1 1
0.999984 1 1 0.999984
0.999757 1 1 0.999757
0.999991 1 1 0.999991
0.999819 1 1 0.999819
1 1 1 1
0.999707 1 1 0.999707
0.999798 1 1 0.999798
0.999176 1 1 0.999176
0.999838 1 1 0.999838
0.999262 1 1 0.999262
0.999964 1 1 0.999964
0.99998 1 1 0.99998
1 1 1 1
0.999991 1 1 0.999991
0.999757 1 1 0.999757
0.999826 1 1 0.999826
0.999885 1 1 0.999885
0.999573 1 1 0.999573
1 1 1 1
0.999973 1 1 0.999973
0.999724 1 1 0.999724
0.999738 1 1 0.999738
1 1 1 1
0.999942 1 1 0.999942
0.999789 1 1 0.999789
0.999347 1 1 0.999347
0.999653 1 1 0.999653
0.999505 1 1 0.999505
0.999287 1 1 0.999287
0.999721 1 1 0.999721
0.999728 1 1 0.999728
0.999235 1 1 0.999235
0.999302 1 1 0.999302
0.999405 1 1 0.999405
0.999067 1 1 0.999067
1 1 1 1
0.999225 1 1 0.999225
0.999987 1 1 0.999987
0.999687 1 1 0.999687
0.999346 1 1 0.999346
0.99916 1 1 0.99916
1 1 1 1
0.999809 1 1 0.999809
1 1 1 1
1 1 1 1
0.999883 1 1 0.999883
1 1 1 1
0.999982 1 1 0.999982
0.999939 1 1 0.999939
0.999649 1 1 0.999649
1 1 1 1
1 1 1 1
0.999852 1 1 0.999852
0.99991 1 1 0.99991
0.999445 1 1 0.999445
0.999993 1 1 0.999993
0.999618 1 1 0.999618
0.999686 1 1 0.999686
0.99943 1 1 0.99943
0.999999 1 1 0.999999
1 1 1 1
0.999835 1 1 0.999835
0.999359 1 1 0.999359
0.999543 1 1 0.999543
0.999187 1 1 0.999187
0.999735 1 1 0.999735
0.999396 1 1 0.999396
0.999459 1 1 0.999459
0.999346 1 1 0.999346
1 1 1 1
1 1 1 1
1 1 1 1
1 1 1 1
1 1 1 1
1 1 1 1
1 1 1 1
0.999815 1 1 0.999815
0.99975 1 1 0.99975
1 1 1 1
1 1 1 1
0.999709 1 1 0.999709
0.999796 1 1 0.999796
0.999176 1 1 0.999176
0.999831 1 1 0.999831
0.999262 1 1 0.999262
0.999697 1 1 0.999697
0.999124 1 1 0.999124
0.999226 1 1 0.999226
0.998926 1 1 0.998926
0.999302 1 1 0.999302
0.99902 1 1 0.99902
1 1 1 1
0.999977 1 1 0.999977
0.99967 1 1 0.99967
0.999739 1 1 0.999739
1 1 1 1
0.999962 1 1 0.999962
0.999792 1 1 0.999792
0.999328 1 1 0.999328
0.999518 1 1 0.999518
0.999642 1 1 0.999642
0.999288 1 1 0.999288
0.999719 1 1 0.999719
0.999729 1 1 0.999729
0.999197 1 1 0.999197
0.999316 1 1 0.999316
1 1 1 1
0.999982 1 1 0.999982
0.999703 1 1 0.999703
0.999407 1 1 0.999407
0.999045 1 1 0.999045
0.999343 1 1 0.999343
0.999235 1 1 0.999235
0.999162 1 1 0.999162
0.999999 1 1 0.999999
0.999809 1 1 0.999809
0.999135 1 1 0.999135
0.999282 1 1 0.999282
0.998972 1 1 0.998972
0.998986 1 1 0.998986
0.999157 1 1 0.999157
0.998959 1 1 0.998959
0.999997 1 1 0.999997
0.999103 1 1 0.999103
0.999717 1 1 0.999717
0.999425 1 1 0.999425
0.999219 1 1 0.999219
0.999119 1 1 0.999119
0.999759 1 1 0.999759
0.999873 1 1 0.999873
0.999545 1 1 0.999545
0.999852 1 1 0.999852
1 1 1 1
1 1 1 1
0.999916 1 1 0.999916
0.999447 1 1 0.999447
0.999997 1 1 0.999997
0.999686 1 1 0.999686
0.999618 1 1 0.999618
0.999423 1 1 0.999423
1 1 1 1
1 1 1 1
0.999836 1 1 0.999836
0.99936 1 1 0.99936
0.999546 1 1 0.999546
0.999187 1 1 0.999187
0.999736 1 1 0.999736
0.999404 1 1 0.999404
0.999458 1 1 0.999458
0.999337 1 1 0.999337
1 1 1 1
0.999782 1 1 0.999782
0.999891 1 1 0.999891
0.999588 1 1 0.999588
0.999104 1 1 0.999104
0.99931 1 1 0.99931
0.999058 1 1 0.999058
0.999508 1 1 0.999508
0.999305 1 1 0.999305
0.999317 1 1 0.999317
0.999268 1 1 0.999268
0.999977 1 1 0.999977
1 1 1 1
1 1 1 1
1 1 1 1
1 1 1 1
1 1 1 1
1 1 1 1
1 1 1 1
1 1 1 1
0.999833 1 1 0.999833
0.999789 1 1 0.999789
0.999262 1 1 0.999262
0.999176 1 1 0.999176
0.999711 1 1 0.999711
1 1 1 1
0.999696 1 1 0.999696
0.999124 1 1 0.999124
0.999226 1 1 0.999226
0.998926 1 1 0.998926
0.999302 1 1 0.999302
0.99902 1 1 0.99902
0.99911 1 1 0.99911
0.998872 1 1 0.998872
0.998979 1 1 0.998979
0.99897 1.00012 1 0.998855
0.999058 1 1 0.999058
0.998938 1 1 0.998938
0.999716 1 1 0.999716
0.999729 1 1 0.999729
0.99916 1 1 0.99916
0.99933 1 1 0.99933
1 1 1 1
0.999977 1 1 0.999977
0.999719 1 1 0.999719
0.999408 1 1 0.999408
0.999022 1 1 0.999022
0.999245 1 1 0.999245
0.99934 1 1 0.99934
0.999164 1 1 0.999164
0.999998 1 1 0.999998
0.999809 1 1 0.999809
0.999122 1 1 0.999122
0.999282 1 1 0.999282
0.998962 1 1 0.998962
0.99901 1 1 0.99901
0.999994 1 1 0.999994
0.999717 1 1 0.999717
0.999441 1 1 0.999441
0.999157 1 1 0.999157
0.998953 1 1 0.998953
0.999202 1 1 0.999202
0.999103 1 1 0.999103
0.999119 1 1 0.999119
0.99976 1 1 0.99976
0.999542 1 1 0.999542
0.999872 1 1 0.999872
0.998923 1 1 0.998923
0.998996 1 1 0.998996
0.998873 1.00003 1 0.998847
0.998902 1 1 0.998902
0.999032 1 1 0.999032
0.999042 1.00009 1 0.998956
0.999734 1 1 0.999734
0.999075 1 1 0.999075
0.999513 1 1 0.999513
0.999278 1 1 0.999278
0.999111 1 1 0.999111
0.999155 1 1 0.999155
0.999923 1 1 0.999923
0.999539 1 1 0.999539
0.999568 1 1 0.999568
0.999445 1 1 0.999445
0.999361 1 1 0.999361
1 1 1 1
1 1 1 1
0.999836 1 1 0.999836
0.999549 1 1 0.999549
0.999187 1 1 0.999187
0.999736 1 1 0.999736
0.999457 1 1 0.999457
0.999412 1 1 0.999412
0.999328 1 1 0.999328
1 1 1 1
0.999782 1 1 0.999782
0.999894 1 1 0.999894
0.999586 1 1 0.999586
0.999102 1 1 0.999102
0.999312 1 1 0.999312
0.999058 1 1 0.999058
0.999509 1 1 0.999509
0.999315 1 1 0.999315
0.999312 1 1 0.999312
0.999296 1 1 0.999296
1 1 1 1
0.99993 1 1 0.99993
0.999552 1 1 0.999552
0.999637 1 1 0.999637
0.999446 1 1 0.999446
0.99899 1 1 0.99899
0.999193 1 1 0.999193
0.999011 1 1 0.999011
0.999352 1 1 0.999352
0.999249 1 1 0.999249
0.999169 1 1 0.999166
0.999966 1 1 0.999966
0.999795 1 1 0.999795
0.999985 1 1 0.999985
0.999979 1 1 0.999979
1 1 1 1
1 1 1 1
1 1 1 1
1 1 1 1
1 1 1 1
1 1 1 1
1 1 1 1
1 1 1 1
1 1 1 1
1 1 1 1
1 1 1 1
0.999303 1 1 0.999303
0.999226 1 1 0.999226
0.99902 1 1 0.99902
0.998926 1 1 0.998926
0.999124 1 1 0.999124
0.999696 1 1 0.999696
0.99911 1 1 0.99911
0.998873 1 1 0.998873
0.998979 1 1 0.998979
0.998939 1.00009 1 0.99885
0.999057 1 1 0.999057
0.998938 1 1 0.998938
0.998857 1 1 0.998857
0.999835 1.00103 1 0.998801
0.998895 1 1 0.998895
1.00027 1.00143 1 0.998842
0.998968 1 1 0.998968
0.999237 1.00027 1 0.998965
0.99911 1 1 0.99911
0.999282 1 1 0.999282
0.998953 1 1 0.998953
0.999033 1 1 0.999033
0.999992 1 1 0.999992
0.999717 1 1 0.999717
0.999457 1 1 0.999457
0.999156 1 1 0.999156
0.998948 1 1 0.998948
0.999103 1 1 0.999103
0.999185 1 1 0.999185
0.999119 1 1 0.999119
0.999761 1 1 0.999761
0.999539 1 1 0.999539
0.99987 1 1 0.99987
0.998903 1 1 0.998903
0.998996 1 1 0.998996
0.998913 1.00008 1 0.998837
0.998906 1 1 0.998906
0.999735 1 1 0.999735
0.999511 1 1 0.999511
0.999297 1 1 0.999297
0.999041 1 1 0.999041
0.999056 1.00009 1 0.998962
0.999098 1 1 0.999098
0.999075 1 1 0.999075
0.999162 1 1 0.999162
0.999541 1 1 0.999541
0.999434 1 1 0.999434
0.99992 1 1 0.99992
0.999576 1 1 0.999576
0.999073 1.00028 1 0.998797
0.998875 1 1 0.998875
0.999669 1.00087 1 0.998797
0.998907 1.00002 1 0.998886
0.999241 1.00022 1 0.999022
0.999348 1.00037 1 0.998979
0.999538 1 1 0.999538
0.999148 1 1 0.999148
0.999384 1 1 0.999384
0.999156 1 1 0.999156
0.999039 1 1 0.999039
0.999159 1 1 0.999159
0.999947 1 1 0.999947
0.999627 1 1 0.999627
0.999445 1 1 0.999445
0.999444 1 1 0.999444
0.999396 1 1 0.999396
1 1 1 1
0.999101 1 1 0.999101
0.999896 1 1 0.999896
0.999782 1 1 0.999782
0.999585 1 1 0.999585
0.999313 1 1 0.999313
0.999059 1 1 0.999059
0.99951 1 1 0.99951
0.999307 1 1 0.999307
0.999324 1 1 0.999324
0.999323 1 1 0.999323
1 1 1 1
0.999933 1 1 0.999933
0.999552 1 1 0.999552
0.999637 1 1 0.999637
0.999439 1 1 0.999439
0.998988 1 1 0.998988
0.999194 1 1 0.999194
0.999007 1 1 0.999007
0.999354 1 1 0.999354
0.999256 1 1 0.999256
0.999219 1 1.00004 0.999178
0.999952 1 1 0.999952
0.99969 1 1 0.99969
0.999403 1 1 0.999403
0.999481 1 1 0.999481
0.999367 1 1 0.999367
0.998972 1.00001 1 0.998962
0.999138 1 1 0.999138
0.999078 1 1 0.999078
0.999738 1 1.00053 0.999207
0.999096 1 1 0.999096
0.999969 1 1 0.999969
0.999743 1 1 0.999743
0.999781 1 1 0.999781
0.999657 1 1 0.999657
0.999805 1 1 0.999805
0.999989 1 1 0.999989
0.999986 1 1 0.999986
1 1 1 1
0.999982 1 1 0.999982
1 1 1 1
1 1 1 1
1 1 1 1
1 1 1 1
1 1 1 1
1 1 1 1
1 1 1 1
1 1 1 1
1 1 1 1
1 1 1 1
1 1 1 1
0.999056 1 1 0.999056
0.998979 1 1 0.998979
0.998939 1 1 0.998939
0.998909 1.00006 1 0.998845
0.998873 1 1 0.998873
0.99911 1 1 0.99911
0.998858 1 1 0.998858
0.999839 1.00105 1 0.998794
0.998895 1 1 0.998895
1.00014 1.0013 1 0.998841
0.998966 1 1 0.998966
0.999169 1.00021 1 0.998964
0.999594 1.00082 1 0.998772
1.00225 1.00347 1 0.998786
0.999773 1.00088 1 0.998892
1.00155 1.00272 1 0.998837
0.999059 1.00009 1 0.998971
1.00027 1.00128 1 0.998989
0.998884 1 1 0.998884
0.998995 1 1 0.998995
0.998953 1.00012 1 0.998828
0.998911 1 1 0.998911
0.999736 1 1 0.999736
0.999509 1 1 0.999509
0.999315 1 1 0.999315
0.999049 1 1 0.999049
0.999067 1.0001 1 0.998969
0.999076 1 1 0.999076
0.999085 1 1 0.999085
0.999168 1 1 0.999168
0.999543 1 1 0.999543
0.999422 1 1 0.999422
0.999917 1 1 0.999917
0.999584 1 1 0.999584
0.999245 1.00045 1 0.998797
0.998877 1 1 0.998877
0.999462 1.00066 1 0.9988
0.998901 1.00001 1 0.998888
0.999538 1 1 0.999538
0.999399 1 1 0.999399
0.999154 1 1 0.999154
0.999211 1.00019 1 0.999018
0.999392 1.00038 1 0.999008
0.999032 1 1 0.999032
0.999216 1.00007 1 0.999149
0.999181 1 1 0.999181
0.999445 1 1 0.999445
0.999392 1 1 0.999392
0.999442 1 1 0.999442
0.999927 1 1 0.999927
0.999635 1 1 0.999635
1.00115 1.00239 1 0.998762
0.999698 1.0009 1 0.998798
0.999548 1.00064 1 0.998905
0.999467 1.0004 1 0.999064
0.99945 1 1 0.99945
0.999576 1.00037 1 0.999206
0.999295 1 1 0.999295
0.999164 1 1.00017 0.998996
0.998974 1 1 0.998974
0.999929 1 1 0.999929
0.999712 1 1 0.999712
0.9995 1 1 0.9995
0.999415 1 1 0.999415
0.999349 1 1 0.999349
0.999359 1 1 0.999359
1 1 1 1
0.999937 1 1 0.999937
0.998986 1 1 0.998986
0.999636 1 1 0.999636
0.999551 1 1 0.999551
0.999432 1 1 0.999432
0.999194 1 1 0.999194
0.999003 1 1 0.999003
0.999356 1 1 0.999356
0.999202 1 1.00001 0.999191
0.999262 1 1 0.999262
0.999955 1 1 0.999955
0.99969 1 1 0.99969
0.999411 1 1 0.999411
0.99948 1 1 0.99948
0.999356 1 1 0.999356
0.998994 1.00003 1 0.99896
0.999134 1 1 0.999134
0.999088 1 1 0.999088
0.999469 1 1.00027 0.9992
0.999074 1 1 0.999074
0.999733 1 1 0.999733
0.999505 1 1 0.999505
0.999696 1 1.0004 0.999297
0.999355 1 1 0.999355
0.999292 1 1 0.999292
1.00007 1.00097 1 0.999107
0.999044 1 1 0.999044
0.999439 1.00037 1 0.999075
1.00044 1 1.00133 0.999114
0.998911 1 1 0.998911
0.999972 1 1 0.999972
0.999753 1 1 0.999753
0.999586 1 1 0.999586
0.999768 1 1 0.999768
0.999805 1 1 0.999805
0.999638 1 1 0.999638
0.999536 1 1 0.999536
0.999634 1 1 0.999634
0.999815 1 1 0.999815
0.999991 1 1 0.999991
0.99999 1 1 0.99999
1 1 1 1
0.999988 1 1 0.999988
1 1 1 1
1 1 1 1
1 1 1 1
1 1 1 1
1 1 1 1
1 1 1 1
1 1 1 1
1 1 1 1
1 1 1 1
1 1 1 1
1 1 1 1
0.998964 1 1 0.998964
0.998896 1 1 0.998896
0.999108 1.00014 1 0.998963
1.00001 1.00117 1 0.99884
0.999843 1.00106 1 0.998787
0.998858 1 1 0.998858
0.999719 1.00095 1 0.99877
1.00213 1.00335 1 0.998787
0.999687 1.0008 1 0.998884
1.00169 1.00286 1 0.998832
0.999047 1.00008 1 0.998972
1 1.001 1 0.999006
1.00266 1.00391 1 0.998758
1.00346 1.00466 1 0.998808
1.00191 1.00301 1 0.998897
1.00052 1.00146 1 0.99906
0.999409 1.00061 1 0.998798
0.998879 1 1 0.998879
0.999266 1.00046 1 0.998802
0.998894 1 1 0.99889
0.999538 1 1 0.999538
0.999414 1 1 0.999414
0.999153 1 1 0.999153
0.999182 1.00017 1 0.999014
0.999457 1.00042 1 0.999037
0.999309 1.00016 1 0.99915
0.999024 1 1 0.999024
0.999202 1 1 0.999202
0.999446 1 1 0.999446
0.999389 1 1 0.999389
0.99944 1 1 0.99944
0.999907 1 1 0.999907
0.999643 1 1 0.999643
1.00097 1.0022 1 0.998765
0.999862 1.00106 1 0.998803
0.999572 1.00066 1 0.998915
0.999448 1 1 0.999448
0.999313 1 1 0.999313
0.999299 1 1.00031 0.998993
0.999621 1.00057 1 0.999054
0.999005 1 1 0.999005
0.999381 1.00017 1 0.999207
0.999929 1 1 0.999929
0.999414 1 1 0.999414
0.999368 1 1 0.999368
0.999347 1 1 0.999347
0.999507 1 1 0.999507
0.999697 1 1 0.999697
1.00229 1.00353 1 0.998766
1.00136 1.00256 1 0.998798
1.00068 1.00173 1 0.998952
1.0011 1.00198 1 0.999128
0.999397 1 1 0.999397
0.999172 1.00012 1 0.999048
0.999351 1 1.00023 0.999117
0.9997 1 1.00082 0.998876
0.999946 1 1 0.999946
0.999755 1 1 0.999755
0.999557 1 1 0.999557
0.999356 1 1 0.999356
0.999368 1 1 0.999368
0.999306 1 1 0.999306
0.999959 1 1 0.999959
0.99969 1 1 0.99969
0.999019 1.00006 1 0.998958
0.999479 1 1 0.999479
0.999418 1 1 0.999418
0.999345 1 1 0.999345
0.99913 1 1 0.99913
0.999098 1 1 0.999098
0.999337 1 1.00014 0.999194
0.999051 1 1 0.999051
0.999733 1 1 0.999733
0.999511 1 1 0.999511
0.999525 1 1.00021 0.99931
0.999361 1 1 0.999361
0.999297 1 1 0.999297
1.00011 1.00101 1 0.999106
0.999048 1 1 0.999048
0.999348 1.00021 1 0.999143
1.00058 1 1.00148 0.999104
0.998907 1 1.00003 0.998878
0.999554 1 1 0.999554
0.999367 1 1 0.999367
1.00049 1 1.00129 0.999209
0.999242 1 1 0.999242
1.00393 1.00484 1 0.999092
1.00189 1.00286 0.999872 0.999162
0.999127 1.00025 1 0.998882
1.00163 1 1.00274 0.998887
0.999764 1 1 0.999764
0.999595 1 1 0.999595
0.999489 1 1 0.999489
0.999805 1 1 0.999805
0.999618 1 1 0.999618
0.999815 1 1 0.999815
0.999521 1 1 0.999521
0.999641 1 1 0.999641
0.999437 1 1 0.999437
0.999521 1 1 0.999521
0.999644 1 1 0.999644
0.999818 1 1 0.999818
0.99999 1 1 0.99999
0.999991 1 1 0.999991
1 1 1 1
0.999991 1 1 0.999991
1 1 1 1
1 1 1 1
1 1 1 1
1 1 1 1
1 1 1 1
1 1 1 1
1 1 1 1
1 1 1 1
1 1 1 1
1 1 1 1
1 1 1 1
0.999029 1.00006 1 0.998972
0.999606 1.00073 1 0.998877
0.999752 1.00073 1 0.999023
1.00183 1.00301 1 0.998828
1.002 1.00322 1 0.998789
0.999853 1.00109 1 0.998767
1.0024 1.00364 1 0.998763
1.00336 1.00456 1 0.998807
1.00191 1.00301 1 0.998904
1.00066 1.00161 1 0.999055
1.00425 1.00547 1 0.998784
1.00458 1.00572 1 0.998868
1.0032 1.00423 1 0.998979
1.00079 1.00202 1 0.998769
1.00003 1.00122 1 0.998809
0.999588 1.00066 1 0.998925
0.999446 1 1 0.999446
0.999331 1 1 0.999331
0.999475 1 1.00049 0.998989
0.999771 1.00073 1 0.999044
0.999208 1 1 0.999208
0.999037 1 1 0.999037
0.999413 1 1 0.999413
0.999377 1 1 0.999377
0.999345 1 1 0.999345
0.99993 1 1 0.99993
0.999513 1 1 0.999513
0.999682 1 1 0.999682
1.00272 1.00396 1 0.998767
1.00108 1.00228 1 0.998796
1.00069 1.00175 1 0.998939
0.999393 1 1 0.999393
0.999322 1 1.00017 0.999148
0.999724 1 1.00084 0.998881
1.00163 1.00249 1 0.999146
0.999133 1.00009 1 0.999044
0.999961 1 1 0.999961
0.999755 1 1 0.999755
0.999367 1 1 0.999367
0.999317 1 1 0.999317
0.99936 1 1 0.99936
0.999546 1 1 0.999546
1.00383 1.00503 1 0.998806
1.0032 1.00438 1 0.998829
1.00415 1.00518 0.999905 0.999079
1.00299 1.00382 1 0.999173
0.999311 1 1 0.999311
1.00021 1 1.0014 0.998808
1.00031 1 1.00132 0.998996
0.99999 1 1 0.99999
0.999839 1 1 0.999839
0.999757 1 1 0.999757
0.999574 1 1 0.999574
0.999409 1 1 0.999409
0.999253 1 1 0.999253
0.999365 1 1 0.999365
0.999744 1 1.00043 0.99931
0.999734 1 1 0.999734
0.999517 1 1 0.999517
1.0001 1.00099 1 0.999105
0.999367 1 1 0.999367
0.999371 1 1.00005 0.999324
0.999301 1 1 0.999301
0.999053 1 1 0.999053
0.999211 1 1 0.999211
1.00067 1 1.00158 0.999095
0.998846 1 1 0.998846
0.999548 1 1 0.999548
0.999375 1 1 0.999375
1.00064 1 1.00142 0.99922
0.999252 1 1 0.999252
1.00383 1.00475 1 0.999083
1.00158 1.00247 0.999949 0.999161
0.999305 1.00039 1 0.998911
1.00118 1 1.00231 0.998872
0.999446 1 1 0.999446
1.00394 1.00493 1 0.999012
0.999273 1 1 0.999273
1.0003 1 1.0012 0.999103
1.00697 1.00811 0.999722 0.999152
1.00204 1.00316 1 0.998885
1.00171 1 1.00294 0.998774
0.999604 1 1 0.999604
0.999489 1 1 0.999489
0.999397 1 1 0.999397
0.999815 1 1 0.999815
0.999648 1 1 0.999648
0.999506 1 1 0.999506
0.999818 1 1 0.999818
0.999643 1 1 0.999643
0.999425 1 1 0.999425
0.999536 1 1 0.999536
0.999365 1 1 0.999365
0.999425 1 1 0.999425
0.999551 1 1 0.999551
0.999662 1 1 0.999662
0.999815 1 1 0.999815
0.999988 1 1 0.999988
0.99999 1 1 0.99999
1 1 1 1
0.999991 1 1 0.999991
1 1 1 1
1 1 1 1
1 1 1 1
1 1 1 1
1 1 1 1
0.999996 1 1 0.999996
1 1 1 1
1 1 1 1
1 1 1 1
1 1 1 1
1 1 1 1
1 1 1 1
1.00081 1.00176 1 0.99905
1.00191 1.003 1 0.99891
1.00325 1.00445 1 0.998807
1.00215 1.00339 1 0.998768
1.00419 1.0054 1 0.99879
1.00488 1.00603 1 0.998859
1.0035 1.00451 1 0.998993
1.00415 1.00531 1 0.998847
1.00574 1.00683 1 0.998918
1.0034 1.00436 1 0.999041
1.00312 1.00435 1 0.998768
1.00079 1.00199 1 0.998794
1.00074 1.00181 1 0.998927
0.99939 1 1 0.99939
0.999254 1 1.00007 0.999179
0.999645 1 1.00076 0.998886
1.00219 1.00302 1 0.999164
0.99904 1 1 0.99904
0.999367 1 1 0.999367
0.999328 1 1 0.999328
0.999363 1 1 0.999363
0.999975 1 1 0.999975
0.999755 1 1 0.999755
0.999534 1 1 0.999534
1.00341 1.0046 1 0.998813
0.999987 1 1 0.999987
0.999828 1 1 0.999828
1.00317 1.00435 1 0.998828
1.00477 1.00572 1 0.999053
0.999328 1 1 0.999328
1.0007 1 1.00173 0.998969
0.999654 1 1.00084 0.998815
1.00259 1.00342 1 0.999173
0.999786 1 1 0.999786
0.999573 1 1 0.999573
0.999351 1 1 0.999351
0.999575 1 1.00022 0.999352
0.999235 1 1 0.999235
0.999412 1 1 0.999412
1.00454 1.00567 1 0.99888
1.00595 1.00705 1 0.998915
1.00624 1.0074 0.999601 0.999248
0.999496 1.00052 1 0.998972
1.00023 1 1.00096 0.999274
1.00306 1 1.00427 0.998803
0.999841 1 1 0.999841
0.999811 1 1 0.999811
0.999698 1 1 0.999698
0.999578 1 1 0.999578
0.999456 1 1 0.999456
0.999287 1 1 0.999287
0.999509 1 1.00035 0.999162
0.999361 1 1 0.999361
0.999542 1 1 0.999542
0.999384 1 1 0.999384
1.00388 1.00481 1 0.999074
1.00144 1.00228 1 0.99916
0.999262 1 1 0.999262
1.00073 1 1.0015 0.999231
0.999527 1.00055 1.00004 0.998941
1.0008 1 1.00195 0.998857
0.999445 1 1 0.999445
1.00439 1.00537 1 0.999029
0.999274 1 1 0.999274
1.00046 1 1.00138 0.999087
1.00623 1.00735 0.99974 0.999141
1.00242 1.00353 1 0.998894
1.00184 1 1.00307 0.998778
0.999328 1 1 0.999328
1.01468 1.01648 0.999106 0.999126
0.999186 1 1 0.999186
1.0018 1 1.00287 0.998942
1.00269 1.00654 0.997225 0.998945
1.00166 1.0007 1.00221 0.998741
1.00819 1.01005 0.999037 0.999116
0.999489 1 1 0.999489
0.999397 1 1 0.999397
0.999331 1 1 0.999331
0.999818 1 1 0.999818
0.999642 1 1 0.999642
0.999551 1 1 0.999551
0.999413 1 1 0.999413
0.999815 1 1 0.999815
0.999653 1 1 0.999653
0.999361 1 1 0.999361
0.99955 1 1 0.99955
0.999438 1 1 0.999438
0.999347 1 1 0.999347
0.999473 1 1 0.999473
0.999559 1 1 0.999559
0.999637 1 1 0.999637
0.999787 1 1 0.999787
0.999682 1 1 0.999682
0.999787 1 1 0.999787
0.999987 1 1 0.999987
0.999988 1 1 0.999988
1 1 1 1
0.999989 1 1 0.999989
1 1 1 1
1 1 1 1
1 1 1 1
1 1 1 1
1 1 1 1
0.999999 1 1 0.999999
0.999995 1 1 0.999995
1 1 1 1
1 1 1 1
1 1 1 1
1 1 1 1
1 1 1 1
1 1 1 1
1.00378 1.00477 1 0.999007
1.0052 1.00635 1 0.99885
1.00415 1.00536 1 0.998796
1.00451 1.00567 1 0.998846
1.00527 1.00635 1 0.998923
1.00355 1.00451 1 0.999048
1.00498 1.00603 1 0.998961
1.01004 1.01538 0.995603 0.99914
1.01673 1.01832 0.999249 0.999189
0.999878 1 1 0.999878
1.00304 1.00423 1 0.998821
1.00302 1.00419 1 0.998827
1.00519 1.00617 1 0.999028
0.999346 1 1 0.999346
1.0013 1 1.00236 0.998941
0.999274 1 1.00045 0.998822
1.0022 1.00303 1 0.999172
0.999337 1 1 0.999337
0.999395 1 1 0.999395
0.999217 1 1 0.999217
0.999984 1 1 0.999984
0.999414 1 1 0.999414
0.999814 1 1 0.999814
0.999572 1 1 0.999572
0.999818 1 1 0.999818
1.00456 1.00569 1 0.998878
0.999853 1 1 0.999853
0.99981 1 1 0.99981
0.999675 1 1 0.999675
1.00642 1.00751 1 0.998919
1.00485 1.00617 0.999469 0.999215
0.999836 1 1.00055 0.999283
1.00335 1 1.00456 0.998794
0.99977 1.00063 1.00016 0.998977
0.999594 1 1 0.999594
0.999449 1 1 0.999449
0.999438 1 1.0001 0.999337
0.999645 1 1.00046 0.999182
0.999299 1 1 0.999299
1.00759 1.00867 1.00004 0.998891
1.00661 1.01022 0.997374 0.999047
1.0015 1.00272 0.999716 0.99907
1.0017 1.00004 1.0028 0.998865
1.0029 1 1.00372 0.999179
0.999678 1 1 0.999678
0.999621 1 1 0.999621
0.999559 1 1 0.999559
0.999467 1 1 0.999467
0.999359 1 1 0.999359
0.999231 1 1.00002 0.999213
1.00216 1 1.00304 0.999125
0.999443 1 1 0.999443
0.999276 1 1 0.999276
1.00478 1.00574 1 0.999045
1.00534 1.0065 0.999712 0.99913
1.00267 1.00377 1 0.998903
1.0006 1 1.00153 0.999071
1.00184 1 1.00306 0.998783
0.999341 1 1 0.999341
1.01415 1.01652 0.998542 0.999131
0.99919 1 1 0.99919
1.00182 1 1.00287 0.998948
1.00401 1.00721 0.99784 0.998981
1.00198 1.00056 1.00269 0.998735
1.00974 1.01171 0.999007 0.99905
0.999261 1 1 0.999261
1.00097 1.01122 0.990787 0.999069
0.999884 1 1.00073 0.999152
1.00489 1 1.00603 0.99887
1.001 1.00111 1.00109 0.998811
0.958773 0.965428 0.998143 0.994954
1.00239 0.998307 1.00618 0.997919
0.989672 1.0089 0.981703 0.999229
0.922984 0.94055 0.98399 0.99729
0.923239 0.958209 0.965641 0.997788
0.999397 1 1 0.999397
0.999336 1 1 0.999336
0.999313 1 1 0.999313
0.999815 1 1 0.999815
0.999644 1 1 0.999644
0.999549 1 1 0.999549
0.999451 1 1 0.999451
0.999357 1 1 0.999357
0.999546 1 1 0.999546
0.999798 1 1 0.999798
0.999647 1 1 0.999647
0.999353 1 1 0.999353
0.99947 1 1 0.99947
0.999482 1 1 0.999482
0.999396 1 1 0.999396
0.999521 1 1 0.999521
0.999629 1 1 0.999629
0.999785 1 1 0.999785
0.999661 1 1 0.999661
0.999564 1 1 0.999564
0.999651 1 1 0.999651
0.999663 1 1 0.999663
0.999809 1 1 0.999809
0.999787 1 1 0.999787
0.999986 1 1 0.999986
0.999987 1 1 0.999987
1 1 1 1
0.999987 1 1 0.999987
1 1 1 1
1 1 1 1
1 1 1 1
1 1 1 1
1 1 1 1
1 1 1 1
0.999998 1 1 0.999998
1 1 1 1
0.999993 1 1 0.999993
1 1 1 1
1 1 1 1
1 1 1 1
1 1 1 1
1 1 1 1
1.0048 1.00588 1 0.998928
1.0048 1.00596 1 0.998845
1.00367 1.00462 1 0.999055
1.01112 1.0153 0.99672 0.999155
1.00476 1.00581 1 0.998959
1.01738 1.01886 0.999396 0.999149
1.01661 1.01773 1.00002 0.998873
0.978374 0.984914 0.995879 0.997471
1.01546 1.01725 0.998977 0.999263
0.999885 1 1 0.999885
0.999877 1 1 0.999877
0.999723 1 1 0.999723
0.99974 1 1 0.99974
1.00464 1.00577 1 0.998875
1.00704 1.00813 1 0.998923
1.00339 1.00473 0.999481 0.999182
0.999293 1 1 0.999293
1.00319 1 1.00442 0.998784
0.999883 1.00077 1.00013 0.998983
0.99952 1 1.00021 0.999314
0.999799 1 1.0006 0.999203
0.999312 1 1 0.999312
0.999809 1 1 0.999809
0.999443 1 1 0.999443
0.999609 1 1 0.999609
0.999866 1 1 0.999866
0.999653 1 1 0.999653
1.00627 1.00733 1.00003 0.998909
0.9997 1 1 0.9997
0.999634 1 1 0.999634
0.999555 1 1 0.999555
1.00794 1.01061 0.998305 0.999055
1.00037 1.00177 0.999541 0.999067
1.00256 1 1.00339 0.999177
1.00144 1.00005 1.00253 0.998853
0.99947 1 1 0.99947
0.999365 1 1 0.999365
1.00119 1 1.00207 0.999126
0.999501 1 1.0003 0.999197
1.01588 1.01701 0.999954 0.998937
1.00397 1.00853 0.996443 0.999024
1.00034 1.00081 1.00073 0.998813
1.00172 1 1.00265 0.999068
0.999516 1 1 0.999516
0.9995 1 1 0.9995
0.999321 1 1 0.999321
1.00258 1 1.00352 0.999056
0.950399 0.963953 0.991062 0.994831
0.999353 1 1 0.999353
0.999195 1 1 0.999195
1.01345 1.01641 0.997951 0.999136
1.00538 1.00781 0.99857 0.999016
1.00245 1.00043 1.0033 0.99873
1.00193 1 1.00297 0.998954
1.01117 1.01313 0.999078 0.998983
0.999269 1 1 0.999269
1.00061 1.0111 0.990558 0.999058
0.999632 1 1.00048 0.999156
1.00472 1 1.00585 0.998873
1.00046 1.00133 1.00031 0.998822
0.95661 0.965085 0.996004 0.995195
0.99696 0.99544 1.00444 0.997099
0.993002 1.0097 0.984179 0.999269
0.929939 0.943271 0.988912 0.996919
0.914693 0.952182 0.962909 0.997631
0.999285 1 1 0.999285
0.930032 0.941832 0.990904 0.996535
0.941317 0.960224 0.982283 0.997991
0.978081 1.00252 0.976532 0.999071
1.00273 1 1.00358 0.999151
1.00893 1 1.00998 0.998961
0.99245 1.00814 0.985106 0.99932
0.968844 0.970824 1.0033 0.994678
1.00244 0.998124 1.00745 0.996896
0.92112 0.946653 0.975776 0.997184
0.956617 0.986644 0.971035 0.998488
0.999341 1 1 0.999341
0.999314 1 1 0.999314
0.999329 1 1 0.999329
0.99981 1 1 0.99981
0.999657 1 1 0.999657
0.999532 1 1 0.999532
0.999466 1 1 0.999466
0.999359 1 1 0.999359
0.999785 1 1 0.999785
0.999483 1 1 0.999483
0.999535 1 1 0.999535
0.999642 1 1 0.999642
0.999384 1 1 0.999384
0.999437 1 1 0.999437
0.999555 1 1.0002 0.999358
0.999535 1 1 0.999535
0.999654 1 1 0.999654
0.999661 1 1 0.999661
0.999549 1 1 0.999549
0.999547 1 1 0.999547
0.999535 1 1 0.999535
0.99948 1 1 0.99948
0.999458 1 1 0.999458
0.999628 1 1 0.999628
0.999651 1 1 0.999651
0.999803 1 1 0.999803
0.999644 1 1 0.999644
0.999799 1 1 0.999799
0.999985 1 1 0.999985
0.999787 1 1 0.999787
0.999986 1 1 0.999986
1 1 1 1
0.999986 1 1 0.999986
1 1 1 1
1 1 1 1
1 1 1 1
1 1 1 1
1 1 1 1
0.999881 1 1 0.999881
1 1 1 1
1 1 1 1
1 1 1 1
0.999998 1 1 0.999998
1 1 1 1
1 1 1 1
1 1 1 1
1 1 1 1
1 1 1 1
1.0126 1.01564 0.99783 0.99917
1.00456 1.00561 1 0.998957
1.01801 1.01943 0.999501 0.99911
0.980262 0.98446 0.997761 0.99797
1.01556 1.017 0.999298 0.999285
1.01757 1.01883 0.999903 0.998859
1.01962 1.01934 1.00128 0.998995
0.984751 0.986526 1.00026 0.997946
0.958539 0.966837 0.997286 0.994115
0.914627 0.939332 0.977382 0.996233
0.916688 0.949981 0.967125 0.997756
0.999716 1 1 0.999716
0.999884 1 1 0.999884
0.999877 1 1 0.999877
0.999716 1 1 0.999716
0.999616 1 1 0.999616
0.99964 1 1 0.99964
0.999724 1 1 0.999724
0.999731 1 1 0.999731
1.00474 1.0058 1.00003 0.998926
1.0095 1.01133 0.999126 0.999064
0.999636 1.00126 0.999317 0.999064
1.00254 1 1.00337 0.999175
1.00158 1.00002 1.00272 0.998841
1.00029 1 1.00116 0.999126
0.999761 1 1.00058 0.99918
0.999371 1 1 0.999371
0.999646 1 1 0.999646
0.999474 1 1 0.999474
0.999723 1 1 0.999723
0.999552 1 1 0.999552
1.01612 1.01777 0.999465 0.998913
0.999526 1 1 0.999526
0.9995 1 1 0.9995
1.00344 1.0077 0.99675 0.99902
1.00031 1.00105 1.0004 0.998859
1.00265 1 1.00362 0.999037
0.999314 1 1 0.999314
1.00248 1 1.00342 0.999059
1.00839 1.01774 0.991935 0.998864
0.995538 1.00151 0.995104 0.998925
0.99998 1 1.00103 0.998949
1.00517 1 1.00613 0.999053
0.999442 1 1 0.999442
0.999363 1 1 0.999363
0.999718 1 1.00054 0.999175
0.922198 0.942534 0.981447 0.99692
0.957118 0.965827 0.995853 0.99511
0.999277 1 1 0.999277
0.999391 1 1.00023 0.999159
1.00087 1.01137 0.990555 0.999046
0.999787 1.00155 0.999411 0.998833
1.00443 1 1.00556 0.998877
0.958273 0.966254 0.997698 0.994028
0.996798 0.996204 1.00279 0.99781
0.996539 1.01077 0.986606 0.999308
0.92445 0.944053 0.982715 0.99646
0.905362 0.945383 0.960094 0.997473
0.999284 1 1 0.999284
0.924663 0.944898 0.981517 0.997013
0.943809 0.958808 0.986348 0.997981
0.980198 1.00275 0.978426 0.999061
1.0023 1 1.00315 0.999157
1.00812 1 1.00915 0.998981
0.986178 1.0053 0.981647 0.99932
0.969901 0.972128 1.0034 0.994332
0.999366 0.99528 1.0064 0.997723
0.922954 0.94608 0.979115 0.996365
0.954576 0.985781 0.969933 0.998363
0.99929 1 1 0.99929
0.95564 0.959858 0.997158 0.998444
1.00384 1.00525 0.999418 0.999171
0.986635 1 0.987361 0.999264
1.00744 1 1.00812 0.999328
1.00652 1.00147 1.00541 0.999633
0.99258 0.99257 1.00151 0.998503
0.974818 0.972624 1.00781 0.994484
0.940235 0.967447 0.975441 0.996341
0.978402 1.00724 0.972459 0.998876
0.999315 1 1 0.999315
0.999318 1 1 0.999318
0.999782 1 1.00042 0.999361
0.999785 1 1 0.999785
0.999655 1 1 0.999655
0.99955 1 1 0.99955
0.999484 1 1 0.999484
0.999373 1 1 0.999373
0.999653 1 1 0.999653
0.999447 1 1 0.999447
0.999535 1 1 0.999535
0.999603 1 1.00024 0.999358
0.999922 1 1.00055 0.999368
0.999513 1 1.00009 0.999427
0.999539 1 1 0.999539
0.999661 1 1 0.999661
0.999535 1 1 0.999535
0.999547 1 1 0.999547
0.999535 1 1 0.999535
0.999477 1 1 0.999477
0.999503 1 1 0.999503
0.99947 1 1 0.99947
0.999433 1 1 0.999433
0.999357 1 1 0.999357
0.99934 1 1.00002 0.999317
0.999417 1 1 0.999417
0.999458 1 1 0.999458
0.999594 1 1 0.999594
0.999627 1 1 0.999627
0.99979 1 1 0.99979
0.999651 1 1 0.999651
0.999803 1 1 0.999803
0.999983 1 1 0.999983
0.999788 1 1 0.999788
0.999984 1 1 0.999984
1 1 1 1
0.999985 1 1 0.999985
1 1 1 1
1 1 1 1
1 1 1 1
1 1 1 1
1 1 1 1
0.999892 1 1 0.999892
1 1 1 1
0.999881 1 1 0.999881
1 1 1 1
1 1 1 1
0.999999 1 1 0.999999
1 1 1 1
1 1 1 1
1 1 1 1
1 1 1 1
1 1 1 1
0.924487 0.942083 0.98407 0.997208
0.94691 0.960193 0.987874 0.998271
0.983231 0.98512 0.999735 0.998347
1.01561 1.01672 0.999606 0.999307
1.01859 1.01999 0.999785 0.998846
0.984444 0.985026 1.00061 0.998801
1.01886 1.01911 1.00076 0.999003
0.961342 0.96893 0.997097 0.995057
0.923915 0.940804 0.984848 0.997158
0.9106 0.947957 0.962901 0.997602
1.00076 0.999049 1.00255 0.999169
0.968268 0.970739 1.00252 0.99495
0.917222 0.944324 0.974077 0.997149
0.954851 0.983409 0.972738 0.998172
0.999577 1 1 0.999577
0.999726 1 1 0.999726
0.999884 1 1 0.999884
0.99971 1 1 0.99971
0.999628 1 1 0.999628
0.999596 1 1 0.999596
0.999641 1 1 0.999641
0.999662 1 1 0.999662
0.999711 1 1 0.999711
0.999721 1 1 0.999721
1.01637 1.01849 0.999025 0.998891
1.00224 1.00618 0.997063 0.999016
1.00018 1.00114 1.00013 0.998905
1.00331 1 1.0043 0.999005
1.00223 1 1.00317 0.999063
0.999308 1 1 0.999308
0.9995 1 1 0.9995
0.999537 1 1 0.999537
1.00964 1.01796 0.992985 0.998836
0.999436 1 1 0.999436
0.999348 1 1 0.999348
0.996306 1.00132 0.9961 0.998892
1.00032 1 1.00133 0.998988
1.00404 1 1.00502 0.999026
1.00064 1 1.00147 0.999168
1.01004 1.01144 0.999789 0.998827
1.0004 1 1.00124 0.999162
1.00454 1 1.00546 0.999087
0.999425 1 1 0.999425
0.999334 1 1 0.999334
0.999219 1 1 0.999219
0.957398 0.96401 0.994705 0.998428
0.925613 0.942369 0.985809 0.996359
0.954242 0.965972 0.993017 0.994804
0.999283 1 1 0.999283
1.00183 1 1.00267 0.999163
0.982475 1.00293 0.980537 0.999052
1.0075 1 1.0085 0.999001
0.923134 0.945009 0.98047 0.996311
0.9685 0.971342 1.00154 0.995543
1.00038 0.997075 1.00639 0.996946
0.983462 1.0029 0.981276 0.999327
0.926303 0.944942 0.982974 0.997254
0.944553 0.959936 0.986049 0.997897
0.949402 0.983004 0.967568 0.99819
0.999317 1 1.00003 0.999288
0.95303 0.960703 0.993627 0.998375
1.00322 1.00449 0.999562 0.999177
0.989663 1 0.990381 0.999275
1.00754 1 1.00821 0.999331
1.0064 1.00215 1.00499 0.999247
0.994036 0.992686 1.00404 0.997326
0.973166 0.973879 1.0049 0.994392
0.942974 0.969674 0.974981 0.997419
0.972153 1.00117 0.972272 0.998708
0.999721 1 1.00021 0.999512
1.00875 1.00955 0.999791 0.999414
1.01876 1.01757 1.00161 0.999561
1.00754 0.999811 1.00802 0.999715
0.996224 0.990957 1.00605 0.999268
0.977235 0.977296 1.00566 0.99431
0.968326 0.98503 0.985403 0.997604
0.976725 1.00817 0.970104 0.998669
0.999307 1 1 0.999307
0.999732 1 1.00036 0.999377
1.00075 1 1.0013 0.999451
0.999653 1 1 0.999653
0.999534 1 1 0.999534
0.999458 1 1 0.999458
0.999639 1 1.00028 0.999357
0.999539 1 1 0.999539
0.999458 1 1.00003 0.999427
1.00031 1 1.00093 0.999374
1.00031 1 1.00086 0.999456
0.999586 1 1.00021 0.999374
0.99946 1 1 0.99946
0.999547 1 1 0.999547
0.999534 1 1 0.999534
0.999474 1 1 0.999474
0.999472 1 1 0.999472
0.999503 1 1 0.999503
0.999438 1 1 0.999438
0.999401 1 1 0.999401
0.999411 1 1 0.999411
0.999329 1 1 0.999329
0.999362 1 1 0.999362
0.999324 1 1.00002 0.999308
0.999222 1 1 0.999222
0.999426 1 1 0.999426
0.999367 1 1.00001 0.999354
0.999432 1 1 0.999432
0.999537 1 1 0.999537
0.999458 1 1 0.999458
0.999594 1 1 0.999594
0.999767 1 1 0.999767
0.999626 1 1 0.999626
0.999789 1 1 0.999789
0.999979 1 1 0.999979
0.999803 1 1 0.999803
0.999982 1 1 0.999982
1 1 1 1
0.999984 1 1 0.999984
1 1 1 1
1 1 1 1
1 1 1 1
1 1 1 1
1 1 1 1
0.999841 1 1 0.999841
0.999999 1 1 0.999999
0.99987 1 1 0.99987
1 1 1 1
1 1 1 1
0.999881 1 1 0.999881
1 1 1 1
1 1 1 1
1 1 1 1
1 1 1 1
1 1 1 1
1 1 1 1
0.95823 0.962456 0.997005 0.9986
0.924512 0.941844 0.984841 0.996707
1.00195 1.00551 0.997326 0.999129
0.942768 0.957891 0.986009 0.998177
0.980555 0.983685 0.999047 0.997769
1.01785 1.0189 0.999959 0.999009
0.962176 0.96872 0.997216 0.996018
0.921469 0.942596 0.981209 0.996307
0.904281 0.945915 0.958432 0.997448
0.998075 0.999422 0.999884 0.998767
0.968615 0.969834 1.00412 0.994648
0.920065 0.947986 0.974163 0.996288
0.953634 0.983005 0.971927 0.998142
0.997711 1.0001 0.99874 0.998868
0.97041 0.970627 1.00538 0.994425
0.945544 0.971153 0.976212 0.997356
0.97737 1.00661 0.972175 0.99874
0.999494 1 1 0.999494
0.999591 1 1 0.999591
0.999735 1 1 0.999735
0.99964 1 1 0.99964
0.999515 1 1 0.999515
0.999606 1 1 0.999606
0.999643 1 1 0.999643
0.999646 1 1 0.999646
0.999676 1 1 0.999676
0.999698 1 1 0.999698
1.01147 1.01881 0.993985 0.998809
0.997354 1.00143 0.99707 0.99886
1.00062 1 1.00159 0.999027
1.00323 1 1.00424 0.998999
1.00164 1 1.00249 0.999161
0.999333 1 1 0.999333
0.99943 1 1 0.99943
0.999426 1 1 0.999426
1.00546 1.00973 0.996917 0.998847
0.999343 1 1 0.999343
0.999308 1 1.00009 0.999217
0.998809 1 0.99969 0.999119
1.00407 1 1.00498 0.999087
0.996956 1.00688 0.991007 0.999131
1.0132 1 1.01386 0.999347
0.999961 1 1.00078 0.999181
0.999355 1 1 0.999355
0.999225 1 1 0.999225
1.01256 1.01329 0.999768 0.999511
0.958583 0.963281 0.996569 0.99855
0.925371 0.943228 0.983842 0.997181
0.999375 1 1.00009 0.999286
1.00726 1 1.00793 0.999334
0.991104 1 0.991814 0.999284
0.958043 0.962093 0.997223 0.998564
0.972813 0.971739 1.00685 0.99429
0.996338 0.994046 1.00406 0.998249
1.00134 1.00191 1.0006 0.998837
0.941081 0.966828 0.976943 0.996343
1.00205 1.00317 0.999704 0.999182
0.968232 0.997716 0.971678 0.998735
0.999792 1 1.00027 0.999526
1.00712 1.00768 0.999932 0.999514
1.02067 1.01912 1.00196 0.999568
1.00714 0.999741 1.00781 0.999598
0.995854 0.992583 1.00438 0.998921
0.981869 0.97959 1.00818 0.994195
0.979337 1.01223 0.968647 0.998824
0.954874 0.977731 0.979496 0.997066
1.00026 0.999848 1.0007 0.999711
1.02219 1.02204 1.00029 0.999862
1.02698 1.02459 1.00271 0.999623
0.978995 1.0067 0.973706 0.998742
1.00315 0.991605 1.01189 0.999756
0.979339 0.978692 1.00602 0.994674
0.949212 0.967501 0.983591 0.997464
0.99966 1 1.00027 0.999393
1.00051 1 1.00109 0.999415
1.00312 1 1.00355 0.999566
0.999539 1 1 0.999539
0.999427 1 1 0.999427
1.00076 1 1.00138 0.99938
0.999462 1 1 0.999462
0.999698 1 1.00033 0.999373
1.00069 1 1.00126 0.999429
0.999853 1 1.00035 0.999498
0.999386 1 1 0.999386
0.999474 1 1 0.999474
0.999502 1 1 0.999502
0.999443 1 1 0.999443
0.99941 1 1 0.99941
0.999406 1 1 0.999406
0.999382 1 1 0.999382
0.999354 1 1 0.999354
1.00097 1 1.00181 0.999164
0.999367 1 1 0.999367
0.999353 1 1.00005 0.999303
0.999254 1 1.00014 0.999109
0.999222 1 1 0.999222
0.999389 1 1 0.999389
0.999288 1 1.00006 0.999224
0.999518 1 1 0.999518
0.999415 1 1 0.999415
0.999391 1 1 0.999391
0.999447 1 1 0.999447
0.999551 1 1 0.999551
0.999734 1 1 0.999734
0.999593 1 1 0.999593
0.999766 1 1 0.999766
0.999973 1 1 0.999973
0.999789 1 1 0.999789
0.999978 1 1 0.999978
1 1 1 1
0.999981 1 1 0.999981
1 1 1 1
1 1 1 1
1 1 1 1
1 1 1 1
1 1 1 1
0.999772 1 1 0.999772
0.999967 1 1 0.999967
0.99984 1 1 0.99984
1 1 1 1
0.999987 1 1 0.999987
0.999847 1 1 0.999847
1 1 1 1
1 1 1 1
1 1 1 1
1 1 1 1
1 1 1 1
1 1 1 1
1.00889 1.00977 0.999662 0.999464
0.95206 0.961867 0.991443 0.998348
0.927237 0.941873 0.98798 0.996438
0.999597 1 1 0.999597
1.01878 1.01734 1.00177 0.999649
1.00323 1.00558 0.998525 0.999135
0.936403 0.957163 0.980275 0.997996
0.996196 0.9999 0.997963 0.99833
0.970567 0.971416 1.00427 0.994876
0.924315 0.951723 0.973955 0.997174
0.94928 0.980988 0.969591 0.998027
1.00044 1.00317 0.999511 0.997764
0.96885 0.970106 1.00414 0.994585
0.9468 0.97088 0.978181 0.996951
0.975963 1.00569 0.971798 0.998601
0.993765 0.994141 1.00239 0.997241
0.975452 0.972303 1.00984 0.993466
0.955511 0.979652 0.97864 0.996646
0.977229 1.00914 0.969679 0.998658
0.999415 1 1 0.999415
0.999486 1 1 0.999486
0.999604 1 1 0.999604
0.9995 1 1 0.9995
0.999532 1 1 0.999532
0.999615 1 1 0.999615
0.99965 1 1 0.99965
0.999689 1 1 0.999689
1.00094 1.00784 0.994281 0.998867
0.99723 1 0.998153 0.999076
0.999428 1 1 0.999428
1.00346 1 1.00438 0.999087
0.999382 1 1.00017 0.999215
0.999352 1 1 0.999352
0.999357 1 1 0.999357
1.00132 1.00755 0.994682 0.999137
0.999237 1 1 0.999237
1.00078 1 1.0016 0.999176
1.01032 1 1.01099 0.999337
0.999363 1 1 0.999363
0.992758 1.00013 0.993084 0.999543
1.01308 1 1.01363 0.999454
0.999258 1 1 0.999258
0.999297 1 1 0.999297
1.02307 1.02385 0.99935 0.999883
1.01212 1.01289 0.999723 0.999518
0.959654 0.962319 0.998555 0.998674
0.999982 1 1.00044 0.999541
1.00773 0.999579 1.00868 0.999482
1.00565 1.00604 0.999995 0.999614
0.97834 0.975614 1.00846 0.994379
0.998906 0.993376 1.00778 0.997807
0.956498 0.979004 0.980343 0.996603
1.02258 1.02064 1.00233 0.999576
0.983157 1.01708 0.967634 0.998979
1.00028 0.999632 1.00097 0.999678
1.02263 1.02283 0.999936 0.999865
1.02653 1.0244 1.00238 0.999699
1.00589 0.994156 1.01188 0.999931
0.976827 1.00556 0.972788 0.998598
0.979186 0.978764 1.00567 0.994793
0.953332 0.974776 0.981424 0.996513
1.00521 0.996696 1.00878 0.999771
1.02526 1.02443 1.00091 0.999896
1.0188 1.01791 1.00122 0.99965
0.956099 0.983748 0.97366 0.998187
0.954308 0.979509 0.977572 0.996624
0.997369 0.990277 1.00713 1.00003
0.978521 0.972962 1.01141 0.994367
1.00027 1 1.00089 0.999379
1.00223 1 1.00268 0.99955
1.01088 0.998695 1.01262 0.999582
0.999464 1 1 0.999464
0.999737 1 1.00037 0.999371
1.00094 1 1.00154 0.999403
0.999385 1 1 0.999385
0.999931 1 1.00043 0.999498
1.0031 1 1.00369 0.999409
0.99941 1 1 0.99941
0.999411 1 1 0.999411
0.999546 1 1.00018 0.999367
1.00405 1 1.00486 0.999196
0.999379 1 1 0.999379
1.00042 1 1.00123 0.999194
1.00228 1 1.00329 0.998996
0.999744 1 1.00072 0.999024
0.999362 1 1.00006 0.999298
0.999237 1 1.00015 0.999083
0.999288 1 1 0.999288
0.99935 1 1 0.99935
0.999243 1 1 0.999243
0.999499 1 1 0.999499
0.999387 1 1 0.999387
0.999354 1 1.00013 0.999227
0.999697 1 1 0.999697
0.999513 1 1 0.999513
0.999403 1 1 0.999403
0.999564 1 1 0.999564
0.999733 1 1 0.999733
0.999963 1 1 0.999963
0.999766 1 1 0.999766
0.999971 1 1 0.999971
1 1 1 1
0.999976 1 1 0.999976
1 1 1 1
1 1 1 1
1 1 1 1
1 1 1 1
1 1 1 1
0.999741 1 1 0.999741
0.999947 1 1 0.999947
0.999785 1 1 0.999785
1 1 1 1
0.999966 1 1 0.999966
0.999838 1 1 0.999838
1 1 1 1
1 1 1 1
0.999974 1 1 0.999974
1 1 1 1
1 1 1 1
1 1 1 1
1.02308 1.02321 1.00002 0.999853
1.00888 1.00971 0.999705 0.99947
0.952829 0.961647 0.992458 0.99836
0.999602 1 1 0.999602
0.999566 1 1 0.999566
0.999507 1 1 0.999507
1.02746 1.02362 1.00413 0.999619
1.01899 1.01746 1.00184 0.999657
1.00419 1.00565 0.999409 0.99914
1.00668 1.00501 1.00298 0.99869
0.97106 0.970649 1.00596 0.994493
0.943922 0.968595 0.978116 0.99633
0.976423 1.00731 0.970627 0.998673
0.989133 0.990122 1.00077 0.998236
0.972708 0.972121 1.00625 0.994384
0.956625 0.977581 0.981024 0.997491
0.980208 1.01285 0.968923 0.998817
0.982763 0.985513 0.999051 0.998156
0.981218 0.975001 1.0119 0.994539
0.951575 0.9691 0.984442 0.997435
0.977553 1.00568 0.973137 0.998864
0.999397 1 1 0.999397
0.999414 1 1 0.999414
0.999478 1 1 0.999478
0.999499 1 1 0.999499
0.999548 1 1 0.999548
0.999655 1 1 0.999655
1.00528 1.00797 0.99819 0.999143
1.0069 1 1.00758 0.999327
0.999359 1 1 0.999359
1.00148 1 1.00231 0.999171
0.99925 1 1 0.99925
0.999357 1 1 0.999357
0.999296 1 1 0.999296
0.999758 1.00211 0.998118 0.999534
0.999284 1 1 0.999284
1.0118 0.998622 1.01372 0.99948
0.99935 1 1 0.99935
1.01467 0.994762 1.02027 0.999754
0.997124 0.997059 1.00044 0.999629
0.999301 1 1 0.999301
1.02336 1.02394 0.999502 0.999923
1.02305 1.02387 0.999306 0.999894
1.01164 1.01248 0.99965 0.999524
1.00019 0.99954 1.001 0.999644
1.00031 0.994243 1.00616 0.99995
1.02296 1.02351 0.99959 0.999867
0.987143 0.982438 1.00823 0.996585
0.960478 0.977205 0.985223 0.997625
1.02595 1.02417 1.00197 0.999776
0.977213 1.00724 0.971474 0.998672
1.0044 0.99775 1.00687 0.999788
1.02518 1.02451 1.00076 0.999903
1.01899 1.018 1.00131 0.999658
0.997664 0.988218 1.01081 0.99876
0.955222 0.983725 0.972823 0.998152
0.954908 0.977728 0.979151 0.997457
0.986057 0.977793 1.01383 0.994692
1.02167 0.996148 1.02574 0.99989
1.02338 1.02359 0.999938 0.999851
1.00357 1.00656 0.997898 0.999128
0.917992 0.950301 0.968164 0.997766
0.944995 0.969997 0.976771 0.997394
0.986091 0.977949 1.01382 0.994577
0.973618 0.983638 0.99141 0.99839
1.0012 1 1.00167 0.999534
1.01251 0.999258 1.01369 0.999586
1.0195 1 1.01998 0.999529
0.999383 1 1 0.999383
1.00005 1 1.00055 0.999497
1.00247 1 1.00305 0.999422
1.01172 1 1.01249 0.999246
0.999679 1 1.00033 0.999352
1.00393 1 1.00477 0.999162
1.0086 1 1.0097 0.998918
0.999899 1 1.00067 0.999224
1.00302 1 1.00403 0.99899
1.00318 1 1.00435 0.998837
0.999569 1 1.00069 0.998882
0.99953 1 1.00033 0.999197
0.999786 1 1.00078 0.999008
0.99929 1 1.00023 0.999056
0.999363 1 1 0.999363
0.999311 1 1 0.999311
0.999441 1 1 0.999441
0.999364 1 1 0.999364
0.999263 1 1 0.999263
0.999655 1 1 0.999655
0.9995 1 1 0.9995
0.999384 1 1 0.999384
0.999945 1 1 0.999945
0.999697 1 1 0.999697
0.999508 1 1 0.999508
0.999733 1 1 0.999733
0.999959 1 1 0.999959
1 1 1 1
0.999968 1 1 0.999968
1 1 1 1
1 1 1 1
1 1 1 1
1 1 1 1
1 1 1 1
0.999737 1 1 0.999737
0.999964 1 1 0.999964
0.999751 1 1 0.999751
1 1 1 1
0.999964 1 1 0.999964
0.999798 1 1 0.999798
1 1 1 1
1 1 1 1
0.999965 1 1 0.999965
1 1 1 1
1 1 1 1
1 1 1 1
1.02615 1.02414 1.00207 0.999893
1.02423 1.02354 1.00082 0.999856
1.00914 1.00961 1.00006 0.999476
0.999551 1 1 0.999551
0.999482 1 1 0.999482
0.999607 1 1 0.999607
0.999563 1 1 0.999563
0.999494 1 1 0.999494
0.999484 1 1 0.999484
0.99943 1 1 0.99943
1.01832 1.01588 1.00285 0.999556
1.02676 1.02349 1.0035 0.999694
1.01943 1.01759 1.00215 0.999666
0.984188 1.01734 0.968409 0.998976
0.989546 0.991412 1.00082 0.997304
0.9765 0.97492 1.00638 0.995277
0.958232 0.973714 0.987594 0.996463
0.982155 0.985635 0.998832 0.997633
0.978509 0.974893 1.00934 0.994422
0.95664 0.977048 0.982485 0.996567
0.972873 1.00115 0.973046 0.998677
0.975353 0.980529 0.996103 0.998613
0.974784 0.976249 1.0042 0.99432
0.973078 0.988247 0.987076 0.997544
0.955788 0.985323 0.971514 0.998467
0.999392 1 1 0.999392
0.999395 1 1 0.999395
0.999413 1 1 0.999413
0.999498 1 1 0.999498
1.0069 1.00401 1.00335 0.999525
1.01135 0.997437 1.01445 0.999505
0.99935 1 1 0.99935
0.999295 1 1 0.999295
0.999309 1 1 0.999309
0.999349 1 1 0.999349
0.99929 1 1 0.99929
1.00895 0.99318 1.01618 0.999699
0.998599 0.998479 1.00044 0.999683
0.999323 1 1 0.999323
1.01302 0.9886 1.02483 0.999878
1.00285 0.999514 1.00395 0.999392
1.02387 1.02424 0.999753 0.99988
1.02205 1.02267 0.999468 0.999929
1.0231 1.02388 0.999332 0.999904
1.00369 0.998778 1.00511 0.999805
0.998523 0.987704 1.01096 0.99999
1.02532 1.02471 1.00068 0.99991
0.977894 0.972815 1.01087 0.994413
0.957382 0.973503 0.986951 0.996443
1.0194 1.01812 1.0016 0.999667
0.951725 0.981738 0.971325 0.998047
1.02386 0.995488 1.02863 0.999873
1.02404 1.02379 1.00039 0.999854
1.00487 1.0067 0.999055 0.999133
0.977751 0.986492 0.99147 0.999666
0.91193 0.948302 0.963943 0.997616
0.944714 0.968656 0.978235 0.996983
0.988987 0.978646 1.01575 0.994893
1.0084 0.992714 1.01598 0.999819
1.00994 1.01045 1.00004 0.99946
0.948191 0.960938 0.988429 0.998287
0.918738 0.9437 0.976328 0.997153
0.980053 0.974751 1.01099 0.994508
0.971352 0.983033 0.990359 0.997737
1.01446 1 1.01487 0.99959
1.01982 0.999656 1.02066 0.999523
1.01364 1 1.01423 0.999418
1.00189 1 1.00245 0.999435
1.01219 1 1.01293 0.999274
1.00919 1 1.01025 0.99895
1.00388 1 1.00475 0.999129
1.00883 1 1.00995 0.998891
1.00395 1 1.00522 0.998732
1.0037 1 1.00472 0.998985
1.00294 1 1.00413 0.998814
1.00142 1 1.00268 0.998751
0.998849 1 1 0.998849
0.999214 1 1.00018 0.999034
0.99976 1 1.0009 0.998858
0.999309 1 1 0.999309
0.999355 1 1.00014 0.999212
0.99975 1 1.00076 0.998992
0.9994 1 1 0.9994
0.999357 1 1 0.999357
0.999334 1 1 0.999334
0.999597 1 1 0.999597
0.999453 1 1 0.999453
0.999379 1 1 0.999379
0.99991 1 1 0.99991
0.999656 1 1 0.999656
0.999501 1 1 0.999501
1 1 1 1
0.999941 1 1 0.999941
0.999697 1 1 0.999697
0.999956 1 1 0.999956
1 1 1 1
1 1 1 1
1 1 1 1
1 1 1 1
1 1 1 1
0.999549 1 1 0.999549
0.99971 1 1 0.99971
0.999953 1 1 0.999953
0.999737 1 1 0.999737
1 1 1 1
0.999968 1 1 0.999968
0.999762 1 1 0.999762
1 1 1 1
1 1 1 1
0.999981 1 1 0.999981
1 1 1 1
1 1 1 1
1 1 1 1
1.02275 1.02141 1.00145 0.99986
1.02615 1.02435 1.00186 0.9999
1.02489 1.02386 1.00115 0.999859
0.999556 1 1 0.999556
0.999473 1 1 0.999473
0.999443 1 1 0.999443
0.999469 1 1 0.999469
0.99943 1 1 0.99943
0.999561 1 1 0.999561
0.999481 1 1 0.999481
0.999484 1 1 0.999484
0.999426 1 1 0.999426
0.999431 1 1 0.999431
1.00272 1.00361 0.999953 0.999158
1.02019 1.0174 1.00318 0.999563
1.02582 1.02318 1.00281 0.99977
0.96887 0.997752 0.972308 0.998709
0.960585 0.977287 0.985253 0.997621
0.976636 0.982301 0.997095 0.997129
0.979042 0.978172 1.0064 0.994523
0.976031 0.980248 0.998181 0.997513
0.981277 0.978199 1.00872 0.994477
0.960023 0.980917 0.981598 0.997047
0.954703 0.984645 0.971202 0.998341
0.988303 0.980796 1.00978 0.997893
0.976699 0.978817 1.0032 0.994648
0.941859 0.967897 0.976679 0.996334
0.92241 0.957917 0.965097 0.997758
0.999504 1 1 0.999504
0.999392 1 1 0.999392
0.999393 1 1 0.999393
1.00317 0.991611 1.01201 0.999644
0.999287 0.99914 1.00041 0.999741
0.999349 1 1 0.999349
0.99928 1 1 0.99928
0.999366 1 1.00003 0.999333
1.0033 0.999479 1.00444 0.999388
1.01208 0.989549 1.02288 0.999885
1.00376 1 1.00435 0.999408
1.01004 0.996434 1.01406 0.999606
1.01084 1.01135 1 0.999495
1.02377 1.02417 0.999712 0.999892
1.02074 1.02141 0.999408 0.999935
1.0258 0.994803 1.03131 0.999855
0.976985 0.985887 0.992865 0.998093
1.02436 1.02397 1.00052 0.999857
0.979985 0.9765 1.01021 0.993426
0.943085 0.967545 0.978236 0.996406
1.00581 1.00685 0.999836 0.999138
0.905865 0.946543 0.959456 0.997465
1.00917 0.99346 1.01598 0.999831
1.01001 1.01056 0.999993 0.999465
0.944186 0.958653 0.986693 0.998192
0.969849 0.983732 0.987501 0.998365
0.921286 0.947682 0.975741 0.996315
0.975922 0.974461 1.00759 0.993953
0.98934 0.993157 0.99662 0.999536
0.958739 0.962669 0.9973 0.998614
0.916456 0.939516 0.979124 0.996253
0.973892 0.972125 1.00742 0.994434
0.991175 0.990747 1.00203 0.998404
1.01971 0.999311 1.02091 0.999517
1.01601 1 1.0166 0.999414
0.99391 1 0.99473 0.999175
1.0125 1 1.0132 0.999302
1.00882 1 1.00985 0.998978
1.00187 1.00035 1.00272 0.99881
1.0089 1 1.01004 0.998863
1.00355 1 1.00482 0.998737
0.998837 1 1.00003 0.998803
1.00272 1 1.00393 0.998791
1.00082 1 1.00207 0.99876
0.999284 1.00041 1 0.998877
0.99896 1 1 0.99896
0.998951 1 1 0.998951
0.998857 1 1 0.998857
0.999183 1 1 0.999183
0.999335 1 1.00033 0.999007
0.999987 1 1.00115 0.998834
0.999397 1 1 0.999397
0.999327 1 1 0.999327
0.999227 1 1 0.999227
0.999538 1 1 0.999538
0.999404 1 1 0.999404
0.999351 1 1 0.999351
0.999853 1 1 0.999853
0.999597 1 1 0.999597
0.999465 1 1 0.999465
1 1 1 1
0.999908 1 1 0.999908
0.999657 1 1 0.999657
1 1 1 1
1 1 1 1
0.999938 1 1 0.999938
1 1 1 1
1 1 1 1
1 1 1 1
0.999512 1 1 0.999512
0.999681 1 1 0.999681
0.999542 1 1 0.999542
0.999943 1 1 0.999943
0.99971 1 1 0.99971
1 1 1 1
0.999956 1 1 0.999956
0.999737 1 1 0.999737
1 1 1 1
1 1 1 1
0.999971 1 1 0.999971
1 1 1 1
1 1 1 1
1 1 1 1
1.00886 1.00928 1 0.999586
1.02338 1.02235 1.00115 0.999862
1.02634 1.02462 1.00178 0.999908
0.999444 1 1 0.999444
0.999562 1 1 0.999562
0.999465 1 1 0.999465
0.999479 1 1 0.999479
0.999452 1 1 0.999452
0.999427 1 1 0.999427
0.999396 1 1 0.999396
0.999413 1 1 0.999413
0.999485 1 1 0.999485
0.999422 1 1 0.999422
0.999429 1 1 0.999429
0.999424 1 1 0.999424
0.943096 0.960241 0.984147 0.997965
1.00195 1.00265 1.00014 0.999162
1.02215 1.019 1.00353 0.999571
0.950152 0.982763 0.968614 0.998145
0.9633 0.983459 0.982805 0.99664
0.973968 0.975775 1.00383 0.994343
0.977602 0.978168 1.00081 0.998608
0.988125 0.979851 1.00946 0.998994
0.914755 0.951787 0.96339 0.997614
0.981087 0.977559 1.0097 0.993968
0.940379 0.967368 0.97471 0.997323
0.986795 0.987366 1.00037 0.999054
0.97525 0.973614 1.00686 0.994851
0.918117 0.94375 0.975645 0.997125
1.00007 1 1.00041 0.999666
0.999506 1 1 0.999506
0.999392 1 1 0.999392
1.01258 0.992096 1.02076 0.999887
1.00444 1 1.00506 0.999383
0.999393 1 1.00005 0.999343
1.00405 1 1.00465 0.999411
1.00914 0.997052 1.01251 0.999621
1.00819 0.999162 1.00939 0.99965
0.957868 0.963777 0.995618 0.998244
1.01173 1.01215 0.999986 0.9996
1.02373 1.0241 0.999735 0.999904
1.00967 0.993968 1.01596 0.999844
0.971786 0.986187 0.98656 0.998822
1.01027 1.01064 1.00016 0.999471
0.978191 0.975965 1.00692 0.995392
0.925649 0.951146 0.975937 0.997188
0.937762 0.95801 0.980812 0.998014
0.988429 0.993503 0.995326 0.999565
0.952495 0.962017 0.991728 0.998361
0.925518 0.940426 0.986921 0.99719
0.989587 0.987434 1.00483 0.997366
0.974432 0.973929 1.00599 0.994555
0.979 1.00012 0.979411 0.999465
0.925244 0.942459 0.984458 0.997233
0.971881 0.972102 1.005 0.994796
0.998846 0.997927 1.00373 0.997204
1.01929 1 1.01989 0.99941
0.990441 1 0.991235 0.999199
0.982873 1.00054 0.983231 0.999098
1.00866 1 1.00966 0.999007
1.00184 1.00052 1.00251 0.998812
0.999481 1.00102 0.999462 0.998997
1.00328 1 1.00454 0.998741
0.999233 1.00004 1.00037 0.998816
1.001 1.00194 1 0.999059
1.00023 1 1.00146 0.998769
0.999093 1.00021 1 0.998883
0.999532 1.00043 1 0.999102
0.999137 1 1 0.999137
0.998997 1 1 0.998997
0.998978 1 1 0.998978
0.999085 1 1 0.999085
0.998969 1 1 0.998969
0.998864 1 1 0.998864
0.999338 1 1 0.999338
0.999182 1 1 0.999182
0.999429 1 1.00045 0.99898
0.999505 1 1 0.999505
0.999396 1 1 0.999396
0.999345 1 1 0.999345
0.999784 1 1 0.999784
0.999539 1 1 0.999539
0.999408 1 1 0.999408
1 1 1 1
0.999852 1 1 0.999852
0.999598 1 1 0.999598
1 1 1 1
1 1 1 1
0.999906 1 1 0.999906
1 1 1 1
1 1 1 1
1 1 1 1
0.999511 1 1 0.999511
0.999515 1 1 0.999515
0.999647 1 1 0.999647
0.999929 1 1 0.999929
0.999681 1 1 0.999681
0.999535 1 1 0.999535
1 1 1 1
0.999946 1 1 0.999946
0.99971 1 1 0.99971
1 1 1 1
1 1 1 1
0.999959 1 1 0.999959
1 1 1 1
1 1 1 1
1 1 1 1
0.957781 0.961899 0.997266 0.998449
1.008 1.00841 1 0.999594
1.024 1.02328 1.00084 0.999865
0.999436 1 1 0.999436
0.999437 1 1 0.999437
0.9994 1 1 0.9994
0.999488 1 1 0.999488
0.99946 1 1 0.99946
0.999425 1 1 0.999425
0.999413 1 1 0.999413
0.999397 1 1 0.999397
0.999353 1 1 0.999353
0.99942 1 1 0.99942
0.999427 1 1 0.999427
0.999425 1 1 0.999425
0.923754 0.941376 0.984025 0.997211
0.943849 0.958789 0.986425 0.997965
1.00101 1.0015 1.00034 0.999167
0.907279 0.945846 0.961657 0.99747
0.93935 0.964569 0.977438 0.996333
0.989954 0.982912 1.01158 0.995634
0.99285 0.979539 1.01581 0.997817
0.986337 0.986116 1.0023 0.997926
0.920464 0.944597 0.978054 0.996317
0.978452 0.975715 1.00768 0.995167
0.989942 0.987438 1.0045 0.998048
0.975775 0.974918 1.00622 0.994692
1.0076 1 1.00819 0.999415
0.999923 1 1.00027 0.999656
0.999507 1 1 0.999507
1.0063 0.995818 1.0109 0.999636
1.00435 1 1.00494 0.999415
1.00811 0.999347 1.00918 0.9996
1.0014 1.00067 1.00146 0.999265
0.922099 0.943612 0.980185 0.996957
0.957927 0.962188 0.99711 0.998457
1.0126 1.01298 0.999918 0.999704
0.986451 0.993579 0.993226 0.999598
0.990082 0.987509 1.00434 0.998272
0.953355 0.961921 0.992711 0.998373
0.976236 0.972934 1.00896 0.994486
0.922541 0.94206 0.982894 0.996324
0.982517 1.00066 0.982463 0.999393
0.925309 0.942196 0.985323 0.996707
0.971908 0.97134 1.00604 0.994575
0.998265 0.993754 1.00639 0.998165
1.00189 1.00669 0.995985 0.999238
0.959632 0.967454 0.997864 0.994038
0.996236 0.998217 0.999457 0.998558
0.986975 1 0.987744 0.999222
0.984986 1.00061 0.985291 0.999081
0.987447 1.00164 0.986711 0.999106
1.00151 1.00065 1.00205 0.998814
0.999395 1.0014 0.999004 0.998992
1.00256 1.00498 0.998302 0.99929
0.999654 1.00011 1.00071 0.998829
1.00131 1.00225 1 0.999059
1.00277 1.0035 1 0.999275
0.998924 1.00004 1 0.998889
0.999426 1.00033 1 0.999102
0.999549 1.0003 1 0.999249
0.999224 1 1 0.999224
0.999157 1 1 0.999157
0.999122 1 1 0.999122
0.999074 1 1 0.999074
0.999 1 1 0.999
0.998996 1 1 0.998996
0.999219 1 1 0.999219
0.999105 1 1 0.999105
0.998986 1 1 0.998986
0.999466 1 1 0.999466
0.999335 1 1 0.999335
0.999182 1 1 0.999182
0.999729 1 1 0.999729
0.999506 1 1 0.999506
0.999394 1 1 0.999394
1 1 1 1
0.999784 1 1 0.999784
0.999541 1 1 0.999541
1 1 1 1
1 1 1 1
0.99985 1 1 0.99985
1 1 1 1
1 1 1 1
1 1 1 1
0.999484 1 1 0.999484
0.9995 1 1 0.9995
0.999613 1 1 0.999613
0.999518 1 1 0.999518
0.999646 1 1 0.999646
0.999902 1 1 0.999902
1 1 1 1
0.999931 1 1 0.999931
0.999681 1 1 0.999681
1 1 1 1
1 1 1 1
0.999948 1 1 0.999948
1 1 1 1
1 1 1 1
1 1 1 1
0.931649 0.943227 0.991143 0.996552
0.955198 0.961883 0.994752 0.998289
1.00704 1.00744 1 0.999603
0.999429 1 1 0.999429
0.999392 1 1 0.999392
0.999445 1 1 0.999445
0.999422 1 1 0.999422
0.99939 1 1 0.99939
0.999414 1 1 0.999414
0.999397 1 1 0.999397
0.999358 1 1 0.999358
0.99936 1 1 0.99936
0.999351 1 1 0.999351
0.99943 1 1.00026 0.999173
0.999421 1 1 0.999421
0.999427 1 1 0.999427
0.971147 0.97684 1.00027 0.993905
0.929868 0.943664 0.988501 0.996843
0.944063 0.95883 0.9867 0.997871
0.921283 0.944338 0.978331 0.997194
0.977057 0.973417 1.01015 0.993649
0.988349 0.986607 1.00267 0.999095
0.992664 0.99051 1.00354 0.998643
0.9752 0.976351 1.00396 0.994884
0.990608 0.998435 0.994196 0.997952
1.00587 1.00132 1.0057 0.998855
1.00606 1 1.00666 0.999403
0.999647 1 1 0.999647
1.00759 1 1.00804 0.999554
1.00045 1.001 1.00017 0.999278
0.951697 0.965648 0.990666 0.994838
0.926205 0.943502 0.985187 0.996427
0.958367 0.960602 0.999 0.998672
0.986285 1.00163 0.985349 0.999318
1.00023 0.995249 1.0078 0.997228
0.928418 0.942302 0.988805 0.996421
0.973543 0.971796 1.00707 0.994769
0.997626 1.00736 0.991103 0.999225
0.962055 0.968902 0.997964 0.99496
0.998229 1.00032 1.00034 0.997577
1.00605 1.00891 0.998224 0.99894
0.99766 0.996262 1.00236 0.999046
0.986153 1.00066 0.986426 0.999064
0.989883 1.00147 0.989344 0.999081
1.00545 1.01196 0.994423 0.999138
0.999469 1.00171 0.998773 0.998988
1.00149 1.00377 0.998447 0.999283
1.00634 1.0083 0.998718 0.999331
1.00162 1.00256 1 0.999058
1.00268 1.00342 0.999994 0.999263
1.00187 1.00261 0.999987 0.999278
0.999324 1.00022 1 0.999101
0.999457 1.00022 1 0.99924
0.999478 1.00025 1 0.999228
0.999248 1 1 0.999248
0.999168 1 1 0.999168
0.999176 1 1 0.999176
0.999117 1 1 0.999117
0.99911 1 1 0.99911
0.999155 1 1 0.999155
0.99907 1 1 0.99907
0.999003 1 1 0.999003
0.999394 1 1 0.999394
0.999233 1 1 0.999233
0.999125 1 1 0.999125
0.999689 1 1 0.999689
0.999464 1 1 0.999464
0.999332 1 1 0.999332
0.999994 1 1 0.999994
0.99973 1 1 0.99973
0.999507 1 1 0.999507
1 1 1 1
0.999999 1 1 0.999999
0.999783 1 1 0.999783
1 1 1 1
1 1 1 1
1 1 1 1
0.999443 1 1 0.999443
0.999485 1 1 0.999485
0.999562 1 1 0.999562
0.999489 1 1 0.999489
0.999602 1 1 0.999602
0.999854 1 1 0.999854
0.999646 1 1 0.999646
0.999903 1 1 0.999903
1 1 1 1
1 1 1 1
1 1 1 1
0.999932 1 1 0.999932
1 1 1 1
1 1 1 1
1 1 1 1
0.965704 0.971608 0.999049 0.99487
0.927167 0.946389 0.982555 0.997083
0.958196 0.962154 0.997504 0.998379
0.999385 1 1 0.999385
0.999453 1 1 0.999453
0.999395 1 1 0.999395
0.999423 1 1 0.999423
0.99937 1 1 0.99937
0.999401 1 1 0.999401
0.999362 1 1 0.999362
0.99934 1 1 0.99934
0.999344 1 1 0.999344
0.999308 1 1 0.999308
0.999205 1 1 0.999204
0.998916 1.00002 1.00011 0.998782
0.999247 1 1.00006 0.99919
0.999422 1 1 0.999422
0.98876 0.994079 0.996455 0.998188
0.969731 0.973855 1.00111 0.994666
0.923154 0.9439 0.981642 0.996311
0.974607 0.974436 1.00563 0.994576
0.987778 0.989485 0.999067 0.999207
0.992444 0.997044 0.996473 0.998909
0.997027 1.00479 0.993264 0.999004
1.00297 1.00066 1.00337 0.998935
1.00501 1 1.00563 0.99939
0.99832 1.0011 0.997932 0.999287
0.984869 0.986386 1.00064 0.997826
0.959013 0.967213 0.996393 0.995111
0.924718 0.943796 0.982506 0.997231
0.995343 1.00777 0.988452 0.999211
1.0043 1.00221 1.00373 0.998362
0.96285 0.968725 0.998013 0.995914
1.00079 1.00725 0.994619 0.99896
0.994944 0.996362 0.999929 0.998648
1.00536 1.01696 0.989651 0.998932
1.0127 1.01245 1.00135 0.998899
0.992682 1.00136 0.992273 0.999056
1.00527 1.01161 0.994591 0.999137
1.00936 1.013 0.997284 0.999124
1.00049 1.00269 0.998524 0.999276
1.00655 1.00828 0.99896 0.999324
1.00427 1.00545 0.999678 0.999146
1.00249 1.00325 1 0.999251
1.00129 1.00203 1 0.999268
0.999936 1.00082 1 0.999112
0.999325 1.00009 1 0.99923
0.999356 1.00012 1 0.999238
0.999118 1 1 0.999118
0.999272 1 1 0.999272
0.99918 1 1 0.99918
0.99911 1 1 0.99911
0.999113 1 1 0.999113
0.999107 1 1 0.999107
0.999155 1 1 0.999155
0.999301 1 1 0.999301
0.999169 1 1 0.999169
0.999066 1 1 0.999066
0.999634 1 1 0.999634
0.999393 1 1 0.999393
0.999246 1 1 0.999246
0.99998 1 1 0.99998
0.999689 1 1 0.999689
0.999463 1 1 0.999463
1 1 1 1
0.999991 1 1 0.999991
0.999731 1 1 0.999731
1 1 1 1
0.999997 1 1 0.999997
1 1 1 1
0.999399 1 1 0.999399
0.999451 1 1 0.999451
0.999526 1 1 0.999526
0.999486 1 1 0.999486
0.999557 1 1 0.999557
0.999795 1 1 0.999795
0.999591 1 1 0.999591
0.999855 1 1 0.999855
1 1 1 1
0.999904 1 1 0.999904
1 1 1 1
1 1 1 1
1 1 1 1
1 1 1 1
1 1 1 1
0.982264 0.986272 0.997757 0.998176
0.958849 0.96841 0.995317 0.994785
0.925389 0.946661 0.981118 0.996342
0.999285 1 1 0.999285
0.9994 1 1 0.9994
0.999424 1 1 0.999424
0.999399 1 1 0.999399
0.999366 1 1 0.999366
0.999434 1 1 0.999434
0.999319 1 1 0.999319
0.999336 1 1 0.999336
0.999328 1 1 0.999328
0.999232 1 1 0.999232
0.998983 1.00005 1 0.998928
1.00332 1.00483 1 0.998505
0.998946 1.00003 1.00013 0.998783
0.999207 1 1 0.999207
1.00034 1.00534 0.995837 0.999185
0.989695 0.995434 0.996477 0.997749
0.971909 0.974986 1.00133 0.995518
0.994288 0.997955 0.998309 0.998013
1.00172 1.00626 0.996494 0.998991
1.0015 1.00018 1.00231 0.999017
1.00361 1.00445 1.00002 0.999144
0.986132 0.985341 1.00221 0.9986
0.956419 0.96741 0.993732 0.994874
0.994429 1.00556 0.989941 0.998979
0.99292 0.996198 0.998504 0.998203
1.00702 1.01723 0.991036 0.998917
1.01074 1.01076 1.00099 0.998991
1.01771 1.0195 0.999372 0.998874
1.00937 1.01059 1 0.998796
1.00521 1.01108 0.995046 0.999136
1.01108 1.01401 0.997977 0.999132
1.00379 1.0048 1 0.998993
1.00696 1.00836 0.999295 0.999316
1.00508 1.00607 0.999878 0.999144
0.999809 1.00085 1 0.998958
1.0008 1.00155 1 0.999258
1.00004 1.0009 1 0.999134
0.999009 1.00002 1 0.998988
0.999249 1 1 0.999248
0.999136 1.00002 1 0.999117
0.999048 1 1 0.999048
0.999193 1 1 0.999193
0.999115 1 1 0.999115
0.999114 1 1 0.999114
0.999103 1 1 0.999103
0.999146 1 1 0.999146
0.99926 1 1 0.99926
0.999568 1 1 0.999568
0.999315 1 1 0.999315
0.999182 1 1 0.999182
0.999956 1 1 0.999956
0.999634 1 1 0.999634
0.999392 1 1 0.999392
1 1 1 1
0.999974 1 1 0.999974
0.999689 1 1 0.999689
1 1 1 1
0.999987 1 1 0.999987
1 1 1 1
0.99932 1 1 0.99932
0.9994 1 1 0.9994
0.99949 1 1 0.99949
0.999458 1 1 0.999458
0.999531 1 1 0.999531
0.999741 1 1 0.999741
0.999552 1 1 0.999552
0.999795 1 1 0.999795
1 1 1 1
0.999855 1 1 0.999855
1 1 1 1
1 1 1 1
1 1 1 1
1 1 1 1
1 1 1 1
1.00408 1.00768 0.997094 0.999332
0.982013 0.987573 0.997028 0.997335
0.963144 0.969036 0.998965 0.994949
0.999324 1 1 0.999324
0.999118 1 1 0.999118
0.999298 1 1 0.999298
0.999397 1 1 0.999397
0.999361 1 1 0.999361
0.999415 1 1 0.999415
0.999943 1.00092 1 0.999021
0.999348 1 1 0.999348
0.99926 1 1 0.99926
0.99929 1.00034 1 0.998946
1.00124 1.00266 1 0.998585
1.00734 1.00907 0.999519 0.998761
1.00232 1.0038 1 0.998519
0.998783 1 1 0.998783
1.00318 1.0079 0.996089 0.99922
0.987758 0.994916 0.995574 0.997219
1.00483 1.00743 0.998433 0.998977
1.00524 1.00605 1 0.999192
1.00348 1.0036 1.0007 0.999184
0.983702 0.98512 1.00095 0.997617
1.00897 1.01787 0.992348 0.998902
1.00825 1.00891 1.00027 0.999084
1.01747 1.01952 0.999089 0.998899
1.01072 1.01191 1 0.998828
1.00617 1.0073 1 0.998882
1.00736 1.00836 1 0.999013
1.01259 1.01508 0.998403 0.99914
1.00368 1.00479 0.999896 0.998999
1.00177 1.00291 1 0.998866
1.00563 1.0065 1 0.999142
0.999823 1.00085 1 0.99897
0.999446 1.00057 1 0.998878
1.0001 1.00095 1 0.999157
0.999019 1.00003 1 0.998986
0.998945 1 1 0.998945
0.999153 1.00004 1 0.999117
0.999047 1 1 0.999047
0.99905 1 1 0.99905
0.999119 1 1 0.999119
0.999115 1 1 0.999115
0.999213 1 1 0.999213
0.999137 1 1 0.999137
0.999255 1 1 0.999255
0.99951 1 1 0.99951
0.999927 1 1 0.999927
0.999568 1 1 0.999568
0.99933 1 1 0.99933
1 1 1 1
0.999949 1 1 0.999949
0.999633 1 1 0.999633
1 1 1 1
0.999968 1 1 0.999968
1 1 1 1
0.999184 1 1 0.999184
0.999306 1 1 0.999306
0.999423 1 1 0.999423
0.999402 1 1 0.999402
0.999491 1 1 0.999491
0.999696 1 1 0.999696
0.999536 1 1 0.999536
0.999741 1 1 0.999741
0.999994 1 1 0.999994
0.999794 1 1 0.999794
1 1 1 1
1 1 1 1
1 1 1 1
1 1 1 1
1 1 1 1
1.00489 1.00644 0.999381 0.99908
1.00318 1.00684 0.997079 0.999286
0.981706 0.986214 0.997415 0.998008
1.0001 1.00103 1 0.999064
0.999395 1 1 0.999395
0.998946 1 1 0.998946
0.999108 1 1 0.999108
0.999311 1 1 0.999311
1.0033 1.00461 1 0.998698
0.999396 1 1 0.999396
0.999901 1.00089 1 0.999008
1.00337 1.0047 1 0.998676
0.999601 1.00064 1 0.998964
1.00193 1.00337 1 0.998559
1.0054 1.00699 0.999671 0.998757
1.00076 1.00223 1 0.998533
1.00534 1.00971 0.99641 0.999255
1.00629 1.00716 1 0.999136
1.00527 1.00609 1 0.999188
1.00374 1.00275 1.00176 0.999223
1.01745 1.01972 0.998848 0.998924
1.01233 1.01348 1 0.998861
1.0068 1.00792 1 0.998882
1.00761 1.0086 1 0.999018
1.00559 1.00664 1 0.998949
1.00372 1.00483 0.999889 0.999004
1.00161 1.00275 1 0.998872
1.00164 1.00281 1 0.998839
0.99988 1.0009 1 0.998981
0.999264 1.00039 1 0.998874
0.998901 1.00004 1 0.998858
0.999034 1.00005 1 0.998983
0.998943 1 1 0.998943
0.998965 1 1 0.998965
0.999047 1 1 0.999047
0.99905 1 1 0.99905
0.99914 1 1 0.99914
0.999116 1 1 0.999116
0.999213 1 1 0.999213
0.999452 1 1 0.999452
0.999251 1 1 0.999251
0.999509 1 1 0.999509
0.999903 1 1 0.999903
0.999997 1 1 0.999997
0.999921 1 1 0.999921
0.999568 1 1 0.999568
1 1 1 1
0.999941 1 1 0.999941
1 1 1 1
0.998979 1 1 0.998979
0.99909 1 1 0.99909
0.999169 1 1 0.999169
0.999349 1 1 0.999349
0.999291 1 1 0.999291
0.999425 1 1 0.999425
0.999655 1 1 0.999655
0.999492 1 1 0.999492
0.999696 1 1 0.999696
0.999976 1 1 0.999976
0.99974 1 1 0.99974
0.999996 1 1 0.999996
1 1 1 1
1 1 1 1
1 1 1 1
1 1 1 1
1.00479 1.00584 1 0.998956
1.00679 1.00811 0.999567 0.99912
1.00325 1.00696 0.997069 0.999239
1.00108 1.00229 1 0.998791
0.999649 1.00053 1 0.99912
0.999465 1 1 0.999465
0.998988 1.00002 1 0.998968
0.999098 1 1 0.999098
1.00744 1.00882 1 0.998636
1.00302 1.00435 1 0.998671
0.999889 1.0009 1 0.998995
1.00403 1.00537 1 0.998669
1.00301 1.00449 1 0.998532
1.00485 1.00631 0.99979 0.998753
1.00807 1.00905 1 0.999035
1.00579 1.00667 1 0.999127
1.00533 1.00615 1 0.999184
1.00723 1.00836 1 0.998882
1.0079 1.00889 1 0.999022
1.0061 1.00715 1 0.998954
1.00566 1.00678 1 0.998885
1.00148 1.0026 1 0.998877
1.00115 1.00232 1 0.998836
0.999842 1.00101 1 0.998831
0.999085 1.00022 1 0.99887
0.999065 1.00021 1 0.998857
0.998897 1 1 0.998897
0.99894 1 1 0.99894
0.998964 1 1 0.998964
0.999063 1 1 0.999063
0.99905 1 1 0.99905
0.99914 1 1 0.99914
0.999382 1 1 0.999382
0.999214 1 1 0.999214
0.999451 1 1 0.999451
0.999886 1 1 0.999886
0.999509 1 1 0.999509
0.999899 1 1 0.999899
0.999994 1 1 0.999994
0.999998 1 1 0.999998
0.999915 1 1 0.999915
1 1 1 1
0.999472 1.00065 1 0.998818
0.999072 1 1 0.999072
0.999064 1 1 0.999061
0.999253 1 1 0.999253
0.999088 1 1 0.999088
0.999154 1 1 0.999154
0.99935 1 1 0.99935
0.9996 1 1 0.9996
0.999428 1 1 0.999428
0.999655 1 1 0.999655
0.999953 1 1 0.999953
0.999697 1 1 0.999697
0.999982 1 1 0.999982
1 1 1 1
0.999999 1 1 0.999999
1 1 1 1
1 1 1 1
1.00841 1.00958 1 0.998842
1.00471 1.00576 1 0.998954
1.00782 1.00888 0.999796 0.99916
1.00437 1.00569 1 0.998687
1.00085 1.00206 1 0.998793
0.999228 1.00005 1 0.999176
0.999039 1.00005 1 0.998991
1.00725 1.00863 1 0.998636
1.00276 1.00412 1 0.998644
1.0041 1.00544 1 0.998662
1.00801 1.00909 1 0.998931
1.00806 1.00906 1 0.999009
1.00509 1.00598 1 0.999117
1.00693 1.00808 1 0.998854
1.00654 1.00758 1 0.998959
1.00556 1.00669 1 0.998885
1.00231 1.00347 1 0.998849
1.00066 1.00182 1 0.998833
1.00026 1.00143 1 0.998833
0.998964 1.00011 1 0.998859
0.999223 1.00037 1 0.998856
0.998897 1 1 0.998897
0.999006 1 1 0.999006
0.998963 1 1 0.998963
0.999063 1 1 0.999063
0.999311 1 1 0.999311
0.99914 1 1 0.99914
0.99938 1 1 0.99938
0.999868 1 1 0.999868
0.99945 1 1 0.99945
0.999881 1 1 0.999881
0.999992 1 1 0.999992
0.999894 1 1 0.999894
0.999995 1 1 0.999995
1 1 1 1
1.00028 1.00156 1 0.998724
0.998909 1 1 0.998909
0.99923 1.00038 1 0.998847
0.999189 1 1 0.999189
0.999071 1 1 0.999071
0.999143 1 1 0.999143
0.999509 1 1 0.999509
0.999252 1 1 0.999252
0.999086 1 1 0.999086
0.999351 1 1 0.999351
0.999601 1 1 0.999601
0.999926 1 1 0.999926
0.999656 1 1 0.999656
0.999959 1 1 0.999959
1 1 1 1
0.999988 1 1 0.999988
1 1 1 1
1 1 1 1
1.00674 1.00794 1 0.998807
1.00849 1.00968 1 0.998823
1.005 1.00605 1 0.998952
1.0044 1.00572 1 0.998686
1.00057 1.00178 1 0.998796
1.00699 1.00837 1 0.998635
1.00713 1.00829 1 0.99885
1.00826 1.00934 1 0.99893
1.00818 1.00921 1 0.998983
1.00689 1.00804 1 0.998858
1.00431 1.00549 1 0.998824
1.00548 1.0066 1 0.998886
1.00258 1.00374 1 0.998847
0.999489 1.00064 1 0.998851
1.00068 1.00184 1 0.998834
0.999087 1.00023 1 0.99886
0.998962 1 1 0.998962
0.998896 1 1 0.998896
0.999005 1 1 0.999005
0.999264 1 1 0.999264
0.999062 1 1 0.999062
0.99931 1 1 0.99931
0.999848 1 1 0.999848
0.999378 1 1 0.999378
0.999863 1 1 0.999863
0.999988 1 1 0.999988
0.999877 1 1 0.999877
0.999993 1 1 0.999993
0.999995 1 1 0.999995
1.00209 1.0033 1 0.998798
0.998818 1.00002 1 0.998799
0.999952 1.00124 1 0.998717
0.999058 1 1 0.999058
0.99892 1 1 0.99892
0.999013 1.00014 1 0.998877
0.999411 1 1 0.999411
0.999163 1 1 0.999163
0.99907 1 1 0.99907
0.999891 1 1 0.999891
0.999511 1 1 0.999511
0.999251 1 1 0.999251
0.999602 1 1 0.999602
0.999934 1 1 0.999934
1 1 1 1
0.999966 1 1 0.999966
1 1 1 1
1 1 1 1
1.00552 1.00673 1 0.998799
1.00683 1.00803 1 0.998802
1.00855 1.00976 1 0.998804
1.00448 1.0058 1 0.998685
1.00489 1.0061 1 0.998798
1.00739 1.00855 1 0.998856
1.0085 1.00958 1 0.998929
1.00683 1.00797 1 0.998861
1.0043 1.00548 1 0.998825
1.00031 1.00147 1 0.998839
1.00285 1.00401 1 0.998846
0.99964 1.00079 1 0.998856
0.998924 1 1 0.998924
0.999212 1.00035 1 0.998862
0.998963 1 1 0.998963
0.999229 1 1 0.999229
0.999004 1 1 0.999004
0.999264 1 1 0.999264
0.999823 1 1 0.999823
0.999309 1 1 0.999309
0.99984 1 1 0.99984
1 1 1 1
0.999858 1 1 0.999858
0.999989 1 1 0.999989
0.999994 1 1 0.999994
1.00215 1.00333 1 0.99882
0.99899 1.00016 1 0.998825
1.00215 1.00335 1 0.998802
0.998932 1 1 0.998932
0.998823 1.00001 1 0.998812
0.999598 1.00089 1 0.99871
0.999279 1 1 0.999279
0.999057 1 1 0.999057
0.998931 1 1 0.998931
0.999852 1 1 0.999852
0.999388 1 1 0.999388
0.999137 1 1 0.999137
1 1 1 1
0.9999 1 1 0.9999
0.999513 1 1 0.999513
0.999941 1 1 0.999941
1 1 1 1
1 1 1 1
1.00392 1.00513 1 0.9988
1.00588 1.00708 1 0.998807
1.00688 1.00809 1 0.998798
1.00094 1.00215 1 0.998795
1.00463 1.00584 1 0.998795
1.00767 1.00882 1 0.998861
1.0043 1.00548 1 0.998826
1.00033 1.00149 1 0.998839
0.998938 1.00001 1 0.998927
0.999791 1.00093 1 0.998861
0.998946 1 1 0.998946
0.99915 1 1 0.99915
0.998963 1 1 0.998963
0.999229 1 1 0.999229
0.999801 1 1 0.999801
0.999263 1 1 0.999263
0.999821 1 1 0.999821
1 1 1 1
0.999832 1 1 0.999832
0.999992 1 1 0.999992
0.999991 1 1 0.999991
1.00092 1.0021 1 0.998828
0.998969 1.00011 1 0.998859
1.00213 1.00331 1 0.998821
0.998941 1 1 0.998941
0.999094 1.00027 1 0.998829
1.00222 1.00342 1 0.998805
0.999202 1 1 0.999202
0.99896 1 1 0.99896
0.998826 1 1 0.998826
0.999824 1 1 0.999824
0.999268 1 1 0.999268
0.999056 1 1 0.999056
1 1 1 1
0.99986 1 1 0.99986
0.999365 1 1 0.999365
1 1 1 1
0.999908 1 1 0.999908
1 1 1 1
1.00075 1.00194 1 0.99881
1.00361 1.00481 1 0.998801
1.00625 1.00745 1 0.998816
0.998887 1 1 0.998887
1.00085 1.00205 1 0.998798
1.00438 1.00559 1 0.998792
1.00035 1.00151 1 0.99884
0.998935 1.00001 1 0.998927
0.999104 1 1 0.999104
0.998968 1 1 0.998968
0.999171 1 1 0.999171
0.999759 1 1 0.999759
0.999229 1 1 0.999229
0.999798 1 1 0.999798
1 1 1 1
0.99982 1 1 0.99982
1 1 1 1
0.999986 1 1 0.999986
0.999138 1.00027 1 0.998865
1.0008 1.00198 1 0.998827
0.998942 1 1 0.998942
0.999032 1.00017 1 0.998859
1.0021 1.00328 1 0.998822
0.999204 1 1 0.999204
0.998939 1 1 0.998939
0.999194 1.00036 1 0.998834
0.999805 1 1 0.999805
0.999216 1 1 0.999216
0.998988 1 1 0.998988
1 1 1 1
0.999829 1 1 0.999829
0.999258 1 1 0.999258
1 1 1 1
0.999868 1 1 0.999868
1 1 1 1
0.998907 1 1 0.998907
1.00059 1.00178 1 0.998813
1.00325 1.00446 1 0.998802
0.999078 1 1 0.999078
0.998887 1 1 0.998887
1.00072 1.00192 1 0.998801
0.998933 1.00001 1 0.998927
0.99911 1 1 0.99911
0.999714 1 1 0.999714
0.999192 1 1 0.999192
0.999756 1 1 0.999756
1 1 1 1
0.999796 1 1 0.999796
1 1 1 1
1 1 1 1
0.998929 1 1 0.998929
0.999099 1.00024 1 0.998859
1.00069 1.00187 1 0.998826
0.999186 1 1 0.999186
0.998941 1 1 0.998941
0.9991 1.00024 1 0.998859
0.999786 1 1 0.999786
0.999203 1 1 0.999203
0.998937 1 1 0.998937
1 1 1 1
0.999808 1 1 0.999808
0.999231 1 1 0.999231
1 1 1 1
0.999833 1 1 0.999833
1 1 1 1
0.999122 1 1 0.999122
0.998886 1 1 0.998886
1.00046 1.00165 1 0.998815
0.999693 1 1 0.999693
0.999081 1 1 0.999081
0.998887 1 1 0.998887
0.999115 1 1 0.999115
0.999713 1 1 0.999713
1 1 1 1
0.999753 1 1 0.999753
1 1 1 1
1 1 1 1
0.999156 1 1 0.999156
0.99892 1 1 0.99892
0.99906 1.00021 1 0.998853
0.999782 1 1 0.999782
0.999185 1 1 0.999185
0.99894 1 1 0.99894
1 1 1 1
0.999787 1 1 0.999787
0.999202 1 1 0.999202
1 1 1 1
0.999811 1 1 0.999811
1 1 1 1
0.99969 1 1 0.99969
0.999106 1 1 0.999106
0.998865 1 1 0.998865
1 1 1 1
0.999692 1 1 0.999692
0.999083 1 1 0.999083
0.999711 1 1 0.999711
1 1 1 1
1 1 1 1
0.999748 1 1 0.999748
0.999156 1 1 0.999156
0.998912 1 1 0.998912
1 1 1 1
0.999762 1 1 0.999762
0.999183 1 1 0.999183
1 1 1 1
0.999788 1 1 0.999788
1 1 1 1
0.999933 1 1 0.999933
0.999715 1 1 0.999715
0.99909 1 1 0.99909
1 1 1 1
0.999692 1 1 0.999692
1 1 1 1
0.999947 1 1 0.999947
0.99974 1 1 0.99974
0.999156 1 1 0.999156
0.999978 1 1 0.999978
0.99976 1 1 0.99976
1 1 1 1
1 1 1 1
0.999699 1 1 0.999699
1 1 1 1
0.999971 1 1 0.999971
0.999727 1 1 0.999727
1 1 1 1
1 1 1 1
1 1 1 1

VECTORS lamdaE float
0.999079 1.00027 0.99647
0.999233 0.999496 0.998559
0.998981 1.0004 0.996548
0.999555 0.999973 0.99614
0.999193 1.00026 0.996355
0.999111 0.999973 0.996639
0.999932 1.00078 0.994237
0.999248 0.99937 0.998602
0.999109 1.00036 0.99847
0.998961 0.999959 0.998627
0.999368 0.999016 0.997154
0.999865 1.0006 0.994255
0.999755 1.00002 0.995739
0.999437 0.999878 0.996202
0.998865 1.0006 0.996625
0.999444 0.999968 0.996239
0.999024 1.00009 0.996711
0.999073 1.00038 0.996449
1.00001 1.00072 0.994231
0.999686 1 0.998117
0.999591 0.999954 0.996093
0.999407 1.0001 0.996223
1.00078 0.999932 0.993638
1.00026 1.00049 0.993981
0.999256 0.999402 0.996928
0.999654 1.0009 0.994566
1.00151 1.00109 0.991141
0.999255 0.999237 0.998653
0.999185 1.00025 0.997363
0.999055 0.999987 0.997621
0.99934 0.998856 0.998739
0.999785 1.0007 0.994261
0.999464 1.0001 0.996145
0.999186 1.00042 0.996443
1.00055 1.00038 0.994234
0.999345 0.9983 0.999004
1.00003 1.00063 0.994812
0.999737 1.00037 0.994678
1.00067 1.00178 0.991628
0.999444 0.997777 0.999151
0.999746 1 0.998066
0.999524 0.999957 0.997195
0.999806 1 0.998018
0.999471 0.999967 0.996095
1.00114 1.00004 0.992349
0.999422 1.00003 0.998392
1.001 0.99994 0.993847
0.999333 0.999954 0.996336
0.998956 1.00053 0.996533
0.998931 1.00022 0.996797
1.00009 1.00061 0.994225
0.99964 1 0.997035
0.999484 0.999926 0.996201
0.999187 0.99945 0.996998
0.999283 1.00016 0.996323
1.00083 0.999914 0.993598
0.99973 1.00084 0.994566
1.00033 1.00043 0.993967
1.00158 1.00112 0.991052
0.999747 1 0.998063
0.999626 0.999994 0.995968
1.00101 1.00001 0.993686
1.0008 0.999911 0.993622
1.0006 1.00015 0.993735
1.00292 0.999818 0.989889
1.00211 1.00051 0.990358
0.999462 0.998681 0.997288
0.999433 1.00072 0.995098
1.00084 1.00163 0.991764
1.00239 1.00119 0.988978
0.999236 1.00021 0.998364
0.99935 0.998684 0.998831
0.999135 0.999751 0.998536
0.99971 1.00079 0.994265
0.999489 1.00013 0.998274
0.999163 1.00022 0.998414
1.00043 1.00039 0.993281
0.999377 0.998376 0.998273
0.999903 1.00075 0.993959
0.999685 1.00036 0.995159
1.00066 1.00176 0.99162
0.999434 0.998051 0.999044
0.99962 0.99896 0.996339
1.00081 1.00004 0.992991
1.00024 1.00061 0.993551
1.00234 1.00049 0.989736
0.999621 0.999853 0.996088
1.00112 1.00136 0.991206
1.00032 1.00205 0.992018
1.0012 1.00204 0.990283
0.999488 0.997472 0.999231
0.99943 0.997726 0.99918
0.999595 0.999985 0.998229
0.999707 1 0.998103
0.999796 1 0.998028
0.999572 0.999994 0.997098
1.00114 1.00003 0.992959
0.999481 0.999979 0.997243
1.00096 0.999957 0.993359
0.999813 0.999998 0.998019
1.00119 0.999984 0.992276
1.00107 1.00002 0.993665
1.00331 0.999818 0.98859
1.00092 0.999926 0.993964
1.00308 0.999825 0.989033
0.999716 1.00001 0.995828
0.999376 0.999874 0.996308
0.999116 0.999462 0.997082
0.999165 1.00022 0.996417
1.00087 0.999909 0.99356
1.0004 1.00035 0.993958
0.99981 1.00075 0.99456
1.00165 1.00117 0.990964
0.999782 1 0.99804
0.999509 0.999975 0.996092
1.00107 1.00001 0.99279
1.00085 0.999884 0.99358
0.999387 0.998682 0.998053
0.999553 1.00064 0.995213
1.00065 1.00012 0.99371
1.00291 0.999807 0.989783
1.00093 1.00168 0.991664
1.00214 1.00057 0.990433
1.00238 1.0012 0.988981
1.00116 1.00001 0.992331
1.00084 0.999969 0.993466
1.00323 0.99983 0.989025
1.00292 0.999736 0.989677
1.0027 1.00004 0.989799
1.00397 0.999475 0.988006
0.999461 0.998185 0.998976
1.00304 1.00052 0.988423
0.999587 1.00027 0.995053
1.00025 1.00194 0.992112
1.00172 1.002 0.989557
1.00298 1.00107 0.988013
0.999663 0.999331 0.995807
1.00008 1.00102 0.993424
0.999425 1.00013 0.998293
0.999099 1.0001 0.99846
1.00041 1.00039 0.993292
0.999395 0.99826 0.998996
0.999606 1.00045 0.9948
0.999828 1.00085 0.993951
1.00066 1.00174 0.991611
0.999415 0.998005 0.999081
0.999623 0.998904 0.996367
1.00079 1.00005 0.993538
1.00016 1.00062 0.994072
1.00233 1.00048 0.989751
0.999606 0.999828 0.995475
1.0011 1.00135 0.99122
1.00029 1.00205 0.992013
1.00121 1.00204 0.990223
0.999584 0.999419 0.995927
0.999701 0.998505 0.996658
0.999998 1.00077 0.993811
1.00281 1.00008 0.989255
1.00168 1.00098 0.990504
1.0033 1.00048 0.987975
1.00019 1.00175 0.992532
1.00176 1.00149 0.989753
1.00077 1.00271 0.990576
1.00141 1.00232 0.989723
0.99957 0.997171 0.999279
0.999489 0.997413 0.999248
0.999419 0.997666 0.999206
0.999704 0.998948 0.996147
0.99948 0.997926 0.999077
0.99955 1.00003 0.998256
0.99963 0.999987 0.99818
1.00092 0.999946 0.992843
1.00108 1.00004 0.992435
0.999773 1 0.998043
0.999811 0.999999 0.998015
1.00118 0.999992 0.99228
1.00101 1.00003 0.993187
1.00331 0.999818 0.988593
1.00088 0.999898 0.992943
1.00307 0.999834 0.989032
1.00121 0.999973 0.992244
1.00345 0.999781 0.988367
1.00316 0.999834 0.98887
1.00437 0.999464 0.986998
1.00302 0.999858 0.989096
1.00413 0.999475 0.987454
0.9998 0.999999 0.998023
0.999392 0.999945 0.996222
1.00107 0.999996 0.991952
1.0009 0.999882 0.993537
0.999268 0.998639 0.998876
0.999676 1.00059 0.995321
1.0007 1.00009 0.993687
1.0029 0.99979 0.989678
1.00217 1.00063 0.990509
1.00102 1.00175 0.991564
1.00238 1.00121 0.988985
1.00116 0.999997 0.992325
1.00089 0.999959 0.993427
1.00321 0.999817 0.988785
1.00293 0.999772 0.989784
0.999448 0.998244 0.998939
0.999612 1.00021 0.995406
1.00034 1.00196 0.992203
1.00268 1.00009 0.989797
1.00397 0.999393 0.98787
1.00164 1.00199 0.989547
1.00307 1.00055 0.988501
1.00297 1.00106 0.988025
0.999642 0.99941 0.995793
1.00009 1.00099 0.993419
1.00343 0.999785 0.988385
1.00298 0.999824 0.989473
1.00428 0.999573 0.987358
1.00401 0.999325 0.98768
1.00369 0.999846 0.988041
1.00454 0.998906 0.987356
0.999625 0.999789 0.995407
1.00373 1.00019 0.987488
1.00013 1.00185 0.992438
1.00083 1.00245 0.990377
1.00229 1.00213 0.988642
1.00343 1.00065 0.98768
1.00013 1.00149 0.9929
1.0001 1.00046 0.993949
1.00029 1.00206 0.992028
1.00073 1.00004 0.993053
0.999398 0.997965 0.999117
0.999622 0.998857 0.996395
1.00004 1.00072 0.993645
1.00233 1.00047 0.989767
0.999594 0.999815 0.995439
1.00027 1.00205 0.992009
1.00107 1.00134 0.991235
1.00122 1.00204 0.990163
0.999594 0.999351 0.995951
0.999692 0.998482 0.996676
0.999989 1.00079 0.993821
1.00281 1.00008 0.989257
1.00166 1.00097 0.990528
1.0033 1.00048 0.987973
1.00016 1.0018 0.992534
1.00179 1.0015 0.989787
1.00076 1.00271 0.990568
1.00138 1.00231 0.989684
0.999783 0.998158 0.996851
1.0001 1.00128 0.993112
0.999986 1.00014 0.994467
1.00017 1.00189 0.992434
1.00383 0.999894 0.987539
1.00249 1.0011 0.988894
1.00387 1.00029 0.987075
1.0005 1.00265 0.991181
1.00215 1.00146 0.989193
1.00081 1.00359 0.989595
1.00159 1.00213 0.989281
1.00018 0.999083 0.995206
0.999925 0.997689 0.997043
0.999665 0.996906 0.999311
0.999581 0.997119 0.99929
0.999493 0.997352 0.999264
0.99977 0.998619 0.996369
0.999506 0.997681 0.999146
0.9997 0.998994 0.996124
0.999488 0.997958 0.999046
1.00089 0.999891 0.99294
1.00098 1.00002 0.992658
1.00306 0.99984 0.989031
1.00331 0.99982 0.988596
1.00118 1 0.992285
0.999816 1 0.998014
1.00121 0.999976 0.992242
1.00345 0.999783 0.988368
1.00315 0.999845 0.98887
1.00437 0.999468 0.986994
1.00302 0.999872 0.989092
1.00413 0.999474 0.987457
1.00348 0.99977 0.988321
1.00451 0.999399 0.986786
1.00422 0.999488 0.987268
1.00484 0.998983 0.986619
1.00406 0.999541 0.987493
1.00465 0.998993 0.986962
1.00117 0.999986 0.992317
1.00094 0.999954 0.993386
1.0032 0.999798 0.988546
1.00294 0.999796 0.989891
0.999438 0.998305 0.9989
0.99965 1.00019 0.995732
1.00046 1.00197 0.992293
1.00265 1.00014 0.989795
1.00398 0.999308 0.987734
1.0031 1.00058 0.988579
1.00155 1.00198 0.989537
1.00296 1.00106 0.988038
0.999626 0.999476 0.995777
1.00011 1.00095 0.993413
1.00341 0.999768 0.988311
1.003 0.999812 0.989469
1.00429 0.999535 0.987299
1.00402 0.999378 0.987827
0.999624 0.999823 0.995405
1.00017 1.00187 0.992435
1.00083 1.00241 0.990505
1.00371 0.999906 0.988042
1.00454 0.998837 0.98731
1.00222 1.00214 0.988513
1.00372 1.00018 0.987491
1.00337 1.00061 0.9877
1.00014 1.00143 0.992907
1.00028 1.00203 0.99204
1.0001 1.00047 0.993938
1.00447 0.99949 0.987072
1.00408 0.999497 0.987637
1.00481 0.999114 0.986683
1.00457 0.998914 0.987181
1.00436 0.999292 0.987143
1.00488 0.998461 0.987143
1.00014 1.00172 0.992627
1.00413 0.999534 0.987291
1.00056 1.00233 0.991273
1.00116 1.00296 0.989297
1.00262 1.00207 0.987886
1.00366 1.00012 0.987941
1.00014 1.00007 0.994275
1.00039 1.00209 0.991825
1.00026 1.00164 0.992448
1.00029 1.00262 0.991536
1.00281 1.00009 0.989258
0.999683 0.998461 0.996695
0.999608 0.99927 0.995972
0.99999 1.00079 0.99383
1.00164 1.00097 0.990553
1.0033 1.00048 0.987972
1.00011 1.00183 0.992537
1.00075 1.00271 0.99056
1.00182 1.00152 0.989821
1.00135 1.0023 0.989645
0.999774 0.998149 0.996859
1.00009 1.00132 0.993113
0.999994 1.00012 0.994482
1.00016 1.00193 0.992424
1.00385 0.999897 0.987526
1.00247 1.0011 0.988909
1.00387 1.0003 0.987074
1.00046 1.00265 0.991196
1.00218 1.00149 0.989238
1.00083 1.00359 0.98955
1.00156 1.00202 0.989548
0.999859 0.997897 0.996967
1.00005 0.999663 0.994856
1.00033 1.00227 0.991827
1.00015 1.00125 0.993092
1.00009 1.00284 0.99166
1.00443 0.999517 0.986795
1.00295 1.001 0.988097
1.00417 1.00004 0.986792
1.00044 1.00387 0.99009
1.00233 1.00132 0.988961
1.00099 1.0036 0.988662
1.00014 0.99921 0.995143
1.00021 1.00005 0.99419
1.00021 0.998992 0.995238
1.00017 0.9991 0.995201
0.999966 0.997485 0.997541
0.999914 0.997672 0.99727
0.999808 0.996703 0.998454
0.999678 0.996861 0.999319
0.999593 0.997067 0.9993
0.999839 0.998351 0.996513
0.99957 0.997429 0.999188
0.999774 0.99864 0.996353
0.999515 0.997718 0.999126
0.999694 0.999041 0.996102
0.999495 0.998006 0.999013
1.00302 0.999883 0.989087
1.00315 0.999854 0.98887
1.00412 0.999482 0.987461
1.00438 0.999471 0.98699
1.00345 0.999785 0.988369
1.00121 0.99998 0.992241
1.00348 0.999767 0.98832
1.00452 0.999401 0.986786
1.00421 0.999503 0.987267
1.00485 0.99894 0.986612
1.00407 0.999538 0.987485
1.00464 0.998996 0.986963
1.00455 0.999377 0.986748
1.00496 0.998873 0.98645
1.00474 0.998998 0.986779
1.00506 0.99848 0.986742
1.00461 0.999052 0.986953
1.00491 0.998446 0.987011
1.00339 0.999752 0.988237
1.00302 0.999798 0.989466
1.00429 0.999507 0.98724
1.00403 0.999434 0.987974
0.999625 0.999857 0.995404
1.00019 1.00189 0.992432
1.00085 1.00238 0.990632
1.00372 0.999968 0.988042
1.00455 0.998766 0.987264
1.00371 1.00018 0.987494
1.00215 1.00215 0.988384
1.0033 1.00057 0.987719
1.00015 1.00138 0.992915
1.00028 1.002 0.992052
1.0001 1.00047 0.993926
1.00448 0.999465 0.98694
1.00409 0.999487 0.987634
1.0048 0.999048 0.986659
1.00459 0.99894 0.987202
1.00016 1.00168 0.992634
1.00061 1.00232 0.99125
1.00111 1.00296 0.989459
1.00434 0.999367 0.987206
1.00486 0.998411 0.987136
1.00252 1.00213 0.987801
1.00415 0.999532 0.987288
1.00363 0.999997 0.987988
1.00039 1.0021 0.991838
1.0003 1.00264 0.991478
1.00013 1.00009 0.994269
1.00025 1.00158 0.99252
1.00493 0.998983 0.986451
1.00464 0.999102 0.986994
1.00503 0.998631 0.986652
1.00491 0.998308 0.987125
1.00475 0.998664 0.986984
1.00498 0.9981 0.987172
1.00047 1.00211 0.99166
1.00432 0.998777 0.987658
1.00054 1.00297 0.990434
1.00151 1.00344 0.988378
1.00277 1.00197 0.987508
1.00393 0.999713 0.987921
1.00016 0.999852 0.994453
1.00026 1.00119 0.992894
1.00041 1.00254 0.991381
1.00023 1.00235 0.991928
1.0003 1.00281 0.991312
0.999765 0.998141 0.996866
1.00387 0.9999 0.987512
1 1.0001 0.994496
1.00007 1.00138 0.993115
1.00014 1.00197 0.992415
1.00246 1.00111 0.988924
1.00387 1.00031 0.987073
1.00043 1.00264 0.991211
1.00085 1.00363 0.989506
1.00221 1.00151 0.989283
1.00154 1.00192 0.989813
0.999852 0.997891 0.996971
1.00005 0.999651 0.994865
1.00032 1.00226 0.991828
1.00014 1.00127 0.993096
1.00009 1.00292 0.991565
1.00444 0.99953 0.986779
1.00295 1.001 0.988107
1.00415 1.00005 0.986774
1.00039 1.00387 0.990102
1.00235 1.00134 0.989004
1.00114 1.00359 0.988748
1.0001 0.999393 0.995042
1.00017 1.00067 0.99365
1.00028 1.00339 0.990848
1.00006 1.00234 0.992214
1.00011 1.00354 0.991013
1.00477 0.999056 0.986636
1.00323 1.00075 0.987813
1.0041 0.999428 0.987345
1.00035 1.00484 0.989056
1.00207 1.00247 0.988307
1.00014 0.999223 0.99514
1.00019 1.00014 0.994048
1.00021 1.00006 0.994146
1.00017 1.00074 0.993713
1.00024 1.00003 0.994163
1.00024 0.998947 0.99522
1.00021 0.998997 0.995235
1.00003 0.997326 0.997579
1.00017 0.999114 0.995196
0.999974 0.997476 0.997546
0.999901 0.996478 0.998494
0.999903 0.99766 0.997492
0.999784 0.996661 0.998899
0.999692 0.996817 0.999327
0.999902 0.99812 0.996628
0.999843 0.998363 0.996504
0.99965 0.997188 0.999221
0.999568 0.997474 0.999176
0.999777 0.998664 0.996337
0.999522 0.997749 0.999105
1.00408 0.999533 0.987477
1.00421 0.999511 0.987266
1.00464 0.998995 0.986965
1.00487 0.998897 0.986605
1.00452 0.999403 0.986785
1.00348 0.999765 0.988319
1.00455 0.999377 0.986749
1.00497 0.998882 0.986432
1.00474 0.99901 0.986773
1.00506 0.998411 0.986788
1.00462 0.999044 0.986946
1.00491 0.998383 0.987031
1.00499 0.9989 0.986392
1.00511 0.998505 0.986606
1.005 0.998289 0.986939
1.00512 0.998075 0.987049
1.00494 0.998469 0.986932
1.00495 0.997984 0.987337
1.00449 0.999437 0.986808
1.0041 0.99948 0.987631
1.00479 0.998978 0.986636
1.00461 0.998964 0.987222
1.00019 1.00164 0.992642
1.00066 1.00231 0.991227
1.00106 1.00296 0.989622
1.00433 0.999446 0.987269
1.00484 0.998357 0.987129
1.00418 0.999529 0.987286
1.00243 1.00219 0.987715
1.00358 0.999862 0.988035
1.00039 1.00211 0.991851
1.00031 1.00267 0.99142
1.00013 1.0001 0.994264
1.00025 1.0015 0.992593
1.00493 0.998987 0.986453
1.00465 0.999126 0.986962
1.00502 0.998582 0.986674
1.00487 0.998367 0.987127
1.00049 1.00213 0.991653
1.00054 1.00291 0.990566
1.00147 1.00355 0.988359
1.00477 0.998714 0.986985
1.00501 0.998048 0.987154
1.00276 1.00203 0.987457
1.00434 0.998781 0.987655
1.00377 0.999497 0.988154
1.00043 1.00253 0.991385
1.00031 1.00282 0.991299
1.00021 1.00236 0.991924
1.00016 0.999846 0.994381
1.00026 1.00115 0.99294
1.00512 0.99848 0.986588
1.00501 0.998409 0.986854
1.00501 0.997757 0.987457
1.00494 0.998014 0.987196
1.00046 1.00258 0.991205
1.00461 0.998169 0.987844
1.00041 1.00358 0.989807
1.00183 1.00395 0.987281
1.00329 1.00143 0.987171
1.00018 0.99967 0.994452
1.00026 1.00089 0.993336
1.0002 1.00189 0.992439
1.00039 1.00265 0.991298
1.00021 1.00287 0.991484
1.00039 1.00273 0.991195
0.999845 0.997885 0.996976
1.00005 0.99964 0.994873
1.00446 0.999542 0.986763
1.00014 1.00129 0.9931
1.00029 1.00225 0.99183
1.00008 1.003 0.991469
1.00294 1.001 0.988118
1.00413 1.00007 0.986757
1.00036 1.00385 0.990115
1.00128 1.00358 0.988835
1.00237 1.00137 0.989049
1.00009 0.9994 0.995044
1.00017 1.00065 0.99366
1.00025 1.00336 0.990885
1.00006 1.00233 0.992215
1.00009 1.00357 0.990943
1.00474 0.999086 0.986627
1.00324 1.00075 0.987795
1.00413 0.999288 0.987477
1.00033 1.00489 0.989033
1.00208 1.00266 0.988123
1.00017 1.00034 0.993989
1.00009 1.00168 0.992709
1.00024 1.00415 0.990083
1.00003 1.00327 0.991249
1.00023 1.00378 0.990526
1.00493 0.997661 0.987608
1.00339 1.00091 0.987592
1.00429 0.998233 0.987739
1.0009 1.00476 0.988701
1.00189 1.00307 0.987297
1.00013 0.999237 0.995138
1.00019 1.00014 0.994096
1.00015 1.0009 0.993406
1.00021 1.00007 0.994103
1.00024 1.00003 0.994164
1.00015 1.00074 0.993645
1.00007 1.00128 0.993302
1.00014 1.0007 0.993638
1.00028 1 0.994139
1.00026 0.998972 0.995164
1.00024 0.998947 0.99522
1.00008 0.997241 0.997569
1.00021 0.999001 0.995232
1.00003 0.997327 0.997579
0.999967 0.996323 0.99852
0.999982 0.997466 0.997553
0.999892 0.996455 0.998496
0.999758 0.996611 0.999351
0.999959 0.997908 0.996737
0.999907 0.998128 0.996622
0.99973 0.996964 0.999249
0.999847 0.998378 0.996496
0.999642 0.997231 0.999211
0.999567 0.997512 0.999163
1.00463 0.999037 0.986938
1.00474 0.999026 0.986768
1.0049 0.998322 0.987052
1.00506 0.99834 0.986833
1.00498 0.998892 0.986414
1.00455 0.999377 0.986749
1.00499 0.998931 0.986378
1.00511 0.998534 0.98658
1.00501 0.998335 0.986883
1.00513 0.997995 0.987072
1.00491 0.998481 0.986941
1.005 0.997867 0.987339
1.00511 0.998562 0.986539
1.00512 0.99808 0.986981
1.00513 0.997681 0.987354
1.00498 0.997647 0.987613
1.00492 0.998991 0.986455
1.00466 0.999149 0.986929
1.00501 0.998534 0.986696
1.00484 0.998427 0.98713
1.00052 1.00214 0.991645
1.00056 1.00285 0.990699
1.00143 1.00366 0.988339
1.00479 0.998765 0.986985
1.00504 0.998005 0.987136
1.00436 0.998785 0.987652
1.00275 1.00208 0.987405
1.00363 0.999311 0.988386
1.00045 1.00252 0.991389
1.00033 1.00282 0.991285
1.00019 1.00237 0.99192
1.00016 0.999843 0.994308
1.00026 1.0011 0.992986
1.00511 0.998488 0.9866
1.005 0.99841 0.986896
1.00502 0.99784 0.987387
1.00051 1.00258 0.99119
1.00053 1.00353 0.989952
1.00178 1.00405 0.987251
1.00496 0.998039 0.987227
1.00327 1.00126 0.987339
1.00452 0.998209 0.987897
1.00018 0.999646 0.994476
1.00042 1.00265 0.991292
1.00037 1.00272 0.991236
1.00021 1.00291 0.991442
1.0002 1.00188 0.992466
1.00026 1.00088 0.993274
1.00514 0.998194 0.986803
1.00511 0.997622 0.987461
1.0051 0.997403 0.987571
1.00508 0.997333 0.987702
1.00044 1.00291 0.990931
1.00429 0.998996 0.987443
1.00074 1.00464 0.988376
1.00228 1.00393 0.986651
1.00019 0.999482 0.994636
1.00025 1.00069 0.99355
1.00021 1.00163 0.992735
1.00015 1.00253 0.991869
1.00046 1.00281 0.991076
1.00039 1.00277 0.991176
1.00009 0.999405 0.995045
1.00018 1.00063 0.99367
1.00472 0.999118 0.986617
1.00006 1.00233 0.992215
1.00022 1.00334 0.990921
1.00005 1.00363 0.990873
1.00325 1.00074 0.987778
1.00416 0.999145 0.987609
1.00031 1.00485 0.98901
1.00209 1.00291 0.987939
1.00018 1.00031 0.993994
1.00011 1.00166 0.992744
1.00019 1.00422 0.990155
1.00001 1.00332 0.991251
1.00016 1.00377 0.990584
1.00493 0.99774 0.987686
1.00345 1.00078 0.987554
1.00424 0.998064 0.988235
1.00077 1.00471 0.988668
1.00207 1.00335 0.987006
1.00013 1.00111 0.993215
1.00002 1.00262 0.991843
1.00032 1.00434 0.989793
1.00002 1.00398 0.990307
1.00517 0.996447 0.988514
1.00507 0.996769 0.988346
1.00358 1.00081 0.987023
1.00104 1.00455 0.987522
1.0002 1.00013 0.994143
1.00015 1.00091 0.99344
1.00006 1.00157 0.993013
1.00024 1.00003 0.994164
1.00014 1.00073 0.993577
1.00028 0.999991 0.99414
1.00006 1.0013 0.993248
1.00015 1.00068 0.993658
1.00002 1.00172 0.992921
1.0001 1.00116 0.993289
1.00016 1.00065 0.993635
1.00029 1.00002 0.994089
1.00025 0.999041 0.995095
1.00026 0.998975 0.995163
1.00011 0.997225 0.997529
1.00024 0.998943 0.995221
1.00008 0.997258 0.997563
1.00002 0.996248 0.998502
1.00004 0.99733 0.997581
0.99996 0.996299 0.998523
0.999883 0.996434 0.998495
1.00001 0.997698 0.996852
0.999963 0.997913 0.996732
0.999805 0.996751 0.999278
0.999912 0.998136 0.996616
0.999721 0.997004 0.999241
0.999635 0.997275 0.9992
1.00488 0.998491 0.98695
1.00502 0.998381 0.986826
1.00507 0.997748 0.987342
1.00513 0.997918 0.987095
1.00511 0.998563 0.986554
1.00498 0.998963 0.986364
1.00511 0.99856 0.986552
1.00512 0.998097 0.986963
1.00512 0.997699 0.987335
1.00504 0.997602 0.987596
1.00513 0.998208 0.986853
1.00513 0.997549 0.987541
1.00514 0.997198 0.98779
1.0051 0.998495 0.986612
1.005 0.99841 0.986939
1.00504 0.997918 0.987317
1.00055 1.00258 0.991175
1.00066 1.00346 0.990097
1.00173 1.00416 0.987221
1.00497 0.998061 0.987257
1.00441 0.998227 0.98795
1.00323 1.00108 0.987509
1.00044 1.00264 0.991286
1.00033 1.00272 0.991276
1.00021 1.00293 0.9914
1.00018 0.999621 0.9945
1.0002 1.00187 0.992493
1.00026 1.00087 0.993211
1.00514 0.998229 0.986803
1.00511 0.997605 0.987489
1.00509 0.997448 0.987567
1.00048 1.00292 0.990892
1.00066 1.00454 0.988679
1.00231 1.00386 0.986654
1.00505 0.997324 0.987786
1.00431 0.999011 0.987386
1.00019 0.999456 0.994731
1.00025 1.00069 0.993549
1.00039 1.00274 0.991098
1.00039 1.00267 0.991317
1.00016 1.00252 0.991832
1.00019 1.00165 0.992691
1.00514 0.997648 0.987387
1.00512 0.996866 0.988123
1.00511 0.996784 0.988047
1.00495 0.996997 0.988241
1.00024 1.00367 0.990304
1.00315 1.00223 0.986524
1.00122 1.00497 0.987767
1.0002 0.999301 0.994942
1.00018 1.00033 0.993962
1.00022 1.00059 0.993555
1.00017 1.00152 0.992829
1.0001 1.00232 0.992171
1.00001 1.00322 0.991342
1.00064 1.00176 0.991571
1.00027 1.00285 0.991974
1.00018 1.0003 0.993999
1.00012 1.00164 0.992778
1.00492 0.997823 0.987764
1.00001 1.00336 0.991252
1.00015 1.00429 0.990226
1.00008 1.00377 0.990642
1.00349 1.00064 0.987516
1.00421 0.99788 0.988726
1.00064 1.0047 0.988635
1.00225 1.0036 0.986715
1.00014 1.00114 0.993172
1.00003 1.00266 0.991845
1.00027 1.00436 0.989829
1.0001 1.00399 0.99038
1.00515 0.99645 0.988554
1.00493 0.996918 0.988299
1.00364 1.00075 0.987214
1.00127 1.00456 0.987357
1.00005 1.0019 0.992669
1.00518 0.996019 0.988768
1.00001 1.00375 0.991069
1.00049 1.00452 0.989237
1.00518 0.995938 0.988967
1.00478 0.997829 0.987623
1.00239 1.00362 0.986766
1.00016 1.00092 0.993473
1.00006 1.00157 0.993006
0.999974 1.0021 0.99263
1.00028 0.999977 0.994141
1.00016 1.00066 0.993677
1.00005 1.00131 0.993194
1.0003 1.00001 0.994087
1.00017 1.00065 0.993639
1.00002 1.00174 0.992871
1.0001 1.00115 0.993341
1.00002 1.00197 0.992629
1.00008 1.00153 0.99293
1.00012 1.00107 0.993399
1.00024 1.00061 0.993593
1.00029 1.00009 0.994016
1.00025 0.999108 0.995042
1.00025 0.999044 0.995096
1.00013 0.997244 0.99748
1.00025 0.998981 0.995163
1.00011 0.997252 0.997522
1.00005 0.996221 0.998474
1.00008 0.997277 0.997557
1.00001 0.996218 0.998507
0.999953 0.996277 0.998524
1.00021 0.999164 0.995058
1.00006 0.997509 0.996951
1.00002 0.997704 0.996847
0.999872 0.996549 0.999307
0.999968 0.997922 0.996726
0.999796 0.996789 0.999269
0.999712 0.997043 0.999232
1.00509 0.997558 0.98758
1.00512 0.997717 0.987316
1.00512 0.998108 0.986945
1.00511 0.998557 0.986566
1.00513 0.998186 0.986892
1.00513 0.997546 0.987515
1.00514 0.997166 0.987784
1.00512 0.997611 0.987442
1.00515 0.997011 0.988108
1.00516 0.995666 0.988935
1.00515 0.998265 0.986803
1.00511 0.997589 0.987517
1.00509 0.997498 0.987563
1.00052 1.00294 0.990852
1.00058 1.00445 0.988982
1.00233 1.00378 0.986657
1.00502 0.997324 0.98787
1.00433 0.999034 0.98733
1.00033 1.00266 0.991119
1.00041 1.00257 0.991455
1.00013 1.00255 0.991795
1.00019 0.999429 0.994825
1.00025 1.00069 0.993549
1.00018 1.00168 0.992646
1.00513 0.997592 0.987477
1.00021 0.999294 0.994941
1.00017 1.00035 0.99392
1.00512 0.996937 0.988102
1.00513 0.996841 0.987967
1.00017 1.00368 0.990503
1.0012 1.00498 0.987593
1.00311 1.0021 0.986541
1.00495 0.997029 0.988241
1.00022 1.00058 0.993685
1.00017 1.00152 0.992824
1.00076 1.0019 0.991295
1.00012 1.00231 0.992373
0.999986 1.00331 0.991254
1.00011 1.00227 0.992192
1.00513 0.996633 0.98842
1.00513 0.996556 0.988524
1.00509 0.996176 0.988604
1.00433 0.997933 0.988011
1.00045 1.00331 0.990547
1.00187 1.00471 0.986865
1.00015 1.00025 0.99399
1.0002 1.00048 0.993794
1.0001 1.00121 0.993368
1.00015 1.00146 0.992816
1.00007 1.00224 0.992393
0.999886 1.00305 0.991564
0.999747 1.00433 0.991001
1.00022 1.00166 0.992492
1.00015 1.00116 0.993129
1.00004 1.0027 0.991847
1.00514 0.996439 0.988594
1.00478 0.997102 0.988255
1.00018 1.00401 0.990453
1.00024 1.00437 0.989864
1.00371 1.00069 0.987407
1.00151 1.00461 0.987192
1.00005 1.00192 0.992647
1.00518 0.996007 0.988786
0.999971 1.00363 0.991106
1.00049 1.00447 0.989172
1.00519 0.995821 0.988875
1.00478 0.997792 0.987741
1.0023 1.00376 0.986861
0.999975 1.00293 0.991863
1.00515 0.995333 0.990151
1.00043 1.00404 0.99036
1.00112 1.00473 0.988363
1.00512 0.996399 0.988524
1.00321 1.00129 0.987207
1.00027 0.999838 0.99248
1.00005 1.00158 0.993
0.999969 1.00211 0.992623
1.00004 1.00228 0.992306
1.0003 1 0.994085
1.00017 1.00066 0.993643
1.00009 1.00114 0.993392
1.00003 1.00177 0.992821
1.00029 1.00008 0.994012
1.00023 1.0006 0.993579
1.00002 1.00199 0.9926
1.00013 1.00106 0.993393
1.00008 1.00155 0.992973
1.00007 1.00179 0.992729
1.00011 1.00123 0.993204
1.00019 1.00096 0.993374
1.00032 1.00062 0.99343
1.0003 1.00014 0.993868
1.00024 1.00065 0.993624
1.00028 1.00015 0.993896
1.00024 0.999142 0.995023
1.00024 0.99911 0.995043
1.00015 0.997301 0.996992
1.00025 0.999049 0.995096
1.00014 0.997272 0.997252
1.00003 0.996171 0.999346
1.00011 0.997276 0.997515
1.00005 0.996184 0.998479
1.00001 0.99619 0.998511
1.00021 0.999095 0.995136
1.00021 0.999166 0.995054
1.0001 0.997376 0.997016
1.00005 0.997513 0.997175
0.999931 0.996383 0.999329
1.00002 0.99771 0.996841
0.999864 0.996587 0.999298
0.999787 0.996829 0.99926
1.00515 0.997135 0.987778
1.00514 0.99754 0.987489
1.00512 0.99817 0.98693
1.00513 0.997606 0.987429
1.00514 0.996981 0.988075
1.00517 0.995913 0.988816
1.00512 0.996406 0.988554
1.00152 1.00009 0.988504
1.00523 0.995201 0.990089
1.00015 1.00024 0.994138
1.00513 0.997535 0.987567
1.00511 0.996997 0.988081
1.00514 0.996949 0.987888
1.0001 1.0037 0.990702
1.00119 1.005 0.987419
1.00308 1.00199 0.986558
1.00495 0.997074 0.988243
1.00087 1.00207 0.991023
0.999957 1.00175 0.99278
0.99997 1.00337 0.991167
1.00021 0.999289 0.99494
1.00013 1.00222 0.992213
1.00023 1.00056 0.993816
1.00017 1.00152 0.992818
1.00016 1.00036 0.993878
1.00514 0.996548 0.988486
1.00015 1.00025 0.99405
1.0002 1.00048 0.99379
1.0001 1.0012 0.993273
1.00513 0.996428 0.98852
1.00505 0.996343 0.988538
1.00054 1.00296 0.990629
1.00162 1.00464 0.986893
1.00433 0.998262 0.988007
1.00015 1.00147 0.992876
1.00007 1.00221 0.992367
1.00015 1.00205 0.992178
0.999748 1.00405 0.991174
0.999922 1.0031 0.991623
1.00512 0.99589 0.989103
1.00508 0.996889 0.988343
1.00503 0.996545 0.98836
1.00274 1.00161 0.988053
1.00037 1.00336 0.990613
1.00012 1.00106 0.993257
1.0001 1.00136 0.993038
1.00011 1.00173 0.992836
1.00004 1.00213 0.992412
1 1.00275 0.991952
0.999775 1.00389 0.991124
0.999689 1.00442 0.990668
1.00004 1.00195 0.992625
0.999924 1.00353 0.991144
1.00518 0.995997 0.988803
1.0052 0.995715 0.988783
1.00476 0.997714 0.987859
1.00047 1.00442 0.989107
1.0022 1.00388 0.986957
0.999949 1.00286 0.991982
1.00516 0.99528 0.990117
1.00023 1.00402 0.990408
1.00086 1.00477 0.988464
1.00511 0.996098 0.988676
1.00318 1.00134 0.987176
1.00023 0.999862 0.991089
1.00006 1.00325 0.99141
1.00487 0.995722 0.990944
1.0001 1.00436 0.990337
1.00121 1.00425 0.988164
1.00372 0.997757 0.98846
1.00156 0.995221 0.961209
0.996134 1.00078 0.979254
0.999242 1.00016 0.993824
0.999225 0.997381 0.94664
0.994942 0.998271 0.942115
0.999968 1.00212 0.992616
1.00001 1.00231 0.99236
1.00004 1.00201 0.992648
1.00029 1.00008 0.994009
1.00023 1.00058 0.993566
1.00013 1.00105 0.993388
1.00008 1.00157 0.993016
1.00003 1.002 0.992571
1.00019 1.00095 0.993342
1.00029 1.00014 0.993917
1.00031 1.00061 0.993456
1.00007 1.0018 0.99273
1.00012 1.00124 0.993205
1.00015 1.00111 0.993192
1.0001 1.00125 0.993201
1.0003 1.00089 0.993215
1.00036 1.00067 0.993275
1.00029 1.00017 0.993857
1.00032 1.00065 0.993434
1.00027 1.00089 0.993327
1.00016 1.00073 0.993604
1.00025 1.00065 0.99357
1.00027 1.00011 0.994031
1.00028 1.00016 0.993888
1.00024 0.999145 0.995029
1.00024 0.999141 0.995022
1.00014 0.997352 0.996972
1.00024 0.999111 0.995044
1.00015 0.997305 0.99699
1.00003 0.996181 0.999338
1.00014 0.997299 0.997025
1.00005 0.996175 0.9989
1.00005 0.996148 0.998483
1.0002 0.999044 0.995191
1.00021 0.999087 0.995135
1.00012 0.997288 0.997061
1.00022 0.999165 0.99505
1.00009 0.997365 0.99724
0.999978 0.996268 0.999343
1.00006 0.99753 0.996937
0.999922 0.996436 0.99932
0.999856 0.996622 0.999289
1.00513 0.996951 0.988042
1.00513 0.997605 0.987417
1.00519 0.996138 0.988697
1.00145 0.999035 0.988638
1.00512 0.996448 0.988576
1.00524 0.995476 0.98994
1.00522 0.996372 0.989107
0.998059 1.00002 0.97594
1.00298 0.996844 0.989299
1.00015 1.00022 0.994153
1.00015 1.00023 0.994139
1.00011 1.001 0.993438
1.0001 1.00098 0.993486
1.00514 0.996477 0.988551
1.00513 0.996356 0.988516
1.00508 0.996423 0.988472
1.00063 1.00261 0.99071
1.00137 1.00454 0.98692
1.00434 0.998638 0.988003
1.00009 1.00245 0.991857
0.999764 1.00379 0.991347
0.999961 1.00314 0.991681
1.0002 1.00049 0.993786
1.00007 1.00218 0.992341
1.00015 1.00149 0.992936
1.00016 1.00025 0.994111
1.0001 1.0012 0.993179
1.00508 0.995951 0.989118
1.00012 1.00107 0.993358
1.0001 1.00135 0.993077
1.0001 1.00171 0.992785
1.0051 0.996536 0.988403
1.00501 0.996568 0.988329
1.00045 1.00321 0.990593
1.00271 1.00185 0.98797
1.00005 1.00218 0.992406
0.999953 1.00273 0.992017
0.99972 1.00445 0.990669
0.999856 1.00397 0.991026
1.00513 0.996111 0.988905
1.0051 0.996139 0.988547
1.0039 0.999267 0.988091
1.00041 1.00387 0.990106
1.00013 1.00171 0.992651
1.00002 1.00193 0.992661
0.999962 1.00291 0.991801
0.999907 1.00452 0.990221
1.00068 0.995017 0.958492
0.999915 1.00278 0.992101
1.00005 1.00397 0.990456
1.00517 0.995195 0.990081
1.00511 0.995781 0.988827
1.00313 1.00137 0.987145
1.0006 1.00481 0.988563
1.00018 0.999852 0.989679
0.999953 1.00329 0.991496
1.00484 0.995432 0.990854
1.00002 1.00429 0.990382
1.00112 1.00434 0.988145
1.00402 0.997819 0.988431
1.00178 0.995561 0.958301
0.996005 1.0005 0.975494
0.999337 1.00015 0.994081
0.998115 0.997888 0.947298
0.994805 0.998238 0.937936
0.999819 1.00317 0.99201
0.999947 0.994932 0.948223
0.994789 0.999782 0.94349
1.0041 0.995643 0.991605
0.999657 1.0049 0.990539
1.00151 1.00201 0.989388
0.998408 1.00035 0.996237
0.998668 0.998366 0.961843
0.994809 1.00059 0.975378
0.997353 0.999962 0.948434
0.994399 0.99992 0.948441
0.999965 1.00234 0.992413
1.00001 1.00205 0.992631
0.999959 1.00143 0.993526
1.00028 1.00014 0.993967
1.00031 1.0006 0.993482
1.00019 1.00094 0.993311
1.00013 1.00125 0.993205
1.00007 1.00182 0.99273
1.00029 1.00017 0.993856
1.00016 1.00113 0.993199
1.0003 1.0009 0.993241
1.00036 1.00065 0.993338
1.00011 1.00124 0.993218
1.00027 1.00097 0.993125
1.00024 1.00053 0.993675
1.00039 1.00082 0.993148
1.00036 1.00066 0.993357
1.00033 1.00065 0.993431
1.00028 1.00087 0.993309
1.00038 1.0008 0.993175
1.00016 1.00103 0.993329
1.00028 1.0009 0.993267
0.999938 1.0018 0.99292
1.0001 1.00087 0.99357
1.00016 1.00075 0.993603
1.00024 1.00011 0.994076
1.00026 1.00066 0.993516
1.00027 1.00012 0.993996
1.00023 0.999134 0.995051
1.00028 1.00017 0.993881
1.00024 0.999139 0.995029
1.0001 0.99738 0.997433
1.00024 0.999141 0.995022
1.00013 0.997345 0.997201
1.00007 0.996208 0.998419
1.00015 0.99731 0.996989
1.00003 0.996187 0.999336
1.00007 0.996179 0.998453
1.00017 1.00018 0.994145
1.0002 0.999007 0.995228
1.00021 0.99904 0.995192
1.00014 0.997222 0.997104
1.00021 0.999081 0.995134
1.00013 0.997278 0.997062
1.00001 0.996183 0.999354
1.00008 0.997373 0.997456
0.99999 0.996306 0.998888
0.999962 0.99647 0.998407
1.00123 0.998124 0.988779
1.00512 0.996506 0.988598
1.00524 0.995793 0.989792
0.997521 0.999266 0.977953
1.00281 0.997308 0.989565
1.00523 0.995809 0.989151
1.00458 0.996481 0.98961
0.998585 0.996924 0.980683
1.00014 0.995778 0.961066
0.997596 0.997748 0.948528
0.994696 0.998335 0.941559
1.00008 1.00103 0.993384
1.00015 1.00022 0.994153
1.00016 1.00022 0.99414
1.00011 1.00101 0.993407
1.00005 1.0015 0.993033
1.00013 1.00136 0.993114
1.00013 1.00096 0.993488
1.0001 1.001 0.993446
1.00507 0.995973 0.989134
1.00512 0.996135 0.988461
1.00489 0.996628 0.988296
1.00052 1.00304 0.990576
1.00266 1.00197 0.987886
0.999751 1.00446 0.990672
0.999928 1.00407 0.990928
0.999901 1.00272 0.992081
1.0001 1.00134 0.993115
1.00006 1.00224 0.992399
1.00013 1.00108 0.993458
1.0001 1.00169 0.992735
1.00513 0.996232 0.988834
1.00011 1.0017 0.992745
1.00004 1.00194 0.992629
1.00509 0.996264 0.988471
1.0035 0.998954 0.98841
1.00054 1.00381 0.989854
1.00001 1.0029 0.9918
0.999952 1.00457 0.990215
1.00399 1.0001 0.988855
1.0045 0.996602 0.989826
1.00117 1.00128 0.989562
1.00011 1.00384 0.990623
1.00012 1.00164 0.9927
1.00009 1.00227 0.992236
0.999993 1.00335 0.991305
0.999768 0.994941 0.945986
1.00108 0.994927 0.963893
0.999852 1.00334 0.991581
0.999944 1.00428 0.990427
1.00483 0.995215 0.990768
1.00437 0.997977 0.988401
1.00104 1.00445 0.988126
1.00089 0.99512 0.958941
0.996202 1.00071 0.976021
0.999355 1.00012 0.994347
0.997699 0.997408 0.950357
0.994682 0.9982 0.933736
0.99977 1.00316 0.992019
1.00001 0.994957 0.946317
0.99478 0.999814 0.941545
1.00431 0.996003 0.99156
0.999596 1.00479 0.990592
1.00132 1.00188 0.989611
0.998751 0.999303 0.996973
0.999133 0.998817 0.95915
0.995251 1.00038 0.978028
0.996698 0.999969 0.948516
0.994557 0.999995 0.946341
0.999514 1.00308 0.992695
0.994547 1.00001 0.946513
0.994167 1.00395 0.960913
1.00135 0.998128 0.994416
0.999345 1.00434 0.992027
0.997619 1.00174 0.997338
0.995668 0.999961 0.982617
0.995989 1.00071 0.958716
0.995909 0.999984 0.951069
0.994203 1.00018 0.956257
0.999993 1.00207 0.992615
0.999965 1.00146 0.993399
0.9997 1.00043 0.994602
1.00029 1.00017 0.993855
1.00036 1.00064 0.9934
1.00029 1.0009 0.993266
1.00016 1.00114 0.993205
1.00012 1.00122 0.993236
1.00036 1.00065 0.993357
1.00027 1.00102 0.993146
1.00039 1.00082 0.993142
1.00017 1.00053 0.993823
1.00014 0.999732 0.994773
1.00042 1.00049 0.993372
1.00043 1.00078 0.993105
1.00034 1.00064 0.993427
1.00028 1.00085 0.993291
1.00037 1.0008 0.993178
1.00016 1.00102 0.993326
1.00028 1.00089 0.993269
1.00005 1.00128 0.993237
1.00034 1.00079 0.993204
1.00015 1.00104 0.993329
1.00002 1.0024 0.992178
0.999696 1.00424 0.990849
0.999823 1.0025 0.99228
0.99993 1.00187 0.992894
1.00006 1.0011 0.993437
1.0001 1.00089 0.993564
1.0002 1.00016 0.994107
1.00016 1.00077 0.993601
1.00024 1.00012 0.994075
1.00021 0.999143 0.995079
1.00027 1.00012 0.993961
1.00023 0.999129 0.995052
1.00007 0.997413 0.997449
1.00024 0.999134 0.99503
1.00011 0.997372 0.997209
1.00005 0.996214 0.998425
1.00014 0.997334 0.996973
1.00002 0.996209 0.999332
1.00003 0.996192 0.999334
1.00019 1.00022 0.994241
1.00021 0.999007 0.995223
1.00016 1.0002 0.994143
1.00014 0.997193 0.997132
1.0002 0.99901 0.995228
1.00021 0.999034 0.995193
1.00014 0.997225 0.997103
1.00003 0.996126 0.999365
1.00011 0.997272 0.997501
1.00003 0.996196 0.998908
1.00002 0.996311 0.998443
0.999467 0.995456 0.945738
0.994969 0.999389 0.944764
0.998025 0.998328 0.979162
1.00264 0.99789 0.989825
1.00523 0.995319 0.989194
0.998221 0.996962 0.983366
1.00457 0.996781 0.989621
1.00041 0.995344 0.962204
0.998268 0.997514 0.946499
0.994644 0.998212 0.937284
0.999584 0.996975 0.987245
0.997842 0.998323 0.964215
0.997115 0.999824 0.948132
0.994571 0.999963 0.945833
1.00012 1.00151 0.992907
1.00009 1.00103 0.993407
1.00015 1.00021 0.994152
1.00011 1.00102 0.993376
1.00005 1.00146 0.993089
1.00012 1.00146 0.992983
1.00014 1.00134 0.99308
1.00015 1.00109 0.993263
1.00013 1.00096 0.99344
1.0001 1.001 0.993404
1.0051 0.996326 0.988765
1.00505 0.996442 0.9884
1.00315 0.998631 0.988732
1.00067 1.0038 0.989602
0.999996 1.00461 0.990209
1.00006 1.00289 0.9918
1.00006 1.00196 0.992597
1.00009 1.00168 0.992838
1.00394 0.999229 0.988913
1.00013 1.00167 0.992694
1.0001 1.00224 0.992231
1.00444 0.996481 0.989613
1.00109 1.00191 0.989714
1.00023 1.00395 0.990304
1.00004 1.00331 0.991286
1.00107 1.00237 0.991994
1.00121 0.999344 0.993149
0.999982 1.00282 0.991572
1.00012 1.00182 0.992615
1.0002 1.0017 0.992486
1.00022 1.00232 0.991936
0.994417 0.999589 0.953047
0.9998 0.995334 0.948078
1.00055 0.99491 0.957979
0.9997 1.00313 0.992028
0.999541 1.00476 0.990648
1.00457 0.996264 0.991508
1.00111 1.00179 0.989832
0.999953 0.99524 0.948501
0.998395 0.998319 0.960396
0.994879 1.00023 0.975424
0.99904 0.998012 0.997633
0.997356 0.999948 0.945729
0.994811 0.999846 0.941759
0.994763 0.999968 0.946293
0.99939 1.00317 0.992719
0.99459 1.00006 0.948485
0.994262 1.00403 0.960498
1.0016 0.998049 0.99434
0.999007 1.00435 0.992043
0.997138 0.999501 1.00031
0.99545 0.99985 0.978801
0.996241 1.00058 0.962869
0.997059 0.999755 0.948977
0.994301 1.00021 0.956348
0.998727 1.00252 0.99497
0.993741 1.00319 0.968385
0.993547 1.00542 0.972848
0.99718 1.00165 0.997929
0.996053 1.00053 0.98812
0.995537 0.999973 0.96293
0.995131 0.99995 0.951237
0.994657 1.00015 0.95482
0.999964 1.00154 0.993274
0.999803 1.00039 0.994651
0.999307 0.999686 0.995887
1.00037 1.00065 0.993356
1.00039 1.00081 0.993136
1.00027 1.00107 0.993167
1.00011 1.0005 0.993969
1.00042 1.00079 0.993108
1.00041 1.00053 0.993342
1.00015 0.999525 0.99489
0.999683 0.999199 0.995994
1.00036 0.99961 0.994377
1.0004 1.00063 0.993215
1.00037 1.0008 0.993181
1.00016 1.00101 0.993322
1.00028 1.00088 0.993271
1.00034 1.00081 0.993207
1.00004 1.00133 0.993223
1.00017 1.00103 0.993323
1.00006 1.00141 0.993164
1.00018 1.00081 0.993501
0.999945 1.00238 0.992357
1.00003 1.00238 0.99224
0.999713 1.00387 0.991232
1.00018 1.00458 0.989777
0.999905 1.00328 0.991694
0.99966 1.0041 0.991074
0.999839 1.00253 0.992401
0.999987 1.00157 0.992976
0.999923 1.00195 0.992868
1.00006 1.00112 0.993426
1.00016 1.00025 0.994083
1.00011 1.00091 0.993558
1.0002 1.00016 0.994105
1.00017 0.999208 0.995093
1.00025 1.00012 0.994074
1.00021 0.999138 0.99508
1.00003 0.997467 0.997469
1.00023 0.999123 0.995054
1.00008 0.997408 0.997228
1.00001 0.996277 0.998439
1.00013 0.997357 0.996982
1.00003 0.996228 0.998877
1.00002 0.996216 0.999332
1.0002 1.00028 0.994028
1.0002 0.999059 0.995182
1.00018 1.00022 0.994124
1.00013 0.997215 0.997127
1.00021 0.999012 0.995224
1.00016 1.00021 0.99414
1.00003 0.996108 0.99937
1.00014 0.997193 0.997131
1.00021 0.999009 0.995228
1.00014 0.997228 0.997101
1.00002 0.996134 0.999362
1.00001 0.996194 0.99935
0.994591 0.999447 0.951109
0.999723 0.995276 0.946859
0.994322 1.00444 0.959876
0.994911 0.999657 0.943299
0.999055 0.996842 0.979077
1.00456 0.997195 0.989605
1.00033 0.995237 0.963301
0.998966 0.998264 0.94942
0.994599 0.998158 0.932985
0.999105 0.997695 0.985549
0.998757 0.997858 0.95866
0.996863 0.999817 0.947985
0.994522 0.999877 0.943693
0.995832 0.999453 0.984334
0.997654 1.00019 0.958749
0.995503 0.999751 0.947628
0.994413 1.00002 0.952407
1.00015 1.00175 0.992664
1.00012 1.00151 0.99295
1.0001 1.00104 0.99343
1.00006 1.00142 0.993146
1.00016 1.00161 0.992694
1.00013 1.00144 0.993014
1.00014 1.00133 0.993047
1.00021 1.00109 0.99324
1.00016 1.00107 0.993323
1.00014 1.00095 0.993394
1.00382 0.998413 0.98898
1.00441 0.996342 0.989401
1.00102 1.00249 0.989864
1.00034 1.00404 0.989989
1.00009 1.00329 0.991266
1.0001 1.00219 0.992227
1.00014 1.00169 0.992689
1.00013 1.00182 0.992606
1.00115 1.00121 0.992266
1.0002 1.00176 0.992518
1.00024 1.00231 0.991894
1.00133 0.999468 0.992757
1.00024 1.0027 0.991524
0.998849 1.00068 0.996046
0.999374 0.999609 0.996886
1.0003 1.00137 0.992385
1.00026 1.00166 0.992497
1.00029 1.00186 0.992237
0.993337 1.00256 0.973165
0.994446 1.00011 0.952878
0.999748 0.995796 0.945729
0.99928 1.00317 0.992739
0.998744 1.00448 0.992053
1.00167 0.998047 0.994291
0.994618 1.00002 0.950448
0.997353 1.00078 0.958836
0.994942 0.999724 0.980667
0.996831 0.998297 1.00347
0.995684 0.999992 0.950768
0.994334 1.00413 0.960104
0.99425 1.00015 0.956668
0.998611 1.00262 0.994926
0.99368 1.00288 0.970537
0.993489 1.00549 0.972829
0.997144 1.0023 0.998192
0.995507 1.00044 0.988296
0.99608 0.999834 0.958688
0.994508 1.00008 0.956773
0.994928 0.999801 0.95241
0.997048 1.00238 0.997925
0.993356 1.00477 0.986348
0.993534 1.00592 0.974305
0.994427 1.00004 0.95247
0.995017 1.00177 0.996736
0.995912 0.999038 0.964567
0.994674 0.999958 0.953322
0.999921 1.00033 0.994697
0.999487 0.999867 0.995587
0.999074 0.999166 0.997197
1.00042 1.00079 0.99311
1.0004 1.00059 0.993313
1.00017 0.999299 0.995008
1.0004 1.00068 0.993204
1.00037 0.999529 0.994382
0.999946 0.999138 0.995615
0.999546 0.998675 0.996825
1.00033 1.00023 0.993797
1.00033 1.00082 0.993209
1.00003 1.00137 0.99321
1.00018 1.00101 0.993318
1.00019 1.00082 0.993477
1.00008 1.00132 0.993226
0.999569 1.00183 0.993564
0.999817 1.00253 0.992415
0.999967 1.00396 0.990688
1.00005 1.00234 0.992303
0.999869 1.00377 0.991204
1.0001 1.00491 0.98933
1.00018 1.00475 0.989487
0.999955 1.00371 0.991079
1.00012 1.00454 0.989838
0.999994 1.00226 0.99243
0.999902 1.00332 0.99159
0.999623 1.00397 0.9913
0.999854 1.00255 0.992523
0.999996 1.00153 0.993074
1.00012 1.00048 0.993917
1.00006 1.00114 0.993415
1.00016 1.00027 0.994078
1.00012 0.999316 0.995078
1.00021 1.00016 0.994102
1.00018 0.999195 0.995095
0.999963 0.997568 0.997477
1.00022 0.999131 0.995082
1.00004 0.997469 0.997249
0.999951 0.996365 0.998453
1.0001 0.997394 0.997003
0.999989 0.996287 0.998885
0.999995 0.996256 0.999334
1.00024 1.00039 0.993707
1.00019 0.999175 0.994928
1.00021 1.00029 0.994026
1.00011 0.997296 0.997084
1.0002 0.99907 0.995098
1.00017 1.00022 0.994008
1.00002 0.996139 0.999366
1.00013 0.997212 0.997128
1.00021 0.999015 0.995225
1.00003 0.996109 0.999369
1.00014 0.997195 0.997131
1.00002 0.996143 0.999359
0.993309 1.0031 0.971457
0.994588 0.999204 0.951071
0.999639 0.995144 0.94753
1.00025 1.00103 0.993156
0.993312 1.00536 0.974082
0.994348 1.00443 0.959505
0.994916 0.999796 0.943889
0.999047 0.998507 0.983854
0.998228 0.998881 0.96422
0.997168 0.999785 0.945266
0.994514 0.999823 0.94366
0.995773 0.999763 0.979917
0.996472 1.00011 0.962985
0.997156 0.999868 0.949422
0.994486 0.999999 0.951558
0.995559 1.00011 0.975889
0.995326 1.00007 0.960572
0.994861 0.999844 0.952715
0.994571 1.0001 0.954894
1.0002 1.00178 0.992514
1.00014 1.00175 0.992651
1.00011 1.0015 0.992993
1.00019 1.00151 0.992777
1.00016 1.00161 0.992767
1.00013 1.00143 0.993045
1.00021 1.0011 0.993246
1.00017 1.00107 0.993382
1.00119 0.999967 0.992523
1.00144 0.999621 0.99236
1.00013 1.00181 0.992597
1.00049 1.0027 0.991474
1.00026 1.00225 0.991852
1.00018 1.00182 0.992549
1.00024 1.00171 0.992523
0.998965 1.00026 0.996418
1.00025 1.00187 0.992313
1.00046 1.00133 0.992433
0.999478 0.998775 0.996852
1.00027 1.00159 0.992664
0.997337 0.99958 0.998583
0.998523 1.00047 0.997766
1.00032 1.00096 0.992799
1.00027 1.00135 0.992818
0.993681 1.00396 0.989029
0.993226 1.00301 0.973581
0.994468 1.00055 0.952721
0.998449 1.00265 0.994894
0.997195 1.00227 0.998409
0.99362 1.00261 0.972664
0.9956 1.00008 0.963836
0.995099 0.999442 0.984446
0.995173 0.999861 0.952029
0.993436 1.00554 0.972822
0.994398 1.00002 0.958723
0.997346 1.00239 0.997418
0.993195 1.00473 0.986524
0.993567 1.00599 0.977111
0.995252 1.00301 0.999485
0.994507 1.00002 0.951532
0.995207 0.999064 0.96213
0.994894 0.99984 0.953204
0.996872 1.00184 0.999229
0.995125 1.00443 0.987583
0.993324 1.0055 0.973996
0.994586 1.00002 0.945922
0.995192 0.999799 0.952025
0.995868 0.999107 0.993786
0.995925 1.00017 0.957347
0.999597 1.00002 0.995295
0.999025 0.999534 0.996991
0.997854 0.998377 1.00088
1.0004 1.00072 0.993193
1.00039 0.999448 0.994386
1.00016 0.999196 0.995235
1.00029 1.00036 0.993762
0.999631 0.998246 0.99687
0.99908 1.00182 0.994406
1.0002 1.00084 0.993453
1.00011 1.00123 0.993289
0.999749 1.00195 0.993332
0.999316 1.00415 0.991552
0.999682 1.00266 0.992471
0.9998 1.00381 0.99096
1.0003 1.005 0.989123
1.00105 1.00477 0.98792
1.00003 1.00368 0.991175
1.00022 1.00491 0.989182
1.00043 1.00449 0.989655
0.999818 1.00429 0.990479
1.00021 1.00461 0.989625
0.999976 1.00277 0.991948
0.999997 1.00368 0.991061
1.00006 1.00449 0.989899
1.00009 1.00094 0.993527
0.999981 1.00223 0.992408
0.999899 1.00336 0.991486
1 1.00149 0.993171
1.00012 1.00051 0.993905
1.00006 0.999495 0.995008
1.00015 1.00028 0.994073
1.00012 0.999307 0.995079
0.999911 0.997726 0.997015
1.00018 0.999182 0.995097
0.999986 0.997571 0.997036
0.999832 0.996479 0.999348
1.00005 0.997457 0.997026
0.999935 0.99637 0.998894
0.999955 0.996317 0.999338
1.00028 1.00039 0.993642
1.00019 0.999322 0.99477
1.00025 1.00039 0.993778
1.00008 0.997425 0.99701
1.00019 0.999187 0.994909
1.00022 1.00029 0.994024
0.99999 0.996218 0.999353
1.00011 0.99729 0.997087
1.0002 0.99908 0.995013
1.00002 0.996131 0.999367
1.00013 0.99721 0.997129
1.00003 0.996109 0.999368
0.993732 1.00393 0.985991
0.99334 1.00349 0.971302
0.994624 0.999238 0.951022
1.00024 1.00105 0.993171
1.00024 1.00108 0.993089
1.00017 1.00148 0.992904
0.993555 1.00571 0.974545
0.993367 1.00514 0.974073
0.994382 1.00459 0.959121
0.995143 1.00051 0.982885
0.996598 1.00008 0.9584
0.995367 0.999901 0.950912
0.994473 0.999938 0.950911
0.995526 1.00011 0.978987
0.996362 1.00004 0.960385
0.995285 0.999913 0.953401
0.994474 1.00007 0.95683
0.995284 1.00001 0.975699
0.995695 1.00005 0.96227
0.994589 0.999951 0.953864
0.994237 1.00015 0.955975
1.00025 1.00163 0.992574
1.0002 1.00179 0.992495
1.00013 1.00176 0.992638
1.0002 1.00152 0.992772
1.00016 1.00161 0.992841
1.00022 1.00111 0.993251
0.999162 0.999927 0.996783
0.9994 0.998158 0.996821
1.00023 1.00178 0.992548
1.00065 1.00113 0.992482
1.00023 1.00192 0.992389
1.00031 1.00153 0.992577
1.00025 1.00135 0.992894
0.997381 1.00003 0.998809
1.0003 1.00091 0.99311
0.998328 0.999929 0.998495
1.00022 1.00117 0.993164
0.996095 0.998976 0.999591
0.9981 1.00083 0.998993
1.00008 1.00057 0.993972
0.996208 1.00364 0.990827
0.993818 1.00387 0.989659
0.993134 1.00349 0.97399
0.997641 1.00259 0.99689
0.996007 1.00209 0.99767
0.993036 1.00469 0.986699
0.995577 0.99925 0.968058
0.994694 0.999924 0.952717
0.993628 1.00608 0.979918
0.994493 0.999904 0.951031
0.996761 1.00205 0.999352
0.995116 1.00471 0.988328
0.993376 1.00528 0.973985
0.995194 1 0.989147
0.994526 0.999966 0.943888
0.995521 0.999878 0.952393
0.995463 1.00016 0.962771
0.995878 1.00129 1.0017
0.993749 1.00404 0.985859
0.994209 1.00455 0.960172
0.994765 0.998285 0.94179
0.995523 0.999912 0.947287
0.995377 1.00007 0.962344
0.995669 0.998938 0.985433
0.998988 0.999988 0.996809
0.997834 0.998145 1.00075
0.998171 1.00016 0.998514
1.00025 1.00047 0.993728
0.999733 0.997777 0.996916
0.998907 1.0019 0.994672
0.998783 1.00386 0.993041
0.999933 1.00209 0.993102
0.99972 1.00417 0.99121
1.00039 1.00506 0.988901
0.99962 1.00369 0.991235
1.00033 1.00499 0.989039
1.00146 1.005 0.987271
1.00207 1.00455 0.986456
1.00075 1.00425 0.988766
1.00103 1.00483 0.987863
1.00034 1.00491 0.989034
1.00037 1.00395 0.990213
1.00029 1.00434 0.989856
0.999899 1.00355 0.991151
0.999888 1.00423 0.990598
1.00024 1.00448 0.989762
1.00008 1.00157 0.99293
0.999996 1.00274 0.991956
1.00004 1.00366 0.991043
1 0.999785 0.994814
1.00009 1.00095 0.993517
0.99997 1.0022 0.992386
1.00012 1.00054 0.993893
1.00006 0.999494 0.995005
0.999825 0.997938 0.99696
1.00013 0.999298 0.995079
0.999915 0.997729 0.997014
0.999771 0.996644 0.999337
0.999993 0.997566 0.997034
0.99986 0.996501 0.998899
0.9999 0.996405 0.999342
1.0003 1.00042 0.993668
1.0002 0.999418 0.994806
1.00028 1.0004 0.993676
1.00004 0.997582 0.996926
1.0002 0.999329 0.994835
1.00025 1.00039 0.993849
0.999951 0.996339 0.999334
1.00008 0.997417 0.997014
1.00019 0.999199 0.99489
0.999994 0.996201 0.999357
1.00011 0.997284 0.99709
1.00002 0.996122 0.999369
0.995144 1.00408 0.987863
0.993581 1.00404 0.986179
0.99337 1.00363 0.971203
1.00022 1.00116 0.993027
1.00011 1.00179 0.99271
1.00022 1.00107 0.993186
1.00024 1.00109 0.993084
1.00017 1.00147 0.992867
1.00015 1.00156 0.992855
1.00015 1.00168 0.992722
0.993619 1.00522 0.97277
0.993523 1.00575 0.977389
0.99342 1.00485 0.974062
0.994382 1.00005 0.958768
0.994824 1.00004 0.976463
0.995868 1.00008 0.960897
0.994702 0.999957 0.953405
0.995703 1.00001 0.974887
0.995381 1.00007 0.95895
0.994715 0.999857 0.954416
0.994322 1.00017 0.956169
0.995826 0.99782 0.979736
0.99512 1.0001 0.958635
0.995337 0.999927 0.951596
0.994421 0.999864 0.947953
1.00019 1.00138 0.992984
1.00025 1.00158 0.992575
1.00019 1.00179 0.992476
1.0002 1.00152 0.992767
0.997491 1.0005 0.999014
0.998224 0.999298 0.999207
1.00034 1.00146 0.992492
1.00021 1.00133 0.99297
1.00019 1.00093 0.99342
1.00021 1.00119 0.993093
0.999981 1.00063 0.993928
0.995852 0.999903 0.997895
0.997653 1.00093 0.999263
0.999796 1.00101 0.993886
0.995929 0.998673 0.997994
0.998206 1.00125 0.998145
0.993701 1.00412 0.9889
0.996858 1.00323 0.990525
0.993972 1.00386 0.99029
0.996668 1.0021 0.999447
0.995745 0.999384 0.994497
0.995078 1.00497 0.989072
0.996061 1.00017 0.957834
0.994785 0.999989 0.952501
0.993427 1.00499 0.973969
0.994519 0.999858 0.943799
0.995823 1.0011 1.00188
0.993586 1.0043 0.98602
0.994249 1.00446 0.959805
0.995036 0.998811 0.98971
0.994718 0.998219 0.937577
0.997229 0.999924 0.948932
0.995469 1.0001 0.959608
0.996218 1.0012 0.999651
0.993282 1.00322 0.97155
0.994906 0.999453 0.945241
0.99729 0.999909 0.94802
0.995509 1.00055 0.962602
0.994852 0.999579 0.979616
0.99786 0.99787 1.00057
0.997897 1.00068 0.998489
0.999806 0.998851 0.997268
0.998712 1.00201 0.994937
0.99837 1.00398 0.993323
1.00075 1.00307 0.98999
1.00014 1.00416 0.990865
1.00061 1.00498 0.988679
1.00187 1.00367 0.987334
1.00038 1.00497 0.988955
1.00147 1.00501 0.987147
1.00258 1.00342 0.986227
1.00318 1.00258 0.986211
1.00188 1.0044 0.987149
1.00213 1.00448 0.98626
1.0007 1.00353 0.989536
1.00075 1.00424 0.988913
1.00103 1.00489 0.987806
1.00035 1.00361 0.990461
1.00032 1.00402 0.99017
1.00016 1.00419 0.990056
1.00009 1.00227 0.992171
0.999929 1.00345 0.991281
0.999961 1.00416 0.990716
0.999967 1.00026 0.9944
1.00008 1.00155 0.99293
1.00002 1.0027 0.991964
0.999749 0.998173 0.996876
1 0.999802 0.994804
1.00009 1.00097 0.993507
1.00007 0.999492 0.995002
0.999831 0.997944 0.996956
0.999679 0.996845 0.999324
0.999919 0.997733 0.997012
0.999759 0.996677 0.999334
0.99983 0.996532 0.99934
1.00022 1.00126 0.992999
1.0003 1.00048 0.993612
1.00019 0.999517 0.99473
1.0003 1.00042 0.993667
0.999992 0.997745 0.996851
1.0002 0.999436 0.994804
1.00027 1.00041 0.99371
0.9999 0.996485 0.999314
1.00004 0.997574 0.996931
1.0002 0.999334 0.994899
0.999956 0.996316 0.99934
1.00008 0.99741 0.997019
0.999998 0.996183 0.999362
0.993362 1.00458 0.986453
0.99511 1.0044 0.988589
0.993426 1.00424 0.986368
1.00023 1.00115 0.99306
1.00011 1.00179 0.992666
1.00009 1.0021 0.992338
1.00009 1.0017 0.992708
1.00005 1.00224 0.992402
1.00024 1.00108 0.993079
1.00017 1.00145 0.992829
1.00013 1.00157 0.992857
1.00018 1.00167 0.992667
1.00007 1.0018 0.992801
0.994194 1.00417 0.96037
0.993549 1.00528 0.972753
0.993554 1.00578 0.980231
0.994325 1.00014 0.956496
0.994614 0.999929 0.953413
0.995182 0.999984 0.973445
0.994955 1.00004 0.96178
0.995687 0.997973 0.975539
0.995602 1.00006 0.961975
0.994776 0.999884 0.953058
0.994569 0.999908 0.94582
0.995976 0.995166 0.980386
0.995339 1.00004 0.962832
0.99613 0.999918 0.950528
0.994881 0.998179 0.941475
0.999693 1.00104 0.994127
1.00015 1.00145 0.99297
1.00025 1.00155 0.992576
0.995634 1.00078 0.996226
0.997446 1.00088 0.999538
1.00023 1.00118 0.993021
0.999957 1.00073 0.993884
0.99979 1.001 0.993909
0.99821 1.00089 0.997957
0.995569 0.998573 0.998165
0.998384 1.00145 0.996242
0.995879 1.00047 0.997223
0.993427 1.00323 0.972152
0.993862 1.00398 0.989579
0.99746 1.00278 0.990223
0.99571 1.00095 1.00209
0.995078 0.998559 0.983361
0.993429 1.00462 0.986182
0.99606 1.00007 0.958924
0.995516 0.999946 0.950402
0.994283 1.00455 0.959432
0.994667 0.998189 0.933341
0.996168 1.00081 0.999843
0.993324 1.00362 0.971391
0.994869 0.999657 0.943758
0.994912 0.99951 0.981379
0.99687 0.999911 0.947922
0.995963 1.00001 0.959464
0.99792 0.999394 0.995433
0.994539 0.999636 0.951481
0.997459 0.997695 0.94849
0.997749 1.001 0.958324
0.994848 0.999845 0.981159
0.997647 1.00109 0.998455
0.999611 0.998876 0.997328
1.00204 0.999055 0.992671
0.997987 1.00404 0.993602
1.0003 1.00326 0.99035
1.0028 0.999905 0.988732
1.00082 1.00493 0.988456
1.00188 1.00359 0.987392
1.00348 1.00054 0.987478
1.00147 1.00502 0.987023
1.00264 1.00335 0.986277
1.00403 1.00008 0.986704
1.00409 0.999984 0.987041
1.00254 1.00336 0.98649
1.00311 1.00249 0.98625
1.00153 1.0037 0.988268
1.00178 1.00443 0.986977
1.00219 1.00442 0.986064
1.00073 1.00307 0.990216
1.00068 1.00348 0.989703
1.00074 1.00421 0.98906
1.00031 1.00264 0.991426
1.0003 1.00361 0.990524
1.00028 1.0041 0.990126
0.999968 1.00095 0.993712
1.00012 1.00224 0.992171
0.999957 1.00334 0.991411
0.99965 0.998512 0.997162
0.999961 1.00028 0.994387
1.00009 1.00153 0.99293
0.999601 0.997115 0.998348
0.999747 0.998208 0.997084
1 0.999816 0.994795
0.999838 0.99795 0.996953
0.999666 0.99689 0.999317
0.999746 0.996712 0.99933
1.00018 1.00159 0.992681
1.00028 1.00063 0.993474
1.00021 1.0013 0.992963
1.00015 0.999644 0.994682
1.00029 1.0005 0.993613
0.999934 0.997912 0.996791
1.00018 0.999543 0.994727
1.0003 1.00044 0.993665
0.99984 0.996646 0.999295
0.999988 0.997744 0.996855
1.00019 0.999459 0.994801
0.999906 0.99646 0.99932
1.00004 0.997568 0.996936
0.999962 0.996291 0.999346
0.993721 1.00312 0.972931
0.993217 1.00453 0.986633
0.99505 1.00467 0.989315
1.00004 1.00246 0.99217
1.00022 1.00118 0.993093
1.00012 1.0018 0.992621
1.00011 1.00172 0.992745
1.00012 1.00205 0.992386
1.00006 1.0022 0.992376
1.00006 1.00252 0.992054
0.999965 1.00225 0.992365
1.00011 1.00158 0.992858
1.0002 1.00167 0.992611
1.00004 1.00184 0.992768
0.999926 1.00221 0.992986
0.994764 0.999799 0.943094
0.994319 1.00425 0.959937
0.993441 1.00533 0.972739
0.994764 0.999918 0.945809
0.995265 0.999885 0.953098
0.99512 1.0001 0.958784
0.995885 0.998123 0.974983
0.996288 0.995057 0.982434
0.994735 0.998162 0.937387
0.995199 1.00009 0.959465
0.996926 0.999884 0.94844
0.995491 0.997125 0.984049
0.996049 1.00006 0.963919
0.997324 0.999852 0.947189
0.99925 1.00059 0.995357
0.999819 1.00099 0.994119
1.00011 1.00154 0.992956
0.995131 0.998422 0.998272
0.998221 1.00039 0.997777
0.999755 1.00099 0.993931
0.998885 1.00132 0.996045
0.995769 1.00049 0.997431
0.997752 1.00087 0.995344
0.994527 1.00011 0.947457
0.993267 1.00323 0.975685
0.994029 1.00391 0.990259
0.996078 1.00068 1.00008
0.994842 0.999626 0.982568
0.993366 1.00385 0.971283
0.995654 1.00002 0.960842
0.997267 0.999895 0.94534
0.994882 0.999721 0.944357
0.997736 0.999619 0.995535
0.994552 0.999293 0.95142
0.998137 0.997809 0.946743
0.994974 0.999833 0.976976
0.99628 1.00065 0.962355
0.998775 0.999373 0.995698
0.999601 0.995481 0.945866
0.997616 1.00029 0.962318
0.995056 1.00048 0.975449
0.999347 0.998951 0.997409
1.00157 0.998739 0.993423
1.00373 0.996998 0.990906
0.999852 1.00354 0.990711
1.00283 1.00014 0.988679
1.00444 0.996758 0.989206
1.00189 1.00349 0.987451
1.00342 1.00052 0.987534
1.0047 0.997421 0.988254
1.0027 1.00327 0.986328
1.00411 1.00008 0.986699
1.00476 0.997621 0.987796
1.00447 0.998301 0.988073
1.0035 1.00118 0.986969
1.00404 0.999922 0.987104
1.0021 1.00299 0.987419
1.00254 1.00328 0.986629
1.00306 1.00239 0.986288
1.00113 1.00303 0.989521
1.00139 1.00371 0.988282
1.00167 1.00445 0.986804
1.00063 1.00254 0.990941
1.00077 1.00306 0.990202
1.00067 1.00344 0.989869
1.00006 1.00162 0.992901
1.00033 1.00263 0.991436
1.00025 1.00361 0.990587
0.999605 0.998915 0.996364
0.999978 1.00093 0.993698
1.00015 1.00221 0.992172
0.999459 0.997398 0.999272
0.999665 0.998561 0.996653
0.999955 1.0003 0.994372
0.999575 0.997112 0.999296
0.999756 0.998223 0.996841
0.999654 0.996934 0.999311
1.00012 1.002 0.992477
1.0002 1.00157 0.992682
1.00025 1.00095 0.99322
1.0001 0.999788 0.994631
1.00027 1.00064 0.993479
1.0002 1.00132 0.992926
0.999871 0.998076 0.996749
1.00015 0.999649 0.994682
1.00028 1.00049 0.993614
0.999771 0.996815 0.999279
0.999929 0.997912 0.996793
1.00018 0.999561 0.994725
0.999847 0.996622 0.999301
0.999984 0.997741 0.996858
0.999913 0.996433 0.999326
0.99455 1.00014 0.946519
0.993688 1.00313 0.972788
0.993072 1.00448 0.98681
1.00002 1.00252 0.992121
1.00006 1.00292 0.991741
0.999972 1.00284 0.99188
1.00012 1.00173 0.992782
1.00014 1.002 0.992435
1.00003 1.00216 0.992351
0.999994 1.00226 0.992341
1.00003 1.00253 0.992027
0.99985 1.00333 0.9917
1.00007 1.00158 0.992856
1.00004 1.00187 0.992736
0.999872 1.00204 0.992993
0.999063 0.99774 0.945707
0.99474 0.999901 0.941191
0.99441 1.00432 0.959539
0.994615 0.998142 0.933277
0.995702 0.999878 0.950056
0.995968 1.00008 0.962248
0.995998 0.995044 0.979621
0.995243 0.997213 0.981453
0.996872 0.999424 0.947463
0.99592 1.00005 0.960413
0.9962 0.997163 0.981773
0.997243 1.00097 0.957818
1.00098 1.00034 0.993117
0.99943 1.00046 0.995225
0.999923 1.00092 0.994114
0.995582 1.00065 0.997624
0.999248 1.00124 0.995839
0.998391 1.00121 0.99475
1.00121 0.999893 0.9903
0.999906 0.995025 0.945697
0.994514 1.00056 0.949989
0.993139 1.00322 0.979185
0.9976 0.99964 0.995691
0.994893 0.999812 0.977917
0.994579 0.999221 0.951386
0.996329 1.00098 0.957883
0.998968 0.999351 0.949374
0.998725 0.999585 0.994595
0.999769 0.995714 0.946878
0.999012 0.999127 0.957509
0.995116 1.00031 0.978256
0.999466 0.999071 0.995366
1.0001 0.997258 0.959656
0.996074 1.00054 0.980883
1.00111 0.998361 0.994173
1.00358 0.996755 0.990868
1.00493 0.994848 0.990109
1.00286 1.00032 0.988624
1.00436 0.996757 0.989193
1.00493 0.995379 0.98969
1.00334 1.00048 0.987591
1.00466 0.997474 0.988199
1.00512 0.996093 0.988728
1.00419 1.00009 0.986695
1.00482 0.997661 0.987768
1.00493 0.996889 0.988268
1.00461 0.997861 0.988247
1.0044 0.998218 0.988156
1.00397 0.999378 0.987877
1.00314 1.00149 0.987346
1.0035 1.00121 0.986969
1.00398 0.999847 0.987168
1.00178 1.00268 0.988422
1.00213 1.00302 0.987568
1.00253 1.00322 0.986767
1.00093 1.00247 0.990442
1.00115 1.00304 0.989498
1.00125 1.00373 0.988296
1.00023 1.00188 0.992301
1.00067 1.00252 0.990943
1.00081 1.00306 0.990187
0.999602 0.999388 0.995862
1.00009 1.00155 0.9929
1.00036 1.00261 0.991446
0.999425 0.997665 0.999205
0.999607 0.998967 0.996335
0.99999 1.00091 0.993683
0.999487 0.997428 0.998768
0.999675 0.998574 0.996642
0.999562 0.997192 0.999281
1.00013 1.00245 0.99198
1.0001 1.00205 0.992435
1.00016 1.00144 0.992905
1.00022 1.00157 0.992682
1.00025 1.00095 0.993222
1.00002 1.00006 0.994491
0.999806 0.998228 0.996722
1.0001 0.999781 0.994636
1.00026 1.00066 0.993485
0.999694 0.996985 0.999267
0.999866 0.998072 0.99675
1.00015 0.999654 0.994682
0.999779 0.996794 0.999284
0.999924 0.997914 0.996795
0.999853 0.996595 0.999307
0.999782 0.995693 0.947888
0.99464 1.00043 0.945904
0.993652 1.00316 0.97264
0.999999 1.0026 0.992073
0.999964 1.00295 0.991773
0.999989 1.0029 0.991816
1.00022 1.00317 0.991197
0.99989 1.00341 0.991486
1.00001 1.00228 0.992318
1.00002 1.00254 0.992
0.999812 1.0032 0.991727
0.999692 1.00382 0.990995
1.00014 1.00251 0.991817
1.00214 1.00096 0.989973
0.999856 1.00189 0.992974
0.999863 1.00186 0.993
0.999604 0.998813 0.958518
0.99815 0.997796 0.946527
0.99477 0.999871 0.941345
0.997318 0.999908 0.94478
0.995903 1.00068 0.959692
0.995397 0.997252 0.984936
0.996078 0.997284 0.983961
0.99704 0.999734 0.962901
0.998533 0.999422 0.978683
1.00342 0.998698 0.989748
1.00062 1.00013 0.993118
0.99958 1.00034 0.99509
0.998761 1.00147 0.994193
1.00198 1.0006 0.989193
1.00069 0.995674 0.957597
0.999967 0.995407 0.948015
0.99451 1.00098 0.952551
0.998632 0.999805 0.993469
0.994815 1.00079 0.975563
0.999592 0.995156 0.947412
0.998033 1.00047 0.962526
0.999416 0.99946 0.995513
1.00112 0.995898 0.960594
0.99599 1.00074 0.977414
1.00093 1.00171 0.992607
1.00017 0.997203 0.984866
1.00348 0.996542 0.99083
1.00491 0.995037 0.989877
1.00501 0.995092 0.989695
1.00428 0.996788 0.989178
1.00481 0.995567 0.989671
1.00519 0.995203 0.989448
1.00464 0.997543 0.988144
1.00514 0.996087 0.988689
1.00508 0.99635 0.9886
1.00488 0.9977 0.987741
1.00494 0.99701 0.988224
1.00488 0.997375 0.988039
1.00452 0.997744 0.988396
1.00438 0.998577 0.987915
1.00435 0.998158 0.98824
1.00399 0.999348 0.987859
1.00369 1.00013 0.987669
1.00266 1.00163 0.987873
1.00313 1.00154 0.987312
1.0035 1.00124 0.986969
1.0014 1.00233 0.989708
1.00175 1.00269 0.988532
1.00215 1.00304 0.987717
1.0004 1.00192 0.991878
1.00097 1.00247 0.990423
1.00118 1.00305 0.989476
0.999648 0.999905 0.995254
1.00025 1.00184 0.992309
1.00069 1.00251 0.990945
0.999417 0.997967 0.999105
0.999594 0.999464 0.995837
1.00011 1.00149 0.992899
0.99944 0.99772 0.999177
0.999607 0.999023 0.996307
0.999489 0.997479 0.999231
1.00034 1.00277 0.991321
1.00012 1.00243 0.991981
1.00016 1.00195 0.992354
1.00009 1.00209 0.992393
1.00014 1.00152 0.992831
0.999965 1.00054 0.994095
1.00024 1.00094 0.993224
1.00003 1.00003 0.9945
0.999724 0.998445 0.996664
0.999607 0.99716 0.999259
0.999799 0.998228 0.996724
1.0001 0.999775 0.994642
0.999704 0.996964 0.999271
0.999863 0.998069 0.996752
0.999786 0.99677 0.999289
1.00144 0.995814 0.960891
0.999627 0.995792 0.946574
0.994718 1.00076 0.945204
0.999948 1.00305 0.991667
0.999923 1.00287 0.991891
0.9999 1.0034 0.991524
1.00019 1.00314 0.991227
1.00036 1.00379 0.990303
0.999867 1.00363 0.991139
0.999774 1.00305 0.991753
0.999902 1.00393 0.990719
1.00003 1.00281 0.991665
1.00053 1.00302 0.990021
1.00267 1.00112 0.989782
1.00374 0.999621 0.987645
1.00188 1.00092 0.990164
0.999639 1.00224 0.993092
0.998084 0.999635 0.977195
0.999564 0.998932 0.958873
0.998207 0.998119 0.949091
0.998505 1.00075 0.957765
0.996247 0.997425 0.985863
0.998926 0.998963 0.983043
1.00264 0.998144 0.990735
1.00338 0.998501 0.990136
1.0005 0.999916 0.993115
1.00329 1.00149 0.988055
0.99917 0.997876 0.979042
1.00124 0.995322 0.962919
0.999873 0.995887 0.945708
0.999392 0.9998 0.995625
0.995761 1.00108 0.979583
1.00068 0.995536 0.96171
1.00081 1.00084 0.99277
0.999543 0.997734 0.983383
1.0036 1.00033 0.989799
1.00457 0.996545 0.989287
1.00487 0.995256 0.989644
1.00501 0.995244 0.989634
1.00519 0.995338 0.989526
1.00468 0.995738 0.989653
1.0052 0.995216 0.989439
1.00514 0.995955 0.988949
1.00515 0.996059 0.988649
1.00507 0.996398 0.988577
1.00501 0.997185 0.988007
1.00497 0.997119 0.98818
1.00483 0.997387 0.988091
1.00471 0.998134 0.987608
1.00442 0.997619 0.988543
1.00438 0.99844 0.987989
1.00418 0.999416 0.987568
1.004 0.999307 0.987841
1.0037 1.00013 0.987644
1.00336 1.0006 0.987908
1.00207 1.00162 0.988926
1.00261 1.00169 0.987972
1.00311 1.00159 0.987279
1.00072 1.00189 0.99134
1.00142 1.00231 0.9897
1.00173 1.00271 0.988641
0.999684 1.00043 0.994675
1.00043 1.00195 0.991876
1.00101 1.00246 0.990404
0.999436 0.998286 0.998958
0.999662 0.999928 0.995243
1.00028 1.0018 0.992318
0.999438 0.998019 0.99906
0.999591 0.999529 0.99581
0.999456 0.997769 0.999148
1.00052 1.00323 0.990544
1.00035 1.00274 0.991362
1.00031 1.0023 0.991798
1.00012 1.00242 0.991983
1.00016 1.00201 0.992282
0.999996 1.0011 0.993477
1.00014 1.0016 0.992757
0.999971 1.00054 0.994103
0.99964 0.998774 0.996485
1.00005 1 0.994508
0.999721 0.998427 0.996672
0.99952 0.997377 0.999242
0.99962 0.997138 0.999261
0.999793 0.998226 0.996726
0.999713 0.996945 0.999275
0.998738 0.998577 0.978315
1.00142 0.996117 0.956593
0.999598 0.995871 0.948269
1.00111 1.00352 0.989197
0.999915 1.0034 0.991561
1.00015 1.00312 0.991257
0.999931 1.0037 0.991078
1.0003 1.00386 0.990269
1.00033 1.00315 0.990662
1.00011 1.00406 0.990443
1 1.00311 0.991514
1.00072 1.00294 0.990251
1.00231 1.00125 0.989783
1.00388 1.00011 0.987157
1.00479 0.998246 0.987133
1.00374 0.999605 0.987474
1.00169 1.00081 0.990355
1.00178 0.998179 0.993022
0.998084 1.0001 0.975784
0.999417 0.998364 0.959575
0.998847 0.998703 0.981047
1.00266 0.997381 0.99222
1.00298 0.998217 0.990528
1.0032 0.997876 0.988254
0.998719 0.996651 0.981634
1.00081 0.995478 0.95736
1.00072 0.999967 0.992931
0.999584 0.998462 0.981834
1.00349 0.999003 0.989938
1.00454 0.996699 0.989357
1.00514 0.99597 0.989266
1.00513 0.996954 0.988848
1.005 0.995305 0.989572
1.00519 0.995161 0.989556
1.00512 0.99585 0.989151
1.00521 0.995219 0.989428
1.00514 0.995971 0.988941
1.00506 0.997012 0.988135
1.00506 0.996467 0.988555
1.00501 0.997196 0.987999
1.0049 0.998082 0.987307
1.00478 0.997409 0.988144
1.00473 0.998141 0.987601
1.00453 0.998802 0.987341
1.00438 0.998305 0.988064
1.00416 0.999303 0.987596
1.00381 0.999944 0.987613
1.00371 1.00014 0.987618
1.00332 1.00059 0.987849
1.00278 1.00089 0.988629
1.00127 1.00147 0.990771
1.00205 1.00165 0.989027
1.00256 1.00175 0.988072
0.999755 1.00082 0.994142
1.00074 1.0019 0.991333
1.00145 1.00229 0.989693
0.999396 0.998694 0.998794
0.99975 1.00035 0.994668
1.00046 1.00195 0.991874
0.999442 0.998358 0.998904
0.999673 0.999951 0.995231
0.999462 0.998077 0.999012
1.00097 1.00324 0.989492
1.0005 1.0032 0.990562
1.00054 1.00259 0.991176
1.00036 1.00271 0.991404
1.0003 1.00229 0.991818
1.00008 1.00156 0.992886
1.00016 1.00208 0.992211
0.99998 1.00115 0.993477
0.999569 0.999233 0.99614
0.999973 1.00054 0.994112
0.999639 0.998739 0.996506
0.999456 0.997626 0.999196
0.99972 0.998413 0.99668
0.999531 0.997337 0.999248
0.999631 0.997117 0.999264
1.00222 0.99849 0.991086
0.998714 0.9986 0.974957
1.00058 0.996555 0.961288
1.00118 1.00298 0.989184
1.00286 1.00183 0.987513
1.00089 1.00357 0.98928
0.999999 1.00375 0.991017
1.00026 1.00394 0.990232
1.00059 1.0031 0.990404
1.00362 1.00018 0.98779
1.00086 1.00288 0.99048
1.00174 1.00137 0.989784
1.00364 1.0002 0.987536
1.005 0.998567 0.986518
1.00508 0.99665 0.988112
1.00484 0.998251 0.987102
1.00383 0.999638 0.987304
1.00207 0.998108 0.993198
0.997781 1.00086 0.97368
1.0029 0.996685 0.993693
1.00514 0.996545 0.989282
1.00307 0.997776 0.988474
0.999303 0.99613 0.977855
1.00337 0.997793 0.990088
1.00452 0.997112 0.989407
1.00513 0.995665 0.989454
1.00514 0.996636 0.988742
1.00514 0.996122 0.98875
1.00516 0.996175 0.988353
1.00519 0.99505 0.989585
1.00512 0.995839 0.989136
1.0051 0.996966 0.988098
1.00514 0.995999 0.988933
1.00506 0.997065 0.988074
1.00502 0.997887 0.987307
1.005 0.997201 0.987991
1.00492 0.998086 0.98731
1.00477 0.998586 0.987139
1.00475 0.998149 0.987594
1.00454 0.998801 0.98733
1.00418 0.999421 0.987414
1.00414 0.999189 0.987623
1.00377 0.999914 0.987622
1.0032 1.00035 0.988324
1.00329 1.00058 0.987791
1.00272 1.00087 0.988596
1.00182 1.00087 0.990341
0.999922 1.00085 0.993734
1.00127 1.00148 0.990765
1.00202 1.00169 0.989128
0.999281 0.99922 0.998641
0.999838 1.00073 0.994129
1.00077 1.00192 0.991326
0.999386 0.998803 0.998743
0.999801 1.00031 0.99466
0.999453 0.998432 0.998849
1.00193 1.00247 0.988146
1.00097 1.00324 0.989358
1.001 1.00262 0.990252
1.00047 1.00317 0.990579
1.00049 1.00258 0.991195
1.00019 1.00196 0.992361
1.00029 1.00228 0.991838
1.00005 1.00162 0.992882
0.999569 0.999726 0.99564
0.999968 1.00118 0.993477
0.999581 0.999165 0.996165
0.999425 0.997905 0.999103
0.999638 0.998701 0.996527
0.999456 0.997583 0.999213
0.999543 0.997306 0.999254
1.00511 0.996108 0.988697
1.00229 0.998222 0.990245
0.998719 0.997739 0.975908
1.00359 1.00062 0.987471
1.00096 1.00285 0.989798
1.00384 0.999641 0.987492
1.00296 1.00176 0.987468
1.00066 1.00363 0.989368
1.00505 0.998274 0.986827
1.00084 1.00303 0.99015
1.00372 1.0002 0.9875
1.0051 0.997724 0.987194
1.00342 1.00028 0.987915
1.00504 0.998503 0.986569
1.00505 0.996749 0.988169
1.00477 0.998338 0.987062
1.00217 0.998024 0.993401
1.00517 0.996537 0.988205
1.00515 0.996622 0.989279
1.00295 0.997423 0.98868
1.00513 0.995308 0.989648
1.00513 0.99636 0.988636
1.00513 0.996089 0.988897
1.00516 0.996224 0.988484
1.00514 0.996916 0.988004
1.00512 0.995809 0.989122
1.0051 0.996985 0.988104
1.00514 0.997721 0.987288
1.00505 0.997122 0.988012
1.00501 0.997949 0.987275
1.00489 0.99868 0.986871
1.00493 0.998089 0.987314
1.00476 0.998587 0.987138
1.00444 0.999079 0.987273
1.00455 0.998799 0.98732
1.00418 0.99942 0.987414
1.0036 0.999907 0.988013
1.00373 0.999883 0.98763
1.00319 1.00035 0.98833
1.00225 1.00044 0.989966
1.00267 1.00086 0.988563
1.00182 1.00089 0.990332
1.0001 1.00068 0.994498
0.999281 0.999757 0.996508
1.00001 1.00077 0.994207
1.00127 1.0015 0.99076
0.999282 0.999356 0.998585
0.999933 1.00062 0.994115
0.99938 0.998899 0.998686
1.00421 0.99909 0.987564
1.0029 1.00098 0.987935
1.0021 1.00244 0.988054
1.00162 1.00223 0.989426
1.00097 1.00324 0.989223
1.00095 1.00263 0.990278
1.00044 1.00208 0.991788
1.00045 1.00257 0.991214
1.00015 1.00196 0.992368
0.99964 1.00022 0.995037
1.00002 1.0017 0.992878
0.999568 0.999681 0.995656
0.999397 0.998249 0.998958
0.999591 0.9991 0.996189
0.999413 0.997856 0.999136
0.999457 0.997536 0.999229
1.00515 0.99702 0.987792
1.00513 0.996324 0.989161
1.00244 0.998099 0.989404
1.00487 0.998309 0.987141
1.00346 1.00058 0.987737
1.00072 1.0027 0.990403
1.00393 0.999674 0.987587
1.00306 1.0017 0.987422
1.00515 0.997854 0.987239
1.00505 0.998328 0.986725
1.00382 1.00024 0.987208
1.00511 0.997711 0.987174
1.00508 0.998412 0.98662
1.00504 0.99678 0.988244
1.00518 0.997059 0.987932
1.00517 0.996479 0.988261
1.00516 0.996667 0.989279
1.00513 0.996057 0.989042
1.00517 0.996258 0.988614
1.00516 0.996823 0.98812
1.00517 0.997771 0.987227
1.00509 0.997011 0.988111
1.00513 0.997743 0.987291
1.00505 0.998636 0.986578
1.00501 0.99801 0.987243
1.00485 0.998677 0.986886
1.00454 0.999193 0.98695
1.00475 0.998589 0.987138
1.00444 0.999081 0.987272
1.00386 0.999603 0.987839
1.00417 0.999419 0.987415
1.0036 0.999908 0.988018
1.00259 1.00016 0.989623
1.00318 1.00036 0.988335
1.00225 1.00045 0.989955
1.00033 1.00039 0.994419
1.00181 1.00091 0.990324
1.00023 1.00064 0.994447
0.999238 1.00015 0.996349
0.999198 0.999885 0.997466
1.00012 1.00069 0.994623
0.99928 0.999479 0.998526
1.00492 0.998493 0.98686
1.00366 0.999976 0.987953
1.00412 0.998839 0.987961
1.00235 1.00142 0.988801
1.00298 1.00103 0.987942
1.00226 1.00239 0.987961
1.0016 1.00225 0.989423
1.00088 1.00189 0.991129
1.0009 1.00264 0.990303
1.00041 1.00206 0.9918
0.999749 1.00065 0.994439
1.00011 1.00196 0.992375
0.9996 1.00024 0.995047
0.999319 0.998742 0.998781
0.99957 0.999626 0.995671
0.999389 0.998181 0.999009
0.999407 0.997806 0.999167
1.00517 0.997386 0.98758
1.00514 0.997011 0.987786
1.00514 0.996494 0.98961
1.00513 0.998017 0.987033
1.00489 0.998384 0.98709
1.00334 1.00054 0.988006
1.00399 0.999699 0.987683
1.00515 0.997812 0.987191
1.00504 0.99838 0.986624
1.0051 0.997705 0.987155
1.00515 0.997613 0.987393
1.00517 0.997091 0.987869
1.00516 0.996439 0.988318
1.00515 0.997996 0.987
1.00516 0.99672 0.988236
1.00516 0.997774 0.987234
1.00514 0.99847 0.986619
1.00512 0.997766 0.987294
1.00502 0.998644 0.986592
1.00475 0.999289 0.986445
1.00481 0.998676 0.986901
1.00455 0.999194 0.986952
1.00398 0.999632 0.987566
1.00444 0.999084 0.987271
1.00386 0.999602 0.987839
1.00279 0.999966 0.989426
1.00359 0.999908 0.988023
1.00259 1.00014 0.989617
1.00056 1.00013 0.994331
1.00225 1.00045 0.989944
1.00044 1.00037 0.994362
0.999284 1.00017 0.996306
1.00036 1.00056 0.994396
0.99913 1.00028 0.996419
0.999041 0.999977 0.998556
1.00507 0.99855 0.986648
1.00451 0.999081 0.987099
1.00485 0.998552 0.986998
1.00309 1.00057 0.988555
1.00365 0.999848 0.987956
1.00404 0.998587 0.988352
1.00151 1.00135 0.990449
1.00236 1.00144 0.988782
1.00306 1.00108 0.987947
1.00157 1.00228 0.989421
1.00086 1.00187 0.991139
0.999885 1.00091 0.993927
1.00038 1.00204 0.991811
0.999667 1.00073 0.994452
0.999187 0.999379 0.998609
0.999559 1.00027 0.995057
0.999327 0.998636 0.998843
0.999386 0.998114 0.999057
1.00515 0.997743 0.987207
1.00516 0.997344 0.987585
1.00514 0.997001 0.98778
1.00514 0.997925 0.987094
1.00492 0.998464 0.987037
1.00515 0.997769 0.987144
1.00513 0.997997 0.987075
1.00515 0.997672 0.987359
1.00517 0.997125 0.987806
1.00516 0.997953 0.987058
1.00514 0.998412 0.986654
1.00516 0.997777 0.98724
1.00514 0.99852 0.986544
1.00497 0.999077 0.986263
1.005 0.998651 0.986606
1.00475 0.999295 0.986456
1.00421 0.999747 0.987035
1.00455 0.999191 0.986955
1.00399 0.99963 0.987557
1.0029 0.999937 0.989242
1.00386 0.9996 0.987839
1.0028 0.999949 0.989425
1.00072 0.999962 0.994244
1.0026 1.00013 0.989611
1.00064 1.00012 0.994273
0.999413 1.00007 0.996243
1.00054 1.00033 0.994314
0.999169 1.00027 0.996394
0.999008 1.00047 0.996489
1.00511 0.998242 0.986829
1.00476 0.998915 0.986779
1.00505 0.998496 0.986686
1.00382 0.999748 0.987843
1.00453 0.999147 0.987102
1.00478 0.998612 0.987141
1.00213 1.00066 0.989926
1.00307 1.0005 0.988406
1.00364 0.999721 0.987959
1.00009 1.00089 0.993538
1.00151 1.00134 0.990459
1.00237 1.00146 0.988763
1.00085 1.00186 0.991149
0.999782 1.00102 0.993946
0.999104 0.999991 0.998472
0.999582 1.00083 0.994464
0.999206 0.999235 0.998672
0.999341 0.998524 0.9989
1.00515 0.998 0.987009
1.00515 0.997734 0.987229
1.00516 0.997304 0.98759
1.00514 0.997833 0.987155
1.00514 0.998393 0.986661
1.00514 0.998007 0.98708
1.00515 0.997729 0.987325
1.00516 0.997918 0.987116
1.00514 0.998375 0.986685
1.00504 0.998918 0.986405
1.00513 0.99857 0.986469
1.00497 0.999134 0.98626
1.00449 0.99957 0.98659
1.00475 0.999305 0.986468
1.0042 0.999747 0.987038
1.0031 0.999981 0.988825
1.004 0.999633 0.987548
1.00292 0.999924 0.989235
1.00079 0.999966 0.993046
1.00281 0.999929 0.989423
1.00077 0.99994 0.993674
0.999473 1.00003 0.998316
1.00071 1.00011 0.994217
0.999302 1.00011 0.996334
0.999059 1.0004 0.996466
1.0051 0.998235 0.98687
1.00485 0.998836 0.98669
1.00511 0.998293 0.986829
1.00415 0.999291 0.987364
1.00476 0.998926 0.986806
1.00503 0.998442 0.986724
1.00268 1.00004 0.989222
1.00384 0.999751 0.987837
1.00456 0.99921 0.987105
1.00038 1.00054 0.993281
1.00214 1.00063 0.989791
1.00306 1.00043 0.988258
0.999136 1.00037 0.99838
1.00001 1.00095 0.993554
1.0015 1.00133 0.990468
0.999691 1.0011 0.993962
0.99909 0.99985 0.998521
0.999219 0.999081 0.998729
1.00514 0.998336 0.986706
1.00515 0.997991 0.987017
1.00515 0.997729 0.987251
1.00505 0.998866 0.98641
1.00513 0.99837 0.986691
1.00514 0.998014 0.987085
1.00514 0.998331 0.986717
1.00504 0.998907 0.986402
1.00466 0.99937 0.986717
1.00496 0.999192 0.986258
1.00448 0.999629 0.98673
1.0034 0.999871 0.988097
1.0042 0.999742 0.98704
1.00311 0.999975 0.988821
1.00092 1.00005 0.992726
1.00294 0.999914 0.989228
1.0008 0.999958 0.993038
0.999502 0.999997 0.998291
1.00077 0.999936 0.993153
0.999423 0.999998 0.997323
0.999193 1.00016 0.996419
1.00508 0.998427 0.986785
1.00489 0.998758 0.986735
1.00511 0.998222 0.986871
1.00427 0.999301 0.987311
1.00485 0.998845 0.986659
1.0051 0.998343 0.986829
1.00302 0.999675 0.988958
1.00416 0.999369 0.987526
1.00476 0.998938 0.986833
1.00065 1.00013 0.99314
1.00271 1.00003 0.989182
1.00386 0.999752 0.98783
0.999261 1.00041 0.998328
1.00034 1.00056 0.993303
1.00215 1.0006 0.989656
0.999089 1.00026 0.998409
0.999944 1.00098 0.993578
0.999078 0.999697 0.998575
1.00504 0.998784 0.986509
1.00514 0.998352 0.986697
1.00515 0.997981 0.987024
1.00465 0.99927 0.986808
1.00505 0.998839 0.986444
1.00513 0.998356 0.986721
1.00504 0.998898 0.9864
1.00466 0.999375 0.986711
1.0036 0.999729 0.987863
1.00446 0.999688 0.98687
1.00338 0.999908 0.988232
1.00113 1.00006 0.992306
1.00312 0.999964 0.988817
1.00093 1.00005 0.992709
0.999572 0.999998 0.998218
1.0008 0.999957 0.99303
0.999523 0.999989 0.998271
0.999465 0.999931 0.996232
1.00489 0.998808 0.986812
1.00508 0.99835 0.986801
1.00435 0.999241 0.98724
1.00488 0.998757 0.986732
1.00511 0.998208 0.986873
1.00316 0.999683 0.988997
1.00428 0.999294 0.987306
1.00485 0.998853 0.986629
1.00085 0.999877 0.993011
1.00302 0.999729 0.989062
1.00416 0.999451 0.987688
0.999436 1.00022 0.998288
1.00064 1.00012 0.993152
1.00274 1.00003 0.989142
0.999212 1.00035 0.998342
1.0003 1.00057 0.993322
0.999035 1.00017 0.998448
1.00459 0.999257 0.986952
1.00504 0.998807 0.986495
1.00513 0.998369 0.986689
1.00359 0.999659 0.987947
1.00465 0.999278 0.986808
1.00505 0.998808 0.986478
1.00466 0.999381 0.986706
1.00359 0.999734 0.987868
1.00128 1.00003 0.992063
1.00336 0.999943 0.988367
1.00114 1.00007 0.992292
0.99972 1.00001 0.998096
1.00095 1.00005 0.992693
0.999625 0.999997 0.998177
0.999554 0.999979 0.998244
1.00441 0.999257 0.987142
1.00489 0.998727 0.986801
1.00508 0.998275 0.986817
1.00325 0.999689 0.988818
1.00436 0.999243 0.987229
1.00487 0.998756 0.986728
1.00098 0.999843 0.992815
1.00316 0.999694 0.988993
1.0043 0.999287 0.987301
0.999577 1.00004 0.998239
1.00085 0.99987 0.993018
1.00302 0.999776 0.989165
0.999385 1.00023 0.9983
1.00063 1.00012 0.993164
0.999154 1.00033 0.998357
1.00353 0.999724 0.988274
1.00461 0.999235 0.98681
1.00504 0.998828 0.986481
1.0013 0.999971 0.992071
1.0036 0.999651 0.987935
1.00466 0.999286 0.986808
1.00359 0.999737 0.987872
1.00128 1.00002 0.992063
0.999839 1.00001 0.997992
1.00115 1.00007 0.992277
0.999761 1.00001 0.998051
0.999666 0.999995 0.998132
1.00338 0.999716 0.988553
1.00443 0.999213 0.987082
1.00489 0.998647 0.986791
1.00112 0.999938 0.993659
1.00325 0.999697 0.988809
1.00437 0.999246 0.987218
0.99967 0.999955 0.998166
1.00097 0.999854 0.992822
1.00315 0.999703 0.988988
0.999535 1.00007 0.998258
1.00085 0.999871 0.993026
0.999337 1.00023 0.998309
1.0013 0.999978 0.992104
1.00353 0.999688 0.988177
1.00463 0.999209 0.986668
0.999878 0.999999 0.997971
1.0013 0.999977 0.992072
1.00361 0.999646 0.987923
1.00129 1.00001 0.99206
0.999864 1.00001 0.997977
0.999816 1.00001 0.998015
1.00127 0.99999 0.993386
1.00339 0.999711 0.988556
1.00445 0.999167 0.987023
0.999525 0.999977 0.998289
1.00105 0.999952 0.992589
1.00326 0.999702 0.988801
0.999635 0.999981 0.998195
1.00096 0.999872 0.992829
0.999501 1.00009 0.998274
0.999852 1.00001 0.995589
1.0013 0.999976 0.992722
1.00353 0.999656 0.988079
0.999873 0.999999 0.997973
1.00129 0.999981 0.992077
0.999877 1.00001 0.997965
0.999579 1.00001 0.995906
1.0012 0.999992 0.992889
1.00339 0.999708 0.98856
0.999613 0.999988 0.99706
1.00106 0.999967 0.99258
0.999606 1 0.998222
0.999854 0.999996 0.997984
1.00125 0.999976 0.992178
0.999866 0.999999 0.997975
0.999692 1 0.996951
1.00116 0.999992 0.992349
0.999679 0.999984 0.998149
0.999825 0.999992 0.998012
0.999754 0.999987 0.998073

TENSORS stress float
0.00122651 -2.63785e-05 8.97321e-05
-2.63785e-05 0.000326789 -1.01196e-05
8.97321e-05 -1.01196e-05 0.000306801
0.00357849 -8.67201e-05 8.41142e-05
-8.67201e-05 0.00159585 4.50053e-06
8.41142e-05 4.50053e-06 0.00158941
0.00126012 2.93046e-05 4.505e-05
2.93046e-05 0.000357082 -3.08354e-06
4.505e-05 -3.08354e-06 0.00032916
0.00166255 -2.45694e-05 0.000104502
-2.45694e-05 0.000529645 -7.41836e-06
0.000104502 -7.41836e-06 0.000508933
0.00137553 -2.87644e-05 9.45939e-05
-2.87644e-05 0.000401303 -1.00778e-05
9.45939e-05 -1.00778e-05 0.000379691
0.0011297 1.37365e-06 7.81191e-05
1.37365e-06 0.000270829 -8.9815e-06
7.81191e-05 -8.9815e-06 0.000252612
0.00115838 -6.46898e-06 9.41692e-06
-6.46898e-06 0.000241681 -5.70167e-06
9.41692e-06 -5.70167e-06 0.000184558
0.00349761 -0.000107048 3.93588e-06
-0.000107048 0.00155162 -4.25964e-07
3.93588e-06 -4.25964e-07 0.00154394
0.00438504 -0.0001546 8.41277e-06
-0.0001546 0.00204704 2.18488e-06
8.41277e-06 2.18488e-06 0.00202428
0.00358411 -0.000183465 5.83972e-06
-0.000183465 0.00163165 2.38001e-06
5.83972e-06 2.38001e-06 0.00160606
0.00121495 -2.72286e-05 6.76055e-05
-2.72286e-05 0.000295422 4.82706e-06
6.76055e-05 4.82706e-06 0.000285343
0.000749403 4.67844e-05 8.96679e-06
4.67844e-05 1.51055e-05 6.23576e-06
8.96679e-06 6.23576e-06 -3.3687e-05
0.00170967 -1.18287e-05 0.000120347
-1.18287e-05 0.000542484 1.27465e-06
0.000120347 1.27465e-06 0.0005208
0.00128239 3.11334e-05 1.93027e-05
3.11334e-05 0.000330632 1.97463e-06
1.93027e-05 1.97463e-06 0.000302748
0.00133574 9.94819e-05 1.06328e-06
9.94819e-05 0.000415255 4.17457e-06
1.06328e-06 4.17457e-06 0.000376528
0.00148998 -8.37753e-06 4.32319e-05
-8.37753e-06 0.000441723 -2.60895e-06
4.32319e-05 -2.60895e-06 0.000418464
0.00115974 3.78248e-05 3.77057e-05
3.78248e-05 0.000297459 -2.95714e-06
3.77057e-05 -2.95714e-06 0.000272768
0.00134857 2.41088e-05 4.78393e-05
2.41088e-05 0.00039789 -3.19243e-06
4.78393e-05 -3.19243e-06 0.000369821
0.00127745 -2.55127e-05 -1.96111e-05
-2.55127e-05 0.000299034 4.46769e-07
-1.96111e-05 4.46769e-07 0.000245638
0.00497115 -4.21067e-05 0.000124308
-4.21067e-05 0.00231843 -1.75043e-06
0.000124308 -1.75043e-06 0.00231395
0.00166618 -1.51757e-05 0.000106702
-1.51757e-05 0.000528894 -5.65674e-06
0.000106702 -5.65674e-06 0.000508617
0.00155132 -2.81695e-05 0.000100127
-2.81695e-05 0.000480818 -9.03885e-06
0.000100127 -9.03885e-06 0.000459393
0.00147885 -3.91143e-05 2.32372e-05
-3.91143e-05 0.000341879 -3.54655e-06
2.32372e-05 -3.54655e-06 0.000289913
0.00128704 -9.71099e-06 1.19334e-05
-9.71099e-06 0.000286396 -5.68369e-06
1.19334e-05 -5.68369e-06 0.000229227
0.00112853 3.73185e-05 6.13288e-05
3.73185e-05 0.00025903 -7.52713e-06
6.13288e-05 -7.52713e-06 0.000242624
0.0010277 -1.53667e-06 9.09178e-06
-1.53667e-06 0.000187764 -4.81205e-06
9.09178e-06 -4.81205e-06 0.000134682
0.0016277 -0.000116352 5.67076e-06
-0.000116352 0.000388307 -2.60355e-06
5.67076e-06 -2.60355e-06 0.000299431
0.00339684 -0.000121218 -6.41215e-05
-0.000121218 0.00149655 -3.08193e-06
-6.41215e-05 -3.08193e-06 0.00148762
0.00281486 -5.31314e-05 -5.35895e-05
-5.31314e-05 0.00118759 -1.01798e-06
-5.35895e-05 -1.01798e-06 0.00116488
0.00242628 -9.2672e-05 -3.37964e-05
-9.2672e-05 0.000988263 -9.20673e-07
-3.37964e-05 -9.20673e-07 0.000966359
0.0032033 -0.000105895 2.6679e-06
-0.000105895 0.001381 -2.33742e-07
2.6679e-06 -2.33742e-07 0.00137687
0.000674572 3.75941e-05 -1.30388e-07
3.75941e-05 -1.99466e-05 -2.13324e-07
-1.30388e-07 -2.13324e-07 -6.87744e-05
0.00159752 3.75832e-05 0.000103612
3.75832e-05 0.000502028 6.74475e-06
0.000103612 6.74475e-06 0.000480913
0.00171932 3.51178e-05 9.49146e-05
3.51178e-05 0.000587871 8.11122e-06
9.49146e-05 8.11122e-06 0.000567101
0.0023439 0.000100048 5.97971e-05
0.000100048 0.000835638 7.12246e-06
5.97971e-05 7.12246e-06 0.000789457
0.00278985 -0.000110904 1.53644e-05
-0.000110904 0.00115173 1.35038e-06
1.53644e-05 1.35038e-06 0.00114913
0.00207944 6.16379e-05 4.74225e-05
6.16379e-05 0.000729613 6.02495e-06
4.74225e-05 6.02495e-06 0.000686114
0.000667374 6.41296e-06 8.68666e-06
6.41296e-06 -2.34762e-05 8.07408e-06
8.68666e-06 8.07408e-06 -6.63583e-05
0.000930993 8.33861e-05 4.07575e-06
8.33861e-05 7.39073e-05 1.34264e-06
4.07575e-06 1.34264e-06 -1.31573e-05
0.00251613 -7.50319e-05 4.43358e-05
-7.50319e-05 0.000990613 2.97095e-06
4.43358e-05 2.97095e-06 0.000998056
0.00507278 5.25582e-06 8.43476e-09
5.25582e-06 0.00236926 -7.78056e-07
8.43476e-09 -7.78056e-07 0.00236509
0.00310088 2.02487e-05 -4.80583e-05
2.02487e-05 0.00131067 -1.10942e-06
-4.80583e-05 -1.10942e-06 0.00129502
0.00516411 4.43941e-05 0.000130336
4.43941e-05 0.0024161 7.22918e-07
0.000130336 7.22918e-07 0.00241179
0.00135248 -1.62414e-05 1.22274e-05
-1.62414e-05 0.000366162 1.04555e-06
1.22274e-05 1.04555e-06 0.000337288
0.000772315 -2.69612e-06 1.51323e-05
-2.69612e-06 -7.1062e-05 2.21803e-06
1.51323e-05 2.21803e-06 -0.000130678
0.00467294 2.79536e-05 3.99132e-05
2.79536e-05 0.00216612 1.9377e-06
3.99132e-05 1.9377e-06 0.00215603
0.00240624 1.79668e-05 6.51926e-05
1.79668e-05 0.000827178 3.94815e-06
6.51926e-05 3.94815e-06 0.000784996
0.00130001 -1.92488e-05 -2.19096e-05
-1.92488e-05 0.00034582 2.30283e-06
-2.19096e-05 2.30283e-06 0.000319413
0.00136278 3.33558e-05 -1.08368e-05
3.33558e-05 0.000407847 3.07063e-06
-1.08368e-05 3.07063e-06 0.000379003
0.00122212 8.90682e-05 -3.52075e-06
8.90682e-05 0.000343992 3.39072e-06
-3.52075e-06 3.39072e-06 0.000310786
0.00133984 -5.03663e-05 -4.82451e-05
-5.03663e-05 0.000323024 6.56689e-06
-4.82451e-05 6.56689e-06 0.000274985
0.00325596 3.99711e-05 -5.03701e-05
3.99711e-05 0.00139613 -1.1159e-06
-5.03701e-05 -1.1159e-06 0.00137453
0.00148312 -1.13878e-05 4.30507e-05
-1.13878e-05 0.000435764 -1.65575e-06
4.30507e-05 -1.65575e-06 0.000412602
0.00110843 5.1619e-05 2.88679e-05
5.1619e-05 0.000254234 -2.42685e-06
2.88679e-05 -2.42685e-06 0.00023484
0.00144134 1.9735e-06 4.50737e-05
1.9735e-06 0.000428164 -3.29814e-06
4.50737e-05 -3.29814e-06 0.000403506
0.00151597 -4.48324e-05 -1.58925e-05
-4.48324e-05 0.000359551 4.86414e-07
-1.58925e-05 4.86414e-07 0.000309497
0.00115699 -1.32342e-05 -1.61282e-05
-1.32342e-05 0.000251177 3.3848e-07
-1.61282e-05 3.3848e-07 0.000201139
0.00138145 -4.30364e-05 -1.71991e-05
-4.30364e-05 0.000327846 6.59398e-07
-1.71991e-05 6.59398e-07 0.000276352
0.001747 -0.000121316 -2.84614e-06
-0.000121316 0.000448139 9.62928e-07
-2.84614e-06 9.62928e-07 0.000358018
0.00507211 5.04971e-05 0.000120982
5.04971e-05 0.00236927 1.62291e-07
0.000120982 1.62291e-07 0.00236493
0.00163894 -2.49188e-06 0.000109649
-2.49188e-06 0.000512214 -4.04711e-06
0.000109649 -4.04711e-06 0.000491267
0.00231206 5.55346e-05 1.37006e-05
5.55346e-05 0.000780659 -1.19251e-06
1.37006e-05 -1.19251e-06 0.000727873
0.00146659 -3.82448e-05 2.41919e-05
-3.82448e-05 0.000333103 -2.81613e-06
2.41919e-05 -2.81613e-06 0.00028182
0.00141119 -3.04979e-05 1.90155e-05
-3.04979e-05 0.000321941 -4.64639e-06
1.90155e-05 -4.64639e-06 0.000268194
0.00196564 -8.91901e-05 7.85326e-06
-8.91901e-05 0.000452572 -1.77837e-06
7.85326e-06 -1.77837e-06 0.000364152
0.00132737 -0.000100575 8.19558e-06
-0.000100575 0.000177418 -3.61119e-06
8.19558e-06 -3.61119e-06 8.55386e-05
0.00118478 4.79009e-05 5.10434e-05
4.79009e-05 0.000270418 -7.00189e-06
5.10434e-05 -7.00189e-06 0.000259744
0.000926138 2.42583e-05 7.55823e-06
2.42583e-05 0.000142219 -3.76969e-06
7.55823e-06 -3.76969e-06 9.78787e-05
0.00141169 -0.000102164 3.86033e-06
-0.000102164 0.000320363 -1.90458e-06
3.86033e-06 -1.90458e-06 0.000235169
0.00117592 -0.000119484 3.87304e-06
-0.000119484 7.80193e-05 -1.56798e-06
3.87304e-06 -1.56798e-06 -3.65385e-05
0.00436125 -4.62252e-05 -9.55172e-05
-4.62252e-05 0.00201751 -5.28619e-06
-9.55172e-05 -5.28619e-06 0.00200946
0.00311482 -0.000109465 -5.54733e-05
-0.000109465 0.00133117 -2.86518e-06
-5.54733e-05 -2.86518e-06 0.00132765
0.00363861 -0.00012323 -7.269e-05
-0.00012323 0.00164154 -3.82211e-06
-7.269e-05 -3.82211e-06 0.00162865
0.000605777 3.61599e-05 -7.74469e-06
3.61599e-05 -5.27317e-05 -6.7604e-06
-7.74469e-06 -6.7604e-06 -0.000101318
0.00483018 1.12305e-05 -2.76894e-06
1.12305e-05 0.00225072 -5.43479e-07
-2.76894e-06 -5.43479e-07 0.00224553
0.00423843 -9.35428e-05 1.02312e-07
-9.35428e-05 0.0019668 -9.10607e-09
1.02312e-07 -9.10607e-09 0.00195211
0.000621696 8.67313e-05 -7.10786e-07
8.67313e-05 -9.09956e-05 -1.82584e-07
-7.10786e-07 -1.82584e-07 -0.00014826
0.00192907 -7.65411e-05 -2.22233e-05
-7.65411e-05 0.000680517 -4.8543e-07
-2.22233e-05 -4.8543e-07 0.000675803
0.000640155 6.52738e-05 -2.78251e-07
6.52738e-05 -4.42454e-05 -9.76629e-08
-2.78251e-07 -9.76629e-08 -9.6944e-05
0.00119383 -1.31981e-05 1.28451e-05
-1.31981e-05 0.00026768 3.80184e-07
1.28451e-05 3.80184e-07 0.000228391
0.000870553 8.00123e-05 2.15273e-07
8.00123e-05 4.03662e-05 -1.81146e-07
2.15273e-07 -1.81146e-07 -4.59433e-05
0.00273164 -8.30258e-05 5.15577e-05
-8.30258e-05 0.00111074 3.01878e-06
5.15577e-05 3.01878e-06 0.00111547
0.000686458 -6.15312e-05 -4.1321e-08
-6.15312e-05 -8.26021e-06 4.72487e-06
-4.1321e-08 4.72487e-06 -3.18343e-05
0.000755855 6.66853e-05 1.56132e-05
6.66853e-05 -4.69573e-05 7.17665e-06
1.56132e-05 7.17665e-06 -0.000104548
0.000794113 8.75439e-05 1.64201e-05
8.75439e-05 1.74516e-05 9.52971e-06
1.64201e-05 9.52971e-06 -3.92682e-05
0.00106767 9.51484e-05 7.98737e-06
9.51484e-05 1.75391e-05 3.7544e-06
7.98737e-06 3.7544e-06 -7.99047e-05
0.00162702 -5.37668e-05 2.65368e-05
-5.37668e-05 0.000507241 4.06737e-06
2.65368e-05 4.06737e-06 0.000477263
0.000981321 9.59242e-05 4.83532e-06
9.59242e-05 6.78468e-05 2.52622e-06
4.83532e-06 2.52622e-06 -2.15117e-05
0.000907291 6.24576e-05 3.89073e-06
6.24576e-05 8.67899e-05 2.0075e-06
3.89073e-06 2.0075e-06 1.89111e-06
0.000869708 0.000107762 1.76845e-06
0.000107762 8.47305e-06 -3.34986e-07
1.76845e-06 -3.34986e-07 -9.83384e-05
0.00230704 -6.75147e-05 3.6607e-05
-6.75147e-05 0.000871446 3.01365e-06
3.6607e-05 3.01365e-06 0.000881614
0.00244223 -7.58335e-05 1.2884e-06
-7.58335e-05 0.000951134 -1.22943e-07
1.2884e-06 -1.22943e-07 0.000958601
0.00485697 5.42965e-05 -0.000121991
5.42965e-05 0.00225965 -4.54016e-06
-0.000121991 -4.54016e-06 0.00225531
0.00501358 2.4415e-05 -0.000121561
2.4415e-05 0.00233832 -1.83407e-06
-0.000121561 -1.83407e-06 0.00233469
0.00515139 4.74031e-05 3.75554e-06
4.74031e-05 0.00241193 -6.0249e-07
3.75554e-06 -6.0249e-07 0.00240624
0.0031474 -1.63337e-05 -5.14049e-05
-1.63337e-05 0.00133364 -8.03893e-07
-5.14049e-05 -8.03893e-07 0.00131723
0.00164245 1.06453e-05 2.82696e-05
1.06453e-05 0.000402173 1.58044e-07
2.82696e-05 1.58044e-07 0.000349839
0.00308415 2.12499e-05 -5.19622e-05
2.12499e-05 0.00130365 -1.84102e-06
-5.19622e-05 -1.84102e-06 0.00128795
0.00160251 3.25509e-05 2.60138e-05
3.25509e-05 0.00039558 6.04871e-07
2.60138e-05 6.04871e-07 0.00034614
0.00517851 0.000108197 0.000122688
0.000108197 0.00243014 1.74596e-06
0.000122688 1.74596e-06 0.00242135
0.000730937 -3.67468e-06 1.42758e-05
-3.67468e-06 -9.85117e-05 5.33628e-07
1.42758e-05 5.33628e-07 -0.000158475
0.00246906 -7.35124e-06 6.72866e-05
-7.35124e-06 0.000855865 2.87945e-06
6.72866e-05 2.87945e-06 0.000812072
0.00121523 1.96454e-05 9.4758e-06
1.96454e-05 8.72016e-06 1.52475e-06
9.4758e-06 1.52475e-06 -8.97328e-05
0.00234578 6.22489e-05 6.37271e-05
6.22489e-05 0.000804096 4.62418e-06
6.37271e-05 4.62418e-06 0.000760421
0.00119594 5.28008e-05 9.17667e-06
5.28008e-05 2.03549e-05 2.16686e-06
9.17667e-06 2.16686e-06 -7.501e-05
0.00171893 2.01207e-05 -0.000118593
2.01207e-05 0.000550161 5.10265e-07
-0.000118593 5.10265e-07 0.000528953
0.00125822 -3.11487e-05 -2.06633e-05
-3.11487e-05 0.000321536 1.82062e-06
-2.06633e-05 1.82062e-06 0.000294616
0.00104808 7.5327e-05 -7.32996e-06
7.5327e-05 0.000229004 2.5195e-06
-7.32996e-06 2.5195e-06 0.000205108
0.00133891 -1.94583e-07 -1.78866e-05
-1.94583e-07 0.00037826 2.70367e-06
-1.78866e-05 2.70367e-06 0.000351327
0.00157363 -3.72968e-05 -5.67258e-05
-3.72968e-05 0.000387746 4.45913e-06
-5.67258e-05 4.45913e-06 0.000339798
0.00144352 -5.35112e-05 -5.20233e-05
-5.35112e-05 0.000356065 6.56053e-06
-5.20233e-05 6.56053e-06 0.00030752
0.0012389 -3.20385e-05 -4.20234e-05
-3.20385e-05 0.000287709 5.7146e-06
-4.20234e-05 5.7146e-06 0.000241813
0.00190101 -0.000127726 -1.23319e-05
-0.000127726 0.000526842 4.85038e-06
-1.23319e-05 4.85038e-06 0.000435285
0.00513447 -2.62323e-05 -2.49486e-06
-2.62323e-05 0.00240127 -5.94674e-07
-2.49486e-06 -5.94674e-07 0.00239674
0.0014641 -5.46432e-07 4.73163e-05
-5.46432e-07 0.000424362 -1.10778e-06
4.73163e-05 -1.10778e-06 0.000400333
0.00116049 5.89642e-06 -3.0362e-05
5.89642e-06 0.00014626 3.01308e-07
-3.0362e-05 3.01308e-07 9.17695e-05
0.00149559 -3.6315e-05 -1.66541e-05
-3.6315e-05 0.000345969 3.46839e-07
-1.66541e-05 3.46839e-07 0.000296626
0.00208647 7.40318e-05 4.38762e-05
7.40318e-05 0.000767205 -9.93173e-07
4.38762e-05 -9.93173e-07 0.000760762
0.00131587 2.12946e-05 -9.90615e-06
2.12946e-05 0.000347463 1.49066e-08
-9.90615e-06 1.49066e-08 0.000304314
0.00147388 -4.77106e-05 -1.61773e-05
-4.77106e-05 0.000352047 5.3481e-07
-1.61773e-05 5.3481e-07 0.000301001
0.0017749 -8.24814e-05 -5.32855e-06
-8.24814e-05 0.000349241 8.52718e-07
-5.32855e-06 8.52718e-07 0.000259822
0.00158981 -0.000112958 -2.16581e-06
-0.000112958 0.000411914 8.78015e-07
-2.16581e-06 8.78015e-07 0.000324632
0.00162114 -0.000109811 -1.42148e-06
-0.000109811 0.000334512 1.90866e-07
-1.42148e-06 1.90866e-07 0.000243067
0.00116968 -0.000118412 -7.25431e-08
-0.000118412 7.46285e-05 1.39985e-08
-7.25431e-08 1.39985e-08 -3.97126e-05
0.000746239 3.4396e-06 1.44491e-05
3.4396e-06 -8.65731e-05 -1.25099e-06
1.44491e-05 -1.25099e-06 -0.000146195
0.00143771 -2.10328e-05 2.12398e-05
-2.10328e-05 0.000313678 -2.31744e-06
2.12398e-05 -2.31744e-06 0.000261466
0.00162903 -1.25311e-05 9.18515e-06
-1.25311e-05 0.000239736 -1.55405e-06
9.18515e-06 -1.55405e-06 0.000146048
0.00154983 -6.10545e-05 8.84512e-06
-6.10545e-05 0.00022324 -1.5197e-06
8.84512e-06 -1.5197e-06 0.000134335
0.00153818 -9.60292e-05 9.25114e-06
-9.60292e-05 0.000242247 -2.95024e-06
9.25114e-06 -2.95024e-06 0.000149242
0.00180378 -9.63003e-05 2.85169e-06
-9.63003e-05 0.000278923 -2.53627e-07
2.85169e-06 -2.53627e-07 0.000171245
0.00290852 9.50943e-05 5.14496e-05
9.50943e-05 0.00120624 -2.77949e-06
5.14496e-05 -2.77949e-06 0.00120823
0.00124138 -0.000114166 4.17216e-06
-0.000114166 5.83425e-05 -1.80196e-06
4.17216e-06 -1.80196e-06 -5.60073e-05
0.000631615 5.00813e-05 3.1276e-06
5.00813e-05 -3.0113e-05 -5.29495e-06
3.1276e-06 -5.29495e-06 -7.09989e-05
0.000669024 -6.79547e-05 3.03662e-06
-6.79547e-05 -4.12113e-05 -1.60354e-06
3.03662e-06 -1.60354e-06 -0.000122802
0.00127445 -0.000129883 3.42868e-06
-0.000129883 0.000188495 -1.73109e-06
3.42868e-06 -1.73109e-06 7.3017e-05
0.00130981 -0.000133297 2.16166e-06
-0.000133297 0.00010206 -8.28629e-07
2.16166e-06 -8.28629e-07 -2.36548e-05
0.000571834 6.54292e-05 6.99364e-07
6.54292e-05 -6.82208e-05 -5.37338e-06
6.99364e-07 -5.37338e-06 -9.93258e-05
0.000760965 4.32307e-05 2.08527e-07
4.32307e-05 1.17396e-05 -2.76692e-06
2.08527e-07 -2.76692e-06 -4.79123e-05
0.0046869 1.23539e-05 -0.000111994
1.23539e-05 0.00217669 -5.54049e-06
-0.000111994 -5.54049e-06 0.00217186
0.00393563 -0.000120645 -7.55173e-05
-0.000120645 0.0018101 -5.30879e-06
-7.55173e-05 -5.30879e-06 0.00179355
0.000572344 7.6007e-05 -1.24517e-05
7.6007e-05 -0.000116107 -7.40029e-06
-1.24517e-05 -7.40029e-06 -0.000173518
0.00285939 -9.55831e-05 -5.02911e-05
-9.55831e-05 0.00118518 -2.75587e-06
-5.02911e-05 -2.75587e-06 0.00118663
0.000589253 -2.12284e-05 -3.12344e-06
-2.12284e-05 -5.71936e-05 -6.29956e-06
-3.12344e-06 -6.29956e-06 -9.86138e-05
0.000562034 5.85121e-05 -9.43871e-06
5.85121e-05 -8.15742e-05 -6.89254e-06
-9.43871e-06 -6.89254e-06 -0.000134597
0.000831802 7.73704e-05 -4.09023e-06
7.73704e-05 1.85406e-05 -1.84905e-06
-4.09023e-06 -1.84905e-06 -6.72526e-05
0.00266477 -8.40487e-05 1.35079e-06
-8.40487e-05 0.00107556 -1.53494e-07
1.35079e-06 -1.53494e-07 0.00108029
0.000650767 -5.78565e-05 6.83826e-08
-5.78565e-05 -2.88154e-05 1.33821e-07
6.83826e-08 1.33821e-07 -5.13286e-05
0.00150595 7.50703e-05 2.42054e-05
7.50703e-05 0.000361849 5.20565e-07
2.42054e-05 5.20565e-07 0.000310271
0.00133848 8.08652e-05 2.03433e-05
8.08652e-05 0.000317882 4.3035e-07
2.03433e-05 4.3035e-07 0.000267548
0.00106026 9.58705e-05 3.80611e-07
9.58705e-05 1.46155e-05 -1.6205e-07
3.80611e-07 -1.6205e-07 -8.28501e-05
0.000658057 -4.717e-05 -2.13065e-07
-4.717e-05 -2.01413e-05 1.27623e-07
-2.13065e-07 1.27623e-07 -5.43089e-05
0.000920627 9.19817e-05 2.1578e-07
9.19817e-05 3.59433e-05 3.97205e-07
2.1578e-07 3.97205e-07 -5.28504e-05
0.000832688 5.5302e-05 3.82089e-07
5.5302e-05 4.69578e-05 -2.74219e-07
3.82089e-07 -2.74219e-07 -3.72291e-05
0.000817092 0.000104996 -9.3074e-08
0.000104996 -2.1051e-05 -8.04272e-08
-9.3074e-08 -8.04272e-08 -0.000128293
0.000656637 -5.43753e-05 2.11148e-06
-5.43753e-05 -2.04047e-05 4.97923e-06
2.11148e-06 4.97923e-06 -4.91817e-05
0.000718011 -5.10029e-05 1.41034e-06
-5.10029e-05 -3.1016e-06 3.91787e-06
1.41034e-06 3.91787e-06 -1.9484e-05
0.000708252 -8.30012e-06 2.13601e-06
-8.30012e-06 -9.51144e-06 2.42391e-06
2.13601e-06 2.42391e-06 -6.65234e-05
0.0011076 8.25588e-05 8.81549e-06
8.25588e-05 -5.53608e-07 3.08126e-06
8.81549e-06 3.08126e-06 -9.83168e-05
0.001028 0.000100098 6.49217e-06
0.000100098 4.90429e-05 3.55479e-06
6.49217e-06 3.55479e-06 -4.49954e-05
0.00128859 0.000119722 4.50746e-06
0.000119722 6.48122e-05 2.16612e-06
4.50746e-06 2.16612e-06 -5.48066e-05
0.000853233 3.8862e-05 2.92824e-06
3.8862e-05 6.54311e-05 2.4793e-06
2.92824e-06 2.4793e-06 -1.2662e-05
0.000917597 0.000111504 1.54963e-06
0.000111504 -1.13617e-05 6.9428e-07
1.54963e-06 6.9428e-07 -0.000120067
0.00107892 0.000115231 2.11025e-06
0.000115231 0.000156362 3.18908e-07
2.11025e-06 3.18908e-07 4.78535e-05
0.00109326 0.000128647 -1.52827e-06
0.000128647 0.000115702 -1.63371e-06
-1.52827e-06 -1.63371e-06 -1.71137e-06
0.00216741 -5.99903e-05 3.1151e-05
-5.99903e-05 0.00078732 3.14612e-06
3.1151e-05 3.14612e-06 0.000800228
0.00224972 -6.75555e-05 8.5322e-07
-6.75555e-05 0.000839778 -9.80548e-08
8.5322e-07 -9.80548e-08 0.000850186
0.00235997 -7.5657e-05 -3.61026e-05
-7.5657e-05 0.000906847 -2.83744e-06
-3.61026e-05 -2.83744e-06 0.000914554
0.000624235 5.27247e-05 2.00335e-06
5.27247e-05 -4.9284e-05 -4.48794e-06
2.00335e-06 -4.48794e-06 -7.29695e-05
0.00273058 8.5791e-05 4.54623e-05
8.5791e-05 0.00110593 -2.89587e-06
4.54623e-05 -2.89587e-06 0.00111082
0.00483415 4.42637e-05 -0.000121061
4.42637e-05 0.00224859 -5.38997e-06
-0.000121061 -5.38997e-06 0.00224438
0.00488501 -1.21157e-05 -0.000116547
-1.21157e-05 0.00227232 -2.71426e-06
-0.000116547 -2.71426e-06 0.00226878
0.00073166 4.08606e-05 -1.40445e-05
4.08606e-05 -7.42663e-05 -3.57491e-06
-1.40445e-05 -3.57491e-06 -0.000130062
0.000724669 1.77751e-05 -1.42983e-05
1.77751e-05 -9.17672e-05 -2.17781e-06
-1.42983e-05 -2.17781e-06 -0.000151029
0.00511001 -5.68636e-05 -0.00012134
-5.68636e-05 0.00238961 -3.37689e-07
-0.00012134 -3.37689e-07 0.00238459
0.00517373 3.35722e-06 -1.10192e-06
3.35722e-06 0.00242124 4.77435e-07
-1.10192e-06 4.77435e-07 0.00241676
0.000727703 -1.86831e-06 -1.50738e-07
-1.86831e-06 -9.94754e-05 -2.84335e-07
-1.50738e-07 -2.84335e-07 -0.000159511
0.00161494 1.29146e-05 2.7097e-05
1.29146e-05 0.000397055 4.66178e-07
2.7097e-05 4.66178e-07 0.000346622
0.00122149 2.35471e-05 1.60626e-07
2.35471e-05 1.23813e-05 -7.22726e-08
1.60626e-07 -7.22726e-08 -8.61393e-05
0.000674455 4.74138e-05 1.99615e-07
4.74138e-05 -0.000100051 -9.83333e-08
1.99615e-07 -9.83333e-08 -0.000155527
0.00118447 5.47084e-05 -8.7002e-08
5.47084e-05 1.50393e-05 -3.91939e-08
-8.7002e-08 -3.91939e-08 -8.06123e-05
0.00071674 -1.08331e-05 1.46135e-05
-1.08331e-05 -0.00010745 -2.88586e-07
1.46135e-05 -2.88586e-07 -0.000167746
0.00123996 8.38729e-06 9.61853e-06
8.38729e-06 1.04493e-05 3.98679e-07
9.61853e-06 3.98679e-07 -9.01578e-05
0.00120221 3.61542e-05 9.21755e-06
3.61542e-05 1.53641e-05 1.87316e-06
9.21755e-06 1.87316e-06 -8.07895e-05
0.00148146 2.43907e-05 4.23141e-06
2.43907e-05 6.65262e-05 9.74367e-07
4.23141e-06 9.74367e-07 -4.75847e-05
0.00115317 6.72502e-05 9.12211e-06
6.72502e-05 4.68691e-06 2.49628e-06
9.12211e-06 2.49628e-06 -9.15158e-05
0.00145618 6.19786e-05 4.11703e-06
6.19786e-05 7.56739e-05 1.00234e-06
4.11703e-06 1.00234e-06 -3.54123e-05
0.00515457 -2.19701e-05 -0.000131568
-2.19701e-05 0.00241115 -7.44077e-07
-0.000131568 -7.44077e-07 0.00240677
0.00128162 -2.20819e-05 -1.52523e-05
-2.20819e-05 0.000332568 1.14986e-06
-1.52523e-05 1.14986e-06 0.000305152
-7.36488e-05 -6.37339e-07 -1.33492e-05
-6.37339e-07 -0.000523409 2.38906e-06
-1.33492e-05 2.38906e-06 -0.000588149
0.00156795 -2.35378e-05 -5.74951e-05
-2.35378e-05 0.000381658 3.03372e-06
-5.74951e-05 3.03372e-06 0.000334547
0.00288364 0.000122237 -1.64367e-05
0.000122237 0.00121118 1.27635e-06
-1.64367e-05 1.27635e-06 0.00120406
0.00174066 -9.70895e-06 -3.43331e-05
-9.70895e-06 0.000565216 4.76837e-06
-3.43331e-05 4.76837e-06 0.000527791
0.00153643 -4.87689e-05 -5.49816e-05
-4.87689e-05 0.000382666 5.83599e-06
-5.49816e-05 5.83599e-06 0.000333809
0.0015756 -7.5784e-05 -1.70672e-05
-7.5784e-05 0.000241171 3.05364e-06
-1.70672e-05 3.05364e-06 0.00015083
0.00192158 -0.000119853 -1.25031e-05
-0.000119853 0.000495515 4.33928e-06
-1.25031e-05 4.33928e-06 0.000404409
0.00180539 -0.000124276 -9.66361e-06
-0.000124276 0.000523731 4.14745e-06
-9.66361e-06 4.14745e-06 0.000434259
0.00116698 -0.000117547 -3.447e-06
-0.000117547 7.31445e-05 1.45863e-06
-3.447e-06 1.45863e-06 -4.10082e-05
0.000722457 5.75219e-06 1.2284e-08
5.75219e-06 -9.99641e-05 -2.88633e-07
1.2284e-08 -2.88633e-07 -0.000159488
0.00150893 -2.01134e-05 -1.87794e-05
-2.01134e-05 0.000349268 1.17183e-07
-1.87794e-05 1.17183e-07 0.000299031
0.0012139 -1.12965e-05 -3.51462e-06
-1.12965e-05 1.61618e-05 6.63392e-08
-3.51462e-06 6.63392e-08 -8.03705e-05
0.00179224 -6.33507e-05 -2.57839e-06
-6.33507e-05 0.000353467 3.59818e-07
-2.57839e-06 3.59818e-07 0.000266028
0.0029023 9.36865e-05 -8.90574e-07
9.36865e-05 0.00120415 -1.89367e-07
-8.90574e-07 -1.89367e-07 0.00120587
0.00113063 2.94286e-05 2.16753e-06
2.94286e-05 0.000237019 3.07869e-07
2.16753e-06 3.07869e-07 0.000199788
0.00112056 -7.80136e-05 3.00486e-07
-7.80136e-05 0.000197974 -1.48074e-07
3.00486e-07 -1.48074e-07 0.000116224
0.00153443 -9.4927e-05 -2.65257e-06
-9.4927e-05 0.000241951 4.17596e-07
-2.65257e-06 4.17596e-07 0.000148785
0.00149991 -8.82273e-05 -2.01504e-06
-8.82273e-05 0.000113243 5.53865e-07
-2.01504e-06 5.53865e-07 4.41264e-06
0.00100351 -0.00011592 -4.87184e-07
-0.00011592 4.60545e-05 -1.70552e-07
-4.87184e-07 -1.70552e-07 -6.85015e-05
0.00148628 -0.000121291 1.4609e-08
-0.000121291 0.000188953 -1.71129e-07
1.4609e-08 -1.71129e-07 7.53044e-05
0.00129239 -0.00013179 8.39489e-08
-0.00013179 9.29619e-05 1.4997e-07
8.39489e-08 1.4997e-07 -3.24111e-05
0.000607791 6.28508e-05 -9.98828e-07
6.28508e-05 -4.82375e-05 -1.57788e-08
-9.98828e-07 -1.57788e-08 -7.93795e-05
0.00073117 2.75956e-05 -1.91715e-07
2.75956e-05 -6.53427e-06 1.96883e-07
-1.91715e-07 1.96883e-07 -6.53915e-05
0.00122319 -5.86608e-06 9.43902e-06
-5.86608e-06 3.0388e-06 -1.41997e-06
9.43902e-06 -1.41997e-06 -9.7212e-05
0.00155653 -3.1438e-05 8.55993e-06
-3.1438e-05 0.000220008 -1.56992e-06
8.55993e-06 -1.56992e-06 0.000130457
0.00189184 -1.8071e-05 2.93273e-06
-1.8071e-05 0.000296031 -7.59518e-07
2.93273e-06 -7.59518e-07 0.000186276
0.00122595 -6.03323e-05 4.81406e-06
-6.03323e-05 -4.14772e-05 -8.18101e-07
4.81406e-06 -8.18101e-07 -0.000150185
0.00158896 -0.000114824 4.09912e-06
-0.000114824 0.000191062 -7.70026e-07
4.09912e-06 -7.70026e-07 7.85189e-05
0.00171506 -9.26453e-05 1.06249e-06
-9.26453e-05 0.000176937 4.13002e-07
1.06249e-06 4.13002e-07 6.57894e-05
0.000552514 6.03719e-05 1.37313e-06
6.03719e-05 -7.49567e-05 -5.61591e-06
1.37313e-06 -5.61591e-06 -0.000111377
0.00143434 -0.00012704 1.73854e-06
-0.00012704 0.000103373 -1.15409e-06
1.73854e-06 -1.15409e-06 -2.00804e-05
0.000672192 -3.50377e-05 2.08467e-06
-3.50377e-05 -3.02718e-05 -1.40893e-06
2.08467e-06 -1.40893e-06 -0.000108243
0.000552281 -9.021e-05 2.36663e-06
-9.021e-05 -0.00013698 -2.18328e-06
2.36663e-06 -2.18328e-06 -0.000244484
0.00181867 -0.000167179 1.34237e-06
-0.000167179 0.000441177 -5.31553e-07
1.34237e-06 -5.31553e-07 0.000311453
0.00159223 -0.000149341 -2.01188e-07
-0.000149341 0.000210382 7.4676e-07
-2.01188e-07 7.4676e-07 8.28342e-05
0.000818304 -2.14212e-06 1.42387e-06
-2.14212e-06 4.59333e-05 -2.87001e-06
1.42387e-06 -2.87001e-06 -2.40293e-05
0.000747985 4.07526e-05 9.44374e-07
4.07526e-05 1.34007e-07 -2.09974e-06
9.44374e-07 -2.09974e-06 -5.06631e-05
0.000836733 -3.16477e-05 3.76085e-07
-3.16477e-05 5.28502e-05 -9.01555e-07
3.76085e-07 -9.01555e-07 -3.36853e-05
0.000634927 6.68188e-05 -1.3126e-05
6.68188e-05 -0.000107003 -6.26311e-06
-1.3126e-05 -6.26311e-06 -0.000164249
0.00261035 -8.52184e-05 -4.31376e-05
-8.52184e-05 0.00104698 -2.74831e-06
-4.31376e-05 -2.74831e-06 0.00105167
0.000620722 -5.27458e-05 -1.99361e-06
-5.27458e-05 -4.65124e-05 -4.10218e-06
-1.99361e-06 -4.10218e-06 -6.78046e-05
0.000535757 7.49403e-05 -1.13715e-05
7.49403e-05 -0.00011116 -7.45531e-06
-1.13715e-05 -7.45531e-06 -0.000166035
0.00104514 9.65023e-05 -7.84175e-06
9.65023e-05 7.70369e-06 -4.14733e-06
-7.84175e-06 -4.14733e-06 -8.98049e-05
0.000547307 -6.50444e-05 -6.37072e-07
-6.50444e-05 -7.40082e-05 -5.74762e-06
-6.37072e-07 -5.74762e-06 -0.000111329
0.000737781 5.10625e-05 -2.61489e-06
5.10625e-05 -4.83718e-06 -2.23487e-06
-2.61489e-06 -2.23487e-06 -8.75062e-05
0.000869555 8.8192e-05 -4.47055e-06
8.8192e-05 9.41673e-06 -1.855e-06
-4.47055e-06 -1.855e-06 -7.88534e-05
0.000757431 0.000101889 -2.67123e-06
0.000101889 -5.43963e-05 -1.16564e-07
-2.67123e-06 -1.16564e-07 -0.000162025
0.000614334 -6.44637e-05 8.58842e-07
-6.44637e-05 -4.14532e-05 4.79577e-08
8.58842e-07 4.79577e-08 -7.13405e-05
0.00068743 -4.76606e-05 -1.0917e-07
-4.76606e-05 -1.99863e-05 1.11237e-07
-1.0917e-07 1.11237e-07 -3.57104e-05
0.00072963 -3.73939e-05 1.68558e-07
-3.73939e-05 -6.1282e-07 2.40047e-07
1.68558e-07 2.40047e-07 -5.52705e-05
0.00112334 8.44433e-05 3.06362e-07
8.44433e-05 8.3987e-06 -3.16214e-07
3.06362e-07 -3.16214e-07 -8.9631e-05
0.000984754 9.82082e-05 4.20963e-07
9.82082e-05 2.74352e-05 6.99076e-08
4.20963e-07 6.99076e-08 -6.62738e-05
0.00128729 0.000120595 2.46678e-07
0.000120595 6.4508e-05 6.39698e-08
2.46678e-07 6.39698e-08 -5.53083e-05
0.000808671 3.56847e-05 -8.27629e-08
3.56847e-05 4.33132e-05 -3.69566e-08
-8.27629e-08 -3.69566e-08 -3.43741e-05
0.00107518 0.000119551 -1.22443e-07
0.000119551 7.32191e-05 -1.03301e-07
-1.22443e-07 -1.03301e-07 -3.58164e-05
0.00102199 0.000111667 2.8361e-07
0.000111667 0.000126221 -4.11942e-07
2.8361e-07 -4.11942e-07 1.79903e-05
0.000949965 0.000122415 -8.12151e-07
0.000122415 3.92609e-05 6.62281e-07
-8.12151e-07 6.62281e-07 -7.8223e-05
0.000730037 -4.26766e-05 2.2648e-06
-4.26766e-05 -7.14669e-06 3.41677e-06
2.2648e-06 3.41677e-06 -1.85941e-05
0.000746251 1.09234e-05 2.46599e-06
1.09234e-05 6.527e-06 2.17059e-06
2.46599e-06 2.17059e-06 -5.98488e-05
0.000720939 -4.52033e-05 3.63337e-07
-4.52033e-05 -8.8099e-06 2.18891e-06
3.63337e-07 2.18891e-06 -5.3583e-05
0.000846318 2.39621e-05 5.19491e-07
2.39621e-05 6.41363e-05 7.36918e-07
5.19491e-07 7.36918e-07 -1.67522e-05
0.00133989 0.000101085 5.45037e-06
0.000101085 4.4683e-05 1.26745e-06
5.45037e-06 1.26745e-06 -7.26629e-05
0.00121598 0.000126477 3.29687e-06
0.000126477 9.24753e-05 2.30027e-06
3.29687e-06 2.30027e-06 -2.3253e-05
0.00141921 0.000131593 2.15178e-06
0.000131593 8.5256e-05 1.99238e-06
2.15178e-06 1.99238e-06 -4.4446e-05
0.00107917 8.3726e-05 2.07544e-06
8.3726e-05 0.000173957 1.45844e-06
2.07544e-06 1.45844e-06 7.39859e-05
0.00121038 0.000134966 -4.83807e-07
0.000134966 0.000116381 5.15615e-07
-4.83807e-07 5.15615e-07 -9.1737e-07
0.0010696 0.000127433 3.33515e-07
0.000127433 0.000151922 -1.58087e-06
3.33515e-07 -1.58087e-06 2.52581e-05
0.000715256 0.000113208 -1.4232e-07
0.000113208 -0.000108478 -1.21923e-06
-1.4232e-07 -1.21923e-06 -0.000228898
0.000791216 -2.25177e-05 1.1661e-06
-2.25177e-05 5.37456e-06 1.63305e-06
1.1661e-06 1.63305e-06 -2.36056e-05
0.000732903 -3.2606e-05 1.5976e-06
-3.2606e-05 -2.12081e-05 3.3145e-06
1.5976e-06 3.3145e-06 -2.69517e-05
0.00209513 -5.29668e-05 2.69843e-05
-5.29668e-05 0.00073913 3.34088e-06
2.69843e-05 3.34088e-06 0.000754462
0.00213803 -5.98385e-05 1.06757e-06
-5.98385e-05 0.000770197 -9.78434e-08
1.06757e-06 -9.78434e-08 0.000783389
0.00219401 -6.68583e-05 -3.18787e-05
-6.68583e-05 0.000808785 -2.99542e-06
-3.18787e-05 -2.99542e-06 0.0008196
0.000659634 4.39074e-05 2.47792e-06
4.39074e-05 -3.98734e-05 -3.97804e-06
2.47792e-06 -3.97804e-06 -5.83815e-05
0.00254341 7.73824e-05 3.93319e-05
7.73824e-05 0.00100037 -3.06203e-06
3.93319e-05 -3.06203e-06 0.00100772
0.000645894 5.81094e-05 -1.35274e-07
5.81094e-05 -3.57342e-05 7.90484e-08
-1.35274e-07 7.90484e-08 -6.06705e-05
0.00275215 8.44639e-05 -9.76649e-07
8.44639e-05 0.00111727 -1.44245e-07
-9.76649e-07 -1.44245e-07 0.00112218
0.000687921 5.18902e-05 -1.36236e-05
5.18902e-05 -9.27769e-05 -4.73828e-06
-1.36236e-05 -4.73828e-06 -0.000148723
0.000731886 2.97131e-05 -1.3982e-05
2.97131e-05 -7.89836e-05 -2.88965e-06
-1.3982e-05 -2.88965e-06 -0.000136535
0.00116875 5.56334e-05 -8.99209e-06
5.56334e-05 7.3322e-06 -2.14773e-06
-8.99209e-06 -2.14773e-06 -8.85232e-05
0.00122162 2.53523e-05 -9.32035e-06
2.53523e-05 1.28836e-05 -1.65523e-06
-9.32035e-06 -1.65523e-06 -8.5664e-05
0.000741321 2.25524e-06 -1.47022e-05
2.25524e-06 -9.21195e-05 -1.17174e-06
-1.47022e-05 -1.17174e-06 -0.000151937
0.00518795 -5.41591e-05 -0.000128432
-5.41591e-05 0.00242846 9.38021e-07
-0.000128432 9.38021e-07 0.00242433
0.000737102 -1.50695e-06 1.07026e-07
-1.50695e-06 -9.71986e-05 -2.46473e-07
1.07026e-07 -2.46473e-07 -0.000157318
0.00124521 1.24554e-05 3.27774e-08
1.24554e-05 1.34065e-05 -3.51233e-07
3.27774e-08 -3.51233e-07 -8.72002e-05
0.00119416 3.67049e-05 -1.51586e-08
3.67049e-05 1.18269e-05 -3.32628e-08
-1.51586e-08 -3.32628e-08 -8.44674e-05
0.001498 2.41473e-05 5.86445e-08
2.41473e-05 7.49753e-05 -2.65572e-09
5.86445e-08 -2.65572e-09 -3.91523e-05
0.00116248 6.97462e-05 4.70601e-08
6.97462e-05 1.03039e-05 -1.45118e-07
4.70601e-08 -1.45118e-07 -8.63115e-05
0.00145497 6.42503e-05 -2.2656e-08
6.42503e-05 7.54351e-05 7.853e-08
-2.2656e-08 7.853e-08 -3.58191e-05
0.00125054 -7.006e-07 9.61627e-06
-7.006e-07 1.35448e-05 -2.92711e-07
9.61627e-06 -2.92711e-07 -8.73977e-05
0.00150746 1.59752e-05 4.28913e-06
1.59752e-05 6.80479e-05 1.43452e-07
4.28913e-06 1.43452e-07 -4.80451e-05
0.00147339 4.28696e-05 4.21067e-06
4.28696e-05 7.5575e-05 9.77695e-07
4.21067e-06 9.77695e-07 -3.63982e-05
0.0016227 2.24082e-05 1.20824e-06
2.24082e-05 9.74524e-05 4.69089e-07
1.20824e-06 4.69089e-07 -1.77197e-05
0.00141048 8.22755e-05 4.18432e-06
8.22755e-05 5.99285e-05 7.67985e-07
4.18432e-06 7.67985e-07 -5.30777e-05
0.00160115 6.7684e-05 1.26864e-06
6.7684e-05 0.000104441 5.03091e-07
1.26864e-06 5.03091e-07 -9.24308e-06
0.00073004 9.27888e-06 -1.40332e-05
9.27888e-06 -9.68396e-05 5.89311e-07
-1.40332e-05 5.89311e-07 -0.000156439
0.00158329 -6.734e-06 -5.8955e-05
-6.734e-06 0.000386547 2.1384e-06
-5.8955e-05 2.1384e-06 0.000338404
0.000799105 -8.49307e-06 -9.89831e-06
-8.49307e-06 -0.000207376 1.93049e-06
-9.89831e-06 1.93049e-06 -0.000306792
0.0020091 -6.43311e-05 -1.50134e-05
-6.43311e-05 0.000469763 2.14601e-06
-1.50134e-05 2.14601e-06 0.000383961
0.00290831 9.20681e-05 -5.57552e-05
9.20681e-05 0.00120841 2.96149e-06
-5.57552e-05 2.96149e-06 0.00120995
0.00168985 2.69594e-05 -2.87932e-05
2.69594e-05 0.000538836 3.61551e-06
-2.87932e-05 3.61551e-06 0.000505122
0.00158578 -9.56394e-05 -6.52722e-06
-9.56394e-05 0.00044428 2.5975e-06
-6.52722e-06 2.5975e-06 0.000361891
0.00152652 -9.37857e-05 -1.4097e-05
-9.37857e-05 0.000239416 3.83631e-06
-1.4097e-05 3.83631e-06 0.000146136
0.00118995 -7.99271e-05 -5.94139e-06
-7.99271e-05 -5.56717e-05 8.23924e-07
-5.94139e-06 8.23924e-07 -0.000165636
0.00173794 -0.000128718 -5.09628e-06
-0.000128718 0.000323078 1.70409e-06
-5.09628e-06 1.70409e-06 0.000210111
0.000726311 -0.000101494 -2.89011e-06
-0.000101494 -9.95697e-05 1.23927e-06
-2.89011e-06 1.23927e-06 -0.000213164
0.00127999 -0.000130482 -1.29243e-06
-0.000130482 8.64383e-05 9.18989e-07
-1.29243e-06 9.18989e-07 -3.85957e-05
0.000640118 5.28032e-05 -2.33739e-06
5.28032e-05 -3.19574e-05 5.18497e-06
-2.33739e-06 5.18497e-06 -6.2114e-05
0.000711198 1.32421e-05 -1.70804e-06
1.32421e-05 -1.81657e-05 2.48059e-06
-1.70804e-06 2.48059e-06 -7.72539e-05
0.00103568 -1.99422e-06 -4.25957e-07
-1.99422e-06 -9.67993e-05 -3.05771e-07
-4.25957e-07 -3.05771e-07 -0.00019818
0.00158364 -3.33349e-05 -2.89275e-06
-3.33349e-05 0.000233447 2.32513e-07
-2.89275e-06 2.32513e-07 0.000143948
0.00178299 -1.50488e-05 -2.07258e-06
-1.50488e-05 0.000236067 4.30908e-07
-2.07258e-06 4.30908e-07 0.000125701
0.00155421 -6.53567e-05 1.08127e-06
-6.53567e-05 0.000135213 -2.25598e-07
1.08127e-06 -2.25598e-07 2.8346e-05
0.000601798 4.69797e-05 6.28325e-08
4.69797e-05 -5.16401e-05 1.17572e-07
6.28325e-08 1.17572e-07 -8.63584e-05
0.000813712 -4.60325e-05 -2.12335e-07
-4.60325e-05 4.53772e-05 -2.38741e-08
-2.12335e-07 -2.38741e-08 -3.38826e-05
0.000707759 -9.83902e-05 8.87016e-07
-9.83902e-05 -5.25154e-05 -7.83654e-07
8.87016e-07 -7.83654e-07 -0.000159074
0.00172367 -0.000117594 -9.98622e-07
-0.000117594 0.000262814 2.15487e-07
-9.98622e-07 2.15487e-07 0.000150124
0.00157129 -8.77669e-05 -6.54451e-07
-8.77669e-05 9.76666e-05 4.3377e-07
-6.54451e-07 4.3377e-07 -1.35303e-05
0.00144666 -0.000148531 -1.22454e-06
-0.000148531 0.000242875 6.17062e-07
-1.22454e-06 6.17062e-07 0.000112905
0.00140835 -0.000125551 -7.88241e-08
-0.000125551 8.96902e-05 -2.27632e-07
-7.88241e-08 -2.27632e-07 -3.35887e-05
0.00138152 -0.000139805 4.58963e-07
-0.000139805 0.00010054 6.73435e-07
4.58963e-07 6.73435e-07 -2.61612e-05
0.000766508 -5.79172e-06 -2.51708e-07
-5.79172e-06 1.72297e-05 -1.10542e-07
-2.51708e-07 -1.10542e-07 -5.26647e-05
0.00078897 -5.95325e-06 -5.51686e-07
-5.95325e-06 2.21823e-05 -2.63275e-07
-5.51686e-07 -2.63275e-07 -6.0683e-05
0.000739788 3.34876e-05 4.62665e-07
3.34876e-05 -5.52931e-06 2.64166e-07
4.62665e-07 2.64166e-07 -5.58063e-05
0.00191706 -2.57646e-07 2.99985e-06
-2.57646e-07 0.000293312 -5.69706e-07
2.99985e-06 -5.69706e-07 0.000181099
0.00161738 -3.73062e-05 3.67371e-06
-3.73062e-05 0.000163527 -7.6156e-07
3.67371e-06 -7.6156e-07 5.5934e-05
0.00181619 -1.41281e-05 9.68813e-07
-1.41281e-05 0.000206664 -1.71886e-07
9.68813e-07 -1.71886e-07 9.18614e-05
0.0015775 -5.94343e-05 1.53434e-06
-5.94343e-05 9.58491e-05 -6.16897e-07
1.53434e-06 -6.16897e-07 -1.49191e-05
0.00145526 -0.00011343 2.51473e-06
-0.00011343 5.66899e-05 -2.03225e-07
2.51473e-06 -2.03225e-07 -6.24578e-05
0.00180119 -8.58431e-05 -6.43179e-07
-8.58431e-05 0.000185266 7.65235e-07
-6.43179e-07 7.65235e-07 7.59793e-05
0.000766958 -2.29983e-05 2.28738e-06
-2.29983e-05 2.32747e-05 -2.06509e-06
2.28738e-06 -2.06509e-06 -5.38558e-05
0.00141977 -0.000129154 -7.97539e-07
-0.000129154 5.29304e-05 -6.33525e-07
-7.97539e-07 -6.33525e-07 -6.8688e-05
0.000892989 -0.000101297 1.22407e-06
-0.000101297 6.92109e-05 -2.31173e-07
1.22407e-06 -2.31173e-07 -2.8819e-05
0.000699651 -0.000111066 2.30421e-06
-0.000111066 -7.75902e-05 -2.85429e-06
2.30421e-06 -2.85429e-06 -0.000202887
0.00161838 -0.000165117 1.73474e-06
-0.000165117 0.000300129 5.31352e-07
1.73474e-06 5.31352e-07 0.000162056
0.00192466 -0.000166597 -2.69639e-06
-0.000166597 0.000360276 2.35144e-06
-2.69639e-06 2.35144e-06 0.000238239
0.000762669 3.04263e-05 1.24237e-06
3.04263e-05 1.85449e-06 -1.86519e-06
1.24237e-06 -1.86519e-06 -4.22031e-05
0.000871386 -4.95681e-05 1.09652e-06
-4.95681e-05 6.34734e-05 -1.62335e-07
1.09652e-06 -1.62335e-07 -2.3881e-05
0.000757353 2.56668e-06 4.36909e-07
2.56668e-06 5.59787e-06 -1.43644e-06
4.36909e-07 -1.43644e-06 -7.17468e-05
0.000956437 -9.14376e-05 -2.7849e-07
-9.14376e-05 0.000121174 8.53506e-07
-2.7849e-07 8.53506e-07 2.45467e-05
0.00113656 8.66206e-05 -9.10688e-06
8.66206e-05 1.59776e-05 -3.73584e-06
-9.10688e-06 -3.73584e-06 -8.23445e-05
0.000655654 -4.50893e-05 -2.47329e-06
-4.50893e-05 -3.72419e-05 -3.52316e-06
-2.47329e-06 -3.52316e-06 -5.24518e-05
0.000566219 -6.43545e-05 -8.61137e-07
-6.43545e-05 -6.82812e-05 -5.01117e-06
-8.61137e-07 -5.01117e-06 -9.76485e-05
0.00075023 -5.14592e-05 -3.12257e-08
-5.14592e-05 1.2081e-05 -2.55529e-06
-3.12257e-08 -2.55529e-06 -4.33325e-05
0.000936037 9.60903e-05 -5.60998e-06
9.60903e-05 3.2446e-06 -3.48177e-06
-5.60998e-06 -3.48177e-06 -9.01685e-05
0.00129581 0.000121649 -4.33403e-06
0.000121649 6.92557e-05 -2.10987e-06
-4.33403e-06 -2.10987e-06 -5.07411e-05
0.000750495 2.83845e-05 -2.12699e-06
2.83845e-05 1.47053e-05 -2.20465e-06
-2.12699e-06 -2.20465e-06 -6.30304e-05
0.000983324 0.000109099 -2.31742e-06
0.000109099 0.000105767 -1.51795e-06
-2.31742e-06 -1.51795e-06 -2.29348e-06
0.00122306 0.000127183 -1.95115e-06
0.000127183 0.000152809 -9.00127e-07
-1.95115e-06 -9.00127e-07 4.3461e-05
0.000786823 0.000115082 -1.84561e-06
0.000115082 -4.76136e-05 1.02036e-06
-1.84561e-06 1.02036e-06 -0.000165067
0.000702195 -4.12597e-05 8.60127e-08
-4.12597e-05 -2.19607e-05 3.29366e-08
8.60127e-08 3.29366e-08 -3.32043e-05
0.000768359 9.76132e-06 9.51422e-08
9.76132e-06 2.23283e-05 -4.28484e-08
9.51422e-08 -4.28484e-08 -4.60123e-05
0.000735015 -4.81845e-05 -1.86761e-07
-4.81845e-05 -1.19331e-06 3.00783e-07
-1.86761e-07 3.00783e-07 -4.59921e-05
0.000852689 9.44577e-06 3.02373e-07
9.44577e-06 6.65884e-05 -2.06193e-07
3.02373e-07 -2.06193e-07 -1.31984e-05
0.00137972 0.000103124 1.06206e-06
0.000103124 6.4966e-05 7.58042e-08
1.06206e-06 7.58042e-08 -5.26638e-05
0.00117194 0.000125307 7.38359e-08
0.000125307 7.09233e-05 5.33126e-08
7.38359e-08 5.33126e-08 -4.479e-05
0.00142316 0.000131844 7.54031e-08
0.000131844 8.78003e-05 5.458e-07
7.54031e-08 5.458e-07 -4.20128e-05
0.00099073 8.5079e-05 3.53889e-07
8.5079e-05 0.000127202 3.10086e-07
3.53889e-07 3.10086e-07 2.83942e-05
0.0013961 0.000144103 -6.73443e-07
0.000144103 0.000216332 -1.28122e-06
-6.73443e-07 -1.28122e-06 9.87447e-05
0.00107718 0.00012828 3.37122e-07
0.00012828 0.000155247 -9.80595e-07
3.37122e-07 -9.80595e-07 2.78695e-05
0.000864731 0.000121122 -1.80805e-06
0.000121122 -2.53302e-05 -5.91844e-08
-1.80805e-06 -5.91844e-08 -0.000142899
0.000734648 -3.74907e-05 1.97418e-06
-3.74907e-05 -1.30937e-05 3.33036e-06
1.97418e-06 3.33036e-06 -2.13016e-05
0.00075142 -4.25354e-05 7.09468e-07
-4.25354e-05 2.95816e-07 1.8162e-06
7.09468e-07 1.8162e-06 -3.74282e-05
0.000977621 4.42285e-05 1.40128e-06
4.42285e-05 0.000126777 6.78385e-07
1.40128e-06 6.78385e-07 3.75325e-05
0.000813237 8.71179e-06 3.57225e-07
8.71179e-06 4.03132e-05 1.20606e-06
3.57225e-07 1.20606e-06 -2.78817e-05
0.000904614 7.19046e-05 7.76813e-07
7.19046e-05 0.000105967 -1.04037e-07
7.76813e-07 -1.04037e-07 1.01138e-05
0.00147108 0.000106298 3.40409e-06
0.000106298 6.17876e-05 1.47503e-07
3.40409e-06 1.47503e-07 -6.17549e-05
0.00129511 0.00013886 8.0623e-07
0.00013886 9.49469e-05 2.60957e-06
8.0623e-07 2.60957e-06 -3.06776e-05
0.0015725 0.000141785 -3.51194e-07
0.000141785 0.000135089 1.73214e-06
-3.51194e-07 1.73214e-06 2.91117e-06
0.00114059 0.000125654 2.83452e-06
0.000125654 0.000219245 3.04422e-06
2.83452e-06 3.04422e-06 9.65445e-05
0.00122978 0.000143322 1.11983e-06
0.000143322 0.000105757 8.69502e-07
1.11983e-06 8.69502e-07 -1.45964e-05
0.000291194 9.10086e-05 1.67134e-06
9.10086e-05 -0.000288883 -2.29058e-06
1.67134e-06 -2.29058e-06 -0.000423942
0.000784361 -2.68726e-05 1.34254e-06
-2.68726e-05 5.7526e-06 1.5876e-06
1.34254e-06 1.5876e-06 -2.4962e-05
0.000800946 1.81335e-06 4.20693e-07
1.81335e-06 2.22131e-05 6.30449e-07
4.20693e-07 6.30449e-07 -2.63728e-05
0.000802664 -1.66262e-05 8.3928e-07
-1.66262e-05 7.90688e-06 1.72146e-06
8.3928e-07 1.72146e-06 -1.98653e-05
0.000791585 -2.14037e-05 1.3739e-07
-2.14037e-05 6.05399e-06 -1.17445e-09
1.3739e-07 -1.17445e-09 -2.30267e-05
0.00126657 -3.48384e-05 1.76696e-06
-3.48384e-05 0.000264811 2.01776e-06
1.76696e-06 2.01776e-06 0.000264039
0.000998445 -3.56678e-05 7.86329e-07
-3.56678e-05 0.000124355 -2.04906e-08
7.86329e-07 -2.04906e-08 0.000120159
0.000975786 -3.13151e-05 2.21173e-05
-3.13151e-05 0.000116677 6.10225e-06
2.21173e-05 6.10225e-06 0.000128519
0.00207974 -5.28044e-05 1.18463e-06
-5.28044e-05 0.000729522 -9.05802e-08
1.18463e-06 -9.05802e-08 0.000745118
0.00211207 -5.9509e-05 -2.82867e-05
-5.9509e-05 0.000754872 -3.18206e-06
-2.82867e-05 -3.18206e-06 0.000768388
0.000676944 3.86623e-05 2.29762e-06
3.86623e-05 -3.87793e-05 -3.79452e-06
2.29762e-06 -3.79452e-06 -5.37312e-05
0.00241584 6.95641e-05 3.47888e-05
6.95641e-05 0.000924446 -3.27732e-06
3.47888e-05 -3.27732e-06 0.000934254
0.000678896 4.64416e-05 2.09154e-08
4.64416e-05 -2.89252e-05 4.34657e-08
2.09154e-08 4.34657e-08 -4.79501e-05
0.00259419 7.69588e-05 -1.12784e-06
7.69588e-05 0.00102754 -1.26572e-07
-1.12784e-06 -1.26572e-07 0.00103486
0.000667549 6.1151e-05 2.41589e-07
6.1151e-05 -2.27486e-05 5.09245e-06
2.41589e-07 5.09245e-06 -4.85955e-05
0.00279743 8.36669e-05 -5.15121e-05
8.36669e-05 0.00114151 3.10196e-06
-5.15121e-05 3.10196e-06 0.00114632
0.00117579 7.23346e-05 -9.36866e-06
7.23346e-05 1.78168e-05 -2.72487e-06
-9.36866e-06 -2.72487e-06 -7.91752e-05
0.00119874 4.01837e-05 -8.95199e-06
4.01837e-05 1.48762e-05 -1.88399e-06
-8.95199e-06 -1.88399e-06 -8.16353e-05
0.00144538 6.26291e-05 -4.08945e-06
6.26291e-05 7.08479e-05 -8.21566e-07
-4.08945e-06 -8.21566e-07 -4.03797e-05
0.00151615 2.41806e-05 -4.36629e-06
2.41806e-05 8.42433e-05 -9.6125e-07
-4.36629e-06 -9.6125e-07 -2.99027e-05
0.00124691 1.51716e-05 -9.6872e-06
1.51716e-05 1.45593e-05 -1.13152e-06
-9.6872e-06 -1.13152e-06 -8.60787e-05
0.000731613 7.67648e-06 -1.45595e-05
7.67648e-06 -9.97401e-05 -2.06529e-07
-1.45595e-05 -2.06529e-07 -0.000159995
0.00124658 1.2626e-06 1.44329e-08
1.2626e-06 1.13303e-05 -9.95158e-08
1.44329e-08 -9.95158e-08 -8.9657e-05
0.00151744 1.77578e-05 -4.80584e-08
1.77578e-05 7.32695e-05 -3.17432e-07
-4.80584e-08 -3.17432e-07 -4.28415e-05
0.00147281 4.01646e-05 9.91086e-08
4.01646e-05 7.56759e-05 -1.63606e-08
9.91086e-08 -1.63606e-08 -3.62512e-05
0.00160363 2.2339e-05 -1.00307e-07
2.2339e-05 8.53759e-05 1.03364e-07
-1.00307e-07 1.03364e-07 -2.96595e-05
0.0014257 8.3067e-05 -1.75143e-07
8.3067e-05 6.72791e-05 5.99588e-08
-1.75143e-07 5.99588e-08 -4.58286e-05
0.00158553 6.68069e-05 -6.07533e-09
6.68069e-05 9.64903e-05 1.29658e-07
-6.07533e-09 1.29658e-07 -1.71755e-05
0.00151979 6.08204e-06 4.55352e-06
6.08204e-06 7.172e-05 -1.82938e-07
4.55352e-06 -1.82938e-07 -4.45687e-05
0.00159995 1.74992e-05 8.10147e-07
1.74992e-05 6.70751e-05 2.97876e-07
8.10147e-07 2.97876e-07 -4.96289e-05
0.00158946 4.40715e-05 1.33332e-06
4.40715e-05 8.94232e-05 2.43002e-07
1.33332e-06 2.43002e-07 -2.50177e-05
0.00177879 2.15056e-05 1.50632e-07
2.15056e-05 0.00014452 1.15073e-07
1.50632e-07 1.15073e-07 3.41702e-05
0.00155646 8.34806e-05 1.30349e-06
8.34806e-05 8.64392e-05 1.06432e-08
1.30349e-06 1.06432e-08 -2.9213e-05
0.00169148 5.87877e-05 -1.52693e-06
5.87877e-05 0.000117899 2.06003e-07
-1.52693e-06 2.06003e-07 9.50192e-06
0.000840133 -1.09828e-07 -9.36903e-06
-1.09828e-07 -0.00020067 6.50597e-07
-9.36903e-06 6.50597e-07 -0.000303233
0.00161533 -3.70151e-05 -1.44358e-05
-3.70151e-05 0.000249141 1.96456e-06
-1.44358e-05 1.96456e-06 0.000159717
0.00166555 -8.5312e-06 -6.7554e-06
-8.5312e-06 0.000171949 1.50483e-06
-6.7554e-06 1.50483e-06 6.10081e-05
0.00188613 -7.06159e-05 -4.33851e-06
-7.06159e-05 0.000313879 5.5322e-07
-4.33851e-06 5.5322e-07 0.000208836
0.000651544 3.94258e-05 -4.23045e-06
3.94258e-05 -2.45519e-05 5.05914e-06
-4.23045e-06 5.05914e-06 -5.97979e-05
0.000892182 -5.29463e-05 -3.46464e-06
-5.29463e-05 8.72451e-05 1.90995e-06
-3.46464e-06 1.90995e-06 7.43124e-06
0.000874897 -0.000107461 -7.9053e-07
-0.000107461 3.78964e-05 4.49512e-07
-7.9053e-07 4.49512e-07 -6.77934e-05
0.00185715 -0.000120324 -6.01331e-06
-0.000120324 0.000334001 1.54316e-06
-6.01331e-06 1.54316e-06 0.000221158
0.00142965 -8.28755e-05 -2.07194e-06
-8.28755e-05 1.94055e-05 8.97195e-08
-2.07194e-06 8.97195e-08 -9.18216e-05
0.00137901 -0.000123921 -2.01985e-06
-0.000123921 7.42203e-05 7.3746e-07
-2.01985e-06 7.3746e-07 -4.88709e-05
0.00107256 -0.000129822 -2.30749e-06
-0.000129822 4.35566e-05 1.59138e-06
-2.30749e-06 1.59138e-06 -8.6671e-05
0.00116594 -0.000129941 1.31282e-06
-0.000129941 -1.17941e-05 1.34843e-08
1.31282e-06 1.34843e-08 -0.000137623
0.000725462 -8.02116e-06 -2.42276e-06
-8.02116e-06 -6.95399e-06 2.27988e-06
-2.42276e-06 2.27988e-06 -7.58954e-05
0.000761832 1.27296e-06 -1.06094e-06
1.27296e-06 7.08801e-06 4.13184e-07
-1.06094e-06 4.13184e-07 -7.53353e-05
0.000730744 2.63106e-05 -8.60683e-07
2.63106e-05 -1.14353e-05 2.26852e-06
-8.60683e-07 2.26852e-06 -6.13109e-05
0.00171492 6.84571e-07 -2.06105e-06
6.84571e-07 0.000183431 1.14582e-07
-2.06105e-06 1.14582e-07 6.94438e-05
0.00163716 -4.20164e-05 -1.04077e-06
-4.20164e-05 0.000173259 6.72518e-08
-1.04077e-06 6.72518e-08 6.55848e-05
0.00165074 -1.12254e-05 -7.3503e-07
-1.12254e-05 0.000117441 4.09937e-07
-7.3503e-07 4.09937e-07 2.44511e-06
0.0017023 -5.90022e-05 3.21482e-09
-5.90022e-05 0.000161605 -1.77974e-07
3.21482e-09 -1.77974e-07 5.12561e-05
0.000790404 -2.87745e-05 1.32461e-07
-2.87745e-05 3.39456e-05 -2.35391e-07
1.32461e-07 -2.35391e-07 -4.27151e-05
0.000998308 -0.000107799 -2.21335e-07
-0.000107799 0.000123423 3.74401e-07
-2.21335e-07 3.74401e-07 2.4613e-05
0.000808273 -0.000115277 6.81893e-07
-0.000115277 -1.55566e-05 -1.17701e-06
6.81893e-07 -1.17701e-06 -0.000139268
0.00161045 -0.00011765 4.44651e-07
-0.00011765 0.000142523 -3.65954e-07
4.44651e-07 -3.65954e-07 2.36742e-05
0.0016621 -8.20364e-05 -8.46188e-08
-8.20364e-05 0.000110821 9.68044e-08
-8.46188e-08 9.68044e-08 1.77541e-06
0.00131797 -0.000150582 -1.37923e-07
-0.000150582 0.000143897 4.30425e-07
-1.37923e-07 4.30425e-07 5.1963e-06
0.0014754 -0.000129778 -2.22022e-07
-0.000129778 8.1037e-05 -5.44113e-08
-2.22022e-07 -5.44113e-08 -4.0396e-05
0.00170466 -0.000157134 1.20361e-06
-0.000157134 0.000242811 1.14299e-06
1.20361e-06 1.14299e-06 0.000122529
0.000921026 -5.50433e-05 -2.80721e-07
-5.50433e-05 9.21013e-05 -1.86609e-07
-2.80721e-07 -1.86609e-07 3.56196e-06
0.000932537 -9.17137e-05 -3.10166e-07
-9.17137e-05 0.000108708 3.76334e-07
-3.10166e-07 3.76334e-07 1.06477e-05
0.000760967 2.48247e-05 1.65192e-07
2.48247e-05 7.57382e-07 8.81193e-08
1.65192e-07 8.81193e-08 -4.31708e-05
0.000742374 2.32579e-05 -1.5501e-07
2.32579e-05 -6.08844e-06 -4.96036e-07
-1.5501e-07 -4.96036e-07 -7.98564e-05
0.00165533 -1.14802e-06 1.64205e-06
-1.14802e-06 0.000107139 -5.99027e-07
1.64205e-06 -5.99027e-07 -9.93352e-06
0.00176563 -3.66531e-05 9.97989e-07
-3.66531e-05 0.000192167 7.9193e-08
9.97989e-07 7.9193e-08 8.00818e-05
0.00174086 -1.32423e-05 3.83661e-07
-1.32423e-05 0.000134846 1.01753e-08
3.83661e-07 1.01753e-08 2.23426e-05
0.00163629 -5.2879e-05 -4.27162e-07
-5.2879e-05 9.11052e-05 -1.70741e-07
-4.27162e-07 -1.70741e-07 -1.56127e-05
0.00151679 -0.000110494 -1.04628e-06
-0.000110494 4.49572e-05 7.061e-08
-1.04628e-06 7.061e-08 -7.09814e-05
0.00166402 -7.60605e-05 3.33798e-07
-7.60605e-05 9.10998e-05 5.64958e-07
3.33798e-07 5.64958e-07 -1.47222e-05
0.000892288 -9.70368e-05 1.28656e-06
-9.70368e-05 7.40762e-05 2.03572e-07
1.28656e-06 2.03572e-07 -1.81885e-05
0.00146686 -0.000131846 -3.46676e-06
-0.000131846 4.84725e-05 -3.18634e-07
-3.46676e-06 -3.18634e-07 -6.35921e-05
0.000595776 -9.71312e-05 -1.32039e-07
-9.71312e-05 -8.83083e-05 -1.64117e-06
-1.32039e-07 -1.64117e-06 -0.000200427
0.00113244 -0.000142151 2.57941e-06
-0.000142151 0.000131768 -1.93359e-06
2.57941e-06 -1.93359e-06 -9.47516e-06
0.00142183 -0.000164066 1.52824e-06
-0.000164066 0.000173751 2.85711e-06
1.52824e-06 2.85711e-06 3.12093e-05
0.00213466 -0.000179107 -3.59865e-07
-0.000179107 0.000440154 9.54593e-07
-3.59865e-07 9.54593e-07 0.000319898
0.000773278 2.02547e-05 1.64989e-06
2.02547e-05 3.35161e-06 -1.82952e-06
1.64989e-06 -1.82952e-06 -3.70297e-05
0.000717766 8.75101e-06 3.99973e-07
8.75101e-06 -1.61541e-05 -1.33498e-06
3.99973e-07 -1.33498e-06 -8.69557e-05
0.000933596 -0.000108933 2.08454e-07
-0.000108933 0.000105635 1.12058e-06
2.08454e-07 1.12058e-06 5.07073e-06
0.000945505 -6.66339e-05 9.19257e-07
-6.66339e-05 0.000113105 -1.86072e-07
9.19257e-07 -1.86072e-07 2.46006e-05
0.00092721 -0.000108364 -7.42772e-07
-0.000108364 0.000109429 1.79188e-06
-7.42772e-07 1.79188e-06 6.24648e-06
0.000676647 -4.00646e-05 -2.26074e-06
-4.00646e-05 -3.54846e-05 -3.39034e-06
-2.26074e-06 -3.39034e-06 -4.65565e-05
0.00140276 0.000104595 -3.5887e-06
0.000104595 7.66029e-05 -1.17798e-06
-3.5887e-06 -1.17798e-06 -4.13152e-05
0.000743572 -5.07735e-05 -6.50051e-07
-5.07735e-05 3.53149e-06 -1.82853e-06
-6.50051e-07 -1.82853e-06 -4.13439e-05
0.000807963 -8.09942e-06 -5.50945e-07
-8.09942e-06 4.36881e-05 -2.56941e-06
-5.50945e-07 -2.56941e-06 -2.37815e-05
0.000863725 -4.17357e-06 4.26483e-07
-4.17357e-06 7.13565e-05 -9.7145e-07
4.26483e-07 -9.7145e-07 -7.22647e-06
0.00115161 0.000125278 -3.31624e-06
0.000125278 6.17633e-05 -2.25937e-06
-3.31624e-06 -2.25937e-06 -5.4009e-05
0.00142265 0.00013193 -1.88203e-06
0.00013193 8.80601e-05 -9.20605e-07
-1.88203e-06 -9.20605e-07 -4.1868e-05
0.000912982 9.78167e-05 -1.44017e-06
9.78167e-05 8.87738e-05 -7.66494e-07
-1.44017e-06 -7.66494e-07 -1.08081e-05
0.00112735 0.000131695 -2.07814e-06
0.000131695 0.000181787 -1.44284e-06
-2.07814e-06 -1.44284e-06 5.33358e-05
0.00158814 0.00015352 -1.45015e-06
0.00015352 0.000319527 -2.2166e-06
-1.45015e-06 -2.2166e-06 0.000201643
0.00103745 0.000130142 -3.33745e-06
0.000130142 7.02678e-05 1.99643e-06
-3.33745e-06 1.99643e-06 -4.45732e-05
0.000711646 -3.65372e-05 8.43793e-08
-3.65372e-05 -2.53128e-05 2.74814e-08
8.43793e-08 2.74814e-08 -3.34035e-05
0.000757611 -4.23428e-05 -1.74625e-07
-4.23428e-05 3.45069e-06 9.14645e-08
-1.74625e-07 9.14645e-08 -3.41496e-05
0.00093014 5.04231e-05 4.93008e-07
5.04231e-05 0.00010245 -7.67472e-08
4.93008e-07 -7.67472e-08 1.29275e-05
0.000822325 -1.44584e-05 -1.48657e-07
-1.44584e-05 4.37608e-05 1.26915e-07
-1.48657e-07 1.26915e-07 -2.30484e-05
0.000871556 5.56309e-05 5.19364e-07
5.56309e-05 8.56892e-05 -2.39156e-07
5.19364e-07 -2.39156e-07 -9.50729e-06
0.00150802 0.000107957 1.29792e-06
0.000107957 8.07649e-05 1.55073e-07
1.29792e-06 1.55073e-07 -4.30973e-05
0.00128435 0.000139182 1.8117e-08
0.000139182 9.01875e-05 3.53615e-07
1.8117e-08 3.53615e-07 -3.54925e-05
0.001508 0.000140696 9.65139e-07
0.000140696 0.000102166 9.07054e-07
9.65139e-07 9.07054e-07 -3.05185e-05
0.00102634 0.000119068 1.08015e-06
0.000119068 0.000160402 1.23627e-06
1.08015e-06 1.23627e-06 3.83e-05
0.00138451 0.000150114 1.00718e-06
0.000150114 0.000189452 -1.28607e-06
1.00718e-06 -1.28607e-06 6.90369e-05
0.000806338 0.000119952 -1.77209e-06
0.000119952 -1.79334e-05 -9.55702e-07
-1.77209e-06 -9.55702e-07 -0.000154435
0.000773706 -3.31851e-05 1.26552e-06
-3.31851e-05 5.4933e-06 1.62487e-06
1.26552e-06 1.62487e-06 -2.78583e-05
0.00081587 -1.22209e-06 4.69656e-07
-1.22209e-06 3.31712e-05 1.04343e-06
4.69656e-07 1.04343e-06 -2.3144e-05
0.00105285 0.000113155 1.44824e-07
0.000113155 0.000181242 -7.95555e-09
1.44824e-07 -7.95555e-09 7.0641e-05
0.000873401 8.6943e-06 4.80745e-07
8.6943e-06 7.99312e-05 5.2127e-07
4.80745e-07 5.2127e-07 -1.87868e-06
0.00105865 5.57267e-05 -2.95409e-07
5.57267e-05 0.000186267 -1.8591e-06
-2.95409e-07 -1.8591e-06 8.20829e-05
0.00161649 0.000107142 -1.22939e-06
0.000107142 0.000103214 -1.5484e-06
-1.22939e-06 -1.5484e-06 -1.86211e-05
0.00138572 0.000152456 4.87331e-07
0.000152456 0.000111672 2.62728e-06
4.87331e-07 2.62728e-06 -1.73757e-05
0.00138497 0.000149263 -4.57216e-06
0.000149263 2.26881e-05 1.18281e-07
-4.57216e-06 1.18281e-07 -0.000101465
0.000835425 0.000114144 1.55923e-07
0.000114144 6.41875e-05 2.30289e-06
1.55923e-07 2.30289e-06 -7.89738e-05
0.00125146 0.00015675 3.4763e-06
0.00015675 0.000143585 -6.40011e-07
3.4763e-06 -6.40011e-07 5.65591e-06
0.000782748 -2.584e-05 3.15831e-08
-2.584e-05 5.29148e-06 1.33825e-09
3.15831e-08 1.33825e-09 -2.54589e-05
0.00066943 -1.86076e-05 7.68427e-07
-1.86076e-05 -5.095e-05 1.2443e-06
7.68427e-07 1.2443e-06 -9.94373e-05
0.000749363 -2.10727e-05 -6.87412e-07
-2.10727e-05 -8.03135e-06 -2.70423e-08
-6.87412e-07 -2.70423e-08 -5.56228e-05
0.000999634 1.37468e-05 1.10193e-06
1.37468e-05 0.000138432 -1.65693e-07
1.10193e-06 -1.65693e-07 7.84739e-05
0.000827954 1.22227e-05 1.67652e-06
1.22227e-05 3.16645e-05 7.59115e-07
1.67652e-06 7.59115e-07 -1.50359e-05
0.000805501 -7.86746e-06 8.67303e-07
-7.86746e-06 6.34065e-06 1.72083e-06
8.67303e-07 1.72083e-06 -2.09795e-05
0.000799014 -1.70863e-05 -2.32141e-08
-1.70863e-05 6.14702e-06 2.00036e-08
-2.32141e-08 2.00036e-08 -2.16797e-05
0.0012615 -2.82371e-05 1.21506e-06
-2.82371e-05 0.000255923 2.00426e-06
1.21506e-06 2.00426e-06 0.000256964
0.000789002 -2.06556e-05 -1.11338e-06
-2.06556e-05 5.08717e-06 -1.75169e-06
-1.11338e-06 -1.75169e-06 -2.40899e-05
0.00128228 -3.28632e-05 -4.04758e-06
-3.28632e-05 0.000272809 -1.15311e-06
-4.04758e-06 -1.15311e-06 0.000272367
0.000969264 -2.65021e-05 1.89907e-05
-2.65021e-05 0.000104641 6.14475e-06
1.89907e-05 6.14475e-06 0.000118594
0.00127028 -3.66345e-05 -9.33324e-06
-3.66345e-05 0.000273427 -3.07674e-06
-9.33324e-06 -3.07674e-06 0.000271066
0.00148678 -3.86823e-05 1.73062e-05
-3.86823e-05 0.000396805 1.96063e-06
1.73062e-05 1.96063e-06 0.000411575
0.00206569 -5.25115e-05 -2.48887e-05
-5.25115e-05 0.00072063 -3.36032e-06
-2.48887e-05 -3.36032e-06 0.000736511
0.000687631 3.48693e-05 1.90406e-06
3.48693e-05 -4.00638e-05 -3.70383e-06
1.90406e-06 -3.70383e-06 -5.21588e-05
0.000693753 3.96687e-05 -1.20129e-07
3.96687e-05 -2.96027e-05 2.98812e-08
-1.20129e-07 2.98812e-08 -4.47588e-05
0.00233894 6.22777e-05 3.07256e-05
6.22777e-05 0.000874948 -3.48484e-06
3.07256e-05 -3.48484e-06 0.00088705
0.00245898 6.96935e-05 -1.08081e-06
6.96935e-05 0.000948287 -1.18909e-07
-1.08081e-06 -1.18909e-07 0.000957897
0.000696947 4.99004e-05 -1.26008e-06
4.99004e-05 -1.83256e-05 4.30474e-06
-1.26008e-06 4.30474e-06 -3.80543e-05
0.00262729 7.57208e-05 -4.55714e-05
7.57208e-05 0.00104513 3.14411e-06
-4.55714e-05 3.14411e-06 0.00105255
0.00144216 8.40026e-05 -4.5421e-06
8.40026e-05 7.52426e-05 -6.60291e-07
-4.5421e-06 -6.60291e-07 -3.79734e-05
0.00147503 4.09458e-05 -4.16017e-06
4.09458e-05 7.72581e-05 -9.87732e-07
-4.16017e-06 -9.87732e-07 -3.4809e-05
0.0015687 6.69625e-05 -1.17927e-06
6.69625e-05 8.79058e-05 -2.56626e-07
-1.17927e-06 -2.56626e-07 -2.57919e-05
0.0015821 2.21804e-05 -1.30309e-06
2.21804e-05 7.20182e-05 -3.08589e-07
-1.30309e-06 -3.08589e-07 -4.28775e-05
0.00153165 2.11121e-05 -4.26936e-06
2.11121e-05 8.0695e-05 -7.60238e-07
-4.26936e-06 -7.60238e-07 -3.54646e-05
0.00125414 6.15411e-06 -9.58666e-06
6.15411e-06 1.49664e-05 2.50354e-08
-9.58666e-06 2.50354e-08 -8.59934e-05
0.00152623 1.01441e-05 6.56496e-08
1.01441e-05 7.51209e-05 -5.3974e-08
6.56496e-08 -5.3974e-08 -4.12347e-05
0.00160307 8.70663e-06 -5.93422e-08
8.70663e-06 6.82977e-05 1.10045e-08
-5.93422e-08 1.10045e-08 -4.86438e-05
0.00160276 4.33304e-05 3.9883e-08
4.33304e-05 9.64474e-05 -1.09194e-07
3.9883e-08 -1.09194e-07 -1.80195e-05
0.00174535 2.21539e-05 6.01513e-08
2.21539e-05 0.000126373 5.90884e-08
6.01513e-08 5.90884e-08 1.69214e-05
0.00155885 8.45488e-05 -2.8611e-07
8.45488e-05 8.70438e-05 3.11732e-07
-2.8611e-07 3.11732e-07 -2.8744e-05
0.00161864 5.77674e-05 8.97199e-08
5.77674e-05 7.87919e-05 1.75222e-07
8.97199e-08 1.75222e-07 -2.90236e-05
0.00162185 1.14414e-07 1.73819e-06
1.14414e-07 7.93715e-05 -9.28333e-08
1.73819e-06 -9.28333e-08 -3.81918e-05
0.00175705 2.26121e-05 -6.92017e-08
2.26121e-05 0.000114812 3.11552e-07
-6.92017e-08 3.11552e-07 2.07582e-06
0.00161758 3.65218e-05 -7.9477e-07
3.65218e-05 6.43078e-05 -5.73386e-08
-7.9477e-07 -5.73386e-08 -4.33056e-05
0.00183697 2.49385e-05 -6.3028e-08
2.49385e-05 0.000153582 5.87115e-08
-6.3028e-08 5.87115e-08 4.92059e-05
0.00168807 7.87501e-05 -1.36606e-06
7.87501e-05 0.000118198 -4.79137e-07
-1.36606e-06 -4.79137e-07 7.14836e-06
0.00164278 4.95353e-05 -4.1404e-07
4.95353e-05 7.04729e-05 -8.72051e-09
-4.1404e-07 -8.72051e-09 -3.06869e-05
0.00151474 1.0953e-06 -6.17483e-06
1.0953e-06 7.44335e-05 7.25819e-07
-6.17483e-06 7.25819e-07 -4.1309e-05
0.00164413 -4.36259e-05 -5.75507e-06
-4.36259e-05 0.000176405 1.09883e-06
-5.75507e-06 1.09883e-06 6.87117e-05
0.00149028 -1.04451e-05 -2.16704e-06
-1.04451e-05 3.07281e-05 7.7056e-07
-2.16704e-06 7.7056e-07 -8.44933e-05
0.00182384 -5.90773e-05 -1.67792e-06
-5.90773e-05 0.000225677 1.762e-07
-1.67792e-06 1.762e-07 0.000115729
0.000814904 -3.34608e-05 -2.73414e-06
-3.34608e-05 4.54691e-05 1.92913e-06
-2.73414e-06 1.92913e-06 -3.10754e-05
0.00110061 -0.000114097 -1.75991e-06
-0.000114097 0.000176146 1.02628e-06
-1.75991e-06 1.02628e-06 7.65563e-05
0.000904968 -0.000118627 -7.02897e-07
-0.000118627 4.01722e-05 6.22148e-07
-7.02897e-07 6.22148e-07 -8.18547e-05
0.00176888 -0.000121894 -2.04457e-06
-0.000121894 0.000230141 -1.84267e-07
-2.04457e-06 -1.84267e-07 0.000111582
0.00151529 -7.81349e-05 -1.32311e-07
-7.81349e-05 3.22972e-05 -4.78467e-07
-1.32311e-07 -4.78467e-07 -7.64976e-05
0.00154667 -0.000130918 6.85924e-07
-0.000130918 0.00011712 5.09279e-07
6.85924e-07 5.09279e-07 -4.12679e-06
0.00101095 -0.000135806 -1.63276e-06
-0.000135806 -1.59244e-05 3.86817e-07
-1.63276e-06 3.86817e-07 -0.000155231
0.0014423 -0.000146106 3.17592e-06
-0.000146106 0.000103329 -1.60615e-06
3.17592e-06 -1.60615e-06 -1.5094e-05
0.000940006 -4.61771e-05 -1.32397e-06
-4.61771e-05 0.000101736 -1.58522e-07
-1.32397e-06 -1.58522e-07 1.40438e-05
0.00090588 -6.52725e-05 -7.08275e-07
-6.52725e-05 8.82337e-05 -3.04268e-07
-7.08275e-07 -3.04268e-07 -6.79238e-06
0.000752678 2.24459e-05 -1.23247e-06
2.24459e-05 -3.66862e-06 1.99411e-06
-1.23247e-06 1.99411e-06 -4.75979e-05
0.000738534 3.79351e-05 -9.25657e-08
3.79351e-05 -9.85046e-06 3.8715e-07
-9.25657e-08 3.8715e-07 -8.15152e-05
0.00165154 -5.89981e-07 -8.06371e-08
-5.89981e-07 0.000104191 -1.92196e-07
-8.06371e-08 -1.92196e-07 -1.291e-05
0.00178414 -3.42507e-05 -7.28121e-07
-3.42507e-05 0.000201456 3.22121e-07
-7.28121e-07 3.22121e-07 8.90449e-05
0.0016706 -1.28434e-05 -4.31902e-07
-1.28434e-05 9.92908e-05 1.99098e-07
-4.31902e-07 1.99098e-07 -1.27807e-05
0.00161668 -5.25324e-05 5.13181e-08
-5.25324e-05 8.40088e-05 -7.62537e-08
5.13181e-08 -7.62537e-08 -2.31166e-05
0.000968722 -8.41152e-05 -2.79983e-07
-8.41152e-05 0.000111976 1.706e-07
-2.79983e-07 1.706e-07 2.09101e-05
0.000706109 -0.000102148 5.59188e-07
-0.000102148 -2.88136e-05 -6.11838e-07
5.59188e-07 -6.11838e-07 -0.000139427
0.00114509 -0.000141734 1.02972e-07
-0.000141734 0.000141015 -1.03327e-07
1.02972e-07 -1.03327e-07 -7.95792e-07
0.00164657 -0.00011445 -5.2496e-07
-0.00011445 0.000114437 -2.41286e-07
-5.2496e-07 -2.41286e-07 -1.82226e-06
0.00164249 -7.58309e-05 3.65153e-07
-7.58309e-05 7.6988e-05 -4.12596e-07
3.65153e-07 -4.12596e-07 -2.84334e-05
0.00139614 -0.000161258 -3.77151e-07
-0.000161258 0.00016068 8.38121e-07
-3.77151e-07 8.38121e-07 1.74109e-05
0.00152607 -0.000133466 -4.66339e-07
-0.000133466 7.79425e-05 2.98043e-07
-4.66339e-07 2.98043e-07 -3.41577e-05
0.00168261 -0.000159707 1.49829e-06
-0.000159707 0.000208642 -1.1413e-06
1.49829e-06 -1.1413e-06 9.32373e-05
0.000997912 -0.000112716 5.53342e-08
-0.000112716 0.000139264 -1.32932e-08
5.53342e-08 -1.32932e-08 3.8442e-05
0.000958605 -0.000101881 1.53861e-07
-0.000101881 0.000123689 2.11359e-07
1.53861e-07 2.11359e-07 2.16477e-05
0.000914998 -4.09234e-05 -2.54929e-07
-4.09234e-05 9.455e-05 -7.36233e-08
-2.54929e-07 -7.36233e-08 7.88287e-06
0.000653317 2.63333e-05 -2.23898e-07
2.63333e-05 -6.11615e-05 1.84651e-08
-2.23898e-07 1.84651e-08 -0.000102783
0.000725248 2.54719e-05 9.11377e-08
2.54719e-05 -1.59363e-05 -3.44852e-07
9.11377e-08 -3.44852e-07 -8.36036e-05
0.00171117 -4.6078e-06 7.21169e-07
-4.6078e-06 9.74392e-05 -3.16556e-07
7.21169e-07 -3.16556e-07 -1.52468e-05
0.00166687 -2.30061e-05 2.33562e-07
-2.30061e-05 9.21254e-05 -3.49972e-08
2.33562e-07 -3.49972e-08 -1.71155e-05
0.00164664 -5.6518e-05 2.07192e-07
-5.6518e-05 7.33362e-05 2.36332e-07
2.07192e-07 2.36332e-07 -2.61632e-05
0.00150399 -9.87908e-05 -4.99958e-07
-9.87908e-05 6.15389e-06 -4.62544e-07
-4.99958e-07 -4.62544e-07 -0.000101254
0.000901474 -0.000109354 -1.74333e-07
-0.000109354 8.41418e-05 9.34225e-07
-1.74333e-07 9.34225e-07 -1.85031e-05
0.00181606 -0.000152976 -9.25565e-07
-0.000152976 0.000188696 -1.02525e-06
-9.25565e-07 -1.02525e-06 8.20061e-05
0.000217862 -7.91115e-05 2.61664e-07
-7.91115e-05 -0.000284462 -3.32347e-06
2.61664e-07 -3.32347e-06 -0.0004059
0.00125968 -0.000158662 3.606e-06
-0.000158662 0.00017394 -1.201e-06
3.606e-06 -1.201e-06 1.42774e-05
0.00172097 -0.000182298 2.05821e-06
-0.000182298 0.000281412 2.22249e-06
2.05821e-06 2.22249e-06 0.000137251
0.000547559 2.25329e-05 1.2395e-06
2.25329e-05 -0.000121519 -2.54066e-06
1.2395e-06 -2.54066e-06 -0.000161327
0.000923183 7.00683e-07 1.37136e-06
7.00683e-07 9.31201e-05 -7.29909e-07
1.37136e-06 -7.29909e-07 2.96857e-05
0.000948851 -2.97944e-05 -4.03475e-08
-2.97944e-05 0.00011121 -1.81484e-07
-4.03475e-08 -1.81484e-07 3.28889e-05
0.000942779 -0.000109942 -7.48203e-07
-0.000109942 0.000111146 1.94488e-06
-7.48203e-07 1.94488e-06 8.75921e-06
0.00103166 -6.73561e-05 3.3354e-07
-6.73561e-05 0.000160001 1.02531e-06
3.3354e-07 1.02531e-06 6.45415e-05
0.000893896 -0.000106747 -3.77131e-07
-0.000106747 8.41162e-05 1.56404e-06
-3.77131e-07 1.56404e-06 -1.97787e-05
0.000690038 -3.56891e-05 -1.88257e-06
-3.56891e-05 -3.67507e-05 -3.36316e-06
-1.88257e-06 -3.36316e-06 -4.47385e-05
0.000763045 -4.07498e-05 -1.46516e-06
-4.07498e-05 5.92137e-06 -1.48986e-06
-1.46516e-06 -1.48986e-06 -3.13745e-05
0.00155351 0.000109967 -1.0029e-06
0.000109967 0.000104144 1.43665e-07
-1.0029e-06 1.43665e-07 -2.00453e-05
0.00084186 -3.96207e-05 3.17759e-07
-3.96207e-05 5.27368e-05 -1.05226e-06
3.17759e-07 -1.05226e-06 -1.27191e-05
0.000844577 4.46515e-05 -5.10516e-07
4.46515e-05 5.5204e-05 -4.65456e-07
-5.10516e-07 -4.65456e-07 -3.24826e-05
0.000827696 4.06199e-05 5.43782e-07
4.06199e-05 5.92775e-05 2.83697e-08
5.43782e-07 2.83697e-08 -3.50674e-05
0.00127104 0.000139319 -1.39101e-06
0.000139319 8.41147e-05 -2.09264e-06
-1.39101e-06 -2.09264e-06 -4.16037e-05
0.00144117 0.000139391 6.99654e-07
0.000139391 6.80798e-05 -1.76027e-07
6.99654e-07 -1.76027e-07 -6.50859e-05
0.000903635 0.000111902 -2.18564e-07
0.000111902 9.60883e-05 -5.04108e-07
-2.18564e-07 -5.04108e-07 -2.52065e-05
0.00131701 0.000148554 -1.20027e-06
0.000148554 0.000250388 1.00928e-06
-1.20027e-06 1.00928e-06 0.000113043
0.0015331 0.000156777 -2.29794e-06
0.000156777 0.000270001 -2.41316e-06
-2.29794e-06 -2.41316e-06 0.000149519
0.000774321 -3.23037e-05 -2.73203e-08
-3.23037e-05 6.08988e-06 2.3296e-08
-2.73203e-08 2.3296e-08 -2.72342e-05
0.000816177 -2.44043e-05 -3.22421e-07
-2.44043e-05 3.27571e-05 2.28542e-07
-3.22421e-07 2.28542e-07 -2.31216e-05
0.000996972 0.000110067 -5.351e-07
0.000110067 0.0001524 -1.85253e-07
-5.351e-07 -1.85253e-07 4.25582e-05
0.000864999 -2.17097e-06 2.57828e-07
-2.17097e-06 7.23434e-05 8.64178e-09
2.57828e-07 8.64178e-09 -7.54071e-06
0.000933716 6.51261e-05 1.05889e-07
6.51261e-05 0.000122546 -7.37736e-07
1.05889e-07 -7.37736e-07 1.60989e-05
0.00157815 0.000108722 -6.63668e-07
0.000108722 8.45653e-05 -5.74357e-07
-6.63668e-07 -5.74357e-07 -3.79887e-05
0.0013813 0.00015211 9.77336e-07
0.00015211 0.000109216 3.29661e-07
9.77336e-07 3.29661e-07 -1.9987e-05
0.00146148 0.000149901 9.53147e-07
0.000149901 5.97337e-05 1.53796e-06
9.53147e-07 1.53796e-06 -6.16933e-05
0.000820989 0.000113717 7.82318e-07
0.000113717 5.67667e-05 1.92538e-06
7.82318e-07 1.92538e-06 -8.50711e-05
0.00128662 0.000158563 -8.3667e-07
0.000158563 0.000163295 -1.1104e-06
-8.3667e-07 -1.1104e-06 2.19737e-05
0.000812559 -5.05897e-06 7.68265e-07
-5.05897e-06 2.82745e-05 8.08706e-07
7.68265e-07 8.08706e-07 -2.15194e-05
0.00072834 -2.31872e-05 -5.10964e-07
-2.31872e-05 -8.22242e-06 1.35527e-06
-5.10964e-07 1.35527e-06 -7.87105e-05
0.000986033 0.000115621 -1.02266e-06
0.000115621 0.000151998 -1.42411e-06
-1.02266e-06 -1.42411e-06 2.49934e-05
0.000757699 2.43803e-05 -2.34508e-07
2.43803e-05 2.25147e-05 -2.10323e-07
-2.34508e-07 -2.10323e-07 -7.45846e-05
0.00105234 8.74451e-05 -5.07969e-07
8.74451e-05 0.000180643 -2.05107e-06
-5.07969e-07 -2.05107e-06 6.62514e-05
0.00158649 0.00010801 -2.39114e-06
0.00010801 3.90257e-05 -3.92116e-07
-2.39114e-06 -3.92116e-07 -6.2029e-05
0.00186922 0.000191518 -1.28009e-06
0.000191518 0.000349309 -8.78817e-08
-1.28009e-06 -8.78817e-08 0.000212177
0.000860216 0.000130193 -4.54943e-07
0.000130193 -0.000296021 -2.5605e-07
-4.54943e-07 -2.5605e-07 -0.000407426
0.00181277 0.000173162 3.51507e-06
0.000173162 0.000558665 3.35224e-06
3.51507e-06 3.35224e-06 0.000400364
0.000197997 0.000110604 -4.69649e-07
0.000110604 -0.000416064 -5.41676e-07
-4.69649e-07 -5.41676e-07 -0.000568037
0.000782577 -2.41329e-05 -1.50218e-06
-2.41329e-05 5.61392e-06 -1.57454e-06
-1.50218e-06 -1.57454e-06 -2.51525e-05
0.00075033 -1.3312e-05 1.52376e-07
-1.3312e-05 -6.63899e-06 5.02754e-07
1.52376e-07 5.02754e-07 -5.50542e-05
0.000744324 -3.81666e-05 -1.24105e-07
-3.81666e-05 -4.59503e-06 8.62234e-07
-1.24105e-07 8.62234e-07 -6.49018e-05
0.000700278 -3.82596e-05 -8.3883e-07
-3.82596e-05 -3.50016e-05 -5.26612e-07
-8.3883e-07 -5.26612e-07 -8.27713e-05
0.00082925 -6.00932e-06 2.0555e-07
-6.00932e-06 3.22939e-05 -3.03112e-08
2.0555e-07 -3.03112e-08 -1.42699e-05
0.00085679 -2.11448e-05 2.35972e-07
-2.11448e-05 5.68711e-05 -3.59648e-07
2.35972e-07 -3.59648e-07 -5.52255e-07
0.000960979 6.18913e-06 1.18383e-07
6.18913e-06 0.00011903 -5.0334e-07
1.18383e-07 -5.0334e-07 5.4494e-05
0.000764447 -3.75698e-05 2.60836e-07
-3.75698e-05 9.12589e-06 2.03008e-07
2.60836e-07 2.03008e-07 -4.93233e-05
0.000856043 -8.10713e-06 3.47575e-07
-8.10713e-06 4.153e-05 6.53863e-07
3.47575e-07 6.53863e-07 -3.1688e-06
0.000796319 -4.25445e-07 8.6922e-07
-4.25445e-07 4.80221e-07 1.57557e-06
8.6922e-07 1.57557e-06 -2.73489e-05
0.000800345 -1.17583e-05 -1.53069e-07
-1.17583e-05 3.77918e-06 8.33597e-09
-1.53069e-07 8.33597e-09 -2.36129e-05
0.00126377 -2.09659e-05 1.09525e-06
-2.09659e-05 0.000252503 1.94681e-06
1.09525e-06 1.94681e-06 0.000254423
0.000794761 -1.73845e-05 -8.22932e-07
-1.73845e-05 4.04435e-06 -1.77574e-06
-8.22932e-07 -1.77574e-06 -2.38291e-05
0.00127999 -2.64529e-05 -3.40451e-06
-2.64529e-05 0.000265701 -1.15967e-06
-3.40451e-06 -1.15967e-06 0.000266886
0.000967202 -2.19036e-05 1.53407e-05
-2.19036e-05 9.74946e-05 6.18526e-06
1.53407e-05 6.18526e-06 0.000112865
0.00129725 -3.14208e-05 -7.91999e-06
-3.14208e-05 0.000280465 -4.35452e-06
-7.91999e-06 -4.35452e-06 0.000280231
0.000914637 -2.77758e-05 6.22257e-06
-2.77758e-05 7.50516e-05 2.34908e-06
6.22257e-06 2.34908e-06 8.87339e-05
0.00198827 -5.02467e-05 -6.17166e-06
-5.02467e-05 0.000671626 -1.5039e-06
-6.17166e-06 -1.5039e-06 0.000688731
0.000700523 3.11077e-05 1.37785e-06
3.11077e-05 -3.95488e-05 -3.61228e-06
1.37785e-06 -3.61228e-06 -4.89899e-05
0.000703464 3.54546e-05 -1.35607e-07
3.54546e-05 -3.16027e-05 2.22294e-08
-1.35607e-07 2.22294e-08 -4.38075e-05
0.00227767 5.4953e-05 2.67246e-05
5.4953e-05 0.000834094 -3.66618e-06
2.67246e-05 -3.66618e-06 0.000848346
0.000711967 4.09447e-05 -2.30285e-06
4.09447e-05 -1.95486e-05 3.85772e-06
-2.30285e-06 3.85772e-06 -3.49503e-05
0.0023617 6.23311e-05 -1.28276e-06
6.23311e-05 0.000888191 -1.07272e-07
-1.28276e-06 -1.07272e-07 0.000900085
0.00249349 6.90987e-05 -3.93404e-05
6.90987e-05 0.00096732 3.22744e-06
-3.93404e-05 3.22744e-06 0.000976893
0.00155888 8.54773e-05 -2.14678e-06
8.54773e-05 8.6458e-05 5.97664e-07
-2.14678e-06 5.97664e-07 -2.94656e-05
0.00161829 4.17666e-05 -1.1203e-06
4.17666e-05 0.000104653 -4.68428e-07
-1.1203e-06 -4.68428e-07 -9.79931e-06
0.00154026 5.6667e-05 1.74961e-06
5.6667e-05 3.68942e-05 1.16208e-07
1.74961e-06 1.16208e-07 -7.03675e-05
0.00171353 2.28032e-05 3.83896e-07
2.28032e-05 0.000109082 -1.95951e-08
3.83896e-07 -1.95951e-08 5.39285e-07
0.00160469 3.03409e-06 -1.1862e-06
3.03409e-06 6.8794e-05 -3.29788e-07
-1.1862e-06 -3.29788e-07 -4.8417e-05
0.00152948 1.34465e-05 -4.2353e-06
1.34465e-05 7.68474e-05 1.04596e-07
-4.2353e-06 1.04596e-07 -3.95429e-05
0.00163532 3.53379e-06 1.76166e-08
3.53379e-06 8.62555e-05 -4.85868e-08
1.76166e-08 -4.85868e-08 -3.16816e-05
0.0017609 1.75403e-05 2.55531e-07
1.75403e-05 0.000118337 -4.17863e-08
2.55531e-07 -4.17863e-08 5.22252e-06
0.00163097 3.43963e-05 -4.80792e-07
3.43963e-05 7.17688e-05 -1.30948e-07
-4.80792e-07 -1.30948e-07 -3.66715e-05
0.00177483 2.57562e-05 5.26271e-07
2.57562e-05 0.000117369 -2.19659e-07
5.26271e-07 -2.19659e-07 1.35929e-05
0.0016215 7.81403e-05 -5.72689e-07
7.81403e-05 8.5287e-05 4.44769e-07
-5.72689e-07 4.44769e-07 -2.58812e-05
0.00164726 5.1921e-05 1.70855e-06
5.1921e-05 6.91414e-05 -7.65866e-08
1.70855e-06 -7.65866e-08 -3.10878e-05
0.00174083 7.09762e-06 8.30528e-08
7.09762e-06 0.000103964 5.33859e-08
8.30528e-08 5.33859e-08 -1.01737e-05
0.00174863 2.24469e-05 -4.24259e-07
2.24469e-05 9.31924e-05 3.35784e-07
-4.24259e-07 3.35784e-07 -1.27159e-05
0.00176172 3.69637e-05 -6.31202e-07
3.69637e-05 0.000102351 1.09081e-07
-6.31202e-07 1.09081e-07 3.65844e-06
0.00169434 7.54809e-05 -1.04501e-06
7.54809e-05 8.84411e-05 -1.61113e-07
-1.04501e-06 -1.61113e-07 -8.72624e-06
0.00164358 -4.70856e-08 -1.56948e-06
-4.70856e-08 9.91629e-05 2.13394e-07
-1.56948e-06 2.13394e-07 -1.79729e-05
0.00181133 -3.34307e-05 -2.60862e-06
-3.34307e-05 0.000215208 7.2637e-07
-2.60862e-06 7.2637e-07 0.000102431
0.00160697 -1.2471e-05 -1.31315e-06
-1.2471e-05 6.71052e-05 6.74123e-07
-1.31315e-06 6.74123e-07 -4.45271e-05
0.00160248 -5.17029e-05 3.7179e-08
-5.17029e-05 7.9708e-05 2.42483e-08
3.7179e-08 2.42483e-08 -2.78045e-05
0.00104819 -8.44703e-05 -1.49233e-06
-8.44703e-05 0.000154023 8.1095e-08
-1.49233e-06 8.1095e-08 6.23237e-05
0.000838884 -0.000108717 5.91269e-07
-0.000108717 4.25391e-05 2.13038e-07
5.91269e-07 2.13038e-07 -6.6744e-05
0.00118064 -0.000142479 -1.57388e-06
-0.000142479 0.00016256 2.37212e-06
-1.57388e-06 2.37212e-06 2.00597e-05
0.00176136 -0.000117884 -5.66619e-07
-0.000117884 0.000176339 -5.54845e-07
-5.66619e-07 -5.54845e-07 5.97488e-05
0.0016359 -7.6031e-05 -4.07285e-07
-7.6031e-05 7.07794e-05 -1.28089e-06
-4.07285e-07 -1.28089e-06 -3.4288e-05
0.00158838 -0.000135346 2.01621e-06
-0.000135346 0.000108829 1.00882e-06
2.01621e-06 1.00882e-06 -3.33826e-06
0.00136836 -0.000158273 -1.55613e-06
-0.000158273 0.000146156 -9.72338e-07
-1.55613e-06 -9.72338e-07 2.2195e-06
0.00134357 -0.000144606 -4.94641e-08
-0.000144606 3.58424e-05 -2.52601e-06
-4.94641e-08 -2.52601e-06 -7.50624e-05
0.00105816 -0.000116282 -8.11546e-08
-0.000116282 0.000170902 -1.06592e-06
-8.11546e-08 -1.06592e-06 6.98145e-05
0.0010092 -0.000105768 1.2906e-07
-0.000105768 0.000149707 -1.71166e-06
1.2906e-07 -1.71166e-06 4.73955e-05
0.000878304 -1.77344e-05 2.86406e-07
-1.77344e-05 7.38639e-05 2.05324e-07
2.86406e-07 2.05324e-07 -1.15964e-05
0.000536974 2.43164e-05 -1.4364e-06
2.43164e-05 -0.000124412 1.90077e-06
-1.4364e-06 1.90077e-06 -0.000166828
0.000739785 3.80173e-05 -2.86342e-08
3.80173e-05 -1.07371e-05 4.20944e-07
-2.86342e-08 4.20944e-07 -7.61535e-05
0.00171601 -5.39639e-06 -3.66216e-08
-5.39639e-06 0.000102349 -3.08641e-08
-3.66216e-08 -3.08641e-08 -1.01976e-05
0.00171667 -2.34858e-05 4.81462e-08
-2.34858e-05 0.000118351 4.15826e-08
4.81462e-08 4.15826e-08 9.63778e-06
0.00171296 -5.72756e-05 -6.92766e-07
-5.72756e-05 0.000108473 -2.13223e-07
-6.92766e-07 -2.13223e-07 7.83727e-06
0.00101117 -0.000115233 -4.20691e-08
-0.000115233 0.000141003 3.33136e-07
-4.20691e-08 3.33136e-07 3.77744e-05
0.000710734 -0.000106044 1.53411e-06
-0.000106044 -2.51521e-05 -1.41221e-06
1.53411e-06 -1.41221e-06 -0.00014665
0.00123333 -0.000155668 -4.22955e-07
-0.000155668 0.000164137 3.01933e-08
-4.22955e-07 3.01933e-08 2.52209e-06
0.00161958 -0.000100761 4.51413e-07
-0.000100761 6.61081e-05 -4.67545e-07
4.51413e-07 -4.67545e-07 -4.10767e-05
0.00161953 -0.000173886 2.86553e-07
-0.000173886 0.000228957 -1.41149e-06
2.86553e-07 -1.41149e-06 8.87022e-05
0.00168897 -0.000150939 -9.40975e-07
-0.000150939 0.000130109 -1.78067e-07
-9.40975e-07 -1.78067e-07 2.33555e-05
0.000546472 2.52189e-05 7.08707e-08
2.52189e-05 -0.000122309 -6.17891e-07
7.08707e-08 -6.17891e-07 -0.000161749
0.00100561 -0.000113584 -9.01092e-09
-0.000113584 0.000143816 1.87561e-07
-9.01092e-09 1.87561e-07 4.10502e-05
0.000901959 -0.000106637 -4.68643e-07
-0.000106637 8.93076e-05 3.4279e-07
-4.68643e-07 3.4279e-07 -1.40164e-05
0.00102092 -7.27955e-05 -3.3357e-07
-7.27955e-05 0.000157144 8.36531e-07
-3.3357e-07 8.36531e-07 5.93236e-05
0.000969982 -2.52295e-05 -5.8764e-09
-2.52295e-05 0.000123248 1.71396e-08
-5.8764e-09 1.71396e-08 4.49455e-05
0.000814108 1.50507e-05 -1.49269e-07
1.50507e-05 3.08289e-05 2.58947e-07
-1.49269e-07 2.58947e-07 -3.12914e-05
0.0016966 -1.40067e-05 1.21539e-07
-1.40067e-05 7.25591e-05 3.42197e-09
1.21539e-07 3.42197e-09 -3.60415e-05
0.00177695 -3.641e-05 -5.83657e-07
-3.641e-05 0.000115324 -2.29959e-07
-5.83657e-07 -2.29959e-07 1.77527e-05
0.00162 -7.28526e-05 2.99034e-07
-7.28526e-05 3.50812e-05 7.42588e-07
2.99034e-07 7.42588e-07 -6.17719e-05
0.00185216 -0.000126184 -8.28947e-07
-0.000126184 0.000140753 -8.46386e-07
-8.28947e-07 -8.46386e-07 4.19631e-05
0.00094979 -0.000113483 -9.14254e-07
-0.000113483 0.000111627 8.24507e-07
-9.14254e-07 8.24507e-07 3.54699e-06
0.00156066 -0.000168891 2.0861e-06
-0.000168891 8.38094e-05 8.23333e-07
2.0861e-06 8.23333e-07 -3.85027e-05
0.000694457 -0.000113075 -2.87009e-07
-0.000113075 -4.52566e-05 -3.66715e-06
-2.87009e-07 -3.66715e-06 -0.000193585
0.00168138 -0.000187597 1.55053e-06
-0.000187597 0.00036391 1.23662e-06
1.55053e-06 1.23662e-06 0.000189592
0.000567555 2.14306e-05 7.91095e-07
2.14306e-05 -0.000113457 -2.46619e-06
7.91095e-07 -2.46619e-06 -0.0001501
0.000927836 -8.88087e-07 1.15572e-06
-8.88087e-07 9.31629e-05 -9.47244e-07
1.15572e-06 -9.47244e-07 3.43915e-05
0.00100963 -3.74859e-05 1.42196e-07
-3.74859e-05 0.000145185 6.0634e-07
1.42196e-07 6.0634e-07 7.03026e-05
0.00093102 -1.87009e-05 3.96971e-07
-1.87009e-05 0.000103938 -9.44296e-07
3.96971e-07 -9.44296e-07 1.63351e-05
0.00105354 -0.000116865 -4.20939e-07
-0.000116865 0.00016686 1.77347e-06
-4.20939e-07 1.77347e-06 6.04596e-05
0.000944672 -0.000111107 -2.02016e-06
-0.000111107 0.0001106 2.76782e-06
-2.02016e-06 2.76782e-06 5.2422e-06
0.000774529 -3.12849e-05 -1.60901e-06
-3.12849e-05 6.3669e-06 -1.49051e-06
-1.60901e-06 -1.49051e-06 -2.68868e-05
0.000806062 -4.1237e-05 -1.93392e-07
-4.1237e-05 2.73571e-05 -8.27237e-07
-1.93392e-07 -8.27237e-07 -2.84991e-05
0.00154277 0.000110465 1.54427e-07
0.000110465 6.74387e-05 5.43806e-07
1.54427e-07 5.43806e-07 -5.58532e-05
0.000869535 -1.5433e-05 2.50804e-07
-1.5433e-05 7.19803e-05 -4.31965e-07
2.50804e-07 -4.31965e-07 -6.16264e-06
0.000926226 0.000106121 -2.19564e-08
0.000106121 0.000116043 -4.45262e-07
-2.19564e-08 -4.45262e-07 6.99273e-06
0.000821606 4.64131e-05 2.11786e-07
4.64131e-05 6.02424e-05 -9.00614e-08
2.11786e-07 -9.00614e-08 -4.4626e-05
0.00138392 0.000152128 -6.28943e-07
0.000152128 0.00011032 -2.32251e-06
-6.28943e-07 -2.32251e-06 -1.90603e-05
0.00154678 0.000151097 2.30235e-06
0.000151097 0.000101009 -1.72404e-07
2.30235e-06 -1.72404e-07 -1.77115e-05
0.000649314 0.000104342 4.10635e-07
0.000104342 -3.562e-05 8.36201e-07
4.10635e-07 8.36201e-07 -0.000176103
0.00140897 0.000165165 -9.76101e-07
0.000165165 0.00023064 2.33245e-08
-9.76101e-07 2.33245e-08 8.5264e-05
0.000807426 -2.00212e-05 -3.79845e-07
-2.00212e-05 2.57159e-05 1.16172e-07
-3.79845e-07 1.16172e-07 -2.4374e-05
0.000786185 -1.21688e-05 -3.85849e-08
-1.21688e-05 2.2543e-05 7.12349e-07
-3.85849e-08 7.12349e-07 -4.78415e-05
0.00104565 0.000118549 -2.01937e-07
0.000118549 0.000187512 -1.32238e-06
-2.01937e-07 -1.32238e-06 6.19892e-05
0.000804285 -5.51612e-06 -1.38686e-07
-5.51612e-06 4.26262e-05 4.99438e-08
-1.38686e-07 4.99438e-08 -5.05749e-05
0.000924618 7.61366e-05 -8.98303e-07
7.61366e-05 0.000114212 -9.5025e-07
-8.98303e-07 -9.5025e-07 1.72442e-06
0.00180985 0.000113135 -1.70842e-06
0.000113135 0.000158719 -5.05038e-07
-1.70842e-06 -5.05038e-07 5.80603e-05
0.00178267 0.000186447 1.51043e-06
0.000186447 0.000298257 4.24298e-07
1.51043e-06 4.24298e-07 0.000162003
0.00116532 0.000143533 -3.63111e-07
0.000143533 -0.000127226 7.56482e-07
-3.63111e-07 7.56482e-07 -0.000232441
0.00130911 0.000145881 1.25101e-06
0.000145881 0.000296378 1.72595e-06
1.25101e-06 1.72595e-06 0.000138123
0.000711061 0.000139705 -1.58906e-06
0.000139705 -0.00014899 -8.92871e-07
-1.58906e-06 -8.92871e-07 -0.000308251
0.000728481 -2.75382e-05 1.49754e-08
-2.75382e-05 -1.2529e-05 1.05893e-06
1.49754e-08 1.05893e-06 -7.51558e-05
0.000654973 2.61128e-05 -1.1607e-07
2.61128e-05 -3.5083e-05 1.69547e-07
-1.1607e-07 1.69547e-07 -0.000123521
0.00107058 0.000120558 3.44861e-08
0.000120558 0.000198825 -6.74193e-07
3.44861e-08 -6.74193e-07 5.94026e-05
0.000426901 4.0855e-05 1.06596e-07
4.0855e-05 -0.000150578 -2.98322e-08
1.06596e-07 -2.98322e-08 -0.000263452
0.00193842 0.000101369 -1.36014e-06
0.000101369 0.000151182 -4.52988e-07
-1.36014e-06 -4.52988e-07 7.06473e-05
0.00193552 0.000145063 1.42124e-06
0.000145063 0.000173713 1.14707e-06
1.42124e-06 1.14707e-06 8.45644e-05
0.00152799 0.000188174 -4.02681e-07
0.000188174 0.000140434 -2.7666e-06
-4.02681e-07 -2.7666e-06 -4.62902e-06
0.000222384 9.39434e-05 -6.47528e-07
9.39434e-05 -0.000307511 1.69215e-06
-6.47528e-07 1.69215e-06 -0.000490185
0.000822927 9.81186e-07 -7.90242e-07
9.81186e-07 3.59963e-05 -2.32017e-07
-7.90242e-07 -2.32017e-07 -1.41739e-05
0.000822889 -1.58663e-05 -1.85231e-07
-1.58663e-05 3.93162e-05 3.98685e-07
-1.85231e-07 3.98685e-07 -2.16767e-05
0.00092029 -3.02102e-05 -9.76195e-08
-3.02102e-05 9.63368e-05 2.03011e-07
-9.76195e-08 2.03011e-07 2.8924e-05
0.000823066 -2.78263e-05 -8.75619e-07
-2.78263e-05 2.73149e-05 -6.52456e-07
-8.75619e-07 -6.52456e-07 -1.81222e-05
0.000720001 -4.15251e-05 1.59192e-07
-4.15251e-05 -1.73487e-05 -4.06632e-07
1.59192e-07 -4.06632e-07 -7.51732e-05
0.000839979 -1.39646e-05 3.40414e-08
-1.39646e-05 3.32353e-05 3.42267e-08
3.40414e-08 3.42267e-08 -1.17304e-05
0.000870142 1.49999e-05 -1.67747e-07
1.49999e-05 7.47014e-05 -3.37826e-07
-1.67747e-07 -3.37826e-07 6.8193e-06
0.000782897 -1.9214e-05 1.74425e-07
-1.9214e-05 2.1198e-05 2.58024e-07
1.74425e-07 2.58024e-07 -3.87092e-05
0.000892968 -9.18806e-06 2.32268e-07
-9.18806e-06 8.53879e-05 -2.62869e-07
2.32268e-07 -2.62869e-07 1.49694e-05
0.000813503 -4.17681e-05 -1.99571e-07
-4.17681e-05 3.99339e-05 2.19562e-07
-1.99571e-07 2.19562e-07 -2.5877e-05
0.000739973 2.74645e-06 3.79619e-07
2.74645e-06 -6.91099e-06 3.40368e-07
3.79619e-07 3.40368e-07 -6.41681e-05
0.000848956 5.74293e-06 5.17938e-07
5.74293e-06 3.67194e-05 5.6772e-07
5.17938e-07 5.6772e-07 -8.39737e-06
0.000788393 4.77945e-06 6.94212e-07
4.77945e-06 -3.01488e-06 1.50217e-06
6.94212e-07 1.50217e-06 -3.18706e-05
0.000796396 -6.70867e-06 -2.33479e-07
-6.70867e-06 7.69227e-07 -1.57874e-10
-2.33479e-07 -1.57874e-10 -2.71704e-05
0.00127241 -1.38607e-05 9.04982e-07
-1.38607e-05 0.000254437 1.88244e-06
9.04982e-07 1.88244e-06 0.000256423
0.000793097 -1.63021e-05 -4.78443e-07
-1.63021e-05 4.89661e-08 -1.6867e-06
-4.78443e-07 -1.6867e-06 -2.74145e-05
0.00128699 -1.93974e-05 -2.7578e-06
-1.93974e-05 0.00026518 -1.21017e-06
-2.7578e-06 -1.21017e-06 0.000267031
0.000971288 -1.67635e-05 1.2451e-05
-1.67635e-05 9.55067e-05 6.33922e-06
1.2451e-05 6.33922e-06 0.000111415
0.00130121 -2.51654e-05 -6.23519e-06
-2.51654e-05 0.000276966 -4.33161e-06
-6.23519e-06 -4.33161e-06 0.000278195
0.000920388 -2.27894e-05 4.82425e-06
-2.27894e-05 7.19457e-05 2.37662e-06
4.82425e-06 2.37662e-06 8.72162e-05
0.000860019 -2.79949e-05 -2.18918e-06
-2.79949e-05 4.53956e-05 -1.60659e-06
-2.18918e-06 -1.60659e-06 5.90477e-05
0.000711284 2.69202e-05 9.45469e-07
2.69202e-05 -3.9778e-05 -3.49583e-06
9.45469e-07 -3.49583e-06 -4.65593e-05
0.000712612 3.15235e-05 -1.74328e-07
3.15235e-05 -3.31428e-05 2.31323e-08
-1.74328e-07 2.31323e-08 -4.26647e-05
0.00221844 4.74299e-05 2.25318e-05
4.74299e-05 0.000794779 -3.80014e-06
2.25318e-05 -3.80014e-06 0.000811085
0.000720223 3.61031e-05 -2.09055e-06
3.61031e-05 -2.26695e-05 3.71031e-06
-2.09055e-06 3.71031e-06 -3.4987e-05
0.00229669 5.51433e-05 -1.42696e-06
5.51433e-05 0.000845346 -1.01594e-07
-1.42696e-06 -1.01594e-07 0.000859372
0.00239243 6.2251e-05 -3.41958e-05
6.2251e-05 0.000905651 3.44352e-06
-3.41958e-05 3.44352e-06 0.000917367
0.00155852 7.76217e-05 1.02806e-06
7.76217e-05 5.41545e-05 1.62291e-06
1.02806e-06 1.62291e-06 -5.71132e-05
0.00164254 3.22505e-05 4.93067e-08
3.22505e-05 7.82454e-05 -3.66956e-08
4.93067e-08 -3.66956e-08 -3.10196e-05
0.00166073 5.43766e-05 3.50758e-06
5.43766e-05 7.21923e-05 -4.09872e-07
3.50758e-06 -4.09872e-07 -2.70722e-05
0.00171814 2.65329e-05 1.12578e-06
2.65329e-05 8.40354e-05 -5.36888e-07
1.12578e-06 -5.36888e-07 -1.91549e-05
0.00176339 1.34655e-05 6.6606e-07
1.34655e-05 0.00012139 -3.39366e-07
6.6606e-07 -3.39366e-07 7.8225e-06
0.00164917 2.30387e-06 -1.45081e-06
2.30387e-06 9.32526e-05 5.04121e-10
-1.45081e-06 5.04121e-10 -2.50237e-05
0.00175151 7.63527e-06 -8.9035e-08
7.63527e-06 0.00011183 1.2456e-09
-8.9035e-08 1.2456e-09 -2.03989e-06
0.00174532 1.8318e-05 2.87298e-07
1.8318e-05 9.22975e-05 -1.15459e-07
2.87298e-07 -1.15459e-07 -1.38284e-05
0.00175407 3.8412e-05 6.95003e-07
3.8412e-05 9.84589e-05 -2.76942e-08
6.95003e-07 -2.76942e-08 -5.91873e-07
0.00177333 7.2833e-05 2.959e-07
7.2833e-05 0.000124517 6.77847e-08
2.959e-07 6.77847e-08 2.78709e-05
0.00176537 4.40215e-06 -8.61587e-07
4.40215e-06 9.74781e-05 2.64484e-07
-8.61587e-07 2.64484e-07 -1.08997e-05
0.00187823 2.55373e-05 -1.34212e-07
2.55373e-05 0.00013997 2.03144e-07
-1.34212e-07 2.03144e-07 4.43793e-05
0.0017912 6.57853e-05 4.04714e-08
6.57853e-05 9.64564e-05 6.1829e-07
4.04714e-08 6.1829e-07 4.8377e-06
0.00171673 -5.93778e-06 -7.89665e-07
-5.93778e-06 0.00010505 1.05754e-07
-7.89665e-07 1.05754e-07 -7.35845e-06
0.00176706 -2.39094e-05 -5.32896e-07
-2.39094e-05 0.000144858 3.05574e-07
-5.32896e-07 3.05574e-07 3.66803e-05
0.00177123 -5.79999e-05 -4.60795e-07
-5.79999e-05 0.000139292 -4.14376e-07
-4.60795e-07 -4.14376e-07 3.7542e-05
0.0011084 -0.00012027 -2.95958e-07
-0.00012027 0.000191142 -3.0777e-09
-2.95958e-07 -3.0777e-09 8.74447e-05
0.00119464 -0.000132588 -5.83906e-08
-0.000132588 0.00022912 9.83799e-07
-5.83906e-08 9.83799e-07 0.000107628
0.00119672 -0.00015187 -2.46391e-06
-0.00015187 0.000149583 2.48852e-06
-2.46391e-06 2.48852e-06 -1.44299e-05
0.00174293 -0.000102895 3.5072e-07
-0.000102895 0.000129864 -4.86814e-07
3.5072e-07 -4.86814e-07 2.29271e-05
0.00147674 -0.000146152 -1.8337e-06
-0.000146152 2.71827e-05 5.39297e-07
-1.8337e-06 5.39297e-07 -7.94221e-05
0.00150122 -0.0001652 -2.81995e-06
-0.0001652 0.000167916 -3.73852e-06
-2.81995e-06 -3.73852e-06 3.15712e-05
0.00105909 -0.000116658 4.55357e-07
-0.000116658 0.000171565 -1.3681e-06
4.55357e-07 -1.3681e-06 6.84749e-05
0.000844484 -0.000102525 -1.33365e-06
-0.000102525 6.00906e-05 -1.71972e-06
-1.33365e-06 -1.71972e-06 -4.22873e-05
0.00099655 -8.64464e-05 5.29822e-07
-8.64464e-05 0.000148719 4.50459e-07
5.29822e-07 4.50459e-07 4.73199e-05
0.000537191 2.57052e-05 -9.55588e-07
2.57052e-05 -0.00012738 1.23086e-06
-9.55588e-07 1.23086e-06 -0.000166462
0.00099158 -1.36619e-05 2.7261e-08
-1.36619e-05 0.000133532 8.50692e-08
2.7261e-08 8.50692e-08 5.65436e-05
0.000699763 2.55603e-05 1.88519e-08
2.55603e-05 -3.43372e-05 1.16276e-06
1.88519e-08 1.16276e-06 -9.50734e-05
0.00176548 -1.18677e-05 -5.69408e-08
-1.18677e-05 0.000106551 4.15731e-08
-5.69408e-08 4.15731e-08 -2.16483e-06
0.00179093 -3.86063e-05 5.21228e-07
-3.86063e-05 0.000124872 -7.88704e-08
5.21228e-07 -7.88704e-08 2.76327e-05
0.00166629 -7.08317e-05 3.00248e-08
-7.08317e-05 6.05541e-05 -2.32245e-10
3.00248e-08 -2.32245e-10 -3.64793e-05
0.00101718 -0.000117016 -4.90624e-08
-0.000117016 0.000145532 8.0698e-07
-4.90624e-08 8.0698e-07 3.67997e-05
0.000761075 -0.000115724 -3.0244e-07
-0.000115724 -5.27523e-06 3.61118e-07
-3.0244e-07 3.61118e-07 -0.000149288
0.00167069 -0.000185499 -2.16189e-06
-0.000185499 0.000355421 1.61881e-06
-2.16189e-06 1.61881e-06 0.000181536
0.00186347 -0.000128541 4.37852e-07
-0.000128541 0.000146077 -1.14865e-08
4.37852e-07 -1.14865e-08 4.79777e-05
0.0015679 -0.000168317 1.01853e-06
-0.000168317 8.64397e-05 -1.61685e-06
1.01853e-06 -1.61685e-06 -3.63824e-05
0.000670957 2.12084e-05 1.96386e-07
2.12084e-05 -5.76592e-05 -5.8985e-07
1.96386e-07 -5.8985e-07 -9.3109e-05
0.000916687 9.09588e-06 -2.84435e-07
9.09588e-06 8.64529e-05 1.82895e-07
-2.84435e-07 1.82895e-07 2.83303e-05
0.000784361 -0.000101205 -9.77877e-07
-0.000101205 2.29532e-05 5.22355e-07
-9.77877e-07 5.22355e-07 -8.1375e-05
0.00100327 -0.000109911 1.16916e-06
-0.000109911 0.000140757 8.92985e-07
1.16916e-06 8.92985e-07 3.81197e-05
0.000886665 -2.45757e-05 6.53736e-08
-2.45757e-05 8.18804e-05 -3.5359e-07
6.53736e-08 -3.5359e-07 -7.48502e-06
0.000943183 -3.14739e-05 -6.08648e-07
-3.14739e-05 0.000109029 8.26468e-07
-6.08648e-07 8.26468e-07 3.41797e-05
0.00180667 -2.30096e-05 -1.26125e-06
-2.30096e-05 0.000108454 8.27715e-08
-1.26125e-06 8.27715e-08 1.0221e-05
0.0017182 -5.26634e-05 -3.17364e-07
-5.26634e-05 5.66454e-05 -4.27776e-08
-3.17364e-07 -4.27776e-08 -2.94338e-05
0.00162436 -8.99203e-05 -1.93966e-06
-8.99203e-05 -1.50762e-05 -1.31322e-07
-1.93966e-06 -1.31322e-07 -0.000102695
0.00191683 -0.000170338 2.7826e-07
-0.000170338 0.000151559 -6.83056e-07
2.7826e-07 -6.83056e-07 5.50429e-05
0.000582734 -9.51898e-05 -1.48819e-06
-9.51898e-05 -7.25774e-05 1.70645e-07
-1.48819e-06 1.70645e-07 -0.000190429
0.0016399 -0.000192989 -6.34866e-07
-0.000192989 0.000250049 5.32865e-06
-6.34866e-07 5.32865e-06 7.93339e-05
0.00171545 -0.000177668 1.23662e-06
-0.000177668 0.000477345 -3.53038e-06
1.23662e-06 -3.53038e-06 0.000306512
0.00079981 1.67586e-05 6.47598e-07
1.67586e-05 9.17608e-06 -1.74872e-06
6.47598e-07 -1.74872e-06 -2.29512e-05
0.00079961 -5.2859e-05 1.02013e-06
-5.2859e-05 2.98886e-05 -1.04647e-06
1.02013e-06 -1.04647e-06 -2.47052e-05
0.000695408 9.10592e-06 5.59609e-07
9.10592e-06 -3.03756e-05 -1.52982e-06
5.59609e-07 -1.52982e-06 -8.93457e-05
0.000889607 -3.12599e-05 9.74874e-07
-3.12599e-05 8.325e-05 -2.16202e-07
9.74874e-07 -2.16202e-07 9.31183e-06
0.000905233 9.39999e-06 1.21306e-07
9.39999e-06 8.88715e-05 -2.93366e-07
1.21306e-07 -2.93366e-07 8.80796e-06
0.000766957 -0.000101063 1.80956e-06
-0.000101063 4.0421e-05 1.91939e-06
1.80956e-06 1.91939e-06 -6.5977e-05
0.000759816 -9.88205e-05 -3.26993e-06
-9.88205e-05 -1.5816e-05 1.5326e-06
-3.26993e-06 1.5326e-06 -0.00010905
0.00189971 -0.000164454 -3.05446e-06
-0.000164454 0.000639924 2.64655e-06
-3.05446e-06 2.64655e-06 0.000533478
0.000816869 -3.94249e-05 -4.52171e-07
-3.94249e-05 3.0715e-05 -7.20491e-07
-4.52171e-07 -7.20491e-07 -1.94733e-05
0.000847876 -3.58534e-07 -2.15262e-07
-3.58534e-07 5.55321e-05 1.79507e-07
-2.15262e-07 1.79507e-07 -1.47846e-05
0.00203432 0.000117764 1.1562e-06
0.000117764 0.000279656 3.53781e-07
1.1562e-06 3.53781e-07 0.000179427
0.00085856 1.17692e-05 -1.72344e-07
1.17692e-05 7.44697e-05 -2.78521e-07
-1.72344e-07 -2.78521e-07 -2.03384e-05
0.00111793 0.000122341 -3.03313e-07
0.000122341 0.000229887 -1.95292e-06
-3.03313e-07 -1.95292e-06 0.000105628
0.000777374 6.40764e-05 -6.99714e-07
6.40764e-05 3.7826e-05 9.87271e-07
-6.99714e-07 9.87271e-07 -7.26785e-05
0.00165093 0.000179133 9.55515e-07
0.000179133 0.000223298 -6.64911e-07
9.55515e-07 -6.64911e-07 8.81462e-05
0.00151857 0.000158995 5.65639e-06
0.000158995 6.54037e-05 2.56649e-06
5.65639e-06 2.56649e-06 -3.3598e-05
0.000856035 0.000121398 1.0998e-06
0.000121398 6.16257e-05 9.13165e-07
1.0998e-06 9.13165e-07 -9.66625e-05
0.00115848 0.000165352 -3.52022e-06
0.000165352 8.17964e-05 -1.74112e-06
-3.52022e-06 -1.74112e-06 -8.38501e-05
0.000737323 -1.04502e-05 1.56576e-07
-1.04502e-05 -5.26275e-06 5.16444e-07
1.56576e-07 5.16444e-07 -7.04303e-05
0.000749381 3.82193e-05 -1.14678e-07
3.82193e-05 1.62631e-05 -1.01668e-06
-1.14678e-07 -1.01668e-06 -7.28127e-05
0.00101159 0.000117614 1.22876e-08
0.000117614 0.000171376 -1.10395e-06
1.22876e-08 -1.10395e-06 3.10487e-05
0.000781002 6.15696e-05 -5.57841e-07
6.15696e-05 3.77879e-05 -5.2714e-07
-5.57841e-07 -5.2714e-07 -7.60289e-05
0.0019484 9.68567e-05 2.14225e-07
9.68567e-05 0.000159289 -3.74275e-07
2.14225e-07 -3.74275e-07 7.95022e-05
0.00166053 0.000140164 2.0722e-06
0.000140164 4.54005e-05 -5.60678e-07
2.0722e-06 -5.60678e-07 -4.62659e-05
0.00190515 0.000203232 -3.10246e-06
0.000203232 0.000334406 -3.77198e-07
-3.10246e-06 -3.77198e-07 0.000191612
0.000684579 0.000123742 1.12169e-06
0.000123742 -7.91653e-05 5.47864e-07
1.12169e-06 5.47864e-07 -0.000260193
0.000893133 -1.75184e-05 1.14049e-07
-1.75184e-05 8.1977e-05 1.92033e-07
1.14049e-07 1.92033e-07 9.99742e-06
0.00169299 6.69359e-05 5.2053e-07
6.69359e-05 1.59289e-05 8.77292e-07
5.2053e-07 8.77292e-07 -5.73197e-05
0.00116741 0.000106052 -2.76471e-07
0.000106052 0.000258744 1.98529e-06
-2.76471e-07 1.98529e-06 0.00014749
0.0010412 0.000122881 2.48853e-07
0.000122881 0.000169826 7.7447e-07
2.48853e-07 7.7447e-07 2.23007e-05
0.00220729 0.000124578 -3.18016e-06
0.000124578 0.000235849 3.34169e-07
-3.18016e-06 3.34169e-07 0.000163745
0.00170626 0.000202717 2.0136e-06
0.000202717 7.39918e-05 -2.33644e-06
2.0136e-06 -2.33644e-06 -4.4599e-05
0.0017366 0.000192378 -1.41805e-06
0.000192378 0.000396094 2.62455e-06
-1.41805e-06 2.62455e-06 0.000205581
0.000903038 -9.32955e-06 -1.39788e-06
-9.32955e-06 8.1577e-05 -7.03218e-08
-1.39788e-06 -7.03218e-08 2.15039e-05
0.000899238 -2.33657e-05 -4.67873e-08
-2.33657e-05 8.50037e-05 -1.58673e-08
-4.67873e-08 -1.58673e-08 1.77007e-05
0.000908468 -1.98155e-05 -1.17249e-07
-1.98155e-05 9.57724e-05 4.52856e-07
-1.17249e-07 4.52856e-07 2.1742e-05
0.000820986 -2.66231e-05 -4.77866e-07
-2.66231e-05 2.39161e-05 -6.8113e-07
-4.77866e-07 -6.8113e-07 -2.16607e-05
0.000823511 -8.4776e-06 2.2133e-08
-8.4776e-06 4.27281e-05 3.23828e-07
2.2133e-08 3.23828e-07 -1.70773e-05
0.000769647 -4.41351e-06 -2.63127e-07
-4.41351e-06 2.21037e-05 -4.68522e-07
-2.63127e-07 -4.68522e-07 -4.699e-05
0.000833564 -1.77767e-05 -1.26046e-07
-1.77767e-05 3.0997e-05 1.96731e-08
-1.26046e-07 1.96731e-08 -1.5867e-05
0.000767459 -2.43954e-05 -5.36098e-07
-2.43954e-05 9.80272e-06 2.73575e-07
-5.36098e-07 2.73575e-07 -4.89197e-05
0.000867522 -3.37672e-05 3.48972e-07
-3.37672e-05 7.08922e-05 -3.86161e-07
3.48972e-07 -3.86161e-07 8.11519e-08
0.000877212 4.21409e-06 1.11581e-07
4.21409e-06 7.75818e-05 5.44777e-07
1.11581e-07 5.44777e-07 1.02685e-05
0.000842969 -1.89381e-05 4.93141e-07
-1.89381e-05 5.62676e-05 -8.52903e-07
4.93141e-07 -8.52903e-07 -1.72567e-05
0.000803293 -4.90172e-05 -3.95764e-09
-4.90172e-05 3.38672e-05 7.49068e-08
-3.95764e-09 7.49068e-08 -3.68735e-05
0.000909702 1.09972e-05 5.06288e-07
1.09972e-05 9.0319e-05 -3.52841e-08
5.06288e-07 -3.52841e-08 2.61634e-05
0.000833875 7.74931e-06 1.24289e-06
7.74931e-06 4.42585e-05 1.25253e-07
1.24289e-06 1.25253e-07 -1.65175e-05
0.000842681 4.51667e-06 5.5262e-07
4.51667e-06 3.38054e-05 5.34714e-07
5.5262e-07 5.34714e-07 -1.23402e-05
0.000783002 9.34968e-06 4.31709e-07
9.34968e-06 -4.56816e-06 1.45608e-06
4.31709e-07 1.45608e-06 -3.43755e-05
0.00079207 -1.52311e-06 -1.57933e-07
-1.52311e-06 -9.11616e-07 -9.60355e-10
-1.57933e-07 -9.60355e-10 -2.97936e-05
0.00128055 -6.76246e-06 6.9299e-07
-6.76246e-06 0.000257549 1.84769e-06
6.9299e-07 1.84769e-06 0.000259186
0.000800758 -1.27912e-05 -3.38636e-07
-1.27912e-05 3.36288e-06 -1.56937e-06
-3.38636e-07 -1.56937e-06 -2.46869e-05
0.00130066 -1.24927e-05 -2.04566e-06
-1.24927e-05 0.000270161 -1.24856e-06
-2.04566e-06 -1.24856e-06 0.000271957
0.000982442 -1.15509e-05 9.29908e-06
-1.15509e-05 9.89479e-05 6.4866e-06
9.29908e-06 6.4866e-06 0.000114927
0.00131549 -1.83228e-05 -4.67342e-06
-1.83228e-05 0.000280696 -4.33807e-06
-4.67342e-06 -4.33807e-06 0.000282389
0.000933557 -1.7396e-05 3.43933e-06
-1.7396e-05 7.44524e-05 2.43802e-06
3.43933e-06 2.43802e-06 9.04224e-05
0.00087201 -2.27624e-05 -1.59624e-06
-2.27624e-05 4.55275e-05 -1.58718e-06
-1.59624e-06 -1.58718e-06 6.08748e-05
0.000791568 1.19868e-05 3.39586e-07
1.19868e-05 2.39843e-06 -1.69298e-06
3.39586e-07 -1.69298e-06 -2.76549e-05
0.000725658 2.17431e-05 8.27514e-07
2.17431e-05 -3.77299e-05 -3.39028e-06
8.27514e-07 -3.39028e-06 -4.21109e-05
0.000726055 2.73361e-05 -1.41668e-07
2.73361e-05 -3.19597e-05 2.98251e-08
-1.41668e-07 2.98251e-08 -3.88225e-05
0.00215597 3.95195e-05 1.85425e-05
3.95195e-05 0.000754339 -3.89349e-06
1.85425e-05 -3.89349e-06 0.000772627
0.000729149 3.20654e-05 -1.66356e-06
3.20654e-05 -2.42945e-05 3.60311e-06
-1.66356e-06 3.60311e-06 -3.39209e-05
0.0022357 4.77136e-05 -1.67488e-06
4.77136e-05 0.000805073 -9.49253e-08
-1.67488e-06 -9.49253e-08 0.000821136
0.00231441 5.51409e-05 -2.94939e-05
5.51409e-05 0.000855892 3.64327e-06
-2.94939e-05 3.64327e-06 0.000869731
0.00184569 7.01312e-05 1.00638e-06
7.01312e-05 0.00015721 5.32925e-07
1.00638e-06 5.32925e-07 6.10691e-05
0.0017439 3.98117e-05 8.72834e-07
3.98117e-05 9.33609e-05 -2.35757e-07
8.72834e-07 -2.35757e-07 -6.04682e-06
0.00173313 1.7954e-05 1.02084e-06
1.7954e-05 8.66019e-05 -4.89926e-07
1.02084e-06 -4.89926e-07 -1.97244e-05
0.00176375 8.43521e-06 1.29283e-07
8.43521e-06 0.000120314 -1.22537e-07
1.29283e-07 -1.22537e-07 6.78796e-06
0.00177882 4.2243e-06 -3.34472e-07
4.2243e-06 0.000104906 8.72588e-08
-3.34472e-07 8.72588e-08 -2.69639e-06
0.00185319 2.45039e-05 3.29921e-07
2.45039e-05 0.000123852 -1.68854e-07
3.29921e-07 -1.68854e-07 2.78609e-05
0.00175784 6.73479e-05 4.71611e-08
6.73479e-05 7.51503e-05 -2.17002e-08
4.71611e-08 -2.17002e-08 -1.63702e-05
0.00178749 3.48128e-07 -1.14555e-06
3.48128e-07 9.73174e-05 5.46206e-07
-1.14555e-06 5.46206e-07 2.31561e-07
0.00196756 3.60452e-05 -3.9892e-07
3.60452e-05 0.000171531 -1.40475e-07
-3.9892e-07 -1.40475e-07 8.54753e-05
0.00160388 2.48769e-05 9.78903e-07
2.48769e-05 -3.97226e-05 4.15287e-07
9.78903e-07 4.15287e-07 -0.000107067
0.00183026 -9.90585e-06 -1.73462e-08
-9.90585e-06 0.000138641 1.8447e-08
-1.73462e-08 1.8447e-08 2.98001e-05
0.00180482 -4.10671e-05 1.33338e-06
-4.10671e-05 0.00013457 -8.45853e-08
1.33338e-06 -8.45853e-08 3.76445e-05
0.00173177 -7.02695e-05 -2.14669e-07
-7.02695e-05 9.56548e-05 -4.4328e-07
-2.14669e-07 -4.4328e-07 -1.64144e-06
0.00109258 -0.000121066 -5.31572e-07
-0.000121066 0.000183828 1.32714e-06
-5.31572e-07 1.32714e-06 7.43614e-05
0.000848927 -0.000119675 1.27795e-07
-0.000119675 4.57819e-05 3.787e-06
1.27795e-07 3.787e-06 -9.36212e-05
0.00161215 -0.000180787 -2.76492e-06
-0.000180787 0.000321465 2.9808e-06
-2.76492e-06 2.9808e-06 0.000149144
0.0018942 -0.000131021 4.35533e-06
-0.000131021 0.000161568 -4.5803e-08
4.35533e-06 -4.5803e-08 6.41447e-05
0.00157724 -0.000166923 -3.01109e-06
-0.000166923 9.10616e-05 -2.97362e-06
-3.01109e-06 -2.97362e-06 -3.22516e-05
0.000520289 -8.59927e-05 -1.52717e-06
-8.59927e-05 -0.000118483 3.53978e-07
-1.52717e-06 3.53978e-07 -0.000220761
0.00112084 -0.000115096 4.5627e-06
-0.000115096 0.000203319 -2.89056e-06
4.5627e-06 -2.89056e-06 0.000102309
0.000813686 1.00903e-05 -3.90221e-08
1.00903e-05 3.69798e-05 -2.5244e-07
-3.90221e-08 -2.5244e-07 -4.80341e-05
0.000778993 2.05695e-05 -7.38589e-07
2.05695e-05 4.30611e-07 1.16184e-06
-7.38589e-07 1.16184e-06 -3.38009e-05
0.000913582 2.42784e-05 -6.9423e-07
2.42784e-05 8.4666e-05 1.24651e-06
-6.9423e-07 1.24651e-06 2.66421e-05
0.000874322 -1.12231e-05 -6.11693e-07
-1.12231e-05 7.21673e-05 1.04621e-06
-6.11693e-07 1.04621e-06 -3.01253e-06
0.00183105 -2.30454e-05 -6.52953e-08
-2.30454e-05 0.000124934 1.1822e-07
-6.52953e-08 1.1822e-07 2.81677e-05
0.000794608 1.54796e-05 6.04132e-08
1.54796e-05 6.09167e-06 1.64493e-08
6.04132e-08 1.64493e-08 -2.59761e-05
0.000737629 -6.08037e-06 -3.25273e-07
-6.08037e-06 -9.78725e-06 8.80028e-08
-3.25273e-07 8.80028e-08 -6.05856e-05
0.00178733 -5.57696e-05 -3.73134e-09
-5.57696e-05 9.40329e-05 -1.54165e-07
-3.73134e-09 -1.54165e-07 7.20531e-06
0.00163095 -8.99558e-05 -7.8196e-07
-8.99558e-05 -1.3715e-05 4.28131e-07
-7.8196e-07 4.28131e-07 -0.000103611
0.000694865 -0.000100373 -7.90014e-08
-0.000100373 -7.66751e-06 2.10805e-06
-7.90014e-08 2.10805e-06 -0.000123839
0.00142789 -0.000160729 -1.07704e-06
-0.000160729 0.000325813 4.67838e-07
-1.07704e-06 4.67838e-07 0.00014999
0.00134043 -0.000174933 1.54767e-06
-0.000174933 9.02873e-05 8.71163e-07
1.54767e-06 8.71163e-07 -7.43136e-05
0.00196344 -0.000177635 1.21449e-06
-0.000177635 0.000178283 -4.88846e-07
1.21449e-06 -4.88846e-07 8.09694e-05
0.000879082 -1.87525e-05 1.10128e-06
-1.87525e-05 6.81998e-05 -5.49753e-07
1.10128e-06 -5.49753e-07 1.12856e-05
0.000872818 -1.83878e-05 -4.32884e-07
-1.83878e-05 7.56405e-05 4.72431e-07
-4.32884e-07 4.72431e-07 6.85273e-07
0.000892749 -0.000100036 5.72772e-07
-0.000100036 4.92853e-05 2.90391e-07
5.72772e-07 2.90391e-07 -4.70302e-05
0.00126333 -0.00012916 3.04936e-06
-0.00012916 0.000297982 -1.54855e-06
3.04936e-06 -1.54855e-06 0.000203206
0.000724765 -7.20313e-05 -3.76089e-07
-7.20313e-05 1.41516e-05 3.58534e-07
-3.76089e-07 3.58534e-07 -9.03269e-05
0.000899866 4.30503e-06 1.73135e-07
4.30503e-06 8.77119e-05 -3.00773e-07
1.73135e-07 -3.00773e-07 6.21916e-06
0.00187112 -2.82136e-05 -2.99408e-06
-2.82136e-05 0.000120328 -3.87048e-08
-2.99408e-06 -3.87048e-08 4.05012e-05
0.00192509 -5.00284e-05 3.00533e-06
-5.00284e-05 0.000140243 8.09634e-07
3.00533e-06 8.09634e-07 6.07784e-05
0.00182987 -0.00015526 -4.4005e-06
-0.00015526 3.23451e-05 -1.72182e-06
-4.4005e-06 -1.72182e-06 -4.78924e-05
0.00109443 -0.000175893 3.91361e-07
-0.000175893 -0.000198482 1.6439e-06
3.91361e-07 1.6439e-06 -0.000311813
0.00103755 -9.64968e-05 -2.76004e-06
-9.64968e-05 0.000156414 -1.5953e-06
-2.76004e-06 -1.5953e-06 3.81812e-05
0.00202927 -0.000213338 -2.16606e-06
-0.000213338 0.00059249 -4.6172e-07
-2.16606e-06 -4.6172e-07 0.000387431
0.000637235 4.08109e-05 -1.03177e-06
4.08109e-05 -6.12033e-05 -1.47289e-06
-1.03177e-06 -1.47289e-06 -0.000112252
0.000811507 -2.35057e-05 5.44849e-07
-2.35057e-05 2.85616e-05 -1.0454e-06
5.44849e-07 -1.0454e-06 -2.36708e-05
0.000998632 -3.14012e-05 7.94435e-07
-3.14012e-05 0.000146539 -4.74206e-07
7.94435e-07 -4.74206e-07 8.06637e-05
0.000700767 1.87855e-05 -5.74792e-07
1.87855e-05 -1.38927e-05 -5.90281e-07
-5.74792e-07 -5.90281e-07 -9.00802e-05
0.00104388 -1.15516e-05 2.84463e-07
-1.15516e-05 0.000169021 -5.39977e-08
2.84463e-07 -5.39977e-08 8.95641e-05
0.000510822 -1.86647e-05 4.97962e-07
-1.86647e-05 -0.00010165 3.52384e-07
4.97962e-07 3.52384e-07 -0.000196799
0.00119583 -7.85871e-05 5.85947e-06
-7.85871e-05 0.000290149 4.34186e-08
5.85947e-06 4.34186e-08 0.00017215
0.000770864 -0.000106772 -1.02505e-05
-0.000106772 1.24434e-05 2.86505e-06
-1.02505e-05 2.86505e-06 -7.38477e-05
0.000729394 7.42223e-06 -2.78446e-07
7.42223e-06 -7.27532e-06 -2.80144e-08
-2.78446e-07 -2.80144e-08 -7.48561e-05
0.0008395 4.7367e-05 -1.57449e-06
4.7367e-05 6.50072e-05 -1.80642e-06
-1.57449e-06 -1.80642e-06 -2.45874e-05
0.00194391 9.27543e-05 -8.04932e-07
9.27543e-05 0.000158248 -4.13419e-07
-8.04932e-07 -4.13419e-07 7.92342e-05
0.00139581 0.000135333 1.90909e-06
0.000135333 -7.77869e-05 7.28478e-07
1.90909e-06 7.28478e-07 -0.000172007
0.00115353 6.63281e-05 -2.06982e-06
6.63281e-05 0.000233449 -3.55286e-07
-2.06982e-06 -3.55286e-07 0.00012012
0.000967389 0.000115312 -5.57907e-07
0.000115312 0.000150995 -1.99486e-06
-5.57907e-07 -1.99486e-06 1.016e-05
0.00231266 0.000219432 7.36844e-07
0.000219432 0.000544647 7.55776e-07
7.36844e-07 7.55776e-07 0.000403722
0.00121064 0.00015667 -8.18919e-07
0.00015667 0.0001845 -1.20317e-06
-8.18919e-07 -1.20317e-06 4.09692e-06
0.000870265 7.79162e-06 3.80046e-07
7.79162e-06 7.3368e-05 -5.68395e-07
3.80046e-07 -5.68395e-07 -9.78536e-07
0.00177906 6.48488e-05 -3.77918e-07
6.48488e-05 5.48749e-05 1.89204e-07
-3.77918e-07 1.89204e-07 -1.78966e-05
0.000939978 7.72866e-05 7.41564e-08
7.72866e-05 0.000133191 1.04932e-06
7.41564e-08 1.04932e-06 2.62857e-05
0.000844035 0.000110973 2.5287e-07
0.000110973 6.59175e-05 -1.73698e-07
2.5287e-07 -1.73698e-07 -8.36421e-05
0.00193415 0.000118583 2.03128e-06
0.000118583 9.46484e-05 -1.32301e-08
2.03128e-06 -1.32301e-08 2.22958e-05
0.00184382 0.000205667 3.12403e-07
0.000205667 0.000140699 -1.15934e-06
3.12403e-07 -1.15934e-06 2.37243e-05
0.00183113 0.000199557 8.39836e-07
0.000199557 0.000454302 1.28413e-06
8.39836e-07 1.28413e-06 0.000263422
0.00102104 2.50337e-05 -9.20337e-07
2.50337e-05 0.00016556 8.17932e-07
-9.20337e-07 8.17932e-07 7.52272e-05
0.00194496 7.60045e-05 -8.96849e-06
7.60045e-05 0.000106518 -1.2254e-06
-8.96849e-06 -1.2254e-06 5.64693e-05
0.00177739 0.000139941 -2.6198e-06
0.000139941 0.000562641 2.61388e-07
-2.6198e-06 2.61388e-07 0.000439365
0.0019397 0.000186762 -3.19264e-06
0.000186762 0.000610175 9.26583e-07
-3.19264e-06 9.26583e-07 0.000438118
0.00231704 0.000220406 2.49397e-07
0.000220406 0.000262297 -3.35459e-07
2.49397e-07 -3.35459e-07 0.000185589
0.00150882 0.000198754 -3.00568e-06
0.000198754 0.000156599 1.01769e-06
-3.00568e-06 1.01769e-06 -1.20239e-05
0.000467281 8.7993e-05 1.23761e-05
8.7993e-05 -0.000352047 1.60645e-06
1.23761e-05 1.60645e-06 -0.000493182
0.000883139 -9.29084e-06 5.98833e-10
-9.29084e-06 7.6662e-05 -3.27024e-07
5.98833e-10 -3.27024e-07 9.27656e-06
0.000901265 -1.61161e-05 -2.49596e-08
-1.61161e-05 9.25537e-05 1.20549e-07
-2.49596e-08 1.20549e-07 1.81856e-05
0.000906464 -8.35241e-06 1.953e-08
-8.35241e-06 9.0009e-05 -7.49566e-07
1.953e-08 -7.49566e-07 1.16176e-05
0.000825777 -3.89876e-05 -2.63859e-07
-3.89876e-05 2.87237e-05 -6.74279e-07
-2.63859e-07 -6.74279e-07 -1.94584e-05
0.000786496 -5.13663e-05 -8.69854e-07
-5.13663e-05 2.04816e-05 2.37398e-07
-8.69854e-07 2.37398e-07 -3.85124e-05
0.000917891 5.08272e-05 -8.43965e-07
5.08272e-05 0.000103405 4.68809e-07
-8.43965e-07 4.68809e-07 3.44608e-05
0.000844261 -3.6108e-05 1.50452e-07
-3.6108e-05 5.88165e-05 -7.28476e-08
1.50452e-07 -7.28476e-08 -1.31317e-05
0.00082474 -2.35323e-05 -1.17311e-07
-2.35323e-05 2.88137e-05 4.28074e-08
-1.17311e-07 4.28074e-08 -2.03843e-05
0.000788407 5.33914e-07 3.98737e-08
5.33914e-07 1.38623e-05 -5.60013e-08
3.98737e-08 -5.60013e-08 -4.31157e-05
0.000851628 -2.20748e-05 4.58747e-07
-2.20748e-05 6.10809e-05 -4.50196e-07
4.58747e-07 -4.50196e-07 -1.30324e-05
0.000905514 -2.25431e-05 -8.79498e-08
-2.25431e-05 8.60971e-05 -6.33235e-09
-8.79498e-08 -6.33235e-09 2.29585e-05
0.000897018 -3.77367e-05 2.78911e-07
-3.77367e-05 8.41835e-05 -4.38943e-08
2.78911e-07 -4.38943e-08 1.40791e-05
0.000862146 -2.75466e-05 -1.81848e-07
-2.75466e-05 6.36221e-05 -7.246e-07
-1.81848e-07 -7.246e-07 -8.85976e-06
0.000853209 -1.01922e-05 5.13873e-07
-1.01922e-05 5.46516e-05 -6.82327e-07
5.13873e-07 -6.82327e-07 -9.77474e-06
0.000918645 -5.13871e-06 7.99882e-07
-5.13871e-06 8.67292e-05 -2.89059e-07
7.99882e-07 -2.89059e-07 2.50865e-05
0.000837596 1.91321e-05 1.64242e-07
1.91321e-05 4.20917e-05 1.73971e-07
1.64242e-07 1.73971e-07 -2.08795e-05
0.000735243 -4.51237e-06 1.81053e-07
-4.51237e-06 -2.47576e-05 9.48226e-07
1.81053e-07 9.48226e-07 -7.27885e-05
0.000942842 -4.33229e-06 3.22685e-07
-4.33229e-06 0.00011026 -3.37588e-07
3.22685e-07 -3.37588e-07 4.54498e-05
0.000713927 6.93805e-06 -4.80893e-07
6.93805e-06 -3.22161e-05 9.16569e-07
-4.80893e-07 9.16569e-07 -8.17234e-05
0.00078572 1.23054e-05 2.02677e-07
1.23054e-05 -2.2348e-06 1.41074e-06
2.02677e-07 1.41074e-06 -3.2499e-05
0.000785435 2.41212e-06 -1.82091e-07
2.41212e-06 -3.21981e-06 2.68719e-10
-1.82091e-07 2.68719e-10 -3.29947e-05
0.000733643 6.80991e-07 2.54016e-07
6.80991e-07 -4.20767e-05 3.1059e-06
2.54016e-07 3.1059e-06 -4.40569e-05
0.000797063 -8.04567e-06 -2.61788e-08
-8.04567e-06 1.92339e-06 -1.46764e-06
-2.61788e-08 -1.46764e-06 -2.69896e-05
0.00102433 -5.20578e-06 -1.31282e-06
-5.20578e-06 0.000117391 -1.30392e-06
-1.31282e-06 -1.30392e-06 0.000117349
0.00209295 -8.06033e-06 5.73554e-06
-8.06033e-06 0.000705673 4.09139e-06
5.73554e-06 4.09139e-06 0.000727793
0.00132835 -1.15861e-05 -2.86468e-06
-1.15861e-05 0.000285541 -4.35744e-06
-2.86468e-06 -4.35744e-06 0.000287104
0.000944305 -1.18305e-05 1.86295e-06
-1.18305e-05 7.73067e-05 2.5036e-06
1.86295e-06 2.5036e-06 9.34834e-05
0.00089088 -1.70818e-05 -1.10374e-06
-1.70818e-05 5.07973e-05 -1.58168e-06
-1.10374e-06 -1.58168e-06 6.69769e-05
0.000795645 8.35568e-06 2.49653e-07
8.35568e-06 3.80028e-06 -1.64719e-06
2.49653e-07 -1.64719e-06 -2.50381e-05
0.000796098 1.11173e-05 -2.76043e-08
1.11173e-05 4.63704e-06 8.18202e-09
-2.76043e-08 8.18202e-09 -2.54459e-05
0.000735534 1.62638e-05 4.61e-07
1.62638e-05 -3.67126e-05 -3.34418e-06
4.61e-07 -3.34418e-06 -3.93929e-05
0.00102838 2.46029e-05 -4.78882e-07
2.46029e-05 0.000128058 2.99551e-08
-4.78882e-07 2.99551e-08 0.00012508
0.00211215 3.13057e-05 1.53182e-05
3.13057e-05 0.000724931 -4.00468e-06
1.53182e-05 -4.00468e-06 0.000744891
0.000739011 2.77546e-05 -1.14439e-06
2.77546e-05 -2.50967e-05 3.49633e-06
-1.14439e-06 3.49633e-06 -3.20411e-05
0.00217431 3.99898e-05 -1.75311e-06
3.99898e-05 0.000765159 -8.32566e-08
-1.75311e-06 -8.32566e-08 0.000783172
0.00225526 4.791e-05 -2.51235e-05
4.791e-05 0.000816612 3.80885e-06
-2.51235e-05 3.80885e-06 0.00083244
0.00172613 6.89748e-05 -9.18059e-07
6.89748e-05 5.48639e-05 -3.53895e-07
-9.18059e-07 -3.53895e-07 -3.65672e-05
0.00182155 2.41679e-05 6.58091e-07
2.41679e-05 0.000104164 -3.94181e-07
6.58091e-07 -3.94181e-07 7.75937e-06
0.00180356 4.85818e-07 2.56e-07
4.85818e-07 0.000118166 -1.86012e-07
2.56e-07 -1.86012e-07 1.13279e-05
0.00177468 2.51311e-06 3.15275e-07
2.51311e-06 8.76161e-05 1.12932e-07
3.15275e-07 1.12932e-07 -9.68152e-06
0.00184446 3.51074e-05 -7.9032e-07
3.51074e-05 0.000110006 1.80003e-07
-7.9032e-07 1.80003e-07 2.36057e-05
0.00174601 2.19514e-05 2.22255e-06
2.19514e-05 4.31088e-05 1.38543e-07
2.22255e-06 1.38543e-07 -2.6788e-05
0.0016608 5.02768e-06 -1.17004e-06
5.02768e-06 1.04408e-05 -7.08404e-07
-1.17004e-06 -7.08404e-07 -6.6088e-05
0.00355306 -1.89984e-05 9.79661e-06
-1.89984e-05 0.000813945 2.77738e-06
9.79661e-06 2.77738e-06 0.000766416
0.00164687 2.82995e-05 -4.31126e-06
2.82995e-05 -4.24805e-05 4.27636e-07
-4.31126e-06 4.27636e-07 -8.85798e-05
0.000823172 2.65318e-05 7.99712e-08
2.65318e-05 3.68217e-05 -8.72662e-07
7.99712e-08 -8.72662e-07 -1.03868e-05
0.00185955 -2.31974e-05 1.49137e-06
-2.31974e-05 0.000143105 1.08745e-08
1.49137e-06 1.08745e-08 4.78028e-05
0.00183172 -5.70121e-05 -3.57898e-07
-5.70121e-05 0.000119314 -3.81596e-07
-3.57898e-07 -3.81596e-07 3.18442e-05
0.00169208 -8.95413e-05 2.66092e-06
-8.95413e-05 1.81797e-05 8.82023e-08
2.66092e-06 8.82023e-08 -7.33878e-05
0.000830668 -0.00010677 1.64356e-06
-0.00010677 7.00555e-05 2.47499e-06
1.64356e-06 2.47499e-06 -4.45827e-05
0.0011704 -0.000145015 7.11587e-07
-0.000145015 0.00019157 4.42468e-06
7.11587e-07 4.42468e-06 8.58158e-06
0.00111122 -0.000160766 8.98405e-07
-0.000160766 -3.2077e-05 -2.11519e-06
8.98405e-07 -2.11519e-06 -0.000192033
0.00205039 -0.000187744 1.05707e-06
-0.000187744 0.000225478 -1.9005e-06
1.05707e-06 -1.9005e-06 0.000127076
0.00104765 -0.000108486 6.00192e-06
-0.000108486 0.000128263 -3.13085e-06
6.00192e-06 -3.13085e-06 2.78168e-05
0.000555283 -9.13292e-05 -4.94258e-07
-9.13292e-05 -8.14453e-05 -8.11648e-06
-4.94258e-07 -8.11648e-06 -0.000164371
0.000642759 -6.56455e-05 -2.6041e-07
-6.56455e-05 -3.00189e-05 3.91461e-08
-2.6041e-07 3.91461e-08 -0.000135029
0.00079119 1.45009e-05 -7.55209e-07
1.45009e-05 4.07042e-06 1.80176e-06
-7.55209e-07 1.80176e-06 -2.79644e-05
0.000906259 -5.64619e-06 -4.14085e-08
-5.64619e-06 9.27669e-05 -4.20491e-07
-4.14085e-08 -4.20491e-07 9.7691e-06
0.00105681 -4.48418e-05 -4.26374e-07
-4.48418e-05 0.000167399 4.7817e-07
-4.26374e-07 4.7817e-07 0.000110028
0.000858776 -1.09315e-05 -7.67742e-07
-1.09315e-05 6.79883e-05 1.1555e-06
-7.67742e-07 1.1555e-06 -6.898e-06
0.000670868 -2.81023e-06 -7.56164e-08
-2.81023e-06 -4.90404e-05 9.70576e-07
-7.56164e-08 9.70576e-07 -9.81929e-05
0.00185171 -2.94444e-05 -3.64168e-07
-2.94444e-05 0.000109396 -1.09148e-07
-3.64168e-07 -1.09148e-07 3.0784e-05
0.000728294 1.69842e-05 1.86453e-07
1.69842e-05 -1.12071e-05 -5.48202e-07
1.86453e-07 -5.48202e-07 -6.21004e-05
0.000817197 -3.62808e-05 -4.2867e-07
-3.62808e-05 3.55652e-05 4.16029e-08
-4.2867e-07 4.16029e-08 -1.95492e-05
0.000855557 -1.09123e-05 -6.45039e-07
-1.09123e-05 7.04526e-05 5.07369e-07
-6.45039e-07 5.07369e-07 2.35203e-06
0.00174491 -5.30314e-05 7.18265e-07
-5.30314e-05 3.63533e-05 -3.43895e-07
7.18265e-07 -3.43895e-07 -4.24756e-05
0.00181437 -0.000153672 -9.0888e-07
-0.000153672 4.14617e-05 7.07202e-08
-9.0888e-07 7.07202e-08 -3.98101e-05
0.000890555 -9.91038e-05 -8.02585e-09
-9.91038e-05 6.58148e-05 1.98058e-07
-8.02585e-09 1.98058e-07 -4.70257e-05
0.00119906 -0.000164888 4.88429e-07
-0.000164888 0.00017649 -6.23937e-07
4.88429e-07 -6.23937e-07 -3.23048e-05
0.00159816 -0.000200249 -5.58464e-07
-0.000200249 6.73244e-05 3.85742e-07
-5.58464e-07 3.85742e-07 -5.04374e-05
0.000803556 3.0519e-06 -1.63692e-07
3.0519e-06 4.23854e-05 8.72052e-09
-1.63692e-07 8.72052e-09 -3.33151e-05
0.000955795 -2.84131e-05 -2.9843e-08
-2.84131e-05 0.000125189 6.65332e-08
-2.9843e-08 6.65332e-08 4.31184e-05
0.000689517 -0.000104321 -5.28828e-06
-0.000104321 -2.33711e-05 1.19895e-06
-5.28828e-06 1.19895e-06 -0.000116146
0.00103867 -6.34464e-05 8.65722e-07
-6.34464e-05 0.000202205 -5.39509e-07
8.65722e-07 -5.39509e-07 8.88849e-05
0.000765131 -3.91867e-05 -3.42421e-07
-3.91867e-05 3.47626e-05 8.95419e-07
-3.42421e-07 8.95419e-07 -6.09558e-05
0.00187098 -6.81503e-05 -3.41186e-06
-6.81503e-05 6.71028e-05 3.436e-07
-3.41186e-06 3.436e-07 -4.59068e-07
0.00229541 -9.08619e-05 9.5246e-08
-9.08619e-05 0.00027491 1.06575e-06
9.5246e-08 1.06575e-06 0.000210301
0.00195613 -0.000223044 6.46778e-07
-0.000223044 0.000128204 -1.36501e-06
6.46778e-07 -1.36501e-06 3.13201e-05
0.00182632 -0.000214745 -5.33467e-06
-0.000214745 0.000375776 3.79136e-07
-5.33467e-06 3.79136e-07 0.000212826
0.000977578 -0.000106718 -1.51768e-06
-0.000106718 0.000151789 -2.60086e-06
-1.51768e-06 -2.60086e-06 -4.85069e-08
0.000664876 1.68502e-05 2.65522e-07
1.68502e-05 -3.49696e-05 -1.04234e-06
2.65522e-07 -1.04234e-06 -0.000102077
0.000737951 5.34649e-05 -3.2554e-07
5.34649e-05 7.16448e-06 -8.68208e-07
-3.2554e-07 -8.68208e-07 -6.4552e-05
0.00102931 1.77207e-05 8.09993e-07
1.77207e-05 0.000162408 3.56467e-07
8.09993e-07 3.56467e-07 8.76224e-05
0.000795883 -5.44408e-05 1.35121e-06
-5.44408e-05 4.36264e-05 -1.35179e-07
1.35121e-06 -1.35179e-07 -3.93135e-05
0.000958507 1.69598e-06 6.28534e-07
1.69598e-06 0.000123253 5.56855e-07
6.28534e-07 5.56855e-07 3.93508e-05
0.000801067 -9.93954e-06 1.17889e-06
-9.93954e-06 6.29046e-05 -1.28673e-06
1.17889e-06 -1.28673e-06 -4.09326e-05
0.000682125 -7.85366e-05 8.59874e-06
-7.85366e-05 3.34374e-05 5.01396e-07
8.59874e-06 5.01396e-07 -0.000112514
0.000857171 3.67e-05 2.71314e-08
3.67e-05 7.0675e-05 -1.52216e-06
2.71314e-08 -1.52216e-06 -6.55907e-06
0.000705229 4.8737e-05 9.15527e-08
4.8737e-05 4.25255e-06 -1.05324e-08
9.15527e-08 -1.05324e-08 -9.8355e-05
0.00186852 6.21913e-05 -3.64177e-08
6.21913e-05 9.6251e-05 -5.00315e-07
-3.64177e-08 -5.00315e-07 2.39562e-05
0.00167546 0.00011234 3.04599e-06
0.00011234 -3.7986e-05 -6.17536e-07
3.04599e-06 -6.17536e-07 -0.00011022
0.00189954 0.00020543 1.04821e-06
0.00020543 0.000165348 -6.7294e-07
1.04821e-06 -6.7294e-07 5.03798e-05
0.000636222 9.88776e-05 1.247e-06
9.88776e-05 -4.34833e-05 -1.79954e-07
1.247e-06 -1.79954e-07 -0.000194846
0.00186615 0.000203828 1.44273e-06
0.000203828 0.000480195 1.0821e-06
1.44273e-06 1.0821e-06 0.000290073
0.00101419 1.62263e-05 -2.21186e-07
1.62263e-05 0.000160414 1.12042e-07
-2.21186e-07 1.12042e-07 7.36624e-05
0.00187244 7.4976e-05 -1.5276e-06
7.4976e-05 6.18052e-05 -3.85875e-07
-1.5276e-06 -3.85875e-07 1.74723e-05
0.00124963 0.000113914 -9.17838e-07
0.000113914 0.000287797 2.76722e-07
-9.17838e-07 2.76722e-07 0.000167727
0.00138855 0.000153025 -5.76178e-07
0.000153025 0.000335672 6.98997e-07
-5.76178e-07 6.98997e-07 0.000163512
0.00208484 0.000203611 1.5075e-06
0.000203611 0.000137654 -8.06217e-07
1.5075e-06 -8.06217e-07 6.27283e-05
0.00142782 0.000196407 -1.83154e-06
0.000196407 0.000119524 1.18821e-06
-1.83154e-06 1.18821e-06 -5.30986e-05
0.00154212 9.53172e-05 1.00813e-05
9.53172e-05 -1.55483e-05 1.33476e-06
1.00813e-05 1.33476e-06 -0.000175333
0.00107527 4.0805e-05 -1.29975e-06
4.0805e-05 0.000191354 -1.05874e-06
-1.29975e-06 -1.05874e-06 9.38456e-05
0.00275811 0.000139965 -1.22037e-05
0.000139965 0.000516994 -8.12807e-06
-1.22037e-05 -8.12807e-06 0.000512154
0.00130787 0.000141199 -4.36227e-06
0.000141199 0.000331742 -1.13983e-06
-4.36227e-06 -1.13983e-06 0.000200031
0.00128954 0.000159059 -5.02756e-06
0.000159059 0.000245355 -9.64777e-07
-5.02756e-06 -9.64777e-07 4.81794e-05
0.000130033 0.000190018 -6.925e-06
0.000190018 -0.000696758 -2.34128e-06
-6.925e-06 -2.34128e-06 -0.000826273
0.00702439 -6.37275e-06 -5.85529e-05
-6.37275e-06 0.0022839 -2.09429e-05
-5.85529e-05 -2.09429e-05 0.00147547
0.003861 0.000120349 8.1869e-05
0.000120349 0.000554679 6.34161e-06
8.1869e-05 6.34161e-06 -4.37851e-05
-0.000166301 0.000177426 6.6621e-06
0.000177426 -0.000745591 1.83171e-05
6.6621e-06 1.83171e-05 -0.000817536
-0.00132686 -0.000325926 1.29573e-05
-0.000325926 -0.000621286 -1.04957e-05
1.29573e-05 -1.04957e-05 -0.000656669
0.0028378 -0.000582888 -2.4116e-05
-0.000582888 0.000328457 -9.32856e-06
-2.4116e-05 -9.32856e-06 0.00141316
0.000907786 -1.44567e-05 2.0019e-07
-1.44567e-05 9.57302e-05 -3.23233e-07
2.0019e-07 -3.23233e-07 2.15106e-05
0.000923821 -1.41913e-05 4.72612e-07
-1.41913e-05 0.000101698 -2.84494e-07
4.72612e-07 -2.84494e-07 2.37796e-05
0.000983895 2.52838e-05 -1.59754e-07
2.52838e-05 0.000136589 -1.56432e-06
-1.59754e-07 -1.56432e-06 5.91839e-05
0.000806904 -4.40836e-05 9.37211e-08
-4.40836e-05 2.23247e-05 -7.15006e-07
9.37211e-08 -7.15006e-07 -2.89143e-05
0.00073099 3.36218e-05 -8.9235e-07
3.36218e-05 -1.52069e-05 -1.15388e-07
-8.9235e-07 -1.15388e-07 -7.35691e-05
0.000910698 -4.40525e-05 -4.37827e-08
-4.40525e-05 8.89013e-05 -9.86115e-09
-4.37827e-08 -9.86115e-09 2.53501e-05
0.000978147 -2.42142e-05 -4.45866e-07
-2.42142e-05 0.000127275 3.16172e-07
-4.45866e-07 3.16172e-07 5.83006e-05
0.000848496 -2.63923e-05 5.98809e-07
-2.63923e-05 5.92404e-05 -4.33943e-07
5.98809e-07 -4.33943e-07 -1.54849e-05
0.000850184 2.25771e-05 -5.74095e-07
2.25771e-05 5.30166e-05 -2.46684e-07
-5.74095e-07 -2.46684e-07 -1.1116e-05
0.000769753 -2.17657e-06 7.65114e-09
-2.17657e-06 -2.65612e-06 4.6496e-07
7.65114e-09 4.6496e-07 -5.17936e-05
0.000848702 1.81176e-05 -2.64812e-07
1.81176e-05 4.76743e-05 -6.99203e-08
-2.64812e-07 -6.99203e-08 -1.45251e-05
0.000877146 -2.65801e-05 -1.56866e-07
-2.65801e-05 7.14628e-05 3.24034e-07
-1.56866e-07 3.24034e-07 -8.02654e-07
0.000877816 -1.39843e-05 2.09571e-08
-1.39843e-05 6.77112e-05 -1.35535e-07
2.09571e-08 -1.35535e-07 3.3199e-06
0.000778126 8.41175e-06 5.72183e-07
8.41175e-06 1.00288e-05 -5.62517e-07
5.72183e-07 -5.62517e-07 -5.31436e-05
0.000855924 -1.15646e-05 5.75203e-07
-1.15646e-05 5.38124e-05 -9.92768e-07
5.75203e-07 -9.92768e-07 -1.02467e-05
0.000888383 7.39115e-06 1.25862e-06
7.39115e-06 6.35427e-05 1.34528e-07
1.25862e-06 1.34528e-07 1.49443e-07
0.000816575 2.3895e-06 1.01604e-06
2.3895e-06 2.34167e-05 -2.4642e-08
1.01604e-06 -2.4642e-08 -3.82947e-05
0.000710211 -3.30912e-05 -1.18693e-06
-3.30912e-05 -3.38751e-05 9.94718e-07
-1.18693e-06 9.94718e-07 -8.43023e-05
0.000895778 8.44144e-06 -3.19073e-07
8.44144e-06 7.44581e-05 5.08539e-08
-3.19073e-07 5.08539e-08 1.11741e-05
0.000965435 6.24248e-05 -4.27587e-08
6.24248e-05 0.000113354 -6.84228e-07
-4.27587e-08 -6.84228e-07 4.74742e-05
0.000796286 1.14646e-05 -5.55915e-07
1.14646e-05 3.08225e-05 2.05422e-08
-5.55915e-07 2.05422e-08 -3.12654e-05
0.000901388 1.33544e-05 5.05567e-07
1.33544e-05 8.18511e-05 -3.26611e-07
5.05567e-07 -3.26611e-07 1.98482e-05
0.000822325 -2.13439e-05 -1.35981e-06
-2.13439e-05 2.75497e-05 4.93659e-07
-1.35981e-06 4.93659e-07 -2.05463e-05
0.000720969 5.86688e-06 1.07478e-07
5.86688e-06 -2.52853e-05 4.05604e-07
1.07478e-07 4.05604e-07 -7.69048e-05
0.000791952 1.40752e-05 -1.63136e-07
1.40752e-05 1.35476e-06 1.44749e-06
-1.63136e-07 1.44749e-06 -2.89265e-05
0.000783531 5.14441e-06 -1.32146e-07
5.14441e-06 -3.57157e-06 1.67559e-09
-1.32146e-07 1.67559e-09 -3.37397e-05
0.000751035 5.77488e-06 -3.10168e-07
5.77488e-06 -3.13622e-05 4.4215e-06
-3.10168e-07 4.4215e-06 -3.3898e-05
0.000784998 -4.72241e-06 2.60969e-07
-4.72241e-06 -3.45632e-06 -1.42035e-06
2.60969e-07 -1.42035e-06 -3.31723e-05
0.000737518 8.1952e-07 2.00321e-07
8.1952e-07 -3.99429e-05 -8.54612e-09
2.00321e-07 -8.54612e-09 -4.19581e-05
0.00211011 -9.60064e-07 2.80246e-07
-9.60064e-07 0.000714646 4.15115e-06
2.80246e-07 4.15115e-06 0.000736631
0.000758988 -4.20124e-06 -5.61191e-07
-4.20124e-06 -2.77475e-05 -4.39669e-06
-5.61191e-07 -4.39669e-06 -2.94959e-05
0.00152132 -6.66203e-06 -3.30565e-07
-6.66203e-06 0.0003921 2.00459e-08
-3.30565e-07 2.00459e-08 0.000411208
0.000902106 -1.11528e-05 -6.08497e-07
-1.11528e-05 5.35608e-05 -1.5646e-06
-6.08497e-07 -1.5646e-06 7.00391e-05
0.000800238 4.1627e-06 -6.41752e-08
4.1627e-06 5.62197e-06 -1.71391e-06
-6.41752e-08 -1.71391e-06 -2.23544e-05
0.000794375 7.37644e-06 4.90964e-08
7.37644e-06 2.77121e-06 -3.01053e-09
4.90964e-08 -3.01053e-09 -2.60115e-05
0.000739496 1.0788e-05 2.42002e-07
1.0788e-05 -3.72871e-05 -3.32563e-06
2.42002e-07 -3.32563e-06 -3.88201e-05
0.000798621 1.02032e-05 -6.27163e-07
1.02032e-05 5.76127e-06 1.79203e-06
-6.27163e-07 1.79203e-06 -2.43336e-05
0.00102076 1.8248e-05 -2.46383e-07
1.8248e-05 0.000119301 -6.63748e-07
-2.46383e-07 -6.63748e-07 0.000118161
0.00209454 2.33382e-05 1.14801e-05
2.33382e-05 0.000711079 -4.12198e-06
1.14801e-05 -4.12198e-06 0.000732185
0.000740359 2.25344e-05 -7.97488e-07
2.25344e-05 -2.95137e-05 3.40222e-06
-7.97488e-07 3.40222e-06 -3.41613e-05
0.00214849 3.11057e-05 -6.46546e-06
3.11057e-05 0.000746058 1.12275e-06
-6.46546e-06 1.12275e-06 0.000765713
0.00219012 4.03153e-05 -2.06172e-05
4.03153e-05 0.000774602 3.9315e-06
-2.06172e-05 3.9315e-06 0.000792368
0.00172288 3.44019e-05 1.71308e-07
3.44019e-05 4.93052e-05 1.59671e-07
1.71308e-07 1.59671e-07 -3.74433e-05
0.00176768 3.95788e-06 1.09898e-06
3.95788e-06 8.14376e-05 -1.65136e-07
1.09898e-06 -1.65136e-07 -1.60548e-05
0.00185191 2.00904e-05 3.1311e-06
2.00904e-05 0.000106442 1.432e-07
3.1311e-06 1.432e-07 3.40887e-05
0.00184578 4.50199e-06 1.01618e-05
4.50199e-06 -3.3597e-05 2.00078e-06
1.01618e-05 2.00078e-06 -0.000100626
0.00183284 4.04647e-06 -4.79577e-07
4.04647e-06 9.98066e-05 -1.11169e-07
-4.79577e-07 -1.11169e-07 2.3356e-05
0.00178648 2.86072e-05 1.38389e-06
2.86072e-05 4.08639e-05 3.42836e-08
1.38389e-06 3.42836e-08 -8.9405e-06
0.00237448 1.31601e-05 -3.38843e-06
1.31601e-05 0.000340252 1.02722e-06
-3.38843e-06 1.02722e-06 0.000270411
0.00316222 -5.41298e-05 0.000139186
-5.41298e-05 0.000495554 9.93216e-06
0.000139186 9.93216e-06 0.00016061
0.00162873 -4.02836e-05 -7.40246e-06
-4.02836e-05 -0.000124297 -1.92314e-06
-7.40246e-06 -1.92314e-06 -0.000192037
0.000826427 3.25533e-05 -8.1342e-07
3.25533e-05 3.97873e-05 -9.48385e-07
-8.1342e-07 -9.48385e-07 -8.15212e-06
0.000819711 -1.37841e-05 6.7736e-07
-1.37841e-05 3.78721e-05 -5.719e-08
6.7736e-07 -5.719e-08 -1.14787e-05
0.000827278 -4.38145e-05 1.36843e-07
-4.38145e-05 4.64256e-05 -2.12372e-07
1.36843e-07 -2.12372e-07 -1.36174e-05
0.000826558 -2.24056e-05 -1.26e-06
-2.24056e-05 5.66014e-05 -7.2691e-08
-1.26e-06 -7.2691e-08 -9.00836e-06
0.00185683 -3.1792e-05 2.51209e-06
-3.1792e-05 0.000110877 -3.07258e-07
2.51209e-06 -3.07258e-07 3.3408e-05
0.00164677 -5.88207e-05 -1.87134e-06
-5.88207e-05 -2.42463e-05 -2.12306e-07
-1.87134e-06 -2.12306e-07 -0.000102898
0.00185316 -0.000152922 -1.40302e-06
-0.000152922 7.53955e-05 8.53737e-07
-1.40302e-06 8.53737e-07 -7.63646e-06
0.000759616 -0.000106424 3.04809e-06
-0.000106424 -1.54001e-05 2.9207e-06
3.04809e-06 2.9207e-06 -0.000122943
0.000346219 -0.000115268 3.21367e-06
-0.000115268 -0.000256592 -7.36128e-07
3.21367e-06 -7.36128e-07 -0.000464985
0.00218849 -0.000228586 2.04319e-07
-0.000228586 0.000378212 -2.31712e-06
2.04319e-07 -2.31712e-06 0.000257017
0.000637181 -9.15239e-05 -7.61404e-06
-9.15239e-05 -4.82395e-05 1.54149e-06
-7.61404e-06 1.54149e-06 -0.00014551
0.000945401 -5.16548e-05 -1.67944e-06
-5.16548e-05 0.000148449 -4.90863e-07
-1.67944e-06 -4.90863e-07 3.92664e-05
0.00102534 -6.01038e-05 -1.71256e-06
-6.01038e-05 0.000174345 1.66647e-06
-1.71256e-06 1.66647e-06 7.79196e-05
0.00082758 -1.14902e-05 -1.19069e-06
-1.14902e-05 3.97702e-05 1.12181e-06
-1.19069e-06 1.12181e-06 -1.4575e-05
0.00086761 -4.07265e-05 -5.15275e-07
-4.07265e-05 8.27141e-05 1.67879e-07
-5.15275e-07 1.67879e-07 -3.09404e-06
0.000910896 9.71739e-07 -7.09253e-07
9.71739e-07 9.88342e-05 6.94694e-07
-7.09253e-07 6.94694e-07 2.50944e-05
0.000826 -3.63039e-06 -3.01192e-09
-3.63039e-06 4.31436e-05 3.67471e-07
-3.01192e-09 3.67471e-07 -8.12e-06
0.000709084 2.23851e-05 2.0102e-07
2.23851e-05 -6.56667e-06 1.19368e-06
2.0102e-07 1.19368e-06 -7.72942e-05
0.00189364 -5.55774e-05 -3.55183e-07
-5.55774e-05 9.78289e-05 6.94147e-07
-3.55183e-07 6.94147e-07 2.99835e-05
0.000833529 1.12528e-05 5.6183e-07
1.12528e-05 5.56601e-05 -4.67492e-07
5.6183e-07 -4.67492e-07 -9.85302e-06
0.000785125 2.49052e-05 5.30023e-07
2.49052e-05 3.34981e-05 7.97832e-09
5.30023e-07 7.97832e-09 -3.82604e-05
0.000910083 5.22639e-05 -3.95118e-07
5.22639e-05 0.000100638 6.62118e-07
-3.95118e-07 6.62118e-07 2.39506e-05
0.00198864 -8.61619e-05 -3.04426e-06
-8.61619e-05 0.000103575 3.4422e-07
-3.04426e-06 3.4422e-07 3.46768e-05
0.00183674 -0.000209921 6.47815e-07
-0.000209921 7.82491e-05 -1.01306e-06
6.47815e-07 -1.01306e-06 -1.67367e-05
0.000955144 -0.000121171 -1.16126e-06
-0.000121171 0.000125152 -5.7079e-08
-1.16126e-06 -5.7079e-08 -2.2462e-05
0.00197473 -0.000222361 -5.3691e-07
-0.000222361 0.000455182 -4.09469e-07
-5.3691e-07 -4.09469e-07 0.000288796
0.000904904 -1.23275e-05 -3.2502e-07
-1.23275e-05 9.91231e-05 6.69787e-08
-3.2502e-07 6.69787e-08 1.77072e-05
0.000884152 -9.89959e-06 7.71801e-08
-9.89959e-06 9.08346e-05 8.7536e-07
7.71801e-08 8.7536e-07 4.86625e-06
0.000817697 -8.14862e-05 3.80092e-06
-8.14862e-05 9.65433e-05 -9.69542e-07
3.80092e-06 -9.69542e-07 -4.17188e-05
0.00101533 -5.06504e-05 8.69729e-07
-5.06504e-05 0.000180137 -1.25543e-06
8.69729e-07 -1.25543e-06 6.90937e-05
0.00153732 -4.41988e-05 -2.60961e-06
-4.41988e-05 -0.000153045 2.5507e-06
-2.60961e-06 2.5507e-06 -0.000223668
0.00205589 -0.00018407 6.19882e-08
-0.00018407 8.79497e-05 -1.56452e-06
6.19882e-08 -1.56452e-06 2.72166e-05
0.00213125 -0.000241739 -1.81931e-06
-0.000241739 0.000363967 -1.56355e-06
-1.81931e-06 -1.56355e-06 0.000229651
0.00121773 -0.00016928 -6.83767e-07
-0.00016928 0.000256274 -1.6239e-06
-6.83767e-07 -1.6239e-06 9.46593e-05
0.000803982 2.84763e-05 -5.80079e-07
2.84763e-05 4.38993e-05 -1.75032e-07
-5.80079e-07 -1.75032e-07 -3.67065e-05
0.000822609 -3.41336e-05 5.11197e-07
-3.41336e-05 6.081e-05 -5.18874e-07
5.11197e-07 -5.18874e-07 -2.00499e-05
0.000863158 -1.69583e-05 1.58445e-07
-1.69583e-05 7.80368e-05 -2.02601e-07
1.58445e-07 -2.02601e-07 -1.10568e-05
0.000785603 -4.49696e-06 -1.05806e-06
-4.49696e-06 7.42839e-05 -5.19606e-07
-1.05806e-06 -5.19606e-07 -7.36097e-05
0.000887851 -9.48802e-05 -4.57133e-06
-9.48802e-05 -0.000893868 -3.37581e-06
-4.57133e-06 -3.37581e-06 -0.00135189
0.000976586 7.5173e-06 6.14032e-07
7.5173e-06 0.000138356 -9.72864e-07
6.14032e-07 -9.72864e-07 5.57244e-05
0.000717817 7.92039e-05 1.60473e-06
7.92039e-05 8.97223e-06 1.07308e-06
1.60473e-06 1.07308e-06 -0.000106939
0.00176562 7.40926e-05 8.24949e-06
7.40926e-05 -1.58523e-06 5.82673e-07
8.24949e-06 5.82673e-07 -3.97861e-05
0.00183008 0.00018643 1.84888e-07
0.00018643 2.12617e-06 -1.12102e-06
1.84888e-07 -1.12102e-06 -7.08872e-05
0.0012992 0.000191618 1.87942e-06
0.000191618 5.94967e-05 2.44735e-06
1.87942e-06 2.44735e-06 -0.000118719
0.000830152 0.000118507 3.10452e-06
0.000118507 5.71043e-05 1.20812e-06
3.10452e-06 1.20812e-06 -0.00011543
0.00251405 0.000106512 6.62355e-06
0.000106512 0.000284395 -1.07366e-06
6.62355e-06 -1.07366e-06 9.43261e-05
0.000948115 3.59578e-05 8.04393e-07
3.59578e-05 0.000128881 -6.86447e-07
8.04393e-07 -6.86447e-07 3.28126e-05
0.00213251 0.000128137 -5.47375e-06
0.000128137 0.000188182 -2.54606e-06
-5.47375e-06 -2.54606e-06 0.000195809
0.00101975 0.00012338 4.75336e-08
0.00012338 0.000180689 -1.46656e-07
4.75336e-08 -1.46656e-07 5.26123e-05
0.0011283 0.000154293 6.55446e-08
0.000154293 0.000172634 3.25816e-07
6.55446e-08 3.25816e-07 -2.71205e-05
0.00110757 0.000233625 -3.59483e-06
0.000233625 -0.000224953 1.82472e-07
-3.59483e-06 1.82472e-07 -0.000349143
0.00263839 -0.000174743 -4.10017e-05
-0.000174743 0.000144279 -1.40294e-05
-4.10017e-05 -1.40294e-05 -0.000583201
0.00371243 4.30098e-05 -5.19645e-08
4.30098e-05 0.00037332 -1.36524e-05
-5.19645e-08 -1.36524e-05 -0.000331066
0.000292754 0.000157397 6.12756e-06
0.000157397 -0.000508245 4.81437e-06
6.12756e-06 4.81437e-06 -0.00058937
-0.00188453 -0.000228049 3.75441e-05
-0.000228049 -0.000548118 8.94205e-06
3.75441e-05 8.94205e-06 -0.000903022
-3.26125e-05 -0.000604074 6.7666e-06
-0.000604074 -0.0011276 -5.68208e-06
6.7666e-06 -5.68208e-06 0.000120101
0.00114076 7.86385e-05 -1.37307e-06
7.86385e-05 0.000247102 -2.14656e-06
-1.37307e-06 -2.14656e-06 0.000151996
0.000783355 0.000112594 -7.12921e-05
0.000112594 0.000773998 -2.22492e-05
-7.12921e-05 -2.22492e-05 0.000403934
0.00144105 -0.000327288 -4.36996e-05
-0.000327288 0.000568611 -3.59497e-05
-4.36996e-05 -3.59497e-05 0.000808603
0.00130781 0.00015133 -1.65778e-05
0.00015133 -0.000167233 -4.74189e-06
-1.65778e-05 -4.74189e-06 -0.000136142
0.00114417 7.62005e-05 -5.73901e-06
7.62005e-05 0.000271166 -1.86372e-06
-5.73901e-06 -1.86372e-06 0.0001293
0.00100127 0.00020503 -1.00539e-05
0.00020503 5.68493e-05 -5.62299e-06
-1.00539e-05 -5.62299e-06 -0.000151297
3.84957e-05 0.000199303 4.54449e-06
0.000199303 -0.000624397 4.11296e-05
4.54449e-06 4.11296e-05 -0.000593445
0.00663328 -0.000158241 -4.93785e-05
-0.000158241 0.00227146 -1.13269e-05
-4.93785e-05 -1.13269e-05 0.00106399
0.00372987 0.000237232 -6.39076e-06
0.000237232 0.000459188 2.53748e-05
-6.39076e-06 2.53748e-05 -0.000518397
0.000784589 -0.00051848 -1.68862e-05
-0.00051848 -5.2827e-05 -6.50099e-06
-1.68862e-05 -6.50099e-06 0.000253794
0.000901309 -0.000328688 -3.44727e-05
-0.000328688 -0.00152738 1.30779e-05
-3.44727e-05 1.30779e-05 -0.000568186
0.000925596 -1.88095e-05 5.8467e-07
-1.88095e-05 0.000105772 -2.42086e-07
5.8467e-07 -2.42086e-07 2.81484e-05
0.0009393 1.37717e-05 -2.12229e-07
1.37717e-05 0.000112694 1.32518e-07
-2.12229e-07 1.32518e-07 3.62232e-05
0.00119225 5.4861e-05 -7.32541e-07
5.4861e-05 0.00025455 -1.62379e-06
-7.32541e-07 -1.62379e-06 0.000186437
0.000804715 2.47611e-06 -1.67237e-07
2.47611e-06 2.45414e-05 -1.74241e-07
-1.67237e-07 -1.74241e-07 -2.89243e-05
0.000866825 1.12262e-05 -6.91629e-07
1.12262e-05 5.65248e-05 -1.89209e-07
-6.91629e-07 -1.89209e-07 -4.63725e-06
0.000793029 -3.51103e-05 -4.47904e-07
-3.51103e-05 1.77149e-05 -2.06506e-07
-4.47904e-07 -2.06506e-07 -4.38503e-05
0.000914336 -1.72513e-05 6.05902e-08
-1.72513e-05 8.71488e-05 7.25486e-08
6.05902e-08 7.25486e-08 2.25812e-05
0.000918565 -2.92283e-05 3.62167e-08
-2.92283e-05 9.41414e-05 1.12547e-06
3.62167e-08 1.12547e-06 2.16453e-05
0.000719639 -7.3575e-07 4.72185e-07
-7.3575e-07 -2.69299e-05 4.19544e-07
4.72185e-07 4.19544e-07 -7.86499e-05
0.000828678 -1.61797e-05 -9.37402e-08
-1.61797e-05 3.69422e-05 -2.03592e-07
-9.37402e-08 -2.03592e-07 -2.61464e-05
0.000919792 -2.40162e-05 -1.12587e-07
-2.40162e-05 8.29663e-05 2.85519e-07
-1.12587e-07 2.85519e-07 1.85997e-05
0.000879752 2.3014e-05 4.8845e-07
2.3014e-05 6.33547e-05 -1.79855e-07
4.8845e-07 -1.79855e-07 -1.2709e-06
0.000888943 -9.78098e-06 1.13801e-07
-9.78098e-06 7.12083e-05 -3.13933e-08
1.13801e-07 -3.13933e-08 7.29632e-06
0.000804102 -2.49929e-05 5.39859e-07
-2.49929e-05 1.5209e-05 -3.87018e-07
5.39859e-07 -3.87018e-07 -4.81803e-05
0.00088154 1.31261e-05 -5.84161e-07
1.31261e-05 5.62611e-05 -2.46117e-06
-5.84161e-07 -2.46117e-06 -2.77305e-06
0.000939283 -5.8066e-05 1.20182e-07
-5.8066e-05 8.74474e-05 -1.92408e-07
1.20182e-07 -1.92408e-07 2.25618e-05
0.000919404 -3.93915e-05 -4.32104e-07
-3.93915e-05 8.58623e-05 -3.06369e-07
-4.32104e-07 -3.06369e-07 2.08807e-05
0.000914714 -6.1986e-06 -4.09129e-07
-6.1986e-06 8.42229e-05 -9.52533e-08
-4.09129e-07 -9.52533e-08 2.08104e-05
0.000930399 5.13851e-05 -3.83824e-07
5.13851e-05 9.18152e-05 -2.57519e-07
-3.83824e-07 -2.57519e-07 2.71387e-05
0.00089631 2.14282e-05 -2.72042e-07
2.14282e-05 7.4178e-05 -6.63297e-07
-2.72042e-07 -6.63297e-07 3.90812e-06
0.000862428 4.89653e-05 1.5902e-07
4.89653e-05 6.22349e-05 -3.37884e-07
1.5902e-07 -3.37884e-07 -2.64468e-06
0.00092201 6.87914e-05 -2.42481e-07
6.87914e-05 8.64396e-05 -7.42517e-07
-2.42481e-07 -7.42517e-07 2.03461e-05
0.000776518 3.33373e-05 1.37036e-06
3.33373e-05 2.75106e-05 1.2615e-06
1.37036e-06 1.2615e-06 -4.28916e-05
0.000802918 2.57008e-05 -2.28097e-08
2.57008e-05 3.05333e-05 1.50029e-07
-2.28097e-08 1.50029e-07 -2.77893e-05
0.000823004 6.22086e-06 -1.24382e-07
6.22086e-06 4.29027e-05 -3.91846e-08
-1.24382e-07 -3.91846e-08 -1.77413e-05
0.000811122 1.53399e-05 -9.79804e-07
1.53399e-05 2.08669e-05 4.12629e-07
-9.79804e-07 4.12629e-07 -2.539e-05
0.000861655 1.73257e-05 5.3505e-07
1.73257e-05 5.32275e-05 -2.19516e-07
5.3505e-07 -2.19516e-07 -5.2133e-06
0.000786937 -1.69387e-05 -2.48414e-08
-1.69387e-05 8.30189e-06 2.81207e-08
-2.48414e-08 2.81207e-08 -4.02732e-05
0.00079362 1.58056e-05 -4.84647e-07
1.58056e-05 2.61437e-06 1.51684e-06
-4.84647e-07 1.51684e-06 -2.75013e-05
0.000730556 7.78287e-06 4.0397e-07
7.78287e-06 -1.79705e-05 -1.66067e-07
4.0397e-07 -1.66067e-07 -7.10751e-05
0.000787511 8.04333e-06 -1.39716e-07
8.04333e-06 -1.34494e-06 5.87918e-11
-1.39716e-07 5.87918e-11 -3.14869e-05
0.00134122 1.27846e-05 -2.89447e-06
1.27846e-05 0.000293872 4.36685e-06
-2.89447e-06 4.36685e-06 0.000294087
0.000781741 -1.94576e-06 5.48566e-07
-1.94576e-06 -4.63912e-06 -1.41473e-06
5.48566e-07 -1.41473e-06 -3.47375e-05
0.00104049 6.71801e-06 -1.34328e-06
6.71801e-06 0.000127252 6.487e-07
-1.34328e-06 6.487e-07 0.000126297
0.000957905 3.39494e-06 -2.86022e-06
3.39494e-06 8.333e-05 4.05126e-06
-2.86022e-06 4.05126e-06 9.90277e-05
0.000742446 9.51166e-07 -1.04998e-08
9.51166e-07 -3.7212e-05 -3.09899e-06
-1.04998e-08 -3.09899e-06 -3.92715e-05
0.00211523 -3.63644e-07 2.45833e-06
-3.63644e-07 0.000717484 -6.52149e-10
2.45833e-06 -6.52149e-10 0.000739416
0.000967628 -3.88803e-06 -2.23872e-06
-3.88803e-06 8.8355e-05 -4.03854e-06
-2.23872e-06 -4.03854e-06 0.000104508
0.000822659 4.92301e-05 4.75769e-07
4.92301e-05 4.02569e-05 -2.65779e-07
4.75769e-07 -2.65779e-07 -1.02634e-05
0.000797963 -2.61038e-07 -1.21374e-07
-2.61038e-07 4.03669e-06 -1.70658e-06
-1.21374e-07 -1.70658e-06 -2.33827e-05
0.000798524 3.29797e-06 -7.70229e-08
3.29797e-06 4.55754e-06 -9.25231e-09
-7.70229e-08 -9.25231e-09 -2.33738e-05
0.000745085 5.08752e-06 -4.92988e-08
5.08752e-06 -3.59541e-05 -3.30747e-06
-4.92988e-08 -3.30747e-06 -3.65869e-05
0.000794737 6.45919e-06 -2.9177e-07
6.45919e-06 2.61824e-06 1.65816e-06
-2.9177e-07 1.65816e-06 -2.6117e-05
0.000737967 1.09793e-05 3.98094e-08
1.09793e-05 -3.84953e-05 -6.80092e-07
3.98094e-08 -6.80092e-07 -3.99446e-05
0.00207412 1.52576e-05 7.67128e-06
1.52576e-05 0.000697057 -4.20141e-06
7.67128e-06 -4.20141e-06 0.00071902
0.00130185 2.16396e-05 -1.19335e-06
2.16396e-05 0.000273778 2.03487e-06
-1.19335e-06 2.03487e-06 0.000273933
0.00153299 2.00084e-05 3.62576e-07
2.00084e-05 0.000404236 1.31131e-06
3.62576e-07 1.31131e-06 0.000422059
0.00100138 2.25e-05 -1.56204e-05
2.25e-05 0.000117636 6.65938e-06
-1.56204e-05 6.65938e-06 0.000131077
-7.43443e-05 3.24825e-05 1.46265e-05
3.24825e-05 -0.00098522 7.35657e-06
1.46265e-05 7.35657e-06 -0.00107244
0.00202769 2.9984e-06 1.81712e-06
2.9984e-06 0.000201663 1.91189e-07
1.81712e-06 1.91189e-07 0.000125197
0.00198554 2.75302e-05 4.6985e-06
2.75302e-05 0.00015899 -1.63731e-06
4.6985e-06 -1.63731e-06 0.000105328
0.0011043 -8.45472e-06 2.58082e-05
-8.45472e-06 -0.000338229 -4.44734e-06
2.58082e-05 -4.44734e-06 -0.000663885
0.00179093 -3.11944e-05 -1.22879e-06
-3.11944e-05 2.76901e-05 5.27596e-07
-1.22879e-06 5.27596e-07 -5.30238e-05
0.00189522 5.5374e-06 -3.36856e-06
5.5374e-06 3.28419e-05 -1.44364e-06
-3.36856e-06 -1.44364e-06 -3.33214e-05
0.00203515 -1.66747e-06 -1.53563e-05
-1.66747e-06 0.000174093 1.77204e-06
-1.53563e-05 1.77204e-06 9.27165e-05
0.00148163 -9.01551e-05 0.000128814
-9.01551e-05 -0.000117884 -7.99204e-06
0.000128814 -7.99204e-06 -0.000476525
0.00819288 4.74606e-06 -2.58241e-05
4.74606e-06 0.00280971 -1.50966e-06
-2.58241e-05 -1.50966e-06 0.00196833
0.00272324 0.000568998 1.50841e-05
0.000568998 0.00126543 -4.28291e-06
1.50841e-05 -4.28291e-06 0.00145564
0.00225025 0.00058319 -1.61751e-05
0.00058319 0.00057037 1.08108e-05
-1.61751e-05 1.08108e-05 0.00156532
0.000702372 -5.04209e-05 1.01838e-06
-5.04209e-05 -1.62215e-05 -8.46824e-07
1.01838e-06 -8.46824e-07 -7.88809e-05
0.000825453 -1.04174e-05 2.38701e-07
-1.04174e-05 4.0512e-05 -4.94217e-08
2.38701e-07 -4.94217e-08 -8.26811e-06
0.000817526 -5.44924e-05 -1.01459e-06
-5.44924e-05 4.00432e-05 9.82645e-07
-1.01459e-06 9.82645e-07 -1.16867e-05
0.000801525 -1.89799e-05 -3.07497e-07
-1.89799e-05 3.64415e-05 1.82781e-08
-3.07497e-07 1.82781e-08 -2.66219e-05
0.000799506 3.97336e-05 1.45532e-07
3.97336e-05 4.65961e-05 5.68604e-07
1.45532e-07 5.68604e-07 -2.77014e-05
0.000936473 7.12823e-05 3.31538e-07
7.12823e-05 0.000111688 6.87194e-07
3.31538e-07 6.87194e-07 4.15969e-05
0.000868671 -2.74742e-05 6.22674e-07
-2.74742e-05 7.27961e-05 -8.33493e-07
6.22674e-07 -8.33493e-07 1.0218e-05
0.000789956 -3.72158e-05 -4.87907e-07
-3.72158e-05 3.21696e-05 5.62339e-07
-4.87907e-07 5.62339e-07 -3.09157e-05
0.0019238 -4.12364e-05 3.4952e-06
-4.12364e-05 0.000132679 -7.8119e-07
3.4952e-06 -7.8119e-07 6.49197e-05
0.00163496 -8.37774e-05 -1.85181e-06
-8.37774e-05 -9.92082e-05 -6.60619e-07
-1.85181e-06 -6.60619e-07 -0.000171674
0.00148297 -0.000191234 -3.17454e-06
-0.000191234 -9.07254e-05 9.45935e-07
-3.17454e-06 9.45935e-07 -0.000183554
0.000893809 -0.000129322 9.03953e-07
-0.000129322 7.85358e-05 2.83064e-06
9.03953e-07 2.83064e-06 -6.6092e-05
0.00188023 -0.000217502 7.63551e-07
-0.000217502 0.000409624 2.15496e-07
7.63551e-07 2.15496e-07 0.000237579
0.000927779 -8.29018e-05 -8.21353e-07
-8.29018e-05 0.000146742 -2.17849e-07
-8.21353e-07 -2.17849e-07 1.58001e-05
0.00121684 -8.92868e-05 -1.52595e-07
-8.92868e-05 0.000291036 -1.15141e-07
-1.52595e-07 -1.15141e-07 0.000172927
0.000806454 -3.0816e-05 -1.35909e-06
-3.0816e-05 5.60737e-05 7.72378e-07
-1.35909e-06 7.72378e-07 -3.14625e-05
0.000816631 3.38442e-06 3.51257e-07
3.38442e-06 5.14181e-05 5.63368e-07
3.51257e-07 5.63368e-07 -2.02365e-05
0.00100284 1.30862e-05 -9.03891e-07
1.30862e-05 0.000148727 1.20596e-07
-9.03891e-07 1.20596e-07 6.89057e-05
0.0010192 -1.57381e-06 5.25579e-07
-1.57381e-06 0.000154805 2.23284e-07
5.25579e-07 2.23284e-07 9.10795e-05
0.000786092 8.48189e-05 1.085e-06
8.48189e-05 3.60432e-05 1.4455e-06
1.085e-06 1.4455e-06 -4.24614e-05
0.00159483 -4.3111e-05 -9.53772e-07
-4.3111e-05 -0.000124998 -2.43643e-06
-9.53772e-07 -2.43643e-06 -0.000192331
0.000854527 3.15239e-05 -3.44799e-07
3.15239e-05 7.14462e-05 2.72736e-07
-3.44799e-07 2.72736e-07 -7.23488e-06
0.000846301 -2.20835e-05 -3.5754e-07
-2.20835e-05 6.9142e-05 -4.02823e-07
-3.5754e-07 -4.02823e-07 -9.91189e-06
0.00215661 -0.000192091 4.38229e-07
-0.000192091 0.00014443 1.84822e-07
4.38229e-07 1.84822e-07 7.9535e-05
0.00104033 -0.000193455 1.16912e-06
-0.000193455 -0.000185513 4.50379e-07
1.16912e-06 4.50379e-07 -0.000310079
0.0011675 -0.000168263 8.2775e-07
-0.000168263 0.000222902 -1.40992e-06
8.2775e-07 -1.40992e-06 5.25555e-05
0.000985646 -1.74984e-05 1.18194e-07
-1.74984e-05 0.000144016 -3.51142e-07
1.18194e-07 -3.51142e-07 5.28734e-05
0.000978894 -2.78931e-05 3.68172e-07
-2.78931e-05 0.000177421 4.86555e-07
3.68172e-07 4.86555e-07 2.86048e-05
0.00361922 -0.000154957 -9.72009e-06
-0.000154957 0.00104247 6.89656e-06
-9.72009e-06 6.89656e-06 0.000960567
0.00280324 -0.000278223 -7.97708e-06
-0.000278223 0.000559935 -1.63433e-06
-7.97708e-06 -1.63433e-06 0.000501363
-0.000807965 -0.000110307 -2.93477e-06
-0.000110307 -0.000933613 -1.68875e-06
-2.93477e-06 -1.68875e-06 -0.00107061
0.0011989 -0.00010242 -3.90358e-06
-0.00010242 0.000270028 1.31441e-06
-3.90358e-06 1.31441e-06 9.24837e-05
0.000739166 -7.12523e-05 8.763e-07
-7.12523e-05 2.94652e-06 -2.0075e-07
8.763e-07 -2.0075e-07 -7.43901e-05
0.000912082 -2.82883e-05 1.14527e-06
-2.82883e-05 9.65195e-05 1.23121e-07
1.14527e-06 1.23121e-07 1.34414e-05
0.000876704 -9.7744e-06 -2.388e-06
-9.7744e-06 8.85479e-05 5.11617e-08
-2.388e-06 5.11617e-08 -1.42545e-05
-0.00391403 -3.97011e-05 3.54681e-05
-3.97011e-05 -0.00173011 7.58874e-06
3.54681e-05 7.58874e-06 -0.00153562
0.00792407 -5.04204e-05 -2.84497e-05
-5.04204e-05 0.00275039 -4.15681e-08
-2.84497e-05 -4.15681e-08 0.00215351
0.000858378 3.50828e-05 2.17749e-06
3.50828e-05 8.7515e-05 -4.39909e-07
2.17749e-06 -4.39909e-07 -7.94721e-06
0.000842646 0.000112376 2.71876e-06
0.000112376 9.00117e-05 1.24445e-07
2.71876e-06 1.24445e-07 -3.54838e-05
0.00163747 0.000113705 2.50384e-06
0.000113705 -7.51923e-05 4.7723e-06
2.50384e-06 4.7723e-06 -5.4274e-05
0.00234807 0.000289636 2.13051e-06
0.000289636 0.000377794 8.73998e-07
2.13051e-06 8.73998e-07 0.000258986
0.000990085 0.000149763 5.09798e-06
0.000149763 0.000110968 1.5913e-06
5.09798e-06 1.5913e-06 -9.03296e-05
0.00498571 0.000136476 5.36042e-05
0.000136476 0.00125795 -3.37771e-06
5.36042e-05 -3.37771e-06 0.000350111
0.00489716 8.66591e-05 -8.0169e-05
8.66591e-05 0.000845071 -2.92769e-05
-8.0169e-05 -2.92769e-05 0.000270907
0.000528751 0.000131604 3.70631e-06
0.000131604 -0.000399387 -1.7827e-05
3.70631e-06 -1.7827e-05 -0.000471311
0.00324443 -0.000457336 2.23429e-05
-0.000457336 0.00162158 1.64885e-05
2.23429e-05 1.64885e-05 0.00155274
-0.00295953 -0.000639429 -1.28621e-05
-0.000639429 -0.00258135 -3.08157e-05
-1.28621e-05 -3.08157e-05 -0.00115
0.00099807 9.1949e-05 3.61734e-07
9.1949e-05 0.000177911 -7.16875e-07
3.61734e-07 -7.16875e-07 8.03444e-05
-0.00276173 -0.000135722 1.56971e-05
-0.000135722 -0.00138345 1.08864e-06
1.56971e-05 1.08864e-06 -0.00126684
-0.000254062 -0.000306518 -2.11274e-05
-0.000306518 -0.000134258 -6.76516e-06
-2.11274e-05 -6.76516e-06 -0.000119048
0.00245604 0.000190061 -3.46894e-06
0.000190061 0.000397024 -2.64467e-06
-3.46894e-06 -2.64467e-06 0.000433207
0.000853726 8.51886e-05 -5.26745e-07
8.51886e-05 0.000129242 -1.85612e-07
-5.26745e-07 -1.85612e-07 -1.48194e-05
0.000535747 0.000156512 8.54752e-07
0.000156512 -0.000173655 7.83173e-07
8.54752e-07 7.83173e-07 -0.000376762
-2.55407e-05 0.000122785 1.74205e-05
0.000122785 -0.000604176 1.0694e-05
1.74205e-05 1.0694e-05 -0.000534214
0.00594921 -0.000127982 -4.82165e-06
-0.000127982 0.00181122 -2.2995e-06
-4.82165e-06 -2.2995e-06 0.000519108
0.00546724 0.000334689 -2.16996e-05
0.000334689 0.00129424 -1.66653e-05
-2.16996e-05 -1.66653e-05 0.000579892
0.00399483 -0.000704834 1.67929e-05
-0.000704834 0.00155208 -1.07903e-05
1.67929e-05 -1.07903e-05 0.0016299
0.000938203 -0.000385131 1.71129e-05
-0.000385131 -0.00163708 4.26981e-05
1.71129e-05 4.26981e-05 -0.000586156
0.0011307 6.11243e-05 -4.48577e-06
6.11243e-05 0.000261533 -3.89932e-06
-4.48577e-06 -3.89932e-06 0.000176455
-0.00181545 -0.000106361 -6.99546e-05
-0.000106361 -0.000407052 -1.74592e-05
-6.99546e-05 -1.74592e-05 -0.00082527
0.0019162 -3.57095e-05 -5.02774e-05
-3.57095e-05 0.000175897 -4.96123e-05
-5.02774e-05 -4.96123e-05 -0.000154198
0.000649887 0.000150445 -2.0555e-05
0.000150445 -0.000218392 -3.4819e-06
-2.0555e-05 -3.4819e-06 -0.000211429
0.00164785 0.000180493 -1.85834e-05
0.000180493 0.000596957 -5.81545e-06
-1.85834e-05 -5.81545e-06 0.000431159
0.00235842 0.000119481 -3.99158e-05
0.000119481 0.000908117 -4.14282e-06
-3.99158e-05 -4.14282e-06 0.000830585
0.00507404 0.000566923 -0.000107304
0.000566923 0.001295 9.72862e-06
-0.000107304 9.72862e-06 0.000839032
-0.000964989 -0.000138766 3.33325e-05
-0.000138766 -0.00101823 4.21693e-05
3.33325e-05 4.21693e-05 -0.00270319
0.00723852 -0.000747524 -5.3631e-05
-0.000747524 0.00199407 1.32917e-05
-5.3631e-05 1.32917e-05 0.00221076
0.0014911 -0.000214302 -1.33885e-05
-0.000214302 -0.00173283 -1.41961e-05
-1.33885e-05 -1.41961e-05 -0.000750266
0.000897617 2.49228e-05 6.62373e-07
2.49228e-05 9.38069e-05 2.10397e-06
6.62373e-07 2.10397e-06 1.52521e-05
0.00106436 5.15711e-05 1.36732e-06
5.15711e-05 0.000184109 1.11285e-06
1.36732e-06 1.11285e-06 0.000115205
0.000538214 4.58545e-05 -4.70966e-08
4.58545e-05 -8.54971e-05 -3.36466e-06
-4.70966e-08 -3.36466e-06 -0.000142111
0.000725397 3.32668e-05 2.49442e-07
3.32668e-05 -2.37753e-05 -1.5467e-07
2.49442e-07 -1.5467e-07 -7.55775e-05
0.000933039 3.19193e-05 -6.82974e-07
3.19193e-05 9.52866e-05 -2.69086e-07
-6.82974e-07 -2.69086e-07 2.96694e-05
0.00094304 -3.80098e-05 -4.3499e-07
-3.80098e-05 9.65526e-05 3.42825e-07
-4.3499e-07 3.42825e-07 3.22578e-05
0.000860227 -2.60751e-05 -6.70863e-07
-2.60751e-05 5.46884e-05 -2.16385e-07
-6.70863e-07 -2.16385e-07 -8.81522e-06
0.000906795 -1.29755e-05 -6.25274e-07
-1.29755e-05 8.00197e-05 1.21921e-06
-6.25274e-07 1.21921e-06 1.64889e-05
0.000911125 2.42275e-05 3.12469e-07
2.42275e-05 8.19403e-05 -4.02525e-07
3.12469e-07 -4.02525e-07 1.66271e-05
0.000904367 -2.76678e-05 -2.5636e-08
-2.76678e-05 7.03481e-05 1.91225e-07
-2.5636e-08 1.91225e-07 6.6931e-06
0.000917208 -3.89896e-05 1.90227e-07
-3.89896e-05 7.79578e-05 1.67707e-07
1.90227e-07 1.67707e-07 1.15097e-05
0.000896838 -3.47939e-06 9.01651e-08
-3.47939e-06 6.82052e-05 -7.61627e-08
9.01651e-08 -7.61627e-08 1.09069e-05
0.00104689 -3.5248e-05 1.80835e-06
-3.5248e-05 0.000151451 -1.8083e-06
1.80835e-06 -1.8083e-06 0.000101508
0.000884988 -3.50817e-05 -1.12637e-07
-3.50817e-05 5.00206e-05 -1.67394e-06
-1.12637e-07 -1.67394e-06 -1.15795e-05
0.00091906 2.87769e-06 1.40549e-07
2.87769e-06 8.35206e-05 -4.79646e-07
1.40549e-07 -4.79646e-07 1.22631e-05
0.000922964 -2.94163e-05 1.34256e-07
-2.94163e-05 9.0994e-05 -3.1565e-07
1.34256e-07 -3.1565e-07 2.57501e-05
0.000893483 1.97166e-05 -2.21777e-07
1.97166e-05 6.66717e-05 1.30686e-07
-2.21777e-07 1.30686e-07 4.88349e-06
0.000892498 -9.09579e-07 2.11475e-07
-9.09579e-07 7.05612e-05 -2.78274e-07
2.11475e-07 -2.78274e-07 1.489e-06
0.000845435 4.68705e-05 -1.99189e-07
4.68705e-05 5.20085e-05 -3.49858e-08
-1.99189e-07 -3.49858e-08 -1.23005e-05
0.000904082 3.85993e-05 -4.0916e-07
3.85993e-05 7.27351e-05 -3.9701e-08
-4.0916e-07 -3.9701e-08 9.48484e-06
0.000798615 4.90716e-05 9.5326e-07
4.90716e-05 3.26484e-05 2.84163e-07
9.5326e-07 2.84163e-07 -3.31847e-05
0.000851856 4.13465e-05 4.54341e-08
4.13465e-05 4.84231e-05 -7.71646e-07
4.54341e-08 -7.71646e-07 -2.08059e-05
0.000872287 4.49646e-05 1.4355e-07
4.49646e-05 6.28599e-05 -5.7984e-07
1.4355e-07 -5.7984e-07 -7.23627e-07
0.000819906 2.28046e-05 1.9434e-06
2.28046e-05 4.6417e-05 3.37956e-07
1.9434e-06 3.37956e-07 -3.43172e-05
0.000677372 -4.47589e-05 2.42971e-07
-4.47589e-05 8.60177e-06 2.27738e-07
2.42971e-07 2.27738e-07 -0.000101079
0.000552636 1.99878e-05 1.17401e-08
1.99878e-05 -8.341e-05 4.2512e-07
1.17401e-08 4.2512e-07 -0.000163261
0.000824636 3.37694e-05 3.69626e-07
3.37694e-05 5.42972e-05 5.53288e-07
3.69626e-07 5.53288e-07 -1.67088e-05
0.000824187 3.58135e-05 4.15135e-07
3.58135e-05 4.50041e-05 7.2335e-07
4.15135e-07 7.2335e-07 -1.58278e-05
0.000829705 1.73384e-05 -1.6259e-07
1.73384e-05 4.68768e-05 -6.14525e-08
-1.6259e-07 -6.14525e-08 -1.29334e-05
0.000813243 3.01789e-05 -5.36693e-07
3.01789e-05 2.60697e-05 4.87817e-07
-5.36693e-07 4.87817e-07 -2.11512e-05
0.000854745 1.72505e-05 3.43849e-07
1.72505e-05 5.76689e-05 6.13048e-08
3.43849e-07 6.13048e-08 -1.4968e-06
0.000829315 3.24175e-06 -1.24999e-07
3.24175e-06 3.19221e-05 3.02324e-09
-1.24999e-07 3.02324e-09 -1.5298e-05
0.000789507 2.03583e-05 -8.6043e-07
2.03583e-05 2.23995e-06 1.52398e-06
-8.6043e-07 1.52398e-06 -2.79635e-05
0.000750666 -8.13553e-06 6.16277e-07
-8.13553e-06 -1.31606e-05 -4.05329e-07
6.16277e-07 -4.05329e-07 -6.10816e-05
0.000791671 1.18076e-05 -5.94863e-08
1.18076e-05 1.2774e-06 4.04485e-09
-5.94863e-08 4.04485e-09 -2.87191e-05
0.00133447 1.92907e-05 -4.7042e-06
1.92907e-05 0.000292701 4.33529e-06
-4.7042e-06 4.33529e-06 0.000292619
0.000785488 2.85051e-06 6.88125e-07
2.85051e-06 -2.71956e-06 -1.4289e-06
6.88125e-07 -1.4289e-06 -3.27459e-05
0.00103793 1.27288e-05 -2.1154e-06
1.27288e-05 0.000127558 6.35031e-07
-2.1154e-06 6.35031e-07 0.000126353
0.00090725 1.09016e-05 -5.76217e-07
1.09016e-05 5.69712e-05 1.57003e-06
-5.76217e-07 1.57003e-06 7.25459e-05
0.000736555 6.17834e-06 2.62679e-07
6.17834e-06 -3.9691e-05 -3.09576e-06
2.62679e-07 -3.09576e-06 -4.20836e-05
0.0021229 7.50047e-06 2.20817e-06
7.50047e-06 0.000722265 1.79605e-08
2.20817e-06 1.79605e-08 0.000743986
0.00211993 2.36266e-07 8.45774e-07
2.36266e-07 0.000720068 -4.1748e-06
8.45774e-07 -4.1748e-06 0.000741938
0.00107533 3.51915e-05 -1.11568e-06
3.51915e-05 0.000173314 -5.13668e-07
-1.11568e-06 -5.13668e-07 0.000125261
0.000795559 -4.39566e-06 -3.13108e-07
-4.39566e-06 2.75428e-06 -1.68516e-06
-3.13108e-07 -1.68516e-06 -2.47224e-05
0.000818771 3.46721e-06 7.28956e-07
3.46721e-06 3.76913e-05 5.00565e-07
7.28956e-07 5.00565e-07 -1.22428e-05
0.000749327 -7.82515e-07 -1.36875e-07
-7.82515e-07 -3.40759e-05 -3.27691e-06
-1.36875e-07 -3.27691e-06 -3.42633e-05
0.000802856 -8.78865e-07 4.27472e-08
-8.78865e-07 6.67538e-06 2.24671e-10
4.27472e-08 2.24671e-10 -2.07587e-05
0.000796102 2.49444e-06 -2.04373e-07
2.49444e-06 3.10469e-06 1.65257e-06
-2.04373e-07 1.65257e-06 -2.47779e-05
0.000747631 5.34415e-06 -1.5914e-07
5.34415e-06 -3.45677e-05 7.50286e-09
-1.5914e-07 7.50286e-09 -3.52275e-05
0.00205269 7.20733e-06 3.46548e-06
7.20733e-06 0.000683738 -4.22966e-06
3.46548e-06 -4.22966e-06 0.000706288
0.00129654 1.45398e-05 -7.07944e-07
1.45398e-05 0.000267772 2.00194e-06
-7.07944e-07 2.00194e-06 0.000269219
0.00150268 1.35026e-05 2.15036e-06
1.35026e-05 0.000383965 4.68352e-08
2.15036e-06 4.68352e-08 0.000402861
0.000981525 1.63323e-05 -1.3363e-05
1.63323e-05 0.000101524 6.68727e-06
-1.3363e-05 6.68727e-06 0.000116587
-0.00616978 0.000101662 2.33811e-05
0.000101662 -0.0029769 2.54587e-06
2.33811e-05 2.54587e-06 -0.00297183
-0.00123587 0.000262863 6.34533e-06
0.000262863 -0.000520533 1.75802e-05
6.34533e-06 1.75802e-05 -0.000493424
0.00174126 2.96298e-06 -0.000118208
2.96298e-06 -8.48867e-05 -7.16058e-06
-0.000118208 -7.16058e-06 -0.000400482
0.00212261 -2.86316e-05 1.23605e-05
-2.86316e-05 0.000265977 3.46382e-07
1.23605e-05 3.46382e-07 0.000172693
0.00151013 -2.27833e-06 -4.59278e-06
-2.27833e-06 -0.000222959 -4.84295e-07
-4.59278e-06 -4.84295e-07 -0.000285756
0.00143148 -6.0546e-06 2.69668e-05
-6.0546e-06 1.44923e-05 -1.01767e-06
2.69668e-05 -1.01767e-06 -0.000244155
0.00206698 -7.72038e-07 -1.74901e-06
-7.72038e-07 0.000189164 1.20626e-06
-1.74901e-06 1.20626e-06 0.000111036
0.00517576 0.000220273 -1.84064e-05
0.000220273 0.00127241 -1.2384e-05
-1.84064e-05 -1.2384e-05 0.000545603
-0.00346914 0.000245382 -1.64303e-05
0.000245382 -0.00133783 -4.35868e-07
-1.64303e-05 -4.35868e-07 -0.00149361
-0.000360462 0.000613541 -5.43789e-06
0.000613541 -0.00106971 -9.36745e-07
-5.43789e-06 -9.36745e-07 0.000183175
0.00174233 -7.03892e-05 6.22883e-05
-7.03892e-05 8.83218e-05 -3.80956e-06
6.22883e-05 -3.80956e-06 -0.00016516
0.0067106 0.000358975 2.05592e-05
0.000358975 0.00228139 -4.36628e-06
2.05592e-05 -4.36628e-06 0.00121286
0.000185366 0.000510197 -2.60029e-05
0.000510197 -0.000273619 -9.96982e-06
-2.60029e-05 -9.96982e-06 0.000119946
0.00345319 0.000398349 -5.31875e-05
0.000398349 1.1682e-05 3.17544e-05
-5.31875e-05 3.17544e-05 0.000831666
0.000834213 4.4083e-05 -7.36236e-07
4.4083e-05 6.17027e-05 -1.67424e-08
-7.36236e-07 -1.67424e-08 -1.53188e-05
0.000747242 -1.97178e-06 -1.12834e-07
-1.97178e-06 6.877e-06 -2.82826e-07
-1.12834e-07 -2.82826e-07 -5.48025e-05
0.000814361 -5.22433e-05 -9.05427e-07
-5.22433e-05 3.73333e-05 9.77439e-07
-9.05427e-07 9.77439e-07 -1.33242e-05
0.000741951 2.84644e-06 1.30277e-07
2.84644e-06 6.6661e-06 5.2797e-07
1.30277e-07 5.2797e-07 -5.81617e-05
0.000818991 4.68091e-05 6.95528e-07
4.68091e-05 5.74179e-05 6.94388e-07
6.95528e-07 6.94388e-07 -1.64034e-05
0.000884177 3.4848e-05 -8.63503e-07
3.4848e-05 8.71952e-05 4.40757e-07
-8.63503e-07 4.40757e-07 1.2221e-05
0.000873734 4.76248e-05 1.32772e-06
4.76248e-05 8.25211e-05 9.22221e-07
1.32772e-06 9.22221e-07 8.73716e-06
0.000819701 -2.1606e-05 5.82611e-07
-2.1606e-05 4.33291e-05 1.62062e-07
5.82611e-07 1.62062e-07 -2.20728e-05
0.000814258 -2.67379e-05 4.06713e-07
-2.67379e-05 4.59287e-05 -5.31579e-07
4.06713e-07 -5.31579e-07 -1.9202e-05
0.000742854 -2.71469e-05 2.47042e-07
-2.71469e-05 5.36189e-06 6.8729e-07
2.47042e-07 6.8729e-07 -5.75295e-05
0.00157972 -4.09666e-05 1.0271e-06
-4.09666e-05 -0.000137698 -2.30674e-06
1.0271e-06 -2.30674e-06 -0.000202108
0.00230106 -0.000196618 1.11687e-06
-0.000196618 0.000231255 1.75341e-06
1.11687e-06 1.75341e-06 0.000161933
5.92487e-05 -0.000149143 3.26765e-06
-0.000149143 -0.000679207 1.81059e-06
3.26765e-06 1.81059e-06 -0.000793626
0.00117579 -0.000171042 9.84135e-07
-0.000171042 0.00021958 1.3604e-06
9.84135e-07 1.3604e-06 4.24037e-05
0.00115123 -5.23465e-05 2.49635e-06
-5.23465e-05 0.000268237 -1.9056e-07
2.49635e-06 -1.9056e-07 0.000119727
0.00112154 -3.75749e-05 -1.90616e-07
-3.75749e-05 0.000217058 -3.26852e-07
-1.90616e-07 -3.26852e-07 0.000123962
0.000884323 -1.38731e-05 -1.04981e-06
-1.38731e-05 8.37334e-05 -2.80144e-07
-1.04981e-06 -2.80144e-07 7.39631e-06
0.000889442 3.33244e-05 -7.4244e-07
3.33244e-05 9.10165e-05 5.6246e-08
-7.4244e-07 5.6246e-08 1.40774e-05
0.00181013 -0.000109188 -4.65403e-06
-0.000109188 0.000105648 1.64597e-06
-4.65403e-06 1.64597e-06 4.3837e-05
0.00079558 -3.30185e-05 -1.43047e-07
-3.30185e-05 3.47882e-05 5.78751e-08
-1.43047e-07 5.78751e-08 -4.40507e-05
0.000871578 -3.38422e-05 4.39738e-07
-3.38422e-05 7.47662e-05 -2.25422e-07
4.39738e-07 -2.25422e-07 -8.71493e-06
0.00224742 -0.0002573 3.30752e-06
-0.0002573 0.000275838 -1.63891e-06
3.30752e-06 -1.63891e-06 0.000210311
7.52821e-05 -0.000150522 1.43617e-06
-0.000150522 -0.000463589 1.58231e-06
1.43617e-06 1.58231e-06 -0.000603225
0.00119267 -9.68056e-05 2.7487e-06
-9.68056e-05 0.000259 -1.1446e-06
2.7487e-06 -1.1446e-06 8.73737e-05
0.000908733 -2.91508e-05 -7.01573e-07
-2.91508e-05 0.0001133 -6.43233e-07
-7.01573e-07 -6.43233e-07 1.08723e-06
0.00315589 -0.000233848 3.40076e-06
-0.000233848 0.00109051 -7.53876e-06
3.40076e-06 -7.53876e-06 0.00091032
0.00175243 -0.000213753 -1.31387e-05
-0.000213753 0.000352057 -1.14998e-07
-1.31387e-05 -1.14998e-07 0.00026582
0.00052731 8.29297e-07 -8.34079e-06
8.29297e-07 -6.75055e-05 6.32909e-06
-8.34079e-06 6.32909e-06 -0.000210674
0.000897502 2.02534e-05 3.77023e-07
2.02534e-05 8.79988e-05 7.41133e-07
3.77023e-07 7.41133e-07 9.20461e-06
0.000747499 -7.48509e-05 1.21555e-06
-7.48509e-05 1.89436e-06 7.97048e-08
1.21555e-06 7.97048e-08 -7.92932e-05
0.000925694 -2.52064e-05 -1.62135e-07
-2.52064e-05 8.90195e-05 1.07554e-06
-1.62135e-07 1.07554e-06 4.75712e-06
0.000892807 2.10525e-06 -8.00858e-05
2.10525e-06 0.00105321 1.01066e-06
-8.00858e-05 1.01066e-06 0.000838715
0.00154867 -6.28321e-05 1.17221e-05
-6.28321e-05 0.00101479 2.45725e-06
1.17221e-05 2.45725e-06 0.00094531
-0.000789905 0.000198297 -4.44892e-05
0.000198297 -0.00173381 2.11592e-05
-4.44892e-05 2.11592e-05 -0.00231377
0.00076398 7.80156e-05 2.54232e-06
7.80156e-05 5.52761e-05 8.37335e-07
2.54232e-06 8.37335e-07 -4.09504e-05
0.000702631 0.000100602 4.33685e-06
0.000100602 6.08491e-05 1.76792e-06
4.33685e-06 1.76792e-06 -8.50514e-05
0.00360726 0.000221506 1.02576e-05
0.000221506 0.000978729 1.42011e-06
1.02576e-05 1.42011e-06 0.00100394
2.10906e-05 0.000107353 9.0092e-06
0.000107353 -0.000427497 5.34866e-06
9.0092e-06 5.34866e-06 -0.000628893
0.00361102 -0.000309397 5.05691e-05
-0.000309397 0.00158089 8.56496e-06
5.05691e-05 8.56496e-06 0.00173734
-0.000158235 -0.000176625 -1.28378e-06
-0.000176625 -0.00113872 6.47055e-06
-1.28378e-06 6.47055e-06 -0.0022012
0.00408306 0.000303598 -6.29729e-05
0.000303598 0.000379889 -5.89831e-05
-6.29729e-05 -5.89831e-05 -0.000464825
-0.000745391 6.3391e-05 1.69317e-05
6.3391e-05 -0.000898566 -9.39098e-06
1.69317e-05 -9.39098e-06 -0.000840975
-0.00245642 -0.000385724 3.68885e-05
-0.000385724 -0.00123849 1.37021e-05
3.68885e-05 1.37021e-05 -0.00128936
0.00121733 -0.000313807 3.15562e-05
-0.000313807 0.00053609 2.3277e-05
3.15562e-05 2.3277e-05 0.000536712
0.00376074 -0.000453018 5.87604e-05
-0.000453018 -7.86499e-05 3.82584e-05
5.87604e-05 3.82584e-05 0.00107584
0.000938952 7.04112e-05 9.96351e-07
7.04112e-05 0.000168727 -1.1529e-06
9.96351e-07 -1.1529e-06 8.1181e-05
-8.75768e-05 -0.0001361 -2.39315e-05
-0.0001361 0.000378325 -7.10997e-06
-2.39315e-05 -7.10997e-06 0.000152436
0.00205374 -3.366e-05 -2.14403e-06
-3.366e-05 0.000244628 -9.7089e-06
-2.14403e-06 -9.7089e-06 -9.39854e-05
0.0010625 0.000127598 -5.46641e-06
0.000127598 3.80745e-05 1.59777e-08
-5.46641e-06 1.59777e-08 -7.83026e-06
0.000696907 9.17545e-05 -1.81172e-06
9.17545e-05 0.000120881 1.23606e-07
-1.81172e-06 1.23606e-07 -5.06604e-05
-0.000166371 9.25118e-05 2.43496e-05
9.25118e-05 -0.000329478 -1.5219e-05
2.43496e-05 -1.5219e-05 -0.000367319
0.00537144 0.000633663 -1.50489e-05
0.000633663 0.0014036 -5.27715e-06
-1.50489e-05 -5.27715e-06 0.000653325
0.00755162 -0.000370597 2.08598e-05
-0.000370597 0.00261346 7.53576e-06
2.08598e-05 7.53576e-06 0.00122005
0.00090151 -0.000390923 1.74636e-06
-0.000390923 -0.00115644 -1.96103e-06
1.74636e-06 -1.96103e-06 -0.000811067
0.00454957 -0.00027346 4.5587e-06
-0.00027346 0.000261069 -9.60664e-07
4.5587e-06 -9.60664e-07 0.00122575
0.0014493 0.000123844 -1.2395e-05
0.000123844 0.000482772 -7.08473e-06
-1.2395e-05 -7.08473e-06 0.000411683
0.00157654 -3.2854e-05 -4.51715e-05
-3.2854e-05 4.99911e-05 -2.03606e-05
-4.51715e-05 -2.03606e-05 -0.000202404
0.00162485 -1.00091e-05 -1.44053e-05
-1.00091e-05 9.93427e-05 -2.62777e-05
-1.44053e-05 -2.62777e-05 -0.000162574
-0.000846109 -2.78443e-05 -1.96115e-05
-2.78443e-05 -0.000538829 -1.68903e-05
-1.96115e-05 -1.68903e-05 -0.000637891
0.0038404 0.000359442 1.55537e-06
0.000359442 0.00127559 4.76029e-05
1.55537e-06 4.76029e-05 0.000877481
0.0086823 -0.000305875 1.8359e-05
-0.000305875 0.00282066 8.21025e-06
1.8359e-05 8.21025e-06 0.00130436
-0.00374567 -0.000258769 -5.29753e-05
-0.000258769 -0.00309631 -1.60263e-05
-5.29753e-05 -1.60263e-05 -0.00346769
0.00452523 3.62194e-05 -1.48145e-06
3.62194e-05 1.31077e-05 -3.97887e-05
-1.48145e-06 -3.97887e-05 0.00106232
0.000986702 5.30457e-05 9.40736e-07
5.30457e-05 0.000142169 2.7754e-06
9.40736e-07 2.7754e-06 7.18687e-05
0.000853841 6.40319e-05 -1.01114e-06
6.40319e-05 7.97752e-05 -7.58345e-07
-1.01114e-06 -7.58345e-07 2.29296e-05
0.000257264 3.04647e-05 9.77614e-07
3.04647e-05 -0.000212376 -3.35026e-06
9.77614e-07 -3.35026e-06 -0.000259298
0.000919066 5.76634e-05 -1.19079e-06
5.76634e-05 8.16324e-05 -5.40792e-07
-1.19079e-06 -5.40792e-07 1.91785e-05
0.000913816 -3.05102e-05 -1.97316e-09
-3.05102e-05 7.97335e-05 6.00679e-07
-1.97316e-09 6.00679e-07 1.06442e-05
0.00100031 -2.14896e-05 -9.78291e-07
-2.14896e-05 0.000122627 9.36666e-07
-9.78291e-07 9.36666e-07 5.90045e-05
0.000890238 -1.76783e-05 -4.36983e-07
-1.76783e-05 6.88519e-05 1.96657e-06
-4.36983e-07 1.96657e-06 1.27111e-05
0.00092679 8.80107e-06 4.13739e-07
8.80107e-06 8.14841e-05 1.08909e-10
4.13739e-07 1.08909e-10 1.43868e-05
0.000878127 -2.29639e-05 -1.57193e-07
-2.29639e-05 4.6357e-05 -9.10005e-08
-1.57193e-07 -9.10005e-08 -1.51176e-05
0.000927918 -2.84577e-05 4.40572e-07
-2.84577e-05 8.70511e-05 2.58196e-07
4.40572e-07 2.58196e-07 3.6998e-05
0.000816042 -3.6663e-05 2.03101e-07
-3.6663e-05 5.23438e-05 -2.19616e-06
2.03101e-07 -2.19616e-06 1.51238e-05
0.000898783 -3.61273e-05 2.79931e-06
-3.61273e-05 5.27974e-05 -2.43305e-06
2.79931e-06 -2.43305e-06 4.90176e-06
0.000800506 3.96838e-05 6.63137e-07
3.96838e-05 1.31772e-05 -8.12826e-07
6.63137e-07 -8.12826e-07 -5.36029e-05
0.000899381 -2.14539e-05 1.00451e-06
-2.14539e-05 7.10926e-05 1.2877e-07
1.00451e-06 1.2877e-07 4.16297e-06
0.00082596 5.27166e-05 -4.25722e-07
5.27166e-05 4.12651e-05 1.2863e-07
-4.25722e-07 1.2863e-07 -2.29889e-05
0.000888773 3.08829e-05 -3.43203e-07
3.08829e-05 6.40566e-05 6.55906e-07
-3.43203e-07 6.55906e-07 1.31805e-06
0.00086268 4.23078e-05 -1.14796e-07
4.23078e-05 5.17027e-05 3.94346e-08
-1.14796e-07 3.94346e-08 -1.55525e-05
0.000820466 5.203e-05 4.38486e-07
5.203e-05 4.594e-05 3.03757e-07
4.38486e-07 3.03757e-07 -2.08073e-05
0.000881862 5.47636e-05 -1.02502e-08
5.47636e-05 6.87558e-05 4.26196e-08
-1.02502e-08 4.26196e-08 4.24219e-06
0.000924144 3.95187e-05 2.31907e-06
3.95187e-05 9.63382e-05 -1.97423e-08
2.31907e-06 -1.97423e-08 2.94744e-05
0.000866674 4.26583e-05 1.54944e-07
4.26583e-05 5.59859e-05 -9.15291e-07
1.54944e-07 -9.15291e-07 -4.56241e-06
0.000853531 -5.22953e-05 8.94096e-07
-5.22953e-05 7.77121e-05 -1.10835e-07
8.94096e-07 -1.10835e-07 -7.96216e-06
0.000911952 7.83248e-06 -3.37022e-08
7.83248e-06 9.70654e-05 -5.24661e-08
-3.37022e-08 -5.24661e-08 1.56576e-05
0.000734565 -3.93007e-05 4.07036e-07
-3.93007e-05 3.38863e-05 2.12464e-06
4.07036e-07 2.12464e-06 -6.89088e-05
0.00100719 -0.000116867 -1.09563e-06
-0.000116867 0.000164028 3.40959e-06
-1.09563e-06 3.40959e-06 3.40967e-05
0.00108091 -2.13965e-05 9.49482e-07
-2.13965e-05 0.000205285 -6.3173e-07
9.49482e-07 -6.3173e-07 0.000112955
0.00070148 -4.99124e-05 2.44955e-07
-4.99124e-05 2.39816e-05 -2.30813e-06
2.44955e-07 -2.30813e-06 -8.27537e-05
0.000814582 2.22216e-05 -5.15969e-07
2.22216e-05 5.66895e-05 -5.69987e-07
-5.15969e-07 -5.69987e-07 -2.17015e-05
0.000649016 2.71887e-05 8.554e-07
2.71887e-05 -4.40599e-05 9.52663e-07
8.554e-07 9.52663e-07 -0.00011175
0.000880379 3.41015e-05 -5.37344e-07
3.41015e-05 8.51746e-05 -3.11802e-07
-5.37344e-07 -3.11802e-07 1.35746e-05
0.000846969 1.26534e-05 -1.79473e-07
1.26534e-05 5.73946e-05 3.28494e-07
-1.79473e-07 3.28494e-07 -3.76811e-06
0.000807005 3.43422e-05 -6.1255e-07
3.43422e-05 2.56996e-05 6.13074e-07
-6.1255e-07 6.13074e-07 -2.26758e-05
0.0008551 -9.649e-06 2.96633e-07
-9.649e-06 6.33534e-05 -2.13347e-07
2.96633e-07 -2.13347e-07 1.47606e-06
0.000819827 4.68245e-06 -3.44369e-07
4.68245e-06 3.02739e-05 3.88308e-08
-3.44369e-07 3.88308e-08 -1.7566e-05
0.000786214 2.5013e-05 -1.0575e-06
2.5013e-05 4.31807e-06 1.5325e-06
-1.0575e-06 1.5325e-06 -2.65268e-05
0.000846322 -1.66261e-05 1.10069e-06
-1.66261e-05 4.22508e-05 -5.05052e-07
1.10069e-06 -5.05052e-07 -5.86565e-06
0.000793579 1.61844e-05 -1.57644e-07
1.61844e-05 3.97964e-06 3.71778e-09
-1.57644e-07 3.71778e-09 -2.60553e-05
0.0013234 2.58537e-05 -6.46825e-06
2.58537e-05 0.000290449 4.28388e-06
-6.46825e-06 4.28388e-06 0.000289875
0.000789433 7.04271e-06 1.04606e-06
7.04271e-06 -2.70668e-07 -1.46858e-06
1.04606e-06 -1.46858e-06 -3.01159e-05
0.00103169 1.87731e-05 -2.82969e-06
1.87731e-05 0.000126896 6.07211e-07
-2.82969e-06 6.07211e-07 0.000125385
0.000902077 1.68371e-05 -1.08582e-06
1.68371e-05 5.77062e-05 1.57816e-06
-1.08582e-06 1.57816e-06 7.27186e-05
0.000732539 1.16461e-05 4.56375e-07
1.16461e-05 -4.02833e-05 -3.11228e-06
4.56375e-07 -3.11228e-06 -4.28994e-05
0.0015118 1.40646e-05 4.41805e-06
1.40646e-05 0.000388664 -1.23956e-06
4.41805e-06 -1.23956e-06 0.000407152
0.00212406 8.50924e-06 4.79703e-06
8.50924e-06 0.000723222 -4.12741e-06
4.79703e-06 -4.12741e-06 0.000744883
0.000884351 -2.56678e-05 5.61025e-07
-2.56678e-05 6.73224e-05 -4.26094e-07
5.61025e-07 -4.26094e-07 1.78391e-05
0.000799518 -9.17198e-06 -3.10626e-07
-9.17198e-06 5.92689e-06 -1.61621e-06
-3.10626e-07 -1.61621e-06 -2.23287e-05
0.000873698 -5.84217e-06 3.7161e-07
-5.84217e-06 6.37092e-05 1.33338e-07
3.7161e-07 1.33338e-07 1.50686e-05
0.000751446 -6.51935e-06 -3.61576e-07
-6.51935e-06 -3.20507e-05 -3.23493e-06
-3.61576e-07 -3.23493e-06 -3.24799e-05
0.000803114 -5.09011e-06 -4.05225e-08
-5.09011e-06 6.90109e-06 4.34355e-09
-4.05225e-08 4.34355e-09 -2.06048e-05
0.000818944 -3.53772e-05 -1.07948e-06
-3.53772e-05 3.46909e-05 1.34993e-06
-1.07948e-06 1.34993e-06 -1.29709e-05
0.00204094 -8.77011e-07 -5.40431e-07
-8.77011e-07 0.000677059 -4.23077e-06
-5.40431e-07 -4.23077e-06 0.000699804
0.000749445 -4.80845e-07 -7.45309e-08
-4.80845e-07 -3.40399e-05 3.65647e-09
-7.45309e-08 3.65647e-09 -3.42315e-05
0.000804739 -1.53237e-06 1.03814e-07
-1.53237e-06 7.6486e-06 1.68377e-06
1.03814e-07 1.68377e-06 -1.97824e-05
0.000750765 5.6045e-06 -1.29787e-07
5.6045e-06 -3.28527e-05 3.28581e-06
-1.29787e-07 3.28581e-06 -3.35447e-05
0.00205509 7.7477e-06 -2.37758e-06
7.7477e-06 0.000685247 -1.97715e-08
-2.37758e-06 -1.97715e-08 0.000707732
0.00207933 1.53839e-05 -1.00063e-05
1.53839e-05 0.000700066 4.15609e-06
-1.00063e-05 4.15609e-06 0.000722011
-0.0012816 9.80076e-05 -3.91162e-05
9.80076e-05 -0.0001354 6.72584e-06
-3.91162e-05 6.72584e-06 -0.000479763
-0.000752996 0.000236586 -5.37242e-06
0.000236586 -0.000180554 3.8419e-06
-5.37242e-06 3.8419e-06 -0.00023581
0.00196698 6.56929e-05 -6.55349e-05
6.56929e-05 6.58955e-05 4.48674e-05
-6.55349e-05 4.48674e-05 -0.000193557
-0.00140491 0.000307419 5.05406e-05
0.000307419 -0.000561798 -2.11583e-05
5.05406e-05 -2.11583e-05 -0.000458687
0.00242387 7.51996e-05 -9.33653e-05
7.51996e-05 0.000345064 8.74414e-06
-9.33653e-05 8.74414e-06 1.43203e-06
0.0020391 -1.05848e-06 4.15722e-05
-1.05848e-06 0.000174857 -4.99638e-06
4.15722e-05 -4.99638e-06 0.000105632
0.00116455 -0.000243338 -6.57605e-05
-0.000243338 -0.000569058 -1.86126e-05
-6.57605e-05 -1.86126e-05 -0.00121422
0.00820108 0.000513438 7.04093e-05
0.000513438 0.00395799 -1.81475e-05
7.04093e-05 -1.81475e-05 0.00402554
-0.00294662 0.000653602 -1.24309e-05
0.000653602 -0.00270929 3.71825e-05
-1.24309e-05 3.71825e-05 -0.0011758
0.00147813 3.03575e-05 -6.32373e-06
3.03575e-05 -0.000186861 -6.87957e-07
-6.32373e-06 -6.87957e-07 -0.000410372
0.00181422 0.000193437 1.74969e-05
0.000193437 -2.46696e-05 -1.7931e-05
1.74969e-05 -1.7931e-05 -0.00139707
0.00470051 0.000752566 -1.14479e-05
0.000752566 0.00140724 -1.34864e-05
-1.14479e-05 -1.34864e-05 0.00179529
0.00178397 0.000402473 -6.74557e-06
0.000402473 -0.00100619 1.69567e-05
-6.74557e-06 1.69567e-05 -0.000171739
0.00260693 -9.03636e-05 -2.08262e-05
-9.03636e-05 0.000145893 5.36295e-06
-2.08262e-05 5.36295e-06 -0.000146632
0.00471793 0.000358598 6.53046e-05
0.000358598 0.00140942 -4.40172e-05
6.53046e-05 -4.40172e-05 -8.16689e-05
-0.00531191 0.000187809 -7.90404e-05
0.000187809 -0.0039935 -1.04384e-05
-7.90404e-05 -1.04384e-05 -0.00371726
0.00134903 0.000254957 -1.99838e-05
0.000254957 -0.00193556 1.96801e-05
-1.99838e-05 1.96801e-05 -0.000999777
0.000923172 -2.16063e-05 9.728e-07
-2.16063e-05 0.000107107 4.06588e-07
9.728e-07 4.06588e-07 2.60445e-05
0.000880976 3.45807e-05 -1.43107e-06
3.45807e-05 8.64269e-05 -3.37509e-07
-1.43107e-06 -3.37509e-07 1.06757e-05
0.00082884 1.37156e-05 7.02601e-07
1.37156e-05 5.14781e-05 1.27371e-08
7.02601e-07 1.27371e-08 -1.04836e-05
0.000879021 5.40995e-05 1.83506e-06
5.40995e-05 9.00422e-05 9.73607e-07
1.83506e-06 9.73607e-07 1.64708e-05
0.000794644 1.28652e-05 -3.58981e-07
1.28652e-05 3.96648e-05 6.50267e-07
-3.58981e-07 6.50267e-07 -4.19247e-05
0.000914803 3.71036e-05 1.87972e-07
3.71036e-05 0.000104745 5.3097e-07
1.87972e-07 5.3097e-07 2.94939e-05
0.000819686 -2.40049e-06 3.47428e-10
-2.40049e-06 4.9844e-05 1.06907e-06
3.47428e-10 1.06907e-06 -2.19068e-05
0.000931495 6.58345e-05 -7.8699e-07
6.58345e-05 0.00011268 4.9594e-07
-7.8699e-07 4.9594e-07 3.87964e-05
0.00090822 2.72342e-05 -3.09962e-07
2.72342e-05 9.98326e-05 2.94636e-07
-3.09962e-07 2.94636e-07 2.92062e-05
0.000768866 -2.00425e-05 -7.91154e-07
-2.00425e-05 2.29656e-05 -2.47173e-07
-7.91154e-07 -2.47173e-07 -4.43479e-05
-0.000169263 -6.18374e-05 1.02959e-05
-6.18374e-05 -0.000906785 -3.86038e-06
1.02959e-05 -3.86038e-06 -0.000948763
0.00175238 -0.000241576 5.56449e-06
-0.000241576 1.93541e-05 1.20217e-06
5.56449e-06 1.20217e-06 -5.36795e-05
0.000908999 -0.000188323 6.825e-06
-0.000188323 -1.84237e-05 1.9129e-06
6.825e-06 1.9129e-06 -0.000161438
0.00114373 -8.84743e-05 6.27891e-06
-8.84743e-05 0.000227893 -2.63094e-07
6.27891e-06 -2.63094e-07 5.90079e-05
0.000980021 -1.90049e-05 7.00108e-07
-1.90049e-05 0.000159411 -4.99953e-07
7.00108e-07 -4.99953e-07 3.71595e-05
0.000810069 -4.08572e-05 -3.84851e-07
-4.08572e-05 4.49813e-05 -5.05917e-07
-3.84851e-07 -5.05917e-07 -4.1026e-05
0.000871412 4.89115e-05 -8.05331e-08
4.89115e-05 7.72235e-05 -9.0203e-08
-8.05331e-08 -9.0203e-08 -3.49877e-06
0.000890804 -3.29266e-05 -2.44326e-07
-3.29266e-05 8.70505e-05 3.42728e-07
-2.44326e-07 3.42728e-07 6.2925e-06
0.0014826 -0.000164339 2.38939e-06
-0.000164339 0.000218781 -6.01735e-07
2.38939e-06 -6.01735e-07 0.000103902
0.000888432 5.64268e-06 -8.07467e-08
5.64268e-06 8.02227e-05 -2.53032e-07
-8.07467e-08 -2.53032e-07 -2.35228e-06
0.000893731 -2.78282e-05 -4.24343e-07
-2.78282e-05 7.63966e-05 -5.19214e-08
-4.24343e-07 -5.19214e-08 -1.23409e-05
0.00162584 -0.000207403 -3.86421e-07
-0.000207403 0.000279074 3.06466e-07
-3.86421e-07 3.06466e-07 0.000198893
0.00105598 -2.3042e-05 -3.04188e-06
-2.3042e-05 0.000192466 1.83213e-06
-3.04188e-06 1.83213e-06 5.35361e-05
0.000820885 -0.000244629 -8.97614e-08
-0.000244629 -0.000138081 -1.02822e-05
-8.97614e-08 -1.02822e-05 -0.000158636
0.00164325 -6.92635e-05 -9.32039e-06
-6.92635e-05 0.000556871 8.26944e-06
-9.32039e-06 8.26944e-06 0.000434138
0.000517523 2.07356e-05 -3.11104e-06
2.07356e-05 -0.000139823 5.94473e-06
-3.11104e-06 5.94473e-06 -0.000223403
0.000878541 -3.73928e-06 3.60257e-07
-3.73928e-06 6.38728e-05 6.43527e-07
3.60257e-07 6.43527e-07 -1.34237e-05
0.000862452 2.82238e-05 -5.61954e-07
2.82238e-05 5.67112e-05 3.53046e-07
-5.61954e-07 3.53046e-07 -2.69595e-05
0.00131821 1.95441e-06 -2.40491e-05
1.95441e-06 -0.000124932 -2.71655e-06
-2.40491e-05 -2.71655e-06 -0.000325865
-0.000212418 -1.19511e-05 -2.08222e-05
-1.19511e-05 0.000529763 -1.27701e-06
-2.08222e-05 -1.27701e-06 0.000226584
-0.00593725 -9.13048e-05 -4.74436e-05
-9.13048e-05 -0.00293651 -2.36714e-06
-4.74436e-05 -2.36714e-06 -0.00285949
0.00065719 7.52139e-05 4.4849e-06
7.52139e-05 2.55428e-05 1.11174e-06
4.4849e-06 1.11174e-06 -6.40129e-05
0.000123807 2.48861e-05 5.42757e-06
2.48861e-05 -0.000161831 3.85064e-06
5.42757e-06 3.85064e-06 -0.000336184
0.00116326 8.89662e-05 1.48162e-05
8.89662e-05 0.000110467 -1.79952e-06
1.48162e-05 -1.79952e-06 4.50762e-05
-0.00121234 -6.87822e-05 2.03376e-05
-6.87822e-05 -9.70739e-05 5.87235e-06
2.03376e-05 5.87235e-06 -0.000465604
0.00509024 -0.000462057 -6.1838e-06
-0.000462057 0.00157964 -1.77108e-05
-6.1838e-06 -1.77108e-05 -1.86329e-05
0.00410994 0.000571669 2.87344e-05
0.000571669 0.000635796 -2.71053e-05
2.87344e-05 -2.71053e-05 8.81825e-05
-0.000159238 6.92331e-05 -1.61907e-05
6.92331e-05 -0.000264848 4.47418e-06
-1.61907e-05 4.47418e-06 -0.000214938
0.00556131 -0.000637677 3.7024e-05
-0.000637677 0.00147814 2.14734e-05
3.7024e-05 2.14734e-05 0.00160991
0.0021758 -3.78188e-05 4.50235e-05
-3.78188e-05 0.000323209 2.99742e-05
4.50235e-05 2.99742e-05 -2.27558e-05
0.00437386 -0.000247466 2.61372e-05
-0.000247466 0.000325521 1.47347e-05
2.61372e-05 1.47347e-05 0.00131026
0.0011757 0.000108624 2.60731e-06
0.000108624 0.000348281 -1.10352e-06
2.60731e-06 -1.10352e-06 0.00027722
0.00160296 -2.89819e-05 2.79722e-06
-2.89819e-05 0.000132921 -5.53338e-06
2.79722e-06 -5.53338e-06 -8.92526e-05
0.00173217 -5.72446e-06 4.16022e-07
-5.72446e-06 0.000102347 4.06623e-06
4.16022e-07 4.06623e-06 -0.000165337
0.00026551 5.08204e-05 -5.77031e-06
5.08204e-05 4.78428e-05 7.16393e-07
-5.77031e-06 7.16393e-07 -5.56704e-05
0.00314283 0.000409636 -7.81841e-06
0.000409636 0.000644414 -2.60615e-05
-7.81841e-06 -2.60615e-05 0.000361717
0.00296858 0.000203511 3.98618e-05
0.000203511 0.000236048 1.83013e-05
3.98618e-05 1.83013e-05 -0.00156538
0.00307879 1.87928e-05 -6.08037e-08
1.87928e-05 -0.00104649 -1.49564e-05
-6.08037e-08 -1.49564e-05 0.000111796
0.000436724 -0.00021491 -1.14266e-05
-0.00021491 -0.000880432 1.76647e-05
-1.14266e-05 1.76647e-05 -0.000963546
0.000583485 4.16768e-05 -3.19688e-06
4.16768e-05 0.000141204 -8.81735e-06
-3.19688e-06 -8.81735e-06 0.000100343
0.00116729 -8.29633e-06 -8.39586e-06
-8.29633e-06 0.000102981 -1.0285e-05
-8.39586e-06 -1.0285e-05 1.73502e-05
0.00170874 8.21405e-06 1.00989e-06
8.21405e-06 1.6347e-05 -2.25418e-05
1.00989e-06 -2.25418e-05 -0.000236938
0.00136363 0.00023223 1.90709e-05
0.00023223 -0.0018443 -2.25294e-05
1.90709e-05 -2.25294e-05 -0.000988747
-0.00165771 3.34845e-05 7.46744e-06
3.34845e-05 -0.000815499 -1.30904e-05
7.46744e-06 -1.30904e-05 -0.00107024
0.00856254 0.000110465 7.90837e-05
0.000110465 0.00286171 2.67056e-05
7.90837e-05 2.67056e-05 0.00136114
-0.00273807 -7.92113e-05 1.8173e-05
-7.92113e-05 -0.000967892 -2.73668e-05
1.8173e-05 -2.73668e-05 -0.0012956
0.00116677 9.01622e-05 4.24608e-06
9.01622e-05 0.000242788 3.90017e-06
4.24608e-06 3.90017e-06 0.000185518
0.000578638 5.62534e-05 -1.95623e-06
5.62534e-05 -4.70698e-05 1.35447e-06
-1.95623e-06 1.35447e-06 -9.84853e-05
0.000513982 3.28209e-05 -3.47015e-06
3.28209e-05 -3.76742e-05 -7.17478e-06
-3.47015e-06 -7.17478e-06 -8.77931e-05
0.000917358 7.70537e-05 -2.00787e-07
7.70537e-05 7.93822e-05 4.59925e-07
-2.00787e-07 4.59925e-07 1.056e-05
0.000884369 -3.16862e-06 -3.90431e-07
-3.16862e-06 4.92197e-05 8.0938e-07
-3.90431e-07 8.0938e-07 -1.15912e-05
0.000834025 -3.90004e-05 -2.37952e-06
-3.90004e-05 3.62935e-05 5.39302e-06
-2.37952e-06 5.39302e-06 -1.48815e-05
0.000853877 4.28758e-05 1.31922e-07
4.28758e-05 4.02323e-05 5.88324e-08
1.31922e-07 5.88324e-08 -2.55142e-05
0.000807033 -4.46227e-05 1.19931e-07
-4.46227e-05 4.93842e-06 -8.20316e-07
1.19931e-07 -8.20316e-07 -4.42987e-05
0.000912534 -6.35239e-05 3.16026e-06
-6.35239e-05 9.06395e-05 1.94728e-06
3.16026e-06 1.94728e-06 4.47027e-05
0.000982014 -4.64074e-06 1.25332e-06
-4.64074e-06 0.000139882 -1.69915e-06
1.25332e-06 -1.69915e-06 0.000113582
0.000869348 1.01383e-05 2.55559e-07
1.01383e-05 4.25394e-05 -2.11961e-06
2.55559e-07 -2.11961e-06 -1.12953e-05
0.000872893 4.62806e-05 -1.57236e-07
4.62806e-05 5.4226e-05 8.67726e-07
-1.57236e-07 8.67726e-07 -1.08293e-05
0.000832563 5.47871e-05 -1.87175e-07
5.47871e-05 5.39448e-05 7.29789e-08
-1.87175e-07 7.29789e-08 -1.36568e-05
0.000880893 5.83688e-05 -8.5112e-07
5.83688e-05 6.82853e-05 5.62578e-07
-8.5112e-07 5.62578e-07 3.3693e-06
0.000867502 3.83995e-05 2.6311e-07
3.83995e-05 5.53472e-05 1.58542e-07
2.6311e-07 1.58542e-07 -5.09941e-06
0.000939223 4.02624e-05 7.2214e-07
4.02624e-05 0.000103198 2.36427e-07
7.2214e-07 2.36427e-07 3.72454e-05
0.000710644 -2.27556e-05 1.48071e-06
-2.27556e-05 2.03678e-05 7.4129e-07
1.48071e-06 7.4129e-07 -4.83566e-05
0.000784949 -2.45864e-05 -5.81649e-07
-2.45864e-05 4.48188e-05 -1.00527e-06
-5.81649e-07 -1.00527e-06 -3.7358e-05
0.000805586 -4.99149e-05 2.27387e-06
-4.99149e-05 6.72429e-05 8.20544e-07
2.27387e-06 8.20544e-07 -5.72728e-05
0.0010048 -6.01754e-06 -1.74664e-06
-6.01754e-06 0.000147407 -5.47842e-07
-1.74664e-06 -5.47842e-07 6.55969e-05
0.000997536 -5.58108e-05 -4.21254e-07
-5.58108e-05 0.000166754 8.67713e-07
-4.21254e-07 8.67713e-07 6.23963e-05
0.000609729 -9.74202e-05 -4.92939e-07
-9.74202e-05 -4.51829e-05 2.67183e-06
-4.92939e-07 2.67183e-06 -0.000182804
0.000831012 -0.000107499 -2.80648e-06
-0.000107499 6.93604e-05 4.21878e-07
-2.80648e-06 4.21878e-07 -6.35447e-05
0.000956005 -8.07037e-05 -7.92735e-07
-8.07037e-05 0.000144236 1.51069e-06
-7.92735e-07 1.51069e-06 3.81155e-05
0.00085194 -0.000107048 1.27475e-07
-0.000107048 8.37036e-05 4.08906e-07
1.27475e-07 4.08906e-07 -4.50683e-05
0.000895304 5.73385e-07 8.87829e-07
5.73385e-07 9.27805e-05 1.13289e-06
8.87829e-07 1.13289e-06 1.57184e-05
0.000983916 -2.58625e-05 -9.44005e-07
-2.58625e-05 0.000153616 -6.54737e-07
-9.44005e-07 -6.54737e-07 5.96288e-05
0.000726516 -5.47911e-05 3.48447e-07
-5.47911e-05 3.99709e-05 -3.72662e-06
3.48447e-07 -3.72662e-06 -6.38422e-05
0.0010778 2.42675e-05 -1.70155e-06
2.42675e-05 0.000197445 -1.61276e-06
-1.70155e-06 -1.61276e-06 0.000120528
0.000756471 2.19147e-05 7.87769e-08
2.19147e-05 1.33765e-05 -1.03493e-08
7.87769e-08 -1.03493e-08 -5.31343e-05
0.000802813 4.28916e-05 -1.14466e-07
4.28916e-05 2.83854e-05 8.09343e-07
-1.14466e-07 8.09343e-07 -2.40071e-05
0.000864356 -3.13009e-06 5.40766e-08
-3.13009e-06 6.84138e-05 -1.74407e-07
5.40766e-08 -1.74407e-07 5.86057e-06
0.000818872 1.47196e-05 -5.33591e-07
1.47196e-05 3.23495e-05 -6.5549e-08
-5.33591e-07 -6.5549e-08 -1.61896e-05
0.000781025 3.01984e-05 -1.25866e-06
3.01984e-05 6.47705e-06 1.51362e-06
-1.25866e-06 1.51362e-06 -2.56519e-05
0.000833955 -1.43012e-05 1.12683e-06
-1.43012e-05 3.808e-05 -6.08739e-07
1.12683e-06 -6.08739e-07 -1.01251e-05
0.00078973 2.3747e-05 -1.03164e-07
2.3747e-05 5.58524e-06 4.84863e-09
-1.03164e-07 4.84863e-09 -2.51093e-05
0.00128692 3.23644e-05 -7.25293e-06
3.23644e-05 0.000276788 3.00976e-06
-7.25293e-06 3.00976e-06 0.000275202
0.000794659 1.26413e-05 1.14701e-06
1.26413e-05 4.08917e-06 -1.48823e-06
1.14701e-06 -1.48823e-06 -2.57814e-05
0.00102588 2.48711e-05 -3.49347e-06
2.48711e-05 0.000127762 5.63246e-07
-3.49347e-06 5.63246e-07 0.000125698
0.000891032 2.25328e-05 -1.62618e-06
2.25328e-05 5.65619e-05 1.57363e-06
-1.62618e-06 1.57363e-06 7.07594e-05
0.0007309 1.72678e-05 6.96187e-07
1.72678e-05 -3.84269e-05 -3.13264e-06
6.96187e-07 -3.13264e-06 -4.13644e-05
0.00150051 2.1039e-05 5.84526e-06
2.1039e-05 0.000385836 -1.16722e-06
5.84526e-06 -1.16722e-06 0.00040378
0.00211457 1.67047e-05 8.48992e-06
1.67047e-05 0.000720245 -4.02824e-06
8.48992e-06 -4.02824e-06 0.00074155
0.000686624 -8.63695e-07 -3.61773e-07
-8.63695e-07 -3.55455e-05 -9.76269e-07
-3.61773e-07 -9.76269e-07 -9.31714e-05
0.000566763 -1.40488e-05 -2.74021e-07
-1.40488e-05 -0.000117961 -2.05477e-06
-2.74021e-07 -2.05477e-06 -0.000149602
0.000908448 -1.22842e-05 6.43774e-10
-1.22842e-05 8.22189e-05 7.35326e-08
6.43774e-10 7.35326e-08 3.1249e-05
0.000750729 -1.22452e-05 -3.75907e-07
-1.22452e-05 -3.01428e-05 -3.21587e-06
-3.75907e-07 -3.21587e-06 -3.15894e-05
0.000683243 -9.49141e-06 7.21785e-08
-9.49141e-06 -5.6811e-05 1.42621e-08
7.21785e-08 1.42621e-08 -8.60085e-05
0.000677245 -4.27125e-05 2.20346e-07
-4.27125e-05 -4.11079e-05 8.4731e-07
2.20346e-07 8.4731e-07 -9.16722e-05
0.00204619 -8.83737e-06 -4.7705e-06
-8.83737e-06 0.000680984 -4.19513e-06
-4.7705e-06 -4.19513e-06 0.000703457
0.000748199 -6.25977e-06 -1.70312e-07
-6.25977e-06 -3.387e-05 -2.09143e-09
-1.70312e-07 -2.09143e-09 -3.42706e-05
0.000809038 -5.87722e-06 1.14103e-07
-5.87722e-06 1.01603e-05 1.66203e-06
1.14103e-07 1.66203e-06 -1.73681e-05
0.00204077 -3.10047e-07 -2.28442e-06
-3.10047e-07 0.000676956 -5.11479e-10
-2.28442e-06 -5.11479e-10 0.000699697
0.000751059 -1.83785e-07 1.3157e-07
-1.83785e-07 -3.31815e-05 3.28185e-06
1.3157e-07 3.28185e-06 -3.33878e-05
0.00205912 8.2818e-06 -4.84842e-06
8.2818e-06 0.000687636 4.23876e-06
-4.84842e-06 4.23876e-06 0.000710035
0.00104093 2.44994e-05 -4.33018e-05
2.44994e-05 -0.000205284 1.62076e-05
-4.33018e-05 1.62076e-05 -0.000431765
0.00125556 0.0001689 -7.70892e-07
0.0001689 0.00107525 -4.01848e-06
-7.70892e-07 -4.01848e-06 0.000994023
0.000661819 -9.17557e-05 2.44592e-05
-9.17557e-05 0.000619426 -1.18288e-05
2.44592e-05 -1.18288e-05 0.000394999
0.000854189 1.92532e-05 -7.69322e-08
1.92532e-05 6.37545e-05 4.33715e-07
-7.69322e-08 4.33715e-07 -8.78426e-06
0.00189839 3.54178e-05 -1.87515e-05
3.54178e-05 0.000236581 2.921e-05
-1.87515e-05 2.921e-05 2.10462e-05
0.00197541 5.88085e-05 -1.5374e-05
5.88085e-05 0.000105474 2.66987e-06
-1.5374e-05 2.66987e-06 -0.000203264
0.00148122 0.000376426 6.03112e-05
0.000376426 0.000780128 -4.11004e-05
6.03112e-05 -4.11004e-05 0.0011538
0.00309639 -1.8607e-05 -3.0964e-05
-1.8607e-05 0.000433095 1.47715e-06
-3.0964e-05 1.47715e-06 0.00018526
0.00913268 0.00048775 2.17258e-05
0.00048775 0.0034477 -2.25118e-05
2.17258e-05 -2.25118e-05 0.00226557
-0.00241228 0.000434802 2.83387e-05
0.000434802 -0.00213651 -1.09505e-06
2.83387e-05 -1.09505e-06 -0.00163033
0.00294289 0.000429824 3.74571e-05
0.000429824 -0.000356295 -2.11886e-05
3.74571e-05 -2.11886e-05 0.00051399
0.00284795 -0.000144084 -4.39572e-05
-0.000144084 -1.59343e-05 2.14957e-06
-4.39572e-05 2.14957e-06 -0.000528698
0.00705207 0.000336085 2.46156e-05
0.000336085 0.00255989 -1.21694e-05
2.46156e-05 -1.21694e-05 0.00123191
0.00445068 0.000524169 -9.52126e-07
0.000524169 0.000412836 -8.9678e-06
-9.52126e-07 -8.9678e-06 0.00061007
0.00299498 0.000265946 -8.22973e-06
0.000265946 -0.00100498 2.4015e-06
-8.22973e-06 2.4015e-06 -7.81173e-05
0.00403386 -0.000356793 1.60067e-05
-0.000356793 0.00054133 -2.23606e-05
1.60067e-05 -2.23606e-05 -0.000181282
0.00740979 0.000213581 3.04031e-05
0.000213581 0.00290659 3.13254e-06
3.04031e-05 3.13254e-06 0.00100793
0.00187086 0.000172018 -1.75202e-06
0.000172018 -0.000527886 2.3619e-05
-1.75202e-06 2.3619e-05 -0.000524308
0.00451183 5.56133e-05 -1.83694e-06
5.56133e-05 -6.95541e-05 2.26475e-05
-1.83694e-06 2.26475e-05 0.00100067
0.000893599 -2.52528e-05 3.47405e-07
-2.52528e-05 8.64537e-05 4.76974e-07
3.47405e-07 4.76974e-07 3.82005e-06
0.000885738 -3.71165e-05 5.01689e-07
-3.71165e-05 8.97146e-05 1.27259e-08
5.01689e-07 1.27259e-08 6.92352e-06
0.000911101 4.91863e-05 -1.02606e-06
4.91863e-05 0.000104648 -3.46051e-08
-1.02606e-06 -3.46051e-08 2.85379e-05
0.000857453 -1.93913e-05 -4.83898e-07
-1.93913e-05 6.35794e-05 2.39639e-07
-4.83898e-07 2.39639e-07 -1.18553e-05
0.000890314 4.33051e-05 -5.76797e-07
4.33051e-05 9.15931e-05 3.35356e-07
-5.76797e-07 3.35356e-07 1.10124e-05
0.000929337 2.08684e-05 7.44544e-07
2.08684e-05 0.000114306 8.15918e-07
7.44544e-07 8.15918e-07 3.86269e-05
0.000976423 5.91404e-05 -5.46549e-07
5.91404e-05 0.000135125 1.10746e-07
-5.46549e-07 1.10746e-07 6.23274e-05
0.00101127 6.65342e-05 8.44072e-07
6.65342e-05 0.000159007 8.90944e-07
8.44072e-07 8.90944e-07 8.65815e-05
-0.000435307 -8.37668e-05 1.83643e-05
-8.37668e-05 -0.000787355 -6.9493e-06
1.83643e-05 -6.9493e-06 -0.000838336
0.00152367 -0.000203841 6.21709e-06
-0.000203841 0.000215358 -1.65302e-06
6.21709e-06 -1.65302e-06 0.000144722
0.00088089 -0.000107178 -1.91368e-06
-0.000107178 8.94479e-05 -1.92853e-07
-1.91368e-06 -1.92853e-07 3.38757e-06
0.00173935 -4.79725e-05 3.49829e-06
-4.79725e-05 0.000534575 -1.64862e-06
3.49829e-06 -1.64862e-06 0.000401269
0.00079343 -3.69582e-05 -5.57637e-07
-3.69582e-05 2.40255e-05 -7.21135e-07
-5.57637e-07 -7.21135e-07 -6.71804e-05
0.00098086 -2.25145e-05 -8.36519e-07
-2.25145e-05 0.000126042 3.41648e-08
-8.36519e-07 3.41648e-08 4.6997e-05
0.000942622 8.06888e-06 2.65961e-08
8.06888e-06 0.00010395 -2.55294e-07
2.65961e-08 -2.55294e-07 2.3841e-05
0.000790576 -0.00025428 -4.29194e-06
-0.00025428 -0.000169416 3.325e-07
-4.29194e-06 3.325e-07 -0.000209723
0.000890394 2.19044e-05 1.03183e-07
2.19044e-05 7.82634e-05 -2.27179e-07
1.03183e-07 -2.27179e-07 -7.6336e-06
0.00101412 -2.39373e-05 -4.37761e-07
-2.39373e-05 0.00011877 1.56309e-07
-4.37761e-07 1.56309e-07 3.01977e-05
0.000630487 -6.19563e-05 9.06145e-07
-6.19563e-05 1.18345e-05 2.93594e-06
9.06145e-07 2.93594e-06 -9.32381e-05
0.00106425 -2.03486e-05 2.24297e-08
-2.03486e-05 0.000158993 7.55958e-07
2.24297e-08 7.55958e-07 8.67543e-05
-0.000185021 -0.000262155 3.48036e-05
-0.000262155 -0.000495318 -1.78541e-05
3.48036e-05 -1.78541e-05 -0.000485365
0.00136913 -2.04069e-05 -1.03131e-05
-2.04069e-05 0.000546289 1.37834e-05
-1.03131e-05 1.37834e-05 0.000422245
0.000558088 4.61105e-06 -1.17748e-06
4.61105e-06 -0.000123988 3.23652e-06
-1.17748e-06 3.23652e-06 -0.000194712
0.000921694 8.86071e-05 1.33052e-06
8.86071e-05 9.15788e-05 1.03289e-06
1.33052e-06 1.03289e-06 1.35791e-05
0.00139687 -1.35966e-06 -7.78094e-06
-1.35966e-06 0.000267915 4.11299e-07
-7.78094e-06 4.11299e-07 0.00021536
0.00114614 -9.51335e-06 2.2344e-05
-9.51335e-06 -0.000184001 -1.72803e-06
2.2344e-05 -1.72803e-06 -0.000385855
-0.00138791 -2.15707e-05 2.08398e-05
-2.15707e-05 -2.72772e-05 2.58095e-07
2.08398e-05 2.58095e-07 -0.000425162
0.000665574 7.73372e-05 8.73017e-06
7.73372e-05 9.11915e-05 8.80325e-07
8.73017e-06 8.80325e-07 2.01358e-05
0.000522011 0.000100954 1.61288e-05
0.000100954 0.000194444 9.38441e-06
1.61288e-05 9.38441e-06 8.07319e-05
0.00164921 -2.74182e-05 4.00575e-05
-2.74182e-05 0.00021461 9.13964e-06
4.00575e-05 9.13964e-06 2.61521e-05
0.00785983 -0.000494778 6.14738e-05
-0.000494778 0.00280615 2.32874e-05
6.14738e-05 2.32874e-05 0.00116931
0.00233921 0.000408149 -6.2305e-05
0.000408149 0.000216532 -7.31102e-05
-6.2305e-05 -7.31102e-05 -0.000456524
0.003496 -0.00031147 1.5738e-05
-0.00031147 0.00030096 4.38902e-05
1.5738e-05 4.38902e-05 0.000132762
0.00184106 -2.0676e-06 1.3455e-05
-2.0676e-06 0.000106796 3.4522e-05
1.3455e-05 3.4522e-05 -0.00016648
0.00171372 1.21328e-05 1.52605e-06
1.21328e-05 -0.00207988 2.81093e-07
1.52605e-06 2.81093e-07 -0.000833447
0.000706754 7.1351e-05 2.28519e-06
7.1351e-05 0.000192307 2.02038e-07
2.28519e-06 2.02038e-07 0.000140938
0.0011314 -6.64652e-06 -1.18589e-06
-6.64652e-06 5.81545e-05 -3.2644e-06
-1.18589e-06 -3.2644e-06 -2.11428e-05
0.00171882 7.75858e-06 4.79571e-06
7.75858e-06 0.000129934 1.88083e-06
4.79571e-06 1.88083e-06 -7.99372e-05
-0.000619157 7.864e-05 -8.8971e-06
7.864e-05 -0.000236013 -3.01629e-06
-8.8971e-06 -3.01629e-06 -0.000407998
0.00297855 0.000246676 5.64139e-06
0.000246676 -0.000958237 -2.83993e-06
5.64139e-06 -2.83993e-06 -8.04788e-05
0.00525832 0.000457975 4.25089e-05
0.000457975 0.00121109 5.01154e-06
4.25089e-05 5.01154e-06 -0.000289672
0.002894 0.00013648 -5.14167e-05
0.00013648 0.00088702 -5.48291e-06
-5.14167e-05 -5.48291e-06 0.000597818
0.00019148 6.60465e-05 -4.14253e-06
6.60465e-05 5.88346e-05 -1.28131e-05
-4.14253e-06 -1.28131e-05 -3.51791e-05
0.00106355 1.86339e-06 -2.72626e-06
1.86339e-06 0.000116631 -6.77943e-06
-2.72626e-06 -6.77943e-06 3.52291e-05
0.0019162 2.78408e-05 1.74891e-05
2.78408e-05 0.00023426 -2.89174e-05
1.74891e-05 -2.89174e-05 2.42462e-05
0.00347798 0.000395724 4.97492e-05
0.000395724 6.42286e-05 -3.0844e-05
4.97492e-05 -3.0844e-05 0.000835719
0.00250252 0.000252363 -1.00616e-05
0.000252363 -0.000287722 -2.86734e-05
-1.00616e-05 -2.86734e-05 -0.000214908
0.0019272 0.000288654 1.3619e-05
0.000288654 0.000224428 -1.44221e-05
1.3619e-05 -1.44221e-05 0.000307206
0.00240159 -0.000100637 0.000109317
-0.000100637 0.000833032 2.45811e-05
0.000109317 2.45811e-05 -0.00116815
0.000677375 7.53163e-05 9.93151e-07
7.53163e-05 1.6402e-06 6.65883e-06
9.93151e-07 6.65883e-06 -5.34693e-05
0.000676708 9.3863e-06 3.16594e-06
9.3863e-06 4.6706e-05 1.5038e-06
3.16594e-06 1.5038e-06 -2.83958e-07
0.000630519 -2.85865e-05 1.05702e-05
-2.85865e-05 0.000187053 -8.93222e-06
1.05702e-05 -8.93222e-06 0.00011821
0.000904196 1.93502e-05 -3.7288e-07
1.93502e-05 6.3909e-05 9.04792e-07
-3.7288e-07 9.04792e-07 3.98541e-07
0.000732382 -4.36481e-05 -1.25868e-06
-4.36481e-05 -3.65638e-05 2.38066e-06
-1.25868e-06 2.38066e-06 -8.53151e-05
0.00106059 -7.00821e-05 -2.21631e-06
-7.00821e-05 0.00015706 4.84301e-06
-2.21631e-06 4.84301e-06 0.000105054
0.000891392 -3.1856e-06 -2.17372e-07
-3.1856e-06 5.80883e-05 -3.58546e-07
-2.17372e-07 -3.58546e-07 3.14146e-06
0.000655555 -1.09872e-05 -1.81318e-06
-1.09872e-05 -4.59732e-05 2.85566e-06
-1.81318e-06 2.85566e-06 -6.83143e-05
0.000626466 -6.25962e-05 2.04345e-06
-6.25962e-05 4.37508e-05 -1.90684e-06
2.04345e-06 -1.90684e-06 -5.81737e-05
0.00088412 3.09347e-05 1.56093e-07
3.09347e-05 6.36921e-05 1.15402e-06
1.56093e-07 1.15402e-06 3.12274e-06
0.00096176 5.19483e-05 -3.45063e-07
5.19483e-05 0.000115199 1.02796e-06
-3.45063e-07 1.02796e-06 4.93674e-05
0.00105933 -2.96079e-05 6.64142e-07
-2.96079e-05 0.000197215 4.32316e-07
6.64142e-07 4.32316e-07 0.000123825
0.000449424 -2.91214e-05 3.60131e-06
-2.91214e-05 -5.13734e-05 1.65812e-06
3.60131e-06 1.65812e-06 -0.000197071
0.000677209 1.83251e-06 -4.7323e-06
1.83251e-06 -8.32727e-06 -8.91084e-07
-4.7323e-06 -8.91084e-07 -8.72807e-05
0.000501422 -4.79737e-05 3.14115e-07
-4.79737e-05 -8.93375e-05 -2.74071e-07
3.14115e-07 -2.74071e-07 -0.000206268
0.00105272 -0.000133762 1.9794e-06
-0.000133762 0.000196882 9.98205e-07
1.9794e-06 9.98205e-07 2.84342e-05
0.00112666 -0.000136707 -2.82083e-06
-0.000136707 0.000168922 3.33768e-06
-2.82083e-06 3.33768e-06 9.51318e-06
0.00129012 -7.45981e-05 -1.50233e-06
-7.45981e-05 0.000315529 -1.18075e-06
-1.50233e-06 -1.18075e-06 0.000209461
0.000771647 -0.000107593 -4.17378e-07
-0.000107593 3.34213e-05 2.54285e-07
-4.17378e-07 2.54285e-07 -0.000106551
0.00140032 -0.000143376 2.5572e-07
-0.000143376 0.000364605 -4.56751e-07
2.5572e-07 -4.56751e-07 0.000231808
0.000553834 -7.82593e-05 -1.19393e-06
-7.82593e-05 -6.02703e-05 4.38873e-07
-1.19393e-06 4.38873e-07 -0.000176239
0.000904058 -0.000111612 2.00574e-07
-0.000111612 0.00010696 -1.246e-07
2.00574e-07 -1.246e-07 -2.40317e-05
0.000897555 -5.96098e-06 -3.52913e-07
-5.96098e-06 9.72499e-05 7.78975e-07
-3.52913e-07 7.78975e-07 1.30611e-05
0.00101203 -7.94702e-05 -1.37392e-06
-7.94702e-05 0.000171806 1.24942e-06
-1.37392e-06 1.24942e-06 6.5407e-05
0.000695726 -9.72385e-05 -3.72322e-07
-9.72385e-05 2.68334e-06 -1.18052e-06
-3.72322e-07 -1.18052e-06 -0.000124919
0.000816185 4.20742e-05 1.67129e-07
4.20742e-05 4.03378e-05 1.05289e-06
1.67129e-07 1.05289e-06 -1.87764e-05
0.000779047 1.15371e-06 6.793e-07
1.15371e-06 3.07935e-05 3.28194e-08
6.793e-07 3.28194e-08 -4.64434e-05
0.000886608 -3.03519e-05 6.97739e-07
-3.03519e-05 0.000101825 -2.18302e-06
6.97739e-07 -2.18302e-06 6.13648e-06
0.000861443 1.52484e-05 -1.51426e-07
1.52484e-05 6.94433e-05 -8.58571e-07
-1.51426e-07 -8.58571e-07 4.19093e-06
0.000816215 2.39876e-05 -4.08665e-07
2.39876e-05 3.47488e-05 -1.5256e-07
-4.08665e-07 -1.5256e-07 -1.71562e-05
0.000771361 3.71124e-05 -1.23605e-06
3.71124e-05 7.77059e-06 1.47164e-06
-1.23605e-06 1.47164e-06 -2.68194e-05
0.000823425 -3.56534e-06 7.58735e-07
-3.56534e-06 3.51955e-05 -7.87215e-07
7.58735e-07 -7.87215e-07 -1.35396e-05
0.000782321 3.09636e-05 -5.88804e-08
3.09636e-05 6.89209e-06 -4.33173e-09
-5.88804e-08 -4.33173e-09 -2.52406e-05
0.000704643 3.27969e-05 -1.29893e-06
3.27969e-05 -3.54371e-05 3.23331e-06
-1.29893e-06 3.23331e-06 -4.17154e-05
0.000793472 2.20188e-05 1.10489e-06
2.20188e-05 6.94285e-06 -1.49473e-06
1.10489e-06 -1.49473e-06 -2.35825e-05
0.000724729 2.81983e-05 1.24993e-07
2.81983e-05 -3.1689e-05 1.60973e-08
1.24993e-07 1.60973e-08 -3.63068e-05
0.00200149 4.25636e-05 -4.7387e-06
4.25636e-05 0.000672149 1.52089e-06
-4.7387e-06 1.52089e-06 0.000690725
0.000730802 2.29298e-05 9.13146e-07
2.29298e-05 -3.44065e-05 -3.14656e-06
9.13146e-07 -3.14656e-06 -3.79167e-05
0.00148376 2.77606e-05 7.10618e-06
2.77606e-05 0.000381353 -1.08207e-06
7.10618e-06 -1.08207e-06 0.000398513
0.00209626 2.46526e-05 1.20148e-05
2.46526e-05 0.000713763 -3.88704e-06
1.20148e-05 -3.88704e-06 0.000734506
0.000716274 -2.0716e-05 -1.50214e-07
-2.0716e-05 -2.67979e-05 -6.99052e-07
-1.50214e-07 -6.99052e-07 -8.24009e-05
0.0005442 -1.79489e-05 -2.82712e-07
-1.79489e-05 -0.00012811 -2.0001e-06
-2.82712e-07 -2.0001e-06 -0.000162383
0.000800643 -2.75463e-06 -2.94377e-07
-2.75463e-06 2.57749e-05 -5.18656e-07
-2.94377e-07 -5.18656e-07 -3.09469e-05
0.000745622 -1.7976e-05 -4.2622e-07
-1.7976e-05 -2.92609e-05 -3.2346e-06
-4.2622e-07 -3.2346e-06 -3.23877e-05
0.000557848 -1.41646e-05 3.5858e-08
-1.41646e-05 -0.00012273 -6.01409e-07
3.5858e-08 -6.01409e-07 -0.000154643
0.000924412 -6.88955e-07 -1.371e-07
-6.88955e-07 9.39952e-05 6.54866e-07
-1.371e-07 6.54866e-07 4.07623e-05
0.00207061 -1.69438e-05 -8.45751e-06
-1.69438e-05 0.000696711 -4.15326e-06
-8.45751e-06 -4.15326e-06 0.000718418
0.000743753 -1.19602e-05 -1.03995e-07
-1.19602e-05 -3.39759e-05 -1.19902e-08
-1.03995e-07 -1.19902e-08 -3.53605e-05
0.000564369 -9.6368e-06 2.15357e-07
-9.6368e-06 -0.000120875 1.54481e-06
2.15357e-07 1.54481e-06 -0.000151011
0.00204243 -8.32228e-06 -2.44493e-06
-8.32228e-06 0.000678734 1.99887e-08
-2.44493e-06 1.99887e-08 0.000701278
0.000745751 -6.00641e-06 1.95517e-07
-6.00641e-06 -3.52397e-05 3.25651e-06
1.95517e-07 3.25651e-06 -3.56188e-05
0.00204054 2.58727e-07 -6.11146e-07
2.58727e-07 0.000676816 4.24821e-06
-6.11146e-07 4.24821e-06 0.000699545
0.00112035 1.57999e-05 -1.07222e-05
1.57999e-05 1.30081e-05 1.1409e-05
-1.07222e-05 1.1409e-05 -6.75051e-05
0.00127213 2.56124e-05 4.28411e-06
2.56124e-05 -6.3017e-05 -1.50253e-06
4.28411e-06 -1.50253e-06 -0.000288812
0.00113439 0.000134589 4.7054e-05
0.000134589 0.00112073 -1.54262e-05
4.7054e-05 -1.54262e-05 0.000994325
0.000873367 1.82599e-05 2.16637e-07
1.82599e-05 7.13421e-05 2.89115e-08
2.16637e-07 2.89115e-08 1.38184e-06
0.000797129 -1.06307e-05 -6.39873e-08
-1.06307e-05 2.68027e-05 1.59345e-07
-6.39873e-08 1.59345e-07 -4.22022e-05
0.000937544 2.86534e-05 -5.98687e-07
2.86534e-05 0.000110683 8.93768e-07
-5.98687e-07 8.93768e-07 3.49778e-05
0.00174185 2.00863e-05 3.08898e-06
2.00863e-05 7.77424e-05 4.07997e-05
3.08898e-06 4.07997e-05 -0.000198542
0.00189376 3.69297e-05 -5.91475e-06
3.69297e-05 0.000230504 3.12489e-06
-5.91475e-06 3.12489e-06 1.1275e-05
0.00208401 5.647e-05 3.43353e-05
5.647e-05 0.00019682 -3.50994e-05
3.43353e-05 -3.50994e-05 -0.000149903
0.00410018 -0.000176931 -5.00503e-05
-0.000176931 0.000714118 6.29007e-06
-5.00503e-05 6.29007e-06 0.000249004
-0.000373051 0.000109746 -2.603e-05
0.000109746 -0.000715526 1.06729e-05
-2.603e-05 1.06729e-05 -0.00227011
0.00486373 0.000587194 6.37145e-05
0.000587194 0.00108807 -2.11787e-05
6.37145e-05 -2.11787e-05 0.00117397
0.00149099 0.000202244 1.10328e-05
0.000202244 -0.00197183 -2.38545e-05
1.10328e-05 -2.38545e-05 -0.000995371
0.00396087 -0.000413048 -1.05474e-05
-0.000413048 0.000785464 3.57664e-06
-1.05474e-05 3.57664e-06 0.00033162
0.0059436 9.75051e-05 1.63684e-05
9.75051e-05 0.0019462 -1.29451e-05
1.63684e-05 -1.29451e-05 0.000389045
0.000306211 9.69781e-05 -1.08147e-05
9.69781e-05 -0.000737306 -1.9966e-06
-1.08147e-05 -1.9966e-06 -0.000812627
0.00311682 3.33115e-05 -3.31744e-06
3.33115e-05 -0.00105216 9.58874e-07
-3.31744e-06 9.58874e-07 9.09582e-05
0.00225851 -0.0004322 -2.48043e-05
-0.0004322 -0.000226462 -4.44719e-05
-2.48043e-05 -4.44719e-05 -0.000679432
0.00866869 -0.000154929 6.76946e-05
-0.000154929 0.0035528 5.18354e-08
6.76946e-05 5.18354e-08 0.00162921
-0.00260601 7.50367e-05 2.04887e-05
7.50367e-05 -0.000985104 1.30498e-05
2.04887e-05 1.30498e-05 -0.00134248
0.00141677 -0.000199366 7.81868e-06
-0.000199366 -0.0017051 3.61291e-06
7.81868e-06 3.61291e-06 -0.000746147
0.000902213 -1.86404e-06 -1.96105e-07
-1.86404e-06 8.44211e-05 9.4242e-07
-1.96105e-07 9.4242e-07 4.65432e-06
0.000873064 -1.50865e-05 1.50922e-07
-1.50865e-05 7.80731e-05 -5.8205e-08
1.50922e-07 -5.8205e-08 -6.55627e-06
0.0008547 -4.53149e-05 -1.19513e-07
-4.53149e-05 7.41315e-05 -3.38021e-07
-1.19513e-07 -3.38021e-07 -9.39091e-06
0.000871618 4.89016e-06 -2.36675e-07
4.89016e-06 7.1393e-05 -2.63556e-07
-2.36675e-07 -2.63556e-07 -4.43608e-06
0.000989222 8.00953e-05 1.37043e-06
8.00953e-05 0.000144689 -4.1502e-08
1.37043e-06 -4.1502e-08 6.54791e-05
0.00102153 6.52438e-05 -2.23567e-08
6.52438e-05 0.000161502 4.55827e-08
-2.23567e-08 4.55827e-08 8.71824e-05
0.00113806 -0.000273185 1.37267e-07
-0.000273185 1.69444e-06 2.92056e-06
1.37267e-07 2.92056e-06 -6.22515e-05
-0.000603059 -4.61012e-05 7.88238e-06
-4.61012e-05 -0.000634266 -3.47313e-06
7.88238e-06 -3.47313e-06 -0.000724306
0.00102105 4.06598e-05 -2.36591e-07
4.06598e-05 0.00015268 -5.25689e-07
-2.36591e-07 -5.25689e-07 6.94602e-05
0.00133276 -6.87434e-05 4.78682e-06
-6.87434e-05 0.000279965 -7.33586e-06
4.78682e-06 -7.33586e-06 0.00018689
0.0010288 1.44741e-05 -2.69453e-07
1.44741e-05 0.00015276 -1.23173e-06
-2.69453e-07 -1.23173e-06 6.80915e-05
0.000937636 -1.2802e-05 1.87752e-07
-1.2802e-05 9.00529e-05 -3.30211e-07
1.87752e-07 -3.30211e-07 1.59622e-05
0.000963926 4.61638e-05 2.33442e-07
4.61638e-05 0.000111686 -1.62147e-07
2.33442e-07 -1.62147e-07 3.75191e-05
0.000738214 -0.000250153 -9.35984e-06
-0.000250153 -5.9049e-05 -7.45345e-07
-9.35984e-06 -7.45345e-07 -5.932e-05
0.00088192 -1.68166e-05 9.64985e-07
-1.68166e-05 5.35178e-05 -1.43903e-06
9.64985e-07 -1.43903e-06 -1.53184e-05
0.00070492 -1.08699e-05 1.65391e-06
-1.08699e-05 0.000224153 -2.00154e-06
1.65391e-06 -2.00154e-06 0.000107061
0.000981091 1.1302e-05 1.65922e-06
1.1302e-05 0.000120536 9.62254e-07
1.65922e-06 9.62254e-07 5.26866e-05
-0.00186796 -5.30912e-05 1.37232e-05
-5.30912e-05 -0.000918339 -2.28441e-05
1.37232e-05 -2.28441e-05 -0.00117354
0.00162643 8.96885e-06 1.29573e-05
8.96885e-06 0.000667779 1.90441e-05
1.29573e-05 1.90441e-05 0.000636503
0.00104887 -1.92226e-05 3.40639e-07
-1.92226e-05 0.00015562 3.20864e-06
3.40639e-07 3.20864e-06 9.61742e-05
0.00129961 -1.8689e-06 -1.40516e-07
-1.8689e-06 0.000381183 3.87509e-07
-1.40516e-07 3.87509e-07 0.0003421
0.000936281 -5.87676e-08 -3.47157e-06
-5.87676e-08 2.15645e-05 -9.1636e-07
-3.47157e-06 -9.1636e-07 -2.53982e-05
0.00100031 -1.97955e-05 7.00928e-05
-1.97955e-05 -0.000226184 -9.30909e-07
7.00928e-05 -9.30909e-07 -0.000429689
0.00108416 0.000104902 1.2077e-05
0.000104902 0.000376252 9.03515e-06
1.2077e-05 9.03515e-06 0.00031624
0.00262588 0.000263808 3.37315e-06
0.000263808 0.00107689 -1.34962e-05
3.37315e-06 -1.34962e-05 0.000973778
0.00108829 -6.31755e-06 4.95348e-06
-6.31755e-06 1.08966e-05 3.60578e-06
4.95348e-06 3.60578e-06 -6.15657e-05
0.00162942 0.000177896 -2.33419e-05
0.000177896 -8.03108e-05 -9.29947e-07
-2.33419e-05 -9.29947e-07 -0.00156434
-0.00541569 2.08742e-05 -2.51014e-05
2.08742e-05 -0.00305822 2.87744e-05
-2.51014e-05 2.87744e-05 -0.00346941
0.00176336 1.0322e-05 3.68717e-06
1.0322e-05 0.000264637 2.1155e-05
3.68717e-06 2.1155e-05 0.000101663
0.0015183 0.00018753 -9.9916e-06
0.00018753 -0.00190631 2.44262e-05
-9.9916e-06 2.44262e-05 -0.000971116
0.000351261 4.91779e-05 -2.4729e-06
4.91779e-05 0.000129047 -2.7792e-06
-2.4729e-06 -2.7792e-06 5.22959e-05
0.000978353 2.39153e-07 -1.758e-07
2.39153e-07 0.000100648 -2.56643e-06
-1.758e-07 -2.56643e-06 2.85164e-05
0.00190521 2.93349e-05 5.51066e-06
2.93349e-05 0.000222187 -2.88123e-06
5.51066e-06 -2.88123e-06 1.09302e-05
0.00185247 0.000295408 5.44894e-05
0.000295408 -1.4098e-05 7.99236e-07
5.44894e-05 7.99236e-07 -7.22561e-05
0.00187217 0.000393443 5.54796e-06
0.000393443 -0.000929798 -1.56776e-05
5.54796e-06 -1.56776e-05 -0.000144123
0.000327715 9.67088e-05 1.16684e-05
9.67088e-05 -0.000888253 -7.80293e-07
1.16684e-05 -7.80293e-07 -0.000832521
0.00705831 0.000175292 3.39701e-05
0.000175292 0.00308993 -1.6598e-05
3.39701e-05 -1.6598e-05 0.000908806
-0.000165439 4.6562e-06 -2.23091e-05
4.6562e-06 7.33916e-05 -1.19815e-05
-2.23091e-05 -1.19815e-05 -0.000104617
0.00105151 1.28718e-05 1.01302e-05
1.28718e-05 -3.42029e-05 -1.00905e-05
1.01302e-05 -1.00905e-05 -0.000115123
0.0020012 5.76881e-05 6.44051e-05
5.76881e-05 8.00653e-05 -4.31391e-05
6.44051e-05 -4.31391e-05 -0.000199683
0.00224383 0.000594639 1.52538e-05
0.000594639 0.000592638 -6.91674e-06
1.52538e-05 -6.91674e-06 0.00153824
-0.00552269 0.000206604 6.7961e-05
0.000206604 -0.00395009 1.05701e-05
6.7961e-05 1.05701e-05 -0.00370882
0.00797717 5.19399e-05 3.09869e-05
5.19399e-05 0.00310704 -4.94244e-05
3.09869e-05 -4.94244e-05 0.00106447
0.00405819 -0.000172164 -3.46104e-05
-0.000172164 0.000804337 0.000111985
-3.46104e-05 0.000111985 0.000893798
0.00104335 -9.21224e-06 -4.28268e-06
-9.21224e-06 0.000241703 8.597e-06
-4.28268e-06 8.597e-06 0.000197233
0.000104702 -2.09631e-05 2.67206e-06
-2.09631e-05 -7.90199e-05 -3.39043e-07
2.67206e-06 -3.39043e-07 -0.000167624
0.000318773 -8.6535e-05 7.28751e-06
-8.6535e-05 7.68338e-05 -7.6933e-06
7.28751e-06 -7.6933e-06 -8.09234e-05
0.000882539 -1.77025e-05 -9.72807e-08
-1.77025e-05 5.94679e-05 8.5654e-07
-9.72807e-08 8.5654e-07 1.87036e-06
0.00031944 -1.58707e-05 -7.75815e-07
-1.58707e-05 -0.000237655 7.67294e-06
-7.75815e-07 7.67294e-06 -0.000256483
0.000655841 -1.61008e-05 1.85381e-07
-1.61008e-05 5.87206e-05 1.25705e-07
1.85381e-07 1.25705e-07 -3.05959e-05
0.000790995 -0.000103303 9.18657e-06
-0.000103303 0.000227975 -3.62945e-06
9.18657e-06 -3.62945e-06 2.34476e-05
0.0014612 -4.3121e-05 -1.41609e-06
-4.3121e-05 0.000401709 9.44098e-07
-1.41609e-06 9.44098e-07 0.000324077
0.00117267 -0.000100009 9.56661e-07
-0.000100009 0.000305269 4.99464e-07
9.56661e-07 4.99464e-07 0.000155966
0.00110413 -0.000142015 3.17983e-06
-0.000142015 0.000265309 3.03373e-06
3.17983e-06 3.03373e-06 3.29222e-05
0.000211786 -4.42034e-05 -1.59756e-06
-4.42034e-05 -0.000238525 -1.69035e-06
-1.59756e-06 -1.69035e-06 -0.00034707
0.00102144 -0.00012904 -1.90718e-07
-0.00012904 0.000180783 4.3307e-07
-1.90718e-07 4.3307e-07 5.60886e-06
0.00177582 -0.00019138 1.57627e-08
-0.00019138 0.000504664 2.66529e-06
1.57627e-08 2.66529e-06 0.000300656
0.00168428 -0.000185897 -3.5965e-06
-0.000185897 0.000386207 2.8066e-06
-3.5965e-06 2.8066e-06 0.000207177
0.000696713 -0.000109657 -9.73493e-07
-0.000109657 -4.33836e-05 3.59527e-06
-9.73493e-07 3.59527e-06 -0.000185112
0.00108174 -0.000134857 -1.51434e-06
-0.000134857 0.000145077 1.10596e-06
-1.51434e-06 1.10596e-06 -1.5713e-05
0.000889908 -0.000115032 -1.78743e-06
-0.000115032 8.95231e-05 -6.73041e-07
-1.78743e-06 -6.73041e-07 -5.31442e-05
0.00122043 -0.000130394 1.36242e-06
-0.000130394 0.000269518 -1.07365e-06
1.36242e-06 -1.07365e-06 0.000147033
0.00108603 -0.000123864 1.92909e-06
-0.000123864 0.000201426 -1.42111e-06
1.92909e-06 -1.42111e-06 7.33351e-05
0.000666474 -3.18452e-05 5.17119e-07
-3.18452e-05 -1.48221e-05 1.35757e-06
5.17119e-07 1.35757e-06 -0.000114311
0.000832075 -8.80203e-05 6.70077e-07
-8.80203e-05 8.64189e-05 -2.48005e-07
6.70077e-07 -2.48005e-07 -2.89438e-05
0.000984919 -0.000116071 3.70855e-06
-0.000116071 0.000149096 -2.77786e-06
3.70855e-06 -2.77786e-06 1.99409e-05
0.000822065 4.47864e-05 2.90246e-07
4.47864e-05 4.92156e-05 1.32602e-06
2.90246e-07 1.32602e-06 -2.01081e-05
0.000911616 -2.1855e-05 -2.54664e-07
-2.1855e-05 0.000106337 1.34533e-08
-2.54664e-07 1.34533e-08 2.04718e-05
0.00106692 -7.73236e-05 -1.44202e-07
-7.73236e-05 0.000198541 -3.37098e-07
-1.44202e-07 -3.37098e-07 9.21789e-05
0.000750936 4.47013e-05 -9.37022e-07
4.47013e-05 4.1117e-06 1.59868e-06
-9.37022e-07 1.59868e-06 -3.49412e-05
0.000816732 2.76497e-05 -3.18933e-07
2.76497e-05 3.98518e-05 -1.99145e-07
-3.18933e-07 -1.99145e-07 -1.87849e-05
0.000671809 7.72779e-07 1.81069e-07
7.72779e-07 -2.64244e-05 -1.00461e-06
1.81069e-07 -1.00461e-06 -0.000103844
0.000830386 7.59768e-06 5.69196e-07
7.59768e-06 4.18603e-05 -1.08746e-06
5.69196e-07 -1.08746e-06 -9.7919e-06
0.000772898 3.95836e-05 -6.49774e-08
3.95836e-05 8.8229e-06 -3.56083e-08
-6.49774e-08 -3.56083e-08 -2.60556e-05
0.000687264 3.7612e-05 -1.56165e-06
3.7612e-05 -3.635e-05 3.25358e-06
-1.56165e-06 3.25358e-06 -4.50062e-05
0.000785599 3.19334e-05 1.02446e-06
3.19334e-05 8.38546e-06 -1.56604e-06
1.02446e-06 -1.56604e-06 -2.37614e-05
0.000718126 3.34166e-05 8.43126e-08
3.34166e-05 -2.8298e-05 -1.22972e-09
8.43126e-08 -1.22972e-09 -3.46226e-05
0.00205082 4.61168e-05 -2.02084e-05
4.61168e-05 0.000705338 3.45373e-06
-2.02084e-05 3.45373e-06 0.000722792
0.000732901 2.85908e-05 1.12053e-06
2.85908e-05 -2.76795e-05 -3.16617e-06
1.12053e-06 -3.16617e-06 -3.22758e-05
0.00146959 3.45733e-05 8.3273e-06
3.45733e-05 0.00038023 -9.86275e-07
8.3273e-06 -9.86275e-07 0.000396129
0.00207313 3.23136e-05 1.52369e-05
3.23136e-05 0.000705986 -3.71339e-06
1.52369e-05 -3.71339e-06 0.000725904
0.000836618 1.82207e-05 -6.26182e-07
1.82207e-05 3.83973e-05 -4.14323e-07
-6.26182e-07 -4.14323e-07 -1.75722e-05
0.000766027 -2.07647e-05 -7.17317e-07
-2.07647e-05 -7.05425e-06 -1.4329e-06
-7.17317e-07 -1.4329e-06 -4.14922e-05
0.000757431 1.39941e-05 -7.31371e-07
1.39941e-05 -3.00173e-07 -4.27765e-07
-7.31371e-07 -4.27765e-07 -5.78982e-05
0.000736778 -2.36604e-05 -4.01707e-07
-2.36604e-05 -2.92493e-05 -3.2915e-06
-4.01707e-07 -3.2915e-06 -3.44059e-05
0.000662266 -1.82041e-05 -1.13356e-07
-1.82041e-05 -6.43246e-05 -6.29827e-07
-1.13356e-07 -6.29827e-07 -9.78971e-05
0.00092044 -4.08374e-06 4.69076e-08
-4.08374e-06 9.01483e-05 -7.34805e-08
4.69076e-08 -7.34805e-08 3.43366e-05
0.00210986 -2.50541e-05 -1.20845e-05
-2.50541e-05 0.000721771 -4.07508e-06
-1.20845e-05 -4.07508e-06 0.000742301
0.000736365 -1.7649e-05 -1.62221e-07
-1.7649e-05 -3.43301e-05 -9.25904e-09
-1.62221e-07 -9.25904e-09 -3.73685e-05
0.000549274 -1.41613e-05 9.60926e-08
-1.41613e-05 -0.000127321 8.60992e-07
9.60926e-08 8.60992e-07 -0.0001595
0.00206304 -1.63887e-05 -2.20837e-06
-1.63887e-05 0.000692198 3.90907e-08
-2.20837e-06 3.90907e-08 0.000714051
0.000737404 -1.16907e-05 3.80911e-07
-1.16907e-05 -3.74571e-05 3.23549e-06
3.80911e-07 3.23549e-06 -3.87865e-05
0.00203897 -7.79775e-06 3.37501e-06
-7.79775e-06 0.000676627 4.21155e-06
3.37501e-06 4.21155e-06 0.00069923
0.0010619 2.68946e-06 2.36042e-06
2.68946e-06 0.000132338 7.72883e-06
2.36042e-06 7.72883e-06 3.68382e-05
0.00115518 1.17354e-05 -4.6504e-06
1.17354e-05 4.42765e-05 1.17993e-06
-4.6504e-06 1.17993e-06 -4.49238e-05
0.00138521 2.39226e-05 5.33016e-05
2.39226e-05 1.43715e-05 -1.28802e-05
5.33016e-05 -1.28802e-05 -0.000214317
0.000775385 -4.66618e-05 2.02478e-08
-4.66618e-05 1.04355e-05 -3.63647e-07
2.02478e-08 -3.63647e-07 -5.57409e-05
0.000947708 -1.87968e-05 -3.08016e-07
-1.87968e-05 0.000110278 -5.56446e-07
-3.08016e-07 -5.56446e-07 3.85106e-05
0.000890557 1.96093e-05 1.34745e-06
1.96093e-05 7.90074e-05 -3.43052e-07
1.34745e-06 -3.43052e-07 1.0866e-05
0.000803891 -2.73212e-05 3.58146e-08
-2.73212e-05 2.67672e-05 1.46437e-08
3.58146e-08 1.46437e-08 -3.99298e-05
0.000870585 5.77615e-06 -1.14638e-08
5.77615e-06 7.16708e-05 2.55227e-07
-1.14638e-08 2.55227e-07 -2.78438e-06
0.000919637 -4.8618e-06 -9.62936e-07
-4.8618e-06 9.69902e-05 2.86029e-07
-9.62936e-07 2.86029e-07 2.41949e-05
0.000887047 0.000101451 4.05185e-07
0.000101451 9.04337e-05 1.00899e-06
4.05185e-07 1.00899e-06 7.74597e-06
0.00158084 -5.953e-06 1.81485e-05
-5.953e-06 0.00013248 4.17054e-05
1.81485e-05 4.17054e-05 -0.000157422
0.0016949 1.926e-05 -9.04221e-07
1.926e-05 0.000148783 1.29721e-05
-9.04221e-07 1.29721e-05 -7.67701e-05
0.00183892 3.87262e-05 7.53128e-06
3.87262e-05 0.000196194 -2.52228e-05
7.53128e-06 -2.52228e-05 -3.05606e-05
0.00175109 1.43155e-05 -2.83026e-06
1.43155e-05 -0.00203568 -1.31075e-05
-2.83026e-06 -1.31075e-05 -0.0008291
0.00233957 -0.00038545 -2.42519e-05
-0.00038545 -3.56199e-05 5.22321e-05
-2.42519e-05 5.22321e-05 -0.000698834
0.000568819 -5.29206e-05 4.79267e-05
-5.29206e-05 -0.0005756 -1.27758e-05
4.79267e-05 -1.27758e-05 -0.00207439
0.00471962 0.000438373 3.83015e-05
0.000438373 0.00182794 -2.48794e-05
3.83015e-05 -2.48794e-05 0.00126285
0.00449711 -0.000549663 -2.3833e-05
-0.000549663 0.000816493 6.11222e-06
-2.3833e-05 6.11222e-06 0.000251531
0.00180511 -0.000151604 4.00482e-05
-0.000151604 0.000173724 -2.45543e-05
4.00482e-05 -2.45543e-05 -0.00158849
0.0034062 8.75945e-06 -1.98773e-05
8.75945e-06 0.00100454 2.05542e-06
-1.98773e-05 2.05542e-06 0.000698963
0.00455505 -0.00025457 -8.78358e-06
-0.00025457 0.000287112 -1.41628e-05
-8.78358e-06 -1.41628e-05 0.00122497
0.00193559 -0.000171335 -8.9705e-06
-0.000171335 -0.000285797 2.07467e-06
-8.9705e-06 2.07467e-06 -0.000317948
0.00165936 -0.000257482 3.37458e-05
-0.000257482 -0.000436675 -6.22322e-05
3.37458e-05 -6.22322e-05 -0.0017566
-0.00287953 -0.000262076 4.17567e-05
-0.000262076 -0.00277991 1.58844e-05
4.17567e-05 1.58844e-05 -0.00320514
0.000804621 -0.000310687 2.84228e-05
-0.000310687 -0.00152853 -1.10316e-05
2.84228e-05 -1.10316e-05 -0.000579895
0.000961406 -5.58003e-05 -4.50352e-07
-5.58003e-05 0.000111949 1.75116e-06
-4.50352e-07 1.75116e-06 4.20672e-05
0.000823099 -1.45744e-06 1.49096e-07
-1.45744e-06 4.08127e-05 -2.72111e-08
1.49096e-07 -2.72111e-08 -3.81184e-05
0.000826934 -2.05731e-06 -3.90885e-07
-2.05731e-06 5.54371e-05 -1.13533e-06
-3.90885e-07 -1.13533e-06 -3.06609e-05
0.000878719 2.16985e-05 8.88418e-08
2.16985e-05 7.63515e-05 -1.32543e-06
8.88418e-08 -1.32543e-06 -4.81062e-07
0.00184919 -0.000263108 -3.04218e-06
-0.000263108 0.000475963 1.06088e-05
-3.04218e-06 1.06088e-05 0.000456649
0.000197787 -1.81779e-05 5.93808e-06
-1.81779e-05 -1.8154e-05 -8.66844e-06
5.93808e-06 -8.66844e-06 -0.000127934
0.000796788 -3.05665e-05 -5.3083e-09
-3.05665e-05 8.26888e-06 -1.69842e-06
-5.3083e-09 -1.69842e-06 -6.43268e-05
0.000927693 5.05006e-05 -1.31105e-07
5.05006e-05 0.000100447 -1.4642e-06
-1.31105e-07 -1.4642e-06 2.34891e-05
0.00107817 9.86112e-06 3.29658e-06
9.86112e-06 0.00017165 -7.47001e-06
3.29658e-06 -7.47001e-06 0.000101765
0.00088498 -8.69608e-06 -1.07763e-07
-8.69608e-06 6.71782e-05 4.13763e-08
-1.07763e-07 4.13763e-08 -3.81686e-07
0.000805743 -1.27573e-05 -5.92882e-07
-1.27573e-05 3.34709e-05 -5.02943e-07
-5.92882e-07 -5.02943e-07 -2.90337e-05
-0.000705183 -5.86949e-05 -1.0403e-05
-5.86949e-05 -0.000351905 -9.65378e-06
-1.0403e-05 -9.65378e-06 -0.000625255
0.000893131 -1.68e-05 -6.17045e-06
-1.68e-05 0.00030709 3.23666e-06
-6.17045e-06 3.23666e-06 0.00028323
0.000826465 -2.10285e-05 2.19616e-06
-2.10285e-05 5.3712e-05 1.14773e-07
2.19616e-06 1.14773e-07 -9.06422e-06
0.0011525 2.74078e-05 -8.44097e-06
2.74078e-05 0.00101543 -4.37425e-05
-8.44097e-06 -4.37425e-05 0.00028242
0.00137114 -3.12561e-05 -2.88805e-06
-3.12561e-05 0.0005428 1.52807e-05
-2.88805e-06 1.52807e-05 0.000482754
0.00139519 -2.09454e-06 7.91796e-06
-2.09454e-06 0.000267245 3.52765e-07
7.91796e-06 3.52765e-07 0.000208604
0.000788163 -1.37369e-06 3.98336e-08
-1.37369e-06 9.12298e-05 -1.02448e-07
3.98336e-08 -1.02448e-07 5.2815e-05
0.000536461 1.52579e-06 2.49e-07
1.52579e-06 -0.000185332 -4.2998e-07
2.49e-07 -4.2998e-07 -0.000227578
0.000364759 3.47581e-05 2.5985e-06
3.47581e-05 0.000108968 7.79681e-06
2.5985e-06 7.79681e-06 5.22343e-05
0.00214418 0.000212863 -6.7657e-05
0.000212863 0.000427826 1.48929e-05
-6.7657e-05 1.48929e-05 0.000483319
0.000852358 -1.05783e-06 -2.65559e-07
-1.05783e-06 5.77376e-05 9.74705e-07
-2.65559e-07 9.74705e-07 -8.08026e-06
0.00317344 3.71761e-05 8.18805e-05
3.71761e-05 0.00107363 -0.000104111
8.18805e-05 -0.000104111 -0.000833565
0.00457737 0.000467676 -3.49707e-05
0.000467676 0.0016692 2.71879e-05
-3.49707e-05 2.71879e-05 0.00113888
0.00185125 2.72766e-05 -7.90364e-06
2.72766e-05 0.000185709 2.49543e-05
-7.90364e-06 2.49543e-05 -3.01891e-05
0.00295647 0.000414504 -3.65652e-05
0.000414504 -0.000284717 2.22497e-05
-3.65652e-05 2.22497e-05 0.000501222
-0.000528061 -1.72238e-05 2.34046e-05
-1.72238e-05 -7.93109e-05 -1.7895e-06
2.34046e-05 -1.7895e-06 -0.000289169
0.00114795 9.11228e-06 4.76525e-06
9.11228e-06 3.54301e-05 -9.63666e-07
4.76525e-06 -9.63666e-07 -4.99805e-05
0.00197465 4.87097e-05 1.57169e-05
4.87097e-05 9.49589e-05 -2.64706e-06
1.57169e-05 -2.64706e-06 -0.000233523
0.00192761 -5.03111e-05 -2.21827e-05
-5.03111e-05 -0.000177075 2.54479e-05
-2.21827e-05 2.54479e-05 7.53264e-05
-0.000287386 0.000620146 5.18896e-06
0.000620146 -0.000995915 1.07593e-06
5.18896e-06 1.07593e-06 0.000200587
0.00437291 0.000548735 6.43775e-07
0.000548735 0.000433204 9.78716e-06
6.43775e-07 9.78716e-06 0.000633354
0.0015515 -0.000199881 4.36314e-05
-0.000199881 0.000196247 -2.18664e-05
4.36314e-05 -2.18664e-05 -0.00206406
0.00148224 -9.03381e-05 5.12974e-05
-9.03381e-05 0.000633594 -9.92855e-06
5.12974e-05 -9.92855e-06 0.000601906
0.00099179 1.70935e-05 4.06953e-05
1.70935e-05 -0.000236828 -1.47746e-05
4.06953e-05 -1.47746e-05 -0.000473378
-0.00116536 0.000261772 -5.95443e-06
0.000261772 -0.000480964 -1.54075e-05
-5.95443e-06 -1.54075e-05 -0.000477355
0.000372963 0.000521407 2.16688e-05
0.000521407 -5.22875e-05 1.58069e-05
2.16688e-05 1.58069e-05 0.000220485
0.00808822 0.00042085 2.57512e-05
0.00042085 0.00303188 -4.14479e-05
2.57512e-05 -4.14479e-05 0.00120595
0.00283226 -0.000323643 -5.68055e-05
-0.000323643 0.000205949 8.13948e-05
-5.68055e-05 8.13948e-05 -0.000142144
-0.000434839 -1.65594e-05 -1.66634e-07
-1.65594e-05 -0.000354279 7.51955e-06
-1.66634e-07 7.51955e-06 -0.00046528
0.000301018 -4.23607e-05 -4.20251e-06
-4.23607e-05 8.69334e-05 -3.91463e-07
-4.20251e-06 -3.91463e-07 -7.46273e-05
0.00119437 -0.000151606 1.54825e-05
-0.000151606 0.000374826 -5.10371e-06
1.54825e-05 -5.10371e-06 0.000238936
0.000645501 2.46471e-05 -4.42275e-06
2.46471e-05 5.4854e-05 -9.81148e-08
-4.42275e-06 -9.81148e-08 -2.25914e-05
0.000179597 -5.10674e-05 9.81379e-07
-5.10674e-05 -6.48131e-05 -1.70129e-06
9.81379e-07 -1.70129e-06 -0.000273341
0.00108484 -0.000154421 8.88701e-06
-0.000154421 0.000190539 4.28289e-06
8.88701e-06 4.28289e-06 -2.11832e-05
0.00187697 -0.000171289 -3.01248e-06
-0.000171289 0.000651003 -2.86284e-07
-3.01248e-06 -2.86284e-07 0.000497491
0.00129755 -0.000151217 2.58907e-07
-0.000151217 0.000347759 1.35026e-06
2.58907e-07 1.35026e-06 0.00011554
0.00121882 -0.00018177 -1.94504e-07
-0.00018177 0.000151254 -5.44965e-07
-1.94504e-07 -5.44965e-07 -5.7037e-05
0.00100286 -0.0001253 -2.08043e-06
-0.0001253 0.000169084 -1.67014e-06
-2.08043e-06 -1.67014e-06 -1.20154e-05
0.00166157 -0.000184129 9.32815e-07
-0.000184129 0.000436272 2.75177e-07
9.32815e-07 2.75177e-07 0.000234402
0.00125532 -0.000176672 6.74076e-07
-0.000176672 0.000109895 -9.68833e-07
6.74076e-07 -9.68833e-07 -8.30529e-05
0.00167227 -0.000187572 -2.31029e-06
-0.000187572 0.00027494 -2.12741e-06
-2.31029e-06 -2.12741e-06 0.000110649
0.00186618 -0.000187717 -5.19208e-06
-0.000187717 0.000502984 4.54462e-06
-5.19208e-06 4.54462e-06 0.000338216
0.00148722 -0.000176794 -7.44796e-07
-0.000176794 0.000275597 5.12584e-07
-7.44796e-07 5.12584e-07 9.33297e-05
0.000563302 -9.98299e-05 7.69755e-07
-9.98299e-05 -0.000115665 6.5387e-08
7.69755e-07 6.5387e-08 -0.000240772
0.000879171 -0.000119156 1.44076e-06
-0.000119156 5.40069e-05 -4.52798e-07
1.44076e-06 -4.52798e-07 -8.49202e-05
0.00108185 -0.00013565 1.97438e-07
-0.00013565 0.000143934 -2.05854e-06
1.97438e-07 -2.05854e-06 -1.76119e-05
0.0010357 -0.000114316 2.85827e-07
-0.000114316 0.000167481 6.45568e-07
2.85827e-07 6.45568e-07 5.17028e-05
0.00114782 -0.000125366 -2.58091e-07
-0.000125366 0.000232452 -6.875e-07
-2.58091e-07 -6.875e-07 0.00010966
0.000772472 -0.000104505 2.44117e-06
-0.000104505 3.83506e-05 -1.55352e-06
2.44117e-06 -1.55352e-06 -8.50238e-05
0.000793805 1.54158e-05 7.91157e-07
1.54158e-05 4.14857e-05 1.31479e-06
7.91157e-07 1.31479e-06 -4.29308e-05
0.000785581 -4.05834e-05 4.95582e-08
-4.05834e-05 4.95617e-05 6.09566e-07
4.95582e-08 6.09566e-07 -4.96684e-05
0.00111004 -9.84315e-05 1.20149e-06
-9.84315e-05 0.000233175 -1.38279e-06
1.20149e-06 -1.38279e-06 0.000118137
0.000740954 5.73158e-05 -3.63834e-07
5.73158e-05 7.33757e-06 2.02834e-06
-3.63834e-07 2.02834e-06 -4.03621e-05
0.00081394 2.2117e-05 -2.32705e-07
2.2117e-05 4.61369e-05 -1.24033e-07
-2.32705e-07 -1.24033e-07 -2.43522e-05
0.000920742 -3.53444e-05 2.23488e-07
-3.53444e-05 0.000112693 -8.0759e-07
2.23488e-07 -8.0759e-07 2.51826e-05
0.000690058 4.22397e-05 -2.72937e-06
4.22397e-05 -2.65896e-05 4.5334e-06
-2.72937e-06 4.5334e-06 -3.79939e-05
0.000754954 5.03091e-05 1.33929e-08
5.03091e-05 7.70315e-06 -1.20434e-07
1.33929e-08 -1.20434e-07 -3.23459e-05
0.00081762 1.35073e-05 2.35753e-07
1.35073e-05 3.96403e-05 -1.24631e-06
2.35753e-07 -1.24631e-06 -1.8593e-05
0.000773499 4.22948e-05 6.57284e-07
4.22948e-05 9.39406e-06 -1.69291e-06
6.57284e-07 -1.69291e-06 -2.57915e-05
0.000710293 3.85534e-05 3.18435e-08
3.85534e-05 -2.41182e-05 -2.56847e-08
3.18435e-08 -2.56847e-08 -3.28807e-05
0.00206334 5.33052e-05 -2.29734e-05
5.33052e-05 0.000720437 3.27439e-06
-2.29734e-05 3.27439e-06 0.000735943
0.000734529 3.41262e-05 1.36011e-06
3.41262e-05 -1.95629e-05 -3.19242e-06
1.36011e-06 -3.19242e-06 -2.59488e-05
0.00205791 4.66134e-05 1.27936e-06
4.66134e-05 0.000710287 8.14123e-08
1.27936e-06 8.14123e-08 0.000727519
0.00205839 3.9737e-05 1.82951e-05
3.9737e-05 0.00070415 -3.55079e-06
1.82951e-05 -3.55079e-06 0.000722851
0.000873562 4.72236e-06 -1.60809e-07
4.72236e-06 6.7874e-05 -7.1454e-07
-1.60809e-07 -7.1454e-07 -1.569e-06
0.000826845 3.18842e-05 -1.12939e-06
3.18842e-05 3.85002e-05 -1.02086e-06
-1.12939e-06 -1.02086e-06 -2.18052e-05
0.000764191 -2.83907e-05 -7.38172e-07
-2.83907e-05 -5.45507e-06 -1.62109e-06
-7.38172e-07 -1.62109e-06 -4.17274e-05
0.000831479 2.03453e-05 -9.21791e-08
2.03453e-05 3.55707e-05 -2.75425e-08
-9.21791e-08 -2.75425e-08 -2.02987e-05
0.00072297 -2.86354e-05 -6.87827e-07
-2.86354e-05 -3.11933e-05 -3.36446e-06
-6.87827e-07 -3.36446e-06 -3.83889e-05
0.000776633 -2.23353e-05 -1.38367e-07
-2.23353e-05 -7.84493e-07 7.93714e-09
-1.38367e-07 7.93714e-09 -3.54027e-05
0.00079735 1.03656e-05 9.44591e-08
1.03656e-05 1.49832e-05 -6.25111e-08
9.44591e-08 -6.25111e-08 -3.76022e-05
0.00215075 -3.30437e-05 -1.55413e-05
-3.30437e-05 0.000748774 -3.96798e-06
-1.55413e-05 -3.96798e-06 0.000767886
0.000727057 -2.31938e-05 -1.40219e-07
-2.31938e-05 -3.45801e-05 -4.86092e-09
-1.40219e-07 -4.86092e-09 -3.96383e-05
0.000779667 -1.88701e-05 1.02324e-07
-1.88701e-05 -9.26321e-07 8.58244e-07
1.02324e-07 8.58244e-07 -3.38089e-05
0.00209879 -2.45451e-05 -2.17454e-06
-2.45451e-05 0.000715219 5.94943e-08
-2.17454e-06 5.94943e-08 0.000735944
0.000727123 -1.73407e-05 3.42964e-07
-1.73407e-05 -3.93698e-05 3.24502e-06
3.42964e-07 3.24502e-06 -4.23253e-05
0.00205479 -1.57958e-05 7.51257e-06
-1.57958e-05 0.000687301 4.15757e-06
7.51257e-06 4.15757e-06 0.0007093
0.00113423 -1.25117e-05 8.5178e-06
-1.25117e-05 0.000108443 1.19594e-05
8.5178e-06 1.19594e-05 5.73315e-06
0.000960219 1.3547e-06 6.76736e-08
1.3547e-06 0.000101661 2.76468e-06
6.76736e-08 2.76468e-06 1.77979e-05
0.00124382 8.86744e-06 1.53635e-06
8.86744e-06 0.000103427 -5.65527e-06
1.53635e-06 -5.65527e-06 1.3674e-05
0.000818892 -6.85e-06 -2.83688e-07
-6.85e-06 3.85745e-05 -5.14934e-08
-2.83688e-07 -5.14934e-08 -3.05319e-05
0.000879749 -2.72806e-05 -1.13097e-07
-2.72806e-05 7.3468e-05 2.40225e-07
-1.13097e-07 2.40225e-07 1.31771e-06
0.000788065 -2.89299e-05 3.69823e-07
-2.89299e-05 2.60864e-05 -1.9425e-06
3.69823e-07 -1.9425e-06 -5.08048e-05
0.000757469 -3.71626e-05 -1.35778e-07
-3.71626e-05 8.93883e-06 -7.64972e-07
-1.35778e-07 -7.64972e-07 -6.30202e-05
0.000983257 3.08365e-05 -7.39487e-07
3.08365e-05 0.000141013 -3.69607e-07
-7.39487e-07 -3.69607e-07 5.94767e-05
0.000785011 -3.9419e-05 9.10251e-08
-3.9419e-05 1.37705e-05 4.29412e-08
9.10251e-08 4.29412e-08 -5.122e-05
0.000787637 -1.72068e-05 4.69355e-07
-1.72068e-05 2.38991e-05 -7.27372e-07
4.69355e-07 -7.27372e-07 -4.90373e-05
0.000874474 6.66227e-06 -1.82737e-07
6.66227e-06 7.36591e-05 -5.77302e-08
-1.82737e-07 -5.77302e-08 9.8359e-07
0.00089643 2.50485e-05 -9.65235e-08
2.50485e-05 8.5845e-05 3.14546e-07
-9.65235e-08 3.14546e-07 7.63607e-06
0.000968904 1.26941e-05 -1.13177e-07
1.26941e-05 0.000131796 7.37229e-07
-1.13177e-07 7.37229e-07 5.46298e-05
0.00181026 -4.74608e-05 4.62407e-05
-4.74608e-05 0.000189109 5.04671e-05
4.62407e-05 5.04671e-05 -0.000168578
0.001666 -1.24094e-06 2.856e-06
-1.24094e-06 0.000122822 1.12745e-05
2.856e-06 1.12745e-05 -0.000171384
0.00170458 1.88363e-05 -5.9398e-07
1.88363e-05 0.000255492 -9.45709e-06
-5.9398e-07 -9.45709e-06 8.4297e-05
0.00443298 -0.000234431 -2.42528e-05
-0.000234431 0.00036887 -3.52593e-05
-2.42528e-05 -3.52593e-05 0.00133435
-0.00519882 0.000166033 -1.55916e-05
0.000166033 -0.00298542 -1.11364e-05
-1.55916e-05 -1.11364e-05 -0.00339401
0.00380021 -0.000521241 -6.04088e-05
-0.000521241 0.000577184 6.39656e-05
-6.04088e-05 6.39656e-05 -3.2291e-05
0.00626978 3.70725e-05 -7.97867e-06
3.70725e-05 0.0018145 -4.552e-05
-7.97867e-06 -4.552e-05 0.000372108
0.00346055 -0.000301299 -4.31172e-05
-0.000301299 0.000396876 4.02546e-05
-4.31172e-05 4.02546e-05 6.46926e-05
0.00882545 -0.000206355 5.18042e-05
-0.000206355 0.00335004 -8.0386e-06
5.18042e-05 -8.0386e-06 0.00159709
0.000290053 -0.000218087 2.02447e-05
-0.000218087 -0.000943469 -7.3748e-06
2.02447e-05 -7.3748e-06 -0.00112479
0.000809713 -0.000353569 -1.69084e-05
-0.000353569 -0.00161406 -4.34837e-05
-1.69084e-05 -4.34837e-05 -0.000616594
0.00376472 -7.91147e-05 -9.9316e-05
-7.91147e-05 0.000658465 -2.80644e-05
-9.9316e-05 -2.80644e-05 0.000367404
0.00817246 -0.000373186 -2.24469e-05
-0.000373186 0.00248164 5.10978e-05
-2.24469e-05 5.10978e-05 0.00124037
0.00783481 -0.000778773 2.19148e-05
-0.000778773 0.00225106 -1.60368e-06
2.19148e-05 -1.60368e-06 0.00241195
0.00272013 -0.000557228 1.39272e-05
-0.000557228 0.000274848 5.98807e-07
1.39272e-05 5.98807e-07 0.00139983
0.000741135 1.0984e-05 1.55413e-06
1.0984e-05 2.74276e-05 1.28487e-06
1.55413e-06 1.28487e-06 -3.36545e-05
0.000944054 -4.41447e-05 -1.06122e-07
-4.41447e-05 0.00010545 4.68356e-07
-1.06122e-07 4.68356e-07 3.47631e-05
0.000786524 -2.62445e-06 2.14823e-07
-2.62445e-06 1.89626e-05 -1.07397e-06
2.14823e-07 -1.07397e-06 -5.87085e-05
0.000469805 -2.47281e-05 -4.42152e-06
-2.47281e-05 0.000194266 1.03387e-05
-4.42152e-06 1.03387e-05 -6.65451e-05
0.000611889 -5.28171e-05 -1.79156e-06
-5.28171e-05 0.000175078 -6.3303e-06
-1.79156e-06 -6.3303e-06 0.000157593
0.000817308 -2.00984e-05 -9.01538e-07
-2.00984e-05 3.08705e-05 -5.82088e-07
-9.01538e-07 -5.82088e-07 -3.82172e-05
0.00085299 -5.64898e-05 -8.07401e-07
-5.64898e-05 5.67309e-05 -4.20334e-06
-8.07401e-07 -4.20334e-06 -4.39328e-06
0.000821232 -1.20162e-05 -5.24389e-07
-1.20162e-05 5.229e-05 -8.40425e-07
-5.24389e-07 -8.40425e-07 -1.03397e-05
0.000583994 -3.49123e-05 1.53666e-06
-3.49123e-05 0.000124241 4.81122e-06
1.53666e-06 4.81122e-06 6.45359e-05
0.000131499 -9.00648e-06 2.24869e-05
-9.00648e-06 0.00044206 -3.12241e-05
2.24869e-05 -3.12241e-05 -0.000261309
-0.000371173 -2.46517e-05 -4.17976e-06
-2.46517e-05 -0.000398951 7.05632e-06
-4.17976e-06 7.05632e-06 -0.000478625
0.00072249 0.000102808 4.55214e-06
0.000102808 0.000322993 -2.62658e-05
4.55214e-06 -2.62658e-05 -7.53513e-05
0.00130137 5.99625e-07 3.84406e-05
5.99625e-07 -7.13783e-05 5.31826e-06
3.84406e-05 5.31826e-06 -0.000292331
0.000962688 -1.18251e-06 3.83984e-06
-1.18251e-06 4.0798e-05 8.21492e-07
3.83984e-06 8.21492e-07 -1.21237e-05
0.000211956 -1.12632e-06 7.94e-08
-1.12632e-06 -0.000239111 -5.62607e-07
7.94e-08 -5.62607e-07 -0.000276814
-0.00124217 -3.06484e-05 -3.64157e-05
-3.06484e-05 -0.000366882 1.09308e-05
-3.64157e-05 1.09308e-05 -0.000623389
0.00148795 7.65801e-05 2.08509e-05
7.65801e-05 -0.000555837 -4.40353e-05
2.08509e-05 -4.40353e-05 -0.000612245
0.00128113 5.79809e-06 -5.59803e-07
5.79809e-06 0.000124319 4.73178e-06
-5.59803e-07 4.73178e-06 3.99046e-05
0.0106478 -2.81448e-05 7.58307e-05
-2.81448e-05 0.00417686 9.37251e-08
7.58307e-05 9.37251e-08 0.00220976
0.00508865 0.000658709 -5.32714e-05
0.000658709 0.0011637 2.3062e-05
-5.32714e-05 2.3062e-05 0.00124453
0.00205455 4.65567e-05 -3.30552e-05
4.65567e-05 0.000161335 3.34358e-05
-3.30552e-05 3.34358e-05 -0.000200619
-0.00281003 0.000656224 1.20803e-05
0.000656224 -0.00260841 -3.73354e-05
1.20803e-05 -3.73354e-05 -0.00113749
0.000331306 -3.42671e-05 -1.57358e-05
-3.42671e-05 9.74863e-05 -1.249e-06
-1.57358e-05 -1.249e-06 2.16591e-05
0.00124537 1.54131e-05 -4.46457e-06
1.54131e-05 -8.55242e-05 1.3684e-06
-4.46457e-06 1.3684e-06 -0.000320377
-0.00135173 0.000305839 -4.97517e-05
0.000305839 -0.000533349 2.01589e-05
-4.97517e-05 2.01589e-05 -0.00045717
0.00208618 -0.000291304 -1.72826e-05
-0.000291304 -0.000155471 2.83061e-05
-1.72826e-05 2.83061e-05 -0.000353996
0.00451104 0.00076239 1.09538e-05
0.00076239 0.00138978 1.37749e-05
1.09538e-05 1.37749e-05 0.00167647
0.00627137 1.49824e-05 4.53794e-05
1.49824e-05 0.00186573 -2.46516e-05
4.53794e-05 -2.46516e-05 8.73459e-05
0.00216148 -0.000205665 2.49915e-05
-0.000205665 0.000480192 1.50262e-05
2.49915e-05 1.50262e-05 0.000610423
-0.00122019 9.06111e-05 3.76573e-05
9.06111e-05 -8.99215e-05 -5.46291e-06
3.76573e-05 -5.46291e-06 -0.000441922
0.0015593 0.000500056 -1.09498e-05
0.000500056 0.000828511 5.13841e-06
-1.09498e-05 5.13841e-06 0.000903371
0.00610796 0.000443742 -5.11812e-05
0.000443742 0.00195435 4.59703e-05
-5.11812e-05 4.59703e-05 0.000309964
0.0024562 -0.000489636 6.81837e-07
-0.000489636 0.000131005 1.89416e-05
6.81837e-07 1.89416e-05 -0.000510911
0.000156242 9.61161e-06 9.62695e-06
9.61161e-06 3.7038e-05 7.71896e-06
9.62695e-06 7.71896e-06 -0.000130237
0.000790689 -0.000134129 8.96569e-07
-0.000134129 0.00018662 -1.18304e-06
8.96569e-07 -1.18304e-06 3.42785e-05
0.00240086 -0.000211523 1.24531e-05
-0.000211523 0.000643228 3.96012e-06
1.24531e-05 3.96012e-06 0.000609718
-0.000424593 8.30373e-07 -2.92162e-06
8.30373e-07 -0.000356741 1.72734e-06
-2.92162e-06 1.72734e-06 -0.000568082
0.00055037 -0.0001195 3.59748e-06
-0.0001195 -5.86986e-05 -2.88956e-07
3.59748e-06 -2.88956e-07 -0.000271919
0.000888327 -0.000191149 -1.01159e-06
-0.000191149 -0.000180783 -1.382e-07
-1.01159e-06 -1.382e-07 -0.000334919
0.00151399 -0.000160678 -2.98223e-06
-0.000160678 0.000442884 -1.05333e-06
-2.98223e-06 -1.05333e-06 0.000211691
0.00121184 -0.000179412 -1.52918e-06
-0.000179412 0.000143654 -1.67685e-06
-1.52918e-06 -1.67685e-06 -5.95558e-05
0.00162874 -0.000213008 1.64316e-06
-0.000213008 0.000177578 -1.67078e-06
1.64316e-06 -1.67078e-06 3.41277e-05
0.00149373 -0.000173649 -3.59872e-07
-0.000173649 0.000341754 -2.32252e-06
-3.59872e-07 -2.32252e-06 0.000141342
0.00138926 -0.000179341 6.20222e-07
-0.000179341 0.000173802 -1.43989e-06
6.20222e-07 -1.43989e-06 -1.30925e-05
0.00131103 -0.000172839 -1.53943e-06
-0.000172839 -1.73726e-05 -3.97595e-06
-1.53943e-06 -3.97595e-06 -0.000159278
0.00173065 -0.000172822 -1.85499e-06
-0.000172822 0.000215118 -2.45475e-06
-1.85499e-06 -2.45475e-06 8.09883e-05
0.00131658 -0.000161774 -2.38207e-06
-0.000161774 0.000144644 -2.92071e-07
-2.38207e-06 -2.92071e-07 -1.83456e-05
0.0014055 -0.000172566 4.27764e-07
-0.000172566 0.000136245 -1.0199e-06
4.27764e-07 -1.0199e-06 -2.60066e-05
0.00140519 -0.000154228 -2.48672e-06
-0.000154228 0.000280115 3.3277e-06
-2.48672e-06 3.3277e-06 0.000136188
0.00136834 -0.000161318 -2.95454e-07
-0.000161318 0.000241194 8.53618e-07
-2.95454e-07 8.53618e-07 7.43484e-05
0.00126613 -0.000166219 8.04907e-07
-0.000166219 0.000153728 -1.79196e-06
8.04907e-07 -1.79196e-06 -3.2201e-05
0.000955094 -0.000116691 -8.64103e-08
-0.000116691 9.60082e-05 -7.25803e-07
-8.64103e-08 -7.25803e-07 -1.99419e-05
0.000698517 -0.000106395 -2.20777e-07
-0.000106395 -4.13425e-05 -1.30149e-06
-2.20777e-07 -1.30149e-06 -0.000164833
0.00103502 -0.000127154 4.29035e-06
-0.000127154 0.000137288 -3.78345e-06
4.29035e-06 -3.78345e-06 9.28699e-07
0.000873376 -5.89106e-05 3.04558e-08
-5.89106e-05 7.55513e-05 1.36047e-06
3.04558e-08 1.36047e-06 -2.13622e-05
0.000989885 -0.000102052 4.59922e-07
-0.000102052 0.000143848 5.2914e-07
4.59922e-07 5.2914e-07 3.01477e-05
0.00107026 -0.000120058 1.64757e-07
-0.000120058 0.000192758 2.33578e-07
1.64757e-07 2.33578e-07 6.96832e-05
0.000750107 7.48178e-05 4.70838e-07
7.48178e-05 2.06926e-05 2.72033e-06
4.70838e-07 2.72033e-06 -4.06245e-05
0.000841915 -1.71267e-06 6.92397e-09
-1.71267e-06 6.82121e-05 -8.16402e-08
6.92397e-09 -8.16402e-08 -1.80411e-05
0.000903779 -5.21625e-05 -6.71359e-07
-5.21625e-05 0.000113558 -2.00603e-07
-6.71359e-07 -2.00603e-07 1.46247e-05
0.001313 5.62418e-05 -1.33428e-05
5.62418e-05 0.000324001 2.98452e-06
-1.33428e-05 2.98452e-06 0.000311631
0.000734638 5.07989e-05 -3.65647e-08
5.07989e-05 2.94778e-06 -2.33448e-07
-3.65647e-08 -2.33448e-07 -4.41677e-05
0.000807236 -4.70144e-08 3.57155e-07
-4.70144e-08 4.38149e-05 -1.37303e-06
3.57155e-07 -1.37303e-06 -2.78593e-05
0.000839254 3.51238e-05 -2.17984e-05
3.51238e-05 6.04055e-05 3.31489e-06
-2.17984e-05 3.31489e-06 6.79796e-05
0.00103444 4.84202e-05 -5.91021e-06
4.84202e-05 0.000161832 3.19892e-07
-5.91021e-06 3.19892e-07 0.000151553
0.000755642 5.49683e-05 -2.41882e-08
5.49683e-05 9.12282e-06 -1.99705e-06
-2.41882e-08 -1.99705e-06 -3.16742e-05
0.000734733 3.9626e-05 1.4724e-06
3.9626e-05 -1.11148e-05 -3.24514e-06
1.4724e-06 -3.24514e-06 -2.00001e-05
0.0020845 5.38862e-05 1.02917e-06
5.38862e-05 0.000733123 8.35378e-08
1.02917e-06 8.35378e-08 0.000748307
0.00206925 4.70514e-05 2.14235e-05
4.70514e-05 0.000717571 -3.38618e-06
2.14235e-05 -3.38618e-06 0.000734573
0.000783885 -1.643e-05 6.02407e-08
-1.643e-05 1.89462e-05 -1.33426e-06
6.02407e-08 -1.33426e-06 -5.29288e-05
0.000824442 1.02368e-05 -6.10948e-07
1.02368e-05 3.68975e-05 -1.49182e-06
-6.10948e-07 -1.49182e-06 -2.47599e-05
0.000854835 -1.72385e-05 1.30775e-08
-1.72385e-05 5.65717e-05 -3.02526e-08
1.30775e-08 -3.02526e-08 -1.22444e-05
0.000762278 -4.19715e-05 -5.98147e-07
-4.19715e-05 -6.52624e-07 -1.9438e-06
-5.98147e-07 -1.9438e-06 -3.94713e-05
0.000841517 -1.2486e-06 6.32204e-07
-1.2486e-06 4.38146e-05 -8.48706e-08
6.32204e-07 -8.48706e-08 -1.44471e-05
0.000711761 -3.33141e-05 -9.26691e-07
-3.33141e-05 -3.10486e-05 -3.50538e-06
-9.26691e-07 -3.50538e-06 -4.02599e-05
0.000774817 -2.50985e-05 -1.68448e-07
-2.50985e-05 8.77413e-07 1.53673e-08
-1.68448e-07 1.53673e-08 -3.54322e-05
0.000852424 3.80944e-05 1.13438e-06
3.80944e-05 5.27908e-05 6.17961e-07
1.13438e-06 6.17961e-07 -6.95875e-06
0.002189 -4.05736e-05 -1.95458e-05
-4.05736e-05 0.000775173 -3.82626e-06
-1.95458e-05 -3.82626e-06 0.000792761
0.000717387 -2.82177e-05 -2.69223e-07
-2.82177e-05 -3.4115e-05 1.06412e-08
-2.69223e-07 1.06412e-08 -4.12684e-05
0.000793902 -2.2526e-05 3.26728e-07
-2.2526e-05 9.06311e-06 1.49469e-06
3.26728e-07 1.49469e-06 -2.57036e-05
0.00213999 -3.26247e-05 -1.96376e-06
-3.26247e-05 0.000742316 7.57216e-08
-1.96376e-06 7.57216e-08 0.000761615
0.000718275 -2.27858e-05 3.96071e-07
-2.27858e-05 -3.93649e-05 3.28477e-06
3.96071e-07 3.28477e-06 -4.43386e-05
0.00208722 -2.39863e-05 1.09816e-05
-2.39863e-05 0.000708363 4.08221e-06
1.09816e-05 4.08221e-06 0.000729286
0.00182357 -3.2278e-05 3.80386e-05
-3.2278e-05 0.000291296 2.08966e-05
3.80386e-05 2.08966e-05 9.75644e-05
0.0011033 -9.66999e-06 1.33188e-06
-9.66999e-06 6.55038e-05 3.63214e-06
1.33188e-06 3.63214e-06 -3.1902e-05
0.000810816 -1.62425e-07 5.53974e-07
-1.62425e-07 4.13576e-05 -1.96374e-06
5.53974e-07 -1.96374e-06 -3.50733e-05
0.000926856 3.67129e-05 -7.77615e-07
3.67129e-05 0.000112856 -2.65721e-07
-7.77615e-07 -2.65721e-07 2.80932e-05
0.000902918 -1.16623e-05 2.50582e-07
-1.16623e-05 8.41223e-05 3.40874e-07
2.50582e-07 3.40874e-07 1.53812e-05
0.000863914 -3.54647e-05 1.93889e-07
-3.54647e-05 6.46358e-05 6.00985e-07
1.93889e-07 6.00985e-07 -8.33863e-06
0.000880174 -3.79922e-05 1.04734e-07
-3.79922e-05 7.43177e-05 -1.68662e-07
1.04734e-07 -1.68662e-07 2.85545e-06
0.000883572 -5.80856e-06 2.03314e-07
-5.80856e-06 7.75155e-05 -4.95945e-07
2.03314e-07 -4.95945e-07 2.66075e-08
0.000902635 1.51524e-05 -1.84536e-09
1.51524e-05 9.52993e-05 6.13052e-07
-1.84536e-09 6.13052e-07 1.48199e-05
0.000917848 1.78746e-05 -2.97197e-07
1.78746e-05 0.000104081 -1.87949e-06
-2.97197e-07 -1.87949e-06 1.88984e-05
0.000706145 -1.97668e-05 1.44126e-07
-1.97668e-05 -1.04122e-05 -2.71336e-07
1.44126e-07 -2.71336e-07 -8.79832e-05
0.000841616 3.73073e-05 4.78116e-07
3.73073e-05 6.02671e-05 -2.73894e-07
4.78116e-07 -2.73894e-07 -1.45373e-05
0.000883106 -5.28468e-05 6.0027e-07
-5.28468e-05 7.05322e-05 -6.59027e-07
6.0027e-07 -6.59027e-07 -3.85525e-06
0.000910981 4.53745e-08 -9.29622e-08
4.53745e-08 9.99808e-05 1.54669e-07
-9.29622e-08 1.54669e-07 2.37985e-05
0.00144813 4.12042e-06 2.9727e-06
4.12042e-06 0.00040099 1.01297e-06
2.9727e-06 1.01297e-06 0.000323506
0.00132732 -0.000320657 4.53732e-05
-0.000320657 0.000610619 3.85053e-05
4.53732e-05 3.85053e-05 0.000757688
0.00196746 -4.26969e-05 2.55009e-06
-4.26969e-05 0.000274403 9.69618e-06
2.55009e-06 9.69618e-06 -9.38407e-05
0.00171706 3.15711e-06 -1.03691e-05
3.15711e-06 9.01891e-05 -1.91014e-05
-1.03691e-05 -1.91014e-05 -0.000209396
0.00370032 -0.00042795 -5.0435e-05
-0.00042795 -5.44303e-05 -4.11417e-05
-5.0435e-05 -4.11417e-05 0.00106379
0.00417241 -0.000242529 -1.39994e-05
-0.000242529 0.0004926 -2.93883e-05
-1.39994e-05 -2.93883e-05 0.000259365
0.00174695 -0.000223131 -9.99469e-05
-0.000223131 -0.000397269 6.41598e-05
-9.99469e-05 6.41598e-05 -0.0016772
0.0027662 -0.000253309 -4.02266e-05
-0.000253309 0.000292818 9.01227e-05
-4.02266e-05 9.01227e-05 -0.000140785
0.00363 -0.000219978 -4.44632e-06
-0.000219978 0.000675975 2.72407e-05
-4.44632e-06 2.72407e-05 0.000504212
-0.000114508 -0.000568196 -6.40726e-06
-0.000568196 -0.00110889 4.60824e-06
-6.40726e-06 4.60824e-06 0.000129878
0.00482353 -3.99042e-05 6.69046e-06
-3.99042e-05 0.00148148 3.21955e-05
6.69046e-06 3.21955e-05 -0.000312986
0.000632832 -0.000393544 -3.05151e-06
-0.000393544 -0.00117029 6.70059e-06
-3.05151e-06 6.70059e-06 -0.000814196
0.00281007 0.000132782 -6.88082e-05
0.000132782 0.000271545 -3.22113e-05
-6.88082e-05 -3.22113e-05 0.000152107
0.00957094 -0.000504066 -2.36823e-05
-0.000504066 0.00363623 3.92551e-05
-2.36823e-05 3.92551e-05 0.00213586
6.19133e-05 -0.000477369 -1.66164e-05
-0.000477369 -0.000195757 -2.63159e-05
-1.66164e-05 -2.63159e-05 0.000112199
0.000610818 0.000121332 -5.97025e-07
0.000121332 -3.68303e-05 -1.66378e-06
-5.97025e-07 -1.66378e-06 -9.59207e-05
0.000997676 1.54333e-05 3.10103e-06
1.54333e-05 0.000158218 -1.55699e-08
3.10103e-06 -1.55699e-08 9.85222e-05
0.000929024 -2.85355e-05 -5.19315e-07
-2.85355e-05 0.000100977 -4.47939e-07
-5.19315e-07 -4.47939e-07 2.91851e-05
-0.00120285 -1.19938e-05 -1.92612e-05
-1.19938e-05 -0.000343398 -1.52914e-05
-1.92612e-05 -1.52914e-05 -0.000999302
-0.000390623 6.41099e-06 2.5756e-06
6.41099e-06 -0.000397089 -6.22773e-06
2.5756e-06 -6.22773e-06 -0.000459255
0.000719649 1.15817e-05 9.78115e-08
1.15817e-05 5.83315e-07 -6.36272e-07
9.78115e-08 -6.36272e-07 -6.18079e-05
0.000737454 5.2587e-05 2.80735e-06
5.2587e-05 0.000139512 1.32572e-06
2.80735e-06 1.32572e-06 5.53165e-05
0.000585344 0.0001226 6.46064e-06
0.0001226 0.00014886 -1.90028e-05
6.46064e-06 -1.90028e-05 -0.000151076
-0.000392326 0.000124156 1.1895e-05
0.000124156 -0.000521369 6.5067e-06
1.1895e-05 6.5067e-06 -0.000656403
0.000288882 -1.78597e-05 7.92636e-05
-1.78597e-05 0.000654767 -7.63463e-07
7.92636e-05 -7.63463e-07 0.00032278
0.00134403 -7.24454e-06 -4.30336e-06
-7.24454e-06 2.03977e-05 4.06276e-06
-4.30336e-06 4.06276e-06 -0.000157552
0.00057515 4.36416e-07 1.6886e-08
4.36416e-07 -0.000157133 -4.12123e-07
1.6886e-08 -4.12123e-07 -0.000205193
-0.000163708 -1.853e-05 8.97307e-06
-1.853e-05 -0.000139488 4.04735e-06
8.97307e-06 4.04735e-06 -0.000230007
0.00140327 -0.000262254 1.19938e-05
-0.000262254 -0.000562647 -2.96555e-05
1.19938e-05 -2.96555e-05 -0.000658093
0.00141267 1.2413e-05 -5.0253e-05
1.2413e-05 2.38546e-05 1.11892e-05
-5.0253e-05 1.11892e-05 -0.000212153
0.00129922 -1.40303e-05 1.42517e-05
-1.40303e-05 -0.000399796 -1.4158e-05
1.42517e-05 -1.4158e-05 -0.00196416
-0.00229957 0.000441664 -2.60422e-05
0.000441664 -0.00194924 -4.91622e-06
-2.60422e-05 -4.91622e-06 -0.00156055
0.00151067 0.000374361 -6.02589e-05
0.000374361 0.000771638 3.7297e-05
-6.02589e-05 3.7297e-05 0.00112715
0.00176898 -0.000168327 -4.786e-06
-0.000168327 0.000220567 3.82149e-06
-4.786e-06 3.82149e-06 0.000437291
0.00124727 0.000158525 -2.57614e-07
0.000158525 0.00108657 4.18157e-06
-2.57614e-07 4.18157e-06 0.000997506
-0.00368834 0.000227051 1.42635e-05
0.000227051 -0.00128447 1.5175e-07
1.42635e-05 1.5175e-07 -0.00156579
0.00375652 -0.000511228 -5.76925e-06
-0.000511228 0.000873924 8.75427e-06
-5.76925e-06 8.75427e-06 -6.18374e-05
0.00712216 0.000340669 -6.95052e-06
0.000340669 0.0024159 5.52165e-08
-6.95052e-06 5.52165e-08 0.00094119
2.66018e-05 -0.000155266 -2.13107e-06
-0.000155266 -0.000566962 1.25019e-05
-2.13107e-06 1.25019e-05 -0.000498687
-0.00606373 0.000125358 -2.29026e-05
0.000125358 -0.00293512 -4.88183e-06
-2.29026e-05 -4.88183e-06 -0.00296718
0.00632096 0.000302936 -8.4735e-06
0.000302936 0.00224741 3.64116e-06
-8.4735e-06 3.64116e-06 0.000935518
0.00453715 -0.000345679 -9.5266e-06
-0.000345679 0.000579669 2.53837e-05
-9.5266e-06 2.53837e-05 -0.000229656
0.000274656 -0.000105187 -1.24597e-05
-0.000105187 -4.17542e-05 3.21466e-06
-1.24597e-05 3.21466e-06 -0.000223246
0.00122808 -0.000154329 -8.08327e-07
-0.000154329 5.98349e-05 1.40748e-07
-8.08327e-07 1.40748e-07 5.99131e-05
0.00210714 -0.000198196 7.33764e-06
-0.000198196 0.000219854 -4.69442e-07
7.33764e-06 -4.69442e-07 0.000263346
0.000133337 -9.07003e-05 -2.74541e-06
-9.07003e-05 -0.000245904 -3.84399e-06
-2.74541e-06 -3.84399e-06 -0.00046234
0.00126838 -0.000210243 -3.74118e-06
-0.000210243 9.55379e-06 -1.83302e-06
-3.74118e-06 -1.83302e-06 -0.000143774
0.00190614 -0.000244396 -1.94896e-06
-0.000244396 0.000150706 8.21017e-07
-1.94896e-06 8.21017e-07 5.56908e-05
0.0011609 -0.000175118 -1.06507e-06
-0.000175118 0.000113898 -3.28406e-06
-1.06507e-06 -3.28406e-06 -8.51169e-05
0.00148529 -0.000203374 2.08455e-06
-0.000203374 0.000109131 -1.32043e-07
2.08455e-06 -1.32043e-07 -3.55873e-05
0.00180081 -0.000190806 -1.18593e-06
-0.000190806 0.000130728 -3.26371e-06
-1.18593e-06 -3.26371e-06 2.58495e-05
0.00151411 -0.000181997 -1.16042e-06
-0.000181997 0.000232393 -8.86849e-07
-1.16042e-06 -8.86849e-07 5.17944e-05
0.00152098 -0.000179414 -9.2765e-07
-0.000179414 9.04094e-05 -3.7703e-07
-9.2765e-07 -3.7703e-07 -5.12653e-05
0.00142518 -0.000148944 -1.2489e-06
-0.000148944 -3.89211e-05 -2.29624e-06
-1.2489e-06 -2.29624e-06 -0.000144625
0.00186681 -0.000153848 -1.76983e-06
-0.000153848 0.000241737 -1.23075e-06
-1.76983e-06 -1.23075e-06 0.000135482
0.00160469 -0.000166574 -2.51446e-06
-0.000166574 0.000210986 -1.97302e-06
-2.51446e-06 -1.97302e-06 6.87131e-05
0.00158057 -0.000163483 4.25152e-07
-0.000163483 0.000138982 1.09772e-06
4.25152e-07 1.09772e-06 6.79657e-06
0.000788081 -0.000127029 -2.73682e-06
-0.000127029 -0.000103765 1.42975e-06
-2.73682e-06 1.42975e-06 -0.000251223
0.00138306 -0.000162942 1.60304e-06
-0.000162942 0.000180774 -1.1668e-06
1.60304e-06 -1.1668e-06 2.00498e-05
0.00113928 -0.000157544 2.35908e-06
-0.000157544 -2.56183e-06 1.88557e-07
2.35908e-06 1.88557e-07 -0.000162716
0.00104402 -0.000127692 -6.56456e-07
-0.000127692 0.000114586 1.4113e-06
-6.56456e-07 1.4113e-06 -9.6217e-06
0.00103218 -0.000133394 7.81651e-07
-0.000133394 8.67819e-05 -3.76109e-07
7.81651e-07 -3.76109e-07 -5.55882e-05
0.0008448 -0.000133508 1.53808e-06
-0.000133508 -3.44604e-05 -2.54001e-06
1.53808e-06 -2.54001e-06 -0.000202972
0.00095391 -0.000101119 -1.71617e-06
-0.000101119 9.72213e-05 4.30857e-07
-1.71617e-06 4.30857e-07 -4.57123e-06
0.00104618 -0.000121261 -1.37708e-07
-0.000121261 0.000142661 -5.18861e-07
-1.37708e-07 -5.18861e-07 2.63302e-05
0.000845099 -0.000113627 2.8457e-07
-0.000113627 3.91032e-05 -2.47203e-06
2.8457e-07 -2.47203e-06 -8.28442e-05
0.000809036 1.66422e-05 3.31211e-07
1.66422e-05 4.72514e-05 3.16638e-06
3.31211e-07 3.16638e-06 -2.42939e-05
0.00093206 -5.59302e-05 8.92394e-07
-5.59302e-05 0.000105925 4.16654e-07
8.92394e-07 4.16654e-07 9.17066e-06
0.000943276 -8.87493e-05 4.55677e-07
-8.87493e-05 0.000119731 5.7053e-07
4.55677e-07 5.7053e-07 8.10661e-06
0.000616441 5.36608e-05 -1.74676e-06
5.36608e-05 -4.72477e-05 4.12651e-06
-1.74676e-06 4.12651e-06 -6.92933e-05
0.00073588 3.04309e-05 -7.0506e-07
3.04309e-05 7.25277e-06 -3.49913e-07
-7.0506e-07 -3.49913e-07 -5.11015e-05
0.000888563 -1.92141e-05 8.49428e-09
-1.92141e-05 9.39339e-05 -1.65719e-06
8.49428e-09 -1.65719e-06 6.00208e-06
0.00217832 7.49629e-05 -9.64333e-06
7.49629e-05 0.000802862 1.27849e-06
-9.64333e-06 1.27849e-06 0.000811661
0.000689904 4.89814e-05 6.04641e-08
4.89814e-05 -1.60761e-05 -6.01945e-08
6.04641e-08 -6.01945e-08 -3.26546e-05
0.000726824 4.33584e-05 9.76254e-07
4.33584e-05 -1.47328e-06 -2.22825e-06
9.76254e-07 -2.22825e-06 -4.85406e-05
0.00212203 6.04488e-05 1.07338e-06
6.04488e-05 0.000761831 8.18765e-08
1.07338e-06 8.18765e-08 0.000774909
0.000735276 4.52929e-05 1.63689e-06
4.52929e-05 -1.68325e-06 -3.42259e-06
1.63689e-06 -3.42259e-06 -1.39312e-05
0.00210526 5.42558e-05 2.47066e-05
5.42558e-05 0.000745582 -3.23027e-06
2.47066e-05 -3.23027e-06 0.000760483
0.00093153 2.94406e-05 -4.11228e-07
2.94406e-05 0.000107673 -2.12445e-07
-4.11228e-07 -2.12445e-07 2.93653e-05
0.000820694 -8.85613e-06 1.0577e-07
-8.85613e-06 3.89288e-05 -2.99602e-07
1.0577e-07 -2.99602e-07 -3.38265e-05
0.00081793 -2.32447e-06 -4.19024e-07
-2.32447e-06 3.83699e-05 -1.69244e-06
-4.19024e-07 -1.69244e-06 -2.86582e-05
0.000749305 -5.10023e-05 -3.99772e-07
-5.10023e-05 -1.43551e-06 -2.27561e-06
-3.99772e-07 -2.27561e-06 -4.28569e-05
0.000807671 -1.58417e-05 7.66762e-07
-1.58417e-05 2.89467e-05 -8.60711e-08
7.66762e-07 -8.60711e-08 -3.29564e-05
0.000795571 -3.37564e-06 5.87748e-07
-3.37564e-06 2.78864e-05 9.1854e-07
5.87748e-07 9.1854e-07 -4.32961e-05
0.000710475 -3.76103e-05 -1.51252e-06
-3.76103e-05 -2.52653e-05 -3.61635e-06
-1.51252e-06 -3.61635e-06 -3.63439e-05
0.000766371 -3.39837e-05 -2.01014e-07
-3.39837e-05 6.79642e-07 2.37608e-08
-2.01014e-07 2.37608e-08 -3.74869e-05
0.000818301 -1.21809e-05 1.21191e-06
-1.21809e-05 3.18234e-05 9.46316e-07
1.21191e-06 9.46316e-07 -2.65437e-05
0.00221834 -4.77912e-05 -2.31919e-05
-4.77912e-05 0.000797476 -3.66953e-06
-2.31919e-05 -3.66953e-06 0.000813454
0.000703777 -3.26602e-05 -1.82123e-07
-3.26602e-05 -3.52171e-05 1.57466e-08
-1.82123e-07 1.57466e-08 -4.43849e-05
0.000783546 -2.37042e-05 8.66781e-07
-2.37042e-05 5.87659e-06 1.62502e-06
8.66781e-07 1.62502e-06 -3.04106e-05
0.00218098 -4.03421e-05 -2.0644e-06
-4.03421e-05 0.000770205 9.53128e-08
-2.0644e-06 9.53128e-08 0.000787931
0.000707503 -2.77422e-05 4.50864e-07
-2.77422e-05 -3.93528e-05 3.38639e-06
4.50864e-07 3.38639e-06 -4.64532e-05
0.00212806 -3.20991e-05 1.44026e-05
-3.20991e-05 0.000735188 3.99678e-06
1.44026e-05 3.99678e-06 0.000754695
-0.00186425 -0.000134389 4.06408e-05
-0.000134389 -0.000512137 1.51016e-05
4.06408e-05 1.51016e-05 -0.000934972
0.00178052 -3.94623e-05 2.07894e-06
-3.94623e-05 0.000265645 5.74103e-06
2.07894e-06 5.74103e-06 7.34896e-05
0.0010664 -7.67542e-06 -4.8713e-06
-7.67542e-06 1.85192e-05 -4.43157e-06
-4.8713e-06 -4.43157e-06 -7.29408e-05
0.00089979 8.3279e-06 -8.56364e-07
8.3279e-06 9.54357e-05 7.13675e-07
-8.56364e-07 7.13675e-07 1.25807e-05
0.00104627 0.000103107 7.98112e-08
0.000103107 0.000187951 1.03662e-06
7.98112e-08 1.03662e-06 8.98817e-05
0.00089146 3.10753e-05 -4.63015e-07
3.10753e-05 9.8783e-05 1.31754e-07
-4.63015e-07 1.31754e-07 9.33161e-06
0.000986381 -4.29565e-05 4.49046e-07
-4.29565e-05 0.000131149 -2.60521e-07
4.49046e-07 -2.60521e-07 5.9915e-05
0.000928632 1.68431e-05 6.67862e-07
1.68431e-05 9.92465e-05 6.91807e-07
6.67862e-07 6.91807e-07 2.33279e-05
0.000749773 -2.85967e-05 -8.12837e-07
-2.85967e-05 9.26956e-06 1.71918e-06
-8.12837e-07 1.71918e-06 -6.80696e-05
0.000769311 2.10251e-06 -6.05959e-07
2.10251e-06 2.75041e-05 3.81852e-08
-6.05959e-07 3.81852e-08 -5.40203e-05
0.00081495 6.33633e-06 1.79733e-07
6.33633e-06 4.83952e-05 -7.54548e-08
1.79733e-07 -7.54548e-08 -3.57634e-05
0.0010162 5.04947e-05 1.10215e-06
5.04947e-05 0.000179887 -1.87154e-06
1.10215e-06 -1.87154e-06 8.17924e-05
0.000817907 5.17373e-05 3.25871e-06
5.17373e-05 4.12713e-05 -2.73842e-06
3.25871e-06 -2.73842e-06 -3.853e-05
0.000881789 2.72482e-05 -1.10081e-07
2.72482e-05 8.65231e-05 -7.78138e-07
-1.10081e-07 -7.78138e-07 8.81045e-06
0.00105177 2.98356e-05 6.89542e-07
2.98356e-05 0.000190412 6.39451e-07
6.89542e-07 6.39451e-07 0.000113293
-0.00179903 -0.000314778 -1.33662e-05
-0.000314778 -0.000855018 1.99521e-05
-1.33662e-05 1.99521e-05 -0.000926877
-0.000258547 -0.000317673 2.0032e-05
-0.000317673 -0.000111907 7.32738e-06
2.0032e-05 7.32738e-06 -0.000102903
0.00207892 -4.80354e-05 -4.02934e-05
-4.80354e-05 0.000344624 -3.12674e-05
-4.02934e-05 -3.12674e-05 -3.32282e-05
-0.00294944 -0.000579634 1.4215e-05
-0.000579634 -0.00249564 3.38114e-05
1.4215e-05 3.38114e-05 -0.00114391
0.00505088 -0.000620632 -1.63893e-05
-0.000620632 0.00142169 -2.62575e-05
-1.63893e-05 -2.62575e-05 0.00152707
0.00345797 0.000198861 4.61291e-05
0.000198861 0.000812518 1.90114e-06
4.61291e-05 1.90114e-06 -0.000998253
0.00294881 -0.000238484 -0.000119618
-0.000238484 0.000385983 8.21184e-05
-0.000119618 8.21184e-05 -0.000173163
0.00314936 0.000107041 -3.01645e-05
0.000107041 0.000354734 -3.19846e-07
-3.01645e-05 -3.19846e-07 0.000112745
0.00361918 -0.000655812 -1.33388e-05
-0.000655812 0.00139921 1.69131e-05
-1.33388e-05 1.69131e-05 0.00152604
0.00173397 2.66657e-05 1.16429e-05
2.66657e-05 1.98122e-05 2.3793e-05
1.16429e-05 2.3793e-05 -0.00159897
0.00199282 0.000308231 -0.000106872
0.000308231 0.000244381 -8.55258e-05
-0.000106872 -8.55258e-05 -0.000446951
0.00214633 0.00028532 -0.000130938
0.00028532 0.000333719 -4.59385e-05
-0.000130938 -4.59385e-05 -0.00128085
0.00229157 0.000290391 1.18011e-05
0.000290391 0.000658667 -1.02304e-05
1.18011e-05 -1.02304e-05 0.000527918
0.000815522 0.000117001 -1.75613e-06
0.000117001 6.35717e-05 6.18039e-08
-1.75613e-06 6.18039e-08 6.71209e-06
0.00117542 1.73917e-05 -8.99764e-07
1.73917e-05 0.000246615 -2.08778e-06
-8.99764e-07 -2.08778e-06 0.000188408
0.000448281 0.000112189 -3.08651e-05
0.000112189 3.83511e-05 -1.45891e-05
-3.08651e-05 -1.45891e-05 -0.000175447
0.00153782 0.000100859 -3.95156e-06
0.000100859 0.000522669 -5.7742e-06
-3.95156e-06 -5.7742e-06 0.000434272
0.00119821 0.000212952 1.28443e-05
0.000212952 0.000206002 -3.26126e-07
1.28443e-05 -3.26126e-07 8.63633e-05
0.00136507 0.000281346 4.81318e-05
0.000281346 -0.000111238 2.83248e-05
4.81318e-05 2.83248e-05 -0.000155322
-0.00381499 -3.89558e-05 -4.88521e-05
-3.89558e-05 -0.00184057 -1.11625e-05
-4.88521e-05 -1.11625e-05 -0.00157888
-0.000437005 -1.43947e-05 1.73279e-05
-1.43947e-05 0.000405494 7.78589e-07
1.73279e-05 7.78589e-07 4.02024e-05
0.00139389 -1.38073e-05 -3.52066e-05
-1.38073e-05 0.000110059 2.50226e-06
-3.52066e-05 2.50226e-06 -2.34262e-05
0.00133018 -0.000178322 -3.48509e-05
-0.000178322 -1.4773e-06 -1.55964e-05
-3.48509e-05 -1.55964e-05 0.000208638
0.00386558 -0.000559416 -6.10728e-05
-0.000559416 0.000741605 -5.88541e-06
-6.10728e-05 -5.88541e-06 2.856e-05
0.00109807 0.000127592 -4.53369e-05
0.000127592 0.00109353 1.48778e-05
-4.53369e-05 1.48778e-05 0.000960672
-0.000542473 8.41632e-05 3.69544e-05
8.41632e-05 -0.000730682 -4.7199e-05
3.69544e-05 -4.7199e-05 -0.00252008
0.00911413 0.000512886 -8.74683e-05
0.000512886 0.00450837 1.04533e-05
-8.74683e-05 1.04533e-05 0.00448387
0.00137255 -0.00025769 7.87774e-06
-0.00025769 3.30223e-05 1.05188e-06
7.87774e-06 1.05188e-06 2.15373e-05
-0.000431706 0.000235292 -5.01852e-06
0.000235292 -2.22792e-05 -3.39281e-06
-5.01852e-06 -3.39281e-06 -0.000117263
0.00246526 0.000192537 -1.44074e-05
0.000192537 0.000336369 1.61933e-05
-1.44074e-05 1.61933e-05 -0.0012016
0.00454749 -0.000338627 -7.45853e-06
-0.000338627 0.00105809 6.93464e-06
-7.45853e-06 6.93464e-06 0.000325618
6.51692e-07 -0.00012547 -1.37741e-06
-0.00012547 -0.000473377 -3.44419e-06
-1.37741e-06 -3.44419e-06 -0.000633696
0.00779306 -2.27206e-05 4.65352e-05
-2.27206e-05 0.00265862 -1.92849e-07
4.65352e-05 -1.92849e-07 0.00172631
0.0029421 -2.07721e-05 4.03348e-06
-2.07721e-05 0.000242246 -9.5321e-06
4.03348e-06 -9.5321e-06 -0.000177854
-2.02981e-05 -9.88515e-05 -1.13742e-05
-9.88515e-05 -0.000561815 2.15537e-07
-1.13742e-05 2.15537e-07 -0.000529596
0.00123697 -0.000175475 -7.30928e-07
-0.000175475 -0.000214843 -4.52638e-07
-7.30928e-07 -4.52638e-07 -0.00017396
0.00176277 -0.000218792 3.56068e-06
-0.000218792 -9.27913e-05 -8.11172e-06
3.56068e-06 -8.11172e-06 -6.08014e-05
0.00155629 -0.000223435 -4.31206e-06
-0.000223435 0.000151778 -4.32032e-06
-4.31206e-06 -4.32032e-06 1.57238e-06
0.00164545 -0.000230828 -4.90248e-07
-0.000230828 1.54301e-05 1.76091e-06
-4.90248e-07 1.76091e-06 -7.45479e-05
0.00197197 -0.000205318 -5.83763e-06
-0.000205318 9.95327e-05 9.72619e-07
-5.83763e-06 9.72619e-07 4.10744e-05
0.00127838 -0.000191534 1.69441e-06
-0.000191534 8.05204e-06 1.3889e-06
1.69441e-06 1.3889e-06 -0.000137916
0.0016906 -0.000186093 -1.7913e-06
-0.000186093 7.18924e-05 1.10796e-08
-1.7913e-06 1.10796e-08 -3.3403e-05
0.00183891 -0.000155701 -1.87852e-06
-0.000155701 8.43526e-05 -7.76331e-07
-1.87852e-06 -7.76331e-07 2.83642e-06
0.00176152 -0.000187306 1.37666e-06
-0.000187306 0.000213842 2.0987e-06
1.37666e-06 2.0987e-06 7.22974e-05
0.00164721 -0.000156207 3.47545e-07
-0.000156207 7.49698e-05 8.97976e-07
3.47545e-07 8.97976e-07 -3.13433e-05
0.00154591 -0.000129785 -8.96942e-07
-0.000129785 1.9314e-06 6.1637e-07
-8.96942e-07 6.1637e-07 -8.84693e-05
0.00187606 -0.000134799 -5.51788e-07
-0.000134799 0.00023039 -2.88615e-07
-5.51788e-07 -2.88615e-07 0.000132878
0.00165063 -0.000143897 -1.89354e-06
-0.000143897 0.0001314 2.08884e-06
-1.89354e-06 2.08884e-06 2.72827e-05
0.00163475 -0.000146866 1.73018e-07
-0.000146866 0.000174929 -3.42451e-06
1.73018e-07 -3.42451e-06 5.88721e-05
0.00148969 -0.00015558 -3.16745e-06
-0.00015558 0.000187244 -6.32806e-07
-3.16745e-06 -6.32806e-07 4.84562e-05
0.00163426 -0.000166513 1.27809e-06
-0.000166513 0.000227893 -2.3122e-07
1.27809e-06 -2.3122e-07 8.55536e-05
0.00135155 -0.000151294 3.02262e-06
-0.000151294 2.20462e-05 3.91225e-06
3.02262e-06 3.91225e-06 -0.000108039
0.000802923 -0.00012056 -3.1874e-06
-0.00012056 -6.81672e-05 2.78157e-06
-3.1874e-06 2.78157e-06 -0.000201552
0.00112516 -0.00014216 3.43812e-07
-0.00014216 7.68628e-05 -1.2742e-07
3.43812e-07 -1.2742e-07 -6.96573e-05
0.00147316 -0.000165385 4.51308e-06
-0.000165385 0.000229464 -1.98032e-06
4.51308e-06 -1.98032e-06 7.08835e-05
0.000950759 -0.00010885 -1.57915e-06
-0.00010885 7.5598e-05 7.56895e-07
-1.57915e-06 7.56895e-07 -3.21471e-05
0.00109532 -0.00012951 1.59941e-07
-0.00012951 0.000140046 -2.54133e-07
1.59941e-07 -2.54133e-07 1.56559e-05
0.000684056 -0.000113925 1.28979e-06
-0.000113925 -9.38405e-05 -3.74205e-06
1.28979e-06 -3.74205e-06 -0.000234737
0.000789674 -3.48929e-05 -2.49509e-06
-3.48929e-05 2.73641e-05 2.6508e-06
-2.49509e-06 2.6508e-06 -5.19666e-05
0.00102084 -0.00010561 4.52641e-08
-0.00010561 0.000131601 -6.96058e-08
4.52641e-08 -6.96058e-08 2.94951e-05
0.00113194 -0.000125531 9.80169e-07
-0.000125531 0.00018653 -8.68387e-07
9.80169e-07 -8.68387e-07 6.98436e-05
0.000563322 6.54688e-05 -1.17103e-07
6.54688e-05 -6.86308e-05 5.17729e-06
-1.17103e-07 5.17729e-06 -9.98009e-05
0.000776438 -2.32269e-06 -2.00398e-08
-2.32269e-06 2.9692e-05 6.46098e-08
-2.00398e-08 6.46098e-08 -4.29546e-05
0.00100176 -6.19668e-05 1.46331e-06
-6.19668e-05 0.000143217 -5.30222e-07
1.46331e-06 -5.30222e-07 4.55944e-05
0.00237595 7.70092e-05 -3.41316e-05
7.70092e-05 0.000915117 2.77617e-06
-3.41316e-05 2.77617e-06 0.000922582
0.000653648 5.83651e-05 -1.4597e-07
5.83651e-05 -2.5852e-05 -1.70054e-07
-1.4597e-07 -1.70054e-07 -4.90661e-05
0.000719082 -9.04623e-07 2.17564e-06
-9.04623e-07 -4.28496e-06 -2.86194e-06
2.17564e-06 -2.86194e-06 -6.18614e-05
0.00157845 5.85715e-05 1.34004e-05
5.85715e-05 0.000473833 -6.28189e-07
1.34004e-05 -6.28189e-07 0.000480461
0.000723483 5.20348e-05 1.29054e-06
5.20348e-05 2.16812e-06 -3.8739e-06
1.29054e-06 -3.8739e-06 -1.48805e-05
0.00217989 6.14162e-05 2.88423e-05
6.14162e-05 0.000794768 -3.05944e-06
2.88423e-05 -3.05944e-06 0.000807273
0.000910013 4.57692e-05 2.70794e-07
4.57692e-05 9.87652e-05 5.91062e-07
2.70794e-07 5.91062e-07 1.21172e-05
0.000903063 -2.52348e-06 -2.41288e-07
-2.52348e-06 8.91557e-05 5.10034e-07
-2.41288e-07 5.10034e-07 1.30814e-05
0.000837798 -3.04102e-05 2.28264e-08
-3.04102e-05 5.45569e-05 -1.38933e-06
2.28264e-08 -1.38933e-06 -1.69815e-05
0.000881936 2.57126e-06 2.45504e-07
2.57126e-06 7.24336e-05 7.29838e-07
2.45504e-07 7.29838e-07 -1.60173e-06
0.000816091 -3.22354e-05 3.63042e-07
-3.22354e-05 3.41902e-05 -8.52265e-08
3.63042e-07 -8.52265e-08 -3.06783e-05
0.000717934 -4.89848e-05 -6.40529e-07
-4.89848e-05 -1.20959e-05 -2.4164e-06
-6.40529e-07 -2.4164e-06 -5.64738e-05
0.000710108 -4.21548e-05 -2.00115e-06
-4.21548e-05 -1.8877e-05 -3.6956e-06
-2.00115e-06 -3.6956e-06 -3.1719e-05
0.000749553 -4.42907e-05 -3.07111e-08
-4.42907e-05 -2.49831e-06 -1.64447e-08
-3.07111e-08 -1.64447e-08 -4.30617e-05
0.000810576 -5.53107e-05 -1.56449e-07
-5.53107e-05 2.80389e-05 1.4186e-06
-1.56449e-07 1.4186e-06 -3.16468e-05
0.00222983 -5.45466e-05 -2.66852e-05
-5.45466e-05 0.000810706 -3.4488e-06
-2.66852e-05 -3.4488e-06 0.000825087
0.00069403 -3.6754e-05 -2.33412e-07
-3.6754e-05 -3.40486e-05 3.2396e-08
-2.33412e-07 3.2396e-08 -4.50427e-05
0.000769947 -2.53134e-05 1.55404e-06
-2.53134e-05 1.81119e-06 1.8576e-06
1.55404e-06 1.8576e-06 -3.57427e-05
0.00221573 -4.76676e-05 -1.68204e-06
-4.76676e-05 0.000795367 1.0649e-07
-1.68204e-06 1.0649e-07 0.000811448
0.000695392 -3.20645e-05 8.34512e-07
-3.20645e-05 -3.95349e-05 3.53428e-06
8.34512e-07 3.53428e-06 -4.86762e-05
0.00216748 -4.00093e-05 1.76556e-05
-4.00093e-05 0.00076222 3.87329e-06
1.76556e-05 3.87329e-06 0.000780118
0.00122197 0.00012153 8.13094e-05
0.00012153 0.000893022 2.96786e-05
8.13094e-05 2.96786e-05 0.000487522
-0.00024079 -0.000161246 3.22518e-06
-0.000161246 0.000252013 4.80387e-06
3.22518e-06 4.80387e-06 -6.68593e-05
0.0017433 -4.50049e-05 -3.6976e-05
-4.50049e-05 0.000249513 -1.0036e-05
-3.6976e-05 -1.0036e-05 5.89718e-05
0.000892467 -1.46565e-05 1.0999e-07
-1.46565e-05 8.94789e-05 9.01853e-07
1.0999e-07 9.01853e-07 8.02673e-06
0.000870134 5.86319e-06 -3.41972e-08
5.86319e-06 8.4423e-05 6.58613e-07
-3.41972e-08 6.58613e-07 -4.24023e-06
0.000923827 9.27111e-05 -2.20375e-08
9.27111e-05 0.00012594 2.45157e-07
-2.20375e-08 2.45157e-07 2.89617e-05
0.00109907 0.000122257 8.27445e-07
0.000122257 0.000209903 5.78898e-07
8.27445e-07 5.78898e-07 0.000101883
0.000918415 7.76122e-05 -1.10011e-06
7.76122e-05 0.000129603 -1.96877e-07
-1.10011e-06 -1.96877e-07 2.74043e-05
0.000823889 2.27116e-05 4.83269e-07
2.27116e-05 5.65674e-05 1.23008e-06
4.83269e-07 1.23008e-06 -2.57872e-05
0.000770758 8.0898e-06 2.82172e-07
8.0898e-06 2.41254e-05 1.29086e-06
2.82172e-07 1.29086e-06 -5.97024e-05
0.000739781 5.10814e-05 -9.03514e-07
5.10814e-05 3.10771e-05 -9.05656e-07
-9.03514e-07 -9.05656e-07 -6.45316e-05
0.000247073 7.20869e-05 -2.81229e-07
7.20869e-05 -0.000218342 6.21375e-07
-2.81229e-07 6.21375e-07 -0.00032802
0.000852395 0.000101589 8.75199e-07
0.000101589 5.5464e-05 -2.88508e-06
8.75199e-07 -2.88508e-06 -4.25198e-05
0.00193025 0.000218562 4.34921e-06
0.000218562 0.000454643 -6.97512e-06
4.34921e-06 -6.97512e-06 0.00033347
0.000809932 5.50231e-05 -1.31372e-06
5.50231e-05 5.4825e-05 -3.60934e-07
-1.31372e-06 -3.60934e-07 -2.61205e-05
0.000770502 1.19048e-06 -4.12557e-07
1.19048e-06 3.34369e-05 -6.6383e-07
-4.12557e-07 -6.6383e-07 -3.94405e-05
0.00910179 -5.93252e-05 -3.90252e-05
-5.93252e-05 0.00287652 -1.06797e-05
-3.90252e-05 -1.06797e-05 0.00170253
-0.00224836 -0.000274864 -3.60807e-05
-0.000274864 -0.000804457 -3.94949e-06
-3.60807e-05 -3.94949e-06 -0.00114893
0.00109776 -0.000330867 -3.15553e-05
-0.000330867 0.000578176 -2.44721e-05
-3.15553e-05 -2.44721e-05 0.000548176
-0.00271961 -0.000368666 -9.1071e-06
-0.000368666 -0.0015511 8.31509e-06
-9.1071e-06 8.31509e-06 -0.00135613
0.00965704 -0.000416848 7.2096e-05
-0.000416848 0.00374855 1.17851e-05
7.2096e-05 1.17851e-05 0.00176518
0.00331543 0.000111678 1.78519e-06
0.000111678 0.00052714 1.73739e-05
1.78519e-06 1.73739e-05 0.000476634
0.0015171 0.000299384 -4.0196e-05
0.000299384 -0.000130718 -2.17307e-05
-4.0196e-05 -2.17307e-05 -0.000682557
0.00697558 -0.000309781 4.8231e-05
-0.000309781 0.00217349 1.80335e-05
4.8231e-05 1.80335e-05 0.000877048
0.00292737 0.000313528 4.16976e-06
0.000313528 0.000146613 -3.60159e-05
4.16976e-06 -3.60159e-05 -0.00035379
0.00213371 0.000335912 1.03027e-05
0.000335912 0.000361842 1.20765e-05
1.03027e-05 1.20765e-05 0.000208385
0.000871212 0.000194666 1.41115e-06
0.000194666 1.16012e-05 -5.25382e-06
1.41115e-06 -5.25382e-06 -0.000129801
0.000930056 0.000106921 -5.60289e-06
0.000106921 0.000120466 3.53581e-06
-5.60289e-06 3.53581e-06 6.71879e-05
0.00165931 0.000249059 -3.40845e-05
0.000249059 0.00039001 -1.66397e-05
-3.40845e-05 -1.66397e-05 0.000282037
0.000744342 0.000264743 -1.72189e-05
0.000264743 -0.00038559 1.4372e-05
-1.72189e-05 1.4372e-05 -0.000447105
0.0005906 -0.000105745 -6.64556e-07
-0.000105745 -0.00118444 -4.29601e-06
-6.64556e-07 -4.29601e-06 -0.00163321
0.00192552 -2.62963e-05 -3.59934e-06
-2.62963e-05 0.0010772 -7.5668e-07
-3.59934e-06 -7.5668e-07 0.0010412
-0.00118419 -1.26429e-05 -1.37627e-05
-1.26429e-05 0.000164957 6.83904e-08
-1.37627e-05 6.83904e-08 -0.000253768
0.00250167 -0.000332945 -4.60365e-05
-0.000332945 0.000529015 4.32046e-06
-4.60365e-05 4.32046e-06 0.000469113
0.00412532 -0.000346064 -9.71768e-06
-0.000346064 0.000830525 -1.73541e-05
-9.71768e-06 -1.73541e-05 -0.000174743
-0.000147726 -6.55551e-05 -3.38667e-05
-6.55551e-05 0.000234082 1.93304e-05
-3.38667e-05 1.93304e-05 -4.25656e-05
0.00844115 0.000390337 -3.49705e-05
0.000390337 0.00336832 2.48561e-05
-3.49705e-05 2.48561e-05 0.00194344
0.0005141 -0.000167674 9.5084e-07
-0.000167674 -0.000269125 -1.72026e-08
9.5084e-07 -1.72026e-08 -0.000386766
0.00563908 0.000162339 1.85155e-05
0.000162339 0.00152559 1.38068e-05
1.85155e-05 1.38068e-05 0.000703636
0.00375197 -7.06148e-05 4.05254e-05
-7.06148e-05 0.000411893 -1.83108e-06
4.05254e-05 -1.83108e-06 -0.000218188
0.00341189 -0.00019296 -6.48355e-06
-0.00019296 0.00121441 1.66512e-06
-6.48355e-06 1.66512e-06 0.00103147
0.00249255 -2.21227e-05 -7.24115e-05
-2.21227e-05 0.000429774 -5.22743e-06
-7.24115e-05 -5.22743e-06 0.000126439
0.000573699 -0.000156811 -4.87805e-06
-0.000156811 -0.000558459 7.49425e-07
-4.87805e-06 7.49425e-07 -0.000512579
0.00165858 -0.000223589 -6.08879e-07
-0.000223589 -0.000120274 7.34315e-07
-6.08879e-07 7.34315e-07 -0.000114781
0.00174075 -0.000142912 -2.80582e-06
-0.000142912 -0.000113405 -2.64288e-06
-2.80582e-06 -2.64288e-06 -0.000131245
0.0014158 -0.000218932 6.36866e-06
-0.000218932 -0.000100166 1.20909e-06
6.36866e-06 1.20909e-06 -0.000187281
0.00179237 -0.000190894 -5.03444e-08
-0.000190894 3.33378e-05 -3.15936e-07
-5.03444e-08 -3.15936e-07 -2.66621e-05
0.00191074 -0.000121437 -3.36131e-06
-0.000121437 4.65994e-05 7.09568e-07
-3.36131e-06 7.09568e-07 -6.03594e-06
0.00163918 -0.000183435 -6.32036e-07
-0.000183435 4.28844e-05 2.66469e-06
-6.32036e-07 2.66469e-06 -6.29699e-05
0.00179865 -0.000153052 1.41833e-07
-0.000153052 6.43648e-05 1.12398e-06
1.41833e-07 1.12398e-06 -1.74291e-05
0.0018052 -0.000117834 4.37481e-07
-0.000117834 8.92756e-05 3.53044e-07
4.37481e-07 3.53044e-07 9.21892e-06
0.0018329 -0.000162419 3.1145e-06
-0.000162419 0.000170553 3.72836e-06
3.1145e-06 3.72836e-06 6.36339e-05
0.00169316 -0.000135095 -1.09102e-07
-0.000135095 8.19074e-05 7.76368e-07
-1.09102e-07 7.76368e-07 -1.01155e-05
0.00171553 -0.00011674 5.28798e-07
-0.00011674 0.00010742 1.41857e-06
5.28798e-07 1.41857e-06 1.33315e-05
0.00165653 -0.000128897 -2.21633e-06
-0.000128897 0.000118632 -1.6267e-08
-2.21633e-06 -1.6267e-08 2.35733e-05
0.0016925 -0.00012921 2.18246e-06
-0.00012921 0.00016578 -1.43854e-06
2.18246e-06 -1.43854e-06 5.9353e-05
0.00153868 -0.000137682 1.52883e-06
-0.000137682 7.50701e-05 3.90194e-06
1.52883e-06 3.90194e-06 -2.71662e-05
0.00160836 -0.000145114 4.12294e-07
-0.000145114 0.000159225 -6.62058e-07
4.12294e-07 -6.62058e-07 4.32899e-05
0.00155264 -0.000141663 -9.59357e-07
-0.000141663 0.000166328 -1.56939e-06
-9.59357e-07 -1.56939e-06 4.33599e-05
0.0010093 -0.000128335 -3.9392e-06
-0.000128335 -3.01849e-05 1.20633e-06
-3.9392e-06 1.20633e-06 -0.000162223
0.00146891 -0.000153464 1.89018e-07
-0.000153464 0.000177134 -4.19134e-07
1.89018e-07 -4.19134e-07 3.78356e-05
0.00166976 -0.000166692 3.67473e-06
-0.000166692 0.000248086 1.47466e-06
3.67473e-06 1.47466e-06 0.000105636
0.00103453 -0.000119745 -2.54718e-06
-0.000119745 8.6289e-05 1.6654e-06
-2.54718e-06 1.6654e-06 -2.94059e-05
0.000912201 -0.000124998 -8.81285e-07
-0.000124998 -7.22385e-06 9.94721e-07
-8.81285e-07 9.94721e-07 -0.000139599
0.00143471 -0.000155757 3.45839e-06
-0.000155757 0.000243326 -1.96461e-06
3.45839e-06 -1.96461e-06 9.78416e-05
0.000741748 -5.42474e-05 -2.94471e-06
-5.42474e-05 -1.24549e-05 1.97519e-06
-2.94471e-06 1.97519e-06 -9.52961e-05
0.00104383 -0.000114572 1.06325e-07
-0.000114572 0.000123513 -2.77962e-07
1.06325e-07 -2.77962e-07 1.51004e-05
0.00115609 -0.000131934 1.51371e-06
-0.000131934 0.000170632 -2.00509e-06
1.51371e-06 -2.00509e-06 4.59824e-05
0.000565759 4.5942e-05 -1.4001e-06
4.5942e-05 -7.20948e-05 5.81567e-06
-1.4001e-06 5.81567e-06 -0.000108273
0.000823608 -3.93697e-05 1.45615e-07
-3.93697e-05 4.42887e-05 2.82364e-07
1.45615e-07 2.82364e-07 -3.50592e-05
0.00107624 -0.000101494 1.77027e-06
-0.000101494 0.000158993 -5.34379e-07
1.77027e-06 -5.34379e-07 5.75735e-05
0.00265069 8.82583e-05 -3.97676e-05
8.82583e-05 0.00106772 2.73634e-06
-3.97676e-05 2.73634e-06 0.0010718
0.000618695 5.78878e-05 7.33955e-07
5.78878e-05 -4.04341e-05 -1.36368e-07
7.33955e-07 -1.36368e-07 -7.07577e-05
0.000762202 -3.26096e-05 2.35429e-06
-3.26096e-05 1.83842e-05 -2.68719e-06
2.35429e-06 -2.68719e-06 -5.2957e-05
0.00245964 7.78228e-05 8.89002e-07
7.78228e-05 0.000959958 1.16607e-07
8.89002e-07 1.16607e-07 0.000967067
0.000693726 6.17592e-05 -4.33318e-07
6.17592e-05 -3.16496e-06 -4.77431e-06
-4.33318e-07 -4.77431e-06 -2.7374e-05
0.0023236 6.91791e-05 3.43421e-05
6.91791e-05 0.000880406 -2.92452e-06
3.43421e-05 -2.92452e-06 0.000890229
0.00101935 0.000110575 4.25218e-07
0.000110575 0.000155249 8.38482e-08
4.25218e-07 8.38482e-08 5.30884e-05
0.000857424 7.34609e-05 3.21788e-07
7.34609e-05 7.44375e-05 1.00921e-07
3.21788e-07 1.00921e-07 -1.44964e-05
0.000778949 -2.22093e-05 -5.55987e-07
-2.22093e-05 2.73413e-05 -7.59778e-07
-5.55987e-07 -7.59778e-07 -5.40772e-05
0.000861565 -2.5493e-05 -2.89824e-07
-2.5493e-05 6.6036e-05 9.88567e-07
-2.89824e-07 9.88567e-07 -9.71405e-06
0.000807903 -4.40419e-05 1.61105e-07
-4.40419e-05 3.8112e-05 5.35853e-08
1.61105e-07 5.35853e-08 -3.36261e-05
0.000699818 -5.01048e-05 -6.44188e-07
-5.01048e-05 -1.60253e-05 -2.46969e-06
-6.44188e-07 -2.46969e-06 -6.73897e-05
0.000796071 -5.52583e-05 -1.34201e-07
-5.52583e-05 2.28975e-05 1.65584e-06
-1.34201e-07 1.65584e-06 -4.15101e-05
0.000733228 -5.33001e-05 4.34033e-08
-5.33001e-05 -4.03083e-06 -1.30083e-07
4.34033e-08 -1.30083e-07 -4.87104e-05
0.000705478 -4.95415e-05 -1.78104e-06
-4.95415e-05 -1.2279e-05 -3.86758e-06
-1.78104e-06 -3.86758e-06 -2.80149e-05
0.00222735 -6.1061e-05 -2.95951e-05
-6.1061e-05 0.000817076 -3.17192e-06
-2.95951e-05 -3.17192e-06 0.00082978
0.000693004 -4.10584e-05 -6.36234e-08
-4.10584e-05 -2.78482e-05 2.73449e-08
-6.36234e-08 2.73449e-08 -4.05937e-05
0.000750085 -4.23098e-05 1.5634e-06
-4.23098e-05 -2.32002e-06 2.01336e-06
1.5634e-06 2.01336e-06 -4.2713e-05
0.00223266 -5.44656e-05 -1.49124e-06
-5.44656e-05 0.000811401 1.12886e-07
-1.49124e-06 1.12886e-07 0.000825862
0.000682396 -3.5969e-05 1.20795e-06
-3.5969e-05 -4.02377e-05 3.67884e-06
1.20795e-06 3.67884e-06 -5.11621e-05
0.00220795 -4.74037e-05 2.15337e-05
-4.74037e-05 0.000790502 3.72399e-06
2.15337e-05 3.72399e-06 0.000806714
0.00763185 0.000102081 6.93689e-05
0.000102081 0.0022906 2.0436e-05
6.93689e-05 2.0436e-05 0.00140724
-0.00234194 -0.000124885 -1.2907e-05
-0.000124885 -0.00118884 -1.4244e-06
-1.2907e-05 -1.4244e-06 -0.00114351
-0.00143616 -0.000105824 -4.38686e-05
-0.000105824 -0.000297712 -6.44298e-06
-4.38686e-05 -6.44298e-06 -0.000755711
0.000828145 -1.81646e-05 3.80027e-07
-1.81646e-05 5.98604e-05 1.1134e-06
3.80027e-07 1.1134e-06 -2.83083e-05
0.000801411 9.2458e-05 -4.50795e-07
9.2458e-05 6.33492e-05 8.69542e-10
-4.50795e-07 8.69542e-10 -3.21984e-05
0.000994328 8.14584e-05 3.83636e-07
8.14584e-05 0.000170396 -1.23852e-07
3.83636e-07 -1.23852e-07 6.82756e-05
0.00100289 0.000116623 -9.59816e-07
0.000116623 0.000159541 8.0161e-08
-9.59816e-07 8.0161e-08 5.24498e-05
0.00110672 0.000126551 7.07605e-06
0.000126551 0.000205159 5.60932e-07
7.07605e-06 5.60932e-07 8.44052e-05
0.000675415 9.74759e-05 -7.34278e-07
9.74759e-05 3.58995e-06 4.11249e-07
-7.34278e-07 4.11249e-07 -0.000105671
0.000457566 4.88844e-05 -5.3785e-07
4.88844e-05 -0.000117947 1.65521e-07
-5.3785e-07 1.65521e-07 -0.000213023
0.000605404 9.44952e-05 4.92304e-07
9.44952e-05 -3.62201e-05 5.2214e-07
4.92304e-07 5.2214e-07 -0.000151339
0.00077417 8.42375e-05 -4.28289e-08
8.42375e-05 2.14154e-05 -2.02699e-07
-4.28289e-08 -2.02699e-07 -7.87196e-05
0.000140048 8.92179e-05 1.94715e-06
8.92179e-05 -0.000346822 -1.0853e-06
1.94715e-06 -1.0853e-06 -0.000464891
0.00337208 0.000275566 9.57762e-07
0.000275566 0.00118606 -1.88442e-06
9.57762e-07 -1.88442e-06 0.00106233
0.00141325 0.00022045 3.35747e-06
0.00022045 1.73679e-05 -1.60276e-06
3.35747e-06 -1.60276e-06 -0.000120857
0.00138466 0.000190033 1.74017e-06
0.000190033 0.000185978 -1.27022e-06
1.74017e-06 -1.27022e-06 6.95171e-05
0.000871211 6.20683e-05 -4.12657e-06
6.20683e-05 9.99499e-05 1.941e-06
-4.12657e-06 1.941e-06 1.89063e-05
0.00264899 2.74404e-05 -1.62759e-05
2.74404e-05 -0.000117229 -4.73892e-06
-1.62759e-05 -4.73892e-06 -0.000401187
0.00548181 -4.81223e-05 1.44727e-05
-4.81223e-05 0.00142018 4.12959e-06
1.44727e-05 4.12959e-06 0.000285557
0.00498382 -0.00054794 -3.26002e-05
-0.00054794 0.00239634 -2.95552e-05
-3.26002e-05 -2.95552e-05 0.00238122
0.00743805 -0.000110108 0.000223296
-0.000110108 0.00243396 6.5985e-05
0.000223296 6.5985e-05 0.000865905
0.00293348 0.000340427 4.20399e-05
0.000340427 0.000482268 4.42673e-05
4.20399e-05 4.42673e-05 0.000301577
0.0021776 0.000226228 -5.74012e-05
0.000226228 2.60629e-05 -1.82881e-05
-5.74012e-05 -1.82881e-05 -0.000289843
0.0021964 0.000282316 3.65438e-05
0.000282316 0.000214819 1.91539e-05
3.65438e-05 1.91539e-05 0.000209115
0.00200436 0.00032495 -1.79154e-06
0.00032495 0.000294546 5.57511e-06
-1.79154e-06 5.57511e-06 0.000162546
0.00025285 0.000149324 -1.80962e-06
0.000149324 -0.000284807 5.21392e-06
-1.80962e-06 5.21392e-06 -0.00042077
0.00210909 0.000351689 -7.17426e-05
0.000351689 0.000277905 -4.63691e-05
-7.17426e-05 -4.63691e-05 0.000209739
0.00332625 -0.000116805 -0.000146635
-0.000116805 0.000770371 1.02802e-06
-0.000146635 1.02802e-06 0.000366748
0.00774612 -1.31125e-05 1.461e-05
-1.31125e-05 0.00261907 -1.88559e-06
1.461e-05 -1.88559e-06 0.00197032
-0.00567391 -0.000101175 5.57523e-05
-0.000101175 -0.00294226 6.55179e-06
5.57523e-05 6.55179e-06 -0.00279366
0.000963974 -0.000179749 -1.01151e-07
-0.000179749 -6.72144e-05 6.33318e-06
-1.01151e-07 6.33318e-06 -0.000171263
0.00515479 -0.00011768 7.67639e-05
-0.00011768 0.00114931 1.73628e-06
7.67639e-05 1.73628e-06 0.000563968
0.000451793 -0.000234302 7.03392e-05
-0.000234302 -0.000895332 2.43771e-05
7.03392e-05 2.43771e-05 -0.00164334
0.00126847 -0.000123675 5.07867e-06
-0.000123675 0.00012303 -1.3116e-06
5.07867e-06 -1.3116e-06 5.23927e-06
0.00158003 4.63104e-05 -3.243e-06
4.63104e-05 -0.000155105 1.34828e-06
-3.243e-06 1.34828e-06 -0.000433956
0.00435188 -0.000107955 3.98084e-06
-0.000107955 0.00145509 -3.40052e-06
3.98084e-06 -3.40052e-06 0.00138844
0.00169478 2.51833e-05 2.90908e-05
2.51833e-05 2.48804e-05 -2.46608e-06
2.90908e-05 -2.46608e-06 -6.5972e-05
0.00153101 -0.000229914 4.50464e-07
-0.000229914 -0.000154141 2.35881e-06
4.50464e-07 2.35881e-06 -0.000177515
0.00197768 -0.000154415 -1.71806e-06
-0.000154415 1.2159e-05 4.24964e-07
-1.71806e-06 4.24964e-07 -1.12178e-05
0.00201814 -5.09775e-05 1.78578e-06
-5.09775e-05 8.35961e-05 -1.39184e-06
1.78578e-06 -1.39184e-06 4.80348e-05
0.0015909 -0.000176572 5.9218e-06
-0.000176572 -4.75967e-05 -3.79283e-07
5.9218e-06 -3.79283e-07 -0.000108583
0.00190433 -0.000121321 1.89647e-06
-0.000121321 4.95349e-05 -4.20816e-08
1.89647e-06 -4.20816e-08 -5.32717e-06
0.00180142 -6.04648e-05 1.20132e-06
-6.04648e-05 6.41588e-05 6.46841e-07
1.20132e-06 6.46841e-07 -2.90056e-06
0.00174234 -0.000149362 4.26079e-06
-0.000149362 3.614e-05 2.68037e-06
4.26079e-06 2.68037e-06 -4.58298e-05
0.00179068 -0.000114275 8.80322e-07
-0.000114275 9.04287e-05 2.2036e-07
8.80322e-07 2.2036e-07 9.83157e-06
0.00176159 -8.43111e-05 2.15099e-07
-8.43111e-05 0.000113837 1.66623e-07
2.15099e-07 1.66623e-07 2.34621e-05
0.00186857 -0.000141051 4.38368e-07
-0.000141051 0.00017584 1.71987e-06
4.38368e-07 1.71987e-06 8.23046e-05
0.00165621 -0.000117325 2.39039e-07
-0.000117325 8.16197e-05 -6.74402e-08
2.39039e-07 -6.74402e-08 -1.23044e-05
0.00155999 -0.000108428 2.665e-06
-0.000108428 6.20672e-05 1.23241e-06
2.665e-06 1.23241e-06 -4.24102e-05
0.0014036 -0.000121861 -1.64679e-06
-0.000121861 -1.06136e-05 -7.82618e-07
-1.64679e-06 -7.82618e-07 -0.000103131
0.00160097 -0.000125705 -1.18102e-06
-0.000125705 0.0001147 -1.0155e-06
-1.18102e-06 -1.0155e-06 1.02174e-05
0.00176844 -0.000131239 5.01483e-07
-0.000131239 0.000237907 -8.20497e-07
5.01483e-07 -8.20497e-07 0.00012174
0.00156084 -0.000142688 9.32943e-07
-0.000142688 0.000132305 2.34413e-06
9.32943e-07 2.34413e-06 1.65741e-05
0.00154401 -0.000140383 4.91485e-07
-0.000140383 0.000161058 -6.01909e-07
4.91485e-07 -6.01909e-07 3.78872e-05
0.00155951 -0.000138632 -2.27092e-06
-0.000138632 0.000206537 -1.06192e-07
-2.27092e-06 -1.06192e-07 8.35104e-05
0.000781926 -0.000108628 -4.85987e-06
-0.000108628 -0.000106314 2.06733e-06
-4.85987e-06 2.06733e-06 -0.000224709
0.00111169 -0.00013152 -6.77962e-07
-0.00013152 2.89476e-05 4.83562e-07
-6.77962e-07 4.83562e-07 -0.000102408
0.00144712 -0.000151308 3.16617e-06
-0.000151308 0.000166512 -3.56417e-07
3.16617e-06 -3.56417e-07 2.67045e-05
0.000832794 -7.96169e-05 -3.83636e-06
-7.96169e-05 1.54625e-05 2.44499e-06
-3.83636e-06 2.44499e-06 -7.40194e-05
0.00107703 -0.000121469 2.2139e-07
-0.000121469 0.000106896 9.49074e-08
2.2139e-07 9.49074e-08 -8.72069e-06
0.00103616 -0.000130173 1.07274e-06
-0.000130173 6.11435e-05 -6.54404e-07
1.07274e-06 -6.54404e-07 -7.02461e-05
0.000590252 2.38678e-05 -4.5123e-06
2.38678e-05 -6.19526e-05 5.84422e-06
-4.5123e-06 5.84422e-06 -0.000104077
0.000858555 -6.01407e-05 1.13157e-07
-6.01407e-05 5.04666e-05 -5.14269e-08
1.13157e-07 -5.14269e-08 -3.35451e-05
0.00113098 -0.000119878 2.29522e-06
-0.000119878 0.00016828 -1.48895e-06
2.29522e-06 -1.48895e-06 5.92441e-05
0.0029595 9.9968e-05 -4.76735e-05
9.9968e-05 0.00123694 2.7598e-06
-4.76735e-05 2.7598e-06 0.00123736
0.000625642 3.56728e-05 3.7024e-07
3.56728e-05 -4.20394e-05 -1.35932e-07
3.7024e-07 -1.35932e-07 -7.78454e-05
0.000855043 -4.42033e-05 3.36813e-06
-4.42033e-05 5.93818e-05 -2.22414e-06
3.36813e-06 -2.22414e-06 -1.97962e-05
0.0027214 8.76323e-05 1.13121e-06
8.76323e-05 0.00110494 1.35542e-07
1.13121e-06 1.35542e-07 0.00110885
0.000667057 5.15564e-05 1.96921e-06
5.15564e-05 -1.52278e-05 -5.17832e-06
1.96921e-06 -5.17832e-06 -4.53316e-05
0.00253384 7.74996e-05 4.09894e-05
7.74996e-05 0.000999487 -2.92298e-06
4.09894e-05 -2.92298e-06 0.00100647
0.00108293 0.000121018 -3.31352e-07
0.000121018 0.000178981 -1.91005e-06
-3.31352e-07 -1.91005e-06 6.5073e-05
0.00105522 0.000112775 3.01148e-07
0.000112775 0.000174672 1.78957e-07
3.01148e-07 1.78957e-07 7.28635e-05
0.000934077 5.42014e-05 -1.27487e-06
5.42014e-05 0.000105051 -7.00861e-07
-1.27487e-06 -7.00861e-07 1.39733e-05
0.00081984 9.30401e-05 1.21388e-07
9.30401e-05 5.86869e-05 3.79928e-08
1.21388e-07 3.79928e-08 -3.28675e-05
0.000773559 -5.14984e-06 -4.46663e-07
-5.14984e-06 2.52792e-05 -1.35587e-07
-4.46663e-07 -1.35587e-07 -5.77589e-05
0.000712845 -3.27829e-07 -2.01982e-06
-3.27829e-07 -6.54952e-06 -2.04104e-06
-2.01982e-06 -2.04104e-06 -6.82075e-05
0.000789853 -5.6469e-05 -6.80884e-08
-5.6469e-05 2.98191e-05 1.30791e-06
-6.80884e-08 1.30791e-06 -4.35787e-05
0.000720483 -4.62556e-05 1.98742e-07
-4.62556e-05 -5.07514e-06 -3.21973e-07
1.98742e-07 -3.21973e-07 -5.624e-05
0.000685918 -6.00341e-05 -5.12075e-07
-6.00341e-05 -1.17865e-05 -4.37903e-06
-5.12075e-07 -4.37903e-06 -3.27911e-05
0.000745562 -5.33505e-05 8.85859e-07
-5.33505e-05 1.53459e-06 2.22888e-06
8.85859e-07 2.22888e-06 -4.28286e-05
0.000682554 -4.70568e-05 1.54115e-07
-4.70568e-05 -2.51814e-05 -2.80291e-08
1.54115e-07 -2.80291e-08 -4.04602e-05
0.00227571 -6.81423e-05 -3.29636e-05
-6.81423e-05 0.000851391 -2.87647e-06
-3.29636e-05 -2.87647e-06 0.000862005
0.00223774 -6.107e-05 -9.07239e-07
-6.107e-05 0.000821647 1.06295e-07
-9.07239e-07 1.06295e-07 0.000834427
0.000676277 -3.99949e-05 1.91482e-06
-3.99949e-05 -3.66918e-05 3.72796e-06
1.91482e-06 3.72796e-06 -4.93376e-05
0.00223673 -5.44721e-05 2.50417e-05
-5.44721e-05 0.00081287 3.54593e-06
2.50417e-05 3.54593e-06 0.000827381
0.00181453 -3.80414e-05 -5.87706e-05
-3.80414e-05 -0.000131724 6.19942e-06
-5.87706e-05 6.19942e-06 -0.000408474
0.00196381 -0.000137965 1.28957e-05
-0.000137965 -0.000435353 2.66548e-06
1.28957e-05 2.66548e-06 -0.00121443
0.00325012 -0.000332763 -4.91585e-05
-0.000332763 0.00139011 -1.39132e-05
-4.91585e-05 -1.39132e-05 0.0015127
0.00126872 0.000141498 6.87679e-06
0.000141498 0.000235114 1.15961e-06
6.87679e-06 1.15961e-06 0.000103574
0.00109345 8.41826e-05 2.99753e-07
8.41826e-05 0.000223272 -1.71882e-08
2.99753e-07 -1.71882e-08 0.000121226
0.000897003 0.00011034 -8.7703e-07
0.00011034 0.000104321 3.76114e-07
-8.7703e-07 3.76114e-07 -1.80342e-06
0.000874803 0.000109613 2.82849e-07
0.000109613 0.000108693 5.94463e-07
2.82849e-07 5.94463e-07 -2.72202e-06
0.0010099 0.000121852 -2.2099e-07
0.000121852 0.000156796 -1.40165e-06
-2.2099e-07 -1.40165e-06 3.54327e-05
0.000675043 0.000107414 -3.05132e-07
0.000107414 -4.20467e-05 4.9085e-09
-3.05132e-07 4.9085e-09 -0.000153752
0.000991885 0.000119242 -4.92827e-07
0.000119242 0.000161892 -5.79328e-07
-4.92827e-07 -5.79328e-07 4.08649e-05
0.000914935 7.79378e-05 -2.54119e-06
7.79378e-05 9.87997e-05 2.71234e-06
-2.54119e-06 2.71234e-06 -4.37987e-06
0.000910666 0.000131252 3.00933e-07
0.000131252 5.29693e-05 -6.60545e-08
3.00933e-07 -6.60545e-08 -6.53814e-05
0.00245402 0.000229497 5.10143e-07
0.000229497 0.000730011 3.17379e-06
5.10143e-07 3.17379e-06 0.000608761
0.00172091 0.000213511 4.98641e-07
0.000213511 0.000191565 -2.06164e-06
4.98641e-07 -2.06164e-06 5.0031e-05
0.00174497 0.000195858 1.00376e-05
0.000195858 6.59725e-05 8.39347e-06
1.00376e-05 8.39347e-06 -6.2313e-05
0.00117445 0.000210273 -4.73437e-07
0.000210273 -0.000106413 -9.77257e-07
-4.73437e-07 -9.77257e-07 -0.000246689
0.000929992 0.000163382 -1.24845e-06
0.000163382 -4.30486e-05 5.47396e-06
-1.24845e-06 5.47396e-06 -0.000154465
0.00029387 9.34291e-05 -9.11489e-07
9.34291e-05 -0.000434384 7.06762e-07
-9.11489e-07 7.06762e-07 -0.000438546
0.00435182 7.21595e-05 -1.55742e-05
7.21595e-05 0.000559027 1.34606e-06
-1.55742e-05 1.34606e-06 0.000197642
0.000818701 -0.00011594 2.12793e-05
-0.00011594 -0.000828908 1.01839e-05
2.12793e-05 1.01839e-05 -0.00189247
0.00280967 0.000302194 5.95386e-05
0.000302194 0.000204932 1.94724e-05
5.95386e-05 1.94724e-05 -0.000264554
0.00140621 0.000226834 -1.34884e-05
0.000226834 -3.30053e-05 -9.53575e-07
-1.34884e-05 -9.53575e-07 -5.88491e-05
0.000525717 0.000233911 -2.10709e-05
0.000233911 -0.000371551 -1.43129e-05
-2.10709e-05 -1.43129e-05 -0.000508646
0.00251694 -9.48172e-05 1.37776e-05
-9.48172e-05 0.000421037 -1.78568e-06
1.37776e-05 -1.78568e-06 0.000315347
0.00125047 -7.1881e-06 -2.23282e-05
-7.1881e-06 -0.000123023 1.34832e-06
-2.23282e-05 1.34832e-06 -0.000469949
0.00020114 0.000217085 5.3762e-05
0.000217085 -0.00136434 -1.57345e-05
5.3762e-05 -1.57345e-05 -0.0020004
-0.000729702 -8.35193e-05 2.79337e-07
-8.35193e-05 -0.000922592 9.10781e-06
2.79337e-07 9.10781e-06 -0.000964551
0.00324831 7.59413e-05 2.92371e-05
7.59413e-05 0.000537566 3.93659e-06
2.92371e-05 3.93659e-06 0.000212714
0.00170524 -6.32896e-05 1.32767e-06
-6.32896e-05 6.22889e-05 -1.16417e-06
1.32767e-06 -1.16417e-06 2.8879e-05
0.00198828 2.61806e-05 1.45446e-07
2.61806e-05 0.000176952 -1.38018e-06
1.45446e-07 -1.38018e-06 9.03158e-05
0.00139524 -2.51704e-06 8.07861e-06
-2.51704e-06 -0.00021611 -2.44605e-06
8.07861e-06 -2.44605e-06 -0.000279192
0.0025248 7.90591e-06 2.55377e-06
7.90591e-06 0.000458872 -1.7452e-06
2.55377e-06 -1.7452e-06 0.000382742
0.00203073 -0.000160007 1.1416e-06
-0.000160007 4.5715e-05 5.13017e-07
1.1416e-06 5.13017e-07 1.62176e-05
0.00191253 -5.53991e-05 3.23512e-06
-5.53991e-05 1.44964e-05 2.85475e-07
3.23512e-06 2.85475e-07 -2.58203e-05
0.00182245 -5.07067e-05 -4.58367e-07
-5.07067e-05 8.75417e-05 -3.42206e-07
-4.58367e-07 -3.42206e-07 2.13857e-05
0.00189422 -0.000122381 3.57026e-06
-0.000122381 4.9954e-05 6.33031e-07
3.57026e-06 6.33031e-07 -7.89837e-06
0.00183157 -7.127e-05 4.45332e-07
-7.127e-05 7.63045e-05 1.45742e-07
4.45332e-07 1.45742e-07 6.65446e-06
0.00175494 -6.24434e-05 1.61946e-06
-6.24434e-05 0.000111107 4.62701e-08
1.61946e-06 4.62701e-08 2.43999e-05
0.00179736 -0.000112136 -5.97923e-07
-0.000112136 0.000102482 8.48705e-07
-5.97923e-07 8.48705e-07 2.12359e-05
0.00175218 -8.95311e-05 -1.06654e-06
-8.95311e-05 0.00010956 -1.17183e-07
-1.06654e-06 -1.17183e-07 1.86865e-05
0.00160109 -8.29107e-05 3.70608e-07
-8.29107e-05 6.74417e-05 3.07682e-07
3.70608e-07 3.07682e-07 -3.77111e-05
0.00160915 -0.000118386 -1.17276e-06
-0.000118386 6.25243e-05 -1.08801e-06
-1.17276e-06 -1.08801e-06 -3.13284e-05
0.00162801 -0.000110276 8.17349e-07
-0.000110276 9.68254e-05 2.91763e-07
8.17349e-07 2.91763e-07 -7.75526e-06
0.00157606 -0.000110785 4.90716e-07
-0.000110785 9.93755e-05 1.915e-07
4.90716e-07 1.915e-07 -1.3331e-05
0.00151443 -0.000122395 -3.49977e-06
-0.000122395 6.62383e-05 9.918e-08
-3.49977e-06 9.918e-08 -3.63247e-05
0.00158723 -0.000124253 -1.99298e-07
-0.000124253 0.000140136 -6.26133e-07
-1.99298e-07 -6.26133e-07 2.52584e-05
0.00148007 -0.000120072 -2.13498e-06
-0.000120072 0.000121014 2.56729e-07
-2.13498e-06 2.56729e-07 1.99036e-06
0.00153606 -0.000139132 2.06433e-06
-0.000139132 0.000156126 6.55487e-07
2.06433e-06 6.55487e-07 3.27534e-05
0.00136312 -0.000130508 5.63354e-07
-0.000130508 0.000102027 -3.93104e-07
5.63354e-07 -3.93104e-07 -2.13047e-05
0.00132688 -0.000122525 -4.71348e-06
-0.000122525 0.000129858 1.35268e-06
-4.71348e-06 1.35268e-06 1.42364e-05
0.000932918 -9.26138e-05 -5.22872e-06
-9.26138e-05 3.04438e-05 2.8791e-06
-5.22872e-06 2.8791e-06 -6.34907e-05
0.000919215 -0.000114125 -1.10907e-06
-0.000114125 -3.01202e-05 7.16545e-07
-1.10907e-06 7.16545e-07 -0.000147786
0.00119758 -0.000133773 2.31514e-06
-0.000133773 7.95335e-05 -2.57842e-07
2.31514e-06 -2.57842e-07 -5.10712e-05
0.00059931 -3.6687e-05 -7.30514e-06
-3.6687e-05 -5.94718e-05 6.55617e-06
-7.30514e-06 6.55617e-06 -0.000108941
0.000893407 -8.37385e-05 2.34779e-07
-8.37385e-05 4.76865e-05 -2.74387e-08
2.34779e-07 -2.74387e-08 -4.25099e-05
0.00111994 -0.000123363 3.01433e-06
-0.000123363 0.000127627 -1.47737e-06
3.01433e-06 -1.47737e-06 1.2076e-05
0.00320498 0.000111311 -5.58045e-05
0.000111311 0.00137675 2.78145e-06
-5.58045e-05 2.78145e-06 0.0013728
0.000656412 -6.27106e-06 -1.57724e-07
-6.27106e-06 -3.10274e-05 -1.47257e-07
-1.57724e-07 -1.47257e-07 -7.30357e-05
0.00093842 -6.64922e-05 4.0078e-06
-6.64922e-05 9.33662e-05 -2.413e-06
4.0078e-06 -2.413e-06 8.42248e-06
0.00300261 9.74385e-05 1.46913e-06
9.74385e-05 0.00126025 2.0069e-07
1.46913e-06 2.0069e-07 0.00126062
0.000677124 2.14072e-05 5.38905e-06
2.14072e-05 -1.58157e-05 -5.32636e-06
5.38905e-06 -5.32636e-06 -5.1487e-05
0.00280363 8.57626e-05 4.97428e-05
8.57626e-05 0.00114821 -3.10718e-06
4.97428e-05 -3.10718e-06 0.00115214
0.00087824 0.00011772 -7.51014e-07
0.00011772 3.28756e-05 -1.65507e-06
-7.51014e-07 -1.65507e-06 -9.19895e-05
0.00100142 0.000115938 -3.1217e-08
0.000115938 0.000136038 -8.99493e-07
-3.1217e-08 -8.99493e-07 2.29064e-05
0.0011027 0.00010797 -9.45965e-07
0.00010797 0.000183246 -8.11477e-07
-9.45965e-07 -8.11477e-07 8.27662e-05
0.00109539 0.000115341 -3.74472e-07
0.000115341 0.000196164 -2.70877e-07
-3.74472e-07 -2.70877e-07 9.46871e-05
0.000908949 5.63268e-05 -8.93312e-07
5.63268e-05 9.13882e-05 -4.80275e-07
-8.93312e-07 -4.80275e-07 1.15532e-06
0.000777663 1.87495e-05 -2.11589e-06
1.87495e-05 2.7897e-05 -1.71016e-06
-2.11589e-06 -1.71016e-06 -4.41427e-05
0.000769049 1.30746e-05 1.42828e-08
1.30746e-05 2.29185e-05 1.33415e-07
1.42828e-08 1.33415e-07 -6.11493e-05
0.000735172 -3.41681e-05 -4.14131e-07
-3.41681e-05 6.02796e-06 -2.25252e-08
-4.14131e-07 -2.25252e-08 -5.5227e-05
0.000648852 -6.98263e-05 2.94238e-07
-6.98263e-05 -2.10085e-05 -4.8352e-06
2.94238e-07 -4.8352e-06 -4.95299e-05
0.000743228 -5.52753e-05 6.39173e-07
-5.52753e-05 8.5328e-06 2.44077e-06
6.39173e-07 2.44077e-06 -4.33164e-05
0.000662034 -5.67108e-05 1.63726e-07
-5.67108e-05 -2.56876e-05 -1.11508e-07
1.63726e-07 -1.11508e-07 -4.58141e-05
0.0023916 -7.57985e-05 -3.77238e-05
-7.57985e-05 0.000921103 -2.65746e-06
-3.77238e-05 -2.65746e-06 0.00092926
0.000671222 -4.53288e-05 2.38423e-06
-4.53288e-05 -3.17261e-05 3.73088e-06
2.38423e-06 3.73088e-06 -4.66632e-05
0.00225664 -6.79565e-05 -4.95195e-07
-6.79565e-05 0.000840036 9.21424e-08
-4.95195e-07 9.21424e-08 0.000850838
0.00224318 -6.09045e-05 2.8616e-05
-6.09045e-05 0.000823689 3.31031e-06
2.8616e-05 3.31031e-06 0.00083656
0.000437489 -2.02829e-06 3.83039e-06
-2.02829e-06 -0.000449275 -7.49246e-08
3.83039e-06 -7.49246e-08 -0.000485202
0.00345609 -1.86443e-05 1.96518e-06
-1.86443e-05 0.000430091 1.12838e-05
1.96518e-06 1.12838e-05 5.05424e-05
0.00606224 0.000187441 -8.06134e-05
0.000187441 0.00180865 -1.75612e-05
-8.06134e-05 -1.75612e-05 0.000928165
0.000699685 0.000107888 2.55624e-06
0.000107888 -8.94696e-05 4.31471e-07
2.55624e-06 4.31471e-07 -0.000214395
0.00142951 0.000155633 2.60146e-06
0.000155633 0.000175767 -2.23611e-06
2.60146e-06 -2.23611e-06 3.60164e-05
0.000837677 0.000120263 -1.38611e-07
0.000120263 1.60915e-05 -7.78398e-07
-1.38611e-07 -7.78398e-07 -0.000113647
0.00104993 0.000120317 -1.09228e-06
0.000120317 0.000200166 -7.71369e-07
-1.09228e-06 -7.71369e-07 8.68722e-05
0.000940532 0.000118583 -8.86954e-07
0.000118583 0.00012241 -7.80953e-07
-8.86954e-07 -7.80953e-07 3.49491e-07
0.000961635 0.000126268 3.10038e-06
0.000126268 9.5195e-05 1.09211e-06
3.10038e-06 1.09211e-06 -2.06374e-05
0.00184726 0.000199522 -4.04235e-06
0.000199522 0.000292284 -4.96648e-06
-4.04235e-06 -4.96648e-06 0.000160391
0.00155591 0.000166368 2.90174e-07
0.000166368 0.000389787 1.55588e-06
2.90174e-07 1.55588e-06 0.000271515
0.000937854 0.000153218 -2.91409e-06
0.000153218 -2.94579e-05 8.6732e-06
-2.91409e-06 8.6732e-06 -0.000146389
0.00170267 0.000210429 -1.26882e-06
0.000210429 0.000200412 4.13216e-07
-1.26882e-06 4.13216e-07 6.23105e-05
0.00196974 0.000204456 -5.26506e-06
0.000204456 0.000194178 8.62833e-07
-5.26506e-06 8.62833e-07 5.77494e-05
0.00138237 7.01464e-05 1.34242e-05
7.01464e-05 -0.000177903 3.69244e-06
1.34242e-05 3.69244e-06 -0.000263173
0.00185653 0.000193591 6.68795e-06
0.000193591 0.000128251 2.84339e-06
6.68795e-06 2.84339e-06 5.76099e-07
0.00128156 0.00021221 -4.9192e-06
0.00021221 -5.58388e-05 2.62625e-07
-4.9192e-06 2.62625e-07 -0.000197354
0.000924008 8.44779e-05 -2.18638e-06
8.44779e-05 -0.000120803 -1.24033e-07
-2.18638e-06 -1.24033e-07 -0.000131906
0.00481767 -4.08038e-05 4.57033e-05
-4.08038e-05 0.000675775 1.49183e-05
4.57033e-05 1.49183e-05 0.000289349
0.0013747 0.000198027 2.905e-06
0.000198027 7.14723e-05 -7.92743e-06
2.905e-06 -7.92743e-06 3.65335e-05
0.00161676 -2.24136e-05 7.97915e-06
-2.24136e-05 5.09628e-05 -5.62613e-07
7.97915e-06 -5.62613e-07 -1.59295e-05
0.00201607 -5.15426e-05 -2.36982e-06
-5.15426e-05 0.000205326 2.71642e-07
-2.36982e-06 2.71642e-07 8.73425e-05
0.00112666 8.70917e-05 5.59246e-05
8.70917e-05 -0.000400376 -3.61782e-06
5.59246e-05 -3.61782e-06 -0.000817689
-0.000867526 -2.7953e-05 -1.1528e-05
-2.7953e-05 -0.00127272 6.43653e-06
-1.1528e-05 6.43653e-06 -0.00127555
0.00246565 2.43418e-05 -4.02663e-05
2.43418e-05 0.000428557 4.60513e-06
-4.02663e-05 4.60513e-06 0.000354826
0.00133144 -2.2576e-05 6.70866e-07
-2.2576e-05 -0.000270115 2.59865e-06
6.70866e-07 2.59865e-06 -0.000323547
0.00224419 -4.96011e-06 4.47724e-07
-4.96011e-06 0.00027303 4.05961e-07
4.47724e-07 4.05961e-07 0.00019722
0.00194089 -5.65235e-05 1.20307e-06
-5.65235e-05 0.000105446 5.80359e-07
1.20307e-06 5.80359e-07 3.37775e-05
0.00155182 -2.22855e-05 6.11273e-07
-2.22855e-05 -0.000104961 -6.44902e-07
6.11273e-07 -6.44902e-07 -0.000181662
0.00188496 -6.11303e-05 5.33406e-06
-6.11303e-05 -1.46425e-05 1.52079e-06
5.33406e-06 1.52079e-06 -5.81623e-05
0.00178285 -5.10523e-05 -1.80024e-06
-5.10523e-05 6.32154e-05 -1.38406e-07
-1.80024e-06 -1.38406e-07 -2.01706e-06
0.00178201 -5.51933e-05 1.48017e-06
-5.51933e-05 9.6347e-05 3.36843e-07
1.48017e-06 3.36843e-07 1.08759e-05
0.00186209 -7.97755e-05 -1.79557e-06
-7.97755e-05 9.01984e-05 -1.94454e-07
-1.79557e-06 -1.94454e-07 1.8643e-05
0.00173562 -6.21307e-05 -5.47451e-07
-6.21307e-05 0.00010126 -1.64887e-07
-5.47451e-07 -1.64887e-07 1.3571e-05
0.00163607 -5.59086e-05 5.70692e-07
-5.59086e-05 6.96445e-05 -9.7725e-08
5.70692e-07 -9.7725e-08 -3.22947e-05
0.00173361 -9.40175e-05 -3.72845e-06
-9.40175e-05 0.000100423 -1.71147e-07
-3.72845e-06 -1.71147e-07 9.13168e-06
0.00165719 -8.32587e-05 1.4472e-07
-8.32587e-05 9.61e-05 1.72983e-07
1.4472e-07 1.72983e-07 -8.91685e-06
0.00164635 -8.71718e-05 -6.77452e-07
-8.71718e-05 0.000114499 -8.86198e-08
-6.77452e-07 -8.86198e-08 3.49941e-06
0.00169841 -0.000112202 -9.64461e-07
-0.000112202 0.000132796 -6.29789e-07
-9.64461e-07 -6.29789e-07 2.81122e-05
0.00157792 -0.000110054 2.85542e-07
-0.000110054 9.98103e-05 1.55339e-07
2.85542e-07 1.55339e-07 -1.28875e-05
0.00151573 -0.00010978 -1.91218e-06
-0.00010978 0.000105634 4.38396e-07
-1.91218e-06 4.38396e-07 -1.06727e-05
0.00140845 -0.000117414 -9.55318e-08
-0.000117414 4.35721e-05 -7.29246e-08
-9.55318e-08 -7.29246e-08 -7.00202e-05
0.00134215 -0.000115275 -1.50289e-07
-0.000115275 4.87093e-05 -1.77581e-07
-1.50289e-07 -1.77581e-07 -6.997e-05
0.00131067 -0.000110911 -4.76364e-06
-0.000110911 8.32399e-05 1.37705e-06
-4.76364e-06 1.37705e-06 -3.01193e-05
0.00116635 -0.000122436 3.23107e-06
-0.000122436 -2.58927e-06 -4.40763e-07
3.23107e-06 -4.40763e-07 -0.000126252
0.00109591 -0.000112455 2.51019e-07
-0.000112455 8.01273e-06 -3.19367e-08
2.51019e-07 -3.19367e-08 -0.00010744
0.00100429 -9.36123e-05 -6.83203e-06
-9.36123e-05 2.55504e-05 3.12445e-06
-6.83203e-06 3.12445e-06 -6.85277e-05
0.000516934 -6.37837e-05 -9.45745e-06
-6.37837e-05 -0.000113067 7.24868e-06
-9.45745e-06 7.24868e-06 -0.000167453
0.000950547 -9.47357e-05 2.81001e-07
-9.47357e-05 4.0009e-05 8.17019e-08
2.81001e-07 8.17019e-08 -5.42684e-05
0.00106266 -0.000120048 2.31676e-06
-0.000120048 4.93908e-05 -4.62455e-07
2.31676e-06 -4.62455e-07 -6.76062e-05
0.00342935 0.000125856 -6.01141e-05
0.000125856 0.00151221 2.83896e-06
-6.01141e-05 2.83896e-06 0.00150253
0.000676063 -3.07206e-05 -2.60133e-07
-3.07206e-05 -2.23752e-05 -1.85367e-10
-2.60133e-07 -1.85367e-10 -7.25375e-05
0.000977219 -8.6672e-05 4.53853e-06
-8.6672e-05 9.27876e-05 -2.47191e-06
4.53853e-06 -2.47191e-06 1.6075e-06
0.00326302 0.000109594 2.01636e-06
0.000109594 0.00140967 2.84712e-07
2.01636e-06 2.84712e-07 0.00140535
0.000736692 -8.65772e-06 7.1991e-06
-8.65772e-06 8.72044e-06 -5.739e-06
7.1991e-06 -5.739e-06 -3.34237e-05
0.00306242 9.48873e-05 5.79946e-05
9.48873e-05 0.00129223 -3.10633e-06
5.79946e-05 -3.10633e-06 0.00129257
0.000590687 0.000111736 -1.53685e-06
0.000111736 -0.000201735 -1.08066e-06
-1.53685e-06 -1.08066e-06 -0.0003364
0.000683813 0.000107733 -8.41787e-08
0.000107733 -7.26533e-05 -1.52096e-07
-8.41787e-08 -1.52096e-07 -0.00019833
0.00113156 0.000118726 -2.05248e-06
0.000118726 0.00016694 -1.11407e-06
-2.05248e-06 -1.11407e-06 5.56263e-05
0.000912297 0.000110401 -3.38154e-07
0.000110401 8.90061e-05 -1.32497e-07
-3.38154e-07 -1.32497e-07 -2.32848e-05
0.000983713 0.000100567 -2.43886e-07
0.000100567 0.000121082 -3.20255e-07
-2.43886e-07 -3.20255e-07 2.15679e-05
0.000902891 4.66778e-05 -3.06446e-06
4.66778e-05 9.17054e-05 -1.64124e-06
-3.06446e-06 -1.64124e-06 1.12032e-05
0.000879517 5.78454e-05 4.73907e-08
5.78454e-05 7.55849e-05 -5.42795e-07
4.73907e-08 -5.42795e-07 -1.38678e-05
0.00076911 4.0122e-06 -1.75186e-08
4.0122e-06 2.66477e-05 9.68213e-08
-1.75186e-08 9.68213e-08 -4.62673e-05
0.00064581 -4.96082e-05 -3.06683e-06
-4.96082e-05 -2.38155e-05 -4.75679e-06
-3.06683e-06 -4.75679e-06 -5.71155e-05
0.000749573 -5.59677e-05 6.61464e-07
-5.59677e-05 1.57839e-05 2.5635e-06
6.61464e-07 2.5635e-06 -4.61927e-05
0.000618894 -6.74702e-05 -4.3599e-08
-6.74702e-05 -3.87348e-05 -1.50887e-07
-4.3599e-08 -1.50887e-07 -6.63512e-05
0.00257754 -8.4456e-05 -4.37111e-05
-8.4456e-05 0.00102679 -2.59434e-06
-4.37111e-05 -2.59434e-06 0.00103203
0.000634264 -5.27593e-05 2.26555e-06
-5.27593e-05 -4.18431e-05 3.87165e-06
2.26555e-06 3.87165e-06 -6.10227e-05
0.00235475 -7.58916e-05 -5.68122e-07
-7.58916e-05 0.000900781 9.1834e-08
-5.68122e-07 9.1834e-08 0.000909097
0.00225449 -6.76729e-05 3.126e-05
-6.76729e-05 0.000837815 3.01657e-06
3.126e-05 3.01657e-06 0.00084881
0.00141098 1.22519e-05 1.21523e-05
1.22519e-05 -0.000147908 9.72352e-07
1.21523e-05 9.72352e-07 -0.000215451
0.00116473 -3.32821e-05 -1.90106e-06
-3.32821e-05 -0.000157594 3.20797e-06
-1.90106e-06 3.20797e-06 -0.000214212
0.00260364 -7.03285e-05 7.3968e-05
-7.03285e-05 3.05091e-05 8.57796e-06
7.3968e-05 8.57796e-06 -0.00027953
0.00178029 0.000168197 4.7727e-07
0.000168197 0.000284371 -3.2849e-06
4.7727e-07 -3.2849e-06 0.000152234
0.00074939 0.000113773 -1.42258e-06
0.000113773 -4.6852e-05 1.49443e-06
-1.42258e-06 1.49443e-06 -0.000165574
0.0011184 0.000137022 -3.36788e-06
0.000137022 -9.26247e-05 2.08997e-06
-3.36788e-06 2.08997e-06 -0.000217716
0.00156013 0.000162595 5.15419e-07
0.000162595 0.000239518 1.49463e-07
5.15419e-07 1.49463e-07 9.9272e-05
0.00041302 9.91293e-05 -2.97807e-06
9.91293e-05 -0.000198965 2.23187e-06
-2.97807e-06 2.23187e-06 -0.000326977
0.00183798 0.000170297 -4.764e-06
0.000170297 0.000134415 -7.42628e-07
-4.764e-06 -7.42628e-07 8.91248e-06
0.00122462 0.00014388 -1.03768e-06
0.00014388 0.000220598 7.09151e-07
-1.03768e-06 7.09151e-07 0.000100785
0.0017516 0.000193025 3.04718e-07
0.000193025 0.000235796 -1.70083e-06
3.04718e-07 -1.70083e-06 0.000101596
0.00178646 0.000107518 -3.3241e-07
0.000107518 8.05713e-05 1.69083e-06
-3.3241e-07 1.69083e-06 -2.77899e-05
0.00173566 0.000211518 2.77565e-06
0.000211518 0.000236102 3.8388e-06
2.77565e-06 3.8388e-06 0.000100919
0.0020241 0.000206548 -2.01959e-06
0.000206548 0.000215505 -1.41673e-07
-2.01959e-06 -1.41673e-07 7.99264e-05
0.00150311 8.09621e-05 -3.48483e-07
8.09621e-05 -9.32344e-05 -6.68942e-07
-3.48483e-07 -6.68942e-07 -0.000179724
0.00169353 0.000179746 -1.69926e-06
0.000179746 6.3647e-05 -2.4151e-06
-1.69926e-06 -2.4151e-06 -6.394e-05
0.00100746 7.88662e-05 -8.19757e-06
7.88662e-05 -7.7033e-05 -4.3664e-06
-8.19757e-06 -4.3664e-06 -9.28844e-05
0.00171507 -9.74856e-06 -2.45186e-08
-9.74856e-06 5.49827e-06 3.06179e-07
-2.45186e-08 3.06179e-07 -7.37176e-05
0.00186275 -6.75119e-06 -1.41579e-06
-6.75119e-06 0.000179247 -3.2327e-08
-1.41579e-06 -3.2327e-08 0.000112426
0.00114475 4.9394e-08 -1.99438e-05
4.9394e-08 -0.000205399 1.66409e-06
-1.99438e-05 1.66409e-06 -0.000345687
0.00127523 -4.07336e-05 -4.73707e-06
-4.07336e-05 -0.000330704 2.80435e-06
-4.73707e-06 2.80435e-06 -0.000374756
0.00198995 -1.68974e-05 2.11445e-06
-1.68974e-05 9.96968e-05 6.26571e-07
2.11445e-06 6.26571e-07 2.39945e-05
0.00205093 -5.20364e-05 -2.07566e-06
-5.20364e-05 0.000162587 -2.87193e-08
-2.07566e-06 -2.87193e-08 9.26024e-05
0.00173512 -2.44221e-05 1.25756e-06
-2.44221e-05 -2.62474e-06 3.84276e-07
1.25756e-06 3.84276e-07 -7.79659e-05
0.00173237 -3.36294e-05 6.22036e-07
-3.36294e-05 3.50762e-05 -5.72581e-07
6.22036e-07 -5.72581e-07 -5.02541e-05
0.00172467 -5.18422e-05 -2.06022e-06
-5.18422e-05 2.92042e-05 -3.5521e-07
-2.06022e-06 -3.5521e-07 -3.58711e-05
0.00180777 -5.29741e-05 2.68816e-07
-5.29741e-05 0.000112913 -6.53828e-08
2.68816e-07 -6.53828e-08 2.73706e-05
0.00176727 -3.91637e-05 9.70451e-08
-3.91637e-05 0.000102152 -3.134e-07
9.70451e-08 -3.134e-07 2.87093e-06
0.00172528 -6.26852e-05 -3.48072e-06
-6.26852e-05 9.58212e-05 -3.1231e-08
-3.48072e-06 -3.1231e-08 7.09495e-06
0.00165562 -5.56548e-05 -2.06906e-07
-5.56548e-05 8.27543e-05 1.31935e-08
-2.06906e-07 1.31935e-08 -1.98814e-05
0.00172921 -5.31355e-05 -7.33649e-07
-5.31355e-05 0.000146602 1.92669e-07
-7.33649e-07 1.92669e-07 3.4767e-05
0.00171231 -8.35485e-05 -1.81154e-07
-8.35485e-05 0.000124226 6.17495e-08
-1.81154e-07 6.17495e-08 1.93448e-05
0.00161871 -8.58348e-05 7.38374e-08
-8.58348e-05 0.000100289 -3.04765e-08
7.38374e-08 -3.04765e-08 -1.07079e-05
0.00153922 -8.884e-05 -2.16228e-06
-8.884e-05 9.30402e-05 -1.69383e-07
-2.16228e-06 -1.69383e-07 -2.03252e-05
0.00157844 -0.000109325 7.01463e-07
-0.000109325 9.95796e-05 -1.15653e-08
7.01463e-07 -1.15653e-08 -1.31161e-05
0.0015025 -0.000108725 1.1309e-07
-0.000108725 9.87035e-05 2.61503e-07
1.1309e-07 2.61503e-07 -1.74986e-05
0.00136967 -0.000101505 -4.53243e-06
-0.000101505 7.95355e-05 1.28039e-06
-4.53243e-06 1.28039e-06 -3.2751e-05
0.00120751 -0.000110552 2.00185e-06
-0.000110552 -2.19797e-05 -5.13612e-07
2.00185e-06 -5.13612e-07 -0.000140298
0.00129051 -0.00010938 1.68334e-08
-0.00010938 7.29639e-05 -2.18701e-08
1.68334e-08 -2.18701e-08 -4.02099e-05
0.00106065 -8.81979e-05 -8.06037e-06
-8.81979e-05 2.02567e-05 3.35171e-06
-8.06037e-06 3.35171e-06 -7.36135e-05
0.000867089 -0.000102394 4.14066e-06
-0.000102394 -0.000112745 -1.06115e-06
4.14066e-06 -1.06115e-06 -0.000228015
0.00100974 -9.38952e-05 2.92589e-07
-9.38952e-05 2.84661e-05 8.513e-09
2.92589e-07 8.513e-09 -6.57529e-05
0.00188584 -1.90389e-05 -8.25606e-06
-1.90389e-05 0.000623973 5.21039e-06
-8.25606e-06 5.21039e-06 0.000570512
0.00110179 2.12873e-05 -7.24786e-05
2.12873e-05 0.000243441 8.13781e-06
-7.24786e-05 8.13781e-06 0.000223763
0.0013248 -3.94739e-05 -4.37446e-07
-3.94739e-05 0.000322783 -8.40487e-08
-4.37446e-07 -8.40487e-08 0.000269308
0.000984915 -9.75097e-05 5.58636e-06
-9.75097e-05 5.87817e-05 -2.51418e-06
5.58636e-06 -2.51418e-06 -3.59406e-05
0.00355127 0.000115622 4.62115e-06
0.000115622 0.00157849 3.40579e-07
4.62115e-06 3.40579e-07 0.00156964
0.000771252 -4.75871e-05 9.05719e-06
-4.75871e-05 2.20972e-05 -6.53294e-06
9.05719e-06 -6.53294e-06 -2.77753e-05
0.00330381 9.80915e-05 6.94145e-05
9.80915e-05 0.00143192 -3.20099e-06
6.94145e-05 -3.20099e-06 0.00142871
0.00146725 0.000133759 6.03295e-09
0.000133759 6.10876e-05 3.17479e-07
6.03295e-09 3.17479e-07 -5.63811e-05
0.000900535 0.000127144 1.30551e-06
0.000127144 -0.000117755 1.70037e-06
1.30551e-06 1.70037e-06 -0.000246254
0.000879371 0.000127135 -1.59123e-07
0.000127135 -5.65512e-05 -7.37304e-08
-1.59123e-07 -7.37304e-08 -0.000193015
0.00112987 0.000124051 -2.93494e-06
0.000124051 0.000117653 -7.90044e-07
-2.93494e-06 -7.90044e-07 -2.43582e-07
0.000491249 9.78966e-05 2.66741e-07
9.78966e-05 -0.000177144 1.7191e-06
2.66741e-07 1.7191e-06 -0.000303663
0.0010272 0.000111862 -4.23351e-07
0.000111862 0.000113622 -8.62514e-08
-4.23351e-07 -8.62514e-08 3.17145e-06
0.000975031 7.33556e-05 -3.80444e-06
7.33556e-05 0.000113366 -1.73177e-06
-3.80444e-06 -1.73177e-06 2.65479e-05
0.00087451 9.35997e-05 9.1964e-07
9.35997e-05 6.41595e-05 4.10861e-07
9.1964e-07 4.10861e-07 -3.44364e-05
0.000813691 3.93665e-05 -2.00994e-07
3.93665e-05 4.54575e-05 1.03355e-07
-2.00994e-07 1.03355e-07 -3.46102e-05
0.00070346 -1.33321e-05 -5.69124e-06
-1.33321e-05 1.78526e-06 -5.01647e-06
-5.69124e-06 -5.01647e-06 -3.75755e-05
0.000776599 -9.96452e-06 1.11918e-06
-9.96452e-06 3.10901e-05 1.81991e-06
1.11918e-06 1.81991e-06 -4.07418e-05
0.00059823 -6.15614e-05 -6.52536e-07
-6.15614e-05 -4.74765e-05 -1.12991e-07
-6.52536e-07 -1.12991e-07 -8.15297e-05
0.00279282 -9.38839e-05 -5.05888e-05
-9.38839e-05 0.00114877 -2.63035e-06
-5.05888e-05 -2.63035e-06 0.00115034
0.00058686 -6.41911e-05 1.27218e-06
-6.41911e-05 -5.76763e-05 4.42051e-06
1.27218e-06 4.42051e-06 -8.41791e-05
0.00252247 -8.49791e-05 -7.36582e-07
-8.49791e-05 0.000997347 1.15293e-07
-7.36582e-07 1.15293e-07 0.00100273
0.00231245 -7.53366e-05 3.37666e-05
-7.53366e-05 0.000877352 2.70924e-06
3.37666e-05 2.70924e-06 0.000885971
0.00178802 4.43774e-05 7.54632e-07
4.43774e-05 5.63301e-05 1.12325e-06
7.54632e-07 1.12325e-06 -3.30463e-05
0.00194118 6.41968e-06 -9.40868e-07
6.41968e-06 0.000157746 -7.30671e-07
-9.40868e-07 -7.30671e-07 9.24636e-05
0.00244868 -7.54926e-05 -1.08383e-05
-7.54926e-05 0.000414421 -4.10567e-07
-1.08383e-05 -4.10567e-07 0.000334288
0.00169849 0.000143418 -5.35679e-06
0.000143418 0.000103218 -1.52427e-07
-5.35679e-06 -1.52427e-07 -1.48234e-05
0.00170326 0.000164769 -1.3463e-06
0.000164769 0.000258853 2.55745e-07
-1.3463e-06 2.55745e-07 0.00013011
0.000737846 0.000117091 -8.14856e-06
0.000117091 -3.73562e-05 3.41253e-06
-8.14856e-06 3.41253e-06 -0.000149611
0.00154053 0.000151792 2.30783e-06
0.000151792 0.000128634 8.61007e-07
2.30783e-06 8.61007e-07 4.49291e-06
0.00170056 0.000170133 -1.15849e-06
0.000170133 0.000308568 2.78912e-07
-1.15849e-06 2.78912e-07 0.000167783
0.00204172 0.000109743 -3.79102e-06
0.000109743 0.000199262 9.58294e-07
-3.79102e-06 9.58294e-07 9.05677e-05
0.00175385 0.000170285 -2.40521e-06
0.000170285 9.1078e-05 -3.39266e-07
-2.40521e-06 -3.39266e-07 -3.65168e-05
0.00165696 0.000187045 3.13749e-06
0.000187045 0.000179959 2.4303e-06
3.13749e-06 2.4303e-06 4.32052e-05
0.00177511 0.000108714 -5.4372e-07
0.000108714 6.8417e-05 4.00711e-08
-5.4372e-07 4.00711e-08 -4.04031e-05
0.00205276 0.00020654 4.3239e-06
0.00020654 0.000220438 -5.03841e-07
4.3239e-06 -5.03841e-07 8.60805e-05
0.00164989 9.07851e-05 -1.60152e-05
9.07851e-05 -1.0479e-05 -5.7287e-06
-1.60152e-05 -5.7287e-06 -9.7278e-05
0.001918 6.15217e-09 -1.31724e-07
6.15217e-09 0.000120662 4.69556e-08
-1.31724e-07 4.69556e-08 3.41497e-05
0.0017604 -5.38828e-06 2.18718e-07
-5.38828e-06 3.1371e-05 -4.50618e-07
2.18718e-07 -4.50618e-07 -4.69673e-05
0.00208202 8.34384e-06 -1.00295e-05
8.34384e-06 0.000291685 9.38451e-07
-1.00295e-05 9.38451e-07 0.000225052
0.00216527 -4.89161e-05 -5.0341e-06
-4.89161e-05 0.000223404 -1.70907e-07
-5.0341e-06 -1.70907e-07 0.000155156
0.00193028 -2.58108e-05 1.42625e-06
-2.58108e-05 0.000104574 9.67698e-07
1.42625e-06 9.67698e-07 3.07147e-05
0.00181965 -3.27981e-05 -2.31077e-07
-3.27981e-05 7.55064e-05 -1.72148e-07
-2.31077e-07 -1.72148e-07 -7.84161e-06
0.00183423 -1.82943e-05 -7.66608e-08
-1.82943e-05 0.000109144 -4.38853e-07
-7.66608e-08 -4.38853e-07 9.10815e-06
0.00184416 -5.11527e-05 -1.44425e-07
-5.11527e-05 0.000134778 4.63087e-09
-1.44425e-07 4.63087e-09 4.91335e-05
0.00176404 -4.05736e-05 -5.37096e-07
-4.05736e-05 0.000106096 -8.65482e-08
-5.37096e-07 -8.65482e-08 6.55695e-06
0.0017385 -2.79184e-05 -2.53447e-07
-2.79184e-05 0.000126649 9.54459e-08
-2.53447e-07 9.54459e-08 1.33596e-05
0.00167858 -5.56177e-05 -6.3713e-07
-5.56177e-05 9.75041e-05 1.13806e-07
-6.3713e-07 1.13806e-07 -5.81753e-06
0.00164104 -5.21476e-05 -1.25962e-07
-5.21476e-05 0.000100759 -1.20757e-07
-1.25962e-07 -1.20757e-07 -1.10867e-05
0.00154912 -5.8099e-05 -2.00501e-06
-5.8099e-05 8.64711e-05 4.56541e-07
-2.00501e-06 4.56541e-07 -2.84525e-05
0.00159256 -8.44261e-05 1.02362e-06
-8.44261e-05 8.68382e-05 7.53699e-09
1.02362e-06 7.53699e-09 -2.41443e-05
0.00154543 -8.83053e-05 -8.89771e-08
-8.83053e-05 9.61386e-05 -1.16316e-07
-8.89771e-08 -1.16316e-07 -1.71788e-05
0.00140575 -8.46579e-05 -4.5682e-06
-8.46579e-05 7.43567e-05 6.10453e-07
-4.5682e-06 6.10453e-07 -3.59213e-05
0.00148876 -0.000107682 2.40428e-06
-0.000107682 9.15041e-05 3.51141e-08
2.40428e-06 3.51141e-08 -2.45969e-05
0.00135788 -0.000100345 8.47328e-08
-0.000100345 7.34058e-05 2.46974e-07
8.47328e-08 2.46974e-07 -3.8705e-05
0.00111554 -8.13308e-05 -8.72997e-06
-8.13308e-05 2.14958e-05 3.18337e-06
-8.72997e-06 3.18337e-06 -7.29936e-05
0.00127091 -0.000107884 4.41117e-06
-0.000107884 6.30005e-05 -1.33482e-06
4.41117e-06 -1.33482e-06 -4.99944e-05
0.00106182 -8.76202e-05 3.33855e-07
-8.76202e-05 2.0243e-05 -3.02665e-08
3.33855e-07 -3.02665e-08 -7.36232e-05
0.00201089 -1.95274e-05 -9.35154e-06
-1.95274e-05 0.000674365 4.95682e-06
-9.35154e-06 4.95682e-06 0.000621963
0.00100868 -9.40828e-05 6.88099e-06
-9.40828e-05 2.82446e-05 -2.94171e-06
6.88099e-06 -2.94171e-06 -6.61664e-05
0.00209566 -4.65342e-05 2.28809e-05
-4.65342e-05 0.000728234 -1.31023e-06
2.28809e-05 -1.31023e-06 0.000677529
0.00132314 -2.34605e-05 -9.26799e-05
-2.34605e-05 0.000367259 1.01371e-05
-9.26799e-05 1.01371e-05 0.00034731
0.00245832 4.42216e-05 -7.42716e-05
4.42216e-05 0.00098943 1.82452e-06
-7.42716e-05 1.82452e-06 0.00097517
0.00215583 -6.23034e-05 4.8445e-05
-6.23034e-05 0.000764909 -6.01737e-06
4.8445e-05 -6.01737e-06 0.000719431
0.00363951 8.77214e-05 8.39861e-05
8.77214e-05 0.0016252 -4.41255e-06
8.39861e-05 -4.41255e-06 0.00161857
0.00164736 0.00011981 -3.34861e-06
0.00011981 9.06332e-05 -2.76551e-06
-3.34861e-06 -2.76551e-06 -2.77326e-05
0.00165373 0.000144931 3.67771e-06
0.000144931 0.00022296 3.29556e-07
3.67771e-06 3.29556e-07 0.000102997
0.00141258 0.000133101 9.58943e-07
0.000133101 3.70654e-05 1.14329e-06
9.58943e-07 1.14329e-06 -7.40912e-05
0.00116902 0.000128643 -3.4091e-06
0.000128643 7.72159e-05 -6.8104e-07
-3.4091e-06 -6.8104e-07 -4.2691e-05
0.00120072 0.000141843 -7.79784e-08
0.000141843 3.96647e-05 6.48331e-08
-7.79784e-08 6.48331e-08 -8.99045e-05
0.00113251 0.000141016 2.02907e-06
0.000141016 7.00723e-05 5.40819e-07
2.02907e-06 5.40819e-07 -6.81e-05
0.0011022 0.000122859 -3.76643e-07
0.000122859 0.000104616 6.82732e-08
-3.76643e-07 6.82732e-08 -1.34954e-05
0.000987052 9.28389e-05 -4.6647e-06
9.28389e-05 8.7674e-05 -2.11001e-06
-4.6647e-06 -2.11001e-06 -5.1638e-06
0.00092037 0.000104908 1.20458e-06
0.000104908 5.88711e-05 8.9907e-07
1.20458e-06 8.9907e-07 -5.06942e-05
0.000855716 6.80408e-05 -3.08111e-07
6.80408e-05 4.96641e-05 -5.00488e-08
-3.08111e-07 -5.00488e-08 -3.58882e-05
0.000763669 2.23163e-05 -7.38941e-06
2.23163e-05 2.89334e-05 -5.55198e-06
-7.38941e-06 -5.55198e-06 -1.77363e-05
0.000702424 3.20752e-05 1.53502e-06
3.20752e-05 -1.29328e-05 1.39716e-06
1.53502e-06 1.39716e-06 -9.22789e-05
0.000625288 -2.97491e-05 1.32695e-07
-2.97491e-05 -3.67495e-05 -1.91935e-07
1.32695e-07 -1.91935e-07 -7.6372e-05
0.00303639 -0.000100933 -6.09735e-05
-0.000100933 0.00129066 -2.61557e-06
-6.09735e-05 -2.61557e-06 0.00128798
0.000539409 -7.35613e-05 -1.78851e-07
-7.35613e-05 -7.53699e-05 5.19946e-06
-1.78851e-07 5.19946e-06 -0.000111398
0.0027467 -9.56904e-05 -1.14955e-06
-9.56904e-05 0.00112384 1.65697e-07
-1.14955e-06 1.65697e-07 0.00112554
0.00247874 -8.49608e-05 3.77203e-05
-8.49608e-05 0.000973668 2.46087e-06
3.77203e-05 2.46087e-06 0.000979334
0.00189302 4.83371e-05 -2.66767e-06
4.83371e-05 0.000102083 7.61835e-07
-2.66767e-06 7.61835e-07 7.00775e-06
0.0017385 4.38584e-05 6.93382e-07
4.38584e-05 3.27769e-05 -1.30362e-07
6.93382e-07 -1.30362e-07 -5.66753e-05
0.00233704 1.33567e-06 -2.55968e-05
1.33567e-06 0.000403905 -2.5016e-06
-2.55968e-05 -2.5016e-06 0.000340781
0.00186678 9.98534e-05 -5.58642e-07
9.98534e-05 0.000139083 7.56518e-07
-5.58642e-07 7.56518e-07 2.78503e-05
0.00179017 0.000145908 -6.62375e-07
0.000145908 0.000154106 -5.51074e-07
-6.62375e-07 -5.51074e-07 3.51465e-05
0.00166364 0.000162645 -1.86427e-06
0.000162645 0.000252416 1.59131e-06
-1.86427e-06 1.59131e-06 0.000127046
0.00191215 0.000164427 1.68565e-06
0.000164427 0.000323568 -9.05436e-07
1.68565e-06 -9.05436e-07 0.000200477
0.0019055 0.000106215 4.18257e-08
0.000106215 0.00012655 -8.39322e-08
4.18257e-08 -8.39322e-08 1.75085e-05
0.00168923 0.000171107 1.67989e-06
0.000171107 5.7629e-05 -4.32147e-08
1.67989e-06 -4.32147e-08 -7.20471e-05
0.00172754 0.000109175 1.80781e-06
0.000109175 4.33904e-05 -1.41156e-06
1.80781e-06 -1.41156e-06 -6.59488e-05
0.00182724 8.44333e-06 6.94905e-07
8.44333e-06 8.55795e-05 9.2021e-08
6.94905e-07 9.2021e-08 -1.17534e-05
0.00186619 9.83514e-07 -3.89629e-07
9.83514e-07 9.30503e-05 -5.63956e-08
-3.89629e-07 -5.63956e-08 5.2857e-06
0.00180648 -1.17696e-06 -2.09851e-06
-1.17696e-06 6.00166e-05 -6.2491e-08
-2.09851e-06 -6.2491e-08 -1.75028e-05
0.00175005 4.68766e-07 -4.22918e-07
4.68766e-07 6.43655e-05 -1.84251e-07
-4.22918e-07 -1.84251e-07 -4.04503e-05
0.00187868 -3.13356e-05 -6.73787e-07
-3.13356e-05 0.000101935 4.54227e-07
-6.73787e-07 4.54227e-07 2.05842e-05
0.00184035 -1.8108e-05 -1.18481e-07
-1.8108e-05 0.000113176 2.91084e-07
-1.18481e-07 2.91084e-07 1.32181e-05
0.00182025 -1.0292e-05 3.22288e-07
-1.0292e-05 0.000144016 -8.07758e-07
3.22288e-07 -8.07758e-07 3.26552e-05
0.00176043 -4.18183e-05 -9.18845e-07
-4.18183e-05 0.000109968 4.54032e-07
-9.18845e-07 4.54032e-07 1.01676e-05
0.00168515 -2.77967e-05 -9.62316e-08
-2.77967e-05 9.72701e-05 1.84866e-07
-9.62316e-08 1.84866e-07 -1.60737e-05
0.00156944 -2.65094e-05 -2.50237e-06
-2.65094e-05 7.80238e-05 1.19863e-06
-2.50237e-06 1.19863e-06 -4.12045e-05
0.0015455 -5.05688e-05 5.52064e-07
-5.05688e-05 5.12197e-05 -4.4371e-07
5.52064e-07 -4.4371e-07 -6.06363e-05
0.00156536 -5.65944e-05 -3.51023e-08
-5.65944e-05 9.47616e-05 -2.89119e-07
-3.51023e-08 -2.89119e-07 -2.00502e-05
0.00142316 -6.1841e-05 -4.32953e-06
-6.1841e-05 7.04709e-05 7.9606e-07
-4.32953e-06 7.9606e-07 -4.07027e-05
0.00155031 -8.76621e-05 2.31746e-06
-8.76621e-05 9.8547e-05 -1.06849e-07
2.31746e-06 -1.06849e-07 -1.47153e-05
0.00140714 -8.38962e-05 -7.55987e-08
-8.38962e-05 7.48553e-05 2.6323e-08
-7.55987e-08 2.6323e-08 -3.53128e-05
0.00114586 -6.95099e-05 -9.09444e-06
-6.95099e-05 1.86468e-05 2.29993e-06
-9.09444e-06 2.29993e-06 -7.53901e-05
0.00134452 -9.90903e-05 4.67852e-06
-9.90903e-05 6.64359e-05 -7.82763e-07
4.67852e-06 -7.82763e-07 -4.54904e-05
0.00110949 -7.96758e-05 3.50617e-07
-7.96758e-05 1.70224e-05 2.20824e-07
3.50617e-07 2.20824e-07 -7.71915e-05
0.0021385 -4.32159e-05 -1.64944e-05
-4.32159e-05 0.0007194 3.91221e-06
-1.64944e-05 3.91221e-06 0.000672211
0.00105415 -8.6785e-05 7.96652e-06
-8.6785e-05 1.55644e-05 -3.32468e-06
7.96652e-06 -3.32468e-06 -7.82841e-05
0.00218868 -6.12097e-05 2.07997e-05
-6.12097e-05 0.000758978 -1.69186e-06
2.07997e-05 -1.69186e-06 0.000711618
0.00143122 -2.36344e-05 -9.48344e-05
-2.36344e-05 0.00042434 9.69912e-06
-9.48344e-05 9.69912e-06 0.000402975
0.00228504 -8.02731e-05 5.64944e-05
-8.02731e-05 0.000818819 -8.4415e-06
5.64944e-05 -8.4415e-06 0.00077223
0.00131623 3.21749e-05 -4.60618e-05
3.21749e-05 0.000376613 3.03687e-06
-4.60618e-05 3.03687e-06 0.000348419
0.00373468 0.000187816 6.62301e-06
0.000187816 0.00170782 -2.36295e-06
6.62301e-06 -2.36295e-06 0.0016815
0.00181361 8.92349e-05 -1.29808e-06
8.92349e-05 0.000160551 -3.12622e-08
-1.29808e-06 -3.12622e-08 4.30087e-05
0.00158234 0.000116066 -9.58521e-07
0.000116066 0.0001064 -2.59736e-06
-9.58521e-07 -2.59736e-06 -1.26951e-05
0.00172035 0.000123544 -2.80624e-06
0.000123544 0.000139043 8.01219e-07
-2.80624e-06 8.01219e-07 2.17097e-05
0.00168469 0.000140864 -2.27451e-06
0.000140864 0.000294116 -3.13718e-07
-2.27451e-06 -3.13718e-07 0.000177833
0.00145347 0.000139852 4.72919e-07
0.000139852 0.000113647 -1.2718e-06
4.72919e-07 -1.2718e-06 -5.65874e-06
0.00137143 0.00013296 2.97991e-06
0.00013296 1.97238e-05 1.88483e-06
2.97991e-06 1.88483e-06 -8.50859e-05
0.00100453 0.000101435 -6.3297e-06
0.000101435 4.8924e-05 -2.62524e-06
-6.3297e-06 -2.62524e-06 -4.86154e-05
0.00119814 0.000130848 -1.88864e-07
0.000130848 9.31496e-05 5.9919e-08
-1.88864e-07 5.9919e-08 -2.74007e-05
0.00153015 0.000157781 3.11065e-06
0.000157781 0.000212253 -2.56739e-07
3.11065e-06 -2.56739e-07 8.15444e-05
0.00107111 0.000121597 2.41026e-06
0.000121597 8.98262e-05 1.04921e-06
2.41026e-06 1.04921e-06 -2.85048e-05
0.000917798 8.84113e-05 -3.79581e-07
8.84113e-05 5.09471e-05 -1.38691e-07
-3.79581e-07 -1.38691e-07 -4.1297e-05
0.000788161 6.57025e-05 -1.02508e-05
6.57025e-05 3.73738e-05 -6.46874e-06
-1.02508e-05 -6.46874e-06 -1.68553e-05
0.000746736 6.27984e-05 2.69686e-06
6.27984e-05 -8.50265e-06 1.45348e-06
2.69686e-06 1.45348e-06 -9.29443e-05
0.000669846 1.77e-05 6.85077e-08
1.77e-05 -1.51987e-05 -4.62692e-08
6.85077e-08 -4.62692e-08 -6.23674e-05
0.00334828 -8.96703e-05 -7.63391e-05
-8.96703e-05 0.0014732 -3.63544e-06
-7.63391e-05 -3.63544e-06 0.00146708
0.000562248 -4.62757e-05 1.75545e-06
-4.62757e-05 -6.63398e-05 5.39809e-06
1.75545e-06 5.39809e-06 -0.0001067
0.00299654 -0.000108454 -1.78971e-06
-0.000108454 0.00126825 2.60953e-07
-1.78971e-06 2.60953e-07 0.00126498
0.00270881 -9.64934e-05 4.27441e-05
-9.64934e-05 0.00110302 2.34998e-06
4.27441e-05 2.34998e-06 0.00110506
0.00178312 4.75235e-05 3.12045e-07
4.75235e-05 6.7469e-05 6.63199e-07
3.12045e-07 6.63199e-07 -3.4635e-05
0.00183448 5.01954e-05 -7.02788e-07
5.01954e-05 6.93304e-05 1.61248e-07
-7.02788e-07 1.61248e-07 -2.57832e-05
0.00171906 4.35098e-05 -4.39406e-07
4.35098e-05 2.09666e-05 -1.41243e-06
-4.39406e-07 -1.41243e-06 -6.85163e-05
0.00184989 9.82755e-05 7.86018e-07
9.82755e-05 0.000126747 -8.47004e-08
7.86018e-07 -8.47004e-08 1.69803e-05
0.0019035 0.000149489 9.97389e-07
0.000149489 0.000216534 -6.3878e-07
9.97389e-07 -6.3878e-07 9.65606e-05
0.00177576 0.000102455 2.9288e-06
0.000102455 5.77919e-05 -1.0898e-06
2.9288e-06 -1.0898e-06 -5.15471e-05
0.00184523 1.20564e-05 -1.97787e-07
1.20564e-05 0.000110641 1.27993e-07
-1.97787e-07 1.27993e-07 6.68237e-06
0.00186168 1.02691e-05 3.62096e-07
1.02691e-05 0.000103399 -1.57874e-07
3.62096e-07 -1.57874e-07 5.30365e-06
0.00182773 2.6445e-06 8.76622e-07
2.6445e-06 7.12175e-05 -6.9194e-08
8.76622e-07 -6.9194e-08 -1.77985e-05
0.00178977 -7.46421e-06 -8.73567e-07
-7.46421e-06 8.57018e-05 1.21677e-07
-8.73567e-07 1.21677e-07 -1.8162e-05
0.00177754 -3.25908e-06 7.71946e-07
-3.25908e-06 0.000108369 -5.83101e-07
7.71946e-07 -5.83101e-07 -2.94085e-06
0.00184801 -1.79303e-05 -3.33232e-07
-1.79303e-05 0.000117997 6.66261e-07
-3.33232e-07 6.66261e-07 1.81183e-05
0.00176747 -1.01957e-05 1.37754e-07
-1.01957e-05 0.000114533 1.11595e-07
1.37754e-07 1.11595e-07 1.87517e-06
0.00163418 -6.59576e-06 -4.03149e-07
-6.59576e-06 9.00168e-05 -5.03584e-07
-4.03149e-07 -5.03584e-07 -2.92656e-05
0.00163797 -2.8267e-05 3.52177e-07
-2.8267e-05 7.10379e-05 2.44026e-07
3.52177e-07 2.44026e-07 -4.23649e-05
0.00160009 -2.73965e-05 -7.14211e-07
-2.73965e-05 9.36059e-05 5.9742e-07
-7.14211e-07 5.9742e-07 -2.55491e-05
0.00148956 -3.27247e-05 -5.40646e-06
-3.27247e-05 8.66444e-05 1.8631e-06
-5.40646e-06 1.8631e-06 -2.90607e-05
0.00159041 -5.66213e-05 1.62069e-06
-5.66213e-05 0.000107508 -9.96883e-07
1.62069e-06 -9.96883e-07 -7.22249e-06
0.00143842 -6.09783e-05 4.4928e-08
-6.09783e-05 7.76998e-05 -3.09846e-07
4.4928e-08 -3.09846e-07 -3.34462e-05
0.00114093 -5.17564e-05 -8.92608e-06
-5.17564e-05 4.85141e-06 1.84902e-06
-8.92608e-06 1.84902e-06 -8.92948e-05
0.00140721 -8.30426e-05 4.55946e-06
-8.30426e-05 7.46607e-05 -5.7322e-07
4.55946e-06 -5.7322e-07 -3.5392e-05
0.00114608 -6.74398e-05 7.68899e-08
-6.74398e-05 1.75883e-05 1.67931e-07
7.68899e-08 1.67931e-07 -7.60943e-05
0.00221423 -4.87424e-05 -2.02453e-05
-4.87424e-05 0.000745771 2.87265e-06
-2.02453e-05 2.87265e-06 0.000700372
0.00110133 -7.81309e-05 8.83127e-06
-7.81309e-05 1.13608e-05 -2.75627e-06
8.83127e-06 -2.75627e-06 -8.25777e-05
0.00225615 -6.51564e-05 1.99765e-05
-6.51564e-05 0.000778027 -1.49971e-06
1.99765e-05 -1.49971e-06 0.000732689
0.0015489 -2.26655e-05 -9.77867e-05
-2.26655e-05 0.000478415 8.40951e-06
-9.77867e-05 8.40951e-06 0.00045729
0.00235061 -8.07472e-05 5.93394e-05
-8.07472e-05 0.000839986 -7.89413e-06
5.93394e-05 -7.89413e-06 0.000794467
0.00137805 3.02427e-05 -4.81599e-05
3.02427e-05 0.000407464 2.94674e-06
-4.81599e-05 2.94674e-06 0.000379
0.00135675 0.000100331 -4.82e-07
0.000100331 0.000416246 -4.35486e-06
-4.82e-07 -4.35486e-06 0.000377235
0.001761 4.66436e-05 1.51238e-08
4.66436e-05 0.000106751 7.50416e-07
1.51238e-08 7.50416e-07 -2.6036e-06
0.0015931 8.55008e-05 -2.70955e-06
8.55008e-05 8.67428e-05 -5.28391e-07
-2.70955e-06 -5.28391e-07 -3.15123e-05
0.00174429 8.90066e-05 -1.42071e-06
8.90066e-05 0.000125724 -2.94878e-07
-1.42071e-06 -2.94878e-07 8.707e-06
0.0015867 0.000117946 -3.64014e-06
0.000117946 0.000174319 -1.20658e-06
-3.64014e-06 -1.20658e-06 5.9011e-05
0.0017384 0.000121565 1.29565e-06
0.000121565 0.000190171 4.25778e-07
1.29565e-06 4.25778e-07 7.07123e-05
0.00178526 0.000127083 3.57345e-06
0.000127083 0.00018363 1.61371e-06
3.57345e-06 1.61371e-06 6.72761e-05
0.00100458 9.94155e-05 -7.5896e-06
9.94155e-05 -1.4828e-06 -2.84131e-06
-7.5896e-06 -2.84131e-06 -9.97029e-05
0.00132698 0.000128959 2.23955e-06
0.000128959 0.000100802 7.56486e-07
2.23955e-06 7.56486e-07 -1.66186e-05
0.00125747 0.000134993 1.3283e-06
0.000134993 6.37353e-06 9.36151e-07
1.3283e-06 9.36151e-07 -0.000112299
0.000748028 9.39506e-05 -1.41168e-05
9.39506e-05 3.72448e-06 -6.90322e-06
-1.41168e-05 -6.90322e-06 -5.47524e-05
0.00098911 9.9694e-05 -5.41711e-07
9.9694e-05 4.09103e-05 -3.64392e-08
-5.41711e-07 -3.64392e-08 -5.62941e-05
0.00122766 0.000133005 3.85394e-06
0.000133005 0.000109337 1.10247e-06
3.85394e-06 1.10247e-06 -1.18561e-05
0.000868107 8.47163e-05 4.11643e-06
8.47163e-05 2.49463e-05 2.03607e-06
4.11643e-06 2.03607e-06 -6.68107e-05
0.000673254 5.8079e-05 -8.6894e-08
5.8079e-05 -1.8126e-05 4.89206e-08
-8.6894e-08 4.89206e-08 -7.21828e-05
0.00381136 -7.47767e-05 -8.78385e-05
-7.47767e-05 0.00173644 -5.78372e-06
-8.78385e-05 -5.78372e-06 0.00172496
0.000592188 1.03503e-05 5.09189e-06
1.03503e-05 -5.29168e-05 5.66611e-06
5.09189e-06 5.66611e-06 -9.91409e-05
0.003281 -0.000117943 -4.23676e-06
-0.000117943 0.00143691 3.30803e-07
-4.23676e-06 3.30803e-07 0.00142837
0.00295318 -0.000109663 4.85418e-05
-0.000109663 0.0012429 2.32774e-06
4.85418e-05 2.32774e-06 0.00124016
0.00180132 2.92947e-05 2.85924e-07
2.92947e-05 9.53379e-05 -6.48325e-08
2.85924e-07 -6.48325e-08 -9.92879e-06
0.00180017 4.66926e-05 -2.59887e-07
4.66926e-05 7.59448e-05 1.94682e-07
-2.59887e-07 1.94682e-07 -2.58557e-05
0.00177093 5.15937e-05 3.60938e-06
5.15937e-05 3.41969e-05 -5.92057e-07
3.60938e-06 -5.92057e-07 -6.09576e-05
0.00183034 9.65245e-05 1.88576e-06
9.65245e-05 0.000112644 -5.90747e-07
1.88576e-06 -5.90747e-07 4.36456e-06
0.00176795 -2.55283e-06 3.11759e-07
-2.55283e-06 9.63557e-05 -1.06984e-07
3.11759e-07 -1.06984e-07 -1.51861e-05
0.00187802 9.33889e-06 -1.3231e-07
9.33889e-06 0.000126679 -5.1467e-08
-1.3231e-07 -5.1467e-08 2.27201e-05
0.00189135 1.15603e-05 -2.20165e-07
1.15603e-05 0.000118808 1.36168e-07
-2.20165e-07 1.36168e-07 1.99563e-05
0.00183782 -1.18528e-05 -1.59429e-06
-1.18528e-05 0.000111794 1.52725e-07
-1.59429e-06 1.52725e-07 8.83774e-06
0.00176716 2.03657e-06 -4.08649e-07
2.03657e-06 0.000102277 -7.2802e-08
-4.08649e-07 -7.2802e-08 -8.44827e-06
0.00180551 4.71818e-06 -2.31678e-07
4.71818e-06 0.000170443 -4.23496e-07
-2.31678e-07 -4.23496e-07 5.38877e-05
0.00171409 -1.01061e-05 1.26515e-07
-1.01061e-05 8.47003e-05 8.76321e-07
1.26515e-07 8.76321e-07 -2.92585e-05
0.00169738 -5.77986e-06 7.20232e-07
-5.77986e-06 0.000123917 -1.22515e-07
7.20232e-07 -1.22515e-07 4.41024e-06
0.00139129 -7.29064e-06 -4.32145e-06
-7.29064e-06 9.8072e-06 5.66488e-07
-4.32145e-06 5.66488e-07 -0.000109034
0.00161663 -2.67105e-05 7.75118e-07
-2.67105e-05 0.000102034 3.0102e-08
7.75118e-07 3.0102e-08 -1.70302e-05
0.00146111 -3.01256e-05 -5.53411e-07
-3.01256e-05 7.18947e-05 4.85225e-07
-5.53411e-07 4.85225e-07 -4.36945e-05
0.00117418 -3.03112e-05 -8.97912e-06
-3.03112e-05 5.95148e-06 2.14081e-06
-8.97912e-06 2.14081e-06 -9.13775e-05
0.00144705 -5.80117e-05 4.22103e-06
-5.80117e-05 8.15269e-05 -1.3922e-06
4.22103e-06 -1.3922e-06 -2.94879e-05
0.00116762 -5.17937e-05 -5.82268e-08
-5.17937e-05 1.77381e-05 -9.35198e-08
-5.82268e-08 -9.35198e-08 -7.63177e-05
0.000685574 -3.42984e-05 -1.36113e-05
-3.42984e-05 -9.02495e-05 3.04759e-06
-1.36113e-05 3.04759e-06 -0.000143983
0.00114672 -6.55582e-05 9.09968e-06
-6.55582e-05 1.66506e-05 -2.06545e-06
9.09968e-06 -2.06545e-06 -7.66751e-05
0.00148758 -5.28417e-05 2.47715e-05
-5.28417e-05 0.00034949 -1.11493e-06
2.47715e-05 -1.11493e-06 0.000301578
0.00470529 -3.12672e-05 -0.000116918
-3.12672e-05 0.00218313 4.8049e-06
-0.000116918 4.8049e-06 0.00217934
0.00237805 -7.02161e-05 6.11493e-05
-7.02161e-05 0.000839662 -6.61738e-06
6.11493e-05 -6.61738e-06 0.00079562
0.00143839 5.86474e-06 -4.33999e-05
5.86474e-06 0.000424886 3.01803e-06
-4.33999e-05 3.01803e-06 0.000400497
0.00136757 3.97405e-05 1.05192e-05
3.97405e-05 0.00040353 -3.11597e-06
1.05192e-05 -3.11597e-06 0.000374414
0.00177535 2.80718e-05 5.51605e-07
2.80718e-05 0.000117111 1.93473e-07
5.51605e-07 1.93473e-07 9.19384e-06
0.00159455 4.86242e-05 -1.4419e-06
4.86242e-05 7.56507e-05 4.50386e-07
-1.4419e-06 4.50386e-07 -3.95198e-05
0.00182221 4.51645e-05 -2.323e-07
4.51645e-05 0.000140939 -1.79507e-07
-2.323e-07 -1.79507e-07 3.14274e-05
0.00117871 8.19029e-05 -5.08699e-06
8.19029e-05 -7.96338e-05 -1.44789e-06
-5.08699e-06 -1.44789e-06 -0.000194368
0.00164082 8.7044e-05 4.41171e-08
8.7044e-05 0.000113289 -5.80816e-09
4.41171e-08 -5.80816e-09 -4.6465e-06
0.0016805 8.91558e-05 -2.01079e-07
8.91558e-05 9.38866e-05 -6.02736e-07
-2.01079e-07 -6.02736e-07 -2.26286e-05
0.000653926 7.5609e-05 -1.02695e-05
7.5609e-05 -0.000239715 -3.19516e-06
-1.02695e-05 -3.19516e-06 -0.000339333
0.00163295 0.000121306 1.04457e-06
0.000121306 0.000198335 2.20016e-07
1.04457e-06 2.20016e-07 8.2687e-05
0.00190364 0.000127455 3.52781e-06
0.000127455 0.000278737 1.17223e-06
3.52781e-06 1.17223e-06 0.000158918
0.00069865 9.59109e-05 -1.4698e-05
9.59109e-05 -4.4954e-05 -6.4043e-06
-1.4698e-05 -6.4043e-06 -0.000103679
0.000789998 9.13869e-05 8.75657e-08
9.13869e-05 -0.000118679 9.60441e-08
8.75657e-08 9.60441e-08 -0.000218015
0.000963521 0.00011684 5.55491e-06
0.00011684 -9.55963e-05 1.96889e-06
5.55491e-06 1.96889e-06 -0.000214129
0.00432329 -7.70664e-05 -9.22546e-05
-7.70664e-05 0.00201851 -7.30216e-06
-9.22546e-05 -7.30216e-06 0.00200103
0.000656907 8.26926e-05 4.46356e-07
8.26926e-05 -4.14336e-05 1.54815e-07
4.46356e-07 1.54815e-07 -9.95742e-05
0.000965726 9.76432e-05 5.91463e-06
9.76432e-05 2.90995e-05 2.80194e-06
5.91463e-06 2.80194e-06 -6.78113e-05
0.000566409 5.04595e-05 7.94462e-06
5.04595e-05 -7.02812e-05 6.33086e-06
7.94462e-06 6.33086e-06 -0.000124129
0.00363506 -0.000108875 -6.09581e-06
-0.000108875 0.00164249 2.88431e-07
-6.09581e-06 2.88431e-07 0.00162987
0.00317758 -0.000124635 5.37288e-05
-0.000124635 0.00137915 2.34961e-06
5.37288e-05 2.34961e-06 0.00137025
0.00178731 1.22135e-05 -6.738e-07
1.22135e-05 0.000109181 -3.90464e-07
-6.738e-07 -3.90464e-07 -1.18244e-06
0.00181669 2.8733e-05 -3.2424e-07
2.8733e-05 0.000100247 1.01747e-07
-3.2424e-07 1.01747e-07 -4.81913e-06
0.00182475 4.63016e-05 5.87533e-07
4.63016e-05 8.86354e-05 -3.58753e-07
5.87533e-07 -3.58753e-07 -1.28671e-05
0.00177935 8.67236e-06 -1.67516e-07
8.67236e-06 0.000148456 -2.49253e-07
-1.67516e-07 -2.49253e-07 3.16913e-05
0.00176303 1.09544e-06 -2.35689e-07
1.09544e-06 9.55867e-05 1.83975e-08
-2.35689e-07 1.83975e-08 -1.54168e-05
0.0019058 3.79378e-06 -7.39681e-07
3.79378e-06 0.000139912 1.62055e-07
-7.39681e-07 1.62055e-07 3.59786e-05
0.00174738 5.85954e-06 -7.02314e-07
5.85954e-06 9.08711e-05 5.8245e-07
-7.02314e-07 5.8245e-07 -1.92195e-05
0.00179192 7.35003e-06 8.82229e-07
7.35003e-06 0.0001627 -1.68341e-07
8.82229e-07 -1.68341e-07 4.61262e-05
0.00177459 3.01622e-06 -3.03363e-06
3.01622e-06 0.000201587 1.60094e-08
-3.03363e-06 1.60094e-08 8.61421e-05
0.00176958 -4.94716e-06 2.24603e-06
-4.94716e-06 0.000162482 9.82892e-08
2.24603e-06 9.82892e-08 4.27585e-05
0.00164631 -5.26342e-06 1.36233e-08
-5.26342e-06 0.000148596 6.35242e-08
1.36233e-08 6.35242e-08 3.15788e-05
0.000824915 -8.95567e-06 -1.10164e-05
-8.95567e-06 -0.000207336 2.04917e-06
-1.10164e-05 2.04917e-06 -0.000311808
0.00144946 -2.98387e-05 3.67683e-06
-2.98387e-05 6.57878e-05 -8.4698e-07
3.67683e-06 -8.4698e-07 -4.97794e-05
0.00118425 -2.79238e-05 4.16135e-08
-2.79238e-05 1.03211e-05 1.71075e-08
4.16135e-08 1.71075e-08 -8.68516e-05
0.000698474 -1.8171e-05 -1.3496e-05
-1.8171e-05 -9.30572e-05 2.47861e-06
-1.3496e-05 2.47861e-06 -0.000149504
0.0011916 -5.04831e-05 9.23038e-06
-5.04831e-05 2.91191e-05 -2.16552e-06
9.23038e-06 -2.16552e-06 -6.47446e-05
0.000690825 -2.54901e-05 -1.67719e-07
-2.54901e-05 -8.8396e-05 2.68216e-08
-1.67719e-07 2.68216e-08 -0.00014201
0.00470092 -3.5511e-05 -0.0001165
-3.5511e-05 0.00217973 3.75672e-06
-0.0001165 3.75672e-06 0.00217595
0.00073686 -4.69899e-05 1.49274e-05
-4.69899e-05 -5.88071e-05 -4.80339e-06
1.49274e-05 -4.80339e-06 -0.000112496
0.00306423 -1.25906e-05 4.69735e-05
-1.25906e-05 0.00129585 2.54536e-07
4.69735e-05 2.54536e-07 0.001281
0.00132643 1.35344e-06 1.7801e-05
1.35344e-06 0.000369084 -2.61958e-06
1.7801e-05 -2.61958e-06 0.00034261
0.00182335 1.70256e-05 -2.66413e-08
1.70256e-05 0.000159065 -1.69217e-07
-2.66413e-08 -1.69217e-07 4.95614e-05
0.00165333 2.62697e-05 -9.68769e-07
2.62697e-05 0.000103976 2.87384e-07
-9.68769e-07 2.87384e-07 -8.56549e-06
0.00176398 2.65669e-05 -1.71322e-07
2.65669e-05 0.000110996 -1.02669e-07
-1.71322e-07 -1.02669e-07 3.18833e-06
0.00143583 5.64284e-05 -4.08486e-06
5.64284e-05 4.73015e-05 -5.17651e-07
-4.08486e-06 -5.17651e-07 -6.45833e-05
0.0015721 4.7679e-05 3.38044e-07
4.7679e-05 6.26535e-05 1.81328e-07
3.38044e-07 1.81328e-07 -5.28337e-05
0.00188374 4.35441e-05 -6.68769e-07
4.35441e-05 0.000175177 -7.43971e-07
-6.68769e-07 -7.43971e-07 6.55137e-05
0.000713968 6.18206e-05 -1.0717e-05
6.18206e-05 -0.000237532 -2.78292e-06
-1.0717e-05 -2.78292e-06 -0.000335765
0.00154059 9.22309e-05 -1.39851e-06
9.22309e-05 0.000116286 -4.1532e-07
-1.39851e-06 -4.1532e-07 3.06044e-06
0.00168561 8.83695e-05 2.89093e-06
8.83695e-05 0.000138323 1.10097e-07
2.89093e-06 1.10097e-07 2.07182e-05
0.000667418 7.70499e-05 -1.44344e-05
7.70499e-05 -8.45503e-05 -5.17694e-06
-1.44344e-05 -5.17694e-06 -0.0001416
0.000679074 7.72775e-05 -2.53935e-06
7.72775e-05 -0.000227886 -5.96421e-07
-2.53935e-06 -5.96421e-07 -0.000328122
0.00167917 0.000124689 5.95232e-06
0.000124689 0.000222337 1.38998e-06
5.95232e-06 1.38998e-06 0.000106351
0.00466985 -5.59798e-05 -9.99132e-05
-5.59798e-05 0.00219155 -6.94908e-06
-9.99132e-05 -6.94908e-06 0.00217746
0.000639892 8.81866e-05 9.31839e-07
8.81866e-05 -7.42751e-05 2.22336e-07
9.31839e-07 2.22336e-07 -0.000132933
0.000568289 8.30023e-05 7.52039e-06
8.30023e-05 -0.000239553 3.04965e-06
7.52039e-06 3.04965e-06 -0.00034
0.00407291 -7.95177e-05 -2.57652e-06
-7.95177e-05 0.00188076 1.47216e-07
-2.57652e-06 1.47216e-07 0.00186687
0.00054163 7.52867e-05 1.08466e-05
7.52867e-05 -0.000100121 6.74019e-06
1.08466e-05 6.74019e-06 -0.000157569
0.00345281 -0.000134567 6.15625e-05
-0.000134567 0.00154538 2.7663e-06
6.15625e-05 2.7663e-06 0.0015309
0.00179445 1.33803e-05 -7.11442e-07
1.33803e-05 0.000155848 -5.36263e-07
-7.11442e-07 -5.36263e-07 4.08614e-05
0.00178609 1.22095e-05 -1.83533e-09
1.22095e-05 0.000111778 8.50465e-08
-1.83533e-09 8.50465e-08 1.23907e-06
0.00183158 2.82512e-05 -5.12086e-07
2.82512e-05 0.000104754 5.67448e-08
-5.12086e-07 5.67448e-08 -1.11201e-07
0.00175743 -2.02294e-06 -3.36137e-06
-2.02294e-06 0.00019061 -1.43174e-07
-3.36137e-06 -1.43174e-07 7.62714e-05
0.00179703 8.17872e-06 6.89806e-07
8.17872e-06 0.000158414 -2.63512e-08
6.89806e-07 -2.63512e-08 4.22548e-05
0.00177018 7.1087e-06 5.90112e-07
7.1087e-06 0.000101296 1.46147e-07
5.90112e-07 1.46147e-07 -9.23716e-06
0.00177911 8.73643e-06 1.53823e-06
8.73643e-06 0.000155434 2.94533e-07
1.53823e-06 2.94533e-07 3.88432e-05
0.00177128 3.55575e-06 1.28804e-06
3.55575e-06 0.000199798 -2.07621e-07
1.28804e-06 -2.07621e-07 8.42797e-05
0.000871943 -1.76417e-06 -1.05621e-05
-1.76417e-06 -0.000199114 8.60664e-07
-1.05621e-05 8.60664e-07 -0.000305302
0.00189283 -3.41647e-06 5.24641e-06
-3.41647e-06 0.000283073 -7.3586e-07
5.24641e-06 -7.3586e-07 0.000167865
0.00102656 -7.14324e-06 -2.21094e-06
-7.14324e-06 -9.71916e-05 5.73985e-07
-2.21094e-06 5.73985e-07 -0.000199891
0.000713845 -7.23414e-06 -1.41011e-05
-7.23414e-06 -0.000100751 1.96617e-06
-1.41011e-05 1.96617e-06 -0.000161109
0.00120488 -2.70805e-05 9.08167e-06
-2.70805e-05 2.01328e-05 -2.16481e-06
9.08167e-06 -2.16481e-06 -7.69444e-05
0.000712109 -1.10567e-05 2.38022e-07
-1.10567e-05 -8.7077e-05 -6.17744e-08
2.38022e-07 -6.17744e-08 -0.000143513
0.00479599 -2.94799e-05 -0.000116232
-2.94799e-05 0.00222768 2.54573e-06
-0.000116232 2.54573e-06 0.00222375
0.000685445 -1.98714e-05 1.28845e-05
-1.98714e-05 -9.21565e-05 -2.8234e-06
1.28845e-05 -2.8234e-06 -0.000145412
0.00472033 -3.58555e-06 4.52469e-06
-3.58555e-06 0.00218856 2.70496e-07
4.52469e-06 2.70496e-07 0.00218529
0.00148212 -1.45479e-05 0.000100705
-1.45479e-05 0.000438436 -4.26471e-06
0.000100705 -4.26471e-06 0.000418916
0.00183986 1.59713e-05 -6.19145e-07
1.59713e-05 0.000204431 -4.87699e-07
-6.19145e-07 -4.87699e-07 9.31759e-05
0.00174277 1.83755e-05 1.22227e-07
1.83755e-05 0.000115367 3.7941e-07
1.22227e-07 3.7941e-07 6.38323e-06
0.00146487 2.62804e-05 -3.58458e-06
2.62804e-05 5.49743e-05 -5.15907e-07
-3.58458e-06 -5.15907e-07 -5.51839e-05
0.00161944 2.55202e-05 3.80444e-07
2.55202e-05 8.59629e-05 -5.61918e-08
3.80444e-07 -5.61918e-08 -2.6662e-05
0.00175136 2.50494e-05 2.48722e-07
2.50494e-05 0.000104265 -3.89293e-07
2.48722e-07 -3.89293e-07 -3.42408e-06
0.00119495 4.98342e-05 -9.16589e-06
4.98342e-05 9.15701e-06 -1.92065e-06
-9.16589e-06 -1.92065e-06 -8.60179e-05
0.00146604 5.69697e-05 -7.7138e-08
5.69697e-05 6.20803e-05 2.81228e-07
-7.7138e-08 2.81228e-07 -4.97648e-05
0.00154668 4.66615e-05 1.18723e-06
4.66615e-05 4.81695e-05 1.68901e-07
1.18723e-06 1.68901e-07 -6.76437e-05
0.000668136 5.4036e-05 -1.42496e-05
5.4036e-05 -0.000102278 -3.99547e-06
-1.42496e-05 -3.99547e-06 -0.00015756
0.000941174 6.8878e-05 -2.78586e-06
6.8878e-05 -0.00011391 -5.27092e-07
-2.78586e-06 -5.27092e-07 -0.000211368
0.00190783 0.000102669 4.41044e-06
0.000102669 0.000315128 8.67161e-07
4.41044e-06 8.67161e-07 0.000203395
0.00484393 1.19085e-05 -0.000117666
1.19085e-05 0.00226175 -5.7273e-06
-0.000117666 -5.7273e-06 0.00225651
0.000640763 7.17857e-05 1.32547e-07
7.17857e-05 -9.77911e-05 2.2089e-07
1.32547e-07 2.2089e-07 -0.000155114
0.000705929 7.92123e-05 6.09223e-06
7.92123e-05 -0.000215259 2.11743e-06
6.09223e-06 2.11743e-06 -0.000316131
0.00446947 -3.69975e-05 7.64812e-06
-3.69975e-05 0.00208446 -1.02849e-07
7.64812e-06 -1.02849e-07 0.00207191
0.000562922 7.72469e-05 1.25236e-05
7.72469e-05 -0.000112513 6.37608e-06
1.25236e-05 6.37608e-06 -0.000171494
0.00384146 -0.000124779 7.05767e-05
-0.000124779 0.00176453 4.84061e-06
7.05767e-05 4.84061e-06 0.0017466
0.0017655 1.41772e-05 -2.92875e-06
1.41772e-05 0.000199227 -7.5471e-07
-2.92875e-06 -7.5471e-07 8.66696e-05
0.00180704 1.04944e-05 2.37894e-07
1.04944e-05 0.00016445 4.79346e-08
2.37894e-07 4.79346e-08 4.92523e-05
0.00178419 1.18536e-05 5.44579e-07
1.18536e-05 0.000114348 5.90413e-07
5.44579e-07 5.90413e-07 3.64226e-06
0.000877847 -1.14284e-05 -1.10835e-05
-1.14284e-05 -0.000196384 -1.48634e-07
-1.10835e-05 -1.48634e-07 -0.000301708
0.00177556 4.97865e-06 1.33343e-06
4.97865e-06 0.000200363 -4.9393e-09
1.33343e-06 -4.9393e-09 8.60002e-05
0.00180951 7.94498e-06 2.01385e-06
7.94498e-06 0.000165705 5.86357e-08
2.01385e-06 5.86357e-08 5.01762e-05
0.00177306 3.88182e-06 5.43969e-06
3.88182e-06 0.000200734 -4.16471e-08
5.43969e-06 -4.16471e-08 8.5134e-05
0.000869048 -2.16753e-06 -1.66551e-06
-2.16753e-06 -0.000200185 2.54414e-07
-1.66551e-06 2.54414e-07 -0.000306322
0.000757256 -2.57237e-06 -1.4682e-05
-2.57237e-06 -8.98515e-05 7.67079e-07
-1.4682e-05 7.67079e-07 -0.000152138
0.00121873 -4.52354e-06 7.31168e-06
-4.52354e-06 7.9379e-06 -1.1776e-06
7.31168e-06 -1.1776e-06 -9.29873e-05
0.000734408 2.21901e-06 2.41639e-07
2.21901e-06 -9.09361e-05 1.65404e-07
2.41639e-07 1.65404e-07 -0.000151235
0.00504937 -3.06448e-05 -0.000121509
-3.06448e-05 0.00235733 1.39355e-06
-0.000121509 1.39355e-06 0.00235269
0.000737948 1.24021e-06 1.33326e-05
1.24021e-06 -7.49845e-05 -2.19829e-06
1.33326e-05 -2.19829e-06 -0.000131244
0.00488033 3.34281e-05 7.32338e-06
3.34281e-05 0.00227417 1.6337e-07
7.32338e-06 1.6337e-07 0.00226797
0.00475309 -1.77003e-05 0.000123735
-1.77003e-05 0.00220459 -2.69965e-06
0.000123735 -2.69965e-06 0.00220179
0.00153425 1.51821e-05 -3.67484e-06
1.51821e-05 8.77485e-05 -1.26314e-06
-3.67484e-06 -1.26314e-06 -2.31046e-05
0.00169937 1.59699e-05 5.57105e-07
1.59699e-05 0.000128174 8.33118e-08
5.57105e-07 8.33118e-08 1.70069e-05
0.00166153 1.98705e-05 3.79003e-07
1.98705e-05 7.13406e-05 7.25933e-07
3.79003e-07 7.25933e-07 -3.71321e-05
0.00120213 2.22622e-05 -8.84765e-06
2.22622e-05 4.34665e-06 -1.63135e-06
-8.84765e-06 -1.63135e-06 -9.10475e-05
0.00148892 2.65942e-05 2.16193e-07
2.65942e-05 6.67991e-05 -5.35517e-08
2.16193e-07 -5.35517e-08 -4.34473e-05
0.00158283 2.47665e-05 1.00267e-06
2.47665e-05 6.65286e-05 -5.16055e-07
1.00267e-06 -5.16055e-07 -4.61889e-05
0.00069352 3.25611e-05 -1.38134e-05
3.25611e-05 -0.00010071 -3.08307e-06
-1.38134e-05 -3.08307e-06 -0.000155989
0.00119145 5.10143e-05 1.04466e-08
5.10143e-05 7.737e-06 2.00925e-07
1.04466e-08 2.00925e-07 -8.76961e-05
0.00149733 5.7484e-05 4.29133e-06
5.7484e-05 7.73519e-05 1.13212e-06
4.29133e-06 1.13212e-06 -3.4447e-05
0.00489969 3.92172e-05 -0.000128775
3.92172e-05 0.0022817 -4.82794e-06
-0.000128775 -4.82794e-06 0.00227851
0.00066818 5.36251e-05 2.11324e-08
5.36251e-05 -0.000102107 1.08866e-07
2.11324e-08 1.08866e-07 -0.000157496
0.00115613 7.58145e-05 6.73585e-06
7.58145e-05 3.1655e-06 1.91408e-06
6.73585e-06 1.91408e-06 -9.34932e-05
0.00472845 2.08043e-05 5.00676e-06
2.08043e-05 0.00220421 6.38699e-07
5.00676e-06 6.38699e-07 0.00219792
0.000616587 6.69192e-05 1.30572e-05
6.69192e-05 -0.000109963 5.33775e-06
1.30572e-05 5.33775e-06 -0.00016727
0.00429216 -2.82671e-05 9.55364e-05
-2.82671e-05 0.00198513 5.44434e-06
9.55364e-05 5.44434e-06 0.0019772
0.00126681 6.57583e-06 -9.77343e-06
6.57583e-06 1.80446e-05 -6.87242e-07
-9.77343e-06 -6.87242e-07 -8.31361e-05
0.00158301 9.12909e-06 1.46763e-06
9.12909e-06 9.9296e-05 2.99139e-08
1.46763e-06 2.99139e-08 -1.51195e-05
0.00181569 6.48127e-06 1.59679e-06
6.48127e-06 0.000170766 7.75898e-07
1.59679e-06 7.75898e-07 5.53407e-05
0.000741734 1.72378e-05 -1.50787e-05
1.72378e-05 -0.000104344 -3.93161e-07
-1.50787e-05 -3.93161e-07 -0.00016406
0.000866586 -4.75853e-06 -1.85447e-06
-4.75853e-06 -0.000202982 4.45373e-08
-1.85447e-06 4.45373e-08 -0.000308351
0.00179343 1.16899e-05 5.9876e-06
1.16899e-05 0.000209977 6.78532e-08
5.9876e-06 6.78532e-08 9.55835e-05
0.00086168 -2.08376e-06 7.06761e-06
-2.08376e-06 -0.000203678 -1.69897e-07
7.06761e-06 -1.69897e-07 -0.000309752
0.000731553 4.25095e-06 7.00386e-08
4.25095e-06 -0.000103876 3.49249e-07
7.00386e-08 3.49249e-07 -0.000166061
0.00523957 4.3813e-05 -0.000125186
4.3813e-05 0.0024532 -4.37673e-07
-0.000125186 -4.37673e-07 0.0024488
0.000734817 1.13297e-05 1.38587e-05
1.13297e-05 -9.14257e-05 -1.26895e-06
1.38587e-05 -1.26895e-06 -0.000151794
0.00510545 -2.22541e-05 4.78317e-07
-2.22541e-05 0.00238484 5.83141e-07
4.78317e-07 5.83141e-07 0.0023806
0.00493074 2.47107e-05 0.000124635
2.47107e-05 0.0022945 -1.21861e-06
0.000124635 -1.21861e-06 0.00229135
0.00123626 1.01942e-05 -9.40778e-06
1.01942e-05 1.24664e-05 -1.78773e-06
-9.40778e-06 -1.78773e-06 -8.55095e-05
0.00143465 1.35086e-05 -4.58876e-09
1.35086e-05 3.22804e-05 -2.33938e-07
-4.58876e-09 -2.33938e-07 -7.91795e-05
0.00155934 1.58938e-05 1.27114e-06
1.58938e-05 5.21891e-05 4.12022e-07
1.27114e-06 4.12022e-07 -5.88952e-05
0.00249174 1.28392e-05 -6.84902e-05
1.28392e-05 0.00086339 -1.96422e-06
-6.84902e-05 -1.96422e-06 0.000819768
0.00120919 2.39386e-05 1.4676e-07
2.39386e-05 8.00899e-06 7.56781e-08
1.4676e-07 7.56781e-08 -8.76108e-05
0.00151317 2.67721e-05 4.0585e-06
2.67721e-05 7.87599e-05 4.29351e-07
4.0585e-06 4.29351e-07 -3.15794e-05
0.00493387 4.21915e-05 -0.000134822
4.21915e-05 0.00229568 -3.62585e-06
-0.000134822 -3.62585e-06 0.00229253
0.000708555 3.45331e-05 9.35248e-08
3.45331e-05 -9.20541e-05 8.53863e-08
9.35248e-08 8.53863e-08 -0.00014749
0.00118911 5.22047e-05 9.22716e-06
5.22047e-05 6.85101e-06 2.26798e-06
9.22716e-06 2.26798e-06 -8.88291e-05
0.00484913 4.84351e-05 1.46071e-06
4.84351e-05 0.00225828 7.28429e-07
1.46071e-06 7.28429e-07 0.00225412
0.000671597 5.34491e-05 1.36921e-05
5.34491e-05 -9.98644e-05 4.20706e-06
1.36921e-05 4.20706e-06 -0.00015537
0.00461056 3.34052e-05 0.000113059
3.34052e-05 0.00214221 5.99859e-06
0.000113059 5.99859e-06 0.00213672
0.000778608 7.62948e-06 -1.55541e-05
7.62948e-06 -8.03075e-05 -1.67164e-06
-1.55541e-05 -1.67164e-06 -0.000141902
0.00106973 3.66963e-06 4.17246e-07
3.66963e-06 -8.82386e-05 4.89737e-07
4.17246e-07 4.89737e-07 -0.000190697
0.00139521 4.03411e-06 5.40413e-06
4.03411e-06 -3.59249e-06 7.58506e-07
5.40413e-06 7.58506e-07 -0.000119815
0.00529541 -6.21004e-05 -0.000121796
-6.21004e-05 0.00248966 -1.88221e-06
-0.000121796 -1.88221e-06 0.00248008
0.000742406 9.68844e-06 -1.38558e-07
9.68844e-06 -0.000101608 2.00556e-07
-1.38558e-07 2.00556e-07 -0.000162746
0.000865712 1.52675e-06 7.25999e-06
1.52675e-06 -0.000204162 2.19736e-07
7.25999e-06 2.19736e-07 -0.000309568
0.000725162 1.47488e-05 1.4247e-05
1.47488e-05 -0.000107639 9.61952e-08
1.4247e-05 9.61952e-08 -0.000169898
0.00528459 4.25673e-05 4.55385e-06
4.25673e-05 0.00247943 4.51977e-07
4.55385e-06 4.51977e-07 0.00247277
0.0052036 9.91652e-05 0.000124564
9.91652e-05 0.00244139 6.74421e-08
0.000124564 6.74421e-08 0.00243243
0.00258654 -7.86113e-06 -7.13973e-05
-7.86113e-06 0.000904028 -1.90987e-06
-7.13973e-05 -1.90987e-06 0.000857983
0.00124416 1.22313e-05 -7.7692e-08
1.22313e-05 1.64993e-05 -5.06844e-08
-7.7692e-08 -5.06844e-08 -8.14504e-05
0.0013358 1.19804e-05 3.80084e-06
1.19804e-05 -2.28343e-05 7.97818e-07
3.80084e-06 7.97818e-07 -0.000134895
0.00473632 3.81675e-05 -3.27129e-05
3.81675e-05 0.00219884 -1.45098e-06
-3.27129e-05 -1.45098e-06 0.00218727
0.000751333 1.6086e-05 -7.23223e-08
1.6086e-05 -7.58368e-05 1.9295e-07
-7.23223e-08 1.9295e-07 -0.000133139
0.0012327 2.6335e-05 9.09131e-06
2.6335e-05 1.99781e-05 1.82751e-06
9.09131e-06 1.82751e-06 -7.58101e-05
0.00491621 5.06208e-05 -2.99709e-06
5.06208e-05 0.00228877 5.73262e-07
-2.99709e-06 5.73262e-07 0.00228511
0.000722295 3.82874e-05 1.43216e-05
3.82874e-05 -8.35367e-05 3.45641e-06
1.43216e-05 3.45641e-06 -0.000139292
0.00480518 6.05064e-05 0.000123911
6.05064e-05 0.00223737 5.9311e-06
0.000123911 5.9311e-06 0.00223249
0.00174724 -2.03467e-05 -0.000122393
-2.03467e-05 0.000556741 1.50848e-07
-0.000122393 1.50848e-07 0.000533306
0.00167741 1.13793e-05 -2.91079e-05
1.13793e-05 0.000406179 4.66607e-07
-2.91079e-05 4.66607e-07 0.000353386
0.000871929 3.87841e-06 9.48364e-06
3.87841e-06 -0.000194768 1.47742e-06
9.48364e-06 1.47742e-06 -0.000298528
0.00528393 -3.62039e-05 4.79425e-06
-3.62039e-05 0.00248181 -1.05613e-06
4.79425e-06 -1.05613e-06 0.00247374
0.000730606 3.88031e-06 1.49407e-05
3.88031e-06 -0.000106104 8.31053e-07
1.49407e-05 8.31053e-07 -0.000168047
0.00529845 -1.83123e-05 0.000134817
-1.83123e-05 0.00248357 8.034e-07
0.000134817 8.034e-07 0.00247887
0.00144175 -9.0552e-05 -6.81487e-06
-9.0552e-05 0.000417221 -8.34762e-07
-6.81487e-06 -8.34762e-07 0.000380463
0.00167121 7.88174e-06 -2.83132e-05
7.88174e-06 0.000412048 4.54676e-08
-2.83132e-05 4.54676e-08 0.00035949
0.00124901 1.2346e-05 9.05677e-06
1.2346e-05 1.91237e-05 1.73536e-06
9.05677e-06 1.73536e-06 -7.8829e-05
0.00319937 2.82623e-05 4.98801e-05
2.82623e-05 0.00135944 5.42e-07
4.98801e-05 5.42e-07 0.00134251
0.000767193 2.4645e-05 1.46129e-05
2.4645e-05 -6.70392e-05 2.98516e-06
1.46129e-05 2.98516e-06 -0.000124712
0.0049003 6.60291e-05 0.000128181
6.60291e-05 0.00228318 5.08606e-06
0.000128181 5.08606e-06 0.00227859
0.00524482 -3.91067e-05 -7.18564e-06
-3.91067e-05 0.00245993 4.24889e-07
-7.18564e-06 4.24889e-07 0.00245304
0.000737608 1.98889e-05 1.51456e-05
1.98889e-05 -0.000101148 1.79364e-06
1.51456e-05 1.79364e-06 -0.000160534
0.00526905 5.85228e-05 0.00012567
5.85228e-05 0.00247479 -1.32268e-06
0.00012567 -1.32268e-06 0.00246627
0.00328244 1.97282e-05 5.80534e-05
1.97282e-05 0.00140007 4.22826e-07
5.80534e-05 4.22826e-07 0.00138238
0.000747004 1.00833e-05 1.44567e-05
1.00833e-05 -8.59062e-05 2.45297e-06
1.44567e-05 2.45297e-06 -0.000145535
0.00497576 6.93872e-06 0.000123055
6.93872e-06 0.00231729 2.93004e-06
0.000123055 2.93004e-06 0.00231435
0.00519332 -0.000123573 0.000118575
-0.000123573 0.00244108 -7.99751e-08
0.000118575 -7.99751e-08 0.00242895
0.00507642 -9.32035e-05 0.000117818
-9.32035e-05 0.00237698 1.18764e-06
0.000117818 1.18764e-06 0.00236782
