# vtk DataFile Version 2.0
Wound Healing Simulation
ASCII
DATASET UNSTRUCTURED_GRID
POINTS 3012 float
69.9759 18.75 4
67.2507 60.3285 4
69.976 18.75 2
73.0099 25.446 4
71.1327 20.9142 4
68.6801 16.6661 4
67.8273 19.9203 3.98986
67.2507 60.3286 2
71.1327 54.0858 4
68.6801 58.3339 4
65.6939 62.2254 4
65.3137 59.0071 3.99139
74.6784 42.3946 4
73.7221 47.2057 4
69.9759 18.75 0
73.0099 25.446 2
68.6801 16.6661 2
71.1327 20.9142 2
67.8274 19.9204 2
74.6792 32.6053 4
73.7222 27.7943 4
72.1454 23.1494 4
70.6168 26.2201 3.98854
68.888 21.9538 3.98933
67.2507 14.6715 4
66.6386 17.9653 3.99065
65.8046 21.0154 3.98586
67.2507 60.3285 0
71.1327 54.0858 2
68.6801 58.3339 2
65.694 62.2255 2
65.3138 59.0072 2
72.1454 51.8506 4
69.9759 56.25 4
68.8389 53.1171 3.98938
64.0165 64.0165 4
66.6123 57.1398 3.99083
63.8871 60.771 3.99205
63.5057 57.7841 3.98671
60.3285 67.2507 4
74.6792 42.3947 2
73.7222 47.2057 2
74.9194 39.9526 4
74.2788 44.8158 4
72.1705 42.0855 3.98828
73.0099 49.554 4
71.252 46.5982 3.98874
73.0099 25.446 0
71.1327 20.9142 0
68.6801 16.6661 0
67.8273 19.9203 0.0101392
74.6792 32.6053 2
73.7222 27.7943 2
67.2508 14.6715 2
72.1455 23.1494 2
70.6169 26.2208 2
66.6387 17.9654 2
68.8881 21.9541 2
65.8046 21.0155 2
74.9197 35.0474 4
74.2794 30.1841 4
72.1871 32.9433 3.98856
71.2807 28.4312 3.98849
69.8181 24.0572 3.98891
68.355 26.9475 3.98385
66.7706 22.9256 3.9854
65.694 12.7746 4
65.325 16.0972 3.9915
64.7202 19.1829 3.9864
63.9 22.0203 3.98387
71.1327 54.0858 0
65.6939 62.2254 0
68.6801 58.3339 0
65.3137 59.0071 0.00860735
72.1455 51.8506 2
69.9759 56.25 2
68.8391 53.1168 2
64.0165 64.0165 2
66.6124 57.1399 2
63.8871 60.771 2
63.5058 57.7842 2
62.2254 65.694 4
58.8939 65.4174 3.99267
69.7718 50.9912 3.9889
67.7858 55.1728 3.99016
66.6583 52.2169 3.98557
62.337 62.4316 3.99243
64.6676 56.0429 3.98685
62.2065 59.417 3.98703
61.8324 56.6988 3.985
58.3339 68.6801 4
60.3285 67.2508 2
73.7221 47.2057 0
74.6784 42.3946 0
74.9197 39.9526 2
74.2794 44.8159 2
72.1704 42.0849 2
73.0099 49.554 2
71.2521 46.5975 2
75 37.5 4
72.4075 39.8021 3.988
71.7851 44.3528 3.9886
69.8115 41.7907 3.98289
70.578 48.8144 3.98876
68.9207 46.0176 3.98353
74.6792 32.6053 0
73.7222 27.7943 0
67.2507 14.6715 0
72.1454 23.1494 0
70.6168 26.2201 0.0114563
68.888 21.9538 0.0106678
66.6386 17.9653 0.00934722
65.8046 21.0154 0.0141422
74.9197 35.0474 2
74.2794 30.1841 2
72.187 32.9441 2
71.2808 28.4321 2
65.694 12.7745 2
65.3251 16.0972 2
69.8182 24.0577 2
68.3549 26.9475 2
64.7203 19.1829 2
66.7707 22.9256 2
63.9 22.0205 2
72.4154 35.2242 3.98818
71.8064 30.6763 3.98868
69.8475 33.2675 3.98313
68.9741 29.0356 3.98326
67.6196 24.9063 3.98473
66.2084 27.627 3.98191
64.0165 10.9835 4
64.7705 23.8175 3.98352
63.8911 14.322 3.99204
63.5181 17.4336 3.98694
62.9183 20.3032 3.98425
62.1109 22.9238 3.98294
60.6844 11.0939 3.99241
57.6127 11.4382 3.98763
72.1454 51.8506 0
69.9759 56.25 0
68.8389 53.1171 0.0106213
64.0165 64.0165 0
63.8871 60.771 0.00795035
66.6123 57.1398 0.00916547
63.5057 57.7841 0.0132872
62.2255 65.694 2
58.894 65.4174 2
69.7719 50.9907 2
67.7859 55.1727 2
66.6584 52.2168 2
62.3371 62.4316 2
64.6677 56.0429 2
62.2065 59.4171 2
61.8325 56.6988 2
60.669 63.9806 3.99253
57.0243 66.7377 3.99288
57.5579 63.6991 3.98785
67.5165 50.1825 3.98478
65.7101 54.1829 3.98643
64.5528 51.3982 3.98331
60.7752 60.9492 3.98754
62.8319 55.0847 3.98527
60.6652 58.1767 3.98496
60.3406 55.8074 3.98423
56.25 69.9759 4
58.3339 68.6801 2
60.3285 67.2507 0
58.9212 9.65248 3.99261
62.2254 9.30607 4
73.0099 49.554 0
74.2788 44.8158 0
71.252 46.5982 0.0112621
72.1705 42.0855 0.0117168
74.9194 39.9526 0
75 37.5 2
72.4073 39.8019 2
71.785 44.3521 2
69.8112 41.7904 2
70.5781 48.8137 2
68.9206 46.0173 2
72.4908 37.512 3.98797
70.0479 39.6578 3.98219
69.4384 43.9092 3.98329
67.6104 41.5006 3.98059
68.2747 48.1113 3.98407
66.7242 45.4461 3.98165
74.9197 35.0474 0
74.2794 30.1841 0
72.1871 32.9433 0.0114448
71.2807 28.4312 0.011509
65.694 12.7746 0
65.325 16.0972 0.00850397
69.8181 24.0572 0.0110914
68.355 26.9475 0.0161546
66.7706 22.9256 0.0145953
64.7202 19.1829 0.013598
63.9 22.0203 0.0161284
72.4152 35.2247 2
71.8063 30.6772 2
69.8472 33.2677 2
68.9739 29.0357 2
64.0165 10.9835 2
63.8912 14.322 2
63.5182 17.4336 2
67.6196 24.9063 2
66.2082 27.627 2
62.9184 20.3034 2
64.7704 23.8175 2
62.1108 22.9241 2
60.6845 11.0939 2
57.6127 11.438 2
70.0649 35.3916 3.98278
69.4749 31.1479 3.98323
67.6685 33.5882 3.9808
66.7858 29.6171 3.98122
65.5382 25.6892 3.9828
64.1658 28.2442 3.98125
62.3424 12.6508 3.99229
62.8764 24.6202 3.98278
62.2019 15.7719 3.98725
61.8224 18.6667 3.98495
61.2334 21.3204 3.98292
60.4485 23.7046 3.98278
59.2472 12.7685 3.98742
55.8742 10.2255 3.98822
56.4067 13.1006 3.98488
69.7718 50.9912 0.0110999
62.2254 65.694 0
58.8939 65.4174 0.007327
67.7858 55.1728 0.00983846
66.6583 52.2169 0.0144278
62.337 62.4316 0.00757037
62.2065 59.417 0.0129724
64.6676 56.0429 0.0131539
61.8324 56.6988 0.0149974
60.6691 63.9807 2
57.0245 66.7378 2
57.5579 63.6994 2
67.5165 50.1823 2
65.7103 54.1829 2
64.5529 51.3981 2
60.7753 60.9495 2
62.8321 55.0847 2
60.6653 58.1769 2
60.3407 55.8074 2
55.0698 67.9342 3.99309
59.2203 62.3757 3.98767
55.8036 64.9155 3.9882
56.3283 62.0998 3.98525
65.3472 49.4187 3.9826
63.72 53.3076 3.9845
62.4629 50.6694 3.98214
59.3376 59.5721 3.9854
61.0928 54.3301 3.98453
59.2985 57.0336 3.98361
59.2569 55.207 3.98437
48.1018 68.5816 3.98979
50.9478 69.9333 3.99357
54.0858 71.1327 4
56.25 69.976 2
58.3339 68.6801 0
57.0582 8.33263 3.99296
60.3285 7.74928 4
58.9213 9.65244 2
62.2255 9.30602 2
70.578 48.8144 0.0112443
71.7851 44.3528 0.0113955
68.9207 46.0176 0.0164659
69.8115 41.7907 0.0171098
72.4075 39.8021 0.0119962
75 37.5 0
72.4906 37.5122 2
70.0476 39.6576 2
69.4382 43.9089 2
67.6099 41.5005 2
68.2747 48.1111 2
66.724 45.446 2
70.136 37.5216 3.98217
67.8465 39.5138 3.97993
67.2374 43.4745 3.98116
65.5745 41.2147 3.97988
66.0838 47.4261 3.98212
64.6725 44.8577 3.98096
72.4154 35.2242 0.011816
71.8064 30.6763 0.0113159
69.8475 33.2675 0.0168669
68.9741 29.0356 0.0167443
64.0165 10.9835 0
63.8911 14.322 0.00795514
63.5181 17.4336 0.0130593
67.6196 24.9063 0.015266
66.2084 27.627 0.018094
64.7705 23.8175 0.0164808
62.9183 20.3032 0.0157457
62.1109 22.9238 0.0170582
60.6844 11.0939 0.00759475
57.6127 11.4382 0.0123663
70.0646 35.3917 2
69.4747 31.1481 2
67.6681 33.5881 2
66.7855 29.617 2
62.3425 12.6507 2
62.202 15.7717 2
61.8225 18.6668 2
65.5381 25.6892 2
64.1654 28.2442 2
61.2333 21.3207 2
62.8762 24.6204 2
60.4482 23.705 2
59.2473 12.7683 2
56.4067 13.1004 2
55.8742 10.2252 2
67.8831 35.5463 3.98058
67.2788 31.6182 3.98112
65.7162 33.9232 3.97999
64.6821 30.1834 3.98018
63.558 26.4 3.98209
62.2821 28.7633 3.98157
60.777 14.2119 3.98736
61.0698 25.3171 3.98269
60.6183 17.1109 3.98539
60.2345 19.7948 3.98366
59.6808 22.2341 3.98202
59.0049 24.295 3.98311
54.0371 9.12915 3.98898
57.9125 14.318 3.98513
54.7874 12.001 3.98498
55.3149 14.6316 3.98374
67.5165 50.1825 0.0152222
57.0243 66.7377 0.00712398
60.669 63.9806 0.00746817
57.5579 63.6991 0.0121475
65.7101 54.1829 0.0135684
64.5528 51.3982 0.0166878
60.7752 60.9492 0.0124611
60.6652 58.1767 0.0150425
62.8319 55.0847 0.0147292
60.3406 55.8074 0.0157653
55.0699 67.9343 2
59.2204 62.376 2
55.8037 64.9158 2
56.3283 62.1001 2
65.3471 49.4187 2
63.7202 53.3075 2
62.4629 50.6692 2
59.3377 59.5724 2
61.093 54.33 2
59.2987 57.0336 2
59.2571 55.2069 2
53.0417 69.0017 3.99333
53.9655 66.017 3.9886
57.8834 60.8826 3.98536
54.6838 63.2143 3.98542
55.2139 60.6274 3.98406
63.2159 48.6758 3.98165
61.7609 52.5948 3.9835
60.3007 50.0403 3.98149
58.0243 58.279 3.98418
59.3455 53.9713 3.98377
58.1387 55.8369 3.98236
50.1082 67.8598 3.98946
47.462 66.5853 3.98709
46.0558 69.1609 3.99001
48.102 68.5819 2
48.8021 70.7244 3.99376
50.9479 69.9334 2
51.8506 72.1454 4
54.0858 71.1327 2
56.25 69.9759 0
55.1026 7.13739 3.99327
58.3339 6.31992 4
57.0584 8.33254 2
60.3286 7.74926 2
58.9212 9.65248 0.00739216
62.2254 9.30607 0
68.2747 48.1113 0.0159287
69.4384 43.9092 0.0167051
66.7242 45.4461 0.018353
67.6104 41.5006 0.0194089
70.0479 39.6578 0.0178114
72.4908 37.512 0.0120321
70.1356 37.5215 2
67.846 39.5138 2
67.2371 43.4744 2
65.5739 41.2147 2
66.0837 47.4261 2
64.6721 44.8577 2
67.9427 37.5221 3.97976
65.8051 39.3728 3.97939
65.1954 43.0324 3.98031
63.7795 40.9359 3.98
63.9867 46.7286 3.9813
62.833 44.2281 3.98137
70.0649 35.3916 0.017217
69.4749 31.1479 0.016768
67.6685 33.5882 0.0191957
66.7858 29.6171 0.0187818
62.3424 12.6508 0.00771138
62.2019 15.7719 0.0127471
61.8224 18.6667 0.015054
65.5382 25.6892 0.0172026
64.1658 28.2442 0.0187506
62.8764 24.6202 0.017217
61.2334 21.3204 0.0170849
60.4485 23.7046 0.0172213
59.2472 12.7685 0.0125786
56.4067 13.1006 0.0151237
55.8742 10.2255 0.011775
67.8826 35.5461 2
67.2784 31.6181 2
65.7156 33.9229 2
64.6816 30.1833 2
60.777 14.2117 2
60.6184 17.1108 2
60.2346 19.795 2
63.5577 26.4001 2
62.2815 28.7634 2
59.6807 22.2345 2
61.0694 25.3174 2
59.0045 24.2956 2
57.9125 14.3178 2
55.3149 14.6315 2
54.0372 9.12881 2
54.7874 12.0007 2
65.8945 35.6649 3.97973
65.2053 32.1478 3.97997
64.3068 34.2452 3.97934
62.6198 30.6242 3.98025
61.6766 27.0545 3.98194
60.8795 29.1239 3.98305
59.3139 15.6537 3.98536
59.3605 25.7732 3.98366
59.1311 18.3357 3.98448
58.7551 20.8299 3.98239
58.308 23.066 3.9813
57.9971 24.6385 3.98398
52.1118 8.14791 3.98954
53.058 11.0076 3.98573
56.6795 15.7263 3.98439
53.811 13.6682 3.98327
54.3791 15.9828 3.98356
55.0698 67.9342 0.00691326
65.3472 49.4187 0.0173998
55.8036 64.9155 0.0117989
59.2203 62.3757 0.012333
56.3283 62.0998 0.0147467
63.72 53.3076 0.0154981
62.4629 50.6694 0.0178644
59.3376 59.5721 0.0146018
59.2985 57.0336 0.0163903
61.0928 54.3301 0.0154727
59.2569 55.207 0.0156265
53.0419 69.0019 2
53.9656 66.0173 2
57.8834 60.8829 2
54.6838 63.2146 2
55.214 60.6277 2
63.2158 48.6756 2
61.761 52.5947 2
60.3006 50.04 2
58.0245 58.2792 2
59.3456 53.9711 2
58.1389 55.8369 2
52.069 67.0031 3.98904
52.9525 64.2237 3.98564
56.6523 59.5034 3.98444
53.6822 61.6304 3.98413
54.2634 59.334 3.98346
61.0219 47.8991 3.98103
59.7337 52.1284 3.98317
58.058 49.6412 3.98195
56.7849 57.0089 3.98259
57.1387 54.149 3.98194
50.1083 67.8601 2
49.3356 65.9255 3.98651
47.462 66.5857 2
46.8913 64.7413 3.98509
45.5572 67.1028 3.98744
43.9731 69.5935 3.99018
46.0559 69.1613 2
46.609 71.3688 3.99392
48.1018 68.5816 0.0102143
48.8023 70.7246 2
49.554 73.0099 4
50.9478 69.9333 0.00642571
51.8506 72.1455 2
54.0858 71.1327 0
53.0637 6.06903 3.99359
55.1027 7.13726 2
56.25 5.02411 4
58.3339 6.3199 2
57.0582 8.33263 0.00703947
60.3285 7.74928 0
66.0838 47.4261 0.0178831
67.2374 43.4745 0.0188405
64.6725 44.8577 0.0190362
65.5745 41.2147 0.0201157
67.8465 39.5138 0.020073
70.136 37.5216 0.0178282
67.9422 37.522 2
65.8045 39.3728 2
65.1949 43.0324 2
63.7788 40.9359 2
63.9864 46.7285 2
62.8324 44.2279 2
65.9078 37.5021 3.97903
63.923 39.2704 3.97941
63.3538 42.5591 3.98026
62.4597 40.7052 3.97959
61.9949 45.9341 3.98132
61.4822 43.6968 3.98315
67.8831 35.5463 0.0194177
67.2788 31.6182 0.0188841
65.7162 33.9232 0.0200127
64.6821 30.1834 0.0198191
60.777 14.2119 0.0126413
60.6183 17.1109 0.0146063
60.2345 19.7948 0.0163437
63.558 26.4 0.0179142
62.2821 28.7633 0.0184254
61.0698 25.3171 0.017312
59.6808 22.2341 0.0179847
59.0049 24.295 0.0168942
57.9125 14.318 0.0148661
55.3149 14.6316 0.0162598
54.0371 9.12915 0.0110245
54.7874 12.001 0.0150151
65.8939 35.6647 2
65.2047 32.1477 2
64.3061 34.245 2
62.6191 30.6241 2
59.314 15.6536 2
59.1312 18.3357 2
58.7551 20.8303 2
61.6761 27.0547 2
60.8787 29.124 2
58.3077 23.0666 2
59.3599 25.7737 2
57.9965 24.6392 2
56.6796 15.7263 2
54.3792 15.9828 2
53.8111 13.668 2
52.1119 8.14755 2
53.058 11.0072 2
64.1141 35.63 3.97913
62.9564 33.0385 3.97908
60.6457 30.5973 3.98088
59.6044 27.8899 3.98278
57.9437 16.9657 3.98464
57.7724 25.7003 3.98488
57.7244 19.4542 3.98353
57.3888 21.8147 3.98081
57.2128 23.9201 3.98129
50.112 7.28028 3.98992
51.2322 10.1163 3.98633
52.1729 12.7858 3.9838
55.5409 16.9549 3.98414
52.9798 15.2499 3.9823
53.7614 16.9645 3.98372
53.0417 69.0017 0.00667044
53.9655 66.017 0.0113972
63.2159 48.6758 0.0183507
54.6838 63.2143 0.0145821
57.8834 60.8826 0.0146379
55.2139 60.6274 0.0159355
61.7609 52.5948 0.0164963
60.3007 50.0403 0.0185118
58.0243 58.279 0.0158214
58.1387 55.8369 0.0176396
59.3455 53.9713 0.0162335
52.0691 67.0033 2
52.9525 64.224 2
56.6524 59.5036 2
53.6822 61.6307 2
54.2635 59.3343 2
61.0216 47.8987 2
59.7338 52.1281 2
58.0578 49.6407 2
56.7851 57.009 2
57.1389 54.1488 2
51.1666 65.1323 3.98598
52.0461 62.5443 3.98402
55.4854 58.266 3.98388
52.8366 60.1446 3.98355
53.644 58.4848 3.98346
58.3438 46.8696 3.98302
57.5875 51.8127 3.9818
56.2831 49.5796 3.98296
55.4824 55.8171 3.98119
55.3778 53.4094 3.97945
50.1082 67.8598 0.0105361
49.3357 65.9258 2
48.6172 64.1272 3.98463
47.462 66.5853 0.012907
45.5573 67.1032 2
46.8913 64.7417 2
46.3811 63.0587 3.98366
45.1315 65.2031 3.98546
43.6306 67.4738 3.98762
41.8605 69.8812 3.99028
43.9732 69.5939 2
44.3765 71.8637 3.99406
46.0558 69.1609 0.00999073
46.6091 71.369 2
47.2057 73.7222 4
48.8021 70.7244 0.00624343
49.554 73.0099 2
51.8506 72.1454 0
50.9534 5.12959 3.99375
53.0638 6.06886 2
54.0858 3.86728 4
55.1026 7.13739 0.00672652
56.25 5.02406 2
58.3339 6.31992 0
63.9867 46.7286 0.018702
65.1954 43.0324 0.0196884
62.833 44.2281 0.0186332
63.7795 40.9359 0.0199992
65.8051 39.3728 0.0206053
67.9427 37.5221 0.0202382
65.9072 37.502 2
63.9223 39.2703 2
63.3532 42.559 2
62.4589 40.7052 2
61.9944 45.9339 2
61.4815 43.6966 2
63.9832 37.4576 3.97926
62.1883 39.3598 3.97936
61.2509 41.9698 3.98067
60.2843 44.7863 3.98338
65.8945 35.6649 0.0202685
65.2053 32.1478 0.0200334
64.3068 34.2452 0.020659
62.6198 30.6242 0.0197531
59.3139 15.6537 0.014641
59.1311 18.3357 0.0155216
58.7551 20.8299 0.0176146
61.6766 27.0545 0.0180608
60.8795 29.1239 0.0169473
59.3605 25.7732 0.0163396
58.308 23.066 0.0187028
57.9971 24.6385 0.0160228
56.6795 15.7263 0.0156126
54.3791 15.9828 0.0164361
53.811 13.6682 0.0167295
52.1118 8.14791 0.0104636
53.058 11.0076 0.0142659
64.1134 35.6298 2
62.9556 33.0384 2
60.6448 30.5973 2
57.9438 16.9656 2
57.7245 19.4543 2
57.3887 21.8152 2
59.6036 27.8902 2
57.2123 23.921 2
57.7717 25.701 2
50.1121 7.27996 2
55.541 16.955 2
53.7615 16.9645 2
52.9798 15.2498 2
52.1729 12.7855 2
51.2322 10.1159 2
62.2205 35.3556 3.97886
60.326 32.7349 3.97859
58.6604 30.0568 3.98176
57.3308 27.3566 3.98419
56.6412 18.137 3.98417
56.3251 25.0754 3.98266
56.369 20.4987 3.98195
56.1308 22.8428 3.97898
48.0559 6.52376 3.9901
49.3241 9.32447 3.9871
50.4334 11.9843 3.9843
51.3794 14.4862 3.98204
54.419 17.9037 3.98366
52.364 17.0218 3.98233
52.069 67.0031 0.0109582
52.9525 64.2237 0.0143618
61.0219 47.8991 0.0189701
53.6822 61.6304 0.0158665
56.6523 59.5034 0.0155591
54.2634 59.334 0.0165397
59.7337 52.1284 0.0168337
58.058 49.6412 0.0180499
56.7849 57.0089 0.0174102
57.1387 54.149 0.0180617
51.1666 65.1326 2
52.0461 62.5446 2
55.4856 58.2663 2
52.8366 60.1449 2
53.6441 58.4851 2
58.3432 46.869 2
57.5876 51.8123 2
56.2829 49.5788 2
55.4827 55.8171 2
55.378 53.4092 2
50.3456 63.3852 3.98419
51.245 60.9414 3.98283
54.225 57.2812 3.98287
52.3157 58.6452 3.98283
56.7678 44.2029 3.98445
55.5366 47.9191 3.98212
55.0995 51.4161 3.97938
54.0186 54.5697 3.97896
49.3356 65.9255 0.0134899
48.6172 64.1276 2
47.9615 62.4792 3.9834
45.5572 67.1028 0.0125609
46.8913 64.7413 0.014914
43.6307 67.4743 2
46.381 63.0591 2
45.1315 65.2036 2
45.9869 61.591 3.98257
44.7662 63.4602 3.98396
43.3554 65.513 3.98563
41.663 67.6933 3.9878
39.7024 70.0285 3.99029
41.8606 69.8816 2
42.111 72.2085 3.99409
43.9731 69.5935 0.00982061
44.3766 71.8639 2
44.8159 74.2794 4
46.609 71.3688 0.00607685
47.2057 73.7222 2
49.554 73.0099 0
48.784 4.32077 3.99392
50.9535 5.12941 2
51.8506 2.85458 4
53.0637 6.06903 0.00641282
54.0858 3.86728 2
56.25 5.02411 0
61.9949 45.9341 0.0186835
63.3538 42.5591 0.0197381
61.4822 43.6968 0.0168547
62.4597 40.7052 0.0204116
63.923 39.2704 0.0205859
65.9078 37.5021 0.0209726
63.9825 37.4575 2
62.1875 39.3598 2
61.25 41.9697 2
60.2836 44.786 2
62.0276 37.4453 3.97978
60.2884 39.8551 3.97931
59.0371 42.934 3.9827
64.1141 35.63 0.0208733
62.9564 33.0385 0.0209225
60.6457 30.5973 0.0191243
57.9437 16.9657 0.0153604
57.7244 19.4542 0.0164682
57.3888 21.8147 0.0191855
59.6044 27.8899 0.0172232
57.7724 25.7003 0.0151188
57.2128 23.9201 0.0187126
55.5409 16.9549 0.0158576
53.7614 16.9645 0.0162774
52.9798 15.2499 0.0177013
50.112 7.28028 0.010083
52.1729 12.7858 0.0162028
51.2322 10.1163 0.013666
62.2198 35.3555 2
60.3249 32.7348 2
58.6593 30.057 2
56.6415 18.137 2
56.3691 20.4991 2
56.1306 22.8436 2
57.3297 27.3571 2
56.3244 25.0765 2
48.056 6.52342 2
49.3241 9.32415 2
54.4191 17.9038 2
52.364 17.0218 2
51.3794 14.4858 2
50.4334 11.9839 2
59.9359 35.1146 3.97894
58.0395 32.2548 3.97931
56.592 29.3163 3.98304
55.4894 26.573 3.98532
55.3484 19.171 3.9833
54.9582 24.0299 3.97854
55.0165 21.5395 3.98026
45.962 5.87904 3.99033
43.3734 7.4683 3.98824
47.3546 8.61868 3.98753
48.6 11.2858 3.98488
49.715 13.7332 3.98299
50.6356 16.1209 3.98084
53.1293 18.6443 3.98287
51.3062 18.036 3.98242
51.1666 65.1323 0.0140229
52.0461 62.5443 0.0159821
58.3438 46.8696 0.0169825
52.8366 60.1446 0.0164472
55.4854 58.266 0.0161197
53.644 58.4848 0.0165358
57.5875 51.8127 0.0181952
56.2831 49.5796 0.017036
55.4824 55.8171 0.0188129
55.3778 53.4094 0.0205502
50.3456 63.3856 2
51.245 60.9416 2
54.2253 57.2814 2
52.3157 58.6455 2
56.7667 44.2023 2
55.5361 47.918 2
55.0996 51.4155 2
54.0189 54.5697 2
49.5918 61.7488 3.983
55.7043 41.7237 3.98039
50.5687 59.335 3.98175
52.1911 56.504 3.98138
54.245 45.5832 3.98373
53.3855 49.3538 3.98016
52.6903 52.8771 3.97696
48.6172 64.1272 0.0153718
47.9615 62.4796 2
47.3292 61.0135 3.98251
43.6306 67.4738 0.012376
45.1315 65.2031 0.0145439
46.3811 63.0587 0.0163391
41.663 67.6937 2
43.3555 65.5135 2
45.9868 61.5913 2
44.7661 63.4606 2
45.7659 60.6349 3.98177
44.4825 61.8408 3.98275
43.1453 63.7331 3.98423
41.5451 65.6514 3.98578
39.6324 67.7734 3.9879
37.526 70.0539 3.99027
39.7024 70.0289 2
39.8179 72.4057 3.99402
41.8605 69.8812 0.00971579
42.1111 72.2088 2
42.3947 74.6792 4
44.3765 71.8637 0.00593758
44.8159 74.2794 2
47.2057 73.7222 0
43.8515 5.35614 3.99054
46.5701 3.64544 3.99409
48.7841 4.32058 2
49.554 1.99015 4
50.9534 5.12959 0.00624694
51.8506 2.85453 2
54.0858 3.86728 0
60.2843 44.7863 0.0166231
61.2509 41.9698 0.0193315
62.1883 39.3598 0.0206374
63.9832 37.4576 0.0207375
62.0268 37.4452 2
60.2875 39.855 2
59.0361 42.9338 2
59.8098 37.568 3.98079
58.0548 40.67 3.97967
55.1904 39.7303 3.98111
62.2205 35.3556 0.0211444
60.326 32.7349 0.0214147
58.6604 30.0568 0.0182365
56.6412 18.137 0.0158271
56.369 20.4987 0.0180498
56.1308 22.8428 0.0210164
57.3308 27.3566 0.0158078
56.3251 25.0754 0.0173425
54.419 17.9037 0.0163377
52.364 17.0218 0.0176746
51.3794 14.4862 0.0179627
48.0559 6.52376 0.0098993
49.3241 9.32447 0.0129019
50.4334 11.9843 0.0156954
59.935 35.1145 2
45.962 5.8787 2
43.3735 7.46799 2
58.0381 32.2547 2
56.5907 29.3166 2
55.3486 19.1711 2
55.0166 21.5401 2
54.9577 24.0313 2
55.4883 26.5743 2
47.3546 8.6183 2
48.6 11.2855 2
53.1295 18.6444 2
51.3063 18.036 2
50.6357 16.1206 2
49.7149 13.7329 2
57.4547 34.7525 3.97952
55.7838 31.4976 3.98042
54.5668 28.3776 3.98692
53.8098 25.4707 3.98091
53.9762 20.119 3.98268
53.6006 22.6849 3.97652
41.3986 7.07356 3.98838
45.3594 7.9902 3.98792
42.8653 9.40938 3.98636
46.6662 10.6468 3.98552
47.7457 13.0937 3.9831
48.933 15.391 3.9819
50.0085 17.6901 3.97947
51.6578 19.3144 3.98344
50.3456 63.3852 0.01581
51.245 60.9414 0.0171733
56.7678 44.2029 0.015549
55.5366 47.9191 0.0178796
52.3157 58.6452 0.0171674
54.225 57.2812 0.0171261
55.0995 51.4161 0.0206232
54.0186 54.5697 0.0210396
49.5918 61.7491 2
55.7028 41.7231 2
50.5686 59.3352 2
52.1914 56.5044 2
54.2438 45.5819 2
53.3853 49.3527 2
52.6907 52.8764 2
48.8496 60.206 3.9823
52.6163 42.658 3.98297
49.7923 57.635 3.98163
50.6081 54.4381 3.97841
51.8851 47.2905 3.97992
51.2512 50.9696 3.97568
48.3184 43.7336 3.97741
47.9615 62.4792 0.0166019
47.3292 61.0138 2
46.6189 59.7997 3.98177
41.663 67.6933 0.0122048
43.3554 65.513 0.01437
44.7662 63.4602 0.0160368
45.9869 61.591 0.0174348
39.6324 67.7738 2
41.5451 65.6518 2
45.7659 60.6351 2
43.1453 63.7335 2
44.4825 61.8412 2
44.623 60.2972 3.98161
42.9496 62.09 3.98286
41.5987 63.8269 3.98416
39.6469 65.6203 3.98596
37.5632 67.756 3.98771
31.6979 65.1387 3.98571
33.3926 67.4935 3.98765
35.3335 69.964 3.99023
37.526 70.0543 2
37.5096 72.4603 3.99401
39.7024 70.0285 0.00970686
39.8179 72.4059 2
39.9526 74.9197 4
42.111 72.2085 0.00590928
42.3947 74.6792 2
44.8159 74.2794 0
41.7362 4.96527 3.99072
43.8515 5.35581 2
44.3255 3.10878 3.99424
46.5702 3.64524 2
47.2057 1.27793 4
48.784 4.32077 0.00608106
49.554 1.99013 2
51.8506 2.85458 0
59.0371 42.934 0.0173001
60.2884 39.8551 0.020691
62.0276 37.4453 0.0202203
59.8089 37.5679 2
58.0535 40.6699 2
55.1888 39.7298 2
56.8974 37.8995 3.98157
49.7778 41.3003 3.97774
53.2371 39.3146 3.98468
39.442 6.79715 3.98862
59.9359 35.1146 0.0210568
58.0395 32.2548 0.0206894
56.592 29.3163 0.0169567
55.3484 19.171 0.0167029
55.0165 21.5395 0.0197379
54.9582 24.0299 0.0214636
55.4894 26.573 0.014685
53.1293 18.6443 0.0171307
51.3062 18.036 0.0175757
50.6356 16.1209 0.0191619
45.962 5.87904 0.00966555
49.715 13.7332 0.0170061
47.3546 8.61868 0.0124714
48.6 11.2858 0.0151179
43.3734 7.4683 0.0117605
57.4535 34.7524 2
41.3986 7.07322 2
45.3594 7.98991 2
42.8652 9.4091 2
55.782 31.4974 2
54.565 28.3786 2
53.9766 20.1191 2
53.6007 22.6858 2
53.8088 25.4725 2
46.6662 10.6465 2
47.7456 13.0934 2
51.6579 19.3143 2
50.0086 17.69 2
48.933 15.3908 2
54.9633 33.957 3.97974
53.5646 30.4592 3.98494
52.6434 27.1729 3.98416
52.1731 24.0615 3.97793
52.4021 21.055 3.98093
41.0134 9.04263 3.98658
44.7234 9.98952 3.98598
42.468 10.8956 3.98487
46.0051 12.7215 3.98373
47.6824 14.5755 3.98245
48.1152 16.9784 3.98037
49.8213 19.5878 3.9782
49.5918 61.7488 0.0170017
50.5687 59.335 0.0182541
55.7043 41.7237 0.0196088
54.245 45.5832 0.0162663
53.3855 49.3538 0.019844
52.1911 56.504 0.0186207
52.6903 52.8771 0.0230386
48.8495 60.2063 2
52.6144 42.6569 2
49.7923 57.6352 2
50.6085 54.4387 2
51.8843 47.2891 2
51.2514 50.9678 2
48.3122 43.7344 2
47.9879 58.7478 3.98155
50.2074 45.2825 3.97669
48.6044 55.9258 3.98121
49.1527 52.6149 3.97834
49.7263 49.0678 3.97544
46.1871 39.9093 3.9166
46.5693 42.7681 3.98412
46.622 45.7295 3.98144
44.0367 41.2468 3.96962
42.1038 41.9916 3.96939
47.3292 61.0135 0.0174891
46.6188 59.7998 2
45.4683 58.7956 3.98048
39.6324 67.7734 0.0120956
41.5451 65.6514 0.0142232
43.1453 63.7331 0.0157678
44.4825 61.8408 0.0172544
45.7659 60.6349 0.0182269
41.5987 63.8272 2
37.5632 67.7565 2
39.6469 65.6207 2
44.623 60.2974 2
42.9496 62.0903 2
41.7525 62.5012 3.98299
42.4803 59.989 3.98136
39.8923 63.5624 3.98374
37.6419 65.5194 3.98582
35.4636 67.6654 3.98773
33.5759 65.3524 3.98575
31.96 63.3108 3.98409
29.8841 64.7292 3.98538
31.6979 65.1391 2
31.3774 67.2029 3.98764
33.3926 67.4939 2
33.1564 69.7573 3.99016
35.3334 69.9644 2
35.1951 72.3747 3.99397
37.526 70.0539 0.0097319
37.5096 72.4606 2
37.5 75 4
39.8179 72.4057 0.00598094
39.9526 74.9197 2
42.3947 74.6792 0
39.6238 4.71252 3.99079
41.7362 4.96494 2
42.0619 2.71642 3.9944
43.8515 5.35614 0.00945726
44.3256 3.10856 2
44.8158 0.721173 4
46.5701 3.64544 0.00590656
47.2057 1.27779 2
49.554 1.99015 0
58.0548 40.67 0.0203333
59.8098 37.568 0.0192051
55.1904 39.7303 0.0188852
49.7762 41.3021 2
56.8963 37.8995 2
53.2353 39.3134 2
54.0914 36.6234 3.98083
47.6998 40.4558 3.99122
50.7304 38.4831 3.98256
37.5159 6.66834 3.98862
39.442 6.79678 2
39.211 8.68513 3.98679
35.9414 8.48499 3.98687
57.4547 34.7525 0.0204787
55.7838 31.4976 0.0195753
54.5668 28.3776 0.013076
53.9762 20.119 0.0173215
53.6006 22.6849 0.0234811
53.8098 25.4707 0.0190884
51.6578 19.3144 0.0165558
50.0085 17.6901 0.020526
48.933 15.391 0.0180963
45.3594 7.9902 0.0120774
47.7457 13.0937 0.0169
46.6662 10.6468 0.0144806
41.3986 7.07356 0.0116194
42.8653 9.40938 0.0136382
54.9618 33.9565 2
41.0133 9.04227 2
44.7234 9.9893 2
42.4679 10.8954 2
53.5622 30.458 2
52.6417 27.1753 2
52.4025 21.0546 2
52.1727 24.0631 2
46.005 12.7212 2
47.6824 14.5753 2
49.8215 19.5882 2
48.1152 16.9783 2
52.5127 32.8502 3.98219
51.4175 29.1319 3.98762
50.8362 25.7001 3.97557
49.9518 22.1656 3.97925
40.5688 11.5992 3.98421
43.8577 11.9106 3.98411
45.8033 15.4111 3.98192
47.5069 19.212 3.97926
46.5176 37.5051 3.91531
48.8496 60.206 0.0177018
49.7923 57.635 0.0183728
52.6163 42.658 0.0170327
51.8851 47.2905 0.0200808
51.2512 50.9696 0.0243151
50.6081 54.4381 0.0215942
48.3184 43.7336 0.0225941
47.9878 58.7481 2
50.2053 45.2821 2
48.6045 55.9259 2
49.153 52.6156 2
49.7257 49.0656 2
46.1913 39.9118 2
46.5755 42.7711 2
46.6179 45.7259 2
44.0428 41.2444 2
42.1126 41.9945 2
46.8403 57.3501 3.98218
44.8008 39.5057 3.9656
42.4726 40.8667 3.97994
48.1753 47.2629 3.98124
47.1801 54.2585 3.98153
47.625 50.7768 3.97809
44.8934 47.3409 3.98075
45.2534 42.0271 3.92306
45.0325 44.66 3.97651
42.8294 42.7439 3.96204
40.9577 42.3621 3.96857
46.6189 59.7997 0.0182341
45.4682 58.7955 2
43.8759 57.7188 3.98009
37.5632 67.756 0.0122907
39.6469 65.6203 0.0140356
41.5987 63.8269 0.0158424
42.9496 62.09 0.0171351
44.623 60.2972 0.0183925
35.4636 67.6659 2
41.7525 62.5015 2
39.8923 63.5627 2
37.642 65.5199 2
42.4803 59.9892 2
40.6222 61.6592 3.98278
40.4437 58.2178 3.97919
37.8361 63.2239 3.98411
35.5731 65.4417 3.98575
33.5759 65.3528 2
31.9601 63.3112 2
33.6293 63.3508 3.98422
30.379 62.8688 3.98376
32.1232 62.0165 3.98279
26.8679 61.5109 3.9826
28.0629 64.1566 3.98494
29.8841 64.7296 2
29.4072 66.7663 3.98742
31.6979 65.1387 0.0142938
31.3774 67.2034 2
31.0138 69.422 3.99001
33.3926 67.4935 0.0123531
33.1564 69.7576 2
32.8922 72.149 3.99396
35.3335 69.964 0.00977004
35.195 72.375 2
35.0474 74.9194 4
37.5096 72.4603 0.00599189
37.5 75 2
39.9526 74.9197 0
35.6205 6.71934 3.98861
37.523 4.61206 3.99082
39.6238 4.7122 2
39.7885 2.47293 3.99445
41.7362 4.96527 0.00927558
42.062 2.71619 2
42.3946 0.32156 4
44.3255 3.10878 0.00576366
44.8159 0.72056 2
47.2057 1.27793 0
49.7778 41.3003 0.0222561
56.8974 37.8995 0.0184251
53.2371 39.3146 0.0153183
47.6985 40.4521 2
50.7277 38.4835 2
54.09 36.6231 2
51.5145 35.5654 3.97053
48.3624 37.7599 3.99596
46.1848 35.1018 3.91761
44.0275 33.7667 3.97128
42.0894 33.0313 3.97499
37.4577 8.52688 3.98687
37.5159 6.6679 2
39.442 6.79715 0.0113809
39.211 8.68474 2
38.9759 10.1175 3.9859
35.8979 9.76432 3.98593
34.1498 8.8144 3.98665
35.9414 8.48458 2
54.9633 33.957 0.0202554
53.5646 30.4592 0.0150571
52.6434 27.1729 0.015844
52.4021 21.055 0.0190736
52.1731 24.0615 0.0220729
49.8213 19.5878 0.0217978
48.1152 16.9784 0.0196346
47.6824 14.5755 0.0175519
44.7234 9.98952 0.0140157
46.0051 12.7215 0.0162708
41.0134 9.04263 0.0134153
42.468 10.8956 0.0151307
52.5109 32.8494 2
40.5688 11.5989 2
43.8576 11.9105 2
51.4149 29.1344 2
50.8353 25.7022 2
49.952 22.1663 2
45.8032 15.4109 2
47.5069 19.2119 2
50.1257 31.3832 3.97467
49.3562 27.4583 3.97615
49.4361 24.3801 3.97846
47.1941 21.9146 3.97763
38.3014 12.7244 3.98323
42.1009 14.2954 3.9821
44.8024 18.4485 3.97981
45.0752 37.5057 3.95846
46.5261 37.5064 2
47.9879 58.7478 0.0184549
48.6044 55.9258 0.0187881
50.2074 45.2825 0.023314
49.7263 49.0678 0.0245646
49.1527 52.6149 0.0216613
46.1871 39.9093 0.0833972
46.5693 42.7681 0.0158768
46.622 45.7295 0.0185565
44.0367 41.2468 0.0303834
42.1038 41.9916 0.0306087
46.8403 57.3503 2
44.8074 39.5031 2
42.475 40.8664 2
48.1737 47.2597 2
47.1802 54.2583 2
47.6251 50.7762 2
44.8922 47.3325 2
45.2568 42.0295 2
45.0431 44.6659 2
42.8414 42.7396 2
40.9663 42.3605 2
45.4008 55.9356 3.97962
42.8024 39.2609 3.98607
40.9041 40.8149 3.95861
46.1528 48.9398 3.97945
45.5666 52.5579 3.9842
43.525 48.4789 3.95047
43.4161 46.21 3.99521
43.794 43.8301 3.91952
41.2964 43.9029 3.97973
39.3218 42.6649 3.9606
45.4683 58.7956 0.0195169
43.8757 57.7187 2
42.1064 56.3409 3.97992
35.4636 67.6654 0.01227
37.6419 65.5194 0.0141841
39.8923 63.5624 0.0162628
41.7525 62.5012 0.0170128
42.4803 59.989 0.0186441
35.5731 65.4422 2
40.6222 61.6594 2
37.836 63.2243 2
40.4438 58.2179 2
38.9249 56.5056 3.97969
38.2498 60.3425 3.98212
35.6068 63.2175 3.98402
33.5759 65.3524 0.0142511
31.96 63.3108 0.0159138
33.6293 63.3512 2
30.379 62.8691 2
32.1233 62.0168 2
28.6811 62.2134 3.98339
33.3458 61.529 3.98255
31.0659 61.2328 3.9823
27.5655 59.6073 3.98186
23.787 59.0987 3.98469
25.0323 60.8839 3.98281
26.8679 61.5112 2
26.2292 63.4883 3.98444
28.0629 64.1569 2
27.4639 66.1898 3.98706
29.8841 64.7292 0.0146177
29.4071 66.7667 2
28.9063 68.9474 3.9899
31.3774 67.2029 0.012356
31.0138 69.4224 2
30.6147 71.78 3.99389
33.1564 69.7573 0.00984221
32.8921 72.1492 2
32.6054 74.6784 4
35.1951 72.3747 0.00603359
35.0474 74.9197 2
37.5 75 0
33.7232 6.97388 3.98829
35.4344 4.68246 3.99074
35.6204 6.71895 2
37.5141 2.38559 3.9945
37.523 4.6117 2
39.6238 4.71252 0.00921084
39.7885 2.47271 2
39.9526 0.0806499 4
42.0619 2.71642 0.00560004
42.3947 0.320817 2
44.8158 0.721173 0
44.8053 35.5043 3.96444
42.4645 34.1524 3.98062
47.6998 40.4558 0.00877811
50.7304 38.4831 0.0174372
54.0914 36.6234 0.0191734
48.3599 37.7593 2
51.5127 35.5655 2
46.1845 35.1003 2
44.0369 33.7655 2
42.0957 33.0307 2
48.5319 34.2458 4.00552
45.2375 32.9866 3.92058
42.8176 32.2727 3.96544
40.9424 32.6679 3.97152
37.3099 10.6206 3.98515
37.4577 8.52637 2
37.5159 6.66834 0.0113762
39.211 8.68513 0.0132099
38.9759 10.1171 2
34.753 10.37 3.98515
35.8978 9.76396 2
32.3765 9.36099 3.98607
34.1497 8.81403 2
35.9414 8.48499 0.0131259
52.5127 32.8502 0.0178067
51.4175 29.1319 0.0123841
50.8362 25.7001 0.0244315
49.9518 22.1656 0.020755
47.5069 19.212 0.0207368
45.8033 15.4111 0.0180808
43.8577 11.9106 0.0158926
40.5688 11.5992 0.0157895
50.1228 31.3837 2
38.3012 12.7238 2
42.1007 14.2955 2
49.3543 27.4604 2
49.4358 24.3811 2
47.1941 21.9163 2
44.8023 18.4483 2
47.908 29.5909 3.9705
47.1388 25.107 3.97814
44.2933 21.3037 3.97807
36.581 12.9207 3.9834
38.6803 14.7952 3.98196
41.7506 17.8257 3.98023
42.9295 37.4985 3.99057
45.0857 37.5056 2
46.5176 37.5051 0.0846949
46.8403 57.3501 0.0178184
47.1801 54.2585 0.0184719
48.1753 47.2629 0.018761
47.625 50.7768 0.0219057
44.8008 39.5057 0.0344047
45.2534 42.0271 0.0769353
45.0325 44.66 0.0234931
44.8934 47.3409 0.0192467
42.8294 42.7439 0.0379607
42.4726 40.8667 0.0200601
40.9577 42.3621 0.0314263
45.401 55.9356 2
42.8046 39.2596 2
40.9048 40.815 2
46.1529 48.9364 2
45.567 52.5565 2
43.5238 48.4782 2
43.447 46.2203 2
43.7989 43.8332 2
41.3014 43.8954 2
39.3261 42.6682 2
43.741 54.4442 3.98425
40.9768 39.1852 3.94515
39.2365 40.8758 3.92901
43.7487 50.5333 3.98987
42.0261 47.7352 4.02615
41.9383 45.2179 3.91999
39.5099 44.6601 3.97685
37.5026 42.7748 3.96379
43.8759 57.7188 0.0199056
42.1063 56.3405 2
40.4202 54.9406 3.97818
35.5731 65.4417 0.0142513
37.8361 63.2239 0.0158906
40.6222 61.6592 0.0172176
40.4437 58.2178 0.0208145
35.6068 63.2179 2
38.2498 60.3427 2
38.9248 56.5067 2
37.9993 55.2584 3.9784
36.9342 57.6416 3.97926
35.3633 60.9277 3.98265
33.6293 63.3508 0.0157763
30.379 62.8688 0.016237
32.1232 62.0165 0.0172058
33.3458 61.5293 2
28.6812 62.2137 2
31.066 61.233 2
29.4013 60.3014 3.98167
32.3551 59.7593 3.98176
28.0171 58.3861 3.98315
27.5655 59.6075 2
25.374 58.6088 3.98242
22.7491 58.2594 3.98172
23.397 60.3647 3.98343
23.7869 59.099 2
25.0324 60.8843 2
24.4311 62.7805 3.98417
26.8679 61.5109 0.0174043
26.2292 63.4887 2
25.5479 65.4995 3.98655
28.0629 64.1566 0.0150554
27.4639 66.1902 2
26.8362 68.3356 3.98972
29.4072 66.7663 0.0125833
28.9062 68.9477 2
28.3699 71.2651 3.99382
31.0138 69.422 0.00999261
30.6146 71.7802 2
30.1842 74.2788 4
32.8922 72.149 0.00603988
32.6053 74.6792 2
35.0474 74.9194 0
31.7876 7.41345 3.98791
33.3464 4.92157 3.9906
33.7231 6.97346 2
35.2444 2.46174 3.99442
35.4344 4.6821 2
35.6205 6.71934 0.0113913
37.5 0 4
37.5141 2.38534 2
37.523 4.61206 0.00917816
39.7885 2.47293 0.00555284
39.9526 0.0802889 2
42.3946 0.32156 0
42.8051 35.7441 3.98731
44.8077 35.5063 2
40.8967 34.2134 3.96051
42.4679 34.1515 2
48.3624 37.7599 0.00403632
51.5145 35.5654 0.0294744
46.1848 35.1018 0.0823912
44.0275 33.7667 0.0287191
42.0894 33.0313 0.0250139
48.5301 34.2471 2
45.2415 32.9807 2
42.8269 32.2742 2
40.9483 32.6665 2
46.4482 31.4887 3.99351
43.7758 31.1831 3.92115
41.2874 31.1267 3.9768
39.3038 32.3736 3.96388
35.6914 11.7652 3.98379
37.3098 10.6201 2
37.4577 8.52688 0.0131277
38.9759 10.1175 0.0141033
33.0969 11.2066 3.98434
34.753 10.3697 2
35.8979 9.76432 0.0140727
30.4812 10.009 3.98563
32.3764 9.36073 2
34.1498 8.8144 0.0133533
50.1257 31.3832 0.0253284
49.3562 27.4583 0.0238469
49.4361 24.3801 0.0215362
47.1941 21.9146 0.02237
44.8024 18.4485 0.020194
42.1009 14.2954 0.0179034
38.3014 12.7244 0.0167718
36.5809 12.9206 2
47.9038 29.593 2
38.6801 14.7948 2
41.7503 17.8258 2
47.1384 25.1081 2
44.2932 21.3036 2
45.6502 27.8101 3.97343
43.8238 24.038 3.9804
41.3445 20.7039 3.97973
35.7705 14.7457 3.98231
38.6811 17.5824 3.98054
41.0213 37.4958 3.94132
42.934 37.4987 2
45.0752 37.5057 0.0415355
45.4008 55.9356 0.0203767
45.5666 52.5579 0.0157962
46.1528 48.9398 0.020553
42.8024 39.2609 0.0139311
43.794 43.8301 0.0804842
43.4161 46.21 0.00478848
43.525 48.4789 0.0495321
41.2964 43.9029 0.0202726
40.9041 40.8149 0.0413853
39.3218 42.6649 0.0393958
43.7415 54.4441 2
40.9771 39.1849 2
39.2365 40.8794 2
43.7483 50.5345 2
42.0262 47.7372 2
41.9474 45.218 2
37.5034 42.7789 2
39.5177 44.6635 2
41.8902 53.0088 3.98411
39.2309 39.1749 3.93694
37.5052 40.9276 3.93613
35.6866 42.6856 3.96332
40.9892 49.7532 3.99629
39.8233 46.0958 3.9223
37.4985 44.9292 3.96929
42.1064 56.3409 0.0200794
40.4201 54.9403 2
38.7296 53.8667 3.98271
35.6068 63.2175 0.0159832
38.2498 60.3425 0.017882
38.9249 56.5056 0.0203121
35.3633 60.9279 2
36.9341 57.6416 2
37.9991 55.2583 2
36.3182 55.3963 3.97875
34.4866 58.5366 3.98121
33.3458 61.529 0.0174484
28.6811 62.2134 0.0166086
31.0659 61.2328 0.0177024
32.3551 59.7594 2
29.4014 60.3016 2
30.2931 57.8298 3.98167
28.0172 58.3863 2
26.9351 56.8373 3.98099
27.5655 59.6073 0.0181433
25.3739 58.6091 2
23.8277 56.8246 3.98029
21.3237 57.4217 3.98293
21.9882 59.6393 3.98405
22.749 58.2597 2
22.7341 62.0323 3.98407
23.397 60.365 2
23.787 59.0987 0.0153067
25.0323 60.8839 0.0171854
24.4312 62.7809 2
23.6816 64.7177 3.98595
26.2292 63.4883 0.0155594
25.5479 65.4999 2
24.8087 67.5967 3.98951
27.4639 66.1898 0.0129382
26.8361 68.3359 2
26.1652 70.6059 3.99369
28.9063 68.9474 0.0101047
28.3697 71.2653 2
27.7943 73.7221 4
30.6147 71.78 0.0061113
30.1841 74.2794 2
32.6054 74.6784 0
29.8102 7.98655 3.98747
31.2516 5.32855 3.99033
31.7875 7.41313 2
32.9802 2.69982 3.99431
33.3463 4.92117 2
33.7232 6.97388 0.0117124
35.0474 0.080333 4
35.2444 2.4615 2
35.4344 4.68246 0.00925573
37.5 0 2
37.5141 2.38559 0.0055014
39.9526 0.0806499 0
40.9816 35.8184 3.94603
42.8056 35.7448 2
44.8053 35.5043 0.0355631
28.5421 10.6842 3.98514
39.2274 34.1593 3.93315
40.8975 34.2121 2
42.4645 34.1524 0.019383
48.5319 34.2458 -0.00552329
45.2375 32.9866 0.0794224
42.8176 32.2727 0.0345577
40.9424 32.6679 0.0284812
46.4561 31.4855 2
43.7764 31.1782 2
41.2953 31.1258 2
39.3081 32.3679 2
44.4589 29.6658 3.99061
41.9233 29.8109 3.92673
39.4968 30.3992 3.97137
37.4807 32.2792 3.96963
34.091 12.923 3.98311
35.6913 11.765 2
37.3099 10.6206 0.0148468
31.1849 11.9748 3.98409
33.0969 11.2064 2
34.753 10.37 0.0148456
30.4812 10.0086 2
32.3765 9.36099 0.0139289
47.908 29.5909 0.0295011
47.1388 25.107 0.0218579
36.581 12.9207 0.0165966
44.2933 21.3037 0.021927
41.7506 17.8257 0.0197714
38.6803 14.7952 0.0180377
35.7704 14.7461 2
45.6473 27.8152 2
38.6808 17.5824 2
41.344 20.7036 2
43.8235 24.043 2
33.6058 15.8631 3.9824
43.1221 26.5333 3.98149
40.9274 23.2766 3.98097
38.4224 20.3113 3.9807
35.8468 17.4954 3.98092
39.2395 37.4984 3.9358
41.0228 37.4952 2
42.9295 37.4985 0.00943234
43.741 54.4442 0.0157524
43.7487 50.5333 0.0101256
40.9768 39.1852 0.0548515
41.9383 45.2179 0.0800117
42.0261 47.7352 -0.0261492
39.5099 44.6601 0.023149
39.2365 40.8758 0.0709851
37.5026 42.7748 0.036209
41.8904 53.0096 2
39.231 39.1765 2
37.5053 40.9324 2
40.9878 49.7527 2
35.6827 42.6882 2
39.8328 46.101 2
37.5021 44.9195 2
39.829 51.925 3.9881
37.5016 39.195 3.93147
35.7767 40.8975 3.92537
34.0516 42.3818 3.96996
35.481 44.6659 3.97025
38.776 48.8129 4.03619
37.5059 46.41 3.91526
40.4202 54.9406 0.0218151
38.7294 53.8654 2
36.7174 53.2187 3.98292
35.3633 60.9277 0.0173523
36.9342 57.6416 0.0207372
37.9993 55.2584 0.0215976
34.4865 58.5366 2
36.3181 55.3957 2
33.2214 55.5168 3.98127
32.3551 59.7593 0.0182396
29.4013 60.3014 0.0183316
30.2932 57.8299 2
28.6736 55.3218 3.97891
28.0171 58.3861 0.01685
26.9349 56.8376 2
25.2919 55.1618 3.97919
21.7902 55.372 3.98038
25.374 58.6088 0.0175837
23.8274 56.8249 2
20.2067 57.0536 3.98425
20.6379 58.7996 3.98424
21.3234 57.4219 2
21.163 61.1841 3.98483
21.9882 59.6396 2
22.7491 58.2594 0.0182801
21.8944 63.8458 3.98562
22.7341 62.0325 2
23.397 60.3647 0.0165728
24.4311 62.7805 0.0158258
23.6816 64.718 2
22.8372 66.7406 3.98915
25.5479 65.4995 0.0134487
24.8086 67.5971 2
24.0096 69.8071 3.99358
26.8362 68.3356 0.0102785
26.1651 70.6061 2
25.446 73.0099 4
28.3699 71.2651 0.00618379
27.7943 73.7222 2
30.1842 74.2788 0
27.8201 8.64593 3.9872
29.1536 5.87414 3.99
29.8101 7.98618 2
30.7255 3.09688 3.99412
31.2515 5.32821 2
31.7876 7.41345 0.0120859
32.6053 0.320823 4
32.9802 2.69957 2
33.3464 4.92157 0.00940381
35.0474 0.0802903 2
35.2444 2.46174 0.00557839
37.5 0 0
39.2359 35.8346 3.93738
40.981 35.8174 2
42.8051 35.7441 0.0126896
28.5421 10.684 2
26.6211 11.3796 3.98486
29.2238 12.6316 3.98376
37.4941 34.1176 3.94735
39.2276 34.155 2
40.8967 34.2134 0.0394922
46.4482 31.4887 0.00648907
43.7758 31.1831 0.0788539
41.2874 31.1267 0.0231989
39.3038 32.3736 0.0361201
44.4693 29.6581 2
41.9347 29.8063 2
39.5031 30.3963 2
37.4835 32.2729 2
42.3658 28.3562 3.99405
39.8177 28.9496 3.92176
37.4759 30.1378 3.96525
35.6627 32.3673 3.96617
31.9124 14.469 3.98261
34.091 12.9231 2
35.6914 11.7652 0.0162106
31.185 11.9746 2
33.0969 11.2066 0.015663
30.4812 10.009 0.0143701
45.6502 27.8101 0.026569
43.8238 24.038 0.0196038
35.7705 14.7457 0.0176868
41.3445 20.7039 0.0202707
38.6811 17.5824 0.0194588
33.6057 15.8636 2
35.8465 17.496 2
43.1202 26.5394 2
38.422 20.3126 2
40.9273 23.2766 2
33.5477 17.3721 3.9822
40.4894 25.6232 3.98993
38.084 22.8412 3.98774
35.5823 20.0639 3.98174
37.5025 37.5091 3.93267
39.2406 37.4981 2
41.0213 37.4958 0.0586796
41.8902 53.0088 0.0158905
40.9892 49.7532 0.0037059
39.2309 39.1749 0.0630575
39.8233 46.0958 0.0776985
37.4985 44.9292 0.0307105
37.5052 40.9276 0.0638651
35.6866 42.6856 0.0366841
39.8298 51.9242 2
37.5022 39.1975 2
35.7767 40.9011 2
38.7704 48.8193 2
34.044 42.3823 2
35.48 44.6643 2
37.502 46.422 2
37.6675 51.0019 3.97617
35.7768 39.1991 3.9328
34.1153 40.8393 3.95818
32.9051 42.0158 3.97464
33.6943 43.9273 3.97452
35.1792 46.1092 3.92246
36.9029 48.4273 4.02528
38.7296 53.8667 0.0172899
36.7173 53.2175 2
34.3481 52.4865 3.98268
34.4866 58.5366 0.0187916
36.3182 55.3963 0.0212499
33.2214 55.5163 2
30.4984 53.4168 3.98025
30.2931 57.8298 0.0183335
28.6732 55.3219 2
26.8541 53.4629 3.97774
26.9351 56.8373 0.0190133
25.2914 55.1621 2
23.5433 53.5084 3.97735
20.4374 53.258 3.97932
19.9159 55.8588 3.98336
21.7897 55.3721 2
23.8277 56.8246 0.0197096
19.4287 57.9141 3.98402
20.2064 57.0537 2
19.7014 60.2198 3.98463
20.6378 58.7998 2
21.3237 57.4217 0.0170688
20.2059 62.8682 3.98589
21.163 61.1843 2
21.9882 59.6393 0.0159487
20.9385 65.7699 3.98874
21.8944 63.8461 2
22.7341 62.0323 0.015929
23.6816 64.7177 0.0140496
22.8371 66.7409 2
21.9123 68.8744 3.9934
24.8087 67.5967 0.0104902
24.0094 69.8073 2
23.1494 72.1454 4
26.1652 70.6059 0.00630808
25.446 73.0099 2
27.7943 73.7221 0
25.8595 9.37404 3.98666
27.0685 6.53799 3.98973
27.8201 8.64565 2
28.4878 3.6427 3.99393
29.1535 5.87378 2
29.8102 7.98655 0.0125348
30.1841 0.720592 4
30.7254 3.09667 2
31.2516 5.32855 0.00967296
32.6053 0.320817 2
32.9802 2.69982 0.00568912
35.0474 0.080333 0
37.5032 35.8307 3.93464
39.2352 35.8323 2
40.9816 35.8184 0.0539651
24.7759 12.0626 3.9845
23.7493 14.3476 3.98325
28.5421 10.6842 0.0148586
26.6211 11.3794 2
29.2239 12.6315 2
27.2898 13.3647 3.98363
29.7784 14.191 3.98304
35.7661 34.1494 3.93325
37.4945 34.1124 2
39.2274 34.1593 0.0668542
37.4807 32.2792 0.0303697
44.4589 29.6658 0.0093922
41.9233 29.8109 0.0732663
39.4968 30.3992 0.0286315
42.373 28.3457 2
39.8278 28.944 2
37.4776 30.133 2
35.6636 32.3635 2
40.0472 27.5395 4.00346
37.4872 28.6502 3.91776
35.453 30.398 3.96805
34.0332 32.6646 3.97042
30.9234 16.8267 3.98214
31.9125 14.4691 2
34.091 12.923 0.016894
31.1849 11.9748 0.0159145
43.1221 26.5333 0.0185094
40.9274 23.2766 0.0190258
33.6058 15.8631 0.0176018
35.8468 17.4954 0.0190791
38.4224 20.3113 0.0193002
33.5475 17.3728 2
35.5822 20.0645 2
40.4871 25.6307 2
38.0842 22.8448 2
32.8596 19.7803 3.98009
37.7879 25.1373 4.00315
35.2039 22.6237 3.97758
35.7685 37.5183 3.93256
37.504 37.5089 2
39.2395 37.4984 0.0642014
39.829 51.925 0.0119046
38.776 48.8129 -0.0361948
37.5016 39.195 0.0685295
37.5059 46.41 0.0847432
35.481 44.6659 0.0297536
35.7767 40.8975 0.074634
34.0516 42.3818 0.030039
37.6684 51.0096 2
35.7779 39.201 2
34.1145 40.84 2
36.899 48.4322 2
32.8981 42.0166 2
33.6909 43.9244 2
35.1692 46.1126 2
35.4171 50.1552 3.98003
34.0387 39.2147 3.9415
32.5382 40.8916 3.98017
32.1697 42.7698 3.96335
33.0739 45.2417 3.92341
34.2815 47.5295 4.00262
36.7174 53.2187 0.0170834
34.348 52.4872 2
31.9637 51.212 3.97948
33.2214 55.5168 0.0187324
30.4981 53.4188 2
28.3886 51.6443 3.9786
28.6736 55.3218 0.0210939
26.8536 53.4642 2
25.0365 51.7999 3.97537
25.2919 55.1618 0.0208089
23.5427 53.5085 2
21.9232 51.8457 3.97798
19.1633 51.6702 3.97961
18.8984 54.3378 3.98126
20.4371 53.2576 2
18.4344 56.7479 3.98449
19.9155 55.8588 2
21.7902 55.372 0.019624
18.362 59.1294 3.98425
19.4285 57.9142 2
20.2067 57.0536 0.0157469
18.6157 61.7774 3.98574
19.7013 60.2199 2
20.6379 58.7996 0.0157641
19.127 64.6815 3.98854
20.2059 62.8685 2
21.163 61.1841 0.0151668
19.8864 67.8112 3.99315
20.9385 65.7702 2
21.8944 63.8458 0.014376
22.8372 66.7406 0.0108473
21.9121 68.8745 2
20.9142 71.1327 4
24.0096 69.8071 0.00642314
23.1494 72.1455 2
25.446 73.0099 0
23.095 12.7775 3.98417
23.9721 10.1606 3.98619
25.0225 7.30791 3.98944
25.8594 9.37377 2
26.2796 4.3268 3.99369
27.0684 6.5377 2
27.8201 8.64593 0.0127953
27.7943 1.27781 4
28.4876 3.6425 2
29.1536 5.87414 0.0100023
30.1841 0.720551 2
30.7255 3.09688 0.0058786
32.6053 0.320823 0
35.7732 35.8402 3.93483
37.5031 35.8279 2
39.2359 35.8346 0.0626198
24.7759 12.0626 2
23.7494 14.3477 2
22.4773 15.0241 3.98332
25.3558 13.8968 3.98342
24.0217 15.6096 3.98294
26.6211 11.3796 0.0151416
29.2238 12.6316 0.0162369
27.2899 13.3646 2
29.7785 14.191 2
28.354 15.9657 3.98252
34.1087 34.2111 3.95842
35.7664 34.1466 2
37.4941 34.1176 0.0526463
35.6627 32.3673 0.0338297
37.4759 30.1378 0.0347485
42.3658 28.3562 0.0059548
39.8177 28.9496 0.078242
40.0484 27.5399 2
37.4864 28.6387 2
35.4518 30.3948 2
34.0334 32.6622 2
37.6132 27.2405 4.00464
35.1371 28.9452 3.92223
33.6664 31.1283 3.97569
32.8928 33.0389 3.97774
30.2029 19.3301 3.98317
30.9234 16.8272 2
31.9124 14.469 0.0173931
40.4894 25.6232 0.010071
38.084 22.8412 0.0122587
33.5477 17.3721 0.0178002
35.5823 20.0639 0.0182644
32.8593 19.7816 2
35.2046 22.6241 2
37.7876 25.1454 2
32.3045 22.397 3.98029
34.9351 25.155 3.98323
33.9931 37.5246 3.93972
35.7704 37.5184 2
37.5025 37.5091 0.0673269
37.6675 51.0019 0.0238253
36.9029 48.4273 -0.0252846
35.7768 39.1991 0.0671992
35.1792 46.1092 0.0775425
33.6943 43.9273 0.0254817
34.1153 40.8393 0.0418188
32.9051 42.0158 0.025364
35.4173 50.161 2
34.0396 39.2151 2
32.535 40.8916 2
34.2738 47.5396 2
32.1605 42.7644 2
33.0622 45.2451 2
33.171 49.1346 3.98084
32.2034 39.2916 3.98671
30.9655 41.2699 3.97075
31.2127 43.8548 3.92105
32.217 46.4714 3.9861
34.3481 52.4865 0.0173216
31.9634 51.2159 2
29.7891 49.7376 3.97759
30.4984 53.4168 0.0197466
28.388 51.6428 2
26.4436 50.0363 3.97429
26.8541 53.4629 0.0222603
25.0359 51.7982 2
23.2836 50.2409 3.97949
23.5433 53.5084 0.0226547
21.9229 51.8448 2
20.4168 50.3544 3.98007
17.9486 50.3627 3.9815
17.8048 52.8224 3.98082
19.1634 51.6693 2
17.4198 55.366 3.98302
18.8981 54.3376 2
20.4374 53.258 0.0206761
17.126 57.8935 3.98494
18.4341 56.748 2
19.9159 55.8588 0.0166436
17.1321 60.5626 3.98532
18.3618 59.1296 2
19.4287 57.9141 0.015975
17.4067 63.4752 3.98834
18.6157 61.7776 2
19.7014 60.2198 0.0153687
17.9425 66.62 3.99302
19.127 64.6817 2
20.2059 62.8682 0.0141097
18.75 69.9759 4
19.8862 67.8113 2
20.9385 65.7699 0.0112639
21.9123 68.8744 0.0065973
20.9142 71.1327 2
23.1494 72.1454 0
21.5854 13.5977 3.98398
22.1901 11.0199 3.98565
23.0951 12.7775 2
23.0407 8.17311 3.9892
23.9721 10.1604 2
24.1173 5.14138 3.99352
25.0224 7.30765 2
25.8595 9.37404 0.0133412
25.446 1.99014 4
26.2794 4.32665 2
27.0685 6.53799 0.0102687
27.7943 1.27778 2
28.4878 3.6427 0.00607435
30.1841 0.720592 0
34.0335 35.8349 3.94313
35.7733 35.8386 2
37.5032 35.8307 0.0653568
21.3017 15.8191 3.98345
24.7759 12.0626 0.0154968
23.7493 14.3476 0.0167473
25.3559 13.897 2
22.4775 15.0243 2
24.0219 15.61 2
23.2603 16.241 3.98277
25.377 16.0777 3.98287
27.2898 13.3647 0.0163721
29.7784 14.191 0.0169602
28.3542 15.9658 2
27.4342 18.7883 3.98277
32.5412 34.1663 3.98227
34.1078 34.2097 2
35.7661 34.1494 0.0667498
34.0332 32.6646 0.0295813
35.453 30.398 0.0319458
37.4872 28.6502 0.0822358
40.0472 27.5395 -0.00346274
37.6119 27.2139 2
32.8923 33.0401 2
35.126 28.9371 2
33.6626 31.1262 2
35.0387 27.3448 4.00716
33.0214 29.8155 3.9265
32.1502 32.281 3.97098
29.5647 21.9257 3.98666
30.203 19.3318 2
30.9234 16.8267 0.017856
37.7879 25.1373 -0.00315261
35.2039 22.6237 0.0224249
32.8596 19.7803 0.0199091
32.3052 22.3992 2
34.9376 25.1657 2
31.6238 25.6137 3.98254
32.0791 37.5293 3.98946
33.9948 37.5241 2
35.7685 37.5183 0.0674398
35.4171 50.1552 0.0199652
34.2815 47.5295 -0.00262402
34.0387 39.2147 0.0584977
33.0739 45.2417 0.0765907
32.1697 42.7698 0.0366454
32.5382 40.8916 0.0198345
33.1714 49.1224 2
32.2025 39.2913 2
30.9565 41.2685 2
32.2 46.4817 2
31.2068 43.8572 2
31.0375 47.8897 3.98102
30.1945 39.527 3.9642
29.7539 42.0457 3.92128
30.3197 45.0579 3.98602
31.9637 51.212 0.0205191
29.7893 49.7353 2
27.7775 48.2219 3.9763
28.3886 51.6443 0.0213957
26.4434 50.0338 2
24.5691 48.5189 3.98118
25.0365 51.7999 0.0246298
23.2835 50.2394 2
21.5868 48.8342 3.98235
21.9232 51.8457 0.022017
20.4171 50.3529 2
18.9837 49.1276 3.98335
16.8557 49.3605 3.98368
16.7427 51.4361 3.98154
17.949 50.3619 2
16.3684 53.8965 3.98219
17.8048 52.8218 2
19.1633 51.6702 0.0203936
15.9652 56.4966 3.98438
17.4195 55.3659 2
18.8984 54.3378 0.0187373
15.7443 59.225 3.98552
17.1258 57.8936 2
18.4344 56.7479 0.0155082
15.7865 62.1469 3.98791
17.132 60.5629 2
18.362 59.1294 0.0157454
16.0889 65.303 3.99296
17.4067 63.4755 2
18.6157 61.7774 0.0142649
16.6661 68.6801 4
17.9423 66.6201 2
19.127 64.6815 0.011455
18.75 69.9759 2
19.8864 67.8112 0.00684857
20.9142 71.1327 0
20.2167 14.5859 3.98387
21.5856 13.5978 2
20.5292 11.9898 3.98525
21.1439 9.14268 3.98884
22.1902 11.0197 2
23.095 12.7775 0.0158261
22.0164 6.08028 3.99334
23.0406 8.17288 2
23.9721 10.1606 0.0138061
23.1494 2.85457 4
24.1171 5.14125 2
25.0225 7.30791 0.0105561
25.446 1.99012 2
26.2796 4.3268 0.00631382
27.7943 1.27781 0
32.2072 35.7656 3.98654
34.0333 35.8337 2
35.7732 35.8402 0.0651706
21.3019 15.8192 2
20.2975 16.9512 3.98437
22.0929 16.6246 3.98319
25.3558 13.8968 0.016584
22.4773 15.0241 0.0166831
24.0217 15.6096 0.017064
25.3772 16.078 2
23.2606 16.2414 2
24.1983 18.44 3.9819
27.0003 21.4484 3.98061
28.354 15.9657 0.0174795
27.4347 18.7889 2
30.9719 33.787 3.96672
32.537 34.1666 2
34.1087 34.2111 0.0415812
32.8928 33.0389 0.0222605
33.6664 31.1283 0.0243133
35.1371 28.9452 0.077768
37.6132 27.2405 -0.00464171
35.0302 27.3351 2
32.1514 32.2853 2
33.0219 29.8116 2
32.4541 28.0631 4.01065
31.1761 31.2041 3.92737
28.7455 24.3898 3.98688
29.5651 21.9292 2
30.2029 19.3301 0.0168291
34.9351 25.155 0.0167657
32.3045 22.397 0.0197079
31.6259 25.6038 2
29.5472 27.2822 3.98095
29.9255 37.5288 3.96011
32.0793 37.5293 2
33.9931 37.5246 0.0602806
33.171 49.1346 0.0191629
32.217 46.4714 0.0138995
32.2034 39.2916 0.0132893
31.2127 43.8548 0.0789527
30.9655 41.2699 0.0292526
31.0405 47.8811 2
30.1903 39.5265 2
29.7496 42.0496 2
30.3047 45.0657 2
29.0426 46.4566 3.97355
28.8113 39.9252 3.91539
28.5059 43.2732 3.99141
29.7891 49.7376 0.0224088
27.7783 48.2184 2
25.8302 46.7023 3.98198
26.4436 50.0363 0.0257077
24.5696 48.5169 2
22.7154 47.1302 3.98826
23.2836 50.2409 0.0205069
21.5876 48.832 2
19.9232 47.6566 3.98632
20.4168 50.3544 0.0199339
18.9843 49.1265 2
17.6267 48.2087 3.98501
16.1072 48.7097 3.98507
16.8561 49.36 2
15.8194 50.1966 3.9829
15.3555 52.4403 3.98217
16.7429 51.4356 2
17.9486 50.3627 0.0184963
14.8545 54.9982 3.98343
16.3682 53.8962 2
17.8048 52.8224 0.0191848
14.4524 57.7549 3.9854
15.9649 56.4966 2
17.4198 55.366 0.016978
14.2639 60.7023 3.9875
15.7442 59.2253 2
17.126 57.8935 0.0150563
14.3328 63.8624 3.99281
15.7865 62.1473 2
17.1321 60.5626 0.0146753
14.6715 67.2507 4
16.0888 65.303 2
17.4067 63.4752 0.0116642
16.6661 68.6801 2
17.9425 66.62 0.00697661
18.75 69.9759 0
18.9292 15.7712 3.9843
20.2168 14.5859 2
18.9784 13.1001 3.98506
21.5854 13.5977 0.0160241
20.5293 11.9897 2
19.3433 10.2304 3.98828
19.991 7.14484 3.99319
21.1439 9.1425 2
22.1901 11.0199 0.0143484
20.9142 3.86727 4
22.0162 6.0802 2
23.0407 8.17311 0.0108032
23.1494 2.85451 2
24.1173 5.14138 0.00648499
25.446 1.99014 0
30.2072 35.5334 3.96706
32.2052 35.7654 2
34.0335 35.8349 0.056871
21.3017 15.8191 0.0165535
22.0932 16.6247 2
20.2978 16.9512 2
19.235 18.3961 3.98417
21.7759 17.8391 3.98349
25.377 16.0777 0.0171325
23.2603 16.241 0.0172295
24.199 18.4408 2
22.2667 19.8791 3.98294
24.5759 21.3099 3.98275
26.3747 23.7138 3.98333
27.0017 21.4501 2
27.4342 18.7883 0.0172325
29.7499 33.0087 3.92404
30.9629 33.7875 2
32.5412 34.1663 0.0177334
32.1502 32.281 0.0290199
33.0214 29.8155 0.0734983
35.0387 27.3448 -0.00715934
32.441 28.059 2
31.1847 31.2087 2
29.9855 29.5 4.0029
27.7935 26.5413 3.97001
28.7462 24.3975 2
29.5647 21.9257 0.0133388
31.6238 25.6137 0.0174594
29.5424 27.2353 2
28.4815 37.5244 3.9196
29.9217 37.5299 2
32.0791 37.5293 0.0105428
31.0375 47.8897 0.0189782
30.3197 45.0579 0.0139847
30.1945 39.527 0.0357971
29.7539 42.0457 0.0787183
29.0462 46.4538 2
28.8084 39.9256 2
28.4962 43.2761 2
27.1105 44.8215 3.96968
26.5912 40.6659 4.00769
27.7775 48.2219 0.0237016
25.832 46.6999 2
23.8578 45.2601 3.98511
24.5691 48.5189 0.0188162
22.7169 47.1271 2
20.8461 45.939 3.98807
21.5868 48.8342 0.01765
19.9242 47.6553 2
18.2676 46.7688 3.98643
18.9837 49.1276 0.0166516
17.6274 48.2081 2
16.2952 47.7394 3.98484
16.1077 48.7093 2
15.1652 49.0395 3.98394
16.8557 49.3605 0.0163213
15.8197 50.1962 2
14.4681 51.0072 3.98268
13.8147 53.4539 3.983
15.3556 52.44 2
16.7427 51.4361 0.018465
13.246 56.1831 3.98478
14.8543 54.9981 2
16.3684 53.8965 0.0178063
12.8457 59.1364 3.98725
14.4522 57.7551 2
15.9652 56.4966 0.0156238
12.678 62.3052 3.99245
14.2639 60.7027 2
15.7443 59.225 0.0144848
12.7746 65.6939 4
14.3327 63.8626 2
15.7865 62.1469 0.0120872
14.6714 67.2507 2
16.0889 65.303 0.00703913
16.6661 68.6801 0
17.6623 17.145 3.98433
18.9294 15.7711 2
17.5089 14.3628 3.98514
20.2167 14.5859 0.0161279
18.9785 13.0999 2
17.6387 11.4489 3.98777
20.5292 11.9898 0.0147548
19.3433 10.2302 2
18.0513 8.33759 3.99292
18.75 5.0241 4
19.9909 7.14481 2
21.1439 9.14268 0.0111615
20.9142 3.86727 2
22.0164 6.08028 0.0066613
23.1494 2.85457 0
28.8164 35.1269 3.92209
30.2029 35.5369 2
32.2072 35.7656 0.0134621
22.0929 16.6246 0.0168084
20.2975 16.9512 0.0156262
21.7764 17.8391 2
19.2353 18.3962 2
17.968 19.926 3.98418
20.8663 19.3646 3.98395
24.1983 18.44 0.0181033
22.2676 19.879 2
24.5773 21.3112 2
22.3384 21.7025 3.98374
24.661 23.1552 3.983
25.3868 25.9418 3.97505
26.3762 23.7144 2
27.0003 21.4484 0.0193854
28.1424 32.2751 3.99018
29.7461 33.0088 2
30.9719 33.787 0.0332758
31.1761 31.2041 0.0726349
32.4541 28.0631 -0.010649
29.9595 29.5024 2
26.8879 29.141 3.97298
27.7885 26.5411 2
28.7455 24.3898 0.0131229
29.5472 27.2822 0.0190526
26.711 37.3721 3.99325
28.4794 37.5228 2
29.9255 37.5288 0.0398915
29.0426 46.4566 0.0264501
28.5059 43.2732 0.00858795
28.8113 39.9252 0.0846053
27.115 44.8201 2
26.5928 40.6667 2
25.0791 43.2154 3.97388
23.8386 39.4449 3.96884
25.8302 46.7023 0.0180228
23.8601 45.2593 2
21.8152 43.9912 3.98607
22.7154 47.1302 0.0117406
20.8479 45.9377 2
18.9227 45.0013 3.98429
19.9232 47.6566 0.0136848
18.2686 46.7683 2
16.5823 46.2376 3.98358
17.6267 48.2087 0.0149877
16.2958 47.739 2
14.8932 47.6925 3.98366
16.1072 48.7097 0.0149325
15.1656 49.0391 2
13.7652 49.5664 3.98311
15.8194 50.1966 0.0171021
14.4683 51.0069 2
12.8805 51.8916 3.98295
12.1324 54.5412 3.98425
13.8146 53.4537 2
15.3555 52.4403 0.0178258
11.5296 57.4686 3.98676
13.2459 56.1831 2
14.8545 54.9982 0.0165724
11.1325 60.6318 3.99214
12.8457 59.1367 2
14.4524 57.7549 0.0145989
10.9835 64.0165 4
12.6779 62.3053 2
14.2639 60.7023 0.0125001
12.7745 65.694 2
14.3328 63.8624 0.00718842
14.6715 67.2507 0
16.3931 18.6371 3.98453
17.6626 17.145 2
16.099 15.7706 3.98518
18.9292 15.7712 0.0157001
17.5091 14.3627 2
16.0198 12.8015 3.98744
18.9784 13.1001 0.0149374
17.6387 11.4487 2
16.2024 9.66046 3.99266
19.3433 10.2304 0.011723
18.0511 8.33758 2
16.6661 6.31991 4
18.75 5.02404 2
19.991 7.14484 0.00681347
20.9142 3.86727 0
27.2167 34.7447 3.98719
28.812 35.1261 2
30.2072 35.5334 0.0329445
16.6649 21.3592 3.98289
21.7759 17.8391 0.016506
19.235 18.3961 0.0158283
20.8668 19.3644 2
17.9684 19.9261 2
19.7062 21.5549 3.9855
22.2667 19.8791 0.0170617
24.5759 21.3099 0.0172471
22.3396 21.7016 2
24.6616 23.1557 2
22.7993 24.5866 3.97911
24.44 28.5187 3.9742
25.3835 25.94 2
26.3747 23.7138 0.0166744
25.9794 31.7163 3.97738
28.1336 32.2743 2
29.7499 33.0087 0.0759635
29.9855 29.5 -0.00289889
26.8941 29.1413 2
27.7935 26.5413 0.0299854
24.5248 36.8791 3.97905
26.7122 37.3755 2
28.4815 37.5244 0.0803974
27.1105 44.8215 0.0303186
26.5912 40.6659 -0.00769306
25.0814 43.2168 2
23.8401 39.4459 2
22.8595 41.8306 3.98087
21.5965 38.5094 3.97956
23.8578 45.2601 0.0148917
21.8171 43.9922 2
19.6685 42.9153 3.98107
20.8461 45.939 0.0119274
18.9242 45.0013 2
16.9078 44.4028 3.98149
18.2676 46.7688 0.0135663
16.5831 46.2374 2
14.812 46.111 3.98208
16.2952 47.7394 0.0151589
14.8937 47.6923 2
13.2711 48.027 3.98269
15.1652 49.0395 0.0160609
13.7654 49.5661 2
12.0988 50.2684 3.98296
14.4681 51.0072 0.017324
12.8806 51.8914 2
11.1273 52.849 3.98389
10.3194 55.7201 3.98627
12.1323 54.5411 2
13.8147 53.4539 0.0169988
9.69907 58.8549 3.99152
11.5295 57.4687 2
13.246 56.1831 0.0152183
9.30605 62.2254 4
11.1324 60.6319 2
12.8457 59.1364 0.0127506
10.9835 64.0165 2
12.678 62.3052 0.00754741
12.7746 65.6939 0
15.1357 20.1698 3.98381
16.3934 18.6371 2
14.7436 17.2922 3.98496
17.6623 17.145 0.015672
16.0992 15.7705 2
14.4817 14.2823 3.98719
17.5089 14.3628 0.0148589
16.0199 12.8013 2
14.4449 11.1114 3.99246
17.6387 11.4489 0.0122286
16.2023 9.66045 2
14.6715 7.74927 4
18.0513 8.33759 0.007079
16.6661 6.31988 2
18.75 5.0241 0
25.1622 34.2866 3.98486
27.2168 34.7477 2
28.8164 35.1269 0.0779051
17.8341 22.3041 3.98608
15.5068 22.9018 3.98167
16.6652 21.3591 2
20.8663 19.3646 0.0160535
17.968 19.926 0.0158211
19.7069 21.5545 2
19.626 24.3602 3.98214
22.3384 21.7025 0.0162615
24.661 23.1552 0.0169954
22.7973 24.585 2
21.8292 27.8074 3.9756
23.604 31.1796 3.97532
24.4432 28.5221 2
25.3868 25.9418 0.0249518
25.9818 31.7142 2
28.1424 32.2751 0.00981715
26.8879 29.141 0.0270192
22.3063 36.2731 3.98467
24.5266 36.8796 2
26.711 37.3721 0.00674938
25.0791 43.2154 0.0261233
23.8386 39.4449 0.0311602
22.8609 41.8314 2
21.5977 38.5096 2
20.5843 40.6483 3.97914
19.9623 37.7868 3.98219
21.8152 43.9912 0.0139322
19.6699 42.9154 2
17.2992 42.1189 3.97962
18.9227 45.0013 0.0157117
16.909 44.4028 2
14.8113 44.2184 3.97999
16.5823 46.2376 0.016424
14.8126 46.1108 2
12.9422 46.3118 3.98124
14.8932 47.6925 0.0163421
13.2714 48.0268 2
11.4695 48.5637 3.98248
13.7652 49.5664 0.0168862
12.0989 50.2682 2
10.2525 51.0911 3.98358
12.8805 51.8916 0.0170515
11.1272 52.8489 2
9.22782 53.8972 3.98589
8.38262 56.9878 3.99064
10.3193 55.7201 2
12.1324 54.5412 0.0157526
7.74927 60.3285 4
9.699 58.8549 2
11.5296 57.4686 0.0132439
9.306 62.2255 2
11.1325 60.6318 0.00785697
10.9835 64.0165 0
13.9459 21.7356 3.98304
15.1359 20.1696 2
13.4431 18.8882 3.9847
16.3931 18.6371 0.0154683
14.7439 17.292 2
13.0265 15.8742 3.98686
16.099 15.7706 0.0148162
14.4818 14.2821 2
12.782 12.6843 3.99222
16.0198 12.8015 0.0125607
14.4449 11.1113 2
12.7746 9.30605 4
16.2024 9.66046 0.0073351
14.6715 7.74924 2
16.6661 6.31991 0
22.8993 33.7946 3.98388
25.1623 34.2865 2
27.2167 34.7447 0.0128114
17.5964 24.0227 3.9829
17.8342 22.3037 2
14.2872 24.4339 3.9804
15.5063 22.9011 2
16.6649 21.3592 0.0171135
18.9732 27.1829 3.97565
19.7062 21.5549 0.0144981
19.6245 24.3605 2
21.0585 30.6489 3.977
22.7993 24.5866 0.0208945
21.8315 27.8088 2
23.6058 31.1805 2
24.44 28.5187 0.0257996
25.9794 31.7163 0.0226223
20.0765 35.9191 3.98394
22.3075 36.2739 2
24.5248 36.8791 0.0209543
22.8595 41.8306 0.019131
21.5965 38.5094 0.0204411
20.5855 40.6485 2
19.9633 37.7872 2
17.9642 39.0098 3.9805
19.6685 42.9153 0.0189273
17.3002 42.1192 2
14.7561 41.9319 3.97903
16.9078 44.4028 0.0185056
14.8122 44.2184 2
12.681 44.4057 3.97976
14.812 46.111 0.0179243
12.9427 46.3118 2
10.9708 46.7456 3.98129
13.2711 48.027 0.0173127
11.4697 48.5636 2
9.51545 49.2494 3.98305
12.0988 50.2684 0.0170398
10.2525 51.091 2
8.2605 52.0088 3.98551
11.1273 52.849 0.0161145
9.22773 53.8972 2
7.19149 55.0377 3.98988
6.31991 58.3339 4
8.38254 56.9879 2
10.3194 55.7201 0.0137276
7.74924 60.3285 2
9.69907 58.8549 0.00848415
9.30605 62.2254 0
13.2078 25.3487 3.9839
12.8114 23.2652 3.98214
13.9456 21.735 2
12.2272 20.5368 3.9844
15.1357 20.1698 0.0161895
13.4433 18.888 2
11.6556 17.5547 3.98668
14.7436 17.2922 0.015035
13.0267 15.874 2
11.2192 14.3688 3.99186
14.4817 14.2823 0.0128141
12.782 12.6843 2
10.9835 10.9835 4
14.4449 11.1114 0.00753811
12.7745 9.306 2
14.6715 7.74927 0
20.4656 33.3841 3.98161
22.8995 33.7948 2
25.1622 34.2866 0.015136
15.865 26.3842 3.97848
17.5956 24.0223 2
17.8341 22.3041 0.013918
14.2872 24.4343 2
15.5068 22.9018 0.0183337
18.3076 30.1573 3.97646
18.9749 27.1839 2
19.626 24.3602 0.0178633
21.0599 30.6492 2
21.8292 27.8074 0.0244012
23.604 31.1796 0.0246791
17.5857 35.9621 3.98322
20.0775 35.9195 2
22.3063 36.2731 0.0153335
20.5843 40.6483 0.0208561
19.9623 37.7868 0.017809
17.965 39.0101 2
14.2587 39.1836 3.98077
17.2992 42.1189 0.0203843
14.7569 41.932 2
12.3669 42.2876 3.97959
14.8113 44.2184 0.0200078
12.6817 44.4058 2
10.5473 44.8126 3.98034
12.9422 46.3118 0.0187586
10.9711 46.7457 2
8.8978 47.327 3.98208
11.4695 48.5637 0.0175174
9.51552 49.2494 2
7.42732 50.0409 3.9849
10.2525 51.0911 0.0164221
8.26043 52.0088 2
6.13189 53.0114 3.98934
9.22782 53.8972 0.0141082
7.19141 55.0377 2
5.0241 56.25 4
6.31988 58.3339 2
8.38262 56.9878 0.00935808
7.74927 60.3285 0
13.442 26.8013 3.97973
11.9243 24.7757 3.98148
13.2081 25.3489 2
11.1291 22.2222 3.98363
12.8113 23.2651 2
13.9459 21.7356 0.0169603
12.227 20.5364 2
10.3851 19.3096 3.98656
13.4431 18.8882 0.0152973
11.6558 17.5545 2
9.76001 16.1516 3.99139
13.0265 15.8742 0.013136
11.2192 14.3687 2
9.30607 12.7746 4
12.782 12.6843 0.00778411
10.9835 10.9835 2
12.7746 9.30605 0
17.7697 33.1017 3.97981
20.466 33.3841 2
22.8993 33.7946 0.0161153
15.4485 29.6243 3.97794
15.866 26.3849 2
17.5964 24.0227 0.0171035
14.2872 24.4339 0.0195951
18.3085 30.1575 2
18.9732 27.1829 0.0243499
21.0585 30.6489 0.0229957
14.8488 36.0179 3.98171
17.5866 35.9624 2
20.0765 35.9191 0.0160596
12.5593 37.833 3.98037
17.9642 39.0098 0.0195046
14.2592 39.1839 2
11.8788 40.1489 3.98081
14.7561 41.9319 0.0209709
12.3674 42.2878 2
10.1459 42.7862 3.97985
12.681 44.4057 0.0202428
10.5478 44.8127 2
8.37555 45.3277 3.98138
10.9708 46.7456 0.0187053
8.89795 47.3271 2
6.71867 48.0049 3.98402
9.51545 49.2494 0.0169515
7.42728 50.0409 2
5.20845 50.9133 3.98896
8.2605 52.0088 0.0144928
6.13179 53.0113 2
3.86727 54.0858 4
7.19149 55.0377 0.0101187
5.02404 56.25 2
6.31991 58.3339 0
12.8957 29.0231 3.97744
11.3533 26.4775 3.98072
13.4426 26.8012 2
10.188 23.958 3.98239
11.9244 24.7757 2
13.2078 25.3487 0.0161016
9.23662 21.1295 3.9859
11.129 22.222 2
12.8114 23.2652 0.0178551
12.2272 20.5368 0.0155959
10.385 19.3092 2
8.41577 18.0223 3.99078
11.6556 17.5547 0.0133183
9.76004 16.1515 2
7.74928 14.6715 4
11.2192 14.3688 0.00813811
9.30602 12.7745 2
10.9835 10.9835 0
14.4384 32.855 3.97958
17.7701 33.1018 2
20.4656 33.3841 0.0183899
15.4491 29.6244 2
15.865 26.3842 0.0215203
18.3076 30.1573 0.0235381
12.8466 36.2093 3.98022
14.8496 36.018 2
17.5857 35.9621 0.0167756
12.5598 37.8331 2
11.2372 38.3146 3.97989
14.2587 39.1836 0.0192325
11.8793 40.1492 2
9.73089 40.7608 3.98059
12.3669 42.2876 0.0204069
10.1463 42.7864 2
7.92457 43.2754 3.98092
10.5473 44.8126 0.0196603
8.37583 45.3277 2
6.12489 45.909 3.9834
8.8978 47.327 0.0179172
6.71869 48.0048 2
4.41995 48.7529 3.98874
7.42732 50.0409 0.0151
5.20836 50.913 2
2.85457 51.8506 4
6.13189 53.0114 0.0106563
3.86727 54.0858 2
5.0241 56.25 0
12.0359 31.2492 3.97985
10.7653 28.4072 3.97926
12.8961 29.0228 2
9.40262 25.7905 3.98168
11.3537 26.4775 2
13.442 26.8013 0.0202702
8.22365 23.0165 3.98464
10.188 23.9578 2
11.9243 24.7757 0.0185244
7.1977 19.9727 3.98992
9.23654 21.1292 2
11.1291 22.2222 0.016367
10.3851 19.3096 0.0134379
8.41572 18.0221 2
6.31992 16.6661 4
9.76001 16.1516 0.00861024
7.74926 14.6714 2
9.30607 12.7746 0
12.0522 34.2916 3.97933
14.4387 32.8551 2
17.7697 33.1017 0.0201896
15.4485 29.6243 0.0220589
10.8021 36.6124 3.97935
12.8472 36.2094 2
14.8488 36.0179 0.0182911
12.5593 37.833 0.0196274
11.2377 38.3148 2
9.32623 38.8279 3.98042
11.8788 40.1489 0.0191888
9.73125 40.761 2
7.53587 41.2155 3.98104
10.1459 42.7862 0.0201482
7.92482 43.2755 2
5.63687 43.7711 3.9833
8.37555 45.3277 0.0186217
6.12502 45.9088 2
3.76562 46.538 3.98866
6.71867 48.0049 0.0159829
4.41987 48.7524 2
1.99014 49.554 4
5.20845 50.9133 0.0110351
2.85451 51.8506 2
3.86727 54.0858 0
10.8999 32.9146 3.98011
10.0781 30.3763 3.97989
12.0362 31.2489 2
8.71059 27.7263 3.98084
10.7655 28.407 2
12.8957 29.0231 0.022559
7.34907 24.9775 3.98389
9.40278 25.7904 2
11.3533 26.4775 0.0192847
6.1145 21.9978 3.98889
8.22355 23.0163 2
10.188 23.958 0.0176112
5.02411 18.75 4
7.19761 19.9727 2
9.23662 21.1295 0.014102
8.41577 18.0223 0.00922389
6.3199 16.6661 2
7.74928 14.6715 0
10.4145 34.9989 3.97996
12.0526 34.2917 2
14.4384 32.855 0.0204213
9.00017 36.9868 3.9792
10.8026 36.6124 2
12.8466 36.2093 0.019783
11.2372 38.3146 0.0201108
9.32663 38.8281 2
7.2169 39.185 3.98105
9.73089 40.7608 0.0194065
7.53613 41.2157 2
5.25239 41.6161 3.98315
7.92457 43.2754 0.0190821
5.63697 43.771 2
3.24342 44.2828 3.98864
6.12489 45.909 0.0166033
3.76562 46.5375 2
1.27781 47.2057 4
4.41995 48.7529 0.0112633
1.99012 49.554 2
2.85457 51.8506 0
10.0683 33.8789 3.98001
9.37166 32.1505 3.9804
10.9002 32.9144 2
8.05991 29.6915 3.98076
10.0783 30.3761 2
12.0359 31.2492 0.0201545
6.59276 27.0051 3.98324
8.71072 27.726 2
10.7653 28.4072 0.0207425
5.16957 24.0925 3.98834
7.34909 24.9774 2
9.40262 25.7905 0.01832
3.86728 20.9142 4
6.11434 21.998 2
8.22365 23.0165 0.0153605
5.02406 18.75 2
7.1977 19.9727 0.010081
6.31992 16.6661 0
8.82695 35.2792 3.9799
10.415 34.999 2
12.0522 34.2916 0.0206698
7.00203 37.2073 3.9801
9.00068 36.9869 2
10.8021 36.6124 0.0206473
9.32623 38.8279 0.0195779
7.21723 39.1851 2
4.98054 39.4689 3.9829
7.53587 41.2155 0.0189642
5.25252 41.6161 2
2.85405 42.003 3.98841
5.63687 43.7711 0.0166979
3.24341 44.2822 2
0.720592 44.8159 4
3.76562 46.538 0.011335
1.27778 47.2057 2
1.99014 49.554 0
8.86876 33.6956 3.98031
10.0687 33.8788 2
7.49762 31.6065 3.98103
9.37192 32.1503 2
10.8999 32.9146 0.0198852
5.93806 29.0674 3.98294
8.06005 29.6913 2
10.0781 30.3763 0.0201127
4.3571 26.2465 3.98822
6.59279 27.005 2
8.71059 27.7263 0.0191628
2.85458 23.1494 4
5.16944 24.093 2
7.34907 24.9775 0.016113
3.86728 20.9142 2
6.1145 21.9978 0.0111119
5.02411 18.75 0
6.95258 35.3061 3.98027
8.82738 35.2792 2
10.4145 34.9989 0.0200449
4.83134 37.3407 3.98243
7.00249 37.2074 2
9.00017 36.9868 0.0208014
7.2169 39.185 0.0189518
4.98077 39.4689 2
2.60229 39.7146 3.98807
5.25239 41.6161 0.0168473
2.85408 42.0025 2
0.320823 42.3947 4
3.24342 44.2828 0.011359
0.720551 44.8159 2
1.27781 47.2057 0
7.11208 33.4596 3.98082
8.86909 33.6955 2
10.0683 33.8789 0.0199892
5.40906 31.1324 3.98302
7.49781 31.6064 2
9.37166 32.1505 0.0196003
3.67887 28.4433 3.98835
5.93812 29.0675 2
8.05991 29.6915 0.019241
1.99015 25.446 4
4.35698 26.2473 2
6.59276 27.0051 0.0167611
2.85453 23.1494 2
5.16957 24.0925 0.0116644
3.86728 20.9142 0
4.84583 35.2519 3.98244
6.95299 35.3062 2
8.82695 35.2792 0.0201006
2.49388 37.4289 3.9881
4.83171 37.3408 2
7.00203 37.2073 0.0198964
4.98054 39.4689 0.0170979
2.60239 39.7141 2
0.080333 39.9526 4
2.85405 42.003 0.011594
0.320817 42.3947 2
0.720592 44.8159 0
5.03889 33.1898 3.98288
7.11237 33.4596 2
8.86876 33.6956 0.0196945
3.14331 30.6663 3.98849
5.40917 31.1326 2
7.49762 31.6065 0.0189724
1.27793 27.7943 4
3.6788 28.4442 2
5.93806 29.0674 0.0170641
1.99013 25.446 2
4.3571 26.2465 0.0117845
2.85458 23.1494 0
2.54608 35.1593 3.98816
4.84617 35.2521 2
6.95258 35.3061 0.0197273
0 37.5 4
2.49406 37.4288 2
4.83134 37.3407 0.0175701
2.60229 39.7146 0.0119339
0.0802903 39.9526 2
0.320823 42.3947 0
2.76354 32.906 3.98835
5.03912 33.1901 2
7.11208 33.4596 0.0191792
0.721173 30.1842 4
3.1433 30.6672 2
5.40906 31.1324 0.016982
1.27779 27.7943 2
3.67887 28.4433 0.0116515
1.99015 25.446 0
0.0806499 35.0474 4
2.54624 35.1597 2
4.84583 35.2519 0.0175559
0 37.5 2
2.49388 37.4289 0.0118984
0.080333 39.9526 0
0.32156 32.6054 4
2.76363 32.9067 2
5.03889 33.1898 0.0171182
0.72056 30.1841 2
3.14331 30.6663 0.0115082
1.27793 27.7943 0
0.0802889 35.0474 2
2.54608 35.1593 0.0118355
0 37.5 0
0.320817 32.6053 2
2.76354 32.906 0.0116507
0.721173 30.1842 0
0.0806499 35.0474 0
0.32156 32.6054 0
CELLS 1910 17190
8 18 6 25 56 2 0 5 16
8 57 23 6 18 17 4 0 2
8 78 36 9 29 31 11 1 7
8 31 11 1 7 79 37 10 30
8 110 57 18 50 48 17 2 14
8 50 18 56 111 14 2 16 49
8 116 62 22 55 52 20 3 15
8 56 25 67 118 16 5 24 53
8 119 63 23 57 54 21 4 17
8 55 22 63 119 15 3 21 54
8 58 26 68 121 18 6 25 56
8 122 65 26 58 57 23 6 18
8 73 31 7 27 142 79 30 71
8 143 78 29 72 73 31 7 27
8 83 147 76 34 32 74 28 8
8 84 148 78 36 33 75 29 9
8 76 34 8 28 148 84 33 75
8 37 79 150 86 10 30 77 35
8 151 87 36 78 80 38 11 31
8 80 38 11 31 152 88 37 79
8 175 100 42 94 96 44 12 40
8 44 96 176 101 12 40 95 43
8 101 176 98 46 43 95 41 13
8 46 98 178 103 13 41 97 45
8 178 103 45 97 147 83 32 74
8 189 116 55 109 106 52 15 47
8 111 56 118 191 49 16 53 107
8 192 119 57 110 108 54 17 48
8 109 55 119 192 47 15 54 108
8 194 122 58 112 110 57 18 50
8 112 58 121 195 50 18 56 111
8 115 61 19 51 197 124 59 113
8 115 61 125 198 51 19 60 114
8 198 125 62 116 114 60 20 52
8 200 127 64 120 116 62 22 55
8 118 67 132 202 53 24 66 117
8 121 68 133 203 56 25 67 118
8 120 64 128 204 55 22 63 119
8 204 128 65 122 119 63 23 57
8 206 134 68 121 123 69 26 58
8 123 69 26 58 207 131 65 122
8 226 147 74 138 140 76 28 70
8 229 148 75 139 143 78 29 72
8 140 76 28 70 229 148 75 139
8 142 79 30 71 231 150 77 141
8 144 80 31 73 232 152 79 142
8 233 151 78 143 144 80 31 73
8 150 86 35 77 235 154 81 145
8 235 154 81 145 146 82 39 91
8 146 82 39 91 236 155 90 165
8 238 157 83 147 149 85 34 76
8 239 158 84 148 151 87 36 78
8 149 85 34 76 239 158 84 148
8 152 88 37 79 241 160 86 150
8 242 161 87 151 153 89 38 80
8 153 89 38 80 243 162 88 152
8 171 98 41 92 265 178 97 169
8 265 178 97 169 226 147 74 138
8 172 96 40 93 266 176 95 170
8 266 176 95 170 171 98 41 92
8 269 175 94 173 172 96 40 93
8 271 180 99 174 175 100 42 94
8 197 124 59 113 271 180 99 174
8 272 181 100 175 177 102 44 96
8 273 182 101 176 179 104 46 98
8 177 102 44 96 273 182 101 176
8 179 104 46 98 275 184 103 178
8 275 184 103 178 238 157 83 147
8 188 115 51 105 283 197 113 186
8 188 115 198 284 105 51 114 187
8 284 198 116 189 187 114 52 106
8 286 200 120 193 189 116 55 109
8 191 118 202 288 107 53 117 190
8 195 121 203 289 111 56 118 191
8 193 120 204 290 109 55 119 192
8 290 204 122 194 192 119 57 110
8 196 123 58 112 292 207 122 194
8 293 206 121 195 196 123 58 112
8 199 126 61 115 297 211 124 197
8 298 212 127 200 198 125 62 116
8 199 126 212 298 115 61 125 198
8 205 129 64 120 300 214 127 200
8 301 217 130 201 202 132 66 117
8 209 136 168 264 301 217 130 201
8 302 219 132 202 203 133 67 118
8 303 220 133 203 206 134 68 121
8 205 129 215 304 120 64 128 204
8 304 215 131 207 204 128 65 122
8 306 221 134 206 208 135 69 123
8 208 135 69 123 307 218 131 207
8 210 137 167 263 309 223 136 209
8 328 238 147 226 230 149 76 140
8 228 146 91 166 329 236 165 260
8 231 150 77 141 330 235 145 227
8 330 235 145 227 228 146 91 166
8 332 239 148 229 233 151 78 143
8 230 149 76 140 332 239 148 229
8 232 152 79 142 334 241 150 231
8 234 153 80 144 335 243 152 232
8 336 242 151 233 234 153 80 144
8 236 155 90 165 338 245 164 259
8 241 160 86 150 339 246 154 235
8 339 246 154 235 237 156 82 146
8 237 156 82 146 340 247 155 236
8 342 249 157 238 240 159 85 149
8 343 250 158 239 242 161 87 151
8 240 159 85 149 343 250 158 239
8 243 162 88 152 345 252 160 241
8 244 163 253 346 153 89 161 242
8 244 163 89 153 347 254 162 243
8 311 224 261 371 210 137 167 263
8 263 167 262 372 209 136 168 264
8 267 179 98 171 375 275 178 265
8 375 275 178 265 328 238 147 226
8 376 273 176 266 267 179 98 171
8 268 177 96 172 376 273 176 266
8 379 272 175 269 268 177 96 172
8 380 271 174 270 269 175 94 173
8 283 197 113 186 380 271 174 270
8 381 277 180 271 272 181 100 175
8 297 211 124 197 381 277 180 271
8 382 278 181 272 274 183 102 177
8 274 183 102 177 383 279 182 273
8 383 279 182 273 276 185 104 179
8 385 281 184 275 342 249 157 238
8 276 185 104 179 385 281 184 275
8 285 199 115 188 393 297 197 283
8 394 298 200 286 284 198 116 189
8 285 199 298 394 188 115 198 284
8 291 205 120 193 396 300 200 286
8 397 301 201 287 288 202 117 190
8 295 209 264 374 397 301 201 287
8 398 302 202 288 289 203 118 191
8 399 303 203 289 293 206 121 195
8 291 205 304 400 193 120 204 290
8 400 304 207 292 290 204 122 194
8 294 208 123 196 402 307 207 292
8 403 306 206 293 294 208 123 196
8 296 210 263 373 405 309 209 295
8 408 312 213 299 297 211 126 199
8 299 213 313 409 199 126 212 298
8 409 313 214 300 298 212 127 200
8 305 216 129 205 411 315 214 300
8 412 318 217 301 302 219 132 202
8 309 223 136 209 412 318 217 301
8 413 320 219 302 303 220 133 203
8 306 221 321 414 206 134 220 303
8 307 218 131 207 415 316 215 304
8 305 216 316 415 205 129 215 304
8 417 322 221 306 308 222 135 208
8 308 222 135 208 418 319 218 307
8 310 225 137 210 420 325 223 309
8 423 326 224 311 310 225 137 210
8 329 236 165 260 441 338 259 368
8 442 342 238 328 333 240 149 230
8 331 237 146 228 443 340 236 329
8 334 241 150 231 444 339 235 330
8 444 339 235 330 331 237 146 228
8 446 343 239 332 336 242 151 233
8 333 240 149 230 446 343 239 332
8 335 243 152 232 448 345 241 334
8 337 244 153 234 449 347 243 335
8 337 244 346 450 234 153 242 336
8 338 245 164 259 452 349 258 367
8 340 247 155 236 453 350 245 338
8 345 252 160 241 454 351 246 339
8 454 351 246 339 341 248 156 237
8 341 248 156 237 455 352 247 340
8 240 159 251 344 342 249 354 457
8 242 161 253 346 343 250 355 458
8 343 250 355 458 240 159 251 344
8 347 254 162 243 460 357 252 345
8 348 255 358 461 244 163 253 346
8 348 255 163 244 462 359 254 347
8 473 360 257 365 363 256 364 482
8 452 349 258 367 365 257 366 485
8 422 324 369 488 311 224 261 371
8 371 261 370 490 263 167 262 372
8 407 311 371 491 296 210 263 373
8 373 263 372 492 295 209 264 374
8 493 385 275 375 442 342 238 328
8 377 276 179 267 493 385 275 375
8 378 274 177 268 494 383 273 376
8 494 383 273 376 377 276 179 267
8 497 382 272 379 378 274 177 268
8 498 381 271 380 379 272 175 269
8 393 297 197 283 498 381 271 380
8 499 387 277 381 382 278 181 272
8 408 312 211 297 499 387 277 381
8 500 388 278 382 384 280 183 274
8 501 389 279 383 386 282 185 276
8 384 280 183 274 501 389 279 383
8 386 282 185 276 503 391 281 385
8 503 391 281 385 457 354 249 342
8 511 408 299 395 393 297 199 285
8 395 299 409 512 285 199 298 394
8 512 409 300 396 394 298 200 286
8 401 305 205 291 514 411 300 396
8 515 412 301 397 398 302 202 288
8 405 309 209 295 515 412 301 397
8 516 413 302 398 399 303 203 289
8 403 306 414 517 293 206 303 399
8 402 307 207 292 518 415 304 400
8 401 305 415 518 291 205 304 400
8 404 308 208 294 520 418 307 402
8 521 417 306 403 404 308 208 294
8 406 310 210 296 523 420 309 405
8 526 423 311 407 406 310 210 296
8 410 314 213 299 527 424 312 408
8 528 425 315 411 409 313 214 300
8 410 314 425 528 299 213 313 409
8 416 317 216 305 530 427 315 411
8 531 430 318 412 413 320 219 302
8 420 325 223 309 531 430 318 412
8 532 432 320 413 414 321 220 303
8 417 322 433 533 306 221 321 414
8 418 319 218 307 534 428 316 415
8 416 317 428 534 305 216 316 415
8 419 323 434 536 308 222 322 417
8 419 323 222 308 537 431 319 418
8 421 327 225 310 539 438 325 420
8 421 327 439 541 310 225 326 423
8 543 437 324 422 423 326 224 311
8 441 338 259 368 559 452 367 486
8 443 340 236 329 560 453 338 441
8 333 240 344 447 442 342 457 561
8 445 341 237 331 562 455 340 443
8 448 345 241 334 563 454 339 444
8 563 454 339 444 445 341 237 331
8 336 242 346 450 446 343 458 565
8 446 343 458 565 333 240 344 447
8 449 347 243 335 567 460 345 448
8 451 348 244 337 568 462 347 449
8 451 348 461 569 337 244 346 450
8 570 463 349 452 473 360 257 365
8 453 350 245 338 570 463 349 452
8 455 352 247 340 571 464 350 453
8 460 357 252 345 572 465 351 454
8 572 465 351 454 456 353 248 341
8 456 353 248 341 573 466 352 455
8 344 251 356 459 457 354 468 575
8 458 355 469 576 344 251 356 459
8 346 253 358 461 458 355 469 576
8 462 359 254 347 578 471 357 460
8 348 255 359 462 461 358 472 579
8 591 474 360 473 475 361 256 363
8 475 361 256 363 594 477 362 479
8 363 256 364 482 479 362 480 603
8 590 473 365 484 481 363 482 605
8 482 364 257 365 606 483 366 485
8 559 452 367 486 484 365 485 607
8 542 436 487 609 422 324 369 488
8 525 422 488 611 407 311 371 491
8 488 369 489 612 371 261 370 490
8 491 371 490 613 373 263 372 492
8 495 386 276 377 614 503 385 493
8 614 503 385 493 561 457 342 442
8 615 501 383 494 495 386 276 377
8 496 384 274 378 615 501 383 494
8 618 500 382 497 496 384 274 378
8 619 499 381 498 497 382 272 379
8 511 408 297 393 619 499 381 498
8 620 505 387 499 500 388 278 382
8 527 424 312 408 620 505 387 499
8 502 390 506 621 384 280 388 500
8 622 507 389 501 504 392 282 386
8 502 390 280 384 622 507 389 501
8 504 392 282 386 624 509 391 503
8 624 509 391 503 575 468 354 457
8 513 410 299 395 630 527 408 511
8 631 528 411 514 512 409 300 396
8 513 410 528 631 395 299 409 512
8 519 416 305 401 633 530 411 514
8 634 531 412 515 516 413 302 398
8 523 420 309 405 634 531 412 515
8 635 532 413 516 517 414 303 399
8 521 417 533 636 403 306 414 517
8 520 418 307 402 637 534 415 518
8 519 416 534 637 401 305 415 518
8 522 419 308 404 639 537 418 520
8 522 419 536 640 404 308 417 521
8 524 421 310 406 642 539 420 523
8 524 421 541 644 406 310 423 526
8 646 543 422 525 526 423 311 407
8 529 426 314 410 647 544 424 527
8 528 425 545 648 411 315 427 530
8 529 426 545 648 410 314 425 528
8 535 429 317 416 649 546 427 530
8 650 548 430 531 532 432 320 413
8 539 438 325 420 650 548 430 531
8 533 433 550 651 414 321 432 532
8 536 434 551 652 417 322 433 533
8 537 431 319 418 653 547 428 534
8 535 429 547 653 416 317 428 534
8 538 435 552 654 419 323 434 536
8 538 435 323 419 655 549 431 537
8 540 440 327 421 657 556 438 539
8 540 440 557 659 421 327 439 541
8 541 439 555 660 423 326 437 543
8 661 554 436 542 543 437 324 422
8 676 570 452 559 590 473 365 484
8 560 453 338 441 676 570 452 559
8 562 455 340 443 677 571 453 560
8 447 344 459 566 561 457 575 678
8 564 456 341 445 679 573 455 562
8 567 460 345 448 680 572 454 563
8 680 572 454 563 564 456 341 445
8 565 458 576 682 447 344 459 566
8 450 346 461 569 565 458 576 682
8 568 462 347 449 684 578 460 567
8 451 348 462 568 569 461 579 685
8 686 580 463 570 591 474 360 473
8 571 464 350 453 686 580 463 570
8 573 466 352 455 687 581 464 571
8 572 465 582 688 460 357 471 578
8 574 467 582 688 456 353 465 572
8 574 467 353 456 689 583 466 573
8 459 356 470 577 575 468 585 691
8 576 469 586 692 459 356 470 577
8 461 358 472 579 576 469 586 692
8 462 359 471 578 579 472 588 694
8 704 591 473 590 593 475 363 481
8 595 476 592 705 475 361 474 591
8 593 475 363 481 707 594 479 602
8 594 477 362 479 709 598 478 600
8 595 476 361 475 711 597 477 594
8 479 362 480 603 600 478 601 720
8 481 363 482 605 602 479 603 722
8 603 480 364 482 723 604 483 606
8 605 482 365 484 724 606 485 607
8 656 553 608 726 542 436 487 609
8 645 542 609 728 525 422 488 611
8 609 487 610 729 488 369 489 612
8 611 488 612 730 491 371 490 613
8 616 504 386 495 731 624 503 614
8 731 624 503 614 678 575 457 561
8 732 622 501 615 616 504 386 495
8 617 502 384 496 732 622 501 615
8 617 502 621 735 496 384 500 618
8 736 620 499 619 618 500 382 497
8 630 527 408 511 736 620 499 619
8 621 506 626 737 500 388 505 620
8 647 544 424 527 737 626 505 620
8 623 508 627 738 502 390 506 621
8 623 508 390 502 739 628 507 622
8 625 510 628 739 504 392 507 622
8 740 629 509 624 691 585 468 575
8 625 510 392 504 740 629 509 624
8 632 529 410 513 744 647 527 630
8 631 528 648 745 514 411 530 633
8 632 529 648 745 513 410 528 631
8 638 535 416 519 746 649 530 633
8 747 650 531 634 635 532 413 516
8 642 539 420 523 747 650 531 634
8 636 533 651 748 517 414 532 635
8 640 536 652 749 521 417 533 636
8 639 537 418 520 750 653 534 637
8 638 535 653 750 519 416 534 637
8 641 538 419 522 751 655 537 639
8 641 538 654 752 522 419 536 640
8 643 540 421 524 753 657 539 642
8 643 540 659 755 524 421 541 644
8 644 541 660 757 526 423 543 646
8 758 661 542 645 646 543 422 525
8 529 426 544 647 648 545 662 759
8 530 427 545 648 649 546 663 760
8 535 429 546 649 653 547 664 761
8 762 666 548 650 651 550 432 532
8 657 556 438 539 762 666 548 650
8 652 551 668 763 533 433 550 651
8 654 552 669 764 536 434 551 652
8 655 549 431 537 765 665 547 653
8 538 435 549 655 654 552 667 766
8 661 554 671 768 542 436 553 656
8 658 558 440 540 769 674 556 657
8 658 558 675 770 540 440 557 659
8 659 557 673 771 541 439 555 660
8 660 555 672 772 543 437 554 661
8 788 686 570 676 704 591 473 590
8 677 571 453 560 788 686 570 676
8 679 573 455 562 789 687 571 677
8 566 459 577 683 678 575 691 790
8 681 574 456 564 791 689 573 679
8 680 572 688 792 567 460 578 684
8 681 574 688 792 564 456 572 680
8 682 576 692 794 566 459 577 683
8 569 461 579 685 682 576 692 794
8 568 462 578 684 685 579 694 796
8 687 581 464 571 798 696 580 686
8 798 696 580 686 705 592 474 591
8 689 583 466 573 799 697 581 687
8 688 582 698 800 578 471 588 694
8 690 584 698 800 574 467 582 688
8 690 584 467 574 801 699 583 689
8 693 587 701 803 577 470 585 691
8 693 587 470 577 804 702 586 692
8 695 589 702 804 579 472 586 692
8 695 589 472 579 805 703 588 694
8 708 595 705 813 593 475 591 704
8 710 596 706 814 595 476 592 705
8 707 594 479 602 816 709 600 719
8 708 595 475 593 817 711 594 707
8 709 598 478 600 819 715 599 717
8 711 597 477 594 820 714 598 709
8 710 596 476 595 822 713 597 711
8 600 478 601 720 717 599 718 832
8 602 479 603 722 719 600 720 834
8 720 601 480 603 835 721 604 723
8 722 603 482 605 836 723 606 724
8 767 670 725 839 656 553 608 726
8 756 656 726 841 645 542 609 728
8 726 608 727 842 609 487 610 729
8 728 609 729 843 611 488 612 730
8 844 740 624 731 790 691 575 678
8 733 625 504 616 844 740 624 731
8 734 623 502 617 845 739 622 732
8 733 625 739 845 616 504 622 732
8 734 623 738 846 617 502 621 735
8 735 621 737 847 618 500 620 736
8 744 647 527 630 847 737 620 736
8 621 506 627 738 737 626 741 848
8 647 544 626 737 759 662 741 848
8 623 508 628 739 738 627 742 849
8 740 629 585 691 850 743 700 802
8 625 510 629 740 739 628 743 850
8 632 529 647 744 745 648 759 854
8 633 530 648 745 746 649 760 855
8 638 535 649 746 750 653 761 856
8 857 762 650 747 748 651 532 635
8 753 657 539 642 857 762 650 747
8 749 652 763 858 636 533 651 748
8 752 654 764 859 640 536 652 749
8 751 655 537 639 860 765 653 750
8 641 538 655 751 752 654 766 861
8 754 658 540 643 862 769 657 753
8 754 658 770 863 643 540 659 755
8 755 659 771 864 644 541 660 757
8 758 661 768 866 645 542 656 756
8 757 660 772 867 646 543 661 758
8 759 662 773 868 648 545 663 760
8 649 546 663 760 761 664 774 871
8 765 665 547 653 872 775 664 761
8 873 777 666 762 763 668 550 651
8 769 674 556 657 873 777 666 762
8 764 669 779 874 652 551 668 763
8 654 552 667 766 764 669 778 875
8 655 549 665 765 766 667 776 876
8 768 671 782 877 656 553 670 767
8 772 672 783 878 661 554 671 768
8 658 558 674 769 770 675 786 879
8 659 557 675 770 771 673 785 881
8 882 784 672 772 771 673 555 660
8 789 687 571 677 897 798 686 788
8 897 798 686 788 813 705 591 704
8 791 689 573 679 898 799 687 789
8 795 693 803 900 683 577 691 790
8 793 690 574 681 901 801 689 791
8 792 688 800 902 684 578 694 796
8 793 690 800 902 681 574 688 792
8 795 693 577 683 903 804 692 794
8 797 695 804 903 685 579 692 794
8 797 695 579 685 904 805 694 796
8 905 806 697 799 798 696 581 687
8 814 706 806 905 705 592 696 798
8 689 583 697 799 801 699 808 907
8 800 698 809 908 694 588 703 805
8 690 584 699 801 800 698 809 908
8 803 701 810 909 691 585 700 802
8 693 587 702 804 803 701 811 910
8 695 589 703 805 804 702 812 911
8 818 710 814 919 708 595 705 813
8 821 712 815 920 710 596 706 814
8 816 709 600 719 922 819 717 831
8 817 711 594 707 923 820 709 816
8 818 710 595 708 924 822 711 817
8 819 715 599 717 926 827 716 829
8 820 714 598 709 927 826 715 819
8 929 825 713 822 820 714 597 711
8 821 712 596 710 930 824 713 822
8 717 599 718 832 829 716 830 942
8 719 600 720 834 831 717 832 944
8 832 718 601 720 945 833 721 835
8 834 720 603 722 946 835 723 836
8 869 780 838 950 767 670 725 839
8 865 767 839 952 756 656 726 841
8 839 725 840 953 726 608 727 842
8 841 726 842 954 728 609 729 843
8 844 740 691 790 955 850 802 899
8 733 625 740 844 845 739 850 955
8 734 623 739 845 846 738 849 956
8 735 621 738 846 847 737 848 957
8 744 647 737 847 854 759 848 957
8 738 627 742 849 848 741 851 958
8 848 741 851 958 759 662 773 868
8 850 743 700 802 959 852 807 906
8 849 742 628 739 959 852 743 850
8 854 759 868 965 745 648 760 855
8 746 649 760 855 856 761 871 966
8 860 765 653 750 967 872 761 856
8 968 873 762 857 858 763 651 748
8 862 769 657 753 968 873 762 857
8 859 764 874 969 749 652 763 858
8 752 654 766 861 859 764 875 970
8 751 655 765 860 861 766 876 971
8 754 658 769 862 863 770 879 972
8 755 659 770 863 864 771 881 974
8 976 882 772 867 864 771 660 757
8 866 768 877 977 756 656 767 865
8 867 772 878 978 758 661 768 866
8 760 663 773 868 871 774 883 980
8 870 781 837 948 982 890 780 869
8 982 890 780 869 877 782 670 767
8 761 664 774 871 872 775 884 984
8 876 776 665 765 985 885 775 872
8 873 777 668 763 986 887 779 874
8 769 674 777 873 879 786 887 986
8 764 669 778 875 874 779 888 987
8 766 667 776 876 875 778 886 988
8 878 783 892 989 768 671 782 877
8 878 783 672 772 990 893 784 882
8 880 787 675 770 991 896 786 879
8 880 787 895 992 770 675 785 881
8 881 785 894 993 771 673 784 882
8 1006 905 799 898 897 798 687 789
8 919 814 905 1006 813 705 798 897
8 791 689 799 898 901 801 907 1007
8 900 803 909 1009 790 691 802 899
8 795 693 804 903 900 803 910 1010
8 902 800 908 1011 796 694 805 904
8 793 690 801 901 902 800 908 1011
8 797 695 805 904 903 804 911 1012
8 799 697 806 905 907 808 912 1013
8 920 815 912 1013 814 706 806 905
8 802 700 810 909 906 807 913 1014
8 801 699 808 907 908 809 914 1015
8 805 703 809 908 911 812 915 1016
8 803 701 811 910 909 810 916 1017
8 911 812 917 1018 804 702 811 910
8 925 821 920 1030 818 710 814 919
8 928 823 921 1031 821 712 815 920
8 922 819 717 831 1033 926 829 941
8 923 820 709 816 1034 927 819 922
8 1035 929 822 924 923 820 711 817
8 925 821 710 818 1036 930 822 924
8 1038 933 825 929 927 826 714 820
8 926 827 716 829 1039 935 828 939
8 927 826 715 819 1040 934 827 926
8 928 823 712 821 1041 931 824 930
8 1042 932 824 930 929 825 713 822
8 829 716 830 942 939 828 940 1058
8 831 717 832 944 941 829 942 1060
8 942 830 718 832 1061 943 833 945
8 944 832 720 834 1062 945 835 946
8 981 889 947 1064 870 781 837 948
8 948 837 949 1067 869 780 838 950
8 975 869 950 1069 865 767 839 952
8 950 838 951 1070 839 725 840 953
8 952 839 953 1071 841 726 842 954
8 955 850 802 899 1072 959 906 1008
8 956 849 739 845 1072 959 850 955
8 846 738 849 956 957 848 958 1073
8 957 848 958 1073 854 759 868 965
8 849 742 852 959 958 851 961 1076
8 960 853 961 1076 906 807 852 959
8 958 851 961 1076 868 773 883 980
8 960 853 807 906 1077 963 913 1014
8 855 760 868 965 966 871 980 1085
8 856 761 871 966 967 872 984 1086
8 971 876 765 860 1087 985 872 967
8 968 873 763 858 1088 986 874 969
8 862 769 873 968 972 879 986 1088
8 859 764 875 970 969 874 987 1089
8 861 766 876 971 970 875 988 1090
8 973 880 770 863 1091 991 879 972
8 973 880 992 1092 863 770 881 974
8 974 881 993 1093 864 771 882 976
8 979 870 948 1066 1094 982 869 975
8 1094 982 869 975 977 877 767 865
8 978 878 772 867 1095 990 882 976
8 978 878 989 1096 866 768 877 977
8 871 774 883 980 984 884 994 1099
8 983 891 999 1100 870 781 889 981
8 1101 1000 890 982 989 892 782 877
8 983 891 781 870 1101 1000 890 982
8 872 775 884 984 985 885 995 1103
8 876 776 885 985 988 886 996 1104
8 986 887 779 874 1105 998 888 987
8 879 786 887 986 991 896 998 1105
8 875 778 886 988 987 888 997 1106
8 990 893 1002 1107 878 783 892 989
8 1108 1003 893 990 993 894 784 882
8 880 787 896 991 992 895 1005 1109
8 993 894 785 881 1110 1004 895 992
8 898 799 905 1006 1007 907 1013 1120
8 1030 920 1013 1120 919 814 905 1006
8 901 801 907 1007 1011 908 1015 1121
8 899 802 909 1009 1008 906 1014 1122
8 900 803 910 1010 1009 909 1017 1123
8 1012 911 1018 1124 903 804 910 1010
8 904 805 908 1011 1012 911 1016 1125
8 1013 912 1020 1127 907 808 914 1015
8 1031 921 1020 1127 920 815 912 1013
8 1019 918 962 1075 1128 1021 913 1014
8 1128 1021 913 1014 1017 916 810 909
8 1015 914 1022 1129 908 809 915 1016
8 1016 915 1023 1130 911 812 917 1018
8 1018 917 1024 1131 910 811 916 1017
8 1037 928 1031 1148 925 821 920 1030
8 928 823 931 1041 1031 921 1032 1149
8 1033 926 829 941 1151 1039 939 1057
8 1034 927 819 922 1152 1040 926 1033
8 1153 1038 929 1035 1034 927 820 923
8 1154 1042 930 1036 1035 929 822 924
8 1037 928 821 925 1155 1041 930 1036
8 1039 935 828 939 1156 1047 938 1055
8 1157 1043 932 1042 1038 933 825 929
8 1038 933 826 927 1158 1045 934 1040
8 1040 934 827 926 1159 1046 935 1039
8 930 824 932 1042 1041 931 1044 1160
8 1051 936 1048 1165 1175 1052 937 1053
8 1156 1047 938 1055 1053 937 1054 1178
8 939 828 940 1058 1055 938 1056 1181
8 941 829 942 1060 1057 939 1058 1183
8 942 830 943 1061 1058 940 1059 1184
8 1060 942 832 944 1185 1061 945 1062
8 1082 964 1063 1188 981 889 947 1064
8 1097 981 1064 1190 979 870 948 1066
8 1064 947 1065 1191 948 837 949 1067
8 1066 948 1067 1193 975 869 950 1069
8 1067 949 1068 1194 950 838 951 1070
8 1069 950 1070 1195 952 839 953 1071
8 956 849 959 1072 1073 958 1076 1197
8 1074 960 1076 1197 1008 906 959 1072
8 1073 958 1076 1197 965 868 980 1085
8 1074 960 906 1008 1198 1077 1014 1122
8 1133 1026 1079 1199 1019 918 962 1075
8 1077 963 913 1014 1200 1080 962 1075
8 960 853 963 1077 1076 961 1078 1201
8 980 883 961 1076 1099 994 1078 1201
8 1210 1083 964 1082 1100 999 889 981
8 966 871 980 1085 1086 984 1099 1215
8 967 872 984 1086 1087 985 1103 1216
8 971 876 985 1087 1090 988 1104 1217
8 1088 986 874 969 1218 1105 987 1089
8 972 879 986 1088 1091 991 1105 1218
8 970 875 988 1090 1089 987 1106 1219
8 973 880 991 1091 1092 992 1109 1220
8 1093 993 881 974 1221 1110 992 1092
8 1222 1108 990 1095 1093 993 882 976
8 1223 1101 982 1094 1096 989 877 977
8 1098 983 870 979 1223 1101 982 1094
8 1095 990 1107 1224 978 878 989 1096
8 1098 983 1100 1225 979 870 981 1097
8 984 884 994 1099 1103 995 1111 1227
8 1102 1001 1115 1228 983 891 999 1100
8 1101 1000 892 989 1229 1116 1002 1107
8 1102 1001 891 983 1229 1116 1000 1101
8 985 885 995 1103 1104 996 1112 1230
8 988 886 996 1104 1106 997 1113 1231
8 1105 998 888 987 1232 1114 997 1106
8 991 896 998 1105 1109 1005 1114 1232
8 1108 1003 1117 1233 990 893 1002 1107
8 1108 1003 894 993 1233 1117 1004 1110
8 992 895 1005 1109 1110 1004 1118 1234
8 1120 1013 1127 1244 1007 907 1015 1121
8 1148 1031 1127 1244 1030 920 1013 1120
8 1121 1015 1129 1245 1011 908 1016 1125
8 1126 1019 1075 1196 1246 1128 1014 1122
8 1246 1128 1014 1122 1123 1017 909 1009
8 1124 1018 1131 1247 1010 910 1017 1123
8 1125 1016 1130 1248 1012 911 1018 1124
8 1127 1020 1137 1254 1015 914 1022 1129
8 1031 921 1032 1149 1127 1020 1137 1254
8 1134 1027 918 1019 1257 1140 1021 1128
8 1257 1140 1021 1128 1131 1024 916 1017
8 1129 1022 1141 1258 1016 915 1023 1130
8 1130 1023 1142 1259 1018 917 1024 1131
8 1261 1144 1025 1132 1133 1026 1079 1199
8 1255 1138 1025 1132 1135 1028 1144 1261
8 1133 1026 918 1019 1262 1145 1027 1134
8 1136 1029 1139 1256 1263 1146 1028 1135
8 1037 928 1041 1155 1148 1031 1149 1275
8 1041 931 1044 1160 1149 1032 1150 1276
8 1151 1039 939 1057 1278 1156 1055 1180
8 1152 1040 926 1033 1279 1159 1039 1151
8 1153 1038 927 1034 1280 1158 1040 1152
8 1281 1157 1042 1154 1153 1038 929 1035
8 1036 930 1042 1154 1155 1041 1160 1282
8 1283 1164 1046 1159 1156 1047 935 1039
8 1165 1048 1164 1283 1053 937 1047 1156
8 1157 1043 933 1038 1284 1161 1045 1158
8 1157 1043 1161 1284 1042 932 1044 1160
8 1040 934 1046 1159 1158 1045 1163 1285
8 1166 1049 1167 1292 1051 936 1048 1165
8 1166 1049 936 1051 1293 1168 1050 1172
8 1051 936 1052 1175 1172 1050 1173 1306
8 1174 1051 1165 1290 1308 1175 1053 1177
8 1053 937 1054 1178 1175 1052 1176 1309
8 1278 1156 1055 1180 1177 1053 1178 1311
8 1055 938 1056 1181 1178 1054 1179 1312
8 1057 939 1058 1183 1180 1055 1181 1314
8 1058 940 1059 1184 1181 1056 1182 1315
8 1060 942 1061 1185 1183 1058 1184 1316
8 1208 1081 1187 1321 1082 964 1063 1188
8 1209 1082 1188 1322 1097 981 1064 1190
8 1188 1063 1189 1323 1064 947 1065 1191
8 1190 1064 1191 1325 1066 948 1067 1193
8 1191 1065 1192 1326 1067 949 1068 1194
8 1067 1193 1069 950 1194 1327 1195 1070
8 1250 1133 1199 1330 1126 1019 1075 1196
8 1198 1077 1014 1122 1331 1200 1075 1196
8 1074 960 1077 1198 1197 1076 1201 1332
8 1085 980 1076 1197 1215 1099 1201 1332
8 1199 1079 1203 1333 1075 962 1080 1200
8 1132 1025 1119 1243 1199 1079 1203 1333
8 1201 1078 963 1077 1334 1202 1080 1200
8 1099 994 1078 1201 1227 1111 1202 1334
8 1343 1207 1081 1208 1210 1083 964 1082
8 1214 1084 1186 1319 1343 1207 1081 1208
8 1345 1210 1082 1209 1225 1100 981 1097
8 1346 1211 1083 1210 1228 1115 999 1100
8 1086 984 1099 1215 1216 1103 1227 1352
8 1087 985 1103 1216 1217 1104 1230 1353
8 1090 988 1104 1217 1219 1106 1231 1354
8 1218 1105 987 1089 1355 1232 1106 1219
8 1091 991 1105 1218 1220 1109 1232 1355
8 1092 992 1109 1220 1221 1110 1234 1356
8 1222 1108 1233 1357 1095 990 1107 1224
8 1222 1108 993 1093 1357 1233 1110 1221
8 1223 1101 989 1096 1358 1229 1107 1224
8 1226 1102 983 1098 1358 1229 1101 1223
8 1226 1102 1228 1359 1098 983 1100 1225
8 1103 995 1111 1227 1230 1112 1235 1360
8 1107 1002 1117 1233 1229 1116 1240 1362
8 1102 1001 1116 1229 1228 1115 1240 1362
8 1104 996 1112 1230 1231 1113 1236 1363
8 1364 1237 1114 1232 1231 1113 997 1106
8 1109 1005 1114 1232 1234 1118 1238 1365
8 1110 1004 1118 1234 1233 1117 1241 1366
8 1242 1374 1255 1138 1119 1243 1132 1025
8 1244 1127 1254 1376 1121 1015 1129 1245
8 1148 1031 1149 1275 1244 1127 1254 1376
8 1245 1129 1258 1377 1125 1016 1130 1248
8 1251 1134 1019 1126 1378 1257 1128 1246
8 1378 1257 1128 1246 1247 1131 1017 1123
8 1248 1130 1259 1379 1124 1018 1131 1247
8 1261 1381 1250 1133 1132 1249 1330 1199
8 1255 1380 1252 1135 1132 1249 1381 1261
8 1250 1133 1019 1126 1382 1262 1134 1251
8 1253 1136 1256 1385 1384 1263 1135 1252
8 1254 1137 1265 1387 1129 1022 1141 1258
8 1149 1032 1150 1276 1254 1137 1265 1387
8 1028 1135 1255 1138 1139 1256 1388 1266
8 1136 1029 1147 1264 1256 1139 1267 1389
8 1390 1268 1140 1257 1259 1142 1024 1131
8 1260 1143 1027 1134 1390 1268 1140 1257
8 1258 1141 1269 1391 1130 1023 1142 1259
8 1262 1145 1027 1134 1393 1271 1143 1260
8 1261 1144 1026 1133 1394 1272 1145 1262
8 1135 1028 1144 1261 1263 1146 1272 1394
8 1136 1029 1146 1263 1264 1147 1273 1395
8 1155 1041 1160 1282 1275 1149 1276 1405
8 1276 1150 1044 1160 1406 1277 1162 1286
8 1408 1283 1159 1279 1278 1156 1039 1151
8 1290 1165 1283 1408 1177 1053 1156 1278
8 1152 1040 1159 1279 1280 1158 1285 1409
8 1281 1157 1038 1153 1410 1284 1158 1280
8 1281 1157 1284 1410 1154 1042 1160 1282
8 1159 1046 1164 1283 1285 1163 1289 1412
8 1292 1167 1289 1412 1165 1048 1164 1283
8 1158 1045 1163 1285 1284 1161 1288 1413
8 1284 1161 1288 1413 1160 1044 1162 1286
8 1291 1166 1292 1418 1174 1051 1165 1290
8 1291 1166 1051 1174 1419 1293 1172 1305
8 1294 1169 1296 1421 1166 1049 1167 1292
8 1293 1168 1050 1172 1422 1295 1171 1303
8 1294 1169 1049 1166 1423 1297 1168 1293
8 1422 1295 1171 1303 1301 1170 1302 1435
8 1172 1050 1173 1306 1303 1171 1304 1438
8 1174 1051 1175 1308 1305 1172 1306 1440
8 1175 1052 1176 1309 1306 1173 1307 1441
8 1177 1053 1178 1311 1308 1175 1309 1443
8 1178 1054 1179 1312 1309 1176 1310 1444
8 1180 1055 1181 1314 1311 1178 1312 1446
8 1056 1181 1312 1179 1182 1315 1447 1313
8 1183 1058 1184 1316 1314 1181 1315 1448
8 1319 1186 1084 1214 1451 1317 1213 1350
8 1319 1186 1318 1453 1208 1081 1187 1321
8 1321 1187 1320 1456 1188 1063 1189 1323
8 1344 1208 1321 1457 1209 1082 1188 1322
8 1322 1188 1323 1458 1190 1064 1191 1325
8 1323 1189 1324 1459 1191 1065 1192 1326
8 1191 1325 1193 1067 1326 1460 1327 1194
8 1242 1374 1243 1119 1328 1462 1335 1204
8 1330 1199 1333 1465 1196 1075 1200 1331
8 1132 1249 1330 1199 1243 1375 1465 1333
8 1332 1201 1077 1198 1466 1334 1200 1331
8 1215 1099 1201 1332 1352 1227 1334 1466
8 1119 1243 1333 1203 1204 1335 1470 1338
8 1333 1203 1338 1470 1200 1080 1202 1334
8 1227 1111 1202 1334 1360 1235 1338 1470
8 1328 1462 1335 1204 1205 1336 1471 1339
8 1337 1206 1340 1472 1464 1329 1205 1336
8 1346 1211 1342 1479 1210 1083 1207 1343
8 1346 1211 1115 1228 1479 1342 1239 1361
8 1348 1212 1084 1214 1479 1342 1207 1343
8 1480 1343 1208 1344 1345 1210 1082 1209
8 1351 1214 1319 1454 1480 1343 1208 1344
8 1481 1346 1210 1345 1359 1228 1100 1225
8 1348 1212 1347 1483 1214 1084 1213 1350
8 1216 1103 1227 1352 1353 1230 1360 1488
8 1217 1104 1230 1353 1354 1231 1363 1489
8 1490 1364 1232 1355 1354 1231 1106 1219
8 1220 1109 1232 1355 1356 1234 1365 1491
8 1221 1110 1234 1356 1357 1233 1366 1492
8 1224 1107 1233 1357 1358 1229 1362 1493
8 1226 1102 1229 1358 1359 1228 1362 1493
8 1230 1112 1235 1360 1363 1236 1367 1496
8 1361 1239 1115 1228 1497 1371 1240 1362
8 1366 1241 1372 1498 1233 1117 1240 1362
8 1364 1237 1113 1231 1499 1368 1236 1363
8 1364 1237 1368 1499 1232 1114 1238 1365
8 1234 1118 1238 1365 1366 1241 1369 1500
8 1507 1373 1242 1374 1388 1266 1138 1255
8 1508 1374 1243 1375 1380 1255 1132 1249
8 1376 1254 1387 1509 1245 1129 1258 1377
8 1275 1149 1276 1405 1376 1254 1387 1509
8 1377 1258 1391 1510 1248 1130 1259 1379
8 1511 1390 1257 1378 1379 1259 1131 1247
8 1383 1260 1134 1251 1511 1390 1257 1378
8 1252 1135 1256 1385 1380 1255 1388 1512
8 1261 1381 1513 1394 1133 1250 1382 1262
8 1135 1252 1384 1263 1261 1381 1513 1394
8 1382 1262 1134 1251 1514 1393 1260 1383
8 1253 1136 1263 1384 1386 1264 1395 1516
8 1253 1136 1264 1386 1385 1256 1389 1517
8 1387 1265 1397 1519 1258 1141 1269 1391
8 1276 1150 1277 1406 1387 1265 1397 1519
8 1256 1139 1267 1389 1388 1266 1398 1520
8 1264 1147 1274 1396 1389 1267 1399 1521
8 1392 1270 1143 1260 1522 1400 1268 1390
8 1390 1268 1142 1259 1522 1400 1269 1391
8 1392 1270 1401 1523 1260 1143 1271 1393
8 1272 1394 1524 1402 1145 1262 1393 1271
8 1395 1273 1146 1263 1524 1402 1272 1394
8 1273 1395 1264 1147 1403 1526 1396 1274
8 1405 1276 1160 1282 1534 1406 1286 1411
8 1414 1287 1407 1535 1286 1162 1277 1406
8 1279 1159 1283 1408 1409 1285 1412 1537
8 1418 1292 1412 1537 1290 1165 1283 1408
8 1280 1158 1285 1409 1410 1284 1413 1538
8 1410 1284 1413 1538 1282 1160 1286 1411
8 1285 1163 1289 1412 1413 1288 1417 1540
8 1421 1296 1417 1540 1292 1167 1289 1412
8 1414 1287 1162 1286 1541 1416 1288 1413
8 1420 1294 1421 1545 1291 1166 1292 1418
8 1419 1293 1172 1305 1546 1422 1303 1437
8 1420 1294 1166 1291 1547 1423 1293 1419
8 1294 1169 1297 1423 1421 1296 1425 1548
8 1423 1297 1168 1293 1549 1424 1295 1422
8 1301 1170 1298 1427 1422 1295 1424 1549
8 1432 1300 1428 1554 1301 1170 1298 1427
8 1431 1299 1428 1554 1560 1430 1300 1432
8 1563 1433 1300 1432 1435 1302 1170 1301
8 1546 1422 1303 1437 1434 1301 1435 1565
8 1303 1171 1304 1438 1435 1302 1436 1566
8 1305 1172 1306 1440 1437 1303 1438 1568
8 1306 1173 1307 1441 1438 1304 1439 1569
8 1308 1175 1309 1443 1440 1306 1441 1571
8 1309 1176 1310 1444 1441 1307 1442 1572
8 1311 1178 1312 1446 1443 1309 1444 1574
8 1179 1312 1444 1310 1313 1447 1575 1445
8 1314 1181 1315 1448 1446 1312 1447 1576
8 1350 1213 1349 1486 1451 1317 1449 1579
8 1451 1317 1450 1581 1319 1186 1318 1453
8 1454 1319 1214 1351 1582 1451 1350 1487
8 1453 1318 1452 1584 1321 1187 1320 1456
8 1454 1319 1453 1585 1344 1208 1321 1457
8 1456 1320 1455 1586 1323 1189 1324 1459
8 1457 1321 1456 1587 1322 1188 1323 1458
8 1458 1323 1459 1588 1325 1191 1326 1460
8 1205 1336 1464 1329 1328 1462 1590 1461
8 1507 1373 1461 1590 1374 1242 1328 1462
8 1508 1374 1462 1591 1375 1243 1335 1467
8 1337 1206 1329 1464 1473 1341 1463 1594
8 1375 1243 1335 1467 1465 1333 1470 1596
8 1465 1333 1470 1596 1331 1200 1334 1466
8 1352 1227 1334 1466 1488 1360 1470 1596
8 1591 1462 1336 1468 1467 1335 1471 1597
8 1469 1337 1472 1598 1595 1464 1336 1468
8 1471 1339 1474 1600 1335 1204 1338 1470
8 1600 1474 1367 1496 1470 1338 1235 1360
8 1336 1205 1340 1472 1471 1339 1475 1601
8 1337 1206 1341 1473 1472 1340 1476 1602
8 1495 1370 1478 1609 1361 1239 1342 1479
8 1348 1212 1342 1479 1483 1347 1478 1609
8 1481 1346 1479 1610 1345 1210 1343 1480
8 1481 1346 1228 1359 1610 1479 1361 1494
8 1484 1348 1214 1351 1610 1479 1343 1480
8 1483 1347 1482 1612 1350 1213 1349 1486
8 1484 1348 1483 1613 1351 1214 1350 1487
8 1353 1230 1360 1488 1489 1363 1496 1616
8 1490 1364 1231 1354 1617 1499 1363 1489
8 1490 1364 1499 1617 1355 1232 1365 1491
8 1356 1234 1365 1491 1492 1366 1500 1619
8 1492 1366 1498 1620 1357 1233 1362 1493
8 1494 1361 1228 1359 1621 1497 1362 1493
8 1495 1370 1239 1361 1622 1504 1371 1497
8 1363 1236 1367 1496 1499 1368 1501 1623
8 1497 1371 1240 1362 1624 1505 1372 1498
8 1625 1503 1372 1498 1500 1369 1241 1366
8 1365 1238 1368 1499 1500 1369 1502 1626
8 1520 1398 1506 1633 1388 1266 1373 1507
8 1634 1507 1374 1508 1512 1388 1255 1380
8 1509 1387 1519 1635 1377 1258 1391 1510
8 1405 1276 1406 1534 1509 1387 1519 1635
8 1515 1392 1260 1383 1636 1522 1390 1511
8 1511 1390 1259 1379 1636 1522 1391 1510
8 1385 1256 1389 1517 1512 1388 1520 1637
8 1513 1394 1262 1382 1638 1524 1393 1514
8 1395 1516 1638 1524 1263 1384 1513 1394
8 1515 1392 1523 1639 1383 1260 1393 1514
8 1516 1395 1526 1640 1386 1264 1396 1518
8 1386 1264 1396 1518 1517 1389 1521 1641
8 1519 1397 1527 1643 1391 1269 1400 1522
8 1535 1407 1527 1643 1406 1277 1397 1519
8 1389 1267 1399 1521 1520 1398 1528 1644
8 1645 1529 1399 1521 1525 1404 1274 1396
8 1392 1270 1400 1522 1523 1401 1531 1646
8 1524 1402 1271 1393 1648 1532 1401 1523
8 1403 1526 1648 1532 1273 1395 1524 1402
8 1525 1404 1274 1396 1649 1533 1403 1526
8 1539 1414 1535 1657 1411 1286 1406 1534
8 1542 1415 1536 1658 1414 1287 1407 1535
8 1409 1285 1412 1537 1538 1413 1540 1660
8 1545 1421 1540 1660 1418 1292 1412 1537
8 1539 1414 1286 1411 1661 1541 1413 1538
8 1540 1417 1544 1663 1413 1288 1416 1541
8 1421 1296 1425 1548 1540 1417 1544 1663
8 1542 1415 1287 1414 1664 1543 1416 1541
8 1420 1294 1423 1547 1545 1421 1548 1666
8 1547 1423 1293 1419 1667 1549 1422 1546
8 1434 1301 1427 1553 1546 1422 1549 1667
8 1423 1297 1424 1549 1548 1425 1550 1668
8 1551 1426 1550 1668 1427 1298 1424 1549
8 1551 1426 1298 1427 1671 1552 1428 1554
8 1562 1432 1554 1674 1434 1301 1427 1553
8 1431 1299 1429 1558 1554 1428 1555 1675
8 1431 1299 1430 1560 1558 1429 1557 1680
8 1560 1430 1300 1432 1683 1559 1433 1563
8 1561 1431 1554 1674 1684 1560 1432 1562
8 1685 1563 1432 1562 1565 1435 1301 1434
8 1435 1302 1436 1566 1563 1433 1564 1686
8 1437 1303 1438 1568 1565 1435 1566 1688
8 1438 1304 1439 1569 1566 1436 1567 1689
8 1440 1306 1441 1571 1568 1438 1569 1691
8 1441 1307 1442 1572 1569 1439 1570 1692
8 1443 1309 1444 1574 1571 1441 1572 1694
8 1310 1444 1572 1442 1445 1575 1695 1573
8 1446 1312 1447 1576 1574 1444 1575 1696
8 1486 1349 1485 1614 1579 1449 1577 1699
8 1451 1317 1449 1579 1581 1450 1578 1701
8 1487 1350 1486 1615 1582 1451 1579 1702
8 1581 1450 1580 1704 1453 1318 1452 1584
8 1582 1451 1581 1705 1454 1319 1453 1585
8 1584 1452 1583 1706 1456 1320 1455 1586
8 1585 1453 1584 1707 1457 1321 1456 1587
8 1587 1456 1586 1708 1458 1323 1459 1588
8 1633 1506 1589 1710 1507 1373 1461 1590
8 1464 1329 1461 1590 1594 1463 1589 1710
8 1468 1336 1462 1591 1595 1464 1590 1711
8 1634 1507 1590 1711 1508 1374 1462 1591
8 1473 1341 1463 1594 1603 1477 1593 1716
8 1469 1337 1464 1595 1599 1473 1594 1717
8 1471 1597 1467 1335 1600 1718 1596 1470
8 1718 1600 1496 1616 1596 1470 1360 1488
8 1336 1468 1597 1471 1472 1598 1719 1601
8 1469 1337 1473 1599 1598 1472 1602 1720
8 1722 1604 1501 1623 1600 1474 1367 1496
8 1475 1601 1471 1339 1604 1722 1600 1474
8 1602 1476 1605 1723 1472 1340 1475 1601
8 1476 1602 1724 1606 1341 1473 1603 1477
8 1483 1347 1478 1609 1612 1482 1608 1731
8 1495 1370 1504 1622 1609 1478 1608 1731
8 1618 1495 1609 1732 1494 1361 1479 1610
8 1484 1348 1479 1610 1613 1483 1609 1732
8 1486 1349 1482 1612 1614 1485 1611 1733
8 1613 1483 1612 1734 1487 1350 1486 1615
8 1489 1363 1496 1616 1617 1499 1623 1736
8 1491 1365 1499 1617 1619 1500 1626 1737
8 1618 1495 1361 1494 1738 1622 1497 1621
8 1739 1625 1498 1620 1619 1500 1366 1492
8 1621 1497 1362 1493 1740 1624 1498 1620
8 1742 1631 1504 1622 1624 1505 1371 1497
8 1743 1628 1502 1626 1623 1501 1368 1499
8 1744 1630 1505 1624 1625 1503 1372 1498
8 1745 1629 1503 1625 1626 1502 1369 1500
8 1520 1398 1528 1644 1633 1506 1632 1751
8 1637 1520 1633 1752 1512 1388 1507 1634
8 1635 1519 1643 1753 1510 1391 1522 1636
8 1657 1535 1643 1753 1534 1406 1519 1635
8 1515 1392 1522 1636 1639 1523 1646 1754
8 1517 1389 1521 1641 1637 1520 1644 1755
8 1524 1638 1756 1648 1393 1514 1639 1523
8 1640 1526 1395 1516 1756 1648 1524 1638
8 1642 1525 1396 1518 1757 1649 1526 1640
8 1758 1645 1521 1641 1642 1525 1396 1518
8 1646 1531 1400 1522 1760 1650 1527 1643
8 1535 1407 1536 1658 1643 1527 1650 1760
8 1521 1399 1529 1645 1644 1528 1651 1761
8 1647 1530 1652 1762 1525 1404 1529 1645
8 1401 1523 1648 1532 1531 1646 1763 1655
8 1525 1404 1533 1649 1647 1530 1654 1765
8 1533 1649 1766 1656 1403 1526 1648 1532
8 1662 1542 1658 1774 1539 1414 1535 1657
8 1542 1415 1543 1664 1658 1536 1659 1775
8 1660 1540 1663 1777 1538 1413 1541 1661
8 1545 1421 1548 1666 1660 1540 1663 1777
8 1662 1542 1414 1539 1778 1664 1541 1661
8 1664 1543 1416 1541 1779 1665 1544 1663
8 1548 1425 1550 1668 1663 1544 1665 1779
8 1547 1423 1549 1667 1666 1548 1668 1781
8 1670 1551 1668 1781 1553 1427 1549 1667
8 1551 1426 1552 1671 1668 1550 1669 1782
8 1670 1551 1427 1553 1784 1671 1554 1674
8 1675 1555 1672 1785 1554 1428 1552 1671
8 1678 1556 1673 1789 1558 1429 1555 1675
8 1561 1431 1558 1681 1674 1554 1675 1790
8 1794 1677 1556 1678 1680 1557 1429 1558
8 1560 1430 1559 1683 1680 1557 1679 1797
8 1561 1431 1560 1684 1681 1558 1680 1798
8 1563 1433 1564 1686 1683 1559 1682 1800
8 1684 1560 1432 1562 1801 1683 1563 1685
8 1565 1435 1566 1688 1685 1563 1686 1802
8 1566 1436 1567 1689 1686 1564 1687 1803
8 1568 1438 1569 1691 1688 1566 1689 1805
8 1569 1439 1570 1692 1689 1567 1690 1806
8 1571 1441 1572 1694 1691 1569 1692 1808
8 1442 1572 1692 1570 1573 1695 1809 1693
8 1574 1444 1575 1696 1694 1572 1695 1810
8 1614 1485 1592 1712 1699 1577 1697 1813
8 1579 1449 1577 1699 1701 1578 1698 1815
8 1615 1486 1614 1735 1702 1579 1699 1816
8 1701 1578 1700 1818 1581 1450 1580 1704
8 1582 1451 1579 1702 1705 1581 1701 1819
8 1704 1580 1703 1820 1584 1452 1583 1706
8 1705 1581 1704 1821 1585 1453 1584 1707
8 1707 1584 1706 1822 1587 1456 1586 1708
8 1710 1589 1506 1633 1824 1709 1632 1751
8 1594 1463 1589 1710 1716 1593 1709 1824
8 1752 1633 1710 1825 1634 1507 1590 1711
8 1595 1464 1590 1711 1717 1594 1710 1825
8 1830 1714 1592 1712 1733 1611 1485 1614
8 1603 1477 1593 1716 1725 1607 1715 1834
8 1599 1473 1594 1717 1721 1603 1716 1835
8 1837 1722 1623 1736 1718 1600 1496 1616
8 1719 1601 1722 1837 1597 1471 1600 1718
8 1602 1720 1598 1472 1723 1838 1719 1601
8 1720 1602 1473 1599 1839 1724 1603 1721
8 1723 1605 1726 1840 1601 1475 1604 1722
8 1840 1726 1628 1743 1722 1604 1501 1623
8 1724 1606 1727 1841 1602 1476 1605 1723
8 1725 1607 1728 1842 1603 1477 1606 1724
8 1612 1482 1608 1731 1733 1611 1730 1849
8 1741 1627 1730 1849 1622 1504 1608 1731
8 1613 1483 1609 1732 1734 1612 1731 1850
8 1618 1495 1622 1738 1732 1609 1731 1850
8 1615 1486 1612 1734 1735 1614 1733 1851
8 1852 1743 1626 1737 1736 1623 1499 1617
8 1853 1745 1625 1739 1737 1626 1500 1619
8 1855 1742 1622 1738 1740 1624 1497 1621
8 1856 1744 1624 1740 1739 1625 1498 1620
8 1741 1627 1504 1622 1857 1746 1631 1742
8 1742 1631 1505 1624 1858 1749 1630 1744
8 1859 1747 1629 1745 1743 1628 1502 1626
8 1860 1748 1630 1744 1745 1629 1503 1625
8 1644 1528 1651 1761 1751 1632 1750 1865
8 1637 1520 1644 1755 1752 1633 1751 1866
8 1754 1646 1522 1636 1867 1760 1643 1753
8 1657 1535 1658 1774 1753 1643 1760 1867
8 1639 1523 1646 1754 1756 1648 1763 1868
8 1641 1521 1645 1758 1755 1644 1761 1869
8 1757 1649 1526 1640 1870 1766 1648 1756
8 1642 1525 1649 1757 1759 1647 1765 1871
8 1759 1647 1762 1872 1642 1525 1645 1758
8 1760 1650 1767 1874 1646 1531 1655 1763
8 1658 1536 1659 1775 1760 1650 1767 1874
8 1762 1652 1768 1875 1645 1529 1651 1761
8 1764 1653 1769 1876 1647 1530 1652 1762
8 1656 1766 1877 1773 1532 1648 1763 1655
8 1771 1879 1765 1654 1653 1764 1647 1530
8 1533 1649 1765 1654 1656 1766 1880 1772
8 1662 1542 1664 1778 1774 1658 1775 1887
8 1664 1543 1665 1779 1775 1659 1776 1888
8 1778 1664 1541 1661 1890 1779 1663 1777
8 1666 1548 1668 1781 1777 1663 1779 1890
8 1782 1669 1780 1891 1668 1550 1665 1779
8 1670 1551 1671 1784 1781 1668 1782 1893
8 1671 1552 1672 1785 1782 1669 1783 1894
8 1790 1675 1785 1896 1674 1554 1671 1784
8 1675 1555 1673 1789 1785 1672 1786 1897
8 1792 1676 1788 1903 1678 1556 1673 1789
8 1795 1678 1789 1904 1681 1558 1675 1790
8 1792 1676 1556 1678 1906 1791 1677 1794
8 1680 1557 1679 1797 1794 1677 1793 1909
8 1910 1794 1678 1795 1798 1680 1558 1681
8 1683 1559 1682 1800 1797 1679 1796 1912
8 1684 1560 1683 1801 1798 1680 1797 1913
8 1686 1564 1687 1803 1800 1682 1799 1915
8 1685 1563 1686 1802 1801 1683 1800 1916
8 1688 1566 1689 1805 1802 1686 1803 1917
8 1689 1567 1690 1806 1803 1687 1804 1918
8 1691 1569 1692 1808 1805 1689 1806 1920
8 1692 1570 1693 1809 1806 1690 1807 1921
8 1694 1572 1695 1810 1808 1692 1809 1922
8 1829 1713 1811 1926 1712 1592 1697 1813
8 1813 1697 1812 1928 1699 1577 1698 1815
8 1735 1614 1712 1828 1816 1699 1813 1929
8 1815 1698 1814 1931 1701 1578 1700 1818
8 1702 1579 1699 1816 1819 1701 1815 1932
8 1818 1700 1817 1933 1704 1580 1703 1820
8 1819 1701 1818 1934 1705 1581 1704 1821
8 1821 1704 1820 1935 1707 1584 1706 1822
8 1824 1709 1632 1751 1937 1823 1750 1865
8 1716 1593 1709 1824 1834 1715 1823 1937
8 1825 1710 1633 1752 1938 1824 1751 1866
8 1717 1594 1710 1825 1835 1716 1824 1938
8 1945 1830 1712 1828 1851 1733 1614 1735
8 1830 1714 1831 1946 1712 1592 1713 1829
8 1947 1832 1714 1830 1849 1730 1611 1733
8 1843 1729 1607 1725 1950 1833 1715 1834
8 1721 1603 1716 1835 1836 1725 1834 1951
8 1836 1725 1842 1953 1721 1603 1724 1839
8 1723 1838 1719 1601 1840 1954 1837 1722
8 1954 1840 1743 1852 1837 1722 1623 1736
8 1724 1839 1720 1602 1841 1955 1838 1723
8 1841 1727 1844 1956 1723 1605 1726 1840
8 1956 1844 1747 1859 1840 1726 1628 1743
8 1728 1842 1724 1606 1845 1957 1841 1727
8 1725 1607 1729 1843 1842 1728 1846 1958
8 1741 1627 1746 1857 1849 1730 1848 1965
8 1734 1612 1731 1850 1851 1733 1849 1966
8 1854 1741 1849 1966 1738 1622 1731 1850
8 1967 1859 1745 1853 1852 1743 1626 1737
8 1968 1860 1744 1856 1853 1745 1625 1739
8 1854 1741 1622 1738 1969 1857 1742 1855
8 1855 1742 1624 1740 1970 1858 1744 1856
8 1857 1746 1631 1742 1971 1861 1749 1858
8 1858 1749 1630 1744 1972 1863 1748 1860
8 1859 1747 1862 1973 1745 1629 1748 1860
8 1875 1768 1864 1977 1761 1651 1750 1865
8 1755 1644 1761 1869 1866 1751 1865 1978
8 1867 1760 1874 1979 1754 1646 1763 1868
8 1774 1658 1775 1887 1867 1760 1874 1979
8 1870 1766 1648 1756 1980 1877 1763 1868
8 1872 1762 1875 1981 1758 1645 1761 1869
8 1757 1649 1766 1870 1871 1765 1880 1982
8 1983 1879 1764 1873 1871 1765 1647 1759
8 1873 1764 1876 1984 1759 1647 1762 1872
8 1877 1773 1655 1763 1986 1881 1767 1874
8 1775 1659 1776 1888 1874 1767 1881 1986
8 1876 1769 1882 1987 1762 1652 1768 1875
8 1878 1770 1883 1988 1764 1653 1769 1876
8 1880 1772 1656 1766 1989 1886 1773 1877
8 1878 1770 1653 1764 1990 1884 1771 1879
8 1765 1654 1772 1880 1879 1771 1885 1991
8 1778 1664 1779 1890 1887 1775 1888 1997
8 1998 1889 1776 1888 1891 1780 1665 1779
8 1893 1782 1891 2000 1781 1668 1779 1890
8 1894 1783 1892 2001 1782 1669 1780 1891
8 1784 1671 1785 1896 1893 1782 1894 2003
8 1897 1786 1895 2004 1785 1672 1783 1894
8 1790 1675 1789 1904 1896 1785 1897 2006
8 1901 1787 1898 2007 1789 1673 1786 1897
8 1903 1788 1900 2013 1789 1673 1787 1901
8 1792 1676 1791 1906 1903 1788 1902 2016
8 1907 1792 1903 2017 1795 1678 1789 1904
8 1906 1791 1677 1794 2019 1905 1793 1909
8 1907 1792 1678 1795 2020 1906 1794 1910
8 1797 1679 1796 1912 1909 1793 1908 2022
8 1798 1680 1797 1913 1910 1794 1909 2023
8 1800 1682 1799 1915 1912 1796 1911 2025
8 1801 1683 1800 1916 1913 1797 1912 2026
8 1803 1687 1804 1918 1915 1799 1914 2028
8 1802 1686 1803 1917 1916 1800 1915 2029
8 1805 1689 1806 1920 1917 1803 1918 2030
8 1806 1690 1807 1921 1918 1804 1919 2031
8 1808 1692 1809 1922 1920 1806 1921 2032
8 1939 1826 1924 2037 1829 1713 1811 1926
8 1926 1811 1925 2039 1813 1697 1812 1928
8 1944 1829 1926 2040 1828 1712 1813 1929
8 1928 1812 1927 2042 1815 1698 1814 1931
8 1929 1813 1928 2043 1816 1699 1815 1932
8 1931 1814 1930 2044 1818 1700 1817 1933
8 1932 1815 1931 2045 1819 1701 1818 1934
8 1934 1818 1933 2046 1821 1704 1820 1935
8 2048 1936 1823 1937 1977 1864 1750 1865
8 1950 1833 1715 1834 2048 1936 1823 1937
8 1938 1824 1751 1866 2049 1937 1865 1978
8 1835 1716 1824 1938 1951 1834 1937 2049
8 1939 1826 1713 1829 2053 1942 1831 1946
8 1940 1827 1923 2035 2053 1942 1826 1939
8 1945 1830 1946 2058 1828 1712 1829 1944
8 2059 1947 1830 1945 1966 1849 1733 1851
8 1947 1832 1730 1849 2060 1948 1848 1965
8 1947 1832 1948 2060 1830 1714 1831 1946
8 1959 1847 1729 1843 2063 1949 1833 1950
8 1952 1843 1725 1836 2064 1950 1834 1951
8 1836 1725 1843 1952 1953 1842 1958 2066
8 1953 1842 1957 2067 1839 1724 1841 1955
8 1841 1955 1838 1723 1956 2068 1954 1840
8 2068 1956 1859 1967 1954 1840 1743 1852
8 1956 1844 1960 2069 1859 1747 1862 1973
8 1845 1957 1841 1727 1960 2069 1956 1844
8 1728 1842 1957 1845 1846 1958 2071 1961
8 1962 2072 1959 1847 1846 1958 1843 1729
8 1971 1861 1964 2077 1857 1746 1848 1965
8 1854 1741 1857 1969 1966 1849 1965 2078
8 1967 1859 1973 2079 1853 1745 1860 1968
8 1970 1858 1744 1856 2080 1972 1860 1968
8 1969 1857 1742 1855 2081 1971 1858 1970
8 1971 1861 1749 1858 2082 1974 1863 1972
8 1973 1862 1975 2083 1860 1748 1863 1972
8 1987 1882 1976 2086 1875 1768 1864 1977
8 1981 1875 1977 2087 1869 1761 1865 1978
8 1980 1877 1763 1868 2088 1986 1874 1979
8 1887 1775 1888 1997 1979 1874 1986 2088
8 1880 1982 2089 1989 1766 1870 1980 1877
8 1984 1876 1987 2090 1872 1762 1875 1981
8 1765 1871 1983 1879 1880 1982 2091 1991
8 1985 1878 1764 1873 2092 1990 1879 1983
8 1985 1878 1988 2093 1873 1764 1876 1984
8 2094 1992 1881 1986 1998 1889 1776 1888
8 1986 1881 1992 2094 1877 1773 1886 1989
8 1988 1883 1993 2095 1876 1769 1882 1987
8 1878 1770 1884 1990 1988 1883 1994 2096
8 1991 1885 1772 1880 2097 1996 1886 1989
8 1879 1771 1885 1991 1990 1884 1995 2098
8 2103 1998 1888 1997 2000 1891 1779 1890
8 2104 1999 1889 1998 2001 1892 1780 1891
8 2003 1894 2001 2106 1893 1782 1891 2000
8 2004 1895 2002 2107 1894 1783 1892 2001
8 2006 1897 2004 2109 1896 1785 1894 2003
8 2007 1898 2005 2110 1897 1786 1895 2004
8 2014 1901 2007 2112 1904 1789 1897 2006
8 2011 1899 2008 2113 1901 1787 1898 2007
8 2119 2010 1899 2011 2013 1900 1787 1901
8 2016 1902 2012 2122 1903 1788 1900 2013
8 2017 1903 2013 2123 1904 1789 1901 2014
8 1906 1791 1905 2019 2016 1902 2015 2125
8 1907 1792 1906 2020 2017 1903 2016 2126
8 1909 1793 1908 2022 2019 1905 2018 2128
8 2020 1906 1794 1910 2129 2019 1909 2023
8 1912 1796 1911 2025 2022 1908 2021 2131
8 1913 1797 1912 2026 2023 1909 2022 2132
8 1915 1799 1914 2028 2025 1911 2024 2134
8 1916 1800 1915 2029 2026 1912 2025 2135
8 1918 1804 1919 2031 2028 1914 2027 2136
8 1917 1803 1918 2030 2029 1915 2028 2137
8 1920 1806 1921 2032 2030 1918 2031 2138
8 1940 1827 1941 2054 2035 1923 2033 2140
8 2035 1923 2034 2143 1939 1826 1924 2037
8 2037 1924 2036 2146 1926 1811 1925 2039
8 2051 1939 2037 2147 1944 1829 1926 2040
8 2039 1925 2038 2149 1928 1812 1927 2042
8 2040 1926 2039 2150 1929 1813 1928 2043
8 2042 1927 2041 2151 1931 1814 1930 2044
8 2043 1928 2042 2152 1932 1815 1931 2045
8 2045 1931 2044 2153 1934 1818 1933 2046
8 2155 2047 1936 2048 2086 1976 1864 1977
8 2063 1949 1833 1950 2155 2047 1936 2048
8 2156 2048 1937 2049 2087 1977 1865 1978
8 2064 1950 1834 1951 2156 2048 1937 2049
8 2051 1939 1829 1944 2160 2053 1946 2058
8 2052 1940 2035 2144 2160 2053 1939 2051
8 2053 1942 1831 1946 2163 2057 1948 2060
8 2055 1943 1827 1940 2163 2057 1942 2053
8 2055 1943 2056 2164 1940 1827 1941 2054
8 2059 1947 1849 1966 2167 2060 1965 2078
8 2059 1947 2060 2167 1945 1830 1946 2058
8 2077 1964 2061 2168 1965 1848 1948 2060
8 2070 1963 1847 1959 2170 2062 1949 2063
8 2065 1959 1843 1952 2171 2063 1950 2064
8 2173 2072 1958 2066 2065 1959 1843 1952
8 1953 1842 1958 2066 2067 1957 2071 2174
8 2068 1956 2069 2175 1967 1859 1973 2079
8 2067 1957 2069 2175 1955 1841 1956 2068
8 1845 1957 2069 1960 1961 2071 2176 2073
8 2069 1960 2073 2176 1973 1862 1975 2083
8 2070 1963 2075 2177 1959 1847 1962 2072
8 1846 1958 2071 1961 1962 2072 2178 2074
8 2077 1964 1861 1971 2182 2076 1974 2082
8 2081 1971 2077 2183 1969 1857 1965 2078
8 2079 1973 2083 2184 1968 1860 1972 2080
8 2081 1971 1858 1970 2185 2082 1972 2080
8 2083 1975 2084 2186 1972 1863 1974 2082
8 2086 1976 1882 1987 2189 2085 1993 2095
8 2090 1987 2086 2190 1981 1875 1977 2087
8 2191 2094 1986 2088 2103 1998 1888 1997
8 2088 1986 2094 2191 1980 1877 1989 2089
8 1991 2091 2192 2097 1880 1982 2089 1989
8 2093 1988 2095 2193 1984 1876 1987 2090
8 1879 1983 2092 1990 1991 2091 2194 2098
8 1985 1878 1990 2092 2093 1988 2096 2195
8 2097 1996 1886 1989 2196 2099 1992 2094
8 2196 2099 1992 2094 2104 1999 1889 1998
8 1994 2096 1988 1883 2100 2197 2095 1993
8 2096 1994 1884 1990 2198 2101 1995 2098
8 1995 2098 2199 2102 1885 1991 2097 1996
8 2203 2104 1998 2103 2106 2001 1891 2000
8 2107 2002 2105 2204 2001 1892 1999 2104
8 2109 2004 2107 2206 2003 1894 2001 2106
8 2110 2005 2108 2207 2004 1895 2002 2107
8 2112 2007 2110 2209 2006 1897 2004 2109
8 2113 2008 2111 2210 2007 1898 2005 2110
8 2120 2011 2113 2212 2014 1901 2007 2112
8 2117 2009 2114 2213 2011 1899 2008 2113
8 2219 2116 2009 2117 2119 2010 1899 2011
8 2222 2118 2010 2119 2122 2012 1900 2013
8 2223 2119 2011 2120 2123 2013 1901 2014
8 2016 1902 2015 2125 2122 2012 2121 2225
8 2126 2016 2122 2226 2017 1903 2013 2123
8 2019 1905 2018 2128 2125 2015 2124 2228
8 2020 1906 2019 2129 2126 2016 2125 2229
8 2022 1908 2021 2131 2128 2018 2127 2231
8 2023 1909 2022 2132 2129 2019 2128 2232
8 2025 1911 2024 2134 2131 2021 2130 2234
8 2026 1912 2025 2135 2132 2022 2131 2235
8 1914 2028 2134 2024 2027 2136 2236 2133
8 2029 1915 2028 2137 2135 2025 2134 2237
8 2030 1918 2031 2138 2137 2028 2136 2238
8 2157 2050 2139 2240 2054 1941 2033 2140
8 2052 1940 2054 2161 2144 2035 2140 2242
8 2140 2033 2141 2243 2035 1923 2034 2143
8 2143 2034 2142 2246 2037 1924 2036 2146
8 2144 2035 2143 2247 2051 1939 2037 2147
8 2146 2036 2145 2249 2039 1925 2038 2149
8 2147 2037 2146 2250 2040 1926 2039 2150
8 2149 2038 2148 2251 2042 1927 2041 2151
8 2150 2039 2149 2252 2043 1928 2042 2152
8 2152 2042 2151 2253 2045 1931 2044 2153
8 2255 2154 2047 2155 2189 2085 1976 2086
8 2170 2062 1949 2063 2255 2154 2047 2155
8 2256 2155 2048 2156 2190 2086 1977 2087
8 2171 2063 1950 2064 2256 2155 2048 2156
8 2258 2159 2050 2157 2164 2056 1941 2054
8 2160 2053 1946 2058 2262 2163 2060 2167
8 2162 2055 1940 2052 2262 2163 2053 2160
8 2162 2055 2164 2263 2052 1940 2054 2161
8 2163 2057 1948 2060 2264 2165 2061 2168
8 2055 1943 2057 2163 2164 2056 2165 2264
8 2182 2076 2166 2268 2077 1964 2061 2168
8 2183 2077 2168 2269 2078 1965 2060 2167
8 2070 1963 2062 2170 2177 2075 2169 2271
8 2172 2070 1959 2065 2272 2170 2063 2171
8 2172 2070 2177 2273 2065 1959 2072 2173
8 2066 1958 2072 2173 2174 2071 2178 2274
8 2067 1957 2071 2174 2175 2069 2176 2275
8 2175 2069 2176 2275 2079 1973 2083 2184
8 2071 1961 2074 2178 2176 2073 2179 2276
8 2176 2073 2179 2276 2083 1975 2084 2186
8 2072 1962 2075 2177 2178 2074 2180 2277
8 2182 2076 1974 2082 2280 2181 2084 2186
8 2183 2077 1971 2081 2281 2182 2082 2185
8 2184 2083 2186 2282 2080 1972 2082 2185
8 2189 2085 1993 2095 2285 2188 2100 2197
8 2190 2086 1987 2090 2286 2189 2095 2193
8 2192 2097 1989 2089 2287 2196 2094 2191
8 2287 2196 2094 2191 2203 2104 1998 2103
8 2194 2098 1991 2091 2288 2199 2097 2192
8 2195 2096 2197 2289 2093 1988 2095 2193
8 2096 2195 2290 2198 1990 2092 2194 2098
8 2097 1996 2099 2196 2199 2102 2200 2291
8 2196 2099 1999 2104 2291 2200 2105 2204
8 2100 2197 2292 2201 1994 2096 2198 2101
8 1995 2098 2198 2101 2102 2199 2293 2202
8 2206 2107 2204 2296 2106 2001 2104 2203
8 2207 2108 2205 2297 2107 2002 2105 2204
8 2209 2110 2207 2299 2109 2004 2107 2206
8 2210 2111 2208 2300 2110 2005 2108 2207
8 2212 2113 2210 2302 2112 2007 2110 2209
8 2213 2114 2211 2303 2113 2008 2111 2210
8 2220 2117 2213 2305 2120 2011 2113 2212
8 2216 2115 2214 2306 2117 2009 2114 2213
8 2216 2115 2009 2117 2311 2217 2116 2219
8 2219 2116 2010 2119 2314 2218 2118 2222
8 2315 2219 2117 2220 2223 2119 2011 2120
8 2122 2012 2121 2225 2222 2118 2221 2317
8 2318 2222 2119 2223 2226 2122 2013 2123
8 2125 2015 2124 2228 2225 2121 2224 2320
8 2126 2016 2125 2229 2226 2122 2225 2321
8 2128 2018 2127 2231 2228 2124 2227 2323
8 2129 2019 2128 2232 2229 2125 2228 2324
8 2131 2021 2130 2234 2231 2127 2230 2326
8 2132 2022 2131 2235 2232 2128 2231 2327
8 2134 2024 2133 2236 2234 2130 2233 2328
8 2135 2025 2134 2237 2235 2131 2234 2329
8 2137 2028 2136 2238 2237 2134 2236 2330
8 2157 2050 2158 2259 2240 2139 2239 2332
8 2257 2157 2240 2334 2161 2054 2140 2242
8 2240 2139 2241 2335 2140 2033 2141 2243
8 2242 2140 2243 2337 2144 2035 2143 2247
8 2243 2141 2244 2338 2143 2034 2142 2246
8 2246 2142 2245 2341 2146 2036 2145 2249
8 2247 2143 2246 2342 2147 2037 2146 2250
8 2249 2145 2248 2343 2149 2038 2148 2251
8 2250 2146 2249 2344 2150 2039 2149 2252
8 2252 2149 2251 2345 2152 2042 2151 2253
8 2169 2271 2347 2254 2062 2170 2255 2154
8 2189 2085 2188 2285 2255 2154 2254 2347
8 2348 2255 2155 2256 2286 2189 2086 2190
8 2272 2170 2063 2171 2348 2255 2155 2256
8 2349 2258 2157 2257 2263 2164 2054 2161
8 2258 2159 2261 2351 2157 2050 2158 2259
8 2258 2159 2056 2164 2351 2261 2165 2264
8 2262 2163 2060 2167 2355 2264 2168 2269
8 2162 2055 2163 2262 2263 2164 2264 2355
8 2357 2266 2165 2264 2268 2166 2061 2168
8 2268 2166 2076 2182 2361 2267 2181 2280
8 2281 2182 2268 2362 2183 2077 2168 2269
8 2271 2169 2270 2364 2177 2075 2180 2277
8 2172 2070 2170 2272 2273 2177 2271 2365
8 2072 2173 2274 2178 2177 2273 2366 2277
8 2071 2174 2275 2176 2178 2274 2367 2276
8 2275 2176 2276 2367 2184 2083 2186 2282
8 2283 2187 2084 2186 2368 2278 2179 2276
8 2178 2074 2180 2277 2276 2179 2278 2368
8 2283 2187 2279 2370 2186 2084 2181 2280
8 2281 2182 2082 2185 2371 2280 2186 2282
8 2188 2285 2374 2284 2100 2197 2292 2201
8 2286 2189 2095 2193 2375 2285 2197 2289
8 2192 2097 2196 2287 2288 2199 2291 2376
8 2287 2196 2104 2203 2376 2291 2204 2296
8 2194 2098 2199 2288 2290 2198 2293 2377
8 2289 2197 2096 2195 2378 2292 2198 2290
8 2291 2200 2105 2204 2379 2294 2205 2297
8 2199 2102 2200 2291 2293 2202 2294 2379
8 2198 2101 2202 2293 2292 2201 2295 2380
8 2299 2207 2297 2383 2206 2107 2204 2296
8 2300 2208 2298 2384 2207 2108 2205 2297
8 2302 2210 2300 2386 2209 2110 2207 2299
8 2303 2211 2301 2387 2210 2111 2208 2300
8 2305 2213 2303 2389 2212 2113 2210 2302
8 2306 2214 2304 2390 2213 2114 2211 2303
8 2310 2216 2306 2392 2220 2117 2213 2305
8 2308 2215 2307 2393 2216 2115 2214 2306
8 2308 2215 2115 2216 2396 2309 2217 2311
8 2310 2216 2117 2220 2398 2311 2219 2315
8 2311 2217 2116 2219 2399 2312 2218 2314
8 2314 2218 2118 2222 2402 2313 2221 2317
8 2315 2219 2119 2223 2403 2314 2222 2318
8 2225 2121 2224 2320 2317 2221 2316 2405
8 2226 2122 2225 2321 2318 2222 2317 2406
8 2228 2124 2227 2323 2320 2224 2319 2408
8 2229 2125 2228 2324 2321 2225 2320 2409
8 2231 2127 2230 2326 2323 2227 2322 2411
8 2232 2128 2231 2327 2324 2228 2323 2412
8 2234 2130 2233 2328 2326 2230 2325 2413
8 2235 2131 2234 2329 2327 2231 2326 2414
8 2237 2134 2236 2330 2329 2234 2328 2415
8 2259 2158 2260 2352 2332 2239 2331 2417
8 2257 2157 2259 2350 2334 2240 2332 2419
8 2240 2139 2239 2332 2335 2241 2333 2420
8 2334 2240 2335 2422 2242 2140 2243 2337
8 2335 2241 2336 2423 2243 2141 2244 2338
8 2337 2243 2338 2425 2247 2143 2246 2342
8 2338 2244 2339 2426 2246 2142 2245 2341
8 2341 2245 2340 2428 2249 2145 2248 2343
8 2342 2246 2341 2429 2250 2146 2249 2344
8 2344 2249 2343 2430 2252 2149 2251 2345
8 2188 2285 2347 2254 2284 2374 2432 2346
8 2347 2254 2346 2432 2271 2169 2270 2364
8 2365 2271 2170 2272 2433 2347 2255 2348
8 2286 2189 2285 2375 2348 2255 2347 2433
8 2349 2258 2351 2435 2257 2157 2259 2350
8 2349 2258 2164 2263 2435 2351 2264 2355
8 2259 2158 2261 2351 2352 2260 2354 2437
8 2356 2265 2354 2437 2264 2165 2261 2351
8 2441 2357 2264 2355 2362 2268 2168 2269
8 2356 2265 2165 2264 2442 2358 2266 2357
8 2443 2359 2266 2357 2361 2267 2166 2268
8 2370 2279 2360 2446 2280 2181 2267 2361
8 2362 2268 2182 2281 2447 2361 2280 2371
8 2180 2277 2368 2278 2270 2364 2449 2363
8 2271 2365 2273 2177 2364 2450 2366 2277
8 2372 2283 2186 2282 2451 2368 2276 2367
8 2178 2274 2367 2276 2277 2366 2451 2368
8 2283 2187 2278 2368 2370 2279 2369 2452
8 2372 2283 2370 2453 2282 2186 2280 2371
8 2284 2374 2455 2373 2201 2292 2380 2295
8 2375 2285 2197 2289 2456 2374 2292 2378
8 2376 2291 2204 2296 2457 2379 2297 2383
8 2288 2199 2291 2376 2377 2293 2379 2457
8 2198 2290 2378 2292 2293 2377 2458 2380
8 2293 2202 2294 2379 2380 2295 2381 2459
8 2384 2298 2381 2459 2297 2205 2294 2379
8 2386 2300 2384 2463 2299 2207 2297 2383
8 2387 2301 2385 2464 2300 2208 2298 2384
8 2389 2303 2387 2466 2302 2210 2300 2386
8 2390 2304 2388 2467 2303 2211 2301 2387
8 2392 2306 2390 2469 2305 2213 2303 2389
8 2393 2307 2391 2470 2306 2214 2304 2390
8 2395 2308 2393 2472 2310 2216 2306 2392
8 2308 2215 2309 2396 2393 2307 2394 2473
8 2395 2308 2216 2310 2475 2396 2311 2398
8 2396 2309 2217 2311 2476 2397 2312 2399
8 2398 2311 2219 2315 2478 2399 2314 2403
8 2399 2312 2218 2314 2479 2400 2313 2402
8 2317 2221 2316 2405 2402 2313 2401 2482
8 2403 2314 2222 2318 2483 2402 2317 2406
8 2320 2224 2319 2408 2405 2316 2404 2485
8 2321 2225 2320 2409 2406 2317 2405 2486
8 2323 2227 2322 2411 2408 2319 2407 2488
8 2324 2228 2323 2412 2409 2320 2408 2489
8 2326 2230 2325 2413 2411 2322 2410 2490
8 2327 2231 2326 2414 2412 2323 2411 2491
8 2329 2234 2328 2415 2414 2326 2413 2492
8 2417 2331 2260 2352 2494 2416 2353 2438
8 2350 2259 2352 2436 2419 2332 2417 2496
8 2332 2239 2331 2417 2420 2333 2418 2497
8 2334 2240 2332 2419 2422 2335 2420 2499
8 2420 2333 2421 2500 2335 2241 2336 2423
8 2422 2335 2423 2502 2337 2243 2338 2425
8 2423 2336 2424 2503 2338 2244 2339 2426
8 2425 2338 2426 2505 2342 2246 2341 2429
8 2426 2339 2427 2506 2341 2245 2340 2428
8 2429 2341 2428 2507 2344 2249 2343 2430
8 2432 2346 2284 2374 2509 2431 2373 2455
8 2432 2346 2431 2509 2364 2270 2363 2449
8 2375 2285 2374 2456 2433 2347 2432 2510
8 2347 2433 2365 2271 2432 2510 2450 2364
8 2350 2259 2351 2435 2436 2352 2437 2514
8 2440 2356 2437 2514 2355 2264 2351 2435
8 2352 2260 2354 2437 2438 2353 2439 2516
8 2356 2265 2358 2442 2437 2354 2439 2516
8 2440 2356 2264 2355 2518 2442 2357 2441
8 2519 2443 2357 2441 2447 2361 2268 2362
8 2443 2359 2444 2520 2357 2266 2358 2442
8 2443 2359 2267 2361 2520 2444 2360 2446
8 2446 2360 2279 2370 2523 2445 2369 2452
8 2453 2370 2446 2524 2371 2280 2361 2447
8 2449 2363 2448 2525 2368 2278 2369 2452
8 2366 2277 2364 2450 2451 2368 2449 2526
8 2372 2283 2368 2451 2453 2370 2452 2527
8 2455 2373 2295 2380 2529 2454 2382 2460
8 2456 2374 2292 2378 2530 2455 2380 2458
8 2377 2293 2379 2457 2458 2380 2459 2531
8 2463 2384 2459 2531 2383 2297 2379 2457
8 2533 2461 2382 2460 2459 2381 2295 2380
8 2464 2385 2461 2533 2384 2298 2381 2459
8 2466 2387 2464 2537 2386 2300 2384 2463
8 2467 2388 2465 2538 2387 2301 2385 2464
8 2469 2390 2467 2540 2389 2303 2387 2466
8 2470 2391 2468 2541 2390 2304 2388 2467
8 2472 2393 2470 2543 2392 2306 2390 2469
8 2393 2307 2394 2473 2470 2391 2471 2544
8 2395 2308 2396 2475 2472 2393 2473 2546
8 2396 2309 2397 2476 2473 2394 2474 2547
8 2475 2396 2311 2398 2549 2476 2399 2478
8 2476 2397 2312 2399 2550 2477 2400 2479
8 2478 2399 2314 2403 2552 2479 2402 2483
8 2479 2400 2313 2402 2553 2480 2401 2482
8 2405 2316 2404 2485 2482 2401 2481 2556
8 2406 2317 2405 2486 2483 2402 2482 2557
8 2408 2319 2407 2488 2485 2404 2484 2559
8 2409 2320 2408 2489 2486 2405 2485 2560
8 2411 2322 2410 2490 2488 2407 2487 2561
8 2412 2323 2411 2491 2489 2408 2488 2562
8 2414 2326 2413 2492 2491 2411 2490 2563
8 2513 2434 2493 2565 2438 2353 2416 2494
8 2496 2417 2352 2436 2567 2494 2438 2515
8 2494 2416 2495 2568 2417 2331 2418 2497
8 2419 2332 2417 2496 2499 2420 2497 2570
8 2497 2418 2498 2571 2420 2333 2421 2500
8 2499 2420 2500 2573 2422 2335 2423 2502
8 2500 2421 2501 2574 2423 2336 2424 2503
8 2502 2423 2503 2576 2425 2338 2426 2505
8 2503 2424 2504 2577 2426 2339 2427 2506
8 2505 2426 2506 2578 2429 2341 2428 2507
8 2509 2431 2373 2455 2580 2508 2454 2529
8 2509 2431 2508 2580 2449 2363 2448 2525
8 2432 2510 2581 2509 2374 2456 2530 2455
8 2432 2510 2450 2364 2509 2581 2526 2449
8 2583 2511 2434 2513 2516 2439 2353 2438
8 2436 2352 2437 2514 2515 2438 2516 2588
8 2440 2356 2442 2518 2514 2437 2516 2588
8 2442 2358 2444 2520 2516 2439 2517 2589
8 2519 2443 2520 2591 2441 2357 2442 2518
8 2519 2443 2361 2447 2591 2520 2446 2524
8 2446 2360 2445 2523 2520 2444 2521 2592
8 2525 2448 2522 2593 2452 2369 2445 2523
8 2524 2446 2370 2453 2594 2523 2452 2527
8 2526 2449 2525 2595 2451 2368 2452 2527
8 2534 2462 2528 2597 2460 2382 2454 2529
8 2530 2455 2380 2458 2598 2529 2460 2532
8 2599 2533 2460 2532 2531 2459 2380 2458
8 2537 2464 2533 2599 2463 2384 2459 2531
8 2534 2462 2382 2460 2601 2535 2461 2533
8 2538 2465 2535 2601 2464 2385 2461 2533
8 2540 2467 2538 2604 2466 2387 2464 2537
8 2541 2468 2539 2605 2467 2388 2465 2538
8 2543 2470 2541 2607 2469 2390 2467 2540
8 2470 2391 2471 2544 2541 2468 2542 2608
8 2472 2393 2473 2546 2543 2470 2544 2610
8 2473 2394 2474 2547 2544 2471 2545 2611
8 2475 2396 2476 2549 2546 2473 2547 2613
8 2476 2397 2477 2550 2547 2474 2548 2614
8 2549 2476 2399 2478 2616 2550 2479 2552
8 2479 2400 2480 2553 2550 2477 2551 2617
8 2552 2479 2402 2483 2619 2553 2482 2557
8 2482 2401 2481 2556 2553 2480 2554 2620
8 2485 2404 2484 2559 2556 2481 2555 2623
8 2486 2405 2485 2560 2557 2482 2556 2624
8 2488 2407 2487 2561 2559 2484 2558 2625
8 2489 2408 2488 2562 2560 2485 2559 2626
8 2491 2411 2490 2563 2562 2488 2561 2627
8 2513 2434 2512 2585 2565 2493 2564 2630
8 2586 2513 2565 2632 2515 2438 2494 2567
8 2565 2493 2566 2633 2494 2416 2495 2568
8 2567 2494 2568 2635 2496 2417 2497 2570
8 2568 2495 2569 2636 2497 2418 2498 2571
8 2570 2497 2571 2638 2499 2420 2500 2573
8 2571 2498 2572 2639 2500 2421 2501 2574
8 2573 2500 2574 2641 2502 2423 2503 2576
8 2574 2501 2575 2642 2503 2424 2504 2577
8 2576 2503 2577 2643 2505 2426 2506 2578
8 2597 2528 2579 2645 2529 2454 2508 2580
8 2580 2508 2579 2645 2525 2448 2522 2593
8 2581 2509 2455 2530 2646 2580 2529 2598
8 2581 2509 2580 2646 2526 2449 2525 2595
8 2583 2511 2582 2648 2513 2434 2512 2585
8 2583 2511 2439 2516 2648 2582 2517 2589
8 2649 2583 2513 2586 2588 2516 2438 2515
8 2589 2517 2444 2520 2653 2587 2521 2592
8 2518 2442 2520 2591 2588 2516 2589 2654
8 2593 2522 2590 2655 2523 2445 2521 2592
8 2524 2446 2523 2594 2591 2520 2592 2656
8 2595 2525 2593 2657 2527 2452 2523 2594
8 2602 2536 2596 2659 2534 2462 2528 2597
8 2600 2534 2597 2660 2532 2460 2529 2598
8 2600 2534 2460 2532 2661 2601 2533 2599
8 2604 2538 2601 2661 2537 2464 2533 2599
8 2602 2536 2462 2534 2663 2603 2535 2601
8 2601 2535 2465 2538 2663 2603 2539 2605
8 2607 2541 2605 2665 2540 2467 2538 2604
8 2608 2542 2606 2666 2541 2468 2539 2605
8 2543 2470 2544 2610 2607 2541 2608 2668
8 2544 2471 2545 2611 2608 2542 2609 2669
8 2546 2473 2547 2613 2610 2544 2611 2671
8 2547 2474 2548 2614 2611 2545 2612 2672
8 2549 2476 2550 2616 2613 2547 2614 2674
8 2550 2477 2551 2617 2614 2548 2615 2675
8 2552 2479 2553 2619 2616 2550 2617 2677
8 2553 2480 2554 2620 2617 2551 2618 2678
8 2557 2482 2556 2624 2619 2553 2620 2680
8 2556 2481 2555 2623 2620 2554 2621 2681
8 2559 2484 2558 2625 2623 2555 2622 2683
8 2560 2485 2559 2626 2624 2556 2623 2684
8 2562 2488 2561 2627 2626 2559 2625 2685
8 2690 2629 2564 2630 2650 2584 2512 2585
8 2586 2513 2585 2651 2632 2565 2630 2691
8 2630 2564 2631 2692 2565 2493 2566 2633
8 2632 2565 2633 2694 2567 2494 2568 2635
8 2633 2566 2634 2695 2568 2495 2569 2636
8 2635 2568 2636 2697 2570 2497 2571 2638
8 2636 2569 2637 2698 2571 2498 2572 2639
8 2638 2571 2639 2700 2573 2500 2574 2641
8 2639 2572 2640 2701 2574 2501 2575 2642
8 2641 2574 2642 2702 2576 2503 2577 2643
8 2597 2528 2596 2659 2645 2579 2644 2704
8 2645 2579 2644 2704 2593 2522 2590 2655
8 2660 2597 2645 2705 2598 2529 2580 2646
8 2646 2580 2645 2705 2595 2525 2593 2657
8 2650 2584 2512 2585 2707 2647 2582 2648
8 2648 2582 2517 2589 2707 2647 2587 2653
8 2649 2583 2648 2708 2586 2513 2585 2651
8 2649 2583 2516 2588 2708 2648 2589 2654
8 2655 2590 2652 2710 2592 2521 2587 2653
8 2654 2589 2520 2591 2711 2653 2592 2656
8 2657 2593 2655 2712 2594 2523 2592 2656
8 2602 2536 2603 2663 2659 2596 2658 2714
8 2662 2602 2659 2715 2600 2534 2597 2660
8 2662 2602 2534 2600 2717 2663 2601 2661
8 2661 2601 2538 2604 2717 2663 2605 2665
8 2666 2606 2664 2718 2605 2539 2603 2663
8 2668 2608 2666 2720 2607 2541 2605 2665
8 2608 2542 2609 2669 2666 2606 2667 2721
8 2610 2544 2611 2671 2668 2608 2669 2723
8 2611 2545 2612 2672 2669 2609 2670 2724
8 2613 2547 2614 2674 2671 2611 2672 2726
8 2614 2548 2615 2675 2672 2612 2673 2727
8 2616 2550 2617 2677 2674 2614 2675 2729
8 2617 2551 2618 2678 2675 2615 2676 2730
8 2619 2553 2620 2680 2677 2617 2678 2732
8 2620 2554 2621 2681 2678 2618 2679 2733
8 2624 2556 2623 2684 2680 2620 2681 2735
8 2681 2621 2555 2623 2736 2682 2622 2683
8 2626 2559 2625 2685 2684 2623 2683 2737
8 2688 2628 2584 2650 2740 2686 2647 2707
8 2688 2628 2687 2742 2650 2584 2629 2690
8 2690 2629 2689 2745 2630 2564 2631 2692
8 2746 2690 2630 2691 2709 2650 2585 2651
8 2691 2630 2692 2747 2632 2565 2633 2694
8 2692 2631 2693 2748 2633 2566 2634 2695
8 2694 2633 2695 2750 2635 2568 2636 2697
8 2695 2634 2696 2751 2636 2569 2637 2698
8 2697 2636 2698 2753 2638 2571 2639 2700
8 2698 2637 2699 2754 2639 2572 2640 2701
8 2700 2639 2701 2755 2641 2574 2642 2702
8 2659 2596 2658 2714 2704 2644 2703 2757
8 2704 2644 2703 2757 2655 2590 2652 2710
8 2660 2597 2659 2715 2705 2645 2704 2758
8 2705 2645 2704 2758 2657 2593 2655 2712
8 2759 2706 2647 2707 2710 2652 2587 2653
8 2709 2650 2585 2651 2760 2707 2648 2708
8 2708 2648 2589 2654 2760 2707 2653 2711
8 2712 2655 2710 2761 2656 2592 2653 2711
8 2763 2713 2658 2714 2718 2664 2603 2663
8 2662 2602 2663 2717 2715 2659 2714 2764
8 2720 2666 2718 2767 2665 2605 2663 2717
8 2768 2719 2664 2718 2721 2667 2606 2666
8 2668 2608 2669 2723 2720 2666 2721 2770
8 2669 2609 2670 2724 2721 2667 2722 2771
8 2671 2611 2672 2726 2723 2669 2724 2773
8 2672 2612 2673 2727 2724 2670 2725 2774
8 2674 2614 2675 2729 2726 2672 2727 2776
8 2675 2615 2676 2730 2727 2673 2728 2777
8 2677 2617 2678 2732 2729 2675 2730 2779
8 2678 2618 2679 2733 2730 2676 2731 2780
8 2680 2620 2681 2735 2732 2678 2733 2782
8 2733 2679 2621 2681 2783 2734 2682 2736
8 2735 2681 2623 2684 2784 2736 2683 2737
8 2740 2686 2647 2707 2787 2738 2706 2759
8 2688 2628 2686 2740 2742 2687 2739 2789
8 2743 2688 2650 2709 2790 2740 2707 2760
8 2742 2687 2741 2792 2690 2629 2689 2745
8 2743 2688 2742 2793 2709 2650 2690 2746
8 2745 2689 2744 2795 2692 2631 2693 2748
8 2746 2690 2745 2796 2691 2630 2692 2747
8 2747 2692 2748 2797 2694 2633 2695 2750
8 2748 2693 2749 2798 2695 2634 2696 2751
8 2750 2695 2751 2800 2697 2636 2698 2753
8 2751 2696 2752 2801 2698 2637 2699 2754
8 2753 2698 2754 2802 2700 2639 2701 2755
8 2763 2713 2756 2804 2714 2658 2703 2757
8 2759 2706 2652 2710 2804 2756 2703 2757
8 2715 2659 2714 2764 2758 2704 2757 2805
8 2758 2704 2757 2805 2712 2655 2710 2761
8 2806 2759 2707 2760 2761 2710 2653 2711
8 2765 2716 2762 2808 2718 2664 2713 2763
8 2809 2763 2714 2764 2767 2718 2663 2717
8 2765 2716 2664 2718 2811 2766 2719 2768
8 2813 2768 2718 2767 2770 2721 2666 2720
8 2814 2769 2719 2768 2771 2722 2667 2721
8 2723 2669 2724 2773 2770 2721 2771 2816
8 2724 2670 2725 2774 2771 2722 2772 2817
8 2726 2672 2727 2776 2773 2724 2774 2819
8 2727 2673 2728 2777 2774 2725 2775 2820
8 2729 2675 2730 2779 2776 2727 2777 2822
8 2730 2676 2731 2780 2777 2728 2778 2823
8 2732 2678 2733 2782 2779 2730 2780 2825
8 2780 2731 2679 2733 2826 2781 2734 2783
8 2782 2733 2681 2735 2827 2783 2736 2784
8 2830 2785 2738 2787 2804 2756 2706 2759
8 2789 2739 2686 2740 2832 2786 2738 2787
8 2790 2740 2707 2760 2833 2787 2759 2806
8 2742 2687 2739 2789 2792 2741 2788 2835
8 2743 2688 2740 2790 2793 2742 2789 2836
8 2792 2741 2791 2838 2745 2689 2744 2795
8 2793 2742 2792 2839 2746 2690 2745 2796
8 2795 2744 2794 2841 2748 2693 2749 2798
8 2796 2745 2795 2842 2747 2692 2748 2797
8 2797 2748 2798 2843 2750 2695 2751 2800
8 2798 2749 2799 2844 2751 2696 2752 2801
8 2800 2751 2801 2845 2753 2698 2754 2802
8 2808 2762 2803 2847 2763 2713 2756 2804
8 2809 2763 2804 2848 2764 2714 2757 2805
8 2806 2759 2710 2761 2848 2804 2757 2805
8 2765 2716 2766 2811 2808 2762 2807 2850
8 2810 2765 2808 2851 2767 2718 2763 2809
8 2810 2765 2718 2767 2852 2811 2768 2813
8 2811 2766 2719 2768 2853 2812 2769 2814
8 2855 2814 2768 2813 2816 2771 2721 2770
8 2856 2815 2769 2814 2817 2772 2722 2771
8 2773 2724 2774 2819 2816 2771 2817 2858
8 2774 2725 2775 2820 2817 2772 2818 2859
8 2776 2727 2777 2822 2819 2774 2820 2861
8 2777 2728 2778 2823 2820 2775 2821 2862
8 2779 2730 2780 2825 2822 2777 2823 2864
8 2823 2778 2731 2780 2865 2824 2781 2826
8 2825 2780 2733 2782 2866 2826 2783 2827
8 2869 2828 2785 2830 2847 2803 2756 2804
8 2871 2829 2786 2832 2830 2785 2738 2787
8 2872 2830 2787 2833 2848 2804 2759 2806
8 2789 2739 2786 2832 2835 2788 2831 2874
8 2836 2789 2740 2790 2875 2832 2787 2833
8 2792 2741 2788 2835 2838 2791 2834 2877
8 2793 2742 2789 2836 2839 2792 2835 2878
8 2838 2791 2837 2880 2795 2744 2794 2841
8 2839 2792 2838 2881 2796 2745 2795 2842
8 2841 2794 2840 2882 2798 2749 2799 2844
8 2842 2795 2841 2883 2797 2748 2798 2843
8 2843 2798 2844 2884 2800 2751 2801 2845
8 2886 2846 2803 2847 2850 2807 2762 2808
8 2851 2808 2847 2887 2809 2763 2804 2848
8 2850 2807 2766 2811 2889 2849 2812 2853
8 2810 2765 2811 2852 2851 2808 2850 2890
8 2852 2811 2768 2813 2891 2853 2814 2855
8 2853 2812 2769 2814 2892 2854 2815 2856
8 2894 2856 2814 2855 2858 2817 2771 2816
8 2817 2772 2818 2859 2856 2815 2857 2895
8 2819 2774 2820 2861 2858 2817 2859 2897
8 2820 2775 2821 2862 2859 2818 2860 2898
8 2822 2777 2823 2864 2861 2820 2862 2900
8 2823 2778 2824 2865 2862 2821 2863 2901
8 2864 2823 2780 2825 2902 2865 2826 2866
8 2904 2867 2828 2869 2886 2846 2803 2847
8 2869 2828 2868 2906 2830 2785 2829 2871
8 2907 2869 2830 2872 2887 2847 2804 2848
8 2871 2829 2870 2909 2832 2786 2831 2874
8 2910 2871 2832 2875 2872 2830 2787 2833
8 2835 2788 2831 2874 2877 2834 2873 2912
8 2836 2789 2832 2875 2878 2835 2874 2913
8 2877 2834 2876 2915 2838 2791 2837 2880
8 2839 2792 2835 2878 2881 2838 2877 2916
8 2880 2837 2879 2917 2841 2794 2840 2882
8 2881 2838 2880 2918 2842 2795 2841 2883
8 2883 2841 2882 2919 2843 2798 2844 2884
8 2921 2885 2846 2886 2889 2849 2807 2850
8 2922 2886 2847 2887 2890 2850 2808 2851
8 2889 2849 2812 2853 2924 2888 2854 2892
8 2890 2850 2811 2852 2925 2889 2853 2891
8 2891 2853 2814 2855 2926 2892 2856 2894
8 2892 2854 2815 2856 2927 2893 2857 2895
8 2858 2817 2859 2897 2894 2856 2895 2929
8 2859 2818 2860 2898 2895 2857 2896 2930
8 2861 2820 2862 2900 2897 2859 2898 2932
8 2862 2821 2863 2901 2898 2860 2899 2933
8 2864 2823 2865 2902 2900 2862 2901 2934
8 2904 2867 2846 2886 2936 2903 2885 2921
8 2904 2867 2903 2936 2869 2828 2868 2906
8 2937 2904 2869 2907 2922 2886 2847 2887
8 2906 2868 2905 2939 2871 2829 2870 2909
8 2907 2869 2906 2940 2872 2830 2871 2910
8 2909 2870 2908 2942 2874 2831 2873 2912
8 2910 2871 2909 2943 2875 2832 2874 2913
8 2912 2873 2911 2945 2877 2834 2876 2915
8 2878 2835 2874 2913 2916 2877 2912 2946
8 2915 2876 2914 2947 2880 2837 2879 2917
8 2916 2877 2915 2948 2881 2838 2880 2918
8 2918 2880 2917 2949 2883 2841 2882 2919
8 2921 2885 2849 2889 2951 2920 2888 2924
8 2952 2921 2886 2922 2925 2889 2850 2890
8 2924 2888 2854 2892 2954 2923 2893 2927
8 2925 2889 2853 2891 2955 2924 2892 2926
8 2926 2892 2856 2894 2956 2927 2895 2929
8 2895 2857 2896 2930 2927 2893 2928 2957
8 2897 2859 2898 2932 2929 2895 2930 2959
8 2898 2860 2899 2933 2930 2896 2931 2960
8 2900 2862 2901 2934 2932 2898 2933 2961
8 2936 2903 2885 2921 2963 2935 2920 2951
8 2936 2903 2935 2963 2906 2868 2905 2939
8 2937 2904 2886 2922 2964 2936 2921 2952
8 2937 2904 2936 2964 2907 2869 2906 2940
8 2939 2905 2938 2966 2909 2870 2908 2942
8 2940 2906 2939 2967 2910 2871 2909 2943
8 2942 2908 2941 2969 2912 2873 2911 2945
8 2943 2909 2942 2970 2913 2874 2912 2946
8 2945 2911 2944 2971 2915 2876 2914 2947
8 2946 2912 2945 2972 2916 2877 2915 2948
8 2948 2915 2947 2973 2918 2880 2917 2949
8 2951 2920 2888 2924 2975 2950 2923 2954
8 2952 2921 2889 2925 2976 2951 2924 2955
8 2927 2893 2928 2957 2954 2923 2953 2978
8 2955 2924 2892 2926 2979 2954 2927 2956
8 2929 2895 2930 2959 2956 2927 2957 2980
8 2930 2896 2931 2960 2957 2928 2958 2981
8 2932 2898 2933 2961 2959 2930 2960 2982
8 2951 2920 2950 2975 2963 2935 2962 2984
8 2963 2935 2962 2984 2939 2905 2938 2966
8 2964 2936 2921 2952 2985 2963 2951 2976
8 2964 2936 2963 2985 2940 2906 2939 2967
8 2966 2938 2965 2987 2942 2908 2941 2969
8 2967 2939 2966 2988 2943 2909 2942 2970
8 2969 2941 2968 2989 2945 2911 2944 2971
8 2970 2942 2969 2990 2946 2912 2945 2972
8 2972 2945 2971 2991 2948 2915 2947 2973
8 2954 2923 2953 2978 2975 2950 2974 2993
8 2976 2951 2924 2955 2994 2975 2954 2979
8 2957 2928 2958 2981 2978 2953 2977 2995
8 2956 2927 2957 2980 2979 2954 2978 2996
8 2959 2930 2960 2982 2980 2957 2981 2997
8 2984 2962 2983 2999 2966 2938 2965 2987
8 2975 2950 2974 2993 2984 2962 2983 2999
8 2976 2951 2975 2994 2985 2963 2984 3000
8 2985 2963 2984 3000 2967 2939 2966 2988
8 2987 2965 2986 3001 2969 2941 2968 2989
8 2988 2966 2987 3002 2970 2942 2969 2990
8 2990 2969 2989 3003 2972 2945 2971 2991
8 2978 2953 2977 2995 2993 2974 2992 3004
8 2979 2954 2978 2996 2994 2975 2993 3005
8 2980 2957 2981 2997 2996 2978 2995 3006
8 2974 2993 2999 2983 2992 3004 3007 2998
8 2983 2999 2987 2965 2998 3007 3001 2986
8 3000 2984 2999 3008 2988 2966 2987 3002
8 2994 2975 2993 3005 3000 2984 2999 3008
8 3002 2987 3001 3009 2990 2969 2989 3003
8 2996 2978 2995 3006 3005 2993 3004 3010
8 3005 2993 3004 3010 3008 2999 3007 3011
8 3008 2999 3007 3011 3002 2987 3001 3009

CELL_TYPES 1910
12
12
12
12
12
12
12
12
12
12
12
12
12
12
12
12
12
12
12
12
12
12
12
12
12
12
12
12
12
12
12
12
12
12
12
12
12
12
12
12
12
12
12
12
12
12
12
12
12
12
12
12
12
12
12
12
12
12
12
12
12
12
12
12
12
12
12
12
12
12
12
12
12
12
12
12
12
12
12
12
12
12
12
12
12
12
12
12
12
12
12
12
12
12
12
12
12
12
12
12
12
12
12
12
12
12
12
12
12
12
12
12
12
12
12
12
12
12
12
12
12
12
12
12
12
12
12
12
12
12
12
12
12
12
12
12
12
12
12
12
12
12
12
12
12
12
12
12
12
12
12
12
12
12
12
12
12
12
12
12
12
12
12
12
12
12
12
12
12
12
12
12
12
12
12
12
12
12
12
12
12
12
12
12
12
12
12
12
12
12
12
12
12
12
12
12
12
12
12
12
12
12
12
12
12
12
12
12
12
12
12
12
12
12
12
12
12
12
12
12
12
12
12
12
12
12
12
12
12
12
12
12
12
12
12
12
12
12
12
12
12
12
12
12
12
12
12
12
12
12
12
12
12
12
12
12
12
12
12
12
12
12
12
12
12
12
12
12
12
12
12
12
12
12
12
12
12
12
12
12
12
12
12
12
12
12
12
12
12
12
12
12
12
12
12
12
12
12
12
12
12
12
12
12
12
12
12
12
12
12
12
12
12
12
12
12
12
12
12
12
12
12
12
12
12
12
12
12
12
12
12
12
12
12
12
12
12
12
12
12
12
12
12
12
12
12
12
12
12
12
12
12
12
12
12
12
12
12
12
12
12
12
12
12
12
12
12
12
12
12
12
12
12
12
12
12
12
12
12
12
12
12
12
12
12
12
12
12
12
12
12
12
12
12
12
12
12
12
12
12
12
12
12
12
12
12
12
12
12
12
12
12
12
12
12
12
12
12
12
12
12
12
12
12
12
12
12
12
12
12
12
12
12
12
12
12
12
12
12
12
12
12
12
12
12
12
12
12
12
12
12
12
12
12
12
12
12
12
12
12
12
12
12
12
12
12
12
12
12
12
12
12
12
12
12
12
12
12
12
12
12
12
12
12
12
12
12
12
12
12
12
12
12
12
12
12
12
12
12
12
12
12
12
12
12
12
12
12
12
12
12
12
12
12
12
12
12
12
12
12
12
12
12
12
12
12
12
12
12
12
12
12
12
12
12
12
12
12
12
12
12
12
12
12
12
12
12
12
12
12
12
12
12
12
12
12
12
12
12
12
12
12
12
12
12
12
12
12
12
12
12
12
12
12
12
12
12
12
12
12
12
12
12
12
12
12
12
12
12
12
12
12
12
12
12
12
12
12
12
12
12
12
12
12
12
12
12
12
12
12
12
12
12
12
12
12
12
12
12
12
12
12
12
12
12
12
12
12
12
12
12
12
12
12
12
12
12
12
12
12
12
12
12
12
12
12
12
12
12
12
12
12
12
12
12
12
12
12
12
12
12
12
12
12
12
12
12
12
12
12
12
12
12
12
12
12
12
12
12
12
12
12
12
12
12
12
12
12
12
12
12
12
12
12
12
12
12
12
12
12
12
12
12
12
12
12
12
12
12
12
12
12
12
12
12
12
12
12
12
12
12
12
12
12
12
12
12
12
12
12
12
12
12
12
12
12
12
12
12
12
12
12
12
12
12
12
12
12
12
12
12
12
12
12
12
12
12
12
12
12
12
12
12
12
12
12
12
12
12
12
12
12
12
12
12
12
12
12
12
12
12
12
12
12
12
12
12
12
12
12
12
12
12
12
12
12
12
12
12
12
12
12
12
12
12
12
12
12
12
12
12
12
12
12
12
12
12
12
12
12
12
12
12
12
12
12
12
12
12
12
12
12
12
12
12
12
12
12
12
12
12
12
12
12
12
12
12
12
12
12
12
12
12
12
12
12
12
12
12
12
12
12
12
12
12
12
12
12
12
12
12
12
12
12
12
12
12
12
12
12
12
12
12
12
12
12
12
12
12
12
12
12
12
12
12
12
12
12
12
12
12
12
12
12
12
12
12
12
12
12
12
12
12
12
12
12
12
12
12
12
12
12
12
12
12
12
12
12
12
12
12
12
12
12
12
12
12
12
12
12
12
12
12
12
12
12
12
12
12
12
12
12
12
12
12
12
12
12
12
12
12
12
12
12
12
12
12
12
12
12
12
12
12
12
12
12
12
12
12
12
12
12
12
12
12
12
12
12
12
12
12
12
12
12
12
12
12
12
12
12
12
12
12
12
12
12
12
12
12
12
12
12
12
12
12
12
12
12
12
12
12
12
12
12
12
12
12
12
12
12
12
12
12
12
12
12
12
12
12
12
12
12
12
12
12
12
12
12
12
12
12
12
12
12
12
12
12
12
12
12
12
12
12
12
12
12
12
12
12
12
12
12
12
12
12
12
12
12
12
12
12
12
12
12
12
12
12
12
12
12
12
12
12
12
12
12
12
12
12
12
12
12
12
12
12
12
12
12
12
12
12
12
12
12
12
12
12
12
12
12
12
12
12
12
12
12
12
12
12
12
12
12
12
12
12
12
12
12
12
12
12
12
12
12
12
12
12
12
12
12
12
12
12
12
12
12
12
12
12
12
12
12
12
12
12
12
12
12
12
12
12
12
12
12
12
12
12
12
12
12
12
12
12
12
12
12
12
12
12
12
12
12
12
12
12
12
12
12
12
12
12
12
12
12
12
12
12
12
12
12
12
12
12
12
12
12
12
12
12
12
12
12
12
12
12
12
12
12
12
12
12
12
12
12
12
12
12
12
12
12
12
12
12
12
12
12
12
12
12
12
12
12
12
12
12
12
12
12
12
12
12
12
12
12
12
12
12
12
12
12
12
12
12
12
12
12
12
12
12
12
12
12
12
12
12
12
12
12
12
12
12
12
12
12
12
12
12
12
12
12
12
12
12
12
12
12
12
12
12
12
12
12
12
12
12
12
12
12
12
12
12
12
12
12
12
12
12
12
12
12
12
12
12
12
12
12
12
12
12
12
12
12
12
12
12
12
12
12
12
12
12
12
12
12
12
12
12
12
12
12
12
12
12
12
12
12
12
12
12
12
12
12
12
12
12
12
12
12
12
12
12
12
12
12
12
12
12
12
12
12
12
12
12
12
12
12
12
12
12
12
12
12
12
12
12
12
12
12
12
12
12
12
12
12
12
12
12
12
12
12
12
12
12
12
12
12
12
12
12
12
12
12
12
12
12
12
12
12
12
12
12
12
12
12
12
12
12
12
12
12
12
12
12
12
12
12
12
12
12
12
12
12
12
12
12
12
12
12
12
12
12
12
12
12
12
12
12
12
12
12
12
12
12
12
12
12
12
12
12
12
12
12
12
12
12
12
12
12
12
12
12
12
12
12
12
12
12
12
12
12
12
12
12
12
12
12
12
12
12
12
12
12
12
12
12
12
12
12
12
12
12
12
12
12
12
12
12
12
12
12
12
12
12
12
12
12
12
12
12
12
12
12
12
12
12
12
12
12
12
12
12
12
12
12
12
12
12
12
12
12
12
12
12
12
12
12
12
12
12
12
12
12
12
12
12
12
12
12
12
12
12
12
12
12
12
12
12
12
12
12
12
12
12
12
12
12
12
12
12
12
12
12
12
12
12
12
12
12
12
12
12
12
12
12
12
12
12
12
12
12
12
12
12
12
12
12
12
12
12
12
12
12
12
12
12
12
12
12
12
12
12
12
12
12
12
12
12
12
12
12
12
12
12
12
12
12
12
12
12
12
12
12
12
12
12
12
12
12
12
12
12
12
12
12
12
12
12
12
12
12
12
12
12
12
12
12
12
12
12
12
12
12
12
12
12
12
12
12
12
12
12
12
12
12
12
12
12
12
12
12
12
12
12
12
12
12
12
12
12
12
12
12
12
12
12
12
12
12
12
12
12
12
12
12
12
12
12
12
12
12
12
12
12
12
12
12
12
12
12
12
12
12
12
12
12
12
12
12
12
12
12
12
12
12
12
12
12
12
12
12
12
12
12
12
12
12
12
12
12
12
12
12
12
12
12
12
12
12
12
12
12
12
12
12
12
12
12
12
12
12
12
12
12
12
12
12
12
12
12
12
12
12
12
12
12
12
12
12
12
12
12
12
12
12
12
12
12
12
12
12
12
12
12
12
12
12
12
12
12
12
12
12
12
12
12
12
12
12
12
12
12
12
12
12
12
12
12
12
12
12
12
12
12
12
12
12
12
12
12
12
12
12
12
12
12
12
12
12
12
12
12
12
12
12
12
12
12
12
12
12
12
12
12
12
12
12
12
12
12
12

POINT_DATA 3012
SCALARS Jp_lamdaP float 4
LOOKUP_TABLE default
1 1 1 1
1 1 1 1
1 1 1 1
1 1 1 1
1 1 1 1
1 1 1 1
0.999983 1 1 0.999983
1 1 1 1
1 1 1 1
1 1 1 1
1 1 1 1
1 1 1 1
1 1 1 1
1 1 1 1
1 1 1 1
1 1 1 1
1 1 1 1
1 1 1 1
0.999984 1 1 0.999984
1 1 1 1
1 1 1 1
1 1 1 1
0.999963 1 1 0.999963
0.999978 1 1 0.999978
1 1 1 1
0.999988 1 1 0.999988
0.999934 1 1 0.999934
1 1 1 1
1 1 1 1
1 1 1 1
1 1 1 1
1 1 1 1
1 1 1 1
1 1 1 1
0.999993 1 1 0.999993
1 1 1 1
1 1 1 1
1 1 1 1
0.999949 1 1 0.999949
1 1 1 1
1 1 1 1
1 1 1 1
1 1 1 1
1 1 1 1
0.999975 1 1 0.999975
1 1 1 1
0.999983 1 1 0.999983
1 1 1 1
1 1 1 1
1 1 1 1
0.999984 1 1 0.999984
1 1 1 1
1 1 1 1
1 1 1 1
1 1 1 1
0.999963 1 1 0.999963
0.999989 1 1 0.999989
0.999979 1 1 0.999979
0.999932 1 1 0.999932
1 1 1 1
1 1 1 1
0.999976 1 1 0.999976
0.999956 1 1 0.999956
0.999971 1 1 0.999971
0.999883 1 1 0.999883
0.999911 1 1 0.999911
1 1 1 1
0.999992 1 1 0.999992
0.999947 1 1 0.999947
0.999844 1 1 0.999844
1 1 1 1
1 1 1 1
1 1 1 1
1 1 1 1
1 1 1 1
1 1 1 1
0.999995 1 1 0.999995
1 1 1 1
1 1 1 1
1 1 1 1
0.999949 1 1 0.999949
1 1 1 1
1 1 1 1
0.999989 1 1 0.999989
0.999997 1 1 0.999997
0.999904 1 1 0.999904
1 1 1 1
0.99994 1 1 0.99994
0.999958 1 1 0.999958
0.999879 1 1 0.999879
1 1 1 1
1 1 1 1
1 1 1 1
1 1 1 1
1 1 1 1
1 1 1 1
0.999976 1 1 0.999976
1 1 1 1
0.999984 1 1 0.999984
1 1 1 1
0.999972 1 1 0.999972
0.999979 1 1 0.999979
0.999844 1 1 0.999844
0.999986 1 1 0.999986
0.999862 1 1 0.999862
1 1 1 1
1 1 1 1
1 1 1 1
1 1 1 1
0.999964 1 1 0.999964
0.999979 1 1 0.999979
0.99999 1 1 0.99999
0.99993 1 1 0.99993
1 1 1 1
1 1 1 1
0.999964 1 1 0.999964
0.999956 1 1 0.999956
1 1 1 1
0.999996 1 1 0.999996
0.999972 1 1 0.999972
0.999877 1 1 0.999877
0.999945 1 1 0.999945
0.999915 1 1 0.999915
0.999844 1 1 0.999844
0.999974 1 1 0.999974
0.999955 1 1 0.999955
0.999851 1 1 0.999851
0.99986 1 1 0.99986
0.999893 1 1 0.999893
0.999799 1 1 0.999799
1 1 1 1
0.999835 1 1 0.999835
1 1 1 1
0.999952 1 1 0.999952
0.999854 1 1 0.999854
0.999809 1 1 0.999809
1 1 1 1
0.999966 1 1 0.999966
1 1 1 1
1 1 1 1
0.999996 1 1 0.999996
1 1 1 1
1 1 1 1
1 1 1 1
0.999949 1 1 0.999949
1 1 1 1
1 1 1 1
0.99999 1 1 0.99999
0.999998 1 1 0.999998
0.999904 1 1 0.999904
1 1 1 1
0.99994 1 1 0.99994
0.999959 1 1 0.999959
0.999876 1 1 0.999876
1 1 1 1
1 1 1 1
0.999972 1 1 0.999972
0.999886 1 1 0.999886
0.999924 1 1 0.999924
0.999828 1 1 0.999828
0.999967 1 1 0.999967
0.999867 1 1 0.999867
0.999884 1 1 0.999884
0.999845 1 1 0.999845
1 1 1 1
1 1 1 1
1 1 1 1
1 1 1 1
1 1 1 1
1 1 1 1
1 1 1 1
0.999985 1 1 0.999985
0.999977 1 1 0.999977
1 1 1 1
1 1 1 1
0.999972 1 1 0.999972
0.99998 1 1 0.99998
0.999844 1 1 0.999844
0.999987 1 1 0.999987
0.999862 1 1 0.999862
0.999971 1 1 0.999971
0.999837 1 1 0.999837
0.999853 1 1 0.999853
0.999778 1 1 0.999778
0.999873 1 1 0.999873
0.999795 1 1 0.999795
1 1 1 1
1 1 1 1
0.999952 1 1 0.999952
0.999957 1 1 0.999957
1 1 1 1
1 1 1 1
0.999972 1 1 0.999972
0.999871 1 1 0.999871
0.999919 1 1 0.999919
0.999943 1 1 0.999943
0.999845 1 1 0.999845
0.999973 1 1 0.999973
0.999955 1 1 0.999955
0.999839 1 1 0.999839
0.999864 1 1 0.999864
1 1 1 1
1 1 1 1
0.999954 1 1 0.999954
0.999894 1 1 0.999894
0.999792 1 1 0.999792
0.999853 1 1 0.999853
0.999838 1 1 0.999838
0.999809 1 1 0.999809
1 1 1 1
0.999966 1 1 0.999966
0.999837 1 1 0.999837
0.999853 1 1 0.999853
0.999776 1 1 0.999776
0.99977 1 1 0.99977
0.999824 1 1 0.999824
0.999765 1 1 0.999765
1 1 1 1
0.999803 1 1 0.999803
0.99996 1 1 0.99996
0.999867 1 1 0.999867
0.999818 1 1 0.999818
0.999799 1 1 0.999799
0.999964 1 1 0.999964
0.999971 1 1 0.999971
0.999881 1 1 0.999881
0.999991 1 1 0.999991
1 1 1 1
1 1 1 1
0.999999 1 1 0.999999
0.999904 1 1 0.999904
1 1 1 1
0.999959 1 1 0.999959
0.999941 1 1 0.999941
0.999873 1 1 0.999873
1 1 1 1
1 1 1 1
0.999972 1 1 0.999972
0.999886 1 1 0.999886
0.999925 1 1 0.999925
0.999828 1 1 0.999828
0.999967 1 1 0.999967
0.999869 1 1 0.999869
0.999883 1 1 0.999883
0.999842 1 1 0.999842
1 1 1 1
0.999971 1 1 0.999971
0.999974 1 1 0.999974
0.999894 1 1 0.999894
0.999813 1 1 0.999813
0.999852 1 1 0.999852
0.999791 1 1 0.999791
0.999891 1 1 0.999891
0.999834 1 1 0.999834
0.999836 1 1 0.999836
0.999819 1 1 0.999819
0.999987 1 1 0.999987
1 1 1 1
1 1 1 1
1 1 1 1
1 1 1 1
1 1 1 1
1 1 1 1
1 1 1 1
1 1 1 1
0.999987 1 1 0.999987
0.999982 1 1 0.999982
0.999862 1 1 0.999862
0.999844 1 1 0.999844
0.999973 1 1 0.999973
1 1 1 1
0.999971 1 1 0.999971
0.999837 1 1 0.999837
0.999853 1 1 0.999853
0.999777 1 1 0.999777
0.999873 1 1 0.999873
0.999795 1 1 0.999795
0.999835 1 1 0.999835
0.999774 1 1 0.999774
0.999785 1 1 0.999785
0.999755 1 1 0.999755
0.999804 1 1 0.999804
0.999771 1 1 0.999771
0.999972 1 1 0.999972
0.999955 1 1 0.999955
0.999828 1 1 0.999828
0.999867 1 1 0.999867
1 1 1 1
1 1 1 1
0.999957 1 1 0.999957
0.999894 1 1 0.999894
0.999786 1 1 0.999786
0.999842 1 1 0.999842
0.999851 1 1 0.999851
0.99981 1 1 0.99981
1 1 1 1
0.999966 1 1 0.999966
0.999832 1 1 0.999832
0.999853 1 1 0.999853
0.999775 1 1 0.999775
0.999778 1 1 0.999778
1 1 1 1
0.999959 1 1 0.999959
0.999871 1 1 0.999871
0.999825 1 1 0.999825
0.999764 1 1 0.999764
0.999813 1 1 0.999813
0.999803 1 1 0.999803
0.999799 1 1 0.999799
0.999964 1 1 0.999964
0.999878 1 1 0.999878
0.99997 1 1 0.99997
0.999778 1 1 0.999778
0.999772 1 1 0.999772
0.999742 1 1 0.999742
0.999743 1 1 0.999743
0.999791 1 1 0.999791
0.999765 1 1 0.999765
0.999963 1 1 0.999963
0.999797 1 1 0.999797
0.999886 1 1 0.999886
0.999822 1 1 0.999822
0.99979 1 1 0.99979
0.999809 1 1 0.999809
0.999978 1 1 0.999978
0.999886 1 1 0.999886
0.999871 1 1 0.999871
0.999842 1 1 0.999842
0.999886 1 1 0.999886
1 1 1 1
1 1 1 1
0.999972 1 1 0.999972
0.999926 1 1 0.999926
0.999828 1 1 0.999828
0.999968 1 1 0.999968
0.999883 1 1 0.999883
0.999872 1 1 0.999872
0.999838 1 1 0.999838
1 1 1 1
0.999971 1 1 0.999971
0.999974 1 1 0.999974
0.999893 1 1 0.999893
0.999813 1 1 0.999813
0.999852 1 1 0.999852
0.999791 1 1 0.999791
0.999891 1 1 0.999891
0.999837 1 1 0.999837
0.999835 1 1 0.999835
0.999825 1 1 0.999825
1 1 1 1
0.999978 1 1 0.999978
0.999894 1 1 0.999894
0.999894 1 1 0.999894
0.999841 1 1 0.999841
0.999783 1 1 0.999783
0.999814 1 1 0.999814
0.999778 1 1 0.999778
0.999839 1 1 0.999839
0.999814 1 1 0.999814
0.99979 1 1 0.99979
0.999984 1 1 0.999984
0.999913 1 1 0.999913
0.99999 1 1 0.99999
0.999988 1 1 0.999988
1 1 1 1
1 1 1 1
1 1 1 1
1 1 1 1
1 1 1 1
1 1 1 1
1 1 1 1
1 1 1 1
1 1 1 1
1 1 1 1
1 1 1 1
0.999873 1 1 0.999873
0.999853 1 1 0.999853
0.999795 1 1 0.999795
0.999777 1 1 0.999777
0.999837 1 1 0.999837
0.999971 1 1 0.999971
0.999835 1 1 0.999835
0.999773 1 1 0.999773
0.999785 1 1 0.999785
0.999755 1 1 0.999755
0.999804 1 1 0.999804
0.999771 1 1 0.999771
0.999771 1 1 0.999771
0.999756 1 1 0.999756
0.99976 1 1 0.99976
0.999749 1 1 0.999749
0.99978 1 1 0.99978
0.999778 1 1 0.999778
0.999828 1 1 0.999828
0.999853 1 1 0.999853
0.999773 1 1 0.999773
0.999785 1 1 0.999785
1 1 1 1
0.999959 1 1 0.999959
0.999876 1 1 0.999876
0.999825 1 1 0.999825
0.999762 1 1 0.999762
0.999803 1 1 0.999803
0.999808 1 1 0.999808
0.999798 1 1 0.999798
0.999965 1 1 0.999965
0.999875 1 1 0.999875
0.99997 1 1 0.99997
0.999774 1 1 0.999774
0.999771 1 1 0.999771
0.999738 1 1 0.999738
0.999745 1 1 0.999745
0.999963 1 1 0.999963
0.999886 1 1 0.999886
0.999827 1 1 0.999827
0.999793 1 1 0.999793
0.999767 1 1 0.999767
0.999786 1 1 0.999786
0.999797 1 1 0.999797
0.999812 1 1 0.999812
0.999886 1 1 0.999886
0.999837 1 1 0.999837
0.999978 1 1 0.999978
0.999871 1 1 0.999871
0.999743 1 1 0.999743
0.999734 1 1 0.999734
0.99972 1 1 0.99972
0.999741 1 1 0.999741
0.999791 1 1 0.999791
0.999778 1 1 0.999778
0.999889 1 1 0.999889
0.999816 1 1 0.999816
0.99984 1 1 0.99984
0.99979 1 1 0.99979
0.999774 1 1 0.999774
0.999815 1 1 0.999815
0.999984 1 1 0.999984
0.999875 1 1 0.999875
0.999845 1 1 0.999845
0.999824 1 1 0.999824
0.999818 1 1 0.999818
1 1 1 1
0.999812 1 1 0.999812
0.999975 1 1 0.999975
0.999971 1 1 0.999971
0.999893 1 1 0.999893
0.999852 1 1 0.999852
0.999791 1 1 0.999791
0.999891 1 1 0.999891
0.999834 1 1 0.999834
0.999841 1 1 0.999841
0.999831 1 1 0.999831
1 1 1 1
0.999978 1 1 0.999978
0.999894 1 1 0.999894
0.999894 1 1 0.999894
0.99984 1 1 0.99984
0.999782 1 1 0.999782
0.999814 1 1 0.999814
0.999776 1 1 0.999776
0.999839 1 1 0.999839
0.999817 1 1 0.999817
0.999793 1 1 0.999793
0.999981 1 1 0.999981
0.999896 1 1 0.999896
0.99984 1 1 0.99984
0.999839 1 1 0.999839
0.999817 1 1 0.999817
0.999778 1 1 0.999778
0.999796 1 1 0.999796
0.999791 1 1 0.999791
0.999796 1 1 0.999796
0.999768 1 1 0.999768
0.999985 1 1 0.999985
0.999895 1 1 0.999895
0.999907 1 1 0.999907
0.999856 1 1 0.999856
0.999918 1 1 0.999918
0.999992 1 1 0.999992
0.99999 1 1 0.99999
1 1 1 1
0.999989 1 1 0.999989
1 1 1 1
1 1 1 1
1 1 1 1
1 1 1 1
1 1 1 1
1 1 1 1
1 1 1 1
1 1 1 1
1 1 1 1
1 1 1 1
1 1 1 1
0.999804 1 1 0.999804
0.999785 1 1 0.999785
0.999772 1 1 0.999772
0.999755 1 1 0.999755
0.999773 1 1 0.999773
0.999835 1 1 0.999835
0.999771 1 1 0.999771
0.999756 1 1 0.999756
0.99976 1 1 0.99976
0.999748 1 1 0.999748
0.99978 1 1 0.99978
0.999778 1 1 0.999778
0.999752 1 1 0.999752
0.999753 1 1 0.999753
0.999756 1 1 0.999756
0.999741 1 1 0.999741
0.999784 1 1 0.999784
0.999789 1 1 0.999789
0.999771 1 1 0.999771
0.999771 1 1 0.999771
0.999735 1 1 0.999735
0.999746 1 1 0.999746
0.999963 1 1 0.999963
0.999886 1 1 0.999886
0.999831 1 1 0.999831
0.999795 1 1 0.999795
0.999769 1 1 0.999769
0.999797 1 1 0.999797
0.999782 1 1 0.999782
0.999814 1 1 0.999814
0.999887 1 1 0.999887
0.999832 1 1 0.999832
0.999977 1 1 0.999977
0.999872 1 1 0.999872
0.999744 1 1 0.999744
0.999734 1 1 0.999734
0.999717 1 1 0.999717
0.999741 1 1 0.999741
0.99989 1 1 0.99989
0.999843 1 1 0.999843
0.99979 1 1 0.99979
0.99979 1 1 0.99979
0.999785 1 1 0.999785
0.999772 1 1 0.999772
0.999816 1 1 0.999816
0.999822 1 1 0.999822
0.999845 1 1 0.999845
0.999816 1 1 0.999816
0.999823 1 1 0.999823
0.999977 1 1 0.999977
0.999877 1 1 0.999877
0.99973 1 1 0.99973
0.999709 1 1 0.999709
0.999756 1 1 0.999756
0.999806 1 1 0.999806
0.999851 1 1 0.999851
0.99984 1 1 0.99984
0.99981 1 1 0.99981
0.999754 1 1 0.999754
0.999764 1 1 0.999764
0.999976 1 1 0.999976
0.999899 1 1 0.999899
0.999821 1 1 0.999821
0.999825 1 1 0.999825
0.999785 1 1 0.999785
0.999798 1 1 0.999798
1 1 1 1
0.999978 1 1 0.999978
0.999781 1 1 0.999781
0.999894 1 1 0.999894
0.999894 1 1 0.999894
0.999838 1 1 0.999838
0.999814 1 1 0.999814
0.999775 1 1 0.999775
0.99984 1 1 0.99984
0.999797 1 1 0.999797
0.999819 1 1 0.999819
0.999982 1 1 0.999982
0.999896 1 1 0.999896
0.999843 1 1 0.999843
0.999838 1 1 0.999838
0.999814 1 1 0.999814
0.999777 1 1 0.999777
0.999794 1 1 0.999794
0.999793 1 1 0.999793
0.999794 1 1 0.999794
0.999764 1 1 0.999764
0.999899 1 1 0.999899
0.999829 1 1 0.999829
0.999807 1 1 0.999807
0.999802 1 1 0.999802
0.999795 1 1 0.999795
0.999821 1 1 0.999821
0.999766 1 1 0.999766
0.999783 1 1 0.999783
0.999765 1 1 0.999765
0.999717 1 1 0.999717
0.999986 1 1 0.999986
0.999899 1 1 0.999899
0.999834 1 1 0.999834
0.999902 1 1 0.999902
0.999918 1 1 0.999918
0.999848 1 1 0.999848
0.999808 1 1 0.999808
0.999844 1 1 0.999844
0.999922 1 1 0.999922
0.999993 1 1 0.999993
0.999992 1 1 0.999992
1 1 1 1
0.999991 1 1 0.999991
1 1 1 1
1 1 1 1
1 1 1 1
1 1 1 1
1 1 1 1
1 1 1 1
1 1 1 1
1 1 1 1
1 1 1 1
1 1 1 1
1 1 1 1
0.999779 1 1 0.999779
0.99976 1 1 0.99976
0.999778 1 1 0.999778
0.999746 1 1 0.999746
0.999756 1 1 0.999756
0.999771 1 1 0.999771
0.999752 1 1 0.999752
0.999754 1 1 0.999754
0.999754 1 1 0.999754
0.999736 1 1 0.999736
0.999784 1 1 0.999784
0.999793 1 1 0.999793
0.999758 1 1 0.999758
0.999751 1 1 0.999751
0.999752 1 1 0.999752
0.999823 1 1 0.999823
0.999745 1 1 0.999745
0.999735 1 1 0.999735
0.999714 1 1 0.999714
0.999742 1 1 0.999742
0.99989 1 1 0.99989
0.999847 1 1 0.999847
0.999789 1 1 0.999789
0.999788 1 1 0.999788
0.999791 1 1 0.999791
0.999816 1 1 0.999816
0.99977 1 1 0.99977
0.999829 1 1 0.999829
0.999845 1 1 0.999845
0.999813 1 1 0.999813
0.999822 1 1 0.999822
0.99997 1 1 0.99997
0.999878 1 1 0.999878
0.999726 1 1 0.999726
0.999713 1 1 0.999713
0.999758 1 1 0.999758
0.99985 1 1 0.99985
0.999815 1 1 0.999815
0.999752 1 1 0.999752
0.999803 1 1 0.999803
0.999772 1 1 0.999772
0.999838 1 1 0.999838
0.999976 1 1 0.999976
0.999825 1 1 0.999825
0.999801 1 1 0.999801
0.999788 1 1 0.999788
0.999824 1 1 0.999824
0.999892 1 1 0.999892
0.999721 1 1 0.999721
0.99971 1 1 0.99971
0.999784 1 1 0.999784
0.999838 1 1 0.999838
0.999826 1 1 0.999826
0.999799 1 1 0.999799
0.999768 1 1 0.999768
0.999726 1 1 0.999726
0.999982 1 1 0.999982
0.999909 1 1 0.999909
0.999836 1 1 0.999836
0.999767 1 1 0.999767
0.999801 1 1 0.999801
0.99977 1 1 0.99977
0.999982 1 1 0.999982
0.999896 1 1 0.999896
0.999776 1 1 0.999776
0.999838 1 1 0.999838
0.999846 1 1 0.999846
0.999811 1 1 0.999811
0.999793 1 1 0.999793
0.999795 1 1 0.999795
0.999791 1 1 0.999791
0.999759 1 1 0.999759
0.999899 1 1 0.999899
0.999831 1 1 0.999831
0.999811 1 1 0.999811
0.999806 1 1 0.999806
0.999797 1 1 0.999797
0.999825 1 1 0.999825
0.999768 1 1 0.999768
0.999796 1 1 0.999796
0.999761 1 1 0.999761
0.999713 1 1 0.999713
0.999828 1 1 0.999828
0.999784 1 1 0.999784
0.999777 1 1 0.999777
0.999776 1 1 0.999776
0.999832 1 1 0.999832
0.999823 1 1 0.999823
0.999717 1 1 0.999717
0.999726 1 1.00003 0.999695
0.999903 1 1 0.999903
0.999838 1 1 0.999838
0.999799 1 1 0.999799
0.999918 1 1 0.999918
0.99984 1 1 0.99984
0.999922 1 1 0.999922
0.999802 1 1 0.999802
0.999847 1 1 0.999847
0.999773 1 1 0.999773
0.999798 1 1 0.999798
0.999848 1 1 0.999848
0.999924 1 1 0.999924
0.999993 1 1 0.999993
0.999993 1 1 0.999993
1 1 1 1
0.999992 1 1 0.999992
1 1 1 1
1 1 1 1
1 1 1 1
1 1 1 1
1 1 1 1
1 1 1 1
1 1 1 1
1 1 1 1
1 1 1 1
1 1 1 1
1 1 1 1
0.999784 1 1 0.999784
0.999752 1 1 0.999752
0.999797 1 1 0.999797
0.99973 1 1 0.99973
0.999754 1 1 0.999754
0.999752 1 1 0.999752
0.999755 1 1 0.999755
0.99975 1 1 0.99975
0.999757 1 1 0.999757
0.999821 1 1 0.999821
0.999755 1 1 0.999755
0.999756 1 1 0.999756
0.999794 1 1 0.999794
0.999723 1 1 0.999723
0.999717 1 1 0.999717
0.99976 1 1 0.99976
0.99985 1 1 0.99985
0.99982 1 1 0.99982
0.999751 1 1 0.999751
0.9998 1 1 0.9998
0.999837 1 1 0.999837
0.999781 1 1 0.999781
0.999824 1 1 0.999824
0.999803 1 1 0.999803
0.99979 1 1 0.99979
0.999976 1 1 0.999976
0.999826 1 1 0.999826
0.999886 1 1 0.999886
0.999727 1 1 0.999727
0.999708 1 1 0.999708
0.999779 1 1 0.999779
0.999825 1 1 0.999825
0.999773 1 1 0.999773
0.99973 1 1 0.99973
0.999842 1 1 0.999842
0.999798 1 1 0.999798
0.999988 1 1 0.999988
0.999909 1 1 0.999909
0.999801 1 1 0.999801
0.999771 1 1 0.999771
0.999771 1 1 0.999771
0.999832 1 1 0.999832
0.999738 1 1 0.999738
0.99972 1 1 0.99972
0.999844 1 1 0.999844
0.99985 1 1 0.99985
0.999793 1 1 0.999793
0.999724 1 1 0.999724
0.999734 1 1 0.999734
0.999997 1 1 0.999997
0.999939 1 1 0.999939
0.999912 1 1 0.999912
0.999834 1 1 0.999834
0.999776 1 1 0.999776
0.99974 1 1 0.99974
0.999782 1 1 0.999782
0.999747 1 1 0.999747
0.999899 1 1 0.999899
0.999834 1 1 0.999834
0.999828 1 1 0.999828
0.999809 1 1 0.999809
0.999816 1 1 0.999816
0.9998 1 1 0.9998
0.99977 1 1 0.99977
0.999809 1 1 0.999809
0.999758 1 1 0.999758
0.999708 1 1 0.999708
0.999828 1 1 0.999828
0.999789 1 1 0.999789
0.999781 1 1 0.999781
0.999779 1 1 0.999779
0.999833 1 1 0.999833
0.99982 1 1 0.99982
0.999723 1 1 0.999723
0.999694 1 1 0.999694
0.999792 1 1 0.999792
0.999803 1 1 0.999803
0.999759 1 1 0.999759
0.999742 1 1 0.999742
0.99985 1 1 0.99985
0.999705 1 1 0.999705
0.999818 1 1.00015 0.999665
0.999842 1 1 0.999842
0.999799 1 1 0.999799
0.999769 1 1 0.999769
0.999922 1 1 0.999922
0.99985 1 1 0.99985
0.999797 1 1 0.999797
0.999924 1 1 0.999924
0.999847 1 1 0.999847
0.999769 1 1 0.999769
0.999804 1 1 0.999804
0.999748 1 1 0.999748
0.999762 1 1 0.999762
0.999806 1 1 0.999806
0.999853 1 1 0.999853
0.999923 1 1 0.999923
0.999993 1 1 0.999993
0.999993 1 1 0.999993
1 1 1 1
0.999993 1 1 0.999993
1 1 1 1
1 1 1 1
1 1 1 1
1 1 1 1
1 1 1 1
0.999999 1 1 0.999999
1 1 1 1
1 1 1 1
1 1 1 1
1 1 1 1
1 1 1 1
1 1 1 1
0.999818 1 1 0.999818
0.999761 1 1 0.999761
0.999749 1 1 0.999749
0.999751 1 1 0.999751
0.999759 1 1 0.999759
0.999752 1 1 0.999752
0.999803 1 1 0.999803
0.999763 1 1 0.999763
0.999768 1 1 0.999768
0.999836 1 1 0.999836
0.999733 1 1 0.999733
0.999706 1 1 0.999706
0.999774 1 1 0.999774
0.999825 1 1 0.999825
0.999778 1 1 0.999778
0.999734 1 1 0.999734
0.999846 1 1 0.999846
0.999798 1 1 0.999798
0.999801 1 1 0.999801
0.999772 1 1 0.999772
0.999775 1 1 0.999775
0.999993 1 1 0.999993
0.999909 1 1 0.999909
0.999827 1 1 0.999827
0.999735 1 1 0.999735
0.999996 1 1 0.999996
0.999935 1 1 0.999935
0.999722 1 1 0.999722
0.999833 1 1 0.999833
0.999795 1 1 0.999795
0.99973 1 1 0.99973
0.999726 1 1 0.999726
0.999848 1 1 0.999848
0.999924 1 1 0.999924
0.999834 1 1 0.999834
0.999784 1 1 0.999784
0.999752 1 1 0.999752
0.999733 1 1 0.999733
0.999778 1 1 0.999778
0.999717 1 1 0.999717
0.999782 1 1 0.999782
0.999903 1 1 0.999903
0.999772 1 1 0.999772
0.999768 1 1 0.999768
0.999896 1 1.0002 0.999693
0.999938 1 1 0.999938
0.999932 1 1 0.999932
0.99988 1 1 0.99988
0.999835 1 1 0.999835
0.999787 1 1 0.999787
0.999727 1 1 0.999727
0.999705 1 1 0.999705
0.999751 1 1 0.999751
0.999827 1 1 0.999827
0.999794 1 1 0.999794
0.999834 1 1 0.999834
0.999817 1 1 0.999817
0.999782 1 1 0.999782
0.999785 1 1 0.999785
0.999729 1 1 0.999729
0.999692 1 1 0.999692
0.999792 1 1 0.999792
0.999819 1 1 0.999819
0.999759 1 1 0.999759
0.999735 1 1 0.999735
0.999847 1 1 0.999847
0.999706 1 1 0.999706
0.999801 1 1.00014 0.999662
0.999759 1 1 0.999759
0.999615 1 0.999777 0.999838
0.999737 1 1 0.999737
0.999929 1 1.00025 0.999682
0.999707 1 1 0.999707
1.00043 1 1.0008 0.999634
0.984714 1.00322 0.981895 0.999648
0.999799 1 1 0.999799
0.999769 1 1 0.999769
0.999747 1 1 0.999747
0.999923 1 1 0.999923
0.999847 1 1 0.999847
0.99981 1 1 0.99981
0.999765 1 1 0.999765
0.999923 1 1 0.999923
0.999849 1 1 0.999849
0.999747 1 1 0.999747
0.999806 1 1 0.999806
0.999767 1 1 0.999767
0.999731 1 1 0.999731
0.999768 1 1 0.999768
0.999807 1 1 0.999807
0.999841 1 1 0.999841
0.999911 1 1 0.999911
0.999859 1 1 0.999859
0.99991 1 1 0.99991
0.999992 1 1 0.999992
0.999993 1 1 0.999993
1 1 1 1
0.999993 1 1 0.999993
1 1 1 1
1 1 1 1
1 1 1 1
1 1 1 1
1 1 1 1
1 1 1 1
0.999999 1 1 0.999999
1 1 1 1
1 1 1 1
1 1 1 1
1 1 1 1
1 1 1 1
1 1 1 1
0.999812 1 1 0.999812
0.999748 1 1 0.999748
0.999764 1 1 0.999764
0.999764 1 1 0.999764
0.99977 1 1 0.99977
0.999846 1 1 0.999846
0.999778 1 1 0.999778
0.99573 1.00031 0.995526 0.999899
0.999629 1 0.999705 0.999923
0.999953 1 1 0.999953
0.999732 1 1 0.999732
0.999724 1 1 0.999724
0.999822 1 1 0.999822
0.999797 1 1 0.999797
0.999725 1 1 0.999725
0.999728 1 1 0.999728
0.999846 1 1 0.999846
0.999785 1 1 0.999785
0.999758 1 1 0.999758
0.999727 1 1 0.999727
0.999995 1 1 0.999995
0.999779 1 1 0.999779
0.999935 1 1 0.999935
0.999833 1 1 0.999833
0.999931 1 1 0.999931
0.99971 1 1 0.99971
0.999943 1 1 0.999943
0.999932 1 1 0.999932
0.999872 1 1 0.999872
0.999783 1 1 0.999783
0.999755 1 0.999867 0.999889
0.99977 1 1 0.99977
0.999764 1 1.00007 0.999692
0.999774 1 1 0.999774
0.999842 1 1 0.999842
0.999784 1 1 0.999784
0.999751 1 1 0.999751
0.999721 1 1.00001 0.999711
0.999731 1 1 0.999731
0.999741 1 1.00004 0.999696
0.997665 1 0.997781 0.999883
0.999823 1 1 0.999823
0.999808 1 1.00011 0.999701
0.999907 1 1.00017 0.999736
0.999872 1 1 0.999872
0.99985 1 1 0.99985
0.999823 1 1 0.999823
0.999783 1 1 0.999783
0.999745 1 1 0.999745
0.999696 1 1 0.999696
1.00124 1 1.00154 0.999695
0.999792 1 1 0.999792
0.999758 1 1 0.999758
0.999835 1 1 0.999835
0.999844 1 1 0.999844
0.999707 1 1 0.999707
0.999729 1 1 0.999729
0.999712 1 1.00005 0.999659
0.999762 1 1 0.999762
0.999668 1 0.999821 0.999847
0.999736 1 1 0.999736
0.999785 1 1.0001 0.999682
0.999719 1 1 0.999719
1.00094 1 1.00131 0.999632
0.98907 1.00584 0.983646 0.999678
0.999738 1 1 0.999738
0.999783 1.00011 1 0.999676
0.999712 1 1 0.999712
1.00209 1 1.00246 0.99964
1.00046 1 1.00084 0.999614
0.962681 0.963861 1.00004 0.998737
0.987561 1.00128 0.986562 0.999733
0.984731 1.00805 0.977252 0.999604
0.966619 0.973354 0.993243 0.999837
0.972283 0.995875 0.976358 0.999951
0.999769 1 1 0.999769
0.999747 1 1 0.999747
0.999724 1 1 0.999724
0.999923 1 1 0.999923
0.999845 1 1 0.999845
0.999806 1 1 0.999806
0.999772 1 1 0.999772
0.999746 1 1 0.999746
0.999801 1 1 0.999801
0.999916 1 1 0.999916
0.999846 1 1 0.999846
0.999734 1 1 0.999734
0.999767 1 1 0.999767
0.999771 1 1 0.999771
0.999731 1 1 0.999731
0.999788 1 1 0.999788
0.999839 1 1 0.999839
0.99991 1 1 0.99991
0.999854 1 1 0.999854
0.999805 1 1 0.999805
0.999844 1 1 0.999844
0.99985 1 1 0.99985
0.999918 1 1 0.999918
0.99991 1 1 0.99991
0.999992 1 1 0.999992
0.999992 1 1 0.999992
1 1 1 1
0.999992 1 1 0.999992
1 1 1 1
1 1 1 1
1 1 1 1
1 1 1 1
1 1 1 1
1 1 1 1
1 1 1 1
1 1 1 1
0.999998 1 1 0.999998
1 1 1 1
1 1 1 1
1 1 1 1
1 1 1 1
1 1 1 1
0.999773 1 1 0.999773
0.999764 1 1 0.999764
0.999856 1 1 0.999856
0.995418 1 0.995519 0.999895
0.999776 1 1 0.999776
0.999759 1 0.999863 0.999896
0.99978 1 1.00004 0.999742
0.981392 0.984914 0.99692 0.999503
0.999671 1 0.999727 0.999944
0.999957 1 1 0.999957
0.999953 1 1 0.999953
0.999889 1 1 0.999889
0.999899 1 1 0.999899
0.999703 1 1 0.999703
0.999785 1 1 0.999785
0.999748 1 0.999874 0.999874
0.999771 1 1 0.999771
0.99969 1 1 0.99969
0.999777 1 1 0.999777
0.99975 1 1 0.99975
0.999718 1 1 0.999718
0.999735 1 1 0.999735
0.999932 1 1 0.999932
0.999782 1 1 0.999782
0.999848 1 1 0.999848
0.999948 1 1 0.999948
0.999863 1 1 0.999863
0.99974 1 1.00003 0.999705
0.999881 1 1 0.999881
0.999856 1 1 0.999856
0.999825 1 1 0.999825
0.998598 1 0.998715 0.999883
0.999761 1 0.999937 0.999824
0.999944 1 1.00021 0.999735
0.999806 1 1.0001 0.999705
0.999785 1 1 0.999785
0.999748 1 1 0.999748
1.00063 1 1.00093 0.999696
0.999695 1 1 0.999695
0.999793 1 1.00003 0.999763
0.99796 1 0.998087 0.999873
0.999691 1 1 0.999691
1.00009 1 1.00039 0.999698
0.999808 1 1 0.999808
0.999795 1 1 0.999795
0.999718 1 1 0.999718
1.00165 1 1.002 0.999652
0.960796 0.96389 0.998058 0.99873
0.999764 1 1 0.999764
0.999735 1 1 0.999735
0.999789 1 0.999934 0.999856
0.999732 1 1 0.999732
1.00153 1 1.0019 0.999629
0.999682 1 1 0.999681
0.993784 1.00837 0.985819 0.999708
0.99974 1 1 0.99974
0.999996 1.00033 0.999984 0.999677
0.999713 1 1 0.999713
1.00174 1 1.0021 0.999642
1.00018 1 1.00056 0.999624
0.964231 0.96432 1.00105 0.998864
0.984003 0.998239 0.986318 0.999412
0.987336 1.00998 0.977968 0.999606
0.969325 0.975649 0.993847 0.999669
0.971873 0.993485 0.97829 0.999955
0.999729 1 1 0.999729
0.973612 0.976338 0.997714 0.999493
0.988815 0.998141 0.990689 0.999966
0.999608 1 1 0.999608
1.0012 1 1.0015 0.999696
1.00715 1 1.00752 0.999628
1.00135 1.01017 0.991723 0.99954
0.976123 0.9728 1.00478 0.998642
0.986414 1.00681 0.980333 0.999392
0.962632 0.976224 0.986262 0.999813
0.991048 1.00543 0.985725 0.999966
0.999747 1 1 0.999747
0.999724 1 1 0.999724
0.999703 1 1 0.999703
0.999921 1 1 0.999921
0.99985 1 1 0.99985
0.999794 1 1 0.999794
0.999765 1 1 0.999765
0.999738 1 1 0.999738
0.99991 1 1 0.99991
0.99977 1 1 0.99977
0.999795 1 1 0.999795
0.999845 1 1 0.999845
0.999727 1 1 0.999727
0.99975 1 1 0.99975
0.999898 1 1.0002 0.999701
0.999788 1 1 0.999788
0.999851 1 1 0.999851
0.999853 1 1 0.999853
0.999798 1 1 0.999798
0.999798 1 1 0.999798
0.999791 1 1 0.999791
0.999765 1 1 0.999765
0.999778 1 1 0.999778
0.999834 1 1 0.999834
0.999844 1 1 0.999844
0.999913 1 1 0.999913
0.999842 1 1 0.999842
0.999913 1 1 0.999913
0.999991 1 1 0.999991
0.999911 1 1 0.999911
0.999992 1 1 0.999992
1 1 1 1
0.999992 1 1 0.999992
1 1 1 1
1 1 1 1
1 1 1 1
1 1 1 1
1 1 1 1
0.999955 1 1 0.999955
1 1 1 1
1 1 1 1
1 1 1 1
1 1 1 1
1 1 1 1
1 1 1 1
1 1 1 1
1 1 1 1
1 1 1 1
0.995026 1 0.995134 0.999892
0.999775 1 1 0.999775
0.999868 1 1 0.999868
0.9823 0.984547 0.998027 0.999691
0.999825 1 0.999883 0.999942
0.999761 1 1.00003 0.999727
1.00132 1 1.00159 0.999732
0.987728 0.986568 1.00163 0.999549
0.965804 0.967229 1.00011 0.998413
0.965209 0.973007 0.992511 0.999471
0.976883 0.992419 0.984385 0.99996
0.999888 1 1 0.999888
0.999956 1 1 0.999956
0.999953 1 1 0.999953
0.999887 1 1 0.999887
0.999846 1 1 0.999846
0.999858 1 1 0.999858
0.999893 1 1 0.999893
0.999896 1 1 0.999896
0.99974 1 1.00003 0.999714
0.999417 1 0.999536 0.999882
0.999558 1 0.999733 0.999825
0.999959 1 1.00023 0.999734
0.999746 1 1.00004 0.999708
1.0001 1 1.0004 0.999696
0.999715 1 1.00002 0.999695
0.999751 1 1 0.999751
0.999862 1 1 0.999862
0.999787 1 1 0.999787
0.99989 1 1 0.99989
0.999826 1 1 0.999826
0.999233 1 0.999476 0.999757
0.99981 1 1 0.99981
0.999797 1 1 0.999797
0.997563 1 0.997691 0.999872
0.999698 1 1 0.999698
1.00055 1 1.00086 0.999688
0.999718 1 1 0.999718
1.00169 1 1.00203 0.999654
0.990117 1.00415 0.986234 0.999784
1.00178 1 1.00206 0.999718
0.999655 1 1 0.999655
1.00462 1 1.00499 0.999632
0.999769 1 1 0.999769
0.999741 1 1 0.999741
1.00021 1 1.00054 0.999663
0.972107 0.978298 0.993909 0.999761
0.964399 0.965696 0.99988 0.998777
0.999742 1 1 0.999742
0.999714 1 1 0.999714
1.00023 1.00065 0.9999 0.999678
0.999898 1 1.00026 0.999634
1.00129 1 1.00165 0.999644
0.963438 0.965144 0.999863 0.998369
0.987462 0.998168 0.989468 0.999804
0.990462 1.01227 0.978839 0.999607
0.965944 0.9748 0.991421 0.99949
0.971108 0.990904 0.980062 0.999959
0.999728 1 1 0.999728
0.972165 0.977358 0.994902 0.999784
0.988795 0.997313 0.991486 0.999973
0.999609 1 1 0.999606
1.00044 1 1.00074 0.999698
1.00642 1 1.00678 0.999638
0.999172 1.0076 0.992104 0.999526
0.974962 0.973524 1.00302 0.998461
0.980383 1.00239 0.978272 0.99977
0.962533 0.976071 0.986659 0.999465
0.98678 1.00555 0.981365 0.999966
0.999709 1 1 0.999709
1.00069 1.00218 0.998533 0.999981
1.00503 1.00683 0.998236 0.99998
1.00944 1 1.00984 0.999609
1.00522 1 1.00549 0.99973
1.00438 1.00361 1.00103 0.999745
0.990954 1.00139 0.989656 0.999918
0.979104 0.976691 1.00392 0.998561
0.972615 0.988527 0.984457 0.999437
1.0003 1.0091 0.991315 0.999971
0.999725 1 1 0.999725
0.999701 1 1 0.999701
1.00011 1 1.00042 0.99969
0.99991 1 1 0.99991
0.99985 1 1 0.99985
0.999802 1 1 0.999802
0.999768 1 1 0.999768
0.999722 1 1 0.999722
0.999851 1 1 0.999851
0.999754 1 1 0.999754
0.999788 1 1 0.999788
0.999942 1 1.00024 0.999697
1.00023 1 1.00055 0.999675
0.999818 1 1.00009 0.999731
0.999793 1 1 0.999793
0.999853 1 1 0.999853
0.999792 1 1 0.999792
0.999798 1 1 0.999798
0.999791 1 1 0.999791
0.999764 1 1 0.999764
0.99978 1 1 0.99978
0.999757 1 1 0.999757
0.999745 1 1 0.999745
0.999761 1 1 0.999761
0.999792 1 1 0.999792
0.999789 1 1 0.999789
0.999779 1 1 0.999779
0.999828 1 1 0.999828
0.999834 1 1 0.999834
0.999906 1 1 0.999906
0.999843 1 1 0.999843
0.999913 1 1 0.999913
0.99999 1 1 0.99999
0.999908 1 1 0.999908
0.999991 1 1 0.999991
1 1 1 1
0.999991 1 1 0.999991
1 1 1 1
1 1 1 1
1 1 1 1
1 1 1 1
1 1 1 1
0.99996 1 1 0.99996
1 1 1 1
0.999955 1 1 0.999955
1 1 1 1
1 1 1 1
1 1 1 1
1 1 1 1
1 1 1 1
1 1 1 1
1 1 1 1
1 1 1 1
0.97044 0.975491 0.995007 0.999814
0.992578 0.998995 0.993595 0.999981
0.984336 0.985157 0.999319 0.999848
0.999923 1 0.999984 0.99994
0.999742 1 1.00003 0.999713
0.986968 0.98512 1.00196 0.999921
1.00054 1 1.0008 0.999741
0.969487 0.969386 1.00136 0.99875
0.967477 0.97374 0.993734 0.999833
0.975796 0.992078 0.983624 0.999964
0.999784 0.995297 1.00465 0.999857
0.974534 0.973174 1.00269 0.99871
0.962946 0.974612 0.988207 0.999821
0.986127 1.00544 0.980824 0.999963
0.999831 1 1 0.999831
0.999892 1 1 0.999892
0.999956 1 1 0.999956
0.999884 1 1 0.999884
0.99985 1 1 0.99985
0.999843 1 1 0.999843
0.99986 1 1 0.99986
0.999873 1 1 0.999873
0.999887 1 1 0.999887
0.999892 1 1 0.999892
0.998777 1 0.999025 0.999752
0.997371 1 0.997501 0.99987
0.999706 1 1 0.999706
1.00098 1 1.0013 0.999677
1.00159 1 1.00194 0.999656
0.999718 1 1 0.999718
0.999799 1 1 0.999799
0.999813 1 1 0.999813
0.992108 1.00261 0.989753 0.999767
0.999767 1 1 0.999767
0.999736 1 1 0.999736
1.0002 1 1.00048 0.999722
0.999906 1 1.00026 0.999649
1.00366 1 1.00404 0.999625
1.00078 1 1.00112 0.999657
0.984647 1.01178 0.973502 0.999673
1.00818 1 1.00855 0.999636
1.00435 1 1.00474 0.99961
0.999766 1 1 0.999766
0.99973 1 1 0.99973
0.999687 1 1 0.999687
0.998323 1.00098 0.997386 0.999957
0.97275 0.977621 0.995542 0.999473
0.962367 0.965429 0.998115 0.99871
0.999727 1 1 0.999727
0.9997 1 1 0.9997
0.999605 1 1 0.999605
1.00578 1 1.00614 0.999649
0.969588 0.976234 0.993722 0.999466
0.972152 0.972223 1.00092 0.999011
0.980564 1.00343 0.977761 0.999441
0.997732 1.00518 0.993072 0.999515
0.962827 0.975189 0.987489 0.999833
0.989833 0.998548 0.991307 0.999965
0.986832 1.00531 0.98166 0.999962
0.999708 1 1 0.999708
0.998667 1.00103 0.997668 0.999972
1.00612 1.00804 0.998114 0.999979
1.00972 1 1.01011 0.99961
1.00534 1 1.00561 0.99973
1.00731 1.00315 1.00464 0.999498
0.987537 1.00141 0.986686 0.999454
0.978878 0.977924 1.00243 0.998553
0.976874 0.988247 0.988645 0.999845
0.996732 1.00768 0.989175 0.999963
0.999742 1 1 0.999742
1.00475 1.00497 0.999791 0.99999
1.00206 1.00337 0.998702 0.999994
1.00677 1 1.00694 0.999834
0.997967 0.995332 1.00269 0.999955
0.988294 0.984662 1.00501 0.998682
0.986854 1.00095 0.986103 0.99981
0.998274 1.00818 0.990218 0.999953
0.9997 1 1 0.9997
1.00005 1 1.00036 0.999694
1.00099 1 1.0013 0.999692
0.99985 1 1 0.99985
0.999789 1 1 0.999789
0.999758 1 1 0.999758
0.999975 1 1.00028 0.999693
0.999793 1 1 0.999793
0.999763 1 1.00003 0.999732
1.00061 1 1.00093 0.999673
1.00054 1 1.00086 0.999684
0.999894 1 1.00021 0.999682
0.999748 1 1 0.999748
0.999797 1 1 0.999797
0.999791 1 1 0.999791
0.999764 1 1 0.999764
0.999759 1 1 0.999759
0.999781 1 1 0.999781
0.999747 1 1 0.999747
0.999741 1 1 0.999741
0.999728 1 1 0.999728
0.999743 1 1 0.999743
0.99976 1 1 0.99976
0.999771 1 1 0.999771
0.999781 1 1 0.999781
0.999823 1 1 0.999823
0.999803 1 1 0.999803
0.999792 1 1 0.999792
0.999827 1 1 0.999827
0.999779 1 1 0.999779
0.999829 1 1 0.999829
0.999899 1 1 0.999899
0.999834 1 1 0.999834
0.999906 1 1 0.999906
0.999988 1 1 0.999988
0.999913 1 1 0.999913
0.999989 1 1 0.999989
1 1 1 1
0.99999 1 1 0.99999
1 1 1 1
1 1 1 1
1 1 1 1
1 1 1 1
1 1 1 1
0.999941 1 1 0.999941
1 1 1 1
0.999951 1 1 0.999951
1 1 1 1
1 1 1 1
0.999955 1 1 0.999955
1 1 1 1
1 1 1 1
1 1 1 1
1 1 1 1
1 1 1 1
1 1 1 1
0.999607 1.00111 0.998517 0.999985
0.970967 0.975844 0.995355 0.999646
1.00427 1.00687 0.99744 0.999985
0.990455 0.996591 0.993864 0.99998
0.983917 0.983831 1.00054 0.999549
0.999793 1 1.00004 0.999751
0.970018 0.969157 1.00178 0.999107
0.966405 0.973728 0.992989 0.999487
0.975081 0.991964 0.983012 0.999968
0.996995 0.996898 1.00037 0.999732
0.973803 0.971112 1.00413 0.998646
0.96521 0.976704 0.988761 0.999465
0.983696 1.0044 0.979423 0.999967
0.99645 1.00422 0.992388 0.999869
0.975983 0.972916 1.00461 0.998549
0.97464 0.989674 0.984972 0.999835
0.994639 1.01038 0.984441 0.999974
0.9998 1 1 0.9998
0.999837 1 1 0.999837
0.999896 1 1 0.999896
0.999854 1 1 0.999854
0.999814 1 1 0.999814
0.999846 1 1 0.999846
0.999862 1 1 0.999862
0.999866 1 1 0.999866
0.999878 1 1 0.999878
0.999882 1 1 0.999882
0.994216 1.00122 0.993251 0.99975
0.998634 1 0.998908 0.999726
1.00007 1 1.00042 0.999643
1.00297 1 1.00335 0.999617
1.00141 1 1.00176 0.999651
0.99973 1 1 0.99973
0.999765 1 1 0.999765
0.999767 1 1 0.999767
0.986444 1.00884 0.97812 0.999669
0.999733 1 1 0.999733
0.999774 1 1.00009 0.999683
1.00745 1 1.00782 0.999633
1.00418 1 1.00458 0.99961
0.987591 1.01062 0.977574 0.999632
1.0175 1 1.01787 0.999644
1.00042 1 1.00078 0.999639
0.999737 1 1 0.999737
0.999692 1 1 0.999692
1.00275 1.00298 0.99977 0.999995
0.999041 1.001 0.998068 0.999971
0.972988 0.978385 0.994692 0.999792
0.999707 1 1 0.999707
1.00533 1 1.0056 0.999729
1.00982 1 1.01021 0.999612
1.00024 1.00169 0.998573 0.999982
0.978655 0.976353 1.00385 0.998509
0.983639 1.00015 0.983587 0.999904
1.00827 1.002 1.00702 0.999242
0.970737 0.986056 0.985003 0.999454
1.00744 1.00949 0.997988 0.999978
0.998251 1.00735 0.991003 0.99996
0.999747 1 1 0.999747
1.0048 1.00489 0.999921 0.99999
1.00231 1.00375 0.998571 0.999995
1.00707 0.999985 1.00733 0.999761
0.997013 0.996559 1.00065 0.999807
0.990766 0.987139 1.00511 0.998575
1.00202 1.00898 0.993139 0.999963
0.987046 0.997469 0.989882 0.999665
0.999782 1 1 0.999782
0.999504 0.999358 1.00015 1
0.999645 1.00086 0.998785 1
0.99749 1.00979 0.987847 0.999972
1.00321 0.997118 1.00619 0.99992
0.984921 0.983282 1.00286 0.998812
0.987638 0.999184 0.98872 0.999722
0.999966 1 1.00027 0.999699
1.00078 1 1.00109 0.999685
1.00318 1 1.00346 0.999712
0.999792 1 1 0.999792
0.999733 1 1 0.999733
1.00105 1 1.00138 0.999672
0.99975 1 1 0.99975
1.00001 1 1.00033 0.999681
1.00094 1 1.00126 0.999676
1.00005 1 1.00035 0.999693
0.999703 1 1 0.999703
0.99976 1 1 0.99976
0.999781 1 1 0.999781
0.999749 1 1 0.999749
0.999729 1 1 0.999729
0.99974 1 1 0.99974
0.999722 1 1 0.999722
0.999757 1 1 0.999757
0.999827 1 1.00011 0.999714
0.99976 1 1 0.99976
0.999771 1 1 0.999771
0.999741 1 1 0.999741
0.999792 1 1 0.999792
0.999828 1 1 0.999828
0.999782 1 1 0.999782
0.999845 1 1 0.999845
0.999821 1 1 0.999821
0.999814 1 1 0.999814
0.999796 1 1 0.999796
0.99983 1 1 0.99983
0.999896 1 1 0.999896
0.999829 1 1 0.999829
0.999899 1 1 0.999899
0.999985 1 1 0.999985
0.999906 1 1 0.999906
0.999987 1 1 0.999987
1 1 1 1
0.999988 1 1 0.999988
1 1 1 1
1 1 1 1
1 1 1 1
1 1 1 1
1 1 1 1
0.999918 1 1 0.999918
0.999988 1 1 0.999988
0.99994 1 1 0.99994
1 1 1 1
0.999995 1 1 0.999995
0.999942 1 1 0.999942
1 1 1 1
1 1 1 1
1 1 1 1
1 1 1 1
1 1 1 1
1 1 1 1
1.00395 1.0041 0.999857 0.999992
0.997112 1.00011 0.997039 0.999962
0.972997 0.976166 0.997253 0.9995
0.999844 1 1 0.999844
1.0023 1.00265 0.999653 0.999995
1.00514 1.00715 0.998023 0.999984
0.988921 0.996183 0.992747 0.999962
0.994369 0.99808 0.99669 0.99959
0.97635 0.97163 1.0062 0.998663
0.968141 0.977839 0.990249 0.999832
0.984572 1.00356 0.981117 0.999962
0.995023 1.0077 0.987928 0.999491
0.977716 0.974537 1.00467 0.998596
0.971899 0.988489 0.983565 0.999647
0.995922 1.01122 0.98491 0.999966
0.978602 1.00066 0.978478 0.999468
0.98233 0.979568 1.00459 0.998233
0.983595 0.99514 0.988934 0.999458
0.995811 1.00888 0.987103 0.999944
0.999767 1 1 0.999767
0.999796 1 1 0.999796
0.999843 1 1 0.999843
0.999804 1 1 0.999804
0.99982 1 1 0.99982
0.99985 1 1 0.99985
0.999868 1 1 0.999868
0.999883 1 1 0.999883
0.988201 1.00583 0.982804 0.999666
1.00661 1 1.00698 0.99963
0.999768 1 1 0.999768
1.00391 1 1.00431 0.999611
0.999847 1 1.00017 0.99968
0.999736 1 1 0.999736
0.999738 1 1 0.999738
0.988687 1.00979 0.97947 0.999629
0.999691 1 1 0.999691
1.00124 1 1.0016 0.999638
1.01766 1 1.01802 0.999643
0.999731 1 1 0.999731
1.00377 1.00289 1.00118 0.999709
1.0133 1 1.01363 0.999674
0.999672 1 1 0.999672
0.999699 1 1 0.999699
0.999229 0.999172 1.00006 1
1.00279 1.00298 0.999813 0.999995
0.999589 1.00105 0.998555 0.999986
0.999752 1 1 0.999752
1.0076 0.999979 1.00793 0.999688
1.00481 1.00482 0.999995 0.99999
0.987362 0.981575 1.00733 0.998581
1.00109 1.00068 1.00094 0.999472
0.981356 0.994139 0.98761 0.999525
1.0023 1.00381 0.998505 0.999995
1.00555 1.00951 0.996105 0.999972
0.999778 1 1 0.999778
0.999253 0.99903 1.00022 1
0.999281 0.999759 0.999522 1
1.00068 0.996143 1.00461 0.999944
0.998489 1.01066 0.987989 0.999964
0.985634 0.986883 0.999809 0.998925
0.983392 0.995414 0.98847 0.999447
1.00273 0.998784 1.00414 0.999817
0.998986 0.99852 1.00047 1
1.00272 1.00266 1.00006 0.999995
0.987751 1.00502 0.982858 0.999962
0.983723 0.992761 0.991421 0.999471
0.994568 0.993058 1.0014 1.00012
0.979004 0.982512 0.99758 0.998847
1.00057 1 1.00089 0.999678
1.00233 1 1.00262 0.999707
1.01182 1 1.01214 0.999688
0.999751 1 1 0.999751
1.00005 1 1.00037 0.999681
1.00121 1 1.00154 0.999669
0.999704 1 1 0.999704
1.00012 1 1.00043 0.999691
1.00301 1 1.00332 0.999692
0.999729 1 1 0.999729
0.999739 1 1 0.999739
0.999898 1 1.00018 0.99972
1.00124 1 1.00156 0.999686
0.99977 1 1 0.99977
0.999795 1 1.00007 0.99972
0.999796 1 1.00011 0.99969
0.999741 1 1 0.999741
0.999771 1 1 0.999771
0.999737 1 1 0.999737
0.999812 1 1 0.999812
0.999828 1 1 0.999828
0.999797 1 1 0.999797
0.999856 1 1 0.999856
0.999827 1 1 0.999827
0.999782 1 1 0.999782
0.999899 1 1 0.999899
0.999843 1 1 0.999843
0.999818 1 1 0.999818
0.999832 1 1 0.999832
0.999896 1 1 0.999896
0.999982 1 1 0.999982
0.999899 1 1 0.999899
0.999984 1 1 0.999984
1 1 1 1
0.999986 1 1 0.999986
1 1 1 1
1 1 1 1
1 1 1 1
1 1 1 1
1 1 1 1
0.999906 1 1 0.999906
0.999983 1 1 0.999983
0.999923 1 1 0.999923
1 1 1 1
0.999988 1 1 0.999988
0.99994 1 1 0.99994
1 1 1 1
1 1 1 1
0.999991 1 1 0.999991
1 1 1 1
1 1 1 1
1 1 1 1
1.00008 0.999944 1.00014 1
1.00383 1.004 0.999839 0.999992
0.998317 1.00084 0.99752 0.99996
0.999846 1 1 0.999846
0.999832 1 1 0.999832
0.999804 1 1 0.999804
0.9989 1.0008 0.998104 1
1.00207 1.0025 0.999573 0.999996
1.00623 1.00748 0.998778 0.999984
0.998272 1.01154 0.987022 0.999859
0.976748 0.973138 1.00514 0.998577
0.971591 0.988376 0.983552 0.999457
1.00019 1.0122 0.988162 0.999968
0.976599 0.998557 0.978172 0.999835
0.986106 0.98144 1.00612 0.99864
0.987278 1.00131 0.986216 0.999763
0.999603 1.00951 0.990226 0.999958
0.9763 0.994461 0.981811 0.999926
0.984165 0.983345 1.00212 0.998717
0.989426 1.00212 0.987669 0.999658
0.994964 1.00859 0.986518 0.999975
0.999757 1 1 0.999757
0.999767 1 1 0.999767
0.999792 1 1 0.999792
0.999803 1 1 0.999803
0.999826 1 1 0.999826
0.99987 1 1 0.99987
0.989635 1.00883 0.981345 0.999626
1.01756 1 1.01792 0.999641
0.999738 1 1 0.999738
1.00195 1 1.00231 0.999636
0.999691 1 1 0.999691
0.99973 1 1 0.99973
0.999696 1 1 0.999696
1.00065 1.0039 0.997063 0.999699
0.999675 1 1 0.999675
1.01379 1 1.01412 0.999681
0.999695 1 1 0.999695
1.02125 1 1.02147 0.999784
1.00016 1 1.00044 0.999729
0.999668 1 1 0.999668
0.999383 0.999332 1.00005 1
0.999249 0.999199 1.00005 1
1.00288 1.00298 0.999902 0.999995
0.999774 1 1 0.999774
1.0006 0.995452 1.00519 0.999986
0.998985 0.998699 1.00028 1
0.99015 0.990089 1.00068 0.999382
0.98884 1.00186 0.987255 0.999751
0.998961 0.998737 1.00022 1
1.00222 1.01176 0.990607 0.999967
1.00239 0.99937 1.0032 0.999825
0.999127 0.998794 1.00033 1
1.0025 1.00251 0.999992 0.999995
0.994537 0.9932 1.00152 0.999825
0.985773 1.00416 0.981723 0.999965
0.986821 0.998762 0.988261 0.99978
0.979134 0.981876 0.998362 0.998844
1.01141 1 1.01151 0.9999
0.999958 0.999875 1.00008 1
1.00503 1.00719 0.997879 0.999983
0.976691 0.992484 0.98413 0.999956
0.976079 0.98798 0.988118 0.999834
0.991553 0.986349 1.00653 0.99875
0.980199 0.991741 0.988627 0.999731
1.00137 1 1.00167 0.999703
1.01284 1 1.01316 0.999691
1.01913 1 1.01944 0.99969
0.999705 1 1 0.999705
1.00024 1 1.00055 0.999689
1.00245 1 1.00276 0.999692
1.00988 1 1.01024 0.999645
1.00004 1 1.00032 0.999718
1.00158 1 1.0019 0.99968
1.00305 1 1.00341 0.999637
0.999726 1 1 0.999726
1.00001 1 1.00032 0.999688
0.999683 1 1.00001 0.999677
0.999724 1 1 0.999724
0.999787 1 1 0.999787
0.999735 1 1 0.999735
0.999733 1 1 0.999733
0.999836 1 1 0.999836
0.999816 1 1 0.999816
0.999855 1 1 0.999855
0.999832 1 1 0.999832
0.999802 1 1 0.999802
0.999906 1 1 0.999906
0.999856 1 1 0.999856
0.999826 1 1 0.999826
0.99998 1 1 0.99998
0.9999 1 1 0.9999
0.999841 1 1 0.999841
0.999896 1 1 0.999896
0.999982 1 1 0.999982
1 1 1 1
0.999984 1 1 0.999984
1 1 1 1
1 1 1 1
1 1 1 1
1 1 1 1
1 1 1 1
0.999906 1 1 0.999906
0.99999 1 1 0.99999
0.99991 1 1 0.99991
1 1 1 1
0.999988 1 1 0.999988
0.999927 1 1 0.999927
1 1 1 1
1 1 1 1
0.999988 1 1 0.999988
1 1 1 1
1 1 1 1
1 1 1 1
0.999152 0.998577 1.00057 1
0.999875 0.999703 1.00017 1
1.00358 1.00385 0.999742 0.999993
0.999832 1 1 0.999832
0.999812 1 1 0.999812
0.999849 1 1 0.999849
0.999831 1 1 0.999831
0.999798 1 1 0.999798
0.999795 1 1 0.999795
0.999771 1 1 0.999771
1.00127 1.00289 0.998393 0.999996
0.998916 0.999828 0.999087 1
1.00183 1.00234 0.999497 0.999997
1.0033 1.01012 0.99328 0.999972
0.981447 1.00407 0.978012 0.999442
0.986966 0.981154 1.00693 0.999003
0.980052 0.999185 0.981431 0.99941
0.980155 0.993939 0.986433 0.999694
0.98894 0.987649 1.0026 0.99871
0.986637 0.998984 0.988239 0.999395
0.992197 1.00795 0.984407 0.999959
0.990689 0.991642 0.999083 0.999956
0.982295 0.987782 0.995738 0.998702
0.986148 1.00402 0.982431 0.999761
0.989195 1.00453 0.984764 0.99997
0.99974 1 1 0.99974
0.999755 1 1 0.999755
0.999767 1 1 0.999767
0.999803 1 1 0.999803
0.996727 1.00489 0.992182 0.99969
1.01466 1 1.01497 0.999687
0.999729 1 1 0.999729
0.999692 1 1 0.999692
0.999678 1 1 0.999678
0.9997 1 1 0.9997
0.999666 1 1 0.999666
1.01236 0.998351 1.01424 0.999793
1.00018 1 1.00044 0.999744
0.999663 1 1 0.999663
1.02533 0.995141 1.03044 0.999898
1.00358 1 1.00395 0.999627
0.999167 0.999151 1.00001 1
0.999592 0.999577 1.00001 1
0.999252 0.999222 1.00003 1
1.00232 1 1.00249 0.999833
0.994712 0.992404 1.00223 1.00009
0.999285 0.999073 1.00021 1
0.979632 0.982276 0.998498 0.998808
0.980819 0.996909 0.984423 0.999429
1.00225 1.00235 0.999906 0.999996
0.98716 1.00325 0.983999 0.999961
1.01197 0.999673 1.01242 0.999887
0.999742 0.999629 1.00011 1
1.00601 1.00744 0.998602 0.999982
0.98407 0.994271 0.989656 1.00009
0.97565 0.99182 0.983735 0.99996
0.972215 0.986037 0.986333 0.999644
0.993036 0.985441 1.00884 0.998873
1.00345 1 1.00356 0.999887
1.0043 1.00425 1.00006 0.999991
0.993375 0.999332 0.99406 0.999979
0.962473 0.973638 0.98872 0.999811
0.984423 0.978962 1.00698 0.99861
0.976322 0.997251 0.979446 0.999559
1.01404 1 1.01435 0.999693
1.01962 1 1.01994 0.999688
1.0199 1 1.02026 0.999645
1.00195 1 1.00226 0.999692
1.01023 1 1.01058 0.999652
1.0075 1 1.00791 0.999596
1.00211 1 1.00244 0.999673
1.00328 1 1.00365 0.999629
1.00188 1 1.00225 0.999624
1.00034 1 1.00065 0.999685
0.999874 1 1.0002 0.999671
0.999788 1 1.0001 0.999689
0.999735 1 1 0.999735
0.999763 1 1 0.999763
0.999721 1 1 0.999721
0.999822 1 1 0.999822
0.999791 1 1 0.999791
0.99973 1 1 0.99973
0.999854 1 1 0.999854
0.999834 1 1 0.999834
0.999821 1 1 0.999821
0.999905 1 1 0.999905
0.999857 1 1 0.999857
0.999836 1 1 0.999836
0.99998 1 1 0.99998
0.999906 1 1 0.999906
0.999857 1 1 0.999857
1 1 1 1
0.99998 1 1 0.99998
0.9999 1 1 0.9999
0.999982 1 1 0.999982
1 1 1 1
1 1 1 1
1 1 1 1
1 1 1 1
1 1 1 1
0.999837 1 1 0.999837
0.999899 1 1 0.999899
0.999986 1 1 0.999986
0.999906 1 1 0.999906
1 1 1 1
0.999991 1 1 0.999991
0.999915 1 1 0.999915
1 1 1 1
1 1 1 1
0.999994 1 1 0.999994
1 1 1 1
1 1 1 1
1 1 1 1
0.999456 0.999351 1.0001 1
0.999265 0.998829 1.00044 1
0.999668 0.999461 1.00021 1
0.999834 1 1 0.999834
0.999809 1 1 0.999809
0.999812 1 1 0.999812
0.999801 1 1 0.999801
0.999796 1 1 0.999796
0.999831 1 1 0.999831
0.999793 1 1 0.999793
0.999795 1 1 0.999795
0.999771 1 1 0.999771
0.999771 1 1 0.999771
1.00472 1.00541 0.999334 0.999981
1.00139 1.00324 0.998163 0.999996
0.998815 0.998813 1 1
0.992513 1.00729 0.985378 0.999955
0.990676 1.00458 0.986454 0.999702
0.98516 0.994045 0.991553 0.999505
0.982971 0.984214 0.999955 0.998781
0.994752 0.990734 1.00446 0.999598
0.980484 0.984428 0.997254 0.998737
0.98598 1.00016 0.986208 0.999611
0.987462 1.00457 0.982999 0.99997
1.01585 0.987933 1.02863 0.999634
0.987701 0.986079 1.00288 0.998763
0.97175 0.988436 0.983656 0.999453
0.977159 0.995179 0.98193 0.999963
0.999764 1 1 0.999764
0.999743 1 1 0.999743
0.999754 1 1 0.999754
1.00437 0.996753 1.00784 0.999803
1.00016 1 1.00041 0.999758
0.999705 1 1 0.999705
0.999663 1 1 0.999663
0.999699 1 1.00003 0.999666
1.00406 1 1.00444 0.999624
1.02513 0.996514 1.02882 0.999898
1.004 1 1.00435 0.999646
1.01281 0.999011 1.01406 0.999757
1.00284 1.00285 1 0.999994
0.999202 0.999189 1.00001 1
0.999818 0.999822 0.999996 1
1.01234 0.999298 1.01317 0.999875
0.986772 0.993433 0.993564 0.99973
0.999524 0.999381 1.00014 1
0.984269 0.982427 1.00347 0.998413
0.97324 0.986843 0.986755 0.999452
1.00706 1.00775 0.999335 0.999982
0.975463 0.991659 0.983702 0.999965
1.00444 1 1.00454 0.999892
1.00419 1.00414 1.00007 0.999991
0.991265 0.997015 0.994256 0.999977
0.972395 0.994394 0.978098 0.999774
0.96508 0.976174 0.989171 0.999459
0.987567 0.981158 1.00818 0.998367
0.985047 1.00028 0.984974 0.999792
1.00024 1.00148 0.998783 0.999982
0.96584 0.973548 0.992613 0.999465
0.976913 0.97399 1.00448 0.998531
0.972396 1.0005 0.972095 0.999813
1.01969 1 1.02001 0.999687
1.02117 1 1.02154 0.999645
1.01172 1 1.01212 0.999604
1.01036 1 1.01071 0.999659
1.00708 1 1.00749 0.9996
1.00181 1 1.0022 0.999617
1.00326 1 1.00364 0.999621
1.0013 1 1.00167 0.999627
0.999706 1 1 0.999706
0.999889 1 1.00022 0.999664
0.999696 1 1 0.999693
0.999756 1 1 0.999756
0.999775 1 1 0.999775
0.999753 1 1 0.999753
0.999737 1 1 0.999737
0.999799 1 1 0.999799
0.999757 1 1 0.999757
0.999717 1 1 0.999717
0.999854 1 1 0.999854
0.999826 1 1 0.999826
0.999796 1 1 0.999796
0.999899 1 1 0.999899
0.999853 1 1 0.999853
0.999831 1 1 0.999831
0.99998 1 1 0.99998
0.999905 1 1 0.999905
0.99986 1 1 0.99986
1 1 1 1
0.999981 1 1 0.999981
0.999906 1 1 0.999906
1 1 1 1
1 1 1 1
0.999981 1 1 0.999981
1 1 1 1
1 1 1 1
1 1 1 1
0.999835 1 1 0.999835
0.999893 1 1 0.999893
0.999835 1 1 0.999835
0.999982 1 1 0.999982
0.999898 1 1 0.999898
1 1 1 1
0.999987 1 1 0.999987
0.999906 1 1 0.999906
1 1 1 1
1 1 1 1
0.999992 1 1 0.999992
1 1 1 1
1 1 1 1
1 1 1 1
1.00304 1.00305 1 0.99999
0.999216 0.999056 1.00016 1
0.999397 0.999084 1.00031 1
0.99982 1 1 0.99982
0.999837 1 1 0.999837
0.999806 1 1 0.999806
0.999804 1 1 0.999804
0.999815 1 1 0.999815
0.999796 1 1 0.999796
0.999793 1 1 0.999793
0.999784 1 1 0.999784
0.999796 1 1 0.999796
0.999771 1 1 0.999771
0.999771 1 1 0.999771
0.999768 1 1 0.999768
0.989807 0.996919 0.992896 0.999969
1.0056 1.00639 0.999236 0.99998
1.00157 1.00361 0.997963 0.999996
0.989198 1.00477 0.98454 0.999961
0.982261 0.997682 0.985081 0.999454
0.980691 0.986396 0.995506 0.998705
0.997407 0.987897 1.00963 0.999995
1.01745 0.988296 1.02949 1
0.976958 0.992839 0.984037 0.999968
0.989606 0.988538 1.00254 0.998543
0.971015 0.986066 0.9849 0.999833
1.00692 0.994761 1.01228 0.999944
0.9866 0.98174 1.00627 0.998694
0.963145 0.973021 0.99 0.999848
1.00021 1 1.00041 0.999799
0.999764 1 1 0.999764
0.999746 1 1 0.999746
1.02501 0.998052 1.02711 0.999897
1.00468 1 1.00506 0.99962
0.999719 1 1.00005 0.999669
1.00429 1 1.00465 0.99965
1.01184 0.999584 1.01251 0.999759
1.0076 1 1.00783 0.999773
0.998631 1.00127 0.997409 0.999959
1.00228 1.00229 1 0.999994
0.999227 0.999223 1 1
1.00536 1 1.00547 0.999898
0.972558 0.996077 0.976464 0.999922
1.00399 1.00398 1.00002 0.999992
0.991636 0.982437 1.01036 0.999014
0.967876 0.977274 0.990557 0.999825
0.989202 0.996412 0.992804 0.99996
0.983469 1.00103 0.982657 0.999794
0.997645 1.0005 0.99719 0.99996
0.967679 0.97384 0.993842 0.999831
0.973107 1.00115 0.972533 0.999438
0.979699 0.976517 1.00469 0.998575
0.977428 1.00817 0.969851 0.999644
0.971134 0.976352 0.994839 0.999816
0.974509 0.973262 1.00259 0.998694
0.976948 1.00498 0.97265 0.999442
1.02302 1 1.02338 0.999644
1.01126 1 1.01167 0.9996
1.00271 1 1.00305 0.999659
1.00689 1 1.00729 0.999604
1.00172 1 1.0021 0.99962
0.999772 1 1 0.999772
1.00084 1 1.00121 0.99963
0.999712 1 1 0.999712
0.999826 1 1 0.999826
0.999697 1 1 0.999697
0.999758 1 1 0.999758
0.999826 1 1 0.999826
0.999821 1 1 0.999821
0.999776 1 1 0.999776
0.999778 1 1 0.999778
0.999784 1 1 0.999784
0.999758 1 1 0.999758
0.999739 1 1 0.999739
0.999842 1 1 0.999842
0.999799 1 1 0.999799
0.999751 1 1 0.999751
0.999895 1 1 0.999895
0.999854 1 1 0.999854
0.99983 1 1 0.99983
0.999976 1 1 0.999976
0.999899 1 1 0.999899
0.999853 1 1 0.999853
1 1 1 1
0.99998 1 1 0.99998
0.999905 1 1 0.999905
1 1 1 1
1 1 1 1
0.999981 1 1 0.999981
1 1 1 1
1 1 1 1
1 1 1 1
0.999845 1 1 0.999845
0.999837 1 1 0.999837
0.99989 1 1 0.99989
0.999977 1 1 0.999977
0.999893 1 1 0.999893
0.999833 1 1 0.999833
1 1 1 1
0.999983 1 1 0.999983
0.999898 1 1 0.999898
1 1 1 1
1 1 1 1
0.999988 1 1 0.999988
1 1 1 1
1 1 1 1
1 1 1 1
0.998908 1.00066 0.998265 0.999986
1.00353 1.00354 1 0.99999
0.998955 0.998758 1.0002 1
0.999818 1 1 0.999818
0.999827 1 1 0.999827
0.999805 1 1 0.999805
0.999808 1 1 0.999808
0.999817 1 1 0.999817
0.999797 1 1 0.999797
0.999785 1 1 0.999785
0.999795 1 1 0.999795
0.999779 1 1 0.999779
0.99978 1 1 0.99978
0.999771 1 1 0.999771
0.999768 1 1 0.999768
0.968498 0.973427 0.99509 0.999845
0.989542 0.996099 0.993438 0.999979
1.00667 1.00754 0.999163 0.999979
0.977296 0.990899 0.986299 0.999973
0.967254 0.985269 0.982234 0.999473
0.992955 0.990732 1.00318 0.999063
1.02269 0.988635 1.03483 0.999628
1.00739 0.994812 1.01308 0.999568
0.963223 0.974366 0.989051 0.999507
0.99008 0.985091 1.00619 0.998883
1.00031 0.994701 1.00611 0.999525
0.980073 0.97731 1.00413 0.998705
1.00673 1 1.00698 0.999759
1.00007 1 1.00027 0.9998
0.999765 1 1 0.999765
1.01066 1 1.0109 0.999761
1.00459 1 1.00494 0.999654
1.00677 1 1.00699 0.999779
1.00093 1.00015 1.00103 0.999746
0.971796 0.978855 0.993015 0.999773
0.99933 1.00112 0.998242 0.999972
1.00175 1.00176 1 0.999995
0.981203 1.00122 0.980207 0.999796
0.972354 0.99984 0.972638 0.999869
0.998525 1.00115 0.99742 0.999957
0.978399 0.974799 1.00514 0.998561
0.9665 0.97387 0.99295 0.999478
0.977157 1.00739 0.970316 0.999663
0.971395 0.976458 0.995172 0.999641
0.975084 0.972176 1.00437 0.998632
0.974908 1.0038 0.971388 0.999823
0.977529 1.01242 0.96592 0.999604
0.965972 0.967266 1.00026 0.998406
0.990538 1.00177 0.988919 0.999868
1.01087 1 1.01128 0.999596
1.00245 1 1.00279 0.999655
0.999157 1 0.999349 0.999808
1.00156 1 1.00194 0.999623
0.999695 1 0.999922 0.999774
0.99953 1 0.999601 0.999929
0.999717 1 1 0.999717
0.999827 1 1 0.999827
0.999898 1 1 0.999898
0.99976 1 1 0.99976
0.999825 1 1 0.999825
0.999859 1 1 0.999859
0.99984 1 1 0.99984
0.999826 1 1 0.999826
0.999813 1 1 0.999813
0.999792 1 1 0.999792
0.999777 1 1 0.999777
0.999782 1 1 0.999782
0.999819 1 1 0.999819
0.999788 1 1 0.999788
0.999763 1 1 0.999763
0.999887 1 1 0.999887
0.999842 1 1 0.999842
0.999798 1 1 0.999798
0.99997 1 1 0.99997
0.999895 1 1 0.999895
0.999853 1 1 0.999853
1 1 1 1
0.999975 1 1 0.999975
0.9999 1 1 0.9999
1 1 1 1
1 1 1 1
0.999979 1 1 0.999979
1 1 1 1
1 1 1 1
1 1 1 1
0.999848 1 1 0.999848
0.999841 1 1 0.999841
0.999888 1 1 0.999888
0.999839 1 1 0.999839
0.99989 1 1 0.99989
0.999972 1 1 0.999972
1 1 1 1
0.999978 1 1 0.999978
0.999893 1 1 0.999893
1 1 1 1
1 1 1 1
0.999983 1 1 0.999983
1 1 1 1
1 1 1 1
1 1 1 1
0.974172 0.977304 0.997277 0.999517
0.997718 1.00022 0.997521 0.999977
1.00394 1.00395 1 0.99999
0.999815 1 1 0.999815
0.999805 1 1 0.999805
0.999829 1 1 0.999829
0.99983 1 1 0.99983
0.999809 1 1 0.999809
0.999787 1 1 0.999787
0.999797 1 1 0.999797
0.999779 1 1 0.999779
0.9998 1 1 0.9998
0.999773 1 1 0.999773
1.00002 1 1.00026 0.999767
0.999775 1 1 0.999775
0.999768 1 1 0.999768
0.976139 0.976864 1.00086 0.998395
0.970546 0.975409 0.995334 0.999679
0.989561 0.996552 0.993014 0.99997
0.962963 0.974628 0.988172 0.999858
0.986094 0.981431 1.00648 0.998285
1.01021 0.995559 1.01476 0.99995
1.00091 0.995395 1.00582 0.999722
0.980469 0.97798 1.00381 0.99874
0.995832 0.998623 0.997595 0.999609
1.00443 1.00072 1.00411 0.999603
1.00543 1 1.00568 0.999752
0.999801 1 1 0.999801
1.0045 1 1.00471 0.999785
1.00038 1.00048 1.00008 0.999818
0.962121 0.965353 0.997893 0.998757
0.972906 0.978241 0.995047 0.999497
0.999833 1.00094 0.998909 0.999985
0.976915 1.00691 0.970524 0.999682
0.978527 1.00872 0.970625 0.99943
0.973448 0.976866 0.997005 0.999494
0.976731 0.971803 1.00642 0.998656
0.977348 1.01103 0.967073 0.999599
0.969151 0.96892 1.00149 0.998746
0.987428 1.00422 0.983784 0.999489
0.975288 1.00954 0.966381 0.999677
0.998411 0.993044 1.00554 0.999864
1.00194 1 1.00229 0.999652
0.998029 1 0.998222 0.999806
0.996806 1 0.996884 0.999922
0.999537 1 0.999761 0.999776
0.999276 1 0.999348 0.999927
0.99936 1 0.99941 0.99995
0.999828 1 1 0.999828
0.999894 1 1 0.999894
0.999887 1 1 0.999887
0.999825 1 1 0.999825
0.999856 1 1 0.999856
0.999847 1 1 0.999847
0.999845 1 1 0.999845
0.999824 1 1 0.999824
0.99983 1 1 0.99983
0.999812 1 1 0.999812
0.999807 1 1 0.999807
0.999811 1 1 0.999811
0.999791 1 1 0.999791
0.999778 1 1 0.999778
0.999871 1 1 0.999871
0.999823 1 1 0.999823
0.999793 1 1 0.999793
0.999961 1 1 0.999961
0.999886 1 1 0.999886
0.999842 1 1 0.999842
1 1 1 1
0.999969 1 1 0.999969
0.999895 1 1 0.999895
1 1 1 1
1 1 1 1
0.999975 1 1 0.999975
1 1 1 1
1 1 1 1
1 1 1 1
0.999843 1 1 0.999843
0.999848 1 1 0.999848
0.99988 1 1 0.99988
0.999836 1 1 0.999836
0.999884 1 1 0.999884
0.999968 1 1 0.999968
0.99989 1 1 0.99989
0.999973 1 1 0.999973
1 1 1 1
1 1 1 1
1 1 1 1
0.999978 1 1 0.999978
1 1 1 1
1 1 1 1
1 1 1 1
0.969798 0.97067 1.00031 0.998793
0.973366 0.978766 0.994678 0.999804
0.999465 1.00134 0.998138 0.999985
0.999805 1 1 0.999805
0.99983 1 1 0.99983
0.99981 1 1 0.99981
0.999831 1 1 0.999831
0.999827 1 1 0.999827
0.999817 1 1 0.999817
0.99978 1 1 0.99978
0.999799 1 1 0.999799
0.999774 1 1 0.999774
0.999797 1 1 0.999797
0.999772 1 1 0.999772
0.999752 1 1.00011 0.999637
0.999821 1 1.00006 0.999764
0.99977 1 1 0.99977
0.991014 0.993621 0.997482 0.999894
0.972801 0.973878 1.00016 0.998735
0.967876 0.974069 0.99414 0.999499
0.978094 0.975782 1.00371 0.998664
1.00147 0.995596 1.00596 0.999934
0.995318 0.996833 0.998587 0.999893
0.998537 1.00364 0.995318 0.999591
1.0033 1.00007 1.00362 0.999621
1.00488 1 1.00514 0.999746
0.997691 1.00004 0.997765 0.999889
0.988354 0.986395 1.00245 0.99954
0.96611 0.966916 1.00035 0.998815
0.972909 0.97871 0.994268 0.999804
0.977175 1.00946 0.968412 0.999593
0.989959 1.00778 0.982456 0.999856
0.970227 0.968493 1.00269 0.999101
0.977609 1.00685 0.971272 0.999675
0.993957 0.994016 1.00021 0.999732
0.983871 1.00249 0.981634 0.999793
1.00217 1 1.00249 0.999681
0.996871 1 0.997066 0.999805
0.996378 1 0.996455 0.999922
0.997305 1 0.997403 0.999902
0.999108 1 0.999182 0.999926
0.99935 1 0.999403 0.999946
0.999738 1 0.999867 0.999872
0.99989 1 1 0.99989
0.999883 1 1 0.999883
0.99983 1 1 0.99983
0.999853 1 1 0.999853
0.999848 1 1 0.999848
0.999814 1 1 0.999814
0.99985 1 1 0.99985
0.999827 1 1 0.999827
0.999809 1 1 0.999809
0.999811 1 1 0.999811
0.999806 1 1 0.999806
0.999818 1 1 0.999818
0.999852 1 1 0.999852
0.999814 1 1 0.999814
0.99979 1 1 0.99979
0.999949 1 1 0.999949
0.999872 1 1 0.999872
0.999826 1 1 0.999826
1 1 1 1
0.999961 1 1 0.999961
0.999886 1 1 0.999886
1 1 1 1
1 1 1 1
0.999969 1 1 0.999969
1 1 1 1
1 1 1 1
1 1 1 1
0.999841 1 1 0.999841
0.999846 1 1 0.999846
0.999878 1 1 0.999878
0.999848 1 1 0.999848
0.99988 1 1 0.99988
0.999964 1 1 0.999964
0.999881 1 1 0.999881
0.999968 1 1 0.999968
1 1 1 1
0.999973 1 1 0.999973
1 1 1 1
1 1 1 1
1 1 1 1
1 1 1 1
1 1 1 1
0.984752 0.986272 0.998582 0.999877
0.965581 0.967849 0.998896 0.998761
0.9709 0.977538 0.99371 0.999496
0.999816 1 1 0.999816
0.999812 1 1 0.999812
0.999831 1 1 0.999831
0.999816 1 1 0.999816
0.999826 1 1 0.999826
0.999829 1 1 0.999829
0.999798 1 1 0.999798
0.999776 1 1 0.999776
0.9998 1 1 0.9998
0.999785 1 1 0.999785
0.999711 1 1 0.999711
0.999531 1 1 0.999531
0.999774 1 1.00013 0.999646
0.999761 1 1 0.999761
0.997281 1.00023 0.99744 0.999606
0.991818 0.995191 0.996893 0.999717
0.974617 0.974818 1.00072 0.999078
0.998108 0.998363 1.0002 0.99954
1.00177 1.00365 0.998608 0.999515
1.00465 1 1.00501 0.99964
0.999887 1 1.00002 0.999867
0.989198 0.985396 1.00397 0.999884
0.963511 0.966713 0.997922 0.998764
0.979975 1.00417 0.976221 0.999672
0.990439 0.994588 0.996243 0.999583
0.987325 1.00137 0.986191 0.999778
1.00113 1 1.00141 0.999723
0.999321 1 0.999591 0.99973
0.999693 1 1 0.999693
0.996001 1 0.996078 0.999923
0.998161 1 0.998259 0.999902
0.999806 1 1 0.999806
0.999459 1 0.999516 0.999943
0.999865 1 0.999995 0.99987
0.999794 1 1 0.999794
0.99988 1 1 0.99988
0.999834 1 1 0.999834
0.999781 1 1 0.999781
0.999849 1 1 0.999849
0.999814 1 1 0.999814
0.999795 1 1 0.999795
0.99983 1 1 0.99983
0.99981 1 1 0.99981
0.99981 1 1 0.99981
0.999805 1 1 0.999805
0.999815 1 1 0.999815
0.999846 1 1 0.999846
0.999934 1 1 0.999934
0.999855 1 1 0.999855
0.999817 1 1 0.999817
1 1 1 1
0.999948 1 1 0.999948
0.999872 1 1 0.999872
1 1 1 1
1 1 1 1
0.99996 1 1 0.99996
1 1 1 1
1 1 1 1
1 1 1 1
0.999831 1 1 0.999831
0.999841 1 1 0.999841
0.999877 1 1 0.999877
0.99985 1 1 0.99985
0.99988 1 1 0.99988
0.999959 1 1 0.999959
0.99988 1 1 0.99988
0.999964 1 1 0.999964
1 1 1 1
0.999968 1 1 0.999968
1 1 1 1
1 1 1 1
1 1 1 1
1 1 1 1
1 1 1 1
0.998038 1 0.998211 0.999827
0.985194 0.987611 0.998008 0.999544
0.966691 0.968169 0.999659 0.998813
0.99982 1 1 0.99982
0.999786 1 1 0.999786
0.999817 1 1 0.999817
0.999816 1 1 0.999816
0.999825 1 1 0.999825
0.999827 1 1 0.999827
0.999737 1 1 0.999737
0.999803 1 1 0.999803
0.999797 1 1 0.999797
0.999711 1 1 0.999711
0.999595 1 1 0.999595
0.999674 1 1 0.999674
0.999541 1 1 0.999541
0.999654 1 1 0.999654
0.998941 1.00158 0.997747 0.999616
0.990784 0.994789 0.996435 0.999537
1.00221 1.00315 0.999625 0.99944
0.999867 1 1 0.999867
1.00103 1 1.00116 0.999871
0.987676 0.985198 1.00298 0.999536
0.990986 1.00044 0.990786 0.999764
1.00011 1 1.00034 0.999766
0.998926 1 0.999187 0.999739
0.999714 1 1 0.999714
0.999724 1 1 0.999724
0.999818 1 1 0.999818
0.998995 1 0.999093 0.999902
0.99981 1 1 0.99981
0.999741 1 1 0.999741
0.999868 1 1 0.999868
0.999795 1 1 0.999795
0.99975 1 1 0.99975
0.999838 1 1 0.999838
0.999781 1 1 0.999781
0.999766 1 1 0.999766
0.999814 1 1 0.999814
0.999795 1 1 0.999795
0.999796 1 1 0.999796
0.999812 1 1 0.999812
0.99981 1 1 0.99981
0.999838 1 1 0.999838
0.999812 1 1 0.999812
0.999845 1 1 0.999845
0.999921 1 1 0.999921
1 1 1 1
0.999933 1 1 0.999933
0.999859 1 1 0.999859
1 1 1 1
1 1 1 1
0.999947 1 1 0.999947
1 1 1 1
1 1 1 1
1 1 1 1
0.999805 1 1 0.999805
0.999828 1 1 0.999828
0.999867 1 1 0.999867
0.999842 1 1 0.999842
0.999876 1 1 0.999876
0.999952 1 1 0.999952
0.999882 1 1 0.999882
0.999959 1 1 0.999959
1 1 1 1
0.999964 1 1 0.999964
1 1 1 1
1 1 1 1
1 1 1 1
1 1 1 1
1 1 1 1
0.999848 1 1 0.999848
0.998162 1 0.998325 0.999837
0.984458 0.986215 0.998319 0.999899
0.999765 1 1 0.999765
0.999832 1 1 0.999832
0.999733 1 1 0.999733
0.999783 1 1 0.999783
0.999819 1 1 0.999819
0.99965 1 1 0.99965
0.999824 1 1 0.999824
0.999738 1 1 0.999738
0.999656 1 1 0.999656
0.99971 1 1 0.99971
0.999583 1 1 0.999583
0.999669 1 1 0.999669
0.999552 1 1 0.999552
1.0007 1.00299 0.998088 0.999627
0.999885 1 1 0.999885
0.999865 1 1 0.999865
1.00212 1 1.00224 0.999874
0.99866 1 0.998911 0.999749
0.999735 1 1 0.999735
0.99972 1 1 0.99972
0.999821 1 1 0.999821
0.999794 1 1 0.999794
0.999813 1 1 0.999813
0.999745 1 1 0.999745
0.999737 1 1 0.999737
0.999795 1 1 0.999795
0.999748 1 1 0.999748
0.99974 1 1 0.99974
0.999781 1 1 0.999781
0.999765 1 1 0.999765
0.999772 1 1 0.999772
0.999795 1 1 0.999795
0.999796 1 1 0.999796
0.999822 1 1 0.999822
0.99981 1 1 0.99981
0.999838 1 1 0.999838
0.999908 1 1 0.999908
0.999843 1 1 0.999843
0.999921 1 1 0.999921
0.999998 1 1 0.999998
1 1 1 1
0.999999 1 1 0.999999
0.999933 1 1 0.999933
1 1 1 1
1 1 1 1
1 1 1 1
0.999742 1 1 0.999742
0.99978 1 1 0.99978
0.999802 1 1 0.999802
0.999855 1 1 0.999855
0.999824 1 1 0.999824
0.999868 1 1 0.999868
0.999944 1 1 0.999944
0.999876 1 1 0.999876
0.999952 1 1 0.999952
1 1 1 1
0.999959 1 1 0.999959
1 1 1 1
1 1 1 1
1 1 1 1
1 1 1 1
1 1 1 1
0.999804 1 1 0.999804
0.999841 1 1 0.999841
0.998622 1.00038 0.9984 0.999847
0.999686 1 1 0.999686
0.999778 1 1 0.999778
0.999844 1 1 0.999844
0.999739 1 1 0.999739
0.999781 1 1 0.999781
0.999645 1 1 0.999645
0.999643 1 1 0.999643
0.999739 1 1 0.999739
0.999652 1 1 0.999652
0.99957 1 1 0.99957
0.999663 1 1 0.999663
0.999864 1 1 0.999864
0.999882 1 1 0.999882
0.999863 1 1 0.999863
0.999716 1 1 0.999716
0.999824 1 1 0.999824
0.999794 1 1 0.999794
0.999789 1 1 0.999789
0.999749 1 1 0.999749
0.999733 1 1 0.999733
0.999747 1 1 0.999747
0.999746 1 1 0.999746
0.999739 1 1 0.999739
0.99975 1 1 0.99975
0.999765 1 1 0.999765
0.999772 1 1 0.999772
0.999801 1 1 0.999801
0.999796 1 1 0.999796
0.999822 1 1 0.999822
0.999892 1 1 0.999892
0.999838 1 1 0.999838
0.999908 1 1 0.999908
0.999996 1 1 0.999996
0.999921 1 1 0.999921
0.999998 1 1 0.999998
1 1 1 1
1 1 1 1
0.999999 1 1 0.999999
1 1 1 1
0.999699 1 1 0.999699
0.999775 1 1 0.999775
0.999762 1 1 0.999762
0.999833 1 1 0.999833
0.99978 1 1 0.99978
0.999799 1 1 0.999799
0.999855 1 1 0.999855
0.999934 1 1 0.999934
0.999868 1 1 0.999868
0.999944 1 1 0.999944
1 1 1 1
0.999952 1 1 0.999952
1 1 1 1
1 1 1 1
1 1 1 1
1 1 1 1
1 1 1 1
0.999763 1 1 0.999763
0.999805 1 1 0.999805
0.999834 1 1 0.999834
0.999666 1 1 0.999666
0.999686 1 1 0.999686
0.999791 1 1 0.999791
0.999745 1 1 0.999745
0.999645 1 1 0.999645
0.999637 1 1 0.999637
0.999648 1 1 0.999648
0.999831 1 1 0.999831
0.999852 1 1 0.999852
0.999879 1 1 0.999879
0.99979 1 1 0.99979
0.999793 1 1 0.999793
0.999788 1 1 0.999788
0.999776 1 1 0.999776
0.99973 1 1 0.99973
0.999748 1 1 0.999748
0.99975 1 1 0.99975
0.999738 1 1 0.999738
0.99975 1 1 0.99975
0.999782 1 1 0.999782
0.999772 1 1 0.999772
0.999801 1 1 0.999801
0.999873 1 1 0.999873
0.999822 1 1 0.999822
0.999892 1 1 0.999892
0.999993 1 1 0.999993
0.999908 1 1 0.999908
0.999995 1 1 0.999995
1 1 1 1
0.999997 1 1 0.999997
1 1 1 1
1 1 1 1
0.999677 1 1 0.999677
0.999729 1 1 0.999729
0.999706 1 1 0.999706
0.999818 1 1 0.999818
0.999773 1 1 0.999773
0.999781 1 1 0.999781
0.999914 1 1 0.999914
0.999833 1 1 0.999833
0.999781 1 1 0.999781
0.999855 1 1 0.999855
0.999934 1 1 0.999934
0.999999 1 1 0.999999
0.999945 1 1 0.999945
1 1 1 1
1 1 1 1
1 1 1 1
1 1 1 1
1 1 1 1
0.999746 1 1 0.999746
0.999754 1 1 0.999754
0.999805 1 1 0.999805
0.999659 1 1 0.999659
0.999686 1 1 0.999686
0.999645 1 1 0.999645
0.999792 1 1 0.999792
0.999834 1 1 0.999834
0.999839 1 1 0.999839
0.999786 1 1 0.999786
0.999775 1 1 0.999775
0.999786 1 1 0.999786
0.999777 1 1 0.999777
0.999772 1 1 0.999772
0.999748 1 1 0.999748
0.999751 1 1 0.999751
0.999776 1 1 0.999776
0.99975 1 1 0.99975
0.999782 1 1 0.999782
0.999856 1 1 0.999856
0.999801 1 1 0.999801
0.999873 1 1 0.999873
0.999989 1 1 0.999989
0.999892 1 1 0.999892
0.999991 1 1 0.999991
1 1 1 1
0.999994 1 1 0.999994
1 1 1 1
1 1 1 1
0.999741 1 1 0.999741
0.999697 1 1 0.999697
0.999674 1 1 0.999674
0.999778 1 1 0.999778
0.999733 1 1 0.999733
0.999714 1 1 0.999714
0.999888 1 1 0.999888
0.999809 1 1 0.999809
0.999771 1 1 0.999771
0.999995 1 1 0.999995
0.999914 1 1 0.999914
0.999833 1 1 0.999833
0.999935 1 1 0.999935
1 1 1 1
1 1 1 1
1 1 1 1
1 1 1 1
1 1 1 1
0.999739 1 1 0.999739
0.999743 1 1 0.999743
0.999745 1 1 0.999745
0.999652 1 1 0.999652
0.999766 1 1 0.999766
0.999796 1 1 0.999796
0.999837 1 1 0.999837
0.999782 1 1 0.999782
0.999777 1 1 0.999777
0.999783 1 1 0.999783
0.999777 1 1 0.999777
0.999773 1 1 0.999773
0.999784 1 1 0.999784
0.999752 1 1 0.999752
0.999776 1 1 0.999776
0.999847 1 1 0.999847
0.999782 1 1 0.999782
0.999856 1 1 0.999856
0.999985 1 1 0.999985
0.999872 1 1 0.999872
0.999987 1 1 0.999987
1 1 1 1
0.99999 1 1 0.99999
1 1 1 1
1 1 1 1
0.999744 1 1 0.999744
0.999734 1 1 0.999734
0.99974 1 1 0.99974
0.99974 1 1 0.99974
0.999705 1 1 0.999705
0.999672 1 1 0.999672
0.999848 1 1 0.999848
0.999778 1 1 0.999778
0.999737 1 1 0.999737
0.999988 1 1 0.999988
0.999881 1 1 0.999881
0.999801 1 1 0.999801
1 1 1 1
0.999997 1 1 0.999997
0.999915 1 1 0.999915
1 1 1 1
1 1 1 1
1 1 1 1
0.999749 1 1 0.999749
0.999747 1 1 0.999747
0.999739 1 1 0.999739
0.999774 1 1 0.999774
0.999766 1 1 0.999766
0.9998 1 1 0.9998
0.999778 1 1 0.999778
0.999784 1 1 0.999784
0.999806 1 1 0.999806
0.999773 1 1 0.999773
0.999788 1 1 0.999788
0.999841 1 1 0.999841
0.999777 1 1 0.999777
0.999847 1 1 0.999847
0.999981 1 1 0.999981
0.999856 1 1 0.999856
0.999984 1 1 0.999984
1 1 1 1
0.999986 1 1 0.999986
1 1 1 1
1 1 1 1
0.999745 1 1 0.999745
0.999754 1 1 0.999754
0.999743 1 1 0.999743
0.999757 1 1 0.999757
0.999736 1 1 0.999736
0.999739 1 1 0.999739
0.999822 1 1 0.999822
0.999749 1 1 0.999749
0.999712 1 1 0.999712
0.99998 1 1 0.99998
0.999845 1 1 0.999845
0.999778 1 1 0.999778
1 1 1 1
0.99999 1 1 0.99999
0.999874 1 1 0.999874
1 1 1 1
0.999998 1 1 0.999998
1 1 1 1
0.999762 1 1 0.999762
0.999749 1 1 0.999749
0.999755 1 1 0.999755
0.999796 1 1 0.999796
0.999773 1 1 0.999773
0.999765 1 1 0.999765
0.999784 1 1 0.999784
0.999806 1 1 0.999806
0.999847 1 1 0.999847
0.999793 1 1 0.999793
0.999844 1 1 0.999844
0.999978 1 1 0.999978
0.999848 1 1 0.999848
0.99998 1 1 0.99998
1 1 1 1
0.999983 1 1 0.999983
1 1 1 1
1 1 1 1
0.999761 1 1 0.999761
0.999741 1 1 0.999741
0.999773 1 1 0.999773
0.999755 1 1 0.999755
0.999742 1 1 0.999742
0.99983 1 1 0.99983
0.999756 1 1 0.999756
0.999739 1 1 0.999739
0.999975 1 1 0.999975
0.999826 1 1 0.999826
0.999757 1 1 0.999757
1 1 1 1
0.999982 1 1 0.999982
0.999841 1 1 0.999841
1 1 1 1
0.999992 1 1 0.999992
1 1 1 1
0.999789 1 1 0.999789
0.999762 1 1 0.999762
0.999749 1 1 0.999749
0.999842 1 1 0.999842
0.999796 1 1 0.999796
0.999772 1 1 0.999772
0.999806 1 1 0.999806
0.999847 1 1 0.999847
0.999976 1 1 0.999976
0.999848 1 1 0.999848
0.999978 1 1 0.999978
1 1 1 1
0.999979 1 1 0.999979
1 1 1 1
1 1 1 1
0.999781 1 1 0.999781
0.999758 1 1 0.999758
0.999736 1 1 0.999736
0.999838 1 1 0.999838
0.999773 1 1 0.999773
0.999756 1 1 0.999756
0.999975 1 1 0.999975
0.999829 1 1 0.999829
0.999755 1 1 0.999755
1 1 1 1
0.999977 1 1 0.999977
0.99983 1 1 0.99983
1 1 1 1
0.999984 1 1 0.999984
1 1 1 1
0.999846 1 1 0.999846
0.999785 1 1 0.999785
0.999763 1 1 0.999763
0.999975 1 1 0.999975
0.999842 1 1 0.999842
0.999796 1 1 0.999796
0.999847 1 1 0.999847
0.999976 1 1 0.999976
1 1 1 1
0.999977 1 1 0.999977
1 1 1 1
1 1 1 1
0.999844 1 1 0.999844
0.99978 1 1 0.99978
0.999755 1 1 0.999755
0.999976 1 1 0.999976
0.999838 1 1 0.999838
0.999773 1 1 0.999773
1 1 1 1
0.999975 1 1 0.999975
0.999829 1 1 0.999829
1 1 1 1
0.999978 1 1 0.999978
1 1 1 1
0.999974 1 1 0.999974
0.999842 1 1 0.999842
0.999781 1 1 0.999781
1 1 1 1
0.999974 1 1 0.999974
0.999843 1 1 0.999843
0.999976 1 1 0.999976
1 1 1 1
1 1 1 1
0.999975 1 1 0.999975
0.999844 1 1 0.999844
0.999779 1 1 0.999779
1 1 1 1
0.999976 1 1 0.999976
0.999837 1 1 0.999837
1 1 1 1
0.999974 1 1 0.999974
1 1 1 1
1 1 1 1
0.999974 1 1 0.999974
0.999838 1 1 0.999838
1 1 1 1
0.999974 1 1 0.999974
1 1 1 1
1 1 1 1
0.999976 1 1 0.999976
0.999844 1 1 0.999844
1 1 1 1
0.999975 1 1 0.999975
1 1 1 1
1 1 1 1
0.999974 1 1 0.999974
1 1 1 1
1 1 1 1
0.999976 1 1 0.999976
1 1 1 1
1 1 1 1
1 1 1 1

VECTORS lamdaE float
0.999103 0.999131 0.997421
0.999277 0.99821 0.999053
0.999083 0.999136 0.997455
0.998885 0.999981 0.997093
0.99899 0.999523 0.997286
0.999217 0.99868 0.997613
0.99948 1.00001 0.995712
0.9993 0.998157 0.999073
0.998899 0.999419 0.998878
0.999155 0.998529 0.999027
0.999401 0.997892 0.997983
0.999497 0.999544 0.995914
0.998973 1.00005 0.997019
0.998794 1.00013 0.997182
0.999062 0.999138 0.99749
0.998856 1.00004 0.99712
0.999201 0.998665 0.99765
0.998967 0.999546 0.997316
0.999491 1.00001 0.995713
0.998915 1.00001 0.99874
0.998887 1.00002 0.997083
0.998908 0.99982 0.997177
0.999685 1.00023 0.995152
0.999524 1.00014 0.995519
0.999331 0.998225 0.997822
0.999435 0.99982 0.995966
1.00023 1.0009 0.993436
0.999325 0.998101 0.999094
0.998923 0.999501 0.998097
0.999175 0.998615 0.998345
0.999394 0.997834 0.99913
0.999477 0.999546 0.995915
0.998875 0.999972 0.997204
0.999041 0.999206 0.997509
0.999568 1.00015 0.995833
0.999482 0.997521 0.999195
0.999483 0.99974 0.996331
0.99953 0.999267 0.996121
0.999911 1.00103 0.993623
0.999657 0.997133 0.999209
0.998967 1.00002 0.998709
0.998824 1.00005 0.997971
0.999041 0.999993 0.998678
0.998831 1.0001 0.997152
0.999934 1.00004 0.994467
0.998794 0.999951 0.99881
0.999775 1.00016 0.995482
0.998824 1.0001 0.997148
0.998944 0.999566 0.997348
0.999185 0.998644 0.997688
0.999503 1.00002 0.995713
0.99891 1.00003 0.997929
0.998857 1.00007 0.997104
0.999319 0.998197 0.997853
0.998883 0.99986 0.997207
0.999705 1.00022 0.995153
0.999445 0.999826 0.995968
0.999542 1.00013 0.99552
1.00025 1.00091 0.993401
0.998969 0.999992 0.998716
0.998879 1.00002 0.997113
0.999878 1.00002 0.995409
0.999768 1.00016 0.995079
0.999584 1.00023 0.995332
1.00096 1.00041 0.992531
1.00043 1.00069 0.993066
0.999469 0.99782 0.997978
0.999431 0.999505 0.996267
0.999985 1.00106 0.993719
1.00076 1.00086 0.992141
0.998949 0.999324 0.998879
0.999422 0.99778 0.999152
0.999204 0.998481 0.999026
0.999457 0.999552 0.995917
0.998867 0.999764 0.998795
0.999025 0.99903 0.998922
0.999518 1.00027 0.995094
0.999499 0.99755 0.998632
0.999462 0.999819 0.995687
0.999524 0.999216 0.996432
0.9999 1.00106 0.993612
0.999574 0.997329 0.999193
0.999801 0.99837 0.99647
0.99964 1.00031 0.994816
0.999498 1.00009 0.995333
1.0004 1.0007 0.992974
0.99961 0.998893 0.996863
1 1.00094 0.993546
0.999869 1.00101 0.993738
1.00024 1.00131 0.992684
0.999723 0.996956 0.99923
0.99967 0.99712 0.999215
0.998833 0.999982 0.998771
0.998926 1.00002 0.998727
0.999024 0.999991 0.998684
0.998867 1.00005 0.997939
0.999926 1.00002 0.994904
0.998818 0.999972 0.997984
0.999746 1.00016 0.995093
0.999037 0.999973 0.998685
1.00002 0.999934 0.994381
0.999848 1.0001 0.995413
1.00137 1.00001 0.991727
0.999705 1.00022 0.995536
1.00108 1.00023 0.992099
0.998938 1.00003 0.997078
0.998826 1.00013 0.997125
0.999305 0.998167 0.997886
0.998856 0.999901 0.997238
0.999726 1.0002 0.995153
0.99956 1.00012 0.99552
0.999456 0.999839 0.995969
1.00028 1.00091 0.993365
0.998992 0.999996 0.998703
0.998857 1.00005 0.997136
0.999887 1.00002 0.994798
0.999788 1.00015 0.995073
0.999436 0.997801 0.998561
0.999449 0.9995 0.996413
0.999606 1.00021 0.995334
1.00096 1.00039 0.992452
1.00002 1.00108 0.993677
1.00045 1.0007 0.993116
1.00076 1.00086 0.992147
0.999961 0.999948 0.994471
0.999795 1.00009 0.995106
1.00132 0.999992 0.992066
1.00112 1.00019 0.992229
1.00069 1.00053 0.992739
1.00158 1.00026 0.991321
0.999536 0.997525 0.999173
1.00097 1.00058 0.991987
0.999541 0.999145 0.996188
0.999829 1.0011 0.993666
1.00052 1.00123 0.992301
1.00106 1.00076 0.991661
0.999737 0.998584 0.99635
1.00005 1.00037 0.994006
0.998875 0.999661 0.998816
0.999063 0.998906 0.998957
0.999467 1.00035 0.995092
0.999518 0.997517 0.999185
0.999515 0.999192 0.996158
0.999416 0.999879 0.99567
0.999889 1.00109 0.9936
0.999592 0.997314 0.999198
0.999806 0.998344 0.996475
0.999607 1.00028 0.995247
0.999458 1.00008 0.995728
1.00041 1.00068 0.992979
0.999621 0.998867 0.996332
0.999993 1.00095 0.99354
0.999849 1.00105 0.993733
1.00025 1.0013 0.99266
0.999717 0.99861 0.996403
0.999864 0.998153 0.996561
1.00006 1.00027 0.994093
1.00068 1.00051 0.992616
1.00015 1.00086 0.99333
1.00094 1.0007 0.991942
0.999921 1.00075 0.9939
1.00041 1.001 0.992627
1.00012 1.0016 0.992705
1.00035 1.00154 0.99231
0.999776 0.996798 0.999254
0.999732 0.996947 0.999237
0.999683 0.997109 0.999221
0.999801 0.99836 0.996456
0.999614 0.997333 0.999192
0.998836 0.999876 0.998783
0.998862 1.00002 0.998757
0.999732 1.0002 0.994698
0.99991 1.00002 0.994503
0.999008 0.999987 0.998693
0.999042 0.999977 0.998679
1.00002 0.999923 0.994385
0.999818 1.0001 0.995027
1.00137 1.00001 0.991732
0.999671 1.00027 0.994748
1.00108 1.00024 0.992105
1.00003 0.999885 0.994376
1.0015 0.999941 0.991515
1.00122 1.0001 0.991935
1.00199 0.999945 0.990587
1.0009 1.00036 0.992318
1.00168 1.00008 0.991087
0.999016 1 0.998691
0.998832 1.00008 0.99716
0.999882 1.00003 0.994204
0.999808 1.00013 0.995067
0.999399 0.997777 0.999154
0.999469 0.9995 0.996558
0.999629 1.00019 0.995336
1.00095 1.00037 0.992373
1.00048 1.00071 0.993166
1.00006 1.00109 0.993635
1.00075 1.00086 0.992154
0.999963 0.999957 0.994465
0.999818 1.00007 0.995096
1.00131 0.999993 0.991894
1.00113 1.00021 0.992282
0.999516 0.997542 0.999167
0.99954 0.999164 0.99646
0.999869 1.00108 0.993805
1.00069 1.00053 0.992744
1.00156 1.00022 0.991229
1.00048 1.00123 0.992283
1.00099 1.00059 0.992028
1.00105 1.00076 0.991671
0.999728 0.998619 0.996348
1.00006 1.00035 0.994012
1.00143 0.999935 0.991669
1.00122 1.00006 0.992165
1.00196 0.999949 0.990869
1.00175 1 0.9909
1.0012 1.00041 0.991769
1.0019 1 0.990872
0.999636 0.998847 0.996276
1.0013 1.00038 0.991552
0.999838 1.001 0.993788
1.0002 1.00143 0.992528
1.00081 1.00135 0.991793
1.00123 1.00058 0.991563
1.00001 1.00057 0.993897
1.00007 1.00011 0.994246
1.00019 1.00147 0.992671
0.999564 1.00038 0.994868
0.999609 0.997299 0.999202
0.999813 0.998318 0.996479
0.999405 1.00017 0.995393
1.00041 1.00067 0.992984
0.999615 0.998841 0.996326
0.999828 1.00109 0.993727
0.999985 1.00096 0.993534
1.00026 1.00128 0.992637
0.999721 0.998582 0.996405
0.999868 0.998132 0.996567
1.00005 1.00028 0.994091
1.00068 1.0005 0.99262
1.00015 1.00085 0.993334
1.00093 1.00071 0.991944
0.999901 1.00078 0.993899
1.00042 1.001 0.992665
1.00011 1.00161 0.992699
1.00035 1.00153 0.992269
0.999907 0.997965 0.996667
1.00001 1.00047 0.994005
1.00009 1.00007 0.994232
1.00018 1.00132 0.992848
1.00124 1.00045 0.991581
1.00062 1.00091 0.992387
1.00121 1.00071 0.99141
1.00011 1.00152 0.992798
1.00057 1.00113 0.992258
1.00017 1.00205 0.992143
1.00044 1.00158 0.991976
1.00011 0.999306 0.994955
0.999963 0.997636 0.996885
0.999819 0.99665 0.99928
0.999781 0.996788 0.999262
0.999741 0.996937 0.999244
0.999841 0.998135 0.996609
0.999668 0.997151 0.99922
0.999794 0.998391 0.996449
0.9996 0.997342 0.999186
0.999653 1.0003 0.994756
0.99981 1.00011 0.994622
1.00107 1.00024 0.992111
1.00137 1.00001 0.991737
1.00001 0.999913 0.99439
0.99905 0.999978 0.998677
1.00004 0.99989 0.994371
1.00151 0.999939 0.991519
1.00122 1.00011 0.99194
1.002 0.99995 0.990585
1.0009 1.00036 0.992324
1.00169 1.00007 0.991088
1.00152 0.999913 0.991508
1.00213 0.999922 0.990338
1.00185 0.999974 0.99085
1.00228 0.999756 0.990256
1.00148 1.00024 0.99132
1.002 0.999829 0.990718
0.999967 0.999965 0.994458
0.999841 1.00006 0.995086
1.0013 0.999986 0.991722
1.00115 1.00023 0.992335
0.999496 0.997558 0.99916
0.99954 0.999184 0.996728
0.999909 1.00106 0.993945
1.00069 1.00053 0.992749
1.00154 1.00019 0.991138
1.00102 1.0006 0.99207
1.00044 1.00124 0.992265
1.00104 1.00076 0.991681
0.99972 0.998653 0.996346
1.00006 1.00034 0.994017
1.00143 0.999937 0.991602
1.00122 1.00006 0.992168
1.00195 0.999927 0.990831
1.00177 1.00004 0.991002
0.999634 0.998878 0.996275
0.999861 1.00096 0.993791
1.0002 1.00144 0.99259
1.00123 1.00043 0.991768
1.00188 0.999956 0.990853
1.00077 1.00135 0.991723
1.0013 1.00038 0.991554
1.00121 1.00056 0.991551
1.00002 1.00054 0.993903
1.0002 1.00144 0.992643
1.00006 1.00011 0.994244
1.00205 0.999944 0.990674
1.00189 0.999936 0.990901
1.00225 0.999852 0.99029
1.00211 0.999797 0.990524
1.00149 1.00013 0.991323
1.00206 0.999587 0.990918
0.999912 1.00079 0.993857
1.00145 1.00012 0.991507
1.00013 1.00144 0.992805
1.00036 1.00174 0.991925
1.00094 1.00141 0.991363
1.00132 1.00036 0.991726
1.00007 0.999801 0.99455
1.00019 1.0014 0.992746
1.00017 1.00146 0.992604
1.00023 1.00197 0.992215
1.00068 1.00049 0.992625
0.999872 0.99811 0.996573
0.999726 0.998553 0.996408
1.00005 1.0003 0.994089
1.00014 1.00084 0.993337
1.00093 1.00071 0.991945
0.999879 1.00082 0.993898
1.00011 1.00161 0.992693
1.00043 1.00101 0.992703
1.00034 1.00153 0.992228
0.999908 0.997947 0.996674
0.999993 1.00049 0.994002
1.00009 1.00007 0.994231
1.00017 1.00133 0.992842
1.00125 1.00045 0.991576
1.00061 1.00091 0.992395
1.0012 1.00071 0.991412
1.0001 1.00154 0.9928
1.00058 1.00114 0.992301
1.00018 1.00206 0.992128
1.00042 1.00155 0.992077
0.999937 0.997794 0.996783
1.0001 0.99987 0.994408
1.00017 1.00135 0.992847
1.00019 1.00125 0.992903
1.00019 1.00188 0.99225
1.00153 1.00035 0.991091
1.00081 1.001 0.991915
1.00129 1.00077 0.99119
1.00014 1.00208 0.992199
1.00065 1.00128 0.991969
1.00026 1.00231 0.991514
1.0001 0.999478 0.994793
1.00014 1.00057 0.993682
1.00011 0.999184 0.995076
1.00011 0.999307 0.994959
0.999982 0.997473 0.997435
0.999959 0.99762 0.997127
0.999876 0.99653 0.998385
0.999822 0.996636 0.999288
0.999787 0.996778 0.99927
0.999871 0.997921 0.996772
0.999711 0.996962 0.999256
0.999838 0.99816 0.996598
0.999661 0.997164 0.999211
0.999787 0.998422 0.996443
0.999585 0.997354 0.99918
1.0009 1.00037 0.99233
1.00122 1.00011 0.991945
1.00169 1.00008 0.99109
1.00201 0.999956 0.990584
1.00151 0.999938 0.991523
1.00004 0.999897 0.994368
1.00153 0.999911 0.991505
1.00213 0.999926 0.990339
1.00185 0.99998 0.990853
1.00229 0.999745 0.990238
1.00149 1.00024 0.991316
1.002 0.999838 0.990719
1.00215 0.999922 0.990313
1.00235 0.999786 0.990019
1.00217 0.999726 0.990466
1.00247 0.999469 0.990226
1.00178 1.00005 0.99092
1.00216 0.999321 0.990916
1.00142 0.99994 0.991534
1.00123 1.00005 0.992171
1.00194 0.999909 0.990792
1.00178 1.00007 0.991104
0.999632 0.998908 0.996274
0.999883 1.00093 0.993794
1.0002 1.00144 0.992653
1.00126 1.00044 0.991767
1.00186 0.999907 0.990834
1.0013 1.00038 0.991556
1.00073 1.00135 0.991653
1.00119 1.00055 0.991539
1.00003 1.00052 0.993909
1.00021 1.00141 0.992615
1.00006 1.00011 0.994243
1.00204 0.999943 0.990588
1.0019 0.999918 0.990902
1.00225 0.999835 0.990237
1.00213 0.999803 0.990541
0.999932 1.00075 0.993861
1.00015 1.00143 0.992801
1.00035 1.00175 0.991994
1.00151 1.00018 0.991348
1.00204 0.999504 0.990964
1.0009 1.00145 0.991295
1.00145 1.00012 0.991511
1.0013 1.00029 0.99176
1.0002 1.00138 0.992754
1.00023 1.00195 0.992164
1.00006 0.999812 0.994545
1.00018 1.00144 0.992632
1.0023 0.999904 0.990078
1.00229 0.999754 0.990328
1.0024 0.999781 0.989981
1.00229 0.999437 0.990488
1.00166 0.99977 0.991377
1.00223 0.999026 0.991165
1.00014 1.0014 0.99283
1.0015 0.999654 0.991846
1.0002 1.00175 0.992255
1.0005 1.00213 0.991413
1.00101 1.00148 0.991052
1.00142 1.00017 0.991757
1.00006 0.999564 0.994785
1.00015 1.00122 0.992862
1.00024 1.00173 0.992326
1.00016 1.00226 0.991969
1.00028 1.00206 0.992012
0.99991 0.99793 0.996681
1.00126 1.00045 0.991571
1.00009 1.00008 0.994231
0.999979 1.00052 0.993999
1.00016 1.00134 0.992836
1.0006 1.00091 0.992403
1.0012 1.00072 0.991414
1.00008 1.00155 0.992801
1.00019 1.00208 0.992112
1.00059 1.00114 0.992344
1.0004 1.00151 0.992178
0.999937 0.997779 0.99679
1.0001 0.999863 0.994409
1.00016 1.00137 0.992844
1.00018 1.00126 0.992897
1.00019 1.00188 0.992241
1.00155 1.00035 0.991084
1.00081 1.001 0.991917
1.00129 1.00077 0.991168
1.00013 1.00208 0.992207
1.00066 1.00128 0.992001
1.00031 1.00228 0.991568
1.0001 0.999674 0.994602
1.00019 1.00112 0.993015
1.0002 1.00186 0.992262
1.00018 1.00192 0.992244
1.00021 1.00213 0.99201
1.00165 1.00022 0.990956
1.00089 1.00111 0.991643
1.0012 1.00075 0.991249
1.00016 1.00257 0.991641
1.0006 1.00217 0.991182
1.00011 0.999472 0.994798
1.00017 1.00079 0.993281
1.00014 1.00059 0.993598
1.00011 1.00155 0.992881
1.0001 1.00049 0.993812
1.00011 0.999103 0.995159
1.00011 0.999192 0.995078
1.00001 0.99734 0.997503
1.00011 0.999308 0.994963
0.999984 0.997471 0.997445
0.999918 0.996385 0.99844
0.999955 0.997607 0.997366
0.999866 0.9965 0.998851
0.999826 0.996623 0.999297
0.999901 0.997727 0.996908
0.999872 0.997937 0.996761
0.999754 0.99677 0.999292
0.999707 0.99698 0.999245
0.999836 0.998185 0.996588
0.999653 0.997178 0.999201
1.00149 1.00024 0.991312
1.00185 0.999982 0.990857
1.002 0.999846 0.990719
1.0023 0.999734 0.99022
1.00214 0.999929 0.99034
1.00153 0.999908 0.991501
1.00215 0.999922 0.990315
1.00237 0.999803 0.989989
1.00217 0.999735 0.990468
1.00247 0.999454 0.990224
1.00179 1.00006 0.99091
1.00217 0.999281 0.990932
1.00237 0.99987 0.989935
1.00243 0.999725 0.989954
1.00236 0.999193 0.990533
1.00259 0.999377 0.990197
1.00195 0.999638 0.990956
1.00237 0.998746 0.991192
1.00204 0.999939 0.990503
1.0019 0.999904 0.990902
1.00225 0.999819 0.990183
1.00215 0.999806 0.990558
0.999951 1.00072 0.993866
1.00016 1.00143 0.992797
1.00034 1.00177 0.992063
1.00154 1.00022 0.991373
1.00202 0.999421 0.99101
1.00145 1.00011 0.991514
1.00086 1.00149 0.991228
1.00127 1.00021 0.991794
1.00021 1.00136 0.992763
1.00023 1.00193 0.992114
1.00005 0.999822 0.99454
1.00018 1.00142 0.99266
1.00229 0.999901 0.990085
1.00228 0.999754 0.990341
1.00239 0.999797 0.989974
1.0023 0.999445 0.9905
1.00016 1.00138 0.992832
1.0002 1.00175 0.99231
1.00048 1.00216 0.991406
1.00169 0.999832 0.991343
1.00213 0.99897 0.991321
1.001 1.00154 0.991018
1.0015 0.999669 0.991854
1.00137 0.999985 0.991868
1.00025 1.00173 0.992327
1.00028 1.00202 0.992001
1.00016 1.00229 0.991952
1.00006 0.999566 0.994689
1.00016 1.00118 0.992907
1.00243 0.99988 0.989856
1.00253 0.999604 0.989897
1.00244 0.998923 0.990743
1.00189 0.999036 0.99165
1.00021 1.00167 0.992436
1.00171 0.99908 0.992188
1.00017 1.00212 0.99184
1.00062 1.00257 0.990738
1.00119 1.00143 0.990798
1.00008 0.999356 0.994793
1.00015 1.0009 0.993373
1.00011 1.00214 0.99216
1.00028 1.00181 0.992179
1.00019 1.00269 0.99151
1.00033 1.00206 0.99183
0.999936 0.997766 0.996796
1.00011 0.999857 0.99441
1.00157 1.00034 0.991077
1.00017 1.00127 0.992891
1.00014 1.00139 0.992841
1.00019 1.00187 0.992232
1.0008 1.001 0.99192
1.00129 1.00078 0.991146
1.00012 1.00208 0.992215
1.00035 1.00225 0.991622
1.00066 1.00127 0.992033
1.0001 0.999667 0.994604
1.00019 1.00113 0.993009
1.0002 1.00184 0.992302
1.00018 1.00194 0.992236
1.0002 1.00215 0.991979
1.00166 1.00026 0.990939
1.00091 1.00109 0.991626
1.00124 1.00073 0.991256
1.00014 1.00257 0.9916
1.0006 1.00227 0.991094
1.00018 1.00097 0.993181
1.00019 1.00191 0.992166
1.00022 1.00225 0.991871
1.00021 1.00221 0.991831
1.00028 1.00223 0.991755
1.00189 0.999144 0.99153
1.00095 1.0017 0.991007
1.00127 1.00055 0.990983
1.00034 1.00288 0.991159
1.00059 1.00271 0.990264
1.00011 0.999465 0.994802
1.00016 1.0008 0.993327
1.00014 1.00175 0.992422
1.00014 1.00061 0.993513
1.00011 1.00049 0.993813
1.00012 1.00155 0.992767
1.00011 1.00223 0.992163
1.00011 1.00145 0.99278
1.00008 1.00044 0.993916
1.00012 0.999057 0.995205
1.00011 0.999107 0.99516
1.00004 0.997223 0.997555
1.00011 0.999199 0.995079
1.00001 0.997341 0.997511
0.999955 0.99626 0.998482
0.999986 0.997468 0.997456
0.999913 0.996358 0.998437
0.999853 0.996464 0.99932
0.999938 0.99756 0.997005
0.999906 0.997736 0.996901
0.999802 0.996587 0.999321
0.999874 0.997951 0.996751
0.999751 0.996792 0.999281
0.999704 0.996998 0.999234
1.00179 1.00006 0.990901
1.00218 0.999746 0.99047
1.00218 0.999237 0.990949
1.00247 0.99944 0.990222
1.00239 0.99982 0.989959
1.00215 0.999922 0.990317
1.00237 0.999879 0.989924
1.00243 0.999728 0.98996
1.0024 0.999216 0.990478
1.00254 0.999372 0.990165
1.00194 0.999688 0.990949
1.00231 0.998592 0.991352
1.00241 0.999845 0.989885
1.00242 0.999704 0.990019
1.00253 0.998854 0.990637
1.0022 0.99851 0.99165
1.00229 0.999898 0.990091
1.00227 0.999752 0.990353
1.00237 0.99981 0.989966
1.00231 0.999452 0.990511
1.00017 1.00136 0.992834
1.0002 1.00174 0.992365
1.00047 1.0022 0.9914
1.00171 0.999892 0.99131
1.00203 0.998917 0.991476
1.00149 0.999684 0.991862
1.00099 1.0016 0.990985
1.00133 0.999816 0.991979
1.00025 1.00172 0.992328
1.00028 1.00198 0.99199
1.00015 1.00232 0.991935
1.00006 0.99957 0.994593
1.00018 1.00113 0.992951
1.00241 0.999859 0.989863
1.00251 0.999617 0.989942
1.00241 0.998978 0.990791
1.00023 1.00167 0.992429
1.00021 1.00212 0.991919
1.00059 1.00263 0.99072
1.00192 0.999084 0.991596
1.00116 1.00129 0.990959
1.00164 0.9991 0.992157
1.00008 0.999337 0.994816
1.00028 1.00182 0.992169
1.00031 1.002 0.991891
1.0002 1.00268 0.991513
1.00012 1.00215 0.992191
1.00016 1.00089 0.993286
1.0025 0.99982 0.989807
1.00268 0.999346 0.98986
1.00241 0.998442 0.991166
1.00219 0.998084 0.992135
1.00024 1.00189 0.992167
1.00156 1.00009 0.991354
1.00027 1.00276 0.991088
1.00075 1.00301 0.990179
1.00009 0.999193 0.994953
1.00014 1.0006 0.993699
1.00013 1.00188 0.992501
1.00013 1.00293 0.991344
1.00028 1.00204 0.991917
1.00028 1.00257 0.991411
1.00011 0.999657 0.994607
1.00018 1.00114 0.993004
1.00167 1.0003 0.990923
1.00018 1.00195 0.992229
1.00019 1.00183 0.992341
1.00019 1.00216 0.991947
1.00092 1.00108 0.991609
1.00128 1.00072 0.991263
1.00013 1.00257 0.991559
1.00061 1.00237 0.991005
1.00018 1.00098 0.993179
1.00019 1.00193 0.992191
1.00021 1.00223 0.991926
1.0002 1.00223 0.991873
1.00024 1.00224 0.991803
1.00194 0.999182 0.991576
1.00098 1.00164 0.991045
1.00128 1.0006 0.991161
1.00031 1.0029 0.991103
1.00064 1.00287 0.990198
1.00017 1.00187 0.992256
1.0002 1.00246 0.991609
1.00027 1.00259 0.991439
1.00025 1.00241 0.991501
1.00285 0.997426 0.991637
1.00195 0.999011 0.991428
1.00105 1.00229 0.990134
1.00032 1.00379 0.989955
1.00016 1.00082 0.993373
1.00013 1.00177 0.992472
1.00012 1.00237 0.991931
1.00011 1.00049 0.993814
1.00012 1.00156 0.992653
1.00008 1.00043 0.993917
1.00012 1.00223 0.992079
1.0001 1.00145 0.992823
1.00016 1.00267 0.991619
1.00011 1.00214 0.992084
1.00008 1.00137 0.992901
1.00007 1.00039 0.99399
1.00011 0.999047 0.995218
1.00012 0.999054 0.995207
1.00006 0.99715 0.997575
1.00011 0.999112 0.995161
1.00004 0.997229 0.99756
0.99999 0.996147 0.998514
1.00001 0.997341 0.99752
0.999951 0.99623 0.998479
0.999907 0.996331 0.998433
0.999973 0.997411 0.997083
0.999942 0.997565 0.997001
0.999852 0.996426 0.999341
0.99991 0.997744 0.996893
0.999798 0.996609 0.999312
0.999748 0.996813 0.999271
1.00193 0.999737 0.990943
1.00244 0.999241 0.990423
1.00226 0.998446 0.991512
1.00249 0.999369 0.990133
1.00243 0.999731 0.989966
1.00238 0.999888 0.989913
1.0024 0.99985 0.989897
1.00241 0.999692 0.990029
1.00252 0.998847 0.990663
1.00221 0.998467 0.991629
1.00236 0.999864 0.989957
1.00247 0.999389 0.990314
1.0026 0.998158 0.991137
1.0024 0.999839 0.98987
1.00249 0.999632 0.989988
1.00237 0.999028 0.990839
1.00024 1.00166 0.992423
1.00026 1.00211 0.991999
1.00056 1.00269 0.990702
1.00195 0.999128 0.991542
1.00158 0.999121 0.992126
1.00114 1.00115 0.991121
1.00028 1.00184 0.99216
1.0003 1.00194 0.991952
1.0002 1.00267 0.991515
1.00007 0.999317 0.994839
1.00013 1.00216 0.992222
1.00016 1.00088 0.993199
1.00247 0.999815 0.989833
1.0027 0.999319 0.989847
1.00244 0.998529 0.991081
1.00026 1.00189 0.992153
1.00026 1.00272 0.991192
1.00074 1.00294 0.990238
1.00214 0.998145 0.992192
1.00157 1.00002 0.991342
1.00009 0.999182 0.995047
1.00013 1.0006 0.993704
1.00026 1.00203 0.991919
1.00028 1.00256 0.991422
1.00012 1.0029 0.991405
1.00013 1.00191 0.992431
1.00249 0.999641 0.989955
1.00279 0.998906 0.990101
1.00258 0.997255 0.992055
1.00222 0.99813 0.992224
1.0002 1.00239 0.991663
1.00101 1.00273 0.989916
1.00044 1.00339 0.990475
1.0001 0.999047 0.99524
1.0001 1.00014 0.994173
1.00012 1.0004 0.993761
1.00012 1.00167 0.992668
1.00009 1.00264 0.991666
1.00014 1.00336 0.9909
1.00024 1.00219 0.991697
1.00023 1.00336 0.991088
1.00018 1.00098 0.993177
1.00019 1.00195 0.992217
1.00199 0.999221 0.991622
1.0002 1.00224 0.991915
1.00021 1.00221 0.991982
1.0002 1.00224 0.991851
1.00101 1.00156 0.991083
1.00128 1.00063 0.991339
1.00027 1.00292 0.991047
1.00068 1.00301 0.990132
1.00016 1.0019 0.992233
1.00021 1.00243 0.991669
1.00026 1.00256 0.9915
1.00027 1.00243 0.99154
1.00283 0.997344 0.991682
1.00189 0.999274 0.991392
1.00109 1.00226 0.990225
1.00038 1.0037 0.989916
1.00014 1.00251 0.991773
1.00284 0.997813 0.991007
1.00023 1.00284 0.991306
1.00025 1.00311 0.990935
1.00303 0.99688 0.991611
1.00162 1.00135 0.989892
1.00064 1.00417 0.989388
1.00013 1.00178 0.992522
1.00011 1.00238 0.991936
1.00013 1.0028 0.99149
1.00008 1.00043 0.993917
1.0001 1.00146 0.992867
1.00012 1.00224 0.991995
1.00007 1.00039 0.993992
1.00008 1.00138 0.992891
1.00016 1.00266 0.991553
1.00011 1.00215 0.992175
1.00026 1.00287 0.991217
1.00019 1.0026 0.991514
1.00011 1.00203 0.992302
1.00005 1.00134 0.993067
1.00007 1.00037 0.994017
1.00011 0.999069 0.995206
1.00011 0.999048 0.995218
1.00007 0.997127 0.997565
1.00012 0.999052 0.99521
1.00006 0.997165 0.997575
1.00002 0.996076 0.998519
1.00004 0.997235 0.997566
0.999988 0.996116 0.998512
0.999948 0.996201 0.998475
1.00012 0.998919 0.995342
1.00001 0.997264 0.99716
0.999977 0.997418 0.99708
0.999899 0.996278 0.99936
0.999947 0.997573 0.996996
0.999847 0.996444 0.999335
0.999793 0.996629 0.999304
1.00223 0.998419 0.991608
1.0025 0.998839 0.990689
1.00241 0.999678 0.990039
1.0024 0.999855 0.989909
1.00235 0.999873 0.989993
1.00247 0.999431 0.99024
1.00255 0.998118 0.991276
1.0023 0.99976 0.990223
1.0026 0.998937 0.990451
1.00257 0.998219 0.99109
1.00244 0.999809 0.989858
1.00272 0.999297 0.989833
1.00247 0.998614 0.990996
1.00027 1.00189 0.99214
1.00024 1.00267 0.991297
1.00073 1.00286 0.990297
1.00207 0.998201 0.992249
1.00158 0.999962 0.991329
1.00024 1.00203 0.99192
1.00028 1.00255 0.991433
1.00011 1.00287 0.991466
1.00009 0.999167 0.995141
1.00013 1.00059 0.993709
1.00013 1.00193 0.99236
1.00248 0.999618 0.98998
1.0001 0.999044 0.995238
1.00009 1.00014 0.994114
1.00281 0.998875 0.99011
1.00253 0.997463 0.991896
1.00019 1.00233 0.991721
1.00042 1.00347 0.990348
1.00102 1.00248 0.989962
1.00215 0.998124 0.992194
1.00011 1.0004 0.993916
1.00011 1.00167 0.992665
1.00028 1.00224 0.99171
1.00021 1.00305 0.991194
1.00012 1.00345 0.990807
1.00011 1.00262 0.991678
1.00253 0.999269 0.990219
1.00286 0.998029 0.990911
1.0028 0.996096 0.992933
1.00162 1.00058 0.990779
1.00022 1.00281 0.991291
1.00058 1.00419 0.989468
1.00008 1.00005 0.994159
1.0001 1.00026 0.994048
1.00006 1.00115 0.993413
1.00009 1.00146 0.992797
1.00012 1.00239 0.991966
1.00008 1.00322 0.991068
1.00005 1.0041 0.990412
1.00006 1.00318 0.991199
1.00016 1.00193 0.99221
1.00021 1.0024 0.991728
1.0028 0.997258 0.991726
1.00183 0.999537 0.991356
1.0003 1.00245 0.99158
1.00024 1.00254 0.991561
1.00113 1.00227 0.990317
1.00045 1.00361 0.989878
1.00013 1.0025 0.991772
1.00283 0.997672 0.991109
1.00022 1.0028 0.991307
1.00027 1.00309 0.990816
1.00296 0.996982 0.991592
1.0017 1.0013 0.989896
1.00059 1.00422 0.989371
1.00013 1.00298 0.991345
1.00367 0.996216 0.990908
1.00034 1.00302 0.99102
1.00039 1.00405 0.989959
1.00269 0.999104 0.989679
1.00086 1.00357 0.989113
1.00383 0.998188 0.989647
1.0001 1.00239 0.99194
1.00011 1.00281 0.991494
1.00024 1.00298 0.991178
1.00007 1.00038 0.993993
1.00008 1.00139 0.99288
1.0001 1.00216 0.992265
1.00016 1.00266 0.991488
1.00007 1.00036 0.994018
1.00006 1.00136 0.993005
1.00025 1.00285 0.991197
1.00011 1.00203 0.992303
1.00017 1.0026 0.991595
1.00034 1.00286 0.990989
1.00017 1.00252 0.991759
1.00011 1.00202 0.992371
1.00006 1.00134 0.992945
1.00007 1.00038 0.993864
1.00006 1.00142 0.993113
1.00007 1.00044 0.993808
1.0001 0.999098 0.995184
1.00011 0.999072 0.995205
1.00009 0.997145 0.99712
1.00011 0.99905 0.995218
1.00008 0.997146 0.997347
1.00001 0.996016 0.999368
1.00006 0.997179 0.997575
1.00002 0.996045 0.99852
0.999986 0.996086 0.99851
1.00013 0.998816 0.995422
1.00012 0.998913 0.995342
1.00004 0.997132 0.997232
1.00001 0.997272 0.997369
0.99994 0.996146 0.999378
0.999981 0.997425 0.997077
0.999893 0.996297 0.999355
0.999841 0.996462 0.99933
1.00252 0.998077 0.991416
1.00247 0.999471 0.990167
1.00234 0.999882 0.990029
1.0023 0.999759 0.99022
1.00252 0.998935 0.990546
1.00251 0.998527 0.990987
1.00237 0.999179 0.990683
1.00427 0.996509 0.991302
1.00272 0.99735 0.991588
1.00009 0.999986 0.99435
1.00247 0.999593 0.990006
1.00283 0.998839 0.990118
1.0025 0.997628 0.991737
1.00018 1.00228 0.991779
1.00041 1.00353 0.990221
1.00104 1.00225 0.990008
1.00209 0.998145 0.992163
1.00031 1.00226 0.991722
1.00019 1.00278 0.991299
1.00009 1.00353 0.990714
1.0001 0.999045 0.995236
1.00013 1.00259 0.991689
1.00011 1.0004 0.994072
1.00011 1.00167 0.992662
1.00009 1.00014 0.994056
1.00257 0.999221 0.99019
1.00009 1.00005 0.994224
1.0001 1.00027 0.994045
1.00006 1.00114 0.99329
1.00287 0.997944 0.990929
1.00275 0.996311 0.992712
1.00024 1.00269 0.991329
1.00047 1.00421 0.989409
1.00159 1.00048 0.990816
1.00009 1.00144 0.99288
1.00013 1.0024 0.991925
1.00008 1.00316 0.991153
1.00005 1.00403 0.990483
1.00009 1.00319 0.991126
1.00275 0.998648 0.990277
1.00313 0.996332 0.992098
1.00255 0.998091 0.991513
1.00088 1.00345 0.989605
1.00002 1.00376 0.990641
1.00004 1.00102 0.993281
1.00008 1.00128 0.993008
1.00006 1.00188 0.99262
1.0001 1.00227 0.992113
1.00013 1.00286 0.991423
1.00001 1.00383 0.990721
0.999912 1.00451 0.990188
1.00013 1.00249 0.991771
1.00021 1.00276 0.991309
1.00284 0.997513 0.991212
1.00287 0.997077 0.991573
1.00178 1.00123 0.989901
1.00029 1.00305 0.990698
1.00054 1.00426 0.989355
1.00013 1.00295 0.991384
1.00365 0.996083 0.990958
1.0003 1.00296 0.991038
1.00026 1.00414 0.989943
1.00286 0.99882 0.989784
1.00087 1.00366 0.989109
1.00378 0.998072 0.989925
1.0002 1.00311 0.991091
1.00393 0.996678 0.989582
1.00024 1.0035 0.990668
1.00007 1.00478 0.989598
1.00131 1.00205 0.989265
0.996809 1.00208 0.971684
0.99908 1.00082 0.987531
1.00309 0.999176 0.990621
0.994494 0.998745 0.982611
0.996811 0.99656 0.985009
1.0001 1.00282 0.991497
1.00022 1.00298 0.991181
1.00038 1.00295 0.990837
1.00007 1.00036 0.994018
1.00006 1.00137 0.992942
1.0001 1.00203 0.992304
1.00016 1.0026 0.991675
1.00025 1.00283 0.991176
1.00012 1.00203 0.992273
1.00007 1.00039 0.993926
1.00005 1.00134 0.993019
1.00032 1.00286 0.991042
1.00017 1.0025 0.991723
1.00017 1.00247 0.991824
1.00024 1.00302 0.991092
1.00012 1.00207 0.992117
1.00006 1.00134 0.992956
1.00007 1.00041 0.99383
1.00007 1.00136 0.993063
1.0001 1.0021 0.992333
1.00007 1.00153 0.992856
1.00006 1.00142 0.992994
1.00008 1.00045 0.993901
1.00007 1.00044 0.993811
1.00011 0.999128 0.995148
1.0001 0.999096 0.995184
1.00009 0.997179 0.997109
1.0001 0.999076 0.995204
1.00009 0.997149 0.99712
1.00002 0.996003 0.999367
1.00009 0.997166 0.99713
1.00003 0.996014 0.998938
1.00002 0.996014 0.998521
1.00014 0.998753 0.995468
1.00013 0.99881 0.995421
1.00006 0.99703 0.99729
1.00012 0.998907 0.995341
1.00004 0.997129 0.99744
0.999974 0.996033 0.999396
1.00001 0.99729 0.997145
0.999934 0.996184 0.99937
0.999888 0.996316 0.999349
1.00244 0.998936 0.99064
1.0023 0.999756 0.990216
1.00245 0.998841 0.990885
1.0041 0.996339 0.991336
1.00237 0.999187 0.990628
1.00263 0.997551 0.991347
1.00277 0.998578 0.99003
0.999581 0.99977 0.984872
1.00304 0.997703 0.992675
1.00009 0.999967 0.994375
1.00009 0.999988 0.994349
1.00004 1.00092 0.99352
1.00006 1.00084 0.993559
1.00261 0.999184 0.990161
1.00288 0.997921 0.990947
1.00269 0.996469 0.992491
1.00026 1.00262 0.991367
1.00037 1.0042 0.989351
1.00156 1.00035 0.990854
1.00009 1.00315 0.991107
1.00004 1.00393 0.990555
1.0001 1.00315 0.991185
1.00009 1.00028 0.994042
1.00014 1.00241 0.991885
1.00008 1.00142 0.992964
1.0001 1.00005 0.994289
1.00006 1.00113 0.993168
1.00275 0.998661 0.990396
1.00004 1.00103 0.993406
1.00007 1.00126 0.993083
1.00006 1.00181 0.992616
1.00309 0.996298 0.992146
1.00251 0.997893 0.991522
1.00005 1.00381 0.990624
1.00081 1.0034 0.989619
1.00009 1.00227 0.992155
1.00014 1.00281 0.991434
0.999915 1.00449 0.990197
1.00002 1.00392 0.990646
1.00335 0.996833 0.990585
1.0035 0.996181 0.991636
1.00163 1.00211 0.989357
1.00002 1.00456 0.989944
1.00004 1.00203 0.992365
1.00006 1.00209 0.992277
1.00009 1.00314 0.991196
0.999985 1.00469 0.989906
0.99655 1.00205 0.968899
1.00012 1.00292 0.991422
1.00026 1.0029 0.991056
1.0036 0.995907 0.991007
1.00305 0.998578 0.989889
1.00087 1.00375 0.989104
1.00013 1.00425 0.989928
1.00359 0.997968 0.990206
1.00019 1.00311 0.991113
1.00411 0.996641 0.98949
1.00019 1.0035 0.990676
1.00005 1.00478 0.989631
1.00132 1.00213 0.989285
0.996549 1.00145 0.972308
0.998985 1.00096 0.983856
1.00296 0.999019 0.990793
0.994537 0.999279 0.981477
0.996272 0.997005 0.984941
1.00016 1.00325 0.990975
0.995047 0.998693 0.979406
0.998963 0.995545 0.987306
1.00261 0.999169 0.990211
1.00011 1.0036 0.990565
0.999938 1.0049 0.990111
1.00286 0.999831 0.990095
0.996143 1.00206 0.971808
0.998816 1.0013 0.984205
0.994521 1.0017 0.980468
1.00324 0.9961 0.982383
1.00019 1.00298 0.991183
1.00037 1.00298 0.990848
1.0005 1.0031 0.990507
1.00007 1.00039 0.993989
1.00005 1.00135 0.993092
1.00013 1.00204 0.992176
1.00018 1.00248 0.991687
1.00029 1.00287 0.991096
1.00007 1.00041 0.993833
1.00017 1.00242 0.991799
1.00012 1.00209 0.992226
1.00006 1.00133 0.993021
1.00026 1.003 0.990986
1.00018 1.00271 0.99147
1.00011 1.00391 0.990488
1.00011 1.00208 0.992234
1.00007 1.00136 0.993059
1.00007 1.00137 0.993062
1.00011 1.0021 0.992231
1.00011 1.00202 0.99229
1.0001 1.00225 0.992092
1.00017 1.00252 0.99173
1.00007 1.0027 0.991673
1.00008 1.00171 0.992655
1.00007 1.00153 0.992855
1.00009 1.00052 0.993807
1.00007 1.00142 0.992874
1.00008 1.00046 0.993835
1.00011 0.999177 0.995094
1.00007 1.00044 0.993815
1.00011 0.999125 0.995148
1.00006 0.997218 0.997532
1.0001 0.999094 0.995184
1.00008 0.997175 0.997325
1.00005 0.996013 0.998493
1.00009 0.997152 0.997119
1.00002 0.996003 0.999366
1.00004 0.996011 0.998507
1.00009 0.999998 0.994336
1.00014 0.998738 0.995476
1.00014 0.998749 0.995467
1.00008 0.99697 0.997324
1.00013 0.998805 0.99542
1.00007 0.997025 0.997293
0.999998 0.995951 0.999408
1.00003 0.997142 0.997635
0.99998 0.996071 0.99897
0.999956 0.996208 0.998519
1.00383 0.996182 0.991372
1.00237 0.999202 0.990573
1.00252 0.997755 0.991108
0.999506 0.999376 0.987358
1.00295 0.997695 0.992814
1.00282 0.998491 0.989951
1.00327 0.99875 0.991417
0.999097 1.00001 0.986858
0.996216 1.00232 0.967233
0.995056 0.998002 0.979011
0.996101 0.99646 0.986263
1.00004 1.00085 0.99345
1.00009 0.999971 0.994374
1.00009 0.999993 0.994348
1.00004 1.00093 0.993475
1.00004 1.00162 0.992903
1.00006 1.00143 0.993024
1.00006 1.00096 0.993463
1.00006 1.00086 0.993509
1.00276 0.998663 0.990515
1.00306 0.996182 0.992194
1.00246 0.997807 0.991531
1.00008 1.0038 0.990608
1.00075 1.00342 0.989634
0.99992 1.00447 0.990206
1.00003 1.00402 0.990571
1.00014 1.00276 0.991445
1.00007 1.00124 0.993157
1.00008 1.00227 0.992197
1.00004 1.00105 0.99353
1.00006 1.00174 0.992612
1.00342 0.997136 0.990456
1.00004 1.00202 0.99241
1.00006 1.00212 0.992292
1.00335 0.996114 0.991638
1.00147 1.00182 0.989521
1.00008 1.00456 0.989822
1.00011 1.00315 0.991171
0.999997 1.00464 0.989931
1.00434 0.996033 0.989623
1.00244 1.00063 0.989597
1.00032 1.00424 0.9892
1.00006 1.00494 0.989542
1.00002 1.00253 0.991888
1.00009 1.00288 0.991465
1.00009 1.00406 0.990394
0.996183 0.997919 0.979231
0.996995 1.00248 0.971266
1.00018 1.00311 0.991135
1.00014 1.0035 0.990684
1.0043 0.996634 0.989397
1.00137 1.0022 0.989306
1.00002 1.00479 0.989663
0.996838 1.00223 0.966391
0.998982 1.00055 0.988518
1.00295 0.998721 0.990949
0.994491 0.999469 0.979518
0.995705 0.99752 0.984875
1.00021 1.00317 0.990964
0.995675 0.997373 0.981165
0.998415 0.995837 0.987554
1.0026 0.999192 0.990174
1.00005 1.0039 0.990581
0.999845 1.00487 0.990143
1.00285 1.00028 0.98986
0.995623 1.00238 0.969625
0.998873 1.00217 0.987378
0.994282 1.00063 0.979124
1.0024 0.997155 0.983091
1.00051 1.0028 0.990647
0.999404 0.995646 0.989769
1.0107 0.997174 0.978702
1.00066 1.00247 0.99046
0.999806 1.00381 0.991622
1.00206 1.00083 0.994913
0.999396 0.998509 0.994371
0.995252 1.00283 0.970441
0.994676 0.99911 0.980617
1.01094 0.994078 0.977947
1.00036 1.00301 0.990859
1.00048 1.00311 0.990465
1.00022 1.00363 0.990289
1.00007 1.00041 0.993835
1.00007 1.00131 0.993087
1.00011 1.0021 0.992335
1.00017 1.00238 0.991774
1.00027 1.00298 0.990881
1.00007 1.00135 0.993058
1.00017 1.00265 0.991539
1.00011 1.00208 0.992234
1.0001 1.00393 0.990415
1.00002 1.00452 0.990056
1.00011 1.00317 0.99121
1.00011 1.00207 0.992264
1.00006 1.00137 0.993061
1.00012 1.0021 0.992129
1.00011 1.00203 0.992289
1.00009 1.00225 0.992089
1.00018 1.00248 0.991701
1.00007 1.00248 0.991869
1.00019 1.00252 0.991689
1.00018 1.00272 0.991376
1.00015 1.00293 0.991309
0.999981 1.00279 0.991636
1.00006 1.00268 0.99167
1.00008 1.00269 0.991684
1.00009 1.00192 0.992436
1.00008 1.00171 0.992652
1.00011 1.00064 0.993641
1.00006 1.00154 0.992854
1.00009 1.00053 0.993803
1.00011 0.999248 0.995029
1.00008 1.00046 0.99377
1.00011 0.999169 0.995094
1.00004 0.997286 0.997508
1.00011 0.99912 0.995148
1.00007 0.997219 0.997309
1.00003 0.996029 0.998487
1.00009 0.997168 0.997107
1.00002 0.996014 0.999363
1.00002 0.996002 0.999365
1.00011 1.00007 0.994403
1.00014 0.998771 0.995441
1.00009 0.999997 0.994336
1.00008 0.996958 0.997331
1.00014 0.998738 0.995476
1.00014 0.998744 0.995466
1.00008 0.996972 0.997324
1.00001 0.995906 0.999415
1.00005 0.997026 0.997693
1.00001 0.995962 0.998999
0.999997 0.996077 0.998563
0.995848 0.996338 0.982768
0.999051 0.995213 0.987226
0.999628 0.998818 0.989674
1.00289 0.997822 0.992951
1.00286 0.998418 0.989871
0.999115 1.00002 0.991682
1.00337 0.998487 0.991296
0.99697 1.00152 0.97154
0.99433 0.998514 0.983116
0.99566 0.996419 0.98663
1.00044 0.998995 0.993772
0.995675 1.00219 0.973046
0.994148 1.00077 0.981833
0.999939 0.996182 0.984753
1.00002 1.00174 0.992686
1.00005 1.00085 0.993498
1.00009 0.999972 0.994373
1.00003 1.00093 0.99343
1.00002 1.00156 0.992952
1.00004 1.0017 0.992795
1.00005 1.00138 0.993044
1.00007 1.00123 0.993159
1.00006 1.00099 0.993392
1.00005 1.00088 0.99346
1.00345 0.997393 0.990329
1.00324 0.996019 0.991634
1.00129 1.00152 0.989686
1.00013 1.00456 0.989699
1.00001 1.00458 0.989956
1.00012 1.00316 0.991146
1.00006 1.00213 0.992307
1.00004 1.002 0.992455
1.00446 0.995973 0.989398
1.00002 1.00256 0.991859
1.0001 1.00291 0.991375
1.00228 1.00045 0.989494
1.00035 1.00425 0.989311
1.00009 1.00495 0.98949
1.00012 1.00405 0.990309
1.00394 0.998955 0.988031
1.00031 1.00463 0.989452
1.00006 1.0046 0.989747
1.00004 1.00258 0.991836
1.00012 1.003 0.991273
1.00024 1.00342 0.990648
1.0011 0.996198 0.985074
0.995796 0.998478 0.977969
0.996584 1.00219 0.968748
1.00026 1.00309 0.990952
1 1.00416 0.990598
1.00257 0.999298 0.990136
0.999725 1.00487 0.990174
0.996217 0.998152 0.977896
0.995584 1.00184 0.97507
0.998842 1.00155 0.984283
1.0028 1.00065 0.989726
0.994125 1.00049 0.982038
0.998274 0.996044 0.987202
0.999854 0.998131 0.984186
1.00046 1.00304 0.990622
0.999994 0.995689 0.98744
1.01041 0.997204 0.97901
1.00071 1.00253 0.990507
0.999623 1.00367 0.991648
1.00292 1.00266 0.989835
0.99934 0.999519 0.988576
0.995635 1.00256 0.971387
0.995899 0.998631 0.984319
1.00864 0.994466 0.979391
1.00005 1.0028 0.99177
1.01366 0.996612 0.978172
1.02104 0.992791 0.97054
0.998732 1.00381 0.993053
0.998984 0.99813 0.999968
0.99554 0.999167 0.974182
0.997534 0.998552 0.983445
1.0106 0.991495 0.981117
1.00046 1.00313 0.990424
1.00029 1.00353 0.990421
1.00031 1.00334 0.990822
1.00007 1.00135 0.993057
1.00011 1.00208 0.992233
1.00016 1.0026 0.991608
1.00008 1.00396 0.990343
1.00011 1.00207 0.99226
1.00012 1.00312 0.991225
0.999992 1.00449 0.990037
0.999859 1.00466 0.990318
1.00012 1.004 0.990306
1.00019 1.00266 0.991586
1.00011 1.00204 0.992288
1.00009 1.00226 0.992087
1.0002 1.00243 0.991672
1.00019 1.0025 0.991699
1.00007 1.00251 0.991872
1.0002 1.00268 0.99141
1.00016 1.00295 0.991241
1.00025 1.00283 0.991182
1.00016 1.00311 0.991101
1.00015 1.00294 0.991329
0.99998 1.00306 0.991379
1.0002 1.00278 0.99138
1.00012 1.00229 0.99207
0.999947 1.00267 0.991877
1.00007 1.00266 0.991718
1.00009 1.00207 0.992205
1.00009 1.00268 0.991695
1.00009 1.00191 0.99244
1.00013 1.00083 0.993415
1.00008 1.00172 0.99265
1.00011 1.00065 0.993636
1.0001 0.999348 0.994941
1.00009 1.00054 0.9938
1.00011 0.999241 0.995026
1.00001 0.997379 0.997475
1.00012 0.999161 0.995094
1.00005 0.997293 0.997281
0.999999 0.996108 0.99847
1.00008 0.997212 0.997089
1.00002 0.99604 0.998925
1.00001 0.99602 0.999363
1.00012 1.00024 0.994089
1.00014 0.998844 0.995377
1.0001 1.00007 0.994267
1.00008 0.996993 0.997305
1.00014 0.998773 0.995442
1.00009 1 0.994336
1.00002 0.995896 0.999415
1.00008 0.996956 0.997332
1.00014 0.998736 0.995476
1.00008 0.996975 0.997323
1.00001 0.995909 0.999413
0.999997 0.995955 0.999406
1.00063 0.995713 0.987095
0.995559 0.99733 0.980596
1.01184 0.99484 0.97945
0.998761 0.995207 0.987036
0.999148 1.00068 0.986129
1.0035 0.998223 0.991154
0.99648 1.00043 0.976171
0.994922 0.999163 0.979416
0.995264 0.996445 0.986998
1.00052 0.999196 0.991282
0.995684 1.00189 0.971388
0.994045 1.00073 0.97985
1.00128 0.995861 0.98509
0.999926 0.998942 0.99295
0.995118 1.0013 0.972032
0.994426 0.998731 0.983993
1.00937 0.992319 0.982073
1.00006 1.0022 0.992255
1.00003 1.00172 0.992759
1.00006 1.00086 0.993546
1.00001 1.0015 0.993
1.00007 1.00197 0.992383
1.00005 1.00165 0.992846
1.00006 1.00133 0.993063
1.0001 1.00134 0.993065
1.00007 1.00122 0.993227
1.00006 1.00101 0.993322
1.00467 0.995983 0.989174
1.00206 1.00028 0.989396
1.00039 1.00434 0.989423
1.00012 1.00494 0.989438
1.00014 1.00405 0.990225
1.00012 1.00293 0.991286
1.00002 1.00259 0.99183
1.00005 1.00256 0.99186
1.0041 0.998675 0.988083
1.0001 1.00303 0.99132
1.00024 1.00352 0.990615
1.00029 1.00472 0.989342
1.00013 1.00462 0.989732
1.00262 1.0008 0.988789
0.999688 1.00478 0.990452
1.0003 1.00351 0.990377
1.00015 1.00279 0.991428
1.00032 1.00321 0.990665
1.01519 0.997105 0.976736
1.001 0.995968 0.986213
0.995925 0.997539 0.981715
1.00041 1.00333 0.990595
0.999437 1.00359 0.991676
1.00078 1.00244 0.990547
1.00044 0.996289 0.9867
0.995388 1.00193 0.97033
0.999263 0.999219 0.992182
1.0038 1.00457 0.984612
0.994935 0.999028 0.980547
1.0101 0.997239 0.979318
1.00865 0.994646 0.979237
1.00003 1.00259 0.991872
1.0143 0.996995 0.976735
1.02114 0.992742 0.970607
0.998971 1.00352 0.992509
0.999193 0.998988 0.996462
0.995405 1.00094 0.972565
1.01204 0.990979 0.979709
0.996794 0.99804 0.982406
0.99975 1.00201 0.992927
1.02426 0.992462 0.968031
1.02512 0.990017 0.969992
1.00906 0.994186 0.980798
0.99666 1.00181 0.997538
0.995363 0.998277 0.976946
0.997025 0.999385 0.982196
1.00038 1.0034 0.990553
1.00037 1.00346 0.990495
0.999842 1.0036 0.991642
1.00011 1.00207 0.992257
1.00012 1.00308 0.991239
0.999975 1.00444 0.990018
1.00019 1.00263 0.991614
1.00014 1.00396 0.990302
0.999931 1.00455 0.990108
0.999859 1.00439 0.99046
1.00031 1.00313 0.990785
1.0002 1.00248 0.991709
1.00007 1.00253 0.991876
1.00021 1.00264 0.991443
1.00026 1.00281 0.991184
1.00018 1.00291 0.991249
1.00004 1.00339 0.991055
1.00009 1.00303 0.991291
1.00005 1.00398 0.990477
1.00016 1.00295 0.991348
1.00005 1.00309 0.991367
1.00019 1.00323 0.990714
1.00017 1.00262 0.991553
1.00011 1.00221 0.992131
1.00015 1.00279 0.991401
1.00014 1.00194 0.992324
1.00012 1.00232 0.992049
0.999912 1.00254 0.992118
1.00009 1.00264 0.991766
1.00009 1.00204 0.992258
1.00014 1.00105 0.993179
1.00009 1.00191 0.992444
1.00013 1.00083 0.993413
1.00009 0.99949 0.994818
1.00011 1.00066 0.993632
1.0001 0.999347 0.994937
0.999977 0.997492 0.997425
1.00011 0.999235 0.995024
1.00002 0.99739 0.997243
0.999961 0.996208 0.99845
1.00006 0.997285 0.99706
0.999991 0.996114 0.998915
0.999998 0.99607 0.999358
1.00013 1.0004 0.993726
1.00012 0.998981 0.995091
1.00012 1.00024 0.994086
1.00007 0.997074 0.997247
1.00013 0.998856 0.99529
1.0001 1.00008 0.994132
1.00001 0.995926 0.999407
1.00008 0.996987 0.997307
1.00014 0.998776 0.995443
1.00002 0.995896 0.999415
1.00008 0.996955 0.997332
1.00001 0.995913 0.999412
1.01456 0.995925 0.97718
1.00077 0.995763 0.98558
0.995745 0.997406 0.979394
1.00016 1.00144 0.99277
1.02176 0.990815 0.972708
1.01174 0.9951 0.979747
0.998828 0.995241 0.986256
1.00051 0.998756 0.988868
0.995679 1.0023 0.973473
0.994203 1.00118 0.982682
1.00108 0.995286 0.985332
0.999708 0.998984 0.987735
0.994938 1.00171 0.973419
0.995681 0.998905 0.982563
1.00782 0.993253 0.982864
0.999562 0.998469 0.98677
0.994945 0.999908 0.970026
0.998361 0.997744 0.97934
1.01162 0.989382 0.98252
1.00015 1.00238 0.991798
1.00006 1.00222 0.992209
1.00003 1.0017 0.992833
1.00013 1.002 0.992252
1.00008 1.00193 0.992467
1.00006 1.00159 0.992897
1.00011 1.00133 0.993092
1.00007 1.0012 0.993296
1.00421 0.998355 0.988131
1.00027 1.0048 0.989232
1.00005 1.00253 0.991883
1.00022 1.00467 0.989718
1.00024 1.00358 0.990582
1.00009 1.00306 0.991366
1.00015 1.0028 0.991436
1.00281 1.00092 0.988824
1.0003 1.00318 0.990728
1.00031 1.00364 0.990328
0.999668 1.00476 0.990344
1.00025 1.00267 0.991429
1.00143 1.00109 0.991798
0.999525 1.00411 0.99144
1.0004 1.00283 0.990866
1.00029 1.00305 0.991001
1.02304 0.994563 0.96876
1.01505 0.996735 0.976627
1.00084 0.995827 0.987353
1 1.00234 0.991975
0.999224 1.00322 0.991963
1.01492 0.997342 0.9753
0.99539 0.999412 0.974118
0.999572 0.999405 0.989518
0.997776 0.99828 0.979972
1.02112 0.992624 0.970674
1.01361 0.990743 0.978301
0.999812 1.00234 0.992675
1.02428 0.992367 0.967926
1.02584 0.988383 0.968905
0.99677 1.00337 0.997913
1.00747 0.99491 0.98161
0.995088 0.9982 0.976471
0.998013 0.998978 0.978702
0.998728 1.00275 0.994861
1.02622 0.992105 0.966301
1.02214 0.993057 0.969546
0.999871 0.997364 0.983897
0.998272 0.998168 0.979108
0.996364 0.999519 1.00372
0.994863 0.999981 0.972299
1.00041 1.00364 0.990169
0.999949 1.00333 0.991469
0.999175 1.00483 0.990547
1.00019 1.0026 0.991641
1.00015 1.00393 0.990298
1.00001 1.0045 0.989898
1.00029 1.00313 0.990803
0.999881 1.00434 0.99039
0.99973 1.00419 0.990862
1.00026 1.0028 0.991185
1.00019 1.00288 0.991257
1.0001 1.00338 0.991011
0.999832 1.00452 0.990323
1.00002 1.00295 0.99148
0.999975 1.00387 0.990595
1.0001 1.00446 0.989888
1.00049 1.00295 0.990653
1.00012 1.00311 0.991355
1.00023 1.00334 0.990628
1.00022 1.00231 0.99194
0.999985 1.00235 0.992124
1.00017 1.00253 0.991644
1.00011 1.00187 0.992462
1.00012 1.00222 0.992114
1.0001 1.0028 0.991422
1.00016 1.00115 0.993057
1.00014 1.00193 0.992305
1.00011 1.00234 0.992027
1.00009 1.00202 0.99231
1.00015 1.00104 0.993182
1.00007 0.999694 0.99465
1.00013 1.00084 0.993412
1.00009 0.999497 0.994813
0.99995 0.99763 0.996909
1.0001 0.999348 0.994933
0.999988 0.997504 0.996966
0.999896 0.996323 0.999333
1.00003 0.997385 0.997019
0.999956 0.996211 0.998901
0.999971 0.996146 0.999351
1.00016 1.00051 0.993548
1.00012 0.999159 0.994915
1.00014 1.0004 0.993801
1.00005 0.997195 0.997165
1.00012 0.999004 0.99507
1.00012 1.00025 0.994084
0.999997 0.995988 0.999391
1.00007 0.997066 0.99725
1.00012 0.998871 0.995203
1.00001 0.995919 0.999409
1.00008 0.996982 0.997309
1.00002 0.995894 0.999416
1.02289 0.993353 0.969582
1.01463 0.995513 0.977237
1.00069 0.995761 0.98577
1.00016 1.00144 0.992796
1.0002 1.00151 0.992557
1.00016 1.00206 0.992238
1.02447 0.987296 0.973844
1.02201 0.990044 0.97278
1.01159 0.995343 0.980044
0.99949 0.999186 0.991963
0.995098 1.00204 0.971588
0.994487 0.998221 0.981709
1.00801 0.993366 0.98262
0.999175 0.998559 0.991273
0.994937 0.999622 0.974381
0.996817 0.9988 0.982833
1.01254 0.988491 0.981576
0.998632 0.996899 0.993077
0.994922 0.999989 0.975132
0.997995 0.999115 0.981059
1.01034 0.992381 0.979826
1.0002 1.0025 0.991638
1.00014 1.00242 0.991795
1.00005 1.00227 0.992163
1.00013 1.00202 0.992246
1.00008 1.00189 0.992551
1.00012 1.00132 0.993119
1.00298 1.00104 0.988858
0.999664 1.00471 0.990236
1.00015 1.0028 0.991445
1.00032 1.00374 0.990279
1.00029 1.00319 0.990792
1.00024 1.00262 0.991442
1.0003 1.00301 0.990959
1.00151 1.00071 0.991734
1.00043 1.00277 0.990993
0.999438 1.00401 0.991954
1.00026 1.00275 0.991165
0.998993 1.00278 0.994364
0.999689 1.00103 0.993966
1.00029 1.00313 0.990755
1.02485 0.993649 0.966886
1.02307 0.994269 0.968389
1.01491 0.996279 0.976517
0.999855 1.00265 0.992423
0.996747 1.00059 0.998923
1.02431 0.992285 0.96782
0.995153 0.998644 0.986066
0.998601 0.999033 0.981653
1.02666 0.986781 0.967818
1.00764 0.99502 0.981504
0.998826 1.00239 0.994528
1.02582 0.992278 0.966336
1.0224 0.99261 0.969575
0.996357 1.00071 0.99593
1.00112 0.997027 0.984314
0.996799 0.998815 0.982573
0.994928 0.999981 0.976033
0.998372 1.00461 0.996437
1.023 0.99516 0.967508
1.01189 0.996137 0.977911
0.99608 0.997615 0.98564
0.994576 0.999109 0.983068
0.995191 0.999441 0.975261
0.997754 0.997773 0.993869
1.00005 1.00306 0.991297
0.999245 1.00485 0.990628
0.999151 1.00488 0.990999
1.00027 1.00312 0.990821
0.999897 1.00429 0.990321
0.999678 1.00424 0.99085
0.999632 1.005 0.990185
1.00017 1.00337 0.990967
0.999963 1.00454 0.990198
1.00009 1.00505 0.989329
0.9999 1.00377 0.990713
1.00013 1.0044 0.989884
1.00054 1.00429 0.989532
1.00068 1.00307 0.990255
1.00028 1.00228 0.99154
1.00046 1.00305 0.990557
1.00027 1.00345 0.990542
1.00019 1.002 0.992277
1.00017 1.00219 0.99204
0.999993 1.00204 0.992441
1.00001 1.00232 0.992179
1.00018 1.00243 0.991733
1.00013 1.00118 0.993061
1.00013 1.00184 0.992467
1.00013 1.00222 0.992097
1.00006 0.999872 0.994486
1.00017 1.00112 0.993067
1.00015 1.00192 0.992287
1.00015 1.00103 0.993185
1.00007 0.9997 0.994646
0.99991 0.997793 0.996822
1.00008 0.999504 0.994807
0.999953 0.997638 0.996905
0.999863 0.996463 0.99932
0.999993 0.997506 0.996966
0.999911 0.996337 0.998878
0.999937 0.996245 0.99934
1.00018 1.00065 0.993481
1.00011 0.999308 0.994944
1.00016 1.00052 0.993606
1.00003 0.997343 0.997068
1.00012 0.999172 0.994989
1.00015 1.00041 0.993876
0.999974 0.996085 0.999371
1.00005 0.997184 0.997169
1.00012 0.999024 0.995048
1 0.99598 0.999396
1.00007 0.997058 0.997254
1.00001 0.995913 0.999412
1.02587 0.990713 0.968508
1.02319 0.992889 0.969547
1.01475 0.995151 0.977291
1.00021 1.00166 0.992377
1.00022 1.00221 0.991931
1.00016 1.00143 0.992822
1.00019 1.00154 0.992534
1.00017 1.00206 0.992158
1.00019 1.00211 0.992038
1.00018 1.00245 0.991742
1.02017 0.992606 0.972131
1.02528 0.985443 0.972673
1.02227 0.989242 0.972851
1.01361 0.987621 0.980633
0.998731 0.998771 0.986895
0.994968 0.998912 0.978588
0.996115 0.999779 0.979734
0.998192 0.996981 0.990747
0.994935 0.999192 0.972656
0.99852 0.998392 0.978441
1.00902 0.993445 0.980213
0.99645 0.99784 0.994949
0.994858 1.00029 0.971356
0.998198 0.998905 0.982229
1.00257 0.995821 0.983392
1.00028 1.00253 0.991469
1.0002 1.0025 0.991627
1.00013 1.00246 0.991792
1.00013 1.00204 0.99224
1.00159 1.00085 0.99167
0.99927 1.00401 0.99247
1.00023 1.00257 0.991456
1.0003 1.00298 0.990917
1.00046 1.00272 0.99112
1.00027 1.00278 0.991178
1.00032 1.00312 0.990688
0.998701 1.003 0.995055
0.999664 1.00094 0.994296
1.00026 1.00334 0.990764
0.997327 1.00229 0.998798
1.00006 1.00377 0.991094
1.02282 0.996259 0.967523
1.02439 0.99406 0.966721
1.02311 0.994039 0.968018
0.998993 1.00201 0.994214
0.996376 0.999616 1.00318
1.02538 0.992424 0.96637
0.994851 0.999939 0.97231
0.996119 0.999479 0.979618
1.02266 0.992065 0.969604
1.00085 0.996311 0.984657
0.998338 1.00482 0.996251
1.0233 0.994835 0.967393
1.01178 0.996482 0.978236
0.997703 0.997706 1.00058
0.995631 0.997153 0.986132
0.995812 0.999478 0.981658
0.995206 0.999431 0.974909
0.999759 1.00278 0.995534
1.01467 0.997462 0.975546
0.998968 0.996018 0.986712
0.994372 1.0012 0.981026
0.995238 1.0006 0.973518
0.99834 0.996958 0.988974
0.999363 1.00485 0.990707
0.999127 1.00489 0.990977
0.999945 1.00446 0.990407
0.999625 1.00432 0.990838
0.999468 1.00502 0.990303
1.00021 1.005 0.989208
1.0001 1.00455 0.990072
1.00017 1.00505 0.989215
1.00063 1.00442 0.988896
1.00016 1.00433 0.98988
1.00055 1.00423 0.989413
1.00078 1.00355 0.989534
1.00099 1.00229 0.990305
1.00063 1.00247 0.991015
1.00067 1.00311 0.990174
1.00021 1.00187 0.992096
1.00029 1.00228 0.991608
1.00044 1.00315 0.990461
1.00012 1.00193 0.992411
1.00016 1.00203 0.992255
1.00013 1.00206 0.992141
1.00006 1.00134 0.99301
1.00001 1.002 0.992468
1.00003 1.00228 0.992234
1.00004 1.00001 0.994379
1.00014 1.00116 0.993068
1.00014 1.00181 0.992472
0.999886 0.997956 0.996729
1.00006 0.999875 0.994488
1.00017 1.00109 0.993076
1.00006 0.999706 0.994643
0.999912 0.997804 0.996816
0.999815 0.996613 0.999302
0.999955 0.997646 0.9969
0.999858 0.996479 0.999315
0.999897 0.996361 0.999326
1.00021 1.0018 0.992313
1.00021 1.00083 0.993258
1.0001 0.999464 0.994804
1.00018 1.00066 0.993482
0.999995 0.997499 0.99697
1.00011 0.999311 0.994945
1.00015 1.00053 0.993665
0.999943 0.996207 0.999348
1.00002 0.997333 0.997073
1.00012 0.999186 0.995063
0.999977 0.99607 0.999377
1.00005 0.997174 0.997174
1 0.995969 0.999401
1.02351 0.993826 0.967793
1.02554 0.990801 0.968217
1.02349 0.992456 0.969513
1.00021 1.00168 0.992398
1.00023 1.00221 0.991886
1.0002 1.00226 0.991836
1.00022 1.00216 0.991878
1.00021 1.0025 0.991675
1.00019 1.00156 0.99251
1.00018 1.00207 0.992079
1.00019 1.00211 0.992041
1.00019 1.0024 0.991741
1.00019 1.00255 0.99164
1.01006 0.997915 0.97898
1.0202 0.992781 0.972189
1.02606 0.983638 0.971502
1.0089 0.993582 0.980042
0.998708 0.998564 0.981498
0.997842 0.996703 0.988881
0.994972 0.999337 0.974484
0.996231 0.997887 0.989935
0.994906 1.00019 0.974028
0.997706 0.99832 0.980702
1.00195 0.996767 0.984208
0.99532 0.999284 0.991494
0.994916 0.998977 0.975471
0.994814 0.999444 0.980865
0.996616 0.994924 0.986946
1.00008 1.00246 0.991878
1.00024 1.00261 0.991467
1.0002 1.0025 0.991616
0.998584 1.00272 0.995743
0.999627 1.0008 0.994627
1.00026 1.0028 0.991191
1.00034 1.00313 0.990622
1.00022 1.0033 0.990821
0.999824 1.00391 0.990948
0.997279 1.00167 0.998844
0.999443 1.0043 0.990962
0.998598 1.00432 0.994705
1.01476 0.998535 0.975983
1.02283 0.995911 0.967235
1.02394 0.994524 0.966557
0.998279 1.00493 0.996074
0.997691 0.99761 0.992059
1.0236 0.994545 0.967279
0.995229 0.999228 0.969244
0.994773 0.998889 0.980631
1.01162 0.996862 0.978563
0.995274 0.996656 0.986626
0.999725 1.00285 0.995741
1.01475 0.997009 0.975564
0.998703 0.995819 0.986537
0.998618 0.996869 0.992055
0.994181 1.00122 0.979277
0.995131 1.00077 0.97081
1.00102 1.00138 0.992919
1.00064 0.996514 0.986401
0.995059 0.998118 0.978731
0.995265 1.00199 0.971269
0.998788 0.999644 0.989507
0.999116 1.0049 0.990954
0.99983 1.00443 0.990379
1.00091 1.00373 0.98932
0.99932 1.00504 0.99042
1.0001 1.00501 0.989233
1.00106 1.0035 0.98895
1.00025 1.00504 0.989101
1.00062 1.00433 0.988922
1.00121 1.00242 0.989858
1.00056 1.00423 0.989293
1.00079 1.0034 0.989589
1.00128 1.00154 0.990491
1.00139 1.00085 0.990923
1.00083 1.0021 0.990744
1.001 1.00218 0.990342
1.00046 1.00204 0.991661
1.00058 1.00254 0.990893
1.00066 1.00315 0.990094
1.00019 1.00167 0.992478
1.00021 1.00184 0.992171
1.0003 1.00229 0.991676
1.00004 1.0015 0.992908
1.0001 1.00192 0.992417
1.00014 1.00204 0.992232
0.999985 1.00022 0.994272
1.00008 1.00135 0.993011
1.00002 1.00196 0.992495
0.999834 0.998095 0.99715
1.00004 1.00001 0.994381
1.00016 1.00114 0.993076
0.999784 0.996781 0.998286
0.999876 0.997971 0.996964
1.00005 0.999878 0.99449
0.999914 0.997815 0.99681
0.999811 0.996632 0.999295
0.999852 0.996495 0.99931
1.0002 1.00194 0.992151
1.00021 1.00106 0.993038
1.00021 1.00182 0.992272
1.00009 0.999632 0.994659
1.00021 1.00083 0.993259
0.999964 0.997648 0.99688
1.0001 0.999462 0.994808
1.00018 1.00066 0.993483
0.999906 0.996345 0.999325
0.999993 0.997489 0.996974
1.00011 0.999315 0.994947
0.999947 0.996192 0.999355
1.00002 0.997323 0.997077
0.999981 0.996058 0.999384
1.01419 0.99891 0.974471
1.0236 0.993716 0.967762
1.0252 0.990857 0.967926
1.00022 1.00211 0.991964
1.00021 1.00169 0.99242
1.00022 1.00221 0.991841
1.00021 1.00218 0.991936
1.00021 1.00226 0.991872
1.00021 1.00244 0.991674
1.00022 1.00248 0.991612
1.00018 1.00255 0.991573
1.00019 1.00211 0.992044
1.00021 1.00236 0.991739
1.00017 1.00256 0.991643
1.00028 1.00282 0.991428
0.998873 0.995205 0.987906
1.00972 0.998121 0.979286
1.02034 0.992925 0.972247
1.00011 0.997398 0.985003
0.99841 0.99856 0.978793
0.994946 1.00029 0.971317
0.995771 0.997971 0.996245
0.995112 0.999277 0.997158
0.995788 0.995413 0.987533
0.994867 0.999827 0.971001
0.995651 0.99853 0.98413
0.996195 0.999454 0.996176
0.994926 0.998427 0.977263
0.994047 0.999139 0.983654
0.999693 1.00241 0.992658
1.00019 1.00236 0.991876
1.00019 1.00271 0.991465
0.99725 1.00102 0.998901
0.999709 1.00399 0.990798
1.00016 1.00329 0.990877
0.999578 1.00434 0.990974
0.998414 1.00434 0.994801
0.999212 1.00219 0.994063
0.99989 0.996128 0.988366
1.01524 0.998631 0.973991
1.02285 0.99558 0.966947
0.999629 1.00295 0.995976
0.998616 0.997236 0.993904
1.01489 0.996648 0.975578
0.995135 0.999484 0.976906
0.994367 1.00128 0.982076
0.998765 0.995831 0.98577
1.00098 1.00134 0.9932
1.0008 0.996412 0.984918
0.994332 0.998728 0.982813
0.998674 0.999606 0.985987
0.995083 1.00231 0.972523
1.00195 1.00142 0.990058
0.995871 0.996336 0.982769
0.995693 1.0024 0.972708
0.998879 1.00057 0.985128
0.999732 1.00443 0.99035
1.00068 1.0036 0.989374
1.00155 1.00197 0.989225
0.99996 1.00501 0.989258
1.00111 1.00334 0.988967
1.00213 0.99989 0.990725
1.0006 1.00427 0.988949
1.00116 1.00225 0.989938
1.00182 0.999457 0.991557
1.0008 1.0032 0.989644
1.00131 1.00136 0.990524
1.00175 0.999348 0.9917
1.00159 0.999575 0.991808
1.00121 1.00109 0.99105
1.00138 1.00076 0.991008
1.00065 1.00176 0.991313
1.00084 1.00206 0.990827
1.00101 1.00207 0.990379
1.00027 1.00168 0.992303
1.0004 1.00205 0.991653
1.00052 1.0026 0.990771
1.00008 1.00147 0.992886
1.0002 1.00167 0.99247
1.00021 1.00182 0.992247
0.999913 1.00055 0.994106
1.00006 1.00148 0.992916
1.00007 1.00191 0.992424
0.999782 0.998264 0.996599
0.99999 1.00023 0.994269
1.00009 1.00135 0.993011
0.999702 0.996922 0.999262
0.999836 0.998114 0.996644
1.00004 1.00002 0.994383
0.999769 0.996785 0.999274
0.999875 0.997982 0.996713
0.999806 0.99665 0.999287
1.00021 1.00191 0.992247
1.0002 1.00196 0.992164
1.00019 1.00128 0.992855
1.00007 0.999854 0.994479
1.0002 1.00107 0.993035
1.00021 1.00185 0.992231
0.999931 0.997792 0.996798
1.00009 0.999621 0.994664
1.00021 1.00084 0.993259
0.999864 0.996483 0.999304
0.999961 0.997639 0.996885
1.00011 0.999458 0.994812
0.99991 0.996328 0.999331
0.99999 0.997479 0.996978
0.999951 0.996174 0.999362
0.999342 0.995719 0.990037
1.01426 0.99894 0.974531
1.02367 0.993621 0.967731
1.00023 1.00213 0.991937
1.00018 1.00207 0.992199
1.00027 1.00219 0.991805
1.00021 1.00219 0.991994
1.00021 1.00227 0.991909
1.00022 1.00239 0.991673
1.00019 1.00254 0.991593
1.00023 1.00247 0.991631
1.00012 1.00288 0.991429
1.00015 1.00272 0.991415
1.00017 1.00257 0.991647
1.0002 1.00281 0.991456
0.994327 0.998044 0.983473
0.998264 0.995039 0.988541
1.00941 0.998303 0.979594
0.995097 0.995742 0.988124
0.994723 0.998646 0.981229
0.994977 0.999832 0.978773
0.994904 0.999336 0.99132
0.99611 0.999458 0.99066
0.99394 0.998643 0.981193
0.994937 0.998827 0.977268
0.998048 0.996147 0.991162
0.995086 1.00012 0.9739
0.999914 1.00373 0.991428
0.99985 1.00212 0.992642
1.00029 1.00225 0.991876
0.998043 1.00442 0.99492
0.999688 1.00437 0.990988
0.999924 1.00225 0.993882
1.00199 0.999572 0.992883
0.996236 0.99718 0.979958
1.00027 0.996283 0.987572
1.01568 0.998616 0.972001
1.00116 1.00124 0.993432
0.998652 0.999761 0.990161
1.00071 0.996493 0.985119
0.995073 1.00236 0.971068
0.995043 0.999521 0.97909
1.00199 1.00148 0.990441
0.995676 0.997287 0.980403
0.995883 1.00182 0.971202
0.998574 1.00062 0.98944
1.00225 1.00214 0.988473
0.996347 1.00197 0.96727
0.999622 0.999058 0.99243
1.00043 1.00337 0.989427
1.00139 1.00233 0.989121
1.00299 0.997697 0.990438
1.00116 1.00317 0.988985
1.00208 0.999639 0.990735
1.00265 0.996446 0.993012
1.00111 1.00206 0.990019
1.00183 0.999249 0.991568
1.00232 0.997096 0.992816
1.00133 1.00118 0.990557
1.00176 0.999281 0.991701
1.00193 0.998164 0.992468
1.00172 0.998951 0.992287
1.00159 0.999472 0.991908
1.00142 1.00001 0.991705
1.00108 1.00106 0.991363
1.00121 1.00111 0.991067
1.00138 1.00066 0.991093
1.0005 1.00151 0.991877
1.00067 1.00178 0.991397
1.00085 1.00202 0.99091
1.00014 1.00142 0.992804
1.00029 1.00168 0.992292
1.00034 1.00206 0.991644
0.999872 1.0008 0.993943
1.0001 1.00145 0.992892
1.00021 1.00168 0.992462
0.999696 0.998516 0.99651
0.999928 1.00052 0.994109
1.00007 1.00146 0.992924
0.999662 0.997079 0.999247
0.999778 0.998287 0.996594
0.999996 1.00023 0.994267
0.999714 0.99693 0.998758
0.999836 0.998127 0.996645
0.999759 0.996803 0.999265
1.00017 1.00186 0.992385
1.00021 1.00191 0.992197
1.00018 1.00139 0.992756
1.00019 1.00198 0.992177
1.00018 1.00129 0.992849
1.00005 1.00011 0.994259
0.999893 0.99796 0.996701
1.00008 0.999838 0.994483
1.0002 1.00108 0.993032
0.999819 0.996625 0.999285
0.999928 0.997784 0.996802
1.0001 0.999613 0.994669
0.999869 0.996471 0.99931
0.999957 0.997632 0.996889
0.999915 0.996313 0.999338
0.995013 0.998176 0.980043
0.999375 0.995788 0.989219
1.01433 0.998972 0.974591
1.00023 1.00213 0.991909
1.00024 1.00222 0.991801
1.00015 1.00205 0.992229
1.0001 1.00211 0.992291
1.00016 1.0023 0.991951
1.00019 1.00254 0.991613
1.00023 1.00244 0.991649
1.0001 1.00284 0.99146
1.00001 1.00241 0.991835
1.00004 1.00293 0.991344
1.00043 1.00341 0.990761
1.00012 1.00297 0.991371
1.00013 1.00281 0.991484
0.996107 1.00078 0.969575
0.994425 0.999015 0.981955
0.997873 0.995199 0.988259
0.993844 0.998361 0.984451
0.994897 0.99893 0.97154
0.996109 0.999417 0.996629
0.998201 0.996447 0.993898
0.995212 0.999215 0.976153
1.00086 0.995983 0.991009
1.00193 1.00272 0.988319
0.999703 1.0036 0.99139
0.999997 1.00179 0.992626
1.00044 1.00229 0.993678
1.00211 0.998955 0.992198
0.996776 1.00077 0.969655
0.995958 0.99756 0.978654
1.00064 0.996603 0.986776
1.00206 1.00154 0.990845
0.998234 1.00095 0.985351
0.995866 0.997446 0.979168
0.995637 1.00204 0.973292
1.00253 1.00205 0.988485
0.997155 1.00111 0.971509
0.999378 0.999477 0.987208
1.00372 0.999785 0.987748
1.00047 0.998735 0.993756
1.00123 1.00275 0.989014
1.00294 0.998024 0.990339
1.00372 0.995198 0.991897
1.002 0.999391 0.990747
1.00252 0.996438 0.992993
1.00286 0.99525 0.993465
1.00186 0.999023 0.991578
1.00231 0.997115 0.992751
1.00236 0.996885 0.992898
1.00177 0.999216 0.991701
1.00193 0.998234 0.992423
1.00195 0.998231 0.992426
1.00167 0.998831 0.992395
1.00163 0.999392 0.992018
1.00159 0.999379 0.992007
1.00143 1.00002 0.991685
1.00134 1.00029 0.991605
1.00085 1.00104 0.991678
1.00107 1.00109 0.991345
1.0012 1.00114 0.991084
1.00031 1.00132 0.99257
1.00049 1.00154 0.99193
1.00067 1.00179 0.991482
0.999852 1.00098 0.993787
1.00016 1.00141 0.992799
1.0003 1.00169 0.99228
0.999614 0.998801 0.996373
0.999892 1.00075 0.993949
1.00011 1.00142 0.992898
0.999586 0.997262 0.999231
0.999694 0.998544 0.996504
0.999941 1.00049 0.994111
0.999649 0.997087 0.999243
0.999774 0.998312 0.996589
0.999704 0.99694 0.999251
1.0001 1.00198 0.992368
1.00015 1.00186 0.992389
1.00013 1.00149 0.992697
1.00021 1.0019 0.992148
1.00018 1.00141 0.992716
1.00004 1.00033 0.994056
1.00018 1.0013 0.992844
1.00006 1.0001 0.994259
0.99985 0.998164 0.996581
0.999769 0.996781 0.999262
0.999892 0.997946 0.996708
1.00008 0.999821 0.994487
0.999824 0.996615 0.999291
0.999925 0.997777 0.996807
0.999874 0.996457 0.999316
0.996456 1.00145 0.972963
0.995294 0.997789 0.981834
0.999135 0.995636 0.989977
1.00022 1.00229 0.991797
1.00012 1.00203 0.992259
1.00017 1.0023 0.991965
1.0001 1.0021 0.992286
1.00005 1.00226 0.992217
1.00001 1.00226 0.992137
1.00008 1.00278 0.99149
1.00003 1.00254 0.991784
0.999973 1.00311 0.99134
1.00009 1.0023 0.991742
1.00078 1.00288 0.991036
1.00134 1.00304 0.989034
1.00032 1.00319 0.990791
1.00006 1.00324 0.991326
1.00011 0.997995 0.991674
0.99548 1.00137 0.972947
0.99482 0.99829 0.979508
0.995098 1.00007 0.974043
0.99853 0.996557 0.996654
1.00087 0.99603 0.994304
1.00403 0.99747 0.990122
1.00183 1.00211 0.988877
0.999569 1.00355 0.991348
1.00313 0.998331 0.991522
0.998998 1.00094 0.986581
0.997097 1.00125 0.972127
0.995972 0.996782 0.98229
1.00282 1.00206 0.988504
0.999149 0.999716 0.991039
0.996747 0.99996 0.975957
1.00405 0.999236 0.987858
1.00047 0.999126 0.991172
1.00447 0.996489 0.989241
1.00348 0.99876 0.990434
1.00284 0.998408 0.990242
1.00359 0.995262 0.991926
1.00319 0.996105 0.992142
1.0024 0.996456 0.992972
1.0028 0.99554 0.993407
1.0028 0.996594 0.992348
1.00229 0.997143 0.992687
1.00232 0.997046 0.99284
1.00234 0.997879 0.992027
1.00193 0.998312 0.992378
1.00188 0.998305 0.992449
1.0018 0.999072 0.991866
1.00162 0.998718 0.992503
1.0016 0.999295 0.99208
1.00155 0.999864 0.991699
1.00144 1.00002 0.991666
1.00134 1.00031 0.991587
1.00118 1.0005 0.991748
1.00057 1.001 0.992247
1.00084 1.00108 0.991726
1.00106 1.00112 0.991326
0.999906 1.00108 0.993572
1.00032 1.00133 0.992566
1.00048 1.00157 0.991983
0.999535 0.999117 0.996196
0.999881 1.00093 0.993789
1.00018 1.0014 0.992793
0.999511 0.997488 0.999201
0.999614 0.998833 0.996368
0.999911 1.00071 0.993955
0.999574 0.997282 0.999223
0.999694 0.99857 0.996497
0.999636 0.997097 0.999239
1.00009 1.00207 0.992313
1.00011 1.00197 0.992397
1.00006 1.00166 0.992694
1.00014 1.00186 0.992394
1.00012 1.00151 0.992699
0.999996 1.00057 0.99391
1.00017 1.00143 0.992676
1.00004 1.00034 0.994053
0.999795 0.998389 0.99646
1.00006 1.00009 0.99426
0.999852 0.998142 0.996589
0.999716 0.996955 0.999234
0.999776 0.996769 0.999269
0.999892 0.997931 0.996716
0.99983 0.996605 0.999296
0.99932 0.99962 0.989936
0.996202 1.00108 0.971113
0.995763 0.998209 0.978614
1.00027 1.00209 0.991983
1.00016 1.00231 0.991979
1.00009 1.00209 0.992281
1.00004 1.00231 0.99213
1.00004 1.00229 0.992198
0.999985 1.00195 0.99244
1.00007 1.00273 0.991734
0.999985 1.00332 0.991337
1.00019 1.00231 0.991823
1.00051 1.0028 0.991228
1.00137 1.00191 0.989999
1.00292 1.00083 0.98782
1.0014 1.00266 0.989
1.00029 1.00286 0.990821
1.00442 0.99621 0.989982
0.999947 0.998261 0.989643
0.995407 1.0012 0.976608
1.00077 0.995961 0.989099
1.00406 0.997514 0.989485
1.00117 1.0016 0.989445
1.00281 0.999682 0.991833
0.999042 1.00051 0.990954
0.996777 1.00077 0.970031
1.00429 0.998722 0.98796
1.00046 0.998796 0.988685
1.00459 0.996246 0.989051
1.00347 0.998494 0.990931
1.00367 0.996945 0.989559
1.00274 0.998687 0.989438
1.0035 0.995299 0.991955
1.00315 0.996074 0.992212
1.00286 0.997825 0.991152
1.00276 0.995778 0.993349
1.00278 0.996707 0.992322
1.00264 0.998144 0.991209
1.00228 0.997213 0.992782
1.00225 0.997956 0.992126
1.00215 0.998992 0.991232
1.00182 0.998376 0.992472
1.00179 0.999085 0.991869
1.00171 0.999666 0.991462
1.00158 0.999196 0.992141
1.00153 0.999788 0.991727
1.00137 1.00017 0.991647
1.00134 1.00033 0.991569
1.00116 1.00051 0.991709
1.00088 1.00067 0.992131
1.00008 1.00098 0.993334
1.00056 1.00103 0.9923
1.00082 1.00112 0.991775
0.999479 0.999487 0.995935
0.999927 1.00105 0.993575
1.00032 1.00133 0.992563
0.99943 0.997744 0.999161
0.999546 0.999141 0.996191
0.99991 1.00089 0.993792
0.999496 0.997513 0.99919
0.999615 0.998864 0.996362
0.999561 0.9973 0.999214
1.00017 1.00201 0.992115
1.00009 1.00205 0.992319
1.00007 1.00175 0.992668
1.00013 1.00196 0.992427
1.00006 1.00167 0.992718
0.999916 1.00087 0.993785
1.00011 1.00154 0.992701
0.999985 1.0006 0.993905
0.999716 0.998654 0.996354
1.00004 1.00035 0.994051
0.999801 0.998361 0.996467
0.999652 0.997141 0.999208
0.999855 0.998119 0.996597
0.999725 0.99694 0.999243
0.999783 0.996759 0.999276
1.00348 0.996555 0.991597
0.999321 1.00006 0.985984
0.99652 1.00118 0.972559
1.0003 1.00168 0.992161
1.0008 1.00163 0.991397
1.00014 1.00211 0.992035
1.00008 1.00232 0.992123
1.00003 1.00232 0.992178
1.0001 1.00194 0.992375
1.00125 1.00137 0.990696
1.00024 1.00234 0.991905
1.00007 1.00272 0.99142
1.0013 1.00185 0.990102
1.00264 1.00035 0.988639
1.00365 0.99797 0.989042
1.003 1.00065 0.98786
1.00154 1.00223 0.988967
1.00424 0.996286 0.99016
0.999816 0.998911 0.98686
1.00414 0.997837 0.98883
1.00238 0.998367 0.99145
1.00276 0.999046 0.992028
0.999127 1.00058 0.985764
1.00483 0.996004 0.988861
1.00349 0.998251 0.991405
1.00374 0.997 0.989675
1.00284 0.998761 0.989728
1.00278 0.998821 0.990175
1.00241 0.998674 0.991001
1.00311 0.995905 0.992283
1.00286 0.997686 0.991196
1.00275 0.998847 0.990254
1.00276 0.996843 0.992295
1.00259 0.998163 0.991247
1.00248 0.998974 0.990554
1.00215 0.998028 0.992224
1.00215 0.999003 0.991229
1.00203 0.999576 0.990904
1.00178 0.999097 0.991872
1.00171 0.999664 0.99146
1.00155 1.00005 0.991397
1.00152 0.999712 0.991755
1.00136 1.00015 0.991652
1.00106 1.00042 0.991984
1.00114 1.00051 0.99167
1.00085 1.00066 0.992112
1.0003 1.00074 0.993127
0.999491 0.999785 0.995643
1.00008 1.00097 0.99334
1.00055 1.00106 0.992352
0.999339 0.998048 0.999104
0.999504 0.999485 0.995927
0.999948 1.00102 0.993579
0.999413 0.997776 0.999146
0.999556 0.999163 0.996185
0.999482 0.997539 0.999179
1.0004 1.00185 0.99166
1.00018 1.00197 0.992065
1.00019 1.00166 0.992528
1.00009 1.00202 0.992325
1.00006 1.00175 0.992668
0.999857 1.00112 0.993658
1.00006 1.00169 0.992742
0.999898 1.0009 0.993782
0.999617 0.998976 0.996235
0.999974 1.00063 0.993901
0.999722 0.998624 0.996358
0.999571 0.997352 0.999182
0.999807 0.998333 0.996473
0.999665 0.997125 0.999215
0.999734 0.996926 0.999252
1.00309 0.997078 0.991056
1.00343 0.996841 0.991836
0.99946 1.0002 0.990197
1.00133 1.00108 0.991116
1.00017 1.00166 0.992446
1.00128 1.00104 0.990597
1.00081 1.00164 0.991354
1.00001 1.00217 0.992088
1.00245 1.00033 0.989359
1.00022 1.00191 0.99231
1.00132 1.00125 0.990668
1.0033 0.998699 0.989214
1.00127 1.00182 0.990205
1.00273 1.00043 0.988571
1.00362 0.998148 0.989002
1.00298 1.00058 0.9879
1.00411 0.996319 0.990335
1.00228 0.998512 0.991663
1.00232 0.998138 0.991401
1.00269 0.998422 0.99223
1.00378 0.997026 0.989791
1.00294 0.998885 0.990015
1.00289 0.998745 0.990133
1.0024 0.998747 0.991065
1.00238 0.999121 0.990687
1.00284 0.997632 0.991239
1.00277 0.998759 0.990295
1.00264 0.999183 0.990118
1.00254 0.998194 0.991286
1.00248 0.999025 0.990533
1.00236 0.999487 0.990343
1.00215 0.999014 0.991226
1.00204 0.999576 0.990893
1.00184 0.999924 0.990947
1.00171 0.999662 0.991459
1.00155 1.00004 0.991395
1.00126 1.00029 0.991714
1.00134 1.00012 0.991657
1.00106 1.00042 0.991988
1.00051 1.00053 0.992921
1.00082 1.00065 0.992094
1.0003 1.00075 0.993132
0.999516 0.999955 0.996041
0.999276 0.998539 0.997641
0.999519 0.99974 0.995958
1.00009 1.00096 0.993345
0.999323 0.9981 0.999079
0.999529 0.999486 0.995919
0.999397 0.997809 0.99913
1.00165 1.00034 0.990796
1.00072 1.00161 0.991268
1.00047 1.00183 0.991602
1.00036 1.0015 0.992326
1.00019 1.00194 0.992015
1.00017 1.00165 0.992537
0.999852 1.00125 0.993548
1.00004 1.00175 0.992668
0.999836 1.00115 0.993655
0.999526 0.999319 0.99608
0.99988 1.00093 0.993778
0.999619 0.998944 0.996239
0.999472 0.997609 0.999151
0.999728 0.998593 0.996363
0.999589 0.997332 0.99919
0.999679 0.99711 0.999223
1.00286 0.998155 0.990718
1.00306 0.997239 0.991065
1.00342 0.997153 0.992072
1.00226 1.00014 0.989871
1.00112 1.0011 0.991355
1.00002 1.00161 0.992731
1.00142 1.001 0.990704
1.00082 1.00165 0.991312
1.00312 0.999219 0.989085
1.00248 1.00038 0.989233
1.00137 1.00118 0.99064
1.00332 0.998733 0.989176
1.00288 1.00045 0.988502
1.00353 0.998312 0.988962
1.00209 0.999024 0.991226
1.00225 0.998484 0.991616
1.00225 0.997848 0.991352
1.00301 0.998664 0.990094
1.00239 0.998797 0.991128
1.00241 0.999097 0.990709
1.00229 0.999456 0.990539
1.00279 0.998667 0.990336
1.00266 0.99914 0.990105
1.00246 0.999386 0.990214
1.00249 0.999074 0.990511
1.00236 0.999488 0.990331
1.00213 0.999779 0.990512
1.00205 0.999576 0.990882
1.00184 0.999923 0.990938
1.00151 1.00017 0.991336
1.00156 1.00004 0.991392
1.00126 1.00029 0.991712
1.00071 1.00041 0.992649
1.00105 1.00042 0.991991
1.00051 1.00054 0.992922
0.999559 1.0001 0.995837
1.00029 1.00076 0.993137
0.999556 0.999936 0.996002
0.999158 0.999028 0.997426
0.999249 0.998508 0.998318
0.99955 0.999701 0.996267
0.999307 0.998151 0.999054
1.00228 0.999876 0.990092
1.00124 1.00093 0.991217
1.00153 1.00022 0.991162
1.00055 1.00146 0.991974
1.00082 1.00159 0.991261
1.00055 1.00181 0.991543
1.00033 1.00154 0.992332
0.999921 1.00127 0.993395
1.00016 1.00164 0.992546
0.999837 1.00126 0.993544
0.99946 0.999655 0.995882
0.999816 1.00118 0.993652
0.999519 0.999295 0.996084
0.999357 0.997915 0.999107
0.999621 0.99891 0.996244
0.999495 0.997577 0.999161
0.999607 0.997312 0.999197
1.00273 0.998869 0.990193
1.00284 0.998211 0.990697
1.00305 0.997435 0.991075
1.00285 0.999319 0.989385
1.00225 1.00019 0.989878
1.00094 1.00112 0.991595
1.00154 1.00093 0.990811
1.00313 0.999229 0.989092
1.00251 1.00042 0.989107
1.00335 0.99876 0.989138
1.00219 0.999391 0.99076
1.00217 0.99907 0.991085
1.00221 0.998474 0.991569
1.00222 0.999778 0.990388
1.00244 0.99907 0.990732
1.00229 0.999473 0.990509
1.00232 0.999539 0.990416
1.00269 0.999102 0.990092
1.00248 0.999378 0.990218
1.00224 0.999713 0.990352
1.00237 0.99949 0.990319
1.00213 0.999784 0.990508
1.00176 1.00002 0.990999
1.00185 0.999923 0.990929
1.00152 1.00017 0.991331
1.00092 1.00034 0.992323
1.00127 1.00029 0.991711
1.00071 1.00042 0.992642
0.99961 1.00016 0.995682
1.0005 1.00055 0.992923
0.999601 1.00007 0.995803
0.999046 0.999413 0.997292
0.999595 0.999919 0.995962
0.999139 0.99902 0.99746
0.999213 0.998467 0.99901
1.00263 0.999748 0.989638
1.00195 1.00016 0.990548
1.0022 0.999958 0.99022
1.00095 1.00108 0.991722
1.00122 1.00088 0.991211
1.00142 1.00013 0.991526
1.00009 1.00127 0.993059
1.00056 1.00145 0.991971
1.0009 1.00158 0.991253
1.00029 1.00159 0.992339
0.9999 1.00129 0.993392
0.999439 0.999969 0.995612
0.999822 1.00127 0.99354
0.99944 0.999654 0.995885
0.999228 0.998288 0.99905
0.999512 0.99927 0.996088
0.999384 0.997869 0.999121
0.999517 0.997547 0.999171
1.0027 0.999111 0.990056
1.00282 0.998856 0.990083
1.00281 0.998265 0.990677
1.00293 0.999269 0.989363
1.00224 1.00026 0.989885
1.00316 0.999243 0.989099
1.00226 0.999686 0.990353
1.00217 0.999436 0.990761
1.00225 0.999115 0.990944
1.0022 0.999781 0.990391
1.00218 0.999971 0.99026
1.00229 0.99949 0.990479
1.0023 0.999551 0.990419
1.0022 0.999754 0.99045
1.00249 0.99937 0.990222
1.00224 0.999697 0.990362
1.00188 0.999955 0.990819
1.00213 0.999788 0.990504
1.00176 1.00002 0.990994
1.0011 1.00021 0.992075
1.00152 1.00017 0.991326
1.00092 1.00033 0.992313
0.999686 1.00017 0.995563
1.00071 1.00043 0.992636
0.999652 1.00015 0.995651
0.998959 0.999706 0.997198
0.999644 1.00005 0.995769
0.999027 0.999421 0.997321
0.99912 0.99901 0.997494
1.00264 0.9992 0.990059
1.00232 0.999885 0.990033
1.00266 0.999691 0.989594
1.00146 1.00048 0.99121
1.00192 1.0002 0.990607
1.00211 1.00003 0.990349
1.0004 1.00101 0.992649
1.00093 1.00104 0.991612
1.00121 1.00081 0.991205
0.999476 1.00027 0.995241
1.00008 1.00126 0.993059
1.00056 1.00144 0.991969
0.999875 1.00132 0.993388
0.999395 1.00002 0.995618
0.999094 0.998729 0.998973
0.99942 0.999655 0.995887
0.999254 0.998223 0.999069
0.999411 0.997825 0.999135
1.00252 0.999445 0.990095
1.00272 0.999105 0.990023
1.00289 0.998842 0.989973
1.00301 0.99921 0.989341
1.0023 0.999874 0.990077
1.00226 0.999674 0.99038
1.00214 0.999477 0.990762
1.00218 0.999783 0.990394
1.00218 0.999954 0.990256
1.00209 1 0.990398
1.00228 0.999563 0.990422
1.00218 0.999764 0.990473
1.0019 0.999943 0.990758
1.00225 0.999682 0.990372
1.00188 0.999948 0.990822
1.00121 1.00011 0.991958
1.00176 1.00003 0.990988
1.00111 1.00021 0.992068
0.999768 1.00014 0.99468
1.00093 1.00033 0.992302
0.99972 1.00018 0.995132
0.998901 0.999801 0.998777
0.999696 1.00013 0.995618
0.998937 0.999734 0.997225
0.999006 0.999427 0.997352
1.0025 0.999404 0.990199
1.00236 0.99956 0.990205
1.00261 0.99924 0.990077
1.00181 1.00007 0.990665
1.0023 0.999878 0.990102
1.00268 0.999639 0.98955
1.00078 1.00057 0.992108
1.00147 1.00047 0.991203
1.00188 1.00026 0.990666
0.999594 1.0004 0.994852
1.00041 1.00098 0.992552
1.00092 1.001 0.991501
0.998994 0.999213 0.998871
0.999419 1.00033 0.995254
1.00008 1.00125 0.99306
0.999348 1.00007 0.995624
0.999117 0.998653 0.998998
0.999287 0.998158 0.999087
1.00239 0.999634 0.990154
1.0025 0.999445 0.990128
1.00275 0.999104 0.98999
1.00229 0.999982 0.990033
1.00231 0.999887 0.990049
1.00227 0.999668 0.990407
1.00217 0.999936 0.990252
1.0021 0.999982 0.990401
1.00189 1.00002 0.990823
1.00216 0.999774 0.990496
1.00189 0.999958 0.990851
1.00126 1.00006 0.991732
1.00188 0.999939 0.990825
1.00121 1.00011 0.991957
0.999809 1.00011 0.994632
1.00111 1.00021 0.992059
0.999776 1.00013 0.994675
0.998889 0.999878 0.998769
0.999749 1.00019 0.994712
0.998897 0.999879 0.997978
0.998913 0.999762 0.997252
1.00238 0.999629 0.990284
1.00229 0.999567 0.990391
1.00248 0.999365 0.990209
1.00194 0.999879 0.990737
1.00234 0.999578 0.990235
1.00259 0.999281 0.990095
1.00111 1.00023 0.9918
1.00184 1.0001 0.990787
1.00228 0.999868 0.990171
0.999725 1.00036 0.994596
1.00083 1.00055 0.992066
1.00148 1.00047 0.991197
0.998944 0.99962 0.998777
0.999538 1.00046 0.994866
1.00042 1.00095 0.992454
0.999001 0.99912 0.998905
0.999361 1.00039 0.995267
0.99914 0.998566 0.999023
1.00229 0.999833 0.99018
1.00239 0.999641 0.99015
1.00248 0.999438 0.99016
1.00206 1 0.990492
1.00227 1 0.990057
1.00233 0.9999 0.990021
1.00211 0.999964 0.990405
1.00189 1.00001 0.990827
1.00133 1.00005 0.991596
1.00188 0.999975 0.990945
1.00126 1.00007 0.991815
0.999855 1.0001 0.994546
1.00121 1.0001 0.991956
0.999814 1.0001 0.994631
0.998885 0.999948 0.998759
0.999783 1.00013 0.994671
0.998892 0.999899 0.998765
0.998907 0.999971 0.997154
1.00224 0.999752 0.99043
1.00236 0.999583 0.990284
1.00196 0.999838 0.990756
1.0023 0.999566 0.99039
1.00246 0.999328 0.990219
1.00128 1.00007 0.991848
1.00196 0.99988 0.990728
1.00233 0.999593 0.990264
0.999819 1.00023 0.994508
1.00114 1.00024 0.991864
1.00187 1.00013 0.990909
0.998925 0.99988 0.998727
0.999688 1.0004 0.994605
1.00088 1.00052 0.992024
0.99894 0.999537 0.998806
0.999483 1.00053 0.994879
0.99901 0.999026 0.998937
1.00202 0.99995 0.990625
1.00227 0.999846 0.990201
1.00239 0.999652 0.990146
1.00143 1.00003 0.99141
1.00206 1.00002 0.990492
1.00225 1.00002 0.990081
1.00189 0.999997 0.990832
1.00133 1.00005 0.991621
0.999922 1.00005 0.994449
1.00126 1.00007 0.991899
0.999856 1.0001 0.994544
0.998902 0.999991 0.998739
0.999818 1.00009 0.99463
0.998895 0.99996 0.998753
0.998899 0.999922 0.998761
1.00196 0.999925 0.990705
1.00224 0.999713 0.990407
1.00235 0.999531 0.990283
1.00132 1.00001 0.991821
1.00197 0.999841 0.990752
1.0023 0.999566 0.990388
0.999862 1.0001 0.994526
1.00128 1.00008 0.991849
1.00197 0.999882 0.990718
0.998919 0.999997 0.998717
0.999798 1.00026 0.994514
1.00116 1.00026 0.991927
0.998916 0.999821 0.99874
0.999654 1.00045 0.994614
0.998931 0.999454 0.998836
1.00142 1.00002 0.991609
1.00203 0.999966 0.990527
1.00226 0.999856 0.990223
0.99997 0.999976 0.994416
1.00143 1.00003 0.991424
1.00205 1.00004 0.990492
1.00132 1.00004 0.991646
0.999921 1.00006 0.994445
0.998953 1 0.998707
0.999859 1.0001 0.994541
0.998921 1 0.998726
0.998904 0.999971 0.998745
1.00136 1.00002 0.991736
1.00197 0.999912 0.990669
1.00223 0.999677 0.990384
0.999901 1.00003 0.995365
1.00132 1.00001 0.991821
1.00198 0.999845 0.990749
0.998919 1.00002 0.998727
0.999859 1.00011 0.994529
1.00128 1.00009 0.99185
0.998911 0.999966 0.998719
0.999779 1.00028 0.994521
0.998908 0.999766 0.998755
0.999972 0.999988 0.99443
1.00142 1.00002 0.991535
1.00203 0.999976 0.990429
0.999001 0.999991 0.998692
0.999973 0.999984 0.994411
1.00143 1.00002 0.991438
0.999921 1.00007 0.99444
0.998971 1.00001 0.998698
0.998938 1.00001 0.998713
0.999954 1.00001 0.995319
1.00136 1.00002 0.991739
1.00198 0.999898 0.990634
0.998872 1.00003 0.998778
0.999883 1.00003 0.994556
1.00133 1.00002 0.991821
0.998913 1.00001 0.998724
0.999856 1.00012 0.994531
0.9989 0.999937 0.998721
0.999 0.999974 0.996993
0.999978 0.999971 0.994858
1.00142 1.00002 0.991461
0.999001 0.999996 0.99869
0.999971 0.999994 0.994409
0.998984 1.00002 0.998692
0.998913 1.00001 0.99709
0.999934 0.999993 0.994925
1.00136 1.00002 0.991743
0.998899 1.00002 0.99792
0.999893 1.00002 0.994552
0.998905 0.999997 0.998721
0.999004 0.999991 0.998696
0.99997 0.999953 0.994448
0.999008 0.999997 0.998691
0.998946 0.999992 0.997897
0.999928 0.999986 0.994516
0.998916 1 0.998731
0.998989 0.999987 0.998706
0.998947 0.999998 0.998726

TENSORS stress float
0.00117343 3.06066e-05 2.61285e-05
3.06066e-05 0.000204734 -5.67876e-06
2.61285e-05 -5.67876e-06 0.000191824
0.00274853 -4.99883e-05 2.40249e-05
-4.99883e-05 0.000977118 3.35996e-06
2.40249e-05 3.35996e-06 0.000981831
0.00117117 3.41251e-05 1.01361e-05
3.41251e-05 0.00020543 -2.04676e-06
1.01361e-05 -2.04676e-06 0.00019234
0.00126869 2.27187e-05 3.47371e-05
2.27187e-05 0.000276825 -4.15257e-06
3.47371e-05 -4.15257e-06 0.000256545
0.00120125 2.92953e-05 2.8456e-05
2.92953e-05 0.000231111 -5.25874e-06
2.8456e-05 -5.25874e-06 0.000214695
0.0011459 3.11756e-05 2.38378e-05
3.11756e-05 0.000178013 -5.96315e-06
2.38378e-05 -5.96315e-06 0.000169533
0.0011379 1.38443e-05 6.6575e-06
1.38443e-05 0.000159645 -2.42764e-06
6.6575e-06 -2.42764e-06 0.000127798
0.00277166 -5.06046e-05 2.99765e-07
-5.06046e-05 0.000986428 -1.17891e-07
2.99765e-07 -1.17891e-07 0.000991587
0.00310251 -6.71512e-05 1.06257e-05
-6.71512e-05 0.0011958 1.14841e-06
1.06257e-05 1.14841e-06 0.00119002
0.00280373 -5.82462e-05 9.99326e-06
-5.82462e-05 0.00101762 1.29178e-06
9.99326e-06 1.29178e-06 0.00101916
0.00110189 -2.97727e-05 1.9395e-05
-2.97727e-05 0.000134479 3.71861e-06
1.9395e-05 3.71861e-06 0.000134358
0.00080459 -2.41364e-05 5.1688e-06
-2.41364e-05 -1.30711e-05 3.11132e-06
5.1688e-06 3.11132e-06 -3.93515e-05
0.00153808 -1.24074e-05 4.27928e-05
-1.24074e-05 0.000406331 1.00133e-06
4.27928e-05 1.00133e-06 0.000386161
0.00133091 -4.30661e-05 6.4051e-06
-4.30661e-05 0.000318254 1.35001e-06
6.4051e-06 1.35001e-06 0.000295712
0.00116231 3.80768e-05 -6.60475e-06
3.80768e-05 0.000202911 1.60046e-06
-6.60475e-06 1.60046e-06 0.000189602
0.00129933 3.15449e-05 1.42687e-05
3.15449e-05 0.000295573 -1.3106e-06
1.42687e-05 -1.3106e-06 0.000274276
0.00113032 3.39538e-05 9.15827e-06
3.39538e-05 0.000171471 -2.16657e-06
9.15827e-06 -2.16657e-06 0.000163041
0.00121066 3.38097e-05 1.11832e-05
3.38097e-05 0.000238069 -1.80361e-06
1.11832e-05 -1.80361e-06 0.00022124
0.00117602 1.38021e-05 -3.67993e-06
1.38021e-05 0.000177773 4.55007e-07
-3.67993e-06 4.55007e-07 0.000146137
0.00382872 6.57009e-05 4.10856e-05
6.57009e-05 0.0015651 -6.18496e-07
4.10856e-05 -6.18496e-07 0.00155597
0.00132021 1.96814e-05 3.75647e-05
1.96814e-05 0.000302731 -3.33958e-06
3.75647e-05 -3.33958e-06 0.000282418
0.00122544 2.67522e-05 3.12393e-05
2.67522e-05 0.000252201 -4.79195e-06
3.12393e-05 -4.79195e-06 0.000233242
0.00127676 7.74772e-06 7.83318e-06
7.74772e-06 0.000214252 -2.37798e-06
7.83318e-06 -2.37798e-06 0.000175892
0.0011823 1.0571e-05 6.97641e-06
1.0571e-05 0.000179419 -2.35018e-06
6.97641e-06 -2.35018e-06 0.000144992
0.00113612 3.08731e-05 2.21588e-05
3.08731e-05 0.000160107 -6.03693e-06
2.21588e-05 -6.03693e-06 0.000156345
0.00108929 2.05733e-05 5.93205e-06
2.05733e-05 0.00013763 -2.60966e-06
5.93205e-06 -2.60966e-06 0.000109179
0.00142377 -2.50906e-05 2.27595e-06
-2.50906e-05 0.00024548 -1.17519e-06
2.27595e-06 -1.17519e-06 0.000189988
0.00279788 -5.12932e-05 -2.30954e-05
-5.12932e-05 0.000997116 -3.34413e-06
-2.30954e-05 -3.34413e-06 0.00100273
0.00215247 -4.84372e-05 -1.06509e-05
-4.84372e-05 0.000715875 -6.52526e-07
-1.06509e-05 -6.52526e-07 0.000704646
0.00199219 -4.48176e-05 -9.05736e-06
-4.48176e-05 0.000607586 -9.02785e-07
-9.05736e-06 -9.02785e-07 0.000604222
0.00267048 -4.71979e-05 2.07501e-07
-4.71979e-05 0.000925322 -8.02112e-08
2.07501e-07 -8.02112e-08 0.000933209
0.000748267 -2.31051e-05 2.12223e-07
-2.31051e-05 -3.98121e-05 -3.99857e-08
2.12223e-07 -3.99857e-08 -6.59959e-05
0.00138639 -2.69832e-05 2.97789e-05
-2.69832e-05 0.000337097 2.62899e-06
2.97789e-05 2.62899e-06 0.000317536
0.00122289 -3.15635e-05 2.36878e-05
-3.15635e-05 0.000235475 3.13324e-06
2.36878e-05 3.13324e-06 0.000222802
0.00179137 -2.64267e-06 1.51679e-05
-2.64267e-06 0.000482086 2.48105e-06
1.51679e-05 2.48105e-06 0.000450999
0.0025775 -4.7435e-05 8.72624e-06
-4.7435e-05 0.000869019 1.50324e-06
8.72624e-06 1.50324e-06 0.000879178
0.00165914 -2.10542e-05 1.29538e-05
-2.10542e-05 0.000419427 2.54145e-06
1.29538e-05 2.54145e-06 0.000395111
0.000804103 -2.83077e-05 5.99353e-06
-2.83077e-05 -1.80967e-05 4.75214e-06
5.99353e-06 4.75214e-06 -4.09573e-05
0.000913849 1.38712e-05 2.71789e-06
1.38712e-05 1.75174e-05 1.41639e-06
2.71789e-06 1.41639e-06 -3.75275e-05
0.0025693 -3.66591e-05 2.05523e-05
-3.66591e-05 0.00084708 3.98858e-06
2.05523e-05 3.98858e-06 0.000860882
0.0039581 -6.62647e-05 9.67199e-07
-6.62647e-05 0.00162648 -1.6198e-07
9.67199e-07 -1.6198e-07 0.0016171
0.00247407 -5.44367e-05 -1.44345e-05
-5.44367e-05 0.000890703 -1.02959e-07
-1.44345e-05 -1.02959e-07 0.000874854
0.0040975 -5.19702e-05 4.53745e-05
-5.19702e-05 0.0016906 1.57713e-07
4.53745e-05 1.57713e-07 0.00168182
0.00136517 -4.52836e-05 6.12849e-06
-4.52836e-05 0.000332622 1.18592e-06
6.12849e-06 1.18592e-06 0.000309848
0.000765798 -1.38963e-05 1.01009e-05
-1.38963e-05 -6.65537e-05 2.23387e-06
1.01009e-05 2.23387e-06 -0.000107695
0.00346472 -8.00238e-05 1.04319e-05
-8.00238e-05 0.00139135 9.01723e-07
1.04319e-05 9.01723e-07 0.00138103
0.00193856 -2.3126e-05 2.12478e-05
-2.3126e-05 0.000538503 2.73193e-06
2.12478e-05 2.73193e-06 0.000504905
0.00133581 4.17507e-05 -6.98737e-06
4.17507e-05 0.000317547 1.57476e-06
-6.98737e-06 1.57476e-06 0.000295062
0.00121648 3.9059e-05 -6.86114e-06
3.9059e-05 0.000243322 1.5851e-06
-6.86114e-06 1.5851e-06 0.000226009
0.00110373 3.69283e-05 -6.1482e-06
3.69283e-05 0.000159513 1.59132e-06
-6.1482e-06 1.59132e-06 0.00015113
0.00122127 1.33064e-05 -1.43544e-05
1.33064e-05 0.000199433 3.35433e-06
-1.43544e-05 3.35433e-06 0.000168016
0.00263991 5.7276e-05 -1.49377e-05
5.7276e-05 0.0009674 -7.46677e-07
-1.49377e-05 -7.46677e-07 0.000951492
0.00133414 3.11828e-05 1.55788e-05
3.11828e-05 0.000313298 -9.79786e-07
1.55788e-05 -9.79786e-07 0.000291714
0.00110484 3.31872e-05 8.39985e-06
3.31872e-05 0.000145276 -2.16659e-06
8.39985e-06 -2.16659e-06 0.000141648
0.00125165 3.28033e-05 1.26056e-05
3.28033e-05 0.000268041 -1.5548e-06
1.26056e-05 -1.5548e-06 0.000248421
0.00131952 5.66911e-06 -5.40589e-06
5.66911e-06 0.000233699 1.90268e-07
-5.40589e-06 1.90268e-07 0.000195862
0.00113156 2.10364e-05 -3.32138e-06
2.10364e-05 0.000158025 4.36e-07
-3.32138e-06 4.36e-07 0.000129718
0.00121982 1.0135e-05 -4.16065e-06
1.0135e-05 0.000196536 4.26965e-07
-4.16065e-06 4.26965e-07 0.000162452
0.00146821 -2.74396e-05 -1.19291e-06
-2.74396e-05 0.000265563 5.38099e-07
-1.19291e-06 5.38099e-07 0.000209698
0.00392673 6.71891e-05 4.13329e-05
6.71891e-05 0.00161016 -9.61336e-08
4.13329e-05 -9.61336e-08 0.00160107
0.00134023 1.90722e-05 3.93123e-05
1.90722e-05 0.0003137 -2.60744e-06
3.93123e-05 -2.60744e-06 0.000293742
0.00194352 3.67912e-05 6.94004e-06
3.67912e-05 0.000532031 -1.34667e-06
6.94004e-06 -1.34667e-06 0.000497485
0.00132149 1.09732e-05 8.40711e-06
1.09732e-05 0.000229137 -2.06069e-06
8.40711e-06 -2.06069e-06 0.0001906
0.00122306 8.52095e-06 7.26727e-06
8.52095e-06 0.000195578 -2.42353e-06
7.26727e-06 -2.42353e-06 0.000158889
0.00164904 -3.1996e-05 2.66649e-06
-3.1996e-05 0.000292839 -1.34884e-06
2.66649e-06 -1.34884e-06 0.000232353
0.00120288 -2.49406e-05 2.86851e-06
-2.49406e-05 0.000115218 -1.503e-06
2.86851e-06 -1.503e-06 5.75984e-05
0.00119805 2.9946e-05 2.17606e-05
2.9946e-05 0.000176506 -6.0182e-06
2.17606e-05 -6.0182e-06 0.000176813
0.00105455 3.25939e-05 4.93422e-06
3.25939e-05 0.000119007 -2.77902e-06
4.93422e-06 -2.77902e-06 9.45889e-05
0.00133225 -1.47139e-05 1.98773e-06
-1.47139e-05 0.000220936 -1.22004e-06
1.98773e-06 -1.22004e-06 0.00016688
0.00112778 -4.37278e-05 1.94226e-06
-4.37278e-05 5.07887e-05 -1.25034e-06
1.94226e-06 -1.25034e-06 -1.74268e-05
0.00311794 -6.12184e-05 -2.65065e-05
-6.12184e-05 0.00119843 -2.70422e-06
-2.65065e-05 -2.70422e-06 0.00119407
0.00271245 -4.77315e-05 -2.21342e-05
-4.77315e-05 0.000943691 -3.4807e-06
-2.21342e-05 -3.4807e-06 0.000952063
0.00288461 -5.44714e-05 -2.43319e-05
-5.44714e-05 0.00105358 -3.1616e-06
-2.43319e-05 -3.1616e-06 0.00105604
0.000696201 -2.81579e-05 -4.30968e-06
-2.81579e-05 -6.37358e-05 -3.49284e-06
-4.30968e-06 -3.49284e-06 -9.02243e-05
0.00339291 -6.38229e-05 5.37306e-07
-6.38229e-05 0.00134684 -1.54185e-07
5.37306e-07 -1.54185e-07 0.00133921
0.00298529 -5.71008e-05 2.67221e-07
-5.71008e-05 0.00112322 -1.24168e-07
2.67221e-07 -1.24168e-07 0.00112126
0.000736061 6.91629e-06 -5.54091e-09
6.91629e-06 -4.4158e-05 -1.31025e-07
-5.54091e-09 -1.31025e-07 -8.14877e-05
0.00185307 -3.75111e-05 -8.0408e-06
-3.75111e-05 0.000502395 -1.03945e-06
-8.0408e-06 -1.03945e-06 0.00050886
0.000766464 -1.461e-05 -1.57485e-08
-1.461e-05 -2.77181e-05 -3.78778e-08
-1.57485e-08 -3.78778e-08 -5.72699e-05
0.00116493 -3.54306e-05 4.10899e-06
-3.54306e-05 0.000164359 5.17228e-07
4.10899e-06 5.17228e-07 0.000143774
0.000907576 1.13769e-05 4.00329e-08
1.13769e-05 1.53143e-05 -2.21119e-07
4.00329e-08 -2.21119e-07 -3.99573e-05
0.00257811 -4.01777e-05 2.11392e-05
-4.01777e-05 0.000859961 3.78889e-06
2.11392e-05 3.78889e-06 0.00087213
0.00083959 -2.41871e-05 4.26096e-06
-2.41871e-05 -3.03485e-05 3.69167e-06
4.26096e-06 3.69167e-06 -4.42637e-05
0.000756672 1.58463e-05 8.40935e-06
1.58463e-05 -4.35249e-05 3.99632e-06
8.40935e-06 3.99632e-06 -8.3452e-05
0.000760266 -5.93969e-07 7.56407e-06
-5.93969e-07 -3.18456e-05 4.19694e-06
7.56407e-06 4.19694e-06 -6.59708e-05
0.00100128 2.93379e-05 2.89811e-06
2.93379e-05 1.71138e-05 1.76235e-06
2.89811e-06 1.76235e-06 -4.17196e-05
0.00158748 -3.66078e-05 1.09823e-05
-3.66078e-05 0.000367353 3.23186e-06
1.09823e-05 3.23186e-06 0.000352241
0.000937377 2.0622e-05 2.64036e-06
2.0622e-05 2.13332e-05 1.47464e-06
2.64036e-06 1.47464e-06 -3.39413e-05
0.000919598 6.99884e-06 2.59137e-06
6.99884e-06 2.33751e-05 1.8563e-06
2.59137e-06 1.8563e-06 -3.03248e-05
0.00097092 3.86184e-05 1.39936e-06
3.86184e-05 1.99664e-05 4.05024e-07
1.39936e-06 4.05024e-07 -4.5959e-05
0.00254466 -3.30754e-05 1.96282e-05
-3.30754e-05 0.000827778 4.12132e-06
1.96282e-05 4.12132e-06 0.000843102
0.00260067 -3.67976e-05 3.0236e-07
-3.67976e-05 0.000861668 -8.12872e-08
3.0236e-07 -8.12872e-08 0.000875579
0.00357192 -6.90277e-05 -3.38239e-05
-6.90277e-05 0.00144198 -1.54476e-06
-3.38239e-05 -1.54476e-06 0.00143261
0.00384581 -6.56324e-05 -3.90028e-05
-6.56324e-05 0.00157273 -6.55556e-07
-3.90028e-05 -6.55556e-07 0.00156347
0.0040505 -4.15529e-05 1.44269e-06
-4.15529e-05 0.00166688 -1.89658e-07
1.44269e-06 -1.89658e-07 0.0016589
0.00256312 -5.54593e-05 -1.57652e-05
-5.54593e-05 0.00093232 1.53747e-08
-1.57652e-05 1.53747e-08 0.000916241
0.00135459 -6.88699e-06 9.172e-06
-6.88699e-06 0.000230188 -1.42027e-07
9.172e-06 -1.42027e-07 0.000193061
0.00235693 -5.13562e-05 -1.32255e-05
-5.13562e-05 0.000831212 -2.6873e-07
-1.32255e-05 -2.6873e-07 0.000816092
0.00127514 -2.92152e-06 7.38065e-06
-2.92152e-06 0.000207322 -3.27354e-08
7.38065e-06 -3.27354e-08 0.000170506
0.00406727 1.78292e-05 4.2277e-05
1.78292e-05 0.0016734 4.43126e-07
4.2277e-05 4.43126e-07 0.00166592
0.000733907 -2.47235e-06 8.24494e-06
-2.47235e-06 -9.11577e-05 7.60026e-07
8.24494e-06 7.60026e-07 -0.000131848
0.00197452 -3.78741e-05 2.30823e-05
-3.78741e-05 0.000550834 2.29814e-06
2.30823e-05 2.29814e-06 0.000516498
0.00114095 -8.14131e-07 4.85233e-06
-8.14131e-07 -2.57596e-06 1.41861e-06
4.85233e-06 1.41861e-06 -6.74838e-05
0.00187987 2.63921e-06 1.82524e-05
2.63921e-06 0.000515647 2.27428e-06
1.82524e-05 2.27428e-06 0.000481941
0.00111912 1.84701e-05 3.98327e-06
1.84701e-05 1.41829e-05 1.5864e-06
3.98327e-06 1.5864e-06 -4.89446e-05
0.00148816 1.93071e-05 -4.04605e-05
1.93071e-05 0.000384143 9.31558e-07
-4.04605e-05 9.31558e-07 0.000364192
0.00136021 4.31523e-05 -6.95643e-06
4.31523e-05 0.000330249 1.4437e-06
-6.95643e-06 1.4437e-06 0.000307235
0.00106674 3.55755e-05 -5.73881e-06
3.55755e-05 0.000127186 1.57024e-06
-5.73881e-06 1.57024e-06 0.000123683
0.0012774 4.02665e-05 -6.95336e-06
4.02665e-05 0.000283861 1.59083e-06
-6.95336e-06 1.59083e-06 0.000263439
0.00135296 3.24869e-06 -1.89403e-05
3.24869e-06 0.000248279 2.80516e-06
-1.89403e-05 2.80516e-06 0.000211083
0.00125993 9.19248e-06 -1.55757e-05
9.19248e-06 0.00021492 3.14535e-06
-1.55757e-05 3.14535e-06 0.000181208
0.00118714 2.11777e-05 -1.30437e-05
2.11777e-05 0.000184987 3.47208e-06
-1.30437e-05 3.47208e-06 0.000156829
0.00151213 -2.96606e-05 -4.66847e-06
-2.96606e-05 0.000285333 2.2279e-06
-4.66847e-06 2.2279e-06 0.0002291
0.00398644 7.04256e-05 -1.61473e-06
7.04256e-05 0.001639 -2.05316e-07
-1.61473e-06 -2.05316e-07 0.0016297
0.00134251 3.15003e-05 1.64868e-05
3.15003e-05 0.000317706 -6.35673e-07
1.64868e-05 -6.35673e-07 0.000296543
0.00107811 1.7436e-05 -9.97099e-06
1.7436e-05 9.48525e-05 1.20337e-07
-9.97099e-06 1.20337e-07 5.63335e-05
0.0013605 8.32382e-06 -5.91744e-06
8.32382e-06 0.00024668 1.1959e-07
-5.91744e-06 1.1959e-07 0.000208679
0.0019209 3.85883e-05 1.4644e-05
3.85883e-05 0.000543614 -1.90939e-06
1.4644e-05 -1.90939e-06 0.000547908
0.00132132 3.37797e-05 -3.20241e-06
3.37797e-05 0.000251409 4.00461e-07
-3.20241e-06 4.00461e-07 0.000228523
0.00126477 7.4271e-06 -4.74215e-06
7.4271e-06 0.000214396 3.19227e-07
-4.74215e-06 3.19227e-07 0.000178176
0.00149444 -2.95834e-05 -1.64173e-06
-2.95834e-05 0.000214862 3.9366e-07
-1.64173e-06 3.9366e-07 0.000153705
0.00141536 -1.88028e-05 -9.91851e-07
-1.88028e-05 0.000259586 6.22178e-07
-9.91851e-07 6.22178e-07 0.000205082
0.0013643 -2.82277e-05 -5.34935e-07
-2.82277e-05 0.000194712 1.84109e-07
-5.34935e-07 1.84109e-07 0.000137543
0.00112009 -4.32456e-05 1.48943e-08
-4.32456e-05 4.74316e-05 -3.79089e-08
1.48943e-08 -3.79089e-08 -2.07097e-05
0.000717529 5.9574e-06 7.94931e-06
5.9574e-06 -9.43049e-05 -1.51312e-06
7.94931e-06 -1.51312e-06 -0.000134371
0.00133493 1.96504e-05 8.41312e-06
1.96504e-05 0.00023297 -1.74731e-06
8.41312e-06 -1.74731e-06 0.000195158
0.00147489 1.44997e-05 4.31704e-06
1.44997e-05 0.000170004 -9.1607e-07
4.31704e-06 -9.1607e-07 0.000107977
0.00138764 -2.17006e-05 3.69584e-06
-2.17006e-05 0.000145273 -1.28922e-06
3.69584e-06 -1.28922e-06 8.33798e-05
0.00128588 -2.80196e-05 3.00966e-06
-2.80196e-05 0.000134313 -1.63248e-06
3.00966e-06 -1.63248e-06 7.46574e-05
0.0015743 -4.06596e-05 1.4495e-06
-4.06596e-05 0.000199989 -7.0202e-07
1.4495e-06 -7.0202e-07 0.000128683
0.00271872 4.41911e-05 2.19338e-05
4.41911e-05 0.000935305 -3.64452e-06
2.19338e-05 -3.64452e-06 0.000945766
0.00114377 -4.12573e-05 1.80864e-06
-4.12573e-05 3.88524e-05 -1.07453e-06
1.80864e-06 -1.07453e-06 -2.88787e-05
0.000758057 3.17615e-05 4.35401e-06
3.17615e-05 -4.27034e-05 -3.41767e-06
4.35401e-06 -3.41767e-06 -6.45318e-05
0.000827355 -7.25407e-06 2.27126e-06
-7.25407e-06 -1.9083e-05 -1.85869e-06
2.27126e-06 -1.85869e-06 -7.40644e-05
0.0011655 -4.60573e-05 1.86711e-06
-4.60573e-05 9.30604e-05 -1.60178e-06
1.86711e-06 -1.60178e-06 2.39006e-05
0.0012095 -5.10567e-05 1.49377e-06
-5.10567e-05 6.49629e-05 -8.59555e-07
1.49377e-06 -8.59555e-07 -7.63763e-06
0.000777015 2.51299e-05 4.47921e-06
2.51299e-05 -5.44108e-05 -3.75302e-06
4.47921e-06 -3.75302e-06 -7.07979e-05
0.000946755 -5.79337e-06 2.80112e-06
-5.79337e-06 1.68781e-05 -2.55529e-06
2.80112e-06 -2.55529e-06 -3.01987e-05
0.00329272 -6.45912e-05 -2.8952e-05
-6.45912e-05 0.00129503 -2.37918e-06
-2.8952e-05 -2.37918e-06 0.00128802
0.00297182 -5.76721e-05 -2.50721e-05
-5.76721e-05 0.00111231 -2.94178e-06
-2.50721e-05 -2.94178e-06 0.00111132
0.000695295 4.55612e-06 -5.61979e-06
4.55612e-06 -5.994e-05 -3.19232e-06
-5.61979e-06 -3.19232e-06 -9.76946e-05
0.00267047 -4.4068e-05 -2.18066e-05
-4.4068e-05 0.000912554 -3.65466e-06
-2.18066e-05 -3.65466e-06 0.000923156
0.000700268 -3.07889e-05 -4.34809e-06
-3.07889e-05 -6.91029e-05 -3.57011e-06
-4.34809e-06 -3.57011e-06 -9.14652e-05
0.000688326 -1.51119e-05 -5.30592e-06
-1.51119e-05 -6.26388e-05 -3.16229e-06
-5.30592e-06 -3.16229e-06 -9.2703e-05
0.000894802 9.18458e-06 -2.44581e-06
9.18458e-06 9.80074e-06 -1.75894e-06
-2.44581e-06 -1.75894e-06 -4.5649e-05
0.00261766 -4.03468e-05 2.66412e-07
-4.03468e-05 0.000878267 -8.82043e-08
2.66412e-07 -8.82043e-08 0.000890554
0.000824101 -2.36197e-05 1.27293e-07
-2.36197e-05 -3.87727e-05 -2.35725e-08
1.27293e-07 -2.35725e-08 -5.24723e-05
0.0012513 8.39105e-06 6.00363e-06
8.39105e-06 0.000208093 8.9194e-08
6.00363e-06 8.9194e-08 0.000171638
0.00119749 -8.53748e-06 4.77403e-06
-8.53748e-06 0.000191523 3.91231e-07
4.77403e-06 3.91231e-07 0.000160453
0.000988542 2.97497e-05 7.35857e-08
2.97497e-05 1.04738e-05 -3.21809e-08
7.35857e-08 -3.21809e-08 -4.82322e-05
0.000805492 -2.96072e-05 -5.06512e-08
-2.96072e-05 -2.79465e-05 -1.90219e-08
-5.06512e-08 -1.90219e-08 -4.66166e-05
0.000920047 1.99076e-05 -9.68812e-08
1.99076e-05 1.31203e-05 8.57212e-09
-9.68812e-08 8.57212e-09 -4.21455e-05
0.000903522 4.22194e-06 -4.52129e-08
4.22194e-06 1.72231e-05 -1.07238e-07
-4.52129e-08 -1.07238e-07 -3.67015e-05
0.000938136 3.81105e-05 -3.87634e-08
3.81105e-05 2.79033e-06 -1.23041e-07
-3.87634e-08 -1.23041e-07 -6.32884e-05
0.000830302 -2.7107e-05 4.54047e-06
-2.7107e-05 -2.58293e-05 3.5443e-06
4.54047e-06 3.5443e-06 -4.2046e-05
0.000849615 -2.13636e-05 3.83282e-06
-2.13636e-05 -3.24832e-05 3.76223e-06
3.83282e-06 3.76223e-06 -4.40972e-05
0.000937019 4.00058e-06 2.78538e-06
4.00058e-06 1.07269e-05 2.06057e-06
2.78538e-06 2.06057e-06 -3.48441e-05
0.00103596 2.74572e-05 3.11457e-06
2.74572e-05 9.66956e-06 1.7343e-06
3.11457e-06 1.7343e-06 -5.09766e-05
0.000972406 2.73447e-05 2.70804e-06
2.73447e-05 2.53424e-05 1.73909e-06
2.70804e-06 1.73909e-06 -3.13589e-05
0.00116296 4.44536e-05 1.71095e-06
4.44536e-05 5.21031e-05 1.47946e-06
1.71095e-06 1.47946e-06 -1.70489e-05
0.000930104 2.92468e-06 2.61696e-06
2.92468e-06 2.22326e-05 1.9617e-06
2.61696e-06 1.9617e-06 -2.81528e-05
0.000968798 4.12652e-05 1.19306e-06
4.12652e-05 2.35313e-06 7.39422e-07
1.19306e-06 7.39422e-07 -6.24473e-05
0.00104391 3.55322e-05 1.43449e-06
3.55322e-05 6.90062e-05 7.0035e-07
1.43449e-06 7.0035e-07 1.7403e-06
0.00111691 5.09392e-05 3.21343e-08
5.09392e-05 8.51561e-05 -3.89056e-08
3.21343e-08 -3.89056e-08 1.35862e-05
0.00251047 -2.9548e-05 1.84031e-05
-2.9548e-05 0.000804996 4.18932e-06
1.84031e-05 4.18932e-06 0.000821711
0.00257016 -3.32254e-05 3.42662e-07
-3.32254e-05 0.000839792 -7.24079e-08
3.42662e-07 -7.24079e-08 0.000855201
0.00263429 -3.69844e-05 -2.03962e-05
-3.69844e-05 0.000877395 -3.98375e-06
-2.03962e-05 -3.98375e-06 0.000891401
0.000802178 2.25529e-05 3.92366e-06
2.25529e-05 -4.91362e-05 -3.85496e-06
3.92366e-06 -3.85496e-06 -6.30638e-05
0.00270731 4.05955e-05 2.14201e-05
4.05955e-05 0.000921527 -3.8333e-06
2.14201e-05 -3.8333e-06 0.000933618
0.00344324 -6.70462e-05 -3.15636e-05
-6.70462e-05 0.00137578 -1.97335e-06
-3.15636e-05 -1.97335e-06 0.00136717
0.00369613 -7.14221e-05 -3.58172e-05
-7.14221e-05 0.00150298 -1.1147e-06
-3.58172e-05 -1.1147e-06 0.00149323
0.000706386 9.64096e-06 -6.69797e-06
9.64096e-06 -7.79643e-05 -2.80158e-06
-6.69797e-06 -2.80158e-06 -0.000117839
0.000713177 6.95755e-06 -7.57228e-06
6.95755e-06 -9.17085e-05 -2.03786e-06
-7.57228e-06 -2.03786e-06 -0.000131922
0.00400845 -4.80549e-05 -4.18503e-05
-4.80549e-05 0.00164663 -1.80169e-07
-4.18503e-05 -1.80169e-07 0.00163861
0.00408013 1.58962e-05 -9.51233e-07
1.58962e-05 0.00168099 2.10006e-07
-9.51233e-07 2.10006e-07 0.00167278
0.000725064 -1.35598e-06 2.48332e-08
-1.35598e-06 -9.56852e-05 -1.78876e-07
2.48332e-08 -1.78876e-07 -0.000136257
0.00130962 -1.25536e-05 8.25136e-06
-1.25536e-05 0.000217847 -4.88317e-08
8.25136e-06 -4.88317e-08 0.000180994
0.00115248 1.95257e-06 1.33074e-07
1.95257e-06 3.14254e-06 -4.86258e-10
1.33074e-07 -4.86258e-10 -6.16882e-05
0.000704982 1.11967e-05 3.68482e-08
1.11967e-05 -7.25827e-05 -1.28586e-07
3.68482e-08 -1.28586e-07 -0.000112708
0.00112489 1.88848e-05 6.37837e-08
1.88848e-05 1.73541e-05 -7.65716e-08
6.37837e-08 -7.65716e-08 -4.57639e-05
0.000703455 -1.32135e-06 8.24069e-06
-1.32135e-06 -0.000108091 -4.88258e-07
8.24069e-06 -4.88258e-07 -0.000148539
0.00116623 -1.90963e-06 5.17263e-06
-1.90963e-06 -2.73448e-06 6.65987e-07
5.17263e-06 6.65987e-07 -6.91749e-05
0.00113211 9.23046e-06 4.40401e-06
9.23046e-06 6.89707e-06 1.50458e-06
4.40401e-06 1.50458e-06 -5.67552e-05
0.00132953 -9.7195e-07 2.85041e-06
-9.7195e-07 3.67502e-05 8.9224e-07
2.85041e-06 8.9224e-07 -3.85634e-05
0.00108122 2.35168e-05 3.47496e-06
2.35168e-05 1.15651e-05 1.71614e-06
3.47496e-06 1.71614e-06 -5.05838e-05
0.00129081 2.09064e-05 2.16903e-06
2.09064e-05 4.62917e-05 8.68371e-07
2.16903e-06 8.68371e-07 -2.54868e-05
0.00404766 6.67354e-05 -4.65442e-05
6.67354e-05 0.00166796 -2.62961e-07
-4.65442e-05 -2.62961e-07 0.00165892
0.0013499 4.45853e-05 -6.75502e-06
4.45853e-05 0.000324685 1.21578e-06
-6.75502e-06 1.21578e-06 0.000302138
0.000199812 5.80255e-06 -9.69383e-06
5.80255e-06 -0.000347216 2.22532e-06
-9.69383e-06 2.22532e-06 -0.000390731
0.00138704 5.35243e-06 -2.03695e-05
5.35243e-06 0.000257784 2.40465e-06
-2.03695e-05 2.40465e-06 0.000220409
0.0026391 5.11255e-05 -8.91373e-06
5.11255e-05 0.000908815 1.42222e-06
-8.91373e-06 1.42222e-06 0.000916714
0.00159337 4.04923e-05 -1.19562e-05
4.04923e-05 0.000386872 3.47429e-06
-1.19562e-05 3.47429e-06 0.000365195
0.00130395 5.36701e-06 -1.71219e-05
5.36701e-06 0.000231845 2.99318e-06
-1.71219e-05 2.99318e-06 0.000196165
0.00134167 -2.75667e-05 -5.8225e-06
-2.75667e-05 0.000137846 2.16847e-06
-5.8225e-06 2.16847e-06 7.59966e-05
0.00153213 -3.14457e-05 -4.00146e-06
-3.14457e-05 0.000277306 1.77832e-06
-4.00146e-06 1.77832e-06 0.000220585
0.00149229 -2.26505e-05 -4.33767e-06
-2.26505e-05 0.000295192 2.51894e-06
-4.33767e-06 2.51894e-06 0.000240234
0.00111255 -4.28184e-05 -1.71132e-06
-4.28184e-05 4.41274e-05 1.11419e-06
-1.71132e-06 1.11419e-06 -2.39403e-05
0.000729134 6.46734e-06 -1.20069e-07
6.46734e-06 -8.86488e-05 -1.33712e-07
-1.20069e-07 -1.33712e-07 -0.000128835
0.00137473 1.73297e-05 -6.35404e-06
1.73297e-05 0.000250663 9.09374e-08
-6.35404e-06 9.09374e-08 0.00021339
0.001183 1.24549e-05 -9.95532e-07
1.24549e-05 2.40262e-05 1.02172e-07
-9.95532e-07 1.02172e-07 -3.96189e-05
0.00152862 -2.26159e-05 -9.50689e-07
-2.26159e-05 0.000215118 6.72335e-08
-9.50689e-07 6.72335e-08 0.000153785
0.00267257 4.39859e-05 -2.12476e-07
4.39859e-05 0.000913906 -8.7935e-08
-2.12476e-07 -8.7935e-08 0.000924219
0.00118043 3.70984e-05 8.72862e-07
3.70984e-05 0.000170416 3.8086e-08
8.72862e-07 3.8086e-08 0.000150252
0.00113108 -6.56788e-06 9.79402e-08
-6.56788e-06 0.000130286 -2.81646e-08
9.79402e-08 -2.81646e-08 7.65618e-05
0.00129262 -2.85622e-05 -6.92073e-07
-2.85622e-05 0.00013758 1.15921e-07
-6.92073e-07 1.15921e-07 7.80099e-05
0.00133436 -3.76783e-05 -7.19991e-07
-3.76783e-05 8.04787e-05 3.37123e-07
-7.19991e-07 3.37123e-07 8.34753e-06
0.00102441 -4.28803e-05 -1.37026e-07
-4.28803e-05 2.53449e-05 -1.13655e-07
-1.37026e-07 -1.13655e-07 -4.40228e-05
0.0012915 -4.29492e-05 4.59433e-08
-4.29492e-05 0.000111196 8.88837e-08
4.59433e-08 8.88837e-08 4.39041e-05
0.00119963 -5.07573e-05 1.11286e-07
-5.07573e-05 6.06467e-05 1.40866e-08
1.11286e-07 1.40866e-08 -1.18454e-05
0.000797855 2.60563e-05 -9.50934e-08
2.60563e-05 -4.2921e-05 -4.77672e-08
-9.50934e-08 -4.77672e-08 -5.95844e-05
0.000937725 -4.97303e-06 -1.40092e-07
-4.97303e-06 1.18056e-05 -6.10787e-08
-1.40092e-07 -6.10787e-08 -3.50779e-05
0.00116562 6.7899e-06 5.03385e-06
6.7899e-06 3.32362e-06 -7.56229e-07
5.03385e-06 -7.56229e-07 -6.173e-05
0.00141686 4.62512e-07 3.98102e-06
4.62512e-07 0.000149712 -1.10394e-06
3.98102e-06 -1.10394e-06 8.83397e-05
0.00164161 9.43553e-06 2.24987e-06
9.43553e-06 0.000197159 -1.56968e-07
2.24987e-06 -1.56968e-07 0.000124541
0.0011359 -2.53128e-05 2.90715e-06
-2.53128e-05 -3.87003e-05 -8.89767e-07
2.90715e-06 -8.89767e-07 -0.000112307
0.00129553 -4.13765e-05 1.4877e-06
-4.13765e-05 9.38288e-05 -1.09796e-06
1.4877e-06 -1.09796e-06 2.5317e-05
0.00154402 -4.09073e-05 9.23937e-07
-4.09073e-05 0.000153936 -5.41286e-07
9.23937e-07 -5.41286e-07 7.98404e-05
0.000742916 2.83213e-05 4.57699e-06
2.83213e-05 -6.07969e-05 -3.55368e-06
4.57699e-06 -3.55368e-06 -7.97268e-05
0.001241 -4.74376e-05 1.15272e-06
-4.74376e-05 5.67435e-05 -8.12538e-07
1.15272e-06 -8.12538e-07 -1.41122e-05
0.000876205 -2.20699e-06 2.51996e-06
-2.20699e-06 4.04482e-06 -1.78472e-06
2.51996e-06 -1.78472e-06 -4.9075e-05
0.000798073 -3.59423e-05 1.73553e-06
-3.59423e-05 -6.28864e-05 -1.75457e-06
1.73553e-06 -1.75457e-06 -0.000131145
0.00149518 -6.10122e-05 1.07444e-06
-6.10122e-05 0.000234461 -1.14481e-06
1.07444e-06 -1.14481e-06 0.000159189
0.0013297 -5.53843e-05 1.00248e-06
-5.53843e-05 0.000107704 -1.22018e-07
1.00248e-06 -1.22018e-07 3.5258e-05
0.000924726 -4.65858e-06 3.09055e-06
-4.65858e-06 1.13663e-05 -2.19458e-06
3.09055e-06 -2.19458e-06 -3.79779e-05
0.000943248 2.26581e-07 1.9842e-06
2.26581e-07 1.20012e-05 -2.61129e-06
1.9842e-06 -2.61129e-06 -3.10862e-05
0.00102974 -2.78428e-05 1.56549e-06
-2.78428e-05 5.45405e-05 -1.17165e-06
1.56549e-06 -1.17165e-06 -1.19157e-05
0.000707836 1.27598e-05 -6.07423e-06
1.27598e-05 -6.13431e-05 -3.13578e-06
-6.07423e-06 -3.13578e-06 -0.000101248
0.00265656 -4.05368e-05 -2.12997e-05
-4.05368e-05 0.000896253 -3.84528e-06
-2.12997e-05 -3.84528e-06 0.000908656
0.000809473 -2.30878e-05 -4.10284e-06
-2.30878e-05 -4.68324e-05 -3.7812e-06
-4.10284e-06 -3.7812e-06 -6.03097e-05
0.000680304 -6.07174e-06 -5.35164e-06
-6.07174e-06 -6.37284e-05 -3.09636e-06
-5.35164e-06 -3.09636e-06 -9.78264e-05
0.000977816 3.02852e-05 -2.785e-06
3.02852e-05 4.81446e-06 -1.88838e-06
-2.785e-06 -1.88838e-06 -5.37717e-05
0.000741313 -2.82671e-05 -4.66352e-06
-2.82671e-05 -5.98893e-05 -3.54522e-06
-4.66352e-06 -3.54522e-06 -7.84216e-05
0.000890462 1.50489e-06 -2.38967e-06
1.50489e-06 1.25833e-05 -2.06527e-06
-2.38967e-06 -2.06527e-06 -4.1576e-05
0.000902358 1.88369e-05 -2.53806e-06
1.88369e-05 4.71232e-06 -1.30742e-06
-2.53806e-06 -1.30742e-06 -5.05522e-05
0.000905215 3.75984e-05 -1.54119e-06
3.75984e-05 -1.44366e-05 -6.97176e-07
-1.54119e-06 -6.97176e-07 -8.06718e-05
0.000806879 -2.63848e-05 8.49409e-08
-2.63848e-05 -3.81889e-05 -4.2091e-08
8.49409e-08 -4.2091e-08 -5.41877e-05
0.000837822 -2.09568e-05 1.28544e-07
-2.09568e-05 -3.88539e-05 5.68909e-10
1.28544e-07 5.68909e-10 -5.02758e-05
0.000936903 2.51617e-06 7.73213e-08
2.51617e-06 1.12469e-05 -3.34154e-08
7.73213e-08 -3.34154e-08 -3.44036e-05
0.00104059 2.81934e-05 1.15246e-07
2.81934e-05 1.16357e-05 -8.66721e-09
1.15246e-07 -8.66721e-09 -4.89359e-05
0.000945905 2.67964e-05 -1.19384e-08
2.67964e-05 1.24676e-05 4.51615e-08
-1.19384e-08 4.51615e-08 -4.41216e-05
0.00115216 4.45578e-05 9.04284e-08
4.45578e-05 4.72401e-05 3.87407e-08
9.04284e-08 3.87407e-08 -2.19489e-05
0.000915949 1.48361e-06 -1.56123e-07
1.48361e-06 1.70922e-05 3.3613e-08
-1.56123e-07 3.3613e-08 -3.35015e-05
0.00104199 4.31228e-05 -2.64071e-08
4.31228e-05 3.89883e-05 -4.68939e-08
-2.64071e-08 -4.68939e-08 -2.55082e-05
0.00103212 3.56046e-05 8.09313e-08
3.56046e-05 6.33861e-05 -1.75097e-07
8.09313e-08 -1.75097e-07 -3.94673e-06
0.00103063 4.92928e-05 -5.1505e-07
4.92928e-05 4.2068e-05 1.91139e-07
-5.1505e-07 1.91139e-07 -2.98659e-05
0.000859917 -1.87978e-05 3.36393e-06
-1.87978e-05 -3.24625e-05 3.74553e-06
3.36393e-06 3.74553e-06 -4.1871e-05
0.000933901 2.59137e-06 2.85146e-06
2.59137e-06 1.50444e-05 1.86288e-06
2.85146e-06 1.86288e-06 -3.25657e-05
0.000939902 1.84949e-06 2.52165e-06
1.84949e-06 8.01823e-06 2.27408e-06
2.52165e-06 2.27408e-06 -3.49665e-05
0.00103367 1.90064e-05 1.51178e-06
1.90064e-05 5.61339e-05 7.82126e-07
1.51178e-06 7.82126e-07 -7.36777e-06
0.00118356 3.71389e-05 2.11065e-06
3.71389e-05 3.44133e-05 1.30511e-06
2.11065e-06 1.30511e-06 -3.59413e-05
0.00112556 4.63807e-05 1.42281e-06
4.63807e-05 6.2446e-05 1.43312e-06
1.42281e-06 1.43312e-06 -4.0829e-06
0.00122985 4.97355e-05 9.95211e-07
4.97355e-05 6.12141e-05 1.60979e-06
9.95211e-07 1.60979e-06 -1.32827e-05
0.00105414 3.01963e-05 1.37905e-06
3.01963e-05 7.39402e-05 9.84583e-07
1.37905e-06 9.84583e-07 8.26773e-06
0.00112453 5.11364e-05 3.26576e-07
5.11364e-05 6.69852e-05 7.14166e-07
3.26576e-07 7.14166e-07 -2.61606e-06
0.00107139 4.95786e-05 8.01798e-07
4.95786e-05 8.06245e-05 1.32541e-08
8.01798e-07 1.32541e-08 4.47324e-06
0.000980644 5.00468e-05 3.36918e-07
5.00468e-05 7.78547e-06 1.29046e-07
3.36918e-07 1.29046e-07 -6.74064e-05
0.000942802 -4.09075e-06 8.96832e-07
-4.09075e-06 2.34998e-06 2.13314e-06
8.96832e-07 2.13314e-06 -2.94229e-05
0.00087264 -1.4441e-05 2.37463e-06
-1.4441e-05 -3.3584e-05 3.58852e-06
2.37463e-06 3.58852e-06 -3.8925e-05
0.00246418 -2.60883e-05 1.68595e-05
-2.60883e-05 0.000776977 4.21795e-06
1.68595e-05 4.21795e-06 0.000795017
0.00252505 -2.96828e-05 4.11523e-07
-2.96828e-05 0.000811804 -6.35505e-08
4.11523e-07 -6.35505e-08 0.000828613
0.00259343 -3.33841e-05 -1.91814e-05
-3.33841e-05 0.000850731 -4.06621e-06
-1.91814e-05 -4.06621e-06 0.000866227
0.000821293 2.06622e-05 3.30612e-06
2.06622e-05 -4.47442e-05 -3.71947e-06
3.30612e-06 -3.71947e-06 -5.58927e-05
0.00264795 3.70128e-05 2.01032e-05
3.70128e-05 0.000885846 -3.91626e-06
2.01032e-05 -3.91626e-06 0.000899538
0.000815628 2.31871e-05 -2.08294e-07
2.31871e-05 -4.14757e-05 -2.24223e-08
-2.08294e-07 -2.24223e-08 -5.56768e-05
0.00266762 4.04053e-05 -2.44437e-07
4.04053e-05 0.000902852 -8.72705e-08
-2.44437e-07 -8.72705e-08 0.000914857
0.000703076 1.53138e-05 -6.39331e-06
1.53138e-05 -7.18127e-05 -2.9948e-06
-6.39331e-06 -2.9948e-06 -0.000112111
0.000711183 1.16065e-05 -7.10433e-06
1.16065e-05 -8.31345e-05 -2.52355e-06
-7.10433e-06 -2.52355e-06 -0.000123002
0.00112396 1.7927e-05 -3.89236e-06
1.7927e-05 1.72701e-05 -1.77196e-06
-3.89236e-06 -1.77196e-06 -4.58361e-05
0.00116595 2.91708e-06 -4.70878e-06
2.91708e-06 9.8675e-06 -1.37336e-06
-4.70878e-06 -1.37336e-06 -5.49012e-05
0.000713275 2.16717e-06 -8.09904e-06
2.16717e-06 -0.00010148 -1.14312e-06
-8.09904e-06 -1.14312e-06 -0.000142009
0.00410139 3.28205e-05 -4.51242e-05
3.28205e-05 0.00169232 3.01424e-07
-4.51242e-05 3.01424e-07 0.00168317
0.000722092 3.84778e-07 -1.45048e-08
3.84778e-07 -9.92664e-05 -1.87635e-07
-1.45048e-08 -1.87635e-07 -0.000139779
0.00117862 1.14e-06 3.95732e-08
1.14e-06 3.24183e-06 -2.41221e-07
3.95732e-08 -2.41221e-07 -6.31101e-05
0.00113618 8.0274e-06 2.76248e-08
8.0274e-06 9.25537e-06 -1.59237e-08
2.76248e-08 -1.59237e-08 -5.43944e-05
0.00135789 -1.94056e-06 6.96441e-08
-1.94056e-06 5.04415e-05 6.0229e-09
6.96441e-08 6.0229e-09 -2.48896e-05
0.0010888 2.44919e-05 1.26906e-07
2.44919e-05 1.56079e-05 -1.97971e-08
1.26906e-07 -1.97971e-08 -4.65396e-05
0.00130148 2.27821e-05 1.59464e-08
2.27821e-05 5.14208e-05 1.24469e-09
1.59464e-08 1.24469e-09 -2.039e-05
0.00117694 8.08746e-07 5.24201e-06
8.08746e-07 7.02133e-07 -3.66031e-07
5.24201e-06 -3.66031e-07 -6.55839e-05
0.00136419 2.43899e-06 3.01531e-06
2.43899e-06 4.16731e-05 4.86702e-07
3.01531e-06 4.86702e-07 -3.58964e-05
0.00132158 1.05033e-05 2.56505e-06
1.05033e-05 4.57321e-05 8.7361e-07
2.56505e-06 8.7361e-07 -2.73991e-05
0.0014546 -6.9203e-06 1.8858e-06
-6.9203e-06 7.29602e-05 5.5968e-07
1.8858e-06 5.5968e-07 -4.33865e-06
0.0012488 3.06274e-05 1.8685e-06
3.06274e-05 4.42561e-05 9.03393e-07
1.8685e-06 9.03393e-07 -2.67379e-05
0.00137352 2.39631e-05 1.27167e-06
2.39631e-05 5.76196e-05 7.5444e-07
1.27167e-06 7.5444e-07 -1.61335e-05
0.000742309 9.76907e-06 -8.05107e-06
9.76907e-06 -8.19942e-05 1.22198e-06
-8.05107e-06 1.22198e-06 -0.000122485
0.00141053 1.53005e-05 -2.13218e-05
1.53005e-05 0.000266274 1.89931e-06
-2.13218e-05 1.89931e-06 0.000229584
0.000886499 1.14156e-05 -5.37577e-06
1.14156e-05 -0.000124418 1.01188e-06
-5.37577e-06 1.01188e-06 -0.000189706
0.00167939 -2.33347e-05 -5.69436e-06
-2.33347e-05 0.000289914 1.63796e-06
-5.69436e-06 1.63796e-06 0.000229122
0.00262546 4.37136e-05 -2.14807e-05
4.37136e-05 0.000892005 3.57706e-06
-2.14807e-05 3.57706e-06 0.00090218
0.00160119 3.81781e-05 -1.08976e-05
3.81781e-05 0.000382321 2.98909e-06
-1.08976e-05 2.98909e-06 0.000364168
0.00142879 -9.15173e-06 -2.94903e-06
-9.15173e-06 0.000276464 1.92411e-06
-2.94903e-06 1.92411e-06 0.000224178
0.00130288 -2.88811e-05 -4.29441e-06
-2.88811e-05 0.000142622 1.86773e-06
-4.29441e-06 1.86773e-06 8.31314e-05
0.00109618 -3.4706e-05 -2.93691e-06
-3.4706e-05 -3.81346e-05 1.3738e-06
-2.93691e-06 1.3738e-06 -0.000111098
0.00143226 -4.46194e-05 -1.84828e-06
-4.46194e-05 0.000180144 1.1441e-06
-1.84828e-06 1.1441e-06 0.000113295
0.00087119 -3.93599e-05 -1.7203e-06
-3.93599e-05 -4.81653e-05 1.36751e-06
-1.7203e-06 1.36751e-06 -0.000117733
0.00118793 -5.04166e-05 -1.11632e-06
-5.04166e-05 5.54509e-05 8.41784e-07
-1.11632e-06 8.41784e-07 -1.69322e-05
0.000819514 2.69308e-05 -4.36603e-06
2.69308e-05 -3.10797e-05 3.58978e-06
-4.36603e-06 3.58978e-06 -4.80103e-05
0.0009301 -4.62685e-06 -2.8607e-06
-4.62685e-06 7.47702e-06 2.19513e-06
-2.8607e-06 2.19513e-06 -3.92256e-05
0.00104053 1.05525e-05 -1.15009e-07
1.05525e-05 -5.88258e-05 2.31746e-08
-1.15009e-07 2.31746e-08 -0.000124696
0.00142096 -2.64273e-06 -9.84518e-07
-2.64273e-06 0.000151449 1.01811e-07
-9.84518e-07 1.01811e-07 9.01363e-05
0.0015245 1.11559e-05 -8.38969e-07
1.11559e-05 0.000138854 1.50737e-07
-8.38969e-07 1.50737e-07 6.58952e-05
0.001379 -2.76656e-05 3.8165e-07
-2.76656e-05 8.26528e-05 -2.96557e-07
3.8165e-07 -2.96557e-07 1.00211e-05
0.000780365 2.93426e-05 1.03451e-08
2.93426e-05 -4.15754e-05 -2.75021e-08
1.03451e-08 -2.75021e-08 -6.07423e-05
0.000903851 -4.62724e-06 1.47031e-07
-4.62724e-06 1.58488e-05 -3.41571e-08
1.47031e-07 -3.41571e-08 -3.70672e-05
0.000890921 -3.78355e-05 4.50078e-07
-3.78355e-05 -1.59957e-05 -2.85463e-07
4.50078e-07 -2.85463e-07 -8.3679e-05
0.00139806 -4.25266e-05 -4.2285e-07
-4.25266e-05 0.000143153 1.10143e-07
-4.2285e-07 1.10143e-07 7.46461e-05
0.00138639 -3.79332e-05 -2.20072e-07
-3.79332e-05 7.5776e-05 3.99449e-07
-2.20072e-07 3.99449e-07 1.73724e-06
0.00126587 -5.60887e-05 -4.89232e-07
-5.60887e-05 0.000122452 1.23609e-07
-4.89232e-07 1.23609e-07 4.64917e-05
0.0012428 -4.73399e-05 7.61664e-08
-4.73399e-05 5.76072e-05 1.27478e-07
7.61664e-08 1.27478e-07 -1.32143e-05
0.00123613 -5.34194e-05 3.22616e-07
-5.34194e-05 6.2049e-05 3.14497e-07
3.22616e-07 3.14497e-07 -1.04444e-05
0.00092993 -4.61411e-06 6.2371e-10
-4.61411e-06 1.28457e-05 -6.85449e-08
6.2371e-10 -6.85449e-08 -3.62599e-05
0.000981055 -2.65344e-05 -6.29687e-08
-2.65344e-05 2.88822e-05 -1.55098e-07
-6.29687e-08 -1.55098e-07 -3.76693e-05
0.000935305 -1.05544e-06 -2.20404e-07
-1.05544e-06 8.2012e-06 2.63926e-08
-2.20404e-07 2.63926e-08 -3.49631e-05
0.00163678 1.60458e-05 2.44453e-06
1.60458e-05 0.000186417 -1.84299e-07
2.44453e-06 -1.84299e-07 0.000112022
0.00146397 -5.86277e-06 2.77725e-06
-5.86277e-06 0.00011348 -2.85272e-07
2.77725e-06 -2.85272e-07 4.0986e-05
0.00157313 1.39725e-05 2.33305e-06
1.39725e-05 0.000135424 1.7223e-07
2.33305e-06 1.7223e-07 5.76952e-05
0.00139155 -2.23357e-05 1.63034e-06
-2.23357e-05 5.63379e-05 -9.05997e-07
1.63034e-06 -9.05997e-07 -1.93366e-05
0.0011246 -4.27325e-05 1.21933e-06
-4.27325e-05 -2.02194e-05 -1.17468e-06
1.21933e-06 -1.17468e-06 -9.15095e-05
0.00152155 -3.76391e-05 2.08382e-07
-3.76391e-05 0.000123685 -2.20237e-07
2.08382e-07 -2.20237e-07 5.28686e-05
0.000897386 -2.1905e-06 2.88004e-06
-2.1905e-06 6.95423e-06 -1.89407e-06
2.88004e-06 -1.89407e-06 -4.41491e-05
0.00125399 -4.9385e-05 6.22049e-07
-4.9385e-05 4.71682e-05 -7.0391e-07
6.22049e-07 -7.0391e-07 -2.25587e-05
0.00100664 -3.60547e-05 1.22954e-06
-3.60547e-05 4.8187e-05 -8.11849e-07
1.22954e-06 -8.11849e-07 -1.7286e-05
0.000875367 -4.83563e-05 1.56912e-06
-4.83563e-05 -3.63109e-05 -2.07999e-06
1.56912e-06 -2.07999e-06 -0.000112912
0.0013572 -6.11624e-05 1.80161e-06
-6.11624e-05 0.000152347 -5.86616e-07
1.80161e-06 -5.86616e-07 7.24688e-05
0.00155799 -6.06965e-05 1.91559e-07
-6.06965e-05 0.000210892 6.13076e-07
1.91559e-07 6.13076e-07 0.000141416
0.000939348 6.86361e-06 1.40369e-06
6.86361e-06 7.9573e-06 -2.39804e-06
1.40369e-06 -2.39804e-06 -3.0502e-05
0.00102455 -3.2051e-05 1.76181e-06
-3.2051e-05 5.21859e-05 -7.65295e-07
1.76181e-06 -7.65295e-07 -1.32743e-05
0.000855713 -1.78637e-05 1.66387e-06
-1.78637e-05 -3.15112e-05 -2.04493e-06
1.66387e-06 -2.04493e-06 -9.85951e-05
0.00121787 -5.03649e-05 5.19377e-07
-5.03649e-05 0.000150105 9.99612e-08
5.19377e-07 9.99612e-08 7.53036e-05
0.00104763 2.91723e-05 -3.24158e-06
2.91723e-05 1.48166e-05 -1.91095e-06
-3.24158e-06 -1.91095e-06 -4.56975e-05
0.000826969 -2.05762e-05 -3.61349e-06
-2.05762e-05 -4.4815e-05 -3.78911e-06
-3.61349e-06 -3.78911e-06 -5.60403e-05
0.000783124 -2.56476e-05 -4.52136e-06
-2.56476e-05 -5.07528e-05 -3.66946e-06
-4.52136e-06 -3.66946e-06 -6.65273e-05
0.000934967 3.72438e-06 -2.69741e-06
3.72438e-06 1.1034e-05 -2.27122e-06
-2.69741e-06 -2.27122e-06 -3.47648e-05
0.000920352 2.62663e-05 -2.4025e-06
2.62663e-05 2.97413e-08 -1.57373e-06
-2.4025e-06 -1.57373e-06 -5.64469e-05
0.00113542 4.44449e-05 -1.66894e-06
4.44449e-05 3.95135e-05 -1.45138e-06
-1.66894e-06 -1.45138e-06 -2.97029e-05
0.000900501 -2.20081e-07 -2.77355e-06
-2.20081e-07 1.13926e-05 -1.94173e-06
-2.77355e-06 -1.94173e-06 -3.94196e-05
0.00102335 3.56176e-05 -1.35636e-06
3.56176e-05 5.92358e-05 -1.05352e-06
-1.35636e-06 -1.05352e-06 -8.17121e-06
0.00112232 4.51195e-05 -1.23982e-06
4.51195e-05 7.89925e-05 -8.17127e-07
-1.23982e-06 -8.17127e-07 1.48052e-05
0.00094435 4.76398e-05 -1.52813e-06
4.76398e-05 -9.40307e-07 -2.25592e-07
-1.52813e-06 -2.25592e-07 -7.32491e-05
0.000848773 -1.84972e-05 1.36611e-07
-1.84972e-05 -3.83558e-05 1.23252e-08
1.36611e-07 1.23252e-08 -4.7591e-05
0.000929079 2.61629e-06 1.29554e-08
2.61629e-06 1.39552e-05 -3.67199e-08
1.29554e-08 -3.67199e-08 -3.38736e-05
0.000937463 2.08124e-06 5.11233e-08
2.08124e-06 7.06428e-06 6.51837e-09
5.11233e-08 6.51837e-09 -3.59627e-05
0.00101838 1.82488e-05 1.16591e-07
1.82488e-05 4.91482e-05 -1.09676e-07
1.16591e-07 -1.09676e-07 -1.44614e-05
0.00121078 3.78797e-05 3.48974e-07
3.78797e-05 4.72387e-05 1.9845e-07
3.48974e-07 1.9845e-07 -2.31767e-05
0.00109433 4.60836e-05 4.68384e-08
4.60836e-05 4.8059e-05 1.42282e-08
4.68384e-08 1.42282e-08 -1.84412e-05
0.00121978 4.95678e-05 -8.95303e-09
4.95678e-05 5.67187e-05 2.18553e-07
-8.95303e-09 2.18553e-07 -1.77954e-05
0.00103142 3.07484e-05 -9.22249e-08
3.07484e-05 6.37545e-05 4.51651e-08
-9.22249e-08 4.51651e-08 -1.94421e-06
0.0012225 5.32159e-05 -3.04544e-07
5.32159e-05 0.000115704 -3.62747e-07
-3.04544e-07 -3.62747e-07 4.64715e-05
0.00108749 5.03106e-05 1.73236e-07
5.03106e-05 8.82022e-05 -3.3349e-07
1.73236e-07 -3.3349e-07 1.18029e-05
0.00100442 5.04248e-05 -1.12024e-06
5.04248e-05 2.16115e-05 1.44805e-08
-1.12024e-06 1.44805e-08 -5.23908e-05
0.000872221 -1.65484e-05 2.86599e-06
-1.65484e-05 -3.02669e-05 3.68333e-06
2.86599e-06 3.68333e-06 -3.75373e-05
0.000938084 3.30126e-07 2.18206e-06
3.30126e-07 4.75985e-06 2.38257e-06
2.18206e-06 2.38257e-06 -3.53817e-05
0.00104375 2.59982e-05 1.56722e-06
2.59982e-05 6.27269e-05 7.01784e-07
1.56722e-06 7.01784e-07 -1.21297e-06
0.00102725 1.41614e-05 1.28074e-06
1.41614e-05 5.18027e-05 1.12052e-06
1.28074e-06 1.12052e-06 -1.06813e-05
0.00102082 3.88216e-05 8.96291e-07
3.88216e-05 5.26077e-05 1.07822e-07
8.96291e-07 1.07822e-07 -2.07881e-05
0.00123737 3.86172e-05 1.53141e-06
3.86172e-05 3.40151e-05 1.16866e-06
1.53141e-06 1.16866e-06 -4.04126e-05
0.00116432 5.2531e-05 6.79162e-07
5.2531e-05 6.49107e-05 1.44219e-06
6.79162e-07 1.44219e-06 -7.05912e-06
0.00127456 5.28685e-05 3.1582e-07
5.28685e-05 7.43068e-05 1.67109e-06
3.1582e-07 1.67109e-06 -2.74871e-06
0.00108648 4.70515e-05 1.42026e-06
4.70515e-05 9.121e-05 1.40818e-06
1.42026e-06 1.40818e-06 1.56558e-05
0.00116965 5.49318e-05 1.1686e-06
5.49318e-05 8.20753e-05 8.406e-07
1.1686e-06 8.406e-07 8.66739e-06
0.00081801 4.75779e-05 1.09795e-06
4.75779e-05 -5.41627e-05 -1.48632e-07
1.09795e-06 -1.48632e-07 -0.000138176
0.000938197 -3.76079e-06 1.28249e-06
-3.76079e-06 1.75961e-06 2.32786e-06
1.28249e-06 2.32786e-06 -3.25039e-05
0.0010153 1.28232e-05 4.51532e-07
1.28232e-05 4.61883e-05 1.35736e-06
4.51532e-07 1.35736e-06 -5.32034e-06
0.000944901 -6.47731e-07 7.78556e-07
-6.47731e-07 2.43176e-06 1.97006e-06
7.78556e-07 1.97006e-06 -2.75402e-05
0.000947016 -1.95063e-06 1.20705e-07
-1.95063e-06 4.60238e-06 2.56428e-08
1.20705e-07 2.56428e-08 -2.7163e-05
0.00149459 -1.56439e-05 2.257e-06
-1.56439e-05 0.000277357 2.14076e-06
2.257e-06 2.14076e-06 0.00027692
0.00118738 -1.59664e-05 6.23552e-07
-1.59664e-05 0.000125543 6.16878e-09
6.23552e-07 6.16878e-09 0.000121906
0.00116112 -1.61314e-05 1.43209e-05
-1.61314e-05 0.000113641 6.89402e-06
1.43209e-05 6.89402e-06 0.000126714
0.00246789 -2.62142e-05 5.06016e-07
-2.62142e-05 0.000778439 -5.50708e-08
5.06016e-07 -5.50708e-08 0.000796603
0.00253834 -2.98361e-05 -1.76376e-05
-2.98361e-05 0.000817973 -4.10404e-06
-1.76376e-05 -4.10404e-06 0.000834877
0.000836684 1.92225e-05 2.72227e-06
1.92225e-05 -4.12513e-05 -3.53444e-06
2.72227e-06 -3.53444e-06 -4.96373e-05
0.00255612 3.34597e-05 1.84194e-05
3.34597e-05 0.000834692 -3.91965e-06
1.84194e-05 -3.91965e-06 0.000850068
0.000833632 2.10273e-05 -1.6832e-07
2.10273e-05 -3.81018e-05 2.64617e-08
-1.6832e-07 2.64617e-08 -4.94963e-05
0.00263092 3.68014e-05 -3.11019e-07
3.68014e-05 0.000877941 -8.20445e-08
-3.11019e-07 -8.20445e-08 0.000891509
0.00083046 2.38867e-05 -4.11079e-06
2.38867e-05 -3.31991e-05 3.75396e-06
-4.11079e-06 3.75396e-06 -4.76695e-05
0.00263135 4.02925e-05 -2.11971e-05
4.02925e-05 0.0008859 3.78047e-06
-2.11971e-05 3.78047e-06 0.0008978
0.00110208 2.54451e-05 -3.58347e-06
2.54451e-05 2.24155e-05 -1.89584e-06
-3.58347e-06 -1.89584e-06 -3.97303e-05
0.00114491 9.80887e-06 -4.21957e-06
9.80887e-06 1.37714e-05 -1.50061e-06
-4.21957e-06 -1.50061e-06 -4.98518e-05
0.00130799 2.06027e-05 -2.1568e-06
2.06027e-05 5.4715e-05 -8.94104e-07
-2.1568e-06 -8.94104e-07 -1.70975e-05
0.00138639 -2.54281e-06 -2.9129e-06
-2.54281e-06 6.41776e-05 -8.75164e-07
-2.9129e-06 -8.75164e-07 -1.11657e-05
0.00118506 3.58445e-06 -5.21708e-06
3.58445e-06 6.42416e-06 -1.06779e-06
-5.21708e-06 -1.06779e-06 -5.98828e-05
0.000733974 7.25228e-07 -8.3011e-06
7.25228e-07 -9.3433e-05 9.5376e-08
-8.3011e-06 9.5376e-08 -0.000134008
0.00118088 2.78155e-06 -2.6091e-08
2.78155e-06 2.36853e-06 -2.55063e-07
-2.6091e-08 -2.55063e-07 -6.39844e-05
0.00138146 3.65472e-06 -6.63109e-09
3.65472e-06 5.01056e-05 -1.63238e-07
-6.63109e-09 -1.63238e-07 -2.74622e-05
0.00133126 6.79258e-06 9.18283e-08
6.79258e-06 5.06904e-05 3.83522e-09
9.18283e-08 3.83522e-09 -2.2403e-05
0.00145506 -7.70779e-06 1.18252e-09
-7.70779e-06 7.18869e-05 4.7789e-08
1.18252e-09 4.7789e-08 -5.52315e-06
0.00125753 3.07473e-05 -4.43326e-08
3.07473e-05 4.83455e-05 -1.81474e-08
-4.43326e-08 -1.81474e-08 -2.26981e-05
0.00138387 2.33435e-05 -9.87829e-09
2.33435e-05 6.29565e-05 1.18398e-07
-9.87829e-09 1.18398e-07 -1.08258e-05
0.00138236 7.20396e-06 3.36371e-06
7.20396e-06 4.926e-05 -4.10214e-07
3.36371e-06 -4.10214e-07 -2.85262e-05
0.00139874 -1.35322e-06 1.92439e-06
-1.35322e-06 3.8119e-05 6.59195e-07
1.92439e-06 6.59195e-07 -4.17323e-05
0.00139528 9.54229e-06 1.68415e-06
9.54229e-06 5.22414e-05 5.7375e-07
1.68415e-06 5.7375e-07 -2.30652e-05
0.00158546 -1.34017e-05 2.25074e-06
-1.34017e-05 0.000119443 4.47224e-07
2.25074e-06 4.47224e-07 4.37061e-05
0.00132596 2.94355e-05 9.70013e-07
2.94355e-05 5.42097e-05 5.43225e-07
9.70013e-07 5.43225e-07 -1.9292e-05
0.00143995 1.50695e-05 -5.31486e-07
1.50695e-05 7.12071e-05 9.91781e-07
-5.31486e-07 9.91781e-07 2.92063e-06
0.000918237 1.21376e-05 -5.06175e-06
1.21376e-05 -0.000119487 7.46523e-07
-5.06175e-06 7.46523e-07 -0.000186197
0.00142326 -7.75575e-06 -5.9765e-06
-7.75575e-06 0.000152073 1.30907e-06
-5.9765e-06 1.30907e-06 9.09063e-05
0.00141337 1.64597e-05 -3.98822e-06
1.64597e-05 8.36449e-05 4.24453e-07
-3.98822e-06 4.24453e-07 1.02851e-05
0.00162019 -3.0052e-05 -2.34086e-06
-3.0052e-05 0.000203066 3.78778e-07
-2.34086e-06 3.78778e-07 0.000131411
0.000817466 3.02728e-05 -4.27822e-06
3.02728e-05 -2.25517e-05 3.4105e-06
-4.27822e-06 3.4105e-06 -4.19472e-05
0.000932919 -6.88425e-06 -2.57463e-06
-6.88425e-06 2.8388e-05 1.80477e-06
-2.57463e-06 1.80477e-06 -2.4332e-05
0.000999325 -4.01364e-05 -9.48385e-07
-4.01364e-05 3.83262e-05 1.06634e-06
-9.48385e-07 1.06634e-06 -2.87919e-05
0.00150519 -4.3708e-05 -2.29984e-06
-4.3708e-05 0.000194699 1.26217e-06
-2.29984e-06 1.26217e-06 0.000126197
0.00122857 -3.4994e-05 -1.56422e-06
-3.4994e-05 -2.49764e-06 1.26968e-06
-1.56422e-06 1.26968e-06 -7.64792e-05
0.00124376 -4.7231e-05 -1.04726e-06
-4.7231e-05 5.80636e-05 1.07977e-06
-1.04726e-06 1.07977e-06 -1.27234e-05
0.00103782 -5.12173e-05 -1.74054e-06
-5.12173e-05 1.10382e-05 1.44217e-06
-1.74054e-06 1.44217e-06 -6.5611e-05
0.00113248 -5.12677e-05 -5.21384e-07
-5.12677e-05 1.15343e-05 4.90447e-07
-5.21384e-07 4.90447e-07 -6.09995e-05
0.000934151 -4.63625e-06 -2.93099e-06
-4.63625e-06 1.38652e-05 1.91926e-06
-2.93099e-06 1.91926e-06 -3.50056e-05
0.00093335 -2.52381e-05 -1.80967e-06
-2.52381e-05 3.66062e-06 8.86695e-07
-1.80967e-06 8.86695e-07 -6.29783e-05
0.000929175 -1.43595e-06 -2.42855e-06
-1.43595e-06 5.24456e-06 2.44441e-06
-2.42855e-06 2.44441e-06 -3.7962e-05
0.00149552 1.63779e-05 -8.56563e-07
1.63779e-05 0.00011575 2.85463e-07
-8.56563e-07 2.85463e-07 4.0384e-05
0.00145631 -1.13033e-05 -3.52142e-07
-1.13033e-05 0.00010889 1.26697e-08
-3.52142e-07 1.26697e-08 3.65632e-05
0.00145611 1.6181e-05 -3.95936e-07
1.6181e-05 7.68148e-05 1.20301e-07
-3.95936e-07 1.20301e-07 -1.47671e-06
0.00148973 -2.12179e-05 -6.76707e-09
-2.12179e-05 0.000103877 -3.13946e-07
-6.76707e-09 -3.13946e-07 2.84533e-05
0.000916845 -3.29882e-06 9.43591e-08
-3.29882e-06 1.48066e-05 -5.64673e-08
9.43591e-08 -5.64673e-08 -3.60335e-05
0.00103681 -3.6872e-05 4.70263e-08
-3.6872e-05 6.20119e-05 7.42479e-08
4.70263e-08 7.42479e-08 -3.47071e-06
0.00096968 -5.01335e-05 2.82558e-07
-5.01335e-05 1.21079e-05 -3.80443e-07
2.82558e-07 -3.80443e-07 -6.39074e-05
0.00130139 -4.51896e-05 -4.67286e-08
-4.51896e-05 6.69612e-05 -1.82253e-07
-4.67286e-08 -1.82253e-07 -4.25988e-06
0.0014025 -3.6343e-05 3.19812e-07
-3.6343e-05 6.49599e-05 7.06991e-07
3.19812e-07 7.06991e-07 -4.95939e-06
0.00120253 -5.82091e-05 6.15989e-08
-5.82091e-05 7.81147e-05 1.16411e-07
6.15989e-08 1.16411e-07 -2.75133e-06
0.00126406 -4.8988e-05 4.01555e-08
-4.8988e-05 5.19671e-05 2.17119e-07
4.01555e-08 2.17119e-07 -1.76632e-05
0.0014086 -5.7575e-05 5.34894e-07
-5.7575e-05 0.000137664 3.66205e-07
5.34894e-07 3.66205e-07 6.89704e-05
0.00103908 -3.23055e-05 9.52707e-08
-3.23055e-05 5.84877e-05 -9.09704e-08
9.52707e-08 -9.09704e-08 -6.77689e-06
0.00112561 -4.81463e-05 -3.53251e-07
-4.81463e-05 0.000103115 1.99124e-07
-3.53251e-07 1.99124e-07 2.79606e-05
0.000929764 5.60981e-06 -1.4059e-07
5.60981e-06 3.65887e-06 8.12155e-08
-1.4059e-07 8.12155e-08 -3.49287e-05
0.000884716 -1.695e-05 2.96624e-07
-1.695e-05 -1.76465e-05 -5.09656e-07
2.96624e-07 -5.09656e-07 -8.42845e-05
0.00147651 1.68912e-05 2.7742e-06
1.68912e-05 8.33275e-05 -6.59663e-08
2.7742e-06 -6.59663e-08 3.14626e-06
0.00159189 -3.92799e-06 2.15449e-06
-3.92799e-06 0.000140781 4.81654e-08
2.15449e-06 4.81654e-08 6.4048e-05
0.00149439 1.86784e-05 2.10033e-06
1.86784e-05 8.15358e-05 3.27234e-07
2.10033e-06 3.27234e-07 9.95985e-07
0.00138125 -1.67925e-05 8.73621e-07
-1.67925e-05 3.15031e-05 -1.49032e-06
8.73621e-07 -1.49032e-06 -4.20724e-05
0.00121458 -4.42058e-05 2.8851e-07
-4.42058e-05 5.95321e-06 -6.73649e-07
2.8851e-07 -6.73649e-07 -6.2426e-05
0.00159309 -3.56794e-05 1.66411e-06
-3.56794e-05 0.000139067 -6.52834e-07
1.66411e-06 -6.52834e-07 7.45329e-05
0.00101122 -3.26916e-05 1.4128e-06
-3.26916e-05 4.9365e-05 -6.00827e-07
1.4128e-06 -6.00827e-07 -1.5406e-05
0.00125369 -4.9127e-05 -2.73621e-07
-4.9127e-05 3.69826e-05 -2.96098e-07
-2.73621e-07 -2.96098e-07 -2.6433e-05
0.000857323 -4.58396e-05 8.11571e-07
-4.58396e-05 -3.03489e-05 -1.4008e-06
8.11571e-07 -1.4008e-06 -0.000103818
0.00112541 -5.73161e-05 1.78893e-06
-5.73161e-05 7.91203e-05 -1.99329e-06
1.78893e-06 -1.99329e-06 -4.93994e-06
0.00125392 -6.21566e-05 2.18809e-06
-6.21566e-05 9.24884e-05 5.90383e-07
2.18809e-06 5.90383e-07 9.01638e-06
0.00163467 -6.22764e-05 1.18497e-06
-6.22764e-05 0.000237498 -1.74081e-07
1.18497e-06 -1.74081e-07 0.0001696
0.000930457 1.01128e-05 1.00934e-06
1.01128e-05 2.07767e-06 -2.22425e-06
1.00934e-06 -2.22425e-06 -3.28997e-05
0.000816788 -1.06687e-05 1.1997e-06
-1.06687e-05 -5.07156e-05 -2.21703e-06
1.1997e-06 -2.21703e-06 -0.000114035
0.00105487 -4.6974e-05 8.4359e-07
-4.6974e-05 6.55969e-05 5.01504e-08
8.4359e-07 5.01504e-08 -6.76293e-06
0.00106581 -4.58086e-05 1.10549e-06
-4.58086e-05 8.05782e-05 -4.82648e-07
1.10549e-06 -4.82648e-07 1.86637e-06
0.00121161 -5.28665e-05 5.33919e-07
-5.28665e-05 0.000142356 4.93373e-07
5.33919e-07 4.93373e-07 6.48659e-05
0.000839506 -1.82168e-05 -3.10229e-06
-1.82168e-05 -4.33087e-05 -3.74924e-06
-3.10229e-06 -3.74924e-06 -5.23773e-05
0.00122938 3.84982e-05 -1.47172e-06
3.84982e-05 5.59788e-05 -9.45134e-07
-1.47172e-06 -9.45134e-07 -1.45066e-05
0.00093601 -9.93345e-07 -2.26848e-06
-9.93345e-07 6.43669e-06 -2.40773e-06
-2.26848e-06 -2.40773e-06 -3.65117e-05
0.000924627 2.52662e-06 -2.92645e-06
2.52662e-06 1.30927e-05 -2.04612e-06
-2.92645e-06 -2.04612e-06 -3.49604e-05
0.00100473 1.74794e-05 -1.3141e-06
1.74794e-05 4.29419e-05 -9.89427e-07
-1.3141e-06 -9.89427e-07 -2.07724e-05
0.00106945 4.59176e-05 -1.40167e-06
4.59176e-05 3.66785e-05 -1.43927e-06
-1.40167e-06 -1.43927e-06 -2.97884e-05
0.00120872 4.9365e-05 -9.14103e-07
4.9365e-05 5.17603e-05 -1.15225e-06
-9.14103e-07 -1.15225e-06 -2.27724e-05
0.00100974 2.98426e-05 -1.32901e-06
2.98426e-05 5.40504e-05 -7.45678e-07
-1.32901e-06 -7.45678e-07 -1.16457e-05
0.00110712 5.10999e-05 -1.14996e-06
5.10999e-05 9.74907e-05 -1.05006e-06
-1.14996e-06 -1.05006e-06 2.08418e-05
0.00131817 5.52572e-05 -1.23207e-06
5.52572e-05 0.00016325 -1.17003e-06
-1.23207e-06 -1.17003e-06 9.4394e-05
0.00102987 5.08234e-05 -2.37911e-06
5.08234e-05 3.60938e-05 2.68842e-07
-2.37911e-06 2.68842e-07 -3.66989e-05
0.000860299 -1.63318e-05 1.41859e-07
-1.63318e-05 -3.6343e-05 2.42477e-08
1.41859e-07 2.42477e-08 -4.34691e-05
0.00093724 -7.4424e-07 5.34511e-08
-7.4424e-07 4.05981e-06 1.99332e-08
5.34511e-08 1.99332e-08 -3.59774e-05
0.00102984 2.47139e-05 -2.31238e-08
2.47139e-05 5.66818e-05 -4.19322e-08
-2.31238e-08 -4.19322e-08 -7.31597e-06
0.00101448 1.39132e-05 4.27691e-08
1.39132e-05 4.61051e-05 -5.44063e-08
4.27691e-08 -5.44063e-08 -1.65214e-05
0.000994315 3.77174e-05 7.05991e-08
3.77174e-05 3.92865e-05 -1.46417e-07
7.05991e-08 -1.46417e-07 -3.41258e-05
0.00127893 3.96628e-05 4.79648e-07
3.96628e-05 5.32837e-05 3.41873e-07
4.79648e-07 3.41873e-07 -2.11897e-05
0.00115347 5.25527e-05 1.12236e-07
5.25527e-05 6.0006e-05 -6.91756e-08
1.12236e-07 -6.91756e-08 -1.19847e-05
0.00123705 5.31766e-05 5.45447e-07
5.31766e-05 5.59682e-05 3.82928e-07
5.45447e-07 3.82928e-07 -2.14347e-05
0.00107098 4.73006e-05 4.55735e-07
4.73006e-05 8.43604e-05 4.28514e-07
4.55735e-07 4.28514e-07 8.81819e-06
0.00122436 5.57155e-05 7.82233e-08
5.57155e-05 0.000109371 -3.231e-07
7.82233e-08 -3.231e-07 3.63208e-05
0.000981951 5.13256e-05 -7.65897e-07
5.13256e-05 2.44617e-05 -4.27279e-07
-7.65897e-07 -4.27279e-07 -5.88208e-05
0.000935647 -1.27353e-06 1.76059e-06
-1.27353e-06 2.12588e-06 2.42011e-06
1.76059e-06 2.42011e-06 -3.50499e-05
0.00102016 1.37753e-05 1.17792e-06
1.37753e-05 4.7008e-05 1.31312e-06
1.17792e-06 1.31312e-06 -1.37305e-05
0.0010337 4.31656e-05 6.64237e-07
4.31656e-05 5.83563e-05 1.96801e-07
6.64237e-07 1.96801e-07 -1.51052e-05
0.00105469 3.61437e-05 7.21925e-07
3.61437e-05 6.98559e-05 3.96414e-07
7.21925e-07 3.96414e-07 -3.56293e-06
0.00110299 4.73765e-05 2.21545e-08
4.73765e-05 9.38588e-05 -3.35247e-07
2.21545e-08 -3.35247e-07 1.61235e-05
0.00124451 3.82288e-05 -3.69976e-07
3.82288e-05 2.40862e-05 3.01076e-07
-3.69976e-07 3.01076e-07 -5.07179e-05
0.00118331 5.7321e-05 1.07552e-06
5.7321e-05 6.59611e-05 1.39591e-06
1.07552e-06 1.39591e-06 -9.55017e-06
0.00105965 5.6048e-05 1.56037e-07
5.6048e-05 -2.83072e-05 8.14951e-07
1.56037e-07 8.14951e-07 -0.000105079
0.00105653 5.22609e-05 7.6496e-07
5.22609e-05 7.67814e-05 1.74383e-06
7.6496e-07 1.74383e-06 -7.46097e-06
0.00118233 5.85479e-05 2.18988e-06
5.85479e-05 9.74618e-05 4.81986e-07
2.18988e-06 4.81986e-07 1.1021e-05
0.000941092 -3.18616e-06 1.62714e-07
-3.18616e-06 3.06271e-06 3.3584e-08
1.62714e-07 3.3584e-08 -3.11183e-05
0.000849436 7.30956e-06 8.97894e-07
7.30956e-06 -3.89152e-05 2.03626e-06
8.97894e-07 2.03626e-06 -9.5329e-05
0.000925058 7.50779e-06 -1.70726e-07
7.50779e-06 4.17917e-07 6.71717e-08
-1.70726e-07 6.71717e-08 -5.18848e-05
0.0012112 2.80925e-05 2.94262e-07
2.80925e-05 0.000152374 3.82422e-07
2.94262e-07 3.82422e-07 8.72439e-05
0.000983778 8.72861e-06 5.27816e-07
8.72861e-06 3.23693e-05 1.24542e-06
5.27816e-07 1.24542e-06 -1.7398e-05
0.000955833 3.09669e-06 6.85061e-07
3.09669e-06 7.14555e-06 1.89297e-06
6.85061e-07 1.89297e-06 -2.16335e-05
0.000954285 -1.01296e-06 1.06934e-07
-1.01296e-06 7.36053e-06 1.52436e-08
1.06934e-07 1.52436e-08 -2.26644e-05
0.0014844 -1.30305e-05 1.77465e-06
-1.30305e-05 0.000268772 2.06591e-06
1.77465e-06 2.06591e-06 0.000269834
0.000952768 -2.15904e-07 -1.02705e-06
-2.15904e-07 7.62223e-06 -2.04542e-06
-1.02705e-06 -2.04542e-06 -2.41415e-05
0.00151178 -1.47765e-05 -2.42169e-06
-1.47765e-05 0.000285917 -1.2791e-06
-2.42169e-06 -1.2791e-06 0.000285611
0.00115815 -1.39676e-05 1.2246e-05
-1.39676e-05 0.000107474 6.70874e-06
1.2246e-05 6.70874e-06 0.000122022
0.00150766 -1.63545e-05 -6.7502e-06
-1.63545e-05 0.00028746 -3.40937e-06
-6.7502e-06 -3.40937e-06 0.000285586
0.00176443 -1.9594e-05 1.02331e-05
-1.9594e-05 0.000418797 2.41662e-06
1.02331e-05 2.41662e-06 0.000435128
0.00247285 -2.63538e-05 -1.57856e-05
-2.63538e-05 0.000780541 -4.10084e-06
-1.57856e-05 -4.10084e-06 0.000798822
0.000848861 1.78821e-05 2.25869e-06
1.78821e-05 -3.93907e-05 -3.35192e-06
2.25869e-06 -3.35192e-06 -4.53493e-05
0.000850568 1.93892e-05 -1.69215e-07
1.93892e-05 -3.43215e-05 3.6171e-08
-1.69215e-07 3.6171e-08 -4.28786e-05
0.00245877 3.0059e-05 1.64191e-05
3.0059e-05 0.000780656 -3.8858e-06
1.64191e-05 -3.8858e-06 0.000797737
0.00255524 3.328e-05 -3.56759e-07
3.328e-05 0.000834643 -6.80194e-08
-3.56759e-07 -6.80194e-08 0.000849851
0.000847176 2.14567e-05 -3.5795e-06
2.14567e-05 -3.08822e-05 3.77788e-06
-3.5795e-06 3.77788e-06 -4.25249e-05
0.00261268 3.67006e-05 -2.06316e-05
3.67006e-05 0.000869514 3.97476e-06
-2.06316e-05 3.97476e-06 0.000882943
0.0012688 3.10082e-05 -1.95896e-06
3.10082e-05 5.36553e-05 -9.7394e-07
-1.95896e-06 -9.7394e-07 -1.74424e-05
0.00134314 6.70176e-06 -2.49388e-06
6.70176e-06 5.66071e-05 -8.73486e-07
-2.49388e-06 -8.73486e-07 -1.64869e-05
0.00139366 2.3707e-05 -1.24187e-06
2.3707e-05 6.79843e-05 -5.41168e-07
-1.24187e-06 -5.41168e-07 -5.83135e-06
0.00144922 -8.59358e-06 -1.96611e-06
-8.59358e-06 6.77808e-05 -5.50192e-07
-1.96611e-06 -5.50192e-07 -9.74214e-06
0.0014028 6.8634e-06 -3.0893e-06
6.8634e-06 6.05129e-05 -7.88315e-07
-3.0893e-06 -7.88315e-07 -1.70823e-05
0.00118228 7.30397e-06 -5.2187e-06
7.30397e-06 2.74443e-06 -5.4946e-08
-5.2187e-06 -5.4946e-08 -6.36233e-05
0.00139114 1.15692e-05 4.56251e-08
1.15692e-05 5.35963e-05 -3.15343e-07
4.56251e-08 -3.15343e-07 -2.42308e-05
0.00142947 -8.7213e-06 3.96143e-08
-8.7213e-06 5.22732e-05 7.29037e-08
3.96143e-08 7.29037e-08 -2.79481e-05
0.00141548 8.27856e-06 6.24425e-08
8.27856e-06 6.22959e-05 -7.21999e-08
6.24425e-08 -7.21999e-08 -1.29839e-05
0.00156788 -1.434e-05 1.21426e-07
-1.434e-05 0.000110261 -1.83437e-07
1.21426e-07 -1.83437e-07 3.45443e-05
0.00133475 3.02655e-05 -3.78798e-08
3.02655e-05 5.83186e-05 -2.50957e-10
-3.78798e-08 -2.50957e-10 -1.53362e-05
0.00143576 1.50801e-05 -9.36455e-08
1.50801e-05 6.78504e-05 7.88383e-07
-9.36455e-08 7.88383e-07 -1.21556e-08
0.00146003 1.66909e-06 2.5699e-06
1.66909e-06 6.78586e-05 -1.9673e-07
2.5699e-06 -1.9673e-07 -1.33642e-05
0.00145412 -2.11985e-06 2.04337e-06
-2.11985e-06 5.87034e-05 3.47678e-07
2.04337e-06 3.47678e-07 -2.14953e-05
0.00128908 1.16109e-06 1.1594e-06
1.16109e-06 -2.23477e-05 1.64523e-06
1.1594e-06 1.64523e-06 -9.35794e-05
0.0017859 -2.05722e-05 2.22462e-06
-2.05722e-05 0.000208519 3.69104e-07
2.22462e-06 3.69104e-07 0.000133103
0.00129687 2.58025e-05 -3.49334e-07
2.58025e-05 2.0229e-05 -1.33241e-07
-3.49334e-07 -1.33241e-07 -5.01191e-05
0.00166548 8.90031e-06 8.06944e-07
8.90031e-06 0.00016007 6.95933e-07
8.06944e-07 6.95933e-07 9.85897e-05
0.001343 1.58231e-05 -4.01962e-06
1.58231e-05 3.95611e-05 6.39902e-07
-4.01962e-06 6.39902e-07 -3.67529e-05
0.00144903 -1.34007e-05 -3.47319e-06
-1.34007e-05 0.000104752 3.97618e-07
-3.47319e-06 3.97618e-07 3.25303e-05
0.00134662 1.63376e-05 -2.98794e-06
1.63376e-05 2.18078e-05 1.59289e-09
-2.98794e-06 1.59289e-09 -5.70344e-05
0.0015841 -2.04359e-05 -1.90554e-06
-2.04359e-05 0.000149493 2.4928e-07
-1.90554e-06 2.4928e-07 7.43405e-05
0.00093337 -4.38616e-06 -2.74823e-06
-4.38616e-06 2.12843e-05 1.75137e-06
-2.74823e-06 1.75137e-06 -2.93016e-05
0.0010675 -3.79089e-05 -1.37237e-06
-3.79089e-05 7.61236e-05 1.07842e-06
-1.37237e-06 1.07842e-06 1.06125e-05
0.00105325 -5.16192e-05 -8.00448e-07
-5.16192e-05 5.54597e-05 1.25245e-06
-8.00448e-07 1.25245e-06 -1.99729e-05
0.00147885 -4.75989e-05 -1.1096e-06
-4.75989e-05 0.000154475 8.32353e-07
-1.1096e-06 8.32353e-07 8.33256e-05
0.0012837 -3.4998e-05 -5.83616e-07
-3.4998e-05 6.31579e-06 1.1955e-06
-5.83616e-07 1.1955e-06 -6.2698e-05
0.00127535 -4.86457e-05 -3.72001e-07
-4.86457e-05 5.73671e-05 1.08275e-06
-3.72001e-07 1.08275e-06 -1.21708e-05
0.00105671 -5.54296e-05 -1.71266e-06
-5.54296e-05 8.11625e-06 1.12238e-06
-1.71266e-06 1.12238e-06 -7.37403e-05
0.00125703 -5.44218e-05 5.62039e-08
-5.44218e-05 6.32285e-05 -9.0196e-07
5.62039e-08 -9.0196e-07 -4.66325e-06
0.00105364 -3.26368e-05 -1.6141e-06
-3.26368e-05 6.48257e-05 6.34805e-07
-1.6141e-06 6.34805e-07 -2.47137e-07
0.00103415 -4.5972e-05 -1.59491e-06
-4.5972e-05 5.64861e-05 2.43436e-07
-1.59491e-06 2.43436e-07 -1.90196e-05
0.000918181 4.74244e-06 -1.81039e-06
4.74244e-06 -1.62428e-06 2.437e-06
-1.81039e-06 2.437e-06 -4.03635e-05
0.000913103 -1.53149e-05 -9.69738e-07
-1.53149e-05 -4.10863e-06 1.06005e-06
-9.69738e-07 1.06005e-06 -7.02864e-05
0.00146703 1.72176e-05 -7.96557e-08
1.72176e-05 7.89836e-05 9.2024e-08
-7.96557e-08 9.2024e-08 -1.12823e-06
0.00157772 -1.63508e-06 -2.6134e-07
-1.63508e-06 0.000134581 1.18571e-07
-2.6134e-07 1.18571e-07 5.79759e-05
0.00145839 1.86573e-05 -6.22785e-07
1.86573e-05 6.4888e-05 1.12098e-07
-6.22785e-07 1.12098e-07 -1.58805e-05
0.00143953 -1.75723e-05 -2.26629e-07
-1.75723e-05 6.00854e-05 -2.17395e-07
-2.26629e-07 -2.17395e-07 -1.33745e-05
0.00103692 -3.40425e-05 8.80135e-08
-3.40425e-05 6.08763e-05 -2.6422e-08
8.80135e-08 -2.6422e-08 -3.82474e-06
0.000927355 -4.67741e-05 2.89874e-07
-4.67741e-05 4.95097e-06 -1.62279e-07
2.89874e-07 -1.62279e-07 -6.79162e-05
0.00113214 -5.73695e-05 3.71629e-08
-5.73695e-05 8.35716e-05 -1.2195e-07
3.71629e-08 -1.2195e-07 -7.29666e-07
0.00133782 -4.56076e-05 -4.73471e-07
-4.56076e-05 6.61322e-05 -1.09642e-07
-4.73471e-07 -1.09642e-07 -2.87211e-06
0.00142491 -3.50472e-05 4.0351e-07
-3.50472e-05 6.30986e-05 5.86693e-07
4.0351e-07 5.86693e-07 2.55515e-07
0.0012637 -6.21263e-05 -7.14023e-08
-6.21263e-05 9.84669e-05 4.35419e-07
-7.14023e-08 4.35419e-07 1.43141e-05
0.0012734 -4.9041e-05 1.90986e-08
-4.9041e-05 4.73681e-05 4.46682e-07
1.90986e-08 4.46682e-07 -1.60522e-05
0.00136918 -5.73413e-05 6.00836e-07
-5.73413e-05 0.000107422 -1.55987e-06
6.00836e-07 -1.55987e-06 4.17114e-05
0.00107556 -4.73435e-05 1.27635e-07
-4.73435e-05 7.5428e-05 1.24602e-08
1.27635e-07 1.24602e-08 3.09115e-06
0.00114713 -5.12934e-05 -5.44797e-08
-5.12934e-05 0.000109537 6.60891e-08
-5.44797e-08 6.60891e-08 3.21421e-05
0.00108076 -4.54799e-05 -1.39604e-07
-4.54799e-05 8.82943e-05 2.10686e-07
-1.39604e-07 2.10686e-07 9.30237e-06
0.000788456 1.33603e-05 -3.34365e-07
1.33603e-05 -6.91277e-05 2.99246e-08
-3.34365e-07 2.99246e-08 -0.000105187
0.000857583 -8.43233e-06 3.20859e-07
-8.43233e-06 -3.17492e-05 -4.99903e-07
3.20859e-07 -4.99903e-07 -9.43194e-05
0.00154469 2.35995e-05 2.35633e-06
2.35995e-05 0.00010511 3.00503e-07
2.35633e-06 3.00503e-07 2.27531e-05
0.00150898 1.24236e-05 2.50943e-06
1.24236e-05 7.57087e-05 1.13308e-07
2.50943e-06 1.13308e-07 -4.46466e-06
0.00146877 -2.03306e-05 1.92497e-06
-2.03306e-05 5.71346e-05 -2.31383e-06
1.92497e-06 -2.31383e-06 -1.03903e-05
0.00126793 -3.99601e-05 1.10213e-06
-3.99601e-05 4.89252e-06 -1.40258e-06
1.10213e-06 -1.40258e-06 -5.56347e-05
0.00105204 -4.80908e-05 5.48066e-07
-4.80908e-05 6.62311e-05 -2.51162e-07
5.48066e-07 -2.51162e-07 -4.90507e-06
0.00155682 -5.51011e-05 1.04576e-06
-5.51011e-05 0.000163956 -4.92315e-07
1.04576e-06 -4.92315e-07 0.000107703
0.000719438 -4.52293e-05 9.70604e-07
-4.52293e-05 -9.6226e-05 -2.29127e-06
9.70604e-07 -2.29127e-06 -0.000176075
0.00119991 -6.25936e-05 2.66564e-06
-6.25936e-05 0.000106157 -1.99034e-06
2.66564e-06 -1.99034e-06 1.28339e-05
0.00136788 -6.58314e-05 2.49063e-06
-6.58314e-05 0.000131862 6.29441e-07
2.49063e-06 6.29441e-07 4.63402e-05
0.0006859 1.23527e-05 8.85765e-07
1.23527e-05 -0.000123644 -2.74078e-06
8.85765e-07 -2.74078e-06 -0.000157594
0.00108056 -3.56534e-06 8.86377e-07
-3.56534e-06 8.02848e-05 -1.42038e-06
8.86377e-07 -1.42038e-06 2.36686e-05
0.00103111 -4.13314e-05 8.25975e-07
-4.13314e-05 6.60383e-05 -9.14441e-07
8.25975e-07 -9.14441e-07 -1.00985e-05
0.00108225 -4.98251e-05 4.43839e-07
-4.98251e-05 7.59892e-05 1.51902e-07
4.43839e-07 1.51902e-07 1.49737e-06
0.00114676 -5.12836e-05 9.2729e-07
-5.12836e-05 0.000119875 3.53722e-07
9.2729e-07 3.53722e-07 3.40202e-05
0.00109767 -5.10929e-05 3.07945e-07
-5.10929e-05 8.04531e-05 4.49673e-08
3.07945e-07 4.49673e-08 1.08907e-06
0.00084934 -1.61314e-05 -2.58185e-06
-1.61314e-05 -4.19121e-05 -3.66551e-06
-2.58185e-06 -3.66551e-06 -4.89003e-05
0.000938513 -1.19973e-06 -2.01527e-06
-1.19973e-06 4.48618e-06 -2.48463e-06
-2.01527e-06 -2.48463e-06 -3.55143e-05
0.00132155 4.081e-05 -7.28638e-07
4.081e-05 7.30214e-05 -5.29689e-07
-7.28638e-07 -5.29689e-07 -1.4962e-06
0.000999329 1.33937e-05 -1.25568e-06
1.33937e-05 3.92206e-05 -1.25646e-06
-1.25568e-06 -1.25646e-06 -2.35402e-05
0.00101203 2.52406e-05 -1.48138e-06
2.52406e-05 4.87782e-05 -6.91442e-07
-1.48138e-06 -6.91442e-07 -1.52995e-05
0.000967217 3.64937e-05 -5.84956e-07
3.64937e-05 2.56416e-05 -2.58539e-07
-5.84956e-07 -2.58539e-07 -4.77712e-05
0.00114303 5.25357e-05 -6.94439e-07
5.25357e-05 5.52969e-05 -1.6437e-06
-6.94439e-07 -1.6437e-06 -1.67113e-05
0.0011997 5.33723e-05 -2.39544e-07
5.33723e-05 3.77116e-05 -1.09398e-06
-2.39544e-07 -1.09398e-06 -4.00299e-05
0.00104788 4.7356e-05 -3.70136e-07
4.7356e-05 7.37019e-05 -4.79551e-07
-3.70136e-07 -4.79551e-07 -1.80487e-06
0.00113938 5.48878e-05 -1.37463e-06
5.48878e-05 9.99535e-05 -5.25962e-07
-1.37463e-06 -5.25962e-07 1.74064e-05
0.00127706 5.64769e-05 -1.70637e-06
5.64769e-05 0.000135832 -1.0348e-06
-1.70637e-06 -1.0348e-06 6.31248e-05
0.00093911 -1.73692e-06 1.85039e-07
-1.73692e-06 3.55389e-06 2.70706e-08
1.85039e-07 2.70706e-08 -3.35375e-05
0.00101495 1.38802e-05 7.19316e-09
1.38802e-05 4.48593e-05 -5.62676e-08
7.19316e-09 -5.62676e-08 -1.60313e-05
0.00105316 4.3873e-05 -1.59939e-07
4.3873e-05 6.85537e-05 -1.49748e-07
-1.59939e-07 -1.49748e-07 -4.46798e-06
0.00105579 3.70369e-05 -8.5314e-08
3.70369e-05 7.08605e-05 -2.43079e-08
-8.5314e-08 -2.43079e-08 -2.79571e-06
0.00104438 4.62743e-05 -2.9303e-07
4.62743e-05 6.53093e-05 -3.84244e-08
-2.9303e-07 -3.84244e-08 -1.28249e-05
0.00129558 4.04201e-05 -3.61136e-07
4.04201e-05 4.9464e-05 -7.36986e-08
-3.61136e-07 -7.36986e-08 -2.5801e-05
0.00118607 5.70776e-05 5.04486e-07
5.70776e-05 6.61332e-05 -1.35563e-07
5.04486e-07 -1.35563e-07 -9.45039e-06
0.0011664 5.69448e-05 2.5136e-07
5.69448e-05 2.16831e-05 4.41974e-07
2.5136e-07 4.41974e-07 -5.47823e-05
0.000958051 5.00559e-05 3.85258e-07
5.00559e-05 2.83851e-05 6.31753e-07
3.85258e-07 6.31753e-07 -5.62888e-05
0.00120567 5.92703e-05 -4.42532e-08
5.92703e-05 0.000109351 -1.97872e-07
-4.42532e-08 -1.97872e-07 2.14767e-05
0.00101375 1.47822e-05 1.09118e-06
1.47822e-05 4.37698e-05 1.4912e-06
1.09118e-06 1.4912e-06 -1.46877e-05
0.000939028 3.62532e-05 1.28737e-06
3.62532e-05 1.15269e-05 8.82526e-07
1.28737e-06 8.82526e-07 -6.28412e-05
0.00111434 5.26537e-05 2.54491e-08
5.26537e-05 9.92872e-05 3.19215e-07
2.54491e-08 3.19215e-07 1.91192e-05
0.00096019 4.41223e-05 3.72428e-07
4.41223e-05 2.23819e-05 -4.74349e-08
3.72428e-07 -4.74349e-08 -5.75602e-05
0.00108514 4.9869e-05 -1.59551e-07
4.9869e-05 7.95013e-05 -2.66646e-07
-1.59551e-07 -2.66646e-07 -1.47934e-06
0.00126038 4.16107e-05 5.37368e-07
4.16107e-05 -3.17988e-07 3.71954e-07
5.37368e-07 3.71954e-07 -6.24652e-05
0.00133045 6.51002e-05 1.39796e-06
6.51002e-05 0.000136153 6.91804e-07
1.39796e-06 6.91804e-07 5.07412e-05
0.000623068 5.13775e-05 1.0379e-06
5.13775e-05 -0.000257033 1.05589e-06
1.0379e-06 1.05589e-06 -0.000335473
0.00139459 6.20671e-05 2.17295e-06
6.20671e-05 0.000231372 2.6163e-06
2.17295e-06 2.6163e-06 0.00014066
0.000593337 4.93787e-05 6.07992e-07
4.93787e-05 -0.000195148 7.55668e-07
6.07992e-07 7.55668e-07 -0.000294232
0.000944566 -1.88252e-06 -1.18611e-06
-1.88252e-06 4.64992e-06 -2.25027e-06
-1.18611e-06 -2.25027e-06 -2.94601e-05
0.000915503 1.04781e-05 4.46824e-07
1.04781e-05 -4.83339e-06 5.92302e-07
4.46824e-07 5.92302e-07 -6.10306e-05
0.000921275 2.55792e-05 7.92791e-07
2.55792e-05 5.0944e-06 1.31931e-06
7.92791e-07 1.31931e-06 -6.54629e-05
0.000838249 5.82175e-07 -3.80022e-07
5.82175e-07 -4.37278e-05 -1.35946e-06
-3.80022e-07 -1.35946e-06 -9.67961e-05
0.000988777 1.10335e-05 5.73221e-08
1.10335e-05 3.48619e-05 3.12317e-08
5.73221e-08 3.12317e-08 -1.49557e-05
0.00107037 2.20166e-05 -1.80474e-07
2.20166e-05 8.05069e-05 -5.53788e-07
-1.80474e-07 -5.53788e-07 1.45605e-05
0.00117246 3.82793e-05 2.64887e-07
3.82793e-05 0.00013658 2.75375e-07
2.64887e-07 2.75375e-07 6.02304e-05
0.000897244 6.07421e-06 2.00352e-07
6.07421e-06 -6.5221e-06 1.35844e-06
2.00352e-07 1.35844e-06 -7.15459e-05
0.000976347 -5.51272e-06 1.9237e-07
-5.51272e-06 3.0182e-05 1.17853e-06
1.9237e-07 1.17853e-06 -1.80682e-05
0.000965912 5.9523e-06 6.19268e-07
5.9523e-06 1.16771e-05 1.82905e-06
6.19268e-07 1.82905e-06 -1.64458e-05
0.00095963 -1.8283e-06 -8.30592e-08
-1.8283e-06 9.24563e-06 1.91894e-08
-8.30592e-08 1.91894e-08 -1.9566e-05
0.00147415 -1.01417e-05 1.32616e-06
-1.01417e-05 0.000260282 2.01517e-06
1.32616e-06 2.01517e-06 0.000262618
0.000962315 -1.02339e-06 -5.98679e-07
-1.02339e-06 1.15777e-05 -1.93474e-06
-5.98679e-07 -1.93474e-06 -1.84737e-05
0.00149865 -1.22907e-05 -1.98448e-06
-1.22907e-05 0.00027599 -1.25771e-06
-1.98448e-06 -1.25771e-06 0.000277135
0.00115092 -1.17451e-05 9.96747e-06
-1.17451e-05 9.96786e-05 6.60165e-06
9.96747e-06 6.60165e-06 0.000115473
0.0015277 -1.4139e-05 -6.13658e-06
-1.4139e-05 0.000293837 -4.62615e-06
-6.13658e-06 -4.62615e-06 0.000293645
0.00109913 -1.47639e-05 4.00756e-06
-1.47639e-05 7.78536e-05 2.54622e-06
4.00756e-06 2.54622e-06 9.24726e-05
0.00235618 -2.52893e-05 -5.04062e-06
-2.52893e-05 0.00071818 -1.70865e-06
-5.04062e-06 -1.70865e-06 0.000737649
0.000857773 1.61452e-05 1.90365e-06
1.61452e-05 -3.94474e-05 -3.28464e-06
1.90365e-06 -3.28464e-06 -4.34357e-05
0.000864137 1.79231e-05 -1.24958e-07
1.79231e-05 -3.20154e-05 4.04555e-08
-1.24958e-07 4.04555e-08 -3.80726e-05
0.00238023 2.66522e-05 1.44633e-05
2.66522e-05 0.000735704 -3.87896e-06
1.44633e-05 -3.87896e-06 0.00075438
0.000863356 1.95589e-05 -3.08004e-06
1.95589e-05 -2.79419e-05 3.61873e-06
-3.08004e-06 3.61873e-06 -3.66665e-05
0.00246584 2.98657e-05 -4.7634e-07
2.98657e-05 0.000784619 -5.93299e-08
-4.7634e-07 -5.93299e-08 0.000801508
0.00255261 3.31183e-05 -1.94603e-05
3.31183e-05 0.000833759 4.06142e-06
-1.94603e-05 4.06142e-06 0.000848797
0.00134286 3.10358e-05 -1.3393e-06
3.10358e-05 6.21117e-05 -6.44092e-07
-1.3393e-06 -6.44092e-07 -1.16976e-05
0.00144039 6.1966e-06 -1.44882e-06
6.1966e-06 7.4669e-05 -7.07916e-07
-1.44882e-06 -7.07916e-07 -5.79601e-07
0.00142622 1.50932e-05 3.60067e-07
1.50932e-05 6.17604e-05 -2.3424e-07
3.60067e-07 -2.3424e-07 -5.65438e-06
0.00154647 -1.53317e-05 -1.87164e-06
-1.53317e-05 9.92464e-05 -6.27493e-07
-1.87164e-06 -6.27493e-07 2.35486e-05
0.00146197 -1.33487e-05 -2.04771e-06
-1.33487e-05 6.73146e-05 -4.43314e-07
-2.04771e-06 -4.43314e-07 -1.32893e-05
0.00139581 1.48056e-05 -3.10897e-06
1.48056e-05 5.59588e-05 -1.76369e-07
-3.10897e-06 -1.76369e-07 -2.18957e-05
0.00145961 5.19013e-06 4.308e-08
5.19013e-06 6.76247e-05 -1.85539e-07
4.308e-08 -1.85539e-07 -1.3735e-05
0.00146187 -6.05918e-06 2.29608e-07
-6.05918e-06 6.28243e-05 -6.21422e-08
2.29608e-07 -6.21422e-08 -1.7294e-05
0.00137045 -4.10563e-07 -1.73388e-07
-4.10563e-07 1.50961e-05 8.94996e-08
-1.73388e-07 8.94996e-08 -5.67289e-05
0.00158236 -1.9698e-05 -2.17543e-07
-1.9698e-05 0.000110353 -4.10395e-07
-2.17543e-07 -4.10395e-07 3.4427e-05
0.00133801 2.65424e-05 -2.73534e-07
2.65424e-05 4.19021e-05 6.88362e-09
-2.73534e-07 6.88362e-09 -2.87984e-05
0.00148263 9.32387e-06 1.50702e-06
9.32387e-06 7.24775e-05 -3.93495e-07
1.50702e-06 -3.93495e-07 1.33917e-05
0.001462 1.2153e-05 1.66239e-06
1.2153e-05 6.54634e-05 2.68661e-07
1.66239e-06 2.68661e-07 -1.62164e-05
0.00149068 -1.39026e-05 2.2889e-06
-1.39026e-05 7.76393e-05 2.41141e-07
2.2889e-06 2.41141e-07 -1.8169e-06
0.00149127 -8.44611e-06 1.37405e-06
-8.44611e-06 6.02196e-05 1.75046e-06
1.37405e-06 1.75046e-06 -7.58962e-06
0.00145478 2.33061e-05 3.07538e-07
2.33061e-05 6.6444e-05 2.58999e-07
3.07538e-07 2.58999e-07 1.06086e-05
0.00145752 1.74867e-05 -2.37597e-06
1.74867e-05 7.46164e-05 2.59951e-07
-2.37597e-06 2.59951e-07 -5.42338e-06
0.00156574 -1.01849e-06 -2.95985e-06
-1.01849e-06 0.000129358 2.82706e-07
-2.95985e-06 2.82706e-07 5.289e-05
0.00139923 1.84278e-05 -3.39223e-06
1.84278e-05 3.71667e-05 -4.53844e-08
-3.39223e-06 -4.53844e-08 -4.38437e-05
0.00149641 -1.80323e-05 -1.39238e-06
-1.80323e-05 8.79377e-05 7.40208e-07
-1.39238e-06 7.40208e-07 1.45942e-05
0.00105912 -3.50389e-05 -1.39342e-06
-3.50389e-05 7.06561e-05 6.63421e-07
-1.39342e-06 6.63421e-07 6.05496e-06
0.00101457 -4.81181e-05 -2.74746e-07
-4.81181e-05 4.84339e-05 8.33694e-07
-2.74746e-07 8.33694e-07 -2.38328e-05
0.00113543 -5.73518e-05 -1.39058e-06
-5.73518e-05 8.63989e-05 2.15597e-06
-1.39058e-06 2.15597e-06 1.85431e-06
0.00146047 -4.69651e-05 -8.91709e-07
-4.69651e-05 0.000126016 7.8874e-07
-8.91709e-07 7.8874e-07 5.63915e-05
0.00126498 -3.44853e-05 -7.23208e-07
-3.44853e-05 -8.78816e-06 1.94678e-06
-7.23208e-07 1.94678e-06 -6.99589e-05
0.00128161 -4.88147e-05 1.83347e-08
-4.88147e-05 5.23033e-05 1.23955e-06
1.83347e-08 1.23955e-06 -1.11258e-05
0.00127228 -6.20522e-05 -2.08019e-06
-6.20522e-05 0.000103894 5.89338e-07
-2.08019e-06 5.89338e-07 1.90574e-05
0.00113852 -5.29577e-05 -1.76924e-06
-5.29577e-05 -5.47661e-06 -3.44306e-06
-1.76924e-06 -3.44306e-06 -6.90762e-05
0.00109625 -4.78205e-05 -7.52862e-07
-4.78205e-05 8.52486e-05 1.20435e-07
-7.52862e-07 1.20435e-07 1.2929e-05
0.00108025 -4.96568e-05 -1.30163e-06
-4.96568e-05 7.54807e-05 -4.05482e-07
-1.30163e-06 -4.05482e-07 -1.80714e-06
0.00109495 -4.56479e-05 -1.15614e-06
-4.56479e-05 9.57248e-05 9.86615e-07
-1.15614e-06 9.86615e-07 1.64206e-05
0.000649264 1.25641e-05 -1.24146e-06
1.25641e-05 -0.000139063 2.27014e-06
-1.24146e-06 2.27014e-06 -0.000176129
0.000902719 -5.98438e-06 -4.40894e-07
-5.98438e-06 -1.07089e-05 1.11311e-06
-4.40894e-07 1.11311e-06 -7.24768e-05
0.00146712 2.22148e-05 3.77131e-08
2.22148e-05 6.75615e-05 -1.04762e-07
3.77131e-08 -1.04762e-07 -1.46775e-05
0.00153875 1.16967e-05 -1.99813e-07
1.16967e-05 9.24071e-05 2.03853e-07
-1.99813e-07 2.03853e-07 1.2645e-05
0.00151692 -2.04095e-05 -6.74391e-07
-2.04095e-05 8.47614e-05 1.93475e-07
-6.74391e-07 1.93475e-07 1.73447e-05
0.00108198 -4.83048e-05 4.00932e-08
-4.83048e-05 7.98629e-05 9.12483e-08
4.00932e-08 9.12483e-08 8.74998e-06
0.000966663 -5.07175e-05 5.12548e-07
-5.07175e-05 2.43442e-05 -3.83834e-07
5.12548e-07 -3.83834e-07 -5.46774e-05
0.00116336 -6.1656e-05 -8.31443e-08
-6.1656e-05 9.0681e-05 -7.33104e-08
-8.31443e-08 -7.33104e-08 -3.14919e-06
0.0013395 -4.05571e-05 2.31729e-07
-4.05571e-05 3.89672e-05 -3.42781e-07
2.31729e-07 -3.42781e-07 -2.23419e-05
0.00131697 -6.3258e-05 -9.85774e-08
-6.3258e-05 0.000107895 -5.02617e-07
-9.85774e-08 -5.02617e-07 2.4848e-05
0.00133104 -5.3619e-05 -5.09221e-07
-5.3619e-05 5.67576e-05 -5.35089e-07
-5.09221e-07 -5.35089e-07 -9.54662e-08
0.000682604 1.69854e-05 -3.70516e-08
1.69854e-05 -0.000125074 -6.38552e-07
-3.70516e-08 -6.38552e-07 -0.000158773
0.00109489 -5.0129e-05 7.65787e-08
-5.0129e-05 8.22896e-05 1.35856e-07
7.65787e-08 1.35856e-07 7.61793e-06
0.00106032 -5.0091e-05 -8.57652e-07
-5.0091e-05 6.23185e-05 -7.13461e-08
-8.57652e-07 -7.13461e-08 -1.61144e-05
0.00114818 -5.11763e-05 -3.99868e-07
-5.11763e-05 0.000120368 3.82386e-07
-3.99868e-07 3.82386e-07 3.4603e-05
0.00112069 -4.2577e-05 -7.54295e-08
-4.2577e-05 0.00011034 3.77684e-08
-7.54295e-08 3.77684e-08 3.44925e-05
0.000965878 -5.0429e-06 1.42822e-07
-5.0429e-06 2.17039e-05 2.07171e-07
1.42822e-07 2.07171e-07 -3.55984e-05
0.00158939 2.5845e-05 2.48079e-06
2.5845e-05 0.000121044 9.40236e-07
2.48079e-06 9.40236e-07 3.85051e-05
0.00155265 1.20603e-05 2.83474e-06
1.20603e-05 8.15309e-05 -3.78594e-07
2.83474e-06 -3.78594e-07 2.67529e-06
0.00130534 -2.54826e-05 2.3755e-06
-2.54826e-05 -2.79783e-05 -2.94336e-06
2.3755e-06 -2.94336e-06 -8.83667e-05
0.00154341 -4.81249e-05 1.77006e-06
-4.81249e-05 0.000105153 -1.78469e-06
1.77006e-06 -1.78469e-06 5.57802e-05
0.00107502 -5.09445e-05 4.35819e-07
-5.09445e-05 7.56817e-05 -6.62138e-07
4.35819e-07 -6.62138e-07 4.95847e-07
0.00138172 -6.32576e-05 3.14559e-06
-6.32576e-05 9.41966e-05 9.22884e-07
3.14559e-06 9.22884e-07 2.28221e-05
0.000879002 -5.24536e-05 1.05431e-06
-5.24536e-05 -2.22852e-05 -2.93254e-06
1.05431e-06 -2.93254e-06 -0.000113256
0.00141713 -7.02336e-05 2.25889e-06
-7.02336e-05 0.000204877 -1.04638e-06
2.25889e-06 -1.04638e-06 0.000103627
0.000694547 1.2585e-05 6.62612e-07
1.2585e-05 -0.000121041 -2.50418e-06
6.62612e-07 -2.50418e-06 -0.000152477
0.00109917 -3.60173e-07 8.30507e-07
-3.60173e-07 8.83604e-05 -1.45057e-06
8.30507e-07 -1.45057e-06 3.65881e-05
0.00120396 -3.52744e-05 2.67734e-08
-3.52744e-05 0.000149262 -7.58313e-08
2.67734e-08 -7.58313e-08 7.84128e-05
0.0010585 -4.48961e-05 7.13652e-07
-4.48961e-05 8.18576e-05 -1.17946e-06
7.13652e-07 -1.17946e-06 -6.68656e-06
0.00104783 -5.05865e-05 2.87631e-07
-5.05865e-05 5.90002e-05 -4.07419e-07
2.87631e-07 -4.07419e-07 -1.94856e-05
0.00108113 -5.1022e-05 1.15745e-06
-5.1022e-05 7.86285e-05 4.12351e-07
1.15745e-06 4.12351e-07 -7.67224e-06
0.000940439 -2.27112e-06 -1.50272e-06
-2.27112e-06 3.84672e-06 -2.44531e-06
-1.50272e-06 -2.44531e-06 -3.31437e-05
0.00101036 1.40148e-05 -1.2086e-06
1.40148e-05 4.30388e-05 -1.48248e-06
-1.2086e-06 -1.48248e-06 -1.80072e-05
0.00134637 4.27228e-05 -5.60676e-07
4.27228e-05 7.47694e-05 -5.38428e-07
-5.60676e-07 -5.38428e-07 -9.71592e-07
0.00105764 3.72904e-05 -9.81325e-07
3.72904e-05 7.21481e-05 -4.94094e-07
-9.81325e-07 -4.94094e-07 -1.6926e-06
0.00107787 4.47534e-05 -5.99754e-07
4.47534e-05 8.14179e-05 -2.87137e-07
-5.99754e-07 -2.87137e-07 8.81329e-06
0.000989089 4.53217e-05 -5.83669e-07
4.53217e-05 3.84682e-05 -1.66501e-07
-5.83669e-07 -1.66501e-07 -4.0086e-05
0.00119146 5.68983e-05 -8.80862e-07
5.68983e-05 6.75429e-05 -1.77922e-06
-8.80862e-07 -1.77922e-06 -8.1134e-06
0.00129761 5.83745e-05 -3.38365e-07
5.83745e-05 8.3637e-05 -7.75289e-07
-3.38365e-07 -7.75289e-07 7.42596e-06
0.000861355 4.79277e-05 -3.55605e-07
4.79277e-05 -1.90778e-05 -5.64758e-07
-3.55605e-07 -5.64758e-07 -0.000104196
0.00123753 6.02031e-05 -1.4648e-06
6.02031e-05 0.000125595 -8.42401e-07
-1.4648e-06 -8.42401e-07 3.62548e-05
0.00101248 1.47996e-05 7.85287e-08
1.47996e-05 4.35245e-05 -2.6636e-08
7.85287e-08 -2.6636e-08 -1.50452e-05
0.0010125 3.83811e-05 4.03504e-07
3.83811e-05 4.86487e-05 2.45429e-07
4.03504e-07 2.45429e-07 -2.56491e-05
0.00114327 5.32568e-05 -1.63856e-07
5.32568e-05 0.000114401 -4.46007e-07
-1.63856e-07 -4.46007e-07 3.48792e-05
0.00103085 4.51275e-05 -2.9145e-07
4.51275e-05 5.83522e-05 1.29653e-08
-2.9145e-07 1.29653e-08 -2.12118e-05
0.00105563 4.92035e-05 -7.46112e-07
4.92035e-05 6.7796e-05 -3.68472e-07
-7.46112e-07 -3.68472e-07 -1.27924e-05
0.00152987 4.37903e-05 -4.10523e-07
4.37903e-05 0.000130904 -4.5685e-07
-4.10523e-07 -4.5685e-07 6.91108e-05
0.00138368 6.59767e-05 7.5652e-07
6.59767e-05 0.000159593 4.12865e-08
7.5652e-07 4.12865e-08 7.49921e-05
0.000956973 5.67102e-05 -5.5285e-07
5.67102e-05 -8.90384e-05 5.62146e-07
-5.5285e-07 5.62146e-07 -0.000165822
0.00123175 5.84468e-05 9.37154e-07
5.84468e-05 0.000152629 8.74203e-07
9.37154e-07 8.74203e-07 6.12165e-05
0.000901817 5.62132e-05 -1.39046e-06
5.62132e-05 -4.40162e-05 -3.82805e-07
-1.39046e-06 -3.82805e-07 -0.000144523
0.000949712 3.60517e-05 1.20173e-06
3.60517e-05 1.85385e-05 1.22134e-06
1.20173e-06 1.22134e-06 -5.48393e-05
0.000972268 4.76326e-05 7.47172e-07
4.76326e-05 3.05115e-05 1.73917e-07
7.47172e-07 1.73917e-07 -5.3244e-05
0.00114962 5.46571e-05 2.68034e-07
5.46571e-05 0.000113737 7.05769e-07
2.68034e-07 7.05769e-07 2.73964e-05
0.000888925 4.65551e-05 8.71301e-07
4.65551e-05 -1.59576e-05 4.83022e-08
8.71301e-07 4.83022e-08 -0.000100584
0.00189151 3.39732e-05 2.35616e-06
3.39732e-05 0.000215279 1.3417e-06
2.35616e-06 1.3417e-06 0.000167056
0.00111019 5.49111e-05 2.97449e-06
5.49111e-05 -8.52959e-05 1.47485e-06
2.97449e-06 1.47485e-06 -0.00014824
0.00124551 6.81513e-05 1.79806e-06
6.81513e-05 8.61066e-05 -7.2767e-08
1.79806e-06 -7.2767e-08 -1.1608e-05
0.000901139 5.47434e-05 9.71273e-07
5.47434e-05 -1.11158e-05 1.95749e-06
9.71273e-07 1.95749e-06 -0.000119297
0.000982852 1.3981e-05 -1.70372e-07
1.3981e-05 2.98833e-05 -1.01747e-06
-1.70372e-07 -1.01747e-06 -2.6094e-05
0.00100073 3.02469e-05 2.71641e-07
3.02469e-05 4.59172e-05 3.82202e-07
2.71641e-07 3.82202e-07 -2.43821e-05
0.00107886 4.20223e-05 4.81098e-07
4.20223e-05 8.97024e-05 5.40615e-07
4.81098e-07 5.40615e-07 1.00662e-05
0.000992692 1.21411e-05 -4.93204e-07
1.21411e-05 3.68381e-05 -1.22182e-06
-4.93204e-07 -1.22182e-06 -1.30535e-05
0.000928406 1.63304e-05 -4.09513e-07
1.63304e-05 8.18002e-06 -1.52938e-06
-4.09513e-07 -1.52938e-06 -5.86441e-05
0.000982836 5.67912e-07 3.54184e-07
5.67912e-07 3.34343e-05 2.85892e-08
3.54184e-07 2.85892e-08 -1.49322e-05
0.00107519 3.38526e-05 -1.05129e-07
3.38526e-05 8.69061e-05 -4.50465e-07
-1.05129e-07 -4.50465e-07 9.82293e-06
0.000954358 1.13622e-05 2.19466e-07
1.13622e-05 2.29782e-05 4.54263e-07
2.19466e-07 4.54263e-07 -4.18892e-05
0.00116191 4.44177e-05 4.61297e-07
4.44177e-05 0.000129658 3.89067e-07
4.61297e-07 3.89067e-07 4.53813e-05
0.000917238 5.95593e-06 2.3292e-07
5.95593e-06 6.25097e-06 1.16164e-06
2.3292e-07 1.16164e-06 -6.94806e-05
0.000897678 2.64236e-05 4.91915e-07
2.64236e-05 -3.93166e-06 1.30053e-06
4.91915e-07 1.30053e-06 -6.80096e-05
0.000986895 -1.69307e-05 -2.75516e-07
-1.69307e-05 3.64974e-05 1.15089e-06
-2.75516e-07 1.15089e-06 -1.10268e-05
0.000956673 7.87504e-06 4.66028e-07
7.87504e-06 7.32653e-06 1.73638e-06
4.66028e-07 1.73638e-06 -2.06463e-05
0.000961135 -2.14005e-06 -2.57916e-07
-2.14005e-06 9.36846e-06 2.95662e-08
-2.57916e-07 2.95662e-08 -1.87288e-05
0.0014675 -6.93525e-06 9.49787e-07
-6.93525e-06 0.000254355 1.97286e-06
9.49787e-07 1.97286e-06 0.000257408
0.000963124 -7.70191e-06 -5.7232e-08
-7.70191e-06 1.1166e-05 -1.86173e-06
-5.7232e-08 -1.86173e-06 -1.76635e-05
0.00148881 -9.5352e-06 -1.53127e-06
-9.5352e-06 0.00026785 -1.2334e-06
-1.53127e-06 -1.2334e-06 0.000270187
0.00114133 -9.29072e-06 7.56465e-06
-9.29072e-06 9.08977e-05 6.48391e-06
7.56465e-06 6.48391e-06 0.000107775
0.00151215 -1.18e-05 -4.63503e-06
-1.18e-05 0.00028286 -4.54122e-06
-4.63503e-06 -4.54122e-06 0.000284068
0.00109347 -1.23415e-05 2.97021e-06
-1.23415e-05 7.06736e-05 2.5123e-06
2.97021e-06 2.5123e-06 8.65891e-05
0.0010392 -1.5095e-05 -2.22447e-06
-1.5095e-05 4.77954e-05 -1.66397e-06
-2.22447e-06 -1.66397e-06 6.25277e-05
0.000864676 1.41026e-05 1.55065e-06
1.41026e-05 -4.03144e-05 -3.25765e-06
1.55065e-06 -3.25765e-06 -4.26031e-05
0.00087393 1.61677e-05 -9.59672e-08
1.61677e-05 -3.16686e-05 1.71723e-08
-9.59672e-08 1.71723e-08 -3.57163e-05
0.00232941 2.31148e-05 1.26356e-05
2.31148e-05 0.00070463 -3.89436e-06
1.26356e-05 -3.89436e-06 0.000724694
0.000879878 1.79755e-05 -2.54915e-06
1.79755e-05 -2.44093e-05 3.42287e-06
-2.54915e-06 3.42287e-06 -3.05671e-05
0.00238668 2.65355e-05 -5.51524e-07
2.65355e-05 0.000739477 -4.7016e-08
-5.51524e-07 -4.7016e-08 0.00075797
0.00247124 2.96905e-05 -1.77939e-05
2.96905e-05 0.000787748 4.03947e-06
-1.77939e-05 4.03947e-06 0.000804449
0.00137931 2.73337e-05 -6.22133e-08
2.73337e-05 6.36131e-05 8.29263e-08
-6.22133e-08 8.29263e-08 -7.43657e-06
0.0014572 -2.08287e-06 -1.34589e-06
-2.08287e-06 5.51946e-05 -7.5961e-07
-1.34589e-06 -7.5961e-07 -1.72342e-05
0.00132543 9.63134e-06 1.50947e-06
9.63134e-06 -2.57622e-06 -2.1242e-06
1.50947e-06 -2.1242e-06 -5.92993e-05
0.00139283 -1.8875e-05 -2.49808e-06
-1.8875e-05 1.90068e-05 -1.36166e-06
-2.49808e-06 -1.36166e-06 -5.74398e-05
0.00146543 -8.53755e-06 -1.80468e-06
-8.53755e-06 6.50454e-05 -4.48435e-07
-1.80468e-06 -4.48435e-07 -1.5048e-05
0.00145916 4.6001e-06 -2.04183e-06
4.6001e-06 6.73573e-05 -2.58866e-07
-2.04183e-06 -2.58866e-07 -1.41362e-05
0.00147174 1.45452e-05 2.12415e-07
1.45452e-05 7.08102e-05 -4.61879e-08
2.12415e-07 -4.61879e-08 -1.07853e-05
0.00146322 -1.75299e-05 -2.05375e-07
-1.75299e-05 6.45024e-05 2.08655e-07
-2.05375e-07 2.08655e-07 -1.48427e-05
0.00147879 -7.84954e-06 6.2854e-07
-7.84954e-06 5.50448e-05 -2.74467e-07
6.2854e-07 -2.74467e-07 -1.24861e-05
0.00139927 2.05833e-05 1.12515e-07
2.05833e-05 3.72903e-05 -3.77704e-07
1.12515e-07 -3.77704e-07 -1.84677e-05
0.00145848 8.5765e-06 1.80929e-06
8.5765e-06 6.76995e-05 5.25638e-08
1.80929e-06 5.25638e-08 -1.35632e-05
0.00163125 -2.68665e-05 2.53104e-06
-2.68665e-05 0.000139982 5.96557e-07
2.53104e-06 5.96557e-07 6.53044e-05
0.00142728 7.02537e-06 1.41511e-06
7.02537e-06 1.4477e-05 2.18692e-06
1.41511e-06 2.18692e-06 -4.37129e-05
0.00139998 2.1049e-05 -2.771e-06
2.1049e-05 3.50006e-05 -4.3807e-07
-2.771e-06 -4.3807e-07 -4.71193e-05
0.00156846 1.11396e-05 -2.56526e-06
1.11396e-05 0.000109198 6.15357e-07
-2.56526e-06 6.15357e-07 2.98347e-05
0.00155991 -2.05552e-05 -1.7633e-06
-2.05552e-05 0.000109716 1.86737e-06
-1.7633e-06 1.86737e-06 4.24367e-05
0.00110658 -4.8299e-05 -6.4755e-07
-4.8299e-05 9.09378e-05 5.528e-07
-6.4755e-07 5.528e-07 1.98575e-05
0.00122423 -5.64376e-05 -4.65181e-07
-5.64376e-05 0.000149908 1.28817e-06
-4.65181e-07 1.28817e-06 7.17061e-05
0.00113537 -6.08906e-05 -2.05974e-06
-6.08906e-05 7.94751e-05 2.59137e-06
-2.05974e-06 2.59137e-06 -1.48819e-05
0.00140805 -4.11841e-05 -1.12371e-06
-4.11841e-05 7.14629e-05 1.17712e-06
-1.12371e-06 1.17712e-06 9.39038e-06
0.00111841 -5.21601e-05 -2.15835e-06
-5.21601e-05 -4.41822e-05 1.99065e-07
-2.15835e-06 1.99065e-07 -0.000101637
0.00126846 -6.08767e-05 -2.95257e-06
-6.08767e-05 8.5063e-05 -1.57382e-06
-2.95257e-06 -1.57382e-06 4.50088e-06
0.00110948 -5.04796e-05 -5.52314e-07
-5.04796e-05 8.9564e-05 3.05113e-07
-5.52314e-07 3.05113e-07 1.47068e-05
0.001015 -4.89208e-05 -2.12697e-06
-4.89208e-05 4.0363e-05 -1.53182e-07
-2.12697e-06 -1.53182e-07 -3.71354e-05
0.00114853 -5.10545e-05 -1.28003e-06
-5.10545e-05 0.000120345 2.66965e-07
-1.28003e-06 2.66965e-07 3.46696e-05
0.000673639 1.93801e-05 -6.49691e-07
1.93801e-05 -0.0001292 1.3755e-06
-6.49691e-07 1.3755e-06 -0.000162683
0.00120198 -4.44443e-05 -8.5968e-07
-4.44443e-05 0.000150629 1.19168e-06
-8.5968e-07 1.19168e-06 7.50364e-05
0.000847352 -4.36782e-06 -1.48312e-07
-4.36782e-06 -3.8487e-05 1.87462e-06
-1.48312e-07 1.87462e-06 -9.66517e-05
0.00153065 2.56102e-05 -2.49922e-08
2.56102e-05 9.40141e-05 1.35948e-07
-2.49922e-08 1.35948e-07 1.17254e-05
0.00154439 1.06283e-05 4.50189e-07
1.06283e-05 7.55548e-05 4.50023e-08
4.50189e-07 4.50023e-08 -3.25719e-06
0.00139039 -2.57717e-05 -2.21522e-07
-2.57717e-05 1.32216e-05 -2.5299e-07
-2.21522e-07 -2.5299e-07 -4.85038e-05
0.00110481 -5.16382e-05 4.04387e-09
-5.16382e-05 8.93508e-05 2.17252e-07
4.04387e-09 2.17252e-07 1.40373e-05
0.000935632 -5.35737e-05 -1.08203e-07
-5.35737e-05 7.04811e-06 1.37224e-07
-1.08203e-07 1.37224e-07 -8.26747e-05
0.00139811 -6.91456e-05 -1.11501e-06
-6.91456e-05 0.00019537 1.06705e-06
-1.11501e-06 1.06705e-06 9.5117e-05
0.00154496 -4.9216e-05 9.3751e-08
-4.9216e-05 0.000111135 2.07694e-07
9.3751e-08 2.07694e-07 6.17889e-05
0.00128921 -6.14278e-05 1.21209e-07
-6.14278e-05 4.69546e-05 -7.54657e-07
1.21209e-07 -7.54657e-07 -2.41602e-05
0.000817665 1.31728e-05 6.18138e-08
1.31728e-05 -5.91827e-05 -5.90685e-07
6.18138e-08 -5.90685e-07 -8.96597e-05
0.00108236 4.51548e-06 -1.28643e-07
4.51548e-06 8.04148e-05 9.66238e-08
-1.28643e-07 9.66238e-08 2.87007e-05
0.000988721 -4.92754e-05 -4.93173e-07
-4.92754e-05 3.0753e-05 3.62174e-07
-4.93173e-07 3.62174e-07 -4.77017e-05
0.00109608 -5.13079e-05 1.74797e-07
-5.13079e-05 8.58695e-05 -2.35769e-08
1.74797e-07 -2.35769e-08 -2.98854e-07
0.00107683 -4.36984e-05 -9.4206e-08
-4.36984e-05 9.14184e-05 -2.64415e-07
-9.4206e-08 -2.64415e-07 3.72855e-06
0.00113594 -3.79344e-05 -5.88464e-07
-3.79344e-05 0.000115492 9.6701e-07
-5.88464e-07 9.6701e-07 4.35385e-05
0.00152783 2.97339e-05 2.52102e-06
2.97339e-05 8.88936e-05 1.37253e-06
2.52102e-06 1.37253e-06 8.79852e-06
0.0016065 3.39556e-06 2.97569e-06
3.39556e-06 9.42038e-05 -8.97371e-07
2.97569e-06 -8.97371e-07 2.07597e-05
0.00143682 -3.61279e-05 1.68603e-06
-3.61279e-05 9.14844e-06 -3.11949e-06
1.68603e-06 -3.11949e-06 -3.44144e-05
0.00186982 -6.49341e-05 2.59851e-06
-6.49341e-05 0.000261476 -1.44571e-06
2.59851e-06 -1.44571e-06 0.000211987
0.000946879 -5.06858e-05 8.26994e-08
-5.06858e-05 1.66462e-05 -1.17505e-06
8.26994e-08 -1.17505e-06 -6.64416e-05
0.00144502 -7.2033e-05 2.75211e-06
-7.2033e-05 0.000191723 1.2904e-06
2.75211e-06 1.2904e-06 8.98362e-05
0.00145717 -6.91663e-05 2.15971e-06
-6.91663e-05 0.000254869 -3.69435e-06
2.15971e-06 -3.69435e-06 0.000154372
0.000954219 1.01464e-05 6.10793e-07
1.01464e-05 6.90723e-06 -1.84815e-06
6.10793e-07 -1.84815e-06 -2.08879e-05
0.000989576 -2.00018e-05 6.53643e-07
-2.00018e-05 3.43904e-05 -1.27519e-06
6.53643e-07 -1.27519e-06 -1.04961e-05
0.000818045 7.49832e-06 2.44801e-07
7.49832e-06 -5.18036e-05 -1.87061e-06
2.44801e-07 -1.87061e-06 -0.000102145
0.00109934 -2.4585e-05 2.16017e-07
-2.4585e-05 9.519e-05 -7.30174e-07
2.16017e-07 -7.30174e-07 2.76228e-05
0.000992385 -3.66517e-05 2.73593e-07
-3.66517e-05 4.94539e-05 -1.18297e-06
2.73593e-07 -1.18297e-06 -3.40613e-05
0.00111035 -5.09569e-05 1.8064e-06
-5.09569e-05 0.000108339 1.87305e-07
1.8064e-06 1.87305e-07 1.26985e-05
0.000841704 -4.75608e-05 7.01064e-07
-4.75608e-05 -4.1365e-05 -4.11635e-07
7.01064e-07 -4.11635e-07 -0.00012305
0.00165088 -6.59219e-05 6.36472e-07
-6.59219e-05 0.000372157 2.9995e-07
6.36472e-07 2.9995e-07 0.000278327
0.00100846 1.48247e-05 -8.94074e-07
1.48247e-05 4.19229e-05 -1.6111e-06
-8.94074e-07 -1.6111e-06 -1.67549e-05
0.00108448 4.118e-05 -6.28393e-07
4.118e-05 8.50607e-05 -4.66536e-07
-6.28393e-07 -4.66536e-07 1.07847e-05
0.00180817 4.60213e-05 -7.05193e-07
4.60213e-05 0.000266328 -8.85777e-07
-7.05193e-07 -8.85777e-07 0.000204886
0.00110993 4.72977e-05 -9.36721e-07
4.72977e-05 9.84314e-05 -1.28883e-08
-9.36721e-07 -1.28883e-08 1.91607e-05
0.00117368 5.38985e-05 -7.77002e-07
5.38985e-05 0.000130095 -1.21657e-06
-7.77002e-07 -1.21657e-06 5.1236e-05
0.00100924 4.79594e-05 -8.96844e-07
4.79594e-05 4.7845e-05 -4.1571e-07
-8.96844e-07 -4.1571e-07 -3.23096e-05
0.00141158 6.63171e-05 -4.63121e-07
6.63171e-05 0.000170634 -9.23462e-07
-4.63121e-07 -9.23462e-07 8.68823e-05
0.00125366 6.13605e-05 -1.21199e-06
6.13605e-05 6.06388e-05 2.97475e-07
-1.21199e-06 2.97475e-07 -1.44126e-05
0.00106972 5.48075e-05 1.19944e-08
5.48075e-05 7.42503e-05 -5.0847e-07
1.19944e-08 -5.0847e-07 -1.78589e-05
0.00115765 6.1865e-05 -3.26994e-06
6.1865e-05 8.13562e-05 -1.25756e-06
-3.26994e-06 -1.25756e-06 -2.05087e-05
0.000943617 3.59456e-05 3.74179e-07
3.59456e-05 1.58546e-05 3.36867e-07
3.74179e-07 3.36867e-07 -5.78753e-05
0.00103838 4.91105e-05 -3.73085e-07
4.91105e-05 6.29567e-05 -4.19099e-07
-3.73085e-07 -4.19099e-07 -2.00381e-05
0.00114675 5.44982e-05 -2.34577e-07
5.44982e-05 0.000113562 -6.46717e-07
-2.34577e-07 -6.46717e-07 2.79672e-05
0.00105303 4.99744e-05 -3.84473e-08
4.99744e-05 6.44969e-05 -2.8259e-07
-3.84473e-08 -2.8259e-07 -1.97945e-05
0.00177149 3.15891e-05 -1.97938e-07
3.15891e-05 0.000156576 -1.13911e-06
-1.97938e-07 -1.13911e-06 0.000109293
0.0012691 5.63092e-05 8.99806e-08
5.63092e-05 1.85715e-06 1.24867e-07
8.99806e-08 1.24867e-07 -6.31699e-05
0.00145535 7.22063e-05 -4.46398e-07
7.22063e-05 0.000187699 -8.00847e-08
-4.46398e-07 -8.00847e-08 9.11529e-05
0.000902981 5.56035e-05 2.25047e-07
5.56035e-05 -1.62122e-05 2.98208e-07
2.25047e-07 2.98208e-07 -0.000124119
0.001106 4.9358e-05 2.38705e-07
4.9358e-05 0.000103264 1.32881e-07
2.38705e-07 1.32881e-07 2.08582e-05
0.0014555 5.9799e-06 3.20051e-06
5.9799e-06 4.3712e-06 3.1143e-06
3.20051e-06 3.1143e-06 -5.23295e-05
0.00119908 5.43376e-05 8.92032e-07
5.43376e-05 0.000143139 4.87113e-07
8.92032e-07 4.87113e-07 5.41779e-05
0.00112707 5.56552e-05 6.12463e-07
5.56552e-05 0.000105539 1.15489e-06
6.12463e-07 1.15489e-06 1.12863e-05
0.00168921 5.75452e-05 6.22438e-06
5.75452e-05 8.45169e-05 9.17951e-07
6.22438e-06 9.17951e-07 3.93349e-05
0.00131976 7.27497e-05 3.89551e-06
7.27497e-05 6.21433e-05 2.36721e-07
3.89551e-06 2.36721e-07 -3.25868e-05
0.0016531 7.68612e-05 9.20061e-07
7.68612e-05 0.000338404 2.35796e-06
9.20061e-07 2.35796e-06 0.000221721
0.00107849 3.43997e-05 -4.63303e-07
3.43997e-05 8.58425e-05 -5.75573e-07
-4.63303e-07 -5.75573e-07 1.58275e-05
0.00106871 4.23961e-05 -1.97789e-08
4.23961e-05 8.54644e-05 -8.89218e-08
-1.97789e-08 -8.89218e-08 5.81019e-06
0.00108661 4.80446e-05 7.10923e-07
4.80446e-05 9.54486e-05 5.02898e-07
7.10923e-07 5.02898e-07 8.7488e-06
0.000989249 1.01584e-05 -9.01392e-08
1.01584e-05 3.67037e-05 -1.16748e-06
-9.01392e-08 -1.16748e-06 -1.1808e-05
0.00101331 1.68522e-05 8.62957e-08
1.68522e-05 5.32417e-05 -4.45711e-07
8.62957e-08 -4.45711e-07 -1.13635e-05
0.000974801 2.8457e-05 -4.68133e-07
2.8457e-05 3.56321e-05 -1.20911e-06
-4.68133e-07 -1.20911e-06 -4.21268e-05
0.000981903 -1.25995e-05 2.23532e-07
-1.25995e-05 3.39915e-05 3.27701e-08
2.23532e-07 3.27701e-08 -1.35761e-05
0.000889564 1.0017e-05 -1.7836e-07
1.0017e-05 -8.60798e-06 4.19528e-07
-1.7836e-07 4.19528e-07 -7.23502e-05
0.00107674 3.78281e-05 -2.90525e-08
3.78281e-05 8.61845e-05 -4.15621e-07
-2.90525e-08 -4.15621e-07 1.39991e-06
0.0010475 1.99625e-05 1.77894e-07
1.99625e-05 7.29207e-05 3.86617e-07
1.77894e-07 3.86617e-07 -2.34544e-06
0.00120137 5.29945e-05 2.59498e-07
5.29945e-05 0.00014229 1.96447e-07
2.59498e-07 1.96447e-07 5.23711e-05
0.0010131 1.92034e-05 3.52711e-07
1.92034e-05 4.99519e-05 8.86401e-07
3.52711e-07 8.86401e-07 -3.39178e-05
0.0010695 2.63341e-05 3.41668e-07
2.63341e-05 8.27673e-05 7.80633e-07
3.41668e-07 7.80633e-07 9.52817e-06
0.00100498 1.9251e-05 5.28088e-07
1.9251e-05 5.32047e-05 9.85348e-07
5.28088e-07 9.85348e-07 -9.75466e-06
0.000992773 -9.46206e-06 -3.45296e-07
-9.46206e-06 3.91094e-05 1.07303e-06
-3.45296e-07 1.07303e-06 -7.97402e-06
0.000949564 1.03e-05 3.79114e-07
1.03e-05 4.64267e-06 1.68263e-06
3.79114e-07 1.68263e-06 -2.36225e-05
0.000956744 -4.6188e-07 -2.60561e-07
-4.6188e-07 7.44103e-06 1.57971e-08
-2.60561e-07 1.57971e-08 -2.05344e-05
0.00146385 -3.59282e-06 5.80154e-07
-3.59282e-06 0.00025101 1.93189e-06
5.80154e-07 1.93189e-06 0.000254185
0.000957602 -1.00574e-05 7.5376e-08
-1.00574e-05 7.68712e-06 -1.76381e-06
7.5376e-08 -1.76381e-06 -2.03821e-05
0.00148498 -6.43748e-06 -1.07875e-06
-6.43748e-06 0.000263439 -1.22542e-06
-1.07875e-06 -1.22542e-06 0.000266385
0.00113741 -6.58705e-06 5.24881e-06
-6.58705e-06 8.57912e-05 6.44793e-06
5.24881e-06 6.44793e-06 0.000103238
0.00150271 -9.16974e-06 -3.20744e-06
-9.16974e-06 0.000275057 -4.4423e-06
-3.20744e-06 -4.4423e-06 0.000277379
0.00108913 -9.67601e-06 1.94672e-06
-9.67601e-06 6.44045e-05 2.4732e-06
1.94672e-06 2.4732e-06 8.14526e-05
0.00103679 -1.24394e-05 -1.70008e-06
-1.24394e-05 4.20228e-05 -1.61751e-06
-1.70008e-06 -1.61751e-06 5.81017e-05
0.000959833 7.66514e-06 4.56078e-07
7.66514e-06 7.38211e-06 -1.863e-06
4.56078e-07 -1.863e-06 -1.86845e-05
0.000874295 1.17855e-05 1.20085e-06
1.17855e-05 -3.99029e-05 -3.22524e-06
1.20085e-06 -3.22524e-06 -4.05129e-05
0.000882974 1.41461e-05 -1.0311e-07
1.41461e-05 -3.13992e-05 1.51785e-08
-1.0311e-07 1.51785e-08 -3.37501e-05
0.00228419 1.94095e-05 1.07636e-05
1.94095e-05 0.000676781 -3.90415e-06
1.07636e-05 -3.90415e-06 0.000698129
0.000891468 1.62106e-05 -2.14434e-06
1.62106e-05 -2.31546e-05 3.29323e-06
-2.14434e-06 3.29323e-06 -2.72724e-05
0.00232972 2.30868e-05 -5.94895e-07
2.30868e-05 0.0007054 -4.20505e-08
-5.94895e-07 -4.20505e-08 0.000725317
0.00239105 2.63582e-05 -1.58215e-05
2.63582e-05 0.000742179 3.99778e-06
-1.58215e-05 3.99778e-06 0.000760505
0.00133541 1.79344e-05 -1.36301e-08
1.79344e-05 3.95069e-06 -5.70454e-07
-1.36301e-08 -5.70454e-07 -5.17041e-05
0.00144925 -7.15914e-06 -1.51647e-06
-7.15914e-06 4.17489e-05 -2.08023e-06
-1.51647e-06 -2.08023e-06 -2.55122e-05
0.0014307 -1.72414e-05 -2.1761e-06
-1.72414e-05 4.86921e-05 -4.36395e-08
-2.1761e-06 -4.36395e-08 -3.0423e-05
0.00148838 1.68331e-05 -1.80086e-06
1.68331e-05 7.93813e-05 -6.20636e-07
-1.80086e-06 -6.20636e-07 -2.06478e-06
0.00148584 8.80169e-06 3.36829e-08
8.80169e-06 8.25527e-05 -1.72065e-07
3.36829e-08 -1.72065e-07 1.70008e-06
0.0015706 -2.53092e-05 -2.76025e-08
-2.53092e-05 0.000110354 9.25719e-08
-2.76025e-08 9.25719e-08 3.46773e-05
0.00143544 7.23251e-06 -6.37052e-07
7.23251e-06 2.22712e-05 3.15809e-07
-6.37052e-07 3.15809e-07 -3.42701e-05
0.00149272 1.96626e-06 2.6914e-06
1.96626e-06 8.95903e-05 -4.34083e-07
2.6914e-06 -4.34083e-07 1.12556e-05
0.00159823 -1.77207e-05 2.64578e-06
-1.77207e-05 0.000106095 1.63938e-06
2.64578e-06 1.63938e-06 3.59422e-05
0.00134779 -1.67079e-05 2.98531e-06
-1.67079e-05 -2.1801e-05 8.08786e-07
2.98531e-06 8.08786e-07 -8.05298e-05
0.00147434 2.5396e-05 -2.03044e-06
2.5396e-05 6.81027e-05 -3.92399e-07
-2.03044e-06 -3.92399e-07 -1.39318e-05
0.00154969 8.9759e-06 -2.63539e-06
8.9759e-06 7.6254e-05 7.68829e-07
-2.63539e-06 7.68829e-07 -2.5334e-06
0.0014837 -2.60969e-05 -2.43128e-06
-2.60969e-05 5.82493e-05 1.74345e-06
-2.43128e-06 1.74345e-06 -4.79889e-06
0.00112734 -5.21663e-05 -6.28864e-07
-5.21663e-05 9.95071e-05 1.18686e-06
-6.28864e-07 1.18686e-06 2.40719e-05
0.000975649 -5.43106e-05 -9.11109e-07
-5.43106e-05 2.79567e-05 2.95131e-06
-9.11109e-07 2.95131e-06 -6.04598e-05
0.00132593 -6.68233e-05 -2.70326e-06
-6.68233e-05 0.000159939 2.75564e-06
-2.70326e-06 2.75564e-06 6.07493e-05
0.00148387 -4.97832e-05 6.20362e-07
-4.97832e-05 8.73345e-05 1.87798e-06
6.20362e-07 1.87798e-06 3.80218e-05
0.0011985 -5.96543e-05 -4.00508e-06
-5.96543e-05 5.32893e-07 -1.38053e-06
-4.00508e-06 -1.38053e-06 -7.0317e-05
0.000939878 -4.81568e-05 -9.6094e-07
-4.81568e-05 7.67084e-06 7.2632e-07
-9.6094e-07 7.2632e-07 -7.07834e-05
0.00110237 -5.14024e-05 -1.20717e-06
-5.14024e-05 8.89114e-05 -5.56445e-07
-1.20717e-06 -5.56445e-07 2.88089e-06
0.00109982 -3.90087e-05 -3.07119e-07
-3.90087e-05 0.000102897 4.85878e-07
-3.07119e-07 4.85878e-07 1.6339e-05
0.000942592 1.33163e-05 -6.78984e-07
1.33163e-05 3.38115e-06 1.28722e-06
-6.78984e-07 1.28722e-06 -2.61074e-05
0.00107027 1.35144e-05 -1.03613e-07
1.35144e-05 7.4821e-05 1.65959e-06
-1.03613e-07 1.65959e-06 2.30756e-05
0.0010738 -3.38045e-05 -1.26007e-06
-3.38045e-05 8.38658e-05 2.11454e-06
-1.26007e-06 2.11454e-06 1.13077e-05
0.00150588 2.9551e-05 2.10308e-07
2.9551e-05 7.84447e-05 3.39332e-07
2.10308e-07 3.39332e-07 -1.31001e-06
0.000951103 9.9182e-06 -2.50055e-08
9.9182e-06 5.20016e-06 5.22424e-09
-2.50055e-08 5.22424e-09 -2.25873e-05
0.000885602 -2.30551e-06 -4.15861e-07
-2.30551e-06 -1.79491e-05 4.12677e-09
-4.15861e-07 4.12677e-09 -6.31517e-05
0.00164153 3.09214e-06 1.33828e-07
3.09214e-06 0.000109408 1.20254e-07
1.33828e-07 1.20254e-07 3.62975e-05
0.00135239 -3.67437e-05 -4.16927e-07
-3.67437e-05 -2.67389e-05 -2.9729e-07
-4.16927e-07 -2.9729e-07 -7.34848e-05
0.000925533 -4.9953e-05 -2.10158e-07
-4.9953e-05 6.36426e-06 7.581e-07
-2.10158e-07 7.581e-07 -7.58508e-05
0.00132878 -6.64533e-05 -4.49493e-07
-6.64533e-05 0.000192306 3.12755e-07
-4.49493e-07 3.12755e-07 9.01023e-05
0.00119245 -6.57507e-05 5.72322e-07
-6.57507e-05 6.27388e-05 6.28267e-07
5.72322e-07 6.28267e-07 -3.74116e-05
0.00158884 -6.25111e-05 6.09266e-08
-6.25111e-05 0.000127529 -9.9949e-07
6.09266e-08 -9.9949e-07 7.77656e-05
0.00103546 1.44349e-06 5.33648e-07
1.44349e-06 5.76055e-05 -4.84295e-07
5.33648e-07 -4.84295e-07 8.98575e-06
0.0010774 -1.74276e-05 -5.159e-07
-1.74276e-05 8.51464e-05 5.16939e-07
-5.159e-07 5.16939e-07 1.71913e-05
0.00103641 -5.17685e-05 4.09735e-07
-5.17685e-05 5.38234e-05 2.93822e-07
4.09735e-07 2.93822e-07 -2.79531e-05
0.00127737 -5.71492e-05 -1.08995e-06
-5.71492e-05 0.00018484 -1.84546e-07
-1.08995e-06 -1.84546e-07 9.36098e-05
0.0010138 -4.34616e-05 4.37478e-07
-4.34616e-05 6.19601e-05 3.2912e-07
4.37478e-07 3.2912e-07 -3.46664e-05
0.00103528 -3.21466e-05 2.48038e-07
-3.21466e-05 6.85937e-05 -2.78727e-07
2.48038e-07 -2.78727e-07 -1.42328e-05
0.00150732 3.14931e-05 3.2812e-06
3.14931e-05 7.1106e-05 9.82098e-07
3.2812e-06 9.82098e-07 -4.39766e-06
0.0017246 -8.42568e-06 3.09147e-06
-8.42568e-06 0.000138018 -1.06657e-06
3.09147e-06 -1.06657e-06 7.87212e-05
0.00171492 -5.74284e-05 5.33458e-07
-5.74284e-05 0.000113845 -3.18379e-06
5.33458e-07 -3.18379e-06 8.63724e-05
0.00148702 -7.44513e-05 3.94081e-06
-7.44513e-05 0.000139811 9.00385e-07
3.94081e-06 9.00385e-07 5.94212e-05
0.00109909 -5.55161e-05 -8.22684e-09
-5.55161e-05 9.26345e-05 -2.01015e-06
-8.22684e-09 -2.01015e-06 3.48021e-06
0.00160701 -7.86314e-05 1.84971e-06
-7.86314e-05 0.000320949 -2.62922e-06
1.84971e-06 -2.62922e-06 0.000204453
0.000781813 1.30714e-05 -2.68539e-07
1.30714e-05 -7.02463e-05 -1.71461e-06
-2.68539e-07 -1.71461e-06 -0.000114264
0.000978479 -8.80857e-06 7.42253e-07
-8.80857e-06 2.89666e-05 -1.31138e-06
7.42253e-07 -1.31138e-06 -1.74112e-05
0.00123226 -1.244e-05 1.0272e-07
-1.244e-05 0.000166165 -7.25975e-07
1.0272e-07 -7.25975e-07 0.000107868
0.000891799 7.90179e-06 -3.29078e-07
7.90179e-06 -6.41868e-06 -1.18961e-06
-3.29078e-07 -1.18961e-06 -7.27418e-05
0.00117034 -2.96024e-05 7.84384e-08
-2.96024e-05 0.00013381 -8.03476e-07
7.84384e-08 -8.03476e-07 5.5244e-05
0.000923271 -3.20993e-05 9.13501e-08
-3.20993e-05 1.7929e-05 -6.43749e-07
9.13501e-08 -6.43749e-07 -7.44898e-05
0.00119732 -4.62653e-05 2.18424e-06
-4.62653e-05 0.000161835 -8.47847e-07
2.18424e-06 -8.47847e-07 5.79742e-05
0.00101423 -5.57298e-05 5.55008e-07
-5.57298e-05 6.51803e-05 -3.44111e-07
5.55008e-07 -3.44111e-07 -2.71486e-05
0.000941614 3.64173e-05 -4.22377e-07
3.64173e-05 1.53525e-05 -5.64544e-07
-4.22377e-07 -5.64544e-07 -5.87929e-05
0.00110066 4.9563e-05 -1.48436e-06
4.9563e-05 9.34949e-05 -7.35966e-07
-1.48436e-06 -7.35966e-07 1.13414e-05
0.00162775 2.90021e-05 -4.00049e-06
2.90021e-05 8.64335e-05 -3.10069e-06
-4.00049e-06 -3.10069e-06 4.00997e-05
0.00141945 5.76656e-05 -2.01356e-06
5.76656e-05 8.49974e-05 -3.37302e-07
-2.01356e-06 -3.37302e-07 1.78955e-05
0.00122831 5.38527e-05 -1.08463e-06
5.38527e-05 0.000150341 -3.4508e-07
-1.08463e-06 -3.4508e-07 6.63592e-05
0.00115426 5.45073e-05 -9.79811e-07
5.45073e-05 0.000118451 -1.77534e-06
-9.79811e-07 -1.77534e-06 3.35928e-05
0.00173095 7.76838e-05 -1.42426e-06
7.76838e-05 0.00032165 -6.45148e-07
-1.42426e-06 -6.45148e-07 0.000226176
0.000921299 5.67664e-05 -1.0853e-06
5.67664e-05 -1.33637e-05 -1.79913e-06
-1.0853e-06 -1.79913e-06 -0.00012122
0.00107449 4.90815e-05 -3.53054e-07
4.90815e-05 8.78737e-05 -3.52693e-07
-3.53054e-07 -3.52693e-07 5.46024e-06
0.00140221 5.31023e-06 8.88384e-07
5.31023e-06 -2.386e-05 7.05973e-07
8.88384e-07 7.05973e-07 -7.85406e-05
0.00111092 5.22472e-05 3.06476e-07
5.22472e-05 9.93429e-05 3.53565e-07
3.06476e-07 3.53565e-07 1.06071e-05
0.000978109 5.20889e-05 2.5218e-07
5.20889e-05 2.89695e-05 -1.91118e-07
2.5218e-07 -1.91118e-07 -6.63721e-05
0.0015811 5.30125e-05 3.78676e-07
5.30125e-05 3.82764e-05 -3.16487e-07
3.78676e-07 -3.16487e-07 -7.8807e-06
0.0014953 7.79165e-05 7.79567e-07
7.79165e-05 0.000141566 -5.08729e-07
7.79567e-07 -5.08729e-07 4.73939e-05
0.00155626 7.49192e-05 2.47486e-07
7.49192e-05 0.000294111 5.93178e-07
2.47486e-07 5.93178e-07 0.00017699
0.00114505 5.14521e-05 4.02335e-07
5.14521e-05 0.000125764 3.21955e-07
4.02335e-07 3.21955e-07 3.64761e-05
0.00170782 3.82236e-05 6.26515e-06
3.82236e-05 2.77846e-05 9.47578e-07
6.26515e-06 9.47578e-07 -1.62382e-05
0.00137349 5.95581e-05 4.01631e-07
5.95581e-05 0.00022194 1.04799e-07
4.01631e-07 1.04799e-07 0.000129132
0.00153002 6.86748e-05 -1.0442e-06
6.86748e-05 0.000300079 2.05195e-06
-1.0442e-06 2.05195e-06 0.000189287
0.00118163 8.01891e-05 6.21981e-06
8.01891e-05 -0.000130727 2.39389e-06
6.21981e-06 2.39389e-06 -0.000212922
0.00109028 7.1601e-05 3.05267e-08
7.1601e-05 3.19759e-05 2.61391e-06
3.05267e-08 2.61391e-06 -8.98643e-05
0.00217265 -2.97316e-05 5.46813e-06
-2.97316e-05 0.000174028 -2.66469e-06
5.46813e-06 -2.66469e-06 0.00019615
0.0010598 4.32673e-05 -4.89895e-07
4.32673e-05 8.18511e-05 -7.18635e-07
-4.89895e-07 -7.18635e-07 2.13562e-06
0.00106389 4.78373e-05 2.94534e-08
4.78373e-05 8.52377e-05 -2.99113e-08
2.94534e-08 -2.99113e-08 -1.51917e-06
0.00122933 5.37569e-05 5.80226e-07
5.37569e-05 0.000158891 3.04033e-07
5.80226e-07 3.04033e-07 6.7997e-05
0.000977486 -1.06919e-05 3.41058e-07
-1.06919e-05 3.17711e-05 -1.11217e-06
3.41058e-07 -1.11217e-06 -1.58406e-05
0.000881971 -3.53142e-06 -8.09436e-08
-3.53142e-06 -1.27366e-05 -4.41787e-07
-8.09436e-08 -4.41787e-07 -7.63296e-05
0.00117759 3.3707e-05 -2.78684e-07
3.3707e-05 0.000139619 -3.22035e-07
-2.78684e-07 -3.22035e-07 6.47526e-05
0.00098656 3.27611e-05 -6.14441e-07
3.27611e-05 4.04769e-05 -1.20231e-06
-6.14441e-07 -1.20231e-06 -4.49288e-05
0.00098596 -1.50257e-05 -1.95563e-07
-1.50257e-05 3.63202e-05 1.17362e-08
-1.95563e-07 1.17362e-08 -1.11878e-05
0.00094811 1.38871e-05 2.27013e-07
1.38871e-05 2.33868e-05 2.55344e-08
2.27013e-07 2.55344e-08 -3.96605e-05
0.00111646 5.05861e-05 -6.32869e-07
5.05861e-05 9.99656e-05 -7.69616e-07
-6.32869e-07 -7.69616e-07 1.00091e-05
0.00106238 1.83171e-05 -4.50337e-08
1.83171e-05 7.93965e-05 1.33977e-08
-4.50337e-08 1.33977e-08 6.24243e-06
0.00108669 2.26214e-05 5.1443e-08
2.26214e-05 8.84708e-05 -3.1132e-08
5.1443e-08 -3.1132e-08 5.23627e-06
0.00110516 4.07838e-05 3.21895e-07
4.07838e-05 8.54885e-05 1.08612e-06
3.21895e-07 1.08612e-06 -5.88889e-06
0.00119386 3.70903e-05 1.8444e-07
3.70903e-05 0.000142927 3.13929e-07
1.8444e-07 3.13929e-07 6.11216e-05
0.00115577 3.70618e-05 3.47089e-07
3.70618e-05 0.000127285 5.17213e-07
3.47089e-07 5.17213e-07 5.40943e-05
0.000826466 6.86138e-06 -1.77353e-07
6.86138e-06 -3.7729e-05 9.69426e-07
-1.77353e-07 9.69426e-07 -0.000101436
0.000794415 5.39268e-06 3.51372e-07
5.39268e-06 -6.03407e-05 1.45536e-06
3.51372e-07 1.45536e-06 -0.000109284
0.0011986 -2.45239e-06 2.36382e-07
-2.45239e-06 0.000150931 3.5131e-07
2.36382e-07 3.5131e-07 8.7723e-05
0.000799371 -4.13311e-06 -3.53407e-07
-4.13311e-06 -5.82897e-05 1.46307e-06
-3.53407e-07 1.46307e-06 -0.0001077
0.000952818 1.08882e-05 2.60499e-07
1.08882e-05 6.6575e-06 1.69985e-06
2.60499e-07 1.69985e-06 -2.19679e-05
0.00095104 1.02557e-06 -2.7716e-07
1.02557e-06 5.42186e-06 2.65386e-09
-2.7716e-07 2.65386e-09 -2.28447e-05
0.00090135 2.46095e-08 1.41049e-07
2.46095e-08 -3.44985e-05 3.12438e-06
1.41049e-07 3.12438e-06 -3.43817e-05
0.000955859 -9.05735e-06 2.26939e-07
-9.05735e-06 7.08634e-06 -1.7269e-06
2.26939e-07 -1.7269e-06 -2.08946e-05
0.00119433 -3.04151e-06 -6.24921e-07
-3.04151e-06 0.00011457 -1.25225e-06
-6.24921e-07 -1.25225e-06 0.000116173
0.00226266 -4.52587e-06 2.91613e-06
-4.52587e-06 0.000654171 4.02831e-06
2.91613e-06 4.02831e-06 0.000677656
0.00150219 -6.17174e-06 -1.88762e-06
-6.17174e-06 0.000272409 -4.37319e-06
-1.88762e-06 -4.37319e-06 0.000275237
0.00109226 -6.76303e-06 9.88976e-07
-6.76303e-06 6.27085e-05 2.45604e-06
9.88976e-07 2.45604e-06 8.03812e-05
0.00103787 -9.58065e-06 -1.19924e-06
-9.58065e-06 3.83467e-05 -1.57436e-06
-1.19924e-06 -1.57436e-06 5.55985e-05
0.0009649 5.14778e-06 3.42742e-07
5.14778e-06 7.92632e-06 -1.85006e-06
3.42742e-07 -1.85006e-06 -1.67664e-05
0.000958355 7.3828e-06 -2.90832e-08
7.3828e-06 6.36781e-06 -4.43957e-09
-2.90832e-08 -4.43957e-09 -1.96579e-05
0.000884971 9.17817e-06 8.41698e-07
9.17817e-06 -3.83535e-05 -3.21092e-06
8.41698e-07 -3.21092e-06 -3.74385e-05
0.00117773 1.27719e-05 -3.9539e-07
1.27719e-05 0.000113684 2.65123e-08
-3.9539e-07 2.65123e-08 0.000114389
0.00224468 1.55941e-05 8.7713e-06
1.55941e-05 0.000652354 -3.91469e-06
8.7713e-06 -3.91469e-06 0.000674858
0.00089955 1.4179e-05 -1.77621e-06
1.4179e-05 -2.33396e-05 3.23095e-06
-1.77621e-06 3.23095e-06 -2.57476e-05
0.00228645 1.94673e-05 -6.79741e-07
1.94673e-05 0.000678527 -3.61744e-08
-6.79741e-07 -3.61744e-08 0.000699714
0.00233134 2.30096e-05 -1.37511e-05
2.30096e-05 0.000706816 3.95794e-06
-1.37511e-05 3.95794e-06 0.000726587
0.00146319 7.22132e-06 -2.32717e-06
7.22132e-06 3.92894e-05 -2.03609e-06
-2.32717e-06 -2.03609e-06 -1.55847e-05
0.00151186 -2.32123e-05 -2.0515e-06
-2.32123e-05 8.15144e-05 -1.06943e-08
-2.0515e-06 -1.06943e-08 4.86838e-06
0.00151688 5.15032e-06 -1.96714e-06
5.15032e-06 9.92853e-05 -4.99877e-07
-1.96714e-06 -4.99877e-07 1.87434e-05
0.00149672 2.04123e-06 -2.00102e-07
2.04123e-06 9.12788e-05 -6.88934e-07
-2.00102e-07 -6.88934e-07 1.29809e-05
0.00148595 -1.71189e-05 -2.18778e-07
-1.71189e-05 5.69627e-05 6.54005e-07
-2.18778e-07 6.54005e-07 -1.23909e-05
0.00139278 -1.88773e-05 1.2778e-06
-1.88773e-05 1.26719e-05 2.2824e-07
1.2778e-06 2.2824e-07 -4.90206e-05
0.00154113 3.39496e-06 2.20742e-06
3.39496e-06 0.000102652 3.39172e-08
2.20742e-06 3.39172e-08 3.26339e-05
0.00239407 -4.86738e-05 -1.64886e-06
-4.86738e-05 0.000400229 -6.05624e-06
-1.64886e-06 -6.05624e-06 0.00037216
0.00163725 9.54206e-06 3.56077e-06
9.54206e-06 8.06232e-05 1.00752e-06
3.56077e-06 1.00752e-06 3.54979e-05
0.000985754 -4.40043e-06 3.80819e-07
-4.40043e-06 3.13227e-05 -1.13402e-06
3.80819e-07 -1.13402e-06 -1.02811e-05
0.00147473 2.92738e-05 -2.76848e-06
2.92738e-05 6.36157e-05 -6.5475e-07
-2.76848e-06 -6.5475e-07 -1.5802e-05
0.00166398 2.5162e-06 -2.73381e-06
2.5162e-06 0.000118477 1.03844e-06
-2.73381e-06 1.03844e-06 4.57178e-05
0.00124027 -3.72225e-05 -1.36566e-06
-3.72225e-05 -7.78191e-05 2.57263e-06
-1.36566e-06 2.57263e-06 -0.000127414
0.000907065 -4.93268e-05 -3.97659e-07
-4.93268e-05 -2.38556e-06 1.98558e-06
-3.97659e-07 1.98558e-06 -8.37487e-05
0.00117936 -6.33891e-05 -1.54688e-06
-6.33891e-05 0.000118966 4.46672e-06
-1.54688e-06 4.46672e-06 1.51091e-05
0.000973521 -6.0344e-05 -2.7896e-06
-6.0344e-05 -4.99186e-05 8.37044e-07
-2.7896e-06 8.37044e-07 -0.000148347
0.00139164 -6.07675e-05 -2.7758e-06
-6.07675e-05 3.43187e-05 -1.0423e-06
-2.7758e-06 -1.0423e-06 -1.58979e-05
0.00119982 -5.53368e-05 1.64432e-07
-5.53368e-05 0.000132918 3.11119e-07
1.64432e-07 3.11119e-07 5.1192e-05
0.000971617 -4.99328e-05 -4.09801e-06
-4.99328e-05 3.12899e-05 -1.70779e-06
-4.09801e-06 -1.70779e-06 -5.74889e-05
0.000928522 -4.08138e-05 -1.93731e-07
-4.08138e-05 2.15739e-05 1.0093e-06
-1.93731e-07 1.0093e-06 -7.64017e-05
0.000952533 9.83268e-06 -6.88699e-07
9.83268e-06 5.85903e-06 1.88059e-06
-6.88699e-07 1.88059e-06 -2.19482e-05
0.00107694 -3.17502e-05 5.33678e-08
-3.17502e-05 8.75577e-05 5.03657e-07
5.33678e-08 5.03657e-07 5.11964e-06
0.00124877 -1.2791e-05 -2.1755e-07
-1.2791e-05 0.000165697 7.76957e-07
-2.1755e-07 7.76957e-07 0.000118457
0.00105771 -9.79499e-06 -3.7441e-07
-9.79499e-06 7.60026e-05 1.88594e-06
-3.7441e-07 1.88594e-06 7.77758e-06
0.000780232 5.42138e-06 -2.38605e-07
5.42138e-06 -7.15465e-05 1.26954e-06
-2.38605e-07 1.26954e-06 -0.000116696
0.00152373 3.02955e-05 8.4989e-08
3.02955e-05 7.51348e-05 6.02209e-08
8.4989e-08 6.02209e-08 -3.03747e-07
0.000895598 4.65588e-07 2.91183e-07
4.65588e-07 -1.34478e-05 -4.71339e-07
2.91183e-07 -4.71339e-07 -5.6853e-05
0.000981042 -1.15782e-05 -1.6051e-07
-1.15782e-05 3.07116e-05 3.58019e-08
-1.6051e-07 3.58019e-08 -1.58675e-05
0.00103803 -3.77966e-06 -4.92664e-07
-3.77966e-06 6.83908e-05 4.81775e-07
-4.92664e-07 4.81775e-07 8.9095e-06
0.0016793 -8.58709e-06 8.05818e-07
-8.58709e-06 0.000112761 5.4213e-07
8.05818e-07 5.4213e-07 5.41953e-05
0.00155251 -5.72186e-05 -8.38405e-07
-5.72186e-05 3.78445e-05 -1.18301e-06
-8.38405e-07 -1.18301e-06 7.80627e-06
0.00104049 -5.46666e-05 -8.07097e-08
-5.46666e-05 6.08154e-05 4.95694e-07
-8.07097e-08 4.95694e-07 -2.73632e-05
0.00122726 -7.01457e-05 9.80432e-07
-7.01457e-05 0.000138632 -3.37823e-07
9.80432e-07 -3.37823e-07 2.21933e-05
0.0013109 -7.10474e-05 -1.7992e-07
-7.10474e-05 5.34122e-05 6.05803e-07
-1.7992e-07 6.05803e-07 -2.59208e-05
0.000972962 5.40073e-06 -1.56009e-07
5.40073e-06 3.4132e-05 1.50953e-08
-1.56009e-07 1.50953e-08 -3.08966e-05
0.00114655 -3.01718e-05 4.02625e-08
-3.01718e-05 0.000121689 -1.41492e-08
4.02625e-08 -1.41492e-08 4.2376e-05
0.000978779 -5.45384e-05 -1.34889e-06
-5.45384e-05 4.55529e-05 1.4624e-08
-1.34889e-06 1.4624e-08 -4.70791e-05
0.00118082 -4.3756e-05 1.79494e-07
-4.3756e-05 0.000153718 -1.73035e-07
1.79494e-07 -1.73035e-07 5.10529e-05
0.00100032 -3.77418e-05 -1.04144e-07
-3.77418e-05 5.58494e-05 6.03012e-07
-1.04144e-07 6.03012e-07 -3.60096e-05
0.00140191 2.68234e-05 3.69989e-06
2.68234e-05 -9.45393e-06 3.36515e-07
3.69989e-06 3.36515e-07 -8.07902e-05
0.00196307 -3.28891e-05 3.15499e-06
-3.28891e-05 0.000191101 -3.47339e-06
3.15499e-06 -3.47339e-06 0.000172165
0.00178814 -8.21623e-05 4.98875e-06
-8.21623e-05 0.000184144 -6.26143e-07
4.98875e-06 -6.26143e-07 0.000128027
0.0016822 -8.61156e-05 2.1144e-06
-8.61156e-05 0.000322055 -1.89423e-06
2.1144e-06 -1.89423e-06 0.000211562
0.000959116 -6.03695e-05 5.88883e-07
-6.03695e-05 4.33837e-05 -2.90795e-06
5.88883e-07 -2.90795e-06 -5.95035e-05
0.000792245 1.59259e-05 8.04544e-08
1.59259e-05 -5.44138e-05 -1.42214e-06
8.04544e-08 -1.42214e-06 -0.000113163
0.000893802 1.01949e-05 4.05844e-07
1.01949e-05 -4.62926e-06 -1.28777e-06
4.05844e-07 -1.28777e-06 -6.79848e-05
0.0011593 1.47822e-05 2.95253e-07
1.47822e-05 0.000133029 -2.87688e-07
2.95253e-07 -2.87688e-07 6.2651e-05
0.00111074 -3.59017e-05 6.2223e-07
-3.59017e-05 0.000106889 -1.02821e-06
6.2223e-07 -1.02821e-06 2.92473e-05
0.00107394 -3.70665e-05 -4.86839e-08
-3.70665e-05 8.82333e-05 -1.49099e-07
-4.86839e-08 -1.49099e-07 1.07357e-06
0.00111845 -3.76191e-05 9.64765e-08
-3.76191e-05 0.000124105 -1.69082e-06
9.64765e-08 -1.69082e-06 2.49624e-05
0.00105415 -4.87266e-05 3.65246e-06
-4.87266e-05 0.000114033 -7.63045e-07
3.65246e-06 -7.63045e-07 -6.75396e-06
0.00104129 4.83593e-05 -7.80471e-07
4.83593e-05 7.162e-05 -9.04496e-07
-7.80471e-07 -9.04496e-07 -1.0763e-05
0.00101802 5.00687e-05 -2.19021e-07
5.00687e-05 5.33372e-05 3.88078e-08
-2.19021e-07 3.88078e-08 -3.51811e-05
0.00134839 4.16449e-06 -2.59172e-06
4.16449e-06 -5.29538e-05 -1.21043e-06
-2.59172e-06 -1.21043e-06 -0.000105472
0.00140857 4.83943e-05 -2.35938e-06
4.83943e-05 -3.80929e-05 -1.92625e-06
-2.35938e-06 -1.92625e-06 -8.51955e-05
0.00166171 8.29159e-05 -2.62597e-06
8.29159e-05 0.000215865 -1.41942e-06
-2.62597e-06 -1.41942e-06 0.000122313
0.000802359 4.79899e-05 -1.64617e-07
4.79899e-05 -6.07574e-05 -1.38951e-06
-1.64617e-07 -1.38951e-06 -0.000157159
0.00141932 7.20965e-05 -4.25688e-07
7.20965e-05 0.00023006 -6.71819e-07
-4.25688e-07 -6.71819e-07 0.00011301
0.00114659 5.14819e-05 6.77907e-08
5.14819e-05 0.000126614 8.7747e-08
6.77907e-08 8.7747e-08 3.78719e-05
0.00152187 3.64854e-05 -2.18403e-06
3.64854e-05 -6.40933e-05 1.25172e-07
-2.18403e-06 1.25172e-07 -0.000107381
0.00119685 5.52552e-05 -1.89499e-07
5.52552e-05 0.00013624 -2.78871e-07
-1.89499e-07 -2.78871e-07 4.38778e-05
0.0012375 6.09416e-05 -1.61981e-07
6.09416e-05 0.000164274 4.93491e-07
-1.61981e-07 4.93491e-07 5.37711e-05
0.00142814 8.20867e-05 2.64527e-06
8.20867e-05 -2.53831e-05 -9.44214e-07
2.64527e-06 -9.44214e-07 -0.000104233
0.00125133 7.5923e-05 -1.00705e-06
7.5923e-05 0.000115429 8.52196e-07
-1.00705e-06 8.52196e-07 -1.10698e-05
0.00191871 -2.08776e-05 -2.39409e-06
-2.08776e-05 6.9969e-05 -5.53406e-07
-2.39409e-06 -5.53406e-07 8.45592e-05
0.00118331 5.31181e-05 -1.27137e-07
5.31181e-05 0.000139008 -3.53915e-07
-1.27137e-07 -3.53915e-07 4.6489e-05
0.0012427 9.17935e-05 9.39541e-06
9.17935e-05 -0.000231186 1.77382e-06
9.39541e-06 1.77382e-06 -0.000297711
0.00127559 5.82689e-05 -1.05976e-06
5.82689e-05 0.000182255 7.12692e-09
-1.05976e-06 7.12692e-09 8.33173e-05
0.0011341 6.43687e-05 -1.74454e-06
6.43687e-05 0.000141361 1.75505e-06
-1.74454e-06 1.75505e-06 6.76961e-06
0.000575824 8.62275e-05 4.92257e-08
8.62275e-05 -0.000284791 1.38857e-06
4.92257e-08 1.38857e-06 -0.000400777
0.00511924 -8.24817e-05 -1.7408e-05
-8.24817e-05 0.00179859 2.11533e-06
-1.7408e-05 2.11533e-06 0.00129574
0.00131464 -0.000109404 4.45504e-05
-0.000109404 -8.1143e-05 1.68197e-05
4.45504e-05 1.68197e-05 -0.000275958
0.00246997 5.27561e-05 1.68766e-06
5.27561e-05 0.000394352 4.21817e-06
1.68766e-06 4.21817e-06 0.000431688
-0.00241604 -9.92016e-05 -5.34486e-05
-9.92016e-05 -0.00141794 -2.03903e-05
-5.34486e-05 -2.03903e-05 -0.00142706
0.00119168 -0.000146848 -8.77212e-06
-0.000146848 -0.000199899 1.02225e-06
-8.77212e-06 1.02225e-06 0.000262151
0.00104857 4.7473e-05 -5.74209e-07
4.7473e-05 7.84711e-05 -5.89858e-07
-5.74209e-07 -5.89858e-07 -8.30737e-06
0.00118152 5.24682e-05 -1.27896e-07
5.24682e-05 0.000136262 -6.51341e-08
-1.27896e-07 -6.51341e-08 4.53927e-05
0.00113954 5.01545e-05 6.48231e-07
5.01545e-05 0.000100321 8.66503e-07
6.48231e-07 8.66503e-07 6.42154e-06
0.000979769 -1.89801e-05 1.32052e-07
-1.89801e-05 3.37308e-05 -1.00837e-06
1.32052e-07 -1.00837e-06 -1.41249e-05
0.000888521 1.93681e-05 -4.43977e-08
1.93681e-05 -7.01176e-06 -1.08309e-06
-4.43977e-08 -1.08309e-06 -7.06423e-05
0.00105385 7.9364e-06 -1.05506e-08
7.9364e-06 7.48922e-05 -7.57841e-07
-1.05506e-08 -7.57841e-07 2.13155e-06
0.00115785 2.85084e-05 -3.30234e-07
2.85084e-05 0.000125992 -7.89321e-07
-3.30234e-07 -7.89321e-07 4.3317e-05
0.00105308 4.66192e-05 -1.23583e-06
4.66192e-05 6.77438e-05 -1.45778e-06
-1.23583e-06 -1.45778e-06 -2.20748e-05
0.00105559 3.57423e-05 -2.61716e-07
3.57423e-05 7.62054e-05 -5.03763e-07
-2.61716e-07 -5.03763e-07 1.91961e-06
0.000889935 3.92519e-06 1.58264e-07
3.92519e-06 -1.20697e-05 4.48463e-07
1.58264e-07 4.48463e-07 -6.05309e-05
0.000926989 3.96937e-06 2.26018e-09
3.96937e-06 1.34783e-05 5.79006e-08
2.26018e-09 5.79006e-08 -4.96092e-05
0.00111075 4.26563e-05 6.6912e-08
4.26563e-05 9.06092e-05 5.48087e-08
6.6912e-08 5.48087e-08 -3.15631e-07
0.00112542 3.57645e-05 -2.01086e-07
3.57645e-05 0.000108195 -4.93682e-07
-2.01086e-07 -4.93682e-07 2.61083e-05
0.0012154 5.31052e-05 -7.6598e-08
5.31052e-05 0.000155372 -4.64048e-08
-7.6598e-08 -4.64048e-08 7.33775e-05
0.00117619 4.82727e-05 2.87844e-07
4.82727e-05 0.000131138 1.15868e-06
2.87844e-07 1.15868e-06 3.94375e-05
0.0009111 2.46044e-05 2.25965e-07
2.46044e-05 1.98725e-06 1.5416e-06
2.25965e-07 1.5416e-06 -7.34646e-05
0.000853129 -1.1665e-06 2.59926e-07
-1.1665e-06 -2.38809e-05 3.13381e-07
2.59926e-07 3.13381e-07 -8.78677e-05
0.00077315 -2.47772e-05 -9.14628e-07
-2.47772e-05 -7.00631e-05 1.46389e-06
-9.14628e-07 1.46389e-06 -0.000119828
0.00107197 5.87248e-06 -7.39118e-09
5.87248e-06 8.53873e-05 6.95929e-07
-7.39118e-09 6.95929e-07 2.25114e-05
0.00119816 2.50653e-05 2.00856e-07
2.50653e-05 0.000149217 5.21553e-07
2.00856e-07 5.21553e-07 7.53737e-05
0.00100768 -1.21521e-05 -1.71627e-07
-1.21521e-05 5.41639e-05 9.73204e-07
-1.71627e-07 9.73204e-07 -1.16823e-05
0.00103372 -2.49542e-06 3.21831e-07
-2.49542e-06 6.68717e-05 -5.05851e-07
3.21831e-07 -5.05851e-07 3.07264e-06
0.000975564 -2.1445e-05 -7.60741e-07
-2.1445e-05 3.11233e-05 1.00018e-06
-7.60741e-07 1.00018e-06 -1.81456e-05
0.000797631 2.32491e-06 1.52059e-07
2.32491e-06 -5.83609e-05 4.83016e-07
1.52059e-07 4.83016e-07 -0.000108146
0.000957222 8.82656e-06 1.74672e-08
8.82656e-06 8.66646e-06 1.71762e-06
1.74672e-08 1.71762e-06 -2.03835e-05
0.000951061 1.46332e-06 -2.39459e-07
1.46332e-06 5.68859e-06 -4.67868e-09
-2.39459e-07 -4.67868e-09 -2.28908e-05
0.000920952 2.68403e-06 -3.70619e-07
2.68403e-06 -2.3964e-05 4.38625e-06
-3.70619e-07 4.38625e-06 -2.41907e-05
0.000952813 -8.55569e-06 3.97331e-07
-8.55569e-06 6.36147e-06 -1.69262e-06
3.97331e-07 -1.69262e-06 -2.19105e-05
0.000905367 -3.72046e-08 9.4024e-08
-3.72046e-08 -3.24528e-05 1.40357e-09
9.4024e-08 1.40357e-09 -3.23622e-05
0.00226399 -9.04044e-07 -9.92975e-09
-9.04044e-07 0.00065411 4.03849e-06
-9.92975e-09 4.03849e-06 0.00067768
0.000922252 -2.73207e-06 -4.47076e-07
-2.73207e-06 -2.31357e-05 -4.40135e-06
-4.47076e-07 -4.40135e-06 -2.31159e-05
0.00167448 -3.96604e-06 -1.10686e-07
-3.96604e-06 0.000355891 3.07707e-08
-1.10686e-07 3.07707e-08 0.000376561
0.00104803 -6.4779e-06 -7.30736e-07
-6.4779e-06 4.00559e-05 -1.55585e-06
-7.30736e-07 -1.55585e-06 5.79754e-05
0.000966874 2.69478e-06 1.65809e-07
2.69478e-06 7.59869e-06 -1.85269e-06
1.65809e-07 -1.85269e-06 -1.62813e-05
0.000962327 4.81853e-06 -1.0124e-08
4.81853e-06 6.3774e-06 -9.30737e-09
-1.0124e-08 -9.30737e-09 -1.828e-05
0.000894507 6.30756e-06 5.562e-07
6.30756e-06 -3.64787e-05 -3.19719e-06
5.562e-07 -3.19719e-06 -3.43555e-05
0.00095599 7.13794e-06 -5.6384e-07
7.13794e-06 4.91567e-06 1.85597e-06
-5.6384e-07 1.85597e-06 -2.10672e-05
0.00117154 9.86965e-06 -1.28754e-07
9.86965e-06 0.000106622 -6.06079e-07
-1.28754e-07 -6.06079e-07 0.000108931
0.00220754 1.17038e-05 6.64007e-06
1.17038e-05 0.000629927 -3.9106e-06
6.64007e-06 -3.9106e-06 0.000653435
0.0008987 1.1919e-05 -1.40427e-06
1.1919e-05 -2.76342e-05 3.2191e-06
-1.40427e-06 3.2191e-06 -2.85229e-05
0.00226682 1.5238e-05 -3.3627e-06
1.5238e-05 0.000664461 1.14071e-06
-3.3627e-06 1.14071e-06 0.000686674
0.00228859 1.94851e-05 -1.18001e-05
1.94851e-05 0.000680211 3.96775e-06
-1.18001e-05 3.96775e-06 0.000701242
0.00134615 -1.60424e-05 -2.70052e-06
-1.60424e-05 -5.06329e-06 -1.52166e-07
-2.70052e-06 -1.52166e-07 -7.36502e-05
0.0015 1.56663e-06 -2.67792e-06
1.56663e-06 9.25852e-05 -1.04135e-06
-2.67792e-06 -1.04135e-06 1.43137e-05
0.00142696 -1.98374e-05 1.85639e-06
-1.98374e-05 4.18753e-05 2.69002e-07
1.85639e-06 2.69002e-07 -2.28375e-05
0.00163877 -4.46664e-05 -1.21468e-06
-4.46664e-05 3.91718e-05 -2.11595e-06
-1.21468e-06 -2.11595e-06 1.25384e-05
0.00142771 1.49285e-06 -7.21532e-07
1.49285e-06 4.74372e-05 -3.93001e-07
-7.21532e-07 -3.93001e-07 -2.3208e-05
0.00129544 8.88279e-06 -9.60579e-07
8.88279e-06 -8.00829e-05 -4.30356e-07
-9.60579e-07 -4.30356e-07 -0.000130608
0.00162287 3.05565e-05 2.21516e-06
3.05565e-05 6.75094e-05 2.63752e-06
2.21516e-06 2.63752e-06 -6.88602e-06
0.00225306 -0.000112261 0.000124758
-0.000112261 0.000457577 3.67633e-05
0.000124758 3.67633e-05 0.000230103
0.00129291 -2.77628e-06 -3.8571e-06
-2.77628e-06 5.63563e-05 2.12252e-07
-3.8571e-06 2.12252e-07 1.81708e-05
0.000986129 -4.78789e-07 -2.3021e-07
-4.78789e-07 3.19902e-05 -1.10296e-06
-2.3021e-07 -1.10296e-06 -9.54122e-06
0.000991247 -1.28042e-05 2.40842e-07
-1.28042e-05 3.44168e-05 1.86114e-09
2.40842e-07 1.86114e-09 -7.51205e-06
0.00100654 9.14803e-06 -2.16921e-07
9.14803e-06 5.15001e-05 -7.82698e-07
-2.16921e-07 -7.82698e-07 -3.70154e-06
0.00101412 -1.17246e-05 -2.24506e-07
-1.17246e-05 5.47716e-05 -3.19476e-07
-2.24506e-07 -3.19476e-07 -4.53979e-07
0.00156192 2.9425e-05 -3.18168e-06
2.9425e-05 9.00125e-05 -7.13092e-07
-3.18168e-06 -7.13092e-07 1.4575e-05
0.00172345 -8.98269e-06 -5.94394e-07
-8.98269e-06 0.000132785 1.61554e-06
-5.94394e-07 1.61554e-06 7.45274e-05
0.00128682 -5.63106e-05 -3.89521e-06
-5.63106e-05 -8.85633e-05 9.47202e-07
-3.89521e-06 9.47202e-07 -0.000121969
0.00106635 -5.55924e-05 -4.35334e-07
-5.55924e-05 7.12486e-05 2.76848e-06
-4.35334e-07 2.76848e-06 -1.61709e-05
0.000804165 -6.0536e-05 -4.57066e-07
-6.0536e-05 -6.45978e-05 2.59944e-06
-4.57066e-07 2.59944e-06 -0.000181285
0.00108012 -6.68715e-05 -3.33492e-06
-6.68715e-05 -6.02631e-05 -3.25959e-07
-3.33492e-06 -3.25959e-07 -0.000138337
0.000941276 -5.32866e-05 -3.63405e-06
-5.32866e-05 2.54664e-05 1.37479e-06
-3.63405e-06 1.37479e-06 -6.75468e-05
0.00112146 -3.94207e-05 -1.07692e-06
-3.94207e-05 0.000123825 6.10368e-07
-1.07692e-06 6.10368e-07 2.26719e-05
0.00107129 -4.38921e-05 -4.28925e-07
-4.38921e-05 9.09509e-05 1.74237e-06
-4.28925e-07 1.74237e-06 -4.17803e-07
0.000982674 -2.01519e-06 -6.1639e-07
-2.01519e-06 3.14958e-05 1.30672e-06
-6.1639e-07 1.30672e-06 -1.4981e-05
0.00112306 -3.29873e-05 -1.28865e-07
-3.29873e-05 0.000109642 9.60526e-07
-1.28865e-07 9.60526e-07 2.96139e-05
0.00105695 2.1303e-06 -5.06237e-07
2.1303e-06 7.60198e-05 1.14965e-06
-5.06237e-07 1.14965e-06 1.22996e-05
0.00100931 -6.12793e-06 -1.10281e-07
-6.12793e-06 4.33064e-05 7.10525e-07
-1.10281e-07 7.10525e-07 4.93992e-07
0.000839604 1.12022e-05 -1.89128e-07
1.12022e-05 -3.09141e-05 1.77026e-06
-1.89128e-07 1.77026e-06 -9.19012e-05
0.00155964 2.7052e-05 9.46938e-08
2.7052e-05 7.16615e-05 1.39942e-06
9.46938e-08 1.39942e-06 1.68381e-06
0.000991422 1.35695e-05 4.65489e-08
1.35695e-05 4.50686e-05 -4.90602e-07
4.65489e-08 -4.90602e-07 -1.20088e-05
0.000957786 -1.55328e-06 3.51709e-07
-1.55328e-06 2.79723e-05 -1.0471e-08
3.51709e-07 -1.0471e-08 -3.46018e-05
0.00104236 2.0861e-05 -5.3658e-08
2.0861e-05 7.33761e-05 9.65048e-07
-5.3658e-08 9.65048e-07 3.74537e-06
0.00179945 -3.41016e-05 -2.46592e-06
-3.41016e-05 0.000121366 8.64152e-07
-2.46592e-06 8.64152e-07 9.65724e-05
0.00136572 -7.53848e-05 -9.68433e-07
-7.53848e-05 -2.37122e-05 -1.05035e-06
-9.68433e-07 -1.05035e-06 -7.79073e-05
0.00109181 -6.29063e-05 9.18643e-08
-6.29063e-05 0.000107441 -2.91984e-07
9.18643e-08 -2.91984e-07 4.22756e-06
0.00142095 -8.07761e-05 2.31377e-07
-8.07761e-05 0.00019697 4.57421e-07
2.31377e-07 4.57421e-07 8.67744e-05
0.00114607 -2.7579e-05 -1.56589e-07
-2.7579e-05 0.000124508 8.18309e-08
-1.56589e-07 8.18309e-08 4.78397e-05
0.00103967 -3.70061e-05 -2.75901e-07
-3.70061e-05 6.9857e-05 7.35912e-07
-2.75901e-07 7.35912e-07 -1.68628e-05
0.00105221 -4.89064e-05 1.44776e-06
-4.89064e-05 0.000108202 -2.41542e-07
1.44776e-06 -2.41542e-07 -7.70905e-06
0.00117709 -4.12639e-05 9.84367e-08
-4.12639e-05 0.000153407 -5.35503e-07
9.84367e-08 -5.35503e-07 5.2938e-05
0.000974873 1.86888e-05 4.27193e-06
1.86888e-05 -0.000289951 -1.18782e-06
4.27193e-06 -1.18782e-06 -0.000344728
0.00238349 -8.84868e-05 1.03119e-05
-8.84868e-05 0.000342544 -5.76591e-06
1.03119e-05 -5.76591e-06 0.000316582
0.00162058 -9.27334e-05 6.02913e-06
-9.27334e-05 0.000211864 -9.30323e-07
6.02913e-06 -9.30323e-07 0.000107371
0.00112201 -7.48022e-05 1.05217e-06
-7.48022e-05 0.000125853 -2.52875e-06
1.05217e-06 -2.52875e-06 9.41447e-06
0.000961207 1.50889e-05 -3.34879e-07
1.50889e-05 3.51791e-05 -9.06002e-07
-3.34879e-07 -9.06002e-07 -3.84251e-05
0.000977741 -3.08655e-05 7.60597e-07
-3.08655e-05 4.26739e-05 -1.75088e-06
7.60597e-07 -1.75088e-06 -3.25627e-05
0.00104756 -4.85623e-05 5.28833e-07
-4.85623e-05 7.96107e-05 -1.19909e-06
5.28833e-07 -1.19909e-06 -1.21462e-05
0.0011448 -3.15611e-05 -3.65782e-07
-3.15611e-05 0.000155697 -1.15588e-06
-3.65782e-07 -1.15588e-06 2.87755e-05
0.00078771 -7.30007e-06 -4.59137e-06
-7.30007e-06 -0.000228057 -1.4782e-06
-4.59137e-06 -1.4782e-06 -0.000705931
0.00113945 5.12878e-05 -2.82263e-07
5.12878e-05 0.000123271 -3.31778e-07
-2.82263e-07 -3.31778e-07 3.50838e-05
0.00100683 5.06064e-05 2.44109e-07
5.06064e-05 4.37284e-05 -4.89811e-08
2.44109e-07 -4.89811e-08 -4.81372e-05
0.00126424 3.46036e-05 -7.48258e-06
3.46036e-05 -0.000192959 -1.23407e-07
-7.48258e-06 -1.23407e-07 -0.000235542
0.00178453 8.44861e-05 -4.89822e-06
8.44861e-05 0.000133524 -2.03642e-06
-4.89822e-06 -2.03642e-06 5.77323e-05
0.00137131 7.93965e-05 -1.77116e-06
7.93965e-05 0.000180369 -7.40146e-07
-1.77116e-06 -7.40146e-07 4.83899e-05
0.000962801 5.36114e-05 1.06909e-06
5.36114e-05 3.78254e-05 -4.08897e-07
1.06909e-06 -4.08897e-07 -7.27096e-05
0.00146756 -1.21849e-05 -4.33224e-06
-1.21849e-05 -0.000133227 -6.95114e-07
-4.33224e-06 -6.95114e-07 -0.000122499
0.00117573 5.29189e-05 -1.60087e-08
5.29189e-05 0.000136332 -1.19604e-07
-1.60087e-08 -1.19604e-07 4.40219e-05
0.00164821 9.60554e-05 3.09067e-07
9.60554e-05 -5.09997e-05 -2.83155e-07
3.09067e-07 -2.83155e-07 -0.000117551
0.0011283 5.4467e-05 5.35092e-07
5.4467e-05 0.000113141 1.04282e-08
5.35092e-07 1.04282e-08 1.42067e-05
0.0010915 6.33151e-05 -3.41268e-07
6.33151e-05 0.000121018 -1.02114e-07
-3.41268e-07 -1.02114e-07 -1.14421e-05
0.00075872 8.76753e-05 -1.92887e-06
8.76753e-05 -0.000197836 1.89596e-07
-1.92887e-06 1.89596e-07 -0.000310723
0.00156927 -7.26903e-05 -1.27251e-05
-7.26903e-05 0.000264074 -4.998e-06
-1.27251e-05 -4.998e-06 -0.000251697
0.00221743 -0.000107299 3.2695e-06
-0.000107299 0.000194377 -4.05968e-06
3.2695e-06 -4.05968e-06 -8.72774e-05
0.00199718 5.82614e-05 -1.24227e-06
5.82614e-05 0.000166853 8.32733e-08
-1.24227e-06 8.32733e-08 0.000208981
-0.000171655 -0.000114843 -9.69186e-06
-0.000114843 -0.000463169 -5.39054e-06
-9.69186e-06 -5.39054e-06 -0.000527861
0.000489494 -0.000147351 -2.43425e-06
-0.000147351 -0.000512684 -1.47119e-06
-2.43425e-06 -1.47119e-06 -0.000114554
0.00111124 5.19636e-05 1.28097e-06
5.19636e-05 0.00010613 -2.30763e-08
1.28097e-06 -2.30763e-08 1.16467e-05
-1.32125e-05 2.7052e-05 -0.000101881
2.7052e-05 -0.000353891 -9.50796e-06
-0.000101881 -9.50796e-06 -0.000552987
0.00244092 -6.80228e-05 1.33369e-07
-6.80228e-05 0.000943871 -1.48053e-06
1.33369e-07 -1.48053e-06 0.00108503
0.00165645 0.000123187 6.34922e-06
0.000123187 0.000106036 5.98584e-06
6.34922e-06 5.98584e-06 2.58758e-05
0.000860672 3.65389e-05 -1.6432e-07
3.65389e-05 -7.87443e-06 -5.23652e-07
-1.6432e-07 -5.23652e-07 -0.000118199
0.00155476 5.82054e-05 -3.92755e-06
5.82054e-05 0.000394689 2.38837e-06
-3.92755e-06 2.38837e-06 0.000226652
0.00161438 4.72578e-05 -7.70368e-06
4.72578e-05 8.96236e-05 -7.25015e-06
-7.70368e-06 -7.25015e-06 3.1424e-05
0.0051134 -0.00016628 -7.04075e-05
-0.00016628 0.00154709 -1.65004e-05
-7.04075e-05 -1.65004e-05 0.00085668
0.00185074 -3.62679e-05 2.57039e-05
-3.62679e-05 6.05279e-05 2.6292e-05
2.57039e-05 2.6292e-05 -0.000293901
0.00033782 -0.000189897 -5.7319e-05
-0.000189897 -0.000131372 -2.70506e-05
-5.7319e-05 -2.70506e-05 -3.51667e-05
-0.000825355 -7.11491e-05 -1.81763e-06
-7.11491e-05 -0.00123608 7.66804e-06
-1.81763e-06 7.66804e-06 -0.00102808
0.00110314 5.03534e-05 -1.09212e-06
5.03534e-05 9.89705e-05 -7.80433e-07
-1.09212e-06 -7.80433e-07 8.14238e-06
0.00116492 5.11929e-05 -4.73649e-07
5.11929e-05 0.000114255 2.80187e-07
-4.73649e-07 2.80187e-07 2.02582e-05
0.00124957 5.35598e-05 -1.75313e-07
5.35598e-05 0.000146084 3.8748e-07
-1.75313e-07 3.8748e-07 4.8093e-05
0.000983825 2.49467e-06 2.81741e-09
2.49467e-06 3.56721e-05 -5.21016e-07
2.81741e-09 -5.21016e-07 -1.25156e-05
0.00102579 -3.58428e-06 1.48285e-07
-3.58428e-06 6.36193e-05 -1.02968e-06
1.48285e-07 -1.02968e-06 1.28057e-06
0.000955016 2.79928e-05 -7.21661e-07
2.79928e-05 2.4162e-05 -1.29835e-06
-7.21661e-07 -1.29835e-06 -5.07198e-05
0.00105808 3.53561e-05 -4.43241e-07
3.53561e-05 7.39997e-05 -1.22647e-06
-4.43241e-07 -1.22647e-06 -8.4763e-06
0.00111151 4.18075e-05 -5.81457e-07
4.18075e-05 9.33234e-05 -1.10401e-06
-5.81457e-07 -1.10401e-06 2.918e-06
0.000783173 -6.22708e-06 2.6916e-07
-6.22708e-06 -6.5407e-05 4.71856e-07
2.6916e-07 4.71856e-07 -0.000115024
0.00111321 4.44546e-05 -4.24825e-07
4.44546e-05 0.000102939 -7.27683e-07
-4.24825e-07 -7.27683e-07 2.13601e-05
0.00106809 1.17136e-05 1.02897e-08
1.17136e-05 8.19179e-05 4.80199e-07
1.02897e-08 4.80199e-07 7.35255e-06
0.000942983 7.45188e-06 1.83377e-07
7.45188e-06 2.10216e-05 -3.9915e-07
1.83377e-07 -3.9915e-07 -4.23473e-05
0.0010479 4.53846e-05 -8.44943e-10
4.53846e-05 6.5214e-05 2.65753e-07
-8.44943e-10 2.65753e-07 -2.74352e-05
0.00109624 4.03077e-05 2.35672e-08
4.03077e-05 9.3777e-05 6.07357e-07
2.35672e-08 6.07357e-07 7.86204e-06
0.00122023 4.83491e-05 2.66047e-07
4.83491e-05 0.000169274 8.88122e-07
2.66047e-07 8.88122e-07 6.55414e-05
0.00103978 -2.9367e-05 -3.86782e-07
-2.9367e-05 6.84135e-05 7.59703e-07
-3.86782e-07 7.59703e-07 -6.13631e-06
0.00105812 -2.23403e-05 -2.41064e-07
-2.23403e-05 7.83482e-05 2.4676e-07
-2.41064e-07 2.4676e-07 1.54266e-05
0.00106748 -6.50098e-06 -1.95315e-07
-6.50098e-06 8.31696e-05 -5.22212e-08
-1.95315e-07 -5.22212e-08 2.04152e-05
0.00107001 8.89472e-06 -1.28988e-07
8.89472e-06 8.33512e-05 -4.31708e-07
-1.28988e-07 -4.31708e-07 8.982e-06
0.00106064 8.4715e-06 9.71164e-08
8.4715e-06 7.97728e-05 8.95328e-07
9.71164e-08 8.95328e-07 4.99186e-06
0.00104923 -3.1236e-06 -4.71741e-08
-3.1236e-06 7.3964e-05 1.01595e-06
-4.71741e-08 1.01595e-06 -2.20374e-06
0.00114833 5.84549e-06 -1.55996e-08
5.84549e-06 0.000118871 4.36826e-08
-1.55996e-08 4.36826e-08 3.76897e-05
0.00102448 -3.41699e-05 -6.31947e-07
-3.41699e-05 6.71262e-05 9.39777e-07
-6.31947e-07 9.39777e-07 -1.63133e-05
0.00101657 -1.78037e-05 -2.30846e-07
-1.78037e-05 5.74507e-05 1.0199e-06
-2.30846e-07 1.0199e-06 -1.06285e-05
0.00101067 -1.44655e-05 3.88665e-08
-1.44655e-05 5.55303e-05 -1.93422e-08
3.88665e-08 -1.93422e-08 -1.01641e-05
0.000984021 -1.11419e-05 -5.22868e-07
-1.11419e-05 3.41056e-05 1.11869e-06
-5.22868e-07 1.11869e-06 -1.62542e-05
0.000871164 -5.40628e-06 3.31226e-07
-5.40628e-06 -1.61227e-05 -1.35418e-06
3.31226e-07 -1.35418e-06 -8.04514e-05
0.000888325 -1.12878e-05 1.21678e-07
-1.12878e-05 -1.33644e-05 -6.03634e-09
1.21678e-07 -6.03634e-09 -6.29319e-05
0.000962838 5.72911e-06 -3.1331e-07
5.72911e-06 1.14169e-05 1.74671e-06
-3.1331e-07 1.74671e-06 -1.83454e-05
0.000798336 2.03041e-06 1.21838e-07
2.03041e-06 -5.79479e-05 -5.21234e-07
1.21838e-07 -5.21234e-07 -0.00010764
0.000955172 7.96122e-07 -1.61407e-07
7.96122e-07 7.51371e-06 -1.46952e-08
-1.61407e-07 -1.46952e-08 -2.15174e-05
0.0015075 5.84014e-06 -2.22296e-06
5.84014e-06 0.000275034 4.35267e-06
-2.22296e-06 4.35267e-06 0.000277287
0.000949372 -7.9117e-06 5.39315e-07
-7.9117e-06 4.81203e-06 -1.69081e-06
5.39315e-07 -1.69081e-06 -2.37608e-05
0.00120847 2.88724e-06 -7.82414e-07
2.88724e-06 0.000121827 6.15388e-07
-7.82414e-07 6.15388e-07 0.000123061
0.00109757 1.80082e-06 -1.80059e-06
1.80082e-06 6.26316e-05 3.93633e-06
-1.80059e-06 3.93633e-06 8.03852e-05
0.000909431 -1.00601e-07 4.98079e-08
-1.00601e-07 -3.0378e-05 -3.11319e-06
4.98079e-08 -3.11319e-06 -3.03151e-05
0.00226196 -7.12173e-07 1.05834e-06
-7.12173e-07 0.000653083 -2.28409e-11
1.05834e-06 -2.28409e-11 0.000676654
0.00109359 -2.83578e-06 -8.55418e-07
-2.83578e-06 6.12588e-05 -3.93907e-06
-8.55418e-07 -3.93907e-06 7.91233e-05
0.000995163 1.8034e-05 1.79514e-07
1.8034e-05 3.63229e-05 -5.89816e-07
1.79514e-07 -5.89816e-07 -5.83008e-06
0.000966608 5.74658e-07 4.02603e-08
5.74658e-07 7.03867e-06 -1.83209e-06
4.02603e-08 -1.83209e-06 -1.6665e-05
0.000965587 2.3519e-06 -4.22051e-08
2.3519e-06 6.76022e-06 -1.4007e-08
-4.22051e-08 -1.4007e-08 -1.70998e-05
0.000901838 3.25009e-06 2.53518e-07
3.25009e-06 -3.45322e-05 -3.20993e-06
2.53518e-07 -3.20993e-06 -3.17031e-05
0.000960069 4.5021e-06 -4.0929e-07
4.5021e-06 5.00046e-06 1.86389e-06
-4.0929e-07 1.86389e-06 -1.96249e-05
0.000898375 6.35058e-06 5.22849e-08
6.35058e-06 -3.47888e-05 -6.20674e-07
5.22849e-08 -6.20674e-07 -3.25983e-05
0.00218072 7.79958e-06 4.34512e-06
7.79958e-06 0.000613738 -3.93375e-06
4.34512e-06 -3.93375e-06 0.000637976
0.0014499 1.11233e-05 -1.25787e-06
1.11233e-05 0.000247986 1.97732e-06
-1.25787e-06 1.97732e-06 0.000251469
0.00166398 1.0405e-05 1.83434e-07
1.0405e-05 0.000355157 1.21002e-06
1.83434e-07 1.21002e-06 0.00037559
0.00113512 1.20571e-05 -9.3753e-06
1.20571e-05 9.11545e-05 6.43459e-06
-9.3753e-06 6.43459e-06 0.0001076
0.000569607 -3.36657e-05 -4.97971e-06
-3.36657e-05 -0.000471738 1.64177e-06
-4.97971e-06 1.64177e-06 -0.000489937
0.00133368 -1.33722e-06 -2.66139e-06
-1.33722e-06 1.99062e-06 -5.95707e-07
-2.66139e-06 -5.95707e-07 -6.93443e-05
0.000903505 7.30239e-06 -6.82146e-06
7.30239e-06 -0.000263913 -4.27421e-06
-6.82146e-06 -4.27421e-06 -0.000319884
0.00100663 -8.99092e-05 3.62951e-05
-8.99092e-05 5.38348e-05 6.14123e-06
3.62951e-05 6.14123e-06 -0.000160962
0.00115342 -9.55447e-06 -1.84065e-06
-9.55447e-06 -7.90211e-06 -5.47787e-07
-1.84065e-06 -5.47787e-07 -4.08704e-05
0.00143599 3.22522e-05 -1.71288e-06
3.22522e-05 -2.69916e-05 -1.43968e-06
-1.71288e-06 -1.43968e-06 -0.000101652
0.00123518 4.74327e-05 2.58496e-06
4.74327e-05 3.24156e-05 1.70541e-06
2.58496e-06 1.70541e-06 -2.16344e-05
0.000914944 -3.06559e-05 0.000104606
-3.06559e-05 1.30399e-06 7.53211e-06
0.000104606 7.53211e-06 -0.000234298
0.00450522 7.25757e-05 -2.09405e-05
7.25757e-05 0.00130119 -3.13939e-06
-2.09405e-05 -3.13939e-06 0.000678285
0.0026095 0.000185774 -3.92769e-05
0.000185774 0.000929463 1.95501e-05
-3.92769e-05 1.95501e-05 0.00085839
0.00110416 0.000113785 -9.26101e-06
0.000113785 -1.62997e-05 1.45315e-06
-9.26101e-06 1.45315e-06 0.000275649
0.000804549 -2.24706e-06 6.29943e-07
-2.24706e-06 -4.92095e-05 -1.16641e-06
6.29943e-07 -1.16641e-06 -0.00010553
0.000990102 -6.25149e-06 -8.58351e-08
-6.25149e-06 3.38734e-05 2.47635e-10
-8.58351e-08 2.47635e-10 -7.58204e-06
0.00100035 -2.07352e-05 -5.69379e-07
-2.07352e-05 3.93186e-05 1.13532e-06
-5.69379e-07 1.13532e-06 -2.91794e-06
0.000932187 1.27263e-05 -1.6679e-07
1.27263e-05 1.48894e-05 9.77453e-09
-1.6679e-07 9.77453e-09 -4.09086e-05
0.0011225 3.60254e-05 1.77031e-07
3.60254e-05 0.000115244 9.51454e-08
1.77031e-07 9.51454e-08 4.91505e-05
0.00107942 4.29163e-05 2.07934e-07
4.29163e-05 9.1603e-05 2.59014e-08
2.07934e-07 2.59014e-08 2.75141e-05
0.00103771 4.33175e-06 4.02025e-07
4.33175e-06 6.79992e-05 -1.6365e-06
4.02025e-07 -1.6365e-06 1.08371e-05
0.000949848 -1.58513e-05 -2.20872e-07
-1.58513e-05 2.26254e-05 4.88844e-07
-2.20872e-07 4.88844e-07 -3.29404e-05
0.0017089 2.72752e-05 -3.13542e-06
2.72752e-05 0.000148438 4.29291e-07
-3.13542e-06 4.29291e-07 7.98782e-05
0.00153368 -3.44851e-05 -2.70197e-06
-3.44851e-05 -1.01145e-06 1.67146e-06
-2.70197e-06 1.67146e-06 -3.04838e-05
0.00110809 -7.0282e-05 -8.48818e-06
-7.0282e-05 -0.000149574 -3.56615e-07
-8.48818e-06 -3.56615e-07 -0.000201434
0.00115565 -6.40281e-05 -4.18963e-07
-6.40281e-05 0.000136433 2.11926e-06
-4.18963e-07 2.11926e-06 3.3182e-05
0.00128579 -7.80806e-05 -1.61051e-06
-7.80806e-05 0.000134066 2.54589e-06
-1.61051e-06 2.54589e-06 2.42833e-05
0.00104983 -4.92151e-05 -4.64454e-07
-4.92151e-05 0.00010254 9.46596e-07
-4.64454e-07 9.46596e-07 -9.07009e-06
0.00124383 -4.54691e-05 1.71894e-07
-4.54691e-05 0.000186936 7.49286e-07
1.71894e-07 7.49286e-07 8.49464e-05
0.0010054 -3.73201e-05 -6.03797e-07
-3.73201e-05 5.16711e-05 1.38129e-06
-6.03797e-07 1.38129e-06 -3.46438e-05
0.00101928 -1.10931e-05 -3.54477e-07
-1.10931e-05 5.95298e-05 1.28181e-06
-3.54477e-07 1.28181e-06 -2.38211e-06
0.00118078 -1.88324e-05 -3.04811e-07
-1.88324e-05 0.000141893 9.79373e-07
-3.04811e-07 9.79373e-07 6.61402e-05
0.00119983 6.26613e-06 -2.84442e-07
6.26613e-06 0.000149336 5.35949e-07
-2.84442e-07 5.35949e-07 9.38078e-05
0.000937876 2.62634e-05 3.39008e-07
2.62634e-05 1.98418e-05 2.23111e-06
3.39008e-07 2.23111e-06 -4.90552e-05
0.00170642 2.86707e-05 7.69667e-07
2.86707e-05 5.40632e-05 -2.86165e-06
7.69667e-07 -2.86165e-06 6.81399e-07
0.000991093 1.57463e-05 -2.23955e-07
1.57463e-05 5.04173e-05 2.86846e-07
-2.23955e-07 2.86846e-07 -2.25849e-05
0.00102847 -3.13801e-05 1.42282e-07
-3.13801e-05 6.84628e-05 -4.37042e-07
1.42282e-07 -4.37042e-07 -6.76589e-06
0.00177072 -8.10602e-05 -4.52124e-06
-8.10602e-05 5.13743e-05 -1.11084e-06
-4.52124e-06 -1.11084e-06 3.19128e-05
0.000942085 -8.08114e-05 1.69547e-06
-8.08114e-05 -0.000114226 1.45128e-06
1.69547e-06 1.45128e-06 -0.000215865
0.00112137 -7.58182e-05 2.2673e-07
-7.58182e-05 0.00012478 -5.69619e-07
2.2673e-07 -5.69619e-07 2.84734e-06
0.00108224 -4.22714e-05 -1.96817e-08
-4.22714e-05 9.49873e-05 -1.5393e-07
-1.96817e-08 -1.5393e-07 3.32539e-06
0.0011366 -3.42949e-05 -1.38587e-07
-3.42949e-05 0.000150454 2.32956e-07
-1.38587e-07 2.32956e-07 2.38243e-05
0.00164 -3.7786e-05 7.72793e-07
-3.7786e-05 -0.000179366 9.48711e-06
7.72793e-07 9.48711e-06 -0.000144032
0.00259813 -0.000143383 1.25493e-05
-0.000143383 0.000588148 -2.48115e-06
1.25493e-05 -2.48115e-06 0.000482286
0.000549984 -7.97399e-05 1.07786e-06
-7.97399e-05 -0.000198205 -3.15093e-06
1.07786e-06 -3.15093e-06 -0.000318747
0.00121628 -5.52414e-05 6.11638e-07
-5.52414e-05 0.000204353 -1.67074e-06
6.11638e-07 -1.67074e-06 4.65456e-05
0.000940342 -2.82451e-05 2.01907e-07
-2.82451e-05 2.79765e-05 -8.40065e-07
2.01907e-07 -8.40065e-07 -5.27663e-05
0.00104563 -2.80224e-05 7.35461e-07
-2.80224e-05 7.62356e-05 -1.50448e-06
7.35461e-07 -1.50448e-06 -1.04107e-05
0.00124412 -2.03389e-05 -4.59619e-09
-2.03389e-05 0.000183244 -1.01214e-06
-4.59619e-09 -1.01214e-06 7.58827e-05
-0.000597971 -1.20336e-05 -9.4308e-05
-1.20336e-05 -0.000561772 3.91138e-08
-9.4308e-05 3.91138e-08 -0.00057219
0.00489014 -2.38061e-05 -2.10486e-05
-2.38061e-05 0.00164036 -3.09192e-06
-2.10486e-05 -3.09192e-06 0.00114664
0.00119239 5.33774e-05 -1.97815e-07
5.33774e-05 0.000145295 -2.43017e-08
-1.97815e-07 -2.43017e-08 5.31798e-05
0.000979841 5.0579e-05 9.20084e-07
5.0579e-05 4.3336e-05 -1.24203e-06
9.20084e-07 -1.24203e-06 -5.55738e-05
0.00211424 0.000101336 -1.13539e-05
0.000101336 0.000158004 -9.49569e-07
-1.13539e-05 -9.49569e-07 9.17145e-05
0.00104858 9.17075e-05 -2.24452e-06
9.17075e-05 -6.16915e-05 -2.95802e-06
-2.24452e-06 -2.95802e-06 -0.000170966
0.00108099 6.28208e-05 1.42535e-06
6.28208e-05 0.000116474 -1.75951e-06
1.42535e-06 -1.75951e-06 -1.32429e-05
0.00462771 -3.12809e-05 2.05532e-05
-3.12809e-05 0.00140931 -1.11927e-05
2.05532e-05 -1.11927e-05 0.000786515
0.000895429 -0.000111291 -4.24026e-05
-0.000111291 -0.000153477 -1.67756e-05
-4.24026e-05 -1.67756e-05 -0.000377248
0.0016329 6.41698e-05 6.49606e-06
6.41698e-05 -7.79191e-06 -3.87859e-06
6.49606e-06 -3.87859e-06 3.03278e-05
0.00263033 -0.000160568 3.43662e-05
-0.000160568 0.00101073 1.18511e-05
3.43662e-05 1.18511e-05 0.000950796
-0.000200572 -0.000149819 1.23665e-05
-0.000149819 -0.00082425 1.17914e-05
1.23665e-05 1.17914e-05 -0.000482265
0.00111559 5.22379e-05 2.9167e-07
5.22379e-05 0.000104301 -2.60327e-07
2.9167e-07 -2.60327e-07 1.01064e-05
-0.000647643 -2.28527e-05 -1.73908e-05
-2.28527e-05 -0.000450298 -6.44523e-07
-1.73908e-05 -6.44523e-07 -0.000479082
0.00135872 -6.60474e-05 -1.91578e-06
-6.60474e-05 0.000324205 1.63136e-06
-1.91578e-06 1.63136e-06 0.00044596
0.00159796 0.000123941 6.52788e-07
0.000123941 7.69965e-05 1.03163e-06
6.52788e-07 1.03163e-06 -3.13688e-06
0.00115177 4.5891e-05 -1.22696e-07
4.5891e-05 0.000141022 -1.12638e-06
-1.22696e-07 -1.12638e-06 3.43462e-05
0.00132556 6.21021e-05 5.69758e-07
6.21021e-05 0.000280704 5.76908e-09
5.69758e-07 5.76908e-09 0.00011482
0.00170224 4.11575e-05 -2.05369e-05
4.11575e-05 0.000160535 -1.27378e-05
-2.05369e-05 -1.27378e-05 9.74836e-05
0.00412219 -8.18872e-05 7.69222e-06
-8.18872e-05 0.000994841 6.85186e-06
7.69222e-06 6.85186e-06 0.000257807
0.00111828 -4.08459e-05 -5.45314e-06
-4.08459e-05 -6.85113e-05 -1.42761e-05
-5.45314e-06 -1.42761e-05 -0.000203937
0.00266781 -0.000262756 7.61647e-06
-0.000262756 0.00063283 -1.39808e-06
7.61647e-06 -1.39808e-06 0.000649412
0.000264517 -8.02249e-05 -2.87572e-06
-8.02249e-05 -0.000612398 -1.88287e-06
-2.87572e-06 -1.88287e-06 -0.000364277
0.00104613 3.24578e-05 -9.63234e-07
3.24578e-05 3.99144e-05 -6.74718e-07
-9.63234e-07 -6.74718e-07 -5.44695e-05
0.000437765 -1.35962e-05 6.56327e-06
-1.35962e-05 -0.000100623 3.94402e-07
6.56327e-06 3.94402e-07 -9.83343e-05
0.000805097 -3.72306e-06 7.8795e-06
-3.72306e-06 6.79897e-05 6.21118e-06
7.8795e-06 6.21118e-06 7.34311e-06
0.000825188 5.93228e-05 1.13827e-05
5.93228e-05 -3.36086e-05 3.24068e-06
1.13827e-05 3.24068e-06 -0.000216345
0.00173432 3.80937e-05 -5.85201e-06
3.80937e-05 0.000486423 -5.96307e-09
-5.85201e-06 -5.96307e-09 0.00035677
0.00255977 -3.48427e-05 -8.24772e-06
-3.48427e-05 0.00093256 -3.0891e-06
-8.24772e-06 -3.0891e-06 0.000907133
0.000469519 0.000105491 -5.19017e-05
0.000105491 -9.28261e-05 9.99885e-07
-5.19017e-05 9.99885e-07 -0.000309876
0.00252636 -0.000195168 1.39741e-05
-0.000195168 0.000171294 2.70373e-05
1.39741e-05 2.70373e-05 -0.000594057
0.00348747 -0.00029398 -3.64469e-05
-0.00029398 0.000753025 -1.60089e-05
-3.64469e-05 -1.60089e-05 0.00081756
0.000103184 -1.36988e-05 -3.62349e-06
-1.36988e-05 -0.000564397 7.86718e-06
-3.62349e-06 7.86718e-06 -0.00053894
0.00120455 5.29179e-05 -7.09822e-07
5.29179e-05 0.000135293 3.83503e-07
-7.09822e-07 3.83503e-07 4.11357e-05
0.00115131 5.06126e-05 4.12762e-07
5.06126e-05 9.81793e-05 5.38702e-07
4.12762e-07 5.38702e-07 -2.61021e-07
0.000838786 4.70229e-05 1.63272e-06
4.70229e-05 -3.06358e-05 2.70109e-08
1.63272e-06 2.70109e-08 -0.000137698
0.00079329 1.20512e-05 7.35492e-08
1.20512e-05 -6.06209e-05 -5.05522e-07
7.35492e-08 -5.05522e-07 -0.000110132
0.00103096 1.39058e-05 -7.54417e-09
1.39058e-05 6.49834e-05 -1.14537e-06
-7.54417e-09 -1.14537e-06 2.28776e-06
0.00122851 -2.80734e-06 1.29156e-07
-2.80734e-06 0.000163641 -2.00901e-07
1.29156e-07 -2.00901e-07 8.98853e-05
0.0010148 3.63635e-05 -3.69962e-07
3.63635e-05 5.25587e-05 -1.47672e-06
-3.69962e-07 -1.47672e-06 -2.8654e-05
0.000910779 4.29848e-05 -3.74309e-07
4.29848e-05 -5.07779e-06 -5.97049e-07
-3.74309e-07 -5.97049e-07 -9.87135e-05
0.00104744 5.58855e-06 2.99028e-07
5.58855e-06 7.33325e-05 -4.74082e-07
2.99028e-07 -4.74082e-07 1.02117e-05
0.00107158 3.49309e-05 -1.35747e-07
3.49309e-05 8.23317e-05 -1.16412e-07
-1.35747e-07 -1.16412e-07 -2.60242e-06
0.00103523 -1.26212e-05 1.66482e-08
-1.26212e-05 6.62605e-05 7.00519e-08
1.66482e-08 7.00519e-08 -8.35186e-06
0.00110013 4.16552e-05 3.0057e-07
4.16552e-05 0.000110244 3.55166e-07
3.0057e-07 3.55166e-07 5.4339e-06
0.00120651 8.23936e-06 2.40175e-07
8.23936e-06 0.000172887 -4.90047e-07
2.40175e-07 -4.90047e-07 6.04425e-05
0.00117251 1.88054e-05 -4.58541e-07
1.88054e-05 0.000140375 1.34078e-06
-4.58541e-07 1.34078e-06 4.90728e-05
0.00108077 8.55966e-06 2.03319e-07
8.55966e-06 8.96816e-05 6.02264e-07
2.03319e-07 6.02264e-07 1.48714e-05
0.00105718 -1.39581e-05 8.88845e-09
-1.39581e-05 7.87595e-05 -8.09359e-07
8.88845e-09 -8.09359e-07 1.57265e-05
0.000943075 -1.44787e-05 1.02357e-07
-1.44787e-05 1.85168e-05 -1.4197e-06
1.02357e-07 -1.4197e-06 -5.66382e-05
0.00106145 -1.13644e-06 1.72752e-07
-1.13644e-06 7.97823e-05 4.24629e-08
1.72752e-07 4.24629e-08 5.37513e-06
0.00104375 -5.08923e-06 9.7711e-09
-5.08923e-06 7.15953e-05 3.18827e-08
9.7711e-09 3.18827e-08 -4.63832e-06
0.00108964 -6.1918e-06 -9.37951e-08
-6.1918e-06 8.77326e-05 -7.96491e-07
-9.37951e-08 -7.96491e-07 6.44989e-06
0.00100301 -1.69725e-05 -3.48716e-07
-1.69725e-05 5.36031e-05 1.37845e-06
-3.48716e-07 1.37845e-06 -2.59419e-05
0.00114511 7.94315e-06 5.18738e-08
7.94315e-06 0.000116388 2.46478e-07
5.18738e-08 2.46478e-07 3.39897e-05
0.000962391 -2.19806e-05 -1.45638e-07
-2.19806e-05 2.55072e-05 5.35329e-07
-1.45638e-07 5.35329e-07 -6.055e-05
0.00107363 -3.99494e-05 1.81263e-07
-3.99494e-05 8.66261e-05 -8.45945e-07
1.81263e-07 -8.45945e-07 -1.94071e-06
0.000832778 -4.47901e-05 1.79466e-07
-4.47901e-05 -1.95676e-05 1.79493e-07
1.79466e-07 1.79493e-07 -0.000104985
0.000950418 -4.34844e-05 -1.01082e-06
-4.34844e-05 3.24454e-05 -4.25585e-07
-1.01082e-06 -4.25585e-07 -5.16483e-05
0.00104923 -3.44129e-05 -2.29428e-07
-3.44129e-05 7.89505e-05 2.40056e-07
-2.29428e-07 2.40056e-07 -4.33751e-06
0.0010334 -2.96813e-05 -8.29379e-07
-2.96813e-05 6.68042e-05 1.44677e-06
-8.29379e-07 1.44677e-06 -4.74891e-06
0.00102444 -2.21047e-05 -2.07831e-08
-2.21047e-05 6.17473e-05 -1.14799e-08
-2.07831e-08 -1.14799e-08 -6.59931e-06
0.000989574 -4.21304e-06 -3.14511e-07
-4.21304e-06 3.53291e-05 1.2772e-06
-3.14511e-07 1.2772e-06 -1.6993e-05
0.00101316 -1.56822e-05 3.95452e-07
-1.56822e-05 5.68168e-05 -9.1204e-07
3.95452e-07 -9.1204e-07 -8.84095e-06
0.000984017 -8.39732e-06 7.51461e-08
-8.39732e-06 3.42004e-05 -3.8008e-08
7.51461e-08 -3.8008e-08 -1.61432e-05
0.000958919 6.52167e-06 -5.93907e-07
6.52167e-06 1.02913e-05 1.77075e-06
-5.93907e-07 1.77075e-06 -2.05016e-05
0.000797088 1.80566e-06 1.45851e-07
1.80566e-06 -5.98256e-05 -1.02969e-06
1.45851e-07 -1.02969e-06 -0.000109661
0.000957498 7.00435e-07 -9.70661e-08
7.00435e-07 8.54832e-06 -7.4689e-09
-9.70661e-08 -7.4689e-09 -2.12142e-05
0.00151006 8.80109e-06 -3.50806e-06
8.80109e-06 0.000278627 4.39034e-06
-3.50806e-06 4.39034e-06 0.000280185
0.000952585 -5.93946e-06 6.41345e-07
-5.93946e-06 6.09052e-06 -1.69809e-06
6.41345e-07 -1.69809e-06 -2.29257e-05
0.00120666 5.82282e-06 -1.23425e-06
5.82282e-06 0.000122444 6.05517e-07
-1.23425e-06 6.05517e-07 0.000123225
0.00105258 5.79638e-06 -7.51927e-07
5.79638e-06 4.15414e-05 1.56313e-06
-7.51927e-07 1.56313e-06 5.91122e-05
0.000907477 2.65396e-06 3.92833e-07
2.65396e-06 -3.10501e-05 -3.12753e-06
3.92833e-07 -3.12753e-06 -3.11958e-05
0.00226722 3.22808e-06 9.96602e-07
3.22808e-06 0.000656007 6.38392e-09
9.96602e-07 6.38392e-09 0.000679478
0.00225956 -5.19771e-07 1.05616e-06
-5.19771e-07 0.00065186 -4.0299e-06
1.05616e-06 -4.0299e-06 0.000675435
0.00124074 1.95026e-05 -6.44816e-07
1.95026e-05 0.000159303 -1.01406e-06
-6.44816e-07 -1.01406e-06 0.000117242
0.000964275 -1.08945e-06 -1.50463e-07
-1.08945e-06 6.07105e-06 -1.83479e-06
-1.50463e-07 -1.83479e-06 -1.81275e-05
0.000985427 5.33236e-06 3.54101e-07
5.33236e-06 3.13464e-05 4.88086e-07
3.54101e-07 4.88086e-07 -1.05984e-05
0.000906828 2.1587e-07 -3.48219e-08
2.1587e-07 -3.25104e-05 -3.20396e-06
-3.48219e-08 -3.20396e-06 -2.95278e-05
0.000967562 1.97916e-07 -2.27883e-08
1.97916e-07 7.49587e-06 -7.11054e-09
-2.27883e-08 -7.11054e-09 -1.62081e-05
0.000962752 2.01698e-06 -2.9831e-07
2.01698e-06 5.12647e-06 1.86824e-06
-2.9831e-07 1.86824e-06 -1.87048e-05
0.00090574 3.34077e-06 -9.4509e-08
3.34077e-06 -3.2608e-05 -2.95178e-09
-9.4509e-08 -2.95178e-09 -2.97974e-05
0.00216819 3.9091e-06 1.92297e-06
3.9091e-06 0.000605899 -3.95078e-06
1.92297e-06 -3.95078e-06 0.000630535
0.00144154 7.64573e-06 -8.73234e-07
7.64573e-06 0.000240716 1.97309e-06
-8.73234e-07 1.97309e-06 0.000245501
0.00163107 7.17671e-06 1.24535e-06
7.17671e-06 0.00033527 3.41943e-08
1.24535e-06 3.41943e-08 0.000356748
0.00113206 9.06672e-06 -7.61072e-06
9.06672e-06 8.51056e-05 6.36313e-06
-7.61072e-06 6.36313e-06 0.000102871
-0.002593 4.12159e-05 -5.95498e-05
4.12159e-05 -0.00160624 1.31267e-05
-5.95498e-05 1.31267e-05 -0.00162271
-0.00111103 5.07264e-05 -7.37026e-06
5.07264e-05 -0.001133 5.65799e-06
-7.37026e-06 5.65799e-06 -0.0010564
0.00063525 -7.74844e-05 -4.95246e-05
-7.74844e-05 -4.89204e-05 -1.48654e-05
-4.95246e-05 -1.48654e-05 -0.000267458
0.00126209 -1.69557e-05 -3.10619e-06
-1.69557e-05 5.16154e-05 -6.59863e-08
-3.10619e-06 -6.59863e-08 2.25636e-05
0.00126967 3.54183e-05 -1.21807e-05
3.54183e-05 -0.000111141 -1.49826e-06
-1.21807e-05 -1.49826e-06 -0.000186061
0.000751578 -3.17069e-05 1.99535e-05
-3.17069e-05 0.000110675 -6.2759e-07
1.99535e-05 -6.2759e-07 -1.48136e-05
0.00152009 5.30605e-05 2.36167e-06
5.30605e-05 0.000142828 1.73816e-06
2.36167e-06 1.73816e-06 8.43365e-05
0.00455706 0.000101985 -2.91302e-05
0.000101985 0.00135851 -1.10602e-07
-2.91302e-05 -1.10602e-07 0.000805633
-0.00153698 0.000102041 8.29226e-06
0.000102041 -0.000856185 -3.93313e-06
8.29226e-06 -3.93313e-06 -0.00086243
0.00050333 0.000125047 2.1871e-06
0.000125047 -0.000364024 -3.63879e-07
2.1871e-06 -3.63879e-07 -7.10291e-05
0.000765055 4.38334e-05 2.68089e-05
4.38334e-05 0.00018156 -1.35591e-05
2.68089e-05 -1.35591e-05 5.02334e-06
0.00427062 0.000223919 -2.16176e-05
0.000223919 0.00117806 1.4417e-05
-2.16176e-05 1.4417e-05 0.000589836
0.00024231 0.000170323 -5.74526e-05
0.000170323 -9.78212e-05 3.15947e-05
-5.74526e-05 3.15947e-05 -6.20568e-06
0.000442201 8.20648e-05 -2.29205e-06
8.20648e-05 -0.000650254 -1.92894e-06
-2.29205e-06 -1.92894e-06 -0.000309117
0.000937775 2.27638e-05 -2.67273e-07
2.27638e-05 2.44941e-05 -9.4139e-07
-2.67273e-07 -9.4139e-07 -4.48159e-05
0.000904511 9.87929e-06 8.89048e-10
9.87929e-06 2.19553e-07 -4.15577e-07
8.89048e-10 -4.15577e-07 -5.5517e-05
0.000989626 -1.65112e-05 -5.21833e-07
-1.65112e-05 3.37701e-05 1.09459e-06
-5.21833e-07 1.09459e-06 -7.77835e-06
0.000852462 1.51199e-05 -5.57758e-08
1.51199e-05 -2.48598e-05 8.77907e-07
-5.57758e-08 8.77907e-07 -8.10735e-05
0.00105516 3.63859e-05 5.08698e-07
3.63859e-05 8.23735e-05 9.32652e-07
5.08698e-07 9.32652e-07 1.70498e-05
0.00108974 2.70069e-05 -1.92566e-07
2.70069e-05 9.98416e-05 -8.33412e-07
-1.92566e-07 -8.33412e-07 3.16774e-05
0.00101927 2.11732e-05 6.3721e-07
2.11732e-05 6.09558e-05 9.53319e-07
6.3721e-07 9.53319e-07 -2.39847e-06
0.00102243 6.87196e-06 3.68433e-07
6.87196e-06 6.06185e-05 -7.18535e-07
3.68433e-07 -7.18535e-07 -8.3573e-07
0.000967267 -2.43979e-06 1.92405e-07
-2.43979e-06 3.27046e-05 -5.11683e-07
1.92405e-07 -5.11683e-07 -2.52411e-05
0.000872606 -1.5879e-05 -2.87467e-07
-1.5879e-05 -1.60288e-05 1.33202e-06
-2.87467e-07 1.33202e-06 -7.18064e-05
0.00230121 3.72586e-05 -7.14685e-06
3.72586e-05 0.000330967 2.9379e-06
-7.14685e-06 2.9379e-06 0.000278722
0.00126823 -7.60022e-05 -1.40011e-05
-7.60022e-05 -0.000190363 2.08177e-06
-1.40011e-05 2.08177e-06 -0.000204349
0.00020037 -6.75897e-05 -3.17948e-06
-6.75897e-05 -0.000470183 3.25739e-06
-3.17948e-06 3.25739e-06 -0.000568901
0.00107834 -7.57659e-05 -1.10167e-06
-7.57659e-05 0.000103482 2.72367e-06
-1.10167e-06 2.72367e-06 -2.3716e-05
0.00113264 -3.69633e-05 1.36823e-07
-3.69633e-05 0.000146603 1.20029e-06
1.36823e-07 1.20029e-06 2.11069e-05
0.0011178 -3.72729e-05 -1.84879e-07
-3.72729e-05 0.000110627 8.5372e-07
-1.84879e-07 8.5372e-07 1.90886e-05
0.00107433 -3.37772e-05 -3.96078e-07
-3.37772e-05 9.16452e-05 7.58524e-07
-3.96078e-07 7.58524e-07 1.65599e-05
0.00101849 1.63522e-05 -3.13436e-08
1.63522e-05 6.43308e-05 1.1924e-06
-3.13436e-08 1.1924e-06 -8.04976e-06
0.00192755 -3.89417e-05 -3.46975e-06
-3.89417e-05 -3.84255e-05 9.99134e-07
-3.46975e-06 9.99134e-07 -2.86952e-05
0.000937402 -1.29454e-05 -1.45915e-07
-1.29454e-05 2.65955e-05 -5.84815e-08
-1.45915e-07 -5.84815e-08 -5.45399e-05
0.00100913 -3.17085e-05 3.41088e-07
-3.17085e-05 5.68303e-05 -5.62255e-07
3.41088e-07 -5.62255e-07 -3.10817e-05
0.00176164 -0.0001238 2.55706e-06
-0.0001238 0.000174564 5.16709e-07
2.55706e-06 5.16709e-07 8.16537e-05
0.000722277 -8.29379e-05 -2.91276e-07
-8.29379e-05 -0.000109532 1.069e-06
-2.91276e-07 1.069e-06 -0.000230546
0.00120652 -5.35325e-05 5.69649e-07
-5.35325e-05 0.000192265 -1.96844e-07
5.69649e-07 -1.96844e-07 4.10691e-05
0.00120449 -2.00025e-05 -1.14484e-07
-2.00025e-05 0.00016427 -3.85234e-07
-1.14484e-07 -3.85234e-07 5.19389e-05
0.00229262 -0.000115753 1.04311e-06
-0.000115753 0.000112141 9.03537e-07
1.04311e-06 9.03537e-07 0.000166999
0.0016316 -0.00012098 2.14447e-06
-0.00012098 0.000367894 -5.5733e-06
2.14447e-06 -5.5733e-06 0.000191969
0.000909139 -2.19474e-06 -8.421e-07
-2.19474e-06 5.50457e-05 -9.90327e-07
-8.421e-07 -9.90327e-07 -9.57973e-05
0.00099599 2.83174e-05 1.66307e-07
2.83174e-05 5.48027e-05 -2.24788e-07
1.66307e-07 -2.24788e-07 -2.67631e-05
0.00106464 -3.83709e-05 4.24113e-07
-3.83709e-05 8.34155e-05 -1.12925e-06
4.24113e-07 -1.12925e-06 -6.10386e-06
0.00112214 2.69189e-06 1.73006e-07
2.69189e-06 0.000101323 -6.31843e-07
1.73006e-07 -6.31843e-07 5.05587e-06
0.00100262 -9.5558e-06 1.0511e-05
-9.5558e-06 0.000149579 7.50085e-07
1.0511e-05 7.50085e-07 0.000151271
0.00140932 -6.77435e-06 5.54189e-06
-6.77435e-06 0.000292501 -2.76065e-06
5.54189e-06 -2.76065e-06 0.000154467
0.000742189 6.88837e-05 -4.70347e-05
6.88837e-05 -0.000341176 4.4062e-06
-4.70347e-05 4.4062e-06 -0.000830674
0.00112588 5.26573e-05 -4.1964e-07
5.26573e-05 0.000104997 -4.64755e-07
-4.1964e-07 -4.64755e-07 1.11295e-05
0.00142639 5.54927e-05 2.24723e-06
5.54927e-05 0.000279835 -3.01009e-07
2.24723e-06 -3.01009e-07 0.000177143
0.00158677 0.000124845 -2.18189e-06
0.000124845 7.40286e-05 -4.36585e-06
-2.18189e-06 -4.36585e-06 -6.8126e-06
0.00104644 6.56729e-05 2.83661e-06
6.56729e-05 0.000145444 -3.472e-06
2.83661e-06 -3.472e-06 -1.95654e-05
0.00368263 -0.000109958 4.24555e-05
-0.000109958 0.00141221 4.25141e-06
4.24555e-05 4.25141e-06 0.00132005
0.000715966 -0.00016293 5.04511e-05
-0.00016293 -0.000356639 3.1422e-05
5.04511e-05 3.1422e-05 -0.00081043
0.0028371 -4.12283e-05 -5.44758e-05
-4.12283e-05 0.00041399 -6.32355e-05
-5.44758e-05 -6.32355e-05 0.00019008
0.00165262 2.65633e-05 7.56075e-06
2.65633e-05 0.000172307 -5.68898e-07
7.56075e-06 -5.68898e-07 0.000104712
-0.00188725 -0.000173211 5.95991e-05
-0.000173211 -0.00139939 2.11353e-05
5.95991e-05 2.11353e-05 -0.00130615
0.00246333 -6.86927e-05 5.66751e-06
-6.86927e-05 0.000915997 6.14519e-06
5.66751e-06 6.14519e-06 0.00104128
0.00150124 -9.75696e-05 -1.26577e-06
-9.75696e-05 5.92516e-05 -7.09331e-06
-1.26577e-06 -7.09331e-06 0.000347265
0.00120979 4.27203e-05 -7.6872e-08
4.27203e-05 0.000127803 3.62171e-07
-7.6872e-08 3.62171e-07 3.1744e-05
0.000711547 -2.26809e-05 2.20961e-06
-2.26809e-05 1.62402e-05 3.18556e-07
2.20961e-06 3.18556e-07 2.90578e-05
0.000705018 1.46828e-06 4.14174e-07
1.46828e-06 5.18686e-06 1.37218e-07
4.14174e-07 1.37218e-07 -5.36276e-05
0.00118826 6.97141e-05 7.57552e-07
6.97141e-05 0.000143587 1.95408e-06
7.57552e-07 1.95408e-06 -4.50346e-05
0.000975772 2.55497e-05 -1.03908e-07
2.55497e-05 0.000126885 -5.67365e-07
-1.03908e-07 -5.67365e-07 -6.47948e-06
0.0021551 -1.71757e-05 8.31461e-06
-1.71757e-05 0.000619944 7.22229e-06
8.31461e-06 7.22229e-06 0.000496387
0.00310938 0.000150868 -2.1809e-05
0.000150868 0.000792286 -2.57971e-05
-2.1809e-05 -2.57971e-05 0.00042253
0.00554207 -0.000223454 1.69688e-06
-0.000223454 0.00138316 5.2032e-06
1.69688e-06 5.2032e-06 0.000720148
0.000408789 -0.000217666 7.94704e-06
-0.000217666 -0.000365192 1.79652e-05
7.94704e-06 1.79652e-05 -0.000334347
0.00154473 -2.59505e-05 -1.09769e-06
-2.59505e-05 0.000243329 -4.64342e-07
-1.09769e-06 -4.64342e-07 0.000322584
0.00126393 5.02939e-05 1.24992e-07
5.02939e-05 0.000188023 -2.28817e-06
1.24992e-07 -2.28817e-06 0.000103843
0.0018446 2.26667e-06 1.0366e-05
2.26667e-06 0.000739832 5.50963e-06
1.0366e-05 5.50963e-06 0.000668797
0.000870728 1.55914e-05 4.05787e-06
1.55914e-05 2.75295e-05 4.50345e-06
4.05787e-06 4.50345e-06 -6.25714e-05
0.000537254 -1.51915e-05 -2.38532e-06
-1.51915e-05 -8.19133e-06 7.48341e-06
-2.38532e-06 7.48341e-06 -0.000140337
0.000756498 9.91174e-05 -5.39575e-06
9.91174e-05 0.000358178 3.38621e-05
-5.39575e-06 3.38621e-05 0.000197116
0.00505417 -0.000173434 -3.70137e-05
-0.000173434 0.000859679 -1.23795e-05
-3.70137e-05 -1.23795e-05 0.000116119
-0.000881331 -0.00012268 -3.09353e-05
-0.00012268 -0.00147697 -4.63655e-05
-3.09353e-05 -4.63655e-05 -0.00130838
0.00218854 -2.08076e-07 -5.71089e-07
-2.08076e-07 0.000693939 1.25007e-05
-5.71089e-07 1.25007e-05 0.000738667
0.00104087 4.82201e-05 -6.14788e-07
4.82201e-05 4.45823e-05 -7.57929e-07
-6.14788e-07 -7.57929e-07 -5.43861e-05
0.00112508 5.07345e-05 4.27743e-07
5.07345e-05 0.000104971 -2.90263e-08
4.27743e-07 -2.90263e-08 8.17798e-07
0.00149639 5.32547e-05 -4.76024e-07
5.32547e-05 0.000293803 -1.91486e-06
-4.76024e-07 -1.91486e-06 0.000188336
0.00104608 3.09309e-05 -4.78294e-07
3.09309e-05 7.22891e-05 -1.19602e-06
-4.78294e-07 -1.19602e-06 9.29372e-06
0.00103708 -1.1494e-06 9.56603e-08
-1.1494e-06 6.71658e-05 -6.1974e-07
9.56603e-08 -6.1974e-07 -7.51326e-06
0.00104255 2.98779e-05 -5.19379e-08
2.98779e-05 6.86597e-05 -8.66141e-07
-5.19379e-08 -8.66141e-07 -1.52411e-05
0.000995965 3.40879e-05 1.60222e-07
3.40879e-05 5.91497e-05 -5.44511e-07
1.60222e-07 -5.44511e-07 -4.65823e-05
0.00107659 1.49251e-05 1.61531e-07
1.49251e-05 8.68742e-05 1.27561e-08
1.61531e-07 1.27561e-08 1.24697e-05
0.00114354 1.97291e-05 -5.91458e-08
1.97291e-05 0.000124374 4.62468e-07
-5.91458e-08 4.62468e-07 3.4138e-05
0.00105568 1.16132e-05 3.6799e-07
1.16132e-05 0.000102739 -7.36661e-07
3.6799e-07 -7.36661e-07 -1.34485e-05
0.00128041 -9.79869e-07 2.09322e-07
-9.79869e-07 0.000226447 -1.61127e-08
2.09322e-07 -1.61127e-08 0.000113419
0.00113041 -2.29432e-05 2.34763e-08
-2.29432e-05 0.00012046 1.16222e-06
2.34763e-08 1.16222e-06 1.5674e-05
0.00119423 2.67973e-05 4.30401e-07
2.67973e-05 0.000142478 6.68154e-07
4.30401e-07 6.68154e-07 5.80409e-05
0.00106362 -1.03953e-05 4.43601e-07
-1.03953e-05 8.0585e-05 -7.78541e-07
4.43601e-07 -7.78541e-07 6.46132e-06
0.00103731 -5.1635e-06 1.71737e-07
-5.1635e-06 6.86907e-05 -9.47685e-07
1.71737e-07 -9.47685e-07 -7.61464e-06
0.00103403 -1.18631e-05 9.85651e-08
-1.18631e-05 5.74445e-05 -1.79389e-06
9.85651e-08 -1.79389e-06 -2.3526e-05
0.00114829 3.80637e-06 -1.80817e-07
3.80637e-06 0.000117241 -4.8722e-07
-1.80817e-07 -4.8722e-07 3.53078e-05
0.0010323 -1.39754e-05 1.35722e-08
-1.39754e-05 6.89693e-05 3.14917e-07
1.35722e-08 3.14917e-07 -1.08018e-05
0.00100835 -1.1937e-05 7.87093e-08
-1.1937e-05 4.61751e-05 -1.6331e-07
7.87093e-08 -1.6331e-07 -3.87682e-05
0.00104834 -3.22383e-05 -4.70443e-07
-3.22383e-05 7.18692e-05 3.92109e-07
-4.70443e-07 3.92109e-07 -1.71892e-05
0.0010792 -2.80466e-05 -2.74022e-08
-2.80466e-05 7.79314e-05 4.01401e-07
-2.74022e-08 4.01401e-07 -1.06725e-05
0.00107019 -4.9892e-05 2.43654e-07
-4.9892e-05 8.55324e-05 -2.48523e-08
2.43654e-07 -2.48523e-08 -6.84137e-06
0.00113056 -4.21751e-05 -3.69515e-07
-4.21751e-05 0.000115022 -9.6627e-08
-3.69515e-07 -9.6627e-08 2.65019e-05
0.000840645 -4.44122e-05 -3.07414e-07
-4.44122e-05 -1.45701e-05 9.06329e-07
-3.07414e-07 9.06329e-07 -0.000103904
0.00110545 -5.40503e-05 -1.11012e-06
-5.40503e-05 9.82653e-05 1.82515e-06
-1.11012e-06 1.82515e-06 1.03928e-05
0.00115897 -4.99667e-05 -1.36629e-08
-4.99667e-05 0.000130483 -1.00569e-06
-1.36629e-08 -1.00569e-06 5.23218e-05
0.000888026 -4.58704e-05 4.09872e-07
-4.58704e-05 1.04741e-05 -1.07758e-06
4.09872e-07 -1.07758e-06 -7.19515e-05
0.00103837 -4.57188e-05 3.37068e-07
-4.57188e-05 7.54174e-05 -3.90288e-07
3.37068e-07 -3.90288e-07 -8.11849e-06
0.000928283 -3.47964e-05 -8.33695e-07
-3.47964e-05 1.50085e-05 7.07327e-07
-8.33695e-07 7.07327e-07 -5.98818e-05
0.00107191 -3.51961e-05 3.30186e-08
-3.51961e-05 8.98847e-05 -1.69761e-07
3.30186e-08 -1.69761e-07 6.70156e-06
0.00103634 -3.07328e-05 -2.34465e-07
-3.07328e-05 6.83435e-05 4.64042e-07
-2.34465e-07 4.64042e-07 -3.27222e-06
0.00099372 -6.38475e-06 -4.48235e-07
-6.38475e-06 3.68571e-05 1.43735e-06
-4.48235e-07 1.43735e-06 -1.85379e-05
0.00103098 -2.64252e-05 4.49003e-07
-2.64252e-05 6.54512e-05 -1.05576e-06
4.49003e-07 -1.05576e-06 -3.20919e-06
0.0009882 -1.02434e-05 -8.39699e-08
-1.02434e-05 3.53408e-05 -5.55186e-08
-8.39699e-08 -5.55186e-08 -1.73394e-05
0.000950505 7.35291e-06 -7.58655e-07
7.35291e-06 7.5417e-06 1.88394e-06
-7.58655e-07 1.88394e-06 -2.46501e-05
0.000985785 -6.77369e-06 5.2795e-07
-6.77369e-06 3.52473e-05 -1.16257e-06
5.2795e-07 -1.16257e-06 -1.51307e-05
0.000953765 1.66336e-06 -1.57351e-07
1.66336e-06 7.46832e-06 -2.29517e-09
-1.57351e-07 -2.29517e-09 -2.33321e-05
0.00151405 1.16278e-05 -4.79461e-06
1.16278e-05 0.000283735 4.43049e-06
-4.79461e-06 4.43049e-06 0.000284354
0.000951909 -5.26383e-06 9.14139e-07
-5.26383e-06 5.54907e-06 -1.74225e-06
9.14139e-07 -1.74225e-06 -2.42085e-05
0.00120612 8.62217e-06 -1.64841e-06
8.62217e-06 0.000124669 6.04043e-07
-1.64841e-06 6.04043e-07 0.000124688
0.00105062 8.94776e-06 -1.22817e-06
8.94776e-06 4.37508e-05 1.57328e-06
-1.22817e-06 1.57328e-06 6.05612e-05
0.000904392 5.40988e-06 7.09713e-07
5.40988e-06 -3.10734e-05 -3.16103e-06
7.09713e-07 -3.16103e-06 -3.16859e-05
0.00166984 6.83144e-06 2.51599e-06
6.83144e-06 0.000354354 -1.21603e-06
2.51599e-06 -1.21603e-06 0.000374741
0.00226675 3.56203e-06 3.44114e-06
3.56203e-06 0.000656051 -4.01777e-06
3.44114e-06 -4.01777e-06 0.000679474
0.00105766 -7.22796e-07 -5.07007e-08
-7.22796e-07 6.74551e-05 -1.20254e-06
-5.07007e-08 -1.20254e-06 2.1462e-05
0.000966988 -2.82264e-06 -3.01655e-07
-2.82264e-06 8.37499e-06 -1.83085e-06
-3.01655e-07 -1.83085e-06 -1.68396e-05
0.00103284 7.31258e-06 1.12617e-07
7.31258e-06 5.50137e-05 5.73712e-08
1.12617e-07 5.73712e-08 1.17837e-05
0.000910969 -2.71339e-06 -3.90009e-07
-2.71339e-06 -2.98791e-05 -3.20495e-06
-3.90009e-07 -3.20495e-06 -2.73433e-05
0.000965937 -1.4141e-06 -5.51355e-08
-1.4141e-06 7.01649e-06 1.47325e-09
-5.51355e-08 1.47325e-09 -1.71926e-05
0.000982218 2.56116e-06 -9.42537e-08
2.56116e-06 2.96429e-05 1.58443e-06
-9.42537e-08 1.58443e-06 -1.20882e-05
0.00216574 9.32582e-08 -7.26576e-07
9.32582e-08 0.000604244 -3.98111e-06
-7.26576e-07 -3.98111e-06 0.000628966
0.00090665 2.9666e-07 -9.14238e-08
2.9666e-07 -3.26506e-05 -6.98723e-09
-9.14238e-08 -6.98723e-09 -2.96549e-05
0.000965222 -1.99652e-07 -1.30441e-07
-1.99652e-07 6.26553e-06 1.82725e-06
-1.30441e-07 1.82725e-06 -1.74244e-05
0.000910412 3.42949e-06 -4.18956e-07
3.42949e-06 -3.02937e-05 3.18454e-06
-4.18956e-07 3.18454e-06 -2.75051e-05
0.00216597 4.0415e-06 -1.02373e-06
4.0415e-06 0.000604913 -8.19349e-09
-1.02373e-06 -8.19349e-09 0.000629523
0.0021783 7.72349e-06 -5.76085e-06
7.72349e-06 0.000612684 3.91492e-06
-5.76085e-06 3.91492e-06 0.000636907
-0.000928398 7.25368e-06 7.53173e-06
7.25368e-06 -0.000941507 -6.44859e-07
7.53173e-06 -6.44859e-07 -0.000949603
-0.000127248 6.89053e-05 2.58473e-05
6.89053e-05 -0.000303801 -3.51325e-06
2.58473e-05 -3.51325e-06 -0.000379127
0.00110313 6.79957e-06 1.20771e-05
6.79957e-06 0.000212922 -2.50623e-06
1.20771e-05 -2.50623e-06 0.000167308
-0.0011166 5.69485e-05 -6.42613e-06
5.69485e-05 -0.00109913 3.53481e-06
-6.42613e-06 3.53481e-06 -0.00101383
0.00159852 1.19422e-05 -6.44113e-05
1.19422e-05 0.000359674 -3.51607e-06
-6.44113e-05 -3.51607e-06 0.000151252
0.00158997 5.55541e-05 2.51081e-06
5.55541e-05 0.000156799 -1.57877e-06
2.51081e-06 -1.57877e-06 9.44097e-05
0.00044265 6.56561e-07 -1.99825e-05
6.56561e-07 -0.000380859 2.14676e-06
-1.99825e-05 2.14676e-06 -0.000819144
0.00358484 0.000134376 9.22273e-05
0.000134376 0.00153869 -2.87944e-05
9.22273e-05 -2.87944e-05 0.00144954
-7.70661e-06 0.000136388 9.96407e-06
0.000136388 -0.000660646 -9.7467e-06
9.96407e-06 -9.7467e-06 -0.000370457
0.00128859 4.24313e-05 -3.6843e-06
4.24313e-05 0.000264067 3.85892e-06
-3.6843e-06 3.85892e-06 8.37603e-05
0.00276116 0.000135171 7.58943e-06
0.000135171 0.000557779 -5.51102e-06
7.58943e-06 -5.51102e-06 -0.000185577
0.00293097 0.000246845 7.94421e-07
0.000246845 0.000918222 -2.26872e-07
7.94421e-07 -2.26872e-07 0.000905964
0.00122563 7.23992e-05 -2.28906e-06
7.23992e-05 -7.40108e-05 3.00402e-06
-2.28906e-06 3.00402e-06 0.000218675
0.000961698 5.08814e-05 3.41284e-06
5.08814e-05 0.000285992 -1.54443e-07
3.41284e-06 -1.54443e-07 1.38577e-05
0.00283847 0.000188799 3.26362e-05
0.000188799 0.000502216 -2.1798e-05
3.26362e-05 -2.1798e-05 -0.000277649
-0.00265693 0.000185507 -3.82207e-05
0.000185507 -0.0021688 4.41083e-05
-3.82207e-05 4.41083e-05 -0.00200162
0.000427894 8.78426e-06 -9.96338e-07
8.78426e-06 -0.000422553 -3.42889e-06
-9.96338e-07 -3.42889e-06 -0.000301011
0.00108817 -2.70439e-06 5.85612e-07
-2.70439e-06 9.95279e-05 -9.91833e-07
5.85612e-07 -9.91833e-07 2.34114e-05
0.00103003 2.68595e-05 -6.10022e-07
2.68595e-05 7.02595e-05 -2.55198e-07
-6.10022e-07 -2.55198e-07 2.02465e-06
0.00100508 1.29868e-05 1.76449e-07
1.29868e-05 4.9577e-05 3.24351e-07
1.76449e-07 3.24351e-07 -5.2269e-06
0.000981132 3.64213e-05 8.37307e-07
3.64213e-05 4.63778e-05 1.69916e-06
8.37307e-07 1.69916e-06 -1.81828e-05
0.00098923 8.64625e-06 -2.34755e-07
8.64625e-06 4.71457e-05 -7.58991e-07
-2.34755e-07 -7.58991e-07 -2.61772e-05
0.00111761 2.45618e-05 8.31551e-08
2.45618e-05 0.000112728 4.85531e-07
8.31551e-08 4.85531e-07 4.54925e-05
0.000980505 7.64571e-06 -1.50743e-07
7.64571e-06 4.09831e-05 1.86882e-06
-1.50743e-07 1.86882e-06 -2.17916e-05
0.00114026 2.95375e-05 -6.35202e-07
2.95375e-05 0.000118513 -9.28188e-07
-6.35202e-07 -9.28188e-07 5.50559e-05
0.00110514 1.7059e-05 2.31442e-08
1.7059e-05 0.00010268 4.60346e-07
2.31442e-08 4.60346e-07 4.15868e-05
0.000903056 -1.0501e-05 -4.68043e-07
-1.0501e-05 3.90772e-07 5.80342e-07
-4.68043e-07 5.80342e-07 -5.83171e-05
0.0025641 -4.37641e-05 -9.8319e-06
-4.37641e-05 0.000273764 1.52488e-06
-9.8319e-06 1.52488e-06 0.000254225
0.000755999 -0.000101091 -8.29968e-06
-0.000101091 -0.000316791 5.41124e-06
-8.29968e-06 5.41124e-06 -0.000396817
0.00107831 -9.00683e-05 -4.35119e-08
-9.00683e-05 6.82953e-05 4.30514e-06
-4.35119e-08 4.30514e-06 -5.2835e-05
0.00120813 -5.22441e-05 -7.94209e-08
-5.22441e-05 0.000187066 2.22985e-06
-7.94209e-08 2.22985e-06 4.07318e-05
0.00116219 -1.75134e-05 -4.90335e-08
-1.75134e-05 0.000144616 7.23508e-07
-4.90335e-08 7.23508e-07 2.68875e-05
0.000966655 -3.52169e-05 -1.55489e-07
-3.52169e-05 3.4943e-05 6.678e-07
-1.55489e-07 6.678e-07 -5.44479e-05
0.000938799 1.48037e-05 2.80989e-08
1.48037e-05 2.70978e-05 5.41473e-07
2.80989e-08 5.41473e-07 -5.42085e-05
0.00103098 -3.75307e-06 2.19141e-07
-3.75307e-06 7.16374e-05 6.70953e-07
2.19141e-07 6.70953e-07 -9.69182e-06
0.00229699 -0.000121482 5.81787e-07
-0.000121482 0.00014061 -1.79182e-07
5.81787e-07 -1.79182e-07 0.000167976
0.00110129 -6.63718e-06 -8.42551e-08
-6.63718e-06 0.000103318 -1.95127e-07
-8.42551e-08 -1.95127e-07 1.45492e-05
0.00123306 -7.15889e-06 -3.31322e-08
-7.15889e-06 0.000158561 5.9095e-08
-3.31322e-08 5.9095e-08 6.03745e-05
0.00152118 -0.000114677 3.08903e-07
-0.000114677 0.000320494 -1.22044e-06
3.08903e-07 -1.22044e-06 0.000142472
0.00116914 -8.96687e-06 -3.9266e-07
-8.96687e-06 0.000175866 -2.40535e-08
-3.9266e-07 -2.40535e-08 2.79884e-05
0.00124953 -0.000141416 -8.76828e-06
-0.000141416 -0.000191312 -3.78683e-06
-8.76828e-06 -3.78683e-06 -0.000198217
0.00135617 -2.9587e-05 -1.08049e-06
-2.9587e-05 0.000366608 -2.80759e-06
-1.08049e-06 -2.80759e-06 0.00012903
0.000997454 1.7166e-05 -6.6605e-07
1.7166e-05 4.24356e-05 8.21526e-07
-6.6605e-07 8.21526e-07 -6.36421e-05
0.00105737 3.0979e-05 -1.96007e-07
3.0979e-05 7.65186e-05 -1.24797e-06
-1.96007e-07 -1.24797e-06 -1.00446e-05
0.00111538 2.3317e-05 -1.1235e-07
2.3317e-05 9.12945e-05 -1.04382e-06
-1.1235e-07 -1.04382e-06 -4.8703e-06
0.00212494 -4.6969e-06 4.91294e-06
-4.6969e-06 0.000929208 1.05506e-06
4.91294e-06 1.05506e-06 0.000850898
-1.20514e-05 -7.85878e-06 1.27927e-05
-7.85878e-06 -0.000415878 -1.38674e-07
1.27927e-05 -1.38674e-07 -0.000421844
-0.00247438 -1.11876e-05 8.94355e-05
-1.11876e-05 -0.00161323 -1.33574e-06
8.94355e-05 -1.33574e-06 -0.00162951
0.00143343 5.33955e-05 9.32547e-07
5.33955e-05 0.000246023 1.28314e-06
9.32547e-07 1.28314e-06 0.000148092
0.000293771 1.6671e-05 2.30398e-06
1.6671e-05 -0.000194444 -1.67227e-06
2.30398e-06 -1.67227e-06 -0.000330864
0.0013834 7.67225e-05 1.20944e-06
7.67225e-05 0.000233333 -7.93042e-06
1.20944e-06 -7.93042e-06 4.22527e-05
-0.000729019 -1.44836e-05 1.67517e-06
-1.44836e-05 -0.000830272 -1.68373e-07
1.67517e-06 -1.68373e-07 -0.000843622
0.00242919 -0.000219655 2.54253e-05
-0.000219655 7.27999e-05 1.17885e-05
2.54253e-05 1.17885e-05 -0.000712824
0.0013347 0.00010228 2.54411e-05
0.00010228 0.000166377 -3.85758e-05
2.54411e-05 -3.85758e-05 -1.5601e-05
0.00203498 -1.55378e-06 6.3807e-05
-1.55378e-06 0.000404303 1.42847e-05
6.3807e-05 1.42847e-05 0.000192624
0.00379244 -0.000312492 4.37332e-05
-0.000312492 0.000954007 5.20913e-05
4.37332e-05 5.20913e-05 0.000980801
0.000582061 6.00164e-06 -1.33217e-05
6.00164e-06 -7.40747e-05 -6.64692e-06
-1.33217e-05 -6.64692e-06 -0.000131104
0.00128989 -1.60129e-05 -4.7351e-06
-1.60129e-05 0.000146448 -9.71529e-06
-4.7351e-06 -9.71529e-06 0.00019334
0.00103638 4.90333e-05 1.09986e-06
4.90333e-05 7.53275e-05 -3.21538e-09
1.09986e-06 -3.21538e-09 -7.01986e-06
0.00133753 3.81952e-06 2.62941e-06
3.81952e-06 0.000436704 1.69845e-06
2.62941e-06 1.69845e-06 0.000357323
0.000901069 1.62448e-05 4.24721e-07
1.62448e-05 5.53398e-05 2.55825e-07
4.24721e-07 2.55825e-07 -3.70302e-05
-0.00017426 -8.24922e-07 1.05011e-05
-8.24922e-07 -0.000364123 3.85278e-07
1.05011e-05 3.85278e-07 -0.000517965
0.00197179 0.000141188 -3.40565e-05
0.000141188 0.000657045 -1.53281e-05
-3.40565e-05 -1.53281e-05 0.000471005
0.00570658 -3.68896e-05 1.3755e-05
-3.68896e-05 0.001003 7.87979e-06
1.3755e-05 7.87979e-06 0.000239083
0.000951842 -6.68499e-06 -1.18062e-06
-6.68499e-06 -3.87934e-05 3.62391e-06
-1.18062e-06 3.62391e-06 -2.81855e-05
0.00128398 -0.000195146 1.46205e-06
-0.000195146 -0.000462077 2.37946e-05
1.46205e-06 2.37946e-05 -0.000389786
0.000983698 3.1041e-05 -8.42088e-07
3.1041e-05 6.22812e-05 -6.21851e-06
-8.42088e-07 -6.21851e-06 -6.40915e-06
0.000987065 8.37997e-06 7.15286e-06
8.37997e-06 0.000121233 -3.78765e-06
7.15286e-06 -3.78765e-06 1.40238e-05
0.00234027 -4.61584e-06 3.24914e-06
-4.61584e-06 0.000906565 6.82509e-06
3.24914e-06 6.82509e-06 0.000820019
0.000456476 -6.28369e-07 -1.73056e-06
-6.28369e-07 -0.000352044 8.29616e-06
-1.73056e-06 8.29616e-06 -0.000278434
-0.0011782 4.46285e-05 -6.8109e-06
4.46285e-05 -0.000709497 1.53801e-06
-6.8109e-06 1.53801e-06 -0.00081837
0.00622758 -6.81557e-05 1.38453e-05
-6.81557e-05 0.00132126 1.25203e-05
1.38453e-05 1.25203e-05 0.000811878
5.19105e-05 4.25897e-06 -3.81712e-07
4.25897e-06 -0.000923368 -6.79865e-05
-3.81712e-07 -6.79865e-05 -0.000763216
0.00138951 5.60195e-05 4.23775e-07
5.60195e-05 0.000228869 1.35069e-06
4.23775e-07 1.35069e-06 0.00012776
0.00138039 5.11481e-05 -6.33039e-07
5.11481e-05 0.000229524 6.93238e-07
-6.33039e-07 6.93238e-07 0.00012174
0.0016697 4.80508e-05 1.31751e-06
4.80508e-05 0.000423809 -1.57169e-06
1.31751e-06 -1.57169e-06 0.000312214
0.00106402 3.02038e-05 -9.36267e-08
3.02038e-05 8.06067e-05 -6.06104e-07
-9.36267e-08 -6.06104e-07 6.22224e-06
0.00111861 2.65406e-05 1.61877e-08
2.65406e-05 0.00011065 -7.5915e-07
1.61877e-08 -7.5915e-07 2.12708e-05
0.000895252 5.00199e-06 -3.96437e-07
5.00199e-06 2.70845e-05 3.98835e-07
-3.96437e-07 3.98835e-07 -9.29923e-05
0.00119921 2.12109e-05 -6.04865e-08
2.12109e-05 0.000143921 -1.97375e-07
-6.04865e-08 -1.97375e-07 6.04192e-05
0.00111313 -2.30419e-05 4.47769e-08
-2.30419e-05 0.000111464 2.49179e-07
4.47769e-08 2.49179e-07 5.75122e-06
0.00104244 -1.30699e-05 8.84926e-08
-1.30699e-05 0.000103379 4.70411e-07
8.84926e-08 4.70411e-07 -1.46241e-05
0.00104094 -8.81797e-06 -2.36333e-07
-8.81797e-06 0.000103902 6.35294e-07
-2.36333e-07 6.35294e-07 -2.44749e-06
0.00111944 -3.38213e-05 -8.00941e-07
-3.38213e-05 9.44005e-05 8.51184e-07
-8.00941e-07 8.51184e-07 7.60016e-08
0.00115625 -9.41409e-08 -4.74264e-07
-9.41409e-08 0.000120311 -1.1156e-06
-4.74264e-07 -1.1156e-06 3.88927e-05
0.0010593 -1.07966e-05 6.58083e-08
-1.07966e-05 8.31658e-05 -4.88895e-07
6.58083e-08 -4.88895e-07 3.20571e-06
0.00104911 -8.34811e-06 -3.37477e-08
-8.34811e-06 6.50316e-05 -9.12717e-07
-3.37477e-08 -9.12717e-07 -1.92578e-05
0.00107049 -3.21789e-05 1.61042e-07
-3.21789e-05 7.34095e-05 5.38888e-08
1.61042e-07 5.38888e-08 -1.53937e-05
0.00104558 -2.94364e-05 -1.64947e-07
-2.94364e-05 6.91508e-05 3.51693e-07
-1.64947e-07 3.51693e-07 -1.95576e-05
0.00105129 -4.94912e-05 -2.10698e-07
-4.94912e-05 8.6922e-05 1.02017e-06
-2.10698e-07 1.02017e-06 -7.55251e-06
0.00102799 -4.84025e-05 1.83191e-07
-4.84025e-05 6.96305e-05 -5.91678e-07
1.83191e-07 -5.91678e-07 -2.04186e-05
0.00112518 -5.31412e-05 5.01398e-07
-5.31412e-05 0.000126178 1.09835e-06
5.01398e-07 1.09835e-06 2.20058e-05
0.00121408 -4.4698e-05 4.27847e-07
-4.4698e-05 0.000156281 -2.05526e-07
4.27847e-07 -2.05526e-07 6.7807e-05
0.00110055 -5.08112e-05 1.19792e-08
-5.08112e-05 0.000109878 1.01102e-06
1.19792e-08 1.01102e-06 2.02812e-05
0.00078085 -4.9351e-05 -1.93706e-07
-4.9351e-05 -6.24039e-05 2.01356e-06
-1.93706e-07 2.01356e-06 -0.000159703
0.00104775 -5.26342e-05 -1.57995e-06
-5.26342e-05 7.10974e-05 5.54614e-07
-1.57995e-06 5.54614e-07 -1.42798e-05
0.00107518 -4.88479e-05 -1.25011e-06
-4.88479e-05 8.90907e-05 2.55903e-07
-1.25011e-06 2.55903e-07 1.19162e-05
0.00100794 -5.14664e-05 -3.99569e-07
-5.14664e-05 5.3359e-05 -9.13175e-08
-3.99569e-07 -9.13175e-08 -3.44002e-05
0.00106509 -4.20517e-05 -8.12844e-07
-4.20517e-05 7.99535e-05 4.0927e-07
-8.12844e-07 4.0927e-07 6.72454e-06
0.00115127 -4.99703e-05 -2.85424e-07
-4.99703e-05 0.000126982 -2.47779e-07
-2.85424e-07 -2.47779e-07 4.8448e-05
0.000945514 -4.69219e-05 2.53337e-07
-4.69219e-05 4.16367e-05 -1.49224e-06
2.53337e-07 -1.49224e-06 -3.78029e-05
0.00113533 -4.81533e-05 1.03226e-06
-4.81533e-05 0.000122728 -5.14499e-07
1.03226e-06 -5.14499e-07 3.97454e-05
0.000979018 -3.58376e-05 9.41888e-08
-3.58376e-05 4.03064e-05 -2.04301e-08
9.41888e-08 -2.04301e-08 -3.39449e-05
0.00100706 -1.26908e-05 -7.2332e-07
-1.26908e-05 4.44174e-05 1.50575e-06
-7.2332e-07 1.50575e-06 -1.45388e-05
0.00103799 -3.01329e-05 3.82875e-07
-3.01329e-05 6.91638e-05 -5.43635e-07
3.82875e-07 -5.43635e-07 -2.46371e-06
0.000996123 -9.41123e-06 -2.61938e-08
-9.41123e-06 3.83291e-05 -6.36474e-08
-2.61938e-08 -6.36474e-08 -1.72583e-05
0.000943057 8.3918e-06 -9.53087e-07
8.3918e-06 5.80648e-06 2.02857e-06
-9.53087e-07 2.02857e-06 -2.83594e-05
0.00098684 -1.59746e-05 5.99606e-07
-1.59746e-05 3.54475e-05 -1.30929e-06
5.99606e-07 -1.30929e-06 -1.76582e-05
0.000945118 6.27652e-06 -6.11386e-08
6.27652e-06 4.79133e-06 -1.00207e-08
-6.11386e-08 -1.00207e-08 -2.74442e-05
0.00149134 1.43246e-05 -5.36245e-06
1.43246e-05 0.000276399 3.21149e-06
-5.36245e-06 3.21149e-06 0.000275805
0.000948877 -2.40806e-06 9.43658e-07
-2.40806e-06 4.75984e-06 -1.833e-06
9.43658e-07 -1.833e-06 -2.6038e-05
0.00120416 1.12629e-05 -2.06123e-06
1.12629e-05 0.000126945 5.9481e-07
-2.06123e-06 5.9481e-07 0.00012595
0.00104785 1.19532e-05 -1.70232e-06
1.19532e-05 4.64669e-05 1.59881e-06
-1.70232e-06 1.59881e-06 6.23243e-05
0.000900881 8.03602e-06 1.08389e-06
8.03602e-06 -3.03093e-05 -3.19325e-06
1.08389e-06 -3.19325e-06 -3.16931e-05
0.00168054 1.04237e-05 3.39462e-06
1.04237e-05 0.00036263 -1.20549e-06
3.39462e-06 -1.20549e-06 0.000382355
0.00228119 7.58132e-06 5.78941e-06
7.58132e-06 0.00066515 -4.0164e-06
5.78941e-06 -4.0164e-06 0.000688165
0.000811291 -2.08332e-07 -3.75273e-07
-2.08332e-07 -5.6665e-05 -1.71988e-06
-3.75273e-07 -1.71988e-06 -0.0001072
0.000701729 -5.06813e-06 -4.35691e-07
-5.06813e-06 -0.000122715 -2.51046e-06
-4.35691e-07 -2.51046e-06 -0.000151369
0.00106761 4.5555e-07 7.55725e-09
4.5555e-07 7.22471e-05 9.56143e-08
7.55725e-09 9.56143e-08 2.62336e-05
0.00091261 -5.52788e-06 -6.94362e-07
-5.52788e-06 -2.75214e-05 -3.2263e-06
-6.94362e-07 -3.2263e-06 -2.60089e-05
0.000838296 -3.19865e-06 1.80988e-08
-3.19865e-06 -5.58054e-05 -1.64701e-08
1.80988e-08 -1.64701e-08 -8.18982e-05
0.000823271 -9.77086e-06 -1.01788e-07
-9.77086e-06 -5.02798e-05 1.25161e-06
-1.01788e-07 1.25161e-06 -9.46257e-05
0.00218142 -3.69511e-06 -3.4151e-06
-3.69511e-06 0.000612788 -4.00529e-06
-3.4151e-06 -4.00529e-06 0.000637233
0.000905135 -2.63286e-06 -1.24968e-07
-2.63286e-06 -3.28639e-05 -1.31424e-08
-1.24968e-07 -1.31424e-08 -3.02767e-05
0.000968201 -1.76536e-06 -1.43162e-08
-1.76536e-06 8.27848e-06 1.81251e-06
-1.43162e-08 1.81251e-06 -1.59444e-05
0.002166 1.92723e-07 -1.11764e-06
1.92723e-07 0.000604369 -9.07069e-12
-1.11764e-06 -9.07069e-12 0.000629097
0.000906327 3.7458e-07 -1.1555e-07
3.7458e-07 -3.28566e-05 3.19453e-06
-1.1555e-07 3.19453e-06 -2.98498e-05
0.00216586 4.17462e-06 -3.06262e-06
4.17462e-06 0.000604998 3.94602e-06
-3.06262e-06 3.94602e-06 0.000629571
0.00134027 -5.69901e-06 1.09958e-05
-5.69901e-06 0.000429253 -9.69114e-07
1.09958e-05 -9.69114e-07 0.000353661
0.00115602 1.8525e-05 2.14563e-06
1.8525e-05 0.00025047 -1.19433e-07
2.14563e-06 -1.19433e-07 0.00026594
0.00039753 2.47012e-06 0.00011353
2.47012e-06 -0.000185403 -1.85607e-05
0.00011353 -1.85607e-05 -0.000364452
0.001029 1.8342e-05 -4.55953e-07
1.8342e-05 5.73069e-05 -1.0945e-06
-4.55953e-07 -1.0945e-06 -9.06975e-06
0.00139585 -9.3598e-06 9.17628e-06
-9.3598e-06 0.000358657 -1.94409e-06
9.17628e-06 -1.94409e-06 0.000283766
0.00131041 3.60816e-06 -3.42124e-07
3.60816e-06 0.000356322 -3.75401e-07
-3.42124e-07 -3.75401e-07 0.000306333
0.00110872 7.03633e-05 -2.50607e-06
7.03633e-05 0.00017199 8.80299e-07
-2.50607e-06 8.80299e-07 0.000292779
0.00122149 6.381e-05 -4.21216e-05
6.381e-05 1.98958e-05 1.737e-05
-4.21216e-05 1.737e-05 -0.00019961
0.00543973 0.000230653 1.11291e-05
0.000230653 0.00190015 -1.11417e-05
1.11291e-05 -1.11417e-05 0.00118484
-0.000646717 0.000168336 5.41093e-05
0.000168336 -0.000578711 -3.44287e-05
5.41093e-05 -3.44287e-05 -0.000561542
0.00199595 6.95871e-05 2.60081e-06
6.95871e-05 0.000393009 4.02759e-06
2.60081e-06 4.02759e-06 0.000676736
0.00149996 4.29901e-05 -2.36447e-05
4.29901e-05 0.000198259 9.47269e-06
-2.36447e-05 9.47269e-06 -0.000163186
0.00443297 0.000190634 1.92156e-05
0.000190634 0.00117264 -2.09212e-05
1.92156e-05 -2.09212e-05 0.000460276
0.000894241 0.000208894 -5.02315e-06
0.000208894 -0.000523656 1.0424e-05
-5.02315e-06 1.0424e-05 -0.000386266
0.00165895 1.16487e-05 1.20951e-06
1.16487e-05 0.000286794 9.8093e-07
1.20951e-06 9.8093e-07 0.000423542
0.00244943 -7.04882e-05 2.37016e-05
-7.04882e-05 0.000556119 -3.08255e-05
2.37016e-05 -3.08255e-05 0.000162417
0.00671101 0.000170012 2.57967e-05
0.000170012 0.00170877 -7.89678e-06
2.57967e-05 -7.89678e-06 0.00085082
0.00228952 0.000198763 5.06224e-06
0.000198763 -5.73119e-05 6.79091e-05
5.06224e-06 6.79091e-05 -6.46995e-05
0.00282585 1.77938e-05 -4.2956e-06
1.77938e-05 0.00103807 -6.78101e-07
-4.2956e-06 -6.78101e-07 0.00112118
0.000979979 -2.71176e-06 9.35884e-08
-2.71176e-06 3.71952e-05 -1.3839e-06
9.35884e-08 -1.3839e-06 -4.3948e-05
0.00105499 -1.24405e-05 2.25868e-07
-1.24405e-05 8.31323e-05 -5.6051e-08
2.25868e-07 -5.6051e-08 6.32657e-06
0.00112135 3.16403e-05 -2.60311e-07
3.16403e-05 0.000116404 7.63647e-07
-2.60311e-07 7.63647e-07 4.85456e-05
0.000999199 1.13458e-05 -3.50919e-07
1.13458e-05 4.59611e-05 -1.63317e-06
-3.50919e-07 -1.63317e-06 -2.76196e-05
0.0010735 2.62669e-05 -2.25941e-07
2.62669e-05 8.87413e-05 4.23546e-07
-2.25941e-07 4.23546e-07 1.6551e-05
0.00113426 1.5123e-05 3.05565e-07
1.5123e-05 0.000119799 1.7043e-06
3.05565e-07 1.7043e-06 5.3665e-05
0.00118676 2.95541e-05 -2.62129e-07
2.95541e-05 0.000141159 3.25886e-08
-2.62129e-07 3.25886e-08 7.80477e-05
0.00119191 2.99423e-05 5.54577e-07
2.99423e-05 0.000146235 1.66919e-06
5.54577e-07 1.66919e-06 8.57783e-05
0.00208525 -0.000122636 1.13011e-06
-0.000122636 6.46076e-05 -2.58304e-06
1.13011e-06 -2.58304e-06 6.56003e-05
0.00139882 -0.000107758 -2.10333e-06
-0.000107758 0.000266714 4.35825e-06
-2.10333e-06 4.35825e-06 8.70459e-05
0.00102558 -4.86332e-05 -7.7183e-07
-4.86332e-05 6.97725e-05 1.41179e-06
-7.7183e-07 1.41179e-06 -1.20717e-05
0.00147183 -1.59801e-05 -9.94626e-08
-1.59801e-05 0.000316838 9.79982e-07
-9.94626e-08 9.79982e-07 0.000172955
0.00128294 -1.77549e-05 -3.70885e-07
-1.77549e-05 0.000184212 8.94237e-07
-3.70885e-07 8.94237e-07 8.47311e-05
0.00115091 5.10867e-06 -2.99533e-07
5.10867e-06 0.000130073 1.94509e-07
-2.99533e-07 1.94509e-07 4.17575e-05
0.00108409 2.47102e-05 7.51405e-08
2.47102e-05 9.03818e-05 2.69915e-07
7.51405e-08 2.69915e-07 3.44971e-06
0.00191102 -0.000155919 5.29282e-07
-0.000155919 0.000120112 -7.28809e-07
5.29282e-07 -7.28809e-07 0.00011615
0.00107994 1.18925e-05 7.88329e-08
1.18925e-05 7.6214e-05 -4.35799e-07
7.88329e-08 -4.35799e-07 -1.9272e-05
0.00113709 7.14339e-06 -1.15735e-07
7.14339e-06 0.000118078 1.39798e-07
-1.15735e-07 1.39798e-07 5.49364e-06
0.0011184 -2.42755e-05 -4.31608e-07
-2.42755e-05 0.000260235 4.22123e-07
-4.31608e-07 4.22123e-07 1.2851e-05
0.00119076 2.86526e-05 6.76116e-08
2.86526e-05 0.000133491 -8.85229e-07
6.76116e-08 -8.85229e-07 4.80887e-05
0.00181223 -0.000140357 -3.0291e-05
-0.000140357 0.000425681 -3.06355e-06
-3.0291e-05 -3.06355e-06 0.000272409
0.001341 4.4894e-05 -4.63926e-06
4.4894e-05 0.000357127 3.28391e-09
-4.63926e-06 3.28391e-09 0.000159086
0.00101038 2.00642e-05 -2.8228e-07
2.00642e-05 3.18493e-05 -7.58058e-07
-2.8228e-07 -7.58058e-07 -5.98858e-05
0.00123701 4.04834e-05 -2.90099e-07
4.04834e-05 0.000156564 -1.2419e-06
-2.90099e-07 -1.2419e-06 6.43265e-05
0.00141687 -9.74084e-07 3.28584e-06
-9.74084e-07 0.000426417 -3.58725e-07
3.28584e-06 -3.58725e-07 0.000318683
0.0016406 -4.19329e-06 -6.62613e-06
-4.19329e-06 0.000628504 1.50917e-07
-6.62613e-06 1.50917e-07 0.000548971
-0.00104363 -6.33774e-06 1.13528e-05
-6.33774e-06 -0.000994908 3.28202e-07
1.13528e-05 3.28202e-07 -0.00100515
0.000720029 4.30754e-05 1.61237e-06
4.30754e-05 -8.19936e-05 1.35647e-06
1.61237e-06 1.35647e-06 -0.000161936
-0.00085846 4.59257e-06 -7.27496e-06
4.59257e-06 -0.000697052 3.22676e-06
-7.27496e-06 3.22676e-06 -0.000876591
0.000782954 5.20302e-06 -1.375e-05
5.20302e-06 0.000104544 -3.08636e-06
-1.375e-05 -3.08636e-06 1.71778e-05
0.00416179 -0.000265834 3.68041e-05
-0.000265834 0.000767081 8.24102e-06
3.68041e-05 8.24102e-06 -7.07976e-05
0.00281374 0.000156539 -2.81961e-05
0.000156539 0.000605798 -6.68423e-05
-2.81961e-05 -6.68423e-05 0.000221659
0.00267264 -0.000238105 8.55922e-06
-0.000238105 3.78756e-05 9.946e-05
8.55922e-06 9.946e-05 0.000165267
0.000778314 1.70484e-05 -2.27029e-06
1.70484e-05 -1.24256e-05 -2.87659e-06
-2.27029e-06 -2.87659e-06 -0.000105901
7.14706e-06 -1.20493e-05 7.56014e-07
-1.20493e-05 -0.00058641 -3.9733e-06
7.56014e-07 -3.9733e-06 -0.000608587
0.00124302 4.00333e-05 -1.62089e-06
4.00333e-05 0.000190858 -6.86536e-07
-1.62089e-06 -6.86536e-07 0.000117895
0.000845102 6.31503e-06 -8.56606e-07
6.31503e-06 3.30315e-05 -1.15764e-06
-8.56606e-07 -1.15764e-06 -7.46718e-05
0.00114529 -6.58387e-06 2.24538e-06
-6.58387e-06 0.000146334 -2.53389e-07
2.24538e-06 -2.53389e-07 5.84324e-05
0.000131044 4.88073e-05 7.5304e-06
4.88073e-05 -1.97188e-05 -4.07873e-06
7.5304e-06 -4.07873e-06 -9.33197e-05
0.00153653 3.41896e-06 -1.80241e-06
3.41896e-06 0.000257281 -1.78419e-07
-1.80241e-06 -1.78419e-07 0.00035066
0.0046913 4.69566e-05 2.10322e-05
4.69566e-05 0.000440212 -2.5825e-06
2.10322e-05 -2.5825e-06 5.43253e-05
0.0033518 8.51304e-06 -1.91163e-05
8.51304e-06 0.000429195 -2.89319e-06
-1.91163e-05 -2.89319e-06 0.000559554
0.00100151 5.20788e-05 2.84766e-06
5.20788e-05 0.000220556 -6.21056e-06
2.84766e-06 -6.21056e-06 0.000138256
0.00146024 -4.59969e-06 -1.37965e-06
-4.59969e-06 0.000385216 -3.88165e-06
-1.37965e-06 -3.88165e-06 0.000271698
0.00126875 -2.07125e-05 -1.20967e-05
-2.07125e-05 0.000276819 2.54546e-06
-1.20967e-05 2.54546e-06 0.000174716
0.000567458 7.65046e-05 1.02865e-06
7.65046e-05 -0.000518194 4.57166e-06
1.02865e-06 4.57166e-06 -0.000222916
0.00234474 0.000236003 -5.79704e-06
0.000236003 5.71665e-05 -5.79805e-05
-5.79704e-06 -5.79805e-05 1.99055e-05
0.000590813 9.86656e-05 8.22565e-06
9.86656e-05 0.000375504 -6.89522e-06
8.22565e-06 -6.89522e-06 0.000335101
0.00313109 -0.000109433 4.288e-05
-0.000109433 -9.33918e-05 2.25289e-05
4.288e-05 2.25289e-05 -0.000515083
0.00126441 4.78561e-05 -1.05631e-06
4.78561e-05 0.000167531 3.02551e-06
-1.05631e-06 3.02551e-06 5.71547e-05
0.00130741 3.45334e-05 -1.36195e-06
3.45334e-05 0.000232124 4.95327e-07
-1.36195e-06 4.95327e-07 0.000124928
0.000209347 -2.47788e-05 -6.10536e-07
-2.47788e-05 -0.000156467 -4.02171e-06
-6.10536e-07 -4.02171e-06 -0.000394407
0.00119338 1.00203e-05 -1.36769e-07
1.00203e-05 0.000139772 -7.29754e-07
-1.36769e-07 -7.29754e-07 5.73488e-05
0.00109375 -2.15463e-05 4.62736e-07
-2.15463e-05 0.000101041 -1.32108e-07
4.62736e-07 -1.32108e-07 -4.95372e-06
0.000890773 -1.29435e-05 -1.66578e-06
-1.29435e-05 2.29771e-05 2.77101e-06
-1.66578e-06 2.77101e-06 -9.94068e-05
0.00108392 -3.83679e-05 -1.96359e-07
-3.83679e-05 7.89688e-05 5.71637e-08
-1.96359e-07 5.71637e-08 -1.56178e-05
0.000935856 -1.84782e-05 2.97998e-07
-1.84782e-05 4.99565e-05 1.07809e-06
2.97998e-07 1.07809e-06 -5.77521e-05
0.000959588 -3.23504e-05 3.7016e-07
-3.23504e-05 9.77586e-05 -3.06466e-07
3.7016e-07 -3.06466e-07 -3.0947e-05
0.00106496 -3.18878e-05 1.54013e-07
-3.18878e-05 7.02148e-05 -4.29173e-07
1.54013e-07 -4.29173e-07 -1.84766e-05
0.00104514 -2.04296e-05 5.57755e-08
-2.04296e-05 6.69564e-05 6.91148e-09
5.57755e-08 6.91148e-09 -2.09586e-05
0.00118257 -5.05242e-05 1.18147e-07
-5.05242e-05 0.000147894 4.30968e-07
1.18147e-07 4.30968e-07 5.19474e-05
0.00102165 -5.2413e-05 1.13378e-07
-5.2413e-05 0.000105558 1.24268e-06
1.13378e-07 1.24268e-06 -1.532e-05
0.000963786 -4.66769e-05 -2.42734e-07
-4.66769e-05 4.34138e-05 -2.02699e-07
-2.42734e-07 -2.02699e-07 -4.43541e-05
0.000898418 -4.73308e-05 7.50587e-07
-4.73308e-05 1.81755e-05 -3.88981e-07
7.50587e-07 -3.88981e-07 -8.39916e-05
0.00113515 -6.01074e-05 6.03465e-07
-6.01074e-05 0.00012796 1.18622e-06
6.03465e-07 1.18622e-06 1.51725e-05
0.00120352 -6.22313e-05 -2.10898e-06
-6.22313e-05 0.000121748 2.06983e-06
-2.10898e-06 2.06983e-06 2.54372e-05
0.00133643 -5.66488e-05 4.06337e-07
-5.66488e-05 0.000222643 -2.01997e-07
4.06337e-07 -2.01997e-07 0.000132815
0.000938817 -5.328e-05 -2.92097e-07
-5.328e-05 1.39052e-05 -7.04814e-08
-2.92097e-07 -7.04814e-08 -8.47438e-05
0.00129267 -5.80948e-05 7.38696e-08
-5.80948e-05 0.00018942 1.93721e-07
7.38696e-08 1.93721e-07 0.000109451
0.000894596 -4.38369e-05 -9.59708e-07
-4.38369e-05 9.22531e-06 1.97279e-07
-9.59708e-07 1.97279e-07 -6.87687e-05
0.0010504 -5.2498e-05 4.61671e-07
-5.2498e-05 7.17035e-05 4.97754e-08
4.61671e-07 4.97754e-08 -1.22802e-05
0.00106131 -4.05045e-05 -1.17706e-06
-4.05045e-05 7.99894e-05 1.13537e-07
-1.17706e-06 1.13537e-07 8.62483e-06
0.00110061 -4.94711e-05 -8.90231e-07
-4.94711e-05 0.000100847 5.44488e-07
-8.90231e-07 5.44488e-07 2.34698e-05
0.000907358 -4.88408e-05 -2.7475e-08
-4.88408e-05 7.04504e-06 -8.99666e-07
-2.7475e-08 -8.99666e-07 -8.06072e-05
0.00102765 -1.59257e-05 -1.22894e-06
-1.59257e-05 5.41379e-05 1.31825e-06
-1.22894e-06 1.31825e-06 -6.71258e-06
0.00103444 -4.1223e-05 1.19727e-07
-4.1223e-05 6.39849e-05 1.59482e-07
1.19727e-07 1.59482e-07 -9.34107e-06
0.00113764 -4.985e-05 1.67003e-06
-4.985e-05 0.000120601 -3.3929e-07
1.67003e-06 -3.3929e-07 4.16988e-05
0.00102563 -3.67786e-05 8.25632e-07
-3.67786e-05 6.36734e-05 -7.62672e-07
8.25632e-07 -7.62672e-07 -9.94372e-06
0.00100634 -1.24495e-05 1.59982e-07
-1.24495e-05 4.35566e-05 -2.58755e-09
1.59982e-07 -2.58755e-09 -1.52599e-05
0.000943939 6.61e-06 -1.25799e-06
6.61e-06 9.02168e-06 2.22847e-06
-1.25799e-06 2.22847e-06 -2.78595e-05
0.000998376 -1.21671e-05 5.70116e-07
-1.21671e-05 3.96015e-05 -1.36507e-06
5.70116e-07 -1.36507e-06 -1.61048e-05
0.000937916 8.62185e-06 1.02539e-07
8.62185e-06 3.43661e-06 -3.38725e-08
1.02539e-07 -3.38725e-08 -3.08281e-05
0.00085802 1.48369e-05 -2.00389e-06
1.48369e-05 -3.98765e-05 3.35786e-06
-2.00389e-06 3.35786e-06 -4.50207e-05
0.000940425 4.29606e-06 8.60025e-07
4.29606e-06 2.365e-06 -1.97629e-06
8.60025e-07 -1.97629e-06 -2.98978e-05
0.00087604 1.2763e-05 1.28828e-07
1.2763e-05 -3.52162e-05 7.59074e-09
1.28828e-07 7.59074e-09 -3.8969e-05
0.00230355 2.08466e-05 -4.07784e-06
2.08466e-05 0.000686797 1.64637e-06
-4.07784e-06 1.64637e-06 0.000707517
0.000897404 1.05185e-05 1.44856e-06
1.05185e-05 -2.87297e-05 -3.23906e-06
1.44856e-06 -3.23906e-06 -3.11766e-05
0.001693 1.38775e-05 4.20049e-06
1.38775e-05 0.000372674 -1.18867e-06
4.20049e-06 -1.18867e-06 0.000391534
0.00230031 1.14801e-05 8.08836e-06
1.14801e-05 0.000677624 -4.01407e-06
8.08836e-06 -4.01407e-06 0.000699999
0.00079796 -2.18374e-06 -3.27111e-07
-2.18374e-06 -6.48637e-05 -1.90344e-06
-3.27111e-07 -1.90344e-06 -0.000117754
0.000685998 -6.63565e-06 -6.93185e-07
-6.63565e-06 -0.000128596 -2.5534e-06
-6.93185e-07 -2.5534e-06 -0.000159934
0.000955003 -1.21287e-06 -1.1154e-07
-1.21287e-06 1.50201e-05 -4.90336e-07
-1.1154e-07 -4.90336e-07 -3.48029e-05
0.000911899 -8.35189e-06 -9.86725e-07
-8.35189e-06 -2.5262e-05 -3.28193e-06
-9.86725e-07 -3.28193e-06 -2.52547e-05
0.000701672 -5.21719e-06 -1.03051e-07
-5.21719e-06 -0.000122507 -6.10651e-07
-1.03051e-07 -6.10651e-07 -0.000151499
0.00107657 1.42278e-07 1.37099e-07
1.42278e-07 7.69002e-05 1.38553e-06
1.37099e-07 1.38553e-06 3.06592e-05
0.00220662 -7.52966e-06 -5.84398e-06
-7.52966e-06 0.000627128 -4.0341e-06
-5.84398e-06 -4.0341e-06 0.000650999
0.000902212 -5.47508e-06 -9.86486e-08
-5.47508e-06 -3.27038e-05 -1.47591e-08
-9.86486e-08 -1.47591e-08 -3.11171e-05
0.000709968 -3.50266e-06 1.41502e-07
-3.50266e-06 -0.000119672 1.81555e-06
1.41502e-07 1.81555e-06 -0.000146663
0.00217932 -3.60494e-06 -1.12462e-06
-3.60494e-06 0.000611573 8.84648e-09
-1.12462e-06 8.84648e-09 0.000636085
0.00089952 -2.55201e-06 1.74301e-07
-2.55201e-06 -3.57267e-05 3.21527e-06
1.74301e-07 3.21527e-06 -3.309e-05
0.00216405 2.9792e-07 -6.09651e-07
2.9792e-07 0.00060336 3.9619e-06
-6.09651e-07 3.9619e-06 0.000628105
0.00115862 -7.06047e-06 4.93616e-06
-7.06047e-06 0.000257881 -9.75595e-07
4.93616e-06 -9.75595e-07 0.000156928
0.00115943 -6.20923e-06 -2.02056e-06
-6.20923e-06 0.000313188 4.43529e-07
-2.02056e-06 4.43529e-07 0.000238709
0.00113525 5.72061e-06 -8.40217e-08
5.72061e-06 0.000240929 3.52927e-06
-8.40217e-08 3.52927e-06 0.000243583
0.00106741 2.46858e-05 -9.61443e-08
2.46858e-05 7.6104e-05 7.30459e-08
-9.61443e-08 7.30459e-08 1.03009e-05
0.000960611 1.86211e-05 -3.41751e-07
1.86211e-05 1.80486e-05 -1.05761e-06
-3.41751e-07 -1.05761e-06 -4.97153e-05
0.00118131 3.18283e-05 -2.06313e-07
3.18283e-05 0.000135654 -4.09611e-07
-2.06313e-07 -4.09611e-07 6.11531e-05
0.0023082 1.3643e-05 -4.43538e-06
1.3643e-05 0.000887381 -1.03023e-05
-4.43538e-06 -1.03023e-05 0.000833198
0.00116116 -9.55074e-06 6.00794e-06
-9.55074e-06 0.000210226 1.34222e-07
6.00794e-06 1.34222e-07 0.000139296
0.00146367 1.62963e-07 -1.24533e-05
1.62963e-07 0.00046567 7.52498e-06
-1.24533e-05 7.52498e-06 0.00041083
0.000130212 4.84796e-05 -3.05613e-05
4.84796e-05 -0.000284255 1.15462e-05
-3.05613e-05 1.15462e-05 -0.00050915
0.00235319 0.000162929 1.27058e-05
0.000162929 0.000366962 -1.27688e-05
1.27058e-05 -1.27688e-05 -0.000446204
0.00300001 0.000266607 3.12537e-05
0.000266607 0.000526405 -2.33406e-05
3.12537e-05 -2.33406e-05 0.00064711
0.000561938 2.35228e-07 4.23468e-06
2.35228e-07 -0.000316169 2.34873e-06
4.23468e-06 2.34873e-06 -0.000225678
0.000514946 -3.20032e-05 -1.26775e-05
-3.20032e-05 -9.65315e-05 1.11884e-05
-1.26775e-05 1.11884e-05 -0.000272246
0.00498623 8.51938e-05 3.64056e-05
8.51938e-05 0.00103393 -4.33265e-05
3.64056e-05 -4.33265e-05 0.000241073
0.000615841 0.000100195 -3.81626e-07
0.000100195 -0.000690072 1.21451e-05
-3.81626e-07 1.21451e-05 -0.000540052
0.00110596 1.38839e-05 3.29714e-07
1.38839e-05 2.52712e-06 -2.18535e-08
3.29714e-07 -2.18535e-08 6.13162e-05
0.00178388 -0.000190237 2.62852e-05
-0.000190237 0.000221904 -5.00179e-05
2.62852e-05 -5.00179e-05 6.62952e-05
0.00811674 0.000100829 2.48628e-05
0.000100829 0.00216831 -3.48215e-05
2.48628e-05 -3.48215e-05 0.00161678
-2.38623e-05 -5.55145e-06 -1.52758e-06
-5.55145e-06 -0.00101116 8.32357e-05
-1.52758e-06 8.32357e-05 -0.0008684
-0.000341926 1.45546e-05 -8.72929e-07
1.45546e-05 -0.000914472 2.56174e-07
-8.72929e-07 2.56174e-07 -0.000798858
0.00108917 9.47222e-06 -1.96869e-08
9.47222e-06 8.64885e-05 -1.01485e-06
-1.96869e-08 -1.01485e-06 4.26483e-06
0.00100133 -1.54256e-06 -6.97056e-08
-1.54256e-06 4.93488e-05 -2.40054e-07
-6.97056e-08 -2.40054e-07 -3.21981e-05
0.00104932 -1.71628e-05 -9.05524e-08
-1.71628e-05 8.00406e-05 1.1434e-06
-9.05524e-08 1.1434e-06 2.85429e-06
0.0010271 1.98298e-05 -3.63632e-07
1.98298e-05 6.03386e-05 -7.06934e-07
-3.63632e-07 -7.06934e-07 -1.35932e-05
0.00115434 4.71455e-05 9.85867e-07
4.71455e-05 0.000129341 1.52521e-06
9.85867e-07 1.52521e-06 5.79141e-05
0.00123394 2.98529e-05 1.04734e-07
2.98529e-05 0.000164223 1.10027e-06
1.04734e-07 1.10027e-06 0.000101443
0.00250623 -0.000168731 6.71863e-06
-0.000168731 0.000396092 -9.50346e-08
6.71863e-06 -9.50346e-08 0.000400543
0.000898632 -1.12659e-05 -1.18537e-07
-1.12659e-05 0.000156292 5.94213e-06
-1.18537e-07 5.94213e-06 -9.62372e-05
0.00111176 2.66785e-05 4.32695e-07
2.66785e-05 0.000104027 1.23807e-06
4.32695e-07 1.23807e-06 1.71895e-05
0.00121908 -9.25882e-06 5.74757e-07
-9.25882e-06 0.000164343 2.87701e-07
5.74757e-07 2.87701e-07 4.56076e-05
0.00112683 3.16167e-06 -2.33078e-08
3.16167e-06 0.000101819 8.08813e-07
-2.33078e-08 8.08813e-07 7.06025e-06
0.00110024 2.42589e-05 3.66991e-07
2.42589e-05 8.88804e-05 2.35716e-07
3.66991e-07 2.35716e-07 3.81951e-06
0.00114456 2.82663e-05 1.72935e-07
2.82663e-05 0.0001086 -1.41889e-07
1.72935e-07 -1.41889e-07 1.63825e-05
0.00132264 -0.000131685 -3.02422e-07
-0.000131685 0.000128612 1.84925e-06
-3.02422e-07 1.84925e-06 1.75916e-05
0.0012573 1.29314e-06 4.99134e-07
1.29314e-06 0.000150225 -1.35458e-06
4.99134e-07 -1.35458e-06 6.026e-05
0.00149522 4.96024e-05 -1.69381e-06
4.96024e-05 0.000445701 -8.02873e-07
-1.69381e-06 -8.02873e-07 0.000254948
0.000947618 5.49198e-06 1.69902e-07
5.49198e-06 9.41458e-06 -2.15883e-06
1.69902e-07 -2.15883e-06 -7.8642e-05
0.000446018 -2.53837e-05 6.75806e-07
-2.53837e-05 0.000127838 -3.33594e-06
6.75806e-07 -3.33594e-06 -0.00014076
0.000551308 2.68433e-05 -2.05877e-06
2.68433e-05 -0.000146196 3.81219e-06
-2.05877e-06 3.81219e-06 -0.000205343
0.00106738 -2.57558e-06 9.01812e-08
-2.57558e-06 6.55439e-05 -1.56101e-06
9.01812e-08 -1.56101e-06 -2.85888e-05
0.00131329 -5.06845e-06 9.10506e-07
-5.06845e-06 0.000331785 -9.43191e-07
9.10506e-07 -9.43191e-07 0.00021602
0.000972068 -2.3021e-06 1.20297e-06
-2.3021e-06 0.000149035 1.88828e-07
1.20297e-06 1.88828e-07 3.88904e-05
0.0010972 -3.75563e-06 -1.90868e-05
-3.75563e-06 0.000290928 1.05824e-06
-1.90868e-05 1.05824e-06 0.00021014
0.00143519 5.66777e-05 2.55705e-06
5.66777e-05 0.000287517 4.02861e-06
2.55705e-06 4.02861e-06 0.000209703
-0.00055587 5.31007e-05 6.84555e-06
5.31007e-05 -0.000417534 -1.08377e-05
6.84555e-06 -1.08377e-05 -0.000492004
0.000735139 4.29836e-06 -2.67056e-06
4.29836e-06 -3.61572e-05 1.8047e-06
-2.67056e-06 1.8047e-06 -0.000144337
0.00365385 -2.95747e-05 -1.61336e-05
-2.95747e-05 0.000409342 -1.06129e-05
-1.61336e-05 -1.06129e-05 0.000184778
-0.00126647 1.94384e-05 1.25519e-06
1.94384e-05 -0.00173599 7.1163e-05
1.25519e-06 7.1163e-05 -0.00155496
7.1425e-05 -8.1644e-06 -1.26639e-07
-8.1644e-06 -0.000537844 -5.27267e-06
-1.26639e-07 -5.27267e-06 -0.000628084
0.000498685 -8.08009e-06 -1.70427e-06
-8.08009e-06 -0.000317115 -7.58993e-06
-1.70427e-06 -7.58993e-06 -0.000262382
0.000664587 3.66427e-05 2.28762e-06
3.66427e-05 2.23112e-05 7.62734e-07
2.28762e-06 7.62734e-07 -5.93183e-05
0.00116566 -4.61031e-06 -5.4874e-08
-4.61031e-06 0.000210802 1.04052e-06
-5.4874e-08 1.04052e-06 9.59304e-05
0.00120523 -2.20696e-05 -6.39773e-06
-2.20696e-05 0.000238288 8.19084e-07
-6.39773e-06 8.19084e-07 0.000138539
0.00120132 0.000146504 2.31326e-05
0.000146504 0.000291892 1.07945e-06
2.31326e-05 1.07945e-06 0.000134604
0.00129924 6.62549e-05 1.83544e-06
6.62549e-05 1.90515e-05 -3.15176e-06
1.83544e-06 -3.15176e-06 0.000267939
0.000485048 0.000131343 1.91725e-06
0.000131343 -0.000697282 -1.30658e-05
1.91725e-06 -1.30658e-05 -0.000575321
0.00698655 -8.38339e-06 6.91676e-06
-8.38339e-06 0.00178147 -2.02013e-05
6.91676e-06 -2.02013e-05 0.00144028
-0.000849431 5.08115e-06 -1.89624e-05
5.08115e-06 -0.00022303 -1.23315e-05
-1.89624e-05 -1.23315e-05 -0.000467283
0.00113253 -1.32778e-05 -5.88214e-06
-1.32778e-05 0.000244227 7.89463e-07
-5.88214e-06 7.89463e-07 0.000125931
0.00102283 -1.28278e-06 -1.36372e-05
-1.28278e-06 0.000164935 3.6747e-06
-1.36372e-05 3.6747e-06 0.000104075
0.00140879 0.000111732 9.27671e-06
0.000111732 0.000177674 3.77824e-07
9.27671e-06 3.77824e-07 0.00045786
-0.0030569 0.000211793 3.70485e-05
0.000211793 -0.00224049 -3.9315e-05
3.70485e-05 -3.9315e-05 -0.0021698
0.00773024 0.000151021 -3.04068e-06
0.000151021 0.0020887 -7.89625e-06
-3.04068e-06 -7.89625e-06 0.00133018
0.0013319 -1.58558e-05 -2.0905e-05
-1.58558e-05 0.000338107 9.10715e-05
-2.0905e-05 9.10715e-05 3.29963e-05
0.000922231 2.12965e-05 6.97939e-07
2.12965e-05 3.08332e-05 3.05524e-06
6.97939e-07 3.05524e-06 -7.20904e-05
0.000566199 -1.23309e-05 1.13484e-06
-1.23309e-05 1.47191e-05 -1.54528e-06
1.13484e-06 -1.54528e-06 -0.000221194
0.000715244 -3.19553e-05 -2.04112e-07
-3.19553e-05 0.000146639 -1.78909e-06
-2.04112e-07 -1.78909e-06 -0.000130305
0.00104255 -4.28405e-05 4.43844e-07
-4.28405e-05 6.01878e-05 -9.79155e-07
4.43844e-07 -9.79155e-07 -3.45836e-05
0.000806189 -2.44559e-05 2.6683e-07
-2.44559e-05 -1.57584e-05 1.16634e-06
2.6683e-07 1.16634e-06 -0.000125062
0.00086412 -2.3825e-05 -1.57073e-07
-2.3825e-05 4.92097e-05 7.0124e-07
-1.57073e-07 7.0124e-07 -7.41234e-05
0.00089333 -6.22929e-05 2.0543e-06
-6.22929e-05 0.000126714 -1.51587e-06
2.0543e-06 -1.51587e-06 -7.05439e-05
0.00131318 -5.61039e-05 -2.89707e-09
-5.61039e-05 0.000208563 -2.66183e-08
-2.89707e-09 -2.66183e-08 0.000111138
0.00127647 -6.12857e-05 -1.19977e-07
-6.12857e-05 0.000222483 4.02714e-07
-1.19977e-07 4.02714e-07 9.8717e-05
0.00115507 -6.87449e-05 1.2915e-06
-6.87449e-05 0.000162725 1.89258e-06
1.2915e-06 1.89258e-06 1.37776e-05
0.000688763 -4.20747e-05 7.87747e-08
-4.20747e-05 -8.18046e-05 -1.41971e-06
7.87747e-08 -1.41971e-06 -0.000181685
0.00112362 -5.94937e-05 -2.5831e-07
-5.94937e-05 0.000120647 -5.39504e-08
-2.5831e-07 -5.39504e-08 6.40569e-06
0.00172568 -8.05724e-05 -1.39734e-06
-8.05724e-05 0.000383149 1.50328e-06
-1.39734e-06 1.50328e-06 0.000268231
0.00139951 -7.01835e-05 -1.83331e-06
-7.01835e-05 0.00020334 2.36646e-06
-1.83331e-06 2.36646e-06 0.000102293
0.000855935 -5.07199e-05 -5.02402e-07
-5.07199e-05 -3.66929e-05 1.85994e-06
-5.02402e-07 1.85994e-06 -0.000120541
0.00113249 -6.0922e-05 -4.5107e-07
-6.0922e-05 8.88437e-05 3.81011e-07
-4.5107e-07 3.81011e-07 -9.05229e-06
0.00110121 -5.73038e-05 -6.45456e-08
-5.73038e-05 9.22705e-05 -1.04694e-06
-6.45456e-08 -1.04694e-06 -7.72422e-06
0.00123456 -5.44166e-05 3.13376e-07
-5.44166e-05 0.000161562 -1.94278e-07
3.13376e-07 -1.94278e-07 8.67742e-05
0.00112381 -5.38916e-05 1.10556e-06
-5.38916e-05 0.000107456 -6.35954e-07
1.10556e-06 -6.35954e-07 2.91538e-05
0.000919512 -3.48325e-05 -5.27374e-07
-3.48325e-05 1.91399e-05 6.12646e-07
-5.27374e-07 6.12646e-07 -5.32294e-05
0.000993152 -4.60098e-05 2.12077e-07
-4.60098e-05 5.69038e-05 -1.06328e-07
2.12077e-07 -1.06328e-07 -2.0372e-05
0.00106011 -5.25059e-05 2.84267e-06
-5.25059e-05 7.56938e-05 -1.50861e-06
2.84267e-06 -1.50861e-06 -6.90158e-06
0.00100179 -8.67289e-06 -1.54932e-06
-8.67289e-06 4.40049e-05 9.88932e-07
-1.54932e-06 9.88932e-07 -1.71375e-05
0.00107803 -4.13456e-05 -2.89688e-07
-4.13456e-05 8.7024e-05 -5.49058e-08
-2.89688e-07 -5.49058e-08 1.58199e-05
0.0011216 -4.99917e-05 4.51646e-07
-4.99917e-05 0.000110502 -1.06202e-07
4.51646e-07 -1.06202e-07 3.29198e-05
0.000938452 2.65182e-06 -1.86969e-06
2.65182e-06 8.16976e-06 2.32551e-06
-1.86969e-06 2.32551e-06 -3.12586e-05
0.00101935 -1.71729e-05 1.36727e-07
-1.71729e-05 4.9187e-05 1.33278e-07
1.36727e-07 1.33278e-07 -1.13085e-05
0.0010127 -4.0832e-05 1.38264e-06
-4.0832e-05 5.23392e-05 -1.73413e-07
1.38264e-06 -1.73413e-07 -2.11055e-05
0.00100794 -1.2826e-05 1.04512e-06
-1.2826e-05 4.38488e-05 -1.34683e-06
1.04512e-06 -1.34683e-06 -1.48231e-05
0.00093435 8.21503e-06 2.32391e-07
8.21503e-06 4.57785e-06 -3.1496e-08
2.32391e-07 -3.1496e-08 -3.2392e-05
0.000845437 1.68136e-05 -2.38605e-06
1.68136e-05 -4.1449e-05 3.45362e-06
-2.38605e-06 3.45362e-06 -4.845e-05
0.000931964 9.32651e-06 1.0105e-06
9.32651e-06 6.44475e-07 -2.15066e-06
1.0105e-06 -2.15066e-06 -3.37099e-05
0.000871567 1.4962e-05 9.71513e-08
1.4962e-05 -3.32556e-05 -1.60581e-08
9.71513e-08 -1.60581e-08 -3.84757e-05
0.00238507 2.25217e-05 -1.31373e-05
2.25217e-05 0.000731958 3.9488e-06
-1.31373e-05 3.9488e-06 0.000751629
0.000893103 1.28317e-05 1.85466e-06
1.28317e-05 -2.70049e-05 -3.29897e-06
1.85466e-06 -3.29897e-06 -3.07543e-05
0.00170593 1.72749e-05 4.96345e-06
1.72749e-05 0.000384029 -1.16143e-06
4.96345e-06 -1.16143e-06 0.000401737
0.00232322 1.52654e-05 1.02575e-05
1.52654e-05 0.000692817 -4.01968e-06
1.02575e-05 -4.01968e-06 0.000714362
0.000983176 1.38716e-05 -5.59387e-07
1.38716e-05 2.75468e-05 -1.49033e-06
-5.59387e-07 -1.49033e-06 -2.68569e-05
0.000936955 -9.5593e-06 -7.08602e-07
-9.5593e-06 -7.00439e-07 -2.04324e-06
-7.08602e-07 -2.04324e-06 -3.26373e-05
0.000892368 7.06502e-06 -4.55248e-07
7.06502e-06 -1.67898e-05 -5.52575e-07
-4.55248e-07 -5.52575e-07 -6.93084e-05
0.000905059 -1.09974e-05 -1.26506e-06
-1.09974e-05 -2.52195e-05 -3.33572e-06
-1.26506e-06 -3.33572e-06 -2.7019e-05
0.000821292 -6.87554e-06 -2.40807e-07
-6.87554e-06 -6.05976e-05 -5.89924e-07
-2.40807e-07 -5.89924e-07 -9.13109e-05
0.00109927 -2.22021e-06 1.84217e-07
-2.22021e-06 8.70068e-05 7.79759e-07
1.84217e-07 7.79759e-07 3.78959e-05
0.002248 -1.14185e-05 -8.03021e-06
-1.14185e-05 0.000650664 -4.05371e-06
-8.03021e-06 -4.05371e-06 0.00067365
0.000896766 -8.27181e-06 -9.49923e-08
-8.27181e-06 -3.28099e-05 -1.44905e-08
-9.49923e-08 -1.44905e-08 -3.26979e-05
0.000699415 -5.31242e-06 1.77729e-07
-5.31242e-06 -0.000123463 1.34862e-06
1.77729e-07 1.34862e-06 -0.000152775
0.00220929 -7.43479e-06 -9.98239e-07
-7.43479e-06 0.000628226 1.847e-08
-9.98239e-07 1.847e-08 0.000652176
0.000891003 -5.41783e-06 5.21736e-07
-5.41783e-06 -3.8285e-05 3.23639e-06
5.21736e-07 3.23639e-06 -3.66244e-05
0.00217906 -3.51295e-06 2.06196e-06
-3.51295e-06 0.000611281 3.96241e-06
2.06196e-06 3.96241e-06 0.000635851
0.001564 2.39963e-06 2.9599e-06
2.39963e-06 0.000453855 3.2689e-07
2.9599e-06 3.2689e-07 0.000358011
0.00112947 -6.48006e-06 1.62087e-06
-6.48006e-06 0.000232808 -1.46089e-07
1.62087e-06 -1.46089e-07 0.000133463
0.00105592 -6.72877e-06 -1.50141e-05
-6.72877e-06 0.000244526 8.07399e-07
-1.50141e-05 8.07399e-07 0.000171832
0.000960572 1.65206e-05 -3.80567e-07
1.65206e-05 1.73287e-05 -1.23398e-06
-3.80567e-07 -1.23398e-06 -5.25442e-05
0.00114848 3.85698e-05 -3.83776e-07
3.85698e-05 0.000115491 -7.12784e-07
-3.83776e-07 -7.12784e-07 3.73093e-05
0.00110306 2.9326e-05 9.28223e-07
2.9326e-05 9.37593e-05 1.13221e-06
9.28223e-07 1.13221e-06 2.84279e-05
0.000940812 1.76697e-05 -5.60699e-08
1.76697e-05 8.70551e-06 1.43877e-09
-5.60699e-08 1.43877e-09 -5.9328e-05
0.00110256 2.2255e-05 1.6747e-07
2.2255e-05 9.43964e-05 3.58563e-07
1.6747e-07 3.58563e-07 1.96036e-05
0.00106894 3.03219e-05 -3.6043e-07
3.03219e-05 7.63295e-05 -8.44981e-07
-3.6043e-07 -8.44981e-07 -1.86261e-07
0.00108122 4.29924e-05 -1.18274e-07
4.29924e-05 8.64133e-05 -3.9193e-07
-1.18274e-07 -3.9193e-07 4.34335e-06
0.000787947 2.98253e-05 -1.71194e-06
2.98253e-05 -5.25502e-06 -1.12115e-05
-1.71194e-06 -1.12115e-05 -8.52525e-05
0.00102389 1.21389e-05 -1.75787e-06
1.21389e-05 7.1163e-05 -3.62879e-06
-1.75787e-06 -3.62879e-06 1.59669e-05
0.000918829 -9.79044e-06 3.45033e-06
-9.79044e-06 5.76713e-05 4.33757e-06
3.45033e-06 4.33757e-06 -9.23171e-06
-0.000446775 9.63238e-06 6.90583e-09
9.63238e-06 -0.000925883 9.09847e-07
6.90583e-09 9.09847e-07 -0.00089287
0.000913344 -4.29727e-05 -6.18672e-05
-4.29727e-05 -0.000268036 6.13273e-05
-6.18672e-05 6.13273e-05 -0.000558474
0.00204786 7.11906e-05 5.09362e-05
7.11906e-05 -4.17242e-06 -6.18643e-05
5.09362e-05 -6.18643e-05 -0.000683624
0.00479149 0.000170748 1.45406e-05
0.000170748 0.000966057 -3.11314e-05
1.45406e-05 -3.11314e-05 0.00116032
0.00105533 -0.000164232 -2.3509e-05
-0.000164232 -0.000213171 2.30236e-05
-2.3509e-05 2.30236e-05 -0.000473115
0.00293124 -6.81347e-05 1.60543e-05
-6.81347e-05 -0.000276267 -5.01834e-05
1.60543e-05 -5.01834e-05 -0.000971583
0.00328996 -1.94366e-05 -2.52723e-06
-1.94366e-05 0.000305798 -7.44219e-07
-2.52723e-06 -7.44219e-07 0.000381432
0.00188158 6.2417e-06 -8.53994e-07
6.2417e-06 0.000373363 5.08908e-06
-8.53994e-07 5.08908e-06 0.000529065
0.000724525 -0.000131177 3.4929e-05
-0.000131177 -9.92485e-05 -2.39554e-05
3.4929e-05 -2.39554e-05 -0.000270318
0.00315369 -0.000206845 -2.07697e-05
-0.000206845 -0.000518245 -0.000105567
-2.07697e-05 -0.000105567 -0.000859182
-0.000482427 -7.38954e-05 1.62769e-05
-7.38954e-05 -0.00137407 5.18898e-05
1.62769e-05 5.18898e-05 -0.00118867
-0.00105778 -4.8803e-05 -5.67713e-06
-4.8803e-05 -0.00138291 -9.12916e-08
-5.67713e-06 -9.12916e-08 -0.00114672
0.00114425 1.46604e-05 -7.78809e-07
1.46604e-05 0.000105686 -1.42158e-06
-7.78809e-07 -1.42158e-06 2.21371e-05
0.00106864 1.09485e-05 6.93804e-08
1.09485e-05 7.66723e-05 -2.05862e-07
6.93804e-08 -2.05862e-07 -6.02053e-06
0.00101256 1.03417e-07 -3.96846e-08
1.03417e-07 5.62608e-05 7.72486e-07
-3.96846e-08 7.72486e-07 -2.56434e-05
0.00105503 2.15638e-05 7.82065e-08
2.15638e-05 7.4166e-05 2.29971e-07
7.82065e-08 2.29971e-07 2.20584e-07
0.00159592 -0.00013403 1.15395e-05
-0.00013403 0.000212422 2.3411e-06
1.15395e-05 2.3411e-06 0.000140836
0.0014907 4.75033e-05 2.58537e-06
4.75033e-05 0.000474046 3.97532e-06
2.58537e-06 3.97532e-06 0.000282958
0.00102801 2.53526e-05 3.09936e-07
2.53526e-05 5.33216e-05 1.32066e-06
3.09936e-07 1.32066e-06 -3.16664e-05
0.00104203 1.64732e-05 -2.18119e-07
1.64732e-05 5.63438e-05 1.24999e-06
-2.18119e-07 1.24999e-06 -3.59273e-05
0.00151522 8.68916e-07 -8.82256e-07
8.68916e-07 0.000274911 -8.20281e-08
-8.82256e-07 -8.20281e-08 0.000186398
0.00102603 1.9894e-05 -8.54589e-07
1.9894e-05 4.91763e-05 -1.30844e-07
-8.54589e-07 -1.30844e-07 -3.92727e-05
0.00102532 -4.64626e-07 -1.06746e-06
-4.64626e-07 4.34565e-05 5.13552e-07
-1.06746e-06 5.13552e-07 -5.17673e-05
0.000655208 -2.49884e-05 1.30911e-05
-2.49884e-05 0.000221617 -4.28948e-07
1.30911e-05 -4.28948e-07 1.11005e-05
0.000898693 1.26819e-05 2.53506e-06
1.26819e-05 3.01506e-05 2.90449e-06
2.53506e-06 2.90449e-06 -2.49369e-05
0.00122317 2.24253e-06 1.49268e-08
2.24253e-06 0.000151897 -2.88292e-06
1.49268e-08 -2.88292e-06 5.58865e-05
0.000876957 1.60528e-05 5.80654e-06
1.60528e-05 0.000485836 4.53983e-06
5.80654e-06 4.53983e-06 0.000294103
0.00168721 -3.17021e-05 6.30785e-06
-3.17021e-05 0.000425689 -2.57419e-06
6.30785e-06 -2.57419e-06 0.000301322
0.00147765 -4.74666e-06 -4.71397e-06
-4.74666e-06 0.000474267 -4.50261e-07
-4.71397e-06 -4.50261e-07 0.000354962
0.00101443 -4.81204e-06 3.11932e-07
-4.81204e-06 0.000154531 -5.25735e-07
3.11932e-07 -5.25735e-07 3.56593e-05
0.000568701 -3.45845e-06 -9.27603e-07
-3.45845e-06 -0.000102314 4.23431e-07
-9.27603e-07 4.23431e-07 -0.000214991
0.000555062 2.27153e-05 -3.71099e-06
2.27153e-05 -7.04987e-05 5.77724e-06
-3.71099e-06 5.77724e-06 -0.000151855
0.00130535 7.3878e-05 -3.38347e-05
7.3878e-05 0.000621676 1.12367e-05
-3.38347e-05 1.12367e-05 0.000620441
0.000816575 -4.61363e-06 -1.70003e-07
-4.61363e-06 3.22715e-06 2.06139e-06
-1.70003e-07 2.06139e-06 -0.000113209
0.00310012 0.000167348 1.60273e-05
0.000167348 -7.42842e-05 -9.05633e-05
1.60273e-05 -9.05633e-05 -0.000558507
0.00453843 0.000197637 -1.16354e-05
0.000197637 0.00094293 1.97352e-05
-1.16354e-05 1.97352e-05 0.00107255
0.00109113 -2.36632e-05 -9.34218e-07
-2.36632e-05 0.000168406 -5.97375e-06
-9.34218e-07 -5.97375e-06 7.1197e-05
0.00197153 6.30228e-05 -2.03125e-06
6.30228e-05 0.000438801 -6.43754e-06
-2.03125e-06 -6.43754e-06 0.000666897
7.18684e-05 -7.18207e-06 1.39088e-05
-7.18207e-06 0.0001406 -3.83061e-07
1.39088e-05 -3.83061e-07 -6.38483e-05
0.00113796 -1.27204e-05 -1.97066e-06
-1.27204e-05 0.000241458 2.03403e-07
-1.97066e-06 2.03403e-07 0.000123877
0.00128804 -4.50207e-06 8.91247e-07
-4.50207e-06 0.000346429 7.75997e-07
8.91247e-07 7.75997e-07 0.000280682
0.00193086 -2.53402e-05 -9.53632e-06
-2.53402e-05 0.000722093 1.67591e-05
-9.53632e-06 1.67591e-05 0.000642219
0.000623389 0.000121144 -1.89012e-06
0.000121144 -0.000276825 -8.75324e-08
-1.89012e-06 -8.75324e-08 6.7962e-06
0.000908179 0.000243162 3.49339e-06
0.000243162 -0.000410063 -9.4353e-06
3.49339e-06 -9.4353e-06 -0.000350915
0.00292537 2.05132e-05 2.13809e-05
2.05132e-05 0.000239447 -1.10529e-05
2.13809e-05 -1.10529e-05 -0.000688594
0.000493027 -5.63535e-05 3.39526e-06
-5.63535e-05 0.000283082 -1.94283e-05
3.39526e-06 -1.94283e-05 1.96285e-05
0.00137563 -9.62924e-06 -1.23761e-05
-9.62924e-06 0.000454775 1.40921e-06
-1.23761e-05 1.40921e-06 0.000365256
-0.00103308 4.72017e-05 7.26331e-06
4.72017e-05 -0.00107615 -4.97949e-06
7.26331e-06 -4.97949e-06 -0.00101188
0.000183922 0.000183231 5.75748e-05
0.000183231 -7.83029e-05 -2.56489e-05
5.75748e-05 -2.56489e-05 -1.89514e-05
0.00591357 0.000312113 3.33912e-05
0.000312113 0.00161405 -4.37498e-05
3.33912e-05 -4.37498e-05 0.000829598
0.00197909 -0.000152244 -4.6831e-05
-0.000152244 0.00011925 0.000104228
-4.6831e-05 0.000104228 -0.000387076
0.00104639 -8.13027e-06 -1.70718e-06
-8.13027e-06 0.000239259 -1.54624e-06
-1.70718e-06 -1.54624e-06 8.91978e-06
0.000633093 -2.21349e-05 -3.07612e-08
-2.21349e-05 0.000112008 -8.9955e-07
-3.07612e-08 -8.9955e-07 -0.000169698
0.0013685 -8.77176e-05 6.27701e-07
-8.77176e-05 0.000389517 1.68631e-06
6.27701e-07 1.68631e-06 0.000131916
0.000776835 -1.89517e-05 9.26146e-09
-1.89517e-05 6.26025e-06 1.20337e-07
9.26146e-09 1.20337e-07 -0.000112526
0.000584293 -4.35232e-05 1.90761e-07
-4.35232e-05 -8.06044e-06 2.20584e-07
1.90761e-07 2.20584e-07 -0.000209657
0.0011878 -8.69049e-05 2.36912e-06
-8.69049e-05 0.000196695 4.49344e-06
2.36912e-06 4.49344e-06 1.25167e-05
0.00153754 -7.07234e-05 -1.20098e-06
-7.07234e-05 0.000343161 -2.58987e-08
-1.20098e-06 -2.58987e-08 0.000215141
0.00123997 -7.06371e-05 -2.46898e-07
-7.06371e-05 0.000198148 7.03867e-07
-2.46898e-07 7.03867e-07 4.7351e-05
0.00132125 -8.37286e-05 -1.1758e-06
-8.37286e-05 0.000180838 4.82184e-07
-1.1758e-06 4.82184e-07 3.98843e-05
0.00111399 -5.90897e-05 -4.51565e-07
-5.90897e-05 0.000114506 -1.01768e-06
-4.51565e-07 -1.01768e-06 -1.99771e-06
0.00149175 -7.6089e-05 -2.83366e-07
-7.6089e-05 0.000265765 1.24996e-07
-2.83366e-07 1.24996e-07 0.00014837
0.00139179 -7.52857e-05 -5.17044e-07
-7.52857e-05 0.000190759 3.48857e-07
-5.17044e-07 3.48857e-07 7.90159e-05
0.00129926 -6.64228e-05 -1.49725e-06
-6.64228e-05 0.000120816 2.90234e-07
-1.49725e-06 2.90234e-07 2.50313e-05
0.00147535 -6.75428e-05 -1.85071e-06
-6.75428e-05 0.000243994 2.77185e-06
-1.85071e-06 2.77185e-06 0.000154038
0.00133255 -6.89912e-05 -2.52207e-07
-6.89912e-05 0.000170202 1.96771e-07
-2.52207e-07 1.96771e-07 6.81006e-05
0.000830292 -4.75822e-05 -2.16361e-09
-4.75822e-05 -4.48706e-05 2.60416e-07
-2.16361e-09 2.60416e-07 -0.000120797
0.000991336 -5.36105e-05 8.22551e-07
-5.36105e-05 3.05509e-05 -2.48487e-07
8.22551e-07 -2.48487e-07 -5.26311e-05
0.00108109 -6.01115e-05 6.79725e-07
-6.01115e-05 6.53505e-05 -1.61379e-06
6.79725e-07 -1.61379e-06 -3.4136e-05
0.00111444 -4.49511e-05 -1.84883e-07
-4.49511e-05 0.000106033 2.77388e-07
-1.84883e-07 2.77388e-07 3.35846e-05
0.00115689 -5.25106e-05 8.10328e-09
-5.25106e-05 0.000124592 -1.66462e-07
8.10328e-09 -1.66462e-07 4.94697e-05
0.000943599 -4.94533e-05 1.86081e-06
-4.94533e-05 2.00124e-05 -7.94826e-07
1.86081e-06 -7.94826e-07 -5.6614e-05
0.000945942 -5.63824e-07 -7.9235e-07
-5.63824e-07 2.27799e-05 1.01778e-06
-7.9235e-07 1.01778e-06 -3.99189e-05
0.000953837 -3.49006e-05 -1.35938e-07
-3.49006e-05 3.48393e-05 1.28027e-07
-1.35938e-07 1.28027e-07 -3.70211e-05
0.00109723 -4.82985e-05 8.32747e-07
-4.82985e-05 0.000107271 -5.37999e-07
8.32747e-07 -5.37999e-07 3.07073e-05
0.000915984 7.085e-06 -2.50566e-06
7.085e-06 -2.27424e-08 2.19578e-06
-2.50566e-06 2.19578e-06 -4.13982e-05
0.00101119 -9.79484e-06 -3.16508e-07
-9.79484e-06 4.76282e-05 8.89961e-09
-3.16508e-07 8.89961e-09 -1.32945e-05
0.00109187 -4.20484e-05 6.05444e-07
-4.20484e-05 9.2637e-05 -2.52835e-07
6.05444e-07 -2.52835e-07 2.1606e-05
0.000874708 1.87158e-05 -3.99316e-06
1.87158e-05 -2.34054e-05 4.83374e-06
-3.99316e-06 4.83374e-06 -3.22931e-05
0.000931033 7.09336e-06 3.57037e-07
7.09336e-06 4.91979e-06 1.40334e-08
3.57037e-07 1.40334e-08 -3.45639e-05
0.0010103 -1.79418e-05 1.55919e-06
-1.79418e-05 4.38825e-05 -1.00204e-06
1.55919e-06 -1.00204e-06 -1.62833e-05
0.000925498 9.94961e-06 1.40288e-06
9.94961e-06 4.56077e-07 -2.25391e-06
1.40288e-06 -2.25391e-06 -3.65851e-05
0.000859506 1.70166e-05 1.43999e-07
1.70166e-05 -3.44794e-05 -2.60087e-08
1.43999e-07 -2.60087e-08 -4.15934e-05
0.00243269 2.61049e-05 -1.48591e-05
2.61049e-05 0.000761068 3.92681e-06
-1.48591e-05 3.92681e-06 0.000779451
0.000885017 1.50951e-05 2.2084e-06
1.50951e-05 -2.66806e-05 -3.38417e-06
2.2084e-06 -3.38417e-06 -3.19768e-05
0.00238539 2.25256e-05 5.43662e-07
2.25256e-05 0.000732673 4.055e-08
5.43662e-07 4.055e-08 0.000752213
0.00235054 1.89296e-05 1.22719e-05
1.89296e-05 0.000710882 -4.01083e-06
1.22719e-05 -4.01083e-06 0.000731437
0.00105685 3.1571e-05 -7.34505e-07
3.1571e-05 6.82191e-05 -1.19517e-06
-7.34505e-07 -1.19517e-06 -3.77869e-06
0.0010018 9.98788e-06 -6.05703e-07
9.98788e-06 3.55468e-05 -1.67772e-06
-6.05703e-07 -1.67772e-06 -2.19599e-05
0.000927241 -1.34283e-05 -9.37306e-07
-1.34283e-05 -3.39976e-06 -2.19265e-06
-9.37306e-07 -2.19265e-06 -3.76132e-05
0.000992976 1.0692e-05 1.00973e-07
1.0692e-05 3.22532e-05 -4.73093e-08
1.00973e-07 -4.73093e-08 -2.20178e-05
0.000896114 -1.3339e-05 -1.67762e-06
-1.3339e-05 -2.57962e-05 -3.40163e-06
-1.67762e-06 -3.40163e-06 -2.94846e-05
0.000942985 -1.08933e-05 -1.79146e-09
-1.08933e-05 2.43841e-06 -4.88124e-09
-1.79146e-09 -4.88124e-09 -2.95355e-05
0.00098595 1.4073e-05 1.70083e-07
1.4073e-05 3.02169e-05 8.95014e-07
1.70083e-07 8.95014e-07 -2.15214e-05
0.00229769 -1.52645e-05 -1.00754e-05
-1.52645e-05 0.000679251 -4.08126e-06
-1.00754e-05 -4.08126e-06 0.00070113
0.00088886 -1.09441e-05 -9.01542e-08
-1.09441e-05 -3.32228e-05 -1.9488e-08
-9.01542e-08 -1.9488e-08 -3.49275e-05
0.000958886 -7.1664e-06 3.26e-07
-7.1664e-06 8.51228e-06 1.37624e-06
3.26e-07 1.37624e-06 -2.15821e-05
0.00224666 -1.13228e-05 -8.69923e-07
-1.13228e-05 0.000649599 2.74932e-08
-8.69923e-07 2.74932e-08 0.00067272
0.000882668 -8.18884e-06 8.04837e-07
-8.18884e-06 -3.98318e-05 3.28763e-06
8.04837e-07 3.28763e-06 -3.96187e-05
0.00220741 -7.32704e-06 4.71607e-06
-7.32704e-06 0.000626997 3.98048e-06
4.71607e-06 3.98048e-06 0.000651052
0.00089503 8.4559e-06 -5.6425e-06
8.4559e-06 8.45446e-05 5.57293e-07
-5.6425e-06 5.57293e-07 -2.82547e-05
0.00109775 1.40695e-06 1.076e-07
1.40695e-06 0.000169738 -2.46083e-06
1.076e-07 -2.46083e-06 7.04357e-05
0.00111886 -5.9198e-06 -1.98208e-06
-5.9198e-06 0.000219386 6.53536e-07
-1.98208e-06 6.53536e-07 0.000121647
0.00100232 2.2302e-05 -4.3682e-08
2.2302e-05 3.9401e-05 1.79863e-08
-4.3682e-08 1.79863e-08 -3.07586e-05
0.00108846 3.62076e-05 9.96666e-08
3.62076e-05 8.48797e-05 2.37121e-07
9.96666e-08 2.37121e-07 6.3546e-06
0.00102377 4.08089e-05 -1.1805e-06
4.08089e-05 5.50366e-05 -1.03775e-06
-1.1805e-06 -1.03775e-06 -2.46366e-05
0.000972946 2.90401e-05 -4.22493e-07
2.90401e-05 2.65156e-05 -1.35445e-06
-4.22493e-07 -1.35445e-06 -5.15636e-05
0.00115665 4.58923e-05 -4.55422e-07
4.58923e-05 0.00012255 -8.25327e-07
-4.55422e-07 -8.25327e-07 3.97994e-05
0.0009234 2.0117e-05 3.06161e-07
2.0117e-05 9.45132e-07 1.10656e-06
3.06161e-07 1.10656e-06 -6.76441e-05
0.00102064 1.4846e-05 3.26365e-07
1.4846e-05 5.15862e-05 1.26592e-06
3.26365e-07 1.26592e-06 -2.35143e-05
0.00105896 3.62808e-05 -7.11711e-08
3.62808e-05 7.2286e-05 -1.16596e-08
-7.11711e-08 -1.16596e-08 -4.58814e-06
0.00106208 2.58944e-05 2.64945e-07
2.58944e-05 7.35727e-05 4.75882e-07
2.64945e-07 4.75882e-07 -7.19199e-06
0.00110652 3.2638e-05 -3.09712e-07
3.2638e-05 9.76866e-05 -8.59638e-07
-3.09712e-07 -8.59638e-07 1.49274e-05
0.000715901 1.69938e-07 -1.10257e-05
1.69938e-07 4.73917e-05 -6.37229e-06
-1.10257e-05 -6.37229e-06 -2.2796e-05
0.000881592 2.99406e-05 -1.43108e-07
2.99406e-05 6.40879e-05 -4.42144e-06
-1.43108e-07 -4.42144e-06 -1.90762e-05
-0.000262623 1.05134e-05 5.12095e-07
1.05134e-05 -0.00074792 8.19599e-07
5.12095e-07 8.19599e-07 -0.000803322
0.00146156 1.12098e-05 6.79207e-06
1.12098e-05 0.000153454 9.37389e-06
6.79207e-06 9.37389e-06 0.000295127
-0.00177993 8.34875e-06 1.38346e-07
8.34875e-06 -0.0020789 -8.12585e-05
1.38346e-07 -8.12585e-05 -0.00191331
0.00133222 -0.000206801 -6.28955e-05
-0.000206801 -0.000226726 9.03681e-05
-6.28955e-05 9.03681e-05 -0.000591659
0.00701562 0.000100236 -1.30104e-05
0.000100236 0.00156304 -4.46896e-05
-1.30104e-05 -4.46896e-05 0.00114325
0.000627699 -0.000181036 -3.53869e-05
-0.000181036 -0.000364428 2.74743e-05
-3.53869e-05 2.74743e-05 -0.000765422
0.00745253 -0.000110731 1.39108e-05
-0.000110731 0.00167369 3.12527e-06
1.39108e-05 3.12527e-06 0.00133054
0.00107077 -0.000149788 4.354e-06
-0.000149788 -0.000597636 -1.80208e-05
4.354e-06 -1.80208e-05 -0.000522157
0.000205258 -4.90314e-05 2.83489e-06
-4.90314e-05 -0.000596583 2.96974e-06
2.83489e-06 2.96974e-06 -0.000371121
0.00187587 -7.59258e-05 -1.75673e-05
-7.59258e-05 0.000432766 -5.56e-05
-1.75673e-05 -5.56e-05 2.68124e-05
0.00668136 -0.000227554 -1.62789e-05
-0.000227554 0.00150383 5.06065e-05
-1.62789e-05 5.06065e-05 0.000952607
0.0046792 -0.000255181 9.56835e-06
-0.000255181 0.00133278 2.34435e-05
9.56835e-06 2.34435e-05 0.00144868
0.00109516 -0.000114402 4.39951e-07
-0.000114402 -0.000118644 -5.05891e-07
4.39951e-07 -5.05891e-07 0.000234025
0.000990798 2.84164e-05 -5.61043e-07
2.84164e-05 4.72893e-05 -2.19004e-06
-5.61043e-07 -2.19004e-06 -3.2998e-05
0.0011185 1.27718e-05 -8.23412e-08
1.27718e-05 9.71716e-05 -2.87601e-10
-8.23412e-08 -2.87601e-10 1.32325e-05
0.00105111 7.84574e-06 1.50114e-07
7.84574e-06 6.77293e-05 8.40098e-07
1.50114e-07 8.40098e-07 -1.51151e-05
0.0010449 -2.37584e-05 1.89473e-05
-2.37584e-05 0.000368748 -3.09607e-06
1.89473e-05 -3.09607e-06 0.000221514
0.00113195 -4.84108e-06 1.02512e-06
-4.84108e-06 0.000149035 3.25337e-06
1.02512e-06 3.25337e-06 9.80249e-05
0.00105856 1.85167e-05 3.37468e-08
1.85167e-05 6.57161e-05 2.13871e-06
3.37468e-08 2.13871e-06 -2.24134e-05
0.000998858 -4.50623e-06 -3.00918e-07
-4.50623e-06 2.89706e-05 2.7278e-06
-3.00918e-07 2.7278e-06 -6.69314e-05
0.0011071 3.89793e-07 3.31025e-07
3.89793e-07 9.78904e-05 -2.81753e-08
3.31025e-07 -2.81753e-08 2.33353e-06
0.000984418 -2.91111e-05 9.47135e-07
-2.91111e-05 0.000104567 1.19843e-06
9.47135e-07 1.19843e-06 -3.02071e-05
-3.42704e-05 1.71937e-05 -1.45567e-07
1.71937e-05 4.39348e-05 -2.11838e-06
-1.45567e-07 -2.11838e-06 -0.000166835
0.00059579 1.79166e-05 -3.37879e-06
1.79166e-05 -5.72391e-05 4.74521e-07
-3.37879e-06 4.74521e-07 -0.000201271
0.0011497 3.24378e-05 -2.77023e-06
3.24378e-05 0.000440259 9.75546e-06
-2.77023e-06 9.75546e-06 0.000282908
0.002149 -8.83482e-06 -1.46251e-05
-8.83482e-06 0.000954177 -1.05189e-06
-1.46251e-05 -1.05189e-06 0.000867355
0.00103191 -5.02264e-06 -1.34287e-06
-5.02264e-06 0.000196659 -4.46768e-07
-1.34287e-06 -4.46768e-07 7.53471e-05
0.000749963 -4.40792e-06 9.0603e-07
-4.40792e-06 -7.84668e-07 1.36886e-07
9.0603e-07 1.36886e-07 -0.000122871
0.000227814 8.88265e-06 -2.23012e-06
8.88265e-06 0.000177151 1.6658e-05
-2.23012e-06 1.6658e-05 7.50219e-06
0.000148693 2.54555e-05 3.34423e-05
2.54555e-05 -0.000349734 -4.85903e-05
3.34423e-05 -4.85903e-05 -0.000701806
0.00116721 -1.21365e-05 2.24112e-06
-1.21365e-05 0.000253613 1.4722e-06
2.24112e-06 1.4722e-06 0.000136774
0.0074997 0.000169809 3.16627e-05
0.000169809 0.00179264 -1.49345e-05
3.16627e-05 -1.49345e-05 0.000959674
0.00310879 0.000311248 -2.80718e-05
0.000311248 0.000688899 1.79977e-05
-2.80718e-05 1.79977e-05 0.00068964
0.00152679 -8.13258e-06 1.48457e-05
-8.13258e-06 0.000510103 -9.90195e-06
1.48457e-05 -9.90195e-06 0.000440008
-8.86892e-05 0.000130727 -1.06101e-05
0.000130727 -0.000690924 1.04401e-05
-1.06101e-05 1.04401e-05 -0.000413044
-2.08738e-05 -2.08254e-05 -6.22878e-06
-2.08254e-05 7.92137e-05 2.56141e-07
-6.22878e-06 2.56141e-07 -0.000179798
0.00115968 -1.00345e-05 2.12887e-06
-1.00345e-05 0.000315866 -6.29884e-08
2.12887e-06 -6.29884e-08 0.000227112
-0.00111477 5.42079e-05 7.14642e-06
5.42079e-05 -0.00109337 -3.98394e-06
7.14642e-06 -3.98394e-06 -0.0010189
0.00190273 -0.000101865 7.89745e-06
-0.000101865 0.000427997 3.43081e-05
7.89745e-06 3.43081e-05 2.32908e-05
0.00309077 0.000267153 -1.00022e-06
0.000267153 0.00101143 -3.32513e-07
-1.00022e-06 -3.32513e-07 0.000968374
0.00574729 0.000119023 1.67321e-05
0.000119023 0.00139227 -1.21008e-05
1.67321e-05 -1.21008e-05 0.000354564
0.00145198 -5.31486e-05 8.64251e-06
-5.31486e-05 0.000293983 -2.32172e-06
8.64251e-06 -2.32172e-06 0.000234264
-0.000886819 7.46901e-06 -8.59951e-06
7.46901e-06 -0.000912672 1.76396e-07
-8.59951e-06 1.76396e-07 -0.000929953
0.00238542 0.000183514 4.22813e-05
0.000183514 0.000798847 -1.69368e-05
4.22813e-05 -1.69368e-05 0.000724845
0.00337775 0.000258344 -2.66281e-05
0.000258344 0.000629367 2.56915e-05
-2.66281e-05 2.56915e-05 -0.000166185
0.00134447 -6.56582e-05 6.2332e-06
-6.56582e-05 6.04697e-05 4.26457e-05
6.2332e-06 4.26457e-05 -0.000187774
0.000668443 -1.25268e-05 6.80596e-07
-1.25268e-05 0.000126391 2.57323e-06
6.80596e-07 2.57323e-06 -0.000155543
0.000935373 -8.01325e-05 8.06138e-08
-8.01325e-05 0.000202883 -7.94342e-07
8.06138e-08 -7.94342e-07 -7.89222e-05
0.00204719 -0.000140844 1.83262e-07
-0.000140844 0.000540921 4.37764e-06
1.83262e-07 4.37764e-06 0.000334803
0.000316785 -2.50689e-05 -1.07813e-06
-2.50689e-05 -0.000126657 2.05249e-06
-1.07813e-06 2.05249e-06 -0.000329472
0.000955552 -8.07406e-05 7.56902e-07
-8.07406e-05 8.78019e-05 6.93898e-08
7.56902e-07 6.93898e-08 -9.67883e-05
0.00133046 -0.000105015 -2.29102e-06
-0.000105015 0.000133583 1.24284e-06
-2.29102e-06 1.24284e-06 -2.44467e-06
0.00133383 -7.21129e-05 -1.3612e-06
-7.21129e-05 0.000235752 -2.83091e-07
-1.3612e-06 -2.83091e-07 8.52794e-05
0.00120902 -7.9978e-05 -9.0924e-07
-7.9978e-05 0.000120938 -1.05265e-06
-9.0924e-07 -1.05265e-06 -1.4419e-05
0.00159702 -8.69889e-05 -1.16569e-06
-8.69889e-05 0.000239934 1.25968e-07
-1.16569e-06 1.25968e-07 0.000138368
0.00133809 -7.2861e-05 -1.5268e-07
-7.2861e-05 0.000188145 -1.4935e-06
-1.5268e-07 -1.4935e-06 6.92953e-05
0.00127643 -7.18014e-05 4.47204e-07
-7.18014e-05 0.000130947 -6.31246e-07
4.47204e-07 -6.31246e-07 2.12798e-05
0.00137777 -6.80606e-05 -1.36783e-06
-6.80606e-05 0.000127372 -8.36574e-07
-1.36783e-06 -8.36574e-07 3.82526e-05
0.00130101 -6.08143e-05 -1.24092e-06
-6.08143e-05 7.77229e-05 -3.19698e-07
-1.24092e-06 -3.19698e-07 -2.72851e-06
0.00115966 -6.08708e-05 -1.25942e-06
-6.08708e-05 6.50808e-05 1.13293e-06
-1.25942e-06 1.13293e-06 -2.52966e-05
0.00122893 -6.43797e-05 2.43212e-07
-6.43797e-05 8.39661e-05 -6.67515e-07
2.43212e-07 -6.67515e-07 -1.08216e-05
0.00123593 -5.86979e-05 -8.37493e-07
-5.86979e-05 0.00013752 1.96446e-06
-8.37493e-07 1.96446e-06 5.64462e-05
0.00122633 -6.23954e-05 -2.74501e-07
-6.23954e-05 0.000123709 3.82537e-07
-2.74501e-07 3.82537e-07 3.21113e-05
0.00125017 -6.73697e-05 7.7785e-07
-6.73697e-05 0.000129652 -1.75414e-06
7.7785e-07 -1.75414e-06 2.65035e-05
0.00103212 -4.78587e-05 -4.16606e-07
-4.78587e-05 5.81786e-05 -1.48034e-07
-4.16606e-07 -1.48034e-07 -1.25776e-05
0.000913475 -4.92366e-05 -1.60263e-07
-4.92366e-05 -3.3628e-06 -6.28324e-07
-1.60263e-07 -6.28324e-07 -7.84182e-05
0.00113861 -5.67706e-05 1.94592e-06
-5.67706e-05 0.000103571 -2.20918e-06
1.94592e-06 -2.20918e-06 2.10408e-05
0.00097571 -1.34993e-05 -6.78423e-07
-1.34993e-05 4.00833e-05 9.13412e-07
-6.78423e-07 9.13412e-07 -2.44002e-05
0.00104083 -4.24397e-05 1.70788e-07
-4.24397e-05 7.09104e-05 2.61973e-07
1.70788e-07 2.61973e-07 -1.39393e-06
0.00107753 -5.05927e-05 5.36689e-07
-5.05927e-05 8.67264e-05 5.2761e-08
5.36689e-07 5.2761e-08 1.12776e-05
0.00089318 2.20275e-05 -2.15684e-06
2.20275e-05 -4.91606e-06 2.05311e-06
-2.15684e-06 2.05311e-06 -4.89201e-05
0.000996354 -2.71346e-06 -8.86397e-08
-2.71346e-06 4.70995e-05 -1.02947e-08
-8.86397e-08 -1.02947e-08 -1.56577e-05
0.000986722 -3.52695e-05 1.34796e-07
-3.52695e-05 4.98899e-05 -2.79668e-07
1.34796e-07 -2.79668e-07 -2.14817e-05
0.00153104 2.42941e-05 -9.41898e-06
2.42941e-05 0.000313369 3.3379e-06
-9.41898e-06 3.3379e-06 0.000306291
0.000924506 6.73082e-06 5.52072e-08
6.73082e-06 4.03152e-06 -2.46865e-09
5.52072e-08 -2.46865e-09 -3.72067e-05
0.00102351 -1.11686e-05 1.01786e-06
-1.11686e-05 5.26592e-05 -9.81777e-07
1.01786e-06 -9.81777e-07 -7.99929e-06
0.00110161 1.93162e-05 -1.38872e-05
1.93162e-05 9.34056e-05 3.97598e-06
-1.38872e-05 3.97598e-06 0.000103773
0.0012072 2.06895e-05 -3.2848e-06
2.06895e-05 0.000145375 5.59256e-07
-3.2848e-06 5.59256e-07 0.000138001
0.000924046 1.16113e-05 1.81651e-06
1.16113e-05 1.71508e-06 -2.12327e-06
1.81651e-06 -2.12327e-06 -3.77224e-05
0.00087313 1.72307e-05 2.6639e-06
1.72307e-05 -2.77287e-05 -3.48966e-06
2.6639e-06 -3.48966e-06 -3.49553e-05
0.00243591 2.60558e-05 4.84626e-07
2.60558e-05 0.000763202 4.76014e-08
4.84626e-07 4.76014e-08 0.000781424
0.00238587 2.2492e-05 1.41093e-05
2.2492e-05 0.000733468 -4.00699e-06
1.41093e-05 -4.00699e-06 0.000752879
0.00101414 3.1629e-05 -1.11878e-06
3.1629e-05 4.79338e-05 -1.14363e-06
-1.11878e-06 -1.14363e-06 -2.62922e-05
0.0010122 5.37238e-06 -8.16115e-07
5.37238e-06 4.2236e-05 -1.7196e-06
-8.16115e-07 -1.7196e-06 -1.85638e-05
0.00104025 2.73558e-05 -1.21023e-07
2.73558e-05 5.94524e-05 5.8393e-08
-1.21023e-07 5.8393e-08 -1.28445e-05
0.000919618 -1.51625e-05 -1.19553e-06
-1.51625e-05 -4.86828e-06 -2.37491e-06
-1.19553e-06 -2.37491e-06 -4.14437e-05
0.00100484 6.5353e-06 9.60694e-08
6.5353e-06 3.70614e-05 -5.40858e-08
9.60694e-08 -5.40858e-08 -2.02972e-05
0.00088568 -1.53084e-05 -2.12297e-06
-1.53084e-05 -2.70542e-05 -3.4648e-06
-2.12297e-06 -3.4648e-06 -3.25172e-05
0.000934958 -1.15086e-05 -2.27881e-07
-1.15086e-05 4.04663e-07 -6.49316e-09
-2.27881e-07 -6.49316e-09 -3.37514e-05
0.00100436 1.20689e-05 5.86685e-07
1.20689e-05 3.83119e-05 1.57439e-06
5.86685e-07 1.57439e-06 -1.61927e-05
0.00235138 -1.89832e-05 -1.21464e-05
-1.89832e-05 0.000710462 -4.08148e-06
-1.21464e-05 -4.08148e-06 0.000731122
0.000879205 -1.32663e-05 -1.32004e-07
-1.32663e-05 -3.41342e-05 -1.16303e-08
-1.32004e-07 -1.16303e-08 -3.77338e-05
0.00095067 -1.00133e-05 7.03437e-07
-1.00133e-05 6.3214e-06 2.00443e-06
7.03437e-07 2.00443e-06 -2.56317e-05
0.00229809 -1.52244e-05 -7.52341e-07
-1.52244e-05 0.000678991 3.39724e-08
-7.52341e-07 3.39724e-08 0.000701014
0.000872562 -1.08873e-05 1.09207e-06
-1.08873e-05 -4.12752e-05 3.35134e-06
1.09207e-06 3.35134e-06 -4.28863e-05
0.00224815 -1.12121e-05 7.05625e-06
-1.12121e-05 0.000649971 3.99042e-06
7.05625e-06 3.99042e-06 0.000673211
0.000502798 -1.85338e-06 -1.21575e-05
-1.85338e-06 -5.44888e-05 -5.65998e-06
-1.21575e-05 -5.65998e-06 -0.000150723
0.000866796 6.75061e-06 1.12158e-06
6.75061e-06 6.59359e-05 1.61861e-07
1.12158e-06 1.61861e-07 -4.66082e-05
0.000600789 4.58333e-07 -8.56374e-08
4.58333e-07 -0.000133264 -5.96356e-07
-8.56374e-08 -5.96356e-07 -0.000236117
0.00105004 4.43396e-05 -9.54966e-07
4.43396e-05 6.62285e-05 -1.05308e-07
-9.54966e-07 -1.05308e-07 -1.16213e-05
0.00104516 2.20105e-05 3.38281e-07
2.20105e-05 6.13649e-05 1.25255e-06
3.38281e-07 1.25255e-06 -8.65039e-06
0.00102146 3.30619e-05 6.23633e-07
3.30619e-05 5.09333e-05 1.33841e-06
6.23633e-07 1.33841e-06 -2.7898e-05
0.00106843 2.85645e-05 -5.5316e-09
2.85645e-05 7.4813e-05 -2.51111e-07
-5.5316e-09 -2.51111e-07 -2.59953e-06
0.0010896 4.35926e-05 -2.24858e-07
4.35926e-05 8.81859e-05 -6.28071e-08
-2.24858e-07 -6.28071e-08 8.74694e-06
0.00107106 4.32041e-05 2.38098e-07
4.32041e-05 7.91869e-05 3.13437e-07
2.38098e-07 3.13437e-07 -3.20083e-06
0.0010712 4.81706e-05 -1.29837e-06
4.81706e-05 7.9019e-05 -1.22929e-06
-1.29837e-06 -1.22929e-06 -4.5761e-06
0.000975956 4.13391e-05 -6.51005e-07
4.13391e-05 3.43336e-05 -1.25687e-06
-6.51005e-07 -1.25687e-06 -4.97032e-05
0.00105369 4.26828e-05 5.63589e-07
4.26828e-05 7.05824e-05 8.4751e-07
5.63589e-07 8.4751e-07 -6.69787e-06
0.00103927 1.18682e-05 3.89463e-07
1.18682e-05 5.9751e-05 1.20745e-06
3.89463e-07 1.20745e-06 -2.00679e-05
0.00109671 3.50614e-05 -9.86797e-08
3.50614e-05 9.42069e-05 -7.4399e-09
-9.86797e-08 -7.4399e-09 1.11339e-05
0.00150038 4.08933e-05 7.0105e-07
4.08933e-05 0.000288959 -1.65457e-06
7.0105e-07 -1.65457e-06 0.00020291
0.002418 -5.66739e-05 -9.80993e-08
-5.66739e-05 0.000984951 -2.93792e-07
-9.80993e-08 -2.93792e-07 0.00108441
0.000667387 4.53878e-06 -7.88388e-09
4.53878e-06 1.98356e-05 -3.21532e-08
-7.88388e-09 -3.21532e-08 -4.91357e-05
0.00106868 2.9942e-05 2.00641e-06
2.9942e-05 0.00019236 1.302e-06
2.00641e-06 1.302e-06 0.000105822
0.00178593 -5.78026e-05 8.08903e-06
-5.78026e-05 0.000301428 4.45532e-06
8.08903e-06 4.45532e-06 0.00053796
0.00292183 -0.000189618 3.72491e-06
-0.000189618 8.16423e-05 -9.25563e-05
3.72491e-06 -9.25563e-05 0.00014341
0.00326881 4.37706e-05 -1.39525e-05
4.37706e-05 -0.00041107 0.000104733
-1.39525e-05 0.000104733 -0.000737765
0.000520314 -0.000168177 -5.91904e-05
-0.000168177 -9.48125e-05 6.00759e-05
-5.91904e-05 6.00759e-05 -0.000321674
0.0017743 -4.37529e-05 -9.15394e-06
-4.37529e-05 0.000629008 -1.43643e-07
-9.15394e-06 -1.43643e-07 0.00039289
0.000514592 -0.000111904 1.86006e-06
-0.000111904 -0.000355413 2.66754e-07
1.86006e-06 2.66754e-07 -6.23565e-05
0.0054335 -8.83154e-05 1.10877e-05
-8.83154e-05 0.000729235 5.3515e-05
1.10877e-05 5.3515e-05 -2.84863e-06
-0.000542496 -0.000164141 -6.31653e-06
-0.000164141 -0.000797543 -1.34981e-05
-6.31653e-06 -1.34981e-05 -0.000661605
0.00198758 0.000109652 -5.57645e-05
0.000109652 0.000579377 -4.79708e-05
-5.57645e-05 -4.79708e-05 0.000348654
0.00633201 -0.00021046 5.66155e-06
-0.00021046 0.0017271 3.44087e-05
5.66155e-06 3.44087e-05 0.00103687
0.000132409 -0.000142336 3.80425e-05
-0.000142336 -4.79999e-05 2.08466e-05
3.80425e-05 2.08466e-05 3.02472e-05
0.000913477 6.17755e-05 -3.05374e-06
6.17755e-05 3.17289e-05 -4.79902e-06
-3.05374e-06 -4.79902e-06 -4.51547e-05
0.00118058 3.29452e-05 2.00516e-06
3.29452e-05 0.000133353 2.18465e-07
2.00516e-06 2.18465e-07 5.36733e-05
0.0011222 2.28963e-05 -2.20026e-07
2.28963e-05 0.000104402 1.26743e-06
-2.20026e-07 1.26743e-06 1.93109e-05
-0.000900022 9.46149e-06 -1.2589e-06
9.46149e-06 -0.000390669 -9.13457e-06
-1.2589e-06 -9.13457e-06 -0.000610368
0.000544788 -1.88845e-05 1.02443e-07
-1.88845e-05 -9.53707e-05 3.80999e-06
1.02443e-07 3.80999e-06 -0.000241068
0.000978429 9.50062e-06 2.45307e-06
9.50062e-06 3.9371e-05 3.48852e-06
2.45307e-06 3.48852e-06 -5.61952e-05
0.00110047 3.38421e-05 -5.01462e-08
3.38421e-05 0.000177789 1.69883e-07
-5.01462e-08 1.69883e-07 3.70661e-05
0.000744197 1.62988e-05 2.55052e-06
1.62988e-05 0.000250732 2.02554e-06
2.55052e-06 2.02554e-06 9.50522e-05
-0.00113914 5.60831e-05 -6.00478e-06
5.60831e-05 -0.000760694 1.82315e-05
-6.00478e-06 1.82315e-05 -0.000916428
0.00265752 -1.37291e-05 -1.25937e-05
-1.37291e-05 0.00117847 -2.41382e-07
-1.25937e-05 -2.41382e-07 0.00120023
0.000914095 -6.85011e-06 -1.21163e-06
-6.85011e-06 0.00019538 -7.69329e-07
-1.21163e-06 -7.69329e-07 9.69036e-05
0.000595882 -5.23861e-06 2.32715e-06
-5.23861e-06 -7.48857e-05 1.73053e-07
2.32715e-06 1.73053e-07 -0.000198257
0.000135227 -2.80994e-05 8.02907e-06
-2.80994e-05 0.000155604 1.7501e-05
8.02907e-06 1.7501e-05 -0.000101536
0.00136777 -8.95981e-05 -2.57685e-06
-8.95981e-05 0.000242778 -4.33378e-05
-2.57685e-06 -4.33378e-05 -5.64622e-05
0.00105547 -1.047e-05 1.67172e-05
-1.047e-05 0.000246544 -2.04925e-07
1.67172e-05 -2.04925e-07 0.000159037
0.00117143 0.000146138 -3.80287e-05
0.000146138 -0.000355416 3.3075e-05
-3.80287e-05 3.3075e-05 -0.00127347
-0.000846432 0.000179946 -5.29995e-05
0.000179946 -0.000662009 2.90331e-05
-5.29995e-05 2.90331e-05 -0.000667
0.00110248 6.86276e-05 3.09201e-06
6.86276e-05 0.000167015 -2.14448e-06
3.09201e-06 -2.14448e-06 0.000286133
0.00155821 -6.50453e-05 3.15195e-06
-6.50453e-05 0.000386727 1.63439e-06
3.15195e-06 1.63439e-06 0.000293852
0.00114654 1.49022e-05 -2.31572e-06
1.49022e-05 0.000241274 1.84079e-07
-2.31572e-06 1.84079e-07 0.000252765
-0.00166655 0.000100637 -8.1871e-06
0.000100637 -0.000920736 3.25452e-06
-8.1871e-06 3.25452e-06 -0.000932675
0.003122 -0.000126608 -1.40118e-05
-0.000126608 0.000700441 2.38412e-05
-1.40118e-05 2.38412e-05 0.000226712
0.0048333 0.000235379 -5.98725e-06
0.000235379 0.00125261 4.61637e-06
-5.98725e-06 4.61637e-06 0.000508263
0.00124396 -8.98386e-05 8.42859e-06
-8.98386e-05 -0.000126958 4.86631e-06
8.42859e-06 4.86631e-06 -6.49233e-05
-0.00252293 4.24866e-05 5.78518e-05
4.24866e-05 -0.00161995 -1.42153e-05
5.78518e-05 -1.42153e-05 -0.00162744
0.00452032 0.000223475 1.64248e-05
0.000223475 0.00129105 -7.74649e-06
1.64248e-05 -7.74649e-06 0.000690353
0.00230486 1.40412e-05 -8.11257e-06
1.40412e-05 0.000366082 2.97335e-05
-8.11257e-06 2.97335e-05 -1.36498e-05
0.00059822 -7.1555e-05 -1.37991e-06
-7.1555e-05 6.74879e-05 -1.68933e-06
-1.37991e-06 -1.68933e-06 -0.000243975
0.00108022 -0.000118865 -1.31428e-08
-0.000118865 9.79296e-05 9.69292e-07
-1.31428e-08 9.69292e-07 -0.00011536
0.00152731 -0.00014878 -4.93843e-06
-0.00014878 0.000129939 4.58744e-06
-4.93843e-06 4.58744e-06 -5.51292e-08
0.000644446 -7.28998e-05 -1.41677e-06
-7.28998e-05 -5.52967e-05 -2.08566e-06
-1.41677e-06 -2.08566e-06 -0.000243458
0.00124486 -0.000102927 -1.74273e-06
-0.000102927 8.66074e-05 -1.6482e-06
-1.74273e-06 -1.6482e-06 -4.7842e-05
0.00197144 -0.00010458 -5.10979e-06
-0.00010458 0.000317387 -1.21345e-07
-5.10979e-06 -1.21345e-07 0.000240315
0.00109873 -7.65777e-05 -2.33452e-07
-7.65777e-05 6.43722e-05 -2.86553e-06
-2.33452e-07 -2.86553e-06 -6.6686e-05
0.00130446 -7.97463e-05 1.03658e-06
-7.97463e-05 9.79365e-05 -6.59402e-07
1.03658e-06 -6.59402e-07 -1.93884e-06
0.00158189 -7.07772e-05 -1.56783e-06
-7.07772e-05 0.000162151 -1.24144e-06
-1.56783e-06 -1.24144e-06 9.71159e-05
0.00108966 -6.6922e-05 9.4836e-07
-6.6922e-05 3.56233e-05 -1.30401e-06
9.4836e-07 -1.30401e-06 -7.24596e-05
0.00124685 -6.4711e-05 -1.47623e-07
-6.4711e-05 5.83793e-05 -4.93443e-07
-1.47623e-07 -4.93443e-07 -2.93586e-05
0.00137734 -5.7924e-05 -1.08306e-06
-5.7924e-05 7.07937e-05 -1.10428e-06
-1.08306e-06 -1.10428e-06 8.00383e-06
0.00136638 -5.43812e-05 -1.23708e-06
-5.43812e-05 8.39578e-05 -5.88856e-07
-1.23708e-06 -5.88856e-07 2.06694e-05
0.00130368 -6.04237e-05 -1.53178e-06
-6.04237e-05 9.75532e-05 1.47639e-07
-1.53178e-06 1.47639e-07 1.67216e-05
0.00127966 -5.89868e-05 4.46273e-07
-5.89868e-05 6.71046e-05 2.91418e-07
4.46273e-07 2.91418e-07 -1.19207e-05
0.000902462 -5.21967e-05 -1.25856e-06
-5.21967e-05 -4.88195e-05 1.47122e-06
-1.25856e-06 1.47122e-06 -0.000131572
0.00125045 -6.2295e-05 6.78969e-07
-6.2295e-05 0.000109917 -5.52463e-07
6.78969e-07 -5.52463e-07 2.06172e-05
0.00114129 -6.1917e-05 1.45284e-06
-6.1917e-05 3.86135e-05 -1.33195e-06
1.45284e-06 -1.33195e-06 -5.514e-05
0.00106509 -5.14275e-05 -3.48625e-07
-5.14275e-05 6.70351e-05 9.88014e-07
-3.48625e-07 9.88014e-07 -5.63287e-06
0.00104321 -5.44001e-05 2.26208e-07
-5.44001e-05 4.60358e-05 -1.36713e-07
2.26208e-07 -1.36713e-07 -3.52138e-05
0.000974181 -5.7181e-05 8.42251e-07
-5.7181e-05 1.87182e-06 -1.94138e-06
8.42251e-07 -1.94138e-06 -9.13629e-05
0.0010072 -2.99463e-05 -1.18098e-06
-2.99463e-05 5.25322e-05 4.02734e-07
-1.18098e-06 4.02734e-07 -1.19584e-05
0.00106774 -4.82096e-05 -1.71687e-07
-4.82096e-05 7.47971e-05 -2.46567e-07
-1.71687e-07 -2.46567e-07 4.00511e-06
0.00100689 -5.11402e-05 7.775e-08
-5.11402e-05 4.33096e-05 -1.326e-06
7.775e-08 -1.326e-06 -3.09113e-05
0.00091858 5.55584e-06 -2.35101e-06
5.55584e-06 1.54777e-05 1.98805e-06
-2.35101e-06 1.98805e-06 -3.16178e-05
0.00100312 -1.49226e-05 2.81976e-07
-1.49226e-05 5.26169e-05 1.90286e-07
2.81976e-07 1.90286e-07 -1.17259e-05
0.000967254 -3.97236e-05 6.75297e-07
-3.97236e-05 3.57176e-05 1.04874e-07
6.75297e-07 1.04874e-07 -3.64248e-05
0.000812227 2.32188e-05 -4.01019e-06
2.32188e-05 -4.33447e-05 3.43456e-06
-4.01019e-06 3.43456e-06 -5.55592e-05
0.000919582 7.25927e-06 -1.23174e-07
7.25927e-06 7.23368e-06 -3.23421e-08
-1.23174e-07 -3.23421e-08 -3.63817e-05
0.00103562 -4.75669e-06 7.68944e-07
-4.75669e-06 6.59215e-05 -1.08161e-06
7.68944e-07 -1.08161e-06 3.13326e-06
0.00247776 3.61315e-05 -7.04652e-06
3.61315e-05 0.000795647 1.60671e-06
-7.04652e-06 1.60671e-06 0.000811027
0.000826109 2.08803e-05 1.34175e-07
2.08803e-05 -4.22437e-05 4.39888e-08
1.34175e-07 4.39888e-08 -5.29622e-05
0.000932972 8.65061e-06 2.38292e-06
8.65061e-06 8.30449e-06 -2.05627e-06
2.38292e-06 -2.05627e-06 -3.30043e-05
0.00249873 2.95521e-05 3.81389e-07
2.95521e-05 0.000799536 5.18013e-08
3.81389e-07 5.18013e-08 0.000816431
0.000856712 1.91678e-05 3.26739e-06
1.91678e-05 -3.13528e-05 -3.51352e-06
3.26739e-06 -3.51352e-06 -4.05458e-05
0.00243749 2.60059e-05 1.59216e-05
2.60059e-05 0.00076452 -4.02444e-06
1.59216e-05 -4.02444e-06 0.000782588
0.00111351 3.85513e-05 -7.52586e-07
3.85513e-05 9.78107e-05 -1.69203e-07
-7.52586e-07 -1.69203e-07 2.44288e-05
0.0010413 3.26245e-05 -1.94418e-07
3.26245e-05 6.22636e-05 -1.46133e-07
-1.94418e-07 -1.46133e-07 -1.19588e-05
0.00101888 2.4555e-06 -1.06502e-06
2.4555e-06 4.83863e-05 -1.49634e-06
-1.06502e-06 -1.49634e-06 -1.53649e-05
0.000918914 -1.06378e-05 -1.72814e-06
-1.06378e-05 -2.27388e-06 -2.51665e-06
-1.72814e-06 -2.51665e-06 -4.17075e-05
0.00100938 4.14909e-06 -2.89934e-08
4.14909e-06 4.11897e-05 1.20671e-08
-2.89934e-08 1.20671e-08 -1.96319e-05
0.00101902 2.85389e-05 6.47958e-07
2.85389e-05 4.90563e-05 1.31038e-06
6.47958e-07 1.31038e-06 -2.39143e-05
0.00087436 -1.71551e-05 -2.63584e-06
-1.71551e-05 -2.87552e-05 -3.55442e-06
-2.63584e-06 -3.55442e-06 -3.59088e-05
0.000926901 -1.15151e-05 -1.18178e-07
-1.15151e-05 -1.82445e-06 -2.76126e-08
-1.18178e-07 -2.76126e-08 -3.81851e-05
0.00100263 4.09623e-06 5.46733e-07
4.09623e-06 3.60013e-05 1.70464e-06
5.46733e-07 1.70464e-06 -2.12292e-05
0.00239568 -2.25356e-05 -1.41068e-05
-2.25356e-05 0.000737325 -4.06866e-06
-1.41068e-05 -4.06866e-06 0.000756781
0.000869503 -1.52138e-05 -1.22993e-07
-1.52138e-05 -3.50004e-05 -1.1109e-08
-1.22993e-07 -1.1109e-08 -4.03801e-05
0.000939057 -1.12601e-05 8.38069e-07
-1.12601e-05 2.25689e-06 2.10625e-06
8.38069e-07 2.10625e-06 -3.17838e-05
0.00235112 -1.89952e-05 -7.17552e-07
-1.89952e-05 0.000709816 4.23191e-08
-7.17552e-07 4.23191e-08 0.000730623
0.000861358 -1.3188e-05 1.40502e-06
-1.3188e-05 -4.29404e-05 3.42804e-06
1.40502e-06 3.42804e-06 -4.64466e-05
0.00229525 -1.51344e-05 9.11992e-06
-1.51344e-05 0.000677088 4.00418e-06
9.11992e-06 4.00418e-06 0.000699274
0.000415751 -1.74892e-05 -2.51927e-06
-1.74892e-05 -9.12241e-05 -3.40837e-07
-2.51927e-06 -3.40837e-07 -8.28439e-05
0.00057246 1.06312e-06 -1.50205e-06
1.06312e-06 -7.77503e-06 -1.69709e-06
-1.50205e-06 -1.69709e-06 -0.000103856
0.000827626 5.02683e-06 2.4751e-06
5.02683e-06 4.05143e-05 -4.15835e-07
2.4751e-06 -4.15835e-07 -7.18731e-05
0.00104378 4.39061e-05 1.12548e-07
4.39061e-05 6.29226e-05 1.15774e-07
1.12548e-07 1.15774e-07 -1.52635e-05
0.00120099 5.00281e-05 -9.80668e-07
5.00281e-05 0.000145773 1.13395e-07
-9.80668e-07 1.13395e-07 7.01364e-05
0.00107307 4.97146e-05 -9.95843e-07
4.97146e-05 7.47107e-05 -3.39634e-07
-9.95843e-07 -3.39634e-07 -5.53903e-06
0.00115609 2.81203e-05 9.32486e-08
2.81203e-05 0.000119309 6.62818e-07
9.32486e-08 6.62818e-07 4.25485e-05
0.0011651 4.65956e-05 7.04903e-07
4.65956e-05 0.000126175 7.7882e-07
7.04903e-07 7.7882e-07 4.69462e-05
0.00101408 4.10609e-05 7.7269e-07
4.10609e-05 4.94132e-05 1.43448e-06
7.7269e-07 1.43448e-06 -3.25998e-05
0.00103712 3.97467e-05 -5.37658e-08
3.97467e-05 6.37967e-05 3.22972e-08
-5.37658e-08 3.22972e-08 -1.97839e-05
0.00109917 4.84981e-05 9.54833e-08
4.84981e-05 9.24725e-05 9.86733e-08
9.54833e-08 9.86733e-08 9.16427e-06
0.00108853 4.75597e-05 -1.67958e-06
4.75597e-05 9.76575e-05 -1.42941e-06
-1.67958e-06 -1.42941e-06 1.01062e-05
0.000935743 4.06094e-05 -2.08604e-06
4.06094e-05 1.63413e-05 -2.87859e-06
-2.08604e-06 -2.87859e-06 -7.03079e-05
0.00109799 3.94607e-05 2.85488e-07
3.94607e-05 9.57472e-05 7.03424e-07
2.85488e-07 7.03424e-07 1.23509e-05
0.00125602 4.20931e-05 1.73071e-07
4.20931e-05 0.000173937 -1.48585e-07
1.73071e-07 -1.48585e-07 8.76643e-05
-0.00262169 -8.23546e-05 4.8842e-05
-8.23546e-05 -0.00147525 1.94311e-05
4.8842e-05 1.94311e-05 -0.00151215
0.0012225 -5.61973e-05 -6.68671e-07
-5.61973e-05 0.000298328 -1.76162e-06
-6.68671e-07 -1.76162e-06 0.000387865
0.000630534 9.36255e-06 1.49453e-05
9.36255e-06 -2.86994e-06 6.41275e-06
1.49453e-05 6.41275e-06 -7.10461e-05
-2.09739e-05 -0.000108197 8.96633e-07
-0.000108197 -0.000568427 -5.13466e-06
8.96633e-07 -5.13466e-06 -0.00033669
0.0035279 -0.000253335 -1.18905e-05
-0.000253335 0.000837264 -5.60209e-05
-1.18905e-05 -5.60209e-05 0.000978462
0.00436088 -7.18158e-05 3.559e-05
-7.18158e-05 0.000550824 3.03599e-05
3.559e-05 3.03599e-05 3.83829e-05
0.000111692 -2.42505e-05 -1.95102e-05
-2.42505e-05 -0.000239562 6.23143e-05
-1.95102e-05 6.23143e-05 -0.000779041
0.00161476 0.000107798 -3.1764e-05
0.000107798 0.000195139 -3.24185e-05
-3.1764e-05 -3.24185e-05 -0.000244571
0.00222118 -0.000214029 -7.2131e-07
-0.000214029 0.000527383 -2.99424e-06
-7.2131e-07 -2.99424e-06 0.00055265
0.0035185 -9.36899e-05 3.31686e-05
-9.36899e-05 0.000342319 4.51754e-05
3.31686e-05 4.51754e-05 -0.000362154
0.00129591 0.000120866 -6.7265e-05
0.000120866 -0.000117353 -8.25829e-05
-6.7265e-05 -8.25829e-05 -0.000508027
0.00280697 -2.37278e-05 -2.01008e-05
-2.37278e-05 0.000306435 -7.96712e-06
-2.01008e-05 -7.96712e-06 -0.000386165
0.00187263 0.000113311 5.13632e-06
0.000113311 0.000519084 -8.21987e-06
5.13632e-06 -8.21987e-06 0.000376573
0.000921362 5.94334e-05 -2.42972e-07
5.94334e-05 2.39752e-05 -6.11561e-07
-2.42972e-07 -6.11561e-07 -5.02242e-05
0.00132967 3.72097e-05 1.50923e-06
3.72097e-05 0.000199727 1.99524e-06
1.50923e-06 1.99524e-06 0.000120448
-0.000162018 -9.99991e-06 -8.46094e-06
-9.99991e-06 -0.00015839 -2.68704e-06
-8.46094e-06 -2.68704e-06 -0.000318311
0.00155465 4.78104e-05 3.43202e-06
4.78104e-05 0.000388382 -3.97765e-07
3.43202e-06 -3.97765e-07 0.000249696
0.00100073 9.88812e-05 5.24597e-06
9.88812e-05 0.000198855 1.8669e-06
5.24597e-06 1.8669e-06 7.08314e-05
0.000271345 0.000100648 1.81594e-05
0.000100648 -0.000276142 1.98622e-05
1.81594e-05 1.98622e-05 -0.000386729
-0.000559968 -1.25395e-05 7.7024e-05
-1.25395e-05 -0.000593858 -4.42471e-06
7.7024e-05 -4.42471e-06 -0.000561661
0.000759056 -1.03201e-05 -1.24702e-05
-1.03201e-05 6.716e-05 4.63128e-08
-1.24702e-05 4.63128e-08 6.64718e-05
-0.000424212 -5.00265e-06 1.64841e-05
-5.00265e-06 -0.000627904 -6.9328e-07
1.64841e-05 -6.9328e-07 -0.000738066
0.00167742 -6.13981e-05 -2.25289e-05
-6.13981e-05 0.000521769 2.70554e-06
-2.25289e-05 2.70554e-06 0.000359681
0.00104153 -8.94206e-05 -3.83282e-05
-8.94206e-05 1.56505e-05 -1.84856e-06
-3.83282e-05 -1.84856e-06 -0.000288122
0.00117109 5.9799e-06 1.81846e-06
5.9799e-06 0.000255894 -3.30431e-06
1.81846e-06 -3.30431e-06 0.000260069
0.00218388 0.000204974 1.51443e-05
0.000204974 0.000150864 -3.31157e-05
1.51443e-05 -3.31157e-05 -0.000668194
0.00390694 0.000144728 -9.37597e-05
0.000144728 0.00167185 2.19527e-05
-9.37597e-05 2.19527e-05 0.00157702
0.00147993 -9.89339e-05 7.62659e-06
-9.89339e-05 7.52186e-05 -1.75555e-06
7.62659e-06 -1.75555e-06 7.57313e-05
-0.000112997 6.74255e-05 -3.06944e-05
6.74255e-05 -0.000350487 3.90525e-06
-3.06944e-05 3.90525e-06 -0.000421007
0.0031122 0.000133299 -9.14566e-06
0.000133299 0.00065184 5.16834e-06
-9.14566e-06 5.16834e-06 -0.000108773
0.000760631 3.14772e-05 -4.55321e-07
3.14772e-05 -0.000153526 3.38476e-06
-4.55321e-07 3.38476e-06 -0.00030934
0.000832465 -7.27723e-05 5.56569e-06
-7.27723e-05 -0.000389837 5.05852e-06
5.56569e-06 5.05852e-06 -0.00032342
0.00446241 9.42003e-05 1.72721e-05
9.42003e-05 0.00126569 8.8197e-06
1.72721e-05 8.8197e-06 0.000636813
0.00102753 6.78089e-05 -1.8174e-06
6.78089e-05 0.000231275 -7.69029e-07
-1.8174e-06 -7.69029e-07 -4.52637e-05
-0.000127406 -9.40338e-05 1.08626e-06
-9.40338e-05 -0.000456353 -8.35191e-06
1.08626e-06 -8.35191e-06 -0.000681472
0.00143057 -0.000144085 9.99438e-09
-0.000144085 0.000100352 -3.9866e-07
9.99438e-09 -3.9866e-07 -3.32351e-05
0.00146307 -0.000129957 -1.80153e-05
-0.000129957 -7.58619e-05 7.75334e-06
-1.80153e-05 7.75334e-06 -0.000135216
0.00118378 -0.00010116 -8.23707e-07
-0.00010116 5.0227e-05 -4.13867e-06
-8.23707e-07 -4.13867e-06 -8.19659e-05
0.00142601 -9.49285e-05 -5.63264e-07
-9.49285e-05 5.09835e-05 5.0028e-07
-5.63264e-07 5.0028e-07 -2.36094e-05
0.00187024 -7.52767e-05 -4.57593e-06
-7.52767e-05 0.000199509 3.11361e-06
-4.57593e-06 3.11361e-06 0.000172855
0.000966969 -7.14386e-05 2.46497e-06
-7.14386e-05 -6.61057e-05 -7.51346e-07
2.46497e-06 -7.51346e-07 -0.000164259
0.00135215 -6.67354e-05 -2.60398e-07
-6.67354e-05 4.37951e-05 -1.47181e-07
-2.60398e-07 -1.47181e-07 -1.97264e-05
0.00150794 -5.58729e-05 -8.8815e-07
-5.58729e-05 6.3748e-05 4.86442e-07
-8.8815e-07 4.86442e-07 2.75763e-05
0.00109575 -6.11077e-05 1.57925e-06
-6.11077e-05 -2.02557e-05 -4.09716e-07
1.57925e-06 -4.09716e-07 -0.000106593
0.00130007 -5.64804e-05 1.63895e-07
-5.64804e-05 3.10569e-05 2.62757e-07
1.63895e-07 2.62757e-07 -3.12865e-05
0.00130685 -4.95806e-05 -6.12752e-07
-4.95806e-05 1.18056e-05 2.90609e-07
-6.12752e-07 2.90609e-07 -3.53887e-05
0.00153121 -4.97958e-05 -7.14315e-07
-4.97958e-05 0.000151945 2.76631e-07
-7.14315e-07 2.76631e-07 9.76865e-05
0.00134738 -5.29408e-05 -5.57831e-07
-5.29408e-05 7.41477e-05 1.13401e-06
-5.57831e-07 1.13401e-06 1.25129e-05
0.00131373 -5.36218e-05 -7.71108e-07
-5.36218e-05 7.73221e-05 -1.26645e-06
-7.71108e-07 -1.26645e-06 1.01228e-05
0.00127214 -5.69817e-05 -1.41949e-06
-5.69817e-05 9.54359e-05 5.66476e-07
-1.41949e-06 5.66476e-07 1.79053e-05
0.00133997 -6.06502e-05 5.75116e-07
-6.06502e-05 0.000116624 -1.54187e-07
5.75116e-07 -1.54187e-07 3.58401e-05
0.00124268 -5.6998e-05 1.94202e-06
-5.6998e-05 4.86707e-05 8.99563e-07
1.94202e-06 8.99563e-07 -2.88838e-05
0.000904713 -4.9244e-05 -1.41427e-06
-4.9244e-05 -3.50165e-05 1.80062e-06
-1.41427e-06 1.80062e-06 -0.000110708
0.00110801 -5.61826e-05 1.00719e-07
-5.61826e-05 5.32658e-05 -7.18279e-08
1.00719e-07 -7.18279e-08 -2.87218e-05
0.0013282 -6.34254e-05 2.09058e-06
-6.34254e-05 0.000148265 -2.0193e-06
2.09058e-06 -2.0193e-06 6.0077e-05
0.00101074 -3.66426e-05 -9.06943e-07
-3.66426e-05 4.91499e-05 6.38647e-07
-9.06943e-07 6.38647e-07 -1.6231e-05
0.00109093 -5.15609e-05 6.98824e-08
-5.15609e-05 7.88601e-05 -1.15934e-07
6.98824e-08 -1.15934e-07 6.12242e-06
0.000871522 -5.05931e-05 5.33443e-07
-5.05931e-05 -3.55798e-05 -2.15405e-06
5.33443e-07 -2.15405e-06 -0.000116989
0.00091236 1.16907e-06 -2.51645e-06
1.16907e-06 1.77517e-05 1.79076e-06
-2.51645e-06 1.79076e-06 -3.24725e-05
0.00102788 -3.10686e-05 -7.30069e-08
-3.10686e-05 6.16349e-05 1.57127e-08
-7.30069e-08 1.57127e-08 -2.74813e-06
0.00109934 -4.84157e-05 4.82988e-07
-4.84157e-05 8.94805e-05 -5.80563e-07
4.82988e-07 -5.80563e-07 1.86583e-05
0.000784655 2.60702e-05 -4.15166e-06
2.60702e-05 -4.77427e-05 3.39257e-06
-4.15166e-06 3.39257e-06 -6.25212e-05
0.000919865 9.65959e-06 5.25777e-09
9.65959e-06 1.50197e-05 1.69954e-08
5.25777e-09 1.69954e-08 -3.21232e-05
0.00103349 -1.67569e-05 1.24007e-06
-1.67569e-05 6.65996e-05 -5.44766e-07
1.24007e-06 -5.44766e-07 2.38766e-06
0.00256202 3.68183e-05 -1.90355e-05
3.68183e-05 0.000842577 3.73471e-06
-1.90355e-05 3.73471e-06 0.000856941
0.000826719 2.36699e-05 -4.52318e-09
2.36699e-05 -3.55539e-05 1.55709e-08
-4.52318e-09 1.55709e-08 -4.79699e-05
0.000943158 2.20719e-06 2.44475e-06
2.20719e-06 1.85595e-05 -2.04394e-06
2.44475e-06 -2.04394e-06 -2.50792e-05
0.00178966 2.93127e-05 7.17508e-06
2.93127e-05 0.000447548 -1.05629e-06
7.17508e-06 -1.05629e-06 0.000459716
0.000845671 2.12856e-05 3.82465e-06
2.12856e-05 -3.23344e-05 -3.47095e-06
3.82465e-06 -3.47095e-06 -4.31419e-05
0.00248358 2.95604e-05 1.73734e-05
2.95604e-05 0.000792854 -3.97406e-06
1.73734e-05 -3.97406e-06 0.00080958
0.00110838 3.71836e-05 -6.93988e-07
3.71836e-05 9.84478e-05 2.4514e-07
-6.93988e-07 2.4514e-07 2.67026e-05
0.00104358 3.48857e-05 2.24295e-07
3.48857e-05 6.22471e-05 3.66232e-07
2.24295e-07 3.66232e-07 -1.14462e-05
0.00100494 4.81695e-08 -1.28462e-06
4.81695e-08 4.25917e-05 -1.06912e-06
-1.28462e-06 -1.06912e-06 -2.26972e-05
0.00107257 3.30435e-05 6.49441e-07
3.30435e-05 7.84912e-05 8.3499e-07
6.49441e-07 8.3499e-07 4.28752e-06
0.00101031 2.77475e-06 -2.37369e-08
2.77475e-06 4.46422e-05 9.6507e-08
-2.37369e-08 9.6507e-08 -1.92745e-05
0.000924202 -3.83132e-06 -2.36478e-06
-3.83132e-06 3.15612e-06 -2.44478e-06
-2.36478e-06 -2.44478e-06 -3.97628e-05
0.000862848 -1.91381e-05 -3.1301e-06
-1.91381e-05 -2.99097e-05 -3.68968e-06
-3.1301e-06 -3.68968e-06 -3.904e-05
0.000926122 -9.07079e-06 -1.95458e-07
-9.07079e-06 5.90861e-07 -5.51272e-08
-1.95458e-07 -5.51272e-08 -3.8671e-05
0.00100753 2.35434e-06 6.28243e-07
2.35434e-06 4.06558e-05 1.83512e-06
6.28243e-07 1.83512e-06 -2.01874e-05
0.00243458 -2.59952e-05 -1.5851e-05
-2.59952e-05 0.000761813 -4.03623e-06
-1.5851e-05 -4.03623e-06 0.000780047
0.000859554 -1.70133e-05 -1.34268e-07
-1.70133e-05 -3.59632e-05 -5.08812e-09
-1.34268e-07 -5.08812e-09 -4.30349e-05
0.00094002 -7.89295e-06 1.37745e-06
-7.89295e-06 4.25191e-06 2.27816e-06
1.37745e-06 2.27816e-06 -3.19832e-05
0.00240193 -2.26154e-05 -6.1077e-07
-2.26154e-05 0.000739958 4.70315e-08
-6.1077e-07 4.70315e-08 0.000759518
0.000853274 -1.51324e-05 1.84189e-06
-1.51324e-05 -4.29154e-05 3.47303e-06
1.84189e-06 3.47303e-06 -4.822e-05
0.00235341 -1.89998e-05 1.10485e-05
-1.89998e-05 0.000710457 4.01031e-06
1.10485e-05 4.01031e-06 0.0007314
0.000185778 3.56083e-05 9.76753e-05
3.56083e-05 -0.000341981 7.76125e-06
9.76753e-05 7.76125e-06 -0.000513625
0.00160426 -2.50855e-05 3.57358e-06
-2.50855e-05 0.000584736 -2.83758e-07
3.57358e-06 -2.83758e-07 0.000604132
0.00065527 4.00665e-06 1.55144e-05
4.00665e-06 4.85159e-05 2.24488e-06
1.55144e-05 2.24488e-06 -4.72565e-05
0.00102252 4.35231e-05 1.48249e-06
4.35231e-05 5.18798e-05 3.7022e-07
1.48249e-06 3.7022e-07 -2.65886e-05
0.00103374 4.81264e-05 7.53742e-07
4.81264e-05 5.73749e-05 1.2616e-08
7.53742e-07 1.2616e-08 -2.30509e-05
0.00111834 4.85076e-05 -6.07483e-09
4.85076e-05 0.000106615 -5.89794e-08
-6.07483e-09 -5.89794e-08 3.1352e-05
0.0011492 5.19466e-05 -5.89604e-07
5.19466e-05 0.000126662 -6.39593e-08
-5.89604e-07 -6.39593e-08 5.13442e-05
0.00111477 5.11641e-05 -2.00859e-06
5.11641e-05 0.000105632 -4.76697e-08
-2.00859e-06 -4.76697e-08 2.5997e-05
0.00108406 4.16218e-05 6.72072e-07
4.16218e-05 8.69949e-05 1.29293e-06
6.72072e-07 1.29293e-06 3.55741e-06
0.00109204 4.77823e-05 1.47063e-06
4.77823e-05 8.87756e-05 1.02788e-06
1.47063e-06 1.02788e-06 5.81842e-06
0.00100791 4.8024e-05 -3.88256e-07
4.8024e-05 5.90442e-05 -2.48861e-07
-3.88256e-07 -2.48861e-07 -2.82315e-05
0.000631338 4.25219e-05 -1.8437e-06
4.25219e-05 -0.000124814 2.92967e-07
-1.8437e-06 2.92967e-07 -0.00020645
0.000800762 4.77494e-05 -2.43699e-06
4.77494e-05 -4.31276e-05 -1.82174e-06
-2.43699e-06 -1.82174e-06 -0.00013243
0.00181856 8.41388e-05 6.22327e-07
8.41388e-05 0.000434293 -3.3298e-06
6.22327e-07 -3.3298e-06 0.000335163
0.00111859 4.30032e-05 -1.4094e-06
4.30032e-05 0.000112026 1.76025e-07
-1.4094e-06 1.76025e-07 2.37967e-05
0.00109538 3.85718e-05 7.65256e-07
3.85718e-05 9.89787e-05 1.43331e-06
7.65256e-07 1.43331e-06 1.27827e-05
0.00687119 -6.71621e-05 -1.0955e-05
-6.71621e-05 0.00185224 -1.47157e-05
-1.0955e-05 -1.47157e-05 0.00124451
-9.65206e-05 -0.000103791 7.5612e-06
-0.000103791 -0.000406689 5.08806e-06
7.5612e-06 5.08806e-06 -0.00049745
0.00207229 -6.26384e-05 -5.8123e-06
-6.26384e-05 0.000756522 -2.71895e-06
-5.8123e-06 -2.71895e-06 0.000852055
-0.00213611 -0.000134022 -3.28975e-05
-0.000134022 -0.00145771 -2.5367e-05
-3.28975e-05 -2.5367e-05 -0.00132701
0.00706112 -0.000210038 6.26569e-05
-0.000210038 0.00180862 5.22351e-05
6.26569e-05 5.22351e-05 0.000890141
0.00152056 8.49455e-05 3.09905e-05
8.49455e-05 0.000438485 5.40057e-06
3.09905e-05 5.40057e-06 0.000191054
0.00131782 0.000109427 -2.69977e-05
0.000109427 3.53643e-05 -2.51867e-05
-2.69977e-05 -2.51867e-05 -0.000252017
0.00479275 -0.000161396 2.05746e-05
-0.000161396 0.00116859 1.55324e-05
2.05746e-05 1.55324e-05 0.000589935
0.00115533 4.35533e-05 -3.78671e-05
4.35533e-05 -3.59252e-05 -4.95442e-05
-3.78671e-05 -4.95442e-05 -0.000311585
0.00229411 0.000140972 1.72602e-05
0.000140972 0.000513345 7.49572e-06
1.72602e-05 7.49572e-06 0.000363851
0.000935895 8.30822e-05 -4.89437e-07
8.30822e-05 8.35721e-05 -5.06353e-06
-4.89437e-07 -5.06353e-06 -6.08257e-05
0.000846046 4.71816e-05 8.14673e-07
4.71816e-05 -2.56146e-05 4.95042e-06
8.14673e-07 4.95042e-06 -9.5439e-05
0.00203667 0.000124064 -1.51883e-05
0.000124064 0.000669355 -2.25103e-05
-1.51883e-05 -2.25103e-05 0.000557066
-5.25884e-05 0.000113476 -5.92375e-06
0.000113476 -0.000533691 1.91338e-05
-5.92375e-06 1.91338e-05 -0.000638345
0.000812808 4.693e-05 -5.89594e-06
4.693e-05 -0.000345265 -4.89863e-06
-5.89594e-06 -4.89863e-06 -0.000790577
0.00151267 9.37948e-06 9.30598e-07
9.37948e-06 0.000265401 3.58751e-06
9.30598e-07 3.58751e-06 0.000164417
-0.00106661 -8.07919e-06 -6.70813e-06
-8.07919e-06 -0.00100119 1.7762e-08
-6.70813e-06 1.7762e-08 -0.0010212
0.00204332 -0.000111036 -2.98361e-05
-0.000111036 0.000434845 -1.37054e-06
-2.98361e-05 -1.37054e-06 0.000371679
0.00146585 2.4495e-05 2.50045e-05
2.4495e-05 -0.000182781 -2.40156e-05
2.50045e-05 -2.40156e-05 -0.000452376
0.000364389 2.28684e-06 -0.000118709
2.28684e-06 -0.000244731 2.26714e-05
-0.000118709 2.26714e-05 -0.00042049
0.00497238 0.000230243 -1.86862e-05
0.000230243 0.00166052 5.17497e-06
-1.86862e-05 5.17497e-06 0.000931302
0.00151475 -8.14205e-05 1.08925e-06
-8.14205e-05 -6.48942e-05 -1.00292e-06
1.08925e-06 -1.00292e-06 -6.74118e-06
0.00460454 0.000141721 2.81944e-05
0.000141721 0.00136711 2.85531e-06
2.81944e-05 2.85531e-06 0.000811887
0.00177461 7.10785e-05 2.48697e-05
7.10785e-05 0.000233121 -9.81175e-06
2.48697e-05 -9.81175e-06 -0.000114137
0.00188321 -5.64473e-05 -5.03104e-06
-5.64473e-05 -5.29612e-05 8.09479e-07
-5.03104e-06 8.09479e-07 2.99438e-05
0.000891629 6.80134e-05 -2.46899e-05
6.80134e-05 0.000270744 1.21176e-05
-2.46899e-05 1.21176e-05 5.87685e-05
0.00141484 -0.00014032 9.43583e-06
-0.00014032 0.000109125 -7.87281e-06
9.43583e-06 -7.87281e-06 -2.69139e-05
0.00172411 -0.000130595 -3.66307e-06
-0.000130595 4.71836e-05 1.87723e-06
-3.66307e-06 1.87723e-06 -3.86464e-06
0.00207592 -7.46488e-05 -1.16596e-05
-7.46488e-05 0.000150705 5.60604e-06
-1.16596e-05 5.60604e-06 0.000146281
0.000817789 -8.42512e-05 6.2241e-06
-8.42512e-05 -0.000244847 -1.15471e-06
6.2241e-06 -1.15471e-06 -0.000316118
0.00142697 -6.98125e-05 1.55989e-06
-6.98125e-05 -1.05802e-05 9.89035e-07
1.55989e-06 9.89035e-07 -3.48361e-05
0.00143461 -4.5024e-05 -1.20719e-06
-4.5024e-05 -4.19731e-05 4.64145e-06
-1.20719e-06 4.64145e-06 -5.32189e-05
0.00113345 -6.31885e-05 1.87999e-06
-6.31885e-05 -7.02364e-05 6.10828e-07
1.87999e-06 6.10828e-07 -0.000132075
0.00140448 -5.52586e-05 9.2891e-08
-5.52586e-05 1.34417e-05 1.40492e-06
9.2891e-08 1.40492e-06 -2.34163e-05
0.00143261 -4.4009e-05 4.93865e-07
-4.4009e-05 2.37706e-05 2.67297e-06
4.93865e-07 2.67297e-06 -9.7291e-06
0.0012358 -5.53232e-05 2.07834e-06
-5.53232e-05 -2.51354e-06 1.3477e-06
2.07834e-06 1.3477e-06 -6.44088e-05
0.00135343 -5.07169e-05 6.30386e-08
-5.07169e-05 3.54676e-05 8.62059e-07
6.30386e-08 8.62059e-07 -1.26381e-05
0.00139516 -4.4319e-05 -3.1704e-07
-4.4319e-05 5.68534e-05 1.11651e-06
-3.1704e-07 1.11651e-06 9.04789e-06
0.00135881 -4.80118e-05 -1.00037e-06
-4.80118e-05 6.8795e-05 8.56303e-07
-1.00037e-06 8.56303e-07 1.62354e-05
0.00149407 -4.93255e-05 4.69383e-07
-4.93255e-05 0.000146345 -4.54785e-07
4.69383e-07 -4.54785e-07 8.65567e-05
0.00134311 -5.17672e-05 1.43199e-06
-5.17672e-05 7.17811e-05 2.07693e-06
1.43199e-06 2.07693e-06 1.17468e-05
0.00132498 -5.34325e-05 7.03833e-08
-5.34325e-05 8.22588e-05 -3.73743e-07
7.03833e-08 -3.73743e-07 1.48329e-05
0.00130991 -5.18907e-05 -6.56661e-07
-5.18907e-05 8.65977e-05 -1.64262e-07
-6.56661e-07 -1.64262e-07 1.66694e-05
0.000997652 -4.91965e-05 -1.60052e-06
-4.91965e-05 -2.16881e-05 1.23816e-06
-1.60052e-06 1.23816e-06 -9.60667e-05
0.00126679 -5.66911e-05 3.53571e-08
-5.66911e-05 9.36233e-05 -1.52008e-07
3.53571e-08 -1.52008e-07 1.57153e-05
0.00138463 -6.10438e-05 1.859e-06
-6.10438e-05 0.000140002 -4.51609e-07
1.859e-06 -4.51609e-07 5.92273e-05
0.00105 -4.28969e-05 -1.20521e-06
-4.28969e-05 5.39705e-05 1.20816e-06
-1.20521e-06 1.20816e-06 -1.33119e-05
0.000982 -5.07158e-05 -3.3488e-07
-5.07158e-05 5.28595e-06 3.58048e-07
-3.3488e-07 3.58048e-07 -7.00567e-05
0.00128717 -5.95388e-05 1.27392e-06
-5.95388e-05 0.000142759 -1.60808e-06
1.27392e-06 -1.60808e-06 6.154e-05
0.000888255 -1.59221e-06 -2.35242e-06
-1.59221e-06 8.70605e-06 1.63028e-06
-2.35242e-06 1.63028e-06 -4.41909e-05
0.00104149 -3.76357e-05 -3.89192e-08
-3.76357e-05 6.30486e-05 -7.47476e-08
-3.89192e-08 -7.47476e-08 -2.35244e-06
0.00111989 -5.1769e-05 5.82293e-07
-5.1769e-05 9.22415e-05 -1.238e-06
5.82293e-07 -1.238e-06 1.94254e-05
0.000747902 2.83499e-05 -4.25917e-06
2.83499e-05 -5.68404e-05 3.3877e-06
-4.25917e-06 3.3877e-06 -7.47482e-05
0.000923381 -1.87305e-07 1.99809e-08
-1.87305e-07 2.12612e-05 6.54928e-08
1.99809e-08 6.54928e-08 -2.86582e-05
0.00104828 -3.17917e-05 1.17823e-06
-3.17917e-05 7.06547e-05 -4.80392e-07
1.17823e-06 -4.80392e-07 6.38181e-06
0.00257356 4.05759e-05 -1.93894e-05
4.05759e-05 0.000856155 3.56896e-06
-1.93894e-05 3.56896e-06 0.000868957
0.000812487 2.67319e-05 -4.32996e-09
2.67319e-05 -3.338e-05 -1.12796e-08
-4.32996e-09 -1.12796e-08 -4.84051e-05
0.00092767 1.70533e-06 2.47823e-06
1.70533e-06 1.72462e-05 -1.78359e-06
2.47823e-06 -1.78359e-06 -2.94721e-05
0.0025263 3.67835e-05 2.00767e-07
3.67835e-05 0.000825803 6.6905e-08
2.00767e-07 6.6905e-08 0.000840095
0.000846005 2.41833e-05 4.06102e-06
2.41833e-05 -2.53474e-05 -3.41975e-06
4.06102e-06 -3.41975e-06 -3.79817e-05
0.0024942 3.31259e-05 1.82565e-05
3.31259e-05 0.000803883 -3.84094e-06
1.82565e-05 -3.84094e-06 0.000819424
0.00105742 4.10348e-05 -8.06341e-07
4.10348e-05 7.93386e-05 -2.14546e-07
-8.06341e-07 -2.14546e-07 6.30328e-06
0.00107294 3.7159e-05 2.43603e-07
3.7159e-05 8.19335e-05 1.43681e-07
2.43603e-07 1.43681e-07 1.0153e-05
0.000917076 1.55377e-06 -1.66411e-06
1.55377e-06 2.4802e-06 -8.15838e-07
-1.66411e-06 -8.15838e-07 -6.37431e-05
0.000970002 3.20301e-05 1.47188e-06
3.20301e-05 2.49078e-05 8.65573e-07
1.47188e-06 8.65573e-07 -4.91348e-05
0.000962165 3.7387e-07 -8.95685e-08
3.7387e-07 2.14312e-05 1.76113e-07
-8.95685e-08 1.76113e-07 -4.42566e-05
0.000927412 1.0531e-07 -2.64097e-06
1.0531e-07 7.28023e-06 -2.15239e-06
-2.64097e-06 -2.15239e-06 -3.89137e-05
0.0010031 1.70308e-06 9.82363e-07
1.70308e-06 4.14474e-05 1.65902e-06
9.82363e-07 1.65902e-06 -2.25372e-05
0.000926412 -3.46359e-06 -1.65602e-07
-3.46359e-06 3.90808e-06 -1.76762e-08
-1.65602e-07 -1.76762e-08 -3.89461e-05
0.000849332 -2.14187e-05 -3.6537e-06
-2.14187e-05 -3.1319e-05 -3.73765e-06
-3.6537e-06 -3.73765e-06 -4.28597e-05
0.00247957 -2.95004e-05 -1.73568e-05
-2.95004e-05 0.000789764 -4.01513e-06
-1.73568e-05 -4.01513e-06 0.00080663
0.000848679 -1.88501e-05 -1.12081e-07
-1.88501e-05 -3.70351e-05 -1.89134e-08
-1.12081e-07 -1.89134e-08 -4.60158e-05
0.000930931 -8.10212e-06 1.53283e-06
-8.10212e-06 2.30361e-06 2.49715e-06
1.53283e-06 2.49715e-06 -3.68038e-05
0.00244738 -2.61103e-05 -5.1601e-07
-2.61103e-05 0.0007677 5.63226e-08
-5.1601e-07 5.63226e-08 0.000786012
0.000846078 -1.68801e-05 2.31516e-06
-1.68801e-05 -4.25253e-05 3.55122e-06
2.31516e-06 3.55122e-06 -4.95176e-05
0.00240648 -2.26678e-05 1.30691e-05
-2.26678e-05 0.000741727 4.00937e-06
1.30691e-05 4.00937e-06 0.0007614
0.0052713 1.51102e-05 2.00219e-05
1.51102e-05 0.00156776 -3.48119e-06
2.00219e-05 -3.48119e-06 0.00109523
-0.000490208 -1.37689e-05 1.64539e-05
-1.37689e-05 -0.000394289 8.37263e-07
1.64539e-05 8.37263e-07 -0.000412608
0.000475868 -1.81084e-05 5.37706e-06
-1.81084e-05 -8.10066e-05 -1.06629e-07
5.37706e-06 -1.06629e-07 -7.29424e-05
0.0010433 4.76937e-05 2.02008e-06
4.76937e-05 6.45575e-05 2.00864e-07
2.02008e-06 2.00864e-07 -1.61972e-05
0.00104388 4.71272e-05 9.75352e-07
4.71272e-05 7.16098e-05 1.03471e-07
9.75352e-07 1.03471e-07 -3.30833e-06
0.0011532 5.20955e-05 6.65598e-08
5.20955e-05 0.00012436 -5.97387e-08
6.65598e-08 -5.97387e-08 4.48756e-05
0.00111159 5.13557e-05 -2.1114e-07
5.13557e-05 0.000108253 -1.73698e-07
-2.1114e-07 -1.73698e-07 3.29178e-05
0.00111783 5.26146e-05 1.18134e-06
5.26146e-05 0.000115379 4.7025e-07
1.18134e-06 4.7025e-07 3.83798e-05
0.000879125 4.72127e-05 -1.94428e-06
4.72127e-05 -1.26166e-06 5.58007e-07
-1.94428e-06 5.58007e-07 -7.9082e-05
0.000908614 4.53669e-05 1.59251e-06
4.53669e-05 1.01812e-05 1.20674e-06
1.59251e-06 1.20674e-06 -7.64555e-05
0.000842618 4.67918e-05 6.84152e-07
4.67918e-05 -2.01997e-05 -1.34806e-07
6.84152e-07 -1.34806e-07 -0.000102972
0.000864279 4.88034e-05 8.78488e-07
4.88034e-05 -4.53243e-06 2.27282e-07
8.78488e-07 2.27282e-07 -9.47856e-05
0.000589314 4.95329e-05 -5.83952e-07
4.95329e-05 -0.000155842 2.78142e-07
-5.83952e-07 2.78142e-07 -0.000238308
0.0025966 0.000102113 2.13545e-07
0.000102113 0.000788071 -6.67472e-07
2.13545e-07 -6.67472e-07 0.000695928
0.00177283 0.000102485 2.96497e-07
0.000102485 0.000312149 -3.6554e-06
2.96497e-07 -3.6554e-06 0.00019701
0.00121365 7.26122e-05 7.63259e-07
7.26122e-05 0.000140321 2.12375e-07
7.63259e-07 2.12375e-07 4.31422e-05
0.00129385 4.85504e-05 -3.21729e-07
4.85504e-05 0.000205426 1.52311e-06
-3.21729e-07 1.52311e-06 0.000115261
0.000476126 -3.5233e-05 -1.9222e-05
-3.5233e-05 -0.000252215 -2.18965e-05
-1.9222e-05 -2.18965e-05 -0.000351559
0.00345379 -7.15642e-05 -1.54529e-05
-7.15642e-05 0.000626359 -2.47437e-06
-1.54529e-05 -2.47437e-06 0.000140095
0.00264356 -0.000142101 -3.58065e-05
-0.000142101 0.00101712 -1.01836e-05
-3.58065e-05 -1.01836e-05 0.000916155
0.00390407 -9.96885e-05 7.76272e-05
-9.96885e-05 0.000767742 3.3614e-05
7.76272e-05 3.3614e-05 9.94441e-05
0.0028392 0.000136265 1.93822e-05
0.000136265 0.000881549 4.01066e-05
1.93822e-05 4.01066e-05 0.000697235
0.000931101 3.4228e-05 -1.24722e-05
3.4228e-05 -1.99113e-05 -1.26057e-06
-1.24722e-05 -1.26057e-06 -0.000140862
0.00095565 5.32026e-05 2.00793e-05
5.32026e-05 -0.000248192 1.22641e-05
2.00793e-05 1.22641e-05 -0.000317381
0.0017228 0.000139096 5.43241e-07
0.000139096 0.000241485 9.39341e-06
5.43241e-07 9.39341e-06 9.88073e-05
0.000371185 6.64384e-05 -1.23225e-06
6.64384e-05 -0.00018415 7.3237e-06
-1.23225e-06 7.3237e-06 -0.00032631
0.00266949 0.000186385 -4.99864e-05
0.000186385 0.000569507 -7.84785e-05
-4.99864e-05 -7.84785e-05 0.000513345
0.00182495 1.39051e-05 -0.000109508
1.39051e-05 0.000459174 -7.71107e-06
-0.000109508 -7.71107e-06 0.000201926
0.00480458 4.71196e-05 1.32708e-05
4.71196e-05 0.00152467 1.42357e-07
1.32708e-05 1.42357e-07 0.00105174
-0.00256853 -1.30268e-05 -7.47172e-05
-1.30268e-05 -0.00171333 5.11831e-06
-7.47172e-05 5.11831e-06 -0.00169754
0.00238994 -8.89901e-05 -3.07435e-06
-8.89901e-05 0.000363669 -8.83757e-07
-3.07435e-06 -8.83757e-07 0.000406937
0.000503092 8.14592e-05 2.76193e-05
8.14592e-05 -0.00022384 -1.09443e-05
2.76193e-05 -1.09443e-05 -0.00043816
0.000363785 1.53073e-05 2.01997e-05
1.53073e-05 -0.000389846 -3.1596e-06
2.01997e-05 -3.1596e-06 -0.00085783
0.00202312 -6.56889e-05 -1.51183e-06
-6.56889e-05 3.32505e-05 2.51135e-06
-1.51183e-06 2.51135e-06 8.52469e-05
0.00128498 8.74503e-05 3.36977e-06
8.74503e-05 0.000281751 -4.76436e-06
3.36977e-06 -4.76436e-06 8.60306e-05
0.0019349 -5.36861e-06 -2.24493e-07
-5.36861e-06 -3.796e-05 -1.29624e-05
-2.24493e-07 -1.29624e-05 9.45643e-06
0.000813787 5.83169e-05 1.3346e-06
5.83169e-05 -0.000226543 -2.18674e-06
1.3346e-06 -2.18674e-06 -0.000286699
0.00189957 -0.000129394 9.86053e-06
-0.000129394 0.000134569 -3.65956e-06
9.86053e-06 -3.65956e-06 9.1232e-05
0.00176753 -7.12983e-05 3.21247e-06
-7.12983e-05 7.55387e-06 -5.07222e-07
3.21247e-06 -5.07222e-07 8.73743e-06
0.00188382 -9.70465e-06 -2.76445e-06
-9.70465e-06 0.000141097 3.76555e-06
-2.76445e-06 3.76555e-06 0.000129081
0.00102007 -6.53075e-05 7.09356e-06
-6.53075e-05 -0.000202697 -1.38697e-06
7.09356e-06 -1.38697e-06 -0.000225289
0.00159479 -4.659e-05 1.73113e-06
-4.659e-05 4.52082e-05 4.56247e-07
1.73113e-06 4.56247e-07 3.181e-05
0.0015624 -2.46324e-05 -6.99411e-07
-2.46324e-05 4.64615e-05 3.41403e-06
-6.99411e-07 3.41403e-06 1.21231e-05
0.00129063 -5.45539e-05 2.89241e-06
-5.45539e-05 -4.12338e-05 8.16302e-07
2.89241e-06 8.16302e-07 -7.88704e-05
0.00144107 -4.44293e-05 5.37972e-07
-4.44293e-05 3.37341e-05 7.1482e-07
5.37972e-07 7.1482e-07 -1.49545e-06
0.00154009 -3.48933e-05 -7.62226e-07
-3.48933e-05 9.07826e-05 1.90572e-06
-7.62226e-07 1.90572e-06 4.23681e-05
0.00140664 -5.18507e-05 1.06651e-06
-5.18507e-05 6.26106e-05 1.00012e-06
1.06651e-06 1.00012e-06 1.35395e-05
0.00134379 -4.52857e-05 -1.20105e-07
-4.52857e-05 3.71866e-05 4.95331e-09
-1.20105e-07 4.95331e-09 -1.10452e-05
0.00134568 -4.32813e-05 8.37291e-07
-4.32813e-05 5.38204e-05 1.02054e-06
8.37291e-07 1.02054e-06 -5.1e-06
0.00120952 -4.64586e-05 -3.00388e-09
-4.64586e-05 -3.06325e-06 1.16515e-06
-3.00388e-09 1.16515e-06 -5.39626e-05
0.00136829 -4.7163e-05 -7.13241e-07
-4.7163e-05 8.43449e-05 -4.82938e-07
-7.13241e-07 -4.82938e-07 2.5746e-05
0.00146522 -4.84344e-05 -1.6743e-08
-4.84344e-05 0.000143944 8.46319e-08
-1.6743e-08 8.46319e-08 7.80728e-05
0.00133372 -5.32092e-05 9.16766e-07
-5.32092e-05 8.59012e-05 4.0588e-07
9.16766e-07 4.0588e-07 1.82611e-05
0.00130977 -5.16281e-05 1.37342e-07
-5.16281e-05 8.67088e-05 -2.83154e-07
1.37342e-07 -2.83154e-07 1.64919e-05
0.00132459 -5.00342e-05 -8.59403e-07
-5.00342e-05 0.000111114 4.5373e-07
-8.59403e-07 4.5373e-07 4.12857e-05
0.000883158 -4.07351e-05 -2.08191e-06
-4.07351e-05 -5.39282e-05 1.52879e-06
-2.08191e-06 1.52879e-06 -0.000122267
0.00107954 -5.06654e-05 -2.7896e-07
-5.06654e-05 2.12007e-05 1.8037e-07
-2.7896e-07 1.8037e-07 -5.29585e-05
0.00126087 -5.63904e-05 1.32073e-06
-5.63904e-05 9.15501e-05 -1.02252e-06
1.32073e-06 -1.02252e-06 1.32637e-05
0.000891549 -9.21247e-06 -2.13432e-06
-9.21247e-06 6.58798e-06 1.77144e-06
-2.13432e-06 1.77144e-06 -4.89765e-05
0.00106125 -4.25772e-05 6.25537e-08
-4.25772e-05 5.91859e-05 2.80115e-08
6.25537e-08 2.80115e-08 -8.09041e-06
0.00107532 -5.2543e-05 5.32836e-07
-5.2543e-05 5.32365e-05 -9.65322e-07
5.32836e-07 -9.65322e-07 -2.17592e-05
0.00070949 3.04473e-05 -4.33352e-06
3.04473e-05 -6.6808e-05 3.26638e-06
-4.33352e-06 3.26638e-06 -8.83509e-05
0.000915383 -4.45588e-06 -1.3495e-07
-4.45588e-06 1.97043e-05 1.36202e-08
-1.3495e-07 1.36202e-08 -3.29514e-05
0.00107226 -3.85355e-05 1.14648e-06
-3.85355e-05 7.69808e-05 -9.39224e-07
1.14648e-06 -9.39224e-07 1.15563e-05
0.00263104 4.43878e-05 -2.00661e-05
4.43878e-05 0.000893067 3.42792e-06
-2.00661e-05 3.42792e-06 0.000903906
0.000789208 2.93045e-05 9.7129e-08
2.93045e-05 -3.58368e-05 2.88949e-08
9.7129e-08 2.88949e-08 -5.40134e-05
0.000928131 -1.55079e-06 2.53948e-06
-1.55079e-06 2.17646e-05 -1.54461e-06
2.53948e-06 -1.54461e-06 -2.78504e-05
0.00255377 4.05113e-05 1.98764e-07
4.05113e-05 0.000847379 7.11211e-08
1.98764e-07 7.11211e-08 0.000859992
0.000840892 2.74071e-05 4.06685e-06
2.74071e-05 -1.88796e-05 -3.36941e-06
4.06685e-06 -3.36941e-06 -3.4136e-05
0.00249582 3.67086e-05 1.88415e-05
3.67086e-05 0.000811615 -3.68485e-06
1.88415e-05 -3.68485e-06 0.000825825
0.00107113 4.59561e-05 -1.00396e-06
4.59561e-05 8.79581e-05 -6.62862e-07
-1.00396e-06 -6.62862e-07 1.3527e-05
0.00112855 4.28885e-05 1.21832e-07
4.28885e-05 0.000114084 8.4797e-08
1.21832e-07 8.4797e-08 4.13664e-05
0.000948676 1.58016e-05 -1.55643e-06
1.58016e-05 2.51316e-05 -7.20594e-07
-1.55643e-06 -7.20594e-07 -4.20125e-05
0.00104004 3.71945e-05 1.00958e-06
3.71945e-05 6.66581e-05 3.1066e-07
1.00958e-06 3.1066e-07 -5.16126e-06
0.000929443 4.14693e-06 -3.76395e-07
4.14693e-06 9.68645e-06 -6.59779e-08
-3.76395e-07 -6.59779e-08 -5.66456e-05
0.000924064 -1.01005e-06 -2.66226e-06
-1.01005e-06 1.11977e-05 -1.85313e-06
-2.66226e-06 -1.85313e-06 -3.78686e-05
0.000919131 -2.73886e-06 1.19995e-06
-2.73886e-06 3.99586e-07 1.2756e-06
1.19995e-06 1.2756e-06 -6.59073e-05
0.000926306 -7.37031e-07 -5.63472e-08
-7.37031e-07 7.07921e-06 3.13557e-08
-5.63472e-08 3.13557e-08 -3.91772e-05
0.000834011 -2.44073e-05 -3.99755e-06
-2.44073e-05 -3.25235e-05 -3.64162e-06
-3.99755e-06 -3.64162e-06 -4.666e-05
0.000929152 -3.66232e-06 2.11504e-06
-3.66232e-06 4.94293e-06 2.61311e-06
2.11504e-06 2.61311e-06 -3.78464e-05
0.000835442 -2.09818e-05 -1.2859e-07
-2.09818e-05 -3.86541e-05 -2.51326e-09
-1.2859e-07 -2.51326e-09 -4.99751e-05
0.00252923 -3.31703e-05 -1.85449e-05
-3.31703e-05 0.000820536 -3.95074e-06
-1.85449e-05 -3.95074e-06 0.000835856
0.00249359 -2.95984e-05 -3.94063e-07
-2.95984e-05 0.000796154 5.97774e-08
-3.94063e-07 5.97774e-08 0.000813132
0.000835709 -1.85801e-05 2.85398e-06
-1.85801e-05 -4.36175e-05 3.63545e-06
2.85398e-06 3.63545e-06 -5.2443e-05
0.00245652 -2.62231e-05 1.49345e-05
-2.62231e-05 0.000771801 3.98003e-06
1.49345e-05 3.98003e-06 0.000790199
0.000501714 -2.56877e-05 -4.98637e-05
-2.56877e-05 -0.000169031 -1.14753e-05
-4.98637e-05 -1.14753e-05 -0.000288287
0.00168453 -2.34064e-05 -1.11573e-05
-2.34064e-05 1.5238e-05 -5.52746e-06
-1.11573e-05 -5.52746e-06 -0.000439905
0.00331412 -0.000108477 -3.64536e-05
-0.000108477 0.00120782 -2.70621e-06
-3.64536e-05 -2.70621e-06 0.00113022
0.00119377 5.6878e-05 1.97808e-06
5.6878e-05 0.000133415 3.40571e-07
1.97808e-06 3.40571e-07 5.50728e-05
0.00117284 5.28681e-05 1.60511e-06
5.28681e-05 0.000134617 -7.20925e-08
1.60511e-06 -7.20925e-08 5.52034e-05
0.00106405 5.04312e-05 7.87662e-07
5.04312e-05 8.4908e-05 4.73643e-08
7.87662e-07 4.73643e-08 9.59211e-06
0.00103497 5.09443e-05 -1.39005e-08
5.09443e-05 7.50275e-05 7.07974e-08
-1.39005e-08 7.07974e-08 -3.17282e-06
0.00107341 5.19774e-05 -1.3775e-07
5.19774e-05 9.47551e-05 -2.1931e-07
-1.3775e-07 -2.1931e-07 1.73834e-05
0.000781157 4.9638e-05 -1.69703e-06
4.9638e-05 -5.14104e-05 7.23699e-07
-1.69703e-06 7.23699e-07 -0.000124954
0.00115898 5.38729e-05 2.95858e-06
5.38729e-05 0.000137103 -9.41685e-07
2.95858e-06 -9.41685e-07 5.28452e-05
0.00120454 5.47092e-05 2.0952e-06
5.47092e-05 0.000165794 9.29046e-07
2.0952e-06 9.29046e-07 7.46577e-05
0.00107255 6.0773e-05 -2.46285e-07
6.0773e-05 7.71561e-05 -1.28546e-07
-2.46285e-07 -1.28546e-07 -4.54439e-06
0.00193127 8.76526e-05 1.79207e-07
8.76526e-05 0.000477744 5.56554e-07
1.79207e-07 5.56554e-07 0.000387594
0.00152792 8.57595e-05 1.06702e-06
8.57595e-05 0.00019044 -1.1848e-06
1.06702e-06 -1.1848e-06 9.28532e-05
0.00177811 8.86967e-05 -8.59599e-06
8.86967e-05 0.000157056 -3.23521e-06
-8.59599e-06 -3.23521e-06 4.3637e-05
0.00128402 9.05527e-05 3.3027e-06
9.05527e-05 6.5223e-05 1.21404e-06
3.3027e-06 1.21404e-06 -4.86087e-05
0.000703761 6.07942e-05 -8.04285e-07
6.07942e-05 -0.000114531 4.21136e-06
-8.04285e-07 4.21136e-06 -0.000209658
0.00194446 -2.58288e-05 -5.72651e-07
-2.58288e-05 9.77271e-05 6.53469e-06
-5.72651e-07 6.53469e-06 5.24725e-05
0.00144396 -2.2527e-05 1.24417e-06
-2.2527e-05 2.46955e-06 8.95729e-07
1.24417e-06 8.95729e-07 -0.000144101
0.000797372 -7.84881e-05 -2.85735e-05
-7.84881e-05 -0.000421198 -4.67939e-06
-2.85735e-05 -4.67939e-06 -0.000828137
0.00225843 9.32326e-05 1.7733e-05
9.32326e-05 0.000139331 1.98665e-05
1.7733e-05 1.98665e-05 -7.37017e-05
0.00139761 5.87835e-05 2.6812e-06
5.87835e-05 -0.00010529 2.20976e-06
2.6812e-06 2.20976e-06 -0.000178111
-0.000454423 9.4925e-05 -3.64128e-06
9.4925e-05 -0.00074914 -7.75789e-06
-3.64128e-06 -7.75789e-06 -0.000902437
0.00220081 5.98156e-06 7.21205e-06
5.98156e-06 0.000551069 -5.05933e-06
7.21205e-06 -5.05933e-06 0.000490476
0.000593007 3.72199e-06 -2.15623e-05
3.72199e-06 5.49998e-05 9.20862e-07
-2.15623e-05 9.20862e-07 -0.000112794
0.00128145 0.000117964 5.93342e-05
0.000117964 -0.000222817 1.56476e-07
5.93342e-05 1.56476e-07 -0.000662341
0.00195953 -7.57314e-05 -1.89326e-06
-7.57314e-05 1.53698e-05 6.32446e-06
-1.89326e-06 6.32446e-06 4.18293e-05
0.00130402 9.68529e-05 4.226e-05
9.68529e-05 9.00599e-05 -1.87494e-05
4.226e-05 -1.87494e-05 -0.000154707
0.00196692 -1.09945e-05 4.40366e-06
-1.09945e-05 -2.63706e-05 -1.41539e-06
4.40366e-06 -1.41539e-06 -4.10637e-06
0.00123056 6.67297e-05 5.85469e-07
6.67297e-05 -1.50828e-05 -3.55117e-06
5.85469e-07 -3.55117e-06 -7.66185e-05
0.00104523 4.57495e-05 -7.43248e-06
4.57495e-05 -0.000309076 -6.07947e-08
-7.43248e-06 -6.07947e-08 -0.000372722
0.000649432 4.10623e-05 -5.59001e-06
4.10623e-05 -0.000409991 -3.76649e-06
-5.59001e-06 -3.76649e-06 -0.000492182
0.00160203 -6.94322e-05 1.23021e-05
-6.94322e-05 -6.93821e-05 -4.12849e-06
1.23021e-05 -4.12849e-06 -6.2836e-05
0.00176655 -1.21466e-05 2.89086e-06
-1.21466e-05 9.44366e-05 -2.2018e-07
2.89086e-06 -2.2018e-07 7.61299e-05
0.00180287 1.4386e-05 -2.44964e-06
1.4386e-05 0.000175074 1.22179e-06
-2.44964e-06 1.22179e-06 0.000119476
0.00173165 -4.84445e-05 1.66557e-06
-4.84445e-05 0.000120145 -1.7791e-06
1.66557e-06 -1.7791e-06 0.000103656
0.00162916 -2.55183e-05 -2.0359e-07
-2.55183e-05 8.37762e-05 -1.39739e-07
-2.0359e-07 -1.39739e-07 4.71907e-05
0.00163148 -1.38889e-05 -1.0644e-06
-1.38889e-05 0.000113486 2.13781e-06
-1.0644e-06 2.13781e-06 5.61711e-05
0.00147282 -4.49864e-05 2.47196e-07
-4.49864e-05 5.49775e-05 -8.38085e-07
2.47196e-07 -8.38085e-07 1.79712e-05
0.00148903 -3.63567e-05 -8.31049e-07
-3.63567e-05 7.47039e-05 -7.63518e-07
-8.31049e-07 -7.63518e-07 2.65278e-05
0.00137834 -3.43265e-05 -3.23729e-07
-3.43265e-05 3.88141e-05 2.17745e-06
-3.23729e-07 2.17745e-06 -2.50957e-05
0.00129007 -4.61602e-05 -4.91844e-07
-4.61602e-05 1.62292e-05 -1.48467e-06
-4.91844e-07 -1.48467e-06 -3.23983e-05
0.00132951 -4.287e-05 1.25012e-07
-4.287e-05 4.68855e-05 -4.83722e-07
1.25012e-07 -4.83722e-07 -1.20863e-05
0.00133138 -4.37649e-05 1.38882e-08
-4.37649e-05 6.08841e-05 8.63318e-07
1.38882e-08 8.63318e-07 -5.85846e-06
0.00124017 -4.50413e-05 -9.9699e-07
-4.50413e-05 2.11471e-05 1.81395e-07
-9.9699e-07 1.81395e-07 -3.62542e-05
0.0013455 -4.59363e-05 -2.15092e-07
-4.59363e-05 8.44341e-05 -3.06854e-07
-2.15092e-07 -3.06854e-07 1.93083e-05
0.00128335 -4.42011e-05 -7.79289e-07
-4.42011e-05 7.1045e-05 4.79638e-07
-7.79289e-07 4.79638e-07 2.74459e-06
0.00130918 -5.13605e-05 9.51193e-07
-5.13605e-05 8.65647e-05 -3.70481e-07
9.51193e-07 -3.70481e-07 1.60647e-05
0.00120614 -4.796e-05 1.97905e-07
-4.796e-05 5.32019e-05 -1.62769e-07
1.97905e-07 -1.62769e-07 -1.7055e-05
0.00118833 -4.33022e-05 -1.73853e-06
-4.33022e-05 7.05264e-05 1.113e-06
-1.73853e-06 1.113e-06 3.55069e-06
0.000930065 -2.00695e-05 -2.50441e-06
-2.00695e-05 1.0755e-05 1.74051e-06
-2.50441e-06 1.74051e-06 -4.63777e-05
0.000970098 -4.21067e-05 -4.47548e-07
-4.21067e-05 -9.13388e-06 2.84664e-07
-4.47548e-07 2.84664e-07 -7.71017e-05
0.00114808 -5.18195e-05 9.15305e-07
-5.18195e-05 5.77246e-05 -8.93482e-07
9.15305e-07 -8.93482e-07 -1.62135e-05
0.000695382 2.98547e-05 -4.06325e-06
2.98547e-05 -6.63626e-05 3.30878e-06
-4.06325e-06 3.30878e-06 -9.23756e-05
0.00091985 -1.22788e-05 6.4424e-09
-1.22788e-05 1.90838e-05 8.10586e-08
6.4424e-09 8.10586e-08 -3.64172e-05
0.00107558 -4.24206e-05 1.37715e-06
-4.24206e-05 6.58943e-05 -1.16979e-06
1.37715e-06 -1.16979e-06 -1.38489e-06
0.00269601 4.79756e-05 -2.10375e-05
4.79756e-05 0.00093445 3.29011e-06
-2.10375e-05 3.29011e-06 0.000943086
0.000770011 3.17131e-05 -4.03106e-08
3.17131e-05 -3.71296e-05 -3.69903e-08
-4.03106e-08 -3.69903e-08 -5.88895e-05
0.000942628 -7.33618e-06 2.45507e-06
-7.33618e-06 3.08057e-05 -1.67517e-06
2.45507e-06 -1.67517e-06 -2.16272e-05
0.00260474 4.40817e-05 2.60274e-07
4.40817e-05 0.000881256 8.90643e-08
2.60274e-07 8.90643e-08 0.000891879
0.000828155 3.01854e-05 4.20131e-06
3.01854e-05 -1.60607e-05 -3.23148e-06
4.20131e-06 -3.23148e-06 -3.44872e-05
0.00252676 4.02821e-05 1.96395e-05
4.02821e-05 0.000835025 -3.58099e-06
1.96395e-05 -3.58099e-06 0.00084748
0.000959316 4.83267e-05 -8.60203e-07
4.83267e-05 2.35526e-05 -7.44395e-07
-8.60203e-07 -7.44395e-07 -5.27212e-05
0.00104995 4.54437e-05 -6.41492e-08
4.54437e-05 7.70834e-05 -1.97082e-07
-6.41492e-08 -1.97082e-07 2.84195e-06
0.0010609 3.09204e-05 -1.36539e-06
3.09204e-05 8.15529e-05 -5.83409e-07
-1.36539e-06 -5.83409e-07 1.34207e-05
0.00120369 4.49674e-05 8.21223e-07
4.49674e-05 0.000150844 1.11276e-07
8.21223e-07 1.11276e-07 7.84203e-05
0.000993209 1.95444e-05 -3.07789e-07
1.95444e-05 4.77335e-05 -1.11903e-07
-3.07789e-07 -1.11903e-07 -1.91734e-05
0.000924034 -6.40327e-07 -2.58751e-06
-6.40327e-07 2.00439e-05 -1.69653e-06
-2.58751e-06 -1.69653e-06 -3.20656e-05
0.000938686 1.08234e-05 1.04544e-06
1.08234e-05 1.50526e-05 5.92023e-07
1.04544e-06 5.92023e-07 -5.11572e-05
0.00092014 -1.36238e-06 1.44058e-08
-1.36238e-06 1.04126e-05 4.37517e-08
1.44058e-08 4.37517e-08 -3.88558e-05
0.000821211 -2.80323e-05 -4.08299e-06
-2.80323e-05 -2.99371e-05 -3.48033e-06
-4.08299e-06 -3.48033e-06 -4.68887e-05
0.000923283 -1.19083e-06 2.61026e-06
-1.19083e-06 5.97384e-06 2.43039e-06
2.61026e-06 2.43039e-06 -4.03508e-05
0.000819985 -2.3767e-05 -7.55259e-08
-2.3767e-05 -4.02527e-05 2.38171e-08
-7.55259e-08 2.38171e-08 -5.41377e-05
0.00256463 -3.69446e-05 -1.93351e-05
-3.69446e-05 0.000845123 -3.80956e-06
-1.93351e-05 -3.80956e-06 0.00085881
0.000822241 -2.05761e-05 3.39424e-06
-2.05761e-05 -4.5692e-05 3.73758e-06
3.39424e-06 3.73758e-06 -5.67888e-05
0.00254757 -3.32282e-05 -3.18584e-07
-3.32282e-05 0.000828911 6.84117e-08
-3.18584e-07 6.84117e-08 0.000844378
0.00250929 -2.97174e-05 1.66673e-05
-2.97174e-05 0.00080345 3.94303e-06
1.66673e-05 3.94303e-06 0.00082052
0.0014871 -4.72071e-05 8.47465e-07
-4.72071e-05 -1.65008e-05 5.45691e-07
8.47465e-07 5.45691e-07 -5.17409e-05
0.00166979 2.68854e-07 -4.48989e-06
2.68854e-07 0.00021106 6.09518e-06
-4.48989e-06 6.09518e-06 1.64513e-06
0.00408696 3.52782e-05 -6.13193e-05
3.52782e-05 0.00117116 -9.76563e-06
-6.13193e-05 -9.76563e-06 0.000712383
0.000959338 5.20834e-05 1.05135e-06
5.20834e-05 9.11906e-06 3.61699e-07
1.05135e-06 3.61699e-07 -6.52074e-05
0.00130832 6.26835e-05 1.88688e-06
6.26835e-05 0.000140831 -9.45832e-07
1.88688e-06 -9.45832e-07 5.95442e-05
0.000918909 5.14061e-05 3.13195e-07
5.14061e-05 5.79414e-06 -3.1098e-07
3.13195e-07 -3.1098e-07 -7.22742e-05
0.0011508 5.37463e-05 1.48215e-06
5.37463e-05 0.000130261 -7.75825e-07
1.48215e-06 -7.75825e-07 5.19256e-05
0.00106992 5.24162e-05 3.54968e-07
5.24162e-05 9.37557e-05 4.84367e-08
3.54968e-07 4.84367e-08 1.59787e-05
0.00103282 5.60166e-05 7.17401e-07
5.60166e-05 6.48054e-05 6.04199e-07
7.17401e-07 6.04199e-07 -9.32777e-06
0.00135466 7.48627e-05 -1.57996e-06
7.48627e-05 0.000115766 -2.78004e-06
-1.57996e-06 -2.78004e-06 2.82973e-05
0.00138843 6.81975e-05 2.42288e-06
6.81975e-05 0.000231757 -8.54403e-09
2.42288e-06 -8.54403e-09 0.00015066
0.000753128 6.23961e-05 -1.12501e-06
6.23961e-05 -7.46415e-05 3.00889e-06
-1.12501e-06 3.00889e-06 -0.000163054
0.0013753 8.25399e-05 -1.0899e-06
8.25399e-05 0.000120953 -4.69844e-07
-1.0899e-06 -4.69844e-07 2.4368e-05
0.00115811 6.98688e-05 -4.49157e-06
6.98688e-05 -0.000114585 -2.72481e-06
-4.49157e-06 -2.72481e-06 -0.000216232
0.00167834 2.97598e-05 -7.76656e-06
2.97598e-05 2.29327e-05 2.9227e-06
-7.76656e-06 2.9227e-06 -5.61484e-05
0.00182374 8.8782e-05 9.3098e-08
8.8782e-05 0.000171095 9.77998e-07
9.3098e-08 9.77998e-07 5.94838e-05
0.0010042 8.15536e-05 -5.28622e-07
8.15536e-05 -8.69914e-05 3.91306e-06
-5.28622e-07 3.91306e-06 -0.000197989
0.00166214 -2.01442e-05 1.15998e-06
-2.01442e-05 -2.84913e-05 9.48721e-07
1.15998e-06 9.48721e-07 -7.27003e-05
0.00214609 -1.95142e-05 5.59452e-05
-1.95142e-05 0.000223147 2.9162e-05
5.59452e-05 2.9162e-05 1.33108e-05
0.00220902 7.48913e-05 -3.6433e-06
7.48913e-05 0.000242093 -3.30039e-06
-3.6433e-06 -3.30039e-06 0.000161678
0.00179623 2.65278e-05 -4.61865e-06
2.65278e-05 0.000203709 -2.9137e-06
-4.61865e-06 -2.9137e-06 0.000146535
0.00135109 -1.80702e-06 1.3602e-06
-1.80702e-06 0.000123313 -5.2017e-07
1.3602e-06 -5.2017e-07 7.00947e-05
0.00095673 4.72753e-05 5.39232e-05
4.72753e-05 -5.22326e-06 3.97798e-06
5.39232e-05 3.97798e-06 -0.000227164
0.00232044 -1.99508e-05 9.46307e-06
-1.99508e-05 0.000141746 -8.85615e-07
9.46307e-06 -8.85615e-07 0.00013473
0.00143776 7.27006e-05 -2.67472e-06
7.27006e-05 0.000103783 1.45201e-06
-2.67472e-06 1.45201e-06 4.25322e-05
0.00161409 5.24612e-05 -1.49715e-06
5.24612e-05 -4.00975e-05 4.51108e-06
-1.49715e-06 4.51108e-06 -9.90087e-05
0.001382 5.25296e-05 1.46645e-07
5.25296e-05 -4.56456e-05 1.30246e-06
1.46645e-07 1.30246e-06 -0.000124524
0.0015401 4.34384e-05 -4.96352e-06
4.34384e-05 6.05473e-05 -5.35816e-07
-4.96352e-06 -5.35816e-07 -1.27909e-05
0.00133653 3.95995e-05 -3.47562e-06
3.95995e-05 -5.55054e-06 -1.87659e-06
-3.47562e-06 -1.87659e-06 -6.94645e-05
0.00145394 -1.40338e-05 5.94166e-06
-1.40338e-05 -5.17029e-05 -2.7776e-06
5.94166e-06 -2.7776e-06 -7.47187e-05
0.00164657 1.26381e-05 -1.08052e-06
1.26381e-05 9.55947e-05 -1.0696e-06
-1.08052e-06 -1.0696e-06 4.13635e-05
0.00161469 2.25484e-05 -2.01739e-06
2.25484e-05 0.00010108 4.39672e-07
-2.01739e-06 4.39672e-07 2.93059e-05
0.00172241 -2.60481e-05 -1.21959e-06
-2.60481e-05 0.000133665 -2.76679e-06
-1.21959e-06 -2.76679e-06 9.56986e-05
0.00156941 -1.38218e-05 -1.56311e-07
-1.38218e-05 8.67804e-05 -3.74622e-07
-1.56311e-07 -3.74622e-07 2.95988e-05
0.00138792 -1.02119e-05 -1.25475e-06
-1.02119e-05 1.39675e-05 1.86694e-06
-1.25475e-06 1.86694e-06 -5.57736e-05
0.00143115 -3.75893e-05 -1.96037e-06
-3.75893e-05 5.5089e-05 -2.76239e-06
-1.96037e-06 -2.76239e-06 7.19964e-06
0.00139466 -3.3861e-05 2.1212e-07
-3.3861e-05 4.69591e-05 -1.01821e-07
2.1212e-07 -1.01821e-07 -1.7009e-05
0.00137823 -3.60931e-05 -5.8833e-07
-3.60931e-05 5.52924e-05 1.61294e-06
-5.8833e-07 1.61294e-06 -1.57334e-05
0.00131364 -4.24463e-05 -4.78379e-07
-4.24463e-05 4.00882e-05 -2.00047e-06
-4.78379e-07 -2.00047e-06 -1.89328e-05
0.0013289 -4.3147e-05 3.33068e-08
-4.3147e-05 5.95427e-05 -3.4722e-07
3.33068e-08 -3.4722e-07 -7.1645e-06
0.00129859 -4.27506e-05 -7.33981e-07
-4.27506e-05 6.21073e-05 8.42326e-07
-7.33981e-07 8.42326e-07 -7.67131e-06
0.00122466 -4.34938e-05 -4.14183e-08
-4.34938e-05 2.43731e-05 -4.16107e-07
-4.14183e-08 -4.16107e-07 -4.00103e-05
0.00120906 -4.29702e-05 -1.53486e-07
-4.29702e-05 3.48148e-05 -1.40488e-07
-1.53486e-07 -1.40488e-07 -3.33249e-05
0.00118825 -3.96796e-05 -1.72452e-06
-3.96796e-05 5.25821e-05 9.55699e-07
-1.72452e-06 9.55699e-07 -1.39699e-05
0.0010939 -4.6004e-05 1.30625e-06
-4.6004e-05 -1.7395e-06 -8.26239e-07
1.30625e-06 -8.26239e-07 -7.24267e-05
0.00106137 -4.07256e-05 3.69071e-08
-4.07256e-05 8.88554e-06 2.57978e-08
3.69071e-08 2.57978e-08 -5.82306e-05
0.000973952 -2.47361e-05 -2.78184e-06
-2.47361e-05 1.21377e-05 1.58226e-06
-2.78184e-06 1.58226e-06 -4.53592e-05
0.000744272 1.78711e-05 -4.79328e-06
1.78711e-05 -4.15113e-05 3.26573e-06
-4.79328e-06 3.26573e-06 -7.1223e-05
0.000939714 -2.10403e-05 2.74956e-08
-2.10403e-05 1.53127e-05 1.09793e-07
2.74956e-08 1.09793e-07 -4.18265e-05
0.00106729 -4.37312e-05 1.07423e-06
-4.37312e-05 4.05205e-05 -9.1121e-07
1.07423e-06 -9.1121e-07 -2.70755e-05
0.00277874 5.16843e-05 -2.17739e-05
5.16843e-05 0.000985883 3.16427e-06
-2.17739e-05 3.16427e-06 0.000991868
0.000760597 2.55582e-05 1.38058e-07
2.55582e-05 -3.61972e-05 -5.15644e-08
1.38058e-07 -5.15644e-08 -6.19853e-05
0.000945256 -1.52732e-05 2.54808e-06
-1.52732e-05 3.00702e-05 -1.75491e-06
2.54808e-06 -1.75491e-06 -2.53181e-05
0.00266927 4.76521e-05 2.1248e-07
4.76521e-05 0.000922651 8.28006e-08
2.1248e-07 8.28006e-08 0.000930986
0.000824431 3.04918e-05 4.18822e-06
3.04918e-05 -1.06451e-05 -3.19265e-06
4.18822e-06 -3.19265e-06 -3.24578e-05
0.00258308 4.38587e-05 2.05261e-05
4.38587e-05 0.000871738 -3.43157e-06
2.05261e-05 -3.43157e-06 0.000882127
0.000791903 4.87281e-05 -3.70208e-07
4.87281e-05 -8.21656e-05 -6.58745e-07
-3.70208e-07 -6.58745e-07 -0.000162148
0.000864735 4.64869e-05 9.87087e-10
4.64869e-05 -2.47833e-05 -8.99424e-08
9.87087e-10 -8.99424e-08 -0.000101397
0.00109445 3.91263e-05 -1.44671e-06
3.91263e-05 8.82578e-05 -5.30298e-07
-1.44671e-06 -5.30298e-07 1.8895e-05
0.00102731 4.49004e-05 6.42522e-07
4.49004e-05 6.54234e-05 1.43266e-07
6.42522e-07 1.43266e-07 -8.61631e-06
0.00101773 2.91681e-05 -2.87008e-08
2.91681e-05 6.09497e-05 -1.68359e-08
-2.87008e-08 -1.68359e-08 -7.10954e-06
0.000931136 2.44077e-06 -2.64109e-06
2.44077e-06 3.03926e-05 -1.51976e-06
-2.64109e-06 -1.51976e-06 -2.45535e-05
0.00104089 2.25913e-05 1.15171e-06
2.25913e-05 7.19223e-05 4.18833e-07
1.15171e-06 4.18833e-07 5.24416e-06
0.00091281 -1.78174e-06 7.09989e-08
-1.78174e-06 1.61688e-05 3.09674e-08
7.09989e-08 3.09674e-08 -3.61761e-05
0.000813682 -3.16019e-05 -4.02312e-06
-3.16019e-05 -2.26455e-05 -3.32666e-06
-4.02312e-06 -3.32666e-06 -4.28904e-05
0.000919077 -1.7259e-06 2.79492e-06
-1.7259e-06 1.10607e-05 2.09232e-06
2.79492e-06 2.09232e-06 -3.842e-05
0.000800888 -2.72613e-05 -1.76647e-08
-2.72613e-05 -4.08768e-05 2.39404e-08
-1.76647e-08 2.39404e-08 -5.75697e-05
0.00258713 -4.06792e-05 -1.99485e-05
-4.06792e-05 0.0008649 -3.63477e-06
-1.99485e-05 -3.63477e-06 0.000876767
0.000806262 -2.31633e-05 3.93698e-06
-2.31633e-05 -4.78557e-05 3.7178e-06
3.93698e-06 3.7178e-06 -6.14882e-05
0.00259504 -3.70394e-05 -2.52609e-07
-3.70394e-05 0.000859186 7.64341e-08
-2.52609e-07 7.64341e-08 0.000873017
0.00256705 -3.33339e-05 1.81067e-05
-3.33339e-05 0.000837895 3.89107e-06
1.81067e-05 3.89107e-06 0.000853496
0.00162842 -1.24984e-05 -1.3415e-06
-1.24984e-05 3.91124e-05 1.03663e-06
-1.3415e-06 1.03663e-06 -1.20749e-05
0.00115126 -4.23993e-05 -2.32239e-07
-4.23993e-05 -0.000127162 -1.69039e-06
-2.32239e-07 -1.69039e-06 -0.00016129
9.65079e-05 -2.23558e-05 4.22686e-05
-2.23558e-05 -0.000262027 1.91074e-05
4.22686e-05 1.91074e-05 -0.000386088
0.00175344 7.16428e-05 8.17252e-07
7.16428e-05 0.0003125 -2.11756e-06
8.17252e-07 -2.11756e-06 0.000232002
0.000947715 5.27078e-05 -6.24577e-07
5.27078e-05 1.41912e-05 3.01423e-07
-6.24577e-07 3.01423e-07 -5.74827e-05
0.000790999 5.45465e-05 -2.37236e-06
5.45465e-05 -0.000167315 -7.66447e-07
-2.37236e-06 -7.66447e-07 -0.000253058
0.0012858 6.22279e-05 1.22128e-07
6.22279e-05 0.000128999 5.43667e-08
1.22128e-07 5.43667e-08 4.72382e-05
0.000657956 4.59608e-05 -7.26095e-07
4.59608e-05 -0.000113737 7.82914e-07
-7.26095e-07 7.82914e-07 -0.000191704
0.00161346 6.90885e-05 -3.57568e-06
6.90885e-05 0.000132086 -4.29921e-06
-3.57568e-06 -4.29921e-06 3.89459e-05
0.00127817 6.20431e-05 4.27631e-07
6.20431e-05 0.000177591 -1.34261e-07
4.27631e-07 -1.34261e-07 0.000102961
0.00134916 7.3267e-05 1.18581e-07
7.3267e-05 0.00010686 2.52635e-07
1.18581e-07 2.52635e-07 1.99876e-05
0.0015826 2.84913e-05 -3.38515e-06
2.84913e-05 3.14876e-05 2.00371e-06
-3.38515e-06 2.00371e-06 -5.07077e-05
0.00134505 8.17458e-05 1.28906e-06
8.17458e-05 0.000110307 2.578e-06
1.28906e-06 2.578e-06 1.46397e-05
0.00146532 7.63031e-05 -1.04855e-06
7.63031e-05 3.04682e-05 -6.99891e-07
-1.04855e-06 -6.99891e-07 -7.21265e-05
0.00182416 2.87572e-05 -5.5454e-07
2.87572e-05 9.81418e-05 1.57412e-06
-5.5454e-07 1.57412e-06 1.76053e-05
0.00171976 8.4948e-05 4.76187e-06
8.4948e-05 0.000121091 2.88605e-06
4.76187e-06 2.88605e-06 1.04982e-05
0.00152746 -9.99708e-06 -9.98345e-06
-9.99708e-06 -8.79455e-05 -7.12294e-06
-9.98345e-06 -7.12294e-06 -0.000130797
0.00166231 3.38036e-06 -2.41427e-06
3.38036e-06 0.000166679 -1.24102e-06
-2.41427e-06 -1.24102e-06 0.00011106
0.00132781 2.04507e-05 1.67834e-06
2.04507e-05 -3.3336e-05 6.18639e-07
1.67834e-06 6.18639e-07 -8.98714e-05
0.000486605 -7.64231e-06 1.38252e-06
-7.64231e-06 -0.000307479 2.53991e-06
1.38252e-06 2.53991e-06 -0.00035477
0.00208664 5.74405e-05 6.01006e-06
5.74405e-05 0.000181942 -2.57887e-06
6.01006e-06 -2.57887e-06 0.000127
0.00215978 6.40541e-05 1.47323e-05
6.40541e-05 0.000343097 4.95803e-06
1.47323e-05 4.95803e-06 0.00026731
0.00176244 4.68596e-05 -2.87141e-06
4.68596e-05 0.000158486 -7.48079e-07
-2.87141e-06 -7.48079e-07 8.52893e-05
0.00147565 3.96538e-05 8.27479e-07
3.96538e-05 6.75091e-05 1.62831e-06
8.27479e-07 1.62831e-06 3.92042e-06
0.00150178 3.82999e-05 -3.74057e-06
3.82999e-05 7.99586e-05 -2.32599e-06
-3.74057e-06 -2.32599e-06 1.01792e-05
0.00159174 1.06522e-05 -5.91947e-07
1.06522e-05 6.82435e-05 -2.49633e-06
-5.91947e-07 -2.49633e-06 1.47442e-05
0.00162083 2.16974e-05 1.72446e-08
2.16974e-05 0.000101145 -2.6601e-07
1.72446e-08 -2.6601e-07 3.03927e-05
0.00155893 2.47028e-05 -2.9478e-06
2.47028e-05 8.69301e-05 -5.50421e-07
-2.9478e-06 -5.50421e-07 1.15056e-05
0.00151806 -1.39234e-05 8.61789e-08
-1.39234e-05 6.57446e-05 -2.47624e-06
8.61789e-08 -2.47624e-06 8.60972e-06
0.00144744 -1.01647e-05 2.84441e-07
-1.01647e-05 4.39261e-05 2.69637e-07
2.84441e-07 2.69637e-07 -2.62938e-05
0.00145319 -1.07048e-05 -1.49947e-06
-1.07048e-05 6.26423e-05 1.13403e-06
-1.49947e-06 1.13403e-06 -1.25121e-05
0.00140623 -3.33154e-05 3.64755e-07
-3.33154e-05 5.2858e-05 -2.32691e-06
3.64755e-07 -2.32691e-06 -1.11708e-05
0.00138784 -3.52795e-05 1.55051e-07
-3.52795e-05 5.93561e-05 -1.34625e-08
1.55051e-07 -1.34625e-08 -1.17291e-05
0.00134436 -3.70736e-05 -1.14869e-06
-3.70736e-05 5.89258e-05 1.21462e-06
-1.14869e-06 1.21462e-06 -1.3995e-05
0.00132623 -4.25865e-05 7.81013e-08
-4.25865e-05 5.81207e-05 -1.54947e-06
7.81013e-08 -1.54947e-06 -8.55435e-06
0.00129699 -4.23883e-05 -4.48175e-09
-4.23883e-05 6.10599e-05 -2.0692e-07
-4.48175e-09 -2.0692e-07 -8.70203e-06
0.00121474 -3.80412e-05 -1.63369e-06
-3.80412e-05 4.76144e-05 1.00053e-06
-1.63369e-06 1.00053e-06 -2.04964e-05
0.00112847 -4.16021e-05 7.012e-07
-4.16021e-05 -4.4458e-06 -7.55969e-07
7.012e-07 -7.55969e-07 -7.2421e-05
0.0011757 -3.90681e-05 -2.71083e-08
-3.90681e-05 4.66356e-05 -3.75147e-08
-2.71083e-08 -3.75147e-08 -1.9843e-05
0.00101292 -2.54676e-05 -2.92511e-06
-2.54676e-05 1.22201e-05 1.4902e-06
-2.92511e-06 1.4902e-06 -4.57012e-05
0.000925229 -3.79263e-05 1.58945e-06
-3.79263e-05 -5.7155e-05 -1.00167e-06
1.58945e-06 -1.00167e-06 -0.000124407
0.000970348 -2.48502e-05 6.90443e-10
-2.48502e-05 1.10149e-05 6.66541e-08
6.90443e-10 6.66541e-08 -4.65197e-05
0.00165508 1.89966e-05 -5.73632e-06
1.89966e-05 0.000416179 1.7498e-06
-5.73632e-06 1.7498e-06 0.00038788
0.00116411 3.20868e-05 -2.2942e-05
3.20868e-05 0.000181078 5.64449e-06
-2.2942e-05 5.64449e-06 0.000173675
0.00122399 2.13797e-05 -8.68951e-07
2.13797e-05 0.000197421 -3.84511e-09
-8.68951e-07 -3.84511e-09 0.000170139
0.000950298 -2.18277e-05 2.73858e-06
-2.18277e-05 2.02643e-05 -1.63673e-06
2.73858e-06 -1.63673e-06 -3.68896e-05
0.0027683 5.12393e-05 2.35922e-07
5.12393e-05 0.000982379 9.57172e-08
2.35922e-07 9.57172e-08 0.000987891
0.000826563 2.47749e-05 4.78178e-06
2.47749e-05 -5.14421e-06 -3.16177e-06
4.78178e-06 -3.16177e-06 -3.09933e-05
0.00264469 4.7215e-05 2.15218e-05
4.7215e-05 0.000911878 -3.33906e-06
2.15218e-05 -3.33906e-06 0.000919921
0.00117612 5.75634e-05 -1.04752e-06
5.75634e-05 -1.00262e-05 -6.58786e-07
-1.04752e-06 -6.58786e-07 -8.88855e-05
0.000851144 5.2015e-05 4.61411e-07
5.2015e-05 -8.22925e-05 -2.16747e-07
4.61411e-07 -2.16747e-07 -0.000164692
0.00087487 5.08352e-05 -7.23065e-08
5.08352e-05 -4.5994e-05 -8.34083e-08
-7.23065e-08 -8.34083e-08 -0.000126435
0.00111461 4.46624e-05 -1.33974e-06
4.46624e-05 8.21971e-05 -7.67147e-07
-1.33974e-06 -7.67147e-07 1.16041e-05
0.000751868 4.41795e-05 4.84493e-07
4.41795e-05 -8.22463e-05 5.49887e-07
4.84493e-07 5.49887e-07 -0.000159141
0.00104223 3.68816e-05 -9.78972e-08
3.68816e-05 6.31683e-05 -2.81468e-08
-9.78972e-08 -2.81468e-08 -5.96398e-06
0.000941522 7.72262e-06 -2.60335e-06
7.72262e-06 3.70237e-05 -1.23911e-06
-2.60335e-06 -1.23911e-06 -1.98029e-05
0.000979056 2.75479e-05 1.33606e-06
2.75479e-05 4.24979e-05 5.57237e-07
1.33606e-06 5.57237e-07 -2.54907e-05
0.000901604 3.13128e-07 4.36846e-08
3.13128e-07 1.75397e-05 7.74576e-08
4.36846e-08 7.74576e-08 -3.76027e-05
0.000809038 -3.43973e-05 -4.02454e-06
-3.43973e-05 -1.45132e-05 -3.13143e-06
-4.02454e-06 -3.13143e-06 -3.84275e-05
0.000898783 -2.90013e-06 2.6763e-06
-2.90013e-06 1.09531e-05 1.80785e-06
2.6763e-06 1.80785e-06 -4.16313e-05
0.000777499 -3.06872e-05 1.69721e-08
-3.06872e-05 -4.12204e-05 7.03982e-09
1.69721e-08 7.03982e-09 -6.1201e-05
0.00261229 -4.42727e-05 -2.06277e-05
-4.42727e-05 0.00088782 -3.46642e-06
-2.06277e-05 -3.46642e-06 0.000897519
0.000779654 -2.64283e-05 4.24599e-06
-2.64283e-05 -5.23083e-05 3.58982e-06
4.24599e-06 3.58982e-06 -6.87333e-05
0.00262636 -4.08877e-05 -2.24768e-07
-4.08877e-05 0.000882919 8.01401e-08
-2.24768e-07 8.01401e-08 0.000894959
0.00262567 -3.71401e-05 1.92857e-05
-3.71401e-05 0.000873381 3.81479e-06
1.92857e-05 3.81479e-06 0.000887351
0.00158052 -2.07161e-05 -7.8934e-07
-2.07161e-05 6.65746e-05 1.85801e-06
-7.8934e-07 1.85801e-06 4.36399e-06
0.00173053 -1.1929e-05 1.63932e-06
-1.1929e-05 9.72443e-05 -1.63596e-06
1.63932e-06 -1.63596e-06 4.5048e-05
0.0011887 -4.19122e-05 -4.17735e-06
-4.19122e-05 -6.90775e-05 -4.9549e-06
-4.17735e-06 -4.9549e-06 -0.000102031
0.00145355 6.17673e-05 -4.021e-06
6.17673e-05 7.15833e-05 -3.177e-06
-4.021e-06 -3.177e-06 -1.48856e-05
0.00147175 6.59988e-05 -8.86193e-08
6.59988e-05 0.000190465 4.12808e-07
-8.86193e-08 4.12808e-07 0.000111971
0.000823393 5.14395e-05 -3.05253e-06
5.14395e-05 -3.57375e-05 3.26124e-07
-3.05253e-06 3.26124e-07 -0.000104623
0.00129739 6.32685e-05 8.01342e-07
6.32685e-05 7.51779e-05 9.09246e-07
8.01342e-07 9.09246e-07 -8.92311e-06
0.00129186 6.22923e-05 -1.40402e-06
6.22923e-05 0.000130893 7.48061e-07
-1.40402e-06 7.48061e-07 4.86518e-05
0.00165677 2.50334e-05 -2.81519e-06
2.50334e-05 8.83723e-05 8.25751e-07
-2.81519e-06 8.25751e-07 1.42168e-06
0.00158058 7.00623e-05 -1.42721e-06
7.00623e-05 0.0001136 -1.30827e-06
-1.42721e-06 -1.30827e-06 1.86963e-05
0.00134422 7.20332e-05 1.24204e-06
7.20332e-05 0.000100118 4.33297e-06
1.24204e-06 4.33297e-06 1.35579e-05
0.00166063 2.69879e-05 -3.29842e-07
2.69879e-05 6.81846e-05 7.34687e-07
-3.29842e-07 7.34687e-07 -1.45225e-05
0.00186714 8.43343e-05 4.1432e-06
8.43343e-05 0.000217438 2.28214e-06
4.1432e-06 2.28214e-06 0.000114302
0.00175668 2.55653e-05 6.784e-06
2.55653e-05 7.18322e-05 6.11892e-08
6.784e-06 6.11892e-08 -1.02814e-05
0.00127007 2.89494e-06 -2.08666e-06
2.89494e-06 -1.23527e-05 -3.14179e-07
-2.08666e-06 -3.14179e-07 -7.58615e-05
0.00146972 4.71453e-06 -2.59166e-07
4.71453e-06 7.14475e-05 -5.68048e-07
-2.59166e-07 -5.68048e-07 1.53971e-05
0.000712359 1.38066e-05 7.25151e-06
1.38066e-05 -0.000342928 5.26719e-06
7.25151e-06 5.26719e-06 -0.000398496
0.0020041 5.07398e-05 5.27147e-06
5.07398e-05 0.000265658 -8.9483e-07
5.27147e-06 -8.9483e-07 0.00019266
0.00157841 3.96788e-05 6.96152e-06
3.96788e-05 0.000122018 4.83331e-06
6.96152e-06 4.83331e-06 5.88722e-05
0.00157831 3.9097e-05 -1.07576e-06
3.9097e-05 0.000116189 -3.25719e-07
-1.07576e-06 -3.25719e-07 4.68175e-05
0.0014669 3.25358e-05 -1.73245e-06
3.25358e-05 7.5668e-05 -9.84322e-07
-1.73245e-06 -9.84322e-07 2.5306e-06
0.00161913 2.07284e-05 2.17364e-06
2.07284e-05 9.73273e-05 -8.06405e-07
2.17364e-06 -8.06405e-07 2.76304e-05
0.00155179 2.271e-05 -4.45998e-07
2.271e-05 8.08205e-05 -8.53943e-08
-4.45998e-07 -8.53943e-08 5.58489e-06
0.0014363 1.60588e-05 -2.7398e-06
1.60588e-05 4.37218e-05 -9.68632e-07
-2.7398e-06 -9.68632e-07 -3.18697e-05
0.00150315 -1.028e-05 1.18008e-06
-1.028e-05 7.1985e-05 -1.11914e-06
1.18008e-06 -1.11914e-06 1.29126e-06
0.00145235 -1.11936e-05 5.55774e-08
-1.11936e-05 6.18292e-05 3.55999e-07
5.55774e-08 3.55999e-07 -1.34419e-05
0.00140606 -1.7747e-05 -1.82636e-06
-1.7747e-05 6.23022e-05 7.77586e-07
-1.82636e-06 7.77586e-07 -1.31605e-05
0.0013972 -3.44078e-05 1.00925e-06
-3.44078e-05 6.33061e-05 -1.62014e-06
1.00925e-06 -1.62014e-06 -7.83626e-06
0.00135033 -3.67757e-05 8.26707e-08
-3.67757e-05 6.13045e-05 5.51245e-08
8.26707e-08 5.51245e-08 -1.16753e-05
0.00126119 -3.43734e-05 -1.88028e-06
-3.43734e-05 4.78779e-05 1.13657e-06
-1.88028e-06 1.13657e-06 -2.27656e-05
0.00129509 -4.20656e-05 7.94526e-07
-4.20656e-05 5.98808e-05 -1.25405e-06
7.94526e-07 -1.25405e-06 -9.86761e-06
0.00121636 -3.77191e-05 -1.79251e-08
-3.77191e-05 4.81998e-05 -1.02355e-07
-1.79251e-08 -1.02355e-07 -1.98857e-05
0.00105033 -2.6011e-05 -3.06573e-06
-2.6011e-05 1.33942e-05 1.56947e-06
-3.06573e-06 1.56947e-06 -4.62219e-05
0.00116233 -3.8462e-05 1.54064e-06
-3.8462e-05 4.02898e-05 -9.8349e-07
1.54064e-06 -9.8349e-07 -2.61155e-05
0.00100466 -2.51336e-05 2.0519e-08
-2.51336e-05 8.86421e-06 -1.32472e-08
2.0519e-08 -1.32472e-08 -4.9129e-05
0.0016925 1.25165e-05 -6.04523e-06
1.25165e-05 0.000432577 1.64621e-06
-6.04523e-06 1.64621e-06 0.000401632
0.000968621 -2.51516e-05 2.85141e-06
-2.51516e-05 1.07619e-05 -1.47514e-06
2.85141e-06 -1.47514e-06 -4.68117e-05
0.00169115 1.57708e-05 4.76093e-06
1.57708e-05 0.000430828 -9.36197e-07
4.76093e-06 -9.36197e-07 0.000402488
0.00119978 3.15291e-05 -2.57335e-05
3.15291e-05 0.000212498 5.48604e-06
-2.57335e-05 5.48604e-06 0.000200273
0.0020276 4.30494e-05 -1.62936e-05
4.30494e-05 0.000618169 1.75521e-06
-1.62936e-05 1.75521e-06 0.000615613
0.00171605 2.1501e-05 1.29623e-05
2.1501e-05 0.000442116 -2.62428e-06
1.29623e-05 -2.62428e-06 0.000417545
0.00275943 5.05808e-05 2.31693e-05
5.05808e-05 0.000979545 -3.29083e-06
2.31693e-05 -3.29083e-06 0.00098461
0.00145443 5.66161e-05 -3.17007e-06
5.66161e-05 7.00499e-05 -2.30505e-06
-3.17007e-06 -2.30505e-06 -1.21661e-05
0.00138916 6.04313e-05 1.30459e-06
6.04313e-05 0.000138976 -4.94195e-07
1.30459e-06 -4.94195e-07 6.06222e-05
0.00116448 5.71748e-05 9.51271e-07
5.71748e-05 -6.06255e-06 5.53218e-07
9.51271e-07 5.53218e-07 -8.06441e-05
0.00112318 4.92588e-05 -1.30876e-06
4.92588e-05 6.96436e-05 -1.23473e-06
-1.30876e-06 -1.23473e-06 -4.27134e-06
0.00111623 5.81427e-05 -3.18614e-07
5.81427e-05 4.23209e-05 1.4877e-07
-3.18614e-07 1.4877e-07 -3.99902e-05
0.00100352 5.40909e-05 3.49605e-07
5.40909e-05 1.18629e-05 7.23524e-07
3.49605e-07 7.23524e-07 -6.90333e-05
0.00108647 4.39029e-05 -5.01416e-08
4.39029e-05 7.11578e-05 -1.0442e-07
-5.01416e-08 -1.0442e-07 3.66335e-07
0.000958087 1.64637e-05 -2.48618e-06
1.64637e-05 3.95828e-05 -1.25179e-06
-2.48618e-06 -1.25179e-06 -1.88117e-05
0.000993025 3.48199e-05 1.11609e-06
3.48199e-05 3.95719e-05 4.07676e-07
1.11609e-06 4.07676e-07 -2.93431e-05
0.000904652 5.45032e-06 -7.09973e-09
5.45032e-06 1.97769e-05 8.8009e-08
-7.09973e-09 8.8009e-08 -3.71156e-05
0.000806702 -2.78471e-05 -4.69126e-06
-2.78471e-05 -8.13145e-06 -2.85754e-06
-4.69126e-06 -2.85754e-06 -3.54973e-05
0.000877297 -1.61873e-06 2.52265e-06
-1.61873e-06 7.2373e-06 1.61986e-06
2.52265e-06 1.61986e-06 -4.8109e-05
0.000756368 -3.33083e-05 -7.6871e-09
-3.33083e-05 -4.05055e-05 -6.08193e-09
-7.6871e-09 -6.08193e-09 -6.42257e-05
0.00264292 -4.75823e-05 -2.15096e-05
-4.75823e-05 0.000915231 -3.31206e-06
-2.15096e-05 -3.31206e-06 0.000922368
0.00074056 -2.96886e-05 4.28877e-06
-2.96886e-05 -6.02056e-05 3.44011e-06
4.28877e-06 3.44011e-06 -7.99098e-05
0.00265156 -4.46125e-05 -2.03106e-07
-4.46125e-05 0.000905405 8.26214e-08
-2.03106e-07 8.26214e-08 0.000915364
0.00266403 -4.10425e-05 2.00307e-05
-4.10425e-05 0.00090019 3.67316e-06
2.00307e-05 3.67316e-06 0.000912406
0.0015193 -1.81332e-05 -2.37185e-06
-1.81332e-05 5.31936e-05 2.23087e-06
-2.37185e-06 2.23087e-06 -1.91202e-05
0.00158558 -1.94802e-05 3.46782e-07
-1.94802e-05 7.09513e-05 -5.31091e-07
3.46782e-07 -5.31091e-07 8.20222e-06
0.00196767 -1.20128e-05 4.32985e-06
-1.20128e-05 0.000220331 -3.26605e-06
4.32985e-06 -3.26605e-06 0.000166907
0.00137435 2.73166e-05 -2.58862e-06
2.73166e-05 -2.61046e-05 1.87634e-07
-2.58862e-06 1.87634e-07 -0.000110727
0.0015089 6.2815e-05 1.90345e-07
6.2815e-05 0.000100793 -5.13651e-07
1.90345e-07 -5.13651e-07 1.40531e-05
0.00130898 6.25634e-05 -1.26021e-06
6.25634e-05 0.000124524 1.80521e-06
-1.26021e-06 1.80521e-06 4.81359e-05
0.00173138 7.07987e-05 1.59013e-06
7.07987e-05 0.000282025 1.34122e-06
1.59013e-06 1.34122e-06 0.000199677
0.00172057 2.67677e-05 -1.38246e-07
2.67677e-05 0.000119282 -1.79966e-07
-1.38246e-07 -1.79966e-07 3.24051e-05
0.00156108 7.10037e-05 2.48954e-06
7.10037e-05 0.000100687 2.19674e-06
2.48954e-06 2.19674e-06 4.17503e-06
0.00171309 2.47714e-05 3.69574e-06
2.47714e-05 9.25891e-05 -1.56206e-07
3.69574e-06 -1.56206e-07 9.37562e-06
0.00140919 2.06722e-06 -3.75147e-07
2.06722e-06 5.34928e-05 2.54125e-07
-3.75147e-07 2.54125e-07 -1.67191e-05
0.00135994 4.34649e-06 3.66893e-08
4.34649e-06 2.67727e-05 -1.62064e-07
3.66893e-08 -1.62064e-07 -3.83326e-05
0.00131945 6.68113e-06 1.89261e-06
6.68113e-06 -2.69833e-06 9.37688e-07
1.89261e-06 9.37688e-07 -5.92911e-05
0.00149425 3.23872e-05 -1.06181e-06
3.23872e-05 9.91791e-05 -2.67715e-07
-1.06181e-06 -2.67715e-07 2.25865e-05
0.00165301 3.9838e-05 3.59209e-06
3.9838e-05 0.000151471 1.54527e-06
3.59209e-06 1.54527e-06 8.25309e-05
0.00146398 3.27511e-05 2.87827e-07
3.27511e-05 7.37204e-05 1.88309e-07
2.87827e-07 1.88309e-07 1.56522e-07
0.00150639 2.94649e-05 -1.33067e-06
2.94649e-05 9.33003e-05 -4.49139e-07
-1.33067e-06 -4.49139e-07 1.85432e-05
0.00156724 2.10114e-05 2.11237e-06
2.10114e-05 8.56295e-05 2.37006e-07
2.11237e-06 2.37006e-07 1.0571e-05
0.00147352 1.60177e-05 -6.40666e-07
1.60177e-05 6.12042e-05 -2.0253e-07
-6.40666e-07 -2.0253e-07 -1.42597e-05
0.00141289 1.07601e-05 -2.73812e-06
1.07601e-05 5.52154e-05 -4.31954e-07
-2.73812e-06 -4.31954e-07 -2.1127e-05
0.00145429 -1.10415e-05 2.19025e-06
-1.10415e-05 6.23459e-05 -4.43521e-07
2.19025e-06 -4.43521e-07 -1.30413e-05
0.00139997 -1.65018e-05 4.6084e-08
-1.65018e-05 5.95351e-05 1.49548e-07
4.6084e-08 1.49548e-07 -1.60263e-05
0.0013173 -2.32983e-05 -2.37699e-06
-2.32983e-05 5.26317e-05 7.7598e-07
-2.37699e-06 7.7598e-07 -1.97406e-05
0.00135755 -3.64366e-05 1.50515e-06
-3.64366e-05 6.42772e-05 -1.11068e-06
1.50515e-06 -1.11068e-06 -8.75794e-06
0.00126507 -3.4114e-05 2.95866e-08
-3.4114e-05 4.95266e-05 7.47904e-08
2.95866e-08 7.47904e-08 -2.1145e-05
0.00109857 -2.48428e-05 -3.46495e-06
-2.48428e-05 1.90473e-05 1.68168e-06
-3.46495e-06 1.68168e-06 -4.29526e-05
0.00121737 -3.73298e-05 1.66105e-06
-3.73298e-05 4.84966e-05 -1.19629e-06
1.66105e-06 -1.19629e-06 -1.9561e-05
0.00104639 -2.53265e-05 1.08977e-07
-2.53265e-05 1.14353e-05 -6.58079e-08
1.08977e-07 -6.58079e-08 -4.82525e-05
0.00172281 7.78538e-06 -6.09454e-06
7.78538e-06 0.000444347 1.61893e-06
-6.09454e-06 1.61893e-06 0.000411542
0.000997539 -2.48368e-05 2.89236e-06
-2.48368e-05 6.06219e-06 -1.45016e-06
2.89236e-06 -1.45016e-06 -5.20034e-05
0.00173536 9.71618e-06 5.15481e-06
9.71618e-06 0.000450419 -8.31458e-07
5.15481e-06 -8.31458e-07 0.00041952
0.00122544 3.08337e-05 -2.77357e-05
3.08337e-05 0.000237578 5.00918e-06
-2.77357e-05 5.00918e-06 0.000221836
0.00173017 1.25771e-05 1.57784e-05
1.25771e-05 0.000446933 -3.703e-06
1.57784e-05 -3.703e-06 0.000418581
0.00118138 3.46595e-05 -9.85588e-06
3.46595e-05 0.000204883 2.02077e-06
-9.85588e-06 2.02077e-06 0.00019258
0.00286602 5.90206e-05 9.84025e-06
5.90206e-05 0.00104352 -1.28774e-06
9.84025e-06 -1.28774e-06 0.00104534
0.00167027 3.5153e-05 -2.58698e-06
3.5153e-05 0.000146897 -7.42666e-07
-2.58698e-06 -7.42666e-07 6.2328e-05
0.00146412 5.51735e-05 -1.23321e-06
5.51735e-05 0.000108946 -2.05631e-06
-1.23321e-06 -2.05631e-06 2.95275e-05
0.00150355 5.81291e-05 -1.2008e-06
5.81291e-05 0.000102833 9.48611e-07
-1.2008e-06 9.48611e-07 2.12887e-05
0.00143852 5.56603e-05 -8.99359e-07
5.56603e-05 0.000191032 -6.31074e-07
-8.99359e-07 -6.31074e-07 0.00011714
0.00125593 5.86475e-05 4.16824e-07
5.86475e-05 7.26433e-05 -8.1399e-07
4.16824e-07 -8.1399e-07 -5.52927e-06
0.00121952 5.77935e-05 2.59319e-06
5.77935e-05 3.07161e-05 1.68932e-06
2.59319e-06 1.68932e-06 -3.97326e-05
0.000988861 2.84012e-05 -2.55606e-06
2.84012e-05 4.08251e-05 -1.62151e-06
-2.55606e-06 -1.62151e-06 -2.08021e-05
0.0011176 4.93911e-05 -5.20421e-08
4.93911e-05 6.66018e-05 -8.22633e-08
-5.20421e-08 -8.22633e-08 -7.32691e-06
0.00134688 6.34497e-05 1.31581e-06
6.34497e-05 0.000151324 1.37365e-06
1.31581e-06 1.37365e-06 6.90009e-05
0.00103698 4.25036e-05 1.09925e-06
4.25036e-05 4.97715e-05 4.75736e-07
1.09925e-06 4.75736e-07 -2.11874e-05
0.000927055 1.48873e-05 -3.01648e-08
1.48873e-05 2.57797e-05 -2.89036e-08
-3.01648e-08 -2.89036e-08 -3.27061e-05
0.000809709 -1.68652e-05 -5.12898e-06
-1.68652e-05 -3.1217e-06 -2.80657e-06
-5.12898e-06 -2.80657e-06 -3.43471e-05
0.000867215 2.71521e-06 2.40166e-06
2.71521e-06 2.21864e-06 1.28346e-06
2.40166e-06 1.28346e-06 -5.4763e-05
0.000747113 -3.09386e-05 -1.45752e-07
-3.09386e-05 -3.60729e-05 -2.13594e-08
-1.45752e-07 -2.13594e-08 -6.36042e-05
0.00270833 -5.07388e-05 -2.28617e-05
-5.07388e-05 0.000961808 -3.15483e-06
-2.28617e-05 -3.15483e-06 0.000965878
0.000704296 -3.22374e-05 4.19926e-06
-3.22374e-05 -6.6222e-05 3.28569e-06
4.19926e-06 3.28569e-06 -8.97439e-05
0.00267994 -4.80804e-05 -2.14178e-07
-4.80804e-05 0.000931235 8.54986e-08
-2.14178e-07 8.54986e-08 0.00093874
0.00269094 -4.48744e-05 2.05555e-05
-4.48744e-05 0.000923079 3.48957e-06
2.05555e-05 3.48957e-06 0.000933299
0.00154133 -9.14525e-06 -1.22583e-06
-9.14525e-06 7.17987e-05 1.06619e-06
-1.22583e-06 1.06619e-06 -3.22709e-06
0.0016338 -1.75758e-05 -1.15307e-07
-1.75758e-05 0.000101845 5.99396e-07
-1.15307e-07 5.99396e-07 2.8654e-05
0.00155107 -1.81386e-05 2.11494e-06
-1.81386e-05 5.65185e-05 -2.81176e-06
2.11494e-06 -2.81176e-06 -6.7765e-06
0.00152156 2.81658e-05 2.51736e-07
2.81658e-05 4.00301e-05 -1.29696e-07
2.51736e-07 -1.29696e-07 -4.43357e-05
0.00157844 6.41387e-05 2.04497e-06
6.41387e-05 0.000137556 1.46508e-06
2.04497e-06 1.46508e-06 5.04381e-05
0.00183594 2.80814e-05 2.9874e-06
2.80814e-05 0.000174765 -4.93052e-07
2.9874e-06 -4.93052e-07 8.80131e-05
0.00144062 1.88612e-06 -1.09792e-06
1.88612e-06 6.64462e-05 3.03405e-07
-1.09792e-06 3.03405e-07 -9.65632e-06
0.00139176 4.13957e-06 5.55142e-07
4.13957e-06 4.77861e-05 -1.9267e-07
5.55142e-07 -1.9267e-07 -2.26999e-05
0.00146239 5.60845e-06 2.02098e-06
5.60845e-06 7.1845e-05 1.42933e-07
2.02098e-06 1.42933e-07 5.14301e-06
0.00145378 2.4188e-05 -5.86229e-07
2.4188e-05 7.99403e-05 -1.13083e-07
-5.86229e-07 -1.13083e-07 3.53068e-06
0.0014911 2.23507e-05 -6.78733e-07
2.23507e-05 0.000101328 1.30681e-08
-6.78733e-07 1.30681e-08 2.24185e-05
0.00144949 3.29475e-05 2.14353e-06
3.29475e-05 6.63076e-05 8.53412e-07
2.14353e-06 8.53412e-07 -7.69772e-06
0.0014759 2.90027e-05 3.91719e-07
2.90027e-05 7.9653e-05 2.92987e-07
3.91719e-07 2.92987e-07 4.82415e-06
0.00151317 2.5839e-05 -1.09013e-06
2.5839e-05 0.000108902 -3.0538e-07
-1.09013e-06 -3.0538e-07 3.31895e-05
0.00150831 1.53251e-05 1.97992e-06
1.53251e-05 7.75616e-05 5.18173e-07
1.97992e-06 5.18173e-07 2.22437e-06
0.00142443 9.5528e-06 -5.55815e-07
9.5528e-06 6.02948e-05 -2.55565e-08
-5.55815e-07 -2.55565e-08 -1.58534e-05
0.00133474 2.64306e-06 -3.23216e-06
2.64306e-06 5.0031e-05 2.69345e-07
-3.23216e-06 2.69345e-07 -2.34385e-05
0.00139546 -1.67524e-05 1.87954e-06
-1.67524e-05 5.74344e-05 -4.61707e-07
1.87954e-06 -4.61707e-07 -1.82065e-05
0.00131256 -2.26085e-05 6.72197e-08
-2.26085e-05 5.03692e-05 7.5957e-08
6.72197e-08 7.5957e-08 -2.20766e-05
0.00112702 -1.70352e-05 -3.95363e-06
-1.70352e-05 1.59804e-05 1.39896e-06
-3.95363e-06 1.39896e-06 -4.7259e-05
0.00126988 -3.38112e-05 2.09185e-06
-3.38112e-05 5.16197e-05 -9.81276e-07
2.09185e-06 -9.81276e-07 -1.90777e-05
0.00109349 -2.41283e-05 1.58522e-07
-2.41283e-05 1.59603e-05 5.22132e-08
1.58522e-07 5.22132e-08 -4.60838e-05
0.0017865 6.33874e-06 -6.30565e-06
6.33874e-06 0.000470155 1.62894e-06
-6.30565e-06 1.62894e-06 0.000436244
0.00104299 -2.47245e-05 3.10349e-06
-2.47245e-05 9.77362e-06 -1.5813e-06
3.10349e-06 -1.5813e-06 -4.99933e-05
0.00178424 4.71892e-06 5.64808e-06
4.71892e-06 0.000471512 -6.97591e-07
5.64808e-06 -6.97591e-07 0.000438739
0.00124696 2.94166e-05 -2.98915e-05
2.94166e-05 0.000257916 4.41317e-06
-2.98915e-05 4.41317e-06 0.000239672
0.00178084 6.56041e-06 1.68107e-05
6.56041e-06 0.000469498 -3.45352e-06
1.68107e-05 -3.45352e-06 0.000438678
0.0012194 3.47692e-05 -1.06997e-05
3.47692e-05 0.000236432 1.79306e-06
-1.06997e-05 1.79306e-06 0.000220405
0.0011578 3.80917e-05 6.63054e-06
3.80917e-05 0.000194763 -1.46895e-06
6.63054e-06 -1.46895e-06 0.000182351
0.0015093 1.37927e-06 -1.42199e-06
1.37927e-06 6.09076e-05 1.1477e-06
-1.42199e-06 1.1477e-06 -1.46548e-05
0.00147294 3.74919e-05 -2.56462e-06
3.74919e-05 7.77792e-05 -4.84589e-07
-2.56462e-06 -4.84589e-07 -3.98735e-06
0.00160661 3.46912e-05 -9.31235e-07
3.46912e-05 0.000111834 -7.19376e-07
-9.31235e-07 -7.19376e-07 2.70755e-05
0.00139478 5.14476e-05 -1.90125e-06
5.14476e-05 0.000120503 -1.00528e-06
-1.90125e-06 -1.00528e-06 4.55924e-05
0.00151763 5.60097e-05 6.91675e-07
5.60097e-05 0.000139095 4.69136e-07
6.91675e-07 4.69136e-07 6.00199e-05
0.00150141 5.87334e-05 3.46987e-06
5.87334e-05 0.000110907 2.5231e-06
3.46987e-06 2.5231e-06 3.00844e-05
0.000971923 3.40691e-05 -2.94012e-06
3.40691e-05 3.72568e-06 -1.46586e-06
-2.94012e-06 -1.46586e-06 -6.02041e-05
0.00116457 5.12939e-05 7.85767e-07
5.12939e-05 5.44971e-05 5.14225e-07
7.85767e-07 5.14225e-07 -2.03759e-05
0.00110769 5.66212e-05 1.27347e-06
5.66212e-05 -1.74992e-06 1.57995e-06
1.27347e-06 1.57995e-06 -7.96212e-05
0.000819869 -5.48262e-07 -5.72443e-06
-5.48262e-07 8.52856e-07 -3.08901e-06
-5.72443e-06 -3.08901e-06 -3.51387e-05
0.000955849 2.69266e-05 -8.54287e-08
2.69266e-05 2.44662e-05 -9.35486e-08
-8.54287e-08 -9.35486e-08 -3.69926e-05
0.00112058 4.9739e-05 1.31335e-06
4.9739e-05 6.77243e-05 1.08047e-06
1.31335e-06 1.08047e-06 -6.22983e-06
0.000879362 1.34406e-05 2.2749e-06
1.34406e-05 3.75273e-06 1.06449e-06
2.2749e-06 1.06449e-06 -5.4751e-05
0.00075017 -1.89897e-05 -6.15492e-08
-1.89897e-05 -2.88059e-05 -6.29333e-08
-6.15492e-08 -6.29333e-08 -6.03772e-05
0.00282836 -5.36024e-05 -2.50601e-05
-5.36024e-05 0.00103674 -3.0472e-06
-2.50601e-05 -3.0472e-06 0.00103725
0.000689298 -3.40367e-05 4.15004e-06
-3.40367e-05 -6.29281e-05 3.08438e-06
4.15004e-06 3.08438e-06 -9.07276e-05
0.00271908 -5.12705e-05 -2.60072e-07
-5.12705e-05 0.000964539 9.08224e-08
-2.60072e-07 9.08224e-08 0.000969118
0.00271993 -4.85271e-05 2.11326e-05
-4.85271e-05 0.000948696 3.30381e-06
2.11326e-05 3.30381e-06 0.000956566
0.0015227 -1.53304e-05 -8.82831e-07
-1.53304e-05 8.19339e-05 -3.62285e-07
-8.82831e-07 -3.62285e-07 4.92101e-06
0.00157625 -9.52172e-06 -3.45032e-07
-9.52172e-06 8.64594e-05 2.31818e-07
-3.45032e-07 2.31818e-07 1.11274e-05
0.00165822 -1.67512e-05 1.38602e-06
-1.67512e-05 0.000107829 -1.43542e-06
1.38602e-06 -1.43542e-06 3.36619e-05
0.00163874 2.86864e-05 3.01309e-06
2.86864e-05 9.15046e-05 -3.55667e-08
3.01309e-06 -3.55667e-08 7.42452e-06
0.00144267 -1.14388e-06 -1.13064e-06
-1.14388e-06 6.50498e-05 -4.05445e-07
-1.13064e-06 -4.05445e-07 -1.47482e-05
0.00147508 1.98435e-06 -2.51494e-07
1.98435e-06 8.33297e-05 -1.39099e-07
-2.51494e-07 -1.39099e-07 7.6336e-06
0.00137036 6.16411e-06 1.07871e-06
6.16411e-06 3.99426e-05 -3.895e-09
1.07871e-06 -3.895e-09 -3.07873e-05
0.00141062 1.93842e-05 -1.16778e-08
1.93842e-05 5.95183e-05 3.97076e-08
-1.16778e-08 3.97076e-08 -1.68484e-05
0.00144469 2.66668e-05 7.57599e-08
2.66668e-05 7.84471e-05 -1.69194e-07
7.57599e-08 -1.69194e-07 -5.4621e-07
0.0014576 2.37459e-05 -1.67033e-06
2.37459e-05 9.26249e-05 2.29952e-07
-1.67033e-06 2.29952e-07 1.48948e-05
0.00144932 2.85808e-05 2.13799e-06
2.85808e-05 6.78378e-05 1.10448e-06
2.13799e-06 1.10448e-06 -7.05786e-06
0.00148927 2.5964e-05 4.42341e-07
2.5964e-05 9.90566e-05 1.71761e-07
4.42341e-07 1.71761e-07 2.34641e-05
0.00129463 2.29208e-05 -2.54027e-06
2.29208e-05 2.77634e-05 -1.67202e-07
-2.54027e-06 -1.67202e-07 -4.63474e-05
0.00142914 9.82693e-06 1.50986e-06
9.82693e-06 6.22133e-05 4.01366e-07
1.50986e-06 4.01366e-07 -1.3764e-05
0.00133197 4.19718e-06 -2.80812e-07
4.19718e-06 4.84581e-05 1.27259e-07
-2.80812e-07 1.27259e-07 -2.49074e-05
0.00113657 6.07815e-07 -4.23642e-06
6.07815e-07 1.04938e-05 9.39953e-07
-4.23642e-06 9.39953e-07 -5.31281e-05
0.00130751 -1.97786e-05 2.43195e-06
-1.97786e-05 4.80058e-05 -5.84197e-07
2.43195e-06 -5.84197e-07 -2.4491e-05
0.00112729 -1.84622e-05 8.59512e-08
-1.84622e-05 1.57496e-05 1.26733e-07
8.59512e-08 1.26733e-07 -4.75716e-05
0.000705906 -3.75721e-06 -6.61067e-06
-3.75721e-06 -8.14351e-05 2.44339e-06
-6.61067e-06 2.44339e-06 -0.000121132
0.00109104 -2.34893e-05 3.58491e-06
-2.34893e-05 1.41732e-05 -1.46931e-06
3.58491e-06 -1.46931e-06 -4.79221e-05
0.00128274 -4.62199e-06 7.41104e-06
-4.62199e-06 0.000213491 -4.2005e-07
7.41104e-06 -4.2005e-07 0.000176904
0.00352571 6.80667e-05 -3.28361e-05
6.80667e-05 0.00141109 1.87418e-06
-3.28361e-05 1.87418e-06 0.00140293
0.00184437 1.57215e-06 1.81805e-05
1.57215e-06 0.000497939 -3.21597e-06
1.81805e-05 -3.21597e-06 0.000465268
0.0012588 3.44822e-05 -1.17641e-05
3.44822e-05 0.00026614 1.51839e-06
-1.17641e-05 1.51839e-06 0.00024736
0.00121024 3.91771e-05 6.95995e-06
3.91771e-05 0.000233812 -1.41741e-06
6.95995e-06 -1.41741e-06 0.000217447
0.00157018 -8.79371e-06 -5.96759e-07
-8.79371e-06 0.000106568 -2.7146e-08
-5.96759e-07 -2.7146e-08 3.09928e-05
0.00136067 9.2192e-06 -1.73472e-06
9.2192e-06 1.51115e-05 7.72622e-07
-1.73472e-06 7.72622e-07 -6.17794e-05
0.00150977 1.35927e-06 9.28884e-08
1.35927e-06 6.40995e-05 -6.34356e-08
9.28884e-08 -6.34356e-08 -1.15743e-05
0.00106194 3.62902e-05 -2.85305e-06
3.62902e-05 -8.06609e-05 -8.25599e-07
-2.85305e-06 -8.25599e-07 -0.000157801
0.00149524 3.76487e-05 1.31007e-07
3.76487e-05 9.09506e-05 -2.55608e-08
1.31007e-07 -2.55608e-08 9.94585e-06
0.00153884 3.43504e-05 1.95236e-06
3.43504e-05 7.50557e-05 -3.92088e-07
1.95236e-06 -3.92088e-07 -9.92903e-06
0.00070794 2.99888e-05 -4.35454e-06
2.99888e-05 -0.000164668 -1.82131e-06
-4.35454e-06 -1.82131e-06 -0.000231065
0.00139684 5.1974e-05 4.53325e-07
5.1974e-05 0.000120824 8.16618e-09
4.53325e-07 8.16618e-09 4.58803e-05
0.00157179 5.69427e-05 2.37773e-06
5.69427e-05 0.000170223 1.79896e-06
2.37773e-06 1.79896e-06 9.13922e-05
0.000801619 1.28378e-05 -6.49059e-06
1.28378e-05 -1.68879e-05 -3.17965e-06
-6.49059e-06 -3.17965e-06 -5.7029e-05
0.000819884 3.12048e-05 -1.07488e-07
3.12048e-05 -7.38564e-05 8.95506e-08
-1.07488e-07 8.95506e-08 -0.000138587
0.000894056 4.69852e-05 2.42717e-06
4.69852e-05 -8.04298e-05 1.86443e-06
2.42717e-06 1.86443e-06 -0.00015628
0.00308483 -5.59623e-05 -2.93511e-05
-5.59623e-05 0.00117749 -2.9619e-06
-2.93511e-05 -2.9619e-06 0.00117422
0.000748071 -3.23351e-06 -1.39024e-07
-3.23351e-06 -3.00098e-05 -5.66682e-08
-1.39024e-07 -5.66682e-08 -6.62514e-05
0.000928898 2.54384e-05 2.29255e-06
2.54384e-05 1.10806e-05 1.42909e-06
2.29255e-06 1.42909e-06 -5.02199e-05
0.000686853 -2.19942e-05 4.46734e-06
-2.19942e-05 -5.61037e-05 2.94281e-06
4.46734e-06 2.94281e-06 -8.80254e-05
0.00282683 -5.46974e-05 -2.751e-07
-5.46974e-05 0.00103342 1.08605e-07
-2.751e-07 1.08605e-07 0.00103449
0.00275306 -5.18673e-05 2.19006e-05
-5.18673e-05 0.000978361 3.12857e-06
2.19006e-05 3.12857e-06 0.000983454
0.0014835 -1.52408e-05 -1.52273e-06
-1.52408e-05 7.54355e-05 -2.40655e-07
-1.52273e-06 -2.40655e-07 -2.20459e-06
0.00151749 -1.52181e-05 -3.04544e-07
-1.52181e-05 8.07718e-05 -2.66245e-07
-3.04544e-07 -2.66245e-07 4.12107e-06
0.00162823 -9.8311e-06 1.22723e-06
-9.8311e-06 0.00010942 -9.45965e-07
1.22723e-06 -9.45965e-07 3.37771e-05
0.00150881 1.29896e-05 -1.48881e-06
1.29896e-05 0.000100227 -3.11066e-08
-1.48881e-06 -3.11066e-08 1.94641e-05
0.00147258 2.29262e-06 -2.92287e-07
2.29262e-06 7.87426e-05 -2.41495e-07
-2.92287e-07 -2.41495e-07 -1.40958e-06
0.00152674 -8.2865e-07 1.83351e-07
-8.2865e-07 0.000108471 3.49965e-08
1.83351e-07 3.49965e-08 3.32718e-05
0.0013945 2.94639e-05 9.66334e-07
2.94639e-05 5.3636e-05 -6.18609e-07
9.66334e-07 -6.18609e-07 -2.5353e-05
0.00145142 2.58179e-05 2.73144e-07
2.58179e-05 8.89498e-05 1.28399e-07
2.73144e-07 1.28399e-07 1.13101e-05
0.00146822 1.99252e-05 -2.08634e-06
1.99252e-05 0.000116588 3.87867e-07
-2.08634e-06 3.87867e-07 4.28874e-05
0.00147023 2.61129e-05 2.238e-06
2.61129e-05 9.15207e-05 8.86553e-07
2.238e-06 8.86553e-07 1.60529e-05
0.00141426 2.4925e-05 9.71153e-08
2.4925e-05 8.93023e-05 6.05184e-08
9.71153e-08 6.05184e-08 1.60548e-05
0.000912779 1.77239e-05 -5.10161e-06
1.77239e-05 -0.000107444 7.16908e-07
-5.10161e-06 7.16908e-07 -0.000173211
0.00132266 3.4514e-06 2.33071e-06
3.4514e-06 4.37537e-05 3.56696e-08
2.33071e-06 3.56696e-08 -2.95453e-05
0.00113063 1.95137e-06 -2.87041e-08
1.95137e-06 7.41752e-06 4.27163e-08
-2.87041e-08 4.27163e-08 -5.61757e-05
0.000713659 3.16327e-06 -6.70302e-06
3.16327e-06 -8.17086e-05 2.12436e-06
-6.70302e-06 2.12436e-06 -0.00012143
0.00112482 -1.80338e-05 4.13501e-06
-1.80338e-05 1.41472e-05 -1.10983e-06
4.13501e-06 -1.10983e-06 -4.92261e-05
0.000715313 -1.13326e-06 -7.44318e-08
-1.13326e-06 -7.7303e-05 1.27256e-07
-7.44318e-08 1.27256e-07 -0.000117066
0.00358931 7.17782e-05 -3.36875e-05
7.17782e-05 0.00144501 1.39014e-06
-3.36875e-05 1.39014e-06 0.00143612
0.000764457 -1.3942e-05 8.75459e-06
-1.3942e-05 -4.97758e-05 -3.39439e-06
8.75459e-06 -3.39439e-06 -8.96448e-05
0.00245592 5.55321e-05 1.08825e-05
5.55321e-05 0.000873457 6.73274e-07
1.08825e-05 6.73274e-07 0.000858742
0.00127002 4.03862e-05 7.19823e-06
4.03862e-05 0.000274188 -1.35326e-06
7.19823e-06 -1.35326e-06 0.000254774
0.00163504 -1.65121e-05 -1.00537e-06
-1.65121e-05 0.000152586 -8.13834e-09
-1.00537e-06 -8.13834e-09 7.63433e-05
0.00143803 -4.22161e-06 -1.29088e-06
-4.22161e-06 6.03853e-05 1.02653e-07
-1.29088e-06 1.02653e-07 -1.44348e-05
0.0014738 -8.71211e-06 -1.11743e-07
-8.71211e-06 5.94156e-05 6.39644e-08
-1.11743e-07 6.39644e-08 -1.59187e-05
0.00129884 1.68734e-05 -2.38464e-06
1.68734e-05 2.4954e-05 1.53249e-07
-2.38464e-06 1.53249e-07 -4.90989e-05
0.00138074 8.78288e-06 4.15059e-07
8.78288e-06 2.68506e-05 -1.61695e-07
4.15059e-07 -1.61695e-07 -4.98084e-05
0.00151962 1.22832e-06 1.51081e-06
1.22832e-06 7.17436e-05 -8.73198e-07
1.51081e-06 -8.73198e-07 -4.03481e-06
0.000782266 2.6384e-05 -4.91518e-06
2.6384e-05 -0.000158441 -1.60548e-06
-4.91518e-06 -1.60548e-06 -0.000225348
0.00138641 4.10168e-05 -6.2184e-07
4.10168e-05 8.00919e-05 -1.40949e-07
-6.2184e-07 -1.40949e-07 4.15395e-06
0.00152439 3.79196e-05 2.72243e-06
3.79196e-05 0.00010724 -1.38766e-07
2.72243e-06 -1.38766e-07 2.70195e-05
0.000768664 2.03405e-05 -7.29823e-06
2.03405e-05 -4.42978e-05 -3.15799e-06
-7.29823e-06 -3.15799e-06 -8.63928e-05
0.000772406 3.14901e-05 -1.10445e-06
3.14901e-05 -0.000136834 -4.24445e-07
-1.10445e-06 -4.24445e-07 -0.00020349
0.00140435 5.26185e-05 2.74472e-06
5.26185e-05 0.000123852 1.17547e-06
2.74472e-06 1.17547e-06 4.88607e-05
0.00338942 -5.6736e-05 -3.43234e-05
-5.6736e-05 0.00133754 -2.73483e-06
-3.43234e-05 -2.73483e-06 0.00133123
0.000741756 1.04414e-05 -1.89562e-07
1.04414e-05 -4.19197e-05 1.0815e-07
-1.89562e-07 1.0815e-07 -8.22795e-05
0.000672352 2.84435e-05 2.74561e-06
2.84435e-05 -0.000149408 1.83777e-06
2.74561e-06 1.83777e-06 -0.000214926
0.00301676 -5.81568e-05 -4.12299e-07
-5.81568e-05 0.00114213 1.38254e-07
-4.12299e-07 1.38254e-07 0.00113942
0.000676654 -5.26621e-06 5.00335e-06
-5.26621e-06 -6.06409e-05 3.13432e-06
5.00335e-06 3.13432e-06 -9.71051e-05
0.00280482 -5.49656e-05 2.27922e-05
-5.49656e-05 0.0010198 2.97284e-06
2.27922e-05 2.97284e-06 0.00102155
0.0015137 -1.47924e-06 -1.44916e-06
-1.47924e-06 0.000101298 -3.2258e-07
-1.44916e-06 -3.2258e-07 2.27427e-05
0.001496 -1.43096e-05 2.67018e-07
-1.43096e-05 8.15866e-05 1.76886e-07
2.67018e-07 1.76886e-07 3.88867e-06
0.00149877 -1.48326e-05 5.26169e-07
-1.48326e-05 7.28833e-05 -4.79722e-07
5.26169e-07 -4.79722e-07 -3.37051e-06
0.00149226 1.6728e-06 -2.58592e-06
1.6728e-06 0.00011263 1.75215e-08
-2.58592e-06 1.75215e-08 3.61564e-05
0.0015161 1.29142e-05 2.56217e-07
1.29142e-05 0.000105823 -5.91006e-08
2.56217e-07 -5.91006e-08 2.51347e-05
0.00150219 8.1736e-06 1.44904e-06
8.1736e-06 9.24972e-05 -4.46154e-08
1.44904e-06 -4.46154e-08 1.18553e-05
0.0014504 2.67328e-05 1.76922e-06
2.67328e-05 8.77999e-05 -3.19231e-07
1.76922e-06 -3.19231e-07 1.02808e-05
0.00146201 2.04191e-05 4.78746e-07
2.04191e-05 0.00011307 -4.65149e-08
4.78746e-07 -4.65149e-08 3.95287e-05
0.000917233 1.29479e-05 -5.106e-06
1.29479e-05 -0.000111881 7.80642e-07
-5.106e-06 7.80642e-07 -0.000178718
0.00154361 2.69256e-05 2.69545e-06
2.69256e-05 0.000155564 1.67921e-07
2.69545e-06 1.67921e-07 8.31825e-05
0.00102677 1.93288e-05 -7.71714e-07
1.93288e-05 -4.96854e-05 1.71193e-07
-7.71714e-07 1.71193e-07 -0.000114602
0.000724277 7.35485e-06 -7.16325e-06
7.35485e-06 -8.02865e-05 1.89039e-06
-7.16325e-06 1.89039e-06 -0.000120917
0.00112649 1.07432e-06 4.14993e-06
1.07432e-06 5.1714e-06 -8.45647e-07
4.14993e-06 -8.45647e-07 -5.84003e-05
0.000716211 1.02249e-05 1.53821e-07
1.02249e-05 -8.03927e-05 4.22308e-08
1.53821e-07 4.22308e-08 -0.0001204
0.00366779 7.47745e-05 -3.5813e-05
7.47745e-05 0.00148591 8.98423e-07
-3.5813e-05 8.98423e-07 0.00147642
0.000721775 3.50689e-06 6.48212e-06
3.50689e-06 -7.47889e-05 -2.22027e-06
6.48212e-06 -2.22027e-06 -0.000114464
0.00362427 7.05033e-05 2.29975e-07
7.05033e-05 0.00146258 1.41593e-07
2.29975e-07 1.41593e-07 0.00145371
0.00141458 2.89222e-05 3.0656e-05
2.89222e-05 0.000348632 -2.05308e-06
3.0656e-05 -2.05308e-06 0.000328627
0.00159351 -1.12794e-05 -1.35519e-06
-1.12794e-05 0.000145532 -1.40857e-07
-1.35519e-06 -1.40857e-07 7.00408e-05
0.00151998 -1.65295e-05 3.86885e-07
-1.65295e-05 9.57915e-05 1.73109e-07
3.86885e-07 1.73109e-07 1.96666e-05
0.00132429 -3.83517e-06 -2.18952e-06
-3.83517e-06 3.57731e-05 -1.63507e-07
-2.18952e-06 -1.63507e-07 -3.73287e-05
0.00144223 -4.79955e-06 2.14494e-07
-4.79955e-06 6.22473e-05 -1.42043e-07
2.14494e-07 -1.42043e-07 -1.25702e-05
0.00137391 -8.65479e-06 1.52408e-06
-8.65479e-06 1.06667e-05 8.54063e-08
1.52408e-06 8.54063e-08 -6.44377e-05
0.00112938 1.49877e-05 -4.41467e-06
1.49877e-05 5.09068e-07 -9.70388e-07
-4.41467e-06 -9.70388e-07 -6.40945e-05
0.00133634 1.69533e-05 -3.91034e-08
1.69533e-05 4.24074e-05 1.03459e-07
-3.91034e-08 1.03459e-07 -3.17126e-05
0.00140451 8.3852e-06 1.56617e-06
8.3852e-06 4.02132e-05 -7.97722e-07
1.56617e-06 -7.97722e-07 -3.61952e-05
0.000743043 2.04199e-05 -7.84409e-06
2.04199e-05 -6.61219e-05 -3.03312e-06
-7.84409e-06 -3.03312e-06 -0.000108
0.000974126 2.92406e-05 -1.28726e-06
2.92406e-05 -6.40902e-05 -3.11688e-07
-1.28726e-06 -3.11688e-07 -0.000130336
0.00170619 4.55543e-05 2.28362e-06
4.55543e-05 0.000238465 4.33467e-07
2.28362e-06 4.33467e-07 0.000163754
0.0036432 -5.82573e-05 -3.76844e-05
-5.82573e-05 0.0014684 -2.37278e-06
-3.76844e-05 -2.37278e-06 0.00146019
0.000735386 1.87228e-05 -7.96545e-08
1.87228e-05 -5.77323e-05 1.51686e-07
-7.96545e-08 1.51686e-07 -0.000100011
0.000829029 3.29495e-05 2.61711e-06
3.29495e-05 -0.000112824 1.1946e-06
2.61711e-06 1.1946e-06 -0.000179731
0.00329842 -6.06172e-05 -7.16705e-07
-6.06172e-05 0.00129177 1.75594e-07
-7.16705e-07 1.75594e-07 0.00128581
0.00068567 7.95843e-06 5.66512e-06
7.95843e-06 -6.52028e-05 3.4516e-06
5.66512e-06 3.4516e-06 -0.000105776
0.00295244 -5.86106e-05 2.42654e-05
-5.86106e-05 0.00110836 2.8697e-06
2.42654e-05 2.8697e-06 0.00110636
0.00149839 2.91169e-06 -2.11369e-06
2.91169e-06 0.000118567 -5.57696e-07
-2.11369e-06 -5.57696e-07 4.36727e-05
0.00150391 -3.92711e-06 1.76339e-07
-3.92711e-06 9.81695e-05 1.51526e-07
1.76339e-07 1.51526e-07 1.98023e-05
0.00151475 -1.39587e-05 1.93682e-06
-1.39587e-05 9.09222e-05 6.05212e-07
1.93682e-06 6.05212e-07 1.31358e-05
0.000921661 -1.02728e-05 -5.69166e-06
-1.02728e-05 -0.000118709 2.00128e-07
-5.69166e-06 2.00128e-07 -0.00018718
0.00150699 8.50881e-06 4.95425e-07
8.50881e-06 0.000120574 1.06339e-07
4.95425e-07 1.06339e-07 4.39972e-05
0.00151127 1.30413e-05 2.11126e-06
1.30413e-05 0.000105566 -2.22717e-07
2.11126e-06 -2.22717e-07 2.49616e-05
0.00145838 2.05986e-05 2.93233e-06
2.05986e-05 0.000110851 -1.71011e-07
2.93233e-06 -1.71011e-07 3.74613e-05
0.000922745 1.30746e-05 -5.70938e-07
1.30746e-05 -0.000108486 1.45196e-07
-5.70938e-07 1.45196e-07 -0.000175053
0.000716817 1.12967e-05 -7.49042e-06
1.12967e-05 -9.06805e-05 1.35006e-06
-7.49042e-06 1.35006e-06 -0.000131694
0.00113785 2.18848e-05 3.48444e-06
2.18848e-05 6.61079e-06 -5.69703e-07
3.48444e-06 -5.69703e-07 -5.74791e-05
0.000726357 1.61401e-05 2.11764e-07
1.61401e-05 -7.90593e-05 6.46852e-08
2.11764e-07 6.46852e-08 -0.000119936
0.00375369 7.89114e-05 -3.77979e-05
7.89114e-05 0.00152902 4.27076e-07
-3.77979e-05 4.27076e-07 0.00151894
0.000720676 1.81957e-05 6.64916e-06
1.81957e-05 -7.83975e-05 -1.9839e-06
6.64916e-06 -1.9839e-06 -0.000118508
0.00370604 7.39269e-05 4.05181e-07
7.39269e-05 0.00150462 1.38398e-07
4.05181e-07 1.38398e-07 0.00149517
0.00367562 6.95751e-05 3.71846e-05
6.95751e-05 0.00148804 -1.08489e-06
3.71846e-05 -1.08489e-06 0.00147918
0.00137863 -8.42108e-06 -2.43362e-06
-8.42108e-06 6.38777e-05 -5.55346e-07
-2.43362e-06 -5.55346e-07 -1.01661e-05
0.00149507 -1.22399e-05 1.88001e-07
-1.22399e-05 9.58608e-05 1.7819e-07
1.88001e-07 1.7819e-07 2.02573e-05
0.00139328 -1.63045e-05 1.35558e-06
-1.63045e-05 3.31414e-05 2.85414e-07
1.35558e-06 2.85414e-07 -4.28275e-05
0.00112994 -4.94087e-06 -4.41443e-06
-4.94087e-06 -3.49131e-06 -1.11155e-06
-4.41443e-06 -1.11155e-06 -6.7671e-05
0.00134465 -4.16629e-06 1.31668e-07
-4.16629e-06 4.5413e-05 -1.03869e-07
1.31668e-07 -1.03869e-07 -2.77289e-05
0.00144482 -5.35014e-06 1.25288e-06
-5.35014e-06 6.33766e-05 -4.71356e-07
1.25288e-06 -4.71356e-07 -1.14447e-05
0.000721253 1.17868e-05 -7.88663e-06
1.17868e-05 -8.20455e-05 -2.79348e-06
-7.88663e-06 -2.79348e-06 -0.000122683
0.00114854 1.45479e-05 -9.25784e-08
1.45479e-05 1.00804e-05 1.20259e-07
-9.25784e-08 1.20259e-07 -5.4598e-05
0.00137254 1.69685e-05 2.56183e-06
1.69685e-05 5.92564e-05 1.29898e-07
2.56183e-06 1.29898e-07 -1.49368e-05
0.00378195 -6.10209e-05 -3.94327e-05
-6.10209e-05 0.0015397 -1.91965e-06
-3.94327e-05 -1.91965e-06 0.00153064
0.000729448 1.95953e-05 -1.03974e-08
1.95953e-05 -7.10566e-05 1.64012e-07
-1.03974e-08 1.64012e-07 -0.000113069
0.001179 3.24038e-05 3.16978e-06
3.24038e-05 3.68607e-05 1.12959e-06
3.16978e-06 1.12959e-06 -2.87831e-05
0.0035476 -6.12838e-05 -5.73591e-07
-6.12838e-05 0.00142089 1.79203e-07
-5.73591e-07 1.79203e-07 0.00141286
0.000706992 1.70635e-05 6.57563e-06
1.70635e-05 -6.90092e-05 3.4057e-06
6.57563e-06 3.4057e-06 -0.000111436
0.0031904 -6.2452e-05 2.71751e-05
-6.2452e-05 0.00123771 2.76263e-06
2.71751e-05 2.76263e-06 0.0012322
0.00116788 -3.71327e-06 -4.93618e-06
-3.71327e-06 6.08019e-06 -6.85726e-07
-4.93618e-06 -6.85726e-07 -6.01655e-05
0.00139428 -1.78281e-06 4.8309e-07
-1.78281e-06 6.58204e-05 -7.7796e-08
4.8309e-07 -7.7796e-08 -1.01897e-05
0.0014988 -7.32011e-06 2.02274e-06
-7.32011e-06 9.71056e-05 8.80472e-07
2.02274e-06 8.80472e-07 1.89363e-05
0.000705538 8.12735e-06 -7.80621e-06
8.12735e-06 -0.000101506 3.0198e-07
-7.80621e-06 3.0198e-07 -0.000142111
0.000940908 -2.70695e-06 -7.06178e-07
-2.70695e-06 -0.000109241 2.87618e-07
-7.06178e-07 2.87618e-07 -0.000177441
0.00152472 1.46925e-05 3.49872e-06
1.46925e-05 0.000130071 -2.24832e-07
3.49872e-06 -2.24832e-07 5.33712e-05
0.000928405 1.34416e-05 3.57015e-06
1.34416e-05 -0.000105153 -3.6203e-07
3.57015e-06 -3.6203e-07 -0.000171423
0.00072577 1.33528e-05 1.24505e-07
1.33528e-05 -8.58962e-05 1.61643e-07
1.24505e-07 1.61643e-07 -0.000127121
0.0038779 8.39147e-05 -3.96431e-05
8.39147e-05 0.00158874 -5.02752e-08
-3.96431e-05 -5.02752e-08 0.00157817
0.000729759 2.33725e-05 7.11141e-06
2.33725e-05 -7.71856e-05 -1.69304e-06
7.11141e-06 -1.69304e-06 -0.000118378
0.00380601 7.79081e-05 9.04122e-07
7.79081e-05 0.00155411 1.62848e-07
9.04122e-07 1.62848e-07 0.0015441
0.00373853 7.2145e-05 3.97535e-05
7.2145e-05 0.00152045 -6.25293e-07
3.97535e-05 -6.25293e-07 0.00151113
0.00115113 -9.36357e-06 -4.79422e-06
-9.36357e-06 3.40797e-06 -1.24181e-06
-4.79422e-06 -1.24181e-06 -6.16068e-05
0.00133084 -9.74645e-06 -6.31563e-08
-9.74645e-06 3.90361e-05 -5.94218e-08
-6.31563e-08 -5.94218e-08 -3.53384e-05
0.00140355 -1.32761e-05 1.6085e-06
-1.32761e-05 4.96474e-05 2.83669e-07
1.6085e-06 2.83669e-07 -2.60869e-05
0.00196625 -1.0885e-05 -2.22432e-05
-1.0885e-05 0.000540514 -1.87381e-06
-2.22432e-05 -1.87381e-06 0.000507149
0.0011526 -5.716e-06 1.02829e-07
-5.716e-06 7.64913e-06 9.10714e-09
1.02829e-07 9.10714e-09 -5.66435e-05
0.0013692 -4.70996e-06 2.43741e-06
-4.70996e-06 5.71063e-05 -1.3458e-08
2.43741e-06 -1.3458e-08 -1.60845e-05
0.00383666 -6.49388e-05 -4.03695e-05
-6.49388e-05 0.00156799 -1.41268e-06
-4.03695e-05 -1.41268e-06 0.00155867
0.000725791 1.24397e-05 -2.16775e-09
1.24397e-05 -7.94944e-05 1.43427e-07
-2.16775e-09 1.43427e-07 -0.000120195
0.00116883 1.33606e-05 4.56969e-06
1.33606e-05 2.02736e-05 1.27615e-06
4.56969e-06 1.27615e-06 -4.45272e-05
0.00371486 -6.24155e-05 -4.0901e-07
-6.24155e-05 0.00150644 1.77737e-07
-4.0901e-07 1.77737e-07 0.00149741
0.000716852 1.89942e-05 7.30352e-06
1.89942e-05 -7.56386e-05 3.24862e-06
7.30352e-06 3.24862e-06 -0.000117785
0.00346058 -6.46292e-05 3.18999e-05
-6.46292e-05 0.00137764 2.51518e-06
3.18999e-05 2.51518e-06 0.00136974
0.000749152 3.72634e-06 -1.05541e-05
3.72634e-06 -7.95702e-05 -1.07708e-06
-1.05541e-05 -1.07708e-06 -0.000120202
0.00105364 -6.26147e-06 9.29066e-08
-6.26147e-06 -5.15774e-05 2.37892e-07
9.29066e-08 2.37892e-07 -0.000118533
0.00127972 -6.20561e-06 3.29292e-06
-6.20561e-06 7.70605e-06 5.79944e-07
3.29292e-06 5.79944e-07 -6.93418e-05
0.00398917 4.92047e-06 -4.00729e-05
4.92047e-06 0.00163823 -5.36509e-07
-4.00729e-05 -5.36509e-07 0.00162994
0.000721254 6.71619e-06 5.70635e-08
6.71619e-06 -9.36705e-05 1.46256e-07
5.70635e-08 1.46256e-07 -0.000134469
0.000949587 4.54214e-06 4.01949e-06
4.54214e-06 -0.000104851 5.09718e-08
4.01949e-06 5.09718e-08 -0.0001728
0.000733965 1.97424e-05 7.61657e-06
1.97424e-05 -8.12115e-05 -1.00064e-06
7.61657e-06 -1.00064e-06 -0.000122891
0.00393084 8.18059e-05 1.73546e-06
8.18059e-05 0.00161414 2.24383e-07
1.73546e-06 2.24383e-07 0.00160377
0.00385325 7.52531e-05 4.31392e-05
7.52531e-05 0.00157664 -1.485e-07
4.31392e-05 -1.485e-07 0.00156684
0.00202419 -2.28516e-05 -2.58392e-05
-2.28516e-05 0.000565101 -1.73963e-06
-2.58392e-05 -1.73963e-06 0.000531274
0.00116245 -8.13957e-06 -6.33814e-08
-8.13957e-06 8.80353e-06 1.65179e-08
-6.33814e-08 1.65179e-08 -5.61272e-05
0.00128249 -1.09356e-05 2.40488e-06
-1.09356e-05 1.39421e-05 4.44329e-07
2.40488e-06 4.44329e-07 -6.07601e-05
0.00377829 -9.35275e-05 -1.00612e-05
-9.35275e-05 0.00154476 -6.23237e-07
-1.00612e-05 -6.23237e-07 0.00153293
0.000721038 -4.16636e-08 1.91849e-08
-4.16636e-08 -8.47419e-05 5.48413e-08
1.91849e-08 5.48413e-08 -0.000124682
0.00117733 -5.15721e-06 4.61165e-06
-5.15721e-06 1.96979e-05 1.0942e-06
4.61165e-06 1.0942e-06 -4.46451e-05
0.00379083 -6.49891e-05 -2.73596e-07
-6.49891e-05 0.00154522 1.71123e-07
-2.73596e-07 1.71123e-07 0.00153587
0.000724792 1.3507e-05 7.90972e-06
1.3507e-05 -7.96919e-05 2.99791e-06
7.90972e-06 2.99791e-06 -0.000120438
0.00364037 -6.49107e-05 3.55552e-05
-6.49107e-05 0.00146985 2.16006e-06
3.55552e-05 2.16006e-06 0.00146079
0.00146768 -8.93304e-06 -4.19888e-05
-8.93304e-06 0.000368298 -3.43363e-07
-4.19888e-05 -3.43363e-07 0.000348483
0.00137336 -4.06867e-06 -9.40364e-06
-4.06867e-06 0.000234304 2.8062e-07
-9.40364e-06 2.8062e-07 0.000197327
0.000948621 -4.93073e-06 5.00398e-06
-4.93073e-06 -0.00010467 9.39889e-07
5.00398e-06 9.39889e-07 -0.000172293
0.0039935 1.12731e-05 1.43904e-06
1.12731e-05 0.00164266 -3.05534e-07
1.43904e-06 -3.05534e-07 0.00163314
0.000729482 4.73243e-06 8.05493e-06
4.73243e-06 -8.93151e-05 -6.9212e-09
8.05493e-06 -6.9212e-09 -0.000130199
0.00397563 7.80551e-05 4.38173e-05
7.80551e-05 0.00163581 3.48748e-07
4.38173e-05 3.48748e-07 0.00162561
0.00138941 -4.27997e-05 -6.75248e-06
-4.27997e-05 0.000337187 -1.00972e-06
-6.75248e-06 -1.00972e-06 0.000314774
0.00136542 -5.79113e-06 -8.8512e-06
-5.79113e-06 0.000234506 1.59152e-07
-8.8512e-06 1.59152e-07 0.000197915
0.00117193 -9.44174e-06 4.60201e-06
-9.44174e-06 1.34203e-05 1.19012e-06
4.60201e-06 1.19012e-06 -5.15043e-05
0.00257944 -5.48923e-05 1.64033e-05
-5.48923e-05 0.000937275 -4.69628e-08
1.64033e-05 -4.69628e-08 0.000921367
0.000735422 4.97288e-06 8.13216e-06
4.97288e-06 -7.85646e-05 2.63914e-06
8.13216e-06 2.63914e-06 -0.000118358
0.00374641 -6.60089e-05 3.78501e-05
-6.60089e-05 0.00152335 1.71915e-06
3.78501e-05 1.71915e-06 0.00151392
0.00400475 -5.94416e-05 -1.03954e-06
-5.94416e-05 0.0016466 1.96241e-07
-1.03954e-06 1.96241e-07 0.00163789
0.00072094 2.13668e-07 8.21337e-06
2.13668e-07 -9.37282e-05 1.20673e-06
8.21337e-06 1.20673e-06 -0.000133959
0.00401753 3.49247e-05 4.33037e-05
3.49247e-05 0.00165512 -4.17806e-07
4.33037e-05 -4.17806e-07 0.00164487
0.00265469 -5.8573e-05 1.70903e-05
-5.8573e-05 0.000971917 -1.20026e-07
1.70903e-05 -1.20026e-07 0.000955806
0.000735518 2.18114e-07 8.05345e-06
2.18114e-07 -8.21987e-05 2.13888e-06
8.05345e-06 2.13888e-06 -0.00012202
0.00380413 -6.83609e-05 3.90598e-05
-6.83609e-05 0.00155207 1.22471e-06
3.90598e-05 1.22471e-06 0.00154258
0.00396637 -6.74346e-05 4.10934e-05
-6.74346e-05 0.0016285 1.09039e-07
4.10934e-05 1.09039e-07 0.0016194
0.0038821 -6.96098e-05 4.0167e-05
-6.96098e-05 0.00158924 6.82512e-07
4.0167e-05 6.82512e-07 0.00157983
