# vtk DataFile Version 2.0
Wound Healing Simulation
ASCII
DATASET UNSTRUCTURED_GRID
POINTS 3012 float
69.9759 18.75 4
67.2507 60.3285 4
69.976 18.75 2
73.0099 25.446 4
71.1327 20.9142 4
68.6801 16.6661 4
67.8275 19.9218 3.98918
67.2507 60.3286 2
71.1327 54.0858 4
68.6801 58.3339 4
65.6939 62.2254 4
65.3139 59.0062 3.99071
74.6784 42.3946 4
73.7221 47.2057 4
69.9759 18.75 0
73.0099 25.446 2
68.6801 16.6661 2
71.1327 20.9142 2
67.8278 19.9221 2
74.6792 32.6053 4
73.7222 27.7943 4
72.1454 23.1494 4
70.6166 26.2213 3.98808
68.8881 21.9554 3.98875
67.2507 14.6715 4
66.6388 17.9665 3.98995
65.8044 21.0173 3.98512
67.2507 60.3285 0
71.1327 54.0858 2
68.6801 58.3339 2
65.694 62.2255 2
65.314 59.0063 2
72.1454 51.8506 4
69.9759 56.25 4
68.8391 53.1153 3.9888
64.0165 64.0165 4
66.6126 57.1385 3.99016
63.8872 60.7704 3.99155
63.5059 57.7824 3.98614
60.3285 67.2507 4
74.6792 42.3947 2
73.7222 47.2057 2
74.9194 39.9526 4
74.2788 44.8158 4
72.17 42.0853 3.98731
73.0099 49.554 4
71.2518 46.5972 3.98815
73.0099 25.446 0
71.1327 20.9142 0
68.6801 16.6661 0
67.8275 19.9218 0.0108229
74.6792 32.6053 2
73.7222 27.7943 2
67.2508 14.6715 2
72.1455 23.1494 2
70.6168 26.2223 2
66.639 17.9666 2
68.8883 21.956 2
65.8046 21.0171 2
74.9197 35.0474 4
74.2794 30.1841 4
72.1867 32.9435 3.98774
71.2805 28.432 3.98803
69.8181 24.0587 3.98841
68.3541 26.9491 3.98263
66.7702 22.9274 3.98455
65.694 12.7746 4
65.3252 16.098 3.9909
64.7203 19.1846 3.9858
63.8993 22.0227 3.98295
71.1327 54.0858 0
65.6939 62.2254 0
68.6801 58.3339 0
65.3139 59.0062 0.00928695
72.1455 51.8506 2
69.9759 56.25 2
68.8393 53.1148 2
64.0165 64.0165 2
66.6128 57.1385 2
63.8873 60.7704 2
63.506 57.7826 2
62.2254 65.694 4
58.894 65.417 3.99254
69.7718 50.9895 3.98838
67.7861 55.1711 3.98954
66.658 52.2146 3.98468
62.3371 62.4311 3.99213
64.6678 56.0409 3.98628
62.2067 59.4155 3.98639
61.8325 56.6966 3.98429
58.3339 68.6801 4
60.3285 67.2508 2
73.7221 47.2057 0
74.6784 42.3946 0
74.9197 39.9526 2
74.2794 44.8159 2
72.17 42.0849 2
73.0099 49.554 2
71.2518 46.5964 2
75 37.5 4
72.407 39.8021 3.98676
71.7847 44.3522 3.98787
69.8101 41.7897 3.98128
70.5779 48.813 3.98824
68.9196 46.0159 3.98207
74.6792 32.6053 0
73.7222 27.7943 0
67.2507 14.6715 0
72.1454 23.1494 0
70.6166 26.2213 0.0119205
68.8881 21.9554 0.0112543
66.6388 17.9665 0.0100539
65.8044 21.0173 0.0148803
74.9197 35.0474 2
74.2794 30.1841 2
72.1866 32.9439 2
71.2805 28.433 2
65.694 12.7745 2
65.3253 16.0979 2
69.8183 24.0596 2
68.354 26.9491 2
64.7204 19.1844 2
66.7704 22.9273 2
63.8994 22.0226 2
72.4149 35.2242 3.987
71.806 30.6767 3.98812
69.8462 33.2682 3.98173
68.9731 29.0369 3.982
67.619 24.9081 3.9837
66.2066 27.6291 3.98046
64.0165 10.9835 4
64.7695 23.8198 3.98247
63.8913 14.3226 3.99161
63.5183 17.4352 3.98648
62.918 20.3054 3.98345
62.1097 22.9265 3.98191
60.6845 11.0943 3.99223
57.6128 11.4386 3.98739
72.1454 51.8506 0
69.9759 56.25 0
68.8391 53.1153 0.0112018
64.0165 64.0165 0
63.8872 60.7704 0.00845055
66.6126 57.1385 0.00983604
63.5059 57.7824 0.0138588
62.2255 65.694 2
58.8942 65.4171 2
69.772 50.9887 2
67.7863 55.1709 2
66.6582 52.2148 2
62.3373 62.4312 2
64.6679 56.0412 2
62.2068 59.4158 2
61.8327 56.6968 2
60.6691 63.9802 3.99233
57.0245 66.7374 3.99281
57.558 63.6984 3.98752
67.5159 50.1803 3.98369
65.7101 54.1808 3.98573
64.5519 51.3953 3.98219
60.7754 60.948 3.98696
62.8319 55.0822 3.9846
60.6653 58.1748 3.98424
60.3405 55.8048 3.9835
56.25 69.9759 4
58.3339 68.6801 2
60.3285 67.2507 0
58.9214 9.65275 3.99255
62.2254 9.30607 4
73.0099 49.554 0
74.2788 44.8158 0
71.2518 46.5972 0.0118525
72.17 42.0853 0.0126943
74.9194 39.9526 0
75 37.5 2
72.4069 39.8019 2
71.7847 44.3516 2
69.8099 41.7895 2
70.578 48.8121 2
68.9195 46.0156 2
72.4903 37.512 3.98659
70.0464 39.6573 3.98051
69.4371 43.9079 3.98175
67.6077 41.4993 3.97878
68.2739 48.1093 3.98277
66.722 45.4437 3.97995
74.9197 35.0474 0
74.2794 30.1841 0
72.1867 32.9435 0.0122645
71.2805 28.432 0.0119714
65.694 12.7746 0
65.3252 16.098 0.009103
69.8181 24.0587 0.0115881
68.3541 26.9491 0.0173653
66.7702 22.9274 0.0154461
64.7203 19.1846 0.0141956
63.8993 22.0227 0.0170546
72.4148 35.2245 2
71.806 30.6774 2
69.8461 33.2683 2
68.9729 29.0371 2
64.0165 10.9835 2
63.8913 14.3225 2
63.5184 17.435 2
67.619 24.908 2
66.2065 27.6289 2
62.9182 20.3053 2
64.7695 23.8196 2
62.1097 22.9265 2
60.6846 11.0943 2
57.6128 11.4383 2
70.0635 35.392 3.98117
69.4738 31.1489 3.98195
67.6662 33.5891 3.9792
66.7838 29.6188 3.97971
65.5368 25.6915 3.98153
64.1629 28.2465 3.97975
62.3425 12.6512 3.992
62.8747 24.6229 3.98166
62.2022 15.7733 3.98674
61.8224 18.6686 3.98432
61.2326 21.3229 3.98194
60.4466 23.7075 3.98173
59.2474 12.7693 3.98694
55.8744 10.2256 3.98832
56.4067 13.101 3.98455
69.7718 50.9895 0.0116236
62.2254 65.694 0
58.894 65.417 0.00746229
67.7861 55.1711 0.0104617
66.658 52.2146 0.0153179
62.3371 62.4311 0.00787357
62.2067 59.4155 0.0136068
64.6678 56.0409 0.0137162
61.8325 56.6966 0.0157149
60.6692 63.9803 2
57.0246 66.7375 2
57.558 63.6989 2
67.516 50.1804 2
65.7103 54.1811 2
64.552 51.3955 2
60.7755 60.9485 2
62.8321 55.0825 2
60.6655 58.1751 2
60.3407 55.8049 2
55.0699 67.9341 3.99312
59.2205 62.3748 3.98715
55.8038 64.9151 3.98813
56.3283 62.0991 3.98481
65.3458 49.4159 3.98124
63.7197 53.3048 3.98361
62.4613 50.666 3.9809
59.3378 59.5707 3.98487
61.0926 54.3272 3.98384
59.2986 57.0313 3.98281
59.2567 55.2041 3.98368
48.102 68.5818 3.98995
50.9479 69.9333 3.99367
54.0858 71.1327 4
56.25 69.976 2
58.3339 68.6801 0
57.0584 8.33278 3.99298
60.3285 7.74928 4
58.9215 9.65269 2
62.2255 9.30602 2
70.5779 48.813 0.0117616
71.7847 44.3522 0.0121318
68.9196 46.0159 0.0179304
69.8101 41.7897 0.0187151
72.407 39.8021 0.013238
75 37.5 0
72.4902 37.5121 2
70.0462 39.6571 2
69.437 43.9076 2
67.6075 41.4992 2
68.2739 48.1092 2
66.7218 45.4438 2
70.1344 37.5215 3.98043
67.8437 39.5131 3.97803
67.2349 43.4726 3.97939
65.5705 41.2132 3.97804
66.0819 47.4234 3.98055
64.669 44.8549 3.97919
72.4149 35.2242 0.0130011
71.806 30.6767 0.0118842
69.8462 33.2682 0.0182681
68.9731 29.0369 0.0180031
64.0165 10.9835 0
63.8913 14.3226 0.00839088
63.5183 17.4352 0.0135248
67.619 24.9081 0.016295
66.2066 27.6291 0.0195416
64.7695 23.8198 0.0175255
62.918 20.3054 0.0165479
62.1097 22.9265 0.0180945
60.6845 11.0943 0.00777355
57.6128 11.4386 0.0126142
70.0633 35.392 2
69.4736 31.1491 2
67.6659 33.5889 2
66.7835 29.6186 2
62.3426 12.6512 2
62.2022 15.773 2
61.8226 18.6685 2
65.5368 25.6913 2
64.1626 28.2464 2
61.2327 21.323 2
62.8746 24.6228 2
60.4465 23.7077 2
59.2474 12.7689 2
56.4067 13.1007 2
55.8744 10.2252 2
67.8804 35.5467 3.97878
67.2767 31.6194 3.97964
65.7127 33.924 3.97826
64.679 30.1852 3.97864
63.5557 26.4025 3.98071
62.2782 28.7657 3.98015
60.7771 14.213 3.9868
61.0672 25.32 3.98156
60.6183 17.1125 3.98489
60.2342 19.7969 3.98293
59.6795 22.2369 3.98091
59.0024 24.2981 3.98213
54.0373 9.12921 3.98911
57.9126 14.3188 3.98476
54.7875 12.0009 3.98499
55.3149 14.6318 3.98342
67.5159 50.1803 0.0163146
57.0245 66.7374 0.00718903
60.6691 63.9802 0.00767117
57.558 63.6984 0.0124839
65.7101 54.1808 0.0142699
64.5519 51.3953 0.0178072
60.7754 60.948 0.0130389
60.6653 58.1748 0.0157596
62.8319 55.0822 0.0154018
60.3405 55.8048 0.0164964
55.0701 67.9342 2
59.2205 62.3752 2
55.8038 64.9155 2
56.3283 62.0995 2
65.3458 49.4161 2
63.7199 53.3051 2
62.4614 50.6661 2
59.3379 59.5712 2
61.0928 54.3274 2
59.2988 57.0315 2
59.257 55.2042 2
53.0419 69.0017 3.99344
53.9658 66.0169 3.98876
57.8835 60.8816 3.98489
54.6839 63.2141 3.98518
55.214 60.6267 3.98358
63.2135 48.6724 3.98015
61.76 52.5916 3.98254
60.2982 50.0366 3.98024
58.0245 58.2773 3.98355
59.345 53.9682 3.98303
58.1387 55.8342 3.98145
50.1084 67.8599 3.98967
47.4621 66.5859 3.98744
46.0559 69.1612 3.99018
48.1021 68.5822 2
48.8022 70.7244 3.99387
50.948 69.9335 2
51.8506 72.1454 4
54.0858 71.1327 2
56.25 69.9759 0
55.1027 7.13747 3.99332
58.3339 6.31992 4
57.0586 8.33269 2
60.3286 7.74926 2
58.9214 9.65275 0.00744992
62.2254 9.30607 0
68.2739 48.1093 0.0172262
69.4371 43.9079 0.0182508
66.722 45.4437 0.0200544
67.6077 41.4993 0.0212172
70.0464 39.6573 0.0194901
72.4903 37.512 0.0134091
70.1342 37.5214 2
67.8435 39.513 2
67.2348 43.4726 2
65.5703 41.2131 2
66.0819 47.4236 2
64.6688 44.855 2
67.9398 37.522 3.97776
65.8009 39.372 3.97742
65.1916 43.0302 3.9785
63.7742 40.9344 3.97815
63.9836 46.7254 3.97961
62.8282 44.2251 3.97971
70.0635 35.392 0.0188274
69.4738 31.1489 0.0180506
67.6662 33.5891 0.0208042
66.7838 29.6188 0.0202902
62.3425 12.6512 0.00800332
62.2022 15.7733 0.0132571
61.8224 18.6686 0.015683
65.5368 25.6915 0.0184655
64.1629 28.2465 0.0202508
62.8747 24.6229 0.0183445
61.2326 21.3229 0.0180572
60.4466 23.7075 0.0182694
59.2474 12.7693 0.0130567
56.4067 13.101 0.0154524
55.8744 10.2256 0.0116815
67.8802 35.5465 2
67.2764 31.6193 2
65.7124 33.9237 2
64.6786 30.185 2
60.7772 14.2127 2
60.6185 17.1122 2
60.2344 19.7969 2
63.5555 26.4024 2
62.2778 28.7656 2
59.6795 22.2371 2
61.067 25.3201 2
59.0022 24.2984 2
57.9126 14.3185 2
55.3149 14.6316 2
54.0374 9.1288 2
54.7874 12.0005 2
65.8906 35.6653 3.97787
65.2021 32.1491 3.97845
64.3024 34.246 3.97774
62.6155 30.626 3.97864
61.6733 27.0573 3.98051
60.8747 29.1261 3.98183
59.314 15.655 3.9849
59.3571 25.7761 3.98275
59.131 18.3374 3.98396
58.7544 20.8322 3.98152
58.306 23.0689 3.98004
57.9941 24.6416 3.98305
52.112 8.14799 3.98964
53.0581 11.0074 3.98588
56.6796 15.7271 3.98401
53.8111 13.6677 3.9832
54.3792 15.9829 3.98331
55.0699 67.9341 0.00687618
65.3458 49.4159 0.0187645
55.8038 64.9151 0.0118715
59.2205 62.3748 0.0128479
56.3283 62.0991 0.015195
63.7197 53.3048 0.0163859
62.4613 50.666 0.0191016
59.3378 59.5707 0.0151335
59.2986 57.0313 0.0171919
61.0926 54.3272 0.0161618
59.2567 55.2041 0.016316
53.0421 69.0018 2
53.9659 66.0173 2
57.8835 60.882 2
54.6839 63.2145 2
55.214 60.6271 2
63.2135 48.6726 2
61.7602 52.5918 2
60.2982 50.0367 2
58.0247 58.2777 2
59.3453 53.9682 2
58.1389 55.8343 2
52.0693 67.0032 3.98929
52.9526 64.224 3.98573
56.6525 59.5022 3.98396
53.6822 61.6304 3.98384
54.2636 59.3333 3.98296
61.0183 47.8953 3.97942
59.7324 52.1249 3.98223
58.0548 49.6372 3.98064
56.7851 57.0069 3.98177
57.1382 54.1457 3.98103
50.1085 67.8603 2
49.3358 65.926 3.98696
47.4622 66.5863 2
46.8913 64.7424 3.98557
45.5574 67.1033 3.98767
43.9731 69.5939 3.99041
46.056 69.1616 2
46.609 71.3688 3.99406
48.102 68.5818 0.0100468
48.8023 70.7246 2
49.554 73.0099 4
50.9479 69.9333 0.00632831
51.8506 72.1455 2
54.0858 71.1327 0
53.0637 6.0691 3.9936
55.1028 7.13735 2
56.25 5.02411 4
58.3339 6.3199 2
57.0584 8.33278 0.00702263
60.3285 7.74928 0
66.0819 47.4234 0.019452
67.2349 43.4726 0.020606
64.669 44.8549 0.0208051
65.5705 41.2132 0.0219603
67.8437 39.5131 0.021971
70.1344 37.5215 0.0195748
67.9395 37.5218 2
65.8007 39.3719 2
65.1914 43.0303 2
63.7739 40.9343 2
63.9835 46.7255 2
62.828 44.2251 2
65.9036 37.5019 3.97686
63.9175 39.2695 3.97738
63.3487 42.5568 3.97845
62.4535 40.7036 3.9777
61.9904 45.9305 3.97956
61.4764 43.6939 3.9816
67.8804 35.5467 0.0212238
67.2767 31.6194 0.0203616
65.7127 33.924 0.021739
64.679 30.1852 0.0213618
60.7771 14.213 0.0132009
60.6183 17.1125 0.0151109
60.2342 19.7969 0.0170666
63.5557 26.4025 0.0192876
62.2782 28.7657 0.019851
61.0672 25.32 0.0184425
59.6795 22.2369 0.0190925
59.0024 24.2981 0.017872
57.9126 14.3188 0.0152436
55.3149 14.6318 0.0165844
54.0373 9.12921 0.0108878
54.7875 12.0009 0.0150108
65.8903 35.665 2
65.2017 32.1488 2
64.302 34.2457 2
62.615 30.6258 2
59.314 15.6546 2
59.1312 18.3372 2
58.7545 20.8323 2
61.6729 27.0573 2
60.8742 29.126 2
58.3059 23.0693 2
59.3568 25.7763 2
57.9938 24.642 2
56.6796 15.7269 2
54.3792 15.9827 2
53.8111 13.6674 2
52.112 8.14757 2
53.0581 11.0069 2
64.1091 35.6304 3.9773
62.9518 33.0397 3.97751
60.6403 30.599 3.97912
59.5997 27.8925 3.98148
57.9437 16.967 3.98422
57.7687 25.7033 3.98414
57.7241 19.4559 3.98294
57.3876 21.817 3.97973
57.2101 23.9233 3.98001
50.1122 7.28035 3.98994
51.2323 10.1161 3.9866
52.1729 12.7851 3.98404
55.541 16.9555 3.98383
52.9798 15.2492 3.98206
53.7615 16.9644 3.98351
53.0419 69.0017 0.00656032
53.9658 66.0169 0.0112428
63.2135 48.6724 0.019853
54.6839 63.2141 0.0148206
57.8835 60.8816 0.0151055
55.214 60.6267 0.0164246
61.76 52.5916 0.0174575
60.2982 50.0366 0.0197574
58.0245 58.2773 0.0164453
58.1387 55.8342 0.0185544
59.345 53.9682 0.0169667
52.0694 67.0035 2
52.9525 64.2244 2
56.6526 59.5026 2
53.6822 61.6308 2
54.2637 59.3337 2
61.0182 47.8954 2
59.7326 52.1249 2
58.0547 49.6371 2
56.7853 57.0072 2
57.1385 54.1457 2
51.1668 65.1329 3.98634
52.0461 62.545 3.98404
55.4857 58.2648 3.98348
52.8367 60.1447 3.98311
53.6443 58.4841 3.98304
58.3385 46.8654 3.98163
57.5857 51.809 3.98077
56.2794 49.5757 3.98216
55.4824 55.8148 3.98021
55.3768 53.4063 3.97829
50.1084 67.8599 0.0103307
49.3358 65.9265 2
48.6172 64.1284 3.98512
47.4621 66.5859 0.0125562
45.5574 67.1038 2
46.8913 64.7428 2
46.3809 63.0603 3.98414
45.1315 65.2041 3.98588
43.6307 67.4745 3.98786
41.8605 69.8815 3.9905
43.9732 69.5943 2
44.3765 71.8638 3.99422
46.0559 69.1612 0.0098163
46.6091 71.3691 2
47.2057 73.7222 4
48.8022 70.7244 0.00612851
49.554 73.0099 2
51.8506 72.1454 0
50.9535 5.12965 3.99377
53.0639 6.06894 2
54.0858 3.86728 4
55.1027 7.13747 0.00668356
56.25 5.02406 2
58.3339 6.31992 0
63.9836 46.7254 0.0203896
65.1916 43.0302 0.0215009
62.8282 44.2251 0.020289
63.7742 40.9344 0.0218532
65.8009 39.372 0.0225826
67.9398 37.522 0.0222384
65.9032 37.5017 2
63.9173 39.2693 2
63.3484 42.5568 2
62.4532 40.7036 2
61.9903 45.9306 2
61.4761 43.6938 2
63.9775 37.4574 3.97693
62.1816 39.3588 3.97744
61.2441 41.9675 3.97877
60.2783 44.7827 3.98197
65.8906 35.6653 0.0221346
65.2021 32.1491 0.021546
64.3024 34.246 0.0222562
62.6155 30.626 0.0213591
59.314 15.655 0.0151039
59.131 18.3374 0.0160358
58.7544 20.8322 0.0184827
61.6733 27.0573 0.0194858
60.8747 29.1261 0.0181735
59.3571 25.7761 0.0172499
58.306 23.0689 0.0199626
57.9941 24.6416 0.0169487
56.6796 15.7271 0.0159919
54.3792 15.9829 0.0166888
53.8111 13.6677 0.0168007
52.112 8.14799 0.0103557
53.0581 11.0074 0.0141194
64.1087 35.6301 2
62.9513 33.0394 2
60.6396 30.5989 2
57.9439 16.9667 2
57.7244 19.4558 2
57.3877 21.8174 2
59.5992 27.8926 2
57.2099 23.9238 2
57.7683 25.7037 2
50.1122 7.27996 2
55.5411 16.9554 2
53.7615 16.9642 2
52.9798 15.249 2
52.1729 12.7847 2
51.2323 10.1156 2
62.2145 35.356 3.97696
60.32 32.7361 3.97696
58.654 30.0586 3.97994
57.3255 27.3589 3.98355
56.6412 18.1382 3.98386
56.3214 25.0787 3.98136
56.3683 20.5005 3.98119
56.1288 22.8452 3.97724
48.056 6.5237 3.99016
49.3242 9.32434 3.9873
50.4334 11.9836 3.98451
51.3794 14.4851 3.98232
54.419 17.904 3.98347
52.3641 17.0211 3.98218
52.0693 67.0032 0.0107064
52.9526 64.224 0.0142719
61.0183 47.8953 0.0205845
53.6822 61.6304 0.0161632
56.6525 59.5022 0.0160422
54.2636 59.3333 0.0170384
59.7324 52.1249 0.0177734
58.0548 49.6372 0.019364
56.7851 57.0069 0.0182271
57.1382 54.1457 0.0189735
51.1668 65.1333 2
52.0461 62.5454 2
55.4859 58.2652 2
52.8367 60.1451 2
53.6444 58.4846 2
58.3383 46.8652 2
57.5859 51.8089 2
56.2794 49.5755 2
55.4827 55.8151 2
55.377 53.4063 2
50.3456 63.3864 3.98452
51.245 60.9425 3.98268
54.2254 57.28 3.98252
52.316 58.6452 3.98233
56.7591 44.2002 3.98249
55.5313 47.9155 3.98117
55.0972 51.4122 3.97824
54.0181 54.5673 3.97771
49.3358 65.926 0.013039
48.6171 64.1289 2
47.9614 62.481 3.98375
45.5574 67.1033 0.0123253
46.8913 64.7424 0.0144276
43.6308 67.475 2
46.3808 63.0607 2
45.1315 65.2046 2
45.9867 61.593 3.98296
44.7661 63.4617 3.98456
43.3555 65.5141 3.98595
41.663 67.6939 3.98802
39.7023 70.0287 3.99047
41.8606 69.8819 2
42.111 72.2086 3.99421
43.9731 69.5939 0.00958614
44.3766 71.864 2
44.8159 74.2794 4
46.609 71.3688 0.00593618
47.2057 73.7222 2
49.554 73.0099 0
48.7841 4.32079 3.99398
50.9536 5.12947 2
51.8506 2.85458 4
53.0637 6.0691 0.00639668
54.0858 3.86728 2
56.25 5.02411 0
61.9904 45.9305 0.0204365
63.3487 42.5568 0.021554
61.4764 43.6939 0.0184028
62.4535 40.7036 0.0223008
63.9175 39.2695 0.0226162
65.9036 37.5019 0.0231443
63.9771 37.4571 2
62.1813 39.3586 2
61.2438 41.9674 2
60.2781 44.7826 2
62.0204 37.4449 3.97737
60.2806 39.8536 3.97755
59.0292 42.9312 3.98049
64.1091 35.6304 0.0226953
62.9518 33.0397 0.0224922
60.6403 30.599 0.0208813
57.9437 16.967 0.0157758
57.7241 19.4559 0.0170645
57.3876 21.817 0.0202679
59.5997 27.8925 0.0185224
57.7687 25.7033 0.0158627
57.2101 23.9233 0.0199865
55.541 16.9555 0.0161705
53.7615 16.9644 0.0164921
52.9798 15.2492 0.0179358
50.1122 7.28035 0.0100562
52.1729 12.7851 0.0159605
51.2323 10.1161 0.0134018
62.214 35.3558 2
60.3193 32.7359 2
58.6531 30.0586 2
56.6415 18.1379 2
56.3687 20.5005 2
56.1288 22.8459 2
57.3248 27.3592 2
56.321 25.0794 2
48.056 6.52335 2
49.3241 9.32391 2
54.4192 17.9038 2
52.3641 17.0209 2
51.3794 14.4845 2
50.4334 11.9831 2
59.9285 35.115 3.97708
58.0324 32.2561 3.9775
56.5847 29.3176 3.98096
55.4842 26.5763 3.98451
55.3482 19.1718 3.98315
54.955 24.0328 3.97634
55.0154 21.5409 3.97971
45.962 5.87896 3.99042
43.3735 7.46797 3.98844
47.3546 8.61843 3.98766
48.5999 11.2852 3.9852
49.7149 13.7322 3.98321
50.6357 16.1194 3.98094
53.1293 18.6441 3.98247
51.3062 18.0348 3.98309
51.1668 65.1329 0.0136626
52.0461 62.545 0.0159622
58.3385 46.8654 0.0183715
52.8367 60.1447 0.0168921
55.4857 58.2648 0.0165187
53.6443 58.4841 0.0169645
57.5857 51.809 0.0192263
56.2794 49.5757 0.017837
55.4824 55.8148 0.0197852
55.3768 53.4063 0.0217144
50.3455 63.3868 2
51.245 60.9429 2
54.2257 57.2805 2
52.316 58.6457 2
56.7588 44.1999 2
55.5311 47.9153 2
55.0973 51.4121 2
54.0186 54.5675 2
49.5917 61.7505 3.98318
55.6939 41.7218 3.97793
50.5689 59.3362 3.98144
52.1916 56.5035 3.98084
54.2361 45.581 3.98223
53.3809 49.3499 3.97888
52.6891 52.8742 3.97654
48.6172 64.1284 0.0148831
47.9613 62.4814 2
47.3291 61.0156 3.98264
43.6307 67.4745 0.0121359
45.1315 65.2041 0.0141209
46.3809 63.0603 0.0158561
41.663 67.6944 2
43.3555 65.5146 2
45.9866 61.5934 2
44.766 63.4623 2
45.7659 60.6371 3.98206
44.4823 61.8429 3.98328
43.1452 63.7346 3.98465
41.5451 65.6525 3.98621
39.6323 67.7739 3.98813
37.5259 70.0541 3.9905
39.7023 70.0291 2
39.8179 72.4057 3.99412
41.8605 69.8815 0.00949883
42.1111 72.2089 2
42.3947 74.6792 4
44.3765 71.8638 0.00577632
44.8159 74.2794 2
47.2057 73.7222 0
43.8515 5.35602 3.99067
46.5701 3.64546 3.99415
48.7842 4.32061 2
49.554 1.99015 4
50.9535 5.12965 0.00622881
51.8506 2.85453 2
54.0858 3.86728 0
60.2783 44.7827 0.0180325
61.2441 41.9675 0.0212288
62.1816 39.3588 0.0225646
63.9775 37.4574 0.0230724
62.0199 37.4447 2
60.2802 39.8533 2
59.0289 42.931 2
59.8008 37.5676 3.97835
58.0455 40.6674 3.97753
55.1785 39.7291 3.97853
62.2145 35.356 0.0230411
60.32 32.7361 0.0230409
58.654 30.0586 0.0200592
56.6412 18.1382 0.0161371
56.3683 20.5005 0.0188097
56.1288 22.8452 0.0227595
57.3255 27.3589 0.016446
56.3214 25.0787 0.0186365
54.419 17.904 0.0165251
52.3641 17.0211 0.0178181
51.3794 14.4851 0.0176827
48.056 6.5237 0.00983535
49.3242 9.32434 0.0126967
50.4334 11.9836 0.0154891
59.9279 35.1148 2
45.962 5.8786 2
43.3735 7.46764 2
58.0314 32.2559 2
56.5837 29.3176 2
55.3486 19.1716 2
55.0157 21.541 2
54.9548 24.0339 2
55.4835 26.5771 2
47.3546 8.61806 2
48.5999 11.2849 2
53.1295 18.6439 2
51.3063 18.0345 2
50.6358 16.1189 2
49.7148 13.7318 2
57.446 34.7529 3.978
55.7755 31.4989 3.97806
54.5588 28.3794 3.98635
53.8051 25.4744 3.97926
53.9761 20.1193 3.98295
53.5989 22.6858 3.97529
41.3986 7.07318 3.98859
45.3594 7.98996 3.98807
42.8651 9.40864 3.98671
46.6661 10.6462 3.98565
47.7456 13.0927 3.98341
48.933 15.3897 3.98218
50.0087 17.6886 3.97937
51.6575 19.3128 3.98439
50.3456 63.3864 0.0154827
51.245 60.9425 0.0173182
56.7591 44.2002 0.0175086
55.5313 47.9155 0.0188345
52.316 58.6452 0.0176738
54.2254 57.28 0.0174829
55.0972 51.4122 0.0217641
54.0181 54.5673 0.0222854
49.5916 61.7509 2
55.6935 41.7208 2
50.5688 59.3366 2
52.192 56.5041 2
54.2359 45.5808 2
53.3808 49.3494 2
52.6895 52.873 2
48.8496 60.2081 3.98224
52.6029 42.6568 3.97677
49.7928 57.6363 3.98131
50.6078 54.4384 3.97758
51.8774 47.2877 3.97947
51.2481 50.9676 3.97484
48.2954 43.742 3.97403
47.9614 62.481 0.0162526
47.329 61.016 2
46.619 59.802 3.98199
41.663 67.6939 0.0119777
43.3555 65.5141 0.014054
44.7661 63.4617 0.0154371
45.9867 61.593 0.017043
39.6323 67.7744 2
41.5451 65.653 2
45.7658 60.6374 2
43.1451 63.735 2
44.4822 61.8433 2
44.623 60.2996 3.98212
42.9494 62.092 3.98371
41.5986 63.8286 3.98471
39.6468 65.6214 3.98647
37.563 67.7567 3.98798
31.6975 65.14 3.98623
33.3922 67.4942 3.98796
35.3333 69.9642 3.99047
37.5259 70.0546 2
37.5096 72.4603 3.99414
39.7023 70.0287 0.00952913
39.8179 72.406 2
39.9526 74.9197 4
42.111 72.2086 0.00578557
42.3947 74.6792 2
44.8159 74.2794 0
41.7361 4.96513 3.99089
43.8515 5.35567 2
44.3255 3.10879 3.9943
46.5703 3.64525 2
47.2057 1.27793 4
48.7841 4.32079 0.00602459
49.554 1.99013 2
51.8506 2.85458 0
59.0292 42.9312 0.0195138
60.2806 39.8536 0.0224523
62.0204 37.4449 0.0226277
59.8002 37.5674 2
58.0451 40.6671 2
55.1774 39.7284 2
56.886 37.8984 3.97956
49.7597 41.3084 3.97759
53.224 39.3129 3.98226
39.442 6.79675 3.98882
59.9285 35.115 0.0229223
58.0324 32.2561 0.0225016
56.5847 29.3176 0.0190393
55.3482 19.1718 0.016847
55.0154 21.5409 0.0202914
54.955 24.0328 0.0236593
55.4842 26.5763 0.0154866
53.1293 18.6441 0.0175273
51.3062 18.0348 0.0169148
50.6357 16.1194 0.0190615
45.962 5.87896 0.00958392
49.7149 13.7322 0.0167932
47.3546 8.61843 0.0123427
48.5999 11.2852 0.0148033
43.3735 7.46797 0.0115627
57.4452 34.7528 2
41.3986 7.07277 2
45.3594 7.98963 2
42.8651 9.40834 2
55.7742 31.4986 2
54.5575 28.3801 2
53.9765 20.1191 2
53.5992 22.6859 2
53.8045 25.4759 2
46.6661 10.646 2
47.7455 13.0923 2
51.6576 19.3124 2
50.0088 17.6882 2
48.9329 15.3894 2
54.9538 33.9574 3.97901
53.5551 30.4589 3.98187
52.6362 27.1769 3.98312
52.17 24.0649 3.97638
52.4015 21.0527 3.98078
41.0132 9.04189 3.98692
44.7233 9.98891 3.98625
42.4678 10.8946 3.98508
46.005 12.7206 3.98408
47.6824 14.5743 3.98276
48.1154 16.9769 3.98064
49.8214 19.587 3.97803
49.5917 61.7505 0.0168237
50.5689 59.3362 0.0185619
55.6939 41.7218 0.0220748
54.2361 45.581 0.0177707
53.3809 49.3499 0.0211183
52.1916 56.5035 0.0191554
52.6891 52.8742 0.0234633
48.8495 60.2085 2
52.6029 42.6557 2
49.7929 57.6367 2
50.6083 54.4395 2
51.8769 47.2876 2
51.248 50.9654 2
48.287 43.7431 2
47.9883 58.7501 3.98153
50.1946 45.2857 3.97798
48.6047 55.9278 3.98136
49.1511 52.6156 3.97817
49.7209 49.0676 3.97532
46.1724 39.902 3.91453
46.5507 42.7457 3.97905
46.6057 45.7581 3.98284
44.0165 41.2296 3.96249
42.1094 41.9892 3.95969
47.3291 61.0156 0.0173575
46.6189 59.8022 2
45.4687 58.7982 3.98103
39.6323 67.7739 0.011868
41.5451 65.6525 0.0137896
43.1452 63.7346 0.0153474
44.4823 61.8429 0.0167227
45.7659 60.6371 0.0179437
41.5985 63.829 2
37.563 67.7572 2
39.6468 65.6219 2
44.623 60.2999 2
42.9494 62.0924 2
41.7524 62.5033 3.98388
42.4804 59.9919 3.9824
39.8922 63.5643 3.9845
37.6418 65.5207 3.98618
35.4633 67.6661 3.98804
33.5756 65.3537 3.98621
31.9598 63.3127 3.9847
29.8838 64.7305 3.986
31.6976 65.1405 2
31.377 67.2037 3.98798
33.3922 67.4947 2
33.1562 69.7576 3.99044
35.3333 69.9647 2
35.195 72.3748 3.99411
37.5259 70.0541 0.00949828
37.5096 72.4606 2
37.5 75 4
39.8179 72.4057 0.00588191
39.9526 74.9197 2
42.3947 74.6792 0
39.6237 4.71236 3.99098
41.7362 4.96474 2
42.062 2.71642 3.99448
43.8515 5.35602 0.00932879
44.3256 3.10857 2
44.8158 0.721173 4
46.5701 3.64546 0.00584676
47.2057 1.27779 2
49.554 1.99015 0
58.0455 40.6674 0.0224685
59.8008 37.5676 0.0216458
55.1785 39.7291 0.0214729
49.7586 41.3087 2
56.8852 37.8983 2
53.2223 39.3119 2
54.0787 36.6217 3.97838
47.6855 40.4507 3.99028
50.7158 38.4881 3.98065
37.5158 6.66783 3.98882
39.442 6.79632 2
39.2109 8.6844 3.98714
35.9413 8.48432 3.98717
57.446 34.7529 0.022
55.7755 31.4989 0.021935
54.5588 28.3794 0.0136528
53.9761 20.1193 0.0170516
53.5989 22.6858 0.0247145
53.8051 25.4744 0.0207383
51.6575 19.3128 0.0156072
50.0087 17.6886 0.0206263
48.933 15.3897 0.0178179
45.3594 7.98996 0.0119294
47.7456 13.0927 0.0165893
46.6661 10.6462 0.01435
41.3986 7.07318 0.0114136
42.8651 9.40864 0.0132922
54.9528 33.957 2
41.0132 9.04144 2
44.7232 9.98866 2
42.4678 10.8943 2
53.5533 30.4578 2
52.6351 27.1797 2
52.4019 21.0521 2
52.17 24.0668 2
46.0049 12.7203 2
47.6824 14.574 2
49.8216 19.5869 2
48.1154 16.9767 2
52.5027 32.8521 3.9802
51.4067 29.1336 3.98373
50.8304 25.7028 3.97306
49.9508 22.1655 3.97906
40.5686 11.598 3.98453
43.8577 11.9096 3.98452
45.8034 15.4097 3.98239
47.5071 19.21 3.97927
46.5022 37.5021 3.91549
48.8496 60.2081 0.0177551
49.7928 57.6363 0.0186865
52.6029 42.6568 0.0232313
51.8774 47.2877 0.0205304
51.2481 50.9676 0.025164
50.6078 54.4384 0.0224151
48.2954 43.742 0.0259712
47.9882 58.7505 2
50.195 45.286 2
48.6048 55.9283 2
49.1513 52.617 2
49.7199 49.0649 2
46.1776 39.9051 2
46.5558 42.7479 2
46.5989 45.7586 2
44.0225 41.2293 2
42.1191 41.9936 2
46.8409 57.3528 3.98262
44.7843 39.4976 3.95786
42.4827 40.8652 3.97025
48.1668 47.2647 3.98309
47.1801 54.2611 3.98162
47.6219 50.7769 3.97764
44.8828 47.3491 3.99143
45.2333 42.0137 3.92324
45.0176 44.6481 3.96476
42.8125 42.7346 3.9558
40.9622 42.3547 3.95918
46.619 59.802 0.0180074
45.4685 58.7984 2
43.8764 57.7225 3.981
37.563 67.7567 0.0120242
39.6468 65.6214 0.0135324
41.5986 63.8286 0.0152928
42.9494 62.092 0.0162887
44.623 60.2996 0.0178758
35.4633 67.6666 2
41.7523 62.5037 2
39.8921 63.5647 2
37.6418 65.5212 2
42.4804 59.9923 2
40.6221 61.6618 3.9835
40.444 58.2226 3.98059
37.8359 63.226 3.98495
35.5728 65.443 3.98622
33.5756 65.3541 2
31.9598 63.3131 2
33.6291 63.3528 3.98481
30.3788 62.8708 3.98447
32.1231 62.0189 3.9836
26.8677 61.5133 3.98327
28.0625 64.1581 3.98565
29.8838 64.731 2
29.4067 66.767 3.98782
31.6975 65.14 0.0137701
31.377 67.2041 2
31.0135 69.4223 3.9903
33.3922 67.4942 0.0120401
33.1561 69.758 2
32.8921 72.149 3.99412
35.3333 69.9642 0.00953146
35.195 72.375 2
35.0474 74.9194 4
37.5096 72.4603 0.00586041
37.5 75 2
39.9526 74.9197 0
35.6204 6.71893 3.98883
37.5229 4.61183 3.99105
39.6237 4.71198 2
39.7885 2.47292 3.99454
41.7361 4.96513 0.00910522
42.062 2.71617 2
42.3946 0.32156 4
44.3255 3.10879 0.00569735
44.8159 0.72056 2
47.2057 1.27793 0
49.7597 41.3084 0.0224098
56.886 37.8984 0.0204377
53.224 39.3129 0.0177369
47.6851 40.4477 2
50.7133 38.4879 2
54.0778 36.6216 2
51.5002 35.5658 3.96846
48.3476 37.7608 3.99012
46.1696 35.103 3.91565
44.0097 33.773 3.96118
42.0985 33.0267 3.96254
37.4576 8.52612 3.98719
37.5158 6.66742 2
39.442 6.79675 0.0111835
39.2108 8.68394 2
38.9758 10.1165 3.98628
35.8978 9.7635 3.98617
34.1497 8.81377 3.98689
35.9413 8.48384 2
54.9538 33.9574 0.0209857
53.5551 30.4589 0.0181336
52.6362 27.1769 0.0168779
52.4015 21.0527 0.0192168
52.17 24.0649 0.0236153
49.8214 19.587 0.0219747
48.1154 16.9769 0.0193573
47.6824 14.5743 0.0172366
44.7233 9.98891 0.0137522
46.005 12.7206 0.0159189
41.0132 9.04189 0.0130838
42.4678 10.8946 0.0149191
52.5015 32.8511 2
40.5686 11.5976 2
43.8575 11.9094 2
51.4049 29.1356 2
50.8301 25.7048 2
49.9512 22.1655 2
45.8033 15.4094 2
47.5071 19.2097 2
50.115 31.3873 3.97255
49.3463 27.4602 3.97324
49.4327 24.3792 3.9797
47.1934 21.9121 3.97773
38.3013 12.7229 3.98369
42.1009 14.2935 3.98246
44.8025 18.4458 3.98032
45.0584 37.5023 3.95209
46.5136 37.5035 2
47.9883 58.7501 0.0184706
48.6047 55.9278 0.0186376
50.1946 45.2857 0.0220175
49.7209 49.0676 0.0246807
49.1511 52.6156 0.021831
46.1724 39.902 0.0854652
46.5507 42.7457 0.0209477
46.6057 45.7581 0.017165
44.0165 41.2296 0.037512
42.1094 41.9892 0.0403142
46.8409 57.3533 2
44.7924 39.4961 2
42.4848 40.8669 2
48.1646 47.2624 2
47.1802 54.2614 2
47.6218 50.7765 2
44.8804 47.3406 2
45.236 42.0165 2
45.0252 44.6546 2
42.823 42.7321 2
40.9718 42.3541 2
45.4013 55.9393 3.98017
42.813 39.2588 3.97309
40.9192 40.8094 3.96766
46.1474 48.9399 3.97983
45.5651 52.5628 3.98427
43.5182 48.4806 3.95652
43.4085 46.2078 3.98073
43.779 43.8215 3.9162
41.2813 43.8961 3.96562
39.3257 42.6681 3.95571
45.4687 58.7982 0.018967
43.8762 57.7225 2
42.1069 56.3464 3.98121
35.4633 67.6661 0.0119611
37.6418 65.5207 0.0138194
39.8922 63.5643 0.0154983
41.7524 62.5033 0.0161177
42.4804 59.9919 0.0176029
35.5728 65.4435 2
40.622 61.6622 2
37.8358 63.2264 2
40.4441 58.2229 2
38.9254 56.5124 3.98138
38.2497 60.346 3.98315
35.6066 63.2196 3.98473
33.5756 65.3537 0.0137895
31.9598 63.3127 0.0152954
33.6291 63.3532 2
30.3788 62.8712 2
32.1231 62.0193 2
28.6809 62.2157 3.98419
33.3456 61.5317 3.98337
31.0658 61.2354 3.98298
27.5653 59.6103 3.98217
23.7869 59.0997 3.98431
25.0323 60.8859 3.98301
26.8678 61.5136 2
26.2289 63.4898 3.98512
28.0626 64.1585 2
27.4634 66.1905 3.98761
29.8838 64.7305 0.0140045
29.4066 66.7675 2
28.9059 68.9476 3.99018
31.377 67.2037 0.0120211
31.0135 69.4228 2
30.6146 71.78 3.99408
33.1562 69.7576 0.00956171
32.892 72.1493 2
32.6054 74.6784 4
35.195 72.3748 0.00589275
35.0474 74.9197 2
37.5 75 0
33.723 6.97352 3.98853
35.4343 4.68227 3.99094
35.6203 6.71848 2
37.5141 2.38555 3.99461
37.5229 4.61147 2
39.6237 4.71236 0.00902372
39.7885 2.47267 2
39.9526 0.0806499 4
42.062 2.71642 0.00552047
42.3947 0.320817 2
44.8158 0.721173 0
44.7886 35.5046 3.95624
42.4764 34.1437 3.96966
47.6855 40.4507 0.00971515
50.7158 38.4881 0.01935
54.0787 36.6217 0.0216207
48.3453 37.7593 2
51.4991 35.5659 2
46.1704 35.1016 2
44.0208 33.7716 2
42.1046 33.0247 2
48.5166 34.2508 4.00458
45.2211 32.9902 3.91728
42.8027 32.2764 3.95815
40.9492 32.6671 3.96183
37.3097 10.6195 3.98549
37.4576 8.52562 2
37.5158 6.66783 0.011184
39.2109 8.6844 0.012859
38.9757 10.116 2
34.7529 10.3691 3.98542
35.8977 9.76303 2
32.3764 9.36045 3.9862
34.1496 8.81328 2
35.9413 8.48432 0.0128252
52.5027 32.8521 0.0197998
51.4067 29.1336 0.0162698
50.8304 25.7028 0.0269444
49.9508 22.1655 0.0209363
47.5071 19.21 0.0207345
45.8034 15.4097 0.0176125
43.8577 11.9096 0.0154825
40.5686 11.598 0.0154667
50.1128 31.3877 2
38.3011 12.7221 2
42.1007 14.2936 2
49.3448 27.4616 2
49.4329 24.3793 2
47.1936 21.9137 2
44.8024 18.4455 2
47.8917 29.5914 3.96953
47.1353 25.1054 3.97789
44.2929 21.2999 3.9786
36.5809 12.9193 3.9836
38.6803 14.7931 3.98231
41.7507 17.823 3.98038
42.9417 37.4937 3.9762
45.0721 37.5029 2
46.5022 37.5021 0.0845072
46.8409 57.3528 0.0173814
47.1801 54.2611 0.0183842
48.1668 47.2647 0.0169148
47.6219 50.7769 0.0223553
44.7843 39.4976 0.0421423
45.2333 42.0137 0.0767581
45.0176 44.6481 0.0352393
44.8828 47.3491 0.00856508
42.8125 42.7346 0.0442014
42.4827 40.8652 0.0297467
40.9622 42.3547 0.0408235
45.4015 55.9397 2
42.8139 39.2588 2
40.9198 40.81 2
46.1471 48.9357 2
45.5654 52.562 2
43.5162 48.4804 2
43.4362 46.2183 2
43.7843 43.8252 2
41.2866 43.8897 2
39.331 42.672 2
43.7411 54.4499 3.98621
40.9868 39.1797 3.95761
39.2422 40.8688 3.93329
43.7457 50.537 3.98927
42.0177 47.7356 4.01749
41.9287 45.2138 3.91308
39.4978 44.6573 3.96987
37.4999 42.7876 3.95807
43.8764 57.7225 0.0189952
42.1068 56.3461 2
40.4208 54.9477 3.97868
35.5728 65.443 0.0137768
37.8359 63.226 0.0150533
40.6221 61.6618 0.0164984
40.444 58.2226 0.0194094
35.6066 63.2201 2
38.2497 60.3463 2
38.9252 56.5138 2
37.9997 55.2666 3.98015
36.9345 57.6469 3.98061
35.3631 60.9308 3.98338
33.6291 63.3528 0.0151888
30.3788 62.8708 0.0155333
32.1231 62.0189 0.0164047
33.3456 61.532 2
28.681 62.2161 2
31.0659 61.2357 2
29.4012 60.3045 3.98242
32.3551 59.7626 3.98267
28.017 58.3895 3.98298
27.5654 59.6106 2
25.3738 58.6108 3.98227
22.749 58.2595 3.9812
23.397 60.3659 3.98302
23.7868 59.1001 2
25.0323 60.8863 2
24.4309 62.7819 3.98459
26.8677 61.5133 0.0167329
26.2289 63.4902 2
25.5474 65.5003 3.98716
28.0625 64.1581 0.0143492
27.4634 66.191 2
26.8358 68.3358 3.99003
29.4067 66.767 0.0121767
28.9059 68.9481 2
28.3697 71.2652 3.994
31.0135 69.4223 0.00969903
30.6144 71.7803 2
30.1842 74.2788 4
32.8921 72.149 0.00587656
32.6053 74.6792 2
35.0474 74.9194 0
31.7874 7.41317 3.98812
33.3463 4.92142 3.99077
33.7229 6.97302 2
35.2444 2.46171 3.99453
35.4343 4.68187 2
35.6204 6.71893 0.0111678
37.5 0 4
37.5141 2.3853 2
37.5229 4.61183 0.00895115
39.7885 2.47292 0.00546065
39.9526 0.0802889 2
42.3946 0.32156 0
42.8162 35.7363 3.97365
44.7923 35.5079 2
40.9129 34.21 3.96925
42.4777 34.1427 2
48.3476 37.7608 0.00988297
51.5002 35.5658 0.0315359
46.1696 35.103 0.084353
44.0097 33.773 0.03882
42.0985 33.0267 0.037461
48.5158 34.2515 2
45.227 32.9844 2
42.813 32.2749 2
40.9558 32.6651 2
46.433 31.4972 3.98869
43.7633 31.186 3.91745
41.2742 31.1265 3.95981
39.3104 32.3585 3.95352
35.6912 11.764 3.98399
37.3096 10.6189 2
37.4576 8.52612 0.0128075
38.9758 10.1165 0.0137187
33.0968 11.2058 3.98447
34.7528 10.3687 2
35.8978 9.7635 0.0138349
30.4811 10.0085 3.98577
32.3763 9.36005 2
34.1497 8.81377 0.0131085
50.115 31.3873 0.027446
49.3463 27.4602 0.0267613
49.4327 24.3792 0.0203009
47.1934 21.9121 0.0222679
44.8025 18.4458 0.0196848
42.1009 14.2935 0.0175437
38.3013 12.7229 0.0163085
36.5808 12.9191 2
47.8876 29.5928 2
38.6801 14.7923 2
41.7504 17.823 2
47.1354 25.1064 2
44.293 21.2996 2
45.6383 27.8033 3.97413
43.8221 24.0336 3.981
41.3442 20.7006 3.98012
35.7705 14.7442 3.98258
38.6811 17.5799 3.98066
41.0297 37.491 3.95147
42.9451 37.4947 2
45.0584 37.5023 0.0479092
45.4013 55.9393 0.0198294
45.5651 52.5628 0.015729
46.1474 48.9399 0.0201715
42.813 39.2588 0.0269059
43.779 43.8215 0.0837954
43.4085 46.2078 0.0192712
43.5182 48.4806 0.043479
41.2813 43.8961 0.0343824
40.9192 40.8094 0.0323403
39.3257 42.6681 0.0442853
43.7416 54.4503 2
40.9862 39.1802 2
39.2419 40.8725 2
43.7453 50.5379 2
42.0172 47.7385 2
41.9403 45.2142 2
37.5012 42.7973 2
39.5071 44.6622 2
41.8911 53.016 3.98641
39.235 39.1691 3.92953
37.5041 40.9185 3.91754
35.6794 42.6851 3.95591
40.986 49.7589 3.9964
39.8173 46.0938 3.91583
37.4968 44.9241 3.96566
42.1069 56.3464 0.0187903
40.4206 54.9475 2
38.7296 53.8758 3.98415
35.6066 63.2196 0.015272
38.2497 60.346 0.0168463
38.9254 56.5124 0.0186218
35.3631 60.931 2
36.9342 57.647 2
37.9993 55.2668 2
36.3185 55.4036 3.98093
34.4866 58.5405 3.98194
33.3456 61.5317 0.0166331
28.6809 62.2157 0.0158135
31.0658 61.2354 0.0170239
32.3551 59.7628 2
29.4012 60.3048 2
30.2932 57.8342 3.98232
28.017 58.3898 2
26.935 56.84 3.98069
27.5653 59.6103 0.0178283
25.3737 58.6113 2
23.8277 56.8251 3.97952
21.3237 57.4205 3.98219
21.9882 59.6394 3.98358
22.7489 58.2599 2
22.734 62.0332 3.98407
23.397 60.3663 2
23.7869 59.0997 0.0156921
25.0323 60.8859 0.0169915
24.431 62.7824 2
23.6811 64.7184 3.98648
26.2289 63.4898 0.0148845
25.5475 65.5007 2
24.8082 67.597 3.98986
27.4634 66.1905 0.0123947
26.8357 68.3362 2
26.1651 70.6059 3.99388
28.9059 68.9476 0.00982073
28.3696 71.2654 2
27.7943 73.7221 4
30.6146 71.78 0.00592431
30.1841 74.2794 2
32.6054 74.6784 0
29.81 7.98638 3.98762
31.2515 5.32846 3.99048
31.7873 7.41272 2
32.9802 2.69981 3.99441
33.3462 4.92096 2
33.723 6.97352 0.0114669
35.0474 0.080333 4
35.2443 2.46145 2
35.4343 4.68227 0.00905574
37.5 0 2
37.5141 2.38555 0.00538982
39.9526 0.0806499 0
40.9914 35.8146 3.95828
42.8153 35.7373 2
44.7886 35.5046 0.0437612
28.542 10.6838 3.98534
39.2346 34.1571 3.93519
40.912 34.2087 2
42.4764 34.1437 0.0303362
48.5166 34.2508 -0.00458494
45.2211 32.9902 0.0827167
42.8027 32.2764 0.0418476
40.9492 32.6671 0.038171
46.4429 31.4936 2
43.7656 31.1803 2
41.2834 31.1237 2
39.3162 32.3511 2
44.4503 29.6696 3.98093
41.9176 29.8096 3.92115
39.4884 30.3835 3.96835
37.4811 32.2429 3.95586
34.0909 12.9221 3.98329
35.6912 11.7637 2
37.3097 10.6195 0.0145117
31.1848 11.9741 3.98436
33.0968 11.2055 2
34.7529 10.3691 0.0145837
30.481 10.0081 2
32.3764 9.36045 0.0138022
47.8917 29.5914 0.0304734
47.1353 25.1054 0.0221067
36.5809 12.9193 0.0163962
44.2929 21.2999 0.0214016
41.7507 17.823 0.0196153
38.6803 14.7931 0.017687
35.7703 14.7445 2
45.6355 27.8071 2
38.6807 17.5793 2
41.3438 20.7003 2
43.822 24.038 2
33.6057 15.8615 3.98261
43.1138 26.5256 3.98578
40.9265 23.2731 3.98057
38.4222 20.3085 3.98125
35.8467 17.493 3.98135
39.2429 37.4942 3.92968
41.0299 37.4908 2
42.9417 37.4937 0.0237985
43.7411 54.4499 0.0137861
43.7457 50.537 0.0107333
40.9868 39.1797 0.0423865
41.9287 45.2138 0.0869211
42.0177 47.7356 -0.0174929
39.4978 44.6573 0.0301286
39.2422 40.8688 0.0667097
37.4999 42.7876 0.0419328
41.8914 53.017 2
39.2342 39.1707 2
37.5045 40.9264 2
40.9846 49.7591 2
35.6751 42.6896 2
39.8296 46.1 2
37.4995 44.9075 2
39.8302 51.9363 3.99009
37.5021 39.1861 3.92381
35.7684 40.8869 3.93059
34.0436 42.3705 3.96022
35.4886 44.6637 3.96793
38.772 48.7917 4.03039
37.5061 46.4058 3.91019
40.4208 54.9477 0.0213227
38.7293 53.8752 2
36.7177 53.2294 3.98643
35.3631 60.9308 0.0166204
36.9345 57.6469 0.0193921
37.9997 55.2666 0.019853
34.4865 58.5406 2
36.3182 55.4031 2
33.2215 55.5217 3.98196
32.3551 59.7626 0.0173261
29.4012 60.3045 0.0175772
30.2932 57.8344 2
28.6741 55.3266 3.97893
28.017 58.3895 0.0170221
26.9347 56.8405 2
25.2922 55.1628 3.97875
21.7906 55.3703 3.97958
25.3738 58.6108 0.0177327
23.8274 56.8255 2
20.2068 57.0519 3.98371
20.6379 58.7987 3.98349
21.3234 57.4209 2
21.163 61.184 3.98449
21.9881 59.6398 2
22.749 58.2595 0.0187983
21.8941 63.8462 3.9859
22.734 62.0336 2
23.397 60.3659 0.0169771
24.4309 62.7819 0.0154118
23.6812 64.7188 2
22.8366 66.7407 3.98955
25.5474 65.5003 0.0128371
24.8082 67.5973 2
24.0094 69.8071 3.99376
26.8358 68.3358 0.00996974
26.1649 70.6061 2
25.446 73.0099 4
28.3697 71.2652 0.00600443
27.7943 73.7222 2
30.1842 74.2788 0
27.82 8.64591 3.98734
29.1535 5.87413 3.99009
29.8099 7.98594 2
30.7255 3.09689 3.99421
31.2514 5.32803 2
31.7874 7.41317 0.0118782
32.6053 0.320823 4
32.9801 2.69954 2
33.3463 4.92142 0.00922609
35.0474 0.0802903 2
35.2444 2.46171 0.00547192
37.5 0 0
39.2396 35.8318 3.92968
40.9899 35.8138 2
42.8162 35.7363 0.0263505
28.542 10.6836 2
26.6209 11.3793 3.98507
29.2237 12.6309 3.98406
37.495 34.109 3.92274
39.2333 34.1513 2
40.9129 34.21 0.0307467
46.433 31.4972 0.0113141
43.7633 31.186 0.0825466
41.2742 31.1265 0.0401916
39.3104 32.3585 0.0464833
44.4614 29.6612 2
41.9307 29.8032 2
39.4954 30.3789 2
37.4833 32.2348 2
42.361 28.3536 3.98374
39.8178 28.9364 3.91863
37.4803 30.12 3.96299
35.6582 32.3508 3.95463
31.9122 14.4679 3.98291
34.091 12.9219 2
35.6912 11.764 0.0160069
31.1848 11.9737 2
33.0968 11.2058 0.0155265
30.4811 10.0085 0.01423
45.6383 27.8033 0.0258669
43.8221 24.0336 0.0190017
35.7705 14.7442 0.01742
41.3442 20.7006 0.0198819
38.6811 17.5799 0.0193397
33.6056 15.8619 2
35.8464 17.4936 2
43.1119 26.5302 2
38.422 20.3088 2
40.9266 23.2728 2
33.5476 17.3699 3.98277
40.4841 25.6189 3.99753
38.0831 22.8376 3.98806
35.5823 20.0607 3.9825
37.5025 37.5033 3.92749
39.2431 37.4937 2
41.0297 37.491 0.0485264
41.8911 53.016 0.0135878
40.986 49.7589 0.00359651
39.235 39.1691 0.0704686
39.8173 46.0938 0.0841697
37.4968 44.9241 0.0343407
37.5041 40.9185 0.0824629
35.6794 42.6851 0.0440881
39.8311 51.9364 2
37.5023 39.1901 2
35.7699 40.8916 2
38.7672 48.7992 2
34.0358 42.372 2
35.4869 44.6635 2
37.5019 46.4182 2
37.6688 51.0135 3.98209
35.7739 39.1906 3.92644
34.0977 40.8304 3.9666
32.8948 42.0065 3.96337
33.7064 43.9157 3.96053
35.1812 46.1056 3.9187
36.8999 48.4234 4.01618
38.7296 53.8758 0.0158508
36.7172 53.2285 2
34.3497 52.4925 3.98221
34.4866 58.5405 0.0180638
36.3185 55.4036 0.0190733
33.2215 55.5213 2
30.4997 53.4215 3.98008
30.2932 57.8342 0.0176796
28.6737 55.3268 2
26.8555 53.465 3.97758
26.935 56.84 0.0193091
25.2918 55.1631 2
23.5446 53.5078 3.97707
20.4388 53.2551 3.97794
19.9162 55.8567 3.98272
21.7901 55.3707 2
23.8277 56.8251 0.0204828
19.4288 57.9124 3.98332
20.2065 57.0521 2
19.7014 60.2188 3.98403
20.6378 58.799 2
21.3237 57.4205 0.0178126
20.2057 62.8679 3.98569
21.163 61.1843 2
21.9882 59.6394 0.016416
20.938 65.7699 3.98907
21.8941 63.8467 2
22.734 62.0332 0.0159327
23.6811 64.7184 0.0135219
22.8366 66.7411 2
21.912 68.8743 3.99361
24.8082 67.597 0.0101441
24.0092 69.8073 2
23.1494 72.1454 4
26.1651 70.6059 0.00611777
25.446 73.0099 2
27.7943 73.7221 0
25.8593 9.37405 3.98677
27.0683 6.53811 3.98976
27.8199 8.64554 2
28.4877 3.64274 3.99397
29.1534 5.87374 2
29.81 7.98638 0.0123829
30.1841 0.720592 4
30.7253 3.09665 2
31.2515 5.32846 0.00952444
32.6053 0.320817 2
32.9802 2.69981 0.00559117
35.0474 0.080333 0
37.5036 35.8266 3.92438
39.2383 35.8289 2
40.9914 35.8146 0.0417199
24.7757 12.0623 3.98483
23.7492 14.3468 3.98359
28.542 10.6838 0.0146595
26.621 11.3791 2
29.2238 12.6307 2
27.2897 13.3641 3.98399
29.7782 14.19 3.98332
35.7606 34.1459 3.93518
37.4948 34.1025 2
39.2346 34.1571 0.0648075
37.4811 32.2429 0.0441409
44.4503 29.6696 0.0190742
41.9176 29.8096 0.0788469
39.4884 30.3835 0.0316482
42.3691 28.3422 2
39.83 28.9311 2
37.4811 30.1317 2
35.6564 32.344 2
40.0427 27.5328 3.99483
37.4891 28.6305 3.91412
35.4678 30.38 3.96447
34.0271 32.6595 3.95866
30.9232 16.8253 3.98241
31.9124 14.4676 2
34.0909 12.9221 0.0167057
31.1848 11.9741 0.0156399
43.1138 26.5256 0.0142245
40.9265 23.2731 0.0194321
33.6057 15.8615 0.0173898
35.8467 17.493 0.0186525
38.4222 20.3085 0.0187472
33.5473 17.3709 2
35.5822 20.0613 2
40.4811 25.6253 2
38.0832 22.8397 2
32.8596 19.7771 3.98113
37.7878 25.1326 4.01315
35.2031 22.6195 3.97811
35.7651 37.5123 3.92693
37.5036 37.5039 2
39.2429 37.4942 0.0703172
39.8302 51.9363 0.00991249
38.772 48.7917 -0.0303853
37.5021 39.1861 0.0761882
37.5061 46.4058 0.0898124
35.4886 44.6637 0.0320733
35.7684 40.8869 0.0694117
34.0436 42.3705 0.0397834
37.6697 51.0239 2
35.7752 39.1926 2
34.0987 40.8317 2
36.8962 48.4288 2
32.8885 42.0089 2
33.7025 43.9141 2
35.1679 46.11 2
35.4213 50.1607 3.9842
34.0297 39.2058 3.95336
32.5253 40.8848 3.97092
32.1837 42.7508 3.95852
33.079 45.2298 3.91826
34.281 47.5256 3.99256
36.7177 53.2294 0.0135714
34.3494 52.4929 2
31.9666 51.2146 3.97852
33.2215 55.5217 0.018035
30.4993 53.4237 2
28.391 51.6466 3.97889
28.6741 55.3266 0.0210679
26.855 53.4662 2
25.0389 51.7969 3.97426
25.2922 55.1628 0.0212529
23.544 53.5083 2
21.9258 51.8426 3.97569
19.1659 51.6659 3.9777
18.8993 54.335 3.98021
20.4384 53.255 2
18.4345 56.7457 3.98389
19.9157 55.8569 2
21.7906 55.3703 0.0204166
18.3619 59.1279 3.9835
19.4285 57.9127 2
20.2068 57.0519 0.0162889
18.6156 61.7766 3.98529
19.7013 60.2192 2
20.6379 58.7987 0.0165123
19.1266 64.681 3.98854
20.2057 62.8683 2
21.163 61.184 0.0155101
19.8861 67.8111 3.99331
20.938 65.7702 2
21.8941 63.8462 0.0140981
22.8366 66.7407 0.0104466
21.9118 68.8745 2
20.9142 71.1327 4
24.0094 69.8071 0.00623788
23.1494 72.1455 2
25.446 73.0099 0
23.0948 12.777 3.98446
23.9719 10.1606 3.98639
25.0223 7.30809 3.98948
25.8593 9.37373 2
26.2795 4.32689 3.9937
27.0682 6.53776 2
27.82 8.64591 0.0126645
27.7943 1.27781 4
28.4875 3.64254 2
29.1535 5.87413 0.00990917
30.1841 0.720551 2
30.7255 3.09689 0.00579132
32.6053 0.320823 0
35.7704 35.8363 3.92782
37.5035 35.8238 2
39.2396 35.8318 0.0703167
24.7758 12.0622 2
23.7493 14.3468 2
22.4772 15.0231 3.98344
25.3557 13.8961 3.98375
24.0216 15.6086 3.9831
26.6209 11.3793 0.0149342
29.2237 12.6309 0.0159358
27.2898 13.3639 2
29.7783 14.1899 2
28.3539 15.9644 3.98297
34.0947 34.2043 3.96648
35.7614 34.1406 2
37.495 34.109 0.0772644
35.6582 32.3508 0.0453689
37.4803 30.12 0.0370055
42.361 28.3536 0.0162592
39.8178 28.9364 0.081369
40.0446 27.5309 2
37.4889 28.6179 2
35.4637 30.3761 2
34.0261 32.6563 2
37.621 27.2291 3.99753
35.1432 28.9293 3.91798
33.6837 31.1225 3.96283
32.8838 33.027 3.96257
30.2028 19.3287 3.98335
30.9232 16.8251 2
31.9122 14.4679 0.0170888
40.4841 25.6189 0.00246578
38.0831 22.8376 0.011935
33.5476 17.3699 0.017233
35.5823 20.0607 0.0175012
32.8593 19.7787 2
35.2036 22.6196 2
37.7871 25.1386 2
32.3039 22.3925 3.98066
34.938 25.1502 3.98974
33.9846 37.516 3.94849
35.767 37.5119 2
37.5025 37.5033 0.0725148
37.6688 51.0135 0.0179147
36.8999 48.4234 -0.016179
35.7739 39.1906 0.0735603
35.1812 46.1056 0.0812992
33.7064 43.9157 0.039466
34.0977 40.8304 0.0334039
32.8948 42.0065 0.036627
35.4213 50.1669 2
34.0311 39.2063 2
32.5245 40.885 2
34.2738 47.5355 2
32.1745 42.7479 2
33.0662 45.2356 2
33.1782 49.1397 3.98499
32.1931 39.2839 3.97345
30.9828 41.2477 3.96098
31.2252 43.8358 3.91893
32.22 46.4577 3.97799
34.3497 52.4925 0.0177888
31.9662 51.2182 2
29.7933 49.7412 3.97634
30.4997 53.4215 0.0199237
28.3904 51.6451 2
26.4481 50.0348 3.97387
26.8555 53.465 0.0224228
25.0383 51.7959 2
23.2877 50.237 3.97742
23.5446 53.5078 0.0229282
21.9254 51.842 2
20.4206 50.3494 3.97772
17.952 50.3577 3.97962
17.8065 52.8186 3.97929
19.1659 51.6653 2
17.4202 55.3632 3.98218
18.8989 54.335 2
20.4388 53.2551 0.0220564
17.126 57.8914 3.9843
18.4342 56.7459 2
19.9162 55.8567 0.0172792
17.132 60.5613 3.98471
18.3618 59.1282 2
19.4288 57.9124 0.0166764
17.4064 63.4744 3.98804
18.6156 61.7769 2
19.7014 60.2188 0.0159655
17.9422 66.6197 3.99302
19.1266 64.6814 2
20.2057 62.8679 0.0143101
18.75 69.9759 4
19.8859 67.8112 2
20.938 65.7699 0.0109256
21.912 68.8743 0.0063867
20.9142 71.1327 2
23.1494 72.1454 0
21.5852 13.597 3.98416
22.1899 11.0197 3.98583
23.0949 12.777 2
23.0405 8.17334 3.98926
23.9719 10.1603 2
24.1172 5.14149 3.99352
25.0222 7.30778 2
25.8593 9.37405 0.01323
25.446 1.99014 4
26.2793 4.32673 2
27.0683 6.53811 0.0102382
27.7943 1.27778 2
28.4877 3.64274 0.00602761
30.1841 0.720592 0
34.0246 35.8268 3.95489
35.7713 35.8336 2
37.5036 35.8266 0.0756159
21.3016 15.8185 3.98334
24.7757 12.0623 0.0151743
23.7492 14.3468 0.0164134
25.3558 13.8961 2
22.4774 15.0234 2
24.0218 15.6088 2
23.2602 16.2399 3.9829
25.3769 16.0765 3.9833
27.2897 13.3641 0.0160095
29.7782 14.19 0.0166796
28.354 15.9645 2
27.4343 18.7865 3.98316
32.5316 34.1496 3.97057
34.0948 34.2023 2
35.7606 34.1459 0.064817
34.0271 32.6595 0.0413408
35.4678 30.38 0.0355322
37.4891 28.6305 0.0858809
40.0427 27.5328 0.00517422
37.6179 27.2006 2
32.883 33.0279 2
35.1271 28.9224 2
33.6757 31.1176 2
35.0472 27.3386 3.99896
33.0361 29.8096 3.92244
32.167 32.2773 3.96054
29.5641 21.924 3.98786
30.2031 19.3292 2
30.9232 16.8253 0.0175861
37.7878 25.1326 -0.0131483
35.2031 22.6195 0.0218913
32.8596 19.7771 0.0188741
32.3044 22.3953 2
34.9397 25.1596 2
31.6303 25.6091 3.98569
32.0671 37.5185 3.97528
33.9867 37.5156 2
35.7651 37.5123 0.0730697
35.4213 50.1607 0.0158
34.281 47.5256 0.00743679
34.0297 39.2058 0.0466427
33.079 45.2298 0.0817421
32.1837 42.7508 0.0414751
32.5253 40.8848 0.0290766
33.1789 49.1272 2
32.1927 39.2835 2
30.9727 41.247 2
32.2044 46.4687 2
31.219 43.8391 2
31.0477 47.8974 3.98357
30.2109 39.5104 3.95625
29.7692 42.0264 3.91664
30.3279 45.034 3.97935
31.9666 51.2146 0.0214764
29.7935 49.7389 2
27.784 48.223 3.9786
28.391 51.6466 0.0211134
26.4479 50.033 2
24.5758 48.5137 3.97758
25.0389 51.7969 0.0257387
23.2875 50.2359 2
21.5925 48.8285 3.97991
21.9258 51.8426 0.0243073
20.4208 50.3482 2
18.9882 49.1221 3.98159
16.8594 49.3555 3.98221
16.7451 51.4317 3.97987
17.9522 50.3571 2
16.3693 53.893 3.98098
17.8063 52.8183 2
19.1659 51.6659 0.0223048
15.9653 56.494 3.98362
17.4198 55.3633 2
18.8993 54.335 0.0197893
15.7443 59.2232 3.98486
17.1257 57.8917 2
18.4345 56.7457 0.0161098
15.7862 62.1458 3.98738
17.1319 60.5617 2
18.3619 59.1279 0.0165021
16.0887 65.3025 3.99285
17.4065 63.4748 2
18.6156 61.7766 0.0147093
16.6661 68.6801 4
17.9421 66.6198 2
19.1266 64.681 0.0114602
18.75 69.9759 2
19.8861 67.8111 0.00668807
20.9142 71.1327 0
20.2166 14.5856 3.98384
21.5854 13.5972 2
20.5289 11.9895 3.98537
21.1436 9.14278 3.98901
22.19 11.0195 2
23.0948 12.777 0.0155392
22.0163 6.0804 3.99334
23.0404 8.17306 2
23.9719 10.1606 0.0136121
23.1494 2.85457 4
24.1169 5.14137 2
25.0223 7.30809 0.010525
25.446 1.99012 2
26.2795 4.32689 0.00629939
27.7943 1.27781 0
32.1984 35.7513 3.97234
34.0256 35.8257 2
35.7704 35.8363 0.0721794
21.3018 15.8186 2
20.2976 16.9511 3.98417
22.0928 16.6238 3.98296
25.3557 13.8961 0.0162521
22.4772 15.0231 0.0165601
24.0216 15.6086 0.0168983
25.3771 16.0768 2
23.2605 16.2402 2
24.1983 18.4386 3.98188
27.0003 21.4459 3.98171
28.3539 15.9644 0.0170295
27.4346 18.7871 2
30.9893 33.7846 3.95736
32.5286 34.1515 2
34.0947 34.2043 0.033518
32.8838 33.027 0.0374344
33.6837 31.1225 0.0371668
35.1432 28.9293 0.0820179
37.621 27.2291 0.00246826
35.0369 27.3278 2
32.1683 32.2807 2
33.0324 29.8019 2
32.4656 28.0582 4.00447
31.1917 31.1998 3.92328
28.75 24.3888 3.98675
29.5646 21.9257 2
30.2028 19.3287 0.0166493
34.938 25.1502 0.0102552
32.3039 22.3925 0.0193449
31.6309 25.6004 2
29.5582 27.2983 3.98103
29.942 37.5169 3.95367
32.0678 37.5184 2
33.9846 37.516 0.0515123
33.1782 49.1397 0.0150102
32.22 46.4577 0.02201
32.1931 39.2839 0.0265506
31.2252 43.8358 0.0810666
30.9828 41.2477 0.0390228
31.051 47.889 2
30.2051 39.5107 2
29.7639 42.0305 2
30.3138 45.0426 2
29.0546 46.4683 3.97805
28.8262 39.9109 3.91373
28.5185 43.2536 3.9851
29.7933 49.7412 0.0236621
27.7846 48.2201 2
25.8414 46.6969 3.97766
26.4481 50.0348 0.0261321
24.5761 48.5123 2
22.7237 47.1236 3.98632
23.2877 50.237 0.0225789
21.5931 48.8267 2
19.9295 47.6509 3.98479
20.4206 50.3494 0.0222821
18.9887 49.1212 2
17.6315 48.2035 3.98373
16.1111 48.705 3.98389
16.8598 49.3552 2
15.8224 50.192 3.98138
15.3571 52.4364 3.98074
16.7452 51.4314 2
17.952 50.3577 0.0203778
14.8549 54.9952 3.98241
16.3691 53.8929 2
17.8065 52.8186 0.0207097
14.4523 57.7528 3.98468
15.965 56.4942 2
17.4202 55.3632 0.0178218
14.2637 60.7008 3.98683
15.7442 59.2237 2
17.126 57.8914 0.0157016
14.3326 63.8619 3.9926
15.7863 62.1463 2
17.132 60.5613 0.015291
14.6715 67.2507 4
16.0885 65.3026 2
17.4064 63.4744 0.0119578
16.6661 68.6801 2
17.9422 66.6197 0.0069772
18.75 69.9759 0
18.9292 15.7715 3.98404
20.2167 14.5857 2
18.9782 13.1002 3.98496
21.5852 13.597 0.0158409
20.5291 11.9894 2
19.343 10.2305 3.98849
19.9909 7.14493 3.99326
21.1436 9.14257 2
22.1899 11.0197 0.0141686
20.9142 3.86727 4
22.016 6.08035 2
23.0405 8.17334 0.0107427
23.1494 2.85451 2
24.1172 5.14149 0.00647818
25.446 1.99014 0
30.2251 35.5276 3.95923
32.1969 35.7513 2
34.0246 35.8268 0.0451105
21.3016 15.8185 0.0166608
22.0931 16.624 2
20.2978 16.9511 2
19.235 18.3966 3.98391
21.776 17.8387 3.98326
25.3769 16.0765 0.0167039
23.2602 16.2399 0.0171033
24.1988 18.4393 2
22.267 19.8787 3.98247
24.5762 21.3087 3.9827
26.3779 23.7112 3.98272
27.0015 21.4472 2
27.4343 18.7865 0.0168425
29.766 33.0035 3.92084
30.9785 33.781 2
32.5316 34.1496 0.0294269
32.167 32.2773 0.0394646
33.0361 29.8096 0.0775636
35.0472 27.3386 0.00103576
32.4516 28.0551 2
31.2003 31.2039 2
30.002 29.4993 3.99831
27.8018 26.537 3.96953
28.7505 24.3943 2
29.5641 21.924 0.0121405
31.6303 25.6091 0.014307
29.5507 27.2546 2
28.4964 37.5141 3.91851
29.9361 37.5186 2
32.0671 37.5185 0.0247202
31.0477 47.8974 0.0164265
30.3279 45.034 0.0206494
30.2109 39.5104 0.0437528
29.7692 42.0264 0.0833557
29.0585 46.4676 2
28.8218 39.9112 2
28.5088 43.2574 2
27.1273 44.8151 3.96629
26.6059 40.6548 4.00629
27.784 48.223 0.021397
25.8433 46.6953 2
23.8695 45.2538 3.97827
24.5758 48.5137 0.0224184
22.7249 47.1212 2
20.855 45.9334 3.98581
21.5925 48.8285 0.0200919
19.9303 47.6499 2
18.2741 46.7639 3.98522
18.9882 49.1221 0.0184144
17.632 48.2031 2
16.2998 47.7348 3.98365
16.1115 48.7048 2
15.1686 49.035 3.98263
16.8594 49.3555 0.0177881
15.8226 50.1918 2
14.4703 51.003 3.98123
13.8156 53.4505 3.98176
15.3571 52.4362 2
16.7451 51.4317 0.020126
13.2461 56.1806 3.9839
14.8547 54.9952 2
16.3693 53.893 0.0190219
12.8455 59.1347 3.9866
14.4522 57.7531 2
15.9653 56.494 0.0163779
12.6778 62.3046 3.99209
14.2637 60.7013 2
15.7443 59.2232 0.0151431
12.7746 65.6939 4
14.3325 63.862 2
15.7862 62.1458 0.0126155
14.6714 67.2507 2
16.0887 65.3025 0.00715103
16.6661 68.6801 0
17.6623 17.1458 3.984
18.9294 15.7714 2
17.5088 14.3635 3.98488
20.2166 14.5856 0.0161611
18.9783 13.1 2
17.6384 11.4492 3.98776
20.5289 11.9895 0.0146268
19.3431 10.2303 2
18.0511 8.33771 3.99302
18.75 5.0241 4
19.9907 7.14495 2
21.1436 9.14278 0.0109909
20.9142 3.86727 2
22.0163 6.0804 0.00665787
23.1494 2.85457 0
28.8326 35.1194 3.91948
30.2183 35.5303 2
32.1984 35.7513 0.0276645
22.0928 16.6238 0.0170426
20.2976 16.9511 0.0158273
21.7763 17.8386 2
19.2353 18.3965 2
17.9684 19.9271 3.98373
20.8664 19.3647 3.98369
24.1983 18.4386 0.0181224
22.2676 19.8785 2
24.5774 21.3097 2
22.339 21.7024 3.98346
24.6633 23.1539 3.98281
25.3933 25.9396 3.97402
26.3793 23.7117 2
27.0003 21.4459 0.018286
28.1566 32.2717 3.98111
29.7607 33.0027 2
30.9893 33.7846 0.0426429
31.1917 31.1998 0.0767154
32.4656 28.0582 -0.00447323
29.9765 29.4967 2
26.8994 29.134 3.97663
27.7971 26.5364 2
28.75 24.3888 0.0132456
29.5582 27.2983 0.0189743
26.7253 37.365 3.98743
28.4925 37.5125 2
29.942 37.5169 0.0463287
29.0546 46.4683 0.0219515
28.5185 43.2536 0.0149024
28.8262 39.9109 0.0862683
27.1326 44.8144 2
26.6066 40.6567 2
25.0923 43.2061 3.97281
23.8525 39.4382 3.96719
25.8414 46.6969 0.0223392
23.8711 45.2535 2
21.8256 43.9859 3.98313
22.7237 47.1236 0.0136814
20.8563 45.9329 2
18.9309 44.9969 3.98222
19.9295 47.6509 0.0152097
18.2748 46.7637 2
16.5883 46.2333 3.98208
17.6315 48.2035 0.0162653
16.3003 47.7347 2
14.8974 47.6882 3.98232
16.1111 48.705 0.0161122
15.1689 49.0349 2
13.7679 49.5622 3.98175
15.8224 50.192 0.0186157
14.4704 51.0029 2
12.8819 51.8879 3.98161
12.1328 54.5384 3.9832
13.8155 53.4505 2
15.3571 52.4364 0.0192623
11.5294 57.4667 3.98611
13.2459 56.1808 2
14.8549 54.9952 0.0175924
11.1323 60.6311 3.99162
12.8455 59.135 2
14.4523 57.7528 0.0153183
10.9835 64.0165 4
12.6777 62.3047 2
14.2637 60.7008 0.0131734
12.7745 65.694 2
14.3326 63.8619 0.00739917
14.6715 67.2507 0
16.3931 18.6384 3.98414
17.6625 17.1457 2
16.0989 15.7716 3.98491
18.9292 15.7715 0.0159608
17.5089 14.3632 2
16.0196 12.8021 3.98712
18.9782 13.1002 0.0150383
17.6385 11.449 2
16.2022 9.6607 3.99269
19.343 10.2305 0.0115076
18.0509 8.33777 2
16.6661 6.31991 4
18.75 5.02404 2
19.9909 7.14493 0.00673663
20.9142 3.86727 0
27.2313 34.7403 3.97774
28.8265 35.1181 2
30.2251 35.5276 0.0407675
16.6657 21.3612 3.98208
21.776 17.8387 0.0167359
19.235 18.3966 0.0160936
20.8668 19.3645 2
17.9687 19.9271 2
19.7069 21.5557 3.98538
22.267 19.8787 0.0175325
24.5762 21.3087 0.017298
22.3401 21.7015 2
24.6639 23.1544 2
22.8032 24.5864 3.97803
24.4497 28.5161 3.97323
25.3906 25.9387 2
26.3779 23.7112 0.0172761
25.994 31.7071 3.98075
28.1481 32.2677 2
29.766 33.0035 0.0791595
30.002 29.4993 0.00168937
26.9039 29.1368 2
27.8018 26.537 0.0304748
24.5398 36.8695 3.97936
26.7259 37.3691 2
28.4964 37.5141 0.081491
27.1273 44.8151 0.0337106
26.6059 40.6548 -0.00629094
25.0935 43.207 2
23.8534 39.4391 2
22.8712 41.8245 3.97789
21.6092 38.5055 3.97722
23.8695 45.2538 0.0217327
21.8268 43.987 2
19.6776 42.9106 3.97866
20.855 45.9334 0.0141935
18.932 44.9971 2
16.915 44.3989 3.97947
18.2741 46.7639 0.0147802
16.5889 46.2333 2
14.8172 46.107 3.98044
16.2998 47.7348 0.0163505
14.8977 47.6882 2
13.2744 48.023 3.98125
15.1686 49.035 0.0173701
13.768 49.5622 2
12.1007 50.2647 3.9816
14.4703 51.003 0.0187671
12.8819 51.8879 2
11.128 52.846 3.9827
10.3194 55.7179 3.98546
12.1326 54.5385 2
13.8156 53.4505 0.0182374
9.69888 58.8539 3.99081
11.5293 57.467 2
13.2461 56.1806 0.0160959
9.30605 62.2254 4
11.1322 60.6312 2
12.8455 59.1347 0.0133976
10.9835 64.0165 2
12.6778 62.3046 0.00791003
12.7746 65.6939 0
15.1361 20.1716 3.98313
16.3934 18.6383 2
14.7436 17.2935 3.98455
17.6623 17.1458 0.0160005
16.0991 15.7713 2
14.4815 14.2833 3.98674
17.5088 14.3635 0.0151202
16.0197 12.8018 2
14.4448 11.1117 3.99239
17.6384 11.4492 0.0122434
16.2021 9.66072 2
14.6715 7.74927 4
18.0511 8.33771 0.00697725
16.6661 6.31988 2
18.75 5.0241 0
25.1768 34.2739 3.98462
27.2301 34.7423 2
28.8326 35.1194 0.0805152
17.8354 22.3059 3.98595
15.5081 22.9042 3.98063
16.6659 21.3609 2
20.8664 19.3647 0.0163062
17.9684 19.9271 0.0162663
19.7075 21.5553 2
19.6291 24.3613 3.98114
22.339 21.7024 0.0165425
24.6633 23.1539 0.0171925
22.8017 24.585 2
21.8371 27.8075 3.97448
23.6164 31.1772 3.97268
24.452 28.519 2
25.3933 25.9396 0.0259814
25.998 31.7037 2
28.1566 32.2717 0.0188881
26.8994 29.134 0.0233744
22.3199 36.2697 3.98277
24.5413 36.8702 2
26.7253 37.365 0.0125728
25.0923 43.2061 0.02719
23.8525 39.4382 0.032805
22.8716 41.8251 2
21.6098 38.5056 2
20.5951 40.6439 3.97757
19.974 37.784 3.98033
21.8256 43.9859 0.0168749
19.6785 42.9108 2
17.307 42.1154 3.97781
18.9309 44.9969 0.0177768
16.9159 44.3992 2
14.8173 44.2149 3.97813
16.5883 46.2333 0.0179207
14.8176 46.1071 2
12.9463 46.3082 3.97954
14.8974 47.6882 0.0176754
13.2746 48.0231 2
11.4719 48.5601 3.98101
13.7679 49.5622 0.0182503
12.1007 50.2648 2
10.2536 51.088 3.9823
12.8819 51.8879 0.0183913
11.1279 52.8461 2
9.22804 53.8949 3.98493
8.3824 56.9865 3.98982
10.3193 55.7181 2
12.1328 54.5384 0.0168013
7.74927 60.3285 4
9.69876 58.854 2
11.5294 57.4667 0.0138939
9.306 62.2255 2
11.1323 60.6311 0.00837597
10.9835 64.0165 0
13.9466 21.7378 3.98211
15.1362 20.1713 2
13.4432 18.8899 3.98409
16.3931 18.6384 0.0158627
14.7438 17.2933 2
13.0264 15.8755 3.98638
16.0989 15.7716 0.0150943
14.4816 14.2829 2
12.7819 12.6848 3.99202
16.0196 12.8021 0.0128792
14.4447 11.1117 2
12.7746 9.30605 4
16.2022 9.6607 0.00730699
14.6715 7.74924 2
16.6661 6.31991 0
22.9123 33.7917 3.98294
25.1763 34.2736 2
27.2313 34.7403 0.0222559
17.5989 24.0246 3.982
17.8355 22.3054 2
14.2892 24.4367 3.97925
15.5077 22.9034 2
16.6657 21.3612 0.0179164
18.9794 27.1841 3.97402
19.7069 21.5557 0.014624
19.628 24.3612 2
21.069 30.6484 3.97523
22.8032 24.5864 0.021974
21.8387 27.8082 2
23.6176 31.1774 2
24.4497 28.5161 0.026772
25.994 31.7071 0.0192513
20.0888 35.9172 3.98243
22.3208 36.2705 2
24.5398 36.8695 0.0206441
22.8712 41.8245 0.0221096
21.6092 38.5055 0.0227821
20.5955 40.6439 2
19.9745 37.7842 2
17.974 39.0073 3.97874
19.6776 42.9106 0.0213382
17.3076 42.1158 2
14.7625 41.9291 3.97736
16.915 44.3989 0.0205325
14.8179 44.2151 2
12.6857 44.4025 3.97798
14.8172 46.107 0.0195578
12.9466 46.3083 2
10.9738 46.7423 3.9796
13.2744 48.023 0.0187472
11.472 48.5603 2
9.51691 49.2464 3.98165
12.1007 50.2647 0.0183997
10.2536 51.0882 2
8.26092 52.0065 3.98443
11.128 52.846 0.0173037
9.22788 53.895 2
7.19129 55.036 3.98905
6.31991 58.3339 4
8.38224 56.9865 2
10.3194 55.7179 0.0145414
7.74924 60.3285 2
9.69888 58.8539 0.00918782
9.30605 62.2254 0
13.2103 25.3513 3.98304
12.8126 23.2677 3.9811
13.9463 21.7371 2
12.2274 20.5388 3.98364
15.1361 20.1716 0.0168677
13.4433 18.8895 2
11.6555 17.5562 3.98621
14.7436 17.2935 0.0154524
13.0265 15.8752 2
11.2191 14.3693 3.99149
14.4815 14.2833 0.0132599
12.7818 12.6847 2
10.9835 10.9835 4
14.4448 11.1117 0.00761367
12.7745 9.306 2
14.6715 7.74927 0
20.4773 33.3829 3.98003
22.9125 33.7917 2
25.1768 34.2739 0.0153786
15.8691 26.3866 3.9771
17.5982 24.0241 2
17.8354 22.3059 0.0140488
14.2892 24.4367 2
15.5081 22.9042 0.0193678
18.3159 30.1581 3.97453
18.9805 27.1846 2
19.6291 24.3613 0.0188559
21.0696 30.6485 2
21.8371 27.8075 0.0255194
23.6164 31.1772 0.0273172
17.5964 35.961 3.98119
20.0896 35.9174 2
22.3199 36.2697 0.017232
20.5951 40.6439 0.0224346
19.974 37.784 0.0196724
17.9743 39.0075 2
14.2659 39.1818 3.97879
17.307 42.1154 0.0221898
14.7629 41.9293 2
12.3718 42.285 3.97782
14.8173 44.2149 0.0218663
12.6862 44.4027 2
10.5507 44.8097 3.97859
12.9463 46.3082 0.0204605
10.974 46.7425 2
8.89968 47.3242 3.98048
11.4719 48.5601 0.0189873
9.51692 49.2466 2
7.42796 50.0385 3.98369
10.2536 51.088 0.0176985
8.2608 52.0066 2
6.13176 53.0096 3.98857
9.22804 53.8949 0.0150717
7.1911 55.0358 2
5.0241 56.25 4
6.31988 58.3339 2
8.3824 56.9865 0.010179
7.74927 60.3285 0
13.4454 26.8036 3.97839
11.9261 24.7783 3.98037
13.2104 25.3512 2
11.1297 22.2245 3.9827
12.8125 23.2674 2
13.9466 21.7378 0.0178851
12.2273 20.5382 2
10.385 19.3113 3.98601
13.4432 18.8899 0.0159088
11.6556 17.5559 2
9.75985 16.1523 3.99085
13.0264 15.8755 0.0136241
11.2191 14.3693 2
9.30607 12.7746 4
12.7819 12.6848 0.00797718
10.9835 10.9835 2
12.7746 9.30605 0
17.7795 33.1017 3.97771
20.4777 33.3829 2
22.9123 33.7917 0.0170557
15.4548 29.6258 3.97622
15.8697 26.3869 2
17.5989 24.0246 0.0179975
14.2892 24.4367 0.02075
18.3163 30.1581 2
18.9794 27.1841 0.0259849
21.069 30.6484 0.0247693
14.8574 36.017 3.97947
17.597 35.9611 2
20.0888 35.9172 0.0175663
12.5658 37.8317 3.97843
17.974 39.0073 0.0212641
14.2661 39.182 2
11.8842 40.1469 3.97878
14.7625 41.9291 0.022643
12.3721 42.2853 2
10.1494 42.7838 3.97816
12.6857 44.4025 0.022023
10.551 44.8099 2
8.3777 45.3251 3.97971
10.9738 46.7423 0.0204014
8.89976 47.3244 2
6.71955 48.0026 3.98266
9.51691 49.2464 0.0183539
7.42788 50.0387 2
5.20845 50.9115 3.98827
8.26092 52.0065 0.0155712
6.13155 53.0091 2
3.86727 54.0858 4
7.19129 55.036 0.0109488
5.02404 56.25 2
6.31991 58.3339 0
12.9002 29.025 3.97554
11.3557 26.4799 3.97943
13.4458 26.8033 2
10.1891 23.9603 3.9813
11.9261 24.778 2
13.2103 25.3513 0.0169573
9.23678 21.1313 3.98517
11.1296 22.224 2
12.8126 23.2677 0.0189044
12.2274 20.5388 0.0163557
10.3849 19.3107 2
8.41557 18.0234 3.99012
11.6555 17.5562 0.0137913
9.75983 16.1522 2
7.74928 14.6715 4
11.2191 14.3693 0.00850703
9.30602 12.7745 2
10.9835 10.9835 0
14.4458 32.8556 3.97755
17.7798 33.1017 2
20.4773 33.3829 0.01997
15.455 29.6257 2
15.8691 26.3866 0.0229007
18.3159 30.1581 0.0254682
12.8536 36.2086 3.97792
14.8579 36.0171 2
17.5964 35.961 0.018807
12.566 37.8318 2
11.2427 38.3132 3.97789
14.2659 39.1818 0.0212056
11.8844 40.1472 2
9.73471 40.759 3.9787
12.3718 42.285 0.0221845
10.1497 42.7841 2
7.92684 43.2733 3.97929
10.5507 44.8097 0.0214093
8.37794 45.3254 2
6.12595 45.907 3.98198
8.89968 47.3242 0.0195162
6.71954 48.0027 2
4.42007 48.7512 3.98806
7.42796 50.0385 0.0163073
5.20824 50.9107 2
2.85457 51.8506 4
6.13176 53.0096 0.0114298
3.86727 54.0858 2
5.0241 56.25 0
12.0409 31.2507 3.97784
10.7683 28.4093 3.97763
12.9003 29.0247 2
9.40405 25.7927 3.98045
11.3559 26.4796 2
13.4454 26.8036 0.0216116
8.22405 23.0184 3.98373
10.189 23.9599 2
11.9261 24.7783 0.0196284
7.19753 19.9741 3.98927
9.23666 21.1309 2
11.1297 22.2245 0.0172975
10.385 19.3113 0.0139914
8.41545 18.0233 2
6.31992 16.6661 4
9.75985 16.1523 0.00915067
7.74926 14.6714 2
9.30607 12.7746 0
12.0583 34.2917 3.97737
14.446 32.8556 2
17.7795 33.1017 0.0222857
15.4548 29.6258 0.0237849
10.8076 36.6115 3.97716
12.854 36.2085 2
14.8574 36.017 0.0205261
12.5658 37.8317 0.0215654
11.2429 38.3133 2
9.33036 38.8266 3.97839
11.8842 40.1469 0.0212228
9.7349 40.7592 2
7.53834 41.2139 3.97929
10.1494 42.7838 0.0218401
7.92702 43.2735 2
5.63801 43.7694 3.98192
8.3777 45.3251 0.020289
6.12608 45.9069 2
3.76586 46.5367 3.988
6.71955 48.0026 0.0173363
4.41991 48.7503 2
1.99014 49.554 4
5.20845 50.9115 0.011731
2.85451 51.8506 2
3.86727 54.0858 0
10.9047 32.9154 3.97844
10.0815 30.3778 3.97808
12.0411 31.2505 2
8.71242 27.7281 3.9794
10.7684 28.4089 2
12.9002 29.025 0.0244551
7.34969 24.9793 3.98285
9.40416 25.7923 2
11.3557 26.4799 0.0205747
6.11441 21.9993 3.98829
8.22395 23.018 2
10.1891 23.9603 0.0187035
5.02411 18.75 4
7.19734 19.9743 2
9.23678 21.1313 0.0148306
8.41557 18.0234 0.00987529
6.3199 16.6661 2
7.74928 14.6715 0
10.4196 34.9988 3.97804
12.0585 34.2917 2
14.4458 32.8556 0.0224512
9.00437 36.986 3.97706
10.8079 36.6115 2
12.8536 36.2086 0.0220816
11.2427 38.3132 0.0221098
9.33058 38.8267 2
7.21964 39.1838 3.97914
9.73471 40.759 0.0213
7.53851 41.2141 2
5.25364 41.6149 3.98168
7.92684 43.2733 0.0207117
5.63812 43.7694 2
3.24372 44.2818 3.988
6.12595 45.907 0.0180154
3.76582 46.5357 2
1.27781 47.2057 4
4.42007 48.7512 0.0119358
1.99012 49.554 2
2.85457 51.8506 0
10.0729 33.8793 3.97832
9.37534 32.1515 3.9786
10.905 32.9153 2
8.06207 29.6929 3.97914
10.0817 30.3776 2
12.0409 31.2507 0.0221595
6.59361 27.0066 3.98205
8.71249 27.7278 2
10.7683 28.4093 0.0223672
5.1696 24.0938 3.98784
7.34973 24.979 2
9.40405 25.7927 0.0195504
3.86728 20.9142 4
6.11417 21.9998 2
8.22405 23.0184 0.0162663
5.02406 18.75 2
7.19753 19.9741 0.0107286
6.31992 16.6661 0
8.83098 35.279 3.97793
10.4199 34.9987 2
12.0583 34.2917 0.0226286
7.00488 37.2067 3.97811
9.00469 36.986 2
10.8076 36.6115 0.0228432
9.33036 38.8266 0.0216105
7.21985 39.1839 2
4.98199 39.468 3.98124
7.53834 41.2139 0.020709
5.25376 41.6148 2
2.85441 42.0024 3.9877
5.63801 43.7694 0.0180755
3.2437 44.281 2
0.720592 44.8159 4
3.76586 46.5367 0.0120036
1.27778 47.2057 2
1.99014 49.554 0
8.87251 33.696 3.97852
10.0731 33.8792 2
7.50007 31.6075 3.9793
9.37551 32.1513 2
10.9047 32.9154 0.0215581
5.93912 29.0686 3.98158
8.06219 29.6927 2
10.0815 30.3778 0.0219217
4.35725 26.2476 3.98775
6.59366 27.0065 2
8.71242 27.7281 0.0206022
2.85458 23.1494 4
5.16942 24.0947 2
7.34969 24.9793 0.0171454
3.86728 20.9142 2
6.11441 21.9993 0.0117091
5.02411 18.75 0
6.95538 35.3061 3.97834
8.83127 35.279 2
10.4196 34.9988 0.0219647
4.83288 37.3402 3.98072
7.00518 37.2067 2
9.00437 36.986 0.0229418
7.21964 39.1838 0.0208579
4.98217 39.468 2
2.60273 39.7142 3.9871
5.25364 41.6149 0.0183226
2.85443 42.0018 2
0.320823 42.3947 4
3.24372 44.2818 0.0120015
0.720551 44.8159 2
1.27781 47.2057 0
7.11469 33.4601 3.97902
8.87272 33.6959 2
10.0729 33.8793 0.0216795
5.41034 31.1332 3.98152
7.5002 31.6074 2
9.37534 32.1515 0.0213975
3.67914 28.444 3.98777
5.9392 29.0687 2
8.06207 29.6929 0.0208619
1.99015 25.446 4
4.35713 26.2486 2
6.59361 27.0066 0.0179501
2.85453 23.1494 2
5.1696 24.0938 0.012165
3.86728 20.9142 0
4.84738 35.2519 3.98075
6.95565 35.3061 2
8.83098 35.279 0.0220707
2.49436 37.4288 3.98691
4.83314 37.3403 2
7.00488 37.2067 0.0218888
4.98199 39.468 0.0187573
2.60281 39.7138 2
0.080333 39.9526 4
2.85441 42.0024 0.0122997
0.320817 42.3947 2
0.720592 44.8159 0
5.04032 33.1903 3.9813
7.11488 33.46 2
8.87251 33.696 0.0214803
3.14368 30.6667 3.98764
5.41042 31.1334 2
7.50007 31.6075 0.0207001
1.27793 27.7943 4
3.67909 28.445 2
5.93912 29.0686 0.0184225
1.99013 25.446 2
4.35725 26.2476 0.0122523
2.85458 23.1494 0
2.54657 35.1594 3.98687
4.84759 35.2521 2
6.95538 35.3061 0.0216639
0 37.5 4
2.49449 37.4288 2
4.83288 37.3402 0.0192846
2.60273 39.7142 0.0128985
0.0802903 39.9526 2
0.320823 42.3947 0
2.76398 32.9062 3.98724
5.04046 33.1906 2
7.11469 33.4601 0.020978
0.721173 30.1842 4
3.14367 30.6674 2
5.41034 31.1332 0.018478
1.27779 27.7943 2
3.67914 28.444 0.0122307
1.99015 25.446 0
0.0806499 35.0474 4
2.54667 35.1597 2
4.84738 35.2519 0.0192476
0 37.5 2
2.49436 37.4288 0.0130873
0.080333 39.9526 0
0.32156 32.6054 4
2.76403 32.9067 2
5.04032 33.1903 0.0187037
0.72056 30.1841 2
3.14368 30.6667 0.0123582
1.27793 27.7943 0
0.0802889 35.0474 2
2.54657 35.1594 0.0131253
0 37.5 0
0.320817 32.6053 2
2.76398 32.9062 0.0127627
0.721173 30.1842 0
0.0806499 35.0474 0
0.32156 32.6054 0
CELLS 1910 17190
8 18 6 25 56 2 0 5 16
8 57 23 6 18 17 4 0 2
8 78 36 9 29 31 11 1 7
8 31 11 1 7 79 37 10 30
8 110 57 18 50 48 17 2 14
8 50 18 56 111 14 2 16 49
8 116 62 22 55 52 20 3 15
8 56 25 67 118 16 5 24 53
8 119 63 23 57 54 21 4 17
8 55 22 63 119 15 3 21 54
8 58 26 68 121 18 6 25 56
8 122 65 26 58 57 23 6 18
8 73 31 7 27 142 79 30 71
8 143 78 29 72 73 31 7 27
8 83 147 76 34 32 74 28 8
8 84 148 78 36 33 75 29 9
8 76 34 8 28 148 84 33 75
8 37 79 150 86 10 30 77 35
8 151 87 36 78 80 38 11 31
8 80 38 11 31 152 88 37 79
8 175 100 42 94 96 44 12 40
8 44 96 176 101 12 40 95 43
8 101 176 98 46 43 95 41 13
8 46 98 178 103 13 41 97 45
8 178 103 45 97 147 83 32 74
8 189 116 55 109 106 52 15 47
8 111 56 118 191 49 16 53 107
8 192 119 57 110 108 54 17 48
8 109 55 119 192 47 15 54 108
8 194 122 58 112 110 57 18 50
8 112 58 121 195 50 18 56 111
8 115 61 19 51 197 124 59 113
8 115 61 125 198 51 19 60 114
8 198 125 62 116 114 60 20 52
8 200 127 64 120 116 62 22 55
8 118 67 132 202 53 24 66 117
8 121 68 133 203 56 25 67 118
8 120 64 128 204 55 22 63 119
8 204 128 65 122 119 63 23 57
8 206 134 68 121 123 69 26 58
8 123 69 26 58 207 131 65 122
8 226 147 74 138 140 76 28 70
8 229 148 75 139 143 78 29 72
8 140 76 28 70 229 148 75 139
8 142 79 30 71 231 150 77 141
8 144 80 31 73 232 152 79 142
8 233 151 78 143 144 80 31 73
8 150 86 35 77 235 154 81 145
8 235 154 81 145 146 82 39 91
8 146 82 39 91 236 155 90 165
8 238 157 83 147 149 85 34 76
8 239 158 84 148 151 87 36 78
8 149 85 34 76 239 158 84 148
8 152 88 37 79 241 160 86 150
8 242 161 87 151 153 89 38 80
8 153 89 38 80 243 162 88 152
8 171 98 41 92 265 178 97 169
8 265 178 97 169 226 147 74 138
8 172 96 40 93 266 176 95 170
8 266 176 95 170 171 98 41 92
8 269 175 94 173 172 96 40 93
8 271 180 99 174 175 100 42 94
8 197 124 59 113 271 180 99 174
8 272 181 100 175 177 102 44 96
8 273 182 101 176 179 104 46 98
8 177 102 44 96 273 182 101 176
8 179 104 46 98 275 184 103 178
8 275 184 103 178 238 157 83 147
8 188 115 51 105 283 197 113 186
8 188 115 198 284 105 51 114 187
8 284 198 116 189 187 114 52 106
8 286 200 120 193 189 116 55 109
8 191 118 202 288 107 53 117 190
8 195 121 203 289 111 56 118 191
8 193 120 204 290 109 55 119 192
8 290 204 122 194 192 119 57 110
8 196 123 58 112 292 207 122 194
8 293 206 121 195 196 123 58 112
8 199 126 61 115 297 211 124 197
8 298 212 127 200 198 125 62 116
8 199 126 212 298 115 61 125 198
8 205 129 64 120 300 214 127 200
8 301 217 130 201 202 132 66 117
8 209 136 168 264 301 217 130 201
8 302 219 132 202 203 133 67 118
8 303 220 133 203 206 134 68 121
8 205 129 215 304 120 64 128 204
8 304 215 131 207 204 128 65 122
8 306 221 134 206 208 135 69 123
8 208 135 69 123 307 218 131 207
8 210 137 167 263 309 223 136 209
8 328 238 147 226 230 149 76 140
8 228 146 91 166 329 236 165 260
8 231 150 77 141 330 235 145 227
8 330 235 145 227 228 146 91 166
8 332 239 148 229 233 151 78 143
8 230 149 76 140 332 239 148 229
8 232 152 79 142 334 241 150 231
8 234 153 80 144 335 243 152 232
8 336 242 151 233 234 153 80 144
8 236 155 90 165 338 245 164 259
8 241 160 86 150 339 246 154 235
8 339 246 154 235 237 156 82 146
8 237 156 82 146 340 247 155 236
8 342 249 157 238 240 159 85 149
8 343 250 158 239 242 161 87 151
8 240 159 85 149 343 250 158 239
8 243 162 88 152 345 252 160 241
8 244 163 253 346 153 89 161 242
8 244 163 89 153 347 254 162 243
8 311 224 261 371 210 137 167 263
8 263 167 262 372 209 136 168 264
8 267 179 98 171 375 275 178 265
8 375 275 178 265 328 238 147 226
8 376 273 176 266 267 179 98 171
8 268 177 96 172 376 273 176 266
8 379 272 175 269 268 177 96 172
8 380 271 174 270 269 175 94 173
8 283 197 113 186 380 271 174 270
8 381 277 180 271 272 181 100 175
8 297 211 124 197 381 277 180 271
8 382 278 181 272 274 183 102 177
8 274 183 102 177 383 279 182 273
8 383 279 182 273 276 185 104 179
8 385 281 184 275 342 249 157 238
8 276 185 104 179 385 281 184 275
8 285 199 115 188 393 297 197 283
8 394 298 200 286 284 198 116 189
8 285 199 298 394 188 115 198 284
8 291 205 120 193 396 300 200 286
8 397 301 201 287 288 202 117 190
8 295 209 264 374 397 301 201 287
8 398 302 202 288 289 203 118 191
8 399 303 203 289 293 206 121 195
8 291 205 304 400 193 120 204 290
8 400 304 207 292 290 204 122 194
8 294 208 123 196 402 307 207 292
8 403 306 206 293 294 208 123 196
8 296 210 263 373 405 309 209 295
8 408 312 213 299 297 211 126 199
8 299 213 313 409 199 126 212 298
8 409 313 214 300 298 212 127 200
8 305 216 129 205 411 315 214 300
8 412 318 217 301 302 219 132 202
8 309 223 136 209 412 318 217 301
8 413 320 219 302 303 220 133 203
8 306 221 321 414 206 134 220 303
8 307 218 131 207 415 316 215 304
8 305 216 316 415 205 129 215 304
8 417 322 221 306 308 222 135 208
8 308 222 135 208 418 319 218 307
8 310 225 137 210 420 325 223 309
8 423 326 224 311 310 225 137 210
8 329 236 165 260 441 338 259 368
8 442 342 238 328 333 240 149 230
8 331 237 146 228 443 340 236 329
8 334 241 150 231 444 339 235 330
8 444 339 235 330 331 237 146 228
8 446 343 239 332 336 242 151 233
8 333 240 149 230 446 343 239 332
8 335 243 152 232 448 345 241 334
8 337 244 153 234 449 347 243 335
8 337 244 346 450 234 153 242 336
8 338 245 164 259 452 349 258 367
8 340 247 155 236 453 350 245 338
8 345 252 160 241 454 351 246 339
8 454 351 246 339 341 248 156 237
8 341 248 156 237 455 352 247 340
8 240 159 251 344 342 249 354 457
8 242 161 253 346 343 250 355 458
8 343 250 355 458 240 159 251 344
8 347 254 162 243 460 357 252 345
8 348 255 358 461 244 163 253 346
8 348 255 163 244 462 359 254 347
8 473 360 257 365 363 256 364 482
8 452 349 258 367 365 257 366 485
8 422 324 369 488 311 224 261 371
8 371 261 370 490 263 167 262 372
8 407 311 371 491 296 210 263 373
8 373 263 372 492 295 209 264 374
8 493 385 275 375 442 342 238 328
8 377 276 179 267 493 385 275 375
8 378 274 177 268 494 383 273 376
8 494 383 273 376 377 276 179 267
8 497 382 272 379 378 274 177 268
8 498 381 271 380 379 272 175 269
8 393 297 197 283 498 381 271 380
8 499 387 277 381 382 278 181 272
8 408 312 211 297 499 387 277 381
8 500 388 278 382 384 280 183 274
8 501 389 279 383 386 282 185 276
8 384 280 183 274 501 389 279 383
8 386 282 185 276 503 391 281 385
8 503 391 281 385 457 354 249 342
8 511 408 299 395 393 297 199 285
8 395 299 409 512 285 199 298 394
8 512 409 300 396 394 298 200 286
8 401 305 205 291 514 411 300 396
8 515 412 301 397 398 302 202 288
8 405 309 209 295 515 412 301 397
8 516 413 302 398 399 303 203 289
8 403 306 414 517 293 206 303 399
8 402 307 207 292 518 415 304 400
8 401 305 415 518 291 205 304 400
8 404 308 208 294 520 418 307 402
8 521 417 306 403 404 308 208 294
8 406 310 210 296 523 420 309 405
8 526 423 311 407 406 310 210 296
8 410 314 213 299 527 424 312 408
8 528 425 315 411 409 313 214 300
8 410 314 425 528 299 213 313 409
8 416 317 216 305 530 427 315 411
8 531 430 318 412 413 320 219 302
8 420 325 223 309 531 430 318 412
8 532 432 320 413 414 321 220 303
8 417 322 433 533 306 221 321 414
8 418 319 218 307 534 428 316 415
8 416 317 428 534 305 216 316 415
8 419 323 434 536 308 222 322 417
8 419 323 222 308 537 431 319 418
8 421 327 225 310 539 438 325 420
8 421 327 439 541 310 225 326 423
8 543 437 324 422 423 326 224 311
8 441 338 259 368 559 452 367 486
8 443 340 236 329 560 453 338 441
8 333 240 344 447 442 342 457 561
8 445 341 237 331 562 455 340 443
8 448 345 241 334 563 454 339 444
8 563 454 339 444 445 341 237 331
8 336 242 346 450 446 343 458 565
8 446 343 458 565 333 240 344 447
8 449 347 243 335 567 460 345 448
8 451 348 244 337 568 462 347 449
8 451 348 461 569 337 244 346 450
8 570 463 349 452 473 360 257 365
8 453 350 245 338 570 463 349 452
8 455 352 247 340 571 464 350 453
8 460 357 252 345 572 465 351 454
8 572 465 351 454 456 353 248 341
8 456 353 248 341 573 466 352 455
8 344 251 356 459 457 354 468 575
8 458 355 469 576 344 251 356 459
8 346 253 358 461 458 355 469 576
8 462 359 254 347 578 471 357 460
8 348 255 359 462 461 358 472 579
8 591 474 360 473 475 361 256 363
8 475 361 256 363 594 477 362 479
8 363 256 364 482 479 362 480 603
8 590 473 365 484 481 363 482 605
8 482 364 257 365 606 483 366 485
8 559 452 367 486 484 365 485 607
8 542 436 487 609 422 324 369 488
8 525 422 488 611 407 311 371 491
8 488 369 489 612 371 261 370 490
8 491 371 490 613 373 263 372 492
8 495 386 276 377 614 503 385 493
8 614 503 385 493 561 457 342 442
8 615 501 383 494 495 386 276 377
8 496 384 274 378 615 501 383 494
8 618 500 382 497 496 384 274 378
8 619 499 381 498 497 382 272 379
8 511 408 297 393 619 499 381 498
8 620 505 387 499 500 388 278 382
8 527 424 312 408 620 505 387 499
8 502 390 506 621 384 280 388 500
8 622 507 389 501 504 392 282 386
8 502 390 280 384 622 507 389 501
8 504 392 282 386 624 509 391 503
8 624 509 391 503 575 468 354 457
8 513 410 299 395 630 527 408 511
8 631 528 411 514 512 409 300 396
8 513 410 528 631 395 299 409 512
8 519 416 305 401 633 530 411 514
8 634 531 412 515 516 413 302 398
8 523 420 309 405 634 531 412 515
8 635 532 413 516 517 414 303 399
8 521 417 533 636 403 306 414 517
8 520 418 307 402 637 534 415 518
8 519 416 534 637 401 305 415 518
8 522 419 308 404 639 537 418 520
8 522 419 536 640 404 308 417 521
8 524 421 310 406 642 539 420 523
8 524 421 541 644 406 310 423 526
8 646 543 422 525 526 423 311 407
8 529 426 314 410 647 544 424 527
8 528 425 545 648 411 315 427 530
8 529 426 545 648 410 314 425 528
8 535 429 317 416 649 546 427 530
8 650 548 430 531 532 432 320 413
8 539 438 325 420 650 548 430 531
8 533 433 550 651 414 321 432 532
8 536 434 551 652 417 322 433 533
8 537 431 319 418 653 547 428 534
8 535 429 547 653 416 317 428 534
8 538 435 552 654 419 323 434 536
8 538 435 323 419 655 549 431 537
8 540 440 327 421 657 556 438 539
8 540 440 557 659 421 327 439 541
8 541 439 555 660 423 326 437 543
8 661 554 436 542 543 437 324 422
8 676 570 452 559 590 473 365 484
8 560 453 338 441 676 570 452 559
8 562 455 340 443 677 571 453 560
8 447 344 459 566 561 457 575 678
8 564 456 341 445 679 573 455 562
8 567 460 345 448 680 572 454 563
8 680 572 454 563 564 456 341 445
8 565 458 576 682 447 344 459 566
8 450 346 461 569 565 458 576 682
8 568 462 347 449 684 578 460 567
8 451 348 462 568 569 461 579 685
8 686 580 463 570 591 474 360 473
8 571 464 350 453 686 580 463 570
8 573 466 352 455 687 581 464 571
8 572 465 582 688 460 357 471 578
8 574 467 582 688 456 353 465 572
8 574 467 353 456 689 583 466 573
8 459 356 470 577 575 468 585 691
8 576 469 586 692 459 356 470 577
8 461 358 472 579 576 469 586 692
8 462 359 471 578 579 472 588 694
8 704 591 473 590 593 475 363 481
8 595 476 592 705 475 361 474 591
8 593 475 363 481 707 594 479 602
8 594 477 362 479 709 598 478 600
8 595 476 361 475 711 597 477 594
8 479 362 480 603 600 478 601 720
8 481 363 482 605 602 479 603 722
8 603 480 364 482 723 604 483 606
8 605 482 365 484 724 606 485 607
8 656 553 608 726 542 436 487 609
8 645 542 609 728 525 422 488 611
8 609 487 610 729 488 369 489 612
8 611 488 612 730 491 371 490 613
8 616 504 386 495 731 624 503 614
8 731 624 503 614 678 575 457 561
8 732 622 501 615 616 504 386 495
8 617 502 384 496 732 622 501 615
8 617 502 621 735 496 384 500 618
8 736 620 499 619 618 500 382 497
8 630 527 408 511 736 620 499 619
8 621 506 626 737 500 388 505 620
8 647 544 424 527 737 626 505 620
8 623 508 627 738 502 390 506 621
8 623 508 390 502 739 628 507 622
8 625 510 628 739 504 392 507 622
8 740 629 509 624 691 585 468 575
8 625 510 392 504 740 629 509 624
8 632 529 410 513 744 647 527 630
8 631 528 648 745 514 411 530 633
8 632 529 648 745 513 410 528 631
8 638 535 416 519 746 649 530 633
8 747 650 531 634 635 532 413 516
8 642 539 420 523 747 650 531 634
8 636 533 651 748 517 414 532 635
8 640 536 652 749 521 417 533 636
8 639 537 418 520 750 653 534 637
8 638 535 653 750 519 416 534 637
8 641 538 419 522 751 655 537 639
8 641 538 654 752 522 419 536 640
8 643 540 421 524 753 657 539 642
8 643 540 659 755 524 421 541 644
8 644 541 660 757 526 423 543 646
8 758 661 542 645 646 543 422 525
8 529 426 544 647 648 545 662 759
8 530 427 545 648 649 546 663 760
8 535 429 546 649 653 547 664 761
8 762 666 548 650 651 550 432 532
8 657 556 438 539 762 666 548 650
8 652 551 668 763 533 433 550 651
8 654 552 669 764 536 434 551 652
8 655 549 431 537 765 665 547 653
8 538 435 549 655 654 552 667 766
8 661 554 671 768 542 436 553 656
8 658 558 440 540 769 674 556 657
8 658 558 675 770 540 440 557 659
8 659 557 673 771 541 439 555 660
8 660 555 672 772 543 437 554 661
8 788 686 570 676 704 591 473 590
8 677 571 453 560 788 686 570 676
8 679 573 455 562 789 687 571 677
8 566 459 577 683 678 575 691 790
8 681 574 456 564 791 689 573 679
8 680 572 688 792 567 460 578 684
8 681 574 688 792 564 456 572 680
8 682 576 692 794 566 459 577 683
8 569 461 579 685 682 576 692 794
8 568 462 578 684 685 579 694 796
8 687 581 464 571 798 696 580 686
8 798 696 580 686 705 592 474 591
8 689 583 466 573 799 697 581 687
8 688 582 698 800 578 471 588 694
8 690 584 698 800 574 467 582 688
8 690 584 467 574 801 699 583 689
8 693 587 701 803 577 470 585 691
8 693 587 470 577 804 702 586 692
8 695 589 702 804 579 472 586 692
8 695 589 472 579 805 703 588 694
8 708 595 705 813 593 475 591 704
8 710 596 706 814 595 476 592 705
8 707 594 479 602 816 709 600 719
8 708 595 475 593 817 711 594 707
8 709 598 478 600 819 715 599 717
8 711 597 477 594 820 714 598 709
8 710 596 476 595 822 713 597 711
8 600 478 601 720 717 599 718 832
8 602 479 603 722 719 600 720 834
8 720 601 480 603 835 721 604 723
8 722 603 482 605 836 723 606 724
8 767 670 725 839 656 553 608 726
8 756 656 726 841 645 542 609 728
8 726 608 727 842 609 487 610 729
8 728 609 729 843 611 488 612 730
8 844 740 624 731 790 691 575 678
8 733 625 504 616 844 740 624 731
8 734 623 502 617 845 739 622 732
8 733 625 739 845 616 504 622 732
8 734 623 738 846 617 502 621 735
8 735 621 737 847 618 500 620 736
8 744 647 527 630 847 737 620 736
8 621 506 627 738 737 626 741 848
8 647 544 626 737 759 662 741 848
8 623 508 628 739 738 627 742 849
8 740 629 585 691 850 743 700 802
8 625 510 629 740 739 628 743 850
8 632 529 647 744 745 648 759 854
8 633 530 648 745 746 649 760 855
8 638 535 649 746 750 653 761 856
8 857 762 650 747 748 651 532 635
8 753 657 539 642 857 762 650 747
8 749 652 763 858 636 533 651 748
8 752 654 764 859 640 536 652 749
8 751 655 537 639 860 765 653 750
8 641 538 655 751 752 654 766 861
8 754 658 540 643 862 769 657 753
8 754 658 770 863 643 540 659 755
8 755 659 771 864 644 541 660 757
8 758 661 768 866 645 542 656 756
8 757 660 772 867 646 543 661 758
8 759 662 773 868 648 545 663 760
8 649 546 663 760 761 664 774 871
8 765 665 547 653 872 775 664 761
8 873 777 666 762 763 668 550 651
8 769 674 556 657 873 777 666 762
8 764 669 779 874 652 551 668 763
8 654 552 667 766 764 669 778 875
8 655 549 665 765 766 667 776 876
8 768 671 782 877 656 553 670 767
8 772 672 783 878 661 554 671 768
8 658 558 674 769 770 675 786 879
8 659 557 675 770 771 673 785 881
8 882 784 672 772 771 673 555 660
8 789 687 571 677 897 798 686 788
8 897 798 686 788 813 705 591 704
8 791 689 573 679 898 799 687 789
8 795 693 803 900 683 577 691 790
8 793 690 574 681 901 801 689 791
8 792 688 800 902 684 578 694 796
8 793 690 800 902 681 574 688 792
8 795 693 577 683 903 804 692 794
8 797 695 804 903 685 579 692 794
8 797 695 579 685 904 805 694 796
8 905 806 697 799 798 696 581 687
8 814 706 806 905 705 592 696 798
8 689 583 697 799 801 699 808 907
8 800 698 809 908 694 588 703 805
8 690 584 699 801 800 698 809 908
8 803 701 810 909 691 585 700 802
8 693 587 702 804 803 701 811 910
8 695 589 703 805 804 702 812 911
8 818 710 814 919 708 595 705 813
8 821 712 815 920 710 596 706 814
8 816 709 600 719 922 819 717 831
8 817 711 594 707 923 820 709 816
8 818 710 595 708 924 822 711 817
8 819 715 599 717 926 827 716 829
8 820 714 598 709 927 826 715 819
8 929 825 713 822 820 714 597 711
8 821 712 596 710 930 824 713 822
8 717 599 718 832 829 716 830 942
8 719 600 720 834 831 717 832 944
8 832 718 601 720 945 833 721 835
8 834 720 603 722 946 835 723 836
8 869 780 838 950 767 670 725 839
8 865 767 839 952 756 656 726 841
8 839 725 840 953 726 608 727 842
8 841 726 842 954 728 609 729 843
8 844 740 691 790 955 850 802 899
8 733 625 740 844 845 739 850 955
8 734 623 739 845 846 738 849 956
8 735 621 738 846 847 737 848 957
8 744 647 737 847 854 759 848 957
8 738 627 742 849 848 741 851 958
8 848 741 851 958 759 662 773 868
8 850 743 700 802 959 852 807 906
8 849 742 628 739 959 852 743 850
8 854 759 868 965 745 648 760 855
8 746 649 760 855 856 761 871 966
8 860 765 653 750 967 872 761 856
8 968 873 762 857 858 763 651 748
8 862 769 657 753 968 873 762 857
8 859 764 874 969 749 652 763 858
8 752 654 766 861 859 764 875 970
8 751 655 765 860 861 766 876 971
8 754 658 769 862 863 770 879 972
8 755 659 770 863 864 771 881 974
8 976 882 772 867 864 771 660 757
8 866 768 877 977 756 656 767 865
8 867 772 878 978 758 661 768 866
8 760 663 773 868 871 774 883 980
8 870 781 837 948 982 890 780 869
8 982 890 780 869 877 782 670 767
8 761 664 774 871 872 775 884 984
8 876 776 665 765 985 885 775 872
8 873 777 668 763 986 887 779 874
8 769 674 777 873 879 786 887 986
8 764 669 778 875 874 779 888 987
8 766 667 776 876 875 778 886 988
8 878 783 892 989 768 671 782 877
8 878 783 672 772 990 893 784 882
8 880 787 675 770 991 896 786 879
8 880 787 895 992 770 675 785 881
8 881 785 894 993 771 673 784 882
8 1006 905 799 898 897 798 687 789
8 919 814 905 1006 813 705 798 897
8 791 689 799 898 901 801 907 1007
8 900 803 909 1009 790 691 802 899
8 795 693 804 903 900 803 910 1010
8 902 800 908 1011 796 694 805 904
8 793 690 801 901 902 800 908 1011
8 797 695 805 904 903 804 911 1012
8 799 697 806 905 907 808 912 1013
8 920 815 912 1013 814 706 806 905
8 802 700 810 909 906 807 913 1014
8 801 699 808 907 908 809 914 1015
8 805 703 809 908 911 812 915 1016
8 803 701 811 910 909 810 916 1017
8 911 812 917 1018 804 702 811 910
8 925 821 920 1030 818 710 814 919
8 928 823 921 1031 821 712 815 920
8 922 819 717 831 1033 926 829 941
8 923 820 709 816 1034 927 819 922
8 1035 929 822 924 923 820 711 817
8 925 821 710 818 1036 930 822 924
8 1038 933 825 929 927 826 714 820
8 926 827 716 829 1039 935 828 939
8 927 826 715 819 1040 934 827 926
8 928 823 712 821 1041 931 824 930
8 1042 932 824 930 929 825 713 822
8 829 716 830 942 939 828 940 1058
8 831 717 832 944 941 829 942 1060
8 942 830 718 832 1061 943 833 945
8 944 832 720 834 1062 945 835 946
8 981 889 947 1064 870 781 837 948
8 948 837 949 1067 869 780 838 950
8 975 869 950 1069 865 767 839 952
8 950 838 951 1070 839 725 840 953
8 952 839 953 1071 841 726 842 954
8 955 850 802 899 1072 959 906 1008
8 956 849 739 845 1072 959 850 955
8 846 738 849 956 957 848 958 1073
8 957 848 958 1073 854 759 868 965
8 849 742 852 959 958 851 961 1076
8 960 853 961 1076 906 807 852 959
8 958 851 961 1076 868 773 883 980
8 960 853 807 906 1077 963 913 1014
8 855 760 868 965 966 871 980 1085
8 856 761 871 966 967 872 984 1086
8 971 876 765 860 1087 985 872 967
8 968 873 763 858 1088 986 874 969
8 862 769 873 968 972 879 986 1088
8 859 764 875 970 969 874 987 1089
8 861 766 876 971 970 875 988 1090
8 973 880 770 863 1091 991 879 972
8 973 880 992 1092 863 770 881 974
8 974 881 993 1093 864 771 882 976
8 979 870 948 1066 1094 982 869 975
8 1094 982 869 975 977 877 767 865
8 978 878 772 867 1095 990 882 976
8 978 878 989 1096 866 768 877 977
8 871 774 883 980 984 884 994 1099
8 983 891 999 1100 870 781 889 981
8 1101 1000 890 982 989 892 782 877
8 983 891 781 870 1101 1000 890 982
8 872 775 884 984 985 885 995 1103
8 876 776 885 985 988 886 996 1104
8 986 887 779 874 1105 998 888 987
8 879 786 887 986 991 896 998 1105
8 875 778 886 988 987 888 997 1106
8 990 893 1002 1107 878 783 892 989
8 1108 1003 893 990 993 894 784 882
8 880 787 896 991 992 895 1005 1109
8 993 894 785 881 1110 1004 895 992
8 898 799 905 1006 1007 907 1013 1120
8 1030 920 1013 1120 919 814 905 1006
8 901 801 907 1007 1011 908 1015 1121
8 899 802 909 1009 1008 906 1014 1122
8 900 803 910 1010 1009 909 1017 1123
8 1012 911 1018 1124 903 804 910 1010
8 904 805 908 1011 1012 911 1016 1125
8 1013 912 1020 1127 907 808 914 1015
8 1031 921 1020 1127 920 815 912 1013
8 1019 918 962 1075 1128 1021 913 1014
8 1128 1021 913 1014 1017 916 810 909
8 1015 914 1022 1129 908 809 915 1016
8 1016 915 1023 1130 911 812 917 1018
8 1018 917 1024 1131 910 811 916 1017
8 1037 928 1031 1148 925 821 920 1030
8 928 823 931 1041 1031 921 1032 1149
8 1033 926 829 941 1151 1039 939 1057
8 1034 927 819 922 1152 1040 926 1033
8 1153 1038 929 1035 1034 927 820 923
8 1154 1042 930 1036 1035 929 822 924
8 1037 928 821 925 1155 1041 930 1036
8 1039 935 828 939 1156 1047 938 1055
8 1157 1043 932 1042 1038 933 825 929
8 1038 933 826 927 1158 1045 934 1040
8 1040 934 827 926 1159 1046 935 1039
8 930 824 932 1042 1041 931 1044 1160
8 1051 936 1048 1165 1175 1052 937 1053
8 1156 1047 938 1055 1053 937 1054 1178
8 939 828 940 1058 1055 938 1056 1181
8 941 829 942 1060 1057 939 1058 1183
8 942 830 943 1061 1058 940 1059 1184
8 1060 942 832 944 1185 1061 945 1062
8 1082 964 1063 1188 981 889 947 1064
8 1097 981 1064 1190 979 870 948 1066
8 1064 947 1065 1191 948 837 949 1067
8 1066 948 1067 1193 975 869 950 1069
8 1067 949 1068 1194 950 838 951 1070
8 1069 950 1070 1195 952 839 953 1071
8 956 849 959 1072 1073 958 1076 1197
8 1074 960 1076 1197 1008 906 959 1072
8 1073 958 1076 1197 965 868 980 1085
8 1074 960 906 1008 1198 1077 1014 1122
8 1133 1026 1079 1199 1019 918 962 1075
8 1077 963 913 1014 1200 1080 962 1075
8 960 853 963 1077 1076 961 1078 1201
8 980 883 961 1076 1099 994 1078 1201
8 1210 1083 964 1082 1100 999 889 981
8 966 871 980 1085 1086 984 1099 1215
8 967 872 984 1086 1087 985 1103 1216
8 971 876 985 1087 1090 988 1104 1217
8 1088 986 874 969 1218 1105 987 1089
8 972 879 986 1088 1091 991 1105 1218
8 970 875 988 1090 1089 987 1106 1219
8 973 880 991 1091 1092 992 1109 1220
8 1093 993 881 974 1221 1110 992 1092
8 1222 1108 990 1095 1093 993 882 976
8 1223 1101 982 1094 1096 989 877 977
8 1098 983 870 979 1223 1101 982 1094
8 1095 990 1107 1224 978 878 989 1096
8 1098 983 1100 1225 979 870 981 1097
8 984 884 994 1099 1103 995 1111 1227
8 1102 1001 1115 1228 983 891 999 1100
8 1101 1000 892 989 1229 1116 1002 1107
8 1102 1001 891 983 1229 1116 1000 1101
8 985 885 995 1103 1104 996 1112 1230
8 988 886 996 1104 1106 997 1113 1231
8 1105 998 888 987 1232 1114 997 1106
8 991 896 998 1105 1109 1005 1114 1232
8 1108 1003 1117 1233 990 893 1002 1107
8 1108 1003 894 993 1233 1117 1004 1110
8 992 895 1005 1109 1110 1004 1118 1234
8 1120 1013 1127 1244 1007 907 1015 1121
8 1148 1031 1127 1244 1030 920 1013 1120
8 1121 1015 1129 1245 1011 908 1016 1125
8 1126 1019 1075 1196 1246 1128 1014 1122
8 1246 1128 1014 1122 1123 1017 909 1009
8 1124 1018 1131 1247 1010 910 1017 1123
8 1125 1016 1130 1248 1012 911 1018 1124
8 1127 1020 1137 1254 1015 914 1022 1129
8 1031 921 1032 1149 1127 1020 1137 1254
8 1134 1027 918 1019 1257 1140 1021 1128
8 1257 1140 1021 1128 1131 1024 916 1017
8 1129 1022 1141 1258 1016 915 1023 1130
8 1130 1023 1142 1259 1018 917 1024 1131
8 1261 1144 1025 1132 1133 1026 1079 1199
8 1255 1138 1025 1132 1135 1028 1144 1261
8 1133 1026 918 1019 1262 1145 1027 1134
8 1136 1029 1139 1256 1263 1146 1028 1135
8 1037 928 1041 1155 1148 1031 1149 1275
8 1041 931 1044 1160 1149 1032 1150 1276
8 1151 1039 939 1057 1278 1156 1055 1180
8 1152 1040 926 1033 1279 1159 1039 1151
8 1153 1038 927 1034 1280 1158 1040 1152
8 1281 1157 1042 1154 1153 1038 929 1035
8 1036 930 1042 1154 1155 1041 1160 1282
8 1283 1164 1046 1159 1156 1047 935 1039
8 1165 1048 1164 1283 1053 937 1047 1156
8 1157 1043 933 1038 1284 1161 1045 1158
8 1157 1043 1161 1284 1042 932 1044 1160
8 1040 934 1046 1159 1158 1045 1163 1285
8 1166 1049 1167 1292 1051 936 1048 1165
8 1166 1049 936 1051 1293 1168 1050 1172
8 1051 936 1052 1175 1172 1050 1173 1306
8 1174 1051 1165 1290 1308 1175 1053 1177
8 1053 937 1054 1178 1175 1052 1176 1309
8 1278 1156 1055 1180 1177 1053 1178 1311
8 1055 938 1056 1181 1178 1054 1179 1312
8 1057 939 1058 1183 1180 1055 1181 1314
8 1058 940 1059 1184 1181 1056 1182 1315
8 1060 942 1061 1185 1183 1058 1184 1316
8 1208 1081 1187 1321 1082 964 1063 1188
8 1209 1082 1188 1322 1097 981 1064 1190
8 1188 1063 1189 1323 1064 947 1065 1191
8 1190 1064 1191 1325 1066 948 1067 1193
8 1191 1065 1192 1326 1067 949 1068 1194
8 1067 1193 1069 950 1194 1327 1195 1070
8 1250 1133 1199 1330 1126 1019 1075 1196
8 1198 1077 1014 1122 1331 1200 1075 1196
8 1074 960 1077 1198 1197 1076 1201 1332
8 1085 980 1076 1197 1215 1099 1201 1332
8 1199 1079 1203 1333 1075 962 1080 1200
8 1132 1025 1119 1243 1199 1079 1203 1333
8 1201 1078 963 1077 1334 1202 1080 1200
8 1099 994 1078 1201 1227 1111 1202 1334
8 1343 1207 1081 1208 1210 1083 964 1082
8 1214 1084 1186 1319 1343 1207 1081 1208
8 1345 1210 1082 1209 1225 1100 981 1097
8 1346 1211 1083 1210 1228 1115 999 1100
8 1086 984 1099 1215 1216 1103 1227 1352
8 1087 985 1103 1216 1217 1104 1230 1353
8 1090 988 1104 1217 1219 1106 1231 1354
8 1218 1105 987 1089 1355 1232 1106 1219
8 1091 991 1105 1218 1220 1109 1232 1355
8 1092 992 1109 1220 1221 1110 1234 1356
8 1222 1108 1233 1357 1095 990 1107 1224
8 1222 1108 993 1093 1357 1233 1110 1221
8 1223 1101 989 1096 1358 1229 1107 1224
8 1226 1102 983 1098 1358 1229 1101 1223
8 1226 1102 1228 1359 1098 983 1100 1225
8 1103 995 1111 1227 1230 1112 1235 1360
8 1107 1002 1117 1233 1229 1116 1240 1362
8 1102 1001 1116 1229 1228 1115 1240 1362
8 1104 996 1112 1230 1231 1113 1236 1363
8 1364 1237 1114 1232 1231 1113 997 1106
8 1109 1005 1114 1232 1234 1118 1238 1365
8 1110 1004 1118 1234 1233 1117 1241 1366
8 1242 1374 1255 1138 1119 1243 1132 1025
8 1244 1127 1254 1376 1121 1015 1129 1245
8 1148 1031 1149 1275 1244 1127 1254 1376
8 1245 1129 1258 1377 1125 1016 1130 1248
8 1251 1134 1019 1126 1378 1257 1128 1246
8 1378 1257 1128 1246 1247 1131 1017 1123
8 1248 1130 1259 1379 1124 1018 1131 1247
8 1261 1381 1250 1133 1132 1249 1330 1199
8 1255 1380 1252 1135 1132 1249 1381 1261
8 1250 1133 1019 1126 1382 1262 1134 1251
8 1253 1136 1256 1385 1384 1263 1135 1252
8 1254 1137 1265 1387 1129 1022 1141 1258
8 1149 1032 1150 1276 1254 1137 1265 1387
8 1028 1135 1255 1138 1139 1256 1388 1266
8 1136 1029 1147 1264 1256 1139 1267 1389
8 1390 1268 1140 1257 1259 1142 1024 1131
8 1260 1143 1027 1134 1390 1268 1140 1257
8 1258 1141 1269 1391 1130 1023 1142 1259
8 1262 1145 1027 1134 1393 1271 1143 1260
8 1261 1144 1026 1133 1394 1272 1145 1262
8 1135 1028 1144 1261 1263 1146 1272 1394
8 1136 1029 1146 1263 1264 1147 1273 1395
8 1155 1041 1160 1282 1275 1149 1276 1405
8 1276 1150 1044 1160 1406 1277 1162 1286
8 1408 1283 1159 1279 1278 1156 1039 1151
8 1290 1165 1283 1408 1177 1053 1156 1278
8 1152 1040 1159 1279 1280 1158 1285 1409
8 1281 1157 1038 1153 1410 1284 1158 1280
8 1281 1157 1284 1410 1154 1042 1160 1282
8 1159 1046 1164 1283 1285 1163 1289 1412
8 1292 1167 1289 1412 1165 1048 1164 1283
8 1158 1045 1163 1285 1284 1161 1288 1413
8 1284 1161 1288 1413 1160 1044 1162 1286
8 1291 1166 1292 1418 1174 1051 1165 1290
8 1291 1166 1051 1174 1419 1293 1172 1305
8 1294 1169 1296 1421 1166 1049 1167 1292
8 1293 1168 1050 1172 1422 1295 1171 1303
8 1294 1169 1049 1166 1423 1297 1168 1293
8 1422 1295 1171 1303 1301 1170 1302 1435
8 1172 1050 1173 1306 1303 1171 1304 1438
8 1174 1051 1175 1308 1305 1172 1306 1440
8 1175 1052 1176 1309 1306 1173 1307 1441
8 1177 1053 1178 1311 1308 1175 1309 1443
8 1178 1054 1179 1312 1309 1176 1310 1444
8 1180 1055 1181 1314 1311 1178 1312 1446
8 1056 1181 1312 1179 1182 1315 1447 1313
8 1183 1058 1184 1316 1314 1181 1315 1448
8 1319 1186 1084 1214 1451 1317 1213 1350
8 1319 1186 1318 1453 1208 1081 1187 1321
8 1321 1187 1320 1456 1188 1063 1189 1323
8 1344 1208 1321 1457 1209 1082 1188 1322
8 1322 1188 1323 1458 1190 1064 1191 1325
8 1323 1189 1324 1459 1191 1065 1192 1326
8 1191 1325 1193 1067 1326 1460 1327 1194
8 1242 1374 1243 1119 1328 1462 1335 1204
8 1330 1199 1333 1465 1196 1075 1200 1331
8 1132 1249 1330 1199 1243 1375 1465 1333
8 1332 1201 1077 1198 1466 1334 1200 1331
8 1215 1099 1201 1332 1352 1227 1334 1466
8 1119 1243 1333 1203 1204 1335 1470 1338
8 1333 1203 1338 1470 1200 1080 1202 1334
8 1227 1111 1202 1334 1360 1235 1338 1470
8 1328 1462 1335 1204 1205 1336 1471 1339
8 1337 1206 1340 1472 1464 1329 1205 1336
8 1346 1211 1342 1479 1210 1083 1207 1343
8 1346 1211 1115 1228 1479 1342 1239 1361
8 1348 1212 1084 1214 1479 1342 1207 1343
8 1480 1343 1208 1344 1345 1210 1082 1209
8 1351 1214 1319 1454 1480 1343 1208 1344
8 1481 1346 1210 1345 1359 1228 1100 1225
8 1348 1212 1347 1483 1214 1084 1213 1350
8 1216 1103 1227 1352 1353 1230 1360 1488
8 1217 1104 1230 1353 1354 1231 1363 1489
8 1490 1364 1232 1355 1354 1231 1106 1219
8 1220 1109 1232 1355 1356 1234 1365 1491
8 1221 1110 1234 1356 1357 1233 1366 1492
8 1224 1107 1233 1357 1358 1229 1362 1493
8 1226 1102 1229 1358 1359 1228 1362 1493
8 1230 1112 1235 1360 1363 1236 1367 1496
8 1361 1239 1115 1228 1497 1371 1240 1362
8 1366 1241 1372 1498 1233 1117 1240 1362
8 1364 1237 1113 1231 1499 1368 1236 1363
8 1364 1237 1368 1499 1232 1114 1238 1365
8 1234 1118 1238 1365 1366 1241 1369 1500
8 1507 1373 1242 1374 1388 1266 1138 1255
8 1508 1374 1243 1375 1380 1255 1132 1249
8 1376 1254 1387 1509 1245 1129 1258 1377
8 1275 1149 1276 1405 1376 1254 1387 1509
8 1377 1258 1391 1510 1248 1130 1259 1379
8 1511 1390 1257 1378 1379 1259 1131 1247
8 1383 1260 1134 1251 1511 1390 1257 1378
8 1252 1135 1256 1385 1380 1255 1388 1512
8 1261 1381 1513 1394 1133 1250 1382 1262
8 1135 1252 1384 1263 1261 1381 1513 1394
8 1382 1262 1134 1251 1514 1393 1260 1383
8 1253 1136 1263 1384 1386 1264 1395 1516
8 1253 1136 1264 1386 1385 1256 1389 1517
8 1387 1265 1397 1519 1258 1141 1269 1391
8 1276 1150 1277 1406 1387 1265 1397 1519
8 1256 1139 1267 1389 1388 1266 1398 1520
8 1264 1147 1274 1396 1389 1267 1399 1521
8 1392 1270 1143 1260 1522 1400 1268 1390
8 1390 1268 1142 1259 1522 1400 1269 1391
8 1392 1270 1401 1523 1260 1143 1271 1393
8 1272 1394 1524 1402 1145 1262 1393 1271
8 1395 1273 1146 1263 1524 1402 1272 1394
8 1273 1395 1264 1147 1403 1526 1396 1274
8 1405 1276 1160 1282 1534 1406 1286 1411
8 1414 1287 1407 1535 1286 1162 1277 1406
8 1279 1159 1283 1408 1409 1285 1412 1537
8 1418 1292 1412 1537 1290 1165 1283 1408
8 1280 1158 1285 1409 1410 1284 1413 1538
8 1410 1284 1413 1538 1282 1160 1286 1411
8 1285 1163 1289 1412 1413 1288 1417 1540
8 1421 1296 1417 1540 1292 1167 1289 1412
8 1414 1287 1162 1286 1541 1416 1288 1413
8 1420 1294 1421 1545 1291 1166 1292 1418
8 1419 1293 1172 1305 1546 1422 1303 1437
8 1420 1294 1166 1291 1547 1423 1293 1419
8 1294 1169 1297 1423 1421 1296 1425 1548
8 1423 1297 1168 1293 1549 1424 1295 1422
8 1301 1170 1298 1427 1422 1295 1424 1549
8 1432 1300 1428 1554 1301 1170 1298 1427
8 1431 1299 1428 1554 1560 1430 1300 1432
8 1563 1433 1300 1432 1435 1302 1170 1301
8 1546 1422 1303 1437 1434 1301 1435 1565
8 1303 1171 1304 1438 1435 1302 1436 1566
8 1305 1172 1306 1440 1437 1303 1438 1568
8 1306 1173 1307 1441 1438 1304 1439 1569
8 1308 1175 1309 1443 1440 1306 1441 1571
8 1309 1176 1310 1444 1441 1307 1442 1572
8 1311 1178 1312 1446 1443 1309 1444 1574
8 1179 1312 1444 1310 1313 1447 1575 1445
8 1314 1181 1315 1448 1446 1312 1447 1576
8 1350 1213 1349 1486 1451 1317 1449 1579
8 1451 1317 1450 1581 1319 1186 1318 1453
8 1454 1319 1214 1351 1582 1451 1350 1487
8 1453 1318 1452 1584 1321 1187 1320 1456
8 1454 1319 1453 1585 1344 1208 1321 1457
8 1456 1320 1455 1586 1323 1189 1324 1459
8 1457 1321 1456 1587 1322 1188 1323 1458
8 1458 1323 1459 1588 1325 1191 1326 1460
8 1205 1336 1464 1329 1328 1462 1590 1461
8 1507 1373 1461 1590 1374 1242 1328 1462
8 1508 1374 1462 1591 1375 1243 1335 1467
8 1337 1206 1329 1464 1473 1341 1463 1594
8 1375 1243 1335 1467 1465 1333 1470 1596
8 1465 1333 1470 1596 1331 1200 1334 1466
8 1352 1227 1334 1466 1488 1360 1470 1596
8 1591 1462 1336 1468 1467 1335 1471 1597
8 1469 1337 1472 1598 1595 1464 1336 1468
8 1471 1339 1474 1600 1335 1204 1338 1470
8 1600 1474 1367 1496 1470 1338 1235 1360
8 1336 1205 1340 1472 1471 1339 1475 1601
8 1337 1206 1341 1473 1472 1340 1476 1602
8 1495 1370 1478 1609 1361 1239 1342 1479
8 1348 1212 1342 1479 1483 1347 1478 1609
8 1481 1346 1479 1610 1345 1210 1343 1480
8 1481 1346 1228 1359 1610 1479 1361 1494
8 1484 1348 1214 1351 1610 1479 1343 1480
8 1483 1347 1482 1612 1350 1213 1349 1486
8 1484 1348 1483 1613 1351 1214 1350 1487
8 1353 1230 1360 1488 1489 1363 1496 1616
8 1490 1364 1231 1354 1617 1499 1363 1489
8 1490 1364 1499 1617 1355 1232 1365 1491
8 1356 1234 1365 1491 1492 1366 1500 1619
8 1492 1366 1498 1620 1357 1233 1362 1493
8 1494 1361 1228 1359 1621 1497 1362 1493
8 1495 1370 1239 1361 1622 1504 1371 1497
8 1363 1236 1367 1496 1499 1368 1501 1623
8 1497 1371 1240 1362 1624 1505 1372 1498
8 1625 1503 1372 1498 1500 1369 1241 1366
8 1365 1238 1368 1499 1500 1369 1502 1626
8 1520 1398 1506 1633 1388 1266 1373 1507
8 1634 1507 1374 1508 1512 1388 1255 1380
8 1509 1387 1519 1635 1377 1258 1391 1510
8 1405 1276 1406 1534 1509 1387 1519 1635
8 1515 1392 1260 1383 1636 1522 1390 1511
8 1511 1390 1259 1379 1636 1522 1391 1510
8 1385 1256 1389 1517 1512 1388 1520 1637
8 1513 1394 1262 1382 1638 1524 1393 1514
8 1395 1516 1638 1524 1263 1384 1513 1394
8 1515 1392 1523 1639 1383 1260 1393 1514
8 1516 1395 1526 1640 1386 1264 1396 1518
8 1386 1264 1396 1518 1517 1389 1521 1641
8 1519 1397 1527 1643 1391 1269 1400 1522
8 1535 1407 1527 1643 1406 1277 1397 1519
8 1389 1267 1399 1521 1520 1398 1528 1644
8 1645 1529 1399 1521 1525 1404 1274 1396
8 1392 1270 1400 1522 1523 1401 1531 1646
8 1524 1402 1271 1393 1648 1532 1401 1523
8 1403 1526 1648 1532 1273 1395 1524 1402
8 1525 1404 1274 1396 1649 1533 1403 1526
8 1539 1414 1535 1657 1411 1286 1406 1534
8 1542 1415 1536 1658 1414 1287 1407 1535
8 1409 1285 1412 1537 1538 1413 1540 1660
8 1545 1421 1540 1660 1418 1292 1412 1537
8 1539 1414 1286 1411 1661 1541 1413 1538
8 1540 1417 1544 1663 1413 1288 1416 1541
8 1421 1296 1425 1548 1540 1417 1544 1663
8 1542 1415 1287 1414 1664 1543 1416 1541
8 1420 1294 1423 1547 1545 1421 1548 1666
8 1547 1423 1293 1419 1667 1549 1422 1546
8 1434 1301 1427 1553 1546 1422 1549 1667
8 1423 1297 1424 1549 1548 1425 1550 1668
8 1551 1426 1550 1668 1427 1298 1424 1549
8 1551 1426 1298 1427 1671 1552 1428 1554
8 1562 1432 1554 1674 1434 1301 1427 1553
8 1431 1299 1429 1558 1554 1428 1555 1675
8 1431 1299 1430 1560 1558 1429 1557 1680
8 1560 1430 1300 1432 1683 1559 1433 1563
8 1561 1431 1554 1674 1684 1560 1432 1562
8 1685 1563 1432 1562 1565 1435 1301 1434
8 1435 1302 1436 1566 1563 1433 1564 1686
8 1437 1303 1438 1568 1565 1435 1566 1688
8 1438 1304 1439 1569 1566 1436 1567 1689
8 1440 1306 1441 1571 1568 1438 1569 1691
8 1441 1307 1442 1572 1569 1439 1570 1692
8 1443 1309 1444 1574 1571 1441 1572 1694
8 1310 1444 1572 1442 1445 1575 1695 1573
8 1446 1312 1447 1576 1574 1444 1575 1696
8 1486 1349 1485 1614 1579 1449 1577 1699
8 1451 1317 1449 1579 1581 1450 1578 1701
8 1487 1350 1486 1615 1582 1451 1579 1702
8 1581 1450 1580 1704 1453 1318 1452 1584
8 1582 1451 1581 1705 1454 1319 1453 1585
8 1584 1452 1583 1706 1456 1320 1455 1586
8 1585 1453 1584 1707 1457 1321 1456 1587
8 1587 1456 1586 1708 1458 1323 1459 1588
8 1633 1506 1589 1710 1507 1373 1461 1590
8 1464 1329 1461 1590 1594 1463 1589 1710
8 1468 1336 1462 1591 1595 1464 1590 1711
8 1634 1507 1590 1711 1508 1374 1462 1591
8 1473 1341 1463 1594 1603 1477 1593 1716
8 1469 1337 1464 1595 1599 1473 1594 1717
8 1471 1597 1467 1335 1600 1718 1596 1470
8 1718 1600 1496 1616 1596 1470 1360 1488
8 1336 1468 1597 1471 1472 1598 1719 1601
8 1469 1337 1473 1599 1598 1472 1602 1720
8 1722 1604 1501 1623 1600 1474 1367 1496
8 1475 1601 1471 1339 1604 1722 1600 1474
8 1602 1476 1605 1723 1472 1340 1475 1601
8 1476 1602 1724 1606 1341 1473 1603 1477
8 1483 1347 1478 1609 1612 1482 1608 1731
8 1495 1370 1504 1622 1609 1478 1608 1731
8 1618 1495 1609 1732 1494 1361 1479 1610
8 1484 1348 1479 1610 1613 1483 1609 1732
8 1486 1349 1482 1612 1614 1485 1611 1733
8 1613 1483 1612 1734 1487 1350 1486 1615
8 1489 1363 1496 1616 1617 1499 1623 1736
8 1491 1365 1499 1617 1619 1500 1626 1737
8 1618 1495 1361 1494 1738 1622 1497 1621
8 1739 1625 1498 1620 1619 1500 1366 1492
8 1621 1497 1362 1493 1740 1624 1498 1620
8 1742 1631 1504 1622 1624 1505 1371 1497
8 1743 1628 1502 1626 1623 1501 1368 1499
8 1744 1630 1505 1624 1625 1503 1372 1498
8 1745 1629 1503 1625 1626 1502 1369 1500
8 1520 1398 1528 1644 1633 1506 1632 1751
8 1637 1520 1633 1752 1512 1388 1507 1634
8 1635 1519 1643 1753 1510 1391 1522 1636
8 1657 1535 1643 1753 1534 1406 1519 1635
8 1515 1392 1522 1636 1639 1523 1646 1754
8 1517 1389 1521 1641 1637 1520 1644 1755
8 1524 1638 1756 1648 1393 1514 1639 1523
8 1640 1526 1395 1516 1756 1648 1524 1638
8 1642 1525 1396 1518 1757 1649 1526 1640
8 1758 1645 1521 1641 1642 1525 1396 1518
8 1646 1531 1400 1522 1760 1650 1527 1643
8 1535 1407 1536 1658 1643 1527 1650 1760
8 1521 1399 1529 1645 1644 1528 1651 1761
8 1647 1530 1652 1762 1525 1404 1529 1645
8 1401 1523 1648 1532 1531 1646 1763 1655
8 1525 1404 1533 1649 1647 1530 1654 1765
8 1533 1649 1766 1656 1403 1526 1648 1532
8 1662 1542 1658 1774 1539 1414 1535 1657
8 1542 1415 1543 1664 1658 1536 1659 1775
8 1660 1540 1663 1777 1538 1413 1541 1661
8 1545 1421 1548 1666 1660 1540 1663 1777
8 1662 1542 1414 1539 1778 1664 1541 1661
8 1664 1543 1416 1541 1779 1665 1544 1663
8 1548 1425 1550 1668 1663 1544 1665 1779
8 1547 1423 1549 1667 1666 1548 1668 1781
8 1670 1551 1668 1781 1553 1427 1549 1667
8 1551 1426 1552 1671 1668 1550 1669 1782
8 1670 1551 1427 1553 1784 1671 1554 1674
8 1675 1555 1672 1785 1554 1428 1552 1671
8 1678 1556 1673 1789 1558 1429 1555 1675
8 1561 1431 1558 1681 1674 1554 1675 1790
8 1794 1677 1556 1678 1680 1557 1429 1558
8 1560 1430 1559 1683 1680 1557 1679 1797
8 1561 1431 1560 1684 1681 1558 1680 1798
8 1563 1433 1564 1686 1683 1559 1682 1800
8 1684 1560 1432 1562 1801 1683 1563 1685
8 1565 1435 1566 1688 1685 1563 1686 1802
8 1566 1436 1567 1689 1686 1564 1687 1803
8 1568 1438 1569 1691 1688 1566 1689 1805
8 1569 1439 1570 1692 1689 1567 1690 1806
8 1571 1441 1572 1694 1691 1569 1692 1808
8 1442 1572 1692 1570 1573 1695 1809 1693
8 1574 1444 1575 1696 1694 1572 1695 1810
8 1614 1485 1592 1712 1699 1577 1697 1813
8 1579 1449 1577 1699 1701 1578 1698 1815
8 1615 1486 1614 1735 1702 1579 1699 1816
8 1701 1578 1700 1818 1581 1450 1580 1704
8 1582 1451 1579 1702 1705 1581 1701 1819
8 1704 1580 1703 1820 1584 1452 1583 1706
8 1705 1581 1704 1821 1585 1453 1584 1707
8 1707 1584 1706 1822 1587 1456 1586 1708
8 1710 1589 1506 1633 1824 1709 1632 1751
8 1594 1463 1589 1710 1716 1593 1709 1824
8 1752 1633 1710 1825 1634 1507 1590 1711
8 1595 1464 1590 1711 1717 1594 1710 1825
8 1830 1714 1592 1712 1733 1611 1485 1614
8 1603 1477 1593 1716 1725 1607 1715 1834
8 1599 1473 1594 1717 1721 1603 1716 1835
8 1837 1722 1623 1736 1718 1600 1496 1616
8 1719 1601 1722 1837 1597 1471 1600 1718
8 1602 1720 1598 1472 1723 1838 1719 1601
8 1720 1602 1473 1599 1839 1724 1603 1721
8 1723 1605 1726 1840 1601 1475 1604 1722
8 1840 1726 1628 1743 1722 1604 1501 1623
8 1724 1606 1727 1841 1602 1476 1605 1723
8 1725 1607 1728 1842 1603 1477 1606 1724
8 1612 1482 1608 1731 1733 1611 1730 1849
8 1741 1627 1730 1849 1622 1504 1608 1731
8 1613 1483 1609 1732 1734 1612 1731 1850
8 1618 1495 1622 1738 1732 1609 1731 1850
8 1615 1486 1612 1734 1735 1614 1733 1851
8 1852 1743 1626 1737 1736 1623 1499 1617
8 1853 1745 1625 1739 1737 1626 1500 1619
8 1855 1742 1622 1738 1740 1624 1497 1621
8 1856 1744 1624 1740 1739 1625 1498 1620
8 1741 1627 1504 1622 1857 1746 1631 1742
8 1742 1631 1505 1624 1858 1749 1630 1744
8 1859 1747 1629 1745 1743 1628 1502 1626
8 1860 1748 1630 1744 1745 1629 1503 1625
8 1644 1528 1651 1761 1751 1632 1750 1865
8 1637 1520 1644 1755 1752 1633 1751 1866
8 1754 1646 1522 1636 1867 1760 1643 1753
8 1657 1535 1658 1774 1753 1643 1760 1867
8 1639 1523 1646 1754 1756 1648 1763 1868
8 1641 1521 1645 1758 1755 1644 1761 1869
8 1757 1649 1526 1640 1870 1766 1648 1756
8 1642 1525 1649 1757 1759 1647 1765 1871
8 1759 1647 1762 1872 1642 1525 1645 1758
8 1760 1650 1767 1874 1646 1531 1655 1763
8 1658 1536 1659 1775 1760 1650 1767 1874
8 1762 1652 1768 1875 1645 1529 1651 1761
8 1764 1653 1769 1876 1647 1530 1652 1762
8 1656 1766 1877 1773 1532 1648 1763 1655
8 1771 1879 1765 1654 1653 1764 1647 1530
8 1533 1649 1765 1654 1656 1766 1880 1772
8 1662 1542 1664 1778 1774 1658 1775 1887
8 1664 1543 1665 1779 1775 1659 1776 1888
8 1778 1664 1541 1661 1890 1779 1663 1777
8 1666 1548 1668 1781 1777 1663 1779 1890
8 1782 1669 1780 1891 1668 1550 1665 1779
8 1670 1551 1671 1784 1781 1668 1782 1893
8 1671 1552 1672 1785 1782 1669 1783 1894
8 1790 1675 1785 1896 1674 1554 1671 1784
8 1675 1555 1673 1789 1785 1672 1786 1897
8 1792 1676 1788 1903 1678 1556 1673 1789
8 1795 1678 1789 1904 1681 1558 1675 1790
8 1792 1676 1556 1678 1906 1791 1677 1794
8 1680 1557 1679 1797 1794 1677 1793 1909
8 1910 1794 1678 1795 1798 1680 1558 1681
8 1683 1559 1682 1800 1797 1679 1796 1912
8 1684 1560 1683 1801 1798 1680 1797 1913
8 1686 1564 1687 1803 1800 1682 1799 1915
8 1685 1563 1686 1802 1801 1683 1800 1916
8 1688 1566 1689 1805 1802 1686 1803 1917
8 1689 1567 1690 1806 1803 1687 1804 1918
8 1691 1569 1692 1808 1805 1689 1806 1920
8 1692 1570 1693 1809 1806 1690 1807 1921
8 1694 1572 1695 1810 1808 1692 1809 1922
8 1829 1713 1811 1926 1712 1592 1697 1813
8 1813 1697 1812 1928 1699 1577 1698 1815
8 1735 1614 1712 1828 1816 1699 1813 1929
8 1815 1698 1814 1931 1701 1578 1700 1818
8 1702 1579 1699 1816 1819 1701 1815 1932
8 1818 1700 1817 1933 1704 1580 1703 1820
8 1819 1701 1818 1934 1705 1581 1704 1821
8 1821 1704 1820 1935 1707 1584 1706 1822
8 1824 1709 1632 1751 1937 1823 1750 1865
8 1716 1593 1709 1824 1834 1715 1823 1937
8 1825 1710 1633 1752 1938 1824 1751 1866
8 1717 1594 1710 1825 1835 1716 1824 1938
8 1945 1830 1712 1828 1851 1733 1614 1735
8 1830 1714 1831 1946 1712 1592 1713 1829
8 1947 1832 1714 1830 1849 1730 1611 1733
8 1843 1729 1607 1725 1950 1833 1715 1834
8 1721 1603 1716 1835 1836 1725 1834 1951
8 1836 1725 1842 1953 1721 1603 1724 1839
8 1723 1838 1719 1601 1840 1954 1837 1722
8 1954 1840 1743 1852 1837 1722 1623 1736
8 1724 1839 1720 1602 1841 1955 1838 1723
8 1841 1727 1844 1956 1723 1605 1726 1840
8 1956 1844 1747 1859 1840 1726 1628 1743
8 1728 1842 1724 1606 1845 1957 1841 1727
8 1725 1607 1729 1843 1842 1728 1846 1958
8 1741 1627 1746 1857 1849 1730 1848 1965
8 1734 1612 1731 1850 1851 1733 1849 1966
8 1854 1741 1849 1966 1738 1622 1731 1850
8 1967 1859 1745 1853 1852 1743 1626 1737
8 1968 1860 1744 1856 1853 1745 1625 1739
8 1854 1741 1622 1738 1969 1857 1742 1855
8 1855 1742 1624 1740 1970 1858 1744 1856
8 1857 1746 1631 1742 1971 1861 1749 1858
8 1858 1749 1630 1744 1972 1863 1748 1860
8 1859 1747 1862 1973 1745 1629 1748 1860
8 1875 1768 1864 1977 1761 1651 1750 1865
8 1755 1644 1761 1869 1866 1751 1865 1978
8 1867 1760 1874 1979 1754 1646 1763 1868
8 1774 1658 1775 1887 1867 1760 1874 1979
8 1870 1766 1648 1756 1980 1877 1763 1868
8 1872 1762 1875 1981 1758 1645 1761 1869
8 1757 1649 1766 1870 1871 1765 1880 1982
8 1983 1879 1764 1873 1871 1765 1647 1759
8 1873 1764 1876 1984 1759 1647 1762 1872
8 1877 1773 1655 1763 1986 1881 1767 1874
8 1775 1659 1776 1888 1874 1767 1881 1986
8 1876 1769 1882 1987 1762 1652 1768 1875
8 1878 1770 1883 1988 1764 1653 1769 1876
8 1880 1772 1656 1766 1989 1886 1773 1877
8 1878 1770 1653 1764 1990 1884 1771 1879
8 1765 1654 1772 1880 1879 1771 1885 1991
8 1778 1664 1779 1890 1887 1775 1888 1997
8 1998 1889 1776 1888 1891 1780 1665 1779
8 1893 1782 1891 2000 1781 1668 1779 1890
8 1894 1783 1892 2001 1782 1669 1780 1891
8 1784 1671 1785 1896 1893 1782 1894 2003
8 1897 1786 1895 2004 1785 1672 1783 1894
8 1790 1675 1789 1904 1896 1785 1897 2006
8 1901 1787 1898 2007 1789 1673 1786 1897
8 1903 1788 1900 2013 1789 1673 1787 1901
8 1792 1676 1791 1906 1903 1788 1902 2016
8 1907 1792 1903 2017 1795 1678 1789 1904
8 1906 1791 1677 1794 2019 1905 1793 1909
8 1907 1792 1678 1795 2020 1906 1794 1910
8 1797 1679 1796 1912 1909 1793 1908 2022
8 1798 1680 1797 1913 1910 1794 1909 2023
8 1800 1682 1799 1915 1912 1796 1911 2025
8 1801 1683 1800 1916 1913 1797 1912 2026
8 1803 1687 1804 1918 1915 1799 1914 2028
8 1802 1686 1803 1917 1916 1800 1915 2029
8 1805 1689 1806 1920 1917 1803 1918 2030
8 1806 1690 1807 1921 1918 1804 1919 2031
8 1808 1692 1809 1922 1920 1806 1921 2032
8 1939 1826 1924 2037 1829 1713 1811 1926
8 1926 1811 1925 2039 1813 1697 1812 1928
8 1944 1829 1926 2040 1828 1712 1813 1929
8 1928 1812 1927 2042 1815 1698 1814 1931
8 1929 1813 1928 2043 1816 1699 1815 1932
8 1931 1814 1930 2044 1818 1700 1817 1933
8 1932 1815 1931 2045 1819 1701 1818 1934
8 1934 1818 1933 2046 1821 1704 1820 1935
8 2048 1936 1823 1937 1977 1864 1750 1865
8 1950 1833 1715 1834 2048 1936 1823 1937
8 1938 1824 1751 1866 2049 1937 1865 1978
8 1835 1716 1824 1938 1951 1834 1937 2049
8 1939 1826 1713 1829 2053 1942 1831 1946
8 1940 1827 1923 2035 2053 1942 1826 1939
8 1945 1830 1946 2058 1828 1712 1829 1944
8 2059 1947 1830 1945 1966 1849 1733 1851
8 1947 1832 1730 1849 2060 1948 1848 1965
8 1947 1832 1948 2060 1830 1714 1831 1946
8 1959 1847 1729 1843 2063 1949 1833 1950
8 1952 1843 1725 1836 2064 1950 1834 1951
8 1836 1725 1843 1952 1953 1842 1958 2066
8 1953 1842 1957 2067 1839 1724 1841 1955
8 1841 1955 1838 1723 1956 2068 1954 1840
8 2068 1956 1859 1967 1954 1840 1743 1852
8 1956 1844 1960 2069 1859 1747 1862 1973
8 1845 1957 1841 1727 1960 2069 1956 1844
8 1728 1842 1957 1845 1846 1958 2071 1961
8 1962 2072 1959 1847 1846 1958 1843 1729
8 1971 1861 1964 2077 1857 1746 1848 1965
8 1854 1741 1857 1969 1966 1849 1965 2078
8 1967 1859 1973 2079 1853 1745 1860 1968
8 1970 1858 1744 1856 2080 1972 1860 1968
8 1969 1857 1742 1855 2081 1971 1858 1970
8 1971 1861 1749 1858 2082 1974 1863 1972
8 1973 1862 1975 2083 1860 1748 1863 1972
8 1987 1882 1976 2086 1875 1768 1864 1977
8 1981 1875 1977 2087 1869 1761 1865 1978
8 1980 1877 1763 1868 2088 1986 1874 1979
8 1887 1775 1888 1997 1979 1874 1986 2088
8 1880 1982 2089 1989 1766 1870 1980 1877
8 1984 1876 1987 2090 1872 1762 1875 1981
8 1765 1871 1983 1879 1880 1982 2091 1991
8 1985 1878 1764 1873 2092 1990 1879 1983
8 1985 1878 1988 2093 1873 1764 1876 1984
8 2094 1992 1881 1986 1998 1889 1776 1888
8 1986 1881 1992 2094 1877 1773 1886 1989
8 1988 1883 1993 2095 1876 1769 1882 1987
8 1878 1770 1884 1990 1988 1883 1994 2096
8 1991 1885 1772 1880 2097 1996 1886 1989
8 1879 1771 1885 1991 1990 1884 1995 2098
8 2103 1998 1888 1997 2000 1891 1779 1890
8 2104 1999 1889 1998 2001 1892 1780 1891
8 2003 1894 2001 2106 1893 1782 1891 2000
8 2004 1895 2002 2107 1894 1783 1892 2001
8 2006 1897 2004 2109 1896 1785 1894 2003
8 2007 1898 2005 2110 1897 1786 1895 2004
8 2014 1901 2007 2112 1904 1789 1897 2006
8 2011 1899 2008 2113 1901 1787 1898 2007
8 2119 2010 1899 2011 2013 1900 1787 1901
8 2016 1902 2012 2122 1903 1788 1900 2013
8 2017 1903 2013 2123 1904 1789 1901 2014
8 1906 1791 1905 2019 2016 1902 2015 2125
8 1907 1792 1906 2020 2017 1903 2016 2126
8 1909 1793 1908 2022 2019 1905 2018 2128
8 2020 1906 1794 1910 2129 2019 1909 2023
8 1912 1796 1911 2025 2022 1908 2021 2131
8 1913 1797 1912 2026 2023 1909 2022 2132
8 1915 1799 1914 2028 2025 1911 2024 2134
8 1916 1800 1915 2029 2026 1912 2025 2135
8 1918 1804 1919 2031 2028 1914 2027 2136
8 1917 1803 1918 2030 2029 1915 2028 2137
8 1920 1806 1921 2032 2030 1918 2031 2138
8 1940 1827 1941 2054 2035 1923 2033 2140
8 2035 1923 2034 2143 1939 1826 1924 2037
8 2037 1924 2036 2146 1926 1811 1925 2039
8 2051 1939 2037 2147 1944 1829 1926 2040
8 2039 1925 2038 2149 1928 1812 1927 2042
8 2040 1926 2039 2150 1929 1813 1928 2043
8 2042 1927 2041 2151 1931 1814 1930 2044
8 2043 1928 2042 2152 1932 1815 1931 2045
8 2045 1931 2044 2153 1934 1818 1933 2046
8 2155 2047 1936 2048 2086 1976 1864 1977
8 2063 1949 1833 1950 2155 2047 1936 2048
8 2156 2048 1937 2049 2087 1977 1865 1978
8 2064 1950 1834 1951 2156 2048 1937 2049
8 2051 1939 1829 1944 2160 2053 1946 2058
8 2052 1940 2035 2144 2160 2053 1939 2051
8 2053 1942 1831 1946 2163 2057 1948 2060
8 2055 1943 1827 1940 2163 2057 1942 2053
8 2055 1943 2056 2164 1940 1827 1941 2054
8 2059 1947 1849 1966 2167 2060 1965 2078
8 2059 1947 2060 2167 1945 1830 1946 2058
8 2077 1964 2061 2168 1965 1848 1948 2060
8 2070 1963 1847 1959 2170 2062 1949 2063
8 2065 1959 1843 1952 2171 2063 1950 2064
8 2173 2072 1958 2066 2065 1959 1843 1952
8 1953 1842 1958 2066 2067 1957 2071 2174
8 2068 1956 2069 2175 1967 1859 1973 2079
8 2067 1957 2069 2175 1955 1841 1956 2068
8 1845 1957 2069 1960 1961 2071 2176 2073
8 2069 1960 2073 2176 1973 1862 1975 2083
8 2070 1963 2075 2177 1959 1847 1962 2072
8 1846 1958 2071 1961 1962 2072 2178 2074
8 2077 1964 1861 1971 2182 2076 1974 2082
8 2081 1971 2077 2183 1969 1857 1965 2078
8 2079 1973 2083 2184 1968 1860 1972 2080
8 2081 1971 1858 1970 2185 2082 1972 2080
8 2083 1975 2084 2186 1972 1863 1974 2082
8 2086 1976 1882 1987 2189 2085 1993 2095
8 2090 1987 2086 2190 1981 1875 1977 2087
8 2191 2094 1986 2088 2103 1998 1888 1997
8 2088 1986 2094 2191 1980 1877 1989 2089
8 1991 2091 2192 2097 1880 1982 2089 1989
8 2093 1988 2095 2193 1984 1876 1987 2090
8 1879 1983 2092 1990 1991 2091 2194 2098
8 1985 1878 1990 2092 2093 1988 2096 2195
8 2097 1996 1886 1989 2196 2099 1992 2094
8 2196 2099 1992 2094 2104 1999 1889 1998
8 1994 2096 1988 1883 2100 2197 2095 1993
8 2096 1994 1884 1990 2198 2101 1995 2098
8 1995 2098 2199 2102 1885 1991 2097 1996
8 2203 2104 1998 2103 2106 2001 1891 2000
8 2107 2002 2105 2204 2001 1892 1999 2104
8 2109 2004 2107 2206 2003 1894 2001 2106
8 2110 2005 2108 2207 2004 1895 2002 2107
8 2112 2007 2110 2209 2006 1897 2004 2109
8 2113 2008 2111 2210 2007 1898 2005 2110
8 2120 2011 2113 2212 2014 1901 2007 2112
8 2117 2009 2114 2213 2011 1899 2008 2113
8 2219 2116 2009 2117 2119 2010 1899 2011
8 2222 2118 2010 2119 2122 2012 1900 2013
8 2223 2119 2011 2120 2123 2013 1901 2014
8 2016 1902 2015 2125 2122 2012 2121 2225
8 2126 2016 2122 2226 2017 1903 2013 2123
8 2019 1905 2018 2128 2125 2015 2124 2228
8 2020 1906 2019 2129 2126 2016 2125 2229
8 2022 1908 2021 2131 2128 2018 2127 2231
8 2023 1909 2022 2132 2129 2019 2128 2232
8 2025 1911 2024 2134 2131 2021 2130 2234
8 2026 1912 2025 2135 2132 2022 2131 2235
8 1914 2028 2134 2024 2027 2136 2236 2133
8 2029 1915 2028 2137 2135 2025 2134 2237
8 2030 1918 2031 2138 2137 2028 2136 2238
8 2157 2050 2139 2240 2054 1941 2033 2140
8 2052 1940 2054 2161 2144 2035 2140 2242
8 2140 2033 2141 2243 2035 1923 2034 2143
8 2143 2034 2142 2246 2037 1924 2036 2146
8 2144 2035 2143 2247 2051 1939 2037 2147
8 2146 2036 2145 2249 2039 1925 2038 2149
8 2147 2037 2146 2250 2040 1926 2039 2150
8 2149 2038 2148 2251 2042 1927 2041 2151
8 2150 2039 2149 2252 2043 1928 2042 2152
8 2152 2042 2151 2253 2045 1931 2044 2153
8 2255 2154 2047 2155 2189 2085 1976 2086
8 2170 2062 1949 2063 2255 2154 2047 2155
8 2256 2155 2048 2156 2190 2086 1977 2087
8 2171 2063 1950 2064 2256 2155 2048 2156
8 2258 2159 2050 2157 2164 2056 1941 2054
8 2160 2053 1946 2058 2262 2163 2060 2167
8 2162 2055 1940 2052 2262 2163 2053 2160
8 2162 2055 2164 2263 2052 1940 2054 2161
8 2163 2057 1948 2060 2264 2165 2061 2168
8 2055 1943 2057 2163 2164 2056 2165 2264
8 2182 2076 2166 2268 2077 1964 2061 2168
8 2183 2077 2168 2269 2078 1965 2060 2167
8 2070 1963 2062 2170 2177 2075 2169 2271
8 2172 2070 1959 2065 2272 2170 2063 2171
8 2172 2070 2177 2273 2065 1959 2072 2173
8 2066 1958 2072 2173 2174 2071 2178 2274
8 2067 1957 2071 2174 2175 2069 2176 2275
8 2175 2069 2176 2275 2079 1973 2083 2184
8 2071 1961 2074 2178 2176 2073 2179 2276
8 2176 2073 2179 2276 2083 1975 2084 2186
8 2072 1962 2075 2177 2178 2074 2180 2277
8 2182 2076 1974 2082 2280 2181 2084 2186
8 2183 2077 1971 2081 2281 2182 2082 2185
8 2184 2083 2186 2282 2080 1972 2082 2185
8 2189 2085 1993 2095 2285 2188 2100 2197
8 2190 2086 1987 2090 2286 2189 2095 2193
8 2192 2097 1989 2089 2287 2196 2094 2191
8 2287 2196 2094 2191 2203 2104 1998 2103
8 2194 2098 1991 2091 2288 2199 2097 2192
8 2195 2096 2197 2289 2093 1988 2095 2193
8 2096 2195 2290 2198 1990 2092 2194 2098
8 2097 1996 2099 2196 2199 2102 2200 2291
8 2196 2099 1999 2104 2291 2200 2105 2204
8 2100 2197 2292 2201 1994 2096 2198 2101
8 1995 2098 2198 2101 2102 2199 2293 2202
8 2206 2107 2204 2296 2106 2001 2104 2203
8 2207 2108 2205 2297 2107 2002 2105 2204
8 2209 2110 2207 2299 2109 2004 2107 2206
8 2210 2111 2208 2300 2110 2005 2108 2207
8 2212 2113 2210 2302 2112 2007 2110 2209
8 2213 2114 2211 2303 2113 2008 2111 2210
8 2220 2117 2213 2305 2120 2011 2113 2212
8 2216 2115 2214 2306 2117 2009 2114 2213
8 2216 2115 2009 2117 2311 2217 2116 2219
8 2219 2116 2010 2119 2314 2218 2118 2222
8 2315 2219 2117 2220 2223 2119 2011 2120
8 2122 2012 2121 2225 2222 2118 2221 2317
8 2318 2222 2119 2223 2226 2122 2013 2123
8 2125 2015 2124 2228 2225 2121 2224 2320
8 2126 2016 2125 2229 2226 2122 2225 2321
8 2128 2018 2127 2231 2228 2124 2227 2323
8 2129 2019 2128 2232 2229 2125 2228 2324
8 2131 2021 2130 2234 2231 2127 2230 2326
8 2132 2022 2131 2235 2232 2128 2231 2327
8 2134 2024 2133 2236 2234 2130 2233 2328
8 2135 2025 2134 2237 2235 2131 2234 2329
8 2137 2028 2136 2238 2237 2134 2236 2330
8 2157 2050 2158 2259 2240 2139 2239 2332
8 2257 2157 2240 2334 2161 2054 2140 2242
8 2240 2139 2241 2335 2140 2033 2141 2243
8 2242 2140 2243 2337 2144 2035 2143 2247
8 2243 2141 2244 2338 2143 2034 2142 2246
8 2246 2142 2245 2341 2146 2036 2145 2249
8 2247 2143 2246 2342 2147 2037 2146 2250
8 2249 2145 2248 2343 2149 2038 2148 2251
8 2250 2146 2249 2344 2150 2039 2149 2252
8 2252 2149 2251 2345 2152 2042 2151 2253
8 2169 2271 2347 2254 2062 2170 2255 2154
8 2189 2085 2188 2285 2255 2154 2254 2347
8 2348 2255 2155 2256 2286 2189 2086 2190
8 2272 2170 2063 2171 2348 2255 2155 2256
8 2349 2258 2157 2257 2263 2164 2054 2161
8 2258 2159 2261 2351 2157 2050 2158 2259
8 2258 2159 2056 2164 2351 2261 2165 2264
8 2262 2163 2060 2167 2355 2264 2168 2269
8 2162 2055 2163 2262 2263 2164 2264 2355
8 2357 2266 2165 2264 2268 2166 2061 2168
8 2268 2166 2076 2182 2361 2267 2181 2280
8 2281 2182 2268 2362 2183 2077 2168 2269
8 2271 2169 2270 2364 2177 2075 2180 2277
8 2172 2070 2170 2272 2273 2177 2271 2365
8 2072 2173 2274 2178 2177 2273 2366 2277
8 2071 2174 2275 2176 2178 2274 2367 2276
8 2275 2176 2276 2367 2184 2083 2186 2282
8 2283 2187 2084 2186 2368 2278 2179 2276
8 2178 2074 2180 2277 2276 2179 2278 2368
8 2283 2187 2279 2370 2186 2084 2181 2280
8 2281 2182 2082 2185 2371 2280 2186 2282
8 2188 2285 2374 2284 2100 2197 2292 2201
8 2286 2189 2095 2193 2375 2285 2197 2289
8 2192 2097 2196 2287 2288 2199 2291 2376
8 2287 2196 2104 2203 2376 2291 2204 2296
8 2194 2098 2199 2288 2290 2198 2293 2377
8 2289 2197 2096 2195 2378 2292 2198 2290
8 2291 2200 2105 2204 2379 2294 2205 2297
8 2199 2102 2200 2291 2293 2202 2294 2379
8 2198 2101 2202 2293 2292 2201 2295 2380
8 2299 2207 2297 2383 2206 2107 2204 2296
8 2300 2208 2298 2384 2207 2108 2205 2297
8 2302 2210 2300 2386 2209 2110 2207 2299
8 2303 2211 2301 2387 2210 2111 2208 2300
8 2305 2213 2303 2389 2212 2113 2210 2302
8 2306 2214 2304 2390 2213 2114 2211 2303
8 2310 2216 2306 2392 2220 2117 2213 2305
8 2308 2215 2307 2393 2216 2115 2214 2306
8 2308 2215 2115 2216 2396 2309 2217 2311
8 2310 2216 2117 2220 2398 2311 2219 2315
8 2311 2217 2116 2219 2399 2312 2218 2314
8 2314 2218 2118 2222 2402 2313 2221 2317
8 2315 2219 2119 2223 2403 2314 2222 2318
8 2225 2121 2224 2320 2317 2221 2316 2405
8 2226 2122 2225 2321 2318 2222 2317 2406
8 2228 2124 2227 2323 2320 2224 2319 2408
8 2229 2125 2228 2324 2321 2225 2320 2409
8 2231 2127 2230 2326 2323 2227 2322 2411
8 2232 2128 2231 2327 2324 2228 2323 2412
8 2234 2130 2233 2328 2326 2230 2325 2413
8 2235 2131 2234 2329 2327 2231 2326 2414
8 2237 2134 2236 2330 2329 2234 2328 2415
8 2259 2158 2260 2352 2332 2239 2331 2417
8 2257 2157 2259 2350 2334 2240 2332 2419
8 2240 2139 2239 2332 2335 2241 2333 2420
8 2334 2240 2335 2422 2242 2140 2243 2337
8 2335 2241 2336 2423 2243 2141 2244 2338
8 2337 2243 2338 2425 2247 2143 2246 2342
8 2338 2244 2339 2426 2246 2142 2245 2341
8 2341 2245 2340 2428 2249 2145 2248 2343
8 2342 2246 2341 2429 2250 2146 2249 2344
8 2344 2249 2343 2430 2252 2149 2251 2345
8 2188 2285 2347 2254 2284 2374 2432 2346
8 2347 2254 2346 2432 2271 2169 2270 2364
8 2365 2271 2170 2272 2433 2347 2255 2348
8 2286 2189 2285 2375 2348 2255 2347 2433
8 2349 2258 2351 2435 2257 2157 2259 2350
8 2349 2258 2164 2263 2435 2351 2264 2355
8 2259 2158 2261 2351 2352 2260 2354 2437
8 2356 2265 2354 2437 2264 2165 2261 2351
8 2441 2357 2264 2355 2362 2268 2168 2269
8 2356 2265 2165 2264 2442 2358 2266 2357
8 2443 2359 2266 2357 2361 2267 2166 2268
8 2370 2279 2360 2446 2280 2181 2267 2361
8 2362 2268 2182 2281 2447 2361 2280 2371
8 2180 2277 2368 2278 2270 2364 2449 2363
8 2271 2365 2273 2177 2364 2450 2366 2277
8 2372 2283 2186 2282 2451 2368 2276 2367
8 2178 2274 2367 2276 2277 2366 2451 2368
8 2283 2187 2278 2368 2370 2279 2369 2452
8 2372 2283 2370 2453 2282 2186 2280 2371
8 2284 2374 2455 2373 2201 2292 2380 2295
8 2375 2285 2197 2289 2456 2374 2292 2378
8 2376 2291 2204 2296 2457 2379 2297 2383
8 2288 2199 2291 2376 2377 2293 2379 2457
8 2198 2290 2378 2292 2293 2377 2458 2380
8 2293 2202 2294 2379 2380 2295 2381 2459
8 2384 2298 2381 2459 2297 2205 2294 2379
8 2386 2300 2384 2463 2299 2207 2297 2383
8 2387 2301 2385 2464 2300 2208 2298 2384
8 2389 2303 2387 2466 2302 2210 2300 2386
8 2390 2304 2388 2467 2303 2211 2301 2387
8 2392 2306 2390 2469 2305 2213 2303 2389
8 2393 2307 2391 2470 2306 2214 2304 2390
8 2395 2308 2393 2472 2310 2216 2306 2392
8 2308 2215 2309 2396 2393 2307 2394 2473
8 2395 2308 2216 2310 2475 2396 2311 2398
8 2396 2309 2217 2311 2476 2397 2312 2399
8 2398 2311 2219 2315 2478 2399 2314 2403
8 2399 2312 2218 2314 2479 2400 2313 2402
8 2317 2221 2316 2405 2402 2313 2401 2482
8 2403 2314 2222 2318 2483 2402 2317 2406
8 2320 2224 2319 2408 2405 2316 2404 2485
8 2321 2225 2320 2409 2406 2317 2405 2486
8 2323 2227 2322 2411 2408 2319 2407 2488
8 2324 2228 2323 2412 2409 2320 2408 2489
8 2326 2230 2325 2413 2411 2322 2410 2490
8 2327 2231 2326 2414 2412 2323 2411 2491
8 2329 2234 2328 2415 2414 2326 2413 2492
8 2417 2331 2260 2352 2494 2416 2353 2438
8 2350 2259 2352 2436 2419 2332 2417 2496
8 2332 2239 2331 2417 2420 2333 2418 2497
8 2334 2240 2332 2419 2422 2335 2420 2499
8 2420 2333 2421 2500 2335 2241 2336 2423
8 2422 2335 2423 2502 2337 2243 2338 2425
8 2423 2336 2424 2503 2338 2244 2339 2426
8 2425 2338 2426 2505 2342 2246 2341 2429
8 2426 2339 2427 2506 2341 2245 2340 2428
8 2429 2341 2428 2507 2344 2249 2343 2430
8 2432 2346 2284 2374 2509 2431 2373 2455
8 2432 2346 2431 2509 2364 2270 2363 2449
8 2375 2285 2374 2456 2433 2347 2432 2510
8 2347 2433 2365 2271 2432 2510 2450 2364
8 2350 2259 2351 2435 2436 2352 2437 2514
8 2440 2356 2437 2514 2355 2264 2351 2435
8 2352 2260 2354 2437 2438 2353 2439 2516
8 2356 2265 2358 2442 2437 2354 2439 2516
8 2440 2356 2264 2355 2518 2442 2357 2441
8 2519 2443 2357 2441 2447 2361 2268 2362
8 2443 2359 2444 2520 2357 2266 2358 2442
8 2443 2359 2267 2361 2520 2444 2360 2446
8 2446 2360 2279 2370 2523 2445 2369 2452
8 2453 2370 2446 2524 2371 2280 2361 2447
8 2449 2363 2448 2525 2368 2278 2369 2452
8 2366 2277 2364 2450 2451 2368 2449 2526
8 2372 2283 2368 2451 2453 2370 2452 2527
8 2455 2373 2295 2380 2529 2454 2382 2460
8 2456 2374 2292 2378 2530 2455 2380 2458
8 2377 2293 2379 2457 2458 2380 2459 2531
8 2463 2384 2459 2531 2383 2297 2379 2457
8 2533 2461 2382 2460 2459 2381 2295 2380
8 2464 2385 2461 2533 2384 2298 2381 2459
8 2466 2387 2464 2537 2386 2300 2384 2463
8 2467 2388 2465 2538 2387 2301 2385 2464
8 2469 2390 2467 2540 2389 2303 2387 2466
8 2470 2391 2468 2541 2390 2304 2388 2467
8 2472 2393 2470 2543 2392 2306 2390 2469
8 2393 2307 2394 2473 2470 2391 2471 2544
8 2395 2308 2396 2475 2472 2393 2473 2546
8 2396 2309 2397 2476 2473 2394 2474 2547
8 2475 2396 2311 2398 2549 2476 2399 2478
8 2476 2397 2312 2399 2550 2477 2400 2479
8 2478 2399 2314 2403 2552 2479 2402 2483
8 2479 2400 2313 2402 2553 2480 2401 2482
8 2405 2316 2404 2485 2482 2401 2481 2556
8 2406 2317 2405 2486 2483 2402 2482 2557
8 2408 2319 2407 2488 2485 2404 2484 2559
8 2409 2320 2408 2489 2486 2405 2485 2560
8 2411 2322 2410 2490 2488 2407 2487 2561
8 2412 2323 2411 2491 2489 2408 2488 2562
8 2414 2326 2413 2492 2491 2411 2490 2563
8 2513 2434 2493 2565 2438 2353 2416 2494
8 2496 2417 2352 2436 2567 2494 2438 2515
8 2494 2416 2495 2568 2417 2331 2418 2497
8 2419 2332 2417 2496 2499 2420 2497 2570
8 2497 2418 2498 2571 2420 2333 2421 2500
8 2499 2420 2500 2573 2422 2335 2423 2502
8 2500 2421 2501 2574 2423 2336 2424 2503
8 2502 2423 2503 2576 2425 2338 2426 2505
8 2503 2424 2504 2577 2426 2339 2427 2506
8 2505 2426 2506 2578 2429 2341 2428 2507
8 2509 2431 2373 2455 2580 2508 2454 2529
8 2509 2431 2508 2580 2449 2363 2448 2525
8 2432 2510 2581 2509 2374 2456 2530 2455
8 2432 2510 2450 2364 2509 2581 2526 2449
8 2583 2511 2434 2513 2516 2439 2353 2438
8 2436 2352 2437 2514 2515 2438 2516 2588
8 2440 2356 2442 2518 2514 2437 2516 2588
8 2442 2358 2444 2520 2516 2439 2517 2589
8 2519 2443 2520 2591 2441 2357 2442 2518
8 2519 2443 2361 2447 2591 2520 2446 2524
8 2446 2360 2445 2523 2520 2444 2521 2592
8 2525 2448 2522 2593 2452 2369 2445 2523
8 2524 2446 2370 2453 2594 2523 2452 2527
8 2526 2449 2525 2595 2451 2368 2452 2527
8 2534 2462 2528 2597 2460 2382 2454 2529
8 2530 2455 2380 2458 2598 2529 2460 2532
8 2599 2533 2460 2532 2531 2459 2380 2458
8 2537 2464 2533 2599 2463 2384 2459 2531
8 2534 2462 2382 2460 2601 2535 2461 2533
8 2538 2465 2535 2601 2464 2385 2461 2533
8 2540 2467 2538 2604 2466 2387 2464 2537
8 2541 2468 2539 2605 2467 2388 2465 2538
8 2543 2470 2541 2607 2469 2390 2467 2540
8 2470 2391 2471 2544 2541 2468 2542 2608
8 2472 2393 2473 2546 2543 2470 2544 2610
8 2473 2394 2474 2547 2544 2471 2545 2611
8 2475 2396 2476 2549 2546 2473 2547 2613
8 2476 2397 2477 2550 2547 2474 2548 2614
8 2549 2476 2399 2478 2616 2550 2479 2552
8 2479 2400 2480 2553 2550 2477 2551 2617
8 2552 2479 2402 2483 2619 2553 2482 2557
8 2482 2401 2481 2556 2553 2480 2554 2620
8 2485 2404 2484 2559 2556 2481 2555 2623
8 2486 2405 2485 2560 2557 2482 2556 2624
8 2488 2407 2487 2561 2559 2484 2558 2625
8 2489 2408 2488 2562 2560 2485 2559 2626
8 2491 2411 2490 2563 2562 2488 2561 2627
8 2513 2434 2512 2585 2565 2493 2564 2630
8 2586 2513 2565 2632 2515 2438 2494 2567
8 2565 2493 2566 2633 2494 2416 2495 2568
8 2567 2494 2568 2635 2496 2417 2497 2570
8 2568 2495 2569 2636 2497 2418 2498 2571
8 2570 2497 2571 2638 2499 2420 2500 2573
8 2571 2498 2572 2639 2500 2421 2501 2574
8 2573 2500 2574 2641 2502 2423 2503 2576
8 2574 2501 2575 2642 2503 2424 2504 2577
8 2576 2503 2577 2643 2505 2426 2506 2578
8 2597 2528 2579 2645 2529 2454 2508 2580
8 2580 2508 2579 2645 2525 2448 2522 2593
8 2581 2509 2455 2530 2646 2580 2529 2598
8 2581 2509 2580 2646 2526 2449 2525 2595
8 2583 2511 2582 2648 2513 2434 2512 2585
8 2583 2511 2439 2516 2648 2582 2517 2589
8 2649 2583 2513 2586 2588 2516 2438 2515
8 2589 2517 2444 2520 2653 2587 2521 2592
8 2518 2442 2520 2591 2588 2516 2589 2654
8 2593 2522 2590 2655 2523 2445 2521 2592
8 2524 2446 2523 2594 2591 2520 2592 2656
8 2595 2525 2593 2657 2527 2452 2523 2594
8 2602 2536 2596 2659 2534 2462 2528 2597
8 2600 2534 2597 2660 2532 2460 2529 2598
8 2600 2534 2460 2532 2661 2601 2533 2599
8 2604 2538 2601 2661 2537 2464 2533 2599
8 2602 2536 2462 2534 2663 2603 2535 2601
8 2601 2535 2465 2538 2663 2603 2539 2605
8 2607 2541 2605 2665 2540 2467 2538 2604
8 2608 2542 2606 2666 2541 2468 2539 2605
8 2543 2470 2544 2610 2607 2541 2608 2668
8 2544 2471 2545 2611 2608 2542 2609 2669
8 2546 2473 2547 2613 2610 2544 2611 2671
8 2547 2474 2548 2614 2611 2545 2612 2672
8 2549 2476 2550 2616 2613 2547 2614 2674
8 2550 2477 2551 2617 2614 2548 2615 2675
8 2552 2479 2553 2619 2616 2550 2617 2677
8 2553 2480 2554 2620 2617 2551 2618 2678
8 2557 2482 2556 2624 2619 2553 2620 2680
8 2556 2481 2555 2623 2620 2554 2621 2681
8 2559 2484 2558 2625 2623 2555 2622 2683
8 2560 2485 2559 2626 2624 2556 2623 2684
8 2562 2488 2561 2627 2626 2559 2625 2685
8 2690 2629 2564 2630 2650 2584 2512 2585
8 2586 2513 2585 2651 2632 2565 2630 2691
8 2630 2564 2631 2692 2565 2493 2566 2633
8 2632 2565 2633 2694 2567 2494 2568 2635
8 2633 2566 2634 2695 2568 2495 2569 2636
8 2635 2568 2636 2697 2570 2497 2571 2638
8 2636 2569 2637 2698 2571 2498 2572 2639
8 2638 2571 2639 2700 2573 2500 2574 2641
8 2639 2572 2640 2701 2574 2501 2575 2642
8 2641 2574 2642 2702 2576 2503 2577 2643
8 2597 2528 2596 2659 2645 2579 2644 2704
8 2645 2579 2644 2704 2593 2522 2590 2655
8 2660 2597 2645 2705 2598 2529 2580 2646
8 2646 2580 2645 2705 2595 2525 2593 2657
8 2650 2584 2512 2585 2707 2647 2582 2648
8 2648 2582 2517 2589 2707 2647 2587 2653
8 2649 2583 2648 2708 2586 2513 2585 2651
8 2649 2583 2516 2588 2708 2648 2589 2654
8 2655 2590 2652 2710 2592 2521 2587 2653
8 2654 2589 2520 2591 2711 2653 2592 2656
8 2657 2593 2655 2712 2594 2523 2592 2656
8 2602 2536 2603 2663 2659 2596 2658 2714
8 2662 2602 2659 2715 2600 2534 2597 2660
8 2662 2602 2534 2600 2717 2663 2601 2661
8 2661 2601 2538 2604 2717 2663 2605 2665
8 2666 2606 2664 2718 2605 2539 2603 2663
8 2668 2608 2666 2720 2607 2541 2605 2665
8 2608 2542 2609 2669 2666 2606 2667 2721
8 2610 2544 2611 2671 2668 2608 2669 2723
8 2611 2545 2612 2672 2669 2609 2670 2724
8 2613 2547 2614 2674 2671 2611 2672 2726
8 2614 2548 2615 2675 2672 2612 2673 2727
8 2616 2550 2617 2677 2674 2614 2675 2729
8 2617 2551 2618 2678 2675 2615 2676 2730
8 2619 2553 2620 2680 2677 2617 2678 2732
8 2620 2554 2621 2681 2678 2618 2679 2733
8 2624 2556 2623 2684 2680 2620 2681 2735
8 2681 2621 2555 2623 2736 2682 2622 2683
8 2626 2559 2625 2685 2684 2623 2683 2737
8 2688 2628 2584 2650 2740 2686 2647 2707
8 2688 2628 2687 2742 2650 2584 2629 2690
8 2690 2629 2689 2745 2630 2564 2631 2692
8 2746 2690 2630 2691 2709 2650 2585 2651
8 2691 2630 2692 2747 2632 2565 2633 2694
8 2692 2631 2693 2748 2633 2566 2634 2695
8 2694 2633 2695 2750 2635 2568 2636 2697
8 2695 2634 2696 2751 2636 2569 2637 2698
8 2697 2636 2698 2753 2638 2571 2639 2700
8 2698 2637 2699 2754 2639 2572 2640 2701
8 2700 2639 2701 2755 2641 2574 2642 2702
8 2659 2596 2658 2714 2704 2644 2703 2757
8 2704 2644 2703 2757 2655 2590 2652 2710
8 2660 2597 2659 2715 2705 2645 2704 2758
8 2705 2645 2704 2758 2657 2593 2655 2712
8 2759 2706 2647 2707 2710 2652 2587 2653
8 2709 2650 2585 2651 2760 2707 2648 2708
8 2708 2648 2589 2654 2760 2707 2653 2711
8 2712 2655 2710 2761 2656 2592 2653 2711
8 2763 2713 2658 2714 2718 2664 2603 2663
8 2662 2602 2663 2717 2715 2659 2714 2764
8 2720 2666 2718 2767 2665 2605 2663 2717
8 2768 2719 2664 2718 2721 2667 2606 2666
8 2668 2608 2669 2723 2720 2666 2721 2770
8 2669 2609 2670 2724 2721 2667 2722 2771
8 2671 2611 2672 2726 2723 2669 2724 2773
8 2672 2612 2673 2727 2724 2670 2725 2774
8 2674 2614 2675 2729 2726 2672 2727 2776
8 2675 2615 2676 2730 2727 2673 2728 2777
8 2677 2617 2678 2732 2729 2675 2730 2779
8 2678 2618 2679 2733 2730 2676 2731 2780
8 2680 2620 2681 2735 2732 2678 2733 2782
8 2733 2679 2621 2681 2783 2734 2682 2736
8 2735 2681 2623 2684 2784 2736 2683 2737
8 2740 2686 2647 2707 2787 2738 2706 2759
8 2688 2628 2686 2740 2742 2687 2739 2789
8 2743 2688 2650 2709 2790 2740 2707 2760
8 2742 2687 2741 2792 2690 2629 2689 2745
8 2743 2688 2742 2793 2709 2650 2690 2746
8 2745 2689 2744 2795 2692 2631 2693 2748
8 2746 2690 2745 2796 2691 2630 2692 2747
8 2747 2692 2748 2797 2694 2633 2695 2750
8 2748 2693 2749 2798 2695 2634 2696 2751
8 2750 2695 2751 2800 2697 2636 2698 2753
8 2751 2696 2752 2801 2698 2637 2699 2754
8 2753 2698 2754 2802 2700 2639 2701 2755
8 2763 2713 2756 2804 2714 2658 2703 2757
8 2759 2706 2652 2710 2804 2756 2703 2757
8 2715 2659 2714 2764 2758 2704 2757 2805
8 2758 2704 2757 2805 2712 2655 2710 2761
8 2806 2759 2707 2760 2761 2710 2653 2711
8 2765 2716 2762 2808 2718 2664 2713 2763
8 2809 2763 2714 2764 2767 2718 2663 2717
8 2765 2716 2664 2718 2811 2766 2719 2768
8 2813 2768 2718 2767 2770 2721 2666 2720
8 2814 2769 2719 2768 2771 2722 2667 2721
8 2723 2669 2724 2773 2770 2721 2771 2816
8 2724 2670 2725 2774 2771 2722 2772 2817
8 2726 2672 2727 2776 2773 2724 2774 2819
8 2727 2673 2728 2777 2774 2725 2775 2820
8 2729 2675 2730 2779 2776 2727 2777 2822
8 2730 2676 2731 2780 2777 2728 2778 2823
8 2732 2678 2733 2782 2779 2730 2780 2825
8 2780 2731 2679 2733 2826 2781 2734 2783
8 2782 2733 2681 2735 2827 2783 2736 2784
8 2830 2785 2738 2787 2804 2756 2706 2759
8 2789 2739 2686 2740 2832 2786 2738 2787
8 2790 2740 2707 2760 2833 2787 2759 2806
8 2742 2687 2739 2789 2792 2741 2788 2835
8 2743 2688 2740 2790 2793 2742 2789 2836
8 2792 2741 2791 2838 2745 2689 2744 2795
8 2793 2742 2792 2839 2746 2690 2745 2796
8 2795 2744 2794 2841 2748 2693 2749 2798
8 2796 2745 2795 2842 2747 2692 2748 2797
8 2797 2748 2798 2843 2750 2695 2751 2800
8 2798 2749 2799 2844 2751 2696 2752 2801
8 2800 2751 2801 2845 2753 2698 2754 2802
8 2808 2762 2803 2847 2763 2713 2756 2804
8 2809 2763 2804 2848 2764 2714 2757 2805
8 2806 2759 2710 2761 2848 2804 2757 2805
8 2765 2716 2766 2811 2808 2762 2807 2850
8 2810 2765 2808 2851 2767 2718 2763 2809
8 2810 2765 2718 2767 2852 2811 2768 2813
8 2811 2766 2719 2768 2853 2812 2769 2814
8 2855 2814 2768 2813 2816 2771 2721 2770
8 2856 2815 2769 2814 2817 2772 2722 2771
8 2773 2724 2774 2819 2816 2771 2817 2858
8 2774 2725 2775 2820 2817 2772 2818 2859
8 2776 2727 2777 2822 2819 2774 2820 2861
8 2777 2728 2778 2823 2820 2775 2821 2862
8 2779 2730 2780 2825 2822 2777 2823 2864
8 2823 2778 2731 2780 2865 2824 2781 2826
8 2825 2780 2733 2782 2866 2826 2783 2827
8 2869 2828 2785 2830 2847 2803 2756 2804
8 2871 2829 2786 2832 2830 2785 2738 2787
8 2872 2830 2787 2833 2848 2804 2759 2806
8 2789 2739 2786 2832 2835 2788 2831 2874
8 2836 2789 2740 2790 2875 2832 2787 2833
8 2792 2741 2788 2835 2838 2791 2834 2877
8 2793 2742 2789 2836 2839 2792 2835 2878
8 2838 2791 2837 2880 2795 2744 2794 2841
8 2839 2792 2838 2881 2796 2745 2795 2842
8 2841 2794 2840 2882 2798 2749 2799 2844
8 2842 2795 2841 2883 2797 2748 2798 2843
8 2843 2798 2844 2884 2800 2751 2801 2845
8 2886 2846 2803 2847 2850 2807 2762 2808
8 2851 2808 2847 2887 2809 2763 2804 2848
8 2850 2807 2766 2811 2889 2849 2812 2853
8 2810 2765 2811 2852 2851 2808 2850 2890
8 2852 2811 2768 2813 2891 2853 2814 2855
8 2853 2812 2769 2814 2892 2854 2815 2856
8 2894 2856 2814 2855 2858 2817 2771 2816
8 2817 2772 2818 2859 2856 2815 2857 2895
8 2819 2774 2820 2861 2858 2817 2859 2897
8 2820 2775 2821 2862 2859 2818 2860 2898
8 2822 2777 2823 2864 2861 2820 2862 2900
8 2823 2778 2824 2865 2862 2821 2863 2901
8 2864 2823 2780 2825 2902 2865 2826 2866
8 2904 2867 2828 2869 2886 2846 2803 2847
8 2869 2828 2868 2906 2830 2785 2829 2871
8 2907 2869 2830 2872 2887 2847 2804 2848
8 2871 2829 2870 2909 2832 2786 2831 2874
8 2910 2871 2832 2875 2872 2830 2787 2833
8 2835 2788 2831 2874 2877 2834 2873 2912
8 2836 2789 2832 2875 2878 2835 2874 2913
8 2877 2834 2876 2915 2838 2791 2837 2880
8 2839 2792 2835 2878 2881 2838 2877 2916
8 2880 2837 2879 2917 2841 2794 2840 2882
8 2881 2838 2880 2918 2842 2795 2841 2883
8 2883 2841 2882 2919 2843 2798 2844 2884
8 2921 2885 2846 2886 2889 2849 2807 2850
8 2922 2886 2847 2887 2890 2850 2808 2851
8 2889 2849 2812 2853 2924 2888 2854 2892
8 2890 2850 2811 2852 2925 2889 2853 2891
8 2891 2853 2814 2855 2926 2892 2856 2894
8 2892 2854 2815 2856 2927 2893 2857 2895
8 2858 2817 2859 2897 2894 2856 2895 2929
8 2859 2818 2860 2898 2895 2857 2896 2930
8 2861 2820 2862 2900 2897 2859 2898 2932
8 2862 2821 2863 2901 2898 2860 2899 2933
8 2864 2823 2865 2902 2900 2862 2901 2934
8 2904 2867 2846 2886 2936 2903 2885 2921
8 2904 2867 2903 2936 2869 2828 2868 2906
8 2937 2904 2869 2907 2922 2886 2847 2887
8 2906 2868 2905 2939 2871 2829 2870 2909
8 2907 2869 2906 2940 2872 2830 2871 2910
8 2909 2870 2908 2942 2874 2831 2873 2912
8 2910 2871 2909 2943 2875 2832 2874 2913
8 2912 2873 2911 2945 2877 2834 2876 2915
8 2878 2835 2874 2913 2916 2877 2912 2946
8 2915 2876 2914 2947 2880 2837 2879 2917
8 2916 2877 2915 2948 2881 2838 2880 2918
8 2918 2880 2917 2949 2883 2841 2882 2919
8 2921 2885 2849 2889 2951 2920 2888 2924
8 2952 2921 2886 2922 2925 2889 2850 2890
8 2924 2888 2854 2892 2954 2923 2893 2927
8 2925 2889 2853 2891 2955 2924 2892 2926
8 2926 2892 2856 2894 2956 2927 2895 2929
8 2895 2857 2896 2930 2927 2893 2928 2957
8 2897 2859 2898 2932 2929 2895 2930 2959
8 2898 2860 2899 2933 2930 2896 2931 2960
8 2900 2862 2901 2934 2932 2898 2933 2961
8 2936 2903 2885 2921 2963 2935 2920 2951
8 2936 2903 2935 2963 2906 2868 2905 2939
8 2937 2904 2886 2922 2964 2936 2921 2952
8 2937 2904 2936 2964 2907 2869 2906 2940
8 2939 2905 2938 2966 2909 2870 2908 2942
8 2940 2906 2939 2967 2910 2871 2909 2943
8 2942 2908 2941 2969 2912 2873 2911 2945
8 2943 2909 2942 2970 2913 2874 2912 2946
8 2945 2911 2944 2971 2915 2876 2914 2947
8 2946 2912 2945 2972 2916 2877 2915 2948
8 2948 2915 2947 2973 2918 2880 2917 2949
8 2951 2920 2888 2924 2975 2950 2923 2954
8 2952 2921 2889 2925 2976 2951 2924 2955
8 2927 2893 2928 2957 2954 2923 2953 2978
8 2955 2924 2892 2926 2979 2954 2927 2956
8 2929 2895 2930 2959 2956 2927 2957 2980
8 2930 2896 2931 2960 2957 2928 2958 2981
8 2932 2898 2933 2961 2959 2930 2960 2982
8 2951 2920 2950 2975 2963 2935 2962 2984
8 2963 2935 2962 2984 2939 2905 2938 2966
8 2964 2936 2921 2952 2985 2963 2951 2976
8 2964 2936 2963 2985 2940 2906 2939 2967
8 2966 2938 2965 2987 2942 2908 2941 2969
8 2967 2939 2966 2988 2943 2909 2942 2970
8 2969 2941 2968 2989 2945 2911 2944 2971
8 2970 2942 2969 2990 2946 2912 2945 2972
8 2972 2945 2971 2991 2948 2915 2947 2973
8 2954 2923 2953 2978 2975 2950 2974 2993
8 2976 2951 2924 2955 2994 2975 2954 2979
8 2957 2928 2958 2981 2978 2953 2977 2995
8 2956 2927 2957 2980 2979 2954 2978 2996
8 2959 2930 2960 2982 2980 2957 2981 2997
8 2984 2962 2983 2999 2966 2938 2965 2987
8 2975 2950 2974 2993 2984 2962 2983 2999
8 2976 2951 2975 2994 2985 2963 2984 3000
8 2985 2963 2984 3000 2967 2939 2966 2988
8 2987 2965 2986 3001 2969 2941 2968 2989
8 2988 2966 2987 3002 2970 2942 2969 2990
8 2990 2969 2989 3003 2972 2945 2971 2991
8 2978 2953 2977 2995 2993 2974 2992 3004
8 2979 2954 2978 2996 2994 2975 2993 3005
8 2980 2957 2981 2997 2996 2978 2995 3006
8 2974 2993 2999 2983 2992 3004 3007 2998
8 2983 2999 2987 2965 2998 3007 3001 2986
8 3000 2984 2999 3008 2988 2966 2987 3002
8 2994 2975 2993 3005 3000 2984 2999 3008
8 3002 2987 3001 3009 2990 2969 2989 3003
8 2996 2978 2995 3006 3005 2993 3004 3010
8 3005 2993 3004 3010 3008 2999 3007 3011
8 3008 2999 3007 3011 3002 2987 3001 3009

CELL_TYPES 1910
12
12
12
12
12
12
12
12
12
12
12
12
12
12
12
12
12
12
12
12
12
12
12
12
12
12
12
12
12
12
12
12
12
12
12
12
12
12
12
12
12
12
12
12
12
12
12
12
12
12
12
12
12
12
12
12
12
12
12
12
12
12
12
12
12
12
12
12
12
12
12
12
12
12
12
12
12
12
12
12
12
12
12
12
12
12
12
12
12
12
12
12
12
12
12
12
12
12
12
12
12
12
12
12
12
12
12
12
12
12
12
12
12
12
12
12
12
12
12
12
12
12
12
12
12
12
12
12
12
12
12
12
12
12
12
12
12
12
12
12
12
12
12
12
12
12
12
12
12
12
12
12
12
12
12
12
12
12
12
12
12
12
12
12
12
12
12
12
12
12
12
12
12
12
12
12
12
12
12
12
12
12
12
12
12
12
12
12
12
12
12
12
12
12
12
12
12
12
12
12
12
12
12
12
12
12
12
12
12
12
12
12
12
12
12
12
12
12
12
12
12
12
12
12
12
12
12
12
12
12
12
12
12
12
12
12
12
12
12
12
12
12
12
12
12
12
12
12
12
12
12
12
12
12
12
12
12
12
12
12
12
12
12
12
12
12
12
12
12
12
12
12
12
12
12
12
12
12
12
12
12
12
12
12
12
12
12
12
12
12
12
12
12
12
12
12
12
12
12
12
12
12
12
12
12
12
12
12
12
12
12
12
12
12
12
12
12
12
12
12
12
12
12
12
12
12
12
12
12
12
12
12
12
12
12
12
12
12
12
12
12
12
12
12
12
12
12
12
12
12
12
12
12
12
12
12
12
12
12
12
12
12
12
12
12
12
12
12
12
12
12
12
12
12
12
12
12
12
12
12
12
12
12
12
12
12
12
12
12
12
12
12
12
12
12
12
12
12
12
12
12
12
12
12
12
12
12
12
12
12
12
12
12
12
12
12
12
12
12
12
12
12
12
12
12
12
12
12
12
12
12
12
12
12
12
12
12
12
12
12
12
12
12
12
12
12
12
12
12
12
12
12
12
12
12
12
12
12
12
12
12
12
12
12
12
12
12
12
12
12
12
12
12
12
12
12
12
12
12
12
12
12
12
12
12
12
12
12
12
12
12
12
12
12
12
12
12
12
12
12
12
12
12
12
12
12
12
12
12
12
12
12
12
12
12
12
12
12
12
12
12
12
12
12
12
12
12
12
12
12
12
12
12
12
12
12
12
12
12
12
12
12
12
12
12
12
12
12
12
12
12
12
12
12
12
12
12
12
12
12
12
12
12
12
12
12
12
12
12
12
12
12
12
12
12
12
12
12
12
12
12
12
12
12
12
12
12
12
12
12
12
12
12
12
12
12
12
12
12
12
12
12
12
12
12
12
12
12
12
12
12
12
12
12
12
12
12
12
12
12
12
12
12
12
12
12
12
12
12
12
12
12
12
12
12
12
12
12
12
12
12
12
12
12
12
12
12
12
12
12
12
12
12
12
12
12
12
12
12
12
12
12
12
12
12
12
12
12
12
12
12
12
12
12
12
12
12
12
12
12
12
12
12
12
12
12
12
12
12
12
12
12
12
12
12
12
12
12
12
12
12
12
12
12
12
12
12
12
12
12
12
12
12
12
12
12
12
12
12
12
12
12
12
12
12
12
12
12
12
12
12
12
12
12
12
12
12
12
12
12
12
12
12
12
12
12
12
12
12
12
12
12
12
12
12
12
12
12
12
12
12
12
12
12
12
12
12
12
12
12
12
12
12
12
12
12
12
12
12
12
12
12
12
12
12
12
12
12
12
12
12
12
12
12
12
12
12
12
12
12
12
12
12
12
12
12
12
12
12
12
12
12
12
12
12
12
12
12
12
12
12
12
12
12
12
12
12
12
12
12
12
12
12
12
12
12
12
12
12
12
12
12
12
12
12
12
12
12
12
12
12
12
12
12
12
12
12
12
12
12
12
12
12
12
12
12
12
12
12
12
12
12
12
12
12
12
12
12
12
12
12
12
12
12
12
12
12
12
12
12
12
12
12
12
12
12
12
12
12
12
12
12
12
12
12
12
12
12
12
12
12
12
12
12
12
12
12
12
12
12
12
12
12
12
12
12
12
12
12
12
12
12
12
12
12
12
12
12
12
12
12
12
12
12
12
12
12
12
12
12
12
12
12
12
12
12
12
12
12
12
12
12
12
12
12
12
12
12
12
12
12
12
12
12
12
12
12
12
12
12
12
12
12
12
12
12
12
12
12
12
12
12
12
12
12
12
12
12
12
12
12
12
12
12
12
12
12
12
12
12
12
12
12
12
12
12
12
12
12
12
12
12
12
12
12
12
12
12
12
12
12
12
12
12
12
12
12
12
12
12
12
12
12
12
12
12
12
12
12
12
12
12
12
12
12
12
12
12
12
12
12
12
12
12
12
12
12
12
12
12
12
12
12
12
12
12
12
12
12
12
12
12
12
12
12
12
12
12
12
12
12
12
12
12
12
12
12
12
12
12
12
12
12
12
12
12
12
12
12
12
12
12
12
12
12
12
12
12
12
12
12
12
12
12
12
12
12
12
12
12
12
12
12
12
12
12
12
12
12
12
12
12
12
12
12
12
12
12
12
12
12
12
12
12
12
12
12
12
12
12
12
12
12
12
12
12
12
12
12
12
12
12
12
12
12
12
12
12
12
12
12
12
12
12
12
12
12
12
12
12
12
12
12
12
12
12
12
12
12
12
12
12
12
12
12
12
12
12
12
12
12
12
12
12
12
12
12
12
12
12
12
12
12
12
12
12
12
12
12
12
12
12
12
12
12
12
12
12
12
12
12
12
12
12
12
12
12
12
12
12
12
12
12
12
12
12
12
12
12
12
12
12
12
12
12
12
12
12
12
12
12
12
12
12
12
12
12
12
12
12
12
12
12
12
12
12
12
12
12
12
12
12
12
12
12
12
12
12
12
12
12
12
12
12
12
12
12
12
12
12
12
12
12
12
12
12
12
12
12
12
12
12
12
12
12
12
12
12
12
12
12
12
12
12
12
12
12
12
12
12
12
12
12
12
12
12
12
12
12
12
12
12
12
12
12
12
12
12
12
12
12
12
12
12
12
12
12
12
12
12
12
12
12
12
12
12
12
12
12
12
12
12
12
12
12
12
12
12
12
12
12
12
12
12
12
12
12
12
12
12
12
12
12
12
12
12
12
12
12
12
12
12
12
12
12
12
12
12
12
12
12
12
12
12
12
12
12
12
12
12
12
12
12
12
12
12
12
12
12
12
12
12
12
12
12
12
12
12
12
12
12
12
12
12
12
12
12
12
12
12
12
12
12
12
12
12
12
12
12
12
12
12
12
12
12
12
12
12
12
12
12
12
12
12
12
12
12
12
12
12
12
12
12
12
12
12
12
12
12
12
12
12
12
12
12
12
12
12
12
12
12
12
12
12
12
12
12
12
12
12
12
12
12
12
12
12
12
12
12
12
12
12
12
12
12
12
12
12
12
12
12
12
12
12
12
12
12
12
12
12
12
12
12
12
12
12
12
12
12
12
12
12
12
12
12
12
12
12
12
12
12
12
12
12
12
12
12
12
12
12
12
12
12
12
12
12
12
12
12
12
12
12
12
12
12
12
12
12
12
12
12
12
12
12
12
12
12
12
12
12
12
12
12
12
12
12
12
12
12
12
12
12
12
12
12
12
12
12
12
12
12
12
12
12
12
12
12
12
12
12
12
12
12
12
12
12
12
12
12
12
12
12
12
12
12
12
12
12
12
12
12
12
12
12
12
12
12
12
12
12
12
12
12
12
12
12
12
12
12
12
12
12
12
12
12
12
12
12
12
12
12
12
12
12
12
12
12
12
12
12
12
12
12
12
12
12
12
12
12
12
12
12
12
12
12
12
12
12
12
12
12
12
12
12
12
12
12
12
12
12
12
12
12
12
12
12
12
12
12
12
12
12
12
12
12
12
12
12
12
12
12
12
12
12
12
12
12
12
12
12
12
12
12
12
12
12
12
12
12
12
12
12
12
12
12
12
12
12
12
12
12
12
12
12
12
12
12
12
12
12
12
12
12
12
12
12
12
12
12
12
12
12
12
12
12
12
12
12
12
12
12
12
12
12
12
12
12
12
12
12
12
12
12
12
12
12
12
12
12
12
12
12
12
12
12
12
12
12
12
12
12
12
12
12
12
12
12
12
12
12
12
12
12
12
12
12
12
12
12
12
12
12
12
12
12
12
12
12
12
12
12
12
12
12
12
12
12
12
12
12
12
12
12
12
12
12
12
12
12
12
12
12
12
12
12
12
12
12
12
12
12
12
12
12
12
12
12
12
12
12

POINT_DATA 3012
SCALARS Jp_lamdaP float 4
LOOKUP_TABLE default
1 1 1 1
1 1 1 1
1 1 1 1
1 1 1 1
1 1 1 1
1 1 1 1
0.999973 1 1 0.999973
1 1 1 1
1 1 1 1
1 1 1 1
1 1 1 1
0.999999 1 1 0.999999
1 1 1 1
1 1 1 1
1 1 1 1
1 1 1 1
1 1 1 1
1 1 1 1
0.999973 1 1 0.999973
1 1 1 1
1 1 1 1
1 1 1 1
0.999944 1 1 0.999944
0.999965 1 1 0.999965
1 1 1 1
0.99998 1 1 0.99998
0.999902 1 1 0.999902
1 1 1 1
1 1 1 1
1 1 1 1
1 1 1 1
1 1 1 1
1 1 1 1
1 1 1 1
0.999985 1 1 0.999985
1 1 1 1
0.999997 1 1 0.999997
1 1 1 1
0.999922 1 1 0.999922
1 1 1 1
1 1 1 1
1 1 1 1
1 1 1 1
1 1 1 1
0.999959 1 1 0.999959
1 1 1 1
0.999971 1 1 0.999971
1 1 1 1
1 1 1 1
1 1 1 1
0.999973 1 1 0.999973
1 1 1 1
1 1 1 1
1 1 1 1
1 1 1 1
0.999945 1 1 0.999945
0.999981 1 1 0.999981
0.999965 1 1 0.999965
0.9999 1 1 0.9999
1 1 1 1
1 1 1 1
0.999962 1 1 0.999962
0.999936 1 1 0.999936
0.999955 1 1 0.999955
0.999833 1 1 0.999833
0.999873 1 1 0.999873
1 1 1 1
0.999987 1 1 0.999987
0.999921 1 1 0.999921
0.999788 1 1 0.999788
1 1 1 1
1 1 1 1
1 1 1 1
1 1 1 1
1 1 1 1
1 1 1 1
0.999987 1 1 0.999987
1 1 1 1
0.999998 1 1 0.999998
1 1 1 1
0.999921 1 1 0.999921
1 1 1 1
1 1 1 1
0.999978 1 1 0.999978
0.999992 1 1 0.999992
0.999863 1 1 0.999863
1 1 1 1
0.999911 1 1 0.999911
0.999933 1 1 0.999933
0.999834 1 1 0.999834
1 1 1 1
1 1 1 1
1 1 1 1
1 1 1 1
1 1 1 1
1 1 1 1
0.999961 1 1 0.999961
1 1 1 1
0.999972 1 1 0.999972
1 1 1 1
0.999954 1 1 0.999954
0.999965 1 1 0.999965
0.999778 1 1 0.999778
0.999974 1 1 0.999974
0.999804 1 1 0.999804
1 1 1 1
1 1 1 1
1 1 1 1
1 1 1 1
0.999946 1 1 0.999946
0.999966 1 1 0.999966
0.999982 1 1 0.999982
0.999897 1 1 0.999897
1 1 1 1
1 1 1 1
0.999947 1 1 0.999947
0.999937 1 1 0.999937
1 1 1 1
0.999993 1 1 0.999993
0.999956 1 1 0.999956
0.999826 1 1 0.999826
0.999918 1 1 0.999918
0.999878 1 1 0.999878
0.999789 1 1 0.999789
0.999959 1 1 0.999959
0.999935 1 1 0.999935
0.999792 1 1 0.999792
0.999805 1 1 0.999805
0.999848 1 1 0.999848
0.999727 1 1 0.999727
1 1 1 1
0.999776 1 1 0.999776
1 1 1 1
0.999926 1 1 0.999926
0.999802 1 1 0.999802
0.999744 1 1 0.999744
1 1 1 1
0.999947 1 1 0.999947
1 1 1 1
1 1 1 1
0.999989 1 1 0.999989
1 1 1 1
1 1 1 1
0.999999 1 1 0.999999
0.999921 1 1 0.999921
1 1 1 1
1 1 1 1
0.99998 1 1 0.99998
0.999994 1 1 0.999994
0.999864 1 1 0.999864
1 1 1 1
0.999911 1 1 0.999911
0.999933 1 1 0.999933
0.99983 1 1 0.99983
1 1 1 1
1 1 1 1
0.999954 1 1 0.999954
0.999838 1 1 0.999838
0.999891 1 1 0.999891
0.999768 1 1 0.999768
0.999945 1 1 0.999945
0.999821 1 1 0.999821
0.999839 1 1 0.999839
0.999794 1 1 0.999794
1 1 1 1
1 1 1 1
1 1 1 1
1 1 1 1
1 1 1 1
1 1 1 1
1 1 1 1
0.999973 1 1 0.999973
0.999963 1 1 0.999963
1 1 1 1
1 1 1 1
0.999955 1 1 0.999955
0.999967 1 1 0.999967
0.999778 1 1 0.999778
0.999975 1 1 0.999975
0.999804 1 1 0.999804
0.999954 1 1 0.999954
0.999767 1 1 0.999767
0.999791 1 1 0.999791
0.99969 1 1 0.99969
0.999819 1 1 0.999819
0.999717 1 1 0.999717
1 1 1 1
1 1 1 1
0.999931 1 1 0.999931
0.999937 1 1 0.999937
1 1 1 1
1 1 1 1
0.999957 1 1 0.999957
0.999819 1 1 0.999819
0.999883 1 1 0.999883
0.999916 1 1 0.999916
0.99979 1 1 0.99979
0.999957 1 1 0.999957
0.999935 1 1 0.999935
0.999778 1 1 0.999778
0.99981 1 1 0.99981
1 1 1 1
1 1 1 1
0.99993 1 1 0.99993
0.999849 1 1 0.999849
0.999718 1 1 0.999718
0.9998 1 1 0.9998
0.99978 1 1 0.99978
0.999745 1 1 0.999745
1 1 1 1
0.999947 1 1 0.999947
0.99977 1 1 0.99977
0.999797 1 1 0.999797
0.999695 1 1 0.999695
0.99969 1 1 0.99969
0.99976 1 1 0.99976
0.999684 1 1 0.999684
1 1 1 1
0.999736 1 1 0.999736
0.999935 1 1 0.999935
0.999819 1 1 0.999819
0.999756 1 1 0.999756
0.999733 1 1 0.999733
0.999942 1 1 0.999942
0.999957 1 1 0.999957
0.999838 1 1 0.999838
0.999982 1 1 0.999982
1 1 1 1
1 1 1 1
0.999995 1 1 0.999995
0.999864 1 1 0.999864
1 1 1 1
0.999933 1 1 0.999933
0.999911 1 1 0.999911
0.999827 1 1 0.999827
1 1 1 1
1 1 1 1
0.999954 1 1 0.999954
0.999838 1 1 0.999838
0.999892 1 1 0.999892
0.999768 1 1 0.999768
0.999945 1 1 0.999945
0.999824 1 1 0.999824
0.999839 1 1 0.999839
0.999789 1 1 0.999789
1 1 1 1
0.999951 1 1 0.999951
0.99996 1 1 0.99996
0.999853 1 1 0.999853
0.999745 1 1 0.999745
0.9998 1 1 0.9998
0.999721 1 1 0.999721
0.999849 1 1 0.999849
0.999781 1 1 0.999781
0.999781 1 1 0.999781
0.999761 1 1 0.999761
0.999984 1 1 0.999984
1 1 1 1
1 1 1 1
1 1 1 1
1 1 1 1
1 1 1 1
1 1 1 1
1 1 1 1
1 1 1 1
0.999976 1 1 0.999976
0.999969 1 1 0.999969
0.999804 1 1 0.999804
0.999778 1 1 0.999778
0.999956 1 1 0.999956
1 1 1 1
0.999954 1 1 0.999954
0.999767 1 1 0.999767
0.999791 1 1 0.999791
0.99969 1 1 0.99969
0.999819 1 1 0.999819
0.999717 1 1 0.999717
0.999765 1 1 0.999765
0.999681 1 1 0.999681
0.999702 1 1 0.999702
0.999661 1 1 0.999661
0.999731 1 1 0.999731
0.999686 1 1 0.999686
0.999956 1 1 0.999956
0.999935 1 1 0.999935
0.999763 1 1 0.999763
0.999815 1 1 0.999815
1 1 1 1
1 1 1 1
0.999935 1 1 0.999935
0.999849 1 1 0.999849
0.99971 1 1 0.99971
0.999784 1 1 0.999784
0.999798 1 1 0.999798
0.999745 1 1 0.999745
1 1 1 1
0.999947 1 1 0.999947
0.999764 1 1 0.999764
0.999797 1 1 0.999797
0.999693 1 1 0.999693
0.999699 1 1 0.999699
1 1 1 1
0.999935 1 1 0.999935
0.999825 1 1 0.999825
0.999761 1 1 0.999761
0.999682 1 1 0.999682
0.99975 1 1 0.99975
0.999736 1 1 0.999736
0.999732 1 1 0.999732
0.999943 1 1 0.999943
0.999834 1 1 0.999834
0.999957 1 1 0.999957
0.999693 1 1 0.999693
0.999691 1 1 0.999691
0.99965 1 1 0.99965
0.999656 1 1 0.999656
0.999719 1 1 0.999719
0.999685 1 1 0.999685
0.999941 1 1 0.999941
0.999729 1 1 0.999729
0.999844 1 1 0.999844
0.999764 1 1 0.999764
0.999719 1 1 0.999719
0.999746 1 1 0.999746
0.999971 1 1 0.999971
0.999844 1 1 0.999844
0.999827 1 1 0.999827
0.99979 1 1 0.99979
0.999838 1 1 0.999838
1 1 1 1
1 1 1 1
0.999954 1 1 0.999954
0.999893 1 1 0.999893
0.999768 1 1 0.999768
0.999945 1 1 0.999945
0.999838 1 1 0.999838
0.999827 1 1 0.999827
0.999785 1 1 0.999785
1 1 1 1
0.999951 1 1 0.999951
0.99996 1 1 0.99996
0.999853 1 1 0.999853
0.999745 1 1 0.999745
0.999801 1 1 0.999801
0.999721 1 1 0.999721
0.999849 1 1 0.999849
0.999785 1 1 0.999785
0.99978 1 1 0.99978
0.999769 1 1 0.999769
1 1 1 1
0.999967 1 1 0.999967
0.999853 1 1 0.999853
0.999855 1 1 0.999855
0.999789 1 1 0.999789
0.999706 1 1 0.999706
0.999754 1 1 0.999754
0.999704 1 1 0.999704
0.999785 1 1 0.999785
0.999756 1 1 0.999756
0.999723 1 1 0.999723
0.999979 1 1 0.999979
0.99989 1 1 0.99989
0.999988 1 1 0.999988
0.999985 1 1 0.999985
1 1 1 1
1 1 1 1
1 1 1 1
1 1 1 1
1 1 1 1
1 1 1 1
1 1 1 1
1 1 1 1
1 1 1 1
1 1 1 1
1 1 1 1
0.999819 1 1 0.999819
0.999791 1 1 0.999791
0.999717 1 1 0.999717
0.999689 1 1 0.999689
0.999767 1 1 0.999767
0.999954 1 1 0.999954
0.999765 1 1 0.999765
0.999681 1 1 0.999681
0.999702 1 1 0.999702
0.999661 1 1 0.999661
0.999731 1 1 0.999731
0.999686 1 1 0.999686
0.999678 1 1 0.999678
0.999657 1 1 0.999657
0.99967 1 1 0.99967
0.999655 1 1 0.999655
0.999699 1 1 0.999699
0.999697 1 1 0.999697
0.999759 1 1 0.999759
0.999797 1 1 0.999797
0.99969 1 1 0.99969
0.999708 1 1 0.999708
1 1 1 1
0.999935 1 1 0.999935
0.999831 1 1 0.999831
0.999761 1 1 0.999761
0.99968 1 1 0.99968
0.999736 1 1 0.999736
0.999743 1 1 0.999743
0.999731 1 1 0.999731
0.999943 1 1 0.999943
0.999831 1 1 0.999831
0.999957 1 1 0.999957
0.999687 1 1 0.999687
0.999691 1 1 0.999691
0.999645 1 1 0.999645
0.999658 1 1 0.999658
0.999941 1 1 0.999941
0.999844 1 1 0.999844
0.999769 1 1 0.999769
0.999721 1 1 0.999721
0.999688 1 1 0.999688
0.999714 1 1 0.999714
0.999729 1 1 0.999729
0.999749 1 1 0.999749
0.999844 1 1 0.999844
0.999784 1 1 0.999784
0.99997 1 1 0.99997
0.999828 1 1 0.999828
0.999646 1 1 0.999646
0.999643 1 1 0.999643
0.999622 1 1 0.999622
0.999652 1 1 0.999652
0.99972 1 1 0.99972
0.999703 1 1 0.999703
0.999848 1 1 0.999848
0.999754 1 1 0.999754
0.999788 1 1 0.999788
0.999722 1 1 0.999722
0.999697 1 1 0.999697
0.999752 1 1 0.999752
0.99998 1 1 0.99998
0.999837 1 1 0.999837
0.999795 1 1 0.999795
0.999769 1 1 0.999769
0.999763 1 1 0.999763
1 1 1 1
0.999744 1 1 0.999744
0.99996 1 1 0.99996
0.99995 1 1 0.99995
0.999852 1 1 0.999852
0.999801 1 1 0.999801
0.999721 1 1 0.999721
0.999849 1 1 0.999849
0.999778 1 1 0.999778
0.99979 1 1 0.99979
0.999777 1 1 0.999777
1 1 1 1
0.999968 1 1 0.999968
0.999853 1 1 0.999853
0.999855 1 1 0.999855
0.999788 1 1 0.999788
0.999705 1 1 0.999705
0.999754 1 1 0.999754
0.999702 1 1 0.999702
0.999786 1 1 0.999786
0.999759 1 1 0.999759
0.999728 1 1 0.999728
0.999974 1 1 0.999974
0.99986 1 1 0.99986
0.999789 1 1 0.999789
0.999788 1 1 0.999788
0.999761 1 1 0.999761
0.999698 1 1 0.999698
0.999731 1 1 0.999731
0.999718 1 1 0.999718
0.999732 1 1 0.999732
0.999695 1 1 0.999695
0.999981 1 1 0.999981
0.999866 1 1 0.999866
0.999884 1 1 0.999884
0.99982 1 1 0.99982
0.999898 1 1 0.999898
0.99999 1 1 0.99999
0.999989 1 1 0.999989
1 1 1 1
0.999986 1 1 0.999986
1 1 1 1
1 1 1 1
1 1 1 1
1 1 1 1
1 1 1 1
1 1 1 1
1 1 1 1
1 1 1 1
1 1 1 1
1 1 1 1
1 1 1 1
0.999731 1 1 0.999731
0.999702 1 1 0.999702
0.999686 1 1 0.999686
0.999661 1 1 0.999661
0.999681 1 1 0.999681
0.999765 1 1 0.999765
0.999678 1 1 0.999678
0.999657 1 1 0.999657
0.99967 1 1 0.99967
0.999653 1 1 0.999653
0.999699 1 1 0.999699
0.999697 1 1 0.999697
0.999652 1 1 0.999652
0.999653 1 1 0.999653
0.999667 1 1 0.999667
0.999646 1 1 0.999646
0.999703 1 1 0.999703
0.999713 1 1 0.999713
0.999682 1 1 0.999682
0.999691 1 1 0.999691
0.99964 1 1 0.99964
0.999659 1 1 0.999659
0.999941 1 1 0.999941
0.999844 1 1 0.999844
0.999775 1 1 0.999775
0.999724 1 1 0.999724
0.999691 1 1 0.999691
0.999729 1 1 0.999729
0.999709 1 1 0.999709
0.999752 1 1 0.999752
0.999845 1 1 0.999845
0.999779 1 1 0.999779
0.999969 1 1 0.999969
0.999829 1 1 0.999829
0.999647 1 1 0.999647
0.999644 1 1 0.999644
0.999619 1 1 0.999619
0.999653 1 1 0.999653
0.999848 1 1 0.999848
0.999793 1 1 0.999793
0.999721 1 1 0.999721
0.999718 1 1 0.999718
0.999712 1 1 0.999712
0.999695 1 1 0.999695
0.999755 1 1 0.999755
0.999761 1 1 0.999761
0.999795 1 1 0.999795
0.99976 1 1 0.99976
0.999767 1 1 0.999767
0.99997 1 1 0.99997
0.99984 1 1 0.99984
0.999629 1 1 0.999629
0.99961 1 1 0.99961
0.999672 1 1 0.999672
0.99974 1 1 0.99974
0.999803 1 1 0.999803
0.999786 1 1 0.999786
0.999751 1 1 0.999751
0.999672 1 1 0.999672
0.999682 1 1 0.999682
0.99997 1 1 0.99997
0.99987 1 1 0.99987
0.999771 1 1 0.999771
0.999773 1 1 0.999773
0.999722 1 1 0.999722
0.99974 1 1 0.99974
1 1 1 1
0.999968 1 1 0.999968
0.999704 1 1 0.999704
0.999855 1 1 0.999855
0.999853 1 1 0.999853
0.999786 1 1 0.999786
0.999755 1 1 0.999755
0.9997 1 1 0.9997
0.999786 1 1 0.999786
0.999732 1 1 0.999732
0.999762 1 1 0.999762
0.999975 1 1 0.999975
0.99986 1 1 0.99986
0.999792 1 1 0.999792
0.999787 1 1 0.999787
0.999758 1 1 0.999758
0.999697 1 1 0.999697
0.999729 1 1 0.999729
0.99972 1 1 0.99972
0.999729 1 1 0.999729
0.999689 1 1 0.999689
0.999867 1 1 0.999867
0.999777 1 1 0.999777
0.999748 1 1 0.999748
0.999743 1 1 0.999743
0.999735 1 1 0.999735
0.999753 1 1 0.999753
0.999689 1 1 0.999689
0.999706 1 1 0.999706
0.999692 1 1 0.999692
0.999627 1 1 0.999627
0.999982 1 1 0.999982
0.999871 1 1 0.999871
0.999789 1 1 0.999789
0.999877 1 1 0.999877
0.999898 1 1 0.999898
0.99981 1 1 0.99981
0.999759 1 1 0.999759
0.999807 1 1 0.999807
0.999904 1 1 0.999904
0.999992 1 1 0.999992
0.999991 1 1 0.999991
1 1 1 1
0.999989 1 1 0.999989
1 1 1 1
1 1 1 1
1 1 1 1
1 1 1 1
1 1 1 1
1 1 1 1
1 1 1 1
1 1 1 1
1 1 1 1
1 1 1 1
1 1 1 1
0.999698 1 1 0.999698
0.99967 1 1 0.99967
0.999697 1 1 0.999697
0.999651 1 1 0.999651
0.999656 1 1 0.999656
0.999679 1 1 0.999679
0.999652 1 1 0.999652
0.999654 1 1 0.999654
0.999664 1 1 0.999664
0.99964 1 1 0.99964
0.999703 1 1 0.999703
0.99972 1 1 0.99972
0.999656 1 1 0.999656
0.999652 1 1 0.999652
0.999666 1 1 0.999666
0.999756 1 1 0.999756
0.999648 1 1 0.999648
0.999645 1 1 0.999645
0.999617 1 1 0.999617
0.999654 1 1 0.999654
0.999849 1 1 0.999849
0.999797 1 1 0.999797
0.999721 1 1 0.999721
0.999716 1 1 0.999716
0.999722 1 1 0.999722
0.999755 1 1 0.999755
0.999692 1 1 0.999692
0.99977 1 1 0.99977
0.999795 1 1 0.999795
0.999758 1 1 0.999758
0.999766 1 1 0.999766
0.999961 1 1 0.999961
0.999842 1 1 0.999842
0.999625 1 1 0.999625
0.999615 1 1 0.999615
0.999675 1 1 0.999675
0.999802 1 1 0.999802
0.999757 1 1 0.999757
0.99967 1 1 0.99967
0.999736 1 1 0.999736
0.999694 1 1 0.999694
0.999783 1 1 0.999783
0.99997 1 1 0.99997
0.999772 1 1 0.999772
0.999744 1 1 0.999744
0.999724 1 1 0.999724
0.999774 1 1 0.999774
0.999863 1 1 0.999863
0.999619 1 1 0.999619
0.99961 1 1 0.99961
0.999707 1 1 0.999707
0.999782 1 1 0.999782
0.999773 1 1 0.999773
0.999728 1 1 0.999728
0.999694 1 1 0.999694
0.999633 1 1 0.999633
0.999978 1 1 0.999978
0.999886 1 1 0.999886
0.999792 1 1 0.999792
0.999703 1 1 0.999703
0.999745 1 1 0.999745
0.999705 1 1 0.999705
0.999976 1 1 0.999976
0.99986 1 1 0.99986
0.999696 1 1 0.999696
0.999786 1 1 0.999786
0.999796 1 1 0.999796
0.999754 1 1 0.999754
0.999728 1 1 0.999728
0.999722 1 1 0.999722
0.999726 1 1 0.999726
0.999682 1 1 0.999682
0.999867 1 1 0.999867
0.99978 1 1 0.99978
0.999754 1 1 0.999754
0.999747 1 1 0.999747
0.999738 1 1 0.999738
0.999757 1 1 0.999757
0.999692 1 1 0.999692
0.999722 1 1 0.999722
0.999687 1 1 0.999687
0.999621 1 1 0.999621
0.99978 1 1 0.99978
0.999722 1 1 0.999722
0.99971 1 1 0.99971
0.999711 1 1 0.999711
0.999763 1 1 0.999763
0.999754 1 1 0.999754
0.999625 1 1 0.999625
0.999886 1 1.00029 0.9996
0.999876 1 1 0.999876
0.999794 1 1 0.999794
0.999745 1 1 0.999745
0.999898 1 1 0.999898
0.9998 1 1 0.9998
0.999904 1 1 0.999904
0.999752 1 1 0.999752
0.99981 1 1 0.99981
0.999714 1 1 0.999714
0.999748 1 1 0.999748
0.999812 1 1 0.999812
0.999907 1 1 0.999907
0.999993 1 1 0.999993
0.999992 1 1 0.999992
1 1 1 1
0.999991 1 1 0.999991
1 1 1 1
1 1 1 1
1 1 1 1
1 1 1 1
1 1 1 1
1 1 1 1
1 1 1 1
1 1 1 1
1 1 1 1
1 1 1 1
1 1 1 1
0.999704 1 1 0.999704
0.999661 1 1 0.999661
0.999727 1 1 0.999727
0.999634 1 1 0.999634
0.999654 1 1 0.999654
0.999651 1 1 0.999651
0.999653 1 1 0.999653
0.999651 1 1 0.999651
0.99967 1 1 0.99967
0.999753 1 1 0.999753
0.999654 1 1 0.999654
0.999662 1 1 0.999662
0.999716 1 1 0.999716
0.999622 1 1 0.999622
0.999619 1 1 0.999619
0.999678 1 1 0.999678
0.999802 1 1 0.999802
0.999764 1 1 0.999764
0.999669 1 1 0.999669
0.999732 1 1 0.999732
0.999781 1 1 0.999781
0.999706 1 1 0.999706
0.999772 1 1 0.999772
0.999748 1 1 0.999748
0.999726 1 1 0.999726
0.99997 1 1 0.99997
0.999777 1 1 0.999777
0.999855 1 1 0.999855
0.999625 1 1 0.999625
0.999608 1 1 0.999608
0.999701 1 1 0.999701
0.999772 1 1 0.999772
0.999701 1 1 0.999701
0.999637 1 1 0.999637
0.999787 1 1 0.999787
0.999727 1 1 0.999727
0.999985 1 1 0.999985
0.999887 1 1 0.999887
0.999744 1 1 0.999744
0.999706 1 1 0.999706
0.999707 1 1 0.999707
0.999786 1 1 0.999786
0.999639 1 1 0.999639
0.999624 1 1 0.999624
0.999758 1 0.999974 0.999784
0.999796 1 1 0.999796
0.999732 1 1 0.999732
0.999902 1 1.00028 0.999625
0.99965 1 1 0.99965
0.999997 1 1 0.999997
0.999925 1 1 0.999925
0.999891 1 1 0.999891
0.999793 1 1 0.999793
0.999718 1 1 0.999718
0.999666 1 1 0.999666
0.999722 1 1 0.999722
0.999678 1 1 0.999678
0.999867 1 1 0.999867
0.999784 1 1 0.999784
0.999761 1 1 0.999761
0.999751 1 1 0.999751
0.999759 1 1 0.999759
0.999741 1 1 0.999741
0.999694 1 1 0.999694
0.999739 1 1 0.999739
0.999683 1 1 0.999683
0.999615 1 1 0.999615
0.999779 1 1 0.999779
0.999728 1 1 0.999728
0.999715 1 1 0.999715
0.999715 1 1 0.999715
0.999765 1 1 0.999765
0.99975 1 1 0.99975
0.999632 1 1 0.999632
0.999722 1 1.00012 0.999598
0.999735 1 1 0.999735
0.999719 1 1 0.999719
0.999692 1 1 0.999692
0.999666 1 1 0.999666
0.99978 1 1 0.99978
0.999609 1 1 0.999609
0.999994 1 1.00043 0.99956
0.999799 1 1 0.999799
0.999745 1 1 0.999745
0.999706 1 1 0.999706
0.999904 1 1 0.999904
0.999814 1 1 0.999814
0.999745 1 1 0.999745
0.999907 1 1 0.999907
0.999811 1 1 0.999811
0.999708 1 1 0.999708
0.999756 1 1 0.999756
0.999681 1 1 0.999681
0.999701 1 1 0.999701
0.99976 1 1 0.99976
0.99982 1 1 0.99982
0.999907 1 1 0.999907
0.999992 1 1 0.999992
0.999993 1 1 0.999993
1 1 1 1
0.999993 1 1 0.999993
1 1 1 1
1 1 1 1
1 1 1 1
1 1 1 1
1 1 1 1
0.999999 1 1 0.999999
1 1 1 1
1 1 1 1
1 1 1 1
1 1 1 1
1 1 1 1
1 1 1 1
0.999749 1 1 0.999749
0.999675 1 1 0.999675
0.999651 1 1 0.999651
0.99965 1 1 0.99965
0.999659 1 1 0.999659
0.999657 1 1 0.999657
0.999727 1 1 0.999727
0.999668 1 1 0.999668
0.999676 1 1 0.999676
0.999755 1 1 0.999755
0.999631 1 1 0.999631
0.999606 1 1 0.999606
0.999694 1 1 0.999694
0.999772 1 1 0.999772
0.999709 1 1 0.999709
0.999642 1 1 0.999642
0.999792 1 1 0.999792
0.999726 1 1 0.999726
0.999744 1 1 0.999744
0.999708 1 1 0.999708
0.999712 1 1 0.999712
0.999992 1 1 0.999992
0.999887 1 1 0.999887
0.999781 1 1 0.999781
0.999636 1 1 0.999636
0.999996 1 1 0.999996
0.99992 1 1 0.99992
0.999626 1 1 0.999626
0.99977 1 1 0.99977
0.999735 1 1 0.999735
0.999642 1 1 0.999642
0.999711 1 1.00008 0.999628
0.999793 1 1 0.999793
0.999905 1 1 0.999905
0.999793 1 1 0.999793
0.999724 1 1 0.999724
0.999686 1 1 0.999686
0.999658 1 1 0.999658
0.999719 1 1 0.999719
0.999625 1 1 0.999625
0.999698 1 1 0.999698
0.999522 1 0.99966 0.999862
0.99969 1 1 0.99969
0.999701 1 1 0.999701
1.00042 1 1.00084 0.999588
0.999924 1 1 0.999924
0.999916 1 1 0.999916
0.999853 1 1 0.999853
0.999797 1 1 0.999797
0.999733 1 1 0.999733
0.999657 1 1 0.999657
0.999623 1 1 0.999623
0.999685 1 1 0.999685
0.999778 1 1 0.999778
0.999734 1 1 0.999734
0.999767 1 1 0.999767
0.999746 1 1 0.999746
0.999719 1 1 0.999719
0.99972 1 1 0.99972
0.99964 1 1 0.99964
0.999604 1 1.00001 0.999595
0.999734 1 1 0.999734
0.999737 1 1 0.999737
0.999691 1 1 0.999691
0.999673 1 1.00002 0.999657
0.999776 1 1 0.999776
0.99961 1 1 0.99961
0.999967 1 1.00041 0.999557
0.999693 1 1 0.999693
0.999703 1.00041 0.999546 0.999751
0.999664 1 1 0.999664
0.999983 1 1.00039 0.99959
0.99961 1 1 0.99961
1.00044 1 1.00092 0.999525
0.989183 1.00465 0.98505 0.999546
0.999746 1 1 0.999746
0.999706 1 1 0.999706
0.999679 1 1 0.999679
0.999907 1 1 0.999907
0.999811 1 1 0.999811
0.999763 1 1 0.999763
0.999703 1 1 0.999703
0.999907 1 1 0.999907
0.999815 1 1 0.999815
0.99968 1 1 0.99968
0.99976 1 1 0.99976
0.999708 1 1 0.999708
0.999661 1 1 0.999661
0.999714 1 1 0.999714
0.999762 1 1 0.999762
0.999807 1 1 0.999807
0.999892 1 1 0.999892
0.999827 1 1 0.999827
0.999891 1 1 0.999891
0.999992 1 1 0.999992
0.999992 1 1 0.999992
1 1 1 1
0.999992 1 1 0.999992
1 1 1 1
1 1 1 1
1 1 1 1
1 1 1 1
1 1 1 1
1 1 1 1
0.999999 1 1 0.999999
1 1 1 1
1 1 1 1
1 1 1 1
1 1 1 1
1 1 1 1
1 1 1 1
0.999739 1 1 0.999739
0.999651 1 1 0.999651
0.999665 1 1 0.999665
0.999668 1 1 0.999668
0.99968 1 1 0.99968
0.999763 1 1 0.999763
0.999691 1 1 0.999691
0.996149 1.00103 0.995308 0.999819
0.999556 1 0.999705 0.999851
0.999942 1 1 0.999942
0.999633 1 1 0.999633
0.999628 1 1 0.999628
0.999757 1 1 0.999757
0.999739 1 1 0.999739
0.999634 1 1 0.999634
0.999631 1 1 0.999631
0.999791 1 1 0.999791
0.999726 1 1 0.999726
0.999693 1 1 0.999693
0.99965 1 1 0.99965
0.999995 1 1 0.999995
0.999721 1 1 0.999721
0.999919 1 1 0.999919
0.999792 1 1 0.999792
0.999915 1 1 0.999915
0.999617 1 1 0.999617
0.99993 1 1 0.99993
0.999916 1 1 0.999916
0.999842 1 1 0.999842
0.9997 1 1 0.9997
0.999421 1 0.999578 0.999843
0.999704 1 1 0.999704
1.00027 1 1.00069 0.999585
0.999693 1 1 0.999693
0.999804 1 1 0.999804
0.99973 1 1 0.99973
0.999683 1 1 0.999683
0.999665 1 1.00003 0.99963
0.999663 1 1 0.999663
0.99965 1 1.00004 0.999605
0.997304 1 0.997484 0.999819
0.99954 1 0.999786 0.999754
1.00015 1 1.00056 0.999599
1.0003 1 1.00064 0.999656
0.999843 1 1 0.999843
0.999816 1 1 0.999816
0.999782 1 1 0.999782
0.999733 1 1 0.999733
0.999682 1 1 0.999682
0.999621 1 1 0.999621
1.00121 1 1.0016 0.999609
0.999734 1 1 0.999734
0.999691 1 1 0.999691
0.999754 1 1 0.999754
0.999772 1 1 0.999772
0.999611 1 1 0.999611
0.999648 1 1 0.999648
0.999862 1 1.00031 0.999554
0.999697 1 1 0.999697
0.999822 1.0004 0.999663 0.99976
0.999664 1 1 0.999664
0.999835 1 1.00025 0.999589
0.999687 1.00006 1 0.999624
1.00105 1 1.00153 0.999523
0.993686 1.00725 0.986952 0.999581
0.999668 1 1 0.999668
1.00059 1.00101 1 0.999578
0.999634 1 1 0.999634
1.00235 1 1.00281 0.999542
1.00036 1 1.00085 0.999512
0.962248 0.963844 1.00004 0.998304
0.990065 1.00115 0.989351 0.999569
0.985341 1.0085 0.977498 0.99953
0.95737 0.965469 0.991899 0.99971
0.964286 0.987887 0.976226 0.999881
0.999706 1 1 0.999706
0.999679 1 1 0.999679
0.999651 1 1 0.999651
0.999907 1 1 0.999907
0.99981 1 1 0.99981
0.99976 1 1 0.99976
0.999714 1 1 0.999714
0.999678 1 1 0.999678
0.999754 1 1 0.999754
0.999898 1 1 0.999898
0.999812 1 1 0.999812
0.999665 1 1 0.999665
0.999711 1 1 0.999711
0.999718 1 1 0.999718
0.999665 1 1 0.999665
0.999739 1 1 0.999739
0.999805 1 1 0.999805
0.999891 1 1 0.999891
0.999821 1 1 0.999821
0.99976 1 1 0.99976
0.999808 1 1 0.999808
0.999817 1 1 0.999817
0.9999 1 1 0.9999
0.999891 1 1 0.999891
0.999991 1 1 0.999991
0.999991 1 1 0.999991
1 1 1 1
0.999992 1 1 0.999992
1 1 1 1
1 1 1 1
1 1 1 1
1 1 1 1
1 1 1 1
1 1 1 1
1 1 1 1
1 1 1 1
0.999998 1 1 0.999998
1 1 1 1
1 1 1 1
1 1 1 1
1 1 1 1
1 1 1 1
0.999685 1 1 0.999685
0.999669 1 1 0.999669
0.999771 1 1 0.999771
0.995553 1.00045 0.99529 0.999817
0.999688 1 1 0.999688
0.999682 1 0.999863 0.999819
0.999681 1 1.00004 0.999643
0.98119 0.984914 0.99692 0.999298
0.999615 1 0.999727 0.999889
0.999946 1 1 0.999946
0.999942 1 1 0.999942
0.999864 1 1 0.999864
0.999875 1 1 0.999875
0.999609 1 1 0.999609
0.999701 1 1 0.999701
0.999368 1 0.999545 0.999824
0.999706 1 1 0.999706
0.99998 1 1.0004 0.999582
0.999696 1 1 0.999696
0.999681 1 1 0.999681
0.99969 1 1.00005 0.999638
0.999668 1 1 0.999668
0.999916 1 1 0.999916
0.999727 1 1 0.999727
0.999812 1 1 0.999812
0.999936 1 1 0.999936
0.999831 1 1 0.999831
0.999651 1 1.00003 0.999616
0.999854 1 1 0.999854
0.999823 1 1 0.999823
0.999783 1 1 0.999783
0.998193 1 0.998374 0.999819
0.999358 1 0.999602 0.999755
1.00031 1 1.00065 0.999655
1.00014 1 1.00053 0.999602
0.999735 1 1 0.999735
0.999685 1 1 0.999685
1.00059 1 1.00098 0.99961
0.999644 1 1.00003 0.999618
0.999701 1 1.00003 0.999675
0.997852 1.00027 0.997778 0.9998
0.999684 1 1.0001 0.999581
1.00038 1 1.00077 0.999606
0.999762 1 1 0.999762
0.999747 1 1 0.999747
0.999652 1 1 0.999652
1.00163 1 1.00207 0.99956
0.960185 0.963719 0.998058 0.998271
0.9997 1 1 0.9997
0.999663 1 1 0.999663
0.999872 1.00031 0.999798 0.999769
0.99972 1.00008 1 0.999638
1.00173 1 1.00221 0.99952
0.99976 1 1.00017 0.999588
0.998267 1.00962 0.989133 0.999615
0.99967 1 1 0.99967
1.00105 1.00171 0.99976 0.999577
0.999635 1 1 0.999635
1.00194 1 1.00239 0.999544
1.00012 1 1.00059 0.999522
0.96369 0.96432 1.00088 0.998468
0.986613 0.997995 0.989411 0.999176
0.988728 1.01017 0.97923 0.999536
0.961251 0.967886 0.993636 0.999506
0.963258 0.984979 0.978059 0.999886
0.999658 1 1 0.999658
0.966596 0.969738 0.997481 0.999277
0.979354 0.99056 0.98877 0.999916
0.996558 1.00013 0.9969 0.99953
1.00128 1 1.00166 0.999617
1.00761 1 1.00807 0.999539
1.00123 1.01017 0.991681 0.999469
0.975023 0.972117 1.0048 0.998198
0.989157 1.00608 0.984024 0.999145
0.95591 0.968963 0.986861 0.999663
0.990983 1.006 0.985146 0.999922
0.99968 1 1 0.99968
0.999652 1 1 0.999652
0.999626 1 1 0.999626
0.999905 1 1 0.999905
0.999818 1 1 0.999818
0.999746 1 1 0.999746
0.999709 1 1 0.999709
0.99967 1 1 0.99967
0.999891 1 1 0.999891
0.999716 1 1 0.999716
0.999748 1 1 0.999748
0.999811 1 1 0.999811
0.999658 1 1 0.999658
0.99969 1 1 0.99969
0.999822 1 1.0002 0.999625
0.999742 1 1 0.999742
0.999818 1 1 0.999818
0.999821 1 1 0.999821
0.999751 1 1 0.999751
0.999752 1 1 0.999752
0.999742 1 1 0.999742
0.999709 1 1 0.999709
0.99972 1 1 0.99972
0.999795 1 1 0.999795
0.999808 1 1 0.999808
0.999894 1 1 0.999894
0.999806 1 1 0.999806
0.999894 1 1 0.999894
0.99999 1 1 0.99999
0.999891 1 1 0.999891
0.999991 1 1 0.999991
1 1 1 1
0.999991 1 1 0.999991
1 1 1 1
1 1 1 1
1 1 1 1
1 1 1 1
1 1 1 1
0.999944 1 1 0.999944
1 1 1 1
1 1 1 1
1 1 1 1
1 1 1 1
1 1 1 1
1 1 1 1
1 1 1 1
1 1 1 1
1 1 1 1
0.995048 1.00028 0.994957 0.999814
0.999686 1 1 0.999686
0.999787 1 1 0.999787
0.981992 0.98446 0.997959 0.999533
0.99977 1 0.999883 0.999887
0.999661 1 1.00003 0.999627
1.00124 1 1.00159 0.999646
0.987518 0.986526 1.00163 0.99938
0.965145 0.967083 1.00011 0.997882
0.955432 0.96491 0.990927 0.999244
0.966664 0.983391 0.983093 0.999896
0.999862 1 1 0.999862
0.999946 1 1 0.999946
0.999942 1 1 0.999942
0.999861 1 1 0.999861
0.999809 1 1 0.999809
0.999824 1 1 0.999824
0.999866 1 1 0.999866
0.99987 1 1 0.99987
0.999653 1 1.00003 0.999627
0.99901 1 0.99919 0.999819
0.999153 1 0.999396 0.999756
1.00034 1 1.00069 0.999654
1.00015 1 1.00054 0.999605
1.00006 1 1.00045 0.999611
0.999685 1 1.00007 0.999616
0.999689 1 1 0.999689
0.99983 1 1 0.99983
0.999738 1 1 0.999738
0.999865 1 1 0.999865
0.999784 1 1 0.999784
0.999143 1 0.999476 0.999667
0.999765 1 1 0.999765
0.99975 1 1 0.99975
0.997264 1.00009 0.99737 0.999799
0.999613 1 1.00002 0.999592
1.00084 1 1.00125 0.999593
0.999651 1 1 0.999651
1.00165 1 1.00208 0.999563
0.990699 1.00485 0.986233 0.999677
1.00191 1.00019 1.00211 0.999612
0.999597 1 1.00005 0.999547
1.00463 1 1.0051 0.999535
0.999715 1 1 0.999715
0.999679 1 1 0.999679
1.00013 1 1.00054 0.999582
0.965802 0.972113 0.993908 0.999597
0.963852 0.965575 0.99988 0.998336
0.999672 1 1 0.999672
0.999636 1 1 0.999636
1.00187 1.00268 0.999609 0.999576
0.999797 1 1.00026 0.999533
1.00142 1 1.00187 0.999547
0.962771 0.964993 0.999863 0.997835
0.989352 0.998097 0.991575 0.99966
0.992493 1.01229 0.980891 0.999542
0.957055 0.966924 0.99051 0.999277
0.962194 0.982177 0.97976 0.999892
0.999657 1 1 0.999657
0.964617 0.971149 0.993633 0.999638
0.980255 0.9895 0.99073 0.999926
0.997063 1.00023 0.997305 0.999527
1.00044 1 1.00082 0.99962
1.00689 1 1.00734 0.999551
0.998241 1.0076 0.991253 0.999451
0.974781 0.973233 1.00361 0.997989
0.984059 1.00165 0.982843 0.999583
0.955704 0.968896 0.987133 0.999242
0.986245 1.00511 0.981316 0.999919
0.999633 1 1 0.999633
0.994934 0.996543 0.998433 0.999953
1.00921 1.01104 0.998236 0.999954
1.00893 1 1.00939 0.999538
1.00559 1 1.00592 0.999671
1.00434 1.00361 1.00103 0.999702
0.990464 1.00046 0.990175 0.999834
0.978713 0.976077 1.00461 0.998102
0.968441 0.984497 0.984457 0.999222
1.00271 1.01329 0.98962 0.999935
0.999652 1 1 0.999652
0.999623 1 1 0.999623
1.00003 1 1.00042 0.99961
0.999891 1 1 0.999891
0.999818 1 1 0.999818
0.999757 1 1 0.999757
0.999714 1 1 0.999714
0.999652 1 1 0.999652
0.999818 1 1 0.999818
0.999695 1 1 0.999695
0.999742 1 1 0.999742
0.999865 1 1.00024 0.99962
1.00015 1 1.00055 0.999591
0.999754 1 1.00009 0.999668
0.999747 1 1 0.999747
0.999821 1 1 0.999821
0.999743 1 1 0.999743
0.999752 1 1 0.999752
0.999742 1 1 0.999742
0.999708 1 1 0.999708
0.999727 1 1 0.999727
0.999701 1 1 0.999701
0.999684 1 1 0.999684
0.999695 1 1 0.999695
0.99973 1 1 0.99973
0.999729 1 1 0.999729
0.999721 1 1 0.999721
0.999785 1 1 0.999785
0.999795 1 1 0.999795
0.999884 1 1 0.999884
0.999808 1 1 0.999808
0.999894 1 1 0.999894
0.999988 1 1 0.999988
0.999888 1 1 0.999888
0.999989 1 1 0.999989
1 1 1 1
0.99999 1 1 0.99999
1 1 1 1
1 1 1 1
1 1 1 1
1 1 1 1
1 1 1 1
0.999949 1 1 0.999949
1 1 1 1
0.999944 1 1 0.999944
1 1 1 1
1 1 1 1
1 1 1 1
1 1 1 1
1 1 1 1
1 1 1 1
1 1 1 1
1 1 1 1
0.962139 0.968731 0.993511 0.999682
0.983685 0.991695 0.991976 0.999946
0.983605 0.98514 0.998706 0.999735
0.999869 1 0.999984 0.999885
0.99964 1 1.00003 0.999611
0.986792 0.985026 1.00196 0.999838
1.00045 1 1.0008 0.999656
0.968993 0.96931 1.00136 0.998319
0.958938 0.966079 0.992902 0.999704
0.965116 0.982868 0.982035 0.999903
0.99994 0.995508 1.00465 0.999802
0.973758 0.972805 1.0027 0.998285
0.955857 0.967534 0.988246 0.999681
0.984226 1.00379 0.980599 0.999911
0.999791 1 1 0.999791
0.999867 1 1 0.999867
0.999946 1 1 0.999946
0.999857 1 1 0.999857
0.999815 1 1 0.999815
0.999804 1 1 0.999804
0.999826 1 1 0.999826
0.99984 1 1 0.99984
0.99986 1 1 0.99986
0.999865 1 1 0.999865
0.998684 1 0.999025 0.999659
0.996924 1 0.997127 0.999797
0.999603 1 1 0.999603
1.00124 1 1.00166 0.99958
1.00154 1 1.00198 0.999566
0.99965 1 1 0.99965
0.999752 1 1 0.999752
0.999768 1 1 0.999768
0.992875 1.00353 0.989722 0.999656
0.999712 1 1 0.999712
0.999672 1 1 0.999672
1.00028 1.00014 1.00053 0.999612
1.00005 1 1.0005 0.999546
1.00369 1 1.00416 0.999526
1.00069 1 1.00112 0.999574
0.985049 1.01233 0.973502 0.99954
1.00818 1 1.00865 0.999535
1.00427 1 1.00476 0.999517
0.99971 1 1 0.99971
0.999664 1 1 0.999664
0.999609 1 1 0.999609
0.994257 0.996951 0.997386 0.999912
0.966329 0.971417 0.99552 0.999238
0.961894 0.965399 0.998115 0.998252
0.999656 1 1 0.999656
0.999622 1 1 0.999622
0.997735 1.00025 0.997956 0.999524
1.00634 1 1.00679 0.999562
0.961293 0.969616 0.992176 0.999235
0.972086 0.972096 1.00133 0.998658
0.985133 1.00286 0.983116 0.999194
0.996119 1.00518 0.991542 0.999439
0.956354 0.968018 0.988246 0.999701
0.982344 0.991253 0.991101 0.999911
0.983937 1.00241 0.98166 0.99991
0.999632 1 1 0.999632
0.99223 0.995471 0.996808 0.999935
1.01023 1.01218 0.998114 0.999952
1.00879 1 1.00926 0.99954
1.00584 1 1.00617 0.999672
1.0074 1.00315 1.00484 0.999394
0.987893 1.0005 0.988136 0.999257
0.977921 0.977317 1.00255 0.998078
0.973567 0.985248 0.988407 0.999733
0.999216 1.0117 0.98774 0.999923
0.99969 1 1 0.99969
1.00898 1.00922 0.999791 0.999973
1.00727 1.009 0.998312 0.999978
1.00714 1 1.00734 0.999802
0.997616 0.995008 1.00269 0.999929
0.987319 0.984132 1.00501 0.998233
0.985028 0.999257 0.986048 0.999709
0.999808 1.01437 0.985727 0.999912
0.999621 1 1 0.999621
0.999972 1 1.00036 0.999617
1.00092 1 1.0013 0.999622
0.999818 1 1 0.999818
0.999742 1 1 0.999742
0.9997 1 1 0.9997
0.999896 1 1.00028 0.999615
0.999746 1 1 0.999746
0.999699 1 1.00003 0.999668
1.00052 1 1.00093 0.99959
1.00046 1 1.00086 0.999606
0.999815 1 1.00021 0.999602
0.99969 1 1 0.99969
0.999751 1 1 0.999751
0.999741 1 1 0.999741
0.999707 1 1 0.999707
0.999703 1 1 0.999703
0.999728 1 1 0.999728
0.999686 1 1 0.999686
0.999676 1 1 0.999676
0.999663 1 1 0.999663
0.999673 1 1 0.999673
0.999695 1 1 0.999695
0.999705 1 1 0.999705
0.999713 1 1 0.999713
0.999769 1 1 0.999769
0.999745 1 1 0.999745
0.999734 1 1 0.999734
0.999778 1 1 0.999778
0.999722 1 1 0.999722
0.999785 1 1 0.999785
0.999873 1 1 0.999873
0.999795 1 1 0.999795
0.999884 1 1 0.999884
0.999985 1 1 0.999985
0.999893 1 1 0.999893
0.999987 1 1 0.999987
1 1 1 1
0.999989 1 1 0.999989
1 1 1 1
1 1 1 1
1 1 1 1
1 1 1 1
1 1 1 1
0.999925 1 1 0.999925
1 1 1 1
0.999939 1 1 0.999939
1 1 1 1
1 1 1 1
0.999945 1 1 0.999945
1 1 1 1
1 1 1 1
1 1 1 1
1 1 1 1
1 1 1 1
1 1 1 1
0.994563 0.996379 0.998219 0.999958
0.963479 0.969451 0.994374 0.999463
1.00766 1.01085 0.996878 0.999962
0.980859 0.988572 0.992256 0.999941
0.983586 0.983685 1.00054 0.999361
0.99971 1 1.00004 0.999667
0.969668 0.969125 1.00178 0.998778
0.957384 0.96641 0.991392 0.999263
0.964275 0.982885 0.981155 0.999909
0.997042 0.997039 1.00037 0.999638
0.973252 0.970836 1.00429 0.99821
0.95821 0.97029 0.988294 0.999247
0.982214 1.00331 0.979059 0.999915
0.996391 1.00424 0.992388 0.999798
0.975224 0.972426 1.00477 0.998113
0.971576 0.986929 0.98472 0.999719
0.997308 1.01502 0.982612 0.999936
0.999752 1 1 0.999752
0.999798 1 1 0.999798
0.999872 1 1 0.999872
0.99982 1 1 0.99982
0.999768 1 1 0.999768
0.999809 1 1 0.999809
0.999829 1 1 0.999829
0.999832 1 1 0.999832
0.999846 1 1 0.999846
0.999853 1 1 0.999853
0.995263 1.00246 0.993186 0.999635
0.998521 1 0.998908 0.999613
1.00039 1 1.00085 0.999545
1.00301 1 1.00349 0.999517
1.00133 1 1.00176 0.999567
0.999665 1 1 0.999665
0.999709 1 1 0.999709
0.999712 1 1 0.999712
0.987229 1.00981 0.978088 0.999539
0.999668 1 1 0.999668
0.999696 1 1.00009 0.999606
1.00757 1 1.00805 0.99953
1.00413 1 1.00462 0.999517
0.987481 1.01062 0.977574 0.999521
1.01749 1 1.01794 0.999565
1.00034 1 1.00078 0.999558
0.999674 1 1 0.999674
0.999615 1 1 0.999615
1.00778 1.00803 0.999768 0.999981
0.994821 0.99681 0.998067 0.999937
0.966663 0.97222 0.994631 0.999651
0.99963 1 1 0.99963
1.00595 1 1.00628 0.999672
1.00831 1 1.00878 0.999542
0.995248 0.996818 0.998472 0.999954
0.977808 0.975506 1.00433 0.998038
0.985433 0.999524 0.9861 0.999799
1.00853 1.002 1.00745 0.999071
0.96703 0.982382 0.985127 0.999234
1.01149 1.01358 0.997988 0.999951
1.00134 1.01199 0.989557 0.999919
0.999697 1 1 0.999697
1.01005 1.01016 0.999921 0.999973
1.00824 1.01011 0.998168 0.999979
1.00738 0.999985 1.00768 0.999714
0.996784 0.996397 1.00064 0.999748
0.98946 0.986288 1.00511 0.99812
1.00299 1.01496 0.988279 0.999927
0.983741 0.995878 0.988293 0.999514
0.999751 1 1 0.999751
1.00176 1.00199 0.999774 0.999997
1.00516 1.00683 0.998356 0.999989
1.00047 1.01406 0.986655 0.999934
1.005 0.996637 1.00848 0.999911
0.983059 0.982573 1.00212 0.998377
0.981402 0.997222 0.984524 0.999607
0.999891 1 1.00027 0.999624
1.0007 1 1.00109 0.999608
1.00321 1 1.00355 0.99966
0.999746 1 1 0.999746
0.999669 1 1 0.999669
1.00096 1 1.00138 0.999588
0.999692 1 1 0.999692
0.999927 1 1.00033 0.999602
1.00086 1 1.00126 0.999594
0.999972 1 1.00035 0.999617
0.999632 1 1 0.999632
0.999704 1 1 0.999704
0.999728 1 1 0.999728
0.999689 1 1 0.999689
0.999664 1 1 0.999664
0.999676 1 1 0.999676
0.999654 1 1 0.999654
0.99969 1 1 0.99969
0.999821 1 1.00019 0.999631
0.999695 1 1 0.999695
0.999704 1 1 0.999704
0.999661 1 1 0.999661
0.999727 1 1 0.999727
0.999774 1 1 0.999774
0.999714 1 1 0.999714
0.999797 1 1 0.999797
0.999766 1 1 0.999766
0.99976 1 1 0.99976
0.999738 1 1 0.999738
0.999782 1 1 0.999782
0.999865 1 1 0.999865
0.999786 1 1 0.999786
0.999873 1 1 0.999873
0.999981 1 1 0.999981
0.999883 1 1 0.999883
0.999984 1 1 0.999984
1 1 1 1
0.999986 1 1 0.999986
1 1 1 1
1 1 1 1
1 1 1 1
1 1 1 1
1 1 1 1
0.999896 1 1 0.999896
0.999985 1 1 0.999985
0.999925 1 1 0.999925
1 1 1 1
0.999994 1 1 0.999994
0.999928 1 1 0.999928
1 1 1 1
1 1 1 1
1 1 1 1
1 1 1 1
1 1 1 1
1 1 1 1
1.00796 1.00815 0.999837 0.999978
0.991387 0.995122 0.99633 0.999917
0.965684 0.969697 0.996582 0.999277
0.999804 1 1 0.999804
1.00799 1.00887 0.999135 0.999983
1.00925 1.01156 0.997759 0.999961
0.978723 0.987923 0.990777 0.99991
0.994331 0.998177 0.99669 0.999455
0.97603 0.971501 1.00643 0.998243
0.961572 0.971998 0.989568 0.999704
0.982173 1.00174 0.980557 0.999906
0.994934 1.00777 0.987928 0.999322
0.976602 0.973848 1.00467 0.998164
0.969448 0.986338 0.983375 0.999492
0.997279 1.01524 0.982383 0.999923
0.978002 1.00024 0.978478 0.999276
0.98088 0.97863 1.00459 0.997715
0.980358 0.994887 0.986135 0.999252
0.996293 1.01554 0.981141 0.999901
0.99971 1 1 0.99971
0.999747 1 1 0.999747
0.999805 1 1 0.999805
0.999755 1 1 0.999755
0.999775 1 1 0.999775
0.999813 1 1 0.999813
0.999834 1 1 0.999834
0.999853 1 1 0.999853
0.989281 1.00711 0.982747 0.999537
1.00687 1 1.00735 0.999525
0.999713 1 1 0.999713
1.00389 1 1.00438 0.999517
0.999769 1 1.00017 0.999602
0.999672 1 1 0.999672
0.999674 1 1 0.999674
0.988578 1.00979 0.97947 0.999519
0.999616 1 1 0.999616
1.00116 1 1.0016 0.999555
1.01762 1 1.01807 0.999561
0.999668 1 1 0.999668
1.00372 1.00289 1.00118 0.999655
1.01324 1 1.01363 0.999614
0.9996 1 1 0.9996
0.999629 1 1 0.999629
1.00109 1.00106 1.00003 0.999998
1.00728 1.0075 0.999805 0.999981
0.995151 0.996629 0.998555 0.999962
0.999704 1 1 0.999704
1.00778 0.999979 1.00818 0.999626
1.01109 1.01112 0.999995 0.999973
0.985939 0.980596 1.00733 0.998137
1.00075 1.00024 1.00121 0.999305
0.978856 0.993481 0.985949 0.999321
1.00881 1.01076 0.998084 0.99998
1.00628 1.01507 0.991402 0.999942
0.999742 1 1 0.999742
1.00134 1.0015 0.999844 0.999998
1.00381 1.00504 0.998777 0.999992
1.00299 0.99612 1.00696 0.99994
1.00017 1.01425 0.986204 0.999921
0.98235 0.985711 0.998063 0.998524
0.978452 0.994393 0.98473 0.999227
1.00483 0.998756 1.00628 0.999796
0.998887 0.998504 1.00038 1
1.00884 1.00905 0.999807 0.999981
0.98606 1.00335 0.982857 0.999907
0.98123 0.992574 0.989302 0.999261
0.996276 0.992867 1.00329 1.00014
0.976634 0.980544 0.997619 0.99839
1.00048 1 1.00089 0.999595
1.00233 1 1.00268 0.999651
1.01224 1 1.01262 0.99962
0.999695 1 1 0.999695
0.999967 1 1.00037 0.999601
1.00112 1 1.00154 0.999583
0.999633 1 1 0.999633
1.00005 1 1.00043 0.999615
1.00299 1 1.00337 0.99962
0.999664 1 1 0.999664
0.999675 1 1 0.999675
0.999829 1 1.00018 0.999651
1.00141 1 1.00181 0.999602
0.999707 1 1 0.999707
0.999752 1 1.00011 0.999639
0.999863 1 1.00027 0.999595
0.999659 1 1 0.999659
0.999704 1 1 0.999704
0.999655 1 1 0.999655
0.999754 1 1 0.999754
0.999773 1 1 0.999773
0.999734 1 1 0.999734
0.999809 1 1 0.999809
0.999773 1 1 0.999773
0.999715 1 1 0.999715
0.999865 1 1 0.999865
0.999794 1 1 0.999794
0.999763 1 1 0.999763
0.999786 1 1 0.999786
0.999865 1 1 0.999865
0.999976 1 1 0.999976
0.999873 1 1 0.999873
0.99998 1 1 0.99998
1 1 1 1
0.999983 1 1 0.999983
1 1 1 1
1 1 1 1
1 1 1 1
1 1 1 1
1 1 1 1
0.99988 1 1 0.99988
0.999977 1 1 0.999977
0.999902 1 1 0.999902
1 1 1 1
0.999984 1 1 0.999984
0.999924 1 1 0.999924
1 1 1 1
1 1 1 1
0.999988 1 1 0.999988
1 1 1 1
1 1 1 1
1 1 1 1
1.00247 1.00241 1.00007 0.999996
1.00779 1.00807 0.999747 0.999978
0.993043 0.995897 0.99722 0.999914
0.999807 1 1 0.999807
0.999789 1 1 0.999789
0.999755 1 1 0.999755
1.00372 1.00642 0.997329 0.99999
1.00826 1.0094 0.998883 0.999983
1.01098 1.01229 0.998751 0.999961
0.998218 1.01157 0.987022 0.999779
0.976039 0.972595 1.00541 0.998138
0.967846 0.984773 0.983547 0.999252
0.999807 1.01609 0.984043 0.999929
0.976115 0.998163 0.978172 0.999733
0.984369 0.980338 1.0059 0.99822
0.983345 0.99971 0.983971 0.999653
0.999121 1.01577 0.983685 0.999922
0.974811 0.993692 0.981145 0.999852
0.980981 0.981615 1.00105 0.998301
0.982876 0.999924 0.983407 0.999535
0.9964 1.01244 0.984218 0.999939
0.999697 1 1 0.999697
0.99971 1 1 0.99971
0.999742 1 1 0.999742
0.999755 1 1 0.999755
0.999782 1 1 0.999782
0.999837 1 1 0.999837
0.989529 1.00883 0.981345 0.999517
1.01749 1 1.01794 0.999557
0.999675 1 1 0.999675
1.00187 1 1.00231 0.999553
0.999616 1 1 0.999616
0.999667 1 1 0.999667
0.999625 1 1 0.999625
1.0006 1.0039 0.997063 0.999647
0.999605 1 1 0.999605
1.01374 1 1.01412 0.999627
0.999629 1 1 0.999629
1.0207 0.999481 1.02147 0.999765
1.00013 1 1.00044 0.999695
0.999594 1 1 0.999594
0.998748 0.998644 1.0001 1
1.00048 1.00046 1.00002 0.999999
1.00682 1.00697 0.999868 0.999982
0.999733 1 1 0.999733
1.00148 0.995452 1.00607 0.999986
1.0009 1.00099 0.999907 0.999998
0.987273 0.989027 0.999087 0.999139
0.984597 1.00067 0.984288 0.999643
1.00263 1.00343 0.999208 0.999994
1.00257 1.01521 0.987613 0.999927
1.00407 0.99937 1.0049 0.999806
0.998847 0.998505 1.00034 1
1.00919 1.00961 0.999603 0.999981
0.997487 0.992775 1.00501 0.99974
0.984625 1.00314 0.98163 0.999912
0.983486 0.997394 0.986383 0.999668
0.977119 0.980644 0.99799 0.998412
1.01612 1 1.01624 0.999884
1.00239 1.00234 1.00006 0.999996
1.00889 1.01124 0.99772 0.999959
0.966868 0.983448 0.983248 0.99989
0.973538 0.985292 0.988352 0.999715
0.990396 0.985812 1.00633 0.998329
0.978577 0.99146 0.987408 0.999592
1.00131 1 1.00167 0.999643
1.01339 1 1.01377 0.999623
1.01936 1 1.01975 0.999622
0.999634 1 1 0.999634
1.00016 1 1.00055 0.999612
1.00242 1 1.00281 0.99962
1.01023 1 1.01067 0.999558
0.999966 1 1.00032 0.999647
1.00171 1 1.00212 0.999593
1.00384 1 1.00431 0.999533
0.999648 1 1 0.999648
1.00019 1 1.00059 0.999593
0.99995 1 1.00038 0.999574
0.999633 1 1 0.999633
0.999722 1 1 0.999722
0.999652 1 1 0.999652
0.99965 1 1 0.99965
0.999784 1 1 0.999784
0.99976 1 1 0.99976
0.999806 1 1 0.999806
0.999778 1 1 0.999778
0.99974 1 1 0.99974
0.99987 1 1 0.99987
0.999809 1 1 0.999809
0.999772 1 1 0.999772
0.999972 1 1 0.999972
0.999866 1 1 0.999866
0.999792 1 1 0.999792
0.999866 1 1 0.999866
0.999976 1 1 0.999976
1 1 1 1
0.999979 1 1 0.999979
1 1 1 1
1 1 1 1
1 1 1 1
1 1 1 1
1 1 1 1
0.99988 1 1 0.99988
0.999986 1 1 0.999986
0.999886 1 1 0.999886
1 1 1 1
0.999985 1 1 0.999985
0.999907 1 1 0.999907
1 1 1 1
1 1 1 1
0.999984 1 1 0.999984
1 1 1 1
1 1 1 1
1 1 1 1
0.999013 0.998517 1.00049 1
1.00219 1.00211 1.00008 0.999996
1.0075 1.00796 0.999565 0.999978
0.999786 1 1 0.999786
0.999758 1 1 0.999758
0.99981 1 1 0.99981
0.999788 1 1 0.999788
0.999748 1 1 0.999748
0.999743 1 1 0.999743
0.999713 1 1 0.999713
1.00621 1.00814 0.998102 0.99998
1.00284 1.00494 0.997912 0.999993
1.00844 1.00992 0.998548 0.999983
1.00211 1.0159 0.986487 0.999943
0.980562 1.00336 0.978012 0.999254
0.985677 0.980193 1.00693 0.998677
0.978569 0.996856 0.982442 0.999199
0.979501 0.993402 0.986433 0.999567
0.98634 0.985752 1.00233 0.99827
0.980921 0.99787 0.983825 0.999176
0.994754 1.01215 0.982898 0.999913
0.987356 0.989651 0.997766 0.999914
0.979178 0.98569 0.995149 0.998237
0.986105 1.00308 0.98342 0.999648
0.988869 1.00489 0.984131 0.999925
0.999678 1 1 0.999678
0.999696 1 1 0.999696
0.99971 1 1 0.99971
0.999754 1 1 0.999754
0.996677 1.00489 0.992182 0.999639
1.01461 1 1.01497 0.999641
0.999666 1 1 0.999666
0.999621 1 1 0.999621
0.99961 1 1 0.99961
0.999634 1 1 0.999634
0.999591 1 1 0.999591
1.01154 0.997556 1.01424 0.99978
1.00015 1 1.00044 0.999716
0.99959 1 1 0.99959
1.02418 0.994028 1.03044 0.999897
1.00351 1 1.00395 0.999565
1.00099 1.00098 1.00002 0.999998
0.998914 0.998857 1.00006 1
0.99988 0.999865 1.00001 1
1.00361 1 1.00379 0.999816
0.997704 0.992111 1.00554 1.0001
0.998806 0.998521 1.00028 1
0.977606 0.980677 0.998513 0.998354
0.978262 0.994711 0.984237 0.999215
1.00943 1.01016 0.999293 0.999982
0.98532 1.0015 0.983937 0.999904
1.0176 0.999622 1.01812 0.999869
1.00209 1.00203 1.00007 0.999996
1.01039 1.01193 0.998524 0.999958
0.982998 0.994019 0.988825 1.00009
0.965581 0.982647 0.982733 0.999898
0.97025 0.983873 0.986664 0.999483
0.992165 0.984774 1.00904 0.998476
1.00455 1 1.00469 0.999855
1.00832 1.00828 1.00006 0.999976
0.985094 0.992049 0.993046 0.999943
0.955684 0.966577 0.989059 0.999668
0.983338 0.97832 1.00698 0.998164
0.975947 0.99713 0.979339 0.999404
1.01475 1 1.01513 0.999627
1.01991 1 1.0203 0.99962
1.02009 1 1.02054 0.999565
1.00192 1 1.0023 0.99962
1.01069 1 1.01112 0.999567
1.00782 1 1.00833 0.99949
1.00219 1 1.0026 0.999584
1.00395 1 1.00443 0.999523
1.00234 1 1.00283 0.999509
1.00059 1 1.001 0.999591
1.00007 1 1.00051 0.999566
0.999962 1 1.00038 0.999583
0.999642 1 1 0.999642
0.999687 1 1 0.999687
0.999627 1 1 0.999627
0.999766 1 1 0.999766
0.999727 1 1 0.999727
0.999645 1 1 0.999645
0.999804 1 1 0.999804
0.999781 1 1 0.999781
0.999767 1 1 0.999767
0.999867 1 1 0.999867
0.999809 1 1 0.999809
0.999784 1 1 0.999784
0.999969 1 1 0.999969
0.99987 1 1 0.99987
0.99981 1 1 0.99981
1 1 1 1
0.999972 1 1 0.999972
0.999866 1 1 0.999866
0.999975 1 1 0.999975
1 1 1 1
1 1 1 1
1 1 1 1
1 1 1 1
1 1 1 1
0.99979 1 1 0.99979
0.999868 1 1 0.999868
0.999981 1 1 0.999981
0.999879 1 1 0.999879
1 1 1 1
0.999987 1 1 0.999987
0.999891 1 1 0.999891
1 1 1 1
1 1 1 1
0.999992 1 1 0.999992
1 1 1 1
1 1 1 1
1 1 1 1
1.00167 1.00173 0.999939 0.999997
0.998976 0.998517 1.00046 1
1.00193 1.00181 1.00012 0.999997
0.999789 1 1 0.999789
0.999754 1 1 0.999754
0.999755 1 1 0.999755
0.999746 1 1 0.999746
0.999737 1 1 0.999737
0.999787 1 1 0.999787
0.999741 1 1 0.999741
0.999744 1 1 0.999744
0.999714 1 1 0.999714
0.999712 1 1 0.999712
1.00859 1.00931 0.999334 0.999955
1.00692 1.00907 0.997892 0.999981
1.00178 1.00329 0.998494 0.999995
0.995786 1.01196 0.984104 0.99991
0.986169 1.00302 0.983598 0.999591
0.984161 0.993209 0.991553 0.999332
0.9802 0.983433 0.998362 0.998348
0.991552 0.988978 1.00317 0.999438
0.978687 0.982858 0.997458 0.998293
0.983625 0.999378 0.984781 0.999447
0.986462 1.00395 0.982656 0.999924
1.01165 0.986532 1.02599 0.999481
0.983811 0.984786 1.00066 0.998347
0.966826 0.984428 0.982859 0.999247
0.967503 0.987201 0.980144 0.999901
0.99971 1 1 0.99971
0.999681 1 1 0.999681
0.999694 1 1 0.999694
1.00347 0.995875 1.00784 0.999795
1.00014 1 1.00041 0.999738
0.999638 1 1 0.999638
0.999587 1 1 0.999587
0.999627 1 1.00003 0.999594
1.004 1 1.00444 0.999559
1.02422 0.995633 1.02882 0.999897
1.00393 1 1.00435 0.99958
1.01278 0.999006 1.01406 0.999733
1.00747 1.0075 1 0.999979
1.00042 1.0004 1.00002 0.999999
0.999092 0.99907 1.00002 1
1.0188 0.999221 1.01975 0.999854
0.985351 0.993016 0.992689 0.999589
1.00183 1.00172 1.00012 0.999997
0.983413 0.982321 1.00325 0.997865
0.969506 0.983269 0.986755 0.999238
1.01193 1.01265 0.999335 0.999958
0.965218 0.982669 0.982334 0.999906
1.00526 1 1.0054 0.999862
1.00822 1.0082 1.00004 0.999976
0.981949 0.98893 0.993003 0.999938
0.97206 0.994309 0.977947 0.99967
0.958386 0.969725 0.98906 0.999239
0.986404 0.980191 1.00848 0.997873
0.985214 1.00028 0.985183 0.99975
0.995436 0.996819 0.99866 0.999954
0.956016 0.965427 0.991007 0.999239
0.976428 0.973759 1.00467 0.998084
0.975478 1.00005 0.975745 0.99968
1.01999 1 1.02038 0.999619
1.02146 1 1.02191 0.999564
1.01171 1 1.01222 0.999501
1.01094 1 1.01137 0.999576
1.00737 1 1.00788 0.999494
1.0018 1 1.0023 0.999503
1.00383 1 1.00432 0.999513
1.0017 1 1.00219 0.999512
0.999605 1 1 0.999605
1.00009 1 1.00053 0.999558
0.999753 1 1.00017 0.999588
0.999665 1 1 0.999665
0.999693 1 1 0.999693
0.99967 1 1 0.99967
0.999645 1 1 0.999645
0.999735 1 1 0.999735
0.999678 1 1 0.999678
0.999622 1 1 0.999622
0.999805 1 1 0.999805
0.999772 1 1 0.999772
0.999733 1 1 0.999733
0.999859 1 1 0.999859
0.999804 1 1 0.999804
0.999778 1 1 0.999778
0.999965 1 1 0.999965
0.999867 1 1 0.999867
0.999812 1 1 0.999812
1 1 1 1
0.999969 1 1 0.999969
0.999871 1 1 0.999871
1 1 1 1
1 1 1 1
0.999972 1 1 0.999972
1 1 1 1
1 1 1 1
1 1 1 1
0.999784 1 1 0.999784
0.999859 1 1 0.999859
0.999787 1 1 0.999787
0.999976 1 1 0.999976
0.999868 1 1 0.999868
1 1 1 1
0.999982 1 1 0.999982
0.999879 1 1 0.999879
1 1 1 1
1 1 1 1
0.999989 1 1 0.999989
1 1 1 1
1 1 1 1
1 1 1 1
1.00757 1.0076 1 0.999974
1.00131 1.00133 0.99998 0.999998
0.998938 0.998527 1.00041 1
0.999765 1 1 0.999765
0.999791 1 1 0.999791
0.99975 1 1 0.99975
0.999751 1 1 0.999751
0.999759 1 1 0.999759
0.999737 1 1 0.999737
0.999733 1 1 0.999733
0.999723 1 1 0.999723
0.999744 1 1 0.999744
0.999714 1 1 0.999714
0.999712 1 1 0.999712
0.999706 1 1 0.999706
0.981348 0.990108 0.991234 0.999918
1.00937 1.01018 0.999236 0.999954
1.00788 1.01022 0.997698 0.999982
0.986651 1.00252 0.984264 0.999909
0.980072 0.997343 0.983429 0.999241
0.97808 0.984776 0.99495 0.998242
0.993568 0.985624 1.00811 0.999953
1.01284 0.986439 1.02679 0.999971
0.965889 0.98382 0.981863 0.99991
0.985857 0.986458 1.00134 0.998052
0.967394 0.982802 0.984599 0.99972
1.00383 0.99404 1.00993 0.999922
0.983497 0.979971 1.00529 0.99832
0.953809 0.965096 0.988581 0.999721
1.00017 1 1.00041 0.99976
0.99971 1 1 0.99971
0.999683 1 1 0.999683
1.02433 0.997389 1.02711 0.999897
1.00461 1 1.00506 0.999553
0.999648 1 1.00005 0.999598
1.00423 1 1.00465 0.999583
1.01182 0.999584 1.01251 0.999733
1.00911 1 1.00937 0.999738
0.993916 0.996585 0.997409 0.999913
1.00675 1.00677 1 0.99998
0.999841 0.999826 1.00001 1
1.00582 1 1.00595 0.99987
0.972143 0.995925 0.976261 0.999856
1.008 1.0081 0.999926 0.999976
0.990599 0.981762 1.01036 0.998656
0.961669 0.971416 0.990269 0.999694
0.979091 0.988123 0.990952 0.999907
0.983507 1.00103 0.982739 0.999749
0.991981 0.995573 0.996478 0.999914
0.959159 0.966188 0.993022 0.999701
0.975644 1.00054 0.975876 0.999225
0.979124 0.976051 1.00503 0.998128
0.979323 1.00817 0.971816 0.999556
0.963101 0.969649 0.99356 0.999685
0.974085 0.973214 1.00264 0.998265
0.979644 1.00469 0.975828 0.999219
1.02339 1 1.02383 0.999564
1.01122 1 1.01173 0.999499
1.0026 1 1.00305 0.99955
1.00715 1 1.00766 0.999498
1.00176 1 1.00226 0.999506
0.999684 1 1 0.999684
1.00123 1 1.00172 0.999515
0.999646 1 1.00003 0.999612
0.999754 1 1 0.999754
0.999592 1 1 0.999592
0.999667 1 1 0.999667
0.999758 1 1 0.999758
0.999757 1 1 0.999757
0.999698 1 1 0.999698
0.999699 1 1 0.999699
0.999712 1 1 0.999712
0.999676 1 1 0.999676
0.999648 1 1 0.999648
0.99979 1 1 0.99979
0.999734 1 1 0.999734
0.999669 1 1 0.999669
0.999854 1 1 0.999854
0.999805 1 1 0.999805
0.999778 1 1 0.999778
0.999957 1 1 0.999957
0.999859 1 1 0.999859
0.999803 1 1 0.999803
1 1 1 1
0.999965 1 1 0.999965
0.999867 1 1 0.999867
1 1 1 1
1 1 1 1
0.99997 1 1 0.99997
1 1 1 1
1 1 1 1
1 1 1 1
0.999796 1 1 0.999796
0.999786 1 1 0.999786
0.999852 1 1 0.999852
0.999969 1 1 0.999969
0.999858 1 1 0.999858
0.999785 1 1 0.999785
1 1 1 1
0.999976 1 1 0.999976
0.999868 1 1 0.999868
1 1 1 1
1 1 1 1
0.999984 1 1 0.999984
1 1 1 1
1 1 1 1
1 1 1 1
0.993477 0.995315 0.998195 0.999958
1.00868 1.00871 1 0.999973
1.00091 1.0009 1.00001 0.999998
0.999762 1 1 0.999762
0.999776 1 1 0.999776
0.999747 1 1 0.999747
0.999755 1 1 0.999755
0.999762 1 1 0.999762
0.999738 1 1 0.999738
0.999725 1 1 0.999725
0.999735 1 1 0.999735
0.999715 1 1 0.999715
0.999717 1 1 0.999717
0.999713 1 1 0.999713
0.999706 1 1 0.999706
0.958929 0.965943 0.993016 0.999721
0.980731 0.988985 0.99172 0.999933
1.01023 1.01113 0.999163 0.999953
0.96468 0.981049 0.983394 0.999919
0.963141 0.981283 0.982234 0.999266
0.98963 0.989582 1.0013 0.998752
1.01813 0.986729 1.03237 0.999468
1.00424 0.993899 1.01098 0.999427
0.95404 0.966638 0.987655 0.999303
0.987333 0.983737 1.00513 0.998534
0.998896 0.993712 1.00582 0.999396
0.979037 0.976669 1.00413 0.998304
1.00788 1 1.00819 0.999695
1.00003 1 1.00027 0.999761
0.999711 1 1 0.999711
1.01063 1 1.0109 0.999734
1.00453 1 1.00494 0.999587
1.00872 1 1.00898 0.99974
1.00165 1.00055 1.00141 0.999683
0.965348 0.972667 0.992857 0.999615
0.994639 0.996454 0.998242 0.999936
1.00602 1.00604 1 0.999981
0.981156 1.00122 0.980207 0.999749
0.97463 0.999126 0.975739 0.999737
0.99356 0.996348 0.997291 0.999911
0.978241 0.974568 1.00566 0.998118
0.957498 0.966476 0.99145 0.999254
0.979825 1.00739 0.973047 0.999579
0.96404 0.970197 0.994195 0.999456
0.97486 0.972148 1.0046 0.998195
0.978097 1.0036 0.974891 0.999686
0.981689 1.01242 0.970145 0.999486
0.965384 0.967187 1.00026 0.997878
0.99069 1.00177 0.98915 0.999786
1.0108 1 1.0113 0.999497
1.00233 1 1.00279 0.999545
0.999206 1.00024 0.999258 0.999711
1.00164 1 1.00213 0.999509
0.999592 1 0.999906 0.999686
0.999284 1 0.999403 0.999881
0.999622 1 1 0.999619
0.999755 1 1 0.999755
0.99985 1 1 0.99985
0.99967 1 1 0.99967
0.999758 1 1 0.999758
0.999807 1 1 0.999807
0.999786 1 1 0.999786
0.999763 1 1 0.999763
0.999747 1 1 0.999747
0.99972 1 1 0.99972
0.999699 1 1 0.999699
0.999704 1 1 0.999704
0.999758 1 1 0.999758
0.999718 1 1 0.999718
0.999683 1 1 0.999683
0.999844 1 1 0.999844
0.99979 1 1 0.99979
0.999734 1 1 0.999734
0.999948 1 1 0.999948
0.999854 1 1 0.999854
0.999804 1 1 0.999804
1 1 1 1
0.999957 1 1 0.999957
0.999859 1 1 0.999859
1 1 1 1
1 1 1 1
0.999965 1 1 0.999965
1 1 1 1
1 1 1 1
1 1 1 1
0.9998 1 1 0.9998
0.99979 1 1 0.99979
0.999847 1 1 0.999847
0.999788 1 1 0.999788
0.999851 1 1 0.999851
0.99996 1 1 0.99996
1 1 1 1
0.999969 1 1 0.999969
0.999858 1 1 0.999858
1 1 1 1
1 1 1 1
0.999977 1 1 0.999977
1 1 1 1
1 1 1 1
1 1 1 1
0.967222 0.970865 0.996937 0.999309
0.992054 0.994717 0.997383 0.99994
1.00981 1.00983 1 0.999973
0.999759 1 1 0.999759
0.999747 1 1 0.999747
0.999778 1 1 0.999778
0.99978 1 1 0.99978
0.999753 1 1 0.999753
0.999727 1 1 0.999727
0.999737 1 1 0.999737
0.999716 1 1 0.999716
0.999742 1 1 0.999742
0.999707 1 1 0.999707
0.999945 1 1.00026 0.999688
0.999711 1 1 0.999711
0.999706 1 1 0.999706
0.97563 0.97684 1.00086 0.9979
0.961877 0.968299 0.993849 0.999515
0.981221 0.989694 0.99152 0.999918
0.954136 0.96688 0.987074 0.999742
0.983592 0.979704 1.00619 0.997796
1.00705 0.994672 1.01252 0.999931
0.999615 0.994757 1.00523 0.999653
0.979734 0.977623 1.00381 0.998357
0.993374 0.99913 0.99475 0.999486
1.0061 1.00119 1.00542 0.999482
1.00621 1 1.00652 0.999688
0.999761 1 1 0.999761
1.00693 1 1.00719 0.999743
1.00077 1.00079 1.00022 0.999755
0.96161 0.965271 0.997893 0.998311
0.966324 0.972078 0.994804 0.999272
0.995178 0.996305 0.998909 0.999959
0.980297 1.00691 0.973961 0.999603
0.981665 1.00833 0.974324 0.999213
0.966622 0.970466 0.996767 0.999269
0.976549 0.971796 1.00667 0.998234
0.981096 1.01103 0.970896 0.999482
0.968702 0.968888 1.00149 0.998316
0.988237 1.0042 0.984786 0.999309
0.978301 1.00989 0.96917 0.999537
0.99832 0.993012 1.00554 0.999805
1.00183 1 1.00229 0.999539
0.998086 1.0002 0.998175 0.999707
0.996907 1.00039 0.996675 0.999846
0.999425 1 0.999738 0.999688
0.99903 1 0.999151 0.999879
0.999006 1 0.999093 0.999912
0.999756 1 1 0.999756
0.999845 1 1 0.999845
0.999843 1 1 0.999843
0.999757 1 1 0.999757
0.999804 1 1 0.999804
0.999795 1 1 0.999795
0.999793 1 1 0.999793
0.999764 1 1 0.999764
0.99977 1 1 0.99977
0.999746 1 1 0.999746
0.99974 1 1 0.99974
0.999746 1 1 0.999746
0.999719 1 1 0.999719
0.9997 1 1 0.9997
0.999824 1 1 0.999824
0.999763 1 1 0.999763
0.999725 1 1 0.999725
0.999937 1 1 0.999937
0.999843 1 1 0.999843
0.999789 1 1 0.999789
1 1 1 1
0.999948 1 1 0.999948
0.999854 1 1 0.999854
1 1 1 1
1 1 1 1
0.999957 1 1 0.999957
1 1 1 1
1 1 1 1
1 1 1 1
0.999794 1 1 0.999794
0.9998 1 1 0.9998
0.999838 1 1 0.999838
0.999785 1 1 0.999785
0.999843 1 1 0.999843
0.999951 1 1 0.999951
0.999851 1 1 0.999851
0.99996 1 1 0.99996
1 1 1 1
1 1 1 1
1 1 1 1
0.999969 1 1 0.999969
1 1 1 1
1 1 1 1
1 1 1 1
0.96939 0.970669 1.00031 0.998374
0.966619 0.972669 0.994114 0.999664
0.993812 0.995779 0.998068 0.999956
0.999747 1 1 0.999747
0.99978 1 1 0.99978
0.999755 1 1 0.999755
0.99978 1 1 0.99978
0.999774 1 1 0.999774
0.999764 1 1 0.999764
0.999717 1 1 0.999717
0.999739 1 1 0.999739
0.999709 1 1 0.999709
0.999736 1 1 0.999736
0.999699 1 1 0.999699
0.999641 1 1.00011 0.999527
0.999744 1 1.00006 0.999686
0.999706 1 1 0.999706
0.991226 0.994069 0.997343 0.999796
0.972468 0.973864 1.00025 0.998316
0.959045 0.967212 0.992269 0.999281
0.977238 0.975322 1.00371 0.99826
0.998531 0.994606 1.00403 0.99992
0.993577 0.99709 0.996623 0.999853
0.997016 1.00419 0.993353 0.999502
1.00336 1.00046 1.00338 0.999511
1.00528 1 1.0056 0.999681
0.998413 1.00068 0.997905 0.999825
0.988173 0.986386 1.00245 0.999367
0.965655 0.966874 1.00035 0.998389
0.966376 0.972599 0.99393 0.99967
0.980643 1.00946 0.971962 0.999477
0.991658 1.00773 0.984286 0.999759
0.969886 0.96849 1.00267 0.99877
0.98027 1.0076 0.973322 0.999538
0.993825 0.993982 1.00021 0.999633
0.984224 1.00296 0.981634 0.999678
1.00206 1 1.00249 0.999576
0.996839 1.00007 0.997066 0.999703
0.99629 1.00015 0.99629 0.999847
0.997145 1 0.997308 0.999836
0.998916 1 0.999038 0.999878
0.999121 1 0.999214 0.999908
0.999613 1 0.999799 0.999815
0.99984 1 1 0.99984
0.999838 1 1 0.999838
0.999769 1 1 0.999769
0.9998 1 1 0.9998
0.999797 1 1 0.999797
0.999751 1 1 0.999751
0.9998 1 1 0.9998
0.999769 1 1 0.999769
0.999744 1 1 0.999744
0.999745 1 1 0.999745
0.999738 1 1 0.999738
0.999753 1 1 0.999753
0.999797 1 1 0.999797
0.99975 1 1 0.99975
0.999717 1 1 0.999717
0.99992 1 1 0.99992
0.999824 1 1 0.999824
0.999767 1 1 0.999767
1 1 1 1
0.999936 1 1 0.999936
0.999843 1 1 0.999843
1 1 1 1
1 1 1 1
0.999948 1 1 0.999948
1 1 1 1
1 1 1 1
1 1 1 1
0.999791 1 1 0.999791
0.999798 1 1 0.999798
0.999834 1 1 0.999834
0.9998 1 1 0.9998
0.999838 1 1 0.999838
0.999943 1 1 0.999943
0.999838 1 1 0.999838
0.999951 1 1 0.999951
1 1 1 1
0.99996 1 1 0.99996
1 1 1 1
1 1 1 1
1 1 1 1
1 1 1 1
1 1 1 1
0.984633 0.986272 0.998582 0.999756
0.96517 0.967849 0.998896 0.998335
0.964096 0.971349 0.993256 0.999273
0.999759 1 1 0.999759
0.999756 1 1 0.999756
0.999781 1 1 0.999781
0.999763 1 1 0.999763
0.999773 1 1 0.999773
0.999782 1 1 0.999782
0.999737 1 1 0.999737
0.99971 1 1 0.99971
0.999741 1 1 0.999741
0.999715 1 1 0.999715
0.999617 1 1 0.999617
0.999397 1 1 0.999397
0.999663 1 1.00013 0.999534
0.999685 1 1 0.999685
0.996657 1.00031 0.996824 0.99952
0.991929 0.995444 0.996885 0.999583
0.974292 0.974818 1.00072 0.998744
0.996782 0.99858 0.998788 0.999411
1.00092 1.00433 0.997192 0.999419
1.00264 1 1.0031 0.999541
0.999821 1 1.00002 0.999801
0.98905 0.985341 1.00397 0.999791
0.96307 0.966694 0.997922 0.998327
0.982139 1.00523 0.977476 0.999539
0.990234 0.994542 0.996223 0.999444
0.987932 1.00214 0.98616 0.99966
1.00102 1 1.00139 0.99963
0.999165 1 0.999542 0.999622
0.999585 1 1 0.999585
0.995819 1.00002 0.995951 0.999848
0.997975 1 0.998138 0.999837
0.999726 1 1 0.999726
0.999287 1 0.999384 0.999903
0.99977 1 0.999957 0.999812
0.999717 1 1 0.999717
0.999834 1 1 0.999834
0.999776 1 1 0.999776
0.999706 1 1 0.999706
0.999798 1 1 0.999798
0.999752 1 1 0.999752
0.999725 1 1 0.999725
0.999773 1 1 0.999773
0.999745 1 1 0.999745
0.999744 1 1 0.999744
0.999737 1 1 0.999737
0.99975 1 1 0.99975
0.999789 1 1 0.999789
0.9999 1 1 0.9999
0.999802 1 1 0.999802
0.999754 1 1 0.999754
1 1 1 1
0.999919 1 1 0.999919
0.999824 1 1 0.999824
1 1 1 1
1 1 1 1
0.999936 1 1 0.999936
1 1 1 1
1 1 1 1
1 1 1 1
0.999776 1 1 0.999776
0.999791 1 1 0.999791
0.999833 1 1 0.999833
0.999802 1 1 0.999802
0.999837 1 1 0.999837
0.999935 1 1 0.999935
0.999837 1 1 0.999837
0.999943 1 1 0.999943
1 1 1 1
0.999951 1 1 0.999951
1 1 1 1
1 1 1 1
1 1 1 1
1 1 1 1
1 1 1 1
0.997906 1.00023 0.997909 0.999763
0.984963 0.987573 0.998008 0.999348
0.96621 0.968098 0.999659 0.99839
0.999766 1 1 0.999766
0.999716 1 1 0.999716
0.999761 1 1 0.999761
0.999763 1 1 0.999763
0.999772 1 1 0.999772
0.999778 1 1 0.999778
0.999655 1 1 0.999655
0.999746 1 1 0.999746
0.999731 1 1 0.999731
0.999618 1 1 0.999618
0.999475 1 1 0.999475
0.99956 1 1 0.99956
0.999408 1 1 0.999408
0.999541 1 1 0.999541
0.998573 1.00191 0.997134 0.999534
0.990727 0.994916 0.996435 0.999352
1.00263 1.00403 0.999269 0.999338
0.999798 1 1 0.999798
1.00097 1 1.00116 0.999808
0.987406 0.98512 1.00298 0.999343
0.992003 1.00161 0.990765 0.999642
1.00003 1 1.00034 0.999686
0.998891 1.00007 0.999187 0.999633
0.999611 1 1 0.999611
0.999628 1 1 0.999628
0.999738 1 1 0.999738
0.998785 1 0.998947 0.999838
0.99973 1 1 0.999731
0.999647 1 1 0.999647
0.99981 1 1 0.99981
0.999719 1 1 0.999719
0.999661 1 1 0.999661
0.999782 1 1 0.999782
0.999706 1 1 0.999706
0.999685 1 1 0.999685
0.999752 1 1 0.999752
0.999724 1 1 0.999724
0.999725 1 1 0.999725
0.999747 1 1 0.999747
0.999744 1 1 0.999744
0.999777 1 1 0.999777
0.999746 1 1 0.999746
0.999787 1 1 0.999787
0.999882 1 1 0.999882
0.999998 1 1 0.999998
0.9999 1 1 0.9999
0.999807 1 1 0.999807
1 1 1 1
0.999999 1 1 0.999999
0.999918 1 1 0.999918
1 1 1 1
1 1 1 1
1 1 1 1
0.999741 1 1 0.999741
0.999772 1 1 0.999772
0.99982 1 1 0.99982
0.999791 1 1 0.999791
0.999832 1 1 0.999832
0.999925 1 1 0.999925
0.99984 1 1 0.99984
0.999935 1 1 0.999935
1 1 1 1
0.999943 1 1 0.999943
1 1 1 1
1 1 1 1
1 1 1 1
1 1 1 1
1 1 1 1
0.999771 1 1 0.999771
0.997714 1.00004 0.997899 0.999775
0.984336 0.986214 0.998319 0.999776
0.99969 1 1 0.99969
0.999784 1 1 0.999784
0.999648 1 1 0.999648
0.999713 1 1 0.999713
0.999764 1 1 0.999764
0.999542 1 1 0.999542
0.999774 1 1 0.999774
0.999655 1 1 0.999655
0.999545 1 1 0.999545
0.99962 1 1 0.99962
0.999461 1 1 0.999461
0.999564 1.00001 1 0.999554
0.999419 1 1 0.999419
1.00042 1.00337 0.997513 0.999548
0.999817 1 1 0.999817
0.999795 1 1 0.999795
1.00206 1 1.00224 0.999815
0.998679 1.00012 0.998911 0.999644
0.999636 1 1 0.999636
0.999623 1 1 0.999623
0.999742 1 1 0.999742
0.999708 1 1 0.999708
0.999735 1 1 0.999735
0.999651 1 1 0.999651
0.999641 1 1 0.999641
0.99972 1 1 0.99972
0.999659 1 1 0.999659
0.999648 1 1 0.999648
0.999706 1 1 0.999706
0.999684 1 1 0.999684
0.999692 1 1 0.999692
0.999724 1 1 0.999724
0.999725 1 1 0.999725
0.999757 1 1 0.999757
0.999744 1 1 0.999744
0.999778 1 1 0.999778
0.999866 1 1 0.999866
0.999785 1 1 0.999785
0.999882 1 1 0.999882
0.999993 1 1 0.999993
1 1 1 1
0.999996 1 1 0.999996
0.999899 1 1 0.999899
1 1 1 1
0.999999 1 1 0.999999
1 1 1 1
0.999662 1 1 0.999662
0.999708 1 1 0.999708
0.999737 1 1 0.999737
0.999803 1 1 0.999803
0.999767 1 1 0.999767
0.99982 1 1 0.99982
0.999916 1 1 0.999916
0.999832 1 1 0.999832
0.999926 1 1 0.999926
1 1 1 1
0.999935 1 1 0.999935
1 1 1 1
1 1 1 1
1 1 1 1
1 1 1 1
1 1 1 1
0.999719 1 1 0.999719
0.999841 1.00008 1 0.999764
0.99803 1.00038 0.997868 0.999787
0.999587 1 1 0.999587
0.999708 1 1 0.999708
0.999802 1 1 0.999802
0.999657 1 1 0.999657
0.99971 1 1 0.99971
0.99953 1 1 0.99953
0.999533 1 1 0.999533
0.999655 1 1 0.999655
0.99954 1 1 0.99954
0.999448 1 1 0.999448
0.999702 1.00015 1 0.999548
0.999787 1 1 0.999787
0.999813 1 1 0.999813
0.999791 1 1 0.999791
0.999618 1 1 0.999618
0.999746 1 1 0.999746
0.999708 1 1 0.999708
0.9997 1 1 0.9997
0.999656 1 1 0.999656
0.999637 1 1 0.999637
0.999653 1 1 0.999653
0.999657 1 1 0.999657
0.999647 1 1 0.999647
0.999661 1 1 0.999661
0.999683 1 1 0.999683
0.999691 1 1 0.999691
0.999728 1 1 0.999728
0.999724 1 1 0.999724
0.999757 1 1 0.999757
0.999844 1 1 0.999844
0.999778 1 1 0.999778
0.999866 1 1 0.999866
0.999988 1 1 0.999988
0.999883 1 1 0.999883
0.999992 1 1 0.999992
1 1 1 1
1 1 1 1
0.999995 1 1 0.999995
1 1 1 1
0.999604 1 1 0.999604
0.999702 1 1 0.999702
0.999688 1 1 0.999688
0.999775 1 1 0.999775
0.999708 1 1 0.999708
0.999732 1 1 0.999732
0.999804 1 1 0.999804
0.999902 1 1 0.999902
0.999821 1 1 0.999821
0.999916 1 1 0.999916
0.999999 1 1 0.999999
0.999926 1 1 0.999926
1 1 1 1
1 1 1 1
1 1 1 1
1 1 1 1
1 1 1 1
0.999667 1 1 0.999667
0.999719 1 1 0.999719
0.999778 1.00002 1 0.999758
0.999557 1 1 0.999557
0.999588 1 1 0.999588
0.999726 1 1 0.999726
0.999665 1 1 0.999665
0.99953 1 1 0.99953
0.999524 1 1 0.999524
0.999535 1 1 0.999535
0.999745 1 1 0.999745
0.999772 1 1 0.999772
0.999809 1 1 0.999809
0.999697 1 1 0.999697
0.999708 1 1 0.999708
0.999698 1 1 0.999698
0.999685 1 1 0.999685
0.999633 1 1 0.999633
0.999654 1 1 0.999654
0.999658 1 1 0.999658
0.999646 1 1 0.999646
0.999661 1 1 0.999661
0.999703 1 1 0.999703
0.999691 1 1 0.999691
0.999728 1 1 0.999728
0.999819 1 1 0.999819
0.999756 1 1 0.999756
0.999844 1 1 0.999844
0.999983 1 1 0.999983
0.999866 1 1 0.999866
0.999987 1 1 0.999987
1 1 1 1
0.99999 1 1 0.99999
1 1 1 1
1 1 1 1
0.999573 1 1 0.999573
0.999642 1 1 0.999642
0.999614 1 1 0.999614
0.999754 1 1 0.999754
0.9997 1 1 0.9997
0.999714 1 1 0.999714
0.999875 1 1 0.999875
0.999774 1 1 0.999774
0.999708 1 1 0.999708
0.999804 1 1 0.999804
0.999902 1 1 0.999902
0.999996 1 1 0.999996
0.999916 1 1 0.999916
1 1 1 1
1 1 1 1
1 1 1 1
1 1 1 1
1 1 1 1
0.999648 1 1 0.999648
0.999656 1 1 0.999656
0.99972 1 1 0.99972
0.99955 1 1 0.99955
0.999588 1 1 0.999588
0.999531 1 1 0.999531
0.999699 1 1 0.999699
0.999748 1 1 0.999748
0.999757 1 1 0.999757
0.999694 1 1 0.999694
0.999681 1 1 0.999681
0.999696 1 1 0.999696
0.999685 1 1 0.999685
0.999682 1 1 0.999682
0.999654 1 1 0.999654
0.999659 1 1 0.999659
0.999693 1 1 0.999693
0.999661 1 1 0.999661
0.999703 1 1 0.999703
0.999797 1 1 0.999797
0.999728 1 1 0.999728
0.999818 1 1 0.999818
0.999977 1 1 0.999977
0.999844 1 1 0.999844
0.999981 1 1 0.999981
1 1 1 1
0.999985 1 1 0.999985
1 1 1 1
1 1 1 1
0.999643 1 1 0.999643
0.999601 1 1 0.999601
0.999569 1 1 0.999569
0.999705 1 1 0.999705
0.999648 1 1 0.999648
0.999624 1 1 0.999624
0.999842 1 1 0.999842
0.999743 1 1 0.999743
0.999698 1 1 0.999698
0.999988 1 1 0.999988
0.999876 1 1 0.999876
0.999774 1 1 0.999774
0.999903 1 1 0.999903
0.999997 1 1 0.999997
1 1 1 1
1 1 1 1
1 1 1 1
1 1 1 1
0.999642 1 1 0.999642
0.999644 1 1 0.999644
0.999645 1 1 0.999645
0.999542 1 1 0.999542
0.999668 1 1 0.999668
0.999703 1 1 0.999703
0.999751 1 1 0.999751
0.99969 1 1 0.99969
0.999682 1 1 0.999682
0.999692 1 1 0.999692
0.999685 1 1 0.999685
0.999683 1 1 0.999683
0.999699 1 1 0.999699
0.999661 1 1 0.999661
0.999694 1 1 0.999694
0.999786 1 1 0.999786
0.999702 1 1 0.999702
0.999797 1 1 0.999797
0.999972 1 1 0.999972
0.999818 1 1 0.999818
0.999976 1 1 0.999976
1 1 1 1
0.999979 1 1 0.999979
1 1 1 1
1 1 1 1
0.999649 1 1 0.999649
0.999639 1 1 0.999639
0.999643 1 1 0.999643
0.999656 1 1 0.999656
0.99961 1 1 0.99961
0.999566 1 1 0.999566
0.999792 1 1 0.999792
0.999705 1 1 0.999705
0.999653 1 1 0.999653
0.999977 1 1 0.999977
0.999833 1 1 0.999833
0.999733 1 1 0.999733
1 1 1 1
0.999991 1 1 0.999991
0.999876 1 1 0.999876
0.999998 1 1 0.999998
1 1 1 1
1 1 1 1
0.999653 1 1 0.999653
0.999651 1 1 0.999651
0.99964 1 1 0.99964
0.999675 1 1 0.999675
0.999667 1 1 0.999667
0.999707 1 1 0.999707
0.999683 1 1 0.999683
0.999692 1 1 0.999692
0.999722 1 1 0.999722
0.999684 1 1 0.999684
0.999706 1 1 0.999706
0.999775 1 1 0.999775
0.999694 1 1 0.999694
0.999786 1 1 0.999786
0.999968 1 1 0.999968
0.999797 1 1 0.999797
0.999971 1 1 0.999971
1 1 1 1
0.999974 1 1 0.999974
1 1 1 1
1 1 1 1
0.999653 1 1 0.999653
0.999663 1 1 0.999663
0.999649 1 1 0.999649
0.999673 1 1 0.999673
0.999642 1 1 0.999642
0.999642 1 1 0.999642
0.99976 1 1 0.99976
0.999667 1 1 0.999667
0.999618 1 1 0.999618
0.999967 1 1 0.999967
0.999787 1 1 0.999787
0.999704 1 1 0.999704
1 1 1 1
0.99998 1 1 0.99998
0.999824 1 1 0.999824
1 1 1 1
0.999993 1 1 0.999993
1 1 1 1
0.999666 1 1 0.999666
0.999653 1 1 0.999653
0.999659 1 1 0.999659
0.999706 1 1 0.999706
0.999674 1 1 0.999674
0.999666 1 1 0.999666
0.999693 1 1 0.999693
0.999722 1 1 0.999722
0.999779 1 1 0.999779
0.999713 1 1 0.999713
0.999781 1 1 0.999781
0.999964 1 1 0.999964
0.999787 1 1 0.999787
0.999967 1 1 0.999967
1 1 1 1
0.99997 1 1 0.99997
1 1 1 1
1 1 1 1
0.99967 1 1 0.99967
0.999648 1 1 0.999648
0.999689 1 1 0.999689
0.999664 1 1 0.999664
0.999648 1 1 0.999648
0.999767 1 1 0.999767
0.999672 1 1 0.999672
0.999646 1 1 0.999646
0.999962 1 1 0.999962
0.999765 1 1 0.999765
0.999677 1 1 0.999677
1 1 1 1
0.99997 1 1 0.99997
0.999783 1 1 0.999783
1 1 1 1
0.999983 1 1 0.999983
1 1 1 1
0.999702 1 1 0.999702
0.999667 1 1 0.999667
0.999653 1 1 0.999653
0.999769 1 1 0.999769
0.999706 1 1 0.999706
0.999674 1 1 0.999674
0.999723 1 1 0.999723
0.999779 1 1 0.999779
0.999961 1 1 0.999961
0.999786 1 1 0.999786
0.999964 1 1 0.999964
1 1 1 1
0.999966 1 1 0.999966
1 1 1 1
1 1 1 1
0.999696 1 1 0.999696
0.999667 1 1 0.999667
0.999643 1 1 0.999643
0.999775 1 1 0.999775
0.999689 1 1 0.999689
0.999665 1 1 0.999665
0.999961 1 1 0.999961
0.999767 1 1 0.999767
0.999671 1 1 0.999671
1 1 1 1
0.999963 1 1 0.999963
0.99977 1 1 0.99977
1 1 1 1
0.999972 1 1 0.999972
1 1 1 1
0.999778 1 1 0.999778
0.999696 1 1 0.999696
0.999668 1 1 0.999668
0.999959 1 1 0.999959
0.99977 1 1 0.99977
0.999706 1 1 0.999706
0.99978 1 1 0.99978
0.999961 1 1 0.999961
1 1 1 1
0.999963 1 1 0.999963
1 1 1 1
1 1 1 1
0.999779 1 1 0.999779
0.999694 1 1 0.999694
0.999664 1 1 0.999664
0.999962 1 1 0.999962
0.999774 1 1 0.999774
0.999689 1 1 0.999689
1 1 1 1
0.999961 1 1 0.999961
0.999766 1 1 0.999766
1 1 1 1
0.999964 1 1 0.999964
1 1 1 1
0.999957 1 1 0.999957
0.999772 1 1 0.999772
0.99969 1 1 0.99969
1 1 1 1
0.999958 1 1 0.999958
0.999772 1 1 0.999772
0.99996 1 1 0.99996
1 1 1 1
1 1 1 1
0.99996 1 1 0.99996
0.999778 1 1 0.999778
0.999692 1 1 0.999692
1 1 1 1
0.999962 1 1 0.999962
0.999774 1 1 0.999774
1 1 1 1
0.999961 1 1 0.999961
1 1 1 1
1 1 1 1
0.999958 1 1 0.999958
0.999767 1 1 0.999767
1 1 1 1
0.999957 1 1 0.999957
1 1 1 1
1 1 1 1
0.999961 1 1 0.999961
0.999778 1 1 0.999778
1 1 1 1
0.999961 1 1 0.999961
1 1 1 1
1 1 1 1
0.999959 1 1 0.999959
1 1 1 1
1 1 1 1
0.999961 1 1 0.999961
1 1 1 1
1 1 1 1
1 1 1 1

VECTORS lamdaE float
0.999034 0.99947 0.997243
0.999212 0.998499 0.998975
0.999001 0.9995 0.99728
0.998925 1.00008 0.996962
0.998936 0.999815 0.997129
0.999156 0.999007 0.99743
0.999494 1.00025 0.99546
0.99924 0.998421 0.998999
0.998803 0.999777 0.998817
0.999052 0.998866 0.998956
0.999366 0.998115 0.997852
0.999492 0.999844 0.995634
0.999158 0.999988 0.996753
0.99887 1.00014 0.997036
0.998968 0.999527 0.997319
0.998881 1.00014 0.996997
0.999133 0.999002 0.997472
0.998897 0.999868 0.997162
0.999514 1.00024 0.99546
0.999072 0.999999 0.998635
0.99898 1.00003 0.996945
0.998892 1.00002 0.99704
0.999828 1.00024 0.994901
0.999568 1.00032 0.995275
0.999295 0.998484 0.997663
0.999424 1.0001 0.995723
1.00036 1.001 0.993104
0.999272 0.998337 0.999023
0.998836 0.999841 0.997989
0.999082 0.998968 0.998223
0.999357 0.998029 0.999068
0.999462 0.999868 0.995635
0.998861 1.00022 0.997056
0.998955 0.999622 0.99734
0.999619 1.00035 0.995597
0.999455 0.997657 0.999161
0.999485 1.00003 0.996083
0.999515 0.999542 0.995881
0.999936 1.00128 0.993351
0.999629 0.997252 0.999189
0.999147 1.00001 0.998582
0.998922 1.00008 0.997853
0.999239 0.999988 0.998523
0.998958 1.00004 0.99697
1.00022 0.999965 0.993989
0.998811 1.00013 0.998756
0.999989 1.00012 0.995208
0.998834 1.00022 0.997032
0.998856 0.999923 0.997198
0.999109 0.998988 0.997515
0.999534 1.00024 0.995459
0.999063 0.999991 0.997768
0.998938 1.00007 0.996977
0.999279 0.998449 0.997701
0.998851 1.00008 0.997074
0.999854 1.00022 0.9949
0.99944 1.00009 0.995726
0.999597 1.00029 0.995275
1.0004 1.00101 0.993063
0.999143 0.999992 0.998585
0.999011 0.999993 0.996941
1.00012 0.999971 0.995053
0.999953 1.00009 0.994821
0.999672 1.00032 0.995089
1.00128 1.00032 0.992058
1.00063 1.00071 0.992689
0.999457 0.99799 0.997863
0.999401 0.999776 0.996072
1.00006 1.00123 0.993432
1.00094 1.00095 0.991737
0.998863 0.99966 0.998806
0.999392 0.997949 0.999101
0.99912 0.99879 0.998948
0.99943 0.999901 0.995636
0.998852 1.00003 0.998725
0.99893 0.999405 0.998847
0.999552 1.00047 0.994825
0.999474 0.997697 0.998571
0.99945 1.00014 0.995394
0.999504 0.999489 0.996219
0.999928 1.0013 0.993338
0.99955 0.99746 0.999164
0.999783 0.998492 0.996397
0.999741 1.0004 0.994558
0.999513 1.00037 0.995054
1.00059 1.00078 0.992567
0.999586 0.9991 0.996726
1.00006 1.00114 0.993263
0.999878 1.00129 0.993465
1.00029 1.00153 0.992377
0.999694 0.997053 0.999218
0.99964 0.997232 0.999198
0.998919 1.00007 0.998695
0.999096 1.00001 0.998613
0.999219 0.999989 0.998535
0.999009 1.00003 0.997791
1.00021 0.999961 0.994472
0.998842 1.00011 0.997882
0.999948 1.0001 0.994808
0.999231 0.999979 0.998529
1.00032 0.999903 0.993827
1.0001 1.00003 0.995082
1.00183 0.999848 0.991012
0.999857 1.00024 0.995295
1.00146 1.00014 0.991466
0.999105 0.999967 0.996848
0.998896 1.00013 0.997008
0.99926 0.998406 0.997741
0.998806 1.00016 0.997111
0.999882 1.00019 0.9949
0.999626 1.00027 0.995274
0.999458 1.0001 0.995727
1.00043 1.00102 0.993022
0.999176 0.999992 0.998562
0.998977 0.999999 0.99698
1.00014 0.99996 0.994389
0.999977 1.00009 0.994811
0.999418 0.99796 0.998478
0.99943 0.999764 0.996206
0.999704 1.00029 0.995092
1.00128 1.0003 0.991971
1.00011 1.00125 0.993382
1.00065 1.00072 0.992744
1.00093 1.00095 0.991744
1.00024 0.999938 0.993951
1.00001 1 0.994815
1.00173 0.999853 0.99145
1.00147 1.00005 0.991726
1.00095 1.0005 0.992302
1.00198 1.00017 0.990697
0.999518 0.997643 0.999141
1.0012 1.00062 0.991532
0.999527 0.999374 0.995995
0.999852 1.00129 0.993435
1.00064 1.00139 0.991947
1.00128 1.00083 0.991206
0.999721 0.998715 0.996259
1.00006 1.00046 0.993923
0.998833 0.999937 0.998744
0.998962 0.999254 0.998881
0.999501 1.00055 0.994827
0.999494 0.997652 0.999151
0.99949 0.999475 0.99593
0.999392 1.00023 0.995379
0.999919 1.00131 0.993325
0.999565 0.99744 0.999172
0.99979 0.99846 0.996405
0.999701 1.00037 0.995003
0.999463 1.00035 0.995469
1.00059 1.00076 0.992577
0.9996 0.99907 0.996177
1.00005 1.00114 0.993259
0.999857 1.00132 0.993458
1.0003 1.00152 0.992355
0.999694 0.998773 0.996292
0.999848 0.998236 0.99653
1.00007 1.00039 0.993958
1.00093 1.00052 0.992128
1.00026 1.001 0.992998
1.00116 1.0008 0.991445
0.999937 1.00099 0.993649
1.00049 1.00119 0.992308
1.00014 1.00188 0.992413
1.00041 1.00177 0.991994
0.99975 0.996856 0.999252
0.999703 0.99703 0.999228
0.999651 0.997211 0.999206
0.999785 0.998441 0.996421
0.99959 0.997432 0.999173
0.998857 1.00006 0.998714
0.998999 1.00004 0.998666
0.999934 1.0001 0.994394
1.00019 0.99995 0.994042
0.999196 0.999988 0.998552
0.999241 0.999981 0.998521
1.00032 0.9999 0.993833
1.00006 1.00002 0.994685
1.00183 0.99985 0.991014
0.99981 1.00027 0.994481
1.00146 1.00015 0.991472
1.00034 0.999892 0.99379
1.002 0.999767 0.99076
1.00165 0.99997 0.991257
1.00256 0.999695 0.989772
1.00123 1.00032 0.99175
1.00216 0.999947 0.990331
0.999209 0.999992 0.99854
0.998942 1 0.997019
1.00014 0.999962 0.993749
1 1.00007 0.994802
0.999373 0.997925 0.999107
0.999459 0.999764 0.996339
0.999737 1.00025 0.995093
1.00128 1.00029 0.991884
1.00068 1.00074 0.9928
1.00015 1.00127 0.993332
1.00093 1.00095 0.991751
1.00025 0.999937 0.993943
1.00003 0.999988 0.994802
1.00171 0.999856 0.991267
1.00149 1.00008 0.991784
0.999498 0.997667 0.99913
0.999526 0.999388 0.996281
0.9999 1.00129 0.993563
1.00095 1.0005 0.99231
1.00196 1.00013 0.990597
1.0006 1.00139 0.99193
1.00123 1.00062 0.991571
1.00127 1.00082 0.991218
0.999708 0.99876 0.996255
1.00006 1.00044 0.993926
1.00191 0.999782 0.990935
1.00159 0.999916 0.99164
1.00245 0.999752 0.990162
1.0022 0.999831 0.990243
1.00151 1.00039 0.991234
1.00235 0.999846 0.990213
0.99962 0.999025 0.99613
1.00159 1.00037 0.99104
0.999855 1.0012 0.993558
1.00026 1.00161 0.992251
1.00097 1.0015 0.991385
1.00149 1.00059 0.991096
1.00002 1.00075 0.993715
1.00007 1.00009 0.994267
1.0002 1.00157 0.992562
0.999653 1.00046 0.994612
0.999581 0.99742 0.999179
0.999797 0.998429 0.996412
0.999398 1.00047 0.995114
1.00058 1.00075 0.992586
0.999595 0.999041 0.996167
0.999836 1.00135 0.993452
1.00004 1.00114 0.993254
1.0003 1.0015 0.992333
0.999702 0.998737 0.996296
0.99985 0.998211 0.99654
1.00007 1.0004 0.993957
1.00093 1.00052 0.992136
1.00025 1.00099 0.993005
1.00116 1.0008 0.991448
0.999912 1.00103 0.993647
1.0005 1.0012 0.992348
1.00014 1.00188 0.992407
1.0004 1.00176 0.991952
0.999894 0.997998 0.996683
1.00003 1.00064 0.993798
1.00008 1.00013 0.994197
1.00021 1.00145 0.992692
1.00156 1.00047 0.990977
1.00076 1.00106 0.991995
1.00147 1.00077 0.990865
1.00013 1.00177 0.992553
1.00067 1.0013 0.991929
1.00018 1.00238 0.991829
1.00051 1.00179 0.991644
1.00013 0.999182 0.995056
0.999964 0.997603 0.996937
0.999802 0.996668 0.999287
0.999757 0.996833 0.999263
0.999711 0.997008 0.999239
0.999829 0.998172 0.996615
0.999641 0.997222 0.999214
0.999777 0.998479 0.99641
0.999578 0.99745 0.999163
0.999801 1.00027 0.994491
1.00006 1 0.994252
1.00145 1.00016 0.991478
1.00183 0.999854 0.991016
1.00031 0.999898 0.993838
0.999248 0.999982 0.998518
1.00034 0.999893 0.993784
1.002 0.999765 0.990762
1.00165 0.999979 0.99126
1.00257 0.999699 0.989771
1.00122 1.00033 0.991758
1.00216 0.999944 0.990332
1.00202 0.999742 0.990739
1.00273 0.999647 0.989484
1.00238 0.999771 0.990061
1.00289 0.999433 0.989425
1.00188 1.00019 0.990626
1.00253 0.999625 0.98993
1.00026 0.999938 0.993934
1.00006 0.999981 0.994788
1.0017 0.999849 0.991085
1.0015 1.00011 0.991842
0.999478 0.99769 0.99912
0.999528 0.999402 0.996559
0.999948 1.00128 0.993691
1.00094 1.0005 0.992319
1.00194 1.00009 0.990496
1.00127 1.00063 0.991611
1.00055 1.0014 0.991913
1.00126 1.00082 0.991229
0.999697 0.998804 0.99625
1.00007 1.00043 0.99393
1.00189 0.99978 0.99087
1.00159 0.99992 0.99164
1.00245 0.999732 0.990114
1.00221 0.999876 0.990352
0.999616 0.999064 0.996129
0.99988 1.00117 0.993562
1.00025 1.00161 0.99232
1.00154 1.0004 0.991229
1.00233 0.999787 0.990193
1.00092 1.00151 0.991308
1.00159 1.00037 0.991042
1.00146 1.00057 0.991085
1.00003 1.00071 0.993721
1.00021 1.00154 0.992547
1.00007 1.0001 0.994263
1.00261 0.99971 0.989877
1.00235 0.999752 0.990252
1.0028 0.999613 0.989529
1.00261 0.999554 0.989847
1.00185 1.00005 0.990734
1.00254 0.999345 0.990266
0.999928 1.001 0.993631
1.00176 1.00005 0.990992
1.00017 1.00161 0.992587
1.00043 1.00194 0.991607
1.00112 1.00156 0.990899
1.00161 1.00031 0.991289
1.00008 0.999726 0.994615
1.00021 1.00153 0.992591
1.00019 1.00145 0.992612
1.00022 1.00209 0.992114
1.00093 1.00051 0.992144
0.999853 0.998186 0.99655
0.999712 0.998698 0.9963
1.00006 1.00042 0.993955
1.00025 1.00098 0.993012
1.00115 1.0008 0.991451
0.999886 1.00107 0.993646
1.00013 1.00188 0.992402
1.00051 1.0012 0.992388
1.00039 1.00176 0.99191
0.999893 0.99798 0.996692
1.00002 1.00068 0.993794
1.00009 1.00012 0.9942
1.0002 1.00146 0.992684
1.00156 1.00048 0.990973
1.00074 1.00106 0.992005
1.00147 1.00078 0.990869
1.00011 1.00178 0.992556
1.00069 1.00131 0.991972
1.00019 1.00239 0.991811
1.00048 1.00176 0.991756
0.999931 0.997782 0.996829
1.00009 0.99984 0.994469
1.0002 1.00153 0.992647
1.0002 1.0013 0.992841
1.0002 1.00205 0.992083
1.0019 1.00035 0.990429
1.00098 1.00112 0.991496
1.00157 1.00081 0.990636
1.00013 1.0024 0.991931
1.00077 1.00142 0.99163
1.00028 1.00263 0.991151
1.00012 0.999346 0.994907
1.00016 1.00036 0.993869
1.00014 0.999061 0.995175
1.00013 0.999189 0.995057
0.999984 0.997428 0.997481
0.999958 0.997586 0.997175
0.999874 0.996526 0.998409
0.999807 0.996646 0.999297
0.999764 0.996809 0.999274
0.999865 0.997931 0.99679
0.999689 0.997005 0.999257
0.999828 0.998197 0.996601
0.999635 0.997247 0.999201
0.999769 0.998517 0.996399
0.999566 0.99747 0.999154
1.00122 1.00034 0.991766
1.00164 0.999986 0.991263
1.00216 0.999948 0.990332
1.00258 0.999704 0.98977
1.002 0.999762 0.990764
1.00035 0.999897 0.99378
1.00203 0.999737 0.990735
1.00274 0.999648 0.989486
1.00238 0.999778 0.990064
1.00291 0.999419 0.989402
1.00189 1.0002 0.990621
1.00253 0.999634 0.989929
1.00275 0.999648 0.989448
1.00301 0.999449 0.989132
1.00276 0.999438 0.989653
1.00311 0.999112 0.989388
1.00223 0.999959 0.990175
1.00273 0.999028 0.990152
1.00188 0.999781 0.990805
1.0016 0.999917 0.99164
1.00245 0.999717 0.990066
1.00222 0.999921 0.990462
0.999613 0.999101 0.996127
0.999904 1.00114 0.993567
1.00026 1.00161 0.99239
1.00158 1.00042 0.991224
1.00231 0.999727 0.990172
1.00159 1.00036 0.991043
1.00087 1.00152 0.99123
1.00144 1.00055 0.991074
1.00005 1.00068 0.993728
1.00022 1.00151 0.992532
1.00006 1.0001 0.994259
1.00261 0.999707 0.989778
1.00235 0.99973 0.990253
1.00279 0.999596 0.989476
1.00262 0.99957 0.989865
0.999952 1.00096 0.993637
1.00019 1.00159 0.99258
1.00041 1.00196 0.991686
1.00187 1.0001 0.990763
1.00253 0.999248 0.990316
1.00107 1.00161 0.990824
1.00177 1.00004 0.990995
1.00158 1.00023 0.991327
1.00022 1.00151 0.992601
1.00023 1.00208 0.992065
1.00007 0.99974 0.994609
1.00019 1.00141 0.992657
1.00291 0.999613 0.989229
1.00278 0.999523 0.989648
1.00297 0.999498 0.989229
1.00282 0.999164 0.989792
1.00207 0.999605 0.990792
1.00275 0.998716 0.990504
1.00017 1.00156 0.992643
1.00184 0.999484 0.991395
1.00022 1.00195 0.99203
1.00058 1.00237 0.99104
1.00122 1.00163 0.990537
1.00172 1.00009 0.991313
1.00008 0.999484 0.994846
1.00018 1.00108 0.992969
1.00025 1.00187 0.992191
1.00016 1.00227 0.991982
1.00027 1.00217 0.991933
0.999891 0.997963 0.996701
1.00156 1.00049 0.990969
1.00009 1.00011 0.994202
1 1.00071 0.993791
1.00019 1.00146 0.992677
1.00073 1.00106 0.992015
1.00146 1.00078 0.990872
1.00009 1.0018 0.992559
1.0002 1.0024 0.991794
1.0007 1.00132 0.992016
1.00046 1.00173 0.991867
0.999929 0.997768 0.996836
1.0001 0.999831 0.994473
1.00019 1.00154 0.992643
1.00019 1.00131 0.992835
1.0002 1.00205 0.992073
1.00191 1.00035 0.990422
1.00097 1.00113 0.991499
1.00157 1.00081 0.990613
1.00012 1.0024 0.991941
1.00077 1.00142 0.991663
1.00033 1.00261 0.991208
1.00011 0.999571 0.994713
1.0002 1.00105 0.993085
1.00021 1.00208 0.992058
1.00018 1.00204 0.99216
1.00019 1.00234 0.991833
1.00204 1.0002 0.990272
1.00108 1.00119 0.99122
1.00148 1.00076 0.990721
1.00013 1.00295 0.99134
1.0007 1.0024 0.990789
1.00012 0.999345 0.994911
1.00019 1.00055 0.993506
1.00016 1.00038 0.993793
1.00013 1.00127 0.993137
1.00013 1.0003 0.99397
1.00014 0.998971 0.995265
1.00013 0.999072 0.995175
1.00002 0.997281 0.997556
1.00013 0.999198 0.995058
0.999988 0.997423 0.997492
0.999922 0.996366 0.998468
0.999954 0.997573 0.99741
0.999861 0.996494 0.998868
0.999813 0.996626 0.999306
0.999901 0.997731 0.996921
0.999868 0.997945 0.996779
0.999741 0.996796 0.999294
0.999684 0.997032 0.999243
0.999827 0.998222 0.996588
0.999629 0.997271 0.999188
1.00189 1.0002 0.990616
1.00238 0.999779 0.990067
1.00253 0.999642 0.989929
1.00293 0.999405 0.98938
1.00274 0.999648 0.989489
1.00204 0.999733 0.990731
1.00276 0.999645 0.989449
1.00302 0.999468 0.98909
1.00276 0.999446 0.989656
1.00311 0.999087 0.989385
1.00224 0.999966 0.990164
1.00274 0.998987 0.990166
1.00304 0.999548 0.989003
1.00312 0.999369 0.989024
1.00298 0.998827 0.98972
1.00322 0.999019 0.989347
1.00243 0.999481 0.990204
1.00297 0.998415 0.990426
1.00261 0.9997 0.989678
1.00236 0.999712 0.990254
1.00279 0.999579 0.989423
1.00264 0.999583 0.989883
0.999974 1.00092 0.993643
1.00022 1.00158 0.992573
1.00039 1.00197 0.991765
1.00189 1.00015 0.990791
1.00251 0.99915 0.990366
1.00178 1.00004 0.990999
1.00103 1.00167 0.990749
1.00155 1.00014 0.991364
1.00023 1.0015 0.992611
1.00024 1.00206 0.992015
1.00007 0.999753 0.994602
1.0002 1.00137 0.992702
1.0029 0.999613 0.989232
1.00277 0.999518 0.989663
1.00295 0.99951 0.989236
1.00283 0.999168 0.989803
1.00019 1.00154 0.992644
1.00022 1.00193 0.992093
1.00057 1.0024 0.991034
1.00209 0.999678 0.990754
1.00264 0.998649 0.990691
1.0012 1.0017 0.990496
1.00183 0.999499 0.991408
1.00167 0.999888 0.991435
1.00026 1.00187 0.992193
1.00027 1.00214 0.991925
1.00015 1.00229 0.991966
1.00008 0.999486 0.994755
1.00019 1.00103 0.993021
1.00307 0.99955 0.988986
1.00306 0.999321 0.989193
1.00299 0.998654 0.989977
1.00234 0.998756 0.991095
1.00022 1.00184 0.992271
1.00207 0.99884 0.991795
1.00017 1.00234 0.991611
1.00074 1.00286 0.990247
1.00145 1.00156 0.990208
1.0001 0.999305 0.994843
1.00018 1.00072 0.993496
1.00013 1.002 0.992302
1.00027 1.00194 0.992083
1.00018 1.00272 0.991539
1.00032 1.00215 0.991779
0.999927 0.997755 0.996843
1.0001 0.999822 0.994477
1.00192 1.00035 0.990416
1.00019 1.00133 0.992829
1.00017 1.00155 0.992639
1.0002 1.00205 0.992063
1.00097 1.00113 0.991502
1.00157 1.00081 0.99059
1.0001 1.00239 0.991951
1.00038 1.00258 0.991264
1.00078 1.00143 0.991695
1.00011 0.999563 0.994718
1.0002 1.00106 0.993082
1.0002 1.00207 0.992097
1.00018 1.00205 0.992151
1.00018 1.00237 0.991803
1.00204 1.00024 0.990253
1.00109 1.00118 0.991202
1.00152 1.00073 0.990736
1.00011 1.00295 0.991295
1.0007 1.00251 0.990691
1.0002 1.00078 0.99336
1.00019 1.00189 0.992209
1.0002 1.00254 0.991671
1.00019 1.00242 0.991698
1.00024 1.00246 0.99159
1.00232 0.998947 0.990924
1.00116 1.00181 0.99055
1.00158 1.00039 0.990511
1.00034 1.00328 0.990828
1.00066 1.00292 0.989822
1.00012 0.999344 0.994914
1.00018 1.00056 0.993553
1.00017 1.00146 0.992685
1.00016 1.00039 0.993717
1.00013 1.0003 0.993969
1.00014 1.00127 0.993029
1.00013 1.00193 0.992455
1.00012 1.0012 0.993033
1.00011 1.00025 0.994059
1.00014 0.998925 0.995308
1.00014 0.998974 0.995266
1.00005 0.997152 0.997615
1.00013 0.999081 0.995174
1.00002 0.997278 0.997566
0.999961 0.99623 0.998517
0.999991 0.997417 0.997504
0.999916 0.996338 0.998466
0.999846 0.996456 0.99933
0.999939 0.99756 0.997018
0.999906 0.997739 0.996915
0.999795 0.996609 0.999322
0.999872 0.997958 0.996769
0.999736 0.996822 0.999283
0.99968 0.99706 0.99923
1.00224 0.999974 0.990152
1.00277 0.999457 0.989659
1.00275 0.998946 0.99018
1.00312 0.999063 0.989382
1.00304 0.999487 0.989049
1.00276 0.999643 0.989451
1.00304 0.999554 0.988989
1.00311 0.999376 0.989038
1.00302 0.998858 0.989663
1.00319 0.998997 0.989315
1.00242 0.99954 0.990197
1.00291 0.998234 0.990603
1.00313 0.999502 0.988865
1.00312 0.999317 0.989096
1.00317 0.998501 0.989785
1.00275 0.998239 0.990899
1.0029 0.999612 0.989236
1.00277 0.999512 0.989677
1.00292 0.999521 0.989242
1.00284 0.999172 0.989814
1.00021 1.00152 0.992645
1.00022 1.00192 0.992155
1.00055 1.00244 0.991028
1.00211 0.999751 0.990716
1.00253 0.998585 0.990878
1.00182 0.999514 0.991421
1.00119 1.00177 0.990456
1.00162 0.999698 0.991556
1.00026 1.00187 0.992194
1.00027 1.00211 0.991918
1.00015 1.00232 0.991949
1.00008 0.999489 0.994664
1.00021 1.00098 0.993073
1.00304 0.999531 0.989018
1.00305 0.999337 0.989226
1.00296 0.998696 0.990046
1.00024 1.00184 0.992263
1.00022 1.00232 0.991695
1.0007 1.00293 0.990231
1.00237 0.998815 0.991021
1.00141 1.00141 0.990394
1.002 0.998842 0.991758
1.0001 0.999282 0.994865
1.00028 1.00195 0.992075
1.0003 1.0021 0.99184
1.00018 1.00273 0.991522
1.00014 1.00199 0.992334
1.00019 1.00072 0.993419
1.00312 0.999494 0.98898
1.00324 0.99906 0.989105
1.00294 0.998244 0.990386
1.00268 0.997609 0.99167
1.00023 1.00206 0.992032
1.0019 1.00006 0.990757
1.00027 1.00305 0.990813
1.00087 1.00335 0.989607
1.0001 0.999145 0.994997
1.00017 1.00045 0.993813
1.00015 1.00169 0.992659
1.00013 1.00279 0.99151
1.00028 1.00212 0.991865
1.00026 1.0026 0.991431
1.00011 0.999552 0.994722
1.00019 1.00107 0.993079
1.00204 1.00029 0.990235
1.00018 1.00207 0.992142
1.00019 1.00205 0.992136
1.00017 1.0024 0.991773
1.00111 1.00116 0.991185
1.00157 1.0007 0.99075
1.00009 1.00295 0.99125
1.00071 1.00261 0.990592
1.0002 1.00078 0.993361
1.00019 1.00191 0.992229
1.00019 1.00252 0.991726
1.00018 1.00245 0.991729
1.00021 1.00248 0.99164
1.00239 0.998993 0.990946
1.00119 1.00172 0.990582
1.00158 1.00044 0.990727
1.0003 1.0033 0.990768
1.00073 1.00313 0.989741
1.00019 1.00167 0.992454
1.00019 1.00252 0.991586
1.00023 1.00293 0.991234
1.0002 1.00268 0.991327
1.00351 0.997213 0.990698
1.00238 0.99867 0.990915
1.00126 1.00235 0.98969
1.00031 1.0041 0.989606
1.00018 1.00056 0.993601
1.00016 1.00147 0.992726
1.00016 1.00211 0.992149
1.00013 1.00031 0.993969
1.00015 1.00127 0.992922
1.00011 1.00025 0.994059
1.00014 1.00193 0.992369
1.00012 1.00119 0.993075
1.00016 1.00242 0.991887
1.00012 1.00183 0.992403
1.0001 1.00115 0.993122
1.00011 1.0002 0.994129
1.00014 0.998922 0.995316
1.00014 0.99892 0.99531
1.00007 0.997086 0.997629
1.00014 0.998975 0.995267
1.00005 0.997159 0.99762
0.999996 0.996114 0.998552
1.00002 0.997275 0.997577
0.999957 0.9962 0.998514
0.99991 0.996312 0.998461
0.999978 0.997398 0.997106
0.999944 0.997567 0.997014
0.999848 0.99644 0.999344
0.999911 0.997746 0.996908
0.999789 0.996631 0.999314
0.999731 0.996848 0.999272
1.00242 0.999597 0.99019
1.00306 0.998888 0.989605
1.00285 0.998054 0.99078
1.00316 0.998974 0.989283
1.00311 0.999383 0.989053
1.00305 0.99956 0.988975
1.00312 0.999506 0.988908
1.00311 0.999309 0.989105
1.00315 0.998497 0.989818
1.00277 0.998166 0.990876
1.00309 0.999501 0.988982
1.00318 0.998979 0.989391
1.00323 0.997886 0.990249
1.00301 0.999514 0.989049
1.00304 0.999353 0.989259
1.00293 0.998735 0.990116
1.00026 1.00183 0.992256
1.00028 1.00231 0.991779
1.00067 1.003 0.990214
1.0024 0.998871 0.990948
1.00193 0.998845 0.99172
1.00138 1.00127 0.990582
1.00028 1.00197 0.992067
1.00028 1.00205 0.991902
1.00018 1.00274 0.991504
1.00009 0.999259 0.994886
1.00015 1.00199 0.992367
1.00019 1.00071 0.993343
1.0031 0.999486 0.988976
1.00325 0.999039 0.989095
1.00298 0.998312 0.990289
1.00025 1.00206 0.992016
1.00025 1.00299 0.990949
1.00088 1.0033 0.989646
1.00263 0.997681 0.991724
1.00191 0.999981 0.990747
1.0001 0.999132 0.995087
1.00016 1.00045 0.993818
1.00026 1.00212 0.991862
1.00027 1.00257 0.991461
1.00013 1.00276 0.991547
1.00015 1.00171 0.992592
1.00313 0.999315 0.989077
1.00335 0.998668 0.989284
1.00314 0.996871 0.991356
1.00273 0.997748 0.991774
1.00014 1.00256 0.991615
1.00117 1.00315 0.989176
1.00043 1.0037 0.990205
1.00012 0.998987 0.995288
1.00012 1.00001 0.994284
1.00014 1.00028 0.993854
1.00014 1.00147 0.99284
1.00011 1.00245 0.991852
1.00012 1.0033 0.991011
1.00028 1.00206 0.991762
1.00021 1.0033 0.991277
1.0002 1.00078 0.993363
1.00019 1.00193 0.992249
1.00245 0.999035 0.990968
1.00018 1.00248 0.99176
1.00018 1.00249 0.99178
1.00017 1.0025 0.99169
1.00123 1.00163 0.990615
1.00158 1.00048 0.990942
1.00025 1.00331 0.990709
1.0008 1.00332 0.98966
1.00019 1.0017 0.992415
1.00019 1.0025 0.991641
1.00021 1.00289 0.991292
1.00023 1.0027 0.991371
1.00346 0.997127 0.99074
1.00232 0.99893 0.990894
1.00132 1.00228 0.989799
1.00038 1.00406 0.989549
1.00016 1.00236 0.991902
1.00364 0.997605 0.989768
1.00019 1.00301 0.991241
1.00022 1.00342 0.990727
1.00368 0.996692 0.990553
1.00197 1.00111 0.989478
1.00074 1.00428 0.989079
1.00016 1.00149 0.992767
1.00015 1.00212 0.992152
1.00014 1.00263 0.991656
1.00011 1.00025 0.994059
1.00011 1.00119 0.993117
1.00015 1.00194 0.992282
1.00011 1.00018 0.994133
1.0001 1.00116 0.993112
1.00017 1.00242 0.991817
1.00011 1.00184 0.992486
1.00024 1.00266 0.991467
1.00018 1.00232 0.991841
1.00011 1.00175 0.992609
1.00008 1.00107 0.993315
1.00011 1.00015 0.994162
1.00013 0.998939 0.995314
1.00014 0.998923 0.995316
1.00008 0.997075 0.997613
1.00014 0.998916 0.995313
1.00007 0.997104 0.997627
1.00002 0.996056 0.998549
1.00005 0.997166 0.997625
0.999994 0.996083 0.998551
0.999954 0.996172 0.99851
1.00013 0.998845 0.995406
1.00002 0.997242 0.997189
0.999981 0.997408 0.997102
0.999896 0.996285 0.999365
0.999948 0.997574 0.99701
0.999842 0.996462 0.999337
0.999783 0.996653 0.999306
1.00279 0.998093 0.990852
1.00313 0.998493 0.989851
1.0031 0.999299 0.989115
1.0031 0.999512 0.988951
1.00308 0.999508 0.988999
1.00318 0.999004 0.989331
1.00317 0.997867 0.990377
1.00303 0.999341 0.989268
1.00332 0.99861 0.989481
1.00321 0.998123 0.989889
1.00309 0.999477 0.988971
1.00327 0.999022 0.989085
1.00302 0.998379 0.990192
1.00027 1.00206 0.992
1.00023 1.00293 0.991086
1.00089 1.00323 0.989685
1.00256 0.997751 0.991777
1.00192 0.999902 0.990736
1.00023 1.00212 0.99186
1.00027 1.00254 0.991491
1.00012 1.00273 0.991584
1.00011 0.999117 0.995178
1.00016 1.00045 0.993822
1.00015 1.00174 0.992524
1.00312 0.999289 0.989119
1.00012 0.998984 0.995285
1.00011 1.00001 0.994232
1.00338 0.998651 0.989281
1.00309 0.997094 0.99118
1.00013 1.00251 0.991687
1.00043 1.00384 0.990025
1.00118 1.00294 0.989232
1.00264 0.997709 0.991737
1.00014 1.00029 0.994002
1.00014 1.00146 0.99284
1.00033 1.00212 0.991732
1.00016 1.00294 0.991441
1.0001 1.00338 0.99092
1.00013 1.00243 0.991858
1.00314 0.998855 0.989505
1.00341 0.998087 0.989881
1.00342 0.995439 0.992417
1.00193 1.00056 0.990129
1.0002 1.00288 0.991329
1.00064 1.00462 0.988957
1.0001 0.999911 0.994289
1.00012 1.00014 0.994144
1.00007 1.00097 0.993579
1.00011 1.0013 0.992938
1.00012 1.00222 0.992169
1.00006 1.00305 0.991263
1 1.00411 0.990539
1.00005 1.00292 0.991492
1.00018 1.00173 0.992376
1.00019 1.00248 0.991696
1.0034 0.997048 0.990781
1.00227 0.999209 0.990873
1.00026 1.00272 0.991415
1.0002 1.00286 0.991351
1.00137 1.00223 0.989908
1.00045 1.00404 0.989492
1.00015 1.00236 0.991901
1.00359 0.997529 0.989798
1.00018 1.00296 0.991252
1.00024 1.0034 0.990601
1.00362 0.996725 0.99051
1.00207 1.00103 0.989494
1.00069 1.00436 0.989082
1.00013 1.00296 0.991395
1.00454 0.996158 0.989452
1.00034 1.00314 0.990954
1.00042 1.00422 0.989817
1.00317 0.998183 0.989651
1.00105 1.00347 0.988862
1.00293 1.00138 0.988671
1.00014 1.00213 0.992154
1.00013 1.00264 0.99166
1.00024 1.00282 0.991342
1.00011 1.00017 0.994136
1.0001 1.00117 0.993101
1.00011 1.00185 0.99257
1.00018 1.00242 0.991747
1.00011 1.00015 0.994162
1.00008 1.00108 0.993256
1.00024 1.00265 0.991435
1.00011 1.00175 0.992607
1.00016 1.00232 0.991918
1.00033 1.00258 0.991333
1.00013 1.00216 0.992187
1.00011 1.00168 0.992709
1.00009 1.00103 0.993228
1.00011 1.00016 0.994031
1.00008 1.0011 0.993396
1.0001 1.00021 0.994004
1.00012 0.998957 0.995306
1.00013 0.998942 0.995313
1.0001 0.997093 0.997181
1.00014 0.998924 0.995316
1.00009 0.997096 0.997398
1.00001 0.996004 0.99938
1.00007 0.997123 0.997625
1.00002 0.996023 0.998551
0.999993 0.996053 0.998549
1.00014 0.99873 0.995502
1.00013 0.998841 0.995405
1.00005 0.997104 0.997266
1.00001 0.99725 0.997395
0.999939 0.996149 0.999385
0.999984 0.997417 0.997098
0.99989 0.996306 0.999359
0.999836 0.996482 0.999331
1.00311 0.997845 0.990505
1.00318 0.999031 0.98927
1.00307 0.999516 0.989016
1.00303 0.999338 0.98926
1.00322 0.99861 0.989584
1.0032 0.998405 0.989795
1.00306 0.998823 0.989733
1.00414 0.996592 0.990326
1.00347 0.997297 0.990443
1.00011 0.999849 0.994467
1.00311 0.999262 0.989162
1.00341 0.99863 0.989279
1.00305 0.997298 0.991004
1.00012 1.00247 0.991759
1.00043 1.00398 0.989846
1.00119 1.00267 0.989288
1.00257 0.997704 0.991699
1.00038 1.00217 0.991702
1.00012 1.00261 0.991604
1.00007 1.00347 0.990828
1.00012 0.998984 0.995283
1.00014 1.00241 0.991864
1.00013 1.0003 0.99415
1.00013 1.00146 0.992839
1.00011 1.00001 0.99418
1.00316 0.998819 0.989503
1.00011 0.999906 0.994348
1.00012 1.00015 0.99414
1.00007 1.00096 0.993462
1.00345 0.997892 0.989912
1.0033 0.995784 0.992167
1.00023 1.00268 0.991379
1.0005 1.00468 0.988877
1.00191 1.00056 0.99018
1.00011 1.00129 0.993025
1.00013 1.00222 0.992128
1.00005 1.00297 0.9914
1 1.004 0.990622
1.00008 1.00303 0.991325
1.00331 0.998221 0.98964
1.00369 0.996628 0.990774
1.00314 0.997727 0.990823
1.00104 1.00355 0.989114
1.00007 1.00374 0.990649
1.00005 1.00084 0.99347
1.00009 1.00113 0.993178
1.00007 1.00168 0.992825
1.00009 1.00209 0.992328
1.00011 1.00271 0.991652
0.999987 1.00367 0.99093
0.999845 1.00448 0.990341
1.00014 1.00236 0.9919
1.00016 1.00291 0.991264
1.00355 0.997439 0.989828
1.00357 0.996733 0.990467
1.00217 1.00093 0.989509
1.00026 1.00339 0.990474
1.00062 1.00441 0.989085
1.00012 1.00293 0.99144
1.00454 0.996007 0.989436
1.00028 1.00309 0.990985
1.00027 1.00433 0.989794
1.00334 0.998014 0.98971
1.00103 1.00361 0.988855
1.00298 1.00019 0.989025
1.0002 1.00306 0.99115
1.00456 0.996272 0.989438
1.00021 1.00355 0.990728
1.00006 1.00484 0.989552
1.00152 1.0015 0.989451
0.997915 0.999687 0.970945
0.998678 1.00224 0.985193
1.00224 1.00004 0.990849
0.994871 0.997587 0.979173
0.996353 0.995762 0.981116
1.00012 1.00264 0.991663
1.00022 1.00282 0.991354
1.00039 1.00265 0.991165
1.00011 1.00014 0.994162
1.00009 1.00109 0.993197
1.00011 1.00175 0.992605
1.00014 1.00232 0.991996
1.00025 1.00264 0.991403
1.00012 1.00169 0.992629
1.00011 1.00017 0.994086
1.00009 1.00103 0.993295
1.0003 1.00259 0.991377
1.00014 1.00214 0.992153
1.00013 1.00209 0.992249
1.00022 1.00253 0.991624
1.00013 1.00167 0.992518
1.0001 1.00103 0.993232
1.0001 1.00018 0.994019
1.0001 1.00106 0.993327
1.00011 1.00174 0.992692
1.00008 1.00119 0.993193
1.00008 1.00111 0.993289
1.0001 1.00023 0.9941
1.0001 1.00021 0.994006
1.00012 0.998982 0.995282
1.00012 0.998957 0.995306
1.00009 0.997122 0.997177
1.00013 0.998946 0.995313
1.0001 0.997096 0.997181
1.00002 0.995989 0.99938
1.00009 0.997117 0.997184
1.00003 0.996 0.998957
1.00002 0.995991 0.998553
1.00015 0.998657 0.995559
1.00014 0.998724 0.995501
1.00007 0.996995 0.997331
1.00014 0.998836 0.995404
1.00004 0.9971 0.997471
0.999974 0.996033 0.999403
1.00002 0.997269 0.997173
0.999933 0.996188 0.999376
0.999885 0.996328 0.999352
1.00311 0.998612 0.989688
1.00304 0.999335 0.989252
1.00314 0.998697 0.9897
1.00409 0.996638 0.990382
1.00306 0.998816 0.989673
1.00331 0.997557 0.990191
1.00345 0.998489 0.989055
0.999514 0.99845 0.984257
1.0034 0.997741 0.991371
1.00011 0.999834 0.994492
1.00011 0.999847 0.994466
1.00005 1.00074 0.99371
1.00006 1.0007 0.993726
1.00319 0.998796 0.9895
1.00348 0.997749 0.989942
1.00318 0.996113 0.991917
1.00026 1.00251 0.991428
1.00035 1.00481 0.988797
1.00188 1.00045 0.990233
1.00006 1.00302 0.991308
0.999998 1.00389 0.990704
1.00009 1.00301 0.991387
1.00012 1.00016 0.994136
1.00013 1.00223 0.992088
1.0001 1.00127 0.993111
1.00012 0.999902 0.994407
1.00007 1.00095 0.993345
1.00329 0.998297 0.989748
1.00005 1.00085 0.993588
1.00008 1.0011 0.993251
1.00007 1.00161 0.992805
1.00372 0.99644 0.990839
1.00302 0.997605 0.990824
1.00011 1.00369 0.990641
1.00097 1.00365 0.989071
1.00008 1.00209 0.992366
1.00011 1.00266 0.991662
0.999857 1.00446 0.990345
1.00001 1.00378 0.990838
1.00393 0.996632 0.989758
1.00418 0.996028 0.99021
1.00199 1.00238 0.988556
1.00005 1.00451 0.989964
1.00006 1.00181 0.992577
1.00005 1.0019 0.992508
1.00008 1.00291 0.991473
0.999993 1.00454 0.99005
0.99711 1.00024 0.968005
1.00011 1.00289 0.991486
1.00022 1.00303 0.991016
1.00454 0.995852 0.989419
1.00348 0.997854 0.989769
1.00101 1.00374 0.988848
1.00011 1.00443 0.989771
1.00287 0.999043 0.989383
1.00017 1.00308 0.991178
1.00464 0.996118 0.989347
1.00015 1.00354 0.990737
1.00005 1.00485 0.989581
1.00154 1.00146 0.989469
0.997557 0.998703 0.971288
0.998356 1.00149 0.981956
1.00226 0.999524 0.991237
0.994844 0.997994 0.97824
0.996115 0.995469 0.980771
1.00014 1.00309 0.991225
0.995662 0.996886 0.976087
0.997821 0.995275 0.983509
1.00333 0.996764 0.991016
1.00007 1.00352 0.99071
1.00002 1.00482 0.990101
1.00217 0.999742 0.99207
0.996904 1.00021 0.970684
0.997617 1.004 0.980932
0.994653 1.00083 0.9771
1.00163 0.996048 0.980136
1.00018 1.00283 0.991366
1.00037 1.00268 0.991177
1.00051 1.00256 0.991057
1.00011 1.00017 0.994141
1.00008 1.00103 0.993362
1.00013 1.0017 0.992548
1.00016 1.00213 0.992119
1.00026 1.0026 0.991421
1.00011 1.00018 0.99402
1.00013 1.00205 0.992244
1.00013 1.00169 0.992612
1.0001 1.00101 0.993296
1.00024 1.00253 0.99153
1.00018 1.00224 0.991953
1.00014 1.00321 0.991178
1.00013 1.00164 0.992655
1.0001 1.00103 0.993332
1.0001 1.00106 0.993327
1.00011 1.00174 0.992601
1.00013 1.00166 0.992647
1.0001 1.00185 0.992491
1.00016 1.00213 0.992148
1.00005 1.00242 0.992014
1.00009 1.00133 0.993029
1.00008 1.00119 0.993192
1.00011 1.00028 0.994039
1.00008 1.00111 0.993182
1.0001 1.00023 0.994042
1.00012 0.999032 0.995236
1.0001 1.00021 0.994008
1.00013 0.998979 0.995282
1.00006 0.997154 0.997598
1.00012 0.998956 0.995306
1.00009 0.997116 0.99739
1.00005 0.995995 0.998529
1.0001 0.997098 0.997181
1.00002 0.995988 0.999379
1.00005 0.995997 0.998534
1.00011 0.999866 0.99446
1.00015 0.998639 0.995576
1.00015 0.998654 0.995559
1.00009 0.996926 0.997372
1.00015 0.998718 0.9955
1.00007 0.996989 0.997334
0.999999 0.995945 0.999417
1.00004 0.997116 0.997662
0.999981 0.996072 0.998982
0.999957 0.996213 0.998534
1.0039 0.996806 0.99044
1.00309 0.998811 0.989612
1.00316 0.997816 0.98994
0.999358 0.998043 0.986562
1.00332 0.997825 0.99148
1.0035 0.998302 0.988962
1.00388 0.998411 0.990487
0.999149 0.999426 0.985749
0.996949 1.00069 0.966407
0.995398 0.997187 0.97538
0.996158 0.994788 0.981674
1.00004 1.0007 0.993631
1.00011 0.999837 0.994492
1.00012 0.999848 0.994466
1.00004 1.00075 0.993665
1.00003 1.00141 0.993114
1.00006 1.00127 0.993199
1.00006 1.00083 0.993613
1.00006 1.00072 0.993675
1.00327 0.998371 0.989855
1.00375 0.996192 0.990905
1.00291 0.997559 0.990826
1.00014 1.00361 0.990634
1.00092 1.00384 0.989028
0.99987 1.00444 0.99035
1.00002 1.00389 0.990746
1.00012 1.00261 0.991671
1.00008 1.00107 0.993324
1.00007 1.00209 0.992404
1.00005 1.00086 0.993706
1.00008 1.00155 0.992786
1.00397 0.996987 0.989607
1.00005 1.0018 0.992625
1.00005 1.00192 0.99251
1.00412 0.996107 0.99019
1.00174 1.00199 0.988804
1.00012 1.00453 0.989822
1.0001 1.00292 0.991433
1.00001 1.00448 0.990074
1.00472 0.99688 0.988696
1.00307 1.00031 0.988661
1.00026 1.00459 0.988962
1.00004 1.00478 0.989707
1.00003 1.00228 0.99213
1.0001 1.00265 0.991699
1.00011 1.00379 0.990635
0.996601 0.996195 0.975961
0.997584 1.00082 0.970548
1.00016 1.00309 0.991205
1.00009 1.00353 0.990746
1.00473 0.995806 0.989256
1.00165 1.00157 0.989488
1.00004 1.00487 0.98961
0.997928 0.999895 0.96582
0.998282 1.00065 0.986399
1.00232 0.99912 0.991617
0.994669 0.998083 0.976832
0.99574 0.995269 0.980426
1.00018 1.00299 0.991216
0.996326 0.99553 0.977598
0.997287 0.995475 0.983553
1.00333 0.997214 0.990871
1.00001 1.00384 0.990734
0.999904 1.00472 0.990167
1.00226 0.999706 0.991931
0.996367 1.00044 0.968934
0.997587 1.00531 0.983187
0.994566 1.00024 0.975513
1.00073 0.996657 0.980463
1.00054 1.00242 0.991013
0.998601 0.99598 0.984989
1.00746 0.997076 0.980214
1.0009 1.00079 0.991727
0.99975 1.00382 0.99186
1.00149 1.00197 0.995235
0.998678 1.00152 0.989551
0.995048 1.00333 0.96852
0.994955 0.998917 0.976379
1.0078 0.997443 0.975893
1.00035 1.00273 0.991189
1.00049 1.0026 0.990993
1.00019 1.003 0.990959
1.00011 1.00018 0.99402
1.00011 1.00099 0.993361
1.00013 1.00171 0.992706
1.00014 1.00201 0.99224
1.00025 1.00252 0.991437
1.0001 1.00102 0.993333
1.00016 1.00221 0.992021
1.00012 1.00164 0.992654
1.00011 1.00323 0.991122
1.00009 1.00363 0.990876
1.00014 1.00254 0.991798
1.00013 1.00167 0.992639
1.00009 1.00107 0.993327
1.00012 1.00175 0.99251
1.00013 1.00167 0.992645
1.0001 1.00186 0.992487
1.00017 1.00209 0.992129
1.00008 1.00208 0.992286
1.00018 1.00211 0.992119
1.00019 1.00228 0.991815
1.00014 1.00276 0.991492
0.999921 1.00305 0.991518
1.00003 1.00259 0.99183
1.00006 1.00241 0.99202
1.00009 1.00158 0.992788
1.00009 1.00135 0.993025
1.00012 1.00037 0.993922
1.00008 1.0012 0.993191
1.00011 1.00028 0.994037
1.00011 0.99911 0.995176
1.0001 1.00023 0.993985
1.00013 0.999027 0.995237
1.00004 0.997217 0.997581
1.00013 0.998976 0.995282
1.00007 0.997153 0.997382
1.00003 0.996005 0.998529
1.0001 0.997108 0.997177
1.00002 0.995996 0.999378
1.00002 0.995985 0.999379
1.00012 0.999945 0.994524
1.00015 0.998678 0.995538
1.0001 0.999869 0.99446
1.00009 0.99691 0.997384
1.00015 0.998638 0.995575
1.00015 0.998649 0.995558
1.00009 0.99693 0.997371
1.00001 0.995892 0.999425
1.00006 0.99699 0.997727
1.00001 0.995957 0.999012
0.999999 0.996078 0.99858
0.996266 0.995682 0.978482
0.997663 0.994856 0.984029
0.999449 0.997968 0.988749
1.00326 0.997986 0.991587
1.00355 0.99812 0.988866
0.999209 0.999375 0.98992
1.00399 0.998242 0.990384
0.99768 0.999794 0.970469
0.994735 0.997815 0.978717
0.996 0.994571 0.981585
1.00076 0.998023 0.992682
0.996176 1.00166 0.971395
0.994651 0.999817 0.977736
0.999206 0.997734 0.979947
1.00003 1.00156 0.992881
1.00005 1.0007 0.993678
1.00011 0.999836 0.994492
1.00004 1.00075 0.993621
1.00002 1.00136 0.993166
1.00004 1.00157 0.992946
1.00005 1.00123 0.993213
1.00008 1.00112 0.993274
1.00006 1.00085 0.993542
1.00005 1.00073 0.993625
1.00398 0.997259 0.989459
1.00401 0.996135 0.990163
1.00147 1.00153 0.989052
1.00019 1.00454 0.989681
1.00003 1.00442 0.990097
1.00012 1.00293 0.991392
1.00005 1.00193 0.992513
1.00004 1.00178 0.992672
1.0048 0.996539 0.988498
1.00003 1.00232 0.992097
1.00012 1.00267 0.991607
1.00283 1.00031 0.98843
1.00024 1.00443 0.989336
1.00009 1.00477 0.989661
1.00015 1.00377 0.99056
1.0037 1.00102 0.987339
1.00047 1.00428 0.989553
1.00006 1.00437 0.990011
1.00003 1.00242 0.992036
1.00014 1.00275 0.991493
1.00026 1.00319 0.990856
0.999903 0.996324 0.982128
0.99625 0.99703 0.974813
0.997185 1.00036 0.967843
1.00023 1.0029 0.991207
0.999953 1.00415 0.990759
1.00331 0.997568 0.990727
0.999771 1.00456 0.99023
0.996771 0.996484 0.97502
0.996125 1.00051 0.973587
0.997536 1.00446 0.980661
1.00228 0.999465 0.991884
0.994649 0.999938 0.977971
0.997292 0.995452 0.983038
0.999048 0.996884 0.981245
1.00047 1.00269 0.990994
0.998659 0.996183 0.983882
1.00713 0.997154 0.980517
1.00101 1.0008 0.991788
0.999515 1.00364 0.991895
1.00232 1.003 0.991021
0.998569 1.00241 0.984521
0.995456 1.00381 0.969004
0.995883 0.999041 0.979283
1.00508 0.997783 0.977258
0.999901 1.00257 0.992436
1.01058 0.996896 0.979793
1.0185 0.995965 0.969616
0.998447 1.00407 0.993375
0.998923 0.999647 0.996325
0.995559 1.00111 0.970228
0.997486 0.998824 0.979842
1.00548 0.997966 0.977956
1.00047 1.00263 0.99093
1.00029 1.0029 0.991092
1.00032 1.00249 0.99157
1.00011 1.00102 0.993334
1.00013 1.00164 0.992653
1.00015 1.00218 0.992088
1.00009 1.00327 0.991066
1.00013 1.00167 0.992638
1.00014 1.00251 0.991801
1.00005 1.00359 0.990874
0.99993 1.00362 0.991279
1.00019 1.00314 0.991036
1.00019 1.00218 0.992052
1.00012 1.00167 0.992644
1.00009 1.00187 0.992483
1.00019 1.00204 0.992111
1.00019 1.0021 0.992129
1.00007 1.00211 0.992286
1.00021 1.00225 0.991848
1.00019 1.00254 0.991613
1.00025 1.0024 0.991644
1.00018 1.0029 0.991248
1.00015 1.00277 0.991513
0.999933 1.00317 0.991386
1.00016 1.00311 0.991159
1.00008 1.00248 0.991985
0.999888 1.00292 0.991751
1.00004 1.00257 0.991894
1.00009 1.00186 0.992423
1.00006 1.00241 0.992026
1.00009 1.00158 0.992788
1.00014 1.00054 0.993721
1.00008 1.00135 0.993021
1.00012 1.00038 0.993918
1.0001 0.999209 0.995103
1.00011 1.00028 0.994035
1.00012 0.999101 0.995176
1.00001 0.997315 0.997549
1.00013 0.99902 0.995237
1.00005 0.997224 0.997361
0.999998 0.996081 0.998516
1.00008 0.997145 0.997168
1.00002 0.996016 0.998953
1.00001 0.996 0.999378
1.00012 1.00014 0.994192
1.00015 0.99876 0.995466
1.00011 0.999953 0.994392
1.00009 0.996948 0.997357
1.00015 0.998678 0.995539
1.0001 0.999877 0.99446
1.00002 0.99588 0.999426
1.00009 0.996908 0.997384
1.00015 0.998636 0.995575
1.00009 0.996933 0.99737
1.00001 0.995898 0.999423
0.999998 0.99595 0.999415
0.999196 0.996072 0.983849
0.996075 0.996289 0.976667
1.00896 0.995118 0.979834
0.997574 0.994864 0.98377
0.99932 0.999904 0.985063
1.00413 0.998096 0.990252
0.997166 0.998733 0.97467
0.995299 0.998687 0.975709
0.995833 0.994217 0.981497
1.00071 0.998469 0.990275
0.996345 1.00093 0.969387
0.994603 0.999708 0.975644
1.00007 0.997008 0.980259
0.999478 0.999265 0.991066
0.995505 1.00161 0.969453
0.99489 0.999902 0.978516
1.00552 0.999211 0.977075
1.00006 1.00205 0.992421
1.00003 1.00155 0.992952
1.00006 1.0007 0.993724
1 1.00131 0.993218
1.00007 1.00185 0.992522
1.00004 1.00152 0.993
1.00006 1.00119 0.993227
1.00011 1.00122 0.993182
1.00008 1.00111 0.99334
1.00006 1.00087 0.993471
1.00492 0.996293 0.988301
1.00263 1.00033 0.988204
1.00024 1.00432 0.989709
1.00015 1.00476 0.989616
1.00018 1.00375 0.990486
1.00013 1.0027 0.991515
1.00003 1.00236 0.992064
1.00005 1.0024 0.992048
1.00376 1.00038 0.98748
1.00012 1.00278 0.991547
1.00027 1.00327 0.990833
1.00047 1.0043 0.98939
1.00015 1.00437 0.99
1.00188 1.00239 0.988808
0.999835 1.00412 0.990878
1.00031 1.00322 0.990656
1.00017 1.00258 0.991627
1.00034 1.003 0.99085
1.01238 0.997273 0.978059
0.99976 0.996418 0.982958
0.996324 0.996338 0.977828
1.00039 1.00299 0.990975
0.999268 1.00349 0.991931
1.00112 1.0008 0.991834
0.998621 0.99653 0.983817
0.995406 1.00278 0.967902
0.998444 1.00252 0.987101
1.00328 1.00403 0.986653
0.995311 0.999403 0.975929
1.00669 0.99724 0.980819
1.00454 0.997794 0.977578
0.999862 1.00228 0.992566
1.01067 0.997095 0.979387
1.01828 0.995883 0.969865
0.998624 1.00383 0.993002
0.999035 1.00032 0.99375
0.99559 1.0025 0.968863
1.0077 0.997051 0.976374
0.996276 0.998486 0.978935
0.999409 1.00197 0.993656
1.02483 0.992107 0.966552
1.02274 0.995118 0.965838
1.00539 0.998939 0.977589
0.996426 1.00226 0.996904
0.995495 0.998981 0.974118
0.995369 0.999501 0.980224
1.0004 1.00278 0.991224
1.00043 1.00265 0.991168
1.00004 1.00223 0.992599
1.00013 1.00167 0.992637
1.00014 1.00249 0.991804
1.00003 1.0035 0.990872
1.00019 1.00217 0.992069
1.00021 1.0031 0.991029
0.999996 1.0035 0.991069
0.999831 1.00335 0.991499
1.00032 1.00258 0.991332
1.00019 1.00208 0.99214
1.00006 1.00214 0.992286
1.00023 1.00221 0.991882
1.00026 1.00238 0.991645
1.0002 1.00249 0.991637
1.00005 1.00303 0.991407
1.00013 1.00287 0.99139
1.00008 1.00398 0.990441
1.00017 1.00278 0.991534
1.00002 1.00319 0.991365
1.00014 1.0035 0.990534
1.00015 1.00296 0.991277
1.00007 1.00252 0.991931
1.00011 1.00311 0.99118
1.00011 1.00199 0.992342
1.00008 1.0025 0.99195
0.999856 1.0028 0.991984
1.00006 1.00256 0.991959
1.00009 1.00183 0.992495
1.00014 1.00081 0.993446
1.00009 1.00158 0.992787
1.00013 1.00055 0.993717
1.00008 0.999339 0.995001
1.00011 1.00039 0.993914
1.0001 0.999202 0.995101
0.999966 0.997439 0.997501
1.00012 0.999093 0.995175
1.00001 0.997328 0.997324
0.999957 0.996185 0.998495
1.00006 0.997218 0.997146
0.999989 0.996087 0.998947
0.999996 0.996044 0.999376
1.00014 1.00031 0.99382
1.00013 0.998916 0.995174
1.00013 1.00014 0.99419
1.00008 0.997037 0.997294
1.00014 0.998772 0.995381
1.00011 0.999958 0.994261
1.00001 0.995912 0.999417
1.00009 0.996941 0.997359
1.00015 0.998679 0.995539
1.00002 0.995879 0.999426
1.00009 0.996907 0.997385
1.00001 0.995904 0.999421
1.01242 0.996009 0.977579
0.999325 0.995894 0.982756
0.996224 0.996185 0.975689
1.00017 1.0013 0.992909
1.01938 0.994321 0.970658
1.00849 0.995842 0.9801
0.997888 0.994871 0.982939
1.00063 0.998401 0.987903
0.996289 1.00154 0.971684
0.994727 0.999914 0.978256
1.00022 0.995957 0.980353
0.999101 0.999588 0.985821
0.995148 1.00211 0.970991
0.995686 0.999831 0.977658
1.00426 0.998726 0.978215
0.998616 1.00073 0.983707
0.995169 1.00044 0.967699
0.996711 0.999463 0.975889
1.0063 0.998508 0.977193
1.00016 1.00222 0.991969
1.00006 1.00208 0.992377
1.00003 1.00153 0.993024
1.00013 1.00186 0.99242
1.00008 1.00182 0.992607
1.00005 1.00147 0.993055
1.00012 1.00121 0.993206
1.00008 1.0011 0.993406
1.00381 0.999699 0.987619
1.00048 1.00436 0.989228
1.00006 1.00236 0.992059
1.00024 1.00439 0.989988
1.00027 1.00333 0.99081
1.00011 1.00281 0.991601
1.00017 1.00259 0.991638
1.00214 1.00249 0.988907
1.00032 1.00297 0.990943
1.00031 1.00339 0.990607
0.999832 1.004 0.990722
1.00026 1.00246 0.99166
1.0008 1.00088 0.99302
0.999534 1.00368 0.991891
1.0004 1.00253 0.991141
1.00031 1.00276 0.991282
1.02364 0.993803 0.967668
1.01281 0.996839 0.977394
0.999579 0.996547 0.983791
0.999813 1.00197 0.992699
0.998813 1.00366 0.992632
1.01077 0.997266 0.978982
0.995625 1.00066 0.97039
0.999115 1.00091 0.987186
0.996601 0.99868 0.97685
1.01809 0.995734 0.970113
1.01028 0.996307 0.974791
0.999511 1.00227 0.993349
1.02494 0.99202 0.966353
1.02394 0.994131 0.964697
0.996542 1.00408 0.997759
1.0041 0.998553 0.978491
0.995215 0.998707 0.973466
0.996639 0.999132 0.976663
0.998688 1.00227 0.99555
1.0287 0.991191 0.962335
1.01979 0.995114 0.968894
0.999184 0.998181 0.979769
0.996888 0.998621 0.976193
0.996154 1.00023 1.00215
0.994972 1.00017 0.970043
1.00052 1.00287 0.990765
1.00011 1.0021 0.992397
0.999026 1.00349 0.99227
1.0002 1.00216 0.992086
1.00022 1.00307 0.991023
1.00006 1.00348 0.99086
1.0003 1.00259 0.99134
0.999878 1.00322 0.991475
0.999704 1.00392 0.991159
1.00026 1.00236 0.991647
1.00021 1.00245 0.991661
1.00013 1.00305 0.991328
0.999868 1.00436 0.990436
1.00006 1.00284 0.991532
0.999993 1.00386 0.990577
1.0001 1.00461 0.989769
1.00052 1.00321 0.990349
1.0001 1.00322 0.991344
1.0002 1.00363 0.990415
1.00024 1.00258 0.991661
0.999955 1.00268 0.991851
1.00015 1.00286 0.991373
1.00009 1.00206 0.992344
1.00008 1.00252 0.991917
1.00005 1.00312 0.991201
1.00015 1.00107 0.993196
1.00012 1.00197 0.992328
1.00008 1.00253 0.991915
1.00009 1.0018 0.992566
1.00014 1.0008 0.993444
1.00006 0.999553 0.99484
1.00013 1.00056 0.993712
1.00008 0.999343 0.994995
0.999935 0.997586 0.997003
1.00011 0.999197 0.995099
0.99998 0.99745 0.997056
0.999883 0.996307 0.999353
1.00002 0.997323 0.997107
0.99995 0.996188 0.998933
0.999967 0.996121 0.99937
1.00017 1.00043 0.993642
1.00012 0.999118 0.994972
1.00015 1.00032 0.993892
1.00005 0.997172 0.997203
1.00013 0.998939 0.995149
1.00013 1.00015 0.994187
0.999996 0.995981 0.999401
1.00008 0.997028 0.997298
1.00013 0.998787 0.995297
1.00001 0.995904 0.999421
1.00009 0.996934 0.997361
1.00002 0.99588 0.999427
1.02318 0.993214 0.96815
1.01249 0.995762 0.977672
0.999252 0.995723 0.9829
1.00017 1.0013 0.992934
1.00021 1.00136 0.992721
1.00015 1.0019 0.992422
1.022 0.994857 0.967141
1.019 0.994647 0.970871
1.008 0.996591 0.980367
0.998793 0.999946 0.989625
0.995417 1.00233 0.969161
0.994882 0.999514 0.976099
1.00488 0.997527 0.978181
0.998159 1.00074 0.987717
0.9952 1.00046 0.971164
0.995253 0.999463 0.980457
1.00807 0.997119 0.975857
0.998023 0.998719 0.989257
0.994947 0.999997 0.972961
0.996174 0.999584 0.979313
1.00725 0.998234 0.975567
1.00021 1.00231 0.991833
1.00014 1.00227 0.991964
1.00006 1.00212 0.992333
1.00013 1.00187 0.992414
1.00008 1.00178 0.992691
1.00012 1.00121 0.993231
1.00241 1.00259 0.989006
0.999833 1.00385 0.990566
1.00017 1.00262 0.991649
1.00033 1.00349 0.990558
1.0003 1.00297 0.991036
1.00026 1.0024 0.991657
1.00031 1.00273 0.991256
1.00088 1.00093 0.992945
1.00043 1.00249 0.991267
0.999327 1.0035 0.992695
1.00027 1.00242 0.991529
0.998559 1.00159 0.996099
0.999322 1.00062 0.995273
1.0003 1.00273 0.991137
1.02751 0.992407 0.963387
1.02423 0.993504 0.966651
1.01323 0.99633 0.976729
0.9996 1.00255 0.993043
0.996576 1.0013 0.998441
1.02504 0.991941 0.966153
0.995094 0.999399 0.982829
0.997353 0.999224 0.979632
1.0252 0.993153 0.963556
1.00476 0.997516 0.978553
0.998742 1.00194 0.995276
1.02836 0.991484 0.962487
1.01941 0.995732 0.969103
0.996035 1.00159 0.994532
0.999965 0.997643 0.980056
0.995337 0.998874 0.980597
0.995002 1.00007 0.973518
0.997877 1.00473 0.997377
1.02338 0.994387 0.966673
1.00895 0.99598 0.978772
0.995872 0.995823 0.981691
0.994881 0.99948 0.978495
0.995232 0.999484 0.972954
0.996882 0.999635 0.99188
1.00015 1.00194 0.992195
0.999121 1.00341 0.992324
0.998958 1.00478 0.991685
1.00028 1.00258 0.991348
0.999914 1.00308 0.991449
0.999614 1.00397 0.991221
0.999708 1.00484 0.990167
1.00022 1.00307 0.991249
1.00002 1.00437 0.99029
1.00014 1.00501 0.989255
0.999907 1.00374 0.990713
1.00013 1.00452 0.989769
1.0006 1.00451 0.989177
1.00078 1.00346 0.989685
1.00031 1.00254 0.991249
1.0005 1.00331 0.990245
1.00025 1.00375 0.990296
1.0002 1.00229 0.991992
1.00019 1.00246 0.991778
0.999987 1.00231 0.992196
0.999983 1.00264 0.991908
1.00016 1.00276 0.991469
1.00012 1.00127 0.993024
1.0001 1.00203 0.992352
1.0001 1.00252 0.991902
1.00003 0.999818 0.994622
1.00015 1.00104 0.993203
1.00013 1.00194 0.992314
1.00015 1.0008 0.993441
1.00005 0.999559 0.994835
0.999884 0.997768 0.996917
1.00008 0.999347 0.99499
0.999938 0.997593 0.996999
0.999844 0.996455 0.99934
0.999986 0.99745 0.997057
0.9999 0.996322 0.998911
0.999929 0.996224 0.999359
1.00019 1.00056 0.993577
1.00012 0.999279 0.994974
1.00017 1.00044 0.993697
1.00002 0.997343 0.997091
1.00012 0.999134 0.99504
1.00016 1.00032 0.993963
0.999971 0.996088 0.999379
1.00005 0.997161 0.997208
1.00013 0.998961 0.995125
0.999999 0.99597 0.999406
1.00007 0.997019 0.997302
1.00002 0.995896 0.999424
1.02819 0.991039 0.963291
1.02355 0.992972 0.967978
1.01259 0.995539 0.977762
1.00023 1.00147 0.992564
1.00023 1.00202 0.99213
1.00016 1.00131 0.99296
1.0002 1.00138 0.992701
1.00017 1.0019 0.992349
1.00019 1.00192 0.992258
1.00017 1.00225 0.991965
1.01775 0.996938 0.969792
1.02328 0.993733 0.966096
1.01861 0.994998 0.971084
1.01022 0.996103 0.974521
0.997599 1.0007 0.984033
0.99518 1.0002 0.974589
0.994972 1.00019 0.976874
0.997584 0.998394 0.987145
0.994962 0.999297 0.97079
0.996936 0.999295 0.976258
1.00509 0.998679 0.976652
0.996265 0.997869 0.992842
0.99489 0.999871 0.969883
0.997442 1.00021 0.978689
1.00141 0.996508 0.979822
1.00028 1.00233 0.991705
1.00021 1.0023 0.991823
1.00012 1.00231 0.991959
1.00013 1.00188 0.992408
1.00098 1.00158 0.992869
0.999042 1.00341 0.993501
1.00027 1.0023 0.991654
1.0003 1.0027 0.99123
1.00045 1.00248 0.991393
1.00027 1.00245 0.991519
1.00031 1.00273 0.991068
0.998207 1.00221 0.996475
0.999373 1.00046 0.995594
1.00025 1.00293 0.991183
0.996751 1.00058 1.00026
0.999818 1.00334 0.992244
1.02353 0.9953 0.966463
1.027 0.992891 0.963467
1.02483 0.993243 0.965634
0.998858 1.00159 0.995024
0.996118 1.00033 1.00179
1.028 0.991796 0.962638
0.99493 0.999921 0.970237
0.995157 0.999703 0.977023
1.01903 0.996304 0.969312
1.00003 0.99633 0.980422
0.997886 1.00465 0.997265
1.02375 0.994157 0.966459
1.00844 0.996887 0.979074
0.996865 0.999722 0.997977
0.995723 0.995028 0.981717
0.995791 0.999692 0.9775
0.995211 0.999636 0.97262
0.998643 1.00451 0.995535
1.01257 0.997439 0.976059
0.997461 0.995447 0.983922
0.994512 0.999916 0.977952
0.995364 1.00091 0.971246
0.996836 0.999992 0.986715
0.999305 1.00333 0.992379
0.998908 1.00482 0.991658
1.0002 1.00388 0.990737
0.999525 1.00403 0.991284
0.999487 1.0049 0.990303
1.00027 1.00488 0.989263
1.00018 1.00438 0.990145
1.00024 1.00499 0.989145
1.00072 1.00456 0.988488
1.00018 1.00443 0.989769
1.00061 1.00452 0.989072
1.0009 1.00407 0.988757
1.00117 1.00278 0.989498
1.00073 1.00281 0.990536
1.00079 1.00353 0.989567
1.00023 1.00212 0.991804
1.00032 1.00253 0.991321
1.00048 1.00342 0.990142
1.00014 1.00222 0.99211
1.00018 1.00231 0.991973
1.00013 1.00233 0.991894
1.00008 1.0015 0.992834
1.00001 1.00226 0.992232
1.00001 1.0026 0.991964
1.00002 1.00007 0.99439
1.00013 1.00124 0.993031
1.00012 1.002 0.99236
0.999847 0.997973 0.996808
1.00003 0.999823 0.994621
1.00015 1.00102 0.993209
1.00005 0.999565 0.994829
0.999888 0.997779 0.996911
0.999786 0.996618 0.999322
0.999942 0.9976 0.996995
0.999837 0.996473 0.999335
0.999883 0.996348 0.999345
1.00023 1.0016 0.992498
1.00023 1.00069 0.993374
1.00011 0.999438 0.994832
1.0002 1.00056 0.993577
0.999991 0.997517 0.99698
1.00012 0.999286 0.994975
1.00016 1.00045 0.993752
0.999937 0.996228 0.999351
1.00002 0.99733 0.997097
1.00013 0.999148 0.995108
0.999974 0.996072 0.999386
1.00005 0.99715 0.997214
1 0.995957 0.999412
1.02413 0.993659 0.966062
1.02795 0.991342 0.963285
1.02392 0.992754 0.967806
1.00023 1.00149 0.992587
1.00024 1.00202 0.992085
1.0002 1.00219 0.991933
1.00021 1.00196 0.992105
1.00021 1.00233 0.991858
1.0002 1.0014 0.992682
1.00018 1.0019 0.992276
1.00018 1.00192 0.992262
1.00019 1.00222 0.991957
1.00017 1.00236 0.991892
1.00745 0.997781 0.979732
1.01751 0.997032 0.970003
1.0245 0.992573 0.965051
1.00433 0.99853 0.976888
0.997291 0.999218 0.978972
0.997226 0.99779 0.985543
0.994956 0.999317 0.972485
0.996027 0.99759 0.987773
0.994937 0.99994 0.972203
0.996155 0.999519 0.97776
1.00068 0.996826 0.98033
0.995117 0.997986 0.990459
0.99499 0.999247 0.97327
0.994848 0.999922 0.976841
0.996498 0.994493 0.981582
1.00006 1.00222 0.992175
1.00024 1.00241 0.991691
1.00021 1.00229 0.991813
0.997914 1.00224 0.996844
0.999431 1.00024 0.995918
1.00027 1.00248 0.99151
1.00033 1.00276 0.990999
1.00021 1.00287 0.991245
0.999604 1.00343 0.992047
0.996888 0.999979 1.00029
0.999261 1.00397 0.991701
0.998333 1.00347 0.99542
1.012 0.998701 0.977136
1.02406 0.994886 0.965567
1.02651 0.99346 0.963547
0.997859 1.00454 0.997144
0.996902 0.99945 0.989809
1.02412 0.993917 0.966245
0.995275 0.999537 0.967428
0.99498 0.999789 0.975978
1.00792 0.997786 0.979376
0.995606 0.994322 0.981744
0.998696 1.00443 0.995732
1.01264 0.997087 0.976122
0.997327 0.995337 0.983751
0.997166 0.999842 0.989537
0.994535 0.999864 0.975818
0.995445 1.0011 0.968271
0.999828 1.00348 0.992652
0.999268 0.996648 0.983276
0.995448 0.997103 0.975372
0.995624 1.00166 0.969409
0.997248 1.00239 0.987259
0.998872 1.00488 0.991632
1.00007 1.00384 0.990718
1.00156 1.00252 0.989544
0.999283 1.00495 0.99044
1.00013 1.00485 0.989261
1.00111 1.00378 0.988589
1.00034 1.00497 0.989035
1.00073 1.00458 0.988498
1.0014 1.00295 0.988974
1.00062 1.00452 0.988967
1.00091 1.00397 0.98881
1.00153 1.00209 0.989504
1.00166 1.00117 0.990087
1.00097 1.00249 0.990113
1.00117 1.00268 0.989543
1.00054 1.00233 0.991264
1.00067 1.00288 0.990398
1.00079 1.0036 0.989449
1.00021 1.00194 0.992179
1.00023 1.00209 0.991886
1.00033 1.00253 0.991393
1.00007 1.00173 0.992652
1.00012 1.00221 0.992124
1.00015 1.00234 0.991955
0.999983 1.00037 0.994149
1.00009 1.00151 0.992835
1.00003 1.00221 0.992268
0.999791 0.998181 0.997157
1.00001 1.00008 0.994389
1.00014 1.00122 0.993039
0.999741 0.996828 0.998321
0.999839 0.997997 0.997026
1.00002 0.999828 0.994619
0.999891 0.997789 0.996905
0.999779 0.996645 0.999314
0.99983 0.996494 0.99933
1.00021 1.00184 0.99227
1.00024 1.00089 0.993159
1.00023 1.00162 0.992455
1.0001 0.999582 0.994708
1.00023 1.0007 0.993375
0.999956 0.997677 0.996886
1.00011 0.999438 0.994835
1.0002 1.00056 0.993577
0.999896 0.996377 0.999325
0.999988 0.997506 0.996984
1.00012 0.999293 0.994977
0.999941 0.996207 0.99936
1.00002 0.997319 0.997102
0.999978 0.996055 0.999393
1.01085 0.998784 0.977476
1.02426 0.993619 0.965888
1.02768 0.991645 0.963278
1.00019 1.00219 0.991989
1.00022 1.0015 0.992611
1.00024 1.00202 0.992039
1.00021 1.00197 0.992159
1.0002 1.00219 0.991972
1.00022 1.00228 0.991847
1.00021 1.00242 0.991715
1.00017 1.00237 0.991785
1.00018 1.00193 0.992265
1.0002 1.00219 0.991949
1.00016 1.00236 0.99189
1.00024 1.00266 0.991718
0.998006 0.994999 0.983085
1.00693 0.998001 0.980012
1.01736 0.997109 0.970214
0.999048 0.996728 0.981036
0.997071 0.999662 0.97594
0.994881 0.999851 0.969918
0.995678 0.997378 0.993102
0.995016 0.997908 0.995792
0.996193 0.994325 0.981526
0.994915 0.999535 0.969266
0.995294 0.999621 0.979091
0.99613 0.999017 0.9942
0.995156 0.998689 0.974957
0.99458 0.999015 0.978631
0.999601 1.00217 0.993052
1.00017 1.00213 0.99218
1.0002 1.00249 0.991678
0.996998 0.999304 1.00034
0.999514 1.00344 0.991844
1.00016 1.00283 0.991306
0.999456 1.00399 0.991667
0.998064 1.00357 0.995528
0.999048 1.00183 0.994329
0.999268 0.996563 0.983497
1.01285 0.998578 0.975429
1.02459 0.994491 0.96467
0.998678 1.0045 0.995971
0.997202 0.999909 0.99119
1.01276 0.996851 0.976181
0.995264 1.00038 0.973673
0.994569 0.999777 0.978439
0.99761 0.995287 0.98285
0.999815 1.00335 0.992918
0.999378 0.996473 0.982228
0.994754 0.997841 0.978746
0.997106 1.00229 0.983637
0.995329 1.00198 0.970731
1.00118 1.0023 0.990701
0.99637 0.995408 0.978588
0.996401 1.00144 0.970795
0.997706 1.00257 0.982767
0.999934 1.00384 0.990699
1.00125 1.00217 0.989713
1.00186 1.0013 0.989307
0.999967 1.00479 0.989259
1.00117 1.00359 0.988598
1.00245 1.00037 0.989651
1.00074 1.00454 0.988509
1.00134 1.00281 0.989057
1.00217 0.999851 0.990541
1.00091 1.00385 0.988862
1.00155 1.00188 0.989545
1.00213 0.999484 0.990873
1.00195 0.999614 0.991108
1.00145 1.00137 0.990326
1.00166 1.00106 0.990197
1.00075 1.00208 0.990786
1.00098 1.00245 0.9902
1.00118 1.00257 0.989587
1.00032 1.00195 0.991959
1.00046 1.00234 0.991256
1.00061 1.00296 0.990261
1.00012 1.00171 0.992594
1.00023 1.00194 0.992171
1.00024 1.00207 0.991969
0.999923 1.00078 0.993882
1.00009 1.00171 0.992663
1.00009 1.0022 0.992138
0.999743 0.998407 0.996545
0.999987 1.00037 0.994145
1.00011 1.00151 0.992837
0.99965 0.997025 0.999263
0.999794 0.998215 0.996645
1.00001 1.00009 0.994387
0.999725 0.996828 0.999289
0.999841 0.998012 0.996777
0.999772 0.996672 0.999306
1.00019 1.00193 0.992285
1.0002 1.00185 0.99228
1.0002 1.00119 0.992941
1.00008 0.999775 0.99456
1.00023 1.00091 0.993159
1.00023 1.00165 0.992412
0.999922 0.997813 0.996812
1.0001 0.999573 0.994712
1.00023 1.0007 0.993376
0.999851 0.996524 0.999304
0.999953 0.997668 0.99689
1.00011 0.999437 0.994838
0.999901 0.996358 0.999333
0.999985 0.997495 0.996989
0.999945 0.996185 0.999368
0.998704 0.996529 0.984696
1.01073 0.998834 0.977575
1.02437 0.993591 0.965714
1.00019 1.00221 0.991958
1.00016 1.0022 0.992135
1.00023 1.0023 0.991817
1.00021 1.00199 0.992213
1.0002 1.00219 0.992012
1.00023 1.00223 0.991835
1.00018 1.00237 0.991794
1.00021 1.00242 0.991723
1.0001 1.00287 0.991519
1.00012 1.00253 0.99168
1.00016 1.00235 0.991888
1.00017 1.0026 0.991735
0.994835 0.997559 0.97881
0.997608 0.995185 0.983378
1.00646 0.998189 0.980292
0.996039 0.994104 0.98147
0.994614 0.999863 0.976631
0.995257 0.999723 0.976478
0.994952 0.997944 0.990256
0.995978 0.998995 0.989226
0.994655 0.998624 0.976494
0.995043 0.999058 0.974492
0.997928 0.99607 0.989536
0.995537 1.00023 0.971422
1.00015 1.00326 0.991624
0.999768 1.00192 0.993013
1.00027 1.00203 0.992187
0.997574 1.00374 0.995661
0.99963 1.004 0.991635
0.99975 1.00197 0.994087
1.00188 0.999447 0.992647
0.996708 0.99535 0.976622
0.999299 0.996892 0.98331
1.01366 0.998328 0.973724
1.00007 1.00308 0.993133
0.996974 1.0025 0.98701
0.999308 0.996179 0.982349
0.995483 1.00191 0.969245
0.995323 0.998702 0.975702
1.00124 1.0025 0.990805
0.996288 0.996085 0.976571
0.996714 1.00077 0.96909
0.997256 1.00218 0.986843
1.00117 1.00391 0.988987
0.99714 1.00039 0.966232
0.99913 0.999499 0.990193
1.00093 1.00176 0.989882
1.00164 1.00178 0.989189
1.00339 0.997957 0.989097
1.00125 1.00341 0.988606
1.00242 1.00013 0.989602
1.00326 0.996672 0.991702
1.00126 1.00274 0.98914
1.00218 0.999627 0.990558
1.00284 0.996948 0.992003
1.00158 1.00168 0.989585
1.00213 0.999397 0.990879
1.00237 0.997961 0.99183
1.00212 0.998831 0.991687
1.00195 0.999499 0.991227
1.00174 1.0001 0.991033
1.00129 1.00132 0.990726
1.00145 1.00141 0.990342
1.00165 1.00095 0.990307
1.00059 1.0018 0.991419
1.00077 1.00209 0.990884
1.00099 1.00241 0.990286
1.0002 1.00166 0.99248
1.00034 1.00195 0.991945
1.0004 1.00235 0.991248
0.999888 1.00106 0.993661
1.00014 1.00169 0.992601
1.00025 1.00194 0.992163
0.999664 0.998698 0.996398
0.999939 1.00074 0.993885
1.0001 1.00169 0.992673
0.99961 0.997208 0.999236
0.999739 0.998435 0.996536
0.999992 1.00038 0.994141
0.999663 0.997037 0.99876
0.999796 0.998229 0.996645
0.999715 0.996871 0.999274
1.00017 1.00194 0.992316
1.00019 1.00193 0.992237
1.00017 1.00141 0.992773
1.0002 1.00186 0.992291
1.0002 1.0012 0.992937
1.00004 1.00007 0.994336
0.999881 0.997967 0.996736
1.00008 0.999762 0.994565
1.00022 1.00092 0.993159
0.999801 0.996664 0.999287
0.999918 0.997808 0.996816
1.00011 0.999567 0.994717
0.999857 0.996509 0.99931
0.999949 0.99766 0.996894
0.999906 0.996338 0.999341
0.995495 0.997415 0.976237
0.998537 0.996506 0.984222
1.01067 0.998893 0.977674
1.0002 1.00221 0.991927
1.0002 1.00235 0.991793
1.00013 1.00218 0.992169
1.0001 1.00225 0.992193
1.00012 1.00246 0.991893
1.00019 1.00237 0.991803
1.00021 1.00241 0.991731
1.00007 1.00282 0.991551
0.999952 1.00255 0.99178
1.00003 1.00286 0.991478
1.00061 1.00323 0.990609
1.00005 1.00283 0.991661
1.00012 1.00256 0.991752
0.996766 1.00013 0.967916
0.994898 0.998498 0.977686
0.997403 0.995407 0.982879
0.994716 0.998333 0.979026
0.995003 0.999454 0.969481
0.995937 0.998955 0.994786
0.998096 0.996301 0.992231
0.995671 0.998943 0.973985
1.00087 0.995922 0.988984
1.00214 1.00218 0.988401
0.999775 1.00322 0.991573
0.999915 1.00165 0.992974
1.00026 1.00214 0.993832
1.0023 0.998825 0.99204
0.997402 0.999177 0.96845
0.996455 0.996242 0.975377
0.999367 0.997396 0.98312
1.00134 1.00264 0.990924
0.996767 1.00269 0.98309
0.996453 0.99588 0.975584
0.996556 1.00074 0.971359
1.00159 1.00366 0.989032
0.997923 0.999419 0.970283
0.998766 1.00005 0.985253
1.00316 1.00276 0.987001
1.00078 0.997827 0.992445
1.00142 1.00224 0.98907
1.00331 0.998545 0.98897
1.00447 0.99573 0.98967
1.00235 0.999893 0.989555
1.00306 0.99671 0.991689
1.00349 0.995243 0.992348
1.00219 0.999375 0.990574
1.00282 0.996953 0.991931
1.00293 0.996503 0.992223
1.00214 0.999314 0.990886
1.00237 0.998042 0.991781
1.00241 0.997966 0.991833
1.00206 0.998696 0.991811
1.00201 0.999321 0.99141
1.00194 0.999395 0.991347
1.00175 1.00011 0.99101
1.00163 1.00041 0.990962
1.00102 1.00129 0.991117
1.00128 1.00136 0.990706
1.00145 1.00144 0.990359
1.00039 1.00158 0.992182
1.00058 1.00183 0.991484
1.00079 1.0021 0.990983
0.999878 1.00123 0.993486
1.00022 1.00165 0.992471
1.00036 1.00196 0.991931
0.999589 0.999025 0.996197
0.999911 1.00101 0.993668
1.00015 1.00166 0.992607
0.999542 0.997416 0.999208
0.999659 0.998737 0.996388
0.999952 1.00071 0.993888
0.999601 0.997228 0.999229
0.999736 0.998465 0.996528
0.999656 0.99706 0.999246
1.00012 1.00209 0.992255
1.00015 1.00194 0.99232
1.00014 1.00157 0.992629
1.0002 1.00194 0.992188
1.00017 1.00144 0.992729
1.00002 1.00039 0.994055
1.00019 1.00121 0.992932
1.00005 1.00006 0.994338
0.999827 0.998193 0.996617
0.999744 0.99682 0.999269
0.999878 0.997959 0.996742
1.00009 0.999748 0.99457
0.999808 0.996655 0.999292
0.999915 0.997802 0.996819
0.999862 0.996494 0.999316
0.997164 1.0006 0.970997
0.995739 0.996646 0.978044
0.998161 0.996513 0.98479
1.00018 1.00242 0.991769
1.00009 1.00215 0.992203
1.00013 1.00245 0.991913
1.00009 1.00224 0.992187
1.00006 1.00245 0.992047
0.999983 1.0024 0.992062
1.00005 1.00274 0.991584
1.00001 1.0027 0.991697
0.999947 1.00307 0.991459
1.00011 1.00236 0.991597
1.00092 1.0028 0.990894
1.00171 1.00257 0.988803
1.00045 1.00306 0.990695
0.999961 1.00313 0.991642
1.0003 0.997813 0.988588
0.996154 1.00085 0.970671
0.995186 0.997878 0.975672
0.995646 0.999872 0.971487
0.998335 0.996457 0.994793
1.00088 0.995839 0.992599
1.00414 0.997058 0.990385
1.00212 1.00162 0.989037
0.999582 1.00322 0.991518
1.00332 0.998352 0.991432
0.999001 1.00051 0.985315
0.997798 0.999848 0.97095
0.996425 0.995583 0.978332
1.00202 1.00359 0.989083
0.998393 1.00041 0.988566
0.99749 0.998287 0.974421
1.00334 1.00172 0.987216
1.00057 0.998498 0.990013
1.00485 0.997759 0.988071
1.00401 0.998531 0.989612
1.00329 0.999234 0.988843
1.00447 0.995785 0.989693
1.0039 0.996414 0.990491
1.00288 0.99673 0.991673
1.00341 0.995495 0.992314
1.00341 0.996467 0.991367
1.00279 0.996989 0.991859
1.00286 0.996693 0.992163
1.0029 0.997565 0.991314
1.00237 0.998129 0.991731
1.00234 0.998046 0.991862
1.00224 0.998897 0.99123
1.00201 0.998568 0.991934
1.00198 0.999216 0.991476
1.00191 0.999848 0.991073
1.00176 1.00012 0.990986
1.00163 1.00043 0.990941
1.00144 1.00065 0.991152
1.00069 1.00124 0.99177
1.001 1.00133 0.991177
1.00127 1.0014 0.990685
0.999949 1.00133 0.993246
1.0004 1.00158 0.992177
1.00057 1.00185 0.991549
0.999516 0.999402 0.995954
0.999908 1.00119 0.993489
1.00024 1.00164 0.992463
0.999479 0.997653 0.999164
0.999588 0.999066 0.996191
0.999933 1.00097 0.993676
0.999534 0.997442 0.999196
0.999655 0.998774 0.996379
0.999591 0.997247 0.999221
1.00011 1.00223 0.992136
1.00013 1.00208 0.992283
1.00008 1.00178 0.992573
1.00014 1.00195 0.992325
1.00013 1.0016 0.992621
0.999995 1.00069 0.993807
1.00017 1.00147 0.992684
1.00002 1.00039 0.994054
0.999766 0.998462 0.996462
1.00006 1.00005 0.994341
0.999828 0.998169 0.996627
0.999683 0.997015 0.999239
0.999753 0.996808 0.999275
0.999876 0.99795 0.996748
0.999814 0.996645 0.999297
0.999437 0.99982 0.987057
0.996983 0.999898 0.96928
0.996191 0.9969 0.97531
1.00033 1.00226 0.991714
1.00012 1.00246 0.991933
1.00008 1.00222 0.99218
1.00002 1.00246 0.992053
1.00004 1.00249 0.992025
0.999991 1.00204 0.992349
1.00007 1.00288 0.991614
0.99993 1.0033 0.99144
1.00023 1.00238 0.991697
1.00064 1.00269 0.99111
1.00166 1.00172 0.98962
1.00344 1.00008 0.987505
1.00177 1.00221 0.988736
1.00039 1.00277 0.990781
1.00454 0.995679 0.990514
1.00006 0.99821 0.986727
0.99605 1.0007 0.973921
1.0008 0.995806 0.987757
1.00418 0.99686 0.990121
1.0017 1.00086 0.989687
1.00298 0.999722 0.990898
0.999039 1.00004 0.989087
0.997462 0.999244 0.968736
1.00352 1.00064 0.987423
1.00046 0.998524 0.987589
1.00492 0.99716 0.987909
1.00399 0.998317 0.990094
1.00436 0.996797 0.988629
1.0034 0.998471 0.988589
1.00444 0.995772 0.989718
1.0039 0.996259 0.990557
1.00346 0.997781 0.990064
1.00333 0.995713 0.992281
1.0034 0.996519 0.99135
1.00323 0.997961 0.990304
1.0028 0.996877 0.992104
1.00278 0.997642 0.991438
1.00266 0.998753 0.990504
1.00226 0.99812 0.991892
1.00223 0.998908 0.991233
1.00213 0.99956 0.990793
1.00196 0.999109 0.991542
1.00189 0.999769 0.991101
1.0017 1.0002 0.991024
1.00163 1.00046 0.990919
1.00141 1.00065 0.991107
1.00109 1.00084 0.991593
1.00017 1.0012 0.992952
1.00068 1.00127 0.991833
1.00097 1.00137 0.991238
0.99946 0.999844 0.995629
0.999971 1.00131 0.993249
1.00041 1.00158 0.992171
0.9994 0.997929 0.999106
0.999531 0.99942 0.995948
0.999938 1.00116 0.993492
0.999466 0.997684 0.999147
0.999586 0.999103 0.996185
0.999526 0.997467 0.999183
1.00023 1.00218 0.991849
1.00011 1.0022 0.992143
1.00011 1.00188 0.99249
1.00014 1.00207 0.992312
1.00008 1.00179 0.992596
0.999929 1.00103 0.993615
1.00012 1.00164 0.992614
0.999982 1.00073 0.993802
0.999686 0.998774 0.996305
1.00002 1.0004 0.994053
0.999771 0.99843 0.996473
0.999617 0.997228 0.999204
0.99983 0.998147 0.996637
0.999693 0.996991 0.999249
0.999761 0.996797 0.99928
1.00364 0.99668 0.99131
0.999439 1.00005 0.983444
0.997214 1.00036 0.970749
1.00038 1.00176 0.991932
1.00099 1.00169 0.990995
1.00019 1.00229 0.991779
1.00006 1.00249 0.992044
1.00002 1.00253 0.992002
1.00013 1.00202 0.992261
1.00153 1.00125 0.990313
1.0003 1.00241 0.991797
1.00023 1.00259 0.991326
1.0016 1.00166 0.989763
1.00309 1 0.988103
1.00435 0.997153 0.988471
1.00354 0.999982 0.987502
1.0019 1.00189 0.988669
1.00446 0.995779 0.990729
0.999981 0.998889 0.984011
1.00442 0.996691 0.989842
1.00294 0.998096 0.990931
1.0029 0.999126 0.991159
0.999201 1.00002 0.984141
1.005 0.99658 0.987747
1.00401 0.998135 0.990544
1.00436 0.996949 0.988635
1.0035 0.998439 0.988865
1.00342 0.998494 0.989291
1.00306 0.998238 0.99015
1.00391 0.996015 0.990622
1.00349 0.997593 0.990115
1.00334 0.998593 0.989394
1.00339 0.996613 0.991332
1.00318 0.997947 0.99037
1.00304 0.998728 0.989748
1.00267 0.997714 0.991562
1.00267 0.998762 0.990497
1.00253 0.99939 0.990161
1.00221 0.998918 0.991236
1.00213 0.999556 0.990792
1.00194 1 0.990724
1.00187 0.999689 0.99113
1.00168 1.00018 0.99103
1.00134 1.00051 0.991405
1.00138 1.00066 0.991063
1.00105 1.00083 0.991575
1.00046 1.0009 0.992685
0.999488 1.00014 0.995292
1.00017 1.0012 0.992956
1.00067 1.00129 0.991896
0.999292 0.998287 0.99903
0.999499 0.999816 0.99562
0.999992 1.00129 0.993252
0.999379 0.997976 0.999085
0.999544 0.999437 0.995942
0.999453 0.997716 0.999131
1.00052 1.002 0.991278
1.00023 1.00215 0.991788
1.00026 1.00181 0.992273
1.00011 1.00218 0.99215
1.00009 1.00188 0.992493
0.999878 1.0013 0.993455
1.00007 1.00179 0.99262
0.999907 1.00107 0.993611
0.999592 0.999138 0.996129
0.999969 1.00076 0.993797
0.999694 0.998737 0.996312
0.999541 0.99746 0.999167
0.999777 0.998397 0.996484
0.999629 0.997202 0.999215
0.999703 0.996971 0.999259
1.00368 0.996407 0.990477
1.00362 0.996935 0.99129
0.999661 1.00001 0.986636
1.0016 1.00101 0.990702
1.00023 1.00173 0.992272
1.00157 1.00098 0.990107
1.00101 1.0017 0.990946
1.00004 1.00234 0.991845
1.00291 1.00011 0.988735
1.00027 1.002 0.992173
1.00161 1.00114 0.990255
1.00383 0.998391 0.988516
1.00156 1.00161 0.989906
1.0032 1.00006 0.988036
1.00422 0.997452 0.988459
1.00345 0.999962 0.9875
1.00433 0.995879 0.990934
1.00291 0.998082 0.990909
1.00289 0.997864 0.990842
1.0028 0.998505 0.991425
1.00435 0.997063 0.988641
1.00361 0.998455 0.989138
1.00353 0.998426 0.989217
1.00307 0.998314 0.990212
1.00303 0.998741 0.989847
1.00349 0.99748 0.990165
1.00336 0.998535 0.98943
1.00321 0.998901 0.989316
1.00312 0.997944 0.990437
1.00306 0.998766 0.989725
1.00292 0.999236 0.989556
1.00268 0.998771 0.99049
1.00254 0.999388 0.990148
1.0023 0.999805 0.990205
1.00213 0.999552 0.99079
1.00194 0.999999 0.990721
1.0016 1.0003 0.991076
1.00166 1.00015 0.991036
1.00133 1.0005 0.99141
1.00073 1.00062 0.992431
1.00101 1.00082 0.991557
1.00045 1.00091 0.992688
0.999531 1.00026 0.995733
0.999216 0.998877 0.997432
0.999528 1.00007 0.995635
1.00018 1.0012 0.992961
0.999272 0.998366 0.999
0.999535 0.999795 0.995611
0.999361 0.998025 0.999063
1.00197 1.00021 0.990301
1.00093 1.00165 0.990824
1.0006 1.00198 0.991208
1.00047 1.00166 0.991996
1.00024 1.00212 0.991728
1.00024 1.0018 0.992285
0.999887 1.00143 0.993321
1.00007 1.00188 0.992495
0.999853 1.00133 0.993452
0.999513 0.999523 0.995909
0.999885 1.00111 0.993606
0.999595 0.9991 0.996135
0.999448 0.997732 0.99912
0.999701 0.998698 0.99632
0.999557 0.997432 0.999178
0.999642 0.997176 0.999226
1.00342 0.997812 0.98998
1.00365 0.996667 0.990525
1.00358 0.997261 0.991269
1.00267 0.999955 0.989299
1.00137 1.00103 0.990976
1.00006 1.00167 0.992611
1.00172 1.00093 0.990219
1.00102 1.00171 0.990897
1.0037 0.998962 0.988256
1.00292 1.00018 0.988612
1.00168 1.00106 0.990197
1.00387 0.998422 0.988475
1.00335 1.00009 0.987968
1.00408 0.997702 0.988445
1.0028 0.998622 0.990323
1.00287 0.998063 0.990848
1.00281 0.997583 0.990754
1.00365 0.998348 0.989147
1.00308 0.998361 0.990273
1.00305 0.998726 0.98987
1.00292 0.999156 0.989648
1.00338 0.998467 0.989466
1.00323 0.998871 0.989306
1.00304 0.999137 0.989393
1.00307 0.998805 0.989701
1.00292 0.999238 0.989544
1.00265 0.999581 0.989741
1.00255 0.999386 0.990135
1.00231 0.999801 0.990196
1.00192 1.00011 0.990633
1.00195 0.999994 0.990718
1.00161 1.0003 0.991074
1.00099 1.00045 0.992109
1.00133 1.0005 0.991414
1.00073 1.00063 0.992428
0.999607 1.00034 0.995538
1.00045 1.00092 0.99269
0.999588 1.00024 0.995691
0.999085 0.999414 0.99721
0.99918 0.998852 0.998167
0.999574 1.00001 0.995968
0.999253 0.998439 0.998969
1.00272 0.999686 0.989474
1.00153 1.00088 0.990748
1.00185 1.00007 0.9907
1.00072 1.00155 0.991574
1.00103 1.00165 0.990812
1.00069 1.00196 0.991138
1.00044 1.00169 0.992004
0.999985 1.00144 0.993124
1.00022 1.00179 0.992297
0.999872 1.00143 0.993317
0.999463 0.999893 0.995648
0.999831 1.00136 0.993449
0.999504 0.9995 0.995914
0.99933 0.998073 0.999058
0.999599 0.999061 0.99614
0.999469 0.997694 0.999135
0.999572 0.997403 0.99919
1.00339 0.998518 0.989299
1.00343 0.997847 0.989954
1.00368 0.996958 0.990575
1.00342 0.999058 0.988598
1.00267 0.999991 0.9893
1.00117 1.00105 0.991251
1.00186 1.00086 0.990331
1.00372 0.998965 0.98828
1.00294 1.00022 0.98849
1.00391 0.998442 0.988434
1.00291 0.999015 0.989786
1.00286 0.998666 0.990181
1.00284 0.998068 0.990787
1.00287 0.999479 0.989442
1.00306 0.998716 0.989893
1.00293 0.999169 0.989622
1.00291 0.999314 0.989538
1.00326 0.998844 0.989295
1.00305 0.999139 0.989397
1.00279 0.999489 0.989566
1.00293 0.99924 0.989532
1.00265 0.999587 0.989737
1.00223 0.999887 0.990266
1.00232 0.999798 0.990186
1.00193 1.00011 0.990628
1.00125 1.00031 0.991734
1.00161 1.0003 0.991072
1.00099 1.00045 0.992099
0.999697 1.00032 0.9954
1.00072 1.00064 0.992426
0.999666 1.0003 0.995503
0.998989 0.999762 0.997088
0.999646 1.00021 0.995648
0.999055 0.999431 0.997248
0.999126 0.998811 0.998923
1.00317 0.999522 0.988891
1.00235 1.00001 0.989961
1.00264 0.999765 0.989614
1.0012 1.00109 0.991274
1.00151 1.00082 0.990745
1.00174 0.999952 0.991097
1.00021 1.00138 0.992723
1.00072 1.00155 0.99157
1.00112 1.00166 0.9908
1.0004 1.00172 0.992011
0.999967 1.00145 0.993122
0.999454 1.00023 0.995337
0.999857 1.00143 0.993314
0.999433 0.999909 0.995651
0.999184 0.998508 0.998983
0.999494 0.999476 0.995918
0.999358 0.998014 0.999078
0.999489 0.997657 0.99915
1.00339 0.998717 0.98915
1.00348 0.9985 0.989185
1.00343 0.997876 0.989928
1.00351 0.998989 0.988585
1.00267 1.00004 0.9893
1.00374 0.998969 0.988304
1.00297 0.99932 0.989366
1.00289 0.999063 0.989773
1.00293 0.99871 0.990039
1.00286 0.999466 0.989464
1.00282 0.999691 0.989343
1.00293 0.99918 0.989596
1.0029 0.999323 0.989541
1.00275 0.999556 0.989605
1.00305 0.99914 0.989401
1.00278 0.999483 0.989574
1.00237 0.99979 0.990076
1.00265 0.99959 0.989733
1.00223 0.999892 0.990261
1.00148 1.00012 0.991464
1.00193 1.00011 0.990623
1.00126 1.0003 0.991722
0.999829 1.00023 0.995287
1.00099 1.00045 0.992089
0.999757 1.0003 0.995365
0.998935 0.999976 0.99701
0.999727 1.00027 0.995466
0.998953 0.999802 0.997121
0.999023 0.999446 0.997287
1.00327 0.998874 0.989185
1.0028 0.999706 0.98932
1.00318 0.999472 0.988843
1.0018 1.0004 0.990682
1.00231 1.00006 0.990031
1.00254 0.999836 0.989757
1.00059 1.00103 0.99226
1.00118 1.00105 0.991157
1.0015 1.00074 0.990741
0.99951 1.0005 0.994956
1.00021 1.00137 0.992727
1.00072 1.00155 0.991566
0.999947 1.00146 0.99312
0.999398 1.00029 0.995344
0.999035 0.999019 0.998896
0.999403 0.999933 0.995654
0.999214 0.998424 0.999007
0.999387 0.997958 0.999097
1.00322 0.998985 0.989226
1.00341 0.998716 0.989122
1.00356 0.998481 0.98907
1.00359 0.998913 0.988571
1.003 0.999515 0.989136
1.00298 0.999311 0.989392
1.00287 0.999107 0.989759
1.00285 0.999453 0.989486
1.00283 0.999667 0.989333
1.00271 0.999759 0.989492
1.00289 0.999333 0.989545
1.00274 0.999565 0.989635
1.00241 0.999773 0.989972
1.00278 0.99948 0.989583
1.00237 0.999787 0.990079
1.0016 0.99999 0.991338
1.00222 0.999899 0.990256
1.00148 1.00012 0.991456
0.999955 1.0001 0.994357
1.00127 1.00029 0.99171
0.999871 1.00024 0.994827
0.998923 1.00003 0.998691
0.999818 1.00027 0.995329
0.998895 1.00003 0.997042
0.998915 0.999843 0.997157
1.00317 0.998952 0.989383
1.00289 0.999351 0.989408
1.00325 0.998919 0.989216
1.00223 0.999926 0.990009
1.00278 0.999704 0.989392
1.00319 0.999428 0.988795
1.00104 1.00052 0.991655
1.00181 1.0004 0.990674
1.00228 1.00011 0.990101
0.999657 1.00055 0.994583
1.0006 1.00101 0.992156
1.00116 1.00101 0.99104
0.998937 0.999533 0.998791
0.999442 1.00057 0.994971
1.0002 1.00136 0.99273
0.99934 1.00037 0.995351
0.999058 0.99892 0.998925
0.99925 0.998338 0.99903
1.00309 0.999197 0.989262
1.00322 0.998978 0.989243
1.00344 0.99872 0.989093
1.00297 0.999669 0.989091
1.00301 0.999526 0.9891
1.00299 0.999305 0.989419
1.00283 0.999642 0.989322
1.00272 0.999741 0.989494
1.00246 0.999811 0.989971
1.00272 0.999574 0.989666
1.0024 0.999792 0.990078
1.00168 0.999931 0.991053
1.00236 0.999782 0.990081
1.00161 0.999984 0.991337
1.00002 1.00001 0.994307
1.00149 1.00011 0.991447
0.999957 1.0001 0.994352
0.998949 1.00003 0.998683
0.999903 1.00023 0.994387
0.998917 1.00009 0.997851
0.998852 1.0001 0.997075
1.00305 0.999186 0.989479
1.00288 0.999258 0.989592
1.00315 0.99892 0.989401
1.00242 0.999706 0.990025
1.00289 0.999357 0.989435
1.00323 0.998961 0.989247
1.00144 1.00013 0.991269
1.00226 0.999969 0.990143
1.00276 0.999698 0.989463
0.999825 1.00042 0.994348
1.0011 1.0005 0.991606
1.00181 1.00039 0.990666
0.998913 0.999909 0.998703
0.999596 1.00062 0.994598
1.00062 1.00098 0.992052
0.998938 0.999424 0.998828
0.999375 1.00065 0.994985
0.999082 0.99881 0.998952
1.00297 0.999461 0.989289
1.00309 0.999208 0.989265
1.00321 0.998969 0.989261
1.00268 0.999729 0.98961
1.00294 0.999691 0.989119
1.00303 0.999539 0.989065
1.00272 0.999725 0.989497
1.00246 0.999801 0.989976
1.00181 0.999886 0.990838
1.00239 0.999814 0.990184
1.00168 0.999938 0.991151
1.0001 0.999991 0.994183
1.00161 0.999976 0.991335
1.00002 1.00001 0.994306
0.998989 1.00002 0.998674
0.999958 1.00011 0.994347
0.998963 1.00004 0.99868
0.998936 1.00017 0.99697
1.00287 0.999388 0.989621
1.00303 0.999131 0.989493
1.0025 0.999603 0.989989
1.00289 0.999257 0.989587
1.00312 0.998888 0.989419
1.00166 0.999951 0.99126
1.00244 0.999701 0.990014
1.00289 0.999361 0.989462
0.999966 1.0002 0.994255
1.00147 1.00015 0.991337
1.00229 1.00001 0.990278
0.99894 1.00009 0.998659
0.99979 1.00045 0.994359
1.00115 1.00048 0.991557
0.998897 0.999825 0.99873
0.999539 1.00068 0.994613
0.998939 0.999314 0.998861
1.00264 0.999651 0.989784
1.00295 0.99948 0.989314
1.00309 0.999223 0.989269
1.00195 0.999822 0.990621
1.00268 0.999751 0.989609
1.00292 0.99971 0.989147
1.00246 0.999791 0.989981
1.0018 0.999885 0.990873
1.0002 0.999962 0.994
1.00167 0.999941 0.99125
1.0001 0.999996 0.994178
0.99904 1.00001 0.998648
1.00002 1.00002 0.994304
0.999006 1.00002 0.998667
0.998982 1.00005 0.998677
1.00254 0.99964 0.989903
1.00287 0.99934 0.989601
1.003 0.999074 0.989507
1.00175 0.999855 0.991165
1.00251 0.999605 0.989984
1.0029 0.999257 0.989581
1.00006 1.00002 0.994219
1.00166 0.99996 0.99126
1.00246 0.999696 0.990004
0.998987 1.00011 0.998648
0.999949 1.00022 0.994265
1.00149 1.00018 0.991405
0.998916 1.00004 0.998671
0.999757 1.00048 0.994371
0.998875 0.999739 0.998761
1.00193 0.999815 0.990853
1.00265 0.999662 0.989672
1.00293 0.999497 0.989338
1.00028 0.999921 0.993883
1.00194 0.999821 0.990639
1.00267 0.999776 0.989609
1.00178 0.999882 0.990908
1.0002 0.999969 0.993994
0.999122 0.999996 0.998596
1.0001 1 0.994173
0.999067 1.00001 0.998629
0.999024 1.00003 0.998658
1.00184 0.999832 0.991021
1.00255 0.99962 0.989863
1.00287 0.999294 0.989581
1.00016 0.999957 0.99502
1.00175 0.999864 0.991162
1.00252 0.999607 0.989979
0.999042 1.00006 0.998638
1.00006 1.00002 0.994224
1.00166 0.99997 0.991261
0.998965 1.00009 0.99865
0.999931 1.00023 0.994274
0.998892 0.999995 0.998684
1.00029 0.99994 0.99386
1.00193 0.999804 0.990771
1.00266 0.999667 0.989561
0.999194 0.999983 0.998555
1.00028 0.999922 0.993878
1.00194 0.99982 0.990656
1.0002 0.999978 0.993987
0.999148 1 0.998578
0.999095 1.00001 0.99861
1.00026 0.999947 0.994873
1.00184 0.99983 0.991023
1.00256 0.999599 0.989822
0.999012 1.00003 0.998687
1.00013 0.999945 0.994161
1.00176 0.999872 0.991159
0.999021 1.00006 0.998642
1.00006 1.00002 0.994229
0.998939 1.00008 0.998654
0.999202 0.999965 0.996661
1.0003 0.99993 0.994342
1.00193 0.999799 0.990689
0.9992 0.999986 0.998547
1.00028 0.999926 0.993877
0.999172 1 0.998563
0.999076 0.999969 0.99682
1.00023 0.999944 0.99446
1.00184 0.999827 0.991025
0.999044 1.00001 0.997755
1.00014 0.99994 0.994151
0.999001 1.00006 0.998646
0.999207 0.999986 0.998544
1.00028 0.999913 0.993891
0.99921 0.999986 0.998542
0.999122 0.999984 0.997684
1.00022 0.999936 0.994014
0.99906 1.00002 0.998632
0.999186 0.999984 0.998559
0.999125 0.999998 0.998599

TENSORS stress float
0.00117541 3.14419e-05 3.25277e-05
3.14419e-05 0.000226333 -5.93534e-06
3.25277e-05 -5.93534e-06 0.000209987
0.00282923 -5.84449e-05 3.00064e-05
-5.84449e-05 0.00104762 3.38518e-06
3.00064e-05 3.38518e-06 0.00104958
0.00117692 3.70816e-05 1.33466e-05
3.70816e-05 0.000230165 -2.06551e-06
1.33466e-05 -2.06551e-06 0.000213186
0.00132421 1.4589e-05 4.51043e-05
1.4589e-05 0.000314107 -4.50495e-06
4.51043e-05 -4.50495e-06 0.000293178
0.00121579 2.69666e-05 3.68342e-05
2.69666e-05 0.000257116 -5.53129e-06
3.68342e-05 -5.53129e-06 0.000238103
0.00114279 3.34938e-05 2.89367e-05
3.34938e-05 0.000196433 -6.24386e-06
2.89367e-05 -6.24386e-06 0.000184353
0.00113069 1.00469e-05 7.39448e-06
1.00469e-05 0.000169683 -2.57197e-06
7.39448e-06 -2.57197e-06 0.000133753
0.00283746 -5.93509e-05 4.19024e-07
-5.93509e-05 0.0010489 -1.41002e-07
4.19024e-07 -1.41002e-07 0.00105144
0.00323013 -8.46828e-05 1.08667e-05
-8.46828e-05 0.00129487 1.20379e-06
1.08667e-05 1.20379e-06 0.00128507
0.00285359 -6.98852e-05 1.15293e-05
-6.98852e-05 0.00107604 1.30081e-06
1.15293e-05 1.30081e-06 0.00107402
0.00109381 -3.25143e-05 2.3966e-05
-3.25143e-05 0.000147733 3.85458e-06
2.3966e-05 3.85458e-06 0.000145076
0.000786091 -1.65178e-05 5.66009e-06
-1.65178e-05 -9.65095e-06 3.22819e-06
5.66009e-06 3.22819e-06 -3.99062e-05
0.00159923 -9.20736e-06 5.55455e-05
-9.20736e-06 0.000435819 9.41714e-07
5.55455e-05 9.41714e-07 0.000414922
0.00135509 -3.85324e-05 7.23216e-06
-3.85324e-05 0.000335827 1.47051e-06
7.23216e-06 1.47051e-06 0.000312464
0.00117287 4.41494e-05 -7.13995e-06
4.41494e-05 0.000231339 1.76609e-06
-7.13995e-06 1.76609e-06 0.000213575
0.00133516 3.18263e-05 1.99481e-05
3.18263e-05 0.000324839 -1.3403e-06
1.99481e-05 -1.3403e-06 0.000302034
0.00112894 3.76381e-05 1.15409e-05
3.76381e-05 0.00019134 -2.24635e-06
1.15409e-05 -2.24635e-06 0.000179061
0.00122525 3.5298e-05 1.54719e-05
3.5298e-05 0.000265874 -1.78917e-06
1.54719e-05 -1.78917e-06 0.000245773
0.00117947 9.57105e-06 -4.9626e-06
9.57105e-06 0.000192604 4.50121e-07
-4.9626e-06 4.50121e-07 0.000157095
0.00411677 5.17031e-05 5.41243e-05
5.17031e-05 0.00172386 -5.60478e-07
5.41243e-05 -5.60478e-07 0.0017158
0.00139845 1.34735e-05 4.8083e-05
1.34735e-05 0.00034715 -3.55545e-06
4.8083e-05 -3.55545e-06 0.000326602
0.00125626 1.98537e-05 4.11333e-05
1.98537e-05 0.000282212 -5.15099e-06
4.11333e-05 -5.15099e-06 0.000261779
0.00130762 6.94502e-06 8.6157e-06
6.94502e-06 0.000233024 -2.84449e-06
8.6157e-06 -2.84449e-06 0.000191852
0.00118542 6.93931e-06 7.71803e-06
6.93931e-06 0.00019233 -2.66518e-06
7.71803e-06 -2.66518e-06 0.00015418
0.00114102 3.40774e-05 2.65362e-05
3.40774e-05 0.000180266 -6.30726e-06
2.65362e-05 -6.30726e-06 0.000173442
0.00107254 1.69569e-05 6.6326e-06
1.69569e-05 0.000144324 -2.62885e-06
6.6326e-06 -2.62885e-06 0.00011187
0.00143692 -3.77062e-05 2.4946e-06
-3.77062e-05 0.000258163 -1.08649e-06
2.4946e-06 -1.08649e-06 0.000198448
0.00284511 -6.01878e-05 -2.81841e-05
-6.01878e-05 0.00104965 -3.38548e-06
-2.81841e-05 -3.38548e-06 0.00105281
0.00221355 -5.55422e-05 -1.44317e-05
-5.55422e-05 0.000774383 -5.3196e-07
-1.44317e-05 -5.3196e-07 0.000759766
0.00202328 -5.18889e-05 -1.15379e-05
-5.18889e-05 0.000651021 -8.61014e-07
-1.15379e-05 -8.61014e-07 0.000643982
0.00271691 -5.51806e-05 2.99523e-07
-5.51806e-05 0.000975275 -8.63556e-08
2.99523e-07 -8.63556e-08 0.000981108
0.000730722 -1.82952e-05 9.50983e-08
-1.82952e-05 -3.48944e-05 -5.13509e-08
9.50983e-08 -5.13509e-08 -6.54292e-05
0.00148654 -1.85651e-05 4.00108e-05
-1.85651e-05 0.000403228 2.94817e-06
4.00108e-05 2.94817e-06 0.000381871
0.00130416 -3.06203e-05 3.20654e-05
-3.06203e-05 0.000299271 3.22058e-06
3.20654e-05 3.22058e-06 0.000282995
0.0018618 8.83417e-06 2.0249e-05
8.83417e-06 0.000532473 2.79277e-06
2.0249e-05 2.79277e-06 0.000498082
0.00260876 -5.59968e-05 1.01985e-05
-5.59968e-05 0.000909608 1.49246e-06
1.01985e-05 1.49246e-06 0.000918065
0.00169075 -1.39684e-05 1.59722e-05
-1.39684e-05 0.000452947 2.59627e-06
1.59722e-05 2.59627e-06 0.000424844
0.000772827 -2.75335e-05 6.39982e-06
-2.75335e-05 -1.97342e-05 5.02556e-06
6.39982e-06 5.02556e-06 -4.64326e-05
0.000905959 2.20753e-05 2.8814e-06
2.20753e-05 2.62304e-05 1.13759e-06
2.8814e-06 1.13759e-06 -3.3429e-05
0.00258333 -4.23906e-05 2.46099e-05
-4.23906e-05 0.000879212 3.94247e-06
2.46099e-05 3.94247e-06 0.000891902
0.00428873 -5.21515e-05 1.36405e-06
-5.21515e-05 0.00180574 -2.05206e-07
1.36405e-06 -2.05206e-07 0.00179738
0.00263396 -5.22737e-05 -2.06509e-05
-5.22737e-05 0.000982608 -7.76174e-08
-2.06509e-05 -7.76174e-08 0.000966116
0.00444567 -3.98296e-05 6.02158e-05
-3.98296e-05 0.00187865 1.51337e-07
6.02158e-05 1.51337e-07 0.00187064
0.00138034 -3.18686e-05 8.17887e-06
-3.18686e-05 0.000340399 1.1506e-06
8.17887e-06 1.1506e-06 0.000317649
0.000774927 -1.18031e-05 1.13839e-05
-1.18031e-05 -7.46977e-05 2.30736e-06
1.13839e-05 2.30736e-06 -0.000119226
0.00368979 -0.000105535 8.14236e-06
-0.000105535 0.00153228 1.04828e-06
8.14236e-06 1.04828e-06 0.00151842
0.00207577 -1.64782e-05 2.79298e-05
-1.64782e-05 0.000607989 2.97213e-06
2.79298e-05 2.97213e-06 0.000573015
0.00136481 5.13342e-05 -5.79488e-06
5.13342e-05 0.000345783 1.9016e-06
-5.79488e-06 1.9016e-06 0.000320701
0.00123734 4.61406e-05 -6.91252e-06
4.61406e-05 0.000276272 1.83961e-06
-6.91252e-06 1.83961e-06 0.000254825
0.00110027 4.23385e-05 -6.88143e-06
4.23385e-05 0.000178858 1.68673e-06
-6.88143e-06 1.68673e-06 0.000166335
0.00123355 8.0666e-06 -1.7908e-05
8.0666e-06 0.000218161 3.47731e-06
-1.7908e-05 3.47731e-06 0.000183132
0.00280575 4.49685e-05 -2.08889e-05
4.49685e-05 0.00105736 -8.15528e-07
-2.08889e-05 -8.15528e-07 0.00104182
0.00138119 3.21775e-05 2.13835e-05
3.21775e-05 0.000343224 -1.01723e-06
2.13835e-05 -1.01723e-06 0.000320777
0.00109925 3.72113e-05 1.02732e-05
3.72113e-05 0.00016018 -2.27262e-06
1.02732e-05 -2.27262e-06 0.000153424
0.00127503 3.29166e-05 1.76888e-05
3.29166e-05 0.000296405 -1.55952e-06
1.76888e-05 -1.55952e-06 0.000274421
0.00136383 2.14102e-06 -7.85741e-06
2.14102e-06 0.000258753 1.23002e-07
-7.85741e-06 1.23002e-07 0.000218528
0.00112223 1.70738e-05 -4.25581e-06
1.70738e-05 0.000168126 4.69087e-07
-4.25581e-06 4.69087e-07 0.000135986
0.00123602 5.31993e-06 -5.99304e-06
5.31993e-06 0.000215271 3.88239e-07
-5.99304e-06 3.88239e-07 0.000177768
0.0014996 -4.05644e-05 -1.37847e-06
-4.05644e-05 0.000287373 5.50175e-07
-1.37847e-06 5.50175e-07 0.000227167
0.00425104 5.41975e-05 5.44059e-05
5.41975e-05 0.00178681 2.16545e-08
5.44059e-05 2.16545e-08 0.00177851
0.00143264 1.49782e-05 5.01497e-05
1.49782e-05 0.000362034 -2.67132e-06
5.01497e-05 -2.67132e-06 0.000341783
0.00203845 2.90263e-05 9.02952e-06
2.90263e-05 0.000577254 -1.18363e-06
9.02952e-06 -1.18363e-06 0.000540645
0.00136607 1.15316e-05 9.36888e-06
1.15316e-05 0.000251191 -2.34314e-06
9.36888e-06 -2.34314e-06 0.000210326
0.00123661 5.70489e-06 8.02231e-06
5.70489e-06 0.00021018 -2.89439e-06
8.02231e-06 -2.89439e-06 0.000170215
0.00171901 -4.13344e-05 3.38393e-06
-4.13344e-05 0.000320806 -1.58105e-06
3.38393e-06 -1.58105e-06 0.000255987
0.00120695 -3.61597e-05 3.22447e-06
-3.61597e-05 0.00011753 -1.56946e-06
3.22447e-06 -1.56946e-06 5.56346e-05
0.00120475 3.33931e-05 2.5821e-05
3.33931e-05 0.000195654 -6.22625e-06
2.5821e-05 -6.22625e-06 0.000193821
0.00104216 3.70658e-05 4.87639e-06
3.70658e-05 0.000129645 -2.7845e-06
4.87639e-06 -2.7845e-06 0.000101419
0.00132278 -2.71074e-05 2.15945e-06
-2.71074e-05 0.000226462 -1.0834e-06
2.15945e-06 -1.0834e-06 0.000168398
0.00112876 -5.4089e-05 2.04025e-06
-5.4089e-05 5.38886e-05 -1.01227e-06
2.04025e-06 -1.01227e-06 -1.98131e-05
0.00322475 -7.2819e-05 -3.29948e-05
-7.2819e-05 0.00128589 -2.66131e-06
-3.29948e-05 -2.66131e-06 0.00127835
0.00275456 -5.58839e-05 -2.68248e-05
-5.58839e-05 0.00099101 -3.48962e-06
-2.68248e-05 -3.48962e-06 0.000997542
0.00293594 -6.39214e-05 -2.98783e-05
-6.39214e-05 0.0011115 -3.18547e-06
-2.98783e-05 -3.18547e-06 0.00111096
0.00068208 -2.39707e-05 -4.34338e-06
-2.39707e-05 -5.64284e-05 -3.70386e-06
-4.34338e-06 -3.70386e-06 -8.73157e-05
0.00362149 -7.1444e-05 7.8302e-07
-7.1444e-05 0.00149102 -1.67661e-07
7.8302e-07 -1.67661e-07 0.0014811
0.00311396 -6.77896e-05 6.54868e-07
-6.77896e-05 0.00122207 -1.45806e-07
6.54868e-07 -1.45806e-07 0.00121675
0.000702113 1.90403e-05 -6.11268e-08
1.90403e-05 -5.18113e-05 -1.49392e-07
-6.11268e-08 -1.49392e-07 -9.2893e-05
0.00186398 -4.31808e-05 -9.9288e-06
-4.31808e-05 0.000528431 -1.02155e-06
-9.9288e-06 -1.02155e-06 0.000533125
0.00073803 -5.14953e-06 -5.74718e-08
-5.14953e-06 -2.86542e-05 -5.47651e-08
-5.74718e-08 -5.47651e-08 -6.25625e-05
0.00115652 -3.84158e-05 5.23011e-06
-3.84158e-05 0.000176881 5.27331e-07
5.23011e-06 5.27331e-07 0.000152645
0.000890301 1.88824e-05 8.05751e-08
1.88824e-05 1.88565e-05 -2.3451e-07
8.05751e-08 -2.3451e-07 -4.09435e-05
0.00261015 -4.66308e-05 2.55227e-05
-4.66308e-05 0.000900935 3.7688e-06
2.55227e-05 3.7688e-06 0.000911804
0.000809141 -2.91925e-05 4.08406e-06
-2.91925e-05 -3.11278e-05 3.78979e-06
4.08406e-06 3.78979e-06 -4.67519e-05
0.000775322 2.78327e-05 9.55818e-06
2.78327e-05 -3.01917e-05 4.62284e-06
9.55818e-06 4.62284e-06 -7.30933e-05
0.000765153 1.02297e-05 8.19285e-06
1.02297e-05 -1.78677e-05 4.61622e-06
8.19285e-06 4.61622e-06 -5.62219e-05
0.00101226 3.96192e-05 3.3104e-06
3.96192e-05 2.28859e-05 1.65855e-06
3.3104e-06 1.65855e-06 -4.08674e-05
0.00157855 -4.50625e-05 1.23502e-05
-4.50625e-05 0.000382635 3.32539e-06
1.23502e-05 3.32539e-06 0.000364585
0.000937559 3.16014e-05 2.81289e-06
3.16014e-05 3.15321e-05 1.23188e-06
2.81289e-06 1.23188e-06 -2.81098e-05
0.000907117 1.19879e-05 2.67809e-06
1.19879e-05 3.13383e-05 1.6816e-06
2.67809e-06 1.6816e-06 -2.72212e-05
0.000942975 4.83159e-05 1.47781e-06
4.83159e-05 1.76218e-05 7.53887e-08
1.47781e-06 7.53887e-08 -5.35971e-05
0.00253251 -3.81191e-05 2.32262e-05
-3.81191e-05 0.000846544 4.06577e-06
2.32262e-05 4.06577e-06 0.000860997
0.00260134 -4.25287e-05 3.56649e-07
-4.25287e-05 0.00088732 -8.53974e-08
3.56649e-07 -8.53974e-08 0.000900173
0.00384331 -6.33851e-05 -4.47231e-05
-6.33851e-05 0.00159767 -1.60056e-06
-4.47231e-05 -1.60056e-06 0.00158824
0.00418033 -5.10917e-05 -5.24077e-05
-5.10917e-05 0.00175417 -6.28322e-07
-5.24077e-05 -6.28322e-07 0.00174585
0.00440385 -3.05466e-05 2.37321e-06
-3.05466e-05 0.00185815 -2.68939e-07
2.37321e-06 -2.68939e-07 0.00185055
0.00273657 -4.50769e-05 -2.17878e-05
-4.50769e-05 0.0010268 -2.1802e-08
-2.17878e-05 -2.1802e-08 0.00101086
0.00144659 -3.55383e-06 1.22272e-05
-3.55383e-06 0.000267902 -1.02637e-07
1.22272e-05 -1.02637e-07 0.000227843
0.00247403 -5.55365e-05 -1.83593e-05
-5.55365e-05 0.000908326 -2.06703e-07
-1.83593e-05 -2.06703e-07 0.000891401
0.00133379 4.40638e-06 1.00121e-05
4.40638e-06 0.000234174 -1.72991e-08
1.00121e-05 -1.72991e-08 0.000195686
0.00441778 2.70895e-05 5.54076e-05
2.70895e-05 0.00186411 6.70566e-07
5.54076e-05 6.70566e-07 0.00185648
0.000752471 -1.93335e-06 9.47714e-06
-1.93335e-06 -9.56591e-05 7.74571e-07
9.47714e-06 7.74571e-07 -0.000140779
0.00211012 -3.34123e-05 3.00393e-05
-3.34123e-05 0.000616149 2.36304e-06
3.00393e-05 2.36304e-06 0.000580214
0.00118882 2.6504e-06 5.56364e-06
2.6504e-06 -1.5878e-06 1.53311e-06
5.56364e-06 1.53311e-06 -7.2413e-05
0.00198767 1.38533e-05 2.45652e-05
1.38533e-05 0.000575896 2.68534e-06
2.45652e-05 2.68534e-06 0.000540358
0.00115129 2.48076e-05 4.87464e-06
2.48076e-05 1.41786e-05 1.7e-06
4.87464e-06 1.7e-06 -5.4641e-05
0.00154656 1.65559e-05 -5.2775e-05
1.65559e-05 0.000413236 7.2207e-07
-5.2775e-05 7.2207e-07 0.000392858
0.00137881 3.93944e-05 -7.65085e-06
3.93944e-05 0.000345749 1.57126e-06
-7.65085e-06 1.57126e-06 0.000322188
0.00103837 4.03566e-05 -6.50628e-06
4.03566e-05 0.000130627 1.61802e-06
-6.50628e-06 1.61802e-06 0.000123953
0.00130557 4.86499e-05 -6.3191e-06
4.86499e-05 0.000317113 1.92482e-06
-6.3191e-06 1.92482e-06 0.000293256
0.00139769 -3.21667e-06 -2.44734e-05
-3.21667e-06 0.000272704 3.143e-06
-2.44734e-05 3.143e-06 0.000233681
0.00128159 2.27189e-06 -2.01082e-05
2.27189e-06 0.000235512 3.35639e-06
-2.01082e-05 3.35639e-06 0.000198787
0.00118746 1.65736e-05 -1.58208e-05
1.65736e-05 0.000199644 3.55069e-06
-1.58208e-05 3.55069e-06 0.000167846
0.00156387 -4.32505e-05 -5.27731e-06
-4.32505e-05 0.000317288 2.19378e-06
-5.27731e-06 2.19378e-06 0.000256601
0.00431809 5.86127e-05 -2.26843e-06
5.86127e-05 0.00181895 -2.73193e-07
-2.26843e-06 -2.73193e-07 0.00181049
0.00139547 2.82305e-05 2.16063e-05
2.82305e-05 0.000346524 -6.94828e-07
2.16063e-05 -6.94828e-07 0.000325024
0.00110223 1.46844e-05 -1.31265e-05
1.46844e-05 9.91426e-05 1.78998e-07
-1.31265e-05 1.78998e-07 5.78357e-05
0.00141079 3.30337e-06 -7.87083e-06
3.30337e-06 0.000270876 8.31572e-08
-7.87083e-06 8.31572e-08 0.000231196
0.00194322 4.4243e-05 1.81647e-05
4.4243e-05 0.000575126 -1.90602e-06
1.81647e-05 -1.90602e-06 0.000577514
0.00131217 3.25064e-05 -3.68985e-06
3.25064e-05 0.000263798 4.42923e-07
-3.68985e-06 4.42923e-07 0.000237499
0.00129464 2.21703e-06 -7.03167e-06
2.21703e-06 0.000236492 2.56403e-07
-7.03167e-06 2.56403e-07 0.000197391
0.00155686 -3.82339e-05 -2.15073e-06
-3.82339e-05 0.00023809 4.60711e-07
-2.15073e-06 4.60711e-07 0.000172502
0.00142888 -3.19932e-05 -1.13572e-06
-3.19932e-05 0.000276785 6.36556e-07
-1.13572e-06 6.36556e-07 0.00021809
0.00138784 -4.02285e-05 -6.03262e-07
-4.02285e-05 0.000207732 1.53391e-07
-6.03262e-07 1.53391e-07 0.000146314
0.0011226 -5.36042e-05 4.17267e-09
-5.36042e-05 5.11948e-05 -3.96659e-08
4.17267e-09 -3.96659e-08 -2.24094e-05
0.000735684 4.4996e-06 9.2402e-06
4.4996e-06 -9.67937e-05 -1.45414e-06
9.2402e-06 -1.45414e-06 -0.000141095
0.00138373 1.5704e-05 1.01974e-05
1.5704e-05 0.00025406 -1.80961e-06
1.01974e-05 -1.80961e-06 0.000214335
0.00152565 1.09746e-05 5.03492e-06
1.09746e-05 0.000179162 -9.36332e-07
5.03492e-06 -9.36332e-07 0.000112175
0.00143309 -2.75858e-05 4.59539e-06
-2.75858e-05 0.000156329 -1.40423e-06
4.59539e-06 -1.40423e-06 9.02325e-05
0.00131819 -3.90601e-05 3.59389e-06
-3.90601e-05 0.000145919 -1.84866e-06
3.59389e-06 -1.84866e-06 8.17698e-05
0.00164311 -5.01655e-05 1.65577e-06
-5.01655e-05 0.000221303 -6.26354e-07
1.65577e-06 -6.26354e-07 0.000143859
0.0027511 5.15571e-05 2.64132e-05
5.15571e-05 0.000976482 -3.59598e-06
2.64132e-05 -3.59598e-06 0.000985646
0.00114433 -5.10832e-05 1.87531e-06
-5.10832e-05 3.70982e-05 -8.36018e-07
1.87531e-06 -8.36018e-07 -3.61341e-05
0.000732165 3.90457e-05 3.87945e-06
3.90457e-05 -4.15097e-05 -3.60679e-06
3.87945e-06 -3.60679e-06 -6.69686e-05
0.000789213 -1.4627e-05 2.26367e-06
-1.4627e-05 -2.69549e-05 -1.61828e-06
2.26367e-06 -1.61828e-06 -8.56352e-05
0.00117955 -5.75356e-05 2.00061e-06
-5.75356e-05 0.00010774 -1.43229e-06
2.00061e-06 -1.43229e-06 3.30443e-05
0.0012194 -6.18699e-05 1.4386e-06
-6.18699e-05 6.9489e-05 -5.36535e-07
1.4386e-06 -5.36535e-07 -9.09363e-06
0.000741857 3.06029e-05 4.33475e-06
3.06029e-05 -5.80375e-05 -3.88266e-06
4.33475e-06 -3.88266e-06 -7.6389e-05
0.000924561 -1.55056e-07 2.38966e-06
-1.55056e-07 1.88522e-05 -2.59434e-06
2.38966e-06 -2.59434e-06 -2.96823e-05
0.00345215 -7.44761e-05 -3.69877e-05
-7.44761e-05 0.00140599 -2.38533e-06
-3.69877e-05 -2.38533e-06 0.00139641
0.00303741 -6.81476e-05 -3.07738e-05
-6.81476e-05 0.00117945 -2.92774e-06
-3.07738e-05 -2.92774e-06 0.00117519
0.000670086 1.54857e-05 -6.1434e-06
1.54857e-05 -6.37665e-05 -3.63142e-06
-6.1434e-06 -3.63142e-06 -0.000105179
0.00270359 -5.13636e-05 -2.62656e-05
-5.13636e-05 0.000954495 -3.61911e-06
-2.62656e-05 -3.61911e-06 0.000963665
0.000669384 -3.77297e-05 -3.83292e-06
-3.77297e-05 -6.95593e-05 -3.82675e-06
-3.83292e-06 -3.82675e-06 -9.61703e-05
0.000667734 -5.76967e-06 -5.78103e-06
-5.76967e-06 -5.90531e-05 -3.33219e-06
-5.78103e-06 -3.33219e-06 -9.35891e-05
0.000867183 1.7706e-05 -2.57009e-06
1.7706e-05 7.40825e-06 -1.47469e-06
-2.57009e-06 -1.47469e-06 -5.23349e-05
0.00264038 -4.68022e-05 3.15581e-07
-4.68022e-05 0.000914876 -9.48126e-08
3.15581e-07 -9.48126e-08 0.000925909
0.000793909 -2.81714e-05 1.42345e-07
-2.81714e-05 -3.96825e-05 -1.06169e-08
1.42345e-07 -1.06169e-08 -5.5e-05
0.00127583 2.04892e-05 8.45988e-06
2.04892e-05 0.00022759 2.68135e-08
8.45988e-06 2.68135e-08 0.00018849
0.00119889 9.11338e-07 6.28091e-06
9.11338e-07 0.000206863 3.34196e-07
6.28091e-06 3.34196e-07 0.000171866
0.000993217 3.97575e-05 1.39512e-07
3.97575e-05 1.33548e-05 -2.63865e-09
1.39512e-07 -2.63865e-09 -5.02511e-05
0.000777262 -3.64628e-05 -4.12524e-08
-3.64628e-05 -2.72421e-05 2.3881e-09
-4.12524e-08 2.3881e-09 -4.89933e-05
0.000911193 3.03508e-05 -7.71816e-08
3.03508e-05 1.84765e-05 5.95296e-08
-7.71816e-08 5.95296e-08 -4.10794e-05
0.000880513 9.22994e-06 -2.68347e-08
9.22994e-06 1.95127e-05 -1.64239e-07
-2.68347e-08 -1.64239e-07 -3.91452e-05
0.0009092 4.75194e-05 -4.78728e-08
4.75194e-05 -1.4194e-07 -1.40783e-07
-4.78728e-08 -1.40783e-07 -7.1498e-05
0.000795718 -3.32217e-05 4.19999e-06
-3.32217e-05 -2.81702e-05 3.67701e-06
4.19999e-06 3.67701e-06 -4.67745e-05
0.000826668 -2.53474e-05 3.75943e-06
-2.53474e-05 -2.98168e-05 3.82062e-06
3.75943e-06 3.82062e-06 -4.24569e-05
0.000902419 1.4857e-06 2.83907e-06
1.4857e-06 6.12038e-06 2.02501e-06
2.83907e-06 2.02501e-06 -4.16636e-05
0.00105413 3.68108e-05 3.69809e-06
3.68108e-05 1.31019e-05 1.73131e-06
3.69809e-06 1.73131e-06 -5.27587e-05
0.000977275 3.817e-05 2.98022e-06
3.817e-05 3.39445e-05 1.5649e-06
2.98022e-06 1.5649e-06 -2.74016e-05
0.00117347 5.51329e-05 1.84857e-06
5.51329e-05 5.64676e-05 1.20462e-06
1.84857e-06 1.20462e-06 -1.90706e-05
0.000912668 6.98323e-06 2.69721e-06
6.98323e-06 2.6963e-05 1.85199e-06
2.69721e-06 1.85199e-06 -2.77445e-05
0.000955417 5.10861e-05 1.1952e-06
5.10861e-05 5.2279e-06 4.13681e-07
1.1952e-06 4.13681e-07 -6.48203e-05
0.00104358 4.62839e-05 1.53229e-06
4.62839e-05 8.30138e-05 4.32811e-07
1.53229e-06 4.32811e-07 1.03486e-05
0.00108282 6.07248e-05 -8.03286e-08
6.07248e-05 8.06536e-05 -4.41814e-07
-8.03286e-08 -4.41814e-07 3.39431e-06
0.00246481 -3.39325e-05 2.1438e-05
-3.39325e-05 0.000806022 4.11777e-06
2.1438e-05 4.11777e-06 0.000822239
0.00253965 -3.82612e-05 4.09014e-07
-3.82612e-05 0.000849332 -7.54049e-08
4.09014e-07 -7.54049e-08 0.000863976
0.0026177 -4.27047e-05 -2.40021e-05
-4.27047e-05 0.000894583 -3.91274e-06
-2.40021e-05 -3.91274e-06 0.000907602
0.000774797 2.69176e-05 3.81706e-06
2.69176e-05 -4.90643e-05 -3.88608e-06
3.81706e-06 -3.88608e-06 -6.40946e-05
0.00270721 4.7129e-05 2.53662e-05
4.7129e-05 0.000946746 -3.75215e-06
2.53662e-05 -3.75215e-06 0.000957806
0.00366044 -7.54846e-05 -4.00034e-05
-7.54846e-05 0.00151106 -2.07013e-06
-4.00034e-05 -2.07013e-06 0.00150057
0.00400453 -5.62261e-05 -4.86158e-05
-5.62261e-05 0.00167262 -1.11514e-06
-4.86158e-05 -1.11514e-06 0.00166389
0.000692052 1.64172e-05 -7.92146e-06
1.64172e-05 -9.16211e-05 -3.12501e-06
-7.92146e-06 -3.12501e-06 -0.000133388
0.000728505 1.06433e-05 -8.88435e-06
1.06433e-05 -9.59339e-05 -2.0822e-06
-8.88435e-06 -2.0822e-06 -0.000139551
0.00436035 -3.35093e-05 -5.5343e-05
-3.35093e-05 0.00183726 -1.43733e-07
-5.5343e-05 -1.43733e-07 0.00182968
0.00443898 1.70106e-05 -1.07467e-06
1.70106e-05 0.00187477 2.8073e-07
-1.07467e-06 2.8073e-07 0.00186703
0.000748357 -4.67721e-07 5.99938e-08
-4.67721e-07 -9.75336e-05 -2.16632e-07
5.99938e-08 -2.16632e-07 -0.000142565
0.00139099 -7.79473e-06 1.11115e-05
-7.79473e-06 0.000252632 -1.87254e-09
1.11115e-05 -1.87254e-09 0.000213784
0.00119531 5.742e-06 1.05165e-07
5.742e-06 1.77917e-06 -1.07001e-08
1.05165e-07 -1.07001e-08 -6.90221e-05
0.000683601 2.12321e-05 -1.53182e-08
2.12321e-05 -8.39484e-05 -1.07811e-07
-1.53182e-08 -1.07811e-07 -0.000126254
0.00115695 2.55623e-05 9.38078e-08
2.55623e-05 1.75825e-05 -1.15882e-07
9.38078e-08 -1.15882e-07 -5.12783e-05
0.000729632 -1.92657e-06 9.54678e-06
-1.92657e-06 -0.000108633 -4.6484e-07
9.54678e-06 -4.6484e-07 -0.000154032
0.00121877 -8.70016e-08 5.78818e-06
-8.70016e-08 -1.52467e-06 7.94419e-07
5.78818e-06 7.94419e-07 -7.42363e-05
0.00117439 1.4021e-05 5.25596e-06
1.4021e-05 7.92636e-06 1.60553e-06
5.25596e-06 1.60553e-06 -6.14819e-05
0.00139487 3.01766e-06 2.89112e-06
3.01766e-06 3.92137e-05 1.05108e-06
2.89112e-06 1.05108e-06 -4.27746e-05
0.00110576 3.15053e-05 4.2442e-06
3.15053e-05 1.27728e-05 1.81053e-06
4.2442e-06 1.81053e-06 -5.48958e-05
0.00133955 2.84784e-05 2.33582e-06
2.84784e-05 4.87754e-05 7.73764e-07
2.33582e-06 7.73764e-07 -2.99759e-05
0.00438465 5.57964e-05 -6.12933e-05
5.57964e-05 0.00185042 -4.5321e-07
-6.12933e-05 -4.5321e-07 0.00184215
0.00135284 3.20885e-05 -8.52795e-06
3.20885e-05 0.000327483 1.14625e-06
-8.52795e-06 1.14625e-06 0.000305308
0.000157576 3.99342e-06 -1.07302e-05
3.99342e-06 -0.00038192 2.25187e-06
-1.07302e-05 2.25187e-06 -0.000428911
0.00144255 5.34181e-07 -2.61174e-05
5.34181e-07 0.00028454 2.57751e-06
-2.61174e-05 2.57751e-06 0.000245645
0.00267075 6.05476e-05 -1.04626e-05
6.05476e-05 0.000949838 1.4195e-06
-1.04626e-05 1.4195e-06 0.000955796
0.00159779 4.02715e-05 -1.4183e-05
4.02715e-05 0.000406902 3.5632e-06
-1.4183e-05 3.5632e-06 0.000381834
0.00133607 -2.53723e-06 -2.22745e-05
-2.53723e-06 0.000254069 3.32415e-06
-2.22745e-05 3.32415e-06 0.000216028
0.00140313 -3.57751e-05 -7.40878e-06
-3.57751e-05 0.000159706 2.49902e-06
-7.40878e-06 2.49902e-06 9.33029e-05
0.00157919 -4.41844e-05 -4.6488e-06
-4.41844e-05 0.000303158 1.82105e-06
-4.6488e-06 1.82105e-06 0.000242207
0.0015291 -3.65469e-05 -4.86652e-06
-3.65469e-05 0.000324246 2.40051e-06
-4.86652e-06 2.40051e-06 0.000264908
0.00111726 -5.31891e-05 -1.75459e-06
-5.31891e-05 4.88784e-05 8.54645e-07
-1.75459e-06 8.54645e-07 -2.46307e-05
0.000749529 5.44725e-06 -1.76026e-07
5.44725e-06 -9.05017e-05 -1.72476e-07
-1.76026e-07 -1.72476e-07 -0.000134895
0.00142563 1.10627e-05 -8.1091e-06
1.10627e-05 0.000272671 6.51886e-08
-8.1091e-06 6.51886e-08 0.000233811
0.00121277 9.08855e-06 -1.36546e-06
9.08855e-06 2.11448e-05 9.26723e-08
-1.36546e-06 9.26723e-08 -4.76517e-05
0.001597 -2.89845e-05 -1.2323e-06
-2.89845e-05 0.000238808 9.34185e-08
-1.2323e-06 9.34185e-08 0.000173283
0.0027078 5.12776e-05 -2.60061e-07
5.12776e-05 0.000956309 -9.56797e-08
-2.60061e-07 -9.56797e-08 0.000965259
0.00116574 4.49941e-05 1.05905e-06
4.49941e-05 0.000179578 6.89736e-08
1.05905e-06 6.89736e-08 0.000155926
0.00112124 -1.53063e-05 1.12208e-07
-1.53063e-05 0.00013807 -3.01384e-08
1.12208e-07 -3.01384e-08 8.04569e-05
0.00132052 -3.908e-05 -8.90672e-07
-3.908e-05 0.000147352 1.09419e-07
-8.90672e-07 1.09419e-07 8.33193e-05
0.00138377 -4.63732e-05 -9.17399e-07
-4.63732e-05 9.02983e-05 3.96458e-07
-9.17399e-07 3.96458e-07 1.19552e-05
0.00102049 -5.33112e-05 -1.88491e-07
-5.33112e-05 3.04639e-05 -1.36533e-07
-1.88491e-07 -1.36533e-07 -4.4381e-05
0.00131557 -5.3581e-05 6.77607e-08
-5.3581e-05 0.000121509 1.01831e-07
6.77607e-08 1.01831e-07 4.87313e-05
0.00120885 -6.14495e-05 1.20512e-07
-6.14495e-05 6.47634e-05 1.70265e-08
1.20512e-07 1.70265e-08 -1.36774e-05
0.000764317 3.21137e-05 -1.24798e-07
3.21137e-05 -4.52298e-05 -3.01436e-08
-1.24798e-07 -3.01436e-08 -6.39878e-05
0.000908772 -1.73961e-06 -2.91184e-07
-1.73961e-06 1.05282e-05 -3.09077e-08
-2.91184e-07 -3.09077e-08 -3.79619e-05
0.00120884 4.87193e-06 5.65231e-06
4.87193e-06 1.76873e-06 -8.57628e-07
5.65231e-06 -8.57628e-07 -6.93935e-05
0.00146237 -3.8526e-06 4.80763e-06
-3.8526e-06 0.000159494 -1.13983e-06
4.80763e-06 -1.13983e-06 9.39552e-05
0.00171538 6.01398e-06 2.3663e-06
6.01398e-06 0.000212295 -2.02393e-07
2.3663e-06 -2.02393e-07 0.000133895
0.001169 -3.13087e-05 3.31115e-06
-3.13087e-05 -4.2453e-05 -8.13924e-07
3.31115e-06 -8.13924e-07 -0.000121933
0.00131959 -5.15188e-05 1.56508e-06
-5.15188e-05 9.83805e-05 -9.67726e-07
1.56508e-06 -9.67726e-07 2.40492e-05
0.00160951 -5.01439e-05 8.41413e-07
-5.01439e-05 0.000168607 -3.54649e-07
8.41413e-07 -3.54649e-07 8.8354e-05
0.000700995 3.48764e-05 4.23342e-06
3.48764e-05 -6.78148e-05 -3.73007e-06
4.23342e-06 -3.73007e-06 -8.95812e-05
0.00125895 -5.78445e-05 1.00019e-06
-5.78445e-05 5.97336e-05 -5.29859e-07
1.00019e-06 -5.29859e-07 -1.70555e-05
0.00083869 -5.08944e-06 2.44588e-06
-5.08944e-06 -2.29191e-06 -1.55197e-06
2.44588e-06 -1.55197e-06 -5.93705e-05
0.000762648 -4.44463e-05 1.78453e-06
-4.44463e-05 -7.08433e-05 -1.63047e-06
1.78453e-06 -1.63047e-06 -0.000143847
0.00154158 -7.47528e-05 1.04273e-06
-7.47528e-05 0.00026448 -9.00844e-07
1.04273e-06 -9.00844e-07 0.000182847
0.00136934 -6.74044e-05 7.20855e-07
-6.74044e-05 0.000123988 3.72259e-07
7.20855e-07 3.72259e-07 4.57108e-05
0.000913661 -6.91287e-06 3.10902e-06
-6.91287e-06 1.92396e-05 -2.1865e-06
3.10902e-06 -2.1865e-06 -3.34073e-05
0.000912401 9.1743e-06 1.60871e-06
9.1743e-06 9.11793e-06 -2.50889e-06
1.60871e-06 -2.50889e-06 -3.38269e-05
0.00099181 -2.74109e-05 1.33857e-06
-2.74109e-05 4.94692e-05 -1.14467e-06
1.33857e-06 -1.14467e-06 -1.94186e-05
0.000681093 2.37348e-05 -6.8306e-06
2.37348e-05 -7.07446e-05 -3.65744e-06
-6.8306e-06 -3.65744e-06 -0.000113522
0.00266989 -4.70186e-05 -2.54068e-05
-4.70186e-05 0.000928459 -3.78483e-06
-2.54068e-05 -3.78483e-06 0.00093965
0.000781399 -2.72346e-05 -4.10043e-06
-2.72346e-05 -4.69063e-05 -3.82575e-06
-4.10043e-06 -3.82575e-06 -6.19243e-05
0.000656373 3.93916e-06 -5.76157e-06
3.93916e-06 -6.34183e-05 -3.38225e-06
-5.76157e-06 -3.38225e-06 -0.000101731
0.000978414 4.00778e-05 -3.1739e-06
4.00778e-05 5.9511e-06 -1.78632e-06
-3.1739e-06 -1.78632e-06 -5.75229e-05
0.000700124 -3.4619e-05 -4.37203e-06
-3.4619e-05 -6.61415e-05 -3.73321e-06
-4.37203e-06 -3.73321e-06 -8.77396e-05
0.000852819 4.75658e-06 -2.33269e-06
4.75658e-06 7.34938e-06 -1.90193e-06
-2.33269e-06 -1.90193e-06 -5.15556e-05
0.000886927 2.87375e-05 -2.69207e-06
2.87375e-05 6.4406e-06 -1.00847e-06
-2.69207e-06 -1.00847e-06 -5.30298e-05
0.00087457 4.67086e-05 -1.66295e-06
4.67086e-05 -1.83422e-05 -3.81483e-07
-1.66295e-06 -3.81483e-07 -8.98341e-05
0.000772693 -3.21625e-05 9.45148e-08
-3.21625e-05 -4.08139e-05 -2.52502e-08
9.45148e-08 -2.52502e-08 -5.91047e-05
0.0008117 -2.46195e-05 1.41727e-07
-2.46195e-05 -3.78461e-05 1.58033e-08
1.41727e-07 1.58033e-08 -5.02282e-05
0.000905134 1.30922e-06 9.96073e-08
1.30922e-06 8.07716e-06 -1.34994e-08
9.96073e-08 -1.34994e-08 -3.98277e-05
0.00105501 3.74704e-05 1.92445e-07
3.74704e-05 1.3723e-05 6.4844e-09
1.92445e-07 6.4844e-09 -5.20794e-05
0.000942728 3.7127e-05 4.25413e-08
3.7127e-05 1.69256e-05 8.47937e-08
4.25413e-08 8.47937e-08 -4.42354e-05
0.0011628 5.52416e-05 1.1583e-07
5.52416e-05 5.16762e-05 4.41041e-08
1.1583e-07 4.41041e-08 -2.38977e-05
0.000894626 5.12546e-06 -2.12621e-07
5.12546e-06 2.01395e-05 2.31871e-08
-2.12621e-07 2.31871e-08 -3.48098e-05
0.00103862 5.34816e-05 -3.72804e-08
5.34816e-05 4.73469e-05 -6.07327e-08
-3.72804e-08 -6.07327e-08 -2.24137e-05
0.00102349 4.59416e-05 1.15692e-07
4.59416e-05 7.32859e-05 -1.98189e-07
1.15692e-07 -1.98189e-07 5.77444e-07
0.000996466 5.87259e-05 -5.42312e-07
5.87259e-05 3.71614e-05 2.18173e-07
-5.42312e-07 2.18173e-07 -4.04784e-05
0.000842413 -2.21556e-05 3.29111e-06
-2.21556e-05 -2.76784e-05 3.74052e-06
3.29111e-06 3.74052e-06 -3.73674e-05
0.000905301 6.39258e-06 2.94354e-06
6.39258e-06 1.33511e-05 1.73938e-06
2.94354e-06 1.73938e-06 -3.7741e-05
0.000899025 -2.60802e-06 2.42539e-06
-2.60802e-06 1.45445e-06 2.30292e-06
2.42539e-06 2.30292e-06 -4.24018e-05
0.00101493 1.9133e-05 1.46373e-06
1.9133e-05 5.97371e-05 6.64595e-07
1.46373e-06 6.64595e-07 -6.71446e-06
0.00122233 4.74473e-05 2.31882e-06
4.74473e-05 4.50364e-05 1.11702e-06
2.31882e-06 1.11702e-06 -3.21198e-05
0.00112406 5.71071e-05 1.50133e-06
5.71071e-05 6.77353e-05 1.18297e-06
1.50133e-06 1.18297e-06 -4.602e-06
0.00124725 6.11259e-05 9.11375e-07
6.11259e-05 6.59611e-05 1.27708e-06
9.11375e-07 1.27708e-06 -1.54348e-05
0.00105517 3.60778e-05 1.44456e-06
3.60778e-05 8.91207e-05 7.93455e-07
1.44456e-06 7.93455e-07 1.88272e-05
0.00112643 6.18906e-05 2.39578e-07
6.18906e-05 7.68765e-05 3.18143e-07
2.39578e-07 3.18143e-07 1.80802e-06
0.00105784 5.96265e-05 7.6403e-07
5.96265e-05 9.00563e-05 -3.46545e-07
7.6403e-07 -3.46545e-07 7.64379e-06
0.000919934 5.83047e-05 2.81233e-07
5.83047e-05 -1.203e-05 -2.99054e-07
2.81233e-07 -2.99054e-07 -9.29457e-05
0.000920004 -6.16914e-06 9.0626e-07
-6.16914e-06 1.42904e-06 1.94301e-06
9.0626e-07 1.94301e-06 -2.87785e-05
0.000851308 -1.68661e-05 2.33213e-06
-1.68661e-05 -3.2372e-05 3.49947e-06
2.33213e-06 3.49947e-06 -3.71927e-05
0.00239587 -2.99048e-05 1.93348e-05
-2.99048e-05 0.000765345 4.11284e-06
1.93348e-05 4.11284e-06 0.000783248
0.00246763 -3.41067e-05 5.04028e-07
-3.41067e-05 0.000806757 -6.53576e-08
5.04028e-07 -6.53576e-08 0.000823165
0.00254846 -3.84337e-05 -2.22438e-05
-3.84337e-05 0.000852979 -3.97488e-06
-2.22438e-05 -3.97488e-06 0.000867804
0.000797384 2.43163e-05 3.24016e-06
2.43163e-05 -4.34982e-05 -3.68089e-06
3.24016e-06 -3.68089e-06 -5.50778e-05
0.00261184 4.28117e-05 2.33721e-05
4.28117e-05 0.000892585 -3.81104e-06
2.33721e-05 -3.81104e-06 0.000905547
0.000788527 2.80541e-05 -2.38947e-07
2.80541e-05 -4.10497e-05 -1.51612e-09
-2.38947e-07 -1.51612e-09 -5.64548e-05
0.00268211 4.69028e-05 -2.94264e-07
4.69028e-05 0.00093508 -9.32096e-08
-2.94264e-07 -9.32096e-08 0.000945984
0.000677512 2.46784e-05 -7.45445e-06
2.46784e-05 -8.62148e-05 -3.48464e-06
-7.45445e-06 -3.48464e-06 -0.000128604
0.000715014 1.67355e-05 -8.39388e-06
1.67355e-05 -9.11343e-05 -2.64876e-06
-8.39388e-06 -2.64876e-06 -0.000133406
0.00114935 2.49423e-05 -4.77439e-06
2.49423e-05 1.45233e-05 -1.90496e-06
-4.77439e-06 -1.90496e-06 -5.43684e-05
0.00120212 6.93044e-06 -5.40673e-06
6.93044e-06 5.34972e-06 -1.48459e-06
-5.40673e-06 -1.48459e-06 -6.54329e-05
0.000738947 3.46221e-06 -9.43176e-06
3.46221e-06 -0.000101816 -1.24482e-06
-9.43176e-06 -1.24482e-06 -0.000146854
0.00445898 2.13175e-05 -5.90701e-05
2.13175e-05 0.00188519 3.86195e-07
-5.90701e-05 3.86195e-07 0.00187681
0.000748184 -3.3326e-08 -1.06271e-09
-3.3326e-08 -9.98755e-05 -2.68603e-07
-1.06271e-09 -2.68603e-07 -0.000145315
0.00122574 3.1749e-06 1.31564e-08
3.1749e-06 1.79693e-06 -2.48472e-07
1.31564e-08 -2.48472e-07 -7.08351e-05
0.00117281 1.32074e-05 1.55977e-08
1.32074e-05 7.74641e-06 -4.42163e-08
1.55977e-08 -4.42163e-08 -6.17112e-05
0.00142378 2.18704e-06 7.65159e-08
2.18704e-06 5.32775e-05 1.65345e-08
7.65159e-08 1.65345e-08 -2.87093e-05
0.00111207 3.25597e-05 1.90287e-07
3.25597e-05 1.66036e-05 -3.22405e-08
1.90287e-07 -3.22405e-08 -5.10993e-05
0.00135293 3.05257e-05 2.49162e-08
3.05257e-05 5.52257e-05 -2.24933e-08
2.49162e-08 -2.24933e-08 -2.35814e-05
0.00122537 5.36858e-07 5.82666e-06
5.36858e-07 -4.71645e-07 -3.81844e-07
5.82666e-06 -3.81844e-07 -7.31664e-05
0.00143508 4.74808e-06 3.07412e-06
4.74808e-06 4.43715e-05 7.28275e-07
3.07412e-06 7.28275e-07 -4.01723e-05
0.00138103 1.61927e-05 2.68838e-06
1.61927e-05 4.86244e-05 8.91761e-07
2.68838e-06 8.91761e-07 -3.12426e-05
0.00153027 -2.8255e-06 1.51092e-06
-2.8255e-06 7.67832e-05 7.38015e-07
1.51092e-06 7.38015e-07 -6.92595e-06
0.00128602 3.97647e-05 2.01698e-06
3.97647e-05 4.74417e-05 7.07324e-07
2.01698e-06 7.07324e-07 -3.06205e-05
0.00143241 3.21823e-05 9.69155e-07
3.21823e-05 6.03727e-05 5.80558e-07
9.69155e-07 5.80558e-07 -2.03358e-05
0.000763764 9.14034e-06 -9.28797e-06
9.14034e-06 -8.37453e-05 1.06734e-06
-9.28797e-06 1.06734e-06 -0.000128418
0.0014751 1.18152e-05 -2.72388e-05
1.18152e-05 0.000295666 1.86896e-06
-2.72388e-05 1.86896e-06 0.000257314
0.000886863 8.39842e-06 -6.15312e-06
8.39842e-06 -0.000143557 1.12381e-06
-6.15312e-06 1.12381e-06 -0.000214186
0.00176726 -2.99297e-05 -7.33325e-06
-2.99297e-05 0.000324515 1.85611e-06
-7.33325e-06 1.85611e-06 0.00025957
0.00266495 5.09395e-05 -2.60664e-05
5.09395e-05 0.000936323 3.58857e-06
-2.60664e-05 3.58857e-06 0.000945066
0.0016006 3.92639e-05 -1.31563e-05
3.92639e-05 0.000400078 2.99279e-06
-1.31563e-05 2.99279e-06 0.000379113
0.00144207 -2.01192e-05 -3.45255e-06
-2.01192e-05 0.000297185 1.79654e-06
-3.45255e-06 1.79654e-06 0.000240842
0.00133349 -3.91995e-05 -5.27904e-06
-3.91995e-05 0.000154238 2.07759e-06
-5.27904e-06 2.07759e-06 9.02853e-05
0.00112624 -4.25904e-05 -3.34819e-06
-4.25904e-05 -3.97698e-05 1.34756e-06
-3.34819e-06 1.34756e-06 -0.00011902
0.00147983 -5.60475e-05 -2.00314e-06
-5.60475e-05 0.000202461 9.74991e-07
-2.00314e-06 9.74991e-07 0.000130144
0.000848729 -4.86714e-05 -1.78328e-06
-4.86714e-05 -5.2976e-05 1.17025e-06
-1.78328e-06 1.17025e-06 -0.000127953
0.00119595 -6.09643e-05 -9.74377e-07
-6.09643e-05 5.88924e-05 5.17012e-07
-9.74377e-07 5.17012e-07 -1.9404e-05
0.000788009 3.33544e-05 -3.9502e-06
3.33544e-05 -3.19031e-05 3.73539e-06
-3.9502e-06 3.73539e-06 -5.10393e-05
0.000895376 -1.72465e-06 -2.82253e-06
-1.72465e-06 3.29105e-06 2.18964e-06
-2.82253e-06 2.18964e-06 -4.5065e-05
0.0010705 8.50318e-06 -1.51125e-07
8.50318e-06 -6.749e-05 3.61153e-09
-1.51125e-07 3.61153e-09 -0.000139468
0.00148001 -6.92476e-06 -1.31324e-06
-6.92476e-06 0.000168166 1.54772e-07
-1.31324e-06 1.54772e-07 0.00010259
0.00160906 8.0138e-06 -1.04087e-06
8.0138e-06 0.000158213 2.00785e-07
-1.04087e-06 2.00785e-07 7.93554e-05
0.00142576 -3.39808e-05 4.83324e-07
-3.39808e-05 8.7651e-05 -3.34319e-07
4.83324e-07 -3.34319e-07 9.21806e-06
0.00074467 3.61502e-05 -5.44026e-09
3.61502e-05 -4.5061e-05 -5.42357e-09
-5.44026e-09 -5.42357e-09 -6.71348e-05
0.000879527 -8.93674e-06 1.79559e-07
-8.93674e-06 1.62992e-05 -6.41656e-08
1.79559e-07 -6.41656e-08 -4.05779e-05
0.000858664 -4.69274e-05 5.10444e-07
-4.69274e-05 -2.18631e-05 -3.29804e-07
5.10444e-07 -3.29804e-07 -9.42156e-05
0.00144183 -5.31523e-05 -4.8801e-07
-5.31523e-05 0.000157831 1.09441e-07
-4.8801e-07 1.09441e-07 8.34612e-05
0.00144377 -4.66704e-05 -2.81265e-07
-4.66704e-05 8.50532e-05 4.52774e-07
-2.81265e-07 4.52774e-07 4.91401e-06
0.00129185 -6.82907e-05 -6.10444e-07
-6.82907e-05 0.000141271 1.51971e-07
-6.10444e-07 1.51971e-07 5.88858e-05
0.0012626 -5.77223e-05 8.23753e-08
-5.77223e-05 6.13313e-05 1.70512e-07
8.23753e-08 1.70512e-07 -1.53999e-05
0.00125553 -6.45952e-05 3.6663e-07
-6.45952e-05 6.79068e-05 3.81049e-07
3.6663e-07 3.81049e-07 -1.03714e-05
0.000908706 -6.52166e-06 1.4283e-08
-6.52166e-06 1.52815e-05 -7.70781e-08
1.4283e-08 -7.70781e-08 -3.70219e-05
0.000960708 -2.61043e-05 -1.14386e-07
-2.61043e-05 3.25972e-05 -2.03587e-07
-1.14386e-07 -2.03587e-07 -3.62459e-05
0.000902232 7.82124e-06 -1.81815e-07
7.82124e-06 4.20591e-06 8.87199e-08
-1.81815e-07 8.87199e-08 -3.88324e-05
0.00172367 1.38958e-05 2.50511e-06
1.38958e-05 0.000202449 -2.29849e-07
2.50511e-06 -2.29849e-07 0.0001216
0.00152245 -1.02747e-05 3.02182e-06
-1.02747e-05 0.00012337 -2.92233e-07
3.02182e-06 -2.92233e-07 4.54561e-05
0.00165474 1.06453e-05 2.15934e-06
1.06453e-05 0.000149799 1.67231e-07
2.15934e-06 1.67231e-07 6.58574e-05
0.00145372 -2.84284e-05 1.67322e-06
-2.84284e-05 6.37134e-05 -7.62388e-07
1.67322e-06 -7.62388e-07 -1.75828e-05
0.0011382 -5.22526e-05 1.08256e-06
-5.22526e-05 -2.66972e-05 -1.03613e-06
1.08256e-06 -1.03613e-06 -0.000104094
0.00157523 -4.60513e-05 -1.88138e-07
-4.60513e-05 0.000128418 3.90467e-08
-1.88138e-07 3.90467e-08 5.21521e-05
0.000875011 -4.84431e-06 2.86905e-06
-4.84431e-06 8.86669e-06 -1.75797e-06
2.86905e-06 -1.75797e-06 -4.61975e-05
0.0012764 -6.01116e-05 2.16281e-07
-6.01116e-05 4.90346e-05 -3.80481e-07
2.16281e-07 -3.80481e-07 -2.63028e-05
0.000987169 -4.55998e-05 1.23714e-06
-4.55998e-05 5.06977e-05 -5.09693e-07
1.23714e-06 -5.09693e-07 -1.88163e-05
0.000843009 -5.72634e-05 1.57848e-06
-5.72634e-05 -4.2371e-05 -2.04375e-06
1.57848e-06 -2.04375e-06 -0.000124641
0.00139502 -7.45141e-05 1.80238e-06
-7.45141e-05 0.000174461 -2.24001e-07
1.80238e-06 -2.24001e-07 8.762e-05
0.0016214 -7.4145e-05 -3.04896e-07
-7.4145e-05 0.000237637 1.28846e-06
-3.04896e-07 1.28846e-06 0.000163007
0.0009108 1.47487e-05 1.15017e-06
1.47487e-05 5.33274e-06 -2.21064e-06
1.15017e-06 -2.21064e-06 -3.23214e-05
0.00100095 -3.65569e-05 1.66785e-06
-3.65569e-05 5.36503e-05 -5.40671e-07
1.66785e-06 -5.40671e-07 -1.48475e-05
0.000838304 -1.79245e-05 1.5119e-06
-1.79245e-05 -2.79295e-05 -2.04155e-06
1.5119e-06 -2.04155e-06 -9.58452e-05
0.00116455 -5.91549e-05 4.2525e-07
-5.91549e-05 0.000140322 2.83652e-07
4.2525e-07 2.83652e-07 6.24967e-05
0.00105872 3.83445e-05 -3.83874e-06
3.83445e-05 1.5851e-05 -1.90671e-06
-3.83874e-06 -1.90671e-06 -4.99196e-05
0.000798156 -2.39826e-05 -3.57989e-06
-2.39826e-05 -4.51579e-05 -3.79052e-06
-3.57989e-06 -3.79052e-06 -5.7289e-05
0.000749823 -3.0929e-05 -4.45226e-06
-3.0929e-05 -5.34914e-05 -3.77952e-06
-4.45226e-06 -3.77952e-06 -7.14438e-05
0.000913227 -4.87166e-06 -2.42757e-06
-4.87166e-06 1.23511e-05 -2.28611e-06
-2.42757e-06 -2.28611e-06 -3.53965e-05
0.000910936 3.61548e-05 -2.59902e-06
3.61548e-05 1.24854e-06 -1.37998e-06
-2.59902e-06 -1.37998e-06 -5.973e-05
0.00114216 5.50493e-05 -1.8112e-06
5.50493e-05 4.20454e-05 -1.17914e-06
-1.8112e-06 -1.17914e-06 -3.35558e-05
0.000876882 2.91078e-06 -2.78963e-06
2.91078e-06 1.35235e-05 -1.80303e-06
-2.78963e-06 -1.80303e-06 -4.16784e-05
0.0010069 4.55618e-05 -1.45017e-06
4.55618e-05 6.53171e-05 -8.78652e-07
-1.45017e-06 -8.78652e-07 -7.44523e-06
0.00112989 5.60725e-05 -1.27138e-06
5.60725e-05 9.33145e-05 -4.99757e-07
-1.27138e-06 -4.99757e-07 2.38474e-05
0.000909081 5.66929e-05 -1.56959e-06
5.66929e-05 -6.7645e-06 1.78801e-07
-1.56959e-06 1.78801e-07 -8.47932e-05
0.000825836 -2.16905e-05 1.41558e-07
-2.16905e-05 -3.61429e-05 3.45417e-08
1.41558e-07 3.45417e-08 -4.56423e-05
0.000908079 3.25695e-06 -7.07418e-09
3.25695e-06 1.60037e-05 -4.05028e-08
-7.07418e-09 -4.05028e-08 -3.52307e-05
0.000903175 -6.71632e-06 6.82209e-08
-6.71632e-06 3.24606e-06 4.27821e-08
6.82209e-08 4.27821e-08 -4.0431e-05
0.000998574 1.83404e-05 1.51068e-07
1.83404e-05 5.19956e-05 -1.62646e-07
1.51068e-07 -1.62646e-07 -1.45715e-05
0.00123243 4.80295e-05 4.44358e-07
4.80295e-05 5.0029e-05 2.68777e-07
4.44358e-07 2.68777e-07 -2.72354e-05
0.00109273 5.66983e-05 5.01627e-08
5.66983e-05 5.32438e-05 1.87022e-08
5.01627e-08 1.87022e-08 -1.90596e-05
0.0012372 6.09471e-05 -7.02415e-10
6.09471e-05 6.13609e-05 2.19221e-07
-7.02415e-10 2.19221e-07 -2.00229e-05
0.0010211 3.80948e-05 -3.87757e-08
3.80948e-05 7.32937e-05 8.21665e-08
-3.87757e-08 8.21665e-08 3.03682e-06
0.00123934 6.4796e-05 -3.2225e-07
6.4796e-05 0.000133609 -4.34473e-07
-3.2225e-07 -4.34473e-07 5.88664e-05
0.00107499 6.04487e-05 1.93663e-07
6.04487e-05 9.81823e-05 -3.97696e-07
1.93663e-07 -3.97696e-07 1.54866e-05
0.000971829 5.96042e-05 -1.25224e-06
5.96042e-05 1.63228e-05 3.25676e-08
-1.25224e-06 3.25676e-08 -6.33636e-05
0.000854688 -1.94573e-05 2.78574e-06
-1.94573e-05 -2.63846e-05 3.61531e-06
2.78574e-06 3.61531e-06 -3.33628e-05
0.000899549 -8.13618e-06 1.80647e-06
-8.13618e-06 -9.91132e-07 2.34825e-06
1.80647e-06 2.34825e-06 -4.05254e-05
0.00103921 2.75876e-05 1.54718e-06
2.75876e-05 7.36886e-05 4.83614e-07
1.54718e-06 4.83614e-07 6.10999e-06
0.000998925 1.38426e-05 1.13059e-06
1.38426e-05 5.11357e-05 1.13736e-06
1.13059e-06 1.13736e-06 -1.30575e-05
0.00100056 4.67255e-05 9.3881e-07
4.67255e-05 5.69833e-05 -1.06203e-07
9.3881e-07 -1.06203e-07 -2.00489e-05
0.00128947 4.97271e-05 1.42911e-06
4.97271e-05 4.73966e-05 9.59878e-07
1.42911e-06 9.59878e-07 -3.43715e-05
0.00116313 6.35522e-05 5.88515e-07
6.35522e-05 6.79664e-05 1.16903e-06
5.88515e-07 1.16903e-06 -1.01032e-05
0.00129546 6.52586e-05 6.94414e-08
6.52586e-05 7.88582e-05 1.25331e-06
6.94414e-08 1.25331e-06 -5.1949e-06
0.00108626 5.728e-05 1.51843e-06
5.728e-05 0.000108628 1.34315e-06
1.51843e-06 1.34315e-06 2.73667e-05
0.00116426 6.59223e-05 1.22856e-06
6.59223e-05 8.67957e-05 4.20195e-07
1.22856e-06 4.20195e-07 7.86425e-06
0.000741943 5.45072e-05 1.11475e-06
5.45072e-05 -7.86419e-05 -5.92959e-07
1.11475e-06 -5.92959e-07 -0.000169403
0.0009143 -8.58553e-06 1.0677e-06
-8.58553e-06 5.01189e-07 2.12353e-06
1.0677e-06 2.12353e-06 -3.20606e-05
0.000984015 1.12548e-05 3.7571e-07
1.12548e-05 4.12855e-05 1.11937e-06
3.7571e-07 1.11937e-06 -7.6371e-06
0.000924918 -2.32041e-06 7.76446e-07
-2.32041e-06 2.82014e-06 1.84329e-06
7.76446e-07 1.84329e-06 -2.55786e-05
0.00092494 -3.96953e-06 1.21898e-07
-3.96953e-06 4.24742e-06 1.531e-08
1.21898e-07 1.531e-08 -2.60045e-05
0.00144942 -1.82433e-05 2.29819e-06
-1.82433e-05 0.000269851 2.08658e-06
2.29819e-06 2.08658e-06 0.000269984
0.00115407 -1.86476e-05 6.87072e-07
-1.86476e-05 0.000122595 6.77282e-10
6.87072e-07 6.77282e-10 0.000119448
0.00113053 -1.82213e-05 1.61666e-05
-1.82213e-05 0.000112416 6.73987e-06
1.61666e-05 6.73987e-06 0.000125692
0.00239526 -3.00803e-05 6.07983e-07
-3.00803e-05 0.000764414 -5.61713e-08
6.07983e-07 -5.61713e-08 0.000782493
0.00246821 -3.42748e-05 -2.01589e-05
-3.42748e-05 0.000806378 -3.98551e-06
-2.01589e-05 -3.98551e-06 0.000822983
0.000813058 2.2386e-05 2.6828e-06
2.2386e-05 -4.06292e-05 -3.47498e-06
2.6828e-06 -3.47498e-06 -4.9127e-05
0.00250127 3.8622e-05 2.11714e-05
3.8622e-05 0.000830822 -3.80979e-06
2.11714e-05 -3.80979e-06 0.000845751
0.000811222 2.49246e-05 -1.57779e-07
2.49246e-05 -3.61454e-05 4.47826e-08
-1.57779e-07 4.47826e-08 -4.80033e-05
0.00261122 4.25621e-05 -3.80598e-07
4.25621e-05 0.000892868 -8.40238e-08
-3.80598e-07 -8.40238e-08 0.000905626
0.000804761 2.92938e-05 -3.80542e-06
2.92938e-05 -3.18219e-05 3.86577e-06
-3.80542e-06 3.86577e-06 -4.7608e-05
0.00265943 4.68218e-05 -2.55678e-05
4.68218e-05 0.000924664 3.75235e-06
-2.55678e-05 3.75235e-06 0.000935388
0.00112302 3.36547e-05 -4.37417e-06
3.36547e-05 2.27478e-05 -1.9945e-06
-4.37417e-06 -1.9945e-06 -4.49938e-05
0.00117632 1.54337e-05 -5.05453e-06
1.54337e-05 9.90117e-06 -1.59875e-06
-5.05453e-06 -1.59875e-06 -5.95906e-05
0.00136037 2.84715e-05 -2.32729e-06
2.84715e-05 5.8977e-05 -8.37758e-07
-2.32729e-06 -8.37758e-07 -1.98275e-05
0.00145311 1.69358e-06 -2.95865e-06
1.69358e-06 6.75149e-05 -1.00422e-06
-2.95865e-06 -1.00422e-06 -1.44651e-05
0.00122901 5.62263e-06 -5.80418e-06
5.62263e-06 3.36122e-06 -1.23893e-06
-5.80418e-06 -1.23893e-06 -6.92328e-05
0.000763679 5.18844e-07 -9.61369e-06
5.18844e-07 -9.24662e-05 -8.76542e-08
-9.61369e-06 -8.76542e-08 -0.000137938
0.00122848 2.43475e-06 -3.0845e-08
2.43475e-06 6.93789e-07 -3.10094e-07
-3.0845e-08 -3.10094e-07 -7.20539e-05
0.00145229 6.09399e-06 -2.80734e-09
6.09399e-06 5.27972e-05 -1.62498e-07
-2.80734e-09 -1.62498e-07 -3.17121e-05
0.00139128 1.25894e-05 1.01985e-07
1.25894e-05 5.38877e-05 -7.81243e-09
1.01985e-07 -7.81243e-09 -2.59202e-05
0.00152965 -3.61362e-06 -1.80607e-08
-3.61362e-06 7.48069e-05 9.54818e-08
-1.80607e-08 9.54818e-08 -9.04071e-06
0.00129607 3.99894e-05 -3.45613e-08
3.99894e-05 5.22851e-05 -3.88873e-08
-3.45613e-08 -3.88873e-08 -2.58497e-05
0.00144622 3.16725e-05 -1.51528e-08
3.16725e-05 6.73896e-05 1.16126e-07
-1.51528e-08 1.16126e-07 -1.33527e-05
0.00145124 6.90504e-06 3.49821e-06
6.90504e-06 5.06965e-05 -4.27335e-07
3.49821e-06 -4.27335e-07 -3.41799e-05
0.00148693 1.03526e-06 1.55147e-06
1.03526e-06 4.48836e-05 1.08533e-06
1.55147e-06 1.08533e-06 -4.19455e-05
0.00146179 1.54776e-05 1.36311e-06
1.54776e-05 5.37384e-05 5.51331e-07
1.36311e-06 5.51331e-07 -2.81052e-05
0.00166815 -1.00302e-05 1.74052e-06
-1.00302e-05 0.000125205 6.10086e-07
1.74052e-06 6.10086e-07 4.3278e-05
0.00137227 3.9187e-05 6.72231e-07
3.9187e-05 5.77071e-05 1.99004e-07
6.72231e-07 1.99004e-07 -2.31482e-05
0.00149903 2.27564e-05 -1.45288e-06
2.27564e-05 7.05093e-05 8.15487e-07
-1.45288e-06 8.15487e-07 -3.69326e-06
0.000935302 9.988e-06 -5.68541e-06
9.988e-06 -0.000135087 7.85159e-07
-5.68541e-06 7.85159e-07 -0.000207905
0.00149088 -1.19733e-05 -7.50645e-06
-1.19733e-05 0.000173138 1.38898e-06
-7.50645e-06 1.38898e-06 0.00010763
0.00150368 1.36935e-05 -4.40788e-06
1.36935e-05 0.000104824 5.84197e-07
-4.40788e-06 5.84197e-07 2.54649e-05
0.00168318 -3.67253e-05 -2.76037e-06
-3.67253e-05 0.000218115 2.92732e-07
-2.76037e-06 2.92732e-07 0.000140723
0.000787842 3.73846e-05 -3.80737e-06
3.73846e-05 -2.25954e-05 3.55991e-06
-3.80737e-06 3.55991e-06 -4.49645e-05
0.00091969 -1.17132e-05 -2.64277e-06
-1.17132e-05 3.46568e-05 1.62316e-06
-2.64277e-06 1.62316e-06 -2.20865e-05
0.000971587 -4.99594e-05 -9.51843e-07
-4.99594e-05 3.52879e-05 8.60758e-07
-9.51843e-07 8.60758e-07 -3.64317e-05
0.00156873 -5.48221e-05 -2.59841e-06
-5.48221e-05 0.000219592 1.18095e-06
-2.59841e-06 1.18095e-06 0.000145178
0.00127789 -4.3204e-05 -1.57999e-06
-4.3204e-05 1.42799e-06 1.14403e-06
-1.57999e-06 1.14403e-06 -7.85981e-05
0.00126473 -5.75735e-05 -8.80442e-07
-5.75735e-05 6.22014e-05 8.88398e-07
-8.80442e-07 8.88398e-07 -1.44726e-05
0.00104378 -6.1899e-05 -1.71367e-06
-6.1899e-05 1.88424e-05 1.24884e-06
-1.71367e-06 1.24884e-06 -6.42961e-05
0.00113356 -6.15972e-05 -1.0135e-07
-6.15972e-05 7.85544e-06 4.06829e-08
-1.0135e-07 4.06829e-08 -7.04157e-05
0.000905205 -7.69231e-06 -2.97954e-06
-7.69231e-06 1.22297e-05 1.83815e-06
-2.97954e-06 1.83815e-06 -3.98204e-05
0.000928699 -2.48546e-05 -1.69337e-06
-2.48546e-05 1.52025e-05 7.59783e-07
-1.69337e-06 7.59783e-07 -5.35842e-05
0.000891825 6.73989e-06 -2.03462e-06
6.73989e-06 -8.35559e-07 2.43114e-06
-2.03462e-06 2.43114e-06 -4.39669e-05
0.00158134 1.42491e-05 -1.07127e-06
1.42491e-05 0.000129818 3.52709e-07
-1.07127e-06 3.52709e-07 4.78409e-05
0.00151638 -1.56514e-05 -4.46295e-07
-1.56514e-05 0.000119377 3.08543e-08
-4.46295e-07 3.08543e-08 4.16263e-05
0.00153415 1.3003e-05 -4.744e-07
1.3003e-05 8.88238e-05 2.04009e-07
-4.744e-07 2.04009e-07 4.29895e-06
0.00155148 -2.72341e-05 2.29303e-08
-2.72341e-05 0.000112096 -3.43609e-07
2.29303e-08 -3.43609e-07 3.10284e-05
0.000895332 -6.54231e-06 1.27349e-07
-6.54231e-06 1.70103e-05 -9.13067e-08
1.27349e-07 -9.13067e-08 -3.77426e-05
0.00103005 -4.70841e-05 2.01897e-08
-4.70841e-05 7.06066e-05 1.12034e-07
2.01897e-08 1.12034e-07 1.04553e-06
0.000937682 -5.93714e-05 3.33347e-07
-5.93714e-05 7.00262e-06 -4.52197e-07
3.33347e-07 -4.52197e-07 -7.4574e-05
0.00132996 -5.5325e-05 -3.24157e-08
-5.5325e-05 6.93125e-05 -2.56208e-07
-3.24157e-08 -2.56208e-07 -8.03253e-06
0.00146064 -4.45033e-05 3.49879e-07
-4.45033e-05 7.05962e-05 8.34511e-07
3.49879e-07 8.34511e-07 -4.61733e-06
0.00121551 -7.02589e-05 5.25977e-08
-7.02589e-05 8.76425e-05 1.15738e-07
5.25977e-08 1.15738e-07 -3.12938e-07
0.00128782 -5.96372e-05 3.45079e-08
-5.96372e-05 5.433e-05 2.88967e-07
3.45079e-08 2.88967e-07 -2.08651e-05
0.00145941 -7.02009e-05 6.16912e-07
-7.02009e-05 0.000157254 4.24279e-07
6.16912e-07 4.24279e-07 8.35305e-05
0.00102218 -3.5869e-05 4.11382e-08
-3.5869e-05 6.35503e-05 -9.93191e-08
4.11382e-08 -9.93191e-08 -4.74773e-06
0.00109435 -5.70138e-05 -3.32056e-07
-5.70138e-05 0.000103881 2.4238e-07
-3.32056e-07 2.4238e-07 2.56952e-05
0.000899353 1.34705e-05 -1.27633e-07
1.34705e-05 5.65284e-08 8.88093e-08
-1.27633e-07 8.88093e-08 -3.77276e-05
0.000869347 -1.43944e-05 2.20706e-07
-1.43944e-05 -1.33402e-05 -5.41998e-07
2.20706e-07 -5.41998e-07 -8.03573e-05
0.00154946 1.41104e-05 2.63044e-06
1.41104e-05 8.69829e-05 -1.50945e-07
2.63044e-06 -1.50945e-07 -4.2773e-08
0.00163802 -8.17866e-06 2.12388e-06
-8.17866e-06 0.000141894 1.3901e-07
2.12388e-06 1.3901e-07 5.95736e-05
0.00158074 1.55602e-05 1.86224e-06
1.55602e-05 9.59379e-05 3.68612e-07
1.86224e-06 3.68612e-07 9.47981e-06
0.00145954 -2.21103e-05 5.94425e-07
-2.21103e-05 4.40332e-05 -1.4323e-06
5.94425e-07 -1.4323e-06 -3.50628e-05
0.00125688 -5.42873e-05 -2.39879e-07
-5.42873e-05 9.7316e-06 -4.60401e-07
-2.39879e-07 -4.60401e-07 -6.41293e-05
0.00164384 -4.3743e-05 1.54405e-06
-4.3743e-05 0.000138522 -4.76119e-07
1.54405e-06 -4.76119e-07 6.90949e-05
0.000995359 -4.21577e-05 1.40893e-06
-4.21577e-05 5.45767e-05 -3.16476e-07
1.40893e-06 -3.16476e-07 -1.38352e-05
0.0012773 -5.99451e-05 -9.69497e-07
-5.99451e-05 3.65568e-05 1.65792e-07
-9.69497e-07 1.65792e-07 -3.10802e-05
0.000823807 -5.39632e-05 6.45151e-07
-5.39632e-05 -3.39332e-05 -1.15948e-06
6.45151e-07 -1.15948e-06 -0.000112011
0.00111228 -6.81754e-05 1.82368e-06
-6.81754e-05 8.27691e-05 -1.94373e-06
1.82368e-06 -1.94373e-06 -7.91587e-06
0.00127469 -7.51518e-05 2.14285e-06
-7.51518e-05 0.000103273 1.19365e-06
2.14285e-06 1.19365e-06 1.22564e-05
0.00169249 -7.59106e-05 8.53047e-07
-7.59106e-05 0.000259792 4.8385e-07
8.53047e-07 4.8385e-07 0.000186848
0.000905266 1.40978e-05 1.09375e-06
1.40978e-05 5.53778e-07 -2.0045e-06
1.09375e-06 -2.0045e-06 -3.35638e-05
0.000801352 -6.77896e-06 9.36207e-07
-6.77896e-06 -4.8865e-05 -2.08407e-06
9.36207e-07 -2.08407e-06 -0.000111051
0.00103126 -5.57895e-05 7.77652e-07
-5.57895e-05 6.92765e-05 3.40116e-07
7.77652e-07 3.40116e-07 -6.51946e-06
0.00103399 -5.4373e-05 1.07409e-06
-5.4373e-05 7.95489e-05 -4.22841e-07
1.07409e-06 -4.22841e-07 -4.98473e-07
0.00116649 -6.12891e-05 4.33171e-07
-6.12891e-05 0.00013751 8.25938e-07
4.33171e-07 8.25938e-07 5.71466e-05
0.000809692 -2.12553e-05 -3.03013e-06
-2.12553e-05 -4.43995e-05 -3.70417e-06
-3.03013e-06 -3.70417e-06 -5.37102e-05
0.00124361 4.86377e-05 -1.55042e-06
4.86377e-05 5.55698e-05 -6.25013e-07
-1.55042e-06 -6.25013e-07 -2.18087e-05
0.00090249 -9.73599e-06 -1.8989e-06
-9.73599e-06 2.72768e-06 -2.40314e-06
-1.8989e-06 -2.40314e-06 -4.08555e-05
0.00090922 4.42682e-06 -2.95951e-06
4.42682e-06 1.82085e-05 -1.985e-06
-2.95951e-06 -1.985e-06 -3.33354e-05
0.000977048 1.75942e-05 -1.20849e-06
1.75942e-05 4.15959e-05 -9.36317e-07
-1.20849e-06 -9.36317e-07 -2.50692e-05
0.0010616 5.63039e-05 -1.49761e-06
5.63039e-05 3.88242e-05 -1.19085e-06
-1.49761e-06 -1.19085e-06 -3.3442e-05
0.00122656 6.0742e-05 -8.25156e-07
6.0742e-05 5.64972e-05 -8.19029e-07
-8.25156e-07 -8.19029e-07 -2.48771e-05
0.000989479 3.94298e-05 -1.36389e-06
3.94298e-05 5.88586e-05 -4.98982e-07
-1.36389e-06 -4.98982e-07 -1.14588e-05
0.0010974 6.1409e-05 -1.21146e-06
6.1409e-05 0.000108891 -8.72794e-07
-1.21146e-06 -8.72794e-07 2.5905e-05
0.00134998 6.76479e-05 -1.24709e-06
6.76479e-05 0.000189181 -9.213e-07
-1.24709e-06 -9.213e-07 0.000114772
0.00102765 6.09838e-05 -2.52876e-06
6.09838e-05 4.6444e-05 7.74567e-07
-2.52876e-06 7.74567e-07 -3.1996e-05
0.000838181 -1.91344e-05 1.23516e-07
-1.91344e-05 -3.47235e-05 3.91145e-08
1.23516e-07 3.91145e-08 -4.15567e-05
0.000903527 -9.21045e-06 4.21129e-08
-9.21045e-06 6.82342e-07 5.13883e-08
4.21129e-08 5.13883e-08 -3.87311e-05
0.00101316 2.74825e-05 3.11415e-08
2.74825e-05 6.14809e-05 -4.55641e-08
3.11415e-08 -4.55641e-08 -6.17374e-06
0.000988283 1.32225e-05 8.00016e-08
1.32225e-05 4.63112e-05 -6.23773e-08
8.00016e-08 -6.23773e-08 -1.79763e-05
0.000978259 4.62197e-05 9.51887e-08
4.62197e-05 4.58784e-05 -2.04299e-07
9.51887e-08 -2.04299e-07 -3.12447e-05
0.00131115 5.05594e-05 5.68045e-07
5.05594e-05 5.75676e-05 4.79282e-07
5.68045e-07 4.79282e-07 -2.42896e-05
0.00115552 6.36839e-05 1.25772e-07
6.36839e-05 6.46593e-05 -6.36082e-08
1.25772e-07 -6.36082e-08 -1.34438e-05
0.00125724 6.54012e-05 6.8057e-07
6.54012e-05 5.9704e-05 4.0025e-07
6.8057e-07 4.0025e-07 -2.46887e-05
0.00105493 5.6901e-05 4.92414e-07
5.6901e-05 9.41213e-05 4.96799e-07
4.92414e-07 4.96799e-07 1.28979e-05
0.00123575 6.73219e-05 9.48376e-08
6.73219e-05 0.000122824 -3.84628e-07
9.48376e-08 -3.84628e-07 4.42178e-05
0.000952423 6.04458e-05 -8.72875e-07
6.04458e-05 2.3798e-05 -4.86755e-07
-8.72875e-07 -4.86755e-07 -6.63043e-05
0.000905601 -8.92055e-06 1.42399e-06
-8.92055e-06 -9.16474e-07 2.28556e-06
1.42399e-06 2.28556e-06 -3.65989e-05
0.000980029 1.106e-05 9.49688e-07
1.106e-05 3.9893e-05 1.31626e-06
9.49688e-07 1.31626e-06 -2.043e-05
0.00104923 5.32628e-05 6.34216e-07
5.32628e-05 8.15146e-05 -8.94493e-08
6.34216e-07 -8.94493e-08 3.5567e-06
0.00104349 4.1381e-05 6.90984e-07
4.1381e-05 7.94356e-05 3.04544e-07
6.90984e-07 3.04544e-07 3.66492e-06
0.00104723 5.42818e-05 -1.96404e-08
5.42818e-05 8.32881e-05 -6.88124e-07
-1.96404e-08 -6.88124e-07 1.43791e-06
0.00130018 4.98475e-05 -1.17946e-06
4.98475e-05 3.69015e-05 -1.3722e-07
-1.17946e-06 -1.3722e-07 -4.53552e-05
0.00118349 6.90492e-05 1.07999e-06
6.90492e-05 6.71336e-05 1.03878e-06
1.07999e-06 1.03878e-06 -1.44461e-05
0.00107025 6.79125e-05 -3.5765e-07
6.79125e-05 -3.07952e-05 1.19578e-07
-3.5765e-07 1.19578e-07 -0.000114235
0.00103222 6.12865e-05 6.78314e-07
6.12865e-05 8.37184e-05 1.71333e-06
6.78314e-07 1.71333e-06 -7.02903e-06
0.00118544 7.03288e-05 2.3631e-06
7.03288e-05 0.000108133 4.70132e-08
2.3631e-06 4.70132e-08 1.48712e-05
0.000917326 -7.52779e-06 1.02169e-07
-7.52779e-06 2.11101e-06 2.45256e-08
1.02169e-07 2.45256e-08 -3.04099e-05
0.000817211 1.81065e-06 6.83873e-07
1.81065e-06 -4.53253e-05 1.82533e-06
6.83873e-07 1.82533e-06 -9.85495e-05
0.000901545 5.05032e-06 -3.10467e-07
5.05032e-06 -1.05634e-06 3.98973e-08
-3.10467e-07 3.98973e-08 -5.06753e-05
0.00118038 1.75892e-05 3.39332e-07
1.75892e-05 0.000147398 2.5325e-07
3.39332e-07 2.5325e-07 8.62029e-05
0.000956717 7.56789e-06 7.3357e-07
7.56789e-06 2.93724e-05 1.06445e-06
7.3357e-07 1.06445e-06 -1.83279e-05
0.000937672 1.96191e-06 6.43646e-07
1.96191e-06 8.2768e-06 1.79619e-06
6.43646e-07 1.79619e-06 -1.87885e-05
0.000932857 -2.77529e-06 1.22314e-07
-2.77529e-06 7.15639e-06 1.51598e-08
1.22314e-07 1.51598e-08 -2.13218e-05
0.00143854 -1.51183e-05 1.78332e-06
-1.51183e-05 0.000260442 2.02396e-06
1.78332e-06 2.02396e-06 0.000262256
0.00093179 -2.34858e-06 -1.03769e-06
-2.34858e-06 8.03115e-06 -1.90595e-06
-1.03769e-06 -1.90595e-06 -2.22722e-05
0.00146799 -1.72046e-05 -2.76744e-06
-1.72046e-05 0.000279063 -1.24895e-06
-2.76744e-06 -1.24895e-06 0.000279372
0.00113021 -1.57662e-05 1.3789e-05
-1.57662e-05 0.000107002 6.552e-06
1.3789e-05 6.552e-06 0.000121899
0.00146263 -1.90669e-05 -7.47914e-06
-1.90669e-05 0.000280505 -3.32943e-06
-7.47914e-06 -3.32943e-06 0.000279126
0.00171296 -2.23352e-05 1.18243e-05
-2.23352e-05 0.000410586 2.34434e-06
1.18243e-05 2.34434e-06 0.000427045
0.00239739 -3.02407e-05 -1.79442e-05
-3.02407e-05 0.000764888 -3.98168e-06
-1.79442e-05 -3.98168e-06 0.000783132
0.00082343 2.06174e-05 2.25154e-06
2.06174e-05 -4.0124e-05 -3.31417e-06
2.25154e-06 -3.31417e-06 -4.61485e-05
0.000828061 2.26446e-05 -1.61692e-07
2.26446e-05 -3.31577e-05 4.10236e-08
-1.61692e-07 4.10236e-08 -4.18163e-05
0.00240702 3.46871e-05 1.88135e-05
3.46871e-05 0.000777067 -3.79473e-06
1.88135e-05 -3.79473e-06 0.000793847
0.00250997 3.84162e-05 -4.36363e-07
3.84162e-05 0.000835764 -6.93461e-08
-4.36363e-07 -6.93461e-08 0.000850459
0.000825723 2.56714e-05 -3.41398e-06
2.56714e-05 -2.847e-05 3.81142e-06
-3.41398e-06 3.81142e-06 -4.06126e-05
0.00260939 4.24418e-05 -2.45577e-05
4.24418e-05 0.000892607 3.91441e-06
-2.45577e-05 3.91441e-06 0.000905143
0.00130821 4.03671e-05 -2.13161e-06
4.03671e-05 5.81649e-05 -8.18063e-07
-2.13161e-06 -8.18063e-07 -2.00516e-05
0.00140458 1.26906e-05 -2.61369e-06
1.26906e-05 6.05106e-05 -9.01771e-07
-2.61369e-06 -9.01771e-07 -1.93025e-05
0.00146054 3.22535e-05 -9.49644e-07
3.22535e-05 7.46174e-05 -3.71065e-07
-9.49644e-07 -3.71065e-07 -6.17277e-06
0.0015246 -4.49535e-06 -1.56369e-06
-4.49535e-06 7.07045e-05 -6.85556e-07
-1.56369e-06 -6.85556e-07 -1.32862e-05
0.00147367 9.38228e-06 -3.1019e-06
9.38228e-06 6.32594e-05 -1.02785e-06
-3.1019e-06 -1.02785e-06 -2.12452e-05
0.00123566 7.02622e-06 -5.80462e-06
7.02622e-06 3.7487e-06 -2.05552e-07
-5.80462e-06 -2.05552e-07 -6.8993e-05
0.00146293 1.1372e-05 4.53509e-08
1.1372e-05 5.63321e-05 -4.14248e-07
4.53509e-08 -4.14248e-07 -2.85709e-05
0.00150021 -6.70483e-06 9.16428e-08
-6.70483e-06 5.04864e-05 1.62288e-07
9.16428e-08 1.62288e-07 -3.68618e-05
0.0014872 1.4424e-05 6.40688e-08
1.4424e-05 6.63876e-05 -8.285e-08
6.40688e-08 -8.285e-08 -1.54014e-05
0.00165656 -1.10813e-05 9.67363e-08
-1.10813e-05 0.000118249 -2.06743e-07
9.67363e-08 -2.06743e-07 3.6408e-05
0.00138296 4.01783e-05 -3.39392e-08
4.01783e-05 6.27682e-05 -3.22699e-08
-3.39392e-08 -3.22699e-08 -1.82842e-05
0.00150364 2.2935e-05 -1.49321e-07
2.2935e-05 7.11537e-05 9.23808e-07
-1.49321e-07 9.23808e-07 -2.62161e-06
0.00152952 8.58391e-07 2.47269e-06
8.58391e-07 6.49611e-05 -1.59711e-07
2.47269e-06 -1.59711e-07 -2.3813e-05
0.00155294 3.65889e-08 1.49432e-06
3.65889e-08 6.82314e-05 6.91007e-07
1.49432e-06 6.91007e-07 -1.92459e-05
0.00136704 6.22392e-06 4.83851e-07
6.22392e-06 -2.01272e-05 1.80719e-06
4.83851e-07 1.80719e-06 -9.72406e-05
0.00184614 -1.74435e-05 1.51711e-06
-1.74435e-05 0.000203859 5.55167e-07
1.51711e-06 5.55167e-07 0.000122171
0.00133309 3.52442e-05 -1.16667e-06
3.52442e-05 1.48519e-05 -7.03641e-07
-1.16667e-06 -7.03641e-07 -6.24297e-05
0.00176139 1.65903e-05 6.18705e-09
1.65903e-05 0.00017563 5.14211e-07
6.18705e-09 5.14211e-07 0.000108756
0.00143041 1.37832e-05 -4.35445e-06
1.37832e-05 5.28791e-05 8.13536e-07
-4.35445e-06 8.13536e-07 -3.02067e-05
0.00150795 -1.76932e-05 -3.9163e-06
-1.76932e-05 0.000114458 3.83863e-07
-3.9163e-06 3.83863e-07 3.68265e-05
0.00142001 1.32406e-05 -2.93901e-06
1.32406e-05 3.09527e-05 1.25578e-07
-2.93901e-06 1.25578e-07 -5.41488e-05
0.00164415 -2.6455e-05 -1.9921e-06
-2.6455e-05 0.0001579 7.0671e-08
-1.9921e-06 7.0671e-08 7.70787e-05
0.000912609 -8.22474e-06 -2.81543e-06
-8.22474e-06 2.37049e-05 1.58965e-06
-2.81543e-06 1.58965e-06 -3.0746e-05
0.00107088 -4.86422e-05 -1.44062e-06
-4.86422e-05 8.95788e-05 8.41154e-07
-1.44062e-06 8.41154e-07 1.99526e-05
0.00101944 -6.10499e-05 -7.40989e-07
-6.10499e-05 5.02614e-05 1.03132e-06
-7.40989e-07 1.03132e-06 -3.06246e-05
0.00152293 -5.83628e-05 -1.02457e-06
-5.83628e-05 0.000165909 5.95254e-07
-1.02457e-06 5.95254e-07 8.86195e-05
0.00134312 -4.29016e-05 -3.10722e-07
-4.29016e-05 1.13051e-05 1.09678e-06
-3.10722e-07 1.09678e-06 -6.28469e-05
0.00129977 -5.92144e-05 1.06302e-07
-5.92144e-05 5.9904e-05 8.92666e-07
1.06302e-07 8.92666e-07 -1.51545e-05
0.00104178 -6.61438e-05 -1.6222e-06
-6.61438e-05 3.57271e-06 8.40892e-07
-1.6222e-06 8.40892e-07 -8.54961e-05
0.00129697 -6.6239e-05 6.89234e-07
-6.6239e-05 7.65361e-05 -1.65732e-06
6.89234e-07 -1.65732e-06 3.73422e-06
0.00104245 -3.64783e-05 -1.59634e-06
-3.64783e-05 7.3032e-05 4.11005e-07
-1.59634e-06 4.11005e-07 4.88882e-06
0.00102726 -5.49982e-05 -1.51887e-06
-5.49982e-05 6.89018e-05 6.03965e-08
-1.51887e-06 6.03965e-08 -9.64416e-06
0.000886308 1.28211e-05 -1.4937e-06
1.28211e-05 -5.97866e-06 2.31088e-06
-1.4937e-06 2.31088e-06 -4.39348e-05
0.000901937 -1.0285e-05 -7.31399e-07
-1.0285e-05 2.08477e-06 9.89414e-07
-7.31399e-07 9.89414e-07 -6.40775e-05
0.00154287 1.44514e-05 -9.59352e-08
1.44514e-05 8.3956e-05 1.42096e-07
-9.59352e-08 1.42096e-07 -3.03444e-06
0.0016363 -5.79509e-06 -3.21649e-07
-5.79509e-06 0.000141453 1.16349e-07
-3.21649e-07 1.16349e-07 5.93401e-05
0.00153586 1.54124e-05 -6.97651e-07
1.54124e-05 7.52643e-05 2.44409e-07
-6.97651e-07 2.44409e-07 -1.1281e-05
0.0015043 -2.29031e-05 -2.14649e-07
-2.29031e-05 6.62222e-05 -3.04315e-07
-2.14649e-07 -3.04315e-07 -1.27426e-05
0.00102721 -4.33441e-05 5.32482e-08
-4.33441e-05 6.92431e-05 -2.06333e-08
5.32482e-08 -2.06333e-08 8.83327e-07
0.000890362 -5.51055e-05 3.18317e-07
-5.51055e-05 -1.47121e-07 -1.96687e-07
3.18317e-07 -1.96687e-07 -7.74856e-05
0.0011206 -6.82242e-05 4.70312e-08
-6.82242e-05 8.81021e-05 -1.50653e-07
4.70312e-08 -1.50653e-07 -2.82314e-06
0.00138024 -5.59273e-05 -5.76924e-07
-5.59273e-05 7.10547e-05 -1.79212e-07
-5.76924e-07 -1.79212e-07 -3.55784e-06
0.00147857 -4.28838e-05 3.42492e-07
-4.28838e-05 6.37986e-05 7.47425e-07
3.42492e-07 7.47425e-07 -3.52636e-06
0.00128261 -7.4927e-05 -7.19908e-08
-7.4927e-05 0.000108723 5.38438e-07
-7.19908e-08 5.38438e-07 1.68792e-05
0.00129533 -5.97507e-05 1.26751e-08
-5.97507e-05 4.64098e-05 5.71638e-07
1.26751e-08 5.71638e-07 -2.11761e-05
0.00141627 -6.98239e-05 7.26896e-07
-6.98239e-05 0.000122763 -1.77573e-06
7.26896e-07 -1.77573e-06 5.23184e-05
0.00105929 -5.64896e-05 1.2315e-07
-5.64896e-05 8.27706e-05 5.85001e-09
1.2315e-07 5.85001e-09 6.99539e-06
0.00111769 -5.97743e-05 -9.8236e-09
-5.97743e-05 0.000112187 9.45281e-08
-9.8236e-09 9.45281e-08 3.19518e-05
0.00104821 -5.02301e-05 -2.52703e-07
-5.02301e-05 8.64893e-05 1.74495e-07
-2.52703e-07 1.74495e-07 6.49044e-06
0.000768323 1.81564e-05 -2.60365e-07
1.81564e-05 -6.88036e-05 3.04545e-08
-2.60365e-07 3.04545e-08 -0.00010402
0.000846539 -1.72185e-06 2.22449e-07
-1.72185e-06 -2.77439e-05 -4.59031e-07
2.22449e-07 -4.59031e-07 -8.88766e-05
0.00161632 2.05381e-05 2.13629e-06
2.05381e-05 0.000105617 2.22302e-07
2.13629e-06 2.22302e-07 1.64262e-05
0.00156506 9.17887e-06 2.37834e-06
9.17887e-06 7.76153e-05 1.20367e-07
2.37834e-06 1.20367e-07 -8.10101e-06
0.00153312 -2.59403e-05 1.93337e-06
-2.59403e-05 6.0287e-05 -2.28809e-06
1.93337e-06 -2.28809e-06 -1.3344e-05
0.00130628 -4.92662e-05 7.46131e-07
-4.92662e-05 2.03977e-06 -1.39738e-06
7.46131e-07 -1.39738e-06 -6.26603e-05
0.00102461 -5.69214e-05 4.31559e-07
-5.69214e-05 6.80629e-05 1.15991e-07
4.31559e-07 1.15991e-07 -6.95886e-06
0.00164887 -6.80024e-05 5.257e-07
-6.80024e-05 0.000196021 2.48326e-07
5.257e-07 2.48326e-07 0.00013666
0.000637928 -5.11157e-05 6.59657e-07
-5.11157e-05 -0.000123199 -2.12753e-06
6.59657e-07 -2.12753e-06 -0.000207853
0.00118394 -7.42861e-05 3.01843e-06
-7.42861e-05 0.000106129 -1.99856e-06
3.01843e-06 -1.99856e-06 4.48487e-06
0.00140836 -7.99134e-05 2.55286e-06
-7.99134e-05 0.00014815 1.35742e-06
2.55286e-06 1.35742e-06 5.4405e-05
0.000677557 1.42497e-05 9.22778e-07
1.42497e-05 -0.000117569 -2.50989e-06
9.22778e-07 -2.50989e-06 -0.000150906
0.00105446 -2.09972e-06 9.67075e-07
-2.09972e-06 7.783e-05 -1.26542e-06
9.67075e-07 -1.26542e-06 2.27061e-05
0.00102172 -4.07037e-05 6.69836e-07
-4.07037e-05 7.24793e-05 -7.73776e-07
6.69836e-07 -7.73776e-07 -2.09946e-06
0.00106283 -5.83588e-05 2.97984e-07
-5.83588e-05 8.28321e-05 5.63844e-07
2.97984e-07 5.63844e-07 5.29367e-06
0.00113322 -6.0501e-05 8.34741e-07
-6.0501e-05 0.000130056 6.24516e-07
8.34741e-07 6.24516e-07 4.26781e-05
0.00106113 -5.89345e-05 2.82842e-07
-5.89345e-05 7.90659e-05 4.09689e-07
2.82842e-07 4.09689e-07 -2.7474e-06
0.000822769 -1.8839e-05 -2.53912e-06
-1.8839e-05 -4.24923e-05 -3.58423e-06
-2.53912e-06 -3.58423e-06 -4.91851e-05
0.000910195 -9.80229e-06 -1.63688e-06
-9.80229e-06 3.76758e-06 -2.35833e-06
-1.63688e-06 -2.35833e-06 -3.5583e-05
0.00133427 5.14923e-05 -4.92786e-07
5.14923e-05 6.83825e-05 -4.18867e-08
-4.92786e-07 -4.18867e-08 -1.3561e-05
0.000978501 1.24696e-05 -1.04128e-06
1.24696e-05 4.19299e-05 -1.29652e-06
-1.04128e-06 -1.29652e-06 -2.24628e-05
0.000984646 2.83097e-05 -1.42538e-06
2.83097e-05 4.79378e-05 -4.4853e-07
-1.42538e-06 -4.4853e-07 -1.96895e-05
0.000955762 4.51643e-05 -5.78464e-07
4.51643e-05 3.46126e-05 -1.23082e-07
-5.78464e-07 -1.23082e-07 -4.25547e-05
0.00114698 6.37533e-05 -6.67949e-07
6.37533e-05 6.09199e-05 -1.38523e-06
-6.67949e-07 -1.38523e-06 -1.72139e-05
0.00121862 6.54512e-05 1.59658e-08
6.54512e-05 4.03547e-05 -6.87361e-07
1.59658e-08 -6.87361e-07 -4.43669e-05
0.00101654 5.62907e-05 -3.29471e-07
5.62907e-05 7.60033e-05 -2.47332e-07
-3.29471e-07 -2.47332e-07 -5.15078e-06
0.00115423 6.60958e-05 -1.41616e-06
6.60958e-05 0.000121992 -1.69925e-07
-1.41616e-06 -1.69925e-07 3.2562e-05
0.0013037 6.8647e-05 -1.83829e-06
6.8647e-05 0.000157262 -7.40045e-07
-1.83829e-06 -7.40045e-07 7.89674e-05
0.000911092 -9.00681e-06 1.49958e-07
-9.00681e-06 1.61439e-06 4.03373e-08
1.49958e-07 4.03373e-08 -3.39778e-05
0.0009836 1.04752e-05 3.72675e-08
1.04752e-05 4.1962e-05 -1.05841e-08
3.72675e-08 -1.05841e-08 -1.84298e-05
0.00105384 5.35934e-05 -2.09531e-07
5.35934e-05 8.47348e-05 -1.85431e-07
-2.09531e-07 -1.85431e-07 7.20756e-06
0.00104076 4.24441e-05 -1.85724e-08
4.24441e-05 7.85516e-05 -4.06511e-08
-1.85724e-08 -4.06511e-08 2.50456e-06
0.00100217 5.37553e-05 -2.99323e-07
5.37553e-05 6.16448e-05 -7.71704e-08
-2.99323e-07 -7.71704e-08 -2.0706e-05
0.00133147 5.20121e-05 -4.05847e-07
5.20121e-05 5.33628e-05 2.92965e-08
-4.05847e-07 2.92965e-08 -2.94872e-05
0.00119488 6.89982e-05 5.57453e-07
6.89982e-05 7.14976e-05 -1.47053e-07
5.57453e-07 -1.47053e-07 -1.01542e-05
0.00119536 6.95113e-05 2.84942e-07
6.95113e-05 2.8234e-05 4.83735e-07
2.84942e-07 4.83735e-07 -5.47195e-05
0.000912606 5.79933e-05 3.81399e-07
5.79933e-05 2.43178e-05 7.45063e-07
3.81399e-07 7.45063e-07 -6.68649e-05
0.00120531 7.10463e-05 -9.19496e-08
7.10463e-05 0.00011862 -2.55195e-07
-9.19496e-08 -2.55195e-07 2.37294e-05
0.000972074 9.17097e-06 8.40319e-07
9.17097e-06 3.43234e-05 1.40249e-06
8.40319e-07 1.40249e-06 -2.17063e-05
0.000934683 3.43764e-05 1.08403e-06
3.43764e-05 2.18678e-05 9.35917e-07
1.08403e-06 9.35917e-07 -5.24259e-05
0.00113413 6.28139e-05 -6.47248e-08
6.28139e-05 0.000128061 -3.20025e-08
-6.47248e-08 -3.20025e-08 4.28704e-05
0.000954058 5.16931e-05 3.15666e-07
5.16931e-05 3.65673e-05 -2.91446e-07
3.15666e-07 -2.91446e-07 -4.70603e-05
0.00101496 5.65208e-05 -2.12732e-07
5.65208e-05 6.32554e-05 -6.36283e-07
-2.12732e-07 -6.36283e-07 -2.19289e-05
0.00130784 5.24965e-05 -3.51545e-07
5.24965e-05 2.49016e-06 -3.63609e-07
-3.51545e-07 -3.63609e-07 -6.49788e-05
0.00138816 7.95842e-05 1.31802e-06
7.95842e-05 0.000165131 7.05237e-08
1.31802e-06 7.05237e-08 7.28444e-05
0.000556534 5.99955e-05 7.35566e-07
5.99955e-05 -0.000304967 -1.33929e-07
7.35566e-07 -1.33929e-07 -0.000388501
0.00144181 7.501e-05 2.37768e-06
7.501e-05 0.000274492 2.74305e-06
2.37768e-06 2.74305e-06 0.000176609
0.000416725 5.41535e-05 5.13447e-07
5.41535e-05 -0.000276939 2.87148e-07
5.13447e-07 2.87148e-07 -0.00038344
0.00092125 -5.36166e-06 -1.20267e-06
-5.36166e-06 4.16572e-06 -2.03073e-06
-1.20267e-06 -2.03073e-06 -2.83145e-05
0.00088472 5.91138e-06 3.81138e-07
5.91138e-06 -1.02999e-05 5.99795e-07
3.81138e-07 5.99795e-07 -6.33232e-05
0.000901368 1.64799e-05 5.83282e-07
1.64799e-05 3.37952e-06 1.28195e-06
5.83282e-07 1.28195e-06 -6.31475e-05
0.000821164 -2.5817e-06 -4.8389e-07
-2.5817e-06 -4.24104e-05 -1.09931e-06
-4.8389e-07 -1.09931e-06 -9.26982e-05
0.000963298 1.17665e-05 1.4157e-07
1.17665e-05 3.28222e-05 4.0478e-09
1.4157e-07 4.0478e-09 -1.49687e-05
0.00104375 1.04718e-05 -8.75341e-08
1.04718e-05 7.67668e-05 -5.00798e-07
-8.75341e-08 -5.00798e-07 1.48556e-05
0.00114179 2.62426e-05 2.69037e-07
2.62426e-05 0.000131018 1.88944e-07
2.69037e-07 1.88944e-07 5.93128e-05
0.00087862 -4.20368e-06 1.47685e-07
-4.20368e-06 -5.72767e-06 1.06607e-06
1.47685e-07 1.06607e-06 -6.73222e-05
0.000957641 -1.25244e-05 1.03173e-07
-1.25244e-05 3.03601e-05 1.0197e-06
1.03173e-07 1.0197e-06 -1.57782e-05
0.000943499 5.82195e-06 6.48289e-07
5.82195e-06 1.06713e-05 1.72e-06
6.48289e-07 1.72e-06 -1.57705e-05
0.000937808 -2.87373e-06 -1.10776e-07
-2.87373e-06 8.55181e-06 2.90642e-08
-1.10776e-07 2.90642e-08 -1.85396e-05
0.00142712 -1.16009e-05 1.33076e-06
-1.16009e-05 0.000251033 1.96306e-06
1.33076e-06 1.96306e-06 0.000254271
0.000939146 -2.93094e-06 -5.58045e-07
-2.93094e-06 1.06287e-05 -1.8565e-06
-5.58045e-07 -1.8565e-06 -1.79035e-05
0.00145439 -1.42305e-05 -2.2531e-06
-1.42305e-05 0.000268435 -1.22459e-06
-2.2531e-06 -1.22459e-06 0.000270377
0.00112135 -1.32294e-05 1.11483e-05
-1.32294e-05 9.81844e-05 6.42284e-06
1.11483e-05 6.42284e-06 0.000114449
0.0014857 -1.64519e-05 -6.69358e-06
-1.64519e-05 0.000287842 -4.5344e-06
-6.69358e-06 -4.5344e-06 0.000288297
0.0010701 -1.67156e-05 4.51856e-06
-1.67156e-05 7.64863e-05 2.49105e-06
4.51856e-06 2.49105e-06 9.14028e-05
0.00228258 -2.90991e-05 -5.4877e-06
-2.90991e-05 0.000702265 -1.66485e-06
-5.4877e-06 -1.66485e-06 0.000721729
0.000832597 1.85818e-05 1.86265e-06
1.85818e-05 -4.0168e-05 -3.26552e-06
1.86265e-06 -3.26552e-06 -4.4174e-05
0.000839647 2.07112e-05 -1.15734e-07
2.07112e-05 -3.22049e-05 3.59676e-08
-1.15734e-07 3.59676e-08 -3.83154e-05
0.00233806 3.0731e-05 1.66103e-05
3.0731e-05 0.000736103 -3.8058e-06
1.66103e-05 -3.8058e-06 0.000754529
0.000842042 2.29223e-05 -3.01079e-06
2.29223e-05 -2.62125e-05 3.57109e-06
-3.01079e-06 3.57109e-06 -3.50274e-05
0.0024143 3.44528e-05 -5.84312e-07
3.44528e-05 0.000781347 -6.14611e-08
-5.84312e-07 -6.14611e-08 0.000797922
0.00251692 3.818e-05 -2.27449e-05
3.818e-05 0.000839849 3.9699e-06
-2.27449e-05 3.9699e-06 0.000854315
0.00139264 4.1102e-05 -1.1429e-06
4.1102e-05 6.73542e-05 -3.78263e-07
-1.1429e-06 -3.78263e-07 -1.38959e-05
0.00151781 1.24944e-05 -1.06253e-06
1.24944e-05 8.16109e-05 -6.89379e-07
-1.06253e-06 -6.89379e-07 -1.09337e-07
0.00150988 2.31262e-05 1.33037e-06
2.31262e-05 7.25626e-05 1.00209e-07
1.33037e-06 1.00209e-07 -7.79779e-07
0.00164419 -1.22219e-05 -1.27202e-06
-1.22219e-05 0.000110955 -8.36698e-07
-1.27202e-06 -8.36698e-07 2.91945e-05
0.00151977 -1.13986e-05 -1.67499e-06
-1.13986e-05 5.9127e-05 -7.42259e-07
-1.67499e-06 -7.42259e-07 -2.87436e-05
0.00147143 1.47601e-05 -3.21395e-06
1.47601e-05 6.04222e-05 -3.61579e-07
-3.21395e-06 -3.61579e-07 -2.44901e-05
0.00153755 4.53667e-06 1.13482e-07
4.53667e-06 6.85116e-05 -2.8497e-07
1.13482e-07 -2.8497e-07 -2.04145e-05
0.00156231 -4.04163e-06 2.01534e-07
-4.04163e-06 7.36948e-05 -1.58369e-07
2.01534e-07 -1.58369e-07 -1.36322e-05
0.00144377 4.60637e-06 -1.55917e-07
4.60637e-06 1.57902e-05 1.26081e-07
-1.55917e-07 1.26081e-07 -6.19987e-05
0.0016717 -1.69969e-05 -2.22316e-07
-1.69969e-05 0.000117848 -4.82623e-07
-2.22316e-07 -4.82623e-07 3.57474e-05
0.00138979 3.64722e-05 -3.14961e-07
3.64722e-05 4.45701e-05 -5.60509e-08
-3.14961e-07 -5.60509e-08 -3.31283e-05
0.00157662 1.66534e-05 1.7016e-06
1.66534e-05 8.5458e-05 -4.81546e-07
1.7016e-06 -4.81546e-07 2.13909e-05
0.00156396 1.17327e-05 1.41229e-06
1.17327e-05 7.34845e-05 4.11862e-07
1.41229e-06 4.11862e-07 -1.64498e-05
0.00158765 -1.17688e-05 1.59679e-06
-1.17688e-05 8.51444e-05 6.58819e-07
1.59679e-06 6.58819e-07 -1.26742e-06
0.00157544 -3.79489e-06 7.03492e-07
-3.79489e-06 6.50802e-05 1.94962e-06
7.03492e-07 1.94962e-06 -8.89312e-06
0.00154083 3.23746e-05 -7.79382e-07
3.23746e-05 7.91964e-05 -1.64235e-07
-7.79382e-07 -1.64235e-07 1.76825e-05
0.00153567 1.47471e-05 -2.30539e-06
1.47471e-05 8.06295e-05 4.45487e-07
-2.30539e-06 4.45487e-07 -6.32437e-06
0.0016407 -5.1215e-06 -3.08134e-06
-5.1215e-06 0.000143929 2.13445e-07
-3.08134e-06 2.13445e-07 6.20247e-05
0.00147575 1.51609e-05 -3.23748e-06
1.51609e-05 4.72332e-05 1.42041e-07
-3.23748e-06 1.42041e-07 -3.94112e-05
0.00155265 -2.33155e-05 -1.32367e-06
-2.33155e-05 9.01228e-05 5.59565e-07
-1.32367e-06 5.59565e-07 1.1289e-05
0.00105747 -4.29633e-05 -1.41197e-06
-4.29633e-05 8.30377e-05 3.62266e-07
-1.41197e-06 3.62266e-07 1.48075e-05
0.000976654 -5.68471e-05 -1.27028e-07
-5.68471e-05 4.31301e-05 5.15662e-07
-1.27028e-07 5.15662e-07 -3.34783e-05
0.00112698 -6.82164e-05 -1.35664e-06
-6.82164e-05 9.26146e-05 2.0794e-06
-1.35664e-06 2.0794e-06 1.4364e-06
0.0015049 -5.75479e-05 -6.02841e-07
-5.75479e-05 0.000133006 5.12394e-07
-6.02841e-07 5.12394e-07 5.7644e-05
0.00132834 -4.22002e-05 -4.9794e-07
-4.22002e-05 -3.5632e-06 2.16164e-06
-4.9794e-07 2.16164e-06 -6.88031e-05
0.00130514 -5.94353e-05 8.07027e-07
-5.94353e-05 5.23238e-05 1.02026e-06
8.07027e-07 1.02026e-06 -1.52126e-05
0.00129078 -7.46987e-05 -2.02756e-06
-7.46987e-05 0.000114244 1.61278e-07
-2.02756e-06 1.61278e-07 2.15784e-05
0.00116409 -6.41909e-05 -1.50585e-06
-6.41909e-05 -2.27373e-06 -4.66775e-06
-1.50585e-06 -4.66775e-06 -7.02811e-05
0.00108682 -5.72778e-05 -7.05223e-07
-5.72778e-05 9.60146e-05 -1.77343e-07
-7.05223e-07 -1.77343e-07 2.0254e-05
0.00106672 -5.81871e-05 -1.15074e-06
-5.81871e-05 8.57549e-05 -7.68615e-07
-1.15074e-06 -7.68615e-07 5.65819e-06
0.00106292 -4.53081e-05 -9.47487e-07
-4.53081e-05 9.35825e-05 9.2891e-07
-9.47487e-07 9.2891e-07 1.37409e-05
0.000634341 1.7857e-05 -1.00506e-06
1.7857e-05 -0.000136872 2.08515e-06
-1.00506e-06 2.08515e-06 -0.000173064
0.0008961 4.09912e-06 -2.7313e-07
4.09912e-06 -4.58736e-06 9.58357e-07
-2.7313e-07 9.58357e-07 -6.45738e-05
0.00154313 1.92163e-05 -6.20606e-08
1.92163e-05 7.08908e-05 2.74173e-08
-6.20606e-08 2.74173e-08 -1.79598e-05
0.00160138 8.3092e-06 -1.94957e-07
8.3092e-06 9.72186e-05 1.48526e-07
-1.94957e-07 1.48526e-07 1.17974e-05
0.00159338 -2.63117e-05 -8.63834e-07
-2.63117e-05 9.41803e-05 1.96684e-07
-8.63834e-07 1.96684e-07 2.09649e-05
0.00106555 -5.76319e-05 3.73874e-08
-5.76319e-05 8.71653e-05 1.1169e-07
3.73874e-08 1.1169e-07 1.21445e-05
0.000914144 -5.8598e-05 6.04847e-07
-5.8598e-05 1.25102e-05 -4.92191e-07
6.04847e-07 -4.92191e-07 -7.12907e-05
0.00115386 -7.3183e-05 -1.18365e-07
-7.3183e-05 9.4062e-05 -2.46292e-07
-1.18365e-07 -2.46292e-07 -8.09782e-06
0.00138323 -4.99486e-05 3.22467e-07
-4.99486e-05 3.88572e-05 -4.01818e-07
3.22467e-07 -4.01818e-07 -2.68909e-05
0.00135479 -7.67257e-05 -1.76825e-07
-7.67257e-05 0.000123586 -4.94302e-07
-1.76825e-07 -4.94302e-07 3.26938e-05
0.00137781 -6.54868e-05 -5.59609e-07
-6.54868e-05 6.48342e-05 -6.69297e-07
-5.59609e-07 -6.69297e-07 4.89984e-06
0.000669668 1.84164e-05 -1.24359e-08
1.84164e-05 -0.000121517 -6.15976e-07
-1.24359e-08 -6.15976e-07 -0.000154572
0.00107603 -5.87183e-05 5.16384e-08
-5.87183e-05 8.94199e-05 1.24768e-07
5.16384e-08 1.24768e-07 1.17223e-05
0.00103054 -5.78544e-05 -8.10674e-07
-5.78544e-05 6.42389e-05 -4.86071e-08
-8.10674e-07 -4.86071e-08 -1.66446e-05
0.00112823 -5.79648e-05 -3.90647e-07
-5.79648e-05 0.000127168 4.97415e-07
-3.90647e-07 4.97415e-07 3.9834e-05
0.00109794 -4.06237e-05 -2.41501e-08
-4.06237e-05 0.000110252 2.92385e-08
-2.41501e-08 2.92385e-08 3.60791e-05
0.000945753 -1.0045e-06 8.35374e-08
-1.0045e-06 2.15888e-05 1.80729e-07
8.35374e-08 1.80729e-07 -3.39499e-05
0.00167295 2.28701e-05 2.32299e-06
2.28701e-05 0.000129433 6.14667e-07
2.32299e-06 6.14667e-07 4.04796e-05
0.00161463 8.82897e-06 2.57927e-06
8.82897e-06 8.40564e-05 -2.11873e-07
2.57927e-06 -2.11873e-07 -8.19372e-07
0.00136986 -3.18855e-05 2.38884e-06
-3.18855e-05 -2.33631e-05 -3.13642e-06
2.38884e-06 -3.13642e-06 -9.03963e-05
0.00157646 -5.9318e-05 1.33043e-06
-5.9318e-05 9.42151e-05 -1.5109e-06
1.33043e-06 -1.5109e-06 4.30136e-05
0.00104649 -5.94045e-05 2.42743e-07
-5.94045e-05 7.81877e-05 -1.7875e-07
2.42743e-07 -1.7875e-07 -6.56546e-07
0.00142803 -7.69104e-05 3.25959e-06
-7.69104e-05 0.00010525 2.13363e-06
3.25959e-06 2.13363e-06 2.687e-05
0.000862856 -6.09785e-05 4.20582e-07
-6.09785e-05 -1.55614e-05 -2.87878e-06
4.20582e-07 -2.87878e-06 -0.000112462
0.00140829 -8.30386e-05 2.42963e-06
-8.30386e-05 0.000208442 -6.45477e-07
2.42963e-06 -6.45477e-07 9.75779e-05
0.000678265 1.40103e-05 7.1651e-07
1.40103e-05 -0.000118974 -2.40514e-06
7.1651e-07 -2.40514e-06 -0.000149821
0.00107576 -3.19403e-07 8.79985e-07
-3.19403e-07 8.77785e-05 -1.22841e-06
8.79985e-07 -1.22841e-06 3.74679e-05
0.00117333 -3.48549e-05 5.84061e-08
-3.48549e-05 0.000145391 1.11536e-07
5.84061e-08 1.11536e-07 7.62715e-05
0.00104597 -4.49786e-05 6.42439e-07
-4.49786e-05 8.80161e-05 -1.03407e-06
6.42439e-07 -1.03407e-06 1.00022e-06
0.00105294 -5.92448e-05 2.59916e-07
-5.92448e-05 7.68752e-05 1.30723e-07
2.59916e-07 1.30723e-07 -4.01598e-06
0.00105093 -5.91049e-05 8.51924e-07
-5.91049e-05 7.99107e-05 9.61402e-07
8.51924e-07 9.61402e-07 -7.90952e-06
0.000914036 -9.2449e-06 -1.32213e-06
-9.2449e-06 2.80686e-06 -2.21406e-06
-1.32213e-06 -2.21406e-06 -3.26835e-05
0.000987704 9.76003e-06 -9.17657e-07
9.76003e-06 4.43062e-05 -1.45185e-06
-9.17657e-07 -1.45185e-06 -1.61457e-05
0.00136308 5.42577e-05 -8.04586e-08
5.42577e-05 7.00355e-05 5.97386e-08
-8.04586e-08 5.97386e-08 -1.34227e-05
0.00103864 4.34438e-05 -8.70457e-07
4.34438e-05 7.79444e-05 -4.69299e-07
-8.70457e-07 -4.69299e-07 1.64442e-06
0.00106179 5.40721e-05 -5.35482e-07
5.40721e-05 8.97012e-05 -3.21561e-08
-5.35482e-07 -3.21561e-08 1.25831e-05
0.000960893 5.29017e-05 -5.96634e-07
5.29017e-05 4.19259e-05 1.29393e-07
-5.96634e-07 1.29393e-07 -4.09107e-05
0.00120843 6.90177e-05 -8.89323e-07
6.90177e-05 7.68937e-05 -1.4674e-06
-8.89323e-07 -1.4674e-06 -4.83298e-06
0.00133206 7.14095e-05 1.38074e-07
7.14095e-05 9.28886e-05 9.15251e-10
1.38074e-07 9.15251e-10 1.04024e-05
0.000795665 5.48186e-05 -2.82271e-07
5.48186e-05 -3.36426e-05 -2.87649e-07
-2.82271e-07 -2.87649e-07 -0.000125285
0.00123318 7.20443e-05 -1.60925e-06
7.20443e-05 0.000132897 -4.37447e-07
-1.60925e-06 -4.37447e-07 3.63797e-05
0.000977393 8.16813e-06 3.91801e-08
8.16813e-06 3.70264e-05 3.27956e-08
3.91801e-08 3.27956e-08 -1.90125e-05
0.00098553 3.79092e-05 4.18289e-07
3.79092e-05 4.84344e-05 3.41023e-07
4.18289e-07 3.41023e-07 -2.60084e-05
0.00114093 6.29322e-05 -1.50143e-07
6.29322e-05 0.000132528 -5.38166e-07
-1.50143e-07 -5.38166e-07 4.7987e-05
0.00101685 5.24786e-05 -2.46326e-07
5.24786e-05 6.91412e-05 -2.3139e-08
-2.46326e-07 -2.3139e-08 -1.42387e-05
0.00101092 5.63787e-05 -8.46115e-07
5.63787e-05 6.43601e-05 -3.51444e-07
-8.46115e-07 -3.51444e-07 -2.04835e-05
0.0016172 5.55434e-05 -6.81294e-07
5.55434e-05 0.000153481 -4.18866e-07
-6.81294e-07 -4.18866e-07 8.61361e-05
0.0014184 8.00626e-05 8.50962e-07
8.00626e-05 0.000176635 7.5197e-08
8.50962e-07 7.5197e-08 8.52344e-05
0.000937918 6.75986e-05 -5.39046e-07
6.75986e-05 -0.000110779 5.77573e-07
-5.39046e-07 5.77573e-07 -0.000192333
0.0012305 6.92287e-05 1.04227e-06
6.92287e-05 0.000171125 1.07529e-06
1.04227e-06 1.07529e-06 7.25741e-05
0.000818992 6.49452e-05 -1.36645e-06
6.49452e-05 -7.76447e-05 -4.59654e-07
-1.36645e-06 -4.59654e-07 -0.00018604
0.000944205 2.94013e-05 9.68826e-07
2.94013e-05 2.53529e-05 1.26194e-06
9.68826e-07 1.26194e-06 -4.5145e-05
0.000942177 5.25769e-05 6.77936e-07
5.25769e-05 3.04631e-05 1.0464e-08
6.77936e-07 1.0464e-08 -5.49947e-05
0.00114694 6.41027e-05 2.41789e-07
6.41027e-05 0.000133695 4.27912e-07
2.41789e-07 4.27912e-07 4.1952e-05
0.000836601 5.20593e-05 7.73479e-07
5.20593e-05 -2.31703e-05 -2.56237e-07
7.73479e-07 -2.56237e-07 -0.000112256
0.00210005 4.43103e-05 1.19882e-06
4.43103e-05 0.000282691 1.20787e-06
1.19882e-06 1.20787e-06 0.000226622
0.00108228 6.54339e-05 2.31333e-06
6.54339e-05 -0.000122698 7.65253e-08
2.31333e-06 7.65253e-08 -0.000189448
0.00127198 8.19721e-05 1.61709e-06
8.19721e-05 9.79389e-05 -8.67802e-07
1.61709e-06 -8.67802e-07 -6.61072e-06
0.000756657 6.01345e-05 9.30807e-07
6.01345e-05 -6.62492e-05 2.02363e-06
9.30807e-07 2.02363e-06 -0.000183726
0.000954484 1.0695e-05 -1.63323e-07
1.0695e-05 2.58827e-05 -7.88731e-07
-1.63323e-07 -7.88731e-07 -2.69659e-05
0.000976747 2.28708e-05 1.80428e-07
2.28708e-05 4.2383e-05 4.43147e-07
1.80428e-07 4.43147e-07 -2.40288e-05
0.00105794 3.24598e-05 3.96176e-07
3.24598e-05 8.73711e-05 5.9881e-07
3.96176e-07 5.9881e-07 1.14077e-05
0.000969145 1.39706e-05 -6.21373e-07
1.39706e-05 3.58961e-05 -1.06677e-06
-6.21373e-07 -1.06677e-06 -1.19954e-05
0.000907702 5.71272e-06 -2.41373e-07
5.71272e-06 6.70306e-06 -1.25278e-06
-2.41373e-07 -1.25278e-06 -5.61207e-05
0.000961823 -2.26664e-06 4.5011e-07
-2.26664e-06 3.26543e-05 2.43465e-08
4.5011e-07 2.43465e-08 -1.36818e-05
0.00106176 2.63463e-05 -5.23909e-08
2.63463e-05 8.98342e-05 -4.26078e-07
-5.23909e-08 -4.26078e-07 1.69193e-05
0.000927662 3.72534e-06 2.00531e-07
3.72534e-06 2.00487e-05 4.00452e-07
2.00531e-07 4.00452e-07 -4.15359e-05
0.00112626 3.35938e-05 4.07798e-07
3.35938e-05 0.00012309 3.07011e-07
4.07798e-07 3.07011e-07 4.28817e-05
0.000893985 -4.51207e-06 5.14014e-09
-4.51207e-06 4.9359e-06 9.75055e-07
5.14014e-09 9.75055e-07 -6.65741e-05
0.000878924 2.62085e-05 4.60666e-07
2.62085e-05 -2.65086e-06 1.04786e-06
4.60666e-07 1.04786e-06 -6.40995e-05
0.000976217 -2.00858e-05 -3.77584e-07
-2.00858e-05 3.99359e-05 1.01044e-06
-3.77584e-07 1.01044e-06 -5.46173e-06
0.000929879 7.88402e-06 5.06884e-07
7.88402e-06 4.33438e-06 1.62635e-06
5.06884e-07 1.62635e-06 -2.20429e-05
0.000936034 -2.05867e-06 -2.66494e-07
-2.05867e-06 6.94815e-06 3.0574e-08
-2.66494e-07 3.0574e-08 -1.94459e-05
0.00142087 -7.72961e-06 1.00671e-06
-7.72961e-06 0.000245336 1.89916e-06
1.00671e-06 1.89916e-06 0.000249216
0.000936774 -8.6369e-06 -8.19293e-08
-8.6369e-06 8.19596e-06 -1.77218e-06
-8.19293e-08 -1.77218e-06 -1.89048e-05
0.00144424 -1.08684e-05 -1.75216e-06
-1.08684e-05 0.000259899 -1.19762e-06
-1.75216e-06 -1.19762e-06 0.000263141
0.00111084 -1.0397e-05 8.4603e-06
-1.0397e-05 8.89204e-05 6.28458e-06
8.4603e-06 6.28458e-06 0.000106311
0.00147006 -1.36455e-05 -4.99515e-06
-1.36455e-05 0.000276361 -4.43201e-06
-4.99515e-06 -4.43201e-06 0.000278399
0.00106324 -1.39304e-05 3.31604e-06
-1.39304e-05 6.84939e-05 2.45079e-06
3.31604e-06 2.45079e-06 8.48424e-05
0.00100893 -1.7088e-05 -2.33103e-06
-1.7088e-05 4.54426e-05 -1.63024e-06
-2.33103e-06 -1.63024e-06 6.04446e-05
0.000841107 1.62211e-05 1.5038e-06
1.62211e-05 -4.0508e-05 -3.23174e-06
1.5038e-06 -3.23174e-06 -4.26289e-05
0.000849008 1.86235e-05 -1.14617e-07
1.86235e-05 -3.21245e-05 1.94222e-08
-1.14617e-07 1.94222e-08 -3.61894e-05
0.00228471 2.66297e-05 1.44128e-05
2.66297e-05 0.000703282 -3.82292e-06
1.44128e-05 -3.82292e-06 0.000723187
0.000856175 2.0819e-05 -2.52274e-06
2.0819e-05 -2.41496e-05 3.36384e-06
-2.52274e-06 3.36384e-06 -3.03447e-05
0.00234202 3.06035e-05 -6.53469e-07
3.06035e-05 0.000738746 -5.22648e-08
-6.53469e-07 -5.22648e-08 0.000756997
0.00242114 3.42048e-05 -2.05181e-05
3.42048e-05 0.000785413 3.93805e-06
-2.05181e-05 3.93805e-06 0.000801782
0.0014461 3.77789e-05 7.1365e-07
3.77789e-05 7.4064e-05 5.63699e-07
7.1365e-07 5.63699e-07 -4.04892e-06
0.00151991 2.90222e-06 -7.15939e-07
2.90222e-06 5.14044e-05 -8.12012e-07
-7.15939e-07 -8.12012e-07 -2.7057e-05
0.00139839 1.66737e-05 2.63119e-06
1.66737e-05 -1.54664e-06 -2.2944e-06
2.63119e-06 -2.2944e-06 -6.2804e-05
0.00149872 -1.65086e-05 -1.83222e-06
-1.65086e-05 3.25101e-05 -1.60678e-06
-1.83222e-06 -1.60678e-06 -4.99987e-05
0.00157563 -6.71722e-06 -1.23264e-06
-6.71722e-06 8.10874e-05 -1.00422e-06
-1.23264e-06 -1.00422e-06 -6.13239e-06
0.00153808 3.77887e-06 -1.89973e-06
3.77887e-06 6.84462e-05 -4.60998e-07
-1.89973e-06 -4.60998e-07 -2.06352e-05
0.00157678 1.39752e-05 1.58775e-07
1.39752e-05 8.16379e-05 -4.22247e-08
1.58775e-07 -4.22247e-08 -7.89073e-06
0.0015553 -1.56191e-05 -1.85617e-07
-1.56191e-05 6.96628e-05 3.55034e-08
-1.85617e-07 3.55034e-08 -1.66557e-05
0.00155926 -3.20974e-06 7.4045e-07
-3.20974e-06 5.84968e-05 -2.30503e-07
7.4045e-07 -2.30503e-07 -1.51568e-05
0.00146321 2.92232e-05 1.81649e-08
2.92232e-05 3.76843e-05 -5.18423e-07
1.81649e-08 -5.18423e-07 -2.35647e-05
0.00158368 7.77657e-06 1.37432e-06
7.77657e-06 8.76956e-05 4.34342e-07
1.37432e-06 4.34342e-07 -1.16554e-06
0.00174557 -2.40575e-05 1.74786e-06
-2.40575e-05 0.000154689 9.97415e-07
1.74786e-06 9.97415e-07 7.34707e-05
0.00154115 1.31193e-05 7.21021e-07
1.31193e-05 3.48174e-05 2.58857e-06
7.21021e-07 2.58857e-06 -3.02871e-05
0.00147856 1.80655e-05 -2.65634e-06
1.80655e-05 4.03137e-05 -4.81614e-08
-2.65634e-06 -4.81614e-08 -4.81924e-05
0.00163531 7.55944e-06 -2.46006e-06
7.55944e-06 0.000115723 5.17294e-07
-2.46006e-06 5.17294e-07 3.05922e-05
0.00164739 -2.67385e-05 -1.76458e-06
-2.67385e-05 0.000124945 1.78639e-06
-1.76458e-06 1.78639e-06 5.21612e-05
0.00110051 -5.80742e-05 -5.89163e-07
-5.80742e-05 0.000103337 2.52997e-07
-5.89163e-07 2.52997e-07 2.8334e-05
0.00119977 -6.635e-05 -3.12595e-07
-6.635e-05 0.000152736 9.70362e-07
-3.12595e-07 9.70362e-07 6.97862e-05
0.00112684 -7.2147e-05 -2.06413e-06
-7.2147e-05 8.37035e-05 2.6439e-06
-2.06413e-06 2.6439e-06 -1.89974e-05
0.0014501 -5.05539e-05 -8.66424e-07
-5.05539e-05 7.07447e-05 1.06491e-06
-8.66424e-07 1.06491e-06 3.95974e-06
0.00111732 -6.29994e-05 -2.04993e-06
-6.29994e-05 -6.12668e-05 -6.5158e-07
-2.04993e-06 -6.5158e-07 -0.00012178
0.00130849 -7.3873e-05 -3.12796e-06
-7.3873e-05 0.000102656 -2.49741e-06
-3.12796e-06 -2.49741e-06 1.46009e-05
0.00109057 -5.91162e-05 -4.72347e-07
-5.91162e-05 9.66642e-05 -1.46811e-07
-4.72347e-07 -1.46811e-07 1.88055e-05
0.000990324 -5.64977e-05 -2.07932e-06
-5.64977e-05 4.48125e-05 -5.44996e-07
-2.07932e-06 -5.44996e-07 -3.51426e-05
0.00111953 -5.6484e-05 -9.23418e-07
-5.6484e-05 0.000122548 2.05769e-07
-9.23418e-07 2.05769e-07 3.51715e-05
0.000657455 2.04415e-05 -7.2356e-07
2.04415e-05 -0.000127496 1.22388e-06
-7.2356e-07 1.22388e-06 -0.000160314
0.00116046 -3.94488e-05 -6.1972e-07
-3.94488e-05 0.000140921 9.79019e-07
-6.1972e-07 9.79019e-07 6.73543e-05
0.000829936 2.96449e-06 3.42044e-08
2.96449e-06 -3.78891e-05 1.63857e-06
3.42044e-08 1.63857e-06 -9.40027e-05
0.00161064 2.27126e-05 -1.00875e-08
2.27126e-05 9.90158e-05 -2.42817e-09
-1.00875e-08 -2.42817e-09 1.00372e-05
0.00160837 7.26191e-06 4.85153e-07
7.26191e-06 7.94025e-05 -1.49937e-08
4.85153e-07 -1.49937e-08 -5.44028e-06
0.00145485 -3.22733e-05 -1.66678e-07
-3.22733e-05 1.693e-05 -3.43145e-07
-1.66678e-07 -3.43145e-07 -5.14447e-05
0.00108364 -6.04484e-05 2.4559e-08
-6.04484e-05 9.5483e-05 3.09196e-07
2.4559e-08 3.09196e-07 1.64668e-05
0.00090895 -6.20057e-05 -9.82573e-08
-6.20057e-05 9.3603e-06 1.42888e-07
-9.82573e-08 1.42888e-07 -8.58668e-05
0.00142408 -8.28739e-05 -1.31787e-06
-8.28739e-05 0.000215545 1.3895e-06
-1.31787e-06 1.3895e-06 0.000105431
0.00158666 -6.08025e-05 -1.71325e-07
-6.08025e-05 0.000104519 4.7754e-07
-1.71325e-07 4.7754e-07 5.31983e-05
0.00131998 -7.43921e-05 1.86323e-07
-7.43921e-05 4.9313e-05 -9.03668e-07
1.86323e-07 -9.03668e-07 -2.8647e-05
0.00079853 1.43916e-05 9.2308e-08
1.43916e-05 -5.80056e-05 -5.8016e-07
9.2308e-08 -5.8016e-07 -8.78963e-05
0.00105737 7.6362e-06 -2.1626e-07
7.6362e-06 7.88808e-05 8.55627e-08
-2.1626e-07 8.55627e-08 2.86947e-05
0.000962818 -5.67816e-05 -6.13579e-07
-5.67816e-05 3.32167e-05 2.67764e-07
-6.13579e-07 2.67764e-07 -4.76598e-05
0.00107386 -5.96124e-05 4.14286e-07
-5.96124e-05 9.0958e-05 1.07455e-07
4.14286e-07 1.07455e-07 3.55324e-06
0.00104418 -4.37025e-05 -9.20963e-08
-4.37025e-05 8.72481e-05 -2.75997e-07
-9.20963e-08 -2.75997e-07 8.06087e-07
0.00109933 -3.63495e-05 -6.24416e-07
-3.63495e-05 0.000108147 9.80585e-07
-6.24416e-07 9.80585e-07 3.81395e-05
0.00160569 2.73294e-05 1.99311e-06
2.73294e-05 9.19314e-05 1.2379e-06
1.99311e-06 1.2379e-06 4.98705e-06
0.00164079 -6.03836e-07 2.65733e-06
-6.03836e-07 8.30815e-05 -4.87783e-07
2.65733e-06 -4.87783e-07 2.74187e-06
0.0014651 -4.40709e-05 1.85584e-06
-4.40709e-05 -1.02269e-05 -3.76905e-06
1.85584e-06 -3.76905e-06 -5.78184e-05
0.0021187 -8.25416e-05 2.3277e-06
-8.25416e-05 0.000358332 -6.66613e-07
2.3277e-06 -6.66613e-07 0.000306198
0.000909092 -5.77969e-05 -2.59892e-07
-5.77969e-05 1.73359e-05 -5.73783e-07
-2.59892e-07 -5.73783e-07 -6.87025e-05
0.0014209 -8.56506e-05 2.70933e-06
-8.56506e-05 0.000186153 2.47889e-06
2.70933e-06 2.47889e-06 7.04e-05
0.0014369 -8.00685e-05 1.67847e-06
-8.00685e-05 0.000263592 -3.7512e-06
1.67847e-06 -3.7512e-06 0.000156788
0.000926661 1.14133e-05 5.93473e-07
1.14133e-05 4.52173e-06 -1.78473e-06
5.93473e-07 -1.78473e-06 -2.2535e-05
0.000963403 -2.51571e-05 7.70281e-07
-2.51571e-05 3.30386e-05 -1.14888e-06
7.70281e-07 -1.14888e-06 -1.07666e-05
0.000799191 1.30938e-05 9.82825e-08
1.30938e-05 -5.13551e-05 -1.77874e-06
9.82825e-08 -1.77874e-06 -0.000100439
0.00106487 -2.48334e-05 3.57701e-07
-2.48334e-05 8.91515e-05 -5.37583e-07
3.57701e-07 -5.37583e-07 2.36339e-05
0.000978395 -2.91664e-05 1.46619e-07
-2.91664e-05 5.22017e-05 -9.58782e-07
1.46619e-07 -9.58782e-07 -2.86362e-05
0.00104862 -5.93614e-05 1.9511e-06
-5.93614e-05 9.34471e-05 6.45022e-07
1.9511e-06 6.45022e-07 -2.54958e-06
0.000821133 -5.42571e-05 2.70582e-07
-5.42571e-05 -4.24553e-05 2.69794e-07
2.70582e-07 2.69794e-07 -0.000124161
0.00170985 -7.9868e-05 4.44005e-07
-7.9868e-05 0.000421897 9.57152e-07
4.44005e-07 9.57152e-07 0.000328202
0.000981447 6.74801e-06 -6.01345e-07
6.74801e-06 3.90581e-05 -1.44931e-06
-6.01345e-07 -1.44931e-06 -1.69548e-05
0.00103542 4.21757e-05 -4.76785e-07
4.21757e-05 7.4641e-05 -3.41523e-07
-4.76785e-07 -3.41523e-07 -3.34915e-08
0.00191513 5.83863e-05 2.12232e-07
5.83863e-05 0.000298789 -1.47857e-07
2.12232e-07 -1.47857e-07 0.000231598
0.0010889 5.5392e-05 -7.94814e-07
5.5392e-05 0.000106468 1.04904e-07
-7.94814e-07 1.04904e-07 2.31391e-05
0.00114922 6.31056e-05 -6.52473e-07
6.31056e-05 0.000137515 -1.10857e-06
-6.52473e-07 -1.10857e-06 5.36475e-05
0.000987127 5.55219e-05 -9.50462e-07
5.55219e-05 5.56605e-05 5.47805e-08
-9.50462e-07 5.47805e-08 -2.87844e-05
0.00144098 8.03192e-05 -4.14918e-07
8.03192e-05 0.000184345 -3.65032e-07
-4.14918e-07 -3.65032e-07 9.38504e-05
0.00131554 7.5122e-05 -6.58837e-07
7.5122e-05 8.1064e-05 1.62248e-06
-6.58837e-07 1.62248e-06 1.56681e-06
0.00100867 6.30753e-05 1.21412e-07
6.30753e-05 6.26805e-05 -2.26842e-07
1.21412e-07 -2.26842e-07 -3.65296e-05
0.00118986 7.49342e-05 -3.55197e-06
7.49342e-05 0.000106074 -7.26029e-07
-3.55197e-06 -7.26029e-07 -4.16703e-06
0.000924971 3.07485e-05 3.53543e-07
3.07485e-05 1.61384e-05 4.24238e-07
3.53543e-07 4.24238e-07 -5.50428e-05
0.000995826 5.53051e-05 -3.46857e-07
5.53051e-05 5.78719e-05 -4.86602e-07
-3.46857e-07 -4.86602e-07 -2.70943e-05
0.00112742 6.34409e-05 -2.23461e-07
6.34409e-05 0.000125063 -7.86482e-07
-2.23461e-07 -7.86482e-07 3.40973e-05
0.00102294 5.70894e-05 -9.29969e-08
5.70894e-05 6.92878e-05 -2.78207e-07
-9.29969e-08 -2.78207e-07 -1.95037e-05
0.001884 4.03102e-05 -7.20714e-07
4.03102e-05 0.000177498 -9.5718e-07
-7.20714e-07 -9.5718e-07 0.000122387
0.001266 6.79255e-05 4.16458e-07
6.79255e-05 -2.24405e-05 -2.02729e-08
4.16458e-07 -2.02729e-08 -9.11592e-05
0.00148914 8.71547e-05 -6.5776e-07
8.71547e-05 0.000202292 4.46207e-08
-6.5776e-07 4.46207e-08 9.93707e-05
0.000844773 6.37791e-05 3.65562e-07
6.37791e-05 -2.92014e-05 5.41391e-07
3.65562e-07 5.41391e-07 -0.00014567
0.0010724 4.68558e-05 2.22836e-07
4.68558e-05 9.73042e-05 7.46929e-08
2.22836e-07 7.46929e-08 1.65218e-05
0.00166637 1.09986e-05 2.80347e-06
1.09986e-05 5.97758e-05 3.67038e-06
2.80347e-06 3.67038e-06 -7.62005e-06
0.00117478 6.24365e-05 6.98291e-07
6.24365e-05 0.000150581 3.37109e-07
6.98291e-07 3.37109e-07 5.85588e-05
0.00110889 6.3932e-05 5.32872e-07
6.3932e-05 0.000115974 8.98567e-07
5.32872e-07 8.98567e-07 1.64514e-05
0.00179924 6.89819e-05 3.80602e-06
6.89819e-05 9.77834e-05 1.4454e-06
3.80602e-06 1.4454e-06 4.28724e-05
0.00135877 8.64582e-05 3.89054e-06
8.64582e-05 6.61647e-05 -5.20146e-07
3.89054e-06 -5.20146e-07 -3.3141e-05
0.00162829 8.99029e-05 9.34718e-07
8.99029e-05 0.000337004 2.11883e-06
9.34718e-07 2.11883e-06 0.000212052
0.00104957 2.8559e-05 -6.56901e-07
2.8559e-05 8.00431e-05 -4.28006e-07
-6.56901e-07 -4.28006e-07 1.37755e-05
0.00105394 3.19366e-05 -4.86784e-09
3.19366e-05 8.58142e-05 -5.97048e-08
-4.86784e-09 -5.97048e-08 9.90241e-06
0.00106953 3.94183e-05 5.98048e-07
3.94183e-05 9.67699e-05 3.3027e-07
5.98048e-07 3.3027e-07 1.27557e-05
0.000963505 9.37978e-06 7.54497e-09
9.37978e-06 3.37814e-05 -1.00932e-06
7.54497e-09 -1.00932e-06 -1.2803e-05
0.000979165 1.14468e-05 6.43036e-08
1.14468e-05 4.68115e-05 -2.26353e-07
6.43036e-08 -2.26353e-07 -1.46074e-05
0.000977167 2.36701e-05 -3.78122e-07
2.36701e-05 4.6143e-05 -1.12187e-06
-3.78122e-07 -1.12187e-06 -2.78081e-05
0.000961773 -1.75874e-05 1.80214e-07
-1.75874e-05 3.2681e-05 3.7173e-08
1.80214e-07 3.7173e-08 -1.27942e-05
0.000872682 4.93969e-06 -2.77461e-07
4.93969e-06 -6.64396e-06 3.80059e-07
-2.77461e-07 3.80059e-07 -6.76526e-05
0.00106402 2.81528e-05 9.80888e-08
2.81528e-05 9.04352e-05 -4.70675e-07
9.80888e-08 -4.70675e-07 9.50886e-06
0.00101417 1.44888e-05 1.28702e-07
1.44888e-05 6.74757e-05 4.30017e-07
1.28702e-07 4.30017e-07 -3.88304e-06
0.00113714 4.80486e-05 2.31656e-07
4.80486e-05 0.00012405 -4.56534e-08
2.31656e-07 -4.56534e-08 3.7344e-05
0.000981132 7.26234e-06 1.14151e-07
7.26234e-06 4.58192e-05 7.81421e-07
1.14151e-07 7.81421e-07 -3.365e-05
0.00105527 2.05561e-05 2.30172e-07
2.05561e-05 8.72678e-05 3.11882e-07
2.30172e-07 3.11882e-07 1.81205e-05
0.000978634 2.19139e-05 5.94374e-07
2.19139e-05 5.06282e-05 7.71592e-07
5.94374e-07 7.71592e-07 -9.6185e-06
0.000972367 -6.95802e-06 -3.86883e-07
-6.95802e-06 3.72168e-05 8.98064e-07
-3.86883e-07 8.98064e-07 -7.47489e-06
0.000922867 1.04935e-05 3.37873e-07
1.04935e-05 1.77407e-06 1.5677e-06
3.37873e-07 1.5677e-06 -2.47825e-05
0.000929481 -1.52663e-07 -2.20213e-07
-1.52663e-07 4.17142e-06 1.63702e-08
-2.20213e-07 1.63702e-08 -2.21914e-05
0.00142247 -3.89268e-06 6.49607e-07
-3.89268e-06 0.000244892 1.85321e-06
6.49607e-07 1.85321e-06 0.000248767
0.000930099 -9.75256e-06 7.03134e-09
-9.75256e-06 3.99394e-06 -1.64573e-06
7.03134e-09 -1.64573e-06 -2.23486e-05
0.00144264 -7.12249e-06 -1.2482e-06
-7.12249e-06 0.000256728 -1.19824e-06
-1.2482e-06 -1.19824e-06 0.000260462
0.0011088 -7.2985e-06 5.97938e-06
-7.2985e-06 8.50343e-05 6.27942e-06
5.97938e-06 6.27942e-06 0.000102843
0.0014617 -1.04172e-05 -3.49867e-06
-1.04172e-05 0.000268943 -4.30456e-06
-3.49867e-06 -4.30456e-06 0.000272166
0.00105985 -1.08504e-05 2.18999e-06
-1.08504e-05 6.26833e-05 2.40735e-06
2.18999e-06 2.40735e-06 8.02309e-05
0.00100545 -1.40293e-05 -1.75872e-06
-1.40293e-05 3.89319e-05 -1.57563e-06
-1.75872e-06 -1.57563e-06 5.54262e-05
0.000931163 8.74906e-06 4.1267e-07
8.74906e-06 4.45518e-06 -1.77375e-06
4.1267e-07 -1.77375e-06 -2.06313e-05
0.000850721 1.35083e-05 1.14504e-06
1.35083e-05 -4.02034e-05 -3.18157e-06
1.14504e-06 -3.18157e-06 -4.05096e-05
0.00085868 1.6302e-05 -1.0367e-07
1.6302e-05 -3.17453e-05 2.266e-08
-1.0367e-07 2.266e-08 -3.39465e-05
0.00223723 2.23364e-05 1.22152e-05
2.23364e-05 0.000673908 -3.83549e-06
1.22152e-05 -3.83549e-06 0.000695183
0.000866302 1.86854e-05 -2.1328e-06
1.86854e-05 -2.35931e-05 3.24698e-06
-2.1328e-06 3.24698e-06 -2.77265e-05
0.0022887 2.66079e-05 -7.43672e-07
2.66079e-05 0.000705984 -4.6277e-08
-7.43672e-07 -4.6277e-08 0.000725715
0.00234447 3.03876e-05 -1.81273e-05
3.03876e-05 0.000740615 3.90777e-06
-1.81273e-05 3.90777e-06 0.000758705
0.00138051 2.60779e-05 7.40989e-07
2.60779e-05 -6.31513e-06 -4.99308e-07
7.40989e-07 -4.99308e-07 -6.72953e-05
0.00153576 -2.61261e-06 -7.58571e-07
-2.61261e-06 4.84279e-05 -2.19326e-06
-7.58571e-07 -2.19326e-06 -2.49129e-05
0.00152549 -1.54973e-05 -1.51236e-06
-1.54973e-05 5.52117e-05 -7.49732e-07
-1.51236e-06 -7.49732e-07 -3.0903e-05
0.00158517 1.61764e-05 -1.49514e-06
1.61764e-05 8.76164e-05 -7.22221e-07
-1.49514e-06 -7.22221e-07 -1.45216e-06
0.0015902 8.2098e-06 3.54636e-08
8.2098e-06 9.17886e-05 -1.70094e-08
3.54636e-08 -1.70094e-08 3.16939e-06
0.00168177 -2.26736e-05 -5.7169e-08
-2.26736e-05 0.000123072 -1.04008e-08
-5.7169e-08 -1.04008e-08 4.10478e-05
0.00151677 1.33234e-05 -5.43524e-07
1.33234e-05 2.76327e-05 3.78008e-07
-5.43524e-07 3.78008e-07 -3.60404e-05
0.00159624 1.03991e-06 2.12835e-06
1.03991e-06 9.70454e-05 1.88836e-07
2.12835e-06 1.88836e-07 1.18334e-05
0.00175547 -1.46748e-05 2.05811e-06
-1.46748e-05 0.000143257 1.93746e-06
2.05811e-06 1.93746e-06 6.5643e-05
0.00138388 -1.4818e-05 2.35053e-06
-1.4818e-05 -4.51683e-05 8.08746e-07
2.35053e-06 8.08746e-07 -0.000115109
0.0015505 2.25939e-05 -1.75842e-06
2.25939e-05 6.96278e-05 -3.63227e-07
-1.75842e-06 -3.63227e-07 -1.93751e-05
0.00161191 5.45294e-06 -2.38928e-06
5.45294e-06 7.96691e-05 5.78504e-07
-2.38928e-06 5.78504e-07 -5.15856e-06
0.00155313 -3.27855e-05 -2.50407e-06
-3.27855e-05 6.35025e-05 1.45738e-06
-2.50407e-06 1.45738e-06 -6.20225e-06
0.00111393 -6.13009e-05 -4.95201e-07
-6.13009e-05 0.000109441 9.15759e-07
-4.95201e-07 9.15759e-07 3.02582e-05
0.000942329 -6.26893e-05 -4.20453e-07
-6.26893e-05 2.76925e-05 2.72598e-06
-4.20453e-07 2.72598e-06 -6.58087e-05
0.00138714 -8.12411e-05 -2.70734e-06
-8.12411e-05 0.000196122 3.36494e-06
-2.70734e-06 3.36494e-06 8.68965e-05
0.00155901 -6.18879e-05 1.52e-06
-6.18879e-05 9.67192e-05 2.1827e-06
1.52e-06 2.1827e-06 4.52838e-05
0.00121343 -7.18907e-05 -4.32943e-06
-7.18907e-05 -5.79886e-06 -2.57927e-06
-4.32943e-06 -2.57927e-06 -8.33524e-05
0.000875156 -5.43693e-05 -1.07054e-06
-5.43693e-05 -9.19137e-06 3.16049e-07
-1.07054e-06 3.16049e-07 -9.006e-05
0.00109149 -5.9976e-05 -5.96408e-07
-5.9976e-05 9.93805e-05 -1.14375e-06
-5.96408e-07 -1.14375e-06 1.24003e-05
0.00105353 -3.5435e-05 -1.83545e-07
-3.5435e-05 9.12158e-05 2.76986e-07
-1.83545e-07 2.76986e-07 5.89037e-06
0.00091894 1.43633e-05 -7.11327e-07
1.43633e-05 2.87716e-06 1.24399e-06
-7.11327e-07 1.24399e-06 -2.60291e-05
0.00104524 1.9478e-05 -2.02876e-07
1.9478e-05 7.32091e-05 1.38032e-06
-2.02876e-07 1.38032e-06 2.30143e-05
0.00103797 -2.98125e-05 -1.10978e-06
-2.98125e-05 7.64606e-05 1.95064e-06
-1.10978e-06 1.95064e-06 6.02108e-06
0.0015961 2.73834e-05 2.00026e-07
2.73834e-05 8.792e-05 2.72877e-07
2.00026e-07 2.72877e-07 1.51343e-06
0.000926752 1.1031e-05 -2.99982e-08
1.1031e-05 4.32721e-06 9.76643e-09
-2.99982e-08 9.76643e-09 -2.27196e-05
0.000863448 -1.84624e-06 -4.74042e-07
-1.84624e-06 -1.80461e-05 1.33462e-08
-4.74042e-07 1.33462e-08 -6.1896e-05
0.0017066 -1.05221e-06 1.53619e-07
-1.05221e-06 0.000113371 -9.40057e-08
1.53619e-07 -9.40057e-08 3.31935e-05
0.00137524 -4.47808e-05 -6.16341e-07
-4.47808e-05 -4.87361e-05 -3.52031e-07
-6.16341e-07 -3.52031e-07 -0.000100127
0.000899243 -5.72064e-05 -6.84389e-08
-5.72064e-05 1.31006e-05 8.7133e-07
-6.84389e-08 8.7133e-07 -7.19251e-05
0.00136735 -7.84631e-05 -5.35698e-07
-7.84631e-05 0.000229078 3.61193e-07
-5.35698e-07 3.61193e-07 0.000119778
0.00120642 -7.84793e-05 8.84201e-07
-7.84793e-05 7.50602e-05 1.10271e-06
8.84201e-07 1.10271e-06 -3.7416e-05
0.00174033 -7.83167e-05 2.818e-07
-7.83167e-05 0.000174965 -1.03592e-06
2.818e-07 -1.03592e-06 0.00012274
0.00100813 4.97532e-07 6.47421e-07
4.97532e-07 5.5634e-05 -4.93441e-07
6.47421e-07 -4.93441e-07 7.87093e-06
0.00104468 -1.51733e-05 -5.20161e-07
-1.51733e-05 7.98132e-05 5.10838e-07
-5.20161e-07 5.10838e-07 1.3854e-05
0.00100477 -5.9102e-05 4.07317e-07
-5.9102e-05 4.7589e-05 4.00087e-07
4.07317e-07 4.00087e-07 -3.47658e-05
0.00128278 -6.77848e-05 -8.46575e-07
-6.77848e-05 0.000206744 -4.16985e-07
-8.46575e-07 -4.16985e-07 0.000116643
0.000960258 -4.70625e-05 3.09313e-07
-4.70625e-05 5.00331e-05 3.29069e-07
3.09313e-07 3.29069e-07 -4.65441e-05
0.00101578 -2.38347e-05 2.19747e-07
-2.38347e-05 6.9128e-05 -2.80943e-07
2.19747e-07 -2.80943e-07 -1.12023e-05
0.00158413 2.97164e-05 2.59799e-06
2.97164e-05 7.5989e-05 8.30903e-07
2.59799e-06 8.30903e-07 -4.05269e-06
0.0018742 -1.26685e-05 2.85545e-06
-1.26685e-05 0.000187471 -4.6365e-07
2.85545e-06 -4.6365e-07 0.000117606
0.00182141 -7.15503e-05 -5.09411e-07
-7.15503e-05 0.000122225 -4.0577e-06
-5.09411e-07 -4.0577e-06 9.69716e-05
0.00137867 -8.69477e-05 3.7191e-06
-8.69477e-05 7.4085e-05 1.90005e-06
3.7191e-06 1.90005e-06 -1.44344e-05
0.00112639 -6.38904e-05 -5.0566e-07
-6.38904e-05 0.000123509 -1.46265e-06
-5.0566e-07 -1.46265e-06 3.28685e-05
0.00161009 -9.34993e-05 1.29755e-06
-9.34993e-05 0.000340697 -2.87433e-06
1.29755e-06 -2.87433e-06 0.000209545
0.000770074 1.69772e-05 -4.32718e-07
1.69772e-05 -6.58762e-05 -1.49768e-06
-4.32718e-07 -1.49768e-06 -0.0001083
0.000948279 -8.86993e-06 7.77845e-07
-8.86993e-06 2.51671e-05 -1.21028e-06
7.77845e-07 -1.21028e-06 -1.99832e-05
0.00119276 -1.88062e-05 2.03914e-07
-1.88062e-05 0.00015971 -7.02209e-07
2.03914e-07 -7.02209e-07 0.000103031
0.000874342 1.22417e-05 -5.24441e-07
1.22417e-05 -3.70651e-06 -1.1424e-06
-5.24441e-07 -1.1424e-06 -6.90329e-05
0.00114797 -2.44614e-05 -2.4009e-08
-2.44614e-05 0.000135197 -6.33419e-07
-2.4009e-08 -6.33419e-07 5.91917e-05
0.000873387 -2.85421e-05 6.93848e-08
-2.85421e-05 5.34683e-06 -3.74621e-07
6.93848e-08 -3.74621e-07 -8.51104e-05
0.00120143 -5.11547e-05 2.76352e-06
-5.11547e-05 0.000182027 -4.68718e-07
2.76352e-06 -4.68718e-07 7.78403e-05
0.000973659 -6.41578e-05 -4.5235e-07
-6.41578e-05 5.78454e-05 3.99061e-07
-4.5235e-07 3.99061e-07 -3.21067e-05
0.000907916 3.28903e-05 -3.15367e-07
3.28903e-05 8.18123e-06 -4.35023e-07
-3.15367e-07 -4.35023e-07 -6.37578e-05
0.0010479 5.64055e-05 -1.38819e-06
5.64055e-05 8.4287e-05 -7.4374e-07
-1.38819e-06 -7.4374e-07 -1.80266e-08
0.00166676 3.63969e-05 -3.13202e-06
3.63969e-05 7.19667e-05 -3.34101e-06
-3.13202e-06 -3.34101e-06 1.77643e-05
0.00150109 7.10434e-05 -1.36593e-06
7.10434e-05 0.000103271 8.21327e-07
-1.36593e-06 8.21327e-07 3.24756e-05
0.00122228 6.26619e-05 -1.04844e-06
6.26619e-05 0.000168094 -1.29689e-08
-1.04844e-06 -1.29689e-08 7.95671e-05
0.00112671 6.32527e-05 -9.64287e-07
6.32527e-05 0.000125861 -1.80636e-06
-9.64287e-07 -1.80636e-06 3.56304e-05
0.0017617 9.37513e-05 -1.52832e-06
9.37513e-05 0.000334513 -6.40984e-08
-1.52832e-06 -6.40984e-08 0.000233073
0.000958354 6.78898e-05 -6.74514e-07
6.78898e-05 2.12371e-05 -1.55609e-06
-6.74514e-07 -1.55609e-06 -9.47765e-05
0.00104419 4.91896e-05 -3.01849e-07
4.91896e-05 8.41212e-05 -4.28935e-07
-3.01849e-07 -4.28935e-07 3.05784e-06
0.00146723 9.7783e-06 9.2059e-07
9.7783e-06 -3.85346e-05 8.55735e-07
9.2059e-07 8.55735e-07 -0.000105179
0.00107588 5.95057e-05 2.93895e-07
5.95057e-05 0.000101284 4.36115e-07
2.93895e-07 4.36115e-07 9.65271e-06
0.000959599 5.95004e-05 2.66286e-07
5.95004e-05 3.87844e-05 -3.23995e-07
2.66286e-07 -3.23995e-07 -6.20522e-05
0.001598 6.39664e-05 5.68693e-07
6.39664e-05 2.50047e-06 -2.53797e-07
5.68693e-07 -2.53797e-07 -5.30892e-05
0.00155586 9.29238e-05 7.07025e-07
9.29238e-05 0.000155556 -5.19572e-07
7.07025e-07 -5.19572e-07 5.70387e-05
0.0015744 8.87061e-05 9.55089e-08
8.87061e-05 0.000314932 4.45228e-07
9.55089e-08 4.45228e-07 0.000189668
0.0011169 5.35515e-05 2.85845e-07
5.35515e-05 0.000125631 1.95417e-07
2.85845e-07 1.95417e-07 3.60484e-05
0.00184408 4.0197e-05 4.48996e-06
4.0197e-05 4.57837e-05 1.03846e-06
4.48996e-06 1.03846e-06 -1.03681e-05
0.00139523 7.01588e-05 -2.93032e-08
7.01588e-05 0.000250608 -3.57111e-07
-2.93032e-08 -3.57111e-07 0.000154807
0.00160631 8.24296e-05 -1.4715e-06
8.24296e-05 0.000354992 1.82494e-06
-1.4715e-06 1.82494e-06 0.000238901
0.00123841 9.31496e-05 4.20029e-06
9.31496e-05 -0.000138729 9.13382e-07
4.20029e-06 9.13382e-07 -0.000216484
0.00108595 8.26055e-05 6.7225e-08
8.26055e-05 2.79777e-05 2.42149e-06
6.7225e-08 2.42149e-06 -9.90141e-05
0.00240659 1.06677e-05 9.85833e-06
1.06677e-05 0.00039923 -2.56177e-06
9.85833e-06 -2.56177e-06 0.000396637
0.00105235 3.23786e-05 -4.19338e-07
3.23786e-05 8.54891e-05 -6.84499e-07
-4.19338e-07 -6.84499e-07 9.56056e-06
0.00104692 3.99974e-05 1.05097e-08
3.99974e-05 8.64897e-05 -9.86158e-08
1.05097e-08 -9.86158e-08 2.3584e-06
0.00117085 5.25563e-05 4.07362e-07
5.25563e-05 0.000142645 -9.19403e-08
4.07362e-07 -9.19403e-08 5.35418e-05
0.000951139 -1.36485e-05 3.94274e-07
-1.36485e-05 2.72927e-05 -9.32033e-07
3.94274e-07 -9.32033e-07 -1.82149e-05
0.00086953 -1.35398e-05 -5.30991e-08
-1.35398e-05 -8.68539e-06 -2.55229e-07
-5.30991e-08 -2.55229e-07 -6.95067e-05
0.00113346 3.33028e-05 -4.63232e-07
3.33028e-05 0.000129772 -1.06386e-07
-4.63232e-07 -1.06386e-07 5.8458e-05
0.000998267 2.43012e-05 -3.69683e-07
2.43012e-05 5.62339e-05 -1.15216e-06
-3.69683e-07 -1.15216e-06 -2.54974e-05
0.000964439 -1.58435e-05 -2.84539e-07
-1.58435e-05 3.41811e-05 1.94219e-08
-2.84539e-07 1.94219e-08 -1.11881e-05
0.000923826 9.06673e-06 1.99506e-07
9.06673e-06 2.06511e-05 4.18592e-08
1.99506e-07 4.18592e-08 -3.90202e-05
0.0010757 4.24725e-05 -4.18158e-07
4.24725e-05 9.22688e-05 -7.54369e-07
-4.18158e-07 -7.54369e-07 5.68111e-06
0.00104816 9.60655e-06 -1.74493e-07
9.60655e-06 8.37302e-05 -6.84617e-08
-1.74493e-07 -6.84617e-08 1.45856e-05
0.00104869 1.14265e-05 1.48239e-07
1.14265e-05 8.17612e-05 -3.23006e-09
1.48239e-07 -3.23006e-09 2.86406e-06
0.00109095 3.71138e-05 -3.39571e-08
3.71138e-05 9.18366e-05 7.7192e-07
-3.39571e-08 7.7192e-07 4.70726e-06
0.00111477 3.32788e-05 2.46123e-07
3.32788e-05 0.000118456 4.68758e-08
2.46123e-07 4.68758e-08 4.18423e-05
0.00111056 2.86386e-05 2.43201e-07
2.86386e-05 0.000115301 1.48119e-07
2.43201e-07 1.48119e-07 4.70159e-05
0.000820856 9.03779e-06 -2.66096e-07
9.03779e-06 -3.17087e-05 7.24987e-07
-2.66096e-07 7.24987e-07 -9.19477e-05
0.000789118 1.13517e-05 4.82667e-07
1.13517e-05 -5.52831e-05 1.27236e-06
4.82667e-07 1.27236e-06 -0.000101743
0.00115952 -1.21199e-06 2.4302e-07
-1.21199e-06 0.000143285 1.79145e-07
2.4302e-07 1.79145e-07 8.32313e-05
0.000789072 7.04784e-07 -2.75609e-07
7.04784e-07 -5.48463e-05 1.28589e-06
-2.75609e-07 1.28589e-06 -0.000101416
0.000926511 1.16434e-05 2.52959e-07
1.16434e-05 4.10675e-06 1.58507e-06
2.52959e-07 1.58507e-06 -2.26527e-05
0.000924326 1.58e-06 -2.82232e-07
1.58e-06 2.55778e-06 4.27384e-09
-2.82232e-07 4.27384e-09 -2.39882e-05
0.000876042 2.48934e-07 1.39625e-07
2.48934e-07 -3.5594e-05 3.01274e-06
1.39625e-07 3.01274e-06 -3.46745e-05
0.000928787 -8.42646e-06 2.33107e-07
-8.42646e-06 3.87066e-06 -1.61398e-06
2.33107e-07 -1.61398e-06 -2.24812e-05
0.00116127 -3.21805e-06 -7.25368e-07
-3.21805e-06 0.000111121 -1.22937e-06
-7.25368e-07 -1.22937e-06 0.000113439
0.00220652 -5.01761e-06 3.43374e-06
-5.01761e-06 0.000646181 3.94632e-06
3.43374e-06 3.94632e-06 0.000669831
0.00146377 -6.78033e-06 -2.13433e-06
-6.78033e-06 0.000267799 -4.24125e-06
-2.13433e-06 -4.24125e-06 0.000271377
0.00106524 -7.50452e-06 1.15161e-06
-7.50452e-06 6.23698e-05 2.40137e-06
1.15161e-06 2.40137e-06 8.04156e-05
0.00100867 -1.0746e-05 -1.23989e-06
-1.0746e-05 3.63369e-05 -1.52286e-06
-1.23989e-06 -1.52286e-06 5.4087e-05
0.00093822 5.83153e-06 3.28778e-07
5.83153e-06 6.03079e-06 -1.72847e-06
3.28778e-07 -1.72847e-06 -1.74712e-05
0.000931915 8.39702e-06 -2.5338e-08
8.39702e-06 4.56737e-06 4.42031e-09
-2.5338e-08 4.42031e-09 -2.0488e-05
0.000860547 1.04981e-05 7.65798e-07
1.04981e-05 -3.91132e-05 -3.1396e-06
7.65798e-07 -3.1396e-06 -3.77886e-05
0.00114835 1.47306e-05 -4.35231e-07
1.47306e-05 0.000112241 2.68305e-08
-4.35231e-07 2.68305e-08 0.000113225
0.00219579 1.79214e-05 9.92578e-06
1.79214e-05 0.000648229 -3.84954e-06
9.92578e-06 -3.84954e-06 0.000670716
0.000875679 1.63792e-05 -1.7266e-06
1.63792e-05 -2.32626e-05 3.2093e-06
-1.7266e-06 3.2093e-06 -2.55422e-05
0.0022399 2.24134e-05 -8.25263e-07
2.24134e-05 0.000675917 -3.8844e-08
-8.25263e-07 -3.8844e-08 0.00069702
0.00229077 2.65201e-05 -1.57701e-05
2.65201e-05 0.000707681 3.89095e-06
-1.57701e-05 3.89095e-06 0.000727257
0.00149545 1.34661e-05 -1.45424e-06
1.34661e-05 2.174e-05 -2.03262e-06
-1.45424e-06 -2.03262e-06 -4.0479e-05
0.00162396 -2.07429e-05 -1.42358e-06
-2.07429e-05 9.43882e-05 -6.62678e-07
-1.42358e-06 -6.62678e-07 1.1565e-05
0.00159731 4.63233e-06 -1.52744e-06
4.63233e-06 9.63464e-05 -6.492e-07
-1.52744e-06 -6.492e-07 7.86483e-06
0.00159832 1.96287e-06 -1.089e-07
1.96287e-06 9.7632e-05 -4.35478e-07
-1.089e-07 -4.35478e-07 1.24088e-05
0.00160984 -1.4309e-05 -2.01317e-07
-1.4309e-05 7.80675e-05 5.72912e-07
-2.01317e-07 5.72912e-07 1.29837e-06
0.00148335 -1.71801e-05 1.30212e-06
-1.71801e-05 1.64612e-05 7.95334e-07
1.30212e-06 7.95334e-07 -5.60908e-05
0.0016096 4.17185e-06 1.9125e-06
4.17185e-06 9.69729e-05 1.10704e-07
1.9125e-06 1.10704e-07 1.99006e-05
0.00186129 -5.12357e-05 -2.51059e-06
-5.12357e-05 8.06827e-05 -6.44806e-06
-2.51059e-06 -6.44806e-06 5.70638e-05
0.00191882 2.61819e-06 3.3519e-06
2.61819e-06 0.000185763 5.5872e-07
3.3519e-06 5.5872e-07 0.000129872
0.000965177 -3.5503e-06 4.4999e-07
-3.5503e-06 3.20887e-05 -9.88618e-07
4.4999e-07 -9.88618e-07 -7.96336e-06
0.00158024 2.73384e-05 -2.32368e-06
2.73384e-05 8.08527e-05 -7.6118e-07
-2.32368e-06 -7.6118e-07 -5.0106e-06
0.00176114 -1.70916e-06 -2.59435e-06
-1.70916e-06 0.000138091 6.70441e-07
-2.59435e-06 6.70441e-07 5.80932e-05
0.00128432 -4.54449e-05 -7.44647e-07
-4.54449e-05 -8.89658e-05 2.79009e-06
-7.44647e-07 2.79009e-06 -0.000143776
0.000899474 -5.69062e-05 9.50065e-08
-5.69062e-05 1.39952e-05 1.44615e-06
9.50065e-08 1.44615e-06 -7.00524e-05
0.00130915 -7.71861e-05 -1.34968e-06
-7.71861e-05 0.000200437 4.41982e-06
-1.34968e-06 4.41982e-06 8.85782e-05
0.000927968 -7.00839e-05 -2.04907e-06
-7.00839e-05 -6.8829e-05 4.81907e-07
-2.04907e-06 4.81907e-07 -0.000178605
0.00143758 -7.49492e-05 -2.50664e-06
-7.49492e-05 2.91019e-05 -2.34824e-06
-2.50664e-06 -2.34824e-06 -2.34594e-05
0.00117109 -6.34883e-05 7.04518e-07
-6.34883e-05 0.000128644 -4.79642e-07
7.04518e-07 -4.79642e-07 4.57307e-05
0.000905812 -5.71505e-05 -4.0772e-06
-5.71505e-05 1.67897e-05 -3.14276e-06
-4.0772e-06 -3.14276e-06 -6.98526e-05
0.000875391 -4.41633e-05 -6.35813e-08
-4.41633e-05 9.48458e-06 8.00433e-07
-6.35813e-08 8.00433e-07 -8.84147e-05
0.000929833 1.07874e-05 -7.11351e-07
1.07874e-05 5.72255e-06 1.81664e-06
-7.11351e-07 1.81664e-06 -2.13357e-05
0.00104959 -2.55459e-05 3.80991e-08
-2.55459e-05 8.49774e-05 2.44336e-07
3.80991e-08 2.44336e-07 4.6869e-06
0.00121593 -1.83464e-05 -3.1658e-07
-1.83464e-05 0.000162406 7.17985e-07
-3.1658e-07 7.17985e-07 0.000115799
0.00102585 -4.82661e-06 -2.49411e-07
-4.82661e-06 7.09719e-05 1.68407e-06
-2.49411e-07 1.68407e-06 4.68579e-06
0.000762927 6.4209e-06 -7.6084e-08
6.4209e-06 -7.0217e-05 1.13293e-06
-7.6084e-08 1.13293e-06 -0.000113633
0.00160585 2.83342e-05 6.06344e-08
2.83342e-05 8.43023e-05 2.05746e-07
6.06344e-08 2.05746e-07 4.50427e-06
0.000876073 2.96464e-06 2.92611e-07
2.96464e-06 -1.2544e-05 -4.46786e-07
2.92611e-07 -4.46786e-07 -5.43971e-05
0.000952114 -1.10744e-05 -1.65276e-07
-1.10744e-05 2.75313e-05 3.07092e-08
-1.65276e-07 3.07092e-08 -1.78768e-05
0.00100547 -7.0367e-06 -6.17489e-07
-7.0367e-06 6.43382e-05 4.62474e-07
-6.17489e-07 4.62474e-07 6.50869e-06
0.00175505 -1.24299e-05 9.35889e-07
-1.24299e-05 0.000121845 4.50224e-07
9.35889e-07 4.50224e-07 5.35889e-05
0.00159071 -7.03922e-05 -1.33128e-06
-7.03922e-05 1.87886e-05 -1.09159e-06
-1.33128e-06 -1.09159e-06 -1.06732e-05
0.0010016 -6.10497e-05 -3.22218e-07
-6.10497e-05 5.64963e-05 6.21129e-07
-3.22218e-07 6.21129e-07 -3.25952e-05
0.00115597 -8.04761e-05 8.85293e-07
-8.04761e-05 0.000122358 -6.02474e-07
8.85293e-07 -6.02474e-07 -9.3032e-06
0.00138146 -8.76325e-05 -1.10596e-07
-8.76325e-05 7.70902e-05 9.23366e-07
-1.10596e-07 9.23366e-07 -1.05266e-05
0.000963214 7.4812e-06 -1.53276e-07
7.4812e-06 4.11086e-05 4.11997e-08
-1.53276e-07 4.11997e-08 -2.28485e-05
0.00111167 -2.74787e-05 -1.61039e-08
-2.74787e-05 0.000117455 -2.5274e-08
-1.61039e-08 -2.5274e-08 4.03157e-05
0.000925083 -6.23901e-05 -1.88283e-06
-6.23901e-05 3.28247e-05 2.33762e-07
-1.88283e-06 2.33762e-07 -5.8175e-05
0.00115923 -4.55864e-05 1.97091e-07
-4.55864e-05 0.000160286 -2.15306e-07
1.97091e-07 -2.15306e-07 5.75884e-05
0.000973002 -3.55831e-05 -1.67232e-08
-3.55831e-05 5.51452e-05 6.34305e-07
-1.67232e-08 6.34305e-07 -3.4793e-05
0.0014508 2.33108e-05 3.06423e-06
2.33108e-05 -1.70281e-05 2.15638e-07
3.06423e-06 2.15638e-07 -9.19889e-05
0.00210386 -4.15931e-05 2.96469e-06
-4.15931e-05 0.000231067 -3.11227e-06
2.96469e-06 -3.11227e-06 0.00020069
0.00196501 -0.000102759 5.68248e-06
-0.000102759 0.000233454 -1.0076e-06
5.68248e-06 -1.0076e-06 0.000173745
0.00153904 -9.82265e-05 9.26342e-07
-9.82265e-05 0.000256565 -1.68858e-06
9.26342e-07 -1.68858e-06 0.000134478
0.00103679 -7.12004e-05 6.46099e-07
-7.12004e-05 9.56984e-05 -2.68157e-06
6.46099e-07 -2.68157e-06 -1.34166e-05
0.000778718 1.44845e-05 5.72815e-08
1.44845e-05 -5.04821e-05 -1.23868e-06
5.72815e-08 -1.23868e-06 -0.000107238
0.000889239 1.45973e-05 3.43435e-07
1.45973e-05 5.39028e-06 -1.26462e-06
3.43435e-07 -1.26462e-06 -5.67697e-05
0.00113829 1.21209e-05 2.9797e-07
1.21209e-05 0.000135044 -1.93647e-07
2.9797e-07 -1.93647e-07 6.6662e-05
0.00106441 -3.62053e-05 6.03054e-07
-3.62053e-05 9.79077e-05 -9.06283e-07
6.03054e-07 -9.06283e-07 2.22385e-05
0.00107153 -3.09453e-05 -7.53839e-09
-3.09453e-05 0.000100549 4.46656e-08
-7.53839e-09 4.46656e-08 1.61115e-05
0.00106425 -3.66726e-05 -1.18924e-07
-3.66726e-05 0.000110923 -1.58793e-06
-1.18924e-07 -1.58793e-06 1.35248e-05
0.000982472 -5.23783e-05 4.43579e-06
-5.23783e-05 9.62413e-05 -1.87251e-07
4.43579e-06 -1.87251e-07 -2.52228e-05
0.0010118 5.08578e-05 -7.58039e-07
5.08578e-05 6.8871e-05 -9.93037e-07
-7.58039e-07 -9.93037e-07 -1.24316e-05
0.00097034 5.64089e-05 -8.01833e-08
5.64089e-05 4.88309e-05 3.52553e-07
-8.01833e-08 3.52553e-07 -4.2416e-05
0.0013113 7.64416e-06 -1.80402e-06
7.64416e-06 -0.000116634 -7.94527e-07
-1.80402e-06 -7.94527e-07 -0.000182389
0.00138652 5.87844e-05 -1.73604e-06
5.87844e-05 -9.86471e-05 -1.90918e-06
-1.73604e-06 -1.90918e-06 -0.000154725
0.00172945 9.91714e-05 -2.48548e-06
9.91714e-05 0.000232918 -5.48621e-07
-2.48548e-06 -5.48621e-07 0.000135223
0.000811969 5.52753e-05 -9.55819e-08
5.52753e-05 -3.75991e-05 -1.10788e-06
-9.55819e-08 -1.10788e-06 -0.000139517
0.00144371 8.56088e-05 -3.07134e-07
8.56088e-05 0.000254076 -8.24679e-07
-3.07134e-07 -8.24679e-07 0.000129266
0.00111092 5.46658e-05 9.8501e-08
5.46658e-05 0.000123309 9.48997e-08
9.8501e-08 9.48997e-08 3.42301e-05
0.00164766 3.99706e-05 -1.6211e-06
3.99706e-05 -5.61488e-05 1.31199e-07
-1.6211e-06 1.31199e-07 -0.000112643
0.00119256 6.37637e-05 -3.58159e-07
6.37637e-05 0.000152108 -3.51348e-07
-3.58159e-07 -3.51348e-07 5.69666e-05
0.00125949 7.14533e-05 -2.69805e-07
7.14533e-05 0.000191967 4.40395e-07
-2.69805e-07 4.40395e-07 7.60244e-05
0.00157265 9.56064e-05 1.7999e-06
9.56064e-05 1.23436e-05 -9.46611e-07
1.7999e-06 -9.46611e-07 -6.33489e-05
0.00124515 8.73253e-05 -9.1831e-07
8.73253e-05 0.000113975 9.88009e-07
-9.1831e-07 9.88009e-07 -1.8855e-05
0.00180253 4.42049e-07 -3.74708e-06
4.42049e-07 4.93013e-05 -3.04687e-06
-3.74708e-06 -3.04687e-06 4.59921e-05
0.0011505 5.95392e-05 -4.75224e-07
5.95392e-05 0.000137217 -8.5057e-07
-4.75224e-07 -8.5057e-07 4.41033e-05
0.00199521 0.000110528 9.89918e-06
0.000110528 0.000107926 3.35869e-06
9.89918e-06 3.35869e-06 4.24873e-05
0.00129658 6.91734e-05 -1.50194e-06
6.91734e-05 0.000211363 -7.24673e-07
-1.50194e-06 -7.24673e-07 0.000110853
0.00103756 7.11322e-05 -1.60934e-06
7.11322e-05 0.000109791 1.41665e-06
-1.60934e-06 1.41665e-06 -3.03748e-05
0.00069624 9.97088e-05 1.85043e-07
9.97088e-05 -0.000239409 8.62484e-08
1.85043e-07 8.62484e-08 -0.000352694
0.00609874 -0.000109333 -1.91744e-05
-0.000109333 0.0021498 1.59824e-06
-1.91744e-05 1.59824e-06 0.0016263
0.00305178 -0.000137154 5.49898e-05
-0.000137154 0.000600866 1.59833e-05
5.49898e-05 1.59833e-05 0.000371535
0.00123073 9.61332e-05 7.05484e-06
9.61332e-05 -0.000162651 4.13041e-06
7.05484e-06 4.13041e-06 -9.48413e-05
-0.00241533 -0.000135317 -4.59126e-05
-0.000135317 -0.00134556 -2.139e-05
-4.59126e-05 -2.139e-05 -0.00133051
0.00151514 -0.000202123 -1.1004e-05
-0.000202123 -1.46876e-05 -2.06963e-06
-1.1004e-05 -2.06963e-06 0.000505907
0.00103001 4.01157e-05 -4.72536e-07
4.01157e-05 7.8849e-05 -5.73228e-07
-4.72536e-07 -5.73228e-07 -5.3481e-06
0.00113415 5.1008e-05 -1.99063e-08
5.1008e-05 0.000125757 -4.92599e-08
-1.99063e-08 -4.92599e-08 3.67744e-05
0.00113254 5.27316e-05 4.27973e-07
5.27316e-05 0.00010948 3.16954e-07
4.27973e-07 3.16954e-07 1.93992e-05
0.000954939 -2.41781e-05 1.93535e-07
-2.41781e-05 3.03184e-05 -8.69866e-07
1.93535e-07 -8.69866e-07 -1.57063e-05
0.000861498 1.83438e-05 1.98241e-08
1.83438e-05 -1.09301e-05 -8.1823e-07
1.98241e-08 -8.1823e-07 -7.14441e-05
0.00104006 -3.48464e-06 5.2984e-08
-3.48464e-06 7.91243e-05 -4.63638e-07
5.2984e-08 -4.63638e-07 1.03651e-05
0.0011113 1.88188e-05 -1.61223e-07
1.88188e-05 0.000115441 -5.72633e-07
-1.61223e-07 -5.72633e-07 3.70762e-05
0.00103551 3.60391e-05 -7.64974e-07
3.60391e-05 7.06748e-05 -1.27907e-06
-7.64974e-07 -1.27907e-06 -1.57416e-05
0.00102907 3.28124e-05 -3.0954e-07
3.28124e-05 7.416e-05 -4.69002e-07
-3.0954e-07 -4.69002e-07 4.46046e-06
0.000875368 7.08602e-06 1.66736e-07
7.08602e-06 -1.08402e-05 4.38025e-07
1.66736e-07 4.38025e-07 -5.70901e-05
0.000913556 4.62389e-06 -1.12545e-07
4.62389e-06 1.58263e-05 4.70765e-08
-1.12545e-07 4.70765e-08 -4.39132e-05
0.00107483 3.77777e-05 -2.03449e-08
3.77777e-05 8.6353e-05 1.45877e-07
-2.03449e-08 1.45877e-07 -3.46489e-07
0.00107803 3.08325e-05 -7.16702e-08
3.08325e-05 9.86234e-05 -3.43916e-07
-7.16702e-08 -3.43916e-07 2.19232e-05
0.00109139 4.99943e-05 7.61388e-09
4.99943e-05 0.000107827 -2.50777e-07
7.61388e-09 -2.50777e-07 3.13466e-05
0.00112882 5.2363e-05 3.22184e-07
5.2363e-05 0.000121055 8.05801e-07
3.22184e-07 8.05801e-07 3.56523e-05
0.000883517 2.25481e-05 2.67221e-07
2.25481e-05 -2.32178e-06 1.11394e-06
2.67221e-07 1.11394e-06 -7.23567e-05
0.000849422 5.1347e-06 3.70221e-07
5.1347e-06 -1.76945e-05 1.52172e-07
3.70221e-07 1.52172e-07 -7.80321e-05
0.000765951 -2.6876e-05 -1.03801e-06
-2.6876e-05 -6.54826e-05 1.27675e-06
-1.03801e-06 1.27675e-06 -0.00011262
0.00103788 7.49572e-06 -3.18986e-08
7.49572e-06 7.88681e-05 5.22e-07
-3.18986e-08 5.22e-07 1.9058e-05
0.00115598 3.60729e-05 1.86482e-07
3.60729e-05 0.000140369 2.60714e-07
1.86482e-07 2.60714e-07 7.0743e-05
0.000980965 -6.89698e-06 -2.87768e-07
-6.89698e-06 5.16166e-05 7.15527e-07
-2.87768e-07 7.15527e-07 -1.00105e-05
0.00100836 3.61201e-06 3.52812e-07
3.61201e-06 6.49364e-05 -4.66917e-07
3.52812e-07 -4.66917e-07 4.80397e-06
0.000955684 -2.22781e-05 -8.04254e-07
-2.22781e-05 3.13209e-05 8.42784e-07
-8.04254e-07 8.42784e-07 -1.52192e-05
0.000786596 3.9766e-06 1.6533e-07
3.9766e-06 -5.49352e-05 4.47684e-07
1.6533e-07 4.47684e-07 -0.00010217
0.000930281 1.02197e-05 -1.2333e-08
1.02197e-05 6.04976e-06 1.60843e-06
-1.2333e-08 1.60843e-06 -2.09998e-05
0.000924457 2.52978e-06 -2.17749e-07
2.52978e-06 2.99258e-06 -3.43432e-09
-2.17749e-07 -3.43432e-09 -2.37018e-05
0.000894634 3.31596e-06 -3.48596e-07
3.31596e-06 -2.53771e-05 4.23379e-06
-3.48596e-07 4.23379e-06 -2.47123e-05
0.00092597 -7.62828e-06 3.8242e-07
-7.62828e-06 3.44644e-06 -1.57158e-06
3.8242e-07 -1.57158e-06 -2.3089e-05
0.000879087 1.96399e-07 8.83206e-08
1.96399e-07 -3.40283e-05 6.00765e-09
8.83206e-08 6.00765e-09 -3.3124e-05
0.00220344 -9.07223e-07 2.09758e-09
-9.07223e-07 0.000643991 3.95506e-06
2.09758e-09 3.95506e-06 0.000667748
0.000896385 -2.83682e-06 -4.54353e-07
-2.83682e-06 -2.44861e-05 -4.27021e-06
-4.54353e-07 -4.27021e-06 -2.37386e-05
0.00163216 -4.36573e-06 -1.33815e-07
-4.36573e-06 0.000351456 2.10675e-08
-1.33815e-07 2.10675e-08 0.000372352
0.00102183 -7.18051e-06 -7.70249e-07
-7.18051e-06 3.977e-05 -1.50319e-06
-7.70249e-07 -1.50319e-06 5.80825e-05
0.000941463 3.00394e-06 1.31729e-07
3.00394e-06 6.27598e-06 -1.75725e-06
1.31729e-07 -1.75725e-06 -1.62392e-05
0.000936027 5.40112e-06 9.00001e-09
5.40112e-06 4.62813e-06 -4.46341e-09
9.00001e-09 -4.46341e-09 -1.88301e-05
0.000870091 7.19064e-06 5.19501e-07
7.19064e-06 -3.72352e-05 -3.09801e-06
5.19501e-07 -3.09801e-06 -3.45954e-05
0.000932488 8.08215e-06 -5.31353e-07
8.08215e-06 4.58765e-06 1.7628e-06
-5.31353e-07 1.7628e-06 -2.04346e-05
0.00114057 1.13586e-05 -1.57788e-07
1.13586e-05 0.000104234 -5.96882e-07
-1.57788e-07 -5.96882e-07 0.00010693
0.00215757 1.34492e-05 7.45528e-06
1.34492e-05 0.000625002 -3.84312e-06
7.45528e-06 -3.84312e-06 0.000648537
0.000874143 1.3709e-05 -1.35384e-06
1.3709e-05 -2.82432e-05 3.18744e-06
-1.35384e-06 3.18744e-06 -2.88491e-05
0.00222057 1.75261e-05 -3.89255e-06
1.75261e-05 0.000661829 1.11936e-06
-3.89255e-06 1.11936e-06 0.000684023
0.00224586 2.24491e-05 -1.34455e-05
2.24491e-05 0.000679597 3.90717e-06
-1.34455e-05 3.90717e-06 0.000700517
0.00141374 -1.31253e-05 -1.69031e-06
-1.31253e-05 -1.12508e-05 -4.69492e-07
-1.69031e-06 -4.69492e-07 -8.72257e-05
0.00159722 2.33232e-06 -2.09581e-06
2.33232e-06 9.66303e-05 -1.12178e-06
-2.09581e-06 -1.12178e-06 1.1386e-05
0.00145691 -1.75254e-05 2.30682e-06
-1.75254e-05 1.77545e-05 4.56981e-07
2.30682e-06 4.56981e-07 -5.75997e-05
0.00180739 -4.43823e-05 -1.632e-06
-4.43823e-05 7.06394e-05 -1.26342e-06
-1.632e-06 -1.26342e-06 3.903e-05
0.00149743 2.58539e-06 -8.79526e-07
2.58539e-06 4.03715e-05 -3.42538e-07
-8.79526e-07 -3.42538e-07 -3.73443e-05
0.00140668 3.7718e-06 -6.4087e-07
3.7718e-06 -5.48051e-05 -5.9221e-07
-6.4087e-07 -5.9221e-07 -0.000116582
0.00192901 3.0165e-05 1.74647e-06
3.0165e-05 0.000189101 2.29223e-06
1.74647e-06 2.29223e-06 0.00010558
0.00235485 -0.000109923 0.000142934
-0.000109923 0.000393621 4.01332e-05
0.000142934 4.01332e-05 0.000170852
0.00142369 -1.37297e-05 -4.55915e-06
-1.37297e-05 5.76934e-05 2.17334e-06
-4.55915e-06 2.17334e-06 7.33889e-06
0.000962479 1.16823e-06 -3.69271e-07
1.16823e-06 3.15843e-05 -1.03398e-06
-3.69271e-07 -1.03398e-06 -8.4491e-06
0.00096729 -1.5132e-05 3.40525e-07
-1.5132e-05 3.35637e-05 -9.68526e-09
3.40525e-07 -9.68526e-09 -6.89354e-06
0.000976169 -8.97078e-08 -1.65644e-07
-8.97078e-08 4.82416e-05 -5.55294e-07
-1.65644e-07 -5.55294e-07 -4.49259e-06
0.000987637 -1.60059e-05 -2.94513e-07
-1.60059e-05 5.54732e-05 -2.30427e-07
-2.94513e-07 -2.30427e-07 1.44528e-06
0.00164647 2.72325e-05 -2.28698e-06
2.72325e-05 0.00010226 -9.5852e-07
-2.28698e-06 -9.5852e-07 2.26285e-05
0.00170294 -1.24114e-05 -5.20239e-07
-1.24114e-05 9.07871e-05 1.59379e-06
-5.20239e-07 1.59379e-06 2.37811e-05
0.00132821 -6.9085e-05 -4.14205e-06
-6.9085e-05 -0.000100136 1.16043e-06
-4.14205e-06 1.16043e-06 -0.000134227
0.000917018 -5.93258e-05 -1.08788e-07
-5.93258e-05 9.7566e-06 2.78438e-06
-1.08788e-07 2.78438e-06 -7.79064e-05
0.000796158 -6.96277e-05 2.05928e-07
-6.96277e-05 -4.87116e-05 2.33708e-06
2.05928e-07 2.33708e-06 -0.000179866
0.00121529 -8.45292e-05 -2.82817e-06
-8.45292e-05 -5.00544e-06 -8.88271e-07
-2.82817e-06 -8.88271e-07 -9.11689e-05
0.00087736 -6.06249e-05 -4.24578e-06
-6.06249e-05 8.59266e-06 1.04377e-06
-4.24578e-06 1.04377e-06 -8.35225e-05
0.00109422 -3.84042e-05 -1.01881e-06
-3.84042e-05 0.000126775 2.13497e-07
-1.01881e-06 2.13497e-07 2.58207e-05
0.00106876 -4.29282e-05 -4.75905e-07
-4.29282e-05 0.000103082 1.54822e-06
-4.75905e-07 1.54822e-06 1.36435e-05
0.000955742 -1.21021e-06 -7.03601e-07
-1.21021e-06 2.95052e-05 1.24648e-06
-7.03601e-07 1.24648e-06 -1.59977e-05
0.00107397 -3.28825e-05 -9.04234e-08
-3.28825e-05 9.88842e-05 7.62969e-07
-9.04234e-08 7.62969e-07 2.0678e-05
0.00105293 7.3212e-06 -5.42733e-07
7.3212e-06 8.61088e-05 1.0546e-06
-5.42733e-07 1.0546e-06 2.36487e-05
0.000980899 -5.52961e-06 -8.98561e-08
-5.52961e-06 4.04147e-05 5.51309e-07
-8.98561e-08 5.51309e-07 -9.94297e-07
0.000805293 1.44442e-05 -1.62693e-08
1.44442e-05 -3.6607e-05 1.62739e-06
-1.62693e-08 1.62739e-06 -9.60313e-05
0.00161818 2.33202e-05 -2.29906e-07
2.33202e-05 7.18402e-05 1.29622e-06
-2.29906e-07 1.29622e-06 -2.2318e-06
0.000965749 1.22871e-05 1.56855e-07
1.22871e-05 4.38463e-05 -4.95778e-07
1.56855e-07 -4.95778e-07 -1.11945e-05
0.000937545 8.53507e-07 4.21471e-07
8.53507e-07 3.04342e-05 1.47284e-08
4.21471e-07 1.47284e-08 -3.09051e-05
0.00101902 2.4485e-05 -1.59178e-07
2.4485e-05 7.33135e-05 9.48793e-07
-1.59178e-07 9.48793e-07 5.49674e-06
0.0019503 -4.36985e-05 -2.75282e-06
-4.36985e-05 0.000157963 8.17151e-07
-2.75282e-06 8.17151e-07 0.000122423
0.00140189 -9.07869e-05 -1.04216e-06
-9.07869e-05 -3.97141e-05 -1.41883e-06
-1.04216e-06 -1.41883e-06 -9.71519e-05
0.00105601 -7.18091e-05 7.7216e-08
-7.18091e-05 0.000101172 -2.93817e-07
7.7216e-08 -2.93817e-07 -7.10764e-06
0.0014242 -9.55949e-05 1.152e-07
-9.55949e-05 0.000204313 -6.67306e-08
1.152e-07 -6.67306e-08 8.12368e-05
0.00110253 -2.36218e-05 -2.29332e-07
-2.36218e-05 0.000116596 9.41571e-08
-2.29332e-07 9.41571e-08 4.20451e-05
0.00102301 -3.18178e-05 -1.83357e-07
-3.18178e-05 7.55236e-05 7.31124e-07
-1.83357e-07 7.31124e-07 -8.66912e-06
0.00100231 -5.28191e-05 1.83956e-06
-5.28191e-05 0.000100522 -4.12111e-07
1.83956e-06 -4.12111e-07 -1.59934e-05
0.0011525 -4.31834e-05 7.22297e-08
-4.31834e-05 0.000155342 -5.43622e-07
7.22297e-08 -5.43622e-07 5.59876e-05
0.00103663 1.36685e-05 4.01162e-06
1.36685e-05 -0.000289454 -3.46416e-07
4.01162e-06 -3.46416e-07 -0.000351051
0.0022039 -0.000103676 1.09531e-05
-0.000103676 0.000196854 -5.46097e-06
1.09531e-05 -5.46097e-06 0.000160554
0.00186803 -0.000112103 5.3227e-06
-0.000112103 0.000323034 -1.41491e-06
5.3227e-06 -1.41491e-06 0.000206084
0.00112794 -8.52601e-05 5.53062e-07
-8.52601e-05 0.000141922 -1.83408e-06
5.53062e-07 -1.83408e-06 1.98968e-05
0.00093783 1.63339e-05 -5.37542e-07
1.63339e-05 3.47102e-05 -7.33922e-07
-5.37542e-07 -7.33922e-07 -3.70298e-05
0.000957969 -3.4969e-05 8.6678e-07
-3.4969e-05 4.64238e-05 -1.60806e-06
8.6678e-07 -1.60806e-06 -2.70337e-05
0.00102716 -5.16429e-05 6.11065e-07
-5.16429e-05 8.27102e-05 -1.0866e-06
6.11065e-07 -1.0866e-06 -6.27279e-06
0.00110715 -2.82588e-05 -5.65905e-07
-2.82588e-05 0.00014856 -7.63325e-07
-5.65905e-07 -7.63325e-07 2.19913e-05
0.00059509 -7.40651e-06 -1.06991e-05
-7.40651e-06 -0.000362225 -1.22737e-06
-1.06991e-05 -1.22737e-06 -0.000865929
0.00109724 5.5462e-05 -2.05816e-07
5.5462e-05 0.000117209 -2.16578e-07
-2.05816e-07 -2.16578e-07 2.86513e-05
0.000970235 5.73136e-05 5.5204e-07
5.73136e-05 4.36557e-05 4.78653e-07
5.5204e-07 4.78653e-07 -5.08144e-05
0.00147364 4.07935e-05 -4.72712e-06
4.07935e-05 -0.00014876 -1.06138e-06
-4.72712e-06 -1.06138e-06 -0.000205673
0.00184662 9.60558e-05 -3.22224e-06
9.60558e-05 0.000135846 -4.96924e-07
-3.22224e-06 -4.96924e-07 6.20574e-05
0.00136583 9.1288e-05 -1.91347e-06
9.1288e-05 0.000182501 -7.3662e-07
-1.91347e-06 -7.3662e-07 4.30811e-05
0.000900154 6.00367e-05 1.20887e-06
6.00367e-05 2.32829e-05 3.43819e-07
1.20887e-06 3.43819e-07 -9.29759e-05
0.000978971 4.00531e-06 -1.02158e-05
4.00531e-06 -0.000408982 -3.43311e-06
-1.02158e-05 -3.43311e-06 -0.000400985
0.00112899 5.96e-05 6.90832e-08
5.96e-05 0.000128751 -1.22389e-07
6.90832e-08 -1.22389e-07 3.57495e-05
0.00191076 0.000110087 4.72894e-07
0.000110087 4.86979e-05 3.16776e-07
4.72894e-07 3.16776e-07 -1.52534e-05
0.00109666 6.29918e-05 6.6206e-07
6.29918e-05 0.000115409 6.12495e-09
6.6206e-07 6.12495e-09 1.50795e-05
0.00107605 7.27093e-05 -2.85857e-07
7.27093e-05 0.000128675 -4.87361e-08
-2.85857e-07 -4.87361e-08 -9.06623e-06
0.00072099 9.831e-05 -2.4956e-06
9.831e-05 -0.000231697 -2.89662e-07
-2.4956e-06 -2.89662e-07 -0.000341756
0.00141437 -0.000106055 -1.29962e-05
-0.000106055 8.46487e-05 -5.72475e-06
-1.29962e-05 -5.72475e-06 -0.000449098
0.00257161 -0.000131166 3.28076e-06
-0.000131166 0.000212989 -2.36522e-06
3.28076e-06 -2.36522e-06 -8.00447e-05
0.000979112 9.34325e-05 2.71325e-06
9.34325e-05 -0.000299764 -1.0354e-06
2.71325e-06 -1.0354e-06 -0.000224795
-0.000392675 -0.000154036 -8.16402e-06
-0.000154036 -0.00046328 -5.03009e-06
-8.16402e-06 -5.03009e-06 -0.000537942
0.000551292 -0.000207588 -1.36377e-06
-0.000207588 -0.00047731 2.84949e-08
-1.36377e-06 2.84949e-08 -2.53175e-06
0.00110044 5.8771e-05 9.82616e-07
5.8771e-05 0.000116685 -6.3823e-07
9.82616e-07 -6.3823e-07 2.39907e-05
-0.000224446 3.61647e-05 -0.000102096
3.61647e-05 -0.00041195 -1.15183e-05
-0.000102096 -1.15183e-05 -0.000625498
0.00233663 -0.000104834 -4.97098e-06
-0.000104834 0.0008785 -6.37107e-06
-4.97098e-06 -6.37107e-06 0.00108947
0.00115911 0.000126348 5.36542e-06
0.000126348 -0.000215978 5.41458e-06
5.36542e-06 5.41458e-06 -0.000248129
0.000794409 3.37379e-05 -3.90163e-07
3.37379e-05 -2.62794e-05 -1.12976e-06
-3.90163e-07 -1.12976e-06 -0.000136957
0.00165492 6.5537e-05 -3.86439e-06
6.5537e-05 0.000451961 1.8913e-06
-3.86439e-06 1.8913e-06 0.000278279
0.00178286 8.1772e-05 2.38812e-06
8.1772e-05 0.000282815 3.18491e-06
2.38812e-06 3.18491e-06 0.000228678
0.00537293 -0.000215996 -7.1203e-05
-0.000215996 0.00163514 -1.61052e-05
-7.1203e-05 -1.61052e-05 0.000878805
0.00259139 -4.54268e-05 2.98813e-05
-4.54268e-05 0.000213691 2.24853e-05
2.98813e-05 2.24853e-05 -0.0001314
0.00022634 -0.000235164 -5.34388e-05
-0.000235164 -0.000111246 -2.87787e-05
-5.34388e-05 -2.87787e-05 -1.86994e-05
-0.000511135 -0.000101659 -5.13944e-06
-0.000101659 -0.00119697 3.02049e-06
-5.13944e-06 3.02049e-06 -0.000945125
0.00106511 4.73257e-05 -7.44716e-07
4.73257e-05 9.29733e-05 -4.71442e-07
-7.44716e-07 -4.71442e-07 4.27314e-06
0.00114231 5.55085e-05 -5.10442e-07
5.55085e-05 0.000116712 2.37289e-07
-5.10442e-07 2.37289e-07 2.62684e-05
0.00122801 6.31203e-05 -3.9325e-07
6.31203e-05 0.000148251 -1.56256e-07
-3.9325e-07 -1.56256e-07 5.66373e-05
0.000958402 2.85521e-06 2.02925e-08
2.85521e-06 3.23602e-05 -4.26704e-07
2.02925e-08 -4.26704e-07 -1.3929e-05
0.00100551 -6.85093e-06 7.30498e-08
-6.85093e-06 6.25713e-05 -7.56793e-07
7.30498e-08 -7.56793e-07 3.60082e-06
0.000950916 1.854e-05 -4.64358e-07
1.854e-05 3.2342e-05 -9.93796e-07
-4.64358e-07 -9.93796e-07 -3.72722e-05
0.00104407 2.9417e-05 -7.72105e-08
2.9417e-05 8.01979e-05 -7.57388e-07
-7.72105e-08 -7.57388e-07 3.30716e-06
0.00105821 3.47571e-05 -3.36901e-07
3.47571e-05 8.04701e-05 -6.9485e-07
-3.36901e-07 -6.9485e-07 -5.7105e-06
0.000776296 -4.82713e-06 2.96569e-07
-4.82713e-06 -6.07223e-05 4.41386e-07
2.96569e-07 4.41386e-07 -0.000107698
0.0010393 4.02747e-05 -3.55169e-07
4.02747e-05 8.01725e-05 -6.20439e-07
-3.55169e-07 -6.20439e-07 4.29721e-06
0.00103566 4.75834e-06 -7.39367e-08
4.75834e-06 7.57619e-05 4.46356e-07
-7.39367e-08 4.46356e-07 6.39904e-06
0.000935546 1.36104e-05 1.56058e-07
1.36104e-05 2.61678e-05 -3.25178e-07
1.56058e-07 -3.25178e-07 -3.38136e-05
0.00102591 4.948e-05 2.97378e-08
4.948e-05 6.7256e-05 2.01e-07
2.97378e-08 2.01e-07 -1.88655e-05
0.00103024 3.5528e-05 6.58521e-08
3.5528e-05 7.16858e-05 3.99831e-07
6.58521e-08 3.99831e-07 -7.69145e-06
0.00120614 5.38398e-05 1.48809e-07
5.38398e-05 0.00017074 4.77361e-07
1.48809e-07 4.77361e-07 7.59295e-05
0.0010113 -3.16329e-05 -2.07816e-07
-3.16329e-05 6.3362e-05 4.1556e-07
-2.07816e-07 4.1556e-07 -5.49326e-06
0.00102554 -2.28408e-05 -2.76172e-07
-2.28408e-05 7.14656e-05 4.97704e-08
-2.76172e-07 4.97704e-08 1.20188e-05
0.00104085 -1.47325e-06 -2.39176e-07
-1.47325e-06 7.97758e-05 -4.7981e-08
-2.39176e-07 -4.7981e-08 2.04519e-05
0.00104051 1.97652e-05 -1.95243e-07
1.97652e-05 7.99586e-05 -4.14152e-07
-1.95243e-07 -4.14152e-07 1.02403e-05
0.00103508 1.43576e-05 6.17358e-08
1.43576e-05 7.81779e-05 6.56817e-07
6.17358e-08 6.56817e-07 7.54529e-06
0.0010155 7.93536e-06 -3.83621e-09
7.93536e-06 6.75878e-05 7.36653e-07
-3.83621e-09 7.36653e-07 -3.23754e-06
0.00109369 1.71462e-05 -1.23586e-08
1.71462e-05 0.00010413 -1.30367e-07
-1.23586e-08 -1.30367e-07 2.81875e-05
0.000992001 -2.34856e-05 -2.28789e-07
-2.34856e-05 6.29058e-05 1.07642e-06
-2.28789e-07 1.07642e-06 -1.58015e-05
0.000984514 -6.37748e-06 -1.87817e-07
-6.37748e-06 5.10664e-05 7.99369e-07
-1.87817e-07 7.99369e-07 -1.15717e-05
0.000976618 -8.36941e-06 3.548e-08
-8.36941e-06 4.89887e-05 -2.00126e-08
3.548e-08 -2.00126e-08 -1.23056e-05
0.000958233 -9.28611e-06 -6.87836e-07
-9.28611e-06 3.22193e-05 8.91409e-07
-6.87836e-07 8.91409e-07 -1.50815e-05
0.000861677 4.73624e-06 2.29e-07
4.73624e-06 -1.14705e-05 -1.06427e-06
2.29e-07 -1.06427e-06 -7.15625e-05
0.000872936 -1.02895e-05 1.92482e-07
-1.02895e-05 -1.12376e-05 -5.2608e-09
1.92482e-07 -5.2608e-09 -5.80446e-05
0.000935502 8.05348e-06 -2.96015e-07
8.05348e-06 9.04839e-06 1.65413e-06
-2.96015e-07 1.65413e-06 -1.86684e-05
0.00078981 3.70321e-06 1.56718e-07
3.70321e-06 -5.32472e-05 -4.10223e-07
1.56718e-07 -4.10223e-07 -0.00010047
0.000929085 2.47923e-06 -1.74779e-07
2.47923e-06 5.32205e-06 -1.42876e-08
-1.74779e-07 -1.42876e-08 -2.16922e-05
0.00146214 7.01543e-06 -2.37093e-06
7.01543e-06 0.000267409 4.20427e-06
-2.37093e-06 4.20427e-06 0.000270573
0.000922865 -6.53866e-06 5.49109e-07
-6.53866e-06 2.17027e-06 -1.57248e-06
5.49109e-07 -1.57248e-06 -2.45005e-05
0.00117303 3.58671e-06 -8.84298e-07
3.58671e-06 0.000117454 6.0696e-07
-8.84298e-07 6.0696e-07 0.000119565
0.00107195 2.10544e-06 -1.97148e-06
2.10544e-06 6.34057e-05 3.82678e-06
-1.97148e-06 3.82678e-06 8.15435e-05
0.000882547 1.41189e-07 3.33778e-08
1.41189e-07 -3.224e-05 -2.99735e-06
3.33778e-08 -2.99735e-06 -3.13546e-05
0.00220063 -6.67753e-07 1.2331e-06
-6.67753e-07 0.000642544 -6.92845e-11
1.2331e-06 -6.92845e-11 0.000666316
0.00106763 -3.02055e-06 -1.00887e-06
-3.02055e-06 6.16784e-05 -3.83802e-06
-1.00887e-06 -3.83802e-06 7.98359e-05
0.000962587 2.35607e-05 1.8255e-07
2.35607e-05 3.23129e-05 -4.85476e-07
1.8255e-07 -4.85476e-07 -8.5404e-06
0.000942812 4.87489e-07 5.22974e-08
4.87489e-07 6.6944e-06 -1.75478e-06
5.22974e-08 -1.75478e-06 -1.55601e-05
0.000939715 2.55715e-06 -5.06823e-08
2.55715e-06 5.2634e-06 -8.67673e-09
-5.06823e-08 -8.67673e-09 -1.72335e-05
0.000878132 3.70047e-06 2.12377e-07
3.70047e-06 -3.50566e-05 -3.10218e-06
2.12377e-07 -3.10218e-06 -3.15811e-05
0.000934251 4.99571e-06 -3.72513e-07
4.99571e-06 3.44808e-06 1.73246e-06
-3.72513e-07 1.73246e-06 -1.99708e-05
0.000873881 7.2569e-06 6.00624e-08
7.2569e-06 -3.56112e-05 -6.12152e-07
6.00624e-08 -6.12152e-07 -3.28965e-05
0.00212594 8.93182e-06 4.91843e-06
8.93182e-06 0.000606144 -3.85936e-06
4.91843e-06 -3.85936e-06 0.000630474
0.00141408 1.28939e-05 -1.2626e-06
1.28939e-05 0.000244805 1.94204e-06
-1.2626e-06 1.94204e-06 0.000248626
0.00162665 1.18798e-05 2.38091e-07
1.18798e-05 0.000353466 1.19473e-06
2.38091e-07 1.19473e-06 0.000373942
0.0011096 1.36398e-05 -1.05316e-05
1.36398e-05 9.23685e-05 6.34092e-06
-1.05316e-05 6.34092e-06 0.000108864
0.00147289 -3.57773e-05 -2.8546e-06
-3.57773e-05 -7.17158e-05 -9.88385e-08
-2.8546e-06 -9.88385e-08 -0.000106406
0.00146579 -3.40375e-07 -2.23062e-06
-3.40375e-07 2.26402e-05 -3.5131e-07
-2.23062e-06 -3.5131e-07 -5.56723e-05
0.000914643 3.92888e-06 -6.22444e-06
3.92888e-06 -0.000285482 -3.74192e-06
-6.22444e-06 -3.74192e-06 -0.00035311
0.000888291 -9.17065e-05 3.65743e-05
-9.17065e-05 -8.55796e-05 5.82924e-06
3.65743e-05 5.82924e-06 -0.000312662
0.00129502 -1.93192e-05 -2.30974e-06
-1.93192e-05 5.39706e-06 -9.79412e-07
-2.30974e-06 -9.79412e-07 -4.29942e-05
0.00165829 3.16661e-05 -2.12955e-06
3.16661e-05 4.68903e-05 -1.4804e-06
-2.12955e-06 -1.4804e-06 -3.65123e-05
0.00131121 4.61832e-05 2.43252e-06
4.61832e-05 2.59731e-05 7.11172e-07
2.43252e-06 7.11172e-07 -3.73815e-05
0.00112454 -3.93096e-05 0.000105783
-3.93096e-05 3.00366e-05 6.47051e-06
0.000105783 6.47051e-06 -0.000224979
0.00497902 8.80779e-05 -2.24483e-05
8.80779e-05 0.00146885 -4.65727e-06
-2.24483e-05 -4.65727e-06 0.000805574
0.00248702 0.000230642 -3.9925e-05
0.000230642 0.000963829 1.78882e-05
-3.9925e-05 1.78882e-05 0.000911733
0.0010196 0.000169942 -1.08596e-05
0.000169942 -6.01167e-05 5.28544e-06
-1.08596e-05 5.28544e-06 0.000314867
0.000782835 -7.87422e-06 8.5258e-07
-7.87422e-06 -4.7856e-05 -1.03661e-06
8.5258e-07 -1.03661e-06 -0.000102368
0.000967339 -8.84102e-06 -7.15274e-08
-8.84102e-06 3.40411e-05 2.07224e-09
-7.15274e-08 2.07224e-09 -6.01609e-06
0.000974193 -2.64551e-05 -6.64042e-07
-2.64551e-05 3.76296e-05 9.9818e-07
-6.64042e-07 9.9818e-07 -3.33062e-06
0.000907206 8.40874e-06 -2.2797e-07
8.40874e-06 1.42306e-05 4.02559e-09
-2.2797e-07 4.02559e-09 -3.93749e-05
0.00106487 3.7197e-05 1.3376e-07
3.7197e-05 9.9613e-05 2.72753e-07
1.3376e-07 2.72753e-07 3.55987e-05
0.00104323 4.42528e-05 2.09144e-07
4.42528e-05 8.64063e-05 1.91357e-07
2.09144e-07 1.91357e-07 2.4236e-05
0.00101459 -4.73693e-07 5.34678e-07
-4.73693e-07 6.98632e-05 -1.45544e-06
5.34678e-07 -1.45544e-06 1.39735e-05
0.000920291 -2.33049e-05 -3.33575e-07
-2.33049e-05 2.07769e-05 4.79868e-07
-3.33575e-07 4.79868e-07 -3.32563e-05
0.00179144 2.33802e-05 -3.15032e-06
2.33802e-05 0.000163615 1.76289e-07
-3.15032e-06 1.76289e-07 9.04322e-05
0.0017497 -4.51962e-05 -2.44145e-06
-4.51962e-05 5.92475e-05 1.79288e-06
-2.44145e-06 1.79288e-06 1.93735e-05
0.000976496 -8.15409e-05 -9.51509e-06
-8.15409e-05 -0.000244189 1.18026e-07
-9.51509e-06 1.18026e-07 -0.000299561
0.00103638 -7.12842e-05 -1.4632e-07
-7.12842e-05 8.72324e-05 1.95093e-06
-1.4632e-07 1.95093e-06 -2.04587e-05
0.00148452 -9.72716e-05 -1.14993e-06
-9.72716e-05 0.000240092 2.60998e-06
-1.14993e-06 2.60998e-06 0.000115169
0.00102256 -5.34435e-05 -5.06588e-07
-5.34435e-05 0.000105427 4.65703e-07
-5.06588e-07 4.65703e-07 -6.68306e-06
0.00123784 -5.01272e-05 1.40075e-07
-5.01272e-05 0.000198373 5.1332e-07
1.40075e-07 5.1332e-07 9.69209e-05
0.000973738 -3.25755e-05 -4.87398e-07
-3.25755e-05 5.01329e-05 1.14479e-06
-4.87398e-07 1.14479e-06 -3.37816e-05
0.000985515 -8.39876e-06 -1.26486e-07
-8.39876e-06 5.51679e-05 1.17984e-06
-1.26486e-07 1.17984e-06 -5.26543e-06
0.00114439 -1.69275e-05 -4.60125e-07
-1.69275e-05 0.000137565 8.51467e-07
-4.60125e-07 8.51467e-07 6.38956e-05
0.00116919 4.59364e-06 -1.32171e-07
4.59364e-06 0.000146285 3.41477e-07
-1.32171e-07 3.41477e-07 9.29924e-05
0.000925943 3.64569e-05 6.40552e-07
3.64569e-05 2.45932e-05 2.16517e-06
6.40552e-07 2.16517e-06 -4.26915e-05
0.00173386 2.41999e-05 1.30397e-06
2.41999e-05 4.37442e-05 -3.08395e-06
1.30397e-06 -3.08395e-06 -1.69211e-05
0.000961712 1.73021e-05 -2.44898e-07
1.73021e-05 4.74116e-05 3.22548e-07
-2.44898e-07 3.22548e-07 -2.36028e-05
0.000989457 -3.39792e-05 6.5703e-08
-3.39792e-05 6.23592e-05 -4.55822e-07
6.5703e-08 -4.55822e-07 -1.10506e-05
0.00207908 -0.000100969 -4.78463e-06
-0.000100969 0.000142374 -1.04144e-06
-4.78463e-06 -1.04144e-06 0.000109964
0.000948194 -9.19464e-05 1.73585e-06
-9.19464e-05 -0.000122433 1.82518e-06
1.73585e-06 1.82518e-06 -0.000234572
0.0011599 -8.74968e-05 7.03224e-07
-8.74968e-05 0.000156338 -7.28463e-07
7.03224e-07 -7.28463e-07 2.86344e-05
0.00105362 -4.38957e-05 1.81939e-08
-4.38957e-05 9.36679e-05 -1.77098e-07
1.81939e-08 -1.77098e-07 4.60148e-06
0.00112521 -3.35632e-05 -1.02527e-07
-3.35632e-05 0.000155982 2.50083e-07
-1.02527e-07 2.50083e-07 2.97383e-05
0.00222189 -4.7875e-05 -7.29257e-07
-4.7875e-05 0.000141229 9.84977e-06
-7.29257e-07 9.84977e-06 0.000141017
0.00275863 -0.000170133 1.22537e-05
-0.000170133 0.000615484 -3.07835e-06
1.22537e-05 -3.07835e-06 0.000499934
0.000544465 -8.81084e-05 1.35239e-07
-8.81084e-05 -0.000187869 -2.88375e-06
1.35239e-07 -2.88375e-06 -0.000315852
0.00115912 -6.11953e-05 4.55148e-07
-6.11953e-05 0.000187975 -1.05539e-06
4.55148e-07 -1.05539e-06 2.90722e-05
0.000888535 -3.38772e-05 3.53021e-07
-3.38772e-05 1.34719e-05 -4.92124e-07
3.53021e-07 -4.92124e-07 -6.48856e-05
0.00102752 -3.34737e-05 9.58685e-07
-3.34737e-05 7.89094e-05 -1.37738e-06
9.58685e-07 -1.37738e-06 -5.55743e-06
0.00121447 -2.03793e-05 -1.52818e-07
-2.03793e-05 0.000179237 -8.64936e-07
-1.52818e-07 -8.64936e-07 7.44062e-05
-0.000841048 -1.41588e-05 -9.03444e-05
-1.41588e-05 -0.000622756 -1.23251e-06
-9.03444e-05 -1.23251e-06 -0.000642489
0.00531154 -2.30883e-05 -2.12202e-05
-2.30883e-05 0.0018056 -1.8402e-06
-2.12202e-05 -1.8402e-06 0.00128469
0.00113668 6.08098e-05 2.17298e-07
6.08098e-05 0.00013449 3.94677e-07
2.17298e-07 3.94677e-07 4.15543e-05
0.000903652 5.69401e-05 1.27865e-06
5.69401e-05 2.26179e-05 -8.11857e-07
1.27865e-06 -8.11857e-07 -7.75007e-05
0.00162688 0.000106053 -9.07861e-06
0.000106053 -0.000115383 -6.06111e-07
-9.07861e-06 -6.06111e-07 -0.000176563
0.00123932 0.000107325 -2.52851e-06
0.000107325 1.3966e-05 -2.12012e-06
-2.52851e-06 -2.12012e-06 -9.2425e-05
0.00110524 7.37538e-05 1.31064e-06
7.37538e-05 0.000142582 -1.50759e-06
1.31064e-06 -1.50759e-06 7.99738e-06
0.00515807 -4.07958e-05 2.49469e-05
-4.07958e-05 0.00158115 -1.40183e-05
2.49469e-05 -1.40183e-05 0.000934429
0.00162615 -0.000133645 -5.14875e-05
-0.000133645 -6.39846e-05 -1.26173e-05
-5.14875e-05 -1.26173e-05 -0.000256334
0.0010076 8.252e-05 -6.13291e-06
8.252e-05 -0.000289363 -1.03344e-05
-6.13291e-06 -1.03344e-05 -0.000223289
0.00249237 -0.000204471 3.1754e-05
-0.000204471 0.0010379 1.32793e-05
3.1754e-05 1.32793e-05 0.00099344
-0.000490299 -0.000215706 1.48586e-05
-0.000215706 -0.00100239 1.67445e-05
1.48586e-05 1.67445e-05 -0.000568521
0.0010844 5.97528e-05 2.1624e-07
5.97528e-05 0.000104708 -3.12029e-07
2.1624e-07 -3.12029e-07 1.2284e-05
-0.000995028 -4.05782e-05 -1.50519e-05
-4.05782e-05 -0.000597325 -5.1557e-07
-1.50519e-05 -5.1557e-07 -0.000605257
0.00112914 -9.9241e-05 -1.64625e-06
-9.9241e-05 0.000218531 6.48908e-07
-1.64625e-06 6.48908e-07 0.000375818
0.00159753 0.00013327 1.11319e-06
0.00013327 6.79432e-06 1.67439e-06
1.11319e-06 1.67439e-06 -3.24632e-05
0.00112017 4.79659e-05 -2.49558e-07
4.79659e-05 0.000142302 -1.23483e-06
-2.49558e-07 -1.23483e-06 3.55009e-05
0.00131891 7.10307e-05 6.76148e-07
7.10307e-05 0.000284479 5.46465e-08
6.76148e-07 5.46465e-08 0.000111969
0.00148821 6.38607e-05 -1.14394e-05
6.38607e-05 0.000122294 -4.68141e-06
-1.14394e-05 -4.68141e-06 9.12946e-05
0.00427742 -0.000137618 6.72721e-06
-0.000137618 0.00102893 6.20581e-06
6.72721e-06 6.20581e-06 0.000234201
0.00170849 -3.58827e-05 -6.12586e-06
-3.58827e-05 -2.09429e-05 -1.57052e-05
-6.12586e-06 -1.57052e-05 -0.000150336
0.00284864 -0.000317762 6.22853e-06
-0.000317762 0.000822934 -8.00308e-07
6.22853e-06 -8.00308e-07 0.000820708
0.000128915 -0.000121833 -2.97456e-06
-0.000121833 -0.000885481 1.2879e-06
-2.97456e-06 1.2879e-06 -0.000558335
0.00104903 3.26697e-05 -1.62521e-06
3.26697e-05 5.17921e-05 -1.49354e-06
-1.62521e-06 -1.49354e-06 -3.80873e-05
0.000286081 -2.10206e-05 4.27942e-07
-2.10206e-05 -0.000168894 -9.08519e-07
4.27942e-07 -9.08519e-07 -0.000185579
0.000884425 -5.8526e-06 5.39612e-06
-5.8526e-06 4.00234e-05 -3.47274e-06
5.39612e-06 -3.47274e-06 -9.71399e-06
0.000551614 8.28119e-05 9.28899e-06
8.28119e-05 -0.000179278 -2.48e-06
9.28899e-06 -2.48e-06 -0.000338514
0.00188879 4.6349e-05 -7.0712e-06
4.6349e-05 0.000587505 -2.04726e-07
-7.0712e-06 -2.04726e-07 0.000455679
0.00322278 -4.20042e-05 -6.42483e-06
-4.20042e-05 0.0013252 -9.29226e-07
-6.42483e-06 -9.29226e-07 0.00129923
0.00086517 0.000137586 -5.77621e-05
0.000137586 -0.000109181 8.9017e-06
-5.77621e-05 8.9017e-06 -0.000346456
0.001919 -0.000223125 1.42009e-05
-0.000223125 -1.99427e-05 1.1225e-05
1.42009e-05 1.1225e-05 -0.000910403
0.00376521 -0.000349628 -4.13171e-05
-0.000349628 0.000795132 -1.85384e-05
-4.13171e-05 -1.85384e-05 0.000867462
0.000524152 -3.59268e-05 -1.06122e-06
-3.59268e-05 -0.000441364 4.40191e-06
-1.06122e-06 4.40191e-06 -0.000385522
0.00116219 5.94905e-05 -3.23864e-07
5.94905e-05 0.000129181 9.19391e-07
-3.23864e-07 9.19391e-07 3.82428e-05
0.00112436 5.85803e-05 7.10076e-07
5.85803e-05 9.68666e-05 6.50521e-07
7.10076e-07 6.50521e-07 4.6626e-06
0.000729818 5.14521e-05 1.90369e-06
5.14521e-05 -7.35784e-05 -2.33272e-07
1.90369e-06 -2.33272e-07 -0.000172581
0.000788523 1.29223e-05 1.06052e-07
1.29223e-05 -5.46323e-05 -3.84255e-07
1.06052e-07 -3.84255e-07 -0.000101722
0.00101808 1.89293e-05 -9.26289e-08
1.89293e-05 6.8328e-05 -7.8949e-07
-9.26289e-08 -7.8949e-07 8.70361e-06
0.00119317 -1.33991e-05 1.51188e-07
-1.33991e-05 0.000156688 -4.83133e-08
1.51188e-07 -4.83133e-08 8.78464e-05
0.000986849 3.35293e-05 -4.89077e-07
3.35293e-05 5.28515e-05 -9.9383e-07
-4.89077e-07 -9.9383e-07 -2.26684e-05
0.000913182 4.67154e-05 -2.97135e-07
4.67154e-05 8.57425e-06 -2.53688e-07
-2.97135e-07 -2.53688e-07 -7.82777e-05
0.00101573 7.27094e-06 3.48845e-07
7.27094e-06 6.72395e-05 -4.34847e-07
3.48845e-07 -4.34847e-07 7.37864e-06
0.00103558 3.17725e-05 -1.60991e-07
3.17725e-05 7.59177e-05 -1.19088e-07
-1.60991e-07 -1.19088e-07 -2.7727e-06
0.00100095 -1.43587e-05 3.45231e-08
-1.43587e-05 5.87455e-05 6.44779e-10
3.45231e-08 6.44779e-10 -1.03921e-05
0.00109057 4.54058e-05 1.92333e-07
4.54058e-05 0.000114084 4.17069e-07
1.92333e-07 4.17069e-07 1.83908e-05
0.0012458 1.66218e-06 8.68371e-08
1.66218e-06 0.000195645 -7.5824e-07
8.68371e-08 -7.5824e-07 9.45359e-05
0.0011303 1.67031e-05 -2.84111e-07
1.67031e-05 0.000127668 9.33032e-07
-2.84111e-07 9.33032e-07 4.40841e-05
0.0010376 9.85235e-06 2.13465e-07
9.85235e-06 7.89783e-05 3.92589e-07
2.13465e-07 3.92589e-07 8.50131e-06
0.00103008 -1.34526e-05 5.51803e-09
-1.34526e-05 7.55634e-05 -6.36801e-07
5.51803e-09 -6.36801e-07 1.56913e-05
0.000923968 -3.58174e-06 1.0093e-08
-3.58174e-06 1.92904e-05 -1.16217e-06
1.0093e-08 -1.16217e-06 -5.06121e-05
0.00102817 1.63145e-06 2.06908e-07
1.63145e-06 7.4357e-05 2.0193e-08
2.06908e-07 2.0193e-08 4.07113e-06
0.00100765 5.98098e-06 2.0855e-08
5.98098e-06 6.39672e-05 3.46797e-08
2.0855e-08 3.46797e-08 -6.9032e-06
0.00105123 5.27402e-06 -2.15633e-07
5.27402e-06 8.06659e-05 -7.45742e-07
-2.15633e-07 -7.45742e-07 4.9957e-06
0.000973755 -5.67522e-06 -1.88835e-07
-5.67522e-06 4.89107e-05 1.25121e-06
-1.88835e-07 1.25121e-06 -2.48044e-05
0.00109629 1.43097e-05 1.03143e-07
1.43097e-05 0.000105077 8.30784e-08
1.03143e-07 8.30784e-08 2.7628e-05
0.000931981 -1.12896e-05 4.61484e-09
-1.12896e-05 1.9029e-05 3.74847e-07
4.61484e-09 3.74847e-07 -6.07188e-05
0.00102671 -3.52614e-05 4.04346e-07
-3.52614e-05 7.56687e-05 -5.78587e-07
4.04346e-07 -5.78587e-07 -1.0812e-05
0.000798662 -4.85693e-05 3.16843e-07
-4.85693e-05 -1.80852e-05 1.23862e-08
3.16843e-07 1.23862e-08 -0.000107078
0.000910886 -3.69529e-05 -7.23189e-07
-3.69529e-05 2.61287e-05 -3.99898e-07
-7.23189e-07 -3.99898e-07 -5.61022e-05
0.00101311 -2.3999e-05 -1.0215e-07
-2.3999e-05 7.33314e-05 2.81978e-07
-1.0215e-07 2.81978e-07 -5.34889e-06
0.000999971 -1.78297e-05 -5.0827e-07
-1.78297e-05 6.01244e-05 1.35956e-06
-5.0827e-07 1.35956e-06 -6.141e-06
0.000993683 -1.25004e-05 -4.77234e-08
-1.25004e-05 5.63423e-05 -3.96322e-08
-4.77234e-08 -3.96322e-08 -6.68674e-06
0.000962708 4.38998e-06 -2.79615e-07
4.38998e-06 3.29286e-05 1.00075e-06
-2.79615e-07 1.00075e-06 -1.53862e-05
0.000980381 -4.5726e-06 3.67284e-07
-4.5726e-06 5.01182e-05 -6.37941e-07
3.67284e-07 -6.37941e-07 -1.06188e-05
0.00095911 -3.42386e-06 6.67615e-08
-3.42386e-06 3.21911e-05 -8.87367e-09
6.67615e-08 -8.87367e-09 -1.48162e-05
0.000932659 9.16176e-06 -5.87718e-07
9.16176e-06 8.9933e-06 1.63653e-06
-5.87718e-07 1.63653e-06 -1.97704e-05
0.000784298 8.41312e-06 1.09482e-07
8.41312e-06 -5.71293e-05 -8.49227e-07
1.09482e-07 -8.49227e-07 -0.000103887
0.000932212 3.05635e-06 -8.99106e-08
3.05635e-06 7.23455e-06 -1.06412e-08
-8.99106e-08 -1.06412e-08 -2.04642e-05
0.0014616 1.05467e-05 -3.71601e-06
1.05467e-05 0.000269572 4.24078e-06
-3.71601e-06 4.24078e-06 0.000272118
0.000927628 -4.05089e-06 6.1971e-07
-4.05089e-06 4.44697e-06 -1.59409e-06
6.1971e-07 -1.59409e-06 -2.25358e-05
0.00117048 6.9972e-06 -1.39699e-06
6.9972e-06 0.000117712 5.9379e-07
-1.39699e-06 5.9379e-07 0.000119477
0.00102396 6.65528e-06 -7.49863e-07
6.65528e-06 4.04528e-05 1.50728e-06
-7.49863e-07 1.50728e-06 5.84891e-05
0.000881228 3.30399e-06 3.7571e-07
3.30399e-06 -3.25564e-05 -3.00492e-06
3.7571e-07 -3.00492e-06 -3.17782e-05
0.00220076 3.84519e-06 1.18049e-06
3.84519e-06 0.000642949 8.09066e-09
1.18049e-06 8.09066e-09 0.000666654
0.0021976 -4.2721e-07 1.07447e-06
-4.2721e-07 0.00064098 -3.93058e-06
1.07447e-06 -3.93058e-06 0.000664769
0.00120737 2.06128e-05 -6.88612e-07
2.06128e-05 0.000156215 -8.77073e-07
-6.88612e-07 -8.77073e-07 0.000115655
0.000940203 -1.53558e-06 -1.33029e-07
-1.53558e-06 5.7947e-06 -1.71913e-06
-1.33029e-07 -1.71913e-06 -1.7013e-05
0.000959358 4.5781e-06 4.69217e-07
4.5781e-06 3.03958e-05 4.9728e-07
4.69217e-07 4.9728e-07 -1.01288e-05
0.000884271 1.73293e-07 -2.13376e-08
1.73293e-07 -3.2443e-05 -3.10462e-06
-2.13376e-08 -3.10462e-06 -2.87424e-05
0.000941724 5.08555e-08 -1.60533e-10
5.08555e-08 6.1178e-06 -7.11651e-09
-1.60533e-10 -7.11651e-09 -1.61327e-05
0.000936053 2.12709e-06 -2.95815e-07
2.12709e-06 3.25923e-06 1.75184e-06
-2.95815e-07 1.75184e-06 -1.92105e-05
0.000882152 3.80178e-06 -1.10565e-07
3.80178e-06 -3.30079e-05 2.41476e-09
-1.10565e-07 2.41476e-09 -2.95623e-05
0.00210655 4.46548e-06 2.13881e-06
4.46548e-06 0.000594631 -3.86994e-06
2.13881e-06 -3.86994e-06 0.000619439
0.00140316 8.82786e-06 -8.61615e-07
8.82786e-06 0.000236017 1.9065e-06
-8.61615e-07 1.9065e-06 0.000241285
0.00159028 8.17743e-06 1.43136e-06
8.17743e-06 0.000331532 2.82586e-08
1.43136e-06 2.82586e-08 0.000353125
0.00110684 1.02468e-05 -8.56402e-06
1.02468e-05 8.64185e-05 6.26383e-06
-8.56402e-06 6.26383e-06 0.000104284
-0.00275572 5.50746e-05 -5.67766e-05
5.50746e-05 -0.00167019 1.14891e-05
-5.67766e-05 1.14891e-05 -0.00166493
-0.00129157 7.23995e-05 -7.88727e-06
7.23995e-05 -0.00122251 6.83204e-06
-7.88727e-06 6.83204e-06 -0.00109305
0.00135796 -8.86616e-05 -5.65346e-05
-8.86616e-05 0.000192186 -1.62017e-05
-5.65346e-05 -1.62017e-05 -3.13034e-05
0.00132885 -2.58074e-05 -2.80239e-06
-2.58074e-05 3.39864e-05 -7.69767e-07
-2.80239e-06 -7.69767e-07 -1.28501e-05
0.00135056 3.4562e-05 -1.25575e-05
3.4562e-05 -0.000112804 -1.08765e-06
-1.25575e-05 -1.08765e-06 -0.000196044
0.000817627 -3.02917e-05 2.08786e-05
-3.02917e-05 5.92288e-05 -1.57084e-06
2.08786e-05 -1.57084e-06 -9.36301e-05
0.00165231 5.2815e-05 2.26176e-06
5.2815e-05 0.000171637 1.78344e-06
2.26176e-06 1.78344e-06 0.000104783
0.00482169 0.000135096 -3.1213e-05
0.000135096 0.00141407 -2.80636e-07
-3.1213e-05 -2.80636e-07 0.000822003
-0.00202637 0.000124211 4.72902e-06
0.000124211 -0.000995737 -4.22384e-06
4.72902e-06 -4.22384e-06 -0.00101001
0.000389462 0.00018479 2.53128e-06
0.00018479 -0.000442007 -3.5997e-06
2.53128e-06 -3.5997e-06 -5.22024e-05
0.000813477 4.04478e-05 2.96251e-05
4.04478e-05 0.000116645 -1.34548e-05
2.96251e-05 -1.34548e-05 -8.30831e-05
0.00517909 0.000265442 -1.45488e-05
0.000265442 0.00153478 1.07645e-05
-1.45488e-05 1.07645e-05 0.000882496
0.000140093 0.000215856 -5.52335e-05
0.000215856 -9.58877e-05 3.76942e-05
-5.52335e-05 3.76942e-05 -7.76873e-06
0.00132068 0.000122334 -8.24763e-06
0.000122334 -0.000251005 5.9118e-06
-8.24763e-06 5.9118e-06 0.000119368
0.000915484 2.64148e-05 -3.09159e-07
2.64148e-05 2.58895e-05 -7.74591e-07
-3.09159e-07 -7.74591e-07 -4.18956e-05
0.000878278 6.14133e-06 4.81832e-08
6.14133e-06 -4.13085e-07 -4.44565e-07
4.81832e-08 -4.44565e-07 -5.41999e-05
0.000965132 -2.25351e-05 -6.24347e-07
-2.25351e-05 3.31197e-05 1.00989e-06
-6.24347e-07 1.00989e-06 -7.09375e-06
0.000835498 1.36666e-05 -1.35633e-08
1.36666e-05 -2.19134e-05 6.96695e-07
-1.35633e-08 6.96695e-07 -7.60363e-05
0.00102154 3.88182e-05 5.28347e-07
3.88182e-05 7.87846e-05 9.26254e-07
5.28347e-07 9.26254e-07 1.54697e-05
0.00105455 3.22615e-05 -2.65698e-07
3.22615e-05 9.68071e-05 -6.08488e-07
-2.65698e-07 -6.08488e-07 2.92951e-05
0.000989503 2.40876e-05 7.67056e-07
2.40876e-05 5.96544e-05 9.88143e-07
7.67056e-07 9.88143e-07 -2.50196e-06
0.00098634 7.20567e-06 5.22892e-07
7.20567e-06 5.59336e-05 -5.00947e-07
5.22892e-07 -5.00947e-07 -4.97733e-06
0.00094064 -5.90135e-06 2.3646e-07
-5.90135e-06 3.2559e-05 -5.19575e-07
2.3646e-07 -5.19575e-07 -2.42815e-05
0.000845158 -2.11763e-05 -3.96577e-07
-2.11763e-05 -1.71624e-05 1.18377e-06
-3.96577e-07 1.18377e-06 -7.1505e-05
0.00222767 3.30599e-05 -6.92801e-06
3.30599e-05 0.000275395 2.21207e-06
-6.92801e-06 2.21207e-06 0.000215702
0.00172567 -9.59693e-05 -1.41045e-05
-9.59693e-05 -2.42136e-05 1.5405e-06
-1.41045e-05 1.5405e-06 -5.2605e-05
-0.000162175 -6.73655e-05 -1.92158e-06
-6.73655e-05 -0.000661059 3.60588e-06
-1.92158e-06 3.60588e-06 -0.000768378
0.00115256 -8.86718e-05 -6.84e-07
-8.86718e-05 0.000150978 2.305e-06
-6.84e-07 2.305e-06 1.82896e-05
0.00113365 -3.85337e-05 3.68893e-07
-3.85337e-05 0.000157776 7.93622e-07
3.68893e-07 7.93622e-07 3.27145e-05
0.00108031 -4.03305e-05 -2.41803e-07
-4.03305e-05 0.000104733 6.90625e-07
-2.41803e-07 6.90625e-07 1.55458e-05
0.0010069 -3.70361e-05 -4.90695e-07
-3.70361e-05 7.1338e-05 7.01548e-07
-4.90695e-07 7.01548e-07 -2.06818e-06
0.000984542 1.80608e-05 -8.53257e-08
1.80608e-05 5.95394e-05 9.85269e-07
-8.53257e-08 9.85269e-07 -1.0743e-05
0.0019419 -4.28911e-05 -4.18721e-06
-4.28911e-05 -8.00991e-06 1.23849e-06
-4.18721e-06 1.23849e-06 -2.24578e-05
0.000901936 -1.57707e-05 -1.56345e-07
-1.57707e-05 2.00383e-05 -3.89797e-08
-1.56345e-07 -3.89797e-08 -5.87672e-05
0.000980996 -3.68733e-05 4.18244e-07
-3.68733e-05 5.4311e-05 -5.72507e-07
4.18244e-07 -5.72507e-07 -3.14841e-05
0.00181606 -0.000143937 2.68155e-06
-0.000143937 0.000153693 5.00839e-07
2.68155e-06 5.00839e-07 4.79611e-05
0.000693856 -9.06315e-05 3.77309e-08
-9.06315e-05 -0.000104496 2.08972e-06
3.77309e-08 2.08972e-06 -0.000230668
0.00117672 -6.00798e-05 7.07622e-07
-6.00798e-05 0.000189368 -2.9203e-07
7.07622e-07 -2.9203e-07 3.73987e-05
0.00118819 -2.43346e-05 -1.73398e-07
-2.43346e-05 0.000166061 -3.55987e-07
-1.73398e-07 -3.55987e-07 5.64739e-05
0.00296073 -0.000130011 3.45366e-06
-0.000130011 0.000534367 -4.3509e-07
3.45366e-06 -4.3509e-07 0.000550717
0.00186442 -0.000143379 1.0301e-06
-0.000143379 0.000465428 -5.2303e-06
1.0301e-06 -5.2303e-06 0.00029169
0.000893422 1.79334e-07 -1.32025e-06
1.79334e-07 5.90062e-05 -8.24901e-07
-1.32025e-06 -8.24901e-07 -8.97751e-05
0.000972011 3.12768e-05 2.29931e-07
3.12768e-05 5.62398e-05 3.44371e-08
2.29931e-07 3.44371e-08 -2.3855e-05
0.00101543 -4.81247e-05 7.15833e-07
-4.81247e-05 6.99913e-05 -6.74411e-07
7.15833e-07 -6.74411e-07 -1.76261e-05
0.00111531 -4.03138e-06 2.68183e-07
-4.03138e-06 0.000108312 -2.17498e-07
2.68183e-07 -2.17498e-07 1.44587e-05
0.00112618 -7.77103e-06 1.44254e-06
-7.77103e-06 0.000267454 1.9218e-07
1.44254e-06 1.9218e-07 0.000260103
0.00141787 -5.30319e-06 7.63294e-06
-5.30319e-06 0.000358429 -2.79517e-06
7.63294e-06 -2.79517e-06 0.000206774
0.00054083 8.59743e-05 -3.79337e-05
8.59743e-05 -0.000491732 6.68694e-06
-3.79337e-05 6.68694e-06 -0.00100641
0.00107831 6.07509e-05 -1.11727e-07
6.07509e-05 9.73467e-05 1.29557e-07
-1.11727e-07 1.29557e-07 5.23729e-06
0.0014452 6.19063e-05 2.42509e-06
6.19063e-05 0.000308951 4.90856e-07
2.42509e-06 4.90856e-07 0.000206286
0.00185452 0.000136492 -3.52754e-06
0.000136492 0.000142914 -1.52903e-06
-3.52754e-06 -1.52903e-06 9.41976e-05
0.000837789 7.2506e-05 2.20854e-06
7.2506e-05 4.71605e-05 -3.42532e-06
2.20854e-06 -3.42532e-06 -0.00012567
0.00391397 -0.000154245 4.57937e-05
-0.000154245 0.00154489 5.47786e-06
4.57937e-05 5.47786e-06 0.00148835
0.00104013 -0.000197373 3.44423e-05
-0.000197373 -0.000275538 2.96756e-05
3.44423e-05 2.96756e-05 -0.000789144
0.00312138 -2.53182e-05 -5.96599e-05
-2.53182e-05 0.000324721 -5.77033e-05
-5.96599e-05 -5.77033e-05 0.000115892
0.000807233 4.99994e-05 5.17562e-06
4.99994e-05 -0.000223298 6.39368e-08
5.17562e-06 6.39368e-08 -0.000226599
-0.00173582 -0.000208821 5.56449e-05
-0.000208821 -0.00120336 2.66328e-05
5.56449e-05 2.66328e-05 -0.00113931
0.00218945 -0.000100568 9.806e-06
-0.000100568 0.000768051 8.09326e-06
9.806e-06 8.09326e-06 0.000914295
0.00167114 -0.000149952 6.27078e-06
-0.000149952 4.78363e-06 2.84266e-06
6.27078e-06 2.84266e-06 0.000368262
0.00118722 4.413e-05 -5.40933e-08
4.413e-05 0.000129522 2.9689e-07
-5.40933e-08 2.9689e-07 3.77912e-05
0.000761232 -3.44244e-05 -1.5127e-06
-3.44244e-05 7.40276e-05 4.92425e-07
-1.5127e-06 4.92425e-07 9.44987e-05
0.000807099 -3.55029e-07 -1.57076e-06
-3.55029e-07 -1.27702e-05 -2.62084e-06
-1.57076e-06 -2.62084e-06 -6.15154e-05
0.00107213 8.95297e-05 -1.41938e-06
8.95297e-05 6.98893e-05 9.59699e-07
-1.41938e-06 9.59699e-07 -9.46506e-05
0.000917597 2.82808e-05 -1.89777e-07
2.82808e-05 0.000122697 -3.30132e-07
-1.89777e-07 -3.30132e-07 -1.45935e-05
0.0020661 -5.24998e-06 9.99564e-06
-5.24998e-06 0.000665902 2.4941e-06
9.99564e-06 2.4941e-06 0.000560199
0.00389717 0.000208443 -2.2284e-05
0.000208443 0.00101222 -2.07742e-05
-2.2284e-05 -2.07742e-05 0.000622755
0.00591567 -0.000254134 -2.62056e-06
-0.000254134 0.0015838 4.43992e-06
-2.62056e-06 4.43992e-06 0.00081712
0.000262017 -0.000250881 8.84816e-06
-0.000250881 -0.000567839 1.64217e-05
8.84816e-06 1.64217e-05 -0.000539526
0.00169254 -5.11359e-05 -6.69932e-07
-5.11359e-05 0.000182949 4.48946e-07
-6.69932e-07 4.48946e-07 0.000314609
0.00138025 6.27603e-05 -2.48168e-07
6.27603e-05 0.000273225 -3.39488e-06
-2.48168e-07 -3.39488e-06 0.000194923
0.00193429 6.75703e-06 9.46732e-06
6.75703e-06 0.000754988 3.94472e-06
9.46732e-06 3.94472e-06 0.00068953
0.00111763 1.37781e-05 5.26895e-06
1.37781e-05 0.000162658 2.03606e-06
5.26895e-06 2.03606e-06 5.77282e-05
0.000414536 -2.63684e-05 -6.14735e-06
-2.63684e-05 -2.71057e-05 5.85024e-06
-6.14735e-06 5.85024e-06 -0.00016222
0.000915428 0.000121579 -1.67067e-05
0.000121579 0.000333698 4.09663e-05
-1.67067e-05 4.09663e-05 0.00011153
0.00564935 -0.000182806 -2.86146e-05
-0.000182806 0.00108112 -1.26554e-05
-2.86146e-05 -1.26554e-05 0.000187952
-0.000301308 -0.000138929 -3.81154e-05
-0.000138929 -0.00125402 -4.58889e-05
-3.81154e-05 -4.58889e-05 -0.00110534
0.00215217 8.25045e-06 -3.88609e-07
8.25045e-06 0.000499745 1.44569e-05
-3.88609e-07 1.44569e-05 0.00062026
0.00101129 5.50635e-05 -2.90193e-07
5.50635e-05 4.12512e-05 -2.46881e-07
-2.90193e-07 -2.46881e-07 -5.16923e-05
0.00109853 5.87321e-05 5.63569e-07
5.87321e-05 0.000103743 -3.71612e-08
5.63569e-07 -3.71612e-08 7.57548e-06
0.00128885 5.59779e-05 -1.01266e-06
5.59779e-05 0.000200021 -2.61432e-06
-1.01266e-06 -2.61432e-06 0.000104527
0.00102085 3.85948e-05 -5.90982e-07
3.85948e-05 6.93388e-05 -9.19289e-07
-5.90982e-07 -9.19289e-07 9.65821e-06
0.00100232 -6.92435e-06 1.5077e-07
-6.92435e-06 5.96736e-05 -4.0025e-07
1.5077e-07 -4.0025e-07 -9.67123e-06
0.00103501 2.84607e-05 -2.4425e-07
2.84607e-05 7.71524e-05 -4.94161e-07
-2.4425e-07 -4.94161e-07 -7.87511e-07
0.000994636 3.67706e-05 2.04476e-07
3.67706e-05 6.72587e-05 -1.5741e-07
2.04476e-07 -1.5741e-07 -2.91878e-05
0.00104436 1.80568e-05 2.10356e-07
1.80568e-05 8.13025e-05 1.38781e-09
2.10356e-07 1.38781e-09 1.13634e-05
0.00109911 1.71647e-05 -5.27532e-08
1.71647e-05 0.000110602 4.48201e-07
-5.27532e-08 4.48201e-07 2.80043e-05
0.00107109 9.74483e-06 3.63855e-07
9.74483e-06 0.000113808 -6.88981e-07
3.63855e-07 -6.88981e-07 9.00557e-06
0.0013217 -2.28178e-06 7.1415e-08
-2.28178e-06 0.000249582 -7.57419e-07
7.1415e-08 -7.57419e-07 0.000149633
0.0011047 -3.17624e-05 3.19348e-07
-3.17624e-05 0.000110576 5.50223e-07
3.19348e-07 5.50223e-07 1.60336e-05
0.00113175 3.21601e-05 6.06084e-07
3.21601e-05 0.000123371 5.3571e-07
6.06084e-07 5.3571e-07 4.43121e-05
0.00103047 -7.23102e-06 4.65329e-07
-7.23102e-06 7.45911e-05 -5.84708e-07
4.65329e-07 -5.84708e-07 4.9507e-06
0.000998461 5.8439e-06 1.72035e-07
5.8439e-06 5.96912e-05 -7.35831e-07
1.72035e-07 -7.35831e-07 -1.12726e-05
0.00101304 -4.88237e-07 -2.77796e-07
-4.88237e-07 5.88391e-05 -1.45958e-06
-2.77796e-07 -1.45958e-06 -1.62937e-05
0.00110601 1.192e-05 -1.62453e-07
1.192e-05 0.000108771 -4.33725e-07
-1.62453e-07 -4.33725e-07 3.20738e-05
0.000996729 -2.50642e-06 4.15345e-08
-2.50642e-06 6.16007e-05 3.45213e-07
4.15345e-08 3.45213e-07 -1.24721e-05
0.000990119 -8.497e-07 3.80089e-08
-8.497e-07 4.64208e-05 -1.83136e-07
3.80089e-08 -1.83136e-07 -3.24343e-05
0.00101503 -2.07287e-05 -7.66931e-08
-2.07287e-05 6.27047e-05 5.25009e-07
-7.66931e-08 5.25009e-07 -2.06118e-05
0.00105505 -1.58658e-05 2.17975e-07
-1.58658e-05 7.63827e-05 2.11451e-07
2.17975e-07 2.11451e-07 -5.59285e-06
0.000999771 -4.95072e-05 3.73749e-07
-4.95072e-05 6.00733e-05 -1.12654e-07
3.73749e-07 -1.12654e-07 -3.06776e-05
0.00109471 -3.82601e-05 -2.90404e-07
-3.82601e-05 0.00010952 -7.11777e-08
-2.90404e-07 -7.11777e-08 2.31031e-05
0.000825672 -4.92924e-05 -1.12562e-07
-4.92924e-05 -5.21036e-06 1.07738e-06
-1.12562e-07 1.07738e-06 -9.62777e-05
0.00109886 -6.19808e-05 -1.12236e-06
-6.19808e-05 0.000114587 1.82573e-06
-1.12236e-06 1.82573e-06 2.13328e-05
0.00112606 -5.27025e-05 3.40917e-07
-5.27025e-05 0.000132745 -1.09894e-06
3.40917e-07 -1.09894e-06 5.18999e-05
0.000855236 -5.11811e-05 3.0485e-07
-5.11811e-05 1.3012e-05 -1.22523e-06
3.0485e-07 -1.22523e-06 -7.32076e-05
0.00101572 -3.95494e-05 1.93878e-07
-3.95494e-05 7.8469e-05 -5.02031e-07
1.93878e-07 -5.02031e-07 -3.02813e-06
0.000886486 -2.34058e-05 -4.76465e-07
-2.34058e-05 4.14602e-06 7.93234e-07
-4.76465e-07 7.93234e-07 -6.73225e-05
0.00103356 -2.47253e-05 -9.08808e-08
-2.47253e-05 8.35194e-05 -1.87854e-07
-9.08808e-08 -1.87854e-07 4.85967e-06
0.00100207 -1.92551e-05 -1.37959e-07
-1.92551e-05 6.13887e-05 4.57967e-07
-1.37959e-07 4.57967e-07 -5.02177e-06
0.0009589 3.25646e-06 -3.17295e-07
3.25646e-06 3.05574e-05 1.22091e-06
-3.17295e-07 1.22091e-06 -2.05356e-05
0.000992235 -2.17126e-05 3.49083e-07
-2.17126e-05 5.68096e-05 -8.73143e-07
3.49083e-07 -8.73143e-07 -6.95716e-06
0.000954895 -4.45138e-06 -2.0742e-07
-4.45138e-06 2.97793e-05 -3.84769e-08
-2.0742e-07 -3.84769e-08 -1.89542e-05
0.00092467 1.04321e-05 -7.69131e-07
1.04321e-05 7.01191e-06 1.69709e-06
-7.69131e-07 1.69709e-06 -2.30638e-05
0.000958271 -3.58428e-06 6.71036e-07
-3.58428e-06 3.19678e-05 -9.31657e-07
6.71036e-07 -9.31657e-07 -1.52028e-05
0.000928199 4.35954e-06 -1.48095e-07
4.35954e-06 6.41007e-06 -4.76324e-10
-1.48095e-07 -4.76324e-10 -2.23059e-05
0.00146373 1.39023e-05 -5.12219e-06
1.39023e-05 0.000274084 4.27806e-06
-5.12219e-06 4.27806e-06 0.000275644
0.000926874 -2.83295e-06 8.92513e-07
-2.83295e-06 4.37235e-06 -1.62721e-06
8.92513e-07 -1.62721e-06 -2.32941e-05
0.00116853 1.03257e-05 -1.86312e-06
1.03257e-05 0.0001194 5.83103e-07
-1.86312e-06 5.83103e-07 0.000120451
0.00102025 1.02624e-05 -1.23896e-06
1.02624e-05 4.18428e-05 1.52075e-06
-1.23896e-06 1.52075e-06 5.91557e-05
0.000878815 6.50945e-06 6.60382e-07
6.50945e-06 -3.22451e-05 -3.04414e-06
6.60382e-07 -3.04414e-06 -3.18275e-05
0.0016171 7.91937e-06 2.83036e-06
7.91937e-06 0.000344732 -1.18512e-06
2.83036e-06 -1.18512e-06 0.000365484
0.00219838 4.24979e-06 3.75686e-06
4.24979e-06 0.000641999 -3.90567e-06
3.75686e-06 -3.90567e-06 0.000665678
0.00102624 -3.70589e-06 1.18597e-07
-3.70589e-06 6.4578e-05 -1.05878e-06
1.18597e-07 -1.05878e-06 1.97502e-05
0.000941702 -3.5914e-06 -2.54157e-07
-3.5914e-06 7.65609e-06 -1.67902e-06
-2.54157e-07 -1.67902e-06 -1.62978e-05
0.00100567 3.91673e-06 2.36121e-07
3.91673e-06 5.38159e-05 5.78326e-08
2.36121e-07 5.78326e-08 1.21791e-05
0.000888396 -3.23167e-06 -3.57264e-07
-3.23167e-06 -2.96595e-05 -3.1042e-06
-3.57264e-07 -3.1042e-06 -2.644e-05
0.000941053 -1.96706e-06 -5.6133e-08
-1.96706e-06 6.26248e-06 -5.69352e-09
-5.6133e-08 -5.69352e-09 -1.65502e-05
0.000962797 -4.30424e-06 -3.4748e-07
-4.30424e-06 3.15567e-05 1.42686e-06
-3.4748e-07 1.42686e-06 -8.44509e-06
0.00210326 4.89866e-08 -7.60745e-07
4.89866e-08 0.000592527 -3.89951e-06
-7.60745e-07 -3.89951e-06 0.000617444
0.000883272 2.8942e-07 -7.87887e-08
2.8942e-07 -3.29924e-05 -4.91164e-09
-7.87887e-08 -4.91164e-09 -2.92787e-05
0.000938666 -4.06324e-07 -1.09457e-07
-4.06324e-07 4.51681e-06 1.7538e-06
-1.09457e-07 1.7538e-06 -1.7718e-05
0.000886326 3.90184e-06 -3.97557e-07
3.90184e-06 -3.08731e-05 3.0801e-06
-3.97557e-07 3.0801e-06 -2.74602e-05
0.0021083 4.63211e-06 -1.23963e-06
4.63211e-06 0.000595695 -8.09378e-09
-1.23963e-06 -8.09378e-09 0.000620449
0.00212574 8.87127e-06 -6.47491e-06
8.87127e-06 0.000606196 3.84417e-06
-6.47491e-06 3.84417e-06 0.000630506
-0.00103358 1.41511e-05 2.26356e-06
1.41511e-05 -0.000969316 -1.41425e-06
2.26356e-06 -1.41425e-06 -0.000984993
-0.000254472 9.74068e-05 2.61116e-05
9.74068e-05 -0.000317875 -2.89777e-06
2.61116e-05 -2.89777e-06 -0.000390974
0.00108351 8.28271e-06 4.89543e-06
8.28271e-06 0.000104367 2.88347e-06
4.89543e-06 2.88347e-06 7.61643e-05
-0.00110512 8.21644e-05 -2.13134e-06
8.21644e-05 -0.00103622 1.90954e-06
-2.13134e-06 1.90954e-06 -0.000903662
0.00210783 2.50207e-05 -7.61306e-05
2.50207e-05 0.000537776 -6.24666e-06
-7.61306e-05 -6.24666e-06 0.000307041
0.00179095 5.57206e-05 6.08362e-06
5.57206e-05 0.000227285 -1.66244e-06
6.08362e-06 -1.66244e-06 0.000157337
0.000416267 -1.03769e-05 -2.44302e-05
-1.03769e-05 -0.000480615 3.76284e-06
-2.44302e-05 3.76284e-06 -0.000956305
0.0040784 0.000182106 9.53822e-05
0.000182106 0.00182087 -2.85478e-05
9.53822e-05 -2.85478e-05 0.00175504
-0.00032166 0.000200749 1.21787e-05
0.000200749 -0.000885661 -1.45073e-05
1.21787e-05 -1.45073e-05 -0.000481421
0.00136712 4.67874e-05 -4.24708e-06
4.67874e-05 0.00021214 4.19911e-06
-4.24708e-06 4.19911e-06 2.17633e-05
0.00277053 0.000174887 7.17149e-06
0.000174887 0.000510557 -6.86419e-06
7.17149e-06 -6.86419e-06 -0.000311278
0.00282114 0.000307054 2.98301e-06
0.000307054 0.000837568 2.21652e-07
2.98301e-06 2.21652e-07 0.000835541
0.00143221 0.000112231 -2.72488e-06
0.000112231 -0.00014589 2.09462e-06
-2.72488e-06 2.09462e-06 0.000217385
0.0013956 6.04509e-05 5.62805e-07
6.04509e-05 0.000306226 6.12983e-07
5.62805e-07 6.12983e-07 4.64886e-05
0.00302967 0.000220749 2.92668e-05
0.000220749 0.00060049 -1.83442e-05
2.92668e-05 -1.83442e-05 -0.00028442
-0.00230796 0.000218892 -5.07435e-05
0.000218892 -0.00201885 4.39047e-05
-5.07435e-05 4.39047e-05 -0.00187391
0.000770025 3.83313e-05 -6.92721e-07
3.83313e-05 -0.000362946 -1.12906e-06
-6.92721e-07 -1.12906e-06 -0.000216918
0.00106443 -3.16896e-06 6.96734e-07
-3.16896e-06 0.000101813 -7.7258e-07
6.96734e-07 -7.7258e-07 2.64452e-05
0.00100158 2.73592e-05 -7.44155e-07
2.73592e-05 6.88675e-05 -2.82015e-07
-7.44155e-07 -2.82015e-07 2.39795e-06
0.000965755 9.16654e-06 2.74037e-07
9.16654e-06 4.26122e-05 2.22875e-07
2.74037e-07 2.22875e-07 -1.01109e-05
0.000959252 3.98913e-05 1.05075e-06
3.98913e-05 4.86273e-05 1.52755e-06
1.05075e-06 1.52755e-06 -1.39653e-05
0.000952205 8.89699e-06 -2.42332e-07
8.89699e-06 4.22232e-05 -4.56891e-07
-2.42332e-07 -4.56891e-07 -3.05496e-05
0.00108068 2.86214e-05 1.124e-07
2.86214e-05 0.000109063 5.03699e-07
1.124e-07 5.03699e-07 4.26086e-05
0.000951801 7.5844e-06 -2.3655e-07
7.5844e-06 3.97789e-05 1.73533e-06
-2.3655e-07 1.73533e-06 -2.16865e-05
0.00110299 3.50987e-05 -7.43552e-07
3.50987e-05 0.000113937 -6.79301e-07
-7.43552e-07 -6.79301e-07 5.08201e-05
0.00107285 1.90549e-05 -4.96374e-08
1.90549e-05 0.000100432 4.62692e-07
-4.96374e-08 4.62692e-07 3.97703e-05
0.000873132 -1.45039e-05 -6.33442e-07
-1.45039e-05 -1.71433e-06 3.91832e-07
-6.33442e-07 3.91832e-07 -5.94413e-05
0.00186814 -4.07804e-05 -7.78055e-06
-4.07804e-05 -5.33928e-05 3.93744e-07
-7.78055e-06 3.93744e-07 -8.22786e-05
0.00100954 -0.000118766 -7.40315e-06
-0.000118766 -0.000240924 4.62924e-06
-7.40315e-06 4.62924e-06 -0.000337559
0.000967733 -9.66363e-05 2.09463e-06
-9.66363e-05 3.94881e-05 4.53495e-06
2.09463e-06 4.53495e-06 -8.44339e-05
0.00120084 -5.9033e-05 4.24167e-07
-5.9033e-05 0.000195641 1.89948e-06
4.24167e-07 1.89948e-06 4.8673e-05
0.00115485 -2.02131e-05 -6.70024e-08
-2.02131e-05 0.000150197 4.61901e-07
-6.70024e-08 4.61901e-07 3.53129e-05
0.000929921 -3.98983e-05 -2.26879e-07
-3.98983e-05 2.80945e-05 6.16485e-07
-2.26879e-07 6.16485e-07 -5.93588e-05
0.000920321 1.97031e-05 -4.45109e-10
1.97031e-05 2.89775e-05 2.24021e-07
-4.45109e-10 2.24021e-07 -5.01074e-05
0.00101607 -5.31932e-06 2.5043e-07
-5.31932e-06 7.74778e-05 6.42025e-07
2.5043e-07 6.42025e-07 -2.59928e-06
0.00214878 -0.000128805 6.2277e-07
-0.000128805 0.000148375 -1.49682e-07
6.2277e-07 -1.49682e-07 0.00015639
0.00107616 -6.08278e-06 -1.42809e-07
-6.08278e-06 0.000101936 -1.87846e-07
-1.42809e-07 -1.87846e-07 1.5268e-05
0.00121308 -1.27189e-05 -7.25036e-08
-1.27189e-05 0.00015956 -2.96831e-08
-7.25036e-08 -2.96831e-08 6.367e-05
0.00159761 -0.000132492 -2.20623e-07
-0.000132492 0.000344057 -1.58074e-06
-2.20623e-07 -1.58074e-06 0.00016443
0.00115474 -1.08025e-05 -4.51938e-07
-1.08025e-05 0.000181116 -3.2498e-08
-4.51938e-07 -3.2498e-08 3.51541e-05
0.00077782 -0.00013894 -7.6574e-06
-0.00013894 -0.000343556 -7.395e-06
-7.6574e-06 -7.395e-06 -0.000343529
0.00150717 -3.60576e-05 -1.81234e-06
-3.60576e-05 0.000425533 4.10767e-08
-1.81234e-06 4.10767e-08 0.000197167
0.000919025 2.57482e-05 -9.1746e-07
2.57482e-05 1.49777e-05 1.36246e-06
-9.1746e-07 1.36246e-06 -8.81643e-05
0.0010286 2.8908e-05 -2.1224e-08
2.8908e-05 7.30602e-05 -1.09111e-06
-2.1224e-08 -1.09111e-06 -1.13029e-05
0.0010756 2.42649e-05 -1.7547e-07
2.42649e-05 8.29124e-05 -4.50574e-08
-1.7547e-07 -4.50574e-08 -1.14408e-05
0.00197625 -4.62405e-06 7.88112e-06
-4.62405e-06 0.000798744 9.70197e-07
7.88112e-06 9.70197e-07 0.000725298
4.37227e-05 -8.21321e-06 9.80331e-06
-8.21321e-06 -0.000336744 -4.19859e-07
9.80331e-06 -4.19859e-07 -0.000356679
-0.00284669 -1.37194e-05 8.35065e-05
-1.37194e-05 -0.00176952 8.61253e-08
8.35065e-05 8.61253e-08 -0.00179941
0.00137745 5.65721e-05 1.33798e-06
5.65721e-05 0.000233721 1.91237e-06
1.33798e-06 1.91237e-06 0.000139973
-4.51306e-05 1.38669e-05 2.32276e-06
1.38669e-05 -0.000336704 -1.27014e-06
2.32276e-06 -1.27014e-06 -0.000479147
0.00157422 9.52947e-05 8.27637e-07
9.52947e-05 0.00030568 -6.61808e-06
8.27637e-07 -6.61808e-06 0.000140129
-0.00105399 -1.90002e-05 3.35005e-06
-1.90002e-05 -0.000991047 9.09207e-07
3.35005e-06 9.09207e-07 -0.00101513
0.00245666 -0.000259892 2.46675e-05
-0.000259892 0.000143047 1.99898e-05
2.46675e-05 1.99898e-05 -0.00076613
0.00204358 0.000148134 3.95734e-05
0.000148134 0.000286903 -4.24028e-05
3.95734e-05 -4.24028e-05 8.39223e-05
0.00143285 2.75145e-06 4.66992e-05
2.75145e-06 0.000220692 1.37098e-05
4.66992e-05 1.37098e-05 4.47173e-05
0.00421634 -0.000363768 4.46787e-05
-0.000363768 0.00112258 5.08503e-05
4.46787e-05 5.08503e-05 0.00113394
0.000623392 4.49102e-06 -8.12589e-06
4.49102e-06 -0.000135871 -2.56443e-06
-8.12589e-06 -2.56443e-06 -0.000183397
0.00107804 -3.87966e-05 -3.00534e-06
-3.87966e-05 -0.000129373 -5.73642e-06
-3.00534e-06 -5.73642e-06 -3.29105e-05
0.00101543 5.67356e-05 1.40161e-06
5.67356e-05 9.10291e-05 -4.40245e-07
1.40161e-06 -4.40245e-07 1.53208e-05
0.00125943 9.34762e-06 1.02923e-06
9.34762e-06 0.000355912 1.23194e-06
1.02923e-06 1.23194e-06 0.000286504
0.000938253 1.45663e-05 -1.77128e-06
1.45663e-05 4.99262e-05 -1.71384e-06
-1.77128e-06 -1.71384e-06 -5.42384e-05
-0.000274535 -2.3455e-06 1.08164e-05
-2.3455e-06 -0.000365847 -4.03197e-07
1.08164e-05 -4.03197e-07 -0.000518762
0.00255468 0.00018275 -3.59406e-05
0.00018275 0.000808643 -1.79752e-05
-3.59406e-05 -1.79752e-05 0.000609661
0.0059537 -4.07703e-06 1.83328e-05
-4.07703e-06 0.00113004 5.29599e-06
1.83328e-05 5.29599e-06 0.000222116
0.00110069 -2.49237e-06 8.74769e-07
-2.49237e-06 -0.000107676 1.69889e-06
8.74769e-07 1.69889e-06 -3.81902e-05
0.00161107 -0.000217035 7.08725e-07
-0.000217035 -0.000397628 2.6262e-05
7.08725e-07 2.6262e-05 -0.000314124
0.000892937 3.38784e-05 -1.86019e-06
3.38784e-05 5.70255e-05 -6.4021e-06
-1.86019e-06 -6.4021e-06 -5.59918e-06
0.00105544 1.16719e-05 1.23601e-05
1.16719e-05 0.00012598 -1.96938e-07
1.23601e-05 -1.96938e-07 1.05742e-05
0.00180126 -6.33708e-06 -4.97772e-06
-6.33708e-06 0.000550084 -3.00536e-07
-4.97772e-06 -3.00536e-07 0.000427154
0.000754425 2.34141e-05 -6.46228e-07
2.34141e-05 -0.000309449 4.31104e-06
-6.46228e-07 4.31104e-06 -0.000212319
-0.00149442 5.07092e-05 -3.89691e-06
5.07092e-05 -0.000841869 1.32119e-06
-3.89691e-06 1.32119e-06 -0.000987297
0.0066615 -5.69753e-05 1.89599e-05
-5.69753e-05 0.00145693 1.65833e-05
1.89599e-05 1.65833e-05 0.000870636
0.000203971 6.25739e-06 -2.40651e-06
6.25739e-06 -0.00102825 -6.3635e-05
-2.40651e-06 -6.3635e-05 -0.000771214
0.00144703 6.75494e-05 8.26114e-07
6.75494e-05 0.000270007 2.18382e-06
8.26114e-07 2.18382e-06 0.000176788
0.00127884 5.69979e-05 -9.3822e-07
5.69979e-05 0.000184981 8.09899e-07
-9.3822e-07 8.09899e-07 8.62085e-05
0.00164002 5.52216e-05 6.48225e-07
5.52216e-05 0.000398183 -3.47593e-06
6.48225e-07 -3.47593e-06 0.000300543
0.00102949 4.03495e-05 -2.77673e-07
4.03495e-05 7.37877e-05 -4.05952e-07
-2.77673e-07 -4.05952e-07 3.95864e-06
0.00107353 2.78766e-05 -1.315e-07
2.78766e-05 9.66564e-05 -4.62309e-07
-1.315e-07 -4.62309e-07 1.48272e-05
0.000864607 3.35269e-08 -3.25081e-07
3.35269e-08 1.42489e-05 9.91186e-07
-3.25081e-07 9.91186e-07 -9.41023e-05
0.00114815 2.97388e-05 -4.82331e-08
2.97388e-05 0.000130251 -1.63677e-07
-4.82331e-08 -1.63677e-07 5.22232e-05
0.00106704 -3.27439e-05 -2.98559e-09
-3.27439e-05 9.15516e-05 1.62292e-07
-2.98559e-09 1.62292e-07 -4.05513e-06
0.00104177 -2.31436e-05 6.67269e-07
-2.31436e-05 0.000104417 6.16412e-07
6.67269e-07 6.16412e-07 -1.71209e-07
0.000943709 -1.25661e-05 2.20078e-07
-1.25661e-05 6.17488e-05 -4.3405e-08
2.20078e-07 -4.3405e-08 -3.10438e-05
0.00109682 -3.15955e-05 -5.59396e-07
-3.15955e-05 9.27321e-05 4.54353e-07
-5.59396e-07 4.54353e-07 5.86452e-06
0.00111867 1.09074e-05 -5.4381e-07
1.09074e-05 0.000113717 -8.66401e-07
-5.4381e-07 -8.66401e-07 3.78694e-05
0.00101724 8.51445e-07 1.80536e-08
8.51445e-07 7.29574e-05 -3.51334e-07
1.80536e-08 -3.51334e-07 -1.4331e-06
0.00104201 2.8592e-06 -2.26314e-07
2.8592e-06 7.1229e-05 -6.39101e-07
-2.26314e-07 -6.39101e-07 -7.06326e-06
0.00103869 -2.07152e-05 2.13952e-07
-2.07152e-05 6.78176e-05 4.91897e-09
2.13952e-07 4.91897e-09 -1.4296e-05
0.00101926 -1.82197e-05 -2.53308e-08
-1.82197e-05 6.36418e-05 4.15205e-07
-2.53308e-08 4.15205e-07 -1.91956e-05
0.00103231 -5.12505e-05 9.40343e-08
-5.12505e-05 8.69214e-05 1.00406e-06
9.40343e-08 1.00406e-06 -3.24633e-06
0.000982354 -4.93773e-05 1.10726e-07
-4.93773e-05 5.6105e-05 -7.62532e-07
1.10726e-07 -7.62532e-07 -3.30298e-05
0.00110196 -6.13051e-05 6.52213e-07
-6.13051e-05 0.000127045 9.73393e-07
6.52213e-07 9.73393e-07 2.01791e-05
0.00118617 -4.22485e-05 1.32752e-07
-4.22485e-05 0.000154873 -3.43841e-07
1.32752e-07 -3.43841e-07 6.84572e-05
0.00108766 -5.66363e-05 -1.06768e-07
-5.66363e-05 0.000121098 1.01455e-06
-1.06768e-07 1.01455e-06 2.96538e-05
0.000716198 -5.43466e-05 -3.18979e-07
-5.43466e-05 -7.7076e-05 1.89562e-06
-3.18979e-07 1.89562e-06 -0.000179111
0.00101582 -6.01865e-05 -1.75197e-06
-6.01865e-05 7.30466e-05 3.00132e-07
-1.75197e-06 3.00132e-07 -1.82549e-05
0.00105943 -5.66217e-05 -1.12442e-06
-5.66217e-05 0.00010102 2.33625e-07
-1.12442e-06 2.33625e-07 1.8961e-05
0.000978898 -5.82022e-05 -2.99444e-07
-5.82022e-05 5.79994e-05 -9.84718e-08
-2.99444e-07 -9.84718e-08 -3.50503e-05
0.0010283 -3.97391e-05 -4.98285e-07
-3.97391e-05 7.71994e-05 5.79968e-07
-4.98285e-07 5.79968e-07 3.46401e-06
0.00112198 -5.30656e-05 -2.76395e-07
-5.30656e-05 0.000130596 -3.23291e-07
-2.76395e-07 -3.23291e-07 4.92023e-05
0.000912462 -5.30849e-05 -5.66275e-08
-5.30849e-05 4.42232e-05 -1.43747e-06
-5.66275e-08 -1.43747e-06 -3.91385e-05
0.00112936 -4.26589e-05 4.90077e-07
-4.26589e-05 0.000135132 -6.88241e-07
4.90077e-07 -6.88241e-07 5.43343e-05
0.000952522 -2.46381e-05 6.44973e-08
-2.46381e-05 3.75976e-05 -2.65249e-08
6.44973e-08 -2.65249e-08 -3.30156e-05
0.000973792 -1.97982e-06 -4.58184e-07
-1.97982e-06 3.93252e-05 1.37885e-06
-4.58184e-07 1.37885e-06 -1.58835e-05
0.0010051 -2.19358e-05 2.74256e-07
-2.19358e-05 6.35249e-05 -4.73668e-07
2.74256e-07 -4.73668e-07 -3.29275e-06
0.000963058 -1.1289e-07 -8.96728e-08
-1.1289e-07 3.31523e-05 -9.18301e-08
-8.96728e-08 -9.18301e-08 -1.81432e-05
0.00091541 1.28866e-05 -9.47922e-07
1.28866e-05 4.67735e-06 1.81833e-06
-9.47922e-07 1.81833e-06 -2.71719e-05
0.000954643 -8.55976e-06 5.25361e-07
-8.55976e-06 2.99806e-05 -1.07269e-06
5.25361e-07 -1.07269e-06 -1.88937e-05
0.000919475 9.45468e-06 -6.65372e-08
9.45468e-06 4.07217e-06 -3.6705e-09
-6.65372e-08 -3.6705e-09 -2.59834e-05
0.00143861 1.71045e-05 -5.78269e-06
1.71045e-05 0.000266036 3.09616e-06
-5.78269e-06 3.09616e-06 0.000266293
0.000923651 3.50162e-07 9.36503e-07
3.50162e-07 3.77857e-06 -1.64878e-06
9.36503e-07 -1.64878e-06 -2.48854e-05
0.001167 1.34749e-05 -2.32638e-06
1.34749e-05 0.00012224 5.73314e-07
-2.32638e-06 5.73314e-07 0.00012222
0.00101564 1.36882e-05 -1.74101e-06
1.36882e-05 4.37944e-05 1.54008e-06
-1.74101e-06 1.54008e-06 6.00938e-05
0.000876896 9.64585e-06 1.00665e-06
9.64585e-06 -3.04572e-05 -3.08286e-06
1.00665e-06 -3.08286e-06 -3.07814e-05
0.00162276 1.20247e-05 3.81688e-06
1.20247e-05 0.000350595 -1.16545e-06
3.81688e-06 -1.16545e-06 0.000370727
0.00220417 8.86901e-06 6.3254e-06
8.86901e-06 0.000646829 -3.88885e-06
6.3254e-06 -3.88885e-06 0.000670151
0.000794865 -3.14169e-07 -3.64322e-07
-3.14169e-07 -5.2626e-05 -1.57535e-06
-3.64322e-07 -1.57535e-06 -0.000102567
0.000685115 -6.29188e-06 -3.2646e-07
-6.29188e-06 -0.000120044 -2.31911e-06
-3.2646e-07 -2.31911e-06 -0.000147645
0.00103927 2.06592e-07 -3.40802e-08
2.06592e-07 7.13303e-05 5.76746e-08
-3.40802e-08 5.76746e-08 2.62456e-05
0.000889551 -6.5043e-06 -6.25083e-07
-6.5043e-06 -2.73443e-05 -3.12419e-06
-6.25083e-07 -3.12419e-06 -2.52437e-05
0.000815489 -4.07452e-06 3.39519e-08
-4.07452e-06 -5.59411e-05 -1.46502e-08
3.39519e-08 -1.46502e-08 -8.0762e-05
0.000803612 -1.56112e-05 -1.46831e-07
-1.56112e-05 -4.85775e-05 1.05025e-06
-1.46831e-07 1.05025e-06 -9.14613e-05
0.00211911 -4.3149e-06 -3.76713e-06
-4.3149e-06 0.000601339 -3.92379e-06
-3.76713e-06 -3.92379e-06 0.000625956
0.000882188 -3.13434e-06 -1.34724e-07
-3.13434e-06 -3.29168e-05 -1.64848e-08
-1.34724e-07 -1.64848e-08 -2.96322e-05
0.00094103 -2.44107e-06 -4.67875e-08
-2.44107e-06 6.29014e-06 1.72676e-06
-4.67875e-08 1.72676e-06 -1.6525e-05
0.00210217 1.97418e-07 -1.28217e-06
1.97418e-07 0.000591962 2.20057e-10
-1.28217e-06 2.20057e-10 0.000616887
0.000883592 4.02917e-07 -9.05451e-08
4.02917e-07 -3.28588e-05 3.09447e-06
-9.05451e-08 3.09447e-06 -2.91391e-05
0.00210962 4.79726e-06 -3.42236e-06
4.79726e-06 0.000596526 3.87434e-06
-3.42236e-06 3.87434e-06 0.000621227
0.00129063 -1.02663e-05 8.6289e-06
-1.02663e-05 0.00034148 -4.52097e-07
8.6289e-06 -4.52097e-07 0.000265881
0.0012187 3.13763e-05 1.64113e-06
3.13763e-05 0.000329833 -9.94698e-08
1.64113e-06 -9.94698e-08 0.000356433
0.000358777 4.5942e-06 0.000109897
4.5942e-06 -0.00018343 -1.69987e-05
0.000109897 -1.69987e-05 -0.000367698
0.00100129 1.85439e-05 -4.05235e-07
1.85439e-05 5.66295e-05 -8.67591e-07
-4.05235e-07 -8.67591e-07 -8.92454e-06
0.00129571 -4.35101e-06 1.639e-05
-4.35101e-06 0.000271824 3.01087e-06
1.639e-05 3.01087e-06 0.000171976
0.00120369 3.89696e-06 -4.8831e-06
3.89696e-06 0.000206581 8.26089e-07
-4.8831e-06 8.26089e-07 0.000163817
0.00135984 0.000101532 6.16137e-06
0.000101532 0.000373417 -4.88153e-06
6.16137e-06 -4.88153e-06 0.000551679
0.00165464 7.31002e-05 -4.25837e-05
7.31002e-05 0.000123926 1.71751e-05
-4.25837e-05 1.71751e-05 -9.56023e-05
0.00601509 0.000283026 1.46141e-05
0.000283026 0.00211446 -1.16293e-05
1.46141e-05 -1.16293e-05 0.00130635
-0.0010455 0.00021229 5.64796e-05
0.00021229 -0.000843418 -3.65778e-05
5.64796e-05 -3.65778e-05 -0.000800996
0.00221886 0.00010956 4.3172e-06
0.00010956 0.000352489 -3.75505e-06
4.3172e-06 -3.75505e-06 0.000695829
0.00153671 6.08857e-05 -2.41997e-05
6.08857e-05 -7.85758e-06 8.35423e-06
-2.41997e-05 8.35423e-06 -0.000334957
0.00469072 0.00021728 2.35219e-05
0.00021728 0.00129844 -1.90912e-05
2.35219e-05 -1.90912e-05 0.000486639
0.00139242 0.000256904 -6.85256e-06
0.000256904 -0.000427938 1.26922e-05
-6.85256e-06 1.26922e-05 -0.000283913
0.00184704 4.31741e-05 7.14666e-07
4.31741e-05 0.000205421 1.82334e-06
7.14666e-07 1.82334e-06 0.000394909
0.00316103 -8.00218e-05 1.90491e-05
-8.00218e-05 0.000687331 -3.08457e-05
1.90491e-05 -3.08457e-05 0.000330322
0.00701786 0.000212173 2.43655e-05
0.000212173 0.00187812 -2.8538e-06
2.43655e-05 -2.8538e-06 0.000909481
0.00196557 0.000234432 7.32982e-06
0.000234432 -0.000391367 6.26655e-05
7.32982e-06 6.26655e-05 -0.000352185
0.00290282 2.83807e-05 -2.56209e-06
2.83807e-05 0.000901016 -5.32331e-06
-2.56209e-06 -5.32331e-06 0.00106584
0.000959314 -3.51197e-06 5.80861e-08
-3.51197e-06 3.97203e-05 -1.06728e-06
5.80861e-08 -1.06728e-06 -4.04268e-05
0.00102824 -1.51706e-05 2.79405e-07
-1.51706e-05 8.36997e-05 -4.3811e-08
2.79405e-07 -4.3811e-08 7.66701e-06
0.0010918 3.32825e-05 -4.45139e-07
3.32825e-05 0.000115196 6.19082e-07
-4.45139e-07 6.19082e-07 4.90069e-05
0.000980921 9.59151e-06 -3.41795e-07
9.59151e-06 4.98372e-05 -1.26719e-06
-3.41795e-07 -1.26719e-06 -2.22989e-05
0.00104326 2.91063e-05 -3.0045e-07
2.91063e-05 8.78612e-05 3.89517e-07
-3.0045e-07 3.89517e-07 1.62609e-05
0.00109769 1.5049e-05 2.91363e-07
1.5049e-05 0.000116414 1.54082e-06
2.91363e-07 1.54082e-06 5.11762e-05
0.00115101 3.51473e-05 -3.22643e-07
3.51473e-05 0.000137819 6.44856e-08
-3.22643e-07 6.44856e-08 7.49702e-05
0.00116235 3.58827e-05 6.55766e-07
3.58827e-05 0.000146118 1.49184e-06
6.55766e-07 1.49184e-06 8.58599e-05
0.00125811 -0.000124079 2.64543e-06
-0.000124079 -0.000281147 -3.59863e-06
2.64543e-06 -3.59863e-06 -0.000279067
0.00139961 -0.000122826 -1.39348e-06
-0.000122826 0.000255899 3.78382e-06
-1.39348e-06 3.78382e-06 7.1144e-05
0.000987535 -5.81116e-05 -1.2266e-06
-5.81116e-05 6.40038e-05 1.21673e-06
-1.2266e-06 1.21673e-06 -1.6951e-05
0.00145744 -2.17597e-05 1.80915e-07
-2.17597e-05 0.000323268 7.10324e-07
1.80915e-07 7.10324e-07 0.000181049
0.00127884 -2.44629e-05 -6.05614e-07
-2.44629e-05 0.000193196 6.97892e-07
-6.05614e-07 6.97892e-07 9.61254e-05
0.00113489 7.05719e-06 -4.56201e-07
7.05719e-06 0.000133177 -2.93944e-07
-4.56201e-07 -2.93944e-07 4.72915e-05
0.00105864 2.58963e-05 9.84152e-08
2.58963e-05 8.95519e-05 3.0094e-07
9.84152e-08 3.0094e-07 4.46778e-06
0.001691 -0.000163314 -8.36006e-07
-0.000163314 9.22811e-05 -8.48601e-07
-8.36006e-07 -8.48601e-07 9.38253e-05
0.00106648 1.11547e-05 3.05396e-08
1.11547e-05 8.19057e-05 -7.15047e-07
3.05396e-08 -7.15047e-07 -1.18152e-05
0.00111368 6.77223e-06 -2.5201e-07
6.77223e-06 0.000118972 1.48802e-07
-2.5201e-07 1.48802e-07 9.29812e-06
0.00110375 -2.93263e-05 -3.32213e-07
-2.93263e-05 0.000238045 4.07299e-07
-3.32213e-07 4.07299e-07 -3.5895e-06
0.00118868 2.58571e-05 6.41347e-08
2.58571e-05 0.000144766 -7.02306e-07
6.41347e-08 -7.02306e-07 6.20537e-05
0.000880141 -0.000149022 -2.70191e-05
-0.000149022 3.26643e-05 -5.68998e-06
-2.70191e-05 -5.68998e-06 -9.44812e-05
0.00140749 4.98225e-05 -5.30447e-06
4.98225e-05 0.000396223 3.48138e-06
-5.30447e-06 3.48138e-06 0.000204696
0.000919869 2.14166e-05 -5.47701e-07
2.14166e-05 -2.03081e-06 5.42159e-07
-5.47701e-07 5.42159e-07 -9.04892e-05
0.00119085 5.08952e-05 -3.48356e-07
5.08952e-05 0.000146936 -8.41428e-07
-3.48356e-07 -8.41428e-07 5.73668e-05
0.00143896 -3.96099e-07 1.21143e-05
-3.96099e-07 0.00040555 -1.12994e-06
1.21143e-05 -1.12994e-06 0.00029207
0.00162794 -4.541e-06 -3.1278e-06
-4.541e-06 0.00057486 3.2404e-07
-3.1278e-06 3.2404e-07 0.000497915
-0.00106617 -5.98771e-06 1.07353e-05
-5.98771e-06 -0.000962576 1.10972e-06
1.07353e-05 1.10972e-06 -0.000990646
0.000579176 4.60579e-05 2.44729e-06
4.60579e-05 -0.000127074 1.64343e-06
2.44729e-06 1.64343e-06 -0.00019962
-0.000850249 1.52668e-05 -7.79241e-06
1.52668e-05 -0.000636629 2.03401e-06
-7.79241e-06 2.03401e-06 -0.000810299
0.0005703 1.14806e-05 -1.18356e-05
1.14806e-05 -5.22155e-05 -2.78384e-06
-1.18356e-05 -2.78384e-06 -0.000124988
0.00423518 -0.000311443 4.30935e-05
-0.000311443 0.000772811 9.86644e-06
4.30935e-05 9.86644e-06 -0.000208458
0.00340963 0.000206674 -2.70994e-05
0.000206674 0.000811611 -7.49742e-05
-2.70994e-05 -7.49742e-05 0.000379958
0.00251885 -0.000270737 1.28093e-05
-0.000270737 -0.000223735 0.000103833
1.28093e-05 0.000103833 -6.54289e-05
0.000746077 1.56096e-05 -1.24064e-05
1.56096e-05 -6.79002e-05 -4.58023e-06
-1.24064e-05 -4.58023e-06 -0.000170867
0.000492863 -9.71139e-06 -2.25217e-07
-9.71139e-06 -0.000429605 -1.97646e-06
-2.25217e-07 -1.97646e-06 -0.000418303
0.00117362 4.62453e-05 -1.72143e-06
4.62453e-05 0.000193336 -7.26251e-07
-1.72143e-06 -7.26251e-07 0.000125797
0.000956922 9.39431e-06 1.41049e-06
9.39431e-06 6.43892e-05 4.85806e-07
1.41049e-06 4.85806e-07 -5.21438e-05
0.00123694 -6.79826e-06 -3.45238e-06
-6.79826e-06 0.000201857 2.04218e-06
-3.45238e-06 2.04218e-06 7.20204e-05
0.000112863 6.38445e-05 7.86975e-06
6.38445e-05 1.28169e-05 -3.64924e-06
7.86975e-06 -3.64924e-06 -8.46522e-05
0.00171384 2.9644e-05 -1.04808e-06
2.9644e-05 0.000187326 -2.13774e-06
-1.04808e-06 -2.13774e-06 0.000325752
0.00511265 7.98963e-05 2.40606e-05
7.98963e-05 0.000482601 -3.01474e-06
2.40606e-05 -3.01474e-06 9.72072e-05
0.00337522 1.42577e-05 -2.66845e-05
1.42577e-05 0.000324388 -4.4261e-06
-2.66845e-05 -4.4261e-06 0.000519129
0.000977128 6.46532e-05 1.99133e-06
6.46532e-05 0.000237608 -7.7916e-06
1.99133e-06 -7.7916e-06 0.000149452
0.00136911 -4.96858e-06 1.52964e-06
-4.96858e-06 0.000263291 -6.18724e-06
1.52964e-06 -6.18724e-06 0.000127078
0.00115783 -1.85495e-05 -1.7605e-05
-1.85495e-05 0.000176991 -2.36369e-06
-1.7605e-05 -2.36369e-06 6.07936e-05
0.00143313 0.000116876 5.30911e-06
0.000116876 -0.000115022 -2.55672e-06
5.30911e-06 -2.55672e-06 0.000206342
0.00173407 0.000259797 -6.0534e-06
0.000259797 -0.000406188 -5.95418e-05
-6.0534e-06 -5.95418e-05 -0.00041498
0.000945126 0.000129552 8.89505e-06
0.000129552 0.000426609 -3.9567e-06
8.89505e-06 -3.9567e-06 0.000431236
0.00352823 -0.000142743 5.09733e-05
-0.000142743 9.8677e-05 2.06842e-05
5.09733e-05 2.06842e-05 -0.000382819
0.00127592 5.70496e-05 -1.20502e-06
5.70496e-05 0.000176096 4.11779e-06
-1.20502e-06 4.11779e-06 7.38151e-05
0.00130888 3.75229e-05 -7.81976e-07
3.75229e-05 0.000224052 1.03548e-06
-7.81976e-07 1.03548e-06 0.000130965
0.000124476 -2.35817e-05 3.55358e-07
-2.35817e-05 -0.000179669 -6.11617e-06
3.55358e-07 -6.11617e-06 -0.000394834
0.00116278 1.6757e-05 -4.03876e-07
1.6757e-05 0.000135914 -5.60938e-07
-4.03876e-07 -5.60938e-07 5.90827e-05
0.00103243 -3.17827e-05 8.92128e-08
-3.17827e-05 7.35568e-05 3.56529e-07
8.92128e-08 3.56529e-07 -2.23878e-05
0.000913057 -2.23894e-05 -1.4931e-06
-2.23894e-05 3.5758e-05 3.5877e-06
-1.4931e-06 3.5877e-06 -7.32436e-05
0.00105077 -3.85916e-05 -1.86343e-07
-3.85916e-05 7.18546e-05 9.0887e-08
-1.86343e-07 9.0887e-08 -1.55142e-05
0.000862779 -2.30742e-05 -2.06529e-07
-2.30742e-05 1.68966e-05 1.21923e-06
-2.06529e-07 1.21923e-06 -7.62902e-05
0.000915845 -4.09343e-05 1.07072e-06
-4.09343e-05 8.84275e-05 -6.29409e-08
1.07072e-06 -6.29409e-08 -3.9493e-05
0.00102446 -2.44686e-05 1.58488e-07
-2.44686e-05 6.06469e-05 -3.33445e-07
1.58488e-07 -3.33445e-07 -2.16993e-05
0.00102624 -8.56409e-06 -6.44667e-08
-8.56409e-06 6.55214e-05 9.02229e-08
-6.44667e-08 9.02229e-08 -1.64674e-05
0.00118923 -5.311e-05 9.17071e-08
-5.311e-05 0.00016101 3.89327e-07
9.17071e-08 3.89327e-07 6.88234e-05
0.0010237 -6.13521e-05 3.98535e-07
-6.13521e-05 0.000117737 1.07673e-06
3.98535e-07 1.07673e-06 -5.18379e-06
0.000943942 -4.83408e-05 -5.5444e-07
-4.83408e-05 4.20949e-05 -5.6961e-07
-5.5444e-07 -5.6961e-07 -4.54022e-05
0.000855767 -5.37391e-05 6.96778e-07
-5.37391e-05 7.88847e-06 -2.79563e-07
6.96778e-07 -2.79563e-07 -9.62358e-05
0.00111958 -6.89823e-05 6.66125e-07
-6.89823e-05 0.000136209 8.79515e-07
6.66125e-07 8.79515e-07 1.82919e-05
0.00118084 -7.12798e-05 -2.08414e-06
-7.12798e-05 0.00012446 1.96249e-06
-2.08414e-06 1.96249e-06 2.19959e-05
0.00133453 -6.35028e-05 9.46333e-08
-6.35028e-05 0.000240005 -2.44597e-07
9.46333e-08 -2.44597e-07 0.000148214
0.000895582 -5.96398e-05 -3.3263e-07
-5.96398e-05 9.88301e-06 3.99191e-08
-3.3263e-07 3.99191e-08 -9.39791e-05
0.00129613 -6.87591e-05 1.20411e-07
-6.87591e-05 0.000207153 -1.49597e-07
1.20411e-07 -1.49597e-07 0.00012148
0.00084777 -5.03483e-05 -9.5322e-07
-5.03483e-05 3.18183e-06 1.85451e-08
-9.5322e-07 1.85451e-08 -8.04699e-05
0.00101409 -5.98737e-05 4.11955e-07
-5.98737e-05 7.15813e-05 4.4493e-08
4.11955e-07 4.4493e-08 -1.82132e-05
0.00104467 -4.5442e-05 -1.03466e-06
-4.5442e-05 8.88814e-05 2.31396e-07
-1.03466e-06 2.31396e-07 1.44642e-05
0.00108997 -5.75351e-05 -9.821e-07
-5.75351e-05 0.000115111 6.02332e-07
-9.821e-07 6.02332e-07 3.29002e-05
0.000855072 -5.43404e-05 -1.00582e-07
-5.43404e-05 -3.24654e-07 -8.42165e-07
-1.00582e-07 -8.42165e-07 -9.31817e-05
0.0010026 -8.63082e-06 -8.82204e-07
-8.63082e-06 5.61891e-05 1.32793e-06
-8.82204e-07 1.32793e-06 -3.2879e-06
0.000993692 -3.80905e-05 2.42999e-07
-3.80905e-05 5.87213e-05 1.63564e-07
2.42999e-07 1.63564e-07 -1.49554e-05
0.00111335 -5.33868e-05 1.48278e-06
-5.33868e-05 0.000126297 -5.00978e-07
1.48278e-06 -5.00978e-07 4.43345e-05
0.0010149 -2.58017e-05 4.96694e-07
-2.58017e-05 6.92959e-05 -8.32412e-07
4.96694e-07 -8.32412e-07 -4.64072e-07
0.000971418 -1.90147e-06 1.26441e-07
-1.90147e-06 3.78975e-05 -5.62732e-08
1.26441e-07 -5.62732e-08 -1.72688e-05
0.000915584 1.39288e-05 -1.09449e-06
1.39288e-05 8.39149e-06 2.00484e-06
-1.09449e-06 2.00484e-06 -2.6232e-05
0.000961442 -3.77122e-06 3.84118e-07
-3.77122e-06 3.28027e-05 -1.23393e-06
3.84118e-07 -1.23393e-06 -1.86653e-05
0.000911544 1.38059e-05 5.92921e-08
1.38059e-05 2.80491e-06 -2.64484e-08
5.92921e-08 -2.64484e-08 -2.91493e-05
0.000832952 1.76771e-05 -1.92288e-06
1.76771e-05 -3.93981e-05 3.25222e-06
-1.92288e-06 3.25222e-06 -4.36638e-05
0.000916522 7.83029e-06 8.24731e-07
7.83029e-06 2.256e-06 -1.75918e-06
8.24731e-07 -1.75918e-06 -2.77711e-05
0.000852267 1.5257e-05 1.35369e-07
1.5257e-05 -3.46042e-05 7.86044e-09
1.35369e-07 7.86044e-09 -3.74079e-05
0.00220974 2.40838e-05 -4.336e-06
2.40838e-05 0.000660863 1.58428e-06
-4.336e-06 1.58428e-06 0.000681744
0.000873277 1.26009e-05 1.36348e-06
1.26009e-05 -2.86481e-05 -3.1203e-06
1.36348e-06 -3.1203e-06 -3.00753e-05
0.00163221 1.59807e-05 4.73907e-06
1.59807e-05 0.000359401 -1.1468e-06
4.73907e-06 -1.1468e-06 0.000378624
0.00221856 1.33495e-05 8.89526e-06
1.33495e-05 0.000657173 -3.87955e-06
8.89526e-06 -3.87955e-06 0.000679851
0.000788884 -5.22323e-06 -2.02787e-07
-5.22323e-06 -5.78704e-05 -1.70691e-06
-2.02787e-07 -1.70691e-06 -0.000109921
0.000664565 -8.01631e-06 -5.86119e-07
-8.01631e-06 -0.000128171 -2.40067e-06
-5.86119e-07 -2.40067e-06 -0.000158851
0.000931639 -1.38344e-06 -1.34365e-07
-1.38344e-06 1.62894e-05 -4.98586e-07
-1.34365e-07 -4.98586e-07 -3.2942e-05
0.000888783 -9.79936e-06 -8.69432e-07
-9.79936e-06 -2.47993e-05 -3.20102e-06
-8.69432e-07 -3.20102e-06 -2.4384e-05
0.00068146 -6.4741e-06 -7.65399e-08
-6.4741e-06 -0.000121679 -6.06093e-07
-7.65399e-08 -6.06093e-07 -0.000149646
0.00104923 2.40888e-07 5.93179e-08
2.40888e-07 7.66618e-05 1.16494e-06
5.93179e-08 1.16494e-06 3.1255e-05
0.00214751 -8.73644e-06 -6.48187e-06
-8.73644e-06 0.000617608 -3.95374e-06
-6.48187e-06 -3.95374e-06 0.000641591
0.00087909 -6.42987e-06 -1.01834e-07
-6.42987e-06 -3.26543e-05 -1.83433e-08
-1.01834e-07 -1.83433e-08 -3.04702e-05
0.000688254 -4.45858e-06 9.77441e-08
-4.45858e-06 -0.000119917 1.65816e-06
9.77441e-08 1.65816e-06 -0.000145623
0.00211619 -4.19174e-06 -1.33176e-06
-4.19174e-06 0.000599675 8.73103e-09
-1.33176e-06 8.73103e-09 0.000624369
0.000876375 -3.03853e-06 1.39116e-07
-3.03853e-06 -3.59574e-05 3.10896e-06
1.39116e-07 3.10896e-06 -3.26119e-05
0.00210322 3.52176e-07 -6.13433e-07
3.52176e-07 0.000592491 3.88557e-06
-6.13433e-07 3.88557e-06 0.000617415
0.00115579 -9.56001e-06 1.45161e-05
-9.56001e-06 0.000219842 -4.04472e-07
1.45161e-05 -4.04472e-07 0.000108563
0.00123563 -1.12392e-05 -5.10976e-06
-1.12392e-05 0.000305284 6.36386e-07
-5.10976e-06 6.36386e-07 0.000231132
0.00107811 1.37902e-05 5.90649e-06
1.37902e-05 0.000257252 3.1208e-06
5.90649e-06 3.1208e-06 0.000259233
0.00103806 2.46646e-05 -3.68009e-08
2.46646e-05 7.48386e-05 7.97233e-08
-3.68009e-08 7.97233e-08 9.99563e-06
0.000939728 1.33648e-05 -2.54722e-07
1.33648e-05 1.96348e-05 -8.26937e-07
-2.54722e-07 -8.26937e-07 -4.63915e-05
0.00113577 3.37902e-05 -2.58279e-07
3.37902e-05 0.000127417 -1.83245e-07
-2.58279e-07 -1.83245e-07 5.44368e-05
0.00165147 1.32147e-05 3.60764e-06
1.32147e-05 0.000463247 -4.33681e-06
3.60764e-06 -4.33681e-06 0.000355931
0.0011593 -5.49175e-06 3.3846e-06
-5.49175e-06 0.000203581 -1.05094e-06
3.3846e-06 -1.05094e-06 0.000103628
0.00131725 -7.11489e-07 -1.44662e-05
-7.11489e-07 0.000304795 2.0738e-06
-1.44662e-05 2.0738e-06 0.000247061
0.000594868 5.74419e-05 -3.33068e-05
5.74419e-05 -0.000360175 1.09682e-05
-3.33068e-05 1.09682e-05 -0.000537147
0.00245539 0.000190659 1.25146e-05
0.000190659 0.000440139 -1.73837e-05
1.25146e-05 -1.73837e-05 -0.00047876
0.0034982 0.000327293 3.88421e-05
0.000327293 0.000700863 -2.5726e-05
3.88421e-05 -2.5726e-05 0.000802454
0.000498393 2.72705e-05 3.35223e-06
2.72705e-05 -0.00059621 -2.4969e-07
3.35223e-06 -2.4969e-07 -0.000431367
0.000829298 -4.01579e-05 -1.09404e-05
-4.01579e-05 -0.00020644 9.39985e-06
-1.09404e-05 9.39985e-06 -0.000317347
0.00510565 0.000101358 3.48495e-05
0.000101358 0.00108753 -4.15391e-05
3.48495e-05 -4.15391e-05 0.000184005
0.000979872 0.000118462 -1.4918e-06
0.000118462 -0.000698272 1.27313e-05
-1.4918e-06 1.27313e-05 -0.000471352
0.00127561 1.83985e-05 7.65416e-07
1.83985e-05 -8.24401e-05 4.14452e-06
7.65416e-07 4.14452e-06 4.85585e-05
0.00281461 -0.000230642 1.97025e-05
-0.000230642 0.000478906 -5.38828e-05
1.97025e-05 -5.38828e-05 0.000362554
0.00806222 0.000129699 2.73579e-05
0.000129699 0.00215022 -3.20685e-05
2.73579e-05 -3.20685e-05 0.0015484
0.000273834 -4.40314e-07 1.16009e-06
-4.40314e-07 -0.000994515 6.30016e-05
1.16009e-06 6.30016e-05 -0.000768346
0.000343026 -1.06762e-05 -3.12863e-07
-1.06762e-05 -0.000630923 3.46525e-06
-3.12863e-07 3.46525e-06 -0.000484114
0.00107017 5.96003e-06 -1.22689e-07
5.96003e-06 8.92784e-05 -4.55967e-07
-1.22689e-07 -4.55967e-07 8.91763e-06
0.000980487 -3.69296e-06 -1.08497e-07
-3.69296e-06 5.20911e-05 -2.08939e-07
-1.08497e-07 -2.08939e-07 -2.84436e-05
0.00103603 -2.19569e-05 -2.02216e-07
-2.19569e-05 8.72611e-05 9.13427e-07
-2.02216e-07 9.13427e-07 1.09035e-05
0.000998175 1.92924e-05 -4.01112e-07
1.92924e-05 5.87181e-05 -6.5891e-07
-4.01112e-07 -6.5891e-07 -1.37293e-05
0.00112478 5.40008e-05 1.1149e-06
5.40008e-05 0.000129426 1.19519e-06
1.1149e-06 1.19519e-06 5.86575e-05
0.00119805 3.53677e-05 1.15824e-07
3.53677e-05 0.00016122 9.09036e-07
1.15824e-07 9.09036e-07 9.86358e-05
0.0025985 -0.000185031 5.55419e-06
-0.000185031 0.000529061 5.24104e-07
5.55419e-06 5.24104e-07 0.000530681
0.000678273 -1.59749e-05 8.29446e-07
-1.59749e-05 3.59382e-05 4.68952e-06
8.29446e-07 4.68952e-06 -0.000216268
0.00111913 3.05264e-05 4.51755e-07
3.05264e-05 0.000120373 9.75684e-07
4.51755e-07 9.75684e-07 3.51372e-05
0.00123022 -1.8887e-05 8.33266e-07
-1.8887e-05 0.000182897 -3.11158e-07
8.33266e-07 -3.11158e-07 6.70474e-05
0.00112703 1.13127e-06 9.1096e-08
1.13127e-06 0.000115079 -2.14675e-08
9.1096e-08 -2.14675e-08 2.26113e-05
0.00109177 1.82358e-05 4.27286e-07
1.82358e-05 9.49642e-05 1.20472e-07
4.27286e-07 1.20472e-07 1.27549e-05
0.00111371 3.05758e-05 2.51164e-07
3.05758e-05 0.000106452 -2.72712e-07
2.51164e-07 -2.72712e-07 1.73313e-05
0.000998384 -0.000140108 -2.06084e-06
-0.000140108 3.67989e-05 2.62106e-06
-2.06084e-06 2.62106e-06 -4.93032e-05
0.00121268 -3.16336e-06 5.94649e-07
-3.16336e-06 0.000140319 -1.22842e-06
5.94649e-07 -1.22842e-06 5.34561e-05
0.0013409 4.97534e-05 -1.61002e-06
4.97534e-05 0.000393887 -7.91551e-07
-1.61002e-06 -7.91551e-07 0.000210913
0.0009403 4.39616e-07 4.28139e-07
4.39616e-07 1.74417e-05 -2.06534e-06
4.28139e-07 -2.06534e-06 -6.62086e-05
-0.000188352 -2.66613e-05 3.21481e-06
-2.66613e-05 -0.000143639 -7.0536e-06
3.21481e-06 -7.0536e-06 -0.000390223
0.000342509 1.96168e-05 -2.47376e-06
1.96168e-05 -0.000196168 1.05724e-05
-2.47376e-06 1.05724e-05 -0.0002445
0.00105392 -8.34875e-06 1.46304e-07
-8.34875e-06 6.70028e-05 -1.09963e-06
1.46304e-07 -1.09963e-06 -2.24312e-05
0.00131965 -3.95221e-06 6.56457e-07
-3.95221e-06 0.000271752 -4.01722e-07
6.56457e-07 -4.01722e-07 0.000138899
0.00107164 -1.56036e-06 4.26664e-06
-1.56036e-06 0.000169364 -3.5419e-08
4.26664e-06 -3.5419e-08 5.06087e-05
0.00123166 -4.26752e-06 -1.63168e-05
-4.26752e-06 0.00032126 1.43091e-06
-1.63168e-05 1.43091e-06 0.000240676
0.00138857 6.52108e-05 3.51949e-06
6.52108e-05 0.000297809 4.21712e-06
3.51949e-06 4.21712e-06 0.000224679
-0.000297847 7.19094e-05 8.43254e-06
7.19094e-05 -0.00028063 -1.36157e-05
8.43254e-06 -1.36157e-05 -0.000373814
0.000856095 7.10418e-06 -9.92301e-06
7.10418e-06 1.01697e-06 1.55078e-06
-9.92301e-06 1.55078e-06 -0.0001166
0.00352261 -2.21772e-05 -1.84461e-05
-2.21772e-05 0.00025244 -1.09573e-05
-1.84461e-05 -1.09573e-05 -2.68831e-05
-0.000922258 2.56759e-05 2.76583e-06
2.56759e-05 -0.00169333 6.95242e-05
2.76583e-06 6.95242e-05 -0.00146091
0.000730627 -6.86607e-06 -3.1996e-06
-6.86607e-06 -0.000108145 -3.24915e-06
-3.1996e-06 -3.24915e-06 -0.000245782
0.000549518 1.38863e-05 -1.76133e-06
1.38863e-05 -0.00049627 -3.16341e-06
-1.76133e-06 -3.16341e-06 -0.00038457
0.000616677 4.2779e-05 -2.59639e-07
4.2779e-05 3.27527e-05 1.62025e-07
-2.59639e-07 1.62025e-07 -5.37209e-05
0.00122663 -4.30109e-06 -6.46272e-07
-4.30109e-06 0.000185421 -3.34588e-07
-6.46272e-07 -3.34588e-07 4.90251e-05
0.00119828 -2.14248e-05 -3.58397e-06
-2.14248e-05 0.00022283 1.719e-06
-3.58397e-06 1.719e-06 0.000106103
0.00137715 0.000176212 3.11188e-05
0.000176212 0.000267345 1.21263e-06
3.11188e-05 1.21263e-06 0.000169791
0.00156932 0.000105865 1.81635e-06
0.000105865 2.0973e-06 -2.64998e-06
1.81635e-06 -2.64998e-06 0.000308019
0.000735149 0.000144238 2.83816e-06
0.000144238 -0.000736804 -1.36472e-05
2.83816e-06 -1.36472e-05 -0.000551788
0.0068636 -6.60509e-06 9.47611e-06
-6.60509e-06 0.00172494 -1.85347e-05
9.47611e-06 -1.85347e-05 0.00130985
-0.000680238 9.82007e-06 -2.24604e-05
9.82007e-06 -0.000116806 -1.30955e-05
-2.24604e-05 -1.30955e-05 -0.000339718
0.00117638 -1.57674e-05 -1.40993e-05
-1.57674e-05 0.00023267 5.02904e-07
-1.40993e-05 5.02904e-07 0.000109352
0.000953433 1.90775e-07 -7.39675e-06
1.90775e-07 2.83255e-05 -1.53177e-06
-7.39675e-06 -1.53177e-06 -1.7082e-05
0.00134288 0.000172891 9.80049e-06
0.000172891 0.000153797 -2.86497e-06
9.80049e-06 -2.86497e-06 0.000510698
-0.00301421 0.000241678 4.64224e-05
0.000241678 -0.00219828 -3.90814e-05
4.64224e-05 -3.90814e-05 -0.00216136
0.00774658 0.000173697 3.6961e-06
0.000173697 0.00205185 -1.28236e-05
3.6961e-06 -1.28236e-05 0.00119014
0.00145872 -3.01546e-05 -2.22019e-05
-3.01546e-05 0.000284327 9.60605e-05
-2.22019e-05 9.60605e-05 3.74105e-05
0.000880999 1.97486e-05 1.75521e-06
1.97486e-05 4.73428e-06 4.98819e-06
1.75521e-06 4.98819e-06 -8.43582e-05
0.000388524 -1.48571e-05 1.07974e-06
-1.48571e-05 -5.31523e-05 -1.32614e-06
1.07974e-06 -1.32614e-06 -0.000270709
0.000671492 -3.90571e-05 1.64118e-06
-3.90571e-05 0.000156894 -2.75241e-06
1.64118e-06 -2.75241e-06 -0.000107593
0.000994089 -4.23188e-05 2.53544e-07
-4.23188e-05 4.49744e-05 -6.90938e-07
2.53544e-07 -6.90938e-07 -4.26045e-05
0.000718132 -3.02636e-05 -5.04266e-07
-3.02636e-05 -5.8981e-05 2.51837e-06
-5.04266e-07 2.51837e-06 -0.000152805
0.000802809 -2.59247e-05 -1.40532e-07
-2.59247e-05 3.24505e-05 6.29473e-07
-1.40532e-07 6.29473e-07 -8.8278e-05
0.000884842 -7.33815e-05 2.33008e-06
-7.33815e-05 0.000127772 -1.07705e-06
2.33008e-06 -1.07705e-06 -7.60726e-05
0.00135051 -5.5672e-05 -3.23934e-07
-5.5672e-05 0.000236566 3.83284e-08
-3.23934e-07 3.83284e-08 0.000142849
0.00130471 -7.24998e-05 -5.77456e-09
-7.24998e-05 0.000246853 3.64531e-07
-5.77456e-09 3.64531e-07 0.00012124
0.00110817 -7.63381e-05 1.71752e-06
-7.63381e-05 0.000154729 1.90483e-06
1.71752e-06 1.90483e-06 -4.63481e-06
0.000620332 -4.65971e-05 -1.7972e-07
-4.65971e-05 -0.000106148 -1.27037e-06
-1.7972e-07 -1.27037e-06 -0.000207265
0.00109379 -6.78907e-05 -3.77689e-07
-6.78907e-05 0.000121302 -4.64141e-08
-3.77689e-07 -4.64141e-08 1.3496e-06
0.00166816 -9.26568e-05 -9.02937e-07
-9.26568e-05 0.000369904 1.89458e-06
-9.02937e-07 1.89458e-06 0.000245034
0.00139915 -8.25913e-05 -2.08645e-06
-8.25913e-05 0.000213078 2.69146e-06
-2.08645e-06 2.69146e-06 0.00010223
0.000831954 -5.87132e-05 -4.73671e-07
-5.87132e-05 -3.58904e-05 1.73281e-06
-4.73671e-07 1.73281e-06 -0.000125484
0.00112147 -7.012e-05 -6.19795e-07
-7.012e-05 9.64872e-05 5.74762e-07
-6.19795e-07 5.74762e-07 -7.65685e-06
0.00106463 -6.46513e-05 -2.22608e-07
-6.46513e-05 9.1449e-05 -8.14061e-07
-2.22608e-07 -8.14061e-07 -1.41953e-05
0.00122942 -6.46315e-05 4.50906e-07
-6.46315e-05 0.000175274 -5.99117e-07
4.50906e-07 -5.99117e-07 9.47665e-05
0.00111733 -6.33309e-05 1.25365e-06
-6.33309e-05 0.000119958 -6.21218e-07
1.25365e-06 -6.21218e-07 3.62019e-05
0.000892437 -4.2284e-05 -5.12269e-07
-4.2284e-05 2.08275e-05 6.22244e-07
-5.12269e-07 6.22244e-07 -5.63744e-05
0.00095709 -5.34044e-05 2.43472e-07
-5.34044e-05 5.6365e-05 -1.15049e-07
2.43472e-07 -1.15049e-07 -2.65394e-05
0.00102385 -5.98688e-05 2.92319e-06
-5.98688e-05 7.57072e-05 -1.3357e-06
2.92319e-06 -1.3357e-06 -1.2591e-05
0.000981915 -6.36714e-06 -1.2702e-06
-6.36714e-06 4.95574e-05 1.11e-06
-1.2702e-06 1.11e-06 -1.32053e-05
0.0010625 -4.5698e-05 -2.56353e-07
-4.5698e-05 9.66516e-05 -3.56364e-08
-2.56353e-07 -3.56364e-08 2.24272e-05
0.00111447 -5.82782e-05 3.51761e-07
-5.82782e-05 0.000126254 -3.97387e-08
3.51761e-07 -3.97387e-08 4.38977e-05
0.000908531 1.14079e-05 -1.51175e-06
1.14079e-05 8.58429e-06 2.17644e-06
-1.51175e-06 2.17644e-06 -2.95475e-05
0.000986727 -9.30944e-06 1.72401e-07
-9.30944e-06 4.74444e-05 6.53155e-08
1.72401e-07 6.53155e-08 -1.1649e-05
0.000968853 -3.72825e-05 1.21376e-06
-3.72825e-05 4.51341e-05 -2.99218e-07
1.21376e-06 -2.99218e-07 -2.85464e-05
0.000971676 -2.39799e-06 7.59889e-07
-2.39799e-06 3.78079e-05 -1.33223e-06
7.59889e-07 -1.33223e-06 -1.73043e-05
0.000906313 1.56425e-05 1.95485e-07
1.56425e-05 4.01045e-06 -4.01087e-08
1.95485e-07 -4.01087e-08 -3.07532e-05
0.000819631 2.01212e-05 -2.30222e-06
2.01212e-05 -4.03809e-05 3.32769e-06
-2.30222e-06 3.32769e-06 -4.66714e-05
0.000907641 1.48107e-05 8.29979e-07
1.48107e-05 8.70038e-07 -1.9648e-06
8.29979e-07 -1.9648e-06 -3.11707e-05
0.000847836 1.78687e-05 9.98869e-08
1.78687e-05 -3.20614e-05 -1.16829e-08
9.98869e-08 -1.16829e-08 -3.63924e-05
0.00228751 2.59602e-05 -1.4634e-05
2.59602e-05 0.000705071 3.79195e-06
-1.4634e-05 3.79195e-06 0.000724866
0.000869426 1.53621e-05 1.76353e-06
1.53621e-05 -2.63121e-05 -3.17763e-06
1.76353e-06 -3.17763e-06 -2.90993e-05
0.00164281 1.98834e-05 5.62008e-06
1.98834e-05 0.000370078 -1.11295e-06
5.62008e-06 -1.11295e-06 0.000388071
0.00223719 1.76951e-05 1.13313e-05
1.76951e-05 0.000670605 -3.87266e-06
1.13313e-05 -3.87266e-06 0.000692412
0.000955305 1.78096e-05 -6.68815e-07
1.78096e-05 2.66351e-05 -1.28365e-06
-6.68815e-07 -1.28365e-06 -2.71951e-05
0.000908759 -1.06101e-05 -6.90917e-07
-1.06101e-05 -2.59179e-06 -1.91828e-06
-6.90917e-07 -1.91828e-06 -3.41598e-05
0.000870397 8.8418e-06 -5.34032e-07
8.8418e-06 -1.51226e-05 -5.48866e-07
-5.34032e-07 -5.48866e-07 -6.71431e-05
0.000881505 -1.28894e-05 -1.12221e-06
-1.28894e-05 -2.44858e-05 -3.29235e-06
-1.12221e-06 -3.29235e-06 -2.61732e-05
0.000797686 -8.2325e-06 -2.36292e-07
-8.2325e-06 -6.05764e-05 -5.95599e-07
-2.36292e-07 -5.95599e-07 -9.06843e-05
0.00107034 -2.33904e-06 1.36515e-07
-2.33904e-06 8.62274e-05 6.18871e-07
1.36515e-07 6.18871e-07 3.77022e-05
0.00219387 -1.32185e-05 -8.98672e-06
-1.32185e-05 0.000644135 -3.98955e-06
-8.98672e-06 -3.98955e-06 0.000667132
0.000873141 -9.69002e-06 -9.73056e-08
-9.69002e-06 -3.26751e-05 -2.14439e-08
-9.73056e-08 -2.14439e-08 -3.21489e-05
0.000679294 -6.60995e-06 1.04906e-07
-6.60995e-06 -0.000122627 1.18354e-06
1.04906e-07 1.18354e-06 -0.000150953
0.00214747 -8.60724e-06 -1.18343e-06
-8.60724e-06 0.000617313 1.97726e-08
-1.18343e-06 1.97726e-08 0.000641396
0.000867491 -6.3512e-06 4.66411e-07
-6.3512e-06 -3.85344e-05 3.12804e-06
4.66411e-07 3.12804e-06 -3.62654e-05
0.00211339 -4.06316e-06 2.29687e-06
-4.06316e-06 0.000598049 3.8789e-06
2.29687e-06 3.8789e-06 0.000622819
0.00131505 1.61046e-06 2.76231e-07
1.61046e-06 0.000240743 3.59893e-06
2.76231e-07 3.59893e-06 0.000111155
0.0012414 -8.27739e-06 3.65672e-06
-8.27739e-06 0.000268483 -7.82242e-07
3.65672e-06 -7.82242e-07 0.000157701
0.00122448 -1.24027e-05 -1.86493e-05
-1.24027e-05 0.000295424 2.64842e-06
-1.86493e-05 2.64842e-06 0.000223548
0.000940125 5.54206e-06 -1.90152e-07
5.54206e-06 1.76636e-05 -1.00492e-06
-1.90152e-07 -1.00492e-06 -4.95525e-05
0.00112055 2.71253e-05 -2.26508e-07
2.71253e-05 0.000112895 -6.32772e-07
-2.26508e-07 -6.32772e-07 3.78418e-05
0.00107651 2.91573e-05 1.06666e-06
2.91573e-05 9.41888e-05 9.25194e-07
1.06666e-06 9.25194e-07 2.99109e-05
0.000925448 1.12857e-05 -3.3042e-08
1.12857e-05 1.25968e-05 1.78232e-08
-3.3042e-08 1.78232e-08 -5.3463e-05
0.0010638 2.09234e-05 1.79771e-07
2.09234e-05 8.87061e-05 3.55437e-07
1.79771e-07 3.55437e-07 1.5742e-05
0.00103736 2.64696e-05 -4.05416e-07
2.64696e-05 7.34654e-05 -6.27625e-07
-4.05416e-07 -6.27625e-07 -4.87809e-07
0.0010473 5.2286e-05 -1.84852e-07
5.2286e-05 8.33076e-05 -2.69606e-08
-1.84852e-07 -2.69606e-08 2.93818e-06
0.00103532 2.72361e-05 -7.73459e-06
2.72361e-05 0.000130759 -3.79591e-06
-7.73459e-06 -3.79591e-06 2.5309e-05
0.0011351 1.2042e-05 2.14839e-06
1.2042e-05 0.000149059 -6.58561e-06
2.14839e-06 -6.58561e-06 3.26918e-05
0.00104095 -6.9946e-06 -9.5237e-06
-6.9946e-06 0.000146622 4.3802e-06
-9.5237e-06 4.3802e-06 4.69795e-05
0.000219104 9.39795e-06 4.66345e-06
9.39795e-06 -0.000684139 5.91499e-06
4.66345e-06 5.91499e-06 -0.000604138
0.000952381 -4.74181e-05 -6.11936e-05
-4.74181e-05 -0.00054274 5.76652e-05
-6.11936e-05 5.76652e-05 -0.000726596
0.00200204 7.70183e-05 5.25776e-05
7.70183e-05 -3.02026e-05 -5.49405e-05
5.25776e-05 -5.49405e-05 -0.000843438
0.00455676 0.000204937 1.89887e-05
0.000204937 0.00080799 -2.49713e-05
1.89887e-05 -2.49713e-05 0.000976397
0.00146382 -0.000194629 -2.30171e-05
-0.000194629 -0.000222469 2.03562e-05
-2.30171e-05 2.03562e-05 -0.000472017
0.00318653 -7.2283e-05 2.34975e-05
-7.2283e-05 -0.000138603 -4.89551e-05
2.34975e-05 -4.89551e-05 -0.000890919
0.00350594 -2.17211e-05 -7.12725e-06
-2.17211e-05 0.000301478 2.51072e-06
-7.12725e-06 2.51072e-06 0.000442056
0.00201417 -2.03548e-05 1.32233e-06
-2.03548e-05 0.000287822 3.21909e-06
1.32233e-06 3.21909e-06 0.000501046
0.00158788 -0.000153536 3.15002e-05
-0.000153536 0.000168412 -2.35725e-05
3.15002e-05 -2.35725e-05 4.08608e-05
0.00326502 -0.000256258 -1.76069e-05
-0.000256258 -0.000548337 -0.000105087
-1.76069e-05 -0.000105087 -0.000841021
-3.04424e-05 -9.35594e-05 2.55159e-05
-9.35594e-05 -0.00119717 4.45919e-05
2.55159e-05 4.45919e-05 -0.00105766
-0.000610716 -7.72099e-05 -2.95027e-06
-7.72099e-05 -0.00126531 2.14814e-06
-2.95027e-06 2.14814e-06 -0.000988101
0.00113461 3.08982e-06 -5.68038e-07
3.08982e-06 0.000113684 -4.8754e-07
-5.68038e-07 -4.8754e-07 3.30859e-05
0.00102316 9.15241e-06 7.60786e-08
9.15241e-06 6.61637e-05 -2.05619e-07
7.60786e-08 -2.05619e-07 -1.47132e-05
0.000976697 -4.8402e-07 9.99683e-09
-4.8402e-07 5.2221e-05 3.76778e-07
9.99683e-09 3.76778e-07 -2.89058e-05
0.00102414 2.19111e-05 7.99642e-08
2.19111e-05 7.14855e-05 -8.23452e-08
7.99642e-08 -8.23452e-08 -1.00634e-06
0.0020322 -0.000146329 1.17202e-05
-0.000146329 0.000499592 4.64807e-06
1.17202e-05 4.64807e-06 0.000452916
0.00111796 4.36863e-05 2.94468e-06
4.36863e-05 0.000330194 9.12617e-07
2.94468e-06 9.12617e-07 0.000149663
0.000974949 1.39563e-05 1.25577e-07
1.39563e-05 3.45868e-05 1.01019e-06
1.25577e-07 1.01019e-06 -4.71662e-05
0.00101771 2.10118e-05 3.6077e-09
2.10118e-05 5.74528e-05 9.34541e-07
3.6077e-09 9.34541e-07 -3.16201e-05
0.00153034 -9.71524e-07 -3.78057e-07
-9.71524e-07 0.000296949 -1.29962e-06
-3.78057e-07 -1.29962e-06 0.000210922
0.000990258 1.78304e-05 -7.40806e-07
1.78304e-05 4.29576e-05 2.23998e-08
-7.40806e-07 2.23998e-08 -4.1149e-05
0.00100112 -1.15549e-06 -1.20817e-06
-1.15549e-06 4.0629e-05 6.12103e-07
-1.20817e-06 6.12103e-07 -5.02957e-05
0.000569895 -4.09727e-05 1.0731e-05
-4.09727e-05 0.000220052 -1.41252e-06
1.0731e-05 -1.41252e-06 2.46362e-05
0.00084127 7.99385e-06 2.74248e-06
7.99385e-06 5.03823e-05 5.0596e-06
2.74248e-06 5.0596e-06 6.44851e-06
0.00119255 1.40462e-07 1.17462e-07
1.40462e-07 0.000147755 -3.14252e-06
1.17462e-07 -3.14252e-06 5.64081e-05
0.000216181 1.72168e-05 5.52154e-06
1.72168e-05 0.000293249 2.81055e-07
5.52154e-06 2.81055e-07 -3.57087e-06
0.00166719 -3.522e-05 7.88951e-06
-3.522e-05 0.000462355 1.25261e-06
7.88951e-06 1.25261e-06 0.000350452
0.00150634 -3.16778e-06 -1.25031e-05
-3.16778e-06 0.000455466 9.20596e-07
-1.25031e-05 9.20596e-07 0.00033086
0.00110373 -3.80785e-06 3.33914e-07
-3.80785e-06 0.000150665 -2.93808e-07
3.33914e-07 -2.93808e-07 1.63399e-05
0.000726732 -2.57779e-06 -3.91741e-06
-2.57779e-06 -5.28093e-05 -4.7568e-07
-3.91741e-06 -4.7568e-07 -0.000176994
0.000477085 2.43723e-05 -2.37629e-06
2.43723e-05 -6.99184e-05 6.44557e-06
-2.37629e-06 6.44557e-06 -0.000154739
0.00136413 9.1215e-05 -4.65104e-05
9.1215e-05 0.000556304 6.84468e-06
-4.65104e-05 6.84468e-06 0.000599656
0.00106763 -3.55237e-06 -1.05729e-07
-3.55237e-06 9.78559e-05 4.90991e-06
-1.05729e-07 4.90991e-06 -3.89225e-05
0.00329183 0.000178514 2.21362e-05
0.000178514 -3.898e-06 -8.62258e-05
2.21362e-05 -8.62258e-05 -0.000540208
0.0048657 0.000239537 -1.63233e-05
0.000239537 0.00101835 1.88739e-05
-1.63233e-05 1.88739e-05 0.00115391
0.00121305 -2.46804e-05 1.02038e-05
-2.46804e-05 0.000251802 -6.26582e-06
1.02038e-05 -6.26582e-06 0.00013508
0.00226675 0.0001021 -3.43836e-06
0.0001021 0.00046307 2.53318e-07
-3.43836e-06 2.53318e-07 0.000732318
-5.57051e-05 -8.19658e-06 2.01026e-05
-8.19658e-06 0.000102174 -2.00283e-07
2.01026e-05 -2.00283e-07 -7.96847e-05
0.00125003 -1.50449e-05 -3.97767e-06
-1.50449e-05 0.000273639 6.84321e-07
-3.97767e-06 6.84321e-07 0.000150499
0.00116169 -3.7552e-06 4.47626e-06
-3.7552e-06 0.000187991 -4.16159e-07
4.47626e-06 -4.16159e-07 0.000129076
0.00192702 -3.61836e-05 -1.12861e-05
-3.61836e-05 0.000620479 1.82006e-05
-1.12861e-05 1.82006e-05 0.000565384
0.000440639 0.000185804 -1.9698e-06
0.000185804 -0.000381053 2.61689e-06
-1.9698e-06 2.61689e-06 -8.10276e-06
0.00132937 0.00029253 5.00328e-06
0.00029253 -0.000321979 -1.09355e-05
5.00328e-06 -1.09355e-05 -0.000272346
0.00309409 1.89536e-05 2.0378e-05
1.89536e-05 0.000298455 -9.84946e-06
2.0378e-05 -9.84946e-06 -0.000753757
0.000467438 -5.75922e-05 7.78794e-06
-5.75922e-05 0.000286446 -1.53999e-05
7.78794e-06 -1.53999e-05 6.73073e-05
0.00135793 -1.26672e-05 -9.76468e-06
-1.26672e-05 0.00038788 1.22391e-06
-9.76468e-06 1.22391e-06 0.00029827
-0.00123959 7.00663e-05 7.92248e-06
7.00663e-05 -0.00116733 -6.24479e-06
7.92248e-06 -6.24479e-06 -0.00106362
1.46554e-05 0.000234064 5.31834e-05
0.000234064 -8.15273e-05 -2.98089e-05
5.31834e-05 -2.98089e-05 -2.34978e-05
0.00639608 0.000384677 3.57562e-05
0.000384677 0.00181009 -4.89714e-05
3.57562e-05 -4.89714e-05 0.000908921
0.00207353 -0.000169136 -5.28366e-05
-0.000169136 0.000103825 0.000107279
-5.28366e-05 0.000107279 -0.000401546
0.000929702 -1.2654e-05 -2.33276e-06
-1.2654e-05 0.0001977 1.37933e-06
-2.33276e-06 1.37933e-06 -1.54944e-05
0.00057287 -2.58059e-05 1.79495e-07
-2.58059e-05 0.000115565 -1.02074e-06
1.79495e-07 -1.02074e-06 -0.000153957
0.00144294 -0.00010788 2.99146e-06
-0.00010788 0.000423567 -1.83752e-07
2.99146e-06 -1.83752e-07 0.000176312
0.000698339 -1.91971e-05 -1.02625e-06
-1.91971e-05 -1.7194e-05 -1.63621e-07
-1.02625e-06 -1.63621e-07 -0.000132063
0.000484608 -4.95125e-05 -7.52369e-09
-4.95125e-05 -4.78229e-05 2.90433e-07
-7.52369e-09 2.90433e-07 -0.000258067
0.00124971 -9.80205e-05 2.03076e-06
-9.80205e-05 0.000236219 4.55865e-06
2.03076e-06 4.55865e-06 4.74563e-05
0.0015983 -8.43751e-05 -1.55516e-06
-8.43751e-05 0.000382708 9.46211e-09
-1.55516e-06 9.46211e-09 0.000253224
0.00124715 -7.99406e-05 -5.59758e-08
-7.99406e-05 0.000214429 7.46003e-07
-5.59758e-08 7.46003e-07 5.47552e-05
0.00115967 -9.13341e-05 -4.35487e-07
-9.13341e-05 0.000110961 2.88719e-07
-4.35487e-07 2.88719e-07 -4.26241e-05
0.00111241 -6.81626e-05 -5.81682e-07
-6.81626e-05 0.000128567 -7.70618e-07
-5.81682e-07 -7.70618e-07 5.91126e-06
0.00155713 -9.01957e-05 8.93305e-08
-9.01957e-05 0.000313062 2.29272e-07
8.93305e-08 2.29272e-07 0.000186236
0.00132258 -8.65895e-05 -2.58079e-07
-8.65895e-05 0.000166395 1.03589e-07
-2.58079e-07 1.03589e-07 3.95421e-05
0.00132202 -7.98949e-05 -1.69328e-06
-7.98949e-05 0.000136645 8.69108e-08
-1.69328e-06 8.69108e-08 2.81834e-05
0.00152074 -8.14813e-05 -2.09088e-06
-8.14813e-05 0.000277999 3.05046e-06
-2.09088e-06 3.05046e-06 0.000179618
0.00134539 -8.16539e-05 -4.01047e-07
-8.16539e-05 0.00018583 3.98825e-07
-4.01047e-07 3.98825e-07 7.33753e-05
0.000795834 -5.51865e-05 1.56292e-07
-5.51865e-05 -4.92712e-05 -1.08392e-07
1.56292e-07 -1.08392e-07 -0.000130767
0.000964134 -6.21371e-05 9.35428e-07
-6.21371e-05 3.03977e-05 -3.07889e-07
9.35428e-07 -3.07889e-07 -5.84743e-05
0.00108278 -6.95651e-05 7.01491e-07
-6.95651e-05 7.88189e-05 -1.24509e-06
7.01491e-07 -1.24509e-06 -2.70468e-05
0.00110806 -5.48693e-05 -1.55659e-07
-5.48693e-05 0.000118301 9.0927e-08
-1.55659e-07 9.0927e-08 4.00846e-05
0.00115916 -6.24518e-05 -2.57657e-08
-6.24518e-05 0.000141766 -1.96014e-07
-2.57657e-08 -1.96014e-07 6.09556e-05
0.000922136 -5.74659e-05 1.97693e-06
-5.74659e-05 2.47321e-05 -3.83023e-07
1.97693e-06 -3.83023e-07 -5.70881e-05
0.000918776 -9.75368e-07 -6.57148e-07
-9.75368e-07 2.28736e-05 1.01053e-06
-6.57148e-07 1.01053e-06 -4.34477e-05
0.000932962 -4.08058e-05 -8.5913e-08
-4.08058e-05 3.92874e-05 1.98968e-07
-8.5913e-08 1.98968e-07 -3.71256e-05
0.00107093 -5.65841e-05 7.83091e-07
-5.65841e-05 0.00011178 -4.30629e-07
7.83091e-07 -4.30629e-07 2.96146e-05
0.000883668 1.58041e-05 -2.0682e-06
1.58041e-05 -7.45393e-07 2.20113e-06
-2.0682e-06 2.20113e-06 -4.26547e-05
0.000982186 -7.55521e-06 -2.34274e-07
-7.55521e-06 4.89329e-05 1.55215e-08
-2.34274e-07 1.55215e-08 -1.36328e-05
0.00107491 -4.54516e-05 4.70299e-07
-4.54516e-05 0.000101612 -3.00934e-07
4.70299e-07 -3.00934e-07 2.76564e-05
0.000843359 2.24507e-05 -3.82137e-06
2.24507e-05 -2.34632e-05 4.71201e-06
-3.82137e-06 4.71201e-06 -3.20865e-05
0.00089834 1.56001e-05 3.12187e-07
1.56001e-05 3.99166e-06 -3.20965e-08
3.12187e-07 -3.20965e-08 -3.43292e-05
0.000969592 -9.44896e-06 1.22819e-06
-9.44896e-06 3.80707e-05 -1.0862e-06
1.22819e-06 -1.0862e-06 -2.06661e-05
0.000896259 1.75534e-05 1.11084e-06
1.75534e-05 -8.0151e-07 -2.12155e-06
1.11084e-06 -2.12155e-06 -3.56899e-05
0.000837038 2.04203e-05 1.15125e-07
2.04203e-05 -3.17507e-05 -3.63407e-08
1.15125e-07 -3.63407e-08 -3.81488e-05
0.00232508 3.00406e-05 -1.65817e-05
3.00406e-05 0.00073022 3.7578e-06
-1.65817e-05 3.7578e-06 0.000748605
0.000863782 1.80775e-05 2.12759e-06
1.80775e-05 -2.4196e-05 -3.26021e-06
2.12759e-06 -3.26021e-06 -2.85937e-05
0.00228645 2.59788e-05 6.51055e-07
2.59788e-05 0.000705244 4.41417e-08
6.51055e-07 4.41417e-08 0.000724898
0.00225871 2.18903e-05 1.36237e-05
2.18903e-05 0.000686332 -3.85812e-06
1.36237e-05 -3.85812e-06 0.000707082
0.00103357 2.56378e-05 -5.22078e-07
2.56378e-05 6.72134e-05 -1.02423e-06
-5.22078e-07 -1.02423e-06 -2.29689e-06
0.000973041 1.28764e-05 -6.17575e-07
1.28764e-05 3.3409e-05 -1.47522e-06
-6.17575e-07 -1.47522e-06 -2.32222e-05
0.000900562 -1.66298e-05 -7.55967e-07
-1.66298e-05 -4.38848e-06 -2.05335e-06
-7.55967e-07 -2.05335e-06 -3.83412e-05
0.000966198 1.22538e-05 7.12063e-08
1.22538e-05 3.14903e-05 -4.03087e-08
7.12063e-08 -4.03087e-08 -2.19968e-05
0.000870168 -1.55599e-05 -1.55228e-06
-1.55599e-05 -2.59152e-05 -3.37958e-06
-1.55228e-06 -3.37958e-06 -2.97365e-05
0.000916152 -1.20412e-05 -1.19737e-08
-1.20412e-05 1.39698e-06 -3.29563e-09
-1.19737e-08 -3.29563e-09 -3.02343e-05
0.000953276 1.66495e-05 1.51802e-07
1.66495e-05 2.68563e-05 7.26748e-07
1.51802e-07 7.26748e-07 -2.42294e-05
0.00225493 -1.7673e-05 -1.13877e-05
-1.7673e-05 0.000679091 -4.03318e-06
-1.13877e-05 -4.03318e-06 0.000700817
0.000863726 -1.27853e-05 -9.95462e-08
-1.27853e-05 -3.34178e-05 -2.67489e-08
-9.95462e-08 -2.67489e-08 -3.49908e-05
0.000930062 -8.54469e-06 2.31221e-07
-8.54469e-06 6.58873e-06 1.27045e-06
2.31221e-07 1.27045e-06 -2.2942e-05
0.00219048 -1.30988e-05 -1.05405e-06
-1.30988e-05 0.000642002 3.0331e-08
-1.05405e-06 3.0331e-08 0.000665153
0.000857736 -9.57647e-06 7.02523e-07
-9.57647e-06 -4.04202e-05 3.19477e-06
7.02523e-07 3.19477e-06 -3.97854e-05
0.00214377 -8.45959e-06 5.26784e-06
-8.45959e-06 0.000615116 3.8959e-06
5.26784e-06 3.8959e-06 0.000639318
0.000982749 1.14237e-05 -1.16642e-05
1.14237e-05 0.000100106 -7.65561e-07
-1.16642e-05 -7.65561e-07 -2.3379e-05
0.00117726 1.24196e-06 9.35212e-07
1.24196e-06 0.000163802 -5.73185e-07
9.35212e-07 -5.73185e-07 3.28373e-05
0.00134318 -6.97721e-06 -7.24628e-06
-6.97721e-06 0.000327603 -2.23682e-06
-7.24628e-06 -2.23682e-06 0.000217143
0.000978304 1.69004e-05 -7.90293e-08
1.69004e-05 3.88128e-05 1.49902e-08
-7.90293e-08 1.49902e-08 -2.9104e-05
0.00106832 2.48048e-05 3.84939e-08
2.48048e-05 8.56543e-05 2.48578e-07
3.84939e-08 2.48578e-07 1.02312e-05
0.000991082 2.93099e-05 -8.26872e-07
2.93099e-05 5.05369e-05 -1.27718e-06
-8.26872e-07 -1.27718e-06 -2.75266e-05
0.000943358 1.89952e-05 -2.11636e-07
1.89952e-05 2.32214e-05 -1.19374e-06
-2.11636e-07 -1.19374e-06 -5.16842e-05
0.00113722 4.29954e-05 -3.65492e-07
4.29954e-05 0.000125531 -6.8094e-07
-3.65492e-07 -6.8094e-07 4.49132e-05
0.000906687 1.48985e-05 1.70144e-07
1.48985e-05 4.2282e-06 8.90116e-07
1.70144e-07 8.90116e-07 -6.24667e-05
0.000993364 9.1953e-06 2.59061e-07
9.1953e-06 5.06887e-05 9.4624e-07
2.59061e-07 9.4624e-07 -2.2247e-05
0.00102541 3.51338e-05 -1.19283e-07
3.51338e-05 6.89742e-05 -2.0439e-08
-1.19283e-07 -2.0439e-08 -5.64404e-06
0.00104345 2.70129e-05 3.87285e-07
2.70129e-05 7.76342e-05 4.61191e-07
3.87285e-07 4.61191e-07 -1.04487e-06
0.00108604 2.94773e-05 -2.74043e-07
2.94773e-05 0.000101754 -5.95388e-07
-2.74043e-07 -5.95388e-07 2.16685e-05
0.000953499 3.10392e-06 -8.92976e-06
3.10392e-06 0.000120418 4.18183e-06
-8.92976e-06 4.18183e-06 5.25705e-05
0.000921509 2.7809e-05 2.85171e-07
2.7809e-05 6.11175e-05 -1.47517e-06
2.85171e-07 -1.47517e-06 -4.34289e-05
0.000538535 1.1157e-05 5.7481e-07
1.1157e-05 -0.000216832 -2.25485e-06
5.7481e-07 -2.25485e-06 -0.000341055
0.00103811 -1.32003e-05 7.03605e-06
-1.32003e-05 -0.000277674 5.13678e-06
7.03605e-06 5.13678e-06 -7.47238e-05
-0.00164159 1.7234e-05 -2.4225e-06
1.7234e-05 -0.00213694 -6.73672e-05
-2.4225e-06 -6.73672e-05 -0.00193606
0.00141557 -0.000232154 -6.75888e-05
-0.000232154 -0.000380342 8.98923e-05
-6.75888e-05 8.98923e-05 -0.000733572
0.00709177 0.000128017 -1.47511e-05
0.000128017 0.00149437 -4.66621e-05
-1.47511e-05 -4.66621e-05 0.00108549
0.00104628 -0.000198158 -3.69968e-05
-0.000198158 -0.000307827 3.05094e-05
-3.69968e-05 3.05094e-05 -0.00069132
0.00756111 -0.000121369 2.44368e-05
-0.000121369 0.00177281 1.89181e-06
2.44368e-05 1.89181e-06 0.00133891
0.00102386 -0.000171398 5.77801e-06
-0.000171398 -0.000762274 -2.12032e-05
5.77801e-06 -2.12032e-05 -0.000648332
8.77793e-05 -8.57193e-05 2.22886e-06
-8.57193e-05 -0.000856824 -1.75094e-06
2.22886e-06 -1.75094e-06 -0.000559767
0.00176666 -7.35216e-05 -2.63191e-05
-7.35216e-05 0.000284121 -5.54897e-05
-2.63191e-05 -5.54897e-05 -0.000133953
0.00708144 -0.000284087 -1.69244e-05
-0.000284087 0.00158531 4.87515e-05
-1.69244e-05 4.87515e-05 0.00106081
0.00564453 -0.000332225 1.61415e-05
-0.000332225 0.0016924 2.47249e-05
1.61415e-05 2.47249e-05 0.00184054
0.00115193 -0.000159568 2.50273e-06
-0.000159568 -0.000112929 1.2343e-06
2.50273e-06 1.2343e-06 0.000317265
0.00094873 2.50534e-05 -8.15077e-07
2.50534e-05 3.94841e-05 -2.66311e-07
-8.15077e-07 -2.66311e-07 -3.7553e-05
0.00110144 3.31465e-06 -1.16415e-07
3.31465e-06 0.000101113 1.35446e-07
-1.16415e-07 1.35446e-07 1.98209e-05
0.0010111 8.37486e-06 2.79042e-07
8.37486e-06 5.99441e-05 3.67803e-07
2.79042e-07 3.67803e-07 -2.1137e-05
0.000986933 -4.07044e-05 2.06195e-05
-4.07044e-05 0.000391214 -2.62399e-06
2.06195e-05 -2.62399e-06 0.000249993
0.0012828 -1.03848e-05 3.21726e-07
-1.03848e-05 0.00026564 -5.33339e-07
3.21726e-07 -5.33339e-07 0.000226178
0.00103022 1.2532e-05 -8.49061e-08
1.2532e-05 6.26069e-05 1.84952e-06
-8.49061e-08 1.84952e-06 -2.122e-05
0.000978016 -1.52643e-05 -6.62077e-07
-1.52643e-05 2.79023e-05 2.59621e-06
-6.62077e-07 2.59621e-06 -6.3465e-05
0.00106433 -4.63041e-06 6.65466e-08
-4.63041e-06 8.65511e-05 6.6301e-08
6.65466e-08 6.6301e-08 -4.055e-06
0.000881635 -3.70223e-05 1.08954e-06
-3.70223e-05 9.25903e-05 2.28185e-06
1.08954e-06 2.28185e-06 -2.86372e-05
-9.12347e-05 1.74683e-05 2.14565e-06
1.74683e-05 9.2433e-05 -7.14787e-06
2.14565e-06 -7.14787e-06 -0.000201241
0.000424013 1.41609e-05 -1.8838e-06
1.41609e-05 -0.000112626 6.19603e-07
-1.8838e-06 6.19603e-07 -0.000248412
0.00136191 5.12998e-05 5.68076e-06
5.12998e-05 0.000543644 5.41686e-06
5.68076e-06 5.41686e-06 0.000361645
0.00195616 -6.35359e-06 -1.27678e-05
-6.35359e-06 0.000798548 -1.74249e-06
-1.27678e-05 -1.74249e-06 0.000714646
0.00107825 -3.75272e-06 -4.31019e-06
-3.75272e-06 0.000181966 -2.57749e-07
-4.31019e-06 -2.57749e-07 5.26754e-05
0.000953816 -3.48706e-06 5.58624e-07
-3.48706e-06 7.11058e-05 5.09025e-07
5.58624e-07 5.09025e-07 -6.47809e-05
-0.000249231 -1.57862e-06 -9.0046e-06
-1.57862e-06 -1.33288e-05 1.70119e-05
-9.0046e-06 1.70119e-05 -0.000170316
0.000204052 2.44351e-05 3.7263e-05
2.44351e-05 -0.000382917 -5.22955e-05
3.7263e-05 -5.22955e-05 -0.000742869
0.00132175 -1.42359e-05 6.28586e-06
-1.42359e-05 0.00031343 3.46212e-06
6.28586e-06 3.46212e-06 0.000190355
0.0081104 0.000185164 3.35111e-05
0.000185164 0.00204339 -6.60517e-06
3.35111e-05 -6.60517e-06 0.00111849
0.00366486 0.00037165 -3.28672e-05
0.00037165 0.000932462 1.97659e-05
-3.28672e-05 1.97659e-05 0.000908499
0.00136041 -8.02852e-06 1.57664e-05
-8.02852e-06 0.000339639 -4.41663e-06
1.57664e-05 -4.41663e-06 0.00026851
-0.000360357 0.00019873 -9.86294e-06
0.00019873 -0.000872888 1.42564e-05
-9.86294e-06 1.42564e-05 -0.000491732
-0.000119074 -2.20389e-05 -6.95857e-06
-2.20389e-05 5.06374e-05 5.94078e-08
-6.95857e-06 5.94078e-08 -0.000172924
0.00122718 -1.3601e-05 4.89384e-06
-1.3601e-05 0.000302813 -3.99449e-07
4.89384e-06 -3.99449e-07 0.000214433
-0.00110717 8.1435e-05 3.25807e-06
8.1435e-05 -0.00102208 -2.22574e-06
3.25807e-06 -2.22574e-06 -0.000906905
0.00188743 -0.000116769 9.84648e-06
-0.000116769 0.000364046 3.18627e-05
9.84648e-06 3.18627e-05 -4.22134e-05
0.00291808 0.000333383 -3.23472e-06
0.000333383 0.000927409 -1.42694e-06
-3.23472e-06 -1.42694e-06 0.000888821
0.00594715 0.000135403 2.24946e-05
0.000135403 0.00150527 -1.17178e-05
2.24946e-05 -1.17178e-05 0.000330493
0.00160286 -6.35221e-05 1.01146e-05
-6.35221e-05 0.000341227 2.3049e-06
1.01146e-05 2.3049e-06 0.00036011
-0.00101206 1.51898e-05 -2.89668e-06
1.51898e-05 -0.000952114 7.43343e-07
-2.89668e-06 7.43343e-07 -0.000980834
0.00246768 0.000230981 4.32355e-05
0.000230981 0.000918889 -1.59003e-05
4.32355e-05 -1.59003e-05 0.000865897
0.0035895 0.000303037 -2.72949e-05
0.000303037 0.000699159 2.34942e-05
-2.72949e-05 2.34942e-05 -0.0001837
0.00171872 -8.92944e-05 6.41597e-06
-8.92944e-05 0.000184033 4.18081e-05
6.41597e-06 4.18081e-05 -8.83139e-05
0.000614883 -1.24881e-05 -1.21296e-06
-1.24881e-05 0.000134158 3.37493e-06
-1.21296e-06 3.37493e-06 -0.000134804
0.000972278 -9.73739e-05 7.63558e-07
-9.73739e-05 0.000215452 -1.95961e-06
7.63558e-07 -1.95961e-06 -5.66573e-05
0.00262655 -0.000176737 2.53976e-07
-0.000176737 0.000767113 1.87277e-06
2.53976e-07 1.87277e-06 0.000570972
0.000124773 -2.60697e-05 -1.4395e-06
-2.60697e-05 -0.000207547 1.82403e-06
-1.4395e-06 1.82403e-06 -0.000421155
0.000857222 -8.65766e-05 1.02385e-06
-8.65766e-05 4.79006e-05 2.87115e-08
1.02385e-06 2.87115e-08 -0.000142983
0.00130817 -0.00011488 -3.83389e-07
-0.00011488 0.000132233 1.3771e-06
-3.83389e-07 1.3771e-06 -1.25894e-05
0.00136093 -8.22215e-05 -1.62475e-06
-8.22215e-05 0.000260191 -1.68042e-08
-1.62475e-06 -1.68042e-08 0.00010207
0.00122262 -9.12451e-05 -1.01798e-06
-9.12451e-05 0.000137418 -8.11449e-07
-1.01798e-06 -8.11449e-07 -1.03475e-05
0.00157741 -0.000101051 -1.04997e-06
-0.000101051 0.000233135 -3.12108e-07
-1.04997e-06 -3.12108e-07 0.000117365
0.00142679 -8.68836e-05 -2.33141e-07
-8.68836e-05 0.000246329 -1.11731e-06
-2.33141e-07 -1.11731e-06 0.000118319
0.00126801 -8.37756e-05 3.15651e-07
-8.37756e-05 0.000136428 -9.39862e-07
3.15651e-07 -9.39862e-07 1.24505e-05
0.00142321 -8.22986e-05 -1.54404e-06
-8.22986e-05 0.00014918 -1.66362e-06
-1.54404e-06 -1.66362e-06 4.54185e-05
0.00132021 -7.41246e-05 -1.36202e-06
-7.41246e-05 8.26915e-05 -9.24423e-07
-1.36202e-06 -9.24423e-07 -9.36109e-06
0.00113981 -7.22199e-05 -1.35163e-06
-7.22199e-05 6.20911e-05 1.02045e-06
-1.35163e-06 1.02045e-06 -3.84386e-05
0.00124623 -7.73062e-05 3.32413e-07
-7.73062e-05 9.7279e-05 -8.69623e-07
3.32413e-07 -8.69623e-07 -1.00815e-05
0.00125408 -7.04477e-05 -8.7981e-07
-7.04477e-05 0.00015845 1.99337e-06
-8.7981e-07 1.99337e-06 7.03018e-05
0.0012434 -7.44423e-05 -2.49763e-07
-7.44423e-05 0.000142447 5.19898e-07
-2.49763e-07 5.19898e-07 4.22595e-05
0.00128283 -8.03755e-05 8.06027e-07
-8.03755e-05 0.000154122 -1.74395e-06
8.06027e-07 -1.74395e-06 4.00933e-05
0.00101093 -5.70693e-05 -3.64214e-07
-5.70693e-05 6.17713e-05 -4.82402e-07
-3.64214e-07 -4.82402e-07 -1.46363e-05
0.000877173 -5.7133e-05 -1.86579e-07
-5.7133e-05 -8.18716e-06 -7.40352e-07
-1.86579e-07 -7.40352e-07 -8.87117e-05
0.00110892 -6.59198e-05 2.19228e-06
-6.59198e-05 0.000102874 -2.11909e-06
2.19228e-06 -2.11909e-06 1.4706e-05
0.000955479 -1.88776e-05 -6.02877e-07
-1.88776e-05 4.29683e-05 8.30021e-07
-6.02877e-07 8.30021e-07 -2.61081e-05
0.00104074 -5.21336e-05 1.59242e-07
-5.21336e-05 8.58139e-05 3.13316e-07
1.59242e-07 3.13316e-07 7.87541e-06
0.00108879 -6.0292e-05 5.16666e-07
-6.0292e-05 0.000108132 4.64051e-07
5.16666e-07 4.64051e-07 2.70272e-05
0.000871937 3.05625e-05 -1.8688e-06
3.05625e-05 -1.13888e-06 2.10316e-06
-1.8688e-06 2.10316e-06 -4.77199e-05
0.000973274 -2.7307e-06 -6.88918e-08
-2.7307e-06 4.95008e-05 7.96038e-09
-6.88918e-08 7.96038e-09 -1.68664e-05
0.000972295 -3.99199e-05 1.31428e-07
-3.99199e-05 5.73199e-05 -1.78697e-07
1.31428e-07 -1.78697e-07 -1.83838e-05
0.00148534 2.88207e-05 -1.04357e-05
2.88207e-05 0.000310552 3.27859e-06
-1.04357e-05 3.27859e-06 0.000302736
0.000888963 1.49405e-05 9.39227e-08
1.49405e-05 1.96774e-06 -3.26268e-08
9.39227e-08 -3.26268e-08 -3.98694e-05
0.000987183 -8.04237e-06 8.65711e-07
-8.04237e-06 5.05138e-05 -1.04231e-06
8.65711e-07 -1.04231e-06 -1.17299e-05
0.00104023 2.17748e-05 -1.54953e-05
2.17748e-05 7.9743e-05 3.82184e-06
-1.54953e-05 3.82184e-06 8.99544e-05
0.0011736 2.48606e-05 -3.81878e-06
2.48606e-05 0.000145877 4.97671e-07
-3.81878e-06 4.97671e-07 0.000138593
0.000888368 1.9939e-05 1.412e-06
1.9939e-05 -6.42117e-07 -2.11307e-06
1.412e-06 -2.11307e-06 -3.90591e-05
0.000854206 2.07415e-05 2.5096e-06
2.07415e-05 -2.32466e-05 -3.37063e-06
2.5096e-06 -3.37063e-06 -2.97515e-05
0.00233268 3.00281e-05 5.52462e-07
3.00281e-05 0.00073483 4.72966e-08
5.52462e-07 4.72966e-08 0.000753001
0.00228797 2.59615e-05 1.5727e-05
2.59615e-05 0.000706752 -3.83565e-06
1.5727e-05 -3.83565e-06 0.000726254
0.000982429 2.4946e-05 -8.26072e-07
2.4946e-05 4.42229e-05 -1.32157e-06
-8.26072e-07 -1.32157e-06 -2.86313e-05
0.0009824 1.1541e-06 -6.11165e-07
1.1541e-06 3.80004e-05 -1.64193e-06
-6.11165e-07 -1.64193e-06 -2.14109e-05
0.00101657 1.93693e-05 -1.0935e-07
1.93693e-05 5.80628e-05 1.12502e-08
-1.0935e-07 1.12502e-08 -1.16584e-05
0.000892425 -2.07152e-05 -9.42659e-07
-2.07152e-05 -6.29902e-06 -2.24192e-06
-9.42659e-07 -2.24192e-06 -4.24181e-05
0.000975447 6.08121e-06 2.72021e-07
6.08121e-06 3.44546e-05 -6.94729e-08
2.72021e-07 -6.94729e-08 -2.18726e-05
0.000859091 -1.7832e-05 -2.00367e-06
-1.7832e-05 -2.71869e-05 -3.45533e-06
-2.00367e-06 -3.45533e-06 -3.29179e-05
0.000907944 -1.30564e-05 -2.52499e-07
-1.30564e-05 -6.96735e-07 -2.01499e-10
-2.52499e-07 -2.01499e-10 -3.45856e-05
0.000977033 1.53287e-05 6.5252e-07
1.53287e-05 3.76452e-05 1.40684e-06
6.5252e-07 1.40684e-06 -1.63535e-05
0.00231466 -2.19596e-05 -1.38508e-05
-2.19596e-05 0.000713927 -4.03492e-06
-1.38508e-05 -4.03492e-06 0.000734317
0.000852793 -1.54385e-05 -1.53121e-07
-1.54385e-05 -3.46051e-05 -1.37815e-08
-1.53121e-07 -1.37815e-08 -3.83293e-05
0.00092505 -1.13504e-05 6.26458e-07
-1.13504e-05 6.08087e-06 1.8913e-06
6.26458e-07 1.8913e-06 -2.5561e-05
0.00224906 -1.76091e-05 -9.20608e-07
-1.76091e-05 0.000675604 3.80371e-08
-9.20608e-07 3.80371e-08 0.000697519
0.000846452 -1.26818e-05 9.50615e-07
-1.26818e-05 -4.20876e-05 3.29737e-06
9.50615e-07 3.29737e-06 -4.35497e-05
0.00218716 -1.29514e-05 7.87479e-06
-1.29514e-05 0.000639901 3.90838e-06
7.87479e-06 3.90838e-06 0.000663206
0.000611673 6.0154e-06 -1.05781e-05
6.0154e-06 -5.34883e-06 -4.55782e-06
-1.05781e-05 -4.55782e-06 -8.96e-05
0.000941607 9.35456e-06 -1.28798e-06
9.35456e-06 7.50242e-05 -1.01041e-06
-1.28798e-06 -1.01041e-06 -4.94842e-05
0.00101738 9.24712e-07 -3.73714e-07
9.24712e-07 7.34494e-05 -3.49844e-06
-3.73714e-07 -3.49844e-06 -5.90148e-05
0.00103956 4.78278e-05 -9.03733e-07
4.78278e-05 7.86949e-05 -2.86137e-07
-9.03733e-07 -2.86137e-07 -3.30347e-07
0.00102545 1.65577e-05 2.64736e-07
1.65577e-05 6.32201e-05 9.80963e-07
2.64736e-07 9.80963e-07 -4.56422e-06
0.00101541 2.41192e-05 3.44691e-07
2.41192e-05 5.8363e-05 1.15384e-06
3.44691e-07 1.15384e-06 -1.75935e-05
0.0010394 1.8906e-05 7.05222e-08
1.8906e-05 7.21741e-05 -2.27809e-07
7.05222e-08 -2.27809e-07 -2.19547e-06
0.0010447 3.82856e-05 -1.41252e-07
3.82856e-05 7.88073e-05 -1.36028e-07
-1.41252e-07 -1.36028e-07 4.9967e-07
0.00105319 4.04341e-05 1.07052e-07
4.04341e-05 8.22335e-05 3.89267e-07
1.07052e-07 3.89267e-07 1.85008e-06
0.00105196 4.96946e-05 -1.05573e-06
4.96946e-05 8.39813e-05 -1.27759e-06
-1.05573e-06 -1.27759e-06 8.30984e-07
0.000945256 3.85757e-05 -3.73514e-07
3.85757e-05 3.13533e-05 -1.07384e-06
-3.73514e-07 -1.07384e-06 -5.02477e-05
0.00101661 4.43584e-05 5.72006e-07
4.43584e-05 6.57259e-05 6.49519e-07
5.72006e-07 6.49519e-07 -9.3944e-06
0.00100176 4.99596e-06 3.92929e-07
4.99596e-06 5.41506e-05 7.94439e-07
3.92929e-07 7.94439e-07 -2.32557e-05
0.00106632 3.09964e-05 -1.05105e-07
3.09964e-05 9.22755e-05 -5.32901e-09
-1.05105e-07 -5.32901e-09 1.20414e-05
0.00149719 3.65559e-05 1.14089e-06
3.65559e-05 0.000305823 -9.91116e-07
1.14089e-06 -9.91116e-07 0.000222825
0.00204767 -7.80838e-05 5.50811e-06
-7.80838e-05 0.000760338 4.39086e-06
5.50811e-06 4.39086e-06 0.000903195
0.000748814 7.84425e-06 1.61156e-06
7.84425e-06 -9.18905e-06 2.97115e-06
1.61156e-06 2.97115e-06 -7.61733e-05
0.000883021 2.81808e-05 1.17761e-05
2.81808e-05 3.95767e-05 3.16644e-07
1.17761e-05 3.16644e-07 -6.4453e-05
0.00149296 -0.000104342 1.36623e-06
-0.000104342 -4.76805e-05 -5.84147e-06
1.36623e-06 -5.84147e-06 0.000258486
0.0032548 -0.000230146 -2.00278e-06
-0.000230146 6.85548e-05 -9.23894e-05
-2.00278e-06 -9.23894e-05 0.000177755
0.00314076 5.46479e-05 -2.56796e-05
5.46479e-05 -0.000563503 0.000104071
-2.56796e-05 0.000104071 -0.000839907
0.000915473 -0.000190916 -5.87545e-05
-0.000190916 -6.43634e-05 6.82713e-05
-5.87545e-05 6.82713e-05 -0.000321008
0.00211548 -5.53698e-05 -1.64863e-05
-5.53698e-05 0.000692611 2.91842e-06
-1.64863e-05 2.91842e-06 0.000430639
0.00035243 -0.00016232 -3.41387e-07
-0.00016232 -0.000468308 -1.36999e-06
-3.41387e-07 -1.36999e-06 -8.26656e-05
0.00523472 -8.67362e-05 1.43108e-05
-8.67362e-05 0.000630707 5.33677e-05
1.43108e-05 5.33677e-05 -9.64722e-05
-0.000623148 -0.00020531 -6.62957e-06
-0.00020531 -0.000944529 -1.20522e-05
-6.62957e-06 -1.20522e-05 -0.000796479
0.00239497 0.000131362 -6.00777e-05
0.000131362 0.00061836 -5.00057e-05
-6.00777e-05 -5.00057e-05 0.000394359
0.00695683 -0.000248098 4.12809e-06
-0.000248098 0.0019927 3.50624e-05
4.12809e-06 3.50624e-05 0.00125328
-0.000121556 -0.00018337 3.39681e-05
-0.00018337 -0.000100364 2.03305e-05
3.39681e-05 2.03305e-05 -2.29369e-06
0.000827098 6.97247e-05 -3.41663e-06
6.97247e-05 4.11292e-06 -2.34836e-06
-3.41663e-06 -2.34836e-06 -6.98191e-05
0.00116551 2.96152e-05 2.12865e-06
2.96152e-05 0.00014034 2.63196e-07
2.12865e-06 2.63196e-07 6.41294e-05
0.0010667 1.57186e-05 -2.25402e-07
1.57186e-05 8.85258e-05 1.99378e-07
-2.25402e-07 1.99378e-07 5.94479e-06
-0.000583764 1.03656e-05 -5.14757e-06
1.03656e-05 -0.000199823 -1.58873e-05
-5.14757e-06 -1.58873e-05 -0.000491585
0.000355914 -2.53768e-05 -1.02545e-06
-2.53768e-05 -0.000155982 2.05562e-06
-1.02545e-06 2.05562e-06 -0.000287445
0.000902657 8.47587e-06 2.38204e-06
8.47587e-06 1.02937e-05 3.88708e-06
2.38204e-06 3.88708e-06 -7.99744e-05
0.00103585 3.56198e-05 6.96703e-08
3.56198e-05 0.000171427 2.13506e-07
6.96703e-08 2.13506e-07 3.84906e-05
0.000792122 2.70135e-05 1.49278e-06
2.70135e-05 0.000265441 -1.68989e-06
1.49278e-06 -1.68989e-06 9.87923e-05
-0.00115843 5.19989e-05 -1.35541e-06
5.19989e-05 -0.000771411 1.541e-05
-1.35541e-06 1.541e-05 -0.000940374
0.00266866 -1.88806e-05 -6.17206e-06
-1.88806e-05 0.00120817 -1.92762e-07
-6.17206e-06 -1.92762e-07 0.00121106
0.000922972 -4.47091e-06 -6.22736e-07
-4.47091e-06 0.000167125 -1.30172e-06
-6.22736e-07 -1.30172e-06 7.35708e-05
0.000660848 -4.21199e-06 4.59936e-06
-4.21199e-06 -8.49413e-05 4.16778e-07
4.59936e-06 4.16778e-07 -0.000218971
0.000160424 -2.82042e-05 8.11538e-06
-2.82042e-05 0.000196453 1.37719e-05
8.11538e-06 1.37719e-05 -3.60795e-05
0.000994287 -9.20161e-05 -5.86187e-06
-9.20161e-05 -5.47087e-06 -4.80557e-05
-5.86187e-06 -4.80557e-05 -0.00030839
0.00120431 -1.45282e-05 1.95251e-05
-1.45282e-05 0.000285501 -2.57856e-06
1.95251e-05 -2.57856e-06 0.00019881
0.00161898 0.000144383 -2.84171e-05
0.000144383 -0.000182074 3.0072e-05
-2.84171e-05 3.0072e-05 -0.00122675
-0.00143128 0.000226996 -5.49405e-05
0.000226996 -0.00097931 2.95073e-05
-5.49405e-05 2.95073e-05 -0.000962094
0.00124975 0.000103251 -4.01962e-06
0.000103251 0.000310078 3.39315e-06
-4.01962e-06 3.39315e-06 0.000487829
0.00161564 -7.53549e-05 3.28624e-06
-7.53549e-05 0.00037562 2.06514e-06
3.28624e-06 2.06514e-06 0.000371554
0.00125485 2.88204e-05 -2.03596e-06
2.88204e-05 0.000346147 6.14382e-08
-2.03596e-06 6.14382e-08 0.00036904
-0.00193434 0.000122867 -5.55618e-06
0.000122867 -0.000962895 3.3484e-06
-5.55618e-06 3.3484e-06 -0.000980104
0.00329451 -0.000152779 -1.21104e-05
-0.000152779 0.000652637 2.08619e-05
-1.21104e-05 2.08619e-05 0.000221549
0.00510553 0.000259718 -7.01664e-06
0.000259718 0.00136781 3.50855e-06
-7.01664e-06 3.50855e-06 0.000523372
0.000874412 -0.000102186 5.00839e-06
-0.000102186 -0.000221993 7.72169e-06
5.00839e-06 7.72169e-06 -0.000167406
-0.00277124 5.29888e-05 5.4678e-05
5.29888e-05 -0.00172047 -1.52961e-05
5.4678e-05 -1.52961e-05 -0.00171226
0.00508557 0.000252073 1.18328e-05
0.000252073 0.00145618 -3.36326e-06
1.18328e-05 -3.36326e-06 0.000785297
0.00340817 7.71783e-06 -1.49452e-05
7.71783e-06 0.000615813 3.00239e-05
-1.49452e-05 3.00239e-05 0.000314062
0.000557442 -8.65153e-05 -2.16504e-06
-8.65153e-05 4.12397e-05 -1.6475e-06
-2.16504e-06 -1.6475e-06 -0.00026231
0.00112552 -0.000136235 6.16683e-07
-0.000136235 7.1844e-05 1.03229e-06
6.16683e-07 1.03229e-06 -0.000131305
0.0016899 -0.000167288 -3.2633e-06
-0.000167288 0.00018171 3.17642e-06
-3.2633e-06 3.17642e-06 5.4322e-05
0.000348994 -7.21408e-05 -1.47072e-06
-7.21408e-05 -0.000192824 -1.74529e-06
-1.47072e-06 -1.74529e-06 -0.000389437
0.00123963 -0.000112388 -1.11671e-06
-0.000112388 9.22332e-05 -1.30129e-06
-1.11671e-06 -1.30129e-06 -5.17104e-05
0.00201658 -0.000120446 -5.85828e-06
-0.000120446 0.000330344 -9.97104e-07
-5.85828e-06 -9.97104e-07 0.000237754
0.00121714 -8.9856e-05 -6.27049e-07
-8.9856e-05 0.000130613 -2.50139e-06
-6.27049e-07 -2.50139e-06 -1.2762e-05
0.00130684 -9.32927e-05 9.21336e-07
-9.32927e-05 0.000102487 -8.40366e-07
9.21336e-07 -8.40366e-07 -1.19425e-05
0.00169468 -8.7112e-05 -1.76651e-06
-8.7112e-05 0.000207057 -2.43034e-06
-1.76651e-06 -2.43034e-06 0.000128498
0.00119206 -8.04432e-05 3.88218e-09
-8.04432e-05 9.61609e-05 -1.39816e-06
3.88218e-09 -1.39816e-06 -2.53103e-05
0.00126215 -7.74333e-05 -2.9064e-07
-7.74333e-05 6.42694e-05 -6.32127e-07
-2.9064e-07 -6.32127e-07 -3.78556e-05
0.00143828 -7.17206e-05 -1.2203e-06
-7.17206e-05 8.68797e-05 -2.08136e-06
-1.2203e-06 -2.08136e-06 1.4185e-05
0.00140715 -6.73849e-05 -1.29931e-06
-6.73849e-05 9.17072e-05 -1.31144e-06
-1.29931e-06 -1.31144e-06 2.04105e-05
0.00130914 -7.33638e-05 -1.74758e-06
-7.33638e-05 9.92108e-05 -2.47949e-07
-1.74758e-06 -2.47949e-07 8.08056e-06
0.00130503 -7.20238e-05 5.95707e-07
-7.20238e-05 7.52819e-05 1.9963e-07
5.95707e-07 1.9963e-07 -1.49383e-05
0.000839399 -6.09646e-05 -1.28721e-06
-6.09646e-05 -7.24282e-05 1.49301e-06
-1.28721e-06 1.49301e-06 -0.000163717
0.0012618 -7.47682e-05 7.43919e-07
-7.47682e-05 0.000122712 -7.23957e-07
7.43919e-07 -7.23957e-07 2.33087e-05
0.00114692 -7.40613e-05 1.50002e-06
-7.40613e-05 4.64156e-05 -1.36877e-06
1.50002e-06 -1.36877e-06 -5.98123e-05
0.0010498 -6.13753e-05 -2.86152e-07
-6.13753e-05 7.20153e-05 8.35362e-07
-2.86152e-07 8.35362e-07 -6.85566e-06
0.00103777 -6.45353e-05 2.81445e-07
-6.45353e-05 5.45169e-05 -1.53928e-07
2.81445e-07 -1.53928e-07 -3.37525e-05
0.00096275 -6.73071e-05 8.51847e-07
-6.73071e-05 5.29131e-06 -1.90984e-06
8.51847e-07 -1.90984e-06 -9.67021e-05
0.000995413 -3.98578e-05 -1.24307e-06
-3.98578e-05 5.92938e-05 2.21559e-07
-1.24307e-06 2.21559e-07 -1.02348e-05
0.00105692 -5.7912e-05 -1.97051e-07
-5.7912e-05 8.34867e-05 -2.85549e-07
-1.97051e-07 -2.85549e-07 7.04466e-06
0.000968532 -5.93738e-05 1.19732e-08
-5.93738e-05 3.80039e-05 -1.18403e-06
1.19732e-08 -1.18403e-06 -4.15878e-05
0.00090396 7.9584e-06 -2.10812e-06
7.9584e-06 2.17199e-05 2.04094e-06
-2.10812e-06 2.04094e-06 -2.91124e-05
0.000990311 -2.04773e-05 3.65798e-07
-2.04773e-05 5.95094e-05 2.31738e-07
3.65798e-07 2.31738e-07 -9.44724e-06
0.000974469 -4.92234e-05 6.98478e-07
-4.92234e-05 5.37314e-05 4.07357e-07
6.98478e-07 4.07357e-07 -2.39066e-05
0.000779379 2.73956e-05 -3.95957e-06
2.73956e-05 -4.3771e-05 3.49533e-06
-3.95957e-06 3.49533e-06 -5.76582e-05
0.00088693 1.0812e-05 -2.03044e-07
1.0812e-05 5.05014e-06 -5.70648e-08
-2.03044e-07 -5.70648e-08 -4.08752e-05
0.00101603 -5.47757e-06 6.93245e-07
-5.47757e-06 7.03802e-05 -1.05721e-06
6.93245e-07 -1.05721e-06 3.91498e-06
0.00242313 4.19677e-05 -7.86681e-06
4.19677e-05 0.000794262 1.5634e-06
-7.86681e-06 1.5634e-06 0.000808608
0.000799934 2.48871e-05 1.642e-07
2.48871e-05 -3.92283e-05 3.35878e-08
1.642e-07 3.35878e-08 -5.08799e-05
0.000892682 1.36848e-05 2.21818e-06
1.36848e-05 4.26422e-06 -2.08138e-06
2.21818e-06 -2.08138e-06 -3.77912e-05
0.0023993 3.39742e-05 4.88286e-07
3.39742e-05 0.000774556 4.59035e-08
4.88286e-07 4.59035e-08 0.000791135
0.00084031 2.31618e-05 3.0818e-06
2.31618e-05 -2.43262e-05 -3.47607e-06
3.0818e-06 -3.47607e-06 -3.3459e-05
0.00233933 2.99653e-05 1.7878e-05
2.99653e-05 0.000738956 -3.85365e-06
1.7878e-05 -3.85365e-06 0.000756921
0.00108023 4.257e-05 -6.92496e-07
4.257e-05 9.76026e-05 -3.12424e-07
-6.92496e-07 -3.12424e-07 2.3457e-05
0.00100449 2.43573e-05 -1.22379e-07
2.43573e-05 5.56681e-05 -2.24603e-07
-1.22379e-07 -2.24603e-07 -1.69719e-05
0.000981247 2.10804e-06 -9.30757e-07
2.10804e-06 4.28479e-05 -1.64172e-06
-9.30757e-07 -1.64172e-06 -2.07078e-05
0.000887892 -1.85582e-05 -1.44718e-06
-1.85582e-05 -5.67012e-06 -2.46089e-06
-1.44718e-06 -2.46089e-06 -4.42452e-05
0.000976256 -3.39894e-07 9.25868e-08
-3.39894e-07 3.55567e-05 -1.0301e-08
9.25868e-08 -1.0301e-08 -2.38954e-05
0.000992367 2.2973e-05 5.57679e-07
2.2973e-05 4.64686e-05 1.16267e-06
5.57679e-07 1.16267e-06 -2.41782e-05
0.000848059 -1.99586e-05 -2.57563e-06
-1.99586e-05 -2.87934e-05 -3.53247e-06
-2.57563e-06 -3.53247e-06 -3.6123e-05
0.000899248 -1.64274e-05 -1.52616e-07
-1.64274e-05 -3.40011e-06 -1.36271e-08
-1.52616e-07 -1.36271e-08 -3.92772e-05
0.000973685 9.4305e-08 5.73187e-07
9.4305e-08 3.33285e-05 1.49017e-06
5.73187e-07 1.49017e-06 -2.26532e-05
0.00236012 -2.60539e-05 -1.61507e-05
-2.60539e-05 0.000741886 -4.01718e-06
-1.61507e-05 -4.01718e-06 0.000760992
0.000841997 -1.76726e-05 -1.33484e-07
-1.76726e-05 -3.57108e-05 -1.08814e-08
-1.33484e-07 -1.08814e-08 -4.13573e-05
0.000914604 -1.22151e-05 8.2754e-07
-1.22151e-05 2.47284e-06 1.98045e-06
8.2754e-07 1.98045e-06 -3.12936e-05
0.0023114 -2.19684e-05 -8.93067e-07
-2.19684e-05 0.000711742 4.71951e-08
-8.93067e-07 4.71951e-08 0.000732295
0.00083443 -1.53109e-05 1.25749e-06
-1.53109e-05 -4.37837e-05 3.40563e-06
1.25749e-06 3.40563e-06 -4.74083e-05
0.0022426 -1.74888e-05 1.02423e-05
-1.74888e-05 0.000671812 3.93311e-06
1.02423e-05 3.93311e-06 0.000693922
0.000346626 -2.54173e-05 8.90847e-07
-2.54173e-05 -0.000107768 -4.25387e-08
8.90847e-07 -4.25387e-08 -0.000122884
0.000550153 8.38949e-06 -9.42578e-07
8.38949e-06 -4.4059e-05 -8.87878e-07
-9.42578e-07 -8.87878e-07 -0.000128275
0.000899075 7.25045e-06 9.76175e-06
7.25045e-06 4.89001e-05 -1.52724e-06
9.76175e-06 -1.52724e-06 -7.65894e-05
0.00102558 4.50732e-05 -6.11454e-09
4.50732e-05 7.10478e-05 2.27832e-07
-6.11454e-09 2.27832e-07 -8.10449e-06
0.00116989 5.93299e-05 -8.2142e-07
5.93299e-05 0.000148657 1.97353e-07
-8.2142e-07 1.97353e-07 7.02246e-05
0.00105884 5.40668e-05 -8.35262e-07
5.40668e-05 8.66534e-05 -3.71613e-07
-8.35262e-07 -3.71613e-07 4.84568e-06
0.00112012 1.55994e-05 -7.03593e-09
1.55994e-05 0.000113175 4.3389e-07
-7.03593e-09 4.3389e-07 3.9633e-05
0.00110815 4.01587e-05 5.39079e-07
4.01587e-05 0.000111024 8.75883e-07
5.39079e-07 8.75883e-07 3.31675e-05
0.000983366 2.8994e-05 2.62483e-07
2.8994e-05 4.44744e-05 1.4034e-06
2.62483e-07 1.4034e-06 -3.48052e-05
0.000987044 3.35609e-05 -1.80615e-07
3.35609e-05 5.12311e-05 4.59176e-08
-1.80615e-07 4.59176e-08 -2.98345e-05
0.00105806 4.3209e-05 1.31461e-07
4.3209e-05 8.59717e-05 5.07546e-08
1.31461e-07 5.07546e-08 3.59166e-06
0.00107566 4.73138e-05 -1.10748e-06
4.73138e-05 0.000106489 -1.4547e-06
-1.10748e-06 -1.4547e-06 1.91045e-05
0.000895068 4.0503e-05 -1.22955e-06
4.0503e-05 1.01637e-05 -2.26415e-06
-1.22955e-06 -2.26415e-06 -7.4023e-05
0.00105797 3.99065e-05 1.9091e-07
3.99065e-05 8.92555e-05 4.43474e-07
1.9091e-07 4.43474e-07 8.25908e-06
0.00122717 3.83791e-05 2.82145e-07
3.83791e-05 0.000174832 -3.81561e-08
2.82145e-07 -3.81561e-08 9.16537e-05
-0.00288046 -0.000106914 4.31337e-05
-0.000106914 -0.00154943 2.39867e-05
4.31337e-05 2.39867e-05 -0.00156406
0.0011165 -7.83292e-05 -3.88871e-07
-7.83292e-05 0.000241059 -4.95992e-07
-3.88871e-07 -4.95992e-07 0.000370009
0.000582128 1.2698e-05 1.04986e-05
1.2698e-05 -0.000117416 2.0006e-06
1.04986e-05 2.0006e-06 -0.000183984
-0.000316525 -0.000163248 7.06064e-08
-0.000163248 -0.00076238 -8.48877e-06
7.06064e-08 -8.48877e-06 -0.000416783
0.00390665 -0.000309785 -1.54279e-05
-0.000309785 0.00103346 -5.40489e-05
-1.54279e-05 -5.40489e-05 0.00116989
0.00513446 -8.70101e-05 3.76563e-05
-8.70101e-05 0.000802295 2.95538e-05
3.76563e-05 2.95538e-05 0.000293091
0.000688878 -4.75479e-05 -2.97296e-05
-4.75479e-05 -7.88695e-05 6.73805e-05
-2.97296e-05 6.73805e-05 -0.000620667
0.00197178 0.000114751 -3.6412e-05
0.000114751 0.000229666 -2.85211e-05
-3.6412e-05 -2.85211e-05 -0.000172413
0.00259329 -0.000270678 -1.23113e-06
-0.000270678 0.000782308 -1.3465e-06
-1.23113e-06 -1.3465e-06 0.000820814
0.00312822 -0.000102683 3.26604e-05
-0.000102683 0.000121996 4.43063e-05
3.26604e-05 4.43063e-05 -0.000628778
0.00149872 0.000137452 -7.19673e-05
0.000137452 -6.47922e-05 -8.60031e-05
-7.19673e-05 -8.60031e-05 -0.000487758
0.00313203 -1.46678e-05 -3.58461e-05
-1.46678e-05 0.000461065 -9.66565e-06
-3.58461e-05 -9.66565e-06 -0.00031873
0.00222993 0.000150023 7.52106e-06
0.000150023 0.000670747 -6.97606e-06
7.52106e-06 -6.97606e-06 0.000530334
0.000904557 6.99068e-05 -4.27908e-07
6.99068e-05 3.13659e-05 -4.70792e-07
-4.27908e-07 -4.70792e-07 -4.03192e-05
0.00133601 3.70542e-05 1.70265e-06
3.70542e-05 0.000219748 7.1442e-08
1.70265e-06 7.1442e-08 0.0001435
-0.000342792 -1.13377e-05 -1.25496e-05
-1.13377e-05 -0.000265203 -6.04157e-06
-1.25496e-05 -6.04157e-06 -0.000422849
0.00163057 5.52522e-05 2.1906e-06
5.52522e-05 0.000445959 -4.3343e-07
2.1906e-06 -4.3343e-07 0.000315376
0.000914912 0.000108378 5.94757e-06
0.000108378 0.000160382 1.77044e-06
5.94757e-06 1.77044e-06 2.07853e-05
5.35301e-05 0.000111704 2.11316e-05
0.000111704 -0.000395664 2.04089e-05
2.11316e-05 2.04089e-05 -0.000525101
-0.000881509 -2.20253e-05 7.16071e-05
-2.20253e-05 -0.000711049 -5.25751e-06
7.16071e-05 -5.25751e-06 -0.0006787
0.000715545 -1.18697e-05 -8.71306e-06
-1.18697e-05 7.65716e-05 4.55074e-07
-8.71306e-06 4.55074e-07 5.60804e-05
-0.000241939 -2.81799e-06 1.52898e-05
-2.81799e-06 -0.000546481 -1.00839e-06
1.52898e-05 -1.00839e-06 -0.000649594
0.00168429 -7.59129e-05 -2.83131e-05
-7.59129e-05 0.000476682 5.95553e-07
-2.83131e-05 5.95553e-07 0.000404427
0.0013321 -0.000112499 -3.83131e-05
-0.000112499 -0.000114447 -5.37221e-06
-3.83131e-05 -5.37221e-06 -0.000319674
0.00102987 1.59154e-05 -4.44552e-06
1.59154e-05 0.000216867 -2.19898e-06
-4.44552e-06 -2.19898e-06 0.000218667
0.00233359 0.00024264 1.43582e-05
0.00024264 0.00021288 -2.84556e-05
1.43582e-05 -2.84556e-05 -0.000706003
0.00412059 0.000191509 -9.65212e-05
0.000191509 0.00181932 2.30361e-05
-9.65212e-05 2.30361e-05 0.00175156
0.00159784 -0.00011983 1.20682e-05
-0.00011983 0.000159327 -8.70505e-07
1.20682e-05 -8.70505e-07 0.000180002
-0.00012946 8.90227e-05 -3.04569e-05
8.90227e-05 -0.000324717 3.16042e-06
-3.04569e-05 3.16042e-06 -0.000390563
0.00326693 0.000162803 -7.15684e-06
0.000162803 0.000651659 6.92988e-06
-7.15684e-06 6.92988e-06 -0.000190824
0.00115335 2.48323e-05 -7.27498e-06
2.48323e-05 -0.000287922 3.6311e-06
-7.27498e-06 3.6311e-06 -0.000342367
0.000274173 -8.31838e-05 3.17053e-07
-8.31838e-05 -0.000574912 5.97665e-06
3.17053e-07 5.97665e-06 -0.00049319
0.00479796 9.33534e-05 1.87473e-05
9.33534e-05 0.00136568 7.13861e-06
1.87473e-05 7.13861e-06 0.00069131
0.00153765 7.60816e-05 -1.68667e-06
7.60816e-05 0.000268407 -1.19434e-06
-1.68667e-06 -1.19434e-06 3.3829e-06
-0.000545941 -9.38319e-05 1.30457e-06
-9.38319e-05 -0.000701724 -6.85286e-06
1.30457e-06 -6.85286e-06 -0.000915679
0.00155152 -0.00015974 -2.22732e-07
-0.00015974 0.000138112 -5.15032e-07
-2.22732e-07 -5.15032e-07 5.64777e-06
0.00119697 -0.000139314 -1.62121e-05
-0.000139314 -0.00023989 8.87248e-06
-1.62121e-05 8.87248e-06 -0.000316159
0.0012281 -0.000111065 -1.85006e-06
-0.000111065 7.84141e-05 -3.06073e-06
-1.85006e-06 -3.06073e-06 -6.36773e-05
0.0014804 -0.000109479 -2.00982e-06
-0.000109479 6.39828e-05 6.87056e-07
-2.00982e-06 6.87056e-07 -2.64519e-05
0.00211029 -9.46756e-05 -6.50141e-06
-9.46756e-05 0.000281367 3.31466e-06
-6.50141e-06 3.31466e-06 0.00024154
0.00109328 -8.67519e-05 2.17627e-06
-8.67519e-05 1.11607e-06 -7.63262e-07
2.17627e-06 -7.63262e-07 -0.000111652
0.00140959 -8.09653e-05 -4.17302e-07
-8.09653e-05 6.08364e-05 -3.68712e-07
-4.17302e-07 -3.68712e-07 -1.60318e-05
0.00162024 -7.04121e-05 -1.123e-06
-7.04121e-05 8.99603e-05 -1.98808e-07
-1.123e-06 -1.98808e-07 4.66392e-05
0.00109306 -7.25911e-05 1.66369e-06
-7.25911e-05 -2.44176e-05 -5.50799e-08
1.66369e-06 -5.50799e-08 -0.0001249
0.00133185 -6.93455e-05 1.76277e-07
-6.93455e-05 3.20678e-05 2.61786e-07
1.76277e-07 2.61786e-07 -3.99779e-05
0.00135574 -6.21159e-05 -5.31323e-07
-6.21159e-05 1.30037e-05 -3.26695e-07
-5.31323e-07 -3.26695e-07 -3.95524e-05
0.00160574 -6.24638e-05 -5.2978e-07
-6.24638e-05 0.00017317 -3.0087e-07
-5.2978e-07 -3.0087e-07 0.000113259
0.00139452 -6.56978e-05 -6.62601e-07
-6.56978e-05 8.50801e-05 1.29559e-06
-6.62601e-07 1.29559e-06 1.57732e-05
0.00134823 -6.62344e-05 -7.58997e-07
-6.62344e-05 8.6023e-05 -1.98508e-06
-7.58997e-07 -1.98508e-06 1.0693e-05
0.00129085 -6.97154e-05 -1.59993e-06
-6.97154e-05 0.000106287 3.99649e-07
-1.59993e-06 3.99649e-07 1.95682e-05
0.00137196 -7.42113e-05 6.79922e-07
-7.42113e-05 0.000131771 -2.5024e-07
6.79922e-07 -2.5024e-07 4.06432e-05
0.00127569 -6.97651e-05 2.13223e-06
-6.97651e-05 6.06316e-05 1.35121e-06
2.13223e-06 1.35121e-06 -2.77022e-05
0.000869948 -5.85243e-05 -1.45586e-06
-5.85243e-05 -4.34601e-05 1.87127e-06
-1.45586e-06 1.87127e-06 -0.000126666
0.00108332 -6.67189e-05 9.78526e-08
-6.67189e-05 4.951e-05 -7.39316e-08
9.78526e-08 -7.39316e-08 -4.0841e-05
0.00137488 -7.70649e-05 2.28284e-06
-7.70649e-05 0.000178813 -2.26288e-06
2.28284e-06 -2.26288e-06 8.05688e-05
0.000994048 -4.66486e-05 -9.38614e-07
-4.66486e-05 5.23388e-05 4.81043e-07
-9.38614e-07 4.81043e-07 -1.85154e-05
0.00108403 -6.1829e-05 6.75325e-08
-6.1829e-05 8.79472e-05 -1.63385e-07
6.75325e-08 -1.63385e-07 8.97815e-06
0.000845127 -5.93016e-05 4.76104e-07
-5.93016e-05 -3.81297e-05 -2.20234e-06
4.76104e-07 -2.20234e-06 -0.000126514
0.000892066 -2.58546e-06 -2.54994e-06
-2.58546e-06 2.08607e-05 1.80352e-06
-2.54994e-06 1.80352e-06 -3.40476e-05
0.00102365 -4.13361e-05 -7.0701e-08
-4.13361e-05 7.21714e-05 1.08647e-08
-7.0701e-08 1.08647e-08 2.74249e-06
0.00109796 -5.85652e-05 4.91792e-07
-5.85652e-05 0.000102808 -3.73724e-07
4.91792e-07 -3.73724e-07 2.63398e-05
0.000746166 3.11801e-05 -4.03629e-06
3.11801e-05 -5.14826e-05 3.54871e-06
-4.03629e-06 3.54871e-06 -6.87315e-05
0.000898055 8.53097e-06 -1.61877e-08
8.53097e-06 1.78084e-05 1.69683e-08
-1.61877e-08 1.69683e-08 -3.32281e-05
0.00102861 -2.24248e-05 1.29481e-06
-2.24248e-05 7.77997e-05 -3.69578e-07
1.29481e-06 -3.69578e-07 8.93805e-06
0.00253153 4.25185e-05 -2.2206e-05
4.25185e-05 0.000854104 3.6459e-06
-2.2206e-05 3.6459e-06 0.000867289
0.000795557 2.82017e-05 -2.38096e-09
2.82017e-05 -3.49818e-05 -2.6851e-09
-2.38096e-09 -2.6851e-09 -4.91484e-05
0.000903315 3.26775e-06 2.4982e-06
3.26775e-06 1.28042e-05 -2.06848e-06
2.4982e-06 -2.06848e-06 -3.30969e-05
0.00174888 3.36165e-05 8.40499e-06
3.36165e-05 0.000449215 -1.01112e-06
8.40499e-06 -1.01112e-06 0.000460454
0.000825778 2.55726e-05 3.70937e-06
2.55726e-05 -2.61364e-05 -3.51486e-06
3.70937e-06 -3.51486e-06 -3.78855e-05
0.0024106 3.40618e-05 1.99163e-05
3.40618e-05 0.00078143 -3.85686e-06
1.99163e-05 -3.85686e-06 0.000797634
0.00106959 4.6328e-05 -4.7993e-07
4.6328e-05 9.44581e-05 3.66571e-07
-4.7993e-07 3.66571e-07 2.04093e-05
0.00102537 3.87433e-05 1.72381e-07
3.87433e-05 6.90333e-05 4.00215e-07
1.72381e-07 4.00215e-07 -5.33074e-06
0.000975433 -1.91491e-07 -1.16865e-06
-1.91491e-07 4.33381e-05 -1.18494e-06
-1.16865e-06 -1.18494e-06 -2.31095e-05
0.00102748 3.21005e-05 5.57681e-07
3.21005e-05 6.85766e-05 9.21101e-07
5.57681e-07 9.21101e-07 -4.59584e-06
0.000983911 -3.96109e-06 -2.57996e-08
-3.96109e-06 4.38459e-05 5.97886e-08
-2.57996e-08 5.97886e-08 -1.93803e-05
0.00088604 -1.24184e-05 -2.01471e-06
-1.24184e-05 -1.92463e-06 -2.52318e-06
-2.01471e-06 -2.52318e-06 -4.42046e-05
0.000837343 -2.24951e-05 -3.01299e-06
-2.24951e-05 -2.94526e-05 -3.67497e-06
-3.01299e-06 -3.67497e-06 -3.85506e-05
0.000896704 -1.64804e-05 -1.8525e-07
-1.64804e-05 -1.83369e-06 -4.92097e-08
-1.8525e-07 -4.92097e-08 -4.01902e-05
0.000974855 -8.07349e-06 3.70824e-07
-8.07349e-06 3.49303e-05 1.72306e-06
3.70824e-07 1.72306e-06 -2.41706e-05
0.00238734 -2.99905e-05 -1.81307e-05
-2.99905e-05 0.000760955 -3.94561e-06
-1.81307e-05 -3.94561e-06 0.000778848
0.000833692 -1.97625e-05 -1.58819e-07
-1.97625e-05 -3.58045e-05 9.73521e-09
-1.58819e-07 9.73521e-09 -4.30763e-05
0.000910223 -1.09418e-05 1.42378e-06
-1.09418e-05 1.68429e-06 2.14236e-06
1.42378e-06 2.14236e-06 -3.40135e-05
0.00236425 -2.61414e-05 -7.49219e-07
-2.61414e-05 0.000743451 5.26719e-08
-7.49219e-07 5.26719e-08 0.000762667
0.000825588 -1.75372e-05 1.71933e-06
-1.75372e-05 -4.38371e-05 3.4734e-06
1.71933e-06 3.4734e-06 -4.94089e-05
0.00230827 -2.19625e-05 1.25043e-05
-2.19625e-05 0.000709623 3.95606e-06
1.25043e-05 3.95606e-06 0.000730341
0.000251076 4.52995e-05 0.000101303
4.52995e-05 -0.000248356 1.024e-05
0.000101303 1.024e-05 -0.000443482
0.00154881 -3.52146e-05 3.97838e-06
-3.52146e-05 0.000577156 7.51257e-08
3.97838e-06 7.51257e-08 0.000579084
0.000541957 1.09769e-05 1.39178e-05
1.09769e-05 -4.89078e-05 2.58838e-06
1.39178e-05 2.58838e-06 -0.000133018
0.0010011 4.27198e-05 1.19145e-06
4.27198e-05 5.8045e-05 6.40755e-07
1.19145e-06 6.40755e-07 -2.1257e-05
0.00101596 4.75357e-05 6.0631e-07
4.75357e-05 6.65577e-05 7.89766e-08
6.0631e-07 7.89766e-08 -1.52074e-05
0.00108203 5.71372e-05 -5.18736e-08
5.71372e-05 0.000106565 -5.89808e-08
-5.18736e-08 -5.89808e-08 2.85937e-05
0.00114055 6.17161e-05 -4.04076e-07
6.17161e-05 0.000138837 1.02756e-07
-4.04076e-07 1.02756e-07 6.03345e-05
0.00109262 5.72445e-05 -1.7787e-06
5.72445e-05 0.000113037 -1.17759e-07
-1.7787e-06 -1.17759e-07 3.08006e-05
0.0010284 3.67728e-05 4.42584e-07
3.67728e-05 7.18689e-05 1.291e-06
4.42584e-07 1.291e-06 -9.27606e-06
0.00104591 4.69242e-05 1.15925e-06
4.69242e-05 8.06695e-05 1.09152e-06
1.15925e-06 1.09152e-06 -1.96536e-06
0.000964858 5.28028e-05 -4.36577e-07
5.28028e-05 5.32087e-05 -3.59723e-07
-4.36577e-07 -3.59723e-07 -3.43158e-05
0.000546368 4.66665e-05 -1.59025e-06
4.66665e-05 -0.000150806 2.95886e-07
-1.59025e-06 2.95886e-07 -0.000235049
0.00081568 5.42259e-05 -1.9239e-06
5.42259e-05 -2.3616e-05 -1.66835e-06
-1.9239e-06 -1.66835e-06 -0.000112747
0.00183105 0.00010266 5.32944e-07
0.00010266 0.000441398 -4.34801e-06
5.32944e-07 -4.34801e-06 0.000338988
0.00107797 4.5483e-05 -1.46296e-06
4.5483e-05 0.000110062 4.08052e-08
-1.46296e-06 4.08052e-08 2.40028e-05
0.0010481 3.65124e-05 6.57958e-07
3.65124e-05 8.78466e-05 1.00631e-06
6.57958e-07 1.00631e-06 4.71565e-06
0.00730633 -0.000100112 -7.77129e-06
-0.000100112 0.00200964 -1.14568e-05
-7.77129e-06 -1.14568e-05 0.00133505
-0.000159163 -0.000133861 5.87457e-06
-0.000133861 -0.000383619 5.1681e-06
5.87457e-06 5.1681e-06 -0.000466495
0.00210005 -8.70139e-05 -1.01701e-05
-8.70139e-05 0.000771333 -4.45029e-06
-1.01701e-05 -4.45029e-06 0.000900916
-0.00207699 -0.000164748 -3.07227e-05
-0.000164748 -0.00135338 -2.5721e-05
-3.07227e-05 -2.5721e-05 -0.00121153
0.00757785 -0.000239367 6.47116e-05
-0.000239367 0.00209514 4.63959e-05
6.47116e-05 4.63959e-05 0.00108721
0.00164138 9.72479e-05 3.27205e-05
9.72479e-05 0.000344668 1.09881e-05
3.27205e-05 1.09881e-05 0.000112774
0.00158727 0.000131884 -2.89648e-05
0.000131884 7.64949e-05 -2.48577e-05
-2.89648e-05 -2.48577e-05 -0.000242164
0.00520575 -0.000185785 2.52072e-05
-0.000185785 0.00130155 1.67447e-05
2.52072e-05 1.67447e-05 0.00064166
0.0013123 5.86396e-05 -3.98444e-05
5.86396e-05 -8.25616e-05 -4.87535e-05
-3.98444e-05 -4.87535e-05 -0.000384491
0.00223061 0.000178567 1.75556e-05
0.000178567 0.000467105 8.61289e-06
1.75556e-05 8.61289e-06 0.000308919
0.000915978 0.000101428 -2.34719e-07
0.000101428 7.27637e-05 -5.20845e-06
-2.34719e-07 -5.20845e-06 -7.76623e-05
0.000891153 5.55607e-05 7.88465e-07
5.55607e-05 1.35855e-05 2.69056e-06
7.88465e-07 2.69056e-06 -5.38715e-05
0.0020051 0.000143396 -2.12489e-05
0.000143396 0.00066114 -2.0493e-05
-2.12489e-05 -2.0493e-05 0.00053744
-1.6498e-05 0.000129416 -3.45862e-06
0.000129416 -0.000525162 1.68527e-05
-3.45862e-06 1.68527e-05 -0.000640841
0.000670202 3.3852e-05 -6.58733e-07
3.3852e-05 -0.000471106 -4.9828e-06
-6.58733e-07 -4.9828e-06 -0.00094716
0.00157162 5.36901e-06 4.47262e-07
5.36901e-06 0.000347824 3.21009e-06
4.47262e-07 3.21009e-06 0.000238992
-0.00110998 -6.78765e-06 -6.36381e-06
-6.78765e-06 -0.000980791 -3.13097e-07
-6.36381e-06 -3.13097e-07 -0.00102126
0.0025388 -0.00014096 -3.46921e-05
-0.00014096 0.000640519 -1.86021e-06
-3.46921e-05 -1.86021e-06 0.000637356
0.00150862 1.97597e-05 2.96497e-05
1.97597e-05 -0.000486463 -2.59876e-05
2.96497e-05 -2.59876e-05 -0.0006344
0.00026953 -1.90732e-06 -0.00011726
-1.90732e-06 -0.000268927 2.26847e-05
-0.00011726 2.26847e-05 -0.00046012
0.00554423 0.00027282 -2.04496e-05
0.00027282 0.00183673 6.41146e-06
-2.04496e-05 6.41146e-06 0.00101564
0.00116669 -0.000101113 1.51099e-06
-0.000101113 -0.000134326 -2.21786e-06
1.51099e-06 -2.21786e-06 -7.09177e-05
0.00481712 0.000165044 2.86932e-05
0.000165044 0.00139857 2.702e-06
2.86932e-05 2.702e-06 0.000801375
0.00213197 8.32072e-05 2.72514e-05
8.32072e-05 0.000170969 -7.73086e-06
2.72514e-05 -7.73086e-06 -0.000138734
0.00275656 -6.84794e-05 -7.78014e-06
-6.84794e-05 0.000514307 2.74193e-06
-7.78014e-06 2.74193e-06 0.000535966
0.00107702 6.88856e-05 -3.01077e-05
6.88856e-05 0.000265333 1.03873e-05
-3.01077e-05 1.03873e-05 2.45593e-05
0.00135432 -0.000150105 9.08352e-06
-0.000150105 6.59636e-05 -7.26625e-06
9.08352e-06 -7.26625e-06 -7.06964e-05
0.00171024 -0.000144211 -4.04284e-06
-0.000144211 1.51772e-05 1.49329e-06
-4.04284e-06 1.49329e-06 -5.57284e-05
0.00191781 -8.77489e-05 -1.32469e-05
-8.77489e-05 1.61986e-05 3.40693e-06
-1.32469e-05 3.40693e-06 -1.20467e-05
0.000821982 -9.62578e-05 4.9582e-06
-9.62578e-05 -0.000259154 -1.48182e-06
4.9582e-06 -1.48182e-06 -0.000346708
0.00147887 -8.4851e-05 2.16068e-06
-8.4851e-05 -1.63805e-05 1.12467e-06
2.16068e-06 1.12467e-06 -5.38094e-05
0.00165631 -5.84359e-05 -1.74525e-06
-5.84359e-05 2.73235e-05 4.48572e-06
-1.74525e-06 4.48572e-06 8.10664e-06
0.00110279 -7.48791e-05 1.67878e-06
-7.48791e-05 -9.71091e-05 1.48643e-06
1.67878e-06 1.48643e-06 -0.000172044
0.00145227 -6.88273e-05 1.5725e-08
-6.88273e-05 7.63115e-06 1.68443e-06
1.5725e-08 1.68443e-06 -3.63824e-05
0.0015205 -5.64606e-05 8.57807e-07
-5.64606e-05 3.29262e-05 2.67386e-06
8.57807e-07 2.67386e-06 -4.49454e-06
0.0012399 -6.73209e-05 2.41144e-06
-6.73209e-05 -1.56682e-05 2.17027e-06
2.41144e-06 2.17027e-06 -8.70846e-05
0.0014 -6.34103e-05 8.12889e-08
-6.34103e-05 3.61761e-05 1.03253e-06
8.12889e-08 1.03253e-06 -1.74371e-05
0.0014575 -5.6119e-05 6.83711e-08
-5.6119e-05 6.42964e-05 6.92849e-07
6.83711e-08 6.92849e-07 1.20989e-05
0.00141933 -6.00365e-05 -1.20504e-06
-6.00365e-05 8.22831e-05 1.02698e-06
-1.20504e-06 1.02698e-06 2.43485e-05
0.00157098 -6.16846e-05 8.92568e-07
-6.16846e-05 0.000171218 -1.10987e-06
8.92568e-07 -1.10987e-06 0.00010527
0.00139763 -6.43487e-05 1.5452e-06
-6.43487e-05 8.65086e-05 3.03486e-06
1.5452e-06 3.03486e-06 1.91308e-05
0.00136072 -6.59608e-05 8.68564e-08
-6.59608e-05 9.16967e-05 -4.56126e-07
8.68564e-08 -4.56126e-07 1.60627e-05
0.00134192 -6.41168e-05 -6.79579e-07
-6.41168e-05 9.69748e-05 -6.12965e-07
-6.79579e-07 -6.12965e-07 1.90032e-05
0.000977453 -5.95276e-05 -1.75976e-06
-5.95276e-05 -2.82083e-05 1.20986e-06
-1.75976e-06 1.20986e-06 -0.000110844
0.00128397 -6.91942e-05 3.92038e-08
-6.91942e-05 0.000103959 -1.53663e-07
3.92038e-08 -1.53663e-07 1.68039e-05
0.00143923 -7.51745e-05 2.12243e-06
-7.51745e-05 0.000166718 -3.3819e-07
2.12243e-06 -3.3819e-07 7.55597e-05
0.0010338 -5.33206e-05 -1.29826e-06
-5.33206e-05 5.62087e-05 1.14234e-06
-1.29826e-06 1.14234e-06 -1.74012e-05
0.000950108 -6.03027e-05 -3.90355e-07
-6.03027e-05 -1.24047e-06 4.50017e-07
-3.90355e-07 4.50017e-07 -8.39362e-05
0.0012976 -7.16197e-05 1.4082e-06
-7.16197e-05 0.000157117 -1.67255e-06
1.4082e-06 -1.67255e-06 6.77196e-05
0.000850416 -5.43505e-06 -2.31519e-06
-5.43505e-06 1.8817e-06 1.5304e-06
-2.31519e-06 1.5304e-06 -5.58769e-05
0.00103786 -4.82702e-05 -2.18471e-08
-4.82702e-05 7.26495e-05 -1.13454e-07
-2.18471e-08 -1.13454e-07 1.72073e-06
0.00112202 -6.24052e-05 5.87768e-07
-6.24052e-05 0.000105768 -1.19691e-06
5.87768e-07 -1.19691e-06 2.66881e-05
0.000704249 3.45555e-05 -3.92419e-06
3.45555e-05 -6.37555e-05 3.63926e-06
-3.92419e-06 3.63926e-06 -8.50141e-05
0.000902763 -4.40667e-06 -3.02475e-09
-4.40667e-06 2.41039e-05 1.03775e-07
-3.02475e-09 1.03775e-07 -3.04593e-05
0.00105137 -4.24154e-05 1.22333e-06
-4.24154e-05 8.48366e-05 -2.87634e-07
1.22333e-06 -2.87634e-07 1.55185e-05
0.0025885 4.71571e-05 -2.30362e-05
4.71571e-05 0.000890219 3.51554e-06
-2.30362e-05 3.51554e-06 0.000901538
0.000775433 3.2364e-05 -2.11202e-08
3.2364e-05 -3.58483e-05 -3.73631e-08
-2.11202e-08 -3.73631e-08 -5.34692e-05
0.00089626 -2.84252e-06 2.52817e-06
-2.84252e-06 1.50046e-05 -1.79002e-06
2.52817e-06 -1.79002e-06 -3.54573e-05
0.00251988 4.25887e-05 2.21442e-07
4.25887e-05 0.000849117 7.13694e-08
2.21442e-07 7.13694e-08 0.000862128
0.000816413 2.91412e-05 3.86814e-06
2.91412e-05 -2.38125e-05 -3.53717e-06
3.86814e-06 -3.53717e-06 -3.82802e-05
0.00246657 3.82797e-05 2.1418e-05
3.82797e-05 0.000816191 -3.76743e-06
2.1418e-05 -3.76743e-06 0.00083071
0.00106242 5.10767e-05 -6.70911e-07
5.10767e-05 9.58727e-05 -3.07299e-08
-6.70911e-07 -3.07299e-08 1.98422e-05
0.00103436 4.60498e-05 2.80695e-07
4.60498e-05 7.78028e-05 1.46487e-07
2.80695e-07 1.46487e-07 3.72697e-06
0.000909918 1.32908e-06 -1.52228e-06
1.32908e-06 1.28179e-05 -7.12208e-07
-1.52228e-06 -7.12208e-07 -5.55824e-05
0.000970531 3.19933e-05 1.20831e-06
3.19933e-05 4.0112e-05 1.07137e-06
1.20831e-06 1.07137e-06 -3.42515e-05
0.000949958 -1.04704e-06 -8.52349e-08
-1.04704e-06 3.04358e-05 1.99761e-07
-8.52349e-08 1.99761e-07 -3.63483e-05
0.000888913 -6.93701e-06 -2.41557e-06
-6.93701e-06 2.9203e-06 -2.22969e-06
-2.41557e-06 -2.22969e-06 -4.38244e-05
0.000977996 -4.49118e-06 7.79159e-07
-4.49118e-06 4.11797e-05 1.71679e-06
7.79159e-07 1.71679e-06 -2.2102e-05
0.000894336 -1.21814e-05 -1.14765e-07
-1.21814e-05 1.59415e-06 -6.20455e-08
-1.14765e-07 -6.20455e-08 -4.05629e-05
0.000826838 -2.56655e-05 -3.45968e-06
-2.56655e-05 -2.83131e-05 -3.79206e-06
-3.45968e-06 -3.79206e-06 -4.00241e-05
0.00241579 -3.39424e-05 -1.98179e-05
-3.39424e-05 0.000781302 -3.89403e-06
-1.98179e-05 -3.89403e-06 0.000797838
0.000825308 -2.20915e-05 -7.96056e-08
-2.20915e-05 -3.53936e-05 -1.19191e-08
-7.96056e-08 -1.19191e-08 -4.43874e-05
0.000902516 -1.5074e-05 1.35697e-06
-1.5074e-05 5.19459e-07 2.37577e-06
1.35697e-06 2.37577e-06 -3.76538e-05
0.00240274 -3.01289e-05 -6.40688e-07
-3.01289e-05 0.000768168 6.30342e-08
-6.40688e-07 6.30342e-08 0.000786119
0.000819965 -1.95695e-05 2.21393e-06
-1.95695e-05 -4.25267e-05 3.55795e-06
2.21393e-06 3.55795e-06 -4.97388e-05
0.00236728 -2.61959e-05 1.49268e-05
-2.61959e-05 0.00074446 3.95933e-06
1.49268e-05 3.95933e-06 0.000763795
0.00556666 3.57998e-06 2.69771e-05
3.57998e-06 0.00164274 -4.86399e-07
2.69771e-05 -4.86399e-07 0.00111159
-0.000670565 -2.84173e-05 1.42251e-05
-2.84173e-05 -0.00044773 1.00767e-06
1.42251e-05 1.00767e-06 -0.000470256
0.000278347 -2.37091e-05 1.12623e-06
-2.37091e-05 -0.000182902 1.86261e-08
1.12623e-06 1.86261e-08 -0.000197516
0.00100761 4.13461e-05 1.55623e-06
4.13461e-05 6.37742e-05 5.12082e-07
1.55623e-06 5.12082e-07 -1.8072e-05
0.00100227 5.51313e-05 7.59218e-07
5.51313e-05 6.8482e-05 7.85909e-08
7.59218e-07 7.85909e-08 -9.0407e-06
0.00113265 5.8483e-05 1.56332e-07
5.8483e-05 0.00013307 -4.57125e-08
1.56332e-07 -4.57125e-08 5.09687e-05
0.00109209 6.05849e-05 -3.17501e-07
6.05849e-05 0.000114872 -1.82526e-07
-3.17501e-07 -1.82526e-07 3.63615e-05
0.00112064 6.27797e-05 1.94246e-06
6.27797e-05 0.000132182 7.01112e-07
1.94246e-06 7.01112e-07 5.10001e-05
0.000831852 5.41179e-05 -1.82933e-06
5.41179e-05 -8.3721e-06 5.6591e-07
-1.82933e-06 5.6591e-07 -8.90885e-05
0.00083618 4.86048e-05 1.20863e-06
4.86048e-05 -1.081e-05 1.01149e-06
1.20863e-06 1.01149e-06 -9.75567e-05
0.000799586 5.35392e-05 6.5211e-07
5.35392e-05 -2.56331e-05 -1.33637e-07
6.5211e-07 -1.33637e-07 -0.000111492
0.000850637 5.30312e-05 8.26376e-07
5.30312e-05 1.9452e-06 1.11098e-07
8.26376e-07 1.11098e-07 -8.83471e-05
0.00048409 5.50151e-05 -3.61987e-07
5.50151e-05 -0.000199556 -3.13509e-08
-3.61987e-07 -3.13509e-08 -0.000285302
0.00261236 0.000121251 -4.02302e-08
0.000121251 0.000805636 -1.02136e-06
-4.02302e-08 -1.02136e-06 0.000709905
0.00181771 0.000119589 5.42368e-07
0.000119589 0.000315712 -4.20724e-06
5.42368e-07 -4.20724e-06 0.000198046
0.00123101 8.77376e-05 7.88971e-07
8.77376e-05 0.000151486 1.23478e-07
7.88971e-07 1.23478e-07 5.15404e-05
0.00123024 4.80171e-05 -8.50183e-07
4.80171e-05 0.000195298 1.26406e-06
-8.50183e-07 1.26406e-06 0.000107485
0.000972667 -4.66962e-05 -1.71883e-05
-4.66962e-05 -0.000224661 -1.91529e-05
-1.71883e-05 -1.91529e-05 -0.000351033
0.00375299 -9.3738e-05 -1.01603e-05
-9.3738e-05 0.000697949 -2.46999e-06
-1.01603e-05 -2.46999e-06 0.000141775
0.0028595 -0.000187158 -3.81575e-05
-0.000187158 0.00116911 -1.48312e-05
-3.81575e-05 -1.48312e-05 0.00109048
0.00413719 -0.000106597 9.9175e-05
-0.000106597 0.000842822 3.65649e-05
9.9175e-05 3.65649e-05 8.63177e-05
0.00287425 0.000158686 2.41552e-05
0.000158686 0.00078338 4.51232e-05
2.41552e-05 4.51232e-05 0.000605084
0.00105838 3.57238e-05 -1.65478e-05
3.57238e-05 -6.70334e-05 -4.80175e-06
-1.65478e-05 -4.80175e-06 -0.000204173
0.0011567 7.23026e-05 2.03773e-05
7.23026e-05 -0.000166385 1.20436e-05
2.03773e-05 1.20436e-05 -0.000225174
0.00195443 0.000178037 2.49332e-07
0.000178037 0.000330816 8.11975e-06
2.49332e-07 8.11975e-06 0.000192125
0.000255661 7.57432e-05 -1.50781e-06
7.57432e-05 -0.000238663 5.41279e-06
-1.50781e-06 5.41279e-06 -0.000386466
0.00212579 0.000203929 -5.77604e-05
0.000203929 0.00033562 -7.17304e-05
-5.77604e-05 -7.17304e-05 0.000268569
0.00205548 2.47329e-06 -0.000112411
2.47329e-06 0.000501241 -6.30734e-06
-0.000112411 -6.30734e-06 0.000217125
0.00533945 4.68554e-05 1.10111e-05
4.68554e-05 0.00173104 -1.02794e-06
1.10111e-05 -1.02794e-06 0.0012199
-0.00295325 -2.18017e-05 -6.82568e-05
-2.18017e-05 -0.00188576 5.44434e-06
-6.82568e-05 5.44434e-06 -0.00187417
0.00235616 -0.000119187 -2.43521e-06
-0.000119187 0.00045474 -2.7573e-06
-2.43521e-06 -2.7573e-06 0.000494337
0.00103285 8.3776e-05 3.56118e-05
8.3776e-05 -0.000270929 -9.36606e-06
3.56118e-05 -9.36606e-06 -0.000440156
0.000492319 -4.27378e-06 2.35228e-05
-4.27378e-06 -0.000419396 -2.61682e-06
2.35228e-05 -2.61682e-06 -0.000927218
0.00173628 -7.35989e-05 8.08657e-07
-7.35989e-05 -2.39188e-06 2.91362e-06
8.08657e-07 2.91362e-06 3.38993e-05
0.00132214 9.48399e-05 2.63696e-06
9.48399e-05 0.0002029 -5.2781e-06
2.63696e-06 -5.2781e-06 -5.95668e-07
0.00271038 -5.5758e-06 1.73425e-07
-5.5758e-06 0.000407309 -1.29595e-05
1.73425e-07 -1.29595e-05 0.000395665
0.00092537 6.02834e-05 3.96194e-06
6.02834e-05 -0.000205081 -2.14419e-06
3.96194e-06 -2.14419e-06 -0.000277306
0.00254419 -0.000153675 8.40555e-06
-0.000153675 0.00042917 -3.24634e-06
8.40555e-06 -3.24634e-06 0.000360487
0.00206304 -8.96701e-05 2.11753e-06
-8.96701e-05 8.80213e-05 -9.50303e-07
2.11753e-06 -9.50303e-07 6.27349e-05
0.00201443 -1.77881e-05 -2.6622e-06
-1.77881e-05 0.00016507 2.90841e-06
-2.6622e-06 2.90841e-06 0.000136285
0.000902303 -7.67603e-05 9.02554e-06
-7.67603e-05 -0.0002896 -1.48155e-06
9.02554e-06 -1.48155e-06 -0.000325482
0.00170195 -5.95157e-05 2.45691e-06
-5.95157e-05 6.0716e-05 -2.41467e-08
2.45691e-06 -2.41467e-08 3.89883e-05
0.00172181 -3.3764e-05 -4.93095e-07
-3.3764e-05 9.03292e-05 3.23528e-06
-4.93095e-07 3.23528e-06 4.81322e-05
0.00132603 -6.77041e-05 3.48483e-06
-6.77041e-05 -5.3313e-05 1.62471e-06
3.48483e-06 1.62471e-06 -9.82762e-05
0.00152221 -5.69391e-05 7.84683e-07
-5.69391e-05 4.12375e-05 7.90119e-07
7.84683e-07 7.90119e-07 1.79468e-06
0.00162695 -4.57567e-05 -3.44936e-07
-4.57567e-05 0.000103305 1.80977e-06
-3.44936e-07 1.80977e-06 4.9875e-05
0.00145583 -6.4765e-05 1.1469e-06
-6.4765e-05 6.51335e-05 1.82133e-06
1.1469e-06 1.82133e-06 1.04193e-05
0.0013952 -5.7081e-05 -1.02278e-07
-5.7081e-05 3.96713e-05 -2.82999e-08
-1.02278e-07 -2.82999e-08 -1.29779e-05
0.00139521 -5.42817e-05 1.41742e-06
-5.42817e-05 5.85526e-05 6.3727e-07
1.41742e-06 6.3727e-07 -6.02908e-06
0.00125232 -5.78498e-05 -2.19973e-07
-5.78498e-05 1.00106e-06 2.0638e-06
-2.19973e-07 2.0638e-06 -5.49995e-05
0.00143236 -5.89372e-05 -8.36661e-07
-5.89372e-05 0.000102081 -5.80762e-07
-8.36661e-07 -5.80762e-07 3.7449e-05
0.00153577 -6.03569e-05 2.07141e-07
-6.03569e-05 0.000168209 -4.00564e-07
2.07141e-07 -4.00564e-07 9.5548e-05
0.00137165 -6.56641e-05 9.43339e-07
-6.56641e-05 9.65044e-05 9.56213e-07
9.43339e-07 9.56213e-07 2.05807e-05
0.00134218 -6.37206e-05 1.55648e-07
-6.37206e-05 9.74443e-05 -3.2317e-07
1.55648e-07 -3.2317e-07 1.9114e-05
0.00136892 -6.22742e-05 -9.08113e-07
-6.22742e-05 0.000130934 1.50164e-07
-9.08113e-07 1.50164e-07 5.34073e-05
0.000847077 -5.00151e-05 -2.27449e-06
-5.00151e-05 -6.60892e-05 1.51128e-06
-2.27449e-06 1.51128e-06 -0.000141531
0.00106289 -6.12119e-05 -3.20543e-07
-6.12119e-05 1.72789e-05 2.66716e-07
-3.20543e-07 2.66716e-07 -6.50062e-05
0.00127744 -6.86822e-05 1.44152e-06
-6.86822e-05 0.000101831 -9.10417e-07
1.44152e-06 -9.10417e-07 1.42355e-05
0.000863086 -1.84462e-05 -2.24306e-06
-1.84462e-05 2.77364e-06 1.65217e-06
-2.24306e-06 1.65217e-06 -5.76581e-05
0.00105758 -5.348e-05 7.3202e-08
-5.348e-05 6.74321e-05 1.36735e-08
7.3202e-08 1.36735e-08 -6.19025e-06
0.00104908 -6.25872e-05 4.84162e-07
-6.25872e-05 5.00537e-05 -8.56252e-07
4.84162e-07 -8.56252e-07 -3.21383e-05
0.000676931 3.73188e-05 -3.86479e-06
3.73188e-05 -6.84441e-05 3.53468e-06
-3.86479e-06 3.53468e-06 -9.43416e-05
0.000894034 -1.00714e-05 -1.25924e-07
-1.00714e-05 2.1409e-05 3.81978e-08
-1.25924e-07 3.81978e-08 -3.61094e-05
0.00108117 -4.97578e-05 1.24271e-06
-4.97578e-05 9.27689e-05 -8.55526e-07
1.24271e-06 -8.55526e-07 2.17628e-05
0.00268057 5.19652e-05 -2.41894e-05
5.19652e-05 0.000943976 3.41239e-06
-2.41894e-05 3.41239e-06 0.000953109
0.000750922 3.58534e-05 1.294e-07
3.58534e-05 -3.96228e-05 8.57494e-09
1.294e-07 8.57494e-09 -6.12303e-05
0.000908566 -6.19245e-06 2.62299e-06
-6.19245e-06 2.49838e-05 -1.50678e-06
2.62299e-06 -1.50678e-06 -2.92379e-05
0.00258444 4.71631e-05 2.1334e-07
4.71631e-05 0.000889006 7.60966e-08
2.1334e-07 7.60966e-08 0.000900077
0.000805451 3.34012e-05 3.65265e-06
3.34012e-05 -2.00223e-05 -3.56912e-06
3.65265e-06 -3.56912e-06 -3.79853e-05
0.00250885 4.25788e-05 2.25004e-05
4.25788e-05 0.000844413 -3.64299e-06
2.25004e-05 -3.64299e-06 0.000857259
0.00107081 5.62496e-05 -9.04851e-07
5.62496e-05 0.000101468 -6.41993e-07
-9.04851e-07 -6.41993e-07 2.30708e-05
0.00111678 5.28755e-05 1.46207e-07
5.28755e-05 0.00012274 1.05854e-07
1.46207e-07 1.05854e-07 4.70179e-05
0.000958709 2.10118e-05 -1.48847e-06
2.10118e-05 4.29177e-05 -5.32485e-07
-1.48847e-06 -5.32485e-07 -2.69641e-05
0.00100034 4.58019e-05 8.94533e-07
4.58019e-05 6.17367e-05 2.14197e-07
8.94533e-07 2.14197e-07 -1.23673e-05
0.000918107 3.91684e-06 -3.75512e-07
3.91684e-06 1.77556e-05 -3.49814e-08
-3.75512e-07 -3.49814e-08 -5.07994e-05
0.00088912 -3.75264e-07 -2.64534e-06
-3.75264e-07 7.59274e-06 -1.80779e-06
-2.64534e-06 -1.80779e-06 -4.35726e-05
0.000925223 -5.62161e-06 9.80908e-07
-5.62161e-06 1.81387e-05 1.37998e-06
9.80908e-07 1.37998e-06 -4.92544e-05
0.000891472 -8.167e-06 -5.58034e-08
-8.167e-06 4.41506e-06 -1.60167e-08
-5.58034e-08 -1.60167e-08 -4.23804e-05
0.000810274 -2.96805e-05 -3.72635e-06
-2.96805e-05 -2.93459e-05 -3.75848e-06
-3.72635e-06 -3.75848e-06 -4.43187e-05
0.000902741 -1.24436e-05 1.81809e-06
-1.24436e-05 5.21183e-06 2.59968e-06
1.81809e-06 2.59968e-06 -3.68311e-05
0.000810856 -2.49451e-05 -1.00325e-07
-2.49451e-05 -3.67446e-05 -2.12198e-08
-1.00325e-07 -2.12198e-08 -4.82074e-05
0.00247274 -3.81581e-05 -2.14024e-05
-3.81581e-05 0.000816741 -3.8361e-06
-2.14024e-05 -3.8361e-06 0.000831542
0.00243414 -3.41011e-05 -4.39945e-07
-3.41011e-05 0.000789815 6.33769e-08
-4.39945e-07 6.33769e-08 0.000806442
0.000813313 -2.17068e-05 2.80821e-06
-2.17068e-05 -4.13852e-05 3.61861e-06
2.80821e-06 3.61861e-06 -5.02647e-05
0.00241372 -3.02761e-05 1.71163e-05
-3.02761e-05 0.0007732 3.92177e-06
1.71163e-05 3.92177e-06 0.000791216
0.000715671 -2.63514e-05 -5.22911e-05
-2.63514e-05 -0.000189972 -8.5332e-06
-5.22911e-05 -8.5332e-06 -0.000343466
0.00164876 -4.35369e-05 -1.03586e-05
-4.35369e-05 -7.36525e-05 -5.40262e-06
-1.03586e-05 -5.40262e-06 -0.000579535
0.00322542 -0.000147248 -3.97735e-05
-0.000147248 0.00121027 -3.94245e-06
-3.97735e-05 -3.94245e-06 0.00113228
0.00118759 6.76875e-05 2.57803e-06
6.76875e-05 0.000141577 5.86432e-07
2.57803e-06 5.86432e-07 5.81537e-05
0.00115102 5.91177e-05 1.36428e-06
5.91177e-05 0.000143012 -5.31414e-08
1.36428e-06 -5.31414e-08 6.10669e-05
0.00102997 5.8966e-05 5.59173e-07
5.8966e-05 8.41187e-05 -6.61605e-08
5.59173e-07 -6.61605e-08 5.64489e-06
0.00100572 5.92145e-05 -1.49668e-09
5.92145e-05 7.78648e-05 1.28255e-07
-1.49668e-09 1.28255e-07 -3.38331e-06
0.00106147 6.15339e-05 -1.10129e-07
6.15339e-05 0.000104654 -3.11055e-07
-1.10129e-07 -3.11055e-07 2.30063e-05
0.000741052 5.70224e-05 -1.63402e-06
5.70224e-05 -5.96603e-05 7.12539e-07
-1.63402e-06 7.12539e-07 -0.000135926
0.001136 6.31607e-05 2.56515e-06
6.31607e-05 0.000141749 -8.21165e-07
2.56515e-06 -8.21165e-07 5.39458e-05
0.00110912 5.64818e-05 1.32468e-06
5.64818e-05 0.000135096 1.089e-06
1.32468e-06 1.089e-06 4.36098e-05
0.00103028 7.02572e-05 -1.03015e-07
7.02572e-05 6.72195e-05 -1.1616e-07
-1.03015e-07 -1.1616e-07 -1.78092e-05
0.00192936 0.000103345 2.14322e-07
0.000103345 0.000482733 1.00495e-06
2.14322e-07 1.00495e-06 0.000389687
0.00152692 0.000100416 4.11556e-07
0.000100416 0.000180015 -1.74484e-06
4.11556e-07 -1.74484e-06 7.7384e-05
0.00181558 0.000100936 -4.77954e-06
0.000100936 0.000140466 -2.27804e-06
-4.77954e-06 -2.27804e-06 2.59427e-05
0.00133004 0.000106091 2.86517e-06
0.000106091 6.72862e-05 8.3893e-07
2.86517e-06 8.3893e-07 -4.93722e-05
0.000738258 7.34576e-05 -5.4375e-07
7.34576e-05 -9.37156e-05 4.47822e-06
-5.4375e-07 4.47822e-06 -0.000190995
0.00151468 -2.02828e-05 -4.0022e-06
-2.02828e-05 -8.29707e-05 4.54053e-06
-4.0022e-06 4.54053e-06 -0.000112662
0.00200394 -3.95262e-05 -2.54704e-07
-3.95262e-05 6.44996e-05 7.53075e-07
-2.54704e-07 7.53075e-07 -0.00010736
0.00090187 -0.000104404 -2.00467e-05
-0.000104404 -0.000469134 -6.32627e-06
-2.00467e-05 -6.32627e-06 -0.000942366
0.00236367 0.000103218 2.14611e-05
0.000103218 0.000120765 2.12543e-05
2.14611e-05 2.12543e-05 -0.00011345
0.00138015 7.52581e-05 2.40252e-06
7.52581e-05 -0.000108655 1.56587e-06
2.40252e-06 1.56587e-06 -0.00016709
0.000150052 0.00013011 -8.70236e-06
0.00013011 -0.000495837 -7.73346e-06
-8.70236e-06 -7.73346e-06 -0.00063658
0.00235066 -6.93654e-06 7.98022e-06
-6.93654e-06 0.000580241 -5.49147e-06
7.98022e-06 -5.49147e-06 0.000510832
0.000735209 1.27787e-06 -2.25151e-05
1.27787e-06 4.09064e-05 1.46767e-06
-2.25151e-05 1.46767e-06 -0.000165156
0.00124464 0.000130316 5.17451e-05
0.000130316 -0.000308129 -1.46756e-06
5.17451e-05 -1.46756e-06 -0.000779597
0.000722122 -7.98635e-05 -2.0597e-06
-7.98635e-05 -0.000519677 7.57309e-06
-2.0597e-06 7.57309e-06 -0.000470721
0.00157485 0.000108366 4.29761e-05
0.000108366 0.000112969 -1.65193e-05
4.29761e-05 -1.65193e-05 -0.000123956
0.00203266 -8.57187e-06 5.80414e-06
-8.57187e-06 4.86173e-05 -1.62613e-06
5.80414e-06 -1.62613e-06 3.11818e-05
0.00137225 6.9819e-05 2.74572e-07
6.9819e-05 2.22835e-05 -3.65575e-06
2.74572e-07 -3.65575e-06 -4.90518e-05
0.00121621 4.4094e-05 -6.09697e-06
4.4094e-05 -0.000254225 -3.72251e-07
-6.09697e-06 -3.72251e-07 -0.000326245
0.000910796 4.237e-05 -5.23943e-06
4.237e-05 -0.000315864 -3.77044e-06
-5.23943e-06 -3.77044e-06 -0.000405283
0.00198386 -8.85636e-05 1.26688e-05
-8.85636e-05 4.90962e-05 -3.14493e-06
1.26688e-05 -3.14493e-06 2.9468e-05
0.00186422 -2.02658e-05 3.46054e-06
-2.02658e-05 9.49329e-05 5.9409e-07
3.46054e-06 5.9409e-07 6.09322e-05
0.00186614 9.90182e-06 -1.8446e-06
9.90182e-06 0.000176012 9.00034e-07
-1.8446e-06 9.00034e-07 0.000110184
0.00172718 -6.097e-05 1.75583e-06
-6.097e-05 8.3536e-05 -1.21838e-06
1.75583e-06 -1.21838e-06 5.88182e-05
0.00173622 -3.49596e-05 -1.26415e-07
-3.49596e-05 0.000100419 -2.14224e-07
-1.26415e-07 -2.14224e-07 5.62528e-05
0.00174438 -2.11483e-05 -7.50805e-07
-2.11483e-05 0.000138138 1.94897e-06
-7.50805e-07 1.94897e-06 7.3111e-05
0.0015161 -5.72668e-05 1.74211e-07
-5.72668e-05 4.55562e-05 -5.21945e-07
1.74211e-07 -5.21945e-07 4.12922e-06
0.00156841 -4.72828e-05 -8.60152e-07
-4.72828e-05 8.44508e-05 -9.8877e-07
-8.60152e-07 -9.8877e-07 3.14733e-05
0.00142726 -4.37676e-05 1.19463e-07
-4.37676e-05 3.68192e-05 2.11094e-06
1.19463e-07 2.11094e-06 -3.31902e-05
0.00132474 -5.78868e-05 -8.25483e-07
-5.78868e-05 1.08876e-05 -1.17839e-06
-8.25483e-07 -1.17839e-06 -4.21705e-05
0.00137592 -5.37664e-05 1.68047e-07
-5.37664e-05 4.99453e-05 -5.93966e-07
1.68047e-07 -5.93966e-07 -1.46709e-05
0.00137276 -5.43067e-05 3.45234e-07
-5.43067e-05 6.43537e-05 5.25373e-07
3.45234e-07 5.25373e-07 -8.98635e-06
0.00129145 -5.62225e-05 -1.50165e-06
-5.62225e-05 3.17742e-05 8.12179e-07
-1.50165e-06 8.12179e-07 -3.15352e-05
0.00140443 -5.72546e-05 -2.49299e-07
-5.72546e-05 0.000102216 -3.78906e-07
-2.49299e-07 -3.78906e-07 3.03551e-05
0.00132856 -5.50024e-05 -7.37987e-07
-5.50024e-05 8.49917e-05 1.19372e-07
-7.37987e-07 1.19372e-07 9.5938e-06
0.00134213 -6.33216e-05 9.9613e-07
-6.33216e-05 9.77243e-05 -1.60969e-08
9.9613e-07 -1.60969e-08 1.90405e-05
0.00122678 -5.9253e-05 2.31758e-07
-5.9253e-05 6.0883e-05 -1.82232e-07
2.31758e-07 -1.82232e-07 -1.71494e-05
0.00121641 -5.45144e-05 -1.91967e-06
-5.45144e-05 8.54126e-05 9.56175e-07
-1.91967e-06 9.56175e-07 1.12899e-05
0.000921587 -3.06463e-05 -2.71249e-06
-3.06463e-05 1.37842e-05 1.68212e-06
-2.71249e-06 1.68212e-06 -4.87341e-05
0.000942841 -5.19692e-05 -5.30703e-07
-5.19692e-05 -1.63125e-05 3.61823e-07
-5.30703e-07 3.61823e-07 -9.12661e-05
0.00113223 -6.24352e-05 9.61297e-07
-6.24352e-05 5.49966e-05 -7.28985e-07
9.61297e-07 -7.28985e-07 -2.69304e-05
0.000680936 2.59847e-05 -4.02296e-06
2.59847e-05 -5.97743e-05 3.57487e-06
-4.02296e-06 3.57487e-06 -9.04154e-05
0.000906931 -2.05014e-05 4.60372e-08
-2.05014e-05 2.37767e-05 6.57073e-08
4.60372e-08 6.57073e-08 -3.68558e-05
0.00108353 -5.38005e-05 1.51912e-06
-5.38005e-05 7.96856e-05 -1.14324e-06
1.51912e-06 -1.14324e-06 6.0436e-06
0.00275892 5.63412e-05 -2.56801e-05
5.63412e-05 0.000992317 3.31359e-06
-2.56801e-05 3.31359e-06 0.000998955
0.000741781 3.46588e-05 5.1437e-08
3.46588e-05 -3.71221e-05 -6.00711e-08
5.1437e-08 -6.00711e-08 -6.28812e-05
0.000934344 -1.28941e-05 2.54718e-06
-1.28941e-05 3.9524e-05 -1.62951e-06
2.54718e-06 -1.62951e-06 -1.79115e-05
0.00265977 5.15282e-05 3.34881e-07
5.15282e-05 0.000934707 9.72582e-08
3.34881e-07 9.72582e-08 0.000943573
0.000793735 3.70266e-05 3.72634e-06
3.70266e-05 -1.74732e-05 -3.45539e-06
3.72634e-06 -3.45539e-06 -3.94024e-05
0.00257475 4.69474e-05 2.38017e-05
4.69474e-05 0.000884983 -3.58716e-06
2.38017e-05 -3.58716e-06 0.000895834
0.000937188 5.77979e-05 -8.30965e-07
5.77979e-05 2.28376e-05 -7.54854e-07
-8.30965e-07 -7.54854e-07 -5.83642e-05
0.00103706 5.51671e-05 -3.93745e-08
5.51671e-05 8.43386e-05 -2.62026e-07
-3.93745e-08 -2.62026e-07 6.18486e-06
0.00106455 4.16185e-05 -1.297e-06
4.16185e-05 9.55692e-05 -4.66551e-07
-1.297e-06 -4.66551e-07 2.39674e-05
0.0011754 5.49278e-05 6.95807e-07
5.49278e-05 0.000151674 -9.23018e-08
6.95807e-07 -9.23018e-08 7.62434e-05
0.000986062 2.4592e-05 -3.78041e-07
2.4592e-05 5.70863e-05 -1.41436e-07
-3.78041e-07 -1.41436e-07 -1.24663e-05
0.000898316 2.9393e-06 -2.55585e-06
2.9393e-06 2.01759e-05 -1.60888e-06
-2.55585e-06 -1.60888e-06 -3.50599e-05
0.000925488 1.04078e-05 8.63611e-07
1.04078e-05 2.19743e-05 4.28921e-07
8.63611e-07 4.28921e-07 -4.64301e-05
0.000891664 -5.56937e-06 1.58847e-09
-5.56937e-06 1.00795e-05 4.71837e-08
1.58847e-09 4.71837e-08 -4.12075e-05
0.000790552 -3.42958e-05 -3.68954e-06
-3.42958e-05 -2.9969e-05 -3.6198e-06
-3.68954e-06 -3.6198e-06 -4.85837e-05
0.000894436 -1.01705e-05 2.25893e-06
-1.01705e-05 6.17785e-06 2.51549e-06
2.25893e-06 2.51549e-06 -4.06481e-05
0.000793228 -2.86161e-05 -8.08808e-08
-2.86161e-05 -3.87129e-05 -3.46044e-10
-8.08808e-08 -3.46044e-10 -5.33441e-05
0.00253491 -4.26118e-05 -2.26906e-05
-4.26118e-05 0.00085532 -3.71435e-06
-2.26906e-05 -3.71435e-06 0.000868197
0.000798789 -2.43279e-05 3.29688e-06
-2.43279e-05 -4.32616e-05 3.73868e-06
3.29688e-06 3.73868e-06 -5.44792e-05
0.00248198 -3.82389e-05 -3.59692e-07
-3.82389e-05 0.000820454 6.76367e-08
-3.59692e-07 6.76367e-08 0.000835464
0.00245155 -3.4223e-05 1.91274e-05
-3.4223e-05 0.000797973 3.8577e-06
1.91274e-05 3.8577e-06 0.000814678
0.00124134 -4.63976e-05 -2.59508e-06
-4.63976e-05 -0.000118724 4.2602e-07
-2.59508e-06 4.2602e-07 -0.000153019
0.00217228 -6.77331e-06 -3.95616e-06
-6.77331e-06 0.000310783 7.04149e-06
-3.95616e-06 7.04149e-06 6.86656e-05
0.0045436 4.23103e-05 -6.64129e-05
4.23103e-05 0.00132904 -1.05432e-05
-6.64129e-05 -1.05432e-05 0.000819955
0.000922415 6.03755e-05 1.15093e-06
6.03755e-05 -1.51873e-06 5.2108e-07
1.15093e-06 5.2108e-07 -7.98728e-05
0.00132748 7.50619e-05 1.99087e-06
7.50619e-05 0.00015141 -1.07444e-06
1.99087e-06 -1.07444e-06 6.42776e-05
0.000884051 6.01603e-05 2.85116e-07
6.01603e-05 -8.83492e-07 -3.83421e-07
2.85116e-07 -3.83421e-07 -8.38528e-05
0.00115267 6.35646e-05 1.10523e-06
6.35646e-05 0.000149565 -8.61412e-07
1.10523e-06 -8.61412e-07 6.79898e-05
0.00103738 6.13738e-05 1.89104e-07
6.13738e-05 9.41083e-05 -1.37889e-07
1.89104e-07 -1.37889e-07 1.19534e-05
0.0010125 6.54758e-05 9.11849e-07
6.54758e-05 6.6765e-05 7.4336e-07
9.11849e-07 7.4336e-07 -1.04629e-05
0.0014066 8.88923e-05 -2.14863e-06
8.88923e-05 0.000133047 -2.97005e-06
-2.14863e-06 -2.97005e-06 4.05664e-05
0.0014381 8.1582e-05 2.41374e-06
8.1582e-05 0.000268333 2.95392e-07
2.41374e-06 2.95392e-07 0.000183953
0.00085018 7.51701e-05 -1.08762e-06
7.51701e-05 -2.83662e-05 3.87976e-06
-1.08762e-06 3.87976e-06 -0.000118888
0.0014342 9.78979e-05 -9.84339e-07
9.78979e-05 0.000139806 -3.33817e-07
-9.84339e-07 -3.33817e-07 3.86735e-05
0.0011951 8.192e-05 -4.13436e-06
8.192e-05 -0.000122517 -2.59648e-06
-4.13436e-06 -2.59648e-06 -0.00022952
0.00180039 3.43076e-05 -6.25073e-06
3.43076e-05 3.19453e-05 4.71855e-06
-6.25073e-06 4.71855e-06 -4.81783e-05
0.00196006 0.000103808 6.38797e-07
0.000103808 0.000203907 7.61966e-07
6.38797e-07 7.61966e-07 9.03526e-05
0.00111151 9.82337e-05 -2.65044e-07
9.82337e-05 -5.28338e-05 4.34662e-06
-2.65044e-07 4.34662e-06 -0.000167492
0.00157212 -1.5763e-05 4.19921e-07
-1.5763e-05 -4.46048e-05 6.51804e-07
4.19921e-07 6.51804e-07 -7.39406e-05
0.0029115 -5.18426e-05 4.90254e-05
-5.18426e-05 0.000390098 2.61225e-05
4.90254e-05 2.61225e-05 0.000152374
0.00211821 8.71919e-05 -4.15466e-06
8.71919e-05 0.000207667 -2.41751e-06
-4.15466e-06 -2.41751e-06 0.00014623
0.00194253 2.0721e-05 -4.2391e-06
2.0721e-05 0.000263991 -3.05537e-06
-4.2391e-06 -3.05537e-06 0.00020402
0.00145748 -9.58571e-06 7.65695e-07
-9.58571e-06 0.000139582 -4.33856e-07
7.65695e-07 -4.33856e-07 7.27111e-05
0.000862118 5.32459e-05 5.55166e-05
5.32459e-05 -0.000118214 2.58293e-06
5.55166e-05 2.58293e-06 -0.000382205
0.00131707 -1.40801e-05 6.37701e-06
-1.40801e-05 -0.00032386 6.78816e-07
6.37701e-06 6.78816e-07 -0.00034488
0.00161279 7.60492e-05 -5.40313e-06
7.60492e-05 0.000158331 2.02857e-06
-5.40313e-06 2.02857e-06 8.94436e-05
0.00161075 5.00051e-05 -1.89612e-06
5.00051e-05 -6.67969e-05 4.19096e-06
-1.89612e-06 4.19096e-06 -0.000136049
0.00153597 5.30423e-05 2.78598e-07
5.30423e-05 -6.39638e-06 1.40004e-06
2.78598e-07 1.40004e-06 -9.20034e-05
0.00166578 4.27237e-05 -4.91447e-06
4.27237e-05 8.40768e-05 -2.33195e-07
-4.91447e-06 -2.33195e-07 3.93737e-06
0.0013836 3.79817e-05 -2.95672e-06
3.79817e-05 -2.52274e-05 -1.66142e-06
-2.95672e-06 -1.66142e-06 -9.46295e-05
0.0015949 -2.20881e-05 8.13749e-06
-2.20881e-05 -3.67061e-05 -2.37085e-06
8.13749e-06 -2.37085e-06 -7.50548e-05
0.00173182 8.50663e-06 -1.10774e-06
8.50663e-06 0.000104116 -9.66361e-07
-1.10774e-06 -9.66361e-07 4.00804e-05
0.00166498 1.93272e-05 -1.40061e-06
1.93272e-05 9.50528e-05 3.54409e-10
-1.40061e-06 3.54409e-10 1.62286e-05
0.00181074 -3.60348e-05 -1.52132e-06
-3.60348e-05 0.000140293 -2.57407e-06
-1.52132e-06 -2.57407e-06 9.47748e-05
0.00165968 -2.10313e-05 -1.24273e-07
-2.10313e-05 9.98429e-05 -4.46899e-07
-1.24273e-07 -4.46899e-07 3.54287e-05
0.00145767 -1.57735e-05 -8.58595e-07
-1.57735e-05 1.88795e-05 1.72644e-06
-8.58595e-07 1.72644e-06 -5.75516e-05
0.00150648 -4.86122e-05 -2.75293e-06
-4.86122e-05 6.36657e-05 -2.8746e-06
-2.75293e-06 -2.8746e-06 1.11913e-05
0.00145497 -4.3317e-05 2.70047e-07
-4.3317e-05 5.02665e-05 -7.72513e-08
2.70047e-07 -7.72513e-08 -1.98005e-05
0.00142929 -4.52206e-05 -2.7612e-07
-4.52206e-05 5.70049e-05 1.46159e-06
-2.7612e-07 1.46159e-06 -2.07788e-05
0.00135705 -5.32338e-05 -9.43925e-07
-5.32338e-05 4.15286e-05 -1.84198e-06
-9.43925e-07 -1.84198e-06 -2.31192e-05
0.00137258 -5.36234e-05 5.03711e-08
-5.36234e-05 6.40077e-05 -4.18262e-07
5.03711e-08 -4.18262e-07 -9.26743e-06
0.00133574 -5.28662e-05 -6.27997e-07
-5.28662e-05 6.66619e-05 5.63128e-07
-6.27997e-07 5.63128e-07 -1.02027e-05
0.00127199 -5.41991e-05 -3.07586e-07
-5.41991e-05 3.5664e-05 2.86339e-08
-3.07586e-07 2.86339e-08 -3.5399e-05
0.00123432 -5.31893e-05 -1.78605e-07
-5.31893e-05 3.85929e-05 -1.72192e-07
-1.78605e-07 -1.72192e-07 -3.66211e-05
0.00120707 -4.97883e-05 -1.89476e-06
-4.97883e-05 5.73709e-05 7.24475e-07
-1.89476e-06 7.24475e-07 -1.60572e-05
0.00108921 -5.63411e-05 1.3867e-06
-5.63411e-05 -6.95532e-06 -5.76529e-07
1.3867e-06 -5.76529e-07 -8.54967e-05
0.00106501 -5.09452e-05 7.19607e-08
-5.09452e-05 1.12261e-05 4.02277e-08
7.19607e-08 4.02277e-08 -6.30189e-05
0.000975543 -3.49951e-05 -3.06147e-06
-3.49951e-05 1.53629e-05 1.53578e-06
-3.06147e-06 1.53578e-06 -4.77605e-05
0.000707505 7.79956e-06 -5.30777e-06
7.79956e-06 -4.7329e-05 3.56237e-06
-5.30777e-06 3.56237e-06 -8.19928e-05
0.000937363 -3.20501e-05 4.77996e-08
-3.20501e-05 2.17497e-05 9.42752e-08
4.77996e-08 9.42752e-08 -4.08538e-05
0.00104988 -5.4258e-05 1.12318e-06
-5.4258e-05 3.88657e-05 -7.7081e-07
1.12318e-06 -7.7081e-07 -3.56014e-05
0.00284333 6.08735e-05 -2.66349e-05
6.08735e-05 0.00104672 3.21844e-06
-2.66349e-05 3.21844e-06 0.00105016
0.000743832 2.0381e-05 3.43603e-08
2.0381e-05 -3.1546e-05 -6.88593e-08
3.43603e-08 -6.88593e-08 -6.18714e-05
0.000945942 -2.42065e-05 2.75788e-06
-2.42065e-05 4.2026e-05 -1.70697e-06
2.75788e-06 -1.70697e-06 -1.86033e-05
0.00273418 5.59156e-05 2.89527e-07
5.59156e-05 0.00098177 9.25349e-08
2.89527e-07 9.25349e-08 0.000987985
0.000800137 2.96329e-05 4.58253e-06
2.96329e-05 -9.014e-06 -3.38955e-06
4.58253e-06 -3.38955e-06 -3.46138e-05
0.00264483 5.12651e-05 2.50776e-05
5.12651e-05 0.000928357 -3.48305e-06
2.50776e-05 -3.48305e-06 0.000936928
0.000744803 5.72507e-05 -4.90188e-07
5.72507e-05 -0.000101509 -6.88016e-07
-4.90188e-07 -6.88016e-07 -0.000187476
0.000822113 5.48989e-05 -2.13896e-08
5.48989e-05 -3.61068e-05 -1.01492e-07
-2.13896e-08 -1.01492e-07 -0.000117739
0.00110143 5.0343e-05 -1.51357e-06
5.0343e-05 0.000101697 -5.06696e-07
-1.51357e-06 -5.06696e-07 2.79234e-05
0.00100141 5.40279e-05 5.11647e-07
5.40279e-05 6.6303e-05 -3.0297e-08
5.11647e-07 -3.0297e-08 -1.16046e-05
0.00101024 3.93423e-05 -5.53905e-08
3.93423e-05 6.92906e-05 -5.54973e-08
-5.53905e-08 -5.54973e-08 -2.1661e-06
0.000917789 6.85664e-06 -2.63172e-06
6.85664e-06 3.62451e-05 -1.4451e-06
-2.63172e-06 -1.4451e-06 -2.23336e-05
0.00101815 2.75413e-05 9.78091e-07
2.75413e-05 7.36835e-05 1.62578e-07
9.78091e-07 1.62578e-07 4.43076e-06
0.000890149 -7.13118e-07 1.00249e-07
-7.13118e-07 1.80327e-05 4.80525e-08
1.00249e-07 4.80525e-08 -3.74299e-05
0.000781819 -3.85988e-05 -3.54523e-06
-3.85988e-05 -2.36308e-05 -3.49987e-06
-3.54523e-06 -3.49987e-06 -4.63681e-05
0.000893888 -9.2656e-06 2.49862e-06
-9.2656e-06 1.25002e-05 2.13315e-06
2.49862e-06 2.13315e-06 -3.89601e-05
0.000770291 -3.32395e-05 -2.77664e-08
-3.32395e-05 -4.11999e-05 4.66272e-09
-2.77664e-08 4.66272e-09 -5.94606e-05
0.00258948 -4.71652e-05 -2.37568e-05
-4.71652e-05 0.000891065 -3.56538e-06
-2.37568e-05 -3.56538e-06 0.000901854
0.000777153 -2.7621e-05 3.80225e-06
-2.7621e-05 -4.76363e-05 3.76248e-06
3.80225e-06 3.76248e-06 -6.19266e-05
0.00254929 -4.26875e-05 -2.95195e-07
-4.26875e-05 0.000861468 7.56798e-08
-2.95195e-07 7.56798e-08 0.000874575
0.00249767 -3.83728e-05 2.0682e-05
-3.83728e-05 0.000827482 3.76981e-06
2.0682e-05 3.76981e-06 0.000842666
0.00161618 -2.10189e-05 -3.3739e-07
-2.10189e-05 -9.91559e-06 1.57629e-06
-3.3739e-07 1.57629e-06 -6.2325e-05
0.00115532 -4.5806e-05 4.10706e-07
-4.5806e-05 -0.000137648 -5.66321e-07
4.10706e-07 -5.66321e-07 -0.000172701
0.000636839 -3.62604e-05 4.43843e-05
-3.62604e-05 -0.000215107 1.84861e-05
4.43843e-05 1.84861e-05 -0.00037703
0.00180047 8.57015e-05 6.26731e-07
8.57015e-05 0.000332788 -2.19901e-06
6.26731e-07 -2.19901e-06 0.000247008
0.000904874 6.10569e-05 -7.38184e-07
6.10569e-05 1.89198e-06 3.69375e-07
-7.38184e-07 3.69375e-07 -7.32125e-05
0.000769642 6.40159e-05 -2.53325e-06
6.40159e-05 -0.000188128 -1.02403e-07
-2.53325e-06 -1.02403e-07 -0.000279886
0.00131391 7.47846e-05 1.87479e-07
7.47846e-05 0.000143725 8.19287e-08
1.87479e-07 8.19287e-08 5.60407e-05
0.000590073 5.26544e-05 -1.02971e-06
5.26544e-05 -0.00013761 8.05555e-07
-1.02971e-06 8.05555e-07 -0.000220255
0.00167437 8.21132e-05 -3.43883e-06
8.21132e-05 0.000142371 -4.0872e-06
-3.43883e-06 -4.0872e-06 4.25875e-05
0.00127679 7.35481e-05 4.38978e-07
7.35481e-05 0.000189538 -6.5932e-08
4.38978e-07 -6.5932e-08 0.000111427
0.00140006 8.74384e-05 -1.09851e-08
8.74384e-05 0.000123369 2.6066e-07
-1.09851e-08 2.6066e-07 3.11636e-05
0.00160185 3.55451e-05 -2.46048e-06
3.55451e-05 1.43899e-05 2.74191e-06
-2.46048e-06 2.74191e-06 -7.37597e-05
0.00143138 9.76218e-05 1.6305e-06
9.76218e-05 0.000142741 3.03479e-06
1.6305e-06 3.03479e-06 4.30655e-05
0.00150084 8.91089e-05 -8.74474e-07
8.91089e-05 2.32468e-05 -7.20399e-07
-8.74474e-07 -7.20399e-07 -8.46563e-05
0.00183592 3.03467e-05 -5.57223e-07
3.03467e-05 6.22625e-05 2.00417e-06
-5.57223e-07 2.00417e-06 -2.0125e-05
0.00164165 9.63945e-05 3.72465e-06
9.63945e-05 5.23343e-05 2.67731e-06
3.72465e-06 2.67731e-06 -6.11307e-05
0.00149471 -7.046e-06 -8.59123e-06
-7.046e-06 -7.06233e-05 -6.349e-06
-8.59123e-06 -6.349e-06 -9.94456e-05
0.0017121 1.7717e-06 -2.13883e-06
1.7717e-06 0.000156279 -1.19249e-06
-2.13883e-06 -1.19249e-06 9.63937e-05
0.00149403 1.55753e-05 1.12196e-06
1.55753e-05 3.06372e-05 4.70964e-07
1.12196e-06 4.70964e-07 -2.90667e-05
0.000517234 -9.627e-06 1.09422e-06
-9.627e-06 -0.000321687 3.0471e-06
1.09422e-06 3.0471e-06 -0.000386946
0.00194915 5.4635e-05 3.27163e-06
5.4635e-05 9.13151e-05 -1.40993e-06
3.27163e-06 -1.40993e-06 2.44062e-05
0.00219329 6.35444e-05 1.50543e-05
6.35444e-05 0.000321419 4.63227e-06
1.50543e-05 4.63227e-06 0.000239446
0.00183716 4.55443e-05 -3.04939e-06
4.55443e-05 0.000157848 -4.83538e-07
-3.04939e-06 -4.83538e-07 7.74566e-05
0.00154559 3.81297e-05 8.78342e-07
3.81297e-05 6.0676e-05 1.762e-06
8.78342e-07 1.762e-06 -8.31684e-06
0.00160461 3.70888e-05 -3.03695e-06
3.70888e-05 9.34073e-05 -1.99127e-06
-3.03695e-06 -1.99127e-06 1.78684e-05
0.00167496 6.88324e-06 -1.22698e-06
6.88324e-06 7.281e-05 -2.09916e-06
-1.22698e-06 -2.09916e-06 1.00282e-05
0.00169487 1.86076e-05 -6.29999e-09
1.86076e-05 0.000107649 -2.51111e-07
-6.29999e-09 -2.51111e-07 2.96325e-05
0.00160608 2.25601e-05 -2.39043e-06
2.25601e-05 8.05145e-05 -6.58914e-07
-2.39043e-06 -6.58914e-07 -1.30441e-06
0.00158355 -2.11222e-05 -2.91583e-07
-2.11222e-05 6.61893e-05 -2.41287e-06
-2.91583e-07 -2.41287e-06 2.3056e-06
0.00151751 -1.59124e-05 2.67534e-07
-1.59124e-05 4.8577e-05 3.86842e-07
2.67534e-07 3.86842e-07 -2.82683e-05
0.00151195 -1.64178e-05 -1.27431e-06
-1.64178e-05 6.36041e-05 8.97759e-07
-1.27431e-06 8.97759e-07 -1.81438e-05
0.0014784 -4.27831e-05 3.33618e-08
-4.27831e-05 6.16678e-05 -2.19952e-06
3.33618e-08 -2.19952e-06 -8.45858e-06
0.0014442 -4.43221e-05 1.89722e-07
-4.43221e-05 6.34968e-05 4.06062e-08
1.89722e-07 4.06062e-08 -1.43308e-05
0.00139398 -4.59821e-05 -1.07035e-06
-4.59821e-05 6.33271e-05 1.03814e-06
-1.07035e-06 1.03814e-06 -1.67868e-05
0.00137243 -5.29986e-05 -2.36466e-07
-5.29986e-05 6.36891e-05 -1.35258e-06
-2.36466e-07 -1.35258e-06 -9.52485e-06
0.00133582 -5.24527e-05 5.35256e-09
-5.24527e-05 6.62848e-05 -2.45451e-07
5.35256e-09 -2.45451e-07 -1.05377e-05
0.00124337 -4.75587e-05 -1.77797e-06
-4.75587e-05 5.16967e-05 7.91183e-07
-1.77797e-06 7.91183e-07 -2.33668e-05
0.00113577 -5.12561e-05 6.17258e-07
-5.12561e-05 -9.91461e-06 -4.38515e-07
6.17258e-07 -4.38515e-07 -8.49382e-05
0.00119464 -4.91072e-05 -2.1695e-08
-4.91072e-05 5.13898e-05 -4.70657e-08
-2.1695e-08 -4.70657e-08 -2.19406e-05
0.00102403 -3.50482e-05 -3.31967e-06
-3.50482e-05 1.53907e-05 1.47293e-06
-3.31967e-06 1.47293e-06 -4.81636e-05
0.000904921 -4.71235e-05 1.71632e-06
-4.71235e-05 -6.71729e-05 -8.01676e-07
1.71632e-06 -8.01676e-07 -0.000141533
0.000976172 -3.53134e-05 4.96809e-08
-3.53134e-05 1.64399e-05 5.03491e-08
4.96809e-08 5.03491e-08 -4.67716e-05
0.0016658 1.22095e-05 -6.54938e-06
1.22095e-05 0.000438478 1.99308e-06
-6.54938e-06 1.99308e-06 0.000405452
0.00113863 3.43796e-05 -2.75984e-05
3.43796e-05 0.000188422 6.02415e-06
-2.75984e-05 6.02415e-06 0.000177087
0.00122732 1.33275e-05 -1.1192e-06
1.33275e-05 0.000213739 -1.30451e-08
-1.1192e-06 -1.30451e-08 0.000181733
0.000957433 -3.33101e-05 2.9698e-06
-3.33101e-05 3.17886e-05 -1.55804e-06
2.9698e-06 -1.55804e-06 -3.09076e-05
0.0028536 6.04285e-05 3.35966e-07
6.04285e-05 0.00105413 1.14109e-07
3.35966e-07 1.14109e-07 0.00105693
0.000811514 1.82214e-05 5.27665e-06
1.82214e-05 -4.79209e-07 -3.38979e-06
5.27665e-06 -3.38979e-06 -3.06412e-05
0.00271844 5.53057e-05 2.65874e-05
5.53057e-05 0.000975589 -3.41957e-06
2.65874e-05 -3.41957e-06 0.000981399
0.00117935 6.7635e-05 -9.50473e-07
6.7635e-05 -1.992e-05 -1.44694e-07
-9.50473e-07 -1.44694e-07 -0.000104194
0.000829295 6.17565e-05 6.35018e-07
6.17565e-05 -9.62752e-05 2.1961e-07
6.35018e-07 2.1961e-07 -0.000184753
0.000856634 6.05512e-05 -1.04304e-07
6.05512e-05 -5.11688e-05 -7.22862e-08
-1.04304e-07 -7.22862e-08 -0.000137771
0.00112034 5.6073e-05 -1.50815e-06
5.6073e-05 9.29813e-05 -7.24778e-07
-1.50815e-06 -7.24778e-07 1.70978e-05
0.0006945 5.16266e-05 4.31792e-07
5.16266e-05 -0.000101413 5.72739e-07
4.31792e-07 5.72739e-07 -0.000183428
0.00103729 4.74958e-05 -1.4143e-07
4.74958e-05 7.07155e-05 -4.1463e-08
-1.4143e-07 -4.1463e-08 -2.75911e-06
0.000937935 1.58514e-05 -2.73679e-06
1.58514e-05 4.64067e-05 -1.1825e-06
-2.73679e-06 -1.1825e-06 -1.41482e-05
0.00096074 3.72045e-05 1.27204e-06
3.72045e-05 4.53602e-05 4.11726e-07
1.27204e-06 4.11726e-07 -2.5957e-05
0.000879473 4.00419e-06 8.02243e-08
4.00419e-06 1.89142e-05 1.07838e-07
8.02243e-08 1.07838e-07 -3.98422e-05
0.000782743 -3.58804e-05 -4.10972e-06
-3.58804e-05 -1.43265e-05 -3.29204e-06
-4.10972e-06 -3.29204e-06 -4.11109e-05
0.000880619 -4.73948e-06 2.47728e-06
-4.73948e-06 1.52284e-05 1.73123e-06
2.47728e-06 1.73123e-06 -4.04543e-05
0.000742756 -3.74343e-05 5.45268e-09
-3.74343e-05 -4.40025e-05 -2.15541e-08
5.45268e-09 -2.15541e-08 -6.64089e-05
0.00263608 -5.15954e-05 -2.48066e-05
-5.15954e-05 0.000924467 -3.44734e-06
-2.48066e-05 -3.44734e-06 0.000932826
0.000747011 -3.19416e-05 4.06983e-06
-3.19416e-05 -5.39757e-05 3.68758e-06
4.06983e-06 3.68758e-06 -7.18591e-05
0.00261233 -4.73388e-05 -2.59967e-07
-4.73388e-05 0.000901216 8.26992e-08
-2.59967e-07 8.26992e-08 0.000912247
0.00256457 -4.27774e-05 2.21867e-05
-4.27774e-05 0.000868043 3.68555e-06
2.21867e-05 3.68555e-06 0.00088138
0.0015886 -2.02071e-05 -2.37773e-07
-2.02071e-05 4.0619e-05 2.12655e-06
-2.37773e-07 2.12655e-06 -2.67298e-05
0.00174124 -2.03957e-05 1.41431e-06
-2.03957e-05 6.9507e-05 -1.91796e-06
1.41431e-06 -1.91796e-06 1.58786e-05
0.00132104 -5.15465e-05 1.19347e-07
-5.15465e-05 -4.27247e-05 -3.33784e-06
1.19347e-07 -3.33784e-06 -7.92998e-05
0.00150168 7.36826e-05 -4.30266e-06
7.36826e-05 7.91164e-05 -2.71618e-06
-4.30266e-06 -2.71618e-06 -1.33781e-05
0.00152284 7.91912e-05 -1.66468e-07
7.91912e-05 0.000212445 3.88505e-07
-1.66468e-07 3.88505e-07 0.000129109
0.000805316 6.00813e-05 -3.75895e-06
6.00813e-05 -3.5289e-05 4.78535e-07
-3.75895e-06 4.78535e-07 -0.00010703
0.00132223 7.56111e-05 9.94566e-07
7.56111e-05 7.92676e-05 9.89008e-07
9.94566e-07 9.89008e-07 -1.0774e-05
0.00131882 7.49196e-05 -1.40825e-06
7.49196e-05 0.000145004 7.52767e-07
-1.40825e-06 7.52767e-07 5.67625e-05
0.00172282 3.30876e-05 -2.15448e-06
3.30876e-05 9.14453e-05 1.10544e-06
-2.15448e-06 1.10544e-06 -3.16735e-06
0.001624 8.27358e-05 -1.55154e-06
8.27358e-05 0.000115751 -1.46605e-06
-1.55154e-06 -1.46605e-06 1.40861e-05
0.00139557 8.6338e-05 1.84915e-06
8.6338e-05 0.000115877 4.31101e-06
1.84915e-06 4.31101e-06 2.373e-05
0.0017043 3.40569e-05 -3.9161e-07
3.40569e-05 6.28923e-05 9.5863e-07
-3.9161e-07 9.5863e-07 -2.57661e-05
0.00188849 9.79619e-05 3.43604e-06
9.79619e-05 0.000206281 1.57269e-06
3.43604e-06 1.57269e-06 9.7762e-05
0.00179442 2.76228e-05 4.19816e-06
2.76228e-05 5.21416e-05 -6.3416e-07
4.19816e-06 -6.3416e-07 -3.22002e-05
0.00139942 1.95499e-06 -1.59556e-06
1.95499e-06 8.76566e-06 1.10802e-08
-1.59556e-06 1.10802e-08 -6.08102e-05
0.00155326 3.48597e-06 -2.78056e-07
3.48597e-06 7.52311e-05 -5.42774e-07
-2.78056e-07 -5.42774e-07 1.46598e-05
0.00090635 9.91756e-06 5.97984e-06
9.91756e-06 -0.000271805 5.86968e-06
5.97984e-06 5.86968e-06 -0.000330969
0.00203733 4.89749e-05 4.71843e-06
4.89749e-05 0.000245248 -9.36819e-07
4.71843e-06 -9.36819e-07 0.000164691
0.00167135 3.82866e-05 7.16328e-06
3.82866e-05 0.000127632 4.9726e-06
7.16328e-06 4.9726e-06 5.9206e-05
0.00165754 3.75528e-05 -1.13495e-06
3.75528e-05 0.000119211 -4.03257e-07
-1.13495e-06 -4.03257e-07 4.40325e-05
0.00154967 3.15037e-05 -1.10409e-06
3.15037e-05 8.14105e-05 -7.82697e-07
-1.10409e-06 -7.82697e-07 1.3285e-06
0.00171437 1.76886e-05 1.72222e-06
1.76886e-05 0.000114817 -6.75237e-07
1.72222e-06 -6.75237e-07 3.76773e-05
0.00161032 2.05056e-05 -4.83217e-07
2.05056e-05 8.04938e-05 -8.00022e-08
-4.83217e-07 -8.00022e-08 -1.19173e-06
0.00152073 1.36066e-05 -2.51945e-06
1.36066e-05 5.55307e-05 -1.00031e-06
-2.51945e-06 -1.00031e-06 -2.68284e-05
0.0015744 -1.62146e-05 8.84951e-07
-1.62146e-05 7.68808e-05 -7.05581e-07
8.84951e-07 -7.05581e-07 -3.92286e-07
0.00151664 -1.68392e-05 6.63421e-08
-1.68392e-05 6.54467e-05 3.96626e-07
6.63421e-08 3.96626e-07 -1.64178e-05
0.00146633 -2.3889e-05 -1.83215e-06
-2.3889e-05 6.71483e-05 5.34828e-07
-1.83215e-06 5.34828e-07 -1.50995e-05
0.00145885 -4.33587e-05 8.17832e-07
-4.33587e-05 6.98728e-05 -1.36319e-06
8.17832e-07 -1.36319e-06 -7.99595e-06
0.00140125 -4.56053e-05 1.0381e-07
-4.56053e-05 6.62176e-05 1.04927e-07
1.0381e-07 1.04927e-07 -1.39344e-05
0.00130249 -4.27544e-05 -2.08997e-06
-4.27544e-05 5.24612e-05 1.00006e-06
-2.08997e-06 1.00006e-06 -2.52579e-05
0.00133527 -5.20725e-05 6.97488e-07
-5.20725e-05 6.56192e-05 -1.04993e-06
6.97488e-07 -1.04993e-06 -1.11648e-05
0.00124601 -4.72136e-05 -5.29096e-09
-4.72136e-05 5.26506e-05 -1.2434e-07
-5.29096e-09 -1.2434e-07 -2.23689e-05
0.00106919 -3.4576e-05 -3.59488e-06
-3.4576e-05 1.6071e-05 1.62837e-06
-3.59488e-06 1.62837e-06 -4.92617e-05
0.00118123 -4.84222e-05 1.65827e-06
-4.84222e-05 4.49316e-05 -7.55825e-07
1.65827e-06 -7.55825e-07 -2.83015e-05
0.00101768 -3.48148e-05 8.26957e-08
-3.48148e-05 1.27657e-05 -3.9784e-08
8.26957e-08 -3.9784e-08 -5.08732e-05
0.00171716 5.96586e-06 -6.82772e-06
5.96586e-06 0.000459463 2.03151e-06
-6.82772e-06 2.03151e-06 0.000424105
0.00097864 -3.58425e-05 3.13403e-06
-3.58425e-05 1.83961e-05 -1.38928e-06
3.13403e-06 -1.38928e-06 -4.49095e-05
0.00173708 8.34245e-06 6.14344e-06
8.34245e-06 0.000469892 -9.44779e-07
6.14344e-06 -9.44779e-07 0.00043693
0.00120348 3.24059e-05 -3.21815e-05
3.24059e-05 0.000235835 5.86344e-06
-3.21815e-05 5.86344e-06 0.000219544
0.00206902 4.8671e-05 -2.11678e-05
4.8671e-05 0.000665224 1.71624e-06
-2.11678e-05 1.71624e-06 0.000659074
0.00176788 1.41263e-05 1.61673e-05
1.41263e-05 0.00048466 -2.78443e-06
1.61673e-05 -2.78443e-06 0.000455766
0.00285893 5.93548e-05 2.91014e-05
5.93548e-05 0.00105886 -3.36473e-06
2.91014e-05 -3.36473e-06 0.00106109
0.00150288 6.7667e-05 -3.22074e-06
6.7667e-05 7.58171e-05 -2.26742e-06
-3.22074e-06 -2.26742e-06 -1.25858e-05
0.00141353 7.23779e-05 1.68534e-06
7.23779e-05 0.000145159 -5.9094e-08
1.68534e-06 -5.9094e-08 6.11738e-05
0.00118108 6.78383e-05 1.05927e-06
6.78383e-05 -9.37577e-06 6.54545e-07
1.05927e-06 6.54545e-07 -8.88236e-05
0.00113061 6.08062e-05 -1.48289e-06
6.08062e-05 7.56854e-05 -1.03739e-06
-1.48289e-06 -1.03739e-06 -3.93877e-06
0.00112168 6.97083e-05 -3.63644e-07
6.97083e-05 4.38162e-05 1.93953e-07
-3.63644e-07 1.93953e-07 -4.4806e-05
0.000997801 6.4795e-05 4.73719e-07
6.4795e-05 1.32739e-05 7.04777e-07
4.73719e-07 7.04777e-07 -7.39753e-05
0.00108359 5.48959e-05 -7.38116e-08
5.48959e-05 7.71818e-05 -1.15167e-07
-7.38116e-08 -1.15167e-07 1.1737e-06
0.000961946 2.6948e-05 -2.64165e-06
2.6948e-05 5.05075e-05 -1.19415e-06
-2.64165e-06 -1.19415e-06 -1.19752e-05
0.000974753 4.47569e-05 1.10113e-06
4.47569e-05 4.05361e-05 3.55554e-07
1.10113e-06 3.55554e-07 -3.26491e-05
0.000889883 1.24642e-05 -5.65784e-08
1.24642e-05 2.31685e-05 9.1433e-08
-5.65784e-08 9.1433e-08 -3.73953e-05
0.00079026 -2.73032e-05 -4.92036e-06
-2.73032e-05 -4.17214e-06 -3.04423e-06
-4.92036e-06 -3.04423e-06 -3.52208e-05
0.000846976 1.30177e-06 2.38372e-06
1.30177e-06 4.4237e-06 1.51021e-06
2.38372e-06 1.51021e-06 -5.45178e-05
0.000727247 -4.04618e-05 -2.2729e-08
-4.04618e-05 -4.11548e-05 -2.79825e-08
-2.2729e-08 -2.79825e-08 -6.82154e-05
0.00268452 -5.57416e-05 -2.61254e-05
-5.57416e-05 0.000961418 -3.32925e-06
-2.61254e-05 -3.32925e-06 0.000966805
0.000703002 -3.61998e-05 3.94665e-06
-3.61998e-05 -6.47322e-05 3.61009e-06
3.94665e-06 3.61009e-06 -8.67968e-05
0.00266675 -5.19829e-05 -2.47825e-07
-5.19829e-05 0.000938079 8.81759e-08
-2.47825e-07 8.81759e-08 0.000946757
0.00263366 -4.7454e-05 2.34177e-05
-4.7454e-05 0.000910579 3.55978e-06
2.34177e-05 3.55978e-06 0.000921866
0.00158619 -1.62233e-05 -1.96719e-06
-1.62233e-05 4.85491e-05 2.40916e-06
-1.96719e-06 2.40916e-06 -3.05532e-05
0.00163945 -1.90857e-05 3.99604e-07
-1.90857e-05 6.55527e-05 -5.97769e-07
3.99604e-07 -5.97769e-07 -2.21171e-06
0.00212302 -2.06274e-05 1.73303e-06
-2.06274e-05 0.000273373 -5.12402e-06
1.73303e-06 -5.12402e-06 0.000218419
0.00147087 3.51974e-05 -2.22172e-06
3.51974e-05 -8.23684e-06 4.13329e-07
-2.22172e-06 4.13329e-07 -9.99661e-05
0.00155657 7.49219e-05 1.55522e-07
7.49219e-05 0.000107453 -6.26447e-07
1.55522e-07 -6.26447e-07 1.46833e-05
0.00133527 7.46451e-05 -1.17709e-06
7.46451e-05 0.000135156 1.87921e-06
-1.17709e-06 1.87921e-06 5.43244e-05
0.00181995 8.6063e-05 1.71922e-06
8.6063e-05 0.000319394 8.63488e-07
1.71922e-06 8.63488e-07 0.00023116
0.0018054 3.48194e-05 -1.86773e-07
3.48194e-05 0.000131989 -1.16155e-07
-1.86773e-07 -1.16155e-07 3.76996e-05
0.00158933 8.34413e-05 2.2279e-06
8.34413e-05 9.62451e-05 1.52777e-06
2.2279e-06 1.52777e-06 -7.17979e-06
0.00180326 3.16738e-05 2.92758e-06
3.16738e-05 0.000109278 -4.03152e-07
2.92758e-06 -4.03152e-07 2.0187e-05
0.0015132 1.3765e-06 1.7255e-07
1.3765e-06 6.18339e-05 5.47912e-07
1.7255e-07 5.47912e-07 -1.55244e-05
0.00144825 3.32921e-06 2.76939e-08
3.32921e-06 2.8615e-05 -2.44156e-07
2.76939e-08 -2.44156e-07 -4.26256e-05
0.00143706 5.85309e-06 1.47486e-06
5.85309e-06 1.59254e-05 9.53195e-07
1.47486e-06 9.53195e-07 -4.54783e-05
0.00156498 3.13592e-05 -6.32436e-07
3.13592e-05 9.73498e-05 -3.06727e-08
-6.32436e-07 -3.06727e-08 1.31691e-05
0.00170466 3.79008e-05 2.79868e-06
3.79008e-05 0.000142455 1.31066e-06
2.79868e-06 1.31066e-06 6.7609e-05
0.00155107 3.18115e-05 2.51572e-07
3.18115e-05 8.15007e-05 2.27724e-07
2.51572e-07 2.27724e-07 1.04714e-06
0.0015705 2.80137e-05 -8.83291e-07
2.80137e-05 9.45316e-05 -4.4753e-07
-8.83291e-07 -4.4753e-07 1.23944e-05
0.00163615 1.87295e-05 1.63536e-06
1.87295e-05 9.09832e-05 4.21003e-07
1.63536e-06 4.21003e-07 9.4288e-06
0.0015427 1.35025e-05 -6.76672e-07
1.35025e-05 6.63521e-05 -1.48688e-07
-6.76672e-07 -1.48688e-07 -1.59522e-05
0.00149195 7.40794e-06 -2.81239e-06
7.40794e-06 6.70579e-05 -4.72625e-07
-2.81239e-06 -4.72625e-07 -1.58514e-05
0.00152324 -1.66185e-05 2.01976e-06
-1.66185e-05 6.82133e-05 -1.26697e-07
2.01976e-06 -1.26697e-07 -1.37643e-05
0.00145976 -2.25128e-05 5.10945e-08
-2.25128e-05 6.41091e-05 1.83976e-07
5.10945e-08 1.83976e-07 -1.82367e-05
0.0013687 -2.93927e-05 -2.69466e-06
-2.93927e-05 5.76243e-05 6.13564e-07
-2.69466e-06 6.13564e-07 -2.15044e-05
0.00140961 -4.51874e-05 1.50595e-06
-4.51874e-05 6.96288e-05 -8.37969e-07
1.50595e-06 -8.37969e-07 -1.05573e-05
0.00130619 -4.2435e-05 5.17792e-08
-4.2435e-05 5.38869e-05 1.09215e-07
5.17792e-08 1.09215e-07 -2.38408e-05
0.00112361 -3.20747e-05 -4.166e-06
-3.20747e-05 2.04084e-05 1.81808e-06
-4.166e-06 1.81808e-06 -4.73589e-05
0.0012483 -4.68058e-05 1.81007e-06
-4.68058e-05 5.34447e-05 -1.02127e-06
1.81007e-06 -1.02127e-06 -2.15286e-05
0.00106703 -3.40387e-05 1.73554e-07
-3.40387e-05 1.45951e-05 -8.86788e-08
1.73554e-07 -8.86788e-08 -5.08002e-05
0.00176399 2.83635e-06 -6.80278e-06
2.83635e-06 0.000476349 2.14743e-06
-6.80278e-06 2.14743e-06 0.000439714
0.0010138 -3.46132e-05 3.26994e-06
-3.46132e-05 1.13818e-05 -1.41402e-06
3.26994e-06 -1.41402e-06 -5.23462e-05
0.00179942 1.9393e-06 7.0286e-06
1.9393e-06 0.000496258 -8.21632e-07
7.0286e-06 -8.21632e-07 0.000461131
0.00124198 2.94523e-05 -3.58504e-05
2.94523e-05 0.000265618 5.3846e-06
-3.58504e-05 5.3846e-06 0.000246444
0.00181219 4.17006e-06 1.98122e-05
4.17006e-06 0.000503156 -4.0777e-06
1.98122e-05 -4.0777e-06 0.000470333
0.00119181 3.7576e-05 -1.29446e-05
3.7576e-05 0.000232744 2.07418e-06
-1.29446e-05 2.07418e-06 0.000215944
0.00295229 7.11504e-05 1.15546e-05
7.11504e-05 0.00111958 -1.32624e-06
1.15546e-05 -1.32624e-06 0.00111769
0.00176442 4.47432e-05 -2.46089e-06
4.47432e-05 0.000168796 -9.45091e-07
-2.46089e-06 -9.45091e-07 7.73032e-05
0.00151675 6.61574e-05 -1.15058e-06
6.61574e-05 0.000120639 -1.98836e-06
-1.15058e-06 -1.98836e-06 3.51692e-05
0.00155448 6.95693e-05 -1.49619e-06
6.95693e-05 0.000110412 1.14542e-06
-1.49619e-06 1.14542e-06 2.28153e-05
0.00146581 6.79943e-05 -9.81365e-07
6.79943e-05 0.000202964 -3.00504e-07
-9.81365e-07 -3.00504e-07 0.000123408
0.00126895 7.01712e-05 4.33249e-07
7.01712e-05 7.23705e-05 -9.10444e-07
4.33249e-07 -9.10444e-07 -1.13798e-05
0.00123574 6.89819e-05 2.73922e-06
6.89819e-05 2.73531e-05 1.39708e-06
2.73922e-06 1.39708e-06 -4.73802e-05
0.000995719 3.96557e-05 -2.83137e-06
3.96557e-05 4.82201e-05 -1.54837e-06
-2.83137e-06 -1.54837e-06 -1.79384e-05
0.00112464 6.08492e-05 -7.03388e-08
6.08492e-05 7.27868e-05 -8.54742e-08
-7.03388e-08 -8.54742e-08 -6.91858e-06
0.00139125 7.69654e-05 1.52755e-06
7.69654e-05 0.000173426 1.04803e-06
1.52755e-06 1.04803e-06 8.45985e-05
0.00103022 5.31987e-05 1.21329e-06
5.31987e-05 5.31799e-05 4.1313e-07
1.21329e-06 4.1313e-07 -2.29193e-05
0.000919858 2.5624e-05 -4.99639e-08
2.5624e-05 3.03685e-05 -6.36913e-08
-4.99639e-08 -6.36913e-08 -3.20169e-05
0.00080016 -7.49444e-06 -5.54882e-06
-7.49444e-06 2.96452e-06 -3.0707e-06
-5.54882e-06 -3.0707e-06 -3.20563e-05
0.000833916 9.41374e-06 2.2965e-06
9.41374e-06 -4.20701e-06 1.16897e-06
2.2965e-06 1.16897e-06 -6.47121e-05
0.000728518 -2.7266e-05 -1.57187e-07
-2.7266e-05 -3.31705e-05 -3.42834e-08
-1.57187e-07 -3.42834e-08 -6.4143e-05
0.00276964 -5.97282e-05 -2.81331e-05
-5.97282e-05 0.00101994 -3.17102e-06
-2.81331e-05 -3.17102e-06 0.00102171
0.000666886 -3.91109e-05 3.71404e-06
-3.91109e-05 -7.11003e-05 3.51893e-06
3.71404e-06 3.51893e-06 -9.79483e-05
0.00271162 -5.63389e-05 -3.00281e-07
-5.63389e-05 0.000972475 9.56753e-08
-3.00281e-07 9.56753e-08 0.000978336
0.00269564 -5.22552e-05 2.43835e-05
-5.22552e-05 0.000950808 3.40418e-06
2.43835e-05 3.40418e-06 0.000959817
0.00163066 -5.60722e-06 -1.24029e-06
-5.60722e-06 7.56328e-05 1.0368e-06
-1.24029e-06 1.0368e-06 -6.06306e-06
0.00168538 -1.5386e-05 -1.33571e-07
-1.5386e-05 9.0016e-05 5.94064e-07
-1.33571e-07 5.94064e-07 9.97564e-06
0.00162782 -1.78373e-05 1.84567e-06
-1.78373e-05 6.04779e-05 -3.26481e-06
1.84567e-06 -3.26481e-06 -7.72913e-06
0.00160057 3.62514e-05 3.92235e-07
3.62514e-05 4.96718e-05 -1.15031e-07
3.92235e-07 -1.15031e-07 -4.15912e-05
0.00162166 7.6459e-05 1.92462e-06
7.6459e-05 0.000141272 1.04249e-06
1.92462e-06 1.04249e-06 4.81377e-05
0.00190035 3.62487e-05 2.37052e-06
3.62487e-05 0.000178508 -8.49297e-07
2.37052e-06 -8.49297e-07 8.45669e-05
0.00153838 2.50165e-06 -8.65235e-07
2.50165e-06 7.21916e-05 5.89324e-07
-8.65235e-07 5.89324e-07 -1.14542e-05
0.00150039 4.05868e-06 5.6237e-07
4.05868e-06 5.78374e-05 -2.55213e-07
5.6237e-07 -2.55213e-07 -1.9951e-05
0.00152273 4.7479e-06 1.39245e-06
4.7479e-06 6.08126e-05 -1.53653e-07
1.39245e-06 -1.53653e-07 -1.20883e-05
0.0015339 2.28527e-05 -6.64489e-07
2.28527e-05 8.24112e-05 -1.93754e-07
-6.64489e-07 -1.93754e-07 -1.30247e-06
0.00157811 2.07748e-05 -2.57745e-07
2.07748e-05 0.000109588 2.17679e-07
-2.57745e-07 2.17679e-07 2.32015e-05
0.00154463 3.21327e-05 1.59685e-06
3.21327e-05 7.7781e-05 6.73362e-07
1.59685e-06 6.73362e-07 -3.04579e-06
0.00156108 2.77619e-05 4.14236e-07
2.77619e-05 9.07657e-05 2.21739e-07
4.14236e-07 2.21739e-07 8.59483e-06
0.00154861 2.3388e-05 -8.85961e-07
2.3388e-05 9.91867e-05 -2.62049e-07
-8.85961e-07 -2.62049e-07 1.6221e-05
0.00156401 1.27417e-05 1.66252e-06
1.27417e-05 7.68756e-05 6.60925e-07
1.66252e-06 6.60925e-07 -5.37552e-06
0.00148813 6.22566e-06 -6.4989e-07
6.22566e-06 6.52992e-05 2.42568e-08
-6.4989e-07 2.42568e-08 -1.75277e-05
0.00139747 -1.26727e-06 -3.63879e-06
-1.26727e-06 5.82855e-05 2.07358e-07
-3.63879e-06 2.07358e-07 -2.1624e-05
0.00145537 -2.26684e-05 1.91275e-06
-2.26684e-05 6.20267e-05 -1.56766e-07
1.91275e-06 -1.56766e-07 -2.04049e-05
0.00136195 -2.8627e-05 8.55487e-08
-2.8627e-05 5.43254e-05 1.07663e-07
8.55487e-08 1.07663e-07 -2.48658e-05
0.00115632 -2.23582e-05 -4.81866e-06
-2.23582e-05 1.57293e-05 1.51842e-06
-4.81866e-06 1.51842e-06 -5.30034e-05
0.00131019 -4.20614e-05 2.34227e-06
-4.20614e-05 5.54622e-05 -7.70792e-07
2.34227e-06 -7.70792e-07 -2.22736e-05
0.00111986 -3.12657e-05 2.08818e-07
-3.12657e-05 1.76135e-05 7.26708e-08
2.08818e-07 7.26708e-08 -5.01702e-05
0.00186732 5.37833e-06 -6.95757e-06
5.37833e-06 0.000517545 2.23623e-06
-6.95757e-06 2.23623e-06 0.00048045
0.00106682 -3.3553e-05 3.64116e-06
-3.3553e-05 1.41403e-05 -1.64099e-06
3.64116e-06 -1.64099e-06 -5.13286e-05
0.00186637 -2.23278e-06 8.07572e-06
-2.23278e-06 0.00052325 -6.96207e-07
8.07572e-06 -6.96207e-07 0.00048693
0.00127887 2.43801e-05 -3.96318e-05
2.43801e-05 0.000289952 4.85554e-06
-3.96318e-05 4.85554e-06 0.000269274
0.00188305 -3.08199e-06 2.18194e-05
-3.08199e-06 0.000533539 -3.93125e-06
2.18194e-05 -3.93125e-06 0.000498751
0.00124056 3.67065e-05 -1.47044e-05
3.67065e-05 0.000268487 1.80401e-06
-1.47044e-05 1.80401e-06 0.000248403
0.0011744 4.37773e-05 7.40193e-06
4.37773e-05 0.000226895 -1.68248e-06
7.40193e-06 -1.68248e-06 0.00020947
0.00155917 6.71783e-06 -1.53223e-06
6.71783e-06 5.02751e-05 1.13698e-06
-1.53223e-06 1.13698e-06 -3.22158e-05
0.00152903 4.68209e-05 -2.69816e-06
4.68209e-05 8.42208e-05 -5.70088e-07
-2.69816e-06 -5.70088e-07 -4.38854e-06
0.00166604 4.38119e-05 -1.12146e-06
4.38119e-05 0.000116915 -8.72994e-07
-1.12146e-06 -8.72994e-07 2.50862e-05
0.00143793 6.24046e-05 -2.06627e-06
6.24046e-05 0.000132634 -8.44329e-07
-2.06627e-06 -8.44329e-07 5.20054e-05
0.00157982 6.74228e-05 7.97467e-07
6.74228e-05 0.000156214 5.96065e-07
7.97467e-07 5.96065e-07 7.11929e-05
0.0015682 7.07017e-05 3.67469e-06
7.07017e-05 0.000126614 2.63761e-06
3.67469e-06 2.63761e-06 3.98685e-05
0.000967653 4.42542e-05 -3.33961e-06
4.42542e-05 1.71322e-07 -1.39881e-06
-3.33961e-06 -1.39881e-06 -6.84182e-05
0.00116972 6.23153e-05 9.49487e-07
6.23153e-05 5.3828e-05 5.87865e-07
9.49487e-07 5.87865e-07 -2.67653e-05
0.00111333 6.77442e-05 1.25674e-06
6.77442e-05 -6.38389e-06 1.22776e-06
1.25674e-06 1.22776e-06 -8.98119e-05
0.000808206 1.07534e-05 -6.33009e-06
1.07534e-05 4.65066e-06 -3.49905e-06
-6.33009e-06 -3.49905e-06 -3.53259e-05
0.000957846 3.76959e-05 -1.4693e-07
3.76959e-05 2.92936e-05 -1.29725e-07
-1.4693e-07 -1.29725e-07 -3.66314e-05
0.0011252 6.10762e-05 1.52564e-06
6.10762e-05 7.31047e-05 9.1321e-07
1.52564e-06 9.1321e-07 -6.69221e-06
0.000869736 2.36379e-05 2.39772e-06
2.36379e-05 6.26382e-06 9.79883e-07
2.39772e-06 9.79883e-07 -5.60253e-05
0.000737767 -1.07977e-05 -4.05537e-08
-1.07977e-05 -2.35729e-05 -5.5152e-08
-4.05537e-08 -5.5152e-08 -5.90412e-05
0.0029364 -6.31069e-05 -3.18155e-05
-6.31069e-05 0.00112079 -3.02087e-06
-3.18155e-05 -3.02087e-06 0.00111856
0.000674786 -3.53233e-05 3.7747e-06
-3.53233e-05 -5.69042e-05 3.33288e-06
3.7747e-06 3.33288e-06 -8.85523e-05
0.00277271 -6.05472e-05 -3.76141e-07
-6.05472e-05 0.00101842 1.08583e-07
-3.76141e-07 1.08583e-07 0.0010208
0.00274887 -5.69106e-05 2.53424e-05
-5.69106e-05 0.000988557 3.25904e-06
2.53424e-05 3.25904e-06 0.000994883
0.0016257 -1.25839e-05 -1.04388e-06
-1.25839e-05 9.07346e-05 -4.04989e-07
-1.04388e-06 -4.04989e-07 7.87402e-06
0.00167456 -6.11361e-06 -3.70114e-07
-6.11361e-06 9.51505e-05 2.16998e-07
-3.70114e-07 2.16998e-07 1.31608e-05
0.00173469 -1.45104e-05 1.01895e-06
-1.45104e-05 0.000107555 -1.61489e-06
1.01895e-06 -1.61489e-06 2.65194e-05
0.0017139 3.69713e-05 2.72298e-06
3.69713e-05 9.93919e-05 -2.51091e-07
2.72298e-06 -2.51091e-07 8.62965e-06
0.00156404 -1.32677e-06 -8.80203e-07
-1.32677e-06 8.46945e-05 -3.30189e-07
-8.80203e-07 -3.30189e-07 -2.38422e-06
0.00158899 2.5289e-06 -2.58394e-07
2.5289e-06 9.71666e-05 -1.67899e-07
-2.58394e-07 -1.67899e-07 1.393e-05
0.00147604 6.59266e-06 5.87685e-07
6.59266e-06 4.80762e-05 -2.19137e-07
5.87685e-07 -2.19137e-07 -3.01227e-05
0.0015136 1.78837e-05 -5.99359e-07
1.78837e-05 7.28419e-05 -4.9239e-07
-5.99359e-07 -4.9239e-07 -1.05353e-05
0.00153494 2.54093e-05 5.0099e-08
2.54093e-05 8.74304e-05 -2.69199e-07
5.0099e-08 -2.69199e-07 9.37119e-07
0.00154954 2.22241e-05 -1.50373e-06
2.22241e-05 0.0001053 5.26516e-07
-1.50373e-06 5.26516e-07 2.00055e-05
0.00155644 2.75687e-05 1.80918e-06
2.75687e-05 8.93228e-05 9.26665e-07
1.80918e-06 9.26665e-07 7.11767e-06
0.00155685 2.38644e-05 4.83844e-07
2.38644e-05 0.000104901 1.13555e-07
4.83844e-07 1.13555e-07 2.21717e-05
0.00132323 2.01306e-05 -2.76381e-06
2.01306e-05 1.72811e-05 -3.11919e-08
-2.76381e-06 -3.11919e-08 -6.36008e-05
0.00147737 6.56116e-06 1.37471e-06
6.56116e-06 6.0294e-05 5.36721e-07
1.37471e-06 5.36721e-07 -2.24669e-05
0.00138549 5.2358e-07 -3.45224e-07
5.2358e-07 5.24204e-05 1.30795e-07
-3.45224e-07 1.30795e-07 -2.7415e-05
0.00116654 -3.13759e-06 -5.15962e-06
-3.13759e-06 8.67858e-06 1.04298e-06
-5.15962e-06 1.04298e-06 -6.01902e-05
0.00135469 -2.56841e-05 2.75344e-06
-2.56841e-05 5.0837e-05 -3.56845e-07
2.75344e-06 -3.56845e-07 -2.83828e-05
0.00115702 -2.3534e-05 1.12343e-07
-2.3534e-05 1.55005e-05 1.64413e-07
1.12343e-07 1.64413e-07 -5.32889e-05
0.000695903 -1.03818e-05 -7.80074e-06
-1.03818e-05 -9.14322e-05 3.15032e-06
-7.80074e-06 3.15032e-06 -0.000133377
0.00111875 -3.06352e-05 4.31396e-06
-3.06352e-05 1.61628e-05 -1.56207e-06
4.31396e-06 -1.56207e-06 -5.16521e-05
0.00133223 -1.364e-05 1.00524e-05
-1.364e-05 0.000240935 -3.4638e-07
1.00524e-05 -3.4638e-07 0.000201669
0.00378497 7.69642e-05 -4.27596e-05
7.69642e-05 0.00156858 1.9856e-06
-4.27596e-05 1.9856e-06 0.00155822
0.00196387 -8.54001e-06 2.40532e-05
-8.54001e-06 0.000567457 -3.81526e-06
2.40532e-05 -3.81526e-06 0.00053158
0.00128885 3.52417e-05 -1.66255e-05
3.52417e-05 0.000299375 1.51883e-06
-1.66255e-05 1.51883e-06 0.000277328
0.00123809 4.57268e-05 7.41935e-06
4.57268e-05 0.000271098 -1.7142e-06
7.41935e-06 -1.7142e-06 0.000249905
0.00164466 -4.71684e-06 -5.42409e-07
-4.71684e-06 0.000104465 2.73154e-08
-5.42409e-07 2.73154e-08 2.35157e-05
0.00139153 1.54924e-05 -1.78979e-06
1.54924e-05 3.62711e-06 8.0297e-07
-1.78979e-06 8.0297e-07 -8.03086e-05
0.00159585 6.61777e-06 8.3228e-08
6.61777e-06 7.15895e-05 -4.02865e-08
8.3228e-08 -4.02865e-08 -1.08616e-05
0.00108854 4.44489e-05 -3.18722e-06
4.44489e-05 -8.66791e-05 -9.9141e-07
-3.18722e-06 -9.9141e-07 -0.000170196
0.00154933 4.70289e-05 1.38745e-07
4.70289e-05 9.69039e-05 -3.37543e-08
1.38745e-07 -3.37543e-08 9.06614e-06
0.00156663 4.29953e-05 1.60976e-06
4.29953e-05 6.48136e-05 -5.1523e-07
1.60976e-06 -5.1523e-07 -2.73922e-05
0.000691513 3.77656e-05 -5.04437e-06
3.77656e-05 -0.000181474 -1.918e-06
-5.04437e-06 -1.918e-06 -0.000252611
0.00143784 6.30987e-05 5.5426e-07
6.30987e-05 0.000132039 -4.42914e-09
5.5426e-07 -4.42914e-09 5.13164e-05
0.00164145 6.87744e-05 2.47721e-06
6.87744e-05 0.000191581 1.74723e-06
2.47721e-06 1.74723e-06 0.000106931
0.000788032 2.57658e-05 -7.36614e-06
2.57658e-05 -1.63448e-05 -3.71091e-06
-7.36614e-06 -3.71091e-06 -6.00454e-05
0.000806349 4.0551e-05 -1.32956e-07
4.0551e-05 -8.30505e-05 8.10162e-08
-1.32956e-07 8.10162e-08 -0.000152489
0.000877271 5.67123e-05 2.72825e-06
5.67123e-05 -9.35036e-05 1.65148e-06
2.72825e-06 1.65148e-06 -0.000175139
0.00324205 -6.08154e-05 -3.91997e-05
-6.08154e-05 0.00128752 -3.00853e-06
-3.91997e-05 -3.00853e-06 0.00128175
0.000730149 7.46322e-06 -1.23153e-07
7.46322e-06 -2.90752e-05 -4.29035e-08
-1.23153e-07 -4.29035e-08 -6.93049e-05
0.000927106 3.57787e-05 2.5382e-06
3.57787e-05 1.39272e-05 1.37058e-06
2.5382e-06 1.37058e-06 -5.1777e-05
0.000672681 -1.28223e-05 4.84211e-06
-1.28223e-05 -5.14592e-05 3.21254e-06
4.84211e-06 3.21254e-06 -8.72261e-05
0.00290515 -6.5143e-05 -5.23199e-07
-6.5143e-05 0.00110228 1.36272e-07
-5.23199e-07 1.36272e-07 0.00110061
0.00279052 -6.11236e-05 2.64174e-05
-6.11236e-05 0.00102384 3.12119e-06
2.64174e-05 3.12119e-06 0.00102689
0.00158159 -1.32118e-05 -1.53112e-06
-1.32118e-05 8.19855e-05 -2.75891e-07
-1.53112e-06 -2.75891e-07 -1.90158e-06
0.00161603 -1.24952e-05 -3.9248e-07
-1.24952e-05 8.64712e-05 -2.33512e-07
-3.9248e-07 -2.33512e-07 3.87022e-06
0.00172901 -6.52083e-06 1.10944e-06
-6.52083e-06 0.000119953 -1.04638e-06
1.10944e-06 -1.04638e-06 3.76542e-05
0.00161914 1.28318e-05 -1.40813e-06
1.28318e-05 0.000117266 1.23226e-07
-1.40813e-06 1.23226e-07 2.88649e-05
0.00156908 2.31404e-06 -3.66349e-07
2.31404e-06 8.62233e-05 -3.01877e-07
-3.66349e-07 -3.01877e-07 -1.3114e-06
0.00164551 -3.4347e-07 -2.90439e-07
-3.4347e-07 0.00012492 -1.61604e-07
-2.90439e-07 -1.61604e-07 4.21902e-05
0.00148044 2.84696e-05 5.91152e-07
2.84696e-05 5.96449e-05 -9.65702e-07
5.91152e-07 -9.65702e-07 -2.68718e-05
0.00154094 2.43641e-05 3.41145e-07
2.43641e-05 0.000100456 9.6521e-08
3.41145e-07 9.6521e-08 1.52417e-05
0.00155233 1.8556e-05 -2.26556e-06
1.8556e-05 0.000129138 6.64809e-07
-2.26556e-06 6.64809e-07 4.83562e-05
0.00156983 2.43687e-05 2.22306e-06
2.43687e-05 0.000112883 6.88274e-07
2.22306e-06 6.88274e-07 3.0396e-05
0.00147431 2.24578e-05 6.53515e-08
2.24578e-05 9.52856e-05 6.36581e-08
6.53515e-08 6.36581e-08 1.54385e-05
0.000915657 1.46965e-05 -6.10044e-06
1.46965e-05 -0.000126719 9.78502e-07
-6.10044e-06 9.78502e-07 -0.000198194
0.0013677 -6.59743e-08 2.56148e-06
-6.59743e-08 4.37495e-05 9.57479e-08
2.56148e-06 9.57479e-08 -3.60636e-05
0.00116265 -1.45021e-06 -2.30135e-08
-1.45021e-06 6.38965e-06 3.38326e-08
-2.30135e-08 3.38326e-08 -6.24189e-05
0.000708968 -1.86024e-06 -7.984e-06
-1.86024e-06 -9.17023e-05 2.59504e-06
-7.984e-06 2.59504e-06 -0.0001333
0.00115355 -2.28894e-05 5.02621e-06
-2.28894e-05 1.32297e-05 -1.18973e-06
5.02621e-06 -1.18973e-06 -5.55837e-05
0.000706037 -7.84273e-06 -1.03963e-07
-7.84273e-06 -8.63042e-05 1.51815e-07
-1.03963e-07 1.51815e-07 -0.000128361
0.00384921 8.04869e-05 -4.34388e-05
8.04869e-05 0.00159944 1.46216e-06
-4.34388e-05 1.46216e-06 0.00158887
0.000775136 -2.25033e-05 1.00241e-05
-2.25033e-05 -4.52784e-05 -4.25842e-06
1.00241e-05 -4.25842e-06 -8.81075e-05
0.00262348 6.5457e-05 1.6182e-05
6.5457e-05 0.000978343 9.06453e-07
1.6182e-05 9.06453e-07 0.00096079
0.00130355 4.80886e-05 7.12456e-06
4.80886e-05 0.000311613 -1.73803e-06
7.12456e-06 -1.73803e-06 0.000287945
0.00173464 -1.32024e-05 -9.1018e-07
-1.32024e-05 0.00016387 3.85031e-08
-9.1018e-07 3.85031e-08 8.23667e-05
0.00149936 5.75077e-07 -1.26235e-06
5.75077e-07 5.89465e-05 1.74622e-07
-1.26235e-06 1.74622e-07 -2.2027e-05
0.00155141 -4.88684e-06 2.80551e-08
-4.88684e-06 5.89057e-05 1.33038e-07
2.80551e-08 1.33038e-07 -2.17747e-05
0.00134517 2.36364e-05 -2.69733e-06
2.36364e-05 2.59082e-05 6.37614e-08
-2.69733e-06 6.37614e-08 -5.44991e-05
0.00143571 1.52329e-05 4.21671e-07
1.52329e-05 2.63142e-05 -1.23757e-07
4.21671e-07 -1.23757e-07 -5.7287e-05
0.00163452 6.42181e-06 1.52574e-06
6.42181e-06 9.37332e-05 -8.7297e-07
1.52574e-06 -8.7297e-07 1.13389e-05
0.000778381 3.29859e-05 -5.80545e-06
3.29859e-05 -0.00017411 -1.90559e-06
-5.80545e-06 -1.90559e-06 -0.000246034
0.00144195 5.04205e-05 -7.93655e-07
5.04205e-05 9.08801e-05 -2.21217e-07
-7.93655e-07 -2.21217e-07 8.65612e-06
0.00158195 4.73937e-05 2.8991e-06
4.73937e-05 0.000115354 -1.16853e-07
2.8991e-06 -1.16853e-07 2.83188e-05
0.000755854 3.29754e-05 -8.50037e-06
3.29754e-05 -4.6953e-05 -3.73913e-06
-8.50037e-06 -3.73913e-06 -9.17571e-05
0.000754951 3.93857e-05 -1.3385e-06
3.93857e-05 -0.000153738 -5.30486e-07
-1.3385e-06 -5.30486e-07 -0.000225248
0.00144063 6.38766e-05 3.07015e-06
6.38766e-05 0.000132878 1.02261e-06
3.07015e-06 1.02261e-06 5.20556e-05
0.00359601 -6.05975e-05 -4.43785e-05
-6.05975e-05 0.00147181 -2.88824e-06
-4.43785e-05 -2.88824e-06 0.00146328
0.000723045 2.2374e-05 -1.6076e-07
2.2374e-05 -4.42479e-05 1.35999e-07
-1.6076e-07 1.35999e-07 -8.81174e-05
0.000647242 3.68957e-05 3.17414e-06
3.68957e-05 -0.000165266 1.79457e-06
3.17414e-06 1.79457e-06 -0.000235547
0.00313733 -6.90021e-05 -1.2537e-06
-6.90021e-05 0.00123392 1.63837e-07
-1.2537e-06 1.63837e-07 0.0012283
0.000655481 4.70364e-06 5.41351e-06
4.70364e-06 -6.12029e-05 3.50246e-06
5.41351e-06 3.50246e-06 -0.000101667
0.00285717 -6.52567e-05 2.75658e-05
-6.52567e-05 0.00107508 2.98306e-06
2.75658e-05 2.98306e-06 0.0010742
0.00161315 4.33816e-07 -1.34449e-06
4.33816e-07 0.000112227 -3.55718e-07
-1.34449e-06 -3.55718e-07 2.69855e-05
0.00159493 -1.22362e-05 2.45094e-07
-1.22362e-05 8.91973e-05 2.79098e-07
2.45094e-07 2.79098e-07 5.2949e-06
0.00159682 -1.21977e-05 5.02676e-07
-1.21977e-05 7.74648e-05 -4.33143e-07
5.02676e-07 -4.33143e-07 -4.86084e-06
0.00158605 1.48629e-06 -2.8365e-06
1.48629e-06 0.000125965 1.64708e-07
-2.8365e-06 1.64708e-07 4.23412e-05
0.00161653 1.26454e-05 3.45734e-07
1.26454e-05 0.000118314 -4.72966e-08
3.45734e-07 -4.72966e-08 3.00297e-05
0.00157695 8.44114e-06 1.26611e-06
8.44114e-06 8.93408e-05 -3.15692e-07
1.26611e-06 -3.15692e-07 1.21793e-06
0.00153868 2.5303e-05 1.71e-06
2.5303e-05 9.87426e-05 -5.89138e-07
1.71e-06 -5.89138e-07 1.36376e-05
0.00154756 1.89808e-05 5.86894e-07
1.89808e-05 0.000126447 -5.35556e-08
5.86894e-07 -5.35556e-08 4.58094e-05
0.000933263 1.12978e-05 -6.03105e-06
1.12978e-05 -0.000129499 1.09565e-06
-6.03105e-06 1.09565e-06 -0.000202654
0.00163634 2.47975e-05 3.05479e-06
2.47975e-05 0.000178676 1.88155e-08
3.05479e-06 1.88155e-08 9.9866e-05
0.00104215 1.66279e-05 -9.91121e-07
1.66279e-05 -6.15194e-05 2.20023e-07
-9.91121e-07 2.20023e-07 -0.000131984
0.000723133 4.05818e-06 -8.44416e-06
4.05818e-06 -9.05495e-05 2.1798e-06
-8.44416e-06 2.1798e-06 -0.000133394
0.00115998 -1.88491e-06 5.05691e-06
-1.88491e-06 4.63474e-06 -1.0237e-06
5.05691e-06 -1.0237e-06 -6.4128e-05
0.000711472 5.38232e-06 1.67608e-07
5.38232e-06 -8.99829e-05 2.50788e-08
1.67608e-07 2.50788e-08 -0.00013191
0.00394625 7.79993e-05 -4.66763e-05
7.79993e-05 0.00164541 9.02791e-07
-4.66763e-05 9.02791e-07 0.00163528
0.000709923 -3.05008e-06 7.7023e-06
-3.05008e-06 -8.4454e-05 -2.88796e-06
7.7023e-06 -2.88796e-06 -0.000126449
0.00390364 7.93696e-05 2.03591e-07
7.93696e-05 0.00162617 1.5951e-07
2.03591e-07 1.5951e-07 0.00161571
0.00150792 2.17147e-05 4.15312e-05
2.17147e-05 0.000407724 -2.44857e-06
4.15312e-05 -2.44857e-06 0.000386027
0.00168373 -7.60416e-06 -1.23856e-06
-7.60416e-06 0.000155943 -1.67626e-07
-1.23856e-06 -1.67626e-07 7.46518e-05
0.00160891 -1.33191e-05 4.33428e-07
-1.33191e-05 0.000101506 2.6643e-07
4.33428e-07 2.6643e-07 2.03068e-05
0.00137975 9.30957e-07 -2.45117e-06
9.30957e-07 3.5949e-05 -2.26177e-07
-2.45117e-06 -2.26177e-07 -4.33785e-05
0.00151545 -5.76049e-09 2.64165e-07
-5.76049e-09 6.64078e-05 -1.47151e-07
2.64165e-07 -1.47151e-07 -1.45851e-05
0.00145622 -5.07165e-06 1.7853e-06
-5.07165e-06 1.24324e-05 -1.04285e-08
1.7853e-06 -1.04285e-08 -6.79823e-05
0.00116254 2.09657e-05 -5.30218e-06
2.09657e-05 1.42789e-06 -1.22949e-06
-5.30218e-06 -1.22949e-06 -6.83101e-05
0.00138709 2.38989e-05 -5.12e-08
2.38989e-05 4.53165e-05 1.30347e-07
-5.12e-08 1.30347e-07 -3.51158e-05
0.00147848 1.49681e-05 1.70113e-06
1.49681e-05 4.82832e-05 -6.6422e-07
1.70113e-06 -6.6422e-07 -3.49825e-05
0.000732479 2.96536e-05 -9.09212e-06
2.96536e-05 -7.21951e-05 -3.54199e-06
-9.09212e-06 -3.54199e-06 -0.000116105
0.000985316 3.6512e-05 -1.58642e-06
3.6512e-05 -7.06389e-05 -4.04864e-07
-1.58642e-06 -4.04864e-07 -0.000141923
0.001791 5.61991e-05 2.6289e-06
5.61991e-05 0.000266223 4.43559e-07
2.6289e-06 4.43559e-07 0.000185313
0.00388338 -6.39446e-05 -4.72526e-05
-6.39446e-05 0.0016172 -2.56993e-06
-4.72526e-05 -2.56993e-06 0.00160713
0.00071816 3.01506e-05 -2.15887e-08
3.01506e-05 -6.31904e-05 1.61421e-07
-2.15887e-08 1.61421e-07 -0.000108112
0.000812743 4.09622e-05 3.0578e-06
4.09622e-05 -0.000128665 1.18746e-06
3.0578e-06 1.18746e-06 -0.000200559
0.003462 -6.75182e-05 -1.33197e-06
-6.75182e-05 0.00140489 1.95055e-07
-1.33197e-06 1.95055e-07 0.00139651
0.000662394 1.88408e-05 6.27779e-06
1.88408e-05 -7.02877e-05 3.94051e-06
6.27779e-06 3.94051e-06 -0.000114309
0.00302836 -7.03736e-05 2.94146e-05
-7.03736e-05 0.00117769 2.87046e-06
2.94146e-05 2.87046e-06 0.00117269
0.00159242 5.07369e-06 -2.24921e-06
5.07369e-06 0.000132391 -5.71877e-07
-2.24921e-06 -5.71877e-07 5.09652e-05
0.00161094 -2.02258e-06 2.35749e-07
-2.02258e-06 0.000113115 1.92496e-07
2.35749e-07 1.92496e-07 2.80675e-05
0.00161238 -1.1798e-05 1.99654e-06
-1.1798e-05 9.84924e-05 8.06661e-07
1.99654e-06 8.06661e-07 1.45597e-05
0.000944371 -1.0507e-05 -6.62855e-06
-1.0507e-05 -0.000136156 3.77902e-07
-6.62855e-06 3.77902e-07 -0.000211074
0.00160267 8.3575e-06 6.10308e-07
8.3575e-06 0.000135067 1.17878e-07
6.10308e-07 1.17878e-07 5.12998e-05
0.00160492 1.26959e-05 2.16689e-06
1.26959e-05 0.000114934 -4.36578e-07
2.16689e-06 -4.36578e-07 2.67799e-05
0.00154461 1.90838e-05 3.30663e-06
1.90838e-05 0.000124691 -4.2143e-07
3.30663e-06 -4.2143e-07 4.41918e-05
0.00093035 1.12433e-05 -7.53328e-07
1.12433e-05 -0.000129576 2.00693e-07
-7.53328e-07 2.00693e-07 -0.000202382
0.000726189 9.48273e-06 -8.82915e-06
9.48273e-06 -9.83088e-05 1.52012e-06
-8.82915e-06 1.52012e-06 -0.000142413
0.00116214 1.94199e-05 4.17498e-06
1.94199e-05 3.94419e-07 -7.8257e-07
4.17498e-06 -7.8257e-07 -6.9069e-05
0.000727269 1.29775e-05 2.51511e-07
1.29775e-05 -8.83522e-05 2.91124e-08
2.51511e-07 2.91124e-08 -0.0001314
0.00404959 7.50497e-05 -4.97404e-05
7.50497e-05 0.00169384 3.5393e-07
-4.97404e-05 3.5393e-07 0.00168414
0.000714304 1.35262e-05 7.91916e-06
1.35262e-05 -8.83649e-05 -2.46513e-06
7.91916e-06 -2.46513e-06 -0.0001304
0.00399556 7.99698e-05 9.95591e-09
7.99698e-05 0.00166968 1.39712e-07
9.95591e-09 1.39712e-07 0.00165943
0.00397866 8.01495e-05 4.74363e-05
8.01495e-05 0.00166318 -1.14767e-06
4.74363e-05 -1.14767e-06 0.00165269
0.0014466 -4.91064e-06 -2.6564e-06
-4.91064e-06 6.66085e-05 -6.33856e-07
-2.6564e-06 -6.33856e-07 -1.36505e-05
0.00158102 -8.68902e-06 2.41944e-07
-8.68902e-06 0.000103343 1.34178e-07
2.41944e-07 1.34178e-07 2.20128e-05
0.00147826 -1.32525e-05 1.30406e-06
-1.32525e-05 3.66415e-05 5.02899e-07
1.30406e-06 5.02899e-07 -4.42362e-05
0.00117058 -5.85523e-07 -5.27371e-06
-5.85523e-07 -3.46644e-06 -1.2566e-06
-5.27371e-06 -1.2566e-06 -7.29811e-05
0.00140551 6.94152e-07 1.31175e-07
6.94152e-07 4.81413e-05 -9.24295e-08
1.31175e-07 -9.24295e-08 -3.1225e-05
0.00153003 -5.72057e-07 1.31304e-06
-5.72057e-07 7.3155e-05 -5.19235e-07
1.31304e-06 -5.19235e-07 -7.86032e-06
0.000719646 1.80951e-05 -9.15236e-06
1.80951e-05 -8.87945e-05 -3.13186e-06
-9.15236e-06 -3.13186e-06 -0.000131423
0.00117861 2.08313e-05 -1.08517e-07
2.08313e-05 9.67747e-06 1.49357e-07
-1.08517e-07 1.49357e-07 -6.01583e-05
0.001429 2.41083e-05 2.93097e-06
2.41083e-05 6.47309e-05 2.75677e-07
2.93097e-06 2.75677e-07 -1.57312e-05
0.00404392 -6.90081e-05 -4.87638e-05
-6.90081e-05 0.00169556 -2.11293e-06
-4.87638e-05 -2.11293e-06 0.00168508
0.000715518 2.89039e-05 8.11006e-08
2.89039e-05 -7.94304e-05 1.50901e-07
8.11006e-08 1.50901e-07 -0.000123373
0.00120074 4.0363e-05 3.79923e-06
4.0363e-05 3.72533e-05 1.29705e-06
3.79923e-06 1.29705e-06 -3.34461e-05
0.00375114 -6.7433e-05 -1.10941e-06
-6.7433e-05 0.00155177 2.09091e-07
-1.10941e-06 2.09091e-07 0.00154179
0.000681311 2.77828e-05 7.48e-06
2.77828e-05 -7.93292e-05 3.91895e-06
7.48e-06 3.91895e-06 -0.000124294
0.00331252 -7.45535e-05 3.39745e-05
-7.45535e-05 0.00133056 2.7473e-06
3.39745e-05 2.7473e-06 0.00132219
0.0012225 -1.83949e-06 -5.69659e-06
-1.83949e-06 6.60882e-06 -6.13201e-07
-5.69659e-06 -6.13201e-07 -6.56436e-05
0.00147184 1.47329e-07 6.42585e-07
1.47329e-07 7.03822e-05 -9.49082e-08
6.42585e-07 -9.49082e-08 -1.23215e-05
0.00161021 -5.51565e-06 2.03405e-06
-5.51565e-06 0.000114594 9.77066e-07
2.03405e-06 9.77066e-07 2.97434e-05
0.000729333 9.77007e-06 -9.29618e-06
9.77007e-06 -0.00010417 3.76323e-07
-9.29618e-06 3.76323e-07 -0.000148689
0.000952828 -2.93127e-06 -9.35316e-07
-2.93127e-06 -0.000131585 3.13563e-07
-9.35316e-07 3.13563e-07 -0.000206226
0.00162099 1.47005e-05 3.96459e-06
1.47005e-05 0.00014506 -4.23247e-07
3.96459e-06 -4.23247e-07 6.11372e-05
0.000927376 1.15044e-05 4.17643e-06
1.15044e-05 -0.000129803 -5.50417e-07
4.17643e-06 -5.50417e-07 -0.000202239
0.00073522 1.19041e-05 2.02206e-07
1.19041e-05 -9.37048e-05 1.75617e-07
2.02206e-07 1.75617e-07 -0.00013802
0.00420784 7.35155e-05 -5.24485e-05
7.35155e-05 0.00176809 -1.83612e-07
-5.24485e-05 -1.83612e-07 0.00175859
0.000731807 2.03898e-05 8.37115e-06
2.03898e-05 -8.58029e-05 -2.02031e-06
8.37115e-06 -2.02031e-06 -0.000129184
0.00411121 7.62161e-05 4.31499e-07
7.62161e-05 0.00172355 1.68941e-07
4.31499e-07 1.68941e-07 0.00171378
0.00404239 8.20474e-05 5.04829e-05
8.20474e-05 0.00169272 -6.09034e-07
5.04829e-05 -6.09034e-07 0.00168235
0.00120013 -6.21071e-06 -5.59391e-06
-6.21071e-06 3.58271e-06 -1.30162e-06
-5.59391e-06 -1.30162e-06 -6.70758e-05
0.00139045 -6.29806e-06 -6.24785e-08
-6.29806e-06 3.69584e-05 -8.50111e-08
-6.24785e-08 -8.50111e-08 -4.36553e-05
0.00148207 -9.83273e-06 1.51396e-06
-9.83273e-06 5.26691e-05 2.95694e-07
1.51396e-06 2.95694e-07 -2.87137e-05
0.00210415 -6.06777e-06 -2.93732e-05
-6.06777e-06 0.000606642 -1.93073e-06
-2.93732e-05 -1.93073e-06 0.000571407
0.00118988 -9.21244e-07 1.18281e-07
-9.21244e-07 6.19802e-06 4.02221e-08
1.18281e-07 4.02221e-08 -6.34656e-05
0.00143483 2.6407e-07 2.75741e-06
2.6407e-07 6.20888e-05 8.25887e-08
2.75741e-06 8.25887e-08 -1.73221e-05
0.00412662 -6.10137e-05 -5.24648e-05
-6.10137e-05 0.00173166 -1.48989e-06
-5.24648e-05 -1.48989e-06 0.00172247
0.000718819 1.8461e-05 -3.47712e-08
1.8461e-05 -8.90542e-05 1.16929e-07
-3.47712e-08 1.16929e-07 -0.000131738
0.00119439 2.01072e-05 5.46562e-06
2.01072e-05 1.78397e-05 1.53742e-06
5.46562e-06 1.53742e-06 -5.21326e-05
0.00395042 -6.25835e-05 4.52039e-07
-6.25835e-05 0.0016488 1.66929e-07
4.52039e-07 1.66929e-07 0.00163892
0.00069349 2.76508e-05 8.39493e-06
2.76508e-05 -8.91611e-05 3.69372e-06
8.39493e-06 3.69372e-06 -0.000133174
0.00362804 -7.31898e-05 4.01946e-05
-7.31898e-05 0.00149127 2.6188e-06
4.01946e-05 2.6188e-06 0.00148119
0.000770561 4.69259e-06 -1.21549e-05
4.69259e-06 -8.41485e-05 -1.12786e-06
-1.21549e-05 -1.12786e-06 -0.0001292
0.00108534 -4.54021e-06 1.34433e-07
-4.54021e-06 -6.32936e-05 2.69317e-07
1.34433e-07 2.69317e-07 -0.000136355
0.00134191 -4.58754e-06 3.64003e-06
-4.58754e-06 3.52753e-06 5.56839e-07
3.64003e-06 5.56839e-07 -8.03817e-05
0.00434946 -1.01533e-05 -5.27429e-05
-1.01533e-05 0.00183452 -7.56239e-07
-5.27429e-05 -7.56239e-07 0.00182545
0.000742274 7.1748e-06 9.99234e-08
7.1748e-06 -9.77368e-05 1.87187e-07
9.99234e-08 1.87187e-07 -0.000142527
0.000955501 4.29255e-06 4.56617e-06
4.29255e-06 -0.000129812 -7.44382e-08
4.56617e-06 -7.44382e-08 -0.000204195
0.000743125 1.8461e-05 8.95878e-06
1.8461e-05 -8.9334e-05 -1.12366e-06
8.95878e-06 -1.12366e-06 -0.000134083
0.00426673 7.70523e-05 1.95438e-06
7.70523e-05 0.00179682 2.66224e-07
1.95438e-06 2.66224e-07 0.0017871
0.00417186 7.97144e-05 5.53935e-05
7.97144e-05 0.00175306 -5.5041e-08
5.53935e-05 -5.5041e-08 0.00174303
0.00217773 -2.08238e-05 -3.3359e-05
-2.08238e-05 0.000635851 -1.76865e-06
-3.3359e-05 -1.76865e-06 0.000599246
0.00120755 -4.84356e-06 -4.74458e-08
-4.84356e-06 7.07105e-06 1.70274e-08
-4.74458e-08 1.70274e-08 -6.35256e-05
0.00133373 -7.5335e-06 2.62647e-06
-7.5335e-06 7.01008e-06 4.74276e-07
2.62647e-06 4.74276e-07 -7.39518e-05
0.00405948 -7.55311e-05 -1.39831e-05
-7.55311e-05 0.00169979 -5.84779e-07
-1.39831e-05 -5.84779e-07 0.00168892
0.000733255 3.55893e-06 -6.20638e-08
3.55893e-06 -8.86011e-05 5.36499e-08
-6.20638e-08 5.36499e-08 -0.000131229
0.00121142 1.60606e-08 5.45895e-06
1.60606e-08 1.67865e-05 1.2703e-06
5.45895e-06 1.2703e-06 -5.29594e-05
0.00406101 -5.88183e-05 5.99794e-07
-5.88183e-05 0.00169978 1.68911e-07
5.99794e-07 1.68911e-07 0.00169059
0.000713992 1.96004e-05 9.108e-06
1.96004e-05 -9.13087e-05 3.31262e-06
9.108e-06 3.31262e-06 -0.000134004
0.00385297 -6.42106e-05 4.52425e-05
-6.42106e-05 0.00160123 2.29325e-06
4.52425e-05 2.29325e-06 0.00159134
0.00156454 -8.35928e-06 -5.51261e-05
-8.35928e-06 0.000414715 -2.4537e-07
-5.51261e-05 -2.4537e-07 0.00039322
0.00147871 -1.48148e-06 -1.26697e-05
-1.48148e-06 0.000276085 3.66509e-07
-1.26697e-05 3.66509e-07 0.000235443
0.000959991 -3.4389e-06 5.70837e-06
-3.4389e-06 -0.000127301 9.59864e-07
5.70837e-06 9.59864e-07 -0.000201143
0.004358 3.73307e-07 2.26227e-06
3.73307e-07 0.00183954 -4.39164e-07
2.26227e-06 -4.39164e-07 0.00183001
0.000746743 5.67675e-06 9.57334e-06
5.67675e-06 -9.5455e-05 -1.94854e-09
9.57334e-06 -1.94854e-09 -0.000140303
0.00432147 7.245e-05 5.77441e-05
7.245e-05 0.00182287 5.33152e-07
5.77441e-05 5.33152e-07 0.00181341
0.00142084 -3.07278e-05 -8.58779e-06
-3.07278e-05 0.000351021 -9.55136e-07
-8.58779e-06 -9.55136e-07 0.000327616
0.00146803 -3.20064e-06 -1.19471e-05
-3.20064e-06 0.000276708 1.79676e-07
-1.19471e-05 1.79676e-07 0.000236846
0.00121368 -5.97967e-06 5.35509e-06
-5.97967e-06 1.00253e-05 1.26221e-06
5.35509e-06 1.26221e-06 -6.05744e-05
0.00275353 -4.38779e-05 2.23512e-05
-4.38779e-05 0.00103204 -4.58127e-09
2.23512e-05 -4.58127e-09 0.00101615
0.000741061 9.10066e-06 9.4308e-06
9.10066e-06 -8.56169e-05 2.82287e-06
9.4308e-06 2.82287e-06 -0.000128181
0.00400473 -5.39514e-05 4.98431e-05
-5.39514e-05 0.00167204 1.81047e-06
4.98431e-05 1.81047e-06 0.00166314
0.00437447 -6.21885e-05 -1.71497e-06
-6.21885e-05 0.00184571 2.69973e-07
-1.71497e-06 2.69973e-07 0.001837
0.000747564 2.80186e-06 9.64063e-06
2.80186e-06 -9.51137e-05 1.30101e-06
9.64063e-06 1.30101e-06 -0.000139614
0.00438077 2.66797e-05 5.71262e-05
2.66797e-05 0.00185004 -5.97843e-07
5.71262e-05 -5.97843e-07 0.00184056
0.00285482 -4.66156e-05 2.28443e-05
-4.66156e-05 0.00107773 -8.71142e-08
2.28443e-05 -8.71142e-08 0.00106144
0.000757189 3.18656e-06 9.43282e-06
3.18656e-06 -8.40197e-05 2.23633e-06
9.43282e-06 2.23633e-06 -0.000127642
0.004108 -5.33255e-05 5.22402e-05
-5.33255e-05 0.00171962 1.26044e-06
5.22402e-05 1.26044e-06 0.00171113
0.00432779 -7.90701e-05 5.35665e-05
-7.90701e-05 0.00182501 6.43551e-09
5.35665e-05 6.43551e-09 0.00181493
0.00422488 -5.6113e-05 5.38031e-05
-5.6113e-05 0.0017744 6.52034e-07
5.38031e-05 6.52034e-07 0.0017659
