# vtk DataFile Version 2.0
Wound Healing Simulation
ASCII
DATASET UNSTRUCTURED_GRID
POINTS 3012 float
69.9759 18.75 4
67.2507 60.3285 4
69.976 18.75 2
73.0099 25.446 4
71.1327 20.9142 4
68.6801 16.6661 4
67.8277 19.9241 3.98816
67.2507 60.3286 2
71.1327 54.0858 4
68.6801 58.3339 4
65.6939 62.2254 4
65.3141 59.0046 3.98933
74.6784 42.3946 4
73.7221 47.2057 4
69.9759 18.75 0
73.0099 25.446 2
68.6801 16.6661 2
71.1327 20.9142 2
67.8282 19.9249 2
74.6792 32.6053 4
73.7222 27.7943 4
72.1454 23.1494 4
70.6161 26.2226 3.98693
68.8881 21.9576 3.98788
67.2507 14.6715 4
66.6391 17.9686 3.98876
65.8038 21.0203 3.98353
67.2507 60.3285 0
71.1327 54.0858 2
68.6801 58.3339 2
65.694 62.2255 2
65.3144 59.0045 2
72.1454 51.8506 4
69.9759 56.25 4
68.839 53.1133 3.98765
64.0165 64.0165 4
66.6129 57.1365 3.98891
63.8874 60.7693 3.99052
63.5057 57.7798 3.98481
60.3285 67.2507 4
74.6792 42.3947 2
73.7222 47.2057 2
74.9194 39.9526 4
74.2788 44.8158 4
72.1693 42.0852 3.98543
73.0099 49.554 4
71.2512 46.5968 3.98685
73.0099 25.446 0
71.1327 20.9142 0
68.6801 16.6661 0
67.8277 19.9241 0.0118404
74.6792 32.6053 2
73.7222 27.7943 2
67.2508 14.6715 2
72.1455 23.1494 2
70.6162 26.2234 2
66.6396 17.9689 2
68.8885 21.9589 2
65.8041 21.0197 2
74.9197 35.0474 4
74.2794 30.1841 4
72.1859 32.9434 3.98558
71.2798 28.4326 3.98658
69.8179 24.0606 3.9875
68.352 26.9515 3.97976
66.7692 22.9304 3.98258
65.694 12.7746 4
65.3255 16.0995 3.98974
64.7201 19.1874 3.98453
63.8978 22.0267 3.98085
71.1327 54.0858 0
65.6939 62.2254 0
68.6801 58.3339 0
65.3141 59.0046 0.010673
72.1455 51.8506 2
69.9759 56.25 2
68.8393 53.1121 2
64.0165 64.0165 2
66.6132 57.1361 2
63.8876 60.7693 2
63.5058 57.7803 2
62.2254 65.694 4
58.8945 65.4163 3.99263
69.7714 50.9878 3.98729
67.7862 55.169 3.98836
66.6566 52.2118 3.98232
62.3373 62.4303 3.99161
64.6674 56.0382 3.98486
62.2067 59.4132 3.98512
61.8318 56.6933 3.98255
58.3339 68.6801 4
60.3285 67.2508 2
73.7221 47.2057 0
74.6784 42.3946 0
74.9197 39.9526 2
74.2794 44.8159 2
72.1694 42.0857 2
73.0099 49.554 2
71.2511 46.5967 2
75 37.5 4
72.4062 39.8019 3.98447
71.7841 44.3521 3.98633
69.8078 41.7889 3.97835
70.5774 48.812 3.98714
68.9176 46.0143 3.97927
74.6792 32.6053 0
73.7222 27.7943 0
67.2507 14.6715 0
72.1454 23.1494 0
70.6161 26.2226 0.0130732
68.8881 21.9576 0.0121162
66.6391 17.9686 0.0112377
65.8038 21.0203 0.0164735
74.9197 35.0474 2
74.2794 30.1841 2
72.1859 32.9435 2
71.2799 28.4331 2
65.694 12.7745 2
65.3258 16.0994 2
69.8181 24.0618 2
68.352 26.9514 2
64.7204 19.1866 2
66.7693 22.93 2
63.8981 22.026 2
72.414 35.224 3.98445
71.8053 30.6769 3.98633
69.8435 33.2687 3.97839
68.9707 29.0386 3.97908
67.6174 24.9109 3.98121
66.2023 27.6326 3.97695
64.0165 10.9835 4
64.7671 23.8239 3.97993
63.8914 14.3235 3.99073
63.5183 17.4376 3.98554
62.9171 20.309 3.9817
62.1068 22.9313 3.97949
60.6847 11.0949 3.99201
57.6131 11.4395 3.98714
72.1454 51.8506 0
69.9759 56.25 0
68.839 53.1133 0.012348
64.0165 64.0165 0
63.8874 60.7693 0.00947903
66.6129 57.1365 0.011085
63.5057 57.7798 0.0151883
62.2255 65.694 2
58.8947 65.4164 2
69.7715 50.9868 2
67.7866 55.1681 2
66.6566 52.2122 2
62.3375 62.4302 2
64.6676 56.0389 2
62.2067 59.4136 2
61.8318 56.6939 2
60.6694 63.9794 3.99216
57.025 66.737 3.99312
57.5585 63.6976 3.98748
67.5141 50.1778 3.98096
65.7092 54.1779 3.98382
64.5489 51.3912 3.97921
60.7756 60.9461 3.9859
62.8308 55.0786 3.98278
60.6648 58.1719 3.98257
60.3392 55.8008 3.98161
56.25 69.9759 4
58.3339 68.6801 2
60.3285 67.2507 0
58.9216 9.65327 3.99249
62.2254 9.30607 4
73.0099 49.554 0
74.2788 44.8158 0
71.2512 46.5968 0.0131479
72.1693 42.0852 0.0145696
74.9194 39.9526 0
75 37.5 2
72.4062 39.8024 2
71.784 44.3524 2
69.8079 41.789 2
70.5774 48.8114 2
68.9175 46.0143 2
72.4894 37.5118 3.984
70.0438 39.6567 3.97713
69.435 43.9067 3.97901
67.6034 41.4976 3.9754
68.2719 48.1072 3.97999
66.718 45.441 3.97659
74.9197 35.0474 0
74.2794 30.1841 0
72.1859 32.9434 0.0144155
71.2798 28.4326 0.0134228
65.694 12.7746 0
65.3255 16.0995 0.0102563
69.8179 24.0606 0.0124974
68.352 26.9515 0.0202398
66.7692 22.9304 0.0174191
64.7201 19.1874 0.0154748
63.8978 22.0267 0.0191515
72.414 35.2241 2
71.8053 30.677 2
69.8436 33.2688 2
68.9707 29.0387 2
64.0165 10.9835 2
63.8916 14.3234 2
63.5186 17.4369 2
67.6174 24.9107 2
66.2023 27.6322 2
62.9176 20.3082 2
64.7673 23.8233 2
62.1072 22.9307 2
60.6848 11.0949 2
57.613 11.4388 2
70.0604 35.392 3.97733
69.4713 31.1499 3.97895
67.661 33.5901 3.97538
66.7791 29.6214 3.97614
65.5334 25.6955 3.97838
64.1561 28.2509 3.97606
62.3426 12.6519 3.99145
62.8705 24.6279 3.97877
62.2023 15.7753 3.98579
61.8221 18.6715 3.98293
61.2308 21.3272 3.97987
60.4423 23.7128 3.97915
59.2475 12.7705 3.98609
55.8748 10.2262 3.98848
56.4066 13.1018 3.98409
69.7714 50.9878 0.0127117
62.2254 65.694 0
58.8945 65.4163 0.00736959
67.7862 55.169 0.0116425
66.6566 52.2118 0.0176839
62.3373 62.4303 0.00839264
62.2067 59.4132 0.0148818
64.6674 56.0382 0.0151356
61.8318 56.6933 0.0174497
60.6696 63.9794 2
57.0252 66.7371 2
57.5585 63.6981 2
67.5139 50.178 2
65.7094 54.1786 2
64.5489 51.3919 2
60.7755 60.9467 2
62.831 55.0794 2
60.6648 58.1725 2
60.3393 55.8013 2
55.0704 67.9338 3.99341
59.2207 62.3733 3.98643
55.8047 64.9148 3.9887
56.3284 62.0986 3.98448
65.3421 49.412 3.97786
63.7176 53.3008 3.98109
62.4564 50.6609 3.97767
59.3375 59.5686 3.98378
61.0907 54.3229 3.98189
59.2976 57.0278 3.98079
59.2549 55.1996 3.98194
48.1028 68.5819 3.99027
50.9482 69.9332 3.99387
54.0858 71.1327 4
56.25 69.976 2
58.3339 68.6801 0
57.0587 8.33319 3.993
60.3285 7.74928 4
58.9218 9.65317 2
62.2255 9.30602 2
70.5774 48.812 0.0128638
71.7841 44.3521 0.0136685
68.9176 46.0143 0.0207263
69.8078 41.7889 0.0216478
72.4062 39.8019 0.0155335
75 37.5 0
72.4894 37.5122 2
70.044 39.6568 2
69.435 43.9068 2
67.6036 41.4979 2
68.2718 48.1073 2
66.7179 45.4414 2
70.1314 37.5212 3.97665
67.8388 39.512 3.97421
67.231 43.4705 3.97619
65.5641 41.2111 3.97454
66.078 47.4202 3.97723
64.6629 44.8515 3.9757
72.414 35.224 0.0155482
71.8053 30.6769 0.013665
69.8435 33.2687 0.0216144
68.9707 29.0386 0.0209166
64.0165 10.9835 0
63.8914 14.3235 0.00926923
63.5183 17.4376 0.0144581
67.6174 24.9109 0.0187935
66.2023 27.6326 0.0230466
64.7671 23.8239 0.020066
62.9171 20.309 0.0183047
62.1068 22.9313 0.0205099
60.6847 11.0949 0.00798562
57.6131 11.4395 0.0128602
70.0606 35.3922 2
69.4714 31.15 2
67.6613 33.5899 2
66.7792 29.6212 2
62.3427 12.6519 2
62.2024 15.7748 2
61.8224 18.6708 2
65.5334 25.695 2
64.1562 28.2505 2
61.2313 21.3266 2
62.8707 24.6274 2
60.4426 23.7124 2
59.2474 12.7699 2
56.4065 13.1011 2
55.8748 10.2254 2
67.8748 35.547 3.97451
67.2719 31.6212 3.97612
65.705 33.9252 3.97426
64.6717 30.1886 3.97494
63.5499 26.4076 3.97715
62.269 28.7707 3.97652
60.7772 14.2149 3.98571
61.0611 25.3257 3.97849
60.6182 17.1148 3.98385
60.2333 19.8004 3.98131
59.6765 22.2416 3.9786
58.9967 24.3036 3.9793
54.0378 9.12976 3.98916
57.9123 14.3202 3.98396
54.7875 12.0011 3.98511
55.3143 14.6322 3.98285
67.5141 50.1778 0.0190392
57.025 66.737 0.0068812
60.6694 63.9794 0.00783774
57.5585 63.6976 0.0125219
65.7092 54.1779 0.0161765
64.5489 51.3912 0.0207884
60.7756 60.9461 0.0141004
60.6648 58.1719 0.0174313
62.8308 55.0786 0.0172165
60.3392 55.8008 0.0183852
55.0707 67.9339 2
59.2207 62.374 2
55.8046 64.9153 2
56.3284 62.0992 2
65.3419 49.4126 2
63.7177 53.3016 2
62.4564 50.6616 2
59.3375 59.5693 2
61.0908 54.3235 2
59.2976 57.0283 2
59.255 55.2001 2
53.0423 69.0015 3.99366
53.9668 66.0167 3.98935
57.8833 60.8802 3.98412
54.6844 63.2145 3.98547
55.2137 60.6267 3.983
63.2076 48.6675 3.97649
61.7565 52.5867 3.97971
60.2912 50.031 3.97683
58.0239 58.2749 3.98196
59.3424 53.9632 3.98111
58.1371 55.8298 3.97907
50.1093 67.8599 3.99004
47.4633 66.5863 3.98803
46.0566 69.1615 3.99052
48.1029 68.5823 2
48.8024 70.7244 3.99406
50.9484 69.9333 2
51.8506 72.1454 4
54.0858 71.1327 2
56.25 69.9759 0
55.1029 7.1378 3.99327
58.3339 6.31992 4
57.0589 8.33301 2
60.3286 7.74926 2
58.9216 9.65327 0.00751318
62.2254 9.30607 0
68.2719 48.1072 0.0200145
69.435 43.9067 0.0209947
66.718 45.441 0.0234061
67.6034 41.4976 0.0245972
70.0438 39.6567 0.02287
72.4894 37.5118 0.0159959
70.1316 37.5213 2
67.8391 39.5122 2
67.231 43.4708 2
65.5644 41.2115 2
66.0779 47.4207 2
64.6629 44.8519 2
67.9344 37.5216 3.97351
65.7937 39.3706 3.97338
65.1856 43.0275 3.97527
63.7658 40.9321 3.9743
63.9776 46.7212 3.97616
62.82 44.2214 3.97638
70.0604 35.392 0.0226739
69.4713 31.1499 0.0210526
67.661 33.5901 0.0246181
66.7791 29.6214 0.0238558
62.3426 12.6519 0.00854881
62.2023 15.7753 0.0142136
61.8221 18.6715 0.0170658
65.5334 25.6955 0.0216229
64.1561 28.2509 0.0239389
62.8705 24.6279 0.0212256
61.2308 21.3272 0.0201306
60.4423 23.7128 0.0208471
59.2475 12.7705 0.0139083
56.4066 13.1018 0.0159129
55.8748 10.2262 0.0115202
67.8751 35.5469 2
67.272 31.621 2
65.7054 33.925 2
64.6718 30.1882 2
60.7772 14.2142 2
60.6184 17.114 2
60.2338 19.7996 2
63.5501 26.4071 2
62.2691 28.7703 2
59.6771 22.2411 2
61.0614 25.3252 2
58.9971 24.3033 2
57.9122 14.3196 2
55.3143 14.6315 2
54.0377 9.12916 2
54.7875 12.0002 2
65.8823 35.6656 3.97348
65.1947 32.1512 3.97488
64.2928 34.2473 3.97424
62.6056 30.6299 3.97481
61.6651 27.063 3.97664
60.8636 29.1313 3.97868
59.3137 15.6569 3.98406
59.3493 25.7822 3.9797
59.1306 18.34 3.98289
58.7526 20.8359 3.97959
58.3018 23.0737 3.97736
57.9874 24.6471 3.97985
52.1124 8.14854 3.98955
53.0583 11.0076 3.9861
56.6791 15.7284 3.98317
53.8107 13.6673 3.98338
54.3785 15.9831 3.98264
55.0704 67.9338 0.00658518
65.3421 49.412 0.0221354
55.8047 64.9148 0.0112961
59.2207 62.3733 0.0135729
56.3284 62.0986 0.0155163
63.7176 53.3008 0.0189114
62.4564 50.6609 0.0223276
59.3375 59.5686 0.0162176
59.2976 57.0278 0.0192144
61.0907 54.3229 0.0181071
59.2549 55.1996 0.0180597
53.0425 69.0016 2
53.9667 66.0171 2
57.8833 60.8807 2
54.6843 63.215 2
55.2136 60.6273 2
63.2075 48.6681 2
61.7567 52.5874 2
60.2912 50.0317 2
58.0239 58.2756 2
59.3426 53.9638 2
58.1371 55.8302 2
52.0703 67.003 3.98977
52.9533 64.2245 3.98645
56.652 59.5009 3.98295
53.6823 61.6314 3.98377
54.2632 59.3333 3.98188
61.0098 47.8897 3.97572
59.7274 52.1195 3.9794
58.0457 49.632 3.97809
56.784 57.0039 3.97948
57.1353 54.1402 3.97882
50.1093 67.8602 2
49.3369 65.9265 3.98771
47.4632 66.5868 2
46.8921 64.7437 3.98632
45.5585 67.104 3.98799
43.9737 69.594 3.99064
46.0567 69.1619 2
46.6092 71.3689 3.99429
48.1028 68.5819 0.00973151
48.8027 70.7246 2
49.554 73.0099 4
50.9482 69.9332 0.00613214
51.8506 72.1455 2
54.0858 71.1327 0
53.0639 6.06942 3.99349
55.1031 7.13764 2
56.25 5.02411 4
58.3339 6.3199 2
57.0587 8.33319 0.00699784
60.3285 7.74928 0
66.078 47.4202 0.022766
67.231 43.4705 0.0238109
64.6629 44.8515 0.0242969
65.5641 41.2111 0.0254621
67.8388 39.512 0.0257928
70.1314 37.5212 0.0233454
67.9346 37.5216 2
65.794 39.3708 2
65.1858 43.028 2
63.7661 40.9324 2
63.9775 46.7217 2
62.82 44.2219 2
65.8954 37.5013 3.97221
63.9079 39.2677 3.97327
63.3407 42.5541 3.9751
62.4435 40.7006 3.97455
61.9821 45.9259 3.97628
61.4666 43.6898 3.97704
67.8748 35.547 0.0254908
67.2719 31.6212 0.0238811
65.705 33.9252 0.0257385
64.6717 30.1886 0.0250557
60.7772 14.2149 0.0142899
60.6182 17.1148 0.016148
60.2333 19.8004 0.0186877
63.5499 26.4076 0.0228458
62.269 28.7707 0.0234797
61.0611 25.3257 0.0215093
59.6765 22.2416 0.0214029
58.9967 24.3036 0.0207014
57.9123 14.3202 0.0160414
55.3143 14.6322 0.0171543
54.0378 9.12976 0.0108424
54.7875 12.0011 0.0148877
65.8827 35.6655 2
65.195 32.1508 2
64.2932 34.247 2
62.6057 30.6295 2
59.3138 15.6561 2
59.131 18.3391 2
58.7533 20.8352 2
61.6653 27.0627 2
60.8637 29.1309 2
58.3023 23.0733 2
59.3497 25.7819 2
57.9879 24.6468 2
56.679 15.7276 2
54.3785 15.9822 2
53.8107 13.6664 2
52.1124 8.14797 2
53.0582 11.007 2
64.0983 35.6306 3.97305
62.9414 33.042 3.97396
60.6279 30.6033 3.97514
59.5884 27.8989 3.97771
57.9433 16.9689 3.98332
57.7601 25.7093 3.98112
57.7232 19.4585 3.9817
57.3847 21.8207 3.97738
57.2043 23.9282 3.97708
50.1124 7.2808 3.98978
51.2325 10.1164 3.98681
52.1726 12.7847 3.98454
55.5404 16.9566 3.9831
52.9792 15.2483 3.98181
53.7608 16.9643 3.98295
53.0423 69.0015 0.00634114
53.9668 66.0167 0.0106472
63.2076 48.6675 0.0235137
54.6844 63.2145 0.0145272
57.8833 60.8802 0.0158849
55.2137 60.6267 0.0170035
61.7565 52.5867 0.0202902
60.2912 50.031 0.0231746
58.0239 58.2749 0.0180374
58.1371 55.8298 0.0209321
59.3424 53.9632 0.0188946
52.0703 67.0034 2
52.9532 64.225 2
56.6519 59.5015 2
53.6821 61.6319 2
54.2631 59.334 2
61.0098 47.8903 2
59.7275 52.1201 2
58.0456 49.6326 2
56.7841 57.0046 2
57.1354 54.1406 2
51.1678 65.1334 3.98719
52.0464 62.5463 3.98464
55.4852 58.2635 3.98242
52.8364 60.1458 3.98249
53.6438 58.4838 3.98144
58.3264 46.8612 3.97856
57.5793 51.8034 3.97848
56.2692 49.5698 3.98134
55.4807 55.8109 3.97789
55.3724 53.4006 3.97501
50.1093 67.8599 0.00996103
49.3368 65.9269 2
48.6179 64.1298 3.98587
47.4633 66.5863 0.011973
45.5584 67.1045 2
46.892 64.7441 2
46.3816 63.0623 3.98498
45.1324 65.2053 3.98649
43.6317 67.4751 3.98817
41.8609 69.8816 3.99066
43.9737 69.5944 2
44.3766 71.8637 3.99432
46.0566 69.1615 0.00948038
46.6094 71.3691 2
47.2057 73.7222 4
48.8024 70.7244 0.00594218
49.554 73.0099 2
51.8506 72.1454 0
50.9537 5.12992 3.99367
53.0641 6.06922 2
54.0858 3.86728 4
55.1029 7.1378 0.00672707
56.25 5.02406 2
58.3339 6.31992 0
63.9776 46.7212 0.0238393
65.1856 43.0275 0.0247317
62.82 44.2214 0.0236203
63.7658 40.9321 0.0257001
65.7937 39.3706 0.0266229
67.9344 37.5216 0.0264864
65.8957 37.5014 2
63.9083 39.2679 2
63.3409 42.5545 2
62.4439 40.701 2
61.9822 45.9265 2
61.4668 43.6903 2
63.9665 37.4565 3.97192
62.1699 39.3565 3.9739
61.2339 41.9634 3.97508
60.2675 44.7788 3.97752
65.8823 35.6656 0.0265229
65.1947 32.1512 0.0251248
64.2928 34.2473 0.0257619
62.6056 30.6299 0.0251851
59.3137 15.6569 0.0159407
59.1306 18.34 0.0171113
58.7526 20.8359 0.02041
61.6651 27.063 0.0233611
60.8636 29.1313 0.0213167
59.3493 25.7822 0.0203044
58.3018 23.0737 0.0226361
57.9874 24.6471 0.0201469
56.6791 15.7284 0.0168347
54.3785 15.9831 0.0173625
53.8107 13.6673 0.0166233
52.1124 8.14854 0.0104511
53.0583 11.0076 0.0138964
64.0988 35.6305 2
62.9418 33.0416 2
60.628 30.6028 2
57.9435 16.968 2
57.7239 19.4576 2
57.3854 21.8201 2
59.5885 27.8985 2
57.2048 23.9279 2
57.7605 25.709 2
50.1124 7.28027 2
55.5405 16.9557 2
53.7608 16.9634 2
52.9791 15.2474 2
52.1726 12.784 2
51.2325 10.1158 2
62.201 35.3566 3.97258
60.3065 32.7393 3.97341
58.6391 30.0645 3.97537
57.3131 27.365 3.97981
56.6407 18.1399 3.98318
56.3132 25.0839 3.97742
56.3667 20.5029 3.97955
56.1243 22.8491 3.97423
48.0562 6.52403 3.99003
49.3243 9.32472 3.98731
50.4332 11.9834 3.98488
51.3788 14.4839 3.98294
54.4183 17.9046 3.98293
52.3634 17.0201 3.98177
52.0703 67.003 0.010232
52.9533 64.2245 0.0135491
61.0098 47.8897 0.0242755
53.6823 61.6314 0.0162315
56.652 59.5009 0.0170464
54.2632 59.3333 0.0181181
59.7274 52.1195 0.0205985
58.0457 49.632 0.0219118
56.784 57.0039 0.0205219
57.1353 54.1402 0.0211844
51.1676 65.1338 2
52.0463 62.5469 2
55.4851 58.2642 2
52.8362 60.1463 2
53.6437 58.4844 2
58.3264 46.8619 2
57.5793 51.8039 2
56.2691 49.5704 2
55.4809 55.8116 2
55.3725 53.4011 2
50.3461 63.3878 3.9854
51.245 60.9444 3.98303
54.225 57.2785 3.98119
52.3156 58.6459 3.98111
56.7442 44.1969 3.97582
55.5182 47.9122 3.9813
55.0892 51.405 3.97553
54.0155 54.5629 3.97588
49.3369 65.9265 0.0122936
48.6177 64.1302 2
47.9619 62.4831 3.98464
45.5585 67.104 0.0120059
46.8921 64.7437 0.0136798
43.6317 67.4755 2
46.3813 63.0627 2
45.1323 65.2058 2
45.9869 61.5958 3.9839
44.7668 63.4637 3.98548
43.3564 65.5154 3.98668
41.6638 67.6944 3.98816
39.7026 70.0287 3.99055
41.8609 69.882 2
42.1111 72.2085 3.99427
43.9737 69.594 0.00935725
44.3768 71.864 2
44.8159 74.2794 4
46.6092 71.3689 0.0057133
47.2057 73.7222 2
49.554 73.0099 0
48.7842 4.321 3.99389
50.9538 5.1297 2
51.8506 2.85458 4
53.0639 6.06942 0.00650666
54.0858 3.86728 2
56.25 5.02411 0
61.9821 45.9259 0.0237194
63.3407 42.5541 0.0248954
61.4666 43.6898 0.0229635
62.4435 40.7006 0.0254481
63.9079 39.2677 0.0267345
65.8954 37.5013 0.0277862
63.9669 37.4565 2
62.1704 39.3568 2
61.2342 41.9638 2
60.2676 44.7794 2
62.0063 37.444 3.97226
60.2671 39.8506 3.97487
59.0169 42.9262 3.97506
64.0983 35.6306 0.0269524
62.9414 33.042 0.0260429
60.6279 30.6033 0.0248623
57.9433 16.9689 0.0166793
57.7232 19.4585 0.0183014
57.3847 21.8207 0.0226165
59.5884 27.8989 0.0222873
57.7601 25.7093 0.0188792
57.2043 23.9282 0.0229194
55.5404 16.9566 0.0169041
53.7608 16.9643 0.0170548
52.9792 15.2483 0.0181913
50.1124 7.2808 0.010221
52.1726 12.7847 0.0154605
51.2325 10.1164 0.0131875
62.2017 35.3565 2
60.307 32.7389 2
58.6393 30.064 2
56.6411 18.1389 2
56.3676 20.5019 2
56.1251 22.8488 2
57.3132 27.3646 2
56.3138 25.0841 2
48.0562 6.52358 2
49.3243 9.32416 2
54.4185 17.9036 2
52.3633 17.0191 2
51.3787 14.483 2
50.4332 11.9827 2
59.9117 35.1163 3.97255
58.0163 32.2615 3.97396
56.5678 29.3239 3.97506
55.4723 26.5824 3.98073
55.3474 19.173 3.98285
54.9482 24.0367 3.9729
55.0126 21.5432 3.97771
45.9621 5.87912 3.99037
43.3733 7.46817 3.98844
47.3547 8.61872 3.98755
48.5998 11.2852 3.98559
49.7144 13.7315 3.98374
50.6351 16.1176 3.98114
53.1283 18.6437 3.98154
51.3053 18.0331 3.98434
51.1678 65.1334 0.0128135
52.0464 62.5463 0.0153558
58.3264 46.8612 0.0214445
52.8364 60.1458 0.0175082
55.4852 58.2635 0.0175792
53.6438 58.4838 0.0185578
57.5793 51.8034 0.0215193
56.2692 49.5698 0.0186577
55.4807 55.8109 0.0221072
55.3724 53.4006 0.0249941
50.346 63.3882 2
51.2448 60.945 2
54.2251 57.2792 2
52.3154 58.6465 2
56.7446 44.1976 2
55.5181 47.913 2
55.0892 51.4053 2
54.0156 54.5636 2
49.592 61.7528 3.98409
55.6784 41.7162 3.97613
50.5687 59.3386 3.98118
52.1912 56.5025 3.97862
54.218 45.584 3.97814
53.368 49.3431 3.97665
52.6839 52.8683 3.97434
48.6179 64.1298 0.0141253
47.9616 62.4834 2
47.3292 61.0185 3.98339
43.6317 67.4751 0.0118326
45.1324 65.2053 0.0135124
46.3816 63.0623 0.0150166
41.6637 67.6948 2
43.3563 65.5159 2
45.9867 61.5961 2
44.7666 63.4642 2
45.7661 60.6403 3.98315
44.4827 61.8457 3.98418
43.146 63.7365 3.9853
41.5459 65.6537 3.98678
39.6328 67.7742 3.98809
37.526 70.054 3.9905
39.7026 70.0292 2
39.8179 72.4056 3.99418
41.8609 69.8816 0.00933776
42.1112 72.2088 2
42.3947 74.6792 4
44.3766 71.8637 0.00567631
44.8159 74.2794 2
47.2057 73.7222 0
43.8514 5.35625 3.9906
46.5702 3.64561 3.99413
48.7843 4.32079 2
49.554 1.99015 4
50.9537 5.12992 0.00632875
51.8506 2.85453 2
54.0858 3.86728 0
60.2675 44.7788 0.0224776
61.2339 41.9634 0.0249192
62.1699 39.3565 0.0260982
63.9665 37.4565 0.0280807
62.0067 37.4442 2
60.2678 39.8508 2
59.0172 42.9266 2
59.7831 37.5673 3.97322
58.0305 40.662 3.97422
55.1572 39.7274 3.97538
62.201 35.3566 0.0274175
60.3065 32.7393 0.0265919
58.6391 30.0645 0.0246288
56.6407 18.1399 0.0168162
56.3667 20.5029 0.0204515
56.1243 22.8491 0.0257714
57.3131 27.365 0.0201908
56.3132 25.0839 0.0225825
54.4183 17.9046 0.0170737
52.3634 17.0201 0.0182273
51.3788 14.4839 0.017058
48.0562 6.52403 0.00996995
49.3243 9.32472 0.0126949
50.4332 11.9834 0.0151164
59.9126 35.1163 2
45.9621 5.87866 2
43.3734 7.46771 2
58.0167 32.2611 2
56.5679 29.3234 2
55.3481 19.1718 2
55.0137 21.5421 2
54.949 24.0375 2
55.4725 26.5826 2
47.3547 8.61829 2
48.5997 11.2846 2
53.1286 18.6426 2
51.3054 18.0321 2
50.6349 16.1166 2
49.7142 13.7307 2
57.4258 34.755 3.9757
55.7565 31.5069 3.97135
54.5408 28.3865 3.97831
53.7953 25.48 3.97525
53.9751 20.1198 3.983
53.5945 22.6879 3.97333
41.3984 7.07334 3.98862
45.3594 7.99011 3.98791
42.8649 9.40861 3.9869
46.666 10.6462 3.98576
47.7452 13.092 3.984
48.9322 15.3885 3.98282
50.0081 17.6867 3.9793
51.6558 19.3103 3.98577
50.3461 63.3878 0.0146017
51.245 60.9444 0.0169656
56.7442 44.1969 0.0241781
55.5182 47.9122 0.0187018
52.3156 58.6459 0.0188876
54.225 57.2785 0.0188065
55.0892 51.405 0.0244662
54.0155 54.5629 0.0241236
49.5917 61.7533 2
55.6794 41.7161 2
50.5684 59.3392 2
52.1912 56.5033 2
54.2183 45.5851 2
53.3677 49.3432 2
52.6841 52.8683 2
48.8496 60.2112 3.98271
52.5885 42.6605 3.97444
49.7927 57.6387 3.98056
50.6045 54.4387 3.97627
51.857 47.2871 3.97996
51.2381 50.9621 3.97212
48.2547 43.7924 3.98581
47.9619 62.4831 0.0153575
47.3289 61.0188 2
46.619 59.8053 3.98262
41.6638 67.6944 0.011837
43.3564 65.5154 0.013319
44.7668 63.4637 0.0145185
45.9869 61.5958 0.0161019
39.6328 67.7747 2
41.5459 65.654 2
45.7658 60.6405 2
43.1458 63.7369 2
44.4825 61.8461 2
44.6234 60.3029 3.98339
42.9499 62.0946 3.98477
41.5994 63.8304 3.98532
39.6476 65.6223 3.98675
37.5633 67.7568 3.98805
31.6972 65.1411 3.98692
33.392 67.4944 3.98799
35.3333 69.9641 3.99047
37.526 70.0545 2
37.5096 72.4602 3.99411
39.7026 70.0287 0.00945173
39.8179 72.4059 2
39.9526 74.9197 4
42.1111 72.2085 0.00572565
42.3947 74.6792 2
44.8159 74.2794 0
41.736 4.96534 3.99085
43.8515 5.3558 2
44.3256 3.10895 3.99424
46.5704 3.64537 2
47.2057 1.27793 4
48.7842 4.321 0.00611073
49.554 1.99013 2
51.8506 2.85458 0
59.0169 42.9262 0.0249399
60.2671 39.8506 0.0251275
62.0063 37.444 0.027738
59.7835 37.5675 2
58.0313 40.662 2
55.1577 39.7274 2
56.8632 37.8959 3.97512
49.7037 41.3327 3.97975
53.1987 39.3117 3.97424
39.4417 6.7968 3.98882
59.9117 35.1163 0.0274451
58.0163 32.2615 0.0260352
56.5678 29.3239 0.0249354
55.3474 19.173 0.0171489
55.0126 21.5432 0.022286
54.9482 24.0367 0.0271005
55.4723 26.5824 0.0192731
53.1283 18.6437 0.0184602
51.3053 18.0331 0.0156551
50.6351 16.1176 0.0188567
45.9621 5.87912 0.00963008
49.7144 13.7315 0.0162628
47.3547 8.61872 0.0124538
48.5998 11.2852 0.0144145
43.3733 7.46817 0.0115594
57.4269 34.7551 2
41.3985 7.07282 2
45.3595 7.98968 2
42.865 9.40811 2
55.7568 31.5065 2
54.5407 28.3869 2
53.976 20.1182 2
53.5954 22.6847 2
53.7958 25.4807 2
46.6659 10.6459 2
47.745 13.0914 2
51.6562 19.3091 2
50.0081 17.6857 2
48.9321 15.3876 2
54.9309 33.9647 3.97647
53.5313 30.4687 3.97546
52.6194 27.1833 3.97701
52.1628 24.0725 3.9735
52.3994 21.0488 3.98025
41.0129 9.0418 3.98702
44.7231 9.98899 3.98625
42.4676 10.8943 3.98521
46.0047 12.7201 3.9845
47.6819 14.5734 3.98352
48.115 16.9756 3.98106
49.8203 19.5859 3.97772
49.592 61.7528 0.0159082
50.5687 59.3386 0.0188247
55.6784 41.7162 0.0238673
54.218 45.584 0.0218585
53.368 49.3431 0.0233507
52.1912 56.5025 0.0213831
52.6839 52.8683 0.0256642
48.8493 60.2117 2
52.5899 42.6602 2
49.7925 57.6392 2
50.6046 54.4397 2
51.8568 47.2869 2
51.238 50.9615 2
48.2498 43.7937 2
47.9883 58.7537 3.98171
50.1671 45.3014 3.9762
48.6039 55.9309 3.98154
49.1446 52.6155 3.97655
49.7041 49.0632 3.97244
46.1223 39.8904 3.9137
46.508 42.7114 3.95973
46.5625 45.8383 3.9882
43.9627 41.1969 3.93361
42.1074 42.0022 3.9165
47.3292 61.0185 0.0166055
46.6187 59.8055 2
45.4689 58.802 3.98239
39.6328 67.7742 0.0119051
41.5459 65.6537 0.0132173
43.146 63.7365 0.0147028
44.4827 61.8457 0.0158214
45.7661 60.6403 0.0168483
41.5992 63.8307 2
37.5634 67.7573 2
39.6475 65.6226 2
44.6232 60.3032 2
42.9497 62.095 2
41.753 62.5058 3.98533
42.4813 59.9955 3.98406
39.8929 63.5662 3.98544
37.6422 65.5216 3.98639
35.4634 67.6662 3.98802
33.5754 65.3547 3.98673
31.9598 63.315 3.98591
29.8834 64.7319 3.98684
31.6973 65.1416 2
31.3765 67.204 3.98809
33.3921 67.4949 2
33.1561 69.7574 3.99047
35.3333 69.9646 2
35.195 72.3746 3.9941
37.526 70.054 0.00950349
37.5096 72.4605 2
37.5 75 4
39.8179 72.4056 0.00582038
39.9526 74.9197 2
42.3947 74.6792 0
39.6235 4.71247 3.991
41.7361 4.96488 2
42.062 2.71657 3.99441
43.8514 5.35625 0.00940017
44.3257 3.10869 2
44.8158 0.721173 4
46.5702 3.64561 0.00587137
47.2057 1.27779 2
49.554 1.99015 0
58.0305 40.662 0.0257843
59.7831 37.5673 0.0267844
55.1572 39.7274 0.0246234
49.7052 41.3341 2
56.8636 37.896 2
53.1991 39.3114 2
54.0507 36.6234 3.97662
47.6369 40.4394 3.97569
50.6756 38.5059 3.97911
37.5154 6.66784 3.98883
39.4418 6.79625 2
39.2105 8.68427 3.98722
35.9409 8.48416 3.98743
57.4258 34.755 0.0243049
55.7565 31.5069 0.0286519
54.5408 28.3865 0.0216934
53.9751 20.1198 0.017004
53.5945 22.6879 0.0266676
53.7953 25.48 0.0247488
51.6558 19.3103 0.0142299
50.0081 17.6867 0.0207013
48.9322 15.3885 0.0171805
45.3594 7.99011 0.0120934
47.7452 13.092 0.0160014
46.666 10.6462 0.0142351
41.3984 7.07334 0.0113825
42.8649 9.40861 0.0130975
54.9322 33.965 2
41.013 9.0412 2
44.7231 9.98861 2
42.4675 10.8937 2
53.5311 30.4672 2
52.6199 27.1854 2
52.4002 21.0473 2
52.1639 24.0731 2
46.0044 12.7198 2
47.6817 14.5727 2
49.8205 19.5846 2
48.1149 16.9747 2
52.479 32.8622 3.97609
51.38 29.1419 3.97504
50.8178 25.7088 3.97135
49.948 22.1647 3.97847
40.5683 11.5973 3.98485
43.8574 11.9092 3.98508
45.8031 15.4083 3.98356
47.5062 19.208 3.97948
46.4643 37.5043 3.91665
48.8496 60.2112 0.0172946
49.7927 57.6387 0.0194431
52.5885 42.6605 0.0255569
51.857 47.2871 0.0200362
51.2381 50.9621 0.027879
50.6045 54.4387 0.0237307
48.2547 43.7924 0.0141875
47.9881 58.754 2
50.1676 45.3047 2
48.6036 55.9315 2
49.1445 52.6177 2
49.7035 49.0626 2
46.1313 39.8942 2
46.5162 42.7198 2
46.5589 45.8353 2
43.9727 41.2025 2
42.1132 42.0038 2
46.8408 57.3569 3.98269
44.7306 39.4773 3.92693
42.4917 40.8758 3.92778
48.1397 47.2594 3.97841
47.1773 54.2661 3.98138
47.6112 50.7725 3.97668
44.8549 47.3799 3.99415
45.1865 41.9869 3.91634
44.9802 44.6163 3.96093
42.7672 42.7126 3.93559
40.9602 42.3386 3.93939
46.619 59.8053 0.0173816
45.4685 58.8021 2
43.877 57.7267 3.98297
37.5633 67.7568 0.0119484
39.6476 65.6223 0.013246
41.5994 63.8304 0.0146809
42.9499 62.0946 0.0152341
44.6234 60.3029 0.0166067
35.4634 67.6667 2
41.7528 62.506 2
39.8927 63.5664 2
37.6422 65.5219 2
42.4811 59.9959 2
40.6229 61.6649 3.98458
40.4453 58.2293 3.98321
37.8364 63.2281 3.98596
35.5729 65.4439 3.98644
33.5755 65.355 2
31.9599 63.3154 2
33.6292 63.3551 3.98584
30.3788 62.8735 3.98578
32.1233 62.0223 3.98494
26.868 61.5165 3.98447
28.0622 64.1598 3.98665
29.8835 64.7323 2
29.406 66.7676 3.98812
31.6972 65.1411 0.0130809
31.3766 67.2045 2
31.0133 69.4224 3.99043
33.392 67.4944 0.0120068
33.156 69.7579 2
32.8921 72.1489 3.9941
35.3333 69.9641 0.00952867
35.1949 72.3749 2
35.0474 74.9194 4
37.5096 72.4602 0.00588736
37.5 75 2
39.9526 74.9197 0
35.6199 6.71896 3.98882
37.5227 4.61195 3.9911
39.6236 4.71202 2
39.7884 2.47303 3.99452
41.736 4.96534 0.00914762
42.0621 2.71629 2
42.3946 0.32156 4
44.3256 3.10895 0.00575933
44.8159 0.72056 2
47.2057 1.27793 0
49.7037 41.3327 0.0202497
56.8632 37.8959 0.024882
53.1987 39.3117 0.0257558
47.6388 40.4399 2
50.6744 38.5065 2
54.0512 36.6235 2
51.4618 35.579 3.96606
48.3111 37.7708 3.9809
46.1264 35.1202 3.91577
43.9651 33.8023 3.93158
42.1024 33.0053 3.91626
37.4572 8.52593 3.98739
37.5154 6.66734 2
39.4417 6.7968 0.0111837
39.2105 8.68362 2
38.9754 10.1161 3.98673
35.8974 9.76322 3.98635
34.1493 8.81366 3.98719
35.9409 8.48353 2
54.9309 33.9647 0.0235312
53.5313 30.4687 0.0245373
52.6194 27.1833 0.0229862
52.3994 21.0488 0.0197455
52.1628 24.0725 0.0265033
49.8203 19.5859 0.022283
48.115 16.9756 0.0189413
47.6819 14.5734 0.0164833
44.7231 9.98899 0.0137495
46.0047 12.7201 0.0155048
41.0129 9.0418 0.0129785
42.4676 10.8943 0.0147882
52.4806 32.8616 2
40.5682 11.5967 2
43.8572 11.9088 2
51.3801 29.1439 2
50.8191 25.7107 2
49.949 22.163 2
45.8028 15.4078 2
47.5064 19.207 2
50.0813 31.4008 3.97032
49.3248 27.4621 3.96964
49.4252 24.3773 3.98199
47.1909 21.9091 3.97854
38.3008 12.7217 3.98429
42.1007 14.2922 3.98306
44.8021 18.4414 3.98266
45.0165 37.5054 3.92689
46.4792 37.5063 2
47.9883 58.7537 0.018291
48.6039 55.9309 0.0184555
50.1671 45.3014 0.0238004
49.7041 49.0632 0.0275617
49.1446 52.6155 0.0234453
46.1223 39.8904 0.0863004
46.508 42.7114 0.0402671
46.5625 45.8383 0.0117956
43.9627 41.1969 0.0663881
42.1074 42.0022 0.0834998
46.8405 57.3573 2
44.7427 39.4802 2
42.4928 40.8755 2
48.1383 47.2582 2
47.177 54.2661 2
47.6112 50.7733 2
44.8545 47.3753 2
45.1929 41.993 2
44.9902 44.627 2
42.783 42.7176 2
40.9662 42.3394 2
45.4008 55.9438 3.9818
42.828 39.2638 3.94115
40.9348 40.7982 3.9665
46.132 48.9354 3.98283
45.5593 52.5643 3.9828
43.4959 48.476 3.98218
43.3857 46.187 3.96665
43.7424 43.8017 3.91227
41.2449 43.8752 3.93803
39.3237 42.6662 3.9388
45.4689 58.802 0.0176084
43.8766 57.7268 2
42.1078 56.3529 3.98328
35.4634 67.6662 0.0119831
37.6422 65.5216 0.0136113
39.8929 63.5662 0.014565
41.753 62.5058 0.0146702
42.4813 59.9955 0.0159414
35.573 65.4442 2
40.6226 61.6651 2
37.8364 63.2283 2
40.445 58.2295 2
38.9263 56.5238 3.98523
38.2505 60.3507 3.98486
35.607 63.2217 3.9857
33.5754 65.3547 0.0132736
31.9598 63.315 0.0140858
33.6293 63.3553 2
30.3789 62.8738 2
32.1234 62.0225 2
28.6811 62.2188 3.98551
33.346 61.5355 3.98513
31.0661 61.2395 3.98469
27.5658 59.6149 3.98298
23.7875 59.1016 3.98344
25.0328 60.8888 3.98353
26.8682 61.5168 2
26.2286 63.4919 3.98611
28.0624 64.1601 2
27.4626 66.1912 3.98811
29.8834 64.7319 0.0131552
29.4061 66.768 2
28.9056 68.9478 3.9904
31.3765 67.204 0.0119056
31.0133 69.4228 2
30.6145 71.7799 3.99412
33.1561 69.7574 0.00952644
32.8919 72.1491 2
32.6054 74.6784 4
35.195 72.3746 0.00590174
35.0474 74.9197 2
37.5 75 0
33.7224 6.97366 3.98858
35.434 4.68238 3.99102
35.6198 6.71838 2
37.514 2.38566 3.99458
37.5227 4.61152 2
39.6235 4.71247 0.00900442
39.7885 2.47274 2
39.9526 0.0806499 4
42.062 2.71657 0.00559255
42.3947 0.320817 2
44.8158 0.721173 0
44.7416 35.5206 3.92656
42.4929 34.1237 3.92723
47.6369 40.4394 0.0243097
50.6756 38.5059 0.0208863
54.0507 36.6234 0.0233799
48.311 37.769 2
51.4623 35.5781 2
46.1324 35.1186 2
43.9796 33.7926 2
42.1059 33.0057 2
48.4744 34.2715 4.00097
45.1832 33.0137 3.90795
42.7652 32.2944 3.93448
40.9521 32.6655 3.93771
37.3094 10.619 3.98583
37.4572 8.52529 2
37.5154 6.66784 0.011173
39.2105 8.68427 0.0127753
38.9754 10.1154 2
34.7525 10.3687 3.98574
35.8973 9.76252 2
32.376 9.36031 3.9864
34.1492 8.81289 2
35.9409 8.48416 0.0125704
52.479 32.8622 0.0239111
51.38 29.1419 0.02496
50.8178 25.7088 0.0286519
49.948 22.1647 0.0215327
47.5062 19.208 0.0205158
45.8031 15.4083 0.0164445
43.8574 11.9092 0.0149225
40.5683 11.5973 0.0151515
50.0806 31.4008 2
38.3005 12.7208 2
42.1002 14.2916 2
49.3251 27.4632 2
49.4266 24.3759 2
47.1917 21.9098 2
44.8021 18.4405 2
47.8611 29.5968 3.97005
47.1283 25.0982 3.98324
44.2914 21.2911 3.9814
36.5805 12.9183 3.9839
38.6801 14.791 3.98273
41.7502 17.8205 3.98056
42.9661 37.4895 3.93785
45.0339 37.5053 2
46.4643 37.5043 0.0833488
46.8408 57.3569 0.0173086
47.1773 54.2661 0.0186239
48.1397 47.2594 0.0215921
47.6112 50.7725 0.0233241
44.7306 39.4773 0.0730707
45.1865 41.9869 0.0836588
44.9802 44.6163 0.0390749
44.8549 47.3799 0.0058521
42.7672 42.7126 0.0644093
42.4917 40.8758 0.0722219
40.9602 42.3386 0.0606111
45.4007 55.944 2
42.8305 39.2626 2
40.9346 40.797 2
46.1316 48.9331 2
45.5592 52.5633 2
43.4941 48.4816 2
43.4133 46.1981 2
43.7538 43.8083 2
41.2561 43.8742 2
39.3273 42.6669 2
43.7404 54.4546 3.98733
41.014 39.1698 3.97178
39.255 40.8738 3.97103
43.7337 50.5334 3.98634
41.9973 47.7205 3.99358
41.9102 45.1981 3.90602
39.4724 44.6307 3.94247
37.4986 42.7987 3.93698
43.877 57.7267 0.0170265
42.1074 56.353 2
40.4211 54.9596 3.98235
35.5729 65.4439 0.013559
37.8364 63.2281 0.0140356
40.6229 61.6649 0.0154184
40.4453 58.2293 0.0167873
35.607 63.222 2
38.2502 60.3505 2
38.9258 56.5248 2
38.0001 55.2814 3.98443
36.9352 57.6557 3.98393
35.3636 60.9348 3.98521
33.6292 63.3551 0.0141568
30.3788 62.8735 0.0142247
32.1233 62.0223 0.015059
33.346 61.5357 2
28.6812 62.219 2
31.0662 61.2396 2
29.4016 60.3093 3.98417
32.3554 59.7683 3.98414
28.0172 58.3945 3.98334
27.566 59.6151 2
25.3744 58.6141 3.98205
22.7496 58.2604 3.98025
23.3977 60.368 3.98264
23.7877 59.1021 2
25.033 60.8892 2
24.4309 62.784 3.98533
26.868 61.5165 0.0155281
26.2288 63.4922 2
25.5466 65.5012 3.98794
28.0622 64.1598 0.0133484
27.4627 66.1916 2
26.8353 68.3361 3.99032
29.406 66.7676 0.0118839
28.9055 68.9482 2
28.3696 71.2651 3.99413
31.0133 69.4224 0.00957073
30.6143 71.7802 2
30.1842 74.2788 4
32.8921 72.1489 0.00589591
32.6053 74.6792 2
35.0474 74.9194 0
31.7868 7.41341 3.98828
33.3459 4.92158 3.99084
33.7224 6.97294 2
35.2442 2.46182 3.99453
35.434 4.68188 2
35.6199 6.71896 0.0111756
37.5 0 4
37.514 2.38538 2
37.5227 4.61195 0.00889543
39.7884 2.47303 0.00547962
39.9526 0.0802889 2
42.3946 0.32156 0
42.8376 35.7237 3.93919
44.7502 35.5199 2
40.9364 34.2027 3.965
42.4941 34.1242 2
48.3111 37.7708 0.0191012
51.4618 35.579 0.0339361
46.1264 35.1202 0.0842318
43.9651 33.8023 0.0684214
42.1024 33.0053 0.0837351
48.478 34.2691 2
45.1924 33.008 2
42.7789 32.29 2
40.9548 32.6636 2
46.4061 31.5329 3.97882
43.7344 31.2074 3.91381
41.2452 31.1263 3.93204
39.3133 32.3393 3.93915
35.6908 11.7634 3.98424
37.3093 10.6182 2
37.4572 8.52593 0.0126097
38.9754 10.1161 0.0132683
33.0964 11.2054 3.98454
34.7524 10.3679 2
35.8974 9.76322 0.0136486
30.4807 10.0085 3.98582
32.3759 9.35952 2
34.1493 8.81366 0.0128138
50.0813 31.4008 0.0296805
49.3248 27.4621 0.0303576
49.4252 24.3773 0.0180144
47.1909 21.9091 0.0214557
44.8021 18.4414 0.0173353
42.1007 14.2922 0.0169363
38.3008 12.7217 0.0157053
36.5802 12.9176 2
47.8587 29.5943 2
38.6796 14.7901 2
41.7498 17.8198 2
47.1301 25.098 2
44.2919 21.2895 2
45.6146 27.7726 3.97949
43.8175 24.0217 3.98207
41.3426 20.6981 3.98005
35.7702 14.7431 3.98304
38.6806 17.5774 3.98084
41.0613 37.4829 3.96906
42.9695 37.4903 2
45.0165 37.5054 0.0731094
45.4008 55.9438 0.018203
45.5593 52.5643 0.017205
46.132 48.9354 0.0171718
42.828 39.2638 0.0588495
43.7424 43.8017 0.0877325
43.3857 46.187 0.0333528
43.4959 48.476 0.0178198
41.2449 43.8752 0.0619676
40.9348 40.7982 0.0334961
39.3237 42.6662 0.0612036
43.7404 54.4551 2
41.0146 39.1692 2
39.2542 40.8749 2
43.7328 50.5368 2
41.9992 47.728 2
41.9275 45.2031 2
37.5004 42.8012 2
39.4864 44.6262 2
41.8887 53.0264 3.99012
39.2409 39.1641 3.94817
37.4996 40.9121 3.95182
35.6796 42.6715 3.9388
40.9709 49.7663 3.99985
39.8136 46.0801 3.90496
37.5024 44.8861 3.94459
42.1078 56.3529 0.0167182
40.4204 54.9595 2
38.7295 53.8925 3.98539
35.607 63.2217 0.0143032
38.2505 60.3507 0.0151363
38.9263 56.5238 0.0147711
35.3635 60.9349 2
36.9347 57.6549 2
37.9994 55.2807 2
36.3189 55.4179 3.98651
34.4871 58.5476 3.98454
33.346 61.5355 0.0148734
28.6811 62.2188 0.0144901
31.0661 61.2395 0.0153114
32.3555 59.7682 2
29.4018 60.3093 2
30.2931 57.8412 3.98408
28.0175 58.3946 2
26.9349 56.8442 3.98125
27.5658 59.6149 0.0170186
25.3746 58.6143 2
23.8282 56.8262 3.9779
21.3243 57.4197 3.98046
21.989 59.6403 3.98265
22.7498 58.2609 2
22.7342 62.0348 3.98441
23.3979 60.3685 2
23.7875 59.1016 0.0165644
25.0328 60.8888 0.0164708
24.431 62.7844 2
23.6805 64.7194 3.98736
26.2286 63.4919 0.0138933
25.5468 65.5016 2
24.8076 67.5972 3.99026
27.4626 66.1912 0.0118854
26.8352 68.3364 2
26.1649 70.6059 3.99408
28.9056 68.9478 0.00960017
28.3694 71.2653 2
27.7943 73.7221 4
30.6145 71.7799 0.00587507
30.1841 74.2794 2
32.6054 74.6784 0
29.8093 7.98672 3.98774
31.251 5.3287 3.99054
31.7867 7.41264 2
32.98 2.69994 3.99441
33.3459 4.92099 2
33.7224 6.97366 0.0114189
35.0474 0.080333 4
35.2442 2.46152 2
35.434 4.68238 0.00897909
37.5 0 2
37.514 2.38566 0.00541559
39.9526 0.0806499 0
41.0231 35.8074 3.96985
42.8386 35.7252 2
44.7416 35.5206 0.0734365
28.5415 10.6839 3.98563
39.2533 34.1305 3.97026
40.9353 34.2042 2
42.4929 34.1237 0.0727663
48.4744 34.2715 -0.000971486
45.1832 33.0137 0.0920515
42.7652 32.2944 0.0655213
40.9521 32.6655 0.0622928
46.4182 31.5302 2
43.7395 31.2009 2
41.2573 31.1222 2
39.3161 32.3387 2
44.4329 29.705 3.96994
41.9072 29.8097 3.90812
39.4685 30.3777 3.94233
37.486 32.2033 3.93866
34.0905 12.9215 3.98355
35.6906 11.7626 2
37.3094 10.619 0.0141713
31.1844 11.9737 3.98468
33.0963 11.2046 2
34.7525 10.3687 0.0142555
30.4806 10.0078 2
32.376 9.36031 0.0136029
47.8611 29.5968 0.0299463
47.1283 25.0982 0.0167601
36.5805 12.9183 0.0160953
44.2914 21.2911 0.0186044
41.7502 17.8205 0.019444
38.6801 14.791 0.0172735
35.7697 14.7426 2
45.613 27.7705 2
38.6802 17.5762 2
41.3424 20.6965 2
43.8187 24.0239 2
33.6054 15.86 3.98294
43.0955 26.51 3.99095
40.9231 23.2718 3.98039
38.4213 20.3059 3.98184
35.8464 17.4908 3.98223
39.2511 37.4832 3.93685
41.0611 37.4828 2
42.9661 37.4895 0.0621457
43.7404 54.4546 0.0126712
43.7337 50.5334 0.0136599
41.014 39.1698 0.0282178
41.9102 45.1981 0.0939774
41.9973 47.7205 0.00642445
39.4724 44.6307 0.0575294
39.255 40.8738 0.0289703
37.4986 42.7987 0.0630201
41.8883 53.0277 2
39.2413 39.1648 2
37.4994 40.9144 2
40.9694 49.7664 2
35.6765 42.6718 2
39.833 46.0946 2
37.5005 44.8814 2
39.8302 51.9509 3.99674
37.4982 39.1733 3.91859
35.7465 40.8833 3.9711
34.0412 42.3395 3.9402
35.5163 44.6337 3.94068
38.7611 48.7592 4.01664
37.5077 46.3941 3.90337
40.4211 54.9596 0.0176527
38.7288 53.8909 2
36.7163 53.252 3.99523
35.3636 60.9348 0.0147874
36.9352 57.6557 0.0160722
38.0001 55.2814 0.0155714
34.487 58.5473 2
36.3185 55.416 2
33.2216 55.5337 3.98514
32.3554 59.7683 0.0158625
29.4016 60.3093 0.0158305
30.2933 57.841 2
28.6738 55.3342 3.98115
28.0172 58.3945 0.0166621
26.9351 56.8444 2
25.2929 55.1643 3.97852
21.7914 55.3682 3.97777
25.3744 58.6141 0.0179503
23.8283 56.8266 2
20.2075 57.0501 3.98243
20.6386 58.7984 3.98201
21.3244 57.4203 2
21.1635 61.1848 3.98405
21.9891 59.6408 2
22.7496 58.2604 0.0197461
21.8937 63.847 3.98654
22.7343 62.0353 2
23.3977 60.368 0.0173557
24.4309 62.784 0.0146733
23.6806 64.7198 2
22.8359 66.7409 3.99008
25.5466 65.5012 0.0120556
24.8076 67.5976 2
24.0092 69.8071 3.99401
26.8353 68.3361 0.00967988
26.1646 70.6061 2
25.446 73.0099 4
28.3696 71.2651 0.00587201
27.7943 73.7222 2
30.1842 74.2788 0
27.8193 8.64639 3.98743
29.153 5.87448 3.99013
29.8093 7.98602 2
30.7253 3.09707 3.99422
31.2509 5.32808 2
31.7868 7.41341 0.0117182
32.6053 0.320823 4
32.9799 2.69961 2
33.3459 4.92158 0.0091587
35.0474 0.0802903 2
35.2442 2.46182 0.0054708
37.5 0 0
39.248 35.8151 3.94689
41.0232 35.808 2
42.8376 35.7237 0.0608148
28.5415 10.6833 2
26.6204 11.3792 3.9853
29.2233 12.6304 3.98464
37.4953 34.0901 3.94979
39.2518 34.1295 2
40.9364 34.2027 0.0350001
46.4061 31.5329 0.0211791
43.7344 31.2074 0.0861854
41.2452 31.1263 0.0679649
39.3133 32.3393 0.0608498
44.4451 29.6971 2
41.9248 29.8001 2
39.4802 30.3796 2
37.4867 32.1991 2
42.3532 28.3522 3.96236
39.8212 28.9258 3.91076
37.4895 30.1109 3.94448
35.6655 32.3282 3.93944
31.9119 14.4667 3.98353
34.0904 12.9207 2
35.6908 11.7634 0.0157627
31.1843 11.973 2
33.0964 11.2054 0.0154626
30.4807 10.0085 0.0141796
45.6146 27.7726 0.0205083
43.8175 24.0217 0.0179309
35.7702 14.7431 0.0169633
41.3426 20.6981 0.0199509
38.6806 17.5774 0.0191568
33.6051 15.8599 2
35.8459 17.4904 2
43.0947 26.5114 2
38.421 20.305 2
40.9236 23.2686 2
33.5472 17.3679 3.98395
40.4706 25.6184 4.0105
38.0802 22.8346 3.98863
35.5818 20.0574 3.98363
37.5003 37.4918 3.91282
39.251 37.4834 2
41.0613 37.4829 0.0309427
41.8887 53.0264 0.00988067
40.9709 49.7663 0.000145144
39.2409 39.1641 0.0518268
39.8136 46.0801 0.0950394
37.5024 44.8861 0.0554067
37.4996 40.9121 0.0481809
35.6796 42.6715 0.0612044
39.8303 51.9503 2
37.4987 39.1744 2
35.7468 40.885 2
38.757 48.7843 2
34.0368 42.3418 2
35.5091 44.63 2
37.5045 46.4125 2
37.6692 51.0507 4.00207
35.7603 39.1785 3.94763
34.0715 40.8072 3.96506
32.8907 42.0009 3.9168
33.742 43.8741 3.93634
35.1893 46.0818 3.91042
36.8905 48.4063 4.00175
38.7295 53.8925 0.0146107
36.7161 53.2489 2
34.3508 52.5104 3.987
34.4871 58.5476 0.0154645
36.3189 55.4179 0.0134938
33.2217 55.5329 2
30.4998 53.4361 3.98435
30.2931 57.8412 0.0159172
28.6741 55.3338 2
26.8571 53.4687 3.97815
26.9349 56.8442 0.0187497
25.293 55.1647 2
23.5467 53.5067 3.97535
20.4416 53.2504 3.97477
19.917 55.8541 3.98141
21.7912 55.3689 2
23.8282 56.8262 0.0221008
19.4295 57.9108 3.98184
20.2074 57.0507 2
19.702 60.2188 3.98314
20.6387 58.7989 2
21.3243 57.4197 0.0195442
20.2056 62.8683 3.98574
21.1637 61.1853 2
21.989 59.6403 0.0173513
20.9373 65.7699 3.98958
21.8938 63.8475 2
22.7342 62.0348 0.0155905
23.6805 64.7194 0.0126414
22.8359 66.7413 2
21.9117 68.8743 3.99389
24.8076 67.5972 0.00974038
24.0089 69.8072 2
23.1494 72.1454 4
26.1649 70.6059 0.00591918
25.446 73.0099 2
27.7943 73.7221 0
25.8585 9.37439 3.98696
27.0678 6.53857 3.98975
27.8192 8.64576 2
28.4875 3.64297 3.99396
29.1529 5.87392 2
29.8093 7.98672 0.0122584
30.1841 0.720592 4
30.7251 3.09676 2
31.251 5.3287 0.00946103
32.6053 0.320817 2
32.98 2.69994 0.00558656
35.0474 0.080333 0
37.5009 35.8162 3.91637
39.2479 35.8147 2
41.0231 35.8074 0.0301541
24.7752 12.0621 3.98529
23.7489 14.3461 3.98424
28.5415 10.6839 0.0143699
26.6204 11.3787 2
29.2232 12.6298 2
27.2893 13.3635 3.98456
29.7778 14.189 3.98374
35.7427 34.1155 3.97022
37.4946 34.0874 2
39.2533 34.1305 0.0297359
37.486 32.2033 0.0613393
44.4329 29.705 0.0300643
41.9072 29.8097 0.0918813
39.4685 30.3777 0.0576741
42.3624 28.3395 2
39.8384 28.9142 2
37.4886 30.1176 2
35.6634 32.327 2
40.0346 27.5256 3.97784
37.4959 28.5976 3.90607
35.501 30.367 3.94109
34.0336 32.6502 3.93631
30.9229 16.8229 3.9832
31.9119 14.466 2
34.0905 12.9215 0.0164495
31.1844 11.9737 0.0153166
43.0955 26.51 0.00904859
40.9231 23.2718 0.0196114
33.6054 15.86 0.017057
35.8464 17.4908 0.0177685
38.4213 20.3059 0.018164
33.5468 17.3681 2
35.5815 20.0568 2
40.4685 25.6192 2
38.0801 22.8348 2
32.8595 19.7731 3.98362
37.7888 25.1315 4.0274
35.2015 22.6149 3.98064
35.7526 37.4961 3.93662
37.5006 37.4919 2
39.2511 37.4832 0.0631546
39.8302 51.9509 0.00326274
38.7611 48.7592 -0.0166429
37.4982 39.1733 0.0814051
37.5077 46.3941 0.0966342
35.5163 44.6337 0.0593192
35.7465 40.8833 0.0288974
34.0412 42.3395 0.059797
37.6696 51.0573 2
35.7608 39.1795 2
34.0716 40.8054 2
36.8878 48.4147 2
32.8859 42.0009 2
33.7335 43.8791 2
35.1669 46.0939 2
35.4268 50.1849 4.00224
33.9934 39.1848 3.96823
32.5053 40.878 3.92781
32.2244 42.7083 3.93438
33.102 45.1866 3.91429
34.2834 47.4792 3.97802
36.7163 53.252 0.00477402
34.3506 52.5102 2
31.9696 51.2405 3.98769
33.2216 55.5337 0.014865
30.5002 53.4368 2
28.3943 51.6547 3.98044
28.6738 55.3342 0.0188466
26.8573 53.47 2
25.043 51.7928 3.97415
25.2929 55.1643 0.021479
23.5467 53.5077 2
21.93 51.836 3.97351
19.1703 51.6595 3.97421
18.901 54.331 3.97784
20.4415 53.2508 2
18.4352 56.7432 3.98254
19.9168 55.8547 2
21.7914 55.3682 0.0222255
18.3626 59.1265 3.98199
19.4295 57.9113 2
20.2075 57.0501 0.0175711
18.6158 61.7762 3.98479
19.7021 60.2193 2
20.6386 58.7984 0.0179877
19.1261 64.6807 3.98884
20.2058 62.8688 2
21.1635 61.1848 0.015947
19.8857 67.8109 3.99357
20.9374 65.7703 2
21.8937 63.847 0.0134553
22.8359 66.7409 0.00992172
21.9114 68.8743 2
20.9142 71.1327 4
24.0092 69.8071 0.00598905
23.1494 72.1455 2
25.446 73.0099 0
23.0944 12.7768 3.98493
23.9711 10.1609 3.98673
25.0216 7.30857 3.98955
25.8585 9.37384 2
26.2792 4.32716 3.99369
27.0676 6.53806 2
27.8193 8.64639 0.0125673
27.7943 1.27781 4
28.4872 3.64271 2
29.153 5.87448 0.00987271
30.1841 0.720551 2
30.7253 3.09707 0.005782
32.6053 0.320823 0
35.7564 35.8157 3.94644
37.501 35.8151 2
39.248 35.8151 0.053115
24.7753 12.0617 2
23.7491 14.3459 2
22.4771 15.0223 3.98385
25.3553 13.8954 3.98422
24.0215 15.6076 3.98359
26.6204 11.3792 0.0146979
29.2233 12.6304 0.0153587
27.2894 13.3631 2
29.7778 14.1884 2
28.3534 15.9629 3.98388
34.0743 34.192 3.96462
35.7432 34.1148 2
37.4953 34.0901 0.050213
35.6655 32.3282 0.0605598
37.4895 30.1109 0.0555228
42.3532 28.3522 0.0376413
39.8212 28.9258 0.0892389
40.0392 27.5174 2
37.4959 28.5819 2
35.4906 30.3682 2
34.0337 32.6458 2
37.6279 27.214 3.98346
35.1524 28.9106 3.91001
33.7238 31.1178 3.93475
32.8881 32.9931 3.9172
30.203 19.3255 3.98446
30.9228 16.8224 2
31.9119 14.4667 0.016469
40.4706 25.6184 -0.0105008
38.0802 22.8346 0.0113727
33.5472 17.3679 0.0160516
35.5818 20.0574 0.0163722
32.859 19.7738 2
35.2012 22.6128 2
37.7888 25.1346 2
32.3039 22.386 3.98299
34.9453 25.1437 4.00309
33.9486 37.4973 3.96689
35.7533 37.4966 2
37.5003 37.4918 0.0871777
37.6692 51.0507 -0.00207359
36.8905 48.4063 -0.00174893
35.7603 39.1785 0.0523693
35.1893 46.0818 0.08958
33.742 43.8741 0.0636594
34.0715 40.8072 0.0349367
32.8907 42.0009 0.0831971
35.4263 50.1912 2
33.9941 39.1835 2
32.5034 40.8763 2
34.2767 47.5044 2
32.2114 42.7085 2
33.0848 45.1998 2
33.1899 49.1786 4.00397
32.1677 39.2715 3.9409
31.029 41.1916 3.93304
31.258 43.7908 3.91318
32.2319 46.4072 3.97219
34.3508 52.5104 0.013001
31.9695 51.2418 2
29.802 49.761 3.98331
30.4998 53.4361 0.015654
28.3945 51.6529 2
26.4556 50.0353 3.97478
26.8571 53.4687 0.0218472
25.0429 51.7927 2
23.2951 50.2297 3.973
23.5467 53.5067 0.0246471
21.9299 51.8357 2
20.4273 50.3415 3.97386
17.9579 50.3502 3.97611
17.8094 52.8132 3.97636
19.1706 51.6597 2
17.4212 55.3596 3.98019
18.9008 54.3315 2
20.4416 53.2504 0.0252292
17.1265 57.8891 3.98292
18.4351 56.7438 2
19.917 55.8541 0.0185892
17.1324 60.56 3.98364
18.3627 59.1271 2
19.4295 57.9108 0.0181631
17.4061 63.4737 3.98781
18.616 61.7768 2
19.702 60.2188 0.0168647
17.9418 66.6193 3.9932
19.1261 64.6812 2
20.2056 62.8683 0.0142636
18.75 69.9759 4
19.8855 67.8109 2
20.9373 65.7699 0.0104194
21.9117 68.8743 0.00611319
20.9142 71.1327 2
23.1494 72.1454 0
21.5849 13.5966 3.98462
22.1892 11.0201 3.9862
23.0945 12.7766 2
23.0397 8.17391 3.98937
23.9712 10.1605 2
24.1168 5.14179 3.99354
25.0215 7.30814 2
25.8585 9.37439 0.0130361
25.446 1.99014 4
26.2789 4.32696 2
27.0678 6.53857 0.0102535
27.7943 1.27778 2
28.4875 3.64297 0.00603754
30.1841 0.720592 0
33.9864 35.8112 3.96832
35.7566 35.8156 2
37.5009 35.8162 0.0836272
21.3018 15.8179 3.9833
24.7752 12.0621 0.0147115
23.7489 14.3461 0.0157613
25.3554 13.8951 2
22.4774 15.0222 2
24.0218 15.6075 2
23.2602 16.2389 3.98325
25.3768 16.0753 3.98399
27.2893 13.3635 0.0154431
29.7778 14.189 0.016257
28.3536 15.9627 2
27.4347 18.784 3.98431
32.5174 34.116 3.92891
34.0757 34.1911 2
35.7427 34.1155 0.0297755
34.0336 32.6502 0.0636924
35.501 30.367 0.0589092
37.4959 28.5976 0.093933
40.0346 27.5256 0.0221608
37.623 27.1842 2
32.8882 32.9937 2
35.1313 28.8967 2
33.7115 31.1076 2
35.0579 27.3291 3.98425
33.0655 29.8041 3.9123
32.2108 32.276 3.93226
29.5649 21.9198 3.99074
30.203 19.3255 2
30.9229 16.8229 0.0168001
37.7888 25.1315 -0.0274035
35.2015 22.6149 0.0193601
32.8595 19.7731 0.0163825
32.3035 22.3873 2
34.948 25.1497 2
31.6447 25.6024 3.99242
32.0389 37.4983 3.9385
33.9499 37.4964 2
35.7526 37.4961 0.0633801
35.4268 50.1849 -0.00224273
34.2834 47.4792 0.0219843
33.9934 39.1848 0.0317698
33.102 45.1866 0.0857137
32.2244 42.7083 0.0656177
32.5053 40.878 0.0721883
33.1895 49.1636 2
32.1662 39.2694 2
31.0146 41.1969 2
32.2174 46.4219 2
31.2494 43.7969 2
31.0695 47.9759 3.99957
30.2561 39.4683 3.92676
29.8105 41.9819 3.90978
30.3545 44.9849 3.97191
31.9696 51.2405 0.0123114
29.8019 49.7567 2
27.798 48.234 3.98002
28.3943 51.6547 0.0195581
26.4557 50.0339 2
24.5884 48.5067 3.97472
25.043 51.7928 0.0258452
23.2955 50.2294 2
21.6027 48.8186 3.97521
21.93 51.836 0.0264904
20.4277 50.3412 2
18.9966 49.1136 3.97752
16.8664 49.3474 3.9788
16.7494 51.4252 3.97671
17.9583 50.3505 2
16.3711 53.8882 3.97851
17.8095 52.8135 2
19.1703 51.6595 0.0257938
15.9658 56.4909 3.98192
17.421 55.3601 2
18.901 54.331 0.022161
15.7447 59.2212 3.98358
17.1265 57.8897 2
18.4352 56.7432 0.0174567
15.7862 62.1444 3.98651
17.1325 60.5607 2
18.3626 59.1265 0.0180105
16.0883 65.302 3.99287
17.4062 63.4742 2
18.6158 61.7762 0.0152081
16.6661 68.6801 4
17.9416 66.6194 2
19.1261 64.6807 0.0111572
18.75 69.9759 2
19.8857 67.8109 0.0064284
20.9142 71.1327 0
20.2165 14.5852 3.98399
21.5851 13.5965 2
20.5282 11.9895 3.98575
21.1428 9.14345 3.9892
22.1893 11.0197 2
23.0944 12.7768 0.0150699
22.0159 6.08075 3.99338
23.0397 8.17352 2
23.9711 10.1609 0.0132746
23.1494 2.85457 4
24.1165 5.14167 2
25.0216 7.30857 0.0104538
25.446 1.99012 2
26.2792 4.32716 0.00630821
27.7943 1.27781 0
32.171 35.722 3.93996
33.9872 35.8106 2
35.7564 35.8157 0.0535585
21.302 15.8176 2
20.2982 16.9514 3.98378
22.0931 16.6231 3.98263
25.3553 13.8954 0.0157789
22.4771 15.0223 0.0161545
24.0215 15.6076 0.0164148
25.3771 16.0752 2
23.2606 16.2389 2
24.1988 18.4373 3.98205
27.0018 21.4421 3.98394
28.3534 15.9629 0.0161186
27.4347 18.7841 2
31.0348 33.7949 3.93027
32.516 34.1186 2
34.0743 34.192 0.0353831
32.8881 32.9931 0.0827999
33.7238 31.1178 0.0652481
35.1524 28.9106 0.0899914
37.6279 27.214 0.0165354
35.0478 27.3132 2
32.209 32.2802 2
33.0529 29.7908 2
32.4834 28.0523 3.99124
31.2292 31.2007 3.91424
28.7615 24.3847 3.98737
29.5644 21.9206 2
30.203 19.3255 0.0155432
34.9453 25.1437 -0.00308971
32.3039 22.386 0.0170096
31.6458 25.5912 2
29.5786 27.2906 3.97942
29.9786 37.4878 3.92633
32.0385 37.4979 2
33.9486 37.4973 0.0331066
33.1899 49.1786 -0.00396779
32.2319 46.4072 0.0278104
32.1677 39.2715 0.0591039
31.258 43.7908 0.0868168
31.029 41.1916 0.0669616
31.0708 47.9734 2
30.2456 39.4748 2
29.8014 41.9886 2
30.3408 44.9955 2
29.0848 46.5254 3.98652
28.8685 39.8742 3.91087
28.5528 43.2007 3.96885
29.802 49.761 0.0166927
27.7985 48.2303 2
25.8615 46.696 3.98076
26.4556 50.0353 0.0252214
24.5893 48.506 2
22.7406 47.1129 3.97935
23.2951 50.2297 0.0270016
21.6036 48.8181 2
19.9417 47.641 3.9798
20.4273 50.3415 0.0261409
18.9972 49.1136 2
17.6408 48.1947 3.98039
16.1187 48.6968 3.98076
16.8669 49.3478 2
15.8278 50.1846 3.97804
15.36 52.4305 3.97794
16.7496 51.4254 2
17.9579 50.3502 0.0238874
14.8559 54.991 3.98025
16.371 53.8886 2
17.8094 52.8132 0.0236367
14.4526 57.7502 3.98321
15.9657 56.4914 2
17.4212 55.3596 0.0198112
14.2637 60.6989 3.98562
15.7447 59.2218 2
17.1265 57.8891 0.0170839
14.3324 63.8612 3.99229
15.7862 62.145 2
17.1324 60.56 0.0163627
14.6715 67.2507 4
16.0881 65.302 2
17.4061 63.4737 0.0121935
16.6661 68.6801 2
17.9418 66.6193 0.00679652
18.75 69.9759 0
18.9297 15.772 3.98359
20.2167 14.585 2
18.9777 13.1003 3.98507
21.5849 13.5966 0.0153767
20.5285 11.9894 2
19.3422 10.231 3.98887
19.9905 7.14535 3.99332
21.1428 9.14312 2
22.1892 11.0201 0.0137978
20.9142 3.86727 4
22.0156 6.08071 2
23.0397 8.17391 0.0106264
23.1494 2.85451 2
24.1168 5.14179 0.00645908
25.446 1.99014 0
30.2652 35.5257 3.93026
32.1692 35.7232 2
33.9864 35.8112 0.0316821
21.3018 15.8179 0.0166963
22.0934 16.6228 2
20.2983 16.9508 2
19.2361 18.3976 3.98324
21.7766 17.8386 3.98296
25.3768 16.0753 0.0160133
23.2602 16.2389 0.0167486
24.1991 18.4374 2
22.2684 19.879 3.98145
24.5782 21.3076 3.98299
26.3867 23.7077 3.98145
27.0022 21.4428 2
27.4347 18.784 0.0156856
29.8083 33.0004 3.91218
31.0216 33.7826 2
32.5174 34.116 0.0710912
32.2108 32.276 0.0677436
33.0655 29.8041 0.0876957
35.0579 27.3291 0.0157549
32.4698 28.0474 2
31.2352 31.2006 2
30.0294 29.5031 3.98346
27.8204 26.5282 3.97192
28.7619 24.3893 2
29.5649 21.9198 0.00926419
31.6447 25.6024 0.00757733
29.5707 27.2552 2
28.5293 37.4912 3.91831
29.9688 37.4903 2
32.0389 37.4983 0.0614988
31.0695 47.9759 0.000428942
30.3545 44.9849 0.0280912
30.2561 39.4683 0.0732423
29.8105 41.9819 0.0902154
29.0888 46.5418 2
28.8595 39.8767 2
28.5406 43.2111 2
27.1608 44.8318 3.97504
26.6484 40.6317 4.00032
27.798 48.234 0.0199835
25.8635 46.6942 2
23.8995 45.2426 3.9728
24.5884 48.5067 0.0252782
22.7419 47.1122 2
20.8733 45.9223 3.97895
21.6027 48.8186 0.024794
19.9426 47.6411 2
18.2869 46.755 3.9815
18.9966 49.1136 0.0224761
17.6414 48.1952 2
16.3091 47.7264 3.98043
16.1191 48.6972 2
15.1752 49.0272 3.97933
16.8664 49.3474 0.0211959
15.8282 50.1849 2
14.4743 50.9963 3.97813
13.8173 53.4454 3.97929
15.36 52.4308 2
16.7494 51.4252 0.0232949
13.2465 56.1772 3.98212
14.8558 54.9915 2
16.3711 53.8882 0.0214933
12.8454 59.1325 3.98549
14.4526 57.7507 2
15.9658 56.4909 0.0180843
12.6777 62.3039 3.99141
14.2638 60.6993 2
15.7447 59.2212 0.0164151
12.7746 65.6939 4
14.3322 63.8612 2
15.7862 62.1444 0.0134914
14.6714 67.2507 2
16.0883 65.302 0.00713179
16.6661 68.6801 0
17.663 17.1471 3.98318
18.9297 15.7715 2
17.5088 14.3645 3.98446
20.2165 14.5852 0.0160116
18.9779 13.1 2
17.6377 11.4498 3.98806
20.5282 11.9895 0.01425
19.3423 10.2307 2
18.0506 8.33814 3.99321
18.75 5.0241 4
19.9902 7.14538 2
21.1428 9.14345 0.0107959
20.9142 3.86727 2
22.0159 6.08075 0.00662135
23.1494 2.85457 0
28.8694 35.1027 3.91332
30.2539 35.5234 2
32.171 35.722 0.0600378
22.0931 16.6231 0.0173732
20.2982 16.9514 0.0162226
21.7768 17.838 2
19.2361 18.3969 2
17.9701 19.9292 3.98255
20.8676 19.3656 3.98312
24.1988 18.4373 0.0179515
22.2688 19.8782 2
24.5788 21.308 2
22.342 21.7034 3.98282
24.6701 23.1526 3.98155
25.4087 25.936 3.9728
26.3877 23.7072 2
27.0018 21.4421 0.0160641
28.194 32.2731 3.9637
29.8013 32.999 2
31.0348 33.7949 0.0697319
31.2292 31.2007 0.0857564
32.4834 28.0523 0.00876375
30.0051 29.4942 2
26.9292 29.1209 3.98147
27.8162 26.5255 2
28.7615 24.3847 0.0126284
29.5786 27.2906 0.0205831
26.7569 37.3506 3.97587
28.5214 37.49 2
29.9786 37.4878 0.0736715
29.0848 46.5254 0.0134764
28.5528 43.2007 0.0311466
28.8685 39.8742 0.0891323
27.1653 44.8326 2
26.6448 40.6368 2
25.1355 43.1936 3.96728
23.891 39.426 3.9667
25.8615 46.696 0.0192447
23.9005 45.2435 2
21.8464 43.9721 3.97613
22.7406 47.1129 0.020653
20.8747 45.9231 2
18.947 44.9875 3.97525
19.9417 47.641 0.0201987
18.2876 46.7559 2
16.6003 46.2249 3.97791
17.6408 48.1947 0.0196142
16.3095 47.7269 2
14.9056 47.6801 3.97878
16.1187 48.6968 0.0192355
15.1756 49.0276 2
13.773 49.555 3.97852
15.8278 50.1846 0.0219631
14.4745 50.9967 2
12.8845 51.8821 3.97881
12.1336 54.5342 3.98112
13.8173 53.4458 2
15.36 52.4305 0.0220604
11.5294 57.4641 3.98487
13.2464 56.1778 2
14.8559 54.991 0.0197463
11.1321 60.63 3.9906
12.8454 59.1328 2
14.4526 57.7502 0.0167941
10.9835 64.0165 4
12.6776 62.3037 2
14.2637 60.6989 0.0143807
12.7745 65.694 2
14.3324 63.8612 0.00770674
14.6715 67.2507 0
16.3942 18.6406 3.98308
17.663 17.1466 2
16.0992 15.7732 3.9843
18.9297 15.772 0.0164129
17.5089 14.3639 2
16.0192 12.8033 3.98677
18.9777 13.1003 0.0149278
17.6379 11.4494 2
16.2017 9.66124 3.99291
19.3422 10.231 0.0111252
18.0504 8.33822 2
16.6661 6.31991 4
18.75 5.02404 2
19.9905 7.14535 0.00668089
20.9142 3.86727 0
27.2643 34.7339 3.9627
28.8592 35.1007 2
30.2652 35.5257 0.0697403
16.6685 21.3647 3.98011
21.7766 17.8386 0.0170399
19.2361 18.3976 0.0167571
20.8678 19.3648 2
17.9702 19.9285 2
19.7097 21.5577 3.98479
22.2684 19.879 0.0185504
24.5782 21.3076 0.0170119
22.3425 21.702 2
24.6701 23.1525 2
22.8134 24.587 3.97659
24.4743 28.5128 3.96967
25.4062 25.934 2
26.3867 23.7077 0.0185453
26.0347 31.6915 3.98765
28.1854 32.2657 2
29.8083 33.0004 0.0878196
30.0294 29.5031 0.0165373
26.9346 29.1212 2
27.8204 26.5282 0.0280827
24.5731 36.8519 3.98179
26.7544 37.3553 2
28.5293 37.4912 0.081695
27.1608 44.8318 0.0249589
26.6484 40.6317 -0.000317651
25.1346 43.1954 2
23.8899 39.428 2
22.8904 41.8097 3.97804
21.641 38.4947 3.97245
23.8995 45.2426 0.0272019
21.8471 43.9745 2
19.6937 42.8978 3.97131
20.8733 45.9223 0.0210515
18.9475 44.9884 2
16.9285 44.3899 3.97362
18.2869 46.755 0.0184968
16.6009 46.2257 2
14.8276 46.0987 3.97608
16.3091 47.7264 0.0195673
14.906 47.6807 2
13.281 48.0156 3.97771
15.1752 49.0272 0.0206658
13.7733 49.5555 2
12.1042 50.2585 3.97855
14.4743 50.9963 0.0218705
12.8846 51.8826 2
11.1294 52.8413 3.98031
10.3196 55.7148 3.98393
12.1335 54.5348 2
13.8173 53.4454 0.0207133
9.69859 58.8522 3.98951
11.5292 57.4647 2
13.2465 56.1772 0.0178842
9.30605 62.2254 4
11.132 60.6301 2
12.8454 59.1325 0.0145115
10.9835 64.0165 2
12.6777 62.3039 0.0085929
12.7746 65.6939 0
15.1378 20.1748 3.98138
16.3942 18.64 2
14.7441 17.2958 3.98359
17.663 17.1471 0.0168162
16.0993 15.7725 2
14.4813 14.285 3.98595
17.5088 14.3645 0.0155375
16.0194 12.8026 2
14.4444 11.1124 3.99243
17.6377 11.4498 0.0119385
16.2016 9.66124 2
14.6715 7.74927 4
18.0506 8.33814 0.00678795
16.6661 6.31988 2
18.75 5.0241 0
25.2126 34.2538 3.98624
27.2605 34.7341 2
28.8694 35.1027 0.0866754
17.8395 22.3091 3.98542
15.5124 22.9085 3.978
16.6685 21.3638 2
20.8676 19.3656 0.0168847
17.9701 19.9292 0.0174526
19.71 21.5567 2
19.6377 24.3633 3.97914
22.342 21.7034 0.0171779
24.6701 23.1526 0.0184473
22.8116 24.585 2
21.8568 27.8068 3.97128
23.6386 31.1707 3.97174
24.4768 28.5122 2
25.4087 25.936 0.0271983
26.0397 31.6872 2
28.194 32.2731 0.036295
26.9292 29.1209 0.0185281
22.3509 36.2627 3.98194
24.5723 36.8524 2
26.7569 37.3506 0.0241268
25.1355 43.1936 0.0327232
23.891 39.426 0.0333013
22.8886 41.8112 2
21.6404 38.4953 2
20.6165 40.6301 3.97492
20.0014 37.7752 3.97462
21.8464 43.9721 0.0238709
19.6936 42.899 2
17.3207 42.1054 3.97403
18.947 44.9875 0.0247507
16.9288 44.391 2
14.8282 44.2068 3.97387
16.6003 46.2249 0.02209
14.828 46.0995 2
12.9545 46.3008 3.97543
14.9056 47.6801 0.0212167
13.2813 48.0162 2
11.4767 48.5537 3.97757
13.773 49.555 0.0214803
12.1045 50.2591 2
10.2557 51.0831 3.9796
12.8845 51.8821 0.0211891
11.1294 52.8419 2
9.22849 53.8915 3.98314
8.38206 56.9843 3.98851
10.3194 55.7155 2
12.1336 54.5342 0.0188814
7.74927 60.3285 4
9.69833 58.8522 2
11.5294 57.4641 0.0151259
9.306 62.2255 2
11.1321 60.63 0.00939638
10.9835 64.0165 0
13.9492 21.7416 3.97983
15.1378 20.1739 2
13.444 18.8926 3.98258
16.3942 18.6406 0.0169169
14.7442 17.295 2
13.0263 15.8777 3.9854
16.0992 15.7732 0.0157028
14.4814 14.2842 2
12.7817 12.6856 3.99173
16.0192 12.8033 0.0132299
14.4443 11.1123 2
12.7746 9.30605 4
16.2017 9.66124 0.00709416
14.6715 7.74924 2
16.6661 6.31991 0
22.9444 33.7866 3.97539
25.21 34.2532 2
27.2643 34.7339 0.0372972
17.606 24.028 3.97982
17.8393 22.308 2
14.2949 24.4415 3.97626
15.5118 22.9073 2
16.6685 21.3647 0.0198926
18.9943 27.1861 3.96975
19.7097 21.5577 0.015213
19.6363 24.3625 2
21.0884 30.6453 3.97311
22.8134 24.587 0.023408
21.8579 27.806 2
23.6357 31.1706 2
24.4743 28.5128 0.030334
26.0347 31.6915 0.0123485
20.1176 35.9111 3.98015
22.3499 36.2642 2
24.5731 36.8519 0.0182085
22.8904 41.8097 0.0219599
21.641 38.4947 0.0275516
20.6151 40.6304 2
20.0001 37.7757 2
17.996 38.9991 3.97495
19.6937 42.8978 0.0286906
17.3204 42.1063 2
14.774 41.9218 3.97427
16.9285 44.3899 0.0263834
14.8284 44.2077 2
12.6943 44.3959 3.97431
14.8276 46.0987 0.0239218
12.9549 46.3015 2
10.9797 46.7361 3.97567
13.281 48.0156 0.0222891
11.4769 48.5544 2
9.51981 49.2414 3.97853
12.1042 50.2585 0.021446
10.2558 51.0837 2
8.26174 52.003 3.98236
11.1294 52.8413 0.0196937
9.22841 53.892 2
7.19102 55.0335 3.98791
6.31991 58.3339 4
8.38169 56.9839 2
10.3196 55.7148 0.0160716
7.74924 60.3285 2
9.69859 58.8522 0.0104862
9.30605 62.2254 0
13.2164 25.3555 3.98127
12.8163 23.2719 3.97843
13.9488 21.7405 2
12.2288 20.5421 3.98175
15.1378 20.1748 0.0186168
13.444 18.8918 2
11.6556 17.5586 3.98518
14.7441 17.2958 0.0164101
13.0264 15.877 2
11.219 14.3703 3.99077
14.4813 14.285 0.014045
12.7815 12.6855 2
10.9835 10.9835 4
14.4444 11.1124 0.00757101
12.7745 9.306 2
14.6715 7.74927 0
20.5039 33.3795 3.974
22.9425 33.7874 2
25.2126 34.2538 0.0137634
15.8793 26.3906 3.97353
17.605 24.0268 2
17.8395 22.3091 0.0145839
14.2946 24.4409 2
15.5124 22.9085 0.0219951
18.3322 30.1579 3.97215
18.9946 27.1855 2
19.6377 24.3633 0.0208562
21.087 30.6442 2
21.8568 27.8068 0.0287231
23.6386 31.1707 0.028261
17.6213 35.9564 3.97642
20.1167 35.9117 2
22.3509 36.2627 0.0180638
20.6165 40.6301 0.0250759
20.0014 37.7752 0.0253764
17.9947 38.9995 2
14.282 39.1758 3.97391
17.3207 42.1054 0.0259658
14.7737 41.9226 2
12.3805 42.2793 3.97411
14.8282 44.2068 0.026133
12.6944 44.3966 2
10.5569 44.8041 3.97504
12.9545 46.3008 0.0245719
10.98 46.7367 2
8.9034 47.3194 3.97692
11.4767 48.5537 0.0224345
9.52004 49.242 2
7.42925 50.0351 3.98124
10.2557 51.0831 0.0203951
8.26183 52.0034 2
6.13164 53.007 3.98763
9.22849 53.8915 0.0168574
7.19064 55.0326 2
5.0241 56.25 4
6.31988 58.3339 2
8.38206 56.9843 0.0114936
7.74927 60.3285 0
13.4534 26.8068 3.97508
11.9307 24.7824 3.97756
13.2163 25.3548 2
11.1318 22.2281 3.98038
12.816 23.2711 2
13.9492 21.7416 0.0201677
12.2285 20.5409 2
10.3854 19.3139 3.98468
13.444 18.8926 0.0174177
11.6556 17.5578 2
9.75968 16.1537 3.98976
13.0263 15.8777 0.0145973
11.2188 14.3702 2
9.30607 12.7746 4
12.7817 12.6856 0.0082681
10.9835 10.9835 2
12.7746 9.30605 0
17.8004 33.0996 3.9727
20.5023 33.3798 2
22.9444 33.7866 0.0246071
15.4675 29.6274 3.97336
15.8793 26.3902 2
17.606 24.028 0.0201792
14.2949 24.4415 0.0237374
18.3311 30.1572 2
18.9943 27.1861 0.0302537
21.0884 30.6453 0.0268856
14.8772 36.0131 3.97388
17.6205 35.9566 2
20.1176 35.9111 0.0198487
12.5803 37.8274 3.97397
17.996 38.9991 0.0250453
14.281 39.1765 2
11.8953 40.1413 3.97362
14.774 41.9218 0.0257269
12.3803 42.2801 2
10.1557 42.7791 3.9748
12.6943 44.3959 0.02569
10.557 44.8048 2
8.38169 45.3209 3.97633
10.9797 46.7361 0.0243255
8.90363 47.3199 2
6.72133 47.9995 3.97983
9.51981 49.2414 0.0214696
7.42945 50.0354 2
5.20856 50.9092 3.98739
8.26174 52.003 0.0176418
6.13138 53.0059 2
3.86727 54.0858 4
7.19102 55.0335 0.0120912
5.02404 56.25 2
6.31991 58.3339 0
12.9095 29.0272 3.97175
11.3613 26.4833 3.97634
13.4533 26.806 2
10.192 23.9639 3.9786
11.9306 24.7816 2
13.2164 25.3555 0.0187296
9.23761 21.1341 3.98341
11.1316 22.2271 2
12.8163 23.2719 0.0215704
12.2288 20.5421 0.0182489
10.3852 19.3128 2
8.4154 18.0252 3.98891
11.6556 17.5586 0.0148186
9.75948 16.1536 2
7.74928 14.6715 4
11.219 14.3703 0.00923227
9.30602 12.7745 2
10.9835 10.9835 0
14.461 32.855 3.97319
17.7996 33.0995 2
20.5039 33.3795 0.026002
15.4668 29.6267 2
15.8793 26.3906 0.0264656
18.3322 30.1579 0.027848
12.8697 36.2053 3.97245
14.8766 36.0132 2
17.6213 35.9564 0.0235823
12.5796 37.8276 2
11.2548 38.3086 3.9733
14.282 39.1758 0.0260865
11.8947 40.142 2
9.74238 40.7547 3.97422
12.3805 42.2793 0.0258863
10.1556 42.7798 2
7.93083 43.2697 3.97606
10.5569 44.8041 0.0249643
8.38184 45.3214 2
6.12794 45.9043 3.97919
8.9034 47.3194 0.0230797
6.72152 47.9997 2
4.42045 48.7495 3.98703
7.42925 50.0351 0.0187585
5.20846 50.9082 2
2.85457 51.8506 4
6.13164 53.007 0.0123728
3.86727 54.0858 2
5.0241 56.25 0
12.051 31.2519 3.97353
10.7748 28.4118 3.97427
12.9089 29.0265 2
9.40758 25.7957 3.97752
11.3613 26.4827 2
13.4534 26.8068 0.024915
8.22536 23.021 3.98154
10.1919 23.963 2
11.9307 24.7824 0.0224393
7.19746 19.9761 3.98814
9.23749 21.1332 2
11.1318 22.2281 0.0196199
10.3854 19.3139 0.0153242
8.41504 18.0253 2
6.31992 16.6661 4
9.75968 16.1537 0.0102436
7.74926 14.6714 2
9.30607 12.7746 0
12.0714 34.2907 3.97326
14.4604 32.8549 2
17.8004 33.0996 0.0273028
15.4675 29.6274 0.0266416
10.82 36.6083 3.97195
12.8692 36.2054 2
14.8772 36.0131 0.0261191
12.5803 37.8274 0.0260264
11.2543 38.3089 2
9.33939 38.8229 3.97346
11.8953 40.1413 0.026375
9.74202 40.7553 2
7.54315 41.2107 3.97539
10.1557 42.7791 0.0252043
7.93082 43.2703 2
5.64003 43.7673 3.97927
8.38169 45.3209 0.0236657
6.1281 45.9045 2
3.7664 46.5356 3.98679
6.72133 47.9995 0.0201674
4.42044 48.7489 2
1.99014 49.554 4
5.20856 50.9092 0.0126052
2.85451 51.8506 2
3.86727 54.0858 0
10.9149 32.916 3.97447
10.0886 30.3794 3.97431
12.0506 31.2517 2
8.71648 27.7304 3.97626
10.7744 28.4112 2
12.9095 29.0272 0.0282549
7.35137 24.9815 3.98043
9.40758 25.7951 2
11.3613 26.4833 0.0236557
6.11453 22.0012 3.98723
8.22538 23.0204 2
10.192 23.9639 0.0213996
5.02411 18.75 4
7.19706 19.9768 2
9.23761 21.1341 0.0165871
8.4154 18.0252 0.0110878
6.3199 16.6661 2
7.74928 14.6715 0
10.4307 34.9973 3.97393
12.0709 34.2906 2
14.461 32.855 0.0268066
9.01379 36.9834 3.97194
10.8196 36.6083 2
12.8697 36.2053 0.0275508
11.2548 38.3086 0.0267015
9.339 38.8232 2
7.22557 39.1811 3.97455
9.74238 40.7547 0.0257811
7.54295 41.2112 2
5.25608 41.6131 3.97851
7.93083 43.2697 0.0239385
5.64006 43.7675 2
3.2443 44.2811 3.98661
6.12794 45.9043 0.0208052
3.76644 46.5354 2
1.27781 47.2057 4
4.42045 48.7495 0.0129661
1.99012 49.554 2
2.85457 51.8506 0
10.0826 33.879 3.97463
9.38303 32.1523 3.97457
10.9145 32.9158 2
8.06654 29.6944 3.97574
10.0883 30.3791 2
12.051 31.2519 0.0264727
6.59561 27.0083 3.97945
8.71625 27.7299 2
10.7748 28.4118 0.0257281
5.16991 24.0954 3.9869
7.35147 24.9811 2
9.40758 25.7957 0.0224784
3.86728 20.9142 4
6.11426 22.0022 2
8.22536 23.021 0.0184571
5.02406 18.75 2
7.19746 19.9761 0.0118636
6.31992 16.6661 0
8.8398 35.2777 3.97348
10.4303 34.9972 2
12.0714 34.2907 0.0267428
7.01123 37.2049 3.97327
9.01348 36.9835 2
10.82 36.6083 0.0280472
9.33939 38.8229 0.0265385
7.22534 39.1814 2
4.98512 39.4665 3.97725
7.54315 41.2107 0.0246125
5.25598 41.6133 2
2.85511 42.0019 3.98586
5.64003 43.7673 0.0207334
3.24432 44.2814 2
0.720592 44.8159 4
3.7664 46.5356 0.0132094
1.27778 47.2057 2
1.99014 49.554 0
8.88051 33.6959 3.97451
10.0822 33.8788 2
7.50517 31.6084 3.97549
9.38268 32.1521 2
10.9149 32.916 0.0255272
5.94138 29.0697 3.97878
8.06633 29.6941 2
10.0886 30.3794 0.025691
4.35777 26.2485 3.98673
6.59554 27.008 2
8.71648 27.7304 0.0237413
2.85458 23.1494 4
5.16979 24.0963 2
7.35137 24.9815 0.0195742
3.86728 20.9142 2
6.11453 22.0012 0.0127715
5.02411 18.75 0
6.96149 35.3052 3.97381
8.8395 35.2776 2
10.4307 34.9973 0.0260689
4.83632 37.3392 3.97642
7.01104 37.205 2
9.01379 36.9834 0.0280565
7.22557 39.1811 0.0254454
4.98499 39.4667 2
2.60367 39.7138 3.98452
5.25608 41.6131 0.0214939
2.85511 42.0024 2
0.320823 42.3947 4
3.2443 44.2811 0.013389
0.720551 44.8159 2
1.27781 47.2057 0
7.12027 33.4602 3.97495
8.88016 33.6957 2
10.0826 33.879 0.0253727
5.41304 31.1338 3.97827
7.50489 31.6082 2
9.38303 32.1523 0.0254255
3.67981 28.4443 3.98638
5.94128 29.0696 2
8.06654 29.6944 0.0242562
1.99015 25.446 4
4.35764 26.2491 2
6.59561 27.0083 0.0205479
2.85453 23.1494 2
5.16991 24.0954 0.013096
3.86728 20.9142 0
4.85074 35.2514 3.97662
6.96127 35.3052 2
8.8398 35.2777 0.0265156
2.4954 37.4284 3.98394
4.83623 37.3394 2
7.01123 37.2049 0.0267259
4.98512 39.4665 0.0227451
2.60363 39.7144 2
0.080333 39.9526 4
2.85511 42.0019 0.014143
0.320817 42.3947 2
0.720592 44.8159 0
5.04337 33.1903 3.97762
7.11998 33.46 2
8.88051 33.6959 0.0254897
3.14451 30.6666 3.98562
5.41284 31.1339 2
7.50517 31.6084 0.0245128
1.27793 27.7943 4
3.67973 28.4446 2
5.94138 29.0697 0.0212225
1.99013 25.446 2
4.35777 26.2485 0.0132696
2.85458 23.1494 0
2.54759 35.159 3.98394
4.85059 35.2516 2
6.96149 35.3052 0.0261856
0 37.5 4
2.49542 37.429 2
4.83632 37.3392 0.0235785
2.60367 39.7138 0.015482
0.0802903 39.9526 2
0.320823 42.3947 0
2.76492 32.9059 3.98469
5.04315 33.1905 2
7.12027 33.4602 0.0250483
0.721173 30.1842 4
3.14442 30.6668 2
5.41304 31.1338 0.0217341
1.27779 27.7943 2
3.67981 28.4443 0.0136187
1.99015 25.446 0
0.0806499 35.0474 4
2.54756 35.1595 2
4.85074 35.2514 0.0233803
0 37.5 2
2.4954 37.4284 0.0160585
0.080333 39.9526 0
0.32156 32.6054 4
2.76484 32.9062 2
5.04337 33.1903 0.0223813
0.72056 30.1841 2
3.14451 30.6666 0.0143784
1.27793 27.7943 0
0.0802889 35.0474 2
2.54759 35.159 0.0160566
0 37.5 0
0.320817 32.6053 2
2.76492 32.9059 0.0153109
0.721173 30.1842 0
0.0806499 35.0474 0
0.32156 32.6054 0
CELLS 1910 17190
8 18 6 25 56 2 0 5 16
8 57 23 6 18 17 4 0 2
8 78 36 9 29 31 11 1 7
8 31 11 1 7 79 37 10 30
8 110 57 18 50 48 17 2 14
8 50 18 56 111 14 2 16 49
8 116 62 22 55 52 20 3 15
8 56 25 67 118 16 5 24 53
8 119 63 23 57 54 21 4 17
8 55 22 63 119 15 3 21 54
8 58 26 68 121 18 6 25 56
8 122 65 26 58 57 23 6 18
8 73 31 7 27 142 79 30 71
8 143 78 29 72 73 31 7 27
8 83 147 76 34 32 74 28 8
8 84 148 78 36 33 75 29 9
8 76 34 8 28 148 84 33 75
8 37 79 150 86 10 30 77 35
8 151 87 36 78 80 38 11 31
8 80 38 11 31 152 88 37 79
8 175 100 42 94 96 44 12 40
8 44 96 176 101 12 40 95 43
8 101 176 98 46 43 95 41 13
8 46 98 178 103 13 41 97 45
8 178 103 45 97 147 83 32 74
8 189 116 55 109 106 52 15 47
8 111 56 118 191 49 16 53 107
8 192 119 57 110 108 54 17 48
8 109 55 119 192 47 15 54 108
8 194 122 58 112 110 57 18 50
8 112 58 121 195 50 18 56 111
8 115 61 19 51 197 124 59 113
8 115 61 125 198 51 19 60 114
8 198 125 62 116 114 60 20 52
8 200 127 64 120 116 62 22 55
8 118 67 132 202 53 24 66 117
8 121 68 133 203 56 25 67 118
8 120 64 128 204 55 22 63 119
8 204 128 65 122 119 63 23 57
8 206 134 68 121 123 69 26 58
8 123 69 26 58 207 131 65 122
8 226 147 74 138 140 76 28 70
8 229 148 75 139 143 78 29 72
8 140 76 28 70 229 148 75 139
8 142 79 30 71 231 150 77 141
8 144 80 31 73 232 152 79 142
8 233 151 78 143 144 80 31 73
8 150 86 35 77 235 154 81 145
8 235 154 81 145 146 82 39 91
8 146 82 39 91 236 155 90 165
8 238 157 83 147 149 85 34 76
8 239 158 84 148 151 87 36 78
8 149 85 34 76 239 158 84 148
8 152 88 37 79 241 160 86 150
8 242 161 87 151 153 89 38 80
8 153 89 38 80 243 162 88 152
8 171 98 41 92 265 178 97 169
8 265 178 97 169 226 147 74 138
8 172 96 40 93 266 176 95 170
8 266 176 95 170 171 98 41 92
8 269 175 94 173 172 96 40 93
8 271 180 99 174 175 100 42 94
8 197 124 59 113 271 180 99 174
8 272 181 100 175 177 102 44 96
8 273 182 101 176 179 104 46 98
8 177 102 44 96 273 182 101 176
8 179 104 46 98 275 184 103 178
8 275 184 103 178 238 157 83 147
8 188 115 51 105 283 197 113 186
8 188 115 198 284 105 51 114 187
8 284 198 116 189 187 114 52 106
8 286 200 120 193 189 116 55 109
8 191 118 202 288 107 53 117 190
8 195 121 203 289 111 56 118 191
8 193 120 204 290 109 55 119 192
8 290 204 122 194 192 119 57 110
8 196 123 58 112 292 207 122 194
8 293 206 121 195 196 123 58 112
8 199 126 61 115 297 211 124 197
8 298 212 127 200 198 125 62 116
8 199 126 212 298 115 61 125 198
8 205 129 64 120 300 214 127 200
8 301 217 130 201 202 132 66 117
8 209 136 168 264 301 217 130 201
8 302 219 132 202 203 133 67 118
8 303 220 133 203 206 134 68 121
8 205 129 215 304 120 64 128 204
8 304 215 131 207 204 128 65 122
8 306 221 134 206 208 135 69 123
8 208 135 69 123 307 218 131 207
8 210 137 167 263 309 223 136 209
8 328 238 147 226 230 149 76 140
8 228 146 91 166 329 236 165 260
8 231 150 77 141 330 235 145 227
8 330 235 145 227 228 146 91 166
8 332 239 148 229 233 151 78 143
8 230 149 76 140 332 239 148 229
8 232 152 79 142 334 241 150 231
8 234 153 80 144 335 243 152 232
8 336 242 151 233 234 153 80 144
8 236 155 90 165 338 245 164 259
8 241 160 86 150 339 246 154 235
8 339 246 154 235 237 156 82 146
8 237 156 82 146 340 247 155 236
8 342 249 157 238 240 159 85 149
8 343 250 158 239 242 161 87 151
8 240 159 85 149 343 250 158 239
8 243 162 88 152 345 252 160 241
8 244 163 253 346 153 89 161 242
8 244 163 89 153 347 254 162 243
8 311 224 261 371 210 137 167 263
8 263 167 262 372 209 136 168 264
8 267 179 98 171 375 275 178 265
8 375 275 178 265 328 238 147 226
8 376 273 176 266 267 179 98 171
8 268 177 96 172 376 273 176 266
8 379 272 175 269 268 177 96 172
8 380 271 174 270 269 175 94 173
8 283 197 113 186 380 271 174 270
8 381 277 180 271 272 181 100 175
8 297 211 124 197 381 277 180 271
8 382 278 181 272 274 183 102 177
8 274 183 102 177 383 279 182 273
8 383 279 182 273 276 185 104 179
8 385 281 184 275 342 249 157 238
8 276 185 104 179 385 281 184 275
8 285 199 115 188 393 297 197 283
8 394 298 200 286 284 198 116 189
8 285 199 298 394 188 115 198 284
8 291 205 120 193 396 300 200 286
8 397 301 201 287 288 202 117 190
8 295 209 264 374 397 301 201 287
8 398 302 202 288 289 203 118 191
8 399 303 203 289 293 206 121 195
8 291 205 304 400 193 120 204 290
8 400 304 207 292 290 204 122 194
8 294 208 123 196 402 307 207 292
8 403 306 206 293 294 208 123 196
8 296 210 263 373 405 309 209 295
8 408 312 213 299 297 211 126 199
8 299 213 313 409 199 126 212 298
8 409 313 214 300 298 212 127 200
8 305 216 129 205 411 315 214 300
8 412 318 217 301 302 219 132 202
8 309 223 136 209 412 318 217 301
8 413 320 219 302 303 220 133 203
8 306 221 321 414 206 134 220 303
8 307 218 131 207 415 316 215 304
8 305 216 316 415 205 129 215 304
8 417 322 221 306 308 222 135 208
8 308 222 135 208 418 319 218 307
8 310 225 137 210 420 325 223 309
8 423 326 224 311 310 225 137 210
8 329 236 165 260 441 338 259 368
8 442 342 238 328 333 240 149 230
8 331 237 146 228 443 340 236 329
8 334 241 150 231 444 339 235 330
8 444 339 235 330 331 237 146 228
8 446 343 239 332 336 242 151 233
8 333 240 149 230 446 343 239 332
8 335 243 152 232 448 345 241 334
8 337 244 153 234 449 347 243 335
8 337 244 346 450 234 153 242 336
8 338 245 164 259 452 349 258 367
8 340 247 155 236 453 350 245 338
8 345 252 160 241 454 351 246 339
8 454 351 246 339 341 248 156 237
8 341 248 156 237 455 352 247 340
8 240 159 251 344 342 249 354 457
8 242 161 253 346 343 250 355 458
8 343 250 355 458 240 159 251 344
8 347 254 162 243 460 357 252 345
8 348 255 358 461 244 163 253 346
8 348 255 163 244 462 359 254 347
8 473 360 257 365 363 256 364 482
8 452 349 258 367 365 257 366 485
8 422 324 369 488 311 224 261 371
8 371 261 370 490 263 167 262 372
8 407 311 371 491 296 210 263 373
8 373 263 372 492 295 209 264 374
8 493 385 275 375 442 342 238 328
8 377 276 179 267 493 385 275 375
8 378 274 177 268 494 383 273 376
8 494 383 273 376 377 276 179 267
8 497 382 272 379 378 274 177 268
8 498 381 271 380 379 272 175 269
8 393 297 197 283 498 381 271 380
8 499 387 277 381 382 278 181 272
8 408 312 211 297 499 387 277 381
8 500 388 278 382 384 280 183 274
8 501 389 279 383 386 282 185 276
8 384 280 183 274 501 389 279 383
8 386 282 185 276 503 391 281 385
8 503 391 281 385 457 354 249 342
8 511 408 299 395 393 297 199 285
8 395 299 409 512 285 199 298 394
8 512 409 300 396 394 298 200 286
8 401 305 205 291 514 411 300 396
8 515 412 301 397 398 302 202 288
8 405 309 209 295 515 412 301 397
8 516 413 302 398 399 303 203 289
8 403 306 414 517 293 206 303 399
8 402 307 207 292 518 415 304 400
8 401 305 415 518 291 205 304 400
8 404 308 208 294 520 418 307 402
8 521 417 306 403 404 308 208 294
8 406 310 210 296 523 420 309 405
8 526 423 311 407 406 310 210 296
8 410 314 213 299 527 424 312 408
8 528 425 315 411 409 313 214 300
8 410 314 425 528 299 213 313 409
8 416 317 216 305 530 427 315 411
8 531 430 318 412 413 320 219 302
8 420 325 223 309 531 430 318 412
8 532 432 320 413 414 321 220 303
8 417 322 433 533 306 221 321 414
8 418 319 218 307 534 428 316 415
8 416 317 428 534 305 216 316 415
8 419 323 434 536 308 222 322 417
8 419 323 222 308 537 431 319 418
8 421 327 225 310 539 438 325 420
8 421 327 439 541 310 225 326 423
8 543 437 324 422 423 326 224 311
8 441 338 259 368 559 452 367 486
8 443 340 236 329 560 453 338 441
8 333 240 344 447 442 342 457 561
8 445 341 237 331 562 455 340 443
8 448 345 241 334 563 454 339 444
8 563 454 339 444 445 341 237 331
8 336 242 346 450 446 343 458 565
8 446 343 458 565 333 240 344 447
8 449 347 243 335 567 460 345 448
8 451 348 244 337 568 462 347 449
8 451 348 461 569 337 244 346 450
8 570 463 349 452 473 360 257 365
8 453 350 245 338 570 463 349 452
8 455 352 247 340 571 464 350 453
8 460 357 252 345 572 465 351 454
8 572 465 351 454 456 353 248 341
8 456 353 248 341 573 466 352 455
8 344 251 356 459 457 354 468 575
8 458 355 469 576 344 251 356 459
8 346 253 358 461 458 355 469 576
8 462 359 254 347 578 471 357 460
8 348 255 359 462 461 358 472 579
8 591 474 360 473 475 361 256 363
8 475 361 256 363 594 477 362 479
8 363 256 364 482 479 362 480 603
8 590 473 365 484 481 363 482 605
8 482 364 257 365 606 483 366 485
8 559 452 367 486 484 365 485 607
8 542 436 487 609 422 324 369 488
8 525 422 488 611 407 311 371 491
8 488 369 489 612 371 261 370 490
8 491 371 490 613 373 263 372 492
8 495 386 276 377 614 503 385 493
8 614 503 385 493 561 457 342 442
8 615 501 383 494 495 386 276 377
8 496 384 274 378 615 501 383 494
8 618 500 382 497 496 384 274 378
8 619 499 381 498 497 382 272 379
8 511 408 297 393 619 499 381 498
8 620 505 387 499 500 388 278 382
8 527 424 312 408 620 505 387 499
8 502 390 506 621 384 280 388 500
8 622 507 389 501 504 392 282 386
8 502 390 280 384 622 507 389 501
8 504 392 282 386 624 509 391 503
8 624 509 391 503 575 468 354 457
8 513 410 299 395 630 527 408 511
8 631 528 411 514 512 409 300 396
8 513 410 528 631 395 299 409 512
8 519 416 305 401 633 530 411 514
8 634 531 412 515 516 413 302 398
8 523 420 309 405 634 531 412 515
8 635 532 413 516 517 414 303 399
8 521 417 533 636 403 306 414 517
8 520 418 307 402 637 534 415 518
8 519 416 534 637 401 305 415 518
8 522 419 308 404 639 537 418 520
8 522 419 536 640 404 308 417 521
8 524 421 310 406 642 539 420 523
8 524 421 541 644 406 310 423 526
8 646 543 422 525 526 423 311 407
8 529 426 314 410 647 544 424 527
8 528 425 545 648 411 315 427 530
8 529 426 545 648 410 314 425 528
8 535 429 317 416 649 546 427 530
8 650 548 430 531 532 432 320 413
8 539 438 325 420 650 548 430 531
8 533 433 550 651 414 321 432 532
8 536 434 551 652 417 322 433 533
8 537 431 319 418 653 547 428 534
8 535 429 547 653 416 317 428 534
8 538 435 552 654 419 323 434 536
8 538 435 323 419 655 549 431 537
8 540 440 327 421 657 556 438 539
8 540 440 557 659 421 327 439 541
8 541 439 555 660 423 326 437 543
8 661 554 436 542 543 437 324 422
8 676 570 452 559 590 473 365 484
8 560 453 338 441 676 570 452 559
8 562 455 340 443 677 571 453 560
8 447 344 459 566 561 457 575 678
8 564 456 341 445 679 573 455 562
8 567 460 345 448 680 572 454 563
8 680 572 454 563 564 456 341 445
8 565 458 576 682 447 344 459 566
8 450 346 461 569 565 458 576 682
8 568 462 347 449 684 578 460 567
8 451 348 462 568 569 461 579 685
8 686 580 463 570 591 474 360 473
8 571 464 350 453 686 580 463 570
8 573 466 352 455 687 581 464 571
8 572 465 582 688 460 357 471 578
8 574 467 582 688 456 353 465 572
8 574 467 353 456 689 583 466 573
8 459 356 470 577 575 468 585 691
8 576 469 586 692 459 356 470 577
8 461 358 472 579 576 469 586 692
8 462 359 471 578 579 472 588 694
8 704 591 473 590 593 475 363 481
8 595 476 592 705 475 361 474 591
8 593 475 363 481 707 594 479 602
8 594 477 362 479 709 598 478 600
8 595 476 361 475 711 597 477 594
8 479 362 480 603 600 478 601 720
8 481 363 482 605 602 479 603 722
8 603 480 364 482 723 604 483 606
8 605 482 365 484 724 606 485 607
8 656 553 608 726 542 436 487 609
8 645 542 609 728 525 422 488 611
8 609 487 610 729 488 369 489 612
8 611 488 612 730 491 371 490 613
8 616 504 386 495 731 624 503 614
8 731 624 503 614 678 575 457 561
8 732 622 501 615 616 504 386 495
8 617 502 384 496 732 622 501 615
8 617 502 621 735 496 384 500 618
8 736 620 499 619 618 500 382 497
8 630 527 408 511 736 620 499 619
8 621 506 626 737 500 388 505 620
8 647 544 424 527 737 626 505 620
8 623 508 627 738 502 390 506 621
8 623 508 390 502 739 628 507 622
8 625 510 628 739 504 392 507 622
8 740 629 509 624 691 585 468 575
8 625 510 392 504 740 629 509 624
8 632 529 410 513 744 647 527 630
8 631 528 648 745 514 411 530 633
8 632 529 648 745 513 410 528 631
8 638 535 416 519 746 649 530 633
8 747 650 531 634 635 532 413 516
8 642 539 420 523 747 650 531 634
8 636 533 651 748 517 414 532 635
8 640 536 652 749 521 417 533 636
8 639 537 418 520 750 653 534 637
8 638 535 653 750 519 416 534 637
8 641 538 419 522 751 655 537 639
8 641 538 654 752 522 419 536 640
8 643 540 421 524 753 657 539 642
8 643 540 659 755 524 421 541 644
8 644 541 660 757 526 423 543 646
8 758 661 542 645 646 543 422 525
8 529 426 544 647 648 545 662 759
8 530 427 545 648 649 546 663 760
8 535 429 546 649 653 547 664 761
8 762 666 548 650 651 550 432 532
8 657 556 438 539 762 666 548 650
8 652 551 668 763 533 433 550 651
8 654 552 669 764 536 434 551 652
8 655 549 431 537 765 665 547 653
8 538 435 549 655 654 552 667 766
8 661 554 671 768 542 436 553 656
8 658 558 440 540 769 674 556 657
8 658 558 675 770 540 440 557 659
8 659 557 673 771 541 439 555 660
8 660 555 672 772 543 437 554 661
8 788 686 570 676 704 591 473 590
8 677 571 453 560 788 686 570 676
8 679 573 455 562 789 687 571 677
8 566 459 577 683 678 575 691 790
8 681 574 456 564 791 689 573 679
8 680 572 688 792 567 460 578 684
8 681 574 688 792 564 456 572 680
8 682 576 692 794 566 459 577 683
8 569 461 579 685 682 576 692 794
8 568 462 578 684 685 579 694 796
8 687 581 464 571 798 696 580 686
8 798 696 580 686 705 592 474 591
8 689 583 466 573 799 697 581 687
8 688 582 698 800 578 471 588 694
8 690 584 698 800 574 467 582 688
8 690 584 467 574 801 699 583 689
8 693 587 701 803 577 470 585 691
8 693 587 470 577 804 702 586 692
8 695 589 702 804 579 472 586 692
8 695 589 472 579 805 703 588 694
8 708 595 705 813 593 475 591 704
8 710 596 706 814 595 476 592 705
8 707 594 479 602 816 709 600 719
8 708 595 475 593 817 711 594 707
8 709 598 478 600 819 715 599 717
8 711 597 477 594 820 714 598 709
8 710 596 476 595 822 713 597 711
8 600 478 601 720 717 599 718 832
8 602 479 603 722 719 600 720 834
8 720 601 480 603 835 721 604 723
8 722 603 482 605 836 723 606 724
8 767 670 725 839 656 553 608 726
8 756 656 726 841 645 542 609 728
8 726 608 727 842 609 487 610 729
8 728 609 729 843 611 488 612 730
8 844 740 624 731 790 691 575 678
8 733 625 504 616 844 740 624 731
8 734 623 502 617 845 739 622 732
8 733 625 739 845 616 504 622 732
8 734 623 738 846 617 502 621 735
8 735 621 737 847 618 500 620 736
8 744 647 527 630 847 737 620 736
8 621 506 627 738 737 626 741 848
8 647 544 626 737 759 662 741 848
8 623 508 628 739 738 627 742 849
8 740 629 585 691 850 743 700 802
8 625 510 629 740 739 628 743 850
8 632 529 647 744 745 648 759 854
8 633 530 648 745 746 649 760 855
8 638 535 649 746 750 653 761 856
8 857 762 650 747 748 651 532 635
8 753 657 539 642 857 762 650 747
8 749 652 763 858 636 533 651 748
8 752 654 764 859 640 536 652 749
8 751 655 537 639 860 765 653 750
8 641 538 655 751 752 654 766 861
8 754 658 540 643 862 769 657 753
8 754 658 770 863 643 540 659 755
8 755 659 771 864 644 541 660 757
8 758 661 768 866 645 542 656 756
8 757 660 772 867 646 543 661 758
8 759 662 773 868 648 545 663 760
8 649 546 663 760 761 664 774 871
8 765 665 547 653 872 775 664 761
8 873 777 666 762 763 668 550 651
8 769 674 556 657 873 777 666 762
8 764 669 779 874 652 551 668 763
8 654 552 667 766 764 669 778 875
8 655 549 665 765 766 667 776 876
8 768 671 782 877 656 553 670 767
8 772 672 783 878 661 554 671 768
8 658 558 674 769 770 675 786 879
8 659 557 675 770 771 673 785 881
8 882 784 672 772 771 673 555 660
8 789 687 571 677 897 798 686 788
8 897 798 686 788 813 705 591 704
8 791 689 573 679 898 799 687 789
8 795 693 803 900 683 577 691 790
8 793 690 574 681 901 801 689 791
8 792 688 800 902 684 578 694 796
8 793 690 800 902 681 574 688 792
8 795 693 577 683 903 804 692 794
8 797 695 804 903 685 579 692 794
8 797 695 579 685 904 805 694 796
8 905 806 697 799 798 696 581 687
8 814 706 806 905 705 592 696 798
8 689 583 697 799 801 699 808 907
8 800 698 809 908 694 588 703 805
8 690 584 699 801 800 698 809 908
8 803 701 810 909 691 585 700 802
8 693 587 702 804 803 701 811 910
8 695 589 703 805 804 702 812 911
8 818 710 814 919 708 595 705 813
8 821 712 815 920 710 596 706 814
8 816 709 600 719 922 819 717 831
8 817 711 594 707 923 820 709 816
8 818 710 595 708 924 822 711 817
8 819 715 599 717 926 827 716 829
8 820 714 598 709 927 826 715 819
8 929 825 713 822 820 714 597 711
8 821 712 596 710 930 824 713 822
8 717 599 718 832 829 716 830 942
8 719 600 720 834 831 717 832 944
8 832 718 601 720 945 833 721 835
8 834 720 603 722 946 835 723 836
8 869 780 838 950 767 670 725 839
8 865 767 839 952 756 656 726 841
8 839 725 840 953 726 608 727 842
8 841 726 842 954 728 609 729 843
8 844 740 691 790 955 850 802 899
8 733 625 740 844 845 739 850 955
8 734 623 739 845 846 738 849 956
8 735 621 738 846 847 737 848 957
8 744 647 737 847 854 759 848 957
8 738 627 742 849 848 741 851 958
8 848 741 851 958 759 662 773 868
8 850 743 700 802 959 852 807 906
8 849 742 628 739 959 852 743 850
8 854 759 868 965 745 648 760 855
8 746 649 760 855 856 761 871 966
8 860 765 653 750 967 872 761 856
8 968 873 762 857 858 763 651 748
8 862 769 657 753 968 873 762 857
8 859 764 874 969 749 652 763 858
8 752 654 766 861 859 764 875 970
8 751 655 765 860 861 766 876 971
8 754 658 769 862 863 770 879 972
8 755 659 770 863 864 771 881 974
8 976 882 772 867 864 771 660 757
8 866 768 877 977 756 656 767 865
8 867 772 878 978 758 661 768 866
8 760 663 773 868 871 774 883 980
8 870 781 837 948 982 890 780 869
8 982 890 780 869 877 782 670 767
8 761 664 774 871 872 775 884 984
8 876 776 665 765 985 885 775 872
8 873 777 668 763 986 887 779 874
8 769 674 777 873 879 786 887 986
8 764 669 778 875 874 779 888 987
8 766 667 776 876 875 778 886 988
8 878 783 892 989 768 671 782 877
8 878 783 672 772 990 893 784 882
8 880 787 675 770 991 896 786 879
8 880 787 895 992 770 675 785 881
8 881 785 894 993 771 673 784 882
8 1006 905 799 898 897 798 687 789
8 919 814 905 1006 813 705 798 897
8 791 689 799 898 901 801 907 1007
8 900 803 909 1009 790 691 802 899
8 795 693 804 903 900 803 910 1010
8 902 800 908 1011 796 694 805 904
8 793 690 801 901 902 800 908 1011
8 797 695 805 904 903 804 911 1012
8 799 697 806 905 907 808 912 1013
8 920 815 912 1013 814 706 806 905
8 802 700 810 909 906 807 913 1014
8 801 699 808 907 908 809 914 1015
8 805 703 809 908 911 812 915 1016
8 803 701 811 910 909 810 916 1017
8 911 812 917 1018 804 702 811 910
8 925 821 920 1030 818 710 814 919
8 928 823 921 1031 821 712 815 920
8 922 819 717 831 1033 926 829 941
8 923 820 709 816 1034 927 819 922
8 1035 929 822 924 923 820 711 817
8 925 821 710 818 1036 930 822 924
8 1038 933 825 929 927 826 714 820
8 926 827 716 829 1039 935 828 939
8 927 826 715 819 1040 934 827 926
8 928 823 712 821 1041 931 824 930
8 1042 932 824 930 929 825 713 822
8 829 716 830 942 939 828 940 1058
8 831 717 832 944 941 829 942 1060
8 942 830 718 832 1061 943 833 945
8 944 832 720 834 1062 945 835 946
8 981 889 947 1064 870 781 837 948
8 948 837 949 1067 869 780 838 950
8 975 869 950 1069 865 767 839 952
8 950 838 951 1070 839 725 840 953
8 952 839 953 1071 841 726 842 954
8 955 850 802 899 1072 959 906 1008
8 956 849 739 845 1072 959 850 955
8 846 738 849 956 957 848 958 1073
8 957 848 958 1073 854 759 868 965
8 849 742 852 959 958 851 961 1076
8 960 853 961 1076 906 807 852 959
8 958 851 961 1076 868 773 883 980
8 960 853 807 906 1077 963 913 1014
8 855 760 868 965 966 871 980 1085
8 856 761 871 966 967 872 984 1086
8 971 876 765 860 1087 985 872 967
8 968 873 763 858 1088 986 874 969
8 862 769 873 968 972 879 986 1088
8 859 764 875 970 969 874 987 1089
8 861 766 876 971 970 875 988 1090
8 973 880 770 863 1091 991 879 972
8 973 880 992 1092 863 770 881 974
8 974 881 993 1093 864 771 882 976
8 979 870 948 1066 1094 982 869 975
8 1094 982 869 975 977 877 767 865
8 978 878 772 867 1095 990 882 976
8 978 878 989 1096 866 768 877 977
8 871 774 883 980 984 884 994 1099
8 983 891 999 1100 870 781 889 981
8 1101 1000 890 982 989 892 782 877
8 983 891 781 870 1101 1000 890 982
8 872 775 884 984 985 885 995 1103
8 876 776 885 985 988 886 996 1104
8 986 887 779 874 1105 998 888 987
8 879 786 887 986 991 896 998 1105
8 875 778 886 988 987 888 997 1106
8 990 893 1002 1107 878 783 892 989
8 1108 1003 893 990 993 894 784 882
8 880 787 896 991 992 895 1005 1109
8 993 894 785 881 1110 1004 895 992
8 898 799 905 1006 1007 907 1013 1120
8 1030 920 1013 1120 919 814 905 1006
8 901 801 907 1007 1011 908 1015 1121
8 899 802 909 1009 1008 906 1014 1122
8 900 803 910 1010 1009 909 1017 1123
8 1012 911 1018 1124 903 804 910 1010
8 904 805 908 1011 1012 911 1016 1125
8 1013 912 1020 1127 907 808 914 1015
8 1031 921 1020 1127 920 815 912 1013
8 1019 918 962 1075 1128 1021 913 1014
8 1128 1021 913 1014 1017 916 810 909
8 1015 914 1022 1129 908 809 915 1016
8 1016 915 1023 1130 911 812 917 1018
8 1018 917 1024 1131 910 811 916 1017
8 1037 928 1031 1148 925 821 920 1030
8 928 823 931 1041 1031 921 1032 1149
8 1033 926 829 941 1151 1039 939 1057
8 1034 927 819 922 1152 1040 926 1033
8 1153 1038 929 1035 1034 927 820 923
8 1154 1042 930 1036 1035 929 822 924
8 1037 928 821 925 1155 1041 930 1036
8 1039 935 828 939 1156 1047 938 1055
8 1157 1043 932 1042 1038 933 825 929
8 1038 933 826 927 1158 1045 934 1040
8 1040 934 827 926 1159 1046 935 1039
8 930 824 932 1042 1041 931 1044 1160
8 1051 936 1048 1165 1175 1052 937 1053
8 1156 1047 938 1055 1053 937 1054 1178
8 939 828 940 1058 1055 938 1056 1181
8 941 829 942 1060 1057 939 1058 1183
8 942 830 943 1061 1058 940 1059 1184
8 1060 942 832 944 1185 1061 945 1062
8 1082 964 1063 1188 981 889 947 1064
8 1097 981 1064 1190 979 870 948 1066
8 1064 947 1065 1191 948 837 949 1067
8 1066 948 1067 1193 975 869 950 1069
8 1067 949 1068 1194 950 838 951 1070
8 1069 950 1070 1195 952 839 953 1071
8 956 849 959 1072 1073 958 1076 1197
8 1074 960 1076 1197 1008 906 959 1072
8 1073 958 1076 1197 965 868 980 1085
8 1074 960 906 1008 1198 1077 1014 1122
8 1133 1026 1079 1199 1019 918 962 1075
8 1077 963 913 1014 1200 1080 962 1075
8 960 853 963 1077 1076 961 1078 1201
8 980 883 961 1076 1099 994 1078 1201
8 1210 1083 964 1082 1100 999 889 981
8 966 871 980 1085 1086 984 1099 1215
8 967 872 984 1086 1087 985 1103 1216
8 971 876 985 1087 1090 988 1104 1217
8 1088 986 874 969 1218 1105 987 1089
8 972 879 986 1088 1091 991 1105 1218
8 970 875 988 1090 1089 987 1106 1219
8 973 880 991 1091 1092 992 1109 1220
8 1093 993 881 974 1221 1110 992 1092
8 1222 1108 990 1095 1093 993 882 976
8 1223 1101 982 1094 1096 989 877 977
8 1098 983 870 979 1223 1101 982 1094
8 1095 990 1107 1224 978 878 989 1096
8 1098 983 1100 1225 979 870 981 1097
8 984 884 994 1099 1103 995 1111 1227
8 1102 1001 1115 1228 983 891 999 1100
8 1101 1000 892 989 1229 1116 1002 1107
8 1102 1001 891 983 1229 1116 1000 1101
8 985 885 995 1103 1104 996 1112 1230
8 988 886 996 1104 1106 997 1113 1231
8 1105 998 888 987 1232 1114 997 1106
8 991 896 998 1105 1109 1005 1114 1232
8 1108 1003 1117 1233 990 893 1002 1107
8 1108 1003 894 993 1233 1117 1004 1110
8 992 895 1005 1109 1110 1004 1118 1234
8 1120 1013 1127 1244 1007 907 1015 1121
8 1148 1031 1127 1244 1030 920 1013 1120
8 1121 1015 1129 1245 1011 908 1016 1125
8 1126 1019 1075 1196 1246 1128 1014 1122
8 1246 1128 1014 1122 1123 1017 909 1009
8 1124 1018 1131 1247 1010 910 1017 1123
8 1125 1016 1130 1248 1012 911 1018 1124
8 1127 1020 1137 1254 1015 914 1022 1129
8 1031 921 1032 1149 1127 1020 1137 1254
8 1134 1027 918 1019 1257 1140 1021 1128
8 1257 1140 1021 1128 1131 1024 916 1017
8 1129 1022 1141 1258 1016 915 1023 1130
8 1130 1023 1142 1259 1018 917 1024 1131
8 1261 1144 1025 1132 1133 1026 1079 1199
8 1255 1138 1025 1132 1135 1028 1144 1261
8 1133 1026 918 1019 1262 1145 1027 1134
8 1136 1029 1139 1256 1263 1146 1028 1135
8 1037 928 1041 1155 1148 1031 1149 1275
8 1041 931 1044 1160 1149 1032 1150 1276
8 1151 1039 939 1057 1278 1156 1055 1180
8 1152 1040 926 1033 1279 1159 1039 1151
8 1153 1038 927 1034 1280 1158 1040 1152
8 1281 1157 1042 1154 1153 1038 929 1035
8 1036 930 1042 1154 1155 1041 1160 1282
8 1283 1164 1046 1159 1156 1047 935 1039
8 1165 1048 1164 1283 1053 937 1047 1156
8 1157 1043 933 1038 1284 1161 1045 1158
8 1157 1043 1161 1284 1042 932 1044 1160
8 1040 934 1046 1159 1158 1045 1163 1285
8 1166 1049 1167 1292 1051 936 1048 1165
8 1166 1049 936 1051 1293 1168 1050 1172
8 1051 936 1052 1175 1172 1050 1173 1306
8 1174 1051 1165 1290 1308 1175 1053 1177
8 1053 937 1054 1178 1175 1052 1176 1309
8 1278 1156 1055 1180 1177 1053 1178 1311
8 1055 938 1056 1181 1178 1054 1179 1312
8 1057 939 1058 1183 1180 1055 1181 1314
8 1058 940 1059 1184 1181 1056 1182 1315
8 1060 942 1061 1185 1183 1058 1184 1316
8 1208 1081 1187 1321 1082 964 1063 1188
8 1209 1082 1188 1322 1097 981 1064 1190
8 1188 1063 1189 1323 1064 947 1065 1191
8 1190 1064 1191 1325 1066 948 1067 1193
8 1191 1065 1192 1326 1067 949 1068 1194
8 1067 1193 1069 950 1194 1327 1195 1070
8 1250 1133 1199 1330 1126 1019 1075 1196
8 1198 1077 1014 1122 1331 1200 1075 1196
8 1074 960 1077 1198 1197 1076 1201 1332
8 1085 980 1076 1197 1215 1099 1201 1332
8 1199 1079 1203 1333 1075 962 1080 1200
8 1132 1025 1119 1243 1199 1079 1203 1333
8 1201 1078 963 1077 1334 1202 1080 1200
8 1099 994 1078 1201 1227 1111 1202 1334
8 1343 1207 1081 1208 1210 1083 964 1082
8 1214 1084 1186 1319 1343 1207 1081 1208
8 1345 1210 1082 1209 1225 1100 981 1097
8 1346 1211 1083 1210 1228 1115 999 1100
8 1086 984 1099 1215 1216 1103 1227 1352
8 1087 985 1103 1216 1217 1104 1230 1353
8 1090 988 1104 1217 1219 1106 1231 1354
8 1218 1105 987 1089 1355 1232 1106 1219
8 1091 991 1105 1218 1220 1109 1232 1355
8 1092 992 1109 1220 1221 1110 1234 1356
8 1222 1108 1233 1357 1095 990 1107 1224
8 1222 1108 993 1093 1357 1233 1110 1221
8 1223 1101 989 1096 1358 1229 1107 1224
8 1226 1102 983 1098 1358 1229 1101 1223
8 1226 1102 1228 1359 1098 983 1100 1225
8 1103 995 1111 1227 1230 1112 1235 1360
8 1107 1002 1117 1233 1229 1116 1240 1362
8 1102 1001 1116 1229 1228 1115 1240 1362
8 1104 996 1112 1230 1231 1113 1236 1363
8 1364 1237 1114 1232 1231 1113 997 1106
8 1109 1005 1114 1232 1234 1118 1238 1365
8 1110 1004 1118 1234 1233 1117 1241 1366
8 1242 1374 1255 1138 1119 1243 1132 1025
8 1244 1127 1254 1376 1121 1015 1129 1245
8 1148 1031 1149 1275 1244 1127 1254 1376
8 1245 1129 1258 1377 1125 1016 1130 1248
8 1251 1134 1019 1126 1378 1257 1128 1246
8 1378 1257 1128 1246 1247 1131 1017 1123
8 1248 1130 1259 1379 1124 1018 1131 1247
8 1261 1381 1250 1133 1132 1249 1330 1199
8 1255 1380 1252 1135 1132 1249 1381 1261
8 1250 1133 1019 1126 1382 1262 1134 1251
8 1253 1136 1256 1385 1384 1263 1135 1252
8 1254 1137 1265 1387 1129 1022 1141 1258
8 1149 1032 1150 1276 1254 1137 1265 1387
8 1028 1135 1255 1138 1139 1256 1388 1266
8 1136 1029 1147 1264 1256 1139 1267 1389
8 1390 1268 1140 1257 1259 1142 1024 1131
8 1260 1143 1027 1134 1390 1268 1140 1257
8 1258 1141 1269 1391 1130 1023 1142 1259
8 1262 1145 1027 1134 1393 1271 1143 1260
8 1261 1144 1026 1133 1394 1272 1145 1262
8 1135 1028 1144 1261 1263 1146 1272 1394
8 1136 1029 1146 1263 1264 1147 1273 1395
8 1155 1041 1160 1282 1275 1149 1276 1405
8 1276 1150 1044 1160 1406 1277 1162 1286
8 1408 1283 1159 1279 1278 1156 1039 1151
8 1290 1165 1283 1408 1177 1053 1156 1278
8 1152 1040 1159 1279 1280 1158 1285 1409
8 1281 1157 1038 1153 1410 1284 1158 1280
8 1281 1157 1284 1410 1154 1042 1160 1282
8 1159 1046 1164 1283 1285 1163 1289 1412
8 1292 1167 1289 1412 1165 1048 1164 1283
8 1158 1045 1163 1285 1284 1161 1288 1413
8 1284 1161 1288 1413 1160 1044 1162 1286
8 1291 1166 1292 1418 1174 1051 1165 1290
8 1291 1166 1051 1174 1419 1293 1172 1305
8 1294 1169 1296 1421 1166 1049 1167 1292
8 1293 1168 1050 1172 1422 1295 1171 1303
8 1294 1169 1049 1166 1423 1297 1168 1293
8 1422 1295 1171 1303 1301 1170 1302 1435
8 1172 1050 1173 1306 1303 1171 1304 1438
8 1174 1051 1175 1308 1305 1172 1306 1440
8 1175 1052 1176 1309 1306 1173 1307 1441
8 1177 1053 1178 1311 1308 1175 1309 1443
8 1178 1054 1179 1312 1309 1176 1310 1444
8 1180 1055 1181 1314 1311 1178 1312 1446
8 1056 1181 1312 1179 1182 1315 1447 1313
8 1183 1058 1184 1316 1314 1181 1315 1448
8 1319 1186 1084 1214 1451 1317 1213 1350
8 1319 1186 1318 1453 1208 1081 1187 1321
8 1321 1187 1320 1456 1188 1063 1189 1323
8 1344 1208 1321 1457 1209 1082 1188 1322
8 1322 1188 1323 1458 1190 1064 1191 1325
8 1323 1189 1324 1459 1191 1065 1192 1326
8 1191 1325 1193 1067 1326 1460 1327 1194
8 1242 1374 1243 1119 1328 1462 1335 1204
8 1330 1199 1333 1465 1196 1075 1200 1331
8 1132 1249 1330 1199 1243 1375 1465 1333
8 1332 1201 1077 1198 1466 1334 1200 1331
8 1215 1099 1201 1332 1352 1227 1334 1466
8 1119 1243 1333 1203 1204 1335 1470 1338
8 1333 1203 1338 1470 1200 1080 1202 1334
8 1227 1111 1202 1334 1360 1235 1338 1470
8 1328 1462 1335 1204 1205 1336 1471 1339
8 1337 1206 1340 1472 1464 1329 1205 1336
8 1346 1211 1342 1479 1210 1083 1207 1343
8 1346 1211 1115 1228 1479 1342 1239 1361
8 1348 1212 1084 1214 1479 1342 1207 1343
8 1480 1343 1208 1344 1345 1210 1082 1209
8 1351 1214 1319 1454 1480 1343 1208 1344
8 1481 1346 1210 1345 1359 1228 1100 1225
8 1348 1212 1347 1483 1214 1084 1213 1350
8 1216 1103 1227 1352 1353 1230 1360 1488
8 1217 1104 1230 1353 1354 1231 1363 1489
8 1490 1364 1232 1355 1354 1231 1106 1219
8 1220 1109 1232 1355 1356 1234 1365 1491
8 1221 1110 1234 1356 1357 1233 1366 1492
8 1224 1107 1233 1357 1358 1229 1362 1493
8 1226 1102 1229 1358 1359 1228 1362 1493
8 1230 1112 1235 1360 1363 1236 1367 1496
8 1361 1239 1115 1228 1497 1371 1240 1362
8 1366 1241 1372 1498 1233 1117 1240 1362
8 1364 1237 1113 1231 1499 1368 1236 1363
8 1364 1237 1368 1499 1232 1114 1238 1365
8 1234 1118 1238 1365 1366 1241 1369 1500
8 1507 1373 1242 1374 1388 1266 1138 1255
8 1508 1374 1243 1375 1380 1255 1132 1249
8 1376 1254 1387 1509 1245 1129 1258 1377
8 1275 1149 1276 1405 1376 1254 1387 1509
8 1377 1258 1391 1510 1248 1130 1259 1379
8 1511 1390 1257 1378 1379 1259 1131 1247
8 1383 1260 1134 1251 1511 1390 1257 1378
8 1252 1135 1256 1385 1380 1255 1388 1512
8 1261 1381 1513 1394 1133 1250 1382 1262
8 1135 1252 1384 1263 1261 1381 1513 1394
8 1382 1262 1134 1251 1514 1393 1260 1383
8 1253 1136 1263 1384 1386 1264 1395 1516
8 1253 1136 1264 1386 1385 1256 1389 1517
8 1387 1265 1397 1519 1258 1141 1269 1391
8 1276 1150 1277 1406 1387 1265 1397 1519
8 1256 1139 1267 1389 1388 1266 1398 1520
8 1264 1147 1274 1396 1389 1267 1399 1521
8 1392 1270 1143 1260 1522 1400 1268 1390
8 1390 1268 1142 1259 1522 1400 1269 1391
8 1392 1270 1401 1523 1260 1143 1271 1393
8 1272 1394 1524 1402 1145 1262 1393 1271
8 1395 1273 1146 1263 1524 1402 1272 1394
8 1273 1395 1264 1147 1403 1526 1396 1274
8 1405 1276 1160 1282 1534 1406 1286 1411
8 1414 1287 1407 1535 1286 1162 1277 1406
8 1279 1159 1283 1408 1409 1285 1412 1537
8 1418 1292 1412 1537 1290 1165 1283 1408
8 1280 1158 1285 1409 1410 1284 1413 1538
8 1410 1284 1413 1538 1282 1160 1286 1411
8 1285 1163 1289 1412 1413 1288 1417 1540
8 1421 1296 1417 1540 1292 1167 1289 1412
8 1414 1287 1162 1286 1541 1416 1288 1413
8 1420 1294 1421 1545 1291 1166 1292 1418
8 1419 1293 1172 1305 1546 1422 1303 1437
8 1420 1294 1166 1291 1547 1423 1293 1419
8 1294 1169 1297 1423 1421 1296 1425 1548
8 1423 1297 1168 1293 1549 1424 1295 1422
8 1301 1170 1298 1427 1422 1295 1424 1549
8 1432 1300 1428 1554 1301 1170 1298 1427
8 1431 1299 1428 1554 1560 1430 1300 1432
8 1563 1433 1300 1432 1435 1302 1170 1301
8 1546 1422 1303 1437 1434 1301 1435 1565
8 1303 1171 1304 1438 1435 1302 1436 1566
8 1305 1172 1306 1440 1437 1303 1438 1568
8 1306 1173 1307 1441 1438 1304 1439 1569
8 1308 1175 1309 1443 1440 1306 1441 1571
8 1309 1176 1310 1444 1441 1307 1442 1572
8 1311 1178 1312 1446 1443 1309 1444 1574
8 1179 1312 1444 1310 1313 1447 1575 1445
8 1314 1181 1315 1448 1446 1312 1447 1576
8 1350 1213 1349 1486 1451 1317 1449 1579
8 1451 1317 1450 1581 1319 1186 1318 1453
8 1454 1319 1214 1351 1582 1451 1350 1487
8 1453 1318 1452 1584 1321 1187 1320 1456
8 1454 1319 1453 1585 1344 1208 1321 1457
8 1456 1320 1455 1586 1323 1189 1324 1459
8 1457 1321 1456 1587 1322 1188 1323 1458
8 1458 1323 1459 1588 1325 1191 1326 1460
8 1205 1336 1464 1329 1328 1462 1590 1461
8 1507 1373 1461 1590 1374 1242 1328 1462
8 1508 1374 1462 1591 1375 1243 1335 1467
8 1337 1206 1329 1464 1473 1341 1463 1594
8 1375 1243 1335 1467 1465 1333 1470 1596
8 1465 1333 1470 1596 1331 1200 1334 1466
8 1352 1227 1334 1466 1488 1360 1470 1596
8 1591 1462 1336 1468 1467 1335 1471 1597
8 1469 1337 1472 1598 1595 1464 1336 1468
8 1471 1339 1474 1600 1335 1204 1338 1470
8 1600 1474 1367 1496 1470 1338 1235 1360
8 1336 1205 1340 1472 1471 1339 1475 1601
8 1337 1206 1341 1473 1472 1340 1476 1602
8 1495 1370 1478 1609 1361 1239 1342 1479
8 1348 1212 1342 1479 1483 1347 1478 1609
8 1481 1346 1479 1610 1345 1210 1343 1480
8 1481 1346 1228 1359 1610 1479 1361 1494
8 1484 1348 1214 1351 1610 1479 1343 1480
8 1483 1347 1482 1612 1350 1213 1349 1486
8 1484 1348 1483 1613 1351 1214 1350 1487
8 1353 1230 1360 1488 1489 1363 1496 1616
8 1490 1364 1231 1354 1617 1499 1363 1489
8 1490 1364 1499 1617 1355 1232 1365 1491
8 1356 1234 1365 1491 1492 1366 1500 1619
8 1492 1366 1498 1620 1357 1233 1362 1493
8 1494 1361 1228 1359 1621 1497 1362 1493
8 1495 1370 1239 1361 1622 1504 1371 1497
8 1363 1236 1367 1496 1499 1368 1501 1623
8 1497 1371 1240 1362 1624 1505 1372 1498
8 1625 1503 1372 1498 1500 1369 1241 1366
8 1365 1238 1368 1499 1500 1369 1502 1626
8 1520 1398 1506 1633 1388 1266 1373 1507
8 1634 1507 1374 1508 1512 1388 1255 1380
8 1509 1387 1519 1635 1377 1258 1391 1510
8 1405 1276 1406 1534 1509 1387 1519 1635
8 1515 1392 1260 1383 1636 1522 1390 1511
8 1511 1390 1259 1379 1636 1522 1391 1510
8 1385 1256 1389 1517 1512 1388 1520 1637
8 1513 1394 1262 1382 1638 1524 1393 1514
8 1395 1516 1638 1524 1263 1384 1513 1394
8 1515 1392 1523 1639 1383 1260 1393 1514
8 1516 1395 1526 1640 1386 1264 1396 1518
8 1386 1264 1396 1518 1517 1389 1521 1641
8 1519 1397 1527 1643 1391 1269 1400 1522
8 1535 1407 1527 1643 1406 1277 1397 1519
8 1389 1267 1399 1521 1520 1398 1528 1644
8 1645 1529 1399 1521 1525 1404 1274 1396
8 1392 1270 1400 1522 1523 1401 1531 1646
8 1524 1402 1271 1393 1648 1532 1401 1523
8 1403 1526 1648 1532 1273 1395 1524 1402
8 1525 1404 1274 1396 1649 1533 1403 1526
8 1539 1414 1535 1657 1411 1286 1406 1534
8 1542 1415 1536 1658 1414 1287 1407 1535
8 1409 1285 1412 1537 1538 1413 1540 1660
8 1545 1421 1540 1660 1418 1292 1412 1537
8 1539 1414 1286 1411 1661 1541 1413 1538
8 1540 1417 1544 1663 1413 1288 1416 1541
8 1421 1296 1425 1548 1540 1417 1544 1663
8 1542 1415 1287 1414 1664 1543 1416 1541
8 1420 1294 1423 1547 1545 1421 1548 1666
8 1547 1423 1293 1419 1667 1549 1422 1546
8 1434 1301 1427 1553 1546 1422 1549 1667
8 1423 1297 1424 1549 1548 1425 1550 1668
8 1551 1426 1550 1668 1427 1298 1424 1549
8 1551 1426 1298 1427 1671 1552 1428 1554
8 1562 1432 1554 1674 1434 1301 1427 1553
8 1431 1299 1429 1558 1554 1428 1555 1675
8 1431 1299 1430 1560 1558 1429 1557 1680
8 1560 1430 1300 1432 1683 1559 1433 1563
8 1561 1431 1554 1674 1684 1560 1432 1562
8 1685 1563 1432 1562 1565 1435 1301 1434
8 1435 1302 1436 1566 1563 1433 1564 1686
8 1437 1303 1438 1568 1565 1435 1566 1688
8 1438 1304 1439 1569 1566 1436 1567 1689
8 1440 1306 1441 1571 1568 1438 1569 1691
8 1441 1307 1442 1572 1569 1439 1570 1692
8 1443 1309 1444 1574 1571 1441 1572 1694
8 1310 1444 1572 1442 1445 1575 1695 1573
8 1446 1312 1447 1576 1574 1444 1575 1696
8 1486 1349 1485 1614 1579 1449 1577 1699
8 1451 1317 1449 1579 1581 1450 1578 1701
8 1487 1350 1486 1615 1582 1451 1579 1702
8 1581 1450 1580 1704 1453 1318 1452 1584
8 1582 1451 1581 1705 1454 1319 1453 1585
8 1584 1452 1583 1706 1456 1320 1455 1586
8 1585 1453 1584 1707 1457 1321 1456 1587
8 1587 1456 1586 1708 1458 1323 1459 1588
8 1633 1506 1589 1710 1507 1373 1461 1590
8 1464 1329 1461 1590 1594 1463 1589 1710
8 1468 1336 1462 1591 1595 1464 1590 1711
8 1634 1507 1590 1711 1508 1374 1462 1591
8 1473 1341 1463 1594 1603 1477 1593 1716
8 1469 1337 1464 1595 1599 1473 1594 1717
8 1471 1597 1467 1335 1600 1718 1596 1470
8 1718 1600 1496 1616 1596 1470 1360 1488
8 1336 1468 1597 1471 1472 1598 1719 1601
8 1469 1337 1473 1599 1598 1472 1602 1720
8 1722 1604 1501 1623 1600 1474 1367 1496
8 1475 1601 1471 1339 1604 1722 1600 1474
8 1602 1476 1605 1723 1472 1340 1475 1601
8 1476 1602 1724 1606 1341 1473 1603 1477
8 1483 1347 1478 1609 1612 1482 1608 1731
8 1495 1370 1504 1622 1609 1478 1608 1731
8 1618 1495 1609 1732 1494 1361 1479 1610
8 1484 1348 1479 1610 1613 1483 1609 1732
8 1486 1349 1482 1612 1614 1485 1611 1733
8 1613 1483 1612 1734 1487 1350 1486 1615
8 1489 1363 1496 1616 1617 1499 1623 1736
8 1491 1365 1499 1617 1619 1500 1626 1737
8 1618 1495 1361 1494 1738 1622 1497 1621
8 1739 1625 1498 1620 1619 1500 1366 1492
8 1621 1497 1362 1493 1740 1624 1498 1620
8 1742 1631 1504 1622 1624 1505 1371 1497
8 1743 1628 1502 1626 1623 1501 1368 1499
8 1744 1630 1505 1624 1625 1503 1372 1498
8 1745 1629 1503 1625 1626 1502 1369 1500
8 1520 1398 1528 1644 1633 1506 1632 1751
8 1637 1520 1633 1752 1512 1388 1507 1634
8 1635 1519 1643 1753 1510 1391 1522 1636
8 1657 1535 1643 1753 1534 1406 1519 1635
8 1515 1392 1522 1636 1639 1523 1646 1754
8 1517 1389 1521 1641 1637 1520 1644 1755
8 1524 1638 1756 1648 1393 1514 1639 1523
8 1640 1526 1395 1516 1756 1648 1524 1638
8 1642 1525 1396 1518 1757 1649 1526 1640
8 1758 1645 1521 1641 1642 1525 1396 1518
8 1646 1531 1400 1522 1760 1650 1527 1643
8 1535 1407 1536 1658 1643 1527 1650 1760
8 1521 1399 1529 1645 1644 1528 1651 1761
8 1647 1530 1652 1762 1525 1404 1529 1645
8 1401 1523 1648 1532 1531 1646 1763 1655
8 1525 1404 1533 1649 1647 1530 1654 1765
8 1533 1649 1766 1656 1403 1526 1648 1532
8 1662 1542 1658 1774 1539 1414 1535 1657
8 1542 1415 1543 1664 1658 1536 1659 1775
8 1660 1540 1663 1777 1538 1413 1541 1661
8 1545 1421 1548 1666 1660 1540 1663 1777
8 1662 1542 1414 1539 1778 1664 1541 1661
8 1664 1543 1416 1541 1779 1665 1544 1663
8 1548 1425 1550 1668 1663 1544 1665 1779
8 1547 1423 1549 1667 1666 1548 1668 1781
8 1670 1551 1668 1781 1553 1427 1549 1667
8 1551 1426 1552 1671 1668 1550 1669 1782
8 1670 1551 1427 1553 1784 1671 1554 1674
8 1675 1555 1672 1785 1554 1428 1552 1671
8 1678 1556 1673 1789 1558 1429 1555 1675
8 1561 1431 1558 1681 1674 1554 1675 1790
8 1794 1677 1556 1678 1680 1557 1429 1558
8 1560 1430 1559 1683 1680 1557 1679 1797
8 1561 1431 1560 1684 1681 1558 1680 1798
8 1563 1433 1564 1686 1683 1559 1682 1800
8 1684 1560 1432 1562 1801 1683 1563 1685
8 1565 1435 1566 1688 1685 1563 1686 1802
8 1566 1436 1567 1689 1686 1564 1687 1803
8 1568 1438 1569 1691 1688 1566 1689 1805
8 1569 1439 1570 1692 1689 1567 1690 1806
8 1571 1441 1572 1694 1691 1569 1692 1808
8 1442 1572 1692 1570 1573 1695 1809 1693
8 1574 1444 1575 1696 1694 1572 1695 1810
8 1614 1485 1592 1712 1699 1577 1697 1813
8 1579 1449 1577 1699 1701 1578 1698 1815
8 1615 1486 1614 1735 1702 1579 1699 1816
8 1701 1578 1700 1818 1581 1450 1580 1704
8 1582 1451 1579 1702 1705 1581 1701 1819
8 1704 1580 1703 1820 1584 1452 1583 1706
8 1705 1581 1704 1821 1585 1453 1584 1707
8 1707 1584 1706 1822 1587 1456 1586 1708
8 1710 1589 1506 1633 1824 1709 1632 1751
8 1594 1463 1589 1710 1716 1593 1709 1824
8 1752 1633 1710 1825 1634 1507 1590 1711
8 1595 1464 1590 1711 1717 1594 1710 1825
8 1830 1714 1592 1712 1733 1611 1485 1614
8 1603 1477 1593 1716 1725 1607 1715 1834
8 1599 1473 1594 1717 1721 1603 1716 1835
8 1837 1722 1623 1736 1718 1600 1496 1616
8 1719 1601 1722 1837 1597 1471 1600 1718
8 1602 1720 1598 1472 1723 1838 1719 1601
8 1720 1602 1473 1599 1839 1724 1603 1721
8 1723 1605 1726 1840 1601 1475 1604 1722
8 1840 1726 1628 1743 1722 1604 1501 1623
8 1724 1606 1727 1841 1602 1476 1605 1723
8 1725 1607 1728 1842 1603 1477 1606 1724
8 1612 1482 1608 1731 1733 1611 1730 1849
8 1741 1627 1730 1849 1622 1504 1608 1731
8 1613 1483 1609 1732 1734 1612 1731 1850
8 1618 1495 1622 1738 1732 1609 1731 1850
8 1615 1486 1612 1734 1735 1614 1733 1851
8 1852 1743 1626 1737 1736 1623 1499 1617
8 1853 1745 1625 1739 1737 1626 1500 1619
8 1855 1742 1622 1738 1740 1624 1497 1621
8 1856 1744 1624 1740 1739 1625 1498 1620
8 1741 1627 1504 1622 1857 1746 1631 1742
8 1742 1631 1505 1624 1858 1749 1630 1744
8 1859 1747 1629 1745 1743 1628 1502 1626
8 1860 1748 1630 1744 1745 1629 1503 1625
8 1644 1528 1651 1761 1751 1632 1750 1865
8 1637 1520 1644 1755 1752 1633 1751 1866
8 1754 1646 1522 1636 1867 1760 1643 1753
8 1657 1535 1658 1774 1753 1643 1760 1867
8 1639 1523 1646 1754 1756 1648 1763 1868
8 1641 1521 1645 1758 1755 1644 1761 1869
8 1757 1649 1526 1640 1870 1766 1648 1756
8 1642 1525 1649 1757 1759 1647 1765 1871
8 1759 1647 1762 1872 1642 1525 1645 1758
8 1760 1650 1767 1874 1646 1531 1655 1763
8 1658 1536 1659 1775 1760 1650 1767 1874
8 1762 1652 1768 1875 1645 1529 1651 1761
8 1764 1653 1769 1876 1647 1530 1652 1762
8 1656 1766 1877 1773 1532 1648 1763 1655
8 1771 1879 1765 1654 1653 1764 1647 1530
8 1533 1649 1765 1654 1656 1766 1880 1772
8 1662 1542 1664 1778 1774 1658 1775 1887
8 1664 1543 1665 1779 1775 1659 1776 1888
8 1778 1664 1541 1661 1890 1779 1663 1777
8 1666 1548 1668 1781 1777 1663 1779 1890
8 1782 1669 1780 1891 1668 1550 1665 1779
8 1670 1551 1671 1784 1781 1668 1782 1893
8 1671 1552 1672 1785 1782 1669 1783 1894
8 1790 1675 1785 1896 1674 1554 1671 1784
8 1675 1555 1673 1789 1785 1672 1786 1897
8 1792 1676 1788 1903 1678 1556 1673 1789
8 1795 1678 1789 1904 1681 1558 1675 1790
8 1792 1676 1556 1678 1906 1791 1677 1794
8 1680 1557 1679 1797 1794 1677 1793 1909
8 1910 1794 1678 1795 1798 1680 1558 1681
8 1683 1559 1682 1800 1797 1679 1796 1912
8 1684 1560 1683 1801 1798 1680 1797 1913
8 1686 1564 1687 1803 1800 1682 1799 1915
8 1685 1563 1686 1802 1801 1683 1800 1916
8 1688 1566 1689 1805 1802 1686 1803 1917
8 1689 1567 1690 1806 1803 1687 1804 1918
8 1691 1569 1692 1808 1805 1689 1806 1920
8 1692 1570 1693 1809 1806 1690 1807 1921
8 1694 1572 1695 1810 1808 1692 1809 1922
8 1829 1713 1811 1926 1712 1592 1697 1813
8 1813 1697 1812 1928 1699 1577 1698 1815
8 1735 1614 1712 1828 1816 1699 1813 1929
8 1815 1698 1814 1931 1701 1578 1700 1818
8 1702 1579 1699 1816 1819 1701 1815 1932
8 1818 1700 1817 1933 1704 1580 1703 1820
8 1819 1701 1818 1934 1705 1581 1704 1821
8 1821 1704 1820 1935 1707 1584 1706 1822
8 1824 1709 1632 1751 1937 1823 1750 1865
8 1716 1593 1709 1824 1834 1715 1823 1937
8 1825 1710 1633 1752 1938 1824 1751 1866
8 1717 1594 1710 1825 1835 1716 1824 1938
8 1945 1830 1712 1828 1851 1733 1614 1735
8 1830 1714 1831 1946 1712 1592 1713 1829
8 1947 1832 1714 1830 1849 1730 1611 1733
8 1843 1729 1607 1725 1950 1833 1715 1834
8 1721 1603 1716 1835 1836 1725 1834 1951
8 1836 1725 1842 1953 1721 1603 1724 1839
8 1723 1838 1719 1601 1840 1954 1837 1722
8 1954 1840 1743 1852 1837 1722 1623 1736
8 1724 1839 1720 1602 1841 1955 1838 1723
8 1841 1727 1844 1956 1723 1605 1726 1840
8 1956 1844 1747 1859 1840 1726 1628 1743
8 1728 1842 1724 1606 1845 1957 1841 1727
8 1725 1607 1729 1843 1842 1728 1846 1958
8 1741 1627 1746 1857 1849 1730 1848 1965
8 1734 1612 1731 1850 1851 1733 1849 1966
8 1854 1741 1849 1966 1738 1622 1731 1850
8 1967 1859 1745 1853 1852 1743 1626 1737
8 1968 1860 1744 1856 1853 1745 1625 1739
8 1854 1741 1622 1738 1969 1857 1742 1855
8 1855 1742 1624 1740 1970 1858 1744 1856
8 1857 1746 1631 1742 1971 1861 1749 1858
8 1858 1749 1630 1744 1972 1863 1748 1860
8 1859 1747 1862 1973 1745 1629 1748 1860
8 1875 1768 1864 1977 1761 1651 1750 1865
8 1755 1644 1761 1869 1866 1751 1865 1978
8 1867 1760 1874 1979 1754 1646 1763 1868
8 1774 1658 1775 1887 1867 1760 1874 1979
8 1870 1766 1648 1756 1980 1877 1763 1868
8 1872 1762 1875 1981 1758 1645 1761 1869
8 1757 1649 1766 1870 1871 1765 1880 1982
8 1983 1879 1764 1873 1871 1765 1647 1759
8 1873 1764 1876 1984 1759 1647 1762 1872
8 1877 1773 1655 1763 1986 1881 1767 1874
8 1775 1659 1776 1888 1874 1767 1881 1986
8 1876 1769 1882 1987 1762 1652 1768 1875
8 1878 1770 1883 1988 1764 1653 1769 1876
8 1880 1772 1656 1766 1989 1886 1773 1877
8 1878 1770 1653 1764 1990 1884 1771 1879
8 1765 1654 1772 1880 1879 1771 1885 1991
8 1778 1664 1779 1890 1887 1775 1888 1997
8 1998 1889 1776 1888 1891 1780 1665 1779
8 1893 1782 1891 2000 1781 1668 1779 1890
8 1894 1783 1892 2001 1782 1669 1780 1891
8 1784 1671 1785 1896 1893 1782 1894 2003
8 1897 1786 1895 2004 1785 1672 1783 1894
8 1790 1675 1789 1904 1896 1785 1897 2006
8 1901 1787 1898 2007 1789 1673 1786 1897
8 1903 1788 1900 2013 1789 1673 1787 1901
8 1792 1676 1791 1906 1903 1788 1902 2016
8 1907 1792 1903 2017 1795 1678 1789 1904
8 1906 1791 1677 1794 2019 1905 1793 1909
8 1907 1792 1678 1795 2020 1906 1794 1910
8 1797 1679 1796 1912 1909 1793 1908 2022
8 1798 1680 1797 1913 1910 1794 1909 2023
8 1800 1682 1799 1915 1912 1796 1911 2025
8 1801 1683 1800 1916 1913 1797 1912 2026
8 1803 1687 1804 1918 1915 1799 1914 2028
8 1802 1686 1803 1917 1916 1800 1915 2029
8 1805 1689 1806 1920 1917 1803 1918 2030
8 1806 1690 1807 1921 1918 1804 1919 2031
8 1808 1692 1809 1922 1920 1806 1921 2032
8 1939 1826 1924 2037 1829 1713 1811 1926
8 1926 1811 1925 2039 1813 1697 1812 1928
8 1944 1829 1926 2040 1828 1712 1813 1929
8 1928 1812 1927 2042 1815 1698 1814 1931
8 1929 1813 1928 2043 1816 1699 1815 1932
8 1931 1814 1930 2044 1818 1700 1817 1933
8 1932 1815 1931 2045 1819 1701 1818 1934
8 1934 1818 1933 2046 1821 1704 1820 1935
8 2048 1936 1823 1937 1977 1864 1750 1865
8 1950 1833 1715 1834 2048 1936 1823 1937
8 1938 1824 1751 1866 2049 1937 1865 1978
8 1835 1716 1824 1938 1951 1834 1937 2049
8 1939 1826 1713 1829 2053 1942 1831 1946
8 1940 1827 1923 2035 2053 1942 1826 1939
8 1945 1830 1946 2058 1828 1712 1829 1944
8 2059 1947 1830 1945 1966 1849 1733 1851
8 1947 1832 1730 1849 2060 1948 1848 1965
8 1947 1832 1948 2060 1830 1714 1831 1946
8 1959 1847 1729 1843 2063 1949 1833 1950
8 1952 1843 1725 1836 2064 1950 1834 1951
8 1836 1725 1843 1952 1953 1842 1958 2066
8 1953 1842 1957 2067 1839 1724 1841 1955
8 1841 1955 1838 1723 1956 2068 1954 1840
8 2068 1956 1859 1967 1954 1840 1743 1852
8 1956 1844 1960 2069 1859 1747 1862 1973
8 1845 1957 1841 1727 1960 2069 1956 1844
8 1728 1842 1957 1845 1846 1958 2071 1961
8 1962 2072 1959 1847 1846 1958 1843 1729
8 1971 1861 1964 2077 1857 1746 1848 1965
8 1854 1741 1857 1969 1966 1849 1965 2078
8 1967 1859 1973 2079 1853 1745 1860 1968
8 1970 1858 1744 1856 2080 1972 1860 1968
8 1969 1857 1742 1855 2081 1971 1858 1970
8 1971 1861 1749 1858 2082 1974 1863 1972
8 1973 1862 1975 2083 1860 1748 1863 1972
8 1987 1882 1976 2086 1875 1768 1864 1977
8 1981 1875 1977 2087 1869 1761 1865 1978
8 1980 1877 1763 1868 2088 1986 1874 1979
8 1887 1775 1888 1997 1979 1874 1986 2088
8 1880 1982 2089 1989 1766 1870 1980 1877
8 1984 1876 1987 2090 1872 1762 1875 1981
8 1765 1871 1983 1879 1880 1982 2091 1991
8 1985 1878 1764 1873 2092 1990 1879 1983
8 1985 1878 1988 2093 1873 1764 1876 1984
8 2094 1992 1881 1986 1998 1889 1776 1888
8 1986 1881 1992 2094 1877 1773 1886 1989
8 1988 1883 1993 2095 1876 1769 1882 1987
8 1878 1770 1884 1990 1988 1883 1994 2096
8 1991 1885 1772 1880 2097 1996 1886 1989
8 1879 1771 1885 1991 1990 1884 1995 2098
8 2103 1998 1888 1997 2000 1891 1779 1890
8 2104 1999 1889 1998 2001 1892 1780 1891
8 2003 1894 2001 2106 1893 1782 1891 2000
8 2004 1895 2002 2107 1894 1783 1892 2001
8 2006 1897 2004 2109 1896 1785 1894 2003
8 2007 1898 2005 2110 1897 1786 1895 2004
8 2014 1901 2007 2112 1904 1789 1897 2006
8 2011 1899 2008 2113 1901 1787 1898 2007
8 2119 2010 1899 2011 2013 1900 1787 1901
8 2016 1902 2012 2122 1903 1788 1900 2013
8 2017 1903 2013 2123 1904 1789 1901 2014
8 1906 1791 1905 2019 2016 1902 2015 2125
8 1907 1792 1906 2020 2017 1903 2016 2126
8 1909 1793 1908 2022 2019 1905 2018 2128
8 2020 1906 1794 1910 2129 2019 1909 2023
8 1912 1796 1911 2025 2022 1908 2021 2131
8 1913 1797 1912 2026 2023 1909 2022 2132
8 1915 1799 1914 2028 2025 1911 2024 2134
8 1916 1800 1915 2029 2026 1912 2025 2135
8 1918 1804 1919 2031 2028 1914 2027 2136
8 1917 1803 1918 2030 2029 1915 2028 2137
8 1920 1806 1921 2032 2030 1918 2031 2138
8 1940 1827 1941 2054 2035 1923 2033 2140
8 2035 1923 2034 2143 1939 1826 1924 2037
8 2037 1924 2036 2146 1926 1811 1925 2039
8 2051 1939 2037 2147 1944 1829 1926 2040
8 2039 1925 2038 2149 1928 1812 1927 2042
8 2040 1926 2039 2150 1929 1813 1928 2043
8 2042 1927 2041 2151 1931 1814 1930 2044
8 2043 1928 2042 2152 1932 1815 1931 2045
8 2045 1931 2044 2153 1934 1818 1933 2046
8 2155 2047 1936 2048 2086 1976 1864 1977
8 2063 1949 1833 1950 2155 2047 1936 2048
8 2156 2048 1937 2049 2087 1977 1865 1978
8 2064 1950 1834 1951 2156 2048 1937 2049
8 2051 1939 1829 1944 2160 2053 1946 2058
8 2052 1940 2035 2144 2160 2053 1939 2051
8 2053 1942 1831 1946 2163 2057 1948 2060
8 2055 1943 1827 1940 2163 2057 1942 2053
8 2055 1943 2056 2164 1940 1827 1941 2054
8 2059 1947 1849 1966 2167 2060 1965 2078
8 2059 1947 2060 2167 1945 1830 1946 2058
8 2077 1964 2061 2168 1965 1848 1948 2060
8 2070 1963 1847 1959 2170 2062 1949 2063
8 2065 1959 1843 1952 2171 2063 1950 2064
8 2173 2072 1958 2066 2065 1959 1843 1952
8 1953 1842 1958 2066 2067 1957 2071 2174
8 2068 1956 2069 2175 1967 1859 1973 2079
8 2067 1957 2069 2175 1955 1841 1956 2068
8 1845 1957 2069 1960 1961 2071 2176 2073
8 2069 1960 2073 2176 1973 1862 1975 2083
8 2070 1963 2075 2177 1959 1847 1962 2072
8 1846 1958 2071 1961 1962 2072 2178 2074
8 2077 1964 1861 1971 2182 2076 1974 2082
8 2081 1971 2077 2183 1969 1857 1965 2078
8 2079 1973 2083 2184 1968 1860 1972 2080
8 2081 1971 1858 1970 2185 2082 1972 2080
8 2083 1975 2084 2186 1972 1863 1974 2082
8 2086 1976 1882 1987 2189 2085 1993 2095
8 2090 1987 2086 2190 1981 1875 1977 2087
8 2191 2094 1986 2088 2103 1998 1888 1997
8 2088 1986 2094 2191 1980 1877 1989 2089
8 1991 2091 2192 2097 1880 1982 2089 1989
8 2093 1988 2095 2193 1984 1876 1987 2090
8 1879 1983 2092 1990 1991 2091 2194 2098
8 1985 1878 1990 2092 2093 1988 2096 2195
8 2097 1996 1886 1989 2196 2099 1992 2094
8 2196 2099 1992 2094 2104 1999 1889 1998
8 1994 2096 1988 1883 2100 2197 2095 1993
8 2096 1994 1884 1990 2198 2101 1995 2098
8 1995 2098 2199 2102 1885 1991 2097 1996
8 2203 2104 1998 2103 2106 2001 1891 2000
8 2107 2002 2105 2204 2001 1892 1999 2104
8 2109 2004 2107 2206 2003 1894 2001 2106
8 2110 2005 2108 2207 2004 1895 2002 2107
8 2112 2007 2110 2209 2006 1897 2004 2109
8 2113 2008 2111 2210 2007 1898 2005 2110
8 2120 2011 2113 2212 2014 1901 2007 2112
8 2117 2009 2114 2213 2011 1899 2008 2113
8 2219 2116 2009 2117 2119 2010 1899 2011
8 2222 2118 2010 2119 2122 2012 1900 2013
8 2223 2119 2011 2120 2123 2013 1901 2014
8 2016 1902 2015 2125 2122 2012 2121 2225
8 2126 2016 2122 2226 2017 1903 2013 2123
8 2019 1905 2018 2128 2125 2015 2124 2228
8 2020 1906 2019 2129 2126 2016 2125 2229
8 2022 1908 2021 2131 2128 2018 2127 2231
8 2023 1909 2022 2132 2129 2019 2128 2232
8 2025 1911 2024 2134 2131 2021 2130 2234
8 2026 1912 2025 2135 2132 2022 2131 2235
8 1914 2028 2134 2024 2027 2136 2236 2133
8 2029 1915 2028 2137 2135 2025 2134 2237
8 2030 1918 2031 2138 2137 2028 2136 2238
8 2157 2050 2139 2240 2054 1941 2033 2140
8 2052 1940 2054 2161 2144 2035 2140 2242
8 2140 2033 2141 2243 2035 1923 2034 2143
8 2143 2034 2142 2246 2037 1924 2036 2146
8 2144 2035 2143 2247 2051 1939 2037 2147
8 2146 2036 2145 2249 2039 1925 2038 2149
8 2147 2037 2146 2250 2040 1926 2039 2150
8 2149 2038 2148 2251 2042 1927 2041 2151
8 2150 2039 2149 2252 2043 1928 2042 2152
8 2152 2042 2151 2253 2045 1931 2044 2153
8 2255 2154 2047 2155 2189 2085 1976 2086
8 2170 2062 1949 2063 2255 2154 2047 2155
8 2256 2155 2048 2156 2190 2086 1977 2087
8 2171 2063 1950 2064 2256 2155 2048 2156
8 2258 2159 2050 2157 2164 2056 1941 2054
8 2160 2053 1946 2058 2262 2163 2060 2167
8 2162 2055 1940 2052 2262 2163 2053 2160
8 2162 2055 2164 2263 2052 1940 2054 2161
8 2163 2057 1948 2060 2264 2165 2061 2168
8 2055 1943 2057 2163 2164 2056 2165 2264
8 2182 2076 2166 2268 2077 1964 2061 2168
8 2183 2077 2168 2269 2078 1965 2060 2167
8 2070 1963 2062 2170 2177 2075 2169 2271
8 2172 2070 1959 2065 2272 2170 2063 2171
8 2172 2070 2177 2273 2065 1959 2072 2173
8 2066 1958 2072 2173 2174 2071 2178 2274
8 2067 1957 2071 2174 2175 2069 2176 2275
8 2175 2069 2176 2275 2079 1973 2083 2184
8 2071 1961 2074 2178 2176 2073 2179 2276
8 2176 2073 2179 2276 2083 1975 2084 2186
8 2072 1962 2075 2177 2178 2074 2180 2277
8 2182 2076 1974 2082 2280 2181 2084 2186
8 2183 2077 1971 2081 2281 2182 2082 2185
8 2184 2083 2186 2282 2080 1972 2082 2185
8 2189 2085 1993 2095 2285 2188 2100 2197
8 2190 2086 1987 2090 2286 2189 2095 2193
8 2192 2097 1989 2089 2287 2196 2094 2191
8 2287 2196 2094 2191 2203 2104 1998 2103
8 2194 2098 1991 2091 2288 2199 2097 2192
8 2195 2096 2197 2289 2093 1988 2095 2193
8 2096 2195 2290 2198 1990 2092 2194 2098
8 2097 1996 2099 2196 2199 2102 2200 2291
8 2196 2099 1999 2104 2291 2200 2105 2204
8 2100 2197 2292 2201 1994 2096 2198 2101
8 1995 2098 2198 2101 2102 2199 2293 2202
8 2206 2107 2204 2296 2106 2001 2104 2203
8 2207 2108 2205 2297 2107 2002 2105 2204
8 2209 2110 2207 2299 2109 2004 2107 2206
8 2210 2111 2208 2300 2110 2005 2108 2207
8 2212 2113 2210 2302 2112 2007 2110 2209
8 2213 2114 2211 2303 2113 2008 2111 2210
8 2220 2117 2213 2305 2120 2011 2113 2212
8 2216 2115 2214 2306 2117 2009 2114 2213
8 2216 2115 2009 2117 2311 2217 2116 2219
8 2219 2116 2010 2119 2314 2218 2118 2222
8 2315 2219 2117 2220 2223 2119 2011 2120
8 2122 2012 2121 2225 2222 2118 2221 2317
8 2318 2222 2119 2223 2226 2122 2013 2123
8 2125 2015 2124 2228 2225 2121 2224 2320
8 2126 2016 2125 2229 2226 2122 2225 2321
8 2128 2018 2127 2231 2228 2124 2227 2323
8 2129 2019 2128 2232 2229 2125 2228 2324
8 2131 2021 2130 2234 2231 2127 2230 2326
8 2132 2022 2131 2235 2232 2128 2231 2327
8 2134 2024 2133 2236 2234 2130 2233 2328
8 2135 2025 2134 2237 2235 2131 2234 2329
8 2137 2028 2136 2238 2237 2134 2236 2330
8 2157 2050 2158 2259 2240 2139 2239 2332
8 2257 2157 2240 2334 2161 2054 2140 2242
8 2240 2139 2241 2335 2140 2033 2141 2243
8 2242 2140 2243 2337 2144 2035 2143 2247
8 2243 2141 2244 2338 2143 2034 2142 2246
8 2246 2142 2245 2341 2146 2036 2145 2249
8 2247 2143 2246 2342 2147 2037 2146 2250
8 2249 2145 2248 2343 2149 2038 2148 2251
8 2250 2146 2249 2344 2150 2039 2149 2252
8 2252 2149 2251 2345 2152 2042 2151 2253
8 2169 2271 2347 2254 2062 2170 2255 2154
8 2189 2085 2188 2285 2255 2154 2254 2347
8 2348 2255 2155 2256 2286 2189 2086 2190
8 2272 2170 2063 2171 2348 2255 2155 2256
8 2349 2258 2157 2257 2263 2164 2054 2161
8 2258 2159 2261 2351 2157 2050 2158 2259
8 2258 2159 2056 2164 2351 2261 2165 2264
8 2262 2163 2060 2167 2355 2264 2168 2269
8 2162 2055 2163 2262 2263 2164 2264 2355
8 2357 2266 2165 2264 2268 2166 2061 2168
8 2268 2166 2076 2182 2361 2267 2181 2280
8 2281 2182 2268 2362 2183 2077 2168 2269
8 2271 2169 2270 2364 2177 2075 2180 2277
8 2172 2070 2170 2272 2273 2177 2271 2365
8 2072 2173 2274 2178 2177 2273 2366 2277
8 2071 2174 2275 2176 2178 2274 2367 2276
8 2275 2176 2276 2367 2184 2083 2186 2282
8 2283 2187 2084 2186 2368 2278 2179 2276
8 2178 2074 2180 2277 2276 2179 2278 2368
8 2283 2187 2279 2370 2186 2084 2181 2280
8 2281 2182 2082 2185 2371 2280 2186 2282
8 2188 2285 2374 2284 2100 2197 2292 2201
8 2286 2189 2095 2193 2375 2285 2197 2289
8 2192 2097 2196 2287 2288 2199 2291 2376
8 2287 2196 2104 2203 2376 2291 2204 2296
8 2194 2098 2199 2288 2290 2198 2293 2377
8 2289 2197 2096 2195 2378 2292 2198 2290
8 2291 2200 2105 2204 2379 2294 2205 2297
8 2199 2102 2200 2291 2293 2202 2294 2379
8 2198 2101 2202 2293 2292 2201 2295 2380
8 2299 2207 2297 2383 2206 2107 2204 2296
8 2300 2208 2298 2384 2207 2108 2205 2297
8 2302 2210 2300 2386 2209 2110 2207 2299
8 2303 2211 2301 2387 2210 2111 2208 2300
8 2305 2213 2303 2389 2212 2113 2210 2302
8 2306 2214 2304 2390 2213 2114 2211 2303
8 2310 2216 2306 2392 2220 2117 2213 2305
8 2308 2215 2307 2393 2216 2115 2214 2306
8 2308 2215 2115 2216 2396 2309 2217 2311
8 2310 2216 2117 2220 2398 2311 2219 2315
8 2311 2217 2116 2219 2399 2312 2218 2314
8 2314 2218 2118 2222 2402 2313 2221 2317
8 2315 2219 2119 2223 2403 2314 2222 2318
8 2225 2121 2224 2320 2317 2221 2316 2405
8 2226 2122 2225 2321 2318 2222 2317 2406
8 2228 2124 2227 2323 2320 2224 2319 2408
8 2229 2125 2228 2324 2321 2225 2320 2409
8 2231 2127 2230 2326 2323 2227 2322 2411
8 2232 2128 2231 2327 2324 2228 2323 2412
8 2234 2130 2233 2328 2326 2230 2325 2413
8 2235 2131 2234 2329 2327 2231 2326 2414
8 2237 2134 2236 2330 2329 2234 2328 2415
8 2259 2158 2260 2352 2332 2239 2331 2417
8 2257 2157 2259 2350 2334 2240 2332 2419
8 2240 2139 2239 2332 2335 2241 2333 2420
8 2334 2240 2335 2422 2242 2140 2243 2337
8 2335 2241 2336 2423 2243 2141 2244 2338
8 2337 2243 2338 2425 2247 2143 2246 2342
8 2338 2244 2339 2426 2246 2142 2245 2341
8 2341 2245 2340 2428 2249 2145 2248 2343
8 2342 2246 2341 2429 2250 2146 2249 2344
8 2344 2249 2343 2430 2252 2149 2251 2345
8 2188 2285 2347 2254 2284 2374 2432 2346
8 2347 2254 2346 2432 2271 2169 2270 2364
8 2365 2271 2170 2272 2433 2347 2255 2348
8 2286 2189 2285 2375 2348 2255 2347 2433
8 2349 2258 2351 2435 2257 2157 2259 2350
8 2349 2258 2164 2263 2435 2351 2264 2355
8 2259 2158 2261 2351 2352 2260 2354 2437
8 2356 2265 2354 2437 2264 2165 2261 2351
8 2441 2357 2264 2355 2362 2268 2168 2269
8 2356 2265 2165 2264 2442 2358 2266 2357
8 2443 2359 2266 2357 2361 2267 2166 2268
8 2370 2279 2360 2446 2280 2181 2267 2361
8 2362 2268 2182 2281 2447 2361 2280 2371
8 2180 2277 2368 2278 2270 2364 2449 2363
8 2271 2365 2273 2177 2364 2450 2366 2277
8 2372 2283 2186 2282 2451 2368 2276 2367
8 2178 2274 2367 2276 2277 2366 2451 2368
8 2283 2187 2278 2368 2370 2279 2369 2452
8 2372 2283 2370 2453 2282 2186 2280 2371
8 2284 2374 2455 2373 2201 2292 2380 2295
8 2375 2285 2197 2289 2456 2374 2292 2378
8 2376 2291 2204 2296 2457 2379 2297 2383
8 2288 2199 2291 2376 2377 2293 2379 2457
8 2198 2290 2378 2292 2293 2377 2458 2380
8 2293 2202 2294 2379 2380 2295 2381 2459
8 2384 2298 2381 2459 2297 2205 2294 2379
8 2386 2300 2384 2463 2299 2207 2297 2383
8 2387 2301 2385 2464 2300 2208 2298 2384
8 2389 2303 2387 2466 2302 2210 2300 2386
8 2390 2304 2388 2467 2303 2211 2301 2387
8 2392 2306 2390 2469 2305 2213 2303 2389
8 2393 2307 2391 2470 2306 2214 2304 2390
8 2395 2308 2393 2472 2310 2216 2306 2392
8 2308 2215 2309 2396 2393 2307 2394 2473
8 2395 2308 2216 2310 2475 2396 2311 2398
8 2396 2309 2217 2311 2476 2397 2312 2399
8 2398 2311 2219 2315 2478 2399 2314 2403
8 2399 2312 2218 2314 2479 2400 2313 2402
8 2317 2221 2316 2405 2402 2313 2401 2482
8 2403 2314 2222 2318 2483 2402 2317 2406
8 2320 2224 2319 2408 2405 2316 2404 2485
8 2321 2225 2320 2409 2406 2317 2405 2486
8 2323 2227 2322 2411 2408 2319 2407 2488
8 2324 2228 2323 2412 2409 2320 2408 2489
8 2326 2230 2325 2413 2411 2322 2410 2490
8 2327 2231 2326 2414 2412 2323 2411 2491
8 2329 2234 2328 2415 2414 2326 2413 2492
8 2417 2331 2260 2352 2494 2416 2353 2438
8 2350 2259 2352 2436 2419 2332 2417 2496
8 2332 2239 2331 2417 2420 2333 2418 2497
8 2334 2240 2332 2419 2422 2335 2420 2499
8 2420 2333 2421 2500 2335 2241 2336 2423
8 2422 2335 2423 2502 2337 2243 2338 2425
8 2423 2336 2424 2503 2338 2244 2339 2426
8 2425 2338 2426 2505 2342 2246 2341 2429
8 2426 2339 2427 2506 2341 2245 2340 2428
8 2429 2341 2428 2507 2344 2249 2343 2430
8 2432 2346 2284 2374 2509 2431 2373 2455
8 2432 2346 2431 2509 2364 2270 2363 2449
8 2375 2285 2374 2456 2433 2347 2432 2510
8 2347 2433 2365 2271 2432 2510 2450 2364
8 2350 2259 2351 2435 2436 2352 2437 2514
8 2440 2356 2437 2514 2355 2264 2351 2435
8 2352 2260 2354 2437 2438 2353 2439 2516
8 2356 2265 2358 2442 2437 2354 2439 2516
8 2440 2356 2264 2355 2518 2442 2357 2441
8 2519 2443 2357 2441 2447 2361 2268 2362
8 2443 2359 2444 2520 2357 2266 2358 2442
8 2443 2359 2267 2361 2520 2444 2360 2446
8 2446 2360 2279 2370 2523 2445 2369 2452
8 2453 2370 2446 2524 2371 2280 2361 2447
8 2449 2363 2448 2525 2368 2278 2369 2452
8 2366 2277 2364 2450 2451 2368 2449 2526
8 2372 2283 2368 2451 2453 2370 2452 2527
8 2455 2373 2295 2380 2529 2454 2382 2460
8 2456 2374 2292 2378 2530 2455 2380 2458
8 2377 2293 2379 2457 2458 2380 2459 2531
8 2463 2384 2459 2531 2383 2297 2379 2457
8 2533 2461 2382 2460 2459 2381 2295 2380
8 2464 2385 2461 2533 2384 2298 2381 2459
8 2466 2387 2464 2537 2386 2300 2384 2463
8 2467 2388 2465 2538 2387 2301 2385 2464
8 2469 2390 2467 2540 2389 2303 2387 2466
8 2470 2391 2468 2541 2390 2304 2388 2467
8 2472 2393 2470 2543 2392 2306 2390 2469
8 2393 2307 2394 2473 2470 2391 2471 2544
8 2395 2308 2396 2475 2472 2393 2473 2546
8 2396 2309 2397 2476 2473 2394 2474 2547
8 2475 2396 2311 2398 2549 2476 2399 2478
8 2476 2397 2312 2399 2550 2477 2400 2479
8 2478 2399 2314 2403 2552 2479 2402 2483
8 2479 2400 2313 2402 2553 2480 2401 2482
8 2405 2316 2404 2485 2482 2401 2481 2556
8 2406 2317 2405 2486 2483 2402 2482 2557
8 2408 2319 2407 2488 2485 2404 2484 2559
8 2409 2320 2408 2489 2486 2405 2485 2560
8 2411 2322 2410 2490 2488 2407 2487 2561
8 2412 2323 2411 2491 2489 2408 2488 2562
8 2414 2326 2413 2492 2491 2411 2490 2563
8 2513 2434 2493 2565 2438 2353 2416 2494
8 2496 2417 2352 2436 2567 2494 2438 2515
8 2494 2416 2495 2568 2417 2331 2418 2497
8 2419 2332 2417 2496 2499 2420 2497 2570
8 2497 2418 2498 2571 2420 2333 2421 2500
8 2499 2420 2500 2573 2422 2335 2423 2502
8 2500 2421 2501 2574 2423 2336 2424 2503
8 2502 2423 2503 2576 2425 2338 2426 2505
8 2503 2424 2504 2577 2426 2339 2427 2506
8 2505 2426 2506 2578 2429 2341 2428 2507
8 2509 2431 2373 2455 2580 2508 2454 2529
8 2509 2431 2508 2580 2449 2363 2448 2525
8 2432 2510 2581 2509 2374 2456 2530 2455
8 2432 2510 2450 2364 2509 2581 2526 2449
8 2583 2511 2434 2513 2516 2439 2353 2438
8 2436 2352 2437 2514 2515 2438 2516 2588
8 2440 2356 2442 2518 2514 2437 2516 2588
8 2442 2358 2444 2520 2516 2439 2517 2589
8 2519 2443 2520 2591 2441 2357 2442 2518
8 2519 2443 2361 2447 2591 2520 2446 2524
8 2446 2360 2445 2523 2520 2444 2521 2592
8 2525 2448 2522 2593 2452 2369 2445 2523
8 2524 2446 2370 2453 2594 2523 2452 2527
8 2526 2449 2525 2595 2451 2368 2452 2527
8 2534 2462 2528 2597 2460 2382 2454 2529
8 2530 2455 2380 2458 2598 2529 2460 2532
8 2599 2533 2460 2532 2531 2459 2380 2458
8 2537 2464 2533 2599 2463 2384 2459 2531
8 2534 2462 2382 2460 2601 2535 2461 2533
8 2538 2465 2535 2601 2464 2385 2461 2533
8 2540 2467 2538 2604 2466 2387 2464 2537
8 2541 2468 2539 2605 2467 2388 2465 2538
8 2543 2470 2541 2607 2469 2390 2467 2540
8 2470 2391 2471 2544 2541 2468 2542 2608
8 2472 2393 2473 2546 2543 2470 2544 2610
8 2473 2394 2474 2547 2544 2471 2545 2611
8 2475 2396 2476 2549 2546 2473 2547 2613
8 2476 2397 2477 2550 2547 2474 2548 2614
8 2549 2476 2399 2478 2616 2550 2479 2552
8 2479 2400 2480 2553 2550 2477 2551 2617
8 2552 2479 2402 2483 2619 2553 2482 2557
8 2482 2401 2481 2556 2553 2480 2554 2620
8 2485 2404 2484 2559 2556 2481 2555 2623
8 2486 2405 2485 2560 2557 2482 2556 2624
8 2488 2407 2487 2561 2559 2484 2558 2625
8 2489 2408 2488 2562 2560 2485 2559 2626
8 2491 2411 2490 2563 2562 2488 2561 2627
8 2513 2434 2512 2585 2565 2493 2564 2630
8 2586 2513 2565 2632 2515 2438 2494 2567
8 2565 2493 2566 2633 2494 2416 2495 2568
8 2567 2494 2568 2635 2496 2417 2497 2570
8 2568 2495 2569 2636 2497 2418 2498 2571
8 2570 2497 2571 2638 2499 2420 2500 2573
8 2571 2498 2572 2639 2500 2421 2501 2574
8 2573 2500 2574 2641 2502 2423 2503 2576
8 2574 2501 2575 2642 2503 2424 2504 2577
8 2576 2503 2577 2643 2505 2426 2506 2578
8 2597 2528 2579 2645 2529 2454 2508 2580
8 2580 2508 2579 2645 2525 2448 2522 2593
8 2581 2509 2455 2530 2646 2580 2529 2598
8 2581 2509 2580 2646 2526 2449 2525 2595
8 2583 2511 2582 2648 2513 2434 2512 2585
8 2583 2511 2439 2516 2648 2582 2517 2589
8 2649 2583 2513 2586 2588 2516 2438 2515
8 2589 2517 2444 2520 2653 2587 2521 2592
8 2518 2442 2520 2591 2588 2516 2589 2654
8 2593 2522 2590 2655 2523 2445 2521 2592
8 2524 2446 2523 2594 2591 2520 2592 2656
8 2595 2525 2593 2657 2527 2452 2523 2594
8 2602 2536 2596 2659 2534 2462 2528 2597
8 2600 2534 2597 2660 2532 2460 2529 2598
8 2600 2534 2460 2532 2661 2601 2533 2599
8 2604 2538 2601 2661 2537 2464 2533 2599
8 2602 2536 2462 2534 2663 2603 2535 2601
8 2601 2535 2465 2538 2663 2603 2539 2605
8 2607 2541 2605 2665 2540 2467 2538 2604
8 2608 2542 2606 2666 2541 2468 2539 2605
8 2543 2470 2544 2610 2607 2541 2608 2668
8 2544 2471 2545 2611 2608 2542 2609 2669
8 2546 2473 2547 2613 2610 2544 2611 2671
8 2547 2474 2548 2614 2611 2545 2612 2672
8 2549 2476 2550 2616 2613 2547 2614 2674
8 2550 2477 2551 2617 2614 2548 2615 2675
8 2552 2479 2553 2619 2616 2550 2617 2677
8 2553 2480 2554 2620 2617 2551 2618 2678
8 2557 2482 2556 2624 2619 2553 2620 2680
8 2556 2481 2555 2623 2620 2554 2621 2681
8 2559 2484 2558 2625 2623 2555 2622 2683
8 2560 2485 2559 2626 2624 2556 2623 2684
8 2562 2488 2561 2627 2626 2559 2625 2685
8 2690 2629 2564 2630 2650 2584 2512 2585
8 2586 2513 2585 2651 2632 2565 2630 2691
8 2630 2564 2631 2692 2565 2493 2566 2633
8 2632 2565 2633 2694 2567 2494 2568 2635
8 2633 2566 2634 2695 2568 2495 2569 2636
8 2635 2568 2636 2697 2570 2497 2571 2638
8 2636 2569 2637 2698 2571 2498 2572 2639
8 2638 2571 2639 2700 2573 2500 2574 2641
8 2639 2572 2640 2701 2574 2501 2575 2642
8 2641 2574 2642 2702 2576 2503 2577 2643
8 2597 2528 2596 2659 2645 2579 2644 2704
8 2645 2579 2644 2704 2593 2522 2590 2655
8 2660 2597 2645 2705 2598 2529 2580 2646
8 2646 2580 2645 2705 2595 2525 2593 2657
8 2650 2584 2512 2585 2707 2647 2582 2648
8 2648 2582 2517 2589 2707 2647 2587 2653
8 2649 2583 2648 2708 2586 2513 2585 2651
8 2649 2583 2516 2588 2708 2648 2589 2654
8 2655 2590 2652 2710 2592 2521 2587 2653
8 2654 2589 2520 2591 2711 2653 2592 2656
8 2657 2593 2655 2712 2594 2523 2592 2656
8 2602 2536 2603 2663 2659 2596 2658 2714
8 2662 2602 2659 2715 2600 2534 2597 2660
8 2662 2602 2534 2600 2717 2663 2601 2661
8 2661 2601 2538 2604 2717 2663 2605 2665
8 2666 2606 2664 2718 2605 2539 2603 2663
8 2668 2608 2666 2720 2607 2541 2605 2665
8 2608 2542 2609 2669 2666 2606 2667 2721
8 2610 2544 2611 2671 2668 2608 2669 2723
8 2611 2545 2612 2672 2669 2609 2670 2724
8 2613 2547 2614 2674 2671 2611 2672 2726
8 2614 2548 2615 2675 2672 2612 2673 2727
8 2616 2550 2617 2677 2674 2614 2675 2729
8 2617 2551 2618 2678 2675 2615 2676 2730
8 2619 2553 2620 2680 2677 2617 2678 2732
8 2620 2554 2621 2681 2678 2618 2679 2733
8 2624 2556 2623 2684 2680 2620 2681 2735
8 2681 2621 2555 2623 2736 2682 2622 2683
8 2626 2559 2625 2685 2684 2623 2683 2737
8 2688 2628 2584 2650 2740 2686 2647 2707
8 2688 2628 2687 2742 2650 2584 2629 2690
8 2690 2629 2689 2745 2630 2564 2631 2692
8 2746 2690 2630 2691 2709 2650 2585 2651
8 2691 2630 2692 2747 2632 2565 2633 2694
8 2692 2631 2693 2748 2633 2566 2634 2695
8 2694 2633 2695 2750 2635 2568 2636 2697
8 2695 2634 2696 2751 2636 2569 2637 2698
8 2697 2636 2698 2753 2638 2571 2639 2700
8 2698 2637 2699 2754 2639 2572 2640 2701
8 2700 2639 2701 2755 2641 2574 2642 2702
8 2659 2596 2658 2714 2704 2644 2703 2757
8 2704 2644 2703 2757 2655 2590 2652 2710
8 2660 2597 2659 2715 2705 2645 2704 2758
8 2705 2645 2704 2758 2657 2593 2655 2712
8 2759 2706 2647 2707 2710 2652 2587 2653
8 2709 2650 2585 2651 2760 2707 2648 2708
8 2708 2648 2589 2654 2760 2707 2653 2711
8 2712 2655 2710 2761 2656 2592 2653 2711
8 2763 2713 2658 2714 2718 2664 2603 2663
8 2662 2602 2663 2717 2715 2659 2714 2764
8 2720 2666 2718 2767 2665 2605 2663 2717
8 2768 2719 2664 2718 2721 2667 2606 2666
8 2668 2608 2669 2723 2720 2666 2721 2770
8 2669 2609 2670 2724 2721 2667 2722 2771
8 2671 2611 2672 2726 2723 2669 2724 2773
8 2672 2612 2673 2727 2724 2670 2725 2774
8 2674 2614 2675 2729 2726 2672 2727 2776
8 2675 2615 2676 2730 2727 2673 2728 2777
8 2677 2617 2678 2732 2729 2675 2730 2779
8 2678 2618 2679 2733 2730 2676 2731 2780
8 2680 2620 2681 2735 2732 2678 2733 2782
8 2733 2679 2621 2681 2783 2734 2682 2736
8 2735 2681 2623 2684 2784 2736 2683 2737
8 2740 2686 2647 2707 2787 2738 2706 2759
8 2688 2628 2686 2740 2742 2687 2739 2789
8 2743 2688 2650 2709 2790 2740 2707 2760
8 2742 2687 2741 2792 2690 2629 2689 2745
8 2743 2688 2742 2793 2709 2650 2690 2746
8 2745 2689 2744 2795 2692 2631 2693 2748
8 2746 2690 2745 2796 2691 2630 2692 2747
8 2747 2692 2748 2797 2694 2633 2695 2750
8 2748 2693 2749 2798 2695 2634 2696 2751
8 2750 2695 2751 2800 2697 2636 2698 2753
8 2751 2696 2752 2801 2698 2637 2699 2754
8 2753 2698 2754 2802 2700 2639 2701 2755
8 2763 2713 2756 2804 2714 2658 2703 2757
8 2759 2706 2652 2710 2804 2756 2703 2757
8 2715 2659 2714 2764 2758 2704 2757 2805
8 2758 2704 2757 2805 2712 2655 2710 2761
8 2806 2759 2707 2760 2761 2710 2653 2711
8 2765 2716 2762 2808 2718 2664 2713 2763
8 2809 2763 2714 2764 2767 2718 2663 2717
8 2765 2716 2664 2718 2811 2766 2719 2768
8 2813 2768 2718 2767 2770 2721 2666 2720
8 2814 2769 2719 2768 2771 2722 2667 2721
8 2723 2669 2724 2773 2770 2721 2771 2816
8 2724 2670 2725 2774 2771 2722 2772 2817
8 2726 2672 2727 2776 2773 2724 2774 2819
8 2727 2673 2728 2777 2774 2725 2775 2820
8 2729 2675 2730 2779 2776 2727 2777 2822
8 2730 2676 2731 2780 2777 2728 2778 2823
8 2732 2678 2733 2782 2779 2730 2780 2825
8 2780 2731 2679 2733 2826 2781 2734 2783
8 2782 2733 2681 2735 2827 2783 2736 2784
8 2830 2785 2738 2787 2804 2756 2706 2759
8 2789 2739 2686 2740 2832 2786 2738 2787
8 2790 2740 2707 2760 2833 2787 2759 2806
8 2742 2687 2739 2789 2792 2741 2788 2835
8 2743 2688 2740 2790 2793 2742 2789 2836
8 2792 2741 2791 2838 2745 2689 2744 2795
8 2793 2742 2792 2839 2746 2690 2745 2796
8 2795 2744 2794 2841 2748 2693 2749 2798
8 2796 2745 2795 2842 2747 2692 2748 2797
8 2797 2748 2798 2843 2750 2695 2751 2800
8 2798 2749 2799 2844 2751 2696 2752 2801
8 2800 2751 2801 2845 2753 2698 2754 2802
8 2808 2762 2803 2847 2763 2713 2756 2804
8 2809 2763 2804 2848 2764 2714 2757 2805
8 2806 2759 2710 2761 2848 2804 2757 2805
8 2765 2716 2766 2811 2808 2762 2807 2850
8 2810 2765 2808 2851 2767 2718 2763 2809
8 2810 2765 2718 2767 2852 2811 2768 2813
8 2811 2766 2719 2768 2853 2812 2769 2814
8 2855 2814 2768 2813 2816 2771 2721 2770
8 2856 2815 2769 2814 2817 2772 2722 2771
8 2773 2724 2774 2819 2816 2771 2817 2858
8 2774 2725 2775 2820 2817 2772 2818 2859
8 2776 2727 2777 2822 2819 2774 2820 2861
8 2777 2728 2778 2823 2820 2775 2821 2862
8 2779 2730 2780 2825 2822 2777 2823 2864
8 2823 2778 2731 2780 2865 2824 2781 2826
8 2825 2780 2733 2782 2866 2826 2783 2827
8 2869 2828 2785 2830 2847 2803 2756 2804
8 2871 2829 2786 2832 2830 2785 2738 2787
8 2872 2830 2787 2833 2848 2804 2759 2806
8 2789 2739 2786 2832 2835 2788 2831 2874
8 2836 2789 2740 2790 2875 2832 2787 2833
8 2792 2741 2788 2835 2838 2791 2834 2877
8 2793 2742 2789 2836 2839 2792 2835 2878
8 2838 2791 2837 2880 2795 2744 2794 2841
8 2839 2792 2838 2881 2796 2745 2795 2842
8 2841 2794 2840 2882 2798 2749 2799 2844
8 2842 2795 2841 2883 2797 2748 2798 2843
8 2843 2798 2844 2884 2800 2751 2801 2845
8 2886 2846 2803 2847 2850 2807 2762 2808
8 2851 2808 2847 2887 2809 2763 2804 2848
8 2850 2807 2766 2811 2889 2849 2812 2853
8 2810 2765 2811 2852 2851 2808 2850 2890
8 2852 2811 2768 2813 2891 2853 2814 2855
8 2853 2812 2769 2814 2892 2854 2815 2856
8 2894 2856 2814 2855 2858 2817 2771 2816
8 2817 2772 2818 2859 2856 2815 2857 2895
8 2819 2774 2820 2861 2858 2817 2859 2897
8 2820 2775 2821 2862 2859 2818 2860 2898
8 2822 2777 2823 2864 2861 2820 2862 2900
8 2823 2778 2824 2865 2862 2821 2863 2901
8 2864 2823 2780 2825 2902 2865 2826 2866
8 2904 2867 2828 2869 2886 2846 2803 2847
8 2869 2828 2868 2906 2830 2785 2829 2871
8 2907 2869 2830 2872 2887 2847 2804 2848
8 2871 2829 2870 2909 2832 2786 2831 2874
8 2910 2871 2832 2875 2872 2830 2787 2833
8 2835 2788 2831 2874 2877 2834 2873 2912
8 2836 2789 2832 2875 2878 2835 2874 2913
8 2877 2834 2876 2915 2838 2791 2837 2880
8 2839 2792 2835 2878 2881 2838 2877 2916
8 2880 2837 2879 2917 2841 2794 2840 2882
8 2881 2838 2880 2918 2842 2795 2841 2883
8 2883 2841 2882 2919 2843 2798 2844 2884
8 2921 2885 2846 2886 2889 2849 2807 2850
8 2922 2886 2847 2887 2890 2850 2808 2851
8 2889 2849 2812 2853 2924 2888 2854 2892
8 2890 2850 2811 2852 2925 2889 2853 2891
8 2891 2853 2814 2855 2926 2892 2856 2894
8 2892 2854 2815 2856 2927 2893 2857 2895
8 2858 2817 2859 2897 2894 2856 2895 2929
8 2859 2818 2860 2898 2895 2857 2896 2930
8 2861 2820 2862 2900 2897 2859 2898 2932
8 2862 2821 2863 2901 2898 2860 2899 2933
8 2864 2823 2865 2902 2900 2862 2901 2934
8 2904 2867 2846 2886 2936 2903 2885 2921
8 2904 2867 2903 2936 2869 2828 2868 2906
8 2937 2904 2869 2907 2922 2886 2847 2887
8 2906 2868 2905 2939 2871 2829 2870 2909
8 2907 2869 2906 2940 2872 2830 2871 2910
8 2909 2870 2908 2942 2874 2831 2873 2912
8 2910 2871 2909 2943 2875 2832 2874 2913
8 2912 2873 2911 2945 2877 2834 2876 2915
8 2878 2835 2874 2913 2916 2877 2912 2946
8 2915 2876 2914 2947 2880 2837 2879 2917
8 2916 2877 2915 2948 2881 2838 2880 2918
8 2918 2880 2917 2949 2883 2841 2882 2919
8 2921 2885 2849 2889 2951 2920 2888 2924
8 2952 2921 2886 2922 2925 2889 2850 2890
8 2924 2888 2854 2892 2954 2923 2893 2927
8 2925 2889 2853 2891 2955 2924 2892 2926
8 2926 2892 2856 2894 2956 2927 2895 2929
8 2895 2857 2896 2930 2927 2893 2928 2957
8 2897 2859 2898 2932 2929 2895 2930 2959
8 2898 2860 2899 2933 2930 2896 2931 2960
8 2900 2862 2901 2934 2932 2898 2933 2961
8 2936 2903 2885 2921 2963 2935 2920 2951
8 2936 2903 2935 2963 2906 2868 2905 2939
8 2937 2904 2886 2922 2964 2936 2921 2952
8 2937 2904 2936 2964 2907 2869 2906 2940
8 2939 2905 2938 2966 2909 2870 2908 2942
8 2940 2906 2939 2967 2910 2871 2909 2943
8 2942 2908 2941 2969 2912 2873 2911 2945
8 2943 2909 2942 2970 2913 2874 2912 2946
8 2945 2911 2944 2971 2915 2876 2914 2947
8 2946 2912 2945 2972 2916 2877 2915 2948
8 2948 2915 2947 2973 2918 2880 2917 2949
8 2951 2920 2888 2924 2975 2950 2923 2954
8 2952 2921 2889 2925 2976 2951 2924 2955
8 2927 2893 2928 2957 2954 2923 2953 2978
8 2955 2924 2892 2926 2979 2954 2927 2956
8 2929 2895 2930 2959 2956 2927 2957 2980
8 2930 2896 2931 2960 2957 2928 2958 2981
8 2932 2898 2933 2961 2959 2930 2960 2982
8 2951 2920 2950 2975 2963 2935 2962 2984
8 2963 2935 2962 2984 2939 2905 2938 2966
8 2964 2936 2921 2952 2985 2963 2951 2976
8 2964 2936 2963 2985 2940 2906 2939 2967
8 2966 2938 2965 2987 2942 2908 2941 2969
8 2967 2939 2966 2988 2943 2909 2942 2970
8 2969 2941 2968 2989 2945 2911 2944 2971
8 2970 2942 2969 2990 2946 2912 2945 2972
8 2972 2945 2971 2991 2948 2915 2947 2973
8 2954 2923 2953 2978 2975 2950 2974 2993
8 2976 2951 2924 2955 2994 2975 2954 2979
8 2957 2928 2958 2981 2978 2953 2977 2995
8 2956 2927 2957 2980 2979 2954 2978 2996
8 2959 2930 2960 2982 2980 2957 2981 2997
8 2984 2962 2983 2999 2966 2938 2965 2987
8 2975 2950 2974 2993 2984 2962 2983 2999
8 2976 2951 2975 2994 2985 2963 2984 3000
8 2985 2963 2984 3000 2967 2939 2966 2988
8 2987 2965 2986 3001 2969 2941 2968 2989
8 2988 2966 2987 3002 2970 2942 2969 2990
8 2990 2969 2989 3003 2972 2945 2971 2991
8 2978 2953 2977 2995 2993 2974 2992 3004
8 2979 2954 2978 2996 2994 2975 2993 3005
8 2980 2957 2981 2997 2996 2978 2995 3006
8 2974 2993 2999 2983 2992 3004 3007 2998
8 2983 2999 2987 2965 2998 3007 3001 2986
8 3000 2984 2999 3008 2988 2966 2987 3002
8 2994 2975 2993 3005 3000 2984 2999 3008
8 3002 2987 3001 3009 2990 2969 2989 3003
8 2996 2978 2995 3006 3005 2993 3004 3010
8 3005 2993 3004 3010 3008 2999 3007 3011
8 3008 2999 3007 3011 3002 2987 3001 3009

CELL_TYPES 1910
12
12
12
12
12
12
12
12
12
12
12
12
12
12
12
12
12
12
12
12
12
12
12
12
12
12
12
12
12
12
12
12
12
12
12
12
12
12
12
12
12
12
12
12
12
12
12
12
12
12
12
12
12
12
12
12
12
12
12
12
12
12
12
12
12
12
12
12
12
12
12
12
12
12
12
12
12
12
12
12
12
12
12
12
12
12
12
12
12
12
12
12
12
12
12
12
12
12
12
12
12
12
12
12
12
12
12
12
12
12
12
12
12
12
12
12
12
12
12
12
12
12
12
12
12
12
12
12
12
12
12
12
12
12
12
12
12
12
12
12
12
12
12
12
12
12
12
12
12
12
12
12
12
12
12
12
12
12
12
12
12
12
12
12
12
12
12
12
12
12
12
12
12
12
12
12
12
12
12
12
12
12
12
12
12
12
12
12
12
12
12
12
12
12
12
12
12
12
12
12
12
12
12
12
12
12
12
12
12
12
12
12
12
12
12
12
12
12
12
12
12
12
12
12
12
12
12
12
12
12
12
12
12
12
12
12
12
12
12
12
12
12
12
12
12
12
12
12
12
12
12
12
12
12
12
12
12
12
12
12
12
12
12
12
12
12
12
12
12
12
12
12
12
12
12
12
12
12
12
12
12
12
12
12
12
12
12
12
12
12
12
12
12
12
12
12
12
12
12
12
12
12
12
12
12
12
12
12
12
12
12
12
12
12
12
12
12
12
12
12
12
12
12
12
12
12
12
12
12
12
12
12
12
12
12
12
12
12
12
12
12
12
12
12
12
12
12
12
12
12
12
12
12
12
12
12
12
12
12
12
12
12
12
12
12
12
12
12
12
12
12
12
12
12
12
12
12
12
12
12
12
12
12
12
12
12
12
12
12
12
12
12
12
12
12
12
12
12
12
12
12
12
12
12
12
12
12
12
12
12
12
12
12
12
12
12
12
12
12
12
12
12
12
12
12
12
12
12
12
12
12
12
12
12
12
12
12
12
12
12
12
12
12
12
12
12
12
12
12
12
12
12
12
12
12
12
12
12
12
12
12
12
12
12
12
12
12
12
12
12
12
12
12
12
12
12
12
12
12
12
12
12
12
12
12
12
12
12
12
12
12
12
12
12
12
12
12
12
12
12
12
12
12
12
12
12
12
12
12
12
12
12
12
12
12
12
12
12
12
12
12
12
12
12
12
12
12
12
12
12
12
12
12
12
12
12
12
12
12
12
12
12
12
12
12
12
12
12
12
12
12
12
12
12
12
12
12
12
12
12
12
12
12
12
12
12
12
12
12
12
12
12
12
12
12
12
12
12
12
12
12
12
12
12
12
12
12
12
12
12
12
12
12
12
12
12
12
12
12
12
12
12
12
12
12
12
12
12
12
12
12
12
12
12
12
12
12
12
12
12
12
12
12
12
12
12
12
12
12
12
12
12
12
12
12
12
12
12
12
12
12
12
12
12
12
12
12
12
12
12
12
12
12
12
12
12
12
12
12
12
12
12
12
12
12
12
12
12
12
12
12
12
12
12
12
12
12
12
12
12
12
12
12
12
12
12
12
12
12
12
12
12
12
12
12
12
12
12
12
12
12
12
12
12
12
12
12
12
12
12
12
12
12
12
12
12
12
12
12
12
12
12
12
12
12
12
12
12
12
12
12
12
12
12
12
12
12
12
12
12
12
12
12
12
12
12
12
12
12
12
12
12
12
12
12
12
12
12
12
12
12
12
12
12
12
12
12
12
12
12
12
12
12
12
12
12
12
12
12
12
12
12
12
12
12
12
12
12
12
12
12
12
12
12
12
12
12
12
12
12
12
12
12
12
12
12
12
12
12
12
12
12
12
12
12
12
12
12
12
12
12
12
12
12
12
12
12
12
12
12
12
12
12
12
12
12
12
12
12
12
12
12
12
12
12
12
12
12
12
12
12
12
12
12
12
12
12
12
12
12
12
12
12
12
12
12
12
12
12
12
12
12
12
12
12
12
12
12
12
12
12
12
12
12
12
12
12
12
12
12
12
12
12
12
12
12
12
12
12
12
12
12
12
12
12
12
12
12
12
12
12
12
12
12
12
12
12
12
12
12
12
12
12
12
12
12
12
12
12
12
12
12
12
12
12
12
12
12
12
12
12
12
12
12
12
12
12
12
12
12
12
12
12
12
12
12
12
12
12
12
12
12
12
12
12
12
12
12
12
12
12
12
12
12
12
12
12
12
12
12
12
12
12
12
12
12
12
12
12
12
12
12
12
12
12
12
12
12
12
12
12
12
12
12
12
12
12
12
12
12
12
12
12
12
12
12
12
12
12
12
12
12
12
12
12
12
12
12
12
12
12
12
12
12
12
12
12
12
12
12
12
12
12
12
12
12
12
12
12
12
12
12
12
12
12
12
12
12
12
12
12
12
12
12
12
12
12
12
12
12
12
12
12
12
12
12
12
12
12
12
12
12
12
12
12
12
12
12
12
12
12
12
12
12
12
12
12
12
12
12
12
12
12
12
12
12
12
12
12
12
12
12
12
12
12
12
12
12
12
12
12
12
12
12
12
12
12
12
12
12
12
12
12
12
12
12
12
12
12
12
12
12
12
12
12
12
12
12
12
12
12
12
12
12
12
12
12
12
12
12
12
12
12
12
12
12
12
12
12
12
12
12
12
12
12
12
12
12
12
12
12
12
12
12
12
12
12
12
12
12
12
12
12
12
12
12
12
12
12
12
12
12
12
12
12
12
12
12
12
12
12
12
12
12
12
12
12
12
12
12
12
12
12
12
12
12
12
12
12
12
12
12
12
12
12
12
12
12
12
12
12
12
12
12
12
12
12
12
12
12
12
12
12
12
12
12
12
12
12
12
12
12
12
12
12
12
12
12
12
12
12
12
12
12
12
12
12
12
12
12
12
12
12
12
12
12
12
12
12
12
12
12
12
12
12
12
12
12
12
12
12
12
12
12
12
12
12
12
12
12
12
12
12
12
12
12
12
12
12
12
12
12
12
12
12
12
12
12
12
12
12
12
12
12
12
12
12
12
12
12
12
12
12
12
12
12
12
12
12
12
12
12
12
12
12
12
12
12
12
12
12
12
12
12
12
12
12
12
12
12
12
12
12
12
12
12
12
12
12
12
12
12
12
12
12
12
12
12
12
12
12
12
12
12
12
12
12
12
12
12
12
12
12
12
12
12
12
12
12
12
12
12
12
12
12
12
12
12
12
12
12
12
12
12
12
12
12
12
12
12
12
12
12
12
12
12
12
12
12
12
12
12
12
12
12
12
12
12
12
12
12
12
12
12
12
12
12
12
12
12
12
12
12
12
12
12
12
12
12
12
12
12
12
12
12
12
12
12
12
12
12
12
12
12
12
12
12
12
12
12
12
12
12
12
12
12
12
12
12
12
12
12
12
12
12
12
12
12
12
12
12
12
12
12
12
12
12
12
12
12
12
12
12
12
12
12
12
12
12
12
12
12
12
12
12
12
12
12
12
12
12
12
12
12
12
12
12
12
12
12
12
12
12
12
12
12
12
12
12
12
12
12
12
12
12
12
12
12
12
12
12
12
12
12
12
12
12
12
12
12
12
12
12
12
12
12
12
12
12
12
12
12
12
12
12
12
12
12
12
12
12
12
12
12
12
12
12
12
12
12
12
12
12
12
12
12
12
12
12
12
12
12
12
12
12
12
12
12
12
12
12
12
12
12
12
12
12
12
12
12
12
12
12
12
12
12
12
12
12
12
12
12
12
12
12
12
12
12
12
12
12
12
12
12
12
12
12
12
12
12
12
12
12
12
12
12
12
12
12
12
12
12
12
12
12
12
12
12
12
12
12
12
12
12
12
12
12
12
12
12
12
12
12
12
12
12
12
12
12
12
12
12
12
12
12
12
12
12
12
12
12
12
12
12
12
12
12
12
12
12
12
12
12
12
12
12
12
12
12
12
12
12
12
12
12
12
12
12
12
12
12
12
12
12
12
12
12
12
12
12
12
12
12
12
12
12
12
12
12
12
12
12
12
12
12
12
12
12
12
12
12
12
12
12
12
12
12
12
12
12
12
12
12
12
12
12
12
12
12
12
12
12
12
12
12
12
12
12
12
12
12
12
12
12
12
12
12
12
12
12
12
12
12
12
12
12
12
12
12
12
12
12
12
12
12
12
12
12
12
12
12
12
12
12
12
12
12
12
12
12
12
12
12
12
12
12
12
12
12
12
12
12
12
12
12
12
12
12
12
12
12
12
12
12
12
12
12
12
12
12
12
12
12
12
12
12
12
12
12
12
12
12
12
12
12
12
12
12
12
12
12
12
12
12
12
12
12
12
12
12

POINT_DATA 3012
SCALARS Jp_lamdaP float 4
LOOKUP_TABLE default
1 1 1 1
1 1 1 1
1 1 1 1
0.999999 1 1 0.999999
1 1 1 1
1 1 1 1
0.999935 1 1 0.999935
1 1 1 1
1 1 1 1
1 1 1 1
1 1 1 1
0.999988 1 1 0.999988
0.999993 1 1 0.999993
1 1 1 1
1 1 1 1
0.999999 1 1 0.999999
1 1 1 1
1 1 1 1
0.999936 1 1 0.999936
1 1 1 1
0.999998 1 1 0.999998
1 1 1 1
0.999885 1 1 0.999885
0.999921 1 1 0.999921
1 1 1 1
0.999951 1 1 0.999951
0.999803 1 1 0.999803
1 1 1 1
1 1 1 1
1 1 1 1
1 1 1 1
0.99999 1 1 0.99999
1 1 1 1
1 1 1 1
0.999954 1 1 0.999954
1 1 1 1
0.99998 1 1 0.99998
0.999995 1 1 0.999995
0.999835 1 1 0.999835
1 1 1 1
1 1 1 1
1 1 1 1
1 1 1 1
0.999998 1 1 0.999998
0.999894 1 1 0.999894
1 1 1 1
0.999928 1 1 0.999928
1 1 1 1
1 1 1 1
1 1 1 1
0.999937 1 1 0.999937
0.999997 1 1 0.999997
0.999998 1 1 0.999998
1 1 1 1
1 1 1 1
0.999886 1 1 0.999886
0.999952 1 1 0.999952
0.999922 1 1 0.999922
0.999799 1 1 0.999799
1 1 1 1
0.999996 1 1 0.999996
0.999904 1 1 0.999904
0.999872 1 1 0.999872
0.999904 1 1 0.999904
0.999678 1 1 0.999678
0.999752 1 1 0.999752
1 1 1 1
0.999969 1 1 0.999969
0.999839 1 1 0.999839
0.999624 1 1 0.999624
1 1 1 1
1 1 1 1
1 1 1 1
0.999992 1 1 0.999992
1 1 1 1
1 1 1 1
0.999958 1 1 0.999958
1 1 1 1
0.999983 1 1 0.999983
0.999997 1 1 0.999997
0.999834 1 1 0.999834
1 1 1 1
1 1 1 1
0.999943 1 1 0.999943
0.999968 1 1 0.999968
0.999733 1 1 0.999733
0.999999 1 1 0.999999
0.999818 1 1 0.999818
0.999852 1 1 0.999852
0.999701 1 1 0.999701
1 1 1 1
1 1 1 1
1 1 1 1
1 1 1 1
1 1 1 1
0.999998 1 1 0.999998
0.9999 1 1 0.9999
1 1 1 1
0.999929 1 1 0.999929
1 1 1 1
0.999877 1 1 0.999877
0.999916 1 1 0.999916
0.999571 1 1 0.999571
0.999935 1 1 0.999935
0.999621 1 1 0.999621
0.999994 1 1 0.999994
0.999999 1 1 0.999999
1 1 1 1
1 1 1 1
0.999887 1 1 0.999887
0.999923 1 1 0.999923
0.999953 1 1 0.999953
0.999794 1 1 0.999794
1 1 1 1
0.999997 1 1 0.999997
0.999877 1 1 0.999877
0.999873 1 1 0.999873
1 1 1 1
0.999981 1 1 0.999981
0.999906 1 1 0.999906
0.999667 1 1 0.999667
0.999834 1 1 0.999834
0.99976 1 1 0.99976
0.999625 1 1 0.999625
0.999884 1 1 0.999884
0.999868 1 1 0.999868
0.999601 1 1 0.999601
0.999633 1 1 0.999633
0.999706 1 1 0.999706
0.999503 1 1 0.999503
1 1 1 1
0.999598 1 1 0.999598
0.999999 1 1 0.999999
0.999847 1 1 0.999847
0.99965 1 1 0.99965
0.999552 1 1 0.999552
1 1 1 1
0.999898 1 1 0.999898
1 1 1 1
1 1 1 1
0.999962 1 1 0.999962
1 1 1 1
0.999998 1 1 0.999998
0.999985 1 1 0.999985
0.999833 1 1 0.999833
1 1 1 1
1 1 1 1
0.999946 1 1 0.999946
0.999972 1 1 0.999972
0.999734 1 1 0.999734
1 1 1 1
0.999819 1 1 0.999819
0.999852 1 1 0.999852
0.999697 1 1 0.999697
1 1 1 1
1 1 1 1
0.999908 1 1 0.999908
0.999686 1 1 0.999686
0.999783 1 1 0.999783
0.999582 1 1 0.999582
0.999874 1 1 0.999874
0.999682 1 1 0.999682
0.99971 1 1 0.99971
0.999642 1 1 0.999642
1 1 1 1
1 1 1 1
1 1 1 1
1 1 1 1
1 1 1 1
1 1 1 1
1 1 1 1
0.999931 1 1 0.999931
0.999901 1 1 0.999901
1 1 1 1
1 1 1 1
0.999879 1 1 0.999879
0.999918 1 1 0.999918
0.999571 1 1 0.999571
0.999937 1 1 0.999937
0.999621 1 1 0.999621
0.999872 1 1 0.999872
0.999544 1 1 0.999544
0.999598 1 1 0.999598
0.999424 1 1 0.999424
0.999649 1 1 0.999649
0.999478 1 1 0.999478
1 1 1 1
0.999998 1 1 0.999998
0.999849 1 1 0.999849
0.999874 1 1 0.999874
1 1 1 1
0.999993 1 1 0.999993
0.999907 1 1 0.999907
0.999655 1 1 0.999655
0.999768 1 1 0.999768
0.999829 1 1 0.999829
0.999625 1 1 0.999625
0.999883 1 1 0.999883
0.999869 1 1 0.999869
0.999578 1 1 0.999578
0.999641 1 1 0.999641
1 1 1 1
0.999998 1 1 0.999998
0.999856 1 1 0.999856
0.999707 1 1 0.999707
0.999489 1 1 0.999489
0.999647 1 1 0.999647
0.999604 1 1 0.999604
0.999554 1 1 0.999554
1 1 1 1
0.999898 1 1 0.999898
0.99955 1 1 0.99955
0.999619 1 1 0.999619
0.999442 1 1 0.999442
0.999444 1 1 0.999444
0.999565 1 1 0.999565
0.999436 1 1 0.999436
1 1 1 1
0.999532 1 1 0.999532
0.999862 1 1 0.999862
0.999685 1 1 0.999685
0.999576 1 1 0.999576
0.999534 1 1 0.999534
0.999879 1 1 0.999879
0.999927 1 1 0.999927
0.999727 1 1 0.999727
0.999949 1 1 0.999949
1 1 1 1
1 1 1 1
0.999976 1 1 0.999976
0.999735 1 1 0.999735
1 1 1 1
0.999852 1 1 0.999852
0.999819 1 1 0.999819
0.999692 1 1 0.999692
1 1 1 1
1 1 1 1
0.999908 1 1 0.999908
0.999687 1 1 0.999687
0.999785 1 1 0.999785
0.999582 1 1 0.999582
0.999875 1 1 0.999875
0.999687 1 1 0.999687
0.999709 1 1 0.999709
0.999636 1 1 0.999636
1 1 1 1
0.999891 1 1 0.999891
0.999929 1 1 0.999929
0.999749 1 1 0.999749
0.999536 1 1 0.999536
0.999643 1 1 0.999643
0.999507 1 1 0.999507
0.999729 1 1 0.999729
0.999624 1 1 0.999624
0.999623 1 1 0.999623
0.999593 1 1 0.999593
0.99998 1 1 0.99998
1 1 1 1
1 1 1 1
1 1 1 1
1 1 1 1
1 1 1 1
1 1 1 1
1 1 1 1
1 1 1 1
0.999939 1 1 0.999939
0.999919 1 1 0.999919
0.999622 1 1 0.999622
0.999571 1 1 0.999571
0.99988 1 1 0.99988
1 1 1 1
0.999872 1 1 0.999872
0.999544 1 1 0.999544
0.999598 1 1 0.999598
0.999424 1 1 0.999424
0.99965 1 1 0.99965
0.999478 1 1 0.999478
0.999537 1 1 0.999537
0.999397 1 1 0.999397
0.999451 1 1 0.999451
0.999379 1 1 0.999379
0.999506 1 1 0.999506
0.999428 1 1 0.999428
0.999881 1 1 0.999881
0.999869 1 1 0.999869
0.999554 1 1 0.999554
0.999648 1 1 0.999648
1 1 1 1
0.999997 1 1 0.999997
0.999866 1 1 0.999866
0.999708 1 1 0.999708
0.999476 1 1 0.999476
0.99961 1 1 0.99961
0.999645 1 1 0.999645
0.999555 1 1 0.999555
1 1 1 1
0.999898 1 1 0.999898
0.999542 1 1 0.999542
0.999619 1 1 0.999619
0.999437 1 1 0.999437
0.999459 1 1 0.999459
1 1 1 1
0.999862 1 1 0.999862
0.999694 1 1 0.999694
0.999565 1 1 0.999565
0.999433 1 1 0.999433
0.999566 1 1 0.999566
0.999532 1 1 0.999532
0.999533 1 1 0.999533
0.99988 1 1 0.99988
0.999724 1 1 0.999724
0.999926 1 1 0.999926
0.999423 1 1 0.999423
0.999446 1 1 0.999446
0.999367 1 1 0.999367
0.999391 1 1 0.999391
0.999497 1 1 0.999497
0.999439 1 1 0.999439
0.999871 1 1 0.999871
0.999521 1 1 0.999521
0.999728 1 1 0.999728
0.999598 1 1 0.999598
0.999515 1 1 0.999515
0.999555 1 1 0.999555
0.999955 1 1 0.999955
0.999731 1 1 0.999731
0.999725 1 1 0.999725
0.999659 1 1 0.999659
0.999687 1 1 0.999687
1 1 1 1
1 1 1 1
0.999907 1 1 0.999907
0.999786 1 1 0.999786
0.999582 1 1 0.999582
0.999875 1 1 0.999875
0.999708 1 1 0.999708
0.999692 1 1 0.999692
0.99963 1 1 0.99963
1 1 1 1
0.999891 1 1 0.999891
0.999929 1 1 0.999929
0.999748 1 1 0.999748
0.999536 1 1 0.999536
0.999644 1 1 0.999644
0.999507 1 1 0.999507
0.999729 1 1 0.999729
0.999631 1 1 0.999631
0.99962 1 1 0.99962
0.999607 1 1 0.999607
1 1 1 1
0.999949 1 1 0.999949
0.999742 1 1 0.999742
0.999764 1 1 0.999764
0.999656 1 1 0.999656
0.99947 1 1 0.99947
0.999573 1 1 0.999573
0.99948 1 1 0.99948
0.999635 1 1 0.999635
0.999586 1 1 0.999586
0.999532 1 1 0.999532
0.999972 1 1 0.999972
0.999848 1 1 0.999848
0.999986 1 1 0.999986
0.999982 1 1 0.999982
1 1 1 1
1 1 1 1
1 1 1 1
1 1 1 1
1 1 1 1
1 1 1 1
1 1 1 1
1 1 1 1
1 1 1 1
1 1 1 1
1 1 1 1
0.99965 1 1 0.99965
0.999598 1 1 0.999598
0.999478 1 1 0.999478
0.999423 1 1 0.999423
0.999544 1 1 0.999544
0.999871 1 1 0.999871
0.999537 1 1 0.999537
0.999397 1 1 0.999397
0.999451 1 1 0.999451
0.999377 1 1 0.999377
0.999505 1 1 0.999505
0.999428 1 1 0.999428
0.999388 1 1 0.999388
0.999356 1 1 0.999356
0.9994 1 1 0.9994
0.99937 1 1 0.99937
0.999452 1 1 0.999452
0.999448 1 1 0.999448
0.999533 1 1 0.999533
0.999619 1 1 0.999619
0.999432 1 1 0.999432
0.999473 1 1 0.999473
1 1 1 1
0.999862 1 1 0.999862
0.999703 1 1 0.999703
0.999565 1 1 0.999565
0.99943 1 1 0.99943
0.999532 1 1 0.999532
0.999556 1 1 0.999556
0.999532 1 1 0.999532
0.99988 1 1 0.99988
0.99972 1 1 0.99972
0.999926 1 1 0.999926
0.999412 1 1 0.999412
0.999446 1 1 0.999446
0.99936 1 1 0.99936
0.999394 1 1 0.999394
0.999871 1 1 0.999871
0.999727 1 1 0.999727
0.999608 1 1 0.999608
0.999501 1 1 0.999501
0.999444 1 1 0.999444
0.999506 1 1 0.999506
0.999522 1 1 0.999522
0.999559 1 1 0.999559
0.999732 1 1 0.999732
0.999651 1 1 0.999651
0.999953 1 1 0.999953
0.999728 1 1 0.999728
0.999345 1 1 0.999345
0.999369 1 1 0.999369
0.999327 1 1 0.999327
0.999384 1 1 0.999384
0.999499 1 1 0.999499
0.999466 1 1 0.999466
0.999737 1 1 0.999737
0.999565 1 1 0.999565
0.999647 1 1 0.999647
0.999529 1 1 0.999529
0.999474 1 1 0.999474
0.99956 1 1 0.99956
0.99997 1 1 0.99997
0.999754 1 1 0.999754
0.999665 1 1 0.999665
0.999639 1 1 0.999639
0.999624 1 1 0.999624
1 1 1 1
0.999535 1 1 0.999535
0.99993 1 1 0.99993
0.999891 1 1 0.999891
0.999747 1 1 0.999747
0.999645 1 1 0.999645
0.999507 1 1 0.999507
0.999729 1 1 0.999729
0.999618 1 1 0.999618
0.999637 1 1 0.999637
0.99962 1 1 0.99962
1 1 1 1
0.99995 1 1 0.99995
0.999742 1 1 0.999742
0.999763 1 1 0.999763
0.999653 1 1 0.999653
0.999469 1 1 0.999469
0.999573 1 1 0.999573
0.999477 1 1 0.999477
0.999636 1 1 0.999636
0.999591 1 1 0.999591
0.999539 1 1 0.999539
0.999962 1 1 0.999962
0.999784 1 1 0.999784
0.999648 1 1 0.999648
0.999663 1 1 0.999663
0.999613 1 1 0.999613
0.999456 1 1 0.999456
0.999537 1 1 0.999537
0.999506 1 1 0.999506
0.999552 1 1 0.999552
0.999487 1 1 0.999487
0.999974 1 1 0.999974
0.99981 1 1 0.99981
0.999839 1 1 0.999839
0.999747 1 1 0.999747
0.999859 1 1 0.999859
0.99999 1 1 0.99999
0.999987 1 1 0.999987
1 1 1 1
0.999984 1 1 0.999984
1 1 1 1
1 1 1 1
1 1 1 1
1 1 1 1
1 1 1 1
1 1 1 1
1 1 1 1
1 1 1 1
1 1 1 1
1 1 1 1
1 1 1 1
0.999505 1 1 0.999505
0.999452 1 1 0.999452
0.999429 1 1 0.999429
0.999375 1 1 0.999375
0.999397 1 1 0.999397
0.999536 1 1 0.999536
0.999388 1 1 0.999388
0.999353 1 1 0.999353
0.9994 1 1 0.9994
0.999368 1 1 0.999368
0.999451 1 1 0.999451
0.999448 1 1 0.999448
0.999339 1 1 0.999339
0.999345 1 1 0.999345
0.999398 1 1 0.999398
0.99936 1 1 0.99936
0.999457 1 1 0.999457
0.99947 1 1 0.99947
0.999401 1 1 0.999401
0.999446 1 1 0.999446
0.999353 1 1 0.999353
0.999397 1 1 0.999397
0.999872 1 1 0.999872
0.999727 1 1 0.999727
0.999618 1 1 0.999618
0.999505 1 1 0.999505
0.99945 1 1 0.99945
0.999522 1 1 0.999522
0.999498 1 1 0.999498
0.999563 1 1 0.999563
0.999734 1 1 0.999734
0.999643 1 1 0.999643
0.999951 1 1 0.999951
0.999732 1 1 0.999732
0.999346 1 1 0.999346
0.999371 1 1 0.999371
0.999326 1 1 0.999326
0.999386 1 1 0.999386
0.999737 1 1 0.999737
0.999654 1 1 0.999654
0.999528 1 1 0.999528
0.999495 1 1 0.999495
0.999486 1 1 0.999486
0.999469 1 1 0.999469
0.999566 1 1 0.999566
0.999574 1 1 0.999574
0.999666 1 1 0.999666
0.999621 1 1 0.999621
0.999637 1 1 0.999637
0.999956 1 1 0.999956
0.999758 1 1 0.999758
0.999317 1 1 0.999317
0.999317 1 1 0.999317
0.999408 1 1 0.999408
0.999532 1 1 0.999532
0.999675 1 1 0.999675
0.999612 1 1 0.999612
0.999591 1 1 0.999591
0.999439 1 1 0.999439
0.99944 1 1 0.99944
0.999956 1 1 0.999956
0.999809 1 1 0.999809
0.99966 1 1 0.99966
0.999639 1 1 0.999639
0.999572 1 1 0.999572
0.999595 1 1 0.999595
1 1 1 1
0.999951 1 1 0.999951
0.999468 1 1 0.999468
0.999763 1 1 0.999763
0.999741 1 1 0.999741
0.999651 1 1 0.999651
0.999573 1 1 0.999573
0.999474 1 1 0.999474
0.999637 1 1 0.999637
0.999546 1 1 0.999546
0.999595 1 1 0.999595
0.999964 1 1 0.999964
0.999784 1 1 0.999784
0.999654 1 1 0.999654
0.999662 1 1 0.999662
0.999607 1 1 0.999607
0.999454 1 1 0.999454
0.999535 1 1 0.999535
0.99951 1 1 0.99951
0.999546 1 1 0.999546
0.999476 1 1 0.999476
0.999805 1 1 0.999805
0.999661 1 1 0.999661
0.999588 1 1 0.999588
0.999593 1 1 0.999593
0.999572 1 1 0.999572
0.999547 1 1 0.999547
0.99947 1 1 0.99947
0.999494 1 1 0.999494
0.999488 1 1 0.999488
0.999375 1 1 0.999375
0.999977 1 1 0.999977
0.999817 1 1 0.999817
0.999698 1 1 0.999698
0.999829 1 1 0.999829
0.999859 1 1 0.999859
0.999733 1 1 0.999733
0.999658 1 1 0.999658
0.999729 1 1 0.999729
0.999868 1 1 0.999868
0.999992 1 1 0.999992
0.999991 1 1 0.999991
1 1 1 1
0.999988 1 1 0.999988
1 1 1 1
1 1 1 1
1 1 1 1
1 1 1 1
1 1 1 1
1 1 1 1
1 1 1 1
1 1 1 1
1 1 1 1
1 1 1 1
1 1 1 1
0.99945 1 1 0.99945
0.9994 1 1 0.9994
0.999448 1 1 0.999448
0.999367 1 1 0.999367
0.999349 1 1 0.999349
0.999389 1 1 0.999389
0.999337 1 1 0.999337
0.999347 1 1 0.999347
0.999393 1 1 0.999393
0.999354 1 1 0.999354
0.999457 1 1 0.999457
0.999483 1 1 0.999483
0.999332 1 1 0.999332
0.99935 1 1 0.99935
0.999397 1 1 0.999397
0.999529 1 1 0.999529
0.999347 1 1 0.999347
0.999373 1 1 0.999373
0.999324 1 1 0.999324
0.999387 1 1 0.999387
0.999737 1 1 0.999737
0.999662 1 1 0.999662
0.999527 1 1 0.999527
0.999492 1 1 0.999492
0.999505 1 1 0.999505
0.999567 1 1 0.999567
0.999465 1 1 0.999465
0.999588 1 1 0.999588
0.999666 1 1 0.999666
0.999618 1 1 0.999618
0.999635 1 1 0.999635
0.999942 1 1 0.999942
0.999763 1 1 0.999763
0.999316 1 1 0.999316
0.999322 1 1 0.999322
0.999416 1 1 0.999416
0.999674 1 1 0.999674
0.999602 1 1 0.999602
0.999437 1 1 0.999437
0.999524 1 1 0.999524
0.99946 1 1 0.99946
0.999608 1 1 0.999608
0.999957 1 1 0.999957
0.999639 1 1 0.999639
0.999601 1 1 0.999601
0.999573 1 1 0.999573
0.999664 1 1 0.999664
0.999798 1 1 0.999798
0.999309 1 1 0.999309
0.99931 1 1 0.99931
0.999459 1 1 0.999459
0.999597 1 1 0.999597
0.999636 1 1 0.999636
0.999504 1 1 0.999504
0.999496 1 1 0.999496
0.999369 1 1 0.999369
0.999968 1 1 0.999968
0.999837 1 1 0.999837
0.999696 1 1 0.999696
0.999558 1 1 0.999558
0.999604 1 1 0.999604
0.999548 1 1 0.999548
0.999966 1 1 0.999966
0.999784 1 1 0.999784
0.999452 1 1 0.999452
0.999661 1 1 0.999661
0.999659 1 1 0.999659
0.999602 1 1 0.999602
0.999532 1 1 0.999532
0.999514 1 1 0.999514
0.999541 1 1 0.999541
0.999464 1 1 0.999464
0.999805 1 1 0.999805
0.999665 1 1 0.999665
0.999596 1 1 0.999596
0.999598 1 1 0.999598
0.999576 1 1 0.999576
0.999549 1 1 0.999549
0.999473 1 1 0.999473
0.999523 1 1 0.999523
0.999481 1 1 0.999481
0.999363 1 1 0.999363
0.99968 1 1 0.99968
0.999576 1 1 0.999576
0.999529 1 1 0.999529
0.999537 1 1 0.999537
0.999536 1 1 0.999536
0.9995 1 0.999936 0.999564
0.999367 1 1 0.999367
0.999947 1 1.0006 0.999343
0.999824 1 1 0.999824
0.999705 1 1 0.999705
0.999631 1 1 0.999631
0.999859 1 1 0.999859
0.999719 1 1 0.999719
0.999868 1 1 0.999868
0.999647 1 1 0.999647
0.999735 1 1 0.999735
0.999589 1 1 0.999589
0.999645 1 1 0.999645
0.999738 1 1 0.999738
0.999873 1 1 0.999873
0.999993 1 1 0.999993
0.999992 1 1 0.999992
1 1 1 1
0.999991 1 1 0.999991
1 1 1 1
1 1 1 1
1 1 1 1
1 1 1 1
1 1 1 1
1 1 1 1
1 1 1 1
1 1 1 1
1 1 1 1
1 1 1 1
1 1 1 1
0.999457 1 1 0.999457
0.999388 1 1 0.999388
0.999496 1 1 0.999496
0.999348 1 1 0.999348
0.999348 1 1 0.999348
0.999336 1 1 0.999336
0.999333 1 1 0.999333
0.99935 1 1 0.99935
0.999403 1 1 0.999403
0.999525 1 1 0.999525
0.99934 1 1 0.99934
0.999376 1 1 0.999376
0.999461 1 1 0.999461
0.999316 1 1 0.999316
0.999327 1 1 0.999327
0.999423 1 1 0.999423
0.999673 1 1 0.999673
0.999612 1 1 0.999612
0.999435 1 1 0.999435
0.999516 1 1 0.999516
0.999604 1 1 0.999604
0.99948 1 1 0.99948
0.999638 1 1 0.999638
0.999608 1 1 0.999608
0.999574 1 1 0.999574
0.999957 1 1 0.999957
0.999669 1 1 0.999669
0.999787 1 1 0.999787
0.999314 1 1 0.999314
0.999308 1 1 0.999308
0.999448 1 1 0.999448
0.999635 1 1 0.999635
0.99951 1 1 0.99951
0.999413 1 1.00004 0.999374
0.999605 1 1 0.999605
0.999503 1 1 0.999503
0.999978 1 1 0.999978
0.999838 1 1 0.999838
0.999603 1 1 0.999603
0.999552 1 1 0.999552
0.999563 1 1 0.999563
0.999688 1 1 0.999688
0.999331 1 1 0.999331
0.999328 1 1 0.999328
0.999513 1.00004 0.999905 0.999572
0.999623 1.00001 1 0.999611
0.999579 1 1 0.999579
1.0006 1 1.00127 0.999334
0.999423 1 1 0.999423
0.999996 1 1 0.999996
0.999896 1 1 0.999896
0.999842 1 1 0.999842
0.999705 1 1 0.999705
0.999589 1 1 0.999589
0.999496 1 1 0.999496
0.999581 1 1 0.999581
0.999521 1 1 0.999521
0.999805 1 1 0.999805
0.999669 1 1 0.999669
0.999551 1 1 0.999551
0.999603 1 1 0.999603
0.999604 1 1 0.999604
0.999581 1 1 0.999581
0.999477 1 1 0.999477
0.999552 1 1 0.999552
0.999474 1 1 0.999474
0.999351 1 1 0.999351
0.999676 1 1 0.999676
0.999583 1 1 0.999583
0.999537 1 1 0.999537
0.999543 1 1 0.999543
0.999534 1 1 0.999534
0.999546 1 0.999987 0.99956
0.999381 1 1 0.999381
0.999747 1 1.00041 0.999337
0.999609 1 1 0.999609
0.999455 1 1 0.999455
0.999525 1 1 0.999525
0.999461 1 1 0.999461
0.999857 1.0005 0.999797 0.999565
0.999349 1 1 0.999349
1.00034 1 1.00107 0.999279
0.999712 1 1 0.999712
0.999631 1 1 0.999631
0.999569 1 1 0.999569
0.999868 1 1 0.999868
0.99974 1 1 0.99974
0.999637 1 1 0.999637
0.999873 1 1 0.999873
0.999737 1 1 0.999737
0.999581 1 1 0.999581
0.999656 1 1 0.999656
0.999539 1 1 0.999539
0.999576 1 1 0.999576
0.999665 1 1 0.999665
0.999754 1 1 0.999754
0.999873 1 1 0.999873
0.999992 1 1 0.999992
0.999993 1 1 0.999993
1 1 1 1
0.999993 1 1 0.999993
1 1 1 1
1 1 1 1
1 1 1 1
1 1 1 1
1 1 1 1
0.999999 1 1 0.999999
1 1 1 1
1 1 1 1
1 1 1 1
1 1 1 1
1 1 1 1
1 1 1 1
0.99952 1 1 0.99952
0.999409 1 1 0.999409
0.999349 1 1 0.999349
0.999334 1 1 0.999334
0.999345 1 1 0.999345
0.99937 1 1 0.99937
0.999475 1 1 0.999475
0.999369 1 1 0.999369
0.999396 1 1 0.999396
0.999473 1 1 0.999473
0.999318 1 1 0.999318
0.999306 1 1 0.999306
0.999436 1 1 0.999436
0.999633 1 1 0.999633
0.999525 1 1 0.999525
0.99938 1 1 0.99938
0.999612 1 1 0.999612
0.999502 1 1 0.999502
0.999602 1 1 0.999602
0.999556 1 1 0.999556
0.999568 1 1 0.999568
0.999988 1 1 0.999988
0.999838 1 1 0.999838
0.99968 1 1 0.99968
0.999332 1 1 0.999332
0.999995 1 1 0.999995
0.999888 1 1 0.999888
0.99933 1 1 0.999329
0.999564 1.00001 1 0.999552
0.999587 1 1 0.999587
0.999482 1 1.00008 0.999406
0.999915 1 1.00058 0.99934
0.99961 1 1 0.999609
0.999862 1 1 0.999862
0.999705 1 1 0.999705
0.99958 1 1 0.99958
0.999539 1 1 0.999539
0.999484 1 1 0.999484
0.99959 1 1 0.99959
0.999345 1 1 0.999345
0.999604 1.00019 1 0.999413
0.999537 1.00025 0.999601 0.999685
0.999436 1 1 0.999436
0.999539 1 1 0.999539
1.00153 1 1.00223 0.9993
0.999895 1 1 0.999895
0.999879 1 1 0.999879
0.999794 1 1 0.999794
0.999711 1 1 0.999711
0.999618 1 1 0.999618
0.999503 1 1 0.999503
0.999432 1 1 0.999432
0.999541 1 1 0.999541
0.999673 1 1 0.999673
0.999591 1 1 0.999591
0.999532 1 1 0.999532
0.999556 1 1 0.999556
0.999549 1 1 0.999549
0.999544 1 1 0.999544
0.999395 1 1 0.999395
0.999591 1 1.00026 0.999332
0.999608 1 1 0.999608
0.99947 1 1 0.99947
0.999526 1 1 0.999526
0.999549 1 1.0001 0.999448
0.999646 1.00024 0.999844 0.999558
0.999388 1.00004 1 0.999352
1.00023 1 1.00096 0.999277
0.99954 1 1 0.99954
1.00361 1.00467 0.999451 0.999494
0.99948 1 1 0.99948
0.999946 1 1.0006 0.999349
0.997397 1.0005 0.99753 0.999363
1.00067 1 1.00143 0.999234
1.00486 1.00713 0.998407 0.999333
0.999631 1 1 0.999631
0.99957 1 1 0.99957
0.999527 1 1 0.999527
0.999873 1 1 0.999873
0.999736 1 1 0.999736
0.999667 1 1 0.999667
0.999572 1 1 0.999572
0.999873 1 1 0.999873
0.999747 1 1 0.999747
0.999537 1 1 0.999537
0.999665 1 1 0.999665
0.999585 1 1 0.999585
0.999517 1 1 0.999517
0.999604 1 1 0.999604
0.999673 1 1 0.999673
0.999738 1 1 0.999738
0.999854 1 1 0.999854
0.99977 1 1 0.99977
0.999854 1 1 0.999854
0.999992 1 1 0.999992
0.999992 1 1 0.999992
1 1 1 1
0.999992 1 1 0.999992
1 1 1 1
1 1 1 1
1 1 1 1
1 1 1 1
1 1 1 1
1 1 1 1
0.999998 1 1 0.999998
1 1 1 1
1 1 1 1
1 1 1 1
1 1 1 1
1 1 1 1
1 1 1 1
0.999489 1 1 0.999489
0.999363 1 1 0.999363
0.999351 1 1 0.999351
0.999369 1 1 0.999369
0.999404 1 1 0.999404
0.999479 1 1 0.999479
0.999428 1.00001 1 0.999417
1.00068 1.00581 0.995308 0.999582
1.00176 1.00249 0.999705 0.999569
0.999921 1 1 0.999921
0.999333 1 1 0.999333
0.999332 1 1 0.99933
0.999531 1 1 0.999531
0.999594 1 1 0.999594
0.999759 1 1.00037 0.99939
0.999464 1 1.00012 0.999346
0.999606 1 1 0.999606
0.999579 1 1 0.999579
0.999556 1 1 0.999556
0.999472 1 1 0.999472
0.999993 1 1 0.999993
0.999592 1 1 0.999592
0.999882 1 1 0.999882
0.999704 1 1 0.999704
0.99988 1 1 0.99988
0.999339 1 1 0.999339
0.999903 1 1 0.999903
0.999879 1 1 0.999879
0.999778 1 1 0.999778
0.999673 1.00026 1 0.999416
0.999265 1.00014 0.999469 0.999658
0.999549 1 1.00001 0.999544
1.00162 1 1.00233 0.999293
0.999603 1 1.00016 0.999441
0.999722 1 1 0.999722
0.999614 1 1 0.999614
0.999533 1 1 0.999533
0.999483 1 1.00004 0.999444
0.999511 1 1 0.999511
0.999669 1.00029 1.00004 0.99933
0.997824 1.00089 0.997374 0.999558
0.999523 1.00029 0.999716 0.999514
1.00074 1 1.00142 0.999317
1.00098 1 1.00152 0.999463
0.999779 1 1 0.999779
0.99974 1 1 0.99974
0.999692 1 1 0.999692
0.999624 1 1 0.999624
0.999547 1 1 0.999547
0.999452 1 1 0.999452
1.00102 1 1.00161 0.999411
0.999608 1 1 0.999608
0.999526 1 1 0.999526
0.999485 1 1 0.999485
0.999402 1 0.999852 0.99955
0.999408 1.00005 1 0.999356
0.999615 1 1.00018 0.999435
1.00003 1 1.00076 0.999276
0.999546 1 1 0.999546
1.00365 1.00477 0.99938 0.999502
0.999482 1 1 0.999482
0.999961 1 1.00061 0.999348
0.998284 1.00081 0.998088 0.999386
1.00127 1 1.00204 0.999231
1.00653 1.00947 0.99773 0.99935
0.9995 1 1 0.9995
0.999079 1.00427 0.99546 0.999366
0.999444 1 1 0.999444
1.00304 1 1.00375 0.999289
1.0004 1.00008 1.00109 0.999235
0.960211 0.963823 0.999071 0.997179
1.0017 1.00115 1.00154 0.999009
0.986186 1.00947 0.977546 0.999377
0.935246 0.94876 0.986594 0.999151
0.946219 0.975548 0.970434 0.999486
0.99957 1 1 0.99957
0.999529 1 1 0.999529
0.999497 1 1 0.999497
0.999873 1 1 0.999873
0.99974 1 1 0.99974
0.999665 1 1 0.999665
0.999595 1 1 0.999595
0.999534 1 1 0.999534
0.999662 1 1 0.999662
0.999862 1 1 0.999862
0.999746 1 1 0.999746
0.999523 1 1 0.999523
0.999601 1 1 0.999601
0.999612 1 1 0.999612
0.999538 1 1 0.999538
0.999644 1 1 0.999644
0.999737 1 1 0.999737
0.999853 1 1 0.999853
0.99976 1 1 0.99976
0.999677 1 1 0.999677
0.999744 1 1 0.999744
0.999756 1 1 0.999756
0.999867 1 1 0.999867
0.999854 1 1 0.999854
0.999991 1 1 0.999991
0.999991 1 1 0.999991
1 1 1 1
0.999992 1 1 0.999992
1 1 1 1
1 1 1 1
1 1 1 1
1 1 1 1
1 1 1 1
1 1 1 1
1 1 1 1
1 1 1 1
0.999998 1 1 0.999998
1 1 1 1
1 1 1 1
1 1 1 1
1 1 1 1
1 1 1 1
0.999411 1 1 0.999411
0.999369 1 1 0.999369
0.999485 1 1 0.999485
1.00173 1.0057 0.996464 0.999587
0.999437 1.00002 1 0.999412
1.00159 1.0022 0.999863 0.999536
1.00059 1.00123 1.00004 0.999327
0.979504 0.984914 0.995772 0.99873
1.00138 1.00238 0.999342 0.999664
0.999926 1 1 0.999926
0.99992 1 1 0.99992
0.999811 1 1 0.999811
0.999823 1 1 0.999823
0.999333 1 1 0.999333
0.999737 1.00032 1 0.999419
0.999112 1 0.999481 0.999631
0.999549 1 1 0.999549
1.00122 1 1.00193 0.999286
0.999577 1 1.00013 0.999446
0.999526 1 1 0.999526
0.999555 1 1.0001 0.999456
0.999519 1 1 0.999519
0.999879 1 1 0.999879
0.999609 1 1 0.999609
0.999734 1 1 0.999734
0.999912 1 1 0.999912
0.999762 1 1 0.999762
0.999553 1.00017 1.00003 0.999344
0.999795 1 1 0.999795
0.99975 1 1 0.99975
0.999692 1 1 0.999692
0.99879 1.00093 0.998305 0.999561
0.999198 1.00014 0.999541 0.999515
1.00089 1 1.00143 0.999462
1.00087 1 1.00156 0.999314
0.999628 1 1 0.999628
0.99955 1 1 0.99955
1.00042 1 1.00101 0.999411
0.999494 1 1.00005 0.999445
1.00108 1.00173 0.999954 0.999399
0.998535 1.00132 0.997704 0.999516
1.00005 1.00006 1.00073 0.999267
1.00088 1 1.00149 0.999386
0.999661 1 1 0.999661
0.999645 1 1 0.999645
0.999511 1 1 0.999511
1.00148 1 1.00212 0.999353
0.957522 0.963719 0.996485 0.997074
0.999552 1 1 0.999552
0.999483 1 1 0.999483
1.0038 1.00483 0.999465 0.999509
0.999312 1.00109 0.99881 0.999409
1.00195 1 1.00272 0.999228
1.00005 1 1.0007 0.999348
1.00847 1.01166 0.997479 0.999367
0.999505 1 1 0.999505
0.999136 1.0047 0.995102 0.999359
0.999447 1 1 0.999446
1.00276 1 1.00347 0.999292
0.999805 1.00014 1.00041 0.999247
0.959746 0.964303 0.99788 0.997389
0.996039 0.997717 0.999854 0.998464
0.990141 1.0113 0.979665 0.999398
0.940918 0.951492 0.990011 0.998864
0.940817 0.971444 0.968986 0.99947
0.999499 1 1 0.999499
0.94659 0.953531 0.994168 0.998543
0.958395 0.974695 0.983703 0.999567
0.981693 1.00136 0.981009 0.999339
1.00157 1 1.00214 0.999428
1.00847 1 1.00916 0.999314
0.999107 1.01017 0.989663 0.999381
0.971599 0.971312 1.00333 0.996973
1.00211 1.00459 0.999183 0.998352
0.937835 0.956448 0.981453 0.999068
0.984783 1.00517 0.980042 0.99967
0.99953 1 1 0.99953
0.999498 1 1 0.999498
0.999476 1 1 0.999476
0.999871 1 1 0.999871
0.999754 1 1 0.999754
0.999651 1 1 0.999651
0.999597 1 1 0.999597
0.999528 1 1 0.999528
0.999853 1 1 0.999853
0.999611 1 1 0.999611
0.999656 1 1 0.999656
0.999746 1 1 0.999746
0.999528 1 1 0.999528
0.999575 1 1 0.999575
0.999686 1 1.0002 0.999489
0.999656 1 1 0.999656
0.999755 1 1 0.999755
0.99976 1 1 0.99976
0.999665 1 1 0.999665
0.999668 1 1 0.999668
0.999652 1 1 0.999652
0.999606 1 1 0.999606
0.999605 1 1 0.999605
0.999725 1 1 0.999725
0.999744 1 1 0.999744
0.999861 1 1 0.999861
0.999741 1 1 0.999741
0.99986 1 1 0.99986
0.99999 1 1 0.99999
0.999854 1 1 0.999854
0.999991 1 1 0.999991
1 1 1 1
0.999991 1 1 0.999991
1 1 1 1
1 1 1 1
1 1 1 1
1 1 1 1
1 1 1 1
0.999923 1 1 0.999923
1 1 1 1
1 1 1 1
1 1 1 1
1 1 1 1
1 1 1 1
1 1 1 1
1 1 1 1
1 1 1 1
1 1 1 1
1.00278 1.00593 0.997277 0.999591
0.999442 1.00004 1 0.999407
1.00137 1.00187 1 0.999502
0.98076 0.98446 0.997169 0.999071
1.0016 1.00218 0.999752 0.999669
1.00066 1.00132 1.00003 0.99931
1.00275 1.00176 1.00159 0.99939
0.986788 0.986526 1.00136 0.998903
0.963657 0.967083 0.99995 0.996507
0.93039 0.949141 0.981794 0.998422
0.941367 0.967339 0.973646 0.999492
0.999806 1 1 0.999806
0.999926 1 1 0.999926
0.99992 1 1 0.99992
0.999806 1 1 0.999806
0.999732 1 1 0.999732
0.99975 1 1 0.99975
0.99981 1 1 0.99981
0.999816 1 1 0.999816
0.999441 1.00006 1.00003 0.999359
0.999682 1.00099 0.999126 0.999563
0.998833 1 0.999317 0.999516
1.00094 1 1.00148 0.999461
1.00142 1 1.00211 0.999311
0.999858 1 1.00045 0.999412
0.999514 1 1.00008 0.999437
0.999554 1 1 0.999554
0.99976 1 1 0.99976
0.999632 1 1 0.999632
0.999812 1 1 0.999812
0.999692 1 1 0.999692
1.00075 1.0019 0.999465 0.999384
0.999667 1 1 0.999667
0.999647 1 1 0.999647
0.997856 1.00106 0.997283 0.999513
0.999725 1.00003 1.0004 0.999291
1.00136 1 1.002 0.999367
0.999508 1 1 0.999508
1.00145 1 1.00209 0.999357
0.992566 1.00658 0.9867 0.999367
1.00228 1.00053 1.00244 0.999304
1.00032 1 1.00103 0.999288
1.00442 1 1.0051 0.99932
0.999597 1 1 0.999597
0.999543 1 1 0.999543
0.999948 1 1.00054 0.999404
0.944749 0.956786 0.988469 0.998938
0.962352 0.965575 0.999459 0.997202
0.999509 1 1 0.999509
0.999447 1 1 0.999447
0.999166 1.00532 0.994518 0.999353
0.999072 1.00024 0.999572 0.999258
1.0023 1 1.003 0.999296
0.960321 0.964993 0.998667 0.996487
0.996454 0.998094 0.999283 0.999074
0.994413 1.01357 0.981673 0.999417
0.93571 0.950862 0.985526 0.998518
0.934618 0.966953 0.967087 0.999454
0.999498 1 1 0.999498
0.941667 0.955441 0.986559 0.999011
0.960004 0.972852 0.987204 0.999584
0.984417 1.00152 0.983583 0.999331
1.00077 1 1.00134 0.999432
1.00772 1 1.0084 0.999326
0.994065 1.0076 0.987197 0.99936
0.972786 0.973018 1.00306 0.99671
0.997507 1.00006 0.998508 0.998939
0.939276 0.956859 0.98313 0.998469
0.978652 1.00307 0.976006 0.999647
0.999472 1 1 0.999472
0.977585 0.980082 0.997745 0.999707
1.01529 1.01759 0.997914 0.999822
1.00102 1 1.00161 0.999409
1.00655 1 1.00703 0.999527
1.00688 1.00361 1.00362 0.999638
0.993033 0.997473 0.996151 0.999396
0.976973 0.974316 1.0059 0.996845
0.956375 0.976724 0.980699 0.998437
1.00142 1.01854 0.98345 0.999736
0.999499 1 1 0.999499
0.999471 1 1 0.999471
0.999884 1 1.00042 0.999462
0.999853 1 1 0.999853
0.999755 1 1 0.999755
0.999668 1 1 0.999668
0.999611 1 1 0.999611
0.999518 1 1 0.999518
0.999755 1 1 0.999755
0.999583 1 1 0.999583
0.999656 1 1 0.999656
0.999727 1 1.00024 0.999483
1.00001 1 1.00055 0.999454
0.99964 1 1.00009 0.999554
0.999662 1 1 0.999662
0.99976 1 1 0.99976
0.999653 1 1 0.999653
0.999668 1 1 0.999668
0.999651 1 1 0.999651
0.999604 1 1 0.999604
0.999628 1 1 0.999628
0.999599 1 1 0.999599
0.999567 1 1 0.999567
0.999552 1 1 0.999552
0.999572 1 1 0.999572
0.999598 1 1 0.999598
0.999606 1 1 0.999606
0.999702 1 1 0.999702
0.999724 1 1 0.999724
0.999848 1 1 0.999848
0.999743 1 1 0.999743
0.99986 1 1 0.99986
0.999987 1 1 0.999987
0.999852 1 1 0.999852
0.999989 1 1 0.999989
1 1 1 1
0.99999 1 1 0.99999
1 1 1 1
1 1 1 1
1 1 1 1
1 1 1 1
1 1 1 1
0.999929 1 1 0.999929
1 1 1 1
0.999923 1 1 0.999923
1 1 1 1
1 1 1 1
1 1 1 1
1 1 1 1
1 1 1 1
1 1 1 1
1 1 1 1
1 1 1 1
0.940353 0.952349 0.988291 0.999102
0.963085 0.97532 0.987787 0.999665
0.983392 0.98512 0.998899 0.999347
1.00167 1.00201 0.999984 0.999673
1.00074 1.00142 1.00003 0.999294
0.986309 0.985026 1.00176 0.99954
1.00205 1.00185 1.0008 0.9994
0.967087 0.96931 1.00054 0.997171
0.937003 0.950361 0.986827 0.999106
0.938504 0.967919 0.970115 0.99948
0.999741 0.996072 1.00407 0.999616
0.972938 0.972805 1.00305 0.997098
0.936508 0.955685 0.980848 0.999067
0.977632 0.999954 0.978081 0.999587
0.999704 1 1 0.999704
0.999813 1 1 0.999813
0.999925 1 1 0.999925
0.999801 1 1 0.999801
0.99974 1 1 0.99974
0.999719 1 1 0.999719
0.999753 1 1 0.999753
0.999768 1 1 0.999768
0.9998 1 1 0.9998
0.99981 1 1 0.99981
1.00035 1.00196 0.999025 0.999369
0.997417 1.00085 0.997063 0.99951
0.999446 1 1.00013 0.999315
1.00163 1 1.00228 0.999348
1.00133 1 1.00198 0.99936
0.999504 1 1 0.999504
0.99965 1 1 0.99965
0.999673 1 1 0.999673
0.995009 1.00569 0.990035 0.999339
0.999593 1 1 0.999593
0.999532 1 1 0.999532
1.0005 1.00041 1.0008 0.999287
1.00064 1 1.00133 0.99931
1.00347 1 1.00416 0.999309
1.00052 1 1.00112 0.999396
0.992356 1.01264 0.980754 0.999198
1.00819 1 1.00887 0.999327
1.00407 1 1.00476 0.999314
0.999588 1 1 0.999588
0.999518 1 1 0.999518
0.999435 1 1 0.999435
0.978178 0.981976 0.996501 0.99963
0.946306 0.955837 0.991565 0.998451
0.960078 0.965399 0.997418 0.997062
0.999496 1 1 0.999496
1.00009 1 1.00065 0.999435
0.987221 1.00158 0.986334 0.999323
1.00717 1 1.00784 0.999337
0.938612 0.953708 0.985705 0.998444
0.970614 0.97207 1.00087 0.997631
0.999007 1.00103 0.999582 0.998398
0.989564 1.00518 0.985108 0.999347
0.942348 0.956875 0.985667 0.999138
0.962027 0.974841 0.987303 0.999547
0.971108 0.99707 0.974354 0.999598
0.99947 1 1 0.99947
0.974119 0.979354 0.99499 0.999663
1.01478 1.01718 0.997815 0.999823
1.00065 1 1.00123 0.999416
1.00678 1 1.00725 0.999528
1.00872 1.00315 1.0063 0.999251
0.993311 0.997417 0.997296 0.998584
0.975797 0.975682 1.00337 0.996762
0.963502 0.979673 0.984278 0.999203
0.996001 1.01412 0.982436 0.99969
0.999799 1 1.00021 0.99959
1.01944 1.01978 0.999791 0.999876
1.02138 1.02415 0.997399 0.999894
1.00796 1 1.00823 0.999728
0.997346 0.992869 1.00476 0.999748
0.983235 0.980963 1.00548 0.996851
0.979824 0.994937 0.985568 0.999232
0.997298 1.01586 0.982054 0.999672
0.999465 1 1 0.999465
0.99983 1 1.00036 0.999474
1.00081 1 1.0013 0.999505
0.999755 1 1 0.999755
0.999656 1 1 0.999656
0.999591 1 1 0.999591
0.999758 1 1.00028 0.999477
0.999662 1 1 0.999662
0.999586 1 1.00003 0.999555
1.00039 1 1.00093 0.999454
1.00035 1 1.00086 0.999493
0.999684 1 1.00021 0.999472
0.999587 1 1 0.999587
0.999667 1 1 0.999667
0.999651 1 1 0.999651
0.999602 1 1 0.999602
0.9996 1 1 0.9996
0.999628 1 1 0.999628
0.999571 1 1 0.999571
0.999549 1 1 0.999549
0.999542 1 1 0.999542
0.999522 1 1 0.999522
0.999553 1 1 0.999553
0.999548 1 1 0.999548
0.999533 1 1 0.999533
0.999634 1 1 0.999634
0.999596 1 1 0.999596
0.999606 1 1 0.999606
0.999674 1 1 0.999674
0.999607 1 1 0.999607
0.999702 1 1 0.999702
0.999829 1 1 0.999829
0.999724 1 1 0.999724
0.999847 1 1 0.999847
0.999984 1 1 0.999984
0.99986 1 1 0.99986
0.999986 1 1 0.999986
1 1 1 1
0.999988 1 1 0.999988
1 1 1 1
1 1 1 1
1 1 1 1
1 1 1 1
1 1 1 1
0.999893 1 1 0.999893
1 1 1 1
0.999914 1 1 0.999914
1 1 1 1
1 1 1 1
0.999923 1 1 0.999923
1 1 1 1
1 1 1 1
1 1 1 1
1 1 1 1
1 1 1 1
1 1 1 1
0.977818 0.980408 0.997627 0.999731
0.942691 0.95343 0.989967 0.998757
1.01313 1.01783 0.995556 0.999824
0.959804 0.972399 0.987402 0.999641
0.982972 0.983685 1.00043 0.998843
1.00147 1.00201 1.00004 0.999412
0.967348 0.969125 1.00031 0.997859
0.934356 0.950686 0.984345 0.998454
0.936027 0.968699 0.966786 0.999469
0.996804 0.997521 0.999923 0.999358
0.9721 0.970836 1.00434 0.996971
0.938751 0.959007 0.980404 0.998445
0.977276 1.00059 0.977102 0.999594
0.997762 1.00424 0.994037 0.999514
0.973627 0.971667 1.0052 0.99683
0.965602 0.982548 0.983571 0.999168
0.998875 1.0171 0.982371 0.999708
0.999644 1 1 0.999644
0.999714 1 1 0.999714
0.99982 1 1 0.99982
0.999748 1 1 0.999748
0.999664 1 1 0.999664
0.999726 1 1 0.999726
0.999756 1 1 0.999756
0.999756 1 1 0.999756
0.999777 1 1 0.999777
0.999791 1 1 0.999791
0.997597 1.00513 0.993186 0.999312
0.998634 1.00022 0.999148 0.999271
1.00092 1 1.00159 0.999333
1.00279 1 1.00349 0.999298
1.00115 1 1.00176 0.999387
0.99952 1 1 0.99952
0.999588 1 1 0.999588
0.999589 1 1 0.999589
0.993031 1.01028 0.983702 0.999207
0.999524 1 1 0.999524
0.999523 1 1.00009 0.999432
1.00779 1 1.00849 0.999307
1.00393 1 1.00462 0.999315
0.994957 1.01062 0.98522 0.999272
1.01733 1 1.01794 0.999409
1.00016 1 1.00078 0.999377
0.999534 1 1 0.999534
0.999439 1 1 0.999439
1.01969 1.02003 0.999768 0.999892
0.978942 0.981688 0.997515 0.999688
0.945705 0.95647 0.989672 0.999064
0.999468 1 1 0.999468
1.00679 1 1.00727 0.99953
0.999909 1 1.00049 0.999422
0.978701 0.981147 0.997785 0.999721
0.975555 0.973516 1.00538 0.996729
0.994396 0.997001 0.998102 0.999283
1.00913 1.002 1.00828 0.998839
0.958018 0.976119 0.982989 0.998441
1.01451 1.01702 0.997703 0.999823
0.99564 1.01289 0.983273 0.999691
0.999738 1 1.00014 0.999602
1.01985 1.02004 0.999921 0.99989
1.02278 1.02587 0.997088 0.999895
1.00857 0.999985 1.00896 0.999626
0.99819 0.994742 1.00398 0.999491
0.986117 0.982995 1.00644 0.996757
1.00001 1.01869 0.981946 0.999714
0.974786 0.990128 0.985596 0.998893
0.999976 1 1.00026 0.999712
1.01837 1.02009 0.998346 0.999963
1.02379 1.02651 0.997446 0.99991
0.999929 1.016 0.984472 0.999711
1.0065 0.994841 1.01185 0.999874
0.982683 0.980989 1.00465 0.997088
0.970341 0.987994 0.982998 0.999119
0.999754 1 1.00027 0.999486
1.00057 1 1.00109 0.999475
1.00314 1 1.00355 0.999585
0.999662 1 1 0.999662
0.999556 1 1 0.999556
1.00083 1 1.00138 0.999453
0.99959 1 1 0.99959
0.999796 1 1.00033 0.99947
1.00074 1 1.00126 0.999473
0.999883 1 1.00035 0.999529
0.999505 1 1 0.999505
0.999602 1 1 0.999602
0.999628 1 1 0.999628
0.999575 1 1 0.999575
0.999543 1 1 0.999543
0.99955 1 1 0.99955
0.999519 1 1 0.999519
0.999543 1 1 0.999543
0.99973 1 1.00029 0.99944
0.999555 1 1 0.999555
0.999546 1 1 0.999546
0.999456 1 1 0.999456
0.999548 1 1 0.999548
0.999629 1 1 0.999629
0.999534 1 1 0.999534
0.999682 1 1 0.999682
0.999628 1 1 0.999628
0.999621 1 1 0.999621
0.999614 1 1 0.999614
0.999682 1 1 0.999682
0.999808 1 1 0.999808
0.999703 1 1 0.999703
0.999828 1 1 0.999828
0.999979 1 1 0.999979
0.999847 1 1 0.999847
0.999983 1 1 0.999983
1 1 1 1
0.999986 1 1 0.999986
1 1 1 1
1 1 1 1
1 1 1 1
1 1 1 1
1 1 1 1
0.999847 1 1 0.999847
0.999979 1 1 0.999979
0.999892 1 1 0.999892
1 1 1 1
0.999992 1 1 0.999992
0.999898 1 1 0.999898
1 1 1 1
1 1 1 1
1 1 1 1
1 1 1 1
1 1 1 1
1 1 1 1
1.01856 1.01902 0.999662 0.999885
0.972841 0.979089 0.993992 0.999625
0.945382 0.953467 0.993003 0.998507
0.999718 1 1 0.999718
1.02442 1.02715 0.997425 0.999915
1.01443 1.01822 0.996449 0.999825
0.956644 0.973026 0.983597 0.99956
0.994147 0.998507 0.996559 0.999072
0.974039 0.971501 1.00558 0.997048
0.942533 0.961609 0.981033 0.999113
0.975884 0.997937 0.978337 0.999555
0.997437 1.00777 0.990946 0.998785
0.974863 0.972709 1.00534 0.996896
0.964592 0.982417 0.982991 0.998846
0.996019 1.01593 0.980719 0.999673
0.984691 0.999435 0.986636 0.998592
0.9782 0.976393 1.00568 0.996196
0.975294 0.992022 0.98459 0.998525
0.998167 1.01791 0.980942 0.999655
0.999584 1 1 0.999584
0.999638 1 1 0.999638
0.999724 1 1 0.999724
0.999649 1 1 0.999649
0.999675 1 1 0.999675
0.999733 1 1 0.999733
0.99976 1 1 0.99976
0.999787 1 1 0.999787
0.993641 1.00777 0.986752 0.999215
1.00724 1 1.00795 0.999288
0.999591 1 1 0.999591
1.00369 1 1.00438 0.999315
0.999595 1 1.00017 0.999429
0.999531 1 1 0.999531
0.999535 1 1 0.999535
0.995926 1.00979 0.986988 0.999278
0.999445 1 1 0.999445
1.00097 1 1.0016 0.999372
1.01746 1 1.01807 0.999397
0.999533 1 1 0.999533
1.00415 1.00289 1.00169 0.999572
1.01312 1 1.01363 0.999495
0.999437 1 1 0.999437
0.999477 1 1 0.999477
1.01698 1.01771 0.999312 0.999968
1.01869 1.01908 0.999723 0.999895
0.979603 0.981269 0.998555 0.999746
0.999614 1 1 0.999614
1.00957 0.999979 1.01007 0.999526
1.02021 1.02032 0.999995 0.999903
0.982189 0.977717 1.00779 0.996804
1.00093 0.997479 1.00469 0.99878
0.97262 0.990244 0.983604 0.998575
1.02392 1.0273 0.996807 0.999896
1.0031 1.02196 0.981779 0.999756
1.00016 1 1.00047 0.999686
1.01914 1.02093 0.998278 0.999963
1.02326 1.02576 0.997638 0.999924
1.00697 0.995492 1.0116 0.999931
0.996838 1.01471 0.982707 0.999674
0.980798 0.982799 1.0007 0.997268
0.969551 0.98848 0.982349 0.998474
1.0065 0.998152 1.0086 0.999774
1.0114 1.0132 0.998244 0.999979
1.02537 1.02748 0.998035 0.999912
0.978562 0.999508 0.979445 0.999591
0.974056 0.990177 0.985162 0.998536
1.0043 0.992652 1.01158 1.00016
0.976492 0.977459 1.00198 0.997035
1.00033 1 1.00089 0.999444
1.00225 1 1.00268 0.999573
1.0122 1 1.01262 0.999582
0.999592 1 1 0.999592
0.999835 1 1.00037 0.999469
1.00099 1 1.00154 0.999453
0.999506 1 1 0.999506
0.999959 1 1.00043 0.999526
1.00286 1 1.00337 0.999489
0.999543 1 1 0.999543
0.999551 1 1 0.999551
0.999691 1 1.00018 0.999512
1.00126 1 1.00184 0.999423
0.999564 1 1 0.999564
0.999618 1 1.00016 0.999455
0.999861 1 1.0005 0.999365
0.999437 1 1 0.999437
0.999545 1 1 0.999545
0.999444 1 1 0.999444
0.999591 1 1 0.999591
0.99962 1 1 0.99962
0.999559 1 1 0.999559
0.999688 1 1 0.999688
0.999628 1 1 0.999628
0.999536 1 1 0.999536
0.999793 1 1 0.999793
0.999679 1 1 0.999679
0.999623 1 1 0.999623
0.999689 1 1 0.999689
0.999808 1 1 0.999808
0.999971 1 1 0.999971
0.999828 1 1 0.999828
0.999977 1 1 0.999977
1 1 1 1
0.999981 1 1 0.999981
1 1 1 1
1 1 1 1
1 1 1 1
1 1 1 1
1 1 1 1
0.999824 1 1 0.999824
0.999966 1 1 0.999966
0.999856 1 1 0.999856
1 1 1 1
0.999978 1 1 0.999978
0.999891 1 1 0.999891
1 1 1 1
1 1 1 1
0.999983 1 1 0.999983
1 1 1 1
1 1 1 1
1 1 1 1
1.0186 1.0195 0.99916 0.999962
1.01865 1.0193 0.999473 0.999886
0.974783 0.979728 0.995326 0.999625
0.999722 1 1 0.999722
0.999695 1 1 0.999695
0.99965 1 1 0.99965
1.02279 1.02563 0.997318 0.99991
1.02548 1.02786 0.997777 0.999915
1.01638 1.01862 0.997973 0.999826
1.00194 1.01157 0.991043 0.999437
0.975071 0.971668 1.00665 0.996868
0.961351 0.979028 0.983467 0.998452
0.997585 1.01756 0.980663 0.999697
0.982561 0.99774 0.985518 0.999258
0.980618 0.977214 1.00659 0.996909
0.977016 0.993381 0.984363 0.999149
1.00005 1.02015 0.980583 0.999704
0.977874 0.991709 0.986648 0.999392
0.980142 0.978547 1.00462 0.997025
0.975344 0.99186 0.984284 0.999049
0.999419 1.01731 0.982674 0.999733
0.999567 1 1 0.999567
0.999584 1 1 0.999584
0.999631 1 1 0.999631
0.999648 1 1 0.999648
0.999686 1 1 0.999686
0.999763 1 1 0.999763
0.997347 1.00883 0.989329 0.999283
1.01731 1 1.01794 0.999384
0.999537 1 1 0.999537
1.00168 1 1.00231 0.999367
0.999451 1 1 0.999451
0.999531 1 1 0.999531
0.999473 1 1 0.999473
1.00288 1.0039 0.99942 0.999563
0.999448 1 1 0.999448
1.01353 0.9999 1.01412 0.999518
0.999495 1 1 0.999495
1.01908 0.998074 1.0213 0.999754
0.999743 0.999672 1.00044 0.999635
0.999444 1 1 0.999444
1.00681 1.00769 0.99914 0.999989
1.01521 1.01602 0.999231 0.999972
1.01767 1.01813 0.99965 0.999897
1.00037 1 1.00071 0.999661
1.00326 0.99516 1.00815 0.999986
1.01987 1.02172 0.998226 0.999963
0.987123 0.986204 1.00259 0.998345
0.977201 0.993558 0.984341 0.999182
1.02299 1.02508 0.998015 0.999939
0.998303 1.01633 0.982563 0.999699
1.00563 0.998977 1.00687 0.999789
1.01005 1.01152 0.998567 0.999982
1.0266 1.02818 0.998548 0.999912
1.00618 0.99185 1.01502 0.999436
0.97893 1.00035 0.978988 0.999595
0.975905 0.991791 0.984809 0.999161
0.978212 0.978745 1.0023 0.997158
1.02562 1 1.02574 0.999889
1.01862 1.0193 0.999369 0.99996
1.01477 1.01821 0.996799 0.99982
0.940838 0.966284 0.97416 0.999493
0.964818 0.980731 0.984578 0.999184
0.988804 0.98351 1.00834 0.997066
0.985398 0.990501 0.995647 0.999198
1.00123 1 1.00167 0.99956
1.01335 1 1.01377 0.999587
1.01951 1 1.01998 0.999541
0.999506 1 1 0.999506
1.00008 1 1.00055 0.999523
1.0023 1 1.00281 0.999494
1.01006 1 1.01067 0.99939
0.999824 1 1.00032 0.999505
1.00153 1 1.00212 0.999407
1.00435 1 1.00506 0.999292
0.99947 1 1 0.99947
1.00024 1 1.00088 0.999362
1.00052 1 1.00122 0.999304
0.999373 1 1 0.999373
0.999541 1 1 0.999541
0.999434 1 1.00001 0.999425
0.999431 1 1 0.999431
0.999637 1 1 0.999637
0.999604 1 1 0.999604
0.999672 1 1 0.999672
0.999628 1 1 0.999628
0.99957 1 1 0.99957
0.999784 1 1 0.999784
0.999689 1 1 0.999689
0.999626 1 1 0.999626
0.999959 1 1 0.999959
0.999794 1 1 0.999794
0.999676 1 1 0.999676
0.999808 1 1 0.999808
0.999969 1 1 0.999969
1 1 1 1
0.999975 1 1 0.999975
1 1 1 1
1 1 1 1
1 1 1 1
1 1 1 1
1 1 1 1
0.999822 1 1 0.999822
0.999978 1 1 0.999978
0.999832 1 1 0.999832
1 1 1 1
0.999977 1 1 0.999977
0.999865 1 1 0.999865
1 1 1 1
1 1 1 1
0.999977 1 1 0.999977
1 1 1 1
1 1 1 1
1 1 1 1
1.0116 1.01309 0.998554 0.999979
1.0189 1.01989 0.999062 0.999962
1.01863 1.01958 0.999175 0.999887
0.999687 1 1 0.999687
0.999641 1 1 0.999641
0.999726 1 1 0.999726
0.999694 1 1 0.999694
0.99964 1 1 0.99964
0.999632 1 1 0.999632
0.999591 1 1 0.999591
1.02013 1.02251 0.997775 0.999894
1.02247 1.02519 0.997419 0.999925
1.0262 1.02857 0.997777 0.999915
1.00289 1.02288 0.980698 0.999752
0.985986 1.0026 0.984816 0.998595
0.98227 0.977764 1.00706 0.997569
0.974515 0.990046 0.985844 0.998446
0.981539 0.992086 0.990361 0.998998
0.983423 0.981699 1.00481 0.996959
0.974592 0.992338 0.983648 0.998444
0.995407 1.01453 0.981471 0.99967
0.982097 0.985904 0.996532 0.999605
0.974481 0.982481 0.994943 0.996899
0.984379 0.999095 0.9861 0.999159
0.985091 1.00425 0.981252 0.999666
0.999547 1 1 0.999547
0.999565 1 1 0.999565
0.999584 1 1 0.999584
0.999647 1 1 0.999647
1.00057 1.00489 0.996145 0.999554
1.01422 0.999719 1.01497 0.99954
0.999529 1 1 0.999529
0.999469 1 1 0.999469
0.999459 1 1 0.999459
0.999499 1 1 0.999499
0.999437 1 1 0.999437
1.01003 0.996078 1.01424 0.99977
0.999908 0.999801 1.00044 0.99967
0.999448 1 1 0.999448
1.02198 0.991868 1.03044 0.999923
1.0034 1 1.00395 0.999457
1.01725 1.01764 0.999645 0.999967
1.00489 1.00557 0.999332 0.999992
1.01352 1.0143 0.99925 0.999976
1.00466 0.999747 1.00511 0.999805
1.00683 0.991438 1.01541 1.00011
1.0087 1.00988 0.99885 0.999985
0.976384 0.97726 1.00209 0.997022
0.973223 0.988391 0.986169 0.998464
1.02738 1.02889 0.998619 0.999912
0.977472 0.997511 0.980342 0.999561
1.02779 0.999195 1.02875 0.999873
1.01883 1.01967 0.999215 0.999961
1.01593 1.01859 0.997571 0.999821
0.990208 0.993169 0.996984 1.00004
0.937939 0.966755 0.970697 0.999481
0.962931 0.979828 0.983881 0.998856
0.990055 0.982912 1.01 0.99729
1.01472 0.999557 1.01534 0.999835
1.01898 1.01907 1.00004 0.99988
0.964028 0.974944 0.989134 0.999665
0.935077 0.954001 0.981077 0.999069
0.981353 0.977197 1.00737 0.996907
0.986596 0.994763 0.992891 0.998891
1.01471 1 1.01513 0.999591
1.02019 1 1.02066 0.999538
1.01768 1 1.01824 0.999452
1.0018 1 1.0023 0.999499
1.01052 1 1.01112 0.999405
1.0077 1 1.00843 0.999274
1.00199 1 1.0026 0.99939
1.00433 1 1.00505 0.999278
1.00275 1 1.00354 0.999217
1.0007 1 1.00134 0.999359
1.00063 1 1.00134 0.999289
1.00044 1 1.00116 0.99928
0.999366 1 1 0.999366
0.999467 1 1 0.999467
0.999389 1 1.00003 0.999361
0.99961 1 1 0.99961
0.999549 1 1 0.999549
0.999458 1 1.00005 0.999413
0.999662 1 1 0.999662
0.999633 1 1 0.999633
0.999616 1 1 0.999616
0.999766 1 1 0.999766
0.999677 1 1 0.999677
0.999636 1 1 0.999636
0.999945 1 1 0.999945
0.999784 1 1 0.999784
0.999689 1 1 0.999689
1 1 1 1
0.999958 1 1 0.999958
0.999795 1 1 0.999795
0.999967 1 1 0.999967
1 1 1 1
1 1 1 1
1 1 1 1
1 1 1 1
1 1 1 1
0.999688 1 1 0.999688
0.999802 1 1 0.999802
0.99997 1 1 0.99997
0.999821 1 1 0.999821
1 1 1 1
0.99998 1 1 0.99998
0.99984 1 1 0.99984
1 1 1 1
1 1 1 1
0.999989 1 1 0.999989
1 1 1 1
1 1 1 1
1 1 1 1
1.01872 1.01943 0.999336 0.999962
1.01035 1.01147 0.998914 0.999982
1.0192 1.02028 0.998978 0.999962
0.999691 1 1 0.999691
0.999635 1 1 0.999635
0.999626 1 1 0.999626
0.999629 1 1 0.999629
0.999608 1 1 0.999608
0.999692 1 1 0.999692
0.99963 1 1 0.99963
0.999633 1 1 0.999633
0.99959 1 1 0.99959
0.999588 1 1 0.999588
1.01465 1.01567 0.999178 0.999818
1.02141 1.02408 0.997493 0.999895
1.02182 1.02448 0.997465 0.99994
0.995068 1.01326 0.982364 0.999673
0.979906 0.995455 0.985233 0.999134
0.983612 0.991221 0.993652 0.998662
0.977868 0.981682 0.999066 0.997046
0.985791 0.985673 1.00125 0.998873
0.977666 0.980574 1.00004 0.996996
0.978814 0.994412 0.98547 0.998827
0.979709 1.00226 0.97785 0.999645
1.00436 0.98413 1.02158 0.999003
0.979466 0.983001 0.999309 0.997094
0.956485 0.977713 0.979792 0.998465
0.947961 0.976217 0.971544 0.999497
0.999605 1 1 0.999605
0.999549 1 1 0.999549
0.999564 1 1 0.999564
1.0021 0.994525 1.00784 0.999785
1.00011 1 1.00041 0.999705
0.999502 1 1 0.999502
0.999431 1 1 0.999431
0.999488 1 1.00003 0.999455
1.00389 1 1.00444 0.999454
1.02239 0.993877 1.02877 0.999923
1.00383 1 1.00435 0.999474
1.0126 0.998861 1.01406 0.999701
1.01895 1.01907 1 0.999886
1.01546 1.01588 0.999617 0.999971
1.00292 1.00348 0.999452 0.999995
1.02989 0.998608 1.03148 0.999855
0.989801 0.992268 0.998408 0.999104
1.01907 1.02003 0.999098 0.999961
0.981965 0.981334 1.00435 0.996306
0.960984 0.977296 0.984813 0.998472
1.01773 1.01898 0.998948 0.999822
0.935871 0.967651 0.967672 0.999468
1.01481 0.99978 1.0152 0.999838
1.01915 1.01938 0.999899 0.999881
0.960127 0.971712 0.988432 0.999643
0.983031 0.992975 0.990674 0.999306
0.937847 0.957791 0.98069 0.998458
0.983678 0.978771 1.00854 0.996502
0.997747 0.999616 0.998446 0.999684
0.978166 0.98055 0.997839 0.999729
0.930955 0.948739 0.982804 0.998424
0.975754 0.973563 1.00543 0.996839
0.997287 0.999422 0.998574 0.999289
1.02043 1 1.02091 0.999536
1.01974 1 1.0203 0.99945
1.00446 1 1.00511 0.999343
1.01078 1 1.01137 0.999419
1.00728 1 1.008 0.999283
1.00165 1 1.00242 0.999236
1.00407 1 1.00481 0.999263
1.0022 1 1.00298 0.99922
0.999305 1 1 0.999305
1.00063 1 1.00136 0.999274
1.00005 1 1.00077 0.999286
0.999383 1 1 0.999383
0.999439 1 1 0.999439
0.999427 1 1 0.999427
0.999371 1 1 0.999371
0.99955 1 1 0.99955
0.999451 1 1 0.999451
0.999371 1 1.00002 0.999349
0.999666 1 1 0.999666
0.999619 1 1 0.999619
0.999558 1 1 0.999558
0.999744 1 1 0.999744
0.999663 1 1 0.999663
0.999629 1 1 0.999629
0.999925 1 1 0.999925
0.999766 1 1 0.999766
0.999682 1 1 0.999682
1 1 1 1
0.999945 1 1 0.999945
0.999785 1 1 0.999785
1 1 1 1
1 1 1 1
0.999957 1 1 0.999957
1 1 1 1
1 1 1 1
1 1 1 1
0.999671 1 1 0.999671
0.999784 1 1 0.999784
0.999684 1 1 0.999684
0.999963 1 1 0.999963
0.999802 1 1 0.999802
1 1 1 1
0.999972 1 1 0.999972
0.999821 1 1 0.999821
1 1 1 1
1 1 1 1
0.999983 1 1 0.999983
1 1 1 1
1 1 1 1
1 1 1 1
1.01838 1.01849 1 0.999896
1.01966 1.0204 0.999312 0.999962
1.00911 1.00991 0.999228 0.999985
0.999636 1 1 0.999636
0.999694 1 1 0.999694
0.99963 1 1 0.99963
0.999635 1 1 0.999635
0.999632 1 1 0.999632
0.999608 1 1 0.999608
0.999595 1 1 0.999595
0.999592 1 1 0.999592
0.999633 1 1 0.999633
0.999589 1 1 0.999589
0.999588 1 1 0.999588
0.999577 1 1 0.999577
0.961169 0.975493 0.985749 0.999562
1.01376 1.01489 0.99907 0.999819
1.02301 1.02589 0.997295 0.999896
0.974203 0.997657 0.9769 0.999582
0.978282 0.995394 0.98427 0.998516
0.973594 0.981803 0.994715 0.996908
0.988456 0.982137 1.00676 0.999681
1.00384 0.983361 1.02105 0.999778
0.943107 0.971988 0.970785 0.999487
0.982539 0.983054 1.00285 0.996636
0.959277 0.977845 0.981834 0.999163
0.999024 0.992435 1.0069 0.999741
0.980094 0.977656 1.00535 0.997163
0.93525 0.954049 0.981171 0.999108
1.00011 1 1.00041 0.9997
0.999606 1 1 0.999606
0.999551 1 1 0.999551
1.02267 0.995826 1.02704 0.999923
1.00451 1 1.00506 0.999452
0.999512 1 1.00005 0.999461
1.00412 1 1.00465 0.999475
1.01164 0.999435 1.01251 0.999708
1.00908 1 1.00939 0.9997
0.977692 0.981297 0.99672 0.999605
1.01822 1.01833 0.999986 0.999901
1.01376 1.01412 0.999672 0.999976
1.01488 0.999941 1.01509 0.999843
0.984078 0.994868 0.989552 0.999598
1.01924 1.0197 0.999666 0.999882
0.987264 0.980171 1.00967 0.997587
0.941315 0.960342 0.981055 0.999116
0.956108 0.97224 0.98384 0.99956
0.997077 1.00048 0.996907 0.999693
0.97271 0.97909 0.993859 0.999623
0.937848 0.94961 0.988495 0.999109
0.997407 0.998919 0.999872 0.998615
0.977532 0.975791 1.00491 0.996887
0.995883 1.00817 0.988336 0.999468
0.940563 0.952726 0.988116 0.999108
0.973755 0.973214 1.00352 0.997042
0.997778 1.0046 0.994652 0.998545
1.02251 1 1.02307 0.999448
1.00296 1 1.00361 0.999352
0.99788 1 0.998524 0.999355
1.00709 1 1.0078 0.999292
1.00161 1 1.00238 0.999238
0.999412 1 1 0.999412
1.0018 1 1.00258 0.999223
0.999528 1 1.00021 0.999314
0.999505 1 1 0.999505
0.999723 1 1.00043 0.999293
0.999387 1 1 0.999387
0.999534 1 1 0.999534
0.999549 1 1 0.999549
0.999459 1 1 0.999459
0.99945 1 1 0.99945
0.999502 1 1 0.999502
0.999437 1 1 0.999437
0.999375 1 1 0.999375
0.999639 1 1 0.999639
0.999549 1 1 0.999549
0.999436 1 1 0.999436
0.999734 1 1 0.999734
0.999665 1 1 0.999665
0.999629 1 1 0.999629
0.9999 1 1 0.9999
0.999745 1 1 0.999745
0.999663 1 1 0.999663
1 1 1 1
0.999924 1 1 0.999924
0.999766 1 1 0.999766
1 1 1 1
1 1 1 1
0.999944 1 1 0.999944
1 1 1 1
1 1 1 1
1 1 1 1
0.99968 1 1 0.99968
0.999674 1 1 0.999674
0.999767 1 1 0.999767
0.999952 1 1 0.999952
0.999784 1 1 0.999784
0.999679 1 1 0.999679
1 1 1 1
0.999964 1 1 0.999964
0.999802 1 1 0.999802
1 1 1 1
1 1 1 1
0.999974 1 1 0.999974
1 1 1 1
1 1 1 1
1 1 1 1
0.976856 0.97954 0.99755 0.999709
1.01866 1.01876 1 0.999896
1.02058 1.02133 0.999304 0.999962
0.999631 1 1 0.999631
0.999647 1 1 0.999647
0.999609 1 1 0.999609
0.999642 1 1 0.999642
0.999637 1 1 0.999637
0.999608 1 1 0.999608
0.999594 1 1 0.999594
0.999597 1 1 0.999597
0.999568 1 1 0.999568
0.999585 1 1 0.999585
0.999588 1 1 0.999588
0.999578 1 1 0.999578
0.93772 0.950681 0.987217 0.999139
0.960982 0.973749 0.987298 0.999587
1.01313 1.01426 0.99907 0.999819
0.938351 0.968261 0.969617 0.999476
0.955887 0.975142 0.981751 0.998475
0.989262 0.987741 1.00379 0.997761
1.0103 0.983742 1.02806 0.998971
0.998941 0.992205 1.00783 0.99897
0.937837 0.956127 0.982331 0.998513
0.984243 0.981406 1.00547 0.997439
0.997113 0.992407 1.00577 0.998977
0.977592 0.97612 1.00441 0.997108
1.00775 1 1.00819 0.999569
0.999964 1 1.00027 0.999698
0.999607 1 1 0.999607
1.01042 0.999811 1.0109 0.999715
1.00442 1 1.00494 0.999477
1.00886 1 1.00918 0.999686
1.00163 1.00062 1.00146 0.999553
0.943349 0.957498 0.986242 0.998966
0.978508 0.981098 0.997687 0.999672
1.01737 1.01754 0.999918 0.999917
0.995659 1.00101 0.99495 0.999703
0.998191 0.997513 1.00137 0.999314
0.974743 0.979913 0.9951 0.999623
0.977711 0.974372 1.00657 0.996877
0.934245 0.949774 0.985175 0.998452
0.996701 1.00739 0.989906 0.999478
0.942887 0.953942 0.989651 0.998747
0.974239 0.972148 1.00522 0.996945
0.998011 1.00284 0.995965 0.999218
1.00673 1.01242 0.995084 0.999291
0.96404 0.967187 1.00026 0.996489
0.996604 1.00177 0.995417 0.999421
1.00156 1 1.0022 0.99936
0.998644 1 0.999299 0.999344
0.998038 1.00036 0.99824 0.999439
1.0015 1 1.00226 0.999241
0.999318 1 0.999906 0.99941
0.999534 1.00047 0.999403 0.999662
0.999696 1 1.00037 0.999324
0.999507 1 1 0.999507
0.999669 1 1 0.999669
0.999392 1 1 0.999392
0.999535 1 1 0.999535
0.999631 1 1 0.999631
0.999606 1 1 0.999606
0.999561 1 1 0.999561
0.999538 1 1 0.999538
0.999503 1 1 0.999503
0.999461 1 1 0.999461
0.999461 1 1 0.999461
0.999579 1 1 0.999579
0.999513 1 1 0.999513
0.999447 1 1 0.999447
0.999717 1 1 0.999717
0.999637 1 1 0.999637
0.999549 1 1 0.999549
0.999877 1 1 0.999877
0.999735 1 1 0.999735
0.999664 1 1 0.999664
1 1 1 1
0.999899 1 1 0.999899
0.999746 1 1 0.999746
1 1 1 1
1 1 1 1
0.999924 1 1 0.999924
1 1 1 1
1 1 1 1
1 1 1 1
0.999679 1 1 0.999679
0.999672 1 1 0.999672
0.999753 1 1 0.999753
0.999676 1 1 0.999676
0.999766 1 1 0.999766
0.999935 1 1 0.999935
1 1 1 1
0.999953 1 1 0.999953
0.999784 1 1 0.999784
1 1 1 1
1 1 1 1
0.999966 1 1 0.999966
1 1 1 1
1 1 1 1
1 1 1 1
0.947708 0.955209 0.993565 0.998573
0.974763 0.979281 0.995731 0.999654
1.01894 1.01905 1 0.999897
0.999627 1 1 0.999627
0.999607 1 1 0.999607
0.999651 1 1 0.999651
0.999651 1 1 0.999651
0.999615 1 1 0.999615
0.999596 1 1 0.999596
0.999598 1 1 0.999598
0.99957 1 1 0.99957
0.999598 1 1 0.999598
0.99956 1 1 0.99956
0.999747 1 1.00026 0.99949
0.99958 1 1 0.99958
0.999579 1 1 0.999579
0.974024 0.97684 1.00061 0.996512
0.942342 0.953167 0.989782 0.99885
0.961584 0.974431 0.987266 0.999545
0.939683 0.957014 0.982716 0.999159
0.980363 0.977505 1.00658 0.996364
1.00214 0.993041 1.00941 0.999756
0.998381 0.994074 1.00496 0.999376
0.978382 0.977421 1.00379 0.997199
0.992326 0.999073 0.994196 0.999045
1.00621 1.00129 1.0057 0.999214
1.00622 1 1.00666 0.999559
0.999695 1 1 0.999695
1.00771 1 1.00804 0.999675
1.00065 1.00087 1.00017 0.999609
0.958323 0.965271 0.995677 0.997113
0.945887 0.956687 0.990196 0.9985
0.979628 0.980953 0.998909 0.99974
0.997185 1.00691 0.990853 0.999488
1.00298 1.00738 0.997083 0.998551
0.946116 0.953931 0.993304 0.998494
0.974994 0.971796 1.00628 0.997025
1.00173 1.01107 0.99147 0.999286
0.966953 0.968883 1.00086 0.997149
0.996414 1.0042 0.993505 0.998735
0.995959 1.01001 0.986881 0.999201
0.997878 0.993842 1.00446 0.999599
0.998349 1 0.999015 0.999333
0.997266 1.00034 0.997497 0.99943
0.998577 1.00263 0.996407 0.999547
0.999146 1 0.999738 0.999409
0.999029 1.00023 0.999144 0.999659
0.999363 1.00056 0.99908 0.999722
0.999509 1 1 0.999509
0.999654 1 0.999994 0.999661
0.999665 1 0.999987 0.999678
0.999535 1 1 0.999535
0.999625 1 1 0.999625
0.999621 1 1 0.999621
0.999619 1 1 0.999619
0.999573 1 1 0.999573
0.999573 1 1 0.999573
0.999535 1 1 0.999535
0.99953 1 1 0.99953
0.999549 1 1 0.999549
0.9995 1 1 0.9995
0.999463 1 1 0.999463
0.999682 1 1 0.999682
0.999587 1 1 0.999587
0.999525 1 1 0.999525
0.999857 1 1 0.999857
0.999716 1 1 0.999716
0.999636 1 1 0.999636
1 1 1 1
0.999877 1 1 0.999877
0.999735 1 1 0.999735
1 1 1 1
1 1 1 1
0.999899 1 1 0.999899
1 1 1 1
1 1 1 1
1 1 1 1
0.999667 1 1 0.999667
0.99968 1 1 0.99968
0.999732 1 1 0.999732
0.999665 1 1 0.999665
0.999746 1 1 0.999746
0.999912 1 1 0.999912
0.999766 1 1 0.999766
0.999935 1 1 0.999935
1 1 1 1
1 1 1 1
1 1 1 1
0.999954 1 1 0.999954
1 1 1 1
1 1 1 1
1 1 1 1
0.968116 0.970669 1.00019 0.997178
0.944471 0.957485 0.987344 0.999053
0.977671 0.980494 0.997423 0.999697
0.999605 1 1 0.999605
0.999655 1 1 0.999655
0.999617 1 1 0.999617
0.999651 1 1 0.999651
0.999634 1 1 0.999634
0.999631 1 1 0.999631
0.999573 1 1 0.999573
0.999591 1 1 0.999591
0.99956 1 1 0.99956
0.99958 1 1 0.99958
0.999513 1 1 0.999513
0.999355 1 1.00011 0.999241
0.999552 1 1.00006 0.999494
0.999576 1 1 0.999576
0.990742 0.994079 0.997302 0.99934
0.971786 0.973864 1.00078 0.997085
0.937341 0.9524 0.98569 0.998478
0.976076 0.975233 1.00383 0.997041
0.995643 0.993162 1.00273 0.999772
0.993001 0.997044 0.996317 0.999628
0.997099 1.0045 0.993324 0.999302
1.00323 1.00059 1.00337 0.999268
1.00517 1 1.00563 0.999549
0.998559 1.00097 0.997932 0.999663
0.987676 0.986386 1.00245 0.998864
0.964181 0.966874 0.999969 0.997245
0.944353 0.956939 0.987743 0.999094
0.99858 1.00948 0.989913 0.999282
1.00194 1.00773 0.994921 0.999331
0.967615 0.96849 1.00127 0.997832
0.994442 1.00775 0.987565 0.999215
0.99425 0.994601 1.00031 0.999333
0.991995 1.00651 0.986215 0.999351
1.00361 1.00181 1.00249 0.999307
0.997101 1.00022 0.997457 0.999421
0.998116 1.00233 0.996247 0.999548
0.999075 1.00221 0.997308 0.999558
0.998694 1 0.999038 0.999656
0.999364 1.00043 0.999214 0.999716
0.999567 1.00018 0.999799 0.999592
0.999653 1 1 0.999653
0.999671 1 1 0.999671
0.999564 1 1 0.999564
0.999619 1 1 0.999619
0.999624 1 1 0.999624
0.999549 1 1 0.999549
0.999632 1 1 0.999632
0.99958 1 1 0.99958
0.999538 1 1 0.999538
0.999533 1 1 0.999533
0.999527 1 1 0.999527
0.999555 1 1 0.999555
0.999633 1 1 0.999633
0.999556 1 1 0.999556
0.999498 1 1 0.999498
0.999828 1 1 0.999828
0.999681 1 1 0.999681
0.999594 1 1 0.999594
0.999999 1 1 0.999999
0.999857 1 1 0.999857
0.999716 1 1 0.999716
1 1 1 1
1 1 1 1
0.999877 1 1 0.999877
1 1 1 1
1 1 1 1
1 1 1 1
0.999654 1 1 0.999654
0.999672 1 1 0.999672
0.999722 1 1 0.999722
0.99968 1 1 0.99968
0.999731 1 1 0.999731
0.999889 1 1 0.999889
0.999739 1 1 0.999739
0.999912 1 1 0.999912
1 1 1 1
0.999936 1 1 0.999936
1 1 1 1
1 1 1 1
1 1 1 1
1 1 1 1
1 1 1 1
0.984151 0.986272 0.998582 0.999267
0.962691 0.967849 0.997526 0.997139
0.941529 0.956217 0.986134 0.998484
0.999598 1 1 0.999598
0.99962 1 1 0.99962
0.999651 1 1 0.999651
0.99963 1 1 0.99963
0.999632 1 1 0.999632
0.999659 1 1 0.999659
0.999583 1 1 0.999583
0.999559 1 1 0.999559
0.99959 1 1 0.99959
0.999537 1 1 0.999537
0.999364 1 1 0.999364
1.00061 1.00156 1 0.999051
0.999374 1 1.00013 0.999246
0.999499 1 1 0.999499
0.997875 1.00248 0.996052 0.99935
0.991385 0.995444 0.996885 0.999035
0.973442 0.974818 1.00089 0.997703
0.995961 0.998558 0.998425 0.998973
1.00111 1.00522 0.996689 0.999223
1.00164 1.00001 1.00231 0.999323
0.999607 1 1.00002 0.999587
0.988707 0.985341 1.00397 0.999444
0.961376 0.966694 0.997345 0.997146
0.992002 1.0055 0.987336 0.999227
0.991237 0.9949 0.99728 0.999036
0.994082 1.00621 0.988604 0.999331
1.00218 1.00144 1.00136 0.999383
1.00301 1.00421 0.999492 0.999317
0.99981 1.00054 1 0.999268
0.997612 1.00212 0.995951 0.999549
0.999982 1.00229 0.998138 0.999562
0.99962 1.00018 1 0.999442
0.999373 1.00028 0.999384 0.999709
0.99974 1.00019 0.999957 0.99959
0.999454 1 1 0.999454
0.999664 1 1 0.999664
0.999578 1 1 0.999578
0.999467 1 1 0.999467
0.999627 1 1 0.999627
0.999549 1 1 0.999549
0.999503 1 1 0.999503
0.999587 1 1 0.999587
0.99954 1 1 0.99954
0.999537 1 1 0.999537
0.999525 1 1 0.999525
0.999549 1 1 0.999549
0.999614 1 1 0.999614
0.999793 1 1 0.999793
0.999641 1 1 0.999641
0.999564 1 1 0.999564
0.999993 1 1 0.999993
0.999828 1 1 0.999828
0.999681 1 1 0.999681
1 1 1 1
0.999997 1 1 0.999997
0.999856 1 1 0.999856
1 1 1 1
1 1 1 1
1 1 1 1
0.999622 1 1 0.999622
0.999655 1 1 0.999655
0.999713 1 1 0.999713
0.999677 1 1 0.999677
0.999726 1 1 0.999726
0.999868 1 1 0.999868
0.999729 1 1 0.999729
0.999888 1 1 0.999888
1 1 1 1
0.999912 1 1 0.999912
1 1 1 1
1 1 1 1
1 1 1 1
1 1 1 1
1 1 1 1
0.998837 1.00212 0.997129 0.999591
0.984074 0.987573 0.997763 0.998691
0.965065 0.968098 0.999659 0.997207
0.999617 1 1 0.999617
0.999517 1 1 0.999517
0.999604 1 1 0.999604
0.999629 1 1 0.999629
0.999629 1 1 0.999629
0.99965 1 1 0.99965
0.999428 1 1 0.999428
0.9996 1 1 0.9996
0.999561 1 1 0.999561
0.999372 1 1 0.999372
0.999204 1.00006 1 0.999144
1.00116 1.00239 0.999519 0.999256
1.00035 1.00129 1 0.999063
0.999251 1 1 0.999251
0.999724 1.0041 0.996263 0.999373
0.989805 0.994916 0.996179 0.998678
1.00349 1.00567 0.998694 0.999145
0.999592 1 1 0.999592
1.00077 1 1.00116 0.999608
0.986839 0.98512 1.00298 0.998769
0.996627 1.00623 0.991139 0.99931
1.00085 1.00112 1.00027 0.999461
1.00314 1.00463 0.999187 0.99933
1.00008 1.00078 1 0.999302
0.999824 1.00048 1 0.99934
0.999523 1.00004 1 0.999482
1.00085 1.00234 0.998947 0.999566
0.999687 1.00024 1 0.999448
0.999353 1 1 0.999353
0.999814 1.00023 1 0.999587
0.999461 1 1 0.999461
0.999387 1 1 0.999387
0.999591 1 1 0.999591
0.999467 1 1 0.999467
0.999432 1 1 0.999432
0.99955 1 1 0.99955
0.999503 1 1 0.999503
0.999502 1 1 0.999502
0.999543 1 1 0.999543
0.999537 1 1 0.999537
0.999592 1 1 0.999592
0.999544 1 1 0.999544
0.999612 1 1 0.999612
0.999762 1 1 0.999762
0.999981 1 1 0.999981
0.999793 1 1 0.999793
0.999649 1 1 0.999649
1 1 1 1
0.999989 1 1 0.999989
0.999827 1 1 0.999827
1 1 1 1
0.999996 1 1 0.999996
1 1 1 1
0.999556 1 1 0.999556
0.999614 1 1 0.999614
0.999686 1 1 0.999686
0.999656 1 1 0.999656
0.999713 1 1 0.999713
0.999848 1 1 0.999848
0.999729 1 1 0.999729
0.999868 1 1 0.999868
1 1 1 1
0.999888 1 1 0.999888
1 1 1 1
1 1 1 1
1 1 1 1
1 1 1 1
1 1 1 1
0.999366 1.00041 0.999427 0.999531
0.997932 1.00121 0.997131 0.999592
0.983769 0.986214 0.998278 0.999241
0.999477 1 1 0.999477
0.999653 1 1 0.999653
0.999404 1 1 0.999404
0.999511 1 1 0.999511
0.99961 1 1 0.99961
0.999235 1 1 0.999235
0.999641 1 1 0.999641
0.999425 1 1 0.999425
0.999319 1.00009 1 0.999227
0.999379 1 1 0.999379
0.999251 1.00012 1 0.999126
1.00103 1.00211 0.999671 0.99925
0.99985 1.00078 1 0.999075
1.00133 1.00531 0.996643 0.999396
0.999601 1 1 0.999601
0.999589 1 1 0.999588
1.00187 1 1.00224 0.999628
1.00324 1.00499 0.998911 0.999343
1.00039 1.00105 1 0.999335
0.999968 1.00064 1 0.999334
0.999726 1.00024 1 0.999481
0.99944 1 1 0.99944
0.999775 1.00032 1 0.999454
0.999358 1 1 0.999358
0.999351 1 1 0.999351
0.999469 1 1 0.999469
0.999383 1 1 0.999383
0.999369 1 1 0.999369
0.999466 1 1 0.999466
0.999431 1 1 0.999431
0.999443 1 1 0.999443
0.999503 1 1 0.999503
0.999501 1 1 0.999501
0.999552 1 1 0.999552
0.999538 1 1 0.999538
0.999592 1 1 0.999592
0.999732 1 1 0.999732
0.999609 1 1 0.999609
0.999762 1 1 0.999762
0.999969 1 1 0.999969
1 1 1 1
0.999977 1 1 0.999977
0.999793 1 1 0.999793
1 1 1 1
0.999986 1 1 0.999986
1 1 1 1
0.999426 1 1 0.999426
0.999498 1 1 0.999498
0.999547 1 1 0.999547
0.999653 1 1 0.999653
0.999607 1 1 0.999607
0.999687 1 1 0.999687
0.99983 1 1 0.99983
0.999713 1 1 0.999713
0.999848 1 1 0.999848
0.999997 1 1 0.999997
0.999867 1 1 0.999867
1 1 1 1
1 1 1 1
1 1 1 1
1 1 1 1
1 1 1 1
0.99948 1.00002 1 0.999459
1.00019 1.00107 0.999583 0.999537
0.997624 1.00094 0.997094 0.999592
0.999303 1 1 0.999303
0.999509 1 1 0.999509
0.999688 1 1 0.999688
0.999418 1 1 0.999418
0.999506 1 1 0.999506
0.999212 1.00001 1 0.999198
0.99924 1.00002 1 0.999219
0.999421 1 1 0.999421
0.999371 1.00015 1 0.999221
0.99934 1.00023 1 0.999108
1.00137 1.00234 0.99979 0.999244
0.999535 1 1 0.999535
0.999602 1.00001 1 0.999591
0.999584 1 1 0.999584
1.00009 1.00077 1 0.999327
0.999869 1.00039 1 0.99948
0.999511 1.00007 1 0.99944
0.999416 1 1 0.999416
0.999364 1 1 0.999364
0.999347 1 1 0.999347
0.999365 1 1 0.999365
0.999379 1 1 0.999379
0.999368 1 1 0.999368
0.999392 1 1 0.999392
0.999429 1 1 0.999429
0.999442 1 1 0.999442
0.999501 1 1 0.999501
0.999501 1 1 0.999501
0.999552 1 1 0.999552
0.999693 1 1 0.999693
0.999593 1 1 0.999593
0.999731 1 1 0.999731
0.999958 1 1 0.999958
0.999762 1 1 0.999762
0.999965 1 1 0.999965
1 1 1 1
1 1 1 1
0.999974 1 1 0.999974
1 1 1 1
0.999327 1 1 0.999327
0.999488 1 1 0.999488
0.999473 1 1 0.999473
0.999601 1 1 0.999601
0.999498 1 1 0.999498
0.999539 1 1 0.999539
0.999654 1 1 0.999654
0.999806 1 1 0.999806
0.999688 1 1 0.999688
0.999831 1 1 0.999831
0.99999 1 1 0.99999
0.999848 1 1 0.999848
0.999998 1 1 0.999998
1 1 1 1
1 1 1 1
1 1 1 1
1 1 1 1
0.999373 1 1 0.999373
0.999458 1 1 0.999458
1.00082 1.00148 0.999796 0.999542
0.999238 1 1 0.999238
0.999304 1 1 0.999304
0.999541 1 1 0.999541
0.999432 1 1 0.999432
0.999237 1.00004 1 0.999199
0.99928 1.00008 1 0.999203
0.999371 1.00016 1 0.999214
0.999463 1 1 0.999463
0.999514 1 1 0.999514
0.999581 1 1 0.999581
0.999402 1 1 0.999402
0.999606 1.00017 1 0.999439
0.999415 1 1 0.999415
0.999397 1 1 0.999397
0.999343 1 1 0.999343
0.999366 1 1 0.999366
0.999381 1 1 0.999381
0.999366 1 1 0.999366
0.999392 1 1 0.999392
0.999459 1 1 0.999459
0.999441 1 1 0.999441
0.999501 1 1 0.999501
0.999648 1 1 0.999648
0.999552 1 1 0.999552
0.999692 1 1 0.999692
0.999948 1 1 0.999948
0.999731 1 1 0.999731
0.999955 1 1 0.999955
1 1 1 1
0.999962 1 1 0.999962
1 1 1 1
1 1 1 1
0.999266 1 1 0.999266
0.999389 1 1 0.999389
0.999344 1 1 0.999344
0.999565 1 1 0.999565
0.999486 1 1 0.999486
0.999519 1 1 0.999519
0.999757 1 1 0.999757
0.999601 1 1 0.999601
0.999497 1 1 0.999497
0.999654 1 1 0.999654
0.999806 1 1 0.999806
0.999978 1 1 0.999978
0.999831 1 1 0.999831
0.999992 1 1 0.999992
1 1 1 1
0.999999 1 1 0.999999
1 1 1 1
1 1 1 1
0.999345 1 1 0.999345
0.999367 1.00001 1 0.999356
0.999467 1.00001 1 0.999457
0.999232 1 1 0.999231
0.999305 1 1 0.999305
0.999241 1.00004 1 0.999199
0.999399 1 1 0.999399
0.999465 1 1 0.999465
0.999501 1.00001 1 0.999492
0.9994 1 1 0.9994
0.999382 1 1 0.999382
0.999413 1 1 0.999413
0.999398 1 1 0.999398
0.9994 1 1 0.9994
0.999366 1 1 0.999366
0.999382 1 1 0.999382
0.999441 1 1 0.999441
0.999392 1 1 0.999392
0.999459 1 1 0.999459
0.999613 1 1 0.999613
0.9995 1 1 0.9995
0.999647 1 1 0.999647
0.999938 1 1 0.999938
0.999691 1 1 0.999691
0.999946 1 1 0.999946
1 1 1 1
0.999953 1 1 0.999953
1 1 1 1
1 1 1 1
0.999344 1 1 0.999344
0.999315 1 1 0.999315
0.999261 1 1 0.999261
0.999486 1 1 0.999486
0.999398 1 1 0.999398
0.999362 1 1 0.999362
0.999701 1 1 0.999701
0.999549 1 1 0.999549
0.999484 1 1 0.999484
0.99996 1 1 0.99996
0.999758 1 1 0.999758
0.999601 1 1 0.999601
0.999806 1 1 0.999806
0.999982 1 1 0.999982
1 1 1 1
0.999994 1 1 0.999994
1 1 1 1
1 1 1 1
0.999343 1 1 0.999343
0.99934 1 1 0.99934
0.999339 1 1 0.999339
0.999225 1 1 0.999225
0.99936 1 1 0.99936
0.999406 1 1 0.999404
0.999466 1 1 0.999466
0.999399 1 1 0.999399
0.999383 1 1 0.999383
0.9994 1 1 0.9994
0.999398 1 1 0.999398
0.999403 1 1 0.999403
0.999438 1 1 0.999438
0.999384 1 1 0.999384
0.999441 1 1 0.999441
0.999596 1 1 0.999596
0.999458 1 1 0.999458
0.999613 1 1 0.999613
0.999929 1 1 0.999929
0.999646 1 1 0.999646
0.999936 1 1 0.999936
1 1 1 1
0.999943 1 1 0.999943
1 1 1 1
1 1 1 1
0.99936 1 1 0.99936
0.999353 1 1 0.999353
0.999345 1 1 0.999345
0.999402 1 1 0.999402
0.999327 1 1 0.999327
0.999255 1 1 0.999255
0.99962 1 1 0.99962
0.999485 1 1 0.999485
0.999406 1 1 0.999406
0.99994 1 1 0.99994
0.999687 1 1 0.999687
0.999532 1 1 0.999532
1 1 1 1
0.999966 1 1 0.999966
0.999759 1 1 0.999759
0.999985 1 1 0.999985
1 1 1 1
1 1 1 1
0.999354 1 1 0.999354
0.999352 1 1 0.999352
0.999335 1 1 0.999335
0.999363 1 1 0.999363
0.999357 1 1 0.999357
0.99941 1 1 0.999409
0.999383 1 1 0.999383
0.9994 1 1 0.9994
0.999454 1 1 0.999454
0.999405 1 1 0.999405
0.99945 1 1 0.99945
0.999567 1 1 0.999567
0.999442 1 1 0.999442
0.999596 1 1 0.999596
0.999921 1 1 0.999921
0.999612 1 1 0.999612
0.999928 1 1 0.999928
1 1 1 1
0.999933 1 1 0.999933
1 1 1 1
1 1 1 1
0.999368 1 1 0.999368
0.999384 1 1 0.999384
0.99936 1 1 0.99936
0.999418 1 1 0.999418
0.999357 1 1 0.999357
0.999346 1 1 0.999346
0.999568 1 1 0.999568
0.99942 1 1 0.99942
0.999338 1 1 0.999338
0.999925 1 1 0.999925
0.999613 1 1 0.999613
0.999484 1 1 0.999484
1 1 1 1
0.999946 1 1 0.999946
0.999673 1 1 0.999673
1 1 1 1
0.999972 1 1 0.999972
1 1 1 1
0.999368 1 1 0.999368
0.999355 1 1 0.999355
0.999364 1 1 0.99936
0.99942 1 1 0.99942
0.999365 1 1 0.999365
0.999354 1 1 0.999354
0.999401 1 1 0.999401
0.999455 1 1 0.999455
0.999554 1 1 0.999554
0.999462 1 1 0.999462
0.999578 1 1 0.999578
0.999908 1 1 0.999908
0.999596 1 1 0.999596
0.99992 1 1 0.99992
1 1 1 1
0.999926 1 1 0.999926
1 1 1 1
1 1 1 1
0.999392 1 1 0.999392
0.999365 1 1 0.999365
0.99943 1 1 0.99943
0.999384 1 1 0.999384
0.999361 1 1 0.999361
0.999573 1 1 0.999573
0.999416 1 1 0.999416
0.999362 1 1 0.999362
0.999916 1 1 0.999916
0.999576 1 1 0.999576
0.999437 1 1 0.999437
1 1 1 1
0.999929 1 1 0.999929
0.999606 1 1 0.999606
1 1 1 1
0.999952 1 1 0.999952
1 1 1 1
0.999427 1 1 0.999427
0.99937 1 1 0.99937
0.999356 1 1 0.999356
0.999532 1 1 0.999532
0.99942 1 1 0.99942
0.999366 1 1 0.999366
0.999455 1 1 0.999455
0.999557 1 1 0.999557
0.999891 1 1 0.999891
0.999588 1 1 0.999588
0.999907 1 1 0.999907
1 1 1 1
0.999918 1 1 0.999918
1 1 1 1
1 1 1 1
0.999429 1 1 0.999429
0.999387 1 1 0.999387
0.999362 1 1 0.999362
0.999572 1 1 0.999572
0.999429 1 1 0.999429
0.999385 1 1 0.999385
0.99991 1 1 0.99991
0.999572 1 1 0.999572
0.999415 1 1 0.999415
1 1 1 1
0.999918 1 1 0.999918
0.999585 1 1 0.999585
1 1 1 1
0.999932 1 1 0.999932
1 1 1 1
0.999553 1 1 0.999553
0.999415 1 1 0.999415
0.999372 1 1 0.999372
0.999879 1 1 0.999879
0.999534 1 1 0.999534
0.99942 1 1 0.99942
0.999559 1 1 0.999559
0.99989 1 1 0.99989
1 1 1 1
0.999905 1 1 0.999905
1 1 1 1
1 1 1 1
0.999565 1 1 0.999565
0.999425 1 1 0.999425
0.999383 1 1 0.999383
0.999907 1 1 0.999907
0.999571 1 1 0.999571
0.999429 1 1 0.999429
1 1 1 1
0.99991 1 1 0.99991
0.999572 1 1 0.999572
1 1 1 1
0.99992 1 1 0.99992
1 1 1 1
0.999876 1 1 0.999876
0.999544 1 1 0.999544
0.999404 1 1 0.999404
1 1 1 1
0.999878 1 1 0.999878
0.999536 1 1 0.999536
0.999888 1 1 0.999888
1 1 1 1
1 1 1 1
0.999894 1 1 0.999894
0.999565 1 1 0.999565
0.999421 1 1 0.999421
1 1 1 1
0.999903 1 1 0.999903
0.999571 1 1 0.999571
1 1 1 1
0.99991 1 1 0.99991
1 1 1 1
0.999984 1 1 0.999984
0.999883 1 1 0.999883
0.999534 1 1 0.999534
1 1 1 1
0.999878 1 1 0.999878
1 1 1 1
0.999989 1 1 0.999989
0.999894 1 1 0.999894
0.999565 1 1 0.999565
0.999996 1 1 0.999996
0.999903 1 1 0.999903
1 1 1 1
1 1 1 1
0.999879 1 1 0.999879
1 1 1 1
0.999993 1 1 0.999993
0.999891 1 1 0.999891
1 1 1 1
1 1 1 1
1 1 1 1

VECTORS lamdaE float
0.998941 0.999975 0.996963
0.999156 0.998986 0.998811
0.998879 1.00005 0.997009
0.99915 1.0001 0.996615
0.998896 1.00019 0.99688
0.999069 0.999535 0.997118
0.99955 1.0006 0.995035
0.999187 0.998873 0.998843
0.998795 1.00021 0.998698
0.998934 0.999414 0.998823
0.999333 0.99851 0.997581
0.999582 1.00025 0.995073
0.999479 0.999962 0.996237
0.999115 0.999966 0.996714
0.998813 1.00014 0.99706
0.999071 1.00015 0.996682
0.999022 0.999569 0.997166
0.99883 1.00028 0.996928
0.999595 1.00057 0.995034
0.999435 0.999982 0.998358
0.999291 0.999985 0.996518
0.998977 1.00021 0.996761
1.00023 1.00014 0.994307
0.999707 1.00053 0.994841
0.999254 0.998932 0.997358
0.999437 1.00052 0.995296
1.00067 1.00113 0.992463
0.999221 0.99875 0.998876
0.998842 1.0002 0.99777
0.998989 0.999513 0.997987
0.99932 0.998386 0.99894
0.999533 1.00032 0.995074
0.999006 1.00034 0.996746
0.998924 1.00017 0.997009
0.999876 1.00051 0.995111
0.999404 0.99793 0.999104
0.999613 1.00039 0.995589
0.999557 0.999952 0.995397
1.00014 1.00155 0.992751
0.999538 0.997482 0.999182
0.999455 1 0.998328
0.999185 1 0.997594
0.999594 0.999998 0.998217
0.999212 0.999911 0.996592
1.0007 0.999991 0.993103
0.999013 1.00017 0.998633
1.00042 1.00002 0.994645
0.998991 1.0002 0.996748
0.998755 1.00039 0.996978
0.998974 0.999592 0.997222
0.99964 1.00053 0.995029
0.999416 0.999958 0.997353
0.999215 0.999993 0.996585
0.999224 0.9989 0.997409
0.998903 1.00029 0.996825
1.00026 1.00013 0.994298
0.999475 1.00049 0.995298
0.999757 1.00049 0.99484
1.00072 1.00115 0.992405
0.999523 0.999996 0.998281
0.999366 0.999948 0.996427
1.00066 0.999952 0.994208
1.00042 0.999956 0.994149
0.999944 1.00037 0.994588
1.00203 1.00013 0.990969
1.00106 1.00074 0.9919
0.999466 0.998283 0.997632
0.999385 1.00021 0.995698
1.00025 1.00146 0.992883
1.00132 1.00118 0.99085
0.998868 1.00007 0.998651
0.999356 0.998261 0.998997
0.999041 0.999284 0.998787
0.99948 1.00039 0.995075
0.999008 1.00023 0.998574
0.998889 0.999923 0.998689
0.999779 1.00058 0.994279
0.999423 0.997979 0.998461
0.999545 1.00053 0.994827
0.999535 0.999903 0.995795
1.00013 1.00155 0.992738
0.999486 0.997713 0.999124
0.999701 0.998675 0.996417
1.00008 1.00035 0.99401
0.999688 1.00063 0.994506
1.00115 1.00078 0.991548
0.999567 0.999431 0.996486
1.00035 1.00132 0.992576
0.999999 1.00164 0.992926
1.00056 1.00179 0.991657
0.999594 0.997222 0.999236
0.999539 0.997441 0.9992
0.999185 1.00006 0.998525
0.999392 1.00001 0.99838
0.999559 1 0.998243
0.999281 0.999977 0.997485
1.00068 0.999995 0.993669
0.99905 1.00011 0.997659
1.00037 0.999988 0.99422
0.999616 0.999995 0.998206
1.00085 0.999965 0.992813
1.00055 0.99999 0.994436
1.0026 0.99977 0.989751
1.00026 1.00013 0.994796
1.00219 1.00001 0.990308
0.999482 0.999928 0.996262
0.999139 0.999995 0.996652
0.999188 0.998844 0.997463
0.998826 1.00038 0.996884
1.00029 1.00012 0.994291
0.999809 1.00043 0.994839
0.999514 1.00047 0.995296
1.00078 1.00117 0.992348
0.999565 0.999993 0.998248
0.999292 0.999931 0.996504
1.0007 0.999922 0.993416
1.00045 0.999952 0.994129
0.999414 0.998233 0.998309
0.999443 1.00017 0.995811
0.999987 1.00034 0.994587
1.00203 1.00013 0.990859
1.00031 1.00149 0.992818
1.00109 1.00076 0.991966
1.00132 1.00118 0.990855
1.00083 0.999966 0.992849
1.00051 0.999897 0.994047
1.00263 0.999699 0.990015
1.00228 0.999822 0.990547
1.00157 1.0004 0.991308
1.00294 0.999947 0.989246
0.999503 0.997832 0.999083
1.00173 1.00074 0.990472
0.999555 0.999734 0.995618
0.999948 1.00156 0.993001
1.0009 1.00172 0.991206
1.00174 1.00106 0.990179
0.999705 0.998908 0.996124
1.00008 1.00056 0.993835
0.99895 1.00018 0.998591
0.998892 0.999753 0.998724
0.999739 1.00062 0.994289
0.999441 0.997912 0.999095
0.999505 0.999926 0.995478
0.999472 1.00065 0.994816
1.00013 1.00155 0.992725
0.999489 0.997687 0.999143
0.999707 0.99863 0.996434
1.00004 1.00031 0.994488
0.999619 1.00062 0.994956
1.00114 1.00077 0.991564
0.999581 0.999394 0.995918
1.00034 1.00131 0.99258
0.999984 1.00166 0.992918
1.00056 1.00179 0.991626
0.999634 0.999034 0.996176
0.999773 0.998317 0.996647
1.00003 1.00049 0.993967
1.00161 1.00044 0.990997
1.00068 1.00111 0.992152
1.00185 1.00086 0.990164
1.00002 1.0013 0.993222
1.00084 1.00143 0.991461
1.00033 1.00224 0.991769
1.00069 1.00206 0.991206
0.999665 0.996965 0.999279
0.999601 0.997178 0.99925
0.999542 0.997397 0.999217
0.999754 0.998575 0.996382
0.999549 0.997598 0.999146
0.999068 1.00014 0.998557
0.999286 1.00001 0.998468
1.00036 0.999954 0.993763
1.00064 0.999993 0.993191
0.999518 1.00001 0.998275
0.999617 0.999998 0.998201
1.00083 0.999974 0.992825
1.0005 0.999981 0.994012
1.00259 0.999775 0.989752
1.0002 1.0001 0.993917
1.00218 1.00003 0.99031
1.00092 0.999952 0.992671
1.00286 0.999678 0.989328
1.00238 0.999869 0.990088
1.0035 0.999488 0.988326
1.00195 1.00018 0.990586
1.00306 0.999747 0.988937
0.999599 0.999989 0.998218
0.999216 0.9999 0.996582
1.00071 0.999898 0.992664
1.00048 0.999955 0.994109
0.999341 0.998167 0.999014
0.999497 1.00016 0.995924
1.00003 1.00029 0.994588
1.00204 1.00013 0.990749
1.00112 1.0008 0.992033
1.00038 1.00153 0.992752
1.00132 1.00118 0.990861
1.00084 0.999953 0.992838
1.00054 0.999889 0.994025
1.00261 0.99969 0.989813
1.0023 0.999869 0.990618
0.999484 0.997867 0.999061
0.99955 0.999724 0.99593
1.00001 1.00158 0.993106
1.00156 1.00043 0.99132
1.00292 0.999895 0.989119
1.00085 1.00172 0.991192
1.00179 1.00074 0.990508
1.00173 1.00106 0.990191
0.999687 0.998967 0.996113
1.00008 1.00055 0.993834
1.00289 0.999639 0.989306
1.00241 0.999725 0.990393
1.00353 0.999466 0.988546
1.00323 0.999475 0.98873
1.00227 1.00033 0.989944
1.00342 0.999507 0.988646
0.999628 0.999288 0.995863
1.00223 1.00049 0.989784
0.999957 1.00143 0.993141
1.00039 1.00195 0.991684
1.0013 1.00186 0.990533
1.00203 1.00083 0.989954
1.00008 1.00099 0.993426
1.00008 1.00007 0.994314
1.00025 1.00165 0.99243
0.99999 1.00035 0.994069
0.999491 0.997655 0.999161
0.999712 0.998591 0.996451
0.999536 1.00075 0.994572
1.00113 1.00076 0.99158
0.999578 0.999351 0.995896
0.999965 1.00166 0.992911
1.00033 1.0013 0.992583
1.00057 1.00178 0.991595
0.999643 0.998983 0.996188
0.999769 0.998295 0.996661
1.00003 1.0005 0.993971
1.00161 1.00044 0.991008
1.00066 1.0011 0.992168
1.00184 1.00086 0.990167
0.999988 1.00135 0.993221
1.00085 1.00144 0.991504
1.00032 1.00223 0.991764
1.00067 1.00207 0.99116
0.999837 0.99802 0.996823
1.00005 1.00087 0.993556
1.00003 1.00005 0.994416
1.0002 1.00154 0.992655
1.00239 1.0004 0.989574
1.00126 1.00124 0.990934
1.00224 1.00079 0.989467
1.00025 1.0021 0.992076
1.00108 1.00152 0.991016
1.00035 1.00289 0.991055
1.00081 1.00205 0.990805
1.00013 0.999063 0.995235
0.999938 0.997607 0.997038
0.999739 0.996743 0.99931
0.999675 0.996929 0.999289
0.999608 0.997134 0.999264
0.999802 0.998264 0.996613
0.999588 0.997358 0.999203
0.999749 0.998618 0.996363
0.999545 0.997626 0.999127
1.0002 1.00009 0.993921
1.00049 0.999951 0.993527
1.00217 1.00004 0.990311
1.00259 0.99978 0.989753
1.00082 0.999982 0.992837
0.999612 1 0.998203
1.00092 0.999956 0.992669
1.00286 0.999678 0.989332
1.00237 0.999882 0.990087
1.00351 0.999495 0.988327
1.00194 1.0002 0.990592
1.00306 0.999744 0.988936
1.00298 0.999618 0.989153
1.0038 0.999385 0.987864
1.00328 0.999565 0.988688
1.0039 0.999133 0.987947
1.00277 1.00002 0.989202
1.00353 0.999288 0.988486
1.00085 0.999943 0.992825
1.00057 0.999895 0.994001
1.00259 0.999673 0.989611
1.00231 0.99991 0.990689
0.999466 0.997906 0.999038
0.999559 0.999724 0.99623
1.00008 1.00158 0.993209
1.00154 1.00046 0.991332
1.00291 0.999842 0.988992
1.00184 1.00075 0.990544
1.00079 1.00172 0.991178
1.00172 1.00106 0.990202
0.999671 0.999027 0.996102
1.00008 1.00053 0.993832
1.00287 0.999627 0.989246
1.00242 0.99973 0.990389
1.00355 0.999435 0.988478
1.00323 0.99954 0.988861
0.99962 0.999341 0.995861
0.999982 1.00143 0.993145
1.0004 1.00193 0.991768
1.00231 1.00037 0.989929
1.00341 0.999432 0.988617
1.00125 1.00187 0.99044
1.00224 1.00048 0.989783
1.00198 1.00083 0.989945
1.00009 1.00094 0.993433
1.00025 1.00162 0.992435
1.00008 1.00008 0.994305
1.00378 0.999408 0.988114
1.00337 0.999422 0.988773
1.00399 0.999195 0.987823
1.00377 0.999062 0.988273
1.00273 0.999926 0.989243
1.00368 0.99888 0.988681
1.00002 1.00128 0.993229
1.00247 1.00016 0.989631
1.0003 1.00182 0.992172
1.00059 1.00235 0.990942
1.00151 1.00193 0.989919
1.00218 1.0006 0.990056
1.00011 0.999666 0.994656
1.0003 1.00166 0.992331
1.00023 1.00133 0.992718
1.00025 1.0022 0.991967
1.0016 1.00044 0.991019
0.999766 0.998273 0.996675
0.999656 0.99893 0.996199
1.00003 1.00051 0.993974
1.00065 1.00109 0.992185
1.00183 1.00086 0.99017
0.999958 1.0014 0.99322
1.00031 1.00223 0.991759
1.00087 1.00144 0.991547
1.00066 1.00208 0.991114
0.999831 0.998011 0.996831
1.00004 1.00091 0.993553
1.00004 1.00004 0.994425
1.0002 1.00156 0.992645
1.00239 1.0004 0.989569
1.00124 1.00125 0.990946
1.00224 1.00078 0.989471
1.00022 1.0021 0.992083
1.0011 1.00153 0.991062
1.00036 1.0029 0.991029
1.00078 1.00204 0.990947
0.999891 0.997794 0.996947
1.00006 0.999665 0.994753
1.00026 1.00175 0.992376
1.00019 1.00116 0.993046
1.00018 1.0023 0.991958
1.00283 1.00019 0.988926
1.00155 1.00126 0.99033
1.00242 1.00069 0.989232
1.00022 1.00294 0.991298
1.0012 1.00155 0.99073
1.00047 1.00316 0.990233
1.00011 0.999223 0.995116
1.00016 1.00008 0.994178
1.00015 0.998937 0.995328
1.00013 0.999081 0.995232
0.999968 0.997406 0.997562
0.999929 0.997586 0.997267
0.999846 0.996567 0.998457
0.999749 0.996711 0.999319
0.999685 0.996893 0.999299
0.999858 0.998003 0.996773
0.999645 0.997108 0.999251
0.999806 0.998286 0.996597
0.999588 0.997394 0.999186
0.999743 0.998661 0.996345
0.999541 0.997655 0.999108
1.00194 1.00022 0.990598
1.00236 0.999891 0.990085
1.00306 0.999749 0.988936
1.00351 0.999501 0.988327
1.00285 0.999677 0.989335
1.00092 0.999958 0.992668
1.00298 0.999616 0.989151
1.0038 0.999387 0.987869
1.00328 0.999576 0.98869
1.00392 0.99912 0.9879
1.00278 1.00003 0.989195
1.00353 0.999298 0.988487
1.00393 0.999316 0.987671
1.00416 0.999094 0.987438
1.00376 0.999101 0.988233
1.00413 0.998853 0.987858
1.00323 0.999678 0.988681
1.00378 0.998634 0.988671
1.00285 0.999617 0.989185
1.00244 0.999725 0.990384
1.00356 0.999411 0.98841
1.00324 0.999606 0.988993
0.999612 0.999386 0.995858
1 1.00142 0.993149
1.00041 1.0019 0.991852
1.00236 1.0004 0.989915
1.0034 0.999356 0.988587
1.00225 1.00047 0.989783
1.0012 1.00189 0.990347
1.00193 1.00082 0.989936
1.0001 1.00089 0.99344
1.00026 1.00158 0.99244
1.00007 1.00008 0.994296
1.0038 0.999385 0.987986
1.00339 0.999394 0.988773
1.00399 0.999152 0.987778
1.00377 0.999095 0.988298
1.00004 1.00122 0.993238
1.00034 1.00181 0.992158
1.00056 1.00235 0.991044
1.00274 1 0.989289
1.00369 0.998754 0.988736
1.00143 1.00199 0.989847
1.00247 1.00015 0.989637
1.00214 1.00053 0.990074
1.00031 1.00166 0.992345
1.00026 1.00221 0.991913
1.00011 0.999684 0.994649
1.00024 1.00126 0.992784
1.0042 0.999138 0.987372
1.00389 0.999073 0.988111
1.00421 0.998925 0.987573
1.00403 0.998596 0.988202
1.00304 0.99941 0.98922
1.00395 0.998172 0.988871
1.00029 1.00172 0.992307
1.00256 0.999613 0.989987
1.00031 1.00226 0.991577
1.0008 1.00277 0.990267
1.00163 1.00202 0.989439
1.00228 1.0005 0.989992
1.00013 0.999469 0.994834
1.00024 1.00083 0.993175
1.00032 1.00205 0.99193
1.0002 1.00211 0.992123
1.00027 1.00234 0.991769
0.999825 0.998001 0.996839
1.00239 1.00041 0.989563
1.00004 1.00003 0.994434
1.00003 1.00096 0.993551
1.00019 1.00158 0.992634
1.00122 1.00125 0.990958
1.00224 1.00078 0.989474
1.0002 1.00212 0.992089
1.00038 1.00291 0.991003
1.00111 1.00155 0.991108
1.00075 1.00202 0.991089
0.999886 0.997784 0.996952
1.00006 0.999657 0.994761
1.00024 1.00176 0.992373
1.00018 1.00117 0.993045
1.00018 1.00232 0.991918
1.00283 1.00019 0.988917
1.00155 1.00126 0.990335
1.00242 1.00069 0.98921
1.0002 1.00294 0.991311
1.00122 1.00157 0.990757
1.00054 1.00314 0.990299
1.00008 0.999414 0.994967
1.00019 1.00073 0.993465
1.00026 1.00249 0.991659
1.00015 1.00207 0.992257
1.00013 1.00285 0.991527
1.00307 0.999869 0.988752
1.00172 1.00118 0.990068
1.0023 1.00027 0.98971
1.00015 1.00375 0.990541
1.00108 1.00269 0.989844
1.00011 0.999229 0.995117
1.00016 1.00023 0.993914
1.00016 1.0001 0.994114
1.00014 1.0009 0.993552
1.00016 1.00004 0.99421
1.00017 0.998846 0.99538
1.00015 0.998945 0.995326
1.00001 0.997228 0.997636
1.00012 0.999099 0.995229
0.999973 0.997394 0.997573
0.999914 0.996371 0.998515
0.999921 0.997571 0.997493
0.999827 0.996536 0.998902
0.999759 0.996679 0.999327
0.999904 0.997807 0.99688
0.999862 0.998015 0.996764
0.999714 0.996888 0.999284
0.999641 0.997149 0.999237
0.99981 0.998305 0.996582
0.999587 0.997431 0.999168
1.00279 1.00003 0.989189
1.00328 0.999579 0.988692
1.00353 0.999306 0.988487
1.00394 0.999108 0.987852
1.0038 0.999388 0.987873
1.00299 0.999614 0.989149
1.00394 0.999315 0.987671
1.00418 0.999116 0.98736
1.00376 0.999108 0.988239
1.00413 0.998805 0.987863
1.00323 0.999686 0.988667
1.0038 0.998603 0.98865
1.00435 0.999087 0.987084
1.00437 0.998931 0.98725
1.00402 0.998573 0.988215
1.00423 0.998653 0.987855
1.0035 0.999056 0.988692
1.00404 0.998248 0.988677
1.00382 0.999359 0.987857
1.00339 0.999369 0.988772
1.004 0.999109 0.987733
1.00377 0.999126 0.988324
1.00007 1.00117 0.993247
1.00037 1.00181 0.992145
1.00054 1.00235 0.991147
1.00276 1.00008 0.989336
1.00369 0.998627 0.988791
1.00248 1.00015 0.989642
1.00136 1.00205 0.989775
1.0021 1.00045 0.990093
1.00031 1.00166 0.992358
1.00027 1.00221 0.991859
1.0001 0.999702 0.994642
1.00025 1.00119 0.992851
1.0042 0.999139 0.987368
1.00389 0.999065 0.988126
1.00419 0.998895 0.987633
1.00404 0.998593 0.988202
1.00031 1.0017 0.992307
1.00031 1.00222 0.991659
1.00078 1.00282 0.990262
1.00305 0.999512 0.989185
1.00383 0.998052 0.989131
1.00162 1.00208 0.989397
1.00255 0.999629 0.990004
1.00225 1.00027 0.990087
1.00034 1.00204 0.991935
1.00028 1.00233 0.991759
1.00019 1.00212 0.992112
1.00012 0.999467 0.994756
1.00025 1.00078 0.993226
1.00444 0.998922 0.987098
1.00427 0.998694 0.987659
1.00426 0.998078 0.988256
1.00336 0.998516 0.98947
1.00031 1.00204 0.991942
1.00281 0.999103 0.990268
1.00023 1.00266 0.991157
1.00103 1.0033 0.989302
1.00195 1.002 0.988963
1.00014 0.999324 0.994809
1.00024 1.00053 0.993645
1.0002 1.00164 0.992603
1.00033 1.0021 0.991865
1.00019 1.00263 0.991669
1.00033 1.00228 0.991641
0.999881 0.997775 0.996958
1.00007 0.999649 0.994769
1.00284 1.0002 0.988907
1.00018 1.00119 0.993044
1.00023 1.00175 0.992369
1.00017 1.00234 0.991878
1.00154 1.00126 0.99034
1.00241 1.0007 0.989187
1.00017 1.00293 0.991324
1.00061 1.00313 0.990365
1.00123 1.00158 0.990785
1.00008 0.999414 0.994971
1.00019 1.00072 0.993469
1.00023 1.00248 0.991694
1.00015 1.00206 0.992251
1.00012 1.00288 0.991467
1.00306 0.999909 0.988747
1.00174 1.00117 0.990044
1.00236 1.00016 0.989761
1.00013 1.00374 0.990496
1.00108 1.00282 0.989721
1.00017 1.00043 0.993798
1.00017 1.00165 0.99255
1.00017 1.00324 0.991121
1.00011 1.00277 0.991552
1.0002 1.00312 0.991108
1.00333 0.998415 0.989716
1.00182 1.00167 0.989565
1.00244 0.999358 0.989873
1.0004 1.00414 0.989997
1.00092 1.00329 0.988857
1.0001 0.999234 0.995118
1.00017 1.00023 0.993963
1.00016 1.00102 0.993175
1.00017 1.00013 0.99405
1.00016 1.00005 0.99421
1.00014 1.00088 0.99346
1.00011 1.00149 0.992974
1.00013 1.00083 0.993456
1.00018 0.999991 0.994246
1.00019 0.998818 0.995383
1.00017 0.998843 0.995381
1.00005 0.997109 0.997669
1.00015 0.998954 0.995323
1.00002 0.997224 0.997644
0.999965 0.996209 0.998567
0.999979 0.997379 0.997584
0.999906 0.996349 0.998513
0.999805 0.996499 0.999351
0.999949 0.99763 0.996972
0.999909 0.997814 0.996875
0.999779 0.996696 0.999309
0.999866 0.998027 0.996756
0.999705 0.996918 0.999275
0.999636 0.997184 0.999223
1.00324 0.999693 0.988654
1.00376 0.999119 0.988245
1.00382 0.998575 0.988629
1.00414 0.998756 0.987867
1.00421 0.999135 0.987282
1.00394 0.999316 0.987672
1.00436 0.999105 0.987056
1.00435 0.998954 0.987279
1.00403 0.998586 0.988174
1.00423 0.998574 0.987876
1.00351 0.99908 0.988697
1.00398 0.998158 0.98877
1.00459 0.998971 0.98678
1.0044 0.998679 0.987441
1.00423 0.998236 0.988181
1.00388 0.998263 0.988924
1.0042 0.99914 0.987364
1.0039 0.999055 0.988142
1.00416 0.998862 0.987693
1.00404 0.998594 0.988203
1.00034 1.00169 0.992307
1.00032 1.00218 0.99174
1.00076 1.00286 0.990256
1.00306 0.999613 0.98915
1.00372 0.997934 0.989389
1.00253 0.999644 0.990022
1.00161 1.00214 0.989355
1.0022 1.00007 0.990182
1.00035 1.00203 0.991939
1.00029 1.00232 0.99175
1.00019 1.00214 0.992101
1.00012 0.999466 0.994677
1.00026 1.00073 0.993276
1.00441 0.998898 0.987175
1.00427 0.998725 0.987657
1.00423 0.998107 0.988346
1.00035 1.00203 0.991933
1.00031 1.00262 0.99125
1.00099 1.00338 0.989285
1.0034 0.99857 0.989381
1.00192 1.00183 0.989137
1.00271 0.999075 0.990257
1.00014 0.9993 0.994827
1.00034 1.00211 0.991862
1.00032 1.00226 0.991701
1.00019 1.00268 0.991629
1.0002 1.00162 0.992639
1.00024 1.00052 0.99358
1.00451 0.998788 0.987171
1.00453 0.998281 0.987531
1.00414 0.99802 0.988396
1.00374 0.997596 0.989758
1.00031 1.00223 0.99176
1.00254 1.00052 0.989198
1.00038 1.00348 0.990193
1.00125 1.00377 0.988551
1.00014 0.999169 0.994952
1.00022 1.00033 0.993892
1.00021 1.00135 0.992932
1.00016 1.00241 0.991894
1.00038 1.00218 0.991717
1.00029 1.00259 0.991452
1.00008 0.999412 0.994975
1.00019 1.00072 0.993474
1.00304 0.999951 0.988741
1.00015 1.00206 0.992246
1.00021 1.00248 0.991728
1.00011 1.00292 0.991406
1.00177 1.00116 0.99002
1.00242 1.00003 0.989812
1.0001 1.00374 0.990451
1.00108 1.00297 0.989599
1.00018 1.00042 0.993802
1.00017 1.00165 0.992571
1.00013 1.00322 0.991192
1.00011 1.00279 0.99157
1.00015 1.00317 0.991115
1.00344 0.998418 0.989615
1.00188 1.00153 0.989588
1.00242 0.999366 0.990202
1.00033 1.00414 0.989936
1.00104 1.00357 0.988666
1.00018 1.00122 0.992969
1.00014 1.00242 0.991827
1.00014 1.00378 0.990614
1.00011 1.00334 0.990846
1.00436 0.997636 0.988913
1.00356 0.99719 0.990234
1.0019 1.00218 0.988702
1.00041 1.00463 0.988814
1.00017 1.00023 0.994012
1.00016 1.00104 0.993216
1.00014 1.00166 0.992679
1.00016 1.00006 0.99421
1.00014 1.00086 0.993369
1.00018 0.999987 0.994248
1.00012 1.00149 0.992898
1.00012 1.00082 0.993487
1.0001 1.00198 0.992469
1.0001 1.00138 0.992936
1.00011 1.00079 0.993508
1.0002 0.999953 0.994256
1.00019 0.998841 0.99535
1.00019 0.998813 0.995383
1.00008 0.997064 0.997661
1.00017 0.998837 0.995381
1.00006 0.997119 0.99767
1.00001 0.996115 0.998576
1.00002 0.997219 0.997652
0.999959 0.996186 0.998565
0.999898 0.996329 0.998509
0.999993 0.997448 0.997071
0.999953 0.997637 0.996968
0.999839 0.996516 0.999332
0.999914 0.997822 0.99687
0.999771 0.996722 0.999301
0.999697 0.996951 0.999265
1.00352 0.999102 0.988703
1.00405 0.998596 0.988134
1.00393 0.998062 0.988863
1.00424 0.998492 0.987897
1.00433 0.998974 0.987307
1.00438 0.999125 0.987027
1.00454 0.998973 0.986887
1.00439 0.99869 0.987444
1.00421 0.998245 0.988201
1.00388 0.998171 0.988896
1.00456 0.99883 0.987026
1.00448 0.998165 0.987814
1.00424 0.998066 0.988336
1.00438 0.998873 0.987253
1.00427 0.998755 0.987655
1.0042 0.998131 0.988437
1.00038 1.00202 0.991924
1.0004 1.00259 0.991343
1.00094 1.00348 0.989269
1.00345 0.998623 0.989294
1.00263 0.999042 0.990245
1.0019 1.00167 0.989312
1.00035 1.00211 0.991858
1.00029 1.00224 0.99176
1.00018 1.00272 0.991589
1.00014 0.999275 0.994846
1.00021 1.0016 0.992675
1.00024 1.0005 0.993517
1.00451 0.998795 0.987112
1.00453 0.998312 0.987533
1.00421 0.998016 0.988322
1.00035 1.00223 0.991738
1.00034 1.00342 0.990387
1.00127 1.00378 0.988547
1.00368 0.997687 0.9898
1.00256 1.00041 0.989192
1.00014 0.999154 0.99504
1.00022 1.00032 0.993895
1.00034 1.00218 0.991706
1.00029 1.00252 0.991526
1.00016 1.00239 0.991885
1.0002 1.00138 0.992878
1.00458 0.998558 0.987195
1.00468 0.997982 0.987491
1.00446 0.997182 0.988743
1.00376 0.997964 0.989612
1.00015 1.00274 0.991457
1.0017 1.00348 0.987863
1.00062 1.00411 0.989514
1.00016 0.998993 0.995251
1.00017 0.999946 0.994305
1.00019 1.00024 0.993875
1.00018 1.00118 0.993088
1.00013 1.00209 0.992248
1.00009 1.0031 0.99127
1.00045 1.00179 0.9918
1.00024 1.00298 0.991608
1.00018 1.00041 0.993806
1.00017 1.00165 0.992593
1.00353 0.998417 0.989513
1.00011 1.00281 0.991588
1.0001 1.00321 0.991264
1.0001 1.00321 0.991123
1.00193 1.00139 0.989611
1.0024 0.999375 0.99053
1.00026 1.00414 0.989875
1.00116 1.00383 0.988475
1.00018 1.00126 0.992925
1.00013 1.00243 0.991853
1.00012 1.00377 0.99067
1.00015 1.00336 0.990901
1.00433 0.997663 0.988754
1.00346 0.997379 0.990288
1.00199 1.00204 0.988876
1.00053 1.00461 0.988721
1.00014 1.00192 0.992404
1.00434 0.997755 0.988395
1.0001 1.00319 0.99131
1.00026 1.0041 0.990038
1.0047 0.996428 0.989162
1.00313 0.999674 0.988723
1.00115 1.00445 0.988253
1.00017 1.00105 0.993257
1.00014 1.00166 0.992677
1.00012 1.00221 0.992175
1.00018 0.999985 0.994249
1.00012 1.00082 0.993518
1.00013 1.00149 0.992821
1.0002 0.999944 0.994257
1.00011 1.00079 0.993502
1.00011 1.00199 0.992408
1.0001 1.00139 0.993006
1.00011 1.00231 0.992098
1.0001 1.00187 0.992474
1.0001 1.00134 0.993098
1.00013 1.00072 0.993623
1.00021 0.999954 0.994233
1.00018 0.998878 0.995321
1.00019 0.998841 0.995351
1.0001 0.997068 0.997629
1.00019 0.99881 0.995383
1.00008 0.997084 0.997657
1.00003 0.996072 0.998564
1.00006 0.997128 0.99767
1 0.996087 0.998578
0.999954 0.996164 0.998562
1.00017 0.998834 0.995381
1.00004 0.997274 0.997166
0.999996 0.997459 0.997066
0.999892 0.996345 0.999358
0.999956 0.997645 0.996964
0.999831 0.996544 0.999325
0.999762 0.996748 0.999294
1.00388 0.998084 0.988868
1.0042 0.998254 0.988221
1.00438 0.998698 0.987446
1.00449 0.998975 0.986994
1.00454 0.998832 0.987025
1.00449 0.998145 0.987809
1.00422 0.998065 0.988344
1.00454 0.998413 0.987423
1.00447 0.998108 0.987939
1.0043 0.997774 0.988115
1.00452 0.998802 0.987053
1.00453 0.998354 0.987535
1.00429 0.998016 0.988247
1.00037 1.00223 0.991716
1.0003 1.00334 0.990581
1.0013 1.00374 0.988543
1.00361 0.99778 0.989843
1.00257 1.00028 0.989185
1.0003 1.00218 0.991695
1.00031 1.00246 0.991599
1.00016 1.00238 0.991877
1.00015 0.999137 0.995127
1.00021 1.00032 0.993898
1.00019 1.00141 0.992824
1.00457 0.998492 0.98732
1.00016 0.998988 0.995249
1.00016 0.999947 0.994261
1.00473 0.998008 0.987459
1.00437 0.997289 0.988667
1.00013 1.00268 0.99156
1.00062 1.00427 0.989308
1.00168 1.00336 0.987917
1.00361 0.997975 0.989692
1.00019 1.00024 0.994007
1.00018 1.00118 0.993089
1.00052 1.00186 0.991696
1.00016 1.00258 0.99189
1.00008 1.00318 0.991181
1.00015 1.00206 0.992254
1.00465 0.997399 0.988112
1.00481 0.997967 0.987397
1.00483 0.996041 0.989112
1.00277 1.00062 0.988505
1.00026 1.00289 0.991287
1.00101 1.00485 0.98813
1.00015 0.999842 0.994334
1.00017 1.00011 0.994138
1.00011 1.00082 0.993687
1.00015 1.00112 0.993114
1.00012 1.00191 0.992549
1 1.00274 0.99169
0.999952 1.00398 0.990835
1.00017 1.00226 0.991938
1.00018 1.00129 0.99288
1.00013 1.00244 0.991879
1.00431 0.997698 0.988595
1.00335 0.99761 0.990343
1.00019 1.00338 0.990956
1.0001 1.00375 0.990725
1.00207 1.00193 0.98905
1.00066 1.00458 0.988628
1.00013 1.00194 0.992396
1.00433 0.997833 0.988331
1.00008 1.00314 0.991326
1.00025 1.00404 0.989984
1.00456 0.996351 0.989178
1.00325 0.999675 0.988774
1.00107 1.00449 0.988297
1.00009 1.00272 0.991724
1.00485 0.997013 0.988853
1.00035 1.00339 0.990802
1.00056 1.00463 0.989364
1.00454 0.996501 0.98909
1.00166 1.003 0.988062
1.00179 1.00007 0.990995
1.00014 1.00167 0.992675
1.00011 1.00222 0.992171
1.00018 1.00249 0.99181
1.0002 0.999933 0.994259
1.00011 1.0008 0.993497
1.0001 1.0014 0.993076
1.00013 1.002 0.992347
1.00021 0.999945 0.994231
1.00013 1.00071 0.993577
1.00011 1.0023 0.992082
1.0001 1.00133 0.993092
1.00009 1.00188 0.992531
1.00013 1.00223 0.992115
1.00005 1.00171 0.992816
1.00013 1.00123 0.993169
1.00017 1.00066 0.993524
1.00022 0.999962 0.994102
1.00017 1.00059 0.993767
1.00021 0.999957 0.994126
1.00018 0.998896 0.995309
1.00018 0.998878 0.995321
1.00011 0.997108 0.997182
1.00019 0.998841 0.995351
1.0001 0.997091 0.997416
1.00002 0.996027 0.999385
1.00008 0.997103 0.997653
1.00004 0.99604 0.998567
1 0.996059 0.998579
1.00018 0.998721 0.995486
1.00018 0.998833 0.995378
1.00007 0.997133 0.997242
1.00003 0.997282 0.997373
0.999939 0.9962 0.999379
0.999998 0.99747 0.997062
0.999885 0.996372 0.99935
0.999824 0.99657 0.999318
1.00419 0.998061 0.988353
1.0045 0.998129 0.987804
1.00452 0.998837 0.987024
1.00456 0.998407 0.987401
1.00444 0.998083 0.987966
1.0044 0.997851 0.988135
1.00454 0.997698 0.988093
1.00284 0.999749 0.988964
1.00491 0.996765 0.988264
1.00016 0.999774 0.994499
1.00456 0.998421 0.987446
1.00477 0.998025 0.987427
1.00428 0.997415 0.988592
1.00012 1.00265 0.991664
1.00061 1.00441 0.989101
1.00165 1.00324 0.987971
1.00347 0.998029 0.989773
1.00058 1.00194 0.991592
1.00007 1.00218 0.992173
1.00005 1.00325 0.991093
1.00017 0.998986 0.995246
1.00016 1.00203 0.99226
1.00019 1.00024 0.994139
1.00017 1.00118 0.99309
1.00016 0.999946 0.994216
1.00463 0.997454 0.988191
1.00016 0.999831 0.994389
1.00017 1.00011 0.994134
1.00011 1.0008 0.993586
1.00489 0.997743 0.987412
1.00469 0.996387 0.989082
1.00031 1.00262 0.991351
1.00082 1.00489 0.988022
1.00275 1.00063 0.988521
1.00015 1.00111 0.993186
1.00011 1.00191 0.99252
1.00015 1.00242 0.991781
0.999947 1.00385 0.990932
1.00002 1.00275 0.991758
1.00467 0.997162 0.98837
1.00497 0.997374 0.98771
1.00431 0.997765 0.988352
1.00155 1.00348 0.988266
1.00024 1.00361 0.990575
1.0001 1.00067 0.993606
1.00012 1.00099 0.993334
1.00011 1.00141 0.993064
1.00007 1.00178 0.992696
1.00006 1.0024 0.992153
0.999901 1.00333 0.991406
0.999827 1.00419 0.990657
1.00012 1.00196 0.992389
1.00006 1.00309 0.991341
1.00433 0.997908 0.988266
1.00442 0.996252 0.989194
1.0034 0.99966 0.988824
1.00025 1.004 0.98993
1.00099 1.00453 0.98834
1.00008 1.00268 0.9918
1.00483 0.996639 0.988796
1.00025 1.00338 0.990856
1.00039 1.00459 0.989397
1.00457 0.996171 0.989312
1.00168 1.00324 0.988034
1.00182 1.00014 0.990251
1.00019 1.00294 0.991349
1.00509 0.994874 0.990352
1.00017 1.00368 0.99077
1.00028 1.00493 0.989056
1.00244 1.00028 0.988568
0.999921 0.995224 0.968235
0.997365 1.00148 0.981997
1.00143 1.00012 0.992086
0.997163 0.997442 0.965539
0.995646 0.996604 0.967134
1.00011 1.00223 0.992166
1.00015 1.00249 0.991853
1.00023 1.00235 0.991853
1.00021 0.999938 0.99423
1.00014 1.0007 0.99353
1.00011 1.00133 0.993085
1.00009 1.0019 0.992589
1.00012 1.00228 0.992067
1.00014 1.00123 0.993118
1.00021 0.999967 0.994152
1.00017 1.00066 0.993569
1.00012 1.00223 0.992132
1.00006 1.00169 0.992803
1.00007 1.00157 0.99287
1.00009 1.00194 0.992514
1.00018 1.00112 0.993056
1.00021 1.00062 0.993498
1.00021 0.999969 0.994093
1.0002 1.00057 0.993649
1.00016 1.00102 0.993331
1.00013 1.00064 0.993677
1.00017 1.00059 0.993701
1.0002 0.999947 0.994236
1.00021 0.999964 0.994121
1.00018 0.998903 0.995304
1.00018 0.998894 0.995309
1.00011 0.997144 0.997171
1.00018 0.998877 0.995322
1.00012 0.997109 0.997182
1.00002 0.996028 0.999381
1.00011 0.997114 0.997202
1.00004 0.996028 0.998966
1.00004 0.996008 0.99857
1.00018 0.998636 0.995563
1.00018 0.998716 0.995485
1.00009 0.997025 0.997308
1.00018 0.99883 0.995375
1.00007 0.997128 0.997448
0.999977 0.996085 0.999396
1.00004 0.997301 0.997151
0.999932 0.996244 0.99937
0.999879 0.996401 0.999342
1.0044 0.998055 0.987992
1.00457 0.998401 0.98738
1.00448 0.997926 0.988156
1.00266 0.998757 0.989138
1.00458 0.99767 0.988132
1.00486 0.997005 0.988289
1.00502 0.997307 0.987611
0.998816 0.998746 0.981149
1.00397 0.996884 0.989222
1.00016 0.99975 0.994527
1.00016 0.999769 0.994499
1.00009 1.00059 0.993826
1.00007 1.00057 0.993886
1.00462 0.997506 0.988271
1.00497 0.997592 0.987428
1.00456 0.996675 0.989051
1.00036 1.00225 0.991416
1.00064 1.00502 0.987915
1.00274 1.00067 0.988538
1.00013 1.00259 0.991623
0.999951 1.00371 0.991029
1.00004 1.00276 0.991826
1.00017 1.00012 0.99413
1.0001 1.00191 0.99249
1.00015 1.0011 0.993259
1.00017 0.99982 0.994444
1.00011 1.00079 0.993484
1.00461 0.997185 0.988436
1.0001 1.00068 0.99371
1.00011 1.00096 0.993387
1.00012 1.00137 0.993023
1.005 0.99709 0.987769
1.00425 0.997801 0.98834
1.00031 1.00337 0.990579
1.00155 1.00373 0.988084
1.00007 1.00178 0.992713
1.00004 1.00238 0.992168
0.999848 1.00419 0.990646
0.999934 1.00351 0.991269
1.00493 0.996811 0.988241
1.00505 0.997363 0.987383
1.00262 1.00218 0.987596
1.00018 1.00428 0.990014
1.0001 1.00152 0.992845
1.00005 1.00163 0.992841
1.00003 1.00242 0.992137
0.99997 1.00405 0.990592
0.99912 0.995256 0.965573
1.00006 1.00264 0.991876
1.00015 1.00336 0.990911
1.00482 0.996211 0.988739
1.00458 0.995835 0.989535
1.00167 1.0035 0.988007
1.00021 1.0046 0.98943
1.00174 1.00022 0.989508
1.00013 1.00297 0.991399
1.00506 0.99495 0.990248
1.0001 1.00369 0.990785
1.00026 1.00497 0.989076
1.00263 1.00012 0.988575
0.999764 0.995615 0.966661
0.9971 1.00127 0.978965
1.00135 1.0001 0.992349
0.996837 0.997799 0.96517
0.995547 0.996629 0.964768
1.00012 1.00286 0.991611
0.998024 0.994911 0.965222
0.99644 0.997739 0.967564
1.00396 0.996413 0.990692
0.999958 1.00383 0.990797
1.00021 1.0045 0.989831
1.00117 0.999788 0.993806
0.998047 0.998808 0.96698
0.996124 1.00212 0.977774
0.995845 0.999535 0.966661
0.998007 0.99544 0.972285
1.00012 1.0025 0.991896
1.00021 1.00237 0.991858
1.00023 1.0022 0.992094
1.00021 0.999969 0.994202
1.00018 1.00065 0.993614
1.00014 1.00123 0.993067
1.00008 1.00166 0.992791
1.0001 1.00224 0.992149
1.00022 0.999975 0.994092
1.00006 1.00154 0.99292
1.00019 1.00114 0.993112
1.00022 1.00061 0.993555
1.0001 1.00195 0.992461
1.00017 1.00151 0.99272
1.00013 1.00196 0.992456
1.00021 1.00097 0.993232
1.00023 1.00061 0.993579
1.00021 1.00057 0.993648
1.00017 1.00101 0.993273
1.00021 1.00094 0.993262
1.00013 1.00112 0.993219
1.00021 1.00127 0.992988
1.00003 1.00185 0.992651
1.00012 1.00075 0.993578
1.00013 1.00065 0.993674
1.00018 0.999976 0.994247
1.00016 1.00059 0.993636
1.0002 0.99995 0.994198
1.00017 0.998919 0.995296
1.00021 0.999972 0.994116
1.00018 0.998901 0.995304
1.00008 0.99717 0.997597
1.00018 0.998893 0.995309
1.0001 0.997138 0.997384
1.00006 0.996046 0.998525
1.00012 0.997112 0.997181
1.00002 0.996031 0.999379
1.00006 0.99603 0.998546
1.00016 0.999776 0.994503
1.00018 0.99861 0.995595
1.00019 0.998635 0.995562
1.00011 0.996948 0.99736
1.00019 0.99871 0.995485
1.0001 0.997018 0.997309
1 0.995993 0.999412
1.00005 0.997141 0.997642
0.999986 0.996126 0.998972
0.999962 0.996273 0.998523
1.00237 0.997834 0.989309
1.00463 0.997652 0.988171
1.00483 0.997225 0.988313
0.998377 0.99841 0.983214
1.00389 0.997447 0.9894
1.00499 0.996988 0.987699
1.00481 0.9974 0.989264
0.99937 0.997106 0.984018
0.998769 0.996139 0.965076
0.997323 0.997337 0.964
0.996127 0.995313 0.966471
1.00007 1.00057 0.993788
1.00016 0.999753 0.994526
1.00017 0.999766 0.994498
1.00009 1.00059 0.993797
1.00004 1.00118 0.993336
1.00007 1.00106 0.993411
1.00008 1.00068 0.993781
1.00007 1.00058 0.993838
1.00455 0.997204 0.988502
1.00504 0.996714 0.987829
1.00419 0.997857 0.988328
1.00037 1.00321 0.990583
1.00155 1.00387 0.987901
0.999869 1.00418 0.990635
0.999968 1.00369 0.991131
1.00001 1.00235 0.992182
1.00011 1.00093 0.99344
1.00008 1.00179 0.992729
1.00011 1.00068 0.993813
1.00012 1.00133 0.992983
1.00489 0.997007 0.988096
1.00008 1.00151 0.992896
1.00006 1.00164 0.992818
1.00496 0.997307 0.987378
1.00221 1.00196 0.9879
1.00025 1.0043 0.989926
1.00006 1.00243 0.992055
0.999987 1.00405 0.990599
1.00465 0.999361 0.987508
1.0036 1.00023 0.987944
1.00002 1.00432 0.989591
0.999988 1.00393 0.990787
1.00004 1.00194 0.992481
1.0001 1.00228 0.99213
1.00011 1.0031 0.991372
0.99813 0.994777 0.964372
0.999639 0.995548 0.969263
1.00009 1.003 0.99145
1.00003 1.00363 0.9908
1.00504 0.995024 0.990144
1.00286 1.00007 0.988583
1.00024 1.00505 0.989096
0.999821 0.995472 0.964496
0.99734 1.00137 0.980459
1.00124 1.00008 0.992618
0.996766 0.997414 0.965452
0.99543 0.996756 0.962397
1.00012 1.00279 0.991609
0.998204 0.994913 0.964612
0.996225 0.998054 0.966792
1.00412 0.99669 0.990608
0.999867 1.00406 0.990826
1.00005 1.00444 0.989878
1.00122 0.998992 0.993996
0.997886 0.998895 0.964859
0.996172 1.00342 0.980626
0.995797 0.999733 0.965197
0.997611 0.995513 0.971445
1.00025 1.00249 0.991706
0.996367 0.998179 0.97102
1.00156 0.99663 0.978648
1.0015 0.999192 0.992577
0.999616 1.00418 0.991749
1.00028 1.00326 0.994568
0.997179 1.00255 0.984312
0.995649 1.00159 0.964917
0.995434 0.999682 0.966477
1.00191 0.996093 0.973418
1.00018 1.0024 0.991863
1.00022 1.0022 0.99203
0.999963 1.00213 0.992311
1.00022 0.999981 0.994091
1.00022 1.00059 0.993612
1.00019 1.00116 0.993168
1.00004 1.00151 0.992969
1.00011 1.00197 0.992408
1.00022 1.0006 0.99358
1.00014 1.00154 0.992773
1.00021 1.00096 0.993225
1.00009 1.00198 0.992476
1.00016 1.00178 0.99271
1.00023 1.00132 0.992832
1.00022 1.00096 0.993224
1.00021 1.00057 0.993647
1.00017 1.00101 0.993214
1.0002 1.00094 0.993268
1.00012 1.00112 0.993216
1.00023 1.00122 0.992956
1.00009 1.00136 0.993032
1.00023 1.00118 0.993007
1.00022 1.00141 0.99273
1.00006 1.00248 0.991969
0.999859 1.0034 0.991374
0.999982 1.00234 0.992191
1.00002 1.00189 0.992645
1.00011 1.00102 0.993342
1.00012 1.00078 0.99357
1.00017 1.00002 0.994232
1.00013 1.00066 0.993671
1.00018 0.999976 0.994246
1.00016 0.998968 0.995282
1.0002 0.999952 0.99416
1.00018 0.998917 0.995298
1.00006 0.997211 0.9976
1.00018 0.998898 0.995305
1.00009 0.997166 0.997385
1.00004 0.996055 0.998527
1.00011 0.997129 0.997171
1.00002 0.996046 0.999377
1.00002 0.996033 0.999378
1.00016 0.999857 0.99458
1.00017 0.998655 0.995566
1.00015 0.999787 0.994503
1.00011 0.996926 0.99738
1.00018 0.998609 0.995595
1.00019 0.998631 0.995562
1.00011 0.996952 0.997358
1.00002 0.995933 0.999422
1.00008 0.997019 0.997708
1.00002 0.996007 0.999001
1.00001 0.996135 0.998564
0.998149 0.995328 0.965313
0.996662 0.996775 0.969289
0.998572 0.997634 0.984551
1.00382 0.998141 0.989573
1.00496 0.99671 0.987785
0.999389 0.996928 0.987056
1.00481 0.997669 0.989179
0.999531 0.995463 0.968035
0.996813 0.997393 0.965048
0.995951 0.995856 0.964261
1.00073 0.996644 0.990486
0.997988 0.998448 0.967993
0.995894 0.999727 0.966004
0.998029 0.996585 0.969343
1.00005 1.00133 0.993127
1.00007 1.00056 0.99383
1.00016 0.99975 0.994525
1.00008 1.00059 0.993767
1.00003 1.00114 0.993407
1.00005 1.00137 0.993156
1.00007 1.00104 0.993413
1.0001 1.00096 0.993423
1.00008 1.00069 0.993721
1.00007 1.00059 0.99379
1.00483 0.997191 0.987955
1.00483 0.997164 0.987371
1.00178 1.00172 0.988207
1.0003 1.00436 0.989839
1.00001 1.00403 0.990605
1.00009 1.00245 0.991973
1.00006 1.00164 0.992795
1.00006 1.00151 0.992947
1.00475 0.998596 0.987397
1.00005 1.00198 0.992446
1.00012 1.00229 0.992029
1.00321 1.0007 0.987422
0.999866 1.00426 0.990176
1.00009 1.0038 0.990687
1.00016 1.00295 0.991403
1.00254 1.00376 0.98734
1.00071 1.00243 0.991454
1.00005 1.00354 0.990959
1.00003 1.00214 0.992356
1.00016 1.00238 0.991855
1.00031 1.0028 0.991277
0.9976 0.997274 0.972183
0.99806 0.995141 0.964478
0.999398 0.995272 0.96531
1.00013 1.00274 0.991606
0.999792 1.00422 0.990855
1.00431 0.996832 0.990524
0.999894 1.00434 0.989922
0.99855 0.994806 0.96442
0.997644 0.998826 0.967877
0.996387 1.00322 0.977709
1.00127 0.99861 0.994191
0.99582 0.999871 0.965912
0.99598 0.998282 0.966848
0.997901 0.995428 0.970646
1.00018 1.00259 0.991706
0.996524 0.998066 0.970968
1.00147 0.996898 0.978764
1.00157 0.999149 0.992753
0.999383 1.004 0.991765
1.00093 1.00202 0.994145
0.99724 1.00273 0.980339
0.995759 1.00289 0.966462
0.995966 0.999225 0.968061
1.00022 0.99638 0.973798
0.999594 1.00262 0.993126
1.00327 0.998034 0.979729
1.00756 0.997766 0.977624
0.998484 1.00369 0.993946
0.997919 1.00274 0.989881
0.995487 1.00243 0.965837
0.996425 0.999904 0.969259
1.00124 0.998788 0.970861
1.00021 1.00219 0.991966
1.00007 1.00208 0.992409
0.99997 1.00125 0.993186
1.00022 1.0006 0.99358
1.00021 1.00095 0.993217
1.00012 1.00156 0.992827
1.00006 1.00199 0.992497
1.00022 1.00096 0.993225
1.00022 1.00135 0.992829
1.00012 1.00165 0.992765
1.00003 1.00138 0.993373
1.00031 1.0012 0.99281
1.00023 1.00114 0.993
1.0002 1.00094 0.993274
1.00012 1.00113 0.993212
1.00025 1.00118 0.992923
1.00023 1.00118 0.993003
1.00008 1.0014 0.993024
1.00024 1.00136 0.992753
1.00014 1.0018 0.99248
1.00031 1.0013 0.992685
1.00002 1.00265 0.991881
1.00007 1.00247 0.99201
0.999819 1.00334 0.991498
1.00012 1.00364 0.990754
1.00004 1.00265 0.991958
0.999828 1.00329 0.991562
0.999991 1.00233 0.992282
1.0001 1.00144 0.992857
1.00002 1.00192 0.992638
1.00011 1.00104 0.993332
1.00016 1.00013 0.99413
1.00012 1.0008 0.993562
1.00016 1.00003 0.994228
1.00013 0.999048 0.995258
1.00019 0.999975 0.994245
1.00016 0.998963 0.995284
1.00002 0.997278 0.997598
1.00018 0.998914 0.995299
1.00006 0.99721 0.997388
1 0.996115 0.998531
1.0001 0.997155 0.997172
1.00002 0.996066 0.998951
1.00002 0.996051 0.999377
1.00015 1.00003 0.994294
1.00016 0.998745 0.995497
1.00015 0.999864 0.994461
1.0001 0.996965 0.997359
1.00018 0.998652 0.995566
1.00015 0.999799 0.994502
1.00002 0.995919 0.999425
1.00011 0.996923 0.99738
1.00018 0.998607 0.995595
1.00011 0.996955 0.997356
1.00002 0.995942 0.99942
1 0.996003 0.999408
0.997024 0.997518 0.972471
0.997869 0.995097 0.964637
1.00167 0.99769 0.977194
0.996718 0.996777 0.96835
0.99966 0.996958 0.982882
1.00481 0.997928 0.989046
0.998983 0.995423 0.970996
0.997201 0.998202 0.964493
0.995756 0.996379 0.962052
1.00028 0.997462 0.98853
0.998661 0.99757 0.964459
0.995953 0.999554 0.964345
0.99788 0.997103 0.968609
0.998674 0.998029 0.98762
0.996765 1.00059 0.964671
0.995395 0.99979 0.966631
1.00133 0.997629 0.971062
1.00007 1.00183 0.992665
1.00005 1.00132 0.99319
1.00008 1.00055 0.993872
1.00001 1.0011 0.993477
1.00009 1.00166 0.992718
1.00005 1.00132 0.993212
1.00007 1.00102 0.993414
1.00014 1.00105 0.993335
1.00011 1.00095 0.993489
1.00009 1.00069 0.993661
1.00486 0.997975 0.987288
1.00286 1.00115 0.986902
0.999742 1.00419 0.990759
1.0002 1.00365 0.990586
1.0002 1.00281 0.991435
1.00014 1.0023 0.991929
1.00006 1.00202 0.992412
1.00005 1.00215 0.992355
1.00279 1.00276 0.987629
1.00014 1.00243 0.991909
1.00031 1.00277 0.991321
1.00073 1.00232 0.990906
1.0002 1.00332 0.990989
1.00081 1.0026 0.989967
1.00031 1.0023 0.992284
1.00029 1.00264 0.991222
1.00018 1.00224 0.991994
1.00033 1.00276 0.991179
1.00494 0.997901 0.97933
0.997557 0.997745 0.972429
0.998017 0.995458 0.965122
1.00011 1.00272 0.991705
0.999147 1.00392 0.991781
1.00157 0.999154 0.992926
0.996469 0.997992 0.972199
0.996021 1.00166 0.964329
0.99719 1.00266 0.982622
1.00162 1.00028 0.993721
0.995473 0.999666 0.966493
1.0012 0.997178 0.978881
0.999813 0.996466 0.973976
0.999553 1.00242 0.993171
1.003 0.997711 0.981269
1.0071 0.998078 0.978009
0.998521 1.00332 0.994228
0.997848 1.00192 0.989226
0.995685 1.00258 0.963851
1.00239 0.998118 0.97142
0.995671 0.999514 0.968493
0.998744 1.00224 0.994805
1.01399 0.996796 0.974884
1.00976 0.998607 0.975198
1.00169 0.997466 0.970928
0.995687 1.00351 0.995988
0.995381 0.999733 0.969618
0.994573 1 0.970397
1.00019 1.00201 0.992506
1.00013 1.00142 0.992834
0.999991 0.999997 0.9947
1.00022 1.00097 0.993226
1.00021 1.00137 0.992826
1.0001 1.00148 0.992819
1.00024 1.00114 0.993003
1.00031 1.00114 0.992801
1.00012 1.00123 0.993203
0.999728 1.00072 0.994268
1.0004 1.00106 0.992746
1.00023 1.00118 0.992998
1.00007 1.00144 0.993016
1.00025 1.00132 0.992776
1.00031 1.0013 0.992679
1.00016 1.00174 0.99253
0.999994 1.00213 0.992435
0.999977 1.00266 0.991934
0.999849 1.00395 0.990942
1.00009 1.00246 0.992051
0.999924 1.00334 0.991456
1.00005 1.00399 0.990257
1.00013 1.00362 0.990704
1.00004 1.00291 0.991626
1.00007 1.00365 0.990769
1.00011 1.00184 0.992535
1.00004 1.00267 0.991889
0.999796 1.00317 0.99175
0.999999 1.00232 0.992374
1.0001 1.00141 0.992944
1.00014 1.00041 0.993886
1.00011 1.00106 0.993323
1.00015 1.00016 0.994122
1.0001 0.999155 0.995213
1.00016 1.00004 0.994223
1.00013 0.999038 0.995259
0.999968 0.997385 0.997578
1.00016 0.998957 0.995285
1.00003 0.997286 0.997383
0.999958 0.996201 0.99853
1.00007 0.997202 0.997175
0.99999 0.996123 0.998953
0.999997 0.996089 0.999377
1.00017 1.00023 0.993921
1.00014 0.998916 0.995217
1.00015 1.00004 0.99429
1.00009 0.997058 0.9973
1.00016 0.998755 0.995414
1.00014 0.999875 0.994341
1.00001 0.995952 0.999417
1.00011 0.996956 0.997361
1.00018 0.998648 0.995567
1.00002 0.995918 0.999425
1.00011 0.996923 0.99738
1.00002 0.995949 0.999417
1.0052 0.997788 0.97785
0.997175 0.997137 0.971553
0.997968 0.994916 0.964702
1.0002 1.00107 0.993131
1.00719 0.997083 0.97926
1.00151 0.997609 0.977308
0.99672 0.996805 0.968125
1.0002 0.998284 0.986352
0.99847 0.998222 0.967985
0.995883 0.999666 0.964994
0.99834 0.996358 0.967885
0.998065 0.998926 0.982826
0.996094 1.00114 0.967224
0.996257 1.00021 0.966522
1.00084 0.997415 0.971116
0.997169 1.00198 0.979301
0.995529 1.00137 0.963216
0.995529 0.999627 0.96743
1.00102 0.998632 0.971164
1.00015 1.002 0.992273
1.00007 1.00185 0.992628
1.00005 1.00131 0.993253
1.00014 1.00162 0.992687
1.00009 1.00164 0.992806
1.00006 1.00128 0.993268
1.00015 1.00105 0.993354
1.00011 1.00094 0.993556
1.00301 1.00177 0.987917
1.00074 1.00228 0.990358
1.00006 1.00214 0.992353
1.00034 1.00316 0.991019
1.00033 1.00271 0.991365
1.00012 1.00247 0.991963
1.00017 1.00228 0.992006
1.00136 1.00293 0.990177
1.0003 1.00273 0.991305
1.00035 1.00282 0.991163
1.00036 1.00162 0.992068
1.00025 1.00207 0.992127
0.999767 0.999468 0.995092
0.999391 1.00316 0.992808
1.00033 1.00225 0.991514
1.00028 1.00233 0.991793
1.01646 0.996156 0.972717
1.00568 0.997968 0.978401
0.997511 0.99819 0.972684
0.999492 1.00222 0.993219
0.998591 1.00286 0.994498
1.00275 0.99737 0.982804
0.995589 1.00113 0.966456
0.997858 1.00262 0.984218
0.995482 0.999749 0.96747
1.00674 0.998361 0.978395
1.00357 0.997532 0.971979
0.998817 1.00254 0.994392
1.01391 0.996847 0.9752
1.01061 0.99897 0.97494
0.995896 1.0043 0.998325
1.00113 0.996887 0.971166
0.995007 0.999784 0.967871
0.995516 0.999809 0.967737
0.997928 1.00137 0.997795
1.02091 0.995121 0.967878
1.00707 0.99673 0.979725
0.998016 0.995842 0.970235
0.995517 0.999211 0.967682
0.995399 1.00025 0.99975
0.995051 1.00025 0.9651
1.00027 1.00165 0.992484
1.00002 1.00014 0.994544
0.998755 0.999538 0.997244
1.00025 1.00116 0.993007
1.00031 1.00112 0.992792
1.00018 1.0012 0.993033
1.00037 1.00115 0.992725
0.999863 1.00046 0.99425
0.999699 1.00184 0.993132
1.0003 1.00131 0.992674
1.00019 1.00168 0.992581
1.00009 1.00212 0.992375
0.999594 1.00384 0.991472
0.99994 1.00267 0.991988
0.999758 1.00382 0.991112
0.999997 1.00477 0.989836
1.00056 1.00384 0.989683
1.00003 1.00333 0.991415
1.00014 1.00413 0.990056
1.00027 1.0032 0.991084
0.999938 1.00324 0.991341
1.00013 1.00351 0.99082
1.00011 1.00213 0.992277
1.00007 1.00289 0.991615
1.00002 1.00365 0.990784
1.00015 1.00078 0.993531
1.00011 1.00182 0.992513
1.00005 1.0027 0.99182
1.0001 1.00138 0.993031
1.00014 1.00042 0.993878
1.00005 0.999357 0.995096
1.00015 1.00017 0.994114
1.0001 0.999151 0.99521
0.999928 0.99753 0.997118
1.00014 0.99903 0.99526
0.999985 0.997393 0.997151
0.999868 0.996312 0.999374
1.00004 0.99728 0.99717
0.999948 0.996204 0.998953
0.999965 0.996148 0.999377
1.0002 1.00031 0.993771
1.00013 0.999134 0.995007
1.00018 1.00024 0.993987
1.00006 0.997205 0.997207
1.00014 0.998933 0.995193
1.00016 1.00005 0.994286
0.999993 0.996028 0.999402
1.00009 0.997048 0.997304
1.00015 0.998765 0.995331
1.00002 0.995943 0.99942
1.00011 0.996949 0.997363
1.00002 0.995918 0.999425
1.01583 0.995857 0.972894
1.00491 0.99795 0.978182
0.997136 0.996835 0.971782
1.00019 1.00108 0.993152
1.00024 1.00111 0.992983
1.00015 1.00161 0.992743
1.00979 0.998847 0.974747
1.00667 0.997596 0.979674
1.00133 0.997422 0.977423
0.997579 0.999579 0.985897
0.996579 1.00057 0.964616
0.995518 1.00004 0.965358
1.0012 0.996632 0.971255
0.996526 1.0014 0.983117
0.995671 1.00165 0.965048
0.995065 0.999919 0.969849
1.00213 0.998343 0.971662
0.99669 1.00156 0.98257
0.995102 1.00084 0.967677
0.994627 1.00003 0.970657
1.00158 0.996417 0.973291
1.00022 1.00196 0.99222
1.00015 1.00203 0.992264
1.00007 1.00189 0.992591
1.00014 1.00163 0.99268
1.00008 1.00162 0.992894
1.00015 1.00105 0.993372
1.00193 1.00295 0.990386
1.00033 1.00112 0.991856
1.00016 1.00234 0.992018
1.00041 1.00289 0.991104
1.00027 1.00274 0.991431
1.00027 1.00201 0.99208
1.00026 1.00231 0.991814
0.999941 1.00047 0.995027
1.00034 1.00228 0.991652
0.998965 1.00289 0.994024
1.00023 1.00184 0.992313
0.997656 0.999675 0.998674
0.998481 1.00072 0.997289
1.00019 1.00214 0.991977
1.02456 0.994232 0.964056
1.01819 0.995784 0.970729
1.00644 0.998066 0.977473
0.998907 1.00278 0.993977
0.996214 1.00187 0.998241
1.01382 0.996882 0.975517
0.995119 1.00094 0.975676
0.996284 0.999917 0.969651
1.01147 0.999234 0.974682
1.00162 0.996376 0.971281
0.99802 1.00131 0.997638
1.02199 0.994964 0.966539
1.00653 0.997418 0.980078
0.995171 1.0012 0.993061
0.997894 0.996137 0.969491
0.995121 0.999907 0.969537
0.995018 1.00017 0.96925
0.996827 1.002 1.00125
1.01566 0.995951 0.973119
1.00167 0.997495 0.97741
0.996055 0.994955 0.967006
0.995289 0.99893 0.967781
0.994973 1.00006 0.968622
0.995263 1.00007 0.99009
1.00003 1.0003 0.99439
0.998892 0.99924 0.997201
0.998635 1.0014 0.995921
1.00034 1.00121 0.992704
1.00001 1.00017 0.994232
0.999575 1.00202 0.993249
0.999561 1.0028 0.992593
1.00019 1.00211 0.992315
0.999826 1.00377 0.991292
0.999971 1.00479 0.989841
0.999663 1.00369 0.991281
1.00005 1.00473 0.989817
1.00071 1.00482 0.988703
1.00099 1.00421 0.988601
1.00034 1.00311 0.990649
1.00055 1.00394 0.989573
1.00023 1.00426 0.989854
1.00023 1.00284 0.99143
1.0002 1.00306 0.99122
1.00002 1.00265 0.991826
0.999978 1.0032 0.991414
1.00013 1.0034 0.990936
1.00015 1.00116 0.99313
1.00011 1.00211 0.992285
1.0001 1.00287 0.991604
1.00002 0.999654 0.994864
1.00014 1.00077 0.99353
1.00012 1.0018 0.992491
1.00014 1.00044 0.99387
1.00005 0.999358 0.995091
0.99986 0.997728 0.997047
1.0001 0.999146 0.995208
0.999932 0.997534 0.997116
0.999822 0.996456 0.999363
0.99999 0.997392 0.997151
0.99989 0.996327 0.998945
0.999922 0.996234 0.999374
1.00022 1.00041 0.993735
1.00013 0.999284 0.994996
1.0002 1.00032 0.993819
1.00002 0.997395 0.99709
1.00013 0.999147 0.995068
1.00018 1.00024 0.994052
0.999961 0.996148 0.999378
1.00006 0.997194 0.997213
1.00014 0.998952 0.995169
0.999996 0.996014 0.999407
1.00009 0.997038 0.997307
1.00002 0.995933 0.999423
1.02117 0.99528 0.967117
1.01548 0.996184 0.973207
1.00461 0.998131 0.978519
1.00024 1.00121 0.992873
1.00019 1.00175 0.992517
1.00019 1.0011 0.993173
1.00023 1.00113 0.992969
1.00016 1.00161 0.992685
1.00018 1.00162 0.992645
1.00015 1.00189 0.992403
1.00758 0.998113 0.977132
1.0107 0.999277 0.974382
1.00614 0.998145 0.980088
1.00325 0.9978 0.97216
0.995705 1.001 0.979931
0.995611 1.00226 0.966952
0.994883 1.0003 0.967741
0.996074 1.00045 0.980785
0.995184 1.00015 0.965177
0.995512 0.9998 0.968256
1.0001 0.996942 0.973474
0.995809 0.998136 0.98839
0.994928 1.00021 0.965294
0.99666 1.00025 0.969058
0.9982 0.995762 0.971436
1.00025 1.00188 0.992303
1.00022 1.00193 0.992213
1.00013 1.00204 0.992254
1.00014 1.00164 0.992674
1.00017 1.00208 0.994953
0.998598 1.00259 0.995237
1.00029 1.00194 0.992034
1.00025 1.00228 0.991834
1.00033 1.00237 0.99179
1.00024 1.00185 0.992269
1.00017 1.00218 0.991917
0.997089 1.00092 0.998416
0.998577 1.00055 0.997599
1.00008 1.00206 0.992311
0.995856 0.997851 1.00199
0.999093 1.00273 0.994749
1.01664 0.99647 0.972236
1.02649 0.9936 0.961811
1.01994 0.995345 0.96874
0.998156 1.00122 0.997499
0.995375 1.00023 0.999855
1.02308 0.994835 0.965201
0.994983 1.00026 0.965449
0.994702 0.999998 0.967941
1.00598 0.998105 0.980431
0.998495 0.996066 0.968578
0.996946 1.00163 1.00131
1.0153 0.996277 0.973431
1.00149 0.997443 0.977524
0.995262 1.00007 0.995323
0.995854 0.995595 0.964717
0.995907 0.999485 0.967693
0.995086 1.00012 0.967555
0.996746 1.00295 0.999074
1.00512 0.998133 0.977739
0.996651 0.996787 0.969597
0.996003 0.999356 0.966261
0.995622 1.00013 0.968388
0.995202 1.00011 0.985293
0.999118 0.998855 0.997157
0.998566 1.00168 0.995892
1.00039 0.999206 0.995769
0.999433 1.0022 0.993366
0.999293 1.00285 0.99275
1.00025 1.00366 0.990515
1.00007 1.00368 0.991112
1.00009 1.0048 0.98971
1.0008 1.00465 0.988324
1.0001 1.00471 0.989798
1.00076 1.00481 0.988547
1.00119 1.00451 0.987763
1.00158 1.00348 0.988097
1.00099 1.00343 0.989555
1.00103 1.0043 0.988412
1.00031 1.0026 0.991192
1.00036 1.0031 0.990722
1.00054 1.00404 0.989462
1.00021 1.00268 0.991558
1.00021 1.00288 0.991411
1.00012 1.00293 0.991357
1.00014 1.0016 0.992671
1.00004 1.00258 0.991898
1.00002 1.00315 0.991488
1.00001 0.999997 0.99452
1.00015 1.00114 0.993133
1.00012 1.0021 0.992292
0.999806 0.997961 0.996934
1.00001 0.999659 0.994858
1.00014 1.00076 0.993529
1.00005 0.999358 0.995086
0.999866 0.997737 0.997041
0.999749 0.996633 0.999348
0.999936 0.997539 0.997114
0.999812 0.996478 0.999359
0.999868 0.99635 0.999367
1.00023 1.00131 0.992834
1.00024 1.00051 0.993591
1.00012 0.99942 0.99488
1.00022 1.00041 0.993735
0.99998 0.997582 0.99698
1.00013 0.999296 0.994996
1.00019 1.00033 0.993866
0.999918 0.996304 0.99935
1.00002 0.997382 0.997096
1.00014 0.999158 0.995128
0.999965 0.996128 0.999386
1.00006 0.997183 0.997218
0.999999 0.995997 0.999412
1.01423 0.997048 0.974229
1.02222 0.995238 0.965834
1.01512 0.996492 0.973521
1.00023 1.00122 0.992899
1.0002 1.00175 0.992474
1.00016 1.00203 0.99221
1.00017 1.0017 0.992504
1.00016 1.0021 0.992244
1.00022 1.00115 0.992955
1.00018 1.00159 0.992627
1.00016 1.00163 0.992649
1.00019 1.00187 0.992369
1.00012 1.00198 0.992429
1.00199 0.997024 0.977621
1.00717 0.998415 0.977546
1.01164 0.999811 0.974016
0.999512 0.996807 0.973796
0.99625 0.999967 0.970104
0.995519 0.999978 0.979104
0.995087 1.0001 0.967603
0.995669 0.997017 0.983231
0.994959 1.00017 0.968012
0.995529 0.999732 0.968554
0.997767 0.996235 0.970475
0.994951 0.995299 0.988039
0.995067 0.99999 0.968663
0.995683 1.00001 0.966187
0.995851 0.996286 0.966352
0.999932 1.00164 0.993041
1.00021 1.00195 0.992281
1.00022 1.00191 0.992205
0.996483 1.00174 0.99816
0.998641 1.00026 0.99793
1.00025 1.00186 0.992225
1.00016 1.00224 0.991857
1.00005 1.00202 0.992374
0.998929 1.00271 0.994471
0.995992 0.997379 1.00204
0.998803 1.00311 0.993627
0.997341 1.00173 0.997127
1.00465 0.998707 0.978781
1.01832 0.995982 0.970332
1.02836 0.993093 0.959566
0.996863 1.00133 1.00134
0.995283 1.00001 0.988048
1.01495 0.996596 0.973742
0.995239 1.00008 0.963936
0.995492 0.998976 0.967058
1.0013 0.99729 0.977639
0.995647 0.99624 0.962431
0.996814 1.003 0.999283
1.00483 0.998255 0.97808
0.996723 0.996634 0.96864
0.995121 1.00007 0.987743
0.995897 0.999271 0.964871
0.995739 0.999594 0.965369
0.998395 1.00088 0.996844
0.996897 0.997687 0.972759
0.997045 0.997442 0.964285
0.996813 0.999945 0.9654
0.995202 1.00031 0.987024
0.998531 1.00194 0.995863
1.00018 0.998957 0.995755
1.00201 0.998374 0.992513
0.999038 1.00289 0.992907
0.999998 1.00362 0.990752
1.00124 1.00308 0.989013
1.0002 1.00482 0.989578
1.00082 1.00465 0.988316
1.00184 1.00347 0.98768
1.00082 1.0048 0.988391
1.0012 1.00447 0.987792
1.00209 1.0026 0.987979
1.00221 1.00173 0.988587
1.0013 1.00309 0.988936
1.00159 1.00337 0.988132
1.00075 1.00287 0.990422
1.00092 1.00352 0.989388
1.00106 1.0044 0.988223
1.00034 1.00235 0.99158
1.00031 1.00257 0.991292
1.00037 1.00309 0.990794
1.00018 1.00196 0.992264
1.00019 1.00267 0.991592
1.00018 1.00292 0.991391
1.00001 1.00046 0.994063
1.00015 1.00161 0.992673
1.00006 1.00252 0.99197
0.999736 0.998242 0.997221
1.00001 1.00001 0.994512
1.00015 1.00113 0.993136
0.999688 0.996881 0.998381
0.999801 0.997993 0.997136
1.00001 0.999664 0.994852
0.999872 0.997746 0.997036
0.999739 0.996668 0.99934
0.999802 0.996502 0.999355
1.0002 1.0016 0.992566
1.00026 1.00067 0.993412
1.00023 1.00134 0.992797
1.0001 0.999557 0.99479
1.00024 1.00052 0.993591
0.999933 0.997752 0.996896
1.00012 0.999431 0.994881
1.00023 1.00041 0.993735
0.999869 0.996468 0.999324
0.999977 0.997574 0.996985
1.00013 0.99931 0.994996
0.999923 0.996278 0.999358
1.00002 0.997371 0.997102
0.999969 0.996105 0.999393
1.0038 0.998088 0.980789
1.01416 0.997076 0.974528
1.02327 0.995253 0.96455
1.00011 1.00226 0.992139
1.00023 1.00124 0.992925
1.00021 1.00176 0.992431
1.00018 1.00171 0.992546
1.00017 1.00201 0.992253
1.00016 1.00206 0.992231
1.00015 1.00233 0.991999
1.0001 1.00213 0.992205
1.00015 1.00164 0.992653
1.00021 1.00185 0.992334
1.00011 1.00198 0.992413
1.0001 1.00232 0.99241
0.996698 0.997307 0.967307
1.00174 0.997377 0.97774
1.00678 0.998642 0.977958
0.997846 0.99596 0.969767
0.995721 0.999866 0.967766
0.994931 1.0002 0.965327
0.995469 0.995903 0.986873
0.994911 0.995116 0.992649
0.995796 0.996294 0.964297
0.994914 1.00014 0.964953
0.995762 0.999775 0.967202
0.995701 0.997644 0.990785
0.995636 0.99939 0.969808
0.996008 0.999801 0.965406
0.999382 1.0015 0.99414
1.00004 1.00159 0.993048
1.00016 1.00203 0.99226
0.99617 0.996796 1.00207
0.998912 1.0026 0.994194
1 1.00198 0.992436
0.999126 1.00305 0.993501
0.996976 1.00188 0.997229
0.998505 1.00129 0.994989
0.997332 0.998053 0.969931
1.00567 0.99845 0.978829
1.02001 0.995431 0.968427
0.996907 1.00308 0.999545
0.994916 1.00012 0.989478
1.00452 0.998481 0.978425
0.995785 0.998727 0.96927
0.995849 0.999462 0.965352
0.996731 0.996518 0.968471
0.998052 1.00077 0.997012
0.997053 0.997285 0.971749
0.996588 0.997556 0.965494
0.995203 1.00076 0.982718
0.996356 1.00017 0.967752
0.999363 1.00017 0.995728
0.998104 0.995302 0.965505
0.997613 0.999872 0.96712
0.996089 1.00067 0.980246
0.999938 0.99879 0.995742
1.00173 0.998297 0.993146
1.00281 0.997363 0.991351
0.999757 1.00356 0.99099
1.00128 1.00292 0.989031
1.00292 1.00026 0.988624
1.00084 1.0046 0.988308
1.00183 1.00325 0.987717
1.00308 1.00027 0.988451
1.0012 1.00445 0.987821
1.00209 1.00247 0.988015
1.00287 0.999919 0.989149
1.00261 0.999992 0.989613
1.00189 1.00193 0.989004
1.0022 1.00162 0.98871
1.001 1.00263 0.989763
1.00132 1.00306 0.989029
1.0016 1.00325 0.988166
1.00049 1.0024 0.991247
1.00065 1.00288 0.990423
1.00084 1.0036 0.989221
1.00028 1.00198 0.992073
1.00037 1.00234 0.991571
1.00031 1.00254 0.991392
0.999988 1.00104 0.993557
1.0002 1.00194 0.992277
1.00017 1.00265 0.991625
0.99969 0.998557 0.996532
1.00001 1.00047 0.994055
1.00016 1.00161 0.992675
0.999574 0.997138 0.999281
0.999745 0.998285 0.996717
1 1.00002 0.994504
0.999668 0.996878 0.999313
0.999808 0.99801 0.996895
0.999729 0.996703 0.999332
1.00014 1.00189 0.99247
1.00021 1.00159 0.992578
1.00022 1.00096 0.993181
1.00007 0.999705 0.994687
1.00025 1.00067 0.993413
1.00023 1.00136 0.992759
0.999888 0.997903 0.996834
1.0001 0.999555 0.994792
1.00024 1.00052 0.993591
0.999813 0.996629 0.999304
0.99993 0.997746 0.996899
1.00012 0.999438 0.994882
0.999874 0.996444 0.999332
0.999973 0.997565 0.996989
0.999928 0.996252 0.999367
0.996956 0.998089 0.97057
1.0036 0.998095 0.98112
1.01409 0.997087 0.974827
1.00011 1.0023 0.9921
1.00009 1.00247 0.992046
1.00011 1.00247 0.991933
1.00018 1.00172 0.992588
1.00018 1.00199 0.992297
1.00016 1.00202 0.992217
1.00011 1.00214 0.992198
1.00014 1.00233 0.991989
0.999988 1.00289 0.991786
1.00006 1.00209 0.992289
1.00011 1.00199 0.992396
1.00005 1.00221 0.99242
0.997078 0.997781 0.964802
0.996548 0.997656 0.96661
1.00146 0.99761 0.97786
0.995818 0.996316 0.962235
0.995145 0.999996 0.966002
0.995363 1.00016 0.970522
0.994986 0.995112 0.987714
0.995453 0.997716 0.986679
0.995978 0.998979 0.964422
0.995428 0.999812 0.968295
0.997284 0.996329 0.986026
0.996653 1.00061 0.965341
1.00044 1.00187 0.992554
0.999574 1.0013 0.994054
1.00013 1.00153 0.993055
0.996419 1.00212 0.997335
0.999413 1.003 0.993374
0.999189 1.00154 0.994579
1.00168 0.99939 0.991763
0.998147 0.994776 0.964421
0.997241 0.998286 0.971307
1.0067 0.998137 0.978875
0.997779 1.00057 0.997176
0.995142 1.00042 0.985364
0.997014 0.996882 0.972003
0.996351 1.00023 0.96502
0.997115 0.998667 0.964841
0.999508 1.00008 0.99535
0.997926 0.995223 0.964621
0.998432 0.998473 0.96422
0.995794 1.00098 0.984141
1.00049 1.00131 0.993041
0.998797 0.997185 0.964308
0.998142 0.998894 0.985372
1.00141 0.998228 0.993777
1.00257 0.997966 0.991219
1.00416 0.996079 0.989748
1.00131 1.00278 0.989047
1.00296 1.00011 0.988561
1.00434 0.99679 0.989213
1.00183 1.00306 0.987754
1.00306 1.00008 0.98845
1.00401 0.997038 0.989805
1.00209 1.00234 0.988052
1.00287 0.999808 0.989161
1.00322 0.998082 0.990227
1.00288 0.999006 0.990218
1.0026 0.999868 0.98974
1.00232 1.00053 0.989607
1.00168 1.00184 0.989539
1.0019 1.00197 0.989021
1.00219 1.00151 0.988834
1.00081 1.00234 0.990515
1.00104 1.00264 0.989884
1.00135 1.00302 0.989122
1.00038 1.00197 0.991865
1.00051 1.0024 0.991228
1.00056 1.00289 0.990425
1.00001 1.00134 0.993192
1.00031 1.00195 0.99208
1.0004 1.00234 0.991563
0.999633 0.998933 0.996237
1 1.00098 0.993559
1.00021 1.00193 0.992291
0.999535 0.99736 0.999237
0.999687 0.998594 0.996514
1.00001 1.00046 0.994046
0.999593 0.997155 0.998789
0.999752 0.998295 0.996714
0.999655 0.996945 0.999295
1.00013 1.00213 0.992232
1.00014 1.00191 0.992421
1.00016 1.00134 0.992935
1.00021 1.00159 0.99259
1.00022 1.00096 0.99318
1.00002 0.99998 0.994507
0.999839 0.998046 0.996783
1.00007 0.999699 0.994692
1.00024 1.00069 0.993415
0.999749 0.996786 0.999288
0.999883 0.997899 0.996837
1.0001 0.999555 0.994794
0.999819 0.99661 0.99931
0.999926 0.997741 0.996902
0.99988 0.99642 0.999339
0.997652 0.996015 0.965005
0.996779 0.998384 0.969683
1.0034 0.998109 0.981448
1.0001 1.00234 0.992061
1.00009 1.00254 0.991871
1.00005 1.00245 0.99209
1.00013 1.0025 0.991948
1.00001 1.00277 0.991847
1.00012 1.00215 0.99219
1.00014 1.00233 0.99198
0.999959 1.0028 0.99182
0.999827 1.00284 0.991705
1.00002 1.0026 0.991832
1.00113 1.0024 0.990479
0.999916 1.00243 0.992334
1.00002 1.0021 0.992429
0.998729 0.99867 0.963728
0.996767 0.998285 0.964609
0.996308 0.998015 0.966539
0.996282 0.999111 0.964929
0.995407 1.00044 0.964892
0.995223 0.997741 0.99155
0.99745 0.996532 0.988508
0.996747 0.998668 0.968757
1.00046 0.997009 0.983758
1.00272 1.0002 0.989349
1.00003 1.00173 0.992509
0.999725 1.0011 0.993966
0.999718 1.00174 0.994174
1.00234 0.99934 0.991212
0.998959 0.996041 0.965064
0.998095 0.995144 0.964747
0.997147 0.998606 0.972689
0.999757 1.00003 0.994961
0.995413 1.00141 0.980549
0.998071 0.99494 0.964492
0.997912 0.999178 0.96744
1.00099 1.00076 0.993038
0.999703 0.996057 0.96703
0.997677 0.999844 0.981828
1.00258 1.00265 0.988732
1.00058 0.996883 0.989345
1.00237 0.998608 0.991083
1.00387 0.996968 0.989575
1.00507 0.996259 0.988197
1.00296 0.999981 0.988501
1.00425 0.997056 0.98913
1.00493 0.995658 0.989233
1.00306 0.999879 0.988451
1.00392 0.997118 0.989731
1.00411 0.996458 0.990211
1.00287 0.999697 0.989174
1.00321 0.998142 0.990183
1.00334 0.997901 0.990264
1.00281 0.998855 0.99036
1.00274 0.999546 0.989938
1.00259 0.999756 0.989868
1.00232 1.00055 0.989578
1.00216 1.00082 0.989637
1.00134 1.0018 0.990054
1.00167 1.00187 0.989518
1.00191 1.00201 0.989039
1.00059 1.002 0.991443
1.00079 1.00234 0.990599
1.00107 1.00264 0.990004
1.00002 1.00148 0.992972
1.00042 1.00196 0.991851
1.00054 1.00241 0.99121
0.999599 0.999331 0.995875
1.00003 1.0013 0.993202
1.00033 1.00192 0.992086
0.999488 0.997618 0.999179
0.999624 0.998989 0.99622
1.00001 1.00093 0.993561
0.999533 0.9974 0.999221
0.999684 0.998634 0.996496
0.999587 0.997191 0.999254
1.00018 1.00231 0.991983
1.00012 1.00212 0.992237
1.00014 1.00168 0.992582
1.00015 1.00192 0.992372
1.00016 1.00139 0.992876
0.999983 1.00039 0.994164
1.00022 1.00096 0.993179
1.00003 0.999961 0.994512
0.999772 0.998263 0.996699
0.999677 0.996949 0.999276
0.999834 0.998045 0.996787
1.00008 0.999689 0.994697
0.999758 0.99677 0.999293
0.999878 0.997894 0.99684
0.999825 0.99659 0.999316
0.999755 0.997028 0.966713
0.997557 0.995876 0.965285
0.996429 0.998672 0.969862
1.00007 1.00263 0.991809
1 1.00243 0.992135
1.00002 1.00276 0.991873
1.00011 1.0025 0.991945
1.00015 1.0028 0.991606
0.999924 1.00269 0.991916
0.999933 1.0027 0.991855
0.999934 1.003 0.991546
0.99992 1.00286 0.991763
1.00022 1.00236 0.991344
1.0014 1.00219 0.990715
1.00272 1.00104 0.988448
1.00091 1.00227 0.990646
0.999771 1.00277 0.99238
1.00045 0.997062 0.982544
0.998239 0.998956 0.965288
0.996851 0.997979 0.964369
0.997197 1.00023 0.965297
0.997605 0.996564 0.990915
1.0005 0.996972 0.987807
1.00402 0.996853 0.990411
1.00277 0.999762 0.989807
0.999869 1.00161 0.99246
1.00342 0.999464 0.990649
0.998972 0.999056 0.983218
0.999554 0.996255 0.968584
0.998032 0.995435 0.965452
1.00136 1.00062 0.993035
0.997462 1.00076 0.983884
0.999237 0.995836 0.969925
1.00272 1.00189 0.988984
1.00011 0.998068 0.987429
1.00437 1.00025 0.987408
1.00467 0.997832 0.988733
1.00363 0.997765 0.989401
1.00492 0.996445 0.988189
1.00495 0.997325 0.987629
1.00417 0.997274 0.989043
1.00482 0.99598 0.989179
1.00476 0.997031 0.988385
1.00382 0.997234 0.989658
1.00398 0.996692 0.990156
1.00401 0.997578 0.989318
1.00319 0.998208 0.990139
1.00323 0.997988 0.990324
1.00313 0.998934 0.989605
1.00273 0.998707 0.990501
1.00271 0.999439 0.990003
1.00261 1.0001 0.989649
1.00233 1.00056 0.989549
1.00216 1.00085 0.989614
1.00193 1.00104 0.989948
1.00095 1.00168 0.990871
1.00132 1.00182 0.990137
1.00166 1.00191 0.989496
1.0001 1.00164 0.992676
1.00061 1.00199 0.991435
1.00079 1.00234 0.990682
0.999541 0.999842 0.995497
1.00004 1.00149 0.992975
1.00045 1.00196 0.991837
0.999459 0.997884 0.999095
0.999594 0.99939 0.995867
1.00005 1.00125 0.993211
0.999491 0.997658 0.999154
0.999618 0.999042 0.996204
0.999532 0.997438 0.999205
1.00023 1.00253 0.991688
1.00019 1.0023 0.992013
1.00016 1.00196 0.992337
1.00012 1.00211 0.992242
1.00014 1.00172 0.992545
0.999975 1.00084 0.993726
1.00015 1.00143 0.992816
0.999985 1.00039 0.994168
0.999697 0.998573 0.99653
1.00004 0.999942 0.994518
0.99977 0.998244 0.996707
0.999601 0.997157 0.999254
0.999689 0.996933 0.99928
0.999828 0.998042 0.996791
0.999766 0.996755 0.999298
0.999775 0.998153 0.982566
0.999503 0.996606 0.964341
0.997955 0.995951 0.964428
1.00057 1.00253 0.991042
1.00002 1.00276 0.9919
1.00008 1.0025 0.991942
0.999965 1.00276 0.991897
1.00011 1.00285 0.991578
1.0001 1.00212 0.99209
1.00004 1.0032 0.991388
0.999885 1.00314 0.991695
1.00037 1.00236 0.991469
1.00112 1.00216 0.990844
1.00232 1.00102 0.989105
1.0046 0.998467 0.986929
1.00264 1.00085 0.988422
1.00076 1.00205 0.990814
1.00392 0.996091 0.991683
1.00027 0.997655 0.980935
0.998242 0.998887 0.967327
1.0004 0.9968 0.984448
1.00406 0.996519 0.990814
1.00248 0.99919 0.990278
1.00311 0.998979 0.989935
0.998849 0.998373 0.985917
0.999205 0.996003 0.965065
1.00291 1.00064 0.989226
1.00014 0.999112 0.985281
1.00436 0.999442 0.987444
1.00465 0.997981 0.989148
1.00488 0.997327 0.987553
1.00507 0.997658 0.987423
1.00473 0.996678 0.988182
1.005 0.997079 0.987714
1.00462 0.998259 0.9874
1.00477 0.996259 0.989126
1.00475 0.997007 0.988386
1.00443 0.998368 0.987722
1.00385 0.996902 0.9901
1.00386 0.997634 0.989524
1.0037 0.99867 0.988695
1.00312 0.99807 0.990385
1.00311 0.998945 0.989607
1.00298 0.999618 0.989213
1.00267 0.999332 0.990068
1.00259 1.00002 0.989666
1.00234 1.00047 0.989677
1.00216 1.00088 0.98959
1.00189 1.00105 0.9899
1.0015 1.00119 0.990559
1.0004 1.00149 0.992286
1.00094 1.00169 0.990956
1.00129 1.00184 0.990221
0.999484 1.00038 0.995084
1.00012 1.00164 0.992676
1.00063 1.00198 0.991427
0.99938 0.998212 0.998997
0.999567 0.999824 0.995491
1.00006 1.00148 0.992979
0.999446 0.997927 0.999065
0.999589 0.999436 0.995858
0.999492 0.997693 0.999128
1.00044 1.00248 0.991184
1.00022 1.0025 0.991698
1.00025 1.00209 0.992095
1.00019 1.00228 0.992043
1.00015 1.00195 0.992358
0.99997 1.00124 0.993348
1.00013 1.00177 0.992508
0.999964 1.00088 0.993723
0.999615 0.998967 0.996282
0.999986 1.00039 0.994171
0.999699 0.998537 0.996546
0.999532 0.997397 0.999213
0.999771 0.998228 0.996716
0.999613 0.997123 0.999262
0.999699 0.996918 0.999284
1.00359 0.996795 0.991097
0.999785 0.998293 0.9793
0.999285 0.997219 0.967088
1.00064 1.00184 0.991346
1.00154 1.00172 0.990006
1.00039 1.00257 0.991134
1.00001 1.0028 0.991878
1.00007 1.00291 0.99155
1.00028 1.00208 0.991963
1.00228 1.00081 0.989498
1.00047 1.00237 0.991594
1.0007 1.00212 0.990972
1.00229 1.00096 0.98921
1.00418 0.999025 0.987142
1.00505 0.996771 0.987581
1.0046 0.998554 0.986976
1.00266 1.00075 0.988394
1.00408 0.996082 0.991868
1.00019 0.998154 0.978606
1.00435 0.996332 0.991203
1.00428 0.996859 0.990101
1.00289 0.998579 0.990223
0.999219 0.997901 0.981743
1.00438 0.998771 0.98749
1.00463 0.998156 0.989514
1.00478 0.997274 0.987726
1.00509 0.99732 0.987519
1.00456 0.99781 0.987843
1.00475 0.996724 0.988496
1.00508 0.996762 0.987799
1.00473 0.998036 0.987411
1.00445 0.998475 0.987446
1.00472 0.997087 0.988387
1.00438 0.998262 0.987911
1.00413 0.998663 0.987884
1.0037 0.997696 0.989729
1.00374 0.998672 0.98867
1.00356 0.999207 0.988479
1.0031 0.998956 0.989609
1.00299 0.999615 0.98921
1.00273 1.00011 0.989222
1.00256 0.999952 0.989683
1.0023 1.00044 0.989685
1.00187 1.00076 0.99024
1.00184 1.00107 0.989851
1.00145 1.00118 0.990539
1.00078 1.00111 0.991918
0.999524 1.00063 0.994722
1.0004 1.00149 0.992285
1.00094 1.00169 0.99104
0.999229 0.99869 0.998889
0.999545 1.0003 0.995075
1.00015 1.00164 0.992676
0.99935 0.998299 0.998964
0.99959 0.999824 0.995486
0.999436 0.997983 0.999035
1.00089 1.00223 0.990344
1.00044 1.00246 0.991101
1.0005 1.00203 0.991673
1.00021 1.00246 0.991708
1.00022 1.00208 0.992102
0.999973 1.00156 0.99307
1.00014 1.00195 0.992378
0.999943 1.00131 0.993342
0.999553 0.999399 0.995962
0.999952 1.00091 0.99372
0.999625 0.998914 0.996298
0.999474 0.99766 0.999151
0.999702 0.998501 0.996562
0.99954 0.997358 0.999227
0.999625 0.997098 0.99927
1.00487 0.996016 0.988571
1.00361 0.996813 0.990718
0.999999 0.997799 0.981097
1.00232 1.00079 0.989685
1.00046 1.00176 0.991798
1.00235 1.0007 0.988891
1.00156 1.00174 0.989943
1.0002 1.00263 0.991227
1.00401 0.999413 0.987506
1.00045 1.00203 0.991838
1.00234 1.00074 0.98938
1.00495 0.997831 0.987121
1.00228 1.00088 0.989314
1.00432 0.999022 0.987015
1.005 0.99693 0.987568
1.00444 0.99869 0.987021
1.00414 0.995962 0.992046
1.0043 0.996862 0.989356
1.0041 0.996781 0.990248
1.00265 0.998161 0.990507
1.00468 0.997169 0.9879
1.00511 0.997075 0.987613
1.00452 0.997719 0.987868
1.00485 0.996884 0.988299
1.00456 0.997831 0.988013
1.0048 0.997861 0.987421
1.00445 0.998521 0.987443
1.00427 0.998577 0.9877
1.00433 0.998139 0.9881
1.00417 0.998641 0.987862
1.004 0.998923 0.987931
1.00377 0.998675 0.988644
1.00358 0.99921 0.988462
1.00327 0.999674 0.988602
1.00299 0.999612 0.989208
1.00274 1.0001 0.989219
1.00229 1.00043 0.989734
1.00226 1.00042 0.989693
1.00186 1.00075 0.990245
1.00116 1.00076 0.991548
1.0014 1.00118 0.990518
1.00078 1.00113 0.991913
0.999587 1.00064 0.995293
0.999128 0.999399 0.997091
0.999585 1.00053 0.995113
1.00041 1.00151 0.992283
0.999202 0.998816 0.998851
0.999603 1.00023 0.995065
0.999326 0.998378 0.99893
1.00288 0.999723 0.989116
1.00151 1.00166 0.989733
1.001 1.00222 0.990244
1.00081 1.00187 0.991202
1.00044 1.00244 0.991019
1.00046 1.00203 0.991691
1.00005 1.00167 0.992839
1.0002 1.00207 0.99211
0.999947 1.00157 0.993068
0.999529 0.999841 0.99558
0.999917 1.00138 0.993336
0.999558 0.999352 0.995972
0.999409 0.997956 0.999063
0.999634 0.998863 0.996313
0.999479 0.997619 0.999172
0.99955 0.997318 0.999241
1.00463 0.997343 0.988183
1.00483 0.996279 0.989126
1.00367 0.997017 0.990344
1.00374 0.99938 0.987939
1.00203 1.00083 0.990044
1.00028 1.00167 0.992246
1.00254 1.00064 0.989027
1.00158 1.00177 0.989881
1.00489 0.998219 0.986944
1.00402 0.999468 0.987314
1.0024 1.0007 0.98926
1.00493 0.99788 0.987106
1.00451 0.999008 0.986887
1.00497 0.997038 0.987559
1.00449 0.997676 0.98828
1.00438 0.996806 0.98921
1.00389 0.996619 0.990394
1.0045 0.997615 0.987895
1.00497 0.997008 0.988102
1.00452 0.997868 0.988029
1.00435 0.998638 0.987575
1.00447 0.998555 0.987441
1.00426 0.998625 0.987698
1.00411 0.998988 0.987679
1.00421 0.998622 0.98784
1.00401 0.99892 0.987925
1.00368 0.999297 0.988208
1.0036 0.999213 0.988445
1.00328 0.999675 0.988594
1.00278 1.00006 0.989172
1.00274 1.00009 0.989216
1.0023 1.00042 0.989731
1.00153 1.00051 0.991082
1.00186 1.00075 0.990249
1.00116 1.00077 0.991539
0.999731 1.00056 0.995145
1.00078 1.00115 0.991908
0.999677 1.00062 0.995248
0.99898 0.999966 0.9969
0.999073 0.999415 0.997911
0.999662 1.00044 0.995482
0.999178 0.998929 0.998809
1.00381 0.999068 0.988125
1.00229 1.00065 0.989618
1.00274 0.999514 0.98964
1.00121 1.00165 0.990607
1.00163 1.00168 0.989708
1.00111 1.0022 0.990145
1.00077 1.00191 0.991211
1.00023 1.00163 0.992514
1.00043 1.00202 0.991709
1.00003 1.00165 0.99284
0.999532 1.00024 0.99519
0.999921 1.00159 0.993066
0.999513 0.999826 0.995587
0.999304 0.998356 0.998955
0.999562 0.999301 0.995982
0.99942 0.997909 0.999092
0.999485 0.997575 0.999192
1.00481 0.997762 0.987496
1.00468 0.997316 0.988139
1.00476 0.996502 0.989678
1.00465 0.998353 0.987148
1.00374 0.999405 0.987973
1.00177 1.00086 0.990405
1.00272 1.00055 0.989165
1.0049 0.998222 0.986916
1.00403 0.999517 0.987123
1.00489 0.997946 0.98709
1.0046 0.998207 0.987521
1.00452 0.997704 0.988122
1.00447 0.996774 0.989065
1.00437 0.998902 0.987258
1.00446 0.997927 0.988046
1.00434 0.998649 0.9876
1.00412 0.999136 0.987522
1.00426 0.998678 0.987696
1.0041 0.998988 0.987685
1.0038 0.999285 0.987996
1.00402 0.998918 0.98792
1.00368 0.9993 0.988204
1.00314 0.999712 0.988831
1.00329 0.999676 0.988586
1.00278 1.00006 0.989169
1.00191 1.00027 0.990591
1.0023 1.00042 0.989729
1.00154 1.00051 0.991067
0.999923 1.00037 0.995016
1.00116 1.00078 0.991529
0.999817 1.00055 0.995103
0.998924 1.0002 0.996823
0.99977 1.00058 0.995201
0.998925 1.00003 0.996946
0.99898 0.999395 0.998786
1.00431 0.998981 0.987418
1.00332 0.999564 0.988665
1.00371 0.999164 0.988297
1.00185 1.00102 0.990205
1.00228 1.00056 0.989626
1.00261 0.999327 0.990159
1.0006 1.00147 0.991956
1.00121 1.00166 0.990601
1.00174 1.0017 0.989682
1.00073 1.00194 0.991219
1.00021 1.00163 0.992518
0.999561 1.00057 0.994818
1.00001 1.00163 0.99284
0.999485 1.00029 0.995193
0.999146 0.998884 0.998846
0.999498 0.999806 0.995592
0.999326 0.998274 0.99899
0.999429 0.997859 0.999121
1.00486 0.997901 0.98729
1.00489 0.99775 0.987357
1.00476 0.997277 0.988095
1.00468 0.998255 0.987231
1.00374 0.999441 0.988006
1.0049 0.998214 0.986888
1.00465 0.998484 0.987136
1.0046 0.998247 0.987462
1.00457 0.997729 0.987964
1.00437 0.998815 0.987347
1.00424 0.999214 0.987266
1.00432 0.998654 0.987625
1.00412 0.999162 0.987529
1.00383 0.999431 0.987729
1.0041 0.998988 0.987691
1.00379 0.99929 0.987997
1.00328 0.999645 0.988631
1.00368 0.9993 0.988201
1.00314 0.999712 0.988829
1.00218 1.00002 0.990304
1.00278 1.00006 0.989166
1.00192 1.00026 0.99058
1.00018 1.00014 0.994845
1.00155 1.0005 0.991051
1 1.00038 0.994963
0.998972 1.00024 0.996744
0.99991 1.00051 0.995059
0.998869 1.00027 0.996867
0.998868 1.00011 0.996997
1.00453 0.998325 0.987408
1.00386 0.999236 0.987905
1.00431 0.998936 0.987375
1.00263 1.00014 0.98948
1.00329 0.999621 0.988741
1.0036 0.999249 0.988472
1.00112 1.00098 0.991369
1.00183 1.00096 0.990068
1.00227 1.00045 0.989634
0.999661 1.00076 0.994436
1.00059 1.00145 0.991967
1.00121 1.00167 0.990595
1.00019 1.00163 0.992522
0.999483 1.00067 0.994828
0.998984 0.999488 0.99874
0.999432 1.00036 0.995198
0.999176 0.998775 0.998882
0.999355 0.998197 0.999025
1.00475 0.998039 0.987405
1.00486 0.997924 0.987289
1.00495 0.997746 0.987218
1.00472 0.998159 0.987314
1.00461 0.998727 0.987041
1.00467 0.998481 0.987147
1.0046 0.998289 0.987402
1.00438 0.998731 0.987436
1.00427 0.999158 0.987232
1.00406 0.999446 0.987404
1.00413 0.99919 0.987535
1.00383 0.999454 0.987787
1.00337 0.999679 0.988305
1.00378 0.999298 0.987997
1.00328 0.999645 0.98863
1.00231 0.999913 0.990153
1.00313 0.999716 0.988827
1.0022 1.00001 0.990301
1.00035 0.999969 0.993766
1.00194 1.00024 0.990568
1.00022 1.00015 0.994331
0.999098 1.00018 0.998545
1.00009 1.00037 0.994913
0.998913 1.00029 0.9968
0.998806 1.00037 0.996915
1.00452 0.998219 0.987646
1.004 0.998961 0.987787
1.00453 0.998372 0.987456
1.00318 0.999568 0.988668
1.00383 0.999248 0.987962
1.0043 0.998897 0.987331
1.00169 1.00033 0.990638
1.00263 1.00014 0.989471
1.00326 0.999686 0.988817
0.999871 1.00066 0.994086
1.00113 1.00095 0.99125
1.00182 1.00091 0.989932
0.998924 0.999992 0.998639
0.999577 1.00084 0.994455
1.00058 1.00144 0.991978
0.999403 1.00077 0.994838
0.999007 0.999354 0.998779
0.999212 0.998653 0.998915
1.00466 0.998248 0.987365
1.00477 0.998029 0.987365
1.00485 0.997948 0.987288
1.00449 0.999107 0.98692
1.0046 0.998741 0.986987
1.00469 0.998475 0.987158
1.00429 0.999099 0.987199
1.00406 0.999438 0.9874
1.00369 0.999585 0.988
1.00384 0.999477 0.987846
1.00337 0.999706 0.988445
1.00248 0.999888 0.989619
1.00327 0.999641 0.988628
1.00232 0.999906 0.990152
1.00044 0.999948 0.993623
1.0022 0.999994 0.990298
1.00034 0.99998 0.993762
0.999175 1.00008 0.998522
1.00024 1.00017 0.99385
0.999073 1.00019 0.997643
0.998851 1.00038 0.996853
1.00444 0.998355 0.987759
1.00409 0.998765 0.987907
1.00451 0.998184 0.987676
1.00341 0.999389 0.988573
1.00402 0.998949 0.987812
1.00453 0.998415 0.987504
1.00218 0.999893 0.990166
1.0032 0.999635 0.988824
1.00381 0.999256 0.98802
1.00013 1.00034 0.993862
1.00174 1.00032 0.99058
1.00264 1.00014 0.989462
0.998979 1.00025 0.998561
0.999815 1.00071 0.994104
1.00114 1.00092 0.99113
0.998904 0.999876 0.998675
0.999501 1.00091 0.994473
0.999023 0.999216 0.998813
1.00445 0.998755 0.987331
1.00465 0.99827 0.987374
1.0048 0.998017 0.987324
1.00406 0.999315 0.987544
1.00445 0.999123 0.98697
1.0046 0.998755 0.986933
1.00406 0.999432 0.987396
1.00369 0.999592 0.988
1.00283 0.999761 0.989067
1.00337 0.999734 0.988586
1.00246 0.999903 0.989765
1.00056 1.00001 0.993311
1.00233 0.999893 0.990152
1.00044 0.999947 0.993619
0.999252 1.00002 0.998489
1.00034 0.999995 0.993759
0.999199 1.00007 0.998512
0.999108 1.00019 0.996674
1.00419 0.99876 0.98788
1.00442 0.99826 0.987815
1.00359 0.999247 0.988382
1.00411 0.998765 0.987892
1.00449 0.998148 0.987706
1.00244 0.999757 0.990065
1.00343 0.999378 0.988563
1.00404 0.998937 0.987837
1.00035 1.00003 0.99372
1.00219 0.999937 0.990243
1.00322 0.999703 0.98898
0.999096 1.00026 0.99852
1.0001 1.00036 0.993878
1.00179 1.00031 0.990523
0.998936 1.00018 0.998585
0.999759 1.00074 0.994126
0.998886 0.999752 0.998714
1.00396 0.999176 0.987893
1.00443 0.998781 0.987367
1.00464 0.998293 0.987383
1.00309 0.999586 0.988745
1.00406 0.999352 0.987538
1.0044 0.999139 0.987021
1.00368 0.999601 0.988001
1.00278 0.999776 0.989138
1.00078 1.00001 0.992878
1.00243 0.999915 0.989911
1.00058 1 0.993297
0.999337 1.00001 0.99842
1.00044 0.999951 0.993615
0.99928 1.00001 0.99847
0.999231 1.00007 0.998502
1.00375 0.999193 0.988165
1.00419 0.998675 0.98787
1.00441 0.998166 0.987872
1.00263 0.999668 0.989782
1.0036 0.999248 0.988372
1.00413 0.998765 0.987877
1.00052 0.999879 0.993528
1.00244 0.999771 0.990063
1.00346 0.999368 0.988554
0.999231 1.00013 0.998483
1.00033 1.00003 0.993732
1.0022 0.99998 0.990321
0.999049 1.00023 0.998531
1.00007 1.00036 0.993892
0.998884 1.00011 0.998614
1.00303 0.999589 0.989096
1.00398 0.999165 0.987753
1.0044 0.998804 0.987403
1.00095 0.99996 0.992599
1.00307 0.999597 0.988767
1.00405 0.999389 0.987533
1.00274 0.99979 0.98921
1.0008 1.00001 0.992864
0.999487 1.00001 0.998301
1.0006 0.999998 0.993283
0.999389 1.00001 0.99838
0.999312 1 0.998448
1.00284 0.999617 0.989428
1.00377 0.999156 0.988109
1.0042 0.998591 0.98786
1.00073 0.999883 0.994237
1.00263 0.999681 0.989776
1.00362 0.99925 0.988362
0.999362 1.00001 0.998421
1.00052 0.999873 0.993537
1.00243 0.999784 0.990061
0.999187 1.00014 0.998496
1.00032 1.00004 0.993745
0.999003 1.00021 0.998542
1.001 0.999939 0.99255
1.00303 0.999559 0.988998
1.004 0.99915 0.987613
0.999623 1 0.998204
1.00096 0.999957 0.992593
1.00304 0.99961 0.988789
1.00081 1 0.992848
0.999541 1.00001 0.998261
0.999444 0.999998 0.998337
1.00093 0.999921 0.993865
1.00284 0.999615 0.989428
1.00379 0.999118 0.988054
0.999319 0.99998 0.998469
1.00067 0.999878 0.993263
1.00263 0.999689 0.989769
0.999316 1.00003 0.998445
1.00051 0.999871 0.993548
0.999141 1.00014 0.998507
0.999647 1 0.995901
1.00099 0.999942 0.993154
1.00303 0.999535 0.988901
0.99964 0.999996 0.998188
1.00096 0.999952 0.992591
0.999588 1 0.998224
0.999415 0.999961 0.99621
1.00086 0.999937 0.993414
1.00285 0.999614 0.989429
0.999373 0.999971 0.997369
1.00067 0.999887 0.993245
0.999278 1.00004 0.998466
0.999653 0.999991 0.998179
1.00095 0.999939 0.992624
0.999659 0.999993 0.998176
0.9995 0.999991 0.9972
1.00082 0.999944 0.992891
0.999397 0.999994 0.998394
0.999618 0.999988 0.998211
0.999515 0.999988 0.998298

TENSORS stress float
0.00118373 1.66107e-05 5.36961e-05
1.66107e-05 0.000269871 -6.65801e-06
5.36961e-05 -6.65801e-06 0.000250366
0.00306932 -7.69556e-05 4.84332e-05
-7.69556e-05 0.00123533 3.24483e-06
4.84332e-05 3.24483e-06 0.00123265
0.00118111 3.67675e-05 2.43848e-05
3.67675e-05 0.000275207 -2.16489e-06
2.43848e-05 -2.16489e-06 0.000252787
0.00148291 -2.75651e-06 6.96041e-05
-2.75651e-06 0.000410123 -5.37236e-06
6.96041e-05 -5.37236e-06 0.000388614
0.0012515 2.69838e-06 5.97993e-05
2.69838e-06 0.000309182 -6.60491e-06
5.97993e-05 -6.60491e-06 0.000288648
0.00114402 3.50908e-05 4.40834e-05
3.50908e-05 0.000237599 -6.5392e-06
4.40834e-05 -6.5392e-06 0.000220306
0.00110344 2.07431e-06 8.38533e-06
2.07431e-06 0.000186296 -3.21354e-06
8.38533e-06 -3.21354e-06 0.000142619
0.00304428 -8.17615e-05 1.27142e-06
-8.17615e-05 0.00121934 -2.22162e-07
1.27142e-06 -2.22162e-07 0.0012169
0.00363412 -0.000142465 5.04611e-06
-0.000142465 0.00157217 1.69887e-06
5.04611e-06 1.69887e-06 0.00155281
0.00305902 -0.000106081 1.29136e-05
-0.000106081 0.00125177 1.36799e-06
1.29136e-05 1.36799e-06 0.00124184
0.00110164 -3.70912e-05 3.71861e-05
-3.70912e-05 0.000188104 4.05729e-06
3.71861e-05 4.05729e-06 0.000181073
0.000755441 5.50388e-06 6.79064e-06
5.50388e-06 -4.35038e-06 3.87214e-06
6.79064e-06 3.87214e-06 -4.19575e-05
0.00169778 -7.75523e-06 8.50814e-05
-7.75523e-06 0.000498501 4.23756e-07
8.50814e-05 4.23756e-07 0.000476251
0.00133071 -8.76413e-06 1.26759e-05
-8.76413e-06 0.000331366 1.0385e-06
1.26759e-05 1.0385e-06 0.000308028
0.00119799 6.28633e-05 -5.66091e-06
6.28633e-05 0.000291655 2.29297e-06
-5.66091e-06 2.29297e-06 0.000265587
0.00141616 1.8655e-05 3.14317e-05
1.8655e-05 0.000381848 -1.79988e-06
3.14317e-05 -1.79988e-06 0.000358181
0.00112691 4.35855e-05 1.99283e-05
4.35855e-05 0.000232883 -2.24552e-06
1.99283e-05 -2.24552e-06 0.000214269
0.00124818 3.24343e-05 2.79604e-05
3.24343e-05 0.000315311 -1.98218e-06
2.79604e-05 -1.98218e-06 0.000291051
0.00118921 -3.17348e-06 -1.00599e-05
-3.17348e-06 0.000226851 3.78795e-07
-1.00599e-05 3.78795e-07 0.000184599
0.00471132 1.28322e-05 8.64713e-05
1.28322e-05 0.00207449 -8.09132e-07
8.64713e-05 -8.09132e-07 0.00206835
0.00158457 -2.31078e-08 7.41847e-05
-2.31078e-08 0.000451816 -4.13379e-06
7.41847e-05 -4.13379e-06 0.000430626
0.0013492 -1.2767e-06 6.43158e-05
-1.2767e-06 0.000354311 -6.26531e-06
6.43158e-05 -6.26531e-06 0.00033292
0.00138133 -8.66713e-06 1.31845e-05
-8.66713e-06 0.000274761 -3.27671e-06
1.31845e-05 -3.27671e-06 0.000228487
0.00118009 2.93671e-07 8.58645e-06
2.93671e-07 0.000214864 -3.6763e-06
8.58645e-06 -3.6763e-06 0.00016943
0.00115819 4.10324e-05 3.78006e-05
4.10324e-05 0.000226696 -6.57916e-06
3.78006e-05 -6.57916e-06 0.000214495
0.00103474 9.05177e-06 7.8013e-06
9.05177e-06 0.000157084 -2.81576e-06
7.8013e-06 -2.81576e-06 0.000116951
0.00144686 -6.67393e-05 3.05313e-06
-6.67393e-05 0.000283073 -9.90423e-07
3.05313e-06 -9.90423e-07 0.000213826
0.00301068 -8.39223e-05 -4.11046e-05
-8.39223e-05 0.00119842 -3.2677e-06
-4.11046e-05 -3.2677e-06 0.00119656
0.00240449 -6.85116e-05 -2.44926e-05
-6.85116e-05 0.000920846 -6.68077e-07
-2.44926e-05 -6.68077e-07 0.000901053
0.00214461 -7.04173e-05 -1.8975e-05
-7.04173e-05 0.00076854 -6.23612e-07
-1.8975e-05 -6.23612e-07 0.000754893
0.00286222 -7.55455e-05 7.4994e-07
-7.55455e-05 0.00111034 -1.20039e-07
7.4994e-07 -1.20039e-07 0.00111199
0.00070473 -2.30666e-06 -8.53847e-08
-2.30666e-06 -2.59442e-05 -1.06019e-07
-8.53847e-08 -1.06019e-07 -6.43041e-05
0.00159983 8.73608e-06 6.49165e-05
8.73608e-06 0.000483148 3.87848e-06
6.49165e-05 3.87848e-06 0.000461553
0.00148483 -9.98103e-06 5.50924e-05
-9.98103e-06 0.000429383 4.31854e-06
5.50924e-05 4.31854e-06 0.000409502
0.00204745 4.42906e-05 3.43868e-05
4.42906e-05 0.000653998 3.99932e-06
3.43868e-05 3.99932e-06 0.000614423
0.00268106 -7.74452e-05 1.31627e-05
-7.74452e-05 0.00100604 1.43222e-06
1.31627e-05 1.43222e-06 0.00101051
0.00180344 8.32622e-06 2.62873e-05
8.32622e-06 0.000543715 3.13368e-06
2.62873e-05 3.13368e-06 0.000509053
0.000708615 -2.52283e-05 7.02038e-06
-2.52283e-05 -2.67494e-05 5.94295e-06
7.02038e-06 5.94295e-06 -6.11331e-05
0.000907409 4.17853e-05 3.39917e-06
4.17853e-05 4.59702e-05 8.33739e-07
3.39917e-06 8.33739e-07 -2.34936e-05
0.00253313 -5.54605e-05 3.31546e-05
-5.54605e-05 0.0009146 3.59025e-06
3.31546e-05 3.59025e-06 0.000925227
0.00475346 -1.69114e-05 2.46639e-06
-1.69114e-05 0.00209552 -3.08794e-07
2.46639e-06 -3.08794e-07 0.00208924
0.00287406 -1.52542e-05 -3.30194e-05
-1.52542e-05 0.00113267 -6.19158e-07
-3.30194e-05 -6.19158e-07 0.0011176
0.00499739 -1.23279e-05 9.36143e-05
-1.23279e-05 0.00221345 1.58594e-07
9.36143e-05 1.58594e-07 0.00220711
0.00135578 -2.67307e-06 1.24067e-05
-2.67307e-06 0.000337055 5.83192e-07
1.24067e-05 5.83192e-07 0.00031313
0.000792149 -6.38166e-06 1.34397e-05
-6.38166e-06 -7.4005e-05 1.5577e-06
1.34397e-05 1.5577e-06 -0.000126183
0.00413537 -6.65133e-05 1.70467e-05
-6.65133e-05 0.00180524 8.9251e-07
1.70467e-05 8.9251e-07 0.0017937
0.00226315 4.01421e-07 4.35967e-05
4.01421e-07 0.000717375 2.63127e-06
4.35967e-05 2.63127e-06 0.00067962
0.00135358 2.10918e-05 -1.1418e-05
2.10918e-05 0.000354373 1.87377e-06
-1.1418e-05 1.87377e-06 0.000329487
0.00127272 6.74602e-05 -3.59732e-06
6.74602e-05 0.000337601 2.54703e-06
-3.59732e-06 2.54703e-06 0.000308751
0.00110292 5.79045e-05 -7.13117e-06
5.79045e-05 0.000225058 1.94631e-06
-7.13117e-06 1.94631e-06 0.000204424
0.00125075 -1.15201e-05 -2.88082e-05
-1.15201e-05 0.000254385 3.96266e-06
-2.88082e-05 3.96266e-06 0.000213937
0.00314185 4.23035e-05 -3.49622e-05
4.23035e-05 0.00125749 -1.00057e-06
-3.49622e-05 -1.00057e-06 0.00124022
0.00147328 1.2721e-05 3.17721e-05
1.2721e-05 0.000399132 -1.3909e-06
3.17721e-05 -1.3909e-06 0.000376355
0.00109902 4.68121e-05 1.56112e-05
4.68121e-05 0.000198112 -2.34793e-06
1.56112e-05 -2.34793e-06 0.000185411
0.00132787 3.2977e-05 3.16321e-05
3.2977e-05 0.000351933 -1.82958e-06
3.16321e-05 -1.82958e-06 0.000326646
0.00144664 -1.87177e-05 -1.13801e-05
-1.87177e-05 0.00030555 1.24606e-07
-1.13801e-05 1.24606e-07 0.00026099
0.00110968 8.02339e-06 -7.5581e-06
8.02339e-06 0.000192946 3.99879e-07
-7.5581e-06 3.99879e-07 0.000153753
0.00127015 -8.62314e-06 -1.17808e-05
-8.62314e-06 0.000256927 3.02431e-07
-1.17808e-05 3.02431e-07 0.000213321
0.00155709 -7.12034e-05 -1.8652e-06
-7.12034e-05 0.000336667 6.36355e-07
-1.8652e-06 6.36355e-07 0.000266619
0.0048781 3.34082e-05 8.60687e-05
3.34082e-05 0.00215616 1.06102e-07
8.60687e-05 1.06102e-07 0.00214928
0.0016185 6.59993e-06 7.76298e-05
6.59993e-06 0.000464018 -3.01266e-06
7.76298e-05 -3.01266e-06 0.000442572
0.00223455 3.32226e-05 1.15781e-05
3.32226e-05 0.000684402 -1.08094e-06
1.15781e-05 -1.08094e-06 0.000640188
0.0014537 -1.08234e-05 1.56447e-05
-1.08234e-05 0.000294819 -2.3978e-06
1.56447e-05 -2.3978e-06 0.000249272
0.00127346 3.77095e-06 8.95426e-06
3.77095e-06 0.000245054 -3.91151e-06
8.95426e-06 -3.91151e-06 0.000197949
0.00185973 -6.34809e-05 5.09358e-06
-6.34809e-05 0.000383491 -1.81894e-06
5.09358e-06 -1.81894e-06 0.000307645
0.00119584 -6.13705e-05 4.40526e-06
-6.13705e-05 0.000119206 -2.00954e-06
4.40526e-06 -2.00954e-06 4.70354e-05
0.0012382 4.17329e-05 3.58105e-05
4.17329e-05 0.000247233 -6.43277e-06
3.58105e-05 -6.43277e-06 0.000241475
0.00101505 3.4246e-05 5.92537e-06
3.4246e-05 0.000148119 -2.66079e-06
5.92537e-06 -2.66079e-06 0.000113711
0.00129627 -5.50034e-05 2.3804e-06
-5.50034e-05 0.000237806 -6.95142e-07
2.3804e-06 -6.95142e-07 0.000171007
0.0011159 -7.77217e-05 2.09962e-06
-7.77217e-05 5.95968e-05 -4.4184e-07
2.09962e-06 -4.4184e-07 -2.77106e-05
0.00357918 -9.08317e-05 -5.13634e-05
-9.08317e-05 0.00153289 -3.17751e-06
-5.13634e-05 -3.17751e-06 0.00152074
0.00286727 -7.65351e-05 -3.80659e-05
-7.65351e-05 0.00110939 -3.32073e-06
-3.80659e-05 -3.32073e-06 0.00111205
0.00313137 -8.94379e-05 -4.46409e-05
-8.94379e-05 0.00127948 -3.05699e-06
-4.46409e-05 -3.05699e-06 0.00127328
0.000660636 -1.93703e-06 -5.67075e-06
-1.93703e-06 -4.53824e-05 -4.46936e-06
-5.67075e-06 -4.46936e-06 -8.35564e-05
0.00412227 -6.28004e-05 -2.76869e-06
-6.28004e-05 0.00180343 -5.70523e-08
-2.76869e-06 -5.70523e-08 0.00179248
0.0034804 -8.40442e-05 1.75601e-06
-8.40442e-05 0.00147775 -1.64573e-07
1.75601e-06 -1.64573e-07 0.00146758
0.000651132 4.85185e-05 -1.82896e-07
4.85185e-05 -6.86053e-05 -1.49555e-07
-1.82896e-07 -1.49555e-07 -0.000115902
0.00187441 -5.66472e-05 -1.45566e-05
-5.66472e-05 0.000582052 -8.5309e-07
-1.45566e-05 -8.5309e-07 0.000583129
0.000687275 1.93363e-05 -1.85711e-07
1.93363e-05 -3.43664e-05 -7.9627e-08
-1.85711e-07 -7.9627e-08 -7.60493e-05
0.0011531 -3.18492e-05 7.9791e-06
-3.18492e-05 0.000206191 5.07214e-07
7.9791e-06 5.07214e-07 0.000175945
0.000870342 4.16971e-05 1.3838e-07
4.16971e-05 2.58652e-05 -2.28007e-07
1.3838e-07 -2.28007e-07 -4.29879e-05
0.00263337 -6.15134e-05 3.56648e-05
-6.15134e-05 0.000972776 3.53204e-06
3.56648e-05 3.53204e-06 0.00098112
0.000754587 -4.24565e-05 2.80063e-06
-4.24565e-05 -2.21486e-05 4.07436e-06
2.80063e-06 4.07436e-06 -4.01553e-05
0.000787247 4.9097e-05 1.27005e-05
4.9097e-05 -2.11059e-05 5.38706e-06
1.27005e-05 5.38706e-06 -6.94196e-05
0.000781842 3.89208e-05 1.04532e-05
3.89208e-05 6.36055e-06 6.0844e-06
1.04532e-05 6.0844e-06 -3.93652e-05
0.00103085 6.27392e-05 5.05325e-06
6.27392e-05 2.5906e-05 1.90874e-06
5.05325e-06 1.90874e-06 -5.00086e-05
0.00156395 -5.23814e-05 1.72481e-05
-5.23814e-05 0.00041705 3.57937e-06
1.72481e-05 3.57937e-06 0.000394439
0.000951564 5.71695e-05 3.51623e-06
5.71695e-05 5.10602e-05 1.10205e-06
3.51623e-06 1.10205e-06 -1.85615e-05
0.000890463 2.85201e-05 3.25873e-06
2.85201e-05 4.7541e-05 1.66727e-06
3.25873e-06 1.66727e-06 -2.0453e-05
0.000907765 7.17457e-05 1.92006e-06
7.17457e-05 1.65287e-05 -3.77097e-07
1.92006e-06 -3.77097e-07 -6.68327e-05
0.0023976 -4.95412e-05 2.97343e-05
-4.95412e-05 0.00083744 3.65818e-06
2.97343e-05 3.65818e-06 0.000850461
0.00250187 -5.55607e-05 5.58659e-07
-5.55607e-05 0.000897901 -9.21204e-08
5.58659e-07 -9.21204e-08 0.000908806
0.00433102 -1.73668e-05 -7.51179e-05
-1.73668e-05 0.00189349 -2.05343e-06
-7.51179e-05 -2.05343e-06 0.00188693
0.00465328 -1.23306e-05 -8.23728e-05
-1.23306e-05 0.00204747 -7.70957e-07
-8.23728e-05 -7.70957e-07 0.00204111
0.00493972 2.17733e-06 3.73268e-06
2.17733e-06 0.00218627 -4.1523e-07
3.73268e-06 -4.1523e-07 0.00217959
0.00296563 -9.85115e-06 -3.42934e-05
-9.85115e-06 0.00117344 -5.08792e-07
-3.42934e-05 -5.08792e-07 0.00115802
0.00158193 4.71619e-06 1.91564e-05
4.71619e-06 0.000340393 1.3658e-07
1.91564e-05 1.3658e-07 0.000293785
0.0027304 -3.32252e-05 -3.323e-05
-3.32252e-05 0.0010698 -5.96482e-07
-3.323e-05 -5.96482e-07 0.00105324
0.00146187 1.85435e-05 1.64839e-05
1.85435e-05 0.000303306 2.40179e-07
1.64839e-05 2.40179e-07 0.000260818
0.00504151 5.73299e-05 8.76991e-05
5.73299e-05 0.00223642 1.12856e-06
8.76991e-05 1.12856e-06 0.00222869
0.000787754 -5.01338e-07 1.17817e-05
-5.01338e-07 -8.90663e-05 1.10454e-07
1.17817e-05 1.10454e-07 -0.000143531
0.00230045 -2.06601e-05 4.59584e-05
-2.06601e-05 0.000726783 1.70924e-06
4.59584e-05 1.70924e-06 0.000687362
0.0012443 1.18697e-05 6.91804e-06
1.18697e-05 9.2113e-06 1.22593e-06
6.91804e-06 1.22593e-06 -7.44948e-05
0.00216134 3.9357e-05 4.02461e-05
3.9357e-05 0.000679866 2.96505e-06
4.02461e-05 2.96505e-06 0.00064154
0.00118643 3.87936e-05 6.86961e-06
3.87936e-05 1.63971e-05 1.3371e-06
6.86961e-06 1.3371e-06 -6.42556e-05
0.00169273 1.67781e-05 -8.36767e-05
1.67781e-05 0.000495466 4.34094e-07
-8.36767e-05 4.34094e-07 0.000473322
0.00134988 8.10621e-06 -1.35384e-05
8.10621e-06 0.000339733 1.4008e-06
-1.35384e-05 1.4008e-06 0.000315763
0.000994182 5.28516e-05 -7.66849e-06
5.28516e-05 0.000146091 1.68975e-06
-7.66849e-06 1.68975e-06 0.000132856
0.00133373 4.52035e-05 -6.85285e-06
4.52035e-05 0.000359962 2.28621e-06
-6.85285e-06 2.28621e-06 0.00033324
0.00150982 -1.90257e-05 -3.81026e-05
-1.90257e-05 0.000335912 3.57977e-06
-3.81026e-05 3.57977e-06 0.000292582
0.00132242 -1.94725e-05 -3.19273e-05
-1.94725e-05 0.00027838 4.13002e-06
-3.19273e-05 4.13002e-06 0.00023714
0.00118891 3.53008e-06 -2.45391e-05
3.53008e-06 0.000230676 3.61114e-06
-2.45391e-05 3.61114e-06 0.000192779
0.00168925 -7.58122e-05 -7.1334e-06
-7.58122e-05 0.000401447 2.44932e-06
-7.1334e-06 2.44932e-06 0.000330575
0.00494824 2.90571e-05 -3.24159e-06
2.90571e-05 0.00218985 -4.18053e-07
-3.24159e-06 -4.18053e-07 0.00218313
0.00148894 1.13746e-05 3.29922e-05
1.13746e-05 0.000401378 -8.77786e-07
3.29922e-05 -8.77786e-07 0.000378585
0.00116119 1.00268e-05 -2.10914e-05
1.00268e-05 0.000119233 2.66691e-07
-2.10914e-05 2.66691e-07 7.02611e-05
0.00149927 -1.51264e-05 -1.16888e-05
-1.51264e-05 0.000316324 1.15224e-07
-1.16888e-05 1.15224e-07 0.000271943
0.00199767 5.77935e-05 2.72169e-05
5.77935e-05 0.000648901 -1.73499e-06
2.72169e-05 -1.73499e-06 0.000647678
0.00129602 3.0592e-05 -5.34466e-06
3.0592e-05 0.000290892 3.9893e-07
-5.34466e-06 3.9893e-07 0.000257816
0.00135663 -1.50204e-05 -1.16701e-05
-1.50204e-05 0.000282312 2.09391e-07
-1.16701e-05 2.09391e-07 0.000238246
0.00170176 -5.92947e-05 -3.53867e-06
-5.92947e-05 0.000300446 6.64725e-07
-3.53867e-06 6.64725e-07 0.000223476
0.00145112 -6.24388e-05 -1.51527e-06
-6.24388e-05 0.000314215 6.76775e-07
-1.51527e-06 6.76775e-07 0.000246293
0.00143131 -6.71925e-05 -8.40949e-07
-6.71925e-05 0.000239934 1.15463e-07
-8.40949e-07 1.15463e-07 0.000168303
0.00112088 -7.73767e-05 -2.6158e-08
-7.73767e-05 6.20328e-05 -8.21505e-09
-2.6158e-08 -8.21505e-09 -2.51226e-05
0.000766075 3.10691e-06 1.17474e-05
3.10691e-06 -9.77561e-05 -1.67248e-06
1.17474e-05 -1.67248e-06 -0.000151893
0.00147116 -4.9631e-06 1.58132e-05
-4.9631e-06 0.000295955 -1.84511e-06
1.58132e-05 -1.84511e-06 0.000250494
0.00162717 1.1325e-06 6.34483e-06
1.1325e-06 0.000206587 -1.28344e-06
6.34483e-06 -1.28344e-06 0.000126083
0.00152487 -4.36703e-05 6.36629e-06
-4.36703e-05 0.000185107 -1.34094e-06
6.36629e-06 -1.34094e-06 0.000107669
0.00138178 -6.2853e-05 5.44313e-06
-6.2853e-05 0.000173348 -2.47591e-06
5.44313e-06 -2.47591e-06 9.79242e-05
0.00178665 -7.33469e-05 1.80304e-06
-7.33469e-05 0.000269424 -5.8727e-07
1.80304e-06 -5.8727e-07 0.00017652
0.00280031 6.91949e-05 3.6764e-05
6.91949e-05 0.00105964 -3.27061e-06
3.6764e-05 -3.27061e-06 0.00106633
0.00112806 -7.39146e-05 2.03679e-06
-7.39146e-05 2.98728e-05 -5.71968e-07
2.03679e-06 -5.71968e-07 -5.76902e-05
0.000705102 5.73649e-05 2.49555e-06
5.73649e-05 -2.69196e-05 -4.04011e-06
2.49555e-06 -4.04011e-06 -6.00019e-05
0.000729583 -3.57695e-05 2.40492e-06
-3.57695e-05 -3.47099e-05 -8.85469e-07
2.40492e-06 -8.85469e-07 -0.000100644
0.00119595 -8.38434e-05 2.03808e-06
-8.38434e-05 0.00013879 -7.43847e-07
2.03808e-06 -7.43847e-07 5.08891e-05
0.00122321 -8.69796e-05 9.1832e-07
-8.69796e-05 7.97422e-05 1.44459e-07
9.1832e-07 1.44459e-07 -1.43766e-05
0.000676254 4.46292e-05 3.49307e-06
4.46292e-05 -6.0646e-05 -4.07663e-06
3.49307e-06 -4.07663e-06 -8.2796e-05
0.00085576 2.08064e-05 1.43617e-06
2.08064e-05 1.41643e-05 -2.34101e-06
1.43617e-06 -2.34101e-06 -3.64637e-05
0.00390467 -6.11334e-05 -6.05833e-05
-6.11334e-05 0.00169258 -2.94098e-06
-6.05833e-05 -2.94098e-06 0.0016827
0.00328854 -9.28554e-05 -4.74876e-05
-9.28554e-05 0.0013768 -2.92885e-06
-4.74876e-05 -2.92885e-06 0.00136705
0.000610152 4.22594e-05 -8.38987e-06
4.22594e-05 -8.74101e-05 -4.78083e-06
-8.38987e-06 -4.78083e-06 -0.00013464
0.0027528 -6.8952e-05 -3.62702e-05
-6.8952e-05 0.00104029 -3.33293e-06
-3.62702e-05 -3.33293e-06 0.00104648
0.000634338 -4.69521e-05 -2.41328e-06
-4.69521e-05 -6.0212e-05 -4.70708e-06
-2.41328e-06 -4.70708e-06 -9.45518e-05
0.000625463 1.69392e-05 -6.86198e-06
1.69392e-05 -6.06381e-05 -4.16275e-06
-6.86198e-06 -4.16275e-06 -0.000102964
0.000841728 4.1468e-05 -3.27144e-06
4.1468e-05 1.0252e-05 -1.20547e-06
-3.27144e-06 -1.20547e-06 -5.82611e-05
0.00263376 -6.1797e-05 4.87081e-07
-6.1797e-05 0.000972541 -1.11905e-07
4.87081e-07 -1.11905e-07 0.00098108
0.000731705 -4.01534e-05 1.51413e-07
-4.01534e-05 -3.51588e-05 4.62092e-08
1.51413e-07 4.62092e-08 -5.2551e-05
0.00134964 4.73621e-05 1.4072e-05
4.73621e-05 0.000274641 1.07337e-07
1.4072e-05 1.07337e-07 0.000231187
0.00122267 2.93869e-05 1.16155e-05
2.93869e-05 0.000241665 2.13516e-07
1.16155e-05 2.13516e-07 0.000200291
0.00101127 6.27617e-05 2.83431e-07
6.27617e-05 1.65131e-05 -4.63039e-09
2.83431e-07 -4.63039e-09 -5.92661e-05
0.000722457 -5.31859e-05 3.68704e-08
-5.31859e-05 -2.29228e-05 5.90392e-08
3.68704e-08 5.90392e-08 -5.08331e-05
0.000905368 5.47647e-05 2.5345e-08
5.47647e-05 2.74057e-05 2.1263e-07
2.5345e-08 2.1263e-07 -4.19234e-05
0.000853728 2.35089e-05 1.73321e-07
2.35089e-05 2.93361e-05 -2.63293e-07
1.73321e-07 -2.63293e-07 -3.86666e-05
0.000866639 7.01846e-05 -6.4854e-08
7.01846e-05 -5.3781e-06 -1.6714e-07
-6.4854e-08 -1.6714e-07 -8.8954e-05
0.000728271 -4.84206e-05 2.64972e-06
-4.84206e-05 -2.71792e-05 4.18565e-06
2.64972e-06 4.18565e-06 -5.01065e-05
0.000780668 -3.5857e-05 3.00911e-06
-3.5857e-05 -1.78439e-05 3.84977e-06
3.00911e-06 3.84977e-06 -3.10322e-05
0.000807606 -4.04003e-06 2.60067e-06
-4.04003e-06 -6.71735e-06 2.27604e-06
2.60067e-06 2.27604e-06 -5.66769e-05
0.0010794 5.71314e-05 5.8375e-06
5.71314e-05 1.20868e-05 1.89022e-06
5.8375e-06 1.89022e-06 -6.61668e-05
0.000994623 6.31865e-05 4.16367e-06
6.31865e-05 4.67717e-05 1.64384e-06
4.16367e-06 1.64384e-06 -2.58181e-05
0.00120757 8.05947e-05 2.82965e-06
8.05947e-05 6.31202e-05 8.75431e-07
2.82965e-06 8.75431e-07 -2.87998e-05
0.000873342 1.70591e-05 2.8556e-06
1.70591e-05 3.51159e-05 2.03097e-06
2.8556e-06 2.03097e-06 -2.78874e-05
0.000938764 7.46599e-05 1.52107e-06
7.46599e-05 7.91639e-06 -3.94382e-08
1.52107e-06 -3.94382e-08 -7.53174e-05
0.00105144 7.27296e-05 2.06382e-06
7.27296e-05 0.00011156 2.18545e-07
2.06382e-06 2.18545e-07 2.6814e-05
0.00106099 8.57888e-05 -7.13072e-08
8.57888e-05 8.75023e-05 -1.15381e-06
-7.13072e-08 -1.15381e-06 -3.51036e-06
0.00229079 -4.40865e-05 2.64219e-05
-4.40865e-05 0.000774267 3.69122e-06
2.64219e-05 3.69122e-06 0.000789582
0.00237277 -4.97317e-05 5.50064e-07
-4.97317e-05 0.000823651 -7.54848e-08
5.50064e-07 -7.54848e-08 0.000836966
0.00247229 -5.56709e-05 -3.01529e-05
-5.56709e-05 0.000881921 -3.47277e-06
-3.01529e-05 -3.47277e-06 0.000893125
0.000714425 3.72868e-05 3.34019e-06
3.72868e-05 -4.83956e-05 -3.81202e-06
3.34019e-06 -3.81202e-06 -6.55648e-05
0.00268552 6.25322e-05 3.40763e-05
6.25322e-05 0.0009943 -3.38333e-06
3.40763e-05 -3.38333e-06 0.00100336
0.00414912 -3.03955e-05 -6.94989e-05
-3.03955e-05 0.00180811 -2.55453e-06
-6.94989e-05 -2.55453e-06 0.00180052
0.00447799 -1.16105e-05 -7.89859e-05
-1.16105e-05 0.00196297 -1.44166e-06
-7.89859e-05 -1.44166e-06 0.00195678
0.00069029 2.71143e-05 -1.06937e-05
2.71143e-05 -9.86359e-05 -2.58654e-06
-1.06937e-05 -2.58654e-06 -0.000145341
0.000741785 1.68711e-05 -1.14029e-05
1.68711e-05 -9.49226e-05 -1.24358e-06
-1.14029e-05 -1.24358e-06 -0.000146492
0.00487076 -2.19546e-05 -8.51798e-05
-2.19546e-05 0.00215276 -4.11627e-08
-8.51798e-05 -4.11627e-08 0.00214611
0.00504079 1.25765e-05 -1.10612e-06
1.25765e-05 0.00223487 4.38717e-07
-1.10612e-06 4.38717e-07 0.00222817
0.000771613 1.34335e-06 -6.1654e-09
1.34335e-06 -9.60777e-05 -2.78368e-07
-6.1654e-09 -2.78368e-07 -0.000150517
0.00152656 3.13801e-06 1.78458e-05
3.13801e-06 0.000325992 2.7441e-07
1.78458e-05 2.7441e-07 0.000282267
0.0012353 1.54117e-05 1.13717e-07
1.54117e-05 5.18093e-06 4.76264e-08
1.13717e-07 4.76264e-08 -7.85852e-05
0.000661362 3.64559e-05 -1.55926e-08
3.64559e-05 -9.9325e-05 -5.59313e-08
-1.55926e-08 -5.59313e-08 -0.000146024
0.00118467 4.02324e-05 7.21626e-08
4.02324e-05 1.64037e-05 -1.82323e-07
7.21626e-08 -1.82323e-07 -6.44404e-05
0.000768162 -4.19483e-06 1.20026e-05
-4.19483e-06 -0.000104765 -8.79814e-07
1.20026e-05 -8.79814e-07 -0.000160447
0.00128706 5.67785e-06 7.05221e-06
5.67785e-06 8.96332e-06 5.24836e-07
7.05221e-06 5.24836e-07 -7.83314e-05
0.00121714 2.53163e-05 6.91704e-06
2.53163e-05 1.48832e-05 1.16835e-06
6.91704e-06 1.16835e-06 -6.6438e-05
0.00148015 1.35766e-05 2.94283e-06
1.35766e-05 5.5071e-05 8.84663e-07
2.94283e-06 8.84663e-07 -4.16643e-05
0.0011377 4.85988e-05 6.43623e-06
4.85988e-05 1.23847e-05 1.7702e-06
6.43623e-06 1.7702e-06 -6.73811e-05
0.00140966 4.44844e-05 2.96909e-06
4.44844e-05 5.90039e-05 1.61232e-07
2.96909e-06 1.61232e-07 -3.43301e-05
0.00499914 3.53154e-05 -9.48625e-05
3.53154e-05 0.00221434 -7.24302e-07
-9.48625e-05 -7.24302e-07 0.00220763
0.00133702 1.96578e-06 -1.28803e-05
1.96578e-06 0.000326792 9.73197e-07
-1.28803e-05 9.73197e-07 0.000302905
4.74631e-05 1.19754e-06 -1.23945e-05
1.19754e-06 -0.000464007 2.46138e-06
-1.23945e-05 2.46138e-06 -0.000520455
0.00155934 -1.13333e-05 -4.03452e-05
-1.13333e-05 0.000345658 2.63751e-06
-4.03452e-05 2.63751e-06 0.000302167
0.00271292 8.37774e-05 -1.36394e-05
8.37774e-05 0.00102933 1.31831e-06
-1.36394e-05 1.31831e-06 0.00103101
0.00160771 2.40058e-05 -2.03471e-05
2.40058e-05 0.000447517 3.59155e-06
-2.03471e-05 3.59155e-06 0.000417322
0.00141427 -2.22723e-05 -3.50684e-05
-2.22723e-05 0.000308066 4.08892e-06
-3.50684e-05 4.08892e-06 0.000265864
0.00154222 -5.5467e-05 -1.1373e-05
-5.5467e-05 0.000216591 3.04297e-06
-1.1373e-05 3.04297e-06 0.000138505
0.00168977 -7.36333e-05 -6.9106e-06
-7.36333e-05 0.000372795 2.31445e-06
-6.9106e-06 2.31445e-06 0.000301601
0.00160797 -6.9373e-05 -6.08208e-06
-6.9373e-05 0.00039184 2.20174e-06
-6.08208e-06 2.20174e-06 0.000322775
0.00112767 -7.71447e-05 -1.7029e-06
-7.71447e-05 6.53974e-05 3.12259e-07
-1.7029e-06 3.12259e-07 -2.16184e-05
0.000769861 4.71393e-06 -1.02093e-07
4.71393e-06 -9.69861e-05 -2.76628e-07
-1.02093e-07 -2.76628e-07 -0.00015114
0.00152079 -4.75196e-06 -1.26926e-05
-4.75196e-06 0.00031958 5.91881e-08
-1.26926e-05 5.91881e-08 0.000275125
0.00125909 3.01108e-07 -2.32824e-06
3.01108e-07 1.58037e-05 8.18932e-08
-2.32824e-06 8.18932e-08 -6.6875e-05
0.00174701 -4.5716e-05 -1.86308e-06
-4.5716e-05 0.000299867 1.96299e-07
-1.86308e-06 1.96299e-07 0.000223186
0.00276237 6.84996e-05 -4.95849e-07
6.84996e-05 0.00104151 -1.23045e-07
-4.95849e-07 -1.23045e-07 0.00104791
0.00113449 4.45086e-05 1.37185e-06
4.45086e-05 0.000194821 1.24694e-07
1.37185e-06 1.24694e-07 0.00016589
0.00109796 -3.51793e-05 8.51472e-08
-3.51793e-05 0.000153796 -6.9966e-08
8.51472e-08 -6.9966e-08 8.79633e-05
0.00138949 -6.2305e-05 -1.52488e-06
-6.2305e-05 0.000178487 1.61394e-07
-1.52488e-06 1.61394e-07 0.000103138
0.00148826 -6.74786e-05 -1.4693e-06
-6.74786e-05 0.000113995 5.36555e-07
-1.4693e-06 5.36555e-07 1.99019e-05
0.00100944 -7.69221e-05 -2.81596e-07
-7.69221e-05 4.51263e-05 -1.47224e-07
-2.81596e-07 -1.47224e-07 -4.26533e-05
0.00136072 -7.89537e-05 1.16784e-07
-7.89537e-05 0.000146893 9.949e-08
1.16784e-07 9.949e-08 5.97796e-05
0.00121731 -8.63481e-05 1.10366e-07
-8.63481e-05 7.69999e-05 5.40593e-08
1.10366e-07 5.40593e-08 -1.69213e-05
0.000694882 4.70423e-05 -1.63509e-07
4.70423e-05 -4.89732e-05 2.76093e-08
-1.63509e-07 2.76093e-08 -7.18317e-05
0.000830981 1.88658e-05 -3.15799e-07
1.88658e-05 9.13991e-07 6.61844e-08
-3.15799e-07 6.61844e-08 -4.96255e-05
0.00127065 4.98733e-07 6.81441e-06
4.98733e-07 -1.48253e-06 -1.52393e-06
6.81441e-06 -1.52393e-06 -8.86027e-05
0.00155967 -1.62824e-05 6.21884e-06
-1.62824e-05 0.000189793 -1.12992e-06
6.21884e-06 -1.12992e-06 0.000112653
0.00186035 -3.24665e-06 1.96087e-06
-3.24665e-06 0.000251017 -5.26276e-07
1.96087e-06 -5.26276e-07 0.000157318
0.00123946 -4.60011e-05 3.63783e-06
-4.60011e-05 -4.59417e-05 -6.87112e-07
3.63783e-06 -6.87112e-07 -0.000140339
0.00136894 -7.61384e-05 1.89137e-06
-7.61384e-05 0.000109481 -9.78694e-07
1.89137e-06 -9.78694e-07 1.97553e-05
0.00174665 -7.27652e-05 1.09767e-07
-7.27652e-05 0.000202314 6.78337e-09
1.09767e-07 6.78337e-09 0.000105917
0.000623697 5.11517e-05 2.80289e-06
5.11517e-05 -7.83459e-05 -4.18965e-06
2.80289e-06 -4.18965e-06 -0.000105897
0.00128751 -8.32062e-05 4.56956e-07
-8.32062e-05 6.82607e-05 -2.05601e-07
4.56956e-07 -2.05601e-07 -2.52312e-05
0.000758243 -1.11231e-05 2.09791e-06
-1.11231e-05 -1.91655e-05 -9.18767e-07
2.09791e-06 -9.18767e-07 -8.40122e-05
0.000696891 -6.34017e-05 1.65146e-06
-6.34017e-05 -8.0668e-05 -1.01299e-06
1.65146e-06 -1.01299e-06 -0.000164626
0.00160169 -0.000106401 5.2009e-07
-0.000106401 0.000319353 4.79843e-09
5.2009e-07 4.79843e-09 0.000222339
0.00144604 -9.64974e-05 -3.75778e-07
-9.64974e-05 0.000167461 1.13862e-06
-3.75778e-07 1.13862e-06 7.22283e-05
0.000876789 4.91863e-08 2.28643e-06
4.91863e-08 2.95318e-05 -2.10349e-06
2.28643e-06 -2.10349e-06 -2.86037e-05
0.000845458 2.79271e-05 1.06144e-06
2.79271e-05 5.67222e-06 -1.94692e-06
1.06144e-06 -1.94692e-06 -3.77225e-05
0.000913554 -2.7612e-05 8.03326e-07
-2.7612e-05 4.14599e-05 -7.41605e-07
8.03326e-07 -7.41605e-07 -3.21887e-05
0.000627806 4.56958e-05 -9.51215e-06
4.56958e-05 -9.83039e-05 -4.36807e-06
-9.51215e-06 -4.36807e-06 -0.000145927
0.00261901 -6.19976e-05 -3.35525e-05
-6.19976e-05 0.000964491 -3.40142e-06
-3.35525e-05 -3.40142e-06 0.000973255
0.000713778 -3.78104e-05 -3.47221e-06
-3.78104e-05 -4.54451e-05 -3.89778e-06
-3.47221e-06 -3.89778e-06 -6.22657e-05
0.000603705 2.88813e-05 -7.12324e-06
2.88813e-05 -7.53975e-05 -4.5186e-06
-7.12324e-06 -4.5186e-06 -0.000120716
0.000991439 6.28593e-05 -4.89153e-06
6.28593e-05 7.21514e-06 -2.06061e-06
-4.89153e-06 -2.06061e-06 -6.84672e-05
0.000616185 -5.03615e-05 -2.8223e-06
-5.03615e-05 -7.82263e-05 -4.4368e-06
-2.8223e-06 -4.4368e-06 -0.000105906
0.000783673 1.91073e-05 -2.36759e-06
1.91073e-05 -6.43086e-06 -1.92441e-06
-2.36759e-06 -1.92441e-06 -7.40602e-05
0.000868906 5.22091e-05 -3.32457e-06
5.22091e-05 8.75188e-06 -7.09447e-07
-3.32457e-06 -7.09447e-07 -6.02889e-05
0.000822123 6.85234e-05 -2.28389e-06
6.85234e-05 -2.91211e-05 6.73801e-08
-2.28389e-06 6.73801e-08 -0.000112891
0.000698199 -4.67709e-05 1.47396e-07
-4.67709e-05 -4.39958e-05 4.10433e-08
1.47396e-07 4.10433e-08 -6.6385e-05
0.000759246 -3.42139e-05 6.04442e-08
-3.42139e-05 -2.9113e-05 6.78971e-08
6.04442e-08 6.78971e-08 -4.19536e-05
0.000830806 -1.93942e-05 1.30866e-07
-1.93942e-05 4.15703e-06 8.4694e-08
1.30866e-07 8.4694e-08 -4.4921e-05
0.00108317 5.80272e-05 3.21051e-07
5.80272e-05 1.46815e-05 -8.24346e-08
3.21051e-07 -8.24346e-08 -6.35805e-05
0.000946627 6.132e-05 2.02193e-07
6.132e-05 2.2904e-05 1.33739e-07
2.02193e-07 1.33739e-07 -4.93811e-05
0.00119628 8.07734e-05 1.84946e-07
8.07734e-05 5.79836e-05 5.18633e-08
1.84946e-07 5.18633e-08 -3.40096e-05
0.000848182 1.43531e-05 -2.73357e-07
1.43531e-05 2.45797e-05 -1.50313e-10
-2.73357e-07 -1.50313e-10 -3.86441e-05
0.00104431 7.87324e-05 -7.97194e-08
7.87324e-05 6.27765e-05 -9.50425e-08
-7.97194e-08 -9.50425e-08 -2.02786e-05
0.00101835 7.15585e-05 1.99175e-07
7.15585e-05 9.46558e-05 -2.7382e-07
1.99175e-07 -2.7382e-07 9.96601e-06
0.000955747 8.22944e-05 -6.07063e-07
8.22944e-05 3.36336e-05 2.63658e-07
-6.07063e-07 2.63658e-07 -5.77949e-05
0.000795536 -3.06654e-05 2.92951e-06
-3.06654e-05 -1.81141e-05 3.5868e-06
2.92951e-06 3.5868e-06 -2.7519e-05
0.000826945 2.46877e-07 2.87363e-06
2.46877e-07 4.04463e-06 1.87575e-06
2.87363e-06 1.87575e-06 -5.20028e-05
0.000813424 -2.18575e-05 1.53373e-06
-2.18575e-05 -7.87927e-06 2.39234e-06
1.53373e-06 2.39234e-06 -5.01101e-05
0.000934098 1.93512e-05 1.20753e-06
1.93512e-05 5.4595e-05 8.84727e-07
1.20753e-06 8.84727e-07 -1.57302e-05
0.00128345 7.07386e-05 3.56977e-06
7.07386e-05 5.48611e-05 7.39637e-07
3.56977e-06 7.39637e-07 -3.85675e-05
0.00113893 8.32007e-05 2.19462e-06
8.32007e-05 7.79723e-05 9.13036e-07
2.19462e-06 9.13036e-07 -9.52626e-06
0.00129147 8.81779e-05 1.40151e-06
8.81779e-05 7.16669e-05 7.34231e-07
1.40151e-06 7.34231e-07 -2.76257e-05
0.00105669 5.08674e-05 1.89097e-06
5.08674e-05 0.000119207 9.17391e-07
1.89097e-06 9.17391e-07 3.90645e-05
0.00115092 8.89447e-05 3.54914e-07
8.89447e-05 9.89743e-05 -3.46375e-07
3.54914e-07 -3.46375e-07 9.48572e-06
0.00104943 8.50356e-05 1.09947e-06
8.50356e-05 0.000112202 -8.52738e-07
1.09947e-06 -8.52738e-07 1.47763e-05
0.000822283 7.87397e-05 6.06284e-07
7.87397e-05 -4.91888e-05 -1.07626e-06
6.06284e-07 -1.07626e-06 -0.00014408
0.0008652 -1.3251e-05 9.11117e-07
-1.3251e-05 3.86348e-06 1.77864e-06
9.11117e-07 1.77864e-06 -2.43067e-05
0.000804992 -2.33564e-05 2.05436e-06
-2.33564e-05 -2.5091e-05 3.438e-06
2.05436e-06 3.438e-06 -2.95436e-05
0.00222807 -3.9018e-05 2.34397e-05
-3.9018e-05 0.000734102 3.75956e-06
2.34397e-05 3.75956e-06 0.000751379
0.00228295 -4.43119e-05 6.86406e-07
-4.43119e-05 0.000769153 -7.18479e-08
6.86406e-07 -7.18479e-08 0.000784696
0.00235181 -4.9763e-05 -2.72147e-05
-4.9763e-05 0.000811838 -3.5453e-06
-2.72147e-05 -3.5453e-06 0.000825464
0.000740592 3.26701e-05 3.08918e-06
3.26701e-05 -4.175e-05 -3.47452e-06
3.08918e-06 -3.47452e-06 -5.46461e-05
0.00253259 5.648e-05 3.0233e-05
5.648e-05 0.000909569 -3.44398e-06
3.0233e-05 -3.44398e-06 0.000920922
0.000732974 4.00794e-05 -2.59454e-07
4.00794e-05 -3.76119e-05 2.58485e-08
-2.59454e-07 2.58485e-08 -5.5422e-05
0.00268694 6.21356e-05 -4.53767e-07
6.21356e-05 0.0009955 -1.05492e-07
-4.53767e-07 -1.05492e-07 0.00100437
0.000653889 3.95263e-05 -1.01839e-05
3.95263e-05 -0.000103239 -3.517e-06
-1.01839e-05 -3.517e-06 -0.000150134
0.000726435 2.52205e-05 -1.10976e-05
2.52205e-05 -9.06035e-05 -1.77491e-06
-1.10976e-05 -1.77491e-06 -0.000139191
0.00116749 4.03934e-05 -6.75312e-06
4.03934e-05 8.63968e-06 -1.58224e-06
-6.75312e-06 -1.58224e-06 -7.23529e-05
0.00122685 1.69166e-05 -6.73667e-06
1.69166e-05 1.43401e-06 -1.08992e-06
-6.73667e-06 -1.08992e-06 -8.23718e-05
0.000751838 5.48352e-06 -1.1868e-05
5.48352e-06 -0.000104956 -7.16942e-07
-1.1868e-05 -7.16942e-07 -0.000159362
0.00503564 -1.7947e-06 -9.09809e-05
-1.7947e-06 0.00223255 6.80661e-07
-9.09809e-05 6.80661e-07 0.00222586
0.000774941 -2.10444e-08 5.9481e-08
-2.10444e-08 -0.000101426 -3.8143e-07
5.9481e-08 -3.8143e-07 -0.00015708
0.00128097 9.42863e-06 5.36037e-08
9.42863e-06 6.13156e-06 -2.61286e-07
5.36037e-08 -2.61286e-07 -8.11138e-05
0.00120301 2.51952e-05 -2.69396e-08
2.51952e-05 8.52187e-06 -1.58611e-08
-2.69396e-08 -1.58611e-08 -7.2935e-05
0.00149843 1.30684e-05 9.19589e-08
1.30684e-05 6.44058e-05 8.97918e-08
9.19589e-08 8.97918e-08 -3.23257e-05
0.00113979 5.01676e-05 2.22977e-07
5.01676e-05 1.46784e-05 -8.576e-08
2.22977e-07 -8.576e-08 -6.52832e-05
0.00142032 4.6798e-05 3.80679e-08
4.6798e-05 6.43707e-05 -8.86385e-08
3.80679e-08 -8.86385e-08 -2.90905e-05
0.00130095 1.23104e-06 7.04759e-06
1.23104e-06 6.15381e-06 -7.73032e-07
7.04759e-06 -7.73032e-07 -8.23865e-05
0.00153636 1.21721e-05 3.06909e-06
1.21721e-05 5.93712e-05 6.40652e-07
3.06909e-06 6.40652e-07 -4.15154e-05
0.00145656 2.87637e-05 3.01154e-06
2.87637e-05 6.24882e-05 4.54397e-07
3.01154e-06 4.54397e-07 -3.14633e-05
0.0016081 8.6876e-06 8.59374e-07
8.6876e-06 8.45166e-05 5.51634e-07
8.59374e-07 5.51634e-07 -1.38161e-05
0.0013469 5.95099e-05 2.87912e-06
5.95099e-05 5.29769e-05 2.40753e-07
2.87912e-06 2.40753e-07 -4.0577e-05
0.00152117 4.85957e-05 7.85389e-07
4.85957e-05 7.22338e-05 -3.27162e-07
7.85389e-07 -3.27162e-07 -2.29751e-05
0.00077939 8.70464e-06 -1.16183e-05
8.70464e-06 -9.31287e-05 1.07453e-06
-1.16183e-05 1.07453e-06 -0.000147475
0.00159098 3.42611e-06 -4.18985e-05
3.42611e-06 0.000354222 1.75098e-06
-4.18985e-05 1.75098e-06 0.000310564
0.000879172 9.45524e-07 -7.42009e-06
9.45524e-07 -0.000181129 1.57068e-06
-7.42009e-06 1.57068e-06 -0.000266024
0.00195959 -4.69203e-05 -1.07785e-05
-4.69203e-05 0.000409571 1.99125e-06
-1.07785e-05 1.99125e-06 0.000333742
0.00273505 6.798e-05 -3.73225e-05
6.798e-05 0.00102883 3.39954e-06
-3.73225e-05 3.39954e-06 0.00103489
0.00159762 4.17297e-05 -1.867e-05
4.17297e-05 0.000436906 2.92885e-06
-1.867e-05 2.92885e-06 0.00041034
0.00145768 -4.55398e-05 -4.37126e-06
-4.55398e-05 0.000336614 1.40063e-06
-4.37126e-06 1.40063e-06 0.000271569
0.00140687 -6.22504e-05 -8.36867e-06
-6.22504e-05 0.000188727 2.78185e-06
-8.36867e-06 2.78185e-06 0.000113406
0.00118704 -6.15298e-05 -3.99777e-06
-6.15298e-05 -4.28722e-05 1.41502e-06
-3.99777e-06 1.41502e-06 -0.000138147
0.00159024 -8.3977e-05 -2.49185e-06
-8.3977e-05 0.000262313 8.95073e-07
-2.49185e-06 8.95073e-07 0.000175647
0.000814085 -6.95543e-05 -1.65986e-06
-6.95543e-05 -5.2901e-05 4.42711e-07
-1.65986e-06 4.42711e-07 -0.000140535
0.0012099 -8.56547e-05 -2.99083e-07
-8.56547e-05 7.34872e-05 -1.14659e-07
-2.99083e-07 -1.14659e-07 -2.02321e-05
0.000720378 4.88647e-05 -2.51341e-06
4.88647e-05 -3.39692e-05 4.08497e-06
-2.51341e-06 4.08497e-06 -5.74397e-05
0.000806908 1.68463e-05 -2.10378e-06
1.68463e-05 -1.1964e-05 1.95972e-06
-2.10378e-06 1.95972e-06 -6.24489e-05
0.00110346 4.01998e-06 -2.86502e-07
4.01998e-06 -8.71199e-05 -1.30455e-07
-2.86502e-07 -1.30455e-07 -0.000175079
0.00159324 -1.8876e-05 -2.05468e-06
-1.8876e-05 0.000206502 2.48067e-07
-2.05468e-06 2.48067e-07 0.000129263
0.00176461 -7.73656e-07 -1.54588e-06
-7.73656e-07 0.000199506 3.19859e-07
-1.54588e-06 3.19859e-07 0.000105165
0.00152787 -4.94023e-05 7.65298e-07
-4.94023e-05 0.000104904 -3.91129e-07
7.65298e-07 -3.91129e-07 1.18346e-05
0.000676 5.25952e-05 -6.38753e-08
5.25952e-05 -5.03111e-05 4.23641e-08
-6.38753e-08 4.23641e-08 -7.82916e-05
0.000843486 -2.07576e-05 2.15655e-08
-2.07576e-05 2.31085e-05 -1.16872e-07
2.15655e-08 -1.16872e-07 -4.14918e-05
0.000796568 -6.70944e-05 6.55046e-07
-6.70944e-05 -2.87784e-05 -4.55913e-07
6.55046e-07 -4.55913e-07 -0.0001119
0.00154048 -7.93093e-05 -6.27033e-07
-7.93093e-05 0.000195279 8.79618e-08
-6.27033e-07 8.79618e-08 0.000105397
0.00156807 -6.81948e-05 -4.62111e-07
-6.81948e-05 0.000109006 5.98202e-07
-4.62111e-07 5.98202e-07 1.27289e-05
0.00133748 -9.67786e-05 -8.59828e-07
-9.67786e-05 0.000184971 3.03521e-07
-8.59828e-07 3.03521e-07 8.72303e-05
0.00129662 -8.30166e-05 5.61766e-08
-8.30166e-05 7.23269e-05 2.42168e-07
5.61766e-08 2.42168e-07 -2.10713e-05
0.00128838 -9.11437e-05 3.45195e-07
-9.11437e-05 8.85254e-05 4.70827e-07
3.45195e-07 4.70827e-07 -6.63708e-06
0.000847387 -1.59773e-07 -2.42692e-07
-1.59773e-07 1.29348e-05 -5.82083e-08
-2.42692e-07 -5.82083e-08 -4.48287e-05
0.00088646 -1.52618e-05 -3.16849e-07
-1.52618e-05 2.46571e-05 -2.23719e-07
-3.16849e-07 -2.23719e-07 -4.74182e-05
0.000830424 2.62714e-05 -6.25501e-08
2.62714e-05 -2.18509e-06 1.82505e-07
-6.25501e-08 1.82505e-07 -4.56152e-05
0.00188312 8.74169e-06 2.03737e-06
8.74169e-06 0.000242043 -7.47765e-07
2.03737e-06 -7.47765e-07 0.000144326
0.00164054 -2.17679e-05 2.79493e-06
-2.17679e-05 0.000149942 -3.62416e-07
2.79493e-06 -3.62416e-07 5.80991e-05
0.00179353 1.5188e-06 6.7605e-07
1.5188e-06 0.000174701 -1.17517e-07
6.7605e-07 -1.17517e-07 7.48829e-05
0.00158544 -4.35686e-05 9.49017e-07
-4.35686e-05 8.46898e-05 -4.10435e-07
9.49017e-07 -4.10435e-07 -1.12656e-05
0.00116498 -7.57902e-05 7.52283e-07
-7.57902e-05 -4.07841e-05 -9.49368e-07
7.52283e-07 -9.49368e-07 -0.000135519
0.00169382 -6.6961e-05 -1.93597e-06
-6.6961e-05 0.000144492 8.13474e-07
-1.93597e-06 8.13474e-07 5.30147e-05
0.000844742 -1.10091e-05 2.62343e-06
-1.10091e-05 2.08471e-05 -1.45907e-06
2.62343e-06 -1.45907e-06 -4.21723e-05
0.0013147 -8.66834e-05 -9.36126e-07
-8.66834e-05 5.74617e-05 5.26636e-09
-9.36126e-07 5.26636e-09 -3.57161e-05
0.000949418 -6.79339e-05 1.04696e-06
-6.79339e-05 5.84681e-05 3.13921e-07
1.04696e-06 3.13921e-07 -1.98174e-05
0.000789694 -7.75376e-05 1.22619e-06
-7.75376e-05 -4.51356e-05 -1.42854e-06
1.22619e-06 -1.42854e-06 -0.000140618
0.00146048 -0.000105687 1.15245e-06
-0.000105687 0.000225189 6.39843e-07
1.15245e-06 6.39843e-07 0.000121274
0.00173681 -0.000106477 -1.90348e-06
-0.000106477 0.000300781 2.30049e-06
-1.90348e-06 2.30049e-06 0.000208011
0.000846771 2.66869e-05 1.26645e-06
2.66869e-05 1.31532e-06 -1.67103e-06
1.26645e-06 -1.67103e-06 -3.63354e-05
0.000945531 -3.79574e-05 1.35978e-06
-3.79574e-05 5.36101e-05 5.61417e-08
1.35978e-06 5.61417e-08 -2.05301e-05
0.00080753 -8.96774e-06 9.81278e-07
-8.96774e-06 -1.6147e-05 -1.44489e-06
9.81278e-07 -1.44489e-06 -8.43433e-05
0.00104007 -6.96647e-05 7.24882e-08
-6.96647e-05 0.000111758 9.63931e-07
7.24882e-08 9.63931e-07 2.87497e-05
0.00108085 5.90151e-05 -6.01292e-06
5.90151e-05 1.43142e-05 -2.16849e-06
-6.01292e-06 -2.16849e-06 -6.39841e-05
0.000736459 -3.28411e-05 -3.21749e-06
-3.28411e-05 -4.10459e-05 -3.65602e-06
-3.21749e-06 -3.65602e-06 -5.35616e-05
0.000674239 -4.45291e-05 -3.4882e-06
-4.45291e-05 -5.79742e-05 -4.14688e-06
-3.4882e-06 -4.14688e-06 -7.97276e-05
0.000843475 -2.56124e-05 -1.48918e-06
-2.56124e-05 1.10112e-05 -2.51351e-06
-1.48918e-06 -2.51351e-06 -3.81572e-05
0.000906575 5.97018e-05 -3.59926e-06
5.97018e-05 3.21164e-06 -1.46072e-06
-3.59926e-06 -1.46072e-06 -6.88055e-05
0.00118196 8.08437e-05 -2.78519e-06
8.08437e-05 5.13643e-05 -8.65426e-07
-2.78519e-06 -8.65426e-07 -4.07016e-05
0.000831361 1.06667e-05 -2.66531e-06
1.06667e-05 1.83086e-05 -1.94006e-06
-2.66531e-06 -1.94006e-06 -4.51588e-05
0.000988404 7.03221e-05 -2.0305e-06
7.03221e-05 7.94746e-05 -9.48803e-07
-2.0305e-06 -9.48803e-07 -5.17507e-06
0.00114935 8.27724e-05 -1.66641e-06
8.27724e-05 0.000117311 -6.33101e-08
-1.66641e-06 -6.33101e-08 3.44484e-05
0.000846678 7.86379e-05 -2.11837e-06
7.86379e-05 -2.21175e-05 7.84568e-07
-2.11837e-06 7.84568e-07 -0.000113958
0.000774662 -2.98507e-05 1.0952e-07
-2.98507e-05 -2.86794e-05 3.25238e-08
1.0952e-07 3.25238e-08 -3.79359e-05
0.000842264 4.3215e-06 1.36372e-08
4.3215e-06 1.41724e-05 -3.37041e-08
1.36372e-08 -3.37041e-08 -4.26733e-05
0.000829124 -2.58167e-05 -3.50677e-08
-2.58167e-05 1.19187e-07 1.61309e-07
-3.50677e-08 1.61309e-07 -4.20725e-05
0.000941091 1.42066e-05 2.09679e-07
1.42066e-05 5.78971e-05 -2.05893e-07
2.09679e-07 -2.05893e-07 -1.21304e-05
0.00128382 7.1291e-05 6.86839e-07
7.1291e-05 5.52893e-05 2.89932e-07
6.86839e-07 2.89932e-07 -3.8312e-05
0.00110697 8.26163e-05 8.12374e-08
8.26163e-05 6.29831e-05 4.59415e-08
8.12374e-08 4.59415e-08 -2.44906e-05
0.00128862 8.81965e-05 4.3418e-08
8.81965e-05 7.02939e-05 2.38006e-07
4.3418e-08 2.38006e-07 -2.89598e-05
0.00100142 5.17605e-05 1.57814e-07
5.17605e-05 9.1629e-05 1.71045e-07
1.57814e-07 1.71045e-07 1.19343e-05
0.00128552 9.38272e-05 -4.35135e-07
9.38272e-05 0.000168796 -7.17359e-07
-4.35135e-07 -7.17359e-07 7.94722e-05
0.00106677 8.60882e-05 2.18272e-07
8.60882e-05 0.000120462 -5.70321e-07
2.18272e-07 -5.70321e-07 2.26199e-05
0.000919511 8.24043e-05 -1.54966e-06
8.24043e-05 4.26124e-06 3.00737e-08
-1.54966e-06 3.00737e-08 -8.92667e-05
0.000806005 -2.68644e-05 2.50865e-06
-2.68644e-05 -1.90801e-05 3.48448e-06
2.50865e-06 3.48448e-06 -2.57165e-05
0.00082978 -2.49117e-05 1.24353e-06
-2.49117e-05 -4.01589e-06 2.18746e-06
1.24353e-06 2.18746e-06 -4.08308e-05
0.00100723 2.93109e-05 1.57864e-06
2.93109e-05 9.02813e-05 5.87577e-07
1.57864e-06 5.87577e-07 1.58867e-05
0.000911675 2.25974e-06 8.71496e-07
2.25974e-06 4.00463e-05 1.4046e-06
8.71496e-07 1.4046e-06 -2.33025e-05
0.000983875 5.71072e-05 1.13823e-06
5.71072e-05 8.64853e-05 3.74126e-08
1.13823e-06 3.74126e-08 3.71462e-06
0.0013807 7.45403e-05 1.95864e-06
7.45403e-05 6.49165e-05 2.79931e-07
1.95864e-06 2.79931e-07 -3.40537e-05
0.00118081 9.07046e-05 8.44355e-07
9.07046e-05 7.38295e-05 9.39173e-07
8.44355e-07 9.39173e-07 -2.07774e-05
0.00137378 9.39731e-05 -1.95613e-07
9.39731e-05 9.43769e-05 4.56534e-07
-1.95613e-07 4.56534e-07 -7.15392e-06
0.00109372 8.29449e-05 2.32978e-06
8.29449e-05 0.000146074 1.87258e-06
2.32978e-06 1.87258e-06 5.10956e-05
0.00117144 9.37568e-05 1.70897e-06
9.37568e-05 9.63661e-05 -2.51111e-07
1.70897e-06 -2.51111e-07 3.27098e-06
0.000607404 7.13962e-05 1.77286e-06
7.13962e-05 -0.000128772 -1.3603e-06
1.77286e-06 -1.3603e-06 -0.000235934
0.000857352 -1.69063e-05 1.05397e-06
-1.69063e-05 3.0196e-06 1.91475e-06
1.05397e-06 1.91475e-06 -2.7363e-05
0.000891231 7.25276e-06 3.3579e-07
7.25276e-06 2.53367e-05 9.23816e-07
3.3579e-07 9.23816e-07 -2.05735e-05
0.000876941 -8.77458e-06 7.21171e-07
-8.77458e-06 7.27718e-06 1.73552e-06
7.21171e-07 1.73552e-06 -1.9157e-05
0.000866397 -1.14665e-05 1.25675e-07
-1.14665e-05 5.16405e-06 3.6877e-09
1.25675e-07 3.6877e-09 -2.3124e-05
0.00135895 -2.50762e-05 2.12762e-06
-2.50762e-05 0.000261391 2.06376e-06
2.12762e-06 2.06376e-06 0.000261975
0.00107882 -2.56063e-05 7.73475e-07
-2.56063e-05 0.000119162 -2.13685e-08
7.73475e-07 -2.13685e-08 0.000116335
0.00105467 -2.34624e-05 1.93621e-05
-2.34624e-05 0.000108814 6.43477e-06
1.93621e-05 6.43477e-06 0.00012204
0.0022238 -3.91868e-05 8.30441e-07
-3.91868e-05 0.000730872 -6.53367e-08
8.30441e-07 -6.53367e-08 0.000748353
0.00227356 -4.44209e-05 -2.44426e-05
-4.44209e-05 0.000763242 -3.62669e-06
-2.44426e-05 -3.62669e-06 0.000779031
0.000758626 2.9425e-05 2.66978e-06
2.9425e-05 -3.92732e-05 -3.33202e-06
2.66978e-06 -3.33202e-06 -4.88973e-05
0.00240205 5.07191e-05 2.70161e-05
5.07191e-05 0.000835168 -3.50612e-06
2.70161e-05 -3.50612e-06 0.000848827
0.000761019 3.39514e-05 -6.92997e-08
3.39514e-05 -3.10485e-05 7.12245e-08
-6.92997e-08 7.12245e-08 -4.42629e-05
0.00255816 5.61076e-05 -6.22464e-07
5.61076e-05 0.000923184 -9.59733e-08
-6.22464e-07 -9.59733e-08 0.00093431
0.000752586 4.26649e-05 -2.60922e-06
4.26649e-05 -2.631e-05 4.0075e-06
-2.60922e-06 4.0075e-06 -4.47609e-05
0.00269065 6.19781e-05 -3.59269e-05
6.19781e-05 0.000997896 3.49006e-06
-3.59269e-05 3.49006e-06 0.00100654
0.00114662 5.1828e-05 -6.62841e-06
5.1828e-05 1.92466e-05 -1.94824e-06
-6.62841e-06 -1.94824e-06 -6.08943e-05
0.0011955 2.80844e-05 -6.71277e-06
2.80844e-05 5.30459e-06 -1.06877e-06
-6.71277e-06 -1.06877e-06 -7.63079e-05
0.00142302 4.50457e-05 -2.97151e-06
4.50457e-05 6.58684e-05 -3.41899e-07
-2.97151e-06 -3.41899e-07 -2.75941e-05
0.00151752 1.28319e-05 -2.98042e-06
1.28319e-05 7.41146e-05 -6.76411e-07
-2.98042e-06 -6.76411e-07 -2.26091e-05
0.00127441 1.19359e-05 -7.00986e-06
1.19359e-05 3.11764e-06 -1.07957e-06
-7.00986e-06 -1.07957e-06 -8.41154e-05
0.000777725 3.3068e-06 -1.19727e-05
3.3068e-06 -9.99529e-05 1.25257e-07
-1.19727e-05 1.25257e-07 -0.000155645
0.00129745 3.05716e-06 1.69618e-08
3.05716e-06 4.24565e-06 -3.99866e-07
1.69618e-08 -3.99866e-07 -8.43532e-05
0.00154487 1.38249e-05 2.09185e-08
1.38249e-05 6.39096e-05 -1.72003e-07
2.09185e-08 -1.72003e-07 -3.69462e-05
0.0014589 2.55409e-05 9.22975e-08
2.55409e-05 6.40248e-05 7.5184e-08
9.22975e-08 7.5184e-08 -2.9857e-05
0.00159434 7.9328e-06 -3.81693e-08
7.9328e-06 7.50896e-05 1.31993e-07
-3.81693e-08 1.31993e-07 -2.36767e-05
0.00136069 6.0049e-05 -5.64287e-08
6.0049e-05 5.97162e-05 -3.01843e-08
-5.64287e-08 -3.01843e-08 -3.3935e-05
0.00153602 4.82917e-05 -1.2213e-08
4.82917e-05 8.00065e-05 3.603e-08
-1.2213e-08 3.603e-08 -1.52232e-05
0.00156148 8.21571e-06 3.39741e-06
8.21571e-06 6.089e-05 -8.27503e-07
3.39741e-06 -8.27503e-07 -4.14684e-05
0.00159108 9.96557e-06 6.50461e-07
9.96557e-06 5.43419e-05 1.20929e-06
6.50461e-07 1.20929e-06 -4.92311e-05
0.00155448 2.81838e-05 9.516e-07
2.81838e-05 6.86072e-05 4.15685e-08
9.516e-07 4.15685e-08 -2.71874e-05
0.00177105 2.14961e-06 1.16916e-07
2.14961e-06 0.000146127 6.25043e-08
1.16916e-07 6.25043e-08 4.89558e-05
0.00145991 5.98169e-05 5.96084e-07
5.98169e-05 6.89676e-05 -6.13259e-07
5.96084e-07 -6.13259e-07 -2.76163e-05
0.00159406 3.85557e-05 -1.83833e-06
3.85557e-05 8.05094e-05 -5.00711e-08
-1.83833e-06 -5.00711e-08 -7.71473e-06
0.000936993 5.4854e-06 -6.85273e-06
5.4854e-06 -0.000172247 1.07044e-06
-6.85273e-06 1.07044e-06 -0.00026108
0.00161846 -2.3413e-05 -1.04802e-05
-2.3413e-05 0.000218574 1.45666e-06
-1.04802e-05 1.45666e-06 0.000141334
0.0016675 5.54158e-06 -4.75899e-06
5.54158e-06 0.000147537 1.24992e-06
-4.75899e-06 1.24992e-06 5.25542e-05
0.00181869 -5.29402e-05 -3.13895e-06
-5.29402e-05 0.000257013 1.63325e-07
-3.13895e-06 1.63325e-07 0.000165259
0.000716357 4.52543e-05 -3.49779e-06
4.52543e-05 -3.00141e-05 3.84844e-06
-3.49779e-06 3.84844e-06 -5.73748e-05
0.000897913 -2.20993e-05 -2.65874e-06
-2.20993e-05 5.06749e-05 1.14192e-06
-2.65874e-06 1.14192e-06 -1.43117e-05
0.000908647 -7.1413e-05 -6.49676e-07
-7.1413e-05 2.90962e-05 3.07638e-08
-6.49676e-07 3.07638e-08 -5.32054e-05
0.00171802 -8.26193e-05 -3.49381e-06
-8.26193e-05 0.000284203 1.38239e-06
-3.49381e-06 1.38239e-06 0.000194146
0.00139064 -6.35924e-05 -1.0925e-06
-6.35924e-05 1.62144e-05 8.39457e-07
-1.0925e-06 8.39457e-07 -7.99305e-05
0.00130299 -8.27655e-05 -3.64598e-07
-8.27655e-05 7.50447e-05 7.01742e-07
-3.64598e-07 7.01742e-07 -1.82616e-05
0.00107242 -8.71539e-05 -1.20957e-06
-8.71539e-05 5.01482e-05 5.738e-07
-1.20957e-06 5.738e-07 -4.8318e-05
0.00112104 -8.54416e-05 1.27743e-06
-8.54416e-05 4.74548e-06 -7.16059e-07
1.27743e-06 -7.16059e-07 -9.03268e-05
0.000821405 -3.73191e-07 -2.76332e-06
-3.73191e-07 -1.8541e-06 1.60693e-06
-2.76332e-06 1.60693e-06 -5.92326e-05
0.00086579 -1.22406e-05 -1.31996e-06
-1.22406e-05 1.30343e-05 2.47179e-07
-1.31996e-06 2.47179e-07 -5.8699e-05
0.000814684 2.52499e-05 -1.25648e-06
2.52499e-05 -1.02898e-05 2.05462e-06
-1.25648e-06 2.05462e-06 -5.38118e-05
0.00172979 9.22235e-06 -1.58366e-06
9.22235e-06 0.000160064 3.48461e-07
-1.58366e-06 3.48461e-07 6.09055e-05
0.00163809 -2.6896e-05 -7.0988e-07
-2.6896e-05 0.000147437 9.07153e-08
-7.0988e-07 9.07153e-08 5.57151e-05
0.00166871 4.1329e-06 -6.42257e-07
4.1329e-06 0.000109193 4.74566e-07
-6.42257e-07 4.74566e-07 8.97906e-06
0.00167797 -4.21172e-05 1.07263e-07
-4.21172e-05 0.000132801 -3.87027e-07
1.07263e-07 -3.87027e-07 3.71222e-05
0.000847969 -1.34528e-05 1.57006e-07
-1.34528e-05 2.02156e-05 -1.77865e-07
1.57006e-07 -1.77865e-07 -4.23518e-05
0.00101657 -7.09234e-05 -8.11777e-08
-7.09234e-05 9.11193e-05 2.06168e-07
-8.11777e-08 2.06168e-07 1.25984e-05
0.000870855 -7.98585e-05 4.87736e-07
-7.98585e-05 -1.01753e-06 -6.67987e-07
4.87736e-07 -6.67987e-07 -9.54805e-05
0.00138764 -8.03743e-05 8.44936e-08
-8.03743e-05 7.48719e-05 -5.01065e-07
8.44936e-08 -5.01065e-07 -1.97351e-05
0.00159414 -6.50044e-05 3.95068e-07
-6.50044e-05 9.11854e-05 1.15024e-06
3.95068e-07 1.15024e-06 1.07941e-06
0.00122367 -9.75657e-05 3.2396e-08
-9.75657e-05 0.000107504 1.28019e-07
3.2396e-08 1.28019e-07 2.64733e-06
0.00132571 -8.59402e-05 -3.34783e-08
-8.59402e-05 6.25555e-05 3.97456e-07
-3.34783e-08 3.97456e-07 -3.03872e-05
0.00153964 -0.000100149 6.00237e-07
-0.000100149 0.000200483 4.67873e-07
6.00237e-07 4.67873e-07 0.00010852
0.000975417 -4.1206e-05 -1.05089e-07
-4.1206e-05 6.97688e-05 -1.81349e-07
-1.05089e-07 -1.81349e-07 -4.69842e-06
0.00100682 -7.19411e-05 -3.11879e-07
-7.19411e-05 9.43687e-05 3.41524e-07
-3.11879e-07 3.41524e-07 1.02773e-05
0.000837498 2.71046e-05 -3.90345e-09
2.71046e-05 -2.89941e-06 8.62937e-08
-3.90345e-09 8.62937e-08 -4.07463e-05
0.000823479 3.82263e-06 4.67785e-09
3.82263e-06 -1.05144e-05 -5.36006e-07
4.67785e-09 -5.36006e-07 -7.64362e-05
0.00167326 8.11375e-06 1.25648e-06
8.11375e-06 9.47167e-05 -9.16012e-07
1.25648e-06 -9.16012e-07 -9.71349e-06
0.00172874 -1.91619e-05 1.02566e-06
-1.91619e-05 0.000148187 3.37595e-07
1.02566e-06 3.37595e-07 5.17245e-05
0.00170391 6.33099e-06 1.43483e-07
6.33099e-06 0.00010658 8.10892e-08
1.43483e-07 8.10892e-08 5.54691e-06
0.00161774 -3.56934e-05 -1.21928e-06
-3.56934e-05 7.30008e-05 -1.05067e-06
-1.21928e-06 -1.05067e-06 -2.01822e-05
0.00133097 -7.96846e-05 -1.58551e-06
-7.96846e-05 1.25552e-05 2.51843e-08
-1.58551e-06 2.51843e-08 -7.88085e-05
0.00176367 -6.44446e-05 3.60517e-07
-6.44446e-05 0.000148484 1.49012e-07
3.60517e-07 1.49012e-07 6.43226e-05
0.000952756 -6.46939e-05 1.259e-06
-6.46939e-05 6.04408e-05 5.28182e-07
1.259e-06 5.28182e-07 -1.5495e-05
0.00133609 -8.71407e-05 -2.68504e-06
-8.71407e-05 5.21655e-05 9.57107e-07
-2.68504e-06 9.57107e-07 -3.34908e-05
0.000763753 -7.27042e-05 2.90922e-08
-7.27042e-05 -3.66e-05 -3.06286e-07
2.90922e-08 -3.06286e-07 -0.000124916
0.00108971 -9.32595e-05 1.36607e-06
-9.32595e-05 9.49285e-05 -1.15062e-06
1.36607e-06 -1.15062e-06 -1.08829e-05
0.0012961 -0.000104623 1.04937e-06
-0.000104623 0.000125614 2.18425e-06
1.04937e-06 2.18425e-06 1.59825e-05
0.00183651 -0.00010936 -7.27665e-07
-0.00010936 0.000338356 1.72025e-06
-7.27665e-07 1.72025e-06 0.000245719
0.000850499 1.91964e-05 1.45153e-06
1.91964e-05 5.22519e-07 -1.59545e-06
1.45153e-06 -1.59545e-06 -3.39154e-05
0.000767268 -1.45008e-07 6.66716e-07
-1.45008e-07 -4.02892e-05 -1.45667e-06
6.66716e-07 -1.45667e-06 -0.000101361
0.000995273 -7.77793e-05 4.2102e-07
-7.77793e-05 8.35639e-05 1.22116e-06
4.2102e-07 1.22116e-06 3.37069e-08
0.000997033 -5.79862e-05 9.4724e-07
-5.79862e-05 8.99851e-05 8.4752e-08
9.4724e-07 8.4752e-08 9.83296e-06
0.00102994 -7.98101e-05 -1.61243e-07
-7.98101e-05 0.00010674 1.9426e-06
-1.61243e-07 1.9426e-06 1.95054e-05
0.000753847 -2.91129e-05 -2.77513e-06
-2.91129e-05 -3.9228e-05 -3.54046e-06
-2.77513e-06 -3.54046e-06 -4.8339e-05
0.00129613 7.21563e-05 -2.39618e-06
7.21563e-05 6.17141e-05 -2.06979e-07
-2.39618e-06 -2.06979e-07 -3.20725e-05
0.000841451 -2.89644e-05 -1.22958e-06
-2.89644e-05 6.43835e-06 -2.27564e-06
-1.22958e-06 -2.27564e-06 -3.57604e-05
0.000876683 -2.05929e-06 -2.15302e-06
-2.05929e-06 3.29353e-05 -2.22752e-06
-2.15302e-06 -2.22752e-06 -2.37636e-05
0.000944281 1.03539e-05 -7.41958e-07
1.03539e-05 5.92867e-05 -1.19463e-06
-7.41958e-07 -1.19463e-06 -1.04956e-05
0.00106961 8.19038e-05 -2.23503e-06
8.19038e-05 4.53144e-05 -9.0738e-07
-2.23503e-06 -9.0738e-07 -4.21359e-05
0.00128531 8.81905e-05 -1.25939e-06
8.81905e-05 6.87178e-05 -2.5943e-07
-1.25939e-06 -2.5943e-07 -3.05011e-05
0.000954879 6.3011e-05 -1.65179e-06
6.3011e-05 6.98731e-05 -5.08062e-07
-1.65179e-06 -5.08062e-07 -1.01589e-05
0.00109453 8.75664e-05 -1.91953e-06
8.75664e-05 0.000134028 -8.82221e-07
-1.91953e-06 -8.82221e-07 3.57342e-05
0.00141979 9.86998e-05 -1.62062e-06
9.86998e-05 0.000238414 -7.78753e-07
-1.62062e-06 -7.78753e-07 0.000149259
0.00101987 8.61367e-05 -3.33825e-06
8.61367e-05 5.91423e-05 1.74846e-06
-3.33825e-06 1.74846e-06 -3.30028e-05
0.000784796 -2.63005e-05 1.12258e-07
-2.63005e-05 -2.98926e-05 2.75367e-08
1.12258e-07 2.75367e-08 -3.64182e-05
0.000837211 -2.54353e-05 -2.11903e-08
-2.54353e-05 -2.72189e-07 7.1729e-08
-2.11903e-08 7.1729e-08 -3.69813e-05
0.000973611 3.41836e-05 2.08686e-07
3.41836e-05 7.37577e-05 -8.46805e-08
2.08686e-07 -8.46805e-08 -7.92328e-07
0.000916025 -2.09848e-06 1.46271e-07
-2.09848e-06 4.19713e-05 2.14621e-08
1.46271e-07 2.14621e-08 -2.09855e-05
0.000942312 5.07547e-05 2.84985e-07
5.07547e-05 6.41632e-05 -2.67267e-07
2.84985e-07 -2.67267e-07 -1.83834e-05
0.00138422 7.50702e-05 8.33854e-07
7.50702e-05 6.66395e-05 5.84644e-07
8.33854e-07 5.84644e-07 -3.25235e-05
0.00118333 9.13347e-05 1.0454e-07
9.13347e-05 7.54891e-05 6.92166e-08
1.0454e-07 6.92166e-08 -1.91609e-05
0.00133839 9.40775e-05 8.85149e-07
9.40775e-05 7.65202e-05 4.98472e-07
8.85149e-07 4.98472e-07 -2.5439e-05
0.00103736 8.10512e-05 6.5802e-07
8.10512e-05 0.000118679 7.24027e-07
6.5802e-07 7.24027e-07 2.38415e-05
0.00127113 9.68022e-05 2.96297e-07
9.68022e-05 0.000148064 -6.27258e-07
2.96297e-07 -6.27258e-07 5.50922e-05
0.000903989 8.3356e-05 -1.17897e-06
8.3356e-05 2.06497e-05 -6.48978e-07
-1.17897e-06 -6.48978e-07 -8.62096e-05
0.000845263 -2.12988e-05 1.10631e-06
-2.12988e-05 2.89385e-07 2.03825e-06
1.10631e-06 2.03825e-06 -3.28188e-05
0.000900145 -1.07905e-05 4.79401e-07
-1.07905e-05 2.9327e-05 1.36423e-06
4.79401e-07 1.36423e-06 -2.62657e-05
0.00105027 7.72045e-05 8.27002e-07
7.72045e-05 0.000118739 -6.99989e-08
8.27002e-07 -6.99989e-08 3.03968e-05
0.000972929 2.60838e-05 6.96113e-07
2.60838e-05 7.79987e-05 6.41496e-07
6.96113e-07 6.41496e-07 2.05849e-06
0.00104025 5.37431e-05 5.19864e-07
5.37431e-05 0.000120453 -6.89307e-07
5.19864e-07 -6.89307e-07 3.08754e-05
0.00141958 7.45196e-05 -1.64909e-06
7.45196e-05 5.89272e-05 -1.13467e-06
-1.64909e-06 -1.13467e-06 -3.96544e-05
0.00122012 9.82276e-05 1.20388e-06
9.82276e-05 7.48772e-05 6.76258e-07
1.20388e-06 6.76258e-07 -2.27036e-05
0.0011352 9.68563e-05 -1.81733e-06
9.68563e-05 -2.82267e-05 -1.15989e-06
-1.81733e-06 -1.15989e-06 -0.000123329
0.000985808 8.34911e-05 1.08183e-06
8.34911e-05 9.77545e-05 2.15633e-06
1.08183e-06 2.15633e-06 -9.9747e-06
0.00120931 0.000101234 3.44117e-06
0.000101234 0.000131878 -7.26251e-07
3.44117e-06 -7.26251e-07 2.20155e-05
0.000857048 -1.56221e-05 7.89548e-08
-1.56221e-05 3.14212e-06 7.09461e-09
7.89548e-08 7.09461e-09 -2.72373e-05
0.000741079 -1.44824e-05 4.19546e-07
-1.44824e-05 -5.44761e-05 1.63997e-06
4.19546e-07 1.63997e-06 -0.000102813
0.000832206 -5.22847e-06 -5.69038e-07
-5.22847e-06 -6.2842e-06 1.11325e-08
-5.69038e-07 1.11325e-08 -5.25144e-05
0.00111395 1.26876e-05 7.52436e-07
1.26876e-05 0.000147028 2.47578e-07
7.52436e-07 2.47578e-07 8.98145e-05
0.000889411 5.76107e-06 1.29177e-06
5.76107e-06 2.41283e-05 9.54808e-07
1.29177e-06 9.54808e-07 -2.14085e-05
0.000887383 -2.82396e-06 6.5217e-07
-2.82396e-06 1.01097e-05 1.73418e-06
6.5217e-07 1.73418e-06 -1.52029e-05
0.000876525 -9.34789e-06 8.0282e-08
-9.34789e-06 7.3819e-06 1.98717e-08
8.0282e-08 1.98717e-08 -1.91346e-05
0.00134708 -2.05329e-05 1.57663e-06
-2.05329e-05 0.000249892 1.99289e-06
1.57663e-06 1.99289e-06 0.000252467
0.000868878 -1.02265e-05 -9.80027e-07
-1.02265e-05 7.0778e-06 -1.84013e-06
-9.80027e-07 -1.84013e-06 -2.13343e-05
0.00137278 -2.36106e-05 -3.38911e-06
-2.36106e-05 0.000268225 -1.19433e-06
-3.38911e-06 -1.19433e-06 0.000269091
0.00105477 -2.02109e-05 1.64158e-05
-2.02109e-05 0.000102016 6.28652e-06
1.64158e-05 6.28652e-06 0.000117146
0.00136256 -2.61408e-05 -8.54613e-06
-2.61408e-05 0.000268634 -3.23662e-06
-8.54613e-06 -3.23662e-06 0.000267589
0.00159725 -2.89799e-05 1.46401e-05
-2.89799e-05 0.000394741 2.15043e-06
1.46401e-05 2.15043e-06 0.000410951
0.00222022 -3.92869e-05 -2.1631e-05
-3.92869e-05 0.000728011 -3.69969e-06
-2.1631e-05 -3.69969e-06 0.000745702
0.000765633 2.66935e-05 2.26004e-06
2.66935e-05 -4.11456e-05 -3.26953e-06
2.26004e-06 -3.26953e-06 -4.84086e-05
0.000775026 2.99196e-05 -1.37728e-07
2.99196e-05 -3.08357e-05 3.07371e-08
-1.37728e-07 3.07371e-08 -4.06084e-05
0.00232939 4.55638e-05 2.40689e-05
4.55638e-05 0.000790232 -3.58834e-06
2.40689e-05 -3.58834e-06 0.000805871
0.00242835 5.05982e-05 -6.28696e-07
5.05982e-05 0.00084949 -7.62408e-08
-6.28696e-07 -7.62408e-08 0.00086287
0.000778944 3.56026e-05 -2.8282e-06
3.56026e-05 -2.16166e-05 3.70826e-06
-2.8282e-06 3.70826e-06 -3.51799e-05
0.00258219 5.58304e-05 -3.33671e-05
5.58304e-05 0.000936055 3.57534e-06
-3.33671e-05 3.57534e-06 0.000946936
0.00137509 6.07334e-05 -3.08326e-06
6.07334e-05 6.67819e-05 -3.186e-07
-3.08326e-06 -3.186e-07 -2.69795e-05
0.00146555 2.60262e-05 -2.97336e-06
2.60262e-05 6.76327e-05 -2.81611e-07
-2.97336e-06 -2.81611e-07 -2.63018e-05
0.00155058 4.91566e-05 -6.39017e-07
4.91566e-05 8.76129e-05 4.12917e-07
-6.39017e-07 4.12917e-07 -7.67254e-06
0.00157649 7.1132e-06 -7.7126e-07
7.1132e-06 6.37159e-05 -3.33579e-07
-7.7126e-07 -3.33579e-07 -3.5498e-05
0.00155803 1.72047e-05 -2.97278e-06
1.72047e-05 7.07645e-05 -9.56731e-07
-2.97278e-06 -9.56731e-07 -3.00935e-05
0.00130433 7.85e-06 -7.02882e-06
7.85e-06 7.4082e-06 -9.13205e-08
-7.02882e-06 -9.13205e-08 -8.11823e-05
0.00157299 1.26239e-05 6.97e-08
1.26239e-05 6.66898e-05 -5.71849e-07
6.97e-08 -5.71849e-07 -3.57401e-05
0.00158574 1.91347e-06 1.94098e-07
1.91347e-06 4.95472e-05 4.34113e-07
1.94098e-07 4.34113e-07 -5.49401e-05
0.00157795 2.74745e-05 3.03503e-08
2.74745e-05 8.06968e-05 6.49773e-08
3.03503e-08 6.49773e-08 -1.4984e-05
0.00172698 1.46488e-06 -4.05732e-08
1.46488e-06 0.000122121 -2.86394e-07
-4.05732e-08 -2.86394e-07 2.52369e-05
0.00146954 6.10495e-05 -9.02903e-08
6.10495e-05 7.36099e-05 2.54949e-08
-9.02903e-08 2.54949e-08 -2.32333e-05
0.00159188 3.85418e-05 -9.59964e-08
3.85418e-05 7.68254e-05 6.25316e-07
-9.59964e-08 6.25316e-07 -1.13717e-05
0.00162815 2.51871e-06 1.66114e-06
2.51871e-06 5.8447e-05 -4.80312e-07
1.66114e-06 -4.80312e-07 -4.87918e-05
0.00173538 9.75861e-06 -3.40684e-07
9.75861e-06 0.000109719 5.05333e-07
-3.40684e-07 5.05333e-07 5.29613e-06
0.00156031 1.87918e-05 -5.36849e-07
1.87918e-05 4.2396e-05 8.37332e-07
-5.36849e-07 8.37332e-07 -4.97406e-05
0.00178032 -3.51508e-06 -2.67147e-07
-3.51508e-06 0.000139927 -2.84278e-07
-2.67147e-07 -2.84278e-07 4.40176e-05
0.00143172 5.45378e-05 -1.38646e-06
5.45378e-05 2.2216e-05 -1.44072e-06
-1.38646e-06 -1.44072e-06 -6.97916e-05
0.00186147 3.16497e-05 -5.75443e-07
3.16497e-05 0.000189888 -5.63703e-07
-5.75443e-07 -5.63703e-07 0.000105303
0.00156764 9.00015e-06 -4.55399e-06
9.00015e-06 7.35839e-05 1.41531e-06
-4.55399e-06 1.41531e-06 -2.70076e-05
0.00162842 -2.87286e-05 -4.24318e-06
-2.87286e-05 0.000141505 4.57233e-07
-4.24318e-06 4.57233e-07 4.99029e-05
0.00155353 4.59513e-06 -1.76754e-06
4.59513e-06 4.84731e-05 7.68495e-07
-1.76754e-06 7.68495e-07 -5.21457e-05
0.00176375 -4.12524e-05 -1.339e-06
-4.12524e-05 0.000177501 -2.64778e-07
-1.339e-06 -2.64778e-07 8.20943e-05
0.000862538 -1.58126e-05 -2.73153e-06
-1.58126e-05 2.5423e-05 1.20069e-06
-2.73153e-06 1.20069e-06 -3.67377e-05
0.0010806 -7.37782e-05 -1.37124e-06
-7.37782e-05 0.000122398 1.41236e-07
-1.37124e-06 1.41236e-07 4.36195e-05
0.000943928 -8.17219e-05 -2.12933e-07
-8.17219e-05 3.91864e-05 5.41814e-08
-2.12933e-07 5.41814e-08 -5.4241e-05
0.0016151 -8.50104e-05 -7.31545e-07
-8.50104e-05 0.00019296 2.57972e-07
-7.31545e-07 2.57972e-07 9.84775e-05
0.0014949 -6.30855e-05 1.0912e-06
-6.30855e-05 3.81027e-05 5.39342e-07
1.0912e-06 5.39342e-07 -5.0626e-05
0.00133756 -8.52837e-05 1.50754e-06
-8.52837e-05 6.81328e-05 6.43535e-07
1.50754e-06 6.43535e-07 -2.45893e-05
0.000992841 -8.96567e-05 -7.65024e-07
-8.96567e-05 -7.23684e-06 -9.62033e-08
-7.65024e-07 -9.62033e-08 -0.000113043
0.00134511 -9.38635e-05 2.50191e-06
-9.38635e-05 0.000101296 -2.58054e-06
2.50191e-06 -2.58054e-06 1.01666e-05
0.000995251 -3.58895e-05 -1.38754e-06
-3.58895e-05 7.95014e-05 -3.09264e-07
-1.38754e-06 -3.09264e-07 5.46244e-06
0.000981616 -6.56269e-05 -9.40699e-07
-6.56269e-05 7.9046e-05 -6.1389e-07
-9.40699e-07 -6.1389e-07 -4.93488e-06
0.000826156 2.71725e-05 -1.09013e-06
2.71725e-05 -8.16217e-06 1.84374e-06
-1.09013e-06 1.84374e-06 -4.61982e-05
0.000846625 1.06919e-05 -3.26834e-07
1.06919e-05 1.92802e-07 3.97463e-07
-3.26834e-07 3.97463e-07 -6.44373e-05
0.00167806 8.66325e-06 -1.40623e-07
8.66325e-06 9.6964e-05 8.7167e-08
-1.40623e-07 8.7167e-08 -7.50546e-06
0.001758 -1.67239e-05 -4.81877e-07
-1.67239e-05 0.000162853 9.68149e-08
-4.81877e-07 9.68149e-08 6.67127e-05
0.00167387 5.99758e-06 -8.39747e-07
5.99758e-06 9.26956e-05 6.25889e-07
-8.39747e-07 6.25889e-07 -7.57071e-06
0.00163084 -3.63172e-05 -1.4352e-07
-3.63172e-05 7.93979e-05 -4.25186e-07
-1.4352e-07 -4.25186e-07 -1.37479e-05
0.00100125 -5.60426e-05 -1.05523e-07
-5.60426e-05 8.32436e-05 2.74973e-08
-1.05523e-07 2.74973e-08 7.86586e-06
0.000826073 -7.43015e-05 4.32103e-07
-7.43015e-05 -4.39936e-06 -3.1072e-07
4.32103e-07 -3.1072e-07 -9.16413e-05
0.00109073 -9.29018e-05 8.53929e-08
-9.29018e-05 9.68682e-05 -2.05099e-07
8.53929e-08 -2.05099e-07 -9.17215e-06
0.0014607 -8.18917e-05 -7.81834e-07
-8.18917e-05 8.02685e-05 -4.08796e-07
-7.81834e-07 -4.08796e-07 -1.20204e-05
0.00160785 -6.31849e-05 9.00545e-08
-6.31849e-05 7.67516e-05 9.27269e-07
9.00545e-08 9.27269e-07 -4.08122e-06
0.00128935 -0.000103521 -1.89084e-07
-0.000103521 0.000123286 6.1351e-07
-1.89084e-07 6.1351e-07 1.29062e-05
0.00135123 -8.65523e-05 -4.328e-09
-8.65523e-05 6.0908e-05 7.0828e-07
-4.328e-09 7.0828e-07 -2.4594e-05
0.001527 -0.000100017 9.74167e-07
-0.000100017 0.000179406 -1.52326e-06
9.74167e-07 -1.52326e-06 8.94147e-05
0.00103473 -7.93123e-05 6.67714e-08
-7.93123e-05 0.000102995 -3.54364e-08
6.67714e-08 -3.54364e-08 1.9494e-05
0.00103174 -7.97306e-05 5.14309e-08
-7.97306e-05 0.000106692 1.93268e-07
5.14309e-08 1.93268e-07 1.94488e-05
0.000992451 -4.56546e-05 -3.21036e-07
-4.56546e-05 8.63972e-05 2.60412e-08
-3.21036e-07 2.60412e-08 7.09098e-06
0.000725806 2.44195e-05 -2.35151e-07
2.44195e-05 -6.4171e-05 1.31488e-08
-2.35151e-07 1.31488e-08 -9.97139e-05
0.000802338 1.33309e-05 9.36522e-08
1.33309e-05 -2.47398e-05 -3.8754e-07
9.36522e-08 -3.8754e-07 -8.38654e-05
0.00170003 1.31481e-05 3.09908e-07
1.31481e-05 8.55068e-05 -7.71187e-07
3.09908e-07 -7.71187e-07 -2.06006e-05
0.00167175 -6.09419e-07 9.49884e-07
-6.09419e-07 8.19293e-05 -5.7737e-08
9.49884e-07 -5.7737e-08 -1.68297e-05
0.00165815 -4.11086e-05 5.30793e-07
-4.11086e-05 6.68853e-05 -1.90085e-06
5.30793e-07 -1.90085e-06 -2.20049e-05
0.00136885 -7.28435e-05 -1.60834e-07
-7.28435e-05 -6.33395e-06 -1.01997e-06
-1.60834e-07 -1.01997e-06 -8.80517e-05
0.000973289 -7.81688e-05 1.56246e-08
-7.81688e-05 7.26628e-05 1.23332e-06
1.56246e-08 1.23332e-06 -1.08068e-05
0.00180919 -9.98602e-05 -1.34618e-06
-9.98602e-05 0.000264909 1.575e-06
-1.34618e-06 1.575e-06 0.000185728
0.000498269 -6.41744e-05 -2.10292e-07
-6.41744e-05 -0.000168606 -1.40069e-06
-2.10292e-07 -1.40069e-06 -0.000263452
0.00117127 -0.00010203 2.61735e-06
-0.00010203 0.000118338 -1.09255e-06
2.61735e-06 -1.09255e-06 -1.16354e-06
0.00154213 -0.000114631 1.40459e-06
-0.000114631 0.000222972 2.4223e-06
1.40459e-06 2.4223e-06 0.000108487
0.000639173 1.79433e-05 1.13647e-06
1.79433e-05 -0.000112053 -2.17706e-06
1.13647e-06 -2.17706e-06 -0.000146077
0.000998277 -2.85083e-07 1.22174e-06
-2.85083e-07 7.93608e-05 -7.77132e-07
1.22174e-06 -7.77132e-07 2.48161e-05
0.00101231 -2.76345e-05 2.83176e-07
-2.76345e-05 9.17777e-05 -2.80643e-07
2.83176e-07 -2.80643e-07 2.13676e-05
0.00101213 -7.92519e-05 -2.88788e-07
-7.92519e-05 9.10538e-05 1.95837e-06
-2.88788e-07 1.95837e-06 6.2639e-06
0.00109907 -6.39976e-05 5.42871e-07
-6.39976e-05 0.00014497 1.44251e-06
5.42871e-07 1.44251e-06 5.70954e-05
0.000943801 -7.65224e-05 -8.18232e-08
-7.65224e-05 5.57441e-05 1.77584e-06
-8.18232e-08 1.77584e-06 -3.2355e-05
0.000764252 -2.57866e-05 -2.30202e-06
-2.57866e-05 -4.03577e-05 -3.49573e-06
-2.30202e-06 -3.49573e-06 -4.6776e-05
0.000846263 -2.55796e-05 -1.35585e-06
-2.55796e-05 4.36767e-06 -2.01645e-06
-1.35585e-06 -2.01645e-06 -3.22765e-05
0.0013905 7.57261e-05 -6.31259e-07
7.57261e-05 6.96782e-05 8.11752e-07
-6.31259e-07 8.11752e-07 -2.96764e-05
0.000928058 -8.47761e-06 -4.71162e-07
-8.47761e-06 4.77148e-05 -1.44166e-06
-4.71162e-07 -1.44166e-06 -1.47814e-05
0.000926541 2.91705e-05 -1.29517e-06
2.91705e-05 4.89575e-05 -5.32315e-07
-1.29517e-06 -5.32315e-07 -2.49418e-05
0.000903726 4.64735e-05 -4.72932e-07
4.64735e-05 4.35534e-05 -3.07292e-07
-4.72932e-07 -3.07292e-07 -3.88893e-05
0.00118397 9.18647e-05 -1.10526e-06
9.18647e-05 7.62259e-05 -9.23934e-07
-1.10526e-06 -9.23934e-07 -1.8461e-05
0.00129661 9.39313e-05 3.30601e-07
9.39313e-05 5.54861e-05 2.29281e-07
3.30601e-07 2.29281e-07 -4.68858e-05
0.000976023 7.89096e-05 -6.7163e-07
7.89096e-05 8.84528e-05 -2.75548e-07
-6.7163e-07 -2.75548e-07 -6.17935e-06
0.00119205 9.48984e-05 -2.03275e-06
9.48984e-05 0.000165715 4.95083e-07
-2.03275e-06 4.95083e-07 5.91945e-05
0.00136914 9.98183e-05 -2.49522e-06
9.98183e-05 0.00019905 -5.67769e-07
-2.49522e-06 -5.67769e-07 0.000106185
0.000848247 -2.06794e-05 5.90241e-08
-2.06794e-05 1.98592e-06 2.94608e-08
5.90241e-08 2.94608e-08 -3.10858e-05
0.000903342 -1.22723e-05 -2.8489e-08
-1.22723e-05 3.09548e-05 1.10688e-07
-2.8489e-08 1.10688e-07 -2.46038e-05
0.00102649 7.64064e-05 -3.24835e-07
7.64064e-05 0.00010805 -2.29018e-07
-3.24835e-07 -2.29018e-07 2.00987e-05
0.000962585 2.4363e-05 1.22625e-07
2.4363e-05 7.1705e-05 -3.031e-08
1.22625e-07 -3.031e-08 -3.79991e-06
0.000963884 5.70573e-05 -2.435e-08
5.70573e-05 8.24707e-05 -4.12686e-07
-2.435e-08 -4.12686e-07 -8.45513e-06
0.001427 7.6658e-05 -6.61359e-07
7.6658e-05 6.42794e-05 -2.1941e-08
-6.61359e-07 -2.1941e-08 -3.48444e-05
0.00123886 9.86533e-05 8.13015e-07
9.86533e-05 8.31686e-05 -5.7973e-09
8.13015e-07 -5.7973e-09 -1.45948e-05
0.00122369 9.82215e-05 3.5922e-07
9.82215e-05 1.17127e-05 5.55468e-07
3.5922e-07 5.55468e-07 -8.19305e-05
0.000836811 7.76564e-05 4.91868e-07
7.76564e-05 2.18128e-05 1.1682e-06
4.91868e-07 1.1682e-06 -8.61863e-05
0.00121767 0.000101529 -2.50764e-07
0.000101529 0.000137347 -5.41526e-07
-2.50764e-07 -5.41526e-07 2.53596e-05
0.000892163 -1.08752e-05 5.55837e-07
-1.08752e-05 2.47287e-05 1.25745e-06
5.55837e-07 1.25745e-06 -2.57592e-05
0.000857839 8.4462e-06 4.1921e-07
8.4462e-06 1.17882e-05 1.37415e-06
4.1921e-07 1.37415e-06 -5.78225e-05
0.00112075 8.6475e-05 3.82714e-07
8.6475e-05 0.000166012 -3.26608e-07
3.82714e-07 -3.26608e-07 6.68735e-05
0.000893252 4.08794e-05 4.12646e-07
4.08794e-05 4.27702e-05 2.87162e-07
4.12646e-07 2.87162e-07 -4.5056e-05
0.00100822 6.46189e-05 2.75536e-07
6.46189e-05 0.000101637 -8.28025e-07
2.75536e-07 -8.28025e-07 5.17006e-06
0.00154307 7.6158e-05 -2.39893e-06
7.6158e-05 8.14516e-05 -5.60276e-07
-2.39893e-06 -5.60276e-07 2.86145e-06
0.00155283 0.000118275 1.2684e-06
0.000118275 0.000237804 -1.20879e-06
1.2684e-06 -1.20879e-06 0.000130636
0.000511558 8.24013e-05 7.40465e-07
8.24013e-05 -0.000374795 -1.9522e-06
7.40465e-07 -1.9522e-06 -0.000462549
0.00152882 0.00010796 3.60949e-06
0.00010796 0.000361871 3.02283e-06
3.60949e-06 3.02283e-06 0.000245328
0.000167064 6.66294e-05 8.2153e-07
6.66294e-05 -0.000397498 -5.21888e-07
8.2153e-07 -5.21888e-07 -0.00052103
0.000856733 -1.34661e-05 -1.23306e-06
-1.34661e-05 3.23935e-06 -1.85245e-06
-1.23306e-06 -1.85245e-06 -2.7117e-05
0.000822764 -1.0182e-05 1.40794e-07
-1.0182e-05 -1.18922e-05 5.68941e-07
1.40794e-07 5.68941e-07 -5.984e-05
0.000828327 -7.92174e-06 3.74124e-07
-7.92174e-06 -5.92589e-06 1.21469e-06
3.74124e-07 1.21469e-06 -6.6156e-05
0.00078323 -1.8243e-05 -5.84668e-07
-1.8243e-05 -3.27731e-05 -8.87524e-07
-5.84668e-07 -8.87524e-07 -7.92691e-05
0.000905384 2.18225e-06 2.20111e-07
2.18225e-06 3.14301e-05 -4.01221e-08
2.20111e-07 -4.01221e-08 -1.33805e-05
0.000964509 -1.10888e-05 1.45264e-07
-1.10888e-05 6.66733e-05 -4.27941e-07
1.45264e-07 -4.27941e-07 9.87106e-06
0.00107155 6.27416e-06 3.36451e-07
6.27416e-06 0.000126565 2.33214e-07
3.36451e-07 2.33214e-07 6.14281e-05
0.000834103 -2.68152e-05 3.33825e-08
-2.68152e-05 4.34748e-07 8.35877e-07
3.33825e-08 8.35877e-07 -5.67444e-05
0.000913004 -2.00087e-05 4.87849e-09
-2.00087e-05 3.28272e-05 8.81377e-07
4.87849e-09 8.81377e-07 -1.05541e-05
0.000882803 2.88937e-06 7.087e-07
2.88937e-06 6.61957e-06 1.64537e-06
7.087e-07 1.64537e-06 -1.84691e-05
0.000880835 -7.29509e-06 -1.37281e-07
-7.29509e-06 6.85772e-06 2.7323e-08
-1.37281e-07 2.7323e-08 -1.84863e-05
0.00134025 -1.54454e-05 1.25375e-06
-1.54454e-05 0.000242029 1.92312e-06
1.25375e-06 1.92312e-06 0.000245851
0.000876325 -9.67596e-06 -5.54329e-07
-9.67596e-06 7.60213e-06 -1.79218e-06
-5.54329e-07 -1.79218e-06 -1.89856e-05
0.00136132 -1.92814e-05 -2.7815e-06
-1.92814e-05 0.00025715 -1.16126e-06
-2.7815e-06 -1.16126e-06 0.000259886
0.00104396 -1.6819e-05 1.31801e-05
-1.6819e-05 9.11058e-05 6.145e-06
1.31801e-05 6.145e-06 0.000107825
0.00138449 -2.25312e-05 -7.40791e-06
-2.25312e-05 0.000273922 -4.41336e-06
-7.40791e-06 -4.41336e-06 0.000275021
0.000999507 -2.14128e-05 5.39541e-06
-2.14128e-05 7.3257e-05 2.38573e-06
5.39541e-06 2.38573e-06 8.82506e-05
0.00212997 -3.79037e-05 -6.05597e-06
-3.79037e-05 0.000675457 -1.58958e-06
-6.05597e-06 -1.58958e-06 0.000694306
0.000776412 2.39829e-05 1.78371e-06
2.39829e-05 -4.08345e-05 -3.24923e-06
1.78371e-06 -3.24923e-06 -4.59909e-05
0.000782874 2.69548e-05 -1.12531e-07
2.69548e-05 -3.24009e-05 2.43147e-08
-1.12531e-07 2.43147e-08 -3.9741e-05
0.00227703 4.034e-05 2.12591e-05
4.034e-05 0.000756353 -3.66954e-06
2.12591e-05 -3.66954e-06 0.000773723
0.000792723 3.05155e-05 -2.9091e-06
3.05155e-05 -2.17191e-05 3.39036e-06
-2.9091e-06 3.39036e-06 -3.16469e-05
0.00233444 4.53023e-05 -8.23958e-07
4.53023e-05 0.000793726 -7.18986e-08
-8.23958e-07 -7.18986e-08 0.000809182
0.0024461 5.01333e-05 -2.98055e-05
5.01333e-05 0.000859331 3.62904e-06
-2.98055e-05 3.62904e-06 0.000872503
0.00147892 6.22042e-05 -1.31906e-06
6.22042e-05 7.81256e-05 5.37107e-07
-1.31906e-06 5.37107e-07 -1.89742e-05
0.00160551 2.58287e-05 -4.73317e-07
2.58287e-05 9.48515e-05 1.72867e-07
-4.73317e-07 1.72867e-07 -6.83577e-07
0.00159394 3.8565e-05 1.96877e-06
3.8565e-05 7.5355e-05 9.52473e-07
1.96877e-06 9.52473e-07 -1.28299e-05
0.001683 6.83314e-07 -7.79996e-08
6.83314e-07 9.81812e-05 -6.37075e-07
-7.79996e-08 -6.37075e-07 1.58193e-06
0.0015892 -2.75783e-06 -6.35955e-07
-2.75783e-06 4.90517e-05 -5.78471e-07
-6.35955e-07 -5.78471e-07 -5.63578e-05
0.00158225 1.61757e-05 -3.08969e-06
1.61757e-05 7.13817e-05 -2.78023e-07
-3.08969e-06 -2.78023e-07 -3.10917e-05
0.00166321 6.26129e-06 2.95092e-07
6.26129e-06 7.54766e-05 -3.66867e-07
2.95092e-07 -3.66867e-07 -3.21409e-05
0.00173662 5.70269e-06 5.79239e-08
5.70269e-06 0.000112556 -4.53298e-07
5.79239e-08 -4.53298e-07 8.37214e-06
0.00157172 1.70849e-05 1.54198e-08
1.70849e-05 4.6967e-05 3.47046e-07
1.54198e-08 3.47046e-07 -4.56293e-05
0.00171868 -3.64548e-06 7.37115e-08
-3.64548e-06 0.000106619 -6.00664e-07
7.37115e-08 -6.00664e-07 1.13047e-05
0.00149362 5.62452e-05 -4.34393e-07
5.62452e-05 5.40793e-05 -8.59643e-09
-4.34393e-07 -8.59643e-09 -3.80131e-05
0.00169495 3.10596e-05 1.29979e-06
3.10596e-05 0.000107247 -5.57087e-07
1.29979e-06 -5.57087e-07 2.4128e-05
0.00174405 1.40695e-05 -3.70973e-08
1.40695e-05 9.73251e-05 5.86698e-08
-3.70973e-08 5.86698e-08 -1.2384e-05
0.00173217 -7.94072e-07 -6.55069e-07
-7.94072e-07 0.000103025 4.34203e-07
-6.55069e-07 4.34203e-07 2.39892e-06
0.00167341 1.00103e-05 -7.94014e-08
1.00103e-05 7.76349e-05 3.21302e-07
-7.94014e-08 3.21302e-07 -1.21052e-05
0.00179072 5.03597e-05 -1.41673e-06
5.03597e-05 0.000163797 -1.00785e-06
-1.41673e-06 -1.00785e-06 8.09528e-05
0.00167914 9.17772e-06 -1.28417e-06
9.17772e-06 9.73832e-05 1.11534e-06
-1.28417e-06 1.11534e-06 -7.13113e-06
0.00179396 -1.60358e-05 -2.36534e-06
-1.60358e-05 0.000180734 1.18129e-07
-2.36534e-06 1.18129e-07 8.49087e-05
0.00162201 5.57341e-06 -1.643e-06
5.57341e-06 6.80091e-05 1.01847e-06
-1.643e-06 1.01847e-06 -3.15179e-05
0.0016531 -3.63913e-05 -2.01507e-08
-3.63913e-05 9.04673e-05 -2.90683e-09
-2.01507e-08 -2.90683e-09 -2.64816e-06
0.0010468 -5.54651e-05 -1.32717e-06
-5.54651e-05 0.000105691 -4.44496e-07
-1.32717e-06 -4.44496e-07 3.0199e-05
0.00090774 -7.68292e-05 4.33662e-07
-7.68292e-05 3.7444e-05 -4.45388e-07
4.33662e-07 -4.45388e-07 -4.87813e-05
0.00109101 -9.25014e-05 -7.13857e-07
-9.25014e-05 9.85126e-05 1.22701e-06
-7.13857e-07 1.22701e-06 -7.76168e-06
0.00158912 -8.40336e-05 3.6183e-07
-8.40336e-05 0.000147257 -9.17826e-08
3.6183e-07 -9.17826e-08 5.40538e-05
0.00146111 -6.21477e-05 7.09196e-07
-6.21477e-05 9.55291e-06 1.8291e-06
7.09196e-07 1.8291e-06 -6.79822e-05
0.00135158 -8.56701e-05 2.53452e-06
-8.56701e-05 6.24093e-05 4.81982e-07
2.53452e-06 4.81982e-07 -2.29437e-05
0.00126368 -0.000101802 -1.07359e-06
-0.000101802 0.000111349 -8.62365e-07
-1.07359e-06 -8.62365e-07 2.61701e-07
0.00123483 -9.1159e-05 2.56699e-08
-9.1159e-05 2.98086e-05 -5.86502e-06
2.56699e-08 -5.86502e-06 -5.76601e-05
0.00107396 -8.09185e-05 -3.85353e-07
-8.09185e-05 0.000122467 -1.20991e-06
-3.85353e-07 -1.20991e-06 3.89651e-05
0.00103985 -7.99212e-05 -5.45317e-07
-7.99212e-05 0.000109689 -1.84988e-06
-5.45317e-07 -1.84988e-06 2.24392e-05
0.000982398 -3.38551e-05 -2.90298e-07
-3.38551e-05 8.04835e-05 1.96746e-07
-2.90298e-07 1.96746e-07 1.8581e-06
0.000604932 2.58293e-05 -9.52316e-07
2.58293e-05 -0.000127157 1.69544e-06
-9.52316e-07 1.69544e-06 -0.000163645
0.000840367 2.3426e-05 -1.43424e-07
2.3426e-05 -6.84916e-06 4.71701e-07
-1.43424e-07 4.71701e-07 -6.46048e-05
0.0016774 1.2253e-05 -4.11387e-07
1.2253e-05 7.62989e-05 2.81157e-07
-4.11387e-07 2.81157e-07 -2.8873e-05
0.0017253 -1.72605e-06 -1.17063e-07
-1.72605e-06 0.000109866 -1.44738e-07
-1.17063e-07 -1.44738e-07 1.09771e-05
0.00174124 -4.23074e-05 -1.38673e-06
-4.23074e-05 0.000112835 8.53316e-08
-1.38673e-06 8.53316e-08 2.47228e-05
0.00104315 -8.0587e-05 1.15288e-08
-8.0587e-05 0.000106562 1.53572e-07
1.15288e-08 1.53572e-07 2.30135e-05
0.000825917 -7.68133e-05 8.79933e-07
-7.68133e-05 -3.8284e-06 -7.52171e-07
8.79933e-07 -7.52171e-07 -9.7972e-05
0.00113142 -9.99085e-05 -1.36965e-07
-9.99085e-05 0.000101314 -3.23793e-07
-1.36965e-07 -3.23793e-07 -1.86866e-05
0.00146226 -7.3957e-05 5.9133e-07
-7.3957e-05 3.87817e-05 -6.90223e-07
5.9133e-07 -6.90223e-07 -4.41243e-05
0.00144742 -0.00010905 -2.39113e-07
-0.00010905 0.000175879 -2.54363e-07
-2.39113e-07 -2.54363e-07 6.45917e-05
0.00145652 -9.38351e-05 -6.63747e-07
-9.38351e-05 9.02173e-05 -6.59637e-07
-6.63747e-07 -6.59637e-07 1.0849e-05
0.000628893 2.13918e-05 4.2312e-08
2.13918e-05 -0.000117531 -5.8763e-07
4.2312e-08 -5.8763e-07 -0.000151286
0.00104413 -8.05464e-05 1.25413e-08
-8.05464e-05 0.000107132 6.42841e-08
1.25413e-08 6.42841e-08 2.22014e-05
0.000962495 -7.70311e-05 -6.24139e-07
-7.70311e-05 6.61216e-05 6.78428e-08
-6.24139e-07 6.78428e-08 -2.12351e-05
0.00108674 -6.54524e-05 -3.71036e-07
-6.54524e-05 0.000140274 7.50641e-07
-3.71036e-07 7.50641e-07 5.12338e-05
0.00105125 -2.88377e-05 -6.96e-09
-2.88377e-05 0.000112557 -4.34552e-09
-6.96e-09 -4.34552e-09 4.1998e-05
0.000893978 8.33758e-06 -1.37536e-07
8.33758e-06 2.31146e-05 1.73323e-07
-1.37536e-07 1.73323e-07 -3.1027e-05
0.0018357 1.46722e-05 5.65064e-07
1.46722e-05 0.000148075 -6.13542e-07
5.65064e-07 -6.13542e-07 4.37636e-05
0.00169584 -3.10859e-06 1.62656e-07
-3.10859e-06 6.68466e-05 -1.34256e-07
1.62656e-07 -1.34256e-07 -3.05036e-05
0.00143575 -4.94474e-05 1.85239e-06
-4.94474e-05 -4.30052e-05 -2.69495e-06
1.85239e-06 -2.69495e-06 -0.000130455
0.00167815 -8.74539e-05 2.65598e-08
-8.74539e-05 0.000104002 -1.03478e-06
2.65598e-08 -1.03478e-06 3.16729e-05
0.000996076 -8.02136e-05 -4.71725e-07
-8.02136e-05 8.42456e-05 1.30758e-06
-4.71725e-07 1.30758e-06 -2.49804e-06
0.00152616 -0.000109427 2.1179e-06
-0.000109427 0.000148818 3.30573e-06
2.1179e-06 3.30573e-06 4.72865e-05
0.00077274 -7.95916e-05 -7.5643e-07
-7.95916e-05 -3.51829e-05 -2.2163e-06
-7.5643e-07 -2.2163e-06 -0.00014548
0.00144066 -0.000115477 1.26404e-06
-0.000115477 0.000239772 8.50625e-07
1.26404e-06 8.50625e-07 0.00010926
0.00064146 1.75231e-05 7.90687e-07
1.75231e-05 -0.000113018 -2.26747e-06
7.90687e-07 -2.26747e-06 -0.000144608
0.00101519 -7.05381e-07 1.00649e-06
-7.05381e-07 8.75033e-05 -7.15186e-07
1.00649e-06 -7.15186e-07 3.71608e-05
0.00109167 -2.56749e-05 2.19089e-07
-2.56749e-05 0.00013274 5.86005e-07
2.19089e-07 5.86005e-07 6.6382e-05
0.00101353 -3.78911e-05 5.43467e-07
-3.78911e-05 9.85889e-05 -7.42685e-07
5.43467e-07 -7.42685e-07 1.5498e-05
0.00104615 -8.11663e-05 -2.45332e-07
-8.11663e-05 0.000104504 1.90061e-06
-2.45332e-07 1.90061e-06 1.75259e-05
0.000995874 -7.97653e-05 -1.97457e-07
-7.97653e-05 8.69389e-05 2.63365e-06
-1.97457e-07 2.63365e-06 -5.29417e-06
0.000848585 -1.96971e-05 -1.34133e-06
-1.96971e-05 2.23135e-06 -1.91094e-06
-1.34133e-06 -1.91094e-06 -3.07523e-05
0.000904168 -1.3377e-05 -4.70365e-07
-1.3377e-05 3.14049e-05 -1.32473e-06
-4.70365e-07 -1.32473e-06 -2.41274e-05
0.00144202 7.90124e-05 2.78475e-07
7.90124e-05 7.34169e-05 1.22203e-06
2.78475e-07 1.22203e-06 -2.62586e-05
0.000956372 1.98457e-05 -5.06096e-07
1.98457e-05 6.73507e-05 -7.47936e-07
-5.06096e-07 -7.47936e-07 -7.57415e-06
0.000996345 7.5423e-05 -6.27876e-07
7.5423e-05 9.43407e-05 -1.94487e-07
-6.27876e-07 -1.94487e-07 6.7624e-06
0.000898605 5.14219e-05 -8.70454e-07
5.14219e-05 4.83041e-05 -2.51138e-07
-8.70454e-07 -2.51138e-07 -4.27161e-05
0.00125963 9.91525e-05 -1.13364e-06
9.91525e-05 9.24405e-05 -9.6274e-07
-1.13364e-06 -9.6274e-07 -5.50581e-06
0.00130474 9.9378e-05 9.21218e-07
9.9378e-05 4.75503e-05 1.34506e-06
9.21218e-07 1.34506e-06 -4.45697e-05
0.000691226 7.20233e-05 -6.27843e-07
7.20233e-05 -5.22466e-05 2.30267e-08
-6.27843e-07 2.30267e-08 -0.000160555
0.00124113 0.000102498 -2.07488e-06
0.000102498 0.000150626 3.12279e-07
-2.07488e-06 3.12279e-07 3.64418e-05
0.000894447 -1.25247e-05 -6.38373e-08
-1.25247e-05 2.56778e-05 9.14806e-08
-6.38373e-08 9.14806e-08 -2.4796e-05
0.000898595 1.25617e-05 1.53947e-07
1.25617e-05 3.32158e-05 5.14713e-07
1.53947e-07 5.14713e-07 -3.63601e-05
0.0011005 8.55006e-05 -1.10837e-07
8.55006e-05 0.000158075 -7.66208e-07
-1.10837e-07 -7.66208e-07 5.97622e-05
0.000939894 3.09116e-05 -1.0507e-07
3.09116e-05 6.54666e-05 -2.742e-08
-1.0507e-07 -2.742e-08 -2.0831e-05
0.000957634 6.16308e-05 -1.04278e-06
6.16308e-05 7.85565e-05 -6.76758e-07
-1.04278e-06 -6.76758e-07 -1.78127e-05
0.00171359 7.81646e-05 -1.51202e-06
7.81646e-05 0.000160852 -2.53191e-08
-1.51202e-06 -2.53191e-08 8.14944e-05
0.00154337 0.000117453 1.15216e-06
0.000117453 0.000227787 6.49718e-08
1.15216e-06 6.49718e-08 0.000121768
0.000914556 9.38279e-05 -6.65847e-07
9.38279e-05 -0.000162774 1.11269e-06
-6.65847e-07 1.11269e-06 -0.000247306
0.00123329 9.65339e-05 1.23113e-06
9.65339e-05 0.000213088 1.33581e-06
1.23113e-06 1.33581e-06 9.62091e-05
0.000678545 8.6829e-05 -1.31466e-06
8.6829e-05 -0.000139018 -5.07298e-07
-1.31466e-06 -5.07298e-07 -0.000266731
0.000856737 3.34242e-06 5.21923e-07
3.34242e-06 8.45762e-06 1.29389e-06
5.21923e-07 1.29389e-06 -5.47801e-05
0.000858601 3.87661e-05 4.89983e-07
3.87661e-05 2.0413e-05 2.98771e-07
4.89983e-07 2.98771e-07 -6.30047e-05
0.00109487 8.62886e-05 9.83233e-07
8.62886e-05 0.000156261 1.1577e-07
9.83233e-07 1.1577e-07 4.89351e-05
0.000695927 5.01198e-05 6.93357e-07
5.01198e-05 -5.56604e-05 3.93251e-07
6.93357e-07 3.93251e-07 -0.000155047
0.00233476 5.92309e-05 -3.59341e-07
5.92309e-05 0.000391918 7.29236e-07
-3.59341e-07 7.29236e-07 0.000313623
0.00125851 9.25584e-05 2.30979e-06
9.25584e-05 -0.000102645 -1.74644e-06
2.30979e-06 -1.74644e-06 -0.000168712
0.00130604 0.000116613 1.8967e-06
0.000116613 0.000102164 -2.55253e-06
1.8967e-06 -2.55253e-06 -1.78683e-05
0.000561442 7.52888e-05 1.22009e-06
7.52888e-05 -0.000139909 1.58852e-06
1.22009e-06 1.58852e-06 -0.000276815
0.000896179 5.55703e-06 -3.9818e-07
5.55703e-06 2.81925e-05 -6.55024e-07
-3.9818e-07 -6.55024e-07 -2.05011e-05
0.000914064 4.24025e-06 -2.35148e-10
4.24025e-06 3.9666e-05 3.87851e-07
-2.35148e-10 3.87851e-07 -2.07708e-05
0.000987931 5.00611e-06 3.94351e-07
5.00611e-06 8.02571e-05 8.26601e-07
3.94351e-07 8.26601e-07 1.17145e-05
0.00090933 -4.65745e-06 -5.74653e-07
-4.65745e-06 3.2466e-05 -8.67131e-07
-5.74653e-07 -8.67131e-07 -1.16237e-05
0.000809447 -1.77879e-05 7.39057e-09
-1.77879e-05 -1.48258e-05 -1.10419e-06
7.39057e-09 -1.10419e-06 -7.23807e-05
0.000910387 -1.08897e-05 1.89461e-07
-1.08897e-05 3.12259e-05 2.37878e-08
1.89461e-07 2.37878e-08 -1.20005e-05
0.000992607 1.54301e-05 -7.2912e-08
1.54301e-05 8.6824e-05 -3.63236e-07
-7.2912e-08 -3.63236e-07 1.94048e-05
0.000862387 -9.2518e-06 1.68166e-07
-9.2518e-06 1.66988e-05 3.53505e-07
1.68166e-07 3.53505e-07 -4.10226e-05
0.00103426 8.66795e-06 3.97406e-07
8.66795e-06 0.000108597 3.5091e-07
3.97406e-07 3.5091e-07 3.59514e-05
0.000832595 -2.72089e-05 -2.08673e-07
-2.72089e-05 3.3377e-06 8.75029e-07
-2.08673e-07 8.75029e-07 -6.25878e-05
0.000814812 2.15336e-05 3.95789e-07
2.15336e-05 -7.05333e-06 1.01368e-06
3.95789e-07 1.01368e-06 -6.47e-05
0.000927361 -8.07174e-06 -2.94136e-08
-8.07174e-06 3.81924e-05 8.4513e-07
-2.94136e-08 8.4513e-07 -4.4729e-06
0.000871588 6.13411e-06 6.0866e-07
6.13411e-06 9.25312e-07 1.59253e-06
6.0866e-07 1.59253e-06 -2.45986e-05
0.000876833 -4.30379e-06 -2.69237e-07
-4.30379e-06 3.51858e-06 1.79597e-08
-2.69237e-07 1.79597e-08 -2.15834e-05
0.00134135 -1.01469e-05 1.02311e-06
-1.01469e-05 0.000239965 1.85332e-06
1.02311e-06 1.85332e-06 0.000244174
0.000870921 -1.25554e-05 -1.85217e-07
-1.25554e-05 1.78929e-06 -1.72237e-06
-1.85217e-07 -1.72237e-06 -2.35682e-05
0.00135896 -1.43795e-05 -2.18252e-06
-1.43795e-05 0.000251872 -1.16824e-06
-2.18252e-06 -1.16824e-06 0.000255673
0.00104079 -1.30725e-05 1.02166e-05
-1.30725e-05 8.54719e-05 6.12981e-06
1.02166e-05 6.12981e-06 0.000102991
0.00137628 -1.84197e-05 -5.55873e-06
-1.84197e-05 0.000264785 -4.28921e-06
-5.55873e-06 -4.28921e-06 0.000267627
0.000994421 -1.77107e-05 3.97288e-06
-1.77107e-05 6.51402e-05 2.35138e-06
3.97288e-06 2.35138e-06 8.18307e-05
0.000940539 -2.17934e-05 -2.35342e-06
-2.17934e-05 4.26582e-05 -1.61438e-06
-2.35342e-06 -1.61438e-06 5.76405e-05
0.000786279 2.08714e-05 1.34276e-06
2.08714e-05 -4.08997e-05 -3.21487e-06
1.34276e-06 -3.21487e-06 -4.38647e-05
0.000792012 2.41219e-05 -1.48623e-07
2.41219e-05 -3.28841e-05 2.03282e-08
-1.48623e-07 2.03282e-08 -3.8103e-05
0.0022243 3.49199e-05 1.8213e-05
3.49199e-05 0.000722712 -3.73213e-06
1.8213e-05 -3.73213e-06 0.000741714
0.000801635 2.7248e-05 -2.51049e-06
2.7248e-05 -2.28991e-05 3.26875e-06
-2.51049e-06 3.26875e-06 -3.03172e-05
0.00228057 4.02419e-05 -9.16351e-07
4.02419e-05 0.000758994 -6.69694e-08
-9.16351e-07 -6.69694e-08 0.000776196
0.00234568 4.49999e-05 -2.63315e-05
4.49999e-05 0.000800401 3.64179e-06
-2.63315e-05 3.64179e-06 0.000815669
0.0015513 5.79778e-05 1.42531e-06
5.79778e-05 8.38366e-05 1.77581e-06
1.42531e-06 1.77581e-06 -8.34565e-06
0.00158053 1.53192e-05 2.29001e-07
1.53192e-05 5.01671e-05 -3.77655e-10
2.29001e-07 -3.77655e-10 -4.28753e-05
0.00152273 3.046e-05 2.42469e-06
3.046e-05 2.15332e-05 -1.1217e-06
2.42469e-06 -1.1217e-06 -6.00896e-05
0.00164753 -3.67882e-06 3.71823e-07
-3.67882e-06 6.84914e-05 -6.38419e-07
3.71823e-07 -6.38419e-07 -2.62195e-05
0.00174321 2.83496e-06 4.68521e-07
2.83496e-06 0.000118041 -1.42438e-06
4.68521e-07 -1.42438e-06 1.40474e-05
0.00168827 4.96887e-06 -9.7125e-07
4.96887e-06 8.75775e-05 -2.57772e-07
-9.7125e-07 -2.57772e-07 -2.03993e-05
0.00175781 1.57749e-05 -3.77562e-08
1.57749e-05 0.000108566 -8.21426e-09
-3.77562e-08 -8.21426e-09 3.94737e-10
0.00171232 -4.90023e-06 1.9621e-07
-4.90023e-06 9.38301e-05 -5.86124e-07
1.9621e-07 -5.86124e-07 -6.83999e-06
0.00167326 1.02918e-05 5.48714e-07
1.02918e-05 7.88639e-05 -7.78687e-09
5.48714e-07 -7.78687e-09 -1.07294e-05
0.00161156 4.59133e-05 -8.00533e-08
4.59133e-05 7.03889e-05 -5.01646e-07
-8.00533e-08 -5.01646e-07 -1.21552e-05
0.00180977 9.59005e-06 -8.5456e-07
9.59005e-06 0.000132474 8.05446e-07
-8.5456e-07 8.05446e-07 2.6445e-05
0.00180425 -9.11426e-06 -4.1306e-07
-9.11426e-06 0.000124742 1.41996e-07
-4.1306e-07 1.41996e-07 3.17879e-05
0.00173798 2.72006e-05 3.09562e-07
2.72006e-05 0.000103567 1.07406e-06
3.09562e-07 1.07406e-06 1.67071e-05
0.00167424 1.1525e-05 -1.12418e-06
1.1525e-05 7.6648e-05 1.22239e-06
-1.12418e-06 1.22239e-06 -2.75522e-05
0.00176763 -2.91073e-06 -8.86368e-07
-2.91073e-06 0.000132189 4.4558e-07
-8.86368e-07 4.4558e-07 3.31692e-05
0.00181483 -4.357e-05 -7.95114e-07
-4.357e-05 0.000153901 1.21384e-06
-7.95114e-07 1.21384e-06 6.65915e-05
0.00110115 -8.2394e-05 -3.1543e-07
-8.2394e-05 0.000134366 -7.14118e-07
-3.1543e-07 -7.14118e-07 5.08026e-05
0.00116554 -8.99804e-05 3.2478e-07
-8.99804e-05 0.000166882 -3.69196e-08
3.2478e-07 -3.69196e-08 7.3416e-05
0.00110715 -9.8268e-05 -1.32592e-06
-9.8268e-05 9.26653e-05 1.75221e-06
-1.32592e-06 1.75221e-06 -2.79139e-05
0.00155466 -7.50472e-05 6.52431e-08
-7.50472e-05 8.34172e-05 3.85028e-07
6.52431e-08 3.85028e-07 -6.66935e-07
0.00112719 -8.81569e-05 -1.57684e-06
-8.81569e-05 -7.34513e-05 -1.35663e-06
-1.57684e-06 -1.35663e-06 -0.000152963
0.00140357 -0.000105526 -2.04523e-06
-0.000105526 0.000154396 -3.4428e-06
-2.04523e-06 -3.4428e-06 4.62029e-05
0.00107029 -8.15938e-05 6.46709e-09
-8.15938e-05 0.000120149 -1.63228e-06
6.46709e-09 -1.63228e-06 3.511e-05
0.000948035 -7.60637e-05 -1.57468e-06
-7.60637e-05 6.01965e-05 -1.91909e-06
-1.57468e-06 -1.91909e-06 -2.63743e-05
0.00106818 -6.7801e-05 -7.08319e-08
-6.7801e-05 0.000132339 -2.19093e-07
-7.08319e-08 -2.19093e-07 4.2139e-05
0.000612686 2.28696e-05 -9.03688e-07
2.28696e-05 -0.000125949 9.87669e-07
-9.03688e-07 9.87669e-07 -0.000159457
0.00108331 -2.37774e-05 -2.2033e-07
-2.37774e-05 0.000128401 3.32686e-07
-2.2033e-07 3.32686e-07 5.86226e-05
0.00077959 1.94584e-05 -2.57951e-08
1.94584e-05 -3.7879e-05 1.10099e-06
-2.57951e-08 1.10099e-06 -9.1865e-05
0.00176411 1.44622e-05 6.8007e-08
1.44622e-05 0.000110822 -2.745e-07
6.8007e-08 -2.745e-07 5.77323e-06
0.00173151 -5.04407e-06 7.33466e-07
-5.04407e-06 8.5659e-05 -2.11759e-07
7.33466e-07 -2.11759e-07 -1.18676e-05
0.00153757 -5.0238e-05 -7.7621e-09
-5.0238e-05 4.072e-06 -4.00471e-07
-7.7621e-09 -4.00471e-07 -8.40394e-05
0.0010535 -8.2474e-05 1.93417e-08
-8.2474e-05 0.000111742 5.07396e-07
1.93417e-08 5.07396e-07 2.47262e-05
0.000843869 -8.17928e-05 -1.07351e-07
-8.17928e-05 4.744e-06 2.01314e-07
-1.07351e-07 2.01314e-07 -0.000103287
0.00152988 -0.000118539 -1.68409e-06
-0.000118539 0.000284355 1.53249e-06
-1.68409e-06 1.53249e-06 0.000153526
0.00170597 -9.03256e-05 -9.09734e-07
-9.03256e-05 0.000122887 9.91341e-07
-9.09734e-07 9.91341e-07 5.01034e-05
0.00141257 -0.000106049 7.81549e-07
-0.000106049 8.79923e-05 -8.15096e-07
7.81549e-07 -8.15096e-07 -1.28146e-05
0.000749059 1.76192e-05 1.28103e-07
1.76192e-05 -5.69802e-05 -5.726e-07
1.28103e-07 -5.726e-07 -8.7582e-05
0.000999766 1.13851e-05 -3.26584e-07
1.13851e-05 7.93066e-05 1.275e-07
-3.26584e-07 1.275e-07 2.92908e-05
0.000921191 -7.62194e-05 -7.92134e-07
-7.62194e-05 4.1948e-05 1.26084e-07
-7.92134e-07 1.26084e-07 -4.49457e-05
0.00102892 -8.07851e-05 7.81647e-07
-8.07851e-05 0.000103378 3.89534e-07
7.81647e-07 3.89534e-07 1.21845e-05
0.000978196 -3.60252e-05 -8.66181e-08
-3.60252e-05 8.03904e-05 -2.6401e-07
-8.66181e-08 -2.6401e-07 -2.82643e-06
0.00102993 -2.45753e-05 -5.42593e-07
-2.45753e-05 0.000100918 9.00789e-07
-5.42593e-07 9.00789e-07 3.40244e-05
0.0017572 1.90127e-05 -1.91159e-06
1.90127e-05 9.81653e-05 1.25031e-07
-1.91159e-06 1.25031e-07 -4.44773e-06
0.00168589 -1.66448e-05 -1.14931e-07
-1.66448e-05 4.31901e-05 6.63358e-07
-1.14931e-07 6.63358e-07 -5.25552e-05
0.00180459 -7.08016e-05 2.38338e-06
-7.08016e-05 0.000100586 -4.08604e-06
2.38338e-06 -4.08604e-06 2.36984e-05
0.00215225 -0.00012014 1.25382e-06
-0.00012014 0.000335932 -1.86051e-07
1.25382e-06 -1.86051e-07 0.000257623
0.000810552 -7.41333e-05 -1.32726e-06
-7.41333e-05 8.82824e-07 1.20249e-06
-1.32726e-06 1.20249e-06 -9.1907e-05
0.00139954 -0.000118226 5.33326e-07
-0.000118226 0.000181245 3.55058e-06
5.33326e-07 3.55058e-06 3.53157e-05
0.00146491 -0.00011053 5.42566e-07
-0.00011053 0.000306919 -2.72346e-06
5.42566e-07 -2.72346e-06 0.000184727
0.000871375 1.42262e-05 6.20034e-07
1.42262e-05 3.99834e-06 -1.62126e-06
6.20034e-07 -1.62126e-06 -2.3475e-05
0.000892365 -3.58354e-05 8.4293e-07
-3.58354e-05 2.71632e-05 -8.62681e-07
8.4293e-07 -8.62681e-07 -1.79409e-05
0.000762975 1.18821e-05 2.99853e-07
1.18821e-05 -4.18482e-05 -1.49378e-06
2.99853e-07 -1.49378e-06 -9.21769e-05
0.00098587 -2.63394e-05 6.86343e-07
-2.63394e-05 7.91879e-05 2.88651e-09
6.86343e-07 2.88651e-09 1.50536e-05
0.000966003 -3.11856e-06 -1.0896e-07
-3.11856e-06 7.12211e-05 -2.43922e-07
-1.0896e-07 -2.43922e-07 -4.10057e-06
0.000917182 -7.82135e-05 2.04956e-06
-7.82135e-05 6.25402e-05 1.6627e-06
2.04956e-06 1.6627e-06 -3.49584e-05
0.000822559 -7.29372e-05 -1.19438e-06
-7.29372e-05 -2.18902e-05 2.2131e-06
-1.19438e-06 2.2131e-06 -0.000105583
0.00167623 -0.000109867 -6.5955e-07
-0.000109867 0.000446675 2.64738e-06
-6.5955e-07 2.64738e-06 0.000351798
0.000905178 -1.46884e-05 -4.23612e-07
-1.46884e-05 3.10439e-05 -1.22426e-06
-4.23612e-07 -1.22426e-06 -1.94444e-05
0.000938956 1.66314e-05 -3.94178e-07
1.66314e-05 5.43723e-05 -3.52727e-07
-3.94178e-07 -3.52727e-07 -1.51366e-05
0.00186392 7.97964e-05 6.72669e-07
7.97964e-05 0.000230163 6.40023e-07
6.72669e-07 6.40023e-07 0.000150061
0.000982125 3.1825e-05 -6.0766e-07
3.1825e-05 8.77626e-05 -4.88592e-07
-6.0766e-07 -4.88592e-07 1.61977e-06
0.00108533 8.47486e-05 -9.15077e-07
8.47486e-05 0.000152656 -1.72004e-06
-9.15077e-07 -1.72004e-06 5.51591e-05
0.000893374 5.88355e-05 -1.71603e-06
5.88355e-05 4.86486e-05 -2.41032e-07
-1.71603e-06 -2.41032e-07 -4.765e-05
0.00152994 0.000116436 -3.89841e-07
0.000116436 0.000215581 6.5387e-07
-3.89841e-07 6.5387e-07 0.000110753
0.00135252 0.000106344 1.42077e-06
0.000106344 6.64362e-05 5.00333e-06
1.42077e-06 5.00333e-06 -1.48918e-05
0.000934092 8.48542e-05 -2.58296e-07
8.48542e-05 6.2513e-05 2.3172e-07
-2.58296e-07 2.3172e-07 -5.46849e-05
0.00114507 0.000105231 -4.11808e-06
0.000105231 9.63061e-05 -6.15884e-07
-4.11808e-06 -6.15884e-07 -3.54168e-05
0.000850554 1.14824e-05 2.3714e-07
1.14824e-05 6.72536e-06 4.64154e-07
2.3714e-07 4.64154e-07 -5.80332e-05
0.000900384 4.42559e-05 -1.83492e-07
4.42559e-05 4.3229e-05 -6.64956e-07
-1.83492e-07 -6.64956e-07 -4.03523e-05
0.0010916 8.61521e-05 -4.0496e-07
8.61521e-05 0.000156272 -9.60353e-07
-4.0496e-07 -9.60353e-07 4.95699e-05
0.000918621 5.67769e-05 -2.10693e-07
5.67769e-05 5.78657e-05 -2.3317e-07
-2.10693e-07 -2.3317e-07 -4.11941e-05
0.0020729 5.29409e-05 -5.39062e-07
5.29409e-05 0.000259256 6.49245e-07
-5.39062e-07 6.49245e-07 0.000179176
0.00128073 9.22018e-05 1.34882e-06
9.22018e-05 -7.86689e-05 -1.17501e-06
1.34882e-06 -1.17501e-06 -0.000145982
0.00162954 0.000126973 -1.5617e-06
0.000126973 0.000261111 -8.99524e-08
-1.5617e-06 -8.99524e-08 0.000143649
0.000770682 8.55409e-05 7.26191e-07
8.55409e-05 -4.22361e-05 5.58169e-07
7.26191e-07 5.58169e-07 -0.000178499
0.000983955 1.78423e-05 3.92264e-07
1.78423e-05 7.95522e-05 3.47657e-07
3.92264e-07 3.47657e-07 6.56991e-06
0.00162533 1.9336e-05 -6.19836e-07
1.9336e-05 3.42858e-05 2.27221e-07
-6.19836e-07 2.27221e-07 -4.98478e-05
0.00112099 7.47706e-05 4.35958e-07
7.47706e-05 0.000167763 1.20123e-06
4.35958e-07 1.20123e-06 7.16077e-05
0.00109138 8.75768e-05 7.66281e-07
8.75768e-05 0.000144452 1.15181e-06
7.66281e-07 1.15181e-06 2.92905e-05
0.00225795 8.46485e-05 2.37334e-06
8.46485e-05 0.00028402 5.42552e-07
2.37334e-06 5.42552e-07 0.00021684
0.00142674 0.000121534 4.82433e-06
0.000121534 3.57966e-05 -3.52949e-06
4.82433e-06 -3.52949e-06 -6.78951e-05
0.00173456 0.000128976 1.22905e-06
0.000128976 0.000408936 1.45424e-06
1.22905e-06 1.45424e-06 0.000262027
0.00100009 5.00903e-06 -8.13447e-07
5.00903e-06 8.35868e-05 -4.17195e-07
-8.13447e-07 -4.17195e-07 2.4103e-05
0.000991895 4.566e-06 -2.52729e-09
4.566e-06 8.23091e-05 4.37914e-08
-2.52729e-09 4.37914e-08 1.37681e-05
0.000996977 1.11333e-05 4.73905e-07
1.11333e-05 8.85403e-05 7.84299e-07
4.73905e-07 7.84299e-07 1.18675e-05
0.000909171 -5.95829e-06 -5.95205e-08
-5.95829e-06 3.10941e-05 -8.37468e-07
-5.95205e-08 -8.37468e-07 -1.24353e-05
0.000903886 -4.41585e-07 9.43697e-08
-4.41585e-07 3.91683e-05 -1.11367e-07
9.43697e-08 -1.11367e-07 -1.8704e-05
0.000910441 1.18557e-05 -4.0817e-07
1.18557e-05 4.38137e-05 -1.17348e-06
-4.0817e-07 -1.17348e-06 -2.4817e-05
0.000915407 -1.8829e-05 -3.96815e-08
-1.8829e-05 3.30596e-05 2.25046e-08
-3.96815e-08 2.25046e-08 -1.03158e-05
0.000815935 -9.84298e-06 -3.74716e-07
-9.84298e-06 -7.62373e-06 4.18523e-07
-3.74716e-07 4.18523e-07 -6.45408e-05
0.000997669 7.23878e-07 1.56019e-07
7.23878e-07 8.87672e-05 -4.03455e-07
1.56019e-07 -4.03455e-07 1.53401e-05
0.000945572 3.49405e-06 5.54449e-08
3.49405e-06 6.42502e-05 4.52185e-07
5.54449e-08 4.52185e-07 -2.2394e-06
0.00101634 1.69122e-05 3.93318e-07
1.69122e-05 9.97369e-05 -2.04317e-08
3.93318e-07 -2.04317e-08 2.14079e-05
0.000876185 -1.74357e-05 1.00606e-07
-1.74357e-05 2.67317e-05 6.45419e-07
1.00606e-07 6.45419e-07 -4.59274e-05
0.00099162 1.06441e-05 1.52015e-07
1.06441e-05 8.64402e-05 5.83632e-08
1.52015e-07 5.83632e-08 2.24601e-05
0.000917177 8.21734e-06 8.21159e-07
8.21734e-06 4.60061e-05 6.95018e-07
8.21159e-07 6.95018e-07 -1.06097e-05
0.000928728 -1.03507e-06 2.73681e-08
-1.03507e-06 3.80345e-05 7.74054e-07
2.73681e-08 7.74054e-07 -4.77507e-06
0.000865431 9.4741e-06 3.57101e-07
9.4741e-06 -1.45618e-06 1.55592e-06
3.57101e-07 1.55592e-06 -2.7513e-05
0.000871239 -1.11948e-06 -1.74801e-07
-1.11948e-06 7.55171e-07 6.83742e-09
-1.74801e-07 6.83742e-09 -2.47632e-05
0.00134568 -4.96927e-06 7.47076e-07
-4.96927e-06 0.000240983 1.81047e-06
7.47076e-07 1.81047e-06 0.000244997
0.000873991 -1.13005e-05 -1.48265e-07
-1.13005e-05 2.055e-06 -1.62136e-06
-1.48265e-07 -1.62136e-06 -2.30612e-05
0.00136356 -9.24376e-06 -1.59806e-06
-9.24376e-06 0.000251885 -1.18271e-06
-1.59806e-06 -1.18271e-06 0.000255943
0.00104379 -9.06419e-06 7.46319e-06
-9.06419e-06 8.44412e-05 6.18275e-06
7.46319e-06 6.18275e-06 0.000102221
0.00137905 -1.36676e-05 -4.0657e-06
-1.36676e-05 0.000262425 -4.20459e-06
-4.0657e-06 -4.20459e-06 0.000266162
0.000999962 -1.3633e-05 2.75311e-06
-1.3633e-05 6.36919e-05 2.34738e-06
2.75311e-06 2.34738e-06 8.13219e-05
0.000944031 -1.78399e-05 -1.73426e-06
-1.78399e-05 3.87212e-05 -1.54782e-06
-1.73426e-06 -1.54782e-06 5.5491e-05
0.000869797 1.07741e-05 3.54949e-07
1.07741e-05 4.68922e-07 -1.58547e-06
3.54949e-07 -1.58547e-06 -2.47826e-05
0.000797323 1.71503e-05 1.06311e-06
1.71503e-05 -4.01243e-05 -3.12718e-06
1.06311e-06 -3.12718e-06 -4.09909e-05
0.000803043 2.10874e-05 -1.27269e-07
2.10874e-05 -3.22192e-05 2.74744e-08
-1.27269e-07 2.74744e-08 -3.52862e-05
0.00217037 2.92183e-05 1.51955e-05
2.92183e-05 0.000688988 -3.76063e-06
1.51955e-05 -3.76063e-06 0.00070957
0.000808304 2.42861e-05 -2.09955e-06
2.42861e-05 -2.45349e-05 3.2096e-06
-2.09955e-06 3.2096e-06 -2.98255e-05
0.00223262 3.49499e-05 -1.11135e-06
3.49499e-05 0.000727848 -5.97675e-08
-1.11135e-06 -5.97675e-08 0.000746654
0.00228278 4.00179e-05 -2.31367e-05
4.00179e-05 0.000760963 3.71625e-06
-2.31367e-05 3.71625e-06 0.000778013
0.00144098 4.15218e-05 7.49101e-07
4.15218e-05 -1.85819e-05 -2.63402e-07
7.49101e-07 -2.63402e-07 -0.000100848
0.00167524 1.04993e-05 5.43798e-07
1.04993e-05 8.11192e-05 -3.23256e-07
5.43798e-07 -3.23256e-07 -8.31921e-06
0.00170523 -5.18516e-06 6.99625e-07
-5.18516e-06 9.07476e-05 -1.50508e-06
6.99625e-07 -1.50508e-06 -9.88011e-06
0.00175854 1.78553e-05 4.6236e-08
1.78553e-05 0.000113323 -2.3861e-07
4.6236e-08 -2.3861e-07 5.93787e-06
0.00176738 1.01002e-05 -1.61211e-08
1.01002e-05 0.000111524 4.51089e-07
-1.61211e-08 4.51089e-07 5.53754e-06
0.00178614 -8.49523e-06 -1.60531e-07
-8.49523e-06 0.000114994 -3.75888e-07
-1.60531e-07 -3.75888e-07 2.20712e-05
0.00167347 2.75015e-05 3.10977e-07
2.75015e-05 7.22149e-05 4.52106e-07
3.10977e-07 4.52106e-07 -1.45333e-05
0.00176614 3.24547e-06 -7.25209e-07
3.24547e-06 0.000104857 9.81836e-07
-7.25209e-07 9.81836e-07 5.87397e-06
0.00187263 -1.75172e-07 -9.87503e-07
-1.75172e-07 0.000158849 3.04391e-07
-9.87503e-07 3.04391e-07 6.78812e-05
0.00141739 -3.15391e-06 -3.84288e-07
-3.15391e-06 -8.22767e-05 2.12929e-07
-3.84288e-07 2.12929e-07 -0.000169533
0.0017135 1.44771e-05 2.73934e-07
1.44771e-05 8.39412e-05 5.1507e-07
2.73934e-07 5.1507e-07 -2.18175e-05
0.00179498 -7.16886e-06 1.77965e-07
-7.16886e-06 0.000118658 2.11501e-07
1.77965e-07 2.11501e-07 2.09197e-05
0.00166163 -5.13768e-05 -1.65821e-06
-5.13768e-05 6.22262e-05 3.29964e-07
-1.65821e-06 3.29964e-07 -2.65648e-05
0.00110392 -8.44543e-05 -2.59477e-08
-8.44543e-05 0.000135844 -8.95027e-08
-2.59477e-08 -8.95027e-08 4.85555e-05
0.000880413 -8.27401e-05 6.82814e-07
-8.27401e-05 2.64701e-05 2.18291e-06
6.82814e-07 2.18291e-06 -7.91352e-05
0.00154183 -0.000118522 -2.02785e-06
-0.000118522 0.000288195 2.9853e-06
-2.02785e-06 2.9853e-06 0.00015796
0.0016892 -9.23474e-05 2.35018e-06
-9.23474e-05 0.000120324 2.43186e-06
2.35018e-06 2.43186e-06 4.70745e-05
0.00124721 -0.000100849 -2.57693e-06
-0.000100849 8.33307e-07 -3.24593e-06
-2.57693e-06 -3.24593e-06 -9.91176e-05
0.000785028 -7.09168e-05 -1.04003e-06
-7.09168e-05 -2.67069e-05 -1.26165e-06
-1.04003e-06 -1.26165e-06 -0.000113436
0.00108604 -8.27864e-05 1.17544e-06
-8.27864e-05 0.000131796 -2.63128e-06
1.17544e-06 -2.63128e-06 4.16e-05
0.000946183 -9.92411e-06 -5.48007e-08
-9.92411e-06 6.04048e-05 -3.68837e-07
-5.48007e-08 -3.68837e-07 -2.04516e-05
0.000858906 1.73385e-05 -7.86772e-07
1.73385e-05 7.14124e-08 1.09622e-06
-7.86772e-07 1.09622e-06 -2.95202e-05
0.000987942 2.63134e-05 -4.95626e-07
2.63134e-05 7.33101e-05 9.16721e-07
-4.95626e-07 9.16721e-07 2.33957e-05
0.00097444 -1.6637e-05 -7.54911e-07
-1.6637e-05 7.24016e-05 1.28013e-06
-7.54911e-07 1.28013e-06 4.90254e-06
0.00181666 1.98567e-05 3.58206e-07
1.98567e-05 0.000129365 4.05951e-07
3.58206e-07 4.05951e-07 2.85609e-05
0.000871845 1.35725e-05 9.72678e-09
1.35725e-05 3.89397e-06 1.70863e-08
9.72678e-09 1.70863e-08 -2.35522e-05
0.000815358 -1.54153e-06 -4.11581e-07
-1.54153e-06 -1.49858e-05 5.32953e-08
-4.11581e-07 5.32953e-08 -5.91429e-05
0.00181544 -1.7445e-05 -3.58897e-07
-1.7445e-05 0.000106211 -8.79647e-07
-3.58897e-07 -8.79647e-07 1.01405e-05
0.00156143 -6.91916e-05 -6.86142e-08
-6.91916e-05 -1.40924e-05 -9.50613e-07
-6.86142e-08 -9.50613e-07 -9.38436e-05
0.000825367 -7.4432e-05 1.19075e-07
-7.4432e-05 9.53541e-06 1.27571e-06
1.19075e-07 1.27571e-06 -8.19124e-05
0.00139814 -0.00010829 -7.79646e-07
-0.00010829 0.000272931 4.82648e-07
-7.79646e-07 4.82648e-07 0.000147189
0.00124381 -0.00011055 9.46157e-07
-0.00011055 9.66749e-05 1.43603e-06
9.46157e-07 1.43603e-06 -4.20133e-05
0.00184783 -0.000114096 -1.95387e-07
-0.000114096 0.000192903 -3.82953e-07
-1.95387e-07 -3.82953e-07 0.000115218
0.000948818 -5.97762e-06 8.66795e-07
-5.97762e-06 5.56481e-05 -4.86794e-07
8.66795e-07 -4.86794e-07 6.56213e-06
0.00096867 -1.36412e-05 -4.85382e-07
-1.36412e-05 7.14017e-05 4.52805e-07
-4.85382e-07 4.52805e-07 6.67714e-06
0.000962431 -7.84126e-05 3.21912e-07
-7.84126e-05 4.69262e-05 6.02259e-07
3.21912e-07 6.02259e-07 -3.8384e-05
0.00126163 -9.31662e-05 5.43206e-08
-9.31662e-05 0.000234088 -7.81214e-07
5.43206e-08 -7.81214e-07 0.000144851
0.000855537 -5.81354e-05 9.0088e-08
-5.81354e-05 2.96453e-05 3.04306e-07
9.0088e-08 3.04306e-07 -6.76184e-05
0.00097106 -4.3005e-06 1.08896e-07
-4.3005e-06 7.41171e-05 -2.62959e-07
1.08896e-07 -2.62959e-07 -1.82177e-06
0.00159829 1.68186e-05 -2.24477e-06
1.68186e-05 -1.00872e-06 -3.82603e-07
-2.24477e-06 -3.82603e-07 -8.62986e-05
0.00194452 -2.90537e-05 1.08597e-06
-2.90537e-05 0.000159157 1.87066e-06
1.08597e-06 1.87066e-06 6.3251e-05
0.00194805 -0.000106886 -1.50155e-06
-0.000106886 0.000109774 -4.46756e-06
-1.50155e-06 -4.46756e-06 4.5872e-05
0.00144429 -0.000125147 2.08839e-06
-0.000125147 7.59397e-05 2.54841e-06
2.08839e-06 2.54841e-06 -3.56579e-05
0.00112764 -8.2986e-05 -1.87527e-06
-8.2986e-05 0.000156464 1.65144e-07
-1.87527e-06 1.65144e-07 6.11875e-05
0.00174634 -0.000136319 -3.84e-07
-0.000136319 0.000431279 -1.46136e-06
-3.84e-07 -1.46136e-06 0.000271829
0.000738043 2.91827e-05 -8.53198e-07
2.91827e-05 -5.51209e-05 -1.20836e-06
-8.53198e-07 -1.20836e-06 -9.80676e-05
0.000886174 -1.51132e-05 6.38025e-07
-1.51132e-05 2.17672e-05 -9.97558e-07
6.38025e-07 -9.97558e-07 -2.38146e-05
0.00110671 -2.86864e-05 3.6665e-07
-2.86864e-05 0.000148836 -3.62733e-07
3.6665e-07 -3.62733e-07 9.16495e-05
0.000818581 2.04554e-05 -6.66883e-07
2.04554e-05 -1.64626e-06 -7.86928e-07
-6.66883e-07 -7.86928e-07 -6.77883e-05
0.00109639 -1.03359e-05 1.70688e-09
-1.03359e-05 0.000141097 6.62017e-08
1.70688e-09 6.62017e-08 6.88984e-05
0.000742823 -1.65731e-05 9.64761e-08
-1.65731e-05 -2.98872e-05 5.54206e-07
9.64761e-08 5.54206e-07 -0.000116842
0.00117598 -6.39553e-05 3.83613e-06
-6.39553e-05 0.000207773 4.75759e-07
3.83613e-06 4.75759e-07 0.00010217
0.000907574 -8.35579e-05 -3.53066e-06
-8.35579e-05 4.34702e-05 2.24054e-06
-3.53066e-06 2.24054e-06 -4.34277e-05
0.000841865 2.05154e-05 -3.43717e-07
2.05154e-05 3.67132e-06 -3.80758e-07
-3.43717e-07 -3.80758e-07 -6.26263e-05
0.000939563 4.69072e-05 -1.22449e-06
4.69072e-05 6.43495e-05 -1.44155e-06
-1.22449e-06 -1.44155e-06 -1.91216e-05
0.00182079 4.68648e-05 8.18551e-08
4.68648e-05 0.000131827 1.05221e-07
8.18551e-08 1.05221e-07 4.99014e-05
0.0013756 9.31837e-05 -7.135e-07
9.31837e-05 -1.7702e-05 6.55568e-07
-7.135e-07 6.55568e-07 -8.62596e-05
0.00114572 6.26651e-05 -1.57195e-06
6.26651e-05 0.00017354 -6.07226e-07
-1.57195e-06 -6.07226e-07 7.48719e-05
0.00108869 8.59383e-05 -1.81295e-06
8.59383e-05 0.000156298 -2.11828e-06
-1.81295e-06 -2.11828e-06 5.02477e-05
0.00198054 0.000138378 -2.28284e-06
0.000138378 0.000434638 1.82103e-06
-2.28284e-06 1.82103e-06 0.000319588
0.000967982 9.53354e-05 -1.28761e-06
9.53354e-05 4.9455e-05 -8.34614e-07
-1.28761e-06 -8.34614e-07 -8.65084e-05
0.000969807 2.72347e-05 -3.85956e-08
2.72347e-05 7.45288e-05 -4.76701e-07
-3.85956e-08 -4.76701e-07 4.29202e-07
0.00170286 1.7587e-05 -2.43967e-08
1.7587e-05 7.17543e-05 2.33277e-07
-2.43967e-08 2.33277e-07 -1.34423e-05
0.0010106 6.61132e-05 2.31717e-07
6.61132e-05 0.000110391 6.92929e-07
2.31717e-07 6.92929e-07 1.54343e-05
0.000918872 8.01114e-05 3.99443e-08
8.01114e-05 5.57649e-05 -1.79013e-07
3.99443e-08 -1.79013e-07 -6.04483e-05
0.00174954 7.59386e-05 9.72488e-07
7.59386e-05 3.71471e-05 -2.72197e-07
9.72488e-07 -2.72197e-07 -2.98814e-05
0.00187827 0.000136749 1.0309e-06
0.000136749 0.000255325 -5.6523e-07
1.0309e-06 -5.6523e-07 0.000152032
0.00162682 0.0001256 1.90363e-07
0.0001256 0.000358501 6.32642e-07
1.90363e-07 6.32642e-07 0.000212741
0.00101924 3.80027e-05 1.51461e-07
3.80027e-05 0.000107543 7.70793e-07
1.51461e-07 7.70793e-07 2.14691e-05
0.00234505 4.66553e-05 -2.96983e-07
4.66553e-05 0.000338254 2.51357e-07
-2.96983e-07 2.51357e-07 0.000266304
0.00145119 8.84159e-05 -6.1848e-07
8.84159e-05 0.000320776 1.01021e-07
-6.1848e-07 1.01021e-07 0.000217802
0.00182047 0.000123283 -1.48624e-06
0.000123283 0.000502289 1.53835e-06
-1.48624e-06 1.53835e-06 0.00037135
0.00200377 0.000141653 6.37305e-06
0.000141653 0.000129426 -1.93974e-06
6.37305e-06 -1.93974e-06 7.36358e-05
0.000906223 0.000106083 1.18521e-07
0.000106083 -7.83863e-05 6.24897e-07
1.18521e-07 6.24897e-07 -0.000222157
0.000693049 4.62273e-05 1.24057e-05
4.62273e-05 -0.000286199 1.13782e-06
1.24057e-05 1.13782e-06 -0.000354355
0.00100056 5.00682e-06 -3.81146e-07
5.00682e-06 8.67255e-05 -7.35099e-07
-3.81146e-07 -7.35099e-07 1.81697e-05
0.000991602 1.19971e-05 -3.39303e-09
1.19971e-05 8.61707e-05 -6.76724e-08
-3.39303e-09 -6.76724e-08 9.36581e-06
0.00105011 2.84499e-05 2.4014e-07
2.84499e-05 0.000114355 1.36892e-07
2.4014e-07 1.36892e-07 3.14917e-05
0.00090297 -2.23783e-05 1.61472e-07
-2.23783e-05 2.72311e-05 -8.29934e-07
1.61472e-07 -8.29934e-07 -1.6572e-05
0.000816689 -3.48426e-05 -2.34581e-07
-3.48426e-05 -6.88707e-06 -1.46926e-07
-2.34581e-07 -1.46926e-07 -6.40258e-05
0.00105449 3.57056e-05 -7.25069e-07
3.57056e-05 0.000123487 -8.8344e-08
-7.25069e-07 -8.8344e-08 5.62461e-05
0.000961733 -1.90178e-06 -1.15965e-07
-1.90178e-06 6.95545e-05 -1.05957e-06
-1.15965e-07 -1.05957e-06 -4.80444e-06
0.000908119 -1.6043e-05 -2.34366e-07
-1.6043e-05 2.9631e-05 3.49971e-08
-2.34366e-07 3.49971e-08 -1.46822e-05
0.000856386 -6.26863e-06 1.8351e-07
-6.26863e-06 1.14485e-05 1.89976e-08
1.8351e-07 1.89976e-08 -4.40268e-05
0.000975212 1.29202e-05 9.19259e-08
1.29202e-05 7.82837e-05 -5.88974e-07
9.19259e-08 -5.88974e-07 -7.53928e-08
0.000991234 -7.71983e-06 -2.34822e-07
-7.71983e-06 8.60202e-05 -2.22041e-07
-2.34822e-07 -2.22041e-07 2.18815e-05
0.000965582 -1.27367e-05 1.86353e-07
-1.27367e-05 7.36315e-05 -1.04773e-08
1.86353e-07 -1.04773e-08 1.56914e-06
0.000974391 7.5989e-06 -8.99388e-08
7.5989e-06 7.64143e-05 3.81142e-07
-8.99388e-08 3.81142e-07 -1.6116e-06
0.000987457 6.77656e-06 2.78224e-07
6.77656e-06 8.76236e-05 -1.319e-07
2.78224e-07 -1.319e-07 1.93187e-05
0.00103898 9.25731e-06 3.78972e-07
9.25731e-06 0.000106731 -1.82414e-07
3.78972e-07 -1.82414e-07 4.47898e-05
0.000816909 3.0896e-06 -3.46416e-07
3.0896e-06 -1.02508e-05 6.53338e-07
-3.46416e-07 6.53338e-07 -6.73444e-05
0.000782435 8.57997e-06 3.75116e-07
8.57997e-06 -3.87478e-05 1.17945e-06
3.75116e-07 1.17945e-06 -8.32284e-05
0.00106126 -4.3038e-06 2.53653e-07
-4.3038e-06 0.000120982 -2.71276e-08
2.53653e-07 -2.71276e-08 6.41253e-05
0.000772962 2.20436e-06 -4.85121e-07
2.20436e-06 -4.21412e-05 1.07278e-06
-4.85121e-07 1.07278e-06 -8.68471e-05
0.000867851 1.1801e-05 2.17142e-07
1.1801e-05 2.23242e-07 1.56597e-06
2.17142e-07 1.56597e-06 -2.60965e-05
0.00086535 1.48696e-06 -2.45743e-07
1.48696e-06 -1.52304e-06 4.98832e-09
-2.45743e-07 4.98832e-09 -2.75525e-05
0.000815366 4.38975e-07 2.12998e-07
4.38975e-07 -3.86266e-05 2.99097e-06
2.12998e-07 2.99097e-06 -3.7822e-05
0.000871564 -8.60279e-06 1.32542e-07
-8.60279e-06 9.50044e-07 -1.56086e-06
1.32542e-07 -1.56086e-06 -2.45683e-05
0.00109467 -3.98569e-06 -9.80577e-07
-3.98569e-06 0.00010884 -1.22594e-06
-9.80577e-07 -1.22594e-06 0.000111295
0.00211635 -6.23997e-06 4.50654e-06
-6.23997e-06 0.000648217 3.89013e-06
4.50654e-06 3.89013e-06 0.000671718
0.00138676 -8.68533e-06 -2.55372e-06
-8.68533e-06 0.000264306 -4.18009e-06
-2.55372e-06 -4.18009e-06 0.000268183
0.00100845 -9.33898e-06 1.4883e-06
-9.33898e-06 6.52334e-05 2.36983e-06
1.4883e-06 2.36983e-06 8.32181e-05
0.000957668 -1.35003e-05 -1.24737e-06
-1.35003e-05 4.11674e-05 -1.50737e-06
-1.24737e-06 -1.50737e-06 5.89876e-05
0.000878178 7.25327e-06 2.68359e-07
7.25327e-06 3.18181e-06 -1.56696e-06
2.68359e-07 -1.56696e-06 -2.04014e-05
0.000874977 1.02663e-05 -3.88077e-08
1.02663e-05 2.87644e-06 8.73371e-09
-3.88077e-08 8.73371e-09 -2.23756e-05
0.000806711 1.31367e-05 6.35656e-07
1.31367e-05 -3.9356e-05 -3.07926e-06
6.35656e-07 -3.07926e-06 -3.85208e-05
0.00108977 1.8989e-05 -4.63233e-07
1.8989e-05 0.000113913 3.7072e-08
-4.63233e-07 3.7072e-08 0.000114331
0.00212626 2.33101e-05 1.24019e-05
2.33101e-05 0.000661131 -3.80517e-06
1.24019e-05 -3.80517e-06 0.000683074
0.00082 2.13132e-05 -1.59583e-06
2.13132e-05 -2.3424e-05 3.19276e-06
-1.59583e-06 3.19276e-06 -2.65939e-05
0.00217724 2.93817e-05 -1.18457e-06
2.93817e-05 0.000693317 -5.19969e-08
-1.18457e-06 -5.19969e-08 0.00071369
0.002238 3.48904e-05 -2.01056e-05
3.48904e-05 0.00073142 3.77704e-06
-2.01056e-05 3.77704e-06 0.000750056
0.00158713 2.7808e-05 -2.98663e-07
2.7808e-05 3.00409e-05 1.59106e-07
-2.98663e-07 1.59106e-07 -5.66133e-05
0.00177505 -7.1471e-06 3.27205e-07
-7.1471e-06 0.000108829 -7.79881e-07
3.27205e-07 -7.79881e-07 1.59389e-05
0.00171283 6.61471e-06 5.08359e-07
6.61471e-06 8.48297e-05 -1.08069e-08
5.08359e-07 -1.08069e-08 -2.12146e-05
0.00176813 6.48428e-06 4.27938e-07
6.48428e-06 0.000104829 3.13752e-07
4.27938e-07 3.13752e-07 5.64666e-06
0.00176548 -1.1832e-07 -2.48328e-07
-1.1832e-07 0.000106488 9.44845e-08
-2.48328e-07 9.44845e-08 1.58065e-05
0.00165606 -6.50016e-06 1.12363e-06
-6.50016e-06 4.50278e-05 -6.15941e-08
1.12363e-06 -6.15941e-08 -4.19111e-05
0.00164672 9.38155e-06 -7.90749e-07
9.38155e-06 3.79167e-05 -5.20212e-07
-7.90749e-07 -5.20212e-07 -4.91003e-05
0.00343005 -6.98358e-05 9.72514e-07
-6.98358e-05 0.000862619 -4.00387e-06
9.72514e-07 -4.00387e-06 0.000814589
0.00148016 -6.32074e-06 3.21025e-07
-6.32074e-06 -0.000104039 8.89982e-09
3.21025e-07 8.89982e-09 -0.000179504
0.000911434 1.14856e-05 1.54374e-07
1.14856e-05 3.25055e-05 -7.08042e-07
1.54374e-07 -7.08042e-07 -7.11062e-06
0.00185839 2.05536e-05 1.27644e-06
2.05536e-05 0.000151601 -1.099e-07
1.27644e-06 -1.099e-07 5.26121e-05
0.00191771 -1.82044e-05 -1.64293e-06
-1.82044e-05 0.000155424 -6.0709e-07
-1.64293e-06 -6.0709e-07 5.90567e-05
0.00135043 -6.78419e-05 2.75668e-07
-6.78419e-05 -0.000113381 2.00865e-06
2.75668e-07 2.00865e-06 -0.000195355
0.000898916 -7.69762e-05 1.31268e-06
-7.69762e-05 4.85631e-05 9.98704e-08
1.31268e-06 9.98704e-08 -4.1781e-05
0.00127709 -0.000103873 -1.41302e-07
-0.000103873 0.000212701 3.08974e-06
-1.41302e-07 3.08974e-06 8.18034e-05
0.00106405 -0.00010244 5.48813e-07
-0.00010244 2.40937e-06 -4.62302e-07
5.48813e-07 -4.62302e-07 -0.000131121
0.00159153 -0.00010926 -2.30227e-06
-0.00010926 7.46069e-05 -9.2785e-07
-2.30227e-06 -9.2785e-07 -2.73672e-06
0.00111242 -8.424e-05 2.45209e-06
-8.424e-05 0.000121622 -2.72735e-06
2.45209e-06 -2.72735e-06 3.45827e-05
0.00080596 -7.49195e-05 -2.94223e-06
-7.49195e-05 7.25774e-07 -6.03834e-06
-2.94223e-06 -6.03834e-06 -8.27952e-05
0.000770444 -5.46833e-05 1.56825e-07
-5.46833e-05 -1.30459e-05 2.53531e-07
1.56825e-07 2.53531e-07 -0.000111413
0.00087485 1.30915e-05 -7.2481e-07
1.30915e-05 5.1972e-06 1.67878e-06
-7.2481e-07 1.67878e-06 -2.22455e-05
0.000975538 -1.20006e-05 -3.29142e-08
-1.20006e-05 7.66412e-05 -4.89015e-07
-3.29142e-08 -4.89015e-07 3.77048e-08
0.00113753 -2.98417e-05 -4.20182e-07
-2.98417e-05 0.000155443 5.11807e-07
-4.20182e-07 5.11807e-07 0.000107035
0.000956889 5.84996e-08 -3.17813e-07
5.84996e-08 6.62104e-05 1.01582e-06
-3.17813e-07 1.01582e-06 9.61347e-07
0.000734272 1.01509e-05 2.07169e-07
1.01509e-05 -5.95025e-05 8.30446e-07
2.07169e-07 8.30446e-07 -0.000102564
0.00174346 1.60881e-05 -6.18177e-07
1.60881e-05 7.59144e-05 -1.5908e-07
-6.18177e-07 -1.5908e-07 -8.7845e-06
0.000824221 9.72839e-06 2.40548e-07
9.72839e-06 -1.0623e-05 -4.69594e-07
2.40548e-07 -4.69594e-07 -5.29913e-05
0.000893047 -1.83228e-05 -3.83791e-07
-1.83228e-05 2.67315e-05 2.7883e-08
-3.83791e-07 2.7883e-08 -1.99393e-05
0.000938724 -9.68052e-06 -7.28596e-07
-9.68052e-06 6.12449e-05 4.72914e-07
-7.28596e-07 4.72914e-07 2.79924e-06
0.0018941 -2.92587e-05 1.91256e-06
-2.92587e-05 0.00012322 5.53548e-07
1.91256e-06 5.53548e-07 2.90691e-05
0.00193614 -0.000108553 -1.24387e-06
-0.000108553 0.000120086 -5.59823e-07
-1.24387e-06 -5.59823e-07 5.39937e-05
0.000974983 -7.92002e-05 -8.60364e-07
-7.92002e-05 7.11634e-05 6.24169e-07
-8.60364e-07 6.24169e-07 -2.19347e-05
0.00106524 -0.000107304 5.36872e-07
-0.000107304 9.78856e-05 -8.58277e-07
5.36872e-07 -8.58277e-07 -6.50109e-05
0.00141687 -0.000126725 6.58424e-07
-0.000126725 6.4271e-05 6.04212e-07
6.58424e-07 6.04212e-07 -4.82019e-05
0.000919792 1.08571e-05 -1.76579e-07
1.08571e-05 5.03422e-05 4.11702e-08
-1.76579e-07 4.11702e-08 -1.45217e-05
0.00102763 -2.09116e-05 -1.34203e-07
-2.09116e-05 0.000108395 -3.67427e-09
-1.34203e-07 -3.67427e-09 3.416e-05
0.000833093 -8.05108e-05 -2.94381e-06
-8.05108e-05 7.30289e-06 6.75525e-07
-2.94381e-06 6.75525e-07 -8.18277e-05
0.00110386 -5.07875e-05 3.64563e-07
-5.07875e-05 0.000169048 -4.12607e-07
3.64563e-07 -4.12607e-07 6.58961e-05
0.000907599 -2.86827e-05 8.764e-08
-2.86827e-05 5.52678e-05 7.34945e-07
8.764e-08 7.34945e-07 -3.15719e-05
0.00181989 7.10951e-06 -1.47479e-06
7.10951e-06 9.72842e-05 6.45345e-07
-1.47479e-06 6.45345e-07 1.63539e-05
0.00230644 -6.61943e-05 -1.19434e-07
-6.61943e-05 0.00027641 -1.5352e-06
-1.19434e-07 -1.5352e-06 0.00020829
0.00179861 -0.000142394 3.93215e-06
-0.000142394 8.38978e-05 -3.22049e-06
3.93215e-06 -3.22049e-06 -6.05092e-06
0.00157276 -0.000137131 -3.12162e-06
-0.000137131 0.000276489 1.55589e-07
-3.12162e-06 1.55589e-07 0.000131826
0.00111205 -9.55123e-05 4.53091e-07
-9.55123e-05 0.000164001 -1.21175e-06
4.53091e-07 -1.21175e-06 4.01906e-05
0.000748624 1.12394e-05 7.59014e-08
1.12394e-05 -3.8458e-05 -7.32608e-07
7.59014e-08 -7.32608e-07 -9.56035e-05
0.000858531 2.78049e-05 1.22034e-07
2.78049e-05 2.09527e-05 -9.19853e-07
1.22034e-07 -9.19853e-07 -4.20594e-05
0.00109771 1.11797e-05 4.27593e-07
1.11797e-05 0.000144805 3.59931e-07
4.27593e-07 3.59931e-07 7.78026e-05
0.000964118 -3.53589e-05 7.99539e-07
-3.53589e-05 8.0531e-05 -2.7899e-07
7.99539e-07 -2.7899e-07 6.94079e-06
0.00108088 -3.58471e-06 2.95972e-07
-3.58471e-06 0.000137353 7.44522e-07
2.95972e-07 7.44522e-07 5.91277e-05
0.000900346 -2.20622e-05 -4.70729e-07
-2.20622e-05 6.09279e-05 -9.09257e-07
-4.70729e-07 -9.09257e-07 -3.22126e-05
0.000863185 -6.1001e-05 5.31097e-06
-6.1001e-05 6.46315e-05 1.2606e-06
5.31097e-06 1.2606e-06 -5.77381e-05
0.000952799 3.55643e-05 -6.50743e-07
3.55643e-05 6.8045e-05 -1.38191e-06
-6.50743e-07 -1.38191e-06 -7.12369e-06
0.000902764 5.88791e-05 -8.81303e-08
5.88791e-05 5.46687e-05 -1.1385e-07
-8.81303e-08 -1.1385e-07 -3.92886e-05
0.00179585 1.53764e-05 8.04317e-07
1.53764e-05 0.000116592 -7.87341e-08
8.04317e-07 -7.87341e-08 3.03765e-05
0.00117748 6.62517e-05 -2.15247e-07
6.62517e-05 -0.000241803 -7.53493e-07
-2.15247e-07 -7.53493e-07 -0.00030821
0.00238675 0.000153421 -2.34808e-06
0.000153421 0.00050157 1.07911e-06
-2.34808e-06 1.07911e-06 0.000398756
0.000766434 7.36336e-05 -3.49589e-07
7.36336e-05 -2.27273e-05 -8.209e-07
-3.49589e-07 -8.209e-07 -0.000139883
0.00150919 0.000121831 -8.11182e-07
0.000121831 0.000302638 2.79818e-07
-8.11182e-07 2.79818e-07 0.000158703
0.00103321 3.22485e-05 8.49496e-09
3.22485e-05 0.000114341 9.20485e-08
8.49496e-09 9.20485e-08 3.00731e-05
0.00172936 4.05605e-05 -1.52765e-06
4.05605e-05 1.16724e-05 -2.73388e-07
-1.52765e-06 -2.73388e-07 -5.67559e-05
0.00119873 8.15458e-05 -5.43843e-07
8.15458e-05 0.000197171 -5.71479e-08
-5.43843e-07 -5.71479e-08 9.4887e-05
0.00129399 0.000100401 -6.28438e-07
0.000100401 0.00024277 6.97771e-07
-6.28438e-07 6.97771e-07 0.000112337
0.00190427 0.000131192 1.46073e-06
0.000131192 7.71591e-05 -8.3139e-07
1.46073e-06 -8.3139e-07 2.19457e-05
0.00126815 0.000120406 -1.04293e-06
0.000120406 0.000110877 1.40571e-06
-1.04293e-06 1.40571e-06 -3.95451e-05
0.0017904 3.27846e-05 1.6823e-06
3.27846e-05 0.000116218 -2.07266e-06
1.6823e-06 -2.07266e-06 5.06504e-05
0.00106511 5.08178e-05 -4.06749e-07
5.08178e-05 0.000126364 -4.84398e-07
-4.06749e-07 -4.84398e-07 3.44279e-05
0.00200701 0.000104778 1.12881e-06
0.000104778 8.51452e-05 -5.29451e-06
1.12881e-06 -5.29451e-06 7.07739e-05
0.00127713 9.56189e-05 -1.38644e-06
9.56189e-05 0.00024505 -5.36837e-07
-1.38644e-06 -5.36837e-07 0.000138428
0.00100054 9.60705e-05 -1.64429e-06
9.60705e-05 0.0001091 6.17275e-07
-1.64429e-06 6.17275e-07 -4.96806e-05
0.000347331 0.000127471 -1.02914e-06
0.000127471 -0.000479286 -1.62405e-06
-1.02914e-06 -1.62405e-06 -0.000604898
0.00616189 -9.92448e-05 -2.92556e-05
-9.92448e-05 0.0019863 -5.87688e-06
-2.92556e-05 -5.87688e-06 0.00143543
0.00226994 -4.14059e-05 6.38768e-05
-4.14059e-05 -8.95506e-05 3.85624e-06
6.38768e-05 3.85624e-06 -0.000443069
0.00111198 0.000144315 1.18803e-05
0.000144315 -0.000217329 8.87406e-06
1.18803e-05 8.87406e-06 -0.000161672
-0.00247951 -0.000239185 -2.49689e-05
-0.000239185 -0.00123348 -1.82525e-05
-2.49689e-05 -1.82525e-05 -0.00113907
0.00222876 -0.000343676 -2.00866e-05
-0.000343676 0.000162118 -3.82496e-06
-2.00866e-05 -3.82496e-06 0.000971434
0.000990053 1.23671e-05 -4.50486e-07
1.23671e-05 8.56428e-05 -9.41971e-07
-4.50486e-07 -9.41971e-07 8.72583e-06
0.00103665 2.35168e-05 1.55617e-07
2.35168e-05 0.000108823 -1.89699e-07
1.55617e-07 -1.89699e-07 2.67421e-05
0.00107446 4.04943e-05 4.29289e-08
4.04943e-05 0.000124 1.95266e-07
4.29289e-08 1.95266e-07 4.08529e-05
0.000891277 -3.32135e-05 2.83688e-07
-3.32135e-05 2.29941e-05 -8.64191e-07
2.83688e-07 -8.64191e-07 -2.26996e-05
0.000790728 1.05769e-05 -1.95998e-07
1.05769e-05 -2.25991e-05 -6.11813e-07
-1.95998e-07 -6.11813e-07 -7.89771e-05
0.000988271 -2.84446e-05 -6.1815e-08
-2.84446e-05 8.34764e-05 -4.91674e-07
-6.1815e-08 -4.91674e-07 1.97139e-05
0.00104904 -6.72954e-06 -2.3313e-07
-6.72954e-06 0.000117458 -3.60283e-07
-2.3313e-07 -3.60283e-07 4.61219e-05
0.000941663 7.79848e-06 7.56251e-08
7.79848e-06 6.04767e-05 -1.32356e-06
7.56251e-08 -1.32356e-06 -1.79049e-05
0.00096968 1.57071e-05 -4.32648e-07
1.57071e-05 7.16224e-05 -3.72623e-07
-4.32648e-07 -3.72623e-07 8.3452e-06
0.000841158 3.69473e-06 9.65653e-08
3.69473e-06 -5.67361e-06 4.20248e-07
9.65653e-08 4.20248e-07 -5.08788e-05
0.000886733 9.98761e-07 -2.08926e-07
9.98761e-07 2.67676e-05 -2.2881e-10
-2.08926e-07 -2.2881e-10 -3.04312e-05
0.000961309 8.48668e-06 -2.16443e-08
8.48668e-06 7.06337e-05 1.3029e-07
-2.16443e-08 1.3029e-07 -7.12363e-06
0.000976282 3.28413e-06 1.07036e-07
3.28413e-06 8.0653e-05 -5.85746e-08
1.07036e-07 -5.85746e-08 1.23731e-05
0.000917184 1.91566e-05 3.94133e-07
1.91566e-05 4.89501e-05 -2.57406e-07
3.94133e-07 -2.57406e-07 -1.79966e-05
0.00102195 2.56635e-05 4.20079e-07
2.56635e-05 0.000103057 3.49788e-07
4.20079e-07 3.49788e-07 2.9733e-05
0.000855132 5.95007e-06 2.821e-07
5.95007e-06 6.20687e-06 5.92324e-07
2.821e-07 5.92324e-07 -5.62683e-05
0.000847317 6.7433e-08 6.35189e-07
6.7433e-08 2.62883e-06 1.60536e-07
6.35189e-07 1.60536e-07 -5.46809e-05
0.000750688 -2.93113e-05 -1.19518e-06
-2.93113e-05 -5.28163e-05 1.23255e-06
-1.19518e-06 1.23255e-06 -9.86373e-05
0.000970906 6.84569e-06 -2.39261e-07
6.84569e-06 6.91608e-05 2.22694e-07
-2.39261e-07 2.22694e-07 1.26516e-05
0.00104712 5.911e-05 1.09265e-07
5.911e-05 0.000113143 2.14562e-07
1.09265e-07 2.14562e-07 5.02334e-05
0.000912909 4.05434e-06 -4.73843e-07
4.05434e-06 4.30522e-05 4.25964e-07
-4.73843e-07 4.25964e-07 -1.31378e-05
0.000960685 1.14821e-05 4.02354e-07
1.14821e-05 6.55998e-05 -3.3114e-07
4.02354e-07 -3.3114e-07 1.00286e-05
0.000906918 -1.73734e-05 -1.10902e-06
-1.73734e-05 2.84878e-05 6.89793e-07
-1.10902e-06 6.89793e-07 -1.53041e-05
0.000778498 4.03376e-06 1.0476e-07
4.03376e-06 -3.73789e-05 3.57001e-07
1.0476e-07 3.57001e-07 -8.34288e-05
0.000870287 1.20774e-05 -9.06962e-08
1.20774e-05 1.50353e-06 1.61053e-06
-9.06962e-08 1.61053e-06 -2.49002e-05
0.000864072 3.63693e-06 -1.82597e-07
3.63693e-06 -1.85445e-06 7.52591e-10
-1.82597e-07 7.52591e-10 -2.80942e-05
0.00083093 4.35095e-06 -3.15086e-07
4.35095e-06 -2.95612e-05 4.22535e-06
-3.15086e-07 4.22535e-06 -2.91237e-05
0.000864433 -6.75429e-06 3.28765e-07
-6.75429e-06 -2.03357e-06 -1.54314e-06
3.28765e-07 -1.54314e-06 -2.8024e-05
0.000817922 4.40131e-07 1.29061e-07
4.40131e-07 -3.73064e-05 -5.87598e-10
1.29061e-07 -5.87598e-10 -3.65164e-05
0.0021271 -9.63095e-07 8.95097e-08
-9.63095e-07 0.000653441 3.92522e-06
8.95097e-08 3.92522e-06 0.00067689
0.00083583 -3.39506e-06 -5.27129e-07
-3.39506e-06 -2.73301e-05 -4.20661e-06
-5.27129e-07 -4.20661e-06 -2.64481e-05
0.00156373 -5.35178e-06 -2.13417e-07
-5.35178e-06 0.000356636 1.79081e-08
-2.13417e-07 1.79081e-08 0.000377357
0.000971294 -8.9242e-06 -7.71912e-07
-8.9242e-06 4.51188e-05 -1.49139e-06
-7.71912e-07 -1.49139e-06 6.33637e-05
0.000881823 3.44646e-06 5.0944e-08
3.44646e-06 3.83828e-06 -1.61252e-06
5.0944e-08 -1.61252e-06 -1.85075e-05
0.000876952 6.68859e-06 2.68938e-08
6.68859e-06 2.27837e-06 1.98008e-09
2.68938e-08 1.98008e-09 -2.12599e-05
0.000813854 8.89637e-06 3.99571e-07
8.89637e-06 -3.84938e-05 -3.03803e-06
3.99571e-07 -3.03803e-06 -3.62918e-05
0.000878109 9.78106e-06 -5.52842e-07
9.78106e-06 4.20036e-06 1.61655e-06
-5.52842e-07 1.61655e-06 -2.10425e-05
0.00108076 1.44085e-05 -2.16351e-07
1.44085e-05 0.000104893 -6.00394e-07
-2.16351e-07 -6.00394e-07 0.000107113
0.00209389 1.7465e-05 9.20038e-06
1.7465e-05 0.000640364 -3.83657e-06
9.20038e-06 -3.83657e-06 0.000663377
0.000818883 1.75929e-05 -1.18317e-06
1.75929e-05 -2.8722e-05 3.15079e-06
-1.18317e-06 3.15079e-06 -2.9878e-05
0.00215561 2.29206e-05 -5.02016e-06
2.29206e-05 0.000677585 1.095e-06
-5.02016e-06 1.095e-06 0.00069924
0.00218866 2.94983e-05 -1.68771e-05
2.94983e-05 0.000700031 3.83297e-06
-1.68771e-05 3.83297e-06 0.000720183
0.00165291 3.72943e-07 7.18281e-07
3.72943e-07 5.13833e-05 2.13874e-07
7.18281e-07 2.13874e-07 -3.90003e-05
0.00176112 8.95341e-06 6.27007e-07
8.95341e-06 0.000100386 -3.34129e-07
6.27007e-07 -3.34129e-07 9.79114e-07
0.00185206 -8.7769e-06 2.54909e-06
-8.7769e-06 0.000151161 -6.8713e-07
2.54909e-06 -6.8713e-07 6.44932e-05
0.00160789 -3.69689e-05 3.17394e-07
-3.69689e-05 -4.68768e-05 5.21078e-07
3.17394e-07 5.21078e-07 -9.61185e-05
0.00181783 8.69771e-06 -5.68787e-07
8.69771e-06 0.000120777 2.2847e-07
-5.68787e-07 2.2847e-07 3.44962e-05
0.00165924 1.04272e-06 1.01363e-06
1.04272e-06 5.36748e-07 5.47502e-07
1.01363e-06 5.47502e-07 -7.7224e-05
0.00211776 2.34139e-05 9.15312e-07
2.34139e-05 0.000209977 7.00194e-07
9.15312e-07 7.00194e-07 0.000120067
0.00287129 -0.00014041 0.000136018
-0.00014041 0.000488677 2.5372e-05
0.000136018 2.5372e-05 0.000274885
0.00114175 -4.7762e-05 -6.20199e-06
-4.7762e-05 -0.000258284 1.46753e-07
-6.20199e-06 1.46753e-07 -0.000321882
0.000910237 1.44381e-05 -5.81461e-07
1.44381e-05 3.26868e-05 -7.70289e-07
-5.81461e-07 -7.70289e-07 -7.03488e-06
0.000908896 -1.39652e-05 5.22249e-07
-1.39652e-05 3.27406e-05 -3.04056e-08
5.22249e-07 -3.04056e-08 -8.02575e-06
0.000911337 -2.43593e-05 -1.93262e-07
-2.43593e-05 4.33594e-05 -2.24701e-08
-1.93262e-07 -2.24701e-08 -8.5479e-06
0.000913227 -2.47441e-05 -6.68823e-07
-2.47441e-05 5.18607e-05 7.64589e-08
-6.68823e-07 7.64589e-08 -3.31459e-06
0.0018952 1.51841e-05 2.33697e-06
1.51841e-05 0.000155903 -9.90639e-07
2.33697e-06 -9.90639e-07 7.18213e-05
0.00193048 -3.01968e-05 3.25085e-06
-3.01968e-05 0.000133283 -3.90167e-07
3.25085e-06 -3.90167e-07 4.04297e-05
0.00191337 -0.000110661 -3.03724e-06
-0.000110661 0.000123975 1.62064e-06
-3.03724e-06 1.62064e-06 5.48363e-05
0.000679381 -6.91183e-05 1.09023e-06
-6.91183e-05 -8.95149e-05 2.07185e-06
1.09023e-06 2.07185e-06 -0.00017956
0.000567041 -8.5242e-05 2.23305e-06
-8.5242e-05 -0.000146215 -2.52349e-08
2.23305e-06 -2.52349e-08 -0.000308475
0.00147844 -0.000131348 -7.91903e-07
-0.000131348 9.65686e-05 -1.0258e-06
-7.91903e-07 -1.0258e-06 -1.5373e-05
0.000796096 -7.88463e-05 -4.84892e-06
-7.88463e-05 -9.93886e-06 -9.91218e-08
-4.84892e-06 -9.91218e-08 -0.000101423
0.0010529 -3.88681e-05 -8.50986e-07
-3.88681e-05 0.000141088 -7.99375e-07
-8.50986e-07 -7.99375e-07 4.01577e-05
0.00107567 -4.19501e-05 -6.67296e-07
-4.19501e-05 0.000142294 9.95907e-07
-6.67296e-07 9.95907e-07 5.55178e-05
0.000901861 -8.5656e-08 -8.715e-07
-8.5656e-08 3.14986e-05 1.04025e-06
-8.715e-07 1.04025e-06 -1.54945e-05
0.000959994 -3.34283e-05 -1.54619e-07
-3.34283e-05 7.60802e-05 5.36107e-08
-1.54619e-07 5.36107e-08 -3.81709e-08
0.00101012 9.42134e-06 -6.67355e-07
9.42134e-06 9.59164e-05 6.95679e-07
-6.67355e-07 6.95679e-07 3.29583e-05
0.000910875 -4.20434e-06 -1.01742e-09
-4.20434e-06 3.47656e-05 2.9766e-07
-1.01742e-09 2.9766e-07 -7.43364e-06
0.000764134 1.76185e-05 1.83945e-07
1.76185e-05 -2.9074e-05 1.073e-06
1.83945e-07 1.073e-06 -8.90924e-05
0.0017494 7.21131e-06 -7.88787e-07
7.21131e-06 6.7904e-05 8.42782e-07
-7.88787e-07 8.42782e-07 -1.24893e-05
0.000915313 9.62239e-06 3.93772e-07
9.62239e-06 4.72805e-05 -4.95223e-07
3.93772e-07 -4.95223e-07 -8.08345e-06
0.000881196 1.41467e-05 5.0668e-07
1.41467e-05 3.23319e-05 9.58411e-09
5.0668e-07 9.58411e-09 -2.94955e-05
0.00098185 3.53781e-05 -2.55503e-07
3.53781e-05 8.44513e-05 8.35707e-07
-2.55503e-07 8.35707e-07 1.71804e-05
0.00206753 -6.4985e-05 -3.85871e-06
-6.4985e-05 0.000154363 4.58033e-07
-3.85871e-06 4.58033e-07 8.17102e-05
0.00162512 -0.000133611 -5.69201e-07
-0.000133611 3.51535e-06 -6.30299e-07
-5.69201e-07 -6.30299e-07 -8.52238e-05
0.000974447 -9.11763e-05 -4.86105e-08
-9.11763e-05 8.09725e-05 -3.72567e-07
-4.86105e-08 -3.72567e-07 -3.88803e-05
0.00169557 -0.000142092 -1.11229e-07
-0.000142092 0.000342217 -1.06532e-06
-1.11229e-07 -1.06532e-06 0.000191915
0.00100375 -1.45229e-05 -3.67164e-07
-1.45229e-05 9.83645e-05 1.06861e-07
-3.67164e-07 1.06861e-07 2.66672e-05
0.000990868 -1.29743e-05 1.26687e-07
-1.29743e-05 9.41547e-05 7.07625e-07
1.26687e-07 7.07625e-07 1.50806e-05
0.000910552 -6.28354e-05 2.70057e-06
-6.28354e-05 8.27315e-05 -7.68287e-07
2.70057e-06 -7.68287e-07 -3.48556e-05
0.00106223 -4.14202e-05 1.90936e-07
-4.14202e-05 0.000146025 -7.32304e-07
1.90936e-07 -7.32304e-07 4.8707e-05
0.00156729 3.11502e-06 -2.98993e-07
3.11502e-06 -5.89992e-05 1.62158e-06
-2.98993e-07 1.62158e-06 -0.000137391
0.0025657 -0.000144853 9.31268e-06
-0.000144853 0.000346123 -3.0745e-06
9.31268e-06 -3.0745e-06 0.000265928
0.00196065 -0.00015355 4.63732e-07
-0.00015355 0.000355221 -3.82978e-06
4.63732e-07 -3.82978e-06 0.000217472
0.00115412 -0.000111069 -1.69857e-06
-0.000111069 0.00018186 4.79652e-07
-1.69857e-06 4.79652e-07 4.73341e-05
0.000886264 1.96493e-05 -7.33297e-07
1.96493e-05 3.85373e-05 -1.30215e-07
-7.33297e-07 -1.30215e-07 -3.30859e-05
0.00092172 -3.85064e-05 9.40279e-07
-3.85064e-05 6.03625e-05 -8.01001e-07
9.40279e-07 -8.01001e-07 -1.18015e-05
0.000982941 -3.45715e-05 4.09853e-07
-3.45715e-05 9.06713e-05 -1.70307e-07
4.09853e-07 -1.70307e-07 1.00791e-05
0.00099352 -1.46985e-05 -1.47743e-06
-1.46985e-05 0.000120876 6.85315e-07
-1.47743e-06 6.85315e-07 -1.86743e-06
0.000273107 -2.54219e-05 -4.13016e-06
-2.54219e-05 -0.000772999 -4.6024e-06
-4.13016e-06 -4.6024e-06 -0.00126451
0.00103894 2.83281e-05 -2.06734e-07
2.83281e-05 0.000117295 -7.83151e-07
-2.06734e-07 -7.83151e-07 3.46718e-05
0.000934961 7.07649e-05 7.61849e-07
7.07649e-05 6.71708e-05 3.35658e-07
7.61849e-07 3.35658e-07 -3.38786e-05
0.00108947 3.43877e-05 1.46254e-06
3.43877e-05 -0.000330846 2.82961e-07
1.46254e-06 2.82961e-07 -0.000396641
0.00172953 0.000117755 -3.02007e-06
0.000117755 -1.02962e-05 1.61322e-06
-3.02007e-06 1.61322e-06 -6.60988e-05
0.00160058 0.000133884 -2.48702e-06
0.000133884 0.000287866 1.80649e-06
-2.48702e-06 1.80649e-06 0.000129928
0.000815195 7.95294e-05 1.07143e-06
7.95294e-05 8.9604e-06 1.79302e-07
1.07143e-06 1.79302e-07 -0.000121759
0.00271278 2.19774e-05 -7.44183e-06
2.19774e-05 0.000443044 6.02933e-07
-7.44183e-06 6.02933e-07 0.000373822
0.00104002 4.97325e-05 2.35824e-07
4.97325e-05 0.00011729 -2.63967e-07
2.35824e-07 -2.63967e-07 2.57539e-05
0.00192198 0.000103588 -2.29506e-06
0.000103588 4.14056e-05 -1.60681e-06
-2.29506e-06 -1.60681e-06 2.8096e-05
0.00109837 8.80742e-05 7.92661e-07
8.80742e-05 0.000157579 -2.9105e-07
7.92661e-07 -2.9105e-07 5.1329e-05
0.00101664 9.82193e-05 -2.33669e-07
9.82193e-05 0.000119981 6.1926e-08
-2.33669e-07 6.1926e-08 -3.80454e-05
0.000741971 0.000140383 -3.1776e-06
0.000140383 -0.000307235 1.89166e-07
-3.1776e-06 1.89166e-07 -0.000424846
0.00179807 -0.000152849 -2.26229e-05
-0.000152849 -4.27124e-05 -7.53776e-06
-2.26229e-05 -7.53776e-06 -0.000555326
0.00301781 -0.000107889 8.24372e-06
-0.000107889 0.000158939 -1.04173e-05
8.24372e-06 -1.04173e-05 -0.000258652
0.001084 0.000137056 3.17114e-06
0.000137056 -0.000226345 9.64301e-07
3.17114e-06 9.64301e-07 -0.000171168
-0.00121009 -0.000237376 7.69036e-06
-0.000237376 -0.00057408 6.21417e-07
7.69036e-06 6.21417e-07 -0.000660418
0.000507906 -0.000372582 8.69861e-06
-0.000372582 -0.000806486 1.26581e-06
8.69861e-06 1.26581e-06 9.22964e-05
0.0011322 6.60581e-05 3.66691e-07
6.60581e-05 0.000167296 -3.86845e-07
3.66691e-07 -3.86845e-07 7.66843e-05
0.000136479 4.51593e-05 -8.9217e-05
4.51593e-05 1.54444e-05 -1.8864e-05
-8.9217e-05 -1.8864e-05 -0.000194041
0.00167453 -0.00021588 -2.43993e-05
-0.00021588 0.00051732 -1.54406e-05
-2.43993e-05 -1.54406e-05 0.000867657
0.00122121 0.00012839 -5.20957e-07
0.00012839 -0.000237981 -1.61398e-06
-5.20957e-07 -1.61398e-06 -0.000209762
0.000914733 3.95348e-05 -5.7771e-07
3.95348e-05 7.7215e-05 -4.3245e-07
-5.7771e-07 -4.3245e-07 -4.05248e-05
0.00136885 9.79392e-05 -5.2167e-06
9.79392e-05 0.000324307 -6.43639e-08
-5.2167e-06 -6.43639e-08 0.000131485
0.00151618 0.000176484 4.9174e-06
0.000176484 9.89989e-05 1.37784e-05
4.9174e-06 1.37784e-05 0.000120553
0.00632059 -0.000272247 -5.9894e-05
-0.000272247 0.00198215 -1.76124e-05
-5.9894e-05 -1.76124e-05 0.00111152
0.00161159 1.35486e-05 1.54723e-05
1.35486e-05 -0.000615435 2.2491e-05
1.54723e-05 2.2491e-05 -0.00115626
-0.000170514 -0.000351795 -4.94668e-05
-0.000351795 -0.000286194 -1.90905e-05
-4.94668e-05 -1.90905e-05 -5.24363e-05
3.74807e-05 -0.000169136 -2.19411e-05
-0.000169136 -0.00145169 -4.63734e-07
-2.19411e-05 -4.63734e-07 -0.000954726
0.00101303 1.80055e-05 -2.90973e-07
1.80055e-05 9.84729e-05 -8.59975e-07
-2.90973e-07 -8.59975e-07 1.71216e-05
0.00103497 3.7158e-05 -3.80087e-07
3.7158e-05 0.000104963 1.19127e-07
-3.80087e-07 1.19127e-07 2.21548e-05
0.00119836 6.20406e-05 -3.46787e-07
6.20406e-05 0.000190107 -3.45898e-07
-3.46787e-07 -3.45898e-07 0.000108438
0.000896899 1.9662e-06 -1.29654e-08
1.9662e-06 2.65573e-05 -4.22643e-07
-1.29654e-08 -4.22643e-07 -1.98532e-05
0.000953091 -1.1613e-05 -1.73106e-07
-1.1613e-05 6.1421e-05 -5.51077e-07
-1.73106e-07 -5.51077e-07 4.49649e-06
0.000911012 -6.69765e-06 -1.13114e-07
-6.69765e-06 3.9066e-05 -8.8303e-07
-1.13114e-07 -8.8303e-07 -2.36925e-05
0.000972911 1.32418e-06 3.75695e-08
1.32418e-06 7.7499e-05 -3.37129e-07
3.75695e-08 -3.37129e-07 9.22384e-06
0.00095113 5.93883e-06 -7.79195e-08
5.93883e-06 6.64276e-05 -3.59199e-07
-7.79195e-08 -3.59199e-07 -1.11668e-05
0.000770956 -6.33497e-06 3.24151e-07
-6.33497e-06 -4.17906e-05 3.87719e-07
3.24151e-07 3.87719e-07 -8.81213e-05
0.000914815 1.10933e-05 -1.20156e-07
1.10933e-05 4.83248e-05 -3.21714e-07
-1.20156e-07 -3.21714e-07 -1.80446e-05
0.00097678 -1.39304e-05 -2.42219e-07
-1.39304e-05 7.13908e-05 3.72826e-07
-2.42219e-07 3.72826e-07 8.20709e-06
0.000919507 1.66272e-05 3.02085e-07
1.66272e-05 4.1533e-05 -1.69802e-07
3.02085e-07 -1.69802e-07 -1.61392e-05
0.00098385 2.61395e-05 -1.81647e-08
2.61395e-05 8.277e-05 9.44342e-08
-1.81647e-08 9.44342e-08 8.798e-06
0.000908303 7.57354e-06 3.78753e-07
7.57354e-06 3.55523e-05 3.5923e-07
3.78753e-07 3.5923e-07 -3.2657e-05
0.0010788 4.10085e-05 -2.32614e-07
4.10085e-05 0.0001313 -9.86659e-09
-2.32614e-07 -9.86659e-09 5.41178e-05
0.000979196 -4.8699e-05 -8.86159e-08
-4.8699e-05 7.16533e-05 2.16873e-07
-8.86159e-08 2.16873e-07 9.34664e-06
0.000991457 -3.30933e-05 -4.32783e-07
-3.30933e-05 7.83833e-05 -6.66716e-08
-4.32783e-07 -6.66716e-08 2.09267e-05
0.000983726 -2.78428e-06 -2.9308e-07
-2.78428e-06 7.47353e-05 -7.06275e-08
-2.9308e-07 -7.06275e-08 1.87263e-05
0.000964478 4.20715e-05 -2.28153e-07
4.20715e-05 6.70736e-05 -2.97783e-07
-2.28153e-07 -2.97783e-07 5.29379e-06
0.000964317 2.32453e-05 7.44237e-08
2.32453e-05 6.66801e-05 2.44984e-07
7.44237e-08 2.44984e-07 3.17355e-06
0.000940873 3.24198e-05 1.15013e-07
3.24198e-05 5.60658e-05 6.48564e-07
1.15013e-07 6.48564e-07 -5.92401e-06
0.00106534 4.18683e-05 -1.04347e-07
4.18683e-05 0.000115938 3.00476e-08
-1.04347e-07 3.00476e-08 5.01142e-05
0.000902165 2.83258e-06 4.68558e-07
2.83258e-06 4.4408e-05 1.50435e-06
4.68558e-07 1.50435e-06 -2.58387e-05
0.000903325 1.48641e-05 -1.35907e-07
1.48641e-05 3.49842e-05 5.66792e-07
-1.35907e-07 5.66792e-07 -2.0247e-05
0.000909742 2.77476e-06 -1.23919e-08
2.77476e-06 4.01167e-05 -2.77649e-08
-1.23919e-08 -2.77649e-08 -1.51828e-05
0.000898597 5.42878e-06 -8.35966e-07
5.42878e-06 2.53121e-05 6.69772e-07
-8.35966e-07 6.69772e-07 -1.82086e-05
0.000862112 1.74095e-05 2.17473e-07
1.74095e-05 1.09816e-05 -5.96304e-07
2.17473e-07 -5.96304e-07 -4.31541e-05
0.000851441 -8.79453e-06 8.33745e-08
-8.79453e-06 -4.66708e-07 1.97782e-08
8.33745e-08 1.97782e-08 -4.46441e-05
0.000870909 1.17634e-05 -3.87892e-07
1.17634e-05 2.23021e-06 1.66034e-06
-3.87892e-07 1.66034e-06 -2.43412e-05
0.000791138 4.9343e-06 3.51417e-07
4.9343e-06 -3.03195e-05 -4.09567e-07
3.51417e-07 -4.09567e-07 -7.68669e-05
0.000867714 5.13971e-06 -1.58932e-07
5.13971e-06 2.51132e-08 -6.33908e-09
-1.58932e-07 -6.33908e-09 -2.62963e-05
0.00139352 9.3438e-06 -2.66735e-06
9.3438e-06 0.000268591 4.19331e-06
-2.66735e-06 4.19331e-06 0.000271577
0.000861165 -4.48436e-06 5.45443e-07
-4.48436e-06 -3.41501e-06 -1.57038e-06
5.45443e-07 -1.57038e-06 -2.96104e-05
0.00110622 4.84922e-06 -1.11359e-06
4.84922e-06 0.00011557 6.05964e-07
-1.11359e-06 6.05964e-07 0.000117459
0.00102183 2.65532e-06 -2.37464e-06
2.65532e-06 7.0616e-05 3.83291e-06
-2.37464e-06 3.83291e-06 8.83213e-05
0.000821313 4.35688e-07 3.68308e-09
4.35688e-07 -3.55293e-05 -2.97981e-06
3.68308e-09 -2.97981e-06 -3.47611e-05
0.0021287 -6.12344e-07 1.70196e-06
-6.12344e-07 0.000654294 5.10124e-10
1.70196e-06 5.10124e-10 0.000677722
0.00102555 -3.51474e-06 -1.44078e-06
-3.51474e-06 7.25109e-05 -3.81803e-06
-1.44078e-06 -3.81803e-06 9.04843e-05
0.000898268 3.28729e-05 2.31347e-07
3.28729e-05 2.88614e-05 -1.95431e-07
2.31347e-07 -1.95431e-07 -1.25216e-05
0.000883629 -2.87453e-07 1.3945e-08
-2.87453e-07 4.70576e-06 -1.60433e-06
1.3945e-08 -1.60433e-06 -1.71891e-05
0.000881724 2.85539e-06 -5.03115e-08
2.85539e-06 3.69202e-06 -4.80965e-10
-5.03115e-08 -4.80965e-10 -1.86374e-05
0.000822197 4.41523e-06 1.15824e-07
4.41523e-06 -3.60074e-05 -3.01187e-06
1.15824e-07 -3.01187e-06 -3.28006e-05
0.000876287 6.16053e-06 -2.93407e-07
6.16053e-06 1.67012e-06 1.54711e-06
-2.93407e-07 1.54711e-06 -2.18263e-05
0.000815301 9.02228e-06 5.7797e-08
9.02228e-06 -3.8033e-05 -6.13425e-07
5.7797e-08 -6.13425e-07 -3.57591e-05
0.00205993 1.15184e-05 6.0851e-06
1.15184e-05 0.000619843 -3.8534e-06
6.0851e-06 -3.8534e-06 0.000643724
0.00134691 1.66214e-05 -1.28793e-06
1.66214e-05 0.000245618 1.88551e-06
-1.28793e-06 1.88551e-06 0.000248988
0.00156943 1.52321e-05 3.09319e-07
1.52321e-05 0.000364628 1.19655e-06
3.09319e-07 1.19655e-06 0.000384551
0.00106451 1.73094e-05 -1.29724e-05
1.73094e-05 0.000102566 6.281e-06
-1.29724e-05 6.281e-06 0.000118468
-0.000481707 3.59356e-06 3.14965e-06
3.59356e-06 -0.00108799 2.1594e-06
3.14965e-06 2.1594e-06 -0.0011327
0.00203876 7.5898e-06 1.52596e-06
7.5898e-06 0.000228667 2.96057e-07
1.52596e-06 2.96057e-07 0.000143108
0.00181557 8.42818e-06 -2.68038e-06
8.42818e-06 9.35713e-05 -1.5572e-06
-2.68038e-06 -1.5572e-06 1.36608e-05
0.0010823 -7.32892e-05 2.99673e-05
-7.32892e-05 -0.000195278 3.06508e-06
2.99673e-05 3.06508e-06 -0.00039587
0.00166451 -4.29578e-05 -2.52629e-06
-4.29578e-05 4.88184e-05 -4.22491e-07
-2.52629e-06 -4.22491e-07 -2.56926e-05
0.00178921 2.27877e-05 -3.24201e-06
2.27877e-05 3.33701e-05 -2.13095e-06
-3.24201e-06 -2.13095e-06 -5.43857e-05
0.00167337 3.91087e-05 -7.58918e-06
3.91087e-05 0.000108539 1.07386e-06
-7.58918e-06 1.07386e-06 3.21665e-05
0.00159676 -6.78993e-05 0.000120082
-6.78993e-05 6.13224e-05 1.88749e-06
0.000120082 1.88749e-06 -0.000218069
0.00549605 0.000114937 -1.70123e-05
0.000114937 0.00159199 -1.40129e-06
-1.70123e-05 -1.40129e-06 0.000853245
0.00394806 0.000439183 -2.76041e-05
0.000439183 0.00165705 1.05221e-05
-2.76041e-05 1.05221e-05 0.00183698
0.00143171 0.000369182 -1.47376e-05
0.000369182 3.89628e-05 5.83431e-06
-1.47376e-05 5.83431e-06 0.000776791
0.000751605 -2.92007e-05 1.10994e-06
-2.92007e-05 -3.59757e-05 -6.42246e-07
1.10994e-06 -6.42246e-07 -8.96793e-05
0.000913914 -9.66157e-06 1.50533e-07
-9.66157e-06 3.51206e-05 -1.93136e-08
1.50533e-07 -1.93136e-08 -4.9723e-06
0.000910443 -3.85802e-05 -7.63061e-07
-3.85802e-05 3.52135e-05 7.90253e-07
-7.63061e-07 7.90253e-07 -6.78836e-06
0.000865179 -5.4915e-06 -2.92306e-07
-5.4915e-06 2.08231e-05 2.18772e-08
-2.92306e-07 2.18772e-08 -3.23088e-05
0.000932604 3.89294e-05 8.36423e-08
3.89294e-05 6.47917e-05 7.18942e-07
8.36423e-08 7.18942e-07 1.07206e-06
0.000950323 4.33759e-05 1.57408e-07
4.33759e-05 6.954e-05 6.52146e-07
1.57408e-07 6.52146e-07 8.98783e-06
0.000955057 -1.85172e-05 6.97154e-07
-1.85172e-05 7.10574e-05 -8.6581e-07
6.97154e-07 -8.6581e-07 1.58507e-05
0.000861033 -3.98203e-05 -5.06127e-07
-3.98203e-05 2.21855e-05 4.72323e-07
-5.06127e-07 4.72323e-07 -3.1932e-05
0.00168377 7.54822e-06 7.02823e-07
7.54822e-06 4.09134e-05 -5.75656e-07
7.02823e-07 -5.75656e-07 -3.89157e-05
0.00173487 -6.27955e-05 -1.39247e-06
-6.27955e-05 -1.90893e-05 3.63101e-07
-1.39247e-06 3.63101e-07 -9.48431e-05
0.00145661 -0.000124953 -6.35783e-06
-0.000124953 -7.42446e-05 1.77042e-06
-6.35783e-06 1.77042e-06 -0.000161458
0.000926927 -9.09389e-05 7.71803e-07
-9.09389e-05 4.72341e-05 7.44572e-07
7.71803e-07 7.44572e-07 -7.0494e-05
0.00163673 -0.000140941 8.71081e-07
-0.000140941 0.000317085 7.32088e-07
8.71081e-07 7.32088e-07 0.000158218
0.000947786 -6.35398e-05 1.02912e-07
-6.35398e-05 9.59226e-05 -1.00711e-06
1.02912e-07 -1.00711e-06 -1.71123e-05
0.00122364 -6.03029e-05 2.89221e-07
-6.03029e-05 0.000230616 -4.2926e-07
2.89221e-07 -4.2926e-07 0.000129326
0.000894042 -2.19408e-05 -3.42395e-07
-2.19408e-05 4.717e-05 2.2866e-07
-3.42395e-07 2.2866e-07 -3.26534e-05
0.000906906 4.00936e-06 3.45558e-07
4.00936e-06 4.5518e-05 6.47987e-07
3.45558e-07 6.47987e-07 -1.53325e-05
0.00105919 -1.54701e-06 -6.77393e-07
-1.54701e-06 0.000124834 2.99465e-07
-6.77393e-07 2.99465e-07 5.46006e-05
0.00109483 2.39839e-06 2.23244e-07
2.39839e-06 0.000138825 -2.06613e-08
2.23244e-07 -2.06613e-08 8.56574e-05
0.000872907 5.84603e-05 1.03665e-06
5.84603e-05 2.76148e-05 1.45512e-06
1.03665e-06 1.45512e-06 -3.99881e-05
0.00169652 8.9027e-06 1.99312e-06
8.9027e-06 -1.38993e-06 -2.73749e-06
1.99312e-06 -2.73749e-06 -7.84211e-05
0.000898357 2.03832e-05 -3.63104e-07
2.03832e-05 4.5547e-05 3.8382e-07
-3.63104e-07 3.8382e-07 -2.50118e-05
0.00091249 -2.75813e-05 -2.47382e-07
-2.75813e-05 5.33711e-05 -3.39966e-07
-2.47382e-07 -3.39966e-07 -1.78394e-05
0.00223805 -0.000137743 -3.28206e-06
-0.000137743 0.000186092 -5.39815e-07
-3.28206e-06 -5.39815e-07 0.000111037
0.000932182 -0.000119034 5.05578e-07
-0.000119034 -0.000143391 1.94445e-06
5.05578e-07 1.94445e-06 -0.000274654
0.00125141 -0.000116238 1.24289e-06
-0.000116238 0.000229632 -8.99316e-07
1.24289e-06 -8.99316e-07 9.04749e-05
0.000981924 -3.44692e-05 1.25204e-07
-3.44692e-05 8.92655e-05 -1.53765e-07
1.25204e-07 -1.53765e-07 6.80096e-06
0.00105519 -2.5885e-05 9.09308e-08
-2.5885e-05 0.000152796 2.4639e-07
9.09308e-08 2.4639e-07 2.9548e-05
0.0029257 -7.88313e-05 -8.83528e-06
-7.88313e-05 0.000639865 9.9257e-06
-8.83528e-06 9.9257e-06 0.000576158
0.0031114 -0.00022299 6.7152e-06
-0.00022299 0.000785358 -4.59214e-06
6.7152e-06 -4.59214e-06 0.000650342
0.000346599 -9.79489e-05 -3.57655e-06
-9.79489e-05 -0.000246251 -1.27715e-06
-3.57655e-06 -1.27715e-06 -0.000383102
0.00128167 -7.59854e-05 -2.30614e-06
-7.59854e-05 0.000277661 2.04323e-06
-2.30614e-06 2.04323e-06 0.000126839
0.000800226 -5.35582e-05 7.43649e-07
-5.35582e-05 -2.54299e-06 -8.95522e-08
7.43649e-07 -8.95522e-08 -7.9061e-05
0.00100556 -4.04285e-05 1.65474e-06
-4.04285e-05 9.91073e-05 -3.32771e-07
1.65474e-06 -3.32771e-07 1.76231e-05
0.00113105 -1.85548e-05 -8.55128e-07
-1.85548e-05 0.000166278 4.09087e-07
-8.55128e-07 4.09087e-07 6.96596e-05
-0.0019012 -1.58986e-05 -4.18699e-05
-1.58986e-05 -0.00100573 -1.09728e-06
-4.18699e-05 -1.09728e-06 -0.000909967
0.00635675 -1.76674e-05 -2.34523e-05
-1.76674e-05 0.00214639 -2.06567e-06
-2.34523e-05 -2.06567e-06 0.00160179
0.00102144 5.17463e-05 5.04227e-07
5.17463e-05 0.000111797 -2.52326e-07
5.04227e-07 -2.52326e-07 2.02674e-05
0.000830753 7.66173e-05 1.40711e-06
7.66173e-05 2.35214e-05 -1.22959e-06
1.40711e-06 -1.22959e-06 -8.18681e-05
0.00182839 0.000102484 -6.97549e-06
0.000102484 -9.94809e-06 3.10934e-06
-6.97549e-06 3.10934e-06 -1.98103e-05
0.00140005 0.000162076 -2.52888e-06
0.000162076 -6.04102e-06 1.39535e-06
-2.52888e-06 1.39535e-06 -0.000114664
0.00110344 0.000102881 1.40088e-06
0.000102881 0.000166669 -7.63466e-07
1.40088e-06 -7.63466e-07 1.05989e-05
0.0055289 -1.85949e-05 2.84557e-05
-1.85949e-05 0.00158694 -7.97946e-06
2.84557e-05 -7.97946e-06 0.000937873
0.00312712 -0.000119662 -6.14145e-05
-0.000119662 0.00022463 -1.62344e-05
-6.14145e-05 -1.62344e-05 -9.74485e-05
0.000969135 0.000118775 -5.37438e-06
0.000118775 -0.000286702 -9.0274e-06
-5.37438e-06 -9.0274e-06 -0.000225679
0.00299068 -0.000356594 2.90634e-05
-0.000356594 0.00140879 1.68993e-05
2.90634e-05 1.68993e-05 0.00143994
-0.00119088 -0.000407136 1.97184e-05
-0.000407136 -0.001758 -6.38222e-06
1.97184e-05 -6.38222e-06 -0.000753263
0.00103738 7.28369e-05 -9.00103e-08
7.28369e-05 0.000119659 -2.48255e-07
-9.00103e-08 -2.48255e-07 2.81709e-05
-0.00177578 -8.9377e-05 -4.21513e-06
-8.9377e-05 -0.000967607 -1.41517e-06
-4.21513e-06 -1.41517e-06 -0.000826609
0.000467818 -0.000201348 -8.53137e-06
-0.000201348 -2.78235e-05 -8.63468e-07
-8.53137e-06 -8.63468e-07 0.000188635
0.00202415 0.000144813 -6.01404e-07
0.000144813 0.000156101 -3.8775e-07
-6.01404e-07 -3.8775e-07 0.000178046
0.00102882 5.8764e-05 -1.88381e-07
5.8764e-05 0.000143968 -1.00853e-06
-1.88381e-07 -1.00853e-06 2.89397e-05
0.000931898 9.25264e-05 1.1213e-07
9.25264e-05 0.000106022 4.04617e-07
1.1213e-07 4.04617e-07 -8.54315e-05
0.000218066 0.000122242 9.8902e-06
0.000122242 -0.000528166 3.75748e-06
9.8902e-06 3.75748e-06 -0.000490239
0.00464485 -0.000182571 3.12951e-06
-0.000182571 0.00108167 2.54099e-06
3.12951e-06 2.54099e-06 0.00015309
0.00330896 7.45457e-05 -2.30043e-05
7.45457e-05 0.000352134 -1.40325e-05
-2.30043e-05 -1.40325e-05 4.45151e-05
0.00346556 -0.000485662 9.4372e-06
-0.000485662 0.00119227 -1.05932e-06
9.4372e-06 -1.05932e-06 0.00127349
0.000290201 -0.000215814 5.77112e-06
-0.000215814 -0.00147106 1.50944e-05
5.77112e-06 1.50944e-05 -0.000793936
0.00111437 3.40604e-05 -2.04826e-06
3.40604e-05 0.000146244 -9.98988e-07
-2.04826e-06 -9.98988e-07 5.99451e-05
-0.000466636 -5.42184e-05 -2.77626e-05
-5.42184e-05 -0.000343637 -5.59647e-06
-2.77626e-05 -5.59647e-06 -0.000447752
0.00129171 -1.78564e-05 -2.15188e-05
-1.78564e-05 -4.47482e-05 -1.96684e-05
-2.15188e-05 -1.96684e-05 -9.75534e-05
0.000475524 0.00013111 -3.03177e-06
0.00013111 -0.000272991 -5.16351e-06
-3.03177e-06 -5.16351e-06 -0.000370599
0.00179836 8.45635e-05 -7.72834e-06
8.45635e-05 0.000598009 -4.54194e-07
-7.72834e-06 -4.54194e-07 0.000450259
0.00294458 -2.81685e-05 -5.32982e-06
-2.81685e-05 0.00120744 -2.63293e-06
-5.32982e-06 -2.63293e-06 0.00116121
0.00203541 0.00026541 -7.95199e-05
0.00026541 4.94943e-05 1.09915e-05
-7.95199e-05 1.09915e-05 -0.00024429
0.000771612 -0.000274397 1.47905e-05
-0.000274397 -0.000448905 1.73352e-05
1.47905e-05 1.73352e-05 -0.00160519
0.00546644 -0.00048538 -5.02041e-05
-0.00048538 0.0014495 -9.3792e-06
-5.02041e-05 -9.3792e-06 0.00159839
0.000740464 -8.79964e-05 -2.63009e-06
-8.79964e-05 -0.000982593 -9.04801e-06
-2.63009e-06 -9.04801e-06 -0.000663048
0.000996819 4.23766e-05 2.18663e-07
4.23766e-05 8.82908e-05 5.62331e-07
2.18663e-07 5.62331e-07 4.68993e-06
0.00108102 5.79874e-05 1.01564e-06
5.79874e-05 0.000129218 5.16505e-07
1.01564e-06 5.16505e-07 4.70154e-05
0.000624415 5.39968e-05 1.33037e-06
5.39968e-05 -8.59499e-05 -8.63433e-07
1.33037e-06 -8.63433e-07 -0.00017028
0.000788619 1.75764e-05 2.14106e-07
1.75764e-05 -3.25294e-05 -4.42627e-07
2.14106e-07 -4.42627e-07 -7.90779e-05
0.000988625 2.45376e-05 -2.56566e-07
2.45376e-05 7.87044e-05 -4.15045e-07
-2.56566e-07 -4.15045e-07 2.08656e-05
0.00110355 -3.49e-05 1.07523e-07
-3.49e-05 0.00013826 -8.40786e-08
1.07523e-07 -8.40786e-08 7.50042e-05
0.000898437 5.8038e-06 -4.87333e-07
5.8038e-06 4.09376e-05 -4.49747e-07
-4.87333e-07 -4.49747e-07 -2.49409e-05
0.000951133 2.3124e-05 -3.89266e-07
2.3124e-05 6.47755e-05 2.87898e-08
-3.89266e-07 2.87898e-08 -9.46146e-06
0.00097324 1.18294e-05 3.25449e-07
1.18294e-05 6.97236e-05 -3.7531e-07
3.25449e-07 -3.7531e-07 1.19238e-05
0.000958866 4.26413e-06 -7.95175e-08
4.26413e-06 6.4361e-05 -1.81859e-07
-7.95175e-08 -1.81859e-07 -3.70356e-06
0.00095568 -3.251e-05 1.63944e-07
-3.251e-05 5.94609e-05 -5.30291e-08
1.63944e-07 -5.30291e-08 -2.95141e-06
0.0010302 2.75637e-05 -5.59468e-08
2.75637e-05 0.000108072 4.04312e-07
-5.59468e-08 4.04312e-07 3.13088e-05
0.00129313 -1.92836e-05 2.82198e-07
-1.92836e-05 0.000239937 1.18437e-07
2.82198e-07 1.18437e-07 0.000163092
0.000987023 -6.37724e-06 -3.93939e-07
-6.37724e-06 7.31387e-05 5.75491e-07
-3.93939e-07 5.75491e-07 4.41171e-06
0.000977324 3.57315e-06 1.60642e-07
3.57315e-06 7.32417e-05 1.03777e-07
1.60642e-07 1.03777e-07 8.83277e-06
0.000984813 -2.1433e-05 1.83975e-07
-2.1433e-05 7.68392e-05 -4.09773e-07
1.83975e-07 -4.09773e-07 1.97029e-05
0.000875795 2.0489e-05 -2.56364e-07
2.0489e-05 1.79539e-05 -8.00096e-07
-2.56364e-07 -8.00096e-07 -4.26183e-05
0.00095631 2.2601e-06 2.96954e-07
2.2601e-06 6.27078e-05 -3.06236e-08
2.96954e-07 -3.06236e-08 -6.09687e-07
0.000928305 3.03697e-05 1.09741e-10
3.03697e-05 4.97952e-05 -1.02281e-08
1.09741e-10 -1.02281e-08 -1.21265e-05
0.00100759 3.02793e-05 -4.92531e-07
3.02793e-05 8.30498e-05 -6.24692e-07
-4.92531e-07 -6.24692e-07 1.79573e-05
0.000900556 1.89361e-05 3.37414e-07
1.89361e-05 3.74965e-05 1.16755e-06
3.37414e-07 1.16755e-06 -2.66986e-05
0.00100948 2.99109e-05 3.34864e-07
2.99109e-05 8.74874e-05 1.7173e-07
3.34864e-07 1.7173e-07 2.064e-05
0.000935707 1.49615e-05 -1.23384e-07
1.49615e-05 4.50236e-05 5.39676e-07
-1.23384e-07 5.39676e-07 -2.25192e-05
0.000921265 -9.51282e-06 6.19434e-07
-9.51282e-06 5.56232e-05 3.34776e-07
6.19434e-07 3.34776e-07 -2.51512e-05
0.000809663 -4.89318e-05 -1.97335e-07
-4.89318e-05 2.20155e-05 3.02247e-07
-1.97335e-07 3.02247e-07 -7.24526e-05
0.000801143 -9.44219e-06 -5.72472e-07
-9.44219e-06 -1.8189e-06 2.08105e-07
-5.72472e-07 2.08105e-07 -7.91137e-05
0.000929506 2.61197e-06 1.3063e-07
2.61197e-06 5.92151e-05 3.74136e-07
1.3063e-07 3.74136e-07 -1.12824e-05
0.000913164 7.30582e-06 6.4051e-08
7.30582e-06 4.13288e-05 1.26224e-06
6.4051e-08 1.26224e-06 -1.7221e-05
0.000918065 9.98897e-06 -1.25541e-07
9.98897e-06 4.32781e-05 -9.33823e-08
-1.25541e-07 -9.33823e-08 -1.22962e-05
0.000897985 2.03446e-05 -4.11756e-07
2.03446e-05 2.64108e-05 7.25174e-07
-4.11756e-07 7.25174e-07 -1.76726e-05
0.000914134 1.46678e-05 3.544e-07
1.46678e-05 4.10825e-05 -3.85576e-07
3.544e-07 -3.85576e-07 -1.32966e-05
0.000905094 7.28564e-06 -6.62782e-09
7.28564e-06 2.83851e-05 2.05692e-08
-6.62782e-09 2.05692e-08 -1.5087e-05
0.000868166 1.44944e-05 -7.11236e-07
1.44944e-05 2.74456e-06 1.64117e-06
-7.11236e-07 1.64117e-06 -2.43863e-05
0.000790171 9.13624e-06 3.20728e-07
9.13624e-06 -3.33994e-05 -6.83321e-07
3.20728e-07 -6.83321e-07 -7.7264e-05
0.000871939 7.22969e-06 -7.62829e-08
7.22969e-06 2.63383e-06 -6.30832e-09
-7.62829e-08 -6.30832e-09 -2.38876e-05
0.00139007 1.40784e-05 -4.24558e-06
1.40784e-05 0.000268989 4.19135e-06
-4.24558e-06 4.19135e-06 0.000271626
0.000865412 -7.65075e-07 6.48377e-07
-7.65075e-07 -1.32176e-06 -1.58555e-06
6.48377e-07 -1.58555e-06 -2.7573e-05
0.00110358 9.31713e-06 -1.73627e-06
9.31713e-06 0.000115659 5.9655e-07
-1.73627e-06 5.9655e-07 0.000117298
0.000977104 8.42254e-06 -7.12919e-07
8.42254e-06 4.84587e-05 1.51168e-06
-7.12919e-07 1.51168e-06 6.60523e-05
0.000817826 4.47107e-06 3.13165e-07
4.47107e-06 -3.68273e-05 -2.99111e-06
3.13165e-07 -2.99111e-06 -3.62718e-05
0.002134 5.23742e-06 1.58893e-06
5.23742e-06 0.000657509 1.10455e-08
1.58893e-06 1.10455e-08 0.000680804
0.00212986 -2.58839e-07 1.08097e-06
-2.58839e-07 0.000654898 -3.92835e-06
1.08097e-06 -3.92835e-06 0.000678304
0.00113953 2.02262e-05 -7.79135e-07
2.02262e-05 0.000153941 -3.77476e-07
-7.79135e-07 -3.77476e-07 0.000113606
0.000883963 -3.35925e-06 -1.60555e-07
-3.35925e-06 5.90418e-06 -1.51645e-06
-1.60555e-07 -1.51645e-06 -1.6534e-05
0.00090636 3.21137e-06 6.11266e-07
3.21137e-06 3.28471e-05 4.55437e-07
6.11266e-07 4.55437e-07 -8.25368e-06
0.000829154 -1.82332e-07 -4.86324e-08
-1.82332e-07 -3.28405e-05 -2.99809e-06
-4.86324e-08 -2.99809e-06 -2.93003e-05
0.000882945 -7.31453e-07 3.17055e-08
-7.31453e-07 4.31089e-06 -2.05411e-09
3.17055e-08 -2.05411e-09 -1.75791e-05
0.000878691 2.29372e-06 -2.28675e-07
2.29372e-06 1.98469e-06 1.57879e-06
-2.28675e-07 1.57879e-06 -2.0315e-05
0.000825651 4.57174e-06 -1.21553e-07
4.57174e-06 -3.41947e-05 8.42024e-09
-1.21553e-07 8.42024e-09 -3.10248e-05
0.00203306 5.64102e-06 2.63741e-06
5.64102e-06 0.000604141 -3.86416e-06
2.63741e-06 -3.86416e-06 0.000628593
0.00133937 1.13287e-05 -8.08209e-07
1.13287e-05 0.00023851 1.84869e-06
-8.08209e-07 1.84869e-06 0.000243364
0.00152813 1.04061e-05 1.77297e-06
1.04061e-05 0.000339546 2.40625e-08
1.77297e-06 2.40625e-08 0.000360627
0.00105694 1.28737e-05 -1.06958e-05
1.28737e-05 9.39542e-05 6.23851e-06
-1.06958e-05 6.23851e-06 0.000111248
-0.00347163 0.000103911 -3.25373e-05
0.000103911 -0.00187573 9.50318e-06
-3.25373e-05 9.50318e-06 -0.00178905
-0.00125878 0.000176589 -8.03287e-06
0.000176589 -0.00104945 1.08315e-05
-8.03287e-06 1.08315e-05 -0.000821746
0.000436191 -3.57364e-05 -7.72696e-05
-3.57364e-05 -0.000525717 -8.38043e-06
-7.72696e-05 -8.38043e-06 -0.000719587
0.00242713 -4.32933e-05 -1.39184e-07
-4.32933e-05 0.000476716 -2.6244e-07
-1.39184e-07 -2.6244e-07 0.000392736
0.00149511 2.27137e-05 -1.08446e-05
2.27137e-05 -0.000124355 1.3366e-07
-1.08446e-05 1.3366e-07 -0.000210068
0.00107596 -2.76056e-05 2.42658e-05
-2.76056e-05 -2.53446e-05 -2.22106e-06
2.42658e-05 -2.22106e-06 -0.000224966
0.00194875 4.43578e-05 1.23719e-06
4.43578e-05 0.000252315 1.33709e-06
1.23719e-06 1.33709e-06 0.000173416
0.00511116 0.000242995 -2.54043e-05
0.000242995 0.00135585 -3.0498e-06
-2.54043e-05 -3.0498e-06 0.000712157
-0.00302141 0.000214382 -5.65489e-06
0.000214382 -0.00134683 -3.3181e-06
-5.65489e-06 -3.3181e-06 -0.0012798
0.00022117 0.000393504 4.16598e-06
0.000393504 -0.000844284 -5.41362e-06
4.16598e-06 -5.41362e-06 3.05096e-05
0.00121006 1.86258e-05 4.11909e-05
1.86258e-05 8.16765e-05 -1.09664e-05
4.11909e-05 -1.09664e-05 -0.000143197
0.00633921 0.00038907 -6.29733e-06
0.00038907 0.00190064 -4.13694e-06
-6.29733e-06 -4.13694e-06 0.00108018
-0.000121595 0.000363773 -4.78944e-05
0.000363773 -0.000257504 2.25683e-05
-4.78944e-05 2.25683e-05 6.43486e-06
0.00266981 0.000215756 -2.85796e-05
0.000215756 5.33214e-05 1.61494e-05
-2.85796e-05 1.61494e-05 0.000599143
0.000872973 2.97626e-05 -5.14586e-07
2.97626e-05 3.45284e-05 -2.99788e-07
-5.14586e-07 -2.99788e-07 -3.28694e-05
0.000823481 -7.62549e-06 1.09166e-07
-7.62549e-06 6.27449e-07 -3.97894e-07
1.09166e-07 -3.97894e-07 -5.23366e-05
0.000907252 -3.57208e-05 -7.3163e-07
-3.57208e-05 3.30396e-05 7.99692e-07
-7.3163e-07 7.99692e-07 -7.98221e-06
0.000807801 8.92258e-06 9.1427e-08
8.92258e-06 -8.03441e-06 2.66459e-07
9.1427e-08 2.66459e-07 -6.19561e-05
0.000934717 4.34088e-05 6.7133e-07
4.34088e-05 6.72928e-05 8.47147e-07
6.7133e-07 8.47147e-07 4.27205e-06
0.000972814 3.01765e-05 -4.54606e-07
3.01765e-05 8.68334e-05 1.07222e-07
-4.54606e-07 1.07222e-07 1.98458e-05
0.000920988 3.0744e-05 1.02276e-06
3.0744e-05 5.78373e-05 1.02012e-06
1.02276e-06 1.02012e-06 -5.02317e-06
0.000895944 -5.18633e-06 7.44203e-07
-5.18633e-06 4.06211e-05 1.25422e-07
7.44203e-07 1.25422e-07 -2.02457e-05
0.000886402 -2.15467e-05 3.04e-07
-2.15467e-05 3.58186e-05 -5.3216e-07
3.04e-07 -5.3216e-07 -2.06233e-05
0.000801097 -3.27656e-05 -3.79366e-07
-3.27656e-05 -8.70444e-06 6.35466e-07
-3.79366e-07 6.35466e-07 -6.3528e-05
0.00181763 1.61366e-05 -4.57319e-07
1.61366e-05 5.20675e-05 4.3797e-07
-4.57319e-07 4.3797e-07 -2.40804e-05
0.00165551 -0.000125032 -1.02404e-05
-0.000125032 -0.000100657 1.85786e-06
-1.02404e-05 1.85786e-06 -0.000170642
-0.000177234 -8.13257e-05 2.95636e-06
-8.13257e-05 -0.000681956 4.70146e-06
2.95636e-06 4.70146e-06 -0.000806453
0.00135815 -0.000121774 1.55228e-06
-0.000121774 0.000282569 -7.66852e-08
1.55228e-06 -7.66852e-08 0.000140451
0.00108397 -3.80296e-05 1.93432e-06
-3.80296e-05 0.00016673 -7.85622e-07
1.93432e-06 -7.85622e-07 4.37297e-05
0.000994509 -3.90158e-05 -2.5343e-07
-3.90158e-05 9.3556e-05 -3.89381e-07
-2.5343e-07 -3.89381e-07 9.95239e-06
0.000886549 -2.23281e-05 -8.28136e-07
-2.23281e-05 3.78898e-05 1.05344e-07
-8.28136e-07 1.05344e-07 -3.22992e-05
0.000912958 2.14225e-05 -4.22305e-07
2.14225e-05 5.39395e-05 3.58734e-07
-4.22305e-07 3.58734e-07 -1.55955e-05
0.0019332 -6.16393e-05 -4.62945e-06
-6.16393e-05 0.000111192 1.61808e-06
-4.62945e-06 1.61808e-06 5.35176e-05
0.000832602 -2.53972e-05 -1.62967e-07
-2.53972e-05 1.3643e-05 5.04501e-08
-1.62967e-07 5.04501e-08 -6.34449e-05
0.000924979 -4.43622e-05 5.93443e-07
-4.43622e-05 5.57636e-05 -4.34173e-07
5.93443e-07 -4.34173e-07 -2.68489e-05
0.00203516 -0.000184655 1.9448e-06
-0.000184655 0.000261042 -2.99282e-07
1.9448e-06 -2.99282e-07 0.000130666
0.000520678 -9.99389e-05 1.47484e-06
-9.99389e-05 -0.00013851 2.84218e-06
1.47484e-06 2.84218e-06 -0.000269473
0.00115663 -7.07535e-05 9.30925e-07
-7.07535e-05 0.00020357 8.90318e-08
9.30925e-07 8.90318e-08 6.01069e-05
0.00111779 -2.87064e-05 -5.08163e-07
-2.87064e-05 0.00015927 -2.8604e-07
-5.08163e-07 -2.8604e-07 5.86658e-05
0.00251883 -0.000151915 3.09053e-06
-0.000151915 0.00050442 7.32172e-07
3.09053e-06 7.32172e-07 0.000473211
0.00270565 -0.000208165 -3.58233e-06
-0.000208165 0.000864346 -3.03281e-06
-3.58233e-06 -3.03281e-06 0.000721866
0.000954538 -5.5636e-06 -1.83259e-06
-5.5636e-06 0.000113611 1.63984e-06
-1.83259e-06 1.63984e-06 -2.46815e-05
0.000896566 3.15838e-05 4.65163e-07
3.15838e-05 4.85933e-05 9.1107e-07
4.65163e-07 9.1107e-07 -2.9911e-05
0.000906555 -6.89067e-05 1.15209e-06
-6.89067e-05 4.61086e-05 4.14297e-08
1.15209e-06 4.14297e-08 -4.04455e-05
0.00112497 -2.82209e-05 4.87448e-07
-2.82209e-05 0.000142982 1.11847e-06
4.87448e-07 1.11847e-06 5.27176e-05
0.00115211 -3.57549e-06 -2.79682e-05
-3.57549e-06 0.000592143 6.02806e-07
-2.79682e-05 6.02806e-07 0.000544648
0.00133702 -7.77551e-06 1.13752e-05
-7.77551e-06 0.000526501 9.02892e-07
1.13752e-05 9.02892e-07 0.000438295
0.000367336 0.000124573 -4.35034e-05
0.000124573 -0.000806526 1.02275e-05
-4.35034e-05 1.02275e-05 -0.00135004
0.000981859 7.32551e-05 6.04639e-08
7.32551e-05 9.04635e-05 2.99728e-07
6.04639e-08 2.99728e-07 -9.49887e-07
0.00108163 7.45306e-05 2.08314e-06
7.45306e-05 0.000177239 -3.83206e-07
2.08314e-06 -3.83206e-07 6.47355e-05
0.00273356 0.000157778 -5.90652e-07
0.000157778 0.00050613 3.72851e-07
-5.90652e-07 3.72851e-07 0.00051679
0.000419054 8.74412e-05 2.6626e-06
8.74412e-05 -0.000148278 -1.43021e-06
2.6626e-06 -1.43021e-06 -0.000342047
0.00335511 -0.000240422 4.59818e-05
-0.000240422 0.00137644 8.74513e-06
4.59818e-05 8.74513e-06 0.0014864
0.000980431 -0.000255631 1.73409e-05
-0.000255631 -0.000565607 2.39203e-05
1.73409e-05 2.39203e-05 -0.00122804
0.00444102 8.42765e-05 -7.37788e-05
8.42765e-05 0.000673417 -5.36991e-05
-7.37788e-05 -5.36991e-05 0.000217885
-0.000492453 0.000106191 1.59077e-06
0.000106191 -0.000839165 1.85658e-06
1.59077e-06 1.85658e-06 -0.000799342
-0.00208277 -0.000295333 5.6984e-05
-0.000295333 -0.0012308 2.84623e-05
5.6984e-05 2.84623e-05 -0.00115039
0.00181326 -0.000198536 2.53291e-05
-0.000198536 0.000634008 1.42215e-05
2.53291e-05 1.42215e-05 0.000840795
0.00271702 -0.000263794 2.8168e-05
-0.000263794 -4.82393e-06 1.48899e-05
2.8168e-05 1.48899e-05 0.000750951
0.00106021 4.74358e-05 1.72196e-08
4.74358e-05 0.000123591 -5.24017e-09
1.72196e-08 -5.24017e-09 3.60178e-05
0.000290288 -7.31242e-05 -1.12122e-05
-7.31242e-05 3.77447e-05 -2.32293e-06
-1.12122e-05 -2.32293e-06 3.11158e-05
0.00154277 -1.60569e-05 -2.50982e-06
-1.60569e-05 0.000102071 -5.93303e-06
-2.50982e-06 -5.93303e-06 5.03273e-05
0.00092504 0.000122854 -1.0658e-06
0.000122854 -3.33121e-05 -5.92316e-08
-1.0658e-06 -5.92316e-08 -0.00015104
0.00082479 5.00768e-05 -5.94688e-07
5.00768e-05 0.00012148 -5.47098e-08
-5.94688e-07 -5.47098e-08 -3.35044e-05
0.00171276 2.4586e-05 1.32287e-05
2.4586e-05 0.0005804 -5.01899e-06
1.32287e-05 -5.01899e-06 0.000514147
0.00488029 0.000378876 -3.33853e-05
0.000378876 0.001242 -1.61963e-05
-3.33853e-05 -1.61963e-05 0.000740549
0.00726567 -0.000320217 4.44294e-06
-0.000320217 0.00227225 4.28634e-06
4.44294e-06 4.28634e-06 0.00128876
3.4843e-05 -0.000293698 5.79916e-06
-0.000293698 -0.000971053 1.22031e-05
5.79916e-06 1.22031e-05 -0.000860272
0.00255413 -0.000119562 5.01255e-07
-0.000119562 9.41132e-05 -4.40056e-08
5.01255e-07 -4.40056e-08 0.000488319
0.00146773 9.27134e-05 -1.95758e-06
9.27134e-05 0.00037954 -3.66047e-06
-1.95758e-06 -3.66047e-06 0.000300864
0.00178684 6.08333e-06 -8.52044e-06
6.08333e-06 0.000415421 -1.53576e-06
-8.52044e-06 -1.53576e-06 0.000329919
0.00125627 3.33457e-06 1.28197e-07
3.33457e-06 9.0697e-05 -9.31146e-06
1.28197e-07 -9.31146e-06 2.84221e-05
0.000518266 -4.80858e-05 -1.07966e-05
-4.80858e-05 6.28328e-05 -3.40551e-06
-1.07966e-05 -3.40551e-06 -7.31667e-05
0.00231816 0.000203138 -1.22806e-05
0.000203138 0.000821557 4.5833e-05
-1.22806e-05 4.5833e-05 0.000485958
0.00785924 -0.000187912 2.19192e-06
-0.000187912 0.00220737 -1.5603e-05
2.19192e-06 -1.5603e-05 0.0010302
-0.000905149 -0.00015959 -4.19738e-05
-0.00015959 -0.00173097 -3.74615e-05
-4.19738e-05 -3.74615e-05 -0.00169417
0.00313527 2.85187e-05 -1.17558e-07
2.85187e-05 0.000464829 -8.50192e-06
-1.17558e-07 -8.50192e-06 0.000816862
0.000926014 5.60323e-05 -6.40001e-09
5.60323e-05 4.94944e-05 -1.182e-08
-6.40001e-09 -1.182e-08 -3.34143e-05
0.001016 6.79793e-05 5.74599e-08
6.79793e-05 0.000109721 -3.38095e-07
5.74599e-08 -3.38095e-07 2.68912e-05
0.000640918 4.07195e-05 -8.96844e-08
4.07195e-05 -7.99291e-05 -1.43571e-06
-8.96844e-08 -1.43571e-06 -0.000157018
0.000971598 4.55984e-05 -6.69116e-07
4.55984e-05 6.79221e-05 -7.11602e-07
-6.69116e-07 -7.11602e-07 1.0705e-05
0.000933209 -1.82831e-05 2.6181e-07
-1.82831e-05 4.8808e-05 -2.91693e-07
2.6181e-07 -2.91693e-07 -1.44611e-05
0.00100257 1.42695e-06 -5.17726e-07
1.42695e-06 8.93314e-05 -1.37153e-07
-5.17726e-07 -1.37153e-07 2.15384e-05
0.000979982 1.50427e-05 2.11583e-08
1.50427e-05 8.39074e-05 -1.52335e-08
2.11583e-08 -1.52335e-08 7.41086e-06
0.000985474 1.09328e-05 3.1093e-07
1.09328e-05 7.50981e-05 -6.7776e-10
3.1093e-07 -6.7776e-10 1.22642e-05
0.000984454 -2.81068e-06 -2.10312e-07
-2.81068e-06 7.19279e-05 2.35818e-07
-2.10312e-07 2.35818e-07 3.74101e-06
0.00105128 -8.17127e-06 2.87716e-07
-8.17127e-06 0.000119842 8.7594e-08
2.87716e-07 8.7594e-08 4.09314e-05
0.00129471 -2.80184e-05 -5.74303e-07
-2.80184e-05 0.000247282 8.87707e-07
-5.74303e-07 8.87707e-07 0.000176893
0.00103501 -4.13872e-05 5.24763e-07
-4.13872e-05 8.87528e-05 5.85021e-07
5.24763e-07 5.85021e-07 1.91481e-05
0.000944572 2.99459e-05 8.21521e-07
2.99459e-05 5.35905e-05 4.65442e-07
8.21521e-07 4.65442e-07 -1.35352e-05
0.00095764 -1.0803e-05 7.34511e-07
-1.0803e-05 6.23014e-05 -2.93285e-07
7.34511e-07 -2.93285e-07 -5.71119e-08
0.000914151 3.00586e-05 -2.06333e-08
3.00586e-05 4.29454e-05 -6.15414e-07
-2.06333e-08 -6.15414e-07 -1.90602e-05
0.000963957 2.46394e-05 -7.95019e-07
2.46394e-05 5.73414e-05 -1.13361e-06
-7.95019e-07 -1.13361e-06 -7.10333e-06
0.00101162 2.88509e-05 -2.55787e-07
2.88509e-05 8.72429e-05 -2.69537e-07
-2.55787e-07 -2.69537e-07 2.12637e-05
0.000919598 2.22629e-05 2.09611e-07
2.22629e-05 4.89563e-05 3.22643e-07
2.09611e-07 3.22643e-07 -1.59087e-05
0.000948022 2.46216e-05 2.71914e-08
2.46216e-05 5.06225e-05 -1.47115e-07
2.71914e-08 -1.47115e-07 -1.66806e-05
0.000929587 5.73636e-06 6.819e-07
5.73636e-06 4.88941e-05 1.15108e-06
6.819e-07 1.15108e-06 -2.31893e-05
0.000988122 1.16198e-05 1.2208e-07
1.16198e-05 6.38066e-05 5.7151e-07
1.2208e-07 5.7151e-07 -3.40881e-06
0.000943247 -4.15011e-05 8.73738e-09
-4.15011e-05 7.31183e-05 3.4792e-07
8.73738e-09 3.4792e-07 -1.19804e-05
0.00101221 -1.34929e-05 -1.77412e-07
-1.34929e-05 0.000101851 -2.89771e-09
-1.77412e-07 -2.89771e-09 2.13609e-05
0.000789197 -4.17602e-05 -2.43407e-07
-4.17602e-05 1.23645e-05 1.88139e-06
-2.43407e-07 1.88139e-06 -7.99228e-05
0.00104775 -8.19694e-05 -1.71299e-06
-8.19694e-05 0.000130215 2.39104e-06
-1.71299e-06 2.39104e-06 2.54694e-05
0.00108534 -3.90152e-05 2.45007e-07
-3.90152e-05 0.000147351 -5.73326e-07
2.45007e-07 -5.73326e-07 6.46447e-05
0.000826348 -5.18287e-05 3.46581e-07
-5.18287e-05 3.2854e-05 -1.60381e-06
3.46581e-07 -1.60381e-06 -5.9255e-05
0.000950257 -1.11284e-05 -1.34147e-07
-1.11284e-05 7.50405e-05 -6.26098e-07
-1.34147e-07 -6.26098e-07 -1.14752e-06
0.000803163 1.12874e-06 -3.58935e-08
1.12874e-06 -1.33909e-05 1.11256e-06
-3.58935e-08 1.11256e-06 -7.88612e-05
0.000956874 2.16197e-06 -1.837e-07
2.16197e-06 7.40986e-05 -5.28033e-07
-1.837e-07 -5.28033e-07 3.35361e-06
0.000925798 5.92738e-06 1.15327e-07
5.92738e-06 4.82399e-05 3.85484e-07
1.15327e-07 3.85484e-07 -1.05511e-05
0.000888688 2.14895e-05 -3.56361e-07
2.14895e-05 2.26735e-05 9.0252e-07
-3.56361e-07 9.0252e-07 -2.31579e-05
0.000921265 -3.53214e-06 1.0861e-07
-3.53214e-06 4.64793e-05 -7.17931e-07
1.0861e-07 -7.17931e-07 -1.00227e-05
0.000893579 8.89386e-06 -2.78481e-07
8.89386e-06 2.42706e-05 -5.8053e-09
-2.78481e-07 -5.8053e-09 -1.99267e-05
0.00086344 1.71206e-05 -8.96036e-07
1.71206e-05 3.32664e-06 1.63531e-06
-8.96036e-07 1.63531e-06 -2.46715e-05
0.000911329 1.32598e-06 8.31265e-07
1.32598e-06 3.15717e-05 -7.34386e-07
8.31265e-07 -7.34386e-07 -1.20265e-05
0.000871389 9.96772e-06 -1.5223e-07
9.96772e-06 4.0607e-06 -1.23956e-09
-1.5223e-07 -1.23956e-09 -2.29665e-05
0.00138511 1.88064e-05 -5.81365e-06
1.88064e-05 0.000269745 4.18904e-06
-5.81365e-06 4.18904e-06 0.000271768
0.000870855 1.8746e-06 9.5696e-07
1.8746e-06 1.9029e-06 -1.60789e-06
9.5696e-07 -1.60789e-06 -2.45432e-05
0.00109913 1.37569e-05 -2.3189e-06
1.37569e-05 0.000115778 5.77399e-07
-2.3189e-06 5.77399e-07 0.000117028
0.000972893 1.3019e-05 -1.23726e-06
1.3019e-05 4.93853e-05 1.52133e-06
-1.23726e-06 1.52133e-06 6.64536e-05
0.000814506 8.60933e-06 5.82204e-07
8.60933e-06 -3.71382e-05 -3.02555e-06
5.82204e-07 -3.02555e-06 -3.68284e-05
0.00155692 1.03682e-05 3.56195e-06
1.03682e-05 0.00035436 -1.17215e-06
3.56195e-06 -1.17215e-06 0.000374678
0.00213293 5.83806e-06 4.36579e-06
5.83806e-06 0.000657214 -3.90134e-06
4.36579e-06 -3.90134e-06 0.000680474
0.00096329 -1.81799e-05 5.80596e-07
-1.81799e-05 6.29249e-05 -4.94613e-07
5.80596e-07 -4.94613e-07 1.89704e-05
0.000880728 -6.3086e-06 -2.48048e-07
-6.3086e-06 5.90997e-06 -1.40244e-06
-2.48048e-07 -1.40244e-06 -1.772e-05
0.000944852 -4.60345e-06 4.27524e-07
-4.60345e-06 5.29014e-05 1.34291e-07
4.27524e-07 1.34291e-07 1.14406e-05
0.000833084 -4.62232e-06 -3.31907e-07
-4.62232e-06 -2.98469e-05 -2.98003e-06
-3.31907e-07 -2.98003e-06 -2.67615e-05
0.000882106 -3.86292e-06 -4.73185e-08
-3.86292e-06 4.83381e-06 -1.07477e-08
-4.73185e-08 -1.07477e-08 -1.75848e-05
0.000917982 -1.97666e-05 -7.60374e-07
-1.97666e-05 3.72271e-05 1.04256e-06
-7.60374e-07 1.04256e-06 -2.66939e-06
0.00202548 -2.11777e-07 -7.74261e-07
-2.11777e-07 0.000599818 -3.88168e-06
-7.74261e-07 -3.88168e-06 0.000624413
0.000827052 1.3206e-08 -7.15042e-08
1.3206e-08 -3.39884e-05 -2.88376e-09
-7.15042e-08 -2.88376e-09 -3.04345e-05
0.000881254 -1.20554e-06 -2.73327e-08
-1.20554e-06 3.37215e-06 1.58776e-06
-2.73327e-08 1.58776e-06 -1.85034e-05
0.000829226 4.72744e-06 -2.92939e-07
4.72744e-06 -3.23085e-05 3.0043e-06
-2.92939e-07 3.0043e-06 -2.91789e-05
0.00203689 5.92937e-06 -1.70185e-06
5.92937e-06 0.000606336 -1.16563e-08
-1.70185e-06 -1.16563e-08 0.000630715
0.00206451 1.15213e-05 -7.98919e-06
1.15213e-05 0.000622431 3.84758e-06
-7.98919e-06 3.84758e-06 0.00064626
-0.00108346 4.76202e-05 -1.43203e-05
4.76202e-05 -0.000678658 1.43698e-06
-1.43203e-05 1.43698e-06 -0.00076248
-0.000936289 0.000190536 1.62098e-05
0.000190536 -0.000469045 1.42315e-06
1.62098e-05 1.42315e-06 -0.000489245
0.00126037 3.5629e-05 -2.61394e-05
3.5629e-05 -0.000136456 1.48294e-05
-2.61394e-05 1.48294e-05 -0.000149243
-0.0012778 0.000197928 1.64292e-05
0.000197928 -0.000971922 -5.19421e-06
1.64292e-05 -5.19421e-06 -0.000727628
0.0018575 2.24687e-05 -7.35406e-05
2.24687e-05 0.000247582 -2.96865e-06
-7.35406e-05 -2.96865e-06 -3.26102e-05
0.00187255 4.15753e-05 1.92128e-05
4.15753e-05 0.000227619 -2.78059e-06
1.92128e-05 -2.78059e-06 0.000147511
0.00123296 -2.90133e-05 -4.01504e-05
-2.90133e-05 -0.000358122 9.13642e-07
-4.01504e-05 9.13642e-07 -0.000867743
0.00480379 0.000334997 8.67666e-05
0.000334997 0.00228084 -2.93053e-05
8.67666e-05 -2.93053e-05 0.00237066
-0.0010178 0.000418905 1.58833e-05
0.000418905 -0.00174771 5.72872e-06
1.58833e-05 5.72872e-06 -0.000735711
0.00133741 7.46357e-05 -1.52927e-06
7.46357e-05 -1.03404e-05 3.87633e-06
-1.52927e-06 3.87633e-06 -0.000202173
0.00272696 0.000268445 6.67872e-06
0.000268445 0.000269631 -1.26671e-05
6.67872e-06 -1.26671e-05 -0.00073736
0.00349239 0.00051342 -2.17786e-06
0.00051342 0.00098079 -3.11117e-06
-2.17786e-06 -3.11117e-06 0.00119381
0.00202428 0.000215004 -2.59674e-06
0.000215004 -0.000363364 2.33033e-06
-2.59674e-06 2.33033e-06 0.000193071
0.00191724 4.79107e-05 -1.17446e-05
4.79107e-05 7.15977e-06 -8.2037e-07
-1.17446e-05 -8.2037e-07 -0.000193364
0.00353517 0.00035476 3.9916e-05
0.00035476 0.000798544 -2.48792e-05
3.9916e-05 -2.48792e-05 -0.000328588
-0.00319759 0.000251278 -7.12656e-05
0.000251278 -0.00263683 3.4818e-05
-7.12656e-05 3.4818e-05 -0.00250708
0.00102759 0.000103266 -6.37789e-06
0.000103266 -0.000880419 1.03681e-05
-6.37789e-06 1.03681e-05 -0.000554867
0.00101038 -8.40189e-06 1.04574e-06
-8.40189e-06 0.000107586 2.47748e-08
1.04574e-06 2.47748e-08 3.18238e-05
0.000948517 2.95204e-05 -1.09816e-06
2.95204e-05 7.34504e-05 -3.41353e-07
-1.09816e-06 -3.41353e-07 7.29416e-06
0.000904958 5.26882e-06 6.15648e-07
5.26882e-06 4.25754e-05 -1.40556e-07
6.15648e-07 -1.40556e-07 -9.94361e-06
0.000938538 4.74822e-05 1.5063e-06
4.74822e-05 7.05786e-05 9.05697e-07
1.5063e-06 9.05697e-07 8.26806e-06
0.000876092 1.00313e-05 -1.26484e-07
1.00313e-05 3.59737e-05 4.22549e-07
-1.26484e-07 4.22549e-07 -3.80223e-05
0.000999832 3.0329e-05 1.62356e-07
3.0329e-05 0.000101358 5.09794e-07
1.62356e-07 5.09794e-07 3.47147e-05
0.000902803 -1.3392e-06 -4.04934e-07
-1.3392e-06 4.63526e-05 1.27643e-06
-4.04934e-07 1.27643e-06 -1.51048e-05
0.00102284 4.7864e-05 -8.10157e-07
4.7864e-05 0.000108127 2.2363e-08
-8.10157e-07 2.2363e-08 4.32329e-05
0.000999622 2.00901e-05 -2.89196e-07
2.00901e-05 9.66783e-05 4.06009e-07
-2.89196e-07 4.06009e-07 3.49256e-05
0.000819567 -2.27257e-05 -8.16306e-07
-2.27257e-05 2.32232e-06 -2.42151e-07
-8.16306e-07 -2.42151e-07 -5.59649e-05
0.0011033 -5.33824e-05 -1.65576e-07
-5.33824e-05 -0.000326478 -2.84024e-06
-1.65576e-07 -2.84024e-06 -0.000382711
0.00103817 -0.000145878 -1.37531e-06
-0.000145878 -0.000220554 4.72613e-06
-1.37531e-06 4.72613e-06 -0.000348241
0.000764606 -0.000105492 9.00384e-06
-0.000105492 2.63783e-06 2.19307e-06
9.00384e-06 2.19307e-06 -0.00012271
0.00105842 -6.51616e-05 2.86013e-06
-6.51616e-05 0.00014399 -1.05776e-06
2.86013e-06 -1.05776e-06 5.46843e-06
0.00107308 -2.08064e-05 8.24673e-09
-2.08064e-05 0.000137994 -1.12793e-06
8.24673e-09 -1.12793e-06 3.27621e-05
0.000832378 -4.86851e-05 -5.64405e-07
-4.86851e-05 8.97563e-06 -3.01696e-07
-5.64405e-07 -3.01696e-07 -7.63709e-05
0.000866733 3.16157e-05 -1.27183e-07
3.16157e-05 3.08843e-05 -1.76807e-07
-1.27183e-07 -1.76807e-07 -4.67603e-05
0.000947394 -1.51176e-05 1.17046e-07
-1.51176e-05 7.50649e-05 6.38004e-07
1.17046e-07 6.38004e-07 -4.17963e-06
0.0017824 -0.000152721 3.55894e-06
-0.000152721 0.000118847 1.70217e-07
3.55894e-06 1.70217e-07 0.000104291
0.00100792 -4.27216e-06 -1.97759e-07
-4.27216e-06 9.96318e-05 -3.53895e-07
-1.97759e-07 -3.53895e-07 1.40896e-05
0.00115949 -3.02528e-05 -4.78565e-07
-3.02528e-05 0.000163328 -9.68598e-08
-4.78565e-07 -9.68598e-08 7.12403e-05
0.00164802 -0.000166523 -1.13423e-06
-0.000166523 0.000357763 -2.42606e-06
-1.13423e-06 -2.42606e-06 0.000194175
0.00111807 -1.95165e-05 -4.97619e-07
-1.95165e-05 0.000184047 1.98335e-07
-4.97619e-07 1.98335e-07 4.88729e-05
-0.00079448 -0.000125522 -6.18061e-06
-0.000125522 -0.00107814 -7.83802e-06
-6.18061e-06 -7.83802e-06 -0.00105671
0.00222437 -8.06014e-05 -1.01296e-06
-8.06014e-05 0.000741329 7.75319e-06
-1.01296e-06 7.75319e-06 0.000549807
0.000740974 2.67577e-05 -1.18494e-06
2.67577e-05 -5.04775e-05 3.85048e-06
-1.18494e-06 3.85048e-06 -0.00014761
0.000959645 1.58598e-05 3.44326e-07
1.58598e-05 6.71715e-05 3.90038e-07
3.44326e-07 3.90038e-07 -1.37673e-05
0.000987305 2.06203e-05 -3.93734e-07
2.06203e-05 7.35626e-05 1.05063e-06
-3.93734e-07 1.05063e-06 -1.94631e-05
0.0015166 -5.46262e-06 2.92969e-06
-5.46262e-06 0.000295511 8.80245e-07
2.92969e-06 8.80245e-07 0.000211924
7.73925e-05 -7.12513e-06 1.11791e-06
-7.12513e-06 -1.02189e-07 -5.08389e-07
1.11791e-06 -5.08389e-07 -8.15206e-05
-0.00401858 -3.62765e-05 3.4682e-05
-3.62765e-05 -0.00223646 2.88301e-06
3.4682e-05 2.88301e-06 -0.00217894
0.00104165 6.2322e-05 1.37129e-06
6.2322e-05 0.000120118 8.71504e-07
1.37129e-06 8.71504e-07 3.10267e-05
-3.07539e-06 2.07186e-05 2.03046e-06
2.07186e-05 -0.000281607 -7.66402e-07
2.03046e-06 -7.66402e-07 -0.000441279
0.00121743 0.00010632 3.34244e-06
0.00010632 0.000121942 -1.04974e-06
3.34244e-06 -1.04974e-06 -4.28886e-06
-0.00121586 -3.71003e-05 1.16082e-05
-3.71003e-05 -0.000796371 2.57154e-06
1.16082e-05 2.57154e-06 -0.000892611
0.0025479 -0.000350145 2.0557e-05
-0.000350145 0.000259181 1.27872e-05
2.0557e-05 1.27872e-05 -0.000894665
0.00422355 0.000330667 7.18845e-05
0.000330667 0.00102236 -3.287e-05
7.18845e-05 -3.287e-05 0.000670003
0.000118531 2.14615e-05 2.19108e-06
2.14615e-05 -0.000263025 8.91394e-06
2.19108e-06 8.91394e-06 -0.000337423
0.00482256 -0.000460791 4.55833e-05
-0.000460791 0.00136415 4.72008e-05
4.55833e-05 4.72008e-05 0.00139934
0.00163834 -1.36775e-05 1.39596e-05
-1.36775e-05 0.000148652 7.01581e-06
1.39596e-05 7.01581e-06 9.74999e-05
0.00205948 -0.000101777 9.91486e-06
-0.000101777 -0.000117676 7.27802e-06
9.91486e-06 7.27802e-06 0.000245186
0.00109055 8.08076e-05 9.48123e-07
8.08076e-05 0.000187963 -8.84253e-07
9.48123e-07 -8.84253e-07 0.000111538
0.00138977 7.30034e-06 -1.86556e-06
7.30034e-06 0.000202526 -1.45186e-06
-1.86556e-06 -1.45186e-06 0.000126433
0.00122453 2.96364e-06 -4.15204e-06
2.96364e-06 5.94669e-05 -4.03749e-06
-4.15204e-06 -4.03749e-06 -2.53234e-07
6.31702e-05 -4.31468e-06 4.94718e-06
-4.31468e-06 -0.000156965 -2.12529e-08
4.94718e-06 -2.12529e-08 -0.000298242
0.00261223 0.000260106 -2.64161e-05
0.000260106 0.000672517 -2.10915e-05
-2.64161e-05 -2.10915e-05 0.000391099
0.00489187 5.09655e-05 2.91087e-05
5.09655e-05 0.000867195 6.16524e-06
2.91087e-05 6.16524e-06 -0.000398066
0.00198147 1.38943e-05 1.7928e-06
1.38943e-05 -0.000219353 -6.5669e-06
1.7928e-06 -6.5669e-06 0.00011418
0.00133653 -0.000225051 -6.86042e-06
-0.000225051 -0.000565097 2.28592e-05
-6.86042e-06 2.28592e-05 -0.000547297
0.000871484 3.30385e-05 -2.88806e-06
3.30385e-05 0.000130078 -7.34915e-06
-2.88806e-06 -7.34915e-06 7.18125e-05
0.000829871 1.09433e-05 9.52418e-06
1.09433e-05 1.36738e-05 1.04128e-05
9.52418e-06 1.04128e-05 -6.93237e-05
0.00129286 8.79064e-07 -6.98568e-06
8.79064e-07 0.000139475 -1.09387e-06
-6.98568e-06 -1.09387e-06 5.3174e-05
0.00114014 9.22659e-05 4.41175e-06
9.22659e-05 -0.000732475 -1.02479e-05
4.41175e-06 -1.02479e-05 -0.000465832
-0.00137886 6.03255e-05 3.32045e-06
6.03255e-05 -0.000727508 -3.86576e-06
3.32045e-06 -3.86576e-06 -0.000938585
0.00729508 -2.27897e-05 3.37343e-05
-2.27897e-05 0.00193859 6.82448e-06
3.37343e-05 6.82448e-06 0.000960001
-0.000160963 -3.96135e-06 6.56686e-06
-3.96135e-06 -0.00105495 -6.39234e-05
6.56686e-06 -6.39234e-05 -0.000857121
0.00139954 8.6655e-05 1.81916e-06
8.6655e-05 0.000300958 2.36122e-06
1.81916e-06 2.36122e-06 0.000219342
0.000847514 5.54712e-05 -8.09278e-07
5.54712e-05 1.65529e-05 1.34388e-06
-8.09278e-07 1.34388e-06 -6.38904e-05
0.00109009 3.73197e-05 -1.78026e-06
3.73197e-05 0.000150316 -2.78444e-06
-1.78026e-06 -2.78444e-06 7.76855e-05
0.000983135 5.02967e-05 -9.34654e-08
5.02967e-05 7.44399e-05 -1.50915e-07
-9.34654e-08 -1.50915e-07 1.13441e-05
0.000976768 8.20205e-06 -2.79967e-07
8.20205e-06 6.77022e-05 -5.12115e-07
-2.79967e-07 -5.12115e-07 4.52433e-07
0.000824741 -1.83154e-05 -3.03853e-07
-1.83154e-05 6.07793e-06 8.90851e-07
-3.03853e-07 8.90851e-07 -7.53334e-05
0.000998887 3.17417e-05 7.97026e-08
3.17417e-05 7.91939e-05 -4.31046e-08
7.97026e-08 -4.31046e-08 1.33126e-05
0.000929369 -4.67767e-05 -1.30086e-07
-4.67767e-05 3.61431e-05 -1.63276e-07
-1.30086e-07 -1.63276e-07 -3.50867e-05
0.00110217 -4.86064e-05 2.38005e-06
-4.86064e-05 0.000143993 1.09494e-06
2.38005e-06 1.09494e-06 6.85478e-05
0.00082232 -1.24326e-05 -5.06714e-08
-1.24326e-05 1.58111e-05 1.22597e-06
-5.06714e-08 1.22597e-06 -4.03532e-05
0.000981004 -1.5726e-05 8.40003e-08
-1.5726e-05 5.29229e-05 2.71909e-07
8.40003e-08 2.71909e-07 -1.36314e-05
0.00101121 2.85569e-05 -7.0418e-07
2.85569e-05 8.55685e-05 -5.64951e-07
-7.0418e-07 -5.64951e-07 2.05453e-05
0.000937207 2.5673e-05 -5.66236e-08
2.5673e-05 5.94776e-05 -4.5438e-07
-5.66236e-08 -4.5438e-07 -6.01018e-06
0.000957327 2.82835e-05 -3.20798e-07
2.82835e-05 5.46143e-05 -9.47798e-07
-3.20798e-07 -9.47798e-07 -1.23954e-05
0.000969819 6.54191e-06 3.94042e-08
6.54191e-06 5.47245e-05 1.66685e-07
3.94042e-08 1.66685e-07 -1.25708e-05
0.000969764 6.85188e-06 4.18393e-07
6.85188e-06 6.83772e-05 4.11489e-07
4.18393e-07 4.11489e-07 -3.03825e-06
0.000913954 -4.42125e-05 3.05684e-08
-4.42125e-05 5.64208e-05 1.15643e-06
3.05684e-08 1.15643e-06 -2.10845e-05
0.000904464 -3.41497e-05 -1.44707e-07
-3.41497e-05 5.51912e-05 -6.65883e-07
-1.44707e-07 -6.65883e-07 -2.84217e-05
0.000988652 -5.40718e-05 6.22355e-07
-5.40718e-05 0.00011738 1.17517e-06
6.22355e-07 1.17517e-06 1.30551e-05
0.0011051 -1.70209e-05 -3.75201e-07
-1.70209e-05 0.000149148 -8.45499e-07
-3.75201e-07 -8.45499e-07 6.89961e-05
0.00103734 -5.06529e-05 -1.73547e-07
-5.06529e-05 0.000133755 7.82489e-07
-1.73547e-07 7.82489e-07 4.07687e-05
0.000634807 -6.8075e-05 -1.25486e-06
-6.8075e-05 -7.93289e-05 2.17509e-06
-1.25486e-06 2.17509e-06 -0.000191219
0.000965158 -7.96084e-05 -2.66636e-06
-7.96084e-05 8.71972e-05 1.05413e-07
-2.66636e-06 1.05413e-07 -1.78184e-05
0.00100401 -6.48861e-05 -1.09831e-06
-6.48861e-05 0.000109595 8.68726e-07
-1.09831e-06 8.68726e-07 1.97834e-05
0.000936863 -7.70546e-05 -5.47573e-08
-7.70546e-05 7.58416e-05 2.26558e-08
-5.47573e-08 2.26558e-08 -2.85531e-05
0.000947655 -1.5468e-05 -1.97616e-07
-1.5468e-05 6.44198e-05 1.05014e-06
-1.97616e-07 1.05014e-06 -6.45126e-06
0.00103421 -4.05872e-05 -4.7061e-07
-4.05872e-05 0.000120554 -4.82363e-07
-4.7061e-07 -4.82363e-07 3.68248e-05
0.000830755 -5.37144e-05 6.67174e-07
-5.37144e-05 3.72788e-05 -2.34425e-06
6.67174e-07 -2.34425e-06 -5.23881e-05
0.00110096 -1.30448e-05 -2.39395e-07
-1.30448e-05 0.000152797 -1.32245e-06
-2.39395e-07 -1.32245e-06 7.76985e-05
0.000885801 7.05785e-07 3.96781e-08
7.05785e-07 2.96873e-05 -3.10577e-08
3.96781e-08 -3.10577e-08 -3.47059e-05
0.000903695 1.89646e-05 -2.50338e-07
1.89646e-05 3.29009e-05 1.17671e-06
-2.50338e-07 1.17671e-06 -1.68833e-05
0.000945152 2.35347e-06 1.96774e-07
2.35347e-06 5.89712e-05 -4.98918e-07
1.96774e-07 -4.98918e-07 -3.02981e-07
0.0008965 1.67596e-05 -2.11615e-07
1.67596e-05 2.70207e-05 -9.46231e-08
-2.11615e-07 -9.46231e-08 -1.89162e-05
0.000857082 2.10393e-05 -1.08224e-06
2.10393e-05 3.6624e-06 1.63588e-06
-1.08224e-06 1.63588e-06 -2.5637e-05
0.000898294 3.10809e-06 6.23213e-07
3.10809e-06 2.65929e-05 -8.62598e-07
6.23213e-07 -8.62598e-07 -1.75718e-05
0.00086523 1.61018e-05 -7.2877e-08
1.61018e-05 3.76711e-06 4.53599e-09
-7.2877e-08 4.53599e-09 -2.41489e-05
0.00135452 2.34102e-05 -6.53447e-06
2.34102e-05 0.000258975 3.01443e-06
-6.53447e-06 3.01443e-06 0.000259938
0.000873491 6.17088e-06 1.01753e-06
6.17088e-06 4.79251e-06 -1.59671e-06
1.01753e-06 -1.59671e-06 -2.21339e-05
0.00109535 1.81814e-05 -2.87534e-06
1.81814e-05 0.000117405 5.48407e-07
-2.87534e-06 5.48407e-07 0.000117951
0.000963864 1.74375e-05 -1.77109e-06
1.74375e-05 4.89044e-05 1.52748e-06
-1.77109e-06 1.52748e-06 6.51833e-05
0.000813086 1.27925e-05 8.97366e-07
1.27925e-05 -3.53647e-05 -3.05771e-06
8.97366e-07 -3.05771e-06 -3.5477e-05
0.001553 1.56378e-05 4.7499e-06
1.56378e-05 0.000355188 -1.12864e-06
4.7499e-06 -1.12864e-06 0.000375018
0.00213012 1.18692e-05 7.47604e-06
1.18692e-05 0.000657596 -3.84703e-06
7.47604e-06 -3.84703e-06 0.000680551
0.00074921 -9.02035e-07 -3.53459e-07
-9.02035e-07 -4.5745e-05 -1.12491e-06
-3.53459e-07 -1.12491e-06 -9.64739e-05
0.000645522 -1.0039e-05 -2.13562e-07
-1.0039e-05 -0.000113311 -1.87235e-06
-2.13562e-07 -1.87235e-06 -0.000140674
0.0009779 -7.37459e-06 -4.63227e-08
-7.37459e-06 7.15519e-05 1.60104e-08
-4.63227e-08 1.60104e-08 2.67553e-05
0.000833361 -8.9262e-06 -5.08657e-07
-8.9262e-06 -2.75393e-05 -2.97674e-06
-5.08657e-07 -2.97674e-06 -2.56129e-05
0.00075913 -6.84522e-06 3.24372e-08
-6.84522e-06 -5.71022e-05 5.0382e-09
3.24372e-08 5.0382e-09 -8.15972e-05
0.00075695 -2.88881e-05 -7.9184e-09
-2.88881e-05 -4.40776e-05 6.10632e-07
-7.9184e-09 6.10632e-07 -8.70507e-05
0.00203706 -5.97206e-06 -4.3771e-06
-5.97206e-06 0.000606805 -3.88783e-06
-4.3771e-06 -3.88783e-06 0.000631101
0.000826327 -4.45977e-06 -1.47138e-07
-4.45977e-06 -3.35198e-05 -1.45471e-08
-1.47138e-07 -1.45471e-08 -3.0362e-05
0.000880382 -4.43173e-06 -2.27001e-08
-4.43173e-06 3.84143e-06 1.53608e-06
-2.27001e-08 1.53608e-06 -1.8558e-05
0.00202407 7.87841e-08 -1.6752e-06
7.87841e-08 0.000599061 -3.06777e-10
-1.6752e-06 -3.06777e-10 0.000623666
0.000827021 2.04409e-07 -2.03257e-08
2.04409e-07 -3.40407e-05 2.99823e-06
-2.03257e-08 2.99823e-06 -3.04842e-05
0.00203974 6.21119e-06 -4.09084e-06
6.21119e-06 0.000608008 3.88275e-06
-4.09084e-06 3.88275e-06 0.000632315
0.00119499 -7.28167e-06 -9.41184e-06
-7.28167e-06 7.30888e-05 3.97407e-06
-9.41184e-06 3.97407e-06 -2.07124e-05
0.00115132 8.30389e-05 1.6166e-06
8.30389e-05 0.000562035 -1.82297e-06
1.6166e-06 -1.82297e-06 0.000599475
0.000449592 1.93992e-05 7.71982e-05
1.93992e-05 0.000117358 -1.51817e-05
7.71982e-05 -1.51817e-05 -3.99158e-05
0.000938512 1.83938e-05 -1.65901e-07
1.83938e-05 5.71155e-05 -1.68333e-07
-1.65901e-07 -1.68333e-07 -8.71604e-06
0.00112364 1.45394e-05 1.66227e-06
1.45394e-05 -3.79059e-07 5.11244e-06
1.66227e-06 5.11244e-06 -5.28811e-05
0.00122121 2.77221e-05 -8.99749e-06
2.77221e-05 -0.000143824 4.78662e-06
-8.99749e-06 4.78662e-06 -0.000181924
0.00127322 0.00023009 3.1404e-05
0.00023009 0.00034219 -1.8161e-05
3.1404e-05 -1.8161e-05 0.000723258
0.00289154 8.75215e-05 -3.92753e-05
8.75215e-05 0.000531188 1.12482e-05
-3.92753e-05 1.12482e-05 0.000321768
0.00767732 0.000446513 1.8447e-05
0.000446513 0.00264534 -1.09816e-05
1.8447e-05 -1.09816e-05 0.00169262
-0.0021334 0.00034457 5.12661e-05
0.00034457 -0.00165087 -2.13118e-05
5.12661e-05 -2.13118e-05 -0.00135832
0.00284483 0.000223052 1.90848e-05
0.000223052 0.000208385 -1.5191e-05
1.90848e-05 -1.5191e-05 0.000712094
0.00197221 5.97555e-05 -3.50094e-05
5.97555e-05 -0.000330048 4.90874e-06
-3.50094e-05 4.90874e-06 -0.000614677
0.0061525 0.000324936 3.21083e-05
0.000324936 0.00199398 -1.43916e-05
3.21083e-05 -1.43916e-05 0.000939298
0.00281088 0.000369295 -4.75375e-06
0.000369295 -6.51814e-05 7.1324e-06
-4.75375e-06 7.1324e-06 6.39337e-05
0.00258605 0.000116507 -2.32888e-06
0.000116507 -2.24347e-05 1.35599e-06
-2.32888e-06 1.35599e-06 0.000360852
0.004674 -0.000145583 3.25509e-05
-0.000145583 0.000928026 -2.98321e-05
3.25509e-05 -2.98321e-05 0.000596824
0.00756539 0.000359298 2.69096e-05
0.000359298 0.00234015 -4.06874e-06
2.69096e-05 -4.06874e-06 0.00102237
0.00186468 0.000289728 8.86171e-06
0.000289728 -0.00060705 5.34914e-05
8.86171e-06 5.34914e-05 -0.000609818
0.00311903 4.24991e-05 1.13632e-07
4.24991e-05 0.000364157 4.90083e-06
1.13632e-07 4.90083e-06 0.000747934
0.000931259 -1.39638e-05 4.01275e-07
-1.39638e-05 5.88838e-05 8.33394e-08
4.01275e-07 8.33394e-08 -2.05656e-05
0.000978414 -2.35161e-05 3.92279e-07
-2.35161e-05 9.16759e-05 2.76494e-09
3.92279e-07 2.76494e-09 1.50235e-05
0.00102071 3.58287e-05 -8.00253e-07
3.58287e-05 0.000112251 1.59037e-07
-8.00253e-07 1.59037e-07 4.6151e-05
0.000940709 -3.33937e-06 -1.94745e-07
-3.33937e-06 6.05448e-05 -3.18483e-07
-1.94745e-07 -3.18483e-07 -1.05049e-05
0.000971262 3.49909e-05 -4.56389e-07
3.49909e-05 8.54611e-05 3.35782e-07
-4.56389e-07 3.35782e-07 1.27114e-05
0.00102276 1.53223e-05 3.69995e-07
1.53223e-05 0.000113272 1.03234e-06
3.69995e-07 1.03234e-06 4.72219e-05
0.001072 4.7528e-05 -4.61756e-07
4.7528e-05 0.000133385 1.22428e-07
-4.61756e-07 1.22428e-07 6.86575e-05
0.00110284 4.91629e-05 7.16812e-07
4.91629e-05 0.000151871 9.05576e-07
7.16812e-07 9.05576e-07 8.97007e-05
0.000987322 -0.000152218 5.84347e-06
-0.000152218 -0.000307933 -7.29504e-06
5.84347e-06 -7.29504e-06 -0.000298678
0.000691821 -0.00012777 1.87467e-06
-0.00012777 -9.80503e-05 4.01042e-07
1.87467e-06 4.01042e-07 -0.000282131
0.000957681 -8.06868e-05 -1.88338e-06
-8.06868e-05 8.35131e-05 2.35072e-07
-1.88338e-06 2.35072e-07 1.74335e-06
0.0013566 -3.51084e-05 1.07474e-06
-3.51084e-05 0.000292665 -1.68748e-06
1.07474e-06 -1.68748e-06 0.00016174
0.00119431 -4.21451e-05 -1.43896e-06
-4.21451e-05 0.000180727 -7.80114e-07
-1.43896e-06 -7.80114e-07 8.82467e-05
0.00109778 -6.81083e-06 -8.28528e-07
-6.81083e-06 0.000144407 -6.76133e-07
-8.28528e-07 -6.76133e-07 6.15079e-05
0.00101427 1.67509e-05 3.92383e-08
1.67509e-05 9.84717e-05 5.78373e-08
3.92383e-08 5.78373e-08 1.6044e-05
0.00145393 -0.000206074 -2.84352e-06
-0.000206074 3.97032e-06 -5.58882e-07
-2.84352e-06 -5.58882e-07 2.63143e-05
0.00102289 8.63845e-06 6.38502e-08
8.63845e-06 9.74052e-05 -6.49415e-07
6.38502e-08 -6.49415e-07 4.01081e-06
0.00109895 -1.23472e-05 -9.02517e-07
-1.23472e-05 0.00013647 6.36589e-08
-9.02517e-07 6.36589e-08 3.2684e-05
0.00103759 -5.34793e-05 -1.01477e-06
-5.34793e-05 0.000164519 3.51356e-07
-1.01477e-06 3.51356e-07 -5.09065e-05
0.00113066 1.03491e-05 1.59471e-07
1.03491e-05 0.000148052 6.56414e-07
1.59471e-07 6.56414e-07 7.03685e-05
-0.00109624 -0.000179897 -1.02572e-05
-0.000179897 -0.000924475 -9.29051e-06
-1.02572e-05 -9.29051e-06 -0.000998592
0.00130173 4.84259e-05 -3.91851e-06
4.84259e-05 0.00038835 1.24867e-05
-3.91851e-06 1.24867e-05 0.000207901
0.000745481 9.16438e-06 -8.66053e-07
9.16438e-06 -5.80261e-05 2.83535e-06
-8.66053e-07 2.83535e-06 -0.000143929
0.00104795 6.88544e-05 2.25531e-09
6.88544e-05 0.000111769 9.55804e-07
2.25531e-09 9.55804e-07 2.53726e-05
0.00119811 -1.72719e-06 1.92352e-05
-1.72719e-06 0.000244071 3.33815e-06
1.92352e-05 3.33815e-06 0.000146133
0.00142661 -6.38229e-06 5.20854e-06
-6.38229e-06 0.000250006 3.20508e-07
5.20854e-06 3.20508e-07 0.000161203
-0.0010271 -6.66415e-06 1.442e-05
-6.66415e-06 -0.000610965 2.94641e-08
1.442e-05 2.94641e-08 -0.000727822
0.000657482 6.36988e-05 3.6283e-06
6.36988e-05 -3.20032e-05 8.02025e-07
3.6283e-06 8.02025e-07 -0.00010521
-0.000496573 2.41675e-05 -2.63212e-06
2.41675e-05 -0.000418832 2.88141e-06
-2.63212e-06 2.88141e-06 -0.000568959
0.00100271 7.8456e-06 4.62993e-06
7.8456e-06 -7.07614e-06 -1.57868e-06
4.62993e-06 -1.57868e-06 -7.24559e-05
0.00513728 -0.000407709 5.81095e-05
-0.000407709 0.00128799 1.80017e-05
5.81095e-05 1.80017e-05 3.63061e-05
0.00529917 0.000366241 -2.6716e-05
0.000366241 0.00165197 -6.77856e-05
-2.6716e-05 -6.77856e-05 0.00111548
0.00294234 -0.000315859 9.69294e-06
-0.000315859 -0.000134894 8.36731e-05
9.69294e-06 8.36731e-05 -6.13501e-05
0.00125861 2.03129e-06 -8.19272e-06
2.03129e-06 7.63434e-05 1.53152e-06
-8.19272e-06 1.53152e-06 1.80045e-05
0.000918292 1.0365e-05 -3.46477e-07
1.0365e-05 -0.000869379 5.71232e-07
-3.46477e-07 5.71232e-07 -0.000550759
0.00092401 5.12366e-05 -9.87626e-07
5.12366e-05 0.00015493 -3.52118e-07
-9.87626e-07 -3.52118e-07 8.84984e-05
0.00091934 1.06267e-05 -6.61731e-07
1.06267e-05 7.82353e-05 1.50883e-06
-6.61731e-07 1.50883e-06 -3.54845e-06
0.00119783 -7.76298e-07 -4.3972e-06
-7.76298e-07 0.000136014 -1.7906e-08
-4.3972e-06 -1.7906e-08 4.70644e-05
-0.000426605 6.5267e-05 4.13566e-06
6.5267e-05 -0.000161932 -1.87269e-06
4.13566e-06 -1.87269e-06 -0.000305634
0.00252777 0.000109104 1.21177e-06
0.000109104 9.30044e-06 -3.03861e-07
1.21177e-06 -3.03861e-07 0.000347441
0.00522236 0.000157096 3.11624e-05
0.000157096 0.000668965 -2.37822e-06
3.11624e-05 -2.37822e-06 -8.65881e-05
0.00336843 9.76003e-05 -3.82299e-05
9.76003e-05 0.000399226 -3.85962e-06
-3.82299e-05 -3.85962e-06 0.000491767
0.000341054 6.16235e-05 -5.72723e-07
6.16235e-05 1.80621e-05 -1.0704e-05
-5.72723e-07 -1.0704e-05 -6.57541e-05
0.00119113 -2.01837e-06 -6.51532e-06
-2.01837e-06 0.000214531 1.40671e-05
-6.51532e-06 1.40671e-05 9.81802e-05
0.00106911 5.78856e-06 -3.17984e-07
5.78856e-06 -2.97808e-05 -4.83224e-06
-3.17984e-07 -4.83224e-06 -8.65974e-05
0.00266856 0.000214456 2.82974e-05
0.000214456 0.000105652 -1.52623e-05
2.82974e-05 -1.52623e-05 0.000621731
0.00174982 0.000330916 -7.89546e-06
0.000330916 -0.000593971 -5.49337e-05
-7.89546e-06 -5.49337e-05 -0.000591365
0.0015497 0.000186332 1.50425e-05
0.000186332 0.000502965 -1.20276e-05
1.50425e-05 -1.20276e-05 0.000540057
0.00315857 -0.000181838 7.44802e-05
-0.000181838 0.000208299 7.19945e-06
7.44802e-05 7.19945e-06 -0.000699364
0.00107527 7.14645e-05 -6.28591e-07
7.14645e-05 0.000126152 4.40743e-06
-6.28591e-07 4.40743e-06 4.20624e-05
0.00115417 2.34577e-05 6.19229e-07
2.34577e-05 0.000177986 2.10211e-06
6.19229e-07 2.10211e-06 0.000110385
0.000265207 -2.68611e-05 2.05943e-06
-2.68611e-05 -0.000100267 -5.37385e-06
2.05943e-06 -5.37385e-06 -0.000224742
0.00106489 1.4886e-05 -3.88011e-07
1.4886e-05 0.000110366 -3.9675e-07
-3.88011e-07 -3.9675e-07 4.60871e-05
0.000868258 -4.96375e-05 -4.2295e-07
-4.96375e-05 5.71969e-06 -1.36512e-07
-4.2295e-07 -1.36512e-07 -6.62444e-05
0.000971563 -4.58828e-05 2.15751e-07
-4.58828e-05 7.39294e-05 6.15197e-07
2.15751e-07 6.15197e-07 -5.34405e-06
0.000997937 -2.85349e-05 9.37258e-08
-2.85349e-05 6.51632e-05 -1.41262e-07
9.37258e-08 -1.41262e-07 -2.6243e-06
0.000809147 -2.32845e-05 -8.14783e-07
-2.32845e-05 -3.21098e-06 1.92737e-06
-8.14783e-07 1.92737e-06 -5.82241e-05
0.000703268 -4.26825e-05 1.00296e-06
-4.26825e-05 -5.39966e-06 -4.70351e-07
1.00296e-06 -4.70351e-07 -0.000109259
0.000946363 8.76927e-07 -1.6508e-07
8.76927e-07 4.34875e-05 -3.005e-07
-1.6508e-07 -3.005e-07 -2.41004e-05
0.00102113 1.87514e-05 2.45616e-08
1.87514e-05 9.31509e-05 -3.17434e-07
2.45616e-08 -3.17434e-07 2.25389e-05
0.00107826 -4.24576e-05 1.10748e-07
-4.24576e-05 0.000135371 1.88877e-07
1.10748e-07 1.88877e-07 5.6286e-05
0.000824233 -5.46616e-05 1.34088e-06
-5.46616e-05 6.3866e-05 1.45862e-06
1.34088e-06 1.45862e-06 -4.98031e-05
0.000884883 -2.71178e-05 -1.18024e-06
-2.71178e-05 4.69344e-05 -1.12703e-06
-1.18024e-06 -1.12703e-06 -3.52465e-05
0.000769328 -5.18735e-05 3.35859e-07
-5.18735e-05 9.50873e-06 -3.4927e-08
3.35859e-07 -3.4927e-08 -9.19571e-05
0.00103158 -8.76449e-05 8.69475e-07
-8.76449e-05 0.000135292 7.5955e-07
8.69475e-07 7.5955e-07 9.69733e-06
0.00111891 -9.28824e-05 -3.07078e-06
-9.28824e-05 0.00013094 2.07286e-06
-3.07078e-06 2.07286e-06 1.30939e-05
0.00127951 -6.01884e-05 -4.75625e-08
-6.01884e-05 0.000252171 -8.22851e-07
-4.75625e-08 -8.22851e-07 0.000158417
0.000817817 -7.58062e-05 -6.59102e-07
-7.58062e-05 9.61953e-06 2.5764e-07
-6.59102e-07 2.5764e-07 -0.000105261
0.00130459 -9.47187e-05 -3.24434e-07
-9.47187e-05 0.000253503 -6.90577e-07
-3.24434e-07 -6.90577e-07 0.000153861
0.000760522 -6.35909e-05 -1.45623e-06
-6.35909e-05 -6.96919e-06 5.47943e-08
-1.45623e-06 5.47943e-08 -0.000101973
0.000959676 -7.89919e-05 3.11123e-07
-7.89919e-05 8.4204e-05 -1.49668e-07
3.11123e-07 -1.49668e-07 -1.89641e-05
0.00097945 -2.29646e-05 -8.18012e-07
-2.29646e-05 8.32937e-05 7.29877e-07
-8.18012e-07 7.29877e-07 8.30225e-06
0.00105495 -6.51517e-05 -1.01386e-06
-6.51517e-05 0.000133588 7.56028e-07
-1.01386e-06 7.56028e-07 4.3775e-05
0.000824666 -7.21099e-05 3.63151e-07
-7.21099e-05 2.1013e-05 -1.22364e-06
3.63151e-07 -1.22364e-06 -8.30563e-05
0.000928157 1.43006e-05 -4.49222e-07
1.43006e-05 4.80372e-05 1.33646e-06
-4.49222e-07 1.33646e-06 -7.4076e-06
0.000891981 -1.3889e-05 3.17232e-07
-1.3889e-05 3.50389e-05 1.0834e-07
3.17232e-07 1.0834e-07 -3.5957e-05
0.000987197 -4.211e-05 1.36137e-06
-4.211e-05 9.57842e-05 -1.42948e-06
1.36137e-06 -1.42948e-06 1.10326e-05
0.000964696 2.9697e-07 1.07209e-07
2.9697e-07 7.08154e-05 -1.07697e-06
1.07209e-07 -1.07697e-06 7.50864e-06
0.000898696 1.85048e-05 2.10123e-08
1.85048e-05 3.04874e-05 -1.11547e-07
2.10123e-08 -1.11547e-07 -1.93652e-05
0.000853267 2.55838e-05 -1.06814e-06
2.55838e-05 6.91877e-06 1.73655e-06
-1.06814e-06 1.73655e-06 -2.49745e-05
0.000895695 1.22836e-05 2.88415e-07
1.22836e-05 2.69234e-05 -1.08731e-06
2.88415e-07 -1.08731e-06 -1.91212e-05
0.000858422 2.21026e-05 -1.02059e-08
2.21026e-05 4.12506e-06 -1.27204e-08
-1.02059e-08 -1.27204e-08 -2.52305e-05
0.000781279 2.41918e-05 -1.70438e-06
2.41918e-05 -3.74119e-05 3.17934e-06
-1.70438e-06 3.17934e-06 -4.08075e-05
0.000869396 1.45292e-05 9.51155e-07
1.45292e-05 5.42968e-06 -1.61913e-06
9.51155e-07 -1.61913e-06 -2.23934e-05
0.000799038 2.07557e-05 1.40134e-07
2.07557e-05 -3.39927e-05 1.45566e-08
1.40134e-07 1.45566e-08 -3.59671e-05
0.0020742 3.14936e-05 -4.71355e-06
3.14936e-05 0.00063986 1.51441e-06
-4.71355e-06 1.51441e-06 0.00066053
0.000813069 1.69515e-05 1.18584e-06
1.69515e-05 -3.17206e-05 -3.08592e-06
1.18584e-06 -3.08592e-06 -3.25694e-05
0.00154699 2.07432e-05 5.82382e-06
2.07432e-05 0.00035603 -1.08149e-06
5.82382e-06 -1.08149e-06 0.000375141
0.00212359 1.77182e-05 1.04972e-05
1.77182e-05 0.000657147 -3.774e-06
1.04972e-05 -3.774e-06 0.000679609
0.000766551 -2.02878e-05 7.8786e-08
-2.02878e-05 -4.17489e-05 -1.09909e-06
7.8786e-08 -1.09909e-06 -9.27808e-05
0.000618626 -1.27442e-05 -3.60655e-07
-1.27442e-05 -0.000124217 -1.98588e-06
-3.60655e-07 -1.98588e-06 -0.000154926
0.000877649 -2.51382e-06 -1.98189e-07
-2.51382e-06 2.06074e-05 -5.43812e-07
-1.98189e-07 -5.43812e-07 -2.94103e-05
0.000831521 -1.33132e-05 -6.22478e-07
-1.33132e-05 -2.4992e-05 -3.04843e-06
-6.22478e-07 -3.04843e-06 -2.48946e-05
0.000632749 -1.01683e-05 -6.4588e-09
-1.01683e-05 -0.000119781 -5.86113e-07
-6.4588e-09 -5.86113e-07 -0.000147485
0.000992375 -3.1524e-07 -7.38547e-08
-3.1524e-07 8.04109e-05 5.6119e-07
-7.38547e-08 5.6119e-07 3.45328e-05
0.00206496 -1.18093e-05 -7.62278e-06
-1.18093e-05 0.000623557 -3.89379e-06
-7.62278e-06 -3.89379e-06 0.000647149
0.000823183 -8.78643e-06 -1.14175e-07
-8.78643e-06 -3.29221e-05 -1.94126e-08
-1.14175e-07 -1.94126e-08 -3.0903e-05
0.00063265 -7.22759e-06 9.94914e-08
-7.22759e-06 -0.000122546 1.37038e-06
9.94914e-08 1.37038e-06 -0.000147906
0.00203292 -5.72447e-06 -1.7889e-06
-5.72447e-06 0.00060443 1.09182e-08
-1.7889e-06 1.09182e-08 0.000628808
0.000820633 -4.30319e-06 1.30435e-07
-4.30319e-06 -3.66169e-05 2.98362e-06
1.30435e-07 2.98362e-06 -3.33945e-05
0.00202542 3.75323e-07 -6.07318e-07
3.75323e-07 0.000599758 3.87711e-06
-6.07318e-07 3.87711e-06 0.000624356
0.00118488 -9.01916e-06 1.31834e-05
-9.01916e-06 0.000190158 -4.08763e-06
1.31834e-05 -4.08763e-06 9.2403e-05
0.0011921 -8.58785e-06 -3.79225e-06
-8.58785e-06 7.55699e-05 1.13438e-06
-3.79225e-06 1.13438e-06 -1.50438e-05
0.001008 5.92112e-05 2.37099e-05
5.92112e-05 0.000523512 -3.65148e-06
2.37099e-05 -3.65148e-06 0.000514717
0.000967461 2.18582e-05 1.04302e-07
2.18582e-05 7.12714e-05 6.48624e-08
1.04302e-07 6.48624e-08 6.7248e-06
0.000892785 1.7584e-06 -1.40476e-08
1.7584e-06 2.65935e-05 -1.62697e-07
-1.40476e-08 -1.62697e-07 -3.80573e-05
0.00103935 3.14822e-05 -2.707e-07
3.14822e-05 0.000112768 4.95622e-07
-2.707e-07 4.95622e-07 4.12466e-05
0.00121623 1.25874e-05 6.60169e-06
1.25874e-05 8.98797e-05 3.56138e-06
6.60169e-06 3.56138e-06 6.13656e-06
0.00114763 9.38831e-06 -3.75918e-06
9.38831e-06 2.96178e-05 3.43792e-06
-3.75918e-06 3.43792e-06 -2.83193e-05
0.00110144 1.92788e-05 8.25358e-06
1.92788e-05 -0.000193852 -1.12706e-05
8.25358e-06 -1.12706e-05 -0.000267063
0.00195691 4.75448e-05 -4.29672e-05
4.75448e-05 -0.000333676 1.26745e-05
-4.29672e-05 1.26745e-05 -0.000471926
0.00173267 0.00028127 7.34206e-06
0.00028127 0.000149289 -2.00964e-06
7.34206e-06 -2.00964e-06 -0.00104758
0.00440743 0.000456437 5.1146e-05
0.000456437 0.00102191 -2.74642e-05
5.1146e-05 -2.74642e-05 0.00105931
0.00134566 8.98743e-05 3.87675e-06
8.98743e-05 -0.00078075 -1.10062e-05
3.87675e-06 -1.10062e-05 -0.000409115
0.00189317 -8.87502e-05 -2.86911e-06
-8.87502e-05 -0.000261614 7.31476e-06
-2.86911e-06 7.31476e-06 -0.000291852
0.00523871 0.000160128 3.37676e-05
0.000160128 0.00130065 -3.63013e-05
3.37676e-05 -3.63013e-05 6.74201e-05
0.00091117 0.000117845 -6.797e-06
0.000117845 -0.000796903 1.02363e-05
-6.797e-06 1.02363e-05 -0.000652286
0.00208753 2.9738e-05 -1.25836e-07
2.9738e-05 -0.000220786 3.44909e-06
-1.25836e-07 3.44909e-06 0.000143018
0.00539431 -0.000381308 7.21342e-06
-0.000381308 0.00135325 -5.83824e-05
7.21342e-06 -5.83824e-05 0.00120537
0.00825845 0.000201784 3.71217e-05
0.000201784 0.00261087 -2.45236e-05
3.71217e-05 -2.45236e-05 0.00152658
0.000181375 2.94697e-05 8.83011e-06
2.94697e-05 -0.000963375 5.63131e-05
8.83011e-06 5.63131e-05 -0.000835362
0.000635082 -6.35202e-05 3.22167e-06
-6.35202e-05 -0.00104814 5.76836e-06
3.22167e-06 5.76836e-06 -0.000706605
0.00100649 1.55611e-07 -2.38054e-08
1.55611e-07 8.96375e-05 6.27427e-07
-2.38054e-08 6.27427e-07 1.14667e-05
0.000933616 -9.38858e-06 -6.25386e-08
-9.38858e-06 6.1846e-05 -1.84548e-07
-6.25386e-08 -1.84548e-07 -1.86106e-05
0.000972549 -3.23038e-05 -3.90158e-07
-3.23038e-05 8.84111e-05 5.04519e-08
-3.90158e-07 5.04519e-08 1.14085e-05
0.000943336 1.30288e-05 -3.79455e-07
1.30288e-05 6.22114e-05 -5.04457e-07
-3.79455e-07 -5.04457e-07 -9.17664e-06
0.00106485 6.54279e-05 1.12005e-06
6.54279e-05 0.000134204 3.02403e-07
1.12005e-06 3.02403e-07 6.26758e-05
0.00111801 4.77231e-05 7.32266e-08
4.77231e-05 0.000157171 3.44366e-07
7.32266e-08 3.44366e-07 9.24991e-05
0.00328779 -0.000269143 1.66451e-06
-0.000269143 0.000896437 -1.76678e-06
1.66451e-06 -1.76678e-06 0.000904427
-0.000101232 -1.95595e-05 2.62464e-06
-1.95595e-05 -0.000384781 -5.07772e-07
2.62464e-06 -5.07772e-07 -0.000623031
0.0010994 3.45856e-05 3.05e-07
3.45856e-05 0.000145623 -2.55088e-07
3.05e-07 -2.55088e-07 6.17244e-05
0.00130965 -5.20246e-05 4.75631e-07
-5.20246e-05 0.000246994 -2.69045e-06
4.75631e-07 -2.69045e-06 0.00013658
0.00112709 -1.15972e-06 1.09187e-07
-1.15972e-06 0.000153542 -1.49905e-06
1.09187e-07 -1.49905e-06 6.20922e-05
0.00102563 1.06523e-06 4.93347e-07
1.06523e-06 9.18826e-05 -5.85102e-08
4.93347e-07 -5.85102e-08 1.41536e-05
0.00102684 3.60119e-05 2.97481e-07
3.60119e-05 9.9021e-05 -1.92618e-07
2.97481e-07 -1.92618e-07 1.45486e-05
0.000679777 -0.000185029 -4.84185e-06
-0.000185029 -8.02144e-05 2.58023e-06
-4.84185e-06 2.58023e-06 -0.000131125
0.00109179 -1.55211e-05 7.92003e-07
-1.55211e-05 0.000119026 -1.00036e-06
7.92003e-07 -1.00036e-06 3.38029e-05
0.000849626 3.44971e-05 -2.27049e-06
3.44971e-05 0.000215273 -1.31211e-06
-2.27049e-06 -1.31211e-06 4.49933e-05
0.00095487 -8.76592e-07 7.41015e-07
-8.76592e-07 5.88588e-05 1.23653e-07
7.41015e-07 1.23653e-07 -1.64716e-05
-0.00105305 -7.22151e-05 -1.68857e-07
-7.22151e-05 -0.00054164 -1.05355e-05
-1.68857e-07 -1.05355e-05 -0.000762972
0.000215126 -8.22047e-07 -3.88245e-06
-8.22047e-07 -0.000145481 2.01532e-05
-3.88245e-06 2.01532e-05 -0.000184565
0.00102353 -1.54491e-05 2.01829e-07
-1.54491e-05 8.82517e-05 1.72069e-06
2.01829e-07 1.72069e-06 6.83082e-06
0.00121675 8.36535e-07 -3.5221e-07
8.36535e-07 0.000221032 6.40938e-07
-3.5221e-07 6.40938e-07 8.39777e-05
0.00104019 -1.12016e-06 5.37428e-06
-1.12016e-06 0.000142075 1.76929e-06
5.37428e-06 1.76929e-06 3.52814e-05
0.001366 -6.70682e-06 8.51777e-06
-6.70682e-06 0.000223913 1.51393e-06
8.51777e-06 1.51393e-06 0.0001293
0.000952533 6.94067e-05 4.10046e-06
6.94067e-05 0.000165819 4.30207e-06
4.10046e-06 4.30207e-06 9.10213e-05
0.000556478 0.000120397 1.21385e-05
0.000120397 0.000167025 -1.37831e-05
1.21385e-05 -1.37831e-05 3.92923e-05
0.00100284 1.03529e-05 -1.52586e-05
1.03529e-05 0.000138872 -6.72943e-06
-1.52586e-05 -6.72943e-06 5.83379e-05
0.00348901 4.90792e-05 -2.32821e-05
4.90792e-05 0.000411907 -3.7297e-06
-2.32821e-05 -3.7297e-06 -0.000309669
-0.00178545 3.33922e-05 -1.01802e-05
3.33922e-05 -0.00206941 6.67625e-05
-1.01802e-05 6.67625e-05 -0.00197533
0.00105455 -1.93122e-06 -7.75851e-06
-1.93122e-06 9.95996e-05 -2.11344e-06
-7.75851e-06 -2.11344e-06 6.38715e-06
0.00154632 8.13928e-05 -2.6314e-06
8.13928e-05 -0.000584869 1.07801e-05
-2.6314e-06 1.07801e-05 -0.000263221
0.000536037 4.21715e-05 -4.12773e-06
4.21715e-05 9.63457e-05 -2.47798e-06
-4.12773e-06 -2.47798e-06 1.90359e-05
0.00111348 -2.04934e-06 -4.74312e-06
-2.04934e-06 0.000166629 6.45428e-06
-4.74312e-06 6.45428e-06 4.23091e-05
0.00113389 3.4149e-07 3.58679e-06
3.4149e-07 2.87822e-05 -3.17205e-06
3.58679e-06 -3.17205e-06 -3.52921e-05
0.00126366 0.000227732 4.44407e-05
0.000227732 5.94611e-05 1.65278e-06
4.44407e-05 1.65278e-06 -4.15171e-05
0.00191458 0.000211633 2.74985e-06
0.000211633 -0.000381365 -2.46998e-06
2.74985e-06 -2.46998e-06 0.000137835
0.000928305 0.000153739 5.94632e-06
0.000153739 -0.000751594 -1.0136e-05
5.94632e-06 -1.0136e-05 -0.000608749
0.00733932 9.79827e-05 7.59857e-06
9.79827e-05 0.00227931 -1.87634e-05
7.59857e-06 -1.87634e-05 0.00139033
-0.000541574 6.51128e-06 -3.11801e-05
6.51128e-06 -9.71039e-05 -1.46694e-05
-3.11801e-05 -1.46694e-05 -0.000231485
0.0011652 -1.26815e-05 -1.24509e-05
-1.26815e-05 0.000185069 4.46246e-06
-1.24509e-05 4.46246e-06 8.75856e-05
0.00122297 2.78351e-05 2.67258e-05
2.78351e-05 -0.000141734 -1.34407e-05
2.67258e-05 -1.34407e-05 -0.00017795
0.0013266 0.000376855 1.60452e-05
0.000376855 2.12461e-05 -2.59377e-06
1.60452e-05 -2.59377e-06 0.000750621
-0.00346904 0.000288582 6.27065e-05
0.000288582 -0.00261899 -3.26591e-05
6.27065e-05 -3.26591e-05 -0.00251593
0.00796414 0.000251803 1.67246e-05
0.000251803 0.00238368 -3.71093e-05
1.67246e-05 -3.71093e-05 0.00111161
0.00176785 -4.57619e-05 -8.14885e-06
-4.57619e-05 0.000203327 9.53158e-05
-8.14885e-06 9.53158e-05 4.04313e-05
0.00120558 1.02698e-05 1.51477e-06
1.02698e-05 0.000201704 7.4598e-06
1.51477e-06 7.4598e-06 0.000139337
0.000233235 -2.76889e-05 -2.0478e-07
-2.76889e-05 -0.000114423 1.81351e-07
-2.0478e-07 1.81351e-07 -0.000254514
0.000247063 -5.31984e-05 2.7286e-06
-5.31984e-05 -1.07407e-05 -5.65314e-06
2.7286e-06 -5.65314e-06 -0.000214205
0.000964002 -3.77134e-05 2.35833e-07
-3.77134e-05 5.09214e-05 -8.9405e-07
2.35833e-07 -8.9405e-07 -1.81564e-05
0.000769706 -2.83012e-05 4.06177e-07
-2.83012e-05 -3.62051e-05 2.71102e-06
4.06177e-07 2.71102e-06 -9.02145e-05
0.000756846 -1.71281e-05 -4.4682e-08
-1.71281e-05 2.41357e-05 1.84288e-07
-4.4682e-08 1.84288e-07 -7.09305e-05
0.000991038 -9.12025e-05 4.1035e-06
-9.12025e-05 0.000206879 -7.75865e-07
4.1035e-06 -7.75865e-07 3.10278e-05
0.00125648 -4.46797e-05 -4.77303e-07
-4.46797e-05 0.000220987 -4.3782e-07
-4.77303e-07 -4.3782e-07 0.000140821
0.00116643 -7.80275e-05 5.34815e-07
-7.80275e-05 0.000222953 2.50387e-07
5.34815e-07 2.50387e-07 0.000105792
0.000986989 -8.96351e-05 1.94851e-06
-8.96351e-05 0.000146459 1.51135e-06
1.94851e-06 1.51135e-06 -1.94552e-05
0.000539917 -4.53245e-05 -1.43272e-07
-4.53245e-05 -0.000104693 -1.41741e-06
-1.43272e-07 -1.41741e-06 -0.000202294
0.00110421 -9.00578e-05 -3.70711e-07
-9.00578e-05 0.00017031 -1.23367e-07
-3.70711e-07 -1.23367e-07 4.20167e-05
0.0016239 -0.000121833 -9.80634e-07
-0.000121833 0.00038893 1.41294e-06
-9.80634e-07 1.41294e-06 0.000243664
0.001405 -0.000113264 -3.17108e-06
-0.000113264 0.0002449 2.58992e-06
-3.17108e-06 2.58992e-06 0.000112462
0.000771062 -7.69898e-05 -1.10098e-06
-7.69898e-05 -3.34597e-05 1.61825e-06
-1.10098e-06 1.61825e-06 -0.000136679
0.00108314 -9.2229e-05 -8.63395e-07
-9.2229e-05 0.000113338 7.57874e-07
-8.63395e-07 7.57874e-07 -6.38381e-06
0.000990558 -8.32138e-05 -2.4199e-07
-8.32138e-05 9.29379e-05 -6.88246e-07
-2.4199e-07 -6.88246e-07 -2.4868e-05
0.00117689 -8.75373e-05 3.64748e-07
-8.75373e-05 0.000188384 -1.1847e-06
3.64748e-07 -1.1847e-06 9.48123e-05
0.00108927 -8.54034e-05 1.54664e-06
-8.54034e-05 0.000145694 -6.10927e-07
1.54664e-06 -6.10927e-07 4.86313e-05
0.000824101 -4.05197e-05 -5.68029e-07
-4.05197e-05 1.43304e-05 9.94582e-07
-5.68029e-07 9.94582e-07 -6.97776e-05
0.000918502 -6.69655e-05 3.56098e-07
-6.69655e-05 7.22838e-05 -1.11393e-07
3.56098e-07 -1.11393e-07 -2.17262e-05
0.00097008 -7.90099e-05 3.44901e-06
-7.90099e-05 8.91592e-05 -1.40539e-06
3.44901e-06 -1.40539e-06 -1.21907e-05
0.000926589 1.67617e-05 -7.54346e-07
1.67617e-05 4.98506e-05 1.30673e-06
-7.54346e-07 1.30673e-06 -1.2155e-05
0.000992228 -2.90254e-05 -1.43659e-07
-2.90254e-05 9.05481e-05 -2.89543e-08
-1.43659e-07 -2.89543e-08 1.49405e-05
0.00109402 -6.49733e-05 4.80801e-07
-6.49733e-05 0.000151472 -3.26906e-07
4.80801e-07 -3.26906e-07 6.17721e-05
0.000845122 2.75182e-05 -1.09833e-06
2.75182e-05 7.56559e-06 1.95119e-06
-1.09833e-06 1.95119e-06 -2.8362e-05
0.000908971 1.33959e-05 1.15074e-07
1.33959e-05 3.79159e-05 -4.81246e-08
1.15074e-07 -4.81246e-08 -1.72874e-05
0.000839986 -1.31417e-05 8.61867e-07
-1.31417e-05 7.60024e-06 -8.75475e-07
8.61867e-07 -8.75475e-07 -6.35548e-05
0.000897156 1.7615e-05 4.31109e-07
1.7615e-05 2.9872e-05 -1.30305e-06
4.31109e-07 -1.30305e-06 -2.00349e-05
0.000849811 2.78635e-05 6.0831e-08
2.78635e-05 5.20893e-06 -4.68071e-08
6.0831e-08 -4.68071e-08 -2.68831e-05
0.000765126 2.77681e-05 -2.01349e-06
2.77681e-05 -3.86381e-05 3.2292e-06
-2.01349e-06 3.2292e-06 -4.41984e-05
0.000860018 2.33183e-05 8.33906e-07
2.33183e-05 4.68876e-06 -1.75417e-06
8.33906e-07 -1.75417e-06 -2.47138e-05
0.000796201 2.45378e-05 8.4469e-08
2.45378e-05 -2.98436e-05 -5.84304e-09
8.4469e-08 -5.84304e-09 -3.32836e-05
0.00213146 3.39995e-05 -1.73618e-05
3.39995e-05 0.000674952 3.54817e-06
-1.73618e-05 3.54817e-06 0.000694624
0.000813415 2.09763e-05 1.53813e-06
2.09763e-05 -2.68652e-05 -3.11208e-06
1.53813e-06 -3.11208e-06 -2.88268e-05
0.00154026 2.58247e-05 6.88197e-06
2.58247e-05 0.000358101 -1.02387e-06
6.88197e-06 -1.02387e-06 0.00037609
0.00211748 2.33908e-05 1.33009e-05
2.33908e-05 0.000658017 -3.69951e-06
1.33009e-05 -3.69951e-06 0.000679739
0.000897567 1.54565e-05 -6.36304e-07
1.54565e-05 2.72668e-05 -7.19672e-07
-6.36304e-07 -7.19672e-07 -2.53408e-05
0.000845635 -1.48291e-05 -7.16623e-07
-1.48291e-05 -4.70732e-06 -1.56752e-06
-7.16623e-07 -1.56752e-06 -3.63306e-05
0.000821601 8.48555e-06 -6.09819e-07
8.48555e-06 -1.00735e-05 -5.19569e-07
-6.09819e-07 -5.19569e-07 -6.20478e-05
0.000824864 -1.75374e-05 -7.65257e-07
-1.75374e-05 -2.36746e-05 -3.17462e-06
-7.65257e-07 -3.17462e-06 -2.59261e-05
0.000741281 -1.29703e-05 -1.5808e-07
-1.29703e-05 -6.0408e-05 -6.03698e-07
-1.5808e-07 -6.03698e-07 -9.05655e-05
0.00100645 -3.74818e-06 6.7849e-08
-3.74818e-06 8.722e-05 1.13979e-07
6.7849e-08 1.13979e-07 3.7921e-05
0.00211156 -1.77226e-05 -1.06634e-05
-1.77226e-05 0.000651305 -3.9141e-06
-1.06634e-05 -3.9141e-06 0.000673785
0.000816583 -1.31138e-05 -1.06567e-07
-1.31138e-05 -3.27287e-05 -2.42531e-08
-1.06567e-07 -2.42531e-08 -3.25221e-05
0.000623437 -1.02436e-05 5.18942e-08
-1.02436e-05 -0.000124447 7.73807e-07
5.18942e-08 7.73807e-07 -0.000152501
0.00206054 -1.15541e-05 -1.62022e-06
-1.15541e-05 0.000620904 2.45886e-08
-1.62022e-06 2.45886e-08 0.000644622
0.00081207 -8.64699e-06 3.87456e-07
-8.64699e-06 -3.87821e-05 2.98088e-06
3.87456e-07 2.98088e-06 -3.66703e-05
0.00202933 -5.46728e-06 2.79857e-06
-5.46728e-06 0.00060232 3.86344e-06
2.79857e-06 3.86344e-06 0.000626774
0.0011062 8.06395e-07 6.73028e-06
8.06395e-07 0.000155502 -1.39163e-05
6.73028e-06 -1.39163e-05 3.2795e-05
0.00116713 -9.09098e-06 -1.72208e-06
-9.09098e-06 0.000189767 2.49432e-07
-1.72208e-06 2.49432e-07 9.36655e-05
0.0012032 -1.08188e-05 2.12665e-06
-1.08188e-05 8.55162e-05 4.82168e-06
2.12665e-06 4.82168e-06 -8.45854e-08
0.000879101 -1.88987e-05 4.06753e-08
-1.88987e-05 1.66528e-05 -4.12779e-07
4.06753e-08 -4.12779e-07 -4.75008e-05
0.0010304 -1.08226e-06 -9.24809e-08
-1.08226e-06 0.000100148 -2.5456e-07
-9.24809e-08 -2.5456e-07 2.98308e-05
0.000999767 1.97588e-05 1.03556e-06
1.97588e-05 8.67846e-05 2.05842e-07
1.03556e-06 2.05842e-07 2.37905e-05
0.000881834 -6.70188e-06 2.44607e-08
-6.70188e-06 1.96435e-05 2.58907e-08
2.44607e-08 2.58907e-08 -4.41041e-05
0.000978264 1.37178e-05 9.99314e-08
1.37178e-05 7.82048e-05 3.33918e-07
9.99314e-08 3.33918e-07 7.25604e-06
0.000986399 1.22085e-05 -5.15916e-07
1.22085e-05 7.99147e-05 1.12063e-07
-5.15916e-07 1.12063e-07 9.55929e-06
0.000958689 7.30227e-05 4.33026e-08
7.30227e-05 7.42716e-05 7.27407e-07
4.33026e-08 7.27407e-07 -4.38112e-06
0.00121375 1.18047e-05 -2.53838e-06
1.18047e-05 7.73956e-05 1.36851e-05
-2.53838e-06 1.36851e-05 1.13836e-05
0.00114839 1.01953e-05 2.9367e-06
1.01953e-05 0.000101668 2.63806e-06
2.9367e-06 2.63806e-06 1.26592e-05
0.00118835 4.16138e-06 -8.59642e-06
4.16138e-06 6.72156e-05 -9.04047e-07
-8.59642e-06 -9.04047e-07 7.92539e-06
0.00092692 2.01631e-05 4.17989e-06
2.01631e-05 -0.000901552 -4.69295e-06
4.17989e-06 -4.69295e-06 -0.000562461
5.84344e-05 -4.78983e-05 -5.71786e-05
-4.78983e-05 -0.0015226 5.76852e-05
-5.71786e-05 5.76852e-05 -0.00161539
0.00230771 0.000104585 4.65937e-05
0.000104585 0.000157948 -4.76789e-05
4.65937e-05 -4.76789e-05 -0.000982244
0.005454 0.000332889 2.63639e-05
0.000332889 0.00135621 -2.44993e-05
2.63639e-05 -2.44993e-05 0.00130824
0.00209417 -0.000275512 -1.88578e-05
-0.000275512 -0.000275438 1.22461e-05
-1.88578e-05 1.22461e-05 -0.000564454
0.00272294 -7.36806e-05 2.98351e-05
-7.36806e-05 -8.03304e-05 -4.41396e-05
2.98351e-05 -4.41396e-05 -0.00120732
0.00357663 4.81027e-06 -1.55169e-05
4.81027e-06 0.000396445 2.38465e-06
-1.55169e-05 2.38465e-06 0.000412834
0.00274458 -9.08183e-05 3.22244e-07
-9.08183e-05 0.000168939 -5.08959e-06
3.22244e-07 -5.08959e-06 0.000579886
0.00364889 -0.000244799 1.33974e-05
-0.000244799 0.000950871 -1.63667e-05
1.33974e-05 -1.63667e-05 0.000835421
0.00324028 -0.000360229 -4.31375e-06
-0.000360229 -0.0006312 -9.74876e-05
-4.31375e-06 -9.74876e-05 -0.000998372
4.92303e-05 -0.000143047 3.50785e-05
-0.000143047 -0.00139288 3.72708e-05
3.50785e-05 3.72708e-05 -0.00139239
1.19071e-05 -0.000148106 1.55202e-05
-0.000148106 -0.00143525 5.87913e-06
1.55202e-05 5.87913e-06 -0.000965746
0.00110584 -2.45719e-05 -2.17623e-07
-2.45719e-05 0.000133797 1.13911e-06
-2.17623e-07 1.13911e-06 5.94925e-05
0.000927801 2.99548e-06 7.57321e-08
2.99548e-06 4.96841e-05 -1.01223e-07
7.57321e-08 -1.01223e-07 -2.89279e-05
0.000904102 -2.06014e-06 -3.27955e-07
-2.06014e-06 4.85765e-05 -8.52801e-07
-3.27955e-07 -8.52801e-07 -3.28148e-05
0.000950713 2.19688e-05 -7.96509e-08
2.19688e-05 6.65039e-05 -9.5254e-07
-7.96509e-08 -9.5254e-07 -5.32571e-06
0.00350524 -0.000224219 1.2407e-05
-0.000224219 0.00128796 3.65136e-06
1.2407e-05 3.65136e-06 0.0012659
0.000525292 1.19526e-05 4.50456e-06
1.19526e-05 0.00010661 -6.14571e-06
4.50456e-06 -6.14571e-06 -5.34366e-05
0.000900857 -1.10067e-05 1.87325e-08
-1.10067e-05 2.43292e-05 -9.03798e-07
1.87325e-08 -9.03798e-07 -5.29465e-05
0.000974928 3.11445e-05 5.12729e-07
3.11445e-05 7.41184e-05 -1.07332e-06
5.12729e-07 -1.07332e-06 -1.09667e-05
0.00147511 -7.1174e-06 8.11729e-07
-7.1174e-06 0.000318758 -3.94683e-06
8.11729e-07 -3.94683e-06 0.00023279
0.000937208 7.98235e-06 -2.89882e-07
7.98235e-06 4.85771e-05 3.44864e-08
-2.89882e-07 3.44864e-08 -2.69453e-05
0.000932329 -6.15369e-06 -1.34654e-06
-6.15369e-06 4.43016e-05 4.99201e-07
-1.34654e-06 4.99201e-07 -3.92078e-05
0.000309818 -9.26908e-05 3.69495e-07
-9.26908e-05 0.000146704 -4.27651e-06
3.69495e-07 -4.27651e-06 -4.36098e-05
0.000832656 -2.46779e-06 3.8593e-06
-2.46779e-06 0.000164088 6.96556e-06
3.8593e-06 6.96556e-06 0.000130097
0.00101843 -1.04703e-05 7.29418e-07
-1.04703e-05 9.66423e-05 -8.98166e-07
7.29418e-07 -8.98166e-07 1.77569e-05
-0.000237049 2.98181e-05 8.25241e-07
2.98181e-05 0.000316439 -1.38412e-05
8.25241e-07 -1.38412e-05 -0.000213644
0.00153942 -3.76734e-05 5.87651e-06
-3.76734e-05 0.00051675 9.9344e-06
5.87651e-06 9.9344e-06 0.000426757
0.00126102 -6.19832e-07 -1.91867e-05
-6.19832e-07 0.000285202 -2.57283e-06
-1.91867e-05 -2.57283e-06 0.000182854
0.0012156 -2.66057e-07 4.56355e-08
-2.66057e-07 0.00019152 4.73141e-07
4.56355e-08 4.73141e-07 4.28207e-05
0.000859063 -4.85525e-07 -1.16289e-05
-4.85525e-07 2.51014e-05 8.23219e-07
-1.16289e-05 8.23219e-07 -9.06168e-05
0.000902664 2.74058e-05 1.12427e-06
2.74058e-05 0.000254134 4.92305e-06
1.12427e-06 4.92305e-06 0.000184283
0.00155987 0.000138496 -5.913e-05
0.000138496 0.000509318 1.28313e-05
-5.913e-05 1.28313e-05 0.000551809
0.00106293 -2.18853e-06 -4.40622e-06
-2.18853e-06 0.000136475 -5.65448e-06
-4.40622e-06 -5.65448e-06 4.55595e-06
0.00323021 0.000225163 3.55496e-05
0.000225163 0.000217476 -7.64939e-05
3.55496e-05 -7.64939e-05 -0.000693368
0.00518531 0.000356788 -3.02216e-05
0.000356788 0.0012522 2.66267e-05
-3.02216e-05 2.66267e-05 0.00120953
0.00120032 -5.19665e-06 7.32707e-06
-5.19665e-06 8.35334e-05 1.70962e-06
7.32707e-06 1.70962e-06 1.77603e-05
0.00314581 0.000215158 -1.84451e-05
0.000215158 0.000474897 1.34918e-05
-1.84451e-05 1.34918e-05 0.000917558
-0.000214943 -1.78406e-05 2.25651e-05
-1.78406e-05 2.69948e-05 -1.98468e-06
2.25651e-05 -1.98468e-06 -0.000104888
0.00114308 -1.21148e-05 1.8015e-06
-1.21148e-05 0.000182406 -3.7432e-07
1.8015e-06 -3.7432e-07 8.65448e-05
0.00118222 1.98094e-05 8.66001e-06
1.98094e-05 -0.000150877 -4.73393e-06
8.66001e-06 -4.73393e-06 -0.000209671
0.00184067 -4.07137e-05 -8.48217e-06
-4.07137e-05 0.000349445 2.01802e-05
-8.48217e-06 2.01802e-05 0.000338933
0.000108679 0.000396073 -4.39518e-06
0.000396073 -0.000855493 3.37935e-06
-4.39518e-06 3.37935e-06 1.03791e-05
0.0022805 0.000407172 3.25463e-06
0.000407172 -0.000175404 -5.30223e-06
3.25463e-06 -5.30223e-06 -5.7074e-05
0.00289937 8.96847e-06 3.11939e-05
8.96847e-06 0.000254817 -1.42974e-05
3.11939e-05 -1.42974e-05 -0.00111137
0.000259703 -6.11048e-05 1.71171e-05
-6.11048e-05 0.000143447 -1.04151e-05
1.71171e-05 -1.04151e-05 2.52221e-05
0.00117219 -1.06725e-05 8.01186e-06
-1.06725e-05 6.77368e-05 -3.34434e-06
8.01186e-06 -3.34434e-06 -3.27644e-05
-0.00120989 0.000176304 9.09891e-06
0.000176304 -0.000959179 -9.80149e-06
9.09891e-06 -9.80149e-06 -0.000771466
-0.000182763 0.000382602 5.01431e-05
0.000382602 -0.000232381 -1.22916e-05
5.01431e-05 -1.22916e-05 2.84376e-05
0.00820481 0.000539547 2.6562e-05
0.000539547 0.00260859 -5.04189e-05
2.6562e-05 -5.04189e-05 0.00145889
0.00316327 -0.000255317 -5.94503e-05
-0.000255317 0.00052276 9.41355e-05
-5.94503e-05 9.41355e-05 -6.98322e-06
0.000337035 -3.45674e-05 -1.73992e-06
-3.45674e-05 -6.9533e-05 5.22111e-06
-1.73992e-06 5.22111e-06 -0.000222468
0.00046457 -3.05339e-05 8.46821e-07
-3.05339e-05 9.94426e-05 -8.3639e-07
8.46821e-07 -8.3639e-07 -0.000100273
0.0017771 -0.000155149 9.10836e-06
-0.000155149 0.00058039 -3.35425e-06
9.10836e-06 -3.35425e-06 0.000430049
0.000759409 1.11747e-06 -1.8642e-06
1.11747e-06 3.07311e-05 -9.16034e-07
-1.8642e-06 -9.16034e-07 -5.7017e-05
0.000467198 -5.81037e-05 5.3e-07
-5.81037e-05 -3.36274e-05 -3.11175e-07
5.3e-07 -3.11175e-07 -0.000216798
0.00120925 -0.000112935 4.16234e-06
-0.000112935 0.00024076 3.5495e-06
4.16234e-06 3.5495e-06 6.1438e-05
0.00149493 -0.00010488 -1.25639e-06
-0.00010488 0.000376053 -2.70648e-07
-1.25639e-06 -2.70648e-07 0.000253493
0.00117036 -9.6244e-05 1.36971e-07
-9.6244e-05 0.000228204 6.27872e-07
1.36971e-07 6.27872e-07 6.32989e-05
0.00111953 -0.000112493 6.14371e-07
-0.000112493 0.000125883 7.60638e-07
6.14371e-07 7.60638e-07 -4.3323e-05
0.00120481 -9.34929e-05 -7.33698e-07
-9.34929e-05 0.000220182 -6.1709e-07
-7.33698e-07 -6.1709e-07 8.8501e-05
0.00154153 -0.000119299 -2.94707e-08
-0.000119299 0.00034123 5.59427e-07
-2.94707e-08 5.59427e-07 0.000194071
0.00124578 -0.000114722 -5.72883e-07
-0.000114722 0.000149276 3.14612e-07
-5.72883e-07 3.14612e-07 -3.86306e-06
0.00136048 -0.000113085 -2.51584e-06
-0.000113085 0.000168823 -9.5941e-07
-2.51584e-06 -9.5941e-07 3.56983e-05
0.0016121 -0.000115985 -3.52661e-06
-0.000115985 0.000353193 3.33073e-06
-3.52661e-06 3.33073e-06 0.000235498
0.00136828 -0.000112998 -6.52535e-07
-0.000112998 0.000223132 6.56128e-07
-6.52535e-07 6.56128e-07 8.79953e-05
0.00070299 -7.16586e-05 -8.52083e-09
-7.16586e-05 -6.77331e-05 -7.02496e-07
-8.52083e-09 -7.02496e-07 -0.000161925
0.000901778 -8.17525e-05 1.2069e-06
-8.17525e-05 3.34449e-05 -4.31129e-07
1.2069e-06 -4.31129e-07 -6.90691e-05
0.00103883 -9.13364e-05 1.28823e-06
-9.13364e-05 9.13932e-05 -1.14124e-06
1.28823e-06 -1.14124e-06 -3.03775e-05
0.00105218 -7.70273e-05 -3.43891e-07
-7.70273e-05 0.000123915 7.39745e-08
-3.43891e-07 7.39745e-08 3.36928e-05
0.00113144 -8.53173e-05 -1.08695e-07
-8.53173e-05 0.000166465 -3.01638e-07
-1.08695e-07 -3.01638e-07 7.26043e-05
0.000855661 -7.53602e-05 2.86837e-06
-7.53602e-05 2.87098e-05 3.30244e-07
2.86837e-06 3.30244e-07 -6.57376e-05
0.000881604 8.24881e-06 -2.59346e-07
8.24881e-06 3.20631e-05 1.21821e-06
-2.59346e-07 1.21821e-06 -3.86373e-05
0.000901382 -4.2029e-05 2.10779e-08
-4.2029e-05 5.3003e-05 3.99452e-07
2.10779e-08 3.99452e-07 -3.03658e-05
0.00108207 -7.05927e-05 1.17214e-06
-7.05927e-05 0.000154527 -6.58331e-07
1.17214e-06 -6.58331e-07 6.14023e-05
0.000827236 3.45015e-05 -1.35861e-06
3.45015e-05 1.94184e-06 2.15395e-06
-1.35861e-06 2.15395e-06 -3.97868e-05
0.000908477 9.35422e-06 -1.5643e-07
9.35422e-06 4.12571e-05 -4.41592e-08
-1.5643e-07 -4.41592e-08 -2.12271e-05
0.00100278 -3.26717e-05 5.71003e-07
-3.26717e-05 9.62833e-05 -7.35099e-07
5.71003e-07 -7.35099e-07 2.02705e-05
0.000780409 3.12199e-05 -3.36786e-06
3.12199e-05 -2.41498e-05 4.56358e-06
-3.36786e-06 4.56358e-06 -3.23926e-05
0.000836066 3.1954e-05 2.37218e-07
3.1954e-05 3.54151e-06 -6.37432e-08
2.37218e-07 -6.37432e-08 -3.28365e-05
0.000888172 1.29336e-05 7.63792e-07
1.29336e-05 2.70146e-05 -1.26412e-06
7.63792e-07 -1.26412e-06 -2.79938e-05
0.000844984 3.00916e-05 7.31865e-07
3.00916e-05 2.73694e-06 -1.94168e-06
7.31865e-07 -1.94168e-06 -2.95233e-05
0.000787492 2.83333e-05 5.72483e-08
2.83333e-05 -2.72792e-05 -4.10924e-08
5.72483e-08 -4.10924e-08 -3.29443e-05
0.00215176 3.93368e-05 -1.96547e-05
3.93368e-05 0.000692616 3.45723e-06
-1.96547e-05 3.45723e-06 0.000710715
0.000812417 2.49145e-05 1.84811e-06
2.49145e-05 -2.16115e-05 -3.15503e-06
1.84811e-06 -3.15503e-06 -2.50983e-05
0.00212903 3.41225e-05 8.95762e-07
3.41225e-05 0.000674594 5.46842e-08
8.95762e-07 5.46842e-08 0.000694119
0.00211647 2.8864e-05 1.59779e-05
2.8864e-05 0.000662664 -3.62051e-06
1.59779e-05 -3.62051e-06 0.000683371
0.000954909 1.22687e-05 -2.47031e-07
1.22687e-05 5.92723e-05 -5.30554e-07
-2.47031e-07 -5.30554e-07 -7.35149e-06
0.000903342 1.89392e-05 -8.06339e-07
1.89392e-05 3.1013e-05 -1.00693e-06
-8.06339e-07 -1.00693e-06 -2.48532e-05
0.000839032 -2.15398e-05 -7.45152e-07
-2.15398e-05 -5.62457e-06 -1.71024e-06
-7.45152e-07 -1.71024e-06 -3.9413e-05
0.000904986 9.41908e-06 -1.23572e-07
9.41908e-06 3.01595e-05 -4.42243e-08
-1.23572e-07 -4.42243e-08 -2.19632e-05
0.000810526 -2.10149e-05 -1.24201e-06
-2.10149e-05 -2.60197e-05 -3.27657e-06
-1.24201e-06 -3.27657e-06 -3.05588e-05
0.000853709 -1.6308e-05 -8.7098e-08
-1.6308e-05 -9.20407e-08 7.28497e-09
-8.7098e-08 7.28497e-09 -3.18247e-05
0.00087447 1.23114e-05 1.62044e-07
1.23114e-05 1.59957e-05 2.04689e-07
1.62044e-07 2.04689e-07 -3.39328e-05
0.00217455 -2.36069e-05 -1.36716e-05
-2.36069e-05 0.000688682 -3.93677e-06
-1.36716e-05 -3.93677e-06 0.00070972
0.000806155 -1.72684e-05 -1.14431e-07
-1.72684e-05 -3.33449e-05 -2.61567e-08
-1.14431e-07 -2.61567e-08 -3.54734e-05
0.000863594 -1.33915e-05 1.00213e-07
-1.33915e-05 3.11555e-06 9.33113e-07
1.00213e-07 9.33113e-07 -2.64806e-05
0.0021048 -1.74921e-05 -1.47624e-06
-1.74921e-05 0.000647312 3.90441e-08
-1.47624e-06 3.90441e-08 0.000669967
0.000800464 -1.29089e-05 5.11092e-07
-1.29089e-05 -4.10666e-05 3.0373e-06
5.11092e-07 3.0373e-06 -4.07495e-05
0.00205348 -1.12694e-05 6.34401e-06
-1.12694e-05 0.000616826 3.85383e-06
6.34401e-06 3.85383e-06 0.000640686
0.000827057 1.13635e-05 -9.78327e-06
1.13635e-05 1.67568e-05 -1.10251e-05
-9.78327e-06 -1.10251e-05 -7.56688e-05
0.00110109 8.08026e-07 4.92271e-06
8.08026e-07 0.000155269 -6.71762e-06
4.92271e-06 -6.71762e-06 2.4679e-05
0.00114029 -9.14416e-06 -1.60909e-05
-9.14416e-06 0.000183465 1.09811e-05
-1.60909e-05 1.09811e-05 8.87049e-05
0.000915928 4.74175e-06 -1.80087e-07
4.74175e-06 3.91463e-05 3.91401e-09
-1.80087e-07 3.91401e-09 -2.66785e-05
0.000986327 -2.65206e-06 -2.27485e-08
-2.65206e-06 7.67734e-05 2.27343e-07
-2.27485e-08 2.27343e-07 5.9715e-06
0.000910293 2.5236e-06 -1.4727e-07
2.5236e-06 4.10583e-05 -1.2202e-06
-1.4727e-07 -1.2202e-06 -3.38148e-05
0.00087955 -6.67763e-06 -4.91435e-08
-6.67763e-06 2.26997e-05 -5.75835e-07
-4.91435e-08 -5.75835e-07 -4.77812e-05
0.00104544 3.1045e-05 -4.03056e-07
3.1045e-05 0.000115268 -1.32037e-07
-4.03056e-07 -1.32037e-07 3.78448e-05
0.000866165 -9.74428e-06 -9.04842e-08
-9.74428e-06 1.09266e-05 2.75674e-07
-9.04842e-08 2.75674e-07 -5.2454e-05
0.000913947 -2.86633e-06 1.37501e-07
-2.86633e-06 4.18685e-05 -5.28567e-09
1.37501e-07 -5.28567e-09 -2.84557e-05
0.00096031 2.46025e-05 -1.76261e-07
2.46025e-05 6.8776e-05 -3.48907e-08
-1.76261e-07 -3.48907e-08 -2.45914e-06
0.000980368 2.55432e-05 3.86748e-07
2.55432e-05 7.83459e-05 4.09196e-07
3.86748e-07 4.09196e-07 2.53754e-06
0.00103388 2.21269e-05 -2.24518e-07
2.21269e-05 0.000111222 2.71366e-07
-2.24518e-07 2.71366e-07 3.55841e-05
0.00130083 -1.88932e-05 1.68214e-05
-1.88932e-05 1.95268e-05 2.21069e-05
1.68214e-05 2.21069e-05 -6.8604e-05
0.00122769 1.12645e-05 2.72344e-06
1.12645e-05 7.96963e-05 9.19585e-06
2.72344e-06 9.19585e-06 1.68385e-05
0.00117295 8.28462e-06 5.09376e-06
8.28462e-06 0.000175414 5.54785e-06
5.09376e-06 5.54785e-06 8.23252e-05
0.00202401 -7.86774e-05 -6.67983e-06
-7.86774e-05 -0.000199361 -1.48461e-05
-6.67983e-06 -1.48461e-05 0.000192023
-0.00146605 6.06359e-05 -4.63835e-06
6.06359e-05 -0.00193872 -5.97625e-05
-4.63835e-06 -5.97625e-05 -0.00190326
0.000999268 -0.000274605 -9.57766e-05
-0.000274605 -0.000907947 8.68452e-05
-9.57766e-05 8.68452e-05 -0.00129367
0.00781432 0.000205278 -2.76301e-05
0.000205278 0.00189012 -4.45434e-05
-2.76301e-05 -4.45434e-05 0.00123483
0.00216029 -0.000262161 -3.46608e-05
-0.000262161 1.59188e-05 3.76617e-05
-3.46608e-05 3.76617e-05 -0.00039691
0.00806879 -0.000127322 4.23275e-05
-0.000127322 0.00227565 -4.83517e-07
4.23275e-05 -4.83517e-07 0.00146583
0.00117566 -0.000200488 1.27301e-05
-0.000200488 -0.00075637 -1.79094e-05
1.27301e-05 -1.79094e-05 -0.000740472
0.000391228 -0.000178697 -5.0441e-06
-0.000178697 -0.00133503 -1.48486e-05
-5.0441e-06 -1.48486e-05 -0.00072688
0.0021202 -5.37228e-05 -5.79749e-05
-5.37228e-05 0.000273399 -5.27599e-05
-5.79749e-05 -5.27599e-05 -0.000169241
0.00798222 -0.00040057 -2.6167e-05
-0.00040057 0.00193978 4.98415e-05
-2.6167e-05 4.98415e-05 0.00129445
0.00706478 -0.00052085 2.64248e-05
-0.00052085 0.00207652 1.89837e-05
2.64248e-05 1.89837e-05 0.00230292
0.00196766 -0.000306357 9.18385e-06
-0.000306357 2.66132e-05 2.53621e-06
9.18385e-06 2.53621e-06 0.000809825
0.000873296 1.88313e-05 5.94288e-09
1.88313e-05 3.90044e-05 1.49542e-06
5.94288e-09 1.49542e-06 -2.97381e-05
0.00104453 -1.73829e-05 -1.50117e-07
-1.73829e-05 0.000106576 2.16828e-07
-1.50117e-07 2.16828e-07 3.10207e-05
0.000896124 3.445e-06 2.18704e-07
3.445e-06 3.28741e-05 -7.3728e-07
2.18704e-07 -7.3728e-07 -4.57811e-05
0.00111494 -9.07374e-05 2.1939e-05
-9.07374e-05 0.000530469 -2.38622e-06
2.1939e-05 -2.38622e-06 0.000386483
0.00119909 -1.62748e-05 -2.99061e-06
-1.62748e-05 0.000348207 -5.85949e-06
-2.99061e-06 -5.85949e-06 0.000318221
0.000923269 -1.15059e-06 -3.28592e-07
-1.15059e-06 4.00298e-05 -2.09676e-09
-3.28592e-07 -2.09676e-09 -3.56382e-05
0.000912647 -3.46944e-05 -1.01198e-06
-3.46944e-05 3.33894e-05 -4.84907e-07
-1.01198e-06 -4.84907e-07 -4.97357e-05
0.000943562 -1.46383e-05 -3.32619e-07
-1.46383e-05 6.07989e-05 -6.4323e-08
-3.32619e-07 -6.4323e-08 -1.73803e-05
0.000643006 -3.90965e-05 8.20863e-07
-3.90965e-05 7.09249e-05 4.20431e-06
8.20863e-07 4.20431e-06 -2.40582e-05
-0.000346571 1.59186e-05 9.02668e-06
1.59186e-05 0.000154278 -1.75707e-05
9.02668e-06 -1.75707e-05 -0.000359496
4.85552e-05 -8.67783e-06 -1.00261e-06
-8.67783e-06 -0.000235276 4.79908e-06
-1.00261e-06 4.79908e-06 -0.000347697
0.00162737 0.000111584 2.01791e-05
0.000111584 0.000694655 -3.40365e-06
2.01791e-05 -3.40365e-06 0.000444204
0.00147368 -2.22558e-06 6.33902e-07
-2.22558e-06 0.000290591 -4.62019e-08
6.33902e-07 -4.62019e-08 0.000196631
0.00103392 1.86635e-07 -5.18945e-06
1.86635e-07 0.000139171 -1.54611e-06
-5.18945e-06 -1.54611e-06 2.83372e-05
0.00122905 -1.17179e-06 3.22635e-07
-1.17179e-06 0.000172716 -1.41457e-07
3.22635e-07 -1.41457e-07 1.21183e-05
-0.00105163 -1.99589e-05 -1.4585e-05
-1.99589e-05 -0.000357757 1.34852e-05
-1.4585e-05 1.34852e-05 -0.000503733
0.00105689 1.63545e-05 3.57251e-05
1.63545e-05 -0.000204158 -4.50834e-05
3.57251e-05 -4.50834e-05 -0.000516341
0.00111992 -1.15278e-05 1.55561e-05
-1.15278e-05 0.000179112 -1.09821e-05
1.55561e-05 -1.09821e-05 8.44758e-05
0.00909375 0.000245313 5.04383e-05
0.000245313 0.00262925 5.60821e-06
5.04383e-05 5.60821e-06 0.00139437
0.00487346 0.000540393 -4.46231e-05
0.000540393 0.00132197 2.90829e-05
-4.46231e-05 2.90829e-05 0.00132708
0.00107652 1.13831e-05 -9.52703e-06
1.13831e-05 -0.000194917 1.03474e-05
-9.52703e-06 1.03474e-05 -0.000284214
-0.00110694 0.000416009 -2.01039e-05
0.000416009 -0.00173269 -7.44676e-06
-2.01039e-05 -7.44676e-06 -0.000742536
-3.23857e-05 -3.64363e-05 -3.95814e-06
-3.64363e-05 4.57175e-05 -5.30804e-07
-3.95814e-06 -5.30804e-07 -8.27542e-05
0.00114877 -1.23746e-05 3.44146e-06
-1.23746e-05 5.76174e-05 -1.2294e-06
3.44146e-06 -1.2294e-06 -4.01436e-05
-0.00131608 0.000199575 -1.60885e-05
0.000199575 -0.000935097 4.47175e-06
-1.60885e-05 4.47175e-06 -0.000719495
0.00203762 -0.00021136 -3.02226e-06
-0.00021136 0.000201107 2.91194e-05
-3.02226e-06 2.91194e-05 -0.000159757
0.00342892 0.000540789 4.59973e-06
0.000540789 0.000981136 2.93564e-06
4.59973e-06 2.93564e-06 0.00118876
0.00564817 0.00015785 3.19148e-05
0.00015785 0.0014004 -1.62062e-05
3.19148e-05 -1.62062e-05 -1.08839e-05
0.00276198 -0.000160688 2.3538e-05
-0.000160688 0.000898772 6.82125e-06
2.3538e-05 6.82125e-06 0.000959491
-0.00105025 4.5685e-05 1.36715e-05
4.5685e-05 -0.000652161 -1.29782e-06
1.36715e-05 -1.29782e-06 -0.000738805
0.00325834 0.000405518 3.11873e-05
0.000405518 0.00141764 -1.07773e-05
3.11873e-05 -1.07773e-05 0.00154989
0.00419828 0.000425327 -3.41589e-05
0.000425327 0.000862083 3.52604e-05
-3.41589e-05 3.52604e-05 -0.000254413
0.00150936 -0.000235935 -1.04466e-05
-0.000235935 -8.97636e-05 3.24167e-05
-1.04466e-05 3.24167e-05 -0.000538211
0.000820609 -9.39253e-06 -3.58775e-06
-9.39253e-06 0.000271302 5.82947e-06
-3.58775e-06 5.82947e-06 7.98715e-05
0.000777292 -0.000120614 1.49937e-06
-0.000120614 0.000110267 -2.97659e-06
1.49937e-06 -2.97659e-06 -7.3105e-05
0.00193013 -0.000166631 6.87193e-06
-0.000166631 0.000368468 2.64447e-07
6.87193e-06 2.64447e-07 0.00026686
-1.37008e-05 -2.43223e-05 -1.26297e-06
-2.43223e-05 -0.000255511 6.33313e-07
-1.26297e-06 6.33313e-07 -0.00044315
0.000818347 -9.63515e-05 2.04891e-06
-9.63515e-05 5.65752e-05 -7.61897e-08
2.04891e-06 -7.61897e-08 -0.000121419
0.00126919 -0.000134447 1.76391e-06
-0.000134447 0.000127119 1.17376e-06
1.76391e-06 1.17376e-06 -1.88319e-05
0.00134309 -0.000102014 -1.68304e-06
-0.000102014 0.000303483 3.05285e-07
-1.68304e-06 3.05285e-07 0.000141428
0.00116666 -0.00011236 -4.37273e-07
-0.00011236 0.000143835 -4.42741e-07
-4.37273e-07 -4.42741e-07 -2.02734e-05
0.00160145 -0.000135438 -1.27541e-06
-0.000135438 0.000252643 -9.98226e-07
-1.27541e-06 -9.98226e-07 0.000113291
0.0014646 -0.000116825 1.72312e-07
-0.000116825 0.000295159 -5.85105e-07
1.72312e-07 -5.85105e-07 0.000146939
0.00126407 -0.000113605 3.42468e-07
-0.000113605 0.00015507 -6.50582e-07
3.42468e-07 -6.50582e-07 6.037e-06
0.00145273 -0.000117463 -2.25366e-06
-0.000117463 0.000162988 -2.35464e-06
-2.25366e-06 -2.35464e-06 3.41847e-05
0.00137177 -0.000105679 -2.05391e-06
-0.000105679 0.000111644 -2.31506e-06
-2.05391e-06 -2.31506e-06 -4.29763e-06
0.00112224 -9.92723e-05 -2.17402e-06
-9.92723e-05 6.93203e-05 3.86559e-07
-2.17402e-06 3.86559e-07 -5.21048e-05
0.00126397 -0.000108606 3.0593e-07
-0.000108606 0.000117383 -8.42365e-07
3.0593e-07 -8.42365e-07 -1.44958e-05
0.00129222 -9.85571e-05 -1.60361e-06
-9.85571e-05 0.000205669 1.95298e-06
-1.60361e-06 1.95298e-06 0.000101081
0.00127413 -0.000103622 -2.41678e-07
-0.000103622 0.000182733 6.68707e-07
-2.41678e-07 6.68707e-07 6.31614e-05
0.0013336 -0.000112589 1.2813e-06
-0.000112589 0.000202679 -1.02193e-06
1.2813e-06 -1.02193e-06 6.50689e-05
0.000973707 -7.86945e-05 -6.01797e-07
-7.86945e-05 7.16901e-05 -9.34102e-07
-6.01797e-07 -9.34102e-07 -1.69267e-05
0.000802864 -7.51226e-05 -2.30747e-07
-7.51226e-05 -1.56242e-05 -1.0011e-06
-2.30747e-07 -1.0011e-06 -0.000108737
0.00104466 -8.70248e-05 3.53062e-06
-8.70248e-05 0.000106513 -2.18831e-06
3.53062e-06 -2.18831e-06 4.66749e-06
0.000928993 -3.313e-05 -5.39886e-07
-3.313e-05 5.66357e-05 9.95188e-07
-5.39886e-07 9.95188e-07 -2.07912e-05
0.00102474 -7.28432e-05 1.74087e-07
-7.28432e-05 0.000110139 4.37108e-07
1.74087e-07 4.37108e-07 2.0749e-05
0.00108505 -8.30803e-05 8.53219e-07
-8.30803e-05 0.000143991 1.04396e-06
8.53219e-07 1.04396e-06 4.98542e-05
0.000834425 5.07639e-05 -1.05402e-06
5.07639e-05 1.12006e-05 2.37023e-06
-1.05402e-06 2.37023e-06 -3.90734e-05
0.000917297 1.33742e-06 -1.21701e-08
1.33742e-06 5.11733e-05 -6.11354e-09
-1.21701e-08 -6.11354e-09 -2.03048e-05
0.000976126 -4.68179e-05 3.03102e-07
-4.68179e-05 9.09493e-05 -2.46764e-07
3.03102e-07 -2.46764e-07 8.03663e-06
0.00139402 4.01903e-05 -1.20401e-05
4.01903e-05 0.000305851 3.14051e-06
-1.20401e-05 3.14051e-06 0.000297386
0.000819984 3.34703e-05 5.83179e-08
3.34703e-05 -1.84678e-06 -1.24767e-07
5.83179e-08 -1.24767e-07 -4.35057e-05
0.000895469 2.78642e-06 7.62e-07
2.78642e-06 3.52191e-05 -1.30984e-06
7.62e-07 -1.30984e-06 -2.76887e-05
0.000940585 2.76359e-05 -1.84084e-05
2.76359e-05 6.37679e-05 3.55232e-06
-1.84084e-05 3.55232e-06 7.37941e-05
0.00110504 3.48823e-05 -4.8005e-06
3.48823e-05 0.000146801 4.02447e-07
-4.8005e-06 4.02447e-07 0.000139735
0.000826629 3.64313e-05 7.9373e-07
3.64313e-05 -8.23243e-07 -2.0793e-06
7.9373e-07 -2.0793e-06 -3.75599e-05
0.000810025 2.89517e-05 2.07391e-06
2.89517e-05 -1.58434e-05 -3.26132e-06
2.07391e-06 -3.26132e-06 -2.16147e-05
0.00216229 3.94685e-05 7.22401e-07
3.94685e-05 0.000699141 5.63556e-08
7.22401e-07 5.63556e-08 0.000716978
0.00212872 3.41826e-05 1.85285e-05
3.41826e-05 0.000675372 -3.5434e-06
1.85285e-05 -3.5434e-06 0.000694745
0.000901213 -8.54698e-07 -1.95971e-07
-8.54698e-07 3.2366e-05 -1.14983e-06
-1.95971e-07 -1.14983e-06 -3.67754e-05
0.000912813 -1.67029e-06 -4.22897e-07
-1.67029e-06 3.45892e-05 -1.25497e-06
-4.22897e-07 -1.25497e-06 -2.32796e-05
0.000948165 -1.16105e-06 -6.42604e-08
-1.16105e-06 5.43924e-05 -1.34869e-08
-6.42604e-08 -1.34869e-08 -1.18242e-05
0.000833293 -3.07868e-05 -6.50958e-07
-3.07868e-05 -4.82088e-06 -1.92408e-06
-6.50958e-07 -1.92408e-06 -4.08728e-05
0.000914565 1.2467e-06 4.21461e-07
1.2467e-06 3.57437e-05 -8.60934e-08
4.21461e-07 -8.60934e-08 -1.92711e-05
0.000797642 -2.41206e-05 -1.6415e-06
-2.41206e-05 -2.73984e-05 -3.36871e-06
-1.6415e-06 -3.36871e-06 -3.39275e-05
0.000848764 -1.77575e-05 -2.09657e-07
-1.77575e-05 -3.56963e-07 8.30879e-09
-2.09657e-07 8.30879e-09 -3.41153e-05
0.000918113 2.54407e-05 9.31334e-07
2.54407e-05 3.99676e-05 8.93572e-07
9.31334e-07 8.93572e-07 -1.42461e-05
0.00223199 -2.91837e-05 -1.69854e-05
-2.91837e-05 0.000723809 -3.89558e-06
-1.69854e-05 -3.89558e-06 0.000743369
0.000794727 -2.07536e-05 -2.2104e-07
-2.07536e-05 -3.41121e-05 -4.428e-09
-2.2104e-07 -4.428e-09 -3.85693e-05
0.000865053 -1.59388e-05 4.51666e-07
-1.59388e-05 6.16988e-06 1.57052e-06
4.51666e-07 1.57052e-06 -2.5626e-05
0.0021634 -2.34451e-05 -1.3187e-06
-2.34451e-05 0.000682293 5.08588e-08
-1.3187e-06 5.08588e-08 0.000703547
0.000788268 -1.7015e-05 6.39395e-07
-1.7015e-05 -4.25723e-05 3.16582e-06
6.39395e-07 3.16582e-06 -4.45841e-05
0.0020947 -1.72042e-05 9.42716e-06
-1.72042e-05 0.000641549 3.84283e-06
9.42716e-06 3.84283e-06 0.000664401
0.00102791 6.61335e-06 5.92888e-06
6.61335e-06 4.53039e-05 1.98286e-06
5.92888e-06 1.98286e-06 -3.31004e-05
0.000907158 1.15295e-05 5.63143e-07
1.15295e-05 7.3869e-05 -1.99841e-06
5.63143e-07 -1.99841e-06 -1.72602e-05
0.00112727 7.24994e-07 4.65799e-06
7.24994e-07 0.000175558 5.32161e-06
4.65799e-06 5.32161e-06 3.7586e-05
0.000981716 3.67432e-05 -7.3365e-07
3.67432e-05 8.73173e-05 5.10795e-08
-7.3365e-07 5.10795e-08 8.26224e-06
0.000973337 1.73747e-06 1.45396e-07
1.73747e-06 6.91852e-05 3.84113e-07
1.45396e-07 3.84113e-07 3.74653e-06
0.000965925 -2.67701e-06 9.66796e-08
-2.67701e-06 6.53527e-05 5.33195e-07
9.66796e-08 5.33195e-07 -5.98394e-06
0.000972429 -7.86345e-06 9.7322e-08
-7.86345e-06 7.08768e-05 -1.87908e-07
9.7322e-08 -1.87908e-07 8.07045e-07
0.000973516 1.70166e-05 2.18597e-08
1.70166e-05 7.46517e-05 -2.942e-07
2.18597e-08 -2.942e-07 -6.06189e-07
0.000988288 2.49097e-05 -6.04935e-09
2.49097e-05 8.3935e-05 4.3868e-07
-6.04935e-09 4.3868e-07 7.28174e-06
0.000996019 3.49451e-05 -5.50153e-07
3.49451e-05 9.1132e-05 -1.04733e-06
-5.50153e-07 -1.04733e-06 1.03207e-05
0.000856213 1.33849e-05 -4.19278e-08
1.33849e-05 1.83901e-05 -2.00428e-07
-4.19278e-08 -2.00428e-07 -5.7955e-05
0.000936463 3.99504e-05 3.77517e-07
3.99504e-05 5.87626e-05 -7.03691e-08
3.77517e-07 -7.03691e-08 -1.33257e-05
0.000964745 -2.08208e-05 3.10431e-07
-2.08208e-05 6.45393e-05 -1.50566e-07
3.10431e-07 -1.50566e-07 -8.92703e-06
0.000995272 1.71172e-05 -1.06619e-07
1.71172e-05 9.07376e-05 5.02965e-08
-1.06619e-07 5.02965e-08 1.54729e-05
0.0014593 2.12119e-05 2.2131e-06
2.12119e-05 0.000334919 4.04297e-07
2.2131e-06 4.04297e-07 0.000257929
0.00156498 -0.000194991 2.32648e-05
-0.000194991 0.000487385 1.68746e-05
2.32648e-05 1.68746e-05 0.000764624
0.00145054 -1.54187e-05 3.08658e-06
-1.54187e-05 0.000108435 6.50017e-06
3.08658e-06 6.50017e-06 2.1442e-05
0.00122732 9.93239e-06 7.74963e-06
9.93239e-06 6.94294e-05 4.64654e-06
7.74963e-06 4.64654e-06 8.30248e-06
0.00261458 -0.00022393 -2.07876e-05
-0.00022393 -7.85581e-06 -2.07113e-05
-2.07876e-05 -2.07113e-05 0.000657259
0.0038247 -0.00031497 2.2232e-06
-0.00031497 0.000106366 -7.58071e-05
2.2232e-06 -7.58071e-05 0.000135909
0.00313935 3.34334e-05 -6.77858e-05
3.34334e-05 -0.000646607 9.90318e-05
-6.77858e-05 9.90318e-05 -0.000994876
0.00171587 -0.000254884 -5.91459e-05
-0.000254884 8.39497e-05 8.5053e-05
-5.91459e-05 8.5053e-05 -0.000296666
0.00292542 -0.000111038 -1.77384e-05
-0.000111038 0.000836128 1.19338e-05
-1.77384e-05 1.19338e-05 0.000563539
0.000444534 -0.000328956 -9.45466e-06
-0.000328956 -0.000788703 -3.25846e-06
-9.45466e-06 -3.25846e-06 4.47316e-05
0.00514219 -0.000118355 1.58939e-05
-0.000118355 0.0008231 5.02358e-05
1.58939e-05 5.02358e-05 -0.000179448
-0.000478653 -0.000280487 -4.19946e-06
-0.000280487 -0.00120341 -6.53379e-06
-4.19946e-06 -6.53379e-06 -0.000989854
0.00313011 0.000170704 -6.6825e-05
0.000170704 0.000716281 -4.55136e-05
-6.6825e-05 -4.55136e-05 0.000478977
0.00809493 -0.000359282 1.21058e-06
-0.000359282 0.00255391 3.65234e-05
1.21058e-06 3.65234e-05 0.00155432
-6.25017e-05 -0.000317958 1.91435e-05
-0.000317958 -0.000156985 3.79899e-06
1.91435e-05 3.79899e-06 0.000102871
0.000683723 8.88535e-05 -2.20617e-06
8.88535e-05 -3.34801e-05 -4.63635e-07
-2.20617e-06 -4.63635e-07 -9.90356e-05
0.00110495 1.84422e-05 2.04732e-06
1.84422e-05 0.000151796 1.66592e-07
2.04732e-06 1.66592e-07 8.44202e-05
0.0009756 -3.2863e-07 -4.3778e-07
-3.2863e-07 7.60081e-05 -7.49409e-07
-4.3778e-07 -7.49409e-07 -1.0746e-06
-0.000537169 1.02106e-05 -1.47891e-05
1.02106e-05 -4.60921e-05 -2.28611e-05
-1.47891e-05 -2.28611e-05 -0.000546488
6.42034e-05 -2.53493e-05 -1.15145e-06
-2.53493e-05 -0.000222976 -3.35093e-06
-1.15145e-06 -3.35093e-06 -0.000323726
0.00079993 2.91318e-06 1.47644e-06
2.91318e-06 -8.0907e-06 1.52601e-06
1.47644e-06 1.52601e-06 -8.60204e-05
0.000852614 3.67146e-05 9.51596e-07
3.67146e-05 0.000141526 4.7767e-07
9.51596e-07 4.7767e-07 2.92872e-05
0.000782124 6.47293e-05 9.18385e-07
6.47293e-05 0.000246881 -9.42048e-06
9.18385e-07 -9.42048e-06 4.21743e-05
-0.000860413 6.86155e-05 7.82009e-06
6.86155e-05 -0.000689045 1.28669e-05
7.82009e-06 1.28669e-05 -0.000832262
0.00178449 -9.87733e-06 2.2667e-05
-9.87733e-06 0.000945143 -9.93354e-07
2.2667e-05 -9.93354e-07 0.000874414
0.00102163 -1.27991e-06 -2.61511e-07
-1.27991e-06 5.56532e-05 -6.38574e-07
-2.61511e-07 -6.38574e-07 -3.34592e-05
0.000782688 1.03547e-06 1.20662e-05
1.03547e-06 -2.24917e-05 -1.22452e-06
1.20662e-05 -1.22452e-06 -0.000141866
0.000491461 -4.62015e-05 7.12588e-07
-4.62015e-05 0.0003231 9.31454e-06
7.12588e-07 9.31454e-06 0.000186214
0.00103914 -0.000184039 2.38207e-05
-0.000184039 -0.000266963 -3.97962e-05
2.38207e-05 -3.97962e-05 -0.000511906
0.00118237 -1.39959e-05 -1.28011e-06
-1.39959e-05 8.40923e-05 -5.75734e-06
-1.28011e-06 -5.75734e-06 -9.80441e-06
0.00185795 0.000190915 -1.27429e-05
0.000190915 -0.00019939 2.31199e-05
-1.27429e-05 2.31199e-05 -0.00144887
-0.00228772 0.000360687 -5.08287e-05
0.000360687 -0.00167134 1.48756e-05
-5.08287e-05 1.48756e-05 -0.00137655
0.00118688 0.00023616 -3.19586e-05
0.00023616 0.000319612 1.55655e-05
-3.19586e-05 1.55655e-05 0.000700735
0.00161351 -0.000139415 -7.22358e-06
-0.000139415 0.000304354 4.38819e-06
-7.22358e-06 4.38819e-06 0.000404674
0.00111525 8.12814e-05 -2.39907e-06
8.12814e-05 0.000540112 1.9866e-06
-2.39907e-06 1.9866e-06 0.00058798
-0.00318532 0.000200304 4.45688e-06
0.000200304 -0.00130463 1.96341e-06
4.45688e-06 1.96341e-06 -0.00130917
0.0033411 -0.000291563 -6.99586e-06
-0.000291563 0.000604694 1.83428e-05
-6.99586e-06 1.83428e-05 -5.27709e-05
0.00694097 0.000362219 -1.62402e-05
0.000362219 0.00209854 3.80284e-06
-1.62402e-05 3.80284e-06 0.00107702
0.000161294 -0.000144855 -1.39601e-06
-0.000144855 -0.000489674 5.30731e-06
-1.39601e-06 5.30731e-06 -0.000428432
-0.00362644 9.8516e-05 3.25208e-05
9.8516e-05 -0.00196982 -1.41488e-05
3.25208e-05 -1.41488e-05 -0.00188174
0.0063174 0.000338382 6.09713e-06
0.000338382 0.00195189 9.54715e-07
6.09713e-06 9.54715e-07 0.00106444
0.00293557 -7.13384e-05 -1.65834e-05
-7.13384e-05 -0.000102187 2.96224e-05
-1.65834e-05 2.96224e-05 -0.000504859
-0.000199121 -8.58997e-05 -5.8425e-06
-8.58997e-05 -0.000334696 -1.12372e-06
-5.8425e-06 -1.12372e-06 -0.000560929
0.00141237 -0.000149101 -1.0991e-06
-0.000149101 0.000146126 -6.60866e-08
-1.0991e-06 -6.60866e-08 5.69411e-05
0.00155123 -0.000159074 2.4839e-06
-0.000159074 2.75548e-05 -1.13556e-06
2.4839e-06 -1.13556e-06 -3.01789e-05
0.000435039 -8.01598e-05 -1.9992e-06
-8.01598e-05 -0.000122282 -2.80589e-06
-1.9992e-06 -2.80589e-06 -0.000301297
0.00118075 -0.000129776 -4.89444e-07
-0.000129776 7.77712e-05 -1.16578e-06
-4.89444e-07 -1.16578e-06 -6.70612e-05
0.00167203 -0.000146683 -3.4465e-06
-0.000146683 0.000150198 -1.74669e-06
-3.4465e-06 -1.74669e-06 4.10065e-05
0.00113415 -0.000109603 -9.01035e-07
-0.000109603 0.000122289 -1.46629e-06
-9.01035e-07 -1.46629e-06 -3.78307e-05
0.00131372 -0.000124248 2.8966e-07
-0.000124248 0.000106149 -1.00438e-06
2.8966e-07 -1.00438e-06 -3.32576e-05
0.00177157 -0.000126835 -2.95744e-06
-0.000126835 0.000216162 -3.35157e-06
-2.95744e-06 -3.35157e-06 0.000108508
0.00126526 -0.000111875 5.90316e-07
-0.000111875 0.00015338 -1.33888e-06
5.90316e-07 -1.33888e-06 7.922e-06
0.00132782 -0.000111543 -3.49459e-07
-0.000111543 9.74137e-05 -9.56145e-07
-3.49459e-07 -9.56145e-07 -2.99474e-05
0.00158064 -0.000106187 -2.28568e-06
-0.000106187 0.000144 -3.83107e-06
-2.28568e-06 -3.83107e-06 4.69777e-05
0.00152379 -9.84031e-05 -1.83971e-06
-9.84031e-05 0.00014461 -2.88536e-06
-1.83971e-06 -2.88536e-06 5.22396e-05
0.00130373 -0.000102347 -2.41955e-06
-0.000102347 0.00010797 -1.2239e-06
-2.41955e-06 -1.2239e-06 -4.97956e-06
0.00136659 -0.000103103 8.00057e-07
-0.000103103 0.000109408 8.82432e-08
8.00057e-07 8.82432e-08 -4.31178e-06
0.000737509 -8.04284e-05 -1.90533e-06
-8.04284e-05 -0.000106587 1.17276e-06
-1.90533e-06 1.17276e-06 -0.000215956
0.00129236 -0.000104524 9.91161e-07
-0.000104524 0.000155715 -9.82021e-07
9.91161e-07 -9.82021e-07 3.54427e-05
0.0011722 -0.000104317 2.319e-06
-0.000104317 6.83206e-05 -5.32826e-07
2.319e-06 -5.32826e-07 -6.23079e-05
0.00102392 -8.42711e-05 -6.1775e-07
-8.42711e-05 8.58718e-05 6.43407e-07
-6.1775e-07 6.43407e-07 -6.86575e-06
0.00101976 -8.78438e-05 3.85052e-07
-8.78438e-05 7.05124e-05 -1.97304e-07
3.85052e-07 -1.97304e-07 -3.3725e-05
0.000930017 -9.09862e-05 1.62807e-06
-9.09862e-05 9.03158e-06 -1.75343e-06
1.62807e-06 -1.75343e-06 -0.000112386
0.000983177 -6.35225e-05 -1.64163e-06
-6.35225e-05 7.71952e-05 1.52428e-07
-1.64163e-06 1.52428e-07 -2.09784e-06
0.00104618 -8.11155e-05 -2.19036e-07
-8.11155e-05 0.000107127 -3.72824e-07
-2.19036e-07 -3.72824e-07 1.84131e-05
0.000907848 -7.88083e-05 3.36198e-07
-7.88083e-05 3.91408e-05 -1.08991e-06
3.36198e-07 -1.08991e-06 -5.29157e-05
0.000887031 1.4213e-05 -1.28109e-06
1.4213e-05 4.1667e-05 2.46338e-06
-1.28109e-06 2.46338e-06 -1.56072e-05
0.000966621 -3.14929e-05 5.99593e-07
-3.14929e-05 7.53788e-05 3.25328e-07
5.99593e-07 3.25328e-07 -1.87587e-06
0.000998145 -6.75831e-05 1.02872e-06
-6.75831e-05 9.65776e-05 7.54932e-07
1.02872e-06 7.54932e-07 8.11e-06
0.000716799 3.83572e-05 -3.40829e-06
3.83572e-05 -4.25824e-05 3.66703e-06
-3.40829e-06 3.66703e-06 -5.86139e-05
0.000820647 2.34134e-05 -2.11005e-07
2.34134e-05 1.69753e-06 -1.57249e-07
-2.11005e-07 -1.57249e-07 -4.71419e-05
0.000944922 -6.4997e-06 5.39755e-07
-6.4997e-06 6.61078e-05 -1.31185e-06
5.39755e-07 -1.31185e-06 -6.11518e-06
0.00228024 5.54365e-05 -9.10742e-06
5.54365e-05 0.000776978 1.42897e-06
-9.10742e-06 1.42897e-06 0.000789706
0.000754247 3.50551e-05 1.71812e-07
3.50551e-05 -3.00002e-05 3.18099e-09
1.71812e-07 3.18099e-09 -4.2418e-05
0.000811864 3.2323e-05 1.41536e-06
3.2323e-05 -5.67551e-06 -2.19051e-06
1.41536e-06 -2.19051e-06 -4.75456e-05
0.00222172 4.45337e-05 7.46696e-07
4.45337e-05 0.000737323 5.23312e-08
7.46696e-07 5.23312e-08 0.000753283
0.000801367 3.27447e-05 2.53349e-06
3.27447e-05 -1.28902e-05 -3.41773e-06
2.53349e-06 -3.41773e-06 -2.1821e-05
0.00217287 3.94596e-05 2.12429e-05
3.94596e-05 0.000705689 -3.52092e-06
2.12429e-05 -3.52092e-06 0.000723282
0.00101744 3.53774e-05 -4.87105e-07
3.53774e-05 0.000102094 -1.58593e-07
-4.87105e-07 -1.58593e-07 2.84717e-05
0.000915851 6.46442e-06 3.94524e-08
6.46442e-06 4.05732e-05 -3.11161e-07
3.94524e-08 -3.11161e-07 -2.90375e-05
0.000908431 -7.07172e-06 -5.06822e-07
-7.07172e-06 3.6804e-05 -1.4861e-06
-5.06822e-07 -1.4861e-06 -2.54869e-05
0.000825411 -3.37021e-05 -9.97975e-07
-3.37021e-05 -5.85187e-06 -2.14906e-06
-9.97975e-07 -2.14906e-06 -4.4019e-05
0.000899216 -7.90601e-06 3.55406e-07
-7.90601e-06 2.83274e-05 -2.71989e-08
3.55406e-07 -2.71989e-08 -2.96839e-05
0.000911611 1.04167e-05 4.87222e-07
1.04167e-05 3.74356e-05 7.06262e-07
4.87222e-07 7.06262e-07 -3.04227e-05
0.000790364 -2.69749e-05 -2.28326e-06
-2.69749e-05 -2.6119e-05 -3.44347e-06
-2.28326e-06 -3.44347e-06 -3.43491e-05
0.000838625 -2.41521e-05 -2.152e-07
-2.41521e-05 -2.6654e-06 9.54936e-10
-2.152e-07 9.54936e-10 -3.8327e-05
0.000908317 -5.9412e-06 8.45265e-07
-5.9412e-06 3.24179e-05 1.00969e-06
8.45265e-07 1.00969e-06 -2.24313e-05
0.00227255 -3.4533e-05 -1.99332e-05
-3.4533e-05 0.000750618 -3.83224e-06
-1.99332e-05 -3.83224e-06 0.000768745
0.000782106 -2.37604e-05 -1.39348e-07
-2.37604e-05 -3.53358e-05 -4.20547e-09
-1.39348e-07 -4.20547e-09 -4.18005e-05
0.000856943 -1.6593e-05 8.78079e-07
-1.6593e-05 3.89602e-06 1.6545e-06
8.78079e-07 1.6545e-06 -2.9782e-05
0.00222451 -2.91378e-05 -1.36e-06
-2.91378e-05 0.0007193 6.2392e-08
-1.36e-06 6.2392e-08 0.000739031
0.000777635 -2.04818e-05 8.93464e-07
-2.04818e-05 -4.28654e-05 3.30908e-06
8.93464e-07 3.30908e-06 -4.72376e-05
0.00215226 -2.32025e-05 1.22893e-05
-2.32025e-05 0.000675905 3.84742e-06
1.22893e-05 3.84742e-06 0.000697382
-0.000448904 -6.35069e-05 1.72879e-05
-6.35069e-05 -0.000323941 5.19776e-06
1.72879e-05 5.19776e-06 -0.000423135
0.00104204 5.59386e-06 2.63489e-06
5.59386e-06 4.6544e-05 1.01522e-06
2.63489e-06 1.01522e-06 -2.98899e-05
0.00097818 1.16594e-05 1.54593e-05
1.16594e-05 0.000124501 6.40116e-06
1.54593e-05 6.40116e-06 3.47434e-05
0.000976518 2.77863e-05 -3.40688e-07
2.77863e-05 8.36099e-05 4.85439e-07
-3.40688e-07 4.85439e-07 4.86726e-06
0.00110081 7.27571e-05 -3.76011e-07
7.27571e-05 0.00015672 9.79668e-07
-3.76011e-07 9.79668e-07 7.2444e-05
0.000992178 4.35111e-05 -5.37691e-07
4.35111e-05 9.42412e-05 2.8265e-07
-5.37691e-07 2.8265e-07 1.15182e-05
0.00105461 -1.2002e-05 3.32765e-09
-1.2002e-05 0.000113457 -2.23791e-07
3.32765e-09 -2.23791e-07 4.39063e-05
0.00101731 1.58834e-05 3.48303e-07
1.58834e-05 9.59127e-05 4.67095e-07
3.48303e-07 4.67095e-07 2.2034e-05
0.000902522 2.33876e-06 -3.36412e-07
2.33876e-06 3.68578e-05 1.0985e-06
-3.36412e-07 1.0985e-06 -3.80532e-05
0.000893444 1.86325e-05 -3.63399e-07
1.86325e-05 3.86696e-05 3.26845e-08
-3.63399e-07 3.26845e-08 -3.89599e-05
0.000957915 2.25516e-05 1.56969e-07
2.25516e-05 7.04883e-05 -3.93199e-09
1.56969e-07 -3.93199e-09 -9.4377e-06
0.00103809 4.61927e-05 -3.1355e-09
4.61927e-05 0.000129044 -8.84811e-07
-3.1355e-09 -8.84811e-07 4.12821e-05
0.000815819 4.21031e-05 1.07677e-06
4.21031e-05 2.20682e-06 -1.48208e-06
1.07677e-06 -1.48208e-06 -7.75113e-05
0.000962347 3.84701e-05 -1.76197e-08
3.84701e-05 7.65201e-05 -4.04354e-07
-1.76197e-08 -4.04354e-07 -6.31982e-07
0.00113935 3.00033e-05 4.00136e-07
3.00033e-05 0.000172947 1.77722e-07
4.00136e-07 1.77722e-07 9.56901e-05
-0.00273421 -0.000217357 2.10366e-05
-0.000217357 -0.00138985 2.52867e-05
2.10366e-05 2.52867e-05 -0.00133525
0.000512802 -0.000190354 6.21241e-06
-0.000190354 -3.29337e-05 1.21407e-06
6.21241e-06 1.21407e-06 0.000180805
0.00149163 -1.10893e-05 -1.07325e-05
-1.10893e-05 0.000127547 -8.5791e-06
-1.07325e-05 -8.5791e-06 4.0471e-05
-0.00098065 -0.00034771 -9.29407e-06
-0.00034771 -0.00157359 3.40919e-06
-9.29407e-06 3.40919e-06 -0.000674143
0.00431141 -0.000433928 -1.97824e-05
-0.000433928 0.00115575 -4.79333e-05
-1.97824e-05 -4.79333e-05 0.00127425
0.00462319 -6.51157e-05 5.33406e-05
-6.51157e-05 0.000689565 2.56997e-05
5.33406e-05 2.56997e-05 -0.000190667
0.00149365 -0.000102888 -5.63871e-05
-0.000102888 9.35474e-05 7.77999e-05
-5.63871e-05 7.77999e-05 -0.000513982
0.00256989 0.000129272 -4.66909e-05
0.000129272 0.000291306 -2.08448e-05
-4.66909e-05 -2.08448e-05 -8.28344e-05
0.00294803 -0.000434915 -5.79681e-06
-0.000434915 0.000933717 4.83604e-06
-5.79681e-06 4.83604e-06 0.00107245
0.0028167 -9.17721e-05 2.84979e-05
-9.17721e-05 5.48368e-05 3.87357e-05
2.84979e-05 3.87357e-05 -0.000983237
0.0016537 0.000201571 -8.32905e-05
0.000201571 -3.60018e-05 -8.85863e-05
-8.32905e-05 -8.85863e-05 -0.000591425
0.00340168 4.07271e-05 -7.40948e-05
4.07271e-05 0.000623824 -2.03337e-05
-7.40948e-05 -2.03337e-05 -0.000421613
0.00237417 0.000207578 1.03255e-05
0.000207578 0.000721376 -5.99809e-06
1.03255e-05 -5.99809e-06 0.00059363
0.000875141 8.7502e-05 -8.37631e-07
8.7502e-05 5.20677e-05 -2.74452e-07
-8.37631e-07 -2.74452e-07 -1.12737e-05
0.00128529 2.31558e-05 6.63683e-07
2.31558e-05 0.000240239 -1.87384e-06
6.63683e-07 -1.87384e-06 0.000172964
-0.000475781 1.0458e-05 -1.73979e-05
1.0458e-05 -0.000392517 -1.34218e-05
-1.73979e-05 -1.34218e-05 -0.000554282
0.00161044 7.35092e-05 -5.56555e-07
7.35092e-05 0.000492233 -4.19438e-06
-5.56555e-07 -4.19438e-06 0.000380939
0.000978149 0.000140903 8.56538e-06
0.000140903 0.000147136 3.54757e-07
8.56538e-06 3.54757e-07 2.84042e-05
0.000381689 0.000157025 2.91312e-05
0.000157025 -0.000393339 2.24597e-05
2.91312e-05 2.24597e-05 -0.000473529
-0.0018626 -1.66528e-05 2.49178e-05
-1.66528e-05 -0.00112164 -8.13662e-06
2.49178e-05 -8.13662e-06 -0.000925989
0.000336339 -2.05284e-06 -2.61624e-07
-2.05284e-06 0.00014278 8.39407e-07
-2.61624e-07 8.39407e-07 4.8309e-05
0.000548674 -4.79852e-07 2.42613e-07
-4.79852e-07 -0.000193034 -2.6693e-06
2.42613e-07 -2.6693e-06 -0.000276923
0.000216906 -0.000121343 -2.72733e-05
-0.000121343 -0.000372478 -2.57492e-06
-2.72733e-05 -2.57492e-06 -0.000282061
0.00266237 -0.000287145 -4.75459e-05
-0.000287145 0.000356798 -4.63827e-06
-4.75459e-05 -4.63827e-06 -0.000116024
0.0009433 6.13893e-05 -2.2877e-05
6.13893e-05 0.000467602 4.68784e-06
-2.2877e-05 4.68784e-06 0.000473081
0.00137463 0.000285627 1.65426e-05
0.000285627 -0.000237807 -4.16637e-05
1.65426e-05 -4.16637e-05 -0.00142313
0.00532515 0.000353329 -9.41988e-05
0.000353329 0.00258702 1.99366e-05
-9.41988e-05 1.99366e-05 0.00264309
0.00133215 -0.000196071 1.15193e-05
-0.000196071 1.9642e-05 -9.18163e-07
1.15193e-05 -9.18163e-07 7.33139e-05
-0.000811811 0.000164106 -2.30874e-05
0.000164106 -0.000463253 -5.03561e-07
-2.30874e-05 -5.03561e-07 -0.000479528
0.00277391 0.000227272 -5.18207e-06
0.000227272 0.000311168 1.06467e-05
-5.18207e-06 1.06467e-05 -0.000760615
0.00322874 -6.6207e-05 -1.87451e-06
-6.6207e-05 0.000324386 4.69412e-06
-1.87451e-06 4.69412e-06 9.12161e-05
0.00027766 -0.000117956 -2.69161e-06
-0.000117956 -0.00044699 -3.07415e-06
-2.69161e-06 -3.07415e-06 -0.000463022
0.00573775 9.51255e-05 2.28791e-05
9.51255e-05 0.00173373 1.37839e-06
2.28791e-05 1.37839e-06 0.000949127
0.00114319 6.45495e-05 2.37736e-06
6.45495e-05 -0.000504408 -8.10865e-06
2.37736e-06 -8.10865e-06 -0.000742307
0.000769943 -0.00013151 -2.98634e-06
-0.00013151 -0.000135237 -2.87352e-06
-2.98634e-06 -2.87352e-06 -0.000212656
0.00149118 -0.000161184 -4.21213e-07
-0.000161184 2.65474e-05 -1.98655e-07
-4.21213e-07 -1.98655e-07 -4.16142e-05
0.00154903 -0.000160127 -9.1186e-06
-0.000160127 -0.000111978 5.97208e-06
-9.1186e-06 5.97208e-06 -0.000168139
0.00110233 -0.000124988 -3.09758e-06
-0.000124988 3.29331e-05 -2.30908e-06
-3.09758e-06 -2.30908e-06 -0.000110048
0.00150048 -0.000138934 -2.93534e-06
-0.000138934 5.88628e-05 6.65057e-07
-2.93534e-06 6.65057e-07 -4.87627e-05
0.00176361 -0.00012817 -7.93462e-06
-0.00012817 4.74246e-05 1.52892e-06
-7.93462e-06 1.52892e-06 -2.18045e-05
0.00109118 -0.000115452 1.00477e-06
-0.000115452 -7.29946e-06 -4.87026e-07
1.00477e-06 -4.87026e-07 -0.000146433
0.0014532 -0.000116189 -9.3549e-07
-0.000116189 5.15451e-05 -6.94641e-08
-9.3549e-07 -6.94641e-08 -5.45498e-05
0.00185467 -0.000108277 -3.35081e-06
-0.000108277 0.000152384 -1.58789e-06
-3.35081e-06 -1.58789e-06 8.39092e-05
0.00117459 -0.000104809 1.66425e-06
-0.000104809 1.75987e-05 5.42643e-07
1.66425e-06 5.42643e-07 -0.000108266
0.0014169 -0.000101144 -6.82884e-08
-0.000101144 5.90999e-05 7.35935e-08
-6.82884e-08 7.35935e-08 -3.69551e-05
0.00150802 -9.25008e-05 -1.12095e-06
-9.25008e-05 6.30474e-05 -1.79995e-06
-1.12095e-06 -1.79995e-06 -8.90249e-06
0.00177258 -9.28971e-05 -6.09625e-07
-9.28971e-05 0.000244322 -1.72284e-06
-6.09625e-07 -1.72284e-06 0.000165984
0.00148689 -9.54509e-05 -9.18191e-07
-9.54509e-05 0.000125824 1.33846e-06
-9.18191e-07 1.33846e-06 3.57747e-05
0.00138977 -9.48532e-05 -9.98307e-07
-9.48532e-05 0.000107994 -3.26223e-06
-9.98307e-07 -3.26223e-06 1.18352e-05
0.00129786 -9.77688e-05 -2.29734e-06
-9.77688e-05 0.000125453 -1.22418e-07
-2.29734e-06 -1.22418e-07 1.89619e-05
0.00141236 -0.000104884 9.43463e-07
-0.000104884 0.000164136 -4.00039e-07
9.43463e-07 -4.00039e-07 5.11981e-05
0.00134847 -0.000100313 2.87483e-06
-0.000100313 0.000100479 2.38542e-06
2.87483e-06 2.38542e-06 -1.09781e-05
0.000810688 -7.90297e-05 -2.10278e-06
-7.90297e-05 -5.19865e-05 1.78817e-06
-2.10278e-06 1.78817e-06 -0.000151512
0.00103819 -9.04149e-05 1.2332e-07
-9.04149e-05 4.71557e-05 -5.28214e-08
1.2332e-07 -5.28214e-08 -6.11342e-05
0.00145543 -0.000109505 3.48801e-06
-0.000109505 0.000238652 -2.11252e-06
3.48801e-06 -2.11252e-06 0.000119544
0.000961167 -6.94258e-05 -1.38139e-06
-6.94258e-05 5.88251e-05 3.61251e-07
-1.38139e-06 3.61251e-07 -2.32495e-05
0.00107427 -8.56098e-05 9.75642e-08
-8.56098e-05 0.000110086 -2.06612e-07
9.75642e-08 -2.06612e-07 1.71981e-05
0.000783554 -7.85977e-05 9.47262e-07
-7.85977e-05 -4.65759e-05 -2.23467e-06
9.47262e-07 -2.23467e-06 -0.000150534
0.000851983 -1.01821e-05 -2.55805e-06
-1.01821e-05 2.48692e-05 2.14549e-06
-2.55805e-06 2.14549e-06 -3.8344e-05
0.00102001 -6.54815e-05 -3.58177e-08
-6.54815e-05 9.47416e-05 -1.27922e-08
-3.58177e-08 -1.27922e-08 1.55107e-05
0.00111059 -8.31576e-05 9.24348e-07
-8.31576e-05 0.000138471 -1.96553e-07
9.24348e-07 -1.96553e-07 4.9692e-05
0.000667882 4.50053e-05 -3.03915e-06
4.50053e-05 -5.96636e-05 4.07365e-06
-3.03915e-06 4.07365e-06 -8.12226e-05
0.000845801 7.30128e-06 -2.30854e-08
7.30128e-06 1.98832e-05 2.6351e-08
-2.30854e-08 2.6351e-08 -3.79099e-05
0.00100527 -3.44612e-05 1.56279e-06
-3.44612e-05 9.49983e-05 -3.07969e-07
1.56279e-06 -3.07969e-07 1.76176e-05
0.00242373 5.61138e-05 -2.8127e-05
5.61138e-05 0.000856901 3.28492e-06
-2.8127e-05 3.28492e-06 0.000868364
0.000736619 4.03735e-05 -5.69986e-08
4.03735e-05 -3.14925e-05 -7.19737e-08
-5.69986e-08 -7.19737e-08 -4.80532e-05
0.00080587 8.28108e-06 2.40998e-06
8.28108e-06 -6.40758e-06 -2.37757e-06
2.40998e-06 -2.37757e-06 -5.5189e-05
0.00164969 4.37674e-05 1.07483e-05
4.37674e-05 0.000444943 -8.50801e-07
1.07483e-05 -8.50801e-07 0.00045497
0.00078456 3.65099e-05 3.06111e-06
3.65099e-05 -1.44774e-05 -3.6153e-06
3.06111e-06 -3.6153e-06 -2.70509e-05
0.00225638 4.48075e-05 2.4369e-05
4.48075e-05 0.000756873 -3.50462e-06
2.4369e-05 -3.50462e-06 0.000772303
0.000994861 4.81428e-05 -7.88287e-08
4.81428e-05 9.30722e-05 7.44207e-07
-7.88287e-08 7.44207e-07 1.53268e-05
0.000983958 1.66216e-05 -6.2246e-08
1.66216e-05 8.18984e-05 4.89093e-07
-6.2246e-08 4.89093e-07 9.4292e-06
0.000925144 -1.91798e-05 -6.60789e-07
-1.91798e-05 5.10783e-05 -1.18955e-06
-6.60789e-07 -1.18955e-06 -1.5029e-05
0.000955781 1.85097e-05 3.69794e-07
1.85097e-05 6.2162e-05 5.78517e-07
3.69794e-07 5.78517e-07 -8.24321e-06
0.000911297 -2.36219e-05 7.11452e-08
-2.36219e-05 3.65152e-05 -2.3981e-08
7.11452e-08 -2.3981e-08 -2.45333e-05
0.000811728 -3.05566e-05 -1.42621e-06
-3.05566e-05 -7.89331e-06 -2.31037e-06
-1.42621e-06 -2.31037e-06 -4.92559e-05
0.000782287 -3.04044e-05 -2.74327e-06
-3.04044e-05 -2.50606e-05 -3.53317e-06
-2.74327e-06 -3.53317e-06 -3.49244e-05
0.000830638 -3.00395e-05 -1.83037e-07
-3.00395e-05 -3.60986e-06 -1.85906e-08
-1.83037e-07 -1.85906e-08 -4.1432e-05
0.00090739 -3.03075e-05 4.9238e-08
-3.03075e-05 3.14891e-05 1.32211e-06
4.9238e-08 1.32211e-06 -2.54037e-05
0.0022926 -3.96106e-05 -2.25784e-05
-3.96106e-05 0.000767203 -3.70959e-06
-2.25784e-05 -3.70959e-06 0.000783951
0.00077358 -2.65836e-05 -2.01264e-07
-2.65836e-05 -3.45669e-05 1.64937e-08
-2.01264e-07 1.64937e-08 -4.27458e-05
0.000847142 -1.66305e-05 1.49857e-06
-1.66305e-05 1.23132e-06 1.81997e-06
1.49857e-06 1.81997e-06 -3.40755e-05
0.00227233 -3.45755e-05 -1.06186e-06
-3.45755e-05 0.000749865 6.75169e-08
-1.06186e-06 6.75169e-08 0.00076811
0.000767804 -2.34514e-05 1.42543e-06
-2.34514e-05 -4.25803e-05 3.40047e-06
1.42543e-06 3.40047e-06 -4.89942e-05
0.00221589 -2.90733e-05 1.51536e-05
-2.90733e-05 0.000714202 3.85083e-06
1.51536e-05 3.85083e-06 0.000734108
0.000424639 7.26031e-05 9.54081e-05
7.26031e-05 7.58283e-05 2.00571e-05
9.54081e-05 2.00571e-05 -0.000130971
0.000756741 -7.68088e-05 5.41061e-06
-7.68088e-05 0.000313057 2.18618e-06
5.41061e-06 2.18618e-06 0.00026682
0.00106257 4.79603e-06 -2.59625e-06
4.79603e-06 5.15549e-05 -9.18057e-08
-2.59625e-06 -9.18057e-08 -2.30077e-05
0.000970035 2.13951e-05 6.31268e-07
2.13951e-05 7.9655e-05 4.61783e-07
6.31268e-07 4.61783e-07 9.83877e-07
0.000958769 2.97152e-05 2.79208e-07
2.97152e-05 7.67805e-05 2.92636e-07
2.79208e-07 2.92636e-07 -5.76978e-06
0.00100544 7.26114e-05 -8.29992e-08
7.26114e-05 0.000110806 -1.43603e-09
-8.29992e-08 -1.43603e-09 2.67294e-05
0.00110341 8.53618e-05 3.3463e-07
8.53618e-05 0.000157184 1.03261e-06
3.3463e-07 1.03261e-06 7.02075e-05
0.00102557 6.49816e-05 -1.24274e-06
6.49816e-05 0.000123704 5.72847e-07
-1.24274e-06 5.72847e-07 3.60068e-05
0.000939825 2.29123e-05 1.86168e-07
2.29123e-05 6.21498e-05 7.41114e-07
1.86168e-07 7.41114e-07 -1.57453e-05
0.000928829 2.27306e-05 5.24424e-07
2.27306e-05 5.52412e-05 6.91334e-07
5.24424e-07 6.91334e-07 -2.44525e-05
0.000872808 4.93832e-05 -4.7087e-07
4.93832e-05 4.50566e-05 -5.32016e-07
-4.7087e-07 -5.32016e-07 -4.19746e-05
0.000367248 5.58887e-05 -7.30092e-07
5.58887e-05 -0.000205368 1.26698e-06
-7.30092e-07 1.26698e-06 -0.000295592
0.000812406 7.09502e-05 -3.47314e-07
7.09502e-05 2.22169e-06 -1.16131e-06
-3.47314e-07 -1.16131e-06 -8.67325e-05
0.00188805 0.000145987 2.33686e-06
0.000145987 0.000462813 -3.77488e-06
2.33686e-06 -3.77488e-06 0.000355731
0.0009587 4.9445e-05 -1.69516e-06
4.9445e-05 8.91685e-05 -2.25757e-07
-1.69516e-06 -2.25757e-07 7.45388e-06
0.000924236 2.00545e-05 1.31872e-07
2.00545e-05 6.06608e-05 -9.20482e-08
1.31872e-07 -9.20482e-08 -1.50589e-05
0.00864111 -0.000146098 -2.16508e-05
-0.000146098 0.00255112 -1.06005e-05
-2.16508e-05 -1.06005e-05 0.00170734
-0.00101414 -0.000236243 -8.18398e-06
-0.000236243 -0.000571595 3.36251e-06
-8.18398e-06 3.36251e-06 -0.000655385
0.00182495 -0.000193974 -2.2861e-05
-0.000193974 0.000666524 -1.47455e-05
-2.2861e-05 -1.47455e-05 0.000873325
-0.00221499 -0.000267222 -2.84307e-05
-0.000267222 -0.00145181 -1.64587e-05
-2.84307e-05 -1.64587e-05 -0.00123956
0.00868057 -0.000336794 6.0755e-05
-0.000336794 0.00271012 3.38891e-05
6.0755e-05 3.38891e-05 0.00139395
0.00200572 0.000103239 2.38343e-05
0.000103239 0.000250837 1.49481e-05
2.38343e-05 1.49481e-05 2.80479e-05
0.0018969 0.000205137 -3.48998e-05
0.000205137 7.30634e-05 -2.39108e-05
-3.48998e-05 -2.39108e-05 -0.000354194
0.00592084 -0.000239335 3.87293e-05
-0.000239335 0.0015272 1.80296e-05
3.87293e-05 1.80296e-05 0.000639806
0.0020214 0.000122842 -2.41151e-05
0.000122842 -5.40906e-05 -4.44893e-05
-2.41151e-05 -4.44893e-05 -0.000421213
0.00222205 0.000238167 1.70094e-05
0.000238167 0.000427203 1.03956e-05
1.70094e-05 1.03956e-05 0.000280398
0.000861714 0.000135142 3.02719e-07
0.000135142 3.01051e-05 -4.6806e-06
3.02719e-07 -4.6806e-06 -0.00011208
0.000923108 6.68705e-05 -8.69129e-07
6.68705e-05 6.70712e-05 1.35215e-06
-8.69129e-07 1.35215e-06 8.09486e-06
0.0019557 0.000184873 -3.19172e-05
0.000184873 0.000602259 -1.89523e-05
-3.19172e-05 -1.89523e-05 0.000492625
0.000288238 0.00016702 -8.47752e-06
0.00016702 -0.000450904 1.2791e-05
-8.47752e-06 1.2791e-05 -0.000535618
0.000243045 9.4046e-07 -1.62532e-06
9.4046e-07 -0.000912489 -8.60027e-06
-1.62532e-06 -8.60027e-06 -0.00137794
0.0016024 1.28111e-05 -2.81687e-06
1.28111e-05 0.000548385 1.65669e-06
-2.81687e-06 1.65669e-06 0.000523994
-0.00107763 3.37054e-06 -1.15966e-05
3.37054e-06 -0.000631906 1.07148e-07
-1.15966e-05 1.07148e-07 -0.000759834
0.00296143 -0.000248523 -4.15083e-05
-0.000248523 0.000753269 7.29893e-06
-4.15083e-05 7.29893e-06 0.000816856
0.0025944 -9.20502e-05 8.13484e-06
-9.20502e-05 -0.000203332 -2.37094e-05
8.13484e-06 -2.37094e-05 -0.000663492
0.000238173 4.26124e-06 -9.02952e-05
4.26124e-06 -1.20524e-05 2.62093e-05
-9.02952e-05 2.62093e-05 -0.000191748
0.00681973 0.000384139 -2.72469e-05
0.000384139 0.00231266 1.55288e-05
-2.72469e-05 1.55288e-05 0.00129534
0.000844046 -0.000131331 3.1173e-06
-0.000131331 -0.000196309 -1.63167e-06
3.1173e-06 -1.63167e-06 -0.000188676
0.00499174 0.000192326 2.54369e-05
0.000192326 0.00133201 5.48568e-06
2.54369e-05 5.48568e-06 0.000644887
0.00297391 8.03468e-05 3.65371e-05
8.03468e-05 0.000130168 -3.44788e-06
3.65371e-05 -3.44788e-06 -0.000218762
0.00271504 -0.00012199 -6.83092e-06
-0.00012199 0.000654569 1.30481e-06
-6.83092e-06 1.30481e-06 0.000607305
0.0010055 4.37613e-05 -4.37409e-05
4.37613e-05 -1.75554e-05 -9.65173e-08
-4.37409e-05 -9.65173e-08 -0.000281167
0.00161776 -0.000164982 6.33507e-06
-0.000164982 0.000109749 -4.46907e-06
6.33507e-06 -4.46907e-06 3.74831e-05
0.00178166 -0.000163526 -2.0974e-06
-0.000163526 2.92146e-05 2.8061e-06
-2.0974e-06 2.8061e-06 -2.90219e-05
0.00214127 -0.000114647 -1.24177e-05
-0.000114647 0.000105572 1.46809e-06
-1.24177e-05 1.46809e-06 5.5767e-05
0.00119659 -0.000127963 2.90613e-06
-0.000127963 -9.46686e-05 2.02318e-07
2.90613e-06 2.02318e-07 -0.000200127
0.00169854 -0.000123417 3.99192e-07
-0.000123417 2.90819e-05 1.19075e-06
3.99192e-07 1.19075e-06 -4.0435e-05
0.00184243 -9.1095e-05 -3.24496e-06
-9.1095e-05 3.85576e-05 3.45178e-06
-3.24496e-06 3.45178e-06 -1.57068e-05
0.00114301 -0.000106245 2.80058e-06
-0.000106245 -0.000109384 2.04577e-06
2.80058e-06 2.04577e-06 -0.000213823
0.00158791 -0.000103582 -5.35639e-07
-0.000103582 2.45664e-05 1.79485e-06
-5.35639e-07 1.79485e-06 -4.52072e-05
0.00185011 -8.90093e-05 -1.76438e-08
-8.90093e-05 0.000143379 2.60471e-06
-1.76438e-08 2.60471e-06 8.48912e-05
0.00127126 -9.66835e-05 3.24065e-06
-9.66835e-05 -1.69359e-05 3.49547e-06
3.24065e-06 3.49547e-06 -0.000112024
0.00148973 -9.28745e-05 1.60311e-07
-9.28745e-05 5.55915e-05 1.22332e-06
1.60311e-07 1.22332e-06 -1.73086e-05
0.00160704 -8.43245e-05 2.55481e-07
-8.43245e-05 0.000108176 -5.35195e-07
2.55481e-07 -5.35195e-07 3.87149e-05
0.00153264 -8.82712e-05 -1.74812e-06
-8.82712e-05 0.000124664 1.11784e-06
-1.74812e-06 1.11784e-06 4.86705e-05
0.00170843 -9.11723e-05 1.34702e-06
-9.11723e-05 0.000231566 -2.38372e-06
1.34702e-06 -2.38372e-06 0.000146617
0.00146921 -9.30769e-05 1.89526e-06
-9.30769e-05 0.000117036 4.58161e-06
1.89526e-06 4.58161e-06 2.92337e-05
0.00139491 -9.40671e-05 2.04859e-07
-9.40671e-05 0.000110203 -5.53294e-07
2.04859e-07 -5.53294e-07 1.36788e-05
0.00137353 -9.17201e-05 -1.12707e-06
-9.17201e-05 0.000118582 -1.40976e-06
-1.12707e-06 -1.40976e-06 2.0921e-05
0.000930358 -8.19769e-05 -2.49382e-06
-8.19769e-05 -3.58658e-05 9.07879e-07
-2.49382e-06 9.07879e-07 -0.000136292
0.00128733 -9.66544e-05 5.50802e-08
-9.66544e-05 0.000120777 -1.54105e-07
5.50802e-08 -1.54105e-07 1.39343e-05
0.00152687 -0.000107666 3.05087e-06
-0.000107666 0.00022336 2.04071e-07
3.05087e-06 2.04071e-07 0.000110403
0.000997938 -7.63601e-05 -1.86152e-06
-7.63601e-05 6.23781e-05 9.53682e-07
-1.86152e-06 9.53682e-07 -2.46492e-05
0.00089699 -8.16376e-05 -5.45711e-07
-8.16376e-05 -6.04829e-06 6.35306e-07
-5.45711e-07 6.35306e-07 -0.00010475
0.0013035 -9.89736e-05 2.2949e-06
-9.89736e-05 0.000183278 -1.44223e-06
2.2949e-06 -1.44223e-06 7.61312e-05
0.000773099 -1.94017e-05 -2.40751e-06
-1.94017e-05 -1.68862e-05 1.55063e-06
-2.40751e-06 1.55063e-06 -8.27677e-05
0.00103398 -7.26783e-05 3.46272e-08
-7.26783e-05 9.44589e-05 -1.72218e-07
3.46272e-08 -1.72218e-07 1.21027e-05
0.00113211 -8.72888e-05 1.13448e-06
-8.72888e-05 0.000138169 -1.12181e-06
1.13448e-06 -1.12181e-06 4.50942e-05
0.000621051 5.06964e-05 -2.3948e-06
5.06964e-05 -7.75028e-05 4.40319e-06
-2.3948e-06 4.40319e-06 -0.000105227
0.00085701 -1.28512e-05 -2.63036e-08
-1.28512e-05 2.57104e-05 2.0157e-07
-2.63036e-08 2.0157e-07 -3.71672e-05
0.00106048 -6.31003e-05 1.62564e-06
-6.31003e-05 0.000113909 -1.75784e-07
1.62564e-06 -1.75784e-07 3.4997e-05
0.00258096 6.32246e-05 -3.05472e-05
6.32246e-05 0.000944696 3.21893e-06
-3.05472e-05 3.21893e-06 0.000953594
0.000699259 4.71935e-05 6.93528e-09
4.71935e-05 -4.20309e-05 -1.03237e-07
6.93528e-09 -1.03237e-07 -6.42591e-05
0.000815351 -1.17007e-05 2.46708e-06
-1.17007e-05 1.74363e-06 -2.10319e-06
2.46708e-06 -2.10319e-06 -5.50942e-05
0.00245479 5.64379e-05 3.65596e-07
5.64379e-05 0.00087353 7.92378e-08
3.65596e-07 7.92378e-08 0.000884665
0.000760897 4.24567e-05 2.61244e-06
4.24567e-05 -1.80346e-05 -3.92063e-06
2.61244e-06 -3.92063e-06 -3.51573e-05
0.00235809 5.03989e-05 2.74277e-05
5.03989e-05 0.00081715 -3.42688e-06
2.74277e-05 -3.42688e-06 0.000830341
0.00103244 7.46954e-05 -1.31763e-07
7.46954e-05 0.000113917 5.81733e-07
-1.31763e-07 5.81733e-07 2.98951e-05
0.000953636 5.32445e-05 3.19482e-07
5.32445e-05 7.29796e-05 1.43339e-07
3.19482e-07 1.43339e-07 -5.1986e-06
0.00085801 -9.75505e-06 -1.06852e-06
-9.75505e-06 1.98153e-05 -5.46481e-07
-1.06852e-06 -5.46481e-07 -5.2144e-05
0.000936999 8.99175e-06 4.6004e-07
8.99175e-06 5.67607e-05 9.22756e-07
4.6004e-07 9.22756e-07 -1.60166e-05
0.000895824 -2.20707e-05 -6.42411e-08
-2.20707e-05 3.58153e-05 1.47403e-07
-6.42411e-08 1.47403e-07 -3.08138e-05
0.000807092 -2.63742e-05 -1.69564e-06
-2.63742e-05 -5.46227e-06 -2.17157e-06
-1.69564e-06 -2.17157e-06 -5.23104e-05
0.000893212 -2.71263e-05 3.88687e-07
-2.71263e-05 2.71444e-05 1.45488e-06
3.88687e-07 1.45488e-06 -3.38253e-05
0.00082478 -3.03749e-05 -3.55703e-08
-3.03749e-05 -1.94902e-06 -9.65371e-08
-3.55703e-08 -9.65371e-08 -4.31106e-05
0.000773898 -3.54835e-05 -2.95234e-06
-3.54835e-05 -2.18274e-05 -3.65475e-06
-2.95234e-06 -3.65475e-06 -3.42308e-05
0.00230006 -4.46046e-05 -2.46541e-05
-4.46046e-05 0.000777962 -3.55557e-06
-2.46541e-05 -3.55557e-06 0.000793265
0.000768973 -2.97472e-05 -6.22869e-08
-2.97472e-05 -3.16257e-05 1.52669e-08
-6.22869e-08 1.52669e-08 -4.14265e-05
0.000832136 -2.64161e-05 1.47202e-06
-2.64161e-05 -3.31786e-06 2.01599e-06
1.47202e-06 2.01599e-06 -4.08169e-05
0.00230243 -3.97123e-05 -9.51974e-07
-3.97123e-05 0.000771577 7.68959e-08
-9.51974e-07 7.68959e-08 0.000788404
0.00075785 -2.61862e-05 1.88494e-06
-2.61862e-05 -4.25134e-05 3.49144e-06
1.88494e-06 3.49144e-06 -5.0637e-05
0.0022705 -3.45472e-05 1.84216e-05
-3.45472e-05 0.000748292 3.81384e-06
1.84216e-05 3.81384e-06 0.000766667
0.00662665 -8.26769e-06 3.71099e-05
-8.26769e-06 0.00194022 3.89866e-06
3.71099e-05 3.89866e-06 0.00127622
-0.00168396 -5.70218e-05 5.43154e-06
-5.70218e-05 -0.000917254 1.12227e-06
5.43154e-06 1.12227e-06 -0.000812369
-0.000448876 -4.91866e-05 -1.545e-05
-4.91866e-05 -0.000388464 -1.6334e-06
-1.545e-05 -1.6334e-06 -0.000495735
0.000944717 1.62168e-05 7.59623e-07
1.62168e-05 6.95478e-05 3.06952e-07
7.59623e-07 3.06952e-07 -1.29464e-05
0.000907196 6.66425e-05 1.95062e-07
6.66425e-05 6.2007e-05 -4.52722e-07
1.95062e-07 -4.52722e-07 -2.09639e-05
0.0010716 6.82834e-05 2.92188e-07
6.82834e-05 0.000147605 -5.85856e-08
2.92188e-07 -5.85856e-08 5.99423e-05
0.00103961 8.29222e-05 -5.81853e-07
8.29222e-05 0.000125396 -1.92567e-07
-5.81853e-07 -1.92567e-07 3.84836e-05
0.00113957 8.89773e-05 4.24536e-06
8.89773e-05 0.000174142 1.73085e-06
4.24536e-06 1.73085e-06 8.19044e-05
0.000734176 7.10293e-05 -1.22181e-06
7.10293e-05 -2.06666e-05 1.43525e-06
-1.22181e-06 1.43525e-06 -0.000108594
0.000691615 4.9958e-05 2.62402e-07
4.9958e-05 -4.67566e-05 5.17531e-09
2.62402e-07 5.17531e-09 -0.000133511
0.00069513 6.96521e-05 5.40654e-07
6.96521e-05 -4.08617e-05 9.30245e-10
5.40654e-07 9.30245e-10 -0.000134181
0.000800643 6.38227e-05 5.49809e-07
6.38227e-05 4.78407e-06 5.83569e-08
5.49809e-07 5.83569e-08 -8.58093e-05
0.00036534 7.03258e-05 1.01871e-06
7.03258e-05 -0.000244514 8.06216e-07
1.01871e-06 8.06216e-07 -0.000337234
0.00274848 0.000170972 9.10101e-07
0.000170972 0.000884446 -1.96422e-07
9.10101e-07 -1.96422e-07 0.000782298
0.00191236 0.000163284 1.74679e-06
0.000163284 0.000310914 -1.09763e-06
1.74679e-06 -1.09763e-06 0.00019018
0.00129129 0.000124334 1.16939e-06
0.000124334 0.00017309 -4.32732e-07
1.16939e-06 -4.32732e-07 6.96593e-05
0.00109875 4.75306e-05 -2.54649e-06
4.75306e-05 0.000172572 7.98737e-07
-2.54649e-06 7.98737e-07 8.96821e-05
0.00182186 -7.94809e-05 -1.59788e-05
-7.94809e-05 -0.000255235 -1.46279e-05
-1.59788e-05 -1.46279e-05 -0.000445456
0.00426872 -0.000144568 6.03643e-07
-0.000144568 0.00080997 -5.88311e-07
6.03643e-07 -5.88311e-07 4.7423e-05
0.00349642 -0.000334508 -3.59163e-05
-0.000334508 0.00159017 -2.29962e-05
-3.59163e-05 -2.29962e-05 0.00162419
0.00591528 -0.000126359 0.00014883
-0.000126359 0.00156972 4.3766e-05
0.00014883 4.3766e-05 0.000555203
0.00313863 0.000231213 4.17456e-05
0.000231213 0.000727176 4.8467e-05
4.17456e-05 4.8467e-05 0.000505705
0.00156284 7.55914e-05 -3.29226e-05
7.55914e-05 -5.77532e-05 -1.11091e-05
-3.29226e-05 -1.11091e-05 -0.000258132
0.00146946 0.000138319 2.22969e-05
0.000138319 -8.09367e-05 1.50362e-05
2.22969e-05 1.50362e-05 -0.000111366
0.00191363 0.000229646 -1.26201e-06
0.000229646 0.000278007 5.48722e-06
-1.26201e-06 5.48722e-06 0.000150206
0.000193699 9.96149e-05 -2.29392e-06
9.96149e-05 -0.000290322 3.15412e-06
-2.29392e-06 3.15412e-06 -0.000429407
0.00180276 0.000239844 -6.32051e-05
0.000239844 0.000218197 -5.03321e-05
-6.32051e-05 -5.03321e-05 0.000161779
0.00285292 -4.10975e-05 -0.000126074
-4.10975e-05 0.000743969 -3.45256e-06
-0.000126074 -3.45256e-06 0.000406862
0.00637693 4.06888e-05 9.22667e-06
4.06888e-05 0.00212168 -3.37941e-06
9.22667e-06 -3.37941e-06 0.00154018
-0.00383164 -4.06867e-05 -2.0854e-05
-4.06867e-05 -0.00225159 6.11007e-06
-2.0854e-05 6.11007e-06 -0.00210485
0.00160213 -0.000157066 1.1345e-06
-0.000157066 0.000161532 6.74252e-06
1.1345e-06 6.74252e-06 0.000175741
0.00346899 6.93423e-05 5.09929e-05
6.93423e-05 0.000417247 2.77652e-06
5.09929e-05 2.77652e-06 0.000143112
0.00111661 -4.8024e-05 3.91458e-05
-4.8024e-05 -0.000353247 6.57816e-06
3.91458e-05 6.57816e-06 -0.000930126
0.0017956 -0.000113211 1.90627e-06
-0.000113211 0.000203218 2.25064e-06
1.90627e-06 2.25064e-06 0.000173954
0.00146537 9.64082e-05 -3.88599e-07
9.64082e-05 8.74202e-05 -4.2009e-06
-3.88599e-07 -4.2009e-06 -0.00014449
0.00303456 -3.13841e-05 1.02185e-06
-3.13841e-05 0.000693162 -1.1491e-05
1.02185e-06 -1.1491e-05 0.000644415
0.00126974 6.69069e-05 1.35738e-05
6.69069e-05 -9.21582e-05 -3.63059e-06
1.35738e-05 -3.63059e-06 -0.000185968
0.00200821 -0.00016899 6.39867e-06
-0.00016899 0.000170427 -2.01916e-06
6.39867e-06 -2.01916e-06 0.000103992
0.00200911 -0.000109337 -2.49796e-07
-0.000109337 5.33202e-05 -2.25505e-06
-2.49796e-07 -2.25505e-06 2.543e-06
0.00205434 -3.1264e-05 9.96898e-08
-3.1264e-05 0.000137884 -1.27758e-06
9.96898e-08 -1.27758e-06 7.21855e-05
0.00162476 -0.000119875 9.52758e-06
-0.000119875 3.10942e-06 9.57645e-08
9.52758e-06 9.57645e-08 -6.75208e-05
0.00189428 -9.19674e-05 2.6985e-06
-9.19674e-05 8.00344e-05 1.74049e-07
2.6985e-06 1.74049e-07 2.18619e-05
0.00196102 -5.53646e-05 -1.52582e-06
-5.53646e-05 0.000150659 2.35569e-06
-1.52582e-06 2.35569e-06 7.35754e-05
0.00132484 -9.89453e-05 5.3558e-06
-9.89453e-05 -9.96114e-05 2.55638e-06
5.3558e-06 2.55638e-06 -0.000171085
0.00169869 -8.71928e-05 1.55406e-06
-8.71928e-05 8.03404e-05 1.01797e-06
1.55406e-06 1.01797e-06 1.9286e-05
0.00181272 -7.09825e-05 -3.62996e-07
-7.09825e-05 0.000153293 1.26866e-06
-3.62996e-07 1.26866e-06 7.81382e-05
0.0014782 -9.31852e-05 2.26476e-06
-9.31852e-05 5.16321e-05 3.45758e-06
2.26476e-06 3.45758e-06 -2.22666e-05
0.00149184 -8.45106e-05 -1.02314e-08
-8.45106e-05 5.84418e-05 -2.2735e-07
-1.02314e-08 -2.2735e-07 -1.13506e-05
0.00147627 -8.03055e-05 1.96289e-06
-8.03055e-05 7.36987e-05 -1.73796e-07
1.96289e-06 -1.73796e-07 -9.93141e-06
0.00130077 -8.37532e-05 -3.20604e-07
-8.37532e-05 9.04781e-06 3.69748e-06
-3.20604e-07 3.69748e-06 -6.46268e-05
0.00153741 -8.66847e-05 -1.03519e-06
-8.66847e-05 0.000144389 -8.37407e-07
-1.03519e-06 -8.37407e-07 6.08494e-05
0.00166261 -8.91117e-05 1.16665e-07
-8.91117e-05 0.000227664 -1.3053e-06
1.16665e-07 -1.3053e-06 0.000136096
0.00139798 -9.32367e-05 1.3441e-06
-9.32367e-05 0.00011126 1.97124e-06
1.3441e-06 1.97124e-06 1.43877e-05
0.00137342 -9.09302e-05 2.31902e-07
-9.09302e-05 0.000118959 -3.46346e-07
2.31902e-07 -3.46346e-07 2.09137e-05
0.00142843 -9.04706e-05 -1.47845e-06
-9.04706e-05 0.000171494 -4.57743e-07
-1.47845e-06 -4.57743e-07 7.57553e-05
0.000775627 -6.99651e-05 -3.07914e-06
-6.99651e-05 -8.49034e-05 1.29415e-06
-3.07914e-06 1.29415e-06 -0.000175368
0.00101878 -8.41313e-05 -4.34843e-07
-8.41313e-05 1.21252e-05 4.20751e-07
-4.34843e-07 4.20751e-07 -8.75841e-05
0.00127596 -9.55244e-05 2.09544e-06
-9.55244e-05 0.000115681 -3.90437e-07
2.09544e-06 -3.90437e-07 8.4854e-06
0.000828216 -4.12239e-05 -2.84399e-06
-4.12239e-05 5.49341e-06 1.50322e-06
-2.84399e-06 1.50322e-06 -6.39603e-05
0.00104622 -7.77203e-05 9.56646e-08
-7.77203e-05 8.57423e-05 1.21489e-08
9.56646e-08 1.21489e-08 -1.31073e-06
0.00100203 -8.49446e-05 8.19232e-07
-8.49446e-05 4.91507e-05 -4.62901e-07
8.19232e-07 -4.62901e-07 -4.87478e-05
0.000644464 5.3307e-05 -2.6523e-06
5.3307e-05 -5.70586e-05 4.22669e-06
-2.6523e-06 4.22669e-06 -9.14318e-05
0.000866178 -2.3043e-05 4.55666e-08
-2.3043e-05 3.05333e-05 6.40074e-08
4.55666e-08 6.40074e-08 -3.58347e-05
0.00110049 -7.54936e-05 1.84249e-06
-7.54936e-05 0.000127003 -8.54629e-07
1.84249e-06 -8.54629e-07 4.4384e-05
0.002766 7.07479e-05 -3.37658e-05
7.07479e-05 0.00104564 3.20216e-06
-3.37658e-05 3.20216e-06 0.00105175
0.000682712 5.10642e-05 3.18074e-07
5.10642e-05 -4.4972e-05 -1.96847e-08
3.18074e-07 -1.96847e-08 -7.30441e-05
0.000866976 -1.51554e-05 2.82436e-06
-1.51554e-05 2.90241e-05 -1.75169e-06
2.82436e-06 -1.75169e-06 -3.35337e-05
0.00261268 6.32506e-05 3.75161e-07
6.32506e-05 0.000961283 9.47901e-08
3.75161e-07 9.47901e-08 0.000969843
0.00073412 4.87681e-05 2.07866e-06
4.87681e-05 -2.29698e-05 -4.21048e-06
2.07866e-06 -4.21048e-06 -4.57585e-05
0.00248503 5.64855e-05 3.03888e-05
5.64855e-05 0.000889652 -3.38109e-06
3.03888e-05 -3.38109e-06 0.000900507
0.00108689 8.2213e-05 -4.65997e-07
8.2213e-05 0.000139369 -3.70265e-07
-4.65997e-07 -3.70265e-07 5.0452e-05
0.00107591 7.6726e-05 2.02992e-07
7.6726e-05 0.0001363 1.19611e-07
2.02992e-07 1.19611e-07 5.25368e-05
0.000959315 3.4107e-05 -1.30138e-06
3.4107e-05 7.33555e-05 -1.17071e-07
-1.30138e-06 -1.17071e-07 -3.0645e-06
0.000923343 6.62403e-05 5.02571e-07
6.62403e-05 6.00061e-05 -1.195e-07
5.02571e-07 -1.195e-07 -1.95969e-05
0.000861101 -2.98847e-07 -3.86153e-07
-2.98847e-07 2.2245e-05 -4.24247e-08
-3.86153e-07 -4.24247e-08 -5.05699e-05
0.000803508 -6.47518e-06 -2.42228e-06
-6.47518e-06 -2.78713e-06 -1.61507e-06
-2.42228e-06 -1.61507e-06 -5.72173e-05
0.000873733 -2.78037e-05 4.48205e-07
-2.78037e-05 2.47308e-05 1.2293e-06
4.48205e-07 1.2293e-06 -4.2852e-05
0.000818634 -2.79068e-05 4.467e-08
-2.79068e-05 7.17271e-07 -1.57498e-07
4.467e-08 -1.57498e-07 -4.62002e-05
0.000759284 -4.22944e-05 -2.76678e-06
-4.22944e-05 -2.02488e-05 -3.78478e-06
-2.76678e-06 -3.78478e-06 -3.67046e-05
0.000838191 -3.07441e-05 1.38569e-06
-3.07441e-05 4.28512e-06 2.24422e-06
1.38569e-06 2.24422e-06 -3.67171e-05
0.000756394 -3.40958e-05 6.63485e-09
-3.40958e-05 -3.11784e-05 -2.41073e-08
6.63485e-09 -2.41073e-08 -4.33084e-05
0.00234697 -4.99263e-05 -2.69328e-05
-4.99263e-05 0.000809952 -3.40992e-06
-2.69328e-05 -3.40992e-06 0.000823395
0.00231846 -4.47731e-05 -5.58246e-07
-4.47731e-05 0.000786543 7.68052e-08
-5.58246e-07 7.68052e-08 0.000801925
0.000754705 -2.91019e-05 2.58295e-06
-2.91019e-05 -3.87715e-05 3.52259e-06
2.58295e-06 3.52259e-06 -4.84969e-05
0.00230941 -3.98565e-05 2.12006e-05
-3.98565e-05 0.000774553 3.72555e-06
2.12006e-05 3.72555e-06 0.00079145
0.000872753 -5.13465e-05 -5.94903e-05
-5.13465e-05 -0.000405876 -3.60752e-06
-5.94903e-05 -3.60752e-06 -0.00061387
0.00164028 -0.000101063 -2.86644e-06
-0.000101063 -0.00035584 -2.63127e-06
-2.86644e-06 -2.63127e-06 -0.000933211
0.00325524 -0.000260616 -4.07699e-05
-0.000260616 0.00129681 -6.98253e-06
-4.07699e-05 -6.98253e-06 0.00139001
0.00117654 9.39807e-05 4.72725e-06
9.39807e-05 0.000157663 1.72621e-06
4.72725e-06 1.72621e-06 6.12323e-05
0.00111983 6.97348e-05 6.75518e-07
6.97348e-05 0.000172671 -7.81594e-07
6.75518e-07 -7.81594e-07 8.51808e-05
0.000970144 8.01711e-05 -2.41841e-07
8.01711e-05 9.08183e-05 -7.40773e-07
-2.41841e-07 -7.40773e-07 3.99291e-06
0.000937016 7.9546e-05 1.09396e-07
7.9546e-05 8.29714e-05 2.7405e-07
1.09396e-07 2.7405e-07 -6.01021e-06
0.00103901 8.53443e-05 -1.07084e-07
8.53443e-05 0.000125456 -5.50431e-07
-1.07084e-07 -5.50431e-07 3.27435e-05
0.000700111 7.68378e-05 -6.4094e-07
7.68378e-05 -5.98685e-05 1.70403e-06
-6.4094e-07 1.70403e-06 -0.000143329
0.00108518 8.64847e-05 1.163e-06
8.64847e-05 0.000156322 -1.57166e-06
1.163e-06 -1.57166e-06 5.94936e-05
0.00100943 6.35997e-05 -6.60503e-07
6.35997e-05 0.00011669 8.83401e-07
-6.60503e-07 8.83401e-07 2.4065e-05
0.000979509 9.44653e-05 7.62617e-08
9.44653e-05 6.30798e-05 -1.25883e-07
7.62617e-08 -1.25883e-07 -2.93656e-05
0.00203877 0.000145333 4.42617e-07
0.000145333 0.000541014 1.71749e-06
4.42617e-07 1.71749e-06 0.000441151
0.00154833 0.000136853 1.21975e-06
0.000136853 0.000172268 -9.28592e-07
1.21975e-06 -9.28592e-07 6.14798e-05
0.00191113 0.000130431 2.07808e-06
0.000130431 0.000113897 5.08934e-06
2.07808e-06 5.08934e-06 -2.77208e-06
0.00136576 0.000143586 1.68793e-06
0.000143586 3.92778e-05 4.75492e-07
1.68793e-06 4.75492e-07 -8.05907e-05
0.000770269 0.000103142 -1.21389e-06
0.000103142 -8.53791e-05 3.18752e-06
-1.21389e-06 3.18752e-06 -0.000184915
0.000807422 7.52797e-06 -1.04768e-05
7.52797e-06 -0.000316797 2.82246e-06
-1.04768e-05 2.82246e-06 -0.000329336
0.0033494 -6.91222e-05 -7.54498e-06
-6.91222e-05 0.00029061 6.19447e-07
-7.54498e-06 6.19447e-07 5.03698e-05
0.00127333 -0.000170393 3.10157e-06
-0.000170393 -0.000532281 -1.15883e-06
3.10157e-06 -1.15883e-06 -0.00120308
0.00276837 0.00016274 3.85744e-05
0.00016274 0.00021641 2.24916e-05
3.85744e-05 2.24916e-05 -0.000107318
0.00125852 0.000124283 -2.69309e-06
0.000124283 -0.000153483 1.04857e-06
-2.69309e-06 1.04857e-06 -0.000191578
0.000328708 0.000165647 -1.4651e-05
0.000165647 -0.000439976 -9.69334e-06
-1.4651e-05 -9.69334e-06 -0.000575912
0.00269255 -5.32807e-05 9.79344e-06
-5.32807e-05 0.000657378 -7.24175e-06
9.79344e-06 -7.24175e-06 0.000578239
0.000978248 -1.16461e-05 -2.20365e-05
-1.16461e-05 -8.41069e-06 2.69241e-06
-2.20365e-05 2.69241e-06 -0.000296234
0.000714361 0.000166744 5.04635e-05
0.000166744 -0.000734686 -3.75194e-06
5.04635e-05 -3.75194e-06 -0.00128167
0.000335976 -7.69924e-05 -5.47365e-06
-7.69924e-05 -0.000526083 1.15998e-05
-5.47365e-06 1.15998e-05 -0.000528113
0.00350708 0.000150862 4.11847e-05
0.000150862 0.000914002 -7.17371e-06
4.11847e-05 -7.17371e-06 0.000642632
0.00176996 -2.00146e-05 5.54186e-06
-2.00146e-05 4.58396e-05 -2.03449e-06
5.54186e-06 -2.03449e-06 1.06088e-06
0.00210662 8.37898e-05 1.81433e-06
8.37898e-05 0.000341339 -4.54215e-06
1.81433e-06 -4.54215e-06 0.000253402
0.00104672 3.92605e-05 7.81052e-07
3.92605e-05 -0.000336341 -3.60248e-06
7.81052e-07 -3.60248e-06 -0.000425233
0.00234361 6.06184e-05 -2.23977e-06
6.06184e-05 0.00033662 -6.02364e-06
-2.23977e-06 -6.02364e-06 0.000241756
0.00183342 -0.000102468 6.89032e-06
-0.000102468 -2.03763e-05 -2.20485e-06
6.89032e-06 -2.20485e-06 -6.91468e-05
0.00197339 -3.03158e-05 4.47515e-06
-3.03158e-05 9.45607e-05 6.95215e-08
4.47515e-06 6.95215e-08 2.4764e-05
0.00180758 -2.84047e-06 -5.86393e-07
-2.84047e-06 0.000105429 -2.58716e-06
-5.86393e-07 -2.58716e-06 7.94509e-06
0.00203028 -9.46117e-05 3.37576e-06
-9.46117e-05 0.000161084 3.6232e-07
3.37576e-06 3.6232e-07 9.89209e-05
0.0019127 -5.67907e-05 -2.07444e-07
-5.67907e-05 0.000127236 -5.54227e-07
-2.07444e-07 -5.54227e-07 4.89002e-05
0.00185587 -3.73521e-05 -1.26415e-06
-3.73521e-05 0.000151099 3.79449e-07
-1.26415e-06 3.79449e-07 5.57198e-05
0.00154256 -8.52541e-05 2.01441e-06
-8.52541e-05 1.35948e-05 5.91303e-08
2.01441e-06 5.91303e-08 -4.97478e-05
0.00172564 -7.22998e-05 -4.97765e-07
-7.22998e-05 0.00012215 -1.69805e-06
-4.97765e-07 -1.69805e-06 4.83971e-05
0.00149213 -6.44716e-05 3.42459e-07
-6.44716e-05 3.2016e-05 1.64929e-06
3.42459e-07 1.64929e-06 -5.79828e-05
0.00137383 -8.46017e-05 -7.82046e-07
-8.46017e-05 7.09195e-06 -5.91043e-07
-7.82046e-07 -5.91043e-07 -6.29826e-05
0.00145477 -7.94754e-05 3.21315e-07
-7.94754e-05 6.37036e-05 -8.33416e-07
3.21315e-07 -8.33416e-07 -1.99577e-05
0.00143719 -7.95155e-05 3.3439e-07
-7.95155e-05 7.58364e-05 -1.01679e-07
3.3439e-07 -1.01679e-07 -1.66578e-05
0.00136626 -8.22485e-05 -2.03034e-06
-8.22485e-05 5.71463e-05 1.90311e-06
-2.03034e-06 1.90311e-06 -2.49878e-05
0.00150431 -8.43473e-05 -2.59572e-07
-8.43473e-05 0.000146355 -5.68537e-07
-2.59572e-07 -5.68537e-07 5.55113e-05
0.00140378 -8.09116e-05 -1.30102e-06
-8.09116e-05 0.000120999 -4.57731e-07
-1.30102e-06 -4.57731e-07 2.73525e-05
0.0013738 -9.01536e-05 1.53155e-06
-9.01536e-05 0.000119531 6.67698e-07
1.53155e-06 6.67698e-07 2.11079e-05
0.00124647 -8.49206e-05 3.43957e-07
-8.49206e-05 7.96798e-05 -1.99536e-07
3.43957e-07 -1.99536e-07 -1.65689e-05
0.00125365 -8.01858e-05 -2.84862e-06
-8.01858e-05 0.000117566 5.53275e-07
-2.84862e-06 5.53275e-07 2.76567e-05
0.000899421 -5.34931e-05 -3.433e-06
-5.34931e-05 2.02729e-05 1.53475e-06
-3.433e-06 1.53475e-06 -5.26457e-05
0.000885959 -7.32773e-05 -7.11539e-07
-7.32773e-05 -2.66669e-05 5.08085e-07
-7.11539e-07 5.08085e-07 -0.000116342
0.00108905 -8.55649e-05 1.4263e-06
-8.55649e-05 5.10601e-05 -1.5236e-07
1.4263e-06 -1.5236e-07 -4.78983e-05
0.000655879 3.95391e-06 -5.25528e-06
3.95391e-06 -4.8272e-05 4.15613e-06
-5.25528e-06 4.15613e-06 -8.61983e-05
0.000882343 -4.2672e-05 1.30503e-07
-4.2672e-05 3.31099e-05 1.52025e-08
1.30503e-07 1.52025e-08 -3.68448e-05
0.00109352 -7.91849e-05 2.17058e-06
-7.91849e-05 0.000108425 -9.91482e-07
2.17058e-06 -9.91482e-07 2.13574e-05
0.00286821 7.71033e-05 -3.68583e-05
7.71033e-05 0.00110763 3.15197e-06
-3.68583e-05 3.15197e-06 0.0011105
0.000690342 2.46476e-05 -4.88078e-08
2.46476e-05 -3.90515e-05 -1.16602e-07
-4.88078e-08 -1.16602e-07 -7.09992e-05
0.000918462 -2.76198e-05 3.0882e-06
-2.76198e-05 5.6509e-05 -1.77739e-06
3.0882e-06 -1.77739e-06 -9.93383e-06
0.00274343 6.95397e-05 6.56382e-07
6.95397e-05 0.00103514 1.21733e-07
6.56382e-07 1.21733e-07 0.00104096
0.000722259 3.78996e-05 4.20638e-06
3.78996e-05 -2.56566e-05 -4.03258e-06
4.20638e-06 -4.03258e-06 -5.28646e-05
0.00262968 6.27559e-05 3.35318e-05
6.27559e-05 0.00097033 -3.44595e-06
3.35318e-05 -3.44595e-06 0.000978622
0.000892577 8.0394e-05 -4.13716e-07
8.0394e-05 2.03083e-05 -3.46288e-07
-4.13716e-07 -3.46288e-07 -7.35352e-05
0.00101663 7.90736e-05 -1.35548e-08
7.90736e-05 0.000103326 -4.21773e-07
-1.35548e-08 -4.21773e-07 1.48683e-05
0.00107614 6.77516e-05 -1.00336e-06
6.77516e-05 0.000128342 1.92983e-09
-1.00336e-06 1.92983e-09 4.81897e-05
0.00111363 7.86466e-05 1.56358e-07
7.86466e-05 0.000155672 -6.83969e-07
1.56358e-07 -6.83969e-07 7.21785e-05
0.000952002 3.68225e-05 -5.70116e-07
3.68225e-05 6.98655e-05 -2.18546e-07
-5.70116e-07 -2.18546e-07 -6.03891e-06
0.000830889 3.11802e-06 -2.41232e-06
3.11802e-06 1.48679e-05 -1.22739e-06
-2.41232e-06 -1.22739e-06 -4.59392e-05
0.000860693 1.06504e-05 4.39658e-07
1.06504e-05 2.21893e-05 8.26038e-08
4.39658e-07 8.26038e-08 -5.09239e-05
0.000822518 -2.33326e-05 -8.42072e-08
-2.33326e-05 7.48478e-06 1.58762e-08
-8.42072e-08 1.58762e-08 -4.664e-05
0.000731826 -4.92281e-05 -2.37818e-06
-4.92281e-05 -2.4327e-05 -3.80524e-06
-2.37818e-06 -3.80524e-06 -4.61232e-05
0.000829555 -3.01292e-05 1.59709e-06
-3.01292e-05 6.72989e-06 2.29227e-06
1.59709e-06 2.29227e-06 -4.02841e-05
0.000737712 -4.01418e-05 -5.36471e-09
-4.01418e-05 -3.22608e-05 -5.23083e-08
-5.36471e-09 -5.23083e-08 -4.8177e-05
0.00243732 -5.57433e-05 -2.95277e-05
-5.57433e-05 0.000864316 -3.27118e-06
-2.95277e-05 -3.27118e-06 0.000875516
0.000745952 -3.30052e-05 3.07819e-06
-3.30052e-05 -3.6916e-05 3.55916e-06
3.07819e-06 3.55916e-06 -4.87976e-05
0.00234554 -5.00023e-05 -3.85499e-07
-5.00023e-05 0.000808061 7.0514e-08
-3.85499e-07 7.0514e-08 0.000821723
0.00233263 -4.48314e-05 2.39219e-05
-4.48314e-05 0.000793089 3.60205e-06
2.39219e-05 3.60205e-06 0.000808549
0.000560468 -4.40145e-05 -4.82997e-06
-4.40145e-05 -0.000426707 1.51996e-06
-4.82997e-06 1.51996e-06 -0.000457799
0.00293473 -3.64167e-05 -1.55806e-06
-3.64167e-05 0.000356453 9.30888e-06
-1.55806e-06 9.30888e-06 6.7769e-05
0.00537199 5.98875e-05 -7.04725e-05
5.98875e-05 0.00157694 -8.45034e-06
-7.04725e-05 -8.45034e-06 0.000949351
0.000818244 7.86186e-05 2.44059e-06
7.86186e-05 -4.20459e-05 1.61073e-06
2.44059e-06 1.61073e-06 -0.000130538
0.00137817 0.000105569 3.38731e-06
0.000105569 0.000177589 -7.54211e-07
3.38731e-06 -7.54211e-07 7.52885e-05
0.000833677 8.18645e-05 1.82429e-07
8.18645e-05 -7.62616e-06 -5.2805e-07
1.82429e-07 -5.2805e-07 -0.000103066
0.0011129 8.69433e-05 -1.51696e-07
8.69433e-05 0.000171882 -1.86866e-06
-1.51696e-07 -1.86866e-06 8.20747e-05
0.000968212 8.29086e-05 -5.74249e-07
8.29086e-05 9.15938e-05 -1.13089e-06
-5.74249e-07 -1.13089e-06 -1.67265e-06
0.00099139 8.96203e-05 1.69406e-06
8.96203e-05 7.81736e-05 1.04638e-06
1.69406e-06 1.04638e-06 -7.01279e-06
0.00162142 0.000128337 -2.05184e-06
0.000128337 0.00022128 -2.54352e-06
-2.05184e-06 -2.54352e-06 0.000116918
0.00147515 0.00011382 1.36332e-06
0.00011382 0.000312963 -4.53741e-07
1.36332e-06 -4.53741e-07 0.00022088
0.000927249 0.000104955 -1.7149e-06
0.000104955 7.02959e-07 4.40501e-06
-1.7149e-06 4.40501e-06 -9.64946e-05
0.00151513 0.000135535 -1.18162e-06
0.000135535 0.000158841 -6.84842e-08
-1.18162e-06 -6.84842e-08 4.91944e-05
0.00148081 0.00011398 -2.3834e-06
0.00011398 -3.57488e-05 3.22261e-07
-2.3834e-06 3.22261e-07 -0.00015232
0.0016973 2.9465e-05 3.52767e-06
2.9465e-05 -5.2653e-05 4.42679e-06
3.52767e-06 4.42679e-06 -0.000138222
0.0020915 0.000133583 2.73828e-06
0.000133583 0.00020886 1.45393e-06
2.73828e-06 1.45393e-06 9.25903e-05
0.00122359 0.000136203 -2.54467e-06
0.000136203 -3.29698e-05 1.82136e-06
-2.54467e-06 1.82136e-06 -0.000151592
0.00130463 5.38411e-06 1.22485e-06
5.38411e-06 -7.02748e-05 -4.4988e-07
1.22485e-06 -4.4988e-07 -8.52279e-05
0.00420682 -0.000130939 4.70119e-05
-0.000130939 0.000595972 2.26464e-05
4.70119e-05 2.26464e-05 0.000304818
0.00193234 0.000127834 -2.34889e-07
0.000127834 0.000206502 -6.87529e-06
-2.34889e-07 -6.87529e-06 0.000160373
0.00187548 -1.15045e-06 2.02971e-06
-1.15045e-06 0.000199309 -4.81984e-06
2.02971e-06 -4.81984e-06 0.000139775
0.00160391 -3.8003e-05 -5.9222e-07
-3.8003e-05 0.00013888 7.31743e-07
-5.9222e-07 7.31743e-07 4.9084e-05
0.00083464 6.4409e-05 5.9022e-05
6.4409e-05 -0.000287254 1.51455e-06
5.9022e-05 1.51455e-06 -0.000636648
0.000684804 -2.03458e-05 -1.78942e-06
-2.03458e-05 -0.000499646 1.54532e-06
-1.78942e-06 1.54532e-06 -0.000546052
0.00262512 9.00458e-05 -2.15267e-05
9.00458e-05 0.000623396 4.33127e-06
-2.15267e-05 4.33127e-06 0.000543912
0.00113958 4.05239e-05 -5.97412e-07
4.05239e-05 -0.00029915 4.98144e-06
-5.97412e-07 4.98144e-06 -0.00038182
0.00217507 5.60591e-05 2.02154e-06
5.60591e-05 0.000237149 2.87955e-07
2.02154e-06 2.87955e-07 0.00014522
0.00178432 2.62311e-05 -1.17412e-06
2.62311e-05 8.51324e-05 2.21166e-07
-1.17412e-06 2.21166e-07 -5.91048e-06
0.00170417 3.43401e-05 6.69136e-07
3.43401e-05 2.69296e-05 -3.05862e-06
6.69136e-07 -3.05862e-06 -4.92982e-05
0.00190572 -2.79842e-05 7.22726e-06
-2.79842e-05 5.45783e-05 2.21797e-06
7.22726e-06 2.21797e-06 -1.87504e-05
0.00185253 -2.39769e-06 -2.21219e-06
-2.39769e-06 0.000116297 2.55833e-07
-2.21219e-06 2.55833e-07 2.07293e-05
0.00163544 2.55977e-06 -3.36298e-07
2.55977e-06 3.92619e-05 -3.41873e-06
-3.36298e-07 -3.41873e-06 -5.99995e-05
0.00193442 -5.83489e-05 -1.09036e-06
-5.83489e-05 0.000141879 -1.86496e-06
-1.09036e-06 -1.86496e-06 6.24594e-05
0.0018319 -3.75498e-05 6.25695e-08
-3.75498e-05 0.000141827 -6.12541e-07
6.25695e-08 -6.12541e-07 4.90429e-05
0.00157158 -2.83762e-05 -5.11219e-07
-2.83762e-05 3.8119e-05 1.64299e-07
-5.11219e-07 1.64299e-07 -5.85647e-05
0.00163771 -7.34599e-05 -3.15984e-06
-7.34599e-05 9.07071e-05 -3.11454e-06
-3.15984e-06 -3.11454e-06 1.83204e-05
0.00156499 -6.46866e-05 4.31556e-07
-6.46866e-05 6.69004e-05 1.94701e-07
4.31556e-07 1.94701e-07 -2.32268e-05
0.00150803 -6.60647e-05 -2.68522e-07
-6.60647e-05 6.12403e-05 8.39744e-07
-2.68522e-07 8.39744e-07 -3.49263e-05
0.00143238 -7.86283e-05 -1.16562e-06
-7.86283e-05 5.32722e-05 -1.48935e-06
-1.16562e-06 -1.48935e-06 -3.04192e-05
0.00144211 -7.87302e-05 1.13753e-07
-7.87302e-05 7.79488e-05 -5.22185e-07
1.13753e-07 -5.22185e-07 -1.44585e-05
0.00138866 -7.71661e-05 -1.11138e-06
-7.71661e-05 7.81979e-05 1.53074e-07
-1.11138e-06 1.53074e-07 -1.7362e-05
0.00134392 -7.95885e-05 -2.0154e-07
-7.95885e-05 6.40114e-05 7.16948e-07
-2.0154e-07 7.16948e-07 -2.61162e-05
0.0012669 -7.72606e-05 -1.83656e-07
-7.72606e-05 5.22008e-05 -2.34958e-07
-1.83656e-07 -2.34958e-07 -4.12125e-05
0.00121862 -7.31646e-05 -2.94813e-06
-7.31646e-05 6.66766e-05 3.98589e-07
-2.94813e-06 3.98589e-07 -2.27886e-05
0.00106273 -7.93481e-05 2.03539e-06
-7.93481e-05 -1.29802e-05 -2.33068e-08
2.03539e-06 -2.33068e-08 -0.00010975
0.00106257 -7.39899e-05 1.70705e-07
-7.39899e-05 2.11664e-05 3.70645e-08
1.70705e-07 3.70645e-08 -6.87628e-05
0.000960866 -5.73227e-05 -4.17434e-06
-5.73227e-05 2.04336e-05 1.52614e-06
-4.17434e-06 1.52614e-06 -5.37516e-05
0.000614197 -1.63848e-05 -6.41219e-06
-1.63848e-05 -7.07075e-05 4.30577e-06
-6.41219e-06 4.30577e-06 -0.000113568
0.000926678 -5.5711e-05 1.31032e-07
-5.5711e-05 3.44555e-05 4.157e-08
1.31032e-07 4.157e-08 -3.87241e-05
0.00100779 -7.70618e-05 1.48887e-06
-7.70618e-05 3.72982e-05 -2.52563e-07
1.48887e-06 -2.52563e-07 -5.16103e-05
0.00296645 8.44773e-05 -3.82698e-05
8.44773e-05 0.00117417 3.06279e-06
-3.82698e-05 3.06279e-06 0.00117258
0.000715046 8.44356e-06 -2.27844e-07
8.44356e-06 -2.10405e-05 -6.95047e-08
-2.27844e-07 -6.95047e-08 -5.96725e-05
0.00095156 -4.30996e-05 3.35094e-06
-4.30996e-05 6.86969e-05 -1.62016e-06
3.35094e-06 -1.62016e-06 -2.04508e-06
0.00285942 7.65479e-05 6.29278e-07
7.65479e-05 0.00110592 1.28503e-07
6.29278e-07 1.28503e-07 0.00110811
0.00075319 2.72823e-05 5.34596e-06
2.72823e-05 -7.17438e-06 -3.9199e-06
5.34596e-06 -3.9199e-06 -3.98766e-05
0.00275282 6.91397e-05 3.63162e-05
6.91397e-05 0.00104118 -3.39916e-06
3.63162e-05 -3.39916e-06 0.00104655
0.000657584 7.73044e-05 -1.09128e-07
7.73044e-05 -0.00014147 -2.5732e-07
-1.09128e-07 -2.5732e-07 -0.000242456
0.000749515 7.50968e-05 -1.12187e-08
7.50968e-05 -5.45108e-05 -9.32367e-08
-1.12187e-08 -9.32367e-08 -0.000148914
0.00111888 7.74696e-05 -1.4333e-06
7.74696e-05 0.000131714 -5.11007e-08
-1.4333e-06 -5.11007e-08 4.68881e-05
0.000948693 7.60147e-05 -3.61685e-08
7.60147e-05 6.83904e-05 -6.95043e-07
-3.61685e-08 -6.95043e-07 -1.95994e-05
0.000996578 6.39083e-05 -1.30003e-07
6.39083e-05 8.84217e-05 -1.54454e-07
-1.30003e-07 -1.54454e-07 8.65456e-06
0.000894934 1.77261e-05 -2.58162e-06
1.77261e-05 5.1239e-05 -9.98743e-07
-2.58162e-06 -9.98743e-07 -1.50673e-05
0.000947144 3.89883e-05 5.10622e-07
3.89883e-05 6.76772e-05 -5.11549e-07
5.10622e-07 -5.11549e-07 -7.75736e-06
0.000834838 -3.35219e-07 7.3809e-08
-3.35219e-07 1.98238e-05 7.64601e-08
7.3809e-08 7.64601e-08 -4.17098e-05
0.000713966 -5.3652e-05 -2.32866e-06
-5.3652e-05 -2.53485e-05 -3.79081e-06
-2.32866e-06 -3.79081e-06 -5.30293e-05
0.000835958 -3.03555e-05 1.7756e-06
-3.03555e-05 1.58354e-05 2.05539e-06
1.7756e-06 2.05539e-06 -3.86062e-05
0.000705806 -4.75194e-05 -2.50919e-08
-4.75194e-05 -3.9124e-05 -6.46178e-08
-2.50919e-08 -6.46178e-08 -6.03194e-05
0.00256229 -6.22391e-05 -3.23066e-05
-6.22391e-05 0.000936126 -3.17602e-06
-3.23066e-05 -3.17602e-06 0.000944755
0.00071635 -3.80728e-05 3.3801e-06
-3.80728e-05 -4.41737e-05 3.59738e-06
3.3801e-06 3.59738e-06 -5.95639e-05
0.00242408 -5.57793e-05 -3.69498e-07
-5.57793e-05 0.000856491 7.2965e-08
-3.69498e-07 7.2965e-08 0.000867979
0.00235631 -5.00772e-05 2.58297e-05
-5.00772e-05 0.000812573 3.42895e-06
2.58297e-05 3.42895e-06 0.000826412
0.00146813 -3.23093e-05 7.2489e-06
-3.23093e-05 -0.000146901 2.75557e-06
7.2489e-06 2.75557e-06 -0.000212194
0.000994025 -5.89591e-05 1.2224e-06
-5.89591e-05 -0.000246522 1.56066e-06
1.2224e-06 1.56066e-06 -0.000285249
0.00180252 -8.85089e-05 5.66673e-05
-8.85089e-05 -8.88735e-05 1.71189e-05
5.66673e-05 1.71189e-05 -0.00031601
0.00190812 0.000120506 1.56194e-06
0.000120506 0.000379945 -1.96089e-06
1.56194e-06 -1.96089e-06 0.000280236
0.000834684 8.12976e-05 -1.08812e-06
8.12976e-05 -2.01606e-05 5.44855e-07
-1.08812e-06 5.44855e-07 -0.000104189
0.000726527 8.70346e-05 -2.651e-06
8.70346e-05 -0.000239447 1.22454e-06
-2.651e-06 1.22454e-06 -0.000346638
0.00137525 0.000105641 3.43937e-07
0.000105641 0.000175089 1.32142e-07
3.43937e-07 1.32142e-07 7.20236e-05
0.000494234 6.97062e-05 -2.32019e-06
6.97062e-05 -0.000170513 2.66553e-07
-2.32019e-06 2.66553e-07 -0.000265029
0.00189093 0.000113759 -2.36516e-06
0.000113759 0.000208212 -2.81838e-06
-2.36516e-06 -2.81838e-06 9.52545e-05
0.00126768 0.000101649 -6.73273e-07
0.000101649 0.000208794 -9.29833e-07
-6.73273e-07 -9.29833e-07 0.000121991
0.0015192 0.000123505 -1.25587e-07
0.000123505 0.000165182 3.81257e-07
-1.25587e-07 3.81257e-07 6.03747e-05
0.00178776 5.00223e-05 1.99903e-06
5.00223e-05 6.22802e-05 2.32974e-06
1.99903e-06 2.32974e-06 -3.90052e-05
0.00148854 0.00013481 1.13336e-06
0.00013481 0.000147762 2.22965e-06
1.13336e-06 2.22965e-06 3.9335e-05
0.00165482 0.000119777 -1.07465e-06
0.000119777 4.37202e-05 -8.05193e-07
-1.07465e-06 -8.05193e-07 -7.4163e-05
0.00178869 3.5947e-05 -1.36614e-07
3.5947e-05 2.19867e-06 4.4652e-08
-1.36614e-07 4.4652e-08 -8.58494e-05
0.00183676 0.000122145 9.58808e-07
0.000122145 9.91981e-05 -1.29954e-06
9.58808e-07 -1.29954e-06 -1.7093e-05
0.00129706 9.59374e-06 -3.57797e-06
9.59374e-06 -7.30039e-05 -7.40517e-06
-3.57797e-06 -7.40517e-06 -8.82138e-05
0.00158963 7.789e-07 2.38682e-06
7.789e-07 1.60709e-05 -2.68982e-06
2.38682e-06 -2.68982e-06 -5.13403e-05
0.00165808 -9.53024e-07 6.80108e-08
-9.53024e-07 8.90694e-05 -5.88438e-07
6.80108e-08 -5.88438e-07 3.1226e-05
0.000443287 -1.58172e-05 -3.2935e-06
-1.58172e-05 -0.000415762 3.52535e-06
-3.2935e-06 3.52535e-06 -0.000515831
0.00119781 4.27394e-05 3.64657e-07
4.27394e-05 -0.00028358 2.55855e-06
3.64657e-07 2.55855e-06 -0.000359953
0.00211419 5.27014e-05 9.80235e-06
5.27014e-05 0.000195106 5.16924e-06
9.80235e-06 5.16924e-06 0.000105768
0.00158086 2.49567e-05 -3.25681e-06
2.49567e-05 -2.00882e-05 5.3616e-07
-3.25681e-06 5.3616e-07 -0.000110695
0.00181203 3.27368e-05 4.96692e-07
3.27368e-05 8.15198e-05 2.49709e-06
4.96692e-07 2.49709e-06 2.59575e-06
0.00185414 2.32627e-05 5.26309e-07
2.32627e-05 0.000139958 -1.58183e-06
5.26309e-07 -1.58183e-06 5.1779e-05
0.00182712 -2.60757e-06 -3.82508e-06
-2.60757e-06 9.48378e-05 1.657e-06
-3.82508e-06 1.657e-06 6.76532e-07
0.00172732 3.4851e-06 -1.61924e-07
3.4851e-06 8.61126e-05 -6.44391e-08
-1.61924e-07 -6.44391e-08 -1.33527e-05
0.00158362 8.33087e-06 -3.04494e-07
8.33087e-06 3.18606e-05 -1.78674e-06
-3.04494e-07 -1.78674e-06 -6.56144e-05
0.00178668 -3.78677e-05 1.89119e-07
-3.78677e-05 0.000121439 -1.44952e-06
1.89119e-07 -1.44952e-06 3.13204e-05
0.00163768 -2.92745e-05 3.89925e-08
-2.92745e-05 6.87815e-05 8.42155e-07
3.89925e-08 8.42155e-07 -2.78915e-05
0.00159146 -3.01709e-05 -1.11708e-06
-3.01709e-05 6.54021e-05 -5.30121e-07
-1.11708e-06 -5.30121e-07 -3.27231e-05
0.00163853 -6.48357e-05 5.03627e-07
-6.48357e-05 0.000102153 -1.16218e-06
5.03627e-07 -1.16218e-06 1.18998e-05
0.00153991 -6.54189e-05 2.64778e-07
-6.54189e-05 7.62902e-05 3.56483e-07
2.64778e-07 3.56483e-07 -1.99494e-05
0.00147501 -6.69469e-05 -1.47639e-06
-6.69469e-05 7.49127e-05 5.4128e-07
-1.47639e-06 5.4128e-07 -2.31712e-05
0.0014485 -7.8054e-05 -7.61709e-08
-7.8054e-05 8.0818e-05 -9.26623e-07
-7.61709e-08 -9.26623e-07 -1.15098e-05
0.0013926 -7.66359e-05 5.04005e-08
-7.66359e-05 7.96658e-05 -2.80981e-07
5.04005e-08 -2.80981e-07 -1.58165e-05
0.00127856 -7.03909e-05 -2.88157e-06
-7.03909e-05 6.07906e-05 6.35711e-07
-2.88157e-06 6.35711e-07 -3.11386e-05
0.00113144 -7.36122e-05 1.07819e-06
-7.36122e-05 -1.59323e-05 9.85833e-08
1.07819e-06 9.85833e-08 -0.000109102
0.00121105 -7.23941e-05 1.73617e-08
-7.23941e-05 6.27741e-05 -8.05273e-08
1.73617e-08 -8.05273e-08 -2.65419e-05
0.00101851 -5.62855e-05 -4.97292e-06
-5.62855e-05 1.86321e-05 1.69638e-06
-4.97292e-06 1.69638e-06 -5.64956e-05
0.000867319 -6.75985e-05 2.49061e-06
-6.75985e-05 -7.72906e-05 -3.56563e-07
2.49061e-06 -3.56563e-07 -0.00016723
0.000971673 -5.81119e-05 1.72633e-07
-5.81119e-05 2.62605e-05 -6.2346e-09
1.72633e-07 -6.2346e-09 -4.80933e-05
0.00165529 -1.54513e-06 -7.57542e-06
-1.54513e-06 0.000471451 2.72856e-06
-7.57542e-06 2.72856e-06 0.000430559
0.0010794 3.76882e-05 -4.002e-05
3.76882e-05 0.000198445 6.47124e-06
-4.002e-05 6.47124e-06 0.000181273
0.00122308 -5.62391e-06 -1.41113e-06
-5.62391e-06 0.000243122 -3.76716e-08
-1.41113e-06 -3.76716e-08 0.000202868
0.000966087 -5.80103e-05 3.73493e-06
-5.80103e-05 5.48799e-05 -1.36028e-06
3.73493e-06 -1.36028e-06 -1.85857e-05
0.00301544 8.36182e-05 1.14907e-06
8.36182e-05 0.00120275 1.8574e-07
1.14907e-06 1.8574e-07 0.00120036
0.000777578 -3.69099e-06 6.49185e-06
-3.69099e-06 5.43309e-06 -3.95168e-06
6.49185e-06 -3.95168e-06 -3.20885e-05
0.00285348 7.47593e-05 3.96459e-05
7.47593e-05 0.00110518 -3.29962e-06
3.96459e-05 -3.29962e-06 0.00110692
0.00119394 9.16135e-05 -4.49984e-07
9.16135e-05 -4.62478e-05 7.81066e-07
-4.49984e-07 7.81066e-07 -0.000143418
0.000798177 8.4958e-05 1.72486e-06
8.4958e-05 -0.000122514 1.33778e-06
1.72486e-06 1.33778e-06 -0.000226606
0.000820464 8.37979e-05 -1.74695e-07
8.37979e-05 -6.4672e-05 -9.27697e-08
-1.74695e-07 -9.27697e-08 -0.000166854
0.00113585 8.32191e-05 -1.6019e-06
8.32191e-05 0.000114652 -2.6654e-07
-1.6019e-06 -2.6654e-07 2.57091e-05
0.000601646 6.96126e-05 -8.10155e-08
6.96126e-05 -0.000131786 1.70383e-07
-8.10155e-08 1.70383e-07 -0.000226737
0.00102966 7.29016e-05 -2.57281e-07
7.29016e-05 8.76387e-05 -6.36206e-08
-2.57281e-07 -6.36206e-08 3.31192e-06
0.000942072 3.55164e-05 -2.96585e-06
3.55164e-05 7.01141e-05 -7.31003e-07
-2.96585e-06 -7.31003e-07 1.26917e-06
0.000926358 6.03625e-05 1.00356e-06
6.03625e-05 5.3316e-05 -1.42572e-07
1.00356e-06 -1.42572e-07 -2.60963e-05
0.000840543 1.43799e-05 4.14052e-08
1.43799e-05 2.45293e-05 1.67142e-07
4.14052e-08 1.67142e-07 -4.16257e-05
0.00073391 -3.41466e-05 -4.60877e-06
-3.41466e-05 -1.23611e-05 -3.56446e-06
-4.60877e-06 -3.56446e-06 -4.46609e-05
0.0008502 -1.25832e-05 1.84159e-06
-1.25832e-05 2.98095e-05 1.41052e-06
1.84159e-06 1.41052e-06 -3.18469e-05
0.00067155 -5.32472e-05 -4.52137e-08
-5.32472e-05 -4.77915e-05 -9.55412e-08
-4.52137e-08 -9.55412e-08 -7.51631e-05
0.00267603 -6.89128e-05 -3.48472e-05
-6.89128e-05 0.00100292 -3.1668e-06
-3.48472e-05 -3.1668e-06 0.00100856
0.000678902 -4.51422e-05 3.30536e-06
-4.51422e-05 -5.4411e-05 3.69401e-06
3.30536e-06 3.69401e-06 -7.49293e-05
0.00254442 -6.23279e-05 -3.6798e-07
-6.23279e-05 0.000926171 8.60463e-08
-3.6798e-07 8.60463e-08 0.000935119
0.00241395 -5.57462e-05 2.77702e-05
-5.57462e-05 0.000850177 3.24797e-06
2.77702e-05 3.24797e-06 0.000861974
0.00164054 -1.19566e-05 4.37251e-06
-1.19566e-05 1.01729e-05 3.96513e-06
4.37251e-06 3.96513e-06 -7.318e-05
0.00203478 -3.34832e-05 -1.18764e-06
-3.34832e-05 0.000173229 -1.07912e-06
-1.18764e-06 -1.07912e-06 0.000110772
0.00197034 -8.68377e-05 2.80362e-06
-8.68377e-05 0.000200821 -4.44616e-07
2.80362e-06 -4.44616e-07 0.000151977
0.00160094 0.000101539 -4.89482e-06
0.000101539 8.76535e-05 -2.02455e-06
-4.89482e-06 -2.02455e-06 -1.95398e-05
0.00161942 0.000111416 -2.89222e-07
0.000111416 0.000254675 4.80973e-07
-2.89222e-07 4.80973e-07 0.000158403
0.000790566 8.23061e-05 -6.384e-06
8.23061e-05 -2.92329e-05 -1.2321e-08
-6.384e-06 -1.2321e-08 -0.000108703
0.00140178 0.000106609 1.64295e-06
0.000106609 9.60588e-05 1.32675e-06
1.64295e-06 1.32675e-06 -9.21539e-06
0.00139496 0.000106435 -2.55779e-06
0.000106435 0.000184146 2.0332e-07
-2.55779e-06 2.0332e-07 8.02569e-05
0.00191893 4.98271e-05 9.88348e-07
4.98271e-05 0.000144031 2.00326e-06
9.88348e-07 2.00326e-06 3.80508e-05
0.00173017 0.00011152 -2.09141e-06
0.00011152 0.000123658 -1.50206e-06
-2.09141e-06 -1.50206e-06 7.84142e-06
0.00147308 0.000120848 1.42423e-06
0.000120848 0.00013709 4.31653e-06
1.42423e-06 4.31653e-06 3.16172e-05
0.00179656 4.90776e-05 -3.95138e-07
4.90776e-05 6.77195e-05 -1.23551e-07
-3.95138e-07 -1.23551e-07 -3.41248e-05
0.00196191 0.000129384 1.97195e-06
0.000129384 0.000186856 -1.47468e-06
1.97195e-06 -1.47468e-06 6.77942e-05
0.00190326 3.96226e-05 -4.92047e-06
3.96226e-05 6.12498e-05 -4.13867e-06
-4.92047e-06 -4.13867e-06 -2.84132e-05
0.0017846 -3.00835e-07 1.53189e-06
-3.00835e-07 0.00011045 -5.6788e-08
1.53189e-06 -5.6788e-08 2.65093e-05
0.00165954 9.36919e-07 -1.18185e-06
9.36919e-07 3.92496e-05 -1.35387e-06
-1.18185e-06 -1.35387e-06 -2.94301e-05
0.00126726 -2.87487e-06 -8.40687e-07
-2.87487e-06 -0.00011049 3.46247e-06
-8.40687e-07 3.46247e-06 -0.000166182
0.00141416 2.37866e-05 -1.69253e-06
2.37866e-05 -0.000107478 2.4721e-06
-1.69253e-06 2.4721e-06 -0.000197482
0.00194589 3.18496e-05 4.418e-06
3.18496e-05 0.000147397 7.85321e-06
4.418e-06 7.85321e-06 6.60689e-05
0.00180001 2.30759e-05 -5.4003e-07
2.30759e-05 0.000115343 -4.67908e-07
-5.4003e-07 -4.67908e-07 2.69679e-05
0.00170422 2.08135e-05 1.61764e-06
2.08135e-05 9.16703e-05 -1.10958e-06
1.61764e-06 -1.10958e-06 -6.90703e-06
0.00182283 4.165e-06 1.39772e-06
4.165e-06 0.000134079 1.27175e-06
1.39772e-06 1.27175e-06 3.45091e-05
0.00162361 6.75342e-06 -5.18633e-07
6.75342e-06 5.34695e-05 1.03155e-07
-5.18633e-07 1.03155e-07 -4.43062e-05
0.00164716 1.86696e-06 -1.60302e-06
1.86696e-06 8.41505e-05 -1.05836e-06
-1.60302e-06 -1.05836e-06 -1.60057e-05
0.00169637 -3.03372e-05 1.02521e-06
-3.03372e-05 9.59112e-05 1.47995e-06
1.02521e-06 1.47995e-06 -7.86564e-07
0.00161431 -3.0579e-05 6.29947e-08
-3.0579e-05 7.62227e-05 3.18953e-07
6.29947e-08 3.18953e-07 -2.18995e-05
0.00155358 -3.85707e-05 -2.03781e-06
-3.85707e-05 7.79869e-05 -6.09646e-07
-2.03781e-06 -6.09646e-07 -1.99302e-05
0.00157427 -6.46908e-05 1.1807e-06
-6.46908e-05 9.25522e-05 -1.24003e-07
1.1807e-06 -1.24003e-07 -3.74792e-06
0.00148286 -6.64664e-05 1.49484e-07
-6.64664e-05 7.8364e-05 3.61737e-07
1.49484e-07 3.61737e-07 -1.97473e-05
0.00136449 -6.30259e-05 -3.17953e-06
-6.30259e-05 6.30478e-05 7.82955e-07
-3.17953e-06 7.82955e-07 -3.1381e-05
0.00139658 -7.61619e-05 1.24122e-06
-7.61619e-05 8.11745e-05 -6.9356e-07
1.24122e-06 -6.9356e-07 -1.42371e-05
0.00128375 -6.99499e-05 4.82701e-08
-6.99499e-05 6.29339e-05 -1.35811e-07
4.82701e-08 -1.35811e-07 -2.89258e-05
0.00107158 -5.45741e-05 -5.67638e-06
-5.45741e-05 1.50545e-05 1.98865e-06
-5.67638e-06 1.98865e-06 -6.26265e-05
0.00120246 -7.16065e-05 2.60145e-06
-7.16065e-05 5.83791e-05 -4.54122e-07
2.60145e-06 -4.54122e-07 -3.07919e-05
0.00102216 -5.63493e-05 2.30795e-07
-5.63493e-05 2.01899e-05 -8.55779e-08
2.30795e-07 -8.55779e-08 -5.50293e-05
0.00173826 -5.21555e-06 -7.5218e-06
-5.21555e-06 0.000504594 2.94481e-06
-7.5218e-06 2.94481e-06 0.000462394
0.000988778 -5.92266e-05 4.25889e-06
-5.92266e-05 3.5418e-05 -1.37197e-06
4.25889e-06 -1.37197e-06 -3.91448e-05
0.00181792 -1.19838e-05 1.15033e-05
-1.19838e-05 0.000549193 -9.47264e-07
1.15033e-05 -9.47264e-07 0.000509035
0.0011938 1.79609e-05 -5.3269e-05
1.79609e-05 0.000272005 6.65045e-06
-5.3269e-05 6.65045e-06 0.000251947
0.00214025 5.67245e-05 -3.7177e-05
5.67245e-05 0.000758054 1.3548e-06
-3.7177e-05 1.3548e-06 0.000746602
0.00186507 -8.00057e-06 2.6291e-05
-8.00057e-06 0.000572436 -3.21542e-06
2.6291e-05 -3.21542e-06 0.000536522
0.00304819 7.78117e-05 4.64184e-05
7.78117e-05 0.00122216 -3.18508e-06
4.64184e-05 -3.18508e-06 0.00121963
0.0015723 9.1712e-05 -3.21351e-06
9.1712e-05 6.90841e-05 -2.28732e-06
-3.21351e-06 -2.28732e-06 -3.28418e-05
0.0014791 0.000100652 3.18989e-06
0.000100652 0.000162887 7.84742e-07
3.18989e-06 7.84742e-07 6.47024e-05
0.00122292 9.33462e-05 1.42022e-06
9.33462e-05 -2.06525e-05 8.43551e-07
1.42022e-06 8.43551e-07 -0.000111112
0.00115045 8.80526e-05 -1.7076e-06
8.80526e-05 8.80091e-05 -5.79001e-07
-1.7076e-06 -5.79001e-07 -5.95168e-06
0.00114402 9.78805e-05 -5.27062e-07
9.78805e-05 4.85925e-05 2.75771e-07
-5.27062e-07 2.75771e-07 -5.62214e-05
0.000991486 9.08865e-05 1.15309e-07
9.08865e-05 1.59585e-05 2.34421e-07
1.15309e-07 2.34421e-07 -8.74298e-05
0.00108449 8.11982e-05 -1.33463e-07
8.11982e-05 9.12291e-05 -1.39296e-07
-1.33463e-07 -1.39296e-07 2.18026e-06
0.00097708 5.33672e-05 -2.99771e-06
5.33672e-05 7.31669e-05 -8.63753e-07
-2.99771e-06 -8.63753e-07 1.48082e-06
0.000938451 6.82912e-05 8.58761e-07
6.82912e-05 4.24948e-05 -1.15899e-07
8.58761e-07 -1.15899e-07 -4.13248e-05
0.000865062 3.02598e-05 -2.14553e-07
3.02598e-05 3.10168e-05 6.59e-08
-2.14553e-07 6.59e-08 -3.75613e-05
0.000760841 -1.49766e-05 -5.56906e-06
-1.49766e-05 2.74327e-06 -3.42331e-06
-5.56906e-06 -3.42331e-06 -3.44907e-05
0.000780958 8.3958e-06 1.97953e-06
8.3958e-06 -4.4297e-06 1.00175e-06
1.97953e-06 1.00175e-06 -7.07718e-05
0.000671092 -4.81533e-05 -2.64376e-07
-4.81533e-05 -4.26107e-05 -5.61717e-08
-2.64376e-07 -5.61717e-08 -7.55117e-05
0.0027926 -7.57513e-05 -3.78881e-05
-7.57513e-05 0.00107519 -3.08844e-06
-3.78881e-05 -3.08844e-06 0.00107702
0.000624008 -5.1581e-05 2.68628e-06
-5.1581e-05 -7.31468e-05 3.89444e-06
2.68628e-06 3.89444e-06 -0.000100017
0.00268005 -6.94713e-05 -4.43632e-07
-6.94713e-05 0.0010039 1.07186e-07
-4.43632e-07 1.07186e-07 0.00100991
0.00252756 -6.22501e-05 3.01104e-05
-6.22501e-05 0.000916561 3.08818e-06
3.01104e-05 3.08818e-06 0.000925875
0.00177891 -7.82956e-06 1.78249e-06
-7.82956e-06 7.6566e-05 2.17447e-06
1.78249e-06 2.17447e-06 -1.70661e-05
0.00170056 -1.16173e-05 6.3303e-07
-1.16173e-05 3.69584e-05 1.19313e-06
6.3303e-07 1.19313e-06 -4.66029e-05
0.00247943 -3.41526e-05 -1.13449e-05
-3.41526e-05 0.000433797 -3.47329e-06
-1.13449e-05 -3.47329e-06 0.000373771
0.00165901 5.20928e-05 2.24638e-10
5.20928e-05 3.38879e-05 1.42861e-06
2.24638e-10 1.42861e-06 -7.09516e-05
0.00168445 0.00010374 2.44532e-07
0.00010374 0.000131799 -9.72079e-07
2.44532e-07 -9.72079e-07 2.47119e-05
0.00139123 0.000104063 -2.50946e-06
0.000104063 0.000158796 1.51306e-06
-2.50946e-06 1.51306e-06 6.60334e-05
0.00201654 0.000124328 1.69297e-06
0.000124328 0.000400841 2.50613e-08
1.69297e-06 2.50613e-08 0.000297617
0.00192039 5.16099e-05 -5.017e-07
5.16099e-05 0.00014337 -2.43329e-07
-5.017e-07 -2.43329e-07 3.70059e-05
0.00154149 0.000107961 1.00541e-06
0.000107961 2.5489e-05 -3.70197e-07
1.00541e-06 -3.70197e-07 -9.31076e-05
0.00172584 4.85206e-05 -1.09114e-06
4.85206e-05 3.57683e-05 -2.53041e-06
-1.09114e-06 -2.53041e-06 -6.68973e-05
0.0017712 -1.27163e-06 2.99115e-06
-1.27163e-06 0.00010082 4.72411e-07
2.99115e-06 4.72411e-07 5.05362e-06
0.00167819 1.87661e-07 3.89984e-08
1.87661e-07 5.31071e-05 -5.92665e-07
3.89984e-08 -5.92665e-07 -3.28776e-05
0.00177098 1.76838e-06 -3.43499e-06
1.76838e-06 8.42738e-05 9.99436e-07
-3.43499e-06 9.99436e-07 1.41841e-05
0.00167519 2.36941e-05 1.4588e-06
2.36941e-05 8.00112e-05 -2.71161e-07
1.4588e-06 -2.71161e-07 -2.38621e-05
0.00171803 2.2663e-05 -1.44906e-06
2.2663e-05 7.79875e-05 1.9634e-06
-1.44906e-06 1.9634e-06 -1.07881e-05
0.00172878 2.13048e-05 1.64351e-09
2.13048e-05 0.000105217 2.69879e-07
1.64351e-09 2.69879e-07 6.8344e-06
0.0016601 1.62804e-05 8.8531e-07
1.62804e-05 9.22828e-05 -1.27799e-06
8.8531e-07 -1.27799e-06 -1.02722e-05
0.00169767 5.4622e-06 3.8856e-07
5.4622e-06 9.21061e-05 1.90986e-06
3.8856e-07 1.90986e-06 -5.96285e-06
0.00164934 2.2611e-06 -6.02259e-07
2.2611e-06 8.5585e-05 1.88131e-07
-6.02259e-07 1.88131e-07 -1.45193e-05
0.00159359 -4.66642e-06 -2.72916e-06
-4.66642e-06 8.68876e-05 -4.79963e-07
-2.72916e-06 -4.79963e-07 -1.1983e-05
0.00163968 -3.03584e-05 1.65426e-06
-3.03584e-05 8.82965e-05 1.17135e-06
1.65426e-06 1.17135e-06 -9.81368e-06
0.00155236 -3.69906e-05 1.05061e-08
-3.69906e-05 7.73081e-05 1.42493e-07
1.05061e-08 1.42493e-07 -2.06469e-05
0.00143557 -4.45114e-05 -3.61157e-06
-4.45114e-05 6.65549e-05 -1.01466e-07
-3.61157e-06 -1.01466e-07 -2.77435e-05
0.00149498 -6.59875e-05 2.09707e-06
-6.59875e-05 8.39072e-05 1.67225e-07
2.09707e-06 1.67225e-07 -1.42208e-05
0.00136534 -6.24926e-05 1.03354e-07
-6.24926e-05 6.31997e-05 2.97799e-07
1.03354e-07 2.97799e-07 -3.12051e-05
0.00113952 -5.00751e-05 -6.42367e-06
-5.00751e-05 1.80012e-05 2.00027e-06
-6.42367e-06 2.00027e-06 -6.24611e-05
0.0012891 -6.94666e-05 2.9478e-06
-6.94666e-05 6.51812e-05 -8.77895e-07
2.9478e-06 -8.77895e-07 -2.6609e-05
0.00108243 -5.41431e-05 3.12587e-07
-5.41431e-05 1.93767e-05 -8.20171e-08
3.12587e-07 -8.20171e-08 -5.83284e-05
0.00184613 -2.07207e-06 -7.26234e-06
-2.07207e-06 0.000545979 2.9103e-06
-7.26234e-06 2.9103e-06 0.000503372
0.00102613 -5.63863e-05 4.89448e-06
-5.63863e-05 2.2098e-05 -1.69302e-06
4.89448e-06 -1.69302e-06 -5.32364e-05
0.00191534 -1.8628e-05 1.33039e-05
-1.8628e-05 0.000589905 -9.17861e-07
1.33039e-05 -9.17861e-07 0.000548743
0.00125422 5.41419e-06 -5.87792e-05
5.41419e-06 0.000308362 6.36398e-06
-5.87792e-05 6.36398e-06 0.000287202
0.00196863 -2.49195e-05 3.23498e-05
-2.49195e-05 0.000620105 -5.09656e-06
3.23498e-05 -5.09656e-06 0.000581079
0.00119951 3.77162e-05 -2.37684e-05
3.77162e-05 0.000280988 2.1785e-06
-2.37684e-05 2.1785e-06 0.000258163
0.00311305 0.000106367 1.30353e-05
0.000106367 0.001276 -1.36886e-06
1.30353e-05 -1.36886e-06 0.00126602
0.00192534 6.59233e-05 -1.30641e-06
6.59233e-05 0.000209064 -7.52145e-07
-1.30641e-06 -7.52145e-07 0.000102995
0.00157627 8.95181e-05 -5.98455e-07
8.95181e-05 0.000120205 -2.13602e-06
-5.98455e-07 -2.13602e-06 2.09674e-05
0.00166569 9.55565e-05 -2.4459e-06
9.55565e-05 0.000126954 1.41366e-06
-2.4459e-06 1.41366e-06 2.60142e-05
0.00153371 9.69826e-05 -1.15098e-06
9.69826e-05 0.000232796 2.17308e-07
-1.15098e-06 2.17308e-07 0.000139019
0.00132759 9.80698e-05 5.22982e-07
9.80698e-05 8.35839e-05 -1.29958e-06
5.22982e-07 -1.29958e-06 -1.41086e-05
0.0013242 9.6907e-05 2.84863e-06
9.6907e-05 4.12434e-05 9.23092e-07
2.84863e-06 9.23092e-07 -4.2663e-05
0.00100975 6.54402e-05 -3.64125e-06
6.54402e-05 6.11039e-05 -1.51567e-06
-3.64125e-06 -1.51567e-06 -1.57727e-05
0.00114546 8.81538e-05 -1.20458e-07
8.81538e-05 8.59653e-05 -8.21858e-08
-1.20458e-07 -8.21858e-08 -8.19316e-06
0.00147971 0.000110222 1.62308e-06
0.000110222 0.00021505 4.9738e-07
1.62308e-06 4.9738e-07 0.000109484
0.00101936 7.86245e-05 1.18562e-06
7.86245e-05 6.08084e-05 -9.29694e-08
1.18562e-06 -9.29694e-08 -2.83015e-05
0.000912307 5.05964e-05 -1.55103e-07
5.05964e-05 4.06319e-05 -1.46185e-07
-1.55103e-07 -1.46185e-07 -3.07646e-05
0.000789427 1.72153e-05 -6.67826e-06
1.72153e-05 1.73199e-05 -3.74684e-06
-6.67826e-06 -3.74684e-06 -2.47496e-05
0.000776764 2.77197e-05 2.12067e-06
2.77197e-05 -1.46625e-05 5.81983e-07
2.12067e-06 5.81983e-07 -8.25385e-05
0.00069898 -1.56245e-05 2.53559e-08
-1.56245e-05 -2.52632e-05 -5.25917e-08
2.53559e-08 -5.25917e-08 -6.28439e-05
0.0029432 -8.15625e-05 -4.29137e-05
-8.15625e-05 0.00117017 -2.85745e-06
-4.29137e-05 -2.85745e-06 0.00116759
0.000603289 -5.55505e-05 2.27088e-06
-5.55505e-05 -7.49618e-05 3.98692e-06
2.27088e-06 3.98692e-06 -0.000108808
0.00279003 -7.66981e-05 -6.51174e-07
-7.66981e-05 0.00107147 1.34965e-07
-6.51174e-07 1.34965e-07 0.00107387
0.00267655 -6.97523e-05 3.25653e-05
-6.97523e-05 0.00100096 2.97642e-06
3.25653e-05 2.97642e-06 0.0010074
0.00181329 4.34066e-06 3.65885e-07
4.34066e-06 9.42912e-05 4.78825e-07
3.65885e-07 4.78825e-07 -2.45703e-06
0.00178428 -6.44804e-06 -1.96942e-07
-6.44804e-06 7.24095e-05 8.89883e-07
-1.96942e-07 8.89883e-07 -2.26778e-05
0.00181564 -1.16107e-05 -3.33239e-06
-1.16107e-05 8.96622e-05 -1.59625e-06
-3.33239e-06 -1.59625e-06 6.07744e-06
0.00173977 5.35065e-05 9.68424e-07
5.35065e-05 7.15739e-05 -1.32915e-07
9.68424e-07 -1.32915e-07 -3.16437e-05
0.00178102 0.000106601 1.02281e-06
0.000106601 0.000182867 -6.07396e-07
1.02281e-06 -6.07396e-07 7.57806e-05
0.0018699 5.27408e-05 -4.63214e-07
5.27408e-05 0.000116922 -2.02547e-06
-4.63214e-07 -2.02547e-06 1.01773e-05
0.00175167 2.5741e-06 9.26798e-07
2.5741e-06 9.06149e-05 5.77324e-07
9.26798e-07 5.77324e-07 -1.14731e-05
0.00174324 2.47836e-06 3.39101e-07
2.47836e-06 8.71027e-05 -4.65409e-07
3.39101e-07 -4.65409e-07 -9.5632e-06
0.00162765 6.62642e-07 -2.35777e-06
6.62642e-07 2.2972e-05 -4.16982e-07
-2.35777e-06 -4.16982e-07 -6.49531e-05
0.00168553 1.50071e-05 -7.22489e-07
1.50071e-05 8.43456e-05 -3.51607e-07
-7.22489e-07 -3.51607e-07 -1.78681e-05
0.0017644 1.19005e-05 1.64561e-06
1.19005e-05 0.000139461 -2.04779e-07
1.64561e-06 -2.04779e-07 3.37823e-05
0.00173698 2.17274e-05 -1.14238e-06
2.17274e-05 0.000110471 9.05458e-07
-1.14238e-06 9.05458e-07 1.22955e-05
0.00172167 1.67066e-05 4.22345e-07
1.67066e-05 0.000124294 -1.69044e-07
4.22345e-07 -1.69044e-07 2.17215e-05
0.00151809 1.03327e-05 -3.05765e-08
1.03327e-05 4.58721e-05 -7.34921e-07
-3.05765e-08 -7.34921e-07 -5.65923e-05
0.00164945 1.98058e-06 4.68275e-07
1.98058e-06 8.60261e-05 1.43941e-06
4.68275e-07 1.43941e-06 -1.40389e-05
0.00158063 -5.44116e-06 -8.97939e-07
-5.44116e-06 8.08364e-05 3.25124e-07
-8.97939e-07 3.25124e-07 -1.81349e-05
0.00147077 -1.37401e-05 -4.26815e-06
-1.37401e-05 7.10628e-05 -8.59445e-08
-4.26815e-06 -8.59445e-08 -2.37443e-05
0.00155255 -3.69353e-05 2.11908e-06
-3.69353e-05 7.72422e-05 8.81137e-07
2.11908e-06 8.81137e-07 -2.0759e-05
0.00143035 -4.35154e-05 8.13344e-08
-4.35154e-05 6.37605e-05 1.17123e-07
8.13344e-08 1.17123e-07 -3.05125e-05
0.00117482 -3.68552e-05 -6.95966e-06
-3.68552e-05 1.11472e-05 1.17045e-06
-6.95966e-06 1.17045e-06 -6.96446e-05
0.0013665 -6.19038e-05 3.50927e-06
-6.19038e-05 6.34866e-05 -1.86338e-07
3.50927e-06 -1.86338e-07 -3.08915e-05
0.00114172 -4.88641e-05 2.92885e-07
-4.88641e-05 1.77558e-05 2.20325e-07
2.92885e-07 2.20325e-07 -6.26015e-05
0.0020058 -1.09462e-05 -1.06056e-05
-1.09462e-05 0.000605476 2.27371e-06
-1.06056e-05 2.27371e-06 0.00056473
0.00108728 -5.3681e-05 5.75264e-06
-5.3681e-05 2.07547e-05 -2.05848e-06
5.75264e-06 -2.05848e-06 -5.69865e-05
0.0020209 -2.46576e-05 1.36453e-05
-2.46576e-05 0.000628906 -9.34409e-07
1.36453e-05 -9.34409e-07 0.000588301
0.00133941 2.45306e-06 -6.24792e-05
2.45306e-06 0.000349532 5.75232e-06
-6.24792e-05 5.75232e-06 0.000327689
0.00208192 -3.46516e-05 3.55987e-05
-3.46516e-05 0.000668753 -5.07006e-06
3.55987e-05 -5.07006e-06 0.000629014
0.00126299 3.43123e-05 -2.69161e-05
3.43123e-05 0.000319843 1.97071e-06
-2.69161e-05 1.97071e-06 0.000295095
0.00122588 6.2842e-05 6.38548e-06
6.2842e-05 0.000301619 -2.27098e-06
6.38548e-06 -2.27098e-06 0.00027534
0.00160809 1.93598e-05 -4.81516e-07
1.93598e-05 1.90724e-05 1.16139e-06
-4.81516e-07 1.16139e-06 -7.98528e-05
0.00162367 6.68087e-05 -2.33192e-06
6.68087e-05 9.5148e-05 -5.11766e-07
-2.33192e-06 -5.11766e-07 -7.81709e-06
0.00178098 6.39658e-05 -1.66196e-06
6.39658e-05 0.000133655 -1.0418e-06
-1.66196e-06 -1.0418e-06 2.71349e-05
0.00152646 8.73438e-05 -2.43153e-06
8.73438e-05 0.000158617 -6.42042e-07
-2.43153e-06 -6.42042e-07 6.42302e-05
0.00168796 9.26753e-05 1.04892e-06
9.26753e-05 0.000181506 7.48304e-07
1.04892e-06 7.48304e-07 8.2714e-05
0.00171084 9.81225e-05 3.94125e-06
9.81225e-05 0.00016097 2.50291e-06
3.94125e-06 2.50291e-06 6.10844e-05
0.000969187 6.72275e-05 -4.63132e-06
6.72275e-05 -3.61092e-06 -1.52998e-06
-4.63132e-06 -1.52998e-06 -8.33435e-05
0.00120441 8.85628e-05 1.40183e-06
8.85628e-05 6.17086e-05 7.99304e-07
1.40183e-06 7.99304e-07 -3.32005e-05
0.00116537 9.52405e-05 9.41733e-07
9.52405e-05 -1.60323e-06 6.82346e-07
9.41733e-07 6.82346e-07 -9.87131e-05
0.000796362 4.10663e-05 -8.4518e-06
4.10663e-05 1.60846e-05 -4.52028e-06
-8.4518e-06 -4.52028e-06 -3.10352e-05
0.000963661 6.2622e-05 -3.03258e-07
6.2622e-05 3.77513e-05 -1.96048e-07
-3.03258e-07 -1.96048e-07 -3.87431e-05
0.00114661 8.84993e-05 1.83697e-06
8.84993e-05 8.70854e-05 5.29603e-07
1.83697e-06 5.29603e-07 -7.29529e-06
0.000855969 4.74864e-05 2.64297e-06
4.74864e-05 1.24248e-05 6.11166e-07
2.64297e-06 6.11166e-07 -5.86825e-05
0.000713844 1.30279e-05 -1.27384e-08
1.30279e-05 -1.5678e-05 -1.94863e-08
-1.27384e-08 -1.94863e-08 -5.80909e-05
0.00319598 -7.05923e-05 -5.38199e-05
-7.05923e-05 0.00131813 -3.19492e-06
-5.38199e-05 -3.19492e-06 0.00131223
0.000653773 -2.59978e-05 3.4907e-06
-2.59978e-05 -4.42576e-05 3.79083e-06
3.4907e-06 3.79083e-06 -8.22314e-05
0.0029233 -8.46205e-05 -1.04994e-06
-8.46205e-05 0.00115676 1.80227e-07
-1.04994e-06 1.80227e-07 0.00115457
0.0028139 -7.75615e-05 3.51354e-05
-7.75615e-05 0.00108116 2.91404e-06
3.51354e-05 2.91404e-06 0.00108415
0.00180452 -4.58038e-06 -1.18774e-07
-4.58038e-06 0.000103568 -4.73032e-07
-1.18774e-07 -4.73032e-07 7.05142e-06
0.00183429 3.68036e-06 -2.85625e-07
3.68036e-06 0.000105455 1.35678e-07
-2.85625e-07 1.35678e-07 8.50729e-06
0.00178067 -4.61829e-06 -2.29714e-06
-4.61829e-06 6.43921e-05 -1.33437e-06
-2.29714e-06 -1.33437e-06 -3.22034e-05
0.00182784 5.47235e-05 3.65507e-07
5.47235e-05 0.000112952 -1.16042e-06
3.65507e-07 -1.16042e-06 1.13718e-05
0.00183422 -3.53637e-06 7.27549e-07
-3.53637e-06 0.000140069 -1.1178e-06
7.27549e-07 -1.1178e-06 3.53133e-05
0.0018242 2.20322e-06 -1.96787e-07
2.20322e-06 0.000126572 -2.92754e-07
-1.96787e-07 -2.92754e-07 2.47548e-05
0.00170806 6.06417e-06 -2.46707e-06
6.06417e-06 6.98946e-05 -2.15272e-08
-2.46707e-06 -2.15272e-08 -2.76935e-05
0.00171962 9.83874e-06 -2.78555e-06
9.83874e-06 0.000100704 -9.24586e-07
-2.78555e-06 -9.24586e-07 5.74236e-08
0.00171252 1.69599e-05 -1.01013e-07
1.69599e-05 0.000109926 -6.20678e-07
-1.01013e-07 -6.20678e-07 4.10875e-06
0.00174208 1.26828e-05 -1.72688e-07
1.26828e-05 0.000145269 6.0156e-07
-1.72688e-07 6.0156e-07 3.9658e-05
0.00179287 1.72522e-05 2.48135e-07
1.72522e-05 0.000161185 6.51915e-07
2.48135e-07 6.51915e-07 5.8589e-05
0.00164346 1.16331e-05 5.70158e-07
1.16331e-05 0.000111256 -1.99814e-07
5.70158e-07 -1.99814e-07 9.43407e-06
0.00130941 7.78654e-06 -2.85073e-06
7.78654e-06 -2.0753e-05 8.63601e-08
-2.85073e-06 8.63601e-08 -0.000118966
0.00155757 -4.68285e-06 7.69956e-07
-4.68285e-06 6.98789e-05 1.13034e-06
7.69956e-07 1.13034e-06 -2.91956e-05
0.00145996 -1.12968e-05 -5.29786e-07
-1.12968e-05 6.55252e-05 1.35454e-07
-5.29786e-07 1.35454e-07 -2.92272e-05
0.00118155 -1.53026e-05 -6.90375e-06
-1.53026e-05 1.98532e-06 5.72353e-07
-6.90375e-06 5.72353e-07 -7.88711e-05
0.00142253 -4.02986e-05 3.58163e-06
-4.02986e-05 5.97139e-05 3.65737e-07
3.58163e-06 3.65737e-07 -3.44669e-05
0.00118274 -3.73318e-05 9.37162e-08
-3.73318e-05 1.42475e-05 2.39067e-07
9.37162e-08 2.39067e-07 -6.64626e-05
0.000681723 -2.16319e-05 -1.05536e-05
-2.16319e-05 -0.00010233 2.55168e-06
-1.05536e-05 2.55168e-06 -0.000148824
0.00114514 -4.78717e-05 6.60771e-06
-4.78717e-05 1.8066e-05 -1.56555e-06
6.60771e-06 -1.56555e-06 -6.2192e-05
0.00140641 -3.40857e-05 1.59475e-05
-3.40857e-05 0.000288208 -5.73179e-07
1.59475e-05 -5.73179e-07 0.00024534
0.00426831 4.22359e-05 -7.11752e-05
4.22359e-05 0.00186893 2.39705e-06
-7.11752e-05 2.39705e-06 0.00186059
0.00218406 -3.68944e-05 3.87615e-05
-3.68944e-05 0.000707423 -4.68606e-06
3.87615e-05 -4.68606e-06 0.000667706
0.00133377 3.56375e-05 -3.00868e-05
3.56375e-05 0.000354202 1.7267e-06
-3.00868e-05 1.7267e-06 0.000328534
0.00129838 6.74583e-05 4.65675e-06
6.74583e-05 0.000346723 -2.42037e-06
4.65675e-06 -2.42037e-06 0.000317622
0.00173018 5.7793e-06 6.79804e-07
5.7793e-06 8.50789e-05 3.61506e-07
6.79804e-07 3.61506e-07 -1.01807e-05
0.00144736 2.98843e-05 -9.92891e-07
2.98843e-05 -1.1495e-05 7.54835e-07
-9.92891e-07 7.54835e-07 -0.00011148
0.00172911 1.93869e-05 -8.81676e-08
1.93869e-05 8.31053e-05 -1.60569e-08
-8.81676e-08 -1.60569e-08 -1.54513e-05
0.00114667 6.22776e-05 -3.49718e-06
6.22776e-05 -9.07588e-05 -1.13083e-06
-3.49718e-06 -1.13083e-06 -0.000188326
0.00164102 6.71356e-05 1.06879e-07
6.71356e-05 0.000106913 -4.32164e-08
1.06879e-07 -4.32164e-08 4.51547e-06
0.00164181 6.22943e-05 -2.2471e-07
6.22943e-05 6.10887e-05 -9.30903e-07
-2.2471e-07 -9.30903e-07 -4.59381e-05
0.000669391 5.46957e-05 -6.95579e-06
5.46957e-05 -0.000211111 -2.2491e-06
-6.95579e-06 -2.2491e-06 -0.000293456
0.00152625 8.85684e-05 8.02307e-07
8.85684e-05 0.000158146 1.43117e-08
8.02307e-07 1.43117e-08 6.35661e-05
0.00179773 9.59326e-05 2.63252e-06
9.59326e-05 0.000242314 1.55206e-06
2.63252e-06 1.55206e-06 0.000143886
0.000760939 5.69209e-05 -1.0269e-05
5.69209e-05 -1.77124e-05 -4.66943e-06
-1.0269e-05 -4.66943e-06 -6.75856e-05
0.000783645 6.16337e-05 -1.50767e-07
6.16337e-05 -0.000101728 1.23197e-07
-1.50767e-07 1.23197e-07 -0.000182426
0.000875211 8.01803e-05 3.46675e-06
8.01803e-05 -0.000109354 1.45693e-06
3.46675e-06 1.45693e-06 -0.000205393
0.00361244 -6.41012e-05 -6.15378e-05
-6.41012e-05 0.00154384 -3.80696e-06
-6.15378e-05 -3.80696e-06 0.00153418
0.000694784 3.51419e-05 -8.25941e-08
3.51419e-05 -3.04608e-05 -3.23949e-09
-8.25941e-08 -3.23949e-09 -7.76479e-05
0.000927354 6.01116e-05 3.29025e-06
6.01116e-05 1.96053e-05 1.32726e-06
3.29025e-06 1.32726e-06 -5.65593e-05
0.000635347 9.50645e-06 5.63218e-06
9.50645e-06 -5.0363e-05 3.81525e-06
5.63218e-06 3.81525e-06 -9.30395e-05
0.0031205 -9.04239e-05 -2.86e-06
-9.04239e-05 0.00127751 2.12472e-07
-2.86e-06 2.12472e-07 0.00127071
0.00289879 -8.49495e-05 3.72208e-05
-8.49495e-05 0.00114023 2.84154e-06
3.72208e-05 2.84154e-06 0.00113889
0.00178212 -7.87294e-06 -4.11457e-07
-7.87294e-06 0.000102499 -7.47194e-07
-4.11457e-07 -7.47194e-07 4.18073e-06
0.00181816 -4.77246e-06 -3.45552e-07
-4.77246e-06 0.000108127 8.1077e-08
-3.45552e-07 8.1077e-08 1.13408e-05
0.00184997 3.11248e-06 -9.04996e-07
3.11248e-06 0.000114062 -1.32666e-06
-9.04996e-07 -1.32666e-06 1.68997e-05
0.00185881 9.284e-06 -3.98149e-07
9.284e-06 0.000166674 -2.69797e-07
-3.98149e-07 -2.69797e-07 5.82137e-05
0.00176409 5.17624e-07 -5.89628e-07
5.17624e-07 0.000104022 -5.54013e-07
-5.89628e-07 -5.54013e-07 -1.53246e-06
0.00189798 -1.01327e-06 -2.5052e-06
-1.01327e-06 0.000162922 2.07206e-07
-2.5052e-06 2.07206e-07 6.14793e-05
0.00164159 2.0568e-05 -1.33978e-06
2.0568e-05 7.07855e-05 -9.19013e-07
-1.33978e-06 -9.19013e-07 -3.51082e-05
0.00172025 1.48586e-05 5.5481e-07
1.48586e-05 0.000133943 -1.17649e-07
5.5481e-07 -1.17649e-07 2.82869e-05
0.00171023 9.76373e-06 -2.11694e-06
9.76373e-06 0.000160932 8.25063e-07
-2.11694e-06 8.25063e-07 6.0795e-05
0.00177336 1.29618e-05 1.7454e-06
1.29618e-05 0.000178812 1.41426e-07
1.7454e-06 1.41426e-07 7.76463e-05
0.00155416 1.0662e-05 -4.76027e-08
1.0662e-05 0.000107107 5.85248e-08
-4.76027e-08 5.85248e-08 1.05361e-05
0.000864986 3.09893e-06 -7.77892e-06
3.09893e-06 -0.000177679 1.18881e-06
-7.77892e-06 1.18881e-06 -0.000263805
0.00143615 -1.13754e-05 2.78033e-06
-1.13754e-05 5.35556e-05 3.7285e-07
2.78033e-06 3.7285e-07 -4.12443e-05
0.00119252 -1.29929e-05 -6.57054e-08
-1.29929e-05 6.89919e-06 -8.68198e-08
-6.57054e-08 -8.68198e-08 -7.38209e-05
0.000709034 -1.12825e-05 -1.06717e-05
-1.12825e-05 -9.63645e-05 1.52054e-06
-1.06717e-05 1.52054e-06 -0.000143459
0.00118396 -3.61324e-05 7.15341e-06
-3.61324e-05 1.39588e-05 -8.0149e-07
7.15341e-06 -8.0149e-07 -6.66029e-05
0.000689719 -1.87541e-05 -2.37618e-08
-1.87541e-05 -9.80926e-05 1.7287e-07
-2.37618e-08 1.7287e-07 -0.000144614
0.00432349 3.55596e-05 -7.35637e-05
3.55596e-05 0.00189077 1.67376e-06
-7.35637e-05 1.67376e-06 0.00188348
0.000788684 -3.70582e-05 1.27267e-05
-3.70582e-05 -3.6071e-05 -4.33874e-06
1.27267e-05 -4.33874e-06 -8.36556e-05
0.00289329 4.36073e-05 2.70266e-05
4.36073e-05 0.00115311 7.9417e-07
2.70266e-05 7.9417e-07 0.00113587
0.00135161 4.83468e-05 7.31409e-06
4.83468e-05 0.000367655 -2.07986e-06
7.31409e-06 -2.07986e-06 0.000340443
0.00184481 -3.9926e-06 4.08757e-07
-3.9926e-06 0.000154183 7.72825e-08
4.08757e-07 7.72825e-08 5.94505e-05
0.00161423 1.22776e-05 -2.15159e-07
1.22776e-05 6.64503e-05 3.32995e-07
-2.15159e-07 3.32995e-07 -2.98837e-05
0.00168667 5.07608e-06 3.77982e-07
5.07608e-06 6.31872e-05 2.3178e-07
3.77982e-07 2.3178e-07 -3.159e-05
0.00143046 3.88753e-05 -2.7302e-06
3.88753e-05 3.53727e-05 -2.05545e-07
-2.7302e-06 -2.05545e-07 -5.95177e-05
0.00152887 3.01072e-05 4.16618e-07
3.01072e-05 2.91211e-05 -1.06102e-07
4.16618e-07 -1.06102e-07 -7.03127e-05
0.00185134 1.92866e-05 2.07388e-07
1.92866e-05 0.000147554 -9.8585e-07
2.07388e-07 -9.8585e-07 4.93933e-05
0.000770021 4.70181e-05 -7.66917e-06
4.70181e-05 -0.000201128 -2.24548e-06
-7.66917e-06 -2.24548e-06 -0.000284415
0.00153297 7.08353e-05 -1.17192e-06
7.08353e-05 0.000109726 -3.50382e-07
-1.17192e-06 -3.50382e-07 1.36063e-05
0.00167744 6.77468e-05 2.64457e-06
6.77468e-05 0.000127888 -1.80552e-07
2.64457e-06 -1.80552e-07 2.61087e-05
0.000724374 5.72076e-05 -1.12641e-05
5.72076e-05 -5.86779e-05 -4.27906e-06
-1.12641e-05 -4.27906e-06 -0.00010806
0.00071467 5.63124e-05 -1.86203e-06
5.63124e-05 -0.000191124 -6.74698e-07
-1.86203e-06 -6.74698e-07 -0.000274067
0.00152668 8.98194e-05 3.87689e-06
8.98194e-05 0.000157973 8.92445e-07
3.87689e-06 8.92445e-07 6.32028e-05
0.0040517 -6.97144e-05 -6.54773e-05
-6.97144e-05 0.00177173 -3.91678e-06
-6.54773e-05 -3.91678e-06 0.00175918
0.000687778 5.08546e-05 1.73443e-07
5.08546e-05 -5.20723e-05 1.89723e-07
1.73443e-07 1.89723e-07 -0.000101768
0.000591941 5.57994e-05 4.48454e-06
5.57994e-05 -0.000202804 1.97546e-06
4.48454e-06 1.97546e-06 -0.000284477
0.00343311 -8.12769e-05 -3.16202e-06
-8.12769e-05 0.00145194 1.90334e-07
-3.16202e-06 1.90334e-07 0.00144208
0.000603066 2.94285e-05 6.6402e-06
2.94285e-05 -7.26169e-05 4.34204e-06
6.6402e-06 4.34204e-06 -0.000119841
0.00301354 -9.3065e-05 3.90563e-05
-9.3065e-05 0.00121952 2.72447e-06
3.90563e-05 2.72447e-06 0.00121316
0.00183237 3.93195e-06 -5.75114e-08
3.93195e-06 0.000152565 -8.52386e-07
-5.75114e-08 -8.52386e-07 5.06122e-05
0.00179555 -6.87356e-06 7.19459e-08
-6.87356e-06 0.000110719 7.65704e-07
7.19459e-08 7.65704e-07 1.23753e-05
0.00182127 -4.79823e-06 -7.24221e-07
-4.79823e-06 0.00010733 2.42346e-07
-7.24221e-07 2.42346e-07 1.02785e-05
0.00177197 -2.04719e-06 -2.79382e-06
-2.04719e-06 0.000159894 -1.45826e-07
-2.79382e-06 -1.45826e-07 5.67009e-05
0.00181783 8.91365e-06 6.41899e-07
8.91365e-06 0.000149459 2.89134e-09
6.41899e-07 2.89134e-09 4.13389e-05
0.00169787 6.92907e-06 -2.53009e-07
6.92907e-06 7.00802e-05 -3.67932e-07
-2.53009e-07 -3.67932e-07 -3.63783e-05
0.00170795 1.5734e-05 8.56645e-07
1.5734e-05 0.000127424 -5.82665e-07
8.56645e-07 -5.82665e-07 2.17445e-05
0.00170888 9.98083e-06 8.31616e-07
9.98083e-06 0.000160494 -9.96911e-08
8.31616e-07 -9.96911e-08 6.03785e-05
0.000940188 3.5241e-06 -7.63661e-06
3.5241e-06 -0.000168252 1.43498e-06
-7.63661e-06 1.43498e-06 -0.000259068
0.00181749 1.35619e-05 3.51755e-06
1.35619e-05 0.000244207 -2.09465e-07
3.51755e-06 -2.09465e-07 0.000149307
0.00103508 5.49668e-06 -1.53134e-06
5.49668e-06 -8.70939e-05 3.79361e-07
-1.53134e-06 3.79361e-07 -0.000171603
0.000720819 -2.91863e-06 -1.09593e-05
-2.91863e-06 -9.98603e-05 1.18324e-06
-1.09593e-05 1.18324e-06 -0.000150329
0.00120887 -1.25396e-05 6.78651e-06
-1.25396e-05 1.43455e-05 -8.61608e-07
6.78651e-06 -8.61608e-07 -6.62706e-05
0.000711812 -2.52035e-06 2.4474e-07
-2.52035e-06 -9.48887e-05 -6.13254e-08
2.4474e-07 -6.13254e-08 -0.000142233
0.00441962 3.5515e-05 -7.66256e-05
3.5515e-05 0.00193525 9.39796e-07
-7.66256e-05 9.39796e-07 0.00192847
0.000689636 -1.38672e-05 1.02919e-05
-1.38672e-05 -9.80108e-05 -2.15959e-06
1.02919e-05 -2.15959e-06 -0.000144337
0.00437343 4.20607e-05 1.99335e-08
4.20607e-05 0.00191565 2.55462e-07
1.99335e-08 2.55462e-07 0.00190825
0.00156977 -1.17262e-07 6.70786e-05
-1.17262e-07 0.000459242 -2.74435e-06
6.70786e-05 -2.74435e-06 0.000437955
0.00183914 1.46896e-06 1.09258e-07
1.46896e-06 0.000177388 -3.39286e-07
1.09258e-07 -3.39286e-07 8.13551e-05
0.00174571 -4.5166e-06 5.23236e-07
-4.5166e-06 0.000103041 4.22607e-07
5.23236e-07 4.22607e-07 9.34263e-06
0.00147748 1.23641e-05 -2.2768e-06
1.23641e-05 4.36176e-05 -4.43555e-07
-2.2768e-06 -4.43555e-07 -5.09272e-05
0.00164611 1.18599e-05 3.44153e-07
1.18599e-05 8.14866e-05 -6.32161e-08
3.44153e-07 -6.32161e-08 -1.49278e-05
0.0016413 4.35325e-06 1.03123e-06
4.35325e-06 4.03709e-05 -2.77879e-07
1.03123e-06 -2.77879e-07 -5.39237e-05
0.00121408 3.45227e-05 -6.76008e-06
3.45227e-05 7.11762e-06 -1.5397e-06
-6.76008e-06 -1.5397e-06 -7.442e-05
0.00147118 3.95704e-05 -4.42319e-08
3.95704e-05 5.45155e-05 1.01637e-07
-4.42319e-08 1.01637e-07 -4.0367e-05
0.00160324 3.02444e-05 1.14959e-06
3.02444e-05 6.6258e-05 -4.25638e-07
1.14959e-06 -4.25638e-07 -3.26434e-05
0.000717193 4.44422e-05 -1.16023e-05
4.44422e-05 -8.2455e-05 -3.63889e-06
-1.16023e-05 -3.63889e-06 -0.00013058
0.000987317 5.21138e-05 -2.21754e-06
5.21138e-05 -8.81954e-05 -5.22687e-07
-2.21754e-06 -5.22687e-07 -0.000170886
0.00191822 7.92831e-05 2.93837e-06
7.92831e-05 0.000309764 3.81448e-07
2.93837e-06 3.81448e-07 0.000215089
0.00434707 -6.14786e-05 -7.06254e-05
-6.14786e-05 0.00191489 -3.43941e-06
-7.06254e-05 -3.43941e-06 0.0019036
0.000682028 5.3025e-05 2.08407e-07
5.3025e-05 -7.86959e-05 1.63933e-07
2.08407e-07 1.63933e-07 -0.000128129
0.000754392 5.79528e-05 4.1698e-06
5.79528e-05 -0.000173838 1.26465e-06
4.1698e-06 1.26465e-06 -0.000257403
0.00384219 -6.90152e-05 -1.46777e-06
-6.90152e-05 0.00166396 2.29962e-07
-1.46777e-06 2.29962e-07 0.00165267
0.000600994 4.56855e-05 8.50416e-06
4.56855e-05 -9.35461e-05 4.77486e-06
8.50416e-06 4.77486e-06 -0.000142997
0.00325299 -9.85858e-05 4.40525e-05
-9.85858e-05 0.00135974 2.71319e-06
4.40525e-05 2.71319e-06 0.00134918
0.00177876 8.93581e-06 -1.74499e-06
8.93581e-06 0.000170388 -1.02615e-06
-1.74499e-06 -1.02615e-06 7.17805e-05
0.00183301 1.66834e-06 3.96864e-07
1.66834e-06 0.000155678 3.94283e-07
3.96864e-07 3.94283e-07 5.40063e-05
0.00181087 -6.36353e-06 1.0976e-06
-6.36353e-06 0.00011989 2.04902e-06
1.0976e-06 2.04902e-06 2.15217e-05
0.00097786 -1.29974e-05 -8.41403e-06
-1.29974e-05 -0.000170477 2.96383e-07
-8.41403e-06 2.96383e-07 -0.000263678
0.00179312 4.82934e-06 8.77762e-07
4.82934e-06 0.000171951 1.14094e-07
8.77762e-07 1.14094e-07 6.84679e-05
0.00177375 8.85448e-06 1.4371e-06
8.85448e-06 0.00013065 -2.77165e-07
1.4371e-06 -2.77165e-07 2.28776e-05
0.00170963 9.89383e-06 3.62367e-06
9.89383e-06 0.000161158 -5.88409e-07
3.62367e-06 -5.88409e-07 6.1056e-05
0.000918422 2.94255e-06 -1.11661e-06
2.94255e-06 -0.000175595 3.92824e-07
-1.11661e-06 3.92824e-07 -0.000265782
0.000741386 4.98239e-06 -1.15125e-05
4.98239e-06 -0.000106977 7.66688e-07
-1.15125e-05 7.66688e-07 -0.000161115
0.00119396 8.66406e-06 5.14108e-06
8.66406e-06 -2.27807e-06 -6.42493e-07
5.14108e-06 -6.42493e-07 -8.51614e-05
0.000744176 6.4802e-06 3.15166e-07
6.4802e-06 -8.92178e-05 -4.49135e-08
3.15166e-07 -4.49135e-08 -0.00013973
0.00455278 3.54203e-05 -7.95437e-05
3.54203e-05 0.00199912 2.36403e-07
-7.95437e-05 2.36403e-07 0.00199231
0.000718741 6.55286e-06 1.03878e-05
6.55286e-06 -9.15636e-05 -1.4288e-06
1.03878e-05 -1.4288e-06 -0.000138893
0.0044634 4.61645e-05 1.73119e-06
4.61645e-05 0.00195703 2.25412e-07
1.73119e-06 2.25412e-07 0.00194997
0.00443937 4.56912e-05 7.84278e-05
4.56912e-05 0.001948 -1.12874e-06
7.84278e-05 -1.12874e-06 0.00194074
0.00156011 3.46543e-06 -2.32789e-06
3.46543e-06 7.379e-05 -1.01664e-06
-2.32789e-06 -1.01664e-06 -2.23333e-05
0.00172167 3.38938e-07 3.94577e-07
3.38938e-07 0.000114808 5.23831e-08
3.94577e-07 5.23831e-08 1.90305e-05
0.00164129 -4.87928e-06 9.80151e-08
-4.87928e-06 4.93047e-05 6.67118e-07
9.80151e-08 6.67118e-07 -4.33693e-05
0.00123558 9.95046e-06 -6.58478e-06
9.95046e-06 1.49115e-06 -1.50319e-06
-6.58478e-06 -1.50319e-06 -8.11906e-05
0.00150679 1.24464e-05 1.31595e-07
1.24464e-05 5.76847e-05 -3.9986e-08
1.31595e-07 -3.9986e-08 -3.6931e-05
0.00167542 1.14456e-05 5.3622e-07
1.14456e-05 9.52621e-05 -4.21399e-07
5.3622e-07 -4.21399e-07 -1.23774e-06
0.000729062 2.64874e-05 -1.14378e-05
2.64874e-05 -9.22866e-05 -3.04538e-06
-1.14378e-05 -3.04538e-06 -0.000140374
0.00121757 3.51702e-05 -7.92289e-08
3.51702e-05 9.45273e-06 1.28019e-07
-7.92289e-08 1.28019e-07 -7.22677e-05
0.00151275 4.02508e-05 3.08532e-06
4.02508e-05 7.4065e-05 4.73697e-07
3.08532e-06 4.73697e-07 -2.08107e-05
0.00450187 -2.8548e-05 -8.07826e-05
-2.8548e-05 0.0019801 -2.63076e-06
-8.07826e-05 -2.63076e-06 0.00197286
0.000693113 4.27352e-05 1.18791e-08
4.27352e-05 -9.37202e-05 1.12955e-07
1.18791e-08 1.12955e-07 -0.000141969
0.00120462 5.74347e-05 4.87264e-06
5.74347e-05 2.47352e-05 1.36764e-06
4.87264e-06 1.36764e-06 -5.73726e-05
0.00417914 -5.02911e-05 3.48622e-06
-5.02911e-05 0.00182961 9.99627e-08
3.48622e-06 9.99627e-08 0.00181909
0.000633282 4.78866e-05 9.86148e-06
4.78866e-05 -0.000101982 4.35894e-06
9.86148e-06 4.35894e-06 -0.000151478
0.00363457 -9.05826e-05 5.1678e-05
-9.05826e-05 0.00156158 3.35932e-06
5.1678e-05 3.35932e-06 0.00154882
0.00132031 1.64286e-06 -7.05928e-06
1.64286e-06 1.25399e-05 -8.27096e-07
-7.05928e-06 -8.27096e-07 -7.64301e-05
0.00161516 3.64083e-06 1.05081e-06
3.64083e-06 8.35252e-05 -1.94352e-07
1.05081e-06 -1.94352e-07 -1.67407e-05
0.00183031 -1.79667e-06 9.62992e-07
-1.79667e-06 0.000157029 1.89563e-06
9.62992e-07 1.89563e-06 5.56339e-05
0.00075708 1.25942e-05 -1.22271e-05
1.25942e-05 -0.000114168 -2.25708e-07
-1.22271e-05 -2.25708e-07 -0.000169478
0.000957472 -5.67152e-06 -1.41109e-06
-5.67152e-06 -0.000179289 3.65196e-07
-1.41109e-06 3.65196e-07 -0.000272295
0.00181464 1.14631e-05 4.44309e-06
1.14631e-05 0.000184204 -3.15586e-07
4.44309e-06 -3.15586e-07 8.04279e-05
0.000895938 2.83756e-06 4.95643e-06
2.83756e-06 -0.000183363 -3.41599e-07
4.95643e-06 -3.41599e-07 -0.000272911
0.000759856 8.03337e-06 2.05194e-07
8.03337e-06 -9.85597e-05 2.56192e-07
2.05194e-07 2.56192e-07 -0.000152855
0.00481811 3.60543e-05 -8.31261e-05
3.60543e-05 0.00212762 -4.6461e-07
-8.31261e-05 -4.6461e-07 0.00212042
0.000762802 1.51068e-05 1.08698e-05
1.51068e-05 -8.05403e-05 -1.05798e-06
1.08698e-05 -1.05798e-06 -0.000131315
0.00464012 3.87739e-05 1.4093e-06
3.87739e-05 0.0020414 2.92016e-07
1.4093e-06 2.92016e-07 0.00203458
0.00450804 4.42171e-05 8.28835e-05
4.42171e-05 0.00197804 -4.10388e-07
8.28835e-05 -4.10388e-07 0.00197137
0.00128094 1.23185e-06 -6.88555e-06
1.23185e-06 7.3636e-06 -1.62009e-06
-6.88555e-06 -1.62009e-06 -7.82812e-05
0.00148373 1.97291e-06 -3.20796e-08
1.97291e-06 3.20149e-05 -1.64762e-07
-3.20796e-08 -1.64762e-07 -6.45843e-05
0.001607 -8.71793e-07 3.08745e-07
-8.71793e-07 5.36675e-05 4.53336e-07
3.08745e-07 4.53336e-07 -4.18581e-05
0.00238467 3.12695e-06 -4.6976e-05
3.12695e-06 0.000755923 -1.8079e-06
-4.6976e-05 -1.8079e-06 0.000715742
0.00124497 1.0702e-05 1.1401e-07
1.0702e-05 6.4937e-06 6.97035e-08
1.1401e-07 6.97035e-08 -7.63857e-05
0.00153986 1.23845e-05 2.72509e-06
1.23845e-05 7.36295e-05 4.23289e-07
2.72509e-06 4.23289e-07 -2.10573e-05
0.0046298 -1.99995e-05 -8.78094e-05
-1.99995e-05 0.00203601 -1.88176e-06
-8.78094e-05 -1.88176e-06 0.00202998
0.000720699 2.75819e-05 -6.50081e-08
2.75819e-05 -9.61423e-05 5.34965e-08
-6.50081e-08 5.34965e-08 -0.000144256
0.00122044 3.56458e-05 6.94954e-06
3.56458e-05 1.14832e-05 1.74697e-06
6.94954e-06 1.74697e-06 -7.04351e-05
0.00440539 -2.4102e-05 2.01062e-06
-2.4102e-05 0.00193326 2.78645e-07
2.01062e-06 2.78645e-07 0.00192573
0.000670751 4.14167e-05 1.06974e-05
4.14167e-05 -0.00010409 3.74143e-06
1.06974e-05 3.74143e-06 -0.000152407
0.00403595 -4.42191e-05 6.6047e-05
-4.42191e-05 0.00175595 3.21251e-06
6.6047e-05 3.21251e-06 0.00174693
0.00080761 6.12909e-06 -1.44981e-05
6.12909e-06 -9.07887e-05 -1.8252e-06
-1.44981e-05 -1.8252e-06 -0.000147224
0.00113554 -1.30168e-06 2.41033e-07
-1.30168e-06 -8.40472e-05 3.17351e-07
2.41033e-07 3.17351e-07 -0.000174071
0.00144686 -1.64874e-06 3.62652e-06
-1.64874e-06 -5.89874e-06 1.00654e-06
3.62652e-06 1.00654e-06 -0.000107762
0.00506336 -5.24526e-05 -8.37675e-05
-5.24526e-05 0.00225384 -1.46533e-06
-8.37675e-05 -1.46533e-06 0.00224156
0.000778417 8.65452e-06 3.43508e-08
8.65452e-06 -0.000102984 3.44726e-07
3.43508e-08 3.44726e-07 -0.000158998
0.000941295 1.23129e-06 5.38344e-06
1.23129e-06 -0.000185951 2.69163e-07
5.38344e-06 2.69163e-07 -0.000278775
0.000786557 1.54387e-05 1.1592e-05
1.54387e-05 -8.57455e-05 -1.6316e-07
1.1592e-05 -1.6316e-07 -0.000140403
0.00491606 6.87576e-05 3.79612e-06
6.87576e-05 0.00217766 4.00048e-07
3.79612e-06 4.00048e-07 0.00216883
0.0047286 5.71359e-05 8.85198e-05
5.71359e-05 0.00208487 2.84895e-07
8.85198e-05 2.84895e-07 0.00207748
0.0024971 -1.63039e-05 -5.16172e-05
-1.63039e-05 0.000798862 -1.9586e-06
-5.16172e-05 -1.9586e-06 0.000755384
0.00128304 2.82759e-06 -7.30731e-08
2.82759e-06 8.32137e-06 -3.10155e-09
-7.30731e-08 -3.10155e-09 -7.7311e-05
0.00140613 6.59519e-07 2.35265e-06
6.59519e-07 -1.04023e-05 7.57474e-07
2.35265e-06 7.57474e-07 -0.000107471
0.00453072 -1.16093e-05 -2.49578e-05
-1.16093e-05 0.00198632 -7.78756e-07
-2.49578e-05 -7.78756e-07 0.00197694
0.000765072 9.24953e-06 -1.63386e-07
9.24953e-06 -8.54741e-05 9.90493e-08
-1.63386e-07 9.90493e-08 -0.000135546
0.00125925 1.23966e-05 6.75889e-06
1.23966e-05 1.36886e-05 1.60508e-06
6.75889e-06 1.60508e-06 -6.93307e-05
0.00455502 -1.48023e-05 -1.73464e-07
-1.48023e-05 0.00200041 3.23689e-07
-1.73464e-07 3.23689e-07 0.00199419
0.000708557 2.93613e-05 1.14735e-05
2.93613e-05 -0.000101657 3.20879e-06
1.14735e-05 3.20879e-06 -0.000149809
0.00429674 -1.61829e-05 7.57069e-05
-1.61829e-05 0.00187924 2.94246e-06
7.57069e-05 2.94246e-06 0.00187203
0.00176344 -1.0799e-05 -8.84144e-05
-1.0799e-05 0.000520743 -2.38664e-07
-8.84144e-05 -2.38664e-07 0.000495449
0.00167466 3.92406e-06 -2.07316e-05
3.92406e-06 0.000362831 5.22755e-07
-2.07316e-05 5.22755e-07 0.00031294
0.000960634 -7.10304e-07 6.90217e-06
-7.10304e-07 -0.000175516 1.48094e-06
6.90217e-06 1.48094e-06 -0.000266596
0.00508489 -3.51039e-05 3.91604e-06
-3.51039e-05 0.00226104 -7.83855e-07
3.91604e-06 -7.83855e-07 0.00225088
0.000783241 6.71335e-06 1.23761e-05
6.71335e-06 -0.00010055 9.07779e-07
1.23761e-05 9.07779e-07 -0.00015683
0.0049962 3.99455e-05 9.34821e-05
3.99455e-05 0.00221383 1.0035e-06
9.34821e-05 1.0035e-06 0.00220672
0.0014706 -3.72163e-05 -9.79129e-06
-3.72163e-05 0.000384113 -8.25476e-07
-9.79129e-06 -8.25476e-07 0.000355525
0.00165989 2.04627e-06 -1.96932e-05
2.04627e-06 0.000366334 2.0109e-07
-1.96932e-05 2.0109e-07 0.000318179
0.00128613 2.10685e-06 6.57823e-06
2.10685e-06 9.88118e-06 1.63176e-06
6.57823e-06 1.63176e-06 -7.57802e-05
0.00306027 -8.983e-06 3.58137e-05
-8.983e-06 0.00121554 3.43064e-07
3.58137e-05 3.43064e-07 0.00119944
0.000758069 1.5946e-05 1.18765e-05
1.5946e-05 -8.91676e-05 2.83624e-06
1.18765e-05 2.83624e-06 -0.000139435
0.00449664 -7.25365e-06 8.19302e-05
-7.25365e-06 0.00197256 2.4601e-06
8.19302e-05 2.4601e-06 0.00196625
0.00510686 -6.67645e-05 -4.05242e-06
-6.67645e-05 0.00226984 4.51853e-07
-4.05242e-06 4.51853e-07 0.00226049
0.000779498 1.00553e-05 1.242e-05
1.00553e-05 -0.000102327 1.94014e-06
1.242e-05 1.94014e-06 -0.000157644
0.00511989 4.32369e-05 9.07569e-05
4.32369e-05 0.00227818 -8.94052e-07
9.07569e-05 -8.94052e-07 0.0022677
0.00321839 -1.26043e-05 3.77474e-05
-1.26043e-05 0.0012895 1.10212e-08
3.77474e-05 1.10212e-08 0.00127206
0.000785466 8.29704e-06 1.20042e-05
8.29704e-06 -8.741e-05 2.48961e-06
1.20042e-05 2.48961e-06 -0.000140947
0.0046688 -9.8141e-06 8.49256e-05
-9.8141e-06 0.0020537 1.76357e-06
8.49256e-05 1.76357e-06 0.00204755
0.00503921 -0.000114229 8.46809e-05
-0.000114229 0.00224241 -6.61188e-08
8.46809e-05 -6.61188e-08 0.00222906
0.00486867 -5.28749e-05 8.50037e-05
-5.28749e-05 0.00215185 7.43213e-07
8.50037e-05 7.43213e-07 0.00214412
