# vtk DataFile Version 2.0
Wound Healing Simulation
ASCII
DATASET UNSTRUCTURED_GRID
POINTS 3012 float
69.9759 18.75 4
67.2507 60.3285 4
69.976 18.75 2
73.0099 25.446 4
71.1327 20.9142 4
68.6801 16.6661 4
67.8261 19.9261 3.98378
67.2507 60.3286 2
71.1327 54.0858 4
68.6801 58.3339 4
65.6939 62.2254 4
65.3129 59.002 3.9845
74.6784 42.3946 4
73.7221 47.2057 4
69.9759 18.75 0
73.0099 25.446 2
68.6801 16.6661 2
71.1327 20.9142 2
67.8266 19.9289 2
74.6792 32.6053 4
73.7222 27.7943 4
72.1454 23.1494 4
70.6147 26.2211 3.98386
68.8864 21.9583 3.98438
67.2507 14.6715 4
66.6377 17.9715 3.98364
65.7981 21.0251 3.97559
67.2507 60.3285 0
71.1327 54.0858 2
68.6801 58.3339 2
65.694 62.2255 2
65.314 58.9994 2
72.1454 51.8506 4
69.9759 56.25 4
68.8368 53.113 3.98336
64.0165 64.0165 4
66.6113 57.1342 3.98401
63.8865 60.7668 3.98647
63.5016 57.7728 3.9775
60.3285 67.2507 4
74.6792 42.3947 2
73.7222 47.2057 2
74.9194 39.9526 4
74.2788 44.8158 4
72.1685 42.0857 3.98234
73.0099 49.554 4
71.2497 46.5983 3.98276
73.0099 25.446 0
71.1327 20.9142 0
68.6801 16.6661 0
67.8261 19.9261 0.0162166
74.6792 32.6053 2
73.7222 27.7943 2
67.2508 14.6715 2
72.1455 23.1494 2
70.6148 26.2216 2
66.6385 17.9744 2
68.8867 21.9603 2
65.7976 21.0253 2
74.9197 35.0474 4
74.2794 30.1841 4
72.1852 32.9432 3.98267
71.2787 28.4313 3.98325
69.8162 24.0599 3.98428
68.348 26.9509 3.97418
66.7637 22.9329 3.97515
65.694 12.7746 4
65.3246 16.1025 3.98531
64.7147 19.1946 3.97613
63.8869 22.0357 3.9716
71.1327 54.0858 0
65.6939 62.2254 0
68.6801 58.3339 0
65.3129 59.002 0.0155049
72.1455 51.8506 2
69.9759 56.25 2
68.8371 53.1109 2
64.0165 64.0165 2
66.6121 57.1312 2
63.8878 60.7651 2
63.5015 57.7735 2
62.2254 65.694 4
58.8951 65.4146 3.99197
69.7694 50.9889 3.98334
67.7842 55.1674 3.98344
66.65 52.2094 3.9738
62.3369 62.4281 3.98884
64.6618 56.0322 3.97659
62.204 59.406 3.97901
61.8234 56.6817 3.97315
58.3339 68.6801 4
60.3285 67.2508 2
73.7221 47.2057 0
74.6784 42.3946 0
74.9197 39.9526 2
74.2794 44.8159 2
72.1682 42.0857 2
73.0099 49.554 2
71.2498 46.5978 2
75 37.5 4
72.4057 39.8023 3.98243
71.783 44.3531 3.98264
69.8046 41.7898 3.97265
70.5756 48.8136 3.983
68.9131 46.0153 3.97309
74.6792 32.6053 0
73.7222 27.7943 0
67.2507 14.6715 0
72.1454 23.1494 0
70.6147 26.2211 0.0161353
68.8864 21.9583 0.0156152
66.6377 17.9715 0.0163591
65.7981 21.0251 0.0244134
74.9197 35.0474 2
74.2794 30.1841 2
72.1849 32.9434 2
71.2787 28.4316 2
65.694 12.7745 2
65.3257 16.1047 2
69.8163 24.0611 2
68.3479 26.9512 2
64.7144 19.1943 2
66.7633 22.9333 2
63.8866 22.0355 2
72.4135 35.2241 3.98242
71.8043 30.6761 3.98289
69.8406 33.2679 3.97318
68.9671 29.0376 3.97375
67.6124 24.9116 3.9745
66.1951 27.6339 3.97049
64.0165 10.9835 4
64.7569 23.8298 3.97139
63.891 14.3261 3.98737
63.5148 17.4454 3.97853
62.9065 20.3212 3.97123
62.091 22.9445 3.97013
60.6845 11.0969 3.98967
57.6127 11.4455 3.98313
72.1454 51.8506 0
69.9759 56.25 0
68.8368 53.113 0.0166446
64.0165 64.0165 0
63.8865 60.7668 0.0135284
66.6113 57.1342 0.015989
63.5016 57.7728 0.022505
62.2255 65.694 2
58.8958 65.4143 2
69.7695 50.9876 2
67.7847 55.1646 2
66.6497 52.209 2
62.3381 62.4271 2
64.6616 56.0325 2
62.204 59.4071 2
61.8233 56.6827 2
60.6695 63.9776 3.99062
57.026 66.7353 3.99263
57.5588 63.6935 3.9854
67.5082 50.1771 3.97326
65.7026 54.1735 3.97468
64.5371 51.3852 3.96982
60.774 60.9398 3.98131
62.82 55.0679 3.97239
60.6588 58.1607 3.9741
60.3265 55.7846 3.97249
56.25 69.9759 4
58.3339 68.6801 2
60.3285 67.2507 0
58.9217 9.65527 3.99062
62.2254 9.30607 4
73.0099 49.554 0
74.2788 44.8158 0
71.2497 46.5983 0.0172384
72.1685 42.0857 0.0176619
74.9194 39.9526 0
75 37.5 2
72.4056 39.8024 2
71.7829 44.3527 2
69.8043 41.7896 2
70.5756 48.813 2
68.9131 46.0149 2
72.4891 37.512 3.9822
70.0417 39.6573 3.97251
69.4312 43.9079 3.97295
67.5974 41.4975 3.96939
68.2666 48.1075 3.97305
66.7101 45.4402 3.96948
74.9197 35.0474 0
74.2794 30.1841 0
72.1852 32.9432 0.0173279
71.2787 28.4313 0.0167541
65.694 12.7746 0
65.3246 16.1025 0.0146943
69.8162 24.0599 0.0157176
68.348 26.9509 0.0258206
66.7637 22.9329 0.0248511
64.7147 19.1946 0.0238692
63.8869 22.0357 0.0284035
72.4134 35.2241 2
71.8043 30.6765 2
69.8403 33.2681 2
68.9671 29.0378 2
64.0165 10.9835 2
63.8921 14.3276 2
63.5148 17.4445 2
67.6121 24.912 2
66.195 27.6339 2
62.9062 20.3207 2
64.7566 23.8298 2
62.0907 22.9444 2
60.6854 11.0978 2
57.6128 11.4447 2
70.0583 35.3916 3.97268
69.4678 31.149 3.97324
67.6556 33.5903 3.96975
66.7726 29.622 3.96995
65.5244 25.6988 3.97079
64.146 28.2552 3.96994
62.3424 12.6541 3.98866
62.8559 24.6377 3.97011
62.2006 15.7825 3.98096
61.8141 18.6844 3.97317
61.2144 21.3445 3.96864
60.4219 23.7296 3.96975
59.2469 12.777 3.98179
55.8746 10.232 3.98476
56.4054 13.1121 3.97963
69.7694 50.9889 0.0166596
62.2254 65.694 0
58.8951 65.4146 0.00802524
67.7842 55.1674 0.0165573
66.65 52.2094 0.0262012
62.3369 62.4281 0.011157
62.204 59.406 0.0209922
64.6618 56.0322 0.0234102
61.8234 56.6817 0.026848
60.6704 63.977 2
57.0265 66.7353 2
57.5589 63.6947 2
67.508 50.1766 2
65.7022 54.1733 2
64.5368 51.3852 2
60.7741 60.941 2
62.8199 55.0686 2
60.6588 58.1619 2
60.3266 55.785 2
55.0715 67.9323 3.9929
59.22 62.368 3.9826
55.8057 64.9116 3.98785
56.3275 62.0923 3.98129
65.3315 49.4086 3.96934
63.7052 53.2918 3.9701
62.4395 50.651 3.96824
59.334 59.559 3.97804
61.0743 54.3076 3.97121
59.2883 57.0108 3.9716
59.2391 55.1794 3.97518
48.1037 68.5793 3.98886
50.9491 69.9319 3.99308
54.0858 71.1327 4
56.25 69.976 2
58.3339 68.6801 0
57.059 8.33533 3.99121
60.3285 7.74928 4
58.9225 9.65576 2
62.2255 9.30602 2
70.5756 48.8136 0.0169963
71.783 44.3531 0.0173572
68.9131 46.0153 0.0269085
69.8046 41.7898 0.0273539
72.4057 39.8023 0.0175673
75 37.5 0
72.4888 37.5122 2
70.0416 39.6572 2
69.431 43.9076 2
67.5971 41.4974 2
68.2667 48.1071 2
66.7101 45.4401 2
70.1296 37.5213 3.97256
67.8346 39.5121 3.96944
67.2239 43.47 3.96945
65.5502 41.2092 3.96981
66.0687 47.4183 3.96929
64.6512 44.8479 3.96922
72.4135 35.2241 0.0175767
71.8043 30.6761 0.0171084
69.8406 33.2679 0.0268221
68.9671 29.0376 0.02625
64.0165 10.9835 0
63.891 14.3261 0.0126252
63.5148 17.4454 0.0214719
67.6124 24.9116 0.025499
66.1951 27.6339 0.0295081
64.7569 23.8298 0.0286131
62.9065 20.3212 0.0287743
62.091 22.9445 0.0298656
60.6845 11.0969 0.0103276
57.6127 11.4455 0.0168688
70.0582 35.3917 2
69.4677 31.1492 2
67.6554 33.5904 2
66.7726 29.622 2
62.3434 12.6553 2
62.2005 15.7816 2
61.8141 18.6833 2
65.5242 25.6988 2
64.1459 28.2552 2
61.2143 21.3441 2
62.8556 24.6376 2
60.4216 23.7299 2
59.2469 12.7763 2
56.4053 13.1111 2
55.8747 10.2312 2
67.8705 35.5471 3.96954
67.2653 31.6217 3.96966
65.6952 33.927 3.96995
64.6622 30.1917 3.96935
63.5373 26.4142 3.96988
62.252 28.7788 3.97149
60.7764 14.2214 3.98165
61.0415 25.3393 3.97033
60.6139 17.126 3.97733
60.2197 19.8189 3.96905
59.6544 22.2628 3.96857
58.9706 24.3241 3.97028
54.0377 9.13502 3.98583
57.9108 14.3305 3.98002
54.7868 12.0111 3.98099
55.3123 14.6461 3.9783
67.5082 50.1771 0.0267351
57.026 66.7353 0.0073653
60.6695 63.9776 0.00937833
57.5588 63.6935 0.0145975
65.7026 54.1735 0.0253187
64.5371 51.3852 0.0301753
60.774 60.9398 0.0186936
60.6588 58.1607 0.025903
62.82 55.0679 0.0276061
60.3265 55.7846 0.027512
55.0719 67.9323 2
59.2201 62.3691 2
55.8056 64.9125 2
56.3275 62.0936 2
65.3313 49.4085 2
63.7048 53.292 2
62.4393 50.651 2
59.3341 59.5602 2
61.0745 54.308 2
59.2885 57.0112 2
59.2394 55.1796 2
53.0433 69.0001 3.99302
53.9681 66.0139 3.98861
57.8811 60.8719 3.97961
54.6846 63.21 3.98367
55.2115 60.6182 3.97915
63.1911 48.6603 3.96838
61.7377 52.5736 3.96801
60.2612 50.0149 3.96792
58.0179 58.2615 3.97383
59.3215 53.9431 3.97092
58.1231 55.8054 3.96915
50.1104 67.8573 3.98887
47.4639 66.5823 3.98632
46.0572 69.1586 3.98885
48.1037 68.5798 2
48.8032 70.7232 3.99316
50.9494 69.932 2
51.8506 72.1454 4
54.0858 71.1327 2
56.25 69.9759 0
55.1035 7.14 3.99158
58.3339 6.31992 4
57.0597 8.33556 2
60.3286 7.74926 2
58.9217 9.65527 0.00938271
62.2254 9.30607 0
68.2666 48.1075 0.0269537
69.4312 43.9079 0.0270534
66.7101 45.4402 0.0305241
67.5974 41.4975 0.0306112
70.0417 39.6573 0.0274856
72.4891 37.512 0.0178
70.1295 37.5213 2
67.8345 39.5121 2
67.2238 43.4699 2
65.5499 41.2091 2
66.0686 47.4182 2
64.651 44.8478 2
67.9308 37.5217 3.96943
65.7803 39.3697 3.97
65.1741 43.0248 3.9695
63.7298 40.9284 3.97198
63.9615 46.7159 3.96872
62.7963 44.2144 3.97197
70.0583 35.3916 0.0273216
69.4678 31.149 0.0267621
67.6556 33.5903 0.030252
66.7726 29.622 0.0300475
62.3424 12.6541 0.0113404
62.2006 15.7825 0.0190408
61.8141 18.6844 0.0268325
65.5244 25.6988 0.0292068
64.146 28.2552 0.0300576
62.8559 24.6377 0.0298857
61.2144 21.3445 0.0313637
60.4219 23.7296 0.0302483
59.2469 12.777 0.0182149
56.4054 13.1121 0.0203666
55.8746 10.232 0.0152419
67.8704 35.5471 2
67.2653 31.6217 2
65.6951 33.9269 2
64.6621 30.1917 2
60.7763 14.2207 2
60.6138 17.1247 2
60.2199 19.8179 2
63.5371 26.4142 2
62.2516 28.7789 2
59.6547 22.263 2
61.0413 25.3394 2
58.9702 24.3245 2
57.9105 14.3296 2
55.3119 14.6453 2
54.0378 9.13428 2
54.7867 12.0101 2
65.8703 35.6664 3.96991
65.1817 32.1541 3.96948
64.2675 34.2497 3.97156
62.5787 30.6368 3.97143
61.6437 27.0738 3.97055
60.8328 29.1424 3.97437
59.3116 15.667 3.97944
59.3151 25.8006 3.97263
59.1226 18.3559 3.97448
58.7327 20.8604 3.96606
58.2745 23.0973 3.96774
57.9517 24.6697 3.97186
52.1124 8.15323 3.98666
53.058 11.0169 3.98229
56.6765 15.7417 3.97927
53.8091 13.6811 3.97904
54.3754 15.9998 3.97858
55.0715 67.9323 0.0071021
65.3315 49.4086 0.0306637
55.8057 64.9116 0.0121456
59.22 62.368 0.0174019
56.3275 62.0923 0.0187065
63.7052 53.2918 0.0299038
62.4395 50.651 0.0317569
59.334 59.559 0.0219619
59.2883 57.0108 0.0283953
61.0743 54.3076 0.0287894
59.2391 55.1794 0.0248202
53.0437 69.0002 2
53.968 66.0146 2
57.8811 60.8731 2
54.6845 63.2111 2
55.2115 60.6196 2
63.191 48.6602 2
61.7375 52.5737 2
60.2612 50.0147 2
58.0179 58.2629 2
59.3219 53.9431 2
58.1233 55.8054 2
52.0716 67.0004 3.98884
52.9541 64.2208 3.98545
56.6482 59.4896 3.97739
53.6815 61.625 3.98137
54.2595 59.3226 3.97678
60.972 47.8761 3.96899
59.7001 52.1011 3.9675
57.9977 49.6085 3.97087
56.7746 56.9813 3.97138
57.1112 54.1116 3.96831
50.1104 67.8578 2
49.3377 65.9227 3.98629
47.4638 66.5828 2
46.8932 64.7379 3.98487
45.5589 67.0994 3.98623
43.974 69.5909 3.98881
46.0572 69.1591 2
46.6098 71.3677 3.99315
48.1037 68.5793 0.0111356
48.8035 70.7234 2
49.554 73.0099 4
50.9491 69.9319 0.00692261
51.8506 72.1455 2
54.0858 71.1327 0
53.0647 6.07155 3.99183
55.104 7.14006 2
56.25 5.02411 4
58.3339 6.3199 2
57.059 8.33533 0.00879422
60.3285 7.74928 0
66.0687 47.4183 0.0307081
67.2239 43.47 0.0305514
64.6512 44.8479 0.0307776
65.5502 41.2092 0.030191
67.8346 39.5121 0.0305638
70.1296 37.5213 0.0274388
67.9306 37.5217 2
65.78 39.3697 2
65.174 43.0247 2
63.7296 40.9283 2
63.9613 46.7158 2
62.7957 44.2142 2
65.8833 37.5013 3.96983
63.8651 39.2658 3.97162
63.3081 42.5485 3.9718
62.3874 40.6962 3.97401
61.953 45.9161 3.97098
61.4208 43.6803 3.97468
67.8705 35.5471 0.030456
67.2653 31.6217 0.0303405
65.6952 33.927 0.0300539
64.6622 30.1917 0.0306468
60.7764 14.2214 0.0183511
60.6139 17.126 0.0226697
60.2197 19.8189 0.0309454
63.5373 26.4142 0.0301151
62.252 28.7788 0.0285144
61.0415 25.3393 0.0296678
59.6544 22.2628 0.0314272
58.9706 24.3241 0.0297152
57.9108 14.3305 0.0199806
55.3123 14.6461 0.0217024
54.0377 9.13502 0.0141704
54.7868 12.0111 0.0190149
65.87 35.6664 2
65.1817 32.154 2
64.2674 34.2497 2
62.5785 30.6369 2
59.3112 15.666 2
59.1227 18.3546 2
58.7332 20.8604 2
61.6431 27.0739 2
60.8328 29.1425 2
58.2746 23.0976 2
59.3155 25.8009 2
57.9513 24.6702 2
56.676 15.7407 2
54.3748 15.999 2
53.8089 13.6801 2
52.1124 8.15257 2
53.0579 11.016 2
64.0634 35.6321 3.9713
62.8997 33.047 3.97184
60.5832 30.6139 3.97451
59.5484 27.9139 3.97383
57.9391 16.9827 3.97796
57.714 25.7316 3.97398
57.7103 19.4795 3.9704
57.3566 21.8495 3.96505
57.167 23.9532 3.96881
50.1125 7.28477 3.98736
51.2326 10.1247 3.98341
52.1717 12.7977 3.98074
55.5364 16.9727 3.97879
52.9765 15.2655 3.97671
53.7564 16.9826 3.97988
53.0433 69.0001 0.00698336
53.9681 66.0139 0.0113862
63.1911 48.6603 0.0316165
54.6846 63.21 0.0163314
57.8811 60.8719 0.0203875
55.2115 60.6182 0.0208492
61.7377 52.5736 0.0319914
60.2612 50.0149 0.0320818
58.0179 58.2615 0.0261655
58.1231 55.8054 0.0308511
59.3215 53.9431 0.0290807
52.0715 67.001 2
52.954 64.2216 2
56.6481 59.4909 2
53.6814 61.6263 2
54.2596 59.3239 2
60.9714 47.8758 2
59.7003 52.101 2
57.9962 49.608 2
56.7742 56.9857 2
57.1118 54.1116 2
51.1687 65.1298 3.98611
52.0468 62.5413 3.98346
55.4795 58.25 3.97747
52.8341 60.1372 3.97916
53.6382 58.4721 3.97993
58.2638 46.8411 3.97365
57.545 51.7772 3.96839
56.2072 49.5437 3.97158
55.4654 55.7799 3.96825
55.3412 53.3684 3.96943
50.1104 67.8573 0.0111313
49.3376 65.9233 2
48.619 64.1245 3.98498
47.4639 66.5823 0.0136794
45.5588 67.0999 2
46.893 64.7384 2
46.3828 63.0553 3.98421
45.1334 65.1989 3.9848
43.632 67.47 3.98624
41.861 69.8783 3.98865
43.974 69.5914 2
44.377 71.8625 3.99303
46.0572 69.1586 0.0111512
46.61 71.3679 2
47.2057 73.7222 4
48.8032 70.7232 0.00684325
49.554 73.0099 2
51.8506 72.1454 0
50.9545 5.13174 3.99218
53.0651 6.07144 2
54.0858 3.86728 4
55.1035 7.14 0.00841563
56.25 5.02406 2
58.3339 6.31992 0
63.9615 46.7159 0.0312801
65.1741 43.0248 0.030498
62.7963 44.2144 0.0280328
63.7298 40.9284 0.028016
65.7803 39.3697 0.030002
67.9308 37.5217 0.030566
65.8829 37.5013 2
63.8646 39.2658 2
63.3078 42.5484 2
62.3872 40.6962 2
61.9522 45.9158 2
61.4201 43.6801 2
63.9283 37.4565 3.97148
62.0998 39.3539 3.97298
61.1702 41.9556 3.97476
60.2215 44.7662 3.97485
65.8703 35.6664 0.030088
65.1817 32.1541 0.0305202
64.2675 34.2497 0.0284407
62.5787 30.6368 0.0285665
59.3116 15.667 0.0205638
59.1226 18.3559 0.0255232
58.7327 20.8604 0.0339375
61.6437 27.0738 0.0294484
60.8328 29.1424 0.0256338
59.3151 25.8006 0.0273709
58.2745 23.0973 0.0322574
57.9517 24.6697 0.0281445
56.6765 15.7417 0.0207322
54.3754 15.9998 0.0214167
53.8091 13.6811 0.0209636
52.1124 8.15323 0.0133411
53.058 11.0169 0.0177111
64.063 35.6321 2
62.8993 33.0471 2
60.5833 30.614 2
57.9388 16.9815 2
57.7106 19.4778 2
57.3573 21.8498 2
59.5482 27.9142 2
57.1658 23.9538 2
57.7148 25.7319 2
50.1125 7.28425 2
55.5359 16.9716 2
53.7559 16.9817 2
52.9761 15.2644 2
52.1715 12.7968 2
51.2325 10.124 2
62.1346 35.3598 3.97269
60.2336 32.747 3.97434
58.5751 30.0802 3.97583
57.2507 27.3879 3.97529
56.6339 18.1575 3.9775
56.261 25.1093 3.97175
56.3472 20.5297 3.96782
56.0849 22.8792 3.96569
48.0564 6.52748 3.98813
49.3245 9.33204 3.98396
50.4331 11.995 3.98166
51.3768 14.5 3.97912
54.412 17.9227 3.97953
52.3588 17.0408 3.97593
52.0716 67.0004 0.0111615
52.9541 64.2208 0.0145512
60.972 47.8761 0.0310076
53.6815 61.625 0.0186281
56.6482 59.4896 0.0226092
54.2595 59.3226 0.0232213
59.7001 52.1011 0.0325037
57.9977 49.6085 0.0291274
56.7746 56.9813 0.028618
57.1112 54.1116 0.0316935
51.1685 65.1304 2
52.0466 62.5423 2
55.4795 58.251 2
52.8342 60.1385 2
53.6382 58.4733 2
58.2633 46.8408 2
57.5452 51.7769 2
56.2061 49.5431 2
55.4661 55.7807 2
55.3419 53.3687 2
50.3471 63.383 3.98448
51.2443 60.9378 3.98097
54.2155 57.2668 3.97755
52.3111 58.6345 3.97677
56.636 44.1724 3.97694
55.4396 47.8837 3.97435
55.0457 51.3778 3.96812
53.991 54.5258 3.96665
49.3377 65.9227 0.0137081
48.6188 64.1252 2
47.9629 62.4768 3.98412
45.5589 67.0994 0.0137673
46.8932 64.7379 0.015132
43.6319 67.4706 2
46.3826 63.0559 2
45.1332 65.1995 2
45.9884 61.5879 3.9838
44.768 63.4558 3.98401
43.3573 65.5083 3.98471
41.6639 67.6887 3.98595
39.7025 70.0254 3.98873
41.8611 69.8789 2
42.1113 72.2074 3.99294
43.974 69.5909 0.0111948
44.3773 71.8628 2
44.8159 74.2794 4
46.6098 71.3677 0.0068507
47.2057 73.7222 2
49.554 73.0099 0
48.785 4.32257 3.99258
50.9548 5.1316 2
51.8506 2.85458 4
53.0647 6.07155 0.00817271
54.0858 3.86728 2
56.25 5.02411 0
61.953 45.9161 0.0290246
63.3081 42.5485 0.0281953
61.4208 43.6803 0.0253176
62.3874 40.6962 0.0259855
63.8651 39.2658 0.0283833
65.8833 37.5013 0.0301672
63.9276 37.4564 2
62.0991 39.3538 2
61.1698 41.9555 2
60.2206 44.7659 2
61.9384 37.4441 3.97325
60.1792 39.845 3.97549
58.9279 42.9123 3.97644
64.0634 35.6321 0.0286957
62.8997 33.047 0.0281605
60.5832 30.6139 0.0254861
57.9391 16.9827 0.02204
57.7103 19.4795 0.029604
57.3566 21.8495 0.0349488
59.5484 27.9139 0.0261732
57.714 25.7316 0.026021
57.167 23.9532 0.0311859
55.5364 16.9727 0.0212077
53.7564 16.9826 0.0201242
52.9765 15.2655 0.023289
50.1125 7.28477 0.0126418
52.1717 12.7977 0.0192627
51.2326 10.1247 0.0165859
62.1339 35.3598 2
60.2327 32.7471 2
58.5743 30.0806 2
56.6336 18.1561 2
56.3475 20.5268 2
56.0855 22.8798 2
57.2522 27.3882 2
56.2613 25.1101 2
48.0564 6.5269 2
49.3244 9.33155 2
54.4116 17.9219 2
52.3582 17.0399 2
51.3764 14.4988 2
50.4328 11.9943 2
59.8148 35.12 3.9747
57.9215 32.2745 3.97701
56.4912 29.3476 3.97653
55.3996 26.6089 3.97526
55.3362 19.1917 3.97636
54.8963 24.068 3.9681
54.9835 21.5739 3.96714
45.9623 5.88235 3.98875
43.3737 7.47356 3.98593
47.355 8.62505 3.98463
48.6 11.2958 3.98208
49.7132 13.7457 3.98073
50.6317 16.1358 3.97824
53.1198 18.6644 3.97558
51.2967 18.0546 3.98237
51.1687 65.1298 0.0138948
52.0468 62.5413 0.0165441
58.2638 46.8411 0.0263484
52.8341 60.1372 0.0208442
55.4795 58.25 0.0225347
53.6382 58.4721 0.0200748
57.545 51.7772 0.0316051
56.2072 49.5437 0.0284167
55.4654 55.7799 0.0317534
55.3412 53.3684 0.0305725
50.3468 63.3836 2
51.2443 60.9389 2
54.2155 57.268 2
52.3111 58.6356 2
56.635 44.1719 2
55.4375 47.8829 2
55.0464 51.3775 2
53.9918 54.5272 2
49.5924 61.7469 3.9832
55.5188 41.6917 3.97749
50.5661 59.3295 3.9772
52.1786 56.4873 3.97143
54.0912 45.5473 3.9771
53.2752 49.313 3.9712
52.6417 52.8322 3.966
48.619 64.1245 0.015021
47.9627 62.4773 2
47.3301 61.0111 3.98343
43.632 67.47 0.0137647
45.1334 65.1989 0.0151989
46.3828 63.0553 0.015791
41.6639 67.6893 2
43.3571 65.5091 2
45.9883 61.5886 2
44.7679 63.4565 2
45.767 60.6321 3.98249
44.4843 61.8368 3.98333
43.1472 63.7279 3.98353
41.5467 65.6458 3.98409
39.6329 67.7684 3.98567
37.526 70.0505 3.98862
39.7026 70.0261 2
39.8179 72.4044 3.99277
41.861 69.8783 0.0113458
42.1115 72.2077 2
42.3947 74.6792 4
44.377 71.8625 0.00696914
44.8159 74.2794 2
47.2057 73.7222 0
43.8517 5.3591 3.98903
46.5709 3.64703 3.99281
48.7852 4.32234 2
49.554 1.99015 4
50.9545 5.13174 0.00782031
51.8506 2.85453 2
54.0858 3.86728 0
60.2215 44.7662 0.025152
61.1702 41.9556 0.0252415
62.0998 39.3539 0.0270157
63.9283 37.4565 0.0285205
61.9376 37.4441 2
60.1784 39.8449 2
58.9273 42.912 2
59.6711 37.5654 3.97485
57.9049 40.6512 3.97743
54.9616 39.7104 3.97738
62.1346 35.3598 0.0273106
60.2336 32.747 0.0256593
58.5751 30.0802 0.0241705
56.6339 18.1575 0.0225004
56.3472 20.5297 0.0321819
56.0849 22.8792 0.0343057
57.2507 27.3879 0.0247083
56.261 25.1093 0.028249
54.412 17.9227 0.0204676
52.3588 17.0408 0.0240737
51.3768 14.5 0.0208774
48.0564 6.52748 0.0118678
49.3245 9.33204 0.0160365
50.4331 11.995 0.0183397
59.8141 35.12 2
45.9623 5.88188 2
43.3737 7.47307 2
57.9223 32.2749 2
56.4907 29.348 2
55.3362 19.1907 2
54.9845 21.573 2
54.8964 24.0694 2
55.3944 26.6105 2
47.355 8.62441 2
48.5997 11.2954 2
53.1197 18.6635 2
51.2963 18.0536 2
50.6312 16.1347 2
49.7127 13.745 2
57.2866 34.7636 3.97757
55.6516 31.5285 3.97805
54.4266 28.4179 3.97874
53.7334 25.5105 3.97386
53.9591 20.1432 3.97545
53.553 22.7269 3.96234
41.3989 7.07853 3.98662
45.3597 7.99562 3.9857
42.8657 9.41706 3.9835
46.6664 10.6558 3.98236
47.7449 13.1054 3.98162
48.9298 15.405 3.97899
50.0024 17.7047 3.97961
51.6417 19.3286 3.98413
50.3471 63.383 0.015522
51.2443 60.9378 0.0190341
56.636 44.1724 0.023061
55.4396 47.8837 0.0256501
52.3111 58.6345 0.0232319
54.2155 57.2668 0.0224524
55.0457 51.3778 0.0318751
53.991 54.5258 0.0333507
49.5922 61.7474 2
55.5185 41.6912 2
50.5662 59.3307 2
52.1788 56.4883 2
54.0934 45.5466 2
53.2782 49.3124 2
52.6435 52.8316 2
48.8492 60.2035 3.9814
52.3822 42.6203 3.97848
49.7864 57.6243 3.97729
50.576 54.4176 3.96922
51.7159 47.2492 3.97624
51.1675 50.9287 3.96682
48.0186 43.779 3.99158
47.9629 62.4768 0.015878
47.33 61.0117 2
46.6192 59.7973 3.9829
41.6639 67.6887 0.0140471
43.3573 65.5083 0.0152941
44.768 63.4558 0.0159929
45.9884 61.5879 0.0161965
39.633 67.7691 2
41.5465 65.6462 2
45.7668 60.6329 2
43.1471 63.7286 2
44.4842 61.8376 2
44.624 60.2942 3.98287
42.9513 62.0847 3.9825
41.6006 63.821 3.9835
39.648 65.6138 3.98345
37.5634 67.7506 3.98549
31.6965 65.1325 3.98406
33.392 67.4881 3.98545
35.3333 69.9606 3.98863
37.526 70.0512 2
37.5095 72.459 3.99268
39.7025 70.0254 0.0112741
39.8181 72.4048 2
39.9526 74.9197 4
42.1113 72.2074 0.00706422
42.3947 74.6792 2
44.8159 74.2794 0
41.7364 4.96818 3.98944
43.8518 5.35858 2
44.3262 3.1101 3.99315
46.5711 3.64681 2
47.2057 1.27793 4
48.785 4.32257 0.00741685
49.554 1.99013 2
51.8506 2.85458 0
58.9279 42.9123 0.0235621
60.1792 39.845 0.024509
61.9384 37.4441 0.0267537
59.6708 37.5654 2
57.9036 40.651 2
54.9625 39.7091 2
56.6937 37.8925 3.97816
49.4151 41.3196 3.98878
52.9819 39.3046 3.98051
39.4424 6.80186 3.98669
59.8148 35.12 0.0253038
57.9215 32.2745 0.0229935
56.4912 29.3476 0.0234654
55.3362 19.1917 0.0236381
54.9835 21.5739 0.0328614
54.8963 24.068 0.0318981
55.3996 26.6089 0.0247365
53.1198 18.6644 0.0244249
51.2967 18.0546 0.0176259
50.6317 16.1358 0.0217639
45.9623 5.88235 0.0112525
49.7132 13.7457 0.0192731
47.355 8.62505 0.0153675
48.6 11.2958 0.0179232
43.3737 7.47356 0.0140669
57.2856 34.764 2
41.3989 7.07799 2
45.3597 7.99518 2
42.8656 9.41657 2
55.651 31.5287 2
54.4223 28.42 2
53.9596 20.1427 2
53.5536 22.7246 2
53.7317 25.5119 2
46.6662 10.6552 2
47.7444 13.105 2
51.6416 19.3276 2
50.0019 17.7037 2
48.9293 15.4044 2
54.7486 33.9755 3.97709
53.385 30.5008 3.97701
52.5257 27.2189 3.97572
52.103 24.1166 3.97249
52.3736 21.0634 3.9792
41.0136 9.0494 3.98384
44.724 9.99723 3.98324
42.4687 10.905 3.9832
46.0048 12.7337 3.98014
47.6802 14.5888 3.97952
48.11 16.9935 3.97786
49.8126 19.6349 3.97645
49.5924 61.7469 0.0168009
50.5661 59.3295 0.0227976
55.5188 41.6917 0.0225119
54.0912 45.5473 0.0228981
53.2752 49.313 0.0287994
52.1786 56.4873 0.0285692
52.6417 52.8322 0.0339983
48.849 60.2039 2
52.3861 42.619 2
49.7865 57.6259 2
50.5768 54.4182 2
51.718 47.248 2
51.1698 50.9276 2
48.0227 43.7906 2
47.9861 58.7438 3.97965
49.9641 45.2573 3.97812
48.5892 55.915 3.97785
49.099 52.5798 3.97198
49.6033 49.0296 3.97163
45.8184 39.8631 3.89269
46.2602 42.6601 3.93437
46.3741 45.8243 3.99172
43.6556 41.158 3.84571
41.9395 42.0189 3.76252
47.3301 61.0111 0.0165697
46.6189 59.7979 2
45.4684 58.7939 3.98255
39.6329 67.7684 0.0143316
41.5467 65.6458 0.0159146
43.1472 63.7279 0.0164742
44.4843 61.8368 0.0166655
45.767 60.6321 0.0175131
41.6005 63.8215 2
37.5635 67.7515 2
39.6478 65.6144 2
44.6239 60.2949 2
42.9512 62.0853 2
41.7542 62.4954 3.98271
42.4814 59.9847 3.98341
39.8941 63.5554 3.98267
37.6424 65.5127 3.98342
35.4634 67.66 3.98539
33.5751 65.3457 3.98355
31.959 63.3044 3.98339
29.8825 64.7236 3.98468
31.6966 65.1332 2
31.3764 67.198 3.98567
33.392 67.4889 2
33.156 69.7539 3.98849
35.3332 69.9613 2
35.1947 72.3734 3.99264
37.526 70.0505 0.0113764
37.5095 72.4594 2
37.5 75 4
39.8179 72.4044 0.0072307
39.9526 74.9197 2
42.3947 74.6792 0
39.624 4.71524 3.98968
41.7364 4.96767 2
42.0624 2.71765 3.99326
43.8517 5.3591 0.0109725
44.3263 3.1098 2
44.8158 0.721173 4
46.5709 3.64703 0.00718964
47.2057 1.27779 2
49.554 1.99015 0
57.9049 40.6512 0.022567
59.6711 37.5654 0.0251526
54.9616 39.7104 0.0226193
49.4302 41.3227 2
56.692 37.8924 2
52.9842 39.3075 2
53.8298 36.6308 3.9772
47.3411 40.3976 3.94009
50.3551 38.512 3.99049
37.5162 6.67282 3.98703
39.4424 6.8013 2
39.2111 8.69176 3.9845
35.9418 8.49143 3.98489
57.2866 34.7636 0.0224258
55.6516 31.5285 0.0219465
54.4266 28.4179 0.0212567
53.9591 20.1432 0.0245473
53.553 22.7269 0.0376608
53.7334 25.5105 0.0261437
51.6417 19.3286 0.0158734
50.0024 17.7047 0.020387
48.9298 15.405 0.0210062
45.3597 7.99562 0.0142977
47.7449 13.1054 0.0183817
46.6664 10.6558 0.0176425
41.3989 7.07853 0.0133849
42.8657 9.41706 0.0164999
54.7521 33.9748 2
41.0136 9.04891 2
44.7237 9.9969 2
42.4683 10.9046 2
53.3803 30.5003 2
52.5304 27.2203 2
52.3744 21.0618 2
52.1044 24.118 2
46.0044 12.733 2
47.6797 14.5882 2
49.8125 19.6337 2
48.1095 16.993 2
52.3137 32.8891 3.98006
51.2181 29.1694 3.97851
50.7264 25.75 3.9731
49.9236 22.2182 3.9779
40.5702 11.6093 3.98109
43.8581 11.9211 3.98047
45.801 15.4275 3.98016
47.5006 19.2483 3.97673
46.1539 37.4905 3.89965
48.8492 60.2035 0.0185981
49.7864 57.6243 0.0227081
52.3822 42.6203 0.0215211
51.7159 47.2492 0.0237598
51.1675 50.9287 0.0331787
50.576 54.4176 0.0307816
48.0186 43.779 0.0084177
47.9858 58.7447 2
49.9701 45.2606 2
48.5894 55.9176 2
49.0996 52.5816 2
49.6066 49.0289 2
45.8451 39.8747 2
46.2784 42.6739 2
46.3741 45.8184 2
43.6784 41.1754 2
41.9498 42.0275 2
46.8361 57.3458 3.98268
44.4022 39.437 3.84572
42.2842 40.8818 3.79747
47.9795 47.2229 3.97627
47.1514 54.2372 3.97575
47.54 50.7348 3.96581
44.7132 47.4072 3.98828
44.9225 41.9546 3.89402
44.8369 44.5589 3.9449
42.5108 42.6736 3.85439
40.8412 42.3629 3.79401
46.6192 59.7973 0.0170983
45.468 58.7946 2
43.8753 57.7186 3.98491
37.5634 67.7506 0.014514
39.648 65.6138 0.0165462
41.6006 63.821 0.0165018
42.9513 62.0847 0.0175011
44.624 60.2942 0.0171333
35.4634 67.6608 2
41.7541 62.4959 2
39.894 63.556 2
37.6423 65.5135 2
42.4814 59.9852 2
40.6236 61.6529 3.98248
40.4444 58.2152 3.98326
37.8372 63.2165 3.98196
35.5729 65.4347 3.98332
33.5751 65.3463 2
31.9589 63.3051 2
33.6287 63.3439 3.98283
30.3778 62.8632 3.98369
32.1226 62.0107 3.98388
26.8676 61.5064 3.98312
28.0614 64.1514 3.98441
29.8826 64.7244 2
29.4057 66.7617 3.98586
31.6965 65.1325 0.0159396
31.3765 67.1987 2
31.0132 69.4188 3.98848
33.392 67.4881 0.0145535
33.156 69.7545 2
32.8916 72.1475 3.99268
35.3333 69.9606 0.0113677
35.1947 72.3738 2
35.0474 74.9194 4
37.5095 72.459 0.00732063
37.5 75 2
39.9526 74.9197 0
35.6208 6.72391 3.98668
37.5233 4.61478 3.98978
39.6241 4.71475 2
39.7888 2.47402 3.99338
41.7364 4.96818 0.0105598
42.0626 2.71733 2
42.3946 0.32156 4
44.3262 3.1101 0.00685316
44.8159 0.72056 2
47.2057 1.27793 0
49.4151 41.3196 0.0112172
56.6937 37.8925 0.0218407
52.9819 39.3046 0.0194886
47.3573 40.4098 2
50.3691 38.5107 2
53.8354 36.6321 2
51.1517 35.58 3.97893
47.998 37.7395 3.95473
45.8194 35.1346 3.8934
43.6626 33.8379 3.84327
41.9465 32.9858 3.7591
37.458 8.53302 3.9849
37.5162 6.67218 2
39.4424 6.80186 0.0133098
39.2111 8.69111 2
38.9769 10.1259 3.9837
35.8988 9.77201 3.98325
34.1504 8.82105 3.98447
35.9417 8.49075 2
54.7486 33.9755 0.0229057
53.385 30.5008 0.0229891
52.5257 27.2189 0.0242814
52.3736 21.0634 0.0208027
52.103 24.1166 0.027511
49.8126 19.6349 0.0235509
48.11 16.9935 0.022144
47.6802 14.5888 0.020482
44.724 9.99723 0.0167617
46.0048 12.7337 0.0198623
41.0136 9.0494 0.0161606
42.4687 10.905 0.0167979
52.3162 32.8889 2
40.5699 11.609 2
43.8575 11.9207 2
51.2302 29.1691 2
50.7281 25.7529 2
49.9246 22.2173 2
45.8003 15.4267 2
47.5004 19.2466 2
49.8438 31.4198 3.97242
49.2033 27.5144 3.97657
49.3626 24.4325 3.98316
47.1766 21.9843 3.97415
38.3028 12.7353 3.98024
42.1012 14.3106 3.97881
44.7984 18.4688 3.97751
44.6951 37.4965 3.84724
46.1874 37.4964 2
47.9861 58.7438 0.0203487
48.5892 55.915 0.0221467
49.9641 45.2573 0.0218801
49.6033 49.0296 0.0283749
49.099 52.5798 0.0280215
45.8184 39.8631 0.107305
46.2602 42.6601 0.0656325
46.3741 45.8243 0.00828014
43.6556 41.158 0.15429
41.9395 42.0189 0.237482
46.8355 57.347 2
44.4194 39.4495 2
42.2792 40.8834 2
47.9805 47.2245 2
47.1518 54.2423 2
47.5417 50.7363 2
44.7169 47.3847 2
44.941 41.9695 2
44.8531 44.5752 2
42.5395 42.6954 2
40.8403 42.3648 2
45.3918 55.9364 3.98804
42.6076 39.2746 3.8101
40.7417 40.8013 3.86992
46.0245 48.9029 3.98473
45.5116 52.53 3.98251
43.3843 48.436 4.00345
43.3195 46.1113 3.93737
43.5652 43.7556 3.88685
41.0587 43.8327 3.84952
39.2868 42.7145 3.80761
45.4684 58.7939 0.017451
43.8752 57.7189 2
42.105 56.3434 3.98749
35.4634 67.66 0.0146078
37.6424 65.5127 0.016583
39.8941 63.5554 0.0173346
41.7542 62.4954 0.0172945
42.4814 59.9847 0.0165897
35.5729 65.4357 2
40.6236 61.6536 2
37.8371 63.2172 2
40.4442 58.2165 2
38.9236 56.5097 3.9897
38.2506 60.3353 3.98209
35.607 63.2099 3.98182
33.5751 65.3457 0.0164531
31.959 63.3044 0.0166058
33.6286 63.3446 2
30.3777 62.8638 2
32.1225 62.0113 2
28.6803 62.208 3.98357
33.3454 61.523 3.98306
31.0658 61.228 3.98349
27.5671 59.6033 3.98199
23.791 59.0893 3.98051
25.0333 60.8789 3.98194
26.8676 61.507 2
26.2279 63.4839 3.98446
28.0615 64.1522 2
27.4622 66.1856 3.98588
29.8825 64.7236 0.0153221
29.4058 66.7624 2
28.9053 68.9444 3.98848
31.3764 67.198 0.0143321
31.0131 69.4195 2
30.6139 71.7785 3.99273
33.156 69.7539 0.0115056
32.8915 72.1479 2
32.6054 74.6784 4
35.1947 72.3734 0.00736468
35.0474 74.9197 2
37.5 75 0
33.7235 6.97857 3.9862
35.4348 4.68502 3.98959
35.6207 6.7233 2
37.5142 2.38668 3.99337
37.5233 4.61429 2
39.624 4.71524 0.0103164
39.7889 2.47371 2
39.9526 0.0806499 4
42.0624 2.71765 0.00673653
42.3947 0.320817 2
44.8158 0.721173 0
44.4185 35.5569 3.84027
42.2945 34.1155 3.79328
47.3411 40.3976 0.0599078
50.3551 38.512 0.00951073
53.8298 36.6308 0.0227993
48.012 37.7491 2
51.1618 35.5792 2
45.8394 35.1169 2
43.6874 33.8205 2
41.9566 32.9769 2
48.1747 34.3073 3.97671
44.9284 33.0398 3.88617
42.5208 32.3322 3.85034
40.8494 32.643 3.79197
37.3112 10.6291 3.98235
37.4578 8.5322 2
37.5162 6.67282 0.0129703
39.2111 8.69176 0.015504
38.9768 10.1252 2
34.754 10.3782 3.98255
35.8988 9.77134 2
32.3772 9.36785 3.98385
34.1502 8.82047 2
35.9418 8.49143 0.01511
52.3137 32.8891 0.0199374
51.2181 29.1694 0.0214869
50.7264 25.75 0.026903
49.9236 22.2182 0.0221022
47.5006 19.2483 0.0232686
45.801 15.4275 0.0198417
43.8581 11.9211 0.0195298
40.5702 11.6093 0.0189087
49.8517 31.4149 2
38.3026 12.7352 2
42.1006 14.3104 2
49.2058 27.5179 2
49.3643 24.4316 2
47.1771 21.9834 2
44.7981 18.4697 2
47.6804 29.5251 3.99113
47.0591 25.1748 3.98297
44.2833 21.3481 3.97591
36.5825 12.9314 3.981
38.6814 14.8089 3.97881
41.7485 17.8476 3.97784
42.735 37.4896 3.8135
44.7086 37.4973 2
46.1539 37.4905 0.100346
46.8361 57.3458 0.0173216
47.1514 54.2372 0.0242535
47.9795 47.2229 0.0237318
47.54 50.7348 0.0341942
44.4022 39.437 0.154285
44.9225 41.9546 0.105984
44.8369 44.5589 0.0551012
44.7132 47.4072 0.0117169
42.5108 42.6736 0.145611
42.2842 40.8818 0.20253
40.8412 42.3629 0.205988
45.3918 55.9364 2
42.606 39.2728 2
40.7357 40.7958 2
46.0251 48.905 2
45.5135 52.5355 2
43.3868 48.4544 2
43.3447 46.136 2
43.5843 43.7743 2
41.0797 43.8565 2
39.2789 42.7086 2
43.728 54.4484 3.99732
40.8434 39.1705 3.89977
39.1608 40.8896 3.89917
43.6549 50.49 4.00114
41.9156 47.6607 3.97147
41.8429 45.181 3.89251
39.3517 44.5656 3.86108
37.4955 42.8296 3.82304
43.8753 57.7186 0.015095
42.1046 56.3445 2
40.415 54.9529 3.99152
35.5729 65.4347 0.0166788
37.8372 63.2165 0.0180367
40.6236 61.6529 0.0175235
40.4444 58.2152 0.0167406
35.6068 63.2107 2
38.2503 60.3363 2
38.9236 56.5116 2
37.9975 55.265 3.9902
36.9335 57.6368 3.98252
35.3635 60.9208 3.98261
33.6287 63.3439 0.0171677
30.3778 62.8632 0.0163143
32.1226 62.0107 0.0161246
33.3453 61.5237 2
28.6803 62.2086 2
31.0657 61.2285 2
29.4021 60.297 3.98296
32.356 59.7556 3.98579
28.0219 58.3832 3.98582
27.5671 59.6038 2
25.3778 58.6016 3.97967
22.7559 58.246 3.97446
23.3992 60.358 3.98009
23.7909 59.0902 2
25.0333 60.8796 2
24.4306 62.7763 3.98384
26.8676 61.5064 0.0168825
26.2281 63.4845 2
25.5462 65.4956 3.98592
28.0614 64.1514 0.0155866
27.4623 66.1862 2
26.8348 68.3328 3.98853
29.4057 66.7617 0.0141432
28.9053 68.9449 2
28.3689 71.2636 3.99282
31.0132 69.4188 0.0115186
30.6137 71.7789 2
30.1842 74.2788 4
32.8916 72.1475 0.00731898
32.6053 74.6792 2
35.0474 74.9194 0
31.7878 7.4185 3.98577
33.3468 4.9242 3.98934
33.7234 6.97795 2
35.2443 2.46276 3.9934
35.4348 4.68453 2
35.6208 6.72391 0.0133196
37.5 0 4
37.5142 2.38637 2
37.5233 4.61478 0.01022
39.7888 2.47402 0.00661932
39.9526 0.0802889 2
42.3946 0.32156 0
42.6122 35.7126 3.81116
44.4297 35.5462 2
40.7506 34.2001 3.86846
42.2885 34.1153 2
47.998 37.7395 0.0452727
51.1517 35.58 0.0210708
45.8194 35.1346 0.1066
43.6626 33.8379 0.15673
41.9465 32.9858 0.240897
48.1887 34.2889 2
44.9483 33.0271 2
42.5443 32.3123 2
40.8485 32.6409 2
46.1978 31.561 3.95157
43.5695 31.2496 3.88367
41.0718 31.1752 3.84938
39.2932 32.2918 3.8065
35.6928 11.7746 3.98132
37.3113 10.6284 2
37.458 8.53302 0.0150964
38.9769 10.1259 0.0162975
33.0979 11.2151 3.98154
34.7541 10.3775 2
35.8988 9.77201 0.0167458
30.4818 10.0159 3.98328
32.377 9.36723 2
34.1504 8.82105 0.0155307
49.8438 31.4198 0.0275847
49.2033 27.5144 0.0234261
49.3626 24.4325 0.016842
47.1766 21.9843 0.0258521
44.7984 18.4688 0.0224942
42.1012 14.3106 0.0211915
38.3028 12.7353 0.0197553
36.5824 12.931 2
47.6832 29.5087 2
38.681 14.8093 2
41.7483 17.847 2
47.0618 25.1739 2
44.2837 21.3403 2
45.4784 27.6556 4.00177
43.7766 24.0743 4.00109
41.3385 20.7287 3.97919
35.7724 14.7583 3.97986
38.6812 17.6014 3.97658
40.8889 37.4823 3.91083
42.7394 37.4908 2
44.6951 37.4965 0.152755
45.3918 55.9364 0.0119578
45.5116 52.53 0.0174865
46.0245 48.9029 0.0152679
42.6076 39.2746 0.189898
43.5652 43.7556 0.11315
43.3195 46.1113 0.0626254
43.3843 48.436 -0.00344632
41.0587 43.8327 0.15048
40.7417 40.8013 0.130081
39.2868 42.7145 0.192388
43.7279 54.4496 2
40.837 39.1666 2
39.1533 40.8811 2
43.6568 50.5047 2
41.9106 47.6735 2
41.8658 45.1985 2
37.4958 42.8199 2
39.3724 44.578 2
41.869 53.0244 3.99438
39.1754 39.1712 3.93313
37.4951 40.9345 3.91889
35.7102 42.7139 3.80757
40.8893 49.7149 4.0013
39.8041 46.0798 3.87354
37.4938 44.7878 3.85042
42.105 56.3434 0.0125121
40.4151 54.9535 2
38.7258 53.8803 3.99586
35.607 63.2099 0.018179
38.2506 60.3353 0.0179082
38.9236 56.5097 0.0102969
35.3632 60.9214 2
36.9335 57.6381 2
37.9978 55.2661 2
36.3187 55.3935 3.99
34.4871 58.533 3.9859
33.3454 61.523 0.0169397
28.6803 62.208 0.0164255
31.0658 61.228 0.0165112
32.3559 59.7562 2
29.4021 60.2975 2
30.2981 57.8291 3.98608
28.0218 58.3838 2
26.9462 56.8334 3.97953
27.5671 59.6033 0.0180074
25.3778 58.6023 2
23.8401 56.8046 3.97246
21.3337 57.4008 3.97372
21.9923 59.6286 3.97925
22.7557 58.2473 2
22.7345 62.0274 3.98254
23.3992 60.3589 2
23.791 59.0893 0.0194869
25.0333 60.8789 0.0180589
24.4307 62.7771 2
23.68 64.714 3.98563
26.2279 63.4839 0.0155432
25.5463 65.4962 2
24.8069 67.5939 3.98851
27.4622 66.1856 0.0141191
26.8348 68.3333 2
26.1641 70.6044 3.99292
28.9053 68.9444 0.0115203
28.3687 71.2639 2
27.7943 73.7221 4
30.6139 71.7785 0.00727108
30.1841 74.2794 2
32.6054 74.6784 0
29.8103 7.9918 3.9852
31.252 5.33135 3.98884
31.7877 7.41782 2
32.9799 2.70096 3.99324
33.3467 4.92365 2
33.7235 6.97857 0.0137988
35.0474 0.080333 4
35.2443 2.46246 2
35.4348 4.68502 0.0104113
37.5 0 2
37.5142 2.38668 0.00662805
39.9526 0.0806499 0
40.8448 35.8066 3.90176
42.6098 35.7154 2
44.4185 35.5569 0.159729
28.5426 10.6913 3.98297
39.1668 34.1154 3.89886
40.7423 34.2058 2
42.2945 34.1155 0.206721
48.1747 34.3073 0.0232874
44.9284 33.0398 0.113826
42.5208 32.3322 0.149656
40.8494 32.643 0.208032
46.2193 31.5526 2
43.5824 31.2336 2
41.0926 31.1526 2
39.2876 32.2971 2
44.3551 29.7558 3.94281
41.8638 29.8303 3.89554
39.3743 30.4394 3.86215
37.5029 32.1789 3.82379
34.0928 12.9331 3.98058
35.6929 11.7739 2
37.3112 10.6291 0.0176522
31.1857 11.9833 3.98184
33.098 11.2144 2
34.754 10.3782 0.0174495
30.4816 10.0151 2
32.3772 9.36785 0.0161476
47.6804 29.5251 0.00886672
47.0591 25.1748 0.0170254
36.5825 12.9314 0.0190026
44.2833 21.3481 0.0240912
41.7485 17.8476 0.0221579
38.6814 14.8089 0.0211866
35.7719 14.7578 2
45.4805 27.6546 2
38.6802 17.6017 2
41.338 20.726 2
43.7781 24.0695 2
33.608 15.8752 3.97984
43.013 26.4931 3.99737
40.9044 23.2982 4.0028
38.4187 20.3443 3.9769
35.8483 17.5112 3.97892
39.1916 37.4842 3.94163
40.8825 37.4818 2
42.735 37.4896 0.186498
43.728 54.4484 0.00267905
43.6549 50.49 -0.00113519
40.8434 39.1705 0.100233
41.8429 45.181 0.107488
41.9156 47.6607 0.0285332
39.3517 44.5656 0.138923
39.1608 40.8896 0.100832
37.4955 42.8296 0.176963
41.8714 53.0248 2
39.1656 39.1689 2
37.4952 40.9242 2
40.8968 49.7225 2
35.7152 42.709 2
39.8291 46.1034 2
37.4919 44.7971 2
39.8043 51.9337 3.9962
37.4932 39.1843 3.95521
35.8281 40.899 3.89846
34.1501 42.3606 3.79326
35.6193 44.5663 3.85984
38.6867 48.733 3.98282
37.4834 46.3943 3.8785
40.415 54.9529 0.00847615
38.7268 53.8803 2
36.7205 53.2256 4.00604
35.3635 60.9208 0.0173944
36.9335 57.6368 0.0174802
37.9975 55.265 0.00980305
34.4868 58.5335 2
36.3189 55.3957 2
33.2284 55.5182 3.9904
32.356 59.7556 0.0142086
29.4021 60.297 0.0170406
30.298 57.8299 2
28.6944 55.3232 3.97919
28.0219 58.3832 0.0141772
26.9458 56.8339 2
25.315 55.1422 3.97434
21.8127 55.3472 3.9692
25.3778 58.6016 0.0203256
23.8397 56.8065 2
20.2188 57.0289 3.97814
20.6442 58.7846 3.97702
21.3333 57.4025 2
21.1651 61.176 3.98084
21.9922 59.6297 2
22.7559 58.246 0.025541
21.8935 63.8418 3.98495
22.7347 62.0283 2
23.3992 60.358 0.0199077
24.4306 62.7763 0.016164
23.6802 64.7146 2
22.8351 66.7375 3.9885
25.5462 65.4956 0.0140788
24.807 67.5945 2
24.0083 69.8055 3.99295
26.8348 68.3328 0.0114727
26.1638 70.6046 2
25.446 73.0099 4
28.3689 71.2636 0.00718399
27.7943 73.7222 2
30.1842 74.2788 0
27.8201 8.65152 3.98492
29.154 5.8771 3.98834
29.8101 7.99102 2
30.7251 3.09816 3.99299
31.2519 5.33081 2
31.7878 7.4185 0.0142317
32.6053 0.320823 4
32.9799 2.70063 2
33.3468 4.9242 0.0106568
35.0474 0.0802903 2
35.2443 2.46276 0.00659795
37.5 0 0
39.1851 35.8095 3.93196
40.8375 35.8102 2
42.6122 35.7126 0.188836
28.5425 10.6907 2
26.6213 11.3865 3.98318
29.2245 12.6398 3.98256
37.4998 34.0735 3.91811
39.1571 34.1243 2
40.7506 34.2001 0.131544
46.1978 31.561 0.0484343
43.5695 31.2496 0.116329
41.0718 31.1752 0.150619
39.2932 32.2918 0.193505
44.3729 29.7405 2
41.8821 29.8102 2
39.3891 30.4228 2
37.5052 32.1888 2
42.3481 28.3982 3.92713
39.8591 28.9217 3.89216
37.5226 30.21 3.84912
35.7182 32.2897 3.80645
31.9144 14.4784 3.98101
34.0928 12.9324 2
35.6928 11.7746 0.0186791
31.1858 11.9825 2
33.0979 11.2151 0.0184626
30.4818 10.0159 0.0167229
45.4784 27.6556 -0.00176518
43.7766 24.0743 -0.00108729
35.7724 14.7583 0.0201375
41.3385 20.7287 0.0208114
38.6812 17.6014 0.0234247
33.6072 15.8746 2
35.8469 17.5111 2
43.0179 26.4918 2
38.419 20.3398 2
40.9028 23.2906 2
33.55 17.3851 3.98158
40.3954 25.6391 4.00475
38.0722 22.8808 3.99414
35.5832 20.0816 3.9818
37.4946 37.4946 3.96515
39.181 37.4846 2
40.8889 37.4823 0.0891737
41.869 53.0244 0.00561913
40.8893 49.7149 -0.00130478
39.1754 39.1712 0.0668746
39.8041 46.0798 0.126455
37.4938 44.7878 0.149585
37.4951 40.9345 0.0811057
35.7102 42.7139 0.192425
39.8108 51.9344 2
37.4943 39.1801 2
35.837 40.8907 2
38.686 48.7651 2
34.151 42.3626 2
35.6059 44.5841 2
37.4846 46.4165 2
37.6427 51.0193 4.00845
35.8148 39.1877 3.93357
34.2507 40.8105 3.86979
33.046 42.0186 3.76033
33.919 43.8233 3.84794
35.1467 46.0636 3.88513
36.8594 48.3731 3.95537
38.7258 53.8803 0.00414095
36.7207 53.2291 2
34.3633 52.4854 3.99354
34.4871 58.533 0.0141035
36.3187 55.3935 0.00999583
33.228 55.5188 2
30.5237 53.3794 3.9802
30.2981 57.8291 0.0139247
28.6938 55.3244 2
26.8909 53.4346 3.97398
26.9462 56.8334 0.0204659
25.3145 55.1453 2
23.5832 53.4758 3.96707
20.4783 53.2154 3.96283
19.9339 55.8309 3.97226
21.8117 55.3487 2
23.8401 56.8046 0.0275406
19.4372 57.8902 3.97623
20.2183 57.0305 2
19.7051 60.2078 3.97848
20.644 58.7858 2
21.3337 57.4008 0.0262786
20.206 62.8624 3.98321
21.1651 61.1771 2
21.9923 59.6286 0.0207453
20.9365 65.7665 3.98824
21.8936 63.8426 2
22.7345 62.0274 0.0174614
23.68 64.714 0.0143711
22.8352 66.7381 2
21.9107 68.8726 3.99289
24.8069 67.5939 0.0114884
24.008 69.8057 2
23.1494 72.1454 4
26.1641 70.6044 0.00708059
25.446 73.0099 2
27.7943 73.7221 0
25.8592 9.37976 3.98457
27.0687 6.54125 3.98777
27.8199 8.6508 2
28.4872 3.64416 3.99275
29.1537 5.87649 2
29.8103 7.9918 0.0148014
30.1841 0.720592 4
30.7249 3.09786 2
31.252 5.33135 0.011156
32.6053 0.320817 2
32.9799 2.70096 0.00676034
35.0474 0.080333 0
37.4967 35.8111 3.95628
39.1725 35.8127 2
40.8448 35.8066 0.0982449
24.7761 12.0694 3.98341
23.7507 14.3549 3.98255
28.5426 10.6913 0.0170327
26.6213 11.3859 2
29.2247 12.6391 2
27.2906 13.3723 3.98292
29.7798 14.1994 3.98202
35.8358 34.1091 3.90027
37.499 34.0839 2
39.1668 34.1154 0.10114
37.5029 32.1789 0.176211
44.3551 29.7558 0.0571856
41.8638 29.8303 0.104465
39.3743 30.4394 0.137852
42.3668 28.3777 2
39.8741 28.8957 2
37.5215 30.2026 2
35.7254 32.2944 2
40.0454 27.5499 3.92221
37.5315 28.6048 3.88788
35.6489 30.4446 3.86357
34.1668 32.6405 3.79263
30.9257 16.835 3.98175
31.9142 14.4777 2
34.0928 12.9331 0.0194228
31.1857 11.9833 0.0181583
43.013 26.4931 0.00263189
40.9044 23.2982 -0.00279701
33.608 15.8752 0.0201586
35.8483 17.5112 0.0210787
38.4187 20.3443 0.023101
33.5489 17.3851 2
35.5831 20.0822 2
40.3961 25.6316 2
38.0686 22.877 2
32.8624 19.7921 3.98219
37.7977 25.1936 4.01099
35.1979 22.6408 3.99008
35.8035 37.5002 3.94429
37.4952 37.4934 2
39.1916 37.4842 0.0583675
39.8043 51.9337 0.00379867
38.6867 48.733 0.0171751
37.4932 39.1843 0.044788
37.4834 46.3943 0.121498
35.6193 44.5663 0.140165
35.8281 40.899 0.101541
34.1501 42.3606 0.206742
37.6495 51.0324 2
35.8273 39.1843 2
34.2574 40.8054 2
36.8515 48.3929 2
33.0364 42.0273 2
33.903 43.8432 2
35.1321 46.082 2
35.4751 50.1498 4.00421
34.158 39.1873 3.90362
32.6967 40.8871 3.79538
32.4722 42.6729 3.85482
33.1401 45.1718 3.89299
34.2687 47.4373 3.93234
36.7205 53.2256 -0.00603864
34.3637 52.4897 2
32.0153 51.1887 4.00185
33.2284 55.5182 0.00960298
30.5232 53.3841 2
28.4395 51.5938 3.97828
28.6944 55.3232 0.0208107
26.89 53.4369 2
25.0935 51.7413 3.96378
25.315 55.1422 0.0256615
23.5821 53.4777 2
21.9825 51.797 3.96304
19.2151 51.6308 3.9662
18.928 54.3032 3.96553
20.4773 53.2149 2
18.4472 56.7221 3.97632
19.9331 55.8324 2
21.8127 55.3472 0.0307983
18.368 59.1116 3.97585
19.4368 57.8913 2
20.2188 57.0289 0.0218553
18.6175 61.7683 3.98099
19.7051 60.2091 2
20.6442 58.7846 0.0229787
19.1256 64.677 3.98733
20.2061 62.8635 2
21.1651 61.176 0.0191593
19.8848 67.8092 3.99278
20.9366 65.7672 2
21.8935 63.8418 0.0150532
22.8351 66.7375 0.0115036
21.9104 68.8727 2
20.9142 71.1327 4
24.0083 69.8055 0.00704999
23.1494 72.1455 2
25.446 73.0099 0
23.0954 12.7842 3.98306
23.9717 10.1664 3.98439
25.0224 7.31155 3.98733
25.8591 9.37915 2
26.2788 4.32846 3.99244
27.0684 6.54068 2
27.8201 8.65152 0.0150791
27.7943 1.27781 4
28.4869 3.64385 2
29.154 5.8771 0.0116552
30.1841 0.720551 2
30.7251 3.09816 0.00700558
32.6053 0.320823 0
35.8149 35.8156 3.93562
37.4963 35.8131 2
39.1851 35.8095 0.0680409
24.7762 12.0691 2
23.7511 14.3546 2
22.4795 15.0317 3.98201
25.3568 13.9041 3.98243
24.0241 15.6175 3.98151
26.6213 11.3865 0.0168239
29.2245 12.6398 0.0174402
27.2909 13.3718 2
29.7798 14.1988 2
28.3558 15.9731 3.98248
34.2601 34.1976 3.86918
35.8443 34.117 2
37.4998 34.0735 0.0818858
35.7182 32.2897 0.193554
37.5226 30.21 0.150876
42.3481 28.3982 0.0728694
39.8591 28.9217 0.107837
40.0576 27.5338 2
37.5353 28.5799 2
35.6324 30.4211 2
34.1637 32.6394 2
37.6174 27.2449 3.93545
35.191 28.9215 3.88884
33.9332 31.1744 3.84802
33.0704 32.9814 3.76092
30.2077 19.3379 3.98531
30.9251 16.8351 2
31.9144 14.4784 0.0189852
40.3954 25.6391 -0.00474821
38.0722 22.8808 0.00585873
33.55 17.3851 0.0184231
35.5832 20.0816 0.0182036
32.8619 19.7931 2
35.1964 22.6407 2
37.7851 25.1898 2
32.3102 22.409 3.99119
34.9921 25.1829 4.00578
34.1071 37.5019 3.91231
35.8155 37.4995 2
37.4946 37.4946 0.0348467
37.6427 51.0193 -0.0084528
36.8594 48.3731 0.0446276
35.8148 39.1877 0.0664311
35.1467 46.0636 0.114875
33.919 43.8233 0.152065
34.2507 40.8105 0.130213
33.046 42.0186 0.239673
35.4727 50.1643 2
34.1687 39.184 2
32.7005 40.8874 2
34.2645 47.4717 2
32.4547 42.6896 2
33.1247 45.191 2
33.261 49.1396 4.0035
32.378 39.2849 3.81312
31.3199 41.1611 3.84482
31.4267 43.7542 3.89012
32.2648 46.3568 3.93087
34.3633 52.4854 0.00645936
32.0136 51.1966 2
29.8796 49.7082 3.98994
30.5237 53.3794 0.0198017
28.4376 51.5936 2
26.5301 49.9795 3.97038
26.8909 53.4346 0.0260213
25.0917 51.7398 2
23.3645 50.1877 3.97113
23.5832 53.4758 0.0329276
21.9815 51.796 2
20.4812 50.312 3.96886
18.0018 50.3276 3.96915
17.8447 52.7877 3.96496
19.2143 51.6303 2
17.4403 55.3365 3.96824
18.9269 54.3031 2
20.4783 53.2154 0.0371697
17.135 57.873 3.97561
18.4465 56.7232 2
19.9339 55.8309 0.027744
17.1357 60.5497 3.97784
18.3678 59.1129 2
19.4372 57.8902 0.023773
17.4064 63.4688 3.98495
18.6175 61.7696 2
19.7051 60.2078 0.0215156
17.9411 66.6176 3.99252
19.1256 64.678 2
20.206 62.8624 0.016788
18.75 69.9759 4
19.8845 67.8093 2
20.9365 65.7665 0.0117601
21.9107 68.8726 0.00710822
20.9142 71.1327 2
23.1494 72.1454 0
21.5864 13.6046 3.98249
22.1897 11.0258 3.98401
23.0958 12.7841 2
23.0402 8.17708 3.98705
23.9717 10.166 2
24.1164 5.14328 3.99218
25.0221 7.31104 2
25.8592 9.37976 0.0154299
25.446 1.99014 4
26.2785 4.32822 2
27.0687 6.54125 0.0122272
27.7943 1.27778 2
28.4872 3.64416 0.00725467
30.1841 0.720592 0
34.1519 35.8172 3.90142
35.8258 35.8179 2
37.4967 35.8111 0.043724
21.3049 15.8275 3.9819
24.7761 12.0694 0.0165914
23.7507 14.3549 0.0174474
25.3572 13.9038 2
22.48 15.0316 2
24.0247 15.6174 2
23.2635 16.2495 3.98112
25.3795 16.0858 3.98221
27.2906 13.3723 0.0170773
29.7798 14.1994 0.0179797
28.356 15.9732 2
27.4394 18.7957 3.98421
32.7176 34.1126 3.79373
34.2703 34.2036 2
35.8358 34.1091 0.0997281
34.1668 32.6405 0.207369
35.6489 30.4446 0.136425
37.5315 28.6048 0.112115
40.0454 27.5499 0.0777906
37.6187 27.2144 2
33.0564 32.9734 2
35.1775 28.9018 2
33.9178 31.1502 2
35.0714 27.371 3.93857
33.1644 29.8336 3.88899
32.4874 32.3208 3.84701
29.5784 21.9316 3.99692
30.2075 19.3398 2
30.9257 16.835 0.0182524
37.7977 25.1936 -0.0109891
35.1979 22.6408 0.00992438
32.8624 19.7921 0.0178139
32.3079 22.4091 2
35.0063 25.1773 2
31.7212 25.6287 4.00164
32.2532 37.5035 3.81567
34.1153 37.5028 2
35.8035 37.5002 0.0557085
35.4751 50.1498 -0.00420525
34.2687 47.4373 0.0676591
34.158 39.1873 0.0963757
33.1401 45.1718 0.107009
32.4722 42.6729 0.145181
32.6967 40.8871 0.204618
33.2557 49.1322 2
32.381 39.2816 2
31.2975 41.174 2
32.2428 46.3812 2
31.4095 43.7685 2
31.1785 47.9683 3.99404
30.5719 39.4414 3.84186
30.0606 41.9607 3.88667
30.4599 44.9433 3.94218
32.0153 51.1887 -0.00184908
29.8764 49.7072 2
27.9099 48.1755 3.97324
28.4395 51.5938 0.0217229
26.5284 49.9783 2
24.6841 48.4642 3.97447
25.0935 51.7413 0.0362204
23.364 50.1865 2
21.6972 48.7851 3.97116
21.9825 51.797 0.0369551
20.4806 50.3111 2
19.0589 49.0894 3.97247
16.908 49.3287 3.97206
16.7832 51.4041 3.96691
18.002 50.327 2
16.3962 53.8656 3.96558
17.8437 52.7874 2
19.2151 51.6308 0.0338034
15.9783 56.4734 3.97099
17.4396 55.3373 2
18.928 54.3032 0.0344728
15.7496 59.2097 3.97669
17.1346 57.8744 2
18.4472 56.7221 0.0236785
15.7875 62.138 3.98171
17.1358 60.5511 2
18.368 59.1116 0.0241545
16.0879 65.3001 3.99181
17.4063 63.47 2
18.6175 61.7683 0.0190097
16.6661 68.6801 4
17.9406 66.6176 2
19.1256 64.677 0.0126728
18.75 69.9759 2
19.8848 67.8092 0.00721556
20.9142 71.1327 0
20.2186 14.5937 3.98162
21.5868 13.6045 2
20.529 11.9957 3.98342
21.1431 9.14694 3.98687
22.1899 11.0255 2
23.0954 12.7842 0.0169417
22.0155 6.08233 3.99203
23.04 8.17665 2
23.9717 10.1664 0.0156125
23.1494 2.85457 4
24.116 5.14311 2
25.0224 7.31155 0.0126733
25.446 1.99012 2
26.2788 4.32846 0.00756196
27.7943 1.27781 0
32.3833 35.7167 3.80918
34.161 35.8219 2
35.8149 35.8156 0.0643762
21.3054 15.8272 2
20.3029 16.9615 3.98208
22.0968 16.6337 3.97981
25.3568 13.9041 0.0175657
22.4795 15.0317 0.0179933
24.0241 15.6175 0.0184866
25.38 16.0856 2
23.2641 16.2493 2
24.2037 18.4504 3.97912
27.0175 21.4552 3.98974
28.3558 15.9731 0.0175241
27.44 18.7958 2
31.3534 33.8438 3.84616
32.7228 34.1132 2
34.2601 34.1976 0.130815
33.0704 32.9814 0.239085
33.9332 31.1744 0.151979
35.191 28.9215 0.111157
37.6174 27.2449 0.0645461
35.0549 27.3391 2
32.4588 32.3069 2
33.1482 29.805 2
32.5796 28.1018 3.95454
31.4292 31.2532 3.89095
28.8253 24.4014 3.98229
29.5754 21.935 2
30.2077 19.3379 0.0146907
34.9921 25.1829 -0.00577967
32.3102 22.409 0.00880972
31.7286 25.6139 2
29.6874 27.3137 3.96773
30.2846 37.495 3.84741
32.2526 37.5011 2
34.1071 37.5019 0.0876937
33.261 49.1396 -0.00349958
32.2648 46.3568 0.0691322
32.378 39.2849 0.186884
31.4267 43.7542 0.10988
31.3199 41.1611 0.155176
31.1756 47.9711 2
30.5518 39.4533 2
30.0422 41.9741 2
30.4349 44.96 2
29.2356 46.5691 4.00068
29.1596 39.8551 3.89195
28.7763 43.1669 3.94687
29.8796 49.7082 0.0100613
27.9062 48.1719 2
26.004 46.6492 3.97522
26.5301 49.9795 0.0296222
24.6832 48.4622 2
22.8633 47.0717 3.97563
23.3645 50.1877 0.0288717
21.6965 48.7841 2
20.0211 47.6149 3.977
20.4812 50.312 0.0311408
19.0597 49.0886 2
17.6926 48.1757 3.97546
16.1545 48.6805 3.97402
16.9088 49.3282 2
15.8591 50.1672 3.96957
15.3843 52.4126 3.96752
16.7826 51.4038 2
18.0018 50.3276 0.0308535
14.8732 54.9722 3.96767
16.3956 53.8658 2
17.8447 52.7877 0.0350387
14.4599 57.7379 3.97474
15.9779 56.4744 2
17.4403 55.3365 0.0317629
14.266 60.6916 3.98027
15.7496 59.2112 2
17.135 57.873 0.0243932
14.3326 63.8592 3.99013
15.7873 62.1392 2
17.1357 60.5497 0.0221565
14.6715 67.2507 4
16.0873 65.2999 2
17.4064 63.4688 0.015053
16.6661 68.6801 2
17.9411 66.6176 0.00748082
18.75 69.9759 0
18.9328 15.7811 3.98094
20.219 14.5936 2
18.9789 13.1068 3.9825
21.5864 13.6046 0.017515
20.5294 11.9956 2
19.3423 10.2349 3.98654
19.9901 7.147 3.99197
21.143 9.14663 2
22.1897 11.0258 0.0159945
20.9142 3.86727 4
22.0149 6.08231 2
23.0402 8.17708 0.012949
23.1494 2.85451 2
24.1164 5.14328 0.00782374
25.446 1.99014 0
30.5897 35.5677 3.84529
32.3883 35.7184 2
34.1519 35.8172 0.0985792
21.3049 15.8275 0.0181048
22.0973 16.6335 2
20.3033 16.9609 2
19.2446 18.4095 3.97858
21.7816 17.8509 3.98044
25.3795 16.0858 0.0177903
23.2635 16.2495 0.0188781
24.2043 18.4502 2
22.281 19.8954 3.97607
24.5965 21.3245 3.98306
26.4366 23.7211 3.97052
27.0167 21.4553 2
27.4394 18.7957 0.0157883
30.087 33.0435 3.88993
31.3241 33.8157 2
32.7176 34.1126 0.206265
32.4874 32.3208 0.152991
33.1644 29.8336 0.111005
35.0714 27.371 0.0614253
32.5718 28.0891 2
31.428 31.237 2
30.1709 29.5464 3.96083
27.9279 26.5417 3.97837
28.827 24.4102 2
29.5784 21.9316 0.00307504
31.7212 25.6287 -0.00164469
29.685 27.276 2
28.8242 37.5145 3.89991
30.2771 37.4992 2
32.2532 37.5035 0.184326
31.1785 47.9683 0.00596485
30.4599 44.9433 0.0578235
30.5719 39.4414 0.158138
30.0606 41.9607 0.113329
29.2322 46.5844 2
29.1386 39.8724 2
28.7525 43.1824 2
27.3603 44.8615 3.98521
26.9302 40.5847 3.9673
27.9099 48.1755 0.0267646
25.9995 46.6515 2
24.0851 45.2073 3.97822
24.6841 48.4642 0.0255296
22.8626 47.0702 2
20.9919 45.8891 3.97889
21.6972 48.7851 0.0288368
20.0229 47.614 2
18.3562 46.7341 3.97747
19.0589 49.0894 0.0275313
17.6929 48.1751 2
16.3523 47.7104 3.97509
16.1551 48.6801 2
15.2024 49.0126 3.97185
16.908 49.3287 0.0279414
15.8596 50.1669 2
14.4961 50.9822 3.96861
13.8356 53.4302 3.9689
15.3846 52.4124 2
16.7832 51.4041 0.033095
13.2573 56.1642 3.97098
14.8729 54.9727 2
16.3962 53.8656 0.0344208
12.8488 59.1249 3.97914
14.4598 57.7391 2
15.9783 56.4734 0.0290058
12.6784 62.3014 3.98788
14.2658 60.6926 2
15.7496 59.2097 0.0233115
12.7746 65.6939 4
14.3317 63.8587 2
15.7875 62.138 0.0182916
14.6714 67.2507 2
16.0879 65.3001 0.00818621
16.6661 68.6801 0
17.6681 17.1573 3.97855
18.9331 15.7807 2
17.5107 14.3716 3.98124
20.2186 14.5937 0.0183775
18.9793 13.1065 2
17.638 11.4539 3.98562
20.529 11.9957 0.0165795
19.3424 10.2346 2
18.0503 8.3398 3.99193
18.75 5.0241 4
19.9895 7.14719 2
21.1431 9.14694 0.0131299
20.9142 3.86727 2
22.0155 6.08233 0.00797345
23.1494 2.85457 0
29.1798 35.1267 3.89588
30.5717 35.5534 2
32.3833 35.7167 0.190819
22.0968 16.6337 0.0201878
20.3029 16.9615 0.0179193
21.782 17.8505 2
19.245 18.4088 2
17.984 19.943 3.9749
20.8784 19.3812 3.97857
24.2037 18.4504 0.0208816
22.2814 19.895 2
24.5964 21.3252 2
22.3651 21.7222 3.97843
24.7108 23.1696 3.97273
25.5094 25.9507 3.9686
26.4398 23.7212 2
27.0175 21.4552 0.0102593
28.459 32.3383 3.94114
30.0637 33.0356 2
31.3534 33.8438 0.153836
31.4292 31.2532 0.109055
32.5796 28.1018 0.0454559
30.1526 29.5345 2
27.0932 29.1333 4.00256
27.9247 26.5416 2
28.8253 24.4014 0.0177077
29.6874 27.3137 0.0322738
27.0541 37.3705 3.95074
28.795 37.5037 2
30.2846 37.495 0.152591
29.2356 46.5691 -0.000676206
28.7763 43.1669 0.0531253
29.1596 39.8551 0.108046
27.3554 44.8762 2
26.9175 40.6017 2
25.3774 43.168 3.97619
24.1792 39.434 3.97945
26.004 46.6492 0.0247769
24.0776 45.2068 2
21.9806 43.9451 3.97895
22.8633 47.0717 0.0243696
20.9927 45.8882 2
19.0351 44.965 3.97803
20.0211 47.6149 0.0229989
18.3577 46.7335 2
16.6555 46.2092 3.97558
17.6926 48.1757 0.0245392
16.3526 47.7101 2
14.9388 47.6672 3.97285
16.1545 48.6805 0.0259845
15.203 49.0124 2
13.7926 49.5439 3.96984
15.8591 50.1672 0.0304276
14.4965 50.9821 2
12.901 51.8715 3.96931
12.1459 54.5231 3.97056
13.8357 53.4303 2
15.3843 52.4126 0.0324794
11.5346 57.4563 3.97648
13.2572 56.165 2
14.8732 54.9722 0.0323267
11.1332 60.6273 3.98628
12.8487 59.1257 2
14.4599 57.7379 0.0252627
10.9835 64.0165 4
12.6773 62.3003 2
14.266 60.6916 0.0197318
12.7745 65.694 2
14.3326 63.8592 0.00987246
14.6715 67.2507 0
16.4025 18.6526 3.97652
17.6683 17.1567 2
16.1021 15.7811 3.98034
18.9328 15.7811 0.019062
17.511 14.3709 2
16.0198 12.8077 3.98367
18.9789 13.1068 0.0175021
17.6382 11.4535 2
16.2015 9.66274 3.99176
19.3423 10.2349 0.0134642
18.0497 8.34018 2
16.6661 6.31991 4
18.75 5.02404 2
19.9901 7.147 0.00802578
20.9142 3.86727 0
27.5754 34.78 3.942
29.1543 35.113 2
30.5897 35.5677 0.154715
16.6894 21.3829 3.9683
21.7816 17.8509 0.0195629
19.2446 18.4095 0.0214177
20.8788 19.3806 2
17.9843 19.9422 2
19.7311 21.5768 3.97832
22.281 19.8954 0.023927
24.5965 21.3245 0.0169415
22.3654 21.722 2
24.712 23.1691 2
22.8704 24.6037 3.97067
24.6354 28.5306 3.97389
25.5072 25.9489 2
26.4366 23.7211 0.0294787
26.3017 31.7067 3.98985
28.4347 32.3225 2
30.087 33.0435 0.110068
30.1709 29.5464 0.0391699
27.1036 29.129 2
27.9279 26.5417 0.0216302
24.88 36.8569 3.98901
27.0346 37.3672 2
28.8242 37.5145 0.100086
27.3603 44.8615 0.014794
26.9302 40.5847 0.0327018
25.3653 43.1736 2
24.1681 39.4337 2
23.0786 41.7932 3.98055
21.8974 38.5082 3.97751
24.0851 45.2073 0.0217801
21.9804 43.9455 2
19.8234 42.8804 3.97811
20.9919 45.8891 0.0211106
19.0353 44.9645 2
17.0006 44.3765 3.97634
18.3562 46.7341 0.0225288
16.6561 46.2089 2
14.8682 46.0875 3.97317
16.3523 47.7104 0.0249099
14.9392 47.6669 2
13.3009 48.0065 3.97032
15.2024 49.0126 0.0281545
13.7932 49.5437 2
12.1193 50.251 3.96958
14.4961 50.9822 0.0313901
12.9014 51.8715 2
11.141 52.8341 3.97129
10.3261 55.7085 3.97504
12.1461 54.5234 2
13.8356 53.4302 0.0310957
9.70012 58.8493 3.98418
11.5345 57.4569 2
13.2573 56.1642 0.0290155
9.30605 62.2254 4
11.1319 60.6257 2
12.8488 59.1249 0.0208598
10.9835 64.0165 2
12.6784 62.3014 0.0121187
12.7746 65.6939 0
15.1513 20.1895 3.97059
16.4028 18.6518 2
14.7487 17.3047 3.97777
17.6681 17.1573 0.0214504
16.1023 15.7801 2
14.4826 14.2902 3.98214
17.5107 14.3716 0.0187632
16.02 12.807 2
14.4444 11.1138 3.9911
17.638 11.4539 0.0143829
16.201 9.66325 2
14.6715 7.74927 4
18.0503 8.3398 0.00807094
16.6661 6.31988 2
18.75 5.0241 0
25.5304 34.2685 3.99031
27.555 34.7723 2
29.1798 35.1267 0.104125
17.8675 22.3279 3.98303
15.537 22.9229 3.97114
16.6896 21.3821 2
20.8784 19.3812 0.0214342
17.984 19.943 0.0250987
19.7315 21.5761 2
19.6892 24.3832 3.9691
22.3651 21.7222 0.0215678
24.7108 23.1696 0.0272685
22.8702 24.6031 2
22.0035 27.8285 3.97096
23.8629 31.1922 3.97529
24.6417 28.53 2
25.5094 25.9507 0.0313982
26.2915 31.6949 2
28.459 32.3383 0.058855
27.0932 29.1333 -0.00255752
22.6297 36.2811 3.98013
24.8612 36.8546 2
27.0541 37.3705 0.0492593
25.3774 43.168 0.023814
24.1792 39.434 0.0205467
23.0737 41.7918 2
21.8917 38.5084 2
20.8195 40.6374 3.97673
20.2238 37.789 3.97732
21.9806 43.9451 0.0210517
19.8244 42.881 2
17.4327 42.0975 3.97723
19.0351 44.965 0.0219713
17.0014 44.3762 2
14.8845 44.1975 3.97343
16.6555 46.2092 0.0244157
14.8685 46.0873 2
12.9759 46.2935 3.97049
14.9388 47.6672 0.0271508
13.3012 48.0064 2
11.49 48.5486 3.96944
13.7926 49.5439 0.0301639
12.1196 50.251 2
10.2663 51.0791 3.97103
12.901 51.8715 0.0306896
11.1413 52.8341 2
9.2349 53.8879 3.97513
8.38399 56.9817 3.98296
10.3263 55.7085 2
12.1459 54.5231 0.0294386
7.74927 60.3285 4
9.69889 58.8469 2
11.5346 57.4563 0.0235211
9.306 62.2255 2
11.1332 60.6273 0.0137227
10.9835 64.0165 0
13.966 21.7566 3.96888
15.1515 20.1885 2
13.4517 18.9033 3.97388
16.4025 18.6526 0.023479
14.749 17.3034 2
13.0283 15.8836 3.98092
16.1021 15.7811 0.019658
14.4827 14.2892 2
12.782 12.6872 3.98953
16.0198 12.8077 0.016334
14.4438 11.1144 2
12.7746 9.30605 4
16.2015 9.66274 0.00824485
14.6715 7.74924 2
16.6661 6.31991 0
23.2006 33.8052 3.97888
25.51 34.265 2
27.5754 34.78 0.057998
17.6502 24.0434 3.96971
17.8677 22.3271 2
14.3231 24.4511 3.97003
15.5376 22.9225 2
16.6894 21.3829 0.0316969
19.1054 27.2068 3.97038
19.7311 21.5768 0.0216763
19.6887 24.3827 2
21.2774 30.6686 3.97281
22.8704 24.6037 0.0293327
22.0058 27.8285 2
23.8519 31.1919 2
24.6354 28.5306 0.0261052
26.3017 31.7067 0.0101476
20.3539 35.9279 3.97645
22.6269 36.2801 2
24.88 36.8569 0.0109868
23.0786 41.7932 0.0194509
21.8974 38.5082 0.022491
20.8162 40.6382 2
20.2235 37.7893 2
18.1703 39.0004 3.97731
19.8234 42.8804 0.0218869
17.433 42.0974 2
14.8629 41.9155 3.97333
17.0006 44.3765 0.023656
14.8849 44.1974 2
12.7246 44.3895 3.97056
14.8682 46.0875 0.026832
12.9761 46.2934 2
10.9911 46.7327 3.9692
13.3009 48.0065 0.0296766
11.4902 48.5486 2
9.52931 49.2395 3.97054
12.1193 50.251 0.0304246
10.2666 51.079 2
8.26765 52.0018 3.97495
11.141 52.8341 0.028706
9.23526 53.8875 2
7.19298 55.0321 3.98348
6.31991 58.3339 4
8.38312 56.9787 2
10.3261 55.7085 0.0249594
7.74924 60.3285 2
9.70012 58.8493 0.0158183
9.30605 62.2254 0
13.2354 25.3629 3.9709
12.8333 23.2833 3.9701
13.9666 21.7562 2
12.2393 20.5532 3.97135
15.1513 20.1895 0.0294133
13.452 18.902 2
11.659 17.5653 3.9788
14.7487 17.3047 0.0222264
13.0284 15.8824 2
11.2195 14.3724 3.98753
14.4826 14.2902 0.0178556
12.7812 12.6879 2
10.9835 10.9835 4
14.4444 11.1138 0.00890373
12.7745 9.306 2
14.6715 7.74927 0
20.7154 33.3999 3.97505
23.2064 33.8057 2
25.5304 34.2685 0.00969177
15.9425 26.4025 3.97028
17.6498 24.0429 2
17.8675 22.3279 0.0169719
14.3234 24.4508 2
15.537 22.9229 0.0288612
18.4612 30.1762 3.9733
19.1046 27.2066 2
19.6892 24.3832 0.0308961
21.2837 30.6687 2
22.0035 27.8285 0.0290413
23.8629 31.1922 0.0247076
17.793 35.9646 3.97751
20.3519 35.9283 2
22.6297 36.2811 0.0198743
20.8195 40.6374 0.023268
20.2238 37.789 0.0226765
18.1721 39.0005 2
14.3857 39.1744 3.97437
17.4327 42.0975 0.0227682
14.8634 41.9154 2
12.4277 42.2742 3.97098
14.8845 44.1975 0.0265696
12.7248 44.3894 2
10.5691 44.8014 3.96878
12.9759 46.2935 0.0295086
10.9911 46.7327 2
8.91156 47.3189 3.96984
11.49 48.5486 0.0305623
9.52952 49.2395 2
7.4346 50.0354 3.97438
10.2663 51.0791 0.0289706
8.26797 52.0012 2
6.13355 53.0071 3.98413
9.2349 53.8879 0.0248653
7.19244 55.0293 2
5.0241 56.25 4
6.31988 58.3339 2
8.38399 56.9817 0.0170425
7.74927 60.3285 0
13.482 26.815 3.97036
11.9436 24.7881 3.97104
13.2355 25.3627 2
11.1434 22.2373 3.9705
12.8339 23.283 2
13.966 21.7566 0.031119
12.24 20.5524 2
10.3906 19.3206 3.97648
13.4517 18.9033 0.026118
11.6592 17.5642 2
9.76058 16.1563 3.98557
13.0283 15.8836 0.0190758
11.2186 14.3736 2
9.30607 12.7746 4
12.782 12.6872 0.0104729
10.9835 10.9835 2
12.7746 9.30605 0
17.9602 33.1132 3.97588
20.7135 33.3999 2
23.2006 33.8052 0.0211246
15.5473 29.6388 3.97225
15.9421 26.4023 2
17.6502 24.0434 0.0302882
14.3231 24.4511 0.0299722
18.4615 30.1762 2
19.1054 27.2068 0.0296162
21.2774 30.6686 0.0271911
14.9919 36.0182 3.97494
17.7925 35.9647 2
20.3539 35.9279 0.0235519
12.6514 37.8283 3.97386
18.1703 39.0004 0.0226927
14.3863 39.1743 2
11.9483 40.1387 3.97186
14.8629 41.9155 0.0266694
12.4277 42.2741 2
10.1735 42.7766 3.9688
12.7246 44.3895 0.0294381
10.5691 44.8014 2
8.38967 45.3208 3.96921
10.9911 46.7327 0.0308032
8.91161 47.3189 2
6.72591 48.0007 3.97377
9.52931 49.2395 0.0294625
7.43478 50.0349 2
5.21041 50.9104 3.98407
8.26765 52.0018 0.0250467
6.13325 53.0051 2
3.86727 54.0858 4
7.19298 55.0321 0.0165245
5.02404 56.25 2
6.31991 58.3339 0
12.947 29.0336 3.96998
11.3742 26.4871 3.96917
13.4814 26.8148 2
10.2012 23.9683 3.97177
11.944 24.7879 2
13.2354 25.3629 0.0290968
9.2438 21.1394 3.97467
11.1441 22.237 2
12.8333 23.2833 0.0298966
12.2393 20.5532 0.0286458
10.3912 19.3201 2
8.41673 18.028 3.98388
11.659 17.5653 0.0211991
9.75951 16.1582 2
7.74928 14.6715 4
11.2195 14.3724 0.0124709
9.30602 12.7745 2
10.9835 10.9835 0
14.552 32.8636 3.97385
17.9604 33.1133 2
20.7154 33.3999 0.0249532
15.5473 29.6388 2
15.9425 26.4025 0.029718
18.4612 30.1762 0.0266974
12.9456 36.2087 3.97283
14.9926 36.0183 2
17.793 35.9646 0.0224912
12.652 37.8282 2
11.2994 38.3087 3.97221
14.3857 39.1744 0.0256258
11.9488 40.1386 2
9.76467 40.7531 3.96932
12.4277 42.2742 0.0290219
10.1736 42.7765 2
7.93902 43.2696 3.96881
10.5691 44.8014 0.031222
8.38971 45.3208 2
6.13234 45.9057 3.97305
8.91156 47.3189 0.0301586
6.72594 48.0004 2
4.42202 48.7513 3.98362
7.4346 50.0354 0.0256247
5.21025 50.9093 2
2.85457 51.8506 4
6.13355 53.0071 0.0158706
3.86727 54.0858 2
5.0241 56.25 0
12.0935 31.2569 3.97108
10.7885 28.4147 3.9689
12.9471 29.0335 2
9.41616 25.7979 3.9702
11.3743 26.4869 2
13.482 26.815 0.0296368
8.23048 23.0234 3.97478
10.2017 23.9681 2
11.9436 24.7881 0.0289569
7.19913 19.9786 3.98307
9.24456 21.1394 2
11.1434 22.2373 0.0294997
10.3906 19.3206 0.0235248
8.41603 18.0307 2
6.31992 16.6661 4
9.76058 16.1563 0.0144292
7.74926 14.6714 2
9.30607 12.7746 0
12.1258 34.2947 3.97304
14.5525 32.8637 2
17.9602 33.1132 0.0241153
15.5473 29.6388 0.0277514
10.8611 36.6105 3.97179
12.9461 36.2086 2
14.9919 36.0182 0.0250588
12.6514 37.8283 0.0261433
11.2999 38.3086 2
9.35871 38.8226 3.96985
11.9483 40.1387 0.0281414
9.76508 40.753 2
7.55055 41.2108 3.96874
10.1735 42.7766 0.0311966
7.93911 43.2695 2
5.64454 43.7686 3.9726
8.38967 45.3208 0.0307936
6.13237 45.9055 2
3.76776 46.5371 3.98294
6.72591 48.0007 0.0262255
4.42195 48.7508 2
1.99014 49.554 4
5.21041 50.9104 0.0159319
2.85451 51.8506 2
3.86727 54.0858 0
10.9426 32.9192 3.97211
10.1051 30.382 3.96909
12.0941 31.2569 2
8.72406 27.7314 3.96964
10.7885 28.4145 2
12.947 29.0336 0.0300197
7.35602 24.9823 3.97402
9.41642 25.7977 2
11.3742 26.4871 0.0308258
6.116 22.0023 3.98382
8.23106 23.0235 2
10.2012 23.9683 0.028233
5.02411 18.75 4
7.19887 19.9811 2
9.2438 21.1394 0.0253288
8.41673 18.028 0.0161246
6.3199 16.6661 2
7.74928 14.6715 0
10.4669 34.9997 3.97156
12.1266 34.2947 2
14.552 32.8636 0.0261545
9.02764 36.9844 3.97004
10.862 36.6104 2
12.9456 36.2087 0.0271654
11.2994 38.3087 0.0277868
9.35911 38.8225 2
7.23094 39.1817 3.96914
9.76467 40.7531 0.0306803
7.55075 41.2107 2
5.26014 41.6142 3.97194
7.93902 43.2696 0.0311889
5.64463 43.7684 2
3.24559 44.282 3.98248
6.13234 45.9057 0.02695
3.7678 46.5368 2
1.27781 47.2057 4
4.42202 48.7513 0.0163792
1.99012 49.554 2
2.85457 51.8506 0
10.1051 33.8813 3.97172
9.39489 32.1543 3.96965
10.9429 32.9191 2
8.07305 29.695 3.96942
10.1054 30.3819 2
12.0935 31.2569 0.0289156
6.59989 27.0082 3.97348
8.7241 27.7313 2
10.7885 28.4147 0.0310969
5.17136 24.0951 3.98394
7.35632 24.9823 2
9.41616 25.7979 0.029803
3.86728 20.9142 4
6.11592 22.004 2
8.23048 23.0234 0.025219
5.02406 18.75 2
7.19913 19.9786 0.0169277
6.31992 16.6661 0
8.85188 35.2791 3.97018
10.4673 34.9997 2
12.1258 34.2947 0.0269613
7.01459 37.2056 3.96931
9.02767 36.9843 2
10.8611 36.6105 0.0282055
9.35871 38.8226 0.0301547
7.23108 39.1816 2
4.98801 39.4674 3.97189
7.55055 41.2108 0.0312601
5.26033 41.6139 2
2.85622 42.0023 3.98206
5.64454 43.7686 0.0273959
3.2457 44.2819 2
0.720592 44.8159 4
3.76776 46.5371 0.0170626
1.27778 47.2057 2
1.99014 49.554 0
8.88929 33.6975 3.97016
10.1055 33.8812 2
7.5106 31.6088 3.96959
9.39511 32.1542 2
10.9426 32.9192 0.0278923
5.94507 29.0691 3.97322
8.07299 29.6949 2
10.1051 30.382 0.0309138
4.35916 26.2476 3.98337
6.59996 27.0082 2
8.72406 27.7314 0.0303552
2.85458 23.1494 4
5.17134 24.0959 2
7.35602 24.9823 0.025975
3.86728 20.9142 2
6.116 22.0023 0.0161764
5.02411 18.75 0
6.96472 35.3057 3.96945
8.85226 35.279 2
10.4669 34.9997 0.0284394
4.83805 37.3397 3.97237
7.01467 37.2055 2
9.02764 36.9844 0.0299601
7.23094 39.1817 0.0308638
4.98814 39.4672 2
2.6044 39.714 3.9817
5.26014 41.6142 0.0280616
2.85644 42.0025 2
0.320823 42.3947 4
3.24559 44.282 0.0175165
0.720551 44.8159 2
1.27781 47.2057 0
7.12443 33.4605 3.96978
8.88942 33.6974 2
10.1051 33.8813 0.0282824
5.41603 31.1331 3.97305
7.51064 31.6087 2
9.39489 32.1543 0.0303494
3.68094 28.4434 3.9829
5.945 29.0691 2
8.07305 29.695 0.0305755
1.99015 25.446 4
4.35916 26.2478 2
6.59989 27.0082 0.0265237
2.85453 23.1494 2
5.17136 24.0951 0.0160631
3.86728 20.9142 0
4.85229 35.2513 3.97256
6.96494 35.3057 2
8.85188 35.2791 0.0298154
2.49576 37.4286 3.98219
4.83811 37.3397 2
7.01459 37.2056 0.0306882
4.98801 39.4674 0.0281141
2.60458 39.7144 2
0.080333 39.9526 4
2.85622 42.0023 0.017944
0.320817 42.3947 2
0.720592 44.8159 0
5.04551 33.1898 3.97295
7.12459 33.4605 2
8.88929 33.6975 0.0298387
3.14531 30.6661 3.98246
5.41606 31.1332 2
7.5106 31.6088 0.0304138
1.27793 27.7943 4
3.68095 28.4436 2
5.94507 29.0691 0.0267759
1.99013 25.446 2
4.35916 26.2476 0.0166309
2.85458 23.1494 0
2.54787 35.159 3.98229
4.85252 35.2514 2
6.96472 35.3057 0.0305478
0 37.5 4
2.49587 37.4289 2
4.83805 37.3397 0.0276287
2.6044 39.714 0.0183022
0.0802903 39.9526 2
0.320823 42.3947 0
2.76539 32.9057 3.98248
5.04566 33.19 2
7.12443 33.4605 0.0302222
0.721173 30.1842 4
3.14542 30.6665 2
5.41603 31.1331 0.0269545
1.27779 27.7943 2
3.68094 28.4434 0.0171015
1.99015 25.446 0
0.0806499 35.0474 4
2.54813 35.1594 2
4.85229 35.2513 0.0274408
0 37.5 2
2.49576 37.4286 0.0178065
0.080333 39.9526 0
0.32156 32.6054 4
2.76555 32.9061 2
5.04551 33.1898 0.0270522
0.72056 30.1841 2
3.14531 30.6661 0.017537
1.27793 27.7943 0
0.0802889 35.0474 2
2.54787 35.159 0.0177086
0 37.5 0
0.320817 32.6053 2
2.76539 32.9057 0.0175182
0.721173 30.1842 0
0.0806499 35.0474 0
0.32156 32.6054 0
CELLS 1910 17190
8 18 6 25 56 2 0 5 16
8 57 23 6 18 17 4 0 2
8 78 36 9 29 31 11 1 7
8 31 11 1 7 79 37 10 30
8 110 57 18 50 48 17 2 14
8 50 18 56 111 14 2 16 49
8 116 62 22 55 52 20 3 15
8 56 25 67 118 16 5 24 53
8 119 63 23 57 54 21 4 17
8 55 22 63 119 15 3 21 54
8 58 26 68 121 18 6 25 56
8 122 65 26 58 57 23 6 18
8 73 31 7 27 142 79 30 71
8 143 78 29 72 73 31 7 27
8 83 147 76 34 32 74 28 8
8 84 148 78 36 33 75 29 9
8 76 34 8 28 148 84 33 75
8 37 79 150 86 10 30 77 35
8 151 87 36 78 80 38 11 31
8 80 38 11 31 152 88 37 79
8 175 100 42 94 96 44 12 40
8 44 96 176 101 12 40 95 43
8 101 176 98 46 43 95 41 13
8 46 98 178 103 13 41 97 45
8 178 103 45 97 147 83 32 74
8 189 116 55 109 106 52 15 47
8 111 56 118 191 49 16 53 107
8 192 119 57 110 108 54 17 48
8 109 55 119 192 47 15 54 108
8 194 122 58 112 110 57 18 50
8 112 58 121 195 50 18 56 111
8 115 61 19 51 197 124 59 113
8 115 61 125 198 51 19 60 114
8 198 125 62 116 114 60 20 52
8 200 127 64 120 116 62 22 55
8 118 67 132 202 53 24 66 117
8 121 68 133 203 56 25 67 118
8 120 64 128 204 55 22 63 119
8 204 128 65 122 119 63 23 57
8 206 134 68 121 123 69 26 58
8 123 69 26 58 207 131 65 122
8 226 147 74 138 140 76 28 70
8 229 148 75 139 143 78 29 72
8 140 76 28 70 229 148 75 139
8 142 79 30 71 231 150 77 141
8 144 80 31 73 232 152 79 142
8 233 151 78 143 144 80 31 73
8 150 86 35 77 235 154 81 145
8 235 154 81 145 146 82 39 91
8 146 82 39 91 236 155 90 165
8 238 157 83 147 149 85 34 76
8 239 158 84 148 151 87 36 78
8 149 85 34 76 239 158 84 148
8 152 88 37 79 241 160 86 150
8 242 161 87 151 153 89 38 80
8 153 89 38 80 243 162 88 152
8 171 98 41 92 265 178 97 169
8 265 178 97 169 226 147 74 138
8 172 96 40 93 266 176 95 170
8 266 176 95 170 171 98 41 92
8 269 175 94 173 172 96 40 93
8 271 180 99 174 175 100 42 94
8 197 124 59 113 271 180 99 174
8 272 181 100 175 177 102 44 96
8 273 182 101 176 179 104 46 98
8 177 102 44 96 273 182 101 176
8 179 104 46 98 275 184 103 178
8 275 184 103 178 238 157 83 147
8 188 115 51 105 283 197 113 186
8 188 115 198 284 105 51 114 187
8 284 198 116 189 187 114 52 106
8 286 200 120 193 189 116 55 109
8 191 118 202 288 107 53 117 190
8 195 121 203 289 111 56 118 191
8 193 120 204 290 109 55 119 192
8 290 204 122 194 192 119 57 110
8 196 123 58 112 292 207 122 194
8 293 206 121 195 196 123 58 112
8 199 126 61 115 297 211 124 197
8 298 212 127 200 198 125 62 116
8 199 126 212 298 115 61 125 198
8 205 129 64 120 300 214 127 200
8 301 217 130 201 202 132 66 117
8 209 136 168 264 301 217 130 201
8 302 219 132 202 203 133 67 118
8 303 220 133 203 206 134 68 121
8 205 129 215 304 120 64 128 204
8 304 215 131 207 204 128 65 122
8 306 221 134 206 208 135 69 123
8 208 135 69 123 307 218 131 207
8 210 137 167 263 309 223 136 209
8 328 238 147 226 230 149 76 140
8 228 146 91 166 329 236 165 260
8 231 150 77 141 330 235 145 227
8 330 235 145 227 228 146 91 166
8 332 239 148 229 233 151 78 143
8 230 149 76 140 332 239 148 229
8 232 152 79 142 334 241 150 231
8 234 153 80 144 335 243 152 232
8 336 242 151 233 234 153 80 144
8 236 155 90 165 338 245 164 259
8 241 160 86 150 339 246 154 235
8 339 246 154 235 237 156 82 146
8 237 156 82 146 340 247 155 236
8 342 249 157 238 240 159 85 149
8 343 250 158 239 242 161 87 151
8 240 159 85 149 343 250 158 239
8 243 162 88 152 345 252 160 241
8 244 163 253 346 153 89 161 242
8 244 163 89 153 347 254 162 243
8 311 224 261 371 210 137 167 263
8 263 167 262 372 209 136 168 264
8 267 179 98 171 375 275 178 265
8 375 275 178 265 328 238 147 226
8 376 273 176 266 267 179 98 171
8 268 177 96 172 376 273 176 266
8 379 272 175 269 268 177 96 172
8 380 271 174 270 269 175 94 173
8 283 197 113 186 380 271 174 270
8 381 277 180 271 272 181 100 175
8 297 211 124 197 381 277 180 271
8 382 278 181 272 274 183 102 177
8 274 183 102 177 383 279 182 273
8 383 279 182 273 276 185 104 179
8 385 281 184 275 342 249 157 238
8 276 185 104 179 385 281 184 275
8 285 199 115 188 393 297 197 283
8 394 298 200 286 284 198 116 189
8 285 199 298 394 188 115 198 284
8 291 205 120 193 396 300 200 286
8 397 301 201 287 288 202 117 190
8 295 209 264 374 397 301 201 287
8 398 302 202 288 289 203 118 191
8 399 303 203 289 293 206 121 195
8 291 205 304 400 193 120 204 290
8 400 304 207 292 290 204 122 194
8 294 208 123 196 402 307 207 292
8 403 306 206 293 294 208 123 196
8 296 210 263 373 405 309 209 295
8 408 312 213 299 297 211 126 199
8 299 213 313 409 199 126 212 298
8 409 313 214 300 298 212 127 200
8 305 216 129 205 411 315 214 300
8 412 318 217 301 302 219 132 202
8 309 223 136 209 412 318 217 301
8 413 320 219 302 303 220 133 203
8 306 221 321 414 206 134 220 303
8 307 218 131 207 415 316 215 304
8 305 216 316 415 205 129 215 304
8 417 322 221 306 308 222 135 208
8 308 222 135 208 418 319 218 307
8 310 225 137 210 420 325 223 309
8 423 326 224 311 310 225 137 210
8 329 236 165 260 441 338 259 368
8 442 342 238 328 333 240 149 230
8 331 237 146 228 443 340 236 329
8 334 241 150 231 444 339 235 330
8 444 339 235 330 331 237 146 228
8 446 343 239 332 336 242 151 233
8 333 240 149 230 446 343 239 332
8 335 243 152 232 448 345 241 334
8 337 244 153 234 449 347 243 335
8 337 244 346 450 234 153 242 336
8 338 245 164 259 452 349 258 367
8 340 247 155 236 453 350 245 338
8 345 252 160 241 454 351 246 339
8 454 351 246 339 341 248 156 237
8 341 248 156 237 455 352 247 340
8 240 159 251 344 342 249 354 457
8 242 161 253 346 343 250 355 458
8 343 250 355 458 240 159 251 344
8 347 254 162 243 460 357 252 345
8 348 255 358 461 244 163 253 346
8 348 255 163 244 462 359 254 347
8 473 360 257 365 363 256 364 482
8 452 349 258 367 365 257 366 485
8 422 324 369 488 311 224 261 371
8 371 261 370 490 263 167 262 372
8 407 311 371 491 296 210 263 373
8 373 263 372 492 295 209 264 374
8 493 385 275 375 442 342 238 328
8 377 276 179 267 493 385 275 375
8 378 274 177 268 494 383 273 376
8 494 383 273 376 377 276 179 267
8 497 382 272 379 378 274 177 268
8 498 381 271 380 379 272 175 269
8 393 297 197 283 498 381 271 380
8 499 387 277 381 382 278 181 272
8 408 312 211 297 499 387 277 381
8 500 388 278 382 384 280 183 274
8 501 389 279 383 386 282 185 276
8 384 280 183 274 501 389 279 383
8 386 282 185 276 503 391 281 385
8 503 391 281 385 457 354 249 342
8 511 408 299 395 393 297 199 285
8 395 299 409 512 285 199 298 394
8 512 409 300 396 394 298 200 286
8 401 305 205 291 514 411 300 396
8 515 412 301 397 398 302 202 288
8 405 309 209 295 515 412 301 397
8 516 413 302 398 399 303 203 289
8 403 306 414 517 293 206 303 399
8 402 307 207 292 518 415 304 400
8 401 305 415 518 291 205 304 400
8 404 308 208 294 520 418 307 402
8 521 417 306 403 404 308 208 294
8 406 310 210 296 523 420 309 405
8 526 423 311 407 406 310 210 296
8 410 314 213 299 527 424 312 408
8 528 425 315 411 409 313 214 300
8 410 314 425 528 299 213 313 409
8 416 317 216 305 530 427 315 411
8 531 430 318 412 413 320 219 302
8 420 325 223 309 531 430 318 412
8 532 432 320 413 414 321 220 303
8 417 322 433 533 306 221 321 414
8 418 319 218 307 534 428 316 415
8 416 317 428 534 305 216 316 415
8 419 323 434 536 308 222 322 417
8 419 323 222 308 537 431 319 418
8 421 327 225 310 539 438 325 420
8 421 327 439 541 310 225 326 423
8 543 437 324 422 423 326 224 311
8 441 338 259 368 559 452 367 486
8 443 340 236 329 560 453 338 441
8 333 240 344 447 442 342 457 561
8 445 341 237 331 562 455 340 443
8 448 345 241 334 563 454 339 444
8 563 454 339 444 445 341 237 331
8 336 242 346 450 446 343 458 565
8 446 343 458 565 333 240 344 447
8 449 347 243 335 567 460 345 448
8 451 348 244 337 568 462 347 449
8 451 348 461 569 337 244 346 450
8 570 463 349 452 473 360 257 365
8 453 350 245 338 570 463 349 452
8 455 352 247 340 571 464 350 453
8 460 357 252 345 572 465 351 454
8 572 465 351 454 456 353 248 341
8 456 353 248 341 573 466 352 455
8 344 251 356 459 457 354 468 575
8 458 355 469 576 344 251 356 459
8 346 253 358 461 458 355 469 576
8 462 359 254 347 578 471 357 460
8 348 255 359 462 461 358 472 579
8 591 474 360 473 475 361 256 363
8 475 361 256 363 594 477 362 479
8 363 256 364 482 479 362 480 603
8 590 473 365 484 481 363 482 605
8 482 364 257 365 606 483 366 485
8 559 452 367 486 484 365 485 607
8 542 436 487 609 422 324 369 488
8 525 422 488 611 407 311 371 491
8 488 369 489 612 371 261 370 490
8 491 371 490 613 373 263 372 492
8 495 386 276 377 614 503 385 493
8 614 503 385 493 561 457 342 442
8 615 501 383 494 495 386 276 377
8 496 384 274 378 615 501 383 494
8 618 500 382 497 496 384 274 378
8 619 499 381 498 497 382 272 379
8 511 408 297 393 619 499 381 498
8 620 505 387 499 500 388 278 382
8 527 424 312 408 620 505 387 499
8 502 390 506 621 384 280 388 500
8 622 507 389 501 504 392 282 386
8 502 390 280 384 622 507 389 501
8 504 392 282 386 624 509 391 503
8 624 509 391 503 575 468 354 457
8 513 410 299 395 630 527 408 511
8 631 528 411 514 512 409 300 396
8 513 410 528 631 395 299 409 512
8 519 416 305 401 633 530 411 514
8 634 531 412 515 516 413 302 398
8 523 420 309 405 634 531 412 515
8 635 532 413 516 517 414 303 399
8 521 417 533 636 403 306 414 517
8 520 418 307 402 637 534 415 518
8 519 416 534 637 401 305 415 518
8 522 419 308 404 639 537 418 520
8 522 419 536 640 404 308 417 521
8 524 421 310 406 642 539 420 523
8 524 421 541 644 406 310 423 526
8 646 543 422 525 526 423 311 407
8 529 426 314 410 647 544 424 527
8 528 425 545 648 411 315 427 530
8 529 426 545 648 410 314 425 528
8 535 429 317 416 649 546 427 530
8 650 548 430 531 532 432 320 413
8 539 438 325 420 650 548 430 531
8 533 433 550 651 414 321 432 532
8 536 434 551 652 417 322 433 533
8 537 431 319 418 653 547 428 534
8 535 429 547 653 416 317 428 534
8 538 435 552 654 419 323 434 536
8 538 435 323 419 655 549 431 537
8 540 440 327 421 657 556 438 539
8 540 440 557 659 421 327 439 541
8 541 439 555 660 423 326 437 543
8 661 554 436 542 543 437 324 422
8 676 570 452 559 590 473 365 484
8 560 453 338 441 676 570 452 559
8 562 455 340 443 677 571 453 560
8 447 344 459 566 561 457 575 678
8 564 456 341 445 679 573 455 562
8 567 460 345 448 680 572 454 563
8 680 572 454 563 564 456 341 445
8 565 458 576 682 447 344 459 566
8 450 346 461 569 565 458 576 682
8 568 462 347 449 684 578 460 567
8 451 348 462 568 569 461 579 685
8 686 580 463 570 591 474 360 473
8 571 464 350 453 686 580 463 570
8 573 466 352 455 687 581 464 571
8 572 465 582 688 460 357 471 578
8 574 467 582 688 456 353 465 572
8 574 467 353 456 689 583 466 573
8 459 356 470 577 575 468 585 691
8 576 469 586 692 459 356 470 577
8 461 358 472 579 576 469 586 692
8 462 359 471 578 579 472 588 694
8 704 591 473 590 593 475 363 481
8 595 476 592 705 475 361 474 591
8 593 475 363 481 707 594 479 602
8 594 477 362 479 709 598 478 600
8 595 476 361 475 711 597 477 594
8 479 362 480 603 600 478 601 720
8 481 363 482 605 602 479 603 722
8 603 480 364 482 723 604 483 606
8 605 482 365 484 724 606 485 607
8 656 553 608 726 542 436 487 609
8 645 542 609 728 525 422 488 611
8 609 487 610 729 488 369 489 612
8 611 488 612 730 491 371 490 613
8 616 504 386 495 731 624 503 614
8 731 624 503 614 678 575 457 561
8 732 622 501 615 616 504 386 495
8 617 502 384 496 732 622 501 615
8 617 502 621 735 496 384 500 618
8 736 620 499 619 618 500 382 497
8 630 527 408 511 736 620 499 619
8 621 506 626 737 500 388 505 620
8 647 544 424 527 737 626 505 620
8 623 508 627 738 502 390 506 621
8 623 508 390 502 739 628 507 622
8 625 510 628 739 504 392 507 622
8 740 629 509 624 691 585 468 575
8 625 510 392 504 740 629 509 624
8 632 529 410 513 744 647 527 630
8 631 528 648 745 514 411 530 633
8 632 529 648 745 513 410 528 631
8 638 535 416 519 746 649 530 633
8 747 650 531 634 635 532 413 516
8 642 539 420 523 747 650 531 634
8 636 533 651 748 517 414 532 635
8 640 536 652 749 521 417 533 636
8 639 537 418 520 750 653 534 637
8 638 535 653 750 519 416 534 637
8 641 538 419 522 751 655 537 639
8 641 538 654 752 522 419 536 640
8 643 540 421 524 753 657 539 642
8 643 540 659 755 524 421 541 644
8 644 541 660 757 526 423 543 646
8 758 661 542 645 646 543 422 525
8 529 426 544 647 648 545 662 759
8 530 427 545 648 649 546 663 760
8 535 429 546 649 653 547 664 761
8 762 666 548 650 651 550 432 532
8 657 556 438 539 762 666 548 650
8 652 551 668 763 533 433 550 651
8 654 552 669 764 536 434 551 652
8 655 549 431 537 765 665 547 653
8 538 435 549 655 654 552 667 766
8 661 554 671 768 542 436 553 656
8 658 558 440 540 769 674 556 657
8 658 558 675 770 540 440 557 659
8 659 557 673 771 541 439 555 660
8 660 555 672 772 543 437 554 661
8 788 686 570 676 704 591 473 590
8 677 571 453 560 788 686 570 676
8 679 573 455 562 789 687 571 677
8 566 459 577 683 678 575 691 790
8 681 574 456 564 791 689 573 679
8 680 572 688 792 567 460 578 684
8 681 574 688 792 564 456 572 680
8 682 576 692 794 566 459 577 683
8 569 461 579 685 682 576 692 794
8 568 462 578 684 685 579 694 796
8 687 581 464 571 798 696 580 686
8 798 696 580 686 705 592 474 591
8 689 583 466 573 799 697 581 687
8 688 582 698 800 578 471 588 694
8 690 584 698 800 574 467 582 688
8 690 584 467 574 801 699 583 689
8 693 587 701 803 577 470 585 691
8 693 587 470 577 804 702 586 692
8 695 589 702 804 579 472 586 692
8 695 589 472 579 805 703 588 694
8 708 595 705 813 593 475 591 704
8 710 596 706 814 595 476 592 705
8 707 594 479 602 816 709 600 719
8 708 595 475 593 817 711 594 707
8 709 598 478 600 819 715 599 717
8 711 597 477 594 820 714 598 709
8 710 596 476 595 822 713 597 711
8 600 478 601 720 717 599 718 832
8 602 479 603 722 719 600 720 834
8 720 601 480 603 835 721 604 723
8 722 603 482 605 836 723 606 724
8 767 670 725 839 656 553 608 726
8 756 656 726 841 645 542 609 728
8 726 608 727 842 609 487 610 729
8 728 609 729 843 611 488 612 730
8 844 740 624 731 790 691 575 678
8 733 625 504 616 844 740 624 731
8 734 623 502 617 845 739 622 732
8 733 625 739 845 616 504 622 732
8 734 623 738 846 617 502 621 735
8 735 621 737 847 618 500 620 736
8 744 647 527 630 847 737 620 736
8 621 506 627 738 737 626 741 848
8 647 544 626 737 759 662 741 848
8 623 508 628 739 738 627 742 849
8 740 629 585 691 850 743 700 802
8 625 510 629 740 739 628 743 850
8 632 529 647 744 745 648 759 854
8 633 530 648 745 746 649 760 855
8 638 535 649 746 750 653 761 856
8 857 762 650 747 748 651 532 635
8 753 657 539 642 857 762 650 747
8 749 652 763 858 636 533 651 748
8 752 654 764 859 640 536 652 749
8 751 655 537 639 860 765 653 750
8 641 538 655 751 752 654 766 861
8 754 658 540 643 862 769 657 753
8 754 658 770 863 643 540 659 755
8 755 659 771 864 644 541 660 757
8 758 661 768 866 645 542 656 756
8 757 660 772 867 646 543 661 758
8 759 662 773 868 648 545 663 760
8 649 546 663 760 761 664 774 871
8 765 665 547 653 872 775 664 761
8 873 777 666 762 763 668 550 651
8 769 674 556 657 873 777 666 762
8 764 669 779 874 652 551 668 763
8 654 552 667 766 764 669 778 875
8 655 549 665 765 766 667 776 876
8 768 671 782 877 656 553 670 767
8 772 672 783 878 661 554 671 768
8 658 558 674 769 770 675 786 879
8 659 557 675 770 771 673 785 881
8 882 784 672 772 771 673 555 660
8 789 687 571 677 897 798 686 788
8 897 798 686 788 813 705 591 704
8 791 689 573 679 898 799 687 789
8 795 693 803 900 683 577 691 790
8 793 690 574 681 901 801 689 791
8 792 688 800 902 684 578 694 796
8 793 690 800 902 681 574 688 792
8 795 693 577 683 903 804 692 794
8 797 695 804 903 685 579 692 794
8 797 695 579 685 904 805 694 796
8 905 806 697 799 798 696 581 687
8 814 706 806 905 705 592 696 798
8 689 583 697 799 801 699 808 907
8 800 698 809 908 694 588 703 805
8 690 584 699 801 800 698 809 908
8 803 701 810 909 691 585 700 802
8 693 587 702 804 803 701 811 910
8 695 589 703 805 804 702 812 911
8 818 710 814 919 708 595 705 813
8 821 712 815 920 710 596 706 814
8 816 709 600 719 922 819 717 831
8 817 711 594 707 923 820 709 816
8 818 710 595 708 924 822 711 817
8 819 715 599 717 926 827 716 829
8 820 714 598 709 927 826 715 819
8 929 825 713 822 820 714 597 711
8 821 712 596 710 930 824 713 822
8 717 599 718 832 829 716 830 942
8 719 600 720 834 831 717 832 944
8 832 718 601 720 945 833 721 835
8 834 720 603 722 946 835 723 836
8 869 780 838 950 767 670 725 839
8 865 767 839 952 756 656 726 841
8 839 725 840 953 726 608 727 842
8 841 726 842 954 728 609 729 843
8 844 740 691 790 955 850 802 899
8 733 625 740 844 845 739 850 955
8 734 623 739 845 846 738 849 956
8 735 621 738 846 847 737 848 957
8 744 647 737 847 854 759 848 957
8 738 627 742 849 848 741 851 958
8 848 741 851 958 759 662 773 868
8 850 743 700 802 959 852 807 906
8 849 742 628 739 959 852 743 850
8 854 759 868 965 745 648 760 855
8 746 649 760 855 856 761 871 966
8 860 765 653 750 967 872 761 856
8 968 873 762 857 858 763 651 748
8 862 769 657 753 968 873 762 857
8 859 764 874 969 749 652 763 858
8 752 654 766 861 859 764 875 970
8 751 655 765 860 861 766 876 971
8 754 658 769 862 863 770 879 972
8 755 659 770 863 864 771 881 974
8 976 882 772 867 864 771 660 757
8 866 768 877 977 756 656 767 865
8 867 772 878 978 758 661 768 866
8 760 663 773 868 871 774 883 980
8 870 781 837 948 982 890 780 869
8 982 890 780 869 877 782 670 767
8 761 664 774 871 872 775 884 984
8 876 776 665 765 985 885 775 872
8 873 777 668 763 986 887 779 874
8 769 674 777 873 879 786 887 986
8 764 669 778 875 874 779 888 987
8 766 667 776 876 875 778 886 988
8 878 783 892 989 768 671 782 877
8 878 783 672 772 990 893 784 882
8 880 787 675 770 991 896 786 879
8 880 787 895 992 770 675 785 881
8 881 785 894 993 771 673 784 882
8 1006 905 799 898 897 798 687 789
8 919 814 905 1006 813 705 798 897
8 791 689 799 898 901 801 907 1007
8 900 803 909 1009 790 691 802 899
8 795 693 804 903 900 803 910 1010
8 902 800 908 1011 796 694 805 904
8 793 690 801 901 902 800 908 1011
8 797 695 805 904 903 804 911 1012
8 799 697 806 905 907 808 912 1013
8 920 815 912 1013 814 706 806 905
8 802 700 810 909 906 807 913 1014
8 801 699 808 907 908 809 914 1015
8 805 703 809 908 911 812 915 1016
8 803 701 811 910 909 810 916 1017
8 911 812 917 1018 804 702 811 910
8 925 821 920 1030 818 710 814 919
8 928 823 921 1031 821 712 815 920
8 922 819 717 831 1033 926 829 941
8 923 820 709 816 1034 927 819 922
8 1035 929 822 924 923 820 711 817
8 925 821 710 818 1036 930 822 924
8 1038 933 825 929 927 826 714 820
8 926 827 716 829 1039 935 828 939
8 927 826 715 819 1040 934 827 926
8 928 823 712 821 1041 931 824 930
8 1042 932 824 930 929 825 713 822
8 829 716 830 942 939 828 940 1058
8 831 717 832 944 941 829 942 1060
8 942 830 718 832 1061 943 833 945
8 944 832 720 834 1062 945 835 946
8 981 889 947 1064 870 781 837 948
8 948 837 949 1067 869 780 838 950
8 975 869 950 1069 865 767 839 952
8 950 838 951 1070 839 725 840 953
8 952 839 953 1071 841 726 842 954
8 955 850 802 899 1072 959 906 1008
8 956 849 739 845 1072 959 850 955
8 846 738 849 956 957 848 958 1073
8 957 848 958 1073 854 759 868 965
8 849 742 852 959 958 851 961 1076
8 960 853 961 1076 906 807 852 959
8 958 851 961 1076 868 773 883 980
8 960 853 807 906 1077 963 913 1014
8 855 760 868 965 966 871 980 1085
8 856 761 871 966 967 872 984 1086
8 971 876 765 860 1087 985 872 967
8 968 873 763 858 1088 986 874 969
8 862 769 873 968 972 879 986 1088
8 859 764 875 970 969 874 987 1089
8 861 766 876 971 970 875 988 1090
8 973 880 770 863 1091 991 879 972
8 973 880 992 1092 863 770 881 974
8 974 881 993 1093 864 771 882 976
8 979 870 948 1066 1094 982 869 975
8 1094 982 869 975 977 877 767 865
8 978 878 772 867 1095 990 882 976
8 978 878 989 1096 866 768 877 977
8 871 774 883 980 984 884 994 1099
8 983 891 999 1100 870 781 889 981
8 1101 1000 890 982 989 892 782 877
8 983 891 781 870 1101 1000 890 982
8 872 775 884 984 985 885 995 1103
8 876 776 885 985 988 886 996 1104
8 986 887 779 874 1105 998 888 987
8 879 786 887 986 991 896 998 1105
8 875 778 886 988 987 888 997 1106
8 990 893 1002 1107 878 783 892 989
8 1108 1003 893 990 993 894 784 882
8 880 787 896 991 992 895 1005 1109
8 993 894 785 881 1110 1004 895 992
8 898 799 905 1006 1007 907 1013 1120
8 1030 920 1013 1120 919 814 905 1006
8 901 801 907 1007 1011 908 1015 1121
8 899 802 909 1009 1008 906 1014 1122
8 900 803 910 1010 1009 909 1017 1123
8 1012 911 1018 1124 903 804 910 1010
8 904 805 908 1011 1012 911 1016 1125
8 1013 912 1020 1127 907 808 914 1015
8 1031 921 1020 1127 920 815 912 1013
8 1019 918 962 1075 1128 1021 913 1014
8 1128 1021 913 1014 1017 916 810 909
8 1015 914 1022 1129 908 809 915 1016
8 1016 915 1023 1130 911 812 917 1018
8 1018 917 1024 1131 910 811 916 1017
8 1037 928 1031 1148 925 821 920 1030
8 928 823 931 1041 1031 921 1032 1149
8 1033 926 829 941 1151 1039 939 1057
8 1034 927 819 922 1152 1040 926 1033
8 1153 1038 929 1035 1034 927 820 923
8 1154 1042 930 1036 1035 929 822 924
8 1037 928 821 925 1155 1041 930 1036
8 1039 935 828 939 1156 1047 938 1055
8 1157 1043 932 1042 1038 933 825 929
8 1038 933 826 927 1158 1045 934 1040
8 1040 934 827 926 1159 1046 935 1039
8 930 824 932 1042 1041 931 1044 1160
8 1051 936 1048 1165 1175 1052 937 1053
8 1156 1047 938 1055 1053 937 1054 1178
8 939 828 940 1058 1055 938 1056 1181
8 941 829 942 1060 1057 939 1058 1183
8 942 830 943 1061 1058 940 1059 1184
8 1060 942 832 944 1185 1061 945 1062
8 1082 964 1063 1188 981 889 947 1064
8 1097 981 1064 1190 979 870 948 1066
8 1064 947 1065 1191 948 837 949 1067
8 1066 948 1067 1193 975 869 950 1069
8 1067 949 1068 1194 950 838 951 1070
8 1069 950 1070 1195 952 839 953 1071
8 956 849 959 1072 1073 958 1076 1197
8 1074 960 1076 1197 1008 906 959 1072
8 1073 958 1076 1197 965 868 980 1085
8 1074 960 906 1008 1198 1077 1014 1122
8 1133 1026 1079 1199 1019 918 962 1075
8 1077 963 913 1014 1200 1080 962 1075
8 960 853 963 1077 1076 961 1078 1201
8 980 883 961 1076 1099 994 1078 1201
8 1210 1083 964 1082 1100 999 889 981
8 966 871 980 1085 1086 984 1099 1215
8 967 872 984 1086 1087 985 1103 1216
8 971 876 985 1087 1090 988 1104 1217
8 1088 986 874 969 1218 1105 987 1089
8 972 879 986 1088 1091 991 1105 1218
8 970 875 988 1090 1089 987 1106 1219
8 973 880 991 1091 1092 992 1109 1220
8 1093 993 881 974 1221 1110 992 1092
8 1222 1108 990 1095 1093 993 882 976
8 1223 1101 982 1094 1096 989 877 977
8 1098 983 870 979 1223 1101 982 1094
8 1095 990 1107 1224 978 878 989 1096
8 1098 983 1100 1225 979 870 981 1097
8 984 884 994 1099 1103 995 1111 1227
8 1102 1001 1115 1228 983 891 999 1100
8 1101 1000 892 989 1229 1116 1002 1107
8 1102 1001 891 983 1229 1116 1000 1101
8 985 885 995 1103 1104 996 1112 1230
8 988 886 996 1104 1106 997 1113 1231
8 1105 998 888 987 1232 1114 997 1106
8 991 896 998 1105 1109 1005 1114 1232
8 1108 1003 1117 1233 990 893 1002 1107
8 1108 1003 894 993 1233 1117 1004 1110
8 992 895 1005 1109 1110 1004 1118 1234
8 1120 1013 1127 1244 1007 907 1015 1121
8 1148 1031 1127 1244 1030 920 1013 1120
8 1121 1015 1129 1245 1011 908 1016 1125
8 1126 1019 1075 1196 1246 1128 1014 1122
8 1246 1128 1014 1122 1123 1017 909 1009
8 1124 1018 1131 1247 1010 910 1017 1123
8 1125 1016 1130 1248 1012 911 1018 1124
8 1127 1020 1137 1254 1015 914 1022 1129
8 1031 921 1032 1149 1127 1020 1137 1254
8 1134 1027 918 1019 1257 1140 1021 1128
8 1257 1140 1021 1128 1131 1024 916 1017
8 1129 1022 1141 1258 1016 915 1023 1130
8 1130 1023 1142 1259 1018 917 1024 1131
8 1261 1144 1025 1132 1133 1026 1079 1199
8 1255 1138 1025 1132 1135 1028 1144 1261
8 1133 1026 918 1019 1262 1145 1027 1134
8 1136 1029 1139 1256 1263 1146 1028 1135
8 1037 928 1041 1155 1148 1031 1149 1275
8 1041 931 1044 1160 1149 1032 1150 1276
8 1151 1039 939 1057 1278 1156 1055 1180
8 1152 1040 926 1033 1279 1159 1039 1151
8 1153 1038 927 1034 1280 1158 1040 1152
8 1281 1157 1042 1154 1153 1038 929 1035
8 1036 930 1042 1154 1155 1041 1160 1282
8 1283 1164 1046 1159 1156 1047 935 1039
8 1165 1048 1164 1283 1053 937 1047 1156
8 1157 1043 933 1038 1284 1161 1045 1158
8 1157 1043 1161 1284 1042 932 1044 1160
8 1040 934 1046 1159 1158 1045 1163 1285
8 1166 1049 1167 1292 1051 936 1048 1165
8 1166 1049 936 1051 1293 1168 1050 1172
8 1051 936 1052 1175 1172 1050 1173 1306
8 1174 1051 1165 1290 1308 1175 1053 1177
8 1053 937 1054 1178 1175 1052 1176 1309
8 1278 1156 1055 1180 1177 1053 1178 1311
8 1055 938 1056 1181 1178 1054 1179 1312
8 1057 939 1058 1183 1180 1055 1181 1314
8 1058 940 1059 1184 1181 1056 1182 1315
8 1060 942 1061 1185 1183 1058 1184 1316
8 1208 1081 1187 1321 1082 964 1063 1188
8 1209 1082 1188 1322 1097 981 1064 1190
8 1188 1063 1189 1323 1064 947 1065 1191
8 1190 1064 1191 1325 1066 948 1067 1193
8 1191 1065 1192 1326 1067 949 1068 1194
8 1067 1193 1069 950 1194 1327 1195 1070
8 1250 1133 1199 1330 1126 1019 1075 1196
8 1198 1077 1014 1122 1331 1200 1075 1196
8 1074 960 1077 1198 1197 1076 1201 1332
8 1085 980 1076 1197 1215 1099 1201 1332
8 1199 1079 1203 1333 1075 962 1080 1200
8 1132 1025 1119 1243 1199 1079 1203 1333
8 1201 1078 963 1077 1334 1202 1080 1200
8 1099 994 1078 1201 1227 1111 1202 1334
8 1343 1207 1081 1208 1210 1083 964 1082
8 1214 1084 1186 1319 1343 1207 1081 1208
8 1345 1210 1082 1209 1225 1100 981 1097
8 1346 1211 1083 1210 1228 1115 999 1100
8 1086 984 1099 1215 1216 1103 1227 1352
8 1087 985 1103 1216 1217 1104 1230 1353
8 1090 988 1104 1217 1219 1106 1231 1354
8 1218 1105 987 1089 1355 1232 1106 1219
8 1091 991 1105 1218 1220 1109 1232 1355
8 1092 992 1109 1220 1221 1110 1234 1356
8 1222 1108 1233 1357 1095 990 1107 1224
8 1222 1108 993 1093 1357 1233 1110 1221
8 1223 1101 989 1096 1358 1229 1107 1224
8 1226 1102 983 1098 1358 1229 1101 1223
8 1226 1102 1228 1359 1098 983 1100 1225
8 1103 995 1111 1227 1230 1112 1235 1360
8 1107 1002 1117 1233 1229 1116 1240 1362
8 1102 1001 1116 1229 1228 1115 1240 1362
8 1104 996 1112 1230 1231 1113 1236 1363
8 1364 1237 1114 1232 1231 1113 997 1106
8 1109 1005 1114 1232 1234 1118 1238 1365
8 1110 1004 1118 1234 1233 1117 1241 1366
8 1242 1374 1255 1138 1119 1243 1132 1025
8 1244 1127 1254 1376 1121 1015 1129 1245
8 1148 1031 1149 1275 1244 1127 1254 1376
8 1245 1129 1258 1377 1125 1016 1130 1248
8 1251 1134 1019 1126 1378 1257 1128 1246
8 1378 1257 1128 1246 1247 1131 1017 1123
8 1248 1130 1259 1379 1124 1018 1131 1247
8 1261 1381 1250 1133 1132 1249 1330 1199
8 1255 1380 1252 1135 1132 1249 1381 1261
8 1250 1133 1019 1126 1382 1262 1134 1251
8 1253 1136 1256 1385 1384 1263 1135 1252
8 1254 1137 1265 1387 1129 1022 1141 1258
8 1149 1032 1150 1276 1254 1137 1265 1387
8 1028 1135 1255 1138 1139 1256 1388 1266
8 1136 1029 1147 1264 1256 1139 1267 1389
8 1390 1268 1140 1257 1259 1142 1024 1131
8 1260 1143 1027 1134 1390 1268 1140 1257
8 1258 1141 1269 1391 1130 1023 1142 1259
8 1262 1145 1027 1134 1393 1271 1143 1260
8 1261 1144 1026 1133 1394 1272 1145 1262
8 1135 1028 1144 1261 1263 1146 1272 1394
8 1136 1029 1146 1263 1264 1147 1273 1395
8 1155 1041 1160 1282 1275 1149 1276 1405
8 1276 1150 1044 1160 1406 1277 1162 1286
8 1408 1283 1159 1279 1278 1156 1039 1151
8 1290 1165 1283 1408 1177 1053 1156 1278
8 1152 1040 1159 1279 1280 1158 1285 1409
8 1281 1157 1038 1153 1410 1284 1158 1280
8 1281 1157 1284 1410 1154 1042 1160 1282
8 1159 1046 1164 1283 1285 1163 1289 1412
8 1292 1167 1289 1412 1165 1048 1164 1283
8 1158 1045 1163 1285 1284 1161 1288 1413
8 1284 1161 1288 1413 1160 1044 1162 1286
8 1291 1166 1292 1418 1174 1051 1165 1290
8 1291 1166 1051 1174 1419 1293 1172 1305
8 1294 1169 1296 1421 1166 1049 1167 1292
8 1293 1168 1050 1172 1422 1295 1171 1303
8 1294 1169 1049 1166 1423 1297 1168 1293
8 1422 1295 1171 1303 1301 1170 1302 1435
8 1172 1050 1173 1306 1303 1171 1304 1438
8 1174 1051 1175 1308 1305 1172 1306 1440
8 1175 1052 1176 1309 1306 1173 1307 1441
8 1177 1053 1178 1311 1308 1175 1309 1443
8 1178 1054 1179 1312 1309 1176 1310 1444
8 1180 1055 1181 1314 1311 1178 1312 1446
8 1056 1181 1312 1179 1182 1315 1447 1313
8 1183 1058 1184 1316 1314 1181 1315 1448
8 1319 1186 1084 1214 1451 1317 1213 1350
8 1319 1186 1318 1453 1208 1081 1187 1321
8 1321 1187 1320 1456 1188 1063 1189 1323
8 1344 1208 1321 1457 1209 1082 1188 1322
8 1322 1188 1323 1458 1190 1064 1191 1325
8 1323 1189 1324 1459 1191 1065 1192 1326
8 1191 1325 1193 1067 1326 1460 1327 1194
8 1242 1374 1243 1119 1328 1462 1335 1204
8 1330 1199 1333 1465 1196 1075 1200 1331
8 1132 1249 1330 1199 1243 1375 1465 1333
8 1332 1201 1077 1198 1466 1334 1200 1331
8 1215 1099 1201 1332 1352 1227 1334 1466
8 1119 1243 1333 1203 1204 1335 1470 1338
8 1333 1203 1338 1470 1200 1080 1202 1334
8 1227 1111 1202 1334 1360 1235 1338 1470
8 1328 1462 1335 1204 1205 1336 1471 1339
8 1337 1206 1340 1472 1464 1329 1205 1336
8 1346 1211 1342 1479 1210 1083 1207 1343
8 1346 1211 1115 1228 1479 1342 1239 1361
8 1348 1212 1084 1214 1479 1342 1207 1343
8 1480 1343 1208 1344 1345 1210 1082 1209
8 1351 1214 1319 1454 1480 1343 1208 1344
8 1481 1346 1210 1345 1359 1228 1100 1225
8 1348 1212 1347 1483 1214 1084 1213 1350
8 1216 1103 1227 1352 1353 1230 1360 1488
8 1217 1104 1230 1353 1354 1231 1363 1489
8 1490 1364 1232 1355 1354 1231 1106 1219
8 1220 1109 1232 1355 1356 1234 1365 1491
8 1221 1110 1234 1356 1357 1233 1366 1492
8 1224 1107 1233 1357 1358 1229 1362 1493
8 1226 1102 1229 1358 1359 1228 1362 1493
8 1230 1112 1235 1360 1363 1236 1367 1496
8 1361 1239 1115 1228 1497 1371 1240 1362
8 1366 1241 1372 1498 1233 1117 1240 1362
8 1364 1237 1113 1231 1499 1368 1236 1363
8 1364 1237 1368 1499 1232 1114 1238 1365
8 1234 1118 1238 1365 1366 1241 1369 1500
8 1507 1373 1242 1374 1388 1266 1138 1255
8 1508 1374 1243 1375 1380 1255 1132 1249
8 1376 1254 1387 1509 1245 1129 1258 1377
8 1275 1149 1276 1405 1376 1254 1387 1509
8 1377 1258 1391 1510 1248 1130 1259 1379
8 1511 1390 1257 1378 1379 1259 1131 1247
8 1383 1260 1134 1251 1511 1390 1257 1378
8 1252 1135 1256 1385 1380 1255 1388 1512
8 1261 1381 1513 1394 1133 1250 1382 1262
8 1135 1252 1384 1263 1261 1381 1513 1394
8 1382 1262 1134 1251 1514 1393 1260 1383
8 1253 1136 1263 1384 1386 1264 1395 1516
8 1253 1136 1264 1386 1385 1256 1389 1517
8 1387 1265 1397 1519 1258 1141 1269 1391
8 1276 1150 1277 1406 1387 1265 1397 1519
8 1256 1139 1267 1389 1388 1266 1398 1520
8 1264 1147 1274 1396 1389 1267 1399 1521
8 1392 1270 1143 1260 1522 1400 1268 1390
8 1390 1268 1142 1259 1522 1400 1269 1391
8 1392 1270 1401 1523 1260 1143 1271 1393
8 1272 1394 1524 1402 1145 1262 1393 1271
8 1395 1273 1146 1263 1524 1402 1272 1394
8 1273 1395 1264 1147 1403 1526 1396 1274
8 1405 1276 1160 1282 1534 1406 1286 1411
8 1414 1287 1407 1535 1286 1162 1277 1406
8 1279 1159 1283 1408 1409 1285 1412 1537
8 1418 1292 1412 1537 1290 1165 1283 1408
8 1280 1158 1285 1409 1410 1284 1413 1538
8 1410 1284 1413 1538 1282 1160 1286 1411
8 1285 1163 1289 1412 1413 1288 1417 1540
8 1421 1296 1417 1540 1292 1167 1289 1412
8 1414 1287 1162 1286 1541 1416 1288 1413
8 1420 1294 1421 1545 1291 1166 1292 1418
8 1419 1293 1172 1305 1546 1422 1303 1437
8 1420 1294 1166 1291 1547 1423 1293 1419
8 1294 1169 1297 1423 1421 1296 1425 1548
8 1423 1297 1168 1293 1549 1424 1295 1422
8 1301 1170 1298 1427 1422 1295 1424 1549
8 1432 1300 1428 1554 1301 1170 1298 1427
8 1431 1299 1428 1554 1560 1430 1300 1432
8 1563 1433 1300 1432 1435 1302 1170 1301
8 1546 1422 1303 1437 1434 1301 1435 1565
8 1303 1171 1304 1438 1435 1302 1436 1566
8 1305 1172 1306 1440 1437 1303 1438 1568
8 1306 1173 1307 1441 1438 1304 1439 1569
8 1308 1175 1309 1443 1440 1306 1441 1571
8 1309 1176 1310 1444 1441 1307 1442 1572
8 1311 1178 1312 1446 1443 1309 1444 1574
8 1179 1312 1444 1310 1313 1447 1575 1445
8 1314 1181 1315 1448 1446 1312 1447 1576
8 1350 1213 1349 1486 1451 1317 1449 1579
8 1451 1317 1450 1581 1319 1186 1318 1453
8 1454 1319 1214 1351 1582 1451 1350 1487
8 1453 1318 1452 1584 1321 1187 1320 1456
8 1454 1319 1453 1585 1344 1208 1321 1457
8 1456 1320 1455 1586 1323 1189 1324 1459
8 1457 1321 1456 1587 1322 1188 1323 1458
8 1458 1323 1459 1588 1325 1191 1326 1460
8 1205 1336 1464 1329 1328 1462 1590 1461
8 1507 1373 1461 1590 1374 1242 1328 1462
8 1508 1374 1462 1591 1375 1243 1335 1467
8 1337 1206 1329 1464 1473 1341 1463 1594
8 1375 1243 1335 1467 1465 1333 1470 1596
8 1465 1333 1470 1596 1331 1200 1334 1466
8 1352 1227 1334 1466 1488 1360 1470 1596
8 1591 1462 1336 1468 1467 1335 1471 1597
8 1469 1337 1472 1598 1595 1464 1336 1468
8 1471 1339 1474 1600 1335 1204 1338 1470
8 1600 1474 1367 1496 1470 1338 1235 1360
8 1336 1205 1340 1472 1471 1339 1475 1601
8 1337 1206 1341 1473 1472 1340 1476 1602
8 1495 1370 1478 1609 1361 1239 1342 1479
8 1348 1212 1342 1479 1483 1347 1478 1609
8 1481 1346 1479 1610 1345 1210 1343 1480
8 1481 1346 1228 1359 1610 1479 1361 1494
8 1484 1348 1214 1351 1610 1479 1343 1480
8 1483 1347 1482 1612 1350 1213 1349 1486
8 1484 1348 1483 1613 1351 1214 1350 1487
8 1353 1230 1360 1488 1489 1363 1496 1616
8 1490 1364 1231 1354 1617 1499 1363 1489
8 1490 1364 1499 1617 1355 1232 1365 1491
8 1356 1234 1365 1491 1492 1366 1500 1619
8 1492 1366 1498 1620 1357 1233 1362 1493
8 1494 1361 1228 1359 1621 1497 1362 1493
8 1495 1370 1239 1361 1622 1504 1371 1497
8 1363 1236 1367 1496 1499 1368 1501 1623
8 1497 1371 1240 1362 1624 1505 1372 1498
8 1625 1503 1372 1498 1500 1369 1241 1366
8 1365 1238 1368 1499 1500 1369 1502 1626
8 1520 1398 1506 1633 1388 1266 1373 1507
8 1634 1507 1374 1508 1512 1388 1255 1380
8 1509 1387 1519 1635 1377 1258 1391 1510
8 1405 1276 1406 1534 1509 1387 1519 1635
8 1515 1392 1260 1383 1636 1522 1390 1511
8 1511 1390 1259 1379 1636 1522 1391 1510
8 1385 1256 1389 1517 1512 1388 1520 1637
8 1513 1394 1262 1382 1638 1524 1393 1514
8 1395 1516 1638 1524 1263 1384 1513 1394
8 1515 1392 1523 1639 1383 1260 1393 1514
8 1516 1395 1526 1640 1386 1264 1396 1518
8 1386 1264 1396 1518 1517 1389 1521 1641
8 1519 1397 1527 1643 1391 1269 1400 1522
8 1535 1407 1527 1643 1406 1277 1397 1519
8 1389 1267 1399 1521 1520 1398 1528 1644
8 1645 1529 1399 1521 1525 1404 1274 1396
8 1392 1270 1400 1522 1523 1401 1531 1646
8 1524 1402 1271 1393 1648 1532 1401 1523
8 1403 1526 1648 1532 1273 1395 1524 1402
8 1525 1404 1274 1396 1649 1533 1403 1526
8 1539 1414 1535 1657 1411 1286 1406 1534
8 1542 1415 1536 1658 1414 1287 1407 1535
8 1409 1285 1412 1537 1538 1413 1540 1660
8 1545 1421 1540 1660 1418 1292 1412 1537
8 1539 1414 1286 1411 1661 1541 1413 1538
8 1540 1417 1544 1663 1413 1288 1416 1541
8 1421 1296 1425 1548 1540 1417 1544 1663
8 1542 1415 1287 1414 1664 1543 1416 1541
8 1420 1294 1423 1547 1545 1421 1548 1666
8 1547 1423 1293 1419 1667 1549 1422 1546
8 1434 1301 1427 1553 1546 1422 1549 1667
8 1423 1297 1424 1549 1548 1425 1550 1668
8 1551 1426 1550 1668 1427 1298 1424 1549
8 1551 1426 1298 1427 1671 1552 1428 1554
8 1562 1432 1554 1674 1434 1301 1427 1553
8 1431 1299 1429 1558 1554 1428 1555 1675
8 1431 1299 1430 1560 1558 1429 1557 1680
8 1560 1430 1300 1432 1683 1559 1433 1563
8 1561 1431 1554 1674 1684 1560 1432 1562
8 1685 1563 1432 1562 1565 1435 1301 1434
8 1435 1302 1436 1566 1563 1433 1564 1686
8 1437 1303 1438 1568 1565 1435 1566 1688
8 1438 1304 1439 1569 1566 1436 1567 1689
8 1440 1306 1441 1571 1568 1438 1569 1691
8 1441 1307 1442 1572 1569 1439 1570 1692
8 1443 1309 1444 1574 1571 1441 1572 1694
8 1310 1444 1572 1442 1445 1575 1695 1573
8 1446 1312 1447 1576 1574 1444 1575 1696
8 1486 1349 1485 1614 1579 1449 1577 1699
8 1451 1317 1449 1579 1581 1450 1578 1701
8 1487 1350 1486 1615 1582 1451 1579 1702
8 1581 1450 1580 1704 1453 1318 1452 1584
8 1582 1451 1581 1705 1454 1319 1453 1585
8 1584 1452 1583 1706 1456 1320 1455 1586
8 1585 1453 1584 1707 1457 1321 1456 1587
8 1587 1456 1586 1708 1458 1323 1459 1588
8 1633 1506 1589 1710 1507 1373 1461 1590
8 1464 1329 1461 1590 1594 1463 1589 1710
8 1468 1336 1462 1591 1595 1464 1590 1711
8 1634 1507 1590 1711 1508 1374 1462 1591
8 1473 1341 1463 1594 1603 1477 1593 1716
8 1469 1337 1464 1595 1599 1473 1594 1717
8 1471 1597 1467 1335 1600 1718 1596 1470
8 1718 1600 1496 1616 1596 1470 1360 1488
8 1336 1468 1597 1471 1472 1598 1719 1601
8 1469 1337 1473 1599 1598 1472 1602 1720
8 1722 1604 1501 1623 1600 1474 1367 1496
8 1475 1601 1471 1339 1604 1722 1600 1474
8 1602 1476 1605 1723 1472 1340 1475 1601
8 1476 1602 1724 1606 1341 1473 1603 1477
8 1483 1347 1478 1609 1612 1482 1608 1731
8 1495 1370 1504 1622 1609 1478 1608 1731
8 1618 1495 1609 1732 1494 1361 1479 1610
8 1484 1348 1479 1610 1613 1483 1609 1732
8 1486 1349 1482 1612 1614 1485 1611 1733
8 1613 1483 1612 1734 1487 1350 1486 1615
8 1489 1363 1496 1616 1617 1499 1623 1736
8 1491 1365 1499 1617 1619 1500 1626 1737
8 1618 1495 1361 1494 1738 1622 1497 1621
8 1739 1625 1498 1620 1619 1500 1366 1492
8 1621 1497 1362 1493 1740 1624 1498 1620
8 1742 1631 1504 1622 1624 1505 1371 1497
8 1743 1628 1502 1626 1623 1501 1368 1499
8 1744 1630 1505 1624 1625 1503 1372 1498
8 1745 1629 1503 1625 1626 1502 1369 1500
8 1520 1398 1528 1644 1633 1506 1632 1751
8 1637 1520 1633 1752 1512 1388 1507 1634
8 1635 1519 1643 1753 1510 1391 1522 1636
8 1657 1535 1643 1753 1534 1406 1519 1635
8 1515 1392 1522 1636 1639 1523 1646 1754
8 1517 1389 1521 1641 1637 1520 1644 1755
8 1524 1638 1756 1648 1393 1514 1639 1523
8 1640 1526 1395 1516 1756 1648 1524 1638
8 1642 1525 1396 1518 1757 1649 1526 1640
8 1758 1645 1521 1641 1642 1525 1396 1518
8 1646 1531 1400 1522 1760 1650 1527 1643
8 1535 1407 1536 1658 1643 1527 1650 1760
8 1521 1399 1529 1645 1644 1528 1651 1761
8 1647 1530 1652 1762 1525 1404 1529 1645
8 1401 1523 1648 1532 1531 1646 1763 1655
8 1525 1404 1533 1649 1647 1530 1654 1765
8 1533 1649 1766 1656 1403 1526 1648 1532
8 1662 1542 1658 1774 1539 1414 1535 1657
8 1542 1415 1543 1664 1658 1536 1659 1775
8 1660 1540 1663 1777 1538 1413 1541 1661
8 1545 1421 1548 1666 1660 1540 1663 1777
8 1662 1542 1414 1539 1778 1664 1541 1661
8 1664 1543 1416 1541 1779 1665 1544 1663
8 1548 1425 1550 1668 1663 1544 1665 1779
8 1547 1423 1549 1667 1666 1548 1668 1781
8 1670 1551 1668 1781 1553 1427 1549 1667
8 1551 1426 1552 1671 1668 1550 1669 1782
8 1670 1551 1427 1553 1784 1671 1554 1674
8 1675 1555 1672 1785 1554 1428 1552 1671
8 1678 1556 1673 1789 1558 1429 1555 1675
8 1561 1431 1558 1681 1674 1554 1675 1790
8 1794 1677 1556 1678 1680 1557 1429 1558
8 1560 1430 1559 1683 1680 1557 1679 1797
8 1561 1431 1560 1684 1681 1558 1680 1798
8 1563 1433 1564 1686 1683 1559 1682 1800
8 1684 1560 1432 1562 1801 1683 1563 1685
8 1565 1435 1566 1688 1685 1563 1686 1802
8 1566 1436 1567 1689 1686 1564 1687 1803
8 1568 1438 1569 1691 1688 1566 1689 1805
8 1569 1439 1570 1692 1689 1567 1690 1806
8 1571 1441 1572 1694 1691 1569 1692 1808
8 1442 1572 1692 1570 1573 1695 1809 1693
8 1574 1444 1575 1696 1694 1572 1695 1810
8 1614 1485 1592 1712 1699 1577 1697 1813
8 1579 1449 1577 1699 1701 1578 1698 1815
8 1615 1486 1614 1735 1702 1579 1699 1816
8 1701 1578 1700 1818 1581 1450 1580 1704
8 1582 1451 1579 1702 1705 1581 1701 1819
8 1704 1580 1703 1820 1584 1452 1583 1706
8 1705 1581 1704 1821 1585 1453 1584 1707
8 1707 1584 1706 1822 1587 1456 1586 1708
8 1710 1589 1506 1633 1824 1709 1632 1751
8 1594 1463 1589 1710 1716 1593 1709 1824
8 1752 1633 1710 1825 1634 1507 1590 1711
8 1595 1464 1590 1711 1717 1594 1710 1825
8 1830 1714 1592 1712 1733 1611 1485 1614
8 1603 1477 1593 1716 1725 1607 1715 1834
8 1599 1473 1594 1717 1721 1603 1716 1835
8 1837 1722 1623 1736 1718 1600 1496 1616
8 1719 1601 1722 1837 1597 1471 1600 1718
8 1602 1720 1598 1472 1723 1838 1719 1601
8 1720 1602 1473 1599 1839 1724 1603 1721
8 1723 1605 1726 1840 1601 1475 1604 1722
8 1840 1726 1628 1743 1722 1604 1501 1623
8 1724 1606 1727 1841 1602 1476 1605 1723
8 1725 1607 1728 1842 1603 1477 1606 1724
8 1612 1482 1608 1731 1733 1611 1730 1849
8 1741 1627 1730 1849 1622 1504 1608 1731
8 1613 1483 1609 1732 1734 1612 1731 1850
8 1618 1495 1622 1738 1732 1609 1731 1850
8 1615 1486 1612 1734 1735 1614 1733 1851
8 1852 1743 1626 1737 1736 1623 1499 1617
8 1853 1745 1625 1739 1737 1626 1500 1619
8 1855 1742 1622 1738 1740 1624 1497 1621
8 1856 1744 1624 1740 1739 1625 1498 1620
8 1741 1627 1504 1622 1857 1746 1631 1742
8 1742 1631 1505 1624 1858 1749 1630 1744
8 1859 1747 1629 1745 1743 1628 1502 1626
8 1860 1748 1630 1744 1745 1629 1503 1625
8 1644 1528 1651 1761 1751 1632 1750 1865
8 1637 1520 1644 1755 1752 1633 1751 1866
8 1754 1646 1522 1636 1867 1760 1643 1753
8 1657 1535 1658 1774 1753 1643 1760 1867
8 1639 1523 1646 1754 1756 1648 1763 1868
8 1641 1521 1645 1758 1755 1644 1761 1869
8 1757 1649 1526 1640 1870 1766 1648 1756
8 1642 1525 1649 1757 1759 1647 1765 1871
8 1759 1647 1762 1872 1642 1525 1645 1758
8 1760 1650 1767 1874 1646 1531 1655 1763
8 1658 1536 1659 1775 1760 1650 1767 1874
8 1762 1652 1768 1875 1645 1529 1651 1761
8 1764 1653 1769 1876 1647 1530 1652 1762
8 1656 1766 1877 1773 1532 1648 1763 1655
8 1771 1879 1765 1654 1653 1764 1647 1530
8 1533 1649 1765 1654 1656 1766 1880 1772
8 1662 1542 1664 1778 1774 1658 1775 1887
8 1664 1543 1665 1779 1775 1659 1776 1888
8 1778 1664 1541 1661 1890 1779 1663 1777
8 1666 1548 1668 1781 1777 1663 1779 1890
8 1782 1669 1780 1891 1668 1550 1665 1779
8 1670 1551 1671 1784 1781 1668 1782 1893
8 1671 1552 1672 1785 1782 1669 1783 1894
8 1790 1675 1785 1896 1674 1554 1671 1784
8 1675 1555 1673 1789 1785 1672 1786 1897
8 1792 1676 1788 1903 1678 1556 1673 1789
8 1795 1678 1789 1904 1681 1558 1675 1790
8 1792 1676 1556 1678 1906 1791 1677 1794
8 1680 1557 1679 1797 1794 1677 1793 1909
8 1910 1794 1678 1795 1798 1680 1558 1681
8 1683 1559 1682 1800 1797 1679 1796 1912
8 1684 1560 1683 1801 1798 1680 1797 1913
8 1686 1564 1687 1803 1800 1682 1799 1915
8 1685 1563 1686 1802 1801 1683 1800 1916
8 1688 1566 1689 1805 1802 1686 1803 1917
8 1689 1567 1690 1806 1803 1687 1804 1918
8 1691 1569 1692 1808 1805 1689 1806 1920
8 1692 1570 1693 1809 1806 1690 1807 1921
8 1694 1572 1695 1810 1808 1692 1809 1922
8 1829 1713 1811 1926 1712 1592 1697 1813
8 1813 1697 1812 1928 1699 1577 1698 1815
8 1735 1614 1712 1828 1816 1699 1813 1929
8 1815 1698 1814 1931 1701 1578 1700 1818
8 1702 1579 1699 1816 1819 1701 1815 1932
8 1818 1700 1817 1933 1704 1580 1703 1820
8 1819 1701 1818 1934 1705 1581 1704 1821
8 1821 1704 1820 1935 1707 1584 1706 1822
8 1824 1709 1632 1751 1937 1823 1750 1865
8 1716 1593 1709 1824 1834 1715 1823 1937
8 1825 1710 1633 1752 1938 1824 1751 1866
8 1717 1594 1710 1825 1835 1716 1824 1938
8 1945 1830 1712 1828 1851 1733 1614 1735
8 1830 1714 1831 1946 1712 1592 1713 1829
8 1947 1832 1714 1830 1849 1730 1611 1733
8 1843 1729 1607 1725 1950 1833 1715 1834
8 1721 1603 1716 1835 1836 1725 1834 1951
8 1836 1725 1842 1953 1721 1603 1724 1839
8 1723 1838 1719 1601 1840 1954 1837 1722
8 1954 1840 1743 1852 1837 1722 1623 1736
8 1724 1839 1720 1602 1841 1955 1838 1723
8 1841 1727 1844 1956 1723 1605 1726 1840
8 1956 1844 1747 1859 1840 1726 1628 1743
8 1728 1842 1724 1606 1845 1957 1841 1727
8 1725 1607 1729 1843 1842 1728 1846 1958
8 1741 1627 1746 1857 1849 1730 1848 1965
8 1734 1612 1731 1850 1851 1733 1849 1966
8 1854 1741 1849 1966 1738 1622 1731 1850
8 1967 1859 1745 1853 1852 1743 1626 1737
8 1968 1860 1744 1856 1853 1745 1625 1739
8 1854 1741 1622 1738 1969 1857 1742 1855
8 1855 1742 1624 1740 1970 1858 1744 1856
8 1857 1746 1631 1742 1971 1861 1749 1858
8 1858 1749 1630 1744 1972 1863 1748 1860
8 1859 1747 1862 1973 1745 1629 1748 1860
8 1875 1768 1864 1977 1761 1651 1750 1865
8 1755 1644 1761 1869 1866 1751 1865 1978
8 1867 1760 1874 1979 1754 1646 1763 1868
8 1774 1658 1775 1887 1867 1760 1874 1979
8 1870 1766 1648 1756 1980 1877 1763 1868
8 1872 1762 1875 1981 1758 1645 1761 1869
8 1757 1649 1766 1870 1871 1765 1880 1982
8 1983 1879 1764 1873 1871 1765 1647 1759
8 1873 1764 1876 1984 1759 1647 1762 1872
8 1877 1773 1655 1763 1986 1881 1767 1874
8 1775 1659 1776 1888 1874 1767 1881 1986
8 1876 1769 1882 1987 1762 1652 1768 1875
8 1878 1770 1883 1988 1764 1653 1769 1876
8 1880 1772 1656 1766 1989 1886 1773 1877
8 1878 1770 1653 1764 1990 1884 1771 1879
8 1765 1654 1772 1880 1879 1771 1885 1991
8 1778 1664 1779 1890 1887 1775 1888 1997
8 1998 1889 1776 1888 1891 1780 1665 1779
8 1893 1782 1891 2000 1781 1668 1779 1890
8 1894 1783 1892 2001 1782 1669 1780 1891
8 1784 1671 1785 1896 1893 1782 1894 2003
8 1897 1786 1895 2004 1785 1672 1783 1894
8 1790 1675 1789 1904 1896 1785 1897 2006
8 1901 1787 1898 2007 1789 1673 1786 1897
8 1903 1788 1900 2013 1789 1673 1787 1901
8 1792 1676 1791 1906 1903 1788 1902 2016
8 1907 1792 1903 2017 1795 1678 1789 1904
8 1906 1791 1677 1794 2019 1905 1793 1909
8 1907 1792 1678 1795 2020 1906 1794 1910
8 1797 1679 1796 1912 1909 1793 1908 2022
8 1798 1680 1797 1913 1910 1794 1909 2023
8 1800 1682 1799 1915 1912 1796 1911 2025
8 1801 1683 1800 1916 1913 1797 1912 2026
8 1803 1687 1804 1918 1915 1799 1914 2028
8 1802 1686 1803 1917 1916 1800 1915 2029
8 1805 1689 1806 1920 1917 1803 1918 2030
8 1806 1690 1807 1921 1918 1804 1919 2031
8 1808 1692 1809 1922 1920 1806 1921 2032
8 1939 1826 1924 2037 1829 1713 1811 1926
8 1926 1811 1925 2039 1813 1697 1812 1928
8 1944 1829 1926 2040 1828 1712 1813 1929
8 1928 1812 1927 2042 1815 1698 1814 1931
8 1929 1813 1928 2043 1816 1699 1815 1932
8 1931 1814 1930 2044 1818 1700 1817 1933
8 1932 1815 1931 2045 1819 1701 1818 1934
8 1934 1818 1933 2046 1821 1704 1820 1935
8 2048 1936 1823 1937 1977 1864 1750 1865
8 1950 1833 1715 1834 2048 1936 1823 1937
8 1938 1824 1751 1866 2049 1937 1865 1978
8 1835 1716 1824 1938 1951 1834 1937 2049
8 1939 1826 1713 1829 2053 1942 1831 1946
8 1940 1827 1923 2035 2053 1942 1826 1939
8 1945 1830 1946 2058 1828 1712 1829 1944
8 2059 1947 1830 1945 1966 1849 1733 1851
8 1947 1832 1730 1849 2060 1948 1848 1965
8 1947 1832 1948 2060 1830 1714 1831 1946
8 1959 1847 1729 1843 2063 1949 1833 1950
8 1952 1843 1725 1836 2064 1950 1834 1951
8 1836 1725 1843 1952 1953 1842 1958 2066
8 1953 1842 1957 2067 1839 1724 1841 1955
8 1841 1955 1838 1723 1956 2068 1954 1840
8 2068 1956 1859 1967 1954 1840 1743 1852
8 1956 1844 1960 2069 1859 1747 1862 1973
8 1845 1957 1841 1727 1960 2069 1956 1844
8 1728 1842 1957 1845 1846 1958 2071 1961
8 1962 2072 1959 1847 1846 1958 1843 1729
8 1971 1861 1964 2077 1857 1746 1848 1965
8 1854 1741 1857 1969 1966 1849 1965 2078
8 1967 1859 1973 2079 1853 1745 1860 1968
8 1970 1858 1744 1856 2080 1972 1860 1968
8 1969 1857 1742 1855 2081 1971 1858 1970
8 1971 1861 1749 1858 2082 1974 1863 1972
8 1973 1862 1975 2083 1860 1748 1863 1972
8 1987 1882 1976 2086 1875 1768 1864 1977
8 1981 1875 1977 2087 1869 1761 1865 1978
8 1980 1877 1763 1868 2088 1986 1874 1979
8 1887 1775 1888 1997 1979 1874 1986 2088
8 1880 1982 2089 1989 1766 1870 1980 1877
8 1984 1876 1987 2090 1872 1762 1875 1981
8 1765 1871 1983 1879 1880 1982 2091 1991
8 1985 1878 1764 1873 2092 1990 1879 1983
8 1985 1878 1988 2093 1873 1764 1876 1984
8 2094 1992 1881 1986 1998 1889 1776 1888
8 1986 1881 1992 2094 1877 1773 1886 1989
8 1988 1883 1993 2095 1876 1769 1882 1987
8 1878 1770 1884 1990 1988 1883 1994 2096
8 1991 1885 1772 1880 2097 1996 1886 1989
8 1879 1771 1885 1991 1990 1884 1995 2098
8 2103 1998 1888 1997 2000 1891 1779 1890
8 2104 1999 1889 1998 2001 1892 1780 1891
8 2003 1894 2001 2106 1893 1782 1891 2000
8 2004 1895 2002 2107 1894 1783 1892 2001
8 2006 1897 2004 2109 1896 1785 1894 2003
8 2007 1898 2005 2110 1897 1786 1895 2004
8 2014 1901 2007 2112 1904 1789 1897 2006
8 2011 1899 2008 2113 1901 1787 1898 2007
8 2119 2010 1899 2011 2013 1900 1787 1901
8 2016 1902 2012 2122 1903 1788 1900 2013
8 2017 1903 2013 2123 1904 1789 1901 2014
8 1906 1791 1905 2019 2016 1902 2015 2125
8 1907 1792 1906 2020 2017 1903 2016 2126
8 1909 1793 1908 2022 2019 1905 2018 2128
8 2020 1906 1794 1910 2129 2019 1909 2023
8 1912 1796 1911 2025 2022 1908 2021 2131
8 1913 1797 1912 2026 2023 1909 2022 2132
8 1915 1799 1914 2028 2025 1911 2024 2134
8 1916 1800 1915 2029 2026 1912 2025 2135
8 1918 1804 1919 2031 2028 1914 2027 2136
8 1917 1803 1918 2030 2029 1915 2028 2137
8 1920 1806 1921 2032 2030 1918 2031 2138
8 1940 1827 1941 2054 2035 1923 2033 2140
8 2035 1923 2034 2143 1939 1826 1924 2037
8 2037 1924 2036 2146 1926 1811 1925 2039
8 2051 1939 2037 2147 1944 1829 1926 2040
8 2039 1925 2038 2149 1928 1812 1927 2042
8 2040 1926 2039 2150 1929 1813 1928 2043
8 2042 1927 2041 2151 1931 1814 1930 2044
8 2043 1928 2042 2152 1932 1815 1931 2045
8 2045 1931 2044 2153 1934 1818 1933 2046
8 2155 2047 1936 2048 2086 1976 1864 1977
8 2063 1949 1833 1950 2155 2047 1936 2048
8 2156 2048 1937 2049 2087 1977 1865 1978
8 2064 1950 1834 1951 2156 2048 1937 2049
8 2051 1939 1829 1944 2160 2053 1946 2058
8 2052 1940 2035 2144 2160 2053 1939 2051
8 2053 1942 1831 1946 2163 2057 1948 2060
8 2055 1943 1827 1940 2163 2057 1942 2053
8 2055 1943 2056 2164 1940 1827 1941 2054
8 2059 1947 1849 1966 2167 2060 1965 2078
8 2059 1947 2060 2167 1945 1830 1946 2058
8 2077 1964 2061 2168 1965 1848 1948 2060
8 2070 1963 1847 1959 2170 2062 1949 2063
8 2065 1959 1843 1952 2171 2063 1950 2064
8 2173 2072 1958 2066 2065 1959 1843 1952
8 1953 1842 1958 2066 2067 1957 2071 2174
8 2068 1956 2069 2175 1967 1859 1973 2079
8 2067 1957 2069 2175 1955 1841 1956 2068
8 1845 1957 2069 1960 1961 2071 2176 2073
8 2069 1960 2073 2176 1973 1862 1975 2083
8 2070 1963 2075 2177 1959 1847 1962 2072
8 1846 1958 2071 1961 1962 2072 2178 2074
8 2077 1964 1861 1971 2182 2076 1974 2082
8 2081 1971 2077 2183 1969 1857 1965 2078
8 2079 1973 2083 2184 1968 1860 1972 2080
8 2081 1971 1858 1970 2185 2082 1972 2080
8 2083 1975 2084 2186 1972 1863 1974 2082
8 2086 1976 1882 1987 2189 2085 1993 2095
8 2090 1987 2086 2190 1981 1875 1977 2087
8 2191 2094 1986 2088 2103 1998 1888 1997
8 2088 1986 2094 2191 1980 1877 1989 2089
8 1991 2091 2192 2097 1880 1982 2089 1989
8 2093 1988 2095 2193 1984 1876 1987 2090
8 1879 1983 2092 1990 1991 2091 2194 2098
8 1985 1878 1990 2092 2093 1988 2096 2195
8 2097 1996 1886 1989 2196 2099 1992 2094
8 2196 2099 1992 2094 2104 1999 1889 1998
8 1994 2096 1988 1883 2100 2197 2095 1993
8 2096 1994 1884 1990 2198 2101 1995 2098
8 1995 2098 2199 2102 1885 1991 2097 1996
8 2203 2104 1998 2103 2106 2001 1891 2000
8 2107 2002 2105 2204 2001 1892 1999 2104
8 2109 2004 2107 2206 2003 1894 2001 2106
8 2110 2005 2108 2207 2004 1895 2002 2107
8 2112 2007 2110 2209 2006 1897 2004 2109
8 2113 2008 2111 2210 2007 1898 2005 2110
8 2120 2011 2113 2212 2014 1901 2007 2112
8 2117 2009 2114 2213 2011 1899 2008 2113
8 2219 2116 2009 2117 2119 2010 1899 2011
8 2222 2118 2010 2119 2122 2012 1900 2013
8 2223 2119 2011 2120 2123 2013 1901 2014
8 2016 1902 2015 2125 2122 2012 2121 2225
8 2126 2016 2122 2226 2017 1903 2013 2123
8 2019 1905 2018 2128 2125 2015 2124 2228
8 2020 1906 2019 2129 2126 2016 2125 2229
8 2022 1908 2021 2131 2128 2018 2127 2231
8 2023 1909 2022 2132 2129 2019 2128 2232
8 2025 1911 2024 2134 2131 2021 2130 2234
8 2026 1912 2025 2135 2132 2022 2131 2235
8 1914 2028 2134 2024 2027 2136 2236 2133
8 2029 1915 2028 2137 2135 2025 2134 2237
8 2030 1918 2031 2138 2137 2028 2136 2238
8 2157 2050 2139 2240 2054 1941 2033 2140
8 2052 1940 2054 2161 2144 2035 2140 2242
8 2140 2033 2141 2243 2035 1923 2034 2143
8 2143 2034 2142 2246 2037 1924 2036 2146
8 2144 2035 2143 2247 2051 1939 2037 2147
8 2146 2036 2145 2249 2039 1925 2038 2149
8 2147 2037 2146 2250 2040 1926 2039 2150
8 2149 2038 2148 2251 2042 1927 2041 2151
8 2150 2039 2149 2252 2043 1928 2042 2152
8 2152 2042 2151 2253 2045 1931 2044 2153
8 2255 2154 2047 2155 2189 2085 1976 2086
8 2170 2062 1949 2063 2255 2154 2047 2155
8 2256 2155 2048 2156 2190 2086 1977 2087
8 2171 2063 1950 2064 2256 2155 2048 2156
8 2258 2159 2050 2157 2164 2056 1941 2054
8 2160 2053 1946 2058 2262 2163 2060 2167
8 2162 2055 1940 2052 2262 2163 2053 2160
8 2162 2055 2164 2263 2052 1940 2054 2161
8 2163 2057 1948 2060 2264 2165 2061 2168
8 2055 1943 2057 2163 2164 2056 2165 2264
8 2182 2076 2166 2268 2077 1964 2061 2168
8 2183 2077 2168 2269 2078 1965 2060 2167
8 2070 1963 2062 2170 2177 2075 2169 2271
8 2172 2070 1959 2065 2272 2170 2063 2171
8 2172 2070 2177 2273 2065 1959 2072 2173
8 2066 1958 2072 2173 2174 2071 2178 2274
8 2067 1957 2071 2174 2175 2069 2176 2275
8 2175 2069 2176 2275 2079 1973 2083 2184
8 2071 1961 2074 2178 2176 2073 2179 2276
8 2176 2073 2179 2276 2083 1975 2084 2186
8 2072 1962 2075 2177 2178 2074 2180 2277
8 2182 2076 1974 2082 2280 2181 2084 2186
8 2183 2077 1971 2081 2281 2182 2082 2185
8 2184 2083 2186 2282 2080 1972 2082 2185
8 2189 2085 1993 2095 2285 2188 2100 2197
8 2190 2086 1987 2090 2286 2189 2095 2193
8 2192 2097 1989 2089 2287 2196 2094 2191
8 2287 2196 2094 2191 2203 2104 1998 2103
8 2194 2098 1991 2091 2288 2199 2097 2192
8 2195 2096 2197 2289 2093 1988 2095 2193
8 2096 2195 2290 2198 1990 2092 2194 2098
8 2097 1996 2099 2196 2199 2102 2200 2291
8 2196 2099 1999 2104 2291 2200 2105 2204
8 2100 2197 2292 2201 1994 2096 2198 2101
8 1995 2098 2198 2101 2102 2199 2293 2202
8 2206 2107 2204 2296 2106 2001 2104 2203
8 2207 2108 2205 2297 2107 2002 2105 2204
8 2209 2110 2207 2299 2109 2004 2107 2206
8 2210 2111 2208 2300 2110 2005 2108 2207
8 2212 2113 2210 2302 2112 2007 2110 2209
8 2213 2114 2211 2303 2113 2008 2111 2210
8 2220 2117 2213 2305 2120 2011 2113 2212
8 2216 2115 2214 2306 2117 2009 2114 2213
8 2216 2115 2009 2117 2311 2217 2116 2219
8 2219 2116 2010 2119 2314 2218 2118 2222
8 2315 2219 2117 2220 2223 2119 2011 2120
8 2122 2012 2121 2225 2222 2118 2221 2317
8 2318 2222 2119 2223 2226 2122 2013 2123
8 2125 2015 2124 2228 2225 2121 2224 2320
8 2126 2016 2125 2229 2226 2122 2225 2321
8 2128 2018 2127 2231 2228 2124 2227 2323
8 2129 2019 2128 2232 2229 2125 2228 2324
8 2131 2021 2130 2234 2231 2127 2230 2326
8 2132 2022 2131 2235 2232 2128 2231 2327
8 2134 2024 2133 2236 2234 2130 2233 2328
8 2135 2025 2134 2237 2235 2131 2234 2329
8 2137 2028 2136 2238 2237 2134 2236 2330
8 2157 2050 2158 2259 2240 2139 2239 2332
8 2257 2157 2240 2334 2161 2054 2140 2242
8 2240 2139 2241 2335 2140 2033 2141 2243
8 2242 2140 2243 2337 2144 2035 2143 2247
8 2243 2141 2244 2338 2143 2034 2142 2246
8 2246 2142 2245 2341 2146 2036 2145 2249
8 2247 2143 2246 2342 2147 2037 2146 2250
8 2249 2145 2248 2343 2149 2038 2148 2251
8 2250 2146 2249 2344 2150 2039 2149 2252
8 2252 2149 2251 2345 2152 2042 2151 2253
8 2169 2271 2347 2254 2062 2170 2255 2154
8 2189 2085 2188 2285 2255 2154 2254 2347
8 2348 2255 2155 2256 2286 2189 2086 2190
8 2272 2170 2063 2171 2348 2255 2155 2256
8 2349 2258 2157 2257 2263 2164 2054 2161
8 2258 2159 2261 2351 2157 2050 2158 2259
8 2258 2159 2056 2164 2351 2261 2165 2264
8 2262 2163 2060 2167 2355 2264 2168 2269
8 2162 2055 2163 2262 2263 2164 2264 2355
8 2357 2266 2165 2264 2268 2166 2061 2168
8 2268 2166 2076 2182 2361 2267 2181 2280
8 2281 2182 2268 2362 2183 2077 2168 2269
8 2271 2169 2270 2364 2177 2075 2180 2277
8 2172 2070 2170 2272 2273 2177 2271 2365
8 2072 2173 2274 2178 2177 2273 2366 2277
8 2071 2174 2275 2176 2178 2274 2367 2276
8 2275 2176 2276 2367 2184 2083 2186 2282
8 2283 2187 2084 2186 2368 2278 2179 2276
8 2178 2074 2180 2277 2276 2179 2278 2368
8 2283 2187 2279 2370 2186 2084 2181 2280
8 2281 2182 2082 2185 2371 2280 2186 2282
8 2188 2285 2374 2284 2100 2197 2292 2201
8 2286 2189 2095 2193 2375 2285 2197 2289
8 2192 2097 2196 2287 2288 2199 2291 2376
8 2287 2196 2104 2203 2376 2291 2204 2296
8 2194 2098 2199 2288 2290 2198 2293 2377
8 2289 2197 2096 2195 2378 2292 2198 2290
8 2291 2200 2105 2204 2379 2294 2205 2297
8 2199 2102 2200 2291 2293 2202 2294 2379
8 2198 2101 2202 2293 2292 2201 2295 2380
8 2299 2207 2297 2383 2206 2107 2204 2296
8 2300 2208 2298 2384 2207 2108 2205 2297
8 2302 2210 2300 2386 2209 2110 2207 2299
8 2303 2211 2301 2387 2210 2111 2208 2300
8 2305 2213 2303 2389 2212 2113 2210 2302
8 2306 2214 2304 2390 2213 2114 2211 2303
8 2310 2216 2306 2392 2220 2117 2213 2305
8 2308 2215 2307 2393 2216 2115 2214 2306
8 2308 2215 2115 2216 2396 2309 2217 2311
8 2310 2216 2117 2220 2398 2311 2219 2315
8 2311 2217 2116 2219 2399 2312 2218 2314
8 2314 2218 2118 2222 2402 2313 2221 2317
8 2315 2219 2119 2223 2403 2314 2222 2318
8 2225 2121 2224 2320 2317 2221 2316 2405
8 2226 2122 2225 2321 2318 2222 2317 2406
8 2228 2124 2227 2323 2320 2224 2319 2408
8 2229 2125 2228 2324 2321 2225 2320 2409
8 2231 2127 2230 2326 2323 2227 2322 2411
8 2232 2128 2231 2327 2324 2228 2323 2412
8 2234 2130 2233 2328 2326 2230 2325 2413
8 2235 2131 2234 2329 2327 2231 2326 2414
8 2237 2134 2236 2330 2329 2234 2328 2415
8 2259 2158 2260 2352 2332 2239 2331 2417
8 2257 2157 2259 2350 2334 2240 2332 2419
8 2240 2139 2239 2332 2335 2241 2333 2420
8 2334 2240 2335 2422 2242 2140 2243 2337
8 2335 2241 2336 2423 2243 2141 2244 2338
8 2337 2243 2338 2425 2247 2143 2246 2342
8 2338 2244 2339 2426 2246 2142 2245 2341
8 2341 2245 2340 2428 2249 2145 2248 2343
8 2342 2246 2341 2429 2250 2146 2249 2344
8 2344 2249 2343 2430 2252 2149 2251 2345
8 2188 2285 2347 2254 2284 2374 2432 2346
8 2347 2254 2346 2432 2271 2169 2270 2364
8 2365 2271 2170 2272 2433 2347 2255 2348
8 2286 2189 2285 2375 2348 2255 2347 2433
8 2349 2258 2351 2435 2257 2157 2259 2350
8 2349 2258 2164 2263 2435 2351 2264 2355
8 2259 2158 2261 2351 2352 2260 2354 2437
8 2356 2265 2354 2437 2264 2165 2261 2351
8 2441 2357 2264 2355 2362 2268 2168 2269
8 2356 2265 2165 2264 2442 2358 2266 2357
8 2443 2359 2266 2357 2361 2267 2166 2268
8 2370 2279 2360 2446 2280 2181 2267 2361
8 2362 2268 2182 2281 2447 2361 2280 2371
8 2180 2277 2368 2278 2270 2364 2449 2363
8 2271 2365 2273 2177 2364 2450 2366 2277
8 2372 2283 2186 2282 2451 2368 2276 2367
8 2178 2274 2367 2276 2277 2366 2451 2368
8 2283 2187 2278 2368 2370 2279 2369 2452
8 2372 2283 2370 2453 2282 2186 2280 2371
8 2284 2374 2455 2373 2201 2292 2380 2295
8 2375 2285 2197 2289 2456 2374 2292 2378
8 2376 2291 2204 2296 2457 2379 2297 2383
8 2288 2199 2291 2376 2377 2293 2379 2457
8 2198 2290 2378 2292 2293 2377 2458 2380
8 2293 2202 2294 2379 2380 2295 2381 2459
8 2384 2298 2381 2459 2297 2205 2294 2379
8 2386 2300 2384 2463 2299 2207 2297 2383
8 2387 2301 2385 2464 2300 2208 2298 2384
8 2389 2303 2387 2466 2302 2210 2300 2386
8 2390 2304 2388 2467 2303 2211 2301 2387
8 2392 2306 2390 2469 2305 2213 2303 2389
8 2393 2307 2391 2470 2306 2214 2304 2390
8 2395 2308 2393 2472 2310 2216 2306 2392
8 2308 2215 2309 2396 2393 2307 2394 2473
8 2395 2308 2216 2310 2475 2396 2311 2398
8 2396 2309 2217 2311 2476 2397 2312 2399
8 2398 2311 2219 2315 2478 2399 2314 2403
8 2399 2312 2218 2314 2479 2400 2313 2402
8 2317 2221 2316 2405 2402 2313 2401 2482
8 2403 2314 2222 2318 2483 2402 2317 2406
8 2320 2224 2319 2408 2405 2316 2404 2485
8 2321 2225 2320 2409 2406 2317 2405 2486
8 2323 2227 2322 2411 2408 2319 2407 2488
8 2324 2228 2323 2412 2409 2320 2408 2489
8 2326 2230 2325 2413 2411 2322 2410 2490
8 2327 2231 2326 2414 2412 2323 2411 2491
8 2329 2234 2328 2415 2414 2326 2413 2492
8 2417 2331 2260 2352 2494 2416 2353 2438
8 2350 2259 2352 2436 2419 2332 2417 2496
8 2332 2239 2331 2417 2420 2333 2418 2497
8 2334 2240 2332 2419 2422 2335 2420 2499
8 2420 2333 2421 2500 2335 2241 2336 2423
8 2422 2335 2423 2502 2337 2243 2338 2425
8 2423 2336 2424 2503 2338 2244 2339 2426
8 2425 2338 2426 2505 2342 2246 2341 2429
8 2426 2339 2427 2506 2341 2245 2340 2428
8 2429 2341 2428 2507 2344 2249 2343 2430
8 2432 2346 2284 2374 2509 2431 2373 2455
8 2432 2346 2431 2509 2364 2270 2363 2449
8 2375 2285 2374 2456 2433 2347 2432 2510
8 2347 2433 2365 2271 2432 2510 2450 2364
8 2350 2259 2351 2435 2436 2352 2437 2514
8 2440 2356 2437 2514 2355 2264 2351 2435
8 2352 2260 2354 2437 2438 2353 2439 2516
8 2356 2265 2358 2442 2437 2354 2439 2516
8 2440 2356 2264 2355 2518 2442 2357 2441
8 2519 2443 2357 2441 2447 2361 2268 2362
8 2443 2359 2444 2520 2357 2266 2358 2442
8 2443 2359 2267 2361 2520 2444 2360 2446
8 2446 2360 2279 2370 2523 2445 2369 2452
8 2453 2370 2446 2524 2371 2280 2361 2447
8 2449 2363 2448 2525 2368 2278 2369 2452
8 2366 2277 2364 2450 2451 2368 2449 2526
8 2372 2283 2368 2451 2453 2370 2452 2527
8 2455 2373 2295 2380 2529 2454 2382 2460
8 2456 2374 2292 2378 2530 2455 2380 2458
8 2377 2293 2379 2457 2458 2380 2459 2531
8 2463 2384 2459 2531 2383 2297 2379 2457
8 2533 2461 2382 2460 2459 2381 2295 2380
8 2464 2385 2461 2533 2384 2298 2381 2459
8 2466 2387 2464 2537 2386 2300 2384 2463
8 2467 2388 2465 2538 2387 2301 2385 2464
8 2469 2390 2467 2540 2389 2303 2387 2466
8 2470 2391 2468 2541 2390 2304 2388 2467
8 2472 2393 2470 2543 2392 2306 2390 2469
8 2393 2307 2394 2473 2470 2391 2471 2544
8 2395 2308 2396 2475 2472 2393 2473 2546
8 2396 2309 2397 2476 2473 2394 2474 2547
8 2475 2396 2311 2398 2549 2476 2399 2478
8 2476 2397 2312 2399 2550 2477 2400 2479
8 2478 2399 2314 2403 2552 2479 2402 2483
8 2479 2400 2313 2402 2553 2480 2401 2482
8 2405 2316 2404 2485 2482 2401 2481 2556
8 2406 2317 2405 2486 2483 2402 2482 2557
8 2408 2319 2407 2488 2485 2404 2484 2559
8 2409 2320 2408 2489 2486 2405 2485 2560
8 2411 2322 2410 2490 2488 2407 2487 2561
8 2412 2323 2411 2491 2489 2408 2488 2562
8 2414 2326 2413 2492 2491 2411 2490 2563
8 2513 2434 2493 2565 2438 2353 2416 2494
8 2496 2417 2352 2436 2567 2494 2438 2515
8 2494 2416 2495 2568 2417 2331 2418 2497
8 2419 2332 2417 2496 2499 2420 2497 2570
8 2497 2418 2498 2571 2420 2333 2421 2500
8 2499 2420 2500 2573 2422 2335 2423 2502
8 2500 2421 2501 2574 2423 2336 2424 2503
8 2502 2423 2503 2576 2425 2338 2426 2505
8 2503 2424 2504 2577 2426 2339 2427 2506
8 2505 2426 2506 2578 2429 2341 2428 2507
8 2509 2431 2373 2455 2580 2508 2454 2529
8 2509 2431 2508 2580 2449 2363 2448 2525
8 2432 2510 2581 2509 2374 2456 2530 2455
8 2432 2510 2450 2364 2509 2581 2526 2449
8 2583 2511 2434 2513 2516 2439 2353 2438
8 2436 2352 2437 2514 2515 2438 2516 2588
8 2440 2356 2442 2518 2514 2437 2516 2588
8 2442 2358 2444 2520 2516 2439 2517 2589
8 2519 2443 2520 2591 2441 2357 2442 2518
8 2519 2443 2361 2447 2591 2520 2446 2524
8 2446 2360 2445 2523 2520 2444 2521 2592
8 2525 2448 2522 2593 2452 2369 2445 2523
8 2524 2446 2370 2453 2594 2523 2452 2527
8 2526 2449 2525 2595 2451 2368 2452 2527
8 2534 2462 2528 2597 2460 2382 2454 2529
8 2530 2455 2380 2458 2598 2529 2460 2532
8 2599 2533 2460 2532 2531 2459 2380 2458
8 2537 2464 2533 2599 2463 2384 2459 2531
8 2534 2462 2382 2460 2601 2535 2461 2533
8 2538 2465 2535 2601 2464 2385 2461 2533
8 2540 2467 2538 2604 2466 2387 2464 2537
8 2541 2468 2539 2605 2467 2388 2465 2538
8 2543 2470 2541 2607 2469 2390 2467 2540
8 2470 2391 2471 2544 2541 2468 2542 2608
8 2472 2393 2473 2546 2543 2470 2544 2610
8 2473 2394 2474 2547 2544 2471 2545 2611
8 2475 2396 2476 2549 2546 2473 2547 2613
8 2476 2397 2477 2550 2547 2474 2548 2614
8 2549 2476 2399 2478 2616 2550 2479 2552
8 2479 2400 2480 2553 2550 2477 2551 2617
8 2552 2479 2402 2483 2619 2553 2482 2557
8 2482 2401 2481 2556 2553 2480 2554 2620
8 2485 2404 2484 2559 2556 2481 2555 2623
8 2486 2405 2485 2560 2557 2482 2556 2624
8 2488 2407 2487 2561 2559 2484 2558 2625
8 2489 2408 2488 2562 2560 2485 2559 2626
8 2491 2411 2490 2563 2562 2488 2561 2627
8 2513 2434 2512 2585 2565 2493 2564 2630
8 2586 2513 2565 2632 2515 2438 2494 2567
8 2565 2493 2566 2633 2494 2416 2495 2568
8 2567 2494 2568 2635 2496 2417 2497 2570
8 2568 2495 2569 2636 2497 2418 2498 2571
8 2570 2497 2571 2638 2499 2420 2500 2573
8 2571 2498 2572 2639 2500 2421 2501 2574
8 2573 2500 2574 2641 2502 2423 2503 2576
8 2574 2501 2575 2642 2503 2424 2504 2577
8 2576 2503 2577 2643 2505 2426 2506 2578
8 2597 2528 2579 2645 2529 2454 2508 2580
8 2580 2508 2579 2645 2525 2448 2522 2593
8 2581 2509 2455 2530 2646 2580 2529 2598
8 2581 2509 2580 2646 2526 2449 2525 2595
8 2583 2511 2582 2648 2513 2434 2512 2585
8 2583 2511 2439 2516 2648 2582 2517 2589
8 2649 2583 2513 2586 2588 2516 2438 2515
8 2589 2517 2444 2520 2653 2587 2521 2592
8 2518 2442 2520 2591 2588 2516 2589 2654
8 2593 2522 2590 2655 2523 2445 2521 2592
8 2524 2446 2523 2594 2591 2520 2592 2656
8 2595 2525 2593 2657 2527 2452 2523 2594
8 2602 2536 2596 2659 2534 2462 2528 2597
8 2600 2534 2597 2660 2532 2460 2529 2598
8 2600 2534 2460 2532 2661 2601 2533 2599
8 2604 2538 2601 2661 2537 2464 2533 2599
8 2602 2536 2462 2534 2663 2603 2535 2601
8 2601 2535 2465 2538 2663 2603 2539 2605
8 2607 2541 2605 2665 2540 2467 2538 2604
8 2608 2542 2606 2666 2541 2468 2539 2605
8 2543 2470 2544 2610 2607 2541 2608 2668
8 2544 2471 2545 2611 2608 2542 2609 2669
8 2546 2473 2547 2613 2610 2544 2611 2671
8 2547 2474 2548 2614 2611 2545 2612 2672
8 2549 2476 2550 2616 2613 2547 2614 2674
8 2550 2477 2551 2617 2614 2548 2615 2675
8 2552 2479 2553 2619 2616 2550 2617 2677
8 2553 2480 2554 2620 2617 2551 2618 2678
8 2557 2482 2556 2624 2619 2553 2620 2680
8 2556 2481 2555 2623 2620 2554 2621 2681
8 2559 2484 2558 2625 2623 2555 2622 2683
8 2560 2485 2559 2626 2624 2556 2623 2684
8 2562 2488 2561 2627 2626 2559 2625 2685
8 2690 2629 2564 2630 2650 2584 2512 2585
8 2586 2513 2585 2651 2632 2565 2630 2691
8 2630 2564 2631 2692 2565 2493 2566 2633
8 2632 2565 2633 2694 2567 2494 2568 2635
8 2633 2566 2634 2695 2568 2495 2569 2636
8 2635 2568 2636 2697 2570 2497 2571 2638
8 2636 2569 2637 2698 2571 2498 2572 2639
8 2638 2571 2639 2700 2573 2500 2574 2641
8 2639 2572 2640 2701 2574 2501 2575 2642
8 2641 2574 2642 2702 2576 2503 2577 2643
8 2597 2528 2596 2659 2645 2579 2644 2704
8 2645 2579 2644 2704 2593 2522 2590 2655
8 2660 2597 2645 2705 2598 2529 2580 2646
8 2646 2580 2645 2705 2595 2525 2593 2657
8 2650 2584 2512 2585 2707 2647 2582 2648
8 2648 2582 2517 2589 2707 2647 2587 2653
8 2649 2583 2648 2708 2586 2513 2585 2651
8 2649 2583 2516 2588 2708 2648 2589 2654
8 2655 2590 2652 2710 2592 2521 2587 2653
8 2654 2589 2520 2591 2711 2653 2592 2656
8 2657 2593 2655 2712 2594 2523 2592 2656
8 2602 2536 2603 2663 2659 2596 2658 2714
8 2662 2602 2659 2715 2600 2534 2597 2660
8 2662 2602 2534 2600 2717 2663 2601 2661
8 2661 2601 2538 2604 2717 2663 2605 2665
8 2666 2606 2664 2718 2605 2539 2603 2663
8 2668 2608 2666 2720 2607 2541 2605 2665
8 2608 2542 2609 2669 2666 2606 2667 2721
8 2610 2544 2611 2671 2668 2608 2669 2723
8 2611 2545 2612 2672 2669 2609 2670 2724
8 2613 2547 2614 2674 2671 2611 2672 2726
8 2614 2548 2615 2675 2672 2612 2673 2727
8 2616 2550 2617 2677 2674 2614 2675 2729
8 2617 2551 2618 2678 2675 2615 2676 2730
8 2619 2553 2620 2680 2677 2617 2678 2732
8 2620 2554 2621 2681 2678 2618 2679 2733
8 2624 2556 2623 2684 2680 2620 2681 2735
8 2681 2621 2555 2623 2736 2682 2622 2683
8 2626 2559 2625 2685 2684 2623 2683 2737
8 2688 2628 2584 2650 2740 2686 2647 2707
8 2688 2628 2687 2742 2650 2584 2629 2690
8 2690 2629 2689 2745 2630 2564 2631 2692
8 2746 2690 2630 2691 2709 2650 2585 2651
8 2691 2630 2692 2747 2632 2565 2633 2694
8 2692 2631 2693 2748 2633 2566 2634 2695
8 2694 2633 2695 2750 2635 2568 2636 2697
8 2695 2634 2696 2751 2636 2569 2637 2698
8 2697 2636 2698 2753 2638 2571 2639 2700
8 2698 2637 2699 2754 2639 2572 2640 2701
8 2700 2639 2701 2755 2641 2574 2642 2702
8 2659 2596 2658 2714 2704 2644 2703 2757
8 2704 2644 2703 2757 2655 2590 2652 2710
8 2660 2597 2659 2715 2705 2645 2704 2758
8 2705 2645 2704 2758 2657 2593 2655 2712
8 2759 2706 2647 2707 2710 2652 2587 2653
8 2709 2650 2585 2651 2760 2707 2648 2708
8 2708 2648 2589 2654 2760 2707 2653 2711
8 2712 2655 2710 2761 2656 2592 2653 2711
8 2763 2713 2658 2714 2718 2664 2603 2663
8 2662 2602 2663 2717 2715 2659 2714 2764
8 2720 2666 2718 2767 2665 2605 2663 2717
8 2768 2719 2664 2718 2721 2667 2606 2666
8 2668 2608 2669 2723 2720 2666 2721 2770
8 2669 2609 2670 2724 2721 2667 2722 2771
8 2671 2611 2672 2726 2723 2669 2724 2773
8 2672 2612 2673 2727 2724 2670 2725 2774
8 2674 2614 2675 2729 2726 2672 2727 2776
8 2675 2615 2676 2730 2727 2673 2728 2777
8 2677 2617 2678 2732 2729 2675 2730 2779
8 2678 2618 2679 2733 2730 2676 2731 2780
8 2680 2620 2681 2735 2732 2678 2733 2782
8 2733 2679 2621 2681 2783 2734 2682 2736
8 2735 2681 2623 2684 2784 2736 2683 2737
8 2740 2686 2647 2707 2787 2738 2706 2759
8 2688 2628 2686 2740 2742 2687 2739 2789
8 2743 2688 2650 2709 2790 2740 2707 2760
8 2742 2687 2741 2792 2690 2629 2689 2745
8 2743 2688 2742 2793 2709 2650 2690 2746
8 2745 2689 2744 2795 2692 2631 2693 2748
8 2746 2690 2745 2796 2691 2630 2692 2747
8 2747 2692 2748 2797 2694 2633 2695 2750
8 2748 2693 2749 2798 2695 2634 2696 2751
8 2750 2695 2751 2800 2697 2636 2698 2753
8 2751 2696 2752 2801 2698 2637 2699 2754
8 2753 2698 2754 2802 2700 2639 2701 2755
8 2763 2713 2756 2804 2714 2658 2703 2757
8 2759 2706 2652 2710 2804 2756 2703 2757
8 2715 2659 2714 2764 2758 2704 2757 2805
8 2758 2704 2757 2805 2712 2655 2710 2761
8 2806 2759 2707 2760 2761 2710 2653 2711
8 2765 2716 2762 2808 2718 2664 2713 2763
8 2809 2763 2714 2764 2767 2718 2663 2717
8 2765 2716 2664 2718 2811 2766 2719 2768
8 2813 2768 2718 2767 2770 2721 2666 2720
8 2814 2769 2719 2768 2771 2722 2667 2721
8 2723 2669 2724 2773 2770 2721 2771 2816
8 2724 2670 2725 2774 2771 2722 2772 2817
8 2726 2672 2727 2776 2773 2724 2774 2819
8 2727 2673 2728 2777 2774 2725 2775 2820
8 2729 2675 2730 2779 2776 2727 2777 2822
8 2730 2676 2731 2780 2777 2728 2778 2823
8 2732 2678 2733 2782 2779 2730 2780 2825
8 2780 2731 2679 2733 2826 2781 2734 2783
8 2782 2733 2681 2735 2827 2783 2736 2784
8 2830 2785 2738 2787 2804 2756 2706 2759
8 2789 2739 2686 2740 2832 2786 2738 2787
8 2790 2740 2707 2760 2833 2787 2759 2806
8 2742 2687 2739 2789 2792 2741 2788 2835
8 2743 2688 2740 2790 2793 2742 2789 2836
8 2792 2741 2791 2838 2745 2689 2744 2795
8 2793 2742 2792 2839 2746 2690 2745 2796
8 2795 2744 2794 2841 2748 2693 2749 2798
8 2796 2745 2795 2842 2747 2692 2748 2797
8 2797 2748 2798 2843 2750 2695 2751 2800
8 2798 2749 2799 2844 2751 2696 2752 2801
8 2800 2751 2801 2845 2753 2698 2754 2802
8 2808 2762 2803 2847 2763 2713 2756 2804
8 2809 2763 2804 2848 2764 2714 2757 2805
8 2806 2759 2710 2761 2848 2804 2757 2805
8 2765 2716 2766 2811 2808 2762 2807 2850
8 2810 2765 2808 2851 2767 2718 2763 2809
8 2810 2765 2718 2767 2852 2811 2768 2813
8 2811 2766 2719 2768 2853 2812 2769 2814
8 2855 2814 2768 2813 2816 2771 2721 2770
8 2856 2815 2769 2814 2817 2772 2722 2771
8 2773 2724 2774 2819 2816 2771 2817 2858
8 2774 2725 2775 2820 2817 2772 2818 2859
8 2776 2727 2777 2822 2819 2774 2820 2861
8 2777 2728 2778 2823 2820 2775 2821 2862
8 2779 2730 2780 2825 2822 2777 2823 2864
8 2823 2778 2731 2780 2865 2824 2781 2826
8 2825 2780 2733 2782 2866 2826 2783 2827
8 2869 2828 2785 2830 2847 2803 2756 2804
8 2871 2829 2786 2832 2830 2785 2738 2787
8 2872 2830 2787 2833 2848 2804 2759 2806
8 2789 2739 2786 2832 2835 2788 2831 2874
8 2836 2789 2740 2790 2875 2832 2787 2833
8 2792 2741 2788 2835 2838 2791 2834 2877
8 2793 2742 2789 2836 2839 2792 2835 2878
8 2838 2791 2837 2880 2795 2744 2794 2841
8 2839 2792 2838 2881 2796 2745 2795 2842
8 2841 2794 2840 2882 2798 2749 2799 2844
8 2842 2795 2841 2883 2797 2748 2798 2843
8 2843 2798 2844 2884 2800 2751 2801 2845
8 2886 2846 2803 2847 2850 2807 2762 2808
8 2851 2808 2847 2887 2809 2763 2804 2848
8 2850 2807 2766 2811 2889 2849 2812 2853
8 2810 2765 2811 2852 2851 2808 2850 2890
8 2852 2811 2768 2813 2891 2853 2814 2855
8 2853 2812 2769 2814 2892 2854 2815 2856
8 2894 2856 2814 2855 2858 2817 2771 2816
8 2817 2772 2818 2859 2856 2815 2857 2895
8 2819 2774 2820 2861 2858 2817 2859 2897
8 2820 2775 2821 2862 2859 2818 2860 2898
8 2822 2777 2823 2864 2861 2820 2862 2900
8 2823 2778 2824 2865 2862 2821 2863 2901
8 2864 2823 2780 2825 2902 2865 2826 2866
8 2904 2867 2828 2869 2886 2846 2803 2847
8 2869 2828 2868 2906 2830 2785 2829 2871
8 2907 2869 2830 2872 2887 2847 2804 2848
8 2871 2829 2870 2909 2832 2786 2831 2874
8 2910 2871 2832 2875 2872 2830 2787 2833
8 2835 2788 2831 2874 2877 2834 2873 2912
8 2836 2789 2832 2875 2878 2835 2874 2913
8 2877 2834 2876 2915 2838 2791 2837 2880
8 2839 2792 2835 2878 2881 2838 2877 2916
8 2880 2837 2879 2917 2841 2794 2840 2882
8 2881 2838 2880 2918 2842 2795 2841 2883
8 2883 2841 2882 2919 2843 2798 2844 2884
8 2921 2885 2846 2886 2889 2849 2807 2850
8 2922 2886 2847 2887 2890 2850 2808 2851
8 2889 2849 2812 2853 2924 2888 2854 2892
8 2890 2850 2811 2852 2925 2889 2853 2891
8 2891 2853 2814 2855 2926 2892 2856 2894
8 2892 2854 2815 2856 2927 2893 2857 2895
8 2858 2817 2859 2897 2894 2856 2895 2929
8 2859 2818 2860 2898 2895 2857 2896 2930
8 2861 2820 2862 2900 2897 2859 2898 2932
8 2862 2821 2863 2901 2898 2860 2899 2933
8 2864 2823 2865 2902 2900 2862 2901 2934
8 2904 2867 2846 2886 2936 2903 2885 2921
8 2904 2867 2903 2936 2869 2828 2868 2906
8 2937 2904 2869 2907 2922 2886 2847 2887
8 2906 2868 2905 2939 2871 2829 2870 2909
8 2907 2869 2906 2940 2872 2830 2871 2910
8 2909 2870 2908 2942 2874 2831 2873 2912
8 2910 2871 2909 2943 2875 2832 2874 2913
8 2912 2873 2911 2945 2877 2834 2876 2915
8 2878 2835 2874 2913 2916 2877 2912 2946
8 2915 2876 2914 2947 2880 2837 2879 2917
8 2916 2877 2915 2948 2881 2838 2880 2918
8 2918 2880 2917 2949 2883 2841 2882 2919
8 2921 2885 2849 2889 2951 2920 2888 2924
8 2952 2921 2886 2922 2925 2889 2850 2890
8 2924 2888 2854 2892 2954 2923 2893 2927
8 2925 2889 2853 2891 2955 2924 2892 2926
8 2926 2892 2856 2894 2956 2927 2895 2929
8 2895 2857 2896 2930 2927 2893 2928 2957
8 2897 2859 2898 2932 2929 2895 2930 2959
8 2898 2860 2899 2933 2930 2896 2931 2960
8 2900 2862 2901 2934 2932 2898 2933 2961
8 2936 2903 2885 2921 2963 2935 2920 2951
8 2936 2903 2935 2963 2906 2868 2905 2939
8 2937 2904 2886 2922 2964 2936 2921 2952
8 2937 2904 2936 2964 2907 2869 2906 2940
8 2939 2905 2938 2966 2909 2870 2908 2942
8 2940 2906 2939 2967 2910 2871 2909 2943
8 2942 2908 2941 2969 2912 2873 2911 2945
8 2943 2909 2942 2970 2913 2874 2912 2946
8 2945 2911 2944 2971 2915 2876 2914 2947
8 2946 2912 2945 2972 2916 2877 2915 2948
8 2948 2915 2947 2973 2918 2880 2917 2949
8 2951 2920 2888 2924 2975 2950 2923 2954
8 2952 2921 2889 2925 2976 2951 2924 2955
8 2927 2893 2928 2957 2954 2923 2953 2978
8 2955 2924 2892 2926 2979 2954 2927 2956
8 2929 2895 2930 2959 2956 2927 2957 2980
8 2930 2896 2931 2960 2957 2928 2958 2981
8 2932 2898 2933 2961 2959 2930 2960 2982
8 2951 2920 2950 2975 2963 2935 2962 2984
8 2963 2935 2962 2984 2939 2905 2938 2966
8 2964 2936 2921 2952 2985 2963 2951 2976
8 2964 2936 2963 2985 2940 2906 2939 2967
8 2966 2938 2965 2987 2942 2908 2941 2969
8 2967 2939 2966 2988 2943 2909 2942 2970
8 2969 2941 2968 2989 2945 2911 2944 2971
8 2970 2942 2969 2990 2946 2912 2945 2972
8 2972 2945 2971 2991 2948 2915 2947 2973
8 2954 2923 2953 2978 2975 2950 2974 2993
8 2976 2951 2924 2955 2994 2975 2954 2979
8 2957 2928 2958 2981 2978 2953 2977 2995
8 2956 2927 2957 2980 2979 2954 2978 2996
8 2959 2930 2960 2982 2980 2957 2981 2997
8 2984 2962 2983 2999 2966 2938 2965 2987
8 2975 2950 2974 2993 2984 2962 2983 2999
8 2976 2951 2975 2994 2985 2963 2984 3000
8 2985 2963 2984 3000 2967 2939 2966 2988
8 2987 2965 2986 3001 2969 2941 2968 2989
8 2988 2966 2987 3002 2970 2942 2969 2990
8 2990 2969 2989 3003 2972 2945 2971 2991
8 2978 2953 2977 2995 2993 2974 2992 3004
8 2979 2954 2978 2996 2994 2975 2993 3005
8 2980 2957 2981 2997 2996 2978 2995 3006
8 2974 2993 2999 2983 2992 3004 3007 2998
8 2983 2999 2987 2965 2998 3007 3001 2986
8 3000 2984 2999 3008 2988 2966 2987 3002
8 2994 2975 2993 3005 3000 2984 2999 3008
8 3002 2987 3001 3009 2990 2969 2989 3003
8 2996 2978 2995 3006 3005 2993 3004 3010
8 3005 2993 3004 3010 3008 2999 3007 3011
8 3008 2999 3007 3011 3002 2987 3001 3009

CELL_TYPES 1910
12
12
12
12
12
12
12
12
12
12
12
12
12
12
12
12
12
12
12
12
12
12
12
12
12
12
12
12
12
12
12
12
12
12
12
12
12
12
12
12
12
12
12
12
12
12
12
12
12
12
12
12
12
12
12
12
12
12
12
12
12
12
12
12
12
12
12
12
12
12
12
12
12
12
12
12
12
12
12
12
12
12
12
12
12
12
12
12
12
12
12
12
12
12
12
12
12
12
12
12
12
12
12
12
12
12
12
12
12
12
12
12
12
12
12
12
12
12
12
12
12
12
12
12
12
12
12
12
12
12
12
12
12
12
12
12
12
12
12
12
12
12
12
12
12
12
12
12
12
12
12
12
12
12
12
12
12
12
12
12
12
12
12
12
12
12
12
12
12
12
12
12
12
12
12
12
12
12
12
12
12
12
12
12
12
12
12
12
12
12
12
12
12
12
12
12
12
12
12
12
12
12
12
12
12
12
12
12
12
12
12
12
12
12
12
12
12
12
12
12
12
12
12
12
12
12
12
12
12
12
12
12
12
12
12
12
12
12
12
12
12
12
12
12
12
12
12
12
12
12
12
12
12
12
12
12
12
12
12
12
12
12
12
12
12
12
12
12
12
12
12
12
12
12
12
12
12
12
12
12
12
12
12
12
12
12
12
12
12
12
12
12
12
12
12
12
12
12
12
12
12
12
12
12
12
12
12
12
12
12
12
12
12
12
12
12
12
12
12
12
12
12
12
12
12
12
12
12
12
12
12
12
12
12
12
12
12
12
12
12
12
12
12
12
12
12
12
12
12
12
12
12
12
12
12
12
12
12
12
12
12
12
12
12
12
12
12
12
12
12
12
12
12
12
12
12
12
12
12
12
12
12
12
12
12
12
12
12
12
12
12
12
12
12
12
12
12
12
12
12
12
12
12
12
12
12
12
12
12
12
12
12
12
12
12
12
12
12
12
12
12
12
12
12
12
12
12
12
12
12
12
12
12
12
12
12
12
12
12
12
12
12
12
12
12
12
12
12
12
12
12
12
12
12
12
12
12
12
12
12
12
12
12
12
12
12
12
12
12
12
12
12
12
12
12
12
12
12
12
12
12
12
12
12
12
12
12
12
12
12
12
12
12
12
12
12
12
12
12
12
12
12
12
12
12
12
12
12
12
12
12
12
12
12
12
12
12
12
12
12
12
12
12
12
12
12
12
12
12
12
12
12
12
12
12
12
12
12
12
12
12
12
12
12
12
12
12
12
12
12
12
12
12
12
12
12
12
12
12
12
12
12
12
12
12
12
12
12
12
12
12
12
12
12
12
12
12
12
12
12
12
12
12
12
12
12
12
12
12
12
12
12
12
12
12
12
12
12
12
12
12
12
12
12
12
12
12
12
12
12
12
12
12
12
12
12
12
12
12
12
12
12
12
12
12
12
12
12
12
12
12
12
12
12
12
12
12
12
12
12
12
12
12
12
12
12
12
12
12
12
12
12
12
12
12
12
12
12
12
12
12
12
12
12
12
12
12
12
12
12
12
12
12
12
12
12
12
12
12
12
12
12
12
12
12
12
12
12
12
12
12
12
12
12
12
12
12
12
12
12
12
12
12
12
12
12
12
12
12
12
12
12
12
12
12
12
12
12
12
12
12
12
12
12
12
12
12
12
12
12
12
12
12
12
12
12
12
12
12
12
12
12
12
12
12
12
12
12
12
12
12
12
12
12
12
12
12
12
12
12
12
12
12
12
12
12
12
12
12
12
12
12
12
12
12
12
12
12
12
12
12
12
12
12
12
12
12
12
12
12
12
12
12
12
12
12
12
12
12
12
12
12
12
12
12
12
12
12
12
12
12
12
12
12
12
12
12
12
12
12
12
12
12
12
12
12
12
12
12
12
12
12
12
12
12
12
12
12
12
12
12
12
12
12
12
12
12
12
12
12
12
12
12
12
12
12
12
12
12
12
12
12
12
12
12
12
12
12
12
12
12
12
12
12
12
12
12
12
12
12
12
12
12
12
12
12
12
12
12
12
12
12
12
12
12
12
12
12
12
12
12
12
12
12
12
12
12
12
12
12
12
12
12
12
12
12
12
12
12
12
12
12
12
12
12
12
12
12
12
12
12
12
12
12
12
12
12
12
12
12
12
12
12
12
12
12
12
12
12
12
12
12
12
12
12
12
12
12
12
12
12
12
12
12
12
12
12
12
12
12
12
12
12
12
12
12
12
12
12
12
12
12
12
12
12
12
12
12
12
12
12
12
12
12
12
12
12
12
12
12
12
12
12
12
12
12
12
12
12
12
12
12
12
12
12
12
12
12
12
12
12
12
12
12
12
12
12
12
12
12
12
12
12
12
12
12
12
12
12
12
12
12
12
12
12
12
12
12
12
12
12
12
12
12
12
12
12
12
12
12
12
12
12
12
12
12
12
12
12
12
12
12
12
12
12
12
12
12
12
12
12
12
12
12
12
12
12
12
12
12
12
12
12
12
12
12
12
12
12
12
12
12
12
12
12
12
12
12
12
12
12
12
12
12
12
12
12
12
12
12
12
12
12
12
12
12
12
12
12
12
12
12
12
12
12
12
12
12
12
12
12
12
12
12
12
12
12
12
12
12
12
12
12
12
12
12
12
12
12
12
12
12
12
12
12
12
12
12
12
12
12
12
12
12
12
12
12
12
12
12
12
12
12
12
12
12
12
12
12
12
12
12
12
12
12
12
12
12
12
12
12
12
12
12
12
12
12
12
12
12
12
12
12
12
12
12
12
12
12
12
12
12
12
12
12
12
12
12
12
12
12
12
12
12
12
12
12
12
12
12
12
12
12
12
12
12
12
12
12
12
12
12
12
12
12
12
12
12
12
12
12
12
12
12
12
12
12
12
12
12
12
12
12
12
12
12
12
12
12
12
12
12
12
12
12
12
12
12
12
12
12
12
12
12
12
12
12
12
12
12
12
12
12
12
12
12
12
12
12
12
12
12
12
12
12
12
12
12
12
12
12
12
12
12
12
12
12
12
12
12
12
12
12
12
12
12
12
12
12
12
12
12
12
12
12
12
12
12
12
12
12
12
12
12
12
12
12
12
12
12
12
12
12
12
12
12
12
12
12
12
12
12
12
12
12
12
12
12
12
12
12
12
12
12
12
12
12
12
12
12
12
12
12
12
12
12
12
12
12
12
12
12
12
12
12
12
12
12
12
12
12
12
12
12
12
12
12
12
12
12
12
12
12
12
12
12
12
12
12
12
12
12
12
12
12
12
12
12
12
12
12
12
12
12
12
12
12
12
12
12
12
12
12
12
12
12
12
12
12
12
12
12
12
12
12
12
12
12
12
12
12
12
12
12
12
12
12
12
12
12
12
12
12
12
12
12
12
12
12
12
12
12
12
12
12
12
12
12
12
12
12
12
12
12
12
12
12
12
12
12
12
12
12
12
12
12
12
12
12
12
12
12
12
12
12
12
12
12
12
12
12
12
12
12
12
12
12
12
12
12
12
12
12
12
12
12
12
12
12
12
12
12
12
12
12
12
12
12
12
12
12
12
12
12
12
12
12
12
12
12
12
12
12
12
12
12
12
12
12
12
12
12
12
12
12
12
12
12
12
12
12
12
12
12
12
12
12
12
12
12
12
12
12
12
12
12
12
12
12
12
12
12
12
12
12
12
12
12
12
12
12
12
12
12
12
12
12
12
12
12
12
12
12
12
12
12
12
12
12
12
12
12
12
12
12
12
12
12
12
12
12
12
12
12
12
12
12
12
12
12
12
12
12
12
12
12
12
12
12
12
12
12
12
12
12
12
12
12
12
12
12
12
12
12
12
12
12
12
12
12
12
12
12
12
12
12
12
12
12
12
12
12
12
12
12
12
12
12
12
12
12
12
12
12
12
12
12
12
12
12
12
12
12
12
12
12
12
12
12
12
12
12
12
12
12
12
12
12
12
12
12
12
12
12
12
12
12
12
12
12
12
12
12
12
12
12
12
12
12
12
12
12
12
12
12
12
12
12
12
12
12
12
12
12
12
12
12
12
12
12
12
12
12
12
12
12
12
12
12
12
12
12
12
12
12
12
12
12
12
12
12
12
12
12
12
12
12
12
12
12
12
12
12
12
12
12
12
12
12
12
12
12
12
12
12
12
12
12
12
12
12
12
12
12
12
12
12
12
12
12
12
12
12
12
12
12
12
12
12
12
12
12
12
12
12
12
12
12
12
12
12
12
12
12
12
12
12
12
12
12
12
12
12
12
12
12
12
12
12
12
12
12
12
12
12
12
12
12
12
12
12
12
12
12
12
12
12
12
12
12
12
12
12
12
12
12
12
12
12
12

POINT_DATA 3012
SCALARS Jp_lamdaP float 4
LOOKUP_TABLE default
0.999964 1 1 0.999964
1 1 1 1
0.999967 1 1 0.999967
0.999938 1 1 0.999938
0.999959 1 1 0.999959
0.999973 1 1 0.999973
0.999692 1 1 0.999692
1 1 1 1
1 1 1 1
1 1 1 1
1 1 1 1
0.999847 1 1 0.999847
0.999901 1 1 0.999901
0.999933 1 1 0.999933
0.999968 1 1 0.999968
0.999944 1 1 0.999944
0.999976 1 1 0.999976
0.999963 1 1 0.999963
0.999695 1 1 0.999695
1 1 1 1
0.999928 1 1 0.999928
0.99995 1 1 0.99995
0.999577 1 1 0.999577
0.999655 1 1 0.999655
0.999988 1 1 0.999988
0.999741 1 1 0.999741
0.999244 1 1 0.999244
1 1 1 1
0.999974 1 1 0.999974
0.999987 1 1 0.999987
1 1 1 1
0.999854 1 1 0.999854
0.999943 1 1 0.999943
0.999965 1 1 0.999965
0.999731 1 1 0.999731
1 1 1 1
0.999818 1 1 0.999818
0.999896 1 1 0.999896
0.999339 1 1 0.999339
1 1 1 1
1 1 1 1
0.999964 1 1 0.999964
1 1 1 1
0.999922 1 1 0.999922
0.999528 1 1 0.999528
1 1 1 1
0.999661 1 1 0.999661
0.999949 1 1 0.999949
0.999965 1 1 0.999965
0.999978 1 1 0.999978
0.999699 1 1 0.999699
0.999951 1 1 0.999951
0.999935 1 1 0.999935
0.999991 1 1 0.999991
0.999955 1 1 0.999955
0.999578 1 1 0.999578
0.999745 1 1 0.999745
0.999658 1 1 0.999658
0.99923 1 1 0.99923
1 1 1 1
0.999914 1 1 0.999914
0.999609 1 1 0.999609
0.999553 1 1 0.999553
0.999614 1 1 0.999614
0.99897 1 1 0.99897
0.999104 1 1 0.999104
1 1 1 1
0.999824 1 1 0.999824
0.999355 1 1 0.999355
0.998769 1 1 0.998769
1 1 1 1
1 1 1 1
1 1 1 1
0.999862 1 1 0.999862
1 1 1 1
1 1 1 1
0.999711 1 1 0.999711
1 1 1 1
0.999812 1 1 0.999812
0.99991 1 1 0.99991
0.999337 1 1 0.999337
1 1 1 1
0.999999 1 1 0.999999
0.999665 1 1 0.999665
0.999749 1 1 0.999749
0.998995 1 1 0.998995
0.999951 1 1 0.999951
0.999263 1 1 0.999263
0.999414 1 1 0.999414
0.999011 1 1 0.999011
1 1 1 1
1 1 1 1
1 1 1 1
1 1 1 1
1 1 1 1
0.999957 1 1 0.999957
0.999568 1 1 0.999568
0.999968 1 1 0.999968
0.999648 1 1 0.999648
1 1 1 1
0.999498 1 1 0.999498
0.99963 1 1 0.99963
0.998683 1 1 0.998683
0.999684 1 1 0.999684
0.99879 1 1 0.99879
0.999912 1 1 0.999912
0.99994 1 1 0.99994
0.999995 1 1 0.999995
0.999959 1 1 0.999959
0.99958 1 1 0.99958
0.999662 1 1 0.999662
0.999749 1 1 0.999749
0.999215 1 1 0.999215
1 1 1 1
0.999922 1 1 0.999922
0.999521 1 1 0.999521
0.999553 1 1 0.999553
1 1 1 1
0.999855 1 1 0.999855
0.999617 1 1 0.999617
0.998943 1 1 0.998943
0.999337 1 1 0.999337
0.999123 1 1 0.999123
0.998771 1 1 0.998771
0.999515 1 1 0.999515
0.999529 1 1 0.999529
0.998778 1 1 0.998778
0.998881 1 1 0.998881
0.998998 1 1 0.998998
0.998528 1 1 0.998528
1 1 1 1
0.998689 1 1 0.998689
0.999942 1 1 0.999942
0.999411 1 1 0.999411
0.998856 1 1 0.998856
0.998627 1.00005 1 0.998576
0.999987 1 1 0.999987
0.999653 1 1 0.999653
1 1 1 1
1 1 1 1
0.999718 1 1 0.999718
1 1 1 1
0.999924 1 1 0.999924
0.999816 1 1 0.999816
0.999335 1 1 0.999335
1 1 1 1
0.999999 1 1 0.999999
0.999688 1 1 0.999688
0.99977 1 1 0.99977
0.998997 1 1 0.998997
0.999963 1 1 0.999963
0.999265 1 1 0.999265
0.999414 1 1 0.999414
0.998999 1 1 0.998999
0.999986 1 1 0.999986
1 1 1 1
0.999727 1 1 0.999727
0.998891 1 1 0.998891
0.999136 1 1 0.999136
0.998712 1.00011 1 0.998605
0.999513 1 1 0.999513
0.998919 1 1 0.998919
0.999073 1 1.00001 0.999067
0.99888 1 1 0.99888
1 1 1 1
1 1 1 1
1 1 1 1
0.999997 1 1 0.999997
1 1 1 1
1 1 1 1
1 1 1 1
0.999631 1 1 0.999631
0.999547 1 1 0.999547
1 1 1 1
1 1 1 1
0.9995 1 1 0.9995
0.999616 1 1 0.999616
0.998683 1 1 0.998683
0.999651 1 1 0.999651
0.998791 1 1 0.998791
0.999486 1 1 0.999486
0.998623 1 1 0.998623
0.998747 1 1 0.998747
0.999678 1.00136 1 0.998321
0.99883 1 1 0.99883
0.998763 1.00033 1 0.998431
1 1 1 1
0.999929 1 1 0.999929
0.999429 1 1 0.999429
0.999554 1 1 0.999554
1 1 1 1
0.999886 1 1 0.999886
0.99962 1 1 0.99962
0.998915 1 1 0.998915
0.999142 1 1 0.999142
0.999319 1 1 0.999319
0.998773 1 1 0.998773
0.999512 1 1 0.999512
0.99953 1 1 0.99953
0.998722 1 1 0.998722
0.998902 1 1 0.998902
1 1 1 1
0.999932 1 1 0.999932
0.999435 1 1 0.999435
0.998999 1 1 0.998999
0.998505 1.00001 1 0.998496
0.998852 1 1 0.998852
0.998707 1 1 0.998707
0.998638 1.00006 1 0.998579
0.999983 1 1 0.999983
0.999653 1 1 0.999653
0.998636 1 1 0.998636
0.998839 1 1 0.998839
0.999079 1.00068 1 0.998396
0.998455 1.00004 1 0.998416
0.998619 1 1 0.998619
0.999789 1.00141 1 0.998377
0.999969 1 1 0.999969
0.998768 1.00025 1 0.998514
0.999481 1 1 0.999481
0.998997 1 1 0.998997
0.998664 1.00001 1 0.998658
0.999374 1.00085 1 0.998522
0.999566 1 1 0.999566
0.999755 1 1 0.999755
0.999286 1 1 0.999286
0.999678 1 1 0.999678
1 1 1 1
1 1 1 1
0.999771 1 1 0.999771
0.999 1 1 0.999
0.999974 1 1 0.999974
0.999413 1 1 0.999413
0.999267 1 1 0.999267
0.998987 1 1 0.998987
0.999991 1 1 0.999991
1 1 1 1
0.999728 1 1 0.999728
0.998892 1 1 0.998892
0.999141 1 1 0.999141
0.998668 1.00006 1 0.998604
0.999513 1 1 0.999513
0.998929 1 1 0.998929
0.999064 1 1 0.999064
0.998869 1 1 0.998869
1 1 1 1
0.999613 1 1 0.999613
0.999837 1 1 0.999837
0.999371 1 1 0.999371
0.998903 1.0004 1 0.998508
0.998772 1 1 0.998772
1.00076 1.00235 1 0.998416
0.999176 1 1 0.999176
0.998905 1.00012 1 0.998784
0.999567 1 1.00072 0.998846
0.99877 1 1 0.99877
0.999962 1 1 0.999962
1 1 1 1
1 1 1 1
1 1 1 1
1 1 1 1
1 1 1 1
1 1 1 1
0.999995 1 1 0.999995
1 1 1 1
0.999653 1 1 0.999653
0.999596 1 1 0.999596
0.998791 1 1 0.998791
0.998683 1 1 0.998683
0.999502 1 1 0.999502
1 1 1 1
0.999486 1 1 0.999486
0.998623 1 1 0.998623
0.998747 1 1 0.998747
0.999491 1.00117 1 0.99832
0.99883 1 1 0.99883
0.99881 1.00038 1 0.998431
0.998609 1 1 0.998609
0.999976 1.00172 1 0.998261
0.999081 1.0007 1 0.998384
1.00469 1.00646 1 0.99824
0.998913 1.00045 1 0.998465
1.0022 1.00388 1 0.998324
0.999509 1 1 0.999509
0.99953 1 1 0.99953
0.998666 1 1 0.998666
0.998923 1 1 0.998923
1 1 1 1
0.999921 1 1 0.999921
0.999458 1 1 0.999458
0.999 1 1 0.999
0.998479 1.00002 1 0.998463
0.998725 1 1 0.998725
0.998848 1 1 0.998848
0.998673 1.00009 1 0.998582
0.999978 1 1 0.999978
0.999652 1 1 0.999652
0.998618 1 1 0.998618
0.998837 1 1 0.998837
0.999208 1.00083 1 0.998383
0.998526 1.00008 1 0.99845
0.999962 1 1 0.999962
0.99948 1 1 0.99948
0.999024 1 1 0.999024
0.998619 1 1 0.998619
1.00013 1.00176 1 0.99837
0.998644 1.00001 1 0.998631
0.998974 1.00046 1 0.998515
0.999683 1.00116 1 0.998522
0.999568 1 1 0.999568
0.999284 1 1 0.999284
0.999753 1 1 0.999753
0.999474 1.00114 1 0.998333
0.999169 1.00075 1 0.99842
1.00419 1.00596 1 0.998237
1.00095 1.00265 1 0.998304
0.999418 1.00098 1 0.998444
1.00421 1.00583 1 0.998385
0.999522 1 1 0.999522
1.00093 1.00245 1 0.998483
0.999177 1 1 0.999177
0.998749 1 1 0.998749
0.998674 1.00017 1 0.998504
1.00273 1.00415 1 0.998579
0.999833 1 1 0.999833
0.999268 1 1 0.999268
0.999336 1 1 0.999336
0.999153 1 1 0.999153
0.998893 1 1 0.998893
1 1 1 1
0.999995 1 1 0.999995
0.999729 1 1 0.999729
0.999145 1 1 0.999145
0.998622 1.00002 1 0.998603
0.999514 1 1 0.999514
0.999062 1 1 0.999062
0.998939 1 1 0.998939
0.998858 1 1 0.998858
1 1 1 1
0.999613 1 1 0.999613
0.999841 1 1 0.999841
0.999369 1 1 0.999369
0.998814 1.00031 1 0.998506
0.998774 1 1 0.998774
1.00033 1.00192 1 0.998416
0.999181 1 1 0.999178
0.998871 1.00007 1 0.998796
0.999518 1 1.00068 0.998838
0.998822 1 1 0.998822
1 1 1 1
0.999903 1 1 0.999903
0.99928 1 1 0.99928
0.999477 1 1 0.999477
0.99917 1 1 0.99917
1.00139 1.00304 1 0.998351
0.999491 1.0009 1 0.998594
1.00228 1.00392 1 0.998361
0.999871 1 1.00094 0.998928
0.998802 1.00009 1 0.998715
0.999294 1 1.00066 0.99863
0.999951 1 1 0.999951
0.999713 1 1 0.999713
0.999969 1 1 0.999969
0.999964 1 1 0.999964
1 1 1 1
1 1 1 1
1 1 1 1
1 1 1 1
1 1 1 1
1 1 1 1
1 1 1 1
0.999999 1 1 0.999999
1 1 1 1
0.999992 1 1 0.999992
1 1 1 1
0.99883 1 1 0.99883
0.998747 1 1 0.998747
0.998854 1.00042 1 0.998431
0.999297 1.00098 1 0.998319
0.998623 1 1 0.998623
0.999485 1 1 0.999485
0.998608 1 1 0.998608
0.999913 1.00165 1 0.998261
0.998925 1.00054 1 0.998384
1.00477 1.00655 1 0.998238
0.998938 1.00047 1 0.998464
1.00178 1.00346 1 0.998324
0.999895 1.00165 1 0.998246
1.00683 1.00865 1 0.998189
1.00332 1.00505 1 0.998281
1.01034 1.0121 1 0.99826
1.00148 1.00314 1 0.998343
1.0068 1.00842 1 0.998391
0.9986 1 1 0.9986
0.998836 1 1 0.998836
0.999323 1.00095 1 0.998371
0.998599 1.00012 1 0.998484
0.999955 1 1 0.999955
0.999479 1 1 0.999479
0.999051 1 1 0.999051
0.99862 1 1 0.99862
1.00048 1.00212 1 0.998364
0.999159 1.00064 1 0.998516
0.998604 1 1 0.998604
0.999987 1.00147 1 0.998522
0.99957 1 1 0.99957
0.999282 1 1 0.999282
0.999751 1 1 0.999751
0.999607 1.00131 1 0.998304
0.999132 1.00071 1 0.998419
1.0043 1.00608 1 0.998229
1.00158 1.00327 1 0.998309
0.999523 1 1 0.999523
0.999172 1 1 0.999172
0.998815 1 1.00003 0.998783
0.999591 1.00114 1 0.998454
1.00394 1.00555 1 0.998396
0.998685 1.0002 1 0.998484
1.00113 1.00265 1 0.998484
1.00237 1.00378 1 0.99859
0.999271 1 1 0.999271
0.999137 1 1 0.999137
0.99983 1 1 0.99983
0.99935 1 1 0.99935
1.00522 1.00705 1 0.998179
1.00366 1.0054 1 0.998271
1.01097 1.01279 1 0.998203
1.00612 1.00781 1 0.998322
1.00293 1.00449 1 0.998446
1.00787 1.00944 1 0.998444
0.99925 1 1 0.99925
1.00416 1.00558 1 0.998592
0.998965 1 1 0.998965
0.998864 1.00013 1.00018 0.998556
1.00054 1.00213 1 0.998421
1.00464 1.00605 1 0.998596
0.999875 1 1 0.999875
0.999431 1 1 0.999431
0.999143 1 1 0.999143
0.999173 1 1 0.999173
0.99909 1 1 0.99909
1 1 1 1
0.998712 1.00021 1 0.998504
0.999845 1 1 0.999845
0.999612 1 1 0.999612
0.999367 1 1 0.999367
0.998777 1 1 0.998777
0.999929 1.00152 1 0.998415
0.99918 1 1 0.99918
0.999531 1 1.0007 0.998829
0.998809 1 1 0.998809
0.998873 1 1 0.998873
1 1 1 1
0.999908 1 1 0.999908
0.99928 1 1 0.99928
0.999477 1 1 0.999477
0.999156 1 1 0.999156
1.00143 1.00308 1 0.998347
0.999236 1.00064 1 0.998595
1.00237 1.00403 1 0.998355
0.999759 1 1.00083 0.998931
0.998814 1.00009 1 0.998726
0.999476 1 1.00083 0.998648
0.999934 1 1 0.999934
0.999576 1 1 0.999576
0.999264 1 1.00021 0.999054
0.999255 1 1 0.999255
0.999046 1 1 0.999046
1.0045 1.00617 1 0.998331
1.00023 1.00171 1 0.998525
1.00302 1.00456 1 0.998469
1.00191 1 1.00319 0.998727
0.998525 1 1 0.998525
0.999954 1 1 0.999954
0.999655 1 1 0.999655
0.999696 1 1 0.999696
0.999542 1 1 0.999542
0.99972 1 1 0.99972
0.999972 1 1 0.999972
0.99997 1 1 0.99997
1 1 1 1
0.999966 1 1 0.999966
1 1 1 1
1 1 1 1
1 1 1 1
1 1 1 1
1 1 1 1
1 1 1 1
1 1 1 1
1 1 1 1
1 1 1 1
0.999999 1 1 0.999999
1 1 1 1
0.998982 1.00052 1 0.998462
0.998764 1.00038 1 0.998383
1.00137 1.00305 1 0.998324
1.00485 1.00663 1 0.998236
0.999859 1.0016 1 0.998262
0.998608 1 1 0.998608
0.999941 1.0017 1 0.998246
1.00692 1.00875 1 0.998182
1.00303 1.00475 1 0.998282
1.01033 1.01208 1 0.998267
1.00166 1.00332 1 0.99834
1.00676 1.00838 1 0.998394
1.00633 1.00818 1 0.998158
1.01274 1.01457 1 0.998203
1.00814 1.00982 1 0.998329
1.01088 1.0126 1 0.998298
1.00641 1.00804 1 0.998376
1.00947 1.01103 1 0.998464
0.999751 1.00148 1 0.998275
0.999093 1.00068 1 0.998418
1.00441 1.0062 1 0.998221
1.0022 1.00389 1 0.998315
0.999525 1 1 0.999525
0.999168 1 1 0.999168
0.998997 1 1.00018 0.998816
0.999782 1.00132 1 0.998465
1.00366 1.00526 1 0.998407
1.00131 1.00283 1 0.998485
0.998716 1.00025 1 0.998464
1.00204 1.00345 1 0.998601
0.999274 1 1 0.999274
0.999122 1 1 0.999122
0.999826 1 1 0.999826
0.999364 1 1 0.999364
1.00531 1.00714 1 0.99818
1.00383 1.00557 1 0.998268
1.01062 1.01243 1 0.998208
1.00562 1.00731 1 0.99832
0.999249 1 1 0.999249
0.999024 1 1.00003 0.998994
0.999031 1.00009 1.00039 0.998552
1.00277 1.00434 1 0.998437
1.00775 1.00929 1 0.998477
1.00069 1.00228 1 0.998411
1.0041 1.00551 1 0.998594
1.00463 1.00601 1 0.998626
0.999144 1 1 0.999144
0.999087 1 1 0.999087
0.99917 1 1 0.99917
0.99985 1 1 0.99985
0.999443 1 1 0.999443
1.01246 1.01431 1 0.998177
1.01034 1.01214 1 0.998223
1.00897 1.01059 1 0.998398
1.00681 1.00829 1 0.998531
0.999121 1 1 0.999121
1.00639 1.00772 1 0.998678
0.999107 1 1.00029 0.998819
0.99975 1.0009 1.00051 0.998339
1.00314 1.00479 1 0.998356
0.999861 1 1 0.999861
0.999553 1 1 0.999553
0.99927 1 1 0.99927
0.999106 1 1 0.999106
0.999044 1 1 0.999044
0.999043 1 1 0.999043
1 1 1 1
0.999913 1 1 0.999913
1.00144 1.0031 1 0.998344
0.999477 1 1 0.999477
0.99928 1 1 0.99928
0.999141 1 1 0.999141
0.99902 1.00042 1 0.998596
1.00234 1.004 1 0.998349
0.999726 1 1.00079 0.998934
0.999367 1 1.0007 0.998665
0.998855 1.00012 1 0.998737
0.999938 1 1 0.999938
0.999577 1 1 0.999577
0.99925 1 1.00019 0.999062
0.999254 1 1 0.999254
0.999042 1 1.00001 0.999032
1.00453 1.00621 1 0.998328
0.999979 1.00146 1 0.998519
1.00298 1.0045 1 0.998487
1.00133 1 1.00262 0.998714
0.998588 1.00004 1.00006 0.998494
0.999643 1 1 0.999643
0.999321 1 1 0.999321
1.00048 1 1.00158 0.998905
0.999054 1 1 0.999054
0.998962 1 1.00002 0.998942
1.00786 1.00929 1 0.998575
1.00018 1.00175 1 0.998434
1.00358 1.00508 1 0.998508
1.00275 1 1.00416 0.998596
0.9983 1.00001 1 0.998293
0.999957 1 1 0.999957
0.999669 1 1 0.999669
0.999457 1 1 0.999457
0.999681 1 1 0.999681
0.99972 1 1 0.99972
0.999518 1 1 0.999518
0.999395 1 1 0.999395
0.999509 1 1 0.999509
0.999726 1 1 0.999726
0.999971 1 1 0.999971
0.999972 1 1 0.999972
1 1 1 1
0.999972 1 1 0.999972
1 1 1 1
1 1 1 1
1 1 1 1
1 1 1 1
1 1 1 1
1 1 1 1
1 1 1 1
1 1 1 1
1 1 1 1
1 1 1 1
1 1 1 1
1.00182 1.00349 1 0.998338
1.00273 1.00446 1 0.998282
1.00672 1.00834 1 0.998398
1.01033 1.01208 1 0.998273
1.007 1.00885 1 0.998175
0.999986 1.00174 1 0.998247
1.00636 1.00822 1 0.998153
1.01275 1.01458 1 0.998202
1.00851 1.01022 1 0.998316
1.01114 1.01286 1 0.998298
1.00578 1.00742 1 0.998377
1.00949 1.01102 1 0.998485
1.01223 1.01409 1 0.998172
1.01286 1.01462 1 0.998266
1.0114 1.01303 1 0.998389
1.00938 1.01084 1 0.998555
1.00539 1.00722 1 0.998181
1.00399 1.00573 1 0.998266
1.01027 1.01208 1 0.998212
1.00513 1.00682 1 0.998317
0.999247 1 1 0.999247
0.999022 1 1 0.999022
0.999188 1.00006 1.00058 0.998548
1.00259 1.00417 1 0.998429
1.00766 1.00916 1 0.99851
1.00407 1.00548 1 0.998595
1.00078 1.00238 1 0.998401
1.0045 1.00585 1 0.998656
0.999144 1 1 0.999144
0.999083 1 1 0.999083
0.999167 1 1 0.999167
0.999824 1 1 0.999824
0.999454 1 1 0.999454
1.01213 1.01398 1 0.99818
1.01024 1.01203 1 0.99823
1.0088 1.01041 1 0.998401
0.999118 1 1 0.999118
0.999106 1 1.00026 0.99885
0.999982 1.00089 1.00076 0.998332
1.00699 1.00848 1 0.998522
1.00322 1.00483 1 0.998398
1.00574 1.00708 1 0.998675
0.999863 1 1 0.999863
0.999104 1 1 0.999104
0.99906 1 1 0.99906
0.999038 1 1 0.999038
0.999278 1 1 0.999278
0.999534 1 1 0.999534
1.01299 1.01481 1 0.998203
1.01085 1.01257 1 0.998296
1.00919 1.01073 1 0.998472
1.009 1.01037 1 0.998645
0.999038 1 1 0.999038
1.00372 1.00524 1 0.998491
1.00017 1 1.00165 0.99853
1.00108 1.00184 1.00104 0.998203
0.999896 1 1 0.999896
0.999616 1 1 0.999616
0.999353 1 1 0.999353
0.999084 1 1 0.999084
0.999038 1 1 0.999038
0.998975 1 1 0.998975
0.999942 1 1 0.999942
0.999578 1 1 0.999578
1.00464 1.00633 1 0.998325
0.999253 1 1 0.999253
0.999094 1 1.00002 0.999071
0.999025 1 1.00001 0.999019
0.999743 1.00123 1 0.998514
1.00308 1.00458 1 0.998506
1.00077 1 1.00207 0.9987
0.998807 1.00008 1.00027 0.998463
0.999643 1 1 0.999643
0.99933 1 1 0.99933
1.0004 1 1.00148 0.998922
0.999063 1 1 0.99906
0.998961 1 1 0.998959
1.00795 1.00938 1 0.998586
1.00018 1.00175 1 0.998431
1.00369 1.00511 1 0.998584
1.003 1 1.00442 0.99858
0.998319 1.00003 1.00003 0.99826
0.999412 1 1 0.999412
0.999113 1 1 0.999113
1.00243 1 1.00364 0.998793
0.99887 1 1 0.998868
1.01472 1.01608 1 0.99866
1.00895 1.01041 0.999872 0.998681
1.00175 1.0035 1 0.998261
1.00253 1.00001 1.00425 0.998282
0.999682 1 1 0.999682
0.999468 1 1 0.999468
0.999336 1 1 0.999336
0.99972 1 1 0.99972
0.999494 1 1 0.999494
0.999725 1 1 0.999725
0.999377 1 1 0.999377
0.999518 1 1 0.999518
0.999275 1 1 0.999275
0.999375 1 1 0.999375
0.999513 1 1 0.999513
0.999724 1 1 0.999724
0.999967 1 1 0.999967
0.99997 1 1 0.99997
1 1 1 1
0.999972 1 1 0.999972
1 1 1 1
1 1 1 1
1 1 1 1
1 1 1 1
1 1 1 1
1 1 1 1
1 1 1 1
1 1 1 1
1 1 1 1
1 1 1 1
1 1 1 1
1.00516 1.00679 1 0.998378
1.00889 1.0106 1 0.998303
1.00951 1.01102 1 0.998506
1.01138 1.0131 1 0.998298
1.01275 1.01458 1 0.9982
1.0064 1.00827 1 0.998147
1.01216 1.014 1 0.998177
1.01227 1.01403 1 0.998264
1.01113 1.01276 1 0.998394
1.01031 1.01178 1 0.99855
1.01359 1.01539 1 0.998231
1.01404 1.01568 1 0.998384
1.01373 1.01526 0.999989 0.99851
1.01181 1.01365 1 0.998183
1.01013 1.01192 1 0.998237
1.00858 1.01019 1 0.998405
0.999114 1 1 0.999114
0.999058 1 1.00018 0.99888
1.00007 1.0009 1.00085 0.998326
1.00709 1.00859 1 0.998513
1.00525 1.00659 1 0.998671
1.00348 1.00505 1 0.99844
0.999102 1 1 0.999102
0.999077 1 1 0.999077
0.999032 1 1 0.999032
0.999866 1 1 0.999866
0.999286 1 1 0.999286
0.999515 1 1 0.999515
1.01359 1.01541 1 0.998206
1.01072 1.01244 1 0.998298
1.00907 1.01063 1 0.99846
0.999031 1 1 0.999031
0.999982 1 1.0014 0.998585
1.00109 1.00198 1.0009 0.998212
1.00925 1.0106 1 0.998661
1.00404 1.00556 1 0.998484
0.999918 1 1 0.999918
0.999616 1 1 0.999616
0.999042 1 1 0.999042
0.999002 1 1 0.999002
0.999085 1 1 0.999085
0.999338 1 1 0.999338
1.01468 1.0164 1 0.998303
1.01039 1.01258 0.999439 0.998395
1.0112 1.013 0.999579 0.998638
1.00779 1.00909 1 0.998705
0.999774 1 1.00088 0.998891
1.00156 1.00198 1.0014 0.998182
1.00101 1 1.00264 0.998374
0.999964 1 1 0.999964
0.999738 1 1 0.999738
0.999623 1 1 0.999623
0.999381 1 1 0.999381
0.999163 1 1 0.999163
0.998956 1 1 0.998956
0.999067 1 1 0.999067
1.00274 1 1.00368 0.999057
0.999644 1 1 0.999644
0.999338 1 1 0.999338
1.00791 1.00933 1 0.998596
0.999084 1 1.00002 0.999065
1.00053 1 1.00159 0.998939
0.998977 1 1 0.998977
1.00013 1.0017 1 0.998428
1.00366 1.005 1 0.998659
1.00325 1 1.00469 0.998565
0.998226 1 1 0.998226
0.999402 1 1 0.999402
0.999121 1 1 0.999121
1.00281 1 1.004 0.998808
0.9989 1 1.00002 0.998885
1.01432 1.0157 0.999987 0.998656
1.00828 1.00967 0.999949 0.998669
1.00218 1.00389 1 0.998297
1.00211 1.0001 1.00377 0.998257
0.999265 1 1 0.999265
1.01487 1.01774 0.998565 0.998614
0.999267 1 1.00031 0.998957
1.0013 1 1.00267 0.998636
1.01512 1.01671 0.999689 0.998747
1.00603 1.00773 1 0.998319
1.00308 1.00173 1.00323 0.998123
0.999479 1 1 0.999479
0.999335 1 1 0.999335
0.99922 1 1 0.99922
0.999725 1 1 0.999725
0.999527 1 1 0.999527
0.999359 1 1 0.999359
0.999723 1 1 0.999723
0.999513 1 1 0.999513
0.99926 1 1 0.99926
0.999393 1 1 0.999393
0.999183 1 1 0.999183
0.999258 1 1 0.999258
0.999402 1 1 0.999402
0.999523 1 1 0.999523
0.999714 1 1 0.999714
0.999963 1 1 0.999963
0.999966 1 1 0.999966
1 1 1 1
0.999969 1 1 0.999969
1 1 1 1
1 1 1 1
1 1 1 1
1 1 1 1
1 1 1 1
0.999978 1 1 0.999978
1 1 1 1
1 1 1 1
1 1 1 1
1 1 1 1
1 1 1 1
1 1 1 1
1.01126 1.01273 1 0.998545
1.01086 1.01249 1 0.998398
1.01168 1.01344 1 0.998262
1.01208 1.01392 1 0.998182
1.01327 1.01506 1 0.99824
1.01431 1.01596 1 0.998372
1.01415 1.01566 0.999995 0.998523
1.01528 1.01696 1 0.99835
1.01718 1.01907 0.999656 0.998488
1.00844 1.01465 0.995217 0.998661
1.01418 1.01601 1 0.998208
1.01065 1.01237 1 0.9983
1.00907 1.01064 1 0.998448
0.99908 1 1.00006 0.999024
0.999901 1 1.00126 0.998641
1.00099 1.002 1.00078 0.998222
1.00959 1.01092 1 0.998677
1.00401 1.00554 1 0.998477
0.999045 1 1 0.999045
0.999028 1 1 0.999028
0.999087 1 1 0.999087
0.999939 1 1 0.999939
0.999616 1 1 0.999616
0.999323 1 1 0.999323
1.01434 1.01605 1 0.998318
0.99996 1 1 0.99996
0.999724 1 1 0.999724
1.01016 1.01218 0.999605 0.998394
1.01236 1.01398 0.999792 0.998608
0.999768 1 1.00084 0.998928
1.00164 1 1.0033 0.998341
1.00108 1.00205 1.00084 0.99819
1.0073 1.00861 1 0.998699
0.999662 1 1 0.999662
0.999379 1 1 0.999379
0.999031 1 1 0.999031
1.00097 1 1.00185 0.999125
0.998935 1 1 0.998935
0.999167 1 1 0.999167
1.01592 1.01803 0.999465 0.998461
1.01364 1.01598 0.999188 0.998513
1.01087 1.0137 0.998378 0.998834
1.00246 1.004 0.999987 0.998473
1.00123 1 1.00234 0.998884
1.00406 1.00043 1.00547 0.998162
0.999742 1 1 0.999742
0.999697 1 1 0.999697
0.999547 1 1 0.999547
0.999383 1 1 0.999383
0.999232 1 1 0.999232
0.998997 1 1 0.998997
1.00397 1 1.00512 0.998859
0.999145 1 1 0.999145
0.999393 1 1 0.999393
0.99913 1 1 0.99913
1.01405 1.01544 0.999981 0.998653
1.00788 1.00924 1 0.998656
0.998905 1 1 0.998902
1.00306 1 1.00424 0.998822
1.00275 1.00439 1.00004 0.998333
1.00177 1.0002 1.00335 0.998232
0.999262 1 1 0.999262
1.01477 1.01799 0.998207 0.998633
0.999147 1 1.00018 0.998964
1.00128 1 1.00267 0.998614
1.01492 1.01651 0.999713 0.998728
1.00673 1.00841 1 0.998342
1.00315 1.00154 1.00348 0.998132
0.999174 1 1.00009 0.999082
1.01792 1.02305 0.996156 0.998819
0.999123 1 1.00031 0.998817
1.0022 1 1.00379 0.998411
1.0072 1.01154 0.997225 0.998489
1.00197 1.00161 1.00221 0.998152
1.0059 1.00851 0.998499 0.99892
0.999335 1 1 0.999335
0.999219 1 1 0.999219
0.999127 1 1 0.999127
0.999723 1 1 0.999723
0.999514 1 1 0.999514
0.999412 1 1 0.999412
0.999244 1 1 0.999244
0.999713 1 1 0.999713
0.999514 1 1 0.999514
0.999176 1 1 0.999176
0.999401 1 1 0.999401
0.999273 1 1 0.999273
0.999167 1 1 0.999167
0.99931 1 1 0.99931
0.999405 1 1 0.999405
0.999484 1 1 0.999484
0.999672 1 1 0.999672
0.999547 1 1 0.999547
0.999675 1 1 0.999675
0.999961 1 1 0.999961
0.999963 1 1 0.999963
1 1 1 1
0.999965 1 1 0.999965
1 1 1 1
1 1 1 1
1 1 1 1
1 1 1 1
1 1 1 1
0.999985 1 1 0.999985
0.999975 1 1 0.999975
1 1 1 1
1 1 1 1
1 1 1 1
1 1 1 1
1 1 1 1
1 1 1 1
1.0145 1.01599 0.999999 0.998537
1.01462 1.01628 1 0.99836
1.01299 1.01476 1 0.99825
1.01559 1.01727 1 0.998348
1.01644 1.01834 0.999647 0.998488
1.00967 1.01511 0.995977 0.998665
1.01518 1.01843 0.998256 0.998554
1.00821 1.01596 0.993758 0.998608
1.01695 1.02374 0.994452 0.99891
0.999794 1 1 0.999794
1.01404 1.01573 1 0.998332
1.00978 1.01165 0.999754 0.998392
1.01325 1.01476 0.999926 0.998579
0.999786 1 1.00082 0.998966
1.00232 1 1.00402 0.998308
1.00093 1.00228 1.00045 0.998197
1.00679 1.00811 1 0.998693
0.998996 1 1 0.998996
0.999194 1 1 0.999194
0.998914 1 1 0.998914
0.999956 1 1 0.999956
0.999171 1 1 0.999171
0.999701 1 1 0.999701
0.999378 1 1 0.999378
0.99971 1 1 0.99971
1.01602 1.01846 0.99914 0.998466
0.99976 1 1 0.99976
0.999697 1 1 0.999697
0.999517 1 1 0.999517
1.01398 1.0165 0.999004 0.998517
1.01008 1.01271 0.998615 0.998792
1.00051 1 1.00161 0.998899
1.00388 1.00019 1.00553 0.998161
1.0026 1.00399 1.00014 0.998477
0.999403 1 1 0.999403
0.999222 1 1 0.999222
1.00025 1 1.00115 0.999099
1.00324 1 1.00436 0.998891
0.999014 1 1 0.999014
1.01283 1.01721 0.997159 0.998528
1.01299 1.01735 0.997083 0.998634
1.00615 1.00884 0.998704 0.998622
1.00419 1.00257 1.00327 0.998353
1.00359 1 1.00478 0.998823
0.999518 1 1 0.999518
0.999442 1 1 0.999442
0.999361 1 1 0.999361
0.999235 1 1 0.999235
0.999097 1 1 0.999097
1.00165 1 1.00275 0.9989
1.00616 1 1.00737 0.998799
0.999259 1 1 0.999259
0.999061 1 1.00009 0.998971
1.01468 1.01812 0.99797 0.998651
1.01455 1.01617 0.999698 0.998709
1.00713 1.00878 1 0.998365
1.00125 1 1.00266 0.998594
1.00304 1.0013 1.0036 0.998141
0.99918 1 1.00007 0.999105
1.01775 1.0234 0.995652 0.998823
0.999158 1 1.00033 0.998829
1.00247 1 1.00406 0.998422
1.00807 1.01174 0.99784 0.998536
1.00247 1.00164 1.00269 0.998142
1.00648 1.00911 0.998677 0.998712
0.999058 1 1.00008 0.998978
1.00335 1.0143 0.990398 0.998798
1.00056 1 1.00178 0.998783
1.00469 1 1.00636 0.998342
1.00244 1.00308 1.00104 0.998322
0.959735 0.972808 0.994629 0.991889
0.9915 0.991391 1.00375 0.996377
0.983396 1.00267 0.981703 0.999056
0.904516 0.929208 0.979994 0.993299
0.888466 0.938753 0.952804 0.993312
0.999217 1 1 0.999217
0.999136 1 1 0.999136
0.999133 1 1 0.999133
0.999713 1 1 0.999713
0.999504 1 1 0.999504
0.9994 1 1 0.9994
0.999289 1 1 0.999289
0.999169 1 1 0.999169
0.999389 1 1 0.999389
0.999688 1 1 0.999688
0.999496 1 1 0.999496
0.999173 1 1 0.999173
0.999307 1 1 0.999307
0.999316 1 1 0.999316
0.999242 1 1 0.999242
0.999353 1 1 0.999353
0.999463 1 1 0.999463
0.999669 1 1 0.999669
0.99951 1 1 0.99951
0.999408 1 1 0.999408
0.999519 1 1 0.999519
0.999525 1 1 0.999525
0.999708 1 1 0.999708
0.999674 1 1 0.999674
0.999959 1 1 0.999959
0.99996 1 1 0.99996
1 1 1 1
0.999962 1 1 0.999962
1 1 1 1
1 1 1 1
1 1 1 1
1 1 1 1
1 1 1 1
0.999989 1 1 0.999989
0.999984 1 1 0.999984
1 1 1 1
0.999972 1 1 0.999972
1 1 1 1
1 1 1 1
1 1 1 1
1 1 1 1
1 1 1 1
1.01578 1.01769 0.999642 0.998487
1.0158 1.01749 1 0.998346
1.01075 1.01552 0.996634 0.998668
1.00862 1.01572 0.994368 0.998635
1.01475 1.01803 0.998224 0.998554
1.01849 1.02474 0.995037 0.998861
1.02133 1.02474 0.99814 0.998529
0.974279 0.984914 0.993467 0.995708
1.01478 1.01935 0.99666 0.998847
0.999804 1 1 0.999804
0.999794 1 1 0.999794
0.99958 1 1 0.99958
0.999604 1 1 0.999604
1.01624 1.01892 0.998892 0.998472
1.01455 1.0171 0.998967 0.99852
1.00954 1.0118 0.999008 0.998751
0.999685 1 1.00077 0.998913
1.00351 1 1.00536 0.99816
1.00286 1.00425 1.00013 0.998482
1.00136 1 1.00231 0.999051
1.00248 1 1.00356 0.998923
0.999031 1 1 0.999031
0.999696 1 1 0.999696
0.999211 1 1 0.999211
0.999423 1 1 0.999423
0.999778 1 1 0.999778
0.999488 1 1 0.999488
1.0114 1.01526 0.997656 0.998544
0.999549 1 1 0.999549
0.999459 1 1 0.999459
0.99936 1 1 0.99936
1.01469 1.01861 0.997505 0.998646
1.00487 1.00788 0.998394 0.998618
1.00348 1 1.00467 0.998819
1.00393 1.00275 1.00284 0.998339
0.999239 1 1 0.999239
0.999105 1 1 0.999105
1.00551 1 1.00672 0.998799
1.00251 1 1.00364 0.998881
1.01778 1.0218 0.997515 0.998546
1.00038 1.01364 0.988268 0.998632
1.00397 1.00491 1.00073 0.99834
1.00177 1 1.00306 0.998705
0.999303 1 1 0.999303
0.999281 1 1 0.999281
0.999286 1 1.00024 0.999044
1.00989 1 1.01123 0.998677
0.949553 0.970452 0.986726 0.991627
0.999143 1 1.00001 0.999128
0.999245 1 1.0004 0.998841
1.01703 1.02357 0.994776 0.998826
1.00905 1.01193 0.99857 0.998584
1.00319 1.00176 1.0033 0.998133
1.00289 1 1.00447 0.998433
1.00661 1.00952 0.99862 0.998501
0.99922 1 1.00023 0.998995
1.00258 1.01388 0.99006 0.998785
1.00013 1 1.00134 0.99879
1.00445 1 1.00611 0.998344
1.00265 1.00408 1.00023 0.998337
0.957515 0.97243 0.992591 0.992012
0.987157 0.990139 1.00179 0.995206
0.985667 1.00203 0.984549 0.999106
0.908971 0.930377 0.983932 0.992948
0.876497 0.929569 0.949755 0.992789
0.999527 1 1.00047 0.999055
0.918471 0.938693 0.985689 0.992663
0.918279 0.942891 0.979959 0.993814
0.979794 1.00471 0.976382 0.998787
1.00451 1 1.00571 0.99881
1.0092 1.00058 1.01015 0.998492
0.985629 0.999655 0.986728 0.99923
0.965313 0.972869 1.00072 0.991521
0.983671 0.983034 1.00582 0.99486
0.891616 0.930832 0.964431 0.993196
0.923853 0.96623 0.961235 0.994701
0.999146 1 1 0.999146
0.999131 1 1 0.999131
0.999234 1 1 0.999234
0.999704 1 1 0.999704
0.999508 1 1 0.999508
0.999373 1 1 0.999373
0.999304 1 1 0.999304
0.99918 1 1 0.99918
0.999669 1 1 0.999669
0.999316 1 1 0.999316
0.999369 1 1 0.999369
0.999481 1 1 0.999481
0.999234 1 1 0.999234
0.999269 1 1 0.999269
0.999443 1 1.0002 0.999246
0.999355 1 1 0.999355
0.999495 1 1 0.999495
0.999509 1 1 0.999509
0.999393 1 1 0.999393
0.999376 1 1 0.999376
0.999384 1 1 0.999384
0.999325 1 1 0.999325
0.999286 1 1 0.999286
0.999499 1 1 0.999499
0.999519 1 1 0.999519
0.999707 1 1 0.999707
0.999502 1 1 0.999502
0.999695 1 1 0.999695
0.999959 1 1 0.999959
0.999673 1 1 0.999673
0.999959 1 1 0.999959
1 1 1 1
0.99996 1 1 0.99996
1 1 1 1
1 1 1 1
1 1 1 1
1 1 1 1
1 1 1 1
0.999797 1 1 0.999797
0.999989 1 1 0.999989
0.999988 1 1 0.999988
1 1 1 1
0.999982 1 1 0.999982
1 1 1 1
1 1 1 1
1 1 1 1
1 1 1 1
1 1 1 1
1.00985 1.01579 0.995482 0.998663
1.0143 1.01774 0.998072 0.998553
1.02064 1.02592 0.996037 0.998813
0.97631 0.984237 0.99556 0.99637
1.01399 1.01907 0.996118 0.998892
1.02212 1.02619 0.997519 0.998513
1.01855 1.02294 0.997069 0.998642
0.979284 0.986526 0.996043 0.996602
0.959355 0.973465 0.994593 0.990862
0.88938 0.924068 0.970141 0.992084
0.87891 0.924156 0.957589 0.993162
0.999571 1 1 0.999571
0.999803 1 1 0.999803
0.999793 1 1 0.999793
0.999571 1 1 0.999571
0.999436 1 1 0.999436
0.999468 1 1 0.999468
0.999582 1 1 0.999582
0.99959 1 1 0.99959
1.00969 1.01318 0.997988 0.99856
1.01653 1.02028 0.997667 0.998658
1.00363 1.00693 0.998109 0.998614
1.0035 1 1.00469 0.998815
1.00373 1.00268 1.00272 0.998325
1.00491 1 1.00612 0.9988
1.00349 1 1.00464 0.998861
0.999113 1 1 0.999113
0.999475 1 1 0.999475
0.999242 1 1 0.999242
0.99958 1 1 0.99958
0.999359 1 1 0.999359
1.01823 1.0225 0.997296 0.998523
0.99932 1 1 0.99932
0.999283 1 1 0.999283
1.00166 1.01215 0.991007 0.99862
1.00381 1.00546 0.999947 0.998411
1.00339 1 1.00473 0.99866
0.999611 1 1.00058 0.999035
1.00873 1 1.01006 0.998681
1.01514 1.02136 0.995428 0.998476
0.986388 1.004 0.983836 0.998599
0.999606 1 1.00103 0.998576
1.00692 1 1.00822 0.998708
0.999218 1 1 0.999218
0.999145 1 1.00003 0.999113
1.00344 1 1.00459 0.998853
0.908345 0.939612 0.973577 0.992961
0.95584 0.971846 0.991234 0.992229
0.999339 1 1.00033 0.999012
0.999822 1 1.00103 0.998797
1.0027 1.01387 0.990194 0.998773
1.00293 1.00522 0.999373 0.998352
1.00405 1 1.00571 0.998346
0.958808 0.973217 0.994371 0.990771
0.98795 0.991771 1.0002 0.995945
0.988376 1.00163 0.987598 0.999154
0.904092 0.932011 0.97733 0.992545
0.864148 0.919403 0.947229 0.992264
0.999374 1 1.00032 0.999054
0.913246 0.941543 0.9767 0.993085
0.917648 0.940208 0.982237 0.993654
0.982537 1.00548 0.978385 0.998776
1.00396 1 1.00514 0.998824
1.00858 1.00035 1.00969 0.998551
0.978941 0.996953 0.98267 0.999251
0.965942 0.974543 1.00018 0.990997
0.983896 0.984837 1.00308 0.995981
0.893392 0.927853 0.970424 0.992205
0.922591 0.966303 0.960146 0.994394
1.00048 1 1.00135 0.999139
0.936092 0.945704 0.995077 0.994733
0.984604 0.986842 1.00105 0.996682
0.987521 1.00062 0.98779 0.999112
1.00967 1.00005 1.01051 0.999114
1.00184 0.994805 1.00749 0.99958
0.976374 0.981894 0.997333 0.997038
0.967037 0.9691 1.00685 0.991079
0.915973 0.952413 0.969255 0.992246
0.945869 0.9837 0.965621 0.995776
0.999129 1 1 0.999129
0.999212 1 1 0.999212
0.999765 1 1.00042 0.999344
0.999669 1 1 0.999669
0.999499 1 1 0.999499
0.999386 1 1 0.999386
0.999316 1 1 0.999316
0.999226 1 1 0.999226
0.999494 1 1 0.999494
0.99928 1 1 0.99928
0.999354 1 1 0.999354
0.999499 1 1.00024 0.999254
0.999883 1 1.00055 0.999329
0.999357 1 1.00009 0.99927
0.999355 1 1 0.999355
0.999509 1 1 0.999509
0.999378 1 1 0.999378
0.999376 1 1 0.999376
0.999383 1 1 0.999383
0.999324 1 1 0.999324
0.999351 1 1 0.999351
0.999306 1 1 0.999306
0.999292 1 1 0.999292
0.999142 1 1 0.999142
0.999656 1 1.00067 0.998987
0.9992 1 1 0.9992
0.999284 1 1 0.999284
0.999459 1 1 0.999459
0.999498 1 1 0.999498
0.999698 1 1 0.999698
0.999519 1 1 0.999519
0.999707 1 1 0.999707
0.999959 1 1 0.999959
0.999681 1 1 0.999681
0.999959 1 1 0.999959
1 1 1 1
0.999959 1 1 0.999959
1 1 1 1
1 1 1 1
1 1 1 1
1 1 1 1
1 1 1 1
0.999813 1 1 0.999813
0.999987 1 1 0.999987
0.999796 1 1 0.999796
1 1 1 1
0.999989 1 1 0.999989
0.999987 1 1 0.999987
1 1 1 1
1 1 1 1
1 1 1 1
1 1 1 1
1 1 1 1
0.911557 0.936055 0.980469 0.993228
0.924494 0.944088 0.984882 0.994278
0.979159 0.985009 0.997221 0.996831
1.01369 1.01871 0.996127 0.998937
1.02292 1.02753 0.997017 0.998497
0.978722 0.984872 0.996078 0.997668
1.01947 1.02281 0.99807 0.998655
0.960963 0.974216 0.994343 0.992009
0.901805 0.928436 0.978094 0.993071
0.869653 0.920905 0.951357 0.992631
0.997488 1.00009 0.999033 0.998363
0.964026 0.972367 0.999528 0.99189
0.885995 0.927604 0.961822 0.993056
0.922121 0.963039 0.96328 0.994012
0.999385 1 1 0.999385
0.999583 1 1 0.999583
0.999803 1 1 0.999803
0.999562 1 1 0.999562
0.999453 1 1 0.999453
0.999412 1 1 0.999412
0.999468 1 1 0.999468
0.999502 1 1 0.999502
0.999565 1 1 0.999565
0.999577 1 1 0.999577
1.01871 1.0231 0.997202 0.998501
1.00195 1.00991 0.993494 0.998607
1.00362 1.00603 0.999119 0.998482
1.00481 1 1.00621 0.998615
1.00715 1 1.00847 0.998686
0.999911 1 1.00089 0.999027
0.999284 1 1 0.999284
0.999337 1 1 0.999337
1.01377 1.02144 0.99402 0.99846
0.999212 1 1 0.999212
0.999127 1 1.00003 0.999095
0.988019 1.00373 0.985782 0.99855
0.999972 1 1.00133 0.998641
1.0062 1 1.00756 0.998655
1.0039 1 1.00506 0.998839
1.00438 1.00868 0.997076 0.998655
0.993746 1 0.99475 0.99899
1.00768 1 1.00891 0.99878
0.999201 1 1 0.999201
0.999091 1 1.00001 0.999086
0.999493 1 1.00055 0.998939
0.936869 0.948525 0.992491 0.995184
0.913747 0.939332 0.980155 0.992457
0.952881 0.972972 0.987643 0.991604
0.999054 1 1 0.999054
1.00334 1 1.00451 0.998837
0.985239 1.00604 0.980537 0.998765
1.00788 1 1.00929 0.99861
0.91056 0.939989 0.976127 0.992383
0.965169 0.973461 0.999027 0.992448
0.982224 0.986097 1.00116 0.994918
0.976303 0.994915 0.982002 0.999278
0.896437 0.927632 0.97311 0.993075
0.919291 0.943302 0.980896 0.993527
0.918084 0.964615 0.957381 0.99413
1.00089 1 1.00175 0.999139
0.935096 0.947599 0.991997 0.994767
0.985962 0.987766 1.00151 0.99667
0.990004 1.00027 0.990583 0.999151
1.00941 0.999932 1.01038 0.999106
1.00142 0.99603 1.0062 0.999222
0.977016 0.98101 1.0004 0.995528
0.964206 0.970409 1.00247 0.991165
0.919204 0.95585 0.968047 0.993403
0.938804 0.977448 0.964786 0.99552
1.00142 0.999996 1.00193 0.999494
0.985045 0.987512 0.999953 0.997549
0.990211 0.987732 1.00451 0.998009
1.00987 0.998967 1.0112 0.999715
0.988657 0.984458 1.00588 0.998399
0.968895 0.970549 1.00755 0.990817
0.948233 0.970599 0.983123 0.993728
0.948444 0.989863 0.96262 0.995362
0.999191 1 1 0.999191
0.999707 1 1.00036 0.999352
1.00075 1 1.0013 0.999451
0.999494 1 1 0.999494
0.999353 1 1 0.999353
0.999291 1 1 0.999291
0.999543 1 1.00028 0.999262
0.999355 1 1 0.999355
0.999299 1 1.00003 0.999268
1.00028 1 1.00093 0.999348
1.00031 1 1.00086 0.999456
0.999514 1 1.00021 0.999302
0.999286 1 1 0.999286
0.999376 1 1 0.999376
0.999382 1 1 0.999382
0.999323 1 1 0.999323
0.999309 1 1 0.999309
0.999349 1 1 0.999349
0.999296 1 1 0.999296
0.999246 1 1 0.999246
0.999294 1 1 0.999294
0.99913 1 1 0.99913
0.999154 1 1 0.999154
0.999697 1 1.00067 0.999023
1.00001 1 1.00122 0.998797
0.999163 1 1 0.999163
0.999502 1 1.00047 0.999036
0.999224 1 1 0.999224
0.99937 1 1 0.99937
0.999282 1 1 0.999282
0.999457 1 1 0.999457
0.999675 1 1 0.999675
0.999497 1 1 0.999497
0.999698 1 1 0.999698
0.999957 1 1 0.999957
0.999707 1 1 0.999707
0.999958 1 1 0.999958
1 1 1 1
0.999959 1 1 0.999959
1 1 1 1
1 1 1 1
1 1 1 1
1 1 1 1
1 1 1 1
0.999742 1 1 0.999742
0.999984 1 1 0.999984
0.999781 1 1 0.999781
1 1 1 1
0.999988 1 1 0.999988
0.999796 1 1 0.999796
1 1 1 1
1 1 1 1
0.999989 1 1 0.999989
1 1 1 1
1 1 1 1
1 1 1 1
0.94008 0.949264 0.995053 0.995248
0.911995 0.937824 0.979648 0.992662
0.985719 0.989279 0.99983 0.996571
0.916744 0.938641 0.982548 0.994019
0.974628 0.983685 0.994503 0.996269
1.0196 1.0227 0.998296 0.998667
0.960836 0.974737 0.992521 0.993166
0.901797 0.931428 0.975773 0.992226
0.8613 0.91845 0.945244 0.992099
0.994833 0.998979 0.998017 0.997829
0.965815 0.972424 1.00199 0.991235
0.891582 0.931801 0.964524 0.99203
0.919153 0.961573 0.961833 0.993815
0.991313 0.995183 0.998456 0.997652
0.969327 0.969725 1.00879 0.990882
0.919025 0.956818 0.966995 0.993285
0.944094 0.98454 0.963439 0.995308
0.999282 1 1 0.999282
0.999403 1 1 0.999403
0.999596 1 1 0.999596
0.999471 1 1 0.999471
0.999309 1 1 0.999309
0.999424 1 1 0.999424
0.999468 1 1 0.999468
0.999485 1 1 0.999485
0.999521 1 1 0.999521
0.999548 1 1 0.999548
1.01283 1.02218 0.992394 0.998445
0.990674 1.00382 0.988388 0.998501
1.0003 1 1.00159 0.998706
1.00595 1 1.00736 0.998602
1.00453 1 1.00571 0.998825
0.999094 1 1.00002 0.999078
0.999206 1 1 0.999206
0.999203 1 1 0.999203
0.998984 1.00766 0.992707 0.998674
0.999097 1 1 0.999097
0.999718 1 1.00078 0.998934
0.991913 1 0.992968 0.998937
1.00644 1 1.00767 0.998774
0.980278 0.999088 0.982061 0.999095
1.00943 1 1.01013 0.999303
1.00078 1 1.00184 0.998944
0.999121 1 1 0.999121
0.999371 1 1.00043 0.998943
0.982718 0.984928 0.999768 0.997988
0.939605 0.948565 0.995179 0.995353
0.91141 0.938336 0.977848 0.993308
1.00139 1 1.00225 0.999138
1.00925 0.999782 1.01039 0.999098
0.991007 1 0.991814 0.999186
0.9415 0.950495 0.995351 0.995163
0.970992 0.970431 1.00984 0.990828
0.978731 0.982127 0.99992 0.996623
0.99465 0.995477 1.00033 0.998837
0.918218 0.95331 0.970727 0.992235
0.986552 0.987843 1.00204 0.996659
0.933822 0.973209 0.96379 0.995579
1.00151 0.999869 1.00215 0.999493
0.984169 0.986209 1.00009 0.997836
0.992968 0.990114 1.00487 0.99802
1.00977 0.999189 1.01101 0.999585
0.987741 0.984396 1.00545 0.997963
0.971247 0.973446 1.00727 0.990537
0.949375 0.992972 0.960177 0.995747
0.934134 0.962608 0.977143 0.993119
1.0031 0.998961 1.00444 0.999711
0.989549 0.989929 1.00033 0.999284
1.00131 0.998058 1.00501 0.998253
0.946356 0.985752 0.964551 0.995318
1.00009 0.986524 1.01423 0.999526
0.97788 0.975621 1.01118 0.991232
0.92548 0.946782 0.983794 0.993603
0.999627 1 1.00027 0.99936
1.0005 1 1.00109 0.999413
1.00312 1 1.00355 0.999566
0.999355 1 1 0.999355
0.999265 1 1 0.999265
1.00074 1 1.00138 0.999367
0.999288 1 1 0.999288
0.999629 1 1.00033 0.999304
1.00069 1 1.00126 0.999429
0.99985 1 1.00035 0.999496
0.999285 1 1 0.999285
0.999312 1 1 0.999312
0.999348 1 1 0.999348
0.9993 1 1 0.9993
0.99929 1 1 0.99929
0.999254 1 1 0.999254
0.999549 1 1.00029 0.999258
0.999174 1 1 0.999174
1.00136 1 1.00252 0.998841
0.999166 1 1 0.999166
0.999547 1 1.00054 0.999011
0.999639 1 1.00098 0.998659
0.999914 1 1.00114 0.998777
0.999159 1 1.00009 0.999074
0.99985 1 1.00105 0.998806
0.99931 1 1 0.99931
0.999143 1 1 0.999143
0.999333 1 1.00025 0.999085
0.999247 1 1 0.999247
0.99939 1 1 0.99939
0.999632 1 1 0.999632
0.999456 1 1 0.999456
0.999674 1 1 0.999674
0.999952 1 1 0.999952
0.999697 1 1 0.999697
0.999956 1 1 0.999956
1 1 1 1
0.999958 1 1 0.999958
1 1 1 1
1 1 1 1
1 1 1 1
1 1 1 1
1 1 1 1
0.999648 1 1 0.999648
0.999933 1 1 0.999933
0.99974 1 1 0.99974
1 1 1 1
0.999965 1 1 0.999965
0.999748 1 1 0.999748
1 1 1 1
1 1 1 1
0.999989 1 1 0.999989
1 1 1 1
1 1 1 1
1 1 1 1
0.983167 0.985666 0.999662 0.997802
0.932269 0.947947 0.988523 0.99488
0.912929 0.935962 0.982842 0.992419
0.999428 1 1 0.999428
0.987214 0.985067 1.00392 0.998264
0.986966 0.989223 1.00116 0.996563
0.910019 0.937598 0.976657 0.993784
0.993616 0.998869 0.997499 0.997236
0.970046 0.974363 1.00384 0.991765
0.896987 0.93826 0.962842 0.992905
0.913706 0.958281 0.959573 0.993654
0.993352 0.996995 1.0002 0.99615
0.963245 0.967177 1.00471 0.99127
0.923982 0.957682 0.971684 0.992926
0.943204 0.983863 0.963454 0.995039
0.982266 0.985329 1.00171 0.995192
0.973619 0.96739 1.01677 0.98984
0.934239 0.963998 0.976208 0.99275
0.94673 0.988972 0.961753 0.995356
0.99919 1 1 0.99919
0.999272 1 1 0.999272
0.999422 1 1 0.999422
0.999302 1 1 0.999302
0.999331 1 1 0.999331
0.999437 1 1 0.999437
0.99949 1 1 0.99949
0.999539 1 1 0.999539
0.993099 1.00622 0.98825 0.998692
0.989637 1 0.990743 0.998884
0.999206 1 1 0.999206
1.00507 1 1.00631 0.998767
1.00031 1 1.00138 0.998928
0.999108 1 1 0.999108
0.999125 1 1 0.999125
0.985635 1.00117 0.985367 0.999104
0.999422 1 1.00045 0.998969
1.00159 1 1.00265 0.998942
1.0048 1 1.00549 0.999314
0.999148 1 1 0.999148
0.978704 0.992509 0.986579 0.999505
1.01228 0.999208 1.01363 0.999454
0.999414 1 1.00037 0.999043
0.999084 1 1 0.999084
0.989481 0.990685 0.99935 0.999435
0.982506 0.984709 0.999741 0.998022
0.943356 0.948961 0.99856 0.995527
1.00143 0.999824 1.00211 0.999494
1.01067 0.999517 1.01171 0.999456
0.983212 0.985066 0.999995 0.998123
0.975998 0.971608 1.01357 0.991072
0.985801 0.981664 1.0079 0.996339
0.938175 0.96539 0.979147 0.992507
0.995222 0.991957 1.00527 0.998032
0.95193 0.997535 0.957989 0.996131
1.00345 0.999147 1.00463 0.999678
0.988174 0.988922 0.999948 0.999295
1.00011 0.996802 1.00476 0.998561
1.00764 0.992645 1.01518 0.999927
0.944231 0.984862 0.963527 0.995037
0.973933 0.972777 1.0101 0.991178
0.933799 0.959673 0.98039 0.992501
1.00733 0.996161 1.01144 0.999771
0.998883 0.998256 1.00111 0.999516
0.987964 0.986719 1.00299 0.998273
0.922777 0.964806 0.96217 0.994042
0.933621 0.965989 0.973672 0.992626
0.988596 0.983023 1.0061 0.999573
0.978932 0.969322 1.01977 0.990337
1.00027 1 1.00089 0.999375
1.00214 0.999909 1.00268 0.99955
1.00668 0.99455 1.01262 0.999582
0.999291 1 1 0.999291
0.999673 1 1.00037 0.999307
1.00094 1 1.00154 0.999403
0.99928 1 1 0.99928
0.99993 1 1.00043 0.999497
1.00487 0.999378 1.00615 0.999348
0.999287 1 1 0.999287
0.999262 1 1 0.999262
1.00005 1 1.00082 0.999232
1.00607 1 1.00714 0.998932
0.999218 1 1 0.999218
1.00083 1 1.00193 0.998894
1.00266 1 1.00413 0.998537
1.00032 1 1.00188 0.998446
0.999382 1 1.00038 0.998999
0.999705 1 1.00109 0.998621
0.999377 1 1.00053 0.998853
1 1 1.00102 0.998983
0.999811 1 1.001 0.998809
0.999246 1 1 0.999246
0.999221 1 1.00015 0.99907
0.999738 1 1.00092 0.998814
0.999567 1 1 0.999567
0.999303 1 1 0.999303
0.999123 1 1 0.999123
0.99941 1 1 0.99941
0.99963 1 1 0.99963
0.99994 1 1 0.99994
0.999673 1 1 0.999673
0.999949 1 1 0.999949
1 1 1 1
0.999954 1 1 0.999954
1 1 1 1
1 1 1 1
1 1 1 1
1 1 1 1
1 1 1 1
0.999611 1 1 0.999611
0.999902 1 1 0.999902
0.999666 1 1 0.999666
1 1 1 1
0.999932 1 1 0.999932
0.999739 1 1 0.999739
1 1 1 1
1 1 1 1
0.999947 1 1 0.999947
1 1 1 1
1 1 1 1
1 1 1 1
0.986716 0.987416 1.00002 0.999275
0.982876 0.985324 0.999705 0.997809
0.932457 0.948735 0.987868 0.994913
0.999436 1 1 0.999436
0.999399 1 1 0.999399
0.999322 1 1 0.999322
1.00056 0.996678 1.00565 0.998252
0.988331 0.985916 1.00418 0.998281
0.987964 0.989196 1.00221 0.996554
0.999381 0.997438 1.00462 0.997336
0.964789 0.968026 1.00576 0.990952
0.919028 0.952953 0.971898 0.992285
0.945622 0.98614 0.963642 0.995092
0.977775 0.980447 1.00078 0.996496
0.968846 0.96708 1.01106 0.990867
0.932505 0.958612 0.978876 0.993758
0.948951 0.99256 0.960151 0.995743
0.9689 0.97496 0.997728 0.996047
0.98111 0.972293 1.01823 0.991007
0.926087 0.945802 0.985433 0.993629
0.944803 0.982397 0.965844 0.995743
0.999181 1 1 0.999181
0.999188 1 1 0.999188
0.999262 1 1 0.999262
0.9993 1 1 0.9993
0.999353 1 1 0.999353
0.999495 1 1 0.999495
0.991676 1.00319 0.989398 0.999112
1.0003 1 1.00097 0.999324
0.999128 1 1 0.999128
1.0018 1 1.00286 0.998939
0.99938 1 1.00038 0.998996
0.999135 1 1 0.999135
0.99909 1 1 0.99909
0.988779 0.995471 0.993777 0.999498
0.999486 1 1.00039 0.999093
1.00849 0.996609 1.01244 0.99948
0.999172 1 1 0.999172
1.00457 0.987587 1.01746 0.999745
0.993737 0.993702 1.00044 0.9996
0.999196 1 1 0.999196
1.00167 1.00247 0.999502 0.9997
0.989376 0.990549 0.999306 0.999509
0.982424 0.984481 0.999855 0.998055
1.00374 0.999339 1.00476 0.999644
1.00285 0.994068 1.00906 0.999783
0.987037 0.988127 0.99959 0.999306
0.979433 0.973237 1.01272 0.993726
0.938641 0.958538 0.985283 0.993869
0.998956 0.995661 1.00444 0.99887
0.946367 0.987105 0.963446 0.995105
1.00694 0.997138 1.01005 0.999788
0.998959 0.998418 1.00097 0.999575
0.989324 0.987565 1.0035 0.998289
0.98733 0.9795 1.01031 0.997707
0.919995 0.963276 0.960972 0.993856
0.930149 0.961547 0.97355 0.993627
0.989427 0.974975 1.024 0.991037
1.01178 0.986522 1.02574 0.99987
0.987324 0.988086 0.999943 0.999286
0.986748 0.990699 0.999406 0.996604
0.878112 0.924158 0.956647 0.993235
0.91995 0.957282 0.967472 0.993313
0.982122 0.974059 1.01748 0.990957
0.961911 0.973838 0.990748 0.996977
1.00094 0.999718 1.00169 0.999534
1.00937 0.996153 1.01369 0.999586
1.01903 0.999307 1.02022 0.999529
0.999276 1 1 0.999276
1.00005 1 1.00055 0.999497
1.0043 0.999723 1.0052 0.99938
1.01512 1 1.01605 0.999086
1.00051 1 1.0013 0.999207
1.00616 1 1.0073 0.998874
1.01226 1 1.01383 0.998445
1.00039 1 1.00145 0.998947
1.00347 1 1.00496 0.998525
1.00326 1 1.00506 0.998212
1.00044 1.00035 1.00191 0.998188
0.999752 1 1.00108 0.998676
1.00031 1 1.00189 0.998423
0.999802 1 1.00122 0.998582
0.999873 1 1.0009 0.998973
0.999377 1 1.00048 0.998898
0.999728 1 1.00061 0.999119
1.00003 1 1.00103 0.999006
0.999662 1 1.00082 0.998841
0.999478 1 1 0.999478
0.999248 1 1 0.999248
0.99927 1 1.0002 0.999067
0.999912 1 1 0.999912
0.999566 1 1 0.999566
0.999296 1 1 0.999296
0.999629 1 1 0.999629
0.999936 1 1 0.999936
1 1 1 1
0.999947 1 1 0.999947
1 1 1 1
1 1 1 1
1 1 1 1
1 1 1 1
1 1 1 1
0.999609 1 1 0.999609
0.999922 1 1 0.999922
0.999624 1 1 0.999624
1 1 1 1
0.999925 1 1 0.999925
0.999685 1 1 0.999685
1 1 1 1
1 1 1 1
0.99993 1 1 0.99993
1 1 1 1
1 1 1 1
1 1 1 1
0.999714 0.998196 1.00201 0.999514
0.988808 0.988779 1.00074 0.999287
0.982929 0.984903 1.00018 0.99782
0.999381 1 1 0.999381
0.999292 1 1 0.999292
0.999444 1 1 0.999444
0.999397 1 1 0.999397
0.999307 1 1 0.999307
0.999305 1 1 0.999305
0.999236 1 1 0.999236
0.990091 0.987066 1.00508 0.997998
0.998507 0.994976 1.005 0.998561
0.989439 0.986751 1.00443 0.998298
0.952607 0.997246 0.958948 0.996131
0.971969 0.976722 0.999831 0.995303
0.974806 0.971061 1.01201 0.99194
0.93473 0.954432 0.986739 0.992519
0.968827 0.975513 0.997678 0.995457
0.973107 0.968404 1.01424 0.990744
0.93563 0.960034 0.981724 0.992723
0.93871 0.977468 0.964712 0.995477
0.961036 0.971583 0.992363 0.996757
0.971064 0.970619 1.01001 0.990547
0.951363 0.973064 0.983863 0.993734
0.922081 0.965177 0.960516 0.994621
0.999216 1 1 0.999216
0.999181 1 1 0.999181
0.999186 1 1 0.999186
0.999298 1 1 0.999298
0.99763 0.998386 0.999751 0.999492
1.00518 0.994342 1.0114 0.999505
0.999121 1 1 0.999121
0.999097 1 1 0.999097
0.999738 1 1.00059 0.999144
0.999167 1 1 0.999167
0.999183 1 1 0.999183
1.00004 0.986085 1.01469 0.999465
0.994927 0.994818 1.00044 0.999672
0.999222 1 1 0.999222
1.00612 0.982828 1.02419 0.999516
1.00158 0.996982 1.00525 0.999375
0.989813 0.990605 0.999753 0.999447
1.00024 1.00103 0.999468 0.999745
0.989357 0.990432 0.999332 0.999582
1.0069 0.998246 1.00886 0.999805
0.98878 0.979493 1.00994 0.999548
0.998859 0.998413 1.00081 0.999635
0.977439 0.968967 1.01843 0.990488
0.933273 0.95693 0.982761 0.992386
0.99067 0.988434 1.00396 0.998306
0.915326 0.959801 0.95971 0.993699
1.01565 0.987519 1.02863 0.999864
0.988928 0.989176 1.00045 0.999297
0.987933 0.990657 1.00066 0.996595
0.965414 0.976034 0.990406 0.998701
0.870373 0.921614 0.951338 0.992708
0.921511 0.956478 0.970321 0.992911
0.984573 0.973273 1.02055 0.99124
1.00096 0.985537 1.01601 0.999646
0.984871 0.986977 1.00004 0.99783
0.925744 0.9451 0.985081 0.994354
0.888165 0.927876 0.963817 0.993137
0.975706 0.968831 1.01619 0.991052
0.95598 0.971902 0.987699 0.995867
1.0128 0.998366 1.01487 0.99959
1.01849 0.997877 1.02114 0.999522
1.01311 1 1.01372 0.999396
1.00375 1 1.00435 0.999411
1.01512 0.999857 1.01615 0.99913
1.0095 1 1.01093 0.998587
1.00637 1 1.00756 0.998816
1.01171 1 1.01332 0.998407
1.00605 1.00014 1.00779 0.998132
1.00423 1 1.00572 0.998513
1.00339 1 1.00522 0.998177
1.0026 1.00127 1.00327 0.998057
0.999756 1.00159 1 0.998169
0.999127 1 1.00077 0.998362
1.00052 1.0002 1.00218 0.998149
0.998972 1 1.00013 0.998846
0.999448 1 1.00074 0.998706
1.00029 1 1.0019 0.998401
0.999582 1 1.00057 0.999014
0.999946 1 1.00098 0.998965
0.999368 1 1.00043 0.998943
0.999354 1 1 0.999354
0.999559 1 1.00042 0.999141
1.00007 1 1.00105 0.999029
0.999846 1 1 0.999846
0.999478 1 1 0.999478
0.99925 1 1 0.99925
1 1 1 1
0.999907 1 1 0.999907
0.999566 1 1 0.999566
0.999932 1 1 0.999932
1 1 1 1
1 1 1 1
1 1 1 1
1 1 1 1
1 1 1 1
0.999378 1 1 0.999378
0.999578 1 1 0.999578
0.999903 1 1 0.999903
0.999608 1 1 0.999608
1 1 1 1
0.999926 1 1 0.999926
0.999637 1 1 0.999637
1 1 1 1
1 1 1 1
0.999948 1 1 0.999948
1 1 1 1
1 1 1 1
1 1 1 1
0.990018 0.989275 1.00146 0.999295
0.999523 0.998179 1.00177 0.999574
0.990706 0.990162 1.00125 0.999299
0.999389 1 1 0.999389
0.999281 1 1 0.999281
0.999229 1 1 0.999229
0.999281 1 1 0.999281
0.999218 1 1 0.999218
0.999395 1 1 0.999395
0.999292 1 1 0.999292
0.999306 1 1 0.999306
0.999231 1 1 0.999231
0.999254 1 1 0.999254
0.982981 0.985373 1.00094 0.996633
0.9923 0.988964 1.00537 0.998012
0.996331 0.993126 1.00436 0.998869
0.934796 0.974391 0.96366 0.995543
0.936921 0.955802 0.986226 0.993936
0.960443 0.969589 0.995748 0.994798
0.977597 0.975 1.01187 0.990906
0.962715 0.972367 0.994774 0.995275
0.983455 0.977662 1.01522 0.990844
0.937203 0.96511 0.977701 0.993231
0.921602 0.965562 0.959944 0.9943
0.978862 0.977495 1.00543 0.995988
0.973944 0.974391 1.00849 0.991128
0.915544 0.952612 0.968655 0.992189
0.886723 0.938041 0.9518 0.993162
0.999415 1 1 0.999415
0.999217 1 1 0.999217
0.99918 1 1 0.99918
0.996033 0.98418 1.01287 0.999183
0.995092 0.994939 1.00041 0.999748
0.999162 1 1 0.999162
0.999171 1 1 0.999171
0.999264 1 1.00003 0.999231
1.00236 0.997791 1.00521 0.999368
1.00419 0.982409 1.02265 0.999536
1.00374 1 1.00435 0.999386
1.00397 0.990076 1.01476 0.999284
0.983782 0.985803 1 0.99795
0.989855 0.990614 0.999712 0.999521
0.998786 0.999587 0.999408 0.99979
1.01861 0.987829 1.03131 0.999855
0.96688 0.978014 0.992131 0.996456
0.990338 0.990284 1.00075 0.999309
0.976973 0.973132 1.01468 0.989426
0.918272 0.95212 0.971927 0.992308
0.988897 0.990659 1.00164 0.996587
0.863556 0.919918 0.946129 0.992181
1.00052 0.985023 1.01604 0.999697
0.984785 0.986927 0.999993 0.997837
0.917915 0.939716 0.982601 0.994096
0.956093 0.97305 0.985827 0.9967
0.893164 0.932104 0.965837 0.992117
0.966124 0.966552 1.00933 0.990322
0.981206 0.98595 0.996002 0.999182
0.941032 0.949963 0.995258 0.995318
0.891452 0.924864 0.971483 0.992167
0.973473 0.971879 1.01081 0.990925
0.970807 0.97717 0.996655 0.996823
1.01741 0.996356 1.02162 0.999515
1.01526 0.999885 1.01601 0.999383
0.993285 1 0.994269 0.99901
1.01502 0.99977 1.01609 0.999175
1.00966 1.00005 1.01098 0.998646
1.00228 1.00122 1.00272 0.998347
1.011 1 1.01266 0.998368
1.00503 1.00022 1.00668 0.998141
0.999547 1.0013 1.00003 0.998219
1.00339 1 1.00525 0.998142
1.00273 1.00216 1.00251 0.99807
1.00293 1.00469 1 0.998252
1.0024 1.00406 1 0.998348
0.999358 1.0011 1.00002 0.998242
0.999917 1.00174 1 0.998179
0.998584 1 1 0.998584
0.999398 1 1.00107 0.998325
1.0006 1.00005 1.00244 0.99811
0.998978 1 1 0.998978
0.998906 1 1.00002 0.998882
0.999053 1 1.00032 0.998736
0.999227 1 1 0.999227
0.999708 1 1.00068 0.999025
1.00003 1 1.00107 0.998957
0.99973 1 1 0.99973
0.999354 1 1 0.999354
0.999396 1 1.00023 0.999163
1 1 1 1
0.999843 1 1 0.999843
0.999479 1 1 0.999479
1 1 1 1
1 1 1 1
0.999903 1 1 0.999903
1 1 1 1
1 1 1 1
1 1 1 1
0.999318 1 1 0.999318
0.999539 1 1 0.999539
0.999369 1 1 0.999369
0.999888 1 1 0.999888
0.999578 1 1 0.999578
1 1 1 1
0.999906 1 1 0.999906
0.999608 1 1 0.999608
1 1 1 1
1 1 1 1
0.999929 1 1 0.999929
1 1 1 1
1 1 1 1
1 1 1 1
0.985834 0.987686 1 0.998125
0.988953 0.988506 1.00115 0.999307
0.999076 0.99806 1.00138 0.999634
0.99922 1 1 0.99922
0.999397 1 1 0.999397
0.999269 1 1 0.999269
0.999293 1 1 0.999293
0.999241 1 1 0.999241
0.999213 1 1 0.999213
0.99916 1 1 0.99916
0.9992 1 1 0.9992
0.999307 1 1 0.999307
0.999226 1 1 0.999226
0.999249 1 1 0.999249
0.999277 1 1 0.999277
0.917554 0.941858 0.98035 0.993722
0.984388 0.986359 1.00139 0.99662
0.993858 0.990205 1.00567 0.998026
0.917445 0.964308 0.957124 0.994022
0.943367 0.969767 0.979872 0.99276
0.971427 0.970563 1.0104 0.990588
0.965265 0.971567 0.997197 0.996306
0.979108 0.97701 1.00483 0.997326
0.875638 0.929067 0.949463 0.992657
0.977931 0.972906 1.01511 0.990201
0.916754 0.954387 0.967089 0.993257
0.976203 0.98028 0.998277 0.997559
0.970414 0.967894 1.01116 0.99154
0.888261 0.928722 0.963215 0.99296
1.00006 1 1.00041 0.99965
0.999417 1 1 0.999417
0.999218 1 1 0.999218
1.00486 0.984864 1.02076 0.999549
1.00387 0.999253 1.00526 0.999361
0.99929 1 1.00005 0.99924
1.00403 1 1.00465 0.999389
1.00273 0.99029 1.01326 0.999317
1.00538 0.996557 1.00939 0.999474
0.937038 0.948537 0.993229 0.994612
0.984003 0.985681 0.999986 0.998312
0.990028 0.99069 0.999735 0.999596
0.999523 0.984072 1.01596 0.999749
0.956036 0.974973 0.983217 0.997315
0.984866 0.986828 1.00017 0.997846
0.972382 0.969222 1.01138 0.991974
0.900004 0.93957 0.964652 0.992989
0.910131 0.938054 0.976225 0.993862
0.980555 0.986659 0.994578 0.999232
0.932915 0.948446 0.988618 0.994949
0.903788 0.928487 0.980096 0.993167
0.970346 0.974256 1.00063 0.995359
0.965002 0.969622 1.00401 0.991265
0.970541 0.992608 0.97836 0.999395
0.912083 0.937057 0.979911 0.993303
0.966443 0.9733 1.0013 0.991666
0.983003 0.987548 1.00025 0.995146
1.01813 0.999715 1.01906 0.999371
0.989711 1 0.990637 0.999065
0.981867 1.00143 0.981634 0.998807
1.01007 1.00003 1.01135 0.998705
1.00249 1.00139 1.00277 0.998344
1.00054 1.00258 0.999428 0.998543
1.00411 1.00028 1.0057 0.998149
0.99947 1.00087 1.00037 0.998234
1.00609 1.00755 1 0.998545
1.00294 1.00301 1.00185 0.998082
1.00281 1.00456 1 0.998257
1.00631 1.00775 1 0.998565
1.00532 1.00675 1 0.998576
1.00098 1.00264 1 0.998345
1.00257 1.00421 1 0.998366
0.998948 1.00053 1 0.998423
0.999453 1.00118 1 0.99827
1.00007 1.00188 1 0.998189
0.998843 1 1 0.998843
0.998727 1 1.00014 0.998589
0.999763 1 1.00148 0.998288
0.999146 1 1 0.999146
0.998975 1 1 0.998975
0.998918 1 1 0.998918
0.99959 1 1 0.99959
0.999229 1 1 0.999229
0.999828 1 1.00079 0.999036
1 1 1 1
0.999727 1 1 0.999727
0.999354 1 1 0.999354
1 1 1 1
1 1 1 1
0.999839 1 1 0.999839
1 1 1 1
1 1 1 1
1 1 1 1
0.999302 1 1 0.999302
0.999321 1 1 0.999321
0.999487 1 1 0.999487
0.99987 1 1 0.99987
0.999539 1 1 0.999539
0.999359 1 1 0.999359
1 1 1 1
0.999891 1 1 0.999891
0.999578 1 1 0.999578
1 1 1 1
1 1 1 1
0.999909 1 1 0.999909
1 1 1 1
1 1 1 1
1 1 1 1
0.93608 0.94614 0.994578 0.994762
0.984808 0.986644 1 0.998139
0.988069 0.987909 1.00084 0.999318
0.99921 1 1 0.99921
0.999179 1 1 0.999179
0.999155 1 1 0.999155
0.999304 1 1 0.999304
0.999252 1 1 0.999252
0.999209 1 1 0.999209
0.999198 1 1 0.999198
0.999158 1 1 0.999158
0.999094 1 1 0.999094
0.999256 1 1 0.999256
0.999244 1 1 0.999244
0.999276 1 1 0.999276
0.901455 0.927437 0.978722 0.993116
0.915282 0.938475 0.981605 0.993563
0.985874 0.987357 1.00189 0.99661
0.864291 0.919565 0.947326 0.992151
0.915295 0.951527 0.96952 0.992163
0.984296 0.979212 1.013 0.99229
0.982822 0.975598 1.01161 0.995838
0.972986 0.977161 0.999557 0.996169
0.890258 0.926667 0.968435 0.992023
0.967559 0.966939 1.00899 0.99173
0.975642 0.978529 1.00053 0.996526
0.968949 0.972796 1.00488 0.991206
1.00743 1 1.00819 0.999248
0.999891 1 1.00027 0.999624
0.999419 1 1 0.999419
0.99886 0.987907 1.01174 0.99935
1.00433 1 1.00494 0.999392
1.00615 0.997606 1.00918 0.99939
1.00038 1.00067 1.00088 0.998831
0.908554 0.940593 0.972725 0.993022
0.939943 0.948638 0.995746 0.995067
0.984348 0.985738 0.999918 0.998672
0.979051 0.987263 0.992383 0.999294
0.969778 0.973762 0.999591 0.996317
0.933549 0.949177 0.988496 0.994981
0.968442 0.969654 1.00782 0.990998
0.904664 0.933066 0.977082 0.992302
0.973946 0.993114 0.981516 0.999167
0.913186 0.93864 0.980025 0.992711
0.968764 0.973969 1.00353 0.991156
0.985025 0.984897 1.00375 0.99639
0.987844 0.99938 0.989272 0.999176
0.959302 0.974336 0.993774 0.990738
0.989474 0.992575 0.999779 0.997096
0.986078 1 0.986946 0.999121
0.982465 1.00141 0.982276 0.998789
0.982747 1.00375 0.980307 0.998746
1.00247 1.00162 1.00252 0.99834
1.00023 1.00305 0.998648 0.998538
1.00634 1.01026 0.997227 0.998884
0.999423 1.00046 1.00071 0.998249
1.00625 1.00772 1 0.998542
1.01148 1.01267 1 0.998822
1.00273 1.00448 1 0.998262
1.00577 1.00722 1 0.998565
1.0074 1.00865 1 0.998756
1.00549 1.00681 1 0.998697
1.00518 1.00659 1 0.998602
1.00324 1.00472 1 0.998535
0.999873 1.00144 1 0.998434
1.00124 1.0029 1 0.998349
1.0027 1.00432 1 0.998385
0.998667 1.00003 1 0.998632
0.998974 1.00052 1 0.998452
0.999604 1.00131 1 0.998298
0.999054 1 1 0.999054
0.998838 1 1 0.998838
0.998767 1 1.00017 0.998595
0.999482 1 1 0.999482
0.999147 1 1 0.999147
0.998972 1 1 0.998972
0.999991 1 1 0.999991
0.999589 1 1 0.999589
0.999232 1 1 0.999232
1 1 1 1
0.999998 1 1 0.999998
0.999724 1 1 0.999724
1 1 1 1
1 1 1 1
1 1 1 1
0.999243 1 1 0.999243
0.99929 1 1 0.99929
0.999432 1 1 0.999432
0.999323 1 1 0.999323
0.999487 1 1 0.999487
0.999832 1 1 0.999832
1 1 1 1
0.999872 1 1 0.999872
0.99954 1 1 0.99954
1 1 1 1
1 1 1 1
0.999893 1 1 0.999893
1 1 1 1
1 1 1 1
1 1 1 1
0.918327 0.937938 0.986324 0.992666
0.935263 0.94748 0.992584 0.994481
0.983451 0.985271 1 0.998153
0.999199 1 1 0.999199
0.999139 1 1 0.999139
0.999195 1 1 0.999195
0.999106 1 1 0.999106
0.999112 1 1 0.999112
0.999197 1 1 0.999197
0.999156 1 1 0.999156
0.999102 1 1 0.999102
0.999043 1 1 0.999043
0.999119 1 1 0.999119
0.998982 1 1.00026 0.998722
0.999275 1 1 0.999275
0.999276 1 1 0.999276
0.966031 0.978278 0.996987 0.990465
0.905648 0.928406 0.982576 0.992785
0.916683 0.940701 0.980913 0.99343
0.890916 0.926403 0.96859 0.99288
0.973087 0.968123 1.01533 0.989949
0.975191 0.975791 1.00173 0.997655
0.97871 0.981201 1.00013 0.997334
0.968728 0.973915 1.00303 0.991666
0.987035 0.996151 0.994459 0.996369
1.00499 1.00132 1.00515 0.998517
1.00589 1 1.00666 0.999231
0.999598 1 1 0.999598
1.00643 0.999089 1.00804 0.999313
0.999792 1.00101 0.999996 0.998785
0.95022 0.972471 0.985386 0.99161
0.913863 0.940221 0.979263 0.992549
0.943823 0.948978 0.999036 0.995527
0.97767 0.994209 0.984416 0.998932
0.982808 0.982158 1.0055 0.995191
0.913697 0.93742 0.982113 0.992445
0.972154 0.974786 1.00573 0.991614
0.986345 1.00053 0.986645 0.999162
0.961136 0.975118 0.993775 0.991835
0.990964 0.99447 1.00069 0.995792
1.00148 1.00589 0.996881 0.998726
0.993329 0.996936 0.998356 0.998023
0.982729 1.00147 0.982491 0.99877
0.985233 1.00326 0.983303 0.998705
1.00372 1.01743 0.987735 0.998779
1.00012 1.00347 0.998123 0.998533
1.00491 1.00887 0.997193 0.998876
1.01234 1.01669 0.996762 0.998953
1.00634 1.00781 1 0.998538
1.01181 1.01306 0.99996 0.998809
1.01037 1.01155 0.999987 0.998848
1.00527 1.00672 1 0.998564
1.00752 1.00879 1 0.998745
1.00629 1.00756 1 0.998736
1.00567 1.00695 1 0.998726
1.00375 1.00514 1 0.998611
1.0051 1.00648 1 0.998627
1.00313 1.00461 1 0.99853
1.00069 1.00218 1 0.998508
0.998694 1.00015 1 0.998544
0.999796 1.00137 1 0.998428
1.00143 1.00308 1 0.998352
0.998913 1 1 0.998913
0.998664 1.00001 1 0.998652
0.998974 1.00049 1 0.998482
0.9994 1 1 0.9994
0.99905 1 1 0.99905
0.998833 1 1 0.998833
0.99996 1 1 0.99996
0.999484 1 1 0.999484
0.999147 1 1 0.999147
1 1 1 1
0.999983 1 1 0.999983
0.999589 1 1 0.999589
1 1 1 1
0.999996 1 1 0.999996
1 1 1 1
0.999134 1 1 0.999134
0.999243 1 1 0.999243
0.99934 1 1 0.99934
0.999277 1 1 0.999277
0.999415 1 1 0.999415
0.999756 1 1 0.999756
0.999487 1 1 0.999487
0.999833 1 1 0.999833
1 1 1 1
1 1 1 1
1 1 1 1
0.999873 1 1 0.999873
1 1 1 1
1 1 1 1
1 1 1 1
0.963703 0.976357 0.995222 0.991779
0.912554 0.940321 0.977156 0.993158
0.940944 0.950238 0.995637 0.994559
0.999122 1 1 0.999122
0.999211 1 1 0.999211
0.99912 1 1 0.99912
0.999111 1 1 0.999111
0.998978 1 1 0.998978
0.999092 1 1 0.999092
0.999111 1 1 0.999111
0.999 1 1 0.999
0.999103 1 1.00001 0.999094
0.99892 1 1 0.99892
1.00065 1.00187 1 0.998778
0.999255 1.0009 1.00011 0.998246
0.999356 1.00053 1.00006 0.998766
0.999313 1 1.00002 0.999295
0.984511 0.993095 0.994784 0.996555
0.965214 0.976292 0.997289 0.99134
0.900464 0.929759 0.97602 0.992287
0.974163 0.974769 1.00844 0.991015
0.976002 0.982274 0.995582 0.998024
0.991143 0.99673 0.996608 0.99778
0.996195 1.00478 0.992758 0.998692
1.00219 1.00067 1.00291 0.998612
1.00484 1 1.00563 0.999214
0.997782 1.00112 0.997932 0.99873
0.980256 0.986386 0.99741 0.996366
0.957526 0.973166 0.991671 0.992192
0.910629 0.938999 0.976247 0.993383
0.98646 1.00186 0.985469 0.999145
0.996594 0.994933 1.00489 0.996793
0.961002 0.975382 0.992231 0.992971
0.995503 1.00455 0.992243 0.998737
0.991482 0.996567 0.99738 0.99751
1.01071 1.01999 0.992356 0.998529
1.0082 1.01453 0.995259 0.998502
0.987745 1.00271 0.986391 0.998664
1.00538 1.01729 0.989509 0.998773
1.01283 1.01995 0.994243 0.998767
1.00356 1.00769 0.997026 0.998868
1.0125 1.01635 0.997266 0.998943
1.01128 1.01394 0.998621 0.998756
1.01219 1.01349 0.999922 0.998796
1.00983 1.01104 0.999961 0.998835
1.00767 1.00903 1 0.998647
1.00756 1.00884 1 0.998733
1.00591 1.00718 1 0.998742
1.00489 1.00633 1 0.998572
1.00582 1.00708 1 0.998754
1.00354 1.00492 1 0.998629
1.00064 1.00212 1 0.998525
1.00304 1.00452 1 0.998525
1.00062 1.00212 1 0.998503
0.998856 1.00029 1 0.99857
0.998767 1 1 0.998767
0.998716 1.00015 1 0.998563
0.999759 1.00134 1 0.998422
0.999293 1 1 0.999293
0.998912 1 1 0.998912
0.998673 1 1 0.998673
0.999911 1 1 0.999911
0.999399 1 1 0.999399
0.999046 1 1 0.999046
1 1 1 1
0.999949 1 1 0.999949
0.999485 1 1 0.999485
1 1 1 1
0.999975 1 1 0.999975
1 1 1 1
0.999017 1 1 0.999017
0.999145 1 1 0.999145
0.999254 1 1 0.999254
0.999244 1 1 0.999244
0.99933 1 1 0.99933
0.999652 1 1 0.999652
0.999399 1 1 0.999399
0.999757 1 1 0.999757
1 1 1 1
0.999835 1 1 0.999835
1 1 1 1
1 1 1 1
1 1 1 1
1 1 1 1
1 1 1 1
0.977076 0.986272 0.993979 0.996677
0.957988 0.974146 0.991859 0.991485
0.909776 0.939238 0.976051 0.992399
0.998831 1.00003 1 0.998804
0.999128 1 1 0.999128
0.999115 1 1 0.999115
0.999084 1 1 0.999084
0.998979 1 1.00001 0.998969
0.999088 1 1 0.999088
0.998957 1 1 0.998957
0.99907 1 1 0.99907
0.998957 1 1 0.998957
0.999954 1.00117 1 0.998785
1.00083 1.00248 1 0.998356
1.00378 1.0058 0.999965 0.998026
0.99986 1.00151 1.00013 0.998221
0.999861 1.00105 1 0.998811
1.00062 1.00643 0.995187 0.999036
0.985589 0.994622 0.994935 0.995964
0.968989 0.977834 0.998579 0.992366
0.989863 0.995932 0.997243 0.996654
1.00106 1.00654 0.995723 0.998823
1.00104 1.0002 1.00213 0.998709
1.00418 1.00668 0.998841 0.998669
0.979754 0.985268 0.997032 0.997364
0.954976 0.97347 0.989251 0.991661
0.988915 1.00281 0.987387 0.998746
0.990844 0.996224 0.997664 0.996928
1.0103 1.02038 0.991573 0.998529
1.00784 1.0126 0.996699 0.998595
1.01766 1.02418 0.995135 0.998501
1.01358 1.01678 0.99841 0.998445
1.00705 1.01698 0.991465 0.998767
1.01416 1.02105 0.994469 0.998776
1.00871 1.01299 0.997152 0.998619
1.01259 1.01589 0.99781 0.998933
1.01246 1.01477 0.998962 0.998754
1.00833 1.01003 0.999805 0.998515
1.00934 1.0106 0.999932 0.998823
1.00755 1.00889 1 0.998666
1.00681 1.00838 1 0.998445
1.00558 1.00684 1 0.998749
1.00457 1.00601 1 0.998572
1.00201 1.00356 1 0.998461
1.00335 1.00471 1 0.998647
1.0008 1.00228 1 0.998531
0.998852 1.00033 1 0.998526
1.00052 1.00203 1 0.998498
0.998841 1.00028 1 0.998556
0.998724 1 1 0.998724
0.999182 1 1 0.999182
0.998787 1 1 0.998787
0.998734 1.00015 1 0.998582
0.999847 1 1 0.999847
0.999292 1 1 0.999292
0.998911 1 1 0.998911
1 1 1 1
0.9999 1 1 0.9999
0.999398 1 1 0.999398
1 1 1 1
0.999938 1 1 0.999938
1 1 1 1
0.998843 1 1 0.998843
0.999019 1 1 0.999019
0.999159 1 1 0.999159
0.999155 1 1 0.999155
0.99926 1 1 0.99926
0.999552 1 1 0.999552
0.999319 1 1 0.999319
0.999651 1 1 0.999651
0.999993 1 1 0.999993
0.999758 1 1 0.999758
1 1 1 1
1 1 1 1
1 1 1 1
1 1 1 1
1 1 1 1
1.00574 1.01004 0.996673 0.999067
0.977088 0.987287 0.994127 0.995516
0.961824 0.973204 0.996357 0.99192
0.998871 1 1 0.998867
1.00006 1.00154 1 0.998527
0.99884 1 1.00001 0.998829
0.999076 1 1 0.999076
0.99898 1 1.00002 0.99896
0.99906 1.00001 1 0.999052
1.00143 1.00295 1 0.998487
0.998994 1 1 0.998994
0.99912 1.00033 1 0.998791
1.00093 1.00254 1 0.998391
1.00466 1.00666 1 0.998015
1.01086 1.01327 0.999276 0.998337
1.00275 1.00477 0.999957 0.998027
1.00039 1.0022 1 0.998196
1.00366 1.00905 0.995553 0.999094
0.984216 0.993683 0.995206 0.995244
1.00371 1.00773 0.997053 0.998956
1.01261 1.01428 0.999496 0.998863
1.00288 1.00539 0.998777 0.998725
0.976708 0.98512 0.995383 0.99606
1.00975 1.02097 0.990464 0.99853
1.00676 1.01059 0.997519 0.998687
1.01669 1.02429 0.994033 0.998538
1.01552 1.01827 0.998833 0.998464
1.01026 1.01548 0.99635 0.9985
1.01845 1.0203 0.999589 0.998599
1.01528 1.02227 0.994371 0.998786
1.00858 1.01299 0.997025 0.998624
1.00998 1.01297 0.998624 0.998426
1.01358 1.01553 0.999329 0.998751
1.0084 1.01001 0.99989 0.998519
1.00883 1.01049 1 0.998354
1.00738 1.0087 1 0.998685
1.00656 1.00812 1 0.998444
1.00457 1.00623 1 0.998353
1.00425 1.00568 1 0.998572
1.00224 1.00379 1 0.998461
0.999171 1.00072 1 0.998456
1.00097 1.00244 1 0.998538
0.998932 1.00041 1 0.998527
0.99867 1 1 0.99867
0.998831 1.00029 1 0.998542
0.998716 1 1 0.998716
0.999102 1 1 0.999102
0.999785 1 1 0.999785
0.999182 1 1 0.999182
0.998808 1 1 0.998808
1 1 1 1
0.999837 1 1 0.999837
0.99929 1 1 0.99929
1 1 1 1
0.99989 1 1 0.99989
1 1 1 1
0.998701 1.00009 1 0.998611
0.99882 1 1 0.99882
0.999007 1 1 0.999007
0.999022 1 1 0.999022
0.999162 1 1 0.999162
0.999461 1 1 0.999461
0.999267 1 1 0.999267
0.999551 1 1 0.999551
0.999967 1 1 0.999967
0.999651 1 1 0.999651
0.999996 1 1 0.999996
1 1 1 1
1 1 1 1
1 1 1 1
1 1 1 1
1.01124 1.01382 0.998761 0.998694
1.00453 1.00926 0.996378 0.998926
0.976159 0.986214 0.993508 0.996271
1.00252 1.00404 1 0.99849
0.999021 1.00002 1 0.999002
1.00425 1.00591 1 0.998348
0.999974 1.00146 1 0.998513
0.998875 1 1.00002 0.998855
1.00923 1.01113 1 0.998115
0.999037 1.00002 1 0.999016
1.00142 1.00298 1 0.998446
1.01184 1.01371 1 0.998155
1.00102 1.0026 1 0.998426
1.00526 1.00728 1 0.997992
1.00913 1.01138 0.999441 0.99834
1.00125 1.00323 1 0.998027
1.006 1.01099 0.995904 0.999155
1.01821 1.01954 1 0.998698
1.01248 1.01422 0.999418 0.998861
1.00203 1.00409 0.999171 0.998779
1.01608 1.02459 0.993104 0.998576
1.01729 1.01967 0.999177 0.998484
1.01111 1.01608 0.996599 0.99851
1.01894 1.02097 0.999407 0.998608
1.0174 1.0193 0.999629 0.998505
1.00845 1.01294 0.996931 0.998629
1.01013 1.01268 0.999049 0.998432
1.01145 1.01314 1 0.998329
1.00847 1.01002 0.999936 0.998523
1.00835 1.01002 1 0.998344
1.00738 1.00914 1 0.998261
1.00632 1.00789 1 0.998442
1.00454 1.0062 1 0.998351
0.999988 1.00163 1 0.99836
1.00247 1.00401 1 0.998461
0.999393 1.00094 1 0.998456
0.998586 1 1 0.998586
0.999013 1.00049 1 0.998528
0.998671 1 1 0.998671
0.999032 1 1 0.999032
0.998708 1 1 0.998708
0.999102 1 1 0.999102
0.999769 1 1 0.999769
0.99996 1 1 0.99996
0.999787 1 1 0.999787
0.999181 1 1 0.999181
1 1 1 1
0.999827 1 1 0.999827
1 1 1 1
1.00539 1.00701 1 0.998391
0.999477 1.00097 1 0.998504
0.998632 1.00004 1 0.998589
0.998859 1 1 0.998859
0.998798 1 1 0.998798
0.999012 1 1 0.999012
0.999365 1 1 0.999365
0.999165 1 1 0.999165
0.999462 1 1 0.999462
0.999921 1 1 0.999921
0.999551 1 1 0.999551
0.999976 1 1 0.999976
1 1 1 1
0.999998 1 1 0.999998
1 1 1 1
1 1 1 1
1.01665 1.0182 1 0.998483
1.01486 1.01718 0.998953 0.998764
1.00475 1.00962 0.996392 0.998784
1.00988 1.0117 1 0.998198
1.00176 1.00319 1 0.998566
0.999136 1 1 0.999136
1.00466 1.0063 1 0.998372
0.999878 1.00138 1 0.998499
1.01578 1.01769 1 0.998125
1.00882 1.01076 1 0.998084
1.00149 1.00309 1 0.998404
1.01229 1.01417 1 0.998148
1.00666 1.00871 1 0.997969
1.00947 1.01165 0.999498 0.998344
1.01997 1.02141 1 0.998587
1.01864 1.01998 0.999986 0.998694
1.01284 1.01449 0.999513 0.998859
1.012 1.01673 0.996821 0.998519
1.01971 1.02183 0.999308 0.998617
1.01746 1.01976 0.999225 0.998519
1.01647 1.01813 1 0.998373
1.01037 1.01245 0.999502 0.998437
1.011 1.01269 1 0.998324
1.01045 1.01224 1 0.998236
1.00787 1.00955 1 0.998333
1.00732 1.00907 1 0.998261
1.00172 1.00345 1 0.998276
1.00452 1.00618 1 0.99835
1.00035 1.002 1 0.998359
0.998495 1 1 0.998495
0.999613 1.00116 1 0.998456
0.998586 1 1 0.998586
0.998949 1 1 0.998949
0.998672 1 1 0.998672
0.999031 1 1 0.999031
0.999754 1 1 0.999754
0.999101 1 1 0.999101
0.999764 1 1 0.999764
0.999956 1 1 0.999956
0.99998 1 1 0.99998
0.999789 1 1 0.999789
1 1 1 1
1.00817 1.00997 1 0.99822
0.999971 1.00147 1 0.998501
1.00489 1.00642 1 0.998479
0.998722 1 1 0.998722
0.999641 1.00114 1 0.998501
0.998566 1 1 0.998566
0.99886 1 1 0.99886
0.999249 1 1 0.999249
0.999016 1 1 0.999016
0.999367 1 1 0.999367
0.999867 1 1 0.999867
0.999463 1 1 0.999463
0.999934 1 1 0.999934
1 1 1 1
0.999985 1 1 0.999985
1 1 1 1
1 1 1 1
1.01812 1.01979 1 0.99836
1.0159 1.01745 1 0.998481
1.0166 1.01869 0.999118 0.998832
1.01432 1.01622 1 0.998133
1.00949 1.01131 1 0.998202
1.00099 1.00235 1 0.998643
1.00504 1.00665 1 0.998397
1.01542 1.01733 1 0.998117
1.00823 1.0102 1 0.998053
1.01095 1.01284 1 0.998141
1.01765 1.01924 1 0.998433
1.01958 1.02106 1 0.998555
1.0187 1.0201 0.999935 0.998691
1.01633 1.01804 1 0.998317
1.01742 1.02014 0.998808 0.998534
1.01642 1.01807 1 0.998373
1.01333 1.01508 1 0.998274
1.01055 1.01225 1 0.998319
1.01056 1.01235 1 0.998238
1.00442 1.00621 1 0.998224
1.00723 1.00899 1 0.998261
1.00207 1.0038 1 0.998276
0.998614 1.0002 1 0.998416
1.00071 1.00236 1 0.998358
0.998525 1.00003 1 0.998494
0.998864 1 1 0.998864
0.998586 1 1 0.998586
0.998947 1 1 0.998947
0.999736 1 1 0.999736
0.999029 1 1 0.999029
0.999748 1 1 0.999748
0.999956 1 1 0.999956
0.999759 1 1 0.999759
0.999957 1 1 0.999957
1 1 1 1
1.00951 1.01141 1 0.998122
1.00183 1.00353 1 0.998312
1.00833 1.01009 1 0.998249
0.998663 1 1 0.998663
0.999968 1.00147 1 0.998498
1.00442 1.00586 1 0.998566
0.999107 1 1 0.999107
0.998726 1.00001 1 0.998719
0.999824 1.00133 1 0.998498
0.99886 1 1 0.99886
0.99925 1 1 0.99925
0.999804 1 1 0.999804
0.999368 1 1 0.999368
0.999877 1 1 0.999877
1 1 1 1
0.999947 1 1 0.999947
1 1 1 1
1 1 1 1
1.01629 1.01804 1 0.998279
1.01821 1.0199 1 0.998342
1.01648 1.01803 1 0.998479
1.01402 1.01592 1 0.998134
1.00913 1.01095 1 0.998205
1.01541 1.01733 1 0.998109
1.01549 1.01721 1 0.998317
1.01772 1.01932 1 0.998428
1.01915 1.02066 1 0.998523
1.01665 1.01835 1 0.998325
1.01365 1.01543 1 0.998247
1.0163 1.01796 1 0.998372
1.01335 1.01511 1 0.998263
1.00669 1.00848 1 0.998224
1.01068 1.01246 1 0.99824
1.00446 1.00625 1 0.998227
0.999338 1.00099 1 0.998347
1.00246 1.00419 1 0.998277
0.998816 1.0004 1 0.998415
0.9988 1 1 0.9988
0.998557 1.00006 1 0.998494
0.998863 1 1 0.998863
0.999708 1 1 0.999708
0.998945 1 1 0.998945
0.999729 1 1 0.999729
0.999949 1 1 0.999949
0.999744 1 1 0.999744
0.999959 1 1 0.999959
0.999958 1 1 0.999958
1.01177 1.01357 1 0.998227
1.00337 1.0052 1 0.998181
1.00973 1.01163 1 0.99812
0.998644 1.00014 1 0.998507
1.00156 1.00325 1 0.998323
1.00841 1.01015 1 0.99828
0.998985 1 1 0.998985
0.998632 1 1 0.998627
0.999959 1.00147 1 0.998494
0.99974 1 1 0.99974
0.999109 1 1 0.999109
0.998725 1.00001 1 0.998716
0.999252 1 1 0.999252
0.999813 1 1 0.999813
1 1 1 1
0.999888 1 1 0.999888
1 1 1 1
1 1 1 1
1.01425 1.01602 1 0.998255
1.01606 1.01781 1 0.998276
1.01803 1.01974 1 0.998325
1.01369 1.01558 1 0.998136
1.01387 1.01567 1 0.99822
1.01601 1.01772 1 0.998324
1.01784 1.01945 1 0.998423
1.01695 1.01865 1 0.998333
1.01355 1.01533 1 0.998251
1.0072 1.00899 1 0.998224
1.01338 1.01515 1 0.998253
1.00655 1.00834 1 0.998225
1.00044 1.00215 1 0.998296
1.00448 1.00626 1 0.998229
0.99969 1.00134 1 0.998348
0.998739 1 1 0.998739
0.999012 1.0006 1 0.998415
0.998799 1 1 0.998799
0.999648 1 1 0.999648
0.998862 1 1 0.998862
0.999689 1 1 0.999689
1 1 1 1
0.999723 1 1 0.999723
0.999954 1 1 0.999954
0.99996 1 1 0.99996
1.0115 1.01327 1 0.998254
1.00441 1.00621 1 0.998213
1.01162 1.01342 1 0.998228
0.999351 1.00101 1 0.998343
1.00325 1.00506 1 0.998199
1.01 1.0119 1 0.998119
0.998822 1 1 0.998822
0.998627 1.00012 1 0.998506
1.00133 1.003 1 0.998335
0.999694 1 1 0.999694
0.998954 1 1 0.998954
0.998605 1.00001 1 0.998591
1 1 1 1
0.99975 1 1 0.99975
0.999111 1 1 0.999111
0.999822 1 1 0.999822
1 1 1 1
1 1 1 1
1.01311 1.01491 1 0.998225
1.01468 1.01645 1 0.998263
1.01583 1.01759 1 0.998274
1.00771 1.00955 1 0.998179
1.01326 1.01507 1 0.99822
1.01653 1.01823 1 0.99833
1.01347 1.01524 1 0.998255
1.00723 1.00902 1 0.998224
1.00107 1.00276 1 0.998316
1.00641 1.0082 1 0.998226
1.00066 1.00234 1 0.998326
0.998622 1 1 0.998622
1.00005 1.0017 1 0.99835
0.998739 1 1 0.998739
0.999606 1 1 0.999606
0.998798 1 1 0.998798
0.999646 1 1 0.999646
1 1 1 1
0.999668 1 1 0.999668
0.999972 1 1 0.999972
0.999957 1 1 0.999957
1.00984 1.01161 1 0.998247
1.0047 1.00646 1 0.998249
1.01145 1.01322 1 0.998254
0.999755 1.00141 1 0.99835
1.00468 1.00648 1 0.998213
1.01149 1.01328 1 0.998229
0.998728 1 1 0.998728
0.999286 1.00091 1 0.998382
1.00311 1.00491 1 0.998217
0.999664 1 1 0.999664
0.99881 1 1 0.99881
0.998609 1.00011 1 0.998504
1 1 1 1
0.999702 1 1 0.999702
0.998923 1 1 0.998923
1 1 1 1
0.99976 1 1 0.99976
1 1 1 1
1.00752 1.00933 1 0.998205
1.01274 1.01454 1 0.998223
1.01516 1.01692 1 0.998272
1.00063 1.00235 1 0.998286
1.00771 1.00954 1 0.998187
1.01271 1.01451 1 0.998221
1.00728 1.00907 1 0.998225
1.00107 1.00276 1 0.998316
0.99857 1 1 0.99857
1.00088 1.00253 1 0.998355
0.998651 1 1 0.998651
0.999544 1 1 0.999544
0.998739 1 1 0.998739
0.999602 1 1 0.999602
1 1 1 1
0.999643 1 1 0.999643
1 1 1 1
0.99995 1 1 0.99995
1.00477 1.00651 1 0.998262
1.00994 1.01171 1 0.998248
0.999458 1.00111 1 0.998351
1.00463 1.00639 1 0.998249
1.01138 1.01315 1 0.998255
0.998735 1 1 0.998735
0.999709 1.00136 1 0.998347
1.00493 1.00673 1 0.998214
0.999636 1 1 0.999636
0.998749 1 1 0.998749
0.999206 1.00079 1 0.998421
1 1 1 1
0.99967 1 1 0.99967
0.998797 1 1 0.998797
1 1 1 1
0.999711 1 1 0.999711
1 1 1 1
1.0002 1.00188 1 0.998317
1.00739 1.0092 1 0.998205
1.01229 1.01409 1 0.998222
0.998554 1 1 0.998554
1.00063 1.00235 1 0.998286
1.00766 1.00949 1 0.998194
1.00107 1.00276 1 0.998316
0.998575 1 1 0.998575
0.99949 1 1 0.99949
0.99868 1 1 0.99868
0.99954 1 1 0.99954
1 1 1 1
0.999599 1 1 0.999599
1 1 1 1
1 1 1 1
0.999322 1.00099 1 0.998337
1.00455 1.0063 1 0.998259
1.01004 1.01181 1 0.998249
0.998709 1 1 0.998709
0.999607 1.00126 1 0.998349
1.00454 1.0063 1 0.998249
0.999602 1 1 0.999602
0.998734 1 1 0.998734
0.999683 1.00134 1 0.998345
1 1 1 1
0.999639 1 1 0.999639
0.998771 1 1 0.998771
1 1 1 1
0.999675 1 1 0.999675
1 1 1 1
0.998621 1 1 0.998621
1.00018 1.0019 1 0.998287
1.00729 1.0091 1 0.998206
0.999474 1 1 0.999474
0.998555 1 1 0.998555
1.00064 1.00236 1 0.998286
0.99858 1 1 0.99858
0.999489 1 1 0.999489
1 1 1 1
0.999537 1 1 0.999537
1 1 1 1
1 1 1 1
0.998668 1 1 0.998668
0.999352 1.00103 1 0.998327
1.00436 1.00611 1 0.998255
0.999617 1 1 0.999617
0.998707 1 1 0.998707
0.999758 1.00141 1 0.998347
1 1 1 1
0.999604 1 1 0.999604
0.998732 1 1 0.998732
1 1 1 1
0.999642 1 1 0.999642
1 1 1 1
0.999474 1 1 0.999474
0.998598 1 1 0.998598
1.00016 1.00191 1 0.998258
1 1 1 1
0.999473 1 1 0.999473
0.998556 1 1 0.998556
0.999487 1 1 0.999487
1 1 1 1
1 1 1 1
0.999571 1 1 0.999571
0.998668 1 1 0.998668
0.999372 1.00106 1 0.998316
1 1 1 1
0.999566 1 1 0.999566
0.998706 1 1 0.998706
1 1 1 1
0.999605 1 1 0.999605
1 1 1 1
0.999873 1 1 0.999873
0.999518 1 1 0.999518
0.998575 1 1 0.998575
1 1 1 1
0.999473 1 1 0.999473
1 1 1 1
0.999891 1 1 0.999891
0.99955 1 1 0.99955
0.998668 1 1 0.998668
0.999951 1 1 0.999951
0.999564 1 1 0.999564
1 1 1 1
1 1 1 1
0.999487 1 1 0.999487
1 1 1 1
0.999942 1 1 0.999942
0.999523 1 1 0.999523
1 1 1 1
1 1 1 1
1 1 1 1

VECTORS lamdaE float
0.999615 1.00022 0.99577
0.999542 0.999989 0.998172
0.999408 1.00042 0.995886
0.999891 0.999917 0.995698
0.999693 1.00005 0.995864
0.999538 1.00023 0.995779
1.00073 1.0006 0.993189
0.999517 0.999862 0.998229
0.999527 1.00028 0.998226
0.999226 1.00043 0.998316
0.999553 0.999589 0.996472
1.00039 1.001 0.992981
0.999957 1.00001 0.995429
0.999676 0.999943 0.995757
0.999217 1.00066 0.995978
0.999734 0.999894 0.995852
0.999364 1.00044 0.995892
0.999509 1.00015 0.995986
1.00084 1.00048 0.993142
0.999926 1 0.997901
0.999947 0.999966 0.995539
0.999811 0.999925 0.995821
1.00115 0.99993 0.99311
1.00092 1.00019 0.993275
0.99949 0.999836 0.996156
1.0004 1.00107 0.993224
1.00298 1.00054 0.989369
0.999476 0.999751 0.9983
0.999636 1.00014 0.996953
0.999372 1.00034 0.997065
0.999504 0.999407 0.998415
1.00028 1.00112 0.992994
0.999875 0.999875 0.995647
0.999624 1.00042 0.995707
1.00124 1.00019 0.993399
0.99935 0.998803 0.998811
1.00076 1.00081 0.993649
1.00012 1.0009 0.993538
1.00164 1.00212 0.989624
0.999434 0.998092 0.999049
0.999957 1.00001 0.997869
0.999796 0.999981 0.996839
0.999964 1 0.997855
0.999678 1.00002 0.995733
1.00144 1.00006 0.991955
0.999707 0.999961 0.998173
1.00145 1.00004 0.993174
0.999576 0.999842 0.996006
0.999338 1.00026 0.996094
0.999161 1.00074 0.996007
1.00095 1.00034 0.993106
0.999847 1.00001 0.996775
0.999782 0.999956 0.995707
0.999349 0.999997 0.996264
0.999648 0.999938 0.995959
1.00122 0.99989 0.993054
1.0005 1.00099 0.993201
1.00101 1.00009 0.993227
1.00297 1.00057 0.989362
0.999929 1 0.997884
0.999976 1.00001 0.995448
1.00131 1.00001 0.993351
1.00122 0.999978 0.99294
1.00107 0.999962 0.993221
1.00347 0.999853 0.989115
1.00323 1.00001 0.989136
0.999562 0.999108 0.996716
0.999777 1.00128 0.99394
1.00229 1.00144 0.989635
1.0041 1.00021 0.987049
0.999755 1.00016 0.998021
0.999464 0.999199 0.99855
0.999494 1.00014 0.998146
1.00019 1.0012 0.993008
0.999893 0.999993 0.997997
0.999658 1.00031 0.998043
1.00115 1.00015 0.992312
0.999408 0.99888 0.997921
1.00057 1.00091 0.992633
1.00001 1.00093 0.994132
1.00165 1.00208 0.989621
0.999476 0.99843 0.998866
0.999592 0.999442 0.995952
1.00136 0.999923 0.992226
1.001 1.00048 0.992354
1.00347 1.00016 0.988201
0.999813 1.00048 0.995353
1.00239 1.00132 0.989051
1.00092 1.00276 0.990333
1.00244 1.00238 0.987822
0.999446 0.997767 0.999164
0.999398 0.99803 0.999095
0.999922 0.999967 0.997946
0.999947 1 0.997885
0.99997 1 0.997859
0.999807 0.999998 0.996812
1.00145 1.00004 0.992561
0.999802 0.999953 0.996879
1.0014 1.00006 0.992641
0.999976 1 0.997855
1.00141 0.999996 0.992017
1.00147 1.00009 0.993127
1.00376 0.999858 0.987975
1.00141 0.99995 0.993295
1.0037 0.999934 0.988031
0.999931 1.00002 0.995485
0.999612 0.999928 0.995879
0.999194 1.00016 0.9964
0.999488 0.99994 0.996093
1.00129 0.999879 0.992997
1.00111 0.999997 0.993186
1.00061 1.00084 0.993177
1.00296 1.0006 0.989355
0.999961 1 0.997867
0.999802 1 0.995621
1.00139 0.999995 0.992375
1.00128 0.999956 0.992878
0.999455 0.999216 0.997622
0.999992 1.00116 0.994079
1.00115 0.999911 0.99317
1.00349 0.999835 0.988979
1.00233 1.00152 0.989563
1.00322 1.00007 0.989243
1.00407 1.00022 0.987066
1.0014 1.00002 0.992047
1.00127 0.999991 0.992821
1.0037 0.999772 0.988503
1.00354 0.999838 0.988726
1.0034 0.99981 0.989
1.00461 0.999523 0.987079
0.999514 0.998645 0.998755
1.00432 0.999761 0.98711
0.999731 1.00093 0.994108
1.00113 1.00237 0.990137
1.0035 1.00146 0.986992
1.00478 0.999625 0.986351
0.999746 1.00004 0.994996
1.00018 1.00217 0.992164
0.999869 1.00002 0.998005
0.99959 1.00026 0.998069
1.00115 1.00013 0.992319
0.999438 0.998691 0.998799
0.99986 1.00109 0.993708
1.0005 1.00097 0.992641
1.00165 1.00205 0.989617
0.999428 0.998369 0.998936
0.999598 0.999365 0.995992
1.00136 0.999956 0.992794
1.00096 1.00049 0.992941
1.00346 1.00017 0.988204
0.999733 1.00048 0.994642
1.00238 1.00131 0.989064
1.00088 1.00276 0.990339
1.00245 1.00237 0.987759
0.999621 1 0.995339
0.999674 0.998893 0.996368
1.00005 1.00152 0.993054
1.00364 0.999982 0.98807
1.00301 1.00068 0.988523
1.00457 0.999952 0.986408
1.0005 1.00265 0.991212
1.00337 1.00125 0.987141
1.00154 1.00357 0.988463
1.00268 1.00245 0.9874
0.999519 0.997478 0.999215
0.999437 0.997715 0.999184
0.999371 0.997968 0.999133
0.999753 0.999641 0.995401
0.999532 0.998346 0.99888
0.999917 0.999967 0.997977
0.999921 0.999986 0.997916
1.00135 1.00007 0.992095
1.00139 1.00005 0.992015
0.999949 1 0.997869
0.999963 1 0.997856
1.00141 1.00001 0.992016
1.00141 1.00008 0.992592
1.00377 0.999858 0.987973
1.00134 0.999962 0.992179
1.0037 0.999936 0.988027
1.00141 0.999995 0.992016
1.00379 0.999799 0.98798
1.00372 0.999915 0.98801
1.00482 0.999377 0.986562
1.0037 0.999938 0.988029
1.00478 0.999592 0.986442
0.999961 1 0.997857
0.999632 1 0.995796
1.0014 0.99999 0.991477
1.00135 0.999949 0.992814
0.999272 0.999246 0.998653
1.00023 1.00101 0.994207
1.00122 0.999873 0.993121
1.0035 0.999805 0.988843
1.00322 1.00014 0.98935
1.00236 1.00162 0.98949
1.00404 1.00024 0.987083
1.00139 1 0.992045
1.00135 0.999991 0.992749
1.00371 0.999761 0.988219
1.00357 0.999874 0.988815
0.999513 0.998719 0.998706
0.999848 1.00082 0.994507
1.00124 1.00243 0.990264
1.00339 0.999845 0.988992
1.00461 0.999438 0.986952
1.00339 1.00145 0.98698
1.00432 0.999806 0.987213
1.00476 0.99965 0.98636
0.999738 1.00008 0.994988
1.00021 1.00209 0.992169
1.00377 0.999782 0.988029
1.00366 0.999825 0.988543
1.00477 0.999418 0.986881
1.00467 0.999397 0.986723
1.0045 0.999552 0.987168
1.00506 0.998953 0.986653
0.999737 1.00047 0.994556
1.00489 0.999213 0.986559
1.00054 1.00264 0.990954
1.00215 1.0028 0.987657
1.00428 1.00114 0.986161
1.00508 0.999094 0.98638
1.00032 1.00237 0.991741
1.00015 1.00165 0.992719
1.00051 1.00309 0.990724
1.0013 0.999937 0.992265
0.999385 0.998302 0.999001
0.999601 0.999283 0.99603
1.00084 1.00057 0.992428
1.00346 1.00017 0.988207
0.999695 1.00051 0.994591
1.00084 1.00275 0.990345
1.00236 1.0013 0.989078
1.00245 1.00235 0.987695
0.999619 0.99993 0.995368
0.99967 0.998852 0.996391
0.999998 1.00158 0.993068
1.00364 0.999995 0.988071
1.00302 1.00066 0.988534
1.00459 0.999942 0.986395
1.00044 1.00269 0.991223
1.00342 1.00129 0.987151
1.00152 1.00355 0.988447
1.0027 1.00235 0.987404
0.999774 0.998509 0.996568
1.00023 1.00216 0.992095
0.999984 1.00077 0.993916
1.00022 1.00289 0.991454
1.00473 0.999756 0.986354
1.00412 1.00053 0.986646
1.00505 0.999753 0.985762
1.00088 1.00374 0.98954
1.004 1.00086 0.986558
1.00171 1.00409 0.987465
1.0032 1.00178 0.98696
1.00025 0.999663 0.99456
0.999943 0.998077 0.996678
0.99962 0.99722 0.999239
0.999526 0.997423 0.999224
0.999432 0.99765 0.9992
0.999792 0.999267 0.995718
0.999533 0.998096 0.99898
0.999746 0.999693 0.99538
0.999546 0.998391 0.998838
1.00135 0.999981 0.992174
1.00137 1.00007 0.992043
1.0037 0.999939 0.988023
1.00377 0.999858 0.987972
1.00141 1.00001 0.992015
0.999978 1 0.997851
1.00142 0.999997 0.992016
1.00379 0.999805 0.987978
1.00372 0.999921 0.988007
1.00482 0.99938 0.986555
1.00369 0.999951 0.988023
1.00478 0.999594 0.986435
1.00379 0.99979 0.988001
1.00484 0.999287 0.986618
1.00479 0.999501 0.986508
1.00514 0.99865 0.98671
1.00478 0.999664 0.986362
1.00514 0.998967 0.986388
1.0014 0.999991 0.992042
1.00142 0.999977 0.992676
1.00371 0.999737 0.987935
1.00359 0.999903 0.988903
0.999516 0.998795 0.998653
0.99997 1.00078 0.994851
1.00139 1.00246 0.99039
1.00339 0.999871 0.988985
1.00461 0.999351 0.986826
1.00431 0.999851 0.987315
1.00328 1.00144 0.986968
1.00474 0.999673 0.986369
0.999734 1.00013 0.99498
1.00025 1.00202 0.992173
1.00377 0.999748 0.987948
1.00367 0.999815 0.988531
1.00478 0.999366 0.986887
1.00468 0.999469 0.986842
0.999765 1.00047 0.994556
1.00064 1.00262 0.990931
1.00213 1.00283 0.987819
1.00451 0.999593 0.987177
1.00506 0.998856 0.986689
1.00424 1.00103 0.986063
1.00488 0.999223 0.98657
1.00507 0.999131 0.986362
1.00034 1.00231 0.991751
1.00045 1.0031 0.990741
1.00017 1.00165 0.992708
1.00481 0.999369 0.986843
1.00476 0.999402 0.986843
1.00513 0.998735 0.986752
1.0051 0.998871 0.98656
1.00499 0.99891 0.986649
1.00517 0.998077 0.98725
1.00039 1.00248 0.991478
1.0051 0.998688 0.98669
1.00124 1.00315 0.989313
1.00293 1.00318 0.985907
1.00473 1.00047 0.985774
1.00514 0.998679 0.986707
1.00017 1.00117 0.993183
1.0007 1.00277 0.99067
1.00028 1.0031 0.991015
1.00072 1.00322 0.990312
1.00363 1 0.988071
0.999662 0.998822 0.996416
0.999618 0.999864 0.995397
0.999976 1.00162 0.993082
1.00302 1.00064 0.988546
1.00461 0.999933 0.986382
1.00037 1.00274 0.991234
1.0015 1.00357 0.98843
1.00348 1.00134 0.987162
1.00271 1.00228 0.987408
0.999769 0.998494 0.996575
1.00021 1.00221 0.992096
0.999988 1.00074 0.993938
1.00017 1.00297 0.991447
1.00473 0.999753 0.986347
1.00413 1.00053 0.986646
1.00505 0.999753 0.985746
1.00084 1.00372 0.989553
1.00403 1.00093 0.986581
1.00176 1.00416 0.987407
1.0031 1.00152 0.987416
0.999869 0.998249 0.996645
1.00007 1.00017 0.994378
1.00052 1.00332 0.990557
1.00015 1.00209 0.992362
1.00015 1.00391 0.990588
1.00508 0.999478 0.985964
1.00476 1.00018 0.985887
1.00512 0.999502 0.985852
1.00106 1.00473 0.988199
1.00427 1.00045 0.986439
1.00235 1.00339 0.986453
1.00022 0.999722 0.994564
1.00024 1.00079 0.993494
1.00028 0.999638 0.994541
1.00025 0.999678 0.994556
0.999988 0.9979 0.9972
0.999931 0.998067 0.99693
0.999778 0.997037 0.998255
0.999632 0.997178 0.999244
0.999537 0.997372 0.999232
0.999849 0.998958 0.99593
0.999558 0.99787 0.999048
0.999787 0.999312 0.995698
0.999553 0.998134 0.998949
0.999739 0.999744 0.99536
0.999562 0.998441 0.998794
1.00369 0.99996 0.988017
1.00372 0.999926 0.988005
1.00477 0.999606 0.986428
1.00483 0.999381 0.986549
1.00379 0.99981 0.987976
1.00141 1 0.992015
1.00379 0.999788 0.988001
1.00484 0.999289 0.986617
1.00478 0.999513 0.9865
1.00515 0.998583 0.986791
1.00478 0.999666 0.986355
1.00514 0.998989 0.986382
1.00483 0.999272 0.986646
1.00513 0.998477 0.986942
1.00514 0.998774 0.986573
1.00516 0.997829 0.987514
1.00512 0.999224 0.986171
1.00516 0.997846 0.987458
1.00376 0.999715 0.987868
1.00369 0.999813 0.98852
1.00478 0.99932 0.986892
1.00468 0.999541 0.986961
0.999797 1.00047 0.994556
1.00068 1.00263 0.990909
1.00211 1.00285 0.98798
1.00451 0.999634 0.987186
1.00505 0.998757 0.986726
1.00488 0.999233 0.986582
1.0042 1.00091 0.985965
1.00507 0.99917 0.986343
1.00036 1.00224 0.991763
1.00043 1.00309 0.990758
1.00018 1.00163 0.992697
1.00482 0.999335 0.986748
1.00477 0.9994 0.986834
1.00512 0.998626 0.986828
1.0051 0.998904 0.986583
1.00043 1.00244 0.991473
1.00131 1.00313 0.989273
1.00277 1.00332 0.986166
1.00499 0.999013 0.986645
1.00516 0.997936 0.987401
1.00478 1.0003 0.985713
1.00509 0.99868 0.986718
1.00513 0.998648 0.98677
1.00073 1.00278 0.990676
1.00071 1.00325 0.990264
1.00017 1.00118 0.993173
1.00023 1.00306 0.991095
1.00512 0.998633 0.986808
1.00514 0.998791 0.986758
1.00515 0.998021 0.987305
1.00517 0.997626 0.987687
1.00513 0.998224 0.987175
1.00515 0.997111 0.98821
1.00091 1.00272 0.990344
1.00512 0.997764 0.987505
1.00137 1.00408 0.987776
1.00383 1.00294 0.985065
1.00508 0.999776 0.985663
1.00513 0.998391 0.986941
1.00018 1.00085 0.993496
1.00018 1.00268 0.991593
1.00088 1.0029 0.990247
1.0004 1.00365 0.990388
1.00087 1.00303 0.990209
0.999762 0.998483 0.996583
1.00473 0.99975 0.98634
0.999995 1.0007 0.993958
1.00017 1.00228 0.992098
1.00011 1.00305 0.991439
1.00414 1.00054 0.986644
1.00504 0.999753 0.985729
1.00085 1.00362 0.989568
1.00183 1.00422 0.987349
1.00407 1.00099 0.986604
1.003 1.00125 0.987867
0.999863 0.998248 0.996647
1.00008 1.00014 0.994388
1.0005 1.0033 0.990566
1.0001 1.00216 0.99237
1.00011 1.00401 0.990473
1.00509 0.999486 0.985941
1.00472 1.00019 0.985889
1.00512 0.999518 0.985821
1.001 1.00477 0.988217
1.00426 1.0005 0.986517
1.00256 1.00326 0.986525
1.00016 0.999861 0.99453
1.00018 1.00135 0.99306
1.00061 1.00428 0.98944
0.999992 1.00336 0.9914
1.00026 1.0044 0.990027
1.00514 0.998862 0.986453
1.0049 0.999888 0.985775
1.00511 0.99843 0.986694
1.00118 1.00496 0.987536
1.00393 1.00153 0.985883
1.00021 0.999738 0.994561
1.00023 1.00079 0.993431
1.00022 1.0008 0.993457
1.00017 1.0015 0.993028
1.00024 1.00083 0.993466
1.00028 0.999665 0.994504
1.00028 0.99965 0.99454
1.00005 0.997778 0.9972
1.00024 0.999694 0.994553
0.999997 0.997899 0.997199
0.999884 0.99681 0.998277
0.99992 0.998061 0.997177
0.999751 0.996991 0.998757
0.999646 0.997136 0.999248
0.999911 0.998697 0.996092
0.999847 0.998992 0.995915
0.999608 0.997655 0.999093
0.999571 0.997905 0.999028
0.999781 0.99936 0.995678
0.999573 0.998167 0.998913
1.00477 0.999669 0.986349
1.00478 0.999515 0.986492
1.00513 0.999008 0.986377
1.00515 0.998516 0.986871
1.00484 0.999291 0.986616
1.00379 0.999786 0.988
1.00483 0.999271 0.986647
1.00513 0.998485 0.986946
1.00515 0.998785 0.986572
1.00516 0.997717 0.987659
1.00512 0.999236 0.986152
1.00517 0.997733 0.987558
1.00512 0.998522 0.986941
1.00513 0.997841 0.987572
1.00516 0.997557 0.98781
1.00512 0.997099 0.988345
1.00515 0.998219 0.987063
1.00513 0.996997 0.988451
1.00482 0.999298 0.986654
1.00477 0.999405 0.986824
1.00512 0.998515 0.986904
1.00509 0.998935 0.986606
1.00048 1.0024 0.991468
1.00139 1.00311 0.989233
1.00261 1.00342 0.986425
1.00499 0.999119 0.98664
1.00515 0.997793 0.987552
1.00508 0.998673 0.986746
1.00482 1.00013 0.985651
1.00512 0.998612 0.986832
1.00071 1.00282 0.990682
1.00065 1.00333 0.990215
1.00018 1.00119 0.993163
1.00021 1.00301 0.991176
1.00512 0.998638 0.986809
1.00514 0.998829 0.986681
1.00516 0.997974 0.987371
1.00517 0.997722 0.987576
1.00092 1.0028 0.990315
1.00136 1.00399 0.988035
1.00373 1.00295 0.985024
1.00512 0.998332 0.987048
1.00516 0.99696 0.988322
1.0051 0.999727 0.985653
1.00511 0.997781 0.987524
1.00514 0.99823 0.987015
1.00092 1.0029 0.99024
1.00088 1.00301 0.990224
1.00034 1.00373 0.990374
1.00017 1.00085 0.993419
1.00017 1.00262 0.991666
1.00513 0.997885 0.987583
1.00516 0.997671 0.987688
1.00514 0.996512 0.988848
1.00511 0.996993 0.988268
1.00097 1.00333 0.989636
1.00512 0.997379 0.988035
1.00145 1.00442 0.986954
1.00463 1.00205 0.984691
1.00517 0.999279 0.98581
1.00016 1.00059 0.993609
1.00017 1.00223 0.992238
1.00018 1.00335 0.991116
1.00099 1.00284 0.990155
1.00048 1.00397 0.989908
1.00107 1.00266 0.990028
0.999857 0.998249 0.996649
1.00009 1.00012 0.994399
1.00511 0.999494 0.985917
1.00005 1.00222 0.992379
1.00045 1.00331 0.990576
1.00007 1.00413 0.990357
1.00468 1.00021 0.985891
1.00512 0.999534 0.985789
1.00093 1.00476 0.988235
1.00275 1.0032 0.986596
1.00425 1.00055 0.986599
1.00016 0.999863 0.994531
1.00016 1.00135 0.993075
1.00057 1.00433 0.989419
0.999945 1.00341 0.991401
1.00021 1.00433 0.990023
1.00514 0.9989 0.98643
1.00493 0.9999 0.985738
1.00511 0.99842 0.986765
1.00118 1.00493 0.987415
1.00396 1.00166 0.985894
1.00022 1.00094 0.993401
0.999945 1.00259 0.992088
1.00073 1.00434 0.98905
0.99993 1.00435 0.990355
1.00053 1.0041 0.98972
1.00513 0.997168 0.988039
1.00502 0.99944 0.986071
1.00508 0.998059 0.987067
1.00213 1.00432 0.986909
1.00427 1.00083 0.985662
1.00021 0.999751 0.994558
1.00024 1.00078 0.993469
1.00008 1.00155 0.992963
1.00021 1.0008 0.99342
1.00023 1.00084 0.993466
1.00012 1.00153 0.992974
1.00005 1.00194 0.99274
1.00013 1.00158 0.992858
1.00023 1.00091 0.993413
1.00026 0.999747 0.994463
1.00028 0.999678 0.994504
1.0001 0.997719 0.997169
1.00027 0.999662 0.994539
1.00006 0.997789 0.997195
0.99996 0.996675 0.998275
1.00001 0.997899 0.997199
0.999872 0.996785 0.998283
0.99972 0.996935 0.999268
0.999968 0.998427 0.996265
0.999911 0.998713 0.99608
0.999674 0.997416 0.999132
0.999842 0.999026 0.9959
0.999612 0.997691 0.99908
0.999586 0.997937 0.999006
1.00512 0.999249 0.986133
1.00515 0.998797 0.986571
1.00517 0.997618 0.987657
1.00515 0.997606 0.987803
1.00513 0.998492 0.986951
1.00483 0.999271 0.986649
1.00512 0.998568 0.986884
1.00513 0.997903 0.987517
1.00515 0.997618 0.987724
1.00512 0.996967 0.988441
1.00515 0.99824 0.987061
1.00513 0.99681 0.988547
1.0051 0.997973 0.987547
1.00511 0.997087 0.988318
1.00511 0.996498 0.988906
1.00513 0.996724 0.988705
1.00511 0.998642 0.986809
1.00513 0.998866 0.986604
1.00516 0.99793 0.987438
1.00516 0.997819 0.987464
1.00097 1.00283 0.990286
1.00135 1.0039 0.988294
1.00362 1.00298 0.984984
1.00512 0.998442 0.986922
1.00516 0.996816 0.988433
1.00511 0.997798 0.987543
1.00512 0.999685 0.985643
1.00515 0.998091 0.987089
1.00095 1.00292 0.990232
1.00093 1.00293 0.990239
1.00029 1.00382 0.990361
1.00017 1.00085 0.993342
1.00015 1.00256 0.99174
1.00513 0.997901 0.987572
1.00515 0.997692 0.98769
1.00514 0.996622 0.988709
1.00104 1.00333 0.989596
1.00161 1.00448 0.987105
1.00449 1.00183 0.98467
1.00511 0.997048 0.988249
1.00516 0.99917 0.985982
1.00512 0.997333 0.98789
1.00016 1.00055 0.993652
1.00104 1.0028 0.990133
1.00102 1.00257 0.990252
1.00049 1.00408 0.989825
1.00018 1.00334 0.991134
1.00016 1.00222 0.992175
1.0051 0.997379 0.988005
1.00515 0.996375 0.988925
1.0051 0.996006 0.989216
1.00512 0.996299 0.98901
1.00111 1.00369 0.989046
1.00511 0.997973 0.987273
1.00242 1.00413 0.985728
1.00486 1.00126 0.984887
1.00017 1.00021 0.993965
1.00016 1.00192 0.99256
1.00018 1.0029 0.991616
1.00012 1.00403 0.99046
1.00115 1.00269 0.989906
1.00114 1.00317 0.989505
1.00016 0.999864 0.994532
1.00013 1.00134 0.99309
1.00514 0.998938 0.986407
0.999902 1.00346 0.991403
1.00053 1.00441 0.989398
1.00011 1.00432 0.990019
1.00498 0.99991 0.985702
1.00512 0.998413 0.986836
1.0012 1.00492 0.987294
1.00399 1.00176 0.985904
1.00021 1.00092 0.99341
0.999988 1.00255 0.992126
1.00074 1.0044 0.989068
0.999855 1.00453 0.990338
1.0004 1.00391 0.990062
1.00513 0.997132 0.98822
1.00505 0.99946 0.986026
1.00508 0.998143 0.987046
1.002 1.00444 0.986791
1.00425 1.00072 0.985897
1.00002 1.00181 0.992756
0.999834 1.00365 0.991086
1.00113 1.00403 0.988712
1.00001 1.00483 0.989259
1.00514 0.995713 0.989513
1.00507 0.99696 0.988479
1.00507 0.999285 0.986005
1.0028 1.00272 0.985808
1.00025 1.00076 0.993507
1.00008 1.00157 0.99298
0.999914 1.0022 0.992704
1.00022 1.00085 0.993465
1.00009 1.00154 0.992921
1.00023 1.0009 0.993409
1.00004 1.00193 0.992712
1.00013 1.00157 0.992882
0.999993 1.00221 0.992545
1.00009 1.00197 0.992581
1.00015 1.00164 0.992718
1.00023 1.001 0.993307
1.00023 0.999827 0.994435
1.00026 0.999747 0.994462
1.00014 0.997703 0.997129
1.00028 0.999682 0.994503
1.00011 0.997742 0.997162
1.00002 0.996598 0.99825
1.00007 0.997801 0.997191
0.999952 0.996646 0.998282
0.999862 0.996761 0.998286
1.00002 0.998153 0.996439
0.999971 0.998438 0.996254
0.999751 0.997154 0.999175
0.999911 0.998735 0.996069
0.999673 0.997468 0.99912
0.999619 0.997727 0.999066
1.00515 0.998261 0.987059
1.00515 0.997683 0.987638
1.00513 0.996625 0.988643
1.00511 0.996836 0.988538
1.00514 0.997967 0.987462
1.00512 0.998615 0.986827
1.00511 0.997964 0.987541
1.0051 0.997124 0.988294
1.00511 0.996517 0.988851
1.00513 0.996681 0.988737
1.00507 0.997356 0.988163
1.00516 0.996101 0.989347
1.00514 0.995699 0.989443
1.00513 0.997917 0.98756
1.00515 0.997714 0.987692
1.00514 0.996734 0.988571
1.0011 1.00334 0.989556
1.00178 1.00455 0.987256
1.00436 1.00164 0.98465
1.00511 0.997099 0.98823
1.00513 0.997286 0.987746
1.00516 0.999057 0.986154
1.00109 1.00276 0.990111
1.00093 1.00251 0.990478
1.00052 1.00418 0.989742
1.00016 1.00051 0.993695
1.00019 1.00334 0.991153
1.00015 1.00221 0.992112
1.0051 0.997429 0.988035
1.00516 0.996335 0.988989
1.0051 0.996025 0.989242
1.00115 1.00371 0.989001
1.00226 1.0043 0.98604
1.00483 1.00097 0.984985
1.00511 0.996353 0.988941
1.00511 0.997937 0.987243
1.00016 1.0002 0.994087
1.00016 1.00192 0.992554
1.00103 1.0026 0.989987
1.00108 1.00314 0.989829
1.00016 1.00399 0.990451
1.00015 1.00295 0.991559
1.00516 0.996238 0.98908
1.00512 0.995386 0.98985
1.0051 0.995629 0.989658
1.00508 0.99654 0.988942
1.00115 1.0038 0.988331
1.00494 0.999689 0.985863
1.00343 1.00349 0.985453
1.00018 0.999932 0.994426
1.00014 1.0012 0.993265
1.00013 1.00165 0.992691
1.0001 1.00276 0.991812
1.00004 1.00361 0.991018
1.00005 1.00409 0.990294
1.00167 1.00125 0.990138
1.00099 1.00269 0.990822
1.0002 1.00092 0.993418
1.00002 1.00253 0.992164
1.00514 0.997099 0.988401
0.999883 1.0046 0.990321
1.00073 1.00447 0.989087
1.00025 1.00371 0.990403
1.00509 0.999465 0.98598
1.00508 0.998216 0.987027
1.00186 1.00452 0.986677
1.00424 1.00058 0.986133
1.00004 1.00184 0.992702
0.999889 1.00369 0.991086
1.00104 1.0041 0.988773
1.00023 1.00477 0.989392
1.00514 0.99565 0.98961
1.00507 0.997051 0.988269
1.005 0.999269 0.986109
1.00313 1.00284 0.985714
0.999857 1.00274 0.992229
1.00513 0.995052 0.990094
1.00006 1.00466 0.990228
1.00122 1.00477 0.987732
1.00506 0.995833 0.989755
1.00495 0.998311 0.9868
1.00434 1.00149 0.985492
1.00008 1.0016 0.992996
0.999912 1.00219 0.992689
0.999787 1.00273 0.992421
1.00023 1.00089 0.993405
1.00013 1.00156 0.992907
1 1.00194 0.992685
1.00023 1.00099 0.993298
1.00015 1.00164 0.992739
0.999962 1.00224 0.992506
1.00011 1.00193 0.992618
1.00005 1.00229 0.99234
1.00008 1.00215 0.992407
1.00015 1.00209 0.992395
1.00027 1.00168 0.992538
1.00024 1.0011 0.993183
1.0002 0.999896 0.994411
1.00023 0.999833 0.994434
1.00016 0.997723 0.997078
1.00026 0.999758 0.99446
1.00014 0.997733 0.997123
1.00006 0.996541 0.998226
1.00011 0.997765 0.997156
1.00001 0.996561 0.998257
0.999943 0.996618 0.998286
1.00017 0.999779 0.994609
1.00007 0.997927 0.996583
1.00003 0.998161 0.996428
0.999829 0.99691 0.999214
0.999974 0.998452 0.996242
0.999745 0.997212 0.999162
0.999673 0.997514 0.999107
1.00512 0.996636 0.98877
1.00511 0.996535 0.988796
1.00509 0.997161 0.988269
1.00511 0.997953 0.987535
1.00507 0.997302 0.988235
1.00515 0.996103 0.9893
1.00513 0.995728 0.989435
1.00517 0.996115 0.98917
1.00519 0.995154 0.990131
1.00507 0.994891 0.99049
1.00509 0.997478 0.988065
1.00516 0.996295 0.989053
1.0051 0.996029 0.989268
1.00118 1.00372 0.988957
1.00211 1.00447 0.986353
1.00479 1.00067 0.985082
1.00511 0.996411 0.988872
1.00511 0.997882 0.987214
1.00092 1.00253 0.990067
1.00105 1.0031 0.990148
1.00011 1.00406 0.990441
1.00016 1.00018 0.99421
1.00017 1.00192 0.992547
1.00012 1.00301 0.991503
1.00517 0.996163 0.989151
1.00018 0.999938 0.994424
1.00012 1.00122 0.993211
1.00512 0.995461 0.989849
1.00509 0.995587 0.989616
1.00099 1.00394 0.988669
1.00331 1.00348 0.985371
1.00486 0.999647 0.985864
1.00501 0.996525 0.988818
1.00015 1.00163 0.992855
1.00011 1.00273 0.991799
1.00183 1.00153 0.989879
1.00063 1.00264 0.991119
1.00005 1.00416 0.990302
1.00005 1.00356 0.991064
1.00521 0.995252 0.989928
1.00508 0.995065 0.990224
1.00508 0.995134 0.989892
1.00505 0.996753 0.988243
1.00147 1.00301 0.988893
1.00397 1.00272 0.985312
1.00012 1.00104 0.993316
1.00014 1.00138 0.993089
1.00007 1.00228 0.992454
1.00006 1.00276 0.991699
1.00003 1.00338 0.991445
1.00012 1.00385 0.990487
0.999601 1.00457 0.990615
1.00105 1.0013 0.991312
1.00006 1.00185 0.99265
0.999947 1.00371 0.991087
1.00514 0.99557 0.989706
1.00506 0.997163 0.988058
1.00042 1.00476 0.989523
1.00097 1.00416 0.988831
1.00491 0.999255 0.986211
1.00347 1.003 0.985617
0.999865 1.00274 0.992197
1.00513 0.995018 0.990127
0.999923 1.00462 0.990316
1.00122 1.00464 0.987704
1.00504 0.995733 0.989636
1.00489 0.998313 0.987032
1.00423 1.00169 0.985526
0.999824 1.00397 0.991297
1.00486 0.995129 0.991282
1.00073 1.00475 0.989503
1.00228 1.00439 0.987119
1.00482 0.996691 0.988797
1.00393 1.00061 0.986527
0.999648 0.998478 0.99211
0.999908 1.00219 0.992675
0.999763 1.00276 0.992408
0.999943 1.00293 0.992041
1.00023 1.00099 0.993289
1.00014 1.00166 0.992759
1.00013 1.00189 0.992656
0.999947 1.00225 0.992468
1.00024 1.00109 0.993179
1.00025 1.0017 0.992538
1.00005 1.00235 0.99227
1.00015 1.0021 0.992395
1.0001 1.00213 0.99243
1.00018 1.00213 0.992293
1.00022 1.00219 0.992143
1.00021 1.00208 0.992287
1.00035 1.00176 0.992317
1.00028 1.00115 0.992985
1.00027 1.00164 0.992691
1.00026 1.00115 0.992996
1.0002 0.99993 0.994385
1.0002 0.999899 0.99441
1.00018 0.997786 0.996519
1.00023 0.999835 0.994433
1.00017 0.997757 0.996813
1.00003 0.996485 0.999236
1.00014 0.997763 0.997117
1.00006 0.996501 0.998232
1.00001 0.996527 0.998262
1.00014 0.999649 0.994767
1.00017 0.99977 0.994609
1.0001 0.997758 0.996703
1.00006 0.997928 0.996833
0.999898 0.996705 0.999247
1.00004 0.998169 0.996418
0.999821 0.996963 0.999203
0.99974 0.997273 0.999148
1.00514 0.995758 0.989427
1.00513 0.996102 0.989254
1.00507 0.997247 0.988307
1.00516 0.996113 0.989168
1.00519 0.995169 0.990027
1.00507 0.994902 0.990364
1.00519 0.994908 0.99025
1.00083 0.997993 0.988482
1.00465 0.994985 0.992121
1.00009 1.00093 0.993618
1.00518 0.996086 0.989222
1.00511 0.995544 0.989848
1.00509 0.995546 0.989574
1.00083 1.00406 0.989007
1.0032 1.00347 0.985289
1.00478 0.999621 0.985864
1.00494 0.996513 0.988692
1.00202 1.0017 0.989626
1.00026 1.0026 0.991425
1.0001 1.00417 0.990311
1.00017 0.999944 0.994423
1.00006 1.00351 0.991109
1.00016 1.0016 0.993018
1.00011 1.00272 0.991787
1.00011 1.00122 0.993157
1.00521 0.995118 0.990022
1.00012 1.00102 0.993415
1.00014 1.00137 0.993088
1.00008 1.00226 0.992345
1.00507 0.995106 0.990224
1.00509 0.995275 0.989746
1.00156 1.00285 0.988955
1.0036 1.00243 0.985506
1.00497 0.997016 0.988208
1.00007 1.00274 0.991773
1.00004 1.00334 0.991356
1.00098 1.00167 0.991043
0.9997 1.00452 0.990712
1.00017 1.00377 0.990542
1.00511 0.994983 0.990415
1.00509 0.995138 0.990125
1.00508 0.995721 0.989287
1.00417 0.999503 0.987912
1.00106 1.00307 0.989657
1.00007 1.00208 0.992352
1.00008 1.00247 0.991939
0.999929 1.00323 0.991626
0.999983 1.0037 0.991149
0.999948 1.00381 0.990905
0.999781 1.00453 0.990387
0.999808 1.00463 0.990411
0.999882 1.00273 0.992163
0.999788 1.00453 0.990405
1.00513 0.994994 0.99016
1.00502 0.995613 0.989517
1.00487 0.998298 0.987263
1.00121 1.00446 0.987677
1.00413 1.00189 0.985561
0.999773 1.00385 0.991443
1.00478 0.995061 0.991292
1.00042 1.00456 0.989692
1.00187 1.00452 0.987156
1.00483 0.996494 0.989055
1.00404 1.00053 0.986449
0.999613 0.998427 0.990362
0.999956 1.00412 0.99088
1.00436 0.995709 0.991608
1.00038 1.00466 0.98962
1.00223 1.00306 0.987393
1.00419 0.997926 0.987818
1.00088 0.99548 0.958126
0.996028 0.997885 0.976693
0.998434 1.00102 0.991989
0.999888 0.996449 0.925592
0.99491 0.998121 0.912705
0.999749 1.00277 0.992395
0.999834 1.00299 0.99211
1.00003 1.00239 0.992353
1.00024 1.00109 0.993175
1.00026 1.00165 0.992537
1.00014 1.0021 0.992396
1.00012 1.00211 0.992452
1.00006 1.00241 0.992199
1.00023 1.00206 0.992249
1.00027 1.00113 0.993047
1.00035 1.00175 0.992337
1.00017 1.00214 0.992277
1.0002 1.00221 0.992168
1.00025 1.00219 0.992112
1.00018 1.00196 0.992352
1.00034 1.0021 0.992056
1.0004 1.00178 0.992169
1.00028 1.00117 0.992947
1.00035 1.00171 0.992421
1.00029 1.00185 0.992403
1.00015 1.00169 0.992732
1.00027 1.00166 0.992629
1.00025 1.00106 0.993197
1.00027 1.00115 0.992987
1.00022 0.999922 0.994361
1.0002 0.99993 0.994385
1.00017 0.997843 0.996501
1.0002 0.9999 0.99441
1.00018 0.99779 0.996518
1.00004 0.996486 0.99923
1.00018 0.997791 0.996549
1.00006 0.996485 0.998716
1.00006 0.996462 0.998236
1.00013 0.999566 0.99488
1.00015 0.999653 0.994764
1.00013 0.997626 0.996789
1.00017 0.999764 0.994608
1.0001 0.997732 0.996954
0.999954 0.99653 0.999275
1.00008 0.997962 0.99655
0.999888 0.996786 0.999231
0.999814 0.99701 0.999192
1.0052 0.995193 0.989922
1.00515 0.996111 0.989167
1.00506 0.994915 0.990237
1.00082 0.997468 0.98859
1.00518 0.99492 0.99021
1.00461 0.995267 0.991914
1.00492 0.996014 0.99088
0.997122 0.998015 0.974386
1.00184 0.996206 0.99006
1.00009 1.00088 0.993669
1.00011 1.00091 0.993613
0.999999 1.00202 0.99267
1.00006 1.00177 0.992826
1.00522 0.994993 0.990117
1.00506 0.9951 0.990224
1.0051 0.995406 0.989598
1.00173 1.00267 0.989017
1.00321 1.00209 0.985698
1.00488 0.997341 0.988172
1.00086 1.00214 0.990765
0.999817 1.00447 0.990808
1.00021 1.0037 0.990598
1.00014 1.00139 0.993087
1.00007 1.00329 0.991268
1.00008 1.00274 0.991848
1.00011 1.001 0.993514
1.0001 1.00225 0.992235
1.0051 0.994958 0.990394
1.00005 1.00214 0.99248
1.00009 1.00246 0.992032
0.999884 1.0031 0.991792
1.00511 0.995074 0.990143
1.00508 0.995606 0.989272
1.00129 1.00278 0.989625
1.00412 0.999473 0.987953
0.999985 1.00372 0.991145
1 1.0038 0.990833
0.999836 1.00461 0.990418
0.999987 1.00447 0.990376
1.00504 0.995631 0.990176
1.00508 0.994981 0.990291
1.00429 0.997647 0.989129
1.00129 1.00228 0.990204
0.999944 1.00335 0.9914
0.999981 1.00356 0.991123
0.999707 1.00439 0.990771
0.999819 1.00515 0.989754
1.00024 0.994923 0.953346
0.99971 1.0038 0.991587
1.00008 1.00443 0.989879
1.00472 0.995011 0.991296
1.00484 0.996317 0.989312
1.00413 1.00039 0.98637
1.00144 1.0046 0.987191
0.999652 0.998303 0.988577
0.999812 1.00416 0.991013
1.00443 0.995565 0.991567
1.00029 1.0046 0.989673
1.00228 1.00293 0.987383
1.00441 0.997934 0.987967
1.00145 0.995743 0.952903
0.995757 0.998049 0.972876
0.998392 1.00097 0.991952
0.999843 0.996913 0.927783
0.994669 0.998124 0.905858
0.999804 1.00365 0.991691
0.999894 0.995293 0.931375
0.995043 0.998932 0.914057
1.00348 0.99813 0.990929
1.00004 1.00457 0.990144
1.00271 1.00143 0.987687
0.997618 1.00202 0.992886
0.999564 0.996703 0.957328
0.99486 0.998416 0.97113
0.998423 0.99811 0.930381
0.99474 0.999788 0.914543
0.999732 1.00304 0.992179
0.999959 1.00256 0.992297
0.999929 1.0014 0.993721
1.00027 1.00111 0.993109
1.00034 1.00176 0.992357
1.00019 1.0021 0.992212
1.00019 1.00222 0.992193
1.00017 1.00216 0.992262
1.00028 1.00116 0.992948
1.00024 1.00222 0.992087
1.00032 1.0021 0.992081
1.0004 1.00177 0.992234
1.00019 1.0019 0.992414
1.00029 1.00219 0.992082
1.00024 1.00145 0.992715
1.00044 1.00211 0.991848
1.00041 1.00177 0.992266
1.00037 1.0017 0.992412
1.0003 1.00184 0.992401
1.00043 1.00183 0.992154
1.00016 1.00199 0.992453
1.00021 1.00181 0.99244
0.99986 1.0027 0.992201
1.00006 1.00183 0.992768
1.00015 1.0017 0.992732
1.00022 1.00104 0.993266
1.00027 1.00167 0.992568
1.00026 1.00107 0.993149
1.00024 0.999891 0.994356
1.00027 1.00116 0.992977
1.00022 0.99992 0.994362
1.00013 0.997873 0.997035
1.0002 0.99993 0.994384
1.00016 0.997833 0.996767
1.00009 0.996514 0.998162
1.00018 0.997796 0.996517
1.00004 0.996492 0.999228
1.00009 0.996488 0.998195
1.00011 1.00095 0.993582
1.00013 0.999541 0.994908
1.00013 0.999567 0.994878
1.00015 0.997552 0.996833
1.00015 0.999656 0.994762
1.00014 0.997609 0.996787
0.999998 0.99641 0.999291
1.00009 0.997743 0.997186
0.999967 0.996601 0.998767
0.999931 0.99683 0.9982
1.00072 0.996995 0.988719
1.00518 0.994924 0.990171
1.00459 0.995553 0.991708
0.996523 0.997482 0.976014
1.00159 0.996503 0.990294
1.00497 0.995514 0.990732
1.00402 0.995999 0.990173
0.997823 0.99633 0.97869
1.00008 0.995535 0.956446
0.999149 0.997626 0.931594
0.994635 0.998156 0.911281
1.00001 1.00186 0.992673
1.0001 1.00088 0.993666
1.00012 1.0009 0.993608
1.00002 1.00202 0.992631
0.999972 1.00279 0.992
1.00018 1.0023 0.992183
1.0001 1.00192 0.992655
1.00004 1.00186 0.992753
1.00511 0.994926 0.990371
1.00513 0.994992 0.990156
1.00508 0.995435 0.98926
1.00144 1.00252 0.989596
1.0041 0.9994 0.987993
0.999864 1.00455 0.990426
1.00019 1.00441 0.990367
1.00007 1.0038 0.990762
1.00009 1.00244 0.992125
0.999979 1.00374 0.991139
1.00005 1.00219 0.992608
0.999873 1.00293 0.991958
1.00502 0.995457 0.990206
0.999941 1.00331 0.991481
0.999957 1.00357 0.991234
1.00504 0.994967 0.990173
1.00391 0.997382 0.989486
1.00147 1.00213 0.990045
0.999799 1.0045 0.990632
0.999976 1.00506 0.989769
1.00302 0.999764 0.990318
1.00441 0.995955 0.991116
1.00247 0.998513 0.990539
1.00068 1.0028 0.990458
0.999946 1.00374 0.99096
0.999778 1.00448 0.990648
0.999745 1.00509 0.99007
0.999937 0.994849 0.930917
1.00083 0.99495 0.960482
0.999683 1.00419 0.991147
1.0002 1.00448 0.989727
1.00445 0.995402 0.99153
1.0046 0.99796 0.988116
1.00235 1.00291 0.987375
1.0003 0.995234 0.956294
0.99614 0.998271 0.972608
0.998323 1.00077 0.991905
0.998569 0.99675 0.933335
0.994603 0.998141 0.898967
0.999704 1.00364 0.991719
0.999906 0.995753 0.930094
0.995174 0.998812 0.910791
1.00349 0.997993 0.990892
0.999964 1.00448 0.990268
1.00226 1.00139 0.988427
0.997952 1.00173 0.993554
1.00097 0.996701 0.953353
0.995135 0.997799 0.97442
0.998521 0.998742 0.930647
0.994882 0.999762 0.912551
0.999327 1.00314 0.993162
0.995226 0.998615 0.915945
0.994982 1.00147 0.930665
1.0004 1.00031 0.993258
0.999229 1.00422 0.992376
0.99668 1.00274 0.99426
0.994854 0.999652 0.975886
0.997463 0.998618 0.951448
0.995235 0.99988 0.935026
0.994716 0.999009 0.921911
0.99993 1.0027 0.992241
0.999959 1.00139 0.993634
0.999701 1.00001 0.995051
1.00028 1.00115 0.992949
1.00039 1.00177 0.992299
1.00031 1.00209 0.992106
1.00024 1.00225 0.992062
1.00019 1.00186 0.992476
1.0004 1.00179 0.992259
1.00029 1.00218 0.992078
1.00044 1.00212 0.991846
1.00011 1.00143 0.992889
0.999557 1.00118 0.994174
1.00038 1.00208 0.992044
1.00053 1.002 0.991876
1.00038 1.00168 0.992403
1.00031 1.00183 0.992399
1.00043 1.00183 0.99215
1.00017 1.00198 0.992444
1.00022 1.0018 0.992481
1.00001 1.00224 0.992418
1.00031 1.00176 0.992303
1.00005 1.00188 0.992704
1.00008 1.00272 0.991864
0.999694 1.00471 0.990228
0.999667 1.00336 0.99171
0.999865 1.00276 0.992183
0.999972 1.00203 0.992704
1.00006 1.00184 0.992765
1.00018 1.00106 0.993309
1.00015 1.00173 0.992732
1.00023 1.00104 0.993268
1.00025 0.99985 0.994374
1.00026 1.00108 0.993101
1.00024 0.999878 0.994358
1.0001 0.997907 0.997048
1.00022 0.999913 0.994364
1.00014 0.997863 0.996772
1.00006 0.996533 0.998172
1.00018 0.997815 0.996501
1.00003 0.996517 0.999223
1.00004 0.996496 0.999226
1.00015 1.00104 0.993618
1.00015 0.999589 0.99484
1.0001 1.00094 0.993583
1.00016 0.997523 0.996846
1.00013 0.999538 0.994908
1.00013 0.999572 0.994877
1.00015 0.997553 0.99683
1.00002 0.996345 0.999299
1.00011 0.997604 0.997266
1.00002 0.996433 0.9988
0.999999 0.996594 0.998284
0.999872 0.995833 0.926331
0.995183 0.998339 0.914168
0.997731 0.996874 0.976827
1.00136 0.996686 0.990532
1.00501 0.994995 0.990586
0.996993 0.996119 0.980724
1.00401 0.995835 0.990306
1.00125 0.995607 0.956376
0.999836 0.996648 0.926226
0.994634 0.998144 0.904375
0.998461 0.997369 0.983691
0.99933 0.997247 0.957683
0.998428 0.998577 0.928796
0.994734 0.999599 0.912953
1.0001 1.00268 0.991813
1.00002 1.00186 0.992745
1.00011 1.00087 0.993663
1.00002 1.00201 0.992593
0.999975 1.00267 0.992092
1.00022 1.00243 0.991959
1.00018 1.00226 0.992174
1.00017 1.00202 0.992357
1.00011 1.00192 0.992587
1.00002 1.00191 0.99268
1.00496 0.995125 0.990241
1.00506 0.995004 0.990068
1.0035 0.997102 0.989846
1.00159 1.00204 0.989886
1.00015 1.00498 0.989784
0.99991 1.00455 0.990493
0.999921 1.00359 0.991346
0.999924 1.00326 0.991562
1.00324 0.998592 0.99053
0.999946 1.00375 0.990954
0.99979 1.00452 0.990527
1.00428 0.995851 0.990833
1.00216 0.998604 0.991173
1.00089 1.00295 0.989976
0.999934 1.00505 0.98997
1.00001 1.00006 0.993284
1.0016 0.998078 0.993969
0.999756 1.00409 0.990624
1 1.00355 0.991082
0.999887 1.0044 0.990394
0.999811 1.00511 0.989986
0.994767 0.998585 0.926659
0.999929 0.995062 0.933564
1.00035 0.994927 0.953217
0.999576 1.00376 0.991747
0.999906 1.00434 0.990393
1.00353 0.997855 0.990857
1.00187 1.00155 0.989165
0.999885 0.995435 0.934089
0.999118 0.996673 0.953461
0.994897 0.997226 0.971166
0.998319 1.00082 0.994157
0.998375 0.998125 0.924668
0.995165 0.99867 0.911543
0.995003 0.999752 0.915458
0.999148 1.00313 0.993168
0.995173 0.998317 0.919766
0.995178 1.00162 0.930093
1.00072 1.00028 0.99329
0.998841 1.00439 0.992368
0.996417 1.00068 0.996845
0.994974 0.998937 0.973657
0.997696 0.998806 0.957725
0.997301 0.999876 0.929109
0.994711 0.998972 0.925218
0.997989 1.00232 0.995974
0.994991 0.999715 0.940458
0.994521 1.00014 0.944063
0.996213 1.00239 0.998962
0.994886 0.999988 0.982458
0.995531 1.00005 0.957333
0.99481 0.99991 0.928611
0.994799 0.997652 0.92252
0.999967 1.00136 0.99355
0.999757 1.00008 0.995202
0.999142 1.00004 0.996605
1.0004 1.0018 0.992253
1.00045 1.00214 0.991845
1.0003 1.00215 0.992074
0.99999 1.00143 0.993064
1.00048 1.00203 0.99187
1.00035 1.00208 0.992035
0.999542 1.00097 0.994421
0.99826 1.00116 0.996459
0.999745 1.00194 0.99339
1.00043 1.00198 0.992001
1.00044 1.00183 0.992146
1.00017 1.00198 0.992436
1.00023 1.0018 0.992522
1.00031 1.00178 0.99232
1.00001 1.00227 0.992409
1.00008 1.00189 0.992695
1.00007 1.00209 0.992576
0.999783 1.00168 0.993338
1.00034 1.00174 0.992244
1.0001 1.00262 0.991977
0.99976 1.00406 0.990923
1.00059 1.00494 0.988729
0.999818 1.00416 0.991123
0.99961 1.00474 0.990466
0.999718 1.00337 0.991807
0.999868 1.00243 0.992328
0.999873 1.00281 0.992164
0.999997 1.00203 0.992695
1.00014 1.00113 0.993306
1.00009 1.00183 0.992761
1.00019 1.00106 0.993308
1.00023 0.999872 0.994392
1.00023 1.00104 0.993271
1.00025 0.999853 0.994375
1.00006 0.997945 0.997072
1.00025 0.999875 0.994361
1.00011 0.997898 0.99679
1 0.996616 0.998185
1.00016 0.99784 0.996507
1.00003 0.996548 0.998696
1.00003 0.996532 0.999224
1.00017 1.00116 0.993284
1.00017 0.999661 0.994734
1.00012 1.00106 0.993474
1.00016 0.997541 0.996825
1.00014 0.999578 0.994845
1.00009 1.00096 0.993582
1.00003 0.996326 0.999301
1.00016 0.997523 0.996846
1.00013 0.99953 0.994908
1.00015 0.997553 0.996828
1.00002 0.996356 0.999297
0.999995 0.996429 0.999286
0.994778 0.997483 0.922078
0.999905 0.995412 0.929477
0.995179 1.00155 0.930122
0.995199 0.99872 0.912005
0.997784 0.996017 0.977295
1.00396 0.996039 0.990438
1.00078 0.996008 0.95609
0.99986 0.996798 0.932371
0.994642 0.998137 0.897474
0.998408 0.997339 0.982495
1.00111 0.996959 0.950026
0.99856 0.998857 0.929215
0.994727 0.999697 0.909219
0.994949 1.0003 0.978569
0.998385 0.999801 0.950478
0.99588 0.999817 0.925979
0.994717 0.998604 0.916555
1.00013 1.00302 0.991489
1.00008 1.00269 0.991905
0.999996 1.00192 0.992816
0.999996 1.00256 0.992184
1.00031 1.00251 0.991612
1.00022 1.0024 0.992003
1.00016 1.00224 0.992164
1.00029 1.00196 0.992323
1.00021 1.00198 0.992432
1.00012 1.00192 0.992519
1.00347 0.997638 0.990744
1.00416 0.995828 0.990553
1.00193 0.998778 0.991802
1.00115 1.00303 0.989502
1.00003 1.00507 0.989871
0.999819 1.00454 0.990407
0.999987 1.00372 0.990948
0.999985 1.00355 0.991136
1.00038 0.999755 0.993546
0.999926 1.00445 0.990416
0.999914 1.00503 0.990013
1.00166 0.99809 0.993605
1.0002 1.0038 0.990502
0.998745 0.997397 0.995818
0.998769 0.999281 0.99825
0.99969 1.00382 0.991067
1.00004 1.00381 0.990803
0.999982 1.00497 0.989666
0.994618 0.999316 0.945891
0.994761 0.998778 0.925483
0.9999 0.99536 0.928074
0.998962 1.00315 0.993167
0.998513 1.00427 0.992346
1.00098 1.00028 0.99333
0.995089 0.997923 0.921255
0.997978 0.9988 0.951637
0.994862 0.998377 0.974467
0.996339 0.99982 0.999632
0.996148 0.999533 0.934747
0.995455 1.00178 0.929529
0.994721 0.998937 0.925265
0.998042 1.00226 0.99617
0.995013 0.998962 0.942956
0.994552 1.00027 0.943853
0.996375 1.00291 0.998406
0.994872 0.99995 0.983089
0.996389 1.00003 0.951394
0.994786 0.997994 0.924193
0.994935 0.999956 0.932857
0.996859 1.00268 0.998239
0.994315 0.997776 0.963609
0.994612 0.998237 0.947602
0.994739 0.998583 0.916719
0.994928 1.00165 0.994904
0.996001 0.9997 0.959439
0.994806 0.999969 0.9319
0.999875 1.00013 0.995349
0.999249 0.999975 0.996364
0.99764 1.00089 0.998427
1.00045 1.00206 0.991864
1.00033 1.00209 0.992026
0.999489 1.00079 0.994672
1.00038 1.00196 0.99205
0.999737 1.00187 0.993395
0.9984 1.0011 0.996257
0.997811 1.00155 0.996951
0.999663 1.00201 0.993354
1.0003 1.00181 0.992337
1.00001 1.0023 0.992401
1.00012 1.00189 0.992685
0.99987 1.00169 0.993275
1.00008 1.002 0.992603
0.999562 1.00217 0.993314
0.999981 1.002 0.992635
1.00025 1.00351 0.990503
1.00013 1.0025 0.992092
1.00003 1.00399 0.990788
1.00068 1.00461 0.988441
1.00074 1.00481 0.988351
0.999922 1.00465 0.990319
1.00047 1.0049 0.988827
0.999897 1.00313 0.991812
0.999787 1.00419 0.99102
0.999522 1.00477 0.990704
0.999769 1.00337 0.991905
0.999892 1.0024 0.992416
1.0001 1.0013 0.993199
1.00002 1.00204 0.992685
1.00016 1.00113 0.993303
1.00019 0.999948 0.994398
1.00021 1.00105 0.993307
1.00023 0.999865 0.994393
1 0.998008 0.997103
1.00026 0.999845 0.994375
1.00007 0.997939 0.99682
0.999938 0.996715 0.998207
1.00013 0.99787 0.996528
0.999985 0.996628 0.998704
0.999994 0.996594 0.999227
1.00024 1.00126 0.992888
1.00019 0.999811 0.994354
1.00018 1.00117 0.993284
1.00015 0.997618 0.996754
1.00016 0.999669 0.994625
1.0001 1.00107 0.99333
1.00003 0.996356 0.999295
1.00016 0.99754 0.996828
1.00014 0.999566 0.994849
1.00003 0.996328 0.999301
1.00016 0.997523 0.996847
1.00002 0.996367 0.999295
0.994751 0.99837 0.94436
0.994828 0.997626 0.92415
0.999883 0.995834 0.930403
1.00035 1.00193 0.992152
0.99454 0.999958 0.94698
0.995263 1.00163 0.929619
0.995281 0.998889 0.914174
0.998548 0.997497 0.980957
0.999631 0.997799 0.957225
0.998448 0.998671 0.922902
0.994713 0.999819 0.910591
0.995595 0.999462 0.974868
0.997683 0.999207 0.956492
0.997313 0.999903 0.929098
0.994717 0.998877 0.91743
0.995163 0.999351 0.970981
0.995496 1.00093 0.955886
0.994831 0.999947 0.932608
0.994763 0.997735 0.922531
1.00024 1.00308 0.991204
1.00012 1.00306 0.991444
1.0001 1.00265 0.991998
1.00032 1.00241 0.991715
1.00032 1.00248 0.991697
1.0002 1.00239 0.992048
1.0003 1.00197 0.992335
1.00024 1.00195 0.992507
1.00072 0.999699 0.99378
1.00169 0.998106 0.993226
0.999998 1.00355 0.99119
1.00064 1.00367 0.990374
1.00008 1.00483 0.99004
0.999872 1.0046 0.990437
1.00007 1.00382 0.990805
0.998674 0.998358 0.996227
1.00002 1.00482 0.989871
1.00008 1.00342 0.991108
0.998879 0.998745 0.998244
1.00011 1.00332 0.991139
0.997248 0.998946 0.996348
0.997399 1.00016 1.00021
0.999868 1.00409 0.990726
1.00006 1.0041 0.990598
0.994249 0.998326 0.967144
0.994606 0.999703 0.946531
0.994765 0.998816 0.924333
0.997991 1.00229 0.996387
0.996428 1.00307 0.997825
0.995059 0.998456 0.94541
0.995634 1.00021 0.95811
0.994877 0.999136 0.979354
0.995058 0.999946 0.931964
0.99456 1.00041 0.943658
0.994759 0.998278 0.925856
0.99697 1.00253 0.99808
0.99433 0.997906 0.963556
0.994558 0.998259 0.951986
0.995044 1.00261 0.997854
0.994747 0.998872 0.917532
0.995331 0.999483 0.955897
0.995153 0.999966 0.93441
0.996271 1.00306 0.998705
0.994328 0.996199 0.970268
0.994548 0.999987 0.947181
0.994751 0.999618 0.91319
0.995534 0.999931 0.931765
0.995354 0.999524 0.988837
0.996101 1.001 0.949225
0.999304 0.999837 0.996108
0.9976 1.00139 0.998021
0.995865 1.00187 1.00091
1.00033 1.00193 0.992099
0.999718 1.00177 0.993399
0.998635 1.00096 0.996039
0.99969 1.00196 0.993321
0.997908 1.00136 0.996991
0.997983 1.0034 0.994979
0.999959 1.00169 0.993212
1.00006 1.00194 0.99263
0.999743 1.00226 0.993204
0.999287 1.00423 0.99141
0.999604 1.00226 0.993021
1.00005 1.0034 0.990853
1.00087 1.00471 0.988407
1.0023 1.00403 0.986447
1.0003 1.00392 0.99065
1.00086 1.00468 0.98823
1.00138 1.00412 0.988517
0.999966 1.00496 0.989487
1.00078 1.00472 0.988541
0.999841 1.00388 0.991112
0.999959 1.00461 0.990303
1.00035 1.00487 0.988927
1.00006 1.00174 0.992847
0.999877 1.00311 0.991784
0.999757 1.00424 0.990917
0.999916 1.00237 0.992504
1.00012 1.00131 0.993188
1.00013 1.00008 0.994365
1.00017 1.00113 0.993299
1.00019 0.999935 0.994398
0.999948 0.998133 0.996604
1.00024 0.999859 0.994394
1.00002 0.998005 0.996596
0.99981 0.996823 0.999251
1.00009 0.997916 0.996561
0.999922 0.996722 0.998716
0.999946 0.996671 0.999231
1.00028 1.00132 0.992762
1.00023 0.999979 0.994104
1.00025 1.00127 0.99297
1.00014 0.99775 0.99664
1.0002 0.999818 0.994323
1.00018 1.00118 0.993284
1 0.996447 0.999275
1.00015 0.997617 0.99676
1.00016 0.999679 0.994517
1.00003 0.996347 0.999297
1.00016 0.99754 0.996832
1.00003 0.996331 0.9993
0.994299 0.997333 0.964669
0.99469 0.999352 0.944146
0.994861 0.998259 0.92429
1.00033 1.00195 0.992208
1.00032 1.00188 0.992215
1.00035 1.00224 0.991921
0.994623 0.997971 0.947564
0.994564 0.999803 0.946789
0.995312 1.00207 0.929119
0.995113 0.999529 0.977128
0.998373 0.999957 0.949733
0.995213 0.999907 0.93492
0.994729 0.999203 0.914957
0.995396 0.998753 0.974049
0.996347 1.00002 0.954417
0.99479 0.999981 0.934289
0.994742 0.997973 0.924162
0.994892 0.999026 0.970541
0.995833 1.00003 0.957488
0.994797 1.00002 0.93221
0.994722 0.998961 0.921794
1.00035 1.00274 0.99134
1.00025 1.00304 0.991202
1.00012 1.00309 0.991399
1.00034 1.00241 0.991699
1.00033 1.00247 0.991782
1.00033 1.00196 0.992348
0.998574 0.998909 0.996622
0.998741 0.998355 0.998248
1.00012 1.00382 0.990808
1.00044 1.00296 0.99115
0.999939 1.00479 0.990076
1.00018 1.0033 0.991053
0.999937 1.0042 0.990655
0.997237 0.998577 0.996709
0.999723 1.00401 0.991315
0.997132 1.00039 1.00005
1.00004 1.00318 0.991547
0.99578 0.998351 0.99721
0.997087 1.00277 0.997903
0.999246 1.00392 0.992386
0.994223 0.997452 0.974975
0.994233 0.997949 0.969042
0.994573 0.999981 0.947136
0.99718 1.00253 0.997918
0.995595 1.00249 0.995485
0.994326 0.998001 0.963501
0.995148 0.999496 0.960561
0.994805 0.99995 0.929571
0.994515 0.998289 0.956362
0.994753 0.999189 0.915191
0.995976 1.00356 0.998999
0.994278 0.996022 0.971837
0.994568 0.999771 0.946998
0.994924 0.99968 0.984536
0.994729 0.999688 0.909626
0.99487 0.99994 0.933457
0.995581 1.00085 0.956279
0.994933 1.00301 0.999484
0.994302 0.997014 0.965156
0.995155 1.00139 0.930688
0.99462 0.998141 0.912228
0.995969 0.99894 0.926114
0.996151 1.00015 0.956347
0.995806 1.00033 0.978807
0.997602 1.00196 0.997674
0.996239 1.00121 1.00084
0.996536 1.00279 0.998644
0.999724 1.00193 0.993288
0.997957 1.00125 0.997013
0.997605 1.00368 0.995258
0.998972 1.00341 0.993514
0.999931 1.00237 0.993096
0.999959 1.00409 0.991037
1.00082 1.00498 0.98818
0.999846 1.00331 0.991207
1.00096 1.00466 0.988286
1.00266 1.00462 0.98579
1.004 1.00277 0.984657
1.00185 1.0038 0.987184
1.00229 1.00425 0.986331
1.00104 1.00473 0.98802
1.00099 1.00403 0.989206
1.00113 1.00387 0.988931
0.999873 1.00467 0.990053
1.00005 1.00496 0.989594
1.00081 1.00463 0.988732
0.999988 1.00256 0.992146
0.999923 1.00379 0.991117
0.999984 1.00457 0.990285
1.00006 1.00036 0.994209
1.00008 1.00174 0.992833
0.999858 1.00308 0.991755
1.00014 1.00131 0.993177
1.00013 1.00008 0.994363
0.99986 0.998309 0.996583
1.0002 0.999926 0.994399
0.999951 0.99813 0.996604
0.999743 0.996982 0.999243
1.00003 0.997995 0.996593
0.99984 0.996847 0.998732
0.999884 0.996764 0.999238
1.00033 1.00134 0.992773
1.00027 1.00011 0.994071
1.0003 1.00131 0.992802
1.00012 0.997915 0.996508
1.00023 0.999979 0.994178
1.00026 1.00127 0.993052
0.999966 0.996585 0.999248
1.00014 0.997746 0.996648
1.0002 0.999825 0.994292
1.00001 0.996426 0.999282
1.00015 0.997617 0.996765
1.00003 0.996339 0.9993
0.994347 0.995885 0.970359
0.994342 0.99701 0.964619
0.994647 0.9997 0.944025
1.00025 1.002 0.992208
1.00014 1.00255 0.991958
1.0003 1.00196 0.992263
1.00031 1.00191 0.992221
1.00031 1.00227 0.991894
1.00025 1.0022 0.992096
1.00038 1.00231 0.991779
0.994522 0.999368 0.944368
0.994573 0.998087 0.952004
0.994588 0.999562 0.946606
0.994738 0.998151 0.925788
0.99487 0.999369 0.971289
0.99533 1.00003 0.953908
0.994903 0.999965 0.936379
0.99509 0.999177 0.969911
0.995038 1.00005 0.952369
0.994979 0.999987 0.935669
0.994698 0.998863 0.925276
0.995989 0.997469 0.973805
0.995139 1.0002 0.951412
0.994819 0.999931 0.929181
0.994744 0.999667 0.91408
1.00006 1.0027 0.991935
1.00034 1.00273 0.991362
1.00027 1.00301 0.991201
1.00035 1.00241 0.991683
0.997358 0.998583 0.99706
0.99706 1.00062 0.999895
1.00018 1.00334 0.990968
0.99997 1.00408 0.990712
0.999773 1.00388 0.99191
1.00001 1.00316 0.991529
0.999203 1.00389 0.992337
0.995687 0.999272 0.994838
0.996753 1.00341 0.998226
0.999057 1.00328 0.992985
0.995491 0.999406 0.993621
0.997669 1.00403 0.996788
0.994234 0.997545 0.968149
0.994128 0.996572 0.977209
0.994252 0.997592 0.97094
0.995666 1.00396 0.999224
0.995245 0.998608 0.989807
0.994237 0.995805 0.973427
0.996554 1.00102 0.949816
0.995214 0.999907 0.935388
0.994588 0.999568 0.946813
0.99471 0.999779 0.910942
0.995205 1.00191 0.999835
0.994335 0.9968 0.965115
0.995297 1.00143 0.930176
0.994877 1.00086 0.981133
0.994623 0.998126 0.905235
0.997396 0.999882 0.928702
0.995003 1.00011 0.951899
0.995563 1.00339 0.995022
0.994855 0.99773 0.945246
0.995132 0.998267 0.91501
0.998511 0.997301 0.930431
0.99568 1.00011 0.957094
0.994899 0.999427 0.973864
0.996712 1.00033 1.0007
0.996259 1.00352 0.998606
0.99859 0.999542 0.998489
0.997258 1.00391 0.995539
0.998198 1.00358 0.993879
1.00206 1.00107 0.990008
1.00064 1.00394 0.99066
1.0011 1.00496 0.988037
1.00264 1.00311 0.986128
1.00106 1.00462 0.988166
1.00262 1.00469 0.985597
1.00405 1.00241 0.984774
1.00496 1.00057 0.984879
1.00393 1.00328 0.984865
1.00414 1.00275 0.984431
1.00145 1.00368 0.987959
1.00184 1.00381 0.987444
1.00228 1.0045 0.986215
1.00065 1.00457 0.989109
1.0009 1.00402 0.9892
1.00089 1.00364 0.989344
1.00001 1.00352 0.991101
0.999919 1.00461 0.990169
1.00015 1.00496 0.989703
0.999977 1.00095 0.99374
1.00004 1.00249 0.99214
0.999997 1.0037 0.991123
0.999772 0.99852 0.996531
1.00005 1.00038 0.994198
1.0001 1.00174 0.99282
1.00014 1.00008 0.994361
0.999864 0.998313 0.99658
0.999648 0.997168 0.999237
0.999955 0.998127 0.996603
0.999732 0.997015 0.999241
0.999808 0.996884 0.999243
1.00024 1.0021 0.992181
1.00036 1.0014 0.992679
1.0003 1.00024 0.993889
1.00034 1.00135 0.992765
1.00008 0.998113 0.99637
1.00027 1.00012 0.994068
1.00029 1.00134 0.992843
0.999918 0.996755 0.999217
1.00012 0.997913 0.996517
1.00024 0.999982 0.994252
0.999972 0.996554 0.999256
1.00014 0.997744 0.996655
1.00001 0.996401 0.999289
0.994316 0.99663 0.964524
0.994293 0.995725 0.971932
0.994384 0.99676 0.964559
1.00029 1.00196 0.992232
1.00011 1.00258 0.991918
1.00004 1.00293 0.991666
1.00012 1.00245 0.991966
1.00013 1.00294 0.991654
1.0003 1.00192 0.992227
1.00029 1.00229 0.991867
1.00024 1.0022 0.992094
1.00037 1.00232 0.99178
1.00013 1.00244 0.99214
0.99499 1.00109 0.930539
0.994555 0.99957 0.944197
0.994518 0.998185 0.956437
0.99471 0.998759 0.925346
0.994819 1.00001 0.930082
0.994893 0.999241 0.968634
0.995072 1.00009 0.956982
0.995281 0.997618 0.970381
0.995607 1.00012 0.956985
0.994942 0.999946 0.934048
0.994926 0.999624 0.911942
0.995795 0.995538 0.974954
0.995149 1.00014 0.957688
0.995453 0.999867 0.934528
0.99497 0.998149 0.911261
0.999251 1.00197 0.993985
1.00001 1.00279 0.991981
1.00033 1.00273 0.991384
0.995515 0.999936 0.992453
0.99637 1.00383 0.998512
0.999992 1.00316 0.99151
0.998935 1.00406 0.992289
0.999058 1.00331 0.993007
0.997252 1.00352 0.99669
0.995116 0.999665 0.993849
0.997428 1.00259 0.996565
0.995892 1.00099 0.993294
0.994688 0.99897 0.946037
0.994223 0.997167 0.969986
0.994011 0.995687 0.979444
0.995391 1.00095 1.00024
0.994997 1.00059 0.976424
0.994367 0.996619 0.965063
0.996984 1.00033 0.953857
0.995193 0.999908 0.934448
0.995363 1.00183 0.92968
0.99464 0.998136 0.898232
0.995599 1.00327 0.99532
0.994777 0.998724 0.945019
0.995192 0.998595 0.912855
0.994951 0.999434 0.975077
0.998563 0.998519 0.93043
0.996288 1.00001 0.953543
0.996673 1.00007 0.993134
0.994835 0.997246 0.922979
0.998993 0.997064 0.932501
0.997971 0.998477 0.951859
0.994868 0.998703 0.975875
0.996042 1.00409 0.998552
0.998462 0.999476 0.998463
1.00277 0.997849 0.993318
0.997479 1.00361 0.994215
1.0013 1.00143 0.990495
1.00363 0.998651 0.988377
1.0014 1.00489 0.987892
1.00272 1.00319 0.986178
1.00441 0.999841 0.986413
1.0026 1.00475 0.985405
1.00399 1.00238 0.984842
1.00506 0.999284 0.985991
1.00509 0.999225 0.986036
1.0048 1.0015 0.984418
1.00495 1.00056 0.98493
1.00309 1.00361 0.985585
1.00369 1.00327 0.984739
1.00427 1.00273 0.984206
1.00131 1.00397 0.988395
1.00138 1.00365 0.988284
1.00184 1.00384 0.987704
1.00048 1.00377 0.990024
1.00053 1.00454 0.989206
1.00081 1.004 0.989193
0.999952 1.0019 0.99281
1.00008 1.00347 0.991106
0.999966 1.00455 0.990285
0.999672 0.998863 0.996868
0.999986 1.00097 0.99372
1.00009 1.00243 0.992134
0.999565 0.997413 0.998173
0.99977 0.99856 0.996765
1.00005 1.0004 0.994187
0.999867 0.998319 0.996578
0.999638 0.997209 0.999233
0.999721 0.997046 0.99924
1.00018 1.00246 0.991887
1.00034 1.00159 0.992534
1.00022 1.00216 0.992148
1.00029 1.0004 0.993764
1.00034 1.00144 0.992676
1.00004 0.998312 0.996252
1.00029 1.00026 0.993888
1.00035 1.00135 0.992757
0.999859 0.996953 0.999183
1.00008 0.99811 0.996378
1.00026 1.00014 0.994065
0.999924 0.996721 0.999226
1.00011 0.997912 0.996525
0.999978 0.996525 0.999265
0.995051 0.997698 0.946987
0.994325 0.996739 0.964482
0.994241 0.995615 0.97352
1.00009 1.00297 0.991607
1.00029 1.00197 0.992255
1.0001 1.00262 0.991877
1.00016 1.00246 0.991997
1.00011 1.00286 0.991708
1.00009 1.00295 0.991631
1.00007 1.00328 0.991323
0.999977 1.00298 0.991623
1.00025 1.00219 0.992091
1.00034 1.00233 0.991781
1.00009 1.00249 0.992091
0.999622 1.00287 0.9929
0.995017 0.99916 0.913273
0.995229 1.00121 0.92994
0.994558 0.999775 0.944031
0.995115 0.999567 0.914819
0.99489 0.999939 0.93366
0.995111 1.00021 0.951622
0.996 0.997693 0.968252
0.995915 0.995271 0.976788
0.994775 0.998134 0.904584
0.995571 1.00003 0.953881
0.997327 0.999891 0.92838
0.99538 0.996997 0.977573
0.995743 1.00001 0.958868
0.998847 0.997607 0.928267
0.999139 1.00069 0.995488
0.999422 1.00189 0.993961
0.99996 1.00289 0.992027
0.994916 0.99972 0.99405
0.997221 1.00293 0.996588
0.999142 1.00325 0.993028
0.998322 1.00228 0.99635
0.995596 1.00131 0.993457
0.997634 1.00085 0.99393
0.994777 0.999488 0.920858
0.994628 0.998317 0.950285
0.994243 0.996811 0.971825
0.995496 1.00387 0.995655
0.994912 0.999355 0.975904
0.99469 0.999237 0.944866
0.995281 1.00005 0.953073
0.998502 0.99739 0.924241
0.995355 0.998611 0.914967
0.996767 1.00031 0.993175
0.994888 0.997314 0.925001
0.999846 0.996258 0.927112
0.994888 0.998779 0.971909
0.997625 0.998641 0.957735
0.998382 0.998662 0.994587
0.999866 0.995678 0.926877
0.999127 0.997698 0.957549
0.994967 0.99838 0.971287
0.998276 0.999587 0.998491
1.00209 0.997375 0.994
1.00382 0.997476 0.990815
1.00059 1.00178 0.990985
1.00354 0.999217 0.988289
1.00484 0.997116 0.988185
1.00276 1.00337 0.986228
1.00427 1.00006 0.986425
1.00497 0.997673 0.987743
1.00392 1.00234 0.984908
1.00505 0.999234 0.985982
1.00511 0.99765 0.98758
1.00515 0.998123 0.987035
1.00512 1.00001 0.985313
1.00509 0.99917 0.986053
1.00438 1.00172 0.984767
1.00472 1.00142 0.984536
1.00494 1.00054 0.984981
1.00226 1.00374 0.986906
1.00289 1.00357 0.985758
1.00346 1.00322 0.984612
1.0012 1.00335 0.989206
1.00138 1.00391 0.988362
1.00131 1.0036 0.98861
1.00018 1.00264 0.991703
1.00053 1.00376 0.990035
1.00043 1.0045 0.989303
0.999622 0.999358 0.995911
1.00002 1.00184 0.99279
1.00015 1.00341 0.991111
0.999438 0.997666 0.999203
0.999676 0.998926 0.996309
0.999997 1.00098 0.993701
0.999548 0.99741 0.999218
0.99977 0.998581 0.996499
0.999628 0.997252 0.999228
1.00023 1.00265 0.991689
1.00021 1.00246 0.991875
1.0003 1.00189 0.992289
1.00024 1.00059 0.993659
1.00031 1.00161 0.992537
1.00022 1.00217 0.992115
0.999977 0.998498 0.996178
1.00028 1.0004 0.993764
1.00033 1.00145 0.992673
0.999793 0.997147 0.999155
1.00004 0.998307 0.996258
1.00028 1.00028 0.993886
0.999866 0.996913 0.999193
1.00008 0.998106 0.996386
0.999931 0.996683 0.999236
0.99503 0.998853 0.916218
0.994975 0.997789 0.946796
0.994329 0.996836 0.964438
1.00001 1.00309 0.991566
1.0003 1.00332 0.991112
0.999984 1.00344 0.991295
1.00018 1.00246 0.992027
1.00016 1.00279 0.99175
1 1.003 0.991609
1.00005 1.00296 0.991598
1.00004 1.00332 0.991302
0.999955 1.00382 0.991051
1.00017 1.00153 0.992715
1.00014 1.00243 0.992043
0.99965 1.00264 0.992802
0.99984 0.996427 0.92481
0.995024 0.999164 0.909815
0.995457 1.00137 0.929375
0.99463 0.998133 0.897888
0.996342 0.998881 0.933886
0.995374 0.999993 0.954846
0.99585 0.995049 0.974359
0.99514 0.997222 0.975875
0.998515 0.998337 0.929657
0.996384 0.999995 0.953277
0.995603 0.998084 0.977085
0.998821 0.998052 0.951611
1.00175 0.999051 0.992986
0.999371 1.00063 0.995262
0.999547 1.0018 0.993947
0.994994 1.0018 0.993592
0.998935 1.00203 0.996132
0.997976 1.0011 0.993375
1.00084 0.998655 0.990169
0.999925 0.994847 0.931053
0.994788 0.999159 0.922678
0.994568 0.997796 0.954462
0.996883 1.00039 0.9933
0.994874 0.998811 0.971038
0.994952 0.997823 0.925128
0.997858 0.997924 0.95133
0.99989 0.99707 0.933339
0.998238 0.998853 0.992829
0.999909 0.995401 0.930003
1.00118 0.996634 0.950529
0.995067 0.998012 0.974178
0.999237 0.996602 0.994271
1.00018 0.996424 0.956094
0.995698 0.998936 0.976935
1.00143 0.996858 0.994663
1.00377 0.99691 0.990795
1.00497 0.996086 0.989703
1.00337 0.999768 0.9882
1.0047 0.997173 0.988173
1.00487 0.996295 0.989091
1.00417 1.00017 0.986438
1.0049 0.997723 0.987706
1.0051 0.996148 0.988966
1.00504 0.999187 0.985974
1.00509 0.997608 0.987584
1.00514 0.996589 0.988559
1.00515 0.997452 0.98784
1.00515 0.997995 0.987169
1.00514 0.998922 0.98642
1.00505 1.00017 0.985398
1.00513 1.00003 0.985293
1.00509 0.999118 0.98607
1.00372 1.00221 0.985636
1.00441 1.00174 0.984851
1.00463 1.0013 0.984655
1.00185 1.00316 0.988189
1.0023 1.00369 0.986872
1.00267 1.00358 0.98593
1.00059 1.00271 0.990883
1.00127 1.00331 0.989188
1.00144 1.00387 0.988329
0.999653 1.00004 0.995154
1.00025 1.00254 0.991699
1.0006 1.00372 0.990046
0.999426 0.997929 0.999116
0.999618 0.999449 0.99587
1.00008 1.00179 0.99277
0.999469 0.997695 0.998647
0.999676 0.998965 0.996293
0.999543 0.997485 0.999205
1.00032 1.00286 0.99132
1.00015 1.00273 0.991684
1.00021 1.00234 0.99198
1.00024 1.00246 0.991864
1.00027 1.00193 0.99229
1.00016 1.00088 0.993482
0.999898 0.99869 0.996135
1.00023 1.00059 0.993663
1.00027 1.00166 0.99254
0.999719 0.997327 0.999136
0.999975 0.998493 0.996182
1.00028 1.00041 0.993765
0.9998 0.997115 0.999163
1.00003 0.998307 0.996264
0.999873 0.996874 0.999203
0.999908 0.995218 0.931482
0.995 0.999093 0.91672
0.994881 0.997873 0.94659
0.999934 1.00322 0.991525
0.999937 1.00364 0.991161
1.00015 1.0033 0.99127
1.00084 1.00344 0.989964
0.999928 1.00409 0.990832
1.0001 1.00297 0.991575
1.00003 1.00333 0.991282
0.999899 1.00367 0.991147
1.00002 1.00373 0.990239
1.00055 1.00181 0.99192
1.00385 0.999907 0.98792
0.999895 1.00173 0.993051
0.999769 1.00237 0.992703
1.00047 0.996753 0.955616
0.999822 0.996531 0.9272
0.995035 0.999 0.91077
0.998741 0.998117 0.923107
0.99571 1.00001 0.955733
0.995359 0.997282 0.978091
0.995335 0.998004 0.979143
0.997562 0.998513 0.958925
0.996734 0.998818 0.977016
1.00383 0.996585 0.991221
1.0014 0.999012 0.993015
0.999589 1.0006 0.995026
0.998359 1.00117 0.992866
1.00162 0.999522 0.988849
1.00033 0.995103 0.953186
0.999926 0.994999 0.933761
0.994798 0.998472 0.924569
0.998008 0.999087 0.991051
0.994876 0.997892 0.971544
0.999891 0.995676 0.930869
0.999655 0.997607 0.957575
0.998986 0.997829 0.994598
1.00148 0.995803 0.955735
0.995807 0.998716 0.973686
1.00067 0.999477 0.992009
0.999501 0.996816 0.981543
1.00368 0.996306 0.990797
1.00499 0.995714 0.989531
1.00506 0.995159 0.990131
1.00459 0.997274 0.988159
1.0048 0.996266 0.989082
1.00508 0.99509 0.989937
1.00481 0.997769 0.987669
1.0051 0.996125 0.988947
1.00513 0.995575 0.989551
1.00508 0.997566 0.987587
1.00514 0.996613 0.988522
1.00513 0.996627 0.988742
1.00516 0.997285 0.987938
1.00516 0.998155 0.987175
1.00515 0.997867 0.987303
1.00514 0.998934 0.986405
1.0051 0.999422 0.986013
1.00467 1.00033 0.985778
1.00506 1.00015 0.985381
1.00513 1.00006 0.985273
1.00285 1.00251 0.987069
1.00367 1.00227 0.985662
1.00444 1.00176 0.984936
1.00104 1.00259 0.990141
1.0019 1.00316 0.988161
1.00236 1.00364 0.986837
0.999816 1.00058 0.994303
1.00063 1.00267 0.990887
1.00131 1.0033 0.989169
0.999453 0.998282 0.998962
0.99967 1.00009 0.995124
1.00032 1.00243 0.991697
0.999455 0.997988 0.999074
0.999616 0.999533 0.995828
0.999489 0.997738 0.999152
1.00088 1.00307 0.990081
1.00034 1.00279 0.991311
1.00024 1.00272 0.991464
1.00009 1.00278 0.99168
1.00018 1.00241 0.991917
1.00012 1.00135 0.993089
1.00024 1.00195 0.992292
1.00016 1.00087 0.993491
0.999803 0.998925 0.996075
0.99964 0.997505 0.999124
0.999897 0.998679 0.996139
1.00023 1.00058 0.993668
0.999726 0.997305 0.999142
0.999973 0.998491 0.996185
0.999806 0.997079 0.999171
1.0011 0.995076 0.958665
0.999913 0.995711 0.930032
0.994966 0.999528 0.914885
0.999883 1.00383 0.991028
1.00003 1.00323 0.991429
0.999968 1.00407 0.990881
1.00075 1.00342 0.990049
1.00131 1.00386 0.988533
1.00017 1.0038 0.990308
0.999838 1.00355 0.991243
1.00034 1.00382 0.989922
1.00045 1.00218 0.991665
1.00172 1.00155 0.989339
1.00375 0.999749 0.988761
1.00448 0.998075 0.988012
1.0033 0.999856 0.98856
0.999522 1.0021 0.993389
0.995857 0.998649 0.976089
1.00067 0.996033 0.954524
0.999189 0.996826 0.93303
0.998926 0.998769 0.951524
0.995053 0.998097 0.98036
0.997035 0.998713 0.98147
1.00092 0.998305 0.992222
1.00376 0.996481 0.991478
1.00134 0.9989 0.993045
1.00283 1.00045 0.987481
0.997994 0.996349 0.977586
1.00078 0.994987 0.960302
0.999886 0.995278 0.928242
0.998803 0.998608 0.994849
0.995633 0.998239 0.97591
1.00094 0.996098 0.955202
1.0007 0.999187 0.992155
0.998778 0.997069 0.980446
1.00338 0.999397 0.990157
1.00404 0.996307 0.989601
1.00499 0.995387 0.989343
1.00505 0.995132 0.990067
1.00507 0.99487 0.990474
1.00475 0.99626 0.989075
1.00508 0.995175 0.989897
1.0051 0.995125 0.99011
1.0051 0.99611 0.988927
1.00514 0.995609 0.989523
1.00512 0.996143 0.989285
1.00514 0.99664 0.988486
1.00513 0.996626 0.988652
1.00515 0.99751 0.987733
1.00516 0.997126 0.988035
1.00515 0.998042 0.987307
1.00512 0.999023 0.986447
1.00514 0.998939 0.986391
1.0051 0.999476 0.985985
1.00488 0.999682 0.986235
1.0039 1.00089 0.986619
1.00466 1.00039 0.985779
1.00508 1.00012 0.985364
1.00179 1.00218 0.989234
1.00284 1.00248 0.987084
1.00362 1.00234 0.985688
0.99997 1.00106 0.99353
1.00109 1.00261 0.990125
1.00195 1.00314 0.988133
0.999527 0.998711 0.99873
0.999861 1.00058 0.994293
1.00069 1.00262 0.99089
0.999501 0.998371 0.998885
0.999685 1.00014 0.995095
0.999494 0.998051 0.999023
1.00137 1.00357 0.988744
1.00094 1.00306 0.990122
1.00065 1.00289 0.990635
1.00034 1.00276 0.991301
1.00028 1.00273 0.99138
1.0002 1.00182 0.992481
1.00016 1.00248 0.991855
1.00011 1.00134 0.993098
0.99971 0.999261 0.995906
1.00016 1.00087 0.993499
0.999807 0.998894 0.996084
0.999569 0.997686 0.999107
0.999648 0.997483 0.999128
0.999897 0.998668 0.996143
0.999733 0.997278 0.999147
0.997053 0.997294 0.977807
1.00084 0.99545 0.952277
0.999866 0.995028 0.934177
1.00295 1.00256 0.987095
1.00001 1.00404 0.99093
1.00066 1.0034 0.990136
1.0003 1.00387 0.990207
1.00123 1.00403 0.98846
1.00156 1.00187 0.989715
1.00066 1.0039 0.989606
1.00043 1.00251 0.991412
1.00192 1.00151 0.989539
1.00379 0.999685 0.988398
1.00463 0.998635 0.987275
1.00437 0.996767 0.989745
1.00451 0.998131 0.987678
1.00281 0.99973 0.989202
0.999983 0.998805 0.993897
0.996305 0.998771 0.974513
1.00019 0.996325 0.95383
0.997146 0.998278 0.979399
1.00097 0.997303 0.994239
1.00325 0.996476 0.991717
1.00204 0.995895 0.989552
0.997209 0.995706 0.979813
1.00033 0.994974 0.953317
1.00057 0.999279 0.992314
0.998948 0.99706 0.979147
1.00328 0.998124 0.990371
1.00399 0.995915 0.989655
1.00497 0.995475 0.990477
1.00488 0.996288 0.990734
1.00509 0.995093 0.990007
1.00504 0.994886 0.990453
1.00508 0.994901 0.990395
1.00508 0.995233 0.989857
1.00511 0.995121 0.99011
1.00511 0.995684 0.989686
1.00515 0.995645 0.989496
1.00512 0.996116 0.989216
1.00514 0.997193 0.988095
1.00513 0.996621 0.988562
1.00515 0.997526 0.98774
1.00514 0.998613 0.986711
1.00515 0.99793 0.987439
1.00512 0.998938 0.986516
1.00491 0.999463 0.986294
1.0051 0.999541 0.985957
1.00488 0.999679 0.986161
1.00428 0.99999 0.98694
1.00267 1.00116 0.988684
1.00385 1.00096 0.986661
1.00463 1.00044 0.985781
1.00028 1.00123 0.992805
1.0018 1.00219 0.989228
1.00284 1.00245 0.9871
0.999545 0.99919 0.998495
1.0001 1.00093 0.993513
1.00113 1.00262 0.99011
0.999562 0.998803 0.998645
0.999913 1.00055 0.994282
0.999552 0.998447 0.9988
1.00239 1.0032 0.987121
1.00135 1.00354 0.98877
1.00122 1.00306 0.98959
1.00099 1.00304 0.990164
1.00067 1.00286 0.990651
1.00035 1.00227 0.991816
1.00032 1.00275 0.991296
1.00014 1.00192 0.99248
0.999656 0.999733 0.995521
1.00009 1.00136 0.993107
0.999721 0.999199 0.995927
0.999524 0.997885 0.99906
0.999812 0.998867 0.996094
0.999573 0.997662 0.999114
0.999654 0.997463 0.999132
1.00114 0.997514 0.991996
0.997373 0.996666 0.974209
1.00012 0.995316 0.959343
1.00328 1.00051 0.988051
1.0048 0.999149 0.986773
1.00263 1.00245 0.987346
1.00044 1.00394 0.990105
1.00117 1.0042 0.988376
1.00193 1.00172 0.989516
1.00462 0.998854 0.98761
1.00208 1.00148 0.989737
1.00371 0.999618 0.988031
1.00456 0.998637 0.987488
1.00504 0.997497 0.987843
1.00466 0.995786 0.99018
1.00445 0.996862 0.989477
1.00455 0.998195 0.987345
1.00029 0.998759 0.994021
0.996197 0.998953 0.972458
1.00115 0.996507 0.99628
1.00475 0.994983 0.991612
1.00179 0.996279 0.989697
0.997764 0.995388 0.976944
1.00337 0.997066 0.990577
1.00396 0.995939 0.989724
1.00497 0.995234 0.990665
1.00494 0.995714 0.990554
1.00511 0.994932 0.990223
1.00518 0.995049 0.990037
1.00501 0.994912 0.99043
1.00505 0.994914 0.990384
1.00514 0.995437 0.989753
1.00511 0.995123 0.990111
1.00511 0.99575 0.989554
1.00513 0.996763 0.988532
1.00513 0.996089 0.989147
1.00514 0.997208 0.988104
1.00518 0.998371 0.986922
1.00514 0.997542 0.987747
1.00514 0.998613 0.986725
1.00497 0.999333 0.986315
1.00511 0.99885 0.986585
1.00492 0.999438 0.986297
1.00439 0.99982 0.986915
1.00489 0.999679 0.986087
1.00427 0.999992 0.98686
1.00314 1.00034 0.988648
1.00067 1.00093 0.992348
1.00264 1.00119 0.988692
1.00381 1.00104 0.986702
0.999532 0.99972 0.998277
1.00037 1.00116 0.992782
1.00179 1.00224 0.989221
0.999573 0.99931 0.998417
1.0002 1.00086 0.993493
0.999597 0.998897 0.998565
1.00382 1.00095 0.986399
1.00238 1.00306 0.98705
1.00203 1.00291 0.988169
1.00132 1.00351 0.988796
1.00115 1.00307 0.989622
1.00064 1.00257 0.991052
1.00069 1.00284 0.990668
1.00028 1.00235 0.991816
0.999726 1.00024 0.994897
1.00009 1.002 0.992481
0.999667 0.999661 0.995546
0.999516 0.998162 0.998941
0.999732 0.999138 0.995948
0.999517 0.997853 0.999079
0.999576 0.997641 0.99912
1.00479 0.995213 0.990779
1.00126 0.997111 0.990831
0.996763 0.99608 0.974951
1.0051 0.998348 0.987134
1.00285 1.00007 0.989162
1.00516 0.998584 0.986733
1.0048 0.999368 0.986694
1.00229 1.00232 0.987613
1.00507 0.99798 0.987254
1.00228 1.00154 0.98933
1.00475 0.998859 0.98725
1.00512 0.996624 0.988443
1.00453 0.998656 0.987702
1.00499 0.99751 0.987828
1.00463 0.995881 0.990288
1.00436 0.997001 0.989198
1.00042 0.998793 0.994162
1.00517 0.995352 0.989605
1.00474 0.995498 0.99169
1.00157 0.99647 0.989818
1.00497 0.994868 0.99086
1.00493 0.995156 0.990378
1.00511 0.994925 0.990311
1.00519 0.995046 0.990024
1.00517 0.995345 0.989828
1.00501 0.99493 0.990374
1.00513 0.995485 0.989765
1.00515 0.996475 0.988785
1.00512 0.995821 0.989421
1.00512 0.996868 0.988434
1.00518 0.998202 0.987086
1.00513 0.997224 0.988114
1.00517 0.998379 0.986933
1.00506 0.999235 0.986288
1.00513 0.998613 0.986738
1.00498 0.999332 0.986329
1.0045 0.999778 0.986778
1.00492 0.999416 0.9863
1.00438 0.999832 0.986921
1.00328 1.00008 0.988657
1.00425 0.999988 0.986781
1.00313 1.00036 0.988644
1.00088 1.00052 0.993565
0.999716 0.999971 0.995675
1.00074 1.00088 0.992953
1.00261 1.00122 0.988699
0.999586 0.999838 0.998194
1.0005 1.00102 0.99276
0.999606 0.999409 0.998331
1.00518 0.998556 0.986811
1.00479 0.999254 0.986596
1.00391 1.00099 0.986398
1.00303 1.00198 0.987179
1.00237 1.00293 0.986978
1.00198 1.00296 0.98819
1.00119 1.00251 0.990103
1.00108 1.00307 0.989655
1.00057 1.00258 0.991072
0.999924 1.00072 0.994114
1.00022 1.00243 0.991817
0.999702 1.00023 0.99491
0.999513 0.998576 0.998739
0.999679 0.999587 0.995569
0.999493 0.998106 0.998988
0.999514 0.997826 0.999095
1.00516 0.995849 0.989148
1.00494 0.995195 0.99114
1.0016 0.99651 0.989673
1.00515 0.998249 0.986972
1.00487 0.998465 0.987366
1.00246 0.999651 0.990242
1.00516 0.998638 0.986733
1.00481 0.999581 0.986615
1.0051 0.996891 0.98859
1.00507 0.997976 0.9872
1.00491 0.998881 0.986884
1.00511 0.996621 0.988455
1.005 0.997521 0.987812
1.00467 0.995969 0.990417
1.00514 0.995515 0.989875
1.00518 0.995349 0.98974
1.00474 0.995952 0.991772
1.00513 0.994917 0.990394
1.00519 0.995042 0.990011
1.00517 0.995255 0.989894
1.00513 0.996632 0.988771
1.00513 0.995534 0.989776
1.00516 0.996528 0.988752
1.00517 0.998013 0.987305
1.00512 0.996968 0.988336
1.00518 0.998204 0.98709
1.00513 0.999164 0.986246
1.00516 0.998387 0.986944
1.00505 0.999233 0.986301
1.00462 0.999765 0.986574
1.00498 0.99933 0.986343
1.00449 0.999779 0.986784
1.00338 1.00003 0.988518
1.00437 0.999844 0.986927
1.00328 1.00007 0.988648
1.00099 1.00017 0.993737
1.00311 1.00037 0.988639
1.001 1.00044 0.993533
0.999765 1.00007 0.995699
0.999627 1.00017 0.996842
1.00088 1.0008 0.993464
0.999634 0.999959 0.998113
1.00519 0.998381 0.986906
1.00502 0.998864 0.986875
1.00518 0.998488 0.986792
1.00398 1.0004 0.986968
1.00481 0.999238 0.986615
1.00399 1.00104 0.986398
1.00305 1.002 0.987151
1.00198 1.00192 0.989173
1.00192 1.003 0.98821
1.00115 1.00249 0.990124
1.00018 1.00109 0.993308
1.0005 1.0026 0.991091
0.99983 1.00079 0.994129
0.999474 0.999165 0.998493
0.999674 1.00022 0.994924
0.999491 0.998489 0.998816
0.999481 0.998052 0.999029
1.00512 0.996159 0.989153
1.00516 0.99586 0.989145
1.00501 0.99516 0.991471
1.00514 0.997537 0.98781
1.00514 0.998226 0.987004
1.00462 0.998583 0.987609
1.00516 0.9987 0.986732
1.00511 0.996892 0.988465
1.00507 0.997974 0.987146
1.00509 0.996623 0.988467
1.00512 0.996446 0.988986
1.00514 0.995584 0.98975
1.0052 0.995335 0.989876
1.00511 0.997096 0.988271
1.00518 0.995162 0.989959
1.00513 0.996623 0.988755
1.00514 0.997804 0.987705
1.00516 0.996583 0.98872
1.00517 0.99801 0.987306
1.00516 0.999052 0.986314
1.00518 0.998209 0.987095
1.00511 0.999165 0.986258
1.00474 0.999736 0.986371
1.00504 0.99923 0.986314
1.00461 0.999759 0.98658
1.0035 1.00005 0.988295
1.00448 0.99978 0.98679
1.00339 1.00002 0.988515
1.00108 1.00001 0.99375
1.00329 1.00007 0.988639
1.00109 1.00012 0.993683
0.999777 0.999979 0.995805
1.00112 1.00034 0.993509
0.999561 1.00024 0.995805
0.999353 1.00042 0.998223
1.00517 0.998372 0.986904
1.00511 0.998886 0.986557
1.0052 0.998398 0.986839
1.00441 0.999575 0.987342
1.00499 0.998729 0.986858
1.00518 0.998417 0.986773
1.00283 1.00083 0.988671
1.00403 1.0004 0.986942
1.00483 0.99922 0.986634
1.00308 1.00202 0.987123
1.00199 1.00188 0.989178
1.00047 1.00117 0.992656
1.0011 1.00248 0.990145
1.00005 1.0012 0.993334
0.999439 0.99984 0.998255
0.999749 1.00086 0.994142
0.999461 0.999035 0.998587
0.999474 0.998392 0.998885
1.00513 0.996949 0.988341
1.00512 0.996064 0.989186
1.00515 0.995889 0.989143
1.00513 0.997492 0.987852
1.00513 0.998198 0.987037
1.00511 0.996893 0.98834
1.00511 0.997166 0.98832
1.00512 0.996525 0.988918
1.00513 0.995651 0.989625
1.00511 0.997095 0.988353
1.0051 0.99789 0.987589
1.00513 0.996617 0.988739
1.00513 0.99789 0.987544
1.00514 0.99878 0.986654
1.00518 0.998003 0.987307
1.00514 0.999047 0.986325
1.00483 0.999675 0.986257
1.0051 0.999159 0.986269
1.00473 0.999734 0.986378
1.00363 1.00004 0.98805
1.00461 0.999753 0.986585
1.00351 1.00003 0.988295
1.00116 1.00003 0.993583
1.0034 1 0.988511
1.00117 0.999981 0.99367
0.999842 0.999922 0.995769
1.00118 1.00006 0.993639
0.999598 1.00005 0.995929
0.999369 1.00045 0.995896
1.00515 0.997887 0.987511
1.00515 0.998944 0.986371
1.00518 0.998253 0.98702
1.00466 0.999385 0.986979
1.00512 0.998941 0.986523
1.0052 0.998417 0.986773
1.00328 1.00006 0.988626
1.00441 0.999486 0.987225
1.00496 0.998597 0.98684
1.00079 1.00077 0.992386
1.00285 1.00082 0.988667
1.00408 1.00041 0.986915
1.002 1.00185 0.989184
1.00037 1.00126 0.992676
0.999478 1.00038 0.998083
0.999924 1.00132 0.993357
0.99941 0.999697 0.998344
0.999451 0.998893 0.998672
1.00511 0.99729 0.988104
1.00512 0.996919 0.988377
1.00512 0.99597 0.989219
1.00513 0.997448 0.987893
1.00511 0.997959 0.987524
1.00511 0.997167 0.988339
1.00511 0.996604 0.988849
1.0051 0.997095 0.988434
1.0051 0.997833 0.987637
1.00511 0.998703 0.986856
1.00513 0.997976 0.987384
1.00514 0.99888 0.986547
1.00489 0.99947 0.986312
1.00513 0.999048 0.986336
1.00482 0.999677 0.986268
1.00377 1 0.987836
1.00472 0.999736 0.986385
1.00364 1.00003 0.988051
1.00128 1.00008 0.992172
1.00352 1.00002 0.988295
1.00125 0.999998 0.992921
0.999824 0.999954 0.998038
1.00126 0.999959 0.993593
0.999684 0.999926 0.995906
0.999433 1.00014 0.996035
1.00513 0.997806 0.987663
1.00515 0.998759 0.986618
1.00514 0.997956 0.987467
1.0048 0.999272 0.986568
1.00515 0.998933 0.986442
1.00518 0.998133 0.987135
1.0035 0.999729 0.98827
1.00467 0.999411 0.986973
1.00512 0.998995 0.986489
1.00102 1.00024 0.992467
1.00329 1.00001 0.988518
1.00441 0.999393 0.987109
0.999544 1.00053 0.998045
1.00075 1.00081 0.992398
1.00287 1.00081 0.988662
1.00027 1.00132 0.992705
0.999421 1.00024 0.99814
0.99938 0.999529 0.998434
1.00512 0.997899 0.987558
1.00511 0.997294 0.988108
1.00512 0.996887 0.988413
1.00511 0.998675 0.986817
1.0051 0.997908 0.987572
1.00511 0.997169 0.988359
1.0051 0.997773 0.987685
1.00511 0.998687 0.98686
1.00489 0.999365 0.986661
1.00513 0.998981 0.986441
1.00488 0.999552 0.986381
1.00387 0.999888 0.987516
1.00481 0.999673 0.98628
1.00376 0.999999 0.987839
1.00138 1.00009 0.991981
1.00364 1.00002 0.988053
1.00129 1.00008 0.992164
0.999863 0.999972 0.99799
1.00127 0.999982 0.992327
0.999764 0.999932 0.996945
0.999528 0.999916 0.996039
1.00513 0.998064 0.987379
1.00515 0.998674 0.986658
1.00513 0.997788 0.987666
1.00484 0.999312 0.986574
1.00515 0.998796 0.98655
1.00514 0.998025 0.987424
1.00368 0.999607 0.98806
1.0048 0.999337 0.986694
1.00516 0.998923 0.986513
1.00117 0.999927 0.992493
1.00351 0.999736 0.988237
1.00468 0.999437 0.986966
0.99966 1.00032 0.998069
1.00101 1.00023 0.992472
1.0033 0.999971 0.988408
0.999529 1.00043 0.998045
1.0007 1.00084 0.99241
0.999356 1.00013 0.998213
1.00513 0.99856 0.986939
1.00511 0.997927 0.987506
1.00511 0.997299 0.988112
1.00486 0.999255 0.986812
1.00511 0.998629 0.986881
1.0051 0.997863 0.987621
1.00511 0.998672 0.986865
1.00489 0.99937 0.986658
1.00389 0.999792 0.987572
1.00487 0.999636 0.986451
1.00386 0.999926 0.987607
1.00147 1.00007 0.991847
1.00376 0.999995 0.987842
1.00138 1.0001 0.991975
0.999921 0.999995 0.997916
1.00129 1.00008 0.992155
0.999883 0.999978 0.99796
0.999833 0.999868 0.99571
1.00514 0.99866 0.98677
1.00514 0.997957 0.987438
1.00484 0.999283 0.986618
1.00514 0.998682 0.986656
1.00513 0.997768 0.98767
1.00375 0.999669 0.988178
1.00484 0.999314 0.986567
1.00515 0.998833 0.986481
1.00131 0.999831 0.992341
1.00368 0.999649 0.988157
1.0048 0.999404 0.98682
0.999809 1.00009 0.998039
1.00117 0.999918 0.992502
1.00353 0.999738 0.988205
0.999639 1.00032 0.998056
1.00101 1.00023 0.992474
0.999475 1.0004 0.99806
1.00483 0.999217 0.986893
1.00513 0.998593 0.986892
1.00511 0.997956 0.987454
1.00383 0.999729 0.987732
1.00486 0.999266 0.986814
1.00512 0.998579 0.986944
1.00489 0.999374 0.986655
1.0039 0.999788 0.987553
1.0015 1.00004 0.991821
1.00386 0.999961 0.987699
1.00146 1.00007 0.991845
0.999984 1.00001 0.997855
1.00138 1.0001 0.991969
0.999942 1 0.997895
0.999904 0.999985 0.997931
1.00484 0.999253 0.98668
1.00514 0.998556 0.98685
1.00514 0.99785 0.987498
1.00376 0.999717 0.98812
1.00484 0.999285 0.98661
1.00514 0.998691 0.986654
1.00138 0.999895 0.992164
1.00375 0.999677 0.988173
1.00483 0.999317 0.986561
0.999916 0.999958 0.997969
1.00131 0.999842 0.992347
1.00368 0.999682 0.988254
0.999764 1.00012 0.998055
1.00117 0.999923 0.992511
0.999631 1.00031 0.998037
1.00379 0.999779 0.988013
1.00484 0.999182 0.986799
1.00513 0.998623 0.986846
1.00147 0.999999 0.991925
1.00384 0.999721 0.987712
1.00486 0.999276 0.986815
1.00391 0.999783 0.987535
1.00149 1.00003 0.991827
1.00003 1.00001 0.997809
1.00146 1.00007 0.991842
1 1.00001 0.997833
0.999959 1 0.997876
1.00377 0.999746 0.988074
1.00483 0.999192 0.98669
1.00513 0.998454 0.986929
1.00147 0.999988 0.993201
1.00376 0.999715 0.988116
1.00483 0.999287 0.986601
0.999953 0.999946 0.997903
1.00138 0.999917 0.992168
1.00375 0.999685 0.988167
0.999881 0.999991 0.997996
1.0013 0.999865 0.992353
0.999734 1.00013 0.998063
1.00147 0.999989 0.991955
1.00379 0.999739 0.987919
1.00484 0.999144 0.986706
1.00001 1 0.997822
1.00146 1 0.991927
1.00386 0.999714 0.987691
1.00149 1.00003 0.99183
1.00003 1.00001 0.997809
1.00002 1.00001 0.997818
1.00153 0.999988 0.993119
1.00378 0.999742 0.988074
1.00483 0.99913 0.9867
0.999709 0.999983 0.998138
1.0014 0.99999 0.992063
1.00378 0.999713 0.988111
0.99994 0.999961 0.997932
1.00138 0.999941 0.992173
0.999852 1.00001 0.998022
0.999977 1 0.995426
1.00148 0.999988 0.992555
1.0038 0.999701 0.987824
1.00001 1 0.997826
1.00145 1 0.991933
1.00003 1.00001 0.997803
0.999698 1 0.99572
1.00147 0.999989 0.992581
1.00378 0.999738 0.988074
0.999825 0.999984 0.996804
1.00141 0.999984 0.992067
0.99992 0.999976 0.997958
0.99998 0.999996 0.997844
1.00142 0.999992 0.992018
0.999988 1 0.997834
0.999833 0.999994 0.996789
1.00142 0.999993 0.99204
0.99995 0.999972 0.997907
0.999971 0.999991 0.99786
0.999955 0.999985 0.997878

TENSORS stress float
0.00151436 -6.10399e-05 0.000134684
-6.10399e-05 0.000508281 -1.59002e-05
0.000134684 -1.59002e-05 0.000487187
0.00447036 -0.000102553 0.000126423
-0.000102553 0.00219468 9.25175e-06
0.000126423 9.25175e-06 0.00218133
0.00142034 1.49558e-05 6.87259e-05
1.49558e-05 0.000470667 -5.32824e-06
6.87259e-05 -5.32824e-06 0.00043859
0.00170951 -3.99057e-05 0.000136254
-3.99057e-05 0.000596944 -1.07474e-05
0.000136254 -1.07474e-05 0.000577887
0.00161489 -5.63295e-05 0.000132626
-5.63295e-05 0.000559278 -1.47369e-05
0.000132626 -1.47369e-05 0.000538947
0.00132147 -5.01885e-05 0.000129021
-5.01885e-05 0.00039945 -1.47171e-05
0.000129021 -1.47171e-05 0.000381147
0.00138225 -2.40716e-05 1.44604e-05
-2.40716e-05 0.000373868 -7.66053e-06
1.44604e-05 -7.66053e-06 0.000301897
0.00429757 -0.000131323 8.34092e-06
-0.000131323 0.00209943 -1.07561e-06
8.34092e-06 -1.07561e-06 0.0020845
0.00496519 -5.86368e-05 3.82289e-05
-5.86368e-05 0.00244539 1.9733e-06
3.82289e-05 1.9733e-06 0.00243108
0.0044672 -0.000295528 -1.30821e-05
-0.000295528 0.00224163 5.60421e-06
-1.30821e-05 5.60421e-06 0.00218986
0.00144918 9.46479e-06 0.000112195
9.46479e-06 0.000469262 8.54933e-06
0.000112195 8.54933e-06 0.000458458
0.000754101 0.000111931 1.52539e-05
0.000111931 3.308e-05 1.01542e-05
1.52539e-05 1.01542e-05 -3.3266e-05
0.00163218 -2.12977e-05 0.000151238
-2.12977e-05 0.000545929 1.72812e-06
0.000151238 1.72812e-06 0.000529139
0.00125762 -1.22217e-05 1.61093e-05
-1.22217e-05 0.000352145 1.62126e-06
1.61093e-05 1.62126e-06 0.000320324
0.00140414 4.2685e-05 -1.20069e-05
4.2685e-05 0.000462721 4.17425e-06
-1.20069e-05 4.17425e-06 0.000428422
0.0014805 -3.12966e-05 5.32847e-05
-3.12966e-05 0.000475195 -3.17821e-06
5.32847e-05 -3.17821e-06 0.000451428
0.00134016 2.50548e-05 6.7637e-05
2.50548e-05 0.000429299 -4.75992e-06
6.7637e-05 -4.75992e-06 0.000397078
0.00144655 -7.15024e-06 6.07119e-05
-7.15024e-06 0.00047147 -5.44566e-06
6.07119e-05 -5.44566e-06 0.000445579
0.00145562 -6.98784e-05 -2.59471e-05
-6.98784e-05 0.000401121 1.72267e-06
-2.59471e-05 1.72267e-06 0.000338567
0.00514085 -0.000100477 0.000162182
-0.000100477 0.00254143 -3.3656e-06
0.000162182 -3.3656e-06 0.00253652
0.00169974 -2.56397e-05 0.000139909
-2.56397e-05 0.000587546 -8.22324e-06
0.000139909 -8.22324e-06 0.00056835
0.00168706 -5.00588e-05 0.000133702
-5.00588e-05 0.00059049 -1.29189e-05
0.000133702 -1.29189e-05 0.000571174
0.00144922 -6.56559e-05 3.29804e-05
-6.56559e-05 0.00036703 -5.07718e-06
3.29804e-05 -5.07718e-06 0.000307391
0.001423 -4.5015e-05 2.2837e-05
-4.5015e-05 0.000373511 -6.49967e-06
2.2837e-05 -6.49967e-06 0.000310583
0.00117159 -6.16612e-06 0.000105389
-6.16612e-06 0.000315097 -1.16618e-05
0.000105389 -1.16618e-05 0.000299251
0.0012264 -1.38967e-05 1.05719e-05
-1.38967e-05 0.000310351 -8.17351e-06
1.05719e-05 -8.17351e-06 0.000235455
0.0019397 -0.000173851 1.00678e-05
-0.000173851 0.000546891 -3.99676e-06
1.00678e-05 -3.99676e-06 0.000432588
0.00412607 -0.000158832 -9.66435e-05
-0.000158832 0.00200644 -5.38731e-06
-9.66435e-05 -5.38731e-06 0.00198871
0.00319573 -5.21746e-07 -7.82699e-05
-5.21746e-07 0.00145137 -3.819e-06
-7.82699e-05 -3.819e-06 0.00143175
0.0029123 -9.45379e-05 -6.08909e-05
-9.45379e-05 0.00132174 -1.9266e-06
-6.08909e-05 -1.9266e-06 0.00129388
0.00386475 -0.000132338 6.10008e-06
-0.000132338 0.00184829 -4.50737e-07
6.10008e-06 -4.50737e-07 0.00183806
0.000643263 9.83582e-05 -1.06211e-07
9.83582e-05 -2.42654e-05 -3.77131e-07
-1.06211e-07 -3.77131e-07 -8.95562e-05
0.00153702 4.69404e-05 0.000139386
4.69404e-05 0.000502399 9.70661e-06
0.000139386 9.70661e-06 0.000483083
0.00175273 9.32437e-05 0.000140407
9.32437e-05 0.000637672 1.32302e-05
0.000140407 1.32302e-05 0.0006186
0.00248859 0.000139779 8.57191e-05
0.000139779 0.000957695 1.0117e-05
8.57191e-05 1.0117e-05 0.000903659
0.00314223 -0.000159193 1.36542e-05
-0.000159193 0.00144453 1.78594e-06
1.36542e-05 1.78594e-06 0.00142991
0.0024548 0.00013386 7.81135e-05
0.00013386 0.000975081 1.06052e-05
7.81135e-05 1.06052e-05 0.000918787
0.00068291 5.94478e-05 1.33855e-05
5.94478e-05 3.03264e-06 1.21648e-05
1.33855e-05 1.21648e-05 -5.41012e-05
0.000951605 0.000132454 6.25811e-06
0.000132454 8.69463e-05 3.26836e-06
6.25811e-06 3.26836e-06 -3.27801e-05
0.00267033 -9.74306e-05 5.83511e-05
-9.74306e-05 0.00116217 2.44643e-06
5.83511e-05 2.44643e-06 0.00116562
0.00519134 4.96345e-05 3.00348e-06
4.96345e-05 0.00255994 -9.66643e-07
3.00348e-06 -9.66643e-07 0.0025603
0.00321819 2.54056e-05 -6.22965e-05
2.54056e-05 0.00145478 -1.64648e-06
-6.22965e-05 -1.64648e-06 0.00143732
0.00518307 6.63748e-05 0.000162723
6.63748e-05 0.00255758 1.14021e-06
0.000162723 1.14021e-06 0.00255668
0.00133476 1.27026e-05 1.55631e-05
1.27026e-05 0.000394615 1.36721e-06
1.55631e-05 1.36721e-06 0.000363262
0.000733548 1.84761e-06 1.59573e-05
1.84761e-06 -6.39053e-05 1.93786e-06
1.59573e-05 1.93786e-06 -0.000128205
0.00489824 0.000130461 6.7005e-05
0.000130461 0.00241011 4.94148e-06
6.7005e-05 4.94148e-06 0.00239364
0.00253339 3.38978e-05 8.60738e-05
3.38978e-05 0.000953924 5.14581e-06
8.60738e-05 5.14581e-06 0.000907441
0.00120241 -5.69223e-05 -3.07695e-05
-5.69223e-05 0.000331063 3.77149e-06
-3.07695e-05 3.77149e-06 0.000299466
0.00130807 -1.39207e-05 -2.36677e-05
-1.39207e-05 0.000397476 3.85773e-06
-2.36677e-05 3.85773e-06 0.000368318
0.00139486 0.000118595 2.58132e-06
0.000118595 0.000484971 6.06696e-06
2.58132e-06 6.06696e-06 0.000435591
0.00147765 -9.04326e-05 -7.3127e-05
-9.04326e-05 0.00040613 1.01971e-05
-7.3127e-05 1.01971e-05 0.000348781
0.00329607 2.42297e-05 -6.75328e-05
2.42297e-05 0.00150443 -1.06424e-06
-6.75328e-05 -1.06424e-06 0.00148199
0.00148463 -3.63132e-05 5.7181e-05
-3.63132e-05 0.000476553 -2.14354e-06
5.7181e-05 -2.14354e-06 0.00045091
0.00118736 3.99269e-05 5.29407e-05
3.99269e-05 0.000339874 -3.73357e-06
5.29407e-05 -3.73357e-06 0.00031354
0.00147249 -2.49608e-05 5.54141e-05
-2.49608e-05 0.000474894 -4.5867e-06
5.54141e-05 -4.5867e-06 0.00045159
0.00149318 -6.56378e-05 -2.0188e-05
-6.56378e-05 0.000388508 7.02496e-07
-2.0188e-05 7.02496e-07 0.000332041
0.00134625 -4.50677e-05 -2.89237e-05
-4.50677e-05 0.000367853 6.72007e-07
-2.89237e-05 6.72007e-07 0.00030012
0.00147954 -7.62308e-05 -2.17997e-05
-7.62308e-05 0.000398655 1.47065e-06
-2.17997e-05 1.47065e-06 0.000340728
0.00196393 -0.000173603 -4.79941e-06
-0.000173603 0.000559426 1.2415e-06
-4.79941e-06 1.2415e-06 0.000445104
0.00513488 6.81589e-05 0.000153686
6.81589e-05 0.00253205 -1.34044e-07
0.000153686 -1.34044e-07 0.00253106
0.00170242 -1.08428e-05 0.000143582
-1.08428e-05 0.000587231 -5.59878e-06
0.000143582 -5.59878e-06 0.00056808
0.0023537 5.46963e-05 1.79755e-05
5.46963e-05 0.000865579 -1.28246e-06
1.79755e-05 -1.28246e-06 0.00080906
0.00145197 -6.75195e-05 3.07545e-05
-6.75195e-05 0.000364338 -4.18976e-06
3.07545e-05 -4.18976e-06 0.000303247
0.00144629 -6.07053e-05 2.95541e-05
-6.07053e-05 0.000371246 -5.75193e-06
2.95541e-05 -5.75193e-06 0.000311728
0.00196216 -0.000108655 9.78379e-06
-0.000108655 0.000499833 -2.39282e-06
9.78379e-06 -2.39282e-06 0.000398299
0.00152931 -0.000137554 1.20241e-05
-0.000137554 0.00028773 -4.26115e-06
1.20241e-05 -4.26115e-06 0.000178442
0.00112087 3.68414e-05 7.75626e-05
3.68414e-05 0.000280684 -8.78925e-06
7.75626e-05 -8.78925e-06 0.000266882
0.000886565 1.5113e-05 8.41238e-06
1.5113e-05 0.000148394 -6.68262e-06
8.41238e-06 -6.68262e-06 8.615e-05
0.00177116 -0.000170617 7.80011e-06
-0.000170617 0.000504394 -4.15922e-06
7.80011e-06 -4.15922e-06 0.000386395
0.00129175 -0.00016524 6.51436e-06
-0.00016524 9.48624e-05 -1.22214e-06
6.51436e-06 -1.22214e-06 -4.61194e-05
0.00510236 3.72267e-05 -0.000157717
3.72267e-05 0.00251571 -9.74014e-06
-0.000157717 -9.74014e-06 0.00251439
0.00364826 -0.000144988 -8.30582e-05
-0.000144988 0.00172745 -3.31774e-06
-8.30582e-05 -3.31774e-06 0.00171652
0.00451872 -0.000149663 -0.000109893
-0.000149663 0.00223119 -7.82952e-06
-0.000109893 -7.82952e-06 0.00221113
0.000537852 9.42728e-05 -1.33039e-05
9.42728e-05 -7.97022e-05 -1.04699e-05
-1.33039e-05 -1.04699e-05 -0.0001441
0.00519477 8.6799e-05 -2.54583e-06
8.6799e-05 0.00256152 -1.21358e-06
-2.54583e-06 -1.21358e-06 0.00256015
0.00508411 -3.98262e-05 -7.51049e-06
-3.98262e-05 0.00252273 1.41371e-07
-7.51049e-06 1.41371e-07 0.00251336
0.000592418 0.000107027 -4.94178e-07
0.000107027 -0.000106898 -2.35512e-07
-4.94178e-07 -2.35512e-07 -0.000176554
0.00212368 -9.73679e-05 -3.50845e-05
-9.73679e-05 0.000861397 -1.59637e-07
-3.50845e-05 -1.59637e-07 0.000848807
0.000606295 0.000128793 -1.05545e-06
0.000128793 -6.16549e-05 -9.91496e-08
-1.05545e-06 -9.91496e-08 -0.000130488
0.00129264 3.83016e-05 2.24375e-05
3.83016e-05 0.000355198 2.77277e-07
2.24375e-05 2.77277e-07 0.000304772
0.000894229 0.000125713 3.38374e-07
0.000125713 5.3124e-05 -2.01174e-07
3.38374e-07 -2.01174e-07 -6.54425e-05
0.00301524 -9.98657e-05 7.77584e-05
-9.98657e-05 0.0013572 3.03035e-06
7.77584e-05 3.03035e-06 0.0013591
0.000618427 -6.52325e-05 -6.44358e-07
-6.52325e-05 -1.59684e-06 5.83574e-06
-6.44358e-07 5.83574e-06 -3.25123e-05
0.000708174 7.64583e-05 1.67928e-05
7.64583e-05 -6.12697e-05 7.86739e-06
1.67928e-05 7.86739e-06 -0.000127876
0.000742383 0.00012311 2.08215e-05
0.00012311 -9.02222e-06 1.23286e-05
2.08215e-05 1.23286e-05 -8.15645e-05
0.00105775 0.000120418 1.1163e-05
0.000120418 2.97263e-06 4.44554e-06
1.1163e-05 4.44554e-06 -0.000115685
0.00187228 -1.71497e-05 4.49537e-05
-1.71497e-05 0.000692623 5.57968e-06
4.49537e-05 5.57968e-06 0.000656417
0.000996001 0.000137405 8.03193e-06
0.000137405 5.77902e-05 4.59132e-06
8.03193e-06 4.59132e-06 -6.32321e-05
0.000948934 0.000116061 5.56634e-06
0.000116061 0.000134143 3.51395e-06
5.56634e-06 3.51395e-06 1.86962e-05
0.00092396 0.000157559 2.38497e-06
0.000157559 2.61859e-05 3.38811e-07
2.38497e-06 3.38811e-07 -0.000122673
0.00239689 -9.16645e-05 4.0662e-05
-9.16645e-05 0.00100374 2.54731e-06
4.0662e-05 2.54731e-06 0.00100896
0.00255108 -0.000102496 3.45319e-06
-0.000102496 0.00109695 -2.38672e-07
3.45319e-06 -2.38672e-07 0.00109897
0.00516085 1.66618e-05 -0.000156555
1.66618e-05 0.00254006 -6.21883e-06
-0.000156555 -6.21883e-06 0.00254075
0.0051846 4.32097e-05 -0.000159494
4.32097e-05 0.00255522 -2.95773e-06
-0.000159494 -2.95773e-06 0.00255623
0.00520442 7.60654e-05 -7.49591e-08
7.60654e-05 0.00257432 -1.29642e-06
-7.49591e-08 -1.29642e-06 0.00257033
0.00323309 -1.41404e-05 -7.57461e-05
-1.41404e-05 0.00146011 -1.86047e-06
-7.57461e-05 -1.86047e-06 0.00144468
0.00164059 1.84574e-05 3.6768e-05
1.84574e-05 0.000448261 4.23821e-07
3.6768e-05 4.23821e-07 0.000392786
0.00325463 6.7235e-05 -6.54661e-05
6.7235e-05 0.00147321 -3.08279e-06
-6.54661e-05 -3.08279e-06 0.00145622
0.00165282 5.00539e-05 3.51229e-05
5.00539e-05 0.000462256 9.85438e-07
3.51229e-05 9.85438e-07 0.000405857
0.00520459 0.000143207 0.000163317
0.000143207 0.00258352 2.96101e-06
0.000163317 2.96101e-06 0.00257341
0.000672058 -4.39855e-08 1.64366e-05
-4.39855e-08 -9.82785e-05 4.99959e-07
1.64366e-05 4.99959e-07 -0.000162019
0.00257574 5.85013e-06 8.74972e-05
5.85013e-06 0.000975442 3.51865e-06
8.74972e-05 3.51865e-06 0.000929253
0.00113016 2.63362e-05 1.13946e-05
2.63362e-05 2.3433e-06 1.3257e-06
1.13946e-05 1.3257e-06 -0.000106713
0.00246477 7.72323e-05 8.6034e-05
7.72323e-05 0.000923137 6.19149e-06
8.6034e-05 6.19149e-06 0.000874491
0.00113712 6.47672e-05 1.10435e-05
6.47672e-05 1.72976e-05 2.4812e-06
1.10435e-05 2.4812e-06 -9.36811e-05
0.00165223 2.80215e-05 -0.000149734
2.80215e-05 0.000559052 9.55623e-07
-0.000149734 9.55623e-07 0.000542322
0.00123808 -1.14922e-05 -2.05484e-05
-1.14922e-05 0.000344793 1.91409e-06
-2.05484e-05 1.91409e-06 0.000314355
0.00120742 0.000109198 -2.06198e-06
0.000109198 0.000372031 4.87691e-06
-2.06198e-06 4.87691e-06 0.000330955
0.00124094 -3.88377e-05 -2.99427e-05
-3.88377e-05 0.000353798 3.89737e-06
-2.99427e-05 3.89737e-06 0.000324575
0.00158489 -4.92335e-05 -7.38204e-05
-4.92335e-05 0.000434414 5.97425e-06
-7.38204e-05 5.97425e-06 0.0003825
0.00152422 -7.91949e-05 -7.21441e-05
-7.91949e-05 0.000418417 9.19766e-06
-7.21441e-05 9.19766e-06 0.000364335
0.00140787 -8.37726e-05 -7.02192e-05
-8.37726e-05 0.000389507 1.00064e-05
-7.02192e-05 1.00064e-05 0.000330796
0.00199309 -0.000174138 -1.9261e-05
-0.000174138 0.000575284 6.34549e-06
-1.9261e-05 6.34549e-06 0.000460801
0.00519375 -7.80134e-05 1.18699e-06
-7.80134e-05 0.0025686 -9.98567e-07
1.18699e-06 -9.98567e-07 0.00256433
0.00147851 3.30376e-05 6.59601e-05
3.30376e-05 0.000469742 -1.8305e-06
6.59601e-05 -1.8305e-06 0.000444795
0.00113604 5.16946e-06 -3.93655e-05
5.16946e-06 0.000167849 5.50214e-07
-3.93655e-05 5.50214e-07 0.00011052
0.00150506 -4.10694e-05 -2.36092e-05
-4.10694e-05 0.000388565 7.30995e-07
-2.36092e-05 7.30995e-07 0.000332179
0.00230762 7.26603e-05 7.72989e-05
7.26603e-05 0.00096198 -5.19158e-07
7.72989e-05 -5.19158e-07 0.000952474
0.00150078 -1.1677e-05 -1.9734e-05
-1.1677e-05 0.00048208 -5.4971e-07
-1.9734e-05 -5.4971e-07 0.000424058
0.00149454 -7.26224e-05 -1.99827e-05
-7.26224e-05 0.000395497 1.03148e-06
-1.99827e-05 1.03148e-06 0.000339107
0.00178047 -0.000100604 -6.8644e-06
-0.000100604 0.000396312 1.20994e-06
-6.8644e-06 1.20994e-06 0.000293622
0.00187767 -0.000178431 -3.75705e-06
-0.000178431 0.000562535 1.02061e-06
-3.75705e-06 1.02061e-06 0.000442477
0.00176697 -0.000146129 -2.49169e-06
-0.000146129 0.000421431 5.31171e-07
-2.49169e-06 5.31171e-07 0.00031296
0.00124937 -0.000161789 2.28173e-07
-0.000161789 7.25204e-05 2.62578e-08
2.28173e-07 2.62578e-08 -6.79105e-05
0.000704321 7.73476e-06 1.67211e-05
7.73476e-06 -7.93652e-05 -1.24921e-06
1.67211e-05 -1.24921e-06 -0.000142008
0.00145399 8.25555e-06 2.34143e-05
8.25555e-06 0.000357607 -2.46781e-06
2.34143e-05 -2.46781e-06 0.000297861
0.00160303 -2.12134e-05 1.14555e-05
-2.12134e-05 0.000272274 -1.17689e-06
1.14555e-05 -1.17689e-06 0.000170165
0.00157247 -7.77982e-05 1.10857e-05
-7.77982e-05 0.000272742 -2.25543e-06
1.10857e-05 -2.25543e-06 0.000169022
0.00153884 -0.000117339 1.18574e-05
-0.000117339 0.00027241 -3.57242e-06
1.18574e-05 -3.57242e-06 0.000166376
0.00176932 -0.00011567 3.15041e-06
-0.00011567 0.000302389 -8.30355e-07
3.15041e-06 -8.30355e-07 0.000178044
0.00327232 0.00012522 7.35536e-05
0.00012522 0.00150341 -2.48855e-06
7.35536e-05 -2.48855e-06 0.00149918
0.00133465 -0.000147848 5.7862e-06
-0.000147848 9.28006e-05 -1.60263e-06
5.7862e-06 -1.60263e-06 -4.04159e-05
0.000502334 6.02349e-06 5.56498e-06
6.02349e-06 -7.8324e-05 -7.75033e-06
5.56498e-06 -7.75033e-06 -0.000127274
0.000673559 -0.000110518 4.55225e-06
-0.000110518 -3.93765e-05 -3.91684e-06
4.55225e-06 -3.91684e-06 -0.000152967
0.00136514 -0.000186147 6.02812e-06
-0.000186147 0.000193995 -2.6147e-06
6.02812e-06 -2.6147e-06 3.95746e-05
0.00141749 -0.000179029 3.41432e-06
-0.000179029 0.000104423 7.47136e-07
3.41432e-06 7.47136e-07 -4.31432e-05
0.000522101 4.18954e-05 2.16864e-06
4.18954e-05 -6.58004e-05 -6.91194e-06
2.16864e-06 -6.91194e-06 -0.000104539
0.000692274 1.73578e-05 7.21785e-07
1.73578e-05 1.57587e-05 -3.36892e-06
7.21785e-07 -3.36892e-06 -6.27392e-05
0.00518645 9.25781e-05 -0.000169752
9.25781e-05 0.00255857 -1.04774e-05
-0.000169752 -1.04774e-05 0.00255695
0.00486018 -5.76107e-05 -0.00013537
-5.76107e-05 0.00239757 -8.38939e-06
-0.00013537 -8.38939e-06 0.00239056
0.00058579 9.76574e-05 -1.59963e-05
9.76574e-05 -0.000111074 -8.79716e-06
-1.59963e-05 -8.79716e-06 -0.000180759
0.00319587 -0.000127772 -6.93479e-05
-0.000127772 0.00146654 -2.43853e-06
-6.93479e-05 -2.43853e-06 0.00146155
0.000503193 2.73427e-05 -6.95925e-06
2.73427e-05 -8.62526e-05 -9.23417e-06
-6.95925e-06 -9.23417e-06 -0.000138846
0.000514786 0.000119687 -1.63127e-05
0.000119687 -0.000109311 -1.03465e-05
-1.63127e-05 -1.03465e-05 -0.000177985
0.000849668 0.000120535 -6.39641e-06
0.000120535 2.67977e-05 -3.90255e-06
-6.39641e-06 -3.90255e-06 -9.08477e-05
0.00289616 -0.000109962 4.1462e-06
-0.000109962 0.00129346 -2.2773e-07
4.1462e-06 -2.2773e-07 0.0012933
0.000576153 -7.45628e-05 -3.61478e-08
-7.45628e-05 -2.21652e-05 2.71354e-07
-3.61478e-08 2.71354e-07 -5.46498e-05
0.0015949 9.43672e-05 3.43501e-05
9.43672e-05 0.000440334 1.50936e-06
3.43501e-05 1.50936e-06 0.000380797
0.00150469 0.000129055 3.15799e-05
0.000129055 0.000423352 1.10389e-06
3.15799e-05 1.10389e-06 0.000359632
0.00106744 0.000122662 1.94622e-07
0.000122662 9.59827e-06 -1.63487e-07
1.94622e-07 -1.63487e-07 -0.000109575
0.00062978 -1.53047e-05 -5.47792e-07
-1.53047e-05 -6.48415e-06 1.46067e-07
-5.47792e-07 1.46067e-07 -4.96107e-05
0.000961869 0.000134862 4.87815e-07
0.000134862 3.95734e-05 2.6076e-07
4.87815e-07 2.6076e-07 -8.10391e-05
0.000842766 0.000105897 2.46016e-07
0.000105897 7.40793e-05 -2.6686e-07
2.46016e-07 -2.6686e-07 -3.92091e-05
0.000846867 0.000152643 -5.67582e-08
0.000152643 -1.81453e-05 1.01584e-07
-5.67582e-08 1.01584e-07 -0.000167228
0.000625718 -4.29548e-05 3.52711e-06
-4.29548e-05 1.24699e-06 6.56602e-06
3.52711e-06 6.56602e-06 -3.64776e-05
0.000648071 -6.70727e-05 -1.19985e-06
-6.70727e-05 6.52503e-06 4.83673e-06
-1.19985e-06 4.83673e-06 -1.79946e-05
0.000680264 6.16986e-06 2.0367e-06
6.16986e-06 2.28154e-05 3.25061e-06
2.0367e-06 3.25061e-06 -5.00567e-05
0.00109328 0.000101728 1.12194e-05
0.000101728 4.4812e-06 3.82636e-06
1.12194e-05 3.82636e-06 -0.000111179
0.00102485 0.000134346 1.01192e-05
0.000134346 2.40697e-05 4.71474e-06
1.01192e-05 4.71474e-06 -9.73684e-05
0.00130086 0.000150466 6.3591e-06
0.000150466 5.77816e-05 1.71165e-06
6.3591e-06 1.71165e-06 -8.54389e-05
0.000894586 8.75241e-05 4.38775e-06
8.75241e-05 0.000129853 3.64239e-06
4.38775e-06 3.64239e-06 2.5517e-05
0.000903256 0.000155243 3.17177e-06
0.000155243 -6.11617e-05 1.9338e-06
3.17177e-06 1.9338e-06 -0.000208863
0.00114976 0.000168833 2.46436e-06
0.000168833 0.000220747 1.00323e-06
2.46436e-06 1.00323e-06 6.95912e-05
0.00116212 0.00018609 -3.26703e-06
0.00018609 0.000141338 -1.07801e-06
-3.26703e-06 -1.07801e-06 -1.87403e-05
0.00224551 -8.13233e-05 3.3703e-05
-8.13233e-05 0.000910283 2.84784e-06
3.3703e-05 2.84784e-06 0.000918488
0.00232222 -9.12366e-05 1.5952e-06
-9.12366e-05 0.000961626 -1.73359e-07
1.5952e-06 -1.73359e-07 0.000966896
0.00244125 -0.000102269 -3.93081e-05
-0.000102269 0.00103613 -2.43887e-06
-3.93081e-05 -2.43887e-06 0.00103807
0.00054295 5.20929e-05 1.3017e-06
5.20929e-05 -5.43953e-05 -6.09725e-06
1.3017e-06 -6.09725e-06 -8.87831e-05
0.0030679 0.000115449 6.27106e-05
0.000115449 0.00138345 -2.58515e-06
6.27106e-05 -2.58515e-06 0.00138222
0.00518699 0.000120254 -0.000172251
0.000120254 0.0025616 -1.00603e-05
-0.000172251 -1.00603e-05 0.00255778
0.00513962 1.38843e-05 -0.000156313
1.38843e-05 0.00252874 -4.36503e-06
-0.000156313 -4.36503e-06 0.00253024
0.000709853 5.92407e-05 -1.68102e-05
5.92407e-05 -6.67283e-05 -4.28419e-06
-1.68102e-05 -4.28419e-06 -0.000131392
0.000685191 2.35631e-05 -1.6924e-05
2.35631e-05 -8.64132e-05 -2.2105e-06
-1.6924e-05 -2.2105e-06 -0.00015109
0.00516795 -4.89556e-05 -0.000154574
-4.89556e-05 0.00254777 -7.3673e-07
-0.000154574 -7.3673e-07 0.00254814
0.00518417 1.58294e-05 -7.10234e-07
1.58294e-05 0.00255709 3.9962e-07
-7.10234e-07 3.9962e-07 0.00255694
0.00067014 -2.14692e-06 -1.44688e-07
-2.14692e-06 -9.95421e-05 -1.78463e-07
-1.44688e-07 -1.78463e-07 -0.000162933
0.00162305 2.03983e-05 3.60905e-05
2.03983e-05 0.000442027 8.45125e-07
3.60905e-05 8.45125e-07 0.000386918
0.00113957 3.0584e-05 1.24741e-07
3.0584e-05 7.73078e-06 -1.78746e-07
1.24741e-07 -1.78746e-07 -0.000101528
0.000667387 5.49316e-05 4.21834e-08
5.49316e-05 -8.78984e-05 -1.72876e-07
4.21834e-08 -1.72876e-07 -0.000152705
0.00112764 6.71054e-05 -8.65529e-08
6.71054e-05 1.24672e-05 -8.62127e-08
-8.65529e-08 -8.62127e-08 -9.89015e-05
0.000661851 -1.69861e-05 1.67302e-05
-1.69861e-05 -0.00010542 -5.06657e-07
1.67302e-05 -5.06657e-07 -0.000168277
0.00113718 1.15272e-05 1.12716e-05
1.15272e-05 2.3792e-06 5.4026e-07
1.12716e-05 5.4026e-07 -0.000106341
0.00113015 4.61115e-05 1.12332e-05
4.61115e-05 8.82547e-06 2.03888e-06
1.12332e-05 2.03888e-06 -0.000100938
0.00141062 3.59808e-05 4.39865e-06
3.59808e-05 6.49994e-05 4.32851e-07
4.39865e-06 4.32851e-07 -5.86665e-05
0.0011186 8.21849e-05 1.10587e-05
8.21849e-05 1.06528e-05 3.01282e-06
1.10587e-05 3.01282e-06 -0.000102348
0.00140373 7.82579e-05 4.43793e-06
7.82579e-05 8.00004e-05 8.03333e-07
4.43793e-06 8.03333e-07 -4.87837e-05
0.00517727 -5.67182e-05 -0.000164865
-5.67182e-05 0.00255606 -4.30801e-07
-0.000164865 -4.30801e-07 0.00255398
0.00128012 -6.92148e-05 -1.82555e-05
-6.92148e-05 0.000368958 1.9437e-06
-1.82555e-05 1.9437e-06 0.000336626
-0.00016914 -3.97138e-07 -1.34974e-05
-3.97138e-07 -0.000567049 2.19768e-06
-1.34974e-05 2.19768e-06 -0.000638008
0.00158913 -3.33079e-05 -7.53514e-05
-3.33079e-05 0.000431925 4.4259e-06
-7.53514e-05 4.4259e-06 0.00037928
0.00335041 0.000182413 -1.39339e-05
0.000182413 0.00157354 1.87555e-06
-1.39339e-05 1.87555e-06 0.00155125
0.00211579 -7.2106e-05 -5.86858e-05
-7.2106e-05 0.000810423 8.65308e-06
-5.86858e-05 8.65308e-06 0.00076077
0.00156542 -6.56704e-05 -7.2755e-05
-6.56704e-05 0.000430532 7.7576e-06
-7.2755e-05 7.7576e-06 0.000378072
0.00157927 -9.22146e-05 -2.17272e-05
-9.22146e-05 0.000281647 4.31309e-06
-2.17272e-05 4.31309e-06 0.000177938
0.00200422 -0.000155013 -1.82803e-05
-0.000155013 0.000555053 5.49044e-06
-1.82803e-05 5.49044e-06 0.000447424
0.00202619 -0.000187956 -1.63291e-05
-0.000187956 0.000644644 6.78326e-06
-1.63291e-05 6.78326e-06 0.000522268
0.00121989 -0.000159095 -5.51142e-06
-0.000159095 5.72206e-05 1.13818e-06
-5.51142e-06 1.13818e-06 -8.27318e-05
0.000664394 9.17222e-06 7.25407e-09
9.17222e-06 -0.000101657 -1.48276e-07
7.25407e-09 -1.48276e-07 -0.000164341
0.00154266 -3.95631e-05 -2.51002e-05
-3.95631e-05 0.000404523 2.50731e-07
-2.51002e-05 2.50731e-07 0.000347745
0.00118101 -1.82319e-05 -4.83405e-06
-1.82319e-05 3.52369e-05 2.16428e-07
-4.83405e-06 2.16428e-07 -7.04843e-05
0.0018187 -8.07876e-05 -3.38573e-06
-8.07876e-05 0.00040901 4.60011e-07
-3.38573e-06 4.60011e-07 0.000306928
0.00330664 0.000120284 -1.95188e-06
0.000120284 0.00152295 -3.43893e-07
-1.95188e-06 -3.43893e-07 0.00151936
0.00123737 -6.15221e-06 1.87545e-06
-6.15221e-06 0.000333873 5.11379e-07
1.87545e-06 5.11379e-07 0.00028394
0.0012386 -0.00013669 6.40366e-07
-0.00013669 0.000274476 -5.68659e-07
6.40366e-07 -5.68659e-07 0.000159965
0.00155791 -0.000116664 -3.74672e-06
-0.000116664 0.000283331 6.96781e-07
-3.74672e-06 6.96781e-07 0.000177299
0.00146388 -0.000105853 -2.53223e-06
-0.000105853 0.000130104 6.52209e-07
-2.53223e-06 6.52209e-07 4.64622e-06
0.0010329 -0.000164893 -6.51272e-07
-0.000164893 1.14735e-05 -4.70138e-07
-6.51272e-07 -4.70138e-07 -0.000141001
0.00154796 -0.000155166 2.40592e-07
-0.000155166 0.000212934 -4.30264e-08
2.40592e-07 -4.30264e-08 8.06283e-05
0.00141102 -0.000178256 4.78131e-07
-0.000178256 0.000102186 2.68515e-07
4.78131e-07 2.68515e-07 -4.53325e-05
0.000554381 3.61726e-05 -6.66265e-07
3.61726e-05 -4.8643e-05 8.99998e-08
-6.66265e-07 8.99998e-08 -8.72125e-05
0.000679507 2.62953e-06 -2.23573e-07
2.62953e-06 6.80502e-06 9.63425e-08
-2.23573e-07 9.63425e-08 -7.18902e-05
0.00112341 -9.07793e-06 1.11113e-05
-9.07793e-06 -3.82805e-06 -1.09562e-06
1.11113e-05 -1.09562e-06 -0.000111707
0.00160707 -4.48035e-05 1.10154e-05
-4.48035e-05 0.000280167 -1.60865e-06
1.10154e-05 -1.60865e-06 0.000177522
0.00178003 -2.84015e-05 3.15315e-06
-2.84015e-05 0.00028065 -2.68495e-07
3.15315e-06 -2.68495e-07 0.000162133
0.00124142 -7.88252e-05 5.21357e-06
-7.88252e-05 -3.37385e-06 -1.19214e-06
5.21357e-06 -1.19214e-06 -0.000128865
0.0016466 -0.000140788 4.71765e-06
-0.000140788 0.000247588 -1.23948e-06
4.71765e-06 -1.23948e-06 0.000119547
0.00167242 -0.000115779 2.78005e-08
-0.000115779 0.000190095 1.82133e-07
2.78005e-08 1.82133e-07 6.35101e-05
0.000488938 2.09034e-05 4.39283e-06
2.09034e-05 -8.61013e-05 -7.31529e-06
4.39283e-06 -7.31529e-06 -0.00012903
0.00141877 -0.000156494 2.50375e-06
-0.000156494 8.39555e-05 -3.47282e-07
2.50375e-06 -3.47282e-07 -5.35632e-05
0.000626911 -7.93603e-05 3.06817e-06
-7.93603e-05 -2.95591e-05 -2.44858e-06
3.06817e-06 -2.44858e-06 -0.000132907
0.000540935 -0.000134949 4.5534e-06
-0.000134949 -0.000170378 -4.35783e-06
4.5534e-06 -4.35783e-06 -0.000322523
0.00194819 -0.000234285 2.30424e-06
-0.000234285 0.000461206 3.50964e-07
2.30424e-06 3.50964e-07 0.000292802
0.00162228 -0.00019259 3.25037e-07
-0.00019259 0.000174588 1.06694e-06
3.25037e-07 1.06694e-06 2.96824e-05
0.000753796 -3.15722e-05 1.95503e-06
-3.15722e-05 5.24348e-05 -3.04365e-06
1.95503e-06 -3.04365e-06 -3.84525e-05
0.000659958 1.69331e-05 1.25915e-06
1.69331e-05 -3.48568e-06 -2.86873e-06
1.25915e-06 -2.86873e-06 -7.24308e-05
0.000851062 -7.07624e-05 9.00208e-07
-7.07624e-05 0.000106832 -6.23741e-07
9.00208e-07 -6.23741e-07 -5.71725e-06
0.000630903 7.80023e-05 -1.56772e-05
7.80023e-05 -0.000100443 -6.94344e-06
-1.56772e-05 -6.94344e-06 -0.000167414
0.00277738 -0.000116097 -5.07883e-05
-0.000116097 0.00122907 -2.24406e-06
-5.07883e-05 -2.24406e-06 0.00122738
0.000521893 -6.96369e-05 4.42176e-07
-6.96369e-05 -5.44984e-05 -5.16553e-06
4.42176e-07 -5.16553e-06 -8.5378e-05
0.000533555 0.000114755 -1.62894e-05
0.000114755 -0.000118431 -1.0267e-05
-1.62894e-05 -1.0267e-05 -0.000189305
0.00107431 0.000125044 -1.14549e-05
0.000125044 1.46536e-05 -4.78584e-06
-1.14549e-05 -4.78584e-06 -0.000105061
0.000485239 -2.42174e-05 -3.87204e-06
-2.42174e-05 -8.48217e-05 -7.75486e-06
-3.87204e-06 -7.75486e-06 -0.000128006
0.000720113 9.38574e-05 -3.96259e-06
9.38574e-05 5.11145e-06 -3.72374e-06
-3.96259e-06 -3.72374e-06 -0.000106017
0.000920986 0.000131579 -7.44627e-06
0.000131579 1.78416e-05 -4.18985e-06
-7.44627e-06 -4.18985e-06 -0.000102291
0.000741098 0.000145928 -3.6969e-06
0.000145928 -7.87323e-05 -1.22457e-06
-3.6969e-06 -1.22457e-06 -0.000227769
0.000555688 -4.83021e-05 1.5037e-06
-4.83021e-05 -3.84155e-05 1.88566e-07
1.5037e-06 1.88566e-07 -7.50687e-05
0.000610803 -6.18453e-05 -2.78855e-07
-6.18453e-05 -1.61248e-05 1.6035e-07
-2.78855e-07 1.6035e-07 -3.92748e-05
0.000655421 -2.92768e-05 3.52261e-07
-2.92768e-05 5.52087e-06 3.88858e-07
3.52261e-07 3.88858e-07 -6.31182e-05
0.00109947 0.000103943 7.75138e-08
0.000103943 8.84973e-06 -1.99697e-07
7.75138e-08 -1.99697e-07 -0.000107296
0.00101868 0.000134785 5.1234e-07
0.000134785 2.13891e-05 -2.85056e-07
5.1234e-07 -2.85056e-07 -0.000100088
0.0013255 0.000152621 3.1852e-07
0.000152621 7.09002e-05 2.33489e-08
3.1852e-07 2.33489e-08 -7.26877e-05
0.000793097 7.6856e-05 4.88598e-08
7.6856e-05 7.51184e-05 7.88989e-08
4.88598e-08 7.88989e-08 -2.80413e-05
0.0011005 0.000167672 -2.24698e-07
0.000167672 4.9265e-05 -1.63781e-07
-2.24698e-07 -1.63781e-07 -9.9759e-05
0.00103783 0.000159662 4.93135e-07
0.000159662 0.000158184 -5.49833e-07
4.93135e-07 -5.49833e-07 8.18501e-06
0.00108853 0.00018445 -7.52943e-07
0.00018445 9.77237e-05 1.41345e-06
-7.52943e-07 1.41345e-06 -6.20675e-05
0.000653117 -5.44526e-05 1.18204e-06
-5.44526e-05 -4.32559e-06 3.8684e-06
1.18204e-06 3.8684e-06 -2.22711e-05
0.000725428 4.11129e-05 2.68506e-06
4.11129e-05 4.16495e-05 2.92741e-06
2.68506e-06 2.92741e-06 -4.55037e-05
0.000659663 -4.11627e-05 2.71484e-07
-4.11627e-05 2.40116e-06 2.62249e-06
2.71484e-07 2.62249e-06 -5.14764e-05
0.000828578 4.40313e-05 2.22319e-07
4.40313e-05 0.000113975 1.25059e-06
2.22319e-07 1.25059e-06 7.85576e-06
0.00137834 0.000127178 6.23412e-06
0.000127178 7.92398e-05 1.57564e-06
6.23412e-06 1.57564e-06 -5.84948e-05
0.00123057 0.00016732 6.10166e-06
0.00016732 6.19721e-05 2.51897e-06
6.10166e-06 2.51897e-06 -8.63142e-05
0.00153109 0.000175165 3.63621e-06
0.000175165 0.000124797 5.06821e-07
3.63621e-06 5.06821e-07 -2.86513e-05
0.00111167 0.000136973 2.39892e-06
0.000136973 0.00023945 2.63127e-06
2.39892e-06 2.63127e-06 0.000103834
0.00134181 0.000196766 -5.62205e-07
0.000196766 0.000132689 2.59006e-06
-5.62205e-07 2.59006e-06 -2.54632e-05
0.000987733 0.000172853 -9.13123e-07
0.000172853 0.000120829 -1.74843e-06
-9.13123e-07 -1.74843e-06 -5.41125e-05
0.00107059 0.000190904 -2.19574e-07
0.000190904 4.14862e-05 -1.77111e-07
-2.19574e-07 -1.77111e-07 -0.000121311
0.000710305 -2.69132e-05 1.45518e-06
-2.69132e-05 4.42621e-06 1.81339e-06
1.45518e-06 1.81339e-06 -3.40075e-05
0.000651575 -4.07112e-05 1.14196e-06
-4.07112e-05 -2.31545e-05 3.67961e-06
1.14196e-06 3.67961e-06 -3.53214e-05
0.00217346 -7.15463e-05 2.88912e-05
-7.15463e-05 0.00086037 3.22719e-06
2.88912e-05 3.22719e-06 0.000871304
0.00219643 -8.01888e-05 1.74021e-06
-8.01888e-05 0.000881613 -1.58849e-07
1.74021e-06 -1.58849e-07 0.000890137
0.00223835 -8.91345e-05 -3.46925e-05
-8.91345e-05 0.000913907 -2.6952e-06
-3.46925e-05 -2.6952e-06 0.000919681
0.000566654 5.5014e-05 7.91477e-07
5.5014e-05 -4.60852e-05 -5.3547e-06
7.91477e-07 -5.3547e-06 -7.58895e-05
0.00284804 0.000105405 5.21306e-05
0.000105405 0.00125636 -2.83402e-06
5.21306e-05 -2.83402e-06 0.00125763
0.00057258 4.93424e-05 -2.61846e-07
4.93424e-05 -3.82416e-05 1.10788e-07
-2.61846e-07 1.10788e-07 -7.25754e-05
0.00310969 0.000110632 -2.02721e-06
0.000110632 0.00140603 -2.37722e-07
-2.02721e-06 -2.37722e-07 0.00140574
0.000689011 7.06657e-05 -1.65088e-05
7.06657e-05 -7.43875e-05 -5.52557e-06
-1.65088e-05 -5.52557e-06 -0.000140348
0.000682092 3.03681e-05 -1.64256e-05
3.03681e-05 -8.55574e-05 -3.23297e-06
-1.64256e-05 -3.23297e-06 -0.0001498
0.00112475 6.88354e-05 -1.08872e-05
6.88354e-05 1.10945e-05 -2.62327e-06
-1.08872e-05 -2.62327e-06 -0.000100578
0.00113972 3.27341e-05 -1.14326e-05
3.27341e-05 8.03078e-06 -1.65435e-06
-1.14326e-05 -1.65435e-06 -0.000101352
0.000698087 -1.9161e-06 -1.70238e-05
-1.9161e-06 -8.54888e-05 -9.64815e-07
-1.70238e-05 -9.64815e-07 -0.000147923
0.00521488 -9.53036e-05 -0.000169108
-9.53036e-05 0.00257933 1.87902e-06
-0.000169108 1.87902e-06 0.00257611
0.000686217 -1.11137e-06 1.0898e-07
-1.11137e-06 -9.27517e-05 -3.14944e-07
1.0898e-07 -3.14944e-07 -0.000155303
0.00114168 1.59963e-05 -5.68462e-09
1.59963e-05 5.09615e-06 -1.46791e-07
-5.68462e-09 -1.46791e-07 -0.000103719
0.00113282 4.73995e-05 -1.06097e-08
4.73995e-05 1.06387e-05 -9.74305e-08
-1.06097e-08 -9.74305e-08 -9.93109e-05
0.00140382 3.5434e-05 -3.21871e-08
3.5434e-05 6.26145e-05 -7.54647e-08
-3.21871e-08 -7.54647e-08 -6.11142e-05
0.00111737 8.48545e-05 -3.0828e-08
8.48545e-05 1.06786e-05 -2.02639e-07
-3.0828e-08 -2.02639e-07 -0.000102888
0.00139384 8.03291e-05 -6.4087e-08
8.03291e-05 7.46224e-05 -1.12662e-09
-6.4087e-08 -1.12662e-09 -5.4552e-05
0.00114516 -3.28167e-07 1.12096e-05
-3.28167e-07 6.74084e-06 -2.4614e-07
1.12096e-05 -2.4614e-07 -0.000101641
0.0014157 2.1464e-05 4.18954e-06
2.1464e-05 6.17777e-05 2.59194e-07
4.18954e-06 2.59194e-07 -6.06988e-05
0.00140894 5.80861e-05 4.48185e-06
5.80861e-05 7.53506e-05 6.96055e-07
4.48185e-06 6.96055e-07 -5.05846e-05
0.00157734 4.82569e-05 3.5891e-08
4.82569e-05 7.76393e-05 -1.31898e-07
3.5891e-08 -1.31898e-07 -4.10827e-05
0.0014099 0.000102585 4.72443e-06
0.000102585 8.67455e-05 8.94007e-07
4.72443e-06 8.94007e-07 -4.62498e-05
0.00154335 9.13444e-05 5.2517e-08
9.13444e-05 8.87595e-05 -3.67997e-07
5.2517e-08 -3.67997e-07 -3.85493e-05
0.000672177 1.09554e-05 -1.6128e-05
1.09554e-05 -9.78047e-05 8.1092e-07
-1.6128e-05 8.1092e-07 -0.000160712
0.00160293 -1.38573e-05 -7.67224e-05
-1.38573e-05 0.000434387 2.97158e-06
-7.67224e-05 2.97158e-06 0.000381352
0.00074497 -1.38353e-05 -1.21588e-05
-1.38353e-05 -0.000209594 1.63767e-06
-1.21588e-05 1.63767e-06 -0.000318992
0.00204814 -8.24211e-05 -1.91484e-05
-8.24211e-05 0.000535657 3.12931e-06
-1.91484e-05 3.12931e-06 0.000435381
0.00334988 0.000110234 -8.74911e-05
0.000110234 0.00154655 3.1838e-06
-8.74911e-05 3.1838e-06 0.00154449
0.00201391 -1.8887e-05 -4.93832e-05
-1.8887e-05 0.000765865 6.00883e-06
-4.93832e-05 6.00883e-06 0.000722442
0.00188063 -0.000171767 -1.13072e-05
-0.000171767 0.000629799 5.29434e-06
-1.13072e-05 5.29434e-06 0.000513334
0.00156196 -0.000115313 -1.89479e-05
-0.000115313 0.000285704 4.79534e-06
-1.89479e-05 4.79534e-06 0.000179845
0.00115771 -9.58431e-05 -6.56845e-06
-9.58431e-05 -4.26625e-05 1.71946e-06
-6.56845e-06 1.71946e-06 -0.000169197
0.00176038 -0.000162527 -6.77358e-06
-0.000162527 0.00033254 1.82803e-06
-6.77358e-06 1.82803e-06 0.000201137
0.000695942 -0.000143152 -5.52257e-06
-0.000143152 -0.000173489 8.3413e-07
-5.52257e-06 8.3413e-07 -0.000323967
0.00138149 -0.0001761 -2.45995e-06
-0.0001761 8.72583e-05 -1.58739e-07
-2.45995e-06 -1.58739e-07 -6.0088e-05
0.000597104 2.77317e-05 -4.50829e-06
2.77317e-05 -2.51421e-05 6.6199e-06
-4.50829e-06 6.6199e-06 -6.38324e-05
0.000684398 -1.19866e-05 -2.0047e-06
-1.19866e-05 9.41647e-06 2.90136e-06
-2.0047e-06 2.90136e-06 -7.06907e-05
0.000944404 -4.86043e-06 -4.41985e-07
-4.86043e-06 -0.000103546 -1.66754e-07
-4.41985e-07 -1.66754e-07 -0.000212651
0.00161234 -4.60369e-05 -3.99762e-06
-4.60369e-05 0.000282282 3.66645e-07
-3.99762e-06 3.66645e-07 0.000179618
0.00173248 -2.48858e-05 -2.37621e-06
-2.48858e-05 0.000251648 3.20414e-07
-2.37621e-06 3.20414e-07 0.000133404
0.00153237 -8.39643e-05 9.11585e-07
-8.39643e-05 0.000159243 -2.91444e-07
9.11585e-07 -2.91444e-07 3.54078e-05
0.00057024 1.11341e-05 1.55528e-07
1.11341e-05 -4.30919e-05 1.75697e-07
1.55528e-07 1.75697e-07 -8.59626e-05
0.000828083 -9.8177e-05 -8.97488e-08
-9.8177e-05 8.10843e-05 3.02253e-07
-8.97488e-08 3.02253e-07 -2.48533e-05
0.000751348 -0.000148326 1.42048e-06
-0.000148326 -4.90542e-05 -1.59762e-06
1.42048e-06 -1.59762e-06 -0.000200697
0.00172837 -0.000141848 -1.47807e-06
-0.000141848 0.00029296 3.28214e-07
-1.47807e-06 3.28214e-07 0.000165124
0.0015792 -0.000111935 -5.35876e-07
-0.000111935 0.000133768 4.36687e-07
-5.35876e-07 4.36687e-07 8.19216e-06
0.0015296 -0.00020888 -1.60286e-06
-0.00020888 0.000226022 5.53088e-07
-1.60286e-06 5.53088e-07 5.91598e-05
0.00145099 -0.000158073 2.10989e-07
-0.000158073 0.000100386 2.58884e-08
2.10989e-07 2.58884e-08 -3.71597e-05
0.00162656 -0.000193714 1.94442e-07
-0.000193714 0.000174995 4.30656e-07
1.94442e-07 4.30656e-07 2.94095e-05
0.000734597 -3.64952e-05 -3.45862e-07
-3.64952e-05 4.13633e-05 -1.8792e-07
-3.45862e-07 -1.8792e-07 -4.99953e-05
0.000731894 -3.91257e-05 -6.56091e-07
-3.91257e-05 3.45495e-05 -4.20224e-07
-6.56091e-07 -4.20224e-07 -7.19828e-05
0.0006831 8.70662e-06 4.07337e-07
8.70662e-06 7.92568e-06 2.50395e-07
4.07337e-07 2.50395e-07 -6.09781e-05
0.00177672 -7.47154e-06 2.90107e-06
-7.47154e-06 0.000270258 -2.66229e-07
2.90107e-06 -2.66229e-07 0.000151611
0.00167732 -5.20206e-05 3.59838e-06
-5.20206e-05 0.000224797 -2.8846e-07
3.59838e-06 -2.8846e-07 0.000104501
0.00168356 -3.1925e-05 3.36283e-09
-3.1925e-05 0.000144806 5.17042e-07
3.36283e-09 5.17042e-07 2.71252e-05
0.00154977 -8.89727e-05 -2.13604e-07
-8.89727e-05 0.000102415 -3.91229e-08
-2.13604e-07 -3.91229e-08 -2.21888e-05
0.001419 -0.000135309 2.12134e-06
-0.000135309 6.10643e-05 1.88838e-08
2.12134e-06 1.88838e-08 -6.96638e-05
0.00167079 -0.000123045 -2.61173e-06
-0.000123045 0.000126815 1.14547e-06
-2.61173e-06 1.14547e-06 1.16073e-05
0.000712992 -6.18907e-05 2.87973e-06
-6.18907e-05 3.05317e-05 -2.12765e-06
2.87973e-06 -2.12765e-06 -6.73873e-05
0.00155952 -0.00017404 -3.23532e-07
-0.00017404 0.000113499 6.32287e-07
-3.23532e-07 6.32287e-07 -2.1446e-05
0.000896113 -0.000145409 1.44639e-06
-0.000145409 9.63986e-05 -1.51624e-06
1.44639e-06 -1.51624e-06 -4.01963e-05
0.000803017 -0.000173572 4.60784e-06
-0.000173572 -7.37271e-05 -4.32379e-06
4.60784e-06 -4.32379e-06 -0.000255249
0.00176834 -0.000228906 2.70944e-06
-0.000228906 0.000307626 1.66746e-06
2.70944e-06 1.66746e-06 0.000138394
0.00179195 -0.000216388 -3.0603e-06
-0.000216388 0.000221086 2.67415e-06
-3.0603e-06 2.67415e-06 7.962e-05
0.000673673 6.90685e-06 1.5075e-06
6.90685e-06 6.00432e-07 -2.46282e-06
1.5075e-06 -2.46282e-06 -6.02049e-05
0.00082098 -8.84844e-05 1.6531e-06
-8.84844e-05 7.6156e-05 5.55939e-07
1.6531e-06 5.55939e-07 -3.47334e-05
0.000662518 -2.01851e-05 8.86123e-07
-2.01851e-05 7.73261e-06 -1.71177e-06
8.86123e-07 -1.71177e-06 -9.64983e-05
0.00103682 -0.000137399 -5.59854e-08
-0.000137399 0.000207213 1.57184e-06
-5.59854e-08 1.57184e-06 8.16326e-05
0.0011005 0.00010628 -1.15545e-05
0.00010628 1.02816e-05 -4.1335e-06
-1.15545e-05 -4.1335e-06 -0.000106355
0.000580479 -5.7481e-05 -1.29187e-06
-5.7481e-05 -3.43196e-05 -4.06201e-06
-1.29187e-06 -4.06201e-06 -5.64206e-05
0.000492171 -7.03396e-05 2.13287e-06
-7.03396e-05 -6.71434e-05 -6.94085e-06
2.13287e-06 -6.94085e-06 -0.000107143
0.000664142 -5.93516e-05 1.39779e-06
-5.93516e-05 1.45278e-05 -3.34454e-06
1.39779e-06 -3.34454e-06 -5.55123e-05
0.00101162 0.000135564 -9.38617e-06
0.000135564 1.83365e-05 -5.33049e-06
-9.38617e-06 -5.33049e-06 -0.000103271
0.00135331 0.00015485 -6.11684e-06
0.00015485 8.57244e-05 -1.74813e-06
-6.11684e-06 -1.74813e-06 -5.82274e-05
0.000699163 6.73116e-05 -2.70533e-06
6.73116e-05 2.41286e-05 -2.92957e-06
-2.70533e-06 -2.92957e-06 -7.73783e-05
0.000957593 0.000152813 -3.18204e-06
0.000152813 0.000114295 -3.04287e-06
-3.18204e-06 -3.04287e-06 -3.50774e-05
0.0013572 0.000183734 -3.83771e-06
0.000183734 0.000192552 -1.99725e-06
-3.83771e-06 -1.99725e-06 4.1821e-05
0.00101446 0.000182462 -1.12519e-06
0.000182462 5.48601e-05 -2.01067e-07
-1.12519e-06 -2.01067e-07 -0.000104707
0.000628523 -5.20892e-05 2.04037e-08
-5.20892e-05 -1.86804e-05 3.51624e-08
2.04037e-08 3.51624e-08 -3.61895e-05
0.000738152 3.5033e-05 3.81492e-07
3.5033e-05 5.34948e-05 -1.34911e-07
3.81492e-07 -1.34911e-07 -3.57712e-05
0.000657043 -5.59719e-05 -6.81998e-07
-5.59719e-05 3.9577e-06 5.1693e-07
-6.81998e-07 5.1693e-07 -5.15077e-05
0.000794838 1.89577e-05 5.24312e-07
1.89577e-05 9.36139e-05 -2.4162e-07
5.24312e-07 -2.4162e-07 -9.83509e-06
0.00136638 0.000127205 9.57835e-07
0.000127205 7.31632e-05 1.25284e-07
9.57835e-07 1.25284e-07 -6.4727e-05
0.00127561 0.000171149 1.04904e-07
0.000171149 8.74177e-05 6.17629e-08
1.04904e-07 6.17629e-08 -6.14792e-05
0.0015069 0.000173025 3.94935e-07
0.000173025 0.000114391 8.47539e-08
3.94935e-07 8.47539e-08 -3.8993e-05
0.000996864 0.000131488 2.37834e-07
0.000131488 0.000175646 5.87113e-07
2.37834e-07 5.87113e-07 4.16362e-05
0.00155319 0.000209139 -1.20382e-06
0.000209139 0.00025285 -1.41294e-06
-1.20382e-06 -1.41294e-06 9.34819e-05
0.00113038 0.000184265 1.13946e-07
0.000184265 0.000200686 -1.36033e-06
1.13946e-07 -1.36033e-06 2.31018e-05
0.00103985 0.000188724 -2.27392e-06
0.000188724 3.04649e-05 -6.27678e-07
-2.27392e-06 -6.27678e-07 -0.000125455
0.000650017 -4.71079e-05 1.34661e-06
-4.71079e-05 -1.63618e-05 3.68882e-06
1.34661e-06 3.68882e-06 -3.08053e-05
0.000692394 -4.22977e-05 8.55298e-07
-4.22977e-05 1.22022e-05 2.06104e-06
8.55298e-07 2.06104e-06 -3.31448e-05
0.000981408 8.27623e-05 2.15925e-06
8.27623e-05 0.000184467 1.40304e-06
2.15925e-06 1.40304e-06 6.57679e-05
0.00078206 2.54635e-05 -9.68352e-08
2.54635e-05 8.14822e-05 1.75344e-06
-9.68352e-08 1.75344e-06 -5.91687e-06
0.000903253 9.93798e-05 4.81097e-07
9.93798e-05 0.000165485 2.47559e-07
4.81097e-07 2.47559e-07 4.11725e-05
0.001507 0.000142217 2.54327e-06
0.000142217 9.28624e-05 -1.19026e-07
2.54327e-06 -1.19026e-07 -5.03318e-05
0.00151897 0.000196453 2.59409e-06
0.000196453 0.000160259 2.98301e-06
2.59409e-06 2.98301e-06 9.01799e-07
0.00163855 0.00020036 7.12106e-09
0.00020036 0.000150956 -4.88671e-07
7.12106e-09 -4.88671e-07 -4.59094e-06
0.00116227 0.000175868 3.64204e-06
0.000175868 0.000270317 3.68221e-06
3.64204e-06 3.68221e-06 9.85568e-05
0.00141999 0.000216414 2.3893e-06
0.000216414 0.000142789 3.41282e-06
2.3893e-06 3.41282e-06 -1.82306e-05
0.000333726 0.00014197 2.50325e-06
0.00014197 -0.000301552 -3.01612e-06
2.50325e-06 -3.01612e-06 -0.000484244
0.000704253 -3.0441e-05 1.84477e-06
-3.0441e-05 4.52446e-06 1.68788e-06
1.84477e-06 1.68788e-06 -3.47036e-05
0.000745219 1.72021e-05 5.21263e-07
1.72021e-05 4.30475e-05 6.97157e-07
5.21263e-07 6.97157e-07 -1.88472e-05
0.000727268 -1.79653e-05 1.08809e-06
-1.79653e-05 1.09586e-05 1.86693e-06
1.08809e-06 1.86693e-06 -2.68751e-05
0.000716326 -2.68392e-05 5.37645e-08
-2.68392e-05 8.15797e-06 -1.46248e-08
5.37645e-08 -1.46248e-08 -3.03743e-05
0.00126288 -4.52729e-05 1.40267e-06
-4.52729e-05 0.000318122 2.25772e-06
1.40267e-06 2.25772e-06 0.000310998
0.000961715 -4.55617e-05 7.86959e-07
-4.55617e-05 0.000153306 -4.65958e-08
7.86959e-07 -4.65958e-08 0.000142758
0.00093163 -3.96963e-05 2.40792e-05
-3.96963e-05 0.000143716 6.53148e-06
2.40792e-05 6.53148e-06 0.00015097
0.00215396 -7.06775e-05 1.73435e-06
-7.06775e-05 0.000848176 -1.4831e-07
1.73435e-06 -1.4831e-07 0.000859387
0.00216054 -7.89678e-05 -3.10732e-05
-7.89678e-05 0.000860232 -3.04113e-06
-3.10732e-05 -3.04113e-06 0.000869125
0.000582059 4.94137e-05 1.18165e-06
4.94137e-05 -4.5482e-05 -4.75986e-06
1.18165e-06 -4.75986e-06 -7.06526e-05
0.00268345 9.54705e-05 4.37335e-05
9.54705e-05 0.00115902 -3.15025e-06
4.37335e-05 -3.15025e-06 0.00116268
0.000589937 5.19843e-05 -2.78178e-07
5.19843e-05 -3.32748e-05 6.49507e-08
-2.78178e-07 6.49507e-08 -6.29275e-05
0.00291207 0.000103355 -2.64468e-06
0.000103355 0.00129131 -2.17634e-07
-2.64468e-06 -2.17634e-07 0.00129313
0.000598993 4.57619e-05 -1.78069e-06
4.57619e-05 -2.39353e-05 6.27638e-06
-1.78069e-06 6.27638e-06 -5.82187e-05
0.00316178 0.000104808 -7.68964e-05
0.000104808 0.00143417 3.02391e-06
-7.68964e-05 3.02391e-06 0.00143497
0.00112414 8.76483e-05 -1.12021e-05
8.76483e-05 1.47953e-05 -3.34641e-06
-1.12021e-05 -3.34641e-06 -9.92742e-05
0.00113941 5.13245e-05 -1.11008e-05
5.13245e-05 1.47396e-05 -2.19674e-06
-1.11008e-05 -2.19674e-06 -9.55401e-05
0.00137476 7.8747e-05 -4.67808e-06
7.8747e-05 6.41995e-05 -8.07751e-07
-4.67808e-06 -8.07751e-07 -6.51056e-05
0.00139784 3.51171e-05 -4.60051e-06
3.51171e-05 6.06994e-05 -5.56589e-07
-4.60051e-06 -5.56589e-07 -6.30963e-05
0.00114625 1.91801e-05 -1.14378e-05
1.91801e-05 7.86789e-06 -8.72224e-07
-1.14378e-05 -8.72224e-07 -0.000101059
0.000668788 1.5186e-05 -1.66718e-05
1.5186e-05 -0.000101714 -1.30974e-07
-1.66718e-05 -1.30974e-07 -0.000164497
0.00114015 1.868e-06 1.96993e-08
1.868e-06 3.93328e-06 -1.41688e-07
1.96993e-08 -1.41688e-07 -0.000104489
0.00140952 2.31243e-05 -9.03345e-08
2.31243e-05 5.90672e-05 -1.3647e-08
-9.03345e-08 -1.3647e-08 -6.34827e-05
0.00139408 5.53778e-05 1.17831e-08
5.53778e-05 6.84994e-05 -4.38213e-08
1.17831e-08 -4.38213e-08 -5.74188e-05
0.00161836 4.94766e-05 -1.19979e-07
4.94766e-05 9.78512e-05 1.55849e-07
-1.19979e-07 1.55849e-07 -1.95591e-05
0.0013842 0.000102172 -1.48193e-07
0.000102172 7.26024e-05 -1.2303e-07
-1.48193e-07 -1.2303e-07 -6.05653e-05
0.00154585 9.02179e-05 -1.10381e-07
9.02179e-05 9.40558e-05 9.63058e-08
-1.10381e-07 9.63058e-08 -3.33124e-05
0.00140946 6.26887e-06 4.39748e-06
6.26887e-06 5.89769e-05 -6.0448e-08
4.39748e-06 -6.0448e-08 -6.29706e-05
0.00164446 3.3021e-05 -4.27757e-07
3.3021e-05 9.58094e-05 2.75421e-07
-4.27757e-07 2.75421e-07 -1.91952e-05
0.00154353 7.32474e-05 1.79058e-09
7.32474e-05 7.39942e-05 -3.20041e-07
1.79058e-09 -3.20041e-07 -4.86128e-05
0.00173116 6.17149e-05 -1.15245e-06
6.17149e-05 9.74102e-05 2.10686e-07
-1.15245e-06 2.10686e-07 -7.96685e-06
0.0015396 0.000109176 2.64369e-07
0.000109176 9.95758e-05 -6.00389e-07
2.64369e-07 -6.00389e-07 -3.40384e-05
0.00166668 0.000107168 -3.13061e-06
0.000107168 9.27608e-05 -6.76986e-07
-3.13061e-06 -6.76986e-07 -1.62762e-05
0.000760924 -2.37252e-06 -1.10158e-05
-2.37252e-06 -0.000205536 6.3797e-07
-1.10158e-05 6.3797e-07 -0.00031592
0.00163808 -4.88762e-05 -1.88455e-05
-4.88762e-05 0.00029574 2.3411e-06
-1.88455e-05 2.3411e-06 0.000193036
0.00168529 -1.82775e-05 -7.526e-06
-1.82775e-05 0.00022298 6.94534e-07
-7.526e-06 6.94534e-07 0.000105125
0.00182075 -8.92703e-05 -5.13886e-06
-8.92703e-05 0.000320508 9.90743e-07
-5.13886e-06 9.90743e-07 0.000198308
0.000653874 8.47031e-07 -6.61924e-06
8.47031e-07 2.76976e-06 7.11179e-06
-6.61924e-06 7.11179e-06 -4.11425e-05
0.000930616 -0.000110315 -4.91476e-06
-0.000110315 0.000138653 3.66482e-06
-4.91476e-06 3.66482e-06 3.07073e-05
0.00096835 -0.000162609 -1.78294e-06
-0.000162609 7.58126e-05 1.22305e-06
-1.78294e-06 1.22305e-06 -7.54726e-05
0.00181127 -0.000142958 -7.53084e-06
-0.000142958 0.000338977 2.01107e-06
-7.53084e-06 2.01107e-06 0.000211348
0.00148243 -0.000107942 -1.09701e-06
-0.000107942 7.53577e-05 2.94101e-07
-1.09701e-06 2.94101e-07 -4.91946e-05
0.00147434 -0.000159168 -2.19435e-06
-0.000159168 0.000112229 3.20115e-07
-2.19435e-06 3.20115e-07 -2.53118e-05
0.00111386 -0.000183622 -4.80711e-06
-0.000183622 -8.22345e-06 -2.78998e-08
-4.80711e-06 -2.78998e-08 -0.000173453
0.00166337 -0.000196603 1.09812e-06
-0.000196603 0.000192778 -1.04271e-06
1.09812e-06 -1.04271e-06 4.63985e-05
0.000712621 -4.03983e-05 -3.07563e-06
-4.03983e-05 2.65859e-05 2.47479e-06
-3.07563e-06 2.47479e-06 -6.38646e-05
0.00067547 -2.99151e-05 -1.88341e-06
-2.99151e-05 3.61214e-06 -1.5851e-07
-1.88341e-06 -1.5851e-07 -0.000102392
0.000695508 1.81508e-06 -1.2527e-06
1.81508e-06 1.36029e-05 2.95835e-06
-1.2527e-06 2.95835e-06 -5.54089e-05
0.00159907 -5.93041e-06 -2.35086e-06
-5.93041e-06 0.000169386 1.57697e-07
-2.35086e-06 1.57697e-07 4.92562e-05
0.00167604 -5.75261e-05 -1.68641e-06
-5.75261e-05 0.000224295 2.94927e-07
-1.68641e-06 2.94927e-07 0.000103626
0.00162884 -2.82065e-05 -3.76459e-07
-2.82065e-05 0.000112217 2.32392e-07
-3.76459e-07 2.32392e-07 -4.0567e-06
0.00161372 -8.78158e-05 -6.0229e-07
-8.78158e-05 0.000133506 -2.6915e-08
-6.0229e-07 -2.6915e-08 9.29325e-06
0.000770186 -7.13119e-05 1.0456e-07
-7.13119e-05 6.15846e-05 -7.87128e-08
1.0456e-07 -7.87128e-08 -3.72571e-05
0.00101189 -0.000154687 -3.99951e-07
-0.000154687 0.000157776 7.33799e-07
-3.99951e-07 7.33799e-07 1.97583e-05
0.000927669 -0.00017817 7.46093e-07
-0.00017817 7.70929e-06 -1.72392e-06
7.46093e-07 -1.72392e-06 -0.000171986
0.00156105 -0.000141109 6.19117e-08
-0.000141109 0.000140656 -3.02488e-08
6.19117e-08 -3.02488e-08 9.14268e-06
0.00166136 -0.000121918 6.48895e-07
-0.000121918 0.000122393 3.59171e-07
6.48895e-07 3.59171e-07 9.93725e-06
0.00158918 -0.000219691 -1.11717e-07
-0.000219691 0.00020124 4.00395e-07
-1.11717e-07 4.00395e-07 3.26999e-05
0.00155558 -0.000172919 8.27926e-08
-0.000172919 0.000110512 1.36537e-07
8.27926e-08 1.36537e-07 -2.38952e-05
0.00182824 -0.000217768 7.39029e-07
-0.000217768 0.000242965 -1.31207e-07
7.39029e-07 -1.31207e-07 0.000102521
0.00091534 -9.95114e-05 -4.85561e-08
-9.95114e-05 0.000131449 6.40054e-08
-4.85561e-08 6.40054e-08 1.80389e-05
0.000984807 -0.00013598 -3.33506e-07
-0.00013598 0.000179682 3.65828e-07
-3.33506e-07 3.65828e-07 5.25837e-05
0.000693473 9.01156e-07 1.77832e-07
9.01156e-07 1.11984e-05 1.68732e-07
1.77832e-07 1.68732e-07 -4.98887e-05
0.000606406 2.47937e-06 -1.43711e-07
2.47937e-06 -2.77474e-05 -6.80547e-07
-1.43711e-07 -6.80547e-07 -0.000126709
0.00161513 -1.61012e-05 4.988e-07
-1.61012e-05 9.65207e-05 2.93881e-08
4.988e-07 2.93881e-08 -2.0403e-05
0.00182275 -5.88781e-05 1.36484e-07
-5.88781e-05 0.00022773 6.06494e-07
1.36484e-07 6.06494e-07 0.000108911
0.00165522 -4.50268e-05 2.36998e-07
-4.50268e-05 5.45004e-05 1.51533e-07
2.36998e-07 1.51533e-07 -5.42787e-05
0.00170251 -0.000109579 -3.48088e-06
-0.000109579 0.000114818 3.7537e-07
-3.48088e-06 3.7537e-07 9.12861e-06
0.00167268 -0.000149965 -2.4876e-06
-0.000149965 0.000147282 1.64158e-06
-2.4876e-06 1.64158e-06 2.5685e-05
0.00172045 -0.000127274 -4.55277e-07
-0.000127274 0.000106671 2.19748e-07
-4.55277e-07 2.19748e-07 8.28714e-06
0.000843907 -0.00013327 1.28686e-06
-0.00013327 8.63124e-05 1.06758e-07
1.28686e-06 1.06758e-07 -3.50538e-05
0.00159954 -0.000189802 -4.37346e-06
-0.000189802 8.48095e-05 2.65524e-06
-4.37346e-06 2.65524e-06 -3.68224e-05
0.000447206 -0.000130799 9.91381e-08
-0.000130799 -0.000163771 -4.38652e-06
9.91381e-08 -4.38652e-06 -0.000324314
0.00181436 -0.000255018 3.54927e-06
-0.000255018 0.00042704 -1.52346e-06
3.54927e-06 -1.52346e-06 0.000225676
0.00171437 -0.00023596 1.13681e-06
-0.00023596 0.000217467 3.70634e-06
1.13681e-06 3.70634e-06 4.90305e-05
0.0018233 -0.000223098 -8.05981e-07
-0.000223098 0.000206746 1.32374e-06
-8.05981e-07 1.32374e-06 6.87426e-05
0.000689653 -3.2019e-06 2.01029e-06
-3.2019e-06 7.08655e-06 -2.3156e-06
2.01029e-06 -2.3156e-06 -4.87324e-05
0.000611921 -5.14916e-06 2.08752e-07
-5.14916e-06 -1.33069e-05 -1.62859e-06
2.08752e-07 -1.62859e-06 -0.000110528
0.000894922 -0.000147004 3.94646e-07
-0.000147004 0.000122184 1.89362e-06
3.94646e-07 1.89362e-06 -6.08981e-06
0.00089375 -0.000101409 1.75345e-06
-0.000101409 0.000139452 -7.68596e-08
1.75345e-06 -7.68596e-08 1.85519e-05
0.00102069 -0.000158342 -5.24904e-07
-0.000158342 0.000195018 3.15387e-06
-5.24904e-07 3.15387e-06 6.31888e-05
0.000606902 -5.03291e-05 -1.60176e-06
-5.03291e-05 -3.10807e-05 -3.75885e-06
-1.60176e-06 -3.75885e-06 -4.82769e-05
0.00135129 0.000127147 -4.41996e-06
0.000127147 6.55279e-05 -1.38446e-06
-4.41996e-06 -1.38446e-06 -7.25326e-05
0.000643656 -7.04538e-05 8.83173e-08
-7.04538e-05 3.16958e-07 -2.16265e-06
8.83173e-08 -2.16265e-06 -5.73383e-05
0.000731861 1.70411e-05 -4.14219e-07
1.70411e-05 4.79319e-05 -3.33532e-06
-4.14219e-07 -3.33532e-06 -3.83817e-05
0.000766543 -6.89481e-06 1.41843e-06
-6.89481e-06 7.62976e-05 -1.36398e-06
1.41843e-06 -1.36398e-06 -2.44523e-05
0.00129101 0.000173164 -5.87613e-06
0.000173164 9.66895e-05 -2.36772e-06
-5.87613e-06 -2.36772e-06 -5.26627e-05
0.00146705 0.000170201 -2.46016e-06
0.000170201 9.5405e-05 -3.03567e-07
-2.46016e-06 -3.03567e-07 -5.78987e-05
0.000893006 0.000136612 -2.0225e-06
0.000136612 0.000119508 -1.60625e-06
-2.0225e-06 -1.60625e-06 -1.5252e-05
0.00132592 0.000199952 -2.15017e-06
0.000199952 0.00030923 -1.70581e-06
-2.15017e-06 -1.70581e-06 0.000128115
0.00177129 0.000221747 -2.55823e-06
0.000221747 0.000376033 -3.33452e-06
-2.55823e-06 -3.33452e-06 0.000215564
0.00102507 0.000187766 -4.21903e-06
0.000187766 2.79856e-05 1.17525e-07
-4.21903e-06 1.17525e-07 -0.000121191
0.000635415 -4.57477e-05 5.72471e-08
-4.57477e-05 -2.45963e-05 -1.75324e-09
5.72471e-08 -1.75324e-09 -3.8891e-05
0.000687478 -5.02423e-05 -5.47455e-07
-5.02423e-05 1.08794e-05 1.8189e-07
-5.47455e-07 1.8189e-07 -3.53817e-05
0.000923959 8.55141e-05 7.79378e-07
8.55141e-05 0.000153076 -6.37566e-08
7.79378e-07 -6.37566e-08 3.46415e-05
0.000749555 -1.80981e-05 -3.77801e-07
-1.80981e-05 6.23685e-05 2.03094e-07
-3.77801e-07 2.03094e-07 -2.25331e-05
0.000779883 6.71411e-05 9.43906e-07
6.71411e-05 9.23756e-05 -3.33842e-07
9.43906e-07 -3.33842e-07 -2.93414e-05
0.00151725 0.000143284 1.04698e-06
0.000143284 9.75011e-05 -4.76206e-08
1.04698e-06 -4.76206e-08 -4.61356e-05
0.00143835 0.000192307 6.6428e-09
0.000192307 0.000119674 1.1046e-06
6.6428e-09 1.1046e-06 -3.95814e-05
0.0016225 0.00020186 1.3201e-06
0.00020186 0.000141143 3.23161e-07
1.3201e-06 3.23161e-07 -1.53961e-05
0.0010696 0.000168228 1.25806e-06
0.000168228 0.000222333 1.14233e-06
1.25806e-06 1.14233e-06 5.18213e-05
0.00158513 0.000224689 2.05926e-06
0.000224689 0.000237803 -1.40633e-06
2.05926e-06 -1.40633e-06 7.6827e-05
0.000819547 0.000176889 -2.55901e-06
0.000176889 -3.88531e-05 -1.61587e-06
-2.55901e-06 -1.61587e-06 -0.000224534
0.000708778 -3.6524e-05 1.69314e-06
-3.6524e-05 1.27709e-05 1.71711e-06
1.69314e-06 1.71711e-06 -2.83929e-05
0.000789368 1.60611e-05 3.27533e-07
1.60611e-05 7.33911e-05 1.38822e-06
3.27533e-07 1.38822e-06 2.58464e-06
0.00103925 0.000154444 -4.68281e-07
0.000154444 0.000223755 -2.29466e-07
-4.68281e-07 -2.29466e-07 7.7348e-05
0.000852922 2.41358e-05 1.12172e-07
2.41358e-05 0.000128294 1.01359e-06
1.12172e-07 1.01359e-06 2.59886e-05
0.00111447 8.3035e-05 -2.61278e-06
8.3035e-05 0.000270337 -3.30298e-06
-2.61278e-06 -3.30298e-06 0.00014122
0.00158737 0.000150278 -2.41347e-06
0.000150278 9.18272e-05 -2.82087e-06
-2.41347e-06 -2.82087e-06 -4.34808e-05
0.0014931 0.000215346 1.20628e-06
0.000215346 0.000110061 2.88733e-06
1.20628e-06 2.88733e-06 -5.35447e-05
0.0014587 0.000217633 -9.26143e-07
0.000217633 1.78178e-05 -1.69171e-06
-9.26143e-07 -1.69171e-06 -0.000125854
0.00093646 0.000165803 -5.73444e-07
0.000165803 0.000144219 1.45018e-06
-5.73444e-07 1.45018e-06 -5.63541e-05
0.00132641 0.000225337 2.91009e-06
0.000225337 0.000120143 -7.19632e-08
2.91009e-06 -7.19632e-08 -5.97012e-05
0.000709451 -3.11218e-05 3.52877e-08
-3.11218e-05 7.91611e-06 -1.66957e-08
3.52877e-08 -1.66957e-08 -3.14674e-05
0.000640857 -3.52655e-06 1.37595e-06
-3.52655e-06 -2.18592e-05 9.98203e-07
1.37595e-06 9.98203e-07 -8.10873e-05
0.000665149 -1.93772e-05 -5.90699e-07
-1.93772e-05 -4.02634e-06 -7.4776e-08
-5.90699e-07 -7.4776e-08 -6.47329e-05
0.000926168 4.17248e-05 1.02624e-06
4.17248e-05 0.000155011 -3.83555e-07
1.02624e-06 -3.83555e-07 8.07486e-05
0.000759362 3.28711e-05 1.63619e-06
3.28711e-05 4.93799e-05 8.20055e-07
1.63619e-06 8.20055e-07 -1.16371e-05
0.000722235 -4.86777e-06 1.08892e-06
-4.86777e-06 7.42763e-06 1.8014e-06
1.08892e-06 1.8014e-06 -3.04683e-05
0.000725491 -1.98495e-05 -1.45081e-07
-1.98495e-05 1.05474e-05 5.64921e-09
-1.45081e-07 5.64921e-09 -2.74245e-05
0.00126338 -3.62857e-05 9.31032e-07
-3.62857e-05 0.000312086 2.27856e-06
9.31032e-07 2.27856e-06 0.000306578
0.000723908 -2.72964e-05 -1.27991e-06
-2.72964e-05 1.2833e-05 -1.85696e-06
-1.27991e-06 -1.85696e-06 -2.58388e-05
0.00128257 -4.25549e-05 -4.73165e-06
-4.25549e-05 0.000328655 -1.25458e-06
-4.73165e-06 -1.25458e-06 0.000321918
0.00091811 -3.28856e-05 2.14937e-05
-3.28856e-05 0.000127112 6.77023e-06
2.14937e-05 6.77023e-06 0.000136639
0.00127741 -4.79726e-05 -9.86982e-06
-4.79726e-05 0.000333115 -3.34117e-06
-9.86982e-06 -3.34117e-06 0.000324594
0.00150954 -5.04212e-05 1.97069e-05
-5.04212e-05 0.000472898 1.96184e-06
1.97069e-05 1.96184e-06 0.000483296
0.00213392 -6.96316e-05 -2.77291e-05
-6.96316e-05 0.000835674 -3.39822e-06
-2.77291e-05 -3.39822e-06 0.000847196
0.000608603 4.18126e-05 1.26882e-06
4.18126e-05 -3.88769e-05 -4.41786e-06
1.26882e-06 -4.41786e-06 -5.99344e-05
0.000603615 5.14831e-05 -2.22481e-07
5.14831e-05 -3.24021e-05 3.81447e-08
-2.22481e-07 3.81447e-08 -5.81489e-05
0.00256873 8.54581e-05 3.69712e-05
8.54581e-05 0.00108833 -3.49889e-06
3.69712e-05 -3.49889e-06 0.00109436
0.00273984 9.49244e-05 -2.92722e-06
9.49244e-05 0.00119028 -2.18155e-07
-2.92722e-06 -2.18155e-07 0.00119415
0.00061609 5.10575e-05 -1.1299e-06
5.10575e-05 -1.82983e-05 5.61452e-06
-1.1299e-06 5.61452e-06 -4.81749e-05
0.00296434 9.83891e-05 -6.582e-05
9.83891e-05 0.00131938 2.99891e-06
-6.582e-05 2.99891e-06 0.00132233
0.00136252 0.000102026 -4.93306e-06
0.000102026 6.04763e-05 -1.14282e-06
-4.93306e-06 -1.14282e-06 -7.28814e-05
0.00138182 5.58712e-05 -4.67419e-06
5.58712e-05 6.32112e-05 -7.73241e-07
-4.67419e-06 -7.73241e-07 -6.29348e-05
0.0015442 9.01491e-05 -2.24261e-07
9.01491e-05 9.71239e-05 5.62757e-07
-2.24261e-07 5.62757e-07 -3.03978e-05
0.00165857 5.07152e-05 8.04211e-10
5.07152e-05 0.000117639 2.68059e-07
8.04211e-10 2.68059e-07 1.54665e-06
0.00140627 2.62167e-05 -4.2317e-06
2.62167e-05 5.78828e-05 -2.62368e-07
-4.2317e-06 -2.62368e-07 -6.47749e-05
0.00114569 6.70202e-06 -1.11626e-05
6.70202e-06 6.71011e-06 -1.26268e-07
-1.11626e-05 -1.26268e-07 -0.000101682
0.00141276 9.91143e-06 7.53162e-08
9.91143e-06 6.05342e-05 -8.16339e-08
7.53162e-08 -8.16339e-08 -6.14866e-05
0.00165375 2.26555e-05 -5.74782e-07
2.26555e-05 0.000100862 -1.78504e-08
-5.74782e-07 -1.78504e-08 -1.39838e-05
0.00156711 7.22129e-05 -7.56828e-08
7.22129e-05 8.91494e-05 -2.02666e-08
-7.56828e-08 -2.02666e-08 -3.3312e-05
0.00177554 6.44747e-05 8.71193e-07
6.44747e-05 0.000120051 6.79693e-07
8.71193e-07 6.79693e-07 1.70238e-05
0.00153071 0.000110255 -1.68995e-07
0.000110255 9.32917e-05 -5.93166e-08
-1.68995e-07 -5.93166e-08 -4.08478e-05
0.00166964 0.000105387 -1.89255e-07
0.000105387 9.25765e-05 6.51643e-07
-1.89255e-07 6.51643e-07 -1.44238e-05
0.00164122 -1.82167e-06 4.12885e-07
-1.82167e-06 0.000101568 9.73151e-08
4.12885e-07 9.73151e-08 -1.33771e-05
0.00172362 4.13106e-05 8.787e-09
4.13106e-05 7.86571e-05 8.07546e-07
8.787e-09 8.07546e-07 -2.61437e-05
0.00177004 9.02455e-05 -3.50408e-06
9.02455e-05 0.000132442 -5.2921e-07
-3.50408e-06 -5.2921e-07 3.06417e-05
0.00182793 7.17631e-05 2.49475e-08
7.17631e-05 0.000134389 3.27558e-07
2.49475e-08 3.27558e-07 4.28086e-05
0.00156583 0.000109491 -2.06816e-06
0.000109491 5.10808e-05 -1.99194e-06
-2.06816e-06 -1.99194e-06 -6.61963e-05
0.00190576 0.000119295 2.8409e-08
0.000119295 0.000184294 -6.49724e-08
2.8409e-08 -6.49724e-08 9.18638e-05
0.00141927 -4.81297e-06 -6.24777e-06
-4.81297e-06 6.71726e-05 4.2574e-07
-6.24777e-06 4.2574e-07 -5.44377e-05
0.00167873 -5.99952e-05 -6.98717e-06
-5.99952e-05 0.000225928 8.91332e-07
-6.98717e-06 8.91332e-07 0.000105017
0.0015697 -2.62069e-05 -9.12164e-07
-2.62069e-05 7.71554e-05 -3.31464e-07
-9.12164e-07 -3.31464e-07 -3.77893e-05
0.00167619 -8.7149e-05 -1.11385e-06
-8.7149e-05 0.000163771 1.27798e-07
-1.11385e-06 1.27798e-07 3.99182e-05
0.000851858 -8.2353e-05 -3.84121e-06
-8.2353e-05 0.000106211 2.51341e-06
-3.84121e-06 2.51341e-06 6.29153e-06
0.00113904 -0.00016474 -2.3196e-06
-0.00016474 0.000225902 2.99037e-06
-2.3196e-06 2.99037e-06 8.62876e-05
0.000993061 -0.000178049 -2.19953e-06
-0.000178049 5.62038e-05 1.34698e-06
-2.19953e-06 1.34698e-06 -0.000121982
0.0017076 -0.000147034 -2.05756e-06
-0.000147034 0.000222596 2.63592e-07
-2.05756e-06 2.63592e-07 9.02896e-05
0.00165187 -0.000120803 2.89546e-06
-0.000120803 0.000117983 -9.62663e-07
2.89546e-06 -9.62663e-07 8.28904e-06
0.00155697 -0.000172098 1.20977e-06
-0.000172098 0.000110542 -5.11082e-07
1.20977e-06 -5.11082e-07 -2.33605e-05
0.00137918 -0.000208967 -2.31337e-06
-0.000208967 7.84098e-05 -1.00813e-06
-2.31337e-06 -1.00813e-06 -8.93841e-05
0.00185668 -0.000218358 3.74671e-06
-0.000218358 0.000260024 -4.23601e-06
3.74671e-06 -4.23601e-06 0.000120749
0.000938606 -9.53493e-05 -1.42717e-06
-9.53493e-05 0.000144542 -2.97853e-07
-1.42717e-06 -2.97853e-07 3.169e-05
0.000865088 -0.000103329 -1.50489e-06
-0.000103329 0.00010592 -1.11429e-06
-1.50489e-06 -1.11429e-06 -1.51337e-05
0.00071161 -1.61933e-06 -1.56734e-06
-1.61933e-06 2.06562e-05 2.59259e-06
-1.56734e-06 2.59259e-06 -4.05888e-05
0.000583983 1.79726e-05 -9.30595e-08
1.79726e-05 -4.17302e-05 3.65224e-07
-9.30595e-08 3.65224e-07 -0.000137817
0.00160798 -1.57862e-05 1.06024e-08
-1.57862e-05 9.2311e-05 5.65159e-09
1.06024e-08 5.65159e-09 -2.4654e-05
0.0017537 -5.75645e-05 -5.68442e-07
-5.75645e-05 0.000187846 6.70008e-08
-5.68442e-07 6.70008e-08 6.78453e-05
0.00169148 -4.42149e-05 4.42094e-07
-4.42149e-05 7.73522e-05 -2.2434e-07
4.42094e-07 -2.2434e-07 -3.02202e-05
0.00165687 -0.000107766 -6.80785e-07
-0.000107766 9.57858e-05 2.6205e-07
-6.80785e-07 2.6205e-07 -1.17511e-05
0.000957379 -0.000128665 -3.56328e-07
-0.000128665 0.000146984 5.14969e-07
-3.56328e-07 5.14969e-07 2.64941e-05
0.000665825 -0.000144113 1.08526e-06
-0.000144113 -3.93504e-05 -1.53892e-06
1.08526e-06 -1.53892e-06 -0.000197886
0.00149749 -0.00023198 -7.21568e-07
-0.00023198 0.000256238 6.74082e-07
-7.21568e-07 6.74082e-07 5.4428e-05
0.00162931 -0.000148535 -1.06957e-06
-0.000148535 0.000126331 4.01397e-07
-1.06957e-06 4.01397e-07 2.6364e-06
0.00167118 -0.000128024 1.7352e-06
-0.000128024 7.8883e-05 -7.45244e-07
1.7352e-06 -7.45244e-07 -1.72815e-05
0.0016927 -0.000234797 -1.18638e-06
-0.000234797 0.000201989 5.90717e-07
-1.18638e-06 5.90717e-07 3.37407e-05
0.00163526 -0.00019068 -7.9591e-08
-0.00019068 0.000105994 5.84715e-07
-7.9591e-08 5.84715e-07 -1.55442e-05
0.00172434 -0.000219087 2.4992e-06
-0.000219087 0.000149319 -3.15228e-06
2.4992e-06 -3.15228e-06 1.38348e-05
0.000988992 -0.000154181 2.6367e-07
-0.000154181 0.00017432 4.55151e-07
2.6367e-07 4.55151e-07 4.49918e-05
0.00104025 -0.000151986 7.3897e-07
-0.000151986 0.000202007 5.12825e-07
7.3897e-07 5.12825e-07 7.25485e-05
0.000865622 -7.24826e-05 -4.20726e-07
-7.24826e-05 0.00012088 -1.37156e-07
-4.20726e-07 -1.37156e-07 3.39872e-06
0.000560796 1.09838e-05 -6.0714e-07
1.09838e-05 -6.47246e-05 8.28426e-08
-6.0714e-07 8.28426e-08 -0.000122075
0.000588564 1.78629e-05 2.07404e-08
1.78629e-05 -3.02335e-05 -4.86231e-07
2.07404e-08 -4.86231e-07 -0.000123388
0.00179829 -2.8531e-05 3.89748e-07
-2.8531e-05 0.000123543 -1.3085e-07
3.89748e-07 -1.3085e-07 1.90228e-05
0.00175059 -6.58004e-05 -1.26508e-07
-6.58004e-05 0.000104689 2.26042e-07
-1.26508e-07 2.26042e-07 1.70604e-06
0.00179455 -0.000125425 -2.20033e-06
-0.000125425 0.000124778 -4.16274e-07
-2.20033e-06 -4.16274e-07 3.81536e-05
0.00156152 -0.000150415 -2.16978e-06
-0.000150415 2.80362e-05 1.11702e-06
-2.16978e-06 1.11702e-06 -7.29647e-05
0.000896964 -0.000150927 -6.77792e-07
-0.000150927 0.000118529 1.61602e-07
-6.77792e-07 1.61602e-07 -1.91059e-05
0.00203494 -0.00022501 -2.87671e-06
-0.00022501 0.00027946 1.65722e-06
-2.87671e-06 1.65722e-06 0.000163161
2.78602e-05 -0.000109695 -8.72275e-07
-0.000109695 -0.000406054 -5.61643e-06
-8.72275e-07 -5.61643e-06 -0.000580609
0.00235431 -0.000304377 2.89165e-06
-0.000304377 0.000648388 -1.6948e-07
2.89165e-06 -1.6948e-07 0.000438535
0.00161459 -0.000239824 1.71502e-06
-0.000239824 0.00011206 2.93416e-06
1.71502e-06 2.93416e-06 -5.32137e-05
0.000410313 1.74867e-05 1.36111e-06
1.74867e-05 -0.000150172 -3.23696e-06
1.36111e-06 -3.23696e-06 -0.000204547
0.000849976 -1.50993e-05 1.41111e-06
-1.50993e-05 0.000120903 -8.47787e-07
1.41111e-06 -8.47787e-07 3.31415e-05
0.000908119 -4.85537e-05 -5.01912e-07
-4.85537e-05 0.000152965 -2.17729e-07
-5.01912e-07 -2.17729e-07 4.65925e-05
0.000989205 -0.000157104 -1.57012e-06
-0.000157104 0.000168308 2.61907e-06
-1.57012e-06 2.61907e-06 3.74641e-05
0.000920205 -0.00010147 1.72616e-06
-0.00010147 0.000145238 2.02077e-06
1.72616e-06 2.02077e-06 1.81917e-05
0.000763756 -0.000143558 3.42241e-08
-0.000143558 3.25852e-05 1.96081e-06
3.42241e-08 1.96081e-06 -9.76083e-05
0.00062317 -4.46215e-05 -1.46399e-06
-4.46215e-05 -3.14205e-05 -3.71955e-06
-1.46399e-06 -3.71955e-06 -4.56111e-05
0.00067715 -5.37227e-05 -1.54293e-06
-5.37227e-05 5.33301e-06 -1.60811e-06
-1.54293e-06 -1.60811e-06 -4.11139e-05
0.00154099 0.000144911 -1.00831e-06
0.000144911 0.000109489 -1.54597e-07
-1.00831e-06 -1.54597e-07 -3.45982e-05
0.000729218 -6.4152e-05 9.64608e-07
-6.4152e-05 5.01222e-05 -1.40659e-06
9.64608e-07 -1.40659e-06 -3.238e-05
0.000815724 7.75388e-05 -3.35162e-07
7.75388e-05 9.04341e-05 -8.97221e-07
-3.35162e-07 -8.97221e-07 -2.45602e-05
0.00066344 3.6754e-05 1.40517e-06
3.6754e-05 2.27221e-05 -4.1735e-07
1.40517e-06 -4.1735e-07 -9.59593e-05
0.0013384 0.000187123 -2.92361e-06
0.000187123 6.86173e-05 -9.43079e-07
-2.92361e-06 -9.43079e-07 -9.04933e-05
0.00160825 0.000203147 9.55443e-07
0.000203147 0.000133356 9.27821e-07
9.55443e-07 9.27821e-07 -2.41091e-05
0.000896614 0.000154572 -6.56841e-08
0.000154572 0.000128881 -7.47964e-07
-6.56841e-08 -7.47964e-07 -3.99606e-05
0.00136822 0.000215882 -1.2075e-06
0.000215882 0.000257901 -6.01135e-07
-1.2075e-06 -6.01135e-07 7.07254e-05
0.00173823 0.00023252 -3.72456e-06
0.00023252 0.000326303 -4.32084e-06
-3.72456e-06 -4.32084e-06 0.000165351
0.000703248 -3.75515e-05 -2.18573e-07
-3.75515e-05 1.00514e-05 2.93494e-08
-2.18573e-07 2.93494e-08 -3.12351e-05
0.000748967 -2.2013e-05 -6.97549e-07
-2.2013e-05 5.00183e-05 3.61307e-07
-6.97549e-07 3.61307e-07 -1.92294e-05
0.000973497 0.000149147 -6.79859e-07
0.000149147 0.000188968 -1.16508e-07
-6.79859e-07 -1.16508e-07 4.29554e-05
0.000800241 -1.1101e-05 2.18964e-07
-1.1101e-05 9.6555e-05 1.02218e-07
2.18964e-07 1.02218e-07 -2.4827e-06
0.000888681 8.37785e-05 1.16187e-07
8.37785e-05 0.000148877 -2.98121e-07
1.16187e-07 -2.98121e-07 1.78654e-05
0.00161237 0.000153926 -1.51192e-06
0.000153926 0.00010601 -1.29988e-06
-1.51192e-06 -1.29988e-06 -3.04039e-05
0.00155253 0.00021808 1.53559e-06
0.00021808 0.000143233 1.41418e-06
1.53559e-06 1.41418e-06 -2.09503e-05
0.00155983 0.000218977 6.10071e-07
0.000218977 7.33285e-05 4.73857e-08
6.10071e-07 4.73857e-08 -6.87862e-05
0.000721417 0.000152533 3.32213e-07
0.000152533 2.06148e-05 2.75837e-06
3.32213e-07 2.75837e-06 -0.000176858
0.00161475 0.000245731 -1.22108e-06
0.000245731 0.000282081 2.69816e-07
-1.22108e-06 2.69816e-07 9.86466e-05
0.000783822 1.31926e-05 9.70398e-07
1.31926e-05 6.2168e-05 8.51276e-07
9.70398e-07 8.51276e-07 2.39076e-07
0.000585188 -2.97298e-05 -1.03758e-06
-2.97298e-05 -3.12629e-05 1.79543e-06
-1.03758e-06 1.79543e-06 -0.00011594
0.000928188 0.00015307 -2.47479e-06
0.00015307 0.000157731 -1.70296e-06
-2.47479e-06 -1.70296e-06 -5.46663e-06
0.000625306 3.26219e-05 -1.92456e-06
3.26219e-05 7.46247e-06 -1.09861e-06
-1.92456e-06 -1.09861e-06 -0.000112609
0.000985959 0.000136828 -1.05864e-06
0.000136828 0.000192089 -2.07687e-06
-1.05864e-06 -2.07687e-06 5.163e-05
0.00162176 0.000169029 -2.32133e-06
0.000169029 4.36744e-05 -2.63762e-06
-2.32133e-06 -2.63762e-06 -6.31619e-05
0.0017867 0.000257601 2.32257e-07
0.000257601 0.000243086 -3.1204e-08
2.32257e-07 -3.1204e-08 7.74556e-05
0.00149993 0.000222224 1.58403e-06
0.000222224 1.80014e-05 -2.81282e-07
1.58403e-06 -2.81282e-07 -0.000119089
0.0017536 0.000231338 1.82082e-06
0.000231338 0.000542512 4.9879e-06
1.82082e-06 4.9879e-06 0.000322293
0.00105692 0.000221231 -9.75144e-07
0.000221231 -7.34893e-05 -6.27936e-07
-9.75144e-07 -6.27936e-07 -0.000255315
0.000712983 -3.11338e-05 -1.76309e-06
-3.11338e-05 1.02575e-05 -1.68381e-06
-1.76309e-06 -1.68381e-06 -2.92193e-05
0.000692922 -1.35182e-06 3.26956e-07
-1.35182e-06 8.96114e-06 4.20058e-07
3.26956e-07 4.20058e-07 -5.08319e-05
0.00066829 -2.80236e-05 -2.68532e-07
-2.80236e-05 4.18072e-06 2.6676e-07
-2.68532e-07 2.6676e-07 -6.50707e-05
0.000590094 -4.61372e-05 -8.90428e-07
-4.61372e-05 -4.72676e-05 -6.8838e-07
-8.90428e-07 -6.8838e-07 -0.000107568
0.00074907 4.91805e-06 2.2917e-08
4.91805e-06 4.2629e-05 1.50438e-08
2.2917e-08 1.50438e-08 -1.74776e-05
0.000772161 1.30033e-06 4.32861e-08
1.30033e-06 6.27639e-05 -3.57205e-07
4.32861e-08 -3.57205e-07 -7.10501e-06
0.000858367 2.81844e-05 -7.92829e-08
2.81844e-05 0.000117257 -7.73324e-07
-7.92829e-08 -7.73324e-07 4.00697e-05
0.000679858 -3.06147e-05 7.421e-07
-3.06147e-05 1.62839e-05 4.56975e-08
7.421e-07 4.56975e-08 -5.84518e-05
0.000774698 1.75427e-05 5.02825e-07
1.75427e-05 5.30647e-05 6.5456e-07
5.02825e-07 6.5456e-07 -4.96841e-06
0.000722246 3.99514e-06 1.07533e-06
3.99514e-06 9.31299e-06 1.71138e-06
1.07533e-06 1.71138e-06 -2.94021e-05
0.000728562 -9.37712e-06 -2.72581e-07
-9.37712e-06 1.14832e-05 8.25857e-09
-2.72581e-07 8.25857e-09 -2.656e-05
0.00126907 -2.66535e-05 9.07662e-07
-2.66535e-05 0.000310688 2.22781e-06
9.07662e-07 2.22781e-06 0.000306015
0.000723399 -2.21863e-05 -9.628e-07
-2.21863e-05 9.99575e-06 -1.88141e-06
-9.628e-07 -1.88141e-06 -2.81296e-05
0.00128809 -3.37575e-05 -4.04914e-06
-3.37575e-05 0.000325802 -1.31596e-06
-4.04914e-06 -1.31596e-06 0.00032046
0.000925301 -2.71634e-05 1.76809e-05
-2.71634e-05 0.000124927 7.02353e-06
1.76809e-05 7.02353e-06 0.000135649
0.00130418 -4.06006e-05 -8.41607e-06
-4.06006e-05 0.000340403 -4.87931e-06
-8.41607e-06 -4.87931e-06 0.000333837
0.000861425 -3.39741e-05 6.93534e-06
-3.39741e-05 9.5125e-05 2.6134e-06
6.93534e-06 2.6134e-06 0.000104258
0.00207239 -6.62004e-05 -6.03721e-06
-6.62004e-05 0.000793254 -1.6335e-06
-6.03721e-06 -1.6335e-06 0.000805905
0.000626338 3.69334e-05 8.83437e-07
3.69334e-05 -3.61314e-05 -4.16317e-06
8.83437e-07 -4.16317e-06 -5.34255e-05
0.000615938 4.38305e-05 -1.3323e-07
4.38305e-05 -3.40843e-05 3.40937e-08
-1.3323e-07 3.40937e-08 -5.55438e-05
0.00245588 7.49085e-05 3.07412e-05
7.49085e-05 0.00101754 -3.81516e-06
3.07412e-05 -3.81516e-06 0.00102617
0.000620882 4.96747e-05 -9.75737e-07
4.96747e-05 -2.26411e-05 4.98868e-06
-9.75737e-07 4.98868e-06 -4.83504e-05
0.00261482 8.5777e-05 -2.77645e-06
8.5777e-05 0.00111441 -2.01738e-07
-2.77645e-06 -2.01738e-07 0.00112041
0.00279433 9.27736e-05 -5.36637e-05
9.27736e-05 0.0012202 3.05086e-06
-5.36637e-05 3.05086e-06 0.00122467
0.0015194 0.000111189 -1.48084e-06
0.000111189 8.58106e-05 2.5895e-07
-1.48084e-06 2.5895e-07 -4.88473e-05
0.00159438 7.03331e-05 2.71532e-07
7.03331e-05 0.000106158 3.68726e-07
2.71532e-07 3.68726e-07 -1.60799e-05
0.00166892 0.000103531 3.00371e-06
0.000103531 9.03118e-05 1.63578e-06
3.00371e-06 1.63578e-06 -1.46409e-05
0.00182142 6.71681e-05 2.83423e-06
6.71681e-05 0.000143387 3.0497e-07
2.83423e-06 3.0497e-07 4.27118e-05
0.00166329 1.50297e-05 -1.00008e-06
1.50297e-05 0.000106245 -3.92708e-08
-1.00008e-06 -3.92708e-08 -8.4771e-06
0.00141433 1.28717e-05 -4.08727e-06
1.28717e-05 6.11313e-05 -8.14491e-08
-4.08727e-06 -8.14491e-08 -6.09205e-05
0.00162649 1.39259e-06 -5.01612e-07
1.39259e-06 9.35761e-05 -3.18803e-08
-5.01612e-07 -3.18803e-08 -2.23777e-05
0.00173825 3.47548e-05 7.10368e-07
3.47548e-05 8.85141e-05 -1.6235e-08
7.10368e-07 -1.6235e-08 -1.71065e-05
0.00172135 8.78268e-05 -1.03772e-06
8.78268e-05 0.000103145 -2.63959e-07
-1.03772e-06 -2.63959e-07 -1.15135e-08
0.00177835 7.19311e-05 1.71866e-06
7.19311e-05 0.000102135 -1.31189e-07
1.71866e-06 -1.31189e-07 1.2313e-05
0.00158519 0.000108414 -7.63261e-07
0.000108414 6.77041e-05 2.73483e-08
-7.63261e-07 2.73483e-08 -4.94894e-05
0.00180081 0.000121114 3.12765e-06
0.000121114 0.000121675 7.70843e-07
3.12765e-06 7.70843e-07 3.1236e-05
0.0017521 -5.77231e-07 -2.93776e-07
-5.77231e-07 0.000107591 1.54751e-07
-2.93776e-07 1.54751e-07 2.27675e-06
0.00171055 4.5126e-05 1.65862e-07
4.5126e-05 5.92123e-05 8.85619e-07
1.65862e-07 8.85619e-07 -3.25707e-05
0.00179884 9.07496e-05 -1.01146e-06
9.07496e-05 0.000102728 -7.48773e-08
-1.01146e-06 -7.48773e-08 2.02361e-05
0.00192906 0.000142284 -1.22235e-06
0.000142284 0.000192491 -1.12603e-06
-1.22235e-06 -1.12603e-06 0.00010244
0.00160005 -1.54865e-05 -6.1275e-07
-1.54865e-05 8.78159e-05 4.77517e-09
-6.1275e-07 4.77517e-09 -2.91893e-05
0.00168094 -5.79196e-05 -1.18753e-06
-5.79196e-05 0.000146139 -4.00691e-07
-1.18753e-06 -4.00691e-07 2.48816e-05
0.00173399 -4.35866e-05 1.18313e-06
-4.35866e-05 0.000103721 -4.47e-07
1.18313e-06 -4.47e-07 -2.65052e-06
0.00161124 -0.000105538 1.51098e-06
-0.000105538 7.65827e-05 -2.01267e-07
1.51098e-06 -2.01267e-07 -3.27591e-05
0.00108673 -0.000135825 -1.56946e-06
-0.000135825 0.000218749 9.16657e-07
-1.56946e-06 9.16657e-07 9.66164e-05
0.00088007 -0.000157708 9.6179e-07
-0.000157708 8.21801e-05 1.69161e-06
9.6179e-07 1.69161e-06 -7.38135e-05
0.00119396 -0.00020954 -2.75733e-06
-0.00020954 9.38407e-05 2.8256e-06
-2.75733e-06 2.8256e-06 -0.000108836
0.00158428 -0.000146983 7.14214e-08
-0.000146983 0.00010469 -3.75092e-07
7.14214e-08 -3.75092e-07 -2.10971e-05
0.00162576 -0.000129158 4.20219e-06
-0.000129158 5.31789e-05 -1.84434e-06
4.20219e-06 -1.84434e-06 -4.08432e-05
0.0016769 -0.000191793 3.6174e-06
-0.000191793 0.000130079 -1.27716e-06
3.6174e-06 -1.27716e-06 8.63196e-06
0.00168148 -0.000234709 -2.65414e-06
-0.000234709 0.0001929 -1.53871e-06
-2.65414e-06 -1.53871e-06 2.46388e-05
0.00165012 -0.000216755 2.45409e-06
-0.000216755 0.000107082 -8.14404e-06
2.45409e-06 -8.14404e-06 -2.61874e-05
0.00109381 -0.000162153 4.43049e-07
-0.000162153 0.000232742 -9.43708e-07
4.43049e-07 -9.43708e-07 0.000102191
0.00108209 -0.000155902 1.31704e-07
-0.000155902 0.000222607 -3.12896e-06
1.31704e-07 -3.12896e-06 9.34053e-05
0.00083113 -5.05237e-05 -1.22298e-07
-5.05237e-05 9.90011e-05 2.28651e-07
-1.22298e-07 2.28651e-07 -1.53355e-05
0.000430123 1.71402e-05 -1.86733e-06
1.71402e-05 -0.000137474 2.35785e-06
-1.86733e-06 2.35785e-06 -0.000196393
0.000571146 3.63541e-05 2.07292e-07
3.63541e-05 -4.21698e-05 4.00125e-07
2.07292e-07 4.00125e-07 -0.000132415
0.00180906 -3.05165e-05 2.0365e-07
-3.05165e-05 0.000132296 -8.15112e-08
2.0365e-07 -8.15112e-08 2.75866e-05
0.00177882 -6.81304e-05 3.79979e-07
-6.81304e-05 0.000121915 -3.07748e-07
3.79979e-07 -3.07748e-07 1.87655e-05
0.00174241 -0.000124545 -1.21017e-06
-0.000124545 9.89547e-05 -1.90518e-09
-1.21017e-06 -1.90518e-09 9.97281e-06
0.00102509 -0.000159889 -1.80921e-07
-0.000159889 0.000187345 8.21491e-07
-1.80921e-07 8.21491e-07 4.83612e-05
0.000782033 -0.000161742 1.38206e-06
-0.000161742 1.03589e-05 -2.31523e-06
1.38206e-06 -2.31523e-06 -0.000167317
0.00163007 -0.000256148 -1.30944e-06
-0.000256148 0.000252527 8.64713e-07
-1.30944e-06 8.64713e-07 4.47603e-05
0.00161616 -0.000151805 6.20791e-07
-0.000151805 5.73606e-05 -1.3463e-07
6.20791e-07 -1.3463e-07 -4.42526e-05
0.00165814 -0.000238417 6.92844e-07
-0.000238417 0.000137395 -1.55508e-06
6.92844e-07 -1.55508e-06 -2.41002e-05
0.00176792 -0.000215043 -5.56993e-07
-0.000215043 0.000137286 -1.00412e-06
-5.56993e-07 -1.00412e-06 1.99203e-05
0.000419469 2.14228e-05 1.24002e-07
2.14228e-05 -0.000145924 -7.52326e-07
1.24002e-07 -7.52326e-07 -0.000199269
0.00103691 -0.000160237 -1.55494e-08
-0.000160237 0.000192114 5.59611e-07
-1.55494e-08 5.59611e-07 6.10207e-05
0.000808217 -0.000145782 -9.51471e-07
-0.000145782 6.06758e-05 6.73274e-08
-9.51471e-07 6.73274e-08 -6.69058e-05
0.000998974 -0.000110759 -4.24775e-07
-0.000110759 0.000194044 9.20927e-07
-4.24775e-07 9.20927e-07 6.24601e-05
0.000947393 -4.7508e-05 -8.90936e-08
-4.7508e-05 0.000175101 4.60319e-09
-8.90936e-08 4.60319e-09 6.86641e-05
0.000715546 8.65824e-06 -2.82365e-07
8.65824e-06 4.13994e-05 3.53088e-07
-2.82365e-07 3.53088e-07 -4.4414e-05
0.00165799 -3.71414e-05 -5.10972e-07
-3.71414e-05 3.06016e-05 1.272e-07
-5.10972e-07 1.272e-07 -6.66862e-05
0.00179721 -9.73461e-05 -1.40498e-06
-9.73461e-05 9.52113e-05 -9.74516e-08
-1.40498e-06 -9.74516e-08 1.31148e-05
0.00155135 -0.000136689 -4.78327e-07
-0.000136689 -2.04176e-05 2.58086e-07
-4.78327e-07 2.58086e-07 -0.000101701
0.00193824 -0.000191277 -1.0589e-06
-0.000191277 0.000183007 -6.59082e-08
-1.0589e-06 -6.59082e-08 9.08725e-05
0.000980215 -0.000162514 -1.86828e-06
-0.000162514 0.00015689 5.52562e-08
-1.86828e-06 5.52562e-08 8.46104e-06
0.00182885 -0.000245258 1.64625e-06
-0.000245258 0.000190169 3.17771e-06
1.64625e-06 3.17771e-06 5.32304e-05
0.000597265 -0.000170598 -1.74863e-06
-0.000170598 -0.000145632 -2.31456e-06
-1.74863e-06 -2.31456e-06 -0.00035452
0.00226386 -0.000310971 5.17039e-08
-0.000310971 0.000555482 1.85265e-06
5.17039e-08 1.85265e-06 0.000345072
0.000405465 3.31827e-05 -1.1809e-07
3.31827e-05 -0.000156455 -3.03057e-06
-1.1809e-07 -3.03057e-06 -0.000205086
0.000846856 -1.08792e-05 1.35111e-06
-1.08792e-05 0.000115038 -1.23562e-06
1.35111e-06 -1.23562e-06 3.46684e-05
0.000995093 -6.61933e-05 -1.0087e-08
-6.61933e-05 0.000204105 7.65107e-07
-1.0087e-08 7.65107e-07 0.000103094
0.000829087 -2.09128e-05 -7.05029e-08
-2.09128e-05 0.000108721 -4.33522e-07
-7.05029e-08 -4.33522e-07 -7.60487e-06
0.000843725 -0.000152701 -8.01372e-07
-0.000152701 7.28749e-05 1.16779e-06
-8.01372e-07 1.16779e-06 -6.02165e-05
0.000963295 -0.000157479 -3.57226e-06
-0.000157479 0.000142746 3.542e-06
-3.57226e-06 3.542e-06 2.83476e-06
0.000699878 -3.80932e-05 -2.03021e-06
-3.80932e-05 8.34362e-06 -1.57031e-06
-2.03021e-06 -1.57031e-06 -3.29689e-05
0.00068826 -6.39211e-05 5.63878e-08
-6.39211e-05 1.8553e-05 -9.07363e-07
5.63878e-08 -9.07363e-07 -5.13164e-05
0.00163968 0.000157883 -2.64688e-07
0.000157883 0.000120759 4.18151e-07
-2.64688e-07 4.18151e-07 -1.68139e-05
0.000748118 -4.3418e-05 8.46328e-07
-4.3418e-05 6.56455e-05 -7.48669e-07
8.46328e-07 -7.48669e-07 -3.06502e-05
0.00094903 0.000146771 3.63243e-07
0.000146771 0.000177685 -6.30717e-07
3.63243e-07 -6.30717e-07 3.24774e-05
0.000601311 4.4843e-05 1.40194e-06
4.4843e-05 -1.63696e-05 -3.12647e-07
1.40194e-06 -3.12647e-07 -0.000140907
0.00163562 0.000222276 -1.18804e-06
0.000222276 0.000189005 -5.86993e-07
-1.18804e-06 -5.86993e-07 2.41241e-05
0.00166904 0.000221298 1.02725e-06
0.000221298 0.000131922 1.77129e-06
1.02725e-06 1.77129e-06 -8.79436e-06
0.000578125 0.000143871 3.53067e-07
0.000143871 -6.32196e-05 8.01887e-07
3.53067e-07 8.01887e-07 -0.000257623
0.0018617 0.000262955 -4.14287e-07
0.000262955 0.000421705 -1.73145e-07
-4.14287e-07 -1.73145e-07 0.000234039
0.000745008 -1.42836e-05 -6.83679e-07
-1.42836e-05 4.11419e-05 1.47803e-07
-6.83679e-07 1.47803e-07 -2.07019e-05
0.00069981 -1.44265e-05 -1.24758e-09
-1.44265e-05 3.28465e-05 9.65108e-07
-1.24758e-09 9.65108e-07 -5.2717e-05
0.00104595 0.000160832 -4.59578e-07
0.000160832 0.0002275 -2.04448e-06
-4.59578e-07 -2.04448e-06 6.31296e-05
0.000673425 -8.23353e-06 -1.84483e-07
-8.23353e-06 2.64247e-05 1.11155e-07
-1.84483e-07 1.11155e-07 -8.5935e-05
0.000828165 0.000111229 -1.57658e-06
0.000111229 0.000103712 -8.20715e-07
-1.57658e-06 -8.20715e-07 -2.77152e-05
0.00185136 0.000176241 -2.29809e-06
0.000176241 0.000169524 -1.01125e-06
-2.29809e-06 -1.01125e-06 6.48507e-05
0.00183864 0.000258239 1.12296e-06
0.000258239 0.000269364 1.39315e-07
1.12296e-06 1.39315e-07 0.000103604
0.00157535 0.000230107 4.33224e-07
0.000230107 6.10588e-05 1.8378e-06
4.33224e-07 1.8378e-06 -7.71032e-05
0.00141121 0.000209755 2.39803e-06
0.000209755 0.000362548 3.74979e-06
2.39803e-06 3.74979e-06 0.000138738
0.00116409 0.000229228 -2.02685e-06
0.000229228 -8.69347e-06 -1.19815e-07
-2.02685e-06 -1.19815e-07 -0.000189031
0.000579442 -3.36336e-05 -3.48063e-07
-3.36336e-05 -4.04519e-05 9.89407e-07
-3.48063e-07 9.89407e-07 -0.000114304
0.000384854 3.88857e-05 -7.14847e-07
3.88857e-05 -0.000124371 4.86691e-07
-7.14847e-07 4.86691e-07 -0.000232858
0.00108799 0.000166905 7.42057e-07
0.000166905 0.000239028 1.67111e-06
7.42057e-07 1.67111e-06 5.28445e-05
-4.40528e-05 4.38287e-05 1.2237e-06
4.38287e-05 -0.000370679 1.52075e-07
1.2237e-06 1.52075e-07 -0.000506452
0.0019659 0.000175942 -1.73334e-06
0.000175942 0.000128118 -5.6152e-07
-1.73334e-06 -5.6152e-07 5.00913e-05
0.00204694 0.000222741 2.20077e-06
0.000222741 0.000245015 -7.87472e-07
2.20077e-06 -7.87472e-07 0.00013926
0.00180138 0.000287069 -1.16931e-06
0.000287069 0.000213995 -1.48774e-06
-1.16931e-06 -1.48774e-06 4.03055e-05
-0.000194308 0.000114304 -9.68819e-08
0.000114304 -0.000611869 1.20513e-06
-9.68819e-08 1.20513e-06 -0.000840266
0.000742769 1.39634e-05 -7.79322e-07
1.39634e-05 4.15706e-05 -1.35726e-07
-7.79322e-07 -1.35726e-07 -2.08734e-05
0.00073064 -4.4258e-06 -3.73688e-07
-4.4258e-06 4.41011e-05 3.86728e-07
-3.73688e-07 3.86728e-07 -2.81727e-05
0.000831521 -2.40011e-05 -4.93942e-07
-2.40011e-05 0.000104566 -8.84006e-10
-4.93942e-07 -8.84006e-10 2.89834e-05
0.000731641 -2.85487e-05 -1.07841e-06
-2.85487e-05 2.99596e-05 -7.17288e-07
-1.07841e-06 -7.17288e-07 -2.79318e-05
0.000619301 -3.53776e-05 -2.90902e-07
-3.53776e-05 -2.11548e-05 -3.36706e-07
-2.90902e-07 -3.36706e-07 -9.18329e-05
0.000755524 -1.98712e-06 8.93729e-09
-1.98712e-06 4.35231e-05 -7.21478e-11
8.93729e-09 -7.21478e-11 -1.53189e-05
0.000767307 2.92504e-05 -4.07031e-07
2.92504e-05 7.34231e-05 -2.42532e-07
-4.07031e-07 -2.42532e-07 -8.46019e-06
0.000714418 -3.79352e-06 4.26975e-07
-3.79352e-06 3.75688e-05 2.69854e-07
4.26975e-07 2.69854e-07 -3.81728e-05
0.000822098 1.71964e-08 3.98926e-07
1.71964e-08 9.68642e-05 -2.64524e-07
3.98926e-07 -2.64524e-07 1.6801e-05
0.000777065 -3.66493e-05 6.24048e-07
-3.66493e-05 7.28155e-05 -4.03539e-07
6.24048e-07 -4.03539e-07 -8.20512e-06
0.000649417 1.82253e-05 5.13482e-07
1.82253e-05 -2.53935e-06 4.23848e-07
5.13482e-07 4.23848e-07 -7.84732e-05
0.000753022 3.17478e-05 7.49688e-07
3.17478e-05 4.29261e-05 7.52406e-07
7.49688e-07 7.52406e-07 -1.74571e-05
0.000706106 1.34437e-05 6.7529e-07
1.34437e-05 3.51777e-06 1.60858e-06
6.7529e-07 1.60858e-06 -3.63034e-05
0.000716701 -5.69719e-06 -2.03939e-07
-5.69719e-06 6.54164e-06 1.99235e-08
-2.03939e-07 1.99235e-08 -3.23331e-05
0.00127959 -1.74632e-05 7.34146e-07
-1.74632e-05 0.00031376 2.16063e-06
7.34146e-07 2.16063e-06 0.000309342
0.000723395 -1.71254e-05 -6.59887e-07
-1.71254e-05 9.07081e-06 -1.81871e-06
-6.59887e-07 -1.81871e-06 -2.91505e-05
0.00130028 -2.44184e-05 -3.35232e-06
-2.44184e-05 0.000328465 -1.38465e-06
-3.35232e-06 -1.38465e-06 0.00032376
0.000936033 -2.08077e-05 1.47043e-05
-2.08077e-05 0.000126293 7.28884e-06
1.47043e-05 7.28884e-06 0.000137647
0.0013157 -3.18705e-05 -6.87412e-06
-3.18705e-05 0.000341192 -4.93131e-06
-6.87412e-06 -4.93131e-06 0.00033586
0.000873848 -2.77946e-05 5.59709e-06
-2.77946e-05 9.55808e-05 2.71047e-06
5.59709e-06 2.71047e-06 0.00010616
0.000807363 -3.37353e-05 -1.98016e-06
-3.37353e-05 6.43988e-05 -1.82392e-06
-1.98016e-06 -1.82392e-06 7.35227e-05
0.000634537 3.15748e-05 6.47991e-07
3.15748e-05 -3.85737e-05 -3.88247e-06
6.47991e-07 -3.88247e-06 -5.21064e-05
0.000634341 3.78355e-05 -1.96388e-07
3.78355e-05 -3.14882e-05 4.85052e-08
-1.96388e-07 4.85052e-08 -4.89873e-05
0.00234136 6.38343e-05 2.51762e-05
6.38343e-05 0.000945198 -4.02853e-06
2.51762e-05 -4.02853e-06 0.00095668
0.000629859 4.65943e-05 -7.05383e-07
4.65943e-05 -2.53283e-05 4.58517e-06
-7.05383e-07 4.58517e-06 -4.73622e-05
0.00251112 7.58791e-05 -2.67375e-06
7.58791e-05 0.0010493 -1.8219e-07
-2.67375e-06 -1.8219e-07 0.00105765
0.00266448 8.53957e-05 -4.34438e-05
8.53957e-05 0.0011423 3.3342e-06
-4.34438e-05 3.3342e-06 0.00114846
0.00160378 0.00010739 1.71419e-06
0.00010739 8.39301e-05 2.32262e-06
1.71419e-06 2.32262e-06 -3.31854e-05
0.00167578 8.54202e-05 1.27486e-06
8.54202e-05 7.56201e-05 2.46298e-07
1.27486e-06 2.46298e-07 -2.88969e-05
0.00170035 0.00012301 5.08035e-06
0.00012301 6.1594e-05 1.22407e-06
5.08035e-06 1.22407e-06 -2.68692e-05
0.001731 7.21089e-05 3.00584e-06
7.21089e-05 7.13257e-05 -9.99484e-07
3.00584e-06 -9.99484e-07 -1.67407e-05
0.00175514 2.91026e-05 1.60905e-06
2.91026e-05 9.9783e-05 -1.44049e-07
1.60905e-06 -1.44049e-07 -6.6964e-06
0.00161303 5.45556e-07 -1.12706e-06
5.45556e-07 8.61027e-05 -1.28012e-07
-1.12706e-06 -1.28012e-07 -3.08135e-05
0.00174847 1.55498e-06 -8.9596e-08
1.55498e-06 0.000105599 -2.21509e-08
-8.9596e-08 -2.21509e-08 2.81901e-07
0.00170368 4.16427e-05 7.56223e-07
4.16427e-05 6.1116e-05 -1.23815e-07
7.56223e-07 -1.23815e-07 -3.10723e-05
0.00176052 9.2546e-05 8.63339e-07
9.2546e-05 8.26388e-05 -2.28342e-07
8.63339e-07 -2.28342e-07 -8.05622e-07
0.00191567 0.00013806 4.27618e-07
0.00013806 0.000176844 3.59805e-07
4.27618e-07 3.59805e-07 8.78381e-05
0.00172336 1.52821e-06 -1.09539e-06
1.52821e-06 7.24259e-05 1.51797e-07
-1.09539e-06 1.51797e-07 -2.23387e-05
0.00204355 7.07386e-05 5.98687e-07
7.07386e-05 0.000208963 5.24114e-07
5.98687e-07 5.24114e-07 0.000135786
0.00164555 0.000129405 2.95201e-07
0.000129405 -2.59655e-05 -3.41606e-07
2.95201e-07 -3.41606e-07 -0.000100592
0.00181892 -3.2299e-05 5.58834e-07
-3.2299e-05 0.000140574 -1.27262e-07
5.58834e-07 -1.27262e-07 3.56729e-05
0.00180695 -7.03302e-05 8.29404e-07
-7.03302e-05 0.000139177 -4.25655e-07
8.29404e-07 -4.25655e-07 3.58617e-05
0.00169455 -0.000123062 1.11316e-06
-0.000123062 7.61328e-05 -5.99964e-08
1.11316e-06 -5.99964e-08 -1.51504e-05
0.00115799 -0.000169109 -3.04484e-07
-0.000169109 0.000258749 1.80729e-06
-3.04484e-07 1.80729e-06 0.000118406
0.00157374 -0.000216565 -2.81314e-07
-0.000216565 0.000447379 2.0524e-06
-2.81314e-07 2.0524e-06 0.000266821
0.000929772 -0.000209808 -1.91918e-06
-0.000209808 -0.000130444 1.06303e-06
-1.91918e-06 1.06303e-06 -0.0003352
0.0016603 -0.000152707 1.50731e-06
-0.000152707 8.16278e-05 -9.22908e-07
1.50731e-06 -9.22908e-07 -2.05592e-05
0.00150484 -0.000206569 4.29393e-09
-0.000206569 -4.86336e-06 -3.18921e-06
4.29393e-09 -3.18921e-06 -0.000123527
0.00171271 -0.000237952 -1.37675e-06
-0.000237952 0.000167189 -5.2867e-06
-1.37675e-06 -5.2867e-06 9.37103e-06
0.00107646 -0.000162809 8.96369e-07
-0.000162809 0.000211678 -9.68955e-07
8.96369e-07 -9.68955e-07 8.03579e-05
0.000808063 -0.000144436 -4.39576e-06
-0.000144436 6.46597e-05 -2.32214e-06
-4.39576e-06 -2.32214e-06 -5.99273e-05
0.00108204 -0.000123521 3.21389e-07
-0.000123521 0.000249264 4.10172e-07
3.21389e-07 4.10172e-07 0.000110191
0.00042443 1.98559e-05 -8.11366e-07
1.98559e-05 -0.000143682 1.52867e-06
-8.11366e-07 1.52867e-06 -0.000196275
0.00097311 -4.02501e-05 2.98821e-07
-4.02501e-05 0.000186307 5.0561e-08
2.98821e-07 5.0561e-08 8.2061e-05
0.000584981 2.91675e-05 5.04246e-07
2.91675e-05 -3.64964e-05 1.41653e-06
5.04246e-07 1.41653e-06 -0.000120084
0.00176043 -3.62163e-05 -3.54803e-07
-3.62163e-05 8.50186e-05 1.13992e-07
-3.54803e-07 1.13992e-07 -1.20277e-05
0.00184902 -9.87555e-05 5.70662e-07
-9.87555e-05 0.000125376 9.00464e-09
5.70662e-07 9.00464e-09 4.41062e-05
0.00160724 -0.000137381 -3.32779e-07
-0.000137381 1.22422e-05 1.71545e-07
-3.32779e-07 1.71545e-07 -6.87632e-05
0.00105153 -0.000166633 1.13584e-07
-0.000166633 0.000193506 1.80245e-06
1.13584e-07 1.80245e-06 4.44376e-05
0.000863677 -0.000186076 -2.85266e-07
-0.000186076 1.25263e-05 -8.35645e-08
-2.85266e-07 -8.35645e-08 -0.000192635
0.00188598 -0.00028456 -3.02477e-06
-0.00028456 0.000342717 1.14877e-06
-3.02477e-06 1.14877e-06 0.000138089
0.00188608 -0.000191547 8.77753e-07
-0.000191547 0.000154218 -6.45873e-07
8.77753e-07 -6.45873e-07 6.06408e-05
0.00174885 -0.000242356 1.57327e-06
-0.000242356 0.000142062 -8.95034e-07
1.57327e-06 -8.95034e-07 5.14318e-06
0.000553823 2.14584e-05 3.74875e-07
2.14584e-05 -7.40072e-05 -7.33945e-07
3.74875e-07 -7.33945e-07 -0.000120376
0.000843781 -1.81799e-06 -3.46186e-07
-1.81799e-06 0.00011174 2.67227e-07
-3.46186e-07 2.67227e-07 3.22622e-05
0.000506044 -0.000127217 -1.72496e-06
-0.000127217 -0.000115548 1.53227e-06
-1.72496e-06 1.53227e-06 -0.000243851
0.00122231 -0.000167064 3.96906e-07
-0.000167064 0.000292218 2.51427e-07
3.96906e-07 2.51427e-07 0.000156027
0.000874353 -3.89981e-05 8.00765e-08
-3.89981e-05 0.000135513 -3.96459e-07
8.00765e-08 -3.96459e-07 1.66739e-05
0.000900788 -5.03547e-05 -6.2573e-07
-5.03547e-05 0.000151893 1.00948e-06
-6.2573e-07 1.00948e-06 5.0664e-05
0.00185644 -5.86178e-05 -9.95527e-07
-5.86178e-05 0.000100152 -1.34191e-08
-9.95527e-07 -1.34191e-08 2.259e-05
0.00173327 -0.000133745 -2.54578e-06
-0.000133745 3.06877e-05 -5.48884e-07
-2.54578e-06 -5.48884e-07 -3.17227e-05
0.00180499 -0.000157021 1.68807e-06
-0.000157021 7.82543e-05 -2.94331e-07
1.68807e-06 -2.94331e-07 7.03149e-06
0.00235707 -0.000274147 5.5524e-06
-0.000274147 0.000389664 -9.84499e-07
5.5524e-06 -9.84499e-07 0.00028258
0.000260874 -0.000120461 -2.55209e-06
-0.000120461 -0.000248276 -8.85325e-07
-2.55209e-06 -8.85325e-07 -0.000412102
0.0018062 -0.000287259 -2.46791e-06
-0.000287259 0.000250556 6.13638e-06
-2.46791e-06 6.13638e-06 5.88306e-05
0.00220183 -0.000302852 2.19532e-06
-0.000302852 0.000678677 -3.7387e-06
2.19532e-06 -3.7387e-06 0.000448579
0.000714333 1.88994e-05 7.14859e-07
1.88994e-05 1.22702e-05 -2.01789e-06
7.14859e-07 -2.01789e-06 -2.84632e-05
0.000740513 -7.77917e-05 1.37546e-06
-7.77917e-05 5.86146e-05 -1.77599e-06
1.37546e-06 -1.77599e-06 -1.39483e-05
0.000547718 1.20031e-05 3.12006e-07
1.20031e-05 -5.16272e-05 -2.331e-06
3.12006e-07 -2.331e-06 -0.000130508
0.000830412 -3.95614e-05 1.25882e-06
-3.95614e-05 0.000118319 1.04105e-07
1.25882e-06 1.04105e-07 1.90223e-05
0.000804812 -2.64206e-06 9.01649e-07
-2.64206e-06 9.193e-05 -9.29762e-07
9.01649e-07 -9.29762e-07 -1.17701e-05
0.000491935 -0.000109992 -2.78685e-08
-0.000109992 -6.0837e-05 2.65177e-06
-2.78685e-08 2.65177e-06 -0.000192001
0.000534731 -0.000133987 -2.978e-06
-0.000133987 -0.000149504 1.18055e-06
-2.978e-06 1.18055e-06 -0.000267154
0.00176497 -0.000208211 -6.01896e-06
-0.000208211 0.000626449 3.74676e-06
-6.01896e-06 3.74676e-06 0.000466401
0.000726103 -3.90686e-05 -6.35384e-07
-3.90686e-05 2.89525e-05 -5.77425e-07
-6.35384e-07 -5.77425e-07 -3.12374e-05
0.000817585 -7.60093e-06 -3.18563e-08
-7.60093e-06 9.96723e-05 1.84596e-07
-3.18563e-08 1.84596e-07 1.29298e-05
0.00207833 0.000182392 -1.02146e-07
0.000182392 0.000295527 5.26914e-07
-1.02146e-07 5.26914e-07 0.000193156
0.000824765 1.33961e-05 -3.95759e-08
1.33961e-05 0.000115578 -7.92297e-07
-3.95759e-08 -7.92297e-07 -1.0729e-06
0.00114811 0.00016808 1.09149e-06
0.00016808 0.000291023 -1.7314e-06
1.09149e-06 -1.7314e-06 0.000123411
0.000630966 8.58304e-05 -4.0969e-07
8.58304e-05 -5.4848e-06 2.0098e-06
-4.0969e-07 2.0098e-06 -0.000128233
0.00188396 0.000258132 6.61086e-07
0.000258132 0.000292022 5.7827e-07
6.61086e-07 5.7827e-07 0.000126361
0.00165049 0.000237825 2.33947e-06
0.000237825 0.000104323 4.80018e-06
2.33947e-06 4.80018e-06 -3.47326e-05
0.00096769 0.000181427 1.1913e-06
0.000181427 0.000127005 -1.15132e-08
1.1913e-06 -1.15132e-08 -0.000100373
0.00127739 0.000238111 -3.02343e-06
0.000238111 5.68519e-05 8.19924e-07
-3.02343e-06 8.19924e-07 -0.000121348
0.000608986 -1.30966e-05 8.69262e-08
-1.30966e-05 -1.92522e-05 6.72597e-07
8.69262e-08 6.72597e-07 -9.75611e-05
0.000591454 5.41878e-05 -3.57297e-07
5.41878e-05 -8.89238e-06 -1.39634e-06
-3.57297e-07 -1.39634e-06 -0.000119167
0.00103452 0.000163827 1.3526e-06
0.000163827 0.000219014 -1.68279e-06
1.3526e-06 -1.68279e-06 2.89235e-05
0.000667129 9.27812e-05 -7.3692e-07
9.27812e-05 2.13501e-05 -1.79393e-06
-7.3692e-07 -1.79393e-06 -0.000118453
0.00200396 0.000172952 1.68724e-07
0.000172952 0.000153697 -4.87621e-07
1.68724e-07 -4.87621e-07 7.78833e-05
0.00183868 0.000220265 1.94585e-06
0.000220265 0.000140633 5.43136e-07
1.94585e-06 5.43136e-07 3.03968e-05
0.00171052 0.000275122 -1.11781e-06
0.000275122 0.000165685 -5.66487e-07
-1.11781e-06 -5.66487e-07 -4.61146e-06
0.000799101 0.00018806 3.82881e-07
0.00018806 -8.55757e-05 2.82443e-07
3.82881e-07 2.82443e-07 -0.00031311
0.00078664 -6.08903e-06 -2.66037e-07
-6.08903e-06 8.18577e-05 5.57746e-07
-2.66037e-07 5.57746e-07 -1.12501e-07
0.00186163 0.000136634 -4.54606e-07
0.000136634 3.5008e-05 8.70354e-07
-4.54606e-07 8.70354e-07 -1.44118e-05
0.00126772 0.000161553 -7.12041e-07
0.000161553 0.00038619 2.31809e-06
-7.12041e-07 2.31809e-06 0.000241911
0.00105434 0.000172853 5.18686e-07
0.000172853 0.000209161 3.02704e-06
5.18686e-07 3.02704e-06 1.0635e-05
0.00245635 0.00022324 -5.49758e-06
0.00022324 0.000379915 -3.29992e-07
-5.49758e-06 -3.29992e-07 0.000301129
0.00146862 0.000279044 -2.99833e-06
0.000279044 -5.00298e-05 -3.65907e-06
-2.99833e-06 -3.65907e-06 -0.000206142
0.00205027 0.000301033 -2.11635e-06
0.000301033 0.000485209 8.00872e-07
-2.11635e-06 8.00872e-07 0.000259139
0.000797083 2.00184e-06 -1.44856e-06
2.00184e-06 8.21206e-05 2.38222e-07
-1.44856e-06 2.38222e-07 9.73528e-06
0.000790751 -9.37041e-06 -1.89361e-07
-9.37041e-06 8.26762e-05 1.05695e-07
-1.89361e-07 1.05695e-07 6.36527e-06
0.000859356 -2.40419e-05 -6.27748e-07
-2.40419e-05 0.000128885 2.09042e-07
-6.27748e-07 2.09042e-07 4.60286e-05
0.000734348 -2.40768e-05 -4.3357e-07
-2.40768e-05 3.31015e-05 -8.36312e-07
-4.3357e-07 -8.36312e-07 -2.68119e-05
0.000750803 1.13263e-05 2.40432e-07
1.13263e-05 5.91596e-05 3.12745e-07
2.40432e-07 3.12745e-07 -1.69875e-05
0.000639107 -1.14409e-05 -7.72135e-07
-1.14409e-05 6.53742e-06 1.95738e-07
-7.72135e-07 1.95738e-07 -7.77173e-05
0.000742583 -1.18767e-05 -1.42267e-07
-1.18767e-05 4.11734e-05 -2.94713e-08
-1.42267e-07 -2.94713e-08 -2.21851e-05
0.000658482 -2.48431e-05 -5.4413e-07
-2.48431e-05 6.93069e-06 3.20522e-07
-5.4413e-07 3.20522e-07 -7.13238e-05
0.000733747 -3.91532e-05 4.67521e-07
-3.91532e-05 4.84513e-05 -3.30126e-07
4.67521e-07 -3.30126e-07 -3.17233e-05
0.000824419 1.36195e-05 2.85579e-07
1.36195e-05 0.000106148 2.50587e-07
2.85579e-07 2.50587e-07 2.0637e-05
0.000810865 -1.6566e-05 6.30066e-07
-1.6566e-05 8.09381e-05 -9.38786e-07
6.30066e-07 -9.38786e-07 1.38347e-06
0.000771564 -5.83015e-05 5.32953e-07
-5.83015e-05 6.64754e-05 -2.94738e-07
5.32953e-07 -2.94738e-07 -1.6335e-05
0.000843764 1.59858e-05 6.09273e-07
1.59858e-05 0.000113114 -1.78394e-07
6.09273e-07 -1.78394e-07 2.66347e-05
0.000745996 2.00315e-05 1.71231e-06
2.00315e-05 5.54281e-05 2.88798e-07
1.71231e-06 2.88798e-07 -2.83847e-05
0.00075913 9.28843e-06 8.4642e-07
9.28843e-06 4.59024e-05 8.35872e-07
8.4642e-07 8.35872e-07 -1.61047e-05
0.000695577 1.77483e-06 2.88897e-07
1.77483e-06 -7.10308e-07 1.55704e-06
2.88897e-07 1.55704e-06 -4.07534e-05
0.000709474 -3.38305e-06 -2.09969e-07
-3.38305e-06 5.1421e-06 3.46838e-08
-2.09969e-07 3.46838e-08 -3.44226e-05
0.00128592 -8.34913e-06 5.33913e-07
-8.34913e-06 0.000316044 2.08274e-06
5.33913e-07 2.08274e-06 0.000311358
0.000726259 -1.23721e-05 -6.38244e-08
-1.23721e-05 1.21361e-05 -1.81465e-06
-6.38244e-08 -1.81465e-06 -2.6802e-05
0.00131044 -1.54266e-05 -2.5148e-06
-1.54266e-05 0.000331716 -1.43333e-06
-2.5148e-06 -1.43333e-06 0.000327142
0.000937003 -1.4231e-05 1.11055e-05
-1.4231e-05 0.000123345 7.48516e-06
1.11055e-05 7.48516e-06 0.00013508
0.00133245 -2.28218e-05 -5.10946e-06
-2.28218e-05 0.000346785 -4.9973e-06
-5.10946e-06 -4.9973e-06 0.000341925
0.000886736 -2.12368e-05 3.97083e-06
-2.12368e-05 9.77809e-05 2.81685e-06
3.97083e-06 2.81685e-06 0.000109157
0.000820711 -2.72609e-05 -1.40772e-06
-2.72609e-05 6.52329e-05 -1.83366e-06
-1.40772e-06 -1.83366e-06 7.59444e-05
0.000725561 2.38272e-06 5.08523e-07
2.38272e-06 1.72128e-05 -1.98095e-06
5.08523e-07 -1.98095e-06 -2.05415e-05
0.000647874 2.53585e-05 5.29235e-07
2.53585e-05 -3.70785e-05 -3.76648e-06
5.29235e-07 -3.76648e-06 -4.74276e-05
0.000648785 3.2233e-05 -1.07923e-07
3.2233e-05 -3.06736e-05 5.27713e-08
-1.07923e-07 5.27713e-08 -4.43565e-05
0.00225276 5.26776e-05 2.06981e-05
5.26776e-05 0.000887671 -4.21025e-06
2.06981e-05 -4.21025e-06 0.000901842
0.000645943 3.92362e-05 -9.0682e-07
3.92362e-05 -2.46349e-05 4.26498e-06
-9.0682e-07 4.26498e-06 -4.24219e-05
0.00239139 6.50198e-05 -2.60605e-06
6.50198e-05 0.000974324 -1.57529e-07
-2.60605e-06 -1.57529e-07 0.000985381
0.00255934 7.63992e-05 -3.53587e-05
7.63992e-05 0.00107695 3.6818e-06
-3.53587e-05 3.6818e-06 0.00108514
0.00189942 0.000133675 1.70477e-06
0.000133675 0.000159503 1.99875e-06
1.70477e-06 1.99875e-06 7.15553e-05
0.0017207 9.42079e-05 1.72688e-06
9.42079e-05 6.17083e-05 -1.93214e-07
1.72688e-06 -1.93214e-07 -2.26788e-05
0.00169329 4.12406e-05 1.50659e-06
4.12406e-05 6.11331e-05 -5.45821e-07
1.50659e-06 -5.45821e-07 -3.14692e-05
0.00174156 3.83372e-06 5.93241e-07
3.83372e-06 0.000101719 -2.63236e-07
5.93241e-07 -2.63236e-07 -3.57113e-06
0.00175249 2.98005e-06 -7.55794e-07
2.98005e-06 9.0231e-05 3.61503e-08
-7.55794e-07 3.61503e-08 -3.10012e-06
0.00193609 6.80225e-05 6.1312e-07
6.80225e-05 0.000147853 -1.73943e-07
6.1312e-07 -1.73943e-07 7.39598e-05
0.00168466 0.0001306 -7.56319e-07
0.0001306 -7.35915e-06 -2.15644e-07
-7.56319e-07 -2.15644e-07 -8.22504e-05
0.00182241 9.19083e-06 -7.29538e-07
9.19083e-06 7.72701e-05 7.70011e-07
-7.29538e-07 7.70011e-07 2.44718e-06
0.00195387 9.19917e-05 1.2465e-06
9.19917e-05 0.000110073 6.91966e-08
1.2465e-06 6.91966e-08 5.38306e-05
0.00194132 5.99395e-05 -1.74694e-06
5.99395e-05 9.36162e-05 -8.49323e-07
-1.74694e-06 -8.49323e-07 8.39195e-05
0.00186475 -3.5431e-05 -2.32149e-07
-3.5431e-05 0.000140368 -1.15419e-07
-2.32149e-07 -1.15419e-07 4.35755e-05
0.00190444 -0.00010133 1.92335e-06
-0.00010133 0.000156652 1.93027e-07
1.92335e-06 1.93027e-07 7.61428e-05
0.00165127 -0.000139158 -8.12348e-07
-0.000139158 3.66479e-05 6.18793e-08
-8.12348e-07 6.18793e-08 -4.41427e-05
0.00110365 -0.000169705 3.05744e-07
-0.000169705 0.000219591 3.54908e-06
3.05744e-07 3.54908e-06 6.96178e-05
0.00115758 -0.000203445 9.28966e-07
-0.000203445 0.000185975 3.87855e-06
9.28966e-07 3.87855e-06 -1.64869e-05
0.00145466 -0.000254071 -2.02688e-06
-0.000254071 0.000102759 -5.36144e-07
-2.02688e-06 -5.36144e-07 -9.52354e-05
0.00184908 -0.000190397 2.96769e-06
-0.000190397 0.00013365 -1.09009e-06
2.96769e-06 -1.09009e-06 3.88948e-05
0.00161571 -0.000233947 -8.01704e-07
-0.000233947 6.89601e-05 -3.65376e-06
-8.01704e-07 -3.65376e-06 -6.71283e-05
0.000221635 -0.000105586 -2.82387e-06
-0.000105586 -0.000273781 2.21025e-06
-2.82387e-06 2.21025e-06 -0.000397914
0.00152354 -0.000183479 8.25654e-06
-0.000183479 0.000466381 -4.15463e-06
8.25654e-06 -4.15463e-06 0.000332481
0.000835626 -9.20695e-06 -9.06303e-08
-9.20695e-06 0.000103925 -4.24342e-07
-9.06303e-08 -4.24342e-07 -6.70882e-06
0.000712279 9.82975e-06 -6.42493e-07
9.82975e-06 1.40983e-05 1.40242e-06
-6.42493e-07 1.40242e-06 -3.01644e-05
0.000849396 1.59329e-05 -8.37524e-07
1.59329e-05 0.000113689 1.64038e-06
-8.37524e-07 1.64038e-06 3.46544e-05
0.000819472 -2.28721e-05 -5.30603e-07
-2.28721e-05 0.000106802 1.24672e-06
-5.30603e-07 1.24672e-06 5.42196e-06
0.00187923 -6.00873e-05 5.76592e-08
-6.00873e-05 0.000113254 -4.01304e-08
5.76592e-08 -4.01304e-08 3.70806e-05
0.00071496 8.02492e-06 6.42206e-07
8.02492e-06 1.30268e-05 5.26524e-08
6.42206e-07 5.26524e-08 -2.79709e-05
0.000648921 -2.07918e-05 -9.05377e-07
-2.07918e-05 -4.57805e-06 6.48867e-09
-9.05377e-07 6.48867e-09 -6.99862e-05
0.00182404 -0.000132645 -2.96989e-07
-0.000132645 8.79605e-05 4.16352e-08
-2.96989e-07 4.16352e-08 2.356e-05
0.00165158 -0.000152305 -1.96052e-06
-0.000152305 -1.03232e-05 8.8103e-07
-1.96052e-06 8.8103e-07 -8.36858e-05
0.000520382 -0.000136984 4.11104e-07
-0.000136984 -9.40977e-05 2.72781e-06
4.11104e-07 2.72781e-06 -0.000255328
0.00171077 -0.00026476 -2.06287e-06
-0.00026476 0.000417567 8.30502e-07
-2.06287e-06 8.30502e-07 0.000181756
0.00148821 -0.000263886 1.13365e-06
-0.000263886 7.83338e-05 -8.69973e-07
1.13365e-06 -8.69973e-07 -0.000106294
0.0019399 -0.000258 2.6727e-06
-0.000258 0.000172373 -9.42797e-07
2.6727e-06 -9.42797e-07 6.46777e-05
0.000798294 -2.51323e-05 1.14304e-06
-2.51323e-05 8.82382e-05 -7.40833e-07
1.14304e-06 -7.40833e-07 1.1796e-05
0.000811091 -2.83032e-05 -1.867e-07
-2.83032e-05 0.000108042 7.21662e-07
-1.867e-07 7.21662e-07 7.68354e-06
0.000965684 -0.000150791 -8.86425e-07
-0.000150791 8.79782e-05 -1.80615e-07
-8.86425e-07 -1.80615e-07 -3.45277e-05
0.0011447 -0.000167133 7.49262e-06
-0.000167133 0.000279073 -2.02973e-06
7.49262e-06 -2.02973e-06 0.000143073
0.000619144 -8.54655e-05 -1.12963e-06
-8.54655e-05 1.59308e-06 2.04093e-07
-1.12963e-06 2.04093e-07 -0.000124514
0.000823672 -8.2117e-06 3.09686e-07
-8.2117e-06 0.000105501 -4.89445e-07
3.09686e-07 -4.89445e-07 2.7017e-07
0.00195688 -7.62873e-05 -3.62508e-06
-7.62873e-05 0.000104401 -6.76867e-08
-3.62508e-06 -6.76867e-08 4.78931e-05
0.00170733 -0.000122358 2.32927e-06
-0.000122358 -1.07422e-05 1.97477e-07
2.32927e-06 1.97477e-07 -6.38763e-05
0.0018787 -0.000248099 8.62454e-07
-0.000248099 3.94495e-05 -2.33248e-06
8.62454e-07 -2.33248e-06 -2.71876e-05
0.00159731 -0.00028658 1.75648e-06
-0.00028658 2.15936e-05 9.2323e-07
1.75648e-06 9.2323e-07 -0.000106551
0.000803457 -0.000121835 -5.14421e-06
-0.000121835 3.6064e-05 -3.54259e-06
-5.14421e-06 -3.54259e-06 -0.000125392
0.0026484 -0.00036053 -3.06766e-06
-0.00036053 0.000847183 2.61976e-06
-3.06766e-06 2.61976e-06 0.000594169
0.000527621 5.07491e-05 -1.34448e-06
5.07491e-05 -6.901e-05 -2.37312e-06
-1.34448e-06 -2.37312e-06 -0.000135313
0.000749039 -4.37077e-05 1.45216e-06
-4.37077e-05 5.33809e-05 -1.55826e-06
1.45216e-06 -1.55826e-06 -1.51356e-05
0.000962086 -5.64677e-05 1.04513e-06
-5.64677e-05 0.000191919 -1.54164e-07
1.04513e-06 -1.54164e-07 0.000103637
0.00054018 1.37396e-05 -6.0526e-08
1.37396e-05 -3.91567e-05 -7.16485e-07
-6.0526e-08 -7.16485e-07 -0.000141583
0.00104388 -3.85443e-05 6.18235e-07
-3.85443e-05 0.0002306 -3.89002e-07
6.18235e-07 -3.89002e-07 0.000129998
0.000616338 -3.94408e-05 1.32331e-06
-3.94408e-05 -1.33856e-05 8.35997e-08
1.32331e-06 8.35997e-08 -0.000130111
0.000424575 -7.72564e-05 4.68281e-06
-7.72564e-05 -3.80078e-05 1.29056e-06
4.68281e-06 1.29056e-06 -0.000211764
0.000632177 -0.000161418 -1.38589e-05
-0.000161418 -7.33544e-05 4.69952e-06
-1.38589e-05 4.69952e-06 -0.000185877
0.000618217 4.60639e-06 -3.59381e-08
4.60639e-06 -9.84744e-06 1.14884e-07
-3.59381e-08 1.14884e-07 -9.24503e-05
0.000793233 7.19269e-05 -2.25886e-06
7.19269e-05 0.000103538 -2.73751e-06
-2.25886e-06 -2.73751e-06 -8.44789e-06
0.00201321 0.000170149 -1.29683e-06
0.000170149 0.000161988 -3.19303e-07
-1.29683e-06 -3.19303e-07 8.83205e-05
0.00165908 0.000219274 -1.08674e-07
0.000219274 4.97933e-05 2.16392e-06
-1.08674e-07 2.16392e-06 -6.50323e-05
0.00138616 0.000120993 -3.55124e-06
0.000120993 0.000413714 -1.34667e-06
-3.55124e-06 -1.34667e-06 0.000273679
0.00100116 0.000161748 -1.22979e-06
0.000161748 0.000208126 -5.63977e-06
-1.22979e-06 -5.63977e-06 1.5611e-05
0.00157681 0.000259682 1.23095e-06
0.000259682 9.46812e-05 9.05481e-07
1.23095e-06 9.05481e-07 -7.2196e-05
0.00185636 0.000265808 -4.43306e-07
0.000265808 0.000477871 -3.39783e-07
-4.43306e-07 -3.39783e-07 0.000249522
0.000751468 1.67661e-05 7.15852e-07
1.67661e-05 6.99759e-05 -6.50042e-07
7.15852e-07 -6.50042e-07 -1.76419e-05
0.00186787 0.000131646 -4.79545e-07
0.000131646 3.45041e-05 -1.64935e-07
-4.79545e-07 -1.64935e-07 -1.10143e-05
0.000950909 0.000112312 5.21786e-07
0.000112312 0.000205551 1.63311e-06
5.21786e-07 1.63311e-06 7.09791e-05
0.000794272 0.000154221 5.64149e-07
0.000154221 6.56372e-05 -4.75432e-08
5.64149e-07 -4.75432e-08 -0.000132586
0.00207551 0.000210422 2.55123e-06
0.000210422 0.000171751 -1.31361e-07
2.55123e-06 -1.31361e-07 9.27342e-05
0.00168094 0.0002882 -4.36105e-07
0.0002882 6.26356e-05 -1.20684e-06
-4.36105e-07 -1.20684e-06 -9.1211e-05
0.00209023 0.000305512 8.59973e-07
0.000305512 0.000520312 9.15876e-07
8.59973e-07 9.15876e-07 0.000292898
0.00114931 5.1351e-05 -2.52872e-06
5.1351e-05 0.000306538 1.47421e-06
-2.52872e-06 1.47421e-06 0.00019533
0.00230453 0.000148851 -1.93516e-05
0.000148851 0.000294458 -2.57466e-06
-1.93516e-05 -2.57466e-06 0.000269802
0.00220401 0.000233743 -3.84852e-06
0.000233743 0.00087614 -3.10402e-07
-3.84852e-06 -3.10402e-07 0.000713427
0.00265447 0.000310439 -6.07792e-06
0.000310439 0.00101234 1.81642e-06
-6.07792e-06 1.81642e-06 0.000795837
0.001789 0.000294962 -6.39284e-06
0.000294962 2.568e-05 -5.53122e-06
-6.39284e-06 -5.53122e-06 -7.31694e-05
0.00144954 0.000283963 -6.98028e-06
0.000283963 0.000104227 -1.09092e-07
-6.98028e-06 -1.09092e-07 -9.80397e-05
0.000334206 0.000152389 1.17967e-05
0.000152389 -0.000520477 -2.91606e-06
1.17967e-05 -2.91606e-06 -0.000707334
0.000750875 3.06113e-06 2.16592e-07
3.06113e-06 6.31493e-05 3.89566e-08
2.16592e-07 3.89566e-08 -1.49919e-05
0.000816574 -1.51742e-05 -3.13559e-07
-1.51742e-05 0.000106498 1.95482e-07
-3.13559e-07 1.95482e-07 2.33492e-05
0.00103478 -1.0235e-06 1.41247e-07
-1.0235e-06 0.000216611 -1.05056e-06
1.41247e-07 -1.05056e-06 0.00012929
0.000730381 -5.10527e-05 -2.63092e-07
-5.10527e-05 3.78506e-05 -1.03532e-06
-2.63092e-07 -1.03532e-06 -2.79587e-05
0.000693453 -4.79809e-05 -1.22711e-06
-4.79809e-05 2.49779e-05 3.75719e-07
-1.22711e-06 3.75719e-07 -5.18142e-05
0.000874227 7.77875e-05 -6.40858e-07
7.77875e-05 0.000136372 6.94593e-07
-6.40858e-07 6.94593e-07 4.92691e-05
0.000653751 -4.72187e-05 -3.78449e-07
-4.72187e-05 7.1264e-06 3.57384e-07
-3.78449e-07 3.57384e-07 -7.53029e-05
0.000737512 -2.52424e-05 -2.17656e-08
-2.52424e-05 4.1442e-05 -9.2444e-09
-2.17656e-08 -9.2444e-09 -2.56085e-05
0.000713099 1.53736e-05 -2.10516e-08
1.53736e-05 2.86285e-05 -1.77838e-07
-2.10516e-08 -1.77838e-07 -4.91193e-05
0.000796381 -2.16804e-05 2.42475e-08
-2.16804e-05 7.36889e-05 -4.84806e-07
2.42475e-08 -4.84806e-07 -7.31946e-06
0.000836344 -7.55836e-06 1.46194e-07
-7.55836e-06 0.000102808 -2.18244e-08
1.46194e-07 -2.18244e-08 2.06025e-05
0.00084101 -3.57038e-05 3.16818e-08
-3.57038e-05 0.000103353 -1.14228e-08
3.16818e-08 -1.14228e-08 2.1292e-05
0.000842618 -2.48689e-05 -7.31598e-08
-2.48689e-05 9.18709e-05 -9.90702e-07
-7.31598e-08 -9.90702e-07 1.20685e-05
0.000835837 3.27262e-06 1.16202e-07
3.27262e-06 9.29147e-05 -1.24378e-06
1.16202e-07 -1.24378e-06 9.44898e-06
0.000839734 3.0632e-05 4.62459e-07
3.0632e-05 9.67843e-05 -2.53191e-07
4.62459e-07 -2.53191e-07 1.66193e-05
0.000755876 2.88171e-05 2.75702e-07
2.88171e-05 5.87341e-05 2.36283e-07
2.75702e-07 2.36283e-07 -2.90303e-05
0.000630304 -1.34835e-05 -4.20225e-08
-1.34835e-05 -2.87397e-05 1.24087e-06
-4.20225e-08 1.24087e-06 -9.29523e-05
0.000894572 -8.62376e-06 2.96945e-07
-8.62376e-06 0.000150277 -7.63827e-07
2.96945e-07 -7.63827e-07 6.13048e-05
0.000605907 5.10697e-07 -6.73936e-07
5.10697e-07 -3.75316e-05 1.23069e-06
-6.73936e-07 1.23069e-06 -0.000104413
0.000693253 1.00636e-05 -2.24095e-07
1.00636e-05 -8.58425e-07 1.5625e-06
-2.24095e-07 1.5625e-06 -4.16988e-05
0.000695068 7.05008e-06 1.89925e-07
7.05008e-06 -5.74552e-07 1.17851e-08
1.89925e-07 1.17851e-08 -4.08376e-05
0.000657789 1.20649e-06 1.30976e-07
1.20649e-06 -4.11258e-05 3.45995e-06
1.30976e-07 3.45995e-06 -4.99694e-05
0.000707316 -4.51809e-06 -3.20716e-07
-4.51809e-06 4.25386e-06 -1.66163e-06
-3.20716e-07 -1.66163e-06 -3.54315e-05
0.000992561 -5.98995e-06 -1.62415e-06
-5.98995e-06 0.000149545 -1.50982e-06
-1.62415e-06 -1.50982e-06 0.000142872
0.00221928 -1.03872e-05 6.90858e-06
-1.03872e-05 0.000850769 4.72186e-06
6.90858e-06 4.72186e-06 0.000869763
0.00134425 -1.40698e-05 -2.98387e-06
-1.40698e-05 0.000351317 -4.97118e-06
-2.98387e-06 -4.97118e-06 0.000346491
0.000889263 -1.43931e-05 2.08975e-06
-1.43931e-05 9.54389e-05 2.89743e-06
2.08975e-06 2.89743e-06 0.000107342
0.0008344 -2.03775e-05 -8.62627e-07
-2.03775e-05 6.75704e-05 -1.83944e-06
-8.62627e-07 -1.83944e-06 7.92098e-05
0.000698303 1.2096e-05 -1.88686e-07
1.2096e-05 2.2455e-06 -1.92349e-06
-1.88686e-07 -1.92349e-06 -3.33999e-05
0.000717325 2.60658e-06 1.70997e-07
2.60658e-06 1.25442e-05 -3.064e-09
1.70997e-07 -3.064e-09 -2.52959e-05
0.00066523 1.91085e-05 3.22861e-07
1.91085e-05 -3.16029e-05 -3.59221e-06
3.22861e-07 -3.59221e-06 -3.94592e-05
0.000984537 2.96952e-05 -4.98314e-07
2.96952e-05 0.000154383 3.47881e-08
-4.98314e-07 3.47881e-08 0.000145596
0.00218794 4.16528e-05 1.67903e-05
4.16528e-05 0.000844568 -4.32474e-06
1.67903e-05 -4.32474e-06 0.000861047
0.000659709 3.29892e-05 -6.49017e-07
3.29892e-05 -2.45913e-05 4.0201e-06
-6.49017e-07 4.0201e-06 -3.84378e-05
0.00229262 5.39716e-05 -2.44501e-06
5.39716e-05 0.000911112 -1.284e-07
-2.44501e-06 -1.284e-07 0.000924848
0.00244853 6.61132e-05 -2.85874e-05
6.61132e-05 0.00100742 4.00789e-06
-2.85874e-05 4.00789e-06 0.00101807
0.00173026 0.000132218 -1.74485e-06
0.000132218 1.51239e-05 -1.83536e-07
-1.74485e-06 -1.83536e-07 -6.00338e-05
0.00182553 6.59268e-05 8.65971e-07
6.59268e-05 8.48208e-05 -8.8527e-07
8.65971e-07 -8.8527e-07 1.0178e-05
0.00178267 1.53277e-06 -4.26032e-07
1.53277e-06 0.000108343 -2.37484e-07
-4.26032e-07 -2.37484e-07 1.6446e-05
0.00177612 1.13537e-05 3.13513e-07
1.13537e-05 5.05516e-05 2.18152e-07
3.13513e-07 2.18152e-07 -2.44469e-05
0.0018313 8.9831e-05 -5.96119e-07
8.9831e-05 4.7405e-05 -2.16301e-07
-5.96119e-07 -2.16301e-07 -1.0151e-05
0.00182622 5.89986e-05 1.92752e-06
5.89986e-05 2.84765e-05 1.14764e-06
1.92752e-06 1.14764e-06 1.17329e-05
0.00177142 1.65293e-05 3.59981e-07
1.65293e-05 -2.89284e-08 2.20665e-07
3.59981e-07 2.20665e-07 -3.80832e-05
0.00297035 0.000121919 1.70173e-05
0.000121919 0.000317708 6.49402e-09
1.70173e-05 6.49402e-09 0.000282515
0.00182275 3.7888e-05 -1.78237e-05
3.7888e-05 0.000109935 -3.3614e-06
-1.78237e-05 -3.3614e-06 0.000113041
0.000739496 5.12347e-05 -6.05718e-07
5.12347e-05 4.73739e-05 -1.27925e-06
-6.05718e-07 -1.27925e-06 -1.2418e-05
0.0018966 -6.12153e-05 1.2026e-06
-6.12153e-05 0.000123386 1.8675e-07
1.2026e-06 1.8675e-07 4.86025e-05
0.00191918 -0.000129162 9.54959e-07
-0.000129162 0.000149954 7.2021e-08
9.54959e-07 7.2021e-08 8.38805e-05
0.00149296 -0.000147183 4.81926e-07
-0.000147183 -0.000100521 7.42939e-07
4.81926e-07 7.42939e-07 -0.000175368
0.000738024 -0.000149981 2.32258e-06
-0.000149981 3.63553e-05 5.48633e-06
2.32258e-06 5.48633e-06 -0.000121766
0.00128912 -0.000231422 1.99917e-06
-0.000231422 0.000194663 5.5634e-06
1.99917e-06 5.5634e-06 -4.84931e-05
0.00123219 -0.000246513 -1.28337e-06
-0.000246513 -6.17469e-05 -4.37302e-06
-1.28337e-06 -4.37302e-06 -0.000241282
0.00155301 -0.000245594 -5.4336e-06
-0.000245594 -3.09029e-05 -2.35725e-06
-5.4336e-06 -2.35725e-06 -0.000139671
0.00135964 -0.000170838 9.50456e-06
-0.000170838 0.0003032 -3.37683e-06
9.50456e-06 -3.37683e-06 0.000175557
0.000516266 -0.000126595 6.05208e-06
-0.000126595 -7.06316e-05 -9.18205e-06
6.05208e-06 -9.18205e-06 -0.000183225
0.000788155 -9.03804e-05 3.45835e-08
-9.03804e-05 9.24013e-05 -1.80645e-06
3.45835e-08 -1.80645e-06 -3.38293e-05
0.000711359 -1.84569e-06 -1.26505e-06
-1.84569e-06 1.0844e-05 2.13336e-06
-1.26505e-06 2.13336e-06 -2.99601e-05
0.000844415 -1.55131e-05 -2.03943e-08
-1.55131e-05 0.000121784 -1.77405e-07
-2.03943e-08 -1.77405e-07 1.36893e-05
0.00104201 -5.57222e-05 -3.66834e-08
-5.57222e-05 0.000229456 7.68285e-07
-3.66834e-08 7.68285e-07 0.000151925
0.000772544 -2.05078e-05 -1.20097e-06
-2.05078e-05 8.54669e-05 1.01885e-06
-1.20097e-06 1.01885e-06 -1.44132e-05
0.000545606 -1.48202e-05 -6.82303e-07
-1.48202e-05 -6.68148e-05 1.50879e-06
-6.82303e-07 1.50879e-06 -0.000130089
0.00192501 -8.23519e-05 -8.31124e-07
-8.23519e-05 7.74623e-05 -1.94375e-07
-8.31124e-07 -1.94375e-07 2.55523e-05
0.000627189 2.6989e-05 7.41028e-08
2.6989e-05 -1.08774e-05 -8.84778e-07
7.41028e-08 -8.84778e-07 -7.7147e-05
0.000755429 -5.21779e-05 -9.07002e-08
-5.21779e-05 6.26693e-05 1.55885e-07
-9.07002e-08 1.55885e-07 -9.90051e-06
0.000825456 -2.9711e-05 -5.34844e-07
-2.9711e-05 0.000116237 7.80994e-07
-5.34844e-07 7.80994e-07 2.51271e-05
0.00177941 -0.000130986 7.54405e-07
-0.000130986 2.04287e-05 -4.64128e-07
7.54405e-07 -4.64128e-07 -3.16299e-05
0.00185464 -0.00024608 -1.20355e-06
-0.00024608 3.83879e-05 -2.88004e-07
-1.20355e-06 -2.88004e-07 -3.37195e-05
0.000907973 -0.000144859 2.41423e-06
-0.000144859 8.09881e-05 -2.78649e-08
2.41423e-06 -2.78649e-08 -7.40377e-05
0.0014073 -0.000271203 2.58672e-06
-0.000271203 0.000204801 -2.4549e-07
2.58672e-06 -2.4549e-07 -4.68198e-05
0.00171551 -0.000299551 2.11641e-07
-0.000299551 9.08504e-05 5.12295e-07
2.11641e-07 5.12295e-07 -4.19616e-05
0.000672692 -8.29335e-06 -2.49278e-07
-8.29335e-06 3.47442e-05 2.9732e-08
-2.49278e-07 2.9732e-08 -6.69587e-05
0.000896232 -5.32325e-05 -3.92629e-07
-5.32325e-05 0.000152916 1.83347e-07
-3.92629e-07 1.83347e-07 4.7537e-05
0.000575708 -0.000157663 -5.80668e-06
-0.000157663 -8.80221e-05 1.22561e-06
-5.80668e-06 1.22561e-06 -0.000216034
0.000776879 -8.11753e-05 5.55935e-07
-8.11753e-05 0.000139991 -2.61391e-07
5.55935e-07 -2.61391e-07 -2.09885e-05
0.000730266 -6.31485e-05 -4.2106e-07
-6.31485e-05 5.0095e-05 1.59264e-07
-4.2106e-07 1.59264e-07 -6.78278e-05
0.00209567 -0.00015301 -6.6515e-06
-0.00015301 0.00013364 3.96439e-07
-6.6515e-06 3.96439e-07 0.00010024
0.00185224 -0.000155899 -1.37236e-06
-0.000155899 3.07047e-05 1.29134e-06
-1.37236e-06 1.29134e-06 -1.0977e-05
0.00216469 -0.000337112 -1.33984e-06
-0.000337112 0.000207453 -9.15351e-07
-1.33984e-06 -9.15351e-07 0.00010915
0.00248096 -0.00036771 -1.4215e-05
-0.00036771 0.000649027 1.79624e-06
-1.4215e-05 1.79624e-06 0.000462123
0.00089513 -0.000148189 -7.00493e-06
-0.000148189 0.000113314 -2.49445e-06
-7.00493e-06 -2.49445e-06 -7.61223e-05
0.000515293 1.81189e-05 7.83856e-07
1.81189e-05 -6.26481e-05 -1.68775e-06
7.83856e-07 -1.68775e-06 -0.000149506
0.000531997 4.84088e-05 2.12071e-07
4.84088e-05 -5.16135e-05 -1.00874e-06
2.12071e-07 -1.00874e-06 -0.000146232
0.000803554 1.17863e-05 8.16287e-07
1.17863e-05 0.000111737 -9.87948e-08
8.16287e-07 -9.87948e-08 9.34323e-06
0.000957483 -9.42336e-05 1.65513e-06
-9.42336e-05 0.0001987 -1.75908e-07
1.65513e-06 -1.75908e-07 8.58436e-05
0.000686492 -3.16046e-05 9.11553e-07
-3.16046e-05 2.56329e-05 4.6545e-07
9.11553e-07 4.6545e-07 -7.79059e-05
0.000543076 -3.40061e-05 2.43219e-06
-3.40061e-05 -9.09278e-06 -6.78219e-08
2.43219e-06 -6.78219e-08 -0.000156064
0.000836217 -0.000151344 7.63883e-06
-0.000151344 0.000191152 1.26279e-06
7.63883e-06 1.26279e-06 -1.92986e-05
0.000729194 5.31243e-05 8.65534e-07
5.31243e-05 6.57072e-05 -2.13867e-06
8.65534e-07 -2.13867e-06 -2.80928e-05
0.000582998 6.09888e-05 1.36973e-06
6.09888e-05 -4.22912e-06 -4.03535e-08
1.36973e-06 -4.03535e-08 -0.000128768
0.00188999 0.000126942 2.20805e-06
0.000126942 4.44988e-05 -6.04285e-07
2.20805e-06 -6.04285e-07 1.83393e-06
0.00165326 0.000196386 4.32102e-06
0.000196386 -5.76617e-05 -1.15555e-07
4.32102e-06 -1.15555e-07 -0.000136516
0.00195795 0.000299842 5.21302e-06
0.000299842 0.000210687 1.10773e-06
5.21302e-06 1.10773e-06 5.92069e-05
0.000477537 0.000132253 1.90421e-06
0.000132253 -0.000110781 -1.30891e-06
1.90421e-06 -1.30891e-06 -0.000307933
0.00215864 0.0003126 3.69193e-06
0.0003126 0.000569031 1.07916e-06
3.69193e-06 1.07916e-06 0.000341403
0.00105647 4.16539e-05 -2.39576e-07
4.16539e-05 0.0002502 4.85566e-07
-2.39576e-07 4.85566e-07 0.00014621
0.00195141 0.00013237 -1.76107e-06
0.00013237 0.000103912 -1.18629e-07
-1.76107e-06 -1.18629e-07 8.52989e-05
0.00134487 0.000168645 -1.13373e-06
0.000168645 0.000403436 -4.5685e-07
-1.13373e-06 -4.5685e-07 0.000251987
0.00173886 0.000242782 -8.54415e-07
0.000242782 0.00053761 1.48075e-06
-8.54415e-07 1.48075e-06 0.000318321
0.00193503 0.000292982 4.77566e-07
0.000292982 0.000105456 -1.72698e-06
4.77566e-07 -1.72698e-06 8.86388e-06
0.00150576 0.000292678 -9.10425e-07
0.000292678 0.00013174 2.09269e-06
-9.10425e-07 2.09269e-06 -7.58832e-05
0.00134455 0.000189365 1.88914e-05
0.000189365 -0.000223115 1.10366e-06
1.88914e-05 1.10366e-06 -0.000460204
0.00113896 8.40631e-05 -2.78881e-06
8.40631e-05 0.000296733 -1.4541e-06
-2.78881e-06 -1.4541e-06 0.000177809
0.0024223 0.000213332 -2.68076e-05
0.000213332 0.000377413 -1.27287e-05
-2.68076e-05 -1.27287e-05 0.000378278
0.00135751 0.000197066 -5.84842e-06
0.000197066 0.000404003 -1.52049e-06
-5.84842e-06 -1.52049e-06 0.000238125
0.00123878 0.000234951 -5.48681e-06
0.000234951 0.000181203 -2.99882e-07
-5.48681e-06 -2.99882e-07 -4.87923e-05
0.000541095 0.000307337 -9.09456e-06
0.000307337 -0.000516156 -4.09197e-06
-9.09456e-06 -4.09197e-06 -0.000686854
0.00847323 0.000131225 -0.000106598
0.000131225 0.00249788 -4.48099e-05
-0.000106598 -4.48099e-05 0.00157087
0.00418977 0.000387054 0.000102965
0.000387054 0.000646553 -4.71179e-06
0.000102965 -4.71179e-06 -1.42419e-05
0.000652074 0.000285985 1.2649e-05
0.000285985 -0.000348802 1.74202e-05
1.2649e-05 1.74202e-05 -0.000476927
-0.00409434 -0.000376253 0.00011807
-0.000376253 -0.00151788 -1.26279e-05
0.00011807 -1.26279e-05 -0.00196248
0.00422726 -0.000993096 -2.00848e-05
-0.000993096 0.000580333 -6.32952e-06
-2.00848e-05 -6.32952e-06 0.00208384
0.000780795 -8.34759e-06 6.73212e-07
-8.34759e-06 8.75777e-05 -2.30576e-07
6.73212e-07 -2.30576e-07 4.09319e-06
0.000916889 -1.76683e-05 9.65261e-07
-1.76683e-05 0.000157443 -3.37262e-07
9.65261e-07 -3.37262e-07 7.04443e-05
0.000918746 3.53505e-05 -9.83496e-07
3.53505e-05 0.000153969 -2.15438e-06
-9.83496e-07 -2.15438e-06 6.6408e-05
0.000723589 -5.48362e-05 1.05268e-07
-5.48362e-05 3.88935e-05 -9.42616e-07
1.05268e-07 -9.42616e-07 -3.15998e-05
0.000685678 4.92527e-05 -1.01672e-06
4.92527e-05 1.5276e-05 -2.49255e-07
-1.01672e-06 -2.49255e-07 -6.43548e-05
0.000832126 -3.86553e-05 -1.45486e-07
-3.86553e-05 0.000100979 1.0389e-07
-1.45486e-07 1.0389e-07 1.85672e-05
0.000896499 -1.09559e-05 -1.15469e-06
-1.09559e-05 0.000131881 8.43033e-07
-1.15469e-06 8.43033e-07 5.10809e-05
0.000805968 -3.24777e-05 -2.39246e-07
-3.24777e-05 7.99657e-05 -2.24277e-07
-2.39246e-07 -2.24277e-07 -2.72591e-06
0.000788535 4.86916e-05 -8.52431e-07
4.86916e-05 7.54982e-05 -2.87751e-07
-8.52431e-07 -2.87751e-07 -1.06254e-05
0.000673072 -5.8414e-06 -5.95107e-08
-5.8414e-06 1.41209e-07 5.77287e-07
-5.95107e-08 5.77287e-07 -6.60235e-05
0.000765747 2.21676e-05 -1.62904e-07
2.21676e-05 6.26596e-05 -2.00723e-08
-1.62904e-07 -2.00723e-08 -2.3559e-05
0.000837687 -2.22343e-05 1.29281e-07
-2.22343e-05 8.86703e-05 5.62704e-07
1.29281e-07 5.62704e-07 9.07991e-06
0.000846558 3.28843e-06 -3.22561e-07
3.28843e-06 9.82045e-05 -1.85106e-07
-3.22561e-07 -1.85106e-07 1.61225e-05
0.000844809 3.81e-05 -1.34126e-07
3.81e-05 9.50025e-05 -9.13789e-07
-1.34126e-07 -9.13789e-07 1.26693e-05
0.000680164 4.75791e-06 5.95135e-07
4.75791e-06 -4.1579e-07 -1.86092e-06
5.95135e-07 -1.86092e-06 -7.73698e-05
0.000867999 4.17309e-05 1.36511e-06
4.17309e-05 0.000107772 8.42365e-09
1.36511e-06 8.42365e-09 2.37153e-05
0.000702966 -4.14302e-06 1.07098e-06
-4.14302e-06 1.64536e-05 -2.54704e-07
1.07098e-06 -2.54704e-07 -6.6563e-05
0.000617385 -4.60085e-05 -1.23363e-06
-4.60085e-05 -3.01888e-05 1.24868e-06
-1.23363e-06 1.24868e-06 -9.87383e-05
0.000848065 1.32301e-05 -5.29578e-07
1.32301e-05 0.000107924 -2.61905e-07
-5.29578e-07 -2.61905e-07 2.33322e-05
0.000874555 5.51146e-05 1.59027e-07
5.51146e-05 0.000122669 -1.42535e-06
1.59027e-07 -1.42535e-06 3.72319e-05
0.000733271 2.30027e-06 -7.25536e-07
2.30027e-06 5.39716e-05 -3.2535e-07
-7.25536e-07 -3.2535e-07 -2.7945e-05
0.000840716 4.89461e-06 7.93952e-07
4.89461e-06 0.000110391 -4.25103e-07
7.93952e-07 -4.25103e-07 2.65595e-05
0.000742998 -4.57095e-05 -1.60095e-06
-4.57095e-05 4.10408e-05 6.0354e-07
-1.60095e-06 6.0354e-07 -2.38886e-05
0.000613511 3.07471e-06 1.18517e-07
3.07471e-06 -3.06034e-05 6.02369e-07
1.18517e-07 6.02369e-07 -9.94661e-05
0.000704352 1.0395e-05 -4.94972e-07
1.0395e-05 4.00098e-06 1.63883e-06
-4.94972e-07 1.63883e-06 -3.69571e-05
0.00069333 -5.79302e-07 1.3268e-07
-5.79302e-07 -1.20898e-06 -1.33424e-08
1.3268e-07 -1.33424e-08 -4.18135e-05
0.00067948 7.18573e-06 -3.8184e-07
7.18573e-06 -2.74028e-05 4.98631e-06
-3.8184e-07 4.98631e-06 -3.68631e-05
0.000693858 4.16035e-07 8.98477e-08
4.16035e-07 -1.38795e-06 -1.57964e-06
8.98477e-08 -1.57964e-06 -4.15204e-05
0.000664064 1.43725e-06 2.52171e-07
1.43725e-06 -3.7548e-05 -6.09417e-09
2.52171e-07 -6.09417e-09 -4.64262e-05
0.00222962 -1.08802e-06 1.36768e-07
-1.08802e-06 0.00085605 4.79724e-06
1.36768e-07 4.79724e-06 0.000874986
0.000689103 -4.42912e-06 -4.83196e-07
-4.42912e-06 -2.29206e-05 -5.00534e-06
-4.83196e-07 -5.00534e-06 -3.16241e-05
0.00155334 -8.13084e-06 -3.25406e-07
-8.13084e-06 0.000471315 4.4406e-08
-3.25406e-07 4.4406e-08 0.000486746
0.000838051 -1.31879e-05 -3.32185e-07
-1.31879e-05 6.56258e-05 -1.83246e-06
-3.32185e-07 -1.83246e-06 7.78751e-05
0.000701418 1.18793e-05 -2.58881e-07
1.18793e-05 4.0068e-06 -1.84747e-06
-2.58881e-07 -1.84747e-06 -3.01283e-05
0.000708841 1.51916e-06 1.76116e-07
1.51916e-06 8.00495e-06 3.59757e-08
1.76116e-07 3.59757e-08 -2.77039e-05
0.000673535 1.29263e-05 1.09916e-07
1.29263e-05 -3.0311e-05 -3.49692e-06
1.09916e-07 -3.49692e-06 -3.63127e-05
0.000713713 -4.98897e-06 -1.20637e-06
-4.98897e-06 1.04317e-05 2.00715e-06
-1.20637e-06 2.00715e-06 -2.74848e-05
0.000969138 2.19203e-05 -1.96393e-07
2.19203e-05 0.000140948 -7.31686e-07
-1.96393e-07 -7.31686e-07 0.00013492
0.00212344 3.06501e-05 1.27458e-05
3.06501e-05 0.000802877 -4.44469e-06
1.27458e-05 -4.44469e-06 0.000821267
0.000662039 2.65574e-05 -4.99165e-07
2.65574e-05 -2.8735e-05 3.81899e-06
-4.99165e-07 3.81899e-06 -3.96197e-05
0.00225594 4.22364e-05 -7.60766e-06
4.22364e-05 0.000884738 1.19936e-06
-7.60766e-06 1.19936e-06 0.000900662
0.00232589 5.49707e-05 -2.25278e-05
5.49707e-05 0.000930797 4.21857e-06
-2.25278e-05 4.21857e-06 0.000944164
0.0017212 8.75118e-05 -1.17533e-06
8.75118e-05 -8.54219e-06 -5.68346e-07
-1.17533e-06 -5.68346e-07 -6.75017e-05
0.00172944 1.28889e-05 7.13088e-07
1.28889e-05 2.4183e-05 -2.85337e-07
7.13088e-07 -2.85337e-07 -5.095e-05
0.00171966 5.92069e-05 6.51761e-06
5.92069e-05 -3.26645e-05 -2.36382e-07
6.51761e-06 -2.36382e-07 -5.56899e-05
0.00208308 8.96232e-05 1.91706e-05
8.96232e-05 -7.59777e-05 3.52875e-06
1.91706e-05 3.52875e-06 -0.000134927
0.00179001 1.27847e-05 -2.03911e-06
1.27847e-05 8.01448e-06 -2.41733e-07
-2.03911e-06 -2.41733e-07 -3.00726e-05
0.00184445 4.31458e-05 3.30115e-06
4.31458e-05 0.000127203 1.11412e-06
3.30115e-06 1.11412e-06 0.000126757
0.0025913 -2.49663e-06 -1.52692e-05
-2.49663e-06 0.000531652 -2.53152e-07
-1.52692e-05 -2.53152e-07 0.000495045
0.00287639 1.83834e-05 0.00013848
1.83834e-05 7.50298e-05 -1.06358e-05
0.00013848 -1.06358e-05 -0.000207874
0.00208671 1.15062e-06 -1.29595e-05
1.15062e-06 6.68169e-05 -4.73538e-06
-1.29595e-05 -4.73538e-06 6.24228e-06
0.000743519 5.15505e-05 -5.57334e-07
5.15505e-05 5.20009e-05 -1.25557e-06
-5.57334e-07 -1.25557e-06 -8.61243e-06
0.000748335 -1.03371e-05 6.70943e-07
-1.03371e-05 5.68966e-05 -5.45632e-08
6.70943e-07 -5.45632e-08 -6.34022e-06
0.000714021 -6.37016e-05 3.46338e-08
-6.37016e-05 4.44497e-05 -6.38986e-07
3.46338e-08 -6.38986e-07 -3.30025e-05
0.000734412 -2.38598e-05 -1.17599e-06
-2.38598e-05 6.55995e-05 -3.87412e-07
-1.17599e-06 -3.87412e-07 -1.81102e-05
0.00191076 -8.99434e-05 1.31519e-06
-8.99434e-05 5.99479e-05 2.21144e-07
1.31519e-06 2.21144e-07 1.18223e-05
0.00177627 -0.00014015 -2.63127e-06
-0.00014015 8.96823e-06 4.63871e-07
-2.63127e-06 4.63871e-07 -4.34564e-05
0.00181488 -0.000242398 -6.29769e-06
-0.000242398 3.02902e-05 1.18297e-06
-6.29769e-06 1.18297e-06 -4.81903e-05
0.00121361 -0.00019635 3.31091e-06
-0.00019635 0.000240341 3.16164e-06
3.31091e-06 3.16164e-06 8.67677e-05
1.51849e-05 -0.000171158 5.31981e-06
-0.000171158 -0.000523451 -1.0915e-06
5.31981e-06 -1.0915e-06 -0.000770747
0.00189969 -0.000316808 8.88354e-07
-0.000316808 0.000197646 -2.76131e-06
8.88354e-07 -2.76131e-06 6.00076e-05
0.000542209 -0.000143454 -6.24436e-06
-0.000143454 -9.32935e-05 3.7412e-07
-6.24436e-06 3.7412e-07 -0.000234344
0.00118273 -8.53436e-05 -9.03841e-07
-8.53436e-05 0.00034576 -1.87947e-06
-9.03841e-07 -1.87947e-06 0.000198436
0.00078856 -8.73176e-05 -2.0828e-06
-8.73176e-05 8.22469e-05 9.82385e-07
-2.0828e-06 9.82385e-07 -3.59202e-05
0.000763267 -2.52296e-05 -9.36329e-07
-2.52296e-05 6.27807e-05 1.71394e-06
-9.36329e-07 1.71394e-06 -6.93781e-06
0.000746095 -6.53273e-05 -1.01106e-06
-6.53273e-05 7.51772e-05 2.72397e-07
-1.01106e-06 2.72397e-07 -3.6052e-05
0.000800981 -1.30169e-05 -1.21548e-06
-1.30169e-05 0.000104273 1.10072e-06
-1.21548e-06 1.10072e-06 4.9656e-06
0.000740646 9.61533e-07 1.57277e-07
9.61533e-07 5.61928e-05 7.70884e-07
1.57277e-07 7.70884e-07 -1.08315e-05
0.000683501 1.69009e-05 -6.55756e-07
1.69009e-05 3.8424e-05 2.21274e-06
-6.55756e-07 2.21274e-06 -5.58704e-05
0.00200946 -0.000135223 7.77858e-07
-0.000135223 0.000113622 4.02779e-07
7.77858e-07 4.02779e-07 7.7407e-05
0.000741748 5.4856e-06 7.09076e-07
5.4856e-06 6.85812e-05 -5.58542e-07
7.09076e-07 -5.58542e-07 -1.86044e-05
0.000680559 1.13625e-05 7.30767e-07
1.13625e-05 3.47857e-05 -1.61621e-07
7.30767e-07 -1.61621e-07 -6.10641e-05
0.00072103 6.30313e-05 -1.16208e-07
6.30313e-05 7.00391e-05 1.30629e-06
-1.16208e-07 1.30629e-06 -3.17469e-05
0.00193385 -0.000160209 -2.45716e-06
-0.000160209 5.73532e-05 4.63734e-07
-2.45716e-06 4.63734e-07 1.23414e-05
0.00193548 -0.000319461 1.20625e-06
-0.000319461 9.18489e-05 -5.18198e-07
1.20625e-06 -5.18198e-07 -1.14335e-06
0.00108135 -0.000198477 -8.19505e-07
-0.000198477 0.000198861 -2.87944e-07
-8.19505e-07 -2.87944e-07 6.64123e-06
0.00239739 -0.000364451 -2.2097e-06
-0.000364451 0.000600889 1.02502e-06
-2.2097e-06 1.02502e-06 0.000410588
0.000981144 -4.08594e-05 -4.48561e-07
-4.08594e-05 0.000206306 7.26664e-08
-4.48561e-07 7.26664e-08 9.69537e-05
0.00071008 -5.08989e-05 -4.72165e-07
-5.08989e-05 4.28527e-05 8.88266e-07
-4.72165e-07 8.88266e-07 -6.60999e-05
0.000886865 -0.000157665 3.18417e-06
-0.000157665 0.000212449 -8.28914e-07
3.18417e-06 -8.28914e-07 6.58612e-06
0.00100565 -9.23155e-05 8.40631e-07
-9.23155e-05 0.000248597 -5.17491e-07
8.40631e-07 -5.17491e-07 9.05868e-05
0.00220178 -0.000115176 -1.16502e-05
-0.000115176 0.000195305 4.27594e-06
-1.16502e-05 4.27594e-06 0.000152863
0.00215304 -0.000272632 -8.58556e-06
-0.000272632 0.000110825 -1.8586e-08
-8.58556e-06 -1.8586e-08 0.000118628
0.00235021 -0.000374343 -7.98052e-06
-0.000374343 0.000445557 -4.19882e-06
-7.98052e-06 -4.19882e-06 0.000296888
0.00149631 -0.000288851 -2.25071e-06
-0.000288851 0.000376403 1.00915e-06
-2.25071e-06 1.00915e-06 0.000184215
0.000688781 2.40852e-05 -4.05708e-07
2.40852e-05 5.38046e-05 -1.3797e-06
-4.05708e-07 -1.3797e-06 -5.66222e-05
0.000695815 -5.88404e-05 8.00081e-07
-5.88404e-05 5.63024e-05 -1.98174e-06
8.00081e-07 -1.98174e-06 -5.85099e-05
0.000697244 -4.87912e-05 1.03201e-06
-4.87912e-05 5.87558e-05 -1.25023e-07
1.03201e-06 -1.25023e-07 -5.74072e-05
0.00062331 -2.50964e-05 6.09219e-07
-2.50964e-05 0.000104105 5.33284e-07
6.09219e-07 5.33284e-07 -0.000133041
0.000336147 -0.000152233 2.52001e-05
-0.000152233 -0.00192381 8.99072e-07
2.52001e-05 8.99072e-07 -0.00242807
0.00102196 2.62412e-05 1.2157e-06
2.62412e-05 0.000228026 -1.6389e-06
1.2157e-06 -1.6389e-06 0.000130623
0.000478228 0.000104316 3.17403e-06
0.000104316 -7.08108e-05 1.27753e-06
3.17403e-06 1.27753e-06 -0.000211344
0.00165431 0.000120033 1.9659e-05
0.000120033 -5.6413e-05 1.97353e-06
1.9659e-05 1.97353e-06 -6.73216e-05
0.00210206 0.000292245 6.21139e-06
0.000292245 0.000195622 9.75842e-07
6.21139e-06 9.75842e-07 0.000100444
0.00145091 0.000294244 5.62349e-06
0.000294244 0.000100262 2.7904e-06
5.62349e-06 2.7904e-06 -0.000113864
0.000668296 0.000163056 4.68501e-06
0.000163056 -2.18991e-05 1.12605e-06
4.68501e-06 1.12605e-06 -0.00024369
0.00238533 0.000238449 2.5221e-05
0.000238449 0.000106271 5.12203e-06
2.5221e-05 5.12203e-06 -0.000193988
0.000997518 7.03579e-05 9.81852e-07
7.03579e-05 0.000225224 -5.5065e-07
9.81852e-07 -5.5065e-07 0.000107725
0.00230813 0.000212498 -7.46077e-06
0.000212498 0.000315574 -1.83983e-06
-7.46077e-06 -1.83983e-06 0.000324659
0.00105689 0.000174626 6.86086e-07
0.000174626 0.000244915 -3.52332e-07
6.86086e-07 -3.52332e-07 8.27975e-05
0.00115161 0.000236384 -3.93467e-07
0.000236384 0.000142452 7.48455e-08
-3.93467e-07 7.48455e-08 -8.97078e-05
0.00141622 0.000360678 -2.65396e-06
0.000360678 -8.2585e-05 -1.619e-06
-2.65396e-06 -1.619e-06 -0.000246328
0.0028783 -0.000143292 -6.82753e-05
-0.000143292 -0.000358772 -2.16075e-05
-6.82753e-05 -2.16075e-05 -0.00125142
0.00421241 0.000300648 1.8251e-06
0.000300648 0.000452421 -1.63009e-05
1.8251e-06 -1.63009e-05 -0.000299564
0.000213771 0.000221628 3.97773e-06
0.000221628 -0.000530764 6.54109e-06
3.97773e-06 6.54109e-06 -0.000676939
-0.000720098 -0.000300818 7.01668e-05
-0.000300818 0.000394107 2.39642e-05
7.01668e-05 2.39642e-05 -0.000278861
-0.000612546 -0.000982749 -2.04099e-05
-0.000982749 -0.00145459 -3.80829e-05
-2.04099e-05 -3.80829e-05 0.000228205
0.0012124 0.000129575 -3.57774e-06
0.000129575 0.000349264 -3.64449e-06
-3.57774e-06 -3.64449e-06 0.000232574
0.000439812 0.000200907 6.30312e-06
0.000200907 0.000863065 -3.16923e-05
6.30312e-06 -3.16923e-05 0.00021472
0.00119597 -0.000386864 -6.66696e-05
-0.000386864 0.00111369 -7.81984e-05
-6.66696e-05 -7.81984e-05 0.00081175
0.00264597 0.000316352 -2.40651e-05
0.000316352 0.000555158 -7.15311e-06
-2.40651e-05 -7.15311e-06 0.000568983
0.00113602 0.000117055 -1.12704e-05
0.000117055 0.000286293 -2.68875e-06
-1.12704e-05 -2.68875e-06 0.000112546
0.00115841 0.000361587 -1.7939e-05
0.000361587 7.66851e-05 -9.79609e-06
-1.7939e-05 -9.79609e-06 -0.000170402
-0.000209304 0.00027097 1.79359e-05
0.00027097 -0.000762227 5.06029e-05
1.79359e-05 5.06029e-05 -0.000804284
0.00792879 0.00016143 -4.09193e-05
0.00016143 0.00263327 -2.41215e-05
-4.09193e-05 -2.41215e-05 0.00120732
0.0037993 0.000579753 -5.84776e-06
0.000579753 0.000806611 1.23415e-05
-5.84776e-06 1.23415e-05 -0.000392653
0.000664309 -0.000807243 5.92206e-05
-0.000807243 -0.000424417 5.06108e-05
5.92206e-05 5.06108e-05 3.85673e-05
0.00174404 -0.000534111 -1.28948e-05
-0.000534111 -0.00167314 7.87748e-05
-1.28948e-05 7.87748e-05 -0.000346322
0.000817257 -2.43322e-05 1.45749e-06
-2.43322e-05 0.000107571 -6.43783e-07
1.45749e-06 -6.43783e-07 2.1205e-05
0.000902335 3.27835e-05 4.73064e-07
3.27835e-05 0.000147416 4.14337e-07
4.73064e-07 4.14337e-07 5.97365e-05
0.00117946 7.94201e-05 -2.20333e-06
7.94201e-05 0.000305001 -3.08211e-06
-2.20333e-06 -3.08211e-06 0.000233921
0.000727856 3.86611e-06 8.97161e-08
3.86611e-06 4.30332e-05 -9.77362e-08
8.97161e-08 -9.77362e-08 -3.00994e-05
0.000796355 2.26457e-05 -4.33617e-07
2.26457e-05 7.84472e-05 -3.93903e-07
-4.33617e-07 -3.93903e-07 -6.4022e-06
0.0006856 -2.79601e-05 -6.90672e-07
-2.79601e-05 1.06935e-05 8.03899e-08
-6.90672e-07 8.03899e-08 -6.99609e-05
0.000866877 4.90178e-06 -3.85579e-07
4.90178e-06 0.000108839 4.94858e-07
-3.85579e-07 4.94858e-07 2.78512e-05
0.000835142 -2.04995e-05 -3.33928e-07
-2.04995e-05 8.71124e-05 1.15701e-06
-3.33928e-07 1.15701e-06 7.5491e-06
0.000612856 -1.70357e-06 4.91749e-07
-1.70357e-06 -3.03223e-05 5.8682e-07
4.91749e-07 5.8682e-07 -0.000100502
0.000835747 5.08337e-06 -6.67309e-08
5.08337e-06 8.95725e-05 -1.05267e-07
-6.67309e-08 -1.05267e-07 7.54884e-06
0.000870216 4.93748e-06 4.26823e-08
4.93748e-06 0.00011079 3.01901e-07
4.26823e-08 3.01901e-07 2.64302e-05
0.000784214 1.97528e-05 5.88349e-07
1.97528e-05 7.23918e-05 -2.77417e-07
5.88349e-07 -2.77417e-07 -1.63233e-05
0.000717455 7.65563e-06 -3.83771e-08
7.65563e-06 1.96152e-05 -1.30517e-08
-3.83771e-08 -1.30517e-08 -5.65643e-05
0.000928078 2.35364e-06 3.00938e-07
2.35364e-06 0.000135018 -1.05357e-06
3.00938e-07 -1.05357e-06 5.495e-05
0.000632408 3.30697e-05 -1.41736e-06
3.30697e-05 -2.87674e-05 -5.31703e-06
-1.41736e-06 -5.31703e-06 -0.000104197
0.000850204 -6.43352e-05 1.1335e-07
-6.43352e-05 9.64267e-05 -5.99305e-07
1.1335e-07 -5.99305e-07 7.66356e-06
0.00085582 -5.12508e-05 -5.72042e-07
-5.12508e-05 0.000115737 -6.47216e-07
-5.72042e-07 -6.47216e-07 2.52402e-05
0.000854407 -1.48234e-05 -4.86224e-07
-1.48234e-05 0.000114534 -2.50725e-07
-4.86224e-07 -2.50725e-07 2.73597e-05
0.000879 3.81237e-05 -5.05935e-07
3.81237e-05 0.000119778 -2.87316e-07
-5.05935e-07 -2.87316e-07 3.75071e-05
0.00083557 1.82309e-05 -7.34945e-07
1.82309e-05 0.000104997 -1.32416e-06
-7.34945e-07 -1.32416e-06 9.69638e-06
0.000797656 4.42244e-05 5.89793e-07
4.42244e-05 8.24942e-05 -8.70212e-07
5.89793e-07 -8.70212e-07 -5.85503e-07
0.000677869 2.40841e-05 5.28675e-07
2.40841e-05 -7.4701e-07 -1.46077e-06
5.28675e-07 -1.46077e-06 -7.62847e-05
0.000692984 4.94781e-05 1.69711e-06
4.94781e-05 3.41994e-05 7.79832e-07
1.69711e-06 7.79832e-07 -5.14453e-05
0.000735842 2.2713e-07 -3.83355e-08
2.2713e-07 4.49117e-05 -2.01161e-07
-3.83355e-08 -2.01161e-07 -2.72559e-05
0.000758775 -8.82092e-06 -1.69372e-07
-8.82092e-06 6.47668e-05 7.80238e-09
-1.69372e-07 7.80238e-09 -1.49513e-05
0.000735531 -9.17083e-06 -1.22205e-06
-9.17083e-06 3.16524e-05 4.00263e-07
-1.22205e-06 4.00263e-07 -2.82589e-05
0.000779062 9.02483e-07 9.13234e-07
9.02483e-07 6.37192e-05 -1.70336e-07
9.13234e-07 -1.70336e-07 -1.33029e-05
0.000708184 -4.07739e-05 -3.05156e-08
-4.07739e-05 2.05728e-05 6.57983e-08
-3.05156e-08 6.57983e-08 -4.46484e-05
0.000720603 1.19516e-05 -9.22027e-07
1.19516e-05 1.1373e-05 1.62959e-06
-9.22027e-07 1.62959e-06 -2.94614e-05
0.000619325 2.48329e-06 6.82175e-07
2.48329e-06 -2.25749e-05 -1.33683e-07
6.82175e-07 -1.33683e-07 -9.46735e-05
0.000706324 8.00228e-06 2.24564e-07
8.00228e-06 4.92678e-06 -2.08358e-08
2.24564e-07 -2.08358e-08 -3.59837e-05
0.00135809 1.63973e-05 -2.89132e-06
1.63973e-05 0.000360873 4.89391e-06
-2.89132e-06 4.89391e-06 0.000354615
0.000693822 7.03591e-06 2.80054e-07
7.03591e-06 -1.01739e-06 -1.54998e-06
2.80054e-07 -1.54998e-06 -4.15881e-05
0.00101334 8.73087e-06 -1.50582e-06
8.73087e-06 0.000162556 7.44247e-07
-1.50582e-06 7.44247e-07 0.00015498
0.000895356 3.86972e-06 -3.36085e-06
3.86972e-06 9.72052e-05 4.66296e-06
-3.36085e-06 4.66296e-06 0.000108728
0.000670314 1.65099e-06 4.88003e-08
1.65099e-06 -3.39664e-05 -3.43781e-06
4.88003e-08 -3.43781e-06 -4.28864e-05
0.00223509 1.29783e-08 3.30145e-06
1.29783e-08 0.000859201 -1.13593e-09
3.30145e-06 -1.13593e-09 0.00087809
0.000907021 -3.77194e-06 -3.16014e-06
-3.77194e-06 0.000103535 -4.67132e-06
-3.16014e-06 -4.67132e-06 0.000115497
0.000752683 6.29286e-05 9.62833e-07
6.29286e-05 6.30192e-05 -4.9655e-07
9.62833e-07 -4.9655e-07 -2.94204e-06
0.000714026 1.01466e-05 -3.42997e-07
1.01466e-05 1.05289e-05 -1.86917e-06
-3.42997e-07 -1.86917e-06 -2.31769e-05
0.000704952 3.16996e-06 2.86124e-07
3.16996e-06 5.93976e-06 1.60667e-08
2.86124e-07 1.60667e-08 -2.82411e-05
0.000672796 6.61927e-06 -6.65352e-08
6.61927e-06 -3.26359e-05 -3.46431e-06
-6.65352e-08 -3.46431e-06 -3.76076e-05
0.000717434 -6.43302e-06 -6.88753e-07
-6.43302e-06 1.26548e-05 1.94322e-06
-6.88753e-07 1.94322e-06 -2.31229e-05
0.0006639 1.29883e-05 -5.54904e-09
1.29883e-05 -3.62467e-05 -7.4044e-07
-5.54904e-09 -7.4044e-07 -4.21228e-05
0.00209023 2.00714e-05 8.46786e-06
2.00714e-05 0.000780165 -4.55911e-06
8.46786e-06 -4.55911e-06 0.000799854
0.00128476 2.67832e-05 -9.55461e-07
2.67832e-05 0.000320722 2.15138e-06
-9.55461e-07 2.15138e-06 0.000316023
0.0015376 2.61843e-05 3.77378e-07
2.61843e-05 0.000470536 1.45209e-06
3.77378e-07 1.45209e-06 0.000485004
0.000963417 2.89629e-05 -1.68118e-05
2.89629e-05 0.000149569 7.39188e-06
-1.68118e-05 7.39188e-06 0.000158466
0.00108571 5.49498e-05 3.65334e-05
5.49498e-05 -0.000529249 1.22769e-05
3.65334e-05 1.22769e-05 -0.000619322
0.00180115 8.74977e-06 2.49161e-06
8.74977e-06 9.8825e-06 2.55192e-07
2.49161e-06 2.55192e-07 -2.70649e-05
0.0019017 4.54251e-05 2.11986e-05
4.54251e-05 0.00016673 -6.12706e-08
2.11986e-05 -6.12706e-08 0.000159795
0.00082556 3.80338e-05 1.23492e-05
3.80338e-05 -0.0007284 -5.01636e-06
1.23492e-05 -5.01636e-06 -0.00102724
0.00176981 9.54372e-06 6.17994e-06
9.54372e-06 -7.69077e-05 1.08167e-06
6.17994e-06 1.08167e-06 -0.000104303
0.00208695 -1.16125e-05 -1.57502e-06
-1.16125e-05 0.000192088 -5.10244e-07
-1.57502e-06 -5.10244e-07 0.000159721
0.00292316 -2.69394e-05 -4.86512e-05
-2.69394e-05 0.000556584 5.26757e-06
-4.86512e-05 5.26757e-06 0.000541625
0.00265531 -0.00010453 0.000143222
-0.00010453 0.00021193 -1.14205e-05
0.000143222 -1.14205e-05 -3.31367e-05
0.00764825 -0.000197381 -1.57206e-05
-0.000197381 0.00204751 1.48716e-05
-1.57206e-05 1.48716e-05 0.000974307
0.00569909 0.000885553 0.000106482
0.000885553 0.0028153 -4.29292e-05
0.000106482 -4.29292e-05 0.00298905
0.00239346 0.000866292 -6.58218e-06
0.000866292 0.00120868 1.66308e-05
-6.58218e-06 1.66308e-05 0.00223144
0.00049172 -6.41279e-05 1.65038e-06
-6.41279e-05 -7.78691e-05 -1.60333e-06
1.65038e-06 -1.60333e-06 -0.000157095
0.000744696 -8.84018e-06 8.61141e-07
-8.84018e-06 5.43733e-05 -5.53381e-08
8.61141e-07 -5.53381e-08 -7.53087e-06
0.000748395 -6.61654e-05 -1.22334e-06
-6.61654e-05 6.1662e-05 1.60563e-06
-1.22334e-06 1.60563e-06 -5.12759e-06
0.000707115 -2.58356e-05 -3.37178e-07
-2.58356e-05 4.3862e-05 8.43264e-08
-3.37178e-07 8.43264e-08 -3.69324e-05
0.000808752 5.7164e-05 2.45945e-07
5.7164e-05 0.000115841 2.90189e-07
2.45945e-07 2.90189e-07 1.68427e-05
0.000907105 0.000103283 7.93266e-07
0.000103283 0.000155313 4.53293e-07
7.93266e-07 4.53293e-07 6.24702e-05
0.000813135 -1.3405e-05 9.60772e-07
-1.3405e-05 0.000102173 -1.77789e-06
9.60772e-07 -1.77789e-06 1.99829e-05
0.000688009 -3.03772e-05 -6.05244e-07
-3.03772e-05 3.35273e-05 6.53296e-07
-6.05244e-07 6.53296e-07 -4.63682e-05
0.00197186 -0.000116551 7.36178e-06
-0.000116551 0.000118861 -4.60067e-07
7.36178e-06 -4.60067e-07 8.1528e-05
0.00202599 -0.000167505 1.45822e-06
-0.000167505 8.12068e-05 -1.15004e-06
1.45822e-06 -1.15004e-06 3.53386e-05
0.00161941 -0.000298461 -3.55507e-07
-0.000298461 -7.14773e-05 1.48423e-06
-3.55507e-07 1.48423e-06 -0.000158977
0.00109466 -0.000222172 3.05343e-06
-0.000222172 0.000187328 3.0424e-06
3.05343e-06 3.0424e-06 -3.48736e-06
0.00230333 -0.000360115 3.07088e-06
-0.000360115 0.000547878 9.08499e-07
3.07088e-06 9.08499e-07 0.000353601
0.000885208 -0.000160339 -9.86626e-07
-0.000160339 0.000206629 -1.27484e-06
-9.86626e-07 -1.27484e-06 4.86698e-06
0.00145682 -0.000150362 -1.04395e-06
-0.000150362 0.000502285 -3.17811e-07
-1.04395e-06 -3.17811e-07 0.000331421
0.000786902 -7.97562e-05 -1.93634e-06
-7.97562e-05 8.98892e-05 1.67249e-06
-1.93634e-06 1.67249e-06 -2.5043e-05
0.000800214 -1.79656e-05 -9.97687e-08
-1.79656e-05 0.000103956 1.66655e-06
-9.97687e-08 1.66655e-06 7.84494e-06
0.000990951 -1.39576e-06 -1.93931e-06
-1.39576e-06 0.00020606 -2.64909e-07
-1.93931e-06 -2.64909e-07 0.000100639
0.00100387 -7.03504e-06 9.39496e-07
-7.03504e-06 0.000216699 7.08775e-07
9.39496e-07 7.08775e-07 0.000130586
0.000686574 0.000104752 1.90899e-06
0.000104752 5.42993e-05 2.45358e-06
1.90899e-06 2.45358e-06 -4.74127e-05
0.0017002 -0.000114174 -5.21303e-07
-0.000114174 -7.17296e-05 -1.70821e-06
-5.21303e-07 -1.70821e-06 -0.000109099
0.000733068 3.15048e-05 -9.15856e-07
3.15048e-05 7.71152e-05 1.34804e-07
-9.15856e-07 1.34804e-07 -3.1071e-05
0.000809408 -4.91388e-05 -4.99986e-07
-4.91388e-05 0.000115633 -9.01698e-08
-4.99986e-07 -9.01698e-08 5.73668e-06
0.00192733 -0.000272661 3.50886e-08
-0.000272661 1.1953e-05 -1.53064e-06
3.50886e-08 -1.53064e-06 1.13613e-06
0.00135162 -0.000314958 -4.24867e-07
-0.000314958 -7.21816e-05 2.2633e-06
-4.24867e-07 2.2633e-06 -0.000203247
0.00158247 -0.000295676 1.76261e-06
-0.000295676 0.000416323 -1.51647e-06
1.76261e-06 -1.51647e-06 0.000210077
0.000888946 -5.65293e-05 4.89244e-07
-5.65293e-05 0.000168844 -6.09032e-07
4.89244e-07 -6.09032e-07 4.44921e-05
0.000950318 -6.20084e-05 -1.65358e-07
-6.20084e-05 0.000270588 2.39571e-07
-1.65358e-07 2.39571e-07 4.2242e-05
0.00318126 -0.000185825 -1.33843e-05
-0.000185825 0.00087298 7.71324e-06
-1.33843e-05 7.71324e-06 0.000777456
0.00286156 -0.000369146 -1.83061e-05
-0.000369146 0.000572166 1.82512e-06
-1.83061e-05 1.82512e-06 0.000589241
0.00011797 -0.000263961 -5.55833e-06
-0.000263961 -0.000544821 -1.11174e-06
-5.55833e-06 -1.11174e-06 -0.000689328
0.000871197 -0.000183158 -4.00729e-06
-0.000183158 0.000117139 8.53999e-06
-4.00729e-06 8.53999e-06 -0.00010291
0.000640034 -9.17163e-05 3.01553e-07
-9.17163e-05 2.06314e-05 -1.58924e-06
3.01553e-07 -1.58924e-06 -9.26792e-05
0.000816115 -5.13289e-05 1.43824e-06
-5.13289e-05 0.000127064 -1.06221e-06
1.43824e-06 -1.06221e-06 8.96799e-06
0.000803074 -2.08182e-05 -6.65777e-07
-2.08182e-05 0.000156579 6.81203e-07
-6.65777e-07 6.81203e-07 -1.27191e-05
-0.00393321 -1.80305e-05 0.000159748
-1.80305e-05 -0.00201617 -7.09757e-08
0.000159748 -7.09757e-08 -0.00167862
0.00913872 -9.29893e-05 -2.149e-05
-9.29893e-05 0.00294176 3.14463e-06
-2.149e-05 3.14463e-06 0.00234259
0.000882772 5.78826e-05 2.55419e-06
5.78826e-05 0.000166156 2.2272e-07
2.55419e-06 2.2272e-07 5.11375e-05
0.00070705 0.000148409 4.38078e-06
0.000148409 5.60026e-05 -4.40075e-07
4.38078e-06 -4.40075e-07 -0.000101517
0.00202759 0.000198351 1.45095e-05
0.000198351 0.000164649 1.0203e-05
1.45095e-05 1.0203e-05 0.000185392
0.00224155 0.000410368 5.94969e-06
0.000410368 0.000326995 3.76135e-06
5.94969e-06 3.76135e-06 0.000171355
0.00126242 0.000252276 6.54707e-06
0.000252276 0.000211967 1.53855e-06
6.54707e-06 1.53855e-06 -2.22903e-05
0.0065712 0.00031634 7.04596e-05
0.00031634 0.00151099 1.17246e-05
7.04596e-05 1.17246e-05 0.000471268
0.00608205 0.000435062 -0.000103965
0.000435062 0.00116492 -2.64292e-05
-0.000103965 -2.64292e-05 0.000530513
-0.000542189 0.000144086 2.47782e-06
0.000144086 -0.000876705 -1.99336e-05
2.47782e-06 -1.99336e-05 -0.00103592
0.00377656 -0.00069021 -4.77811e-06
-0.00069021 0.00195023 2.82888e-05
-4.77811e-06 2.82888e-05 0.00170749
-0.00549707 -0.000999395 -0.000148201
-0.000999395 -0.00339746 -0.000135193
-0.000148201 -0.000135193 -0.00153841
0.000952103 0.0001259 2.37294e-08
0.0001259 0.000214984 -1.18654e-06
2.37294e-08 -1.18654e-06 9.74716e-05
-0.00244025 -0.000274116 4.8268e-05
-0.000274116 -0.00146939 4.73989e-06
4.8268e-05 4.73989e-06 -0.00153979
-0.00109743 -0.000329717 -5.27013e-05
-0.000329717 0.000235593 -2.30147e-05
-5.27013e-05 -2.30147e-05 -0.000295673
0.00252267 0.000293552 -4.77762e-06
0.000293552 0.000459126 -1.87238e-06
-4.77762e-06 -1.87238e-06 0.000493399
0.000915948 0.000136271 -1.53726e-06
0.000136271 0.000189316 -3.91789e-07
-1.53726e-06 -3.91789e-07 9.63157e-06
0.000658258 0.000290732 3.64879e-06
0.000290732 -0.000150833 1.87059e-06
3.64879e-06 1.87059e-06 -0.000395144
0.000676568 0.000212857 1.06527e-05
0.000212857 -0.000221212 9.98556e-06
1.06527e-05 9.98556e-06 -0.000203394
0.00777232 8.00262e-05 -1.91886e-05
8.00262e-05 0.00226265 -1.54227e-05
-1.91886e-05 -1.54227e-05 0.000754661
0.00642011 0.000762515 -4.31117e-05
0.000762515 0.00169387 -1.82451e-05
-4.31117e-05 -1.82451e-05 0.000876755
0.00688161 -0.000986572 4.14863e-05
-0.000986572 0.00318941 -2.23603e-05
4.14863e-05 -2.23603e-05 0.00334408
0.00153562 -0.000629051 5.66141e-05
-0.000629051 -0.00193656 0.000120806
5.66141e-05 0.000120806 -0.000528506
0.00127293 9.51413e-05 -1.11051e-05
9.51413e-05 0.000412197 -6.84287e-06
-1.11051e-05 -6.84287e-06 0.000313268
-0.00302251 -2.61859e-05 -8.32523e-05
-2.61859e-05 -5.07621e-05 -2.80891e-05
-8.32523e-05 -2.80891e-05 -0.00115048
0.00213777 5.50581e-05 -8.88683e-05
5.50581e-05 0.000533976 -0.000110601
-8.88683e-05 -0.000110601 -0.000548568
-0.000101176 0.000237609 -2.06198e-05
0.000237609 -0.000580636 4.9749e-07
-2.06198e-05 4.9749e-07 -0.000583712
0.00164513 0.000314485 -3.65719e-05
0.000314485 0.00064473 -1.02877e-05
-3.65719e-05 -1.02877e-05 0.000449783
0.00298193 0.000228063 -6.776e-05
0.000228063 0.0012694 -3.60733e-06
-6.776e-05 -3.60733e-06 0.0010625
0.00376776 0.000708067 -6.9562e-05
0.000708067 0.000473752 -4.92397e-06
-6.9562e-05 -4.92397e-06 8.16735e-05
-0.00144886 0.000206623 8.48817e-05
0.000206623 -0.0011674 6.28728e-05
8.48817e-05 6.28728e-05 -0.00334662
0.00717466 -0.000931148 -2.21541e-05
-0.000931148 0.0019139 8.63016e-05
-2.21541e-05 8.63016e-05 0.00191831
0.00228183 -0.000373688 -1.23997e-05
-0.000373688 -0.00204 -2.67371e-05
-1.23997e-05 -2.67371e-05 -0.000703025
0.000944157 4.93239e-05 2.10983e-06
4.93239e-05 0.000177759 3.08236e-06
2.10983e-06 3.08236e-06 8.54799e-05
0.00111618 7.72678e-05 3.19613e-06
7.72678e-05 0.000268206 2.19742e-06
3.19613e-06 2.19742e-06 0.00019555
0.000463026 5.79588e-05 -1.20802e-06
5.79588e-05 -9.28485e-05 -7.85266e-06
-1.20802e-06 -7.85266e-06 -0.00014591
0.000601187 4.26063e-05 7.00727e-07
4.26063e-05 -3.74742e-05 -7.54167e-08
7.00727e-07 -7.54167e-08 -0.000107263
0.000841022 3.8152e-05 -7.80324e-07
3.8152e-05 0.000110168 -4.90291e-07
-7.80324e-07 -4.90291e-07 1.90414e-05
0.000850642 -1.57412e-05 -3.88259e-07
-1.57412e-05 0.00010028 7.60188e-07
-3.88259e-07 7.60188e-07 1.64363e-05
0.000846434 -1.36465e-05 -3.31124e-08
-1.36465e-05 9.75629e-05 -3.10632e-08
-3.31124e-08 -3.10632e-08 1.39865e-05
0.000753985 2.9633e-06 -2.74868e-07
2.9633e-06 3.96894e-05 2.6504e-06
-2.74868e-07 2.6504e-06 -3.55767e-05
0.000852401 3.31509e-05 1.85273e-07
3.31509e-05 0.000114432 -5.86734e-07
1.85273e-07 -5.86734e-07 2.36546e-05
0.000905615 2.66553e-06 -7.93814e-08
2.66553e-06 0.000122512 3.28098e-07
-7.93814e-08 3.28098e-07 4.23507e-05
0.000871493 -3.27104e-05 -3.13118e-08
-3.27104e-05 0.000111311 3.8058e-07
-3.13118e-08 3.8058e-07 2.0603e-05
0.000495063 1.76723e-05 3.18987e-07
1.76723e-05 -9.99313e-05 -5.02666e-07
3.18987e-07 -5.02666e-07 -0.000172425
0.000513604 -2.40652e-06 7.18708e-07
-2.40652e-06 -5.60024e-05 -4.95259e-06
7.18708e-07 -4.95259e-06 -0.000118906
0.000933775 -1.92402e-05 -9.50064e-07
-1.92402e-05 0.000139875 -3.25933e-06
-9.50064e-07 -3.25933e-06 5.51448e-05
0.000952259 3.72077e-07 2.11384e-07
3.72077e-07 0.000168486 -1.11925e-06
2.11384e-07 -1.11925e-06 6.77703e-05
0.000859082 -4.24001e-05 1.6191e-09
-4.24001e-05 0.000120276 -2.99229e-07
1.6191e-09 -2.99229e-07 3.05115e-05
0.000883074 8.40099e-06 -6.2091e-07
8.40099e-06 0.000118232 7.67178e-07
-6.2091e-07 7.67178e-07 3.78965e-05
0.00084816 -2.12654e-05 4.38304e-07
-2.12654e-05 0.00010571 -3.04213e-07
4.38304e-07 -3.04213e-07 1.43198e-05
0.000797413 4.04104e-05 -1.43781e-07
4.04104e-05 8.0287e-05 -3.88581e-08
-1.43781e-07 -3.88581e-08 -1.84104e-06
0.000749446 -3.33608e-06 -2.12236e-07
-3.33608e-06 3.90445e-05 4.44535e-07
-2.12236e-07 4.44535e-07 -3.60829e-05
0.000727053 5.27666e-05 1.02481e-06
5.27666e-05 4.60207e-05 -1.63568e-07
1.02481e-06 -1.63568e-07 -3.57237e-05
0.000639541 1.63041e-05 3.78698e-08
1.63041e-05 -1.2749e-05 -2.25801e-06
3.78698e-08 -2.25801e-06 -9.9022e-05
0.000731272 9.4651e-06 1.26658e-06
9.4651e-06 3.69622e-05 -1.23761e-06
1.26658e-06 -1.23761e-06 -3.62431e-05
0.0008358 2.12824e-05 2.8398e-06
2.12824e-05 9.73184e-05 -1.94238e-06
2.8398e-06 -1.94238e-06 8.25942e-06
0.000337523 -3.25202e-05 6.72909e-07
-3.25202e-05 -0.000135977 1.26915e-07
6.72909e-07 1.26915e-07 -0.000265749
0.000425579 3.80055e-05 2.85065e-07
3.80055e-05 -0.000102895 -8.39418e-08
2.85065e-07 -8.39418e-08 -0.000196977
0.000761792 4.08279e-05 4.51104e-07
4.08279e-05 7.15074e-05 4.98214e-07
4.51104e-07 4.98214e-07 -1.4007e-05
0.000717143 3.43488e-05 2.1008e-07
3.43488e-05 3.86493e-05 2.96423e-07
2.1008e-07 2.96423e-07 -3.52865e-05
0.000762791 5.63597e-06 -7.38447e-08
5.63597e-06 6.64584e-05 -2.93035e-09
-7.38447e-08 -2.93035e-09 -1.02915e-05
0.000711601 2.14382e-05 -6.21861e-07
2.14382e-05 2.25199e-05 3.84989e-07
-6.21861e-07 3.84989e-07 -3.85603e-05
0.000788975 5.7674e-06 3.14101e-07
5.7674e-06 8.00851e-05 3.45824e-07
3.14101e-07 3.45824e-07 1.45941e-06
0.000750366 -1.38115e-05 -1.95391e-07
-1.38115e-05 4.39735e-05 1.22066e-09
-1.95391e-07 1.22066e-09 -1.87006e-05
0.000701065 2.85302e-05 -8.99565e-07
2.85302e-05 9.57544e-07 1.63924e-06
-8.99565e-07 1.63924e-06 -4.02775e-05
0.000661928 -3.25339e-05 8.79891e-07
-3.25339e-05 -8.50215e-06 -3.57785e-07
8.79891e-07 -3.57785e-07 -7.26251e-05
0.000707857 1.37432e-05 -1.47179e-07
1.37432e-05 4.14417e-06 -1.18384e-08
-1.47179e-07 -1.18384e-08 -3.67114e-05
0.00135567 2.46525e-05 -4.92017e-06
2.46525e-05 0.000361894 4.85677e-06
-4.92017e-06 4.85677e-06 0.000355167
0.000699701 -2.67263e-06 7.68677e-07
-2.67263e-06 9.38896e-07 -1.54855e-06
7.68677e-07 -1.54855e-06 -3.98524e-05
0.001011 1.6034e-05 -2.38701e-06
1.6034e-05 0.000163008 7.16812e-07
-2.38701e-06 7.16812e-07 0.000155054
0.000841484 1.32025e-05 -5.08748e-07
1.32025e-05 6.82129e-05 1.79907e-06
-5.08748e-07 1.79907e-06 7.94635e-05
0.000658675 7.7447e-06 2.85588e-07
7.7447e-06 -3.98085e-05 -3.46889e-06
2.85588e-07 -3.46889e-06 -4.90676e-05
0.002241 1.0543e-05 2.94155e-06
1.0543e-05 0.00086332 3.06093e-08
2.94155e-06 3.06093e-08 0.000881947
0.00223772 1.12439e-06 3.03234e-07
1.12439e-06 0.00086072 -4.80975e-06
3.03234e-07 -4.80975e-06 0.000879551
0.0010458 5.79526e-05 -1.29742e-06
5.79526e-05 0.000222317 -1.05064e-06
-1.29742e-06 -1.05064e-06 0.000159002
0.000726458 7.74006e-06 -5.75427e-07
7.74006e-06 1.69949e-05 -1.98461e-06
-5.75427e-07 -1.98461e-06 -1.75685e-05
0.000734037 1.78482e-06 6.2563e-07
1.78482e-06 5.11076e-05 6.68113e-07
6.2563e-07 6.68113e-07 -1.37589e-05
0.0006733 2.55789e-07 -1.76555e-07
2.55789e-07 -3.32556e-05 -3.52114e-06
-1.76555e-07 -3.52114e-06 -3.78589e-05
0.000711919 1.49163e-08 3.21072e-07
1.49163e-08 9.19346e-06 -2.30966e-08
3.21072e-07 -2.30966e-08 -2.4414e-05
0.000712147 -5.44147e-06 -5.72322e-07
-5.44147e-06 9.81578e-06 1.85623e-06
-5.72322e-07 1.85623e-06 -2.43319e-05
0.000674484 6.80933e-06 -1.42672e-07
6.80933e-06 -3.17547e-05 -2.72563e-09
-1.42672e-07 -2.72563e-09 -3.6744e-05
0.00208023 9.55881e-06 4.07741e-06
9.55881e-06 0.000772191 -4.65812e-06
4.07741e-06 -4.65812e-06 0.000792586
0.00127302 1.80142e-05 -6.25144e-07
1.80142e-05 0.000310592 2.11632e-06
-6.25144e-07 2.11632e-06 0.00030787
0.0014773 1.7498e-05 2.07069e-06
1.7498e-05 0.000431258 7.09454e-08
2.07069e-06 7.09454e-08 0.000447466
0.000925728 2.08207e-05 -1.47761e-05
2.08207e-05 0.000121653 7.24636e-06
-1.47761e-05 7.24636e-06 0.000133287
-0.00645199 0.000150388 9.8671e-05
0.000150388 -0.0030864 -1.31792e-06
9.8671e-05 -1.31792e-06 -0.00343431
-0.00171042 0.000192 7.0157e-05
0.000192 0.000145081 2.30578e-05
7.0157e-05 2.30578e-05 -0.000349485
0.00378228 5.91758e-05 -0.000156157
5.91758e-05 0.000728993 2.81004e-06
-0.000156157 2.81004e-06 0.000422554
0.0013381 1.63136e-05 3.31404e-05
1.63136e-05 -0.000262127 3.55089e-06
3.31404e-05 3.55089e-06 -0.00028471
0.00151722 -2.06395e-05 1.15369e-05
-2.06395e-05 -0.000185209 5.15707e-07
1.15369e-05 5.15707e-07 -0.000214545
0.000932941 2.24517e-05 1.80509e-05
2.24517e-05 -0.000519183 -1.95958e-06
1.80509e-05 -1.95958e-06 -0.000649933
0.00222531 -4.93079e-05 1.92008e-06
-4.93079e-05 0.000184145 1.74423e-06
1.92008e-06 1.74423e-06 0.000142367
0.00691584 0.00016386 3.73395e-06
0.00016386 0.00165529 -2.09315e-05
3.73395e-06 -2.09315e-05 0.000763887
-0.00342646 0.000417688 -2.89095e-05
0.000417688 -0.00126594 -2.09448e-06
-2.89095e-05 -2.09448e-06 -0.00167657
-0.00159903 0.000918635 -3.45203e-05
0.000918635 -0.00112986 1.33045e-05
-3.45203e-05 1.33045e-05 0.000367337
0.00175142 -0.000138012 5.19884e-05
-0.000138012 -0.000157806 1.2371e-05
5.19884e-05 1.2371e-05 -0.000435585
0.0076364 0.00012633 2.93641e-05
0.00012633 0.0023256 -1.01336e-05
2.93641e-05 -1.01336e-05 0.0010529
0.000294693 0.000777381 3.4013e-05
0.000777381 -0.000554733 -8.49849e-05
3.4013e-05 -8.49849e-05 6.5231e-05
0.00420049 0.00067719 -8.432e-05
0.00067719 -7.97166e-05 6.57714e-05
-8.432e-05 6.57714e-05 0.000831901
0.000731937 6.1937e-05 -1.0167e-06
6.1937e-05 6.86652e-05 -1.06043e-06
-1.0167e-06 -1.06043e-06 -3.50356e-05
0.000635276 9.40073e-06 -2.18187e-07
9.40073e-06 -2.55722e-07 -5.8475e-07
-2.18187e-07 -5.8475e-07 -7.71238e-05
0.000745913 -6.799e-05 -8.68783e-07
-6.799e-05 5.90468e-05 1.34416e-06
-8.68783e-07 1.34416e-06 -5.77598e-06
0.000636787 1.05913e-06 1.39889e-07
1.05913e-06 8.95951e-06 9.92723e-07
1.39889e-07 9.92723e-07 -7.52114e-05
0.000767204 6.14845e-05 9.78764e-07
6.14845e-05 9.33288e-05 1.34682e-06
9.78764e-07 1.34682e-06 -4.98282e-06
0.000889047 6.14147e-05 -6.38565e-07
6.14147e-05 0.000147287 -1.33108e-07
-6.38565e-07 -1.33108e-07 4.77281e-05
0.000832624 7.32619e-05 1.54483e-06
7.32619e-05 0.000117014 1.47821e-06
1.54483e-06 1.47821e-06 2.19194e-05
0.000732625 -5.70465e-06 8.65549e-07
-5.70465e-06 5.05447e-05 -2.2259e-07
8.65549e-07 -2.2259e-07 -3.45731e-05
0.000720541 -1.84955e-05 4.06379e-07
-1.84955e-05 5.35261e-05 -8.12797e-07
4.06379e-07 -8.12797e-07 -3.19495e-05
0.000625822 -1.33508e-05 -9.41344e-08
-1.33508e-05 -6.49658e-06 1.40628e-06
-9.41344e-08 1.40628e-06 -8.35134e-05
0.000898481 -0.000108487 7.91581e-06
-0.000108487 -0.000510937 -3.76613e-06
7.91581e-06 -3.76613e-06 -0.000543664
0.00192485 -0.000274247 9.24448e-06
-0.000274247 4.09703e-05 1.40873e-08
9.24448e-06 1.40873e-08 9.90864e-06
0.000268244 -0.000247983 8.64136e-06
-0.000247983 -0.000634325 3.78495e-06
8.64136e-06 3.78495e-06 -0.000745554
0.0016203 -0.000299906 2.52094e-06
-0.000299906 0.000433788 6.07668e-08
2.52094e-06 6.07668e-08 0.000215315
0.00133847 -0.000101635 5.18543e-07
-0.000101635 0.000466199 -4.99992e-07
5.18543e-07 -4.99992e-07 0.000250648
0.00106136 -7.65217e-05 -8.81447e-07
-7.65217e-05 0.000268166 -2.89451e-07
-8.81447e-07 -2.89451e-07 0.000135067
0.000911731 -3.83741e-05 -8.66507e-07
-3.83741e-05 0.000167825 3.68114e-07
-8.66507e-07 3.68114e-07 6.37943e-05
0.000737406 3.91017e-05 -1.11974e-06
3.91017e-05 7.80638e-05 1.46142e-06
-1.11974e-06 1.46142e-06 -2.74096e-05
0.00165028 -0.000154132 -2.73447e-06
-0.000154132 3.54847e-05 1.08575e-06
-2.73447e-06 1.08575e-06 -3.44829e-05
0.000647202 -3.67487e-05 -1.01179e-07
-3.67487e-05 2.65e-05 5.25313e-08
-1.01179e-07 5.25313e-08 -8.82005e-05
0.000734189 -4.8235e-05 6.70545e-07
-4.8235e-05 8.14161e-05 -5.27943e-07
6.70545e-07 -5.27943e-07 -3.88039e-05
0.00186354 -0.000322718 4.86253e-06
-0.000322718 6.49549e-05 -2.29141e-06
4.86253e-06 -2.29141e-06 7.54872e-05
0.000341941 -0.000274853 1.60474e-06
-0.000274853 -0.000407873 1.38953e-06
1.60474e-06 1.38953e-06 -0.000548059
0.00103664 -0.000194226 4.02193e-06
-0.000194226 0.000199104 -1.8303e-06
4.02193e-06 -1.8303e-06 -2.25677e-05
0.00111212 -5.80319e-05 -4.61881e-07
-5.80319e-05 0.000323567 -8.80613e-07
-4.61881e-07 -8.80613e-07 0.000148429
0.000794937 -0.000210409 -2.23241e-06
-0.000210409 -0.000102417 -3.4329e-06
-2.23241e-06 -3.4329e-06 -0.000335228
0.00156031 -0.00027506 -2.02489e-05
-0.00027506 0.00024643 4.49353e-06
-2.02489e-05 4.49353e-06 0.000190826
0.000290654 -6.09798e-05 -1.3993e-05
-6.09798e-05 -9.86905e-05 1.92218e-05
-1.3993e-05 1.92218e-05 -0.000307861
0.000692234 3.76699e-05 1.01721e-07
3.76699e-05 4.31732e-05 3.1831e-07
1.01721e-07 3.1831e-07 -6.69817e-05
0.00061386 -8.68847e-05 6.26763e-07
-8.68847e-05 1.19964e-05 -1.49165e-06
6.26763e-07 -1.49165e-06 -0.000111018
0.000891682 -3.93045e-05 6.16613e-07
-3.93045e-05 0.000162578 8.99316e-07
6.16613e-07 8.99316e-07 3.55686e-05
0.000865409 4.6085e-05 -0.000108084
4.6085e-05 0.0019826 -9.91639e-07
-0.000108084 -9.91639e-07 0.00130619
0.0020452 -0.000151217 1.39687e-05
-0.000151217 0.00137783 9.35548e-06
1.39687e-05 9.35548e-06 0.00123581
0.000158718 0.000343812 -6.28613e-05
0.000343812 -0.00213558 2.50956e-05
-6.28613e-05 2.50956e-05 -0.00269281
0.000805575 0.000115159 4.23797e-06
0.000115159 0.000141215 1.96336e-06
4.23797e-06 1.96336e-06 2.59034e-05
0.000688553 0.000152192 7.48228e-06
0.000152192 8.3794e-05 4.06421e-06
7.48228e-06 4.06421e-06 -9.91802e-05
0.00245282 0.00026908 1.32449e-05
0.00026908 0.000402478 6.21874e-06
1.32449e-05 6.21874e-06 0.000446555
0.000664775 0.000228166 1.28241e-05
0.000228166 -0.000116915 6.96791e-06
1.28241e-05 6.96791e-06 -0.000356563
0.00473791 -0.000382287 4.33837e-05
-0.000382287 0.0020072 2.58968e-05
4.33837e-05 2.58968e-05 0.00207296
-0.00105492 -8.31804e-05 -6.10384e-05
-8.31804e-05 -0.00202252 2.3431e-06
-6.10384e-05 2.3431e-06 -0.00337372
0.00329472 0.000668719 -8.40227e-05
0.000668719 -0.000158663 -3.43514e-05
-8.40227e-05 -3.43514e-05 -0.000995483
0.000620259 0.000130705 2.70205e-05
0.000130705 -0.000163335 -1.60449e-05
2.70205e-05 -1.60449e-05 -0.000131972
-0.00426549 -0.000434111 -1.00575e-05
-0.000434111 -0.00172555 -2.5993e-05
-1.00575e-05 -2.5993e-05 -0.00180039
0.000448673 -0.000402829 1.29292e-05
-0.000402829 0.000556151 2.24195e-05
1.29292e-05 2.24195e-05 2.60353e-05
0.0056068 -0.000811618 9.81527e-05
-0.000811618 0.000212319 8.34436e-05
9.81527e-05 8.34436e-05 0.00169906
0.000780555 8.46824e-05 3.08e-06
8.46824e-05 0.000152858 -1.91063e-06
3.08e-06 -1.91063e-06 4.8118e-05
-0.000628554 -9.69437e-05 -3.92886e-05
-9.69437e-05 0.000884368 -1.34832e-05
-3.92886e-05 -1.34832e-05 4.05424e-05
0.00240446 6.32443e-05 -4.13076e-06
6.32443e-05 0.000682167 -2.62694e-05
-4.13076e-06 -2.62694e-05 -0.000438388
0.000684537 0.000216457 -8.30841e-06
0.000216457 -0.000122048 3.50635e-06
-8.30841e-06 3.50635e-06 -0.000175442
0.000761246 0.000174449 2.17595e-07
0.000174449 0.000202679 1.28687e-06
2.17595e-07 1.28687e-06 3.59886e-06
0.000380272 0.000175595 3.39617e-05
0.000175595 -9.65987e-05 -2.31438e-05
3.39617e-05 -2.31438e-05 -0.00024275
0.0054856 0.000906813 -1.6843e-05
0.000906813 0.00149322 1.0197e-06
-1.6843e-05 1.0197e-06 0.00072828
0.0095429 -4.63514e-05 4.40325e-05
-4.63514e-05 0.00366235 1.1209e-05
4.40325e-05 1.1209e-05 0.00202383
0.00178371 -0.000585768 4.79841e-06
-0.000585768 -0.0011055 -1.11947e-05
4.79841e-06 -1.11947e-05 -0.000897732
0.00644256 -0.000512743 5.99915e-06
-0.000512743 0.000679436 -1.4071e-05
5.99915e-06 -1.4071e-05 0.00193279
0.0005268 0.000104325 -1.1643e-05
0.000104325 6.21017e-05 -8.67338e-06
-1.1643e-05 -8.67338e-06 -1.62813e-05
0.00190631 -3.59507e-05 -7.67697e-05
-3.59507e-05 0.0003791 -3.33081e-05
-7.67697e-05 -3.33081e-05 -0.00037507
0.00108725 4.17831e-05 -1.78067e-05
4.17831e-05 0.000252732 -6.30269e-05
-1.78067e-05 -6.30269e-05 -0.000674779
-0.00088058 1.02635e-05 -2.43133e-05
1.02635e-05 -0.000474705 -1.64314e-05
-2.43133e-05 -1.64314e-05 -0.000597657
0.00247465 0.000348961 3.61277e-06
0.000348961 0.000605505 5.57671e-05
3.61277e-06 5.57671e-05 6.2252e-05
0.0086196 0.000201869 2.34377e-05
0.000201869 0.0033871 3.16928e-06
2.34377e-05 3.16928e-06 0.00127462
-0.0065974 -0.000673696 -4.999e-05
-0.000673696 -0.00417408 2.81215e-05
-4.999e-05 2.81215e-05 -0.00522368
0.00508804 0.000173713 -4.72824e-07
0.000173713 -0.000639946 -9.19264e-05
-4.72824e-07 -9.19264e-05 0.000827772
0.00097886 6.8287e-05 2.55416e-06
6.8287e-05 0.000188015 5.47765e-06
2.55416e-06 5.47765e-06 0.000115996
0.000936972 8.80228e-05 -4.1519e-06
8.80228e-05 0.000176244 -7.28468e-07
-4.1519e-06 -7.28468e-07 0.000120575
0.00126394 7.33812e-05 -5.04353e-06
7.33812e-05 0.000393666 -4.92173e-06
-5.04353e-06 -4.92173e-06 0.000347703
0.000852982 6.95592e-05 -1.54481e-06
6.95592e-05 0.000107507 -5.89932e-07
-1.54481e-06 -5.89932e-07 2.15509e-05
0.000909773 -3.24348e-05 -2.88723e-07
-3.24348e-05 0.000139557 1.38497e-06
-2.88723e-07 1.38497e-06 4.43366e-05
0.000877749 1.12129e-05 -2.23239e-07
1.12129e-05 0.000107305 1.46835e-06
-2.23239e-07 1.46835e-06 2.65827e-05
0.000420706 7.16872e-06 1.7814e-07
7.16872e-06 -0.000134971 3.69993e-06
1.7814e-07 3.69993e-06 -0.000205736
0.000884839 3.71175e-06 6.19149e-07
3.71175e-06 0.000119969 4.89553e-08
6.19149e-07 4.89553e-08 2.74554e-05
0.000869593 -3.02708e-06 -1.89177e-07
-3.02708e-06 0.000105961 -2.07291e-07
-1.89177e-07 -2.07291e-07 2.07111e-05
0.000529259 -4.07523e-06 1.44632e-07
-4.07523e-06 -4.38308e-05 9.1895e-07
1.44632e-07 9.1895e-07 -0.000107265
0.000330621 -9.79725e-06 -1.9296e-06
-9.79725e-06 -8.06379e-05 -4.92149e-06
-1.9296e-06 -4.92149e-06 -0.000127174
0.000970936 -2.43603e-05 2.22941e-06
-2.43603e-05 0.000191129 -5.94156e-06
2.22941e-06 -5.94156e-06 0.000121759
0.000863339 3.3685e-05 2.98252e-07
3.3685e-05 0.000109446 -2.58433e-06
2.98252e-07 -2.58433e-06 1.77431e-05
0.000872495 -5.95448e-05 8.38514e-07
-5.95448e-05 0.000111576 6.89388e-07
8.38514e-07 6.89388e-07 2.48162e-05
0.000783455 4.3648e-05 -5.88177e-07
4.3648e-05 7.08406e-05 4.80993e-07
-5.88177e-07 4.80993e-07 -1.04569e-05
0.000830698 -1.01178e-05 -1.17245e-06
-1.01178e-05 8.47589e-05 1.78382e-06
-1.17245e-06 1.78382e-06 9.8678e-06
0.000702777 8.13875e-06 4.36252e-07
8.13875e-06 1.67187e-05 3.88808e-07
4.36252e-07 3.88808e-07 -6.54234e-05
0.000766142 4.81805e-05 2.96474e-07
4.81805e-05 6.80321e-05 2.17958e-07
2.96474e-07 2.17958e-07 -1.42254e-05
0.000816657 2.47683e-05 -4.0448e-07
2.47683e-05 8.44787e-05 2.24289e-07
-4.0448e-07 2.24289e-07 1.05217e-05
0.000909548 3.5308e-05 1.67749e-06
3.5308e-05 0.000138439 -1.52373e-06
1.67749e-06 -1.52373e-06 6.0361e-05
0.000617494 4.31491e-06 2.01995e-06
4.31491e-06 -1.19193e-05 -2.71003e-06
2.01995e-06 -2.71003e-06 -7.82735e-05
0.000654789 -7.00112e-05 1.56941e-06
-7.00112e-05 -1.2027e-05 -6.74737e-07
1.56941e-06 -6.74737e-07 -0.000102481
0.000905179 2.73335e-06 -1.05055e-06
2.73335e-06 0.000139488 -2.2576e-07
-1.05055e-06 -2.2576e-07 4.8554e-05
0.000569404 -4.67561e-05 2.24474e-06
-4.67561e-05 -1.22259e-05 1.52622e-06
2.24474e-06 1.52622e-06 -0.000132577
0.000977912 -0.000158666 -5.05164e-07
-0.000158666 0.000192288 3.91254e-06
-5.05164e-07 3.91254e-06 2.26323e-05
0.00116369 -4.99833e-05 1.33019e-06
-4.99833e-05 0.000311003 -8.79424e-07
1.33019e-06 -8.79424e-07 0.0002022
0.000503997 -4.98744e-05 -6.68577e-07
-4.98744e-05 -3.51876e-05 -2.8027e-06
-6.68577e-07 -2.8027e-06 -0.000163391
0.000714583 3.33305e-05 -5.7626e-07
3.33305e-05 5.40641e-05 -6.11086e-07
-5.7626e-07 -6.11086e-07 -3.77849e-05
0.000489369 3.13693e-05 9.09576e-07
3.13693e-05 -8.1769e-05 6.39549e-07
9.09576e-07 6.39549e-07 -0.000162626
0.000836252 2.72209e-05 -4.51379e-07
2.72209e-05 0.000111438 3.02653e-07
-4.51379e-07 3.02653e-07 2.62626e-05
0.000778104 2.83102e-06 -4.83601e-07
2.83102e-06 7.60538e-05 3.88877e-07
-4.83601e-07 3.88877e-07 -1.098e-06
0.000713745 2.37759e-05 -7.63607e-07
2.37759e-05 2.39953e-05 4.72631e-07
-7.63607e-07 4.72631e-07 -3.64908e-05
0.000811509 -2.15173e-05 4.62981e-07
-2.15173e-05 0.000100483 1.66799e-07
4.62981e-07 1.66799e-07 1.84723e-05
0.000749151 -1.47464e-05 -3.8031e-07
-1.47464e-05 4.49456e-05 4.85627e-08
-3.8031e-07 4.85627e-08 -1.75379e-05
0.000700849 3.49641e-05 -1.20924e-06
3.49641e-05 3.30538e-06 1.62815e-06
-1.20924e-06 1.62815e-06 -3.85321e-05
0.000784145 -4.14765e-05 1.2268e-06
-4.14765e-05 6.52861e-05 -4.04114e-07
1.2268e-06 -4.04114e-07 8.38425e-07
0.000718493 1.78778e-05 -2.56889e-07
1.78778e-05 9.78165e-06 -4.95299e-09
-2.56889e-07 -4.95299e-09 -3.10002e-05
0.001346 3.31643e-05 -6.89038e-06
3.31643e-05 0.000359804 4.79242e-06
-6.89038e-06 4.79242e-06 0.000352524
0.000713585 1.27506e-06 1.24895e-06
1.27506e-06 6.78703e-06 -1.52261e-06
1.24895e-06 -1.52261e-06 -3.37858e-05
0.00100699 2.3573e-05 -3.23263e-06
2.3573e-05 0.000163404 6.79044e-07
-3.23263e-06 6.79044e-07 0.000154999
0.000840023 2.03908e-05 -9.69624e-07
2.03908e-05 7.16906e-05 1.77796e-06
-9.69624e-07 1.77796e-06 8.21095e-05
0.000647854 1.41421e-05 4.2294e-07
1.41421e-05 -4.4123e-05 -3.49225e-06
4.2294e-07 -3.49225e-06 -5.37286e-05
0.00154386 1.85901e-05 5.0854e-06
1.85901e-05 0.000468218 -1.40277e-06
5.0854e-06 -1.40277e-06 0.000482886
0.00225141 1.22977e-05 4.6935e-06
1.22977e-05 0.000869618 -4.73641e-06
4.6935e-06 -4.73641e-06 0.000888107
0.000803428 -1.25487e-05 5.51985e-07
-1.25487e-05 7.95199e-05 -9.13977e-07
5.51985e-07 -9.13977e-07 1.53682e-05
0.000733868 1.61064e-06 -3.02576e-07
1.61064e-06 2.0558e-05 -1.98924e-06
-3.02576e-07 -1.98924e-06 -1.53152e-05
0.00079557 -2.28558e-06 4.98986e-07
-2.28558e-06 8.0411e-05 1.49942e-07
4.98986e-07 1.49942e-07 1.70233e-05
0.000674846 -6.11799e-06 -2.953e-07
-6.11799e-06 -3.21641e-05 -3.54202e-06
-2.953e-07 -3.54202e-06 -3.70995e-05
0.000715493 2.69436e-06 2.05151e-08
2.69436e-06 1.0757e-05 -2.76486e-08
2.05151e-08 -2.76486e-08 -2.36459e-05
0.000723686 -5.568e-05 -2.20165e-06
-5.568e-05 4.05139e-05 1.8782e-06
-2.20165e-06 1.8782e-06 -2.08366e-05
0.00207986 -9.17289e-07 -3.55433e-07
-9.17289e-07 0.000771215 -4.66877e-06
-3.55433e-07 -4.66877e-06 0.00079183
0.000674815 4.57086e-07 -1.24433e-07
4.57086e-07 -3.23936e-05 -6.40094e-10
-1.24433e-07 -6.40094e-10 -3.69927e-05
0.000703484 -7.37293e-06 -3.10315e-07
-7.37293e-06 4.35304e-06 1.87145e-06
-3.10315e-07 1.87145e-06 -2.92082e-05
0.000676069 7.01104e-06 -2.90161e-08
7.01104e-06 -3.09209e-05 3.49354e-06
-2.90161e-08 3.49354e-06 -3.59324e-05
0.00208679 1.05646e-05 -2.97793e-06
1.05646e-05 0.000776126 -2.86704e-08
-2.97793e-06 -2.86704e-08 0.000796444
0.00210463 2.04526e-05 -1.11339e-05
2.04526e-05 0.00078859 4.4877e-06
-1.11339e-05 4.4877e-06 0.000808225
-0.00227969 -1.77611e-05 -4.77166e-05
-1.77611e-05 0.000206255 1.04735e-05
-4.77166e-05 1.04735e-05 -0.000724501
-0.00114501 0.000296465 -1.85645e-05
0.000296465 -0.000464498 5.59135e-06
-1.85645e-05 5.59135e-06 -0.000715834
0.00252176 -5.02228e-05 -0.000112513
-5.02228e-05 0.000479253 9.12748e-05
-0.000112513 9.12748e-05 -0.000531335
-0.00224009 0.000226948 0.000124405
0.000226948 0.000163415 -5.35057e-05
0.000124405 -5.35057e-05 -0.000215215
0.0024958 0.000123746 -0.00010036
0.000123746 0.00015938 1.56177e-05
-0.00010036 1.56177e-05 -0.000104527
0.00186996 -7.51476e-05 6.77472e-05
-7.51476e-05 -1.21621e-05 -1.12036e-05
6.77472e-05 -1.12036e-05 -6.02758e-05
0.00186776 -0.000364739 -9.1275e-05
-0.000364739 -0.000886957 -4.39329e-05
-9.1275e-05 -4.39329e-05 -0.00170863
0.00746171 0.000534319 1.12052e-05
0.000534319 0.00368545 -1.68124e-05
1.12052e-05 -1.68124e-05 0.00355406
-0.00560146 0.000996112 -0.000145784
0.000996112 -0.00353797 0.000137423
-0.000145784 0.000137423 -0.00154042
0.00192973 -2.18059e-05 -4.05403e-06
-2.18059e-05 -0.000200236 -6.2705e-06
-4.05403e-06 -6.2705e-06 -0.000453781
0.00362417 6.03398e-06 2.16413e-05
6.03398e-06 0.000414206 -2.91075e-05
2.16413e-05 -2.91075e-05 -0.00136405
0.00689989 0.00103071 -2.76919e-05
0.00103071 0.00226069 -3.28715e-05
-2.76919e-05 -3.28715e-05 0.00288742
0.00176565 0.000641301 -2.79557e-05
0.000641301 -0.00149104 5.98276e-05
-2.79557e-05 5.98276e-05 -0.000509993
0.00304132 -0.000361117 -4.7764e-05
-0.000361117 0.000187668 1.3609e-05
-4.7764e-05 1.3609e-05 -0.000281144
0.00341322 -0.000193905 0.000117582
-0.000193905 0.00100697 -7.81086e-05
0.000117582 -7.81086e-05 -0.00131153
-0.00531598 0.00034279 -5.98285e-05
0.00034279 -0.00444681 -0.000109329
-5.98285e-05 -0.000109329 -0.00415183
0.00142822 0.000398827 -2.78662e-05
0.000398827 -0.00280409 1.4967e-05
-2.78662e-05 1.4967e-05 -0.00150745
0.000830155 -1.50628e-05 6.89348e-07
-1.50628e-05 0.000121312 -1.65571e-07
6.89348e-07 -1.65571e-07 1.2692e-05
0.000817528 5.28975e-05 -1.73326e-06
5.28975e-05 0.000115922 -5.47416e-07
-1.73326e-06 -5.47416e-07 1.47838e-05
0.000774064 3.51577e-05 4.73096e-07
3.51577e-05 7.80428e-05 2.29751e-07
4.73096e-07 2.29751e-07 2.58952e-06
0.000798611 6.85936e-05 2.13748e-06
6.85936e-05 0.000110674 2.2626e-06
2.13748e-06 2.2626e-06 1.31558e-05
0.000744803 2.75065e-05 -4.89447e-07
2.75065e-05 6.55455e-05 3.93201e-07
-4.89447e-07 3.93201e-07 -4.1981e-05
0.000910949 6.34717e-05 2.67412e-07
6.34717e-05 0.000161481 7.06888e-07
2.67412e-07 7.06888e-07 6.15189e-05
0.000752498 1.44316e-05 -6.65663e-08
1.44316e-05 6.83078e-05 2.4807e-06
-6.65663e-08 2.4807e-06 -2.37817e-05
0.000898409 9.05568e-05 -4.3238e-07
9.05568e-05 0.0001574 1.86294e-07
-4.3238e-07 1.86294e-07 5.88174e-05
0.000868052 4.81419e-05 -1.72328e-07
4.81419e-05 0.000139569 4.05109e-07
-1.72328e-07 4.05109e-07 4.58318e-05
0.000654969 -9.34036e-06 -1.10113e-06
-9.34036e-06 1.91894e-05 2.33457e-07
-1.10113e-06 2.33457e-07 -6.92717e-05
0.000389068 -0.000128911 1.96602e-05
-0.000128911 -0.000646716 -1.23872e-05
1.96602e-05 -1.23872e-05 -0.000683274
0.00100656 -0.000291532 1.67964e-05
-0.000291532 -0.000366118 -6.80315e-07
1.67964e-05 -6.80315e-07 -0.000371974
0.000927785 -0.000310214 1.10303e-05
-0.000310214 -8.31646e-05 5.8673e-07
1.10303e-05 5.8673e-07 -0.000222167
0.00121259 -0.000205222 7.69168e-06
-0.000205222 0.000285307 -7.70671e-06
7.69168e-06 -7.70671e-06 5.74837e-05
0.0012425 -6.3833e-05 2.33485e-07
-6.3833e-05 0.000394442 -1.04592e-07
2.33485e-07 -1.04592e-07 0.000214036
0.000658697 -5.75122e-05 -8.9504e-07
-5.75122e-05 4.4216e-05 1.2099e-07
-8.9504e-07 1.2099e-07 -8.17983e-05
0.000692047 5.99402e-05 3.83352e-07
5.99402e-05 5.3348e-05 1.00549e-06
3.83352e-07 1.00549e-06 -6.41793e-05
0.000721547 -3.8412e-05 -8.75021e-08
-3.8412e-05 6.5477e-05 8.13741e-07
-8.75021e-08 8.13741e-07 -4.73074e-05
0.00115032 -0.000192408 1.06557e-08
-0.000192408 5.03717e-05 -3.57449e-07
1.06557e-08 -3.57449e-07 -0.000104193
0.000827765 -1.0744e-07 -5.06267e-07
-1.0744e-07 0.000135693 -5.99752e-07
-5.06267e-07 -5.99752e-07 8.48872e-06
0.00108457 -6.1093e-05 5.79378e-08
-6.1093e-05 0.000276823 1.54883e-07
5.79378e-08 1.54883e-07 0.000141206
0.00122747 -0.000257125 -1.72702e-06
-0.000257125 5.09844e-05 -4.95831e-07
-1.72702e-06 -4.95831e-07 1.43549e-05
0.00095572 -9.06938e-05 -6.91162e-06
-9.06938e-05 0.000227609 3.21285e-06
-6.91162e-06 3.21285e-06 3.04283e-05
-0.000905455 -0.000216888 -5.37733e-06
-0.000216888 -0.00107278 -1.2289e-05
-5.37733e-06 -1.2289e-05 -0.00107763
0.000956323 -0.000110791 -1.51273e-05
-0.000110791 0.000270464 1.50644e-05
-1.51273e-05 1.50644e-05 0.000165088
0.000354411 4.45342e-06 -2.14444e-06
4.45342e-06 -0.000131957 1.4953e-05
-2.14444e-06 1.4953e-05 -0.000255893
0.000769011 -1.21263e-06 -1.66454e-07
-1.21263e-06 7.8791e-05 2.27358e-08
-1.66454e-07 2.27358e-08 -3.15462e-05
0.000663823 1.60414e-05 6.74499e-08
1.60414e-05 3.77417e-05 -5.08902e-07
6.74499e-08 -5.08902e-07 -9.87967e-05
0.00135895 -1.05833e-05 -3.75573e-05
-1.05833e-05 0.000222719 -4.19679e-06
-3.75573e-05 -4.19679e-06 -0.000394837
-0.000829318 6.6905e-06 -5.82652e-05
6.6905e-06 0.00118493 -1.9248e-06
-5.82652e-05 -1.9248e-06 0.000326313
-0.00710496 -0.00017779 -0.000170418
-0.00017779 -0.00359444 4.17982e-06
-0.000170418 4.17982e-06 -0.00358357
0.000275896 8.06139e-05 7.84905e-06
8.06139e-05 -0.000108358 7.81108e-07
7.84905e-06 7.81108e-07 -0.0002228
-0.000389376 4.93858e-05 7.71028e-06
4.93858e-05 -0.000388337 2.73904e-06
7.71028e-06 2.73904e-06 -0.00059584
0.00134321 0.000187826 1.66526e-05
0.000187826 0.000244875 1.5506e-06
1.66526e-05 1.5506e-06 0.000173388
-0.00218863 3.61366e-05 9.7284e-06
3.61366e-05 0.000163549 8.60309e-06
9.7284e-06 8.60309e-06 -0.000817197
0.00226501 5.15757e-05 -3.62567e-05
5.15757e-05 0.000542146 -3.96981e-05
-3.62567e-05 -3.96981e-05 -0.00183764
0.0037951 0.000757875 6.13464e-05
0.000757875 0.000429542 -3.31632e-06
6.13464e-05 -3.31632e-06 -0.000131413
0.000528717 0.000195556 6.20327e-06
0.000195556 -2.13199e-05 -6.27806e-06
6.20327e-06 -6.27806e-06 -4.16719e-05
0.00848474 -0.000789856 2.49545e-05
-0.000789856 0.00257826 -1.61826e-05
2.49545e-05 -1.61826e-05 0.00265058
0.00270158 6.43445e-05 7.66807e-05
6.43445e-05 0.000905951 5.757e-05
7.66807e-05 5.757e-05 -0.000250969
0.00617988 -0.000450614 2.83682e-05
-0.000450614 0.000831471 1.41607e-05
2.83682e-05 1.41607e-05 0.0021222
0.000862331 0.000126328 -1.39829e-06
0.000126328 0.00026729 -2.51634e-06
-1.39829e-06 -2.51634e-06 0.000182628
0.00197737 -2.98855e-05 4.77916e-06
-2.98855e-05 0.000528049 -8.33571e-06
4.77916e-06 -8.33571e-06 -0.000151436
0.00138313 5.45615e-05 6.35076e-06
5.45615e-05 0.000254137 1.10929e-05
6.35076e-06 1.10929e-05 -0.000690905
-1.52894e-05 0.000117516 -4.72234e-06
0.000117516 -3.94322e-05 -4.07724e-07
-4.72234e-06 -4.07724e-07 -0.000184946
0.00270916 0.000447659 -4.24361e-05
0.000447659 0.00055384 -3.34616e-05
-4.24361e-05 -3.34616e-05 5.78017e-05
0.00289377 0.000649132 4.55389e-05
0.000649132 0.000546766 3.04494e-05
4.55389e-05 3.04494e-05 -0.00183259
0.00399872 6.19224e-05 -4.2525e-06
6.19224e-05 -0.00175104 -5.19906e-05
-4.2525e-06 -5.19906e-05 5.62103e-05
0.000707102 -0.000371116 -1.65352e-05
-0.000371116 -0.00046292 6.42103e-07
-1.65352e-05 6.42103e-07 -0.00100795
0.000894696 6.53082e-05 -2.77403e-06
6.53082e-05 0.000387543 -8.38465e-06
-2.77403e-06 -8.38465e-06 0.000313126
0.00108996 -3.82169e-05 -1.50198e-05
-3.82169e-05 0.000126941 -2.50101e-05
-1.50198e-05 -2.50101e-05 -0.000163881
0.00186201 5.59284e-06 1.27491e-05
5.59284e-06 0.000138196 -5.80563e-05
1.27491e-05 -5.80563e-05 -0.00069884
0.00151519 0.000406061 2.61904e-05
0.000406061 -0.00274433 -1.80937e-05
2.61904e-05 -1.80937e-05 -0.00152474
-0.00106429 3.88956e-05 2.43288e-06
3.88956e-05 -0.000396854 -1.02402e-05
2.43288e-06 -1.02402e-05 -0.000735701
0.010115 0.000445171 9.65018e-05
0.000445171 0.00424931 4.01758e-05
9.65018e-05 4.01758e-05 0.0018467
-0.00698308 -0.000178464 3.68095e-05
-0.000178464 -0.00113746 4.70011e-05
3.68095e-05 4.70011e-05 -0.00214775
0.00155988 0.000137171 1.40255e-05
0.000137171 0.000527412 7.79177e-06
1.40255e-05 7.79177e-06 0.000467058
0.00110521 9.32229e-05 -3.31226e-06
9.32229e-05 0.000303423 1.12553e-06
-3.31226e-06 1.12553e-06 0.00025216
0.000582381 6.97675e-05 -1.22425e-05
6.97675e-05 0.000132274 -7.67584e-06
-1.22425e-05 -7.67584e-06 8.0458e-05
0.000828239 0.000104532 3.89768e-07
0.000104532 9.55252e-05 1.16347e-06
3.89768e-07 1.16347e-06 -7.49425e-07
0.000803658 2.5459e-05 2.86573e-08
2.5459e-05 6.65904e-05 2.19029e-06
2.86573e-08 2.19029e-06 -1.62929e-05
0.000481632 -1.4716e-05 -6.85504e-07
-1.4716e-05 -6.61619e-05 9.62545e-06
-6.85504e-07 9.62545e-06 -0.00012936
0.000780022 3.68586e-05 -1.60229e-07
3.68586e-05 6.08137e-05 -3.08318e-07
-1.60229e-07 -3.08318e-07 -2.75006e-05
0.000857277 -3.51237e-05 3.01194e-07
-3.51237e-05 0.000131258 -1.18242e-06
3.01194e-07 -1.18242e-06 5.9676e-05
0.000347058 -2.10886e-05 3.67173e-06
-2.10886e-05 -7.72672e-05 3.51549e-06
3.67173e-06 3.51549e-06 -0.000129289
0.000476225 -1.18948e-05 -9.65917e-07
-1.18948e-05 2.29462e-05 -7.85543e-06
-9.65917e-07 -7.85543e-06 -1.83681e-05
0.000800346 -1.10084e-05 -1.11283e-06
-1.10084e-05 0.000101106 -4.71991e-06
-1.11283e-06 -4.71991e-06 3.2798e-05
0.000765288 2.73852e-06 -4.34498e-07
2.73852e-06 4.47989e-05 2.28738e-06
-4.34498e-07 2.28738e-06 -3.2543e-05
0.00079855 4.78302e-05 -3.68729e-07
4.78302e-05 8.68259e-05 4.80851e-07
-3.68729e-07 4.80851e-07 3.88346e-06
0.000905506 3.34568e-05 -2.46546e-06
3.34568e-05 0.000133397 2.43839e-06
-2.46546e-06 2.43839e-06 5.88243e-05
0.000777333 5.53664e-06 6.9805e-07
5.53664e-06 7.28956e-05 5.30738e-08
6.9805e-07 5.30738e-08 5.99415e-06
0.000834991 3.6221e-05 5.11584e-07
3.6221e-05 9.72768e-05 1.4851e-07
5.11584e-07 1.4851e-07 1.92784e-05
0.000681683 -4.01986e-05 2.2234e-06
-4.01986e-05 5.14735e-05 -4.47116e-08
2.2234e-06 -4.47116e-08 -2.92914e-05
0.000641772 -4.59649e-05 -9.97038e-07
-4.59649e-05 -4.19295e-06 -9.12306e-07
-9.97038e-07 -9.12306e-07 -8.71085e-05
0.000480754 -9.07005e-05 4.26887e-06
-9.07005e-05 -7.07254e-05 5.46617e-07
4.26887e-06 5.46617e-07 -0.000216022
0.00099505 -1.6601e-05 -1.61068e-06
-1.6601e-05 0.00019193 5.13397e-07
-1.61068e-06 5.13397e-07 9.94915e-05
0.00101855 -8.24905e-05 -9.44934e-07
-8.24905e-05 0.000227328 1.28003e-06
-9.44934e-07 1.28003e-06 0.000102276
0.000355115 -0.00012367 3.24694e-07
-0.00012367 -0.000168908 2.1504e-06
3.24694e-07 2.1504e-06 -0.000337385
0.000645279 -0.000135023 -4.1223e-06
-0.000135023 -5.97524e-06 -4.19408e-07
-4.1223e-06 -4.19408e-07 -0.000176478
0.000990362 -0.000122822 -1.13647e-06
-0.000122822 0.000227391 2.18645e-06
-1.13647e-06 2.18645e-06 9.49238e-05
0.00072711 -0.000137198 3.09148e-07
-0.000137198 5.50418e-05 5.589e-07
3.09148e-07 5.589e-07 -0.000109517
0.000850704 -1.64322e-05 6.53709e-07
-1.64322e-05 0.000124329 7.73689e-07
6.53709e-07 7.73689e-07 3.24654e-05
0.000980682 -4.29277e-05 -7.52713e-07
-4.29277e-05 0.000212812 -6.93796e-07
-7.52713e-07 -6.93796e-07 0.000100991
0.000640229 -6.34798e-05 6.35819e-07
-6.34798e-05 4.79414e-05 -5.03877e-06
6.35819e-07 -5.03877e-06 -7.79829e-05
0.00100794 2.89065e-05 -1.72636e-06
2.89065e-05 0.000213333 -1.07775e-06
-1.72636e-06 -1.07775e-06 0.000123797
0.000633288 2.25454e-05 1.55918e-07
2.25454e-05 -7.33976e-07 -2.40441e-08
1.55918e-07 -2.40441e-08 -8.15699e-05
0.000708962 3.81685e-05 -1.64662e-07
3.81685e-05 2.62532e-05 6.28896e-07
-1.64662e-07 6.28896e-07 -3.8185e-05
0.000821327 -1.74572e-05 -1.31422e-07
-1.74572e-05 0.000104504 2.57869e-07
-1.31422e-07 2.57869e-07 2.37114e-05
0.000747491 -1.43218e-06 -5.89058e-07
-1.43218e-06 4.51521e-05 -4.23279e-08
-5.89058e-07 -4.23279e-08 -1.74765e-05
0.000705807 3.47952e-05 -1.38434e-06
3.47952e-05 9.55057e-06 1.60414e-06
-1.38434e-06 1.60414e-06 -3.29003e-05
0.000778844 -3.56519e-05 1.19944e-06
-3.56519e-05 6.39417e-05 -4.56917e-07
1.19944e-06 -4.56917e-07 -6.01325e-07
0.000714263 2.67016e-05 -2.84034e-07
2.67016e-05 9.54899e-06 -3.28682e-09
-2.84034e-07 -3.28682e-09 -3.1736e-05
0.00131377 4.18915e-05 -7.85723e-06
4.18915e-05 0.000347063 3.29869e-06
-7.85723e-06 3.29869e-06 0.0003389
0.00072255 8.015e-06 1.53446e-06
8.015e-06 1.11311e-05 -1.57495e-06
1.53446e-06 -1.57495e-06 -2.92515e-05
0.000998099 3.12832e-05 -4.00879e-06
3.12832e-05 0.000162064 6.27845e-07
-4.00879e-06 6.27845e-07 0.000153103
0.000834289 2.72619e-05 -1.50019e-06
2.72619e-05 7.38626e-05 1.78527e-06
-1.50019e-06 1.78527e-06 8.32882e-05
0.000640675 2.08635e-05 6.10158e-07
2.08635e-05 -4.5542e-05 -3.51718e-06
6.10158e-07 -3.51718e-06 -5.55522e-05
0.00153986 2.76236e-05 6.76102e-06
2.76236e-05 0.00047002 -1.31107e-06
6.76102e-06 -1.31107e-06 0.000483842
0.00225731 2.34e-05 8.84298e-06
2.34e-05 0.000875753 -4.58888e-06
8.84298e-06 -4.58888e-06 0.000893606
0.000555474 3.42353e-06 -2.59075e-07
3.42353e-06 -5.35493e-05 -1.49632e-06
-2.59075e-07 -1.49632e-06 -0.000129339
0.000458272 -7.77763e-06 -3.78562e-07
-7.77763e-06 -0.000134346 -2.7152e-06
-3.78562e-07 -2.7152e-06 -0.00017518
0.00083187 6.16703e-08 4.11128e-08
6.16703e-08 9.91713e-05 1.02253e-07
4.11128e-08 1.02253e-07 3.2454e-05
0.000673494 -1.26582e-05 -2.5139e-07
-1.26582e-05 -3.16154e-05 -3.60184e-06
-2.5139e-07 -3.60184e-06 -3.77909e-05
0.000577828 -2.88955e-06 4.01034e-07
-2.88955e-06 -6.69459e-05 -2.68872e-08
4.01034e-07 -2.68872e-08 -0.000104142
0.00054096 -5.48428e-05 1.11781e-07
-5.48428e-05 -6.0394e-05 1.37725e-06
1.11781e-07 1.37725e-06 -0.000126429
0.00209447 -1.14046e-05 -4.88693e-06
-1.14046e-05 0.000780273 -4.64382e-06
-4.88693e-06 -4.64382e-06 0.000800566
0.000675977 -5.88971e-06 -1.60564e-07
-5.88971e-06 -3.15268e-05 -6.36751e-09
-1.60564e-07 -6.36751e-09 -3.64308e-05
0.000700231 -7.43376e-06 -4.40687e-07
-7.43376e-06 2.20033e-06 1.88551e-06
-4.40687e-07 1.88551e-06 -3.20843e-05
0.00208264 4.24162e-08 -3.01351e-06
4.24162e-08 0.000772795 1.32782e-09
-3.01351e-06 1.32782e-09 0.000793404
0.000675767 6.63136e-07 1.3125e-07
6.63136e-07 -3.18499e-05 3.48789e-06
1.3125e-07 3.48789e-06 -3.64441e-05
0.0020932 1.15549e-05 -4.67983e-06
1.15549e-05 0.000779981 4.61678e-06
-4.67983e-06 4.61678e-06 0.000800198
0.001037 -2.18966e-05 -6.72883e-05
-2.18966e-05 -6.88339e-05 2.62123e-05
-6.72883e-05 2.62123e-05 -0.000739288
0.00141511 0.000157009 -6.97918e-06
0.000157009 0.00184189 -7.34882e-06
-6.97918e-06 -7.34882e-06 0.00133103
0.00121104 -0.000191799 -7.5352e-05
-0.000191799 0.00120998 -1.58287e-05
-7.5352e-05 -1.58287e-05 0.000718307
0.000785854 4.41583e-05 -4.9925e-08
4.41583e-05 8.09184e-05 3.97148e-07
-4.9925e-08 3.97148e-07 -1.37357e-05
0.00262225 -5.08288e-05 -2.76304e-05
-5.08288e-05 0.00118512 6.38966e-05
-2.76304e-05 6.38966e-05 0.000438161
0.00265276 -7.12377e-05 -3.18094e-05
-7.12377e-05 0.000624172 3.49593e-06
-3.18094e-05 3.49593e-06 -0.000469937
0.00134129 0.000401676 9.31106e-05
0.000401676 0.00162424 -8.18113e-05
9.31106e-05 -8.18113e-05 0.00160632
0.00291612 -0.000123346 -6.27273e-06
-0.000123346 6.41879e-05 -2.1493e-05
-6.27273e-06 -2.1493e-05 -0.000207711
0.00935628 0.000212318 4.75189e-05
0.000212318 0.00325925 -3.35198e-05
4.75189e-05 -3.35198e-05 0.00165809
-0.00333864 0.000605388 -2.57469e-05
0.000605388 -0.00316599 4.20082e-05
-2.57469e-05 4.20082e-05 -0.00236992
0.00349797 0.000701307 2.40408e-05
0.000701307 -0.000485284 1.58068e-06
2.40408e-05 1.58068e-06 0.000479965
0.00406128 -0.00046857 -6.32768e-05
-0.00046857 0.000382664 5.14828e-07
-6.32768e-05 5.14828e-07 -0.000342522
0.00792268 -3.82999e-05 3.60545e-05
-3.82999e-05 0.00320544 -1.47664e-05
3.60545e-05 -1.47664e-05 0.00135708
0.00489505 0.000566257 1.86154e-05
0.000566257 0.000274471 -4.05436e-05
1.86154e-05 -4.05436e-05 0.000416504
0.00360176 0.000415715 -1.16082e-05
0.000415715 -0.00155624 1.42699e-06
-1.16082e-05 1.42699e-06 -0.000333521
0.00474896 -0.0008232 -2.05644e-06
-0.0008232 0.000828095 -1.27375e-05
-2.05644e-06 -1.27375e-05 -0.000189272
0.00984849 -0.000398019 5.27754e-05
-0.000398019 0.00481067 -7.05947e-06
5.27754e-05 -7.05947e-06 0.00193506
0.00157816 -1.30096e-05 2.71192e-05
-1.30096e-05 -0.000537183 -4.72707e-05
2.71192e-05 -4.72707e-05 -0.000668269
0.00508803 4.71032e-05 -1.32676e-05
4.71032e-05 -0.000657513 4.75215e-05
-1.32676e-05 4.75215e-05 0.000858302
0.000818233 -2.73701e-05 1.69882e-07
-2.73701e-05 0.000107171 -4.66639e-08
1.69882e-07 -4.66639e-08 -4.94184e-06
0.000815002 -3.56016e-05 5.1937e-07
-3.56016e-05 0.000116197 -3.63629e-08
5.1937e-07 -3.63629e-08 4.74998e-06
0.000935377 7.6064e-05 -9.55666e-07
7.6064e-05 0.000185105 5.75163e-07
-9.55666e-07 5.75163e-07 8.2701e-05
0.000771091 7.08627e-06 -5.48251e-07
7.08627e-06 6.26702e-05 -4.10785e-08
-5.48251e-07 -4.10785e-08 -3.23291e-05
0.000863043 6.43156e-05 -6.63075e-07
6.43156e-05 0.000132259 4.7167e-07
-6.63075e-07 4.7167e-07 2.52923e-05
0.00090637 4.67937e-05 9.55405e-07
4.67937e-05 0.000159108 1.81731e-06
9.55405e-07 1.81731e-06 6.04657e-05
0.000961812 8.47512e-05 -6.77669e-07
8.47512e-05 0.000190629 3.30718e-08
-6.77669e-07 3.30718e-08 9.33045e-05
0.00100295 9.2754e-05 9.87578e-07
9.2754e-05 0.000220966 1.60433e-06
9.87578e-07 1.60433e-06 0.000123662
0.00176012 -0.000192026 3.43009e-05
-0.000192026 0.000328744 -1.54777e-05
3.43009e-05 -1.54777e-05 0.000251768
0.000770921 -0.000231616 8.9558e-06
-0.000231616 -0.000212743 -8.53797e-06
8.9558e-06 -8.53797e-06 -0.00022223
0.000825295 -0.000130665 -3.34835e-07
-0.000130665 0.00013499 8.93983e-07
-3.34835e-07 8.93983e-07 1.50623e-05
0.00185056 -0.000119615 5.39721e-06
-0.000119615 0.000683758 -1.04229e-05
5.39721e-06 -1.04229e-05 0.000497817
0.00127167 -8.53247e-05 -1.03306e-06
-8.53247e-05 0.000383053 -6.84487e-07
-1.03306e-06 -6.84487e-07 0.000238607
0.000946607 -3.60946e-05 -8.60124e-07
-3.60946e-05 0.00019846 1.16881e-06
-8.60124e-07 1.16881e-06 7.55345e-05
0.000876537 1.79342e-05 5.44023e-08
1.79342e-05 0.000146003 -1.68945e-07
5.44023e-08 -1.68945e-07 2.99908e-05
0.000682559 -0.000313582 -8.08617e-06
-0.000313582 -0.000288216 6.00462e-07
-8.08617e-06 6.00462e-07 -0.000322617
0.000859105 2.32026e-05 -3.27642e-07
2.32026e-05 0.000152803 1.27962e-07
-3.27642e-07 1.27962e-07 1.25627e-05
0.000931248 -5.60311e-05 5.73472e-08
-5.60311e-05 0.000168491 8.79617e-07
5.73472e-08 8.79617e-07 3.82416e-05
0.000377832 -9.19381e-05 6.06672e-07
-9.19381e-05 -7.15807e-05 3.65776e-06
6.06672e-07 3.65776e-06 -0.00013642
0.000733659 1.0468e-05 6.58939e-07
1.0468e-05 4.16707e-05 8.79639e-07
6.58939e-07 8.79639e-07 -5.51863e-05
0.000654817 -0.000278173 4.49494e-05
-0.000278173 -0.000213932 -3.01616e-05
4.49494e-05 -3.01616e-05 -0.000132497
0.00088176 -7.14618e-05 -1.08135e-05
-7.14618e-05 0.000412633 1.9774e-05
-1.08135e-05 1.9774e-05 0.00030057
0.000686072 -7.24025e-07 -1.3121e-06
-7.24025e-07 4.59178e-05 7.87808e-06
-1.3121e-06 7.87808e-06 -7.37217e-05
0.00100003 0.000125844 1.46331e-06
0.000125844 0.000223543 4.55821e-07
1.46331e-06 4.55821e-07 9.79437e-05
0.00135648 -2.04793e-05 -2.28657e-05
-2.04793e-05 0.000297333 -9.87719e-07
-2.28657e-05 -9.87719e-07 8.70762e-05
0.00130105 -3.04531e-05 4.17534e-05
-3.04531e-05 0.000215611 -3.04418e-06
4.17534e-05 -3.04418e-06 -0.000398827
-0.0026304 -4.1653e-05 -2.36639e-05
-4.1653e-05 0.000360884 2.04704e-06
-2.36639e-05 2.04704e-06 -0.000726564
0.0010699 0.000129381 1.62008e-05
0.000129381 0.000405916 3.76615e-06
1.62008e-05 3.76615e-06 0.000318565
-4.31916e-05 0.00018587 1.96761e-05
0.00018587 -6.53332e-05 1.10605e-05
1.96761e-05 1.10605e-05 -0.000244368
0.00221551 -2.91631e-05 7.00096e-05
-2.91631e-05 0.000754012 1.27399e-05
7.00096e-05 1.27399e-05 0.000164573
0.00777331 -3.1952e-05 9.23111e-05
-3.1952e-05 0.00336724 4.3433e-05
9.23111e-05 4.3433e-05 0.000909516
0.00241395 0.000459799 -7.76073e-05
0.000459799 0.000591142 -8.55782e-05
-7.76073e-05 -8.55782e-05 -0.000294074
0.00313832 -0.000273065 2.11224e-05
-0.000273065 0.000348781 -3.68891e-05
2.11224e-05 -3.68891e-05 -0.000287012
0.00165634 6.29951e-05 2.91634e-05
6.29951e-05 0.000258341 8.519e-05
2.91634e-05 8.519e-05 -0.000707646
0.00299046 -8.9031e-06 3.15495e-06
-8.9031e-06 -0.00291843 -3.63935e-05
3.15495e-06 -3.63935e-05 -0.000777833
0.000705901 9.96833e-05 5.65531e-08
9.96833e-05 0.000287892 -1.113e-06
5.65531e-08 -1.113e-06 0.000200789
0.00119382 -3.4763e-05 -3.64888e-07
-3.4763e-05 0.000195026 -8.3405e-06
-3.64888e-07 -8.3405e-06 -8.09867e-05
0.00221424 1.31122e-05 2.00801e-05
1.31122e-05 0.000477851 6.34981e-06
2.00801e-05 6.34981e-06 -0.000232636
-0.000890881 7.54535e-05 -1.25791e-05
7.54535e-05 -0.000366696 -4.75501e-06
-1.25791e-05 -4.75501e-06 -0.000637992
0.00374245 0.000445913 8.76423e-06
0.000445913 -0.00153306 -8.6414e-07
8.76423e-06 -8.6414e-07 -0.000314305
0.0056716 0.000673671 6.07556e-05
0.000673671 0.0021945 1.92141e-05
6.07556e-05 1.92141e-05 -0.000251456
0.00304202 0.00018282 -4.29585e-05
0.00018282 0.00165184 1.42968e-06
-4.29585e-05 1.42968e-06 0.0011021
0.000417568 0.000129695 -2.29139e-05
0.000129695 0.00020717 -1.11997e-05
-2.29139e-05 -1.11997e-05 6.38043e-05
0.0016434 7.16137e-06 -8.27083e-07
7.16137e-06 0.000265018 -2.45529e-05
-8.27083e-07 -2.45529e-05 3.08648e-05
0.0027284 -3.91904e-05 2.82743e-05
-3.91904e-05 0.00114822 -6.48833e-05
2.82743e-05 -6.48833e-05 0.000446649
0.0044103 0.000706309 7.94882e-05
0.000706309 -0.000167452 -6.50327e-05
7.94882e-05 -6.50327e-05 0.000834267
0.00329284 0.000103481 -4.11849e-05
0.000103481 -2.06711e-05 4.44019e-05
-4.11849e-05 4.44019e-05 5.54082e-05
0.00215417 0.000241375 1.45181e-05
0.000241375 0.000353943 -2.8458e-05
1.45181e-05 -2.8458e-05 0.000394236
0.0010752 0.000218865 7.75245e-05
0.000218865 0.00161751 2.85759e-05
7.75245e-05 2.85759e-05 -0.00196566
0.000670211 0.000102607 5.62679e-06
0.000102607 6.09309e-05 6.8473e-06
5.62679e-06 6.8473e-06 5.89334e-06
0.00070258 5.3339e-05 7.80768e-06
5.3339e-05 0.000197325 1.29574e-06
7.80768e-06 1.29574e-06 0.000145838
7.33656e-05 9.82006e-06 -3.94988e-07
9.82006e-06 7.21839e-05 -1.57077e-05
-3.94988e-07 -1.57077e-05 -1.448e-05
0.000675743 6.29908e-06 2.05623e-07
6.29908e-06 -4.24902e-06 2.43348e-06
2.05623e-07 2.43348e-06 -8.61648e-05
0.000663358 -3.41618e-05 3.78671e-07
-3.41618e-05 2.34508e-05 4.37824e-06
3.78671e-07 4.37824e-06 -4.7894e-05
0.000476148 -2.77807e-05 -1.06338e-06
-2.77807e-05 -1.97841e-05 1.0871e-05
-1.06338e-06 1.0871e-05 -7.50032e-05
0.000736865 -2.33184e-05 -1.84597e-08
-2.33184e-05 6.5015e-05 -3.84926e-07
-1.84597e-08 -3.84926e-07 -4.19053e-06
0.000515468 -1.48807e-05 3.15392e-06
-1.48807e-05 3.79064e-05 2.23808e-06
3.15392e-06 2.23808e-06 -3.36159e-06
0.000563259 -0.000112595 4.48501e-06
-0.000112595 0.000161879 -5.70386e-06
4.48501e-06 -5.70386e-06 2.48309e-05
0.000936259 -1.02119e-07 -8.43517e-07
-1.02119e-07 0.000157749 2.71095e-06
-8.43517e-07 2.71095e-06 8.992e-05
0.000724521 4.6978e-05 -1.13353e-06
4.6978e-05 3.74199e-05 1.82674e-06
-1.13353e-06 1.82674e-06 -4.0648e-05
0.00118872 -6.83679e-05 1.02273e-06
-6.83679e-05 0.000322673 1.11327e-06
1.02273e-06 1.11327e-06 0.000234993
0.000184455 -7.40609e-05 4.08207e-06
-7.40609e-05 -0.000134086 1.50022e-06
4.08207e-06 1.50022e-06 -0.000319203
0.000560376 -1.88762e-05 -4.62998e-06
-1.88762e-05 -3.33608e-05 7.10491e-07
-4.62998e-06 7.10491e-07 -0.000108872
0.000303162 -8.31783e-05 1.36265e-06
-8.31783e-05 -0.000165347 -6.02428e-07
1.36265e-06 -6.02428e-07 -0.000300446
0.00104399 -0.00018272 5.32781e-06
-0.00018272 0.000216169 -1.29434e-06
5.32781e-06 -1.29434e-06 1.44401e-05
0.0011573 -0.00020041 -1.39192e-06
-0.00020041 0.000175775 4.30904e-06
-1.39192e-06 4.30904e-06 -2.90656e-05
0.00147359 -0.000118795 -2.32203e-06
-0.000118795 0.000470643 -3.1765e-07
-2.32203e-06 -3.1765e-07 0.00034059
0.00064112 -0.000146062 -3.55252e-07
-0.000146062 -1.76692e-05 -1.43736e-08
-3.55252e-07 -1.43736e-08 -0.000192583
0.00163226 -0.000215716 1.21724e-06
-0.000215716 0.000513662 -1.49897e-06
1.21724e-06 -1.49897e-06 0.000345114
0.00036206 -9.37351e-05 -1.62983e-06
-9.37351e-05 -0.000120502 -4.22333e-07
-1.62983e-06 -4.22333e-07 -0.00027062
0.000898028 -0.000152585 -1.68748e-07
-0.000152585 0.000134938 7.17187e-07
-1.68748e-07 7.17187e-07 -3.34952e-05
0.00078186 -1.78338e-05 8.69103e-08
-1.78338e-05 9.32103e-05 7.66717e-07
8.69103e-08 7.66717e-07 -1.05895e-05
0.00101521 -0.000122194 -2.25487e-06
-0.000122194 0.000240276 1.78716e-06
-2.25487e-06 1.78716e-06 0.000106555
0.000499583 -0.00011771 -1.26725e-06
-0.00011771 -6.82621e-05 -9.81386e-07
-1.26725e-06 -9.81386e-07 -0.000228682
0.000716482 4.6142e-05 2.71297e-07
4.6142e-05 3.77114e-05 8.92833e-07
2.71297e-07 8.92833e-07 -3.49769e-05
0.000715341 -8.09343e-06 7.29434e-07
-8.09343e-06 5.09862e-05 -1.06899e-07
7.29434e-07 -1.06899e-07 -4.19991e-05
0.00081893 -3.82224e-05 1.31539e-06
-3.82224e-05 0.000126733 -2.68615e-06
1.31539e-06 -2.68615e-06 1.16158e-05
0.000784107 1.08873e-05 4.77118e-08
1.08873e-05 8.37196e-05 -5.62586e-07
4.77118e-08 -5.62586e-07 3.14672e-06
0.000754396 1.16069e-05 -5.2711e-07
1.16069e-05 5.17249e-05 -1.43853e-07
-5.2711e-07 -1.43853e-07 -1.36102e-05
0.00069746 4.0928e-05 -1.55526e-06
4.0928e-05 1.05249e-05 1.53375e-06
-1.55526e-06 1.53375e-06 -3.38301e-05
0.000783033 -2.31163e-05 8.55358e-07
-2.31163e-05 6.66835e-05 -6.31856e-07
8.55358e-07 -6.31856e-07 2.35909e-06
0.000709902 3.26437e-05 -1.56007e-07
3.26437e-05 1.10558e-05 8.31738e-10
-1.56007e-07 8.31738e-10 -3.1128e-05
0.000639705 4.05881e-05 -1.09868e-06
4.05881e-05 -2.98651e-05 3.59779e-06
-1.09868e-06 3.59779e-06 -4.29944e-05
0.000726566 1.84912e-05 1.54874e-06
1.84912e-05 1.51682e-05 -1.60538e-06
1.54874e-06 -1.60538e-06 -2.55474e-05
0.000649054 3.45151e-05 1.18722e-07
3.45151e-05 -3.14401e-05 3.04788e-08
1.18722e-07 3.04788e-08 -4.30216e-05
0.00212984 5.70244e-05 -4.64927e-06
5.70244e-05 0.000818134 1.69229e-06
-4.64927e-06 1.69229e-06 0.000832375
0.000639878 2.78422e-05 7.85767e-07
2.78422e-05 -4.21864e-05 -3.55429e-06
7.85767e-07 -3.55429e-06 -5.27817e-05
0.00152547 3.62575e-05 8.21191e-06
3.62575e-05 0.000467097 -1.1761e-06
8.21191e-06 -1.1761e-06 0.000479879
0.00224657 3.41417e-05 1.28156e-05
3.41417e-05 0.000873761 -4.37619e-06
1.28156e-05 -4.37619e-06 0.000890755
0.00057073 -1.24293e-05 -2.065e-07
-1.24293e-05 -5.40957e-05 -1.19571e-06
-2.065e-07 -1.19571e-06 -0.000127165
0.000436606 -1.01667e-05 -3.70349e-07
-1.01667e-05 -0.000146781 -2.62783e-06
-3.70349e-07 -2.62783e-06 -0.000191214
0.000706508 7.9587e-06 -3.85618e-07
7.9587e-06 3.01007e-05 -6.39492e-07
-3.85618e-07 -6.39492e-07 -4.40051e-05
0.000666831 -1.92637e-05 -2.75969e-07
-1.92637e-05 -3.27632e-05 -3.69479e-06
-2.75969e-07 -3.69479e-06 -4.1004e-05
0.000437026 -8.58135e-06 -1.43078e-07
-8.58135e-06 -0.000146278 -8.08225e-07
-1.43078e-07 -8.08225e-07 -0.00018757
0.000854979 1.04833e-05 -2.29002e-08
1.04833e-05 0.00011786 1.21614e-06
-2.29002e-08 1.21614e-06 4.728e-05
0.00213706 -2.21192e-05 -8.97818e-06
-2.21192e-05 0.000806646 -4.60244e-06
-8.97818e-06 -4.60244e-06 0.000825943
0.000672707 -1.24099e-05 -1.27429e-07
-1.24099e-05 -3.19908e-05 -2.44512e-08
-1.27429e-07 -2.44512e-08 -3.81162e-05
0.000424847 -7.56267e-06 2.20785e-07
-7.56267e-06 -0.000152765 1.93147e-06
2.20785e-07 1.93147e-06 -0.000191226
0.00209041 -1.0459e-05 -3.08386e-06
-1.0459e-05 0.000777738 3.04002e-08
-3.08386e-06 3.04002e-08 0.000798129
0.000676956 -5.67247e-06 2.25653e-07
-5.67247e-06 -3.09675e-05 3.4882e-06
2.25653e-07 3.4882e-06 -3.58414e-05
0.0020864 1.00638e-06 -2.19061e-07
1.00638e-06 0.00077494 4.66253e-06
-2.19061e-07 4.66253e-06 0.000795514
0.00150755 2.01027e-05 -1.61997e-05
2.01027e-05 0.000452148 1.99466e-05
-1.61997e-05 1.99466e-05 0.000184207
0.00152456 -9.20123e-06 9.86245e-06
-9.20123e-06 0.000257134 -3.01178e-06
9.86245e-06 -3.01178e-06 -0.000411899
0.00173684 0.000117597 4.24778e-05
0.000117597 0.00203073 -2.62867e-05
4.24778e-05 -2.62867e-05 0.00159017
0.000835634 4.70285e-05 -5.98929e-10
4.70285e-05 0.000104038 2.01487e-07
-5.98929e-10 2.01487e-07 1.3894e-05
0.000727642 1.6332e-05 6.13323e-08
1.6332e-05 3.34777e-05 4.36204e-07
6.13323e-08 4.36204e-07 -5.01974e-05
0.000901039 6.80092e-05 -2.23047e-07
6.80092e-05 0.000137594 1.06319e-06
-2.23047e-07 1.06319e-06 4.27795e-05
0.00172588 -6.56491e-06 2.56839e-06
-6.56491e-06 0.000116601 0.000101827
2.56839e-06 0.000101827 -0.000743288
0.00260588 -3.56155e-05 -5.664e-06
-3.56155e-05 0.00115213 8.40509e-07
-5.664e-06 8.40509e-07 0.000398415
0.00295302 -8.63985e-05 5.07245e-05
-8.63985e-05 0.000852867 -7.36669e-05
5.07245e-05 -7.36669e-05 -0.000298593
0.0044677 -0.000492859 -4.83268e-05
-0.000492859 0.000806308 -8.19943e-07
-4.83268e-05 -8.19943e-07 5.32767e-05
0.00126354 -0.000236276 -6.97365e-05
-0.000236276 7.94871e-05 4.01495e-05
-6.97365e-05 4.01495e-05 -0.0020593
0.00641735 0.000728403 6.27674e-05
0.000728403 0.00180918 3.34186e-06
6.27674e-05 3.34186e-06 0.00171556
0.00140341 0.000226403 1.90354e-05
0.000226403 -0.00286503 -4.85738e-05
1.90354e-05 -4.85738e-05 -0.00160596
0.00507924 -0.000832219 -8.03737e-06
-0.000832219 0.00134879 5.17458e-06
-8.03737e-06 5.17458e-06 0.000616416
0.00569115 -0.000382525 7.70658e-06
-0.000382525 0.00250083 1.72042e-06
7.70658e-06 1.72042e-06 7.87459e-05
-0.00153303 0.000193823 -8.67245e-06
0.000193823 -0.000821781 -3.91524e-05
-8.67245e-06 -3.91524e-05 -0.00147778
0.00397463 -1.57453e-05 -9.87512e-06
-1.57453e-05 -0.00177316 1.61695e-05
-9.87512e-06 1.61695e-05 1.10994e-05
0.00265217 -0.000621854 -2.50849e-05
-0.000621854 0.000143261 -2.58517e-05
-2.50849e-05 -2.58517e-05 -0.000498241
0.0105221 -0.000669293 3.20559e-05
-0.000669293 0.00488069 2.64703e-05
3.20559e-05 2.64703e-05 0.0019977
-0.00705018 -6.12257e-06 4.67036e-05
-6.12257e-06 -0.00108402 -7.22038e-05
4.67036e-05 -7.22038e-05 -0.00221544
0.00222188 -0.000383599 6.33945e-07
-0.000383599 -0.00198031 1.99311e-07
6.33945e-07 1.99311e-07 -0.000664542
0.000819087 2.58189e-05 -2.87633e-07
2.58189e-05 9.02052e-05 9.53802e-07
-2.87633e-07 9.53802e-07 -1.28599e-05
0.000790769 -4.63386e-06 1.0119e-07
-4.63386e-06 9.17052e-05 -2.39347e-07
1.0119e-07 -2.39347e-07 -2.09586e-05
0.000793851 -4.96893e-05 6.02993e-07
-4.96893e-05 0.00010591 3.28651e-07
6.02993e-07 3.28651e-07 -7.31246e-06
0.000810056 3.03104e-05 -4.19007e-07
3.03104e-05 8.57679e-05 -3.84801e-07
-4.19007e-07 -3.84801e-07 -1.10099e-05
0.000974956 0.00010515 1.44841e-06
0.00010515 0.000194554 6.34643e-07
1.44841e-06 6.34643e-07 8.89107e-05
0.00104063 9.56383e-05 -3.96821e-07
9.56383e-05 0.000235724 4.15628e-07
-3.96821e-07 4.15628e-07 0.000137101
0.00159327 -0.000363311 4.96258e-06
-0.000363311 0.000175009 5.30833e-06
4.96258e-06 5.30833e-06 9.58847e-05
-0.000680021 -6.03416e-05 9.97141e-06
-6.03416e-05 -0.000654138 -1.19521e-05
9.97141e-06 -1.19521e-05 -0.000681523
0.000991488 6.2717e-05 2.29483e-07
6.2717e-05 0.000216225 3.81118e-07
2.29483e-07 3.81118e-07 9.48155e-05
0.00133038 -0.000105524 1.14733e-05
-0.000105524 0.000364546 -1.66581e-05
1.14733e-05 -1.66581e-05 0.000235061
0.000938009 1.20891e-06 -6.43232e-08
1.20891e-06 0.000197867 -1.93726e-06
-6.43232e-08 -1.93726e-06 6.11798e-05
0.000769796 1.23676e-05 3.781e-07
1.23676e-05 6.30016e-05 -7.60442e-08
3.781e-07 -7.60442e-08 -3.80531e-05
0.000890027 7.06187e-05 6.14593e-07
7.06187e-05 0.000157863 -3.64568e-07
6.14593e-07 -3.64568e-07 4.05684e-05
0.000420691 -0.000268236 -3.66848e-06
-0.000268236 -0.00033907 -2.49426e-06
-3.66848e-06 -2.49426e-06 -0.000341432
0.000958906 -3.55498e-05 1.37694e-06
-3.55498e-05 0.000204768 -3.03992e-06
1.37694e-06 -3.03992e-06 9.41769e-05
0.000422092 -3.36232e-05 1.69876e-05
-3.36232e-05 0.000170847 7.73882e-08
1.69876e-05 7.73882e-08 6.29549e-05
0.000936222 4.23162e-05 1.6996e-06
4.23162e-05 0.00016618 7.43709e-07
1.6996e-06 7.43709e-07 6.91524e-05
-0.00225424 6.45299e-05 -1.69754e-05
6.45299e-05 -0.00107791 -2.7333e-05
-1.69754e-05 -2.7333e-05 -0.00140354
0.000793501 -1.17872e-05 -9.52391e-08
-1.17872e-05 0.000330137 2.27417e-05
-9.52391e-08 2.27417e-05 0.000272168
0.000989758 4.66931e-06 1.53136e-06
4.66931e-06 0.000253678 2.7544e-06
1.53136e-06 2.7544e-06 0.000157499
0.00171886 -1.23795e-05 -2.40949e-06
-1.23795e-05 0.000253141 3.13987e-07
-2.40949e-06 3.13987e-07 0.000126248
0.00113342 -1.5748e-05 -9.02451e-06
-1.5748e-05 0.000171761 -2.40205e-06
-9.02451e-06 -2.40205e-06 -1.31402e-05
0.00114901 -3.56666e-05 0.000121407
-3.56666e-05 0.000153804 -1.66587e-06
0.000121407 -1.66587e-06 -0.00046925
0.000997662 0.000147858 1.94722e-05
0.000147858 0.000441683 1.26307e-05
1.94722e-05 1.26307e-05 0.000345265
0.0029251 0.000368692 -5.15566e-07
0.000368692 0.00116092 -1.64577e-05
-5.15566e-07 -1.64577e-05 0.000989082
0.00126478 -3.20119e-05 1.15489e-05
-3.20119e-05 0.000239572 8.07073e-06
1.15489e-05 8.07073e-06 -2.20196e-05
-0.000290487 0.000349537 3.89578e-06
0.000349537 -0.000140708 1.24836e-05
3.89578e-06 1.24836e-05 -0.00259698
-0.00918636 2.73501e-05 -3.57041e-05
2.73501e-05 -0.00363502 -6.30378e-05
-3.57041e-05 -6.30378e-05 -0.00478891
0.0025599 2.10887e-05 2.37523e-05
2.10887e-05 0.000819828 5.36804e-05
2.37523e-05 5.36804e-05 0.000248031
0.00158463 0.000289216 -1.82069e-05
0.000289216 -0.00282082 4.97686e-05
-1.82069e-05 4.97686e-05 -0.00155104
0.000473327 0.00010055 3.24839e-06
0.00010055 0.000264531 -9.47424e-07
3.24839e-06 -9.47424e-07 0.000136285
0.00140407 -3.62945e-06 5.93933e-06
-3.62945e-06 0.000133804 -1.06445e-05
5.93933e-06 -1.06445e-05 -6.96988e-05
0.00267226 -2.77404e-05 5.04963e-06
-2.77404e-05 0.00110118 -1.23824e-06
5.04963e-06 -1.23824e-06 0.000381297
0.00110999 0.000201365 2.36083e-05
0.000201365 -0.000202868 -2.34588e-06
2.36083e-05 -2.34588e-06 -0.000452968
0.00196534 0.000657213 2.57212e-05
0.000657213 -0.00154943 -5.80228e-05
2.57212e-05 -5.80228e-05 -0.000499048
-0.00136387 0.000198997 8.1311e-06
0.000198997 -0.00134903 3.57054e-05
8.1311e-06 3.57054e-05 -0.00157346
0.00659023 4.77829e-05 5.80834e-05
4.77829e-05 0.00397327 -1.90773e-05
5.80834e-05 -1.90773e-05 0.000309893
0.000230533 9.33244e-06 1.64651e-05
9.33244e-06 0.000381232 -1.08984e-05
1.64651e-05 -1.08984e-05 0.000108029
0.00147579 2.1791e-05 1.39415e-05
2.1791e-05 0.000404479 -1.97862e-05
1.39415e-05 -1.97862e-05 0.000146107
0.00257812 -4.13882e-05 0.000113389
-4.13882e-05 0.000425606 -9.25761e-05
0.000113389 -9.25761e-05 -0.000550672
0.00267139 0.000910441 -7.74166e-07
0.000910441 0.00127172 -1.16049e-05
-7.74166e-07 -1.16049e-05 0.00235137
-0.00597081 0.000283526 4.18344e-05
0.000283526 -0.00473092 0.000110445
4.18344e-05 0.000110445 -0.004444
0.0106446 -0.00040655 4.58549e-05
-0.00040655 0.00453621 -6.2647e-05
4.58549e-05 -6.2647e-05 0.00172351
0.00482847 -0.000326959 -8.36446e-05
-0.000326959 0.00134351 0.000114483
-8.36446e-05 0.000114483 0.00134791
0.00113185 5.65109e-05 4.09893e-06
5.65109e-05 0.000441614 6.42696e-06
4.09893e-06 6.42696e-06 0.000387472
7.84238e-05 -1.55622e-05 -5.52503e-06
-1.55622e-05 4.52111e-05 -1.36192e-06
-5.52503e-06 -1.36192e-06 -4.80883e-05
-0.000172692 -0.000129003 5.34676e-06
-0.000129003 -8.6542e-06 -1.24326e-05
5.34676e-06 -1.24326e-05 -0.000219513
0.000739902 -3.5974e-05 7.63105e-07
-3.5974e-05 6.81929e-05 1.7702e-06
7.63105e-07 1.7702e-06 -3.44138e-06
0.000523934 -1.29575e-05 1.19829e-05
-1.29575e-05 3.72675e-05 1.31544e-05
1.19829e-05 1.31544e-05 -3.13681e-06
0.000381945 -6.19963e-05 -1.27135e-06
-6.19963e-05 6.38802e-05 1.61006e-07
-1.27135e-06 1.61006e-07 -5.77375e-05
0.00112444 -0.000178259 1.96049e-05
-0.000178259 0.00046889 -1.2781e-05
1.96049e-05 -1.2781e-05 0.000229367
0.00173559 -9.78071e-05 -2.91799e-06
-9.78071e-05 0.000615994 2.52248e-06
-2.91799e-06 2.52248e-06 0.000521456
0.00134955 -0.000182351 1.29494e-06
-0.000182351 0.00046017 4.1586e-07
1.29494e-06 4.1586e-07 0.000269513
0.00102201 -0.000197838 8.06758e-06
-0.000197838 0.000282331 2.37714e-06
8.06758e-06 2.37714e-06 -2.18516e-05
0.000104203 -7.11878e-05 -2.17247e-06
-7.11878e-05 -0.000272656 -1.55973e-06
-2.17247e-06 -1.55973e-06 -0.000396454
0.00106591 -0.000182028 -3.91975e-07
-0.000182028 0.000218887 1.10263e-06
-3.91975e-07 1.10263e-06 1.08709e-05
0.00228356 -0.000307521 2.17699e-06
-0.000307521 0.000776847 1.48733e-06
2.17699e-06 1.48733e-06 0.000520715
0.00165115 -0.000265996 -2.94347e-06
-0.000265996 0.000308073 1.52837e-06
-2.94347e-06 1.52837e-06 8.08471e-05
0.000566345 -0.000149654 -1.67294e-07
-0.000149654 -0.000124889 5.58691e-06
-1.67294e-07 5.58691e-06 -0.000306628
0.00129797 -0.000211207 -2.28297e-06
-0.000211207 0.000254015 1.41322e-06
-2.28297e-06 1.41322e-06 4.62198e-05
0.00091552 -0.000167644 -3.59918e-06
-0.000167644 0.000126798 7.52675e-07
-3.59918e-06 7.52675e-07 -5.44087e-05
0.00138513 -0.000190968 3.09673e-06
-0.000190968 0.000400956 -2.82157e-06
3.09673e-06 -2.82157e-06 0.000241426
0.00117891 -0.000179287 2.5969e-06
-0.000179287 0.000268118 -2.2113e-06
2.5969e-06 -2.2113e-06 0.000110279
0.000495541 -4.3995e-05 1.27111e-06
-4.3995e-05 -5.60983e-05 1.11093e-06
1.27111e-06 1.11093e-06 -0.000184748
0.000754506 -0.000120811 1.06648e-06
-0.000120811 9.81352e-05 -3.42496e-07
1.06648e-06 -3.42496e-07 -5.34198e-05
0.00113721 -0.000168918 4.82211e-06
-0.000168918 0.000267787 -2.95603e-06
4.82211e-06 -2.95603e-06 0.000102088
0.000724189 5.63131e-05 9.80375e-07
5.63131e-05 5.18228e-05 1.3105e-06
9.80375e-07 1.3105e-06 -3.44534e-05
0.000876112 -4.01385e-05 -2.39747e-07
-4.01385e-05 0.000147463 -1.34219e-07
-2.39747e-07 -1.34219e-07 3.97919e-05
0.00100508 -0.0001184 -6.6288e-07
-0.0001184 0.000233047 -2.78651e-07
-6.6288e-07 -2.78651e-07 9.89908e-05
0.000674387 5.07123e-05 -9.55451e-07
5.07123e-05 6.18326e-06 1.63201e-06
-9.55451e-07 1.63201e-06 -4.28697e-05
0.000755141 2.05599e-05 -6.99834e-07
2.05599e-05 5.76765e-05 -2.82445e-07
-6.99834e-07 -2.82445e-07 -1.49682e-05
0.000582965 5.88478e-08 -1.25973e-07
5.88478e-08 -2.04913e-05 -8.58688e-07
-1.25973e-07 -8.58688e-07 -0.000114759
0.000790401 -1.17221e-05 7.35e-07
-1.17221e-05 7.17307e-05 -9.65091e-07
7.35e-07 -9.65091e-07 5.70675e-06
0.000705399 3.74173e-05 -2.7672e-07
3.74173e-05 1.43696e-05 -4.73551e-08
-2.7672e-07 -4.73551e-08 -2.97338e-05
0.000623323 4.69612e-05 -1.23879e-06
4.69612e-05 -3.06493e-05 3.628e-06
-1.23879e-06 3.628e-06 -4.60422e-05
0.000718127 2.81171e-05 1.61851e-06
2.81171e-05 1.46359e-05 -1.62548e-06
1.61851e-06 -1.62548e-06 -2.71172e-05
0.000642569 4.14377e-05 7.4078e-08
4.14377e-05 -2.82334e-05 1.42451e-08
7.4078e-08 1.42451e-08 -4.1413e-05
0.00216655 6.19991e-05 -2.26361e-05
6.19991e-05 0.00084589 3.6651e-06
-2.26361e-05 3.6651e-06 0.000859001
0.0006437 3.51154e-05 8.85058e-07
3.51154e-05 -3.46453e-05 -3.57214e-06
8.85058e-07 -3.57214e-06 -4.6227e-05
0.00150712 4.50619e-05 9.60425e-06
4.50619e-05 0.000463628 -1.03097e-06
9.60425e-06 -1.03097e-06 0.00047499
0.00222432 4.44649e-05 1.64673e-05
4.44649e-05 0.000866461 -4.10236e-06
1.64673e-05 -4.10236e-06 0.000882367
0.000756177 3.80508e-05 -6.0489e-07
3.80508e-05 4.86928e-05 -4.91398e-07
-6.0489e-07 -4.91398e-07 -2.50522e-05
0.000702003 -4.53019e-06 -7.06046e-07
-4.53019e-06 1.51168e-06 -1.91453e-06
-7.06046e-07 -1.91453e-06 -4.35552e-05
0.000658192 2.50232e-05 -8.39388e-07
2.50232e-05 9.37394e-07 -5.76791e-07
-8.39388e-07 -5.76791e-07 -7.57356e-05
0.000654706 -2.60965e-05 -1.39187e-07
-2.60965e-05 -3.56892e-05 -3.83121e-06
-1.39187e-07 -3.83121e-06 -4.65219e-05
0.000563398 -5.24936e-06 -6.02072e-07
-5.24936e-06 -7.56795e-05 -8.09591e-07
-6.02072e-07 -8.09591e-07 -0.000119082
0.000859693 1.50818e-05 2.5073e-07
1.50818e-05 0.000116485 2.3302e-07
2.5073e-07 2.3302e-07 4.30261e-05
0.00219994 -3.29543e-05 -1.32288e-05
-3.29543e-05 0.00084581 -4.50533e-06
-1.32288e-05 -4.50533e-06 0.000863601
0.000665276 -1.89021e-05 -2.04542e-07
-1.89021e-05 -3.3653e-05 -2.0279e-08
-2.04542e-07 -2.0279e-08 -4.18083e-05
0.000412993 -9.00089e-06 -1.37566e-07
-9.00089e-06 -0.000159846 1.19174e-06
-1.37566e-07 1.19174e-06 -0.000201542
0.00212711 -2.11508e-05 -2.92976e-06
-2.11508e-05 0.00080057 6.20999e-08
-2.92976e-06 6.20999e-08 0.00082008
0.000672798 -1.21827e-05 2.99695e-07
-1.21827e-05 -3.18583e-05 3.56148e-06
2.99695e-07 3.56148e-06 -3.79442e-05
0.00208967 -9.50406e-06 4.20438e-06
-9.50406e-06 0.000777092 4.65754e-06
4.20438e-06 4.65754e-06 0.000797539
0.00160005 -9.88481e-06 -3.79861e-06
-9.88481e-06 0.000266645 2.65682e-05
-3.79861e-06 2.65682e-05 3.39462e-06
0.00140366 1.42721e-05 -4.17907e-06
1.42721e-05 0.000369844 5.07843e-07
-4.17907e-06 5.07843e-07 8.27487e-05
0.00168695 -1.53549e-06 8.69288e-05
-1.53549e-06 0.000407232 -2.27778e-05
8.69288e-05 -2.27778e-05 -0.000277209
0.000701751 -2.27975e-05 -1.94169e-08
-2.27975e-05 1.36562e-05 -1.78298e-07
-1.94169e-08 -1.78298e-07 -6.46373e-05
0.0008751 6.3354e-06 -7.30562e-07
6.3354e-06 0.000119413 -3.89647e-07
-7.30562e-07 -3.89647e-07 3.35507e-05
0.000858021 4.39872e-05 1.31633e-06
4.39872e-05 0.000115531 3.14299e-08
1.31633e-06 3.14299e-08 2.78132e-05
0.000732298 1.42906e-06 1.51385e-07
1.42906e-06 3.13906e-05 9.59699e-08
1.51385e-07 9.59699e-08 -4.87285e-05
0.000815676 2.62081e-05 -3.58369e-08
2.62081e-05 8.91018e-05 2.2864e-07
-3.58369e-08 2.2864e-07 -4.61258e-06
0.000836735 6.91194e-06 -9.87066e-07
6.91194e-06 9.74717e-05 4.85222e-07
-9.87066e-07 4.85222e-07 1.0504e-05
0.000908182 0.000136916 8.18868e-07
0.000136916 0.000153841 9.52854e-07
8.18868e-07 9.52854e-07 4.62944e-05
0.000955963 2.1467e-05 2.99872e-05
2.1467e-05 0.000211041 9.96871e-05
2.99872e-05 9.96871e-05 -0.000731946
0.00213474 2.57284e-06 -4.55823e-06
2.57284e-06 0.000509467 2.97342e-05
-4.55823e-06 2.97342e-05 -0.000199862
0.00254 -1.91046e-05 1.55147e-05
-1.91046e-05 0.00108897 -5.68667e-05
1.55147e-05 -5.68667e-05 0.000329522
0.0028347 -5.97545e-05 -1.25891e-05
-5.97545e-05 -0.00292452 4.54123e-06
-1.25891e-05 4.54123e-06 -0.000870338
0.00353647 -0.000718581 -3.13234e-05
-0.000718581 0.00088684 5.60152e-05
-3.13234e-05 5.60152e-05 -1.73162e-05
-0.0012477 -0.000558339 3.57851e-05
-0.000558339 -0.000762548 1.64076e-05
3.57851e-05 1.64076e-05 -0.00335506
0.00570621 0.000751627 4.12795e-05
0.000751627 0.00318858 -2.62083e-05
4.12795e-05 -2.62083e-05 0.00199365
0.00440604 -0.000771851 -1.55086e-05
-0.000771851 0.000987365 2.7232e-06
-1.55086e-05 2.7232e-06 0.00020042
0.000425066 -0.000347717 4.19949e-05
-0.000347717 0.000424755 -6.33202e-06
4.19949e-05 -6.33202e-06 -0.00239692
0.00382721 -7.77277e-05 -3.01106e-05
-7.77277e-05 0.00191433 1.74066e-06
-3.01106e-05 1.74066e-06 0.00133205
0.00645819 -0.000526098 -1.8063e-05
-0.000526098 0.000694875 -2.5362e-05
-1.8063e-05 -2.5362e-05 0.00195779
0.0024118 -8.75648e-05 -4.22445e-05
-8.75648e-05 -6.32231e-05 2.65398e-05
-4.22445e-05 2.65398e-05 -3.21192e-06
0.000351176 0.000252753 2.86507e-05
0.000252753 7.74277e-05 -6.86974e-05
2.86507e-05 -6.86974e-05 -0.00242316
-0.00623863 -0.000692427 3.91678e-05
-0.000692427 -0.00415449 -3.22354e-05
3.91678e-05 -3.22354e-05 -0.00519732
0.00163998 -0.000518484 1.88544e-05
-0.000518484 -0.00171437 -7.87896e-05
1.88544e-05 -7.87896e-05 -0.000327511
0.000833072 -1.81409e-05 -8.57077e-07
-1.81409e-05 9.75222e-05 1.53859e-06
-8.57077e-07 1.53859e-06 1.22013e-05
0.000792117 2.53353e-05 1.73455e-07
2.53353e-05 7.66575e-05 6.97162e-08
1.73455e-07 6.97162e-08 -2.64903e-05
0.000775046 9.89768e-06 -3.31805e-07
9.89768e-06 8.72006e-05 -9.72347e-07
-3.31805e-07 -9.72347e-07 -2.87557e-05
0.000834774 3.17524e-05 9.14568e-08
3.17524e-05 0.000106439 -1.32738e-06
9.14568e-08 -1.32738e-06 4.39675e-06
0.00112455 -0.000312385 -4.39121e-07
-0.000312385 -3.23712e-05 1.83831e-05
-4.39121e-07 1.83831e-05 -9.15856e-05
0.000569747 -1.85727e-05 -6.3419e-06
-1.85727e-05 0.000255844 -1.6066e-05
-6.3419e-06 -1.6066e-05 0.000160025
0.000689498 -3.45403e-06 -2.06524e-07
-3.45403e-06 1.24609e-05 -1.91552e-06
-2.06524e-07 -1.91552e-06 -8.57902e-05
0.000871602 8.2766e-05 -8.07917e-07
8.2766e-05 0.000152657 -9.65086e-07
-8.07917e-07 -9.65086e-07 3.20159e-05
0.00169076 -5.25805e-05 9.1012e-06
-5.25805e-05 0.000627675 -1.72289e-05
9.1012e-06 -1.72289e-05 0.000512618
0.000780919 2.28888e-05 -5.97862e-07
2.28888e-05 7.83309e-05 -1.23792e-07
-5.97862e-07 -1.23792e-07 -1.71467e-05
0.000801333 1.88051e-05 -9.27943e-07
1.88051e-05 0.000150956 -1.34543e-06
-9.27943e-07 -1.34543e-06 5.28757e-05
-0.000508869 6.20093e-06 -5.34162e-06
6.20093e-06 -0.000251241 -1.08597e-05
-5.34162e-06 -1.08597e-05 -0.000627411
0.0011877 -3.69153e-05 1.65721e-05
-3.69153e-05 0.00056783 1.96307e-08
1.65721e-05 1.96307e-08 0.000520946
0.000613263 2.24499e-05 1.34534e-06
2.24499e-05 3.89515e-05 4.91489e-07
1.34534e-06 4.91489e-07 -4.72643e-05
0.000535257 -5.83553e-06 -2.32864e-05
-5.83553e-06 0.000825763 -5.03351e-05
-2.32864e-05 -5.03351e-05 -0.000202774
0.00246514 3.02817e-05 5.79596e-06
3.02817e-05 0.00121263 1.49163e-05
5.79596e-06 1.49163e-05 0.00111881
0.00139983 -1.51705e-05 1.96002e-05
-1.51705e-05 0.000328064 1.17992e-06
1.96002e-05 1.17992e-06 0.000118696
0.00129907 -1.332e-05 -6.12499e-07
-1.332e-05 6.76484e-05 -1.90127e-09
-6.12499e-07 -1.90127e-09 -3.62556e-05
0.000945843 -1.22447e-05 4.29106e-06
-1.22447e-05 7.74135e-05 -2.72058e-06
4.29106e-06 -2.72058e-06 -8.38671e-05
0.000301729 7.37176e-05 9.44656e-06
7.37176e-05 0.000189185 6.59316e-06
9.44656e-06 6.59316e-06 7.7156e-05
0.000779815 0.000172396 -3.78584e-05
0.000172396 -0.000239888 2.41294e-05
-3.78584e-05 2.41294e-05 -0.00030317
0.00115933 -1.09746e-05 9.10267e-06
-1.09746e-05 4.36253e-06 5.12125e-06
9.10267e-06 5.12125e-06 -0.000172056
0.00299313 -0.000495684 0.000147045
-0.000495684 0.00229631 -0.000116346
0.000147045 -0.000116346 -0.00105274
0.00646803 0.000801872 -3.65411e-05
0.000801872 0.00301291 2.67233e-05
-3.65411e-05 2.67233e-05 0.00209026
0.00262238 -1.83215e-05 -1.93952e-05
-1.83215e-05 0.00105392 5.86915e-05
-1.93952e-05 5.86915e-05 0.000318498
0.00359676 0.000703035 -1.85226e-05
0.000703035 -0.000505409 1.0738e-06
-1.85226e-05 1.0738e-06 0.000459859
-0.000570343 1.34007e-05 1.54613e-05
1.34007e-05 1.57306e-06 1.95307e-06
1.54613e-05 1.95307e-06 -0.000331786
0.00142543 1.70831e-05 4.60852e-06
1.70831e-05 0.00035742 -3.79006e-07
4.60852e-06 -3.79006e-07 8.67458e-05
0.00272893 -6.62744e-05 3.21576e-05
-6.62744e-05 0.000578882 -3.13562e-06
3.21576e-05 -3.13562e-06 -0.000477512
0.00116822 -0.000101326 -1.02235e-05
-0.000101326 -0.000566271 2.49023e-05
-1.02235e-05 2.49023e-05 -0.000341253
-0.00138153 0.000958145 3.61022e-05
0.000958145 -0.00107678 -1.30519e-05
3.61022e-05 -1.30519e-05 0.0004239
0.00496727 0.000587515 -1.49784e-05
0.000587515 0.000227796 3.81844e-05
-1.49784e-05 3.81844e-05 0.000488842
-0.00151484 -0.000539904 5.00614e-05
-0.000539904 -0.000314684 -3.67297e-05
5.00614e-05 -3.67297e-05 -0.0038081
0.000758393 -2.0501e-05 4.57476e-05
-2.0501e-05 0.000294839 -7.56974e-06
4.57476e-05 -7.56974e-06 0.00020482
0.0010535 -2.23545e-05 6.24286e-05
-2.23545e-05 -9.95765e-05 -2.60164e-05
6.24286e-05 -2.60164e-05 -0.000770628
-0.00158306 0.000210696 -6.68032e-05
0.000210696 0.000152025 -2.22681e-05
-6.68032e-05 -2.22681e-05 -0.000337908
0.000180964 0.000784691 -6.76723e-05
0.000784691 -0.000516729 9.74604e-05
-6.76723e-05 9.74604e-05 -8.65866e-06
0.00823981 -8.07565e-05 1.3577e-05
-8.07565e-05 0.00371984 -3.0204e-05
1.3577e-05 -3.0204e-05 0.00104868
0.00291005 -0.000303474 -7.9195e-05
-0.000303474 0.000371629 7.22654e-05
-7.9195e-05 7.22654e-05 4.49627e-05
-0.000117328 -2.59525e-05 -1.2667e-05
-2.59525e-05 -7.71612e-05 1.14289e-05
-1.2667e-05 1.14289e-05 -0.000189931
0.000111703 -8.54286e-05 5.73086e-07
-8.54286e-05 0.000148777 -5.40077e-07
5.73086e-07 -5.40077e-07 -4.81188e-05
0.000905627 -0.000188977 1.85409e-05
-0.000188977 0.000325708 -8.38406e-06
1.85409e-05 -8.38406e-06 0.000192707
0.000220154 -1.40009e-05 -3.5376e-06
-1.40009e-05 -2.30724e-05 3.94632e-06
-3.5376e-06 3.94632e-06 -0.000130212
-0.000240546 -9.18681e-05 4.71062e-07
-9.18681e-05 -0.000223767 -3.26949e-06
4.71062e-07 -3.26949e-06 -0.000469696
0.00183135 -0.000299144 2.07487e-05
-0.000299144 0.00053538 -3.99134e-06
2.07487e-05 -3.99134e-06 0.00030245
0.00251817 -0.000293346 -5.24966e-06
-0.000293346 0.00105634 1.05207e-06
-5.24966e-06 1.05207e-06 0.000858406
0.00159004 -0.000234814 2.06202e-06
-0.000234814 0.000555375 1.08869e-06
2.06202e-06 1.08869e-06 0.000263031
0.000766432 -0.000227743 4.45708e-06
-0.000227743 -8.76096e-05 -4.14822e-06
4.45708e-06 -4.14822e-06 -0.000359131
0.00112638 -0.000184954 -4.52661e-06
-0.000184954 0.000241819 3.1879e-07
-4.52661e-06 3.1879e-07 2.80421e-05
0.00198857 -0.000285609 1.50204e-06
-0.000285609 0.00061085 -9.09086e-09
1.50204e-06 -9.09086e-09 0.000354388
0.00162674 -0.000279129 2.64983e-06
-0.000279129 0.000257696 -4.13787e-06
2.64983e-06 -4.13787e-06 1.96153e-05
0.00153502 -0.00025229 7.02492e-07
-0.00025229 0.000124509 -3.0192e-06
7.02492e-07 -3.0192e-06 -6.64296e-05
0.00240677 -0.000307938 -4.87628e-06
-0.000307938 0.000747516 6.05326e-06
-4.87628e-06 6.05326e-06 0.000528514
0.00172123 -0.000271977 -1.1354e-06
-0.000271977 0.000338326 -6.94486e-08
-1.1354e-06 -6.94486e-08 0.000105858
0.000385201 -0.000131387 3.10597e-06
-0.000131387 -0.000209179 -4.21214e-07
3.10597e-06 -4.21214e-07 -0.000368663
0.000947996 -0.00017548 1.95671e-06
-0.00017548 8.68646e-05 -2.44608e-07
1.95671e-06 -2.44608e-07 -9.08224e-05
0.0015043 -0.00022689 -1.36705e-06
-0.00022689 0.000368256 -1.48425e-06
-1.36705e-06 -1.48425e-06 0.000157389
0.00110788 -0.000161784 1.14213e-06
-0.000161784 0.000263949 -2.91716e-07
1.14213e-06 -2.91716e-07 0.000107915
0.00113303 -0.000170616 -1.17854e-06
-0.000170616 0.000261731 -1.01318e-06
-1.17854e-06 -1.01318e-06 0.000103526
0.000756406 -0.000145282 3.35941e-06
-0.000145282 4.04574e-05 -2.23816e-06
3.35941e-06 -2.23816e-06 -0.00010716
0.000689496 2.02377e-06 1.44575e-06
2.02377e-06 4.21308e-05 1.37977e-06
1.44575e-06 1.37977e-06 -6.5639e-05
0.000706506 -5.94955e-05 1.76909e-07
-5.94955e-05 6.32549e-05 7.63581e-07
1.76909e-07 7.63581e-07 -6.57504e-05
0.00116953 -0.000150209 1.58353e-06
-0.000150209 0.000329744 -1.34079e-06
1.58353e-06 -1.34079e-06 0.000175946
0.000639551 6.72808e-05 1.22272e-07
6.72808e-05 -1.80153e-07 2.13967e-06
1.22272e-07 2.13967e-06 -6.08492e-05
0.000757464 1.48436e-05 -3.55282e-07
1.48436e-05 7.11793e-05 -2.12088e-07
-3.55282e-07 -2.12088e-07 -1.75044e-05
0.000953685 -5.77463e-05 -4.83883e-07
-5.77463e-05 0.000192295 -8.70467e-07
-4.83883e-07 -8.70467e-07 8.10935e-05
0.000609071 5.29902e-05 -2.10647e-06
5.29902e-05 -2.93446e-05 5.01811e-06
-2.10647e-06 5.01811e-06 -4.75347e-05
0.000688342 4.79005e-05 -2.82861e-07
4.79005e-05 1.34475e-05 -1.77599e-07
-2.82861e-07 -1.77599e-07 -3.54514e-05
0.00079447 -3.53908e-06 1.04279e-07
-3.53908e-06 7.8865e-05 -1.29398e-06
1.04279e-07 -1.29398e-06 5.73259e-06
0.000709007 3.59016e-05 1.19626e-06
3.59016e-05 1.59303e-05 -1.72178e-06
1.19626e-06 -1.72178e-06 -2.8009e-05
0.000635053 4.82042e-05 1.52939e-08
4.82042e-05 -2.38233e-05 -4.39188e-09
1.52939e-08 -4.39188e-09 -3.93842e-05
0.00217262 7.16738e-05 -2.56691e-05
7.16738e-05 0.000857636 3.33321e-06
-2.56691e-05 3.33321e-06 0.00086855
0.000646994 4.23973e-05 9.97794e-07
4.23973e-05 -2.56974e-05 -3.57123e-06
9.97794e-07 -3.57123e-06 -3.89488e-05
0.00218328 6.32045e-05 1.88424e-06
6.32045e-05 0.000856337 1.3279e-07
1.88424e-06 1.3279e-07 0.000869177
0.00219998 5.44335e-05 1.97348e-05
5.44335e-05 0.000859174 -3.80169e-06
1.97348e-05 -3.80169e-06 0.000873661
0.000791048 1.72415e-05 -1.20901e-07
1.72415e-05 7.8351e-05 -4.82174e-07
-1.20901e-07 -4.82174e-07 -9.83929e-06
0.000791887 5.11622e-05 -9.05642e-07
5.11622e-05 7.60354e-05 -9.52021e-07
-9.05642e-07 -9.52021e-07 -4.81591e-06
0.000703905 -1.29672e-05 -8.64688e-07
-1.29672e-05 2.64796e-06 -1.98279e-06
-8.64688e-07 -1.98279e-06 -4.51183e-05
0.000771229 4.33483e-05 -9.31432e-08
4.33483e-05 5.74267e-05 1.15895e-09
-9.31432e-08 1.15895e-09 -1.66108e-05
0.000640216 -3.28402e-05 -2.35547e-07
-3.28402e-05 -3.86175e-05 -3.98874e-06
-2.35547e-07 -3.98874e-06 -5.24421e-05
0.000708119 -5.62745e-06 -1.1826e-07
-5.62745e-06 5.46399e-06 -2.9001e-08
-1.1826e-07 -2.9001e-08 -3.97007e-05
0.000737982 2.79337e-05 -3.13366e-07
2.79337e-05 3.68147e-05 2.19886e-07
-3.13366e-07 2.19886e-07 -3.31499e-05
0.00227148 -4.38782e-05 -1.74044e-05
-4.38782e-05 0.000891031 -4.38362e-06
-1.74044e-05 -4.38362e-06 0.000906935
0.000655895 -2.554e-05 -1.7477e-07
-2.554e-05 -3.50732e-05 -2.64666e-08
-1.7477e-07 -2.64666e-08 -4.58059e-05
0.000692524 -2.11905e-06 -2.34927e-07
-2.11905e-06 -3.2882e-06 1.229e-06
-2.34927e-07 1.229e-06 -4.56787e-05
0.00218242 -3.20046e-05 -3.0005e-06
-3.20046e-05 0.000835295 9.4501e-08
-3.0005e-06 9.4501e-08 0.00085337
0.000665123 -1.85856e-05 2.30341e-07
-1.85856e-05 -3.37303e-05 3.6417e-06
2.30341e-07 3.6417e-06 -4.18103e-05
0.00211218 -2.01221e-05 8.58195e-06
-2.01221e-05 0.000791667 4.57393e-06
8.58195e-06 4.57393e-06 0.0008114
0.000998065 -4.78479e-05 1.29511e-05
-4.78479e-05 0.000120218 2.73796e-05
1.29511e-05 2.73796e-05 -0.000197425
0.00136509 -1.46437e-05 -7.52695e-06
-1.46437e-05 0.000136422 1.13376e-05
-7.52695e-06 1.13376e-05 -9.0481e-05
0.0013411 5.42526e-06 1.15247e-05
5.42526e-06 0.000300516 -1.61564e-05
1.15247e-05 -1.61564e-05 3.28704e-06
0.000776229 1.56576e-05 -2.03132e-07
1.56576e-05 6.41178e-05 -6.69461e-08
-2.03132e-07 -6.69461e-08 -2.07633e-05
0.000776657 -9.37458e-06 -1.08856e-07
-9.37458e-06 6.51678e-05 2.25928e-07
-1.08856e-07 2.25928e-07 -2.07351e-05
0.000742596 -8.7218e-06 -8.60065e-07
-8.7218e-06 4.82125e-05 -1.5691e-06
-8.60065e-07 -1.5691e-06 -4.07205e-05
0.000665908 -2.40483e-05 -4.08259e-07
-2.40483e-05 1.45461e-06 -6.20443e-07
-4.08259e-07 -6.20443e-07 -8.28461e-05
0.000964496 6.73167e-05 -1.01934e-06
6.73167e-05 0.000182217 -1.46259e-07
-1.01934e-06 -1.46259e-07 8.33295e-05
0.000742807 -1.80418e-05 -4.46901e-08
-1.80418e-05 3.49009e-05 -1.96404e-07
-4.46901e-08 -1.96404e-07 -4.33014e-05
0.000745538 3.91497e-06 7.25221e-07
3.91497e-06 4.43111e-05 -8.48509e-07
7.25221e-07 -8.48509e-07 -4.53967e-05
0.000807574 2.02918e-05 -9.41781e-08
2.02918e-05 8.42235e-05 -4.31771e-08
-9.41781e-08 -4.31771e-08 -4.55273e-06
0.000885584 5.22325e-05 1.18693e-07
5.22325e-05 0.000125718 1.7919e-07
1.18693e-07 1.7919e-07 2.89426e-05
0.000940927 2.28039e-05 -3.29781e-07
2.28039e-05 0.000170292 5.02267e-07
-3.29781e-07 5.02267e-07 7.64546e-05
0.00201313 1.75408e-05 8.82985e-05
1.75408e-05 0.000541957 0.000111352
8.82985e-05 0.000111352 -0.000540912
0.00128497 3.81721e-05 6.42024e-06
3.81721e-05 0.000253906 2.7009e-05
6.42024e-06 2.7009e-05 -0.000701035
0.00252066 1.33551e-05 -9.32572e-06
1.33551e-05 0.000892475 -2.35298e-05
-9.32572e-06 -2.35298e-05 0.00033421
0.00623457 -0.000474149 -3.5401e-05
-0.000474149 0.000770152 -6.77648e-05
-3.5401e-05 -6.77648e-05 0.00206933
-0.00915737 0.000292131 -4.59895e-05
0.000292131 -0.00341813 8.94804e-05
-4.59895e-05 8.94804e-05 -0.00465137
0.00458619 -0.000755272 -8.39637e-05
-0.000755272 0.00136542 5.19253e-05
-8.39637e-05 5.19253e-05 0.000569306
0.0082644 -0.000306829 -1.5004e-05
-0.000306829 0.00299659 -4.22069e-05
-1.5004e-05 -4.22069e-05 0.000749493
0.00319846 -0.000219496 -3.98675e-05
-0.000219496 0.000366597 4.48797e-05
-3.98675e-05 4.48797e-05 4.43245e-05
0.0101087 -0.000193899 5.29354e-05
-0.000193899 0.00448882 -1.64077e-05
5.29354e-05 -1.64077e-05 0.00165971
0.0013035 -0.000413404 2.73178e-05
-0.000413404 -0.000325205 1.32709e-05
2.73178e-05 1.32709e-05 -0.000796933
0.00142333 -0.000609402 -5.37222e-05
-0.000609402 -0.00196226 -0.000118309
-5.37222e-05 -0.000118309 -0.000532818
0.00458221 0.000100567 -0.000102007
0.000100567 0.000944381 -9.55281e-06
-0.000102007 -9.55281e-06 0.000623304
0.0079734 8.89592e-05 -1.18883e-05
8.89592e-05 0.00305698 4.01789e-05
-1.18883e-05 4.01789e-05 0.000989305
0.0077774 -0.00107519 -1.68407e-05
-0.00107519 0.00213065 -6.88256e-05
-1.68407e-05 -6.88256e-05 0.00224106
0.00391803 -0.000947503 2.68222e-05
-0.000947503 0.0004377 2.28646e-06
2.68222e-05 2.28646e-06 0.00201281
0.000573153 3.45943e-05 1.69842e-06
3.45943e-05 5.87232e-06 1.36379e-06
1.69842e-06 1.36379e-06 -6.57645e-05
0.000911731 -1.70053e-05 -5.53187e-08
-1.70053e-05 0.000148255 5.96564e-07
-5.53187e-08 5.96564e-07 6.02926e-05
0.000801175 2.30715e-05 -4.19419e-08
2.30715e-05 8.00681e-05 -1.01583e-06
-4.19419e-08 -1.01583e-06 -2.14094e-05
0.0003877 3.71501e-05 -3.31115e-05
3.71501e-05 0.000166417 1.93233e-05
-3.31115e-05 1.93233e-05 -0.000265219
0.00107348 -7.14469e-05 -4.45365e-05
-7.14469e-05 0.000526832 -1.25372e-05
-4.45365e-05 -1.25372e-05 0.000495134
0.000715357 -3.74836e-06 -3.57965e-07
-3.74836e-06 4.40245e-05 -3.1155e-07
-3.57965e-07 -3.1155e-07 -5.27358e-05
0.000275893 -1.11844e-06 -1.55045e-07
-1.11844e-06 -0.000141224 -5.13222e-06
-1.55045e-07 -5.13222e-06 -0.000231553
0.000694865 2.36858e-05 -1.98468e-07
2.36858e-05 8.78212e-05 -1.89157e-06
-1.98468e-07 -1.89157e-06 -9.40621e-07
0.000310276 1.73336e-05 -2.79956e-06
1.73336e-05 6.40707e-05 4.49324e-06
-2.79956e-06 4.49324e-06 -3.44179e-05
-5.43808e-05 -1.7117e-05 6.22591e-05
-1.7117e-05 0.000562945 -3.49888e-05
6.22591e-05 -3.49888e-05 -0.000440675
-0.00107956 -1.20438e-05 -1.35337e-05
-1.20438e-05 -0.000706472 9.56092e-06
-1.35337e-05 9.56092e-06 -0.000798768
0.00125301 0.000145663 -1.02941e-05
0.000145663 0.000616744 -3.28933e-05
-1.02941e-05 -3.28933e-05 2.87953e-05
0.0015178 -8.85598e-07 6.89691e-05
-8.85598e-07 0.000296478 7.8355e-06
6.89691e-05 7.8355e-06 -0.000336185
0.00116163 -1.45673e-05 9.77855e-06
-1.45673e-05 0.000191745 2.66838e-06
9.77855e-06 2.66838e-06 6.5246e-06
0.000873152 -1.3082e-05 1.27954e-06
-1.3082e-05 -0.000131665 -1.16999e-06
1.27954e-06 -1.16999e-06 -0.000212151
-0.00145587 -1.90635e-05 -2.62209e-05
-1.90635e-05 -0.000391859 1.22862e-05
-2.62209e-05 1.22862e-05 -0.000804397
0.00268524 1.02426e-06 1.0617e-06
1.02426e-06 7.69698e-05 -3.40577e-05
1.0617e-06 -3.40577e-05 -0.000143388
0.00139196 8.39373e-06 -8.3045e-06
8.39373e-06 0.000310278 1.5396e-05
-8.3045e-06 1.5396e-05 3.56255e-05
0.0141253 -0.00052932 0.000105606
-0.00052932 0.00623363 -1.17786e-05
0.000105606 -1.17786e-05 0.00344232
0.00614324 0.000761061 -4.3552e-05
0.000761061 0.0017019 -6.58254e-06
-4.3552e-05 -6.58254e-06 0.00159945
0.00302458 -8.17862e-05 -5.26442e-05
-8.17862e-05 0.000801096 7.43194e-05
-5.26442e-05 7.43194e-05 -0.00030889
-0.00540797 0.00102881 0.000163085
0.00102881 -0.00348796 -0.000146225
0.000163085 -0.000146225 -0.0015509
0.000510508 -4.15583e-05 -6.09503e-06
-4.15583e-05 0.000240328 -4.21567e-07
-6.09503e-06 -4.21567e-07 0.000110299
0.00154189 -1.80129e-05 -9.84303e-06
-1.80129e-05 0.000208676 3.25145e-06
-9.84303e-06 3.25145e-06 -0.000459916
-0.00208565 0.000252995 -0.000126552
0.000252995 0.000171099 5.48665e-05
-0.000126552 5.48665e-05 -0.000197308
0.00182404 -0.000288091 -2.31049e-05
-0.000288091 -0.000139981 2.99323e-05
-2.31049e-05 2.99323e-05 -0.00038338
0.0075585 0.00113921 3.00692e-05
0.00113921 0.00258386 2.85044e-05
3.00692e-05 2.85044e-05 0.00314771
0.00708724 -0.000482608 5.74581e-05
-0.000482608 0.00287966 -3.13892e-05
5.74581e-05 -3.13892e-05 0.000487917
0.00144002 -0.000212441 1.08677e-05
-0.000212441 0.00024335 1.9624e-05
1.08677e-05 1.9624e-05 0.000398545
-0.00214982 -1.40733e-05 4.64146e-05
-1.40733e-05 0.000245619 -9.90476e-06
4.64146e-05 -9.90476e-06 -0.000675168
0.00474506 0.00087051 -0.000106349
0.00087051 0.00239925 5.37716e-05
-0.000106349 5.37716e-05 0.00249119
0.00276645 -0.000116428 -0.000107066
-0.000116428 0.0005895 8.10874e-05
-0.000107066 8.10874e-05 -0.00185062
0.00283532 -0.000686877 3.59421e-05
-0.000686877 0.000323957 -7.75435e-06
3.59421e-05 -7.75435e-06 -0.000254492
0.000222382 -4.7342e-05 5.56881e-06
-4.7342e-05 0.000214111 1.05173e-05
5.56881e-06 1.05173e-05 3.2598e-05
0.000447379 -0.0001735 -2.56914e-06
-0.0001735 0.000100305 1.64353e-06
-2.56914e-06 1.64353e-06 -6.51725e-05
0.00312254 -0.000363836 2.58236e-05
-0.000363836 0.00105156 9.90948e-07
2.58236e-05 9.90948e-07 0.00101034
-0.00171242 -1.34294e-05 -6.23479e-06
-1.34294e-05 -0.000979224 7.37761e-06
-6.23479e-06 7.37761e-06 -0.00123096
0.000746699 -0.000213146 4.58128e-06
-0.000213146 1.06437e-05 -3.96536e-07
4.58128e-06 -3.96536e-07 -0.000229211
0.00082176 -0.000282556 5.36741e-06
-0.000282556 -0.000260741 -1.32383e-06
5.36741e-06 -1.32383e-06 -0.000440413
0.00214333 -0.000269529 -7.0188e-06
-0.000269529 0.000817058 1.48337e-06
-7.0188e-06 1.48337e-06 0.000539047
0.00118591 -0.000253298 -3.19754e-06
-0.000253298 0.000122011 -2.45841e-06
-3.19754e-06 -2.45841e-06 -0.000136639
0.00162191 -0.000320133 4.79265e-06
-0.000320133 0.000134387 -1.64656e-06
4.79265e-06 -1.64656e-06 -4.86108e-05
0.00174681 -0.000266883 -2.909e-06
-0.000266883 0.000471821 -8.57851e-07
-2.909e-06 -8.57851e-07 0.000215829
0.00151515 -0.000270421 3.18756e-09
-0.000270421 0.000188263 -2.37151e-06
3.18756e-09 -2.37151e-06 -4.23448e-05
0.00174773 -0.000280687 7.56024e-07
-0.000280687 0.000170157 -3.85486e-06
7.56024e-07 -3.85486e-06 -1.60758e-06
0.00160704 -0.000225141 1.59038e-07
-0.000225141 0.000115452 -2.73065e-06
1.59038e-07 -2.73065e-06 -4.27588e-05
0.00163872 -0.000252356 2.22627e-07
-0.000252356 0.000221226 -5.30021e-07
2.22627e-07 -5.30021e-07 2.03042e-05
0.00156123 -0.000253367 1.12936e-06
-0.000253367 0.000138674 -5.29898e-07
1.12936e-06 -5.29898e-07 -5.14216e-05
0.00147661 -0.000226986 -7.81201e-07
-0.000226986 0.000291562 5.09484e-06
-7.81201e-07 5.09484e-06 9.57331e-05
0.00152798 -0.000247745 4.44893e-07
-0.000247745 0.000273261 3.4497e-07
4.44893e-07 3.4497e-07 5.4011e-05
0.00174571 -0.000274573 -9.38547e-07
-0.000274573 0.000344567 -2.4531e-06
-9.38547e-07 -2.4531e-06 0.000106705
0.000991527 -0.000165385 1.83265e-06
-0.000165385 0.000150716 -1.08266e-06
1.83265e-06 -1.08266e-06 -6.20697e-06
0.000605001 -0.000145109 -7.54771e-07
-0.000145109 -8.11371e-05 -1.89087e-06
-7.54771e-07 -1.89087e-06 -0.000237164
0.00135278 -0.000203157 4.4212e-06
-0.000203157 0.000311174 -4.76632e-06
4.4212e-06 -4.76632e-06 0.000137902
0.000781192 -9.02668e-05 4.19708e-07
-9.02668e-05 7.62726e-05 1.32551e-06
4.19708e-07 1.32551e-06 -5.18676e-05
0.00088822 -0.000135872 1.25915e-07
-0.000135872 0.000142578 4.98316e-07
1.25915e-07 4.98316e-07 -9.25628e-06
0.000853497 -0.000148063 -3.72124e-07
-0.000148063 0.000106913 1.31973e-06
-3.72124e-07 1.31973e-06 -4.96241e-05
0.000623898 7.26787e-05 1.51583e-06
7.26787e-05 -1.79181e-06 3.24557e-06
1.51583e-06 3.24557e-06 -7.81942e-05
0.000798758 -2.13604e-05 1.56883e-07
-2.13604e-05 0.000106614 -1.20106e-07
1.56883e-07 -1.20106e-07 -5.72014e-06
0.000912409 -8.21416e-05 -9.85761e-07
-8.21416e-05 0.000180094 1.51764e-07
-9.85761e-07 1.51764e-07 5.04363e-05
0.00131492 7.66607e-05 -1.389e-05
7.66607e-05 0.00038344 3.18878e-06
-1.389e-05 3.18878e-06 0.000363441
0.000667517 4.47664e-05 -5.44516e-07
4.47664e-05 1.02524e-05 -4.6956e-07
-5.44516e-07 -4.6956e-07 -4.78384e-05
0.000794498 -1.93744e-05 5.16965e-09
-1.93744e-05 9.35377e-05 -1.71527e-06
5.16965e-09 -1.71527e-06 1.88074e-06
0.000783507 4.2331e-05 -2.46981e-05
4.2331e-05 7.70898e-05 3.28444e-06
-2.46981e-05 3.28444e-06 8.04522e-05
0.000999663 6.33234e-05 -6.89426e-06
6.33234e-05 0.000193266 2.34077e-07
-6.89426e-06 2.34077e-07 0.00017601
0.000696696 4.38659e-05 4.52625e-07
4.38659e-05 1.72795e-05 -2.03265e-06
4.52625e-07 -2.03265e-06 -3.12925e-05
0.000649188 4.97582e-05 9.35209e-07
4.97582e-05 -1.55505e-05 -3.63029e-06
9.35209e-07 -3.63029e-06 -3.13343e-05
0.00219821 7.29311e-05 1.63668e-06
7.29311e-05 0.000873119 1.41038e-07
1.63668e-06 1.41038e-07 0.000883702
0.00219714 6.42156e-05 2.31895e-05
6.42156e-05 0.000865166 -3.49474e-06
2.31895e-05 -3.49474e-06 0.00087777
0.000730238 -8.38405e-08 4.57189e-08
-8.38405e-08 3.88517e-05 -8.9816e-07
4.57189e-08 -8.9816e-07 -4.84608e-05
0.000795376 3.17079e-05 -4.159e-07
3.17079e-05 7.72853e-05 -1.38277e-06
-4.159e-07 -1.38277e-06 -4.71404e-06
0.000765024 -3.84657e-06 1.22128e-07
-3.84657e-06 5.85082e-05 -4.91733e-08
1.22128e-07 -4.91733e-08 -2.59751e-05
0.000706932 -2.44413e-05 -1.02291e-06
-2.44413e-05 7.16934e-06 -2.17563e-06
-1.02291e-06 -2.17563e-06 -4.31781e-05
0.000775879 2.24064e-05 6.77017e-07
2.24064e-05 6.02628e-05 -2.46836e-08
6.77017e-07 -2.46836e-08 -1.5375e-05
0.000627641 -3.94883e-05 -3.31129e-07
-3.94883e-05 -3.9621e-05 -4.158e-06
-3.31129e-07 -4.158e-06 -5.64343e-05
0.000703849 -9.62596e-06 -1.55192e-07
-9.62596e-06 3.54596e-06 -1.32725e-08
-1.55192e-07 -1.32725e-08 -4.44329e-05
0.000789491 4.97115e-05 8.55139e-07
4.97115e-05 7.75984e-05 8.96485e-07
8.55139e-07 8.96485e-07 -3.25441e-06
0.00235372 -5.46155e-05 -2.235e-05
-5.46155e-05 0.000943247 -4.19895e-06
-2.235e-05 -4.19895e-06 0.00095701
0.00064257 -3.20618e-05 -3.19099e-07
-3.20618e-05 -3.74605e-05 -1.23073e-08
-3.19099e-07 -1.23073e-08 -5.11503e-05
0.000711295 -5.7112e-06 4.45786e-07
-5.7112e-06 7.77556e-06 2.04157e-06
4.45786e-07 2.04157e-06 -3.74864e-05
0.00225286 -4.30177e-05 -2.84497e-06
-4.30177e-05 0.000879803 1.21254e-07
-2.84497e-06 1.21254e-07 0.000896006
0.000656136 -2.50639e-05 2.59569e-07
-2.50639e-05 -3.49505e-05 3.76574e-06
2.59569e-07 3.76574e-06 -4.55964e-05
0.00216862 -3.10318e-05 1.25126e-05
-3.10318e-05 0.000826879 4.49906e-06
1.25126e-05 4.49906e-06 0.000845209
0.00225641 -3.92413e-05 6.652e-05
-3.92413e-05 0.000628984 3.4932e-05
6.652e-05 3.4932e-05 5.27413e-05
0.00108843 -4.36724e-05 6.82595e-07
-4.36724e-05 0.000177564 8.96879e-06
6.82595e-07 8.96879e-06 -0.000127826
0.00116735 -1.92996e-05 -6.67833e-06
-1.92996e-05 3.01851e-05 -7.15887e-06
-6.67833e-06 -7.15887e-06 -0.000161561
0.000847598 6.68473e-05 -1.90064e-06
6.68473e-05 0.000118728 -5.54599e-07
-1.90064e-06 -5.54599e-07 1.90591e-05
0.000838884 1.4384e-05 2.66019e-07
1.4384e-05 9.78004e-05 1.58451e-07
2.66019e-07 1.58451e-07 1.40776e-05
0.000729166 -1.75527e-05 3.06621e-07
-1.75527e-05 3.8446e-05 4.00978e-07
3.06621e-07 4.00978e-07 -4.7304e-05
0.0008323 -9.64724e-06 7.24129e-08
-9.64724e-06 9.11657e-05 -1.19475e-07
7.24129e-08 -1.19475e-07 8.26598e-06
0.000874044 2.28357e-05 2.97846e-08
2.28357e-05 0.000123186 -2.64188e-07
2.97846e-08 -2.64188e-07 3.18684e-05
0.000838347 4.85435e-05 3.18837e-07
4.85435e-05 0.000110019 6.91726e-07
3.18837e-07 6.91726e-07 1.33729e-05
0.000845544 3.53803e-05 -7.51279e-07
3.53803e-05 0.000115529 -1.65191e-06
-7.51279e-07 -1.65191e-06 1.3769e-05
0.000569565 -1.6858e-05 -9.65772e-09
-1.6858e-05 -4.4369e-05 -1.93501e-07
-9.65772e-09 -1.93501e-07 -0.000135114
0.00082459 7.27036e-05 3.1813e-07
7.27036e-05 9.73151e-05 -4.89387e-07
3.1813e-07 -4.89387e-07 5.5879e-06
0.000820156 -2.84991e-05 1.07318e-06
-2.84991e-05 7.27951e-05 -6.35338e-07
1.07318e-06 -6.35338e-07 -1.22953e-05
0.000836162 1.95606e-05 -2.09225e-07
1.95606e-05 0.000107303 1.32425e-07
-2.09225e-07 1.32425e-07 1.7034e-05
0.00131498 4.78386e-05 4.52453e-06
4.78386e-05 0.000404859 2.80069e-06
4.52453e-06 2.80069e-06 0.000317766
0.0010986 -0.000402033 7.03487e-05
-0.000402033 0.00118135 8.21075e-05
7.03487e-05 8.21075e-05 0.000843216
0.00231024 4.02839e-05 5.40524e-06
4.02839e-05 0.000697733 2.59694e-05
5.40524e-06 2.59694e-05 -0.000422589
0.00155308 4.84199e-05 -1.44439e-05
4.84199e-05 0.000303363 -4.50446e-05
-1.44439e-05 -4.50446e-05 -0.000660511
0.00551608 -0.00080053 -9.95932e-05
-0.00080053 0.0001836 -8.63363e-05
-9.95932e-05 -8.63363e-05 0.00170091
0.00364425 -0.000253134 -1.18851e-06
-0.000253134 0.000276428 5.18404e-05
-1.18851e-06 5.18404e-05 -0.000261283
0.000550661 -0.000433106 -9.06103e-05
-0.000433106 9.03665e-05 6.62504e-05
-9.06103e-05 6.62504e-05 -0.00241617
0.00296436 -0.000189865 -5.51299e-05
-0.000189865 0.000468396 9.19549e-05
-5.51299e-05 9.19549e-05 -3.96024e-05
0.00407269 -0.00013819 7.9884e-06
-0.00013819 0.0007168 3.73538e-05
7.9884e-06 3.73538e-05 0.000560189
-0.000750863 -0.000933904 2.09909e-05
-0.000933904 -0.00148481 3.5077e-05
2.09909e-05 3.5077e-05 0.000231009
0.00567363 0.000272594 6.73676e-06
0.000272594 0.00271713 1.26349e-05
6.73676e-06 1.26349e-05 -9.82666e-05
0.00137716 -0.000556003 -1.10096e-05
-0.000556003 -0.00123425 1.76127e-05
-1.10096e-05 1.76127e-05 -0.000961307
0.00204644 0.000246168 -3.0526e-05
0.000246168 -6.18596e-05 9.08041e-07
-3.0526e-05 9.08041e-07 -0.000280333
0.00855022 -8.67292e-05 -4.25186e-05
-8.67292e-05 0.00401287 3.44488e-05
-4.25186e-05 3.44488e-05 0.00175654
-0.000165638 -0.000731281 -7.36564e-05
-0.000731281 -0.000734453 -6.76455e-05
-7.36564e-05 -6.76455e-05 -0.000188261
0.000482485 0.000170146 5.23555e-07
0.000170146 -6.96358e-05 -3.42898e-06
5.23555e-07 -3.42898e-06 -0.000145362
0.000889267 4.53739e-05 5.44024e-06
4.53739e-05 0.000173736 4.63517e-08
5.44024e-06 4.63517e-08 0.000103233
0.000975735 4.96986e-06 -7.8132e-07
4.96986e-06 0.000188545 1.52692e-07
-7.8132e-07 1.52692e-07 9.96802e-05
-0.000274725 -1.05401e-06 -9.34203e-05
-1.05401e-06 0.000327516 -1.90254e-05
-9.34203e-05 -1.90254e-05 -0.000619081
-0.000892643 5.57133e-05 6.82428e-06
5.57133e-05 -0.000593079 -6.62592e-06
6.82428e-06 -6.62592e-06 -0.000695455
0.00087019 5.66291e-05 1.55978e-06
5.66291e-05 0.000185142 -3.2606e-06
1.55978e-06 -3.2606e-06 9.29766e-05
0.000759964 0.000121398 4.39818e-06
0.000121398 0.000225583 2.45378e-06
4.39818e-06 2.45378e-06 0.000123208
0.000827999 0.000183076 -1.27011e-06
0.000183076 0.000355914 -2.46371e-05
-1.27011e-06 -2.46371e-05 -0.000117534
0.000508251 0.000287529 1.65002e-05
0.000287529 -0.000115487 5.53767e-06
1.65002e-05 5.53767e-06 -0.000310981
0.000361811 2.34298e-05 0.000111684
2.34298e-05 0.00168238 2.79727e-06
0.000111684 2.79727e-06 0.000796175
0.00152759 -2.24948e-05 -6.112e-06
-2.24948e-05 0.000348514 7.85543e-06
-6.112e-06 7.85543e-06 -0.000181412
0.000958407 -1.308e-05 -1.39089e-06
-1.308e-05 8.32121e-05 2.22633e-06
-1.39089e-06 2.22633e-06 -7.95188e-05
0.00115736 -6.51388e-05 -2.80395e-05
-6.51388e-05 0.000637225 5.53676e-06
-2.80395e-05 5.53676e-06 0.000510165
0.00103053 -0.000188873 -3.55164e-06
-0.000188873 -0.000832164 -1.66013e-05
-3.55164e-06 -1.66013e-05 -0.000804771
0.00176435 -1.41675e-05 -8.14616e-05
-1.41675e-05 0.000371693 2.32048e-05
-8.14616e-05 2.32048e-05 -0.000301588
-0.000977044 -0.000560047 4.51093e-05
-0.000560047 -0.000693773 -4.37285e-05
4.51093e-05 -4.37285e-05 -0.00327248
-0.00365384 0.000616815 4.26101e-05
0.000616815 -0.00330086 -6.00126e-05
4.26101e-05 -6.00126e-05 -0.0025899
0.0013958 0.000430808 -9.20258e-05
0.000430808 0.00159745 7.78689e-05
-9.20258e-05 7.78689e-05 0.00161593
0.00185163 -0.000106307 -1.75654e-06
-0.000106307 0.000277632 2.35888e-06
-1.75654e-06 2.35888e-06 0.00056652
0.00147165 0.000153639 6.14601e-06
0.000153639 0.00185089 6.88451e-06
6.14601e-06 6.88451e-06 0.00135423
-0.00358696 0.000450582 3.09167e-05
0.000450582 -0.00121358 2.44219e-06
3.09167e-05 2.44219e-06 -0.00174973
0.00394608 -0.000733504 4.01903e-06
-0.000733504 0.00117586 -5.65379e-07
4.01903e-06 -5.65379e-07 0.000195128
0.00944544 8.58278e-05 1.03272e-05
8.58278e-05 0.00368779 -4.71108e-06
1.03272e-05 -4.71108e-06 0.00194052
0.000882603 -0.00025999 2.78355e-06
-0.00025999 -0.000148481 1.64516e-05
2.78355e-06 1.64516e-05 -5.19817e-05
-0.00643617 0.000185025 -8.81793e-05
0.000185025 -0.0032101 5.05826e-08
-8.81793e-05 5.05826e-08 -0.0035099
0.00749714 6.72065e-05 -2.69862e-05
6.72065e-05 0.00244342 1.38065e-05
-2.69862e-05 1.38065e-05 0.00099905
0.00526935 -0.000777482 3.1232e-06
-0.000777482 0.000749967 8.6507e-06
3.1232e-06 8.6507e-06 -0.00012129
0.00017571 -0.000143192 -1.86411e-05
-0.000143192 -1.30898e-05 1.39656e-05
-1.86411e-05 1.39656e-05 -0.000220409
0.00139608 -0.000260745 -1.91896e-06
-0.000260745 0.000128794 7.55256e-07
-1.91896e-06 7.55256e-07 0.000143392
0.00207296 -0.000292378 1.73448e-05
-0.000292378 0.000252529 -2.59167e-06
1.73448e-05 -2.59167e-06 0.000291681
-0.000199401 -0.000135541 -5.8935e-06
-0.000135541 -0.000444329 1.00189e-06
-5.8935e-06 1.00189e-06 -0.000694569
0.00130432 -0.000311777 -3.89348e-06
-0.000311777 -2.09586e-06 -1.22276e-06
-3.89348e-06 -1.22276e-06 -0.000189547
0.001979 -0.000361697 2.66168e-06
-0.000361697 0.000183734 1.20445e-07
2.66168e-06 1.20445e-07 4.59922e-05
0.0016511 -0.000281668 -7.11289e-06
-0.000281668 0.000360846 -2.43706e-06
-7.11289e-06 -2.43706e-06 0.000112297
0.00153673 -0.00031048 1.95913e-06
-0.00031048 0.000104525 7.28835e-07
1.95913e-06 7.28835e-07 -8.12908e-05
0.00194866 -0.000296624 -6.08721e-07
-0.000296624 0.000201573 -3.7175e-06
-6.08721e-07 -3.7175e-06 6.30939e-05
0.00135005 -0.000258161 -4.80092e-06
-0.000258161 9.25167e-05 1.61425e-07
-4.80092e-06 1.61425e-07 -0.000131368
0.00163978 -0.000271606 -2.90808e-07
-0.000271606 0.000111276 4.42362e-07
-2.90808e-07 4.42362e-07 -5.90928e-05
0.00179435 -0.000238322 -3.2469e-07
-0.000238322 0.000142435 -4.3044e-06
-3.2469e-07 -4.3044e-06 1.39659e-05
0.00159941 -0.000191726 -8.78792e-07
-0.000191726 6.99032e-05 -2.95795e-06
-8.78792e-07 -2.95795e-06 -5.98682e-05
0.00164614 -0.00022123 -6.24945e-07
-0.00022123 0.000171107 -2.11249e-06
-6.24945e-07 -2.11249e-06 3.78844e-07
0.00153133 -0.00021831 1.05275e-07
-0.00021831 7.3086e-05 1.1372e-06
1.05275e-07 1.1372e-06 -8.35375e-05
0.00116779 -0.000208589 -1.85094e-06
-0.000208589 6.52479e-06 1.12522e-06
-1.85094e-06 1.12522e-06 -0.00018454
0.00143955 -0.000236648 2.25205e-06
-0.000236648 0.00011492 -1.04535e-06
2.25205e-06 -1.04535e-06 -8.19336e-05
0.0015707 -0.000253355 1.57126e-06
-0.000253355 0.000143503 1.75581e-06
1.57126e-06 1.75581e-06 -4.55623e-05
0.00116556 -0.000188752 9.3259e-07
-0.000188752 0.000182886 3.02961e-06
9.3259e-07 3.02961e-06 7.92295e-06
0.00110105 -0.000199014 1.49177e-06
-0.000199014 9.16768e-05 -8.36731e-07
1.49177e-06 -8.36731e-07 -0.000100317
0.000629933 -0.000185696 -6.77253e-07
-0.000185696 -0.000212203 -3.77407e-06
-6.77253e-07 -3.77407e-06 -0.000431937
0.00092554 -0.000141688 -1.46546e-06
-0.000141688 0.000114834 2.53258e-07
-1.46546e-06 2.53258e-07 -2.26156e-05
0.00106893 -0.000170167 -1.66203e-07
-0.000170167 0.000188611 -1.24183e-06
-1.66203e-07 -1.24183e-06 3.14359e-05
0.000814706 -0.000158048 -1.70053e-06
-0.000158048 4.13692e-05 -4.71482e-06
-1.70053e-06 -4.71482e-06 -0.00011177
0.000728603 -1.79318e-05 1.12392e-07
-1.79318e-05 4.46464e-05 3.52427e-06
1.12392e-07 3.52427e-06 -4.65935e-05
0.000911754 -9.50658e-05 1.061e-06
-9.50658e-05 0.000147756 4.4471e-07
1.061e-06 4.4471e-07 1.89069e-05
0.000677119 -0.000106293 -1.11432e-06
-0.000106293 2.54715e-05 1.50282e-06
-1.11432e-06 1.50282e-06 -0.000121981
0.000515517 7.27995e-05 9.74727e-07
7.27995e-05 -5.78179e-05 5.19832e-06
9.74727e-07 5.19832e-06 -9.07768e-05
0.000684552 1.17011e-05 -6.15871e-07
1.17011e-05 2.56064e-05 -4.46753e-07
-6.15871e-07 -4.46753e-07 -4.94628e-05
0.000910057 -5.01547e-05 -2.26038e-07
-5.01547e-05 0.000170765 -1.81155e-06
-2.26038e-07 -1.81155e-06 5.46101e-05
0.00228534 0.000100519 -9.33506e-06
0.000100519 0.000940297 1.275e-06
-9.33506e-06 1.275e-06 0.000943316
0.000614913 6.53114e-05 -9.53111e-08
6.53114e-05 -1.25821e-05 -1.13983e-07
-9.53111e-08 -1.13983e-07 -3.74551e-05
0.000690183 2.42002e-05 1.26351e-06
2.42002e-05 1.99765e-05 -2.53341e-06
1.26351e-06 -2.53341e-06 -3.70513e-05
0.00222723 8.16687e-05 1.71778e-06
8.16687e-05 0.000897657 1.4185e-07
1.71778e-06 1.4185e-07 0.000905959
0.00065049 5.81892e-05 4.1902e-07
5.81892e-05 -3.97983e-06 -3.87684e-06
4.1902e-07 -3.87684e-06 -2.35395e-05
0.00222979 7.40712e-05 2.6895e-05
7.40712e-05 0.000891975 -3.16048e-06
2.6895e-05 -3.16048e-06 0.000902245
0.000874043 5.98304e-05 -4.49957e-07
5.98304e-05 0.000124787 -2.85755e-08
-4.49957e-07 -2.85755e-08 2.89004e-05
0.000779336 1.26434e-05 -8.69803e-08
1.26434e-05 6.71024e-05 -2.90662e-07
-8.69803e-08 -2.90662e-07 -2.15736e-05
0.000783278 1.31775e-05 -2.1248e-07
1.31775e-05 7.67833e-05 -1.79223e-06
-2.1248e-07 -1.79223e-06 -1.212e-05
0.000699505 -2.91427e-05 -1.06884e-06
-2.91427e-05 7.74071e-06 -2.51024e-06
-1.06884e-06 -2.51024e-06 -4.52735e-05
0.000753386 4.17987e-06 7.49499e-07
4.17987e-06 5.24802e-05 -1.56062e-08
7.49499e-07 -1.56062e-08 -2.76469e-05
0.000728172 6.53949e-06 7.10476e-07
6.53949e-06 4.20437e-05 6.23813e-07
7.10476e-07 6.23813e-07 -4.56347e-05
0.000623976 -4.61162e-05 -6.22138e-07
-4.61162e-05 -3.4788e-05 -4.34897e-06
-6.22138e-07 -4.34897e-06 -5.43003e-05
0.00069833 -1.74427e-05 -1.54037e-07
-1.74427e-05 2.61338e-06 -1.47914e-08
-1.54037e-07 -1.47914e-08 -4.76577e-05
0.000759403 1.66505e-05 1.2866e-06
1.66505e-05 4.92559e-05 9.20377e-07
1.2866e-06 9.20377e-07 -2.47649e-05
0.00241684 -6.48353e-05 -2.73375e-05
-6.48353e-05 0.000985282 -3.93128e-06
-2.73375e-05 -3.93128e-06 0.000996928
0.00062769 -3.82112e-05 -2.89393e-07
-3.82112e-05 -3.98906e-05 9.43257e-09
-2.89393e-07 9.43257e-09 -5.65075e-05
0.000705671 -7.74525e-06 8.97498e-07
-7.74525e-06 5.12703e-06 2.07878e-06
8.97498e-07 2.07878e-06 -4.29219e-05
0.0023284 -5.38537e-05 -3.05458e-06
-5.38537e-05 0.000928205 1.55019e-07
-3.05458e-06 1.55019e-07 0.00094226
0.000642144 -3.13467e-05 1.97207e-07
-3.13467e-05 -3.77921e-05 3.94627e-06
1.97207e-07 3.94627e-06 -5.13612e-05
0.00222987 -4.19778e-05 1.65148e-05
-4.19778e-05 0.000866068 4.38556e-06
1.65148e-05 4.38556e-06 0.000882601
-0.00294252 -7.65657e-05 3.26745e-05
-7.65657e-05 -6.53232e-05 3.03386e-05
3.26745e-05 3.03386e-05 -0.00112316
0.00221898 -6.05221e-05 2.01017e-06
-6.05221e-05 0.000665813 1.05526e-05
2.01017e-06 1.05526e-05 9.30305e-05
0.00116898 -3.89039e-05 -8.95058e-06
-3.89039e-05 0.000225649 -8.92396e-06
-8.95058e-06 -8.92396e-06 -6.72132e-05
0.000746357 3.05179e-05 -7.28935e-07
3.05179e-05 5.88656e-05 5.5375e-07
-7.28935e-07 5.5375e-07 -3.64608e-05
0.00120546 0.000155587 -1.04751e-07
0.000155587 0.000329588 6.36921e-07
-1.04751e-07 6.36921e-07 0.000207474
0.000794431 3.10513e-05 -1.17545e-06
3.10513e-05 9.41971e-05 -1.23699e-08
-1.17545e-06 -1.23699e-08 -9.98683e-06
0.000940032 -1.66606e-05 4.03937e-07
-1.66606e-05 0.000150184 -2.76944e-07
4.03937e-07 -2.76944e-07 6.78753e-05
0.000977563 5.47755e-05 1.11466e-06
5.47755e-05 0.000179719 3.84787e-07
1.11466e-06 3.84787e-07 8.81187e-05
0.000651096 2.11305e-06 -8.14567e-08
2.11305e-06 -1.37874e-06 1.57881e-06
-8.14567e-08 1.57881e-06 -9.10027e-05
0.000701437 1.62637e-05 -9.10774e-07
1.62637e-05 3.48118e-05 1.75517e-08
-9.10774e-07 1.75517e-08 -6.2341e-05
0.000782922 2.03366e-05 5.1962e-08
2.03366e-05 7.90284e-05 -2.96682e-07
5.1962e-08 -2.96682e-07 -2.0854e-05
0.000936116 6.29872e-05 1.05394e-06
6.29872e-05 0.000186331 -1.57302e-06
1.05394e-06 -1.57302e-06 6.75358e-05
0.000763698 0.000107593 4.1766e-06
0.000107593 3.67269e-05 -5.66287e-06
4.1766e-06 -5.66287e-06 -5.74813e-05
0.000805491 4.43987e-05 5.27149e-08
4.43987e-05 9.29389e-05 -7.48807e-07
5.27149e-08 -7.48807e-07 -1.37437e-06
0.000901189 5.85106e-05 7.82466e-07
5.85106e-05 0.000175722 1.37397e-06
7.82466e-07 1.37397e-06 8.59063e-05
-0.00465667 -0.000441069 -0.000120454
-0.000441069 -0.00174364 1.98263e-05
-0.000120454 1.98263e-05 -0.00213628
-0.00134658 -0.000356532 6.00472e-05
-0.000356532 0.000221529 2.46772e-05
6.00472e-05 2.46772e-05 -0.000285299
0.00260287 3.80497e-05 -7.41641e-05
3.80497e-05 0.000862097 -6.00257e-05
-7.41641e-05 -6.00257e-05 -0.000295316
-0.00556742 -0.000945093 0.000112978
-0.000945093 -0.00341766 0.000126036
0.000112978 0.000126036 -0.00155609
0.00717616 -0.000769971 -1.14707e-05
-0.000769971 0.00209201 2.32752e-05
-1.14707e-05 2.32752e-05 0.00223457
0.0010132 0.000582243 4.69381e-05
0.000582243 8.45448e-05 -2.23148e-05
4.69381e-05 -2.23148e-05 -0.00261302
0.00335055 -0.000157028 -0.000147168
-0.000157028 0.000603635 7.01469e-05
-0.000147168 7.01469e-05 -7.27545e-05
0.00295068 0.00019 -2.3968e-05
0.00019 0.000430144 1.0006e-05
-2.3968e-05 1.0006e-05 0.000109879
0.00630764 -0.000970096 -3.96211e-05
-0.000970096 0.0029339 3.15033e-05
-3.96211e-05 3.15033e-05 0.00321006
0.0016645 0.000256416 8.73404e-06
0.000256416 0.000682334 4.31954e-06
8.73404e-06 4.31954e-06 -0.00161048
0.00257246 0.000489931 -0.000111902
0.000489931 0.000745678 -6.93992e-05
-0.000111902 -6.93992e-05 3.83796e-05
0.00270893 0.000659642 -0.000179397
0.000659642 0.000454734 -7.00476e-05
-0.000179397 -7.00476e-05 -0.00162125
0.00206175 0.000404093 1.07234e-05
0.000404093 0.000512991 -1.24693e-05
1.07234e-05 -1.24693e-05 0.000350274
0.000775049 0.000174025 -4.05725e-06
0.000174025 8.41419e-05 1.28522e-06
-4.05725e-06 1.28522e-06 9.09457e-06
0.00107098 4.60914e-05 -7.88523e-07
4.60914e-05 0.000268022 -2.52919e-06
-7.88523e-07 -2.52919e-06 0.000198433
-0.000286407 0.000146102 -3.07748e-05
0.000146102 -0.000154878 -2.42484e-05
-3.07748e-05 -2.42484e-05 -0.000531451
0.00190636 0.000196951 -7.78648e-06
0.000196951 0.000795553 -7.68099e-06
-7.78648e-06 -7.68099e-06 0.000684734
0.00118671 0.000344512 8.28633e-06
0.000344512 0.000140154 -1.94429e-06
8.28633e-06 -1.94429e-06 -4.57149e-05
0.00253873 0.000523841 7.34803e-05
0.000523841 0.000250941 3.501e-05
7.34803e-05 3.501e-05 0.00021893
-0.00380671 -4.19952e-05 -0.000167008
-4.19952e-05 -0.00210668 -1.05126e-05
-0.000167008 -1.05126e-05 -0.00170357
-0.000957497 1.38912e-05 5.38331e-05
1.38912e-05 0.00110035 1.11635e-06
5.38331e-05 1.11635e-06 0.000124049
0.00160226 -3.95878e-05 -6.22723e-05
-3.95878e-05 0.000419644 8.0537e-06
-6.22723e-05 8.0537e-06 -5.58998e-06
0.00235887 -0.000189327 -4.37513e-05
-0.000189327 0.000481362 -2.46195e-05
-4.37513e-05 -2.46195e-05 0.000758566
0.0031619 -0.000725223 -4.28965e-05
-0.000725223 0.000538128 3.9697e-06
-4.28965e-05 3.9697e-06 -0.000229096
0.00178411 0.000114937 -4.43005e-05
0.000114937 0.00204436 2.62888e-05
-4.43005e-05 2.62888e-05 0.00157726
-0.000836408 -0.000292084 9.14392e-05
-0.000292084 -0.000902246 -7.96284e-05
9.14392e-05 -7.96284e-05 -0.00316546
0.0085832 0.000557255 -2.36221e-05
0.000557255 0.0042381 5.34931e-06
-2.36221e-05 5.34931e-06 0.00404351
0.00204207 -0.000401515 -7.32015e-06
-0.000401515 0.000351613 2.79316e-06
-7.32015e-06 2.79316e-06 0.000332897
-0.00110979 0.000321657 7.80713e-06
0.000321657 -0.000468735 -5.05293e-06
7.80713e-06 -5.05293e-06 -0.000739275
0.00372214 5.73313e-05 -2.06065e-05
5.73313e-05 0.000531062 3.01409e-05
-2.06065e-05 3.01409e-05 -0.00135071
0.00570986 -0.000766972 -3.62703e-05
-0.000766972 0.00144505 1.13403e-05
-3.62703e-05 1.13403e-05 0.000584807
-0.000852588 -0.000161993 2.28667e-05
-0.000161993 -0.000932189 -6.3566e-06
2.28667e-05 -6.3566e-06 -0.00115545
0.0082505 -0.000209355 4.51405e-05
-0.000209355 0.0023116 -1.10945e-05
4.51405e-05 -1.10945e-05 0.0012724
0.00375274 -0.000304431 3.39556e-05
-0.000304431 0.000508609 -2.09955e-05
3.39556e-05 -2.09955e-05 -4.47933e-05
-0.000308761 -0.00016282 -2.10839e-05
-0.00016282 -0.000784384 6.48052e-06
-2.10839e-05 6.48052e-06 -0.000714434
0.00102897 -0.000246542 -1.87725e-06
-0.000246542 -0.00029831 -9.49991e-07
-1.87725e-06 -9.49991e-07 -0.000245968
0.00227772 -0.000330023 1.59991e-05
-0.000330023 0.000194962 -1.3523e-05
1.59991e-05 -1.3523e-05 0.000238868
0.00150216 -0.00032178 -1.16501e-05
-0.00032178 0.000112849 -2.05e-06
-1.16501e-05 -2.05e-06 -7.7887e-05
0.0016527 -0.000340953 -6.2624e-07
-0.000340953 1.11967e-05 5.51998e-07
-6.2624e-07 5.51998e-07 -0.000118199
0.00209437 -0.000315507 -2.9894e-06
-0.000315507 0.000160135 -5.71003e-07
-2.9894e-06 -5.71003e-07 7.54158e-05
0.00141128 -0.000298761 -1.03986e-07
-0.000298761 5.05168e-05 2.06231e-06
-1.03986e-07 2.06231e-06 -0.000137523
0.00178272 -0.00028917 -2.27551e-06
-0.00028917 0.000111507 -6.23662e-07
-2.27551e-06 -6.23662e-07 -2.69288e-05
0.00189879 -0.000238073 -2.31152e-06
-0.000238073 0.000103545 -1.50362e-06
-2.31152e-06 -1.50362e-06 6.06611e-06
0.00150708 -0.000261353 1.15238e-06
-0.000261353 3.92568e-05 3.32623e-06
1.15238e-06 3.32623e-06 -0.000129684
0.00168126 -0.000228695 -1.70009e-07
-0.000228695 8.64178e-05 1.26863e-07
-1.70009e-07 1.26863e-07 -4.04635e-05
0.00173818 -0.000193401 -1.10764e-07
-0.000193401 9.09468e-05 -1.85895e-06
-1.10764e-07 -1.85895e-06 -8.50156e-06
0.00176188 -0.000175457 -1.0965e-07
-0.000175457 0.000151353 -1.03143e-06
-1.0965e-07 -1.03143e-06 4.05189e-05
0.00159454 -0.000188516 -2.16553e-06
-0.000188516 6.77407e-05 2.24283e-06
-2.16553e-06 2.24283e-06 -5.87826e-05
0.00170107 -0.000190421 7.61287e-07
-0.000190421 0.000167172 -4.54637e-06
7.61287e-07 -4.54637e-06 2.55841e-05
0.00168853 -0.000216097 -3.53687e-06
-0.000216097 0.000225844 -1.18071e-06
-3.53687e-06 -1.18071e-06 5.70517e-05
0.0016576 -0.000221077 1.47005e-06
-0.000221077 0.000176311 2.3981e-07
1.47005e-06 2.3981e-07 5.41237e-06
0.00147019 -0.000212024 -3.82144e-07
-0.000212024 3.88542e-05 5.09388e-06
-3.82144e-07 5.09388e-06 -0.0001162
0.00117897 -0.000197308 -5.13545e-06
-0.000197308 7.6983e-05 3.05899e-06
-5.13545e-06 3.05899e-06 -0.000103587
0.0013866 -0.000221331 9.04086e-07
-0.000221331 0.000127963 -2.75278e-07
9.04086e-07 -2.75278e-07 -6.28615e-05
0.00119136 -0.000217949 2.12115e-06
-0.000217949 -1.90823e-05 -4.30063e-07
2.12115e-06 -4.30063e-07 -0.000211606
0.000989306 -0.000157952 -1.65005e-06
-0.000157952 0.000109071 1.74362e-06
-1.65005e-06 1.74362e-06 -4.11033e-05
0.00117228 -0.000187896 7.15091e-07
-0.000187896 0.000181673 1.01894e-07
7.15091e-07 1.01894e-07 7.20297e-06
0.000771166 -0.000174348 -2.0582e-07
-0.000174348 -8.28458e-05 -5.01582e-06
-2.0582e-07 -5.01582e-06 -0.000270585
0.00075227 -7.81942e-05 -3.56733e-06
-7.81942e-05 3.87796e-05 2.9491e-06
-3.56733e-06 2.9491e-06 -6.5248e-05
0.001038 -0.000151274 1.03629e-07
-0.000151274 0.000175015 -2.78307e-07
1.03629e-07 -2.78307e-07 3.62731e-05
0.00113855 -0.000174378 -5.81031e-07
-0.000174378 0.000222656 -1.87895e-06
-5.81031e-07 -1.87895e-06 6.52338e-05
0.000498566 5.7863e-05 1.8598e-06
5.7863e-05 -6.87699e-05 6.96116e-06
1.8598e-06 6.96116e-06 -0.00010951
0.000748595 -3.50569e-05 3.60884e-07
-3.50569e-05 5.82049e-05 2.50426e-07
3.60884e-07 2.50426e-07 -3.69686e-05
0.00107337 -0.000107039 1.1047e-06
-0.000107039 0.000237979 -2.12064e-07
1.1047e-06 -2.12064e-07 0.000106688
0.00251106 0.000104751 -3.84789e-05
0.000104751 0.00107201 2.38124e-06
-3.84789e-05 2.38124e-06 0.00107384
0.000582118 6.94468e-05 -2.32786e-07
6.94468e-05 -2.16075e-05 -3.40141e-07
-2.32786e-07 -3.40141e-07 -5.43651e-05
0.000740595 -2.89238e-05 2.28243e-06
-2.89238e-05 5.39501e-05 -3.56332e-06
2.28243e-06 -3.56332e-06 -2.16778e-05
0.00161565 7.65136e-05 1.59895e-05
7.65136e-05 0.000558219 -3.56824e-07
1.59895e-05 -3.56824e-07 0.000559855
0.00064757 6.94252e-05 -1.44497e-06
6.94252e-05 7.29438e-06 -4.78503e-06
-1.44497e-06 -4.78503e-06 -1.86453e-05
0.00230751 8.38892e-05 3.20712e-05
8.38892e-05 0.000944044 -2.7809e-06
3.20712e-05 -2.7809e-06 0.000951768
0.000891644 7.62979e-05 9.2382e-07
7.62979e-05 0.000131533 4.32103e-07
9.2382e-07 4.32103e-07 2.88333e-05
0.000769882 2.18142e-05 -2.23139e-07
2.18142e-05 6.1715e-05 4.897e-07
-2.23139e-07 4.897e-07 -2.8514e-05
0.000750747 -1.79464e-05 2.10026e-07
-1.79464e-05 5.86271e-05 -1.69851e-06
2.10026e-07 -1.69851e-06 -3.21517e-05
0.000862425 3.42482e-05 4.11042e-07
3.42482e-05 0.00011465 5.76205e-07
4.11042e-07 5.76205e-07 2.40731e-05
0.000752082 -1.57826e-05 3.793e-07
-1.57826e-05 5.26476e-05 -4.30257e-08
3.793e-07 -4.30257e-08 -3.06484e-05
0.000680523 -2.96115e-05 -1.04532e-06
-2.96115e-05 2.70437e-06 -2.88697e-06
-1.04532e-06 -2.88697e-06 -5.43792e-05
0.000623785 -5.37008e-05 -5.79e-07
-5.37008e-05 -2.63775e-05 -4.63437e-06
-5.79e-07 -4.63437e-06 -4.87055e-05
0.000691282 -2.56534e-05 1.33428e-07
-2.56534e-05 3.49039e-06 -5.48241e-08
1.33428e-07 -5.48241e-08 -4.94702e-05
0.000723133 -3.09827e-05 -1.98321e-08
-3.09827e-05 2.77506e-05 1.18554e-06
-1.98321e-08 1.18554e-06 -4.59853e-05
0.00245246 -7.44535e-05 -3.21747e-05
-7.44535e-05 0.0010123 -3.57728e-06
-3.21747e-05 -3.57728e-06 0.00102196
0.000617394 -4.43485e-05 -2.84834e-07
-4.43485e-05 -3.88301e-05 3.70706e-08
-2.84834e-07 3.70706e-08 -5.80773e-05
0.000697542 -9.67362e-06 1.68653e-06
-9.67362e-06 2.59043e-06 2.21183e-06
1.68653e-06 2.21183e-06 -4.77292e-05
0.00240059 -6.42951e-05 -2.86446e-06
-6.42951e-05 0.000975428 1.78708e-07
-2.86446e-06 1.78708e-07 0.000987249
0.000628986 -3.72107e-05 4.31213e-07
-3.72107e-05 -3.92823e-05 4.14251e-06
4.31213e-07 4.14251e-06 -5.57715e-05
0.00230486 -5.30431e-05 2.03982e-05
-5.30431e-05 0.000914119 4.23196e-06
2.03982e-05 4.23196e-06 0.000928467
0.000727215 0.000198184 -1.30752e-06
0.000198184 0.00103695 4.20168e-05
-1.30752e-06 4.20168e-05 0.000342011
-0.000916973 -0.00013954 1.15652e-06
-0.00013954 0.000731148 9.14099e-06
1.15652e-06 9.14099e-06 -0.000238404
0.00213528 -7.48708e-05 -6.32266e-05
-7.48708e-05 0.000692582 -1.39689e-05
-6.32266e-05 -1.39689e-05 0.000123637
0.000680481 5.12736e-07 7.43792e-07
5.12736e-07 1.997e-05 1.89702e-07
7.43792e-07 1.89702e-07 -7.2025e-05
0.000767096 1.08752e-05 2.8025e-07
1.08752e-05 7.66282e-05 6.57036e-07
2.8025e-07 6.57036e-07 -2.62817e-05
0.000994924 0.000134942 -5.61771e-07
0.000134942 0.000217574 3.41493e-07
-5.61771e-07 3.41493e-07 9.92228e-05
0.00120506 0.000177516 1.42546e-06
0.000177516 0.000299997 -3.64133e-07
1.42546e-06 -3.64133e-07 0.000160187
0.000931519 0.000100624 -2.42236e-06
0.000100624 0.000194366 -9.53151e-07
-2.42236e-06 -9.53151e-07 6.88908e-05
0.000828326 5.88404e-05 1.05416e-06
5.88404e-05 0.000104957 1.1631e-06
1.05416e-06 1.1631e-06 6.31723e-06
0.000754792 2.88246e-05 9.56035e-07
2.88246e-05 6.2922e-05 1.20169e-06
9.56035e-07 1.20169e-06 -3.66238e-05
0.00070239 7.47124e-05 -1.53483e-06
7.47124e-05 5.49664e-05 -1.45839e-06
-1.53483e-06 -1.45839e-06 -5.8924e-05
-0.000195864 7.2712e-05 -5.57077e-07
7.2712e-05 -0.000452557 2.38822e-07
-5.57077e-07 2.38822e-07 -0.000578702
0.00105363 0.000159209 1.92455e-07
0.000159209 0.000176756 -4.44208e-06
1.92455e-07 -4.44208e-06 6.63996e-05
0.00223522 0.000353188 4.93645e-06
0.000353188 0.000538122 -1.11278e-05
4.93645e-06 -1.11278e-05 0.000367883
0.0007202 0.000103723 -2.71461e-06
0.000103723 3.91198e-05 -6.06663e-07
-2.71461e-06 -6.06663e-07 -5.33789e-05
0.000686102 1.93381e-05 -5.38739e-08
1.93381e-05 3.91144e-05 -1.09426e-06
-5.38739e-08 -1.09426e-06 -4.43907e-05
0.0113293 0.00016335 -6.24507e-05
0.00016335 0.00365999 3.30697e-06
-6.24507e-05 3.30697e-06 0.00236089
-0.00145864 -0.000378381 -7.84138e-05
-0.000378381 8.67637e-05 -1.82888e-05
-7.84138e-05 -1.82888e-05 -0.000516267
0.000302275 -0.000439043 -1.32481e-05
-0.000439043 0.000674086 -3.14927e-05
-1.32481e-05 -3.14927e-05 0.000128114
-0.00412376 -0.000416349 1.91567e-05
-0.000416349 -0.0018939 5.10447e-05
1.91567e-05 5.10447e-05 -0.00166121
0.00908839 5.25535e-06 7.5857e-05
5.25535e-06 0.00439986 -1.12869e-05
7.5857e-05 -1.12869e-05 0.00155323
0.00240847 0.000252096 -2.22045e-05
0.000252096 0.000353372 4.20465e-07
-2.22045e-05 4.20465e-07 0.000127856
0.00167957 0.00045853 -4.19536e-05
0.00045853 0.000167586 -1.6389e-05
-4.19536e-05 -1.6389e-05 -0.00041642
0.00848686 -3.99922e-05 5.04402e-05
-3.99922e-05 0.00306783 1.56891e-05
5.04402e-05 1.56891e-05 0.00144269
0.00400911 0.000644894 1.16935e-05
0.000644894 0.000547683 -2.67967e-05
1.16935e-05 -2.67967e-05 -0.000101927
0.00204406 0.000455455 2.98819e-06
0.000455455 0.000304222 1.17072e-05
2.98819e-06 1.17072e-05 0.000145608
0.000901396 0.000293635 3.79734e-06
0.000293635 1.11448e-06 -3.91688e-06
3.79734e-06 -3.91688e-06 -0.000163025
0.00104644 0.000170356 -1.30919e-05
0.000170356 0.000233214 8.06427e-06
-1.30919e-05 8.06427e-06 0.000160962
0.00167667 0.000395525 -2.68949e-05
0.000395525 0.000289402 -1.60557e-05
-2.68949e-05 -1.60557e-05 0.000120564
0.00174036 0.000476597 -1.68866e-05
0.000476597 -0.000113567 1.46045e-05
-1.68866e-05 1.46045e-05 -0.000170437
0.000583905 -0.000158431 -2.44998e-05
-0.000158431 -0.0020304 -2.98776e-06
-2.44998e-05 -2.98776e-06 -0.00243491
0.00222074 -0.000153994 3.42726e-06
-0.000153994 0.00130879 -7.33479e-06
3.42726e-06 -7.33479e-06 0.00124004
-0.00253857 -1.01445e-05 3.00005e-05
-1.01445e-05 0.000430612 -2.94476e-06
3.00005e-05 -2.94476e-06 -0.000682916
0.00272523 -0.000494292 -5.11147e-05
-0.000494292 0.000619554 6.34177e-06
-5.11147e-05 6.34177e-06 0.00053822
0.003849 -0.000704738 4.70916e-07
-0.000704738 0.000888982 -1.27907e-05
4.70916e-07 -1.27907e-05 -0.000313579
0.000997249 -0.000164884 4.67115e-05
-0.000164884 0.000951119 1.79746e-05
4.67115e-05 1.79746e-05 0.000528929
0.00956371 0.000114108 -6.56259e-05
0.000114108 0.00357851 3.40841e-05
-6.56259e-05 3.40841e-05 0.00185068
0.000687124 -0.000232684 -1.12238e-05
-0.000232684 -0.000260693 -8.6569e-07
-1.12238e-05 -8.6569e-07 -0.000389764
0.00685934 8.3776e-05 -2.73184e-06
8.3776e-05 0.00157616 2.30248e-05
-2.73184e-06 2.30248e-05 0.000693998
0.00426946 -0.000393893 5.21329e-05
-0.000393893 0.000466134 -8.87068e-07
5.21329e-05 -8.87068e-07 -0.000313463
0.00203099 -0.000252995 1.49966e-05
-0.000252995 0.000466093 -2.58923e-06
1.49966e-05 -2.58923e-06 0.000193286
0.00326185 -0.000100378 -7.05337e-05
-0.000100378 0.00055744 -1.225e-05
-7.05337e-05 -1.225e-05 0.00025144
-0.000124204 -0.00019373 -1.90244e-05
-0.00019373 -0.000919476 5.61477e-06
-1.90244e-05 5.61477e-06 -0.000843529
0.00149652 -0.000303234 1.08421e-07
-0.000303234 -0.000196369 -3.53793e-07
1.08421e-07 -3.53793e-07 -0.000167403
0.00187641 -0.000221826 7.04261e-06
-0.000221826 -6.22138e-05 -3.46024e-06
7.04261e-06 -3.46024e-06 -3.78582e-05
0.00143354 -0.000328093 -7.18023e-07
-0.000328093 -0.000102622 1.29698e-06
-7.18023e-07 1.29698e-06 -0.000226821
0.00178155 -0.000289197 -1.00289e-06
-0.000289197 1.77303e-05 -1.83393e-07
-1.00289e-06 -1.83393e-07 -6.41631e-05
0.00184816 -0.000206007 -1.47784e-06
-0.000206007 -1.06447e-05 1.06937e-06
-1.47784e-06 1.06937e-06 -5.45944e-05
0.00155595 -0.00027752 -3.08787e-06
-0.00027752 -1.00193e-05 2.77867e-06
-3.08787e-06 2.77867e-06 -0.000147995
0.00181216 -0.00023463 3.61186e-07
-0.00023463 5.52404e-05 1.24042e-06
3.61186e-07 1.24042e-06 -4.20267e-05
0.00184286 -0.000197521 -3.80331e-08
-0.000197521 9.00719e-05 5.92184e-07
-3.80331e-08 5.92184e-07 1.04957e-05
0.00159431 -0.000220795 1.46812e-06
-0.000220795 4.36772e-05 3.99353e-06
1.46812e-06 3.99353e-06 -8.17514e-05
0.00171502 -0.000194581 4.83723e-08
-0.000194581 7.85888e-05 1.08162e-06
4.83723e-08 1.08162e-06 -2.1908e-05
0.00192281 -0.000184474 1.67323e-06
-0.000184474 0.000212597 -3.96561e-07
1.67323e-06 -3.96561e-07 0.000117496
0.00169034 -0.000175187 -3.45525e-06
-0.000175187 0.000107538 2.74763e-06
-3.45525e-06 2.74763e-06 -1.16257e-06
0.00173475 -0.000174805 2.7807e-06
-0.000174805 0.000168897 -2.72514e-06
2.7807e-06 -2.72514e-06 4.54268e-05
0.00158844 -0.000185731 -4.29469e-07
-0.000185731 6.44575e-05 6.36503e-06
-4.29469e-07 6.36503e-06 -5.89175e-05
0.00169639 -0.000190904 7.68631e-07
-0.000190904 0.000165178 -8.28745e-07
7.68631e-07 -8.28745e-07 2.32437e-05
0.00162431 -0.000182672 -1.2758e-06
-0.000182672 0.000164749 -1.94173e-06
-1.2758e-06 -1.94173e-06 1.61336e-05
0.00130856 -0.000188924 -5.86861e-06
-0.000188924 6.24685e-05 1.8804e-07
-5.86861e-06 1.8804e-07 -0.000100099
0.00165769 -0.000214089 5.331e-07
-0.000214089 0.000208342 -2.88653e-07
5.331e-07 -2.88653e-07 3.95977e-05
0.00167692 -0.000221559 1.8375e-06
-0.000221559 0.000186978 2.26536e-06
1.8375e-06 2.26536e-06 1.57592e-05
0.00118125 -0.000179172 -3.87123e-06
-0.000179172 0.00014609 3.56897e-06
-3.87123e-06 3.56897e-06 -1.48742e-05
0.00116439 -0.000195001 -1.40307e-06
-0.000195001 7.18135e-05 1.3714e-06
-1.40307e-06 1.3714e-06 -0.000108194
0.0016256 -0.000235417 3.98871e-06
-0.000235417 0.000261089 -1.18752e-06
3.98871e-06 -1.18752e-06 7.03055e-05
0.000729863 -9.77488e-05 -4.08566e-06
-9.77488e-05 -1.92166e-06 3.23802e-06
-4.08566e-06 3.23802e-06 -0.000114236
0.00107233 -0.000164534 2.29569e-07
-0.000164534 0.000152853 -4.73565e-07
2.29569e-07 -4.73565e-07 1.71001e-06
0.00121032 -0.00018945 1.29938e-06
-0.00018945 0.00019771 -3.05833e-06
1.29938e-06 -3.05833e-06 2.34285e-05
0.000501473 2.90424e-06 -4.76917e-06
2.90424e-06 -8.53095e-05 7.77872e-06
-4.76917e-06 7.77872e-06 -0.000129806
0.000811729 -8.64179e-05 4.63459e-08
-8.64179e-05 7.15147e-05 2.24588e-07
4.63459e-08 2.24588e-07 -3.37287e-05
0.00111109 -0.00015253 1.75791e-06
-0.00015253 0.000212528 -9.91139e-07
1.75791e-06 -9.91139e-07 7.40297e-05
0.00287722 0.00012099 -4.81996e-05
0.00012099 0.00128135 2.29583e-06
-4.81996e-05 2.29583e-06 0.0012788
0.000573304 3.58834e-05 4.36815e-07
3.58834e-05 -3.32416e-05 -3.60095e-07
4.36815e-07 -3.60095e-07 -7.15428e-05
0.000792018 -7.28051e-05 3.17826e-06
-7.28051e-05 7.95929e-05 -3.05015e-06
3.17826e-06 -3.05015e-06 -1.64705e-05
0.0026147 0.00010529 2.66707e-06
0.00010529 0.00112923 2.17551e-07
2.66707e-06 2.17551e-07 0.00113097
0.000642549 5.64059e-05 9.40119e-07
5.64059e-05 8.71765e-06 -5.66084e-06
9.40119e-07 -5.66084e-06 -2.24216e-05
0.00245343 9.37641e-05 3.96785e-05
9.37641e-05 0.00103293 -2.48168e-06
3.96785e-05 -2.48168e-06 0.00103801
0.000942966 0.000148144 8.88455e-07
0.000148144 0.000145621 -1.11999e-06
8.88455e-07 -1.11999e-06 1.52652e-05
0.000828617 0.000105465 6.04909e-07
0.000105465 0.000102664 -3.0305e-08
6.04909e-07 -3.0305e-08 -5.00975e-06
0.000666304 -4.7728e-06 -5.86763e-07
-4.7728e-06 9.96449e-06 -9.98162e-07
-5.86763e-07 -9.98162e-07 -8.89716e-05
0.000656887 -9.24796e-06 2.35993e-08
-9.24796e-06 -2.4637e-06 8.72989e-07
2.35993e-08 8.72989e-07 -8.99891e-05
0.000699001 -3.12272e-05 7.06937e-08
-3.12272e-05 2.63027e-05 1.59463e-07
7.06937e-08 1.59463e-07 -6.24535e-05
0.000661406 -2.86048e-05 -1.06038e-06
-2.86048e-05 -3.13114e-06 -3.15896e-06
-1.06038e-06 -3.15896e-06 -6.76091e-05
0.000707744 -3.37011e-05 -8.6086e-08
-3.37011e-05 2.39204e-05 1.57472e-06
-8.6086e-08 1.57472e-06 -5.57957e-05
0.000670261 -3.39594e-05 3.43733e-07
-3.39594e-05 -1.9598e-06 -1.78826e-07
3.43733e-07 -1.78826e-07 -5.92943e-05
0.000619523 -6.45385e-05 3.85479e-07
-6.45385e-05 -1.75687e-05 -5.13444e-06
3.85479e-07 -5.13444e-06 -4.39906e-05
0.00248049 -8.39655e-05 -3.64899e-05
-8.39655e-05 0.00103547 -3.15122e-06
-3.64899e-05 -3.15122e-06 0.00104308
0.000611835 -5.13844e-05 -3.65795e-08
-5.13844e-05 -3.37211e-05 3.12722e-08
-3.65795e-08 3.12722e-08 -5.56186e-05
0.000674727 -2.30839e-05 1.89299e-06
-2.30839e-05 -5.38346e-06 2.41118e-06
1.89299e-06 2.41118e-06 -5.82566e-05
0.0024475 -7.40523e-05 -2.55762e-06
-7.40523e-05 0.00100886 1.95187e-07
-2.55762e-06 1.95187e-07 0.00101857
0.00061488 -4.27888e-05 6.98578e-07
-4.27888e-05 -4.05192e-05 4.34946e-06
6.98578e-07 4.34946e-06 -5.9558e-05
0.0023777 -6.35826e-05 2.51566e-05
-6.35826e-05 0.00096175 4.03399e-06
2.51566e-05 4.03399e-06 0.000973798
0.00971307 0.000272788 0.000120804
0.000272788 0.0028965 4.22603e-05
0.000120804 4.22603e-05 0.00197168
-0.00236281 -0.000308054 -4.94834e-05
-0.000308054 -0.00133688 -3.91085e-06
-4.94834e-05 -3.91085e-06 -0.00145287
-0.00257902 -8.21325e-06 -5.40808e-05
-8.21325e-06 -8.21022e-05 -1.61413e-05
-5.40808e-05 -1.61413e-05 -0.00126709
0.000721557 -1.91065e-05 1.82316e-06
-1.91065e-05 4.84071e-05 1.83729e-06
1.82316e-06 1.83729e-06 -5.26713e-05
0.000795995 0.000126808 -9.98081e-07
0.000126808 0.000111168 1.18323e-06
-9.98081e-07 1.18323e-06 -3.76594e-06
0.00107811 0.000112278 5.50736e-07
0.000112278 0.000274609 -8.26541e-10
5.50736e-07 -8.26541e-10 0.000149039
0.00104622 0.000164988 -1.66198e-06
0.000164988 0.000215035 1.39303e-07
-1.66198e-06 1.39303e-07 7.7812e-05
0.00108315 0.000176169 1.26339e-05
0.000176169 0.000195853 1.37034e-06
1.26339e-05 1.37034e-06 3.88974e-05
0.000417353 0.000118535 -1.28709e-06
0.000118535 -0.000109997 -6.06569e-07
-1.28709e-06 -6.06569e-07 -0.000241602
0.000490108 7.7771e-05 -1.15687e-06
7.7771e-05 -5.88411e-05 -9.28587e-07
-1.15687e-06 -9.28587e-07 -0.000171472
0.000378772 0.000118585 5.27703e-07
0.000118585 -0.000143777 7.52824e-07
5.27703e-07 7.52824e-07 -0.000280162
0.000972495 0.000145547 -1.47186e-06
0.000145547 0.000136836 1.29373e-08
-1.47186e-06 1.29373e-08 2.24873e-05
0.000213161 0.000146523 1.35163e-06
0.000146523 -0.000356613 -1.29628e-06
1.35163e-06 -1.29628e-06 -0.000491422
0.00282617 0.00036384 -2.40881e-06
0.00036384 0.000868102 -3.70567e-06
-2.40881e-06 -3.70567e-06 0.000711676
0.00158307 0.000348032 -8.25526e-07
0.000348032 7.32018e-05 2.22541e-06
-8.25526e-07 2.22541e-06 -8.65872e-05
0.00147622 0.000303203 4.27318e-06
0.000303203 0.000162717 -2.71928e-06
4.27318e-06 -2.71928e-06 4.53894e-06
0.000692256 0.000109566 -4.94959e-06
0.000109566 4.43851e-05 5.19296e-06
-4.94959e-06 5.19296e-06 -4.7571e-05
0.00311749 0.00023591 9.54342e-06
0.00023591 -0.000179155 9.04216e-06
9.54342e-06 9.04216e-06 -0.0004354
0.00644898 0.000109639 2.13101e-05
0.000109639 0.00139043 1.97237e-05
2.13101e-05 1.97237e-05 0.000101764
0.005608 -0.000791762 -1.50016e-05
-0.000791762 0.00294124 -4.19473e-05
-1.50016e-05 -4.19473e-05 0.00277998
0.00561418 0.000367071 0.000300734
0.000367071 0.00174703 8.82619e-05
0.000300734 8.82619e-05 -0.000604985
0.0010783 0.000405432 2.75766e-05
0.000405432 -0.000383168 2.59324e-05
2.75766e-05 2.59324e-05 -0.000542697
0.00286482 0.000519464 -7.44431e-05
0.000519464 0.000141182 -2.37878e-05
-7.44431e-05 -2.37878e-05 -0.000290274
0.00299374 0.00048714 5.60788e-05
0.00048714 0.000511219 2.33956e-05
5.60788e-05 2.33956e-05 0.000524639
0.00229162 0.000469081 1.2908e-06
0.000469081 0.000392646 5.4872e-06
1.2908e-06 5.4872e-06 0.000259529
0.000590258 0.000254901 -1.7114e-06
0.000254901 -0.000134529 7.71537e-06
-1.7114e-06 7.71537e-06 -0.000289574
0.00250126 0.000545362 -8.07024e-05
0.000545362 0.000257075 -4.78579e-05
-8.07024e-05 -4.78579e-05 0.000170695
0.00288412 -0.000147846 -0.000131729
-0.000147846 0.000381098 5.75752e-06
-0.000131729 5.75752e-06 -2.52007e-06
0.00908882 -0.00014345 8.28652e-06
-0.00014345 0.00284049 -2.52424e-06
8.28652e-06 -2.52424e-06 0.00220974
-0.00694685 -0.000216349 0.000173763
-0.000216349 -0.00371128 1.70239e-06
0.000173763 1.70239e-06 -0.00358606
0.00160799 -0.000286 -2.19317e-05
-0.000286 0.000137642 8.73198e-06
-2.19317e-05 8.73198e-06 5.04108e-05
0.00530767 -0.000437766 7.65952e-05
-0.000437766 0.0011602 9.30346e-06
7.65952e-05 9.30346e-06 0.000355807
0.00136912 -0.000359351 7.61879e-05
-0.000359351 -0.00122209 4.51056e-05
7.61879e-05 4.51056e-05 -0.00206064
0.00119834 -0.000182385 1.0229e-05
-0.000182385 2.22028e-05 -1.03675e-06
1.0229e-05 -1.03675e-06 -0.000161536
0.00188069 -2.01432e-05 -6.96668e-06
-2.01432e-05 -0.000306683 5.50284e-06
-6.96668e-06 5.50284e-06 -0.000584626
0.004306 -0.000200015 1.39804e-05
-0.000200015 0.00140805 -4.22914e-06
1.39804e-05 -4.22914e-06 0.00132508
0.00299647 -1.10549e-05 5.57512e-05
-1.10549e-05 0.000591805 -4.68596e-06
5.57512e-05 -4.68596e-06 0.00057761
0.000672965 -0.000276989 -1.12282e-05
-0.000276989 -0.000603944 4.94045e-06
-1.12282e-05 4.94045e-06 -0.000591802
0.00179779 -0.000230284 -4.09451e-07
-0.000230284 -9.32167e-05 1.43644e-06
-4.09451e-07 1.43644e-06 -8.44273e-05
0.00181913 -0.000121565 7.12697e-06
-0.000121565 -3.09489e-05 -6.19925e-07
7.12697e-06 -6.19925e-07 -3.42386e-05
0.00157795 -0.000269451 2.65884e-06
-0.000269451 -7.23978e-05 -8.95256e-09
2.65884e-06 -8.95256e-09 -0.000151299
0.00188566 -0.000207848 1.79736e-06
-0.000207848 2.21762e-05 7.67861e-07
1.79736e-06 7.67861e-07 -2.76803e-05
0.00179333 -0.000142827 6.49064e-07
-0.000142827 3.94119e-05 8.55222e-07
6.49064e-07 8.55222e-07 -1.11593e-05
0.00173868 -0.000231789 5.88994e-06
-0.000231789 1.36332e-05 3.01997e-06
5.88994e-06 3.01997e-06 -8.3535e-05
0.00183502 -0.000193866 1.09266e-06
-0.000193866 9.4306e-05 3.5795e-07
1.09266e-06 3.5795e-07 1.47584e-05
0.00196855 -0.000161398 3.80903e-07
-0.000161398 0.000217126 6.62806e-07
3.80903e-07 6.62806e-07 0.000134917
0.00169379 -0.000195026 7.39694e-07
-0.000195026 6.8041e-05 3.47553e-06
7.39694e-07 3.47553e-06 -3.34008e-05
0.00177546 -0.000181413 -2.34661e-07
-0.000181413 0.000135643 4.43272e-07
-2.34661e-07 4.43272e-07 3.9283e-05
0.0016242 -0.000165111 4.17916e-06
-0.000165111 8.59297e-05 -1.40413e-06
4.17916e-06 -1.40413e-06 -2.59848e-05
0.0016253 -0.000175181 -3.86504e-06
-0.000175181 6.77534e-05 6.04029e-06
-3.86504e-06 6.04029e-06 -3.88658e-05
0.00175425 -0.000174222 -1.43675e-06
-0.000174222 0.000179431 -6.1279e-08
-1.43675e-06 -6.1279e-08 5.85108e-05
0.00170535 -0.000164609 6.34014e-07
-0.000164609 0.000200974 -1.26262e-06
6.34014e-07 -1.26262e-06 6.46657e-05
0.00168588 -0.000190985 8.54992e-07
-0.000190985 0.000159591 2.69293e-06
8.54992e-07 2.69293e-06 1.73976e-05
0.00166241 -0.000184397 7.96781e-07
-0.000184397 0.000186897 -7.0981e-07
7.96781e-07 -7.0981e-07 3.75486e-05
0.00158114 -0.000176393 -3.31455e-06
-0.000176393 0.000186747 -5.91409e-08
-3.31455e-06 -5.91409e-08 3.99229e-05
0.00110524 -0.000169087 -7.83286e-06
-0.000169087 1.53238e-05 2.19376e-06
-7.83286e-06 2.19376e-06 -0.000137844
0.00135726 -0.000191616 -1.29023e-06
-0.000191616 9.13879e-05 -2.4697e-08
-1.29023e-06 -2.4697e-08 -7.16562e-05
0.0016474 -0.00021305 3.97974e-06
-0.00021305 0.000201116 2.77998e-08
3.97974e-06 2.77998e-08 3.24504e-05
0.000884469 -0.000125838 -5.68678e-06
-0.000125838 3.77268e-05 4.82944e-06
-5.68678e-06 4.82944e-06 -8.54815e-05
0.00114262 -0.000175551 7.40799e-07
-0.000175551 0.000123043 7.34306e-07
7.40799e-07 7.34306e-07 -3.68187e-05
0.00115053 -0.00019249 1.95093e-06
-0.00019249 6.68781e-05 -2.49351e-07
1.95093e-06 -2.49351e-07 -0.00011252
0.000498994 -2.49002e-05 -7.94228e-06
-2.49002e-05 -9.58118e-05 8.65228e-06
-7.94228e-06 8.65228e-06 -0.00014924
0.000871255 -0.00011033 5.75441e-09
-0.00011033 7.67859e-05 -2.74806e-07
5.75441e-09 -2.74806e-07 -3.7468e-05
0.00114561 -0.00017042 2.6573e-06
-0.00017042 0.000191306 -2.9024e-06
2.6573e-06 -2.9024e-06 3.92751e-05
0.00337077 0.000134879 -6.80492e-05
0.000134879 0.00156 2.36276e-06
-6.80492e-05 2.36276e-06 0.00155348
0.000603963 -4.20105e-06 3.87036e-07
-4.20105e-06 -2.98784e-05 -1.91138e-07
3.87036e-07 -1.91138e-07 -7.54269e-05
0.000890153 -9.42167e-05 4.49726e-06
-9.42167e-05 0.000114216 -2.83732e-06
4.49726e-06 -2.83732e-06 7.80478e-06
0.00302586 0.000116122 4.03729e-06
0.000116122 0.00136245 2.40314e-07
4.03729e-06 2.40314e-07 0.00136098
0.000655981 2.85251e-05 4.10032e-06
2.85251e-05 1.09499e-05 -6.59075e-06
4.10032e-06 -6.59075e-06 -2.73005e-05
0.00273671 0.000101202 5.55147e-05
0.000101202 0.00119589 -2.452e-06
5.55147e-05 -2.452e-06 0.00119871
0.00111074 0.000171021 -3.11673e-07
0.000171021 0.000209726 -4.26729e-06
-3.11673e-07 -4.26729e-06 5.8874e-05
0.00112491 0.000161597 5.24458e-07
0.000161597 0.000247688 2.90942e-07
5.24458e-07 2.90942e-07 0.000116052
0.000841983 8.97733e-05 -1.35969e-06
8.97733e-05 9.23814e-05 -1.74231e-06
-1.35969e-06 -1.74231e-06 -2.25146e-05
0.000750514 0.000123658 -1.7815e-07
0.000123658 6.58674e-05 4.6539e-07
-1.7815e-07 4.6539e-07 -4.61949e-05
0.000664647 1.72527e-05 -5.69148e-07
1.72527e-05 8.31924e-06 -2.04022e-07
-5.69148e-07 -2.04022e-07 -9.25999e-05
0.000711214 2.50933e-05 -2.12883e-06
2.50933e-05 3.18774e-05 -2.85171e-06
-2.12883e-06 -2.85171e-06 -4.85132e-05
0.000653357 -4.71492e-05 -4.3881e-08
-4.71492e-05 3.85499e-07 1.54349e-06
-4.3881e-08 1.54349e-06 -8.8375e-05
0.000661498 -3.10126e-05 3.69727e-07
-3.10126e-05 -1.06639e-06 -3.46316e-07
3.69727e-07 -3.46316e-07 -6.63975e-05
0.000606776 -7.0142e-05 9.34351e-07
-7.0142e-05 -1.47821e-05 -5.76484e-06
9.34351e-07 -5.76484e-06 -4.58125e-05
0.000661027 -3.70434e-05 1.26167e-06
-3.70434e-05 -6.34426e-06 2.74076e-06
1.26167e-06 2.74076e-06 -6.37761e-05
0.000598289 -6.11763e-05 2.13087e-07
-6.11763e-05 -3.10285e-05 -1.93375e-08
2.13087e-07 -1.93375e-08 -5.65714e-05
0.00252878 -9.33583e-05 -4.1394e-05
-9.33583e-05 0.00106974 -2.67147e-06
-4.1394e-05 -2.67147e-06 0.00107523
0.00247551 -8.35575e-05 -1.73482e-06
-8.35575e-05 0.00103199 1.86829e-07
-1.73482e-06 1.86829e-07 0.00103963
0.000601482 -4.9114e-05 1.12037e-06
-4.9114e-05 -4.01805e-05 4.56587e-06
1.12037e-06 4.56587e-06 -6.16784e-05
0.00243394 -7.35299e-05 3.00415e-05
-7.35299e-05 0.00100057 3.75595e-06
3.00415e-05 3.75595e-06 0.00101038
0.0028791 4.22434e-06 -4.51829e-05
4.22434e-06 9.23185e-05 1.85543e-05
-4.51829e-05 1.85543e-05 -1.96433e-05
0.00155711 -0.00029745 2.58316e-05
-0.00029745 -0.00122434 9.71364e-06
2.58316e-05 9.71364e-06 -0.00213356
0.00433285 -0.000433555 -4.14602e-05
-0.000433555 0.00183614 -3.04631e-05
-4.14602e-05 -3.04631e-05 0.0019202
0.00169594 0.000228201 1.2643e-05
0.000228201 0.000418764 5.0648e-06
1.2643e-05 5.0648e-06 0.000249223
0.00123903 0.000130172 1.08003e-06
0.000130172 0.000362773 6.94888e-07
1.08003e-06 6.94888e-07 0.000236793
0.000897442 0.000153269 -1.5029e-06
0.000153269 0.000136023 1.83576e-06
-1.5029e-06 1.83576e-06 1.20709e-06
0.000744301 0.000144526 6.66103e-07
0.000144526 6.88838e-05 7.89423e-07
6.66103e-07 7.89423e-07 -6.77865e-05
0.00101868 0.000172954 -8.95311e-08
0.000172954 0.000165812 -2.20746e-06
-8.95311e-08 -2.20746e-06 6.83365e-06
0.000726405 0.000167566 -4.2493e-07
0.000167566 -5.44452e-05 9.60523e-07
-4.2493e-07 9.60523e-07 -0.000186813
0.000890585 0.000160629 -9.68008e-07
0.000160629 0.000130416 -3.75109e-07
-9.68008e-07 -3.75109e-07 -1.57767e-05
0.00103712 0.000142244 -1.81086e-06
0.000142244 0.000171875 5.65922e-06
-1.81086e-06 5.65922e-06 5.33124e-05
0.00101736 0.000201737 5.3012e-07
0.000201737 7.68967e-05 -7.76203e-08
5.3012e-07 -7.76203e-08 -6.15472e-05
0.00224787 0.000324582 1.52596e-06
0.000324582 0.000561193 5.8991e-06
1.52596e-06 5.8991e-06 0.000406073
0.0017254 0.000324388 -1.19889e-06
0.000324388 0.000157525 -5.08108e-07
-1.19889e-06 -5.08108e-07 -5.53849e-06
0.00143054 0.000277586 1.29395e-05
0.000277586 -2.77751e-05 1.04133e-05
1.29395e-05 1.04133e-05 -0.000141192
0.00135131 0.000334711 -2.02156e-06
0.000334711 -5.77215e-05 -2.56791e-06
-2.02156e-06 -2.56791e-06 -0.000220845
0.000791732 0.000252771 1.39544e-06
0.000252771 -0.000180626 4.11035e-06
1.39544e-06 4.11035e-06 -0.000325371
0.000420792 0.000181864 1.45455e-05
0.000181864 -0.00040836 8.22336e-06
1.45455e-05 8.22336e-06 -0.00040563
0.00512177 0.000371548 -2.56308e-05
0.000371548 0.000641815 4.19081e-07
-2.56308e-05 4.19081e-07 0.000281583
0.00124857 -3.6431e-05 8.28348e-05
-3.6431e-05 -0.00112276 2.38233e-05
8.28348e-05 2.38233e-05 -0.00242356
0.00197245 0.000500376 5.59951e-05
0.000500376 -0.000346491 3.9247e-06
5.59951e-05 3.9247e-06 -0.000896672
0.00174656 0.000368646 -2.08563e-05
0.000368646 0.000109907 -3.31972e-06
-2.08563e-05 -3.31972e-06 9.53195e-05
0.00116605 0.00037237 -3.3136e-05
0.00037237 -0.000120525 -2.45286e-05
-3.3136e-05 -2.45286e-05 -0.000254412
0.00219426 -0.000113967 1.5388e-05
-0.000113967 0.00016253 -7.64744e-08
1.5388e-05 -7.64744e-08 8.74251e-05
0.00107559 6.47182e-06 -1.37813e-05
6.47182e-06 -0.00049297 2.47311e-06
-1.37813e-05 2.47311e-06 -0.00069219
0.000556289 0.000389137 6.67008e-05
0.000389137 -0.00193037 -2.2614e-05
6.67008e-05 -2.2614e-05 -0.0025932
0.000581015 -0.000112018 -2.96563e-06
-0.000112018 -0.000333655 1.68719e-05
-2.96563e-06 1.68719e-05 -0.000405888
0.00271114 -4.4279e-05 2.68313e-06
-4.4279e-05 -4.07026e-05 2.33468e-05
2.68313e-06 2.33468e-05 -0.000386675
0.00161421 -0.000125749 -4.62322e-06
-0.000125749 -3.69179e-05 2.70237e-07
-4.62322e-06 2.70237e-07 -7.61108e-05
0.00226786 -4.29263e-05 -4.92186e-06
-4.29263e-05 0.000202435 -1.92123e-06
-4.92186e-06 -1.92123e-06 0.000161875
0.00175454 -6.40261e-05 2.01087e-05
-6.40261e-05 -4.09558e-05 -2.00428e-06
2.01087e-05 -2.00428e-06 -5.83407e-05
0.00281399 -3.7297e-05 1.72689e-05
-3.7297e-05 0.000659294 -8.81567e-07
1.72689e-05 -8.81567e-07 0.000617886
0.00180493 -0.000241548 -7.61633e-06
-0.000241548 -7.72551e-05 2.49407e-06
-7.61633e-06 2.49407e-06 -8.69312e-05
0.00186172 -0.00012978 2.64281e-06
-0.00012978 -2.13589e-05 3.5528e-07
2.64281e-06 3.5528e-07 -2.80951e-05
0.00185082 -0.00013767 5.14125e-07
-0.00013767 5.03853e-05 -5.48786e-07
5.14125e-07 -5.48786e-07 1.95901e-05
0.00187285 -0.00020753 3.17814e-06
-0.00020753 2.87768e-05 1.20906e-06
3.17814e-06 1.20906e-06 -2.68144e-05
0.00183331 -0.000156423 4.71595e-07
-0.000156423 5.32677e-05 -2.79386e-08
4.71595e-07 -2.79386e-08 -1.6606e-06
0.00184983 -0.000143732 1.88834e-06
-0.000143732 0.000131278 3.80302e-07
1.88834e-06 3.80302e-07 6.08152e-05
0.00183236 -0.000191272 3.80291e-07
-0.000191272 0.000100881 1.22008e-06
3.80291e-07 1.22008e-06 2.12367e-05
0.00184356 -0.000163734 -1.12356e-06
-0.000163734 0.000148839 8.65594e-08
-1.12356e-06 8.65594e-08 6.52982e-05
0.00165487 -0.000144555 2.51271e-06
-0.000144555 8.0165e-05 -6.79899e-08
2.51271e-06 -6.79899e-08 -2.28105e-05
0.00162611 -0.000178567 -3.08249e-06
-0.000178567 5.7204e-05 1.55494e-06
-3.08249e-06 1.55494e-06 -4.04297e-05
0.00163951 -0.000165342 4.101e-07
-0.000165342 9.76454e-05 -4.72469e-07
4.101e-07 -4.72469e-07 -1.42689e-05
0.00158154 -0.000148722 1.35784e-06
-0.000148722 0.000110017 -8.05759e-07
1.35784e-06 -8.05759e-07 -1.89219e-05
0.00177615 -0.000173613 -4.66657e-06
-0.000173613 0.000191213 3.59198e-06
-4.66657e-06 3.59198e-06 7.285e-05
0.00168317 -0.000162256 -2.64548e-07
-0.000162256 0.00018549 -2.46919e-07
-2.64548e-07 -2.46919e-07 5.08389e-05
0.00144776 -0.000147771 -2.59607e-06
-0.000147771 0.000100137 2.66755e-07
-2.59607e-06 2.66755e-07 -3.9509e-05
0.00170965 -0.000186749 2.73798e-06
-0.000186749 0.000214562 4.40893e-07
2.73798e-06 4.40893e-07 6.43581e-05
0.00148883 -0.000171918 7.06654e-07
-0.000171918 0.000133847 -2.56372e-07
7.06654e-07 -2.56372e-07 -1.36052e-05
0.00129917 -0.000156744 -6.63334e-06
-0.000156744 8.37329e-05 1.46528e-06
-6.63334e-06 1.46528e-06 -5.49392e-05
0.00101056 -0.000137289 -8.48505e-06
-0.000137289 4.58437e-05 4.8537e-06
-8.48505e-06 4.8537e-06 -7.81612e-05
0.00112087 -0.000168922 -1.69106e-06
-0.000168922 2.75234e-05 5.50532e-07
-1.69106e-06 5.50532e-07 -0.000125269
0.00134557 -0.000190673 3.43987e-06
-0.000190673 8.73709e-05 -3.8874e-08
3.43987e-06 -3.8874e-08 -7.58051e-05
0.000534363 -9.77421e-05 -1.25843e-05
-9.77421e-05 -8.76393e-05 1.03136e-05
-1.25843e-05 1.03136e-05 -0.000153524
0.000914456 -0.000130441 5.44355e-07
-0.000130441 5.48784e-05 2.39666e-07
5.44355e-07 2.39666e-07 -6.91728e-05
0.00110749 -0.000172414 4.58909e-06
-0.000172414 0.000102027 -1.7009e-06
4.58909e-06 -1.7009e-06 -5.68323e-05
0.00377774 0.000146397 -8.5572e-05
0.000146397 0.00179469 3.11681e-06
-8.5572e-05 3.11681e-06 0.00178358
0.000630787 -5.9477e-05 9.51217e-08
-5.9477e-05 -2.52048e-05 -1.93426e-07
9.51217e-08 -1.93426e-07 -8.1595e-05
0.000972215 -0.000121413 5.39704e-06
-0.000121413 0.000133051 -4.16003e-06
5.39704e-06 -4.16003e-06 1.70048e-05
0.00347566 0.000121849 3.19992e-06
0.000121849 0.00161656 3.55422e-07
3.19992e-06 3.55422e-07 0.00161224
0.000696863 -2.12109e-05 8.32653e-06
-2.12109e-05 1.99877e-05 -7.57786e-06
8.32653e-06 -7.57786e-06 -2.66593e-05
0.00315049 0.000101471 7.86609e-05
0.000101471 0.00142884 -3.21857e-06
7.86609e-05 -3.21857e-06 0.00143005
0.001059 0.000179825 -1.98403e-06
0.000179825 0.000106282 -1.46879e-06
-1.98403e-06 -1.46879e-06 -6.14503e-05
0.00102796 0.000164685 -6.01868e-08
0.000164685 0.000164833 -1.66807e-06
-6.01868e-08 -1.66807e-06 1.50885e-05
0.00112539 0.000155023 -1.22256e-06
0.000155023 0.00022403 -2.13496e-06
-1.22256e-06 -2.13496e-06 9.05975e-05
0.00130638 0.000175018 -4.73833e-07
0.000175018 0.000349334 4.86013e-07
-4.73833e-07 4.86013e-07 0.000216443
0.000878472 9.63037e-05 -1.13034e-06
9.63037e-05 0.000111529 -8.34072e-07
-1.13034e-06 -8.34072e-07 -2.87202e-06
0.000795656 5.33048e-05 -2.66388e-06
5.33048e-05 7.76048e-05 -2.35126e-06
-2.66388e-06 -2.35126e-06 -1.57976e-05
0.000671694 3.87726e-05 -1.31966e-07
3.87726e-05 1.09291e-05 3.87416e-07
-1.31966e-07 3.87416e-07 -9.1644e-05
0.000679373 -1.41315e-05 -3.81926e-07
-1.41315e-05 1.28636e-05 -7.44678e-08
-3.81926e-07 -7.44678e-08 -6.43859e-05
0.000592524 -6.26594e-05 -7.79305e-07
-6.26594e-05 -1.8845e-05 -6.06071e-06
-7.79305e-07 -6.06071e-06 -5.49113e-05
0.000640892 -4.62784e-05 7.83208e-07
-4.62784e-05 -1.01906e-05 3.12112e-06
7.83208e-07 3.12112e-06 -7.60776e-05
0.000576293 -7.28258e-05 3.4119e-07
-7.28258e-05 -3.15161e-05 -1.49054e-07
3.4119e-07 -1.49054e-07 -6.28623e-05
0.00262995 -0.000102305 -4.85774e-05
-0.000102305 0.00113233 -2.25593e-06
-4.85774e-05 -2.25593e-06 0.00113566
0.000584445 -5.7772e-05 1.08955e-06
-5.7772e-05 -4.03057e-05 4.82537e-06
1.08955e-06 4.82537e-06 -6.50119e-05
0.00251282 -9.32399e-05 -1.22006e-06
-9.32399e-05 0.00106029 1.72309e-07
-1.22006e-06 1.72309e-07 0.00106573
0.00246843 -8.28969e-05 3.49253e-05
-8.28969e-05 0.00102743 3.38811e-06
3.49253e-05 3.38811e-06 0.00103514
0.000536655 2.69485e-05 1.16798e-05
2.69485e-05 -0.000496739 5.60171e-06
1.16798e-05 5.60171e-06 -0.000508453
0.00410914 5.94337e-05 2.03205e-05
5.94337e-05 0.000507629 9.76535e-06
2.03205e-05 9.76535e-06 0.000208562
0.0075528 0.000346694 -9.4126e-05
0.000346694 0.00220373 -3.18861e-05
-9.4126e-05 -3.18861e-05 0.00118625
0.00108511 0.000191449 3.75947e-06
0.000191449 2.2019e-05 1.61431e-06
3.75947e-06 1.61431e-06 -0.000119673
0.0015117 0.000224855 3.66151e-06
0.000224855 0.000135868 -2.24673e-06
3.66151e-06 -2.24673e-06 -1.52357e-05
0.00102521 0.000189086 -4.15323e-07
0.000189086 6.01342e-05 -2.14376e-06
-4.15323e-07 -2.14376e-06 -0.000103004
0.00106606 0.000169927 -1.446e-06
0.000169927 0.000245148 -2.30594e-07
-1.446e-06 -2.30594e-07 0.00010349
0.000987022 0.000171864 -1.58169e-06
0.000171864 0.000153044 -4.65662e-07
-1.58169e-06 -4.65662e-07 -8.17325e-06
0.00124943 0.0002073 6.00323e-06
0.0002073 0.000213595 2.91443e-06
6.00323e-06 2.91443e-06 7.51631e-05
0.0022563 0.000326511 -8.27978e-06
0.000326511 0.000479857 -5.17336e-06
-8.27978e-06 -5.17336e-06 0.000323429
0.00171754 0.000250421 -1.17721e-07
0.000250421 0.000457102 1.98759e-06
-1.17721e-07 1.98759e-06 0.000315448
0.00131598 0.000263951 7.20765e-06
0.000263951 6.89175e-05 1.34438e-05
7.20765e-06 1.34438e-05 -8.31718e-05
0.00182394 0.000325861 -1.47658e-06
0.000325861 0.000217714 1.1004e-06
-1.47658e-06 1.1004e-06 5.72838e-05
0.00217118 0.000317005 -7.17407e-06
0.000317005 0.000304246 3.16868e-06
-7.17407e-06 3.16868e-06 0.000161135
0.00097853 0.000131659 1.60855e-05
0.000131659 -0.000329058 5.87258e-06
1.60855e-05 5.87258e-06 -0.000395175
0.0014621 0.000274364 8.69576e-06
0.000274364 -8.68989e-06 1.84343e-06
8.69576e-06 1.84343e-06 -0.000124963
0.00113203 0.000317315 -7.09777e-06
0.000317315 -0.000183306 -7.44813e-06
-7.09777e-06 -7.44813e-06 -0.000347757
0.00103779 0.000177156 -6.0489e-06
0.000177156 -0.000107211 2.27791e-06
-6.0489e-06 2.27791e-06 -0.000113681
0.00490196 0.000184207 3.94004e-05
0.000184207 0.000462065 8.77036e-07
3.94004e-05 8.77036e-07 4.43968e-05
0.0012669 0.000298272 2.87601e-06
0.000298272 5.67616e-05 -1.26788e-05
2.87601e-06 -1.26788e-05 3.46887e-05
0.00119624 -3.1743e-05 1.77126e-05
-3.1743e-05 -0.000167205 1.66992e-06
1.77126e-05 1.66992e-06 -0.000203718
0.00195867 -5.37981e-05 -1.03518e-05
-5.37981e-05 7.6452e-05 -4.65749e-07
-1.03518e-05 -4.65749e-07 1.07972e-05
0.00201318 0.000134797 5.98085e-05
0.000134797 -0.000241191 -8.69159e-06
5.98085e-05 -8.69159e-06 -0.000503969
-0.00031292 -8.60735e-05 -1.86986e-05
-8.60735e-05 -0.00107098 1.23361e-05
-1.86986e-05 1.23361e-05 -0.00107167
0.00216119 -8.46193e-05 -6.08781e-05
-8.46193e-05 0.000135345 6.98737e-06
-6.08781e-05 6.98737e-06 8.84121e-05
0.00158493 -9.44958e-05 4.90805e-07
-9.44958e-05 -0.00015462 1.03274e-06
4.90805e-07 1.03274e-06 -0.000158288
0.002271 -4.88798e-05 -2.99163e-06
-4.88798e-05 0.000315818 5.383e-07
-2.99163e-06 5.383e-07 0.000270843
0.00192828 -0.000132048 7.03463e-06
-0.000132048 3.38652e-05 -2.49146e-07
7.03463e-06 -2.49146e-07 9.87131e-06
0.00192994 -2.94253e-05 4.34928e-06
-2.94253e-05 6.14052e-05 -5.72351e-07
4.34928e-06 -5.72351e-07 8.62647e-06
0.00191339 -0.000138654 -1.57688e-06
-0.000138654 -1.01267e-05 1.32764e-06
-1.57688e-06 1.32764e-06 -1.77073e-05
0.00177318 -0.000134758 -1.71838e-06
-0.000134758 7.04023e-06 -7.74202e-08
-1.71838e-06 -7.74202e-08 -2.23353e-05
0.00181364 -0.000129135 2.37223e-06
-0.000129135 4.9231e-05 3.0378e-07
2.37223e-06 3.0378e-07 -5.90241e-06
0.00188187 -0.000168837 -1.21276e-06
-0.000168837 7.33749e-05 -5.04485e-07
-1.21276e-06 -5.04485e-07 1.39696e-05
0.00176951 -0.000142344 2.16711e-07
-0.000142344 8.79092e-05 8.50487e-09
2.16711e-07 8.50487e-09 1.47692e-05
0.00169647 -0.000126981 1.93821e-06
-0.000126981 6.83969e-05 1.13492e-07
1.93821e-06 1.13492e-07 -2.36833e-05
0.00171732 -0.000165326 -4.62089e-06
-0.000165326 8.02476e-05 1.44326e-07
-4.62089e-06 1.44326e-07 -4.5301e-06
0.00167533 -0.000144587 1.63027e-07
-0.000144587 9.37124e-05 -8.67208e-08
1.63027e-07 -8.67208e-08 -9.16616e-06
0.0016374 -0.000132154 1.44614e-06
-0.000132154 0.000109907 -2.7135e-07
1.44614e-06 -2.7135e-07 -1.2718e-05
0.00165524 -0.000165557 -2.91082e-06
-0.000165557 0.00010959 4.01539e-07
-2.91082e-06 4.01539e-07 -2.3165e-06
0.0015889 -0.000148361 -5.08619e-09
-0.000148361 0.000112697 -1.7529e-07
-5.08619e-09 -1.7529e-07 -1.60135e-05
0.00146452 -0.000133919 -1.81685e-06
-0.000133919 9.69413e-05 4.04852e-07
-1.81685e-06 4.04852e-07 -3.93579e-05
0.00165504 -0.000159728 -5.42884e-07
-0.000159728 0.000166632 1.49453e-06
-5.42884e-07 1.49453e-06 3.3653e-05
0.00143448 -0.000147573 -3.80215e-07
-0.000147573 9.11365e-05 -1.5577e-07
-3.80215e-07 -1.5577e-07 -4.83793e-05
0.00133461 -0.000140006 -6.1833e-06
-0.000140006 8.81058e-05 1.94882e-06
-6.1833e-06 1.94882e-06 -4.58729e-05
0.00140195 -0.000167785 4.56839e-06
-0.000167785 8.39481e-05 -7.57831e-07
4.56839e-06 -7.57831e-07 -6.41769e-05
0.00115122 -0.000149255 5.63309e-08
-0.000149255 9.99743e-07 -1.4016e-07
5.63309e-08 -1.4016e-07 -0.000138155
0.00105355 -0.000128607 -1.02423e-05
-0.000128607 2.93684e-05 4.28069e-06
-1.02423e-05 4.28069e-06 -8.74724e-05
0.000483854 -0.00012924 -1.70367e-05
-0.00012924 -0.000139787 1.06447e-05
-1.70367e-05 1.06447e-05 -0.00020947
0.000981917 -0.000136241 4.90056e-07
-0.000136241 3.11446e-05 3.8362e-07
4.90056e-07 3.8362e-07 -9.28233e-05
0.00116584 -0.000170496 4.04372e-06
-0.000170496 5.59381e-05 -6.01586e-07
4.04372e-06 -6.01586e-07 -9.66641e-05
0.00420069 0.000167202 -9.25438e-05
0.000167202 0.00204463 4.67732e-06
-9.25438e-05 4.67732e-06 0.00202572
0.000638797 -9.30293e-05 -2.03743e-08
-9.30293e-05 -3.34018e-05 2.13217e-07
-2.03743e-08 2.13217e-07 -0.000100005
0.000961632 -0.000135993 6.71798e-06
-0.000135993 8.24302e-05 -4.24396e-06
6.71798e-06 -4.24396e-06 -4.26304e-05
0.00391779 0.000136134 5.75464e-06
0.000136134 0.00187216 5.61798e-07
5.75464e-06 5.61798e-07 0.00186212
0.000770982 -6.21358e-05 1.11754e-05
-6.21358e-05 4.8046e-05 -9.20303e-06
1.11754e-05 -9.20303e-06 -9.15886e-06
0.00359208 0.000109404 9.43441e-05
0.000109404 0.00167924 -3.86804e-06
9.43441e-05 -3.86804e-06 0.00167662
0.000768628 0.000167216 -2.81436e-06
0.000167216 -0.000178999 1.59701e-06
-2.81436e-06 1.59701e-06 -0.000339914
0.000740111 0.000159358 -9.57715e-07
0.000159358 -7.42479e-05 1.32129e-06
-9.57715e-07 1.32129e-06 -0.000240229
0.00111094 0.000164917 -3.11151e-06
0.000164917 0.000160007 -2.13962e-06
-3.11151e-06 -2.13962e-06 1.08128e-05
0.000933258 0.000157595 -4.63059e-07
0.000157595 0.000113222 7.08683e-07
-4.63059e-07 7.08683e-07 -3.52942e-05
0.0009877 0.000144066 -3.55417e-07
0.000144066 0.000149438 -6.2416e-07
-3.55417e-07 -6.2416e-07 1.77727e-05
0.000935038 9.26304e-05 -4.12572e-06
9.26304e-05 0.000142326 -2.77466e-06
-4.12572e-06 -2.77466e-06 3.64724e-05
0.000896667 0.0001014 4.83892e-09
0.0001014 0.000120625 -3.87859e-07
4.83892e-09 -3.87859e-07 6.82873e-06
0.000740068 3.61406e-05 -2.70203e-07
3.61406e-05 4.89882e-05 1.17938e-07
-2.70203e-07 1.17938e-07 -4.37823e-05
0.000632187 -2.63993e-05 -4.89176e-06
-2.63993e-05 -3.65908e-06 -6.42179e-06
-4.89176e-06 -6.42179e-06 -4.52454e-05
0.000659546 -4.10074e-05 5.25001e-07
-4.10074e-05 3.46394e-06 3.20407e-06
5.25001e-07 3.20407e-06 -7.31046e-05
0.000552983 -6.95e-05 -2.88473e-08
-6.95e-05 -3.96685e-05 -2.38138e-07
-2.88473e-08 -2.38138e-07 -7.6365e-05
0.00283921 -0.000110983 -6.01479e-05
-0.000110983 0.00125417 -2.07528e-06
-6.01479e-05 -2.07528e-06 0.00125493
0.000548898 -7.02742e-05 1.48886e-07
-7.02742e-05 -4.86966e-05 5.29175e-06
1.48886e-07 5.29175e-06 -7.90245e-05
0.00259155 -0.000103135 -1.25255e-06
-0.000103135 0.00111092 1.66588e-07
-1.25255e-06 1.66588e-07 0.00111397
0.00250062 -9.26056e-05 3.87899e-05
-9.26056e-05 0.00105298 2.94884e-06
3.87899e-05 2.94884e-06 0.00105848
0.00114654 5.05194e-05 1.08537e-05
5.05194e-05 -0.000246538 2.54184e-06
1.08537e-05 2.54184e-06 -0.000286967
0.00168466 -4.62623e-06 -3.54783e-06
-4.62623e-06 -1.4087e-05 3.04484e-06
-3.54783e-06 3.04484e-06 -5.05815e-05
0.00290091 -2.67784e-06 7.00334e-05
-2.67784e-06 -0.000168849 -3.39894e-06
7.00334e-05 -3.39894e-06 -0.000317643
0.00186851 0.000260153 -9.74222e-07
0.000260153 0.000265399 -6.10888e-06
-9.74222e-07 -6.10888e-06 0.000120081
0.000853744 0.000182861 -2.20462e-06
0.000182861 -8.0408e-05 -2.68841e-07
-2.20462e-06 -2.68841e-07 -0.000207893
0.00176345 0.000221691 -1.88883e-06
0.000221691 0.000190208 7.72894e-07
-1.88883e-06 7.72894e-07 4.56381e-05
0.00171896 0.000236884 9.11018e-07
0.000236884 0.000255289 4.7702e-07
9.11018e-07 4.7702e-07 0.000100906
0.000312374 0.000146888 -4.3589e-06
0.000146888 -0.000321372 1.14573e-06
-4.3589e-06 1.14573e-06 -0.000477669
0.00177614 0.000256206 -3.845e-06
0.000256206 0.000103321 2.03258e-06
-3.845e-06 2.03258e-06 -3.93799e-05
0.00168937 0.000241544 -5.8173e-07
0.000241544 0.000437578 4.3718e-07
-5.8173e-07 4.3718e-07 0.000293782
0.00210762 0.000316388 -2.18352e-07
0.000316388 0.000392357 -2.5353e-06
-2.18352e-07 -2.5353e-06 0.000233326
0.00180935 0.000174412 -3.88351e-06
0.000174412 6.19181e-05 1.9807e-06
-3.88351e-06 1.9807e-06 -4.02655e-05
0.0020826 0.000338277 4.06443e-06
0.000338277 0.000362208 3.40765e-06
4.06443e-06 3.40765e-06 0.000203219
0.00204875 0.000311704 -1.08599e-06
0.000311704 0.000236984 2.98882e-07
-1.08599e-06 2.98882e-07 9.36853e-05
0.00114575 0.000147781 1.55887e-08
0.000147781 -0.000216695 6.84442e-07
1.55887e-08 6.84442e-07 -0.000284339
0.0010171 0.000246358 -4.4644e-06
0.000246358 -0.000223974 -4.4148e-06
-4.4644e-06 -4.4148e-06 -0.000342752
0.00124356 0.000170969 -2.61463e-05
0.000170969 -2.15366e-06 -5.63849e-06
-2.61463e-05 -5.63849e-06 -1.71382e-05
0.00172561 1.94708e-05 4.2369e-06
1.94708e-05 -4.38726e-05 2.74045e-07
4.2369e-06 2.74045e-07 -0.000106527
0.00193536 -1.04369e-05 -1.62424e-06
-1.04369e-05 0.000254987 -2.2064e-07
-1.62424e-06 -2.2064e-07 0.000219449
0.00147782 1.44512e-06 -4.40588e-05
1.44512e-06 -0.000138334 -2.57897e-06
-4.40588e-05 -2.57897e-06 -0.000215699
0.00130332 -0.000122167 -1.4173e-05
-0.000122167 -0.000341238 1.55932e-06
-1.4173e-05 1.55932e-06 -0.000332247
0.00153052 -5.92872e-05 -9.47269e-06
-5.92872e-05 -0.000133785 1.35691e-06
-9.47269e-06 1.35691e-06 -0.000181793
0.00196507 -0.000126082 -5.44561e-07
-0.000126082 5.97427e-05 -1.98463e-07
-5.44561e-07 -1.98463e-07 3.41224e-05
0.00194556 -3.06747e-05 -1.88348e-08
-3.06747e-05 6.32806e-05 2.95005e-07
-1.88348e-08 2.95005e-07 1.21729e-05
0.00185586 -5.46086e-05 -5.6339e-07
-5.46086e-05 4.23981e-05 -6.77424e-07
-5.6339e-07 -6.77424e-07 -1.62502e-05
0.00170228 -0.000131442 -2.08008e-06
-0.000131442 -3.17823e-05 -9.37412e-08
-2.08008e-06 -9.37412e-08 -6.00561e-05
0.00187048 -0.000125318 7.98788e-07
-0.000125318 9.00414e-05 -8.1182e-08
7.98788e-07 -8.1182e-08 3.13715e-05
0.00182615 -0.000102716 9.0674e-07
-0.000102716 9.46254e-05 -2.4323e-07
9.0674e-07 -2.4323e-07 1.08962e-05
0.00169644 -0.000141991 -2.41322e-06
-0.000141991 4.76974e-05 -4.0626e-07
-2.41322e-06 -4.0626e-07 -2.79245e-05
0.00168005 -0.000127024 1.00122e-07
-0.000127024 6.45704e-05 -4.8008e-08
1.00122e-07 -4.8008e-08 -2.93475e-05
0.00169655 -0.000109453 1.42015e-06
-0.000109453 0.000106051 -1.46934e-07
1.42015e-06 -1.46934e-07 -1.04083e-05
0.0016955 -0.00014454 -2.33332e-06
-0.00014454 0.000107018 -7.80763e-08
-2.33332e-06 -7.80763e-08 4.24201e-06
0.00163596 -0.000130851 -8.49103e-08
-0.000130851 0.000110033 -5.7368e-08
-8.49103e-08 -5.7368e-08 -1.23667e-05
0.0015299 -0.000115169 -1.25331e-06
-0.000115169 0.000114187 3.79387e-07
-1.25331e-06 3.79387e-07 -1.89635e-05
0.00159612 -0.000148044 -1.07214e-06
-0.000148044 0.000115327 3.9168e-07
-1.07214e-06 3.9168e-07 -1.31589e-05
0.00149065 -0.00013464 -9.99004e-08
-0.00013464 0.000109504 -1.46656e-09
-9.99004e-08 -1.46656e-09 -2.66044e-05
0.00136129 -0.000124223 -5.49613e-06
-0.000124223 9.07714e-05 1.81575e-06
-5.49613e-06 1.81575e-06 -4.16338e-05
0.00142749 -0.000147639 2.38667e-06
-0.000147639 8.55176e-05 -3.5521e-07
2.38667e-06 -3.5521e-07 -5.38827e-05
0.00132935 -0.000139023 -7.90676e-08
-0.000139023 8.58646e-05 -9.85226e-10
-7.90676e-08 -9.85226e-10 -4.7957e-05
0.00107518 -0.000114042 -1.08487e-05
-0.000114042 2.48667e-05 4.30823e-06
-1.08487e-05 4.30823e-06 -8.72157e-05
0.000991859 -0.000141072 5.87383e-06
-0.000141072 -8.82206e-05 -1.60153e-06
5.87383e-06 -1.60153e-06 -0.000227756
0.00103367 -0.000126628 1.96498e-07
-0.000126628 1.8484e-05 1.78915e-09
1.96498e-07 1.78915e-09 -9.8157e-05
0.0022223 -5.03288e-05 -1.38034e-05
-5.03288e-05 0.000836628 7.00906e-06
-1.38034e-05 7.00906e-06 0.000770172
0.00127851 -1.36932e-05 -0.000120078
-1.36932e-05 0.000363108 1.19935e-05
-0.000120078 1.19935e-05 0.000343387
0.00147174 -8.52644e-05 5.10321e-07
-8.52644e-05 0.000421539 7.94768e-08
5.10321e-07 7.94768e-08 0.000350269
0.000955837 -0.00013544 8.65124e-06
-0.00013544 1.80889e-05 -3.80932e-06
8.65124e-06 -3.80932e-06 -0.000105921
0.00440092 0.000142621 9.94522e-06
0.000142621 0.00215314 9.17866e-07
9.94522e-06 9.17866e-07 0.00213689
0.000775458 -0.000114331 1.55865e-05
-0.000114331 3.73146e-05 -1.03675e-05
1.55865e-05 -1.03675e-05 -3.06708e-05
0.00402646 0.000107272 0.000112852
0.000107272 0.00192904 -5.53178e-06
0.000112852 -5.53178e-06 0.00192252
0.0018716 0.000184026 -1.26662e-07
0.000184026 0.000236818 3.4169e-07
-1.26662e-07 3.4169e-07 0.000103121
0.00131616 0.000188638 -1.0957e-06
0.000188638 3.43372e-05 1.3204e-06
-1.0957e-06 1.3204e-06 -0.000112644
0.00108037 0.000186872 -5.60298e-08
0.000186872 -7.90537e-06 1.00479e-09
-5.60298e-08 1.00479e-09 -0.000170958
0.00108843 0.00016772 -4.66785e-06
0.00016772 7.07915e-05 -1.23907e-06
-4.66785e-06 -1.23907e-06 -8.34167e-05
0.000421248 0.000139011 7.21775e-07
0.000139011 -0.000254672 3.37975e-06
7.21775e-07 3.37975e-06 -0.000418952
0.00105631 0.000160055 -7.24924e-07
0.000160055 0.000132882 1.02571e-07
-7.24924e-07 1.02571e-07 -1.57334e-05
0.000985561 0.000122343 -5.49891e-06
0.000122343 0.00013391 -3.48133e-06
-5.49891e-06 -3.48133e-06 1.82108e-05
0.000861173 0.000133855 1.18783e-06
0.000133855 8.10785e-05 1.22884e-06
1.18783e-06 1.22884e-06 -4.89233e-05
0.000800073 8.25859e-05 -2.09592e-07
8.25859e-05 6.76339e-05 -9.50632e-08
-2.09592e-07 -9.50632e-08 -3.60213e-05
0.000729024 2.97629e-05 -8.53245e-06
2.97629e-05 3.91758e-05 -7.55397e-06
-8.53245e-06 -7.55397e-06 -1.13772e-05
0.000696618 1.99337e-05 1.18953e-06
1.99337e-05 2.37183e-05 2.2872e-06
1.18953e-06 2.2872e-06 -6.62407e-05
0.000556758 -3.84462e-05 -4.56129e-07
-3.84462e-05 -4.36117e-05 -2.82892e-07
-4.56129e-07 -2.82892e-07 -8.50861e-05
0.00314451 -0.000116055 -7.72005e-05
-0.000116055 0.00143043 -2.29063e-06
-7.72005e-05 -2.29063e-06 0.0014284
0.000505214 -7.94241e-05 -1.52444e-06
-7.94241e-05 -6.27986e-05 6.19222e-06
-1.52444e-06 6.19222e-06 -0.000101449
0.00276452 -0.000114485 -1.65487e-06
-0.000114485 0.00121331 1.93596e-07
-1.65487e-06 1.93596e-07 0.00121328
0.00256714 -0.000103054 4.27241e-05
-0.000103054 0.00109713 2.46237e-06
4.27241e-05 2.46237e-06 0.00110017
0.00182988 9.69769e-05 2.04908e-06
9.69769e-05 2.04573e-05 1.41279e-06
2.04908e-06 1.41279e-06 -5.48323e-05
0.00187837 4.47824e-05 4.50522e-06
4.47824e-05 0.000139874 -5.80849e-07
4.50522e-06 -5.80849e-07 0.000100592
0.00325003 -2.94733e-05 -4.1969e-05
-2.94733e-05 0.000668651 -8.88297e-06
-4.1969e-05 -8.88297e-06 0.000599783
0.00176148 0.000219161 -3.34791e-06
0.000219161 0.000114717 7.16597e-07
-3.34791e-06 7.16597e-07 -2.42409e-05
0.00168733 0.000247165 -3.74933e-06
0.000247165 0.000193395 -2.23462e-08
-3.74933e-06 -2.23462e-08 5.11204e-05
0.000721407 0.00018142 -1.31514e-05
0.00018142 -0.000130412 9.56461e-07
-1.31514e-05 9.56461e-07 -0.000244611
0.00184401 0.000219513 1.76559e-06
0.000219513 0.000233249 3.29997e-07
1.76559e-06 3.29997e-07 8.97384e-05
0.00194027 0.000249723 -9.82465e-07
0.000249723 0.000382625 -1.06168e-06
-9.82465e-07 -1.06168e-06 0.00022494
0.00211436 0.000173533 -2.04702e-06
0.000173533 0.000231645 1.78748e-06
-2.04702e-06 1.78748e-06 0.000130924
0.00169368 0.000255362 -1.38113e-06
0.000255362 5.92709e-05 6.99802e-07
-1.38113e-06 6.99802e-07 -8.46943e-05
0.0020255 0.000310511 2.30664e-06
0.000310511 0.000339092 2.69921e-07
2.30664e-06 2.69921e-07 0.000176943
0.00180616 0.000174432 -5.45137e-07
0.000174432 5.78835e-05 8.07497e-08
-5.45137e-07 8.07497e-08 -4.44424e-05
0.00207277 0.000313701 7.84866e-06
0.000313701 0.000238461 -5.89297e-07
7.84866e-06 -5.89297e-07 9.47638e-05
0.00155835 0.000164708 -1.98658e-05
0.000164708 6.97751e-06 -5.89189e-06
-1.98658e-05 -5.89189e-06 -6.13035e-05
0.00195319 2.26301e-05 5.76432e-07
2.26301e-05 0.000104837 3.39309e-07
5.76432e-07 3.39309e-07 4.35456e-05
0.00189219 2.47248e-05 -1.19516e-06
2.47248e-05 5.00335e-05 -3.31997e-07
-1.19516e-06 -3.31997e-07 -1.07583e-05
0.00264037 1.09212e-05 -2.67749e-05
1.09212e-05 0.000656822 -2.07045e-06
-2.67749e-05 -2.07045e-06 0.000621004
0.00205486 -0.000121679 -1.16647e-05
-0.000121679 0.000112251 -9.80393e-09
-1.16647e-05 -9.80393e-09 8.49546e-05
0.00195189 -3.22723e-05 -9.3516e-07
-3.22723e-05 5.86696e-05 1.20604e-07
-9.3516e-07 1.20604e-07 8.52294e-06
0.00184896 -5.61489e-05 8.59364e-07
-5.61489e-05 2.83541e-05 6.87538e-10
8.59364e-07 6.87538e-10 -2.53482e-05
0.00186804 -3.80036e-05 -6.07447e-08
-3.80036e-05 0.000102503 -1.76984e-07
-6.07447e-08 -1.76984e-07 2.00517e-05
0.00192801 -0.000121991 2.05603e-07
-0.000121991 0.000130878 9.42232e-08
2.05603e-07 9.42232e-08 6.83626e-05
0.00185665 -0.0001024 -4.89267e-07
-0.0001024 0.00011743 -2.61149e-07
-4.89267e-07 -2.61149e-07 3.27789e-05
0.00177324 -8.19595e-05 2.33344e-06
-8.19595e-05 0.000112947 -1.24802e-06
2.33344e-06 -1.24802e-06 2.87976e-06
0.00165744 -0.000126966 -2.14541e-06
-0.000126966 5.73506e-05 -2.59494e-07
-2.14541e-06 -2.59494e-07 -3.83964e-05
0.00170301 -0.000109382 -1.36765e-07
-0.000109382 0.000110452 9.34503e-08
-1.36765e-07 9.34503e-08 -5.93645e-06
0.0015924 -9.1104e-05 -9.3978e-07
-9.1104e-05 0.000121553 3.58763e-07
-9.3978e-07 3.58763e-07 -8.57216e-06
0.00163622 -0.000129516 -1.11684e-06
-0.000129516 0.000111032 1.01274e-07
-1.11684e-06 1.01274e-07 -1.11277e-05
0.00151708 -0.000114612 -1.40353e-07
-0.000114612 0.000104697 -1.06315e-08
-1.40353e-07 -1.06315e-08 -2.83222e-05
0.00138757 -0.000104942 -5.08558e-06
-0.000104942 9.21323e-05 1.65147e-06
-5.08558e-06 1.65147e-06 -3.95851e-05
0.00151766 -0.000135428 1.68606e-06
-0.000135428 0.000122569 -4.07202e-07
1.68606e-06 -4.07202e-07 -1.33552e-05
0.00135292 -0.000123057 -4.38462e-08
-0.000123057 8.63772e-05 1.75296e-08
-4.38462e-08 1.75296e-08 -4.58021e-05
0.00108886 -0.000100606 -1.10039e-05
-0.000100606 2.12043e-05 4.0044e-06
-1.10039e-05 4.0044e-06 -8.9872e-05
0.00131856 -0.00013779 5.72541e-06
-0.00013779 8.06282e-05 -1.83326e-06
5.72541e-06 -1.83326e-06 -5.30253e-05
0.00106577 -0.000112173 2.07733e-07
-0.000112173 1.87952e-05 1.78886e-09
2.07733e-07 1.78886e-09 -9.2999e-05
0.00226731 -6.49054e-05 -2.05283e-05
-6.49054e-05 0.000845538 5.78146e-06
-2.05283e-05 5.78146e-06 0.000787543
0.00100876 -0.000124716 1.00488e-05
-0.000124716 4.91016e-06 -4.20249e-06
1.00488e-05 -4.20249e-06 -0.000111579
0.00239286 -0.000101311 3.05969e-05
-0.000101311 0.000920752 -2.77926e-06
3.05969e-05 -2.77926e-06 0.000861881
0.0015995 -5.47114e-05 -0.000137
-5.47114e-05 0.000545107 1.53698e-05
-0.000137 1.53698e-05 0.000525027
0.00304143 2.41168e-05 -0.000126428
2.41168e-05 0.0013734 4.50555e-06
-0.000126428 4.50555e-06 0.001357
0.00249923 -0.000133241 7.9456e-05
-0.000133241 0.00099146 -1.0072e-05
7.9456e-05 -1.0072e-05 0.000934038
0.00459136 0.000102473 0.000128893
0.000102473 0.00225597 -8.9882e-06
0.000128893 -8.9882e-06 0.00224264
0.00182131 0.000175872 -2.13089e-06
0.000175872 0.000175181 -9.35337e-08
-2.13089e-06 -9.35337e-08 4.43181e-05
0.00179682 0.000183951 1.19379e-06
0.000183951 0.000272182 -6.52469e-08
1.19379e-06 -6.52469e-08 0.000136985
0.001738 0.000181817 9.43322e-07
0.000181817 0.000165816 3.85524e-07
9.43322e-07 3.85524e-07 3.28043e-05
0.00115741 0.000166759 -5.94778e-06
0.000166759 2.76756e-05 7.21694e-08
-5.94778e-06 7.21694e-08 -0.00011773
0.00137996 0.000191392 -1.13269e-07
0.000191392 6.7054e-05 4.10392e-07
-1.13269e-07 4.10392e-07 -7.96053e-05
0.00135592 0.000204422 1.72318e-06
0.000204422 0.000143807 1.50314e-07
1.72318e-06 1.50314e-07 -2.1224e-05
0.00114971 0.000172571 -5.77209e-07
0.000172571 0.000105 3.87454e-07
-5.77209e-07 3.87454e-07 -5.03753e-05
0.000957216 0.000133298 -7.37695e-06
0.000133298 6.25286e-05 -4.00295e-06
-7.37695e-06 -4.00295e-06 -6.07279e-05
0.000994729 0.000154615 1.92036e-06
0.000154615 0.000101852 2.49753e-06
1.92036e-06 2.49753e-06 -4.60944e-05
0.00086283 0.000113078 -3.64125e-07
0.000113078 6.6209e-05 -9.25231e-08
-3.64125e-07 -9.25231e-08 -4.79222e-05
0.000785381 7.88574e-05 -1.20429e-05
7.88574e-05 5.98601e-05 -9.02461e-06
-1.20429e-05 -9.02461e-06 -1.8496e-06
0.00066032 7.1496e-05 2.19322e-06
7.1496e-05 -9.28995e-06 2.00025e-06
2.19322e-06 2.00025e-06 -0.000110912
0.000595249 6.97779e-06 1.83362e-07
6.97779e-06 -3.04751e-05 -2.39085e-07
1.83362e-07 -2.39085e-07 -8.0321e-05
0.00354458 -0.000108538 -9.90367e-05
-0.000108538 0.00166337 -3.93134e-06
-9.90367e-05 -3.93134e-06 0.00165845
0.000478938 -6.28085e-05 -3.27928e-07
-6.28085e-05 -7.98811e-05 6.89871e-06
-3.27928e-07 6.89871e-06 -0.000124187
0.00306924 -0.000128033 -2.83538e-06
-0.000128033 0.00139001 3.10984e-07
-2.83538e-06 3.10984e-07 0.00138578
0.00271336 -0.00011517 4.78976e-05
-0.00011517 0.00118486 2.04029e-06
4.78976e-05 2.04029e-06 0.0011848
0.00189513 9.60013e-05 -2.42747e-07
9.60013e-05 7.66801e-05 1.47756e-06
-2.42747e-07 1.47756e-06 -1.79478e-06
0.00181691 9.6345e-05 6.53726e-07
9.6345e-05 2.15838e-05 -2.48103e-07
6.53726e-07 -2.48103e-07 -5.37241e-05
0.00231039 3.78228e-05 -3.74824e-05
3.78228e-05 0.000386242 -6.42169e-06
-3.74824e-05 -6.42169e-06 0.000349258
0.00190572 0.000154965 5.60874e-07
0.000154965 0.000144266 1.52894e-06
5.60874e-07 1.52894e-06 3.19429e-05
0.00172933 0.000212787 -5.33146e-07
0.000212787 0.000103728 -3.58967e-07
-5.33146e-07 -3.58967e-07 -3.37232e-05
0.00149053 0.000232957 -4.39017e-07
0.000232957 0.000113042 -2.09998e-08
-4.39017e-07 -2.09998e-08 -2.60383e-05
0.00193231 0.000217769 1.01321e-06
0.000217769 0.00028079 -5.63951e-07
1.01321e-06 -5.63951e-07 0.000138234
0.00193664 0.000165951 -1.5621e-07
0.000165951 0.000134574 -7.3469e-08
-1.5621e-07 -7.3469e-08 3.26372e-05
0.00161064 0.000254257 2.70804e-07
0.000254257 1.6367e-05 -1.04563e-06
2.70804e-07 -1.04563e-06 -0.000128789
0.00176545 0.000171966 4.80908e-06
0.000171966 4.94479e-05 -1.70487e-06
4.80908e-06 -1.70487e-06 -5.28526e-05
0.00186327 2.3365e-05 1.72891e-06
2.3365e-05 9.39169e-05 6.47058e-07
1.72891e-06 6.47058e-07 1.55271e-05
0.00187328 2.25102e-05 -3.96971e-07
2.25102e-05 6.31104e-05 -1.68799e-08
-3.96971e-07 -1.68799e-08 -4.69831e-07
0.00207085 3.02076e-05 -6.89306e-06
3.02076e-05 0.000152953 -7.24068e-07
-6.89306e-06 -7.24068e-07 9.44617e-05
0.00162859 -7.38701e-06 -7.25059e-07
-7.38701e-06 -1.02574e-05 1.81145e-07
-7.25059e-07 1.81145e-07 -0.000101518
0.00184605 -5.73813e-05 -2.67011e-07
-5.73813e-05 1.73555e-05 4.16339e-07
-2.67011e-07 4.16339e-07 -3.1198e-05
0.001845 -3.95952e-05 -4.80401e-07
-3.95952e-05 8.81521e-05 5.33197e-07
-4.80401e-07 5.33197e-07 5.47878e-06
0.00193321 -4.28829e-05 8.19594e-07
-4.28829e-05 0.000186233 -6.95407e-07
8.19594e-07 -6.95407e-07 8.41337e-05
0.00189061 -0.000102399 -2.3066e-06
-0.000102399 0.000141886 2.95644e-07
-2.3066e-06 2.95644e-07 5.63273e-05
0.00177684 -8.21541e-05 8.32918e-07
-8.21541e-05 0.000114119 -5.11896e-07
8.32918e-07 -5.11896e-07 4.10071e-06
0.00162801 -6.29707e-05 -7.25118e-07
-6.29707e-05 0.000109008 -5.24196e-07
-7.25118e-07 -5.24196e-07 -1.73313e-05
0.00171572 -0.000108798 -9.33758e-07
-0.000108798 0.00011841 2.88987e-07
-9.33758e-07 2.88987e-07 2.15901e-06
0.00155963 -8.92391e-05 -5.71753e-08
-8.92391e-05 0.000101495 1.49262e-07
-5.71753e-08 1.49262e-07 -2.85003e-05
0.00140276 -8.10976e-05 -4.85553e-06
-8.10976e-05 8.54249e-05 1.37439e-06
-4.85553e-06 1.37439e-06 -4.54867e-05
0.00150259 -0.000113927 1.10743e-06
-0.000113927 9.43414e-05 -4.17297e-07
1.10743e-06 -4.17297e-07 -3.85354e-05
0.00137208 -0.000103568 -6.3405e-08
-0.000103568 8.33905e-05 6.67011e-08
-6.3405e-08 6.67011e-08 -4.81023e-05
0.00110364 -8.54268e-05 -1.09058e-05
-8.54268e-05 1.81022e-05 3.41897e-06
-1.09058e-05 3.41897e-06 -9.33335e-05
0.001343 -0.000121779 5.32046e-06
-0.000121779 8.11311e-05 -1.74233e-06
5.32046e-06 -1.74233e-06 -5.08099e-05
0.00109203 -9.85437e-05 1.31704e-07
-9.85437e-05 2.1707e-05 1.11232e-07
1.31704e-07 1.11232e-07 -8.89069e-05
0.00232408 -8.289e-05 -2.75877e-05
-8.289e-05 0.000866165 5.05156e-06
-2.75877e-05 5.05156e-06 0.000812375
0.00105179 -0.000110203 1.07706e-05
-0.000110203 1.01158e-05 -4.34763e-06
1.07706e-05 -4.34763e-06 -0.000101365
0.00238585 -0.000103602 2.71904e-05
-0.000103602 0.000906147 -2.71071e-06
2.71904e-05 -2.71071e-06 0.000852572
0.00164972 -4.83593e-05 -0.000133008
-4.83593e-05 0.000572355 1.39945e-05
-0.000133008 1.39945e-05 0.000552625
0.00253197 -0.000128899 8.39473e-05
-0.000128899 0.000993045 -1.21059e-05
8.39473e-05 -1.21059e-05 0.000937985
0.00145869 1.72496e-05 -6.80068e-05
1.72496e-05 0.000480926 5.12978e-06
-6.80068e-05 5.12978e-06 0.000450018
0.00466041 0.000291092 -9.13982e-06
0.000291092 0.00233877 -5.07034e-06
-9.13982e-06 -5.07034e-06 0.00228899
0.00173378 0.00014265 5.76777e-07
0.00014265 0.000109382 7.92238e-07
5.76777e-07 7.92238e-07 -1.69995e-05
0.00166443 0.000153626 -1.16483e-06
0.000153626 0.000162666 -5.38797e-07
-1.16483e-06 -5.38797e-07 2.83646e-05
0.00175521 0.000174872 -2.24554e-06
0.000174872 0.000138322 -2.78418e-08
-2.24554e-06 -2.78418e-08 6.55362e-06
0.00170551 0.00017337 -3.65927e-06
0.00017337 0.000292647 -7.65549e-07
-3.65927e-06 -7.65549e-07 0.000159766
0.0015099 0.000173698 5.5171e-07
0.000173698 0.000110709 -1.18718e-07
5.5171e-07 -1.18718e-07 -2.37446e-05
0.00160258 0.00017965 2.94969e-06
0.00017965 9.38506e-05 -2.22965e-07
2.94969e-06 -2.22965e-07 -3.83947e-05
0.000972435 0.000134668 -9.79082e-06
0.000134668 5.91832e-06 -3.31534e-06
-9.79082e-06 -3.31534e-06 -0.000116019
0.00125333 0.000173721 -2.23441e-07
0.000173721 7.96046e-05 6.32624e-07
-2.23441e-07 6.32624e-07 -6.6983e-05
0.00144575 0.000194262 3.80521e-06
0.000194262 0.000100667 -9.24852e-07
3.80521e-06 -9.24852e-07 -4.56765e-05
0.00122108 0.000178305 4.51176e-06
0.000178305 0.000144908 2.48286e-06
4.51176e-06 2.48286e-06 -1.17827e-05
0.000930306 0.000130379 -6.36429e-07
0.000130379 4.67606e-05 3.94481e-08
-6.36429e-07 3.94481e-08 -7.58684e-05
0.000755248 0.000133941 -1.7893e-05
0.000133941 2.99359e-05 -9.92692e-06
-1.7893e-05 -9.92692e-06 -4.11603e-05
0.000744938 0.000103615 4.02465e-06
0.000103615 1.32418e-06 3.14821e-06
4.02465e-06 3.14821e-06 -0.000111236
0.00063709 7.2892e-05 -1.98502e-07
7.2892e-05 -1.56262e-05 1.26647e-08
-1.98502e-07 1.26647e-08 -7.70024e-05
0.00409128 -9.58218e-05 -0.000117586
-9.58218e-05 0.00198293 -7.52189e-06
-0.000117586 -7.52189e-06 0.00197157
0.000495465 -3.86474e-06 4.65463e-06
-3.86474e-06 -8.40443e-05 7.41134e-06
4.65463e-06 7.41134e-06 -0.0001319
0.00345571 -0.000139999 -5.33608e-06
-0.000139999 0.00161645 4.65398e-07
-5.33608e-06 4.65398e-07 0.00160722
0.00298263 -0.00013114 5.539e-05
-0.00013114 0.00134166 1.8017e-06
5.539e-05 1.8017e-06 0.00133703
0.00176495 8.42015e-05 6.77618e-07
8.42015e-05 4.07867e-05 1.45543e-06
6.77618e-07 1.45543e-06 -5.21056e-05
0.00180755 9.73292e-05 -2.0216e-07
9.73292e-05 2.52884e-05 3.79274e-07
-2.0216e-07 3.79274e-07 -5.26937e-05
0.00184867 9.79661e-05 -1.75203e-06
9.79661e-05 3.52309e-05 -1.71353e-06
-1.75203e-06 -1.71353e-06 -4.03081e-05
0.00189516 0.000153348 7.4643e-07
0.000153348 0.000139376 -1.178e-07
7.4643e-07 -1.178e-07 2.8172e-05
0.00169199 0.000206041 -4.02999e-07
0.000206041 8.97243e-05 -1.46937e-06
-4.02999e-07 -1.46937e-06 -4.61706e-05
0.00175932 0.00015824 1.28642e-06
0.00015824 3.51753e-05 -1.89129e-06
1.28642e-06 -1.89129e-06 -6.79746e-05
0.00184741 2.57835e-05 5.92446e-08
2.57835e-05 0.000115085 4.68199e-07
5.92446e-08 4.68199e-07 2.39491e-05
0.00186245 2.48486e-05 1.9157e-07
2.48486e-05 9.48794e-05 -3.08937e-07
1.9157e-07 -3.08937e-07 1.51436e-05
0.001767 2.30005e-05 2.16184e-07
2.30005e-05 7.08572e-06 -2.51442e-07
2.16184e-07 -2.51442e-07 -5.88437e-05
0.00174179 -1.35588e-05 -1.48131e-06
-1.35588e-05 5.23707e-05 4.50982e-08
-1.48131e-06 4.50982e-08 -3.77881e-05
0.00171792 -2.04016e-05 9.73516e-07
-2.04016e-05 7.45645e-05 -3.79293e-07
9.73516e-07 -3.79293e-07 -2.94659e-05
0.00182225 -4.1065e-05 -6.17241e-07
-4.1065e-05 7.46033e-05 5.2154e-07
-6.17241e-07 5.2154e-07 -8.31512e-06
0.00180929 -4.31209e-05 -4.95834e-07
-4.31209e-05 0.000117167 3.81848e-07
-4.95834e-07 3.81848e-07 1.23778e-05
0.00170488 -3.45294e-05 2.73703e-07
-3.45294e-05 0.000131391 -4.61745e-07
2.73703e-07 -4.61745e-07 1.18554e-05
0.00177145 -8.28244e-05 8.63007e-08
-8.28244e-05 0.000110412 1.70861e-07
8.63007e-08 1.70861e-07 3.73649e-07
0.0016013 -6.42201e-05 -2.73582e-08
-6.42201e-05 9.49863e-05 -2.4193e-07
-2.73582e-08 -2.4193e-07 -3.13899e-05
0.00141125 -4.9969e-05 -5.52274e-06
-4.9969e-05 7.23947e-05 9.78442e-07
-5.52274e-06 9.78442e-07 -5.71329e-05
0.00151992 -8.88857e-05 6.34197e-07
-8.88857e-05 7.75215e-05 -6.20022e-08
6.34197e-07 -6.20022e-08 -5.24725e-05
0.00138843 -7.96803e-05 5.91237e-08
-7.96803e-05 7.6152e-05 1.20091e-07
5.91237e-08 1.20091e-07 -5.46012e-05
0.00111814 -6.6399e-05 -1.09383e-05
-6.6399e-05 1.29645e-05 2.9097e-06
-1.09383e-05 2.9097e-06 -9.87498e-05
0.00135578 -0.000102122 4.87151e-06
-0.000102122 7.42027e-05 -1.49714e-06
4.87151e-06 -1.49714e-06 -5.70624e-05
0.00110938 -8.31324e-05 -4.0101e-09
-8.31324e-05 2.01497e-05 1.09406e-07
-4.0101e-09 1.09406e-07 -9.08122e-05
0.00232762 -9.21798e-05 -3.0754e-05
-9.21798e-05 0.000862153 4.39925e-06
-3.0754e-05 4.39925e-06 0.000807455
0.00109056 -9.64443e-05 1.10728e-05
-9.64443e-05 1.95575e-05 -3.87926e-06
1.10728e-05 -3.87926e-06 -9.05767e-05
0.00239221 -9.83644e-05 2.59729e-05
-9.83644e-05 0.000901385 -2.19032e-06
2.59729e-05 -2.19032e-06 0.000849894
0.00169038 -4.26645e-05 -0.000132672
-4.26645e-05 0.000589761 1.21239e-05
-0.000132672 1.21239e-05 0.000570397
0.00249559 -0.000113706 8.28068e-05
-0.000113706 0.000964015 -1.07203e-05
8.28068e-05 -1.07203e-05 0.000913232
0.00146092 -7.74492e-07 -6.09467e-05
-7.74492e-07 0.000473933 5.14109e-06
-6.09467e-05 5.14109e-06 0.00044807
0.00139096 4.33201e-05 1.3056e-05
4.33201e-05 0.000445646 -4.16268e-06
1.3056e-05 -4.16268e-06 0.000411751
0.00186626 8.55105e-05 3.0395e-07
8.55105e-05 0.000153183 1.71129e-06
3.0395e-07 1.71129e-06 4.51913e-05
0.00158472 0.000121992 -1.78164e-06
0.000121992 9.56404e-05 1.49308e-07
-1.78164e-06 1.49308e-07 -3.71097e-05
0.00176165 0.000144104 -1.05152e-06
0.000144104 0.000119757 -1.22029e-07
-1.05152e-06 -1.22029e-07 -4.73643e-06
0.0016195 0.00014278 -4.38136e-06
0.00014278 0.00021375 -1.64441e-06
-4.38136e-06 -1.64441e-06 8.33533e-05
0.00169701 0.000153764 1.035e-06
0.000153764 0.000184396 2.74895e-07
1.035e-06 2.74895e-07 4.96612e-05
0.00168638 0.000173751 1.9352e-06
0.000173751 0.000100649 5.0544e-07
1.9352e-06 5.0544e-07 -3.2078e-05
0.00103512 0.000126392 -1.06155e-05
0.000126392 1.14027e-06 -3.6616e-06
-1.06155e-05 -3.6616e-06 -0.000114481
0.0014158 0.000162479 3.12742e-06
0.000162479 0.000128845 2.11787e-07
3.12742e-06 2.11787e-07 -4.82641e-06
0.00123865 0.000164215 2.95409e-06
0.000164215 -4.25645e-05 3.64294e-08
2.95409e-06 3.64294e-08 -0.000176353
0.000653868 0.000143034 -1.95299e-05
0.000143034 -4.67665e-05 -9.17537e-06
-1.95299e-05 -9.17537e-06 -0.000119421
0.00100786 0.000136278 -8.32361e-07
0.000136278 2.51834e-05 4.27534e-07
-8.32361e-07 4.27534e-07 -9.68971e-05
0.00135633 0.000180967 6.30109e-06
0.000180967 0.000135321 1.35651e-06
6.30109e-06 1.35651e-06 -1.24499e-05
0.00091238 0.000128135 6.75979e-06
0.000128135 3.64834e-05 4.36728e-06
6.75979e-06 4.36728e-06 -8.56751e-05
0.000640755 0.000119879 4.53521e-07
0.000119879 -2.89735e-05 1.75712e-07
4.53521e-07 1.75712e-07 -9.95435e-05
0.00474146 -9.04016e-05 -0.000126937
-9.04016e-05 0.00236152 -1.21024e-05
-0.000126937 -1.21024e-05 0.00233903
0.000505202 6.12723e-05 8.70534e-06
6.12723e-05 -8.51162e-05 8.64988e-06
8.70534e-06 8.64988e-06 -0.000144541
0.00392972 -0.000141416 -8.6707e-06
-0.000141416 0.00189608 6.63581e-07
-8.6707e-06 6.63581e-07 0.00188112
0.00334368 -0.000150486 6.67011e-05
-0.000150486 0.00155362 1.79782e-06
6.67011e-05 1.79782e-06 0.00154276
0.0017658 6.26923e-05 -1.67618e-07
6.26923e-05 7.20665e-05 3.64885e-07
-1.67618e-07 3.64885e-07 -2.40099e-05
0.00176114 8.35288e-05 4.90202e-07
8.35288e-05 4.08981e-05 4.83535e-07
4.90202e-07 4.83535e-07 -5.13841e-05
0.00171977 9.79964e-05 1.47843e-06
9.79964e-05 -2.37283e-05 -9.81795e-07
1.47843e-06 -9.81795e-07 -0.000101169
0.00188667 0.000151597 1.49722e-08
0.000151597 0.000135739 -1.47712e-06
1.49722e-08 -1.47712e-06 2.56958e-05
0.00174106 -3.75295e-06 1.23748e-06
-3.75295e-06 8.6163e-05 9.78763e-08
1.23748e-06 9.78763e-08 -1.92779e-05
0.00187528 2.21539e-05 -7.30138e-08
2.21539e-05 0.00012793 -1.53094e-07
-7.30138e-08 -1.53094e-07 3.70656e-05
0.00186218 2.58627e-05 -1.05908e-06
2.58627e-05 9.59101e-05 -1.75882e-07
-1.05908e-06 -1.75882e-07 1.48433e-05
0.00185949 -1.69671e-05 -2.75898e-06
-1.69671e-05 0.000117534 -5.65436e-07
-2.75898e-06 -5.65436e-07 2.84887e-05
0.00170808 -1.3593e-05 -1.04232e-06
-1.3593e-05 6.89047e-05 -1.03003e-07
-1.04232e-06 -1.03003e-07 -3.41196e-05
0.0017646 -9.20032e-06 1.00356e-06
-9.20032e-06 0.000166031 -3.92714e-07
1.00356e-06 -3.92714e-07 4.9893e-05
0.00168711 -4.34387e-05 -1.53038e-06
-4.34387e-05 4.88324e-05 1.29432e-06
-1.53038e-06 1.29432e-06 -5.86422e-05
0.00167353 -3.41954e-05 4.48324e-07
-3.41954e-05 0.000116548 1.57653e-07
4.48324e-07 1.57653e-07 -4.79799e-06
0.00137564 -2.18334e-05 -4.401e-06
-2.18334e-05 3.38842e-05 3.23757e-07
-4.401e-06 3.23757e-07 -9.28099e-05
0.00158237 -6.39623e-05 5.98674e-07
-6.39623e-05 8.53268e-05 1.7963e-08
5.98674e-07 1.7963e-08 -4.09576e-05
0.00140097 -4.77292e-05 -4.13869e-07
-4.77292e-05 6.43999e-05 1.06535e-07
-4.13869e-07 1.06535e-07 -6.48712e-05
0.00112779 -4.25571e-05 -1.11993e-05
-4.25571e-05 5.31666e-06 2.30507e-06
-1.11993e-05 2.30507e-06 -0.000106651
0.00137085 -7.62366e-05 4.61356e-06
-7.62366e-05 6.50549e-05 -1.10434e-06
4.61356e-06 -1.10434e-06 -6.53777e-05
0.00111919 -6.54946e-05 2.14288e-08
-6.54946e-05 1.30157e-05 1.83422e-07
2.14288e-08 1.83422e-07 -9.84947e-05
0.000668356 -5.35787e-05 -1.64818e-05
-5.35787e-05 -8.61514e-05 4.14423e-06
-1.64818e-05 4.14423e-06 -0.000149504
0.00112235 -8.11118e-05 1.09665e-05
-8.11118e-05 2.59727e-05 -3.27626e-06
1.09665e-05 -3.27626e-06 -8.4495e-05
0.00153592 -6.57655e-05 3.36469e-05
-6.57655e-05 0.000409815 -1.91916e-06
3.36469e-05 -1.91916e-06 0.00035437
0.0050034 -0.000105286 -0.000163
-0.000105286 0.00246155 9.01611e-06
-0.000163 9.01611e-06 0.00245877
0.00247766 -9.35987e-05 8.26878e-05
-9.35987e-05 0.000944485 -8.88124e-06
8.26878e-05 -8.88124e-06 0.000896166
0.00147583 -2.07249e-05 -5.45428e-05
-2.07249e-05 0.000474426 4.23022e-06
-5.45428e-05 4.23022e-06 0.000450877
0.00130118 -1.00177e-05 2.38806e-05
-1.00177e-05 0.000387234 -3.75527e-06
2.38806e-05 -3.75527e-06 0.000358565
0.00188355 6.15726e-05 8.50729e-07
6.15726e-05 0.000169835 9.69635e-07
8.50729e-07 9.69635e-07 6.63318e-05
0.00167714 7.9758e-05 -5.77542e-07
7.9758e-05 0.000131097 1.14338e-06
-5.77542e-07 1.14338e-06 7.98811e-06
0.00187761 8.30657e-05 2.19273e-07
8.30657e-05 0.000163813 -1.40703e-08
2.19273e-07 -1.40703e-08 5.50692e-05
0.00124721 0.000103817 -5.64244e-06
0.000103817 -1.92968e-05 -1.01262e-06
-5.64244e-06 -1.01262e-06 -0.000149896
0.00168428 0.000123763 2.63589e-08
0.000123763 0.000151866 -1.71414e-08
2.63589e-08 -1.71414e-08 2.04058e-05
0.00179219 0.000145982 -1.03874e-06
0.000145982 0.000131217 -9.75026e-07
-1.03874e-06 -9.75026e-07 8.55541e-06
0.000647235 9.18792e-05 -1.28899e-05
9.18792e-05 -0.000240702 -4.23186e-06
-1.28899e-05 -4.23186e-06 -0.000354539
0.0016699 0.000146803 1.45226e-06
0.000146803 0.000242212 3.68282e-07
1.45226e-06 3.68282e-07 0.000111193
0.00172475 0.00015403 2.9295e-06
0.00015403 0.000203501 1.02792e-06
2.9295e-06 1.02792e-06 6.82886e-05
0.00060074 0.000117645 -1.78443e-05
0.000117645 -9.46303e-05 -7.72161e-06
-1.78443e-05 -7.72161e-06 -0.000163439
0.000835911 0.000118095 5.01908e-07
0.000118095 -0.000111474 -1.58991e-07
5.01908e-07 -1.58991e-07 -0.000227996
0.00111114 0.00015066 7.89526e-06
0.00015066 -4.32372e-05 1.09265e-06
7.89526e-06 1.09265e-06 -0.000177589
0.00509043 -6.18153e-05 -0.000131572
-6.18153e-05 0.00254739 -1.26679e-05
-0.000131572 -1.26679e-05 0.00252696
0.00061048 0.000132656 1.42842e-06
0.000132656 -6.9671e-05 5.03027e-07
1.42842e-06 5.03027e-07 -0.000141991
0.00102845 0.000137215 9.57941e-06
0.000137215 3.64029e-05 4.51401e-06
9.57941e-06 4.51401e-06 -8.5804e-05
0.000497782 0.000112546 1.40583e-05
0.000112546 -0.000106029 9.70486e-06
1.40583e-05 9.70486e-06 -0.000174818
0.00446763 -0.000109873 -5.45225e-06
-0.000109873 0.00220122 5.66789e-08
-5.45225e-06 5.66789e-08 0.00218434
0.00373278 -0.000168018 7.98374e-05
-0.000168018 0.00178766 2.70007e-06
7.98374e-05 2.70007e-06 0.00176963
0.00180102 3.8949e-05 -7.33371e-07
3.8949e-05 0.000114778 -1.94692e-07
-7.33371e-07 -1.94692e-07 9.81109e-06
0.00178303 6.19258e-05 -1.17182e-07
6.19258e-05 7.81151e-05 3.45977e-07
-1.17182e-07 3.45977e-07 -1.78365e-05
0.00175482 8.32691e-05 1.26537e-08
8.32691e-05 3.93904e-05 -6.93271e-07
1.26537e-08 -6.93271e-07 -5.23053e-05
0.00168561 5.95668e-06 1.18849e-06
5.95668e-06 0.000116106 -1.91788e-07
1.18849e-06 -1.91788e-07 -9.89218e-07
0.00173003 -8.4717e-07 1.48995e-08
-8.4717e-07 8.37711e-05 6.92404e-08
1.48995e-08 6.92404e-08 -2.06913e-05
0.00190211 1.64489e-05 -1.18196e-06
1.64489e-05 0.000140295 -7.07698e-08
-1.18196e-06 -7.07698e-08 4.96946e-05
0.00169084 -8.00335e-06 -1.96728e-06
-8.00335e-06 5.90034e-05 4.45097e-07
-1.96728e-06 4.45097e-07 -4.30123e-05
0.00175153 -6.34398e-06 1.09944e-06
-6.34398e-06 0.000158034 -1.45491e-07
1.09944e-06 -1.45491e-07 4.20152e-05
0.00172601 -4.93534e-06 -2.50823e-06
-4.93534e-06 0.000223001 -7.01093e-08
-2.50823e-06 -7.01093e-08 0.000102041
0.00164267 -3.38158e-05 8.42819e-07
-3.38158e-05 0.000101997 6.69367e-07
8.42819e-07 6.69367e-07 -2.11642e-05
0.00156844 -2.09574e-05 -1.17189e-08
-2.09574e-05 0.000141447 6.98351e-08
-1.17189e-08 6.98351e-08 1.57843e-05
0.000792804 -1.7201e-05 -1.30401e-05
-1.7201e-05 -0.000192517 1.77557e-06
-1.30401e-05 1.77557e-06 -0.000307574
0.00139668 -4.77311e-05 4.21788e-06
-4.77311e-05 5.9638e-05 -7.33223e-07
4.21788e-06 -7.33223e-07 -6.9542e-05
0.00112161 -3.96444e-05 1.73234e-08
-3.96444e-05 1.56574e-06 9.16923e-08
1.73234e-08 9.16923e-08 -0.000110142
0.000664717 -2.02096e-05 -1.62554e-05
-2.02096e-05 -9.64503e-05 2.85259e-06
-1.62554e-05 2.85259e-06 -0.000160836
0.00112331 -6.35345e-05 1.11428e-05
-6.35345e-05 1.46784e-05 -2.57842e-06
1.11428e-05 -2.57842e-06 -9.65191e-05
0.000673619 -3.94859e-05 -2.09843e-07
-3.94859e-05 -8.32197e-05 2.50646e-07
-2.09843e-07 2.50646e-07 -0.000146942
0.00507029 -1.55624e-05 -0.000152473
-1.55624e-05 0.00249185 5.6628e-06
-0.000152473 5.6628e-06 0.00249247
0.000707333 -5.49242e-05 1.59379e-05
-5.49242e-05 -6.0191e-05 -5.89876e-06
1.59379e-05 -5.89876e-06 -0.000123391
0.00321472 -5.71781e-05 7.15423e-05
-5.71781e-05 0.00145198 -1.04141e-06
7.15423e-05 -1.04141e-06 0.00143621
0.00123484 -3.89126e-05 2.95365e-05
-3.89126e-05 0.000347942 -3.8262e-06
2.95365e-05 -3.8262e-06 0.000318455
0.00180695 5.35391e-05 1.1172e-07
5.35391e-05 0.000145064 2.41447e-07
1.1172e-07 2.41447e-07 3.73331e-05
0.00158118 4.40434e-05 2.9423e-07
4.40434e-05 7.54474e-05 1.19873e-06
2.9423e-07 1.19873e-06 -4.38174e-05
0.00185724 5.90018e-05 -2.52458e-07
5.90018e-05 0.000155487 -2.03665e-07
-2.52458e-07 -2.03665e-07 5.21985e-05
0.00141696 7.33945e-05 -4.41099e-06
7.33945e-05 6.5518e-05 -3.25164e-07
-4.41099e-06 -3.25164e-07 -6.05889e-05
0.00163287 7.79851e-05 4.32099e-07
7.79851e-05 0.000104609 1.04646e-07
4.32099e-07 1.04646e-07 -1.94794e-05
0.00188781 8.02672e-05 -8.11497e-07
8.02672e-05 0.000173805 -1.55035e-06
-8.11497e-07 -1.55035e-06 6.43305e-05
0.000673264 7.35502e-05 -1.3032e-05
7.35502e-05 -0.00024402 -3.15567e-06
-1.3032e-05 -3.15567e-06 -0.000356601
0.00152315 0.000112689 -1.25658e-06
0.000112689 0.000136799 -1.94538e-07
-1.25658e-06 -1.94538e-07 7.55222e-06
0.00178476 0.000125376 2.10591e-06
0.000125376 0.000208649 -3.34321e-07
2.10591e-06 -3.34321e-07 7.85089e-05
0.000608755 8.4456e-05 -1.64131e-05
8.4456e-05 -0.000105741 -6.10478e-06
-1.64131e-05 -6.10478e-06 -0.000170815
0.000650089 9.28361e-05 -2.77022e-06
9.28361e-05 -0.000239575 -6.20895e-07
-2.77022e-06 -6.20895e-07 -0.000354086
0.001722 0.000150919 7.66249e-06
0.000150919 0.000271594 1.97234e-06
7.66249e-06 1.97234e-06 0.000139948
0.00515737 2.37741e-05 -0.000149475
2.37741e-05 0.00255545 -1.07508e-05
-0.000149475 -1.07508e-05 0.00254994
0.000587287 0.000108927 8.67997e-07
0.000108927 -0.000101224 2.76559e-07
8.67997e-07 2.76559e-07 -0.000170785
0.00063672 0.000109994 1.09939e-05
0.000109994 -0.000224205 3.36169e-06
1.09939e-05 3.36169e-06 -0.000341648
0.00491105 -4.55546e-05 9.47168e-06
-4.55546e-05 0.00244175 -6.62262e-07
9.47168e-06 -6.62262e-07 0.00242607
0.000534597 0.000118987 1.6231e-05
0.000118987 -0.000108356 9.47682e-06
1.6231e-05 9.47682e-06 -0.000181583
0.00422016 -0.000172522 9.21216e-05
-0.000172522 0.00207561 6.08713e-06
9.21216e-05 6.08713e-06 0.00205074
0.00177028 2.84961e-05 -1.00803e-07
2.84961e-05 0.000158547 -1.69811e-07
-1.00803e-07 -1.69811e-07 4.35821e-05
0.00174934 3.72499e-05 -4.00223e-07
3.72499e-05 9.02354e-05 1.32801e-07
-4.00223e-07 1.32801e-07 -1.55447e-05
0.0018001 6.09802e-05 -5.17226e-08
6.09802e-05 8.38318e-05 -1.2053e-07
-5.17226e-08 -1.2053e-07 -1.19986e-05
0.00170445 -2.1029e-06 -2.47225e-06
-2.1029e-06 0.000214413 -1.22514e-07
-2.47225e-06 -1.22514e-07 9.53546e-05
0.00171439 4.98914e-06 6.25728e-07
4.98914e-06 0.000131832 1.65223e-08
6.25728e-07 1.65223e-08 1.58312e-05
0.00172995 4.0004e-06 5.45477e-07
4.0004e-06 8.71414e-05 -8.25281e-08
5.45477e-07 -8.25281e-08 -1.63526e-05
0.00173968 -4.26836e-06 7.73378e-07
-4.26836e-06 0.000150724 3.29239e-07
7.73378e-07 3.29239e-07 3.48104e-05
0.00173094 -4.65622e-06 1.86242e-06
-4.65622e-06 0.000225534 -2.15331e-07
1.86242e-06 -2.15331e-07 0.000104541
0.000798805 -5.89312e-06 -1.22469e-05
-5.89312e-06 -0.000192742 7.18212e-07
-1.22469e-05 7.18212e-07 -0.000306813
0.00176462 -2.02534e-05 5.38274e-06
-2.02534e-05 0.000250976 -4.13974e-07
5.38274e-06 -4.13974e-07 0.000126347
0.00096559 -1.597e-05 -2.57196e-06
-1.597e-05 -9.55925e-05 3.94332e-07
-2.57196e-06 3.94332e-07 -0.000209143
0.000683568 -6.72081e-06 -1.66579e-05
-6.72081e-06 -9.36144e-05 1.91259e-06
-1.66579e-05 1.91259e-06 -0.000158889
0.00112015 -3.80796e-05 1.1013e-05
-3.80796e-05 4.33152e-07 -2.13597e-06
1.1013e-05 -2.13597e-06 -0.000111108
0.000668605 -2.01907e-05 4.27455e-07
-2.01907e-05 -9.52911e-05 2.22291e-09
4.27455e-07 2.22291e-09 -0.000159232
0.00514863 -7.06343e-05 -0.000158362
-7.06343e-05 0.0025372 4.55854e-06
-0.000158362 4.55854e-06 0.00253605
0.000667516 -2.52716e-05 1.52475e-05
-2.52716e-05 -8.82273e-05 -3.34206e-06
1.52475e-05 -3.34206e-06 -0.000151168
0.00508627 -2.00948e-05 1.13352e-05
-2.00948e-05 0.00250497 -1.28466e-07
1.13352e-05 -1.28466e-07 0.00250291
0.0015016 -1.55894e-05 0.000137998
-1.55894e-05 0.000482857 -6.5274e-06
0.000137998 -6.5274e-06 0.00046569
0.00168954 3.51343e-05 4.93365e-07
3.51343e-05 0.000136909 2.90891e-07
4.93365e-07 2.90891e-07 1.99486e-05
0.00176603 5.69317e-05 -1.31103e-06
5.69317e-05 0.000117675 -1.83856e-07
-1.31103e-06 -1.83856e-07 1.10122e-05
0.0014359 3.9194e-05 -3.97915e-06
3.9194e-05 7.54766e-05 -5.80703e-08
-3.97915e-06 -5.80703e-08 -4.68393e-05
0.00157953 4.33251e-05 3.78708e-07
4.33251e-05 7.53701e-05 -3.51259e-09
3.78708e-07 -3.51259e-09 -4.39514e-05
0.00182927 5.66016e-05 -7.25641e-07
5.66016e-05 0.000140167 -1.6393e-06
-7.25641e-07 -1.6393e-06 3.70961e-05
0.00113346 6.09888e-05 -1.10897e-05
6.09888e-05 5.27085e-06 -2.02821e-06
-1.10897e-05 -2.02821e-06 -0.000102828
0.00140126 7.30909e-05 4.73293e-08
7.30909e-05 5.71709e-05 1.55621e-07
4.73293e-08 1.55621e-07 -6.90469e-05
0.00158688 7.62473e-05 7.65835e-07
7.62473e-05 7.73142e-05 -6.87599e-07
7.65835e-07 -6.87599e-07 -4.77651e-05
0.000625199 5.85645e-05 -1.60193e-05
5.85645e-05 -0.000111227 -4.50609e-06
-1.60193e-05 -4.50609e-06 -0.000174321
0.000876386 8.12004e-05 -3.23665e-06
8.12004e-05 -0.000129731 -4.90586e-07
-3.23665e-06 -4.90586e-07 -0.000241504
0.00180614 0.000121749 5.28074e-06
0.000121749 0.000296857 9.86571e-07
5.28074e-06 9.86571e-07 0.000168957
0.00516712 8.69654e-05 -0.000167952
8.69654e-05 0.0025492 -1.00778e-05
-0.000167952 -1.00778e-05 0.00254809
0.000605565 8.11534e-05 1.07638e-07
8.11534e-05 -0.000107361 1.17771e-07
1.07638e-07 1.17771e-07 -0.000172612
0.00065117 9.39016e-05 7.74178e-06
9.39016e-05 -0.000239555 2.68889e-06
7.74178e-06 2.68889e-06 -0.000354736
0.00506574 4.16212e-05 9.92302e-06
4.16212e-05 0.00250847 9.77291e-07
9.92302e-06 9.77291e-07 0.00250152
0.0005751 9.94018e-05 1.61956e-05
9.94018e-05 -0.000107613 7.60857e-06
1.61956e-05 7.60857e-06 -0.000177527
0.00473763 -5.7967e-05 0.000126988
-5.7967e-05 0.00233571 7.86623e-06
0.000126988 7.86623e-06 0.002327
0.00171289 2.04546e-05 -2.47746e-06
2.04546e-05 0.000223213 -1.8759e-07
-2.47746e-06 -1.8759e-07 0.000105464
0.00174175 2.41063e-05 -8.61069e-08
2.41063e-05 0.000145099 9.06358e-08
-8.61069e-08 9.06358e-08 2.94665e-05
0.0016995 3.53448e-05 -5.6252e-07
3.53448e-05 6.72991e-05 1.23443e-07
-5.6252e-07 1.23443e-07 -3.9265e-05
0.00078863 -1.03204e-05 -1.27254e-05
-1.03204e-05 -0.00019546 -1.44392e-07
-1.27254e-05 -1.44392e-07 -0.000307839
0.00172573 4.27486e-06 1.97559e-06
4.27486e-06 0.00022639 -5.31265e-08
1.97559e-06 -5.31265e-08 0.00010733
0.00173764 3.97768e-06 9.81436e-07
3.97768e-06 0.000144725 9.31894e-08
9.81436e-07 9.31894e-08 2.9828e-05
0.00173611 -4.68399e-06 6.1089e-06
-4.68399e-06 0.000228249 -7.72154e-08
6.1089e-06 -7.72154e-08 0.00010722
0.000789722 -5.87713e-06 -1.92705e-06
-5.87713e-06 -0.000198329 1.45253e-07
-1.92705e-06 1.45253e-07 -0.000312558
0.000699355 -1.38519e-05 -1.6832e-05
-1.38519e-05 -8.8929e-05 7.14346e-07
-1.6832e-05 7.14346e-07 -0.000154267
0.00112747 -1.39262e-05 8.81435e-06
-1.39262e-05 -4.74505e-06 -1.24217e-06
8.81435e-06 -1.24217e-06 -0.000116776
0.000670534 2.65446e-06 1.77793e-07
2.65446e-06 -0.000101425 1.05768e-07
1.77793e-07 1.05768e-07 -0.00016648
0.00525051 -6.36812e-05 -0.000166833
-6.36812e-05 0.00259275 2.90881e-06
-0.000166833 2.90881e-06 0.00259155
0.000672303 -1.24189e-05 1.60436e-05
-1.24189e-05 -9.33148e-05 -2.32104e-06
1.60436e-05 -2.32104e-06 -0.000157448
0.00518579 1.36436e-05 1.33197e-06
1.36436e-05 0.00255374 6.49372e-07
1.33197e-06 6.49372e-07 0.0025549
0.00511034 -5.80463e-05 0.000166187
-5.80463e-05 0.00251426 -4.86774e-06
0.000166187 -4.86774e-06 0.00251471
0.00145256 2.48947e-05 -4.01687e-06
2.48947e-05 8.63292e-05 -3.47228e-07
-4.01687e-06 -3.47228e-07 -3.44475e-05
0.00165895 3.76867e-05 1.51573e-07
3.76867e-05 0.000118903 -3.92547e-07
1.51573e-07 -3.92547e-07 3.24777e-06
0.00172601 6.04609e-05 -2.30951e-06
6.04609e-05 9.08351e-05 -2.83593e-07
-2.30951e-06 -2.83593e-07 -1.4766e-05
0.00112939 3.13197e-05 -1.092e-05
3.13197e-05 3.05996e-07 -1.51432e-06
-1.092e-05 -1.51432e-06 -0.000106465
0.00140947 3.92533e-05 2.2431e-07
3.92533e-05 5.9942e-05 7.80274e-08
2.2431e-07 7.80274e-08 -6.2608e-05
0.00157759 4.25782e-05 1.29014e-07
4.25782e-05 7.52932e-05 -1.17349e-06
1.29014e-07 -1.17349e-06 -4.40839e-05
0.000654271 3.50115e-05 -1.56052e-05
3.50115e-05 -0.000103347 -3.45924e-06
-1.56052e-05 -3.45924e-06 -0.000166026
0.00112359 6.25162e-05 9.66506e-08
6.25162e-05 1.62941e-07 1.78583e-07
9.66506e-08 1.78583e-07 -0.000108283
0.00138546 7.27772e-05 4.75478e-06
7.27772e-05 4.86076e-05 6.93178e-07
4.75478e-06 6.93178e-07 -7.77271e-05
0.00516089 0.000104357 -0.000179283
0.000104357 0.00254383 -8.83482e-06
-0.000179283 -8.83482e-06 0.00254251
0.000643829 5.93958e-05 1.38882e-07
5.93958e-05 -0.000100514 1.6702e-07
1.38882e-07 1.6702e-07 -0.000163805
0.00107233 8.8744e-05 8.03777e-06
8.8744e-05 -1.94712e-05 2.29661e-06
8.03777e-06 2.29661e-06 -0.000130403
0.00510904 9.90189e-05 5.05272e-06
9.90189e-05 0.0025227 1.45877e-06
5.05272e-06 1.45877e-06 0.00251932
0.000606725 7.8154e-05 1.5449e-05
7.8154e-05 -0.000106489 6.14016e-06
1.5449e-05 6.14016e-06 -0.000171724
0.00500574 5.91183e-05 0.000154554
5.91183e-05 0.00247016 1.04653e-05
0.000154554 1.04653e-05 0.00246704
0.00116305 9.20284e-06 -1.15385e-05
9.20284e-06 1.60124e-05 -6.70331e-07
-1.15385e-05 -6.70331e-07 -9.22061e-05
0.00153552 1.52678e-05 2.20712e-06
1.52678e-05 0.000123844 8.74232e-08
2.20712e-06 8.74232e-08 4.65516e-06
0.00171158 1.87247e-05 2.5287e-07
1.87247e-05 0.000130377 1.77474e-07
2.5287e-07 1.77474e-07 1.40694e-05
0.000699253 2.23883e-05 -1.71714e-05
2.23883e-05 -9.35951e-05 -3.54186e-07
-1.71714e-05 -3.54186e-07 -0.00015418
0.000780946 -4.47085e-06 -2.09911e-06
-4.47085e-06 -0.000200666 3.26606e-08
-2.09911e-06 3.26606e-08 -0.000313209
0.00174771 1.06307e-05 6.45549e-06
1.06307e-05 0.000238701 4.85096e-08
6.45549e-06 4.85096e-08 0.000119634
0.000779811 -5.44317e-06 8.34374e-06
-5.44317e-06 -0.00020443 -3.58869e-07
8.34374e-06 -3.58869e-07 -0.000318805
0.000676953 7.19907e-08 1.28245e-07
7.19907e-08 -0.000101535 2.90528e-07
1.28245e-07 2.90528e-07 -0.000166641
0.0053076 5.62246e-05 -0.00017588
5.62246e-05 0.00262154 -8.59451e-07
-0.00017588 -8.59451e-07 0.00262172
0.000652368 1.16385e-05 1.59345e-05
1.16385e-05 -0.000112044 -1.20423e-06
1.59345e-05 -1.20423e-06 -0.000176848
0.0052701 -5.77536e-05 -7.02927e-06
-5.77536e-05 0.00260231 1.17761e-06
-7.02927e-06 1.17761e-06 0.00260149
0.00520951 6.33684e-05 0.00015578
6.33684e-05 0.00257046 -1.98827e-06
0.00015578 -1.98827e-06 0.00256868
0.00114533 1.5835e-05 -1.14331e-05
1.5835e-05 7.51527e-06 -1.34952e-06
-1.14331e-05 -1.34952e-06 -9.94637e-05
0.00137239 2.39814e-05 8.2055e-08
2.39814e-05 4.05032e-05 -5.47662e-08
8.2055e-08 -5.47662e-08 -8.0098e-05
0.00163094 4.01292e-05 -3.63608e-07
4.01292e-05 0.000102202 -9.02092e-07
-3.63608e-07 -9.02092e-07 -1.21506e-05
0.00254177 2.68335e-05 -8.95243e-05
2.68335e-05 0.000955341 -2.63924e-06
-8.95243e-05 -2.63924e-06 0.000909514
0.00113823 3.34973e-05 1.49694e-07
3.34973e-05 4.73483e-06 1.74717e-07
1.49694e-07 1.74717e-07 -0.000102219
0.00138119 3.9153e-05 4.42905e-06
3.9153e-05 4.34053e-05 2.47784e-07
4.42905e-06 2.47784e-07 -7.9384e-05
0.00514286 0.000103726 -0.000182122
0.000103726 0.00253632 -6.93958e-06
-0.000182122 -6.93958e-06 0.00253345
0.000684572 4.17659e-05 3.88181e-07
4.17659e-05 -8.54108e-05 1.93106e-07
3.88181e-07 1.93106e-07 -0.000148661
0.00112598 6.43137e-05 1.11048e-05
6.43137e-05 1.61573e-06 2.38216e-06
1.11048e-05 2.38216e-06 -0.000107153
0.00515447 0.000119783 1.82657e-07
0.000119783 0.00254478 1.34172e-06
1.82657e-07 1.34172e-06 0.00254155
0.000668477 5.94109e-05 1.58701e-05
5.94109e-05 -8.62601e-05 5.01087e-06
1.58701e-05 5.01087e-06 -0.000149709
0.00505859 0.000116736 0.000165951
0.000116736 0.00249748 1.15437e-05
0.000165951 1.15437e-05 0.00249322
0.000731874 7.79311e-06 -1.60504e-05
7.79311e-06 -6.83309e-05 -1.65639e-06
-1.60504e-05 -1.65639e-06 -0.000132683
0.000970097 6.81529e-06 5.89432e-07
6.81529e-06 -9.18469e-05 2.84013e-07
5.89432e-07 2.84013e-07 -0.000201488
0.00135194 9.8707e-06 5.97113e-06
9.8707e-06 2.10026e-05 2.9658e-07
5.97113e-06 2.9658e-07 -9.95973e-05
0.0052571 -8.82908e-05 -0.00016088
-8.82908e-05 0.00260678 -1.37278e-06
-0.00016088 -1.37278e-06 0.00259865
0.000681824 8.43998e-06 -2.63937e-07
8.43998e-06 -9.95085e-05 2.31818e-07
-2.63937e-07 2.31818e-07 -0.000162217
0.000780194 1.0576e-06 8.44762e-06
1.0576e-06 -0.000202083 1.26611e-07
8.44762e-06 1.26611e-07 -0.00031478
0.00065567 1.70865e-05 1.62971e-05
1.70865e-05 -0.000113282 9.48213e-08
1.62971e-05 9.48213e-08 -0.000178297
0.00530204 2.43516e-05 3.13779e-06
2.43516e-05 0.00262134 1.2162e-07
3.13779e-06 1.2162e-07 0.00261909
0.00530725 3.76063e-05 0.000164827
3.76063e-05 0.00261797 -3.42872e-07
0.000164827 -3.42872e-07 0.0026191
0.00258904 -1.29544e-06 -8.93419e-05
-1.29544e-06 0.000976719 -1.9036e-06
-8.93419e-05 -1.9036e-06 0.000930753
0.00115859 1.83652e-05 -1.6113e-08
1.83652e-05 1.44586e-05 4.13871e-08
-1.6113e-08 4.13871e-08 -9.258e-05
0.00129131 2.32641e-05 4.16796e-06
2.32641e-05 -5.79133e-06 1.02978e-07
4.16796e-06 1.02978e-07 -0.000126216
0.00488539 -6.43665e-05 -2.87213e-05
-6.43665e-05 0.00240084 -5.22214e-07
-2.87213e-05 -5.22214e-07 0.00238677
0.000700403 3.02596e-05 -4.73078e-08
3.02596e-05 -7.94148e-05 2.23554e-07
-4.73078e-08 2.23554e-07 -0.000142985
0.00115937 3.62508e-05 1.10882e-05
3.62508e-05 1.57575e-05 1.91566e-06
1.10882e-05 1.91566e-06 -9.13487e-05
0.00517803 6.60061e-05 -1.13976e-05
6.60061e-05 0.0025519 -2.04565e-07
-1.13976e-05 -2.04565e-07 0.00255152
0.000718558 5.61103e-05 1.69594e-05
5.61103e-05 -6.49693e-05 4.17122e-06
1.69594e-05 4.17122e-06 -0.000129046
0.00513901 0.000137102 0.000174692
0.000137102 0.00254057 1.13448e-05
0.000174692 1.13448e-05 0.00253538
0.00166833 -3.24545e-05 -0.000151777
-3.24545e-05 0.000565822 3.81831e-07
-0.000151777 3.81831e-07 0.000547892
0.00164721 1.72678e-05 -3.65317e-05
1.72678e-05 0.000444074 2.80468e-07
-3.65317e-05 2.80468e-07 0.000391184
0.000783285 7.05696e-06 1.12388e-05
7.05696e-06 -0.000196284 1.02596e-06
1.12388e-05 1.02596e-06 -0.000307367
0.00525805 -3.5861e-05 8.65341e-06
-3.5861e-05 0.00260348 -3.33689e-07
8.65341e-06 -3.33689e-07 0.00259849
0.00067454 -4.46574e-06 1.68714e-05
-4.46574e-06 -0.000100759 8.87149e-07
1.68714e-05 8.87149e-07 -0.000164928
0.00530794 -4.75291e-05 0.000181372
-4.75291e-05 0.00262369 -2.00873e-07
0.000181372 -2.00873e-07 0.00262269
0.00134277 -2.43102e-05 -1.17823e-05
-2.43102e-05 0.000401547 -9.28873e-07
-1.17823e-05 -9.28873e-07 0.000368055
0.00164037 1.00952e-05 -3.65068e-05
1.00952e-05 0.000444869 -1.75124e-07
-3.65068e-05 -1.75124e-07 0.000390484
0.00115846 1.9237e-05 1.11958e-05
1.9237e-05 1.42554e-05 1.45518e-06
1.11958e-05 1.45518e-06 -9.28692e-05
0.00324854 3.50944e-05 6.58591e-05
3.50944e-05 0.00146804 1.03049e-06
6.58591e-05 1.03049e-06 0.00145221
0.000708885 3.87366e-05 1.71075e-05
3.87366e-05 -7.46055e-05 3.47043e-06
1.71075e-05 3.47043e-06 -0.000138416
0.00518312 8.87694e-05 0.000167333
8.87694e-05 0.00255578 7.98068e-06
0.000167333 7.98068e-06 0.00255513
0.00519688 -2.61876e-05 -8.92014e-06
-2.61876e-05 0.00257143 -3.13061e-07
-8.92014e-06 -3.13061e-07 0.00256597
0.000692408 2.9015e-05 1.75642e-05
2.9015e-05 -9.28179e-05 1.68153e-06
1.75642e-05 1.68153e-06 -0.00015315
0.00521511 6.00293e-05 0.000165573
6.00293e-05 0.00257758 -9.48173e-07
0.000165573 -9.48173e-07 0.00257433
0.00325987 2.87639e-05 8.10792e-05
2.87639e-05 0.00147716 1.50459e-06
8.10792e-05 1.50459e-06 0.00146007
0.000709185 7.5349e-06 1.6746e-05
7.5349e-06 -7.71728e-05 2.46404e-06
1.6746e-05 2.46404e-06 -0.000140353
0.00518077 -3.66587e-05 0.000158543
-3.66587e-05 0.00255375 4.18108e-06
0.000158543 4.18108e-06 0.00255296
0.00518643 -0.000134894 0.000159215
-0.000134894 0.00257269 -8.2192e-07
0.000159215 -8.2192e-07 0.00256231
0.00517057 -3.24237e-05 0.000156311
-3.24237e-05 0.00254558 1.94503e-06
0.000156311 1.94503e-06 0.0025467
