# vtk DataFile Version 2.0
Wound Healing Simulation
ASCII
DATASET UNSTRUCTURED_GRID
POINTS 3012 float
69.9759 18.75 4
67.2507 60.3285 4
69.976 18.75 2
73.0099 25.446 4
71.1327 20.9142 4
68.6801 16.6661 4
67.8256 19.9261 3.98271
67.2507 60.3286 2
71.1327 54.0858 4
68.6801 58.3339 4
65.6939 62.2254 4
65.3121 59.0012 3.98197
74.6784 42.3946 4
73.7221 47.2057 4
69.9759 18.75 0
73.0099 25.446 2
68.6801 16.6661 2
71.1327 20.9142 2
67.826 19.929 2
74.6792 32.6053 4
73.7222 27.7943 4
72.1454 23.1494 4
70.6142 26.2209 3.98236
68.8858 21.958 3.98316
67.2507 14.6715 4
66.6369 17.9721 3.98162
65.7965 21.0256 3.97346
67.2507 60.3285 0
71.1327 54.0858 2
68.6801 58.3339 2
65.694 62.2255 2
65.3132 58.9978 2
72.1454 51.8506 4
69.9759 56.25 4
68.8364 53.113 3.98222
64.0165 64.0165 4
66.6106 57.1337 3.98216
63.8857 60.7661 3.98407
63.4994 57.7701 3.97369
60.3285 67.2507 4
74.6792 42.3947 2
73.7222 47.2057 2
74.9194 39.9526 4
74.2788 44.8158 4
72.1682 42.0856 3.98135
73.0099 49.554 4
71.2493 46.5981 3.98132
73.0099 25.446 0
71.1327 20.9142 0
68.6801 16.6661 0
67.8256 19.9261 0.0172943
74.6792 32.6053 2
73.7222 27.7943 2
67.2508 14.6715 2
72.1455 23.1494 2
70.6142 26.2213 2
66.6377 17.9756 2
68.886 21.96 2
65.7959 21.0261 2
74.9197 35.0474 4
74.2794 30.1841 4
72.1849 32.9432 3.98174
71.2782 28.4313 3.98175
69.8156 24.0595 3.98296
68.3465 26.9513 3.97193
66.7621 22.9333 3.97272
65.694 12.7746 4
65.3235 16.1036 3.98224
64.7125 19.1963 3.97346
63.8844 22.0373 3.96916
71.1327 54.0858 0
65.6939 62.2254 0
68.6801 58.3339 0
65.3121 59.0012 0.0180286
72.1455 51.8506 2
69.9759 56.25 2
68.8366 53.1111 2
64.0165 64.0165 2
66.6114 57.1303 2
63.8873 60.7634 2
63.4989 57.7702 2
62.2254 65.694 4
58.8948 65.4143 3.99117
69.769 50.9889 3.98209
67.7837 55.1672 3.98216
66.6488 52.2088 3.97177
62.3362 62.4276 3.98708
64.6599 56.0306 3.97357
62.2022 59.4028 3.97517
61.8195 56.6767 3.96889
58.3339 68.6801 4
60.3285 67.2508 2
73.7221 47.2057 0
74.6784 42.3946 0
74.9197 39.9526 2
74.2794 44.8159 2
72.1679 42.0856 2
73.0099 49.554 2
71.2492 46.5979 2
75 37.5 4
72.4055 39.8022 3.98165
71.7826 44.3529 3.98142
69.8036 41.7893 3.97122
70.5751 48.8135 3.98166
68.9117 46.0144 3.97097
74.6792 32.6053 0
73.7222 27.7943 0
67.2507 14.6715 0
72.1454 23.1494 0
70.6142 26.2209 0.017637
68.8858 21.958 0.016836
66.6369 17.9721 0.0183824
65.7965 21.0256 0.0265379
74.9197 35.0474 2
74.2794 30.1841 2
72.1845 32.9435 2
71.2782 28.4316 2
65.694 12.7745 2
65.3248 16.1069 2
69.8157 24.0606 2
68.3464 26.9516 2
64.7119 19.1966 2
66.7616 22.9338 2
63.8838 22.0373 2
72.4133 35.2241 3.98176
71.804 30.6762 3.98179
69.8396 33.2682 3.97168
68.9657 29.0381 3.97165
67.6109 24.912 3.97226
66.1927 27.6352 3.96851
64.0165 10.9835 4
64.7543 23.8313 3.96895
63.8903 14.327 3.98514
63.512 17.4491 3.97397
62.903 20.324 3.96909
62.0864 22.9478 3.96754
60.6841 11.0978 3.98798
57.6122 11.449 3.9804
72.1454 51.8506 0
69.9759 56.25 0
68.8364 53.113 0.0177766
64.0165 64.0165 0
63.8857 60.7661 0.0159304
66.6106 57.1337 0.0178351
63.4994 57.7701 0.026311
62.2255 65.694 2
58.8957 65.4139 2
69.769 50.9879 2
67.7841 55.1644 2
66.6484 52.2082 2
62.3379 62.4259 2
64.6594 56.0304 2
62.2018 59.4035 2
61.8189 56.6773 2
60.6689 63.9771 3.98919
57.0257 66.7349 3.99191
57.5581 63.6915 3.98309
67.5069 50.1763 3.97117
65.7011 54.1726 3.97238
64.5352 51.3834 3.96785
60.7728 60.9368 3.97852
62.8168 55.0643 3.96908
60.6554 58.1546 3.96927
60.3214 55.7767 3.96953
56.25 69.9759 4
58.3339 68.6801 2
60.3285 67.2507 0
58.9213 9.65604 3.98912
62.2254 9.30607 4
73.0099 49.554 0
74.2788 44.8158 0
71.2493 46.5981 0.018684
72.1682 42.0856 0.0186522
74.9194 39.9526 0
75 37.5 2
72.4054 39.8024 2
71.7825 44.3526 2
69.8033 41.789 2
70.5751 48.8132 2
68.9117 46.014 2
72.4888 37.512 3.98145
70.0408 39.6571 3.97122
69.4298 43.9071 3.97108
67.5957 41.4967 3.96856
68.2654 48.1067 3.97099
66.7078 45.4386 3.96797
74.9197 35.0474 0
74.2794 30.1841 0
72.1849 32.9432 0.0182557
71.2782 28.4313 0.0182529
65.694 12.7746 0
65.3235 16.1036 0.017758
69.8156 24.0595 0.0170419
68.3465 26.9513 0.0280682
66.7621 22.9333 0.027278
64.7125 19.1963 0.0265432
63.8844 22.0373 0.030843
72.4133 35.2241 2
71.8039 30.6766 2
69.8393 33.2685 2
68.9657 29.0383 2
64.0165 10.9835 2
63.8918 14.3296 2
63.5115 17.449 2
67.6106 24.9124 2
66.1926 27.6353 2
62.9024 20.324 2
64.7538 23.8314 2
62.0857 22.9478 2
60.6856 11.0994 2
57.6125 11.4482 2
70.0575 35.3917 3.9715
69.4666 31.1493 3.97148
67.654 33.591 3.96881
66.7703 29.6233 3.96842
65.522 25.7001 3.96873
64.1305 28.2592 3.96925
62.3418 12.655 3.98694
62.8483 24.6414 3.96829
62.1988 15.7864 3.9772
61.8087 18.6906 3.96803
61.2104 21.3476 3.96669
60.4037 23.7371 3.96852
59.2461 12.7807 3.97907
55.8743 10.2349 3.98255
56.4045 13.1187 3.97618
69.769 50.9889 0.0179104
62.2254 65.694 0
58.8948 65.4143 0.00882899
67.7837 55.1672 0.0178388
66.6488 52.2088 0.0282281
62.3362 62.4276 0.012917
62.2022 59.4028 0.0248346
64.6599 56.0306 0.0264251
61.8195 56.6767 0.0311089
60.6702 63.9761 2
57.0264 66.7347 2
57.5582 63.6928 2
67.5067 50.1758 2
65.7005 54.1721 2
64.5347 51.3833 2
60.7729 60.9382 2
62.8163 55.0647 2
60.655 58.1554 2
60.321 55.7768 2
55.0714 67.9318 3.99231
59.2191 62.3653 3.98003
55.805 64.9099 3.98607
56.3262 62.088 3.97837
65.3296 49.4067 3.96768
63.7029 53.2898 3.96826
62.4269 50.6454 3.96722
59.3318 59.5537 3.97395
61.0702 54.3019 3.96858
59.2832 57.0001 3.96681
59.2325 55.1709 3.9684
48.1029 68.5783 3.98807
50.9491 69.9315 3.99254
54.0858 71.1327 4
56.25 69.976 2
58.3339 68.6801 0
57.0587 8.33601 3.99005
60.3285 7.74928 4
58.9227 9.65709 2
62.2255 9.30602 2
70.5751 48.8135 0.0183375
71.7826 44.3529 0.0185762
68.9117 46.0144 0.0290347
69.8036 41.7893 0.0287766
72.4055 39.8022 0.0183454
75 37.5 0
72.4885 37.5121 2
70.0407 39.6569 2
69.4298 43.9068 2
67.5954 41.4965 2
68.2653 48.1063 2
66.7077 45.4384 2
70.1288 37.5213 3.97141
67.833 39.5117 3.96866
67.2218 43.4688 3.9682
65.5287 41.2067 3.97044
66.0666 47.4166 3.96785
64.6278 44.8432 3.96923
72.4133 35.2241 0.018235
71.804 30.6762 0.0182104
69.8396 33.2682 0.028316
68.9657 29.0381 0.0283522
64.0165 10.9835 0
63.8903 14.327 0.0148557
63.512 17.4491 0.0260312
67.6109 24.912 0.0277449
66.1927 27.6352 0.0314944
64.7543 23.8313 0.0310525
62.903 20.324 0.0309075
62.0864 22.9478 0.032459
60.6841 11.0978 0.012016
57.6122 11.449 0.0196039
70.0575 35.3919 2
69.4666 31.1496 2
67.6537 33.5911 2
66.7703 29.6233 2
62.3434 12.6571 2
62.1984 15.7859 2
61.8083 18.6902 2
65.5217 25.7002 2
64.1299 28.2593 2
61.2097 21.3475 2
62.8477 24.6414 2
60.4035 23.7374 2
59.2463 12.7802 2
56.4043 13.1176 2
55.8746 10.2338 2
67.8692 35.5474 3.96888
67.2635 31.6226 3.96857
65.6779 33.9284 3.97064
64.644 30.1952 3.96945
63.5258 26.4182 3.96885
62.2164 28.7857 3.97243
60.7754 14.2251 3.97897
61.0184 25.347 3.97003
60.6097 17.1329 3.97208
60.2105 19.8257 3.96518
59.6368 22.2697 3.96569
58.9395 24.3346 3.97058
54.0376 9.13703 3.98408
57.9095 14.3369 3.97742
54.7864 12.0166 3.9781
55.3106 14.6555 3.97514
67.5069 50.1763 0.0288319
57.0257 66.7349 0.00808973
60.6689 63.9771 0.010808
57.5581 63.6915 0.016906
65.7011 54.1726 0.0276176
64.5352 51.3834 0.0321471
60.7728 60.9368 0.021479
60.6554 58.1546 0.0307253
62.8168 55.0643 0.030916
60.3214 55.7767 0.0304667
55.0719 67.9318 2
59.2192 62.3666 2
55.8049 64.9109 2
56.3262 62.0895 2
65.3293 49.4066 2
63.7023 53.2898 2
62.4272 50.6453 2
59.3317 59.5552 2
61.07 54.302 2
59.283 56.9998 2
59.2322 55.1708 2
53.0433 68.9996 3.99243
53.9674 66.0127 3.98726
57.8796 60.8673 3.97699
54.6838 63.2064 3.98196
55.2096 60.6114 3.97629
63.1732 48.6544 3.96789
61.7322 52.5687 3.96701
60.2309 50.0046 3.96873
58.0137 58.2546 3.97006
59.3163 53.9349 3.96755
58.1145 55.7961 3.96545
50.1096 67.8564 3.98793
47.4634 66.58 3.98509
46.0565 69.1575 3.98813
48.1028 68.5789 2
48.8032 70.7228 3.99263
50.9495 69.9315 2
51.8506 72.1454 4
54.0858 71.1327 2
56.25 69.9759 0
55.1034 7.14047 3.99101
58.3339 6.31992 4
57.0598 8.33649 2
60.3286 7.74926 2
58.9213 9.65604 0.0108843
62.2254 9.30607 0
68.2654 48.1067 0.0290109
69.4298 43.9071 0.0289226
66.7078 45.4386 0.0320262
67.5957 41.4967 0.0314369
70.0408 39.6571 0.0287839
72.4888 37.512 0.0185481
70.1286 37.5213 2
67.833 39.5116 2
67.2217 43.4686 2
65.5282 41.2066 2
66.0666 47.4164 2
64.6273 44.843 2
67.9294 37.5216 3.9688
65.7614 39.3682 3.97066
65.1521 43.0212 3.9699
63.6908 40.9242 3.9735
63.9394 46.7104 3.96853
62.7507 44.2069 3.97286
70.0575 35.3917 0.0284964
69.4666 31.1493 0.0285199
67.654 33.591 0.0311899
66.7703 29.6233 0.0315821
62.3418 12.655 0.0130632
62.1988 15.7864 0.0227994
61.8087 18.6906 0.0319678
65.522 25.7001 0.0312735
64.1305 28.2592 0.0307456
62.8483 24.6414 0.0317079
61.2104 21.3476 0.0333105
60.4037 23.7371 0.0314823
59.2461 12.7807 0.0209322
56.4045 13.1187 0.0238228
55.8743 10.2349 0.017454
67.8692 35.5474 2
67.2635 31.6227 2
65.6776 33.9285 2
64.6435 30.1953 2
60.7752 14.2246 2
60.6093 17.1317 2
60.2107 19.8254 2
63.5254 26.4182 2
62.2153 28.7859 2
59.6386 22.2698 2
61.0179 25.3472 2
58.9386 24.3353 2
57.9089 14.336 2
55.3102 14.6551 2
54.0378 9.13614 2
54.7864 12.0152 2
65.852 35.667 3.97066
65.1621 32.1567 3.96993
64.2361 34.2513 3.97343
62.5349 30.6429 3.97313
61.612 27.0815 3.97094
60.784 29.1511 3.97587
59.3094 15.6731 3.97623
59.2761 25.8113 3.97349
59.115 18.3654 3.96891
58.7182 20.867 3.96413
58.2446 23.1083 3.96639
57.9127 24.6829 3.97252
52.1123 8.15471 3.98543
53.058 11.021 3.98002
56.674 15.7504 3.97653
53.8083 13.6893 3.97591
54.3725 16.0112 3.97664
55.0714 67.9318 0.00768606
65.3296 49.4067 0.0323159
55.805 64.9099 0.013927
59.2191 62.3653 0.0199728
56.3262 62.088 0.0216262
63.7029 53.2898 0.0317417
62.4269 50.6454 0.0327832
59.3318 59.5537 0.0260496
59.2832 57.0001 0.0331857
61.0702 54.3019 0.0314205
59.2325 55.1709 0.0315969
53.0437 68.9997 2
53.9673 66.0135 2
57.8793 60.8686 2
54.6836 63.2076 2
55.2096 60.613 2
63.1729 48.6542 2
61.733 52.5688 2
60.2305 50.0043 2
58.0133 58.2564 2
59.3164 53.9346 2
58.1139 55.7956 2
52.0708 66.9994 3.98774
52.9537 64.218 3.98393
56.6454 59.4838 3.97501
53.6803 61.6199 3.97922
54.2568 59.3129 3.97526
60.9345 47.8662 3.96937
59.6785 52.0907 3.96803
57.9535 49.5954 3.97047
56.768 56.9712 3.96736
57.0975 54.1037 3.96645
50.1095 67.8569 2
49.3373 65.9204 3.98496
47.4633 66.5806 2
46.8927 64.7344 3.98346
45.5584 67.0971 3.98515
43.9734 69.5897 3.98819
46.0564 69.158 2
46.6098 71.3672 3.99261
48.1029 68.5783 0.0119339
48.8036 70.7229 2
49.554 73.0099 4
50.9491 69.9315 0.00746446
51.8506 72.1455 2
54.0858 71.1327 0
53.0647 6.07199 3.9915
55.1042 7.14061 2
56.25 5.02411 4
58.3339 6.3199 2
57.0587 8.33601 0.00994622
60.3285 7.74928 0
66.0666 47.4166 0.0321508
67.2218 43.4688 0.0317962
64.6278 44.8432 0.0307664
65.5287 41.2067 0.0295567
67.833 39.5117 0.0313356
70.1288 37.5213 0.0285949
67.9292 37.5216 2
65.7607 39.3681 2
65.1517 43.021 2
63.6901 40.9241 2
63.9388 46.7103 2
62.7495 44.2066 2
65.8653 37.5009 3.97056
63.8318 39.2632 3.97333
63.2632 42.5425 3.97313
62.3381 40.6907 3.97675
61.9102 45.9073 3.97119
61.3629 43.6707 3.97622
67.8692 35.5474 0.031118
67.2635 31.6226 0.0314315
65.6779 33.9284 0.0293568
64.644 30.1952 0.0305519
60.7754 14.2251 0.0210317
60.6097 17.1329 0.0279201
60.2105 19.8257 0.0348229
63.5258 26.4182 0.0311459
62.2164 28.7857 0.0275673
61.0184 25.347 0.0299703
59.6368 22.2697 0.034311
58.9395 24.3346 0.0294242
57.9095 14.3369 0.022579
55.3106 14.6555 0.0248643
54.0376 9.13703 0.0159153
54.7864 12.0166 0.0218981
65.8515 35.667 2
65.1621 32.1568 2
64.2358 34.2514 2
62.5337 30.643 2
59.3086 15.6723 2
59.1151 18.3645 2
58.7193 20.8673 2
61.6112 27.0818 2
60.7833 29.1514 2
58.2446 23.109 2
59.2755 25.8119 2
57.9123 24.6837 2
56.6734 15.7496 2
54.3717 16.0107 2
53.808 13.6875 2
52.1124 8.15397 2
53.058 11.0199 2
64.0316 35.6326 3.97287
62.8588 33.0505 3.97384
60.5288 30.6223 3.97616
59.4969 27.9248 3.97459
57.935 16.9911 3.97442
57.6712 25.7455 3.9751
57.6983 19.4908 3.96544
57.3331 21.859 3.96298
57.1233 23.9682 3.96843
50.1126 7.28558 3.98698
51.2328 10.1277 3.98177
52.1715 12.8036 3.97806
55.532 16.9834 3.97609
52.9753 15.2777 3.97424
53.7522 16.9955 3.97947
53.0433 68.9996 0.00757086
53.9674 66.0127 0.0127396
63.1732 48.6544 0.0321104
54.6838 63.2064 0.0180403
57.8796 60.8673 0.0230149
55.2096 60.6114 0.0237059
61.7322 52.5687 0.0329937
60.2309 50.0046 0.0312684
58.0137 58.2546 0.0299363
58.1145 55.7961 0.0345483
59.3163 53.9349 0.0324499
52.0707 67 2
52.9534 64.2187 2
56.6451 59.4848 2
53.6802 61.6212 2
54.2569 59.3143 2
60.9332 47.8658 2
59.6797 52.0906 2
57.9509 49.5946 2
56.7671 56.9755 2
57.096 54.1032 2
51.1683 65.1274 3.98487
52.0461 62.5371 3.98151
55.4753 58.2421 3.97582
52.8319 60.1304 3.97743
53.6339 58.4629 3.97889
58.2081 46.8265 3.97376
57.5161 51.7665 3.9679
56.1518 49.5281 3.97066
55.4545 55.7703 3.96397
55.3192 53.3595 3.96444
50.1096 67.8564 0.0120653
49.3371 65.921 2
48.6185 64.1211 3.98369
47.4634 66.58 0.0149099
45.5584 67.0976 2
46.8926 64.7349 2
46.3824 63.0507 3.98295
45.133 65.1954 3.98347
43.6316 67.4676 3.9852
41.8605 69.8771 3.98807
43.9733 69.5902 2
44.3771 71.8621 3.99252
46.0565 69.1575 0.0118736
46.6101 71.3674 2
47.2057 73.7222 4
48.8032 70.7228 0.00737124
49.554 73.0099 2
51.8506 72.1454 0
50.9547 5.13215 3.99208
53.0653 6.07195 2
54.0858 3.86728 4
55.1034 7.14047 0.00899032
56.25 5.02406 2
58.3339 6.31992 0
63.9394 46.7104 0.0314713
65.1521 43.0212 0.0300989
62.7507 44.2069 0.02714
63.6908 40.9242 0.026505
65.7614 39.3682 0.0293379
67.9294 37.5216 0.0311994
65.8646 37.5008 2
63.8308 39.2631 2
63.2622 42.5423 2
62.337 40.6905 2
61.909 45.9069 2
61.3617 43.6703 2
63.8943 37.4555 3.97292
62.0572 39.3503 3.97633
61.1126 41.9468 3.97601
60.1618 44.7542 3.97548
65.852 35.667 0.0293373
65.1621 32.1567 0.0300713
64.2361 34.2513 0.0265738
62.5349 30.6429 0.0268713
59.3094 15.6731 0.0237728
59.115 18.3654 0.0310897
58.7182 20.867 0.0358673
61.612 27.0815 0.0290591
60.784 29.1511 0.0241347
59.2761 25.8113 0.0265074
58.2446 23.1083 0.0336108
57.9127 24.6829 0.0274767
56.674 15.7504 0.0234721
54.3725 16.0112 0.023359
53.8083 13.6893 0.024089
52.1123 8.15471 0.0145709
53.058 11.021 0.0199822
64.0312 35.6326 2
62.8579 33.0506 2
60.5281 30.6226 2
57.9343 16.9904 2
57.6986 19.4894 2
57.3337 21.8595 2
59.496 27.9253 2
57.1227 23.9691 2
57.671 25.7462 2
50.1127 7.28478 2
55.5313 16.9825 2
53.7513 16.9947 2
52.9748 15.2768 2
52.1713 12.8028 2
51.2328 10.1269 2
62.0893 35.3613 3.97504
60.1752 32.7545 3.97629
58.5118 30.0929 3.97655
57.1952 27.4035 3.97603
56.6267 18.1678 3.97373
56.213 25.1273 3.97255
56.3295 20.541 3.96212
56.048 22.8941 3.96297
48.0566 6.52787 3.98828
49.325 9.33367 3.98293
50.4331 11.9993 3.97947
51.3755 14.5073 3.9752
54.405 17.9349 3.97729
52.3552 17.0562 3.97304
52.0708 66.9994 0.012263
52.9537 64.218 0.0160651
60.9345 47.8662 0.030629
53.6803 61.6199 0.0207808
56.6454 59.4838 0.0249947
54.2568 59.3129 0.0247379
59.6785 52.0907 0.031967
57.9535 49.5954 0.0295283
56.768 56.9712 0.0326351
57.0975 54.1037 0.0335484
51.1681 65.1279 2
52.0457 62.5379 2
55.4749 58.2429 2
52.8319 60.1321 2
53.6337 58.4635 2
58.207 46.8258 2
57.516 51.7661 2
56.1496 49.5274 2
55.4545 55.7707 2
55.3204 53.3598 2
50.3466 63.3797 3.98334
51.2432 60.9318 3.97889
54.2088 57.258 3.97524
52.3075 58.6231 3.97636
56.5527 44.1529 3.9778
55.3685 47.8647 3.97224
55.007 51.3644 3.96698
53.9728 54.5178 3.96353
49.3373 65.9204 0.0150427
48.6184 64.1217 2
47.9624 62.4721 3.98264
45.5584 67.0971 0.0148522
46.8927 64.7344 0.0165427
43.6315 67.4682 2
46.3824 63.0511 2
45.1328 65.196 2
45.9881 61.5822 3.98303
44.7677 63.4509 3.98231
43.357 65.5047 3.98333
41.6637 67.6864 3.98495
39.7023 70.0241 3.98824
41.8606 69.8776 2
42.1113 72.2069 3.99246
43.9734 69.5897 0.0118062
44.3773 71.8623 2
44.8159 74.2794 4
46.6098 71.3672 0.00738884
47.2057 73.7222 2
49.554 73.0099 0
48.7852 4.32284 3.99257
50.9551 5.13188 2
51.8506 2.85458 4
53.0647 6.07199 0.00850261
54.0858 3.86728 2
56.25 5.02411 0
61.9102 45.9073 0.0288086
63.2632 42.5425 0.0268728
61.3629 43.6707 0.0237826
62.3381 40.6907 0.0232536
63.8318 39.2632 0.0266721
65.8653 37.5009 0.0294417
63.8933 37.4554 2
62.0562 39.3502 2
61.1111 41.9465 2
60.1607 44.7537 2
61.8934 37.4429 3.97584
60.1137 39.8355 3.9769
58.8499 42.8978 3.97742
64.0316 35.6326 0.0271264
62.8588 33.0505 0.0261586
60.5288 30.6223 0.0238437
57.935 16.9911 0.0255797
57.6983 19.4908 0.0345593
57.3331 21.859 0.0370153
59.4969 27.9248 0.0254092
57.6712 25.7455 0.0249004
57.1233 23.9682 0.0315666
55.532 16.9834 0.0239052
53.7522 16.9955 0.0205348
52.9753 15.2777 0.0257614
50.1126 7.28558 0.0130215
52.1715 12.8036 0.0219441
51.2328 10.1277 0.018227
62.0885 35.3614 2
60.173 32.7548 2
58.5111 30.0935 2
56.6261 18.1669 2
56.33 20.5383 2
56.0497 22.8947 2
57.1967 27.4042 2
56.2146 25.1281 2
48.0566 6.52703 2
49.325 9.33284 2
54.4045 17.9341 2
52.3542 17.0557 2
51.3748 14.506 2
50.433 11.9986 2
59.7565 35.1254 3.97702
57.8364 32.2895 3.9771
56.421 29.3655 3.97733
55.3289 26.6311 3.97601
55.3249 19.203 3.97309
54.8493 24.0888 3.96586
54.9582 21.5874 3.9603
45.9627 5.88261 3.98893
43.3742 7.47384 3.98586
47.3556 8.62565 3.98441
48.6003 11.2982 3.98052
49.7122 13.7507 3.97873
50.6294 16.1486 3.9774
53.1108 18.6798 3.9728
51.2903 18.0703 3.98009
51.1683 65.1274 0.0151309
52.0461 62.5371 0.0184914
58.2081 46.8265 0.0262351
52.8319 60.1304 0.0225735
55.4753 58.2421 0.024184
53.6339 58.4629 0.021107
57.5161 51.7665 0.0321037
56.1518 49.5281 0.0293372
55.4545 55.7703 0.0360268
55.3192 53.3595 0.0355611
50.3462 63.38 2
51.2428 60.9326 2
54.2086 57.259 2
52.3071 58.6236 2
56.5519 44.1521 2
55.3677 47.8639 2
55.0077 51.3643 2
53.9733 54.519 2
49.592 61.7426 3.98186
55.4065 41.6759 3.97613
50.5633 59.323 3.97515
52.1696 56.477 3.97008
54.0021 45.5218 3.97549
53.2185 49.2962 3.97045
52.6144 52.8231 3.96524
48.6185 64.1211 0.0163118
47.9623 62.4725 2
47.3291 61.0053 3.98355
43.6316 67.4676 0.0148007
45.133 65.1954 0.0165346
46.3824 63.0507 0.0170477
41.6637 67.6866 2
43.3569 65.5054 2
45.9881 61.5828 2
44.7677 63.4515 2
45.766 60.6259 3.98128
44.4842 61.8307 3.98196
43.1469 63.7229 3.98185
41.5465 65.6422 3.98258
39.6328 67.7659 3.98458
37.5259 70.049 3.98801
39.7023 70.0247 2
39.8179 72.404 3.9923
41.8605 69.8771 0.0119316
42.1115 72.2072 2
42.3947 74.6792 4
44.3771 71.8621 0.00748367
44.8159 74.2794 2
47.2057 73.7222 0
43.852 5.35937 3.98901
46.5712 3.64725 3.99278
48.7855 4.32251 2
49.554 1.99015 4
50.9547 5.13215 0.00791838
51.8506 2.85453 2
54.0858 3.86728 0
60.1618 44.7542 0.0245153
61.1126 41.9468 0.0239897
62.0572 39.3503 0.0236704
63.8943 37.4555 0.0270838
61.8923 37.4429 2
60.1125 39.8351 2
58.849 42.8973 2
59.6105 37.5646 3.97775
57.8133 40.6371 3.97768
54.8456 39.6899 3.97617
62.0893 35.3613 0.0249632
60.1752 32.7545 0.0237057
58.5118 30.0929 0.0234545
56.6267 18.1678 0.0262711
56.3295 20.541 0.0378819
56.048 22.8941 0.0370344
57.1952 27.4035 0.0239704
56.213 25.1273 0.0274492
54.405 17.9349 0.0227071
52.3552 17.0562 0.0269629
51.3755 14.5073 0.0248012
48.0566 6.52787 0.0117183
49.325 9.33367 0.0170739
50.4331 11.9993 0.0205327
59.7546 35.1256 2
45.9626 5.88211 2
43.3741 7.47339 2
57.8357 32.2902 2
56.421 29.3663 2
55.3245 19.2024 2
54.96 21.5865 2
54.8487 24.0901 2
55.3245 26.6327 2
47.3556 8.62436 2
48.6002 11.2974 2
53.1106 18.679 2
51.2897 18.0703 2
50.6287 16.1482 2
49.7115 13.7502 2
57.1997 34.7735 3.97754
55.5635 31.5467 3.97801
54.3486 28.446 3.9783
53.676 25.5366 3.9736
53.9442 20.157 3.97355
53.5199 22.7464 3.95753
41.3994 7.07919 3.98636
45.3604 7.99553 3.9861
42.8663 9.41731 3.98318
46.6671 10.6567 3.98177
47.7445 13.1083 3.98073
48.9287 15.4113 3.97608
49.9976 17.7163 3.97689
51.6299 19.347 3.97922
50.3466 63.3797 0.016656
51.2432 60.9318 0.0211102
56.5527 44.1529 0.0221984
55.3685 47.8647 0.0277574
52.3075 58.6231 0.0236434
54.2088 57.258 0.0247567
55.007 51.3644 0.0330235
53.9728 54.5178 0.0364734
49.5915 61.7425 2
55.407 41.6758 2
50.563 59.3237 2
52.1693 56.4779 2
54.0069 45.5211 2
53.222 49.2961 2
52.6156 52.8227 2
48.8472 60.1989 3.97983
52.27 42.5978 3.98104
49.7809 57.6144 3.97506
50.5575 54.4078 3.96645
51.6461 47.2295 3.97603
51.1268 50.9164 3.96282
47.9166 43.7458 3.99068
47.9624 62.4721 0.0173611
47.3291 61.0057 2
46.6178 59.7909 3.98247
41.6637 67.6864 0.0150461
43.357 65.5047 0.0166693
44.7677 63.4509 0.0176894
45.9881 61.5822 0.0169736
39.6329 67.7666 2
41.5463 65.6422 2
45.7659 60.6266 2
43.1469 63.7236 2
44.4841 61.8314 2
44.6228 60.2876 3.98236
42.9512 62.0782 3.98031
41.6004 63.816 3.98185
39.6478 65.6097 3.98163
37.5634 67.7478 3.98427
31.6967 65.1283 3.9824
33.3922 67.4852 3.98401
35.3335 69.959 3.98802
37.526 70.0497 2
37.5095 72.4585 3.99217
39.7023 70.0241 0.0117557
39.8181 72.4044 2
39.9526 74.9197 4
42.1113 72.2069 0.00753698
42.3947 74.6792 2
44.8159 74.2794 0
41.7366 4.96856 3.9893
43.8519 5.35889 2
44.3264 3.1103 3.99313
46.5713 3.64701 2
47.2057 1.27793 4
48.7852 4.32284 0.00743237
49.554 1.99013 2
51.8506 2.85458 0
58.8499 42.8978 0.0225839
60.1137 39.8355 0.0230952
61.8934 37.4429 0.0241622
59.6092 37.5646 2
57.8128 40.6367 2
54.8467 39.6893 2
56.6027 37.8854 3.9776
49.3037 41.3056 3.99013
52.8674 39.3009 3.98412
39.4428 6.80285 3.98635
59.7565 35.1254 0.0229802
57.8364 32.2895 0.0229018
56.421 29.3655 0.0226693
55.3249 19.203 0.0269083
54.9582 21.5874 0.0397006
54.8493 24.0888 0.0341394
55.3289 26.6311 0.023987
53.1108 18.6798 0.027201
51.2903 18.0703 0.019913
50.6294 16.1486 0.0226018
45.9627 5.88261 0.0110744
49.7122 13.7507 0.021267
47.3556 8.62565 0.0155935
48.6003 11.2982 0.0194847
43.3742 7.47384 0.0141411
57.1971 34.773 2
41.3993 7.07864 2
45.3602 7.99509 2
42.8659 9.41684 2
55.5654 31.5473 2
54.3468 28.4473 2
53.9442 20.1571 2
53.5204 22.7433 2
53.6735 25.5382 2
46.6669 10.6548 2
47.7441 13.1071 2
51.63 19.3469 2
49.9966 17.7154 2
48.9277 15.4111 2
54.6402 33.9736 3.97649
53.3045 30.5325 3.97789
52.4481 27.2521 3.97492
52.0619 24.1449 3.97575
52.3544 21.0819 3.97701
41.0141 9.0502 3.98334
44.725 9.99638 3.98379
42.469 10.9046 3.984
46.005 12.7352 3.979
47.6788 14.5924 3.97615
48.105 16.9974 3.97541
49.805 19.6733 3.97735
49.592 61.7426 0.0181384
50.5633 59.323 0.0248521
55.4065 41.6759 0.0238685
54.0021 45.5218 0.0245124
53.2185 49.2962 0.0295545
52.1696 56.477 0.0299193
52.6144 52.8231 0.0347638
48.8469 60.198 2
52.2775 42.5985 2
49.7803 57.615 2
50.5574 54.409 2
51.6499 47.2295 2
51.1284 50.9156 2
47.9233 43.7626 2
47.9824 58.7353 3.97918
49.8667 45.2362 3.98062
48.5779 55.9063 3.97695
49.0721 52.5693 3.97314
49.5507 49.0133 3.97068
45.7075 39.8567 3.88575
46.1525 42.6232 3.92384
46.2911 45.7866 3.98821
43.5301 41.1259 3.81261
41.8853 42.0029 3.69257
47.3291 61.0053 0.0164459
46.6174 59.7915 2
45.4657 58.7874 3.98142
39.6328 67.7659 0.0154233
41.5465 65.6422 0.0174226
43.1469 63.7229 0.0181472
44.4842 61.8307 0.0180385
45.766 60.6259 0.0187212
41.6003 63.8161 2
37.5635 67.7485 2
39.6477 65.6103 2
44.6228 60.2881 2
42.9512 62.0789 2
41.7541 62.4892 3.98074
42.4803 59.9763 3.98193
39.8941 63.5495 3.98052
37.6423 65.5085 3.9821
35.4635 67.6569 3.98412
33.5752 65.3411 3.98176
31.9589 63.2987 3.98192
29.8828 64.7198 3.98334
31.6968 65.129 2
31.3768 67.1953 3.98439
33.3922 67.4859 2
33.1565 69.7525 3.9878
35.3335 69.9598 2
35.1947 72.3728 3.99211
37.5259 70.049 0.0119948
37.5096 72.4589 2
37.5 75 4
39.8179 72.404 0.00769713
39.9526 74.9197 2
42.3947 74.6792 0
39.6243 4.71591 3.98957
41.7366 4.96802 2
42.0627 2.71784 3.99326
43.852 5.35937 0.0109901
44.3265 3.10999 2
44.8158 0.721173 4
46.5712 3.64725 0.00722329
47.2057 1.27779 2
49.554 1.99015 0
57.8133 40.6371 0.0223249
59.6105 37.5646 0.0222484
54.8456 39.6899 0.0238282
49.3216 41.3098 2
56.6013 37.8853 2
52.8693 39.2955 2
53.7133 36.6302 3.97669
47.2294 40.3763 3.93246
50.244 38.5092 3.99372
37.5167 6.67414 3.98634
39.4428 6.80221 2
39.2115 8.69308 3.98406
35.9425 8.49346 3.98403
57.1997 34.7735 0.0224625
55.5635 31.5467 0.0219876
54.3486 28.446 0.021695
53.9442 20.157 0.0264537
53.5199 22.7464 0.0424651
53.676 25.5366 0.0264005
51.6299 19.347 0.020784
49.9976 17.7163 0.0231092
48.9287 15.4113 0.0239187
45.3604 7.99553 0.0138952
47.7445 13.1083 0.019269
46.6671 10.6567 0.0182312
41.3994 7.07919 0.0136378
42.8663 9.41731 0.0168204
54.638 33.9741 2
41.0138 9.04993 2
44.7244 9.99608 2
42.4684 10.9047 2
53.3013 30.5313 2
52.4535 27.2537 2
52.3553 21.0818 2
52.0636 24.1458 2
46.0045 12.7323 2
47.678 14.5911 2
49.8051 19.6721 2
48.1038 16.9967 2
52.1984 32.8898 3.98059
51.122 29.2092 3.97629
50.6655 25.7837 3.97141
49.9056 22.2562 3.97884
40.5701 11.6099 3.98065
43.8589 11.9191 3.97993
45.7988 15.4298 3.98127
47.4955 19.2865 3.9776
46.055 37.4838 3.8923
48.8472 60.1989 0.0201674
49.7809 57.6144 0.0249378
52.27 42.5978 0.0189552
51.6461 47.2295 0.0239745
51.1268 50.9164 0.0371802
50.5575 54.4078 0.0335462
47.9166 43.7458 0.00931962
47.9817 58.7359 2
49.8748 45.2417 2
48.5766 55.9079 2
49.0718 52.5724 2
49.5537 49.0136 2
45.737 39.8626 2
46.1746 42.6413 2
46.2909 45.7839 2
43.5544 41.1491 2
41.8973 42.0144 2
46.8301 57.3376 3.98276
44.2785 39.409 3.81378
42.2362 40.868 3.73947
47.9057 47.2023 3.97651
47.1356 54.2245 3.97416
47.5059 50.7226 3.96787
44.6538 47.3756 3.97994
44.8104 41.9371 3.87831
44.7639 44.5191 3.94012
42.3949 42.6384 3.82122
40.8003 42.3387 3.7268
46.6178 59.7909 0.0175299
45.4653 58.7879 2
43.8714 57.7098 3.98395
37.5634 67.7478 0.0157316
39.6478 65.6097 0.0183651
41.6004 63.816 0.0181534
42.9512 62.0782 0.0196932
44.6228 60.2876 0.0176421
35.4636 67.658 2
41.754 62.4896 2
39.8939 63.5499 2
37.6424 65.5091 2
42.4804 59.9769 2
40.6238 61.6456 3.98124
40.4424 58.2036 3.981
37.8371 63.2109 3.98018
35.5729 65.43 3.98167
33.5753 65.3416 2
31.9588 63.2994 2
33.6286 63.3376 3.98107
30.3778 62.8579 3.98233
32.1228 62.004 3.98271
26.8685 61.4999 3.98118
28.0616 64.1477 3.98291
29.8828 64.7205 2
29.4061 66.7593 3.98475
31.6967 65.1283 0.0175958
31.3768 67.196 2
31.0138 69.4175 3.98779
33.3922 67.4852 0.0159891
33.1565 69.7531 2
32.8917 72.1471 3.99219
35.3335 69.959 0.01198
35.1947 72.3733 2
35.0474 74.9194 4
37.5095 72.4585 0.00782755
37.5 75 2
39.9526 74.9197 0
35.6213 6.72526 3.98595
37.5237 4.61545 3.98961
39.6242 4.71528 2
39.7891 2.47431 3.99325
41.7366 4.96856 0.0107015
42.0628 2.7175 2
42.3946 0.32156 4
44.3264 3.1103 0.00686822
44.8159 0.72056 2
47.2057 1.27793 0
49.3037 41.3056 0.00986981
56.6027 37.8854 0.0224048
52.8674 39.3009 0.0158763
47.2476 40.3918 2
50.2561 38.5065 2
53.7206 36.6325 2
51.0341 35.5712 3.9782
47.8893 37.7463 3.94395
45.7076 35.1308 3.88686
43.5369 33.8593 3.80843
41.8944 32.9926 3.68868
37.4585 8.53499 3.98445
37.5166 6.67339 2
39.4428 6.80285 0.0136529
39.2114 8.69244 2
38.977 10.1276 3.98321
35.8993 9.77457 3.98247
34.1512 8.82313 3.98352
35.9422 8.49262 2
54.6402 33.9736 0.0235105
53.3045 30.5325 0.0221094
52.4481 27.2521 0.0250841
52.3544 21.0819 0.0229886
52.0619 24.1449 0.0242511
49.805 19.6733 0.0226525
48.105 16.9974 0.0245937
47.6788 14.5924 0.0238543
44.725 9.99638 0.0162129
46.005 12.7352 0.021001
41.0141 9.0502 0.0166569
42.469 10.9046 0.0159989
52.2034 32.89 2
40.5701 11.6106 2
43.8576 11.919 2
51.1356 29.2102 2
50.6696 25.7856 2
49.9056 22.2544 2
45.7975 15.4258 2
47.4948 19.2895 2
49.7355 31.4453 3.98262
49.1243 27.5557 3.97524
49.3216 24.4708 3.98595
47.1655 22.0312 3.97294
38.3032 12.7388 3.97922
42.102 14.3085 3.97838
44.7953 18.4839 3.97658
44.5899 37.4913 3.81861
46.103 37.4919 2
47.9824 58.7353 0.0208235
48.5779 55.9063 0.0230485
49.8667 45.2362 0.01938
49.5507 49.0133 0.0293152
49.0721 52.5693 0.0268593
45.7075 39.8567 0.114248
46.1525 42.6232 0.076162
46.2911 45.7866 0.0117873
43.5301 41.1259 0.187392
41.8853 42.0029 0.307427
46.8289 57.3382 2
44.3014 39.4263 2
42.225 40.871 2
47.9052 47.2058 2
47.134 54.2284 2
47.5067 50.7264 2
44.6594 47.3528 2
44.8332 41.9532 2
44.7777 44.5364 2
42.4332 42.6653 2
40.8009 42.3367 2
45.3829 55.929 3.99005
42.5563 39.2676 3.75093
40.6945 40.7785 3.82517
45.976 48.8874 3.98437
45.4863 52.5152 3.98038
43.336 48.3964 4.0002
43.2828 46.0677 3.92446
43.4923 43.7242 3.87587
40.989 43.7796 3.81459
39.2728 42.6724 3.7435
45.4657 58.7874 0.0185814
43.871 57.7102 2
42.0997 56.3304 3.98578
35.4635 67.6569 0.0158845
37.6423 65.5085 0.0178975
39.8941 63.5495 0.0194804
41.7541 62.4892 0.0192644
42.4803 59.9763 0.0180736
35.5731 65.4314 2
40.6236 61.6459 2
37.837 63.2111 2
40.4424 58.2044 2
38.9212 56.4949 3.98817
38.2506 60.3276 3.97993
35.6068 63.2033 3.97943
33.5752 65.3411 0.0182373
31.9589 63.2987 0.0180814
33.6285 63.3383 2
30.3778 62.8584 2
32.1229 62.0048 2
28.6806 62.2026 3.98189
33.3456 61.5154 3.98189
31.0663 61.2212 3.98162
27.5691 59.5948 3.98091
23.7941 59.0821 3.98052
25.0344 60.8726 3.98065
26.8687 61.5005 2
26.2284 63.4794 3.98263
28.0618 64.1483 2
27.4627 66.1833 3.98488
29.8828 64.7198 0.0166568
29.4062 66.7598 2
28.9061 68.9433 3.98772
31.3768 67.1953 0.0156111
31.0138 69.4182 2
30.614 71.778 3.99219
33.1565 69.7525 0.0121987
32.8915 72.1475 2
32.6054 74.6784 4
35.1947 72.3728 0.00788827
35.0474 74.9197 2
37.5 75 0
33.724 6.98005 3.98551
35.4354 4.68569 3.98943
35.6211 6.72461 2
37.5145 2.38689 3.99326
37.5236 4.61488 2
39.6243 4.71591 0.0104317
39.789 2.47394 2
39.9526 0.0806499 4
42.0627 2.71784 0.00673921
42.3947 0.320817 2
44.8158 0.721173 0
44.2944 35.5728 3.80864
42.247 34.1191 3.73525
47.2294 40.3763 0.0675435
50.244 38.5092 0.00628379
53.7133 36.6302 0.0233074
47.8998 37.7485 2
51.0464 35.5714 2
45.7321 35.115 2
43.564 33.8376 2
41.9059 32.9806 2
48.0617 34.3073 3.97115
44.8154 33.0446 3.87061
42.4083 32.3581 3.81852
40.8107 32.6602 3.72436
37.3114 10.6319 3.98167
37.4583 8.53393 2
37.5167 6.67414 0.0136642
39.2115 8.69308 0.0159413
38.9771 10.1268 2
34.7545 10.3811 3.98139
35.8991 9.77369 2
32.378 9.37043 3.98241
34.1507 8.82253 2
35.9425 8.49346 0.0159674
52.1984 32.8898 0.0194147
51.122 29.2092 0.0237113
50.6655 25.7837 0.0285881
49.9056 22.2562 0.0211636
47.4955 19.2865 0.0223989
45.7988 15.4298 0.0187311
43.8589 11.9191 0.0200667
40.5701 11.6099 0.0193483
49.7465 31.4429 2
38.3026 12.7373 2
42.1012 14.311 2
49.1297 27.5561 2
49.3238 24.4671 2
47.1626 22.0262 2
44.7947 18.4954 2
47.5736 29.5496 3.98746
47.0149 25.2183 3.98444
44.2753 21.4068 3.97539
36.5831 12.9358 3.97852
38.6826 14.813 3.9777
41.7476 17.857 3.97819
42.6744 37.4844 3.76209
44.6085 37.4912 2
46.055 37.4838 0.107697
46.8301 57.3376 0.0172438
47.1356 54.2245 0.025836
47.9057 47.2023 0.0234852
47.5059 50.7226 0.0321349
44.2785 39.409 0.186224
44.8104 41.9371 0.121688
44.7639 44.5191 0.059885
44.6538 47.3756 0.0200607
42.3949 42.6384 0.178783
42.2362 40.868 0.260531
40.8003 42.3387 0.273201
45.3815 55.9287 2
42.5459 39.2664 2
40.6815 40.7657 2
45.975 48.8936 2
45.4854 52.52 2
43.3383 48.4153 2
43.3119 46.0938 2
43.5177 43.7493 2
41.0167 43.8101 2
39.2633 42.6616 2
43.7173 54.4361 3.99651
40.7917 39.1589 3.85578
39.1387 40.8547 3.8474
43.6179 50.4534 4.00343
41.8965 47.6117 3.95893
41.8227 45.1469 3.8838
39.3403 44.4881 3.8236
37.5001 42.7766 3.76673
43.8714 57.7098 0.0160467
42.0993 56.3306 2
40.4097 54.9321 3.98597
35.5729 65.43 0.0183321
37.8371 63.2109 0.0198192
40.6238 61.6456 0.0187553
40.4424 58.2036 0.0189961
35.6068 63.2045 2
38.2505 60.3276 2
38.9214 56.4955 2
37.9987 55.2475 3.9948
36.9336 57.6249 3.98151
35.3634 60.9118 3.98028
33.6286 63.3376 0.0189272
30.3778 62.8579 0.0176666
32.1228 62.004 0.0172855
33.3457 61.5163 2
28.6807 62.2029 2
31.0665 61.2218 2
29.4032 60.2895 3.98041
32.3578 59.7475 3.98553
28.0266 58.3753 3.98733
27.5694 59.5954 2
25.3812 58.5941 3.97877
22.7612 58.2377 3.97185
23.4011 60.3515 3.97925
23.7943 59.0829 2
25.0347 60.8734 2
24.4313 62.7715 3.98236
26.8685 61.4999 0.0188204
26.2286 63.4801 2
25.5468 65.493 3.98447
28.0616 64.1477 0.0170944
27.4627 66.1838 2
26.8356 68.3317 3.98773
29.4061 66.7593 0.015248
28.9061 68.9437 2
28.3689 71.2632 3.99229
31.0138 69.4175 0.012208
30.6137 71.7784 2
30.1842 74.2788 4
32.8917 72.1471 0.00780988
32.6053 74.6792 2
35.0474 74.9194 0
31.7885 7.42022 3.98479
33.3476 4.92497 3.98905
33.7238 6.97943 2
35.2447 2.46296 3.99321
35.4352 4.68522 2
35.6213 6.72526 0.014053
37.5 0 4
37.5144 2.38656 2
37.5237 4.61545 0.0103873
39.7891 2.47431 0.00674634
39.9526 0.0802889 2
42.3946 0.32156 0
42.5593 35.7086 3.75374
44.3135 35.5574 2
40.7045 34.2163 3.82372
42.2349 34.1175 2
47.8893 37.7463 0.056052
51.0341 35.5712 0.0218046
45.7076 35.1308 0.113141
43.5369 33.8593 0.191571
41.8944 32.9926 0.311323
48.0781 34.2896 2
44.8389 33.0293 2
42.4396 32.3327 2
40.8112 32.6613 2
46.0865 31.5849 3.94483
43.4868 31.2729 3.87827
40.9946 31.2173 3.81478
39.2814 32.3338 3.74282
35.6933 11.7782 3.98004
37.3114 10.6305 2
37.4585 8.53499 0.0155548
38.977 10.1276 0.016789
33.0986 11.2189 3.97973
34.7543 10.3803 2
35.8993 9.77457 0.0175258
30.4827 10.0192 3.98163
32.3776 9.3701 2
34.1512 8.82313 0.0164754
49.7355 31.4453 0.0173847
49.1243 27.5557 0.0247613
49.3216 24.4708 0.0140496
47.1655 22.0312 0.02706
44.7953 18.4839 0.0234152
42.102 14.3085 0.0216154
38.3032 12.7388 0.0207772
36.5827 12.9348 2
47.5797 29.5321 2
38.6815 14.8117 2
41.7462 17.8637 2
47.0194 25.2144 2
44.2719 21.3889 2
45.4005 27.6749 4.00039
43.7503 24.1343 4.00423
41.3334 20.7785 3.97966
35.7733 14.765 3.97738
38.6824 17.6037 3.97848
40.8399 37.4791 3.8657
42.6698 37.4866 2
44.5899 37.4913 0.181391
45.3829 55.929 0.00995394
45.4863 52.5152 0.0196187
45.976 48.8874 0.0156289
42.5563 39.2676 0.24907
43.4923 43.7242 0.124131
43.2828 46.0677 0.0755389
43.336 48.3964 -0.000202545
40.989 43.7796 0.18541
40.6945 40.7785 0.174829
39.2728 42.6724 0.256496
43.7156 54.4352 2
40.7741 39.1512 2
39.1294 40.8385 2
43.6152 50.4686 2
41.888 47.6308 2
41.8453 45.1715 2
37.4999 42.7654 2
39.3572 44.5094 2
41.8593 53.0017 3.99384
39.153 39.1655 3.87984
37.4975 40.8916 3.86567
35.73 42.6767 3.74388
40.8631 49.6655 3.99938
39.8061 46.028 3.86511
37.4977 44.7106 3.81041
42.0997 56.3304 0.0142206
40.4094 54.9322 2
38.7251 53.8473 3.99392
35.6068 63.2033 0.020573
38.2506 60.3276 0.0200748
38.9212 56.4949 0.0118287
35.3635 60.9127 2
36.9339 57.6247 2
37.9989 55.2465 2
36.3213 55.3512 3.99144
34.4887 58.521 3.98551
33.3456 61.5154 0.0181072
28.6806 62.2026 0.0181143
31.0663 61.2212 0.0183767
32.3581 59.7483 2
29.4036 60.2897 2
30.3038 57.8201 3.98436
28.0269 58.376 2
26.9557 56.8266 3.97774
27.5691 59.5948 0.0190901
25.3814 58.5951 2
23.8501 56.7959 3.96946
21.3413 57.3918 3.97068
21.9954 59.6222 3.97795
22.7612 58.2394 2
22.7356 62.0223 3.98091
23.4012 60.3525 2
23.7941 59.0821 0.0194785
25.0344 60.8726 0.0193455
24.4315 62.7723 2
23.6808 64.7109 3.98412
26.2284 63.4794 0.0173654
25.5468 65.4937 2
24.8078 67.5929 3.98756
27.4627 66.1833 0.015118
26.8356 68.3323 2
26.1641 70.6039 3.99235
28.9061 68.9433 0.0122775
28.3687 71.2634 2
27.7943 73.7221 4
30.614 71.778 0.00781054
30.1841 74.2794 2
32.6054 74.6784 0
29.811 7.99393 3.98396
31.2528 5.33215 3.98832
31.7882 7.41965 2
32.9803 2.70119 3.99295
33.3473 4.92444 2
33.724 6.98005 0.0144895
35.0474 0.080333 4
35.2445 2.4627 2
35.4354 4.68569 0.0105658
37.5 0 2
37.5145 2.38689 0.00674262
39.9526 0.0806499 0
40.7934 35.8128 3.8571
42.5484 35.7111 2
44.2944 35.5728 0.191362
28.5434 10.6952 3.98087
39.1458 34.1502 3.84669
40.6895 34.2288 2
42.247 34.1191 0.264755
48.0617 34.3073 0.0288542
44.8154 33.0446 0.129394
42.4083 32.3581 0.18148
40.8107 32.6602 0.27564
46.1112 31.5748 2
43.5087 31.2512 2
41.0218 31.1886 2
39.2723 32.3445 2
44.293 29.7812 3.93546
41.8308 29.851 3.88436
39.3538 30.5135 3.8228
37.5111 32.2362 3.76584
34.0937 12.938 3.97852
35.6932 11.7771 2
37.3114 10.6319 0.0183265
31.1865 11.9881 3.97976
33.0986 11.2187 2
34.7545 10.3811 0.0186066
30.4823 10.0185 2
32.378 9.37043 0.0175875
47.5736 29.5496 0.0125412
47.0149 25.2183 0.0155556
36.5831 12.9358 0.0214797
44.2753 21.4068 0.0246143
41.7476 17.857 0.0218086
38.6826 14.813 0.0223043
35.7729 14.765 2
45.4053 27.6754 2
38.6804 17.6086 2
41.33 20.7627 2
43.7515 24.1194 2
33.6096 15.8839 3.97676
42.9634 26.5201 3.99651
40.889 23.3433 4.00924
38.4164 20.3818 3.97663
35.8505 17.5206 3.97816
39.1663 37.4843 3.89533
40.8207 37.4763 2
42.6744 37.4844 0.237912
43.7173 54.4361 0.0034878
43.6179 50.4534 -0.00342778
40.7917 39.1589 0.144221
41.8227 45.1469 0.116195
41.8965 47.6117 0.0410669
39.3403 44.4881 0.176402
39.1387 40.8547 0.152603
37.5001 42.7766 0.233273
41.8595 52.9995 2
39.1403 39.1574 2
37.4975 40.877 2
40.8784 49.6804 2
35.7367 42.6659 2
39.8301 46.0592 2
37.4947 44.7309 2
39.799 51.8877 3.99816
37.4965 39.1827 3.89842
35.8554 40.8687 3.84643
34.1988 42.342 3.72543
35.6508 44.4986 3.82073
38.6722 48.6754 3.97591
37.5002 46.3337 3.87232
40.4097 54.9321 0.0140341
38.7253 53.8413 2
36.7375 53.1739 4.00025
35.3634 60.9118 0.0197195
36.9336 57.6249 0.0184915
37.9987 55.2475 0.00519823
34.4892 58.522 2
36.3223 55.3576 2
33.2386 55.5054 3.99333
32.3578 59.7475 0.0144717
29.4032 60.2895 0.0195902
30.3044 57.8204 2
28.7098 55.3153 3.97867
28.0266 58.3753 0.0126667
26.9554 56.8274 2
25.3322 55.1342 3.97366
21.8279 55.3376 3.9648
25.3812 58.5941 0.0212253
23.8498 56.798 2
20.2276 57.0201 3.97664
20.6485 58.7762 3.97514
21.3411 57.3936 2
21.1667 61.171 3.97932
21.9955 59.6233 2
22.7612 58.2377 0.0281517
21.8943 63.8385 3.98327
22.7358 62.0233 2
23.4011 60.3515 0.0207491
24.4313 62.7715 0.0176377
23.6809 64.7116 2
22.836 66.7363 3.98721
25.5468 65.493 0.0155347
24.8078 67.5936 2
24.0083 69.8051 3.99242
26.8356 68.3317 0.0122714
26.1638 70.6042 2
25.446 73.0099 4
28.3689 71.2632 0.00770907
27.7943 73.7222 2
30.1842 74.2788 0
27.8209 8.65391 3.9835
29.1549 5.87801 3.98758
29.8107 7.99314 2
30.7255 3.09838 3.99264
31.2526 5.33163 2
31.7885 7.42022 0.0152132
32.6053 0.320823 4
32.9801 2.7009 2
33.3476 4.92497 0.0109526
35.0474 0.0802903 2
35.2447 2.46296 0.00678632
37.5 0 0
39.1614 35.8152 3.8784
40.7752 35.8209 2
42.5593 35.7086 0.246265
28.5432 10.6947 2
26.622 11.3909 3.9811
29.2254 12.6455 3.9804
37.5028 34.1214 3.86418
39.1348 34.1671 2
40.7045 34.2163 0.176275
46.0865 31.5849 0.0551651
43.4868 31.2729 0.12173
40.9946 31.2173 0.18522
39.2814 32.3338 0.257181
44.3116 29.7658 2
41.8476 29.8352 2
39.3711 30.4864 2
37.5111 32.2471 2
42.3022 28.431 3.91452
39.8402 28.9668 3.88434
37.5174 30.2944 3.81085
35.7433 32.3324 3.74296
31.9157 14.4854 3.97842
34.0938 12.9379 2
35.6933 11.7782 0.019959
31.1867 11.9875 2
33.0986 11.2189 0.0202733
30.4827 10.0192 0.0183703
45.4005 27.6749 -0.000389821
43.7503 24.1343 -0.00422604
35.7733 14.765 0.0226249
41.3334 20.7785 0.0203407
38.6824 17.6037 0.0215238
33.6083 15.8839 2
35.8482 17.5204 2
42.9717 26.5173 2
38.4165 20.3806 2
40.886 23.3292 2
33.5529 17.3956 3.97828
40.3564 25.6875 3.99886
38.0681 22.9578 3.99654
35.5822 20.099 3.97925
37.4965 37.496 3.91615
39.1506 37.4854 2
40.8399 37.4791 0.134304
41.8593 53.0017 0.00616337
40.8631 49.6655 0.000615992
39.153 39.1655 0.120155
39.8061 46.028 0.134888
37.4977 44.7106 0.189594
37.4975 40.8916 0.134327
35.73 42.6767 0.256123
39.804 51.8879 2
37.4965 39.1728 2
35.8669 40.8517 2
38.6771 48.7104 2
34.1969 42.3412 2
35.634 44.5238 2
37.4973 46.3613 2
37.6429 50.9604 4.00902
35.8412 39.1835 3.87945
34.3023 40.7925 3.82391
33.1075 42.0082 3.6912
34.0003 43.7751 3.81383
35.1625 46.0155 3.87722
36.8744 48.313 3.94306
38.7251 53.8473 0.00607725
36.7368 53.182 2
34.3799 52.459 3.99682
34.4887 58.521 0.014487
36.3213 55.3512 0.00856435
33.2387 55.5068 2
30.5408 53.356 3.97754
30.3038 57.8201 0.0156441
28.7095 55.3174 2
26.9151 53.4269 3.9726
26.9557 56.8266 0.0222646
25.3318 55.1376 2
23.6101 53.4687 3.96447
20.5052 53.2083 3.96132
19.9465 55.8228 3.96975
21.8268 55.3392 2
23.8501 56.7959 0.0305405
19.4435 57.8816 3.97377
20.2271 57.0217 2
19.7079 60.2016 3.97691
20.6484 58.7771 2
21.3413 57.3918 0.0293247
20.207 62.859 3.98124
21.1668 61.1722 2
21.9954 59.6222 0.0220484
20.9374 65.765 3.98673
21.8944 63.8394 2
22.7356 62.0223 0.0190865
23.6808 64.7109 0.0158756
22.8361 66.7369 2
21.9108 68.872 3.99223
24.8078 67.5929 0.012441
24.0079 69.8053 2
23.1494 72.1454 4
26.1641 70.6039 0.00764928
25.446 73.0099 2
27.7943 73.7221 0
25.86 9.38254 3.98291
27.0696 6.54223 3.98675
27.8205 8.65335 2
28.4876 3.64438 3.99229
29.1545 5.8774 2
29.811 7.99393 0.0160412
30.1841 0.720592 4
30.7252 3.09812 2
31.2528 5.33215 0.0116837
32.6053 0.320817 2
32.9803 2.70119 0.0070511
35.0474 0.080333 0
37.4987 35.8163 3.89832
39.1471 35.8235 2
40.7934 35.8128 0.1429
24.7768 12.0745 3.98135
23.7518 14.3619 3.9804
28.5434 10.6952 0.0191251
26.622 11.3905 2
29.2256 12.6449 2
27.2916 13.3783 3.98085
29.7812 14.2063 3.98025
35.8641 34.1457 3.84601
37.5027 34.1356 2
39.1458 34.1502 0.153306
37.5111 32.2362 0.234161
44.293 29.7812 0.0645439
41.8308 29.851 0.115642
39.3538 30.5135 0.177204
42.3293 28.4038 2
39.8519 28.9353 2
37.5198 30.2806 2
35.7498 32.3445 2
40.0289 27.6016 3.91218
37.5234 28.6699 3.87756
35.6749 30.5201 3.82466
34.2169 32.6654 3.72506
30.9278 16.8454 3.97781
31.9156 14.4851 2
34.0937 12.938 0.0214793
31.1865 11.9881 0.0202409
42.9634 26.5201 0.00348598
40.889 23.3433 -0.00923754
33.6096 15.8839 0.023236
35.8505 17.5206 0.0218446
38.4164 20.3818 0.0233694
33.5508 17.3991 2
35.5842 20.1039 2
40.3594 25.6728 2
38.0633 22.9404 2
32.8638 19.8047 3.98148
37.793 25.2683 4.00572
35.1944 22.6996 3.99025
35.8302 37.5016 3.89544
37.4948 37.4955 2
39.1663 37.4843 0.104671
39.799 51.8877 0.00184485
38.6722 48.6754 0.0240938
37.4965 39.1827 0.101579
37.5002 46.3337 0.12768
35.6508 44.4986 0.179273
35.8554 40.8687 0.153573
34.1988 42.342 0.274573
37.6451 50.9783 2
35.8547 39.1741 2
34.316 40.7812 2
36.8722 48.3414 2
33.0948 42.0206 2
33.9756 43.8034 2
35.1463 46.0428 2
35.4967 50.1037 3.99624
34.2118 39.1825 3.85816
32.7488 40.8798 3.73771
32.5981 42.6439 3.8211
33.1743 45.1438 3.88189
34.2979 47.3892 3.9191
36.7375 53.1739 -0.000249816
34.3785 52.4662 2
32.0451 51.1656 4.00122
33.2386 55.5054 0.00667329
30.5403 53.361 2
28.4676 51.5715 3.97746
28.7098 55.3153 0.0213317
26.9144 53.4299 2
25.1285 51.7283 3.96047
25.3322 55.1342 0.0263433
23.6092 53.4709 2
22.0229 51.787 3.95763
19.2582 51.6198 3.96426
18.9464 54.2975 3.96127
20.5041 53.2078 2
18.4561 56.7137 3.97283
19.9458 55.8243 2
21.8279 55.3376 0.0352048
18.3715 59.1031 3.97323
19.443 57.8826 2
20.2276 57.0201 0.0233571
18.6189 61.7637 3.97741
19.708 60.2031 2
20.6485 58.7762 0.0248619
19.1264 64.6754 3.98563
20.207 62.8601 2
21.1667 61.171 0.0206764
19.885 67.8086 3.99213
20.9375 65.7659 2
21.8943 63.8385 0.0167291
22.836 66.7363 0.0127911
21.9104 68.8721 2
20.9142 71.1327 4
24.0083 69.8051 0.00758239
23.1494 72.1455 2
25.446 73.0099 0
23.0962 12.7898 3.98095
23.9725 10.1697 3.98253
25.0233 7.31277 3.98603
25.8598 9.3821 2
26.2793 4.32869 3.99187
27.0692 6.54178 2
27.8209 8.65391 0.0164961
27.7943 1.27781 4
28.4872 3.64414 2
29.1549 5.87801 0.0124234
30.1841 0.720551 2
30.7255 3.09838 0.00735591
32.6053 0.320823 0
35.841 35.8217 3.8791
37.4972 35.8265 2
39.1614 35.8152 0.121603
24.7769 12.0743 2
23.7525 14.3619 2
22.4808 15.0391 3.98008
25.3578 13.9106 3.98027
24.0261 15.6253 3.98001
26.622 11.3909 0.018903
29.2254 12.6455 0.0195986
27.292 13.378 2
29.7812 14.206 2
28.3579 15.9814 3.98011
34.3121 34.2214 3.82301
35.8738 34.1635 2
37.5028 34.1214 0.13582
35.7433 32.3324 0.257037
37.5174 30.2944 0.189153
42.3022 28.431 0.0854848
39.8402 28.9668 0.115665
40.0376 27.5782 2
37.5222 28.6446 2
35.6527 30.4921 2
34.2104 32.6668 2
37.6031 27.3051 3.92733
35.1891 28.9786 3.88402
34.0224 31.2316 3.81446
33.1327 32.9984 3.69159
30.2106 19.3525 3.98299
30.9271 16.8458 2
31.9157 14.4854 0.0215774
40.3564 25.6875 0.0011447
38.0681 22.9578 0.00345545
33.5529 17.3956 0.0217169
35.5822 20.099 0.0207489
32.8643 19.8099 2
35.1927 22.693 2
37.7819 25.2491 2
32.3109 22.446 3.99425
35.0032 25.2456 4.00355
34.1576 37.5047 3.86678
35.8443 37.5013 2
37.4965 37.496 0.0838545
37.6429 50.9604 -0.0090206
36.8744 48.313 0.05694
35.8412 39.1835 0.120549
35.1625 46.0155 0.122777
34.0003 43.7751 0.18617
34.3023 40.7925 0.176087
33.1075 42.0082 0.308804
35.4911 50.1219 2
34.2352 39.1709 2
32.7591 40.8826 2
34.286 47.4246 2
32.5659 42.6681 2
33.1573 45.1665 2
33.2965 49.0987 3.99597
32.4322 39.286 3.75607
31.4517 41.1358 3.81161
31.5093 43.7272 3.8782
32.3199 46.3153 3.91773
34.3799 52.459 0.00318493
32.0432 51.1741 2
29.9237 49.6863 3.98918
30.5408 53.356 0.0224552
28.4661 51.5706 2
26.5742 49.9598 3.97115
26.9151 53.4269 0.0273991
25.127 51.7263 2
23.4148 50.1697 3.96641
23.6101 53.4687 0.0355329
22.0219 51.7863 2
20.536 50.2965 3.96591
18.0517 50.3154 3.96818
17.8787 52.7787 3.96288
19.2566 51.6193 2
17.4518 55.3298 3.96465
18.9449 54.2971 2
20.5052 53.2083 0.0386832
17.1403 57.8651 3.97198
18.4553 56.7145 2
19.9465 55.8228 0.0302497
17.1378 60.5435 3.97536
18.3714 59.1041 2
19.4435 57.8816 0.026228
17.4073 63.4668 3.98264
18.6189 61.7651 2
19.7079 60.2016 0.0230909
17.9414 66.6172 3.99192
19.1263 64.6765 2
20.207 62.859 0.0187559
18.75 69.9759 4
19.8845 67.8087 2
20.9374 65.765 0.0132693
21.9108 68.872 0.00777323
20.9142 71.1327 2
23.1494 72.1454 0
21.5873 13.6106 3.98043
22.1905 11.0295 3.98195
23.0966 12.7899 2
23.0411 8.17861 3.98549
23.9724 10.1694 2
24.1169 5.14355 3.9915
25.0229 7.3123 2
25.86 9.38254 0.0170903
25.446 1.99014 4
26.2787 4.32858 2
27.0696 6.54223 0.0132456
27.7943 1.27778 2
28.4876 3.64438 0.00771036
30.1841 0.720592 0
34.2064 35.8277 3.85499
35.8527 35.8313 2
37.4987 35.8163 0.101682
21.3068 15.8353 3.98075
24.7768 12.0745 0.0186489
23.7518 14.3619 0.0195959
25.3584 13.9105 2
22.4817 15.0392 2
24.0269 15.6256 2
23.266 16.2576 3.97866
25.3817 16.0941 3.98011
27.2916 13.3783 0.0191503
29.7812 14.2063 0.0197505
28.3581 15.9819 2
27.4427 18.8069 3.98222
32.7692 34.1277 3.73557
34.3305 34.2341 2
35.8641 34.1457 0.153989
34.2169 32.6654 0.274944
35.6749 30.5201 0.175339
37.5234 28.6699 0.122437
40.0289 27.6016 0.0878202
37.604 27.274 2
33.1179 32.9878 2
35.1814 28.9461 2
33.9866 31.1949 2
35.082 27.4358 3.92821
33.1903 29.8641 3.87822
32.6197 32.3561 3.80883
29.5874 21.9481 3.99596
30.2117 19.3557 2
30.9278 16.8454 0.0221881
37.793 25.2683 -0.00571525
35.1944 22.6996 0.00974868
32.8638 19.8047 0.0185231
32.3103 22.4436 2
35.0187 25.238 2
31.7596 25.6671 4.0074
32.3114 37.507 3.76435
34.1824 37.5075 2
35.8302 37.5016 0.10456
35.4967 50.1037 0.00376419
34.2979 47.3892 0.0808967
34.2118 39.1825 0.141843
33.1743 45.1438 0.118107
32.5981 42.6439 0.178896
32.7488 40.8798 0.262289
33.2915 49.0922 2
32.4473 39.2843 2
31.4284 41.1561 2
32.2891 46.3416 2
31.4827 43.7522 2
31.2331 47.9339 3.99033
30.7006 39.4221 3.81037
30.1789 41.9513 3.87111
30.5322 44.9072 3.93661
32.0451 51.1656 -0.00121897
29.9209 49.685 2
27.9734 48.1492 3.96729
28.4676 51.5715 0.0225407
26.5728 49.9583 2
24.7482 48.4398 3.97257
25.1285 51.7283 0.0395286
23.4139 50.1682 2
21.7648 48.7639 3.96953
22.0229 51.787 0.0423678
20.5344 50.2956 2
19.1207 49.0739 3.97205
16.957 49.3176 3.97227
16.8206 51.3945 3.96633
18.0527 50.3146 2
16.4097 53.8611 3.96469
17.876 52.7786 2
19.2582 51.6198 0.0357418
15.9858 56.4656 3.96714
17.4513 55.33 2
18.9464 54.2975 0.0387265
15.7529 59.2041 3.97332
17.1399 57.8662 2
18.4561 56.7137 0.0271651
15.7889 62.1349 3.97849
17.1379 60.5452 2
18.3715 59.1031 0.0267746
16.0884 65.2999 3.99096
17.4071 63.4681 2
18.6189 61.7637 0.0225892
16.6661 68.6801 4
17.9407 66.6171 2
19.1264 64.6754 0.0143725
18.75 69.9759 2
19.885 67.8086 0.0078665
20.9142 71.1327 0
20.2199 14.6002 3.97951
21.5879 13.6107 2
20.5298 11.9999 3.98129
21.1439 9.14869 3.98506
22.1906 11.0294 2
23.0962 12.7898 0.019049
22.016 6.08265 3.99121
23.0408 8.17817 2
23.9725 10.1697 0.0174705
23.1494 2.85457 4
24.1162 5.14352 2
25.0233 7.31277 0.013969
25.446 1.99012 2
26.2793 4.32869 0.00813061
27.7943 1.27781 0
32.436 35.7236 3.74904
34.2252 35.8399 2
35.841 35.8217 0.120896
21.3077 15.8352 2
20.3054 16.9683 3.98195
22.0993 16.6418 3.97857
25.3578 13.9106 0.0197287
22.4808 15.0391 0.0199214
24.0261 15.6253 0.0199891
25.3824 16.0944 2
23.2669 16.2578 2
24.2074 18.4612 3.97636
27.0275 21.4698 3.99131
28.3579 15.9814 0.0198908
27.4447 18.8074 2
31.4795 33.8765 3.81177
32.7828 34.1247 2
34.3121 34.2214 0.176987
33.1327 32.9984 0.308414
34.0224 31.2316 0.185545
35.1891 28.9786 0.115985
37.6031 27.3051 0.0726674
35.0612 27.3969 2
32.5589 32.3309 2
33.1733 29.8422 2
32.6193 28.1517 3.93914
31.5198 31.2848 3.87962
28.8627 24.4252 3.98078
29.5849 21.9538 2
30.2106 19.3525 0.0170148
35.0032 25.2456 -0.00354888
32.3109 22.446 0.00575171
31.7613 25.6492 2
29.7368 27.3397 3.96208
30.389 37.4987 3.81775
32.3232 37.5041 2
34.1576 37.5047 0.133218
33.2965 49.0987 0.00403467
32.3199 46.3153 0.0822675
32.4322 39.286 0.243927
31.5093 43.7272 0.121796
31.4517 41.1358 0.18839
31.2314 47.9367 2
30.6753 39.4393 2
30.1559 41.9671 2
30.523 44.9228 2
29.3156 46.5353 4.00075
29.2749 39.8549 3.88628
28.8916 43.1329 3.9375
29.9237 49.6863 0.0108191
27.9712 48.1454 2
26.0823 46.6206 3.97589
26.5742 49.9598 0.0288525
24.7476 48.438 2
22.9451 47.0454 3.97403
23.4148 50.1697 0.0335924
21.7643 48.7626 2
20.0944 47.5961 3.97705
20.536 50.2965 0.0340871
19.1218 49.0729 2
17.7485 48.1628 3.97594
16.1995 48.6707 3.97512
16.9582 49.3168 2
15.8959 50.1583 3.96955
15.4056 52.4063 3.9661
16.8203 51.3941 2
18.0517 50.3154 0.0318194
14.8797 54.9691 3.96674
16.4091 53.8611 2
17.8787 52.7787 0.0371232
14.4647 57.7321 3.96976
15.9856 56.4661 2
17.4518 55.3298 0.0353489
14.2676 60.6884 3.97707
15.753 59.2056 2
17.1403 57.8651 0.0280217
14.3334 63.8586 3.98839
15.7887 62.1362 2
17.1378 60.5435 0.0246415
14.6715 67.2507 4
16.0875 65.2995 2
17.4073 63.4668 0.0173604
16.6661 68.6801 2
17.9414 66.6172 0.00807917
18.75 69.9759 0
18.9343 15.7869 3.97991
20.2205 14.6002 2
18.9798 13.1112 3.98027
21.5873 13.6106 0.0195669
20.5302 11.9999 2
19.3431 10.2368 3.98454
19.9906 7.1473 3.99105
21.1438 9.14846 2
22.1905 11.0295 0.0180524
20.9142 3.86727 4
22.0151 6.08282 2
23.0411 8.17861 0.0145141
23.1494 2.85451 2
24.1169 5.14355 0.00850152
25.446 1.99014 0
30.7196 35.5942 3.81364
32.4497 35.7239 2
34.2064 35.8277 0.145012
21.3068 15.8353 0.0192546
22.1003 16.6419 2
20.3064 16.9676 2
19.2506 18.4162 3.97726
21.7849 17.8588 3.98009
25.3817 16.0941 0.0198946
23.266 16.2576 0.0213359
24.2089 18.4615 2
22.2909 19.9056 3.9731
24.6092 21.3392 3.98787
26.4716 23.7359 3.9695
27.028 21.4694 2
27.4427 18.8069 0.0177805
30.2099 33.0622 3.8806
31.4596 33.8417 2
32.7692 34.1277 0.26443
32.6197 32.3561 0.19117
33.1903 29.8641 0.121783
35.082 27.4358 0.0717922
32.601 28.1352 2
31.4905 31.2552 2
30.2329 29.5875 3.95481
27.979 26.5619 3.98231
28.8595 24.4375 2
29.5874 21.9481 0.00403759
31.7596 25.6671 -0.00740219
29.7348 27.3094 2
28.9234 37.5111 3.8928
30.378 37.4997 2
32.3114 37.507 0.235654
31.2331 47.9339 0.009665
30.5322 44.9072 0.0633925
30.7006 39.4221 0.189628
30.1789 41.9513 0.128894
29.3145 46.5493 2
29.2493 39.8733 2
28.8646 43.1524 2
27.4678 44.8307 3.97854
27.0483 40.5846 3.96159
27.9734 48.1492 0.0327054
26.0784 46.6232 2
24.1808 45.1731 3.97613
24.7482 48.4398 0.0274345
22.9454 47.0438 2
21.0666 45.8667 3.97854
21.7648 48.7639 0.0304718
20.0951 47.595 2
18.4242 46.7188 3.97808
19.1207 49.0739 0.0279517
17.7493 48.162 2
16.4026 47.7003 3.97627
16.2004 48.6702 2
15.2403 49.0045 3.97271
16.957 49.3176 0.027731
15.897 50.1577 2
14.5189 50.9762 3.96797
13.8404 53.4285 3.9668
15.4062 52.4061 2
16.8206 51.3945 0.0336668
13.2617 56.1605 3.96802
14.8799 54.9691 2
16.4097 53.8611 0.0353139
12.8512 59.1216 3.97519
14.4649 57.733 2
15.9858 56.4656 0.0328637
12.6793 62.3008 3.98585
14.2675 60.6893 2
15.7529 59.2041 0.0266764
12.7746 65.6939 4
14.332 63.8577 2
15.7889 62.1349 0.0215065
14.6714 67.2507 2
16.0884 65.2999 0.0090394
16.6661 68.6801 0
17.6713 17.1629 3.97627
18.935 15.7867 2
17.5117 14.3759 3.97932
20.2199 14.6002 0.02049
18.9803 13.111 2
17.6386 11.4561 3.98349
20.5298 11.9999 0.0187121
19.3432 10.2366 2
18.0508 8.34007 3.99092
18.75 5.0241 4
19.9897 7.14779 2
21.1439 9.14869 0.014937
20.9142 3.86727 2
22.016 6.08265 0.00879476
23.1494 2.85457 0
29.295 35.1391 3.88926
30.6902 35.572 2
32.436 35.7236 0.250955
22.0993 16.6418 0.021431
20.3054 16.9683 0.0180547
21.7861 17.8586 2
19.2516 18.4152 2
17.9964 19.9496 3.97293
20.8871 19.3893 3.97693
24.2074 18.4612 0.0236448
22.2918 19.9052 2
24.6097 21.3396 2
22.384 21.734 3.97753
24.7415 23.1806 3.97364
25.5635 25.9637 3.97344
26.4735 23.7359 2
27.0275 21.4698 0.00868676
28.5894 32.3647 3.93781
30.1833 33.0457 2
31.4795 33.8765 0.188234
31.5198 31.2848 0.120381
32.6193 28.1517 0.060862
30.2256 29.5865 2
27.1701 29.1477 4.00506
27.9748 26.5707 2
28.8627 24.4252 0.0192246
29.7368 27.3397 0.0379199
27.167 37.3655 3.94107
28.8821 37.5053 2
30.389 37.4987 0.182249
29.3156 46.5353 -0.000754891
28.8916 43.1329 0.0625043
29.2749 39.8549 0.11372
27.4625 44.8502 2
27.0319 40.5997 2
25.4872 43.1441 3.98553
24.302 39.4473 3.97741
26.0823 46.6206 0.0241141
24.1754 45.172 2
22.0711 43.9193 3.97858
22.9451 47.0454 0.0259734
21.0656 45.8655 2
19.1141 44.9493 3.97832
20.0944 47.5961 0.0229514
18.4252 46.7179 2
16.7113 46.1988 3.9769
17.7485 48.1628 0.0240582
16.4034 47.6997 2
14.9828 47.6593 3.97432
16.1995 48.6707 0.0248838
15.2414 49.004 2
13.8169 49.5382 3.96966
15.8959 50.1583 0.0304494
14.5197 50.9759 2
12.909 51.8691 3.96736
12.1487 54.5221 3.96874
13.8406 53.4285 2
15.4056 52.4063 0.033896
11.5372 57.4539 3.97298
13.262 56.1607 2
14.8797 54.9691 0.0332577
11.1341 60.6266 3.98368
12.8513 59.122 2
14.4647 57.7321 0.0302406
10.9835 64.0165 4
12.6778 62.299 2
14.2676 60.6884 0.0229295
12.7745 65.694 2
14.3334 63.8586 0.0116071
14.6715 67.2507 0
16.4092 18.6596 3.97177
17.6718 17.1622 2
16.1035 15.7855 3.97819
18.9343 15.7869 0.020085
17.5122 14.3753 2
16.0204 12.8101 3.98165
18.9798 13.1112 0.0197277
17.6389 11.4557 2
16.202 9.66302 3.99061
19.3431 10.2368 0.0154634
18.0498 8.34084 2
16.6661 6.31991 4
18.75 5.02404 2
19.9906 7.1473 0.00895357
20.9142 3.86727 0
27.6922 34.79 3.9347
29.269 35.1161 2
30.7196 35.5942 0.186357
16.7082 21.3873 3.96173
21.7849 17.8588 0.0199106
19.2506 18.4162 0.0227425
20.888 19.3886 2
17.9973 19.9483 2
19.7507 21.5863 3.9747
22.2909 19.9056 0.0269025
24.6092 21.3392 0.0121265
22.3846 21.7338 2
24.7424 23.1804 2
22.916 24.6151 3.97131
24.7112 28.5428 3.97747
25.5617 25.963 2
26.4716 23.7359 0.0304966
26.4337 31.7266 3.98584
28.561 32.3456 2
30.2099 33.0622 0.119403
30.2329 29.5875 0.045189
27.1896 29.1358 2
27.979 26.5619 0.0176925
24.9947 36.8599 3.98608
27.144 37.3592 2
28.9234 37.5111 0.107205
27.4678 44.8307 0.0214571
27.0483 40.5846 0.0384073
25.4734 43.1524 2
24.2871 39.4458 2
23.197 41.8068 3.98015
22.0205 38.5158 3.97776
24.1808 45.1731 0.0238728
22.0692 43.9196 2
19.9193 42.8756 3.97752
21.0666 45.8667 0.0214585
19.1137 44.9489 2
17.0709 44.3654 3.97703
18.4242 46.7188 0.0219157
16.7123 46.1982 2
14.9194 46.0801 3.97489
16.4026 47.7003 0.0237274
14.9837 47.6589 2
13.3298 48.0011 3.97098
15.2403 49.0045 0.0272865
13.8177 49.5379 2
12.1276 50.2486 3.96792
14.5189 50.9762 0.0320274
12.9093 51.869 2
11.1435 52.8334 3.9688
10.3279 55.7079 3.973
12.1492 54.5221 2
13.8404 53.4285 0.0332046
9.70111 58.8486 3.98152
11.5375 57.4539 2
13.2617 56.1605 0.0319837
9.30605 62.2254 4
11.1326 60.6241 2
12.8512 59.1216 0.0248093
10.9835 64.0165 2
12.6793 62.3008 0.0141501
12.7746 65.6939 0
15.1611 20.1959 3.96562
16.4098 18.6588 2
14.7519 17.3099 3.97342
17.6713 17.1629 0.0237285
16.104 15.7844 2
14.4833 14.2928 3.98002
17.5117 14.3759 0.0206826
16.0207 12.8094 2
14.4448 11.1142 3.98981
17.6386 11.4561 0.0165062
16.201 9.66402 2
14.6715 7.74927 4
18.0508 8.34007 0.0090836
16.6661 6.31988 2
18.75 5.0241 0
25.6496 34.2735 3.99116
27.6715 34.7846 2
29.295 35.1391 0.110737
17.8932 22.3378 3.97161
15.5487 22.928 3.9672
16.7089 21.3867 2
20.8871 19.3893 0.0230742
17.9964 19.9496 0.0270736
19.7513 21.5856 2
19.7372 24.3953 3.96933
22.384 21.734 0.0224662
24.7415 23.1806 0.0263625
22.9161 24.6151 2
22.0794 27.8438 3.97172
23.9912 31.2097 3.97587
24.7244 28.5444 2
25.5635 25.9637 0.0265577
26.4215 31.7057 2
28.5894 32.3647 0.062189
27.1701 29.1477 -0.00506393
22.7462 36.2862 3.98191
24.973 36.8553 2
27.167 37.3655 0.0589289
25.4872 43.1441 0.0144696
24.302 39.4473 0.022594
23.1893 41.8052 2
22.0128 38.5141 2
20.9314 40.64 3.9762
20.3342 37.7996 3.97733
22.0711 43.9193 0.0214205
19.9185 42.8754 2
17.5194 42.0857 3.97714
19.1141 44.9493 0.0216758
17.072 44.3649 2
14.9459 44.1911 3.97532
16.7113 46.1988 0.0231024
14.9202 46.0798 2
13.0131 46.2884 3.97156
14.9828 47.6593 0.0256848
13.3304 48.0009 2
11.5006 48.546 3.96822
13.8169 49.5382 0.0303378
12.128 50.2485 2
10.2689 51.0783 3.96862
12.909 51.8691 0.0326372
11.144 52.8333 2
9.23643 53.8879 3.97307
8.38465 56.9815 3.98151
10.3283 55.7075 2
12.1487 54.5221 0.0312595
7.74927 60.3285 4
9.69991 58.8454 2
11.5372 57.4539 0.0270191
9.306 62.2255 2
11.1341 60.6266 0.0163165
10.9835 64.0165 0
13.9729 21.7592 3.96709
15.1619 20.1953 2
13.457 18.91 3.96833
16.4092 18.6596 0.0282268
14.7525 17.3086 2
13.0296 15.8867 3.97803
16.1035 15.7855 0.0218121
14.4834 14.2917 2
12.7824 12.6878 3.98824
16.0204 12.8101 0.0183482
14.4438 11.1154 2
12.7746 9.30605 4
16.202 9.66302 0.00938789
14.6715 7.74924 2
16.6661 6.31991 0
23.3251 33.8182 3.98244
25.6301 34.2672 2
27.6922 34.79 0.0653003
17.684 24.0555 3.97107
17.8938 22.3374 2
14.353 24.4595 3.9697
15.5494 22.9277 2
16.7082 21.3873 0.0382653
19.1752 27.2211 3.97099
19.7507 21.5863 0.025302
19.737 24.395 2
21.3798 30.6844 3.97397
22.916 24.6151 0.028694
22.0876 27.8449 2
23.9771 31.2096 2
24.7112 28.5428 0.0225257
26.4337 31.7266 0.0141562
20.455 35.9416 3.97719
22.7421 36.2801 2
24.9947 36.8599 0.0139234
23.197 41.8068 0.0198454
22.0205 38.5158 0.0222378
20.936 40.6402 2
20.3374 37.799 2
18.2616 39.0052 3.97756
19.9193 42.8756 0.0224787
17.5213 42.0851 2
14.9204 41.9117 3.97629
17.0709 44.3654 0.0229721
14.9472 44.1908 2
12.7678 44.3853 3.97191
14.9194 46.0801 0.0251052
13.0138 46.2882 2
11.0055 46.73 3.96847
13.3298 48.0011 0.029018
11.501 48.5459 2
9.53187 49.2387 3.96831
12.1276 50.2486 0.0320802
10.2693 51.0781 2
8.26927 52.0017 3.97259
11.1435 52.8334 0.0312029
9.23688 53.8873 2
7.19352 55.0323 3.98247
6.31991 58.3339 4
8.38381 56.9783 2
10.3279 55.7079 0.0270027
7.74924 60.3285 2
9.70111 58.8486 0.0184757
9.30605 62.2254 0
13.2578 25.3693 3.97157
12.8424 23.2865 3.96717
13.9739 21.759 2
12.2441 20.5573 3.96878
15.1611 20.1959 0.0343776
13.4579 18.9091 2
11.6616 17.5692 3.97421
14.7519 17.3099 0.0265804
13.0299 15.8856 2
11.22 14.3732 3.98582
14.4833 14.2928 0.0199766
12.7811 12.6892 2
10.9835 10.9835 4
14.4448 11.1142 0.0101876
12.7745 9.306 2
14.6715 7.74927 0
20.8134 33.4148 3.97561
23.3315 33.8232 2
25.6496 34.2735 0.00883896
15.9963 26.4144 3.97161
17.6844 24.0552 2
17.8932 22.3378 0.0283941
14.3533 24.4594 2
15.5487 22.928 0.0328016
18.5388 30.1898 3.97444
19.1755 27.2212 2
19.7372 24.3953 0.0306665
21.3883 30.6853 2
22.0794 27.8438 0.0282781
23.9912 31.2097 0.0241299
17.8761 35.9753 3.97788
20.4535 35.9421 2
22.7462 36.2862 0.0180866
20.9314 40.64 0.0238015
20.3342 37.7996 0.0226739
18.2636 39.0054 2
14.4321 39.1745 3.97726
17.5194 42.0857 0.0228624
14.922 41.9115 2
12.47 42.2713 3.97209
14.9459 44.1911 0.0246781
12.7685 44.3851 2
10.5885 44.7988 3.96894
13.0131 46.2884 0.0284411
11.0058 46.7299 2
8.91398 47.3181 3.96798
11.5006 48.546 0.0317779
9.53209 49.2386 2
7.43617 50.0352 3.97206
10.2689 51.0783 0.031376
8.26963 52.0011 2
6.13414 53.0074 3.98291
9.23643 53.8879 0.0269294
7.19299 55.0295 2
5.0241 56.25 4
6.31988 58.3339 2
8.38465 56.9815 0.0184949
7.74927 60.3285 0
13.5185 26.8227 3.97094
11.9506 24.7921 3.96888
13.2577 25.3691 2
11.1459 22.2386 3.96864
12.8426 23.2863 2
13.9729 21.7592 0.0329053
12.2451 20.5569 2
10.3932 19.3237 3.97271
13.457 18.91 0.0316747
11.6623 17.5686 2
9.76142 16.1575 3.98272
13.0296 15.8867 0.0219718
11.2187 14.3752 2
9.30607 12.7746 4
12.7824 12.6878 0.0117643
10.9835 10.9835 2
12.7746 9.30605 0
18.0469 33.1253 3.9768
20.817 33.415 2
23.3251 33.8182 0.0175614
15.6116 29.6493 3.97348
15.9967 26.4144 2
17.684 24.0555 0.028927
14.353 24.4595 0.0302992
18.5382 30.1899 2
19.1752 27.2211 0.0290142
21.3798 30.6844 0.0260288
15.0531 36.0227 3.97724
17.879 35.9756 2
20.455 35.9416 0.0228076
12.6911 37.8294 3.97549
18.2616 39.0052 0.0224386
14.4331 39.1745 2
11.9874 40.1372 3.97288
14.9204 41.9117 0.0237116
12.4707 42.2711 2
10.1974 42.7745 3.96904
12.7678 44.3853 0.0280926
10.5887 44.7987 2
8.39183 45.32 3.96777
11.0055 46.73 0.0315322
8.91407 47.3179 2
6.72743 48.0005 3.97157
9.53187 49.2387 0.0316915
7.43636 50.0348 2
5.21097 50.9107 3.9827
8.26927 52.0017 0.0274127
6.13388 53.0055 2
3.86727 54.0858 4
7.19352 55.0323 0.0175339
5.02404 56.25 2
6.31991 58.3339 0
12.9891 29.041 3.9706
11.3897 26.4919 3.96893
13.5181 26.8226 2
10.2035 23.9698 3.96896
11.9513 24.792 2
13.2578 25.3693 0.0284346
9.24533 21.1405 3.97278
11.1469 22.2383 2
12.8424 23.2865 0.0328343
12.2441 20.5573 0.0312185
10.3943 19.3236 2
8.41763 18.0292 3.98117
11.6616 17.5692 0.0257909
9.76027 16.1605 2
7.74928 14.6715 4
11.22 14.3732 0.0141841
9.30602 12.7745 2
10.9835 10.9835 0
14.612 32.8708 3.9755
18.0491 33.1257 2
20.8134 33.4148 0.0243926
15.6122 29.6495 2
15.9963 26.4144 0.028387
18.5388 30.1898 0.0255568
12.9895 36.2113 3.97429
15.0549 36.0228 2
17.8761 35.9753 0.0221155
12.692 37.8294 2
11.33 38.3086 3.97369
14.4321 39.1745 0.0227401
11.9887 40.137 2
9.78789 40.7518 3.96978
12.47 42.2713 0.0279145
10.1981 42.7743 2
7.94102 43.2689 3.9677
10.5885 44.7988 0.0310614
8.39192 45.3199 2
6.13371 45.9055 3.97104
8.91398 47.3181 0.0320189
6.7275 48.0001 2
4.42253 48.7514 3.98212
7.43617 50.0352 0.0279423
5.21085 50.9098 2
2.85457 51.8506 4
6.13414 53.0074 0.0170879
3.86727 54.0858 2
5.0241 56.25 0
12.136 31.263 3.97188
10.8099 28.4195 3.96893
12.9897 29.041 2
9.41807 25.7993 3.9686
11.3899 26.4917 2
13.5185 26.8227 0.0290589
8.23186 23.024 3.9727
10.2042 23.9696 2
11.9506 24.7921 0.0311212
7.19965 19.979 3.98178
9.24626 21.1407 2
11.1459 22.2386 0.0313616
10.3932 19.3237 0.0272912
8.41705 18.0325 2
6.31992 16.6661 4
9.76142 16.1575 0.0172826
7.74926 14.6714 2
9.30607 12.7746 0
12.1648 34.2984 3.97456
14.613 32.871 2
18.0469 33.1253 0.0232041
15.6116 29.6493 0.0265174
10.8925 36.6117 3.97303
12.99 36.2113 2
15.0531 36.0227 0.0227639
12.6911 37.8294 0.0245122
11.3309 38.3085 2
9.37805 38.8222 3.97024
11.9874 40.1372 0.0271172
9.78842 40.7517 2
7.55209 41.2105 3.968
10.1974 42.7745 0.0309561
7.94104 43.2688 2
5.6458 43.7683 3.97075
8.39183 45.32 0.0322277
6.1338 45.9052 2
3.76818 46.5371 3.98153
6.72743 48.0005 0.0284337
4.42254 48.751 2
1.99014 49.554 4
5.21097 50.9107 0.0173019
2.85451 51.8506 2
3.86727 54.0858 0
10.9749 32.9231 3.97337
10.1287 30.3861 3.96925
12.1368 31.2631 2
8.72607 27.7328 3.96824
10.8101 28.4194 2
12.9891 29.041 0.0293989
7.35731 24.9827 3.97202
9.41835 25.7992 2
11.3897 26.4919 0.0310743
6.11645 22.0023 3.98278
8.23252 23.0242 2
10.2035 23.9698 0.0310397
5.02411 18.75 4
7.19942 19.9817 2
9.24533 21.1405 0.027216
8.41763 18.0292 0.0188288
6.3199 16.6661 2
7.74928 14.6715 0
10.4968 35.002 3.97268
12.1657 34.2985 2
14.612 32.8708 0.0245046
9.04532 36.9848 3.9706
10.8937 36.6117 2
12.9895 36.2113 0.0257084
11.33 38.3086 0.0263071
9.37881 38.8221 2
7.23244 39.1817 3.96832
9.78789 40.7518 0.0302202
7.55233 41.2104 2
5.2611 41.6139 3.97045
7.94102 43.2689 0.0322953
5.64582 43.768 2
3.24598 44.2819 3.9813
6.13371 45.9055 0.0289635
3.76831 46.5368 2
1.27781 47.2057 4
4.42253 48.7514 0.0178807
1.99012 49.554 2
2.85457 51.8506 0
10.1333 33.884 3.97305
9.41502 32.1572 3.96999
10.9756 32.9232 2
8.07498 29.6963 3.96823
10.1291 30.3861 2
12.136 31.263 0.0281206
6.60118 27.0087 3.9714
8.72608 27.7328 2
10.8099 28.4195 0.0310651
5.17182 24.095 3.98281
7.35764 24.9828 2
9.41807 25.7993 0.0313997
3.86728 20.9142 4
6.1164 22.004 2
8.23186 23.024 0.0273025
5.02406 18.75 2
7.19965 19.979 0.0182179
6.31992 16.6661 0
8.86867 35.2803 3.97088
10.4974 35.0019 2
12.1648 34.2984 0.0254367
7.01588 37.2058 3.96858
9.04564 36.9847 2
10.8925 36.6117 0.0269708
9.37805 38.8222 0.0297579
7.23269 39.1815 2
4.98887 39.4672 3.97051
7.55209 41.2105 0.0319956
5.26133 41.6136 2
2.85651 42.0022 3.98114
5.6458 43.7683 0.029253
3.24605 44.2818 2
0.720592 44.8159 4
3.76818 46.5371 0.0184729
1.27778 47.2057 2
1.99014 49.554 0
8.90667 33.6995 3.97073
10.1339 33.884 2
7.51229 31.6097 3.96849
9.41546 32.1573 2
10.9749 32.9231 0.0266341
5.9463 29.0697 3.97131
8.07492 29.6963 2
10.1287 30.3861 0.0307502
4.35961 26.2475 3.98211
6.60124 27.0088 2
8.72607 27.7328 0.0317645
2.85458 23.1494 4
5.17184 24.0957 2
7.35731 24.9827 0.0279797
3.86728 20.9142 2
6.11645 22.0023 0.0172197
5.02411 18.75 0
6.96588 35.3062 3.96875
8.86923 35.2802 2
10.4968 35.002 0.0273242
4.8388 37.3396 3.9712
7.01594 37.2058 2
9.04532 36.9848 0.0294001
7.23244 39.1817 0.0316767
4.98913 39.467 2
2.60463 39.7139 3.98087
5.2611 41.6139 0.0295511
2.85675 42.0024 2
0.320823 42.3947 4
3.24598 44.2819 0.0187002
0.720551 44.8159 2
1.27781 47.2057 0
7.12588 33.4612 3.96879
8.90695 33.6994 2
10.1333 33.884 0.0269512
5.41708 31.1336 3.97141
7.51232 31.6097 2
9.41502 32.1572 0.0300054
3.68134 28.4434 3.98161
5.94626 29.0698 2
8.07498 29.6963 0.0317677
1.99015 25.446 4
4.35965 26.2476 2
6.60118 27.0087 0.0285977
2.85453 23.1494 2
5.17182 24.095 0.0171937
3.86728 20.9142 0
4.85299 35.2514 3.9715
6.96619 35.3062 2
8.86867 35.2803 0.0291177
2.49597 37.4285 3.98156
4.83883 37.3397 2
7.01588 37.2058 0.031425
4.98887 39.4672 0.0294925
2.60492 39.7143 2
0.080333 39.9526 4
2.85651 42.0022 0.0188624
0.320817 42.3947 2
0.720592 44.8159 0
5.04638 33.1901 3.9716
7.12599 33.4613 2
8.90667 33.6995 0.0292654
3.14564 30.6661 3.98139
5.41711 31.1338 2
7.51229 31.6097 0.0315064
1.27793 27.7943 4
3.68142 28.4435 2
5.9463 29.0697 0.0286923
1.99013 25.446 2
4.35961 26.2475 0.0178912
2.85458 23.1494 0
2.54805 35.159 3.9816
4.85331 35.2516 2
6.96588 35.3062 0.0312518
0 37.5 4
2.49603 37.4289 2
4.8388 37.3396 0.0287951
2.60463 39.7139 0.0191258
0.0802903 39.9526 2
0.320823 42.3947 0
2.76565 32.9057 3.98168
5.04648 33.1904 2
7.12588 33.4612 0.0312077
0.721173 30.1842 4
3.14577 30.6665 2
5.41708 31.1336 0.0285877
1.27779 27.7943 2
3.68134 28.4434 0.018389
1.99015 25.446 0
0.0806499 35.0474 4
2.5484 35.1594 2
4.85299 35.2514 0.0284961
0 37.5 2
2.49597 37.4285 0.0184351
0.080333 39.9526 0
0.32156 32.6054 4
2.76576 32.9062 2
5.04638 33.1901 0.0284002
0.72056 30.1841 2
3.14564 30.6661 0.0186063
1.27793 27.7943 0
0.0802889 35.0474 2
2.54805 35.159 0.0184041
0 37.5 0
0.320817 32.6053 2
2.76565 32.9057 0.0183173
0.721173 30.1842 0
0.0806499 35.0474 0
0.32156 32.6054 0
CELLS 1910 17190
8 18 6 25 56 2 0 5 16
8 57 23 6 18 17 4 0 2
8 78 36 9 29 31 11 1 7
8 31 11 1 7 79 37 10 30
8 110 57 18 50 48 17 2 14
8 50 18 56 111 14 2 16 49
8 116 62 22 55 52 20 3 15
8 56 25 67 118 16 5 24 53
8 119 63 23 57 54 21 4 17
8 55 22 63 119 15 3 21 54
8 58 26 68 121 18 6 25 56
8 122 65 26 58 57 23 6 18
8 73 31 7 27 142 79 30 71
8 143 78 29 72 73 31 7 27
8 83 147 76 34 32 74 28 8
8 84 148 78 36 33 75 29 9
8 76 34 8 28 148 84 33 75
8 37 79 150 86 10 30 77 35
8 151 87 36 78 80 38 11 31
8 80 38 11 31 152 88 37 79
8 175 100 42 94 96 44 12 40
8 44 96 176 101 12 40 95 43
8 101 176 98 46 43 95 41 13
8 46 98 178 103 13 41 97 45
8 178 103 45 97 147 83 32 74
8 189 116 55 109 106 52 15 47
8 111 56 118 191 49 16 53 107
8 192 119 57 110 108 54 17 48
8 109 55 119 192 47 15 54 108
8 194 122 58 112 110 57 18 50
8 112 58 121 195 50 18 56 111
8 115 61 19 51 197 124 59 113
8 115 61 125 198 51 19 60 114
8 198 125 62 116 114 60 20 52
8 200 127 64 120 116 62 22 55
8 118 67 132 202 53 24 66 117
8 121 68 133 203 56 25 67 118
8 120 64 128 204 55 22 63 119
8 204 128 65 122 119 63 23 57
8 206 134 68 121 123 69 26 58
8 123 69 26 58 207 131 65 122
8 226 147 74 138 140 76 28 70
8 229 148 75 139 143 78 29 72
8 140 76 28 70 229 148 75 139
8 142 79 30 71 231 150 77 141
8 144 80 31 73 232 152 79 142
8 233 151 78 143 144 80 31 73
8 150 86 35 77 235 154 81 145
8 235 154 81 145 146 82 39 91
8 146 82 39 91 236 155 90 165
8 238 157 83 147 149 85 34 76
8 239 158 84 148 151 87 36 78
8 149 85 34 76 239 158 84 148
8 152 88 37 79 241 160 86 150
8 242 161 87 151 153 89 38 80
8 153 89 38 80 243 162 88 152
8 171 98 41 92 265 178 97 169
8 265 178 97 169 226 147 74 138
8 172 96 40 93 266 176 95 170
8 266 176 95 170 171 98 41 92
8 269 175 94 173 172 96 40 93
8 271 180 99 174 175 100 42 94
8 197 124 59 113 271 180 99 174
8 272 181 100 175 177 102 44 96
8 273 182 101 176 179 104 46 98
8 177 102 44 96 273 182 101 176
8 179 104 46 98 275 184 103 178
8 275 184 103 178 238 157 83 147
8 188 115 51 105 283 197 113 186
8 188 115 198 284 105 51 114 187
8 284 198 116 189 187 114 52 106
8 286 200 120 193 189 116 55 109
8 191 118 202 288 107 53 117 190
8 195 121 203 289 111 56 118 191
8 193 120 204 290 109 55 119 192
8 290 204 122 194 192 119 57 110
8 196 123 58 112 292 207 122 194
8 293 206 121 195 196 123 58 112
8 199 126 61 115 297 211 124 197
8 298 212 127 200 198 125 62 116
8 199 126 212 298 115 61 125 198
8 205 129 64 120 300 214 127 200
8 301 217 130 201 202 132 66 117
8 209 136 168 264 301 217 130 201
8 302 219 132 202 203 133 67 118
8 303 220 133 203 206 134 68 121
8 205 129 215 304 120 64 128 204
8 304 215 131 207 204 128 65 122
8 306 221 134 206 208 135 69 123
8 208 135 69 123 307 218 131 207
8 210 137 167 263 309 223 136 209
8 328 238 147 226 230 149 76 140
8 228 146 91 166 329 236 165 260
8 231 150 77 141 330 235 145 227
8 330 235 145 227 228 146 91 166
8 332 239 148 229 233 151 78 143
8 230 149 76 140 332 239 148 229
8 232 152 79 142 334 241 150 231
8 234 153 80 144 335 243 152 232
8 336 242 151 233 234 153 80 144
8 236 155 90 165 338 245 164 259
8 241 160 86 150 339 246 154 235
8 339 246 154 235 237 156 82 146
8 237 156 82 146 340 247 155 236
8 342 249 157 238 240 159 85 149
8 343 250 158 239 242 161 87 151
8 240 159 85 149 343 250 158 239
8 243 162 88 152 345 252 160 241
8 244 163 253 346 153 89 161 242
8 244 163 89 153 347 254 162 243
8 311 224 261 371 210 137 167 263
8 263 167 262 372 209 136 168 264
8 267 179 98 171 375 275 178 265
8 375 275 178 265 328 238 147 226
8 376 273 176 266 267 179 98 171
8 268 177 96 172 376 273 176 266
8 379 272 175 269 268 177 96 172
8 380 271 174 270 269 175 94 173
8 283 197 113 186 380 271 174 270
8 381 277 180 271 272 181 100 175
8 297 211 124 197 381 277 180 271
8 382 278 181 272 274 183 102 177
8 274 183 102 177 383 279 182 273
8 383 279 182 273 276 185 104 179
8 385 281 184 275 342 249 157 238
8 276 185 104 179 385 281 184 275
8 285 199 115 188 393 297 197 283
8 394 298 200 286 284 198 116 189
8 285 199 298 394 188 115 198 284
8 291 205 120 193 396 300 200 286
8 397 301 201 287 288 202 117 190
8 295 209 264 374 397 301 201 287
8 398 302 202 288 289 203 118 191
8 399 303 203 289 293 206 121 195
8 291 205 304 400 193 120 204 290
8 400 304 207 292 290 204 122 194
8 294 208 123 196 402 307 207 292
8 403 306 206 293 294 208 123 196
8 296 210 263 373 405 309 209 295
8 408 312 213 299 297 211 126 199
8 299 213 313 409 199 126 212 298
8 409 313 214 300 298 212 127 200
8 305 216 129 205 411 315 214 300
8 412 318 217 301 302 219 132 202
8 309 223 136 209 412 318 217 301
8 413 320 219 302 303 220 133 203
8 306 221 321 414 206 134 220 303
8 307 218 131 207 415 316 215 304
8 305 216 316 415 205 129 215 304
8 417 322 221 306 308 222 135 208
8 308 222 135 208 418 319 218 307
8 310 225 137 210 420 325 223 309
8 423 326 224 311 310 225 137 210
8 329 236 165 260 441 338 259 368
8 442 342 238 328 333 240 149 230
8 331 237 146 228 443 340 236 329
8 334 241 150 231 444 339 235 330
8 444 339 235 330 331 237 146 228
8 446 343 239 332 336 242 151 233
8 333 240 149 230 446 343 239 332
8 335 243 152 232 448 345 241 334
8 337 244 153 234 449 347 243 335
8 337 244 346 450 234 153 242 336
8 338 245 164 259 452 349 258 367
8 340 247 155 236 453 350 245 338
8 345 252 160 241 454 351 246 339
8 454 351 246 339 341 248 156 237
8 341 248 156 237 455 352 247 340
8 240 159 251 344 342 249 354 457
8 242 161 253 346 343 250 355 458
8 343 250 355 458 240 159 251 344
8 347 254 162 243 460 357 252 345
8 348 255 358 461 244 163 253 346
8 348 255 163 244 462 359 254 347
8 473 360 257 365 363 256 364 482
8 452 349 258 367 365 257 366 485
8 422 324 369 488 311 224 261 371
8 371 261 370 490 263 167 262 372
8 407 311 371 491 296 210 263 373
8 373 263 372 492 295 209 264 374
8 493 385 275 375 442 342 238 328
8 377 276 179 267 493 385 275 375
8 378 274 177 268 494 383 273 376
8 494 383 273 376 377 276 179 267
8 497 382 272 379 378 274 177 268
8 498 381 271 380 379 272 175 269
8 393 297 197 283 498 381 271 380
8 499 387 277 381 382 278 181 272
8 408 312 211 297 499 387 277 381
8 500 388 278 382 384 280 183 274
8 501 389 279 383 386 282 185 276
8 384 280 183 274 501 389 279 383
8 386 282 185 276 503 391 281 385
8 503 391 281 385 457 354 249 342
8 511 408 299 395 393 297 199 285
8 395 299 409 512 285 199 298 394
8 512 409 300 396 394 298 200 286
8 401 305 205 291 514 411 300 396
8 515 412 301 397 398 302 202 288
8 405 309 209 295 515 412 301 397
8 516 413 302 398 399 303 203 289
8 403 306 414 517 293 206 303 399
8 402 307 207 292 518 415 304 400
8 401 305 415 518 291 205 304 400
8 404 308 208 294 520 418 307 402
8 521 417 306 403 404 308 208 294
8 406 310 210 296 523 420 309 405
8 526 423 311 407 406 310 210 296
8 410 314 213 299 527 424 312 408
8 528 425 315 411 409 313 214 300
8 410 314 425 528 299 213 313 409
8 416 317 216 305 530 427 315 411
8 531 430 318 412 413 320 219 302
8 420 325 223 309 531 430 318 412
8 532 432 320 413 414 321 220 303
8 417 322 433 533 306 221 321 414
8 418 319 218 307 534 428 316 415
8 416 317 428 534 305 216 316 415
8 419 323 434 536 308 222 322 417
8 419 323 222 308 537 431 319 418
8 421 327 225 310 539 438 325 420
8 421 327 439 541 310 225 326 423
8 543 437 324 422 423 326 224 311
8 441 338 259 368 559 452 367 486
8 443 340 236 329 560 453 338 441
8 333 240 344 447 442 342 457 561
8 445 341 237 331 562 455 340 443
8 448 345 241 334 563 454 339 444
8 563 454 339 444 445 341 237 331
8 336 242 346 450 446 343 458 565
8 446 343 458 565 333 240 344 447
8 449 347 243 335 567 460 345 448
8 451 348 244 337 568 462 347 449
8 451 348 461 569 337 244 346 450
8 570 463 349 452 473 360 257 365
8 453 350 245 338 570 463 349 452
8 455 352 247 340 571 464 350 453
8 460 357 252 345 572 465 351 454
8 572 465 351 454 456 353 248 341
8 456 353 248 341 573 466 352 455
8 344 251 356 459 457 354 468 575
8 458 355 469 576 344 251 356 459
8 346 253 358 461 458 355 469 576
8 462 359 254 347 578 471 357 460
8 348 255 359 462 461 358 472 579
8 591 474 360 473 475 361 256 363
8 475 361 256 363 594 477 362 479
8 363 256 364 482 479 362 480 603
8 590 473 365 484 481 363 482 605
8 482 364 257 365 606 483 366 485
8 559 452 367 486 484 365 485 607
8 542 436 487 609 422 324 369 488
8 525 422 488 611 407 311 371 491
8 488 369 489 612 371 261 370 490
8 491 371 490 613 373 263 372 492
8 495 386 276 377 614 503 385 493
8 614 503 385 493 561 457 342 442
8 615 501 383 494 495 386 276 377
8 496 384 274 378 615 501 383 494
8 618 500 382 497 496 384 274 378
8 619 499 381 498 497 382 272 379
8 511 408 297 393 619 499 381 498
8 620 505 387 499 500 388 278 382
8 527 424 312 408 620 505 387 499
8 502 390 506 621 384 280 388 500
8 622 507 389 501 504 392 282 386
8 502 390 280 384 622 507 389 501
8 504 392 282 386 624 509 391 503
8 624 509 391 503 575 468 354 457
8 513 410 299 395 630 527 408 511
8 631 528 411 514 512 409 300 396
8 513 410 528 631 395 299 409 512
8 519 416 305 401 633 530 411 514
8 634 531 412 515 516 413 302 398
8 523 420 309 405 634 531 412 515
8 635 532 413 516 517 414 303 399
8 521 417 533 636 403 306 414 517
8 520 418 307 402 637 534 415 518
8 519 416 534 637 401 305 415 518
8 522 419 308 404 639 537 418 520
8 522 419 536 640 404 308 417 521
8 524 421 310 406 642 539 420 523
8 524 421 541 644 406 310 423 526
8 646 543 422 525 526 423 311 407
8 529 426 314 410 647 544 424 527
8 528 425 545 648 411 315 427 530
8 529 426 545 648 410 314 425 528
8 535 429 317 416 649 546 427 530
8 650 548 430 531 532 432 320 413
8 539 438 325 420 650 548 430 531
8 533 433 550 651 414 321 432 532
8 536 434 551 652 417 322 433 533
8 537 431 319 418 653 547 428 534
8 535 429 547 653 416 317 428 534
8 538 435 552 654 419 323 434 536
8 538 435 323 419 655 549 431 537
8 540 440 327 421 657 556 438 539
8 540 440 557 659 421 327 439 541
8 541 439 555 660 423 326 437 543
8 661 554 436 542 543 437 324 422
8 676 570 452 559 590 473 365 484
8 560 453 338 441 676 570 452 559
8 562 455 340 443 677 571 453 560
8 447 344 459 566 561 457 575 678
8 564 456 341 445 679 573 455 562
8 567 460 345 448 680 572 454 563
8 680 572 454 563 564 456 341 445
8 565 458 576 682 447 344 459 566
8 450 346 461 569 565 458 576 682
8 568 462 347 449 684 578 460 567
8 451 348 462 568 569 461 579 685
8 686 580 463 570 591 474 360 473
8 571 464 350 453 686 580 463 570
8 573 466 352 455 687 581 464 571
8 572 465 582 688 460 357 471 578
8 574 467 582 688 456 353 465 572
8 574 467 353 456 689 583 466 573
8 459 356 470 577 575 468 585 691
8 576 469 586 692 459 356 470 577
8 461 358 472 579 576 469 586 692
8 462 359 471 578 579 472 588 694
8 704 591 473 590 593 475 363 481
8 595 476 592 705 475 361 474 591
8 593 475 363 481 707 594 479 602
8 594 477 362 479 709 598 478 600
8 595 476 361 475 711 597 477 594
8 479 362 480 603 600 478 601 720
8 481 363 482 605 602 479 603 722
8 603 480 364 482 723 604 483 606
8 605 482 365 484 724 606 485 607
8 656 553 608 726 542 436 487 609
8 645 542 609 728 525 422 488 611
8 609 487 610 729 488 369 489 612
8 611 488 612 730 491 371 490 613
8 616 504 386 495 731 624 503 614
8 731 624 503 614 678 575 457 561
8 732 622 501 615 616 504 386 495
8 617 502 384 496 732 622 501 615
8 617 502 621 735 496 384 500 618
8 736 620 499 619 618 500 382 497
8 630 527 408 511 736 620 499 619
8 621 506 626 737 500 388 505 620
8 647 544 424 527 737 626 505 620
8 623 508 627 738 502 390 506 621
8 623 508 390 502 739 628 507 622
8 625 510 628 739 504 392 507 622
8 740 629 509 624 691 585 468 575
8 625 510 392 504 740 629 509 624
8 632 529 410 513 744 647 527 630
8 631 528 648 745 514 411 530 633
8 632 529 648 745 513 410 528 631
8 638 535 416 519 746 649 530 633
8 747 650 531 634 635 532 413 516
8 642 539 420 523 747 650 531 634
8 636 533 651 748 517 414 532 635
8 640 536 652 749 521 417 533 636
8 639 537 418 520 750 653 534 637
8 638 535 653 750 519 416 534 637
8 641 538 419 522 751 655 537 639
8 641 538 654 752 522 419 536 640
8 643 540 421 524 753 657 539 642
8 643 540 659 755 524 421 541 644
8 644 541 660 757 526 423 543 646
8 758 661 542 645 646 543 422 525
8 529 426 544 647 648 545 662 759
8 530 427 545 648 649 546 663 760
8 535 429 546 649 653 547 664 761
8 762 666 548 650 651 550 432 532
8 657 556 438 539 762 666 548 650
8 652 551 668 763 533 433 550 651
8 654 552 669 764 536 434 551 652
8 655 549 431 537 765 665 547 653
8 538 435 549 655 654 552 667 766
8 661 554 671 768 542 436 553 656
8 658 558 440 540 769 674 556 657
8 658 558 675 770 540 440 557 659
8 659 557 673 771 541 439 555 660
8 660 555 672 772 543 437 554 661
8 788 686 570 676 704 591 473 590
8 677 571 453 560 788 686 570 676
8 679 573 455 562 789 687 571 677
8 566 459 577 683 678 575 691 790
8 681 574 456 564 791 689 573 679
8 680 572 688 792 567 460 578 684
8 681 574 688 792 564 456 572 680
8 682 576 692 794 566 459 577 683
8 569 461 579 685 682 576 692 794
8 568 462 578 684 685 579 694 796
8 687 581 464 571 798 696 580 686
8 798 696 580 686 705 592 474 591
8 689 583 466 573 799 697 581 687
8 688 582 698 800 578 471 588 694
8 690 584 698 800 574 467 582 688
8 690 584 467 574 801 699 583 689
8 693 587 701 803 577 470 585 691
8 693 587 470 577 804 702 586 692
8 695 589 702 804 579 472 586 692
8 695 589 472 579 805 703 588 694
8 708 595 705 813 593 475 591 704
8 710 596 706 814 595 476 592 705
8 707 594 479 602 816 709 600 719
8 708 595 475 593 817 711 594 707
8 709 598 478 600 819 715 599 717
8 711 597 477 594 820 714 598 709
8 710 596 476 595 822 713 597 711
8 600 478 601 720 717 599 718 832
8 602 479 603 722 719 600 720 834
8 720 601 480 603 835 721 604 723
8 722 603 482 605 836 723 606 724
8 767 670 725 839 656 553 608 726
8 756 656 726 841 645 542 609 728
8 726 608 727 842 609 487 610 729
8 728 609 729 843 611 488 612 730
8 844 740 624 731 790 691 575 678
8 733 625 504 616 844 740 624 731
8 734 623 502 617 845 739 622 732
8 733 625 739 845 616 504 622 732
8 734 623 738 846 617 502 621 735
8 735 621 737 847 618 500 620 736
8 744 647 527 630 847 737 620 736
8 621 506 627 738 737 626 741 848
8 647 544 626 737 759 662 741 848
8 623 508 628 739 738 627 742 849
8 740 629 585 691 850 743 700 802
8 625 510 629 740 739 628 743 850
8 632 529 647 744 745 648 759 854
8 633 530 648 745 746 649 760 855
8 638 535 649 746 750 653 761 856
8 857 762 650 747 748 651 532 635
8 753 657 539 642 857 762 650 747
8 749 652 763 858 636 533 651 748
8 752 654 764 859 640 536 652 749
8 751 655 537 639 860 765 653 750
8 641 538 655 751 752 654 766 861
8 754 658 540 643 862 769 657 753
8 754 658 770 863 643 540 659 755
8 755 659 771 864 644 541 660 757
8 758 661 768 866 645 542 656 756
8 757 660 772 867 646 543 661 758
8 759 662 773 868 648 545 663 760
8 649 546 663 760 761 664 774 871
8 765 665 547 653 872 775 664 761
8 873 777 666 762 763 668 550 651
8 769 674 556 657 873 777 666 762
8 764 669 779 874 652 551 668 763
8 654 552 667 766 764 669 778 875
8 655 549 665 765 766 667 776 876
8 768 671 782 877 656 553 670 767
8 772 672 783 878 661 554 671 768
8 658 558 674 769 770 675 786 879
8 659 557 675 770 771 673 785 881
8 882 784 672 772 771 673 555 660
8 789 687 571 677 897 798 686 788
8 897 798 686 788 813 705 591 704
8 791 689 573 679 898 799 687 789
8 795 693 803 900 683 577 691 790
8 793 690 574 681 901 801 689 791
8 792 688 800 902 684 578 694 796
8 793 690 800 902 681 574 688 792
8 795 693 577 683 903 804 692 794
8 797 695 804 903 685 579 692 794
8 797 695 579 685 904 805 694 796
8 905 806 697 799 798 696 581 687
8 814 706 806 905 705 592 696 798
8 689 583 697 799 801 699 808 907
8 800 698 809 908 694 588 703 805
8 690 584 699 801 800 698 809 908
8 803 701 810 909 691 585 700 802
8 693 587 702 804 803 701 811 910
8 695 589 703 805 804 702 812 911
8 818 710 814 919 708 595 705 813
8 821 712 815 920 710 596 706 814
8 816 709 600 719 922 819 717 831
8 817 711 594 707 923 820 709 816
8 818 710 595 708 924 822 711 817
8 819 715 599 717 926 827 716 829
8 820 714 598 709 927 826 715 819
8 929 825 713 822 820 714 597 711
8 821 712 596 710 930 824 713 822
8 717 599 718 832 829 716 830 942
8 719 600 720 834 831 717 832 944
8 832 718 601 720 945 833 721 835
8 834 720 603 722 946 835 723 836
8 869 780 838 950 767 670 725 839
8 865 767 839 952 756 656 726 841
8 839 725 840 953 726 608 727 842
8 841 726 842 954 728 609 729 843
8 844 740 691 790 955 850 802 899
8 733 625 740 844 845 739 850 955
8 734 623 739 845 846 738 849 956
8 735 621 738 846 847 737 848 957
8 744 647 737 847 854 759 848 957
8 738 627 742 849 848 741 851 958
8 848 741 851 958 759 662 773 868
8 850 743 700 802 959 852 807 906
8 849 742 628 739 959 852 743 850
8 854 759 868 965 745 648 760 855
8 746 649 760 855 856 761 871 966
8 860 765 653 750 967 872 761 856
8 968 873 762 857 858 763 651 748
8 862 769 657 753 968 873 762 857
8 859 764 874 969 749 652 763 858
8 752 654 766 861 859 764 875 970
8 751 655 765 860 861 766 876 971
8 754 658 769 862 863 770 879 972
8 755 659 770 863 864 771 881 974
8 976 882 772 867 864 771 660 757
8 866 768 877 977 756 656 767 865
8 867 772 878 978 758 661 768 866
8 760 663 773 868 871 774 883 980
8 870 781 837 948 982 890 780 869
8 982 890 780 869 877 782 670 767
8 761 664 774 871 872 775 884 984
8 876 776 665 765 985 885 775 872
8 873 777 668 763 986 887 779 874
8 769 674 777 873 879 786 887 986
8 764 669 778 875 874 779 888 987
8 766 667 776 876 875 778 886 988
8 878 783 892 989 768 671 782 877
8 878 783 672 772 990 893 784 882
8 880 787 675 770 991 896 786 879
8 880 787 895 992 770 675 785 881
8 881 785 894 993 771 673 784 882
8 1006 905 799 898 897 798 687 789
8 919 814 905 1006 813 705 798 897
8 791 689 799 898 901 801 907 1007
8 900 803 909 1009 790 691 802 899
8 795 693 804 903 900 803 910 1010
8 902 800 908 1011 796 694 805 904
8 793 690 801 901 902 800 908 1011
8 797 695 805 904 903 804 911 1012
8 799 697 806 905 907 808 912 1013
8 920 815 912 1013 814 706 806 905
8 802 700 810 909 906 807 913 1014
8 801 699 808 907 908 809 914 1015
8 805 703 809 908 911 812 915 1016
8 803 701 811 910 909 810 916 1017
8 911 812 917 1018 804 702 811 910
8 925 821 920 1030 818 710 814 919
8 928 823 921 1031 821 712 815 920
8 922 819 717 831 1033 926 829 941
8 923 820 709 816 1034 927 819 922
8 1035 929 822 924 923 820 711 817
8 925 821 710 818 1036 930 822 924
8 1038 933 825 929 927 826 714 820
8 926 827 716 829 1039 935 828 939
8 927 826 715 819 1040 934 827 926
8 928 823 712 821 1041 931 824 930
8 1042 932 824 930 929 825 713 822
8 829 716 830 942 939 828 940 1058
8 831 717 832 944 941 829 942 1060
8 942 830 718 832 1061 943 833 945
8 944 832 720 834 1062 945 835 946
8 981 889 947 1064 870 781 837 948
8 948 837 949 1067 869 780 838 950
8 975 869 950 1069 865 767 839 952
8 950 838 951 1070 839 725 840 953
8 952 839 953 1071 841 726 842 954
8 955 850 802 899 1072 959 906 1008
8 956 849 739 845 1072 959 850 955
8 846 738 849 956 957 848 958 1073
8 957 848 958 1073 854 759 868 965
8 849 742 852 959 958 851 961 1076
8 960 853 961 1076 906 807 852 959
8 958 851 961 1076 868 773 883 980
8 960 853 807 906 1077 963 913 1014
8 855 760 868 965 966 871 980 1085
8 856 761 871 966 967 872 984 1086
8 971 876 765 860 1087 985 872 967
8 968 873 763 858 1088 986 874 969
8 862 769 873 968 972 879 986 1088
8 859 764 875 970 969 874 987 1089
8 861 766 876 971 970 875 988 1090
8 973 880 770 863 1091 991 879 972
8 973 880 992 1092 863 770 881 974
8 974 881 993 1093 864 771 882 976
8 979 870 948 1066 1094 982 869 975
8 1094 982 869 975 977 877 767 865
8 978 878 772 867 1095 990 882 976
8 978 878 989 1096 866 768 877 977
8 871 774 883 980 984 884 994 1099
8 983 891 999 1100 870 781 889 981
8 1101 1000 890 982 989 892 782 877
8 983 891 781 870 1101 1000 890 982
8 872 775 884 984 985 885 995 1103
8 876 776 885 985 988 886 996 1104
8 986 887 779 874 1105 998 888 987
8 879 786 887 986 991 896 998 1105
8 875 778 886 988 987 888 997 1106
8 990 893 1002 1107 878 783 892 989
8 1108 1003 893 990 993 894 784 882
8 880 787 896 991 992 895 1005 1109
8 993 894 785 881 1110 1004 895 992
8 898 799 905 1006 1007 907 1013 1120
8 1030 920 1013 1120 919 814 905 1006
8 901 801 907 1007 1011 908 1015 1121
8 899 802 909 1009 1008 906 1014 1122
8 900 803 910 1010 1009 909 1017 1123
8 1012 911 1018 1124 903 804 910 1010
8 904 805 908 1011 1012 911 1016 1125
8 1013 912 1020 1127 907 808 914 1015
8 1031 921 1020 1127 920 815 912 1013
8 1019 918 962 1075 1128 1021 913 1014
8 1128 1021 913 1014 1017 916 810 909
8 1015 914 1022 1129 908 809 915 1016
8 1016 915 1023 1130 911 812 917 1018
8 1018 917 1024 1131 910 811 916 1017
8 1037 928 1031 1148 925 821 920 1030
8 928 823 931 1041 1031 921 1032 1149
8 1033 926 829 941 1151 1039 939 1057
8 1034 927 819 922 1152 1040 926 1033
8 1153 1038 929 1035 1034 927 820 923
8 1154 1042 930 1036 1035 929 822 924
8 1037 928 821 925 1155 1041 930 1036
8 1039 935 828 939 1156 1047 938 1055
8 1157 1043 932 1042 1038 933 825 929
8 1038 933 826 927 1158 1045 934 1040
8 1040 934 827 926 1159 1046 935 1039
8 930 824 932 1042 1041 931 1044 1160
8 1051 936 1048 1165 1175 1052 937 1053
8 1156 1047 938 1055 1053 937 1054 1178
8 939 828 940 1058 1055 938 1056 1181
8 941 829 942 1060 1057 939 1058 1183
8 942 830 943 1061 1058 940 1059 1184
8 1060 942 832 944 1185 1061 945 1062
8 1082 964 1063 1188 981 889 947 1064
8 1097 981 1064 1190 979 870 948 1066
8 1064 947 1065 1191 948 837 949 1067
8 1066 948 1067 1193 975 869 950 1069
8 1067 949 1068 1194 950 838 951 1070
8 1069 950 1070 1195 952 839 953 1071
8 956 849 959 1072 1073 958 1076 1197
8 1074 960 1076 1197 1008 906 959 1072
8 1073 958 1076 1197 965 868 980 1085
8 1074 960 906 1008 1198 1077 1014 1122
8 1133 1026 1079 1199 1019 918 962 1075
8 1077 963 913 1014 1200 1080 962 1075
8 960 853 963 1077 1076 961 1078 1201
8 980 883 961 1076 1099 994 1078 1201
8 1210 1083 964 1082 1100 999 889 981
8 966 871 980 1085 1086 984 1099 1215
8 967 872 984 1086 1087 985 1103 1216
8 971 876 985 1087 1090 988 1104 1217
8 1088 986 874 969 1218 1105 987 1089
8 972 879 986 1088 1091 991 1105 1218
8 970 875 988 1090 1089 987 1106 1219
8 973 880 991 1091 1092 992 1109 1220
8 1093 993 881 974 1221 1110 992 1092
8 1222 1108 990 1095 1093 993 882 976
8 1223 1101 982 1094 1096 989 877 977
8 1098 983 870 979 1223 1101 982 1094
8 1095 990 1107 1224 978 878 989 1096
8 1098 983 1100 1225 979 870 981 1097
8 984 884 994 1099 1103 995 1111 1227
8 1102 1001 1115 1228 983 891 999 1100
8 1101 1000 892 989 1229 1116 1002 1107
8 1102 1001 891 983 1229 1116 1000 1101
8 985 885 995 1103 1104 996 1112 1230
8 988 886 996 1104 1106 997 1113 1231
8 1105 998 888 987 1232 1114 997 1106
8 991 896 998 1105 1109 1005 1114 1232
8 1108 1003 1117 1233 990 893 1002 1107
8 1108 1003 894 993 1233 1117 1004 1110
8 992 895 1005 1109 1110 1004 1118 1234
8 1120 1013 1127 1244 1007 907 1015 1121
8 1148 1031 1127 1244 1030 920 1013 1120
8 1121 1015 1129 1245 1011 908 1016 1125
8 1126 1019 1075 1196 1246 1128 1014 1122
8 1246 1128 1014 1122 1123 1017 909 1009
8 1124 1018 1131 1247 1010 910 1017 1123
8 1125 1016 1130 1248 1012 911 1018 1124
8 1127 1020 1137 1254 1015 914 1022 1129
8 1031 921 1032 1149 1127 1020 1137 1254
8 1134 1027 918 1019 1257 1140 1021 1128
8 1257 1140 1021 1128 1131 1024 916 1017
8 1129 1022 1141 1258 1016 915 1023 1130
8 1130 1023 1142 1259 1018 917 1024 1131
8 1261 1144 1025 1132 1133 1026 1079 1199
8 1255 1138 1025 1132 1135 1028 1144 1261
8 1133 1026 918 1019 1262 1145 1027 1134
8 1136 1029 1139 1256 1263 1146 1028 1135
8 1037 928 1041 1155 1148 1031 1149 1275
8 1041 931 1044 1160 1149 1032 1150 1276
8 1151 1039 939 1057 1278 1156 1055 1180
8 1152 1040 926 1033 1279 1159 1039 1151
8 1153 1038 927 1034 1280 1158 1040 1152
8 1281 1157 1042 1154 1153 1038 929 1035
8 1036 930 1042 1154 1155 1041 1160 1282
8 1283 1164 1046 1159 1156 1047 935 1039
8 1165 1048 1164 1283 1053 937 1047 1156
8 1157 1043 933 1038 1284 1161 1045 1158
8 1157 1043 1161 1284 1042 932 1044 1160
8 1040 934 1046 1159 1158 1045 1163 1285
8 1166 1049 1167 1292 1051 936 1048 1165
8 1166 1049 936 1051 1293 1168 1050 1172
8 1051 936 1052 1175 1172 1050 1173 1306
8 1174 1051 1165 1290 1308 1175 1053 1177
8 1053 937 1054 1178 1175 1052 1176 1309
8 1278 1156 1055 1180 1177 1053 1178 1311
8 1055 938 1056 1181 1178 1054 1179 1312
8 1057 939 1058 1183 1180 1055 1181 1314
8 1058 940 1059 1184 1181 1056 1182 1315
8 1060 942 1061 1185 1183 1058 1184 1316
8 1208 1081 1187 1321 1082 964 1063 1188
8 1209 1082 1188 1322 1097 981 1064 1190
8 1188 1063 1189 1323 1064 947 1065 1191
8 1190 1064 1191 1325 1066 948 1067 1193
8 1191 1065 1192 1326 1067 949 1068 1194
8 1067 1193 1069 950 1194 1327 1195 1070
8 1250 1133 1199 1330 1126 1019 1075 1196
8 1198 1077 1014 1122 1331 1200 1075 1196
8 1074 960 1077 1198 1197 1076 1201 1332
8 1085 980 1076 1197 1215 1099 1201 1332
8 1199 1079 1203 1333 1075 962 1080 1200
8 1132 1025 1119 1243 1199 1079 1203 1333
8 1201 1078 963 1077 1334 1202 1080 1200
8 1099 994 1078 1201 1227 1111 1202 1334
8 1343 1207 1081 1208 1210 1083 964 1082
8 1214 1084 1186 1319 1343 1207 1081 1208
8 1345 1210 1082 1209 1225 1100 981 1097
8 1346 1211 1083 1210 1228 1115 999 1100
8 1086 984 1099 1215 1216 1103 1227 1352
8 1087 985 1103 1216 1217 1104 1230 1353
8 1090 988 1104 1217 1219 1106 1231 1354
8 1218 1105 987 1089 1355 1232 1106 1219
8 1091 991 1105 1218 1220 1109 1232 1355
8 1092 992 1109 1220 1221 1110 1234 1356
8 1222 1108 1233 1357 1095 990 1107 1224
8 1222 1108 993 1093 1357 1233 1110 1221
8 1223 1101 989 1096 1358 1229 1107 1224
8 1226 1102 983 1098 1358 1229 1101 1223
8 1226 1102 1228 1359 1098 983 1100 1225
8 1103 995 1111 1227 1230 1112 1235 1360
8 1107 1002 1117 1233 1229 1116 1240 1362
8 1102 1001 1116 1229 1228 1115 1240 1362
8 1104 996 1112 1230 1231 1113 1236 1363
8 1364 1237 1114 1232 1231 1113 997 1106
8 1109 1005 1114 1232 1234 1118 1238 1365
8 1110 1004 1118 1234 1233 1117 1241 1366
8 1242 1374 1255 1138 1119 1243 1132 1025
8 1244 1127 1254 1376 1121 1015 1129 1245
8 1148 1031 1149 1275 1244 1127 1254 1376
8 1245 1129 1258 1377 1125 1016 1130 1248
8 1251 1134 1019 1126 1378 1257 1128 1246
8 1378 1257 1128 1246 1247 1131 1017 1123
8 1248 1130 1259 1379 1124 1018 1131 1247
8 1261 1381 1250 1133 1132 1249 1330 1199
8 1255 1380 1252 1135 1132 1249 1381 1261
8 1250 1133 1019 1126 1382 1262 1134 1251
8 1253 1136 1256 1385 1384 1263 1135 1252
8 1254 1137 1265 1387 1129 1022 1141 1258
8 1149 1032 1150 1276 1254 1137 1265 1387
8 1028 1135 1255 1138 1139 1256 1388 1266
8 1136 1029 1147 1264 1256 1139 1267 1389
8 1390 1268 1140 1257 1259 1142 1024 1131
8 1260 1143 1027 1134 1390 1268 1140 1257
8 1258 1141 1269 1391 1130 1023 1142 1259
8 1262 1145 1027 1134 1393 1271 1143 1260
8 1261 1144 1026 1133 1394 1272 1145 1262
8 1135 1028 1144 1261 1263 1146 1272 1394
8 1136 1029 1146 1263 1264 1147 1273 1395
8 1155 1041 1160 1282 1275 1149 1276 1405
8 1276 1150 1044 1160 1406 1277 1162 1286
8 1408 1283 1159 1279 1278 1156 1039 1151
8 1290 1165 1283 1408 1177 1053 1156 1278
8 1152 1040 1159 1279 1280 1158 1285 1409
8 1281 1157 1038 1153 1410 1284 1158 1280
8 1281 1157 1284 1410 1154 1042 1160 1282
8 1159 1046 1164 1283 1285 1163 1289 1412
8 1292 1167 1289 1412 1165 1048 1164 1283
8 1158 1045 1163 1285 1284 1161 1288 1413
8 1284 1161 1288 1413 1160 1044 1162 1286
8 1291 1166 1292 1418 1174 1051 1165 1290
8 1291 1166 1051 1174 1419 1293 1172 1305
8 1294 1169 1296 1421 1166 1049 1167 1292
8 1293 1168 1050 1172 1422 1295 1171 1303
8 1294 1169 1049 1166 1423 1297 1168 1293
8 1422 1295 1171 1303 1301 1170 1302 1435
8 1172 1050 1173 1306 1303 1171 1304 1438
8 1174 1051 1175 1308 1305 1172 1306 1440
8 1175 1052 1176 1309 1306 1173 1307 1441
8 1177 1053 1178 1311 1308 1175 1309 1443
8 1178 1054 1179 1312 1309 1176 1310 1444
8 1180 1055 1181 1314 1311 1178 1312 1446
8 1056 1181 1312 1179 1182 1315 1447 1313
8 1183 1058 1184 1316 1314 1181 1315 1448
8 1319 1186 1084 1214 1451 1317 1213 1350
8 1319 1186 1318 1453 1208 1081 1187 1321
8 1321 1187 1320 1456 1188 1063 1189 1323
8 1344 1208 1321 1457 1209 1082 1188 1322
8 1322 1188 1323 1458 1190 1064 1191 1325
8 1323 1189 1324 1459 1191 1065 1192 1326
8 1191 1325 1193 1067 1326 1460 1327 1194
8 1242 1374 1243 1119 1328 1462 1335 1204
8 1330 1199 1333 1465 1196 1075 1200 1331
8 1132 1249 1330 1199 1243 1375 1465 1333
8 1332 1201 1077 1198 1466 1334 1200 1331
8 1215 1099 1201 1332 1352 1227 1334 1466
8 1119 1243 1333 1203 1204 1335 1470 1338
8 1333 1203 1338 1470 1200 1080 1202 1334
8 1227 1111 1202 1334 1360 1235 1338 1470
8 1328 1462 1335 1204 1205 1336 1471 1339
8 1337 1206 1340 1472 1464 1329 1205 1336
8 1346 1211 1342 1479 1210 1083 1207 1343
8 1346 1211 1115 1228 1479 1342 1239 1361
8 1348 1212 1084 1214 1479 1342 1207 1343
8 1480 1343 1208 1344 1345 1210 1082 1209
8 1351 1214 1319 1454 1480 1343 1208 1344
8 1481 1346 1210 1345 1359 1228 1100 1225
8 1348 1212 1347 1483 1214 1084 1213 1350
8 1216 1103 1227 1352 1353 1230 1360 1488
8 1217 1104 1230 1353 1354 1231 1363 1489
8 1490 1364 1232 1355 1354 1231 1106 1219
8 1220 1109 1232 1355 1356 1234 1365 1491
8 1221 1110 1234 1356 1357 1233 1366 1492
8 1224 1107 1233 1357 1358 1229 1362 1493
8 1226 1102 1229 1358 1359 1228 1362 1493
8 1230 1112 1235 1360 1363 1236 1367 1496
8 1361 1239 1115 1228 1497 1371 1240 1362
8 1366 1241 1372 1498 1233 1117 1240 1362
8 1364 1237 1113 1231 1499 1368 1236 1363
8 1364 1237 1368 1499 1232 1114 1238 1365
8 1234 1118 1238 1365 1366 1241 1369 1500
8 1507 1373 1242 1374 1388 1266 1138 1255
8 1508 1374 1243 1375 1380 1255 1132 1249
8 1376 1254 1387 1509 1245 1129 1258 1377
8 1275 1149 1276 1405 1376 1254 1387 1509
8 1377 1258 1391 1510 1248 1130 1259 1379
8 1511 1390 1257 1378 1379 1259 1131 1247
8 1383 1260 1134 1251 1511 1390 1257 1378
8 1252 1135 1256 1385 1380 1255 1388 1512
8 1261 1381 1513 1394 1133 1250 1382 1262
8 1135 1252 1384 1263 1261 1381 1513 1394
8 1382 1262 1134 1251 1514 1393 1260 1383
8 1253 1136 1263 1384 1386 1264 1395 1516
8 1253 1136 1264 1386 1385 1256 1389 1517
8 1387 1265 1397 1519 1258 1141 1269 1391
8 1276 1150 1277 1406 1387 1265 1397 1519
8 1256 1139 1267 1389 1388 1266 1398 1520
8 1264 1147 1274 1396 1389 1267 1399 1521
8 1392 1270 1143 1260 1522 1400 1268 1390
8 1390 1268 1142 1259 1522 1400 1269 1391
8 1392 1270 1401 1523 1260 1143 1271 1393
8 1272 1394 1524 1402 1145 1262 1393 1271
8 1395 1273 1146 1263 1524 1402 1272 1394
8 1273 1395 1264 1147 1403 1526 1396 1274
8 1405 1276 1160 1282 1534 1406 1286 1411
8 1414 1287 1407 1535 1286 1162 1277 1406
8 1279 1159 1283 1408 1409 1285 1412 1537
8 1418 1292 1412 1537 1290 1165 1283 1408
8 1280 1158 1285 1409 1410 1284 1413 1538
8 1410 1284 1413 1538 1282 1160 1286 1411
8 1285 1163 1289 1412 1413 1288 1417 1540
8 1421 1296 1417 1540 1292 1167 1289 1412
8 1414 1287 1162 1286 1541 1416 1288 1413
8 1420 1294 1421 1545 1291 1166 1292 1418
8 1419 1293 1172 1305 1546 1422 1303 1437
8 1420 1294 1166 1291 1547 1423 1293 1419
8 1294 1169 1297 1423 1421 1296 1425 1548
8 1423 1297 1168 1293 1549 1424 1295 1422
8 1301 1170 1298 1427 1422 1295 1424 1549
8 1432 1300 1428 1554 1301 1170 1298 1427
8 1431 1299 1428 1554 1560 1430 1300 1432
8 1563 1433 1300 1432 1435 1302 1170 1301
8 1546 1422 1303 1437 1434 1301 1435 1565
8 1303 1171 1304 1438 1435 1302 1436 1566
8 1305 1172 1306 1440 1437 1303 1438 1568
8 1306 1173 1307 1441 1438 1304 1439 1569
8 1308 1175 1309 1443 1440 1306 1441 1571
8 1309 1176 1310 1444 1441 1307 1442 1572
8 1311 1178 1312 1446 1443 1309 1444 1574
8 1179 1312 1444 1310 1313 1447 1575 1445
8 1314 1181 1315 1448 1446 1312 1447 1576
8 1350 1213 1349 1486 1451 1317 1449 1579
8 1451 1317 1450 1581 1319 1186 1318 1453
8 1454 1319 1214 1351 1582 1451 1350 1487
8 1453 1318 1452 1584 1321 1187 1320 1456
8 1454 1319 1453 1585 1344 1208 1321 1457
8 1456 1320 1455 1586 1323 1189 1324 1459
8 1457 1321 1456 1587 1322 1188 1323 1458
8 1458 1323 1459 1588 1325 1191 1326 1460
8 1205 1336 1464 1329 1328 1462 1590 1461
8 1507 1373 1461 1590 1374 1242 1328 1462
8 1508 1374 1462 1591 1375 1243 1335 1467
8 1337 1206 1329 1464 1473 1341 1463 1594
8 1375 1243 1335 1467 1465 1333 1470 1596
8 1465 1333 1470 1596 1331 1200 1334 1466
8 1352 1227 1334 1466 1488 1360 1470 1596
8 1591 1462 1336 1468 1467 1335 1471 1597
8 1469 1337 1472 1598 1595 1464 1336 1468
8 1471 1339 1474 1600 1335 1204 1338 1470
8 1600 1474 1367 1496 1470 1338 1235 1360
8 1336 1205 1340 1472 1471 1339 1475 1601
8 1337 1206 1341 1473 1472 1340 1476 1602
8 1495 1370 1478 1609 1361 1239 1342 1479
8 1348 1212 1342 1479 1483 1347 1478 1609
8 1481 1346 1479 1610 1345 1210 1343 1480
8 1481 1346 1228 1359 1610 1479 1361 1494
8 1484 1348 1214 1351 1610 1479 1343 1480
8 1483 1347 1482 1612 1350 1213 1349 1486
8 1484 1348 1483 1613 1351 1214 1350 1487
8 1353 1230 1360 1488 1489 1363 1496 1616
8 1490 1364 1231 1354 1617 1499 1363 1489
8 1490 1364 1499 1617 1355 1232 1365 1491
8 1356 1234 1365 1491 1492 1366 1500 1619
8 1492 1366 1498 1620 1357 1233 1362 1493
8 1494 1361 1228 1359 1621 1497 1362 1493
8 1495 1370 1239 1361 1622 1504 1371 1497
8 1363 1236 1367 1496 1499 1368 1501 1623
8 1497 1371 1240 1362 1624 1505 1372 1498
8 1625 1503 1372 1498 1500 1369 1241 1366
8 1365 1238 1368 1499 1500 1369 1502 1626
8 1520 1398 1506 1633 1388 1266 1373 1507
8 1634 1507 1374 1508 1512 1388 1255 1380
8 1509 1387 1519 1635 1377 1258 1391 1510
8 1405 1276 1406 1534 1509 1387 1519 1635
8 1515 1392 1260 1383 1636 1522 1390 1511
8 1511 1390 1259 1379 1636 1522 1391 1510
8 1385 1256 1389 1517 1512 1388 1520 1637
8 1513 1394 1262 1382 1638 1524 1393 1514
8 1395 1516 1638 1524 1263 1384 1513 1394
8 1515 1392 1523 1639 1383 1260 1393 1514
8 1516 1395 1526 1640 1386 1264 1396 1518
8 1386 1264 1396 1518 1517 1389 1521 1641
8 1519 1397 1527 1643 1391 1269 1400 1522
8 1535 1407 1527 1643 1406 1277 1397 1519
8 1389 1267 1399 1521 1520 1398 1528 1644
8 1645 1529 1399 1521 1525 1404 1274 1396
8 1392 1270 1400 1522 1523 1401 1531 1646
8 1524 1402 1271 1393 1648 1532 1401 1523
8 1403 1526 1648 1532 1273 1395 1524 1402
8 1525 1404 1274 1396 1649 1533 1403 1526
8 1539 1414 1535 1657 1411 1286 1406 1534
8 1542 1415 1536 1658 1414 1287 1407 1535
8 1409 1285 1412 1537 1538 1413 1540 1660
8 1545 1421 1540 1660 1418 1292 1412 1537
8 1539 1414 1286 1411 1661 1541 1413 1538
8 1540 1417 1544 1663 1413 1288 1416 1541
8 1421 1296 1425 1548 1540 1417 1544 1663
8 1542 1415 1287 1414 1664 1543 1416 1541
8 1420 1294 1423 1547 1545 1421 1548 1666
8 1547 1423 1293 1419 1667 1549 1422 1546
8 1434 1301 1427 1553 1546 1422 1549 1667
8 1423 1297 1424 1549 1548 1425 1550 1668
8 1551 1426 1550 1668 1427 1298 1424 1549
8 1551 1426 1298 1427 1671 1552 1428 1554
8 1562 1432 1554 1674 1434 1301 1427 1553
8 1431 1299 1429 1558 1554 1428 1555 1675
8 1431 1299 1430 1560 1558 1429 1557 1680
8 1560 1430 1300 1432 1683 1559 1433 1563
8 1561 1431 1554 1674 1684 1560 1432 1562
8 1685 1563 1432 1562 1565 1435 1301 1434
8 1435 1302 1436 1566 1563 1433 1564 1686
8 1437 1303 1438 1568 1565 1435 1566 1688
8 1438 1304 1439 1569 1566 1436 1567 1689
8 1440 1306 1441 1571 1568 1438 1569 1691
8 1441 1307 1442 1572 1569 1439 1570 1692
8 1443 1309 1444 1574 1571 1441 1572 1694
8 1310 1444 1572 1442 1445 1575 1695 1573
8 1446 1312 1447 1576 1574 1444 1575 1696
8 1486 1349 1485 1614 1579 1449 1577 1699
8 1451 1317 1449 1579 1581 1450 1578 1701
8 1487 1350 1486 1615 1582 1451 1579 1702
8 1581 1450 1580 1704 1453 1318 1452 1584
8 1582 1451 1581 1705 1454 1319 1453 1585
8 1584 1452 1583 1706 1456 1320 1455 1586
8 1585 1453 1584 1707 1457 1321 1456 1587
8 1587 1456 1586 1708 1458 1323 1459 1588
8 1633 1506 1589 1710 1507 1373 1461 1590
8 1464 1329 1461 1590 1594 1463 1589 1710
8 1468 1336 1462 1591 1595 1464 1590 1711
8 1634 1507 1590 1711 1508 1374 1462 1591
8 1473 1341 1463 1594 1603 1477 1593 1716
8 1469 1337 1464 1595 1599 1473 1594 1717
8 1471 1597 1467 1335 1600 1718 1596 1470
8 1718 1600 1496 1616 1596 1470 1360 1488
8 1336 1468 1597 1471 1472 1598 1719 1601
8 1469 1337 1473 1599 1598 1472 1602 1720
8 1722 1604 1501 1623 1600 1474 1367 1496
8 1475 1601 1471 1339 1604 1722 1600 1474
8 1602 1476 1605 1723 1472 1340 1475 1601
8 1476 1602 1724 1606 1341 1473 1603 1477
8 1483 1347 1478 1609 1612 1482 1608 1731
8 1495 1370 1504 1622 1609 1478 1608 1731
8 1618 1495 1609 1732 1494 1361 1479 1610
8 1484 1348 1479 1610 1613 1483 1609 1732
8 1486 1349 1482 1612 1614 1485 1611 1733
8 1613 1483 1612 1734 1487 1350 1486 1615
8 1489 1363 1496 1616 1617 1499 1623 1736
8 1491 1365 1499 1617 1619 1500 1626 1737
8 1618 1495 1361 1494 1738 1622 1497 1621
8 1739 1625 1498 1620 1619 1500 1366 1492
8 1621 1497 1362 1493 1740 1624 1498 1620
8 1742 1631 1504 1622 1624 1505 1371 1497
8 1743 1628 1502 1626 1623 1501 1368 1499
8 1744 1630 1505 1624 1625 1503 1372 1498
8 1745 1629 1503 1625 1626 1502 1369 1500
8 1520 1398 1528 1644 1633 1506 1632 1751
8 1637 1520 1633 1752 1512 1388 1507 1634
8 1635 1519 1643 1753 1510 1391 1522 1636
8 1657 1535 1643 1753 1534 1406 1519 1635
8 1515 1392 1522 1636 1639 1523 1646 1754
8 1517 1389 1521 1641 1637 1520 1644 1755
8 1524 1638 1756 1648 1393 1514 1639 1523
8 1640 1526 1395 1516 1756 1648 1524 1638
8 1642 1525 1396 1518 1757 1649 1526 1640
8 1758 1645 1521 1641 1642 1525 1396 1518
8 1646 1531 1400 1522 1760 1650 1527 1643
8 1535 1407 1536 1658 1643 1527 1650 1760
8 1521 1399 1529 1645 1644 1528 1651 1761
8 1647 1530 1652 1762 1525 1404 1529 1645
8 1401 1523 1648 1532 1531 1646 1763 1655
8 1525 1404 1533 1649 1647 1530 1654 1765
8 1533 1649 1766 1656 1403 1526 1648 1532
8 1662 1542 1658 1774 1539 1414 1535 1657
8 1542 1415 1543 1664 1658 1536 1659 1775
8 1660 1540 1663 1777 1538 1413 1541 1661
8 1545 1421 1548 1666 1660 1540 1663 1777
8 1662 1542 1414 1539 1778 1664 1541 1661
8 1664 1543 1416 1541 1779 1665 1544 1663
8 1548 1425 1550 1668 1663 1544 1665 1779
8 1547 1423 1549 1667 1666 1548 1668 1781
8 1670 1551 1668 1781 1553 1427 1549 1667
8 1551 1426 1552 1671 1668 1550 1669 1782
8 1670 1551 1427 1553 1784 1671 1554 1674
8 1675 1555 1672 1785 1554 1428 1552 1671
8 1678 1556 1673 1789 1558 1429 1555 1675
8 1561 1431 1558 1681 1674 1554 1675 1790
8 1794 1677 1556 1678 1680 1557 1429 1558
8 1560 1430 1559 1683 1680 1557 1679 1797
8 1561 1431 1560 1684 1681 1558 1680 1798
8 1563 1433 1564 1686 1683 1559 1682 1800
8 1684 1560 1432 1562 1801 1683 1563 1685
8 1565 1435 1566 1688 1685 1563 1686 1802
8 1566 1436 1567 1689 1686 1564 1687 1803
8 1568 1438 1569 1691 1688 1566 1689 1805
8 1569 1439 1570 1692 1689 1567 1690 1806
8 1571 1441 1572 1694 1691 1569 1692 1808
8 1442 1572 1692 1570 1573 1695 1809 1693
8 1574 1444 1575 1696 1694 1572 1695 1810
8 1614 1485 1592 1712 1699 1577 1697 1813
8 1579 1449 1577 1699 1701 1578 1698 1815
8 1615 1486 1614 1735 1702 1579 1699 1816
8 1701 1578 1700 1818 1581 1450 1580 1704
8 1582 1451 1579 1702 1705 1581 1701 1819
8 1704 1580 1703 1820 1584 1452 1583 1706
8 1705 1581 1704 1821 1585 1453 1584 1707
8 1707 1584 1706 1822 1587 1456 1586 1708
8 1710 1589 1506 1633 1824 1709 1632 1751
8 1594 1463 1589 1710 1716 1593 1709 1824
8 1752 1633 1710 1825 1634 1507 1590 1711
8 1595 1464 1590 1711 1717 1594 1710 1825
8 1830 1714 1592 1712 1733 1611 1485 1614
8 1603 1477 1593 1716 1725 1607 1715 1834
8 1599 1473 1594 1717 1721 1603 1716 1835
8 1837 1722 1623 1736 1718 1600 1496 1616
8 1719 1601 1722 1837 1597 1471 1600 1718
8 1602 1720 1598 1472 1723 1838 1719 1601
8 1720 1602 1473 1599 1839 1724 1603 1721
8 1723 1605 1726 1840 1601 1475 1604 1722
8 1840 1726 1628 1743 1722 1604 1501 1623
8 1724 1606 1727 1841 1602 1476 1605 1723
8 1725 1607 1728 1842 1603 1477 1606 1724
8 1612 1482 1608 1731 1733 1611 1730 1849
8 1741 1627 1730 1849 1622 1504 1608 1731
8 1613 1483 1609 1732 1734 1612 1731 1850
8 1618 1495 1622 1738 1732 1609 1731 1850
8 1615 1486 1612 1734 1735 1614 1733 1851
8 1852 1743 1626 1737 1736 1623 1499 1617
8 1853 1745 1625 1739 1737 1626 1500 1619
8 1855 1742 1622 1738 1740 1624 1497 1621
8 1856 1744 1624 1740 1739 1625 1498 1620
8 1741 1627 1504 1622 1857 1746 1631 1742
8 1742 1631 1505 1624 1858 1749 1630 1744
8 1859 1747 1629 1745 1743 1628 1502 1626
8 1860 1748 1630 1744 1745 1629 1503 1625
8 1644 1528 1651 1761 1751 1632 1750 1865
8 1637 1520 1644 1755 1752 1633 1751 1866
8 1754 1646 1522 1636 1867 1760 1643 1753
8 1657 1535 1658 1774 1753 1643 1760 1867
8 1639 1523 1646 1754 1756 1648 1763 1868
8 1641 1521 1645 1758 1755 1644 1761 1869
8 1757 1649 1526 1640 1870 1766 1648 1756
8 1642 1525 1649 1757 1759 1647 1765 1871
8 1759 1647 1762 1872 1642 1525 1645 1758
8 1760 1650 1767 1874 1646 1531 1655 1763
8 1658 1536 1659 1775 1760 1650 1767 1874
8 1762 1652 1768 1875 1645 1529 1651 1761
8 1764 1653 1769 1876 1647 1530 1652 1762
8 1656 1766 1877 1773 1532 1648 1763 1655
8 1771 1879 1765 1654 1653 1764 1647 1530
8 1533 1649 1765 1654 1656 1766 1880 1772
8 1662 1542 1664 1778 1774 1658 1775 1887
8 1664 1543 1665 1779 1775 1659 1776 1888
8 1778 1664 1541 1661 1890 1779 1663 1777
8 1666 1548 1668 1781 1777 1663 1779 1890
8 1782 1669 1780 1891 1668 1550 1665 1779
8 1670 1551 1671 1784 1781 1668 1782 1893
8 1671 1552 1672 1785 1782 1669 1783 1894
8 1790 1675 1785 1896 1674 1554 1671 1784
8 1675 1555 1673 1789 1785 1672 1786 1897
8 1792 1676 1788 1903 1678 1556 1673 1789
8 1795 1678 1789 1904 1681 1558 1675 1790
8 1792 1676 1556 1678 1906 1791 1677 1794
8 1680 1557 1679 1797 1794 1677 1793 1909
8 1910 1794 1678 1795 1798 1680 1558 1681
8 1683 1559 1682 1800 1797 1679 1796 1912
8 1684 1560 1683 1801 1798 1680 1797 1913
8 1686 1564 1687 1803 1800 1682 1799 1915
8 1685 1563 1686 1802 1801 1683 1800 1916
8 1688 1566 1689 1805 1802 1686 1803 1917
8 1689 1567 1690 1806 1803 1687 1804 1918
8 1691 1569 1692 1808 1805 1689 1806 1920
8 1692 1570 1693 1809 1806 1690 1807 1921
8 1694 1572 1695 1810 1808 1692 1809 1922
8 1829 1713 1811 1926 1712 1592 1697 1813
8 1813 1697 1812 1928 1699 1577 1698 1815
8 1735 1614 1712 1828 1816 1699 1813 1929
8 1815 1698 1814 1931 1701 1578 1700 1818
8 1702 1579 1699 1816 1819 1701 1815 1932
8 1818 1700 1817 1933 1704 1580 1703 1820
8 1819 1701 1818 1934 1705 1581 1704 1821
8 1821 1704 1820 1935 1707 1584 1706 1822
8 1824 1709 1632 1751 1937 1823 1750 1865
8 1716 1593 1709 1824 1834 1715 1823 1937
8 1825 1710 1633 1752 1938 1824 1751 1866
8 1717 1594 1710 1825 1835 1716 1824 1938
8 1945 1830 1712 1828 1851 1733 1614 1735
8 1830 1714 1831 1946 1712 1592 1713 1829
8 1947 1832 1714 1830 1849 1730 1611 1733
8 1843 1729 1607 1725 1950 1833 1715 1834
8 1721 1603 1716 1835 1836 1725 1834 1951
8 1836 1725 1842 1953 1721 1603 1724 1839
8 1723 1838 1719 1601 1840 1954 1837 1722
8 1954 1840 1743 1852 1837 1722 1623 1736
8 1724 1839 1720 1602 1841 1955 1838 1723
8 1841 1727 1844 1956 1723 1605 1726 1840
8 1956 1844 1747 1859 1840 1726 1628 1743
8 1728 1842 1724 1606 1845 1957 1841 1727
8 1725 1607 1729 1843 1842 1728 1846 1958
8 1741 1627 1746 1857 1849 1730 1848 1965
8 1734 1612 1731 1850 1851 1733 1849 1966
8 1854 1741 1849 1966 1738 1622 1731 1850
8 1967 1859 1745 1853 1852 1743 1626 1737
8 1968 1860 1744 1856 1853 1745 1625 1739
8 1854 1741 1622 1738 1969 1857 1742 1855
8 1855 1742 1624 1740 1970 1858 1744 1856
8 1857 1746 1631 1742 1971 1861 1749 1858
8 1858 1749 1630 1744 1972 1863 1748 1860
8 1859 1747 1862 1973 1745 1629 1748 1860
8 1875 1768 1864 1977 1761 1651 1750 1865
8 1755 1644 1761 1869 1866 1751 1865 1978
8 1867 1760 1874 1979 1754 1646 1763 1868
8 1774 1658 1775 1887 1867 1760 1874 1979
8 1870 1766 1648 1756 1980 1877 1763 1868
8 1872 1762 1875 1981 1758 1645 1761 1869
8 1757 1649 1766 1870 1871 1765 1880 1982
8 1983 1879 1764 1873 1871 1765 1647 1759
8 1873 1764 1876 1984 1759 1647 1762 1872
8 1877 1773 1655 1763 1986 1881 1767 1874
8 1775 1659 1776 1888 1874 1767 1881 1986
8 1876 1769 1882 1987 1762 1652 1768 1875
8 1878 1770 1883 1988 1764 1653 1769 1876
8 1880 1772 1656 1766 1989 1886 1773 1877
8 1878 1770 1653 1764 1990 1884 1771 1879
8 1765 1654 1772 1880 1879 1771 1885 1991
8 1778 1664 1779 1890 1887 1775 1888 1997
8 1998 1889 1776 1888 1891 1780 1665 1779
8 1893 1782 1891 2000 1781 1668 1779 1890
8 1894 1783 1892 2001 1782 1669 1780 1891
8 1784 1671 1785 1896 1893 1782 1894 2003
8 1897 1786 1895 2004 1785 1672 1783 1894
8 1790 1675 1789 1904 1896 1785 1897 2006
8 1901 1787 1898 2007 1789 1673 1786 1897
8 1903 1788 1900 2013 1789 1673 1787 1901
8 1792 1676 1791 1906 1903 1788 1902 2016
8 1907 1792 1903 2017 1795 1678 1789 1904
8 1906 1791 1677 1794 2019 1905 1793 1909
8 1907 1792 1678 1795 2020 1906 1794 1910
8 1797 1679 1796 1912 1909 1793 1908 2022
8 1798 1680 1797 1913 1910 1794 1909 2023
8 1800 1682 1799 1915 1912 1796 1911 2025
8 1801 1683 1800 1916 1913 1797 1912 2026
8 1803 1687 1804 1918 1915 1799 1914 2028
8 1802 1686 1803 1917 1916 1800 1915 2029
8 1805 1689 1806 1920 1917 1803 1918 2030
8 1806 1690 1807 1921 1918 1804 1919 2031
8 1808 1692 1809 1922 1920 1806 1921 2032
8 1939 1826 1924 2037 1829 1713 1811 1926
8 1926 1811 1925 2039 1813 1697 1812 1928
8 1944 1829 1926 2040 1828 1712 1813 1929
8 1928 1812 1927 2042 1815 1698 1814 1931
8 1929 1813 1928 2043 1816 1699 1815 1932
8 1931 1814 1930 2044 1818 1700 1817 1933
8 1932 1815 1931 2045 1819 1701 1818 1934
8 1934 1818 1933 2046 1821 1704 1820 1935
8 2048 1936 1823 1937 1977 1864 1750 1865
8 1950 1833 1715 1834 2048 1936 1823 1937
8 1938 1824 1751 1866 2049 1937 1865 1978
8 1835 1716 1824 1938 1951 1834 1937 2049
8 1939 1826 1713 1829 2053 1942 1831 1946
8 1940 1827 1923 2035 2053 1942 1826 1939
8 1945 1830 1946 2058 1828 1712 1829 1944
8 2059 1947 1830 1945 1966 1849 1733 1851
8 1947 1832 1730 1849 2060 1948 1848 1965
8 1947 1832 1948 2060 1830 1714 1831 1946
8 1959 1847 1729 1843 2063 1949 1833 1950
8 1952 1843 1725 1836 2064 1950 1834 1951
8 1836 1725 1843 1952 1953 1842 1958 2066
8 1953 1842 1957 2067 1839 1724 1841 1955
8 1841 1955 1838 1723 1956 2068 1954 1840
8 2068 1956 1859 1967 1954 1840 1743 1852
8 1956 1844 1960 2069 1859 1747 1862 1973
8 1845 1957 1841 1727 1960 2069 1956 1844
8 1728 1842 1957 1845 1846 1958 2071 1961
8 1962 2072 1959 1847 1846 1958 1843 1729
8 1971 1861 1964 2077 1857 1746 1848 1965
8 1854 1741 1857 1969 1966 1849 1965 2078
8 1967 1859 1973 2079 1853 1745 1860 1968
8 1970 1858 1744 1856 2080 1972 1860 1968
8 1969 1857 1742 1855 2081 1971 1858 1970
8 1971 1861 1749 1858 2082 1974 1863 1972
8 1973 1862 1975 2083 1860 1748 1863 1972
8 1987 1882 1976 2086 1875 1768 1864 1977
8 1981 1875 1977 2087 1869 1761 1865 1978
8 1980 1877 1763 1868 2088 1986 1874 1979
8 1887 1775 1888 1997 1979 1874 1986 2088
8 1880 1982 2089 1989 1766 1870 1980 1877
8 1984 1876 1987 2090 1872 1762 1875 1981
8 1765 1871 1983 1879 1880 1982 2091 1991
8 1985 1878 1764 1873 2092 1990 1879 1983
8 1985 1878 1988 2093 1873 1764 1876 1984
8 2094 1992 1881 1986 1998 1889 1776 1888
8 1986 1881 1992 2094 1877 1773 1886 1989
8 1988 1883 1993 2095 1876 1769 1882 1987
8 1878 1770 1884 1990 1988 1883 1994 2096
8 1991 1885 1772 1880 2097 1996 1886 1989
8 1879 1771 1885 1991 1990 1884 1995 2098
8 2103 1998 1888 1997 2000 1891 1779 1890
8 2104 1999 1889 1998 2001 1892 1780 1891
8 2003 1894 2001 2106 1893 1782 1891 2000
8 2004 1895 2002 2107 1894 1783 1892 2001
8 2006 1897 2004 2109 1896 1785 1894 2003
8 2007 1898 2005 2110 1897 1786 1895 2004
8 2014 1901 2007 2112 1904 1789 1897 2006
8 2011 1899 2008 2113 1901 1787 1898 2007
8 2119 2010 1899 2011 2013 1900 1787 1901
8 2016 1902 2012 2122 1903 1788 1900 2013
8 2017 1903 2013 2123 1904 1789 1901 2014
8 1906 1791 1905 2019 2016 1902 2015 2125
8 1907 1792 1906 2020 2017 1903 2016 2126
8 1909 1793 1908 2022 2019 1905 2018 2128
8 2020 1906 1794 1910 2129 2019 1909 2023
8 1912 1796 1911 2025 2022 1908 2021 2131
8 1913 1797 1912 2026 2023 1909 2022 2132
8 1915 1799 1914 2028 2025 1911 2024 2134
8 1916 1800 1915 2029 2026 1912 2025 2135
8 1918 1804 1919 2031 2028 1914 2027 2136
8 1917 1803 1918 2030 2029 1915 2028 2137
8 1920 1806 1921 2032 2030 1918 2031 2138
8 1940 1827 1941 2054 2035 1923 2033 2140
8 2035 1923 2034 2143 1939 1826 1924 2037
8 2037 1924 2036 2146 1926 1811 1925 2039
8 2051 1939 2037 2147 1944 1829 1926 2040
8 2039 1925 2038 2149 1928 1812 1927 2042
8 2040 1926 2039 2150 1929 1813 1928 2043
8 2042 1927 2041 2151 1931 1814 1930 2044
8 2043 1928 2042 2152 1932 1815 1931 2045
8 2045 1931 2044 2153 1934 1818 1933 2046
8 2155 2047 1936 2048 2086 1976 1864 1977
8 2063 1949 1833 1950 2155 2047 1936 2048
8 2156 2048 1937 2049 2087 1977 1865 1978
8 2064 1950 1834 1951 2156 2048 1937 2049
8 2051 1939 1829 1944 2160 2053 1946 2058
8 2052 1940 2035 2144 2160 2053 1939 2051
8 2053 1942 1831 1946 2163 2057 1948 2060
8 2055 1943 1827 1940 2163 2057 1942 2053
8 2055 1943 2056 2164 1940 1827 1941 2054
8 2059 1947 1849 1966 2167 2060 1965 2078
8 2059 1947 2060 2167 1945 1830 1946 2058
8 2077 1964 2061 2168 1965 1848 1948 2060
8 2070 1963 1847 1959 2170 2062 1949 2063
8 2065 1959 1843 1952 2171 2063 1950 2064
8 2173 2072 1958 2066 2065 1959 1843 1952
8 1953 1842 1958 2066 2067 1957 2071 2174
8 2068 1956 2069 2175 1967 1859 1973 2079
8 2067 1957 2069 2175 1955 1841 1956 2068
8 1845 1957 2069 1960 1961 2071 2176 2073
8 2069 1960 2073 2176 1973 1862 1975 2083
8 2070 1963 2075 2177 1959 1847 1962 2072
8 1846 1958 2071 1961 1962 2072 2178 2074
8 2077 1964 1861 1971 2182 2076 1974 2082
8 2081 1971 2077 2183 1969 1857 1965 2078
8 2079 1973 2083 2184 1968 1860 1972 2080
8 2081 1971 1858 1970 2185 2082 1972 2080
8 2083 1975 2084 2186 1972 1863 1974 2082
8 2086 1976 1882 1987 2189 2085 1993 2095
8 2090 1987 2086 2190 1981 1875 1977 2087
8 2191 2094 1986 2088 2103 1998 1888 1997
8 2088 1986 2094 2191 1980 1877 1989 2089
8 1991 2091 2192 2097 1880 1982 2089 1989
8 2093 1988 2095 2193 1984 1876 1987 2090
8 1879 1983 2092 1990 1991 2091 2194 2098
8 1985 1878 1990 2092 2093 1988 2096 2195
8 2097 1996 1886 1989 2196 2099 1992 2094
8 2196 2099 1992 2094 2104 1999 1889 1998
8 1994 2096 1988 1883 2100 2197 2095 1993
8 2096 1994 1884 1990 2198 2101 1995 2098
8 1995 2098 2199 2102 1885 1991 2097 1996
8 2203 2104 1998 2103 2106 2001 1891 2000
8 2107 2002 2105 2204 2001 1892 1999 2104
8 2109 2004 2107 2206 2003 1894 2001 2106
8 2110 2005 2108 2207 2004 1895 2002 2107
8 2112 2007 2110 2209 2006 1897 2004 2109
8 2113 2008 2111 2210 2007 1898 2005 2110
8 2120 2011 2113 2212 2014 1901 2007 2112
8 2117 2009 2114 2213 2011 1899 2008 2113
8 2219 2116 2009 2117 2119 2010 1899 2011
8 2222 2118 2010 2119 2122 2012 1900 2013
8 2223 2119 2011 2120 2123 2013 1901 2014
8 2016 1902 2015 2125 2122 2012 2121 2225
8 2126 2016 2122 2226 2017 1903 2013 2123
8 2019 1905 2018 2128 2125 2015 2124 2228
8 2020 1906 2019 2129 2126 2016 2125 2229
8 2022 1908 2021 2131 2128 2018 2127 2231
8 2023 1909 2022 2132 2129 2019 2128 2232
8 2025 1911 2024 2134 2131 2021 2130 2234
8 2026 1912 2025 2135 2132 2022 2131 2235
8 1914 2028 2134 2024 2027 2136 2236 2133
8 2029 1915 2028 2137 2135 2025 2134 2237
8 2030 1918 2031 2138 2137 2028 2136 2238
8 2157 2050 2139 2240 2054 1941 2033 2140
8 2052 1940 2054 2161 2144 2035 2140 2242
8 2140 2033 2141 2243 2035 1923 2034 2143
8 2143 2034 2142 2246 2037 1924 2036 2146
8 2144 2035 2143 2247 2051 1939 2037 2147
8 2146 2036 2145 2249 2039 1925 2038 2149
8 2147 2037 2146 2250 2040 1926 2039 2150
8 2149 2038 2148 2251 2042 1927 2041 2151
8 2150 2039 2149 2252 2043 1928 2042 2152
8 2152 2042 2151 2253 2045 1931 2044 2153
8 2255 2154 2047 2155 2189 2085 1976 2086
8 2170 2062 1949 2063 2255 2154 2047 2155
8 2256 2155 2048 2156 2190 2086 1977 2087
8 2171 2063 1950 2064 2256 2155 2048 2156
8 2258 2159 2050 2157 2164 2056 1941 2054
8 2160 2053 1946 2058 2262 2163 2060 2167
8 2162 2055 1940 2052 2262 2163 2053 2160
8 2162 2055 2164 2263 2052 1940 2054 2161
8 2163 2057 1948 2060 2264 2165 2061 2168
8 2055 1943 2057 2163 2164 2056 2165 2264
8 2182 2076 2166 2268 2077 1964 2061 2168
8 2183 2077 2168 2269 2078 1965 2060 2167
8 2070 1963 2062 2170 2177 2075 2169 2271
8 2172 2070 1959 2065 2272 2170 2063 2171
8 2172 2070 2177 2273 2065 1959 2072 2173
8 2066 1958 2072 2173 2174 2071 2178 2274
8 2067 1957 2071 2174 2175 2069 2176 2275
8 2175 2069 2176 2275 2079 1973 2083 2184
8 2071 1961 2074 2178 2176 2073 2179 2276
8 2176 2073 2179 2276 2083 1975 2084 2186
8 2072 1962 2075 2177 2178 2074 2180 2277
8 2182 2076 1974 2082 2280 2181 2084 2186
8 2183 2077 1971 2081 2281 2182 2082 2185
8 2184 2083 2186 2282 2080 1972 2082 2185
8 2189 2085 1993 2095 2285 2188 2100 2197
8 2190 2086 1987 2090 2286 2189 2095 2193
8 2192 2097 1989 2089 2287 2196 2094 2191
8 2287 2196 2094 2191 2203 2104 1998 2103
8 2194 2098 1991 2091 2288 2199 2097 2192
8 2195 2096 2197 2289 2093 1988 2095 2193
8 2096 2195 2290 2198 1990 2092 2194 2098
8 2097 1996 2099 2196 2199 2102 2200 2291
8 2196 2099 1999 2104 2291 2200 2105 2204
8 2100 2197 2292 2201 1994 2096 2198 2101
8 1995 2098 2198 2101 2102 2199 2293 2202
8 2206 2107 2204 2296 2106 2001 2104 2203
8 2207 2108 2205 2297 2107 2002 2105 2204
8 2209 2110 2207 2299 2109 2004 2107 2206
8 2210 2111 2208 2300 2110 2005 2108 2207
8 2212 2113 2210 2302 2112 2007 2110 2209
8 2213 2114 2211 2303 2113 2008 2111 2210
8 2220 2117 2213 2305 2120 2011 2113 2212
8 2216 2115 2214 2306 2117 2009 2114 2213
8 2216 2115 2009 2117 2311 2217 2116 2219
8 2219 2116 2010 2119 2314 2218 2118 2222
8 2315 2219 2117 2220 2223 2119 2011 2120
8 2122 2012 2121 2225 2222 2118 2221 2317
8 2318 2222 2119 2223 2226 2122 2013 2123
8 2125 2015 2124 2228 2225 2121 2224 2320
8 2126 2016 2125 2229 2226 2122 2225 2321
8 2128 2018 2127 2231 2228 2124 2227 2323
8 2129 2019 2128 2232 2229 2125 2228 2324
8 2131 2021 2130 2234 2231 2127 2230 2326
8 2132 2022 2131 2235 2232 2128 2231 2327
8 2134 2024 2133 2236 2234 2130 2233 2328
8 2135 2025 2134 2237 2235 2131 2234 2329
8 2137 2028 2136 2238 2237 2134 2236 2330
8 2157 2050 2158 2259 2240 2139 2239 2332
8 2257 2157 2240 2334 2161 2054 2140 2242
8 2240 2139 2241 2335 2140 2033 2141 2243
8 2242 2140 2243 2337 2144 2035 2143 2247
8 2243 2141 2244 2338 2143 2034 2142 2246
8 2246 2142 2245 2341 2146 2036 2145 2249
8 2247 2143 2246 2342 2147 2037 2146 2250
8 2249 2145 2248 2343 2149 2038 2148 2251
8 2250 2146 2249 2344 2150 2039 2149 2252
8 2252 2149 2251 2345 2152 2042 2151 2253
8 2169 2271 2347 2254 2062 2170 2255 2154
8 2189 2085 2188 2285 2255 2154 2254 2347
8 2348 2255 2155 2256 2286 2189 2086 2190
8 2272 2170 2063 2171 2348 2255 2155 2256
8 2349 2258 2157 2257 2263 2164 2054 2161
8 2258 2159 2261 2351 2157 2050 2158 2259
8 2258 2159 2056 2164 2351 2261 2165 2264
8 2262 2163 2060 2167 2355 2264 2168 2269
8 2162 2055 2163 2262 2263 2164 2264 2355
8 2357 2266 2165 2264 2268 2166 2061 2168
8 2268 2166 2076 2182 2361 2267 2181 2280
8 2281 2182 2268 2362 2183 2077 2168 2269
8 2271 2169 2270 2364 2177 2075 2180 2277
8 2172 2070 2170 2272 2273 2177 2271 2365
8 2072 2173 2274 2178 2177 2273 2366 2277
8 2071 2174 2275 2176 2178 2274 2367 2276
8 2275 2176 2276 2367 2184 2083 2186 2282
8 2283 2187 2084 2186 2368 2278 2179 2276
8 2178 2074 2180 2277 2276 2179 2278 2368
8 2283 2187 2279 2370 2186 2084 2181 2280
8 2281 2182 2082 2185 2371 2280 2186 2282
8 2188 2285 2374 2284 2100 2197 2292 2201
8 2286 2189 2095 2193 2375 2285 2197 2289
8 2192 2097 2196 2287 2288 2199 2291 2376
8 2287 2196 2104 2203 2376 2291 2204 2296
8 2194 2098 2199 2288 2290 2198 2293 2377
8 2289 2197 2096 2195 2378 2292 2198 2290
8 2291 2200 2105 2204 2379 2294 2205 2297
8 2199 2102 2200 2291 2293 2202 2294 2379
8 2198 2101 2202 2293 2292 2201 2295 2380
8 2299 2207 2297 2383 2206 2107 2204 2296
8 2300 2208 2298 2384 2207 2108 2205 2297
8 2302 2210 2300 2386 2209 2110 2207 2299
8 2303 2211 2301 2387 2210 2111 2208 2300
8 2305 2213 2303 2389 2212 2113 2210 2302
8 2306 2214 2304 2390 2213 2114 2211 2303
8 2310 2216 2306 2392 2220 2117 2213 2305
8 2308 2215 2307 2393 2216 2115 2214 2306
8 2308 2215 2115 2216 2396 2309 2217 2311
8 2310 2216 2117 2220 2398 2311 2219 2315
8 2311 2217 2116 2219 2399 2312 2218 2314
8 2314 2218 2118 2222 2402 2313 2221 2317
8 2315 2219 2119 2223 2403 2314 2222 2318
8 2225 2121 2224 2320 2317 2221 2316 2405
8 2226 2122 2225 2321 2318 2222 2317 2406
8 2228 2124 2227 2323 2320 2224 2319 2408
8 2229 2125 2228 2324 2321 2225 2320 2409
8 2231 2127 2230 2326 2323 2227 2322 2411
8 2232 2128 2231 2327 2324 2228 2323 2412
8 2234 2130 2233 2328 2326 2230 2325 2413
8 2235 2131 2234 2329 2327 2231 2326 2414
8 2237 2134 2236 2330 2329 2234 2328 2415
8 2259 2158 2260 2352 2332 2239 2331 2417
8 2257 2157 2259 2350 2334 2240 2332 2419
8 2240 2139 2239 2332 2335 2241 2333 2420
8 2334 2240 2335 2422 2242 2140 2243 2337
8 2335 2241 2336 2423 2243 2141 2244 2338
8 2337 2243 2338 2425 2247 2143 2246 2342
8 2338 2244 2339 2426 2246 2142 2245 2341
8 2341 2245 2340 2428 2249 2145 2248 2343
8 2342 2246 2341 2429 2250 2146 2249 2344
8 2344 2249 2343 2430 2252 2149 2251 2345
8 2188 2285 2347 2254 2284 2374 2432 2346
8 2347 2254 2346 2432 2271 2169 2270 2364
8 2365 2271 2170 2272 2433 2347 2255 2348
8 2286 2189 2285 2375 2348 2255 2347 2433
8 2349 2258 2351 2435 2257 2157 2259 2350
8 2349 2258 2164 2263 2435 2351 2264 2355
8 2259 2158 2261 2351 2352 2260 2354 2437
8 2356 2265 2354 2437 2264 2165 2261 2351
8 2441 2357 2264 2355 2362 2268 2168 2269
8 2356 2265 2165 2264 2442 2358 2266 2357
8 2443 2359 2266 2357 2361 2267 2166 2268
8 2370 2279 2360 2446 2280 2181 2267 2361
8 2362 2268 2182 2281 2447 2361 2280 2371
8 2180 2277 2368 2278 2270 2364 2449 2363
8 2271 2365 2273 2177 2364 2450 2366 2277
8 2372 2283 2186 2282 2451 2368 2276 2367
8 2178 2274 2367 2276 2277 2366 2451 2368
8 2283 2187 2278 2368 2370 2279 2369 2452
8 2372 2283 2370 2453 2282 2186 2280 2371
8 2284 2374 2455 2373 2201 2292 2380 2295
8 2375 2285 2197 2289 2456 2374 2292 2378
8 2376 2291 2204 2296 2457 2379 2297 2383
8 2288 2199 2291 2376 2377 2293 2379 2457
8 2198 2290 2378 2292 2293 2377 2458 2380
8 2293 2202 2294 2379 2380 2295 2381 2459
8 2384 2298 2381 2459 2297 2205 2294 2379
8 2386 2300 2384 2463 2299 2207 2297 2383
8 2387 2301 2385 2464 2300 2208 2298 2384
8 2389 2303 2387 2466 2302 2210 2300 2386
8 2390 2304 2388 2467 2303 2211 2301 2387
8 2392 2306 2390 2469 2305 2213 2303 2389
8 2393 2307 2391 2470 2306 2214 2304 2390
8 2395 2308 2393 2472 2310 2216 2306 2392
8 2308 2215 2309 2396 2393 2307 2394 2473
8 2395 2308 2216 2310 2475 2396 2311 2398
8 2396 2309 2217 2311 2476 2397 2312 2399
8 2398 2311 2219 2315 2478 2399 2314 2403
8 2399 2312 2218 2314 2479 2400 2313 2402
8 2317 2221 2316 2405 2402 2313 2401 2482
8 2403 2314 2222 2318 2483 2402 2317 2406
8 2320 2224 2319 2408 2405 2316 2404 2485
8 2321 2225 2320 2409 2406 2317 2405 2486
8 2323 2227 2322 2411 2408 2319 2407 2488
8 2324 2228 2323 2412 2409 2320 2408 2489
8 2326 2230 2325 2413 2411 2322 2410 2490
8 2327 2231 2326 2414 2412 2323 2411 2491
8 2329 2234 2328 2415 2414 2326 2413 2492
8 2417 2331 2260 2352 2494 2416 2353 2438
8 2350 2259 2352 2436 2419 2332 2417 2496
8 2332 2239 2331 2417 2420 2333 2418 2497
8 2334 2240 2332 2419 2422 2335 2420 2499
8 2420 2333 2421 2500 2335 2241 2336 2423
8 2422 2335 2423 2502 2337 2243 2338 2425
8 2423 2336 2424 2503 2338 2244 2339 2426
8 2425 2338 2426 2505 2342 2246 2341 2429
8 2426 2339 2427 2506 2341 2245 2340 2428
8 2429 2341 2428 2507 2344 2249 2343 2430
8 2432 2346 2284 2374 2509 2431 2373 2455
8 2432 2346 2431 2509 2364 2270 2363 2449
8 2375 2285 2374 2456 2433 2347 2432 2510
8 2347 2433 2365 2271 2432 2510 2450 2364
8 2350 2259 2351 2435 2436 2352 2437 2514
8 2440 2356 2437 2514 2355 2264 2351 2435
8 2352 2260 2354 2437 2438 2353 2439 2516
8 2356 2265 2358 2442 2437 2354 2439 2516
8 2440 2356 2264 2355 2518 2442 2357 2441
8 2519 2443 2357 2441 2447 2361 2268 2362
8 2443 2359 2444 2520 2357 2266 2358 2442
8 2443 2359 2267 2361 2520 2444 2360 2446
8 2446 2360 2279 2370 2523 2445 2369 2452
8 2453 2370 2446 2524 2371 2280 2361 2447
8 2449 2363 2448 2525 2368 2278 2369 2452
8 2366 2277 2364 2450 2451 2368 2449 2526
8 2372 2283 2368 2451 2453 2370 2452 2527
8 2455 2373 2295 2380 2529 2454 2382 2460
8 2456 2374 2292 2378 2530 2455 2380 2458
8 2377 2293 2379 2457 2458 2380 2459 2531
8 2463 2384 2459 2531 2383 2297 2379 2457
8 2533 2461 2382 2460 2459 2381 2295 2380
8 2464 2385 2461 2533 2384 2298 2381 2459
8 2466 2387 2464 2537 2386 2300 2384 2463
8 2467 2388 2465 2538 2387 2301 2385 2464
8 2469 2390 2467 2540 2389 2303 2387 2466
8 2470 2391 2468 2541 2390 2304 2388 2467
8 2472 2393 2470 2543 2392 2306 2390 2469
8 2393 2307 2394 2473 2470 2391 2471 2544
8 2395 2308 2396 2475 2472 2393 2473 2546
8 2396 2309 2397 2476 2473 2394 2474 2547
8 2475 2396 2311 2398 2549 2476 2399 2478
8 2476 2397 2312 2399 2550 2477 2400 2479
8 2478 2399 2314 2403 2552 2479 2402 2483
8 2479 2400 2313 2402 2553 2480 2401 2482
8 2405 2316 2404 2485 2482 2401 2481 2556
8 2406 2317 2405 2486 2483 2402 2482 2557
8 2408 2319 2407 2488 2485 2404 2484 2559
8 2409 2320 2408 2489 2486 2405 2485 2560
8 2411 2322 2410 2490 2488 2407 2487 2561
8 2412 2323 2411 2491 2489 2408 2488 2562
8 2414 2326 2413 2492 2491 2411 2490 2563
8 2513 2434 2493 2565 2438 2353 2416 2494
8 2496 2417 2352 2436 2567 2494 2438 2515
8 2494 2416 2495 2568 2417 2331 2418 2497
8 2419 2332 2417 2496 2499 2420 2497 2570
8 2497 2418 2498 2571 2420 2333 2421 2500
8 2499 2420 2500 2573 2422 2335 2423 2502
8 2500 2421 2501 2574 2423 2336 2424 2503
8 2502 2423 2503 2576 2425 2338 2426 2505
8 2503 2424 2504 2577 2426 2339 2427 2506
8 2505 2426 2506 2578 2429 2341 2428 2507
8 2509 2431 2373 2455 2580 2508 2454 2529
8 2509 2431 2508 2580 2449 2363 2448 2525
8 2432 2510 2581 2509 2374 2456 2530 2455
8 2432 2510 2450 2364 2509 2581 2526 2449
8 2583 2511 2434 2513 2516 2439 2353 2438
8 2436 2352 2437 2514 2515 2438 2516 2588
8 2440 2356 2442 2518 2514 2437 2516 2588
8 2442 2358 2444 2520 2516 2439 2517 2589
8 2519 2443 2520 2591 2441 2357 2442 2518
8 2519 2443 2361 2447 2591 2520 2446 2524
8 2446 2360 2445 2523 2520 2444 2521 2592
8 2525 2448 2522 2593 2452 2369 2445 2523
8 2524 2446 2370 2453 2594 2523 2452 2527
8 2526 2449 2525 2595 2451 2368 2452 2527
8 2534 2462 2528 2597 2460 2382 2454 2529
8 2530 2455 2380 2458 2598 2529 2460 2532
8 2599 2533 2460 2532 2531 2459 2380 2458
8 2537 2464 2533 2599 2463 2384 2459 2531
8 2534 2462 2382 2460 2601 2535 2461 2533
8 2538 2465 2535 2601 2464 2385 2461 2533
8 2540 2467 2538 2604 2466 2387 2464 2537
8 2541 2468 2539 2605 2467 2388 2465 2538
8 2543 2470 2541 2607 2469 2390 2467 2540
8 2470 2391 2471 2544 2541 2468 2542 2608
8 2472 2393 2473 2546 2543 2470 2544 2610
8 2473 2394 2474 2547 2544 2471 2545 2611
8 2475 2396 2476 2549 2546 2473 2547 2613
8 2476 2397 2477 2550 2547 2474 2548 2614
8 2549 2476 2399 2478 2616 2550 2479 2552
8 2479 2400 2480 2553 2550 2477 2551 2617
8 2552 2479 2402 2483 2619 2553 2482 2557
8 2482 2401 2481 2556 2553 2480 2554 2620
8 2485 2404 2484 2559 2556 2481 2555 2623
8 2486 2405 2485 2560 2557 2482 2556 2624
8 2488 2407 2487 2561 2559 2484 2558 2625
8 2489 2408 2488 2562 2560 2485 2559 2626
8 2491 2411 2490 2563 2562 2488 2561 2627
8 2513 2434 2512 2585 2565 2493 2564 2630
8 2586 2513 2565 2632 2515 2438 2494 2567
8 2565 2493 2566 2633 2494 2416 2495 2568
8 2567 2494 2568 2635 2496 2417 2497 2570
8 2568 2495 2569 2636 2497 2418 2498 2571
8 2570 2497 2571 2638 2499 2420 2500 2573
8 2571 2498 2572 2639 2500 2421 2501 2574
8 2573 2500 2574 2641 2502 2423 2503 2576
8 2574 2501 2575 2642 2503 2424 2504 2577
8 2576 2503 2577 2643 2505 2426 2506 2578
8 2597 2528 2579 2645 2529 2454 2508 2580
8 2580 2508 2579 2645 2525 2448 2522 2593
8 2581 2509 2455 2530 2646 2580 2529 2598
8 2581 2509 2580 2646 2526 2449 2525 2595
8 2583 2511 2582 2648 2513 2434 2512 2585
8 2583 2511 2439 2516 2648 2582 2517 2589
8 2649 2583 2513 2586 2588 2516 2438 2515
8 2589 2517 2444 2520 2653 2587 2521 2592
8 2518 2442 2520 2591 2588 2516 2589 2654
8 2593 2522 2590 2655 2523 2445 2521 2592
8 2524 2446 2523 2594 2591 2520 2592 2656
8 2595 2525 2593 2657 2527 2452 2523 2594
8 2602 2536 2596 2659 2534 2462 2528 2597
8 2600 2534 2597 2660 2532 2460 2529 2598
8 2600 2534 2460 2532 2661 2601 2533 2599
8 2604 2538 2601 2661 2537 2464 2533 2599
8 2602 2536 2462 2534 2663 2603 2535 2601
8 2601 2535 2465 2538 2663 2603 2539 2605
8 2607 2541 2605 2665 2540 2467 2538 2604
8 2608 2542 2606 2666 2541 2468 2539 2605
8 2543 2470 2544 2610 2607 2541 2608 2668
8 2544 2471 2545 2611 2608 2542 2609 2669
8 2546 2473 2547 2613 2610 2544 2611 2671
8 2547 2474 2548 2614 2611 2545 2612 2672
8 2549 2476 2550 2616 2613 2547 2614 2674
8 2550 2477 2551 2617 2614 2548 2615 2675
8 2552 2479 2553 2619 2616 2550 2617 2677
8 2553 2480 2554 2620 2617 2551 2618 2678
8 2557 2482 2556 2624 2619 2553 2620 2680
8 2556 2481 2555 2623 2620 2554 2621 2681
8 2559 2484 2558 2625 2623 2555 2622 2683
8 2560 2485 2559 2626 2624 2556 2623 2684
8 2562 2488 2561 2627 2626 2559 2625 2685
8 2690 2629 2564 2630 2650 2584 2512 2585
8 2586 2513 2585 2651 2632 2565 2630 2691
8 2630 2564 2631 2692 2565 2493 2566 2633
8 2632 2565 2633 2694 2567 2494 2568 2635
8 2633 2566 2634 2695 2568 2495 2569 2636
8 2635 2568 2636 2697 2570 2497 2571 2638
8 2636 2569 2637 2698 2571 2498 2572 2639
8 2638 2571 2639 2700 2573 2500 2574 2641
8 2639 2572 2640 2701 2574 2501 2575 2642
8 2641 2574 2642 2702 2576 2503 2577 2643
8 2597 2528 2596 2659 2645 2579 2644 2704
8 2645 2579 2644 2704 2593 2522 2590 2655
8 2660 2597 2645 2705 2598 2529 2580 2646
8 2646 2580 2645 2705 2595 2525 2593 2657
8 2650 2584 2512 2585 2707 2647 2582 2648
8 2648 2582 2517 2589 2707 2647 2587 2653
8 2649 2583 2648 2708 2586 2513 2585 2651
8 2649 2583 2516 2588 2708 2648 2589 2654
8 2655 2590 2652 2710 2592 2521 2587 2653
8 2654 2589 2520 2591 2711 2653 2592 2656
8 2657 2593 2655 2712 2594 2523 2592 2656
8 2602 2536 2603 2663 2659 2596 2658 2714
8 2662 2602 2659 2715 2600 2534 2597 2660
8 2662 2602 2534 2600 2717 2663 2601 2661
8 2661 2601 2538 2604 2717 2663 2605 2665
8 2666 2606 2664 2718 2605 2539 2603 2663
8 2668 2608 2666 2720 2607 2541 2605 2665
8 2608 2542 2609 2669 2666 2606 2667 2721
8 2610 2544 2611 2671 2668 2608 2669 2723
8 2611 2545 2612 2672 2669 2609 2670 2724
8 2613 2547 2614 2674 2671 2611 2672 2726
8 2614 2548 2615 2675 2672 2612 2673 2727
8 2616 2550 2617 2677 2674 2614 2675 2729
8 2617 2551 2618 2678 2675 2615 2676 2730
8 2619 2553 2620 2680 2677 2617 2678 2732
8 2620 2554 2621 2681 2678 2618 2679 2733
8 2624 2556 2623 2684 2680 2620 2681 2735
8 2681 2621 2555 2623 2736 2682 2622 2683
8 2626 2559 2625 2685 2684 2623 2683 2737
8 2688 2628 2584 2650 2740 2686 2647 2707
8 2688 2628 2687 2742 2650 2584 2629 2690
8 2690 2629 2689 2745 2630 2564 2631 2692
8 2746 2690 2630 2691 2709 2650 2585 2651
8 2691 2630 2692 2747 2632 2565 2633 2694
8 2692 2631 2693 2748 2633 2566 2634 2695
8 2694 2633 2695 2750 2635 2568 2636 2697
8 2695 2634 2696 2751 2636 2569 2637 2698
8 2697 2636 2698 2753 2638 2571 2639 2700
8 2698 2637 2699 2754 2639 2572 2640 2701
8 2700 2639 2701 2755 2641 2574 2642 2702
8 2659 2596 2658 2714 2704 2644 2703 2757
8 2704 2644 2703 2757 2655 2590 2652 2710
8 2660 2597 2659 2715 2705 2645 2704 2758
8 2705 2645 2704 2758 2657 2593 2655 2712
8 2759 2706 2647 2707 2710 2652 2587 2653
8 2709 2650 2585 2651 2760 2707 2648 2708
8 2708 2648 2589 2654 2760 2707 2653 2711
8 2712 2655 2710 2761 2656 2592 2653 2711
8 2763 2713 2658 2714 2718 2664 2603 2663
8 2662 2602 2663 2717 2715 2659 2714 2764
8 2720 2666 2718 2767 2665 2605 2663 2717
8 2768 2719 2664 2718 2721 2667 2606 2666
8 2668 2608 2669 2723 2720 2666 2721 2770
8 2669 2609 2670 2724 2721 2667 2722 2771
8 2671 2611 2672 2726 2723 2669 2724 2773
8 2672 2612 2673 2727 2724 2670 2725 2774
8 2674 2614 2675 2729 2726 2672 2727 2776
8 2675 2615 2676 2730 2727 2673 2728 2777
8 2677 2617 2678 2732 2729 2675 2730 2779
8 2678 2618 2679 2733 2730 2676 2731 2780
8 2680 2620 2681 2735 2732 2678 2733 2782
8 2733 2679 2621 2681 2783 2734 2682 2736
8 2735 2681 2623 2684 2784 2736 2683 2737
8 2740 2686 2647 2707 2787 2738 2706 2759
8 2688 2628 2686 2740 2742 2687 2739 2789
8 2743 2688 2650 2709 2790 2740 2707 2760
8 2742 2687 2741 2792 2690 2629 2689 2745
8 2743 2688 2742 2793 2709 2650 2690 2746
8 2745 2689 2744 2795 2692 2631 2693 2748
8 2746 2690 2745 2796 2691 2630 2692 2747
8 2747 2692 2748 2797 2694 2633 2695 2750
8 2748 2693 2749 2798 2695 2634 2696 2751
8 2750 2695 2751 2800 2697 2636 2698 2753
8 2751 2696 2752 2801 2698 2637 2699 2754
8 2753 2698 2754 2802 2700 2639 2701 2755
8 2763 2713 2756 2804 2714 2658 2703 2757
8 2759 2706 2652 2710 2804 2756 2703 2757
8 2715 2659 2714 2764 2758 2704 2757 2805
8 2758 2704 2757 2805 2712 2655 2710 2761
8 2806 2759 2707 2760 2761 2710 2653 2711
8 2765 2716 2762 2808 2718 2664 2713 2763
8 2809 2763 2714 2764 2767 2718 2663 2717
8 2765 2716 2664 2718 2811 2766 2719 2768
8 2813 2768 2718 2767 2770 2721 2666 2720
8 2814 2769 2719 2768 2771 2722 2667 2721
8 2723 2669 2724 2773 2770 2721 2771 2816
8 2724 2670 2725 2774 2771 2722 2772 2817
8 2726 2672 2727 2776 2773 2724 2774 2819
8 2727 2673 2728 2777 2774 2725 2775 2820
8 2729 2675 2730 2779 2776 2727 2777 2822
8 2730 2676 2731 2780 2777 2728 2778 2823
8 2732 2678 2733 2782 2779 2730 2780 2825
8 2780 2731 2679 2733 2826 2781 2734 2783
8 2782 2733 2681 2735 2827 2783 2736 2784
8 2830 2785 2738 2787 2804 2756 2706 2759
8 2789 2739 2686 2740 2832 2786 2738 2787
8 2790 2740 2707 2760 2833 2787 2759 2806
8 2742 2687 2739 2789 2792 2741 2788 2835
8 2743 2688 2740 2790 2793 2742 2789 2836
8 2792 2741 2791 2838 2745 2689 2744 2795
8 2793 2742 2792 2839 2746 2690 2745 2796
8 2795 2744 2794 2841 2748 2693 2749 2798
8 2796 2745 2795 2842 2747 2692 2748 2797
8 2797 2748 2798 2843 2750 2695 2751 2800
8 2798 2749 2799 2844 2751 2696 2752 2801
8 2800 2751 2801 2845 2753 2698 2754 2802
8 2808 2762 2803 2847 2763 2713 2756 2804
8 2809 2763 2804 2848 2764 2714 2757 2805
8 2806 2759 2710 2761 2848 2804 2757 2805
8 2765 2716 2766 2811 2808 2762 2807 2850
8 2810 2765 2808 2851 2767 2718 2763 2809
8 2810 2765 2718 2767 2852 2811 2768 2813
8 2811 2766 2719 2768 2853 2812 2769 2814
8 2855 2814 2768 2813 2816 2771 2721 2770
8 2856 2815 2769 2814 2817 2772 2722 2771
8 2773 2724 2774 2819 2816 2771 2817 2858
8 2774 2725 2775 2820 2817 2772 2818 2859
8 2776 2727 2777 2822 2819 2774 2820 2861
8 2777 2728 2778 2823 2820 2775 2821 2862
8 2779 2730 2780 2825 2822 2777 2823 2864
8 2823 2778 2731 2780 2865 2824 2781 2826
8 2825 2780 2733 2782 2866 2826 2783 2827
8 2869 2828 2785 2830 2847 2803 2756 2804
8 2871 2829 2786 2832 2830 2785 2738 2787
8 2872 2830 2787 2833 2848 2804 2759 2806
8 2789 2739 2786 2832 2835 2788 2831 2874
8 2836 2789 2740 2790 2875 2832 2787 2833
8 2792 2741 2788 2835 2838 2791 2834 2877
8 2793 2742 2789 2836 2839 2792 2835 2878
8 2838 2791 2837 2880 2795 2744 2794 2841
8 2839 2792 2838 2881 2796 2745 2795 2842
8 2841 2794 2840 2882 2798 2749 2799 2844
8 2842 2795 2841 2883 2797 2748 2798 2843
8 2843 2798 2844 2884 2800 2751 2801 2845
8 2886 2846 2803 2847 2850 2807 2762 2808
8 2851 2808 2847 2887 2809 2763 2804 2848
8 2850 2807 2766 2811 2889 2849 2812 2853
8 2810 2765 2811 2852 2851 2808 2850 2890
8 2852 2811 2768 2813 2891 2853 2814 2855
8 2853 2812 2769 2814 2892 2854 2815 2856
8 2894 2856 2814 2855 2858 2817 2771 2816
8 2817 2772 2818 2859 2856 2815 2857 2895
8 2819 2774 2820 2861 2858 2817 2859 2897
8 2820 2775 2821 2862 2859 2818 2860 2898
8 2822 2777 2823 2864 2861 2820 2862 2900
8 2823 2778 2824 2865 2862 2821 2863 2901
8 2864 2823 2780 2825 2902 2865 2826 2866
8 2904 2867 2828 2869 2886 2846 2803 2847
8 2869 2828 2868 2906 2830 2785 2829 2871
8 2907 2869 2830 2872 2887 2847 2804 2848
8 2871 2829 2870 2909 2832 2786 2831 2874
8 2910 2871 2832 2875 2872 2830 2787 2833
8 2835 2788 2831 2874 2877 2834 2873 2912
8 2836 2789 2832 2875 2878 2835 2874 2913
8 2877 2834 2876 2915 2838 2791 2837 2880
8 2839 2792 2835 2878 2881 2838 2877 2916
8 2880 2837 2879 2917 2841 2794 2840 2882
8 2881 2838 2880 2918 2842 2795 2841 2883
8 2883 2841 2882 2919 2843 2798 2844 2884
8 2921 2885 2846 2886 2889 2849 2807 2850
8 2922 2886 2847 2887 2890 2850 2808 2851
8 2889 2849 2812 2853 2924 2888 2854 2892
8 2890 2850 2811 2852 2925 2889 2853 2891
8 2891 2853 2814 2855 2926 2892 2856 2894
8 2892 2854 2815 2856 2927 2893 2857 2895
8 2858 2817 2859 2897 2894 2856 2895 2929
8 2859 2818 2860 2898 2895 2857 2896 2930
8 2861 2820 2862 2900 2897 2859 2898 2932
8 2862 2821 2863 2901 2898 2860 2899 2933
8 2864 2823 2865 2902 2900 2862 2901 2934
8 2904 2867 2846 2886 2936 2903 2885 2921
8 2904 2867 2903 2936 2869 2828 2868 2906
8 2937 2904 2869 2907 2922 2886 2847 2887
8 2906 2868 2905 2939 2871 2829 2870 2909
8 2907 2869 2906 2940 2872 2830 2871 2910
8 2909 2870 2908 2942 2874 2831 2873 2912
8 2910 2871 2909 2943 2875 2832 2874 2913
8 2912 2873 2911 2945 2877 2834 2876 2915
8 2878 2835 2874 2913 2916 2877 2912 2946
8 2915 2876 2914 2947 2880 2837 2879 2917
8 2916 2877 2915 2948 2881 2838 2880 2918
8 2918 2880 2917 2949 2883 2841 2882 2919
8 2921 2885 2849 2889 2951 2920 2888 2924
8 2952 2921 2886 2922 2925 2889 2850 2890
8 2924 2888 2854 2892 2954 2923 2893 2927
8 2925 2889 2853 2891 2955 2924 2892 2926
8 2926 2892 2856 2894 2956 2927 2895 2929
8 2895 2857 2896 2930 2927 2893 2928 2957
8 2897 2859 2898 2932 2929 2895 2930 2959
8 2898 2860 2899 2933 2930 2896 2931 2960
8 2900 2862 2901 2934 2932 2898 2933 2961
8 2936 2903 2885 2921 2963 2935 2920 2951
8 2936 2903 2935 2963 2906 2868 2905 2939
8 2937 2904 2886 2922 2964 2936 2921 2952
8 2937 2904 2936 2964 2907 2869 2906 2940
8 2939 2905 2938 2966 2909 2870 2908 2942
8 2940 2906 2939 2967 2910 2871 2909 2943
8 2942 2908 2941 2969 2912 2873 2911 2945
8 2943 2909 2942 2970 2913 2874 2912 2946
8 2945 2911 2944 2971 2915 2876 2914 2947
8 2946 2912 2945 2972 2916 2877 2915 2948
8 2948 2915 2947 2973 2918 2880 2917 2949
8 2951 2920 2888 2924 2975 2950 2923 2954
8 2952 2921 2889 2925 2976 2951 2924 2955
8 2927 2893 2928 2957 2954 2923 2953 2978
8 2955 2924 2892 2926 2979 2954 2927 2956
8 2929 2895 2930 2959 2956 2927 2957 2980
8 2930 2896 2931 2960 2957 2928 2958 2981
8 2932 2898 2933 2961 2959 2930 2960 2982
8 2951 2920 2950 2975 2963 2935 2962 2984
8 2963 2935 2962 2984 2939 2905 2938 2966
8 2964 2936 2921 2952 2985 2963 2951 2976
8 2964 2936 2963 2985 2940 2906 2939 2967
8 2966 2938 2965 2987 2942 2908 2941 2969
8 2967 2939 2966 2988 2943 2909 2942 2970
8 2969 2941 2968 2989 2945 2911 2944 2971
8 2970 2942 2969 2990 2946 2912 2945 2972
8 2972 2945 2971 2991 2948 2915 2947 2973
8 2954 2923 2953 2978 2975 2950 2974 2993
8 2976 2951 2924 2955 2994 2975 2954 2979
8 2957 2928 2958 2981 2978 2953 2977 2995
8 2956 2927 2957 2980 2979 2954 2978 2996
8 2959 2930 2960 2982 2980 2957 2981 2997
8 2984 2962 2983 2999 2966 2938 2965 2987
8 2975 2950 2974 2993 2984 2962 2983 2999
8 2976 2951 2975 2994 2985 2963 2984 3000
8 2985 2963 2984 3000 2967 2939 2966 2988
8 2987 2965 2986 3001 2969 2941 2968 2989
8 2988 2966 2987 3002 2970 2942 2969 2990
8 2990 2969 2989 3003 2972 2945 2971 2991
8 2978 2953 2977 2995 2993 2974 2992 3004
8 2979 2954 2978 2996 2994 2975 2993 3005
8 2980 2957 2981 2997 2996 2978 2995 3006
8 2974 2993 2999 2983 2992 3004 3007 2998
8 2983 2999 2987 2965 2998 3007 3001 2986
8 3000 2984 2999 3008 2988 2966 2987 3002
8 2994 2975 2993 3005 3000 2984 2999 3008
8 3002 2987 3001 3009 2990 2969 2989 3003
8 2996 2978 2995 3006 3005 2993 3004 3010
8 3005 2993 3004 3010 3008 2999 3007 3011
8 3008 2999 3007 3011 3002 2987 3001 3009

CELL_TYPES 1910
12
12
12
12
12
12
12
12
12
12
12
12
12
12
12
12
12
12
12
12
12
12
12
12
12
12
12
12
12
12
12
12
12
12
12
12
12
12
12
12
12
12
12
12
12
12
12
12
12
12
12
12
12
12
12
12
12
12
12
12
12
12
12
12
12
12
12
12
12
12
12
12
12
12
12
12
12
12
12
12
12
12
12
12
12
12
12
12
12
12
12
12
12
12
12
12
12
12
12
12
12
12
12
12
12
12
12
12
12
12
12
12
12
12
12
12
12
12
12
12
12
12
12
12
12
12
12
12
12
12
12
12
12
12
12
12
12
12
12
12
12
12
12
12
12
12
12
12
12
12
12
12
12
12
12
12
12
12
12
12
12
12
12
12
12
12
12
12
12
12
12
12
12
12
12
12
12
12
12
12
12
12
12
12
12
12
12
12
12
12
12
12
12
12
12
12
12
12
12
12
12
12
12
12
12
12
12
12
12
12
12
12
12
12
12
12
12
12
12
12
12
12
12
12
12
12
12
12
12
12
12
12
12
12
12
12
12
12
12
12
12
12
12
12
12
12
12
12
12
12
12
12
12
12
12
12
12
12
12
12
12
12
12
12
12
12
12
12
12
12
12
12
12
12
12
12
12
12
12
12
12
12
12
12
12
12
12
12
12
12
12
12
12
12
12
12
12
12
12
12
12
12
12
12
12
12
12
12
12
12
12
12
12
12
12
12
12
12
12
12
12
12
12
12
12
12
12
12
12
12
12
12
12
12
12
12
12
12
12
12
12
12
12
12
12
12
12
12
12
12
12
12
12
12
12
12
12
12
12
12
12
12
12
12
12
12
12
12
12
12
12
12
12
12
12
12
12
12
12
12
12
12
12
12
12
12
12
12
12
12
12
12
12
12
12
12
12
12
12
12
12
12
12
12
12
12
12
12
12
12
12
12
12
12
12
12
12
12
12
12
12
12
12
12
12
12
12
12
12
12
12
12
12
12
12
12
12
12
12
12
12
12
12
12
12
12
12
12
12
12
12
12
12
12
12
12
12
12
12
12
12
12
12
12
12
12
12
12
12
12
12
12
12
12
12
12
12
12
12
12
12
12
12
12
12
12
12
12
12
12
12
12
12
12
12
12
12
12
12
12
12
12
12
12
12
12
12
12
12
12
12
12
12
12
12
12
12
12
12
12
12
12
12
12
12
12
12
12
12
12
12
12
12
12
12
12
12
12
12
12
12
12
12
12
12
12
12
12
12
12
12
12
12
12
12
12
12
12
12
12
12
12
12
12
12
12
12
12
12
12
12
12
12
12
12
12
12
12
12
12
12
12
12
12
12
12
12
12
12
12
12
12
12
12
12
12
12
12
12
12
12
12
12
12
12
12
12
12
12
12
12
12
12
12
12
12
12
12
12
12
12
12
12
12
12
12
12
12
12
12
12
12
12
12
12
12
12
12
12
12
12
12
12
12
12
12
12
12
12
12
12
12
12
12
12
12
12
12
12
12
12
12
12
12
12
12
12
12
12
12
12
12
12
12
12
12
12
12
12
12
12
12
12
12
12
12
12
12
12
12
12
12
12
12
12
12
12
12
12
12
12
12
12
12
12
12
12
12
12
12
12
12
12
12
12
12
12
12
12
12
12
12
12
12
12
12
12
12
12
12
12
12
12
12
12
12
12
12
12
12
12
12
12
12
12
12
12
12
12
12
12
12
12
12
12
12
12
12
12
12
12
12
12
12
12
12
12
12
12
12
12
12
12
12
12
12
12
12
12
12
12
12
12
12
12
12
12
12
12
12
12
12
12
12
12
12
12
12
12
12
12
12
12
12
12
12
12
12
12
12
12
12
12
12
12
12
12
12
12
12
12
12
12
12
12
12
12
12
12
12
12
12
12
12
12
12
12
12
12
12
12
12
12
12
12
12
12
12
12
12
12
12
12
12
12
12
12
12
12
12
12
12
12
12
12
12
12
12
12
12
12
12
12
12
12
12
12
12
12
12
12
12
12
12
12
12
12
12
12
12
12
12
12
12
12
12
12
12
12
12
12
12
12
12
12
12
12
12
12
12
12
12
12
12
12
12
12
12
12
12
12
12
12
12
12
12
12
12
12
12
12
12
12
12
12
12
12
12
12
12
12
12
12
12
12
12
12
12
12
12
12
12
12
12
12
12
12
12
12
12
12
12
12
12
12
12
12
12
12
12
12
12
12
12
12
12
12
12
12
12
12
12
12
12
12
12
12
12
12
12
12
12
12
12
12
12
12
12
12
12
12
12
12
12
12
12
12
12
12
12
12
12
12
12
12
12
12
12
12
12
12
12
12
12
12
12
12
12
12
12
12
12
12
12
12
12
12
12
12
12
12
12
12
12
12
12
12
12
12
12
12
12
12
12
12
12
12
12
12
12
12
12
12
12
12
12
12
12
12
12
12
12
12
12
12
12
12
12
12
12
12
12
12
12
12
12
12
12
12
12
12
12
12
12
12
12
12
12
12
12
12
12
12
12
12
12
12
12
12
12
12
12
12
12
12
12
12
12
12
12
12
12
12
12
12
12
12
12
12
12
12
12
12
12
12
12
12
12
12
12
12
12
12
12
12
12
12
12
12
12
12
12
12
12
12
12
12
12
12
12
12
12
12
12
12
12
12
12
12
12
12
12
12
12
12
12
12
12
12
12
12
12
12
12
12
12
12
12
12
12
12
12
12
12
12
12
12
12
12
12
12
12
12
12
12
12
12
12
12
12
12
12
12
12
12
12
12
12
12
12
12
12
12
12
12
12
12
12
12
12
12
12
12
12
12
12
12
12
12
12
12
12
12
12
12
12
12
12
12
12
12
12
12
12
12
12
12
12
12
12
12
12
12
12
12
12
12
12
12
12
12
12
12
12
12
12
12
12
12
12
12
12
12
12
12
12
12
12
12
12
12
12
12
12
12
12
12
12
12
12
12
12
12
12
12
12
12
12
12
12
12
12
12
12
12
12
12
12
12
12
12
12
12
12
12
12
12
12
12
12
12
12
12
12
12
12
12
12
12
12
12
12
12
12
12
12
12
12
12
12
12
12
12
12
12
12
12
12
12
12
12
12
12
12
12
12
12
12
12
12
12
12
12
12
12
12
12
12
12
12
12
12
12
12
12
12
12
12
12
12
12
12
12
12
12
12
12
12
12
12
12
12
12
12
12
12
12
12
12
12
12
12
12
12
12
12
12
12
12
12
12
12
12
12
12
12
12
12
12
12
12
12
12
12
12
12
12
12
12
12
12
12
12
12
12
12
12
12
12
12
12
12
12
12
12
12
12
12
12
12
12
12
12
12
12
12
12
12
12
12
12
12
12
12
12
12
12
12
12
12
12
12
12
12
12
12
12
12
12
12
12
12
12
12
12
12
12
12
12
12
12
12
12
12
12
12
12
12
12
12
12
12
12
12
12
12
12
12
12
12
12
12
12
12
12
12
12
12
12
12
12
12
12
12
12
12
12
12
12
12
12
12
12
12
12
12
12
12
12
12
12
12
12
12
12
12
12
12
12
12
12
12
12
12
12
12
12
12
12
12
12
12
12
12
12
12
12
12
12
12
12
12
12
12
12
12
12
12
12
12
12
12
12
12
12
12
12
12
12
12
12
12
12
12
12
12
12
12
12
12
12
12
12
12
12
12
12
12
12
12
12
12
12
12
12
12
12
12
12
12
12
12
12
12
12
12
12
12
12
12
12
12
12
12
12
12
12
12
12
12
12
12
12
12
12
12
12
12
12
12
12
12
12
12
12
12
12
12
12
12
12
12
12
12
12
12
12
12
12
12
12
12
12
12
12
12
12
12
12
12
12
12
12
12
12
12
12
12
12
12
12
12
12
12
12
12
12
12
12
12
12
12
12
12
12
12
12
12
12
12
12
12
12
12
12
12
12
12
12
12
12
12
12
12
12
12
12
12
12
12
12
12
12
12
12
12
12
12
12
12
12
12
12
12
12
12
12
12
12
12
12
12
12
12
12
12
12
12
12
12
12
12
12
12
12
12
12
12
12
12
12
12
12
12
12
12
12
12
12
12
12
12
12
12
12
12
12
12
12
12
12
12
12
12
12
12
12
12
12
12
12
12
12
12
12
12
12
12
12
12
12
12
12
12
12
12
12
12
12
12
12
12
12
12
12
12
12
12
12
12
12
12
12
12
12
12
12
12
12
12
12
12
12
12
12
12
12
12
12
12
12
12
12
12
12
12
12
12
12
12
12
12
12
12
12
12
12
12
12
12
12
12
12
12
12
12
12
12
12
12
12
12
12
12
12
12
12
12
12
12
12
12
12
12
12
12
12
12
12
12

POINT_DATA 3012
SCALARS Jp_lamdaP float 4
LOOKUP_TABLE default
0.999925 1 1 0.999925
1 1 1 1
0.999928 1 1 0.999928
0.999894 1 1 0.999894
0.999923 1 1 0.999923
0.999928 1 1 0.999928
0.999548 1 1 0.999548
1 1 1 1
1 1 1 1
1 1 1 1
0.999986 1 1 0.999986
0.999719 1 1 0.999719
0.999853 1 1 0.999853
0.999885 1 1 0.999885
0.999928 1 1 0.999928
0.999903 1 1 0.999903
0.999933 1 1 0.999933
0.999928 1 1 0.999928
0.999551 1 1 0.999551
1 1 1 1
0.999879 1 1 0.999879
0.99991 1 1 0.99991
0.999428 1 1 0.999428
0.999515 1 1 0.999515
0.999953 1 1 0.999953
0.999591 1 1 0.999591
0.99894 1 1 0.99894
1 1 1 1
0.999953 1 1 0.999953
0.999966 1 1 0.999966
1 1 1 1
0.999727 1 1 0.999727
0.999902 1 1 0.999902
0.999923 1 1 0.999923
0.999605 1 1 0.999605
1 1 1 1
0.999696 1 1 0.999696
0.999797 1 1 0.999797
0.999028 1 1 0.999028
1 1 1 1
1 1 1 1
0.99994 1 1 0.99994
1 1 1 1
0.999874 1 1 0.999874
0.999366 1 1 0.999366
1 1 1 1
0.999525 1 1 0.999525
0.999911 1 1 0.999911
0.999931 1 1 0.999931
0.999935 1 1 0.999935
0.999556 1 1 0.999556
0.999926 1 1 0.999926
0.999889 1 1 0.999889
0.999959 1 1 0.999959
0.999919 1 1 0.999919
0.999429 1 1 0.999429
0.999595 1 1 0.999595
0.999518 1 1 0.999518
0.998925 1 1 0.998925
1 1 1 1
0.999864 1 1 0.999864
0.99948 1 1 0.99948
0.999397 1 1 0.999397
0.999471 1 1 0.999471
0.998654 1 1 0.998654
0.998789 1 1 0.998789
0.999985 1 1 0.999985
0.999701 1 1 0.999701
0.999051 1 1 0.999051
0.998605 1.00026 1 0.998348
1 1 1 1
1 1 1 1
1 1 1 1
0.999736 1 1 0.999736
1 1 1 1
1 1 1 1
0.999564 1 1 0.999564
0.999999 1 1 0.999999
0.999671 1 1 0.999671
0.999823 1 1 0.999823
0.999026 1 1 0.999026
1 1 1 1
0.999989 1 1 0.999989
0.999513 1 1 0.999513
0.999601 1 1 0.999601
0.998634 1 1 0.998634
0.999896 1 1 0.999896
0.998929 1 1 0.998929
0.999141 1 1 0.999141
0.998602 1 1 0.998602
1 1 1 1
1 1 1 1
1 1 1 1
1 1 1 1
1 1 1 1
0.999933 1 1 0.999933
0.999421 1 1 0.999421
0.999945 1 1 0.999945
0.9995 1 1 0.9995
1 1 1 1
0.99934 1 1 0.99934
0.999493 1 1 0.999493
0.998319 1 1 0.998319
0.999554 1 1 0.999554
0.998422 1 1 0.998422
0.999867 1 1 0.999867
0.999898 1 1 0.999898
0.999966 1 1 0.999966
0.999925 1 1 0.999925
0.999431 1 1 0.999431
0.999522 1 1 0.999522
0.999601 1 1 0.999601
0.998911 1 1 0.998911
1 1 1 1
0.999874 1 1 0.999874
0.999365 1 1 0.999365
0.999397 1 1 0.999397
0.999992 1 1 0.999992
0.999742 1 1 0.999742
0.999473 1 1 0.999473
0.99862 1 1 0.99862
0.999032 1 1 0.999032
0.998813 1 1 0.998813
0.998753 1.0004 1 0.998351
0.99936 1 1 0.99936
0.999371 1 1 0.999371
0.998442 1 1 0.998442
0.998549 1 1 0.998549
0.998676 1 1 0.998676
1.00101 1.0029 1 0.998112
1 1 1 1
0.999113 1.00084 1 0.99827
0.999874 1 1 0.999874
0.999119 1 1 0.999119
0.998462 1.00003 1 0.998427
1.00197 1.00385 1 0.99812
0.999956 1 1 0.999956
0.999481 1 1 0.999481
1 1 1 1
1 1 1 1
0.99957 1 1 0.99957
1 1 1 1
0.999835 1 1 0.999835
0.999675 1 1 0.999675
0.999024 1 1 0.999024
1 1 1 1
0.999993 1 1 0.999993
0.999548 1 1 0.999548
0.999635 1 1 0.999635
0.998637 1 1 0.998637
0.999915 1 1 0.999915
0.998932 1 1 0.998932
0.999141 1 1 0.999141
0.998588 1 1 0.998588
0.999957 1 1 0.999957
1 1 1 1
0.999604 1 1 0.999604
0.998526 1 1 0.998526
0.998786 1 1 0.998786
1.0008 1.00265 1 0.998156
0.99929 1 1 0.99929
0.998656 1.00017 1 0.998488
0.999126 1 1.00044 0.998691
0.998449 1 1 0.998449
1 1 1 1
1 1 1 1
1 1 1 1
0.999978 1 1 0.999978
1 1 1 1
1 1 1 1
1 1 1 1
0.999471 1 1 0.999471
0.999387 1 1 0.999387
1 1 1 1
1 1 1 1
0.999342 1 1 0.999342
0.999468 1 1 0.999468
0.998319 1 1 0.998319
0.999496 1 1 0.999496
0.998422 1 1 0.998422
0.99933 1 1 0.99933
0.998261 1 1 0.998261
0.99838 1 1 0.99838
1.00378 1.0059 1 0.997893
0.998462 1 1 0.998462
1.003 1.00501 1 0.997991
1 1 1 1
0.999885 1 1 0.999885
0.999242 1 1 0.999242
0.999398 1 1 0.999398
1 1 1 1
0.999782 1 1 0.999782
0.999477 1 1 0.999477
0.998586 1 1 0.998586
0.998837 1 1 0.998837
0.999012 1 1 0.999012
0.998896 1.00054 1 0.998353
0.999357 1 1 0.999357
0.99937 1 1 0.99937
0.998371 1 1 0.998371
0.998574 1 1 0.998574
1 1 1 1
0.999861 1 1 0.999861
0.999152 1 1 0.999152
0.998676 1 1 0.998676
1.00103 1.00296 1 0.998074
0.998519 1.0001 1 0.99842
0.999366 1.00107 1 0.998293
1.00184 1.00372 1 0.998125
0.999948 1 1 0.999948
0.999481 1 1 0.999481
0.998278 1 1 0.998278
0.998502 1 1 0.998502
1.0026 1.00463 1 0.997982
1.00134 1.00336 1 0.99799
0.999851 1.00165 1 0.998205
1.00743 1.0095 1 0.997952
0.999923 1 1 0.999923
1.00308 1.00501 1 0.998073
0.999238 1 1 0.999238
0.998743 1.00017 1 0.998578
1.00133 1.00314 1 0.99819
1.00633 1.00827 1 0.998075
0.999374 1 1 0.999374
0.999614 1 1 0.999614
0.999037 1 1 0.999037
0.999528 1 1 0.999528
1 1 1 1
0.999998 1 1 0.999998
0.999625 1 1 0.999625
0.998639 1 1 0.998639
0.999928 1 1 0.999928
0.999141 1 1 0.999141
0.998934 1 1 0.998934
0.998573 1 1 0.998573
0.999968 1 1 0.999968
1 1 1 1
0.999606 1 1 0.999606
0.998526 1 1 0.998526
0.998791 1 1 0.998791
1.00033 1.00218 1 0.998155
0.999291 1 1 0.999291
0.998621 1.00012 1 0.998498
0.998917 1 1.00023 0.998688
0.998437 1 1 0.998437
1 1 1 1
0.999439 1 1 0.999439
0.999762 1 1 0.999762
0.999165 1 1 0.999165
1.00211 1.00405 1 0.998061
0.999475 1.00115 1 0.998329
1.00568 1.00774 1 0.997949
0.999199 1 1.00034 0.998861
1.00008 1.00176 1 0.998325
0.999888 1 1.00147 0.998421
0.999326 1.00101 1 0.998314
0.999929 1 1 0.999929
1 1 1 1
1 1 1 1
1 1 1 1
1 1 1 1
0.999991 1 1 0.999991
1 1 1 1
0.999972 1 1 0.999972
1 1 1 1
0.999498 1 1 0.999498
0.999435 1 1 0.999435
0.998422 1 1 0.998422
0.998319 1 1 0.998319
0.999344 1 1 0.999344
1 1 1 1
0.999329 1 1 0.999329
0.998261 1 1 0.998261
0.99838 1 1 0.99838
1.00368 1.0058 1 0.997892
0.998461 1 1 0.998461
1.00303 1.00505 1 0.997991
0.998249 1 1 0.998249
1.00377 1.00594 1 0.997839
1.00337 1.00543 1 0.99795
1.01392 1.01612 1 0.997835
1.00288 1.00486 1 0.99802
1.01194 1.01408 1 0.997897
0.999354 1 1 0.999354
0.99937 1 1 0.99937
0.9983 1 1 0.9983
0.998599 1 1 0.998599
1 1 1 1
0.999849 1 1 0.999849
0.999185 1 1 0.999185
0.998677 1 1 0.998677
1.00105 1.00302 1 0.998037
0.999623 1.00131 1 0.998317
0.998554 1.00014 1 0.998413
1.00178 1.00366 1 0.998129
0.99994 1 1 0.99994
0.999482 1 1 0.999482
0.998256 1 1 0.998256
0.9985 1 1 0.9985
1.00278 1.00482 1 0.997972
1.00154 1.00352 1 0.998028
0.999914 1 1 0.999914
0.999235 1 1 0.999235
0.998721 1.00011 1 0.99861
1.00003 1.00183 1 0.998206
1.00776 1.00983 1 0.997951
1.00114 1.00299 1 0.998158
1.00324 1.00517 1 0.998075
1.00658 1.00852 1 0.998075
0.999376 1 1 0.999376
0.999087 1 1.00005 0.999036
0.999612 1 1 0.999612
1.00314 1.00523 1 0.99792
1.00273 1.00473 1 0.998005
1.01248 1.01468 1 0.997832
1.00941 1.01155 1 0.997884
1.0051 1.0071 1 0.998017
1.01317 1.01519 1 0.99801
0.999314 1 1 0.999314
1.00848 1.01043 1 0.998064
0.998838 1 1 0.998838
0.998982 1.00074 1 0.998245
1.00441 1.00641 1 0.998016
1.00984 1.0117 1 0.998165
0.999721 1 1 0.999721
0.999019 1 1 0.999019
0.999121 1 1.00002 0.999101
0.998911 1 1.00003 0.998883
0.998527 1 1 0.998527
1 1 1 1
0.999979 1 1 0.999979
0.999608 1 1 0.999608
0.998795 1 1 0.998795
0.999857 1.00171 1 0.998154
0.999293 1 1 0.999293
0.998749 1 1.00006 0.998685
0.998516 1.00001 1 0.998509
0.998425 1 1 0.998425
1 1 1 1
0.999439 1 1 0.999439
0.999767 1 1 0.999767
0.999162 1 1 0.999162
1.00173 1.00367 1 0.998058
0.999112 1.00078 1 0.998331
1.00564 1.00771 1 0.997948
0.999114 1 1.00025 0.998864
0.99952 1.00118 1 0.998339
0.999981 1 1.00157 0.99841
0.999025 1.00064 1 0.998384
1 1 1 1
0.999855 1 1 0.999855
0.999024 1 1 0.999024
0.999322 1 1 0.999322
0.999163 1 1.00024 0.99892
1.00787 1.01 1 0.997896
1.00289 1.00477 1 0.998124
1.00859 1.0107 1 0.997915
1.00041 1 1.00186 0.998548
1.00051 1.00227 1 0.998247
0.9996 1.00059 1.00086 0.998155
0.999917 1 1 0.999917
0.999623 1 1 0.999623
0.999937 1 1 0.999937
0.999931 1 1 0.999931
1 1 1 1
1 1 1 1
1 1 1 1
1 1 1 1
1 1 1 1
0.999998 1 1 0.999998
1 1 1 1
0.999988 1 1 0.999988
1 1 1 1
0.999966 1 1 0.999966
1 1 1 1
0.998461 1 1 0.998461
0.99838 1 1 0.99838
1.00306 1.00508 1 0.99799
1.00355 1.00567 1 0.997891
0.998262 1 1 0.998262
0.999329 1 1 0.999329
0.998249 1 1 0.998249
1.00381 1.00598 1 0.997839
1.00322 1.00529 1 0.997949
1.01412 1.01632 1 0.997838
1.00272 1.00471 1 0.998019
1.01139 1.01352 1 0.997896
1.00361 1.0058 1 0.997826
1.01488 1.01711 1 0.997799
1.01322 1.01538 1 0.997867
1.01921 1.02135 1 0.997906
1.00967 1.01179 1 0.997902
1.01541 1.01742 1 0.998027
0.998234 1 1 0.998234
0.998498 1 1 0.998498
1.00294 1.00499 1 0.997961
1.00174 1.00368 1 0.998066
0.999905 1 1 0.999905
0.999233 1 1 0.999233
0.998711 1.00007 1 0.998642
1.00022 1.00202 1 0.998207
1.00809 1.01016 1 0.997949
1.00339 1.00533 1 0.998076
1.00093 1.00281 1 0.998126
1.00679 1.00873 1 0.998075
0.999378 1 1 0.999378
0.999188 1 1.00015 0.999035
0.999609 1 1 0.999609
1.00328 1.00541 1 0.997888
1.00268 1.00468 1 0.998004
1.01236 1.01456 1 0.99783
1.00989 1.01202 1 0.997889
0.999315 1 1 0.999315
0.998832 1 1 0.998832
0.999135 1.00081 1.00003 0.998291
1.00533 1.00732 1 0.998025
1.01253 1.01453 1 0.998031
1.00448 1.0065 1 0.99799
1.00846 1.01041 1 0.998066
1.00922 1.01105 1 0.998182
0.999022 1 1 0.999022
0.998964 1 1.0001 0.998866
0.999717 1 1 0.999717
0.999168 1 1.00005 0.99912
1.01316 1.01541 1 0.997781
1.01234 1.0145 1 0.997867
1.01874 1.02094 1 0.997839
1.01459 1.01664 1 0.997979
1.01112 1.01308 1 0.998061
1.01429 1.0162 1 0.998124
0.998978 1 1 0.998978
1.01033 1.01213 1 0.998229
0.998549 1 1 0.998549
1.00056 1.00236 1.00018 0.998023
1.00774 1.00983 1 0.997935
1.00986 1.01168 1 0.998202
0.999784 1 1 0.999784
0.999231 1 1 0.999231
0.998871 1 1 0.998871
0.999294 1 1.00039 0.998906
0.998867 1 1.00004 0.998823
1 1 1 1
1.0013 1.00325 1 0.998056
0.999772 1 1 0.999772
0.999439 1 1 0.999439
0.99916 1 1 0.99916
0.998847 1.00051 1 0.998333
1.00556 1.00763 1 0.997946
0.998987 1 1.00012 0.998867
1.00011 1 1.00171 0.998399
0.99903 1.00068 1 0.998352
0.998768 1.00031 1 0.998454
1 1 1 1
0.999861 1 1 0.999861
0.999025 1 1 0.999025
0.999323 1 1 0.999323
0.999112 1 1.00021 0.998901
1.00813 1.01026 1 0.997892
1.00241 1.0043 1 0.998124
1.00855 1.01066 1 0.997908
1.00051 1 1.00196 0.998552
1.00104 1.00278 1 0.998262
0.999836 1.0007 1.00096 0.998175
0.999896 1 1 0.999896
0.999461 1 1 0.999461
0.999222 1 1.00048 0.998745
0.999296 1 1.00025 0.99905
0.999399 1 1.00062 0.998777
1.01091 1.01302 1 0.997914
1.00459 1.00655 1 0.998059
1.00871 1.01067 1 0.998057
1.0021 1 1.00379 0.998313
1.00038 1.00235 1 0.998029
0.99992 1 1 0.99992
0.999562 1 1 0.999562
0.999605 1 1 0.999605
0.999428 1 1 0.999428
0.99963 1 1 0.99963
0.999939 1 1 0.999939
0.999938 1 1 0.999938
1 1 1 1
0.999934 1 1 0.999934
1 1 1 1
1 1 1 1
1 1 1 1
1 1 1 1
1 1 1 1
1 1 1 1
0.999997 1 1 0.999997
1 1 1 1
1 1 1 1
0.999984 1 1 0.999984
1 1 1 1
1.00258 1.00457 1 0.998017
1.00308 1.00515 1 0.997949
1.01085 1.01298 1 0.997896
1.01433 1.01652 1 0.997841
1.00387 1.00604 1 0.997839
0.998249 1 1 0.998249
1.00366 1.00585 1 0.997826
1.01486 1.01711 1 0.997792
1.01303 1.0152 1 0.997867
1.01892 1.02105 1 0.997921
1.00986 1.01198 1 0.997898
1.0156 1.0176 1 0.998036
1.01404 1.01631 1 0.997767
1.01924 1.02143 1 0.997854
1.01729 1.01934 1 0.997989
1.01844 1.02049 0.999999 0.997994
1.01361 1.01565 1 0.997989
1.01689 1.01878 1 0.998154
1.00345 1.0056 1 0.997855
1.00262 1.00463 1 0.998003
1.01228 1.01448 1 0.997828
1.01039 1.01252 1 0.997895
0.999315 1 1 0.999315
0.998826 1 1 0.998826
0.999396 1.00088 1.00018 0.998337
1.00558 1.00757 1 0.998032
1.01191 1.01388 1 0.998052
1.00841 1.01037 1 0.998068
1.00457 1.00661 1 0.997964
1.00856 1.01038 1 0.998198
0.999025 1 1 0.999025
0.998922 1 1.00007 0.998848
0.999713 1 1 0.999713
0.999138 1 1 0.999138
1.01314 1.01539 1 0.997782
1.01226 1.01443 1 0.99786
1.01859 1.02078 1 0.997848
1.01398 1.01604 1 0.997971
0.998975 1 1 0.998975
0.998619 1 1.00003 0.998588
1.0009 1.0025 1.00039 0.998018
1.01079 1.01277 1 0.998044
1.0145 1.01637 1 0.998164
1.00749 1.00958 1 0.997924
1.01002 1.01181 1 0.998231
1.01062 1.01241 1 0.998236
0.998871 1 1 0.998871
0.998822 1 1 0.998822
0.999453 1 1.00055 0.998902
0.999755 1 1 0.999755
0.999247 1 1 0.999247
1.0196 1.02182 1 0.997827
1.0179 1.02005 1 0.997884
1.01523 1.01715 1 0.998113
1.0123 1.01412 1 0.998209
0.998808 1 1 0.998808
1.01169 1.01337 1 0.998345
0.998659 1 1.00029 0.998371
1.00349 1.00519 1.00051 0.997794
1.0089 1.01104 1 0.997887
0.999782 1 1 0.999782
0.999393 1 1 0.999393
0.999258 1 1.00022 0.999042
0.998834 1 1 0.998834
0.999975 1 1.00122 0.998754
0.998771 1 1 0.998771
1 1 1 1
0.999866 1 1 0.999866
1.00845 1.01058 1 0.997887
0.999323 1 1 0.999323
0.999025 1 1 0.999025
0.999101 1 1.00022 0.998882
1.00189 1.00377 1 0.998125
1.00843 1.01055 1 0.9979
1.00067 1 1.00211 0.998556
0.999763 1.0008 1.00077 0.998195
1.00154 1.00326 1 0.998278
0.999901 1 1 0.999901
0.999463 1 1 0.999463
0.999166 1 1.00041 0.998753
0.99928 1 1.00023 0.999048
0.999624 1 1.00086 0.998764
1.01103 1.01314 1 0.997909
1.00488 1.00685 1 0.998051
1.00859 1.01054 1 0.998078
1.00153 1 1.00324 0.998294
1.00036 1.00231 1.00006 0.997999
0.999547 1 1 0.999547
0.999155 1 1 0.999155
1.00057 1 1.002 0.998581
1.00001 1 1.0012 0.998805
0.999529 1 1.00087 0.998663
1.01428 1.01608 1 0.99823
1.00477 1.00681 1 0.997977
1.00735 1.00927 1 0.998104
1.00301 1.00054 1.00433 0.998151
0.999362 1.00157 1 0.997796
0.999923 1 1 0.999923
0.999577 1 1 0.999577
0.99934 1 1 0.99934
0.999587 1 1 0.999587
0.99963 1 1 0.99963
0.999401 1 1 0.999401
0.999267 1 1 0.999267
0.999386 1 1 0.999386
0.999634 1 1 0.999634
0.999936 1 1 0.999936
0.999939 1 1 0.999939
1 1 1 1
0.999939 1 1 0.999939
1 1 1 1
1 1 1 1
1 1 1 1
1 1 1 1
1 1 1 1
1 1 1 1
1 1 1 1
1 1 1 1
0.999995 1 1 0.999995
1 1 1 1
1 1 1 1
1.01001 1.01214 1 0.997895
1.01286 1.01502 1 0.997867
1.01577 1.01776 1 0.998046
1.01866 1.02077 1 0.997936
1.01483 1.01708 1 0.997785
1.0037 1.00589 1 0.997827
1.01411 1.01639 1 0.997759
1.01921 1.02141 1 0.997849
1.01739 1.01946 1 0.997971
1.01818 1.02022 1 0.998001
1.01304 1.01508 1 0.99799
1.01656 1.01841 1 0.998182
1.01883 1.02106 1 0.997818
1.01964 1.02171 1 0.997966
1.01885 1.02083 0.999959 0.998107
1.01564 1.01742 1 0.998254
1.01308 1.01533 1 0.997782
1.01216 1.01434 1 0.997853
1.01841 1.02059 1 0.997857
1.01337 1.01544 1 0.997962
0.998972 1 1 0.998972
0.998628 1 1 0.998628
1.00123 1.00264 1.00058 0.998012
1.01042 1.01242 1 0.998027
1.0147 1.01653 1 0.998203
1.00981 1.01159 1 0.998233
1.0072 1.0093 1 0.997913
1.01128 1.01304 1 0.99827
0.998871 1 1 0.998871
0.99882 1 1 0.99882
0.999742 1 1.00085 0.998897
0.999726 1 1 0.999726
0.999264 1 1 0.999264
1.01941 1.02163 1 0.99783
1.01789 1.02004 1 0.99789
1.01512 1.01704 0.999998 0.998109
0.998803 1 1 0.998803
0.99873 1.00007 1.00026 0.998407
1.00337 1.00484 1.00076 0.997785
1.01267 1.01449 1 0.998199
1.0087 1.01078 1 0.997941
1.01113 1.01282 1 0.998334
0.999788 1 1 0.999788
0.99883 1 1 0.99883
0.998805 1 1 0.998805
0.999976 1 1.00123 0.998744
0.999204 1 1.00015 0.999051
0.999371 1 1 0.999371
1.01925 1.02141 1 0.99788
1.01865 1.02139 0.999302 0.998018
1.01462 1.01658 0.999868 0.998199
1.01582 1.01756 0.999935 0.998358
0.9987 1 1 0.9987
1.00914 1.01105 1 0.998109
0.999736 1.00008 1.00165 0.998019
1.00382 1.00513 1.00104 0.997661
0.999842 1 1 0.999842
0.99948 1 1 0.99948
0.999159 1 1 0.999159
1.00016 1 1.00135 0.998815
0.998757 1 1 0.998757
0.999046 1 1.00038 0.998671
0.999905 1 1 0.999905
0.999464 1 1 0.999464
1.01122 1.01334 1 0.997905
0.999223 1 1.00018 0.999047
0.999029 1 1.00027 0.99876
0.999943 1 1.00119 0.998752
1.00516 1.00713 1 0.998044
1.0086 1.01052 1 0.9981
1.001 1 1.00273 0.998275
1.00045 1.00221 1.00027 0.997969
0.999548 1 1 0.999548
0.999165 1 1 0.999165
1.00058 1 1.00198 0.998598
1.00036 1 1.00155 0.998809
0.99915 1 1.00045 0.998699
1.0143 1.01608 1 0.99825
1.00457 1.00661 1 0.997977
1.0079 1.00974 1 0.998178
1.00303 1.00032 1.00458 0.998129
0.999757 1.00197 1.00003 0.997758
0.999283 1 1 0.999283
0.998939 1 1.00004 0.998895
1.00223 1 1.00378 0.998452
0.999828 1 1.00126 0.998571
1.0194 1.02233 0.998738 0.998389
1.01265 1.01446 0.999872 0.998345
1.00398 1.0062 1 0.9978
1.00277 1.00072 1.00426 0.997799
0.999592 1 1 0.999592
0.999352 1 1 0.999352
0.999209 1 1 0.999209
0.99963 1 1 0.99963
0.999374 1 1 0.999374
0.999634 1 1 0.999634
0.999248 1 1 0.999248
0.999396 1 1 0.999396
0.999141 1 1 0.999141
0.999237 1 1 0.999237
0.999382 1 1 0.999382
0.999626 1 1 0.999626
0.999931 1 1 0.999931
0.999935 1 1 0.999935
1 1 1 1
0.999939 1 1 0.999939
1 1 1 1
1 1 1 1
1 1 1 1
1 1 1 1
1 1 1 1
1 1 1 1
1 1 1 1
1 1 1 1
1 1 1 1
1 1 1 1
1 1 1 1
1.01247 1.01451 1 0.99799
1.01747 1.01956 1 0.997954
1.0162 1.01803 1 0.99821
1.0179 1.01993 1 0.998008
1.01919 1.02139 1 0.997845
1.01421 1.01649 1 0.99775
1.01869 1.02091 1 0.997823
1.01885 1.02095 0.999981 0.997961
1.01862 1.02063 0.999919 0.99811
1.0169 1.01868 1 0.998252
1.01958 1.02171 1 0.997917
1.02195 1.02536 0.998539 0.998131
1.02135 1.02349 0.999664 0.998246
1.01924 1.02146 1 0.997833
1.0179 1.02005 1 0.997896
1.01498 1.01691 1 0.998106
0.998798 1 1 0.998798
0.998743 1.00012 1.00018 0.998443
1.00315 1.00453 1.00085 0.997776
1.01295 1.01479 1 0.998189
1.01073 1.01242 1 0.998323
1.00883 1.01085 1 0.997995
0.998826 1 1 0.998826
0.998838 1 1 0.998838
0.999895 1 1.00116 0.998734
0.999794 1 1 0.999794
0.999121 1 1.00006 0.99906
0.999349 1 1 0.999349
1.01991 1.02207 1 0.997884
1.01901 1.0215 0.999539 0.998023
1.01459 1.01653 0.999907 0.998188
0.998691 1 1 0.998691
0.999774 1.00029 1.0014 0.998091
1.00376 1.00518 1.0009 0.99768
1.01587 1.01762 0.999908 0.998371
1.00958 1.01151 1 0.9981
0.999871 1 1 0.999871
0.99948 1 1 0.99948
0.998766 1 1 0.998766
0.9992 1 1.00049 0.998714
1.00016 1 1.00134 0.99882
0.99914 1 1 0.99914
1.02229 1.02534 0.998973 0.998047
1.01583 1.02066 0.99712 0.998148
1.01636 1.01891 0.999109 0.998381
1.01351 1.01512 1 0.998407
0.999405 1 1.00088 0.998522
1.0033 1.0042 1.0014 0.997706
1.00077 1.00029 1.00264 0.997842
0.999936 1 1 0.999936
0.99965 1 1 0.99965
0.999504 1 1 0.999504
0.999205 1 1 0.999205
0.999196 1 1.00026 0.998935
0.999585 1 1.0009 0.998689
0.99879 1 1 0.99879
1.00602 1 1.00722 0.998812
0.999549 1 1 0.999549
0.999175 1 1 0.999175
1.01419 1.01595 1 0.99827
1.00056 1 1.00175 0.998812
1.00077 1 1.00215 0.998616
0.998771 1 1.00004 0.998735
1.00432 1.00636 1 0.997977
1.00843 1.0102 1 0.998252
1.0031 1.00018 1.00482 0.998108
1.00017 1.00245 1 0.997721
0.999271 1 1 0.999271
0.999099 1 1.00019 0.998905
1.00262 1 1.00415 0.99847
0.999563 1 1.00097 0.998593
1.01978 1.02265 0.9988 0.998393
1.01199 1.01375 0.999949 0.998321
1.00474 1.00692 1 0.997838
1.00229 1.00076 1.00377 0.997767
0.999111 1 1 0.999111
1.01873 1.02329 0.99717 0.99837
0.999837 1 1.00114 0.998697
1.00093 1 1.00268 0.998255
1.01738 1.01999 0.998958 0.998485
1.00617 1.00829 1 0.997894
1.00403 1.00316 1.00323 0.997634
0.999364 1 1 0.999364
0.999208 1 1 0.999208
0.999084 1 1 0.999084
0.999633 1 1 0.999633
0.999406 1 1 0.999406
0.999229 1 1 0.999229
0.999626 1 1 0.999626
0.999384 1 1 0.999384
0.999124 1 1 0.999124
0.999257 1 1 0.999257
0.999041 1 1 0.999041
0.999114 1 1 0.999114
0.999251 1 1 0.999251
0.999381 1 1 0.999381
0.999609 1 1 0.999609
0.999926 1 1 0.999926
0.99993 1 1 0.99993
1 1 1 1
0.999935 1 1 0.999935
1 1 1 1
1 1 1 1
1 1 1 1
1 1 1 1
1 1 1 1
0.999958 1 1 0.999958
1 1 1 1
1 1 1 1
1 1 1 1
1 1 1 1
1 1 1 1
1 1 1 1
1.01817 1.01996 1 0.998249
1.0184 1.02044 0.999882 0.998112
1.01809 1.0202 0.999975 0.997956
1.01852 1.02074 1 0.997829
1.01968 1.0218 0.999987 0.99793
1.02235 1.02567 0.998642 0.998119
1.0216 1.02383 0.999563 0.99826
1.02233 1.02653 0.997806 0.998101
1.025 1.0292 0.997663 0.998251
1.01082 1.02055 0.992006 0.998444
1.02054 1.0227 1 0.997888
1.01938 1.02166 0.99974 0.998028
1.0146 1.01652 0.999934 0.998178
0.998739 1 1.00006 0.998682
0.999917 1.0005 1.00126 0.998162
1.00339 1.00492 1.00078 0.997699
1.01602 1.01779 0.999882 0.998384
1.00948 1.01141 1 0.998092
0.998775 1 1 0.998775
0.999402 1 1.00065 0.998757
1.00029 1 1.00147 0.998826
0.999899 1 1 0.999899
0.99948 1 1 0.99948
0.999122 1 1 0.999122
1.02168 1.02488 0.998807 0.998062
0.999932 1 1 0.999932
0.999633 1 1 0.999633
1.016 1.02014 0.997792 0.998147
1.01719 1.01968 0.999211 0.99835
0.999417 1 1.00084 0.998578
1.00169 1.00059 1.0033 0.997808
1.00327 1.00473 1.00084 0.997712
1.01269 1.01431 1 0.998396
0.999552 1 1 0.999552
0.999203 1 1 0.999203
0.998742 1 1 0.998742
1.0033 1 1.00442 0.998894
0.999788 1 1.00112 0.99867
0.999189 1 1.00025 0.998942
1.02341 1.02788 0.997437 0.998218
1.01224 1.01994 0.994157 0.998282
1.01481 1.01855 0.997747 0.998577
1.00429 1.00628 0.999877 0.99814
1.00089 1 1.00234 0.998547
1.00397 1.00088 1.00547 0.997638
0.999653 1 1 0.999653
0.999603 1 1 0.999603
0.999419 1 1 0.999419
0.999208 1 1 0.999208
0.999037 1 1 0.999037
0.999044 1 1.0003 0.99874
1.01034 1 1.01174 0.998614
0.999902 1 1.00098 0.998923
0.999259 1 1 0.999259
0.999233 1 1.00032 0.998914
1.02026 1.02306 0.998861 0.998396
1.01152 1.01324 1 0.998298
0.999354 1 1.00074 0.998615
1.00289 1 1.00441 0.998489
1.00562 1.00772 1.00004 0.997876
1.00182 1.00075 1.00335 0.997735
0.999106 1 1 0.999106
1.01904 1.02433 0.996438 0.998393
0.99982 1 1.00111 0.998709
1.00092 1 1.00269 0.998231
1.01692 1.01954 0.998965 0.998461
1.0069 1.00899 1 0.997928
1.00372 1.0026 1.00348 0.997645
0.999608 1 1.00073 0.998881
1.01683 1.02469 0.993676 0.998647
0.999782 1 1.00126 0.998525
1.00223 1.00045 1.00379 0.997999
1.00839 1.01307 0.997202 0.998177
1.00181 1.0019 1.00221 0.99771
1.0054 1.00817 0.998499 0.998748
0.999206 1 1 0.999206
0.999083 1 1 0.999083
0.998973 1 1 0.998973
0.999625 1 1 0.999625
0.999385 1 1 0.999385
0.999277 1 1 0.999277
0.999107 1 1 0.999107
0.999609 1 1 0.999609
0.999372 1 1 0.999372
0.999028 1 1 0.999028
0.99925 1 1 0.99925
0.99913 1 1 0.99913
0.999019 1 1 0.999019
0.999142 1 1 0.999142
0.999248 1 1 0.999248
0.99933 1 1 0.99933
0.999557 1 1 0.999557
0.999414 1 1 0.999414
0.999558 1 1 0.999558
0.999921 1 1 0.999921
0.999925 1 1 0.999925
1 1 1 1
0.999929 1 1 0.999929
1 1 1 1
1 1 1 1
1 1 1 1
1 1 1 1
1 1 1 1
0.99997 1 1 0.99997
0.999955 1 1 0.999955
1 1 1 1
1 1 1 1
1 1 1 1
1 1 1 1
1 1 1 1
1 1 1 1
1.02183 1.02414 0.999465 0.998273
1.02277 1.026 0.998741 0.998107
1.0198 1.02194 0.999964 0.997944
1.02215 1.02629 0.997867 0.998099
1.02375 1.02785 0.997758 0.998249
1.01151 1.02065 0.992592 0.998435
1.01998 1.02794 0.993929 0.998319
1.00535 1.01596 0.991333 0.998209
1.01324 1.02432 0.990386 0.998794
0.99972 1 1 0.99972
1.02109 1.02442 0.998674 0.998077
1.01624 1.01962 0.998542 0.998146
1.0178 1.0203 0.999236 0.998318
0.999454 1 1.00082 0.998635
1.00279 1.001 1.00402 0.997774
1.0037 1.00554 1.00045 0.997718
1.01191 1.01354 1 0.998384
0.998695 1 1 0.998695
1.0005 1 1.00152 0.998978
0.999928 1 1.00128 0.998652
0.999928 1 1 0.999928
0.999136 1 1.00019 0.99895
0.9996 1 1 0.9996
0.999201 1 1 0.999201
0.999616 1 1 0.999616
1.02277 1.02856 0.996145 0.998226
0.999676 1 1 0.999676
0.999602 1 1 0.999602
0.999384 1 1 0.999384
1.01269 1.01994 0.994591 0.998285
1.01435 1.01788 0.997994 0.99853
1.0002 1 1.00164 0.998564
1.00371 1.00052 1.00555 0.997653
1.00402 1.00581 1.00008 0.998142
0.999233 1 1 0.999233
0.99902 1 1 0.99902
1.00167 1 1.00281 0.998866
1.00847 1 1.00984 0.99865
0.998994 1 1.00023 0.998761
1.01461 1.0229 0.99358 0.9983
1.01196 1.0223 0.991464 0.998402
1.00873 1.012 0.998437 0.998327
1.00452 1.00334 1.00318 0.997999
1.00336 1 1.00483 0.998535
0.99938 1 1 0.99938
0.999286 1 1 0.999286
0.999189 1 1 0.999189
0.999034 1 1 0.999034
0.9989 1 1.00003 0.998874
1.00726 1 1.00862 0.998649
1.01052 1 1.01198 0.99856
0.9991 1 1 0.9991
0.999772 1 1.00105 0.998721
1.01903 1.02527 0.995489 0.998415
1.01622 1.01892 0.99891 0.998436
1.00738 1.00944 1 0.997963
1.00088 1 1.00268 0.998208
1.00317 1.00192 1.0036 0.997656
0.999488 1 1.00058 0.998912
1.01608 1.02457 0.993053 0.998653
0.999628 1 1.00108 0.998546
1.00229 1.00021 1.00408 0.99801
1.00958 1.01358 0.997817 0.998239
1.00233 1.00195 1.00269 0.997697
1.00519 1.0084 0.998401 0.998414
0.999531 1 1.00077 0.99876
1.00476 1.01593 0.990352 0.998636
1.00044 1 1.00194 0.998502
1.0043 1 1.00636 0.997954
1.0034 1.00441 1.00104 0.997959
0.957705 0.977239 0.990552 0.989358
0.982925 0.98865 0.999157 0.995048
0.981082 1.00026 0.981946 0.998859
0.884837 0.918668 0.974047 0.988837
0.85743 0.922156 0.941315 0.987778
0.999081 1 1 0.999081
0.998986 1 1 0.998986
0.998992 1 1 0.998992
0.999608 1 1 0.999608
0.999362 1 1 0.999362
0.999249 1 1 0.999249
0.999146 1 1 0.999146
0.999016 1 1 0.999016
0.99923 1 1 0.99923
0.999576 1 1 0.999576
0.999342 1 1 0.999342
0.999024 1 1 0.999024
0.999141 1 1 0.999141
0.999149 1 1 0.999149
0.999087 1 1 0.999087
0.999183 1 1 0.999183
0.999303 1 1 0.999303
0.999551 1 1 0.999551
0.999362 1 1 0.999362
0.99926 1 1 0.99926
0.999388 1 1 0.999388
0.999388 1 1 0.999388
0.999603 1 1 0.999603
0.999556 1 1 0.999556
0.999918 1 1 0.999918
0.999921 1 1 0.999921
1 1 1 1
0.999924 1 1 0.999924
1 1 1 1
1 1 1 1
1 1 1 1
1 1 1 1
1 1 1 1
0.999976 1 1 0.999976
0.999968 1 1 0.999968
1 1 1 1
0.999952 1 1 0.999952
1 1 1 1
1 1 1 1
1 1 1 1
1 1 1 1
1 1 1 1
1.02255 1.02655 0.997859 0.998246
1.02194 1.02601 0.997933 0.998097
1.01217 1.02062 0.99328 0.998427
1.00541 1.01572 0.991591 0.998244
1.01905 1.02696 0.993965 0.998317
1.01673 1.02586 0.992363 0.998731
1.02171 1.02764 0.995889 0.998333
0.968684 0.984914 0.989176 0.994284
1.01109 1.01935 0.99334 0.998549
0.99973 1 1 0.99973
0.999719 1 1 0.999719
0.999457 1 1 0.999457
0.999486 1 1 0.999486
1.02205 1.02917 0.994838 0.998233
1.01298 1.0197 0.995111 0.998289
1.01406 1.01724 0.998393 0.998483
0.999353 1 1.00077 0.998582
1.00316 1.00014 1.00536 0.997667
1.00381 1.00555 1.00013 0.998144
1.00342 1 1.00462 0.998807
1.00671 1 1.00803 0.998685
0.998973 1 1.00019 0.998781
0.999601 1 1 0.999601
0.999004 1 1 0.999004
0.999258 1 1 0.999258
0.9997 1 1 0.9997
0.999349 1 1 0.999349
1.01283 1.02146 0.993225 0.998315
0.999417 1 1 0.999417
0.99931 1 1 0.99931
0.999199 1 1 0.999199
1.01398 1.02385 0.99194 0.998412
1.00755 1.01116 0.998103 0.998323
1.00322 1 1.0047 0.998528
1.00454 1.00376 1.00279 0.997994
0.999042 1 1.00001 0.999036
0.998873 1 1 0.998873
1.01073 1 1.01218 0.998561
1.00821 1 1.00959 0.998628
1.0129 1.02512 0.989722 0.99834
1.0009 1.01808 0.984707 0.998393
1.00472 1.00602 1.00066 0.998042
1.00153 1 1.00306 0.99847
0.999117 1 1 0.999117
0.999093 1 1.00001 0.999081
1.0011 1 1.00227 0.998833
1.01893 1 1.02055 0.998418
0.945102 0.972744 0.982476 0.988913
0.999509 1 1.00057 0.998942
0.999608 1 1.00104 0.998567
1.01517 1.0243 0.99241 0.998659
1.01087 1.01406 0.998556 0.998302
1.0031 1.00212 1.0033 0.997684
1.00248 1 1.00447 0.99802
1.0043 1.00832 0.997935 0.998073
0.99965 1 1.00087 0.998784
1.00386 1.01571 0.989699 0.998622
0.999948 1 1.00144 0.998512
1.00406 1.00001 1.00611 0.997956
1.00368 1.00557 1.00014 0.997981
0.955273 0.977353 0.98804 0.989241
0.978263 0.987068 0.997458 0.993605
0.98296 0.998691 0.98533 0.998902
0.888103 0.918511 0.978055 0.988588
0.842385 0.910582 0.937513 0.986767
0.99955 1 1.00067 0.998885
0.902707 0.931747 0.980035 0.98857
0.893244 0.926847 0.974859 0.9886
0.981611 1.0062 0.976961 0.998573
1.00494 1 1.00638 0.998569
1.01014 1.00184 1.01018 0.998127
0.981442 0.995059 0.987263 0.99904
0.958363 0.972627 0.996482 0.988813
0.968237 0.973247 1.00177 0.993093
0.86689 0.918556 0.954366 0.988879
0.896216 0.952154 0.951222 0.989518
0.998998 1 1 0.998998
0.998987 1 1 0.998987
0.999156 1 1 0.999156
0.999596 1 1 0.999596
0.999355 1 1 0.999355
0.999212 1 1 0.999212
0.99914 1 1 0.99914
0.999029 1 1 0.999029
0.999551 1 1 0.999551
0.999147 1 1 0.999147
0.999201 1 1 0.999201
0.999324 1 1 0.999324
0.999082 1 1 0.999082
0.999102 1 1 0.999102
0.999297 1 1.0002 0.9991
0.999173 1 1 0.999173
0.999337 1 1 0.999337
0.999361 1 1 0.999361
0.999245 1 1 0.999245
0.999215 1 1 0.999215
0.999238 1 1 0.999238
0.999179 1 1 0.999179
0.999125 1 1 0.999125
0.999369 1 1 0.999369
0.999388 1 1 0.999388
0.999606 1 1 0.999606
0.999362 1 1 0.999362
0.999586 1 1 0.999586
0.999917 1 1 0.999917
0.999555 1 1 0.999555
0.999918 1 1 0.999918
1 1 1 1
0.999921 1 1 0.999921
1 1 1 1
1 1 1 1
1 1 1 1
1 1 1 1
1 1 1 1
0.999717 1 1 0.999717
0.999977 1 1 0.999977
0.999975 1 1 0.999975
1 1 1 1
0.999965 1 1 0.999965
1 1 1 1
1 1 1 1
1 1 1 1
1 1 1 1
1 1 1 1
1.00662 1.01579 0.992681 0.99828
1.01835 1.02615 0.994076 0.998316
1.02003 1.02763 0.993921 0.998669
0.969733 0.982983 0.991423 0.995056
1.01135 1.01907 0.993801 0.998614
1.02316 1.02981 0.995229 0.998307
1.01707 1.02334 0.995494 0.998372
0.974965 0.985476 0.99381 0.995496
0.957208 0.976577 0.991917 0.988153
0.865493 0.910235 0.962624 0.987765
0.842418 0.901351 0.94644 0.987507
0.999447 1 1 0.999447
0.999729 1 1 0.999729
0.999718 1 1 0.999718
0.999446 1 1 0.999446
0.999278 1 1 0.999278
0.999316 1 1 0.999316
0.999453 1 1 0.999453
0.999468 1 1 0.999468
1.01125 1.02031 0.992783 0.99833
1.01628 1.02602 0.99207 0.998422
1.00637 1.01032 0.997765 0.99832
1.0034 1 1.00488 0.998522
1.00463 1.00392 1.00272 0.997988
1.0107 1 1.01215 0.998562
1.00931 1 1.01072 0.998606
0.998872 1 1 0.998872
0.999333 1 1 0.999333
0.999037 1 1 0.999037
0.999454 1 1 0.999454
0.99921 1 1 0.99921
1.0135 1.02542 0.990037 0.998319
0.999138 1 1 0.999138
0.99909 1 1 0.99909
1.00226 1.01711 0.987002 0.998375
1.00435 1.00636 0.999867 0.998134
1.00339 1.00023 1.00475 0.998418
1.00229 1 1.00348 0.998811
1.01674 1 1.01834 0.998424
1.01239 1.02325 0.991083 0.998295
0.984209 1.00517 0.980718 0.998395
0.999395 1 1.00103 0.998365
1.00736 1 1.00889 0.998489
0.999004 1 1 0.999004
1.00042 1 1.00153 0.998892
1.01384 1 1.01525 0.998608
0.891243 0.934155 0.964763 0.98891
0.953336 0.974234 0.988568 0.989866
0.99955 1 1.00074 0.998807
0.999588 1 1.00107 0.998522
1.00399 1.01591 0.989642 0.998609
1.00402 1.0069 0.999145 0.998003
1.00366 1 1.00571 0.997958
0.955321 0.97618 0.990398 0.98812
0.980101 0.989786 0.995877 0.994315
0.98547 0.997722 0.988766 0.998943
0.882149 0.91928 0.970869 0.988401
0.828045 0.898313 0.935104 0.985748
0.999288 1 1.0004 0.998886
0.896238 0.934733 0.969516 0.988964
0.890625 0.922714 0.976737 0.988212
0.984158 1.00698 0.978747 0.998561
1.00454 1 1.00596 0.998588
1.00929 1.00094 1.01014 0.99822
0.973977 0.991478 0.983244 0.99909
0.961748 0.977213 0.996069 0.988058
0.970862 0.977121 0.999105 0.994485
0.868839 0.913719 0.962666 0.987758
0.895471 0.952654 0.95038 0.989052
1.00111 1 1.00206 0.999046
0.914349 0.931782 0.991314 0.989889
0.96805 0.976608 0.998239 0.992985
0.988556 1.00081 0.988774 0.998969
1.01124 1.00065 1.01163 0.998957
0.994242 0.987247 1.00772 0.999373
0.959458 0.970004 0.993515 0.995584
0.955439 0.963756 1.00339 0.988025
0.888982 0.934506 0.962913 0.987925
0.922324 0.970576 0.958712 0.99121
0.998982 1 1 0.998982
0.999135 1 1 0.999135
0.999739 1 1.00042 0.999318
0.999551 1 1 0.999551
0.999345 1 1 0.999345
0.999218 1 1 0.999218
0.999145 1 1 0.999145
0.999077 1 1 0.999077
0.999337 1 1 0.999337
0.999112 1 1 0.999112
0.999172 1 1 0.999172
0.999361 1 1.00024 0.999117
0.999945 1 1.00069 0.999254
0.999179 1 1.00009 0.999092
0.999175 1 1 0.999175
0.999359 1 1 0.999359
0.999231 1 1 0.999231
0.999214 1 1 0.999214
0.999236 1 1 0.999236
0.999181 1 1 0.999181
0.9992 1 1 0.9992
0.999154 1 1 0.999154
0.999158 1 1 0.999158
0.998973 1 1 0.998973
0.999439 1 1.0007 0.998736
0.99902 1 1 0.99902
0.999123 1 1 0.999123
0.999324 1 1 0.999324
0.999367 1 1 0.999367
0.999599 1 1 0.999599
0.999388 1 1 0.999388
0.999606 1 1 0.999606
0.999917 1 1 0.999917
0.99957 1 1 0.99957
0.999917 1 1 0.999917
1 1 1 1
0.999918 1 1 0.999918
1 1 1 1
1 1 1 1
1 1 1 1
1 1 1 1
1 1 1 1
0.999735 1 1 0.999735
0.999971 1 1 0.999971
0.999717 1 1 0.999717
1 1 1 1
0.999977 1 1 0.999977
0.999974 1 1 0.999974
1 1 1 1
1 1 1 1
1 1 1 1
1 1 1 1
1 1 1 1
0.892806 0.926522 0.974425 0.988901
0.898566 0.927949 0.97895 0.989157
0.971965 0.985 0.991175 0.995552
1.01251 1.01871 0.995223 0.99868
1.02462 1.03166 0.994885 0.998281
0.971969 0.981946 0.993144 0.996673
1.01724 1.02309 0.995869 0.9984
0.959626 0.978542 0.991178 0.989398
0.879577 0.916082 0.971227 0.988596
0.832791 0.898605 0.939467 0.986475
0.993536 0.999569 0.996345 0.99761
0.958153 0.972426 0.996071 0.989209
0.860015 0.91384 0.951925 0.988629
0.89394 0.946716 0.955197 0.988544
0.999215 1 1 0.999215
0.999463 1 1 0.999463
0.999729 1 1 0.999729
0.999435 1 1 0.999435
0.999301 1 1 0.999301
0.999244 1 1 0.999244
0.999316 1 1 0.999316
0.999353 1 1 0.999353
0.999432 1 1 0.999432
0.999451 1 1 0.999451
1.01365 1.02536 0.990266 0.998299
1.00266 1.01528 0.989196 0.998358
1.00401 1.00681 0.998995 0.998226
1.00495 1.00049 1.0061 0.998367
1.01397 1 1.01556 0.99843
1.00336 1 1.00458 0.998788
0.999098 1 1 0.999098
0.999159 1 1 0.999159
1.01065 1.02339 0.989247 0.99829
0.998995 1 1 0.998995
1.00035 1 1.00148 0.998869
0.985654 1.00451 0.98287 0.998332
0.999646 1.00001 1.00116 0.998472
1.00751 1 1.00912 0.998408
1.01199 1 1.01342 0.998587
1.00123 1.00669 0.996003 0.998562
0.989696 1 0.99078 0.998906
1.01205 1 1.0135 0.998566
0.998984 1 1 0.998984
0.999378 1 1.00053 0.998847
1.00647 1 1.00779 0.998692
0.917594 0.936327 0.988813 0.99108
0.898712 0.933883 0.973539 0.988496
0.949892 0.976078 0.984095 0.988901
0.998887 1 1 0.998887
1.00414 1 1.00554 0.998607
0.986912 1.00752 0.980968 0.998551
1.00857 1 1.01028 0.998312
0.891959 0.931559 0.96875 0.988377
0.960244 0.974903 0.995265 0.98965
0.968397 0.978026 0.996976 0.993158
0.970703 0.988592 0.982746 0.999143
0.871445 0.914353 0.964262 0.988396
0.892551 0.926359 0.97513 0.988078
0.889496 0.949621 0.947217 0.988881
1.00165 1 1.0026 0.999049
0.91481 0.934718 0.988442 0.990146
0.97105 0.978841 0.99909 0.992944
0.990696 1.00036 0.991314 0.999022
1.01086 1.00014 1.01179 0.998943
0.993502 0.9881 1.00636 0.999117
0.960362 0.969951 0.996194 0.993896
0.956211 0.967971 0.999451 0.988393
0.894078 0.940864 0.960932 0.988909
0.914122 0.963561 0.957269 0.99104
1.00219 0.999757 1.00295 0.999485
0.970155 0.978464 0.99685 0.994641
0.964518 0.972069 0.996949 0.995269
1.00849 0.995622 1.01321 0.999715
0.976648 0.974594 1.00469 0.997424
0.961838 0.965174 1.00881 0.987844
0.927745 0.957906 0.979118 0.989169
0.93033 0.980199 0.958056 0.990676
0.999114 1 1 0.999114
0.999675 1 1.00036 0.99932
1.0025 1 1.00306 0.999448
0.999336 1 1 0.999336
0.999172 1 1 0.999172
0.999121 1 1 0.999121
0.999414 1 1.00028 0.999133
0.999175 1 1 0.999175
0.999121 1 1.00003 0.99909
1.00132 1 1.00204 0.999284
1.0028 0.998672 1.00469 0.999446
1.00091 1 1.00172 0.999197
0.999112 1 1 0.999112
0.999214 1 1 0.999214
0.999234 1 1 0.999234
0.999182 1 1 0.999182
0.999158 1 1 0.999158
0.999199 1 1 0.999199
0.999162 1 1 0.999162
0.999102 1 1 0.999102
0.999204 1 1 0.999204
0.998981 1 1 0.998981
0.99899 1 1 0.99899
0.999502 1 1.00069 0.998809
0.999788 1 1.00133 0.99846
0.998975 1 1.00002 0.998957
0.9994 1 1.0006 0.998802
0.999048 1 1 0.999048
0.999218 1 1 0.999218
0.999121 1 1 0.999121
0.999322 1 1 0.999322
0.999573 1 1 0.999573
0.999366 1 1 0.999366
0.999598 1 1 0.999598
0.999915 1 1 0.999915
0.999606 1 1 0.999606
0.999917 1 1 0.999917
1 1 1 1
0.999917 1 1 0.999917
1 1 1 1
1 1 1 1
1 1 1 1
1 1 1 1
1 1 1 1
0.999644 1 1 0.999644
0.999964 1 1 0.999964
0.999695 1 1 0.999695
1 1 1 1
0.999973 1 1 0.999973
0.999717 1 1 0.999717
1 1 1 1
1 1 1 1
0.999977 1 1 0.999977
1 1 1 1
1 1 1 1
1 1 1 1
0.919908 0.936481 0.991393 0.990831
0.89474 0.930233 0.973112 0.988421
0.969729 0.980434 0.996226 0.992828
0.889548 0.921401 0.976457 0.988706
0.9685 0.981954 0.991208 0.995047
1.01643 1.02296 0.995179 0.998428
0.961118 0.979111 0.990906 0.990632
0.880779 0.919957 0.969087 0.987955
0.82514 0.897421 0.933041 0.98544
0.989796 0.998014 0.994751 0.996999
0.959863 0.973637 0.997677 0.988149
0.867479 0.918822 0.956075 0.987496
0.891214 0.946173 0.953247 0.988111
0.981154 0.990081 0.994458 0.996507
0.96575 0.968656 1.00937 0.987748
0.893922 0.942549 0.959317 0.988629
0.919887 0.97125 0.956362 0.990333
0.99909 1 1 0.99909
0.999239 1 1 0.999239
0.999479 1 1 0.999479
0.999323 1 1 0.999323
0.999117 1 1 0.999117
0.99926 1 1 0.99926
0.999315 1 1 0.999315
0.999331 1 1 0.999331
0.999375 1 1 0.999375
0.999412 1 1 0.999412
1.00919 1.02408 0.987152 0.998286
0.988164 1.00428 0.98566 0.99827
0.999963 1 1.00139 0.998578
1.00844 1 1.01013 0.998328
1.01075 1 1.0122 0.998567
1.00018 1 1.00133 0.998845
0.998987 1 1 0.998987
0.998985 1 1 0.998985
0.995749 1.00634 0.990881 0.998578
0.999125 1 1.00027 0.998858
1.00681 1 1.00814 0.998687
0.988333 1 0.989481 0.99884
1.01068 1 1.01214 0.998553
0.97153 0.994531 0.977812 0.999039
1.00638 0.999922 1.00718 0.999282
1.0079 1 1.00917 0.998751
0.998902 1 1.00002 0.99888
1.0048 1 1.00612 0.998691
0.967882 0.974769 0.997432 0.995492
0.921158 0.936324 0.992497 0.99124
0.893837 0.931136 0.970452 0.98917
1.00221 1 1.00317 0.999052
1.01024 0.999489 1.01185 0.998928
0.991064 1 0.991985 0.999071
0.92351 0.939336 0.992367 0.990714
0.964542 0.967958 1.00883 0.98775
0.962876 0.971124 0.996402 0.995087
0.985714 0.986535 1.00033 0.998835
0.894464 0.939532 0.963667 0.987926
0.973385 0.980327 1.00001 0.992905
0.910545 0.961015 0.955981 0.991111
1.00206 0.999605 1.00299 0.999473
0.969079 0.976963 0.996788 0.995127
0.968189 0.975119 0.997602 0.99528
1.00943 0.996846 1.01305 0.999573
0.976384 0.974811 1.00465 0.996979
0.960145 0.966896 1.00579 0.987301
0.930431 0.982717 0.955134 0.991269
0.917784 0.952257 0.97483 0.988684
1.00421 0.99725 1.00727 0.999711
0.96233 0.972358 0.991798 0.997871
0.974458 0.984458 0.994108 0.995709
0.922439 0.972741 0.957524 0.990354
0.995901 0.981953 1.01494 0.99928
0.974574 0.972441 1.01401 0.988349
0.91347 0.938973 0.98357 0.98909
0.999589 1 1.00027 0.999321
1.00181 1 1.00241 0.999405
1.00595 0.998834 1.00756 0.999566
0.999174 1 1 0.999174
0.999088 1 1 0.999088
1.00323 1 1.00392 0.999314
0.999119 1 1 0.999119
1.00126 1 1.00206 0.9992
1.00451 0.999159 1.00594 0.999421
1.00224 0.999893 1.00286 0.999489
1.00098 1 1.00179 0.999194
0.999162 1 1 0.999162
0.999197 1 1 0.999197
0.999167 1 1 0.999167
0.999197 1 1 0.999197
0.999111 1 1 0.999111
0.999479 1 1.00032 0.99916
0.999053 1 1 0.999053
1.00119 1 1.00259 0.998607
0.999008 1 1 0.999008
0.999352 1 1.00056 0.998789
0.999323 1 1.00101 0.998311
0.999602 1 1.00118 0.998419
0.999475 1 1.00065 0.998825
0.999634 1 1.00116 0.998475
0.999133 1 1 0.999133
0.998981 1 1.00005 0.998933
0.999297 1 1.00043 0.998868
0.999076 1 1 0.999076
0.999242 1 1 0.999242
0.999524 1 1 0.999524
0.999321 1 1 0.999321
0.999572 1 1 0.999572
0.999909 1 1 0.999909
0.999597 1 1 0.999597
0.999914 1 1 0.999914
1 1 1 1
0.999916 1 1 0.999916
1 1 1 1
1 1 1 1
1 1 1 1
1 1 1 1
1 1 1 1
0.999527 1 1 0.999527
0.999893 1 1 0.999893
0.999643 1 1 0.999643
1 1 1 1
0.99994 1 1 0.99994
0.999656 1 1 0.999656
1 1 1 1
1 1 1 1
0.999975 1 1 0.999975
1 1 1 1
1 1 1 1
1 1 1 1
0.966923 0.975521 0.996038 0.995128
0.909994 0.934577 0.983036 0.9905
0.896016 0.927986 0.977064 0.988215
0.999262 1 1 0.999262
0.961459 0.969981 0.995454 0.995741
0.972507 0.980881 0.998657 0.992797
0.883332 0.921096 0.970136 0.988522
0.98937 0.998338 0.994704 0.996293
0.964648 0.975229 1.00012 0.98903
0.873345 0.927356 0.953069 0.988133
0.884418 0.941555 0.950737 0.987988
0.982876 0.991746 0.996321 0.994715
0.954847 0.963689 1.00242 0.98843
0.90122 0.944713 0.965186 0.988371
0.918448 0.969403 0.956976 0.990032
0.969169 0.977537 0.998002 0.993425
0.967013 0.962593 1.01804 0.986794
0.917508 0.954227 0.972856 0.988347
0.926836 0.978083 0.95653 0.990669
0.998974 1 1 0.998974
0.999077 1 1 0.999077
0.999262 1 1 0.999262
0.999114 1 1 0.999114
0.999144 1 1 0.999144
0.999276 1 1 0.999276
0.999337 1 1 0.999337
0.999398 1 1 0.999398
0.990089 1.00568 0.985883 0.998592
0.986403 1 0.987615 0.998773
0.998987 1 1 0.998987
1.00887 1 1.01035 0.998539
1.00693 1 1.00826 0.998682
0.999167 1 1.0003 0.99887
0.998962 1 1.00008 0.998886
0.976993 0.99683 0.981027 0.999054
1.00481 1 1.0061 0.998717
1.0072 1 1.00846 0.998752
1.00054 0.999918 1.00132 0.999304
0.99912 1 1.0002 0.998917
0.969385 0.988312 0.981422 0.999417
1.01138 0.998374 1.01358 0.999454
1.00751 1 1.0087 0.998827
1.00081 1 1.00198 0.998839
0.970083 0.973933 0.997803 0.99824
0.967572 0.974116 0.997706 0.995566
0.925136 0.936719 0.996197 0.991405
1.00186 0.999522 1.00288 0.999462
1.01136 0.998082 1.01388 0.999435
0.968399 0.975905 0.996683 0.995611
0.968992 0.965924 1.01514 0.988217
0.972928 0.971983 1.00599 0.995008
0.922015 0.955035 0.977196 0.987955
0.971018 0.977274 0.998298 0.995292
0.93213 0.986576 0.952565 0.991861
1.00446 0.997622 1.00717 0.999678
0.961816 0.97177 0.991854 0.997885
0.973743 0.982555 0.994695 0.996317
1.00482 0.989035 1.01607 0.999893
0.920305 0.971253 0.957078 0.990038
0.96792 0.967554 1.01245 0.988078
0.923265 0.952941 0.980552 0.988075
1.008 0.99491 1.01339 0.999771
0.972264 0.98298 0.990718 0.998364
0.962373 0.971481 0.994838 0.995764
0.89489 0.949425 0.953434 0.988595
0.91754 0.956435 0.970851 0.988137
0.980832 0.97659 1.00532 0.999029
0.976014 0.965219 1.02472 0.986793
1.00072 1 1.00136 0.999362
1.00541 0.998517 1.00736 0.99955
1.00367 0.990107 1.01412 0.999582
0.999126 1 1 0.999126
1.00095 1 1.00174 0.999204
1.00562 1 1.00622 0.999396
0.999939 1 1.00075 0.999188
1.00199 0.999608 1.0029 0.999488
1.00618 0.998775 1.00811 0.999304
0.999189 1 1 0.999189
0.99912 1 1 0.99912
1.00009 1 1.00096 0.999131
1.00653 1 1.0078 0.998744
0.999124 1 1 0.999124
1.00066 1 1.00198 0.998678
1.00232 1 1.00413 0.998196
0.999874 1.00001 1.00188 0.99799
0.999173 1 1.0004 0.998769
0.999353 1 1.00109 0.99826
0.999032 1 1.00053 0.998508
1.0004 1 1.00172 0.998688
0.999568 1 1.00111 0.998462
0.99922 1 1.00019 0.999034
0.999426 1 1.00061 0.99882
0.999562 1 1.00107 0.99849
0.99944 1 1 0.99944
0.999125 1 1 0.999125
0.998989 1 1.00008 0.998909
0.999266 1 1 0.999266
0.999522 1 1 0.999522
0.999893 1 1 0.999893
0.999571 1 1 0.999571
0.999906 1 1 0.999906
1 1 1 1
0.999913 1 1 0.999913
1 1 1 1
1 1 1 1
1 1 1 1
1 1 1 1
1 1 1 1
0.99948 1 1 0.99948
0.999847 1 1 0.999847
0.99955 1 1 0.99955
1 1 1 1
0.999889 1 1 0.999889
0.999641 1 1 0.999641
1 1 1 1
1 1 1 1
0.999917 1 1 0.999917
1 1 1 1
1 1 1 1
1 1 1 1
0.96185 0.970744 0.992946 0.997876
0.967314 0.975808 0.996144 0.995133
0.91021 0.935606 0.982129 0.990558
0.999274 1 1 0.999274
0.999236 1 1 0.999236
0.999144 1 1 0.999144
0.973742 0.983481 0.994382 0.995691
0.963327 0.97056 0.996772 0.995762
0.97508 0.981277 1.00093 0.992765
0.98832 0.991579 1.00064 0.996079
0.956809 0.965041 1.00372 0.987797
0.893242 0.936728 0.965183 0.987975
0.922784 0.973167 0.957826 0.989979
0.966999 0.973988 0.997836 0.994978
0.961688 0.962484 1.0115 0.987808
0.913337 0.945269 0.97651 0.989462
0.928081 0.981106 0.954296 0.991259
0.956074 0.966601 0.994885 0.994195
0.977792 0.970007 1.02025 0.98802
0.913285 0.937315 0.985018 0.989182
0.921333 0.969366 0.958935 0.991151
0.998968 1 1 0.998968
0.998972 1 1 0.998972
0.999063 1 1 0.999063
0.999111 1 1 0.999111
0.999172 1 1 0.999172
0.999343 1 1 0.999343
0.983492 0.999281 0.985119 0.999066
0.995462 0.999975 0.99616 0.999324
0.998892 1 1 0.998892
1.00749 1 1.00875 0.998752
1.00523 1 1.0065 0.998743
0.999076 1 1.00018 0.998898
1.00081 1 1.00196 0.998847
0.981109 0.992003 0.989591 0.999421
1.00901 1 1.01012 0.998905
1.00651 0.994777 1.01232 0.99948
0.999181 1 1.00022 0.998958
0.997165 0.982673 1.01509 0.999666
0.994444 0.990805 1.00412 0.99955
1.00595 1 1.00693 0.999028
0.984193 0.986676 0.99865 0.998831
0.968964 0.973433 0.996999 0.998405
0.967697 0.97333 0.99857 0.995637
1.00529 0.998366 1.0073 0.999644
1.00021 0.991154 1.00954 0.9996
0.961277 0.971163 0.991905 0.997898
0.971697 0.965375 1.01558 0.991104
0.92538 0.950279 0.984268 0.989363
0.972886 0.980788 0.995003 0.996925
0.924389 0.974468 0.958185 0.990006
1.00703 0.994855 1.01246 0.999788
0.971155 0.982734 0.989689 0.998513
0.964637 0.972194 0.996428 0.995784
0.979629 0.972981 1.01011 0.996754
0.891047 0.947596 0.951566 0.988186
0.911608 0.949002 0.971029 0.989256
0.986311 0.971313 1.02786 0.987913
1.00504 0.97927 1.02653 0.999793
0.962743 0.971669 0.992892 0.997908
0.970863 0.982087 0.995639 0.992901
0.841219 0.900827 0.9455 0.987656
0.896129 0.944699 0.959464 0.988664
0.977454 0.971454 1.01854 0.987856
0.954665 0.967588 0.990936 0.995668
1.00513 0.997909 1.00771 0.999533
1.00742 0.993138 1.0148 0.999586
1.01885 0.998367 1.02099 0.999529
0.999181 1 1 0.999181
1.00212 0.999107 1.00353 0.999487
1.00672 0.999385 1.00799 0.999353
1.01692 1 1.01797 0.998961
1.00066 1 1.00156 0.999102
1.00676 1 1.0081 0.998666
1.01358 1 1.01552 0.998088
1.00019 1 1.00145 0.99875
1.00316 1 1.005 0.998174
1.00322 1.00018 1.00534 0.99772
1.00076 1.00122 1.00191 0.997635
0.999337 1 1.00108 0.998261
1.00009 1.00024 1.00189 0.997962
0.999433 1 1.00123 0.998209
0.999755 1 1.0011 0.998659
0.999057 1 1.00048 0.998578
1.00021 1 1.00136 0.998851
1.00047 1 1.00175 0.998717
0.99949 1 1.00099 0.998506
0.999311 1 1 0.999311
0.999209 1 1.00017 0.999036
0.999386 1 1.00057 0.998815
0.999855 1 1 0.999855
0.999439 1 1 0.999439
0.999117 1 1 0.999117
0.99952 1 1 0.99952
0.999889 1 1 0.999889
1 1 1 1
0.999904 1 1 0.999904
1 1 1 1
1 1 1 1
1 1 1 1
1 1 1 1
1 1 1 1
0.999478 1 1 0.999478
0.999863 1 1 0.999863
0.999496 1 1 0.999496
1 1 1 1
0.999873 1 1 0.999873
0.999572 1 1 0.999572
1 1 1 1
1 1 1 1
0.999886 1 1 0.999886
1 1 1 1
1 1 1 1
1 1 1 1
0.971583 0.982577 0.990443 0.998353
0.961924 0.971568 0.992166 0.997892
0.967184 0.976026 0.995778 0.995143
0.999219 1 1 0.999219
0.999118 1 1 0.999118
0.999285 1 1 0.999285
0.999235 1 1 0.999235
0.999127 1 1 0.999127
0.999136 1 1 0.999136
0.999048 1 1 0.999048
0.963769 0.971828 0.99646 0.99523
0.971993 0.981009 0.994487 0.996302
0.965519 0.971063 0.998502 0.995782
0.931456 0.985609 0.952823 0.991849
0.957812 0.966407 0.997519 0.993571
0.967553 0.965551 1.0133 0.988922
0.91776 0.94355 0.984251 0.988231
0.954333 0.966534 0.99378 0.993556
0.967226 0.964011 1.01603 0.987508
0.925134 0.95406 0.981041 0.988421
0.913713 0.963212 0.957246 0.990979
0.951353 0.965381 0.990321 0.995101
0.969446 0.967891 1.01458 0.987214
0.930241 0.959794 0.979751 0.98924
0.894008 0.950681 0.950479 0.989382
0.999029 1 1 0.999029
0.998967 1 1 0.998967
0.99897 1 1 0.99897
0.999108 1 1 0.999108
0.990535 0.995208 0.995876 0.999426
1.00102 0.991619 1.00998 0.999505
0.998879 1 1 0.998879
1.00049 1 1.00164 0.998855
1.00899 1 1.01002 0.998983
0.99903 1 1.00008 0.998954
1.0067 1 1.00769 0.999014
0.993153 0.981037 1.01316 0.999199
0.995645 0.99196 1.00407 0.999647
1.00213 1 1.00304 0.999094
0.99855 0.978462 1.02138 0.999165
1.00748 0.99586 1.01235 0.999327
0.970121 0.974098 0.997646 0.998268
0.980454 0.984565 0.996855 0.998966
0.968382 0.973089 0.996587 0.998571
1.00585 0.994537 1.01157 0.999805
0.981542 0.973541 1.00916 0.999066
0.970075 0.982391 0.988787 0.998662
0.975116 0.966274 1.02242 0.987026
0.916007 0.946359 0.979685 0.987999
0.967317 0.972877 0.998474 0.995804
0.884583 0.94211 0.950282 0.988063
1.00995 0.981847 1.0288 0.99982
0.962306 0.972058 0.992028 0.997923
0.973733 0.982512 0.998184 0.992868
0.957946 0.968914 0.991042 0.997617
0.833265 0.898939 0.939506 0.986628
0.899347 0.944213 0.963734 0.988326
0.976499 0.967937 1.02113 0.987969
0.998509 0.9824 1.01702 0.999393
0.967469 0.976346 0.995683 0.995204
0.899623 0.928956 0.978892 0.989307
0.862226 0.914128 0.953903 0.988803
0.96416 0.961517 1.01484 0.988084
0.944554 0.964391 0.985162 0.994182
1.01136 0.996743 1.01508 0.99959
1.01888 0.996721 1.02272 0.999522
1.0134 1 1.01403 0.999378
1.00713 0.999958 1.00778 0.999402
1.01655 0.999576 1.01798 0.999021
1.01012 1.00022 1.01159 0.998329
1.00714 1 1.00856 0.998588
1.01289 1 1.01487 0.998043
1.00685 1.00017 1.00905 0.997659
1.00399 1 1.00585 0.998153
1.00338 1.00009 1.00563 0.997675
1.003 1.00192 1.00358 0.997503
1.00179 1.00416 1 0.997636
1.00052 1.00194 1.00077 0.997816
1.00115 1.00139 1.00218 0.997585
0.99859 1 1.00013 0.998464
0.999045 1 1.00074 0.998304
1.00031 1.00048 1.0019 0.997933
0.999806 1 1.00112 0.998692
0.999734 1 1.00108 0.998652
0.999073 1 1.00043 0.998648
0.999234 1 1.00011 0.999128
1.00008 1 1.0012 0.998879
1.00051 1 1.00177 0.998745
0.999763 1 1 0.999763
0.999311 1 1 0.999311
0.999181 1 1.00014 0.999038
1 1 1 1
0.99985 1 1 0.99985
0.999438 1 1 0.999438
0.999885 1 1 0.999885
1 1 1 1
1 1 1 1
1 1 1 1
1 1 1 1
1 1 1 1
0.999214 1 1 0.999214
0.99944 1 1 0.99944
0.999832 1 1 0.999832
0.999477 1 1 0.999477
1 1 1 1
0.999867 1 1 0.999867
0.999511 1 1 0.999511
1 1 1 1
1 1 1 1
0.9999 1 1 0.9999
1 1 1 1
1 1 1 1
1 1 1 1
0.961554 0.972068 0.991288 0.997878
0.97076 0.982466 0.989566 0.998503
0.961155 0.972408 0.990501 0.997907
0.999228 1 1 0.999228
0.999104 1 1 0.999104
0.999042 1 1 0.999042
0.999106 1 1 0.999106
0.999027 1 1 0.999027
0.999233 1 1 0.999233
0.999111 1 1 0.999111
0.999137 1 1 0.999137
0.999045 1 1 0.999045
0.999086 1 1 0.999086
0.966508 0.975208 0.998173 0.992893
0.966831 0.974345 0.997027 0.995247
0.969796 0.978527 0.994147 0.996912
0.910809 0.961317 0.956007 0.99106
0.924455 0.948364 0.98514 0.989492
0.946552 0.961611 0.991504 0.992774
0.974851 0.971474 1.01581 0.987861
0.953026 0.966583 0.992576 0.993349
0.981159 0.975868 1.01786 0.987779
0.919354 0.953263 0.975232 0.988921
0.894703 0.952052 0.950323 0.988889
0.971645 0.973735 1.0035 0.99437
0.970432 0.969597 1.01285 0.988163
0.886627 0.934055 0.960932 0.987815
0.857459 0.922023 0.941762 0.987485
0.999322 1 1 0.999322
0.999105 1 1.00007 0.999032
0.999048 1 1.00008 0.998967
0.990125 0.97911 1.01254 0.998728
0.996612 0.992162 1.00474 0.999748
0.999114 1 1.00016 0.99895
1.008 1 1.00901 0.999
1.00243 1 1.00334 0.999101
1.00794 0.996972 1.01169 0.999318
0.996374 0.976687 1.02098 0.999198
1.00747 0.999902 1.00822 0.999359
0.999652 0.985702 1.0152 0.99897
0.969141 0.976124 0.997398 0.995437
0.968646 0.973316 0.996765 0.998432
0.976321 0.982245 0.994864 0.999101
1.01459 0.983946 1.03131 0.999844
0.959104 0.971435 0.992314 0.994953
0.961097 0.972475 0.990342 0.997938
0.973507 0.970709 1.01702 0.9861
0.894624 0.937499 0.965888 0.987968
0.975862 0.9829 1 0.992837
0.827235 0.89864 0.933992 0.985597
0.997113 0.980912 1.01705 0.999474
0.968645 0.977245 0.995972 0.995208
0.890466 0.922384 0.976274 0.988858
0.946298 0.966303 0.984088 0.995131
0.869753 0.919483 0.957735 0.98766
0.954488 0.959577 1.00763 0.987165
0.977363 0.982471 0.996002 0.998794
0.920645 0.937017 0.991476 0.990974
0.868193 0.911539 0.964088 0.987927
0.966852 0.970303 1.00871 0.987841
0.953606 0.966013 0.991756 0.995362
1.01851 0.995298 1.02382 0.999515
1.01519 0.999574 1.01627 0.999358
0.993418 1.00026 0.994269 0.99888
1.01596 0.999164 1.01774 0.99908
1.01062 1.00046 1.01176 0.99841
1.00237 1.00164 1.00272 0.998011
1.01196 1 1.01399 0.997997
1.00568 1.00031 1.00772 0.997671
0.999258 1.00147 1.00004 0.997757
1.00338 1 1.00576 0.99763
1.00327 1.00289 1.00286 0.997519
1.00462 1.00687 1 0.997772
1.00711 1.00924 1 0.997888
1.00317 1.00548 1.00002 0.997683
1.00174 1.0041 1 0.997649
0.999161 1.00108 1 0.998082
0.999997 1.00115 1.00107 0.997773
1.0015 1.00154 1.00244 0.997536
0.998611 1 1 0.998611
0.99854 1 1.00002 0.998516
0.998663 1 1.00032 0.998346
0.99908 1 1.00014 0.998945
0.999876 1 1.00117 0.998708
0.999739 1 1.0011 0.998645
0.999593 1 1 0.999593
0.999318 1 1.00019 0.999128
0.999991 1 1.00108 0.998908
1 1 1 1
0.999758 1 1 0.999758
0.999311 1 1 0.999311
1 1 1 1
1 1 1 1
0.999845 1 1 0.999845
1 1 1 1
1 1 1 1
1 1 1 1
0.999141 1 1 0.999141
0.999393 1 1 0.999393
0.999203 1 1 0.999203
0.999809 1 1 0.999809
0.99944 1 1 0.99944
1 1 1 1
0.999835 1 1 0.999835
0.999476 1 1 0.999476
1 1 1 1
1 1 1 1
0.99987 1 1 0.99987
1 1 1 1
1 1 1 1
1 1 1 1
0.9693 0.978234 0.995187 0.99566
0.961191 0.971454 0.991525 0.997893
0.970308 0.982291 0.989132 0.998654
0.999034 1 1 0.999034
0.999237 1 1 0.999237
0.99909 1 1 0.99909
0.999119 1 1 0.999119
0.999056 1 1 0.999056
0.999023 1 1 0.999023
0.998951 1 1 0.998951
0.999006 1 1 0.999006
0.999137 1 1 0.999137
0.999041 1 1 0.999041
0.999079 1 1 0.999079
0.999152 1 1 0.999152
0.892007 0.925773 0.974812 0.988424
0.969141 0.977418 0.99867 0.992852
0.968653 0.975586 0.997619 0.995263
0.89015 0.949834 0.94787 0.988705
0.926498 0.959615 0.97682 0.988401
0.969745 0.967165 1.0156 0.987264
0.954879 0.965515 0.994696 0.994258
0.971639 0.972564 1.00318 0.995878
0.843177 0.911156 0.938052 0.986504
0.971267 0.968048 1.01652 0.98702
0.892101 0.940701 0.959177 0.988699
0.963792 0.97269 0.994617 0.996214
0.962789 0.961603 1.01268 0.988695
0.86618 0.91847 0.95411 0.988428
1.00004 1 1.00041 0.99963
0.999323 1 1 0.999323
0.999035 1 1 0.999035
0.996806 0.977765 1.02027 0.999223
1.00939 0.999087 1.01101 0.999309
1.0026 1 1.00349 0.999108
1.00724 1 1.00789 0.999358
0.999002 0.986555 1.01362 0.999014
1.0037 0.995101 1.00939 0.999261
0.918118 0.937053 0.989599 0.990091
0.968651 0.975396 0.996988 0.996085
0.967392 0.972484 0.996163 0.998596
0.995562 0.978932 1.01744 0.999556
0.945438 0.96834 0.980442 0.995826
0.969474 0.978112 0.995933 0.995216
0.962119 0.961912 1.01146 0.98888
0.878254 0.930353 0.955175 0.988301
0.88382 0.921628 0.969963 0.988673
0.977008 0.983193 0.994856 0.998848
0.910283 0.934826 0.982948 0.990638
0.882358 0.916882 0.973274 0.988772
0.953405 0.964036 0.995361 0.993582
0.955855 0.966661 1.00036 0.988469
0.967157 0.989278 0.97836 0.999264
0.893392 0.927298 0.97412 0.989032
0.960308 0.974212 0.996713 0.988979
0.967073 0.978335 0.995082 0.993374
1.01763 0.998943 1.01939 0.999338
0.98974 1.00013 0.990637 0.99896
0.982233 1.00204 0.981634 0.998568
1.01153 1.00073 1.01232 0.99849
1.00301 1.00203 1.00298 0.998003
1.00068 1.00307 0.999428 0.998186
1.00485 1.00049 1.00669 0.997683
0.999401 1.00108 1.00055 0.997772
1.00744 1.00929 1 0.998164
1.00364 1.00388 1.00223 0.997535
1.00448 1.00671 1 0.997777
1.0109 1.01273 1 0.998189
1.0124 1.01424 1 0.998182
1.00702 1.00919 1 0.997848
1.00711 1.00922 1 0.997909
1.00226 1.00437 1 0.997891
1.00293 1.00522 1 0.997719
1.00171 1.00405 1 0.997662
0.998535 1.00013 1 0.9984
0.99974 1.00151 1.00014 0.998096
0.999723 1.00052 1.00148 0.997729
0.998816 1 1 0.998816
0.998607 1 1 0.998607
0.998568 1 1 0.998568
0.999392 1 1 0.999392
0.999115 1 1.00017 0.998947
0.999915 1 1.00119 0.998724
0.999996 1 1 0.999996
0.99959 1 1 0.99959
0.999357 1 1.00023 0.999129
1 1 1 1
1 1 1 1
0.999754 1 1 0.999754
1 1 1 1
1 1 1 1
1 1 1 1
0.999115 1 1 0.999115
0.999142 1 1 0.999142
0.999328 1 1 0.999328
0.999782 1 1 0.999782
0.999393 1 1 0.999393
0.999192 1 1 0.999192
1 1 1 1
0.999811 1 1 0.999811
0.99944 1 1 0.99944
1 1 1 1
1 1 1 1
0.999838 1 1 0.999838
1 1 1 1
1 1 1 1
1 1 1 1
0.91368 0.931772 0.99054 0.989948
0.96901 0.977284 0.995842 0.995674
0.961149 0.971187 0.991739 0.997908
0.999022 1 1 0.999022
0.998973 1 1 0.998973
0.998953 1 1 0.998953
0.999132 1 1 0.999132
0.99907 1 1 0.99907
0.999019 1 1 0.999019
0.999003 1 1 0.999003
0.99895 1 1 0.99895
0.998873 1 1 0.998873
0.999149 1 1 0.999149
0.999071 1 1 0.999071
0.999148 1 1 0.999148
0.879783 0.915093 0.972544 0.988556
0.888036 0.920791 0.97612 0.988021
0.972359 0.980154 0.999228 0.992814
0.828179 0.89808 0.935716 0.98552
0.892323 0.937786 0.963288 0.987783
0.97578 0.972006 1.01475 0.989294
0.972059 0.969779 1.00824 0.994161
0.961265 0.969614 0.996715 0.994656
0.866428 0.912723 0.96134 0.987453
0.955772 0.959346 1.0077 0.988663
0.961949 0.971297 0.995228 0.995124
0.956315 0.969351 0.998384 0.988149
1.00731 1 1.00819 0.999131
0.999853 1 1.00027 0.999586
0.999325 1 1 0.999325
0.99506 0.984119 1.01207 0.999056
1.00696 1 1.00761 0.999358
1.0041 0.995802 1.00918 0.999161
0.997124 0.999778 0.998843 0.9985
0.890787 0.934876 0.96346 0.988977
0.922034 0.937409 0.992798 0.990734
0.96951 0.975348 0.997277 0.996729
0.975442 0.983789 0.992585 0.998923
0.953232 0.963894 0.994423 0.994485
0.910445 0.935773 0.982073 0.990694
0.955943 0.96457 1.00318 0.987915
0.884588 0.922463 0.970479 0.988112
0.970695 0.990057 0.981516 0.998906
0.896302 0.931273 0.973615 0.98853
0.962645 0.976007 0.998184 0.988103
0.970955 0.97734 0.998595 0.994865
0.984788 0.997233 0.988447 0.999063
0.958579 0.97853 0.991477 0.988032
0.978556 0.988975 0.993634 0.995804
0.985999 1 0.986946 0.999041
0.983206 1.00255 0.982134 0.998548
0.983707 1.00535 0.979979 0.998459
1.00328 1.00239 1.0029 0.997996
1.00014 1.00332 0.998648 0.99818
1.00885 1.0131 0.997227 0.998572
0.999349 1.00062 1.00094 0.997786
1.00729 1.00915 1 0.998158
1.01539 1.0169 0.999992 0.998522
1.00424 1.00648 1 0.997782
1.0104 1.01223 1 0.998189
1.01393 1.01551 1 0.998445
1.01173 1.0134 1 0.998354
1.01219 1.014 1 0.998216
1.01106 1.01298 1 0.998107
1.00703 1.00911 1 0.997937
1.00755 1.00972 1 0.997851
1.00712 1.00921 1 0.997929
0.999205 1.00107 1 0.998138
1.00276 1.00485 1 0.997925
1.00259 1.00484 1 0.997755
0.998664 1 1 0.998664
0.998715 1.00032 1 0.998394
1.00007 1.00179 1.00017 0.998109
0.99924 1 1 0.99924
0.998815 1 1 0.998815
0.998602 1 1 0.998602
0.999966 1 1 0.999966
0.999392 1 1 0.999392
0.999195 1 1.00024 0.99895
1 1 1 1
0.999989 1 1 0.999989
0.999586 1 1 0.999586
1 1 1 1
0.999999 1 1 0.999999
1 1 1 1
0.999044 1 1 0.999044
0.999103 1 1 0.999103
0.999256 1 1 0.999256
0.999144 1 1 0.999144
0.999327 1 1 0.999327
0.999734 1 1 0.999734
1 1 1 1
0.999784 1 1 0.999784
0.999394 1 1 0.999394
1 1 1 1
1 1 1 1
0.999813 1 1 0.999813
1 1 1 1
1 1 1 1
1 1 1 1
0.901058 0.930553 0.979498 0.988571
0.913983 0.934185 0.988628 0.989629
0.96793 0.975565 0.996472 0.995686
0.999009 1 1 0.999009
0.99893 1 1 0.99893
0.998998 1 1 0.998998
0.998832 1 1 0.998832
0.998889 1 1 0.998889
0.999001 1 1 0.999001
0.998949 1 1 0.998949
0.99889 1 1 0.99889
0.998783 1 1 0.998783
0.998983 1 1 0.998983
0.998957 1.00032 1.00026 0.998376
0.999358 1 1.00017 0.999188
0.999144 1 1 0.999144
0.957895 0.977123 0.99258 0.98765
0.883719 0.915461 0.976698 0.988358
0.889647 0.923715 0.974919 0.987896
0.865799 0.912798 0.959987 0.988046
0.960563 0.961519 1.0123 0.986869
0.963636 0.968954 0.998166 0.996339
0.963501 0.972434 0.994689 0.996104
0.959038 0.970142 0.999592 0.988957
0.977753 0.992151 0.99034 0.995101
1.0023 1.00132 1.00265 0.998341
1.00577 1 1.00666 0.999112
0.999542 1 1 0.999542
1.00456 0.997468 1.00804 0.999074
0.998931 1.00097 0.999553 0.998408
0.946768 0.974282 0.982668 0.9889
0.898269 0.934688 0.972115 0.988604
0.925936 0.937802 0.995928 0.991385
0.973894 0.990763 0.984416 0.998536
0.965022 0.971692 0.999687 0.993447
0.897322 0.929547 0.976762 0.988299
0.962989 0.974147 0.999656 0.988886
0.982957 0.997377 0.98647 0.999059
0.960188 0.979847 0.990635 0.989202
0.97973 0.990102 0.995235 0.994262
1.00053 1.0054 0.99659 0.998558
0.988484 0.99683 0.994488 0.997123
0.983944 1.00312 0.982333 0.998529
0.985866 1.0049 0.982622 0.998414
1.00427 1.02115 0.984913 0.998527
0.99987 1.00358 0.998123 0.998175
1.00784 1.01214 0.997187 0.998563
1.01522 1.0208 0.995831 0.998697
1.00715 1.00901 1 0.998153
1.01535 1.01705 0.999822 0.998508
1.01644 1.0181 0.999779 0.998588
1.00999 1.01182 1 0.998189
1.01409 1.01568 1 0.998432
1.0118 1.01338 1 0.998442
1.01226 1.01389 1 0.998389
1.01107 1.01286 1 0.998232
1.012 1.01378 1 0.998251
1.01084 1.01276 1 0.998101
1.00812 1.01009 1 0.99805
1.00214 1.00409 1 0.998062
1.00677 1.00885 1 0.99793
1.00805 1.01022 1 0.997855
0.998577 1.0001 1 0.998478
0.99953 1.00137 1 0.99816
1.00336 1.00542 1 0.997959
0.999115 1 1 0.999115
0.998659 1 1 0.998659
0.998917 1.00053 1 0.998388
0.9999 1 1 0.9999
0.999241 1 1 0.999241
0.998815 1 1 0.998815
1 1 1 1
0.999951 1 1 0.999951
0.999392 1 1 0.999392
1 1 1 1
0.999983 1 1 0.999983
1 1 1 1
0.99886 1 1 0.99886
0.999044 1 1 0.999044
0.999142 1 1 0.999142
0.999091 1 1 0.999091
0.999237 1 1 0.999237
0.999637 1 1 0.999637
0.999327 1 1 0.999327
0.999735 1 1 0.999735
0.999998 1 1 0.999998
1 1 1 1
1 1 1 1
0.999786 1 1 0.999786
1 1 1 1
1 1 1 1
1 1 1 1
0.960885 0.979509 0.991613 0.989284
0.894392 0.932776 0.969491 0.989024
0.922354 0.939059 0.99251 0.989623
0.998906 1 1 0.998906
0.999024 1 1 0.999024
0.998899 1 1 0.998899
0.998841 1 1 0.998841
0.998631 1 1.00002 0.998609
0.998834 1 1 0.998834
0.998907 1 1 0.998907
0.998721 1 1 0.998721
0.999116 1 1.00017 0.998949
0.998622 1 1 0.998622
1.00061 1.00213 1 0.998483
0.998848 1.00127 0.999659 0.997926
0.999307 1.00079 1.00006 0.998456
0.999561 1 1.00033 0.999227
0.975793 0.99001 0.990323 0.995271
0.959292 0.976873 0.993403 0.988523
0.878331 0.916322 0.970094 0.988089
0.970027 0.975795 1.00626 0.987901
0.961418 0.972505 0.991693 0.996881
0.982495 0.993694 0.991853 0.996851
0.994366 1.00407 0.991839 0.998484
0.999853 1.00067 1.00076 0.998423
1.00472 1 1.00563 0.999093
0.997814 1.00112 0.998392 0.998303
0.974754 0.984942 0.994448 0.995182
0.954445 0.975222 0.988748 0.989832
0.892258 0.931439 0.96834 0.989255
0.983633 0.99909 0.985462 0.999053
0.986181 0.992108 0.9986 0.995418
0.962044 0.98061 0.990575 0.990401
0.994759 1.00472 0.991508 0.998567
0.986284 0.995724 0.993955 0.996544
1.00575 1.02167 0.986076 0.998316
1.00685 1.01464 0.994126 0.998182
0.987848 1.00429 0.985242 0.998366
1.0051 1.02108 0.985806 0.998519
1.00922 1.02476 0.986282 0.998539
1.00693 1.01141 0.997009 0.998554
1.01499 1.02039 0.99601 0.998685
1.01321 1.01826 0.996512 0.99852
1.0153 1.01721 0.999635 0.998493
1.01607 1.0179 0.999627 0.998574
1.01335 1.01523 0.999767 0.99838
1.01419 1.0158 1 0.998418
1.01149 1.01306 1 0.998443
1.01149 1.01329 1 0.998229
1.01276 1.01436 1 0.998424
1.0108 1.01257 1 0.998258
1.00879 1.01072 1 0.998095
1.01066 1.01259 1 0.998096
1.00808 1.01006 1 0.998043
1.00313 1.00502 1 0.998113
0.998562 1.00024 1 0.998323
1.00204 1.00397 1 0.998081
1.00652 1.00862 1 0.997922
0.998965 1 1 0.998965
0.998584 1.00011 1 0.998478
0.999847 1.00167 1 0.998181
0.99981 1 1 0.99981
0.999114 1 1 0.999114
0.998655 1 1 0.998655
1 1 1 1
0.999886 1 1 0.999886
0.999242 1 1 0.999242
1 1 1 1
0.999936 1 1 0.999936
1 1 1 1
0.998727 1.00007 1 0.998658
0.998872 1 1 0.998872
0.999007 1 1 0.999007
0.999044 1 1 0.999044
0.999128 1 1 0.999128
0.999502 1 1 0.999502
0.999218 1 1 0.999218
0.999638 1 1 0.999638
0.999993 1 1 0.999993
0.999737 1 1 0.999737
0.999999 1 1 0.999999
1 1 1 1
1 1 1 1
1 1 1 1
1 1 1 1
0.972861 0.986272 0.990854 0.995508
0.956081 0.978332 0.988421 0.988705
0.889968 0.92997 0.968227 0.98839
1.00097 1.00256 1.00007 0.998344
0.99891 1 1 0.99891
0.998851 1 1 0.998851
0.998819 1 1 0.998819
0.998721 1 1.00012 0.998599
0.99915 1.00037 1 0.99878
0.998659 1 1 0.998659
0.999254 1 1.00034 0.998914
0.998666 1 1 0.998666
0.999972 1.0015 1 0.998471
1.00107 1.0031 1 0.997981
1.00345 1.0058 0.999857 0.997804
0.999868 1.00195 1.00004 0.997887
0.999871 1.00134 1 0.998537
0.99897 1.00616 0.993935 0.998912
0.976057 0.990944 0.990373 0.994551
0.962342 0.977713 0.994618 0.989604
0.978239 0.990215 0.992365 0.995507
0.998713 1.00601 0.994027 0.998716
0.999805 1.0002 1.0011 0.998506
1.00197 1.00668 0.996993 0.998318
0.973324 0.98214 0.994698 0.996306
0.950486 0.975811 0.984908 0.988973
0.988206 1.00304 0.986614 0.998573
0.986698 0.996098 0.994678 0.995863
1.00616 1.02238 0.985786 0.99833
1.00611 1.01286 0.995033 0.998288
1.01242 1.02677 0.987699 0.998296
1.01569 1.01986 0.997675 0.998231
1.00619 1.02098 0.986976 0.998511
1.01123 1.02578 0.987255 0.998545
1.00686 1.01784 0.990807 0.998388
1.01469 1.01983 0.996279 0.998673
1.01425 1.01889 0.996926 0.998517
1.01326 1.01637 0.998678 0.998263
1.01578 1.01775 0.999507 0.998561
1.01355 1.01536 0.999821 0.998396
1.01281 1.01471 1 0.998125
1.01119 1.01276 1 0.998445
1.01105 1.01284 1 0.998229
1.01072 1.01269 1 0.998055
1.01054 1.01228 1 0.998284
1.00888 1.01079 1 0.998107
1.00389 1.00583 1 0.998073
1.00803 1.01001 1 0.998037
1.00313 1.00505 1 0.998095
0.999306 1.00101 1 0.998295
0.998839 1 1 0.998839
0.998626 1.00028 1 0.998347
1.00193 1.00384 1 0.998101
0.99971 1 1 0.99971
0.998964 1 1 0.998964
0.998601 1.00012 1 0.998478
1 1 1 1
0.999799 1 1 0.999799
0.999112 1 1 0.999112
1 1 1 1
0.999871 1 1 0.999871
1 1 1 1
0.999257 1.00086 1 0.998395
0.998692 1.00003 1 0.998662
0.998846 1 1 0.998846
0.998884 1 1 0.998884
0.999014 1 1 0.999014
0.999367 1 1 0.999367
0.999113 1 1 0.999113
0.999502 1 1 0.999502
0.999972 1 1 0.999972
0.99964 1 1 0.99964
0.999995 1 1 0.999995
1 1 1 1
0.999999 1 1 0.999999
1 1 1 1
1 1 1 1
1.00402 1.01046 0.994711 0.998904
0.971419 0.986225 0.990839 0.994095
0.959162 0.97553 0.993658 0.989497
1.00263 1.00416 1.00001 0.998467
1.0044 1.00632 1 0.998092
1.00068 1.00217 1.00013 0.998378
0.998804 1 1 0.998804
0.998831 1 1.00024 0.998587
0.999507 1.00077 1 0.998732
1.0038 1.0057 1 0.998111
0.998709 1 1 0.998709
0.999214 1.00076 1 0.998459
1.0013 1.00328 1 0.998029
1.00706 1.0094 1 0.997681
1.01216 1.01576 0.998329 0.998123
1.00297 1.0055 0.999695 0.997789
1.00047 1.00262 1 0.997848
1.00209 1.00875 0.994398 0.998994
0.975322 0.990447 0.990988 0.993684
1.00022 1.0074 0.993915 0.998953
1.01395 1.01798 0.997324 0.998711
1.00087 1.00539 0.99711 0.998386
0.971804 0.983817 0.992939 0.994814
1.00635 1.02316 0.985205 0.998344
1.00484 1.01127 0.995236 0.998396
1.01111 1.02667 0.986478 0.998343
1.01804 1.0219 0.997982 0.998244
1.01284 1.02164 0.993108 0.998262
1.02368 1.02739 0.998019 0.998361
1.01296 1.02702 0.987745 0.99855
1.00707 1.01746 0.991382 0.998392
1.01619 1.02167 0.996451 0.998173
1.0152 1.01948 0.997278 0.998515
1.01345 1.01618 0.999052 0.998262
1.01518 1.01717 0.999989 0.998056
1.01367 1.01543 0.99986 0.998412
1.01254 1.01444 1 0.998124
1.01357 1.01563 1 0.997964
1.0106 1.01239 1 0.99823
1.01067 1.01264 1 0.998056
1.00515 1.00715 1 0.998009
1.00896 1.01086 1 0.99812
1.00395 1.00588 1 0.998076
0.999482 1.00124 1 0.998239
1.00315 1.00508 1 0.998077
0.999249 1.00097 1 0.998284
0.998763 1 1 0.998763
0.999632 1 1 0.999632
0.998839 1 1 0.998839
0.998683 1.00031 1 0.99837
1 1 1 1
0.999699 1 1 0.999699
0.998963 1 1 0.998963
1 1 1 1
0.999787 1 1 0.999787
1 1 1 1
0.9997 1.00156 1 0.998146
0.999222 1.00085 1 0.998371
0.998615 1 1 0.998615
0.998666 1 1 0.998666
0.99885 1 1 0.99885
0.999229 1 1 0.999229
0.999022 1 1 0.999022
0.999367 1 1 0.999367
0.999926 1 1 0.999926
0.999502 1 1 0.999502
0.999979 1 1 0.999979
1 1 1 1
0.999997 1 1 0.999997
1 1 1 1
1 1 1 1
1.01269 1.01849 0.995781 0.998517
1.00175 1.00948 0.993666 0.998673
0.97012 0.9857 0.989241 0.994898
1.00806 1.00998 1 0.998093
1.00136 1.00274 1 0.998627
1.0117 1.01379 1 0.997938
1.00418 1.00612 1 0.998076
1.00038 1.00179 1.00018 0.998413
1.01397 1.01626 1 0.997746
0.999868 1.00118 1 0.998686
1.00381 1.00576 1 0.998058
1.01871 1.02091 1 0.997845
1.0014 1.00333 1 0.998076
1.00761 1.00997 1 0.997655
1.0114 1.01456 0.998755 0.998131
1.00218 1.00449 0.999924 0.997773
1.00455 1.01063 0.994903 0.999079
1.02303 1.02592 0.998734 0.998445
1.01357 1.01773 0.997191 0.998711
1.00012 1.00409 0.99759 0.99845
1.00986 1.02638 0.985485 0.998392
1.01942 1.02314 0.9981 0.998257
1.01276 1.02193 0.992746 0.998274
1.02432 1.02857 0.997497 0.998368
1.02436 1.02903 0.997196 0.998261
1.00729 1.01697 0.992073 0.998396
1.01632 1.02138 0.996855 0.99818
1.01847 1.02174 0.998745 0.998045
1.01366 1.01601 0.999422 0.998261
1.01479 1.01679 0.999991 0.998041
1.01592 1.01807 1 0.997884
1.01232 1.01422 1 0.998123
1.01341 1.01548 1 0.997963
1.00751 1.00961 1 0.997919
1.01063 1.0126 1 0.998056
1.00536 1.00736 1 0.99801
0.999796 1.00165 1 0.998151
1.004 1.00593 1 0.998078
0.999552 1.00131 1 0.998241
0.998691 1 1 0.998691
0.999181 1.00091 1 0.998274
0.998761 1 1 0.998761
0.999646 1 1 0.999646
0.999912 1 1 0.999912
0.999647 1 1 0.999647
0.998839 1 1 0.998839
1 1 1 1
0.999688 1 1 0.999688
1 1 1 1
1.01523 1.01728 1 0.99798
1.00371 1.00565 1 0.998064
0.999412 1.00129 1 0.998127
0.998949 1.00052 1 0.998429
0.999181 1.00084 1 0.998346
0.99862 1 1 0.99862
0.999076 1 1 0.999076
0.998855 1 1 0.998855
0.999232 1 1 0.999232
0.99985 1 1 0.99985
0.999367 1 1 0.999367
0.999941 1 1 0.999941
1 1 1 1
0.999987 1 1 0.999987
1 1 1 1
1 1 1 1
1.02371 1.02591 0.999643 0.998208
1.01661 1.02186 0.996263 0.998599
1.00094 1.00962 0.992951 0.998441
1.01616 1.01838 1 0.997818
1.00696 1.00881 1 0.998171
1.00006 1.00128 1 0.998784
1.01203 1.0141 1 0.99796
1.00395 1.0059 1 0.998061
1.02134 1.02356 1 0.997824
1.01295 1.01528 1 0.997711
1.004 1.006 1 0.998005
1.01853 1.02073 1 0.997838
1.00925 1.01164 1 0.997629
1.01286 1.01574 0.999021 0.998143
1.02728 1.02984 0.999172 0.998347
1.02461 1.02719 0.999045 0.998448
1.01414 1.01777 0.997714 0.998713
1.01336 1.02288 0.992398 0.998287
1.02545 1.03005 0.997153 0.998375
1.02432 1.02968 0.996509 0.998277
1.02368 1.0259 0.999739 0.998095
1.01641 1.02104 0.99728 0.998187
1.01892 1.02168 0.999258 0.998039
1.01771 1.01988 1 0.997872
1.01439 1.0164 1 0.998027
1.01601 1.01816 1 0.997884
1.01045 1.01264 1 0.997841
1.01324 1.01531 1 0.997961
1.00769 1.00979 1 0.997919
1.00048 1.00243 1 0.998054
1.00556 1.00756 1 0.998011
0.99999 1.00184 1 0.998152
0.9986 1 1 0.9986
0.999627 1.00139 1 0.998242
0.998689 1 1 0.998689
0.999639 1 1 0.999639
0.99876 1 1 0.99876
0.999642 1 1 0.999642
0.999915 1 1 0.999915
0.999957 1 1 0.999957
0.999662 1 1 0.999662
1 1 1 1
1.01725 1.01947 1 0.997827
1.00598 1.00792 1 0.998073
1.01495 1.01691 1 0.998071
0.999393 1.0011 1 0.998295
1.00425 1.0062 1 0.998059
0.999117 1.00101 1 0.998108
0.998763 1.00034 1 0.998429
0.998917 1 1 0.998917
0.998625 1 1 0.998625
0.999079 1 1 0.999079
0.999754 1 1 0.999754
0.999234 1 1 0.999234
0.999867 1 1 0.999867
1 1 1 1
0.999955 1 1 0.999955
1 1 1 1
1 1 1 1
1.02436 1.02632 1 0.998087
1.02303 1.02528 0.999601 0.998206
1.01833 1.02343 0.99633 0.998678
1.02109 1.02335 1 0.997793
1.01566 1.01787 1 0.997821
1.0059 1.00766 1 0.99825
1.01232 1.01436 1 0.997983
1.02113 1.02337 1 0.99781
1.0117 1.01406 1 0.997677
1.01638 1.01858 1 0.997832
1.02645 1.02837 0.999974 0.998157
1.02688 1.02947 0.999182 0.99831
1.02618 1.02864 0.999156 0.998451
1.02234 1.02438 1 0.998006
1.02417 1.03027 0.995784 0.998292
1.02328 1.02582 0.999431 0.99809
1.01931 1.02142 1 0.997932
1.01937 1.02164 0.999748 0.998032
1.01776 1.01993 1 0.997874
1.01309 1.01532 1 0.997797
1.01607 1.01822 1 0.997884
1.01025 1.01244 1 0.997842
1.0016 1.00363 1 0.997972
1.00786 1.00997 1 0.997918
1.00079 1.00274 1 0.998054
0.998507 1 1 0.998507
1.00019 1.00204 1 0.998152
0.998598 1 1 0.998598
0.99962 1 1 0.99962
0.998688 1 1 0.998688
0.999633 1 1 0.999633
0.999917 1 1 0.999917
0.999639 1 1 0.999639
0.999916 1 1 0.999916
1 1 1 1
1.01783 1.02015 1 0.997729
1.00901 1.01114 1 0.997889
1.01764 1.01983 1 0.997852
0.99957 1.00132 1 0.998255
1.0059 1.00785 1 0.998071
1.01474 1.01661 1 0.998162
0.998763 1 1 0.998763
0.99932 1.00103 1 0.998291
1.00488 1.00684 1 0.998055
0.998605 1.00018 1 0.998428
0.998919 1 1 0.998919
0.999659 1 1 0.999659
0.999081 1 1 0.999081
0.999766 1 1 0.999766
1 1 1 1
0.999883 1 1 0.999883
1 1 1 1
1 1 1 1
1.02382 1.02591 1 0.997967
1.02475 1.02673 1 0.998071
1.02347 1.02571 0.99962 0.998203
1.02053 1.02278 1 0.997797
1.01518 1.0174 1 0.997825
1.02112 1.02337 1 0.997796
1.02233 1.02437 1 0.998006
1.0263 1.02821 0.999991 0.998149
1.02611 1.02873 0.999187 0.998273
1.02245 1.02448 1 0.998018
1.01939 1.02154 1 0.997895
1.02287 1.02571 0.999145 0.998085
1.01912 1.02125 1 0.997911
1.01493 1.01715 1 0.997816
1.01778 1.01995 1 0.997876
1.01275 1.01498 1 0.9978
1.00324 1.00535 1 0.997902
1.01011 1.01229 1 0.997843
1.0021 1.00413 1 0.997971
0.998433 1 1 0.998433
1.0011 1.00305 1 0.998055
0.998505 1 1 0.998505
0.999584 1 1 0.999584
0.998596 1 1 0.998596
0.999612 1 1 0.999612
0.999908 1 1 0.999908
0.999629 1 1 0.999629
0.999922 1 1 0.999922
0.999916 1 1 0.999916
1.01961 1.02179 1 0.997868
1.01158 1.01386 1 0.997754
1.01809 1.0204 1 0.997734
1.00112 1.00303 1 0.998093
1.00883 1.01096 1 0.997898
1.01793 1.0201 1 0.997878
0.998645 1 1 0.998645
0.999481 1.00127 1 0.998213
1.00575 1.0077 1 0.99807
0.999591 1 1 0.999591
0.998765 1 1 0.998765
0.999189 1.0009 1 0.998287
0.99892 1 1 0.99892
0.999669 1 1 0.999669
1 1 1 1
0.999778 1 1 0.999778
1 1 1 1
1 1 1 1
1.02079 1.02291 1 0.997931
1.02338 1.02547 1 0.997966
1.02517 1.02717 1 0.998055
1.01998 1.02223 1 0.997801
1.02019 1.02238 1 0.997863
1.02283 1.02487 1 0.998014
1.02613 1.02804 1 0.998141
1.02256 1.02458 1 0.99803
1.01923 1.02137 1 0.997902
1.01407 1.01628 1 0.997826
1.019 1.02116 1 0.997891
1.01469 1.01692 1 0.99781
1.00476 1.00692 1 0.997858
1.0124 1.01463 1 0.997803
1.00375 1.00586 1 0.997904
0.998364 1 1 0.998364
1.00258 1.00461 1 0.997971
0.998432 1 1 0.998432
0.999492 1 1 0.999492
0.998504 1 1 0.998504
0.999553 1 1 0.999553
1 1 1 1
0.999604 1 1 0.999604
0.999915 1 1 0.999915
0.999923 1 1 0.999923
1.01864 1.02078 1 0.997905
1.01284 1.01507 1 0.997801
1.01932 1.02149 1 0.997867
1.00326 1.00536 1 0.997914
1.01167 1.01393 1 0.997775
1.01842 1.02072 1 0.99774
0.998467 1 1 0.998467
1.00114 1.00306 1 0.998091
1.0087 1.01081 1 0.997907
0.999555 1 1 0.999555
0.998609 1 1 0.998609
0.999424 1.00125 1 0.998172
1 1 1 1
0.999601 1 1 0.999601
0.998767 1 1 0.998767
0.999679 1 1 0.999679
1 1 1 1
1 1 1 1
1.01966 1.02183 1 0.99787
1.02123 1.02333 1 0.99794
1.02291 1.02499 1 0.997964
1.01504 1.0173 1 0.997778
1.01944 1.02162 1 0.997866
1.02334 1.02537 1 0.998022
1.01907 1.02121 1 0.997908
1.01417 1.01638 1 0.997826
1.00482 1.00694 1 0.997896
1.01441 1.01664 1 0.997804
1.00495 1.00708 1 0.99789
0.998236 1 1 0.998236
1.00427 1.00638 1 0.997905
0.998364 1 1 0.998364
0.999442 1 1 0.999442
0.998431 1 1 0.998431
0.999489 1 1 0.999489
1 1 1 1
0.999518 1 1 0.999518
0.99995 1 1 0.99995
0.999921 1 1 0.999921
1.0168 1.01896 1 0.997883
1.01323 1.01542 1 0.99784
1.01857 1.0207 1 0.997906
1.00406 1.00615 1 0.99792
1.0132 1.01544 1 0.997797
1.01901 1.02119 1 0.997866
0.998364 1 1 0.998364
1.00316 1.00522 1 0.997957
1.01173 1.01397 1 0.997796
0.999527 1 1 0.999527
0.998453 1 1 0.998453
1.00116 1.00308 1 0.99809
1 1 1 1
0.999563 1 1 0.999563
0.998572 1 1 0.998572
1 1 1 1
0.999612 1 1 0.999612
1 1 1 1
1.01528 1.0175 1 0.997811
1.01918 1.02136 1 0.997866
1.02168 1.02378 1 0.997949
1.00426 1.0064 1 0.997875
1.01505 1.0173 1 0.997789
1.01874 1.02091 1 0.99787
1.01429 1.0165 1 0.997827
1.00485 1.00697 1 0.997896
0.99819 1 1 0.99819
1.00515 1.00724 1 0.997921
0.998269 1 1 0.998269
0.999376 1 1 0.999376
0.998365 1 1 0.998365
0.999439 1 1 0.999439
1 1 1 1
0.999487 1 1 0.999487
1 1 1 1
0.99991 1 1 0.99991
1.01326 1.01543 1 0.997858
1.01702 1.01917 1 0.997888
1.00361 1.0057 1 0.997924
1.01309 1.01528 1 0.997839
1.0185 1.02064 1 0.997908
0.998377 1 1 0.998377
1.00399 1.00608 1 0.997917
1.01356 1.0158 1 0.997794
0.99949 1 1 0.99949
0.998389 1 1 0.998389
1.00307 1.00508 1 0.998001
1 1 1 1
0.999532 1 1 0.999532
0.99844 1 1 0.99844
1 1 1 1
0.999572 1 1 0.999572
1 1 1 1
1.00394 1.00604 1 0.99791
1.01518 1.01741 1 0.997809
1.01862 1.0208 1 0.997862
0.998183 1 1 0.998183
1.00429 1.00642 1 0.997875
1.01501 1.01725 1 0.9978
1.00488 1.007 1 0.997896
0.998193 1 1 0.998193
0.999324 1 1 0.999324
0.998302 1 1 0.998302
0.999373 1 1 0.999373
1 1 1 1
0.999436 1 1 0.999436
1 1 1 1
1 1 1 1
1.00334 1.00543 1 0.997915
1.01292 1.01509 1 0.99786
1.01723 1.01938 1 0.997893
0.99835 1 1 0.99835
1.00385 1.00594 1 0.997922
1.01292 1.01512 1 0.997839
0.999448 1 1 0.999448
0.998376 1 1 0.998376
1.00393 1.00603 1 0.997914
1 1 1 1
0.999494 1 1 0.999494
0.998415 1 1 0.998415
1 1 1 1
0.999538 1 1 0.999538
1 1 1 1
0.998263 1 1 0.998263
1.00393 1.00606 1 0.997876
1.01513 1.01736 1 0.997807
0.999314 1 1 0.999314
0.998183 1 1 0.998183
1.00432 1.00645 1 0.997875
0.998197 1 1 0.998197
0.999323 1 1 0.999323
1 1 1 1
0.99937 1 1 0.99937
1 1 1 1
1 1 1 1
0.99831 1 1 0.99831
1.00341 1.00552 1 0.997907
1.0126 1.01477 1 0.997863
0.999486 1 1 0.999486
0.998349 1 1 0.998349
1.0041 1.00619 1 0.99792
1 1 1 1
0.999449 1 1 0.999449
0.998374 1 1 0.998374
1 1 1 1
0.999497 1 1 0.999497
1 1 1 1
0.999315 1 1 0.999315
0.998235 1 1 0.998235
1.00391 1.00608 1 0.997842
1 1 1 1
0.999313 1 1 0.999313
0.998182 1 1 0.998182
0.999321 1 1 0.999321
1 1 1 1
1 1 1 1
0.999438 1 1 0.999438
0.99831 1 1 0.99831
1.00348 1.00559 1 0.997898
1 1 1 1
0.999408 1 1 0.999408
0.998347 1 1 0.998347
1 1 1 1
0.999451 1 1 0.999451
1 1 1 1
0.999827 1 1 0.999827
0.999373 1 1 0.999373
0.998208 1 1 0.998208
1 1 1 1
0.999313 1 1 0.999313
1 1 1 1
0.999845 1 1 0.999845
0.999405 1 1 0.999405
0.998311 1 1 0.998311
0.999927 1 1 0.999927
0.999407 1 1 0.999407
1 1 1 1
1 1 1 1
0.999332 1 1 0.999332
1 1 1 1
0.999919 1 1 0.999919
0.999366 1 1 0.999366
1 1 1 1
1 1 1 1
1 1 1 1

VECTORS lamdaE float
0.999915 1.00016 0.995442
0.999819 1.00027 0.997875
0.999665 1.00034 0.995585
1.00018 0.999925 0.995278
0.999999 0.999976 0.995512
0.999918 1.00028 0.995256
1.00112 1.00048 0.992747
0.999799 1.00014 0.997918
0.99974 1.00023 0.998091
0.999425 1.00063 0.998115
0.99979 0.999976 0.995842
1.00084 1.00121 0.991996
1.00014 1.00001 0.995173
0.999875 0.999971 0.995444
0.999443 1.00055 0.995701
0.99999 0.999902 0.995472
0.999651 1.00056 0.995388
0.999783 1.00005 0.995672
1.00127 1.00032 0.992683
1.00011 1 0.99774
1.00023 0.999983 0.995135
1.00011 0.999889 0.995438
1.00148 0.999979 0.992598
1.00129 1.00012 0.992799
0.999827 1.00013 0.995418
1.00093 1.001 0.992524
1.00363 1.0003 0.988647
0.999746 1.00006 0.997989
0.999868 1.00011 0.996729
0.99962 1.00047 0.99673
0.999734 0.999767 0.998112
1.00074 1.00133 0.992008
1.00012 0.999844 0.995317
0.999872 1.00037 0.995355
1.00157 1.00016 0.992991
0.999436 0.99915 0.998623
1.00124 1.00083 0.992971
1.0005 1.00131 0.992515
1.00249 1.00215 0.988164
0.999527 0.998261 0.998914
1.00015 1.00001 0.997702
1.00001 0.999996 0.99658
1.00013 1 0.99771
0.999845 1.00003 0.995462
1.00169 1.00005 0.991626
0.99991 0.999955 0.998015
1.00179 1.0001 0.992709
0.999794 0.999842 0.995667
0.99958 1.00012 0.995819
0.999389 1.00089 0.995509
1.0014 1.00014 0.992633
1.00001 1.00001 0.996587
1.00002 0.99998 0.995339
0.999605 1.00039 0.995553
0.99992 0.999879 0.995615
1.00156 0.999941 0.992523
1.00108 1.00086 0.992462
1.0014 1.00003 0.992738
1.00361 1.00032 0.988646
1.00009 1 0.99774
1.00021 1.00001 0.995135
1.00152 1.00001 0.993115
1.00154 1.00002 0.992465
1.00142 0.999959 0.992736
1.00391 0.999946 0.988421
1.00376 0.999991 0.988421
0.999704 0.999483 0.996127
1.00029 1.00157 0.992876
1.00334 1.00096 0.988491
1.00472 0.999984 0.986289
1.00002 1.00013 0.997833
0.999654 0.99954 0.998281
0.999804 1.00031 0.997856
1.00065 1.00141 0.992023
1.00014 0.999973 0.997801
0.999925 1.00031 0.997844
1.00147 1.00012 0.991857
0.999524 0.999227 0.997574
1.00104 1.00091 0.991844
1.00036 1.00135 0.993206
1.00252 1.00209 0.988154
0.999612 0.998669 0.998672
0.999652 0.999863 0.995466
1.00167 0.999963 0.991736
1.00138 1.0004 0.991836
1.00391 1.00017 0.98756
1.00007 1.00096 0.994629
1.00321 1.00108 0.98792
1.0015 1.00329 0.988838
1.00352 1.00219 0.986165
0.999508 0.997908 0.999081
0.999476 0.998189 0.998988
1.00017 0.999978 0.997736
1.00016 1.00001 0.997706
1.00015 1 0.997709
1 1.00001 0.996588
1.00172 1.00003 0.992239
1.00003 0.999961 0.996626
1.00173 1.00011 0.992152
1.00013 0.999997 0.997718
1.00163 0.999975 0.991763
1.00178 1.00011 0.992739
1.0041 0.99977 0.987638
1.00174 1 0.992847
1.00411 0.999959 0.987438
1.0001 1.00001 0.995248
0.999812 0.99997 0.995549
0.999344 1.0007 0.995713
0.999729 0.999849 0.995789
1.00165 0.99994 0.992447
1.0015 0.99994 0.992683
1.00123 1.00067 0.992406
1.0036 1.00034 0.988644
1.00012 1 0.997727
0.999994 1.00001 0.995341
1.00163 0.999986 0.992095
1.00162 1 0.99238
0.999587 0.999673 0.997175
1.00054 1.00147 0.993008
1.00151 0.999907 0.992668
1.00393 0.999924 0.988302
1.0033 1.00102 0.988503
1.00376 1.00006 0.988509
1.00471 1 0.986305
1.0016 0.999994 0.991818
1.00153 1 0.992472
1.004 0.999712 0.988254
1.00397 0.999873 0.988148
1.00386 0.999865 0.988327
1.00496 0.99959 0.98658
0.999585 0.999082 0.998536
1.00481 0.999797 0.986342
0.999929 1.00154 0.993134
1.00224 1.00228 0.988372
1.00455 1.00048 0.986157
1.00514 0.999843 0.985694
0.999807 1.00072 0.994232
1.0002 1.00327 0.991061
1.00012 1 0.997815
0.999884 1.00029 0.997844
1.00148 1.0001 0.991858
0.999572 0.99898 0.998589
1.00016 1.00156 0.992724
1.00099 1.00097 0.991855
1.00255 1.00203 0.988143
0.999542 0.998597 0.998765
0.999653 0.999777 0.995509
1.00167 0.999995 0.992343
1.00137 1.00043 0.99242
1.0039 1.00018 0.987561
0.999924 1.00101 0.993826
1.00322 1.00107 0.987924
1.00148 1.00327 0.98884
1.00357 1.00213 0.986166
0.999742 1.00049 0.994694
0.999714 0.999233 0.995986
1.00019 1.00229 0.992106
1.00403 1.00006 0.987462
1.00362 1.00051 0.987727
1.0049 1.00003 0.98596
1.00084 1.0034 0.989936
1.00432 1.00071 0.98609
1.00239 1.00378 0.986667
1.00416 1.00149 0.985854
0.999556 0.997639 0.999146
0.999488 0.99786 0.999105
0.999436 0.998116 0.999041
0.999779 1.0003 0.994711
0.999577 0.998757 0.998684
1.00016 0.999968 0.997773
1.00015 0.999997 0.997711
1.00166 1.00012 0.991586
1.00164 1.00004 0.991677
1.00012 1 0.997714
1.00012 1 0.997717
1.00162 0.999983 0.991759
1.00172 1.0001 0.992166
1.0041 0.999766 0.987636
1.00165 1.00003 0.991675
1.00411 0.999959 0.987434
1.0016 0.99997 0.991801
1.00408 0.999698 0.98774
1.00411 0.999856 0.987523
1.00505 0.999192 0.986571
1.00409 1.00002 0.987419
1.00506 0.99954 0.986213
1.00011 0.999998 0.99772
0.999791 1.00002 0.995545
1.00164 0.999979 0.991164
1.0017 0.999999 0.992292
0.999344 0.999792 0.998416
1.00085 1.00128 0.993129
1.00159 0.999878 0.992602
1.00394 0.999887 0.988184
1.00375 1.00013 0.988597
1.00327 1.00109 0.988516
1.00471 1.00003 0.986321
1.00159 0.999982 0.991818
1.00163 1 0.992377
1.00401 0.999698 0.98795
1.00399 0.99991 0.988215
0.999604 0.999158 0.998474
1.00013 1.00138 0.993583
1.00224 1.0024 0.98862
1.00386 0.999897 0.988311
1.00496 0.999487 0.986517
1.00454 1.00051 0.986054
1.00481 0.999843 0.986463
1.00512 0.999832 0.985724
0.999817 1.00074 0.994228
1.00026 1.00316 0.991071
1.00403 0.999698 0.98783
1.00401 0.999808 0.988152
1.00499 0.999264 0.98684
1.00499 0.999313 0.986509
1.0049 0.999598 0.986607
1.0052 0.998817 0.986729
0.999854 1.0011 0.993728
1.00517 0.999357 0.986124
1.00112 1.00326 0.989371
1.00369 1.00202 0.985975
1.00509 1.0005 0.985405
1.00518 0.999321 0.986249
1.00049 1.00326 0.990613
1.0001 1.00271 0.991773
1.00068 1.00422 0.989409
1.0016 0.999975 0.991793
0.99948 0.998505 0.998861
0.999655 0.999685 0.995551
1.00125 1.00048 0.991873
1.0039 1.00019 0.987562
0.999851 1.00107 0.993764
1.00144 1.00325 0.988842
1.00322 1.00106 0.987929
1.0036 1.00207 0.986166
0.999724 1.00043 0.99472
0.999723 0.999156 0.996017
1.00009 1.00241 0.992121
1.00402 1.00008 0.987457
1.00363 1.0005 0.987733
1.0049 1.00003 0.985945
1.00076 1.00345 0.989956
1.00436 1.00078 0.986096
1.0024 1.00388 0.986638
1.00422 1.00136 0.985814
0.999823 0.998772 0.996245
1.00043 1.00295 0.991021
1.00007 1.00148 0.993129
1.00036 1.00376 0.990405
1.00498 0.999863 0.986001
1.0047 1.0003 0.986001
1.00513 0.999753 0.985807
1.00144 1.00431 0.987947
1.00481 1.00031 0.985731
1.00298 1.00355 0.985778
1.00493 1.00069 0.985472
1.00027 1.00007 0.994177
1.00001 0.998265 0.996408
0.99964 0.997393 0.999176
0.999556 0.997591 0.999156
0.999475 0.997806 0.999126
0.999788 0.999827 0.995185
0.999567 0.998447 0.998818
0.999785 1.00035 0.99469
0.999607 0.998809 0.998633
1.00164 1.00006 0.991668
1.00167 1.00009 0.991599
1.00411 0.999961 0.987429
1.00411 0.999761 0.987634
1.00163 0.99999 0.991757
1.00014 1 0.997709
1.00161 0.999971 0.991799
1.00408 0.999704 0.987738
1.00412 0.999863 0.987519
1.00505 0.999195 0.986568
1.00408 1.00003 0.987411
1.00506 0.999542 0.986203
1.00405 0.999693 0.987807
1.00504 0.999083 0.986705
1.00507 0.999355 0.986383
1.0052 0.998151 0.987367
1.00503 0.999701 0.986088
1.00522 0.998659 0.986809
1.0016 0.99997 0.991819
1.00171 0.999991 0.992282
1.00403 0.999669 0.987647
1.00401 0.999945 0.988282
0.999632 0.999242 0.998405
1.00033 1.00131 0.993947
1.0023 1.00248 0.988867
1.00386 0.999916 0.988295
1.00495 0.999381 0.986454
1.00481 0.999892 0.986584
1.00453 1.00053 0.985952
1.00511 0.999821 0.985755
0.999836 1.00076 0.994223
1.00032 1.00306 0.991081
1.00403 0.999656 0.987762
1.00403 0.999793 0.988138
1.00499 0.999181 0.986911
1.00499 0.999415 0.98655
0.999909 1.00108 0.993723
1.00124 1.0032 0.989344
1.00367 1.00207 0.986014
1.0049 0.999653 0.986591
1.0052 0.998678 0.986865
1.0051 1.00047 0.98533
1.00516 0.999353 0.986144
1.00518 0.99929 0.986243
1.00052 1.00317 0.990627
1.00055 1.00423 0.989455
1.00014 1.00269 0.991761
1.00499 0.999179 0.986902
1.005 0.999246 0.986806
1.00518 0.998223 0.987359
1.00521 0.998519 0.986944
1.00518 0.998857 0.986605
1.00517 0.997531 0.987985
1.0007 1.0032 0.990245
1.00518 0.998511 0.98691
1.00223 1.00347 0.987336
1.00469 1.00173 0.984601
1.00517 1.00038 0.985261
1.00512 0.998536 0.987086
1.00013 1.00199 0.99246
1.00103 1.00346 0.989445
1.00019 1.00451 0.989781
1.00107 1.00402 0.98909
1.00402 1.00009 0.987451
0.999727 0.999087 0.996048
0.999702 1.00038 0.994747
1.00003 1.0025 0.992136
1.00364 1.00049 0.987738
1.00491 1.00002 0.985931
1.00067 1.00351 0.989975
1.00242 1.00399 0.986609
1.00443 1.00085 0.986103
1.00426 1.00125 0.985774
0.999827 0.998735 0.996257
1.0004 1.00301 0.991025
1.00005 1.00146 0.993157
1.00026 1.0039 0.990393
1.00498 0.999865 0.985987
1.00473 1.00029 0.985996
1.00514 0.999764 0.985793
1.00139 1.00437 0.987969
1.00486 1.00039 0.985755
1.00306 1.00352 0.985742
1.00483 1.00061 0.985511
0.99993 0.998458 0.996356
1.00013 1.00075 0.99376
1.00084 1.00405 0.989311
1.00014 1.00303 0.991526
1.00037 1.00458 0.989588
1.00517 0.999404 0.986122
1.00503 1.00001 0.985676
1.00512 0.999081 0.986483
1.00184 1.00483 0.98674
1.00504 1.0001 0.985602
1.00393 1.00224 0.985061
1.00026 1.00014 0.994129
1.00023 1.00136 0.992992
1.00027 1.00006 0.994203
1.00027 1.00008 0.994176
1.00004 0.998089 0.996984
0.999996 0.998256 0.996682
0.999794 0.997203 0.998118
0.99965 0.997348 0.999181
0.99956 0.997538 0.999166
0.999831 0.999359 0.995589
0.999578 0.998125 0.998942
0.999792 0.999879 0.99516
0.999598 0.998499 0.998771
0.999793 1.00039 0.994668
0.999634 0.998865 0.99858
1.00408 1.00004 0.987402
1.00412 0.99987 0.987515
1.00504 0.999555 0.986194
1.00504 0.999197 0.986564
1.00408 0.999709 0.987737
1.00161 0.999973 0.991797
1.00405 0.999691 0.987806
1.00503 0.999086 0.986705
1.00506 0.99937 0.986376
1.00521 0.998057 0.987479
1.00503 0.999707 0.986078
1.00522 0.99868 0.986797
1.00501 0.999062 0.986769
1.00518 0.997907 0.98771
1.00523 0.998329 0.987128
1.00518 0.996987 0.988554
1.00519 0.999052 0.986467
1.00517 0.997259 0.988195
1.00403 0.999615 0.987694
1.00405 0.999788 0.988124
1.00499 0.999108 0.986983
1.00499 0.999516 0.98659
0.999976 1.00106 0.993717
1.00128 1.0032 0.989319
1.00366 1.00212 0.986051
1.0049 0.999706 0.986574
1.0052 0.998536 0.987002
1.00516 0.999348 0.986164
1.00508 1.00046 0.985255
1.00518 0.999259 0.986235
1.00056 1.00308 0.990641
1.00051 1.00415 0.989501
1.00018 1.00266 0.991749
1.00499 0.999139 0.986838
1.00501 0.999244 0.986797
1.00518 0.998058 0.987528
1.00521 0.998569 0.986924
1.00076 1.00316 0.990224
1.00231 1.00338 0.987309
1.00452 1.00175 0.984773
1.00518 0.998999 0.986513
1.00517 0.997351 0.988197
1.00517 1.00042 0.985138
1.00518 0.998513 0.986928
1.00512 0.998441 0.987213
1.0011 1.00344 0.989447
1.00104 1.00397 0.989077
1.00015 1.00201 0.992447
1.00015 1.00441 0.989893
1.00517 0.998076 0.987543
1.00521 0.99831 0.987343
1.00514 0.997137 0.988396
1.00516 0.996771 0.988742
1.00517 0.997814 0.987683
1.00511 0.996516 0.989104
1.00149 1.00324 0.988858
1.00511 0.997251 0.98818
1.00274 1.00342 0.985936
1.00507 1.00173 0.984227
1.00513 1.00004 0.985457
1.00508 0.998127 0.98751
1.00013 1.00148 0.992979
1.00012 1.00382 0.990593
1.00145 1.00318 0.989026
1.00038 1.00488 0.989224
1.00133 1.00334 0.989328
0.999827 0.998709 0.99627
1.00498 0.999866 0.985974
1.00003 1.00143 0.993186
1.00033 1.00312 0.991029
1.00016 1.00403 0.990382
1.00474 1.00028 0.98599
1.00515 0.999775 0.98578
1.00141 1.00435 0.987992
1.00317 1.00346 0.985706
1.0049 1.00046 0.985779
1.00476 1.00052 0.985551
0.999931 0.998447 0.996361
1.00013 1.00072 0.993772
1.00084 1.00401 0.989324
1.00005 1.00312 0.991533
1.00028 1.00466 0.989525
1.00517 0.999414 0.986108
1.00506 1.00001 0.985657
1.00512 0.999061 0.986452
1.00179 1.00488 0.986756
1.00507 1.0001 0.985618
1.00407 1.00214 0.985087
1.00022 1.00033 0.994023
1.00015 1.00213 0.992414
1.0011 1.00446 0.988394
1.00002 1.00429 0.990523
1.00071 1.00439 0.989388
1.00513 0.998536 0.987022
1.0051 0.999564 0.98597
1.00511 0.998337 0.986934
1.00223 1.00446 0.98623
1.00487 1.00077 0.985041
1.00025 1.00015 0.994126
1.00024 1.00135 0.992905
1.0002 1.00139 0.992949
1.00018 1.0021 0.992474
1.00021 1.00139 0.993009
1.00024 1.0001 0.994205
1.00026 1.00006 0.994204
1.00009 0.997994 0.996989
1.00026 1.00009 0.994174
1.00005 0.998097 0.996984
0.999894 0.996977 0.998143
0.999987 0.998253 0.996952
0.999764 0.997161 0.998659
0.999661 0.997303 0.999186
0.999887 0.998943 0.995911
0.999826 0.999409 0.995567
0.999609 0.997834 0.999034
0.999602 0.998188 0.998899
0.999796 0.999932 0.995135
0.99963 0.99855 0.998721
1.00502 0.999713 0.986068
1.00505 0.999374 0.98637
1.00522 0.998696 0.986785
1.00521 0.997961 0.98759
1.00502 0.999089 0.986706
1.00405 0.999689 0.987806
1.00501 0.999061 0.986771
1.00517 0.997912 0.987717
1.00523 0.998341 0.987127
1.00518 0.996796 0.98876
1.0052 0.999057 0.986446
1.00518 0.997139 0.988316
1.00516 0.997942 0.987711
1.00509 0.996885 0.988793
1.00519 0.996731 0.988765
1.00518 0.995811 0.989678
1.00515 0.997861 0.987649
1.00516 0.996241 0.989265
1.00499 0.999095 0.986775
1.00502 0.999252 0.986788
1.00517 0.997887 0.987697
1.00521 0.998614 0.986904
1.00083 1.00314 0.990204
1.00241 1.00331 0.987282
1.00432 1.0017 0.984945
1.00517 0.999143 0.986421
1.00516 0.997169 0.98841
1.00518 0.998515 0.986947
1.00516 1.00047 0.985016
1.00512 0.998351 0.98734
1.00107 1.00349 0.98945
1.00089 1.00407 0.989064
1.00017 1.00202 0.992434
1.00011 1.00435 0.990005
1.00516 0.998081 0.987539
1.0052 0.998373 0.98723
1.00515 0.997053 0.988515
1.00516 0.996861 0.988623
1.00148 1.00338 0.988818
1.00275 1.00344 0.98611
1.00502 1.00161 0.984183
1.00517 0.997973 0.987491
1.00512 0.99629 0.989258
1.00513 1.00007 0.985428
1.00511 0.997271 0.988187
1.00509 0.997919 0.987624
1.00152 1.00315 0.989004
1.0013 1.00324 0.989403
1.00035 1.00495 0.989188
1.00014 1.00147 0.992912
1.00009 1.00373 0.990702
1.00512 0.996919 0.988774
1.00516 0.996604 0.988953
1.00512 0.995736 0.989826
1.00511 0.996412 0.988994
1.00174 1.00366 0.988034
1.0051 0.99682 0.988808
1.00317 1.00326 0.985134
1.00513 1.00158 0.984006
1.00508 0.999561 0.985803
1.00009 1.00097 0.993369
1.0001 1.00309 0.991522
1.00028 1.00436 0.990005
1.00173 1.00273 0.989077
1.0006 1.00477 0.988821
1.00163 1.00241 0.989256
0.99993 0.998442 0.996367
1.00012 1.0007 0.993785
1.00517 0.999426 0.986093
0.999953 1.00323 0.991541
1.00077 1.00405 0.989336
1.0002 1.00475 0.989463
1.0051 1.00002 0.985638
1.00512 0.999042 0.986421
1.00171 1.00495 0.986771
1.00415 1.00209 0.985111
1.00511 1.00009 0.985636
1.00021 1.00033 0.994025
1.0001 1.00215 0.992431
1.00108 1.00453 0.988366
0.999913 1.0044 0.990509
1.00062 1.00431 0.989434
1.00513 0.998548 0.986998
1.00512 0.999561 0.985936
1.00511 0.998374 0.986982
1.00224 1.00433 0.986126
1.00489 1.00093 0.985009
1.00022 1.00158 0.992837
0.999852 1.00353 0.99136
1.00145 1.004 0.988169
1.00004 1.00487 0.989823
1.00114 1.00342 0.989307
1.00512 0.997051 0.988268
1.00511 0.999513 0.985987
1.00508 0.998277 0.986951
1.0034 1.00323 0.985724
1.00505 1.00067 0.984899
1.00025 1.00016 0.994124
1.00024 1.00136 0.992934
1.00006 1.00214 0.992417
1.00018 1.00141 0.992905
1.00019 1.00142 0.993007
1.00011 1.00215 0.992417
1.00002 1.00258 0.992201
1.00011 1.00221 0.992279
1.00017 1.00149 0.992989
1.00019 1.0002 0.994195
1.00023 1.00011 0.994205
1.00012 0.997962 0.996969
1.00026 1.00006 0.994204
1.0001 0.998013 0.996985
0.999968 0.996853 0.998141
1.00006 0.998102 0.996986
0.999883 0.996951 0.99815
0.999729 0.997107 0.99921
0.999942 0.998574 0.996198
0.999881 0.998991 0.99589
0.999658 0.997562 0.999104
0.999819 0.999468 0.995547
0.999623 0.99789 0.999007
0.999628 0.998238 0.998855
1.0052 0.999062 0.986426
1.00523 0.998356 0.987127
1.00518 0.997018 0.988437
1.00517 0.996605 0.988967
1.00517 0.997918 0.987723
1.00501 0.999061 0.986772
1.00516 0.998008 0.987631
1.00509 0.997003 0.988697
1.00519 0.996801 0.988685
1.00516 0.99562 0.989864
1.00515 0.997887 0.98764
1.00515 0.996026 0.989427
1.00509 0.997104 0.98866
1.00515 0.995519 0.990031
1.00517 0.995586 0.989872
1.00512 0.996159 0.989343
1.00516 0.998087 0.987534
1.0052 0.998433 0.987118
1.00516 0.996973 0.988634
1.00516 0.996955 0.988503
1.00153 1.00343 0.988777
1.00275 1.00347 0.986283
1.005 1.00151 0.984139
1.00517 0.998131 0.987298
1.00512 0.996072 0.989411
1.00511 0.997293 0.988193
1.00513 1.00008 0.985399
1.0051 0.997711 0.987739
1.00159 1.00315 0.988981
1.00134 1.00303 0.989478
1.00032 1.00501 0.989151
1.00014 1.00145 0.992844
1.00007 1.00364 0.990812
1.00512 0.996957 0.988767
1.00517 0.996657 0.988905
1.00513 0.995809 0.989696
1.00179 1.00368 0.987999
1.00335 1.0033 0.985266
1.00512 1.00152 0.983955
1.00511 0.996443 0.988979
1.00508 0.999352 0.986078
1.0051 0.996772 0.988657
1.0001 1.0009 0.993451
1.00182 1.00263 0.989038
1.00148 1.00231 0.989692
1.0007 1.00484 0.988749
1.00027 1.00441 0.990022
1.0001 1.00307 0.991466
1.00516 0.996025 0.989385
1.00519 0.995488 0.989976
1.00513 0.995355 0.989939
1.00515 0.995706 0.98968
1.00216 1.00351 0.98749
1.00511 0.997632 0.987705
1.00436 1.00309 0.983608
1.00508 1.00159 0.98381
1.00014 1.00028 0.99399
1.0001 1.00243 0.992196
1.00021 1.00375 0.990791
1.00037 1.00501 0.989111
1.00202 1.00209 0.988961
1.00161 1.00336 0.98854
1.00021 1.00032 0.994027
1.00006 1.00215 0.992448
1.00513 0.998559 0.986974
0.999813 1.00451 0.990496
1.00107 1.00456 0.988338
1.00044 1.00418 0.989482
1.00513 0.999557 0.985903
1.00511 0.998419 0.98703
1.00228 1.00422 0.986022
1.00492 1.00108 0.984977
1.00019 1.00157 0.992848
0.999916 1.00348 0.991373
1.00148 1.00406 0.988175
0.999922 1.00494 0.989779
1.00096 1.00325 0.989678
1.00511 0.99704 0.988466
1.0051 0.999498 0.98605
1.0051 0.998351 0.986941
1.0033 1.00333 0.98556
1.00506 1.0007 0.984796
0.999948 1.00244 0.992226
0.999777 1.00453 0.990329
1.00216 1.00321 0.987795
1.0003 1.00431 0.989067
1.00512 0.995579 0.989693
1.00493 0.997592 0.988219
1.00505 0.999634 0.985786
1.00384 1.00174 0.985036
1.00025 1.00136 0.992964
1.00007 1.00216 0.992436
0.999848 1.00282 0.992297
1.00016 1.00145 0.993005
1.00005 1.00218 0.99236
1.00016 1.00149 0.992983
0.999986 1.00256 0.992198
1.00011 1.00221 0.992312
0.999929 1.00274 0.992166
1.00007 1.00266 0.991968
1.00013 1.00231 0.992132
1.00016 1.00159 0.992888
1.00014 1.00029 0.994175
1.00019 1.00019 0.994193
1.00014 0.997961 0.996943
1.00023 1.0001 0.994205
1.00013 0.997988 0.996964
1.00002 0.996771 0.998123
1.0001 0.99803 0.996984
0.99996 0.996818 0.998148
0.999871 0.996928 0.998153
1.00002 0.998212 0.996429
0.999947 0.998596 0.996176
0.999727 0.997255 0.999166
0.999873 0.999043 0.995867
0.999664 0.997615 0.999084
0.999642 0.99794 0.998974
1.00515 0.997912 0.987631
1.00518 0.996874 0.988606
1.00514 0.995814 0.989588
1.00515 0.995431 0.990049
1.00509 0.997121 0.988602
1.00516 0.998075 0.987551
1.00509 0.997084 0.988682
1.00514 0.99563 0.989921
1.00518 0.995581 0.98985
1.00513 0.996123 0.989409
1.00515 0.995908 0.989686
1.00521 0.995081 0.990377
1.00516 0.995173 0.990086
1.00513 0.996994 0.988759
1.00518 0.99671 0.988857
1.00513 0.995882 0.989565
1.00184 1.0037 0.987964
1.00357 1.00334 0.985398
1.00511 1.0015 0.983903
1.00512 0.996469 0.988964
1.00509 0.996721 0.988506
1.00508 0.999148 0.986354
1.00191 1.00253 0.988999
1.00128 1.00224 0.99013
1.00081 1.00491 0.988677
1.00011 1.00082 0.993533
1.00023 1.00442 0.990039
1.0001 1.00303 0.99141
1.00516 0.996104 0.989429
1.00519 0.995438 0.990034
1.00514 0.995363 0.98997
1.00217 1.00355 0.987443
1.0041 1.00307 0.984021
1.00505 1.00141 0.984108
1.00514 0.995754 0.989615
1.00511 0.997593 0.987659
1.00013 1.00025 0.994132
1.0001 1.00243 0.992192
1.00182 1.00206 0.989101
1.00151 1.00345 0.988935
1.00035 1.00492 0.989292
1.00018 1.00378 0.990719
1.00519 0.995072 0.990417
1.00515 0.994969 0.99036
1.00512 0.99518 0.990174
1.00512 0.995907 0.989373
1.00234 1.00297 0.986916
1.00494 1.00015 0.985443
1.00499 1.00328 0.983206
1.00019 0.999892 0.994509
1.00019 1.00109 0.993351
1.00011 1.00172 0.992712
1.00004 1.00335 0.991353
1.00007 1.00447 0.990075
1.00008 1.00481 0.989374
1.00242 1.00096 0.988977
1.00159 1.00335 0.989628
1.00017 1.00158 0.992858
0.999975 1.00347 0.991385
1.00511 0.997032 0.988664
0.999966 1.00503 0.989734
1.0015 1.00417 0.988183
1.00074 1.00315 0.990047
1.00509 0.999466 0.986114
1.00511 0.998414 0.986933
1.0032 1.00339 0.985399
1.00507 1.0007 0.984693
0.999973 1.00251 0.992157
0.999852 1.00448 0.990353
1.00206 1.00327 0.987907
1.0006 1.00438 0.989131
1.00514 0.995452 0.989857
1.005 0.997614 0.988016
1.00505 0.999596 0.985817
1.00419 1.00189 0.984888
0.999802 1.00331 0.991701
1.0051 0.995181 0.990167
1.00038 1.00498 0.989534
1.00216 1.00354 0.987343
1.00495 0.996047 0.989838
1.00482 0.998743 0.986464
1.00465 1.00121 0.985076
1.00007 1.0022 0.992454
0.999832 1.00279 0.992275
0.999589 1.0033 0.992266
1.00017 1.00147 0.992977
1.00011 1.00221 0.992344
0.999902 1.00259 0.992195
1.00017 1.00158 0.992876
1.00011 1.0023 0.992155
0.999859 1.00279 0.992147
1.00011 1.0026 0.992006
1.00007 1.00262 0.992123
1.00002 1.00276 0.991959
1.00015 1.00283 0.99169
1.00026 1.00237 0.991913
1.00018 1.0017 0.992737
1.00011 1.00039 0.994129
1.00014 1.0003 0.994173
1.00015 0.998 0.996895
1.00019 1.0002 0.99419
1.00014 0.997993 0.996938
1.00007 0.996709 0.998107
1.00013 0.998014 0.996961
1.00002 0.996735 0.998129
0.999954 0.996787 0.998152
1.00018 0.999804 0.994624
1.00008 0.997967 0.996579
1.00002 0.998231 0.996414
0.999813 0.99698 0.99921
0.99995 0.998628 0.996155
0.999726 0.99733 0.999148
0.999673 0.997672 0.999063
1.00514 0.996087 0.989476
1.00518 0.995577 0.989828
1.00513 0.995729 0.989811
1.00509 0.997062 0.988704
1.00515 0.99581 0.989791
1.00522 0.995074 0.990376
1.00515 0.995226 0.990091
1.00521 0.994918 0.990497
1.0052 0.994951 0.990438
1.0049 0.995065 0.990856
1.00517 0.996183 0.989474
1.00518 0.995378 0.990091
1.00514 0.995371 0.990001
1.00219 1.00357 0.987396
1.0038 1.00307 0.984434
1.00502 1.00122 0.984407
1.00514 0.995806 0.98955
1.00512 0.997552 0.987614
1.00163 1.00207 0.989242
1.00146 1.00349 0.989327
1.00022 1.00487 0.989474
1.00013 1.00021 0.994275
1.00013 1.00242 0.992188
1.00017 1.00383 0.990648
1.00519 0.995051 0.990387
1.00017 0.999906 0.994506
1.00016 1.00111 0.99329
1.00515 0.994983 0.990374
1.00512 0.995183 0.990152
1.00211 1.00317 0.987358
1.00467 1.00315 0.983334
1.00497 1.00002 0.985373
1.00511 0.996011 0.989265
1.00012 1.0017 0.992889
1.00008 1.00331 0.991337
1.00262 1.00129 0.988751
1.00105 1.00333 0.989969
1.00015 1.00477 0.989505
1.00003 1.0045 0.990161
1.00518 0.994951 0.990344
1.00509 0.994864 0.99057
1.00509 0.995116 0.989999
1.00493 0.996523 0.988789
1.00224 1.00261 0.987854
1.00453 1.00308 0.984071
1.00012 1.00112 0.993267
1.00017 1.00123 0.993244
1.00022 1.00193 0.992583
1.00008 1.00289 0.991557
0.999961 1.00398 0.99097
1.00051 1.00449 0.989435
0.999619 1.00494 0.989876
1.00181 1.00101 0.990083
1 1.00254 0.992088
0.999945 1.00439 0.990379
1.00515 0.995313 0.990021
1.00505 0.997664 0.987815
1.00088 1.00444 0.989195
1.00196 1.00328 0.988016
1.00507 0.999561 0.985845
1.00453 1.00206 0.984739
0.999847 1.00332 0.991659
1.00511 0.995025 0.990304
1.00017 1.00488 0.989645
1.00219 1.00337 0.987232
1.00498 0.995932 0.989757
1.00473 0.998825 0.986698
1.00467 1.00137 0.985117
0.999848 1.00446 0.990829
1.00455 0.995006 0.991892
1.00135 1.00428 0.989026
1.00293 1.00338 0.986698
1.00479 0.99672 0.989027
1.00407 1.00066 0.986109
0.999524 0.99693 0.991698
0.999803 1.00279 0.992253
0.999508 1.00338 0.992259
0.999799 1.0034 0.991962
1.00016 1.00159 0.992864
1.0001 1.00233 0.992176
1.00015 1.00255 0.992043
0.999816 1.00279 0.992128
1.00018 1.0017 0.992735
1.00023 1.00241 0.991907
1.00005 1.0027 0.991992
1.00013 1.00286 0.991693
1.00008 1.00271 0.991954
1.00017 1.0025 0.992013
1.00027 1.00299 0.991352
1.0002 1.00289 0.991567
1.00035 1.00249 0.991646
1.00022 1.00177 0.992501
1.00027 1.00232 0.992079
1.00021 1.00184 0.992414
1.0001 1.00044 0.99408
1.0001 1.00039 0.994128
1.00017 0.998085 0.996292
1.00014 1.00029 0.99417
1.00016 0.99804 0.996613
1.00003 0.996661 0.999186
1.00014 0.998027 0.996934
1.00006 0.996671 0.998112
1.00002 0.996701 0.998132
1.00014 0.999742 0.994725
1.00018 0.999784 0.994628
1.0001 0.997819 0.996694
1.00006 0.997972 0.996831
0.999888 0.996772 0.999245
1.00003 0.998245 0.996399
0.999805 0.997044 0.999199
0.999728 0.997393 0.999129
1.00515 0.995278 0.990097
1.00523 0.995061 0.990374
1.00516 0.995723 0.989897
1.00521 0.99492 0.99049
1.00518 0.99496 0.99042
1.00491 0.995198 0.990531
1.0052 0.994948 0.990396
1.00087 0.995568 0.988459
1.00411 0.994944 0.993465
1.00006 1.00113 0.993501
1.00518 0.99503 0.990358
1.00515 0.995014 0.990388
1.00511 0.995185 0.990129
1.00186 1.00333 0.9878
1.00435 1.00308 0.983461
1.005 0.99991 0.985308
1.00508 0.996132 0.989156
1.00291 1.00145 0.988527
1.00047 1.00335 0.990315
1.00025 1.00471 0.989639
1.00016 0.999936 0.994503
1 1.00453 0.990247
1.00012 1.00167 0.993065
1.0001 1.00328 0.991321
1.00015 1.00111 0.99323
1.00518 0.994945 0.990365
1.00012 1.0011 0.993363
1.00016 1.00124 0.993241
1.00022 1.00193 0.99249
1.00507 0.994884 0.990556
1.00509 0.995213 0.989936
1.00237 1.00255 0.987886
1.00423 1.00263 0.984502
1.00485 0.996865 0.988722
1.00005 1.00291 0.991665
1 1.00398 0.990801
1.00169 1.00159 0.989934
0.999909 1.0048 0.98993
1.00045 1.00436 0.989534
1.00513 0.994942 0.990545
1.00509 0.994883 0.990524
1.00505 0.996053 0.989156
1.00459 0.998716 0.988281
1.00148 1.00292 0.989138
1.00011 1.00212 0.992297
1.00024 1.00212 0.992044
1.00006 1.00287 0.991709
0.999904 1.00412 0.991079
0.99998 1.00437 0.990391
0.999993 1.0046 0.989778
1.00022 1.00386 0.990286
0.999915 1.0033 0.991615
0.999921 1.00479 0.989755
1.00513 0.994944 0.990439
1.00503 0.995813 0.989675
1.00469 0.998873 0.986931
1.00222 1.00319 0.987123
1.00471 1.00151 0.985159
0.999835 1.0044 0.990956
1.00445 0.99501 0.992005
1.00099 1.00417 0.989187
1.00268 1.00345 0.986681
1.00475 0.996552 0.989358
1.00421 1.00062 0.986065
0.999532 0.996992 0.989723
0.999973 1.00445 0.990637
1.00364 0.996123 0.992105
1.00093 1.00386 0.989371
1.00258 1.00227 0.987382
1.00406 0.997956 0.988099
1.00037 0.995616 0.955215
0.996695 0.995744 0.974353
0.997388 1.00242 0.990691
0.99981 0.996831 0.910725
0.994755 0.998006 0.890951
0.999439 1.00341 0.992253
0.999582 1.00357 0.992015
0.999989 1.00269 0.992196
1.00018 1.00169 0.992733
1.00027 1.00233 0.9919
1.00013 1.00286 0.991697
1.00013 1.00265 0.991949
1.00004 1.0028 0.991862
1.00023 1.00284 0.991521
1.00021 1.00175 0.992572
1.00034 1.00248 0.991662
1.00018 1.0025 0.991955
1.00022 1.00301 0.991415
1.00028 1.00301 0.991402
1.00005 1.00279 0.99174
1.00033 1.00293 0.991311
1.00037 1.00246 0.991573
1.00023 1.00184 0.992401
1.00035 1.00247 0.991736
1.00027 1.00253 0.99181
1.00013 1.00235 0.992154
1.00026 1.00234 0.992013
1.00022 1.00168 0.992684
1.00022 1.00185 0.992405
1.00014 1.00043 0.994038
1.0001 1.00045 0.994078
1.00016 0.998155 0.996264
1.0001 1.0004 0.994126
1.00017 0.998095 0.99629
1.00004 0.99667 0.999178
1.00017 0.998078 0.996331
1.00006 0.996664 0.998632
1.00006 0.996633 0.998116
1.0001 0.999736 0.99481
1.00015 0.999741 0.994725
1.00012 0.997715 0.996768
1.00018 0.999761 0.994633
1.0001 0.997786 0.996948
0.999944 0.9966 0.999273
1.00007 0.99801 0.996548
0.999876 0.996856 0.999228
0.999799 0.997099 0.999187
1.00516 0.994971 0.990402
1.00521 0.994921 0.990483
1.00492 0.995279 0.990206
1.00072 0.995679 0.988561
1.00518 0.994948 0.990381
1.00401 0.995414 0.992996
1.00492 0.996277 0.9912
0.997208 0.995806 0.972853
1.00102 0.996337 0.990082
1.00008 1.00116 0.99346
1.00011 1.00109 0.993495
1.00001 1.00215 0.992567
1.00007 1.00208 0.992561
1.00517 0.994926 0.990385
1.00505 0.994892 0.990543
1.0051 0.995306 0.989872
1.00272 1.00232 0.987919
1.0039 1.00201 0.984928
1.00482 0.997229 0.988651
1.00147 1.00232 0.989783
1.00026 1.0047 0.989981
1.00037 1.00418 0.989633
1.00014 1.00129 0.993237
1.00003 1.00397 0.990631
1.00006 1.00291 0.991774
1.00012 1.0011 0.99346
1.00018 1.00197 0.992394
1.00515 0.994927 0.990531
1.00009 1.00217 0.992416
1.00022 1.00215 0.992188
0.999948 1.00274 0.991994
1.00509 0.994879 0.990452
1.005 0.99589 0.989177
1.00188 1.0024 0.989059
1.00429 0.998561 0.988589
0.999953 1.00401 0.991013
1.00012 1.00437 0.990075
1.00021 1.00416 0.990282
1.00036 1.00449 0.989722
1.00478 0.994801 0.991298
1.00508 0.995407 0.990194
1.00497 0.996712 0.98906
1.00222 1.00038 0.990596
0.999999 1.00329 0.991379
1.00006 1.00342 0.991144
0.999488 1.00452 0.991036
0.999668 1.00517 0.990028
1.00002 0.99493 0.949484
0.999803 1.00432 0.991082
1.00055 1.00412 0.989346
1.00439 0.994952 0.992114
1.00468 0.996393 0.989689
1.00432 1.00055 0.986019
1.00238 1.00354 0.986663
0.999664 0.996797 0.987697
0.999837 1.00456 0.990733
1.00381 0.99586 0.99211
1.0008 1.00394 0.989421
1.00285 1.00194 0.987363
1.0043 0.998029 0.9882
1.00153 0.995859 0.948078
0.996498 0.99583 0.970297
0.997299 1.0022 0.990476
0.999792 0.997554 0.913678
0.994726 0.997931 0.881972
0.999791 1.00368 0.991655
0.999876 0.995312 0.919018
0.995342 0.997618 0.892648
1.00235 1.00016 0.990643
1.0004 1.00368 0.990327
1.00245 1.00087 0.988297
0.996871 1.00367 0.990424
1.00011 0.99718 0.953194
0.9949 0.997095 0.968332
0.998393 0.998781 0.916951
0.994774 0.999298 0.889808
0.999402 1.00375 0.992067
0.999868 1.00294 0.992122
0.999813 1.00197 0.993493
1.00022 1.00171 0.992643
1.00035 1.0025 0.991677
1.00015 1.00292 0.991475
1.00017 1.00302 0.991478
1.00019 1.0025 0.991898
1.00024 1.0018 0.992411
1.00022 1.00308 0.99135
1.00032 1.00291 0.991332
1.00039 1.00244 0.99163
1.00007 1.00272 0.991805
1.0002 1.00312 0.991481
0.999869 1.00283 0.991884
1.00043 1.0029 0.99111
1.00042 1.0025 0.991572
1.00037 1.00244 0.99172
1.00027 1.00253 0.991819
1.00046 1.00254 0.991492
1.0001 1.00273 0.991855
1.00013 1.00244 0.991892
0.999743 1.00363 0.991511
0.999993 1.0026 0.992142
1.00014 1.00236 0.99215
1.00017 1.00164 0.992805
1.00025 1.00237 0.991946
1.00023 1.00169 0.992623
1.00019 1.00036 0.994021
1.00022 1.00186 0.992397
1.00014 1.00043 0.99404
1.00012 0.998165 0.996837
1.0001 1.00045 0.994076
1.00015 0.998141 0.996551
1.00009 0.996701 0.998034
1.00017 0.998106 0.996288
1.00004 0.996678 0.999175
1.00009 0.996668 0.998077
1.00011 1.00125 0.993326
1.00007 0.999777 0.994819
1.0001 0.999727 0.994812
1.00013 0.997676 0.996789
1.00015 0.999739 0.994725
1.00013 0.99769 0.996767
0.999988 0.996495 0.999285
1.00008 0.997794 0.997182
0.999958 0.996672 0.998764
0.999919 0.996907 0.998194
1.00043 0.995779 0.988687
1.00517 0.994952 0.990369
1.0039 0.996101 0.992524
0.996629 0.995656 0.974326
1.0008 0.99626 0.99034
1.00499 0.995723 0.990961
1.00343 0.996729 0.989636
0.997051 0.996755 0.977062
1.00005 0.995603 0.953339
0.999371 0.998093 0.919965
0.99466 0.998008 0.889635
0.999965 1.00213 0.992498
1.00009 1.00115 0.993459
1.00014 1.00104 0.99349
1.00001 1.00217 0.992524
0.999956 1.00297 0.991887
1.00016 1.00265 0.991896
1.00008 1.00235 0.992307
1.00002 1.00218 0.992489
1.00517 0.994902 0.990515
1.00509 0.994873 0.990374
1.00503 0.99563 0.989201
1.00207 1.00205 0.988983
1.00401 0.998499 0.988898
1.00019 1.00436 0.990278
1.00067 1.00442 0.989668
1.00031 1.00439 0.989761
1.00017 1.00215 0.992333
0.999959 1.00399 0.990945
1.00009 1.00224 0.992537
0.999961 1.00255 0.99228
1.00479 0.994826 0.991347
0.99999 1.0033 0.99146
1.00005 1.0034 0.991303
1.00503 0.995226 0.990103
1.00442 0.996452 0.989522
1.0022 1.00031 0.990464
0.999725 1.00469 0.990627
0.999955 1.00486 0.990083
1.00321 0.996855 0.991859
1.00466 0.995925 0.990853
1.00388 0.995858 0.991083
1.0013 1.0011 0.990822
1.00002 1.00399 0.990662
0.999688 1.00438 0.990797
0.99968 1.00519 0.990323
0.999916 0.994858 0.919872
1.00053 0.995084 0.957773
0.999755 1.0047 0.990829
1.0007 1.00392 0.989473
1.00388 0.995648 0.992118
1.00452 0.998156 0.988302
1.00314 1.00169 0.987349
1.0005 0.995214 0.953547
0.996984 0.996129 0.969565
0.997168 1.00198 0.990234
0.998971 0.997264 0.921518
0.994704 0.997899 0.872828
0.999748 1.00365 0.991672
0.999891 0.995873 0.917989
0.995336 0.997556 0.888179
1.00231 1 0.990673
1.00034 1.0036 0.990403
1.00238 1.00097 0.988858
0.997221 1.0034 0.99105
1.00126 0.997027 0.947712
0.994898 0.996472 0.972123
0.998553 0.999347 0.917521
0.994937 0.999131 0.887699
0.99936 1.00309 0.993306
0.995584 0.997009 0.8931
0.99513 0.998993 0.907912
0.999765 1.00184 0.992753
0.999448 1.00376 0.992285
0.996301 1.0029 0.991737
0.994818 0.999302 0.971791
0.998166 0.999097 0.945848
0.995245 0.999883 0.922922
0.994795 0.99695 0.896872
0.999841 1.0031 0.992049
0.99992 1.00174 0.993449
0.9994 1.00165 0.993937
1.00024 1.00178 0.99242
1.00038 1.00242 0.991687
1.00031 1.00288 0.991354
1.00019 1.00315 0.991297
1.00005 1.00268 0.991871
1.00042 1.00252 0.991564
1.0002 1.00306 0.991437
1.00044 1.0029 0.991118
0.999657 1.00304 0.992015
0.998083 1.00406 0.993615
1.00022 1.00326 0.991219
1.00058 1.00285 0.991022
1.0004 1.00242 0.991705
1.00029 1.0025 0.991828
1.00045 1.00256 0.99148
1.00012 1.00274 0.991835
1.00016 1.00241 0.991959
0.999892 1.00319 0.991711
1.0002 1.00255 0.991724
0.999978 1.00262 0.992061
1.00019 1.00292 0.991518
0.999754 1.00493 0.989839
0.99952 1.00408 0.991243
0.999774 1.00363 0.991505
0.99988 1.00291 0.992015
1.00002 1.0026 0.992137
1.0001 1.0017 0.992835
1.00014 1.0024 0.992146
1.00018 1.00163 0.992809
1.00023 1.00027 0.994029
1.00025 1.00169 0.992563
1.00019 1.00035 0.994026
1.00012 0.998172 0.996842
1.00014 1.00043 0.994041
1.00014 0.998146 0.996554
1.00006 0.996706 0.998047
1.00017 0.99812 0.996265
1.00003 0.996708 0.999169
1.00004 0.996689 0.999172
1.00014 1.00136 0.993369
1.00008 0.999853 0.994733
1.0001 1.00125 0.993329
1.00014 0.997664 0.996784
1.00007 0.999768 0.994821
1.0001 0.999726 0.994813
1.00014 0.997668 0.996787
1.00002 0.996437 0.999287
1.00011 0.997675 0.997248
1.00001 0.99651 0.998796
0.999986 0.996666 0.99828
0.999844 0.996072 0.912478
0.994998 0.997313 0.891892
0.997636 0.995497 0.974781
1.00064 0.995664 0.990612
1.00506 0.994979 0.990724
0.996599 0.995734 0.97845
1.00355 0.996057 0.98993
1.00113 0.99595 0.952798
0.999819 0.997447 0.912145
0.99468 0.997934 0.88053
0.998443 0.995339 0.982014
0.999837 0.997748 0.953702
0.998362 0.998838 0.916048
0.99477 0.998455 0.889035
1.00007 1.00307 0.991568
0.999977 1.00214 0.992571
1.00011 1.00112 0.993459
1.00003 1.00214 0.992481
0.999946 1.00288 0.991982
1.00018 1.00301 0.991505
1.00015 1.00263 0.9919
1.00018 1.00263 0.991795
1.0001 1.00233 0.992227
0.999985 1.00226 0.99242
1.00478 0.994878 0.991404
1.0051 0.995103 0.99003
1.00379 0.99628 0.989993
1.00208 1.00044 0.990331
1.00025 1.00464 0.990137
0.999935 1.00486 0.990218
1.00003 1.00335 0.991463
0.999929 1.00332 0.991541
1.00331 0.996308 0.992087
0.999982 1.0041 0.990594
0.999681 1.00449 0.990676
1.0046 0.995872 0.990583
1.00334 0.995872 0.991966
1.00168 1.00124 0.990185
0.999901 1.00516 0.990156
1.00038 0.99807 0.993051
1.00216 0.996436 0.994615
0.999833 1.0034 0.990888
0.999849 1.00441 0.990451
0.99981 1.00468 0.990251
0.999574 1.00513 0.990367
0.994797 0.997048 0.907235
0.999899 0.994892 0.922886
1.00002 0.994942 0.949399
0.999598 1.0038 0.99169
1.00028 1.00348 0.990479
1.00232 0.999678 0.990711
1.00236 1.00105 0.989414
0.999857 0.995561 0.92355
0.999881 0.997057 0.947783
0.994894 0.995731 0.968449
0.997554 1.00233 0.991624
0.998533 0.998828 0.908964
0.995338 0.997433 0.889432
0.995 0.998942 0.892692
0.999097 1.00305 0.993307
0.995492 0.996262 0.898542
0.995359 0.999156 0.907378
1.00007 1.00184 0.992673
0.999138 1.00382 0.99228
0.996114 1.0005 0.994496
0.994844 0.99836 0.970413
0.997432 0.998997 0.95399
0.997294 0.9999 0.914204
0.994792 0.996911 0.902095
0.998071 1.00291 0.995446
0.995286 0.996792 0.918813
0.99471 0.996854 0.918998
0.995982 1.00231 0.999217
0.99481 0.999977 0.978298
0.995429 0.999992 0.954026
0.994816 0.999924 0.912337
0.994871 0.994943 0.899806
1.00001 1.00155 0.993403
0.999484 1.00165 0.994167
0.997781 1.00349 0.995513
1.00041 1.00254 0.991556
1.00046 1.00289 0.991126
1.00021 1.00295 0.991392
0.999467 1.00323 0.992149
1.00052 1.0029 0.991005
1.00018 1.00331 0.991217
0.998067 1.00397 0.994028
0.996201 1.00522 0.996283
0.998599 1.00426 0.993139
1.00037 1.00309 0.991171
1.00045 1.00257 0.991467
1.00012 1.00275 0.991816
1.00018 1.00242 0.992024
1.0002 1.00256 0.99176
0.999905 1.00321 0.991713
1.00001 1.00262 0.992085
1.00009 1.00289 0.991816
0.999441 1.0024 0.993086
1.00099 1.00088 0.991895
1.00023 1.00279 0.991635
0.99995 1.00396 0.990626
1.00114 1.00489 0.987867
0.999793 1.00465 0.990782
0.999606 1.00491 0.99024
0.999618 1.00405 0.991306
0.999743 1.00328 0.991709
0.999808 1.00364 0.991499
0.999936 1.00287 0.992013
1.00005 1.00191 0.992728
1.00007 1.00257 0.992132
1.00013 1.0017 0.992832
1.00023 1.00028 0.994021
1.0002 1.00162 0.992814
1.00023 1.00029 0.994032
1.0001 0.998177 0.996861
1.00019 1.00035 0.994031
1.00013 0.998156 0.996564
1.00001 0.996793 0.998052
1.00016 0.998121 0.996269
1.00004 0.996723 0.998607
1.00003 0.996714 0.99917
1.00016 1.00162 0.992895
1.00011 0.999949 0.994589
1.0001 1.00141 0.993207
1.00015 0.997694 0.996737
1.00008 0.999846 0.994735
1.00007 1.0013 0.993331
1.00003 0.996412 0.999286
1.00014 0.997662 0.996785
1.00008 0.999751 0.994824
1.00014 0.99766 0.996784
1.00002 0.996449 0.999287
0.999986 0.996502 0.999284
0.994922 0.995431 0.90028
0.99987 0.995611 0.91722
0.995198 0.999361 0.907411
0.995191 0.997588 0.889326
0.996996 0.995201 0.975638
1.00357 0.996063 0.990243
1.0004 0.996436 0.951757
0.99981 0.997011 0.920732
0.994707 0.997998 0.871336
0.998356 0.996074 0.980977
1.00124 0.997418 0.944531
0.99857 0.999174 0.916701
0.99478 0.998943 0.884243
0.995391 0.996944 0.976503
0.997824 0.999029 0.946363
0.995851 0.99968 0.910083
0.994817 0.996483 0.89135
1.00004 1.00369 0.991021
1.00003 1.00304 0.99167
0.999954 1.00219 0.992642
0.999919 1.00278 0.992077
1.00032 1.00327 0.990898
1.00017 1.00294 0.991583
1.00011 1.00263 0.991903
1.00033 1.00265 0.991649
1.00022 1.00257 0.991885
1.00012 1.00233 0.992145
1.00351 0.996008 0.992299
1.00444 0.995777 0.990316
1.00295 0.995848 0.992838
1.00214 1.00109 0.98956
1.00005 1.00513 0.989991
0.999749 1.0046 0.990556
0.999982 1.00417 0.990526
0.999973 1.00437 0.990396
1.00065 0.99801 0.993364
0.999908 1.00473 0.99024
0.999765 1.00513 0.990351
1.00232 0.996391 0.994145
1.00043 1.00331 0.990737
0.998634 0.997109 0.994622
0.998494 0.998397 0.999482
0.998994 1.00475 0.991533
0.999978 1.0048 0.989923
0.999569 1.00504 0.990408
0.994774 0.996739 0.924567
0.994779 0.996817 0.905493
0.999887 0.994869 0.915078
0.998863 1.00299 0.993307
0.998938 1.00391 0.992259
1.00028 1.00195 0.992605
0.995472 0.995406 0.89969
0.997847 0.998901 0.946592
0.994853 0.997546 0.970913
0.996255 0.999366 0.997469
0.996021 0.999905 0.922849
0.99571 0.999339 0.906856
0.994819 0.996856 0.902243
0.997984 1.00295 0.995668
0.995374 0.995829 0.921626
0.994703 0.996782 0.918982
0.996216 1.00267 0.998322
0.994837 0.999808 0.979538
0.996152 0.999954 0.946492
0.994852 0.995599 0.900831
0.994858 0.999944 0.918497
0.996179 1.00422 0.998054
0.994582 0.994635 0.939595
0.994734 0.9958 0.922581
0.99481 0.996592 0.891663
0.994914 1.00109 0.993782
0.995158 0.999898 0.956969
0.994927 0.999974 0.916933
0.999639 1.00164 0.994398
0.998075 1.00348 0.994956
0.995583 1.00523 0.997946
1.0005 1.00292 0.990988
1.00011 1.00334 0.991215
0.99803 1.00387 0.994432
1.00029 1.00299 0.991242
0.998649 1.0041 0.993131
0.996247 1.00451 0.996784
0.996018 1.0051 0.997122
0.998851 1.00334 0.993246
1.00019 1.00256 0.991797
0.999914 1.00322 0.991714
1.00007 1.00262 0.99211
0.999586 1.00252 0.992978
1.00007 1.0028 0.991816
0.999801 1.00229 0.992819
1.00039 1.00131 0.992598
1.00077 1.00282 0.990203
1.00029 1.00264 0.991754
1.00032 1.00388 0.990444
1.00147 1.0039 0.987663
1.00154 1.00443 0.987315
1.00005 1.00489 0.989871
1.00094 1.00485 0.988012
0.999873 1.00382 0.99122
0.999715 1.0047 0.990713
0.999448 1.00494 0.990641
0.999717 1.00402 0.99137
0.999789 1.00321 0.991792
1.00002 1.00213 0.992544
0.999984 1.00283 0.992011
1.00008 1.00189 0.992729
1.0002 1.00041 0.993948
1.00015 1.00169 0.992829
1.00024 1.00028 0.994019
1.00006 0.998211 0.996885
1.00024 1.00028 0.994035
1.00011 0.998163 0.996587
0.999951 0.996886 0.998074
1.00015 0.998114 0.996283
0.999992 0.996802 0.99861
0.999998 0.996768 0.999172
1.00024 1.00181 0.992364
1.00016 1.00016 0.994097
1.00016 1.00163 0.992894
1.00016 0.997787 0.996624
1.00011 0.999959 0.994463
1.00008 1.00142 0.993045
1.00003 0.996453 0.999272
1.00015 0.997693 0.996741
1.00008 0.999834 0.994737
1.00003 0.99642 0.999286
1.00014 0.997659 0.996786
1.00001 0.996454 0.999287
0.994938 0.995169 0.921857
0.994907 0.99599 0.904179
0.999852 0.996077 0.918238
1.00043 1.00269 0.991322
0.994722 0.997657 0.922975
0.995248 0.999084 0.907013
0.995316 0.997534 0.892808
0.998427 0.996515 0.979549
0.999588 0.997916 0.95341
0.998403 0.998583 0.907657
0.994753 0.99933 0.886782
0.996191 0.996941 0.972589
0.997475 0.998859 0.953709
0.997273 0.9999 0.913673
0.994807 0.99703 0.893101
0.994885 0.997886 0.968749
0.995412 0.999973 0.952802
0.994866 0.999938 0.918171
0.994861 0.9954 0.899594
1.00021 1.00402 0.99036
1.00006 1.00373 0.990924
1.00004 1.003 0.991772
1.00034 1.00322 0.990897
1.00031 1.00324 0.991017
1.00017 1.00288 0.991661
1.00034 1.00263 0.991679
1.00024 1.00254 0.991975
1.00081 0.997991 0.993647
1.00245 0.996416 0.993651
1.00004 1.00434 0.99034
1.00098 1.0032 0.990575
0.999998 1.00514 0.990333
0.999913 1.00476 0.990227
0.999993 1.00478 0.990009
0.998332 0.997792 0.995133
0.999736 1.00508 0.990318
0.999524 1.00411 0.991592
0.99861 0.998071 0.9995
0.999955 1.00475 0.989992
0.996912 0.99851 0.995161
0.996557 0.999584 1.00201
0.999096 1.00528 0.99116
0.999921 1.00498 0.99025
0.994589 0.994859 0.94419
0.994774 0.996941 0.924988
0.994758 0.996886 0.903756
0.997816 1.00301 0.995912
0.996186 1.00267 0.997405
0.995372 0.995021 0.924387
0.995493 0.999994 0.954517
0.994838 0.999016 0.976294
0.994847 0.999932 0.917632
0.994698 0.996725 0.918965
0.994842 0.99617 0.901837
0.99634 1.00406 0.997766
0.994593 0.994695 0.939506
0.994721 0.995533 0.926851
0.99489 1.00199 0.997032
0.994803 0.99715 0.893328
0.995068 0.999283 0.952417
0.995133 0.99997 0.921139
0.995153 1.00471 0.998423
0.99463 0.994644 0.944232
0.994714 0.997824 0.923156
0.994768 0.99867 0.889284
0.995861 0.999944 0.917466
0.994904 0.998745 0.986677
0.995567 1.00088 0.944739
0.998336 1.00338 0.99439
0.995659 1.00522 0.997616
0.994952 1.00502 0.999958
1.00021 1.00291 0.991314
0.998675 1.00411 0.993121
0.996307 1.00361 0.997283
0.998974 1.00343 0.993181
0.996215 1.00408 0.997146
0.99776 1.00372 0.99549
0.999753 1.00262 0.992869
1 1.00275 0.991816
0.999924 1.00239 0.992872
0.999473 1.00405 0.99113
0.999755 1.0017 0.993295
1.00058 1.00267 0.990591
1.0016 1.00371 0.988113
1.00383 1.00266 0.985139
1.00068 1.0038 0.990259
1.00171 1.00402 0.987358
1.00247 1.00335 0.98757
1.00033 1.0049 0.988785
1.00157 1.00431 0.98757
0.999794 1.00455 0.990509
1.0001 1.00491 0.989832
1.00074 1.00479 0.988158
1.00001 1.00256 0.992135
0.999828 1.00382 0.99122
0.999641 1.00479 0.990644
0.999839 1.00315 0.991875
1.00006 1.00212 0.992539
1.00016 1.00063 0.993802
1.00011 1.00187 0.99273
1.00021 1.00041 0.993946
1.00001 0.99834 0.996328
1.00025 1.00029 0.994017
1.00008 0.998207 0.996335
0.999825 0.996982 0.999191
1.00012 0.99814 0.996307
0.999933 0.996891 0.998621
0.999954 0.996839 0.999175
1.00028 1.00198 0.992123
1.00022 1.0004 0.993731
1.00024 1.00183 0.99245
1.00017 0.997931 0.996466
1.00017 1.00017 0.994053
1.00017 1.00164 0.992892
1.00002 0.996548 0.999243
1.00016 0.997783 0.996632
1.00011 0.999973 0.994337
1.00003 0.996439 0.999277
1.00015 0.997692 0.996745
1.00003 0.996427 0.999287
0.994634 0.994756 0.940193
0.994918 0.996051 0.921653
0.994882 0.996736 0.904379
1.00039 1.00271 0.991406
1.00038 1.00266 0.99136
1.00043 1.00304 0.991058
0.994748 0.995529 0.922132
0.994709 0.997065 0.92296
0.995409 0.999176 0.906611
0.995814 0.996701 0.974852
0.998333 0.999312 0.945327
0.995273 0.999904 0.922741
0.994826 0.99765 0.889805
0.995008 0.997578 0.971819
0.996391 0.999989 0.950165
0.994826 0.999955 0.91918
0.994853 0.995683 0.900504
0.994879 0.99804 0.967567
0.995453 0.999995 0.954063
0.994933 0.999997 0.917408
0.994801 0.997276 0.896571
1.00034 1.00385 0.990288
1.0002 1.00402 0.990356
1.00009 1.00375 0.990827
1.00036 1.00324 0.990875
1.00029 1.00321 0.991136
1.00037 1.00261 0.99171
0.997964 0.998201 0.995628
0.998346 0.99799 0.999534
1.00002 1.00473 0.990096
1.00007 1.00326 0.991654
0.999854 1.00509 0.990231
1.00007 1.00472 0.989863
0.999626 1.00498 0.990303
0.996692 0.997947 0.99552
0.999172 1.00463 0.99179
0.996186 1.00055 1.00136
0.999941 1.0046 0.990445
0.995523 0.997525 0.995976
0.996623 1.0024 0.998057
0.998935 1.00523 0.991975
0.994593 0.994871 0.94969
0.994566 0.994851 0.945722
0.994776 0.996873 0.92539
0.996626 1.004 0.997467
0.995024 1.00196 0.994478
0.994603 0.994755 0.939416
0.994877 0.999156 0.955802
0.994918 0.999964 0.913173
0.994704 0.995319 0.931122
0.994812 0.997786 0.890116
0.995252 1.00464 0.998772
0.994631 0.994649 0.945878
0.994701 0.997182 0.923148
0.994925 0.998929 0.982561
0.994766 0.999072 0.88464
0.994828 0.999966 0.91842
0.995316 1.00065 0.953522
0.994981 1.00374 0.997873
0.994619 0.994736 0.940505
0.995266 0.999484 0.90776
0.994647 0.998028 0.89047
0.996126 0.999078 0.910051
0.99597 1.00001 0.952989
0.995641 1.00004 0.975857
0.995888 1.00526 0.997331
0.995243 1.00379 0.999913
0.996521 1.0036 0.998487
0.999076 1.00347 0.993117
0.996408 1.00326 0.997178
0.997 1.00405 0.995881
0.999615 1.00288 0.993022
1.00006 1.00254 0.992925
1.00039 1.00379 0.990737
1.00123 1.00479 0.987747
1.00038 1.00256 0.990987
1.00176 1.00377 0.987827
1.00378 1.0039 0.984712
1.00494 1.00208 0.983767
1.00328 1.00225 0.98612
1.00368 1.00291 0.985144
1.00194 1.00412 0.987053
1.00195 1.00359 0.988216
1.00213 1.00302 0.988109
0.999997 1.00502 0.989336
1.00046 1.0049 0.988917
1.00159 1.00419 0.987831
0.99995 1.00356 0.991221
0.999911 1.00447 0.99052
1.00013 1.00489 0.989793
1.00012 1.00095 0.993553
1.00006 1.00253 0.992125
0.999786 1.00381 0.991221
1.00009 1.00211 0.992534
1.00017 1.00063 0.993799
0.999927 0.99854 0.996273
1.00022 1.00041 0.993943
1.00002 0.998337 0.996324
0.999758 0.997144 0.999182
1.00008 0.998196 0.996332
0.999855 0.997009 0.998633
0.999895 0.996937 0.99918
1.00034 1.00208 0.992079
1.00028 1.0006 0.993618
1.0003 1.00197 0.992174
1.00016 0.998111 0.996283
1.00022 1.00041 0.993811
1.00025 1.00185 0.992536
0.999994 0.996684 0.999207
1.00016 0.997922 0.996477
1.00017 1.00018 0.994008
1.00002 0.996527 0.999252
1.00015 0.997781 0.996641
1.00004 0.996433 0.999282
0.99462 0.994635 0.943965
0.994595 0.994684 0.940103
0.99491 0.996694 0.921554
1.00027 1.00285 0.991336
1.00025 1.00329 0.991093
1.00033 1.00273 0.99149
1.00035 1.00271 0.991363
1.00036 1.0031 0.99103
1.0003 1.00304 0.991199
1.00051 1.00316 0.990802
0.994723 0.99669 0.918453
0.994731 0.995615 0.926463
0.994695 0.99635 0.922949
0.994832 0.995912 0.90141
0.994865 0.997586 0.969108
0.99524 0.999992 0.948292
0.994867 0.999937 0.923582
0.99487 0.998382 0.966939
0.995025 1.00001 0.947188
0.995095 0.999985 0.922061
0.994795 0.997006 0.901858
0.995512 0.996847 0.970876
0.994946 1.0006 0.946513
0.994819 0.999924 0.912957
0.994775 0.999354 0.889171
0.999936 1.00417 0.990659
1.00032 1.00386 0.990288
1.00019 1.00403 0.990351
1.00039 1.00324 0.990853
0.996662 0.997719 0.995904
0.996105 1.00131 1.00072
1.00007 1.00474 0.989734
0.999619 1.00503 0.990356
0.999431 1.00427 0.992422
0.999835 1.00461 0.990431
0.99877 1.00523 0.991971
0.995414 0.998678 0.993312
0.99612 1.00351 0.998427
0.998234 1.00487 0.992733
0.995228 0.998796 0.99187
0.997577 1.00457 0.996461
0.994603 0.994852 0.944242
0.994598 0.994806 0.952291
0.994537 0.994799 0.94725
0.995149 1.0045 0.999066
0.994921 0.99763 0.987533
0.994628 0.994659 0.947544
0.996692 1.00087 0.945361
0.994852 0.999948 0.922682
0.994688 0.996475 0.923137
0.994743 0.999383 0.88717
0.994954 1.00239 0.998388
0.994603 0.994703 0.940434
0.995405 0.998991 0.907347
0.994912 1.00067 0.977186
0.994671 0.997927 0.881466
0.997342 0.999901 0.913321
0.994965 1.00001 0.946607
0.995421 1.00468 0.992132
0.995167 0.994836 0.92246
0.995085 0.997274 0.89274
0.998719 0.997862 0.916912
0.995363 0.999964 0.953122
0.994889 0.999927 0.970348
0.995488 1.00267 0.999875
0.995833 1.00427 0.99846
0.998271 1.00068 0.997377
0.996267 1.00435 0.996273
0.998561 1.00313 0.993512
1.00288 1.00028 0.989837
1.00132 1.00347 0.990342
1.00157 1.0047 0.987617
1.00278 1.00404 0.985144
1.00194 1.00384 0.987541
1.00375 1.00389 0.984496
1.00451 1.00328 0.983394
1.00504 1.00108 0.984492
1.00505 1.00235 0.983802
1.00494 1.00217 0.983677
1.00274 1.00249 0.986784
1.00329 1.00236 0.986345
1.00354 1.00321 0.985148
1.00138 1.00441 0.98805
1.00181 1.00352 0.988231
1.00179 1.00272 0.988642
1.00007 1.00464 0.989954
1.00007 1.00498 0.989484
1.00061 1.0049 0.989051
1.00002 1.00166 0.992967
1.00007 1.00341 0.991221
1.00001 1.00441 0.990532
0.999838 0.998758 0.996199
1.00013 1.00096 0.993539
1.00011 1.00249 0.992115
1.00018 1.00062 0.993796
0.999927 0.998551 0.996266
0.999666 0.997342 0.999171
1.00002 0.998332 0.99632
0.999749 0.99718 0.99918
0.999823 0.997044 0.999184
1.00027 1.00297 0.991302
1.00039 1.00222 0.991893
1.00033 1.00082 0.993325
1.00035 1.0021 0.992066
1.00014 0.99834 0.996088
1.00028 1.00061 0.993617
1.00029 1.00202 0.992225
0.999957 0.996856 0.999164
1.00016 0.998108 0.996295
1.00023 1.00041 0.993891
0.999999 0.996654 0.999218
1.00016 0.997917 0.996488
1.00003 0.9965 0.999262
0.99462 0.994666 0.939247
0.994629 0.994648 0.945645
0.994559 0.994691 0.939999
1.00034 1.0028 0.991359
1.00018 1.00335 0.991064
1.00008 1.00358 0.990929
1.00015 1.00327 0.991081
1.00027 1.00367 0.990781
1.00034 1.00275 0.991367
1.0003 1.00317 0.991001
1.00031 1.00301 0.991194
1.00042 1.0032 0.990879
1.00015 1.00345 0.991169
0.995159 0.998977 0.907138
0.994718 0.996885 0.918465
0.994718 0.995774 0.930786
0.994815 0.996715 0.902008
0.99493 0.999984 0.913609
0.994895 0.998814 0.965536
0.994938 1.00025 0.953684
0.994912 0.997215 0.967668
0.995161 1.0003 0.953939
0.994848 0.999954 0.919592
0.99496 0.999132 0.886916
0.99502 0.995253 0.972553
0.994939 1.00027 0.954635
0.995727 0.999894 0.922045
0.994774 0.998031 0.889073
0.99884 1.00347 0.993073
0.999909 1.00438 0.990628
1.00028 1.00392 0.990288
0.995219 0.999579 0.990594
0.995612 1.00428 0.998786
0.999823 1.00454 0.990416
0.998252 1.00524 0.991967
0.998384 1.00482 0.992773
0.996897 1.0042 0.996447
0.994928 0.999081 0.992104
0.996399 1.00267 0.997554
0.995937 1.00037 0.991961
0.995016 0.996419 0.924169
0.994589 0.994845 0.945745
0.994602 0.994757 0.954897
0.994964 1.00085 0.998828
0.994902 1.00118 0.973164
0.994588 0.994688 0.940347
0.996601 1.00002 0.951266
0.995256 0.999908 0.922274
0.99561 0.999037 0.906947
0.994699 0.997976 0.872365
0.995234 1.0047 0.992542
0.995073 0.995657 0.922265
0.995319 0.997448 0.890204
0.994908 0.999724 0.971356
0.998549 0.999125 0.917319
0.996319 0.999969 0.948925
0.995902 1.00217 0.990044
0.994968 0.995133 0.901173
0.999404 0.997856 0.920826
0.997832 0.998636 0.946344
0.99486 0.997687 0.972841
0.995159 1.00482 0.99841
0.998083 1.00087 0.997286
1.00286 0.999172 0.992393
0.997588 1.00336 0.993941
1.00188 1.00067 0.990252
1.00394 0.998906 0.98823
1.0019 1.00457 0.987485
1.00288 1.0039 0.985219
1.00439 1.00141 0.985186
1.00371 1.00388 0.984281
1.00439 1.0031 0.983453
1.00495 1.00055 0.985086
1.00512 0.999391 0.985956
1.0051 1.00158 0.983842
1.00497 1.00107 0.984551
1.00466 1.00194 0.984588
1.00501 1.00222 0.983711
1.00492 1.00224 0.983588
1.00228 1.00369 0.987032
1.00269 1.00249 0.987077
1.00328 1.00245 0.986573
1.00083 1.00446 0.988842
1.00122 1.00439 0.988164
1.00168 1.00345 0.988244
0.999936 1.00295 0.991794
1.00018 1.00448 0.989962
1.00014 1.00493 0.98963
0.999746 0.999125 0.996555
1.00006 1.00167 0.992936
1.00018 1.00327 0.991222
0.999587 0.997579 0.998009
0.999836 0.998809 0.996456
1.00014 1.00097 0.993525
0.999925 0.998565 0.99626
0.999659 0.997385 0.999164
0.999739 0.997211 0.999177
1.00019 1.00333 0.99105
1.00037 1.00247 0.991678
1.00023 1.00304 0.991269
1.00034 1.00105 0.993086
1.00035 1.00227 0.991887
1.0001 0.998583 0.995909
1.00032 1.00083 0.993325
1.00037 1.00208 0.992054
0.999909 0.997067 0.999118
1.00014 0.99833 0.9961
1.00027 1.00062 0.993615
0.999962 0.996824 0.999177
1.00015 0.998103 0.996307
1 0.996626 0.999229
0.995626 0.994807 0.925111
0.994617 0.994696 0.939169
0.994641 0.994644 0.947339
1.00033 1.0031 0.991062
1.00033 1.00283 0.991381
1.00012 1.00341 0.991035
1.00021 1.00329 0.991109
1.00021 1.0035 0.990966
1.00017 1.00364 0.990843
1.00022 1.00393 0.990423
0.999915 1.00393 0.990713
1.00037 1.00295 0.991189
1.00031 1.00321 0.990957
1.00008 1.00351 0.991129
0.999424 1.00392 0.992366
0.995248 0.998042 0.891607
0.995546 0.999143 0.906598
0.994707 0.997095 0.918472
0.995229 0.998864 0.891967
0.994837 0.999941 0.919262
0.99494 1.0006 0.946492
0.995541 0.997217 0.965502
0.995071 0.995477 0.974285
0.994737 0.99802 0.88047
0.994918 1.00001 0.950603
0.997276 0.999877 0.913404
0.994874 0.99628 0.975135
0.995581 0.999975 0.954794
0.99935 0.997964 0.913666
0.998835 1.00179 0.995136
0.999078 1.00341 0.99303
0.999862 1.00462 0.990598
0.994838 0.999412 0.992329
0.996383 1.00383 0.996432
0.998493 1.00475 0.992812
0.997635 1.00248 0.997344
0.995491 1.00041 0.992067
0.996983 0.999982 0.99393
0.994889 0.998357 0.901049
0.994957 0.995713 0.928289
0.994576 0.994828 0.947248
0.995106 1.00504 0.992921
0.994922 0.999448 0.971767
0.994918 0.996347 0.922151
0.995262 0.999998 0.947595
0.99867 0.997733 0.908585
0.995529 0.997097 0.893695
0.996082 1.00254 0.990039
0.995031 0.995638 0.905009
0.999821 0.996898 0.913233
0.994879 0.997871 0.968851
0.997535 0.998675 0.953582
0.997838 0.999701 0.99289
0.999851 0.995863 0.913159
0.999825 0.997998 0.953357
0.994866 0.996791 0.968426
0.997906 1.00116 0.997278
1.00214 0.998333 0.992936
1.00387 0.999026 0.989723
1.00087 1.00107 0.990671
1.00352 0.999509 0.98818
1.00467 0.998074 0.987784
1.00294 1.00375 0.985294
1.00419 1.00143 0.985182
1.00494 0.998362 0.987134
1.00427 1.00292 0.983509
1.00495 1.00037 0.985109
1.00508 0.997794 0.987564
1.00514 0.997877 0.987433
1.00514 1.00007 0.985271
1.00511 0.999312 0.986029
1.0051 1.00098 0.984376
1.00508 1.00149 0.984007
1.0049 1.00105 0.98461
1.00371 1.00241 0.985747
1.00441 1.00193 0.98474
1.00491 1.00209 0.983619
1.00185 1.00371 0.987775
1.00235 1.00361 0.987011
1.00266 1.00247 0.987369
1.00033 1.00363 0.99047
1.00087 1.00443 0.988843
1.00107 1.00435 0.988278
0.999673 0.999787 0.995404
1.00007 1.00281 0.99178
1.00031 1.00432 0.98997
0.999486 0.9978 0.999136
0.999732 0.999209 0.995951
1.0001 1.00168 0.992905
0.999582 0.997582 0.999146
0.999821 0.998849 0.996165
0.999654 0.997436 0.999158
1.00042 1.00318 0.990898
1.00023 1.00332 0.99103
1.00035 1.00279 0.991392
1.0003 1.00131 0.992882
1.00033 1.0025 0.991677
1.00023 1.00306 0.991237
1.00005 0.998814 0.995771
1.00033 1.00105 0.993088
1.00032 1.00231 0.991881
0.999853 0.997277 0.999076
1.0001 0.998568 0.995919
1.00031 1.00084 0.993324
0.999914 0.997023 0.999132
1.00014 0.998322 0.996112
0.999968 0.996784 0.99919
0.995394 0.997 0.893485
0.995401 0.994862 0.924938
0.994608 0.994724 0.939091
1.00018 1.00329 0.991044
1.00079 1.00292 0.990907
1.0002 1.0035 0.990817
1.00024 1.00333 0.991136
1.00033 1.00341 0.991004
1.00001 1.00369 0.990905
1.00006 1.00385 0.990698
1.00017 1.00396 0.990483
1.00009 1.00435 0.990282
0.999868 1.00121 0.993372
1.00017 1.00336 0.991089
0.999517 1.0036 0.99214
0.999803 0.997314 0.909585
0.995234 0.997985 0.886994
0.995815 0.999351 0.906091
0.994701 0.998053 0.871737
0.99682 0.99876 0.921766
0.994892 1 0.949753
0.995375 0.995192 0.97186
0.994955 0.996534 0.973541
0.998534 0.999172 0.916191
0.996207 0.999968 0.948008
0.994965 0.998103 0.974184
0.99873 0.99864 0.946328
1.00206 0.99831 0.993193
0.99904 1.00173 0.994888
0.999273 1.00332 0.992997
0.995011 1.00066 0.99214
0.998593 1.00232 0.997121
0.997632 1.00023 0.993227
0.999696 0.999402 0.990047
0.999931 0.994843 0.919688
0.994911 0.997415 0.902167
0.994766 0.994877 0.932331
0.996161 1.00271 0.990168
0.99489 0.997989 0.967145
0.995156 0.996255 0.90516
0.998633 0.99834 0.945492
0.999818 0.997374 0.921693
0.997625 0.999404 0.990923
0.999878 0.995515 0.9179
1.00131 0.997326 0.944647
0.994889 0.996505 0.971789
0.99896 0.996519 0.992683
1.00004 0.996222 0.953241
0.996234 0.996219 0.974274
1.00147 0.997351 0.993442
1.00368 0.998108 0.989678
1.00495 0.99723 0.989105
1.00302 1.00012 0.988134
1.0044 0.998278 0.987788
1.00481 0.996836 0.988748
1.00404 1.00148 0.985179
1.00484 0.998478 0.987073
1.00509 0.996009 0.989113
1.00495 1.00019 0.985133
1.00508 0.997743 0.987569
1.00512 0.996255 0.989085
1.00511 0.996985 0.988577
1.00514 0.997714 0.987625
1.00516 0.998684 0.986792
1.00515 1.00026 0.985261
1.00515 1.0001 0.985296
1.00509 0.999237 0.986102
1.00485 1.00087 0.98511
1.0051 1.00098 0.984471
1.00508 1.00137 0.984171
1.00294 1.00296 0.986588
1.00368 1.00246 0.98573
1.00422 1.00196 0.984893
1.00101 1.00341 0.989499
1.00192 1.00367 0.987754
1.00241 1.00355 0.98699
0.999771 1.0006 0.994401
1.00044 1.00348 0.990476
1.00096 1.00433 0.988845
0.999502 0.998067 0.999022
0.99968 0.999885 0.995355
1.00018 1.00272 0.991766
0.999519 0.997824 0.99853
0.99972 0.999282 0.995925
0.999587 0.997638 0.999136
1.00059 1.00288 0.990907
1.00026 1.00329 0.990931
1.00027 1.00316 0.991084
1.00029 1.00332 0.99101
1.00029 1.00285 0.991391
1.00025 1.00165 0.992632
0.999976 0.99905 0.995673
1.00029 1.00131 0.992887
1.00027 1.00257 0.991676
0.999791 0.997471 0.999042
1.00005 0.998802 0.995779
1.00032 1.00106 0.99309
0.999857 0.997241 0.999088
1.0001 0.998559 0.995929
0.99992 0.996983 0.999146
0.999867 0.995275 0.919043
0.995463 0.997258 0.895154
0.995309 0.994891 0.924758
1.00005 1.00349 0.991025
1.00011 1.00374 0.990707
1.00054 1.00293 0.991107
1.0015 1.003 0.98945
1.00022 1.0039 0.990581
1.00018 1.00384 0.990682
1.00015 1.00394 0.990543
0.999997 1.00419 0.990504
1.00036 1.00346 0.989682
1.00077 1.00054 0.992837
1.00421 0.998556 0.98865
0.999791 1.00125 0.993635
0.999724 1.00325 0.991911
0.999297 0.997655 0.952724
0.999683 0.997819 0.913183
0.995285 0.997694 0.888394
0.999158 0.999369 0.906825
0.995884 0.999961 0.952254
0.994914 0.996437 0.975241
0.994868 0.998098 0.976251
0.997432 0.998597 0.955189
0.99598 0.998691 0.97531
1.0035 0.996201 0.99226
1.00144 0.998845 0.993313
0.999243 1.00173 0.994632
0.998379 1.00028 0.992588
1.00092 0.999783 0.988177
1.00002 0.994969 0.949448
0.999915 0.994877 0.922998
0.995036 0.99665 0.903375
0.997268 0.99928 0.988907
0.994881 0.996458 0.968719
0.999863 0.99591 0.918868
0.99999 0.998135 0.952999
0.998367 0.997881 0.993049
1.00121 0.996293 0.952328
0.9965 0.996093 0.971088
1.00128 0.996992 0.991292
0.999144 0.995796 0.979667
1.00351 0.997282 0.989677
1.00492 0.996583 0.989038
1.00499 0.995759 0.990036
1.00416 0.998521 0.987791
1.00473 0.996872 0.988697
1.00511 0.995253 0.989941
1.00473 0.998595 0.987013
1.00509 0.99609 0.989084
1.0051 0.995108 0.990103
1.00508 0.997695 0.987573
1.00512 0.99626 0.989045
1.00511 0.996022 0.989564
1.00512 0.996773 0.988712
1.00513 0.997674 0.987906
1.00514 0.997548 0.987818
1.00516 0.998705 0.986772
1.00516 0.999446 0.986065
1.00511 1.00019 0.985362
1.00515 1.00033 0.985222
1.00516 1.00013 0.985322
1.00411 1.00145 0.985965
1.00479 1.00092 0.98516
1.00507 1.00099 0.984567
1.00178 1.00288 0.988628
1.00297 1.00292 0.986583
1.00366 1.00249 0.985713
1.00005 1.00112 0.993362
1.00107 1.00334 0.98949
1.00193 1.00368 0.987734
0.999574 0.998502 0.998802
0.999815 1.00062 0.994372
1.00057 1.00331 0.990484
0.999549 0.998147 0.998959
0.999692 0.999977 0.995306
0.999561 0.997856 0.999071
1.0015 1.00301 0.989128
1.00064 1.00275 0.990897
1.00035 1.00324 0.99074
1.00012 1.00334 0.990963
1.00022 1.00322 0.991043
1.00023 1.00208 0.992224
1.00024 1.00289 0.99139
1.00024 1.00164 0.99264
0.999888 0.999318 0.995565
0.999723 0.997654 0.999017
0.999978 0.999026 0.995681
1.00029 1.0013 0.992892
0.999795 0.997448 0.999052
1.00005 0.998791 0.995787
0.999863 0.997198 0.999101
1.00049 0.995173 0.956102
0.999876 0.99564 0.91793
0.995403 0.997732 0.892408
1.00003 1.00399 0.990598
1.00034 1.00287 0.991307
1.00032 1.00383 0.990605
1.00139 1.00295 0.989537
1.00262 1.00313 0.987186
1.00059 1.00353 0.989768
0.999882 1.00406 0.990725
1.00088 1.00354 0.98918
1.00059 1.00091 0.992702
1.00239 1.00059 0.989151
1.00442 0.997846 0.989776
1.00447 0.997019 0.989445
1.00371 0.998397 0.98937
0.999465 1.00154 0.993901
0.996034 0.996587 0.974906
1.00023 0.996932 0.950763
0.998505 0.997793 0.921436
0.998122 0.999205 0.946234
0.994832 0.998391 0.97745
0.996289 0.998472 0.979659
1.00012 0.998367 0.992281
1.00364 0.995945 0.992278
1.00111 0.999274 0.993436
1.00272 1.00011 0.986237
0.996896 0.997384 0.97561
1.00037 0.995286 0.957789
0.999896 0.994853 0.915065
0.997924 0.998759 0.9933
0.996513 0.995436 0.973193
1.00039 0.996634 0.951165
1.00113 0.997086 0.991425
0.998666 0.995903 0.978769
1.00379 0.996335 0.991091
1.00316 0.997779 0.988586
1.00485 0.995948 0.988947
1.00495 0.995629 0.990011
1.00511 0.99485 0.990528
1.00467 0.996896 0.988646
1.00511 0.995222 0.989897
1.00508 0.994944 0.990456
1.00508 0.996162 0.989053
1.0051 0.995228 0.990073
1.00512 0.995465 0.990078
1.00513 0.996264 0.989004
1.00511 0.995998 0.989464
1.00511 0.996765 0.988718
1.00512 0.996568 0.988846
1.00513 0.997536 0.988067
1.00517 0.998832 0.986725
1.00516 0.998727 0.986751
1.00517 0.999512 0.986031
1.00515 0.999803 0.985848
1.00467 1.00027 0.985946
1.00511 1.00026 0.985383
1.00515 1.0004 0.985183
1.0028 1.00179 0.987965
1.00409 1.00147 0.985979
1.00472 1.00097 0.98521
1.00033 1.00151 0.992469
1.00181 1.0029 0.988619
1.00299 1.00289 0.986578
0.999706 0.999013 0.998491
1.00012 1.0011 0.99335
1.00115 1.00328 0.98948
0.999647 0.998616 0.99869
0.999851 1.00066 0.994343
0.999607 0.998223 0.998876
1.00266 1.00314 0.98706
1.00159 1.00307 0.98912
1.00104 1.0033 0.989563
1.00063 1.00269 0.990886
1.00043 1.0032 0.99066
1.00038 1.00244 0.991642
1.00018 1.00327 0.991002
1.00021 1.00209 0.99223
0.999807 0.999679 0.995351
1.00023 1.00164 0.992647
0.999894 0.999279 0.995577
0.999659 0.997842 0.998986
0.999728 0.997633 0.999025
0.99998 0.999006 0.995688
0.999798 0.997417 0.999062
0.996573 0.996092 0.976476
1.00062 0.995332 0.948261
0.999854 0.995083 0.923623
1.00433 1.00204 0.984919
1.00043 1.00376 0.990628
1.00128 1.00291 0.989625
1.00083 1.00356 0.989587
1.00256 1.00305 0.987168
1.00245 1.00144 0.988532
1.00138 1.00361 0.988681
1.00041 1.00124 0.992571
1.00271 1.0005 0.98923
1.00444 0.997603 0.989355
1.00481 0.997509 0.98806
1.00422 0.995916 0.991185
1.00437 0.996735 0.989271
1.00311 0.998154 0.990091
1.00006 0.997514 0.993372
0.995908 0.99675 0.97325
0.99991 0.996596 0.949405
0.996421 0.997872 0.977577
1.00031 0.997315 0.994385
1.00324 0.995732 0.992273
1.00115 0.996935 0.988327
0.996644 0.996134 0.977349
1.00003 0.994928 0.949556
1.00072 0.997487 0.991603
0.998467 0.996584 0.977482
1.00351 0.995862 0.991364
1.00305 0.997373 0.988893
1.00466 0.994946 0.991176
1.00449 0.997384 0.990743
1.00494 0.995475 0.98999
1.00511 0.994886 0.990422
1.00511 0.994875 0.990461
1.0051 0.9952 0.989855
1.00507 0.994944 0.990449
1.00513 0.995125 0.990288
1.0051 0.995352 0.990042
1.00511 0.995456 0.990021
1.00511 0.996277 0.989208
1.00511 0.995975 0.989365
1.00511 0.996781 0.988717
1.00518 0.998133 0.987341
1.00513 0.997399 0.988228
1.00517 0.998715 0.986876
1.00518 0.999543 0.985987
1.00517 0.999579 0.985997
1.00515 0.999824 0.985777
1.00479 1 0.986196
1.00347 1.00067 0.987869
1.00467 1.00033 0.985988
1.0051 1.00034 0.985402
1.00081 1.00132 0.991835
1.00275 1.00183 0.987974
1.00407 1.00148 0.985993
0.999788 0.999514 0.998202
1.00049 1.00133 0.992449
1.00183 1.0029 0.988612
0.999767 0.999108 0.998384
1.00021 1.00104 0.993337
0.999722 0.998707 0.998576
1.00429 1.00187 0.985196
1.00256 1.00317 0.987098
1.00196 1.0035 0.987891
1.00168 1.00312 0.989111
1.00108 1.00327 0.98958
1.00061 1.00286 0.990866
1.00051 1.00315 0.99058
1.00027 1.00258 0.991639
0.99977 1.00015 0.994938
1.00017 1.00213 0.992234
0.999813 0.99962 0.995371
0.999614 0.998072 0.99892
0.999899 0.999241 0.995588
0.999661 0.997817 0.998997
0.999731 0.997616 0.999032
1.00083 0.996359 0.991776
0.996891 0.99544 0.972791
1.0001 0.995142 0.956893
1.00364 1.00111 0.986353
1.00512 0.999691 0.98588
1.00428 1.00174 0.985058
1.00105 1.00359 0.989406
1.00249 1.00297 0.98714
1.0028 1.00139 0.98827
1.00509 0.997992 0.987635
1.00303 1.0004 0.989304
1.00446 0.997359 0.988927
1.0048 0.997527 0.988311
1.00501 0.996537 0.988889
1.00438 0.995462 0.991181
1.00416 0.996086 0.99092
1.0045 0.996649 0.989093
1.00018 0.997849 0.993505
0.995831 0.997007 0.971247
1.00061 0.996723 0.996543
1.0042 0.995573 0.99209
1.00087 0.997364 0.988492
0.99675 0.995475 0.97492
1.00353 0.995457 0.991608
1.00298 0.997453 0.989224
1.0047 0.995012 0.991415
1.00458 0.996594 0.990647
1.00513 0.994938 0.990352
1.00517 0.995125 0.990455
1.00512 0.994936 0.990316
1.0051 0.994887 0.990448
1.00515 0.995052 0.99029
1.00507 0.994944 0.990441
1.00513 0.995141 0.990233
1.00514 0.995762 0.989657
1.00511 0.995446 0.989964
1.00512 0.996288 0.989208
1.00517 0.997704 0.987779
1.00511 0.996797 0.988716
1.00517 0.998144 0.987353
1.00519 0.999301 0.98619
1.00517 0.998593 0.987027
1.00517 0.999497 0.986037
1.00484 0.999906 0.986185
1.00515 0.999844 0.985705
1.00478 1 0.986157
1.00368 1.00022 0.98796
1.00116 1.00081 0.991674
1.00344 1.00071 0.987867
1.00466 1.00038 0.98603
0.999851 0.999984 0.997957
1.00088 1.00126 0.991819
1.00269 1.00191 0.987982
0.999844 0.999635 0.998105
1.00061 1.00124 0.99243
0.999826 0.999212 0.99828
1.00498 1.00056 0.985245
1.00421 1.00185 0.985204
1.00322 1.00256 0.986376
1.00246 1.00318 0.987137
1.00187 1.00357 0.987923
1.00105 1.00325 0.989715
1.00111 1.00324 0.989598
1.0005 1.00297 0.990882
0.999878 1.00068 0.99426
1.00019 1.00269 0.991638
0.999769 1.0001 0.994959
0.999597 0.998405 0.998783
0.999821 0.999565 0.99539
0.999607 0.998032 0.998947
0.999664 0.997796 0.999008
1.00435 0.994953 0.992031
1.001 0.995878 0.990356
0.996667 0.994895 0.973082
1.00514 0.998437 0.986995
1.00395 1.00066 0.986445
1.00513 0.998588 0.986997
1.00511 0.999738 0.985884
1.00423 1.00144 0.985208
1.00511 0.997244 0.988033
1.00315 1.00133 0.988015
1.00508 0.998102 0.987451
1.00513 0.995883 0.989269
1.00479 0.997568 0.988566
1.00496 0.996644 0.988796
1.00435 0.995586 0.991295
1.00392 0.996067 0.990644
1.00015 0.998084 0.993605
1.00514 0.994998 0.990226
1.00422 0.996113 0.992146
1.00063 0.997437 0.988631
1.00472 0.995086 0.991658
1.00461 0.995705 0.990557
1.00512 0.994943 0.990405
1.00517 0.994982 0.990394
1.00519 0.994939 0.990418
1.0051 0.994899 0.990435
1.00514 0.995005 0.990315
1.00517 0.995428 0.990028
1.00512 0.995154 0.990178
1.00515 0.995799 0.989586
1.00517 0.997437 0.988047
1.00513 0.9963 0.989208
1.00518 0.99772 0.987783
1.00521 0.999052 0.986434
1.00517 0.998155 0.987365
1.00519 0.999293 0.986208
1.00491 0.999834 0.986155
1.00517 0.999451 0.986087
1.00484 0.999913 0.986198
1.00377 1.00012 0.987896
1.00477 1.00001 0.986118
1.00367 1.00023 0.98795
1.00123 1.00041 0.993198
1.00008 1.00001 0.995236
1.00121 1.00075 0.99234
1.00341 1.00075 0.987866
0.99991 1.00006 0.997884
1.00099 1.00111 0.991809
0.999901 0.999738 0.998001
1.0052 0.998496 0.987007
1.00508 0.999598 0.98604
1.005 1.00048 0.985359
1.00436 1.00089 0.98602
1.00412 1.00184 0.985213
1.00324 1.00262 0.986368
1.00195 1.00281 0.98847
1.00178 1.00363 0.987956
1.00096 1.00328 0.989748
1.00017 1.00122 0.993256
1.00039 1.00308 0.990898
0.999824 1.00069 0.994275
0.999599 0.998886 0.998548
0.999769 1.00004 0.994978
0.999575 0.99833 0.998839
0.999604 0.997996 0.998969
1.00513 0.995287 0.989904
1.00459 0.994948 0.992166
1.00143 0.995302 0.988959
1.00512 0.997533 0.987798
1.00513 0.998506 0.986887
1.00428 1.00024 0.986527
1.00512 0.99869 0.986933
1.00512 0.999786 0.985887
1.00512 0.996173 0.989409
1.0051 0.997266 0.987943
1.00508 0.998216 0.98727
1.00512 0.995904 0.989283
1.00496 0.996744 0.988704
1.00438 0.995804 0.991435
1.00519 0.995052 0.990416
1.00514 0.995012 0.990374
1.00428 0.996679 0.992206
1.00513 0.99491 0.990453
1.00518 0.994945 0.990332
1.00519 0.994939 0.99039
1.00516 0.995367 0.990238
1.00514 0.994966 0.990339
1.00517 0.995404 0.989983
1.00518 0.997235 0.988268
1.00515 0.995838 0.989515
1.00518 0.997442 0.988053
1.00522 0.998832 0.986652
1.00518 0.997737 0.987787
1.0052 0.999047 0.986445
1.00496 0.999784 0.986123
1.00519 0.999285 0.986227
1.00491 0.999834 0.986167
1.00386 1.0001 0.987756
1.00484 0.999919 0.986211
1.00378 1.00011 0.987892
1.00134 1.00011 0.993343
1.00367 1.00024 0.987939
1.00137 1.00032 0.99315
1.00004 1 0.995397
0.999927 1.00023 0.99653
1.00136 1.00068 0.992893
0.999939 1.00018 0.997828
1.00517 0.997994 0.987567
1.00518 0.999192 0.986296
1.00521 0.998312 0.987132
1.00479 0.999993 0.986218
1.0051 0.999655 0.985961
1.00501 1.0004 0.985473
1.00441 1.00084 0.985998
1.00301 1.00145 0.987837
1.00326 1.00267 0.98636
1.00195 1.00278 0.98847
1.00058 1.00152 0.99221
1.00086 1.00332 0.98978
1.00002 1.00133 0.993286
0.999636 0.999574 0.998214
0.999761 1.00071 0.994289
0.999566 0.998781 0.998643
0.999564 0.998261 0.998886
1.00516 0.995372 0.989943
1.00515 0.9953 0.989888
1.00474 0.994911 0.99227
1.00515 0.996819 0.988706
1.00512 0.99758 0.987776
1.00513 0.998576 0.986774
1.00512 0.998787 0.986869
1.00513 0.996153 0.989287
1.00509 0.99729 0.987853
1.00511 0.995892 0.989296
1.00516 0.995477 0.990109
1.00519 0.995058 0.99038
1.00516 0.995013 0.990521
1.00513 0.996037 0.98949
1.00519 0.99494 0.990362
1.00516 0.995483 0.99006
1.00517 0.996966 0.988754
1.00517 0.995371 0.989938
1.00518 0.997218 0.988274
1.00522 0.998633 0.986855
1.00518 0.997452 0.988059
1.00521 0.998831 0.986658
1.00502 0.999691 0.986121
1.0052 0.999043 0.986457
1.00496 0.999779 0.986136
1.00395 1.0001 0.987601
1.00491 0.999834 0.986178
1.00387 1.00008 0.987759
1.00143 1.00003 0.993299
1.00378 1.0001 0.987888
1.00145 1.00007 0.993262
1.00007 0.999916 0.995456
1.00151 1.00022 0.99311
0.999803 1.00015 0.995536
0.999571 1.0005 0.998055
1.00517 0.997894 0.987562
1.00517 0.998821 0.986757
1.00518 0.998024 0.987453
1.00485 0.999742 0.986601
1.00518 0.999058 0.986377
1.00522 0.998135 0.987256
1.00363 1.00036 0.987839
1.00479 0.999949 0.986208
1.00513 0.999719 0.985882
1.00446 1.00078 0.985976
1.00306 1.00142 0.987827
1.00099 1.00123 0.99168
1.00194 1.00276 0.98847
1.00044 1.00164 0.992237
0.999713 1.00028 0.997907
0.999892 1.00143 0.993314
0.999575 0.999428 0.998347
0.999542 0.998659 0.998727
1.00517 0.996046 0.989354
1.00516 0.995328 0.989961
1.00515 0.995348 0.989872
1.00514 0.996731 0.988764
1.00512 0.997626 0.987755
1.00512 0.996135 0.989166
1.00513 0.996236 0.989453
1.00516 0.995477 0.990097
1.00518 0.995067 0.990345
1.00514 0.996052 0.989545
1.00514 0.99708 0.988537
1.00516 0.995595 0.989883
1.00517 0.99708 0.988522
1.0052 0.998305 0.98728
1.00519 0.997195 0.988281
1.00522 0.998621 0.986858
1.00506 0.999556 0.986185
1.00521 0.998822 0.986663
1.00502 0.999688 0.986131
1.00404 1.00006 0.987457
1.00495 0.999774 0.98615
1.00395 1.00009 0.987608
1.00149 1.00009 0.993117
1.00388 1.00006 0.987762
1.00153 0.999991 0.993197
1.00014 0.999899 0.99538
1.00156 1.00002 0.993191
0.99986 0.999971 0.995619
0.99958 1.00033 0.995658
1.00516 0.997235 0.988343
1.00518 0.998731 0.986759
1.00517 0.997734 0.98772
1.00493 0.999484 0.986639
1.00517 0.998889 0.986679
1.00518 0.998053 0.987338
1.00381 0.999959 0.98796
1.00485 0.999646 0.986493
1.00517 0.998923 0.98646
1.00123 1.00064 0.991778
1.00365 1.00034 0.987848
1.00478 0.999908 0.986197
1.0031 1.00139 0.987817
1.00091 1.00132 0.991686
0.999759 1.00065 0.997797
1.0003 1.00176 0.99227
0.999637 1.00012 0.998017
0.999529 0.999252 0.998469
1.00514 0.996389 0.989147
1.00516 0.996061 0.989357
1.00516 0.995281 0.989978
1.00514 0.996642 0.988823
1.00514 0.997212 0.988435
1.00513 0.996221 0.989485
1.00516 0.995481 0.990084
1.00514 0.996067 0.9896
1.00514 0.997008 0.988592
1.00517 0.998249 0.987433
1.00517 0.997194 0.988291
1.0052 0.998445 0.98711
1.00508 0.999281 0.98644
1.00521 0.998619 0.98686
1.00506 0.999555 0.986194
1.00412 0.999999 0.987369
1.005 0.99969 0.986142
1.00404 1.00006 0.987462
1.00159 1.00014 0.991655
1.00395 1.00008 0.987614
1.00159 1.00006 0.992393
1.00009 0.999943 0.997821
1.00163 0.999968 0.993098
0.999946 0.999889 0.995556
0.999661 1.00003 0.995765
1.00514 0.997085 0.988585
1.00519 0.998454 0.987124
1.00516 0.997324 0.988292
1.00502 0.99927 0.986447
1.00519 0.998727 0.986795
1.00517 0.997574 0.987877
1.00391 0.999779 0.987678
1.00493 0.999489 0.986649
1.00517 0.998955 0.9866
1.00135 1.00015 0.992033
1.00381 0.999915 0.987851
1.00485 0.999544 0.986386
0.999798 1.00057 0.997848
1.00121 1.00066 0.991778
1.00366 1.00032 0.987858
1.00084 1.00138 0.991697
0.999743 1.00051 0.997819
0.999552 0.999959 0.998141
1.00513 0.99716 0.988484
1.00514 0.996401 0.989152
1.00515 0.996076 0.98936
1.00518 0.99823 0.987368
1.00514 0.99714 0.988499
1.00514 0.996207 0.989518
1.00514 0.996931 0.988647
1.00517 0.998233 0.987436
1.00508 0.999175 0.986756
1.0052 0.998588 0.986939
1.00507 0.999389 0.986438
1.00417 0.999836 0.987238
1.00505 0.999548 0.986203
1.00412 0.999994 0.987374
1.00165 1.00013 0.991561
1.00404 1.00006 0.987467
1.0016 1.00014 0.99165
1.00011 0.999976 0.997776
1.00161 1.00004 0.991751
1.00001 0.999934 0.996656
0.999757 0.999857 0.995729
1.00513 0.997404 0.98825
1.00518 0.998321 0.987209
1.00514 0.997065 0.988599
1.00506 0.999293 0.986425
1.00519 0.9985 0.987039
1.00516 0.997414 0.98824
1.00405 0.999673 0.987529
1.00502 0.999364 0.986495
1.00519 0.998723 0.98683
1.00148 0.999902 0.992052
1.00392 0.999779 0.987656
1.00493 0.999494 0.986659
0.999903 1.00029 0.997895
1.00136 1.00013 0.992039
1.00381 0.999874 0.98774
0.999813 1.00052 0.997817
1.00119 1.00067 0.991776
0.999673 1.00045 0.997868
1.00517 0.998094 0.987545
1.00513 0.997202 0.98842
1.00513 0.996415 0.989157
1.00503 0.99904 0.986955
1.00518 0.998163 0.987457
1.00513 0.997075 0.988564
1.00517 0.998218 0.987439
1.00508 0.999177 0.986755
1.00416 0.999717 0.987374
1.00506 0.999499 0.986435
1.00417 0.999882 0.987297
1.00171 1.00006 0.991529
1.00412 0.999985 0.987379
1.00165 1.00013 0.991559
1.00014 1.00001 0.997717
1.0016 1.00014 0.991644
1.00012 0.999988 0.99775
1.00009 0.999888 0.995322
1.00518 0.998276 0.987285
1.00514 0.997262 0.988349
1.00506 0.999209 0.986541
1.00518 0.998327 0.987205
1.00514 0.997043 0.988612
1.00411 0.99971 0.987656
1.00505 0.999297 0.98642
1.00519 0.998545 0.986955
1.00161 0.999862 0.991872
1.00405 0.999725 0.987595
1.00502 0.999462 0.986543
1.00006 1.00005 0.997853
1.00149 0.999894 0.992059
1.00392 0.999773 0.987634
0.999885 1.0003 0.99788
1.00136 1.00013 0.992043
0.999812 1.00049 0.997793
1.005 0.99901 0.987039
1.00517 0.998144 0.987484
1.00513 0.997246 0.988357
1.00408 0.99964 0.987593
1.00503 0.999053 0.986957
1.00518 0.998092 0.987546
1.00507 0.99918 0.986754
1.00417 0.999711 0.987347
1.00171 1.00002 0.991577
1.00416 0.999926 0.987355
1.0017 1.00007 0.99153
1.00018 1.00001 0.997683
1.00166 1.00013 0.991558
1.00015 1.00001 0.997708
1.00014 0.999997 0.997729
1.00504 0.999134 0.986664
1.00518 0.998126 0.987439
1.00514 0.997121 0.988447
1.00409 0.999697 0.987711
1.00504 0.999212 0.986534
1.00518 0.998334 0.987201
1.00166 0.999943 0.991715
1.00411 0.999717 0.98765
1.00504 0.9993 0.986415
1.00016 0.999944 0.997769
1.00161 0.999878 0.991877
1.00406 0.999769 0.987661
1.00001 1.00008 0.997874
1.00148 0.999901 0.992068
0.999891 1.00029 0.997856
1.00403 0.999696 0.987836
1.005 0.998973 0.98697
1.00517 0.998191 0.987423
1.00166 0.999973 0.991726
1.00409 0.999624 0.987565
1.00503 0.999065 0.986958
1.00418 0.999701 0.987322
1.0017 1.00001 0.991586
1.0002 1.00001 0.997656
1.00169 1.00008 0.991531
1.00019 1.00002 0.997668
1.00015 1.00002 0.997698
1.00406 0.999682 0.987799
1.00502 0.999046 0.986737
1.00518 0.997978 0.987593
1.00173 1.00001 0.992871
1.0041 0.999694 0.987709
1.00503 0.999217 0.986527
1.00018 0.999949 0.997708
1.00166 0.999962 0.991717
1.00411 0.999724 0.987644
1.00013 0.999977 0.997801
1.0016 0.999904 0.991882
0.99998 1.0001 0.997888
1.00166 0.999973 0.991746
1.00404 0.999651 0.987756
1.005 0.998935 0.986902
1.00016 0.999999 0.997683
1.00164 0.999973 0.99173
1.00411 0.999611 0.987537
1.00169 1 0.99159
1.00019 1.00001 0.997661
1.0002 1.00002 0.997659
1.00176 0.999987 0.992877
1.00406 0.999677 0.987799
1.00501 0.998956 0.986811
0.999863 0.999987 0.99801
1.00166 1.00001 0.991689
1.00411 0.999689 0.987707
1.00017 0.999961 0.997735
1.00166 0.999982 0.991719
1.00009 0.999997 0.997832
1.00012 0.999998 0.995243
1.00168 0.999971 0.992352
1.00404 0.999608 0.987675
1.00016 0.999998 0.997691
1.00164 0.999973 0.991738
1.0002 1 0.997662
0.999807 1.00001 0.995547
1.00169 0.999987 0.992316
1.00407 0.999674 0.987799
1 0.999987 0.996605
1.00166 1.00001 0.991696
1.00016 0.999973 0.997761
1.00013 0.999994 0.997708
1.0016 0.999972 0.991813
1.00013 0.999997 0.997699
0.99997 0.999994 0.996634
1.00163 0.999989 0.991769
1.00016 0.999975 0.997719
1.00013 0.999989 0.99772
1.00013 0.999986 0.997715

TENSORS stress float
0.00163878 -8.01034e-05 0.000159696
-8.01034e-05 0.000605693 -2.03121e-05
0.000159696 -2.03121e-05 0.000584872
0.00508227 -0.000121276 0.000150526
-0.000121276 0.00263278 1.47387e-05
0.000150526 1.47387e-05 0.00261091
0.00147113 -7.27447e-06 7.66288e-05
-7.27447e-06 0.000518487 -7.53451e-06
7.66288e-05 -7.53451e-06 0.000487979
0.00177103 -4.91049e-05 0.00015958
-4.91049e-05 0.000660058 -1.3187e-05
0.00015958 -1.3187e-05 0.000641673
0.00169922 -7.21999e-05 0.000155855
-7.21999e-05 0.000633804 -1.84923e-05
0.000155855 -1.84923e-05 0.000614039
0.00155301 -7.48853e-05 0.000162983
-7.48853e-05 0.000552398 -1.97723e-05
0.000162983 -1.97723e-05 0.00053309
0.00144707 -4.91838e-05 2.19292e-05
-4.91838e-05 0.00042642 -8.37511e-06
2.19292e-05 -8.37511e-06 0.000349744
0.00491015 -0.000126945 4.00176e-06
-0.000126945 0.00252346 -6.34674e-07
4.00176e-06 -6.34674e-07 0.00250748
0.00516989 9.80817e-06 6.04732e-05
9.80817e-06 0.00263593 3.04161e-06
6.04732e-05 3.04161e-06 0.00262336
0.00493729 -0.000266767 -8.93044e-07
-0.000266767 0.00256599 4.42129e-06
-8.93044e-07 4.42129e-06 0.00252033
0.00163636 4.60135e-05 0.000148632
4.60135e-05 0.000603701 1.2859e-05
0.000148632 1.2859e-05 0.000593199
0.000704486 0.000155603 1.97691e-05
0.000155603 1.33152e-05 1.26121e-05
1.97691e-05 1.26121e-05 -6.80171e-05
0.00163219 -2.89224e-05 0.000172622
-2.89224e-05 0.000573883 2.05704e-06
0.000172622 2.05704e-06 0.000561606
0.00126782 -2.03617e-05 2.42795e-05
-2.03617e-05 0.00038287 1.1651e-06
2.42795e-05 1.1651e-06 0.000347704
0.0013762 9.15034e-06 -2.1559e-05
9.15034e-06 0.000463257 4.4745e-06
-2.1559e-05 4.4745e-06 0.000429561
0.00151114 -5.01058e-05 5.90265e-05
-5.01058e-05 0.000520559 -3.36957e-06
5.90265e-05 -3.36957e-06 0.000494343
0.00146785 1.21083e-05 8.34703e-05
1.21083e-05 0.000523447 -6.9142e-06
8.34703e-05 -6.9142e-06 0.000488049
0.00148296 -2.66292e-05 6.79551e-05
-2.66292e-05 0.000513108 -7.09441e-06
6.79551e-05 -7.09441e-06 0.000487697
0.00150761 -9.33384e-05 -2.88256e-05
-9.33384e-05 0.000449591 2.55266e-06
-2.88256e-05 2.55266e-06 0.000381856
0.00527822 -0.000105041 0.000196165
-0.000105041 0.00270436 -5.04752e-06
0.000196165 -5.04752e-06 0.00270401
0.00175652 -3.29447e-05 0.000162998
-3.29447e-05 0.000648284 -9.94863e-06
0.000162998 -9.94863e-06 0.000630194
0.00176151 -6.27285e-05 0.000156996
-6.27285e-05 0.000660547 -1.60523e-05
0.000156996 -1.60523e-05 0.000641926
0.00147119 -8.82342e-05 4.15268e-05
-8.82342e-05 0.000407091 -6.26167e-06
4.15268e-05 -6.26167e-06 0.000338971
0.00145661 -6.69292e-05 3.05876e-05
-6.69292e-05 0.000412245 -7.46197e-06
3.05876e-05 -7.46197e-06 0.00034335
0.00133146 -4.37566e-05 0.000145709
-4.37566e-05 0.000421942 -1.61704e-05
0.000145709 -1.61704e-05 0.000406363
0.00140515 -3.17814e-05 1.49811e-05
-3.17814e-05 0.000422555 -9.4538e-06
1.49811e-05 -9.4538e-06 0.000336323
0.00201274 -0.000199918 1.23428e-05
-0.000199918 0.000608107 -4.88939e-06
1.23428e-05 -4.88939e-06 0.000479841
0.0047434 -0.000170751 -0.000124738
-0.000170751 0.00243548 -8.70145e-06
-0.000124738 -8.70145e-06 0.00241382
0.00333209 3.77184e-05 -9.1946e-05
3.77184e-05 0.00157911 -6.2525e-06
-9.1946e-05 -6.2525e-06 0.00156088
0.00320416 -7.85274e-05 -8.55155e-05
-7.85274e-05 0.00153583 -2.70129e-06
-8.55155e-05 -2.70129e-06 0.00150648
0.00446582 -0.000153356 9.20886e-06
-0.000153356 0.00226992 -8.58742e-07
9.20886e-06 -8.58742e-07 0.00225347
0.000623825 0.000143084 -1.46728e-06
0.000143084 -3.17658e-05 -5.15376e-07
-1.46728e-06 -5.15376e-07 -0.000110564
0.00154364 4.98357e-05 0.000162845
4.98357e-05 0.000533425 1.17998e-05
0.000162845 1.17998e-05 0.000515737
0.00172057 0.000112109 0.000164821
0.000112109 0.000652258 1.70502e-05
0.000164821 1.70502e-05 0.000632239
0.00254476 0.000157143 0.000100552
0.000157143 0.00103214 1.21795e-05
0.000100552 1.21795e-05 0.000972749
0.00352863 -0.000204385 8.72411e-06
-0.000204385 0.00173688 2.71115e-06
8.72411e-06 2.71115e-06 0.00171047
0.00259377 0.00018047 9.84226e-05
0.00018047 0.00108712 1.35044e-05
9.84226e-05 1.35044e-05 0.00102366
0.000683355 0.000107426 2.00515e-05
0.000107426 9.91043e-06 1.55254e-05
2.00515e-05 1.55254e-05 -6.04379e-05
0.000937399 0.000161172 8.6419e-06
0.000161172 7.2937e-05 4.43149e-06
8.6419e-06 4.43149e-06 -7.16592e-05
0.00288342 -0.00010292 7.85353e-05
-0.00010292 0.00133907 2.8165e-06
7.85353e-05 2.8165e-06 0.00134223
0.00533287 5.65204e-05 3.89144e-06
5.65204e-05 0.00272548 -1.11184e-06
3.89144e-06 -1.11184e-06 0.00273051
0.00333146 4.2489e-05 -7.52396e-05
4.2489e-05 0.0015709 -2.51979e-06
-7.52396e-05 -2.51979e-06 0.00155545
0.005272 5.67612e-05 0.000194019
5.67612e-05 0.00269261 1.71639e-06
0.000194019 1.71639e-06 0.00269722
0.00130071 4.71837e-05 2.71741e-05
4.71837e-05 0.000399904 1.58797e-06
2.71741e-05 1.58797e-06 0.00036743
0.000706809 5.45872e-06 1.61392e-05
5.45872e-06 -6.28043e-05 1.6973e-06
1.61392e-05 1.6973e-06 -0.000131024
0.00508559 0.000169345 9.16161e-05
0.000169345 0.0026045 7.59366e-06
9.16161e-05 7.59366e-06 0.00258402
0.00262642 4.57036e-05 0.000100135
4.57036e-05 0.00104713 5.74119e-06
0.000100135 5.74119e-06 0.000997697
0.0011876 -7.49796e-05 -3.84959e-05
-7.49796e-05 0.000349304 5.02141e-06
-3.84959e-05 5.02141e-06 0.000312039
0.00127939 -4.08559e-05 -3.30849e-05
-4.08559e-05 0.000402549 4.8668e-06
-3.30849e-05 4.8668e-06 0.000370612
0.00145699 7.15307e-05 -9.07158e-06
7.15307e-05 0.000524682 5.50117e-06
-9.07158e-06 5.50117e-06 0.000481037
0.00152353 -0.00010844 -8.63711e-05
-0.00010844 0.000451516 1.26176e-05
-8.63711e-05 1.26176e-05 0.000389577
0.00334854 1.73296e-05 -8.04186e-05
1.73296e-05 0.00158743 -1.41808e-06
-8.04186e-05 -1.41808e-06 0.00156889
0.00151258 -3.77552e-05 6.63821e-05
-3.77552e-05 0.000517404 -2.77197e-06
6.63821e-05 -2.77197e-06 0.000491578
0.0013339 2.81807e-05 7.6998e-05
2.81807e-05 0.000447027 -5.2219e-06
7.6998e-05 -5.2219e-06 0.00041458
0.00150639 -4.08317e-05 6.20662e-05
-4.08317e-05 0.000518331 -5.42825e-06
6.20662e-05 -5.42825e-06 0.000494257
0.0015185 -7.83592e-05 -2.31158e-05
-7.83592e-05 0.000429362 8.41161e-07
-2.31158e-05 8.41161e-07 0.000366319
0.0014881 -7.97118e-05 -3.34798e-05
-7.97118e-05 0.000454524 2.13756e-06
-3.34798e-05 2.13756e-06 0.000380052
0.00151243 -9.49413e-05 -2.41811e-05
-9.49413e-05 0.000440396 1.85442e-06
-2.41811e-05 1.85442e-06 0.000376322
0.00200345 -0.000197775 -5.91427e-06
-0.000197775 0.000601577 1.62214e-06
-5.91427e-06 1.62214e-06 0.000473685
0.00522153 5.04406e-05 0.000186753
5.04406e-05 0.00266476 -7.43622e-08
0.000186753 -7.43622e-08 0.00266946
0.00174834 -1.63714e-05 0.000164939
-1.63714e-05 0.000644067 -6.73591e-06
0.000164939 -6.73591e-06 0.000626946
0.00237595 3.34792e-05 2.63689e-05
3.34792e-05 0.000918419 -9.9026e-07
2.63689e-05 -9.9026e-07 0.0008608
0.00147762 -7.23344e-05 3.5393e-05
-7.23344e-05 0.000403045 -4.45187e-06
3.5393e-05 -4.45187e-06 0.000336467
0.00147231 -8.00051e-05 3.75155e-05
-8.00051e-05 0.000410252 -6.80676e-06
3.75155e-05 -6.80676e-06 0.00034363
0.0019473 -0.000121744 1.08695e-05
-0.000121744 0.000522888 -2.54018e-06
1.08695e-05 -2.54018e-06 0.000409491
0.00159614 -0.000157283 1.4256e-05
-0.000157283 0.000346784 -4.89644e-06
1.4256e-05 -4.89644e-06 0.000223968
0.00109871 8.76057e-06 0.000106683
8.76057e-06 0.000292098 -1.16368e-05
0.000106683 -1.16368e-05 0.00027859
0.00105166 7.76708e-06 9.03722e-06
7.76708e-06 0.000250207 -9.11988e-06
9.03722e-06 -9.11988e-06 0.000170768
0.00196306 -0.000213258 1.14089e-05
-0.000213258 0.00060916 -5.15145e-06
1.14089e-05 -5.15145e-06 0.000471313
0.00121804 -0.000180787 7.69547e-06
-0.000180787 6.17319e-05 -2.10399e-06
7.69547e-06 -2.10399e-06 -9.44315e-05
0.00537488 9.20928e-05 -0.000195619
9.20928e-05 0.00275239 -1.39991e-05
-0.000195619 -1.39991e-05 0.00275378
0.00416807 -0.000170125 -0.000105095
-0.000170125 0.00210032 -5.58327e-06
-0.000105095 -5.58327e-06 0.00208313
0.00508469 -9.85886e-05 -0.000154982
-9.85886e-05 0.00261168 -9.84401e-06
-0.000154982 -9.84401e-06 0.00260212
0.000524304 0.000141931 -1.98771e-05
0.000141931 -8.73753e-05 -1.28556e-05
-1.98771e-05 -1.28556e-05 -0.000164389
0.00540924 0.000128008 -2.8323e-06
0.000128008 0.00277039 -1.6126e-06
-2.8323e-06 -1.6126e-06 0.00277071
0.00539776 1.83513e-05 -8.42934e-06
1.83513e-05 0.00277495 -5.45725e-07
-8.42934e-06 -5.45725e-07 0.00277212
0.000565427 0.000114115 -3.29519e-07
0.000114115 -0.000109733 -2.14143e-07
-3.29519e-07 -2.14143e-07 -0.000187201
0.00235081 -0.000111239 -4.62434e-05
-0.000111239 0.00104096 -5.63544e-07
-4.62434e-05 -5.63544e-07 0.00102207
0.000565726 0.000159692 -9.77621e-07
0.000159692 -7.95233e-05 -2.56273e-07
-9.77621e-07 -2.56273e-07 -0.000160775
0.00139029 8.39519e-05 3.0328e-05
8.39519e-05 0.000429343 4.33552e-07
3.0328e-05 4.33552e-07 0.0003682
0.000900931 0.000154974 4.51202e-07
0.000154974 4.93352e-05 -4.3576e-07
4.51202e-07 -4.3576e-07 -9.4073e-05
0.00335305 -0.000104912 0.000102253
-0.000104912 0.00161059 4.34712e-06
0.000102253 4.34712e-06 0.00161195
0.000606961 -5.73426e-05 8.69424e-07
-5.73426e-05 1.41147e-05 6.90148e-06
8.69424e-07 6.90148e-06 -2.27268e-05
0.000681106 8.35147e-05 1.71186e-05
8.35147e-05 -6.24272e-05 8.05786e-06
1.71186e-05 8.05786e-06 -0.000136234
0.000709899 0.000135066 2.17099e-05
0.000135066 -1.4782e-05 1.33592e-05
2.17099e-05 1.33592e-05 -9.64568e-05
0.00101214 0.000132151 1.25782e-05
0.000132151 -3.78365e-06 4.95142e-06
1.25782e-05 4.95142e-06 -0.000135138
0.00212298 1.83088e-05 6.22473e-05
1.83088e-05 0.000867734 7.85533e-06
6.22473e-05 7.85533e-06 0.000824767
0.000965649 0.00015821 1.03363e-05
0.00015821 3.43708e-05 5.29091e-06
1.03363e-05 5.29091e-06 -0.000105115
0.000952401 0.000155815 7.40652e-06
0.000155815 0.000147867 5.1364e-06
7.40652e-06 5.1364e-06 4.32265e-06
0.000940525 0.000191226 3.82925e-06
0.000191226 1.57747e-05 3.72055e-07
3.82925e-06 3.72055e-07 -0.000163025
0.00255897 -0.000110935 4.35587e-05
-0.000110935 0.00114945 2.39852e-06
4.35587e-05 2.39852e-06 0.00115075
0.00275205 -0.000123515 7.12852e-06
-0.000123515 0.00126722 -4.1682e-07
7.12852e-06 -4.1682e-07 0.00126502
0.00539499 7.47618e-06 -0.000189716
7.47618e-06 0.00275766 -7.57193e-06
-0.000189716 -7.57193e-06 0.00276129
0.00536187 4.80404e-05 -0.000197187
4.80404e-05 0.0027405 -4.14251e-06
-0.000197187 -4.14251e-06 0.00274612
0.00532018 7.88607e-05 -1.24499e-07
7.88607e-05 0.00272659 -2.0056e-06
-1.24499e-07 -2.0056e-06 0.00272706
0.00332244 3.79195e-06 -9.00112e-05
3.79195e-06 0.00156409 -2.88701e-06
-9.00112e-05 -2.88701e-06 0.00155102
0.00165075 2.61483e-05 4.26114e-05
2.61483e-05 0.000483777 6.93784e-07
4.26114e-05 6.93784e-07 0.00042573
0.00337615 8.60796e-05 -7.62224e-05
8.60796e-05 0.00159843 -3.62756e-06
-7.62224e-05 -3.62756e-06 0.00158102
0.00167621 6.34535e-05 4.13442e-05
6.34535e-05 0.000502627 1.36444e-06
4.13442e-05 1.36444e-06 0.00044143
0.00529267 0.000142113 0.000196988
0.000142113 0.00272102 4.39568e-06
0.000196988 4.39568e-06 0.00271515
0.000637836 6.39534e-06 1.76255e-05
6.39534e-06 -0.000100144 4.13589e-07
1.76255e-05 4.13589e-07 -0.000167239
0.00264881 1.53368e-05 0.000100924
1.53368e-05 0.00105835 3.74633e-06
0.000100924 3.74633e-06 0.00101064
0.00105908 3.05353e-05 1.20286e-05
3.05353e-05 -1.30137e-05 1.23079e-06
1.20286e-05 1.23079e-06 -0.00012826
0.00254431 8.78979e-05 0.000100755
8.78979e-05 0.00100869 7.139e-06
0.000100755 7.139e-06 0.000956598
0.00106974 7.25475e-05 1.17788e-05
7.25475e-05 6.83407e-07 2.43182e-06
1.17788e-05 2.43182e-06 -0.000120663
0.00163543 3.54671e-05 -0.000170308
3.54671e-05 0.000578357 1.2545e-06
-0.000170308 1.2545e-06 0.000566175
0.00125228 8.15867e-06 -2.48119e-05
8.15867e-06 0.000376668 1.60499e-06
-2.48119e-05 1.60499e-06 0.000342906
0.00134025 0.000132327 3.65127e-06
0.000132327 0.000485088 7.38314e-06
3.65127e-06 7.38314e-06 0.000428601
0.00121584 -6.09285e-05 -3.96784e-05
-6.09285e-05 0.00036355 5.18881e-06
-3.96784e-05 5.18881e-06 0.000330059
0.00162743 -5.76556e-05 -8.61539e-05
-5.76556e-05 0.000484944 7.01703e-06
-8.61539e-05 7.01703e-06 0.00042836
0.00156761 -9.31095e-05 -8.49218e-05
-9.31095e-05 0.000466635 1.12529e-05
-8.49218e-05 1.12529e-05 0.000407732
0.00151064 -0.000112601 -8.80065e-05
-0.000112601 0.000457408 1.31053e-05
-8.80065e-05 1.31053e-05 0.000390986
0.0019968 -0.000196143 -2.33413e-05
-0.000196143 0.000597135 7.68837e-06
-2.33413e-05 7.68837e-06 0.000469559
0.00528833 -8.18609e-05 2.07469e-06
-8.18609e-05 0.00270921 -1.27171e-06
2.07469e-06 -1.27171e-06 0.00270933
0.00148752 4.43822e-05 7.54797e-05
4.43822e-05 0.000502277 -2.24405e-06
7.54797e-05 -2.24405e-06 0.000477632
0.00112786 1.78833e-06 -4.52059e-05
1.78833e-06 0.000187069 7.34762e-07
-4.52059e-05 7.34762e-07 0.000127687
0.00154051 -4.27909e-05 -2.74265e-05
-4.27909e-05 0.000434606 1.1915e-06
-2.74265e-05 1.1915e-06 0.00037299
0.00259194 5.95477e-05 0.000109594
5.95477e-05 0.00117332 -1.43539e-06
0.000109594 -1.43539e-06 0.00116262
0.00174652 -4.14043e-05 -2.87945e-05
-4.14043e-05 0.000637417 -7.39089e-07
-2.87945e-05 -7.39089e-07 0.000564671
0.00152275 -8.81465e-05 -2.23114e-05
-8.81465e-05 0.000436917 1.29105e-06
-2.23114e-05 1.29105e-06 0.000374227
0.00179394 -0.000113763 -7.88185e-06
-0.000113763 0.000433146 1.36351e-06
-7.88185e-06 1.36351e-06 0.000318861
0.00197723 -0.000214452 -4.88525e-06
-0.000214452 0.000618401 1.41684e-06
-4.88525e-06 1.41684e-06 0.000480131
0.00181947 -0.000166248 -3.28907e-06
-0.000166248 0.000475297 7.46103e-07
-3.28907e-06 7.46103e-07 0.000353145
0.00125192 -0.000182513 2.66092e-07
-0.000182513 8.04365e-05 -5.05006e-08
2.66092e-07 -5.05006e-08 -7.57452e-05
0.000669953 1.11071e-05 1.79923e-05
1.11071e-05 -8.1941e-05 -1.19661e-06
1.79923e-05 -1.19661e-06 -0.000146532
0.00145946 1.74177e-05 2.68305e-05
1.74177e-05 0.000388071 -2.45819e-06
2.68305e-05 -2.45819e-06 0.000324183
0.00161168 -2.67532e-05 1.23848e-05
-2.67532e-05 0.000310811 -1.03425e-06
1.23848e-05 -1.03425e-06 0.000203913
0.00161352 -8.90586e-05 1.219e-05
-8.90586e-05 0.000322652 -2.1832e-06
1.219e-05 -2.1832e-06 0.000209164
0.00156716 -0.000132401 1.34391e-05
-0.000132401 0.000313543 -3.76983e-06
1.34391e-05 -3.76983e-06 0.000195159
0.00173137 -0.000134266 2.79535e-06
-0.000134266 0.000293903 -6.75034e-07
2.79535e-06 -6.75034e-07 0.000157121
0.00368932 0.00014316 9.52063e-05
0.00014316 0.00181363 -3.40474e-06
9.52063e-05 -3.40474e-06 0.00180487
0.00128642 -0.000165702 6.78299e-06
-0.000165702 7.97827e-05 -1.87992e-06
6.78299e-06 -1.87992e-06 -7.00204e-05
0.000414908 -3.48982e-05 9.01804e-06
-3.48982e-05 -0.000119716 -1.06124e-05
9.01804e-06 -1.06124e-05 -0.000178147
0.000771497 -0.000148071 7.06243e-06
-0.000148071 -8.28032e-06 -6.21009e-06
7.06243e-06 -6.21009e-06 -0.000149998
0.00128101 -0.000206375 8.67263e-06
-0.000206375 0.000126609 -1.79727e-06
8.67263e-06 -1.79727e-06 -4.11214e-05
0.00145758 -0.000214694 4.47791e-06
-0.000214694 0.000129983 2.16147e-07
4.47791e-06 2.16147e-07 -3.91638e-05
0.00047056 1.19135e-05 4.72103e-06
1.19135e-05 -7.71856e-05 -8.8287e-06
4.72103e-06 -8.8287e-06 -0.000123231
0.000660173 -1.06667e-05 1.30775e-06
-1.06667e-05 2.61047e-05 -4.11172e-06
1.30775e-06 -4.11172e-06 -6.91499e-05
0.00541303 0.000139018 -0.00020662
0.000139018 0.00277542 -1.48459e-05
-0.00020662 -1.48459e-05 0.00277463
0.00526013 5.69124e-07 -0.000177004
5.69124e-07 0.0026946 -1.17591e-05
-0.000177004 -1.17591e-05 0.00269451
0.000560654 0.000105931 -1.72934e-05
0.000105931 -0.000113619 -9.30464e-06
-1.72934e-05 -9.30464e-06 -0.000190983
0.00358198 -0.000146551 -9.00547e-05
-0.000146551 0.00175356 -3.25803e-06
-9.00547e-05 -3.25803e-06 0.00174484
0.000451395 6.99674e-05 -1.19173e-05
6.99674e-05 -0.000111148 -1.17812e-05
-1.19173e-05 -1.17812e-05 -0.000174286
0.000514578 0.000145992 -1.92526e-05
0.000145992 -0.000104463 -1.21838e-05
-1.92526e-05 -1.21838e-05 -0.000186913
0.000886676 0.00015149 -8.9629e-06
0.00015149 3.86293e-05 -5.57578e-06
-8.9629e-06 -5.57578e-06 -0.000103977
0.00319686 -0.000121094 5.72645e-06
-0.000121094 0.00152502 -2.94516e-07
5.72645e-06 -2.94516e-07 0.00152315
0.000541606 -6.42819e-05 3.3336e-07
-6.42819e-05 -2.15579e-05 3.21224e-07
3.3336e-07 3.21224e-07 -5.86788e-05
0.001625 0.000106073 4.08897e-05
0.000106073 0.00048571 2.27695e-06
4.08897e-05 2.27695e-06 0.000420349
0.00155657 0.000149688 3.89695e-05
0.000149688 0.000477079 1.91616e-06
3.89695e-05 1.91616e-06 0.000404895
0.00102317 0.000134753 1.60773e-07
0.000134753 3.84453e-06 -1.31953e-07
1.60773e-07 -1.31953e-07 -0.000128194
0.000622564 1.82786e-05 -6.09931e-07
1.82786e-05 2.08225e-06 1.27984e-07
-6.09931e-07 1.27984e-07 -4.93805e-05
0.000963065 0.000158108 5.10083e-07
0.000158108 3.35465e-05 2.15947e-07
5.10083e-07 2.15947e-07 -0.000105992
0.000853342 0.000141748 2.74807e-07
0.000141748 8.92499e-05 -4.9677e-07
2.74807e-07 -4.9677e-07 -5.17715e-05
0.000999652 0.000196478 -1.38265e-08
0.000196478 4.76465e-05 6.37738e-08
-1.38265e-08 6.37738e-08 -0.000131773
0.00064014 -1.55755e-05 6.20935e-06
-1.55755e-05 2.46095e-05 8.09701e-06
6.20935e-06 8.09701e-06 -1.86698e-05
0.000606414 -6.87288e-05 -1.41083e-06
-6.87288e-05 8.97006e-06 5.7541e-06
-1.41083e-06 5.7541e-06 -2.13155e-05
0.000702765 2.88233e-05 2.62539e-06
2.88233e-05 6.2237e-05 3.89235e-06
2.62539e-06 3.89235e-06 -2.73014e-05
0.00104664 0.000112234 1.22956e-05
0.000112234 1.31848e-06 4.05741e-06
1.22956e-05 4.05741e-06 -0.000126415
0.000986702 0.000149343 1.19568e-05
0.000149343 9.67355e-06 5.34594e-06
1.19568e-05 5.34594e-06 -0.000126013
0.00133352 0.000176579 6.63192e-06
0.000176579 8.97366e-05 1.78787e-06
6.63192e-06 1.78787e-06 -6.88868e-05
0.000920514 0.000130686 5.76834e-06
0.000130686 0.00016936 5.2372e-06
5.76834e-06 5.2372e-06 3.97426e-05
0.00087812 0.000179092 4.49909e-06
0.000179092 -9.22655e-05 1.71267e-06
4.49909e-06 1.71267e-06 -0.000258696
0.000948231 0.000189716 3.3702e-06
0.000189716 0.000105298 1.26698e-06
3.3702e-06 1.26698e-06 -8.21204e-05
0.00132478 0.000236921 -1.89975e-07
0.000236921 0.000188271 -1.13359e-07
-1.89975e-07 -1.13359e-07 2.92112e-07
0.0023886 -9.90939e-05 3.39529e-05
-9.90939e-05 0.00104379 2.85309e-06
3.39529e-05 2.85309e-06 0.00104809
0.00247147 -0.00011079 3.08022e-06
-0.00011079 0.00109937 -3.05431e-07
3.08022e-06 -3.05431e-07 0.00110041
0.00261484 -0.000124688 -4.10306e-05
-0.000124688 0.00118962 -2.39379e-06
-4.10306e-05 -2.39379e-06 0.00118666
0.000483303 2.44827e-05 3.37842e-06
2.44827e-05 -6.77374e-05 -7.64428e-06
3.37842e-06 -7.64428e-06 -0.000108486
0.00341154 0.000130966 8.18756e-05
0.000130966 0.00164805 -3.11056e-06
8.18756e-05 -3.11056e-06 0.00164279
0.00541826 0.000150348 -0.000209479
0.000150348 0.00278107 -1.37631e-05
-0.000209479 -1.37631e-05 0.00277881
0.00534579 4.34397e-05 -0.000192897
4.34397e-05 0.00272944 -5.92382e-06
-0.000192897 -5.92382e-06 0.00273493
0.000663785 7.35617e-05 -1.83635e-05
7.35617e-05 -8.04982e-05 -4.382e-06
-1.83635e-05 -4.382e-06 -0.000151198
0.000646544 3.20153e-05 -1.82987e-05
3.20153e-05 -9.26762e-05 -2.0873e-06
-1.82987e-05 -2.0873e-06 -0.000161761
0.00527449 -2.77175e-05 -0.000188499
-2.77175e-05 0.00269193 -9.02355e-07
-0.000188499 -9.02355e-07 0.00269788
0.00525745 1.74006e-05 -6.5649e-07
1.74006e-05 0.00268323 6.51468e-10
-6.5649e-07 6.51468e-10 0.00268871
0.000627152 -5.3038e-07 -1.32664e-07
-5.3038e-07 -0.000107443 -1.53392e-07
-1.32664e-07 -1.53392e-07 -0.000173593
0.00163745 2.5592e-05 4.23415e-05
2.5592e-05 0.000476443 1.20024e-06
4.23415e-05 1.20024e-06 0.000418172
0.00106451 3.46893e-05 8.66891e-08
3.46893e-05 -9.82657e-06 -1.03227e-07
8.66891e-08 -1.03227e-07 -0.000125306
0.000637652 6.47508e-05 -3.18999e-07
6.47508e-05 -9.11028e-05 -2.22996e-07
-3.18999e-07 -2.22996e-07 -0.000163041
0.00106358 7.50542e-05 -4.07064e-08
7.50542e-05 -2.49343e-06 -1.74404e-07
-4.07064e-08 -1.74404e-07 -0.000124285
0.000616422 -2.21383e-05 1.79577e-05
-2.21383e-05 -0.000114622 -6.50669e-07
1.79577e-05 -6.50669e-07 -0.000179167
0.00106048 1.34743e-05 1.18777e-05
1.34743e-05 -1.33647e-05 4.60438e-07
1.18777e-05 4.60438e-07 -0.000127013
0.00105677 5.19911e-05 1.19416e-05
5.19911e-05 -1.13736e-05 1.78349e-06
1.19416e-05 1.78349e-06 -0.000129394
0.00141032 4.7696e-05 3.65331e-06
4.7696e-05 6.38337e-05 2.88524e-07
3.65331e-06 2.88524e-07 -6.33143e-05
0.00106414 9.15816e-05 1.18736e-05
9.15816e-05 2.97888e-06 3.20002e-06
1.18736e-05 3.20002e-06 -0.000121474
0.00141144 9.86032e-05 3.7885e-06
9.86032e-05 8.14179e-05 5.00812e-07
3.7885e-06 5.00812e-07 -5.61304e-05
0.00524964 -4.42195e-05 -0.0001955
-4.42195e-05 0.0026812 -9.74612e-08
-0.0001955 -9.74612e-08 0.00268518
0.0012623 -0.00010853 -2.65715e-05
-0.00010853 0.000387403 2.83421e-06
-2.65715e-05 2.83421e-06 0.00035131
-0.000215478 -9.39701e-07 -1.32855e-05
-9.39701e-07 -0.00058817 2.07819e-06
-1.32855e-05 2.07819e-06 -0.000663542
0.00161908 -3.94447e-05 -8.72863e-05
-3.94447e-05 0.000475624 5.15936e-06
-8.72863e-05 5.15936e-06 0.000418944
0.0039202 0.00024719 -5.37585e-06
0.00024719 0.00198287 3.44456e-06
-5.37585e-06 3.44456e-06 0.001943
0.00244176 -0.000129116 -8.22232e-05
-0.000129116 0.00101766 1.24895e-05
-8.22232e-05 1.24895e-05 0.000956095
0.00161017 -7.6286e-05 -8.52763e-05
-7.6286e-05 0.000481166 9.18229e-06
-8.52763e-05 9.18229e-06 0.000424148
0.00161441 -0.0001051 -2.46158e-05
-0.0001051 0.000328111 4.69806e-06
-2.46158e-05 4.69806e-06 0.000213112
0.00203063 -0.000174683 -2.20019e-05
-0.000174683 0.00059702 6.5909e-06
-2.20019e-05 6.5909e-06 0.000475682
0.00203174 -0.000218088 -2.10602e-05
-0.000218088 0.000651266 7.75864e-06
-2.10602e-05 7.75864e-06 0.000512203
0.00129395 -0.000184808 -6.67746e-06
-0.000184808 0.000103765 1.80154e-06
-6.67746e-06 1.80154e-06 -5.25084e-05
0.000621785 8.42106e-06 -2.50494e-08
8.42106e-06 -0.000108318 -4.78588e-08
-2.50494e-08 -4.78588e-08 -0.000173577
0.00156014 -5.42089e-05 -2.74686e-05
-5.42089e-05 0.000443987 3.02308e-07
-2.74686e-05 3.02308e-07 0.000383316
0.00117933 -2.2903e-05 -5.88724e-06
-2.2903e-05 6.17699e-05 2.76043e-07
-5.88724e-06 2.76043e-07 -4.91655e-05
0.00182067 -9.14419e-05 -4.25749e-06
-9.14419e-05 0.000439946 6.16874e-07
-4.25749e-06 6.16874e-07 0.000328033
0.00376316 0.000134986 -3.44477e-06
0.000134986 0.00185516 -5.23381e-07
-3.44477e-06 -5.23381e-07 0.00184777
0.0013703 -3.8848e-05 2.61426e-07
-3.8848e-05 0.000433234 5.16565e-07
2.61426e-07 5.16565e-07 0.000368961
0.0013073 -0.000177541 5.35453e-07
-0.000177541 0.000303869 -1.27987e-06
5.35453e-07 -1.27987e-06 0.000161884
0.0015925 -0.000131902 -4.59075e-06
-0.000131902 0.000327819 9.60681e-07
-4.59075e-06 9.60681e-07 0.000209464
0.00149224 -0.000126596 -2.58188e-06
-0.000126596 0.000154641 5.73339e-07
-2.58188e-06 5.73339e-07 1.7379e-05
0.0011456 -0.000197106 2.13862e-07
-0.000197106 4.76408e-05 1.21908e-07
2.13862e-07 1.21908e-07 -0.000120424
0.0015206 -0.000175529 2.68717e-07
-0.000175529 0.000213186 -1.72061e-07
2.68717e-07 -1.72061e-07 6.43246e-05
0.00142681 -0.000212028 4.42412e-07
-0.000212028 0.000114888 -7.76422e-08
4.42412e-07 -7.76422e-08 -5.3474e-05
0.000527688 6.44683e-06 -6.99726e-07
6.44683e-06 -4.58923e-05 1.12236e-07
-6.99726e-07 1.12236e-07 -9.21054e-05
0.000663378 -2.60262e-05 -5.04146e-07
-2.60262e-05 2.7234e-05 -3.06614e-08
-5.04146e-07 -3.06614e-08 -6.94604e-05
0.00105298 -1.1175e-05 1.17509e-05
-1.1175e-05 -1.43382e-05 -9.26401e-07
1.17509e-05 -9.26401e-07 -0.000126776
0.00162856 -5.28953e-05 1.19041e-05
-5.28953e-05 0.000323248 -1.50709e-06
1.19041e-05 -1.50709e-06 0.000213767
0.00170546 -3.83678e-05 2.43572e-06
-3.83678e-05 0.000247723 -1.01052e-07
2.43572e-06 -1.01052e-07 0.000125441
0.00132767 -9.8287e-05 4.56958e-06
-9.8287e-05 4.76084e-05 -5.51101e-07
4.56958e-06 -5.51101e-07 -8.55987e-05
0.00162206 -0.000161298 4.7188e-06
-0.000161298 0.000251744 -9.429e-07
4.7188e-06 -9.429e-07 0.000109733
0.00166331 -0.000150979 -3.87487e-07
-0.000150979 0.000162899 6.10008e-07
-3.87487e-07 6.10008e-07 2.81476e-05
0.000423577 -1.34533e-05 7.255e-06
-1.34533e-05 -0.000109219 -9.62399e-06
7.255e-06 -9.62399e-06 -0.000160387
0.0014615 -0.000196022 2.67804e-06
-0.000196022 0.000105644 5.61467e-07
2.67804e-06 5.61467e-07 -5.02225e-05
0.0006307 -0.000116687 4.25675e-06
-0.000116687 -2.03686e-05 -4.75469e-06
4.25675e-06 -4.75469e-06 -0.000151879
0.00090361 -0.000194755 7.59034e-06
-0.000194755 -1.61128e-05 -4.6461e-06
7.59034e-06 -4.6461e-06 -0.000198198
0.00182959 -0.000262987 3.80288e-06
-0.000262987 0.000375767 2.83218e-07
3.80288e-06 2.83218e-07 0.000189011
0.00175943 -0.000246749 -5.01192e-07
-0.000246749 0.000244899 3.15001e-06
-5.01192e-07 3.15001e-06 8.0376e-05
0.00073663 -6.4839e-05 3.0095e-06
-6.4839e-05 6.88814e-05 -3.78018e-06
3.0095e-06 -3.78018e-06 -4.14612e-05
0.000600699 -2.7527e-06 1.09039e-06
-2.7527e-06 -2.87415e-06 -3.49195e-06
1.09039e-06 -3.49195e-06 -8.78829e-05
0.00093148 -0.000109433 1.11562e-06
-0.000109433 0.000189176 -7.49776e-07
1.11562e-06 -7.49776e-07 4.83469e-05
0.000598937 8.50119e-05 -1.67569e-05
8.50119e-05 -0.000105208 -7.19792e-06
-1.67569e-05 -7.19792e-06 -0.000179356
0.00304153 -0.000140579 -5.91992e-05
-0.000140579 0.00143965 -2.10992e-06
-5.91992e-05 -2.10992e-06 0.00143291
0.000467929 -7.365e-05 2.0143e-06
-7.365e-05 -5.987e-05 -6.51886e-06
2.0143e-06 -6.51886e-06 -9.87045e-05
0.000523545 0.000129535 -1.81764e-05
0.000129535 -0.000115959 -1.1283e-05
-1.81764e-05 -1.1283e-05 -0.000196852
0.00103034 0.000137406 -1.29866e-05
0.000137406 9.26971e-06 -5.19328e-06
-1.29866e-05 -5.19328e-06 -0.000123464
0.000423902 9.75028e-06 -7.3645e-06
9.75028e-06 -0.000109184 -9.74865e-06
-7.3645e-06 -9.74865e-06 -0.000159744
0.000714714 0.00012554 -5.55949e-06
0.00012554 8.5832e-06 -5.83176e-06
-5.55949e-06 -5.83176e-06 -0.000129648
0.000954016 0.000157312 -1.00929e-05
0.000157312 2.91121e-05 -5.03698e-06
-1.00929e-05 -5.03698e-06 -0.000110374
0.000993518 0.000196652 -5.56751e-06
0.000196652 4.20847e-05 -1.70316e-06
-5.56751e-06 -1.70316e-06 -0.000137178
0.000539184 -2.63284e-05 1.40156e-06
-2.63284e-05 -3.1535e-05 3.56562e-07
1.40156e-06 3.56562e-07 -7.43834e-05
0.000559526 -7.1498e-05 -3.0133e-07
-7.1498e-05 -1.74388e-05 2.12741e-07
-3.0133e-07 2.12741e-07 -4.80142e-05
0.00063942 -9.51251e-06 4.84864e-07
-9.51251e-06 2.11669e-05 3.7163e-07
4.84864e-07 3.7163e-07 -6.18482e-05
0.00104635 0.000114445 6.72313e-08
0.000114445 2.2082e-06 -2.37892e-07
6.72313e-08 -2.37892e-07 -0.000126198
0.00100041 0.000151426 3.82605e-07
0.000151426 1.8419e-05 -2.01652e-07
3.82605e-07 -2.01652e-07 -0.000117686
0.001313 0.000174998 2.03702e-07
0.000174998 8.13896e-05 3.70295e-08
2.03702e-07 3.70295e-08 -7.7202e-05
0.000792294 0.000115195 -2.21187e-07
0.000115195 9.763e-05 2.44264e-07
-2.21187e-07 2.44264e-07 -2.97508e-05
0.00108667 0.000193265 -3.73315e-07
0.000193265 2.86526e-05 -2.54262e-07
-3.73315e-07 -2.54262e-07 -0.000139671
0.0010856 0.000199288 8.93846e-07
0.000199288 0.000185513 -9.4699e-07
8.93846e-07 -9.4699e-07 -2.50823e-06
0.00122942 0.000232824 -4.6218e-07
0.000232824 0.000127538 7.87324e-07
-4.6218e-07 7.87324e-07 -5.99677e-05
0.000601024 -6.2879e-05 -1.74619e-07
-6.2879e-05 -6.20012e-06 4.70174e-06
-1.74619e-07 4.70174e-06 -3.03199e-05
0.000740141 7.48062e-05 3.90114e-06
7.48062e-05 7.63541e-05 3.67991e-06
3.90114e-06 3.67991e-06 -3.07856e-05
0.000672089 -2.4249e-05 6.38609e-07
-2.4249e-05 3.36796e-05 3.23868e-06
6.38609e-07 3.23868e-06 -3.09342e-05
0.000857871 7.53571e-05 7.47988e-07
7.53571e-05 0.000165252 1.11199e-06
7.47988e-07 1.11199e-06 3.57196e-05
0.00136739 0.000151686 5.90351e-06
0.000151686 8.20574e-05 1.15174e-06
5.90351e-06 1.15174e-06 -6.9218e-05
0.00123425 0.000191525 6.9221e-06
0.000191525 6.93257e-05 2.20202e-06
6.9221e-06 2.20202e-06 -9.49775e-05
0.0015467 0.000220552 1.78707e-06
0.000220552 0.000138273 5.9201e-08
1.78707e-06 5.9201e-08 -3.01501e-05
0.00101108 0.000165872 2.61042e-06
0.000165872 0.000199699 3.6317e-06
2.61042e-06 3.6317e-06 2.99742e-05
0.00126249 0.000226159 8.93213e-07
0.000226159 7.18381e-05 1.08424e-06
8.93213e-07 1.08424e-06 -0.000105523
0.00103058 0.000213791 1.83006e-06
0.000213791 0.000116674 -9.82162e-07
1.83006e-06 -9.82162e-07 -9.67476e-05
0.00183563 0.00028142 1.02444e-06
0.00028142 0.000404744 4.19157e-07
1.02444e-06 4.19157e-07 0.000211711
0.000669106 -1.13487e-05 1.87941e-06
-1.13487e-05 1.04878e-05 2.04495e-06
1.87941e-06 2.04495e-06 -3.34164e-05
0.000596771 -4.42799e-05 7.93995e-07
-4.42799e-05 -2.96432e-05 4.17554e-06
7.93995e-07 4.17554e-06 -4.5795e-05
0.00229554 -8.64749e-05 2.89681e-05
-8.64749e-05 0.000981196 3.27788e-06
2.89681e-05 3.27788e-06 0.000988702
0.00233326 -9.72002e-05 2.46808e-06
-9.72002e-05 0.0010111 -2.36759e-07
2.46808e-06 -2.36759e-07 0.00101578
0.00239044 -0.000108424 -3.56269e-05
-0.000108424 0.0010524 -2.65783e-06
-3.56269e-05 -2.65783e-06 0.00105388
0.000504321 2.95535e-05 2.49837e-06
2.95535e-05 -5.82909e-05 -6.499e-06
2.49837e-06 -6.499e-06 -9.27838e-05
0.00312444 0.000121731 6.63663e-05
0.000121731 0.00147832 -3.00187e-06
6.63663e-05 -3.00187e-06 0.00147547
0.000544328 2.23685e-05 -2.83641e-07
2.23685e-05 -3.37047e-05 1.41099e-07
-2.83641e-07 1.41099e-07 -7.46616e-05
0.00348973 0.000122764 -2.74294e-06
0.000122764 0.00169126 -3.67044e-07
-2.74294e-06 -3.67044e-07 0.00168786
0.000656102 8.54936e-05 -1.81756e-05
8.54936e-05 -7.9015e-05 -5.71393e-06
-1.81756e-05 -5.71393e-06 -0.000152151
0.000657935 3.10779e-05 -1.77672e-05
3.10779e-05 -8.74744e-05 -3.08209e-06
-1.77672e-05 -3.08209e-06 -0.000156405
0.00106323 7.70003e-05 -1.16469e-05
7.70003e-05 -2.53917e-06 -2.7689e-06
-1.16469e-05 -2.7689e-06 -0.000124682
0.00106396 3.68934e-05 -1.21247e-05
3.68934e-05 -1.00803e-05 -1.42269e-06
-1.21247e-05 -1.42269e-06 -0.00012569
0.000667718 -4.7948e-06 -1.82724e-05
-4.7948e-06 -8.72575e-05 -8.42642e-07
-1.82724e-05 -8.42642e-07 -0.000151691
0.00531072 -9.63507e-05 -0.000203168
-9.63507e-05 0.0027214 2.81553e-06
-0.000203168 2.81553e-06 0.00272242
0.000652729 -7.49071e-07 1.4307e-07
-7.49071e-07 -9.49873e-05 -3.47593e-07
1.4307e-07 -3.47593e-07 -0.000159222
0.00106427 1.81124e-05 -1.23721e-08
1.81124e-05 -1.09619e-05 -1.48229e-07
-1.23721e-08 -1.48229e-07 -0.000124726
0.00106379 5.36496e-05 -1.64012e-08
5.36496e-05 -7.09494e-06 -1.49869e-07
-1.64012e-08 -1.49869e-07 -0.000125365
0.00139595 4.69263e-05 -6.78098e-08
4.69263e-05 5.65473e-05 4.44315e-08
-6.78098e-08 4.44315e-08 -7.06923e-05
0.00105653 9.42309e-05 -3.87551e-08
9.42309e-05 -4.71818e-07 -1.83115e-07
-3.87551e-08 -1.83115e-07 -0.000125632
0.00139218 0.000100175 -4.44152e-08
0.000100175 7.07318e-05 -7.79662e-08
-4.44152e-08 -7.79662e-08 -6.73375e-05
0.00106468 -2.95172e-07 1.1821e-05
-2.95172e-07 -9.33745e-06 -2.79953e-07
1.1821e-05 -2.79953e-07 -0.000122166
0.00140428 2.72258e-05 3.49163e-06
2.72258e-05 5.87376e-05 1.4587e-07
3.49163e-06 1.4587e-07 -6.57321e-05
0.00141794 7.4427e-05 3.78703e-06
7.4427e-05 7.56395e-05 2.65294e-07
3.78703e-06 2.65294e-07 -5.62852e-05
0.00166523 6.80559e-05 -9.67825e-07
6.80559e-05 9.00932e-05 -2.9298e-07
-9.67825e-07 -2.9298e-07 -2.40982e-05
0.00140667 0.000126298 4.25177e-06
0.000126298 8.72544e-05 7.82088e-07
4.25177e-06 7.82088e-07 -5.68748e-05
0.00163125 0.000127376 -4.82828e-07
0.000127376 9.90803e-05 -9.20565e-07
-4.82828e-07 -9.20565e-07 -3.06313e-05
0.000638146 5.40802e-06 -1.7402e-05
5.40802e-06 -9.82218e-05 9.20866e-07
-1.7402e-05 9.20866e-07 -0.000164421
0.00162545 -1.87078e-05 -8.78058e-05
-1.87078e-05 0.000476442 3.34967e-06
-8.78058e-05 3.34967e-06 0.000420913
0.0007306 -1.77891e-05 -1.33375e-05
-1.77891e-05 -0.000196548 1.58432e-06
-1.33375e-05 1.58432e-06 -0.000311629
0.0020212 -9.26685e-05 -2.17376e-05
-9.26685e-05 0.000553158 3.33253e-06
-2.17376e-05 3.33253e-06 0.000442976
0.00385914 0.000118494 -0.000115663
0.000118494 0.00190765 5.13207e-06
-0.000115663 5.13207e-06 0.00190303
0.00233676 -6.60027e-05 -6.94564e-05
-6.60027e-05 0.000982166 9.34408e-06
-6.94564e-05 9.34408e-06 0.000928289
0.0019676 -0.000218302 -1.60138e-05
-0.000218302 0.000684722 6.71134e-06
-1.60138e-05 6.71134e-06 0.000540952
0.00159979 -0.000130451 -2.22291e-05
-0.000130451 0.000331465 5.39707e-06
-2.22291e-05 5.39707e-06 0.000213375
0.00125177 -0.000118766 -6.55334e-06
-0.000118766 1.4558e-05 1.33195e-06
-6.55334e-06 1.33195e-06 -0.000123161
0.00175962 -0.000185742 -7.60237e-06
-0.000185742 0.000349303 1.86098e-06
-7.60237e-06 1.86098e-06 0.000201336
0.00100581 -0.000187602 -7.41025e-06
-0.000187602 -3.43065e-05 1.60457e-06
-7.41025e-06 1.60457e-06 -0.000202573
0.00141628 -0.000210831 -3.03377e-06
-0.000210831 0.000110456 -5.92537e-07
-3.03377e-06 -5.92537e-07 -5.7285e-05
0.000599744 -2.3634e-06 -6.92061e-06
-2.3634e-06 -5.40519e-06 8.63289e-06
-6.92061e-06 8.63289e-06 -5.22842e-05
0.000702096 -4.36576e-05 -2.75377e-06
-4.36576e-05 5.01702e-05 3.35979e-06
-2.75377e-06 3.35979e-06 -4.90487e-05
0.000895639 -6.78957e-06 -3.98388e-07
-6.78957e-06 -0.000104423 -9.53436e-08
-3.98388e-07 -9.53436e-08 -0.000217936
0.00163451 -5.39223e-05 -4.87913e-06
-5.39223e-05 0.000325554 4.94992e-07
-4.87913e-06 4.94992e-07 0.000216098
0.0017025 -3.48466e-05 -2.35802e-06
-3.48466e-05 0.000242803 2.84454e-07
-2.35802e-06 2.84454e-07 0.000121872
0.00152958 -0.000101822 3.97091e-07
-0.000101822 0.000163287 -5.85073e-08
3.97091e-07 -5.85073e-08 3.0683e-05
0.0005484 -2.41466e-05 9.73844e-08
-2.41466e-05 -4.03128e-05 2.49001e-07
9.73844e-08 2.49001e-07 -9.23255e-05
0.000846818 -0.000139228 -1.92207e-07
-0.000139228 0.000101033 2.83978e-07
-1.92207e-07 2.83978e-07 -3.38506e-05
0.000974049 -0.000199726 1.77833e-06
-0.000199726 2.65963e-05 -1.64851e-06
1.77833e-06 -1.64851e-06 -0.000155466
0.00168629 -0.000161823 -2.03421e-06
-0.000161823 0.000287191 5.09913e-07
-2.03421e-06 5.09913e-07 0.000145084
0.00166975 -0.000151104 -4.97388e-08
-0.000151104 0.000161487 1.98074e-07
-4.97388e-08 1.98074e-07 2.91086e-05
0.00170207 -0.000255714 -2.14259e-06
-0.000255714 0.000301736 2.67288e-07
-2.14259e-06 2.67288e-07 0.000114567
0.00147108 -0.000196629 3.97308e-07
-0.000196629 0.000110383 -4.40326e-08
3.97308e-07 -4.40326e-08 -4.52649e-05
0.00172118 -0.000246338 6.33929e-07
-0.000246338 0.000219448 4.9932e-07
6.33929e-07 4.9932e-07 5.47142e-05
0.000730009 -7.4149e-05 -2.01675e-07
-7.4149e-05 6.50819e-05 -1.83994e-07
-2.01675e-07 -1.83994e-07 -4.63316e-05
0.000677761 -7.15341e-05 -7.50819e-07
-7.15341e-05 3.70456e-05 -6.3764e-07
-7.50819e-07 -6.3764e-07 -9.4888e-05
0.000664312 -1.27841e-05 1.98911e-07
-1.27841e-05 3.1645e-05 2.19105e-07
1.98911e-07 2.19105e-07 -5.37654e-05
0.00170044 -1.33856e-05 2.0773e-06
-1.33856e-05 0.000236945 -1.25362e-07
2.0773e-06 -1.25362e-07 0.00011608
0.00168571 -6.59871e-05 2.44993e-06
-6.59871e-05 0.000235646 1.56286e-07
2.44993e-06 1.56286e-07 0.000111204
0.00164808 -4.93704e-05 -1.0116e-06
-4.93704e-05 9.69558e-05 7.99785e-07
-1.0116e-06 7.99785e-07 -1.62744e-05
0.00160341 -0.000123592 -1.50569e-06
-0.000123592 9.92498e-05 9.80563e-07
-1.50569e-06 9.80563e-07 -2.75515e-05
0.00149079 -0.000176652 1.30304e-06
-0.000176652 9.11128e-05 1.22067e-06
1.30304e-06 1.22067e-06 -5.14955e-05
0.0017226 -0.000171542 -2.05753e-06
-0.000171542 0.000121327 1.56839e-06
-2.05753e-06 1.56839e-06 6.35777e-06
0.000689812 -9.74247e-05 3.77617e-06
-9.74247e-05 3.85851e-05 -3.2722e-06
3.77617e-06 -3.2722e-06 -8.20959e-05
0.00160285 -0.000230014 -1.03212e-06
-0.000230014 0.000115348 1.92403e-06
-1.03212e-06 1.92403e-06 -3.25147e-05
0.000991173 -0.000189292 1.99743e-06
-0.000189292 0.000142795 -3.75126e-06
1.99743e-06 -3.75126e-06 -3.17029e-05
0.00133634 -0.000254762 5.1759e-06
-0.000254762 0.000158585 -3.66548e-06
5.1759e-06 -3.66548e-06 -5.09801e-05
0.00184047 -0.000281285 1.2046e-06
-0.000281285 0.000331285 2.96288e-06
1.2046e-06 2.96288e-06 0.000137862
0.00188241 -0.000275966 -2.99561e-06
-0.000275966 0.000263343 3.88156e-06
-2.99561e-06 3.88156e-06 0.000108432
0.000614967 -7.99884e-06 1.20504e-06
-7.99884e-06 2.33774e-06 -3.05786e-06
1.20504e-06 -3.05786e-06 -7.21091e-05
0.000796112 -0.000117638 2.28021e-06
-0.000117638 8.6877e-05 7.77855e-07
2.28021e-06 7.77855e-07 -4.91855e-05
0.000584424 -4.77305e-05 1.06851e-06
-4.77305e-05 4.65872e-06 -1.74188e-06
1.06851e-06 -1.74188e-06 -0.000123751
0.00120777 -0.000178273 -5.4001e-07
-0.000178273 0.000339652 1.92943e-06
-5.4001e-07 1.92943e-06 0.000183447
0.00103966 0.000116648 -1.27604e-05
0.000116648 -5.64692e-07 -4.47893e-06
-1.27604e-05 -4.47893e-06 -0.000129646
0.000515626 -6.72668e-05 8.0184e-09
-6.72668e-05 -4.48174e-05 -4.99287e-06
8.0184e-09 -4.99287e-06 -7.39768e-05
0.000447938 -4.38363e-05 -3.403e-07
-4.38363e-05 -7.93682e-05 -8.26718e-06
-3.403e-07 -8.26718e-06 -0.000123173
0.000616613 -4.13565e-05 1.136e-06
-4.13565e-05 1.19509e-05 -3.85971e-06
1.136e-06 -3.85971e-06 -7.08988e-05
0.00101449 0.000153953 -1.16828e-05
0.000153953 2.74547e-05 -5.78949e-06
-1.16828e-05 -5.78949e-06 -0.000109182
0.00129056 0.000173282 -6.309e-06
0.000173282 7.1919e-05 -1.75353e-06
-6.309e-06 -1.75353e-06 -8.66327e-05
0.000667102 9.74658e-05 -3.66966e-06
9.74658e-05 2.73018e-05 -3.93875e-06
-3.66966e-06 -3.93875e-06 -9.74672e-05
0.0012643 0.000212282 -4.71088e-06
0.000212282 0.00028958 -4.39077e-06
-4.71088e-06 -4.39077e-06 0.000100082
0.00137492 0.000212598 -5.58021e-06
0.000212598 0.000194704 -1.60799e-06
-5.58021e-06 -1.60799e-06 2.39904e-05
0.00114639 0.000229197 -3.18179e-06
0.000229197 7.49627e-05 9.00008e-07
-3.18179e-06 9.00008e-07 -0.000112256
0.000574844 -5.91082e-05 -9.29903e-08
-5.91082e-05 -2.30797e-05 8.05969e-08
-9.29903e-08 8.05969e-08 -4.62018e-05
0.000734793 6.49331e-05 4.12938e-07
6.49331e-05 7.84119e-05 -1.89302e-07
4.12938e-07 -1.89302e-07 -3.05087e-05
0.000630242 -3.98978e-05 -7.04908e-07
-3.98978e-05 1.31154e-05 6.23696e-07
-7.04908e-07 6.23696e-07 -5.23666e-05
0.000784892 4.70571e-05 9.08205e-07
4.70571e-05 0.000121442 -4.67997e-07
9.08205e-07 -4.67997e-07 -3.72729e-06
0.00135202 0.000150768 5.97625e-07
0.000150768 7.62477e-05 -7.59736e-08
5.97625e-07 -7.59736e-08 -7.5159e-05
0.00128564 0.000195438 2.13859e-07
0.000195438 0.000100809 1.5918e-08
2.13859e-07 1.5918e-08 -6.4041e-05
0.00155581 0.000221154 2.2866e-07
0.000221154 0.000143399 1.63011e-07
2.2866e-07 1.63011e-07 -2.53376e-05
0.000981901 0.000164815 6.57131e-07
0.000164815 0.000185797 6.55807e-07
6.57131e-07 6.55807e-07 1.7256e-05
0.00153692 0.000243084 -6.79951e-07
0.000243084 0.000233939 -5.45431e-07
-6.79951e-07 -5.45431e-07 5.49252e-05
0.00113269 0.000224631 2.45914e-07
0.000224631 0.000174081 -2.09973e-06
2.45914e-07 -2.09973e-06 -4.29773e-05
0.00149615 0.000255893 -2.43431e-06
0.000255893 0.000217607 -4.09286e-07
-2.43431e-06 -4.09286e-07 2.93485e-05
0.000591535 -5.22493e-05 8.06011e-07
-5.22493e-05 -2.41243e-05 4.27433e-06
8.06011e-07 4.27433e-06 -4.32516e-05
0.000686011 -2.65869e-05 1.24965e-06
-2.65869e-05 3.46334e-05 2.43536e-06
1.24965e-06 2.43536e-06 -1.88385e-05
0.000962825 0.000119247 2.15348e-06
0.000119247 0.000201023 1.91583e-06
2.15348e-06 1.91583e-06 5.63413e-05
0.000808722 4.62039e-05 -4.10563e-07
4.62039e-05 0.000139891 2.28358e-06
-4.10563e-07 2.28358e-06 3.16053e-05
0.000901502 0.000120965 2.30707e-07
0.000120965 0.000199221 -5.46397e-07
2.30707e-07 -5.46397e-07 4.74899e-05
0.00159659 0.000190735 1.60032e-06
0.000190735 0.000131538 -9.68958e-07
1.60032e-06 -9.68958e-07 -2.29792e-05
0.00141716 0.000232866 1.24708e-06
0.000232866 0.000109019 1.29915e-06
1.24708e-06 1.29915e-06 -6.7307e-05
0.00173085 0.000259013 -1.95198e-07
0.000259013 0.000192904 -4.64772e-07
-1.95198e-07 -4.64772e-07 2.85103e-05
0.00116964 0.000210074 3.69776e-06
0.000210074 0.000281949 4.8704e-06
3.69776e-06 4.8704e-06 7.06452e-05
0.00159339 0.000272368 2.86009e-06
0.000272368 0.000220922 1.17944e-06
2.86009e-06 1.17944e-06 3.45612e-05
0.000781722 0.000214084 3.27078e-06
0.000214084 -0.00011521 -1.72416e-06
3.27078e-06 -1.72416e-06 -0.000329532
0.000664492 -1.49578e-05 2.27464e-06
-1.49578e-05 9.9232e-06 2.0364e-06
2.27464e-06 2.0364e-06 -3.52454e-05
0.000711916 3.143e-05 2.9962e-07
3.143e-05 6.03707e-05 9.17791e-07
2.9962e-07 9.17791e-07 -1.26116e-05
0.000686128 -1.60063e-06 1.59537e-06
-1.60063e-06 1.98856e-05 2.04569e-06
1.59537e-06 2.04569e-06 -2.35076e-05
0.000666734 -2.4251e-05 -3.52835e-07
-2.4251e-05 1.07001e-05 1.09138e-08
-3.52835e-07 1.09138e-08 -3.40505e-05
0.00126049 -5.04346e-05 1.10764e-06
-5.04346e-05 0.00035121 2.4777e-06
1.10764e-06 2.4777e-06 0.000340541
0.000941932 -5.05448e-05 6.97478e-07
-5.05448e-05 0.000171499 -6.39489e-08
6.97478e-07 -6.39489e-08 0.000157059
0.000912065 -4.54767e-05 2.40986e-05
-4.54767e-05 0.000164204 6.95874e-06
2.40986e-05 6.95874e-06 0.000168504
0.00226133 -8.47388e-05 2.46967e-06
-8.47388e-05 0.000960294 -2.1291e-07
2.46967e-06 -2.1291e-07 0.000968217
0.00227988 -9.48806e-05 -3.20698e-05
-9.48806e-05 0.000979286 -3.04476e-06
-3.20698e-05 -3.04476e-06 0.000984504
0.000520616 4.51567e-05 -1.8337e-07
4.51567e-05 -5.13642e-05 -5.67559e-06
-1.8337e-07 -5.67559e-06 -8.18301e-05
0.00286242 0.000114513 4.81394e-05
0.000114513 0.00132203 -3.11131e-06
4.81394e-05 -3.11131e-06 0.00132111
0.000557771 2.8255e-05 -2.6069e-07
2.8255e-05 -2.79956e-05 1.56656e-07
-2.6069e-07 1.56656e-07 -6.27666e-05
0.00321554 0.00011491 -3.65597e-06
0.00011491 0.00152899 -3.01418e-07
-3.65597e-06 -3.01418e-07 0.00152786
0.000600595 1.9395e-05 -3.93578e-06
1.9395e-05 -2.50803e-06 7.81204e-06
-3.93578e-06 7.81204e-06 -4.37051e-05
0.00356771 0.000113214 -0.00010139
0.000113214 0.00173417 4.2384e-06
-0.00010139 4.2384e-06 0.00173271
0.00105978 9.71164e-05 -1.21085e-05
9.71164e-05 1.86793e-06 -3.51731e-06
-1.21085e-05 -3.51731e-06 -0.00012393
0.00107365 5.77881e-05 -1.1869e-05
5.77881e-05 -1.04262e-06 -2.05678e-06
-1.1869e-05 -2.05678e-06 -0.000119735
0.00136813 9.8255e-05 -4.16758e-06
9.8255e-05 5.7284e-05 -6.88161e-07
-4.16758e-06 -6.88161e-07 -8.09859e-05
0.00138084 4.63346e-05 -3.87854e-06
4.63346e-05 4.90243e-05 -1.63108e-07
-3.87854e-06 -1.63108e-07 -7.8314e-05
0.00106669 2.15023e-05 -1.20369e-05
2.15023e-05 -9.3128e-06 -8.12457e-07
-1.20369e-05 -8.12457e-07 -0.00012321
0.000628406 2.12035e-05 -1.79353e-05
2.12035e-05 -0.000108146 -5.09651e-08
-1.79353e-05 -5.09651e-08 -0.000172611
0.00106137 1.99573e-06 8.79181e-09
1.99573e-06 -1.12877e-05 -1.05393e-07
8.79181e-09 -1.05393e-07 -0.000124152
0.00139252 2.88526e-05 -9.06483e-08
2.88526e-05 5.21222e-05 -1.80149e-08
-9.06483e-08 -1.80149e-08 -7.24777e-05
0.001392 7.13905e-05 1.95817e-09
7.13905e-05 6.2464e-05 -6.71096e-08
1.95817e-09 -6.71096e-08 -6.94888e-05
0.0017067 6.89664e-05 -5.81371e-08
6.89664e-05 0.000110137 2.32382e-07
-5.81371e-08 2.32382e-07 -2.19659e-06
0.00138231 0.000125509 -1.92702e-07
0.000125509 7.48827e-05 -6.52945e-08
-1.92702e-07 -6.52945e-08 -6.94607e-05
0.00163865 0.000125781 -1.87431e-07
0.000125781 0.000107931 4.87004e-08
-1.87431e-07 4.87004e-08 -2.17886e-05
0.00139416 6.7506e-06 3.66911e-06
6.7506e-06 5.52959e-05 -6.48536e-08
3.66911e-06 -6.48536e-08 -6.80564e-05
0.00171576 4.08988e-05 -1.6735e-06
4.08988e-05 0.000111828 1.08069e-07
-1.6735e-06 1.08069e-07 4.23427e-06
0.00164983 0.000103218 -8.12728e-07
0.000103218 8.95995e-05 -7.55396e-07
-8.12728e-07 -7.55396e-07 -3.15382e-05
0.00177822 7.63603e-05 -1.4607e-06
7.63603e-05 8.947e-05 -1.396e-08
-1.4607e-06 -1.396e-08 -4.60181e-06
0.0016229 0.000152971 -8.29297e-08
0.000152971 0.000121948 -1.01874e-06
-8.29297e-08 -1.01874e-06 -1.82774e-05
0.00169755 0.000149609 -2.79047e-06
0.000149609 7.38544e-05 -1.13671e-06
-2.79047e-06 -1.13671e-06 -3.29254e-05
0.000734268 -3.94573e-06 -1.16352e-05
-3.94573e-06 -0.000196566 6.35238e-07
-1.16352e-05 6.35238e-07 -0.000311212
0.00166231 -5.6401e-05 -2.14565e-05
-5.6401e-05 0.000340285 2.43457e-06
-2.14565e-05 2.43457e-06 0.000230839
0.00170431 -2.85418e-05 -6.92571e-06
-2.85418e-05 0.000240734 3.75362e-07
-6.92571e-06 3.75362e-07 0.000121311
0.00172918 -0.000105584 -5.07913e-06
-0.000105584 0.000277715 8.17784e-07
-5.07913e-06 8.17784e-07 0.000145695
0.000681971 -3.61864e-05 -9.61146e-06
-3.61864e-05 3.5073e-05 9.88246e-06
-9.61146e-06 9.88246e-06 -1.90457e-05
0.000908855 -0.000152459 -6.51936e-06
-0.000152459 0.000137261 6.0198e-06
-6.51936e-06 6.0198e-06 4.23648e-08
0.00106487 -0.000206214 -4.1231e-06
-0.000206214 8.10584e-05 1.23322e-06
-4.1231e-06 1.23322e-06 -0.000101257
0.0017481 -0.000162162 -8.19972e-06
-0.000162162 0.000321284 2.01224e-06
-8.19972e-06 2.01224e-06 0.000179106
0.00166934 -0.000150877 -4.11428e-07
-0.000150877 0.000156138 -6.96589e-07
-4.11428e-07 -6.96589e-07 2.61722e-05
0.00148194 -0.000197281 -2.205e-06
-0.000197281 0.000115848 -5.64639e-07
-2.205e-06 -5.64639e-07 -3.95767e-05
0.00153143 -0.000244871 -5.69272e-06
-0.000244871 0.000204262 -1.33451e-07
-5.69272e-06 -1.33451e-07 1.70845e-05
0.00168161 -0.000245439 2.20035e-06
-0.000245439 0.000193395 -2.53753e-06
2.20035e-06 -2.53753e-06 2.85773e-05
0.000713993 -7.99852e-05 -4.01195e-06
-7.99852e-05 5.34018e-05 3.28373e-06
-4.01195e-06 3.28373e-06 -5.7496e-05
0.000507192 -6.26232e-05 -2.44567e-06
-6.26232e-05 -5.85144e-05 -4.1093e-07
-2.44567e-06 -4.1093e-07 -0.00019023
0.000703684 -1.97064e-05 -1.33647e-06
-1.97064e-05 5.30231e-05 3.61015e-06
-1.33647e-06 3.61015e-06 -3.31662e-05
0.00155243 -1.14321e-05 -2.38138e-06
-1.14321e-05 0.000150691 1.6142e-07
-2.38138e-06 1.6142e-07 2.8698e-05
0.00169429 -7.27479e-05 -2.18274e-06
-7.27479e-05 0.000240639 3.7563e-07
-2.18274e-06 3.7563e-07 0.000115651
0.00164613 -4.59533e-05 2.80024e-07
-4.59533e-05 9.48029e-05 3.01045e-07
2.80024e-07 3.01045e-07 -1.53483e-05
0.00163668 -0.000121248 -1.23035e-06
-0.000121248 0.000115191 2.97907e-07
-1.23035e-06 2.97907e-07 -1.16503e-05
0.000762507 -0.000111989 3.16623e-07
-0.000111989 7.98616e-05 1.63362e-07
3.16623e-07 1.63362e-07 -4.27693e-05
0.00105786 -0.000195673 -9.93722e-07
-0.000195673 0.000175651 3.70216e-07
-9.93722e-07 3.70216e-07 5.64658e-07
0.00115134 -0.000237612 9.02666e-07
-0.000237612 6.06904e-05 -9.83341e-07
9.02666e-07 -9.83341e-07 -0.000144563
0.00154899 -0.000179109 -3.93247e-07
-0.000179109 0.000125146 3.30725e-07
-3.93247e-07 3.30725e-07 -1.93934e-05
0.00175312 -0.000171715 1.27294e-06
-0.000171715 0.000141644 1.55341e-07
1.27294e-06 1.55341e-07 3.05136e-05
0.00171463 -0.00027672 -9.06239e-07
-0.00027672 0.000258031 6.05767e-07
-9.06239e-07 6.05767e-07 6.24534e-05
0.00162642 -0.000230073 1.2589e-07
-0.000230073 0.000129303 2.7155e-07
1.2589e-07 2.7155e-07 -1.81539e-05
0.00193117 -0.000277036 1.31648e-06
-0.000277036 0.000293249 -5.08243e-07
1.31648e-06 -5.08243e-07 0.00014072
0.000928961 -0.000137068 2.04346e-07
-0.000137068 0.00016655 3.05227e-07
2.04346e-07 3.05227e-07 2.62178e-05
0.0010491 -0.00017304 -2.94547e-07
-0.00017304 0.000251835 3.49576e-07
-2.94547e-07 3.49576e-07 9.39716e-05
0.000661494 -1.44188e-05 1.4516e-07
-1.44188e-05 2.8768e-05 1.96673e-07
1.4516e-07 1.96673e-07 -4.63399e-05
0.000491187 -2.03475e-05 -1.97879e-07
-2.03475e-05 -5.53458e-05 -7.95844e-07
-1.97879e-07 -7.95844e-07 -0.000176849
0.00166555 -2.69539e-05 -7.5758e-07
-2.69539e-05 0.000100329 7.1214e-08
-7.5758e-07 7.1214e-08 -9.73645e-06
0.00183924 -8.28124e-05 -5.95501e-07
-8.28124e-05 0.000209518 1.02299e-06
-5.95501e-07 1.02299e-06 9.37235e-05
0.00162099 -6.0773e-05 3.86378e-07
-6.0773e-05 8.8872e-06 1.28624e-07
3.86378e-07 1.28624e-07 -8.77e-05
0.00176272 -0.000149849 -3.74822e-06
-0.000149849 0.00011107 1.12841e-06
-3.74822e-06 1.12841e-06 1.31138e-05
0.00169826 -0.000203372 -2.99183e-06
-0.000203372 0.000134275 2.79396e-06
-2.99183e-06 2.79396e-06 6.81159e-06
0.001816 -0.000171947 1.00683e-06
-0.000171947 0.000146154 6.79897e-08
1.00683e-06 6.79897e-08 5.14698e-05
0.000832221 -0.000162759 1.62748e-06
-0.000162759 9.46401e-05 -1.05742e-06
1.62748e-06 -1.05742e-06 -5.7092e-05
0.00161845 -0.000247952 -4.11853e-06
-0.000247952 8.01688e-05 3.0225e-06
-4.11853e-06 3.0225e-06 -4.74972e-05
0.000354106 -0.000164782 3.37696e-07
-0.000164782 -0.000263555 -5.43483e-06
3.37696e-07 -5.43483e-06 -0.000456549
0.00199932 -0.000327387 3.75325e-06
-0.000327387 0.000493613 -6.6128e-07
3.75325e-06 -6.6128e-07 0.00026415
0.00170452 -0.000292802 -1.29885e-07
-0.000292802 0.000205904 5.45893e-06
-1.29885e-07 5.45893e-06 1.17135e-05
0.00190938 -0.000273135 -6.14591e-07
-0.000273135 0.000260029 1.50837e-06
-6.14591e-07 1.50837e-06 0.000113588
0.000618157 -1.56288e-05 1.52524e-06
-1.56288e-05 2.21731e-06 -2.93511e-06
1.52524e-06 -2.93511e-06 -6.45596e-05
0.000551493 -2.13069e-05 -1.25684e-07
-2.13069e-05 -9.36261e-06 -2.20654e-06
-1.25684e-07 -2.20654e-06 -0.00012675
0.000896131 -0.000177751 2.67716e-07
-0.000177751 0.000139578 1.85489e-06
2.67716e-07 1.85489e-06 -1.63352e-05
0.000836575 -0.000125404 1.69428e-06
-0.000125404 0.00015741 8.32295e-07
1.69428e-06 8.32295e-07 5.27481e-06
0.00126514 -0.000210611 -1.32612e-06
-0.000210611 0.000366755 3.93173e-06
-1.32612e-06 3.93173e-06 0.000205958
0.000557648 -5.62546e-05 -1.07106e-06
-5.62546e-05 -3.42607e-05 -4.35435e-06
-1.07106e-06 -4.35435e-06 -5.66594e-05
0.00133844 0.000149862 -4.71063e-06
0.000149862 7.17769e-05 -1.31099e-06
-4.71063e-06 -1.31099e-06 -7.97503e-05
0.000571006 -5.64649e-05 -1.09051e-07
-5.64649e-05 -1.62964e-05 -2.5934e-06
-1.09051e-07 -2.5934e-06 -8.35269e-05
0.000723354 4.43736e-05 -1.08614e-06
4.43736e-05 6.87005e-05 -3.8983e-06
-1.08614e-06 -3.8983e-06 -3.59112e-05
0.000694609 1.73021e-05 1.64633e-06
1.73021e-05 6.63466e-05 -1.76183e-06
1.64633e-06 -1.76183e-06 -5.35643e-05
0.00128062 0.00019589 -6.46404e-06
0.00019589 0.000100265 -2.11681e-06
-6.46404e-06 -2.11681e-06 -6.4866e-05
0.00157345 0.000222212 -5.41394e-07
0.000222212 0.000153608 4.26928e-07
-5.41394e-07 4.26928e-07 -1.54688e-05
0.00104687 0.00017786 -2.18323e-06
0.00017786 0.000227035 -2.71161e-06
-2.18323e-06 -2.71161e-06 5.67585e-05
0.00131161 0.000242305 -3.18078e-06
0.000242305 0.000273269 -2.75131e-06
-3.18078e-06 -2.75131e-06 5.17345e-05
0.00176297 0.000256874 -3.61999e-06
0.000256874 0.000368434 -1.81219e-06
-3.61999e-06 -1.81219e-06 0.000188111
0.00122355 0.000235767 -7.57459e-06
0.000235767 6.74624e-05 -3.18215e-07
-7.57459e-06 -3.18215e-07 -0.000116684
0.000586855 -5.03763e-05 5.67837e-08
-5.03763e-05 -2.76519e-05 1.78042e-09
5.67837e-08 1.78042e-09 -4.63885e-05
0.000650304 -3.50172e-05 -6.04993e-07
-3.50172e-05 1.58782e-05 2.52857e-07
-6.04993e-07 2.52857e-07 -3.81835e-05
0.000925954 0.000119822 4.64343e-07
0.000119822 0.000179251 3.53278e-07
4.64343e-07 3.53278e-07 3.54181e-05
0.000711063 -2.36295e-06 -4.77326e-07
-2.36295e-06 7.99308e-05 3.69081e-07
-4.77326e-07 3.69081e-07 -2.27207e-05
0.000717802 8.37913e-05 1.0903e-06
8.37913e-05 8.75307e-05 -4.719e-07
1.0903e-06 -4.719e-07 -5.79585e-05
0.00159457 0.000191975 3.89152e-07
0.000191975 0.000127981 -4.64813e-07
3.89152e-07 -4.64813e-07 -2.70894e-05
0.00146986 0.000235422 7.32942e-07
0.000235422 0.000141111 6.82333e-07
7.32942e-07 6.82333e-07 -3.5541e-05
0.00166525 0.000257223 1.53344e-06
0.000257223 0.000155514 2.61028e-07
1.53344e-06 2.61028e-07 -9.44515e-06
0.00111753 0.000205648 1.25288e-06
0.000205648 0.000258982 1.44799e-06
1.25288e-06 1.44799e-06 4.63011e-05
0.00169814 0.000280489 5.44831e-07
0.000280489 0.000277139 -1.70955e-07
5.44831e-07 -1.70955e-07 9.00757e-05
0.00104868 0.00023349 -2.04186e-06
0.00023349 3.05524e-05 -1.98273e-07
-2.04186e-06 -1.98273e-07 -0.000185177
0.00069027 -2.12829e-05 2.12436e-06
-2.12829e-05 2.91121e-05 2.13303e-06
2.12436e-06 2.13303e-06 -1.87532e-05
0.000777862 3.04147e-05 5.29517e-07
3.04147e-05 0.000108545 1.89542e-06
5.29517e-07 1.89542e-06 2.18696e-05
0.000985392 0.000182728 -1.01841e-06
0.000182728 0.000211997 -2.14911e-07
-1.01841e-06 -2.14911e-07 3.77592e-05
0.000904953 3.98218e-05 -4.06176e-07
3.98218e-05 0.000197758 1.09734e-06
-4.06176e-07 1.09734e-06 7.29711e-05
0.00127474 0.000104184 -3.63716e-06
0.000104184 0.00038193 -3.91326e-06
-3.63716e-06 -3.91326e-06 0.000231278
0.00166523 0.000203246 -2.71248e-06
0.000203246 0.0001249 -2.68427e-06
-2.71248e-06 -2.68427e-06 -1.61608e-05
0.00164733 0.000284346 1.54128e-06
0.000284346 0.000192377 3.41775e-07
1.54128e-06 3.41775e-07 1.07479e-05
0.00150826 0.000276539 1.79781e-06
0.000276539 3.2369e-05 -1.19527e-06
1.79781e-06 -1.19527e-06 -0.000127587
0.00104861 0.000213575 -5.72941e-07
0.000213575 0.000190347 2.88545e-06
-5.72941e-07 2.88545e-06 -4.61834e-05
0.00138728 0.000280414 5.79583e-06
0.000280414 0.000118517 -6.93773e-07
5.79583e-06 -6.93773e-07 -8.7213e-05
0.000665979 -2.36341e-05 -1.77383e-07
-2.36341e-05 1.16839e-05 2.60854e-09
-1.77383e-07 2.60854e-09 -3.39186e-05
0.000590376 9.83831e-06 1.45112e-06
9.83831e-06 -1.82829e-05 1.32108e-06
1.45112e-06 1.32108e-06 -8.77754e-05
0.000605679 -5.59495e-06 -5.73286e-07
-5.59495e-06 -4.47536e-06 -7.5613e-08
-5.73286e-07 -7.5613e-08 -7.48789e-05
0.000922301 6.55723e-05 7.29344e-07
6.55723e-05 0.000190656 -3.16282e-07
7.29344e-07 -3.16282e-07 0.000103912
0.000718579 4.91819e-05 1.7435e-06
4.91819e-05 6.39006e-05 1.13562e-06
1.7435e-06 1.13562e-06 -7.92007e-06
0.000670638 1.09708e-05 1.56346e-06
1.09708e-05 1.32109e-05 2.07648e-06
1.56346e-06 2.07648e-06 -3.067e-05
0.000670468 -1.82068e-05 -5.57043e-07
-1.82068e-05 1.24033e-05 2.38355e-08
-5.57043e-07 2.38355e-08 -3.17357e-05
0.0012576 -3.9538e-05 7.76335e-07
-3.9538e-05 0.000344194 2.41223e-06
7.76335e-07 2.41223e-06 0.000335297
0.000666949 -3.34933e-05 -9.25639e-07
-3.34933e-05 1.18266e-05 -2.07922e-06
-9.25639e-07 -2.07922e-06 -3.33981e-05
0.00128957 -4.7342e-05 -5.01758e-06
-4.7342e-05 0.0003676 -1.32448e-06
-5.01758e-06 -1.32448e-06 0.000357388
0.000886011 -3.69133e-05 2.22654e-05
-3.69133e-05 0.000140444 7.15785e-06
2.22654e-05 7.15785e-06 0.000147371
0.00129686 -5.44112e-05 -9.64415e-06
-5.44112e-05 0.000378629 -3.62891e-06
-9.64415e-06 -3.62891e-06 0.000366335
0.00154719 -5.90529e-05 2.03225e-05
-5.90529e-05 0.000535142 1.93756e-06
2.03225e-05 1.93756e-06 0.000542639
0.00223246 -8.30038e-05 -2.84532e-05
-8.30038e-05 0.00094242 -3.48224e-06
-2.84532e-05 -3.48224e-06 0.000950761
0.000533463 5.09868e-05 -1.53904e-07
5.09868e-05 -5.00308e-05 -4.88468e-06
-1.53904e-07 -4.88468e-06 -7.57596e-05
0.000553367 3.70893e-05 4.01842e-08
3.70893e-05 -3.41528e-05 1.77586e-07
4.01842e-08 1.77586e-07 -6.37575e-05
0.00265429 0.000101478 3.79422e-05
0.000101478 0.00119543 -3.41189e-06
3.79422e-05 -3.41189e-06 0.00119782
0.00295739 0.000109015 -5.67371e-06
0.000109015 0.00137559 -2.98187e-07
-5.67371e-06 -2.98187e-07 0.00137618
0.000611916 2.66732e-05 -3.04007e-06
2.66732e-05 2.59001e-06 6.74425e-06
-3.04007e-06 6.74425e-06 -3.2484e-05
0.00330012 0.000105611 -8.81502e-05
0.000105611 0.00157571 3.85444e-06
-8.81502e-05 3.85444e-06 0.00157671
0.00135891 0.000124916 -4.67881e-06
0.000124916 6.29059e-05 -9.30719e-07
-4.67881e-06 -9.30719e-07 -8.16783e-05
0.00136771 7.14786e-05 -4.03368e-06
7.14786e-05 5.02936e-05 -3.84919e-07
-4.03368e-06 -3.84919e-07 -8.19849e-05
0.00163992 0.000125225 8.61263e-08
0.000125225 0.000113387 9.95033e-07
8.61263e-08 9.95033e-07 -1.64726e-05
0.00174812 6.9894e-05 8.01439e-07
6.9894e-05 0.000130047 6.32574e-07
8.01439e-07 6.32574e-07 1.9584e-05
0.00138307 3.19165e-05 -3.49652e-06
3.19165e-05 4.66477e-05 -1.51746e-07
-3.49652e-06 -1.51746e-07 -7.81244e-05
0.00106738 6.6919e-06 -1.17639e-05
6.6919e-06 -8.16546e-06 -3.28123e-08
-1.17639e-05 -3.28123e-08 -0.000120997
0.00139013 1.01782e-05 6.48556e-08
1.01782e-05 5.28836e-05 -1.78479e-08
6.48556e-08 -1.78479e-08 -7.05745e-05
0.00172308 3.08841e-05 -1.04646e-06
3.08841e-05 0.000116837 -4.89538e-09
-1.04646e-06 -4.89538e-09 9.54873e-06
0.0016682 0.000102081 -1.10175e-07
0.000102081 0.000101403 4.53843e-08
-1.10175e-07 4.53843e-08 -1.95655e-05
0.00180535 7.71934e-05 1.43172e-06
7.71934e-05 0.000103995 8.8216e-07
1.43172e-06 8.8216e-07 1.35729e-05
0.0016108 0.000153803 -2.32817e-07
0.000153803 0.000113148 -7.31857e-08
-2.32817e-07 -7.31857e-08 -2.76461e-05
0.00170887 0.000146863 -3.09327e-07
0.000146863 7.75017e-05 8.99846e-07
-3.09327e-07 8.99846e-07 -2.66919e-05
0.0017004 -1.66807e-07 -7.32919e-07
-1.66807e-07 0.000113631 1.23374e-07
-7.32919e-07 1.23374e-07 6.58745e-06
0.00168686 4.24959e-05 -2.84916e-07
4.24959e-05 4.56786e-05 6.47937e-07
-2.84916e-07 6.47937e-07 -4.41041e-05
0.00182055 0.000117177 -3.6558e-06
0.000117177 0.000119621 -9.55881e-07
-3.6558e-06 -9.55881e-07 2.64367e-05
0.00180431 8.21556e-05 1.54068e-06
8.21556e-05 8.75619e-05 5.0078e-08
1.54068e-06 5.0078e-08 1.38963e-05
0.00163734 0.000158512 -1.68791e-06
0.000158512 7.29529e-05 -2.55646e-06
-1.68791e-06 -2.55646e-06 -4.63905e-05
0.00188162 0.000158993 1.58208e-06
0.000158993 0.000138777 3.80987e-08
1.58208e-06 3.80987e-08 5.12671e-05
0.0014008 -9.89231e-06 -5.52018e-06
-9.89231e-06 6.21808e-05 2.73105e-07
-5.52018e-06 2.73105e-07 -6.09427e-05
0.00171011 -7.64411e-05 -6.91427e-06
-7.64411e-05 0.000249661 6.45848e-07
-6.91427e-06 6.45848e-07 0.000124317
0.00163772 -4.38681e-05 8.46418e-07
-4.38681e-05 8.87992e-05 -7.20025e-07
8.46418e-07 -7.20025e-07 -1.83675e-05
0.00166485 -0.000119249 -6.45259e-07
-0.000119249 0.000128114 -2.5381e-07
-6.45259e-07 -2.5381e-07 1.18157e-06
0.000883688 -0.000130793 -4.97836e-06
-0.000130793 0.000149158 4.46343e-06
-4.97836e-06 4.46343e-06 2.40149e-05
0.0011696 -0.000205523 -3.57507e-06
-0.000205523 0.000234781 4.1831e-06
-3.57507e-06 4.1831e-06 5.85201e-05
0.000786827 -0.000206252 -3.06865e-06
-0.000206252 -0.000139416 5.58321e-07
-3.06865e-06 5.58321e-07 -0.000339131
0.00161246 -0.000181797 -1.8138e-06
-0.000181797 0.000162091 -2.94236e-08
-1.8138e-06 -2.94236e-08 1.55924e-05
0.00178321 -0.000171749 3.26828e-06
-0.000171749 0.000161681 -2.02041e-06
3.26828e-06 -2.02041e-06 5.44157e-05
0.00165438 -0.000230323 1.67032e-06
-0.000230323 0.000145969 -1.42793e-06
1.67032e-06 -1.42793e-06 -1.0881e-06
0.00160564 -0.000274353 -1.42556e-06
-0.000274353 0.000194489 -1.43188e-06
-1.42556e-06 -1.43188e-06 -3.73561e-06
0.00198354 -0.000277871 4.7853e-06
-0.000277871 0.000325685 -6.18845e-06
4.7853e-06 -6.18845e-06 0.00017561
0.000929288 -0.000137753 -1.59452e-06
-0.000137753 0.00016796 8.3574e-08
-1.59452e-06 8.3574e-08 2.75787e-05
0.000771489 -0.000129761 -1.39741e-06
-0.000129761 8.48936e-05 -1.292e-06
-1.39741e-06 -1.292e-06 -6.30537e-05
0.00071266 -1.86708e-05 -1.52911e-06
-1.86708e-05 5.70585e-05 3.21563e-06
-1.52911e-06 3.21563e-06 -1.83041e-05
0.000473295 -1.45249e-06 -3.39703e-08
-1.45249e-06 -6.76799e-05 1.19404e-07
-3.39703e-08 1.19404e-07 -0.000185078
0.00165727 -2.67104e-05 -6.67634e-09
-2.67104e-05 9.60333e-05 5.82907e-08
-6.67634e-09 5.82907e-08 -1.41316e-05
0.00175719 -8.18797e-05 -2.12894e-07
-8.18797e-05 0.000162302 -1.58418e-07
-2.12894e-07 -1.58418e-07 4.47111e-05
0.00169282 -6.05608e-05 1.2821e-06
-6.05608e-05 5.09723e-05 -3.18704e-07
1.2821e-06 -3.18704e-07 -4.34525e-05
0.0016933 -0.000146735 -1.25479e-06
-0.000146735 7.90059e-05 5.80746e-07
-1.25479e-06 5.80746e-07 -2.08756e-05
0.000962118 -0.00016398 -3.66804e-07
-0.00016398 0.000167695 9.87818e-07
-3.66804e-07 9.87818e-07 1.60419e-05
0.000669648 -0.000187084 1.29728e-06
-0.000187084 -8.06066e-05 -2.08701e-06
1.29728e-06 -2.08701e-06 -0.000274137
0.00162709 -0.000299247 -5.64024e-08
-0.000299247 0.000278691 7.70615e-07
-5.64024e-08 7.70615e-07 5.09124e-05
0.00164375 -0.00020073 -1.38566e-06
-0.00020073 0.000107943 6.64464e-07
-1.38566e-06 6.64464e-07 -2.26307e-05
0.00172917 -0.000171579 2.02184e-06
-0.000171579 9.18825e-05 -1.07424e-06
2.02184e-06 -1.07424e-06 3.68847e-07
0.0016927 -0.00029354 -7.19981e-07
-0.00029354 0.000201082 1.07864e-06
-7.19981e-07 1.07864e-06 5.9126e-06
0.00166431 -0.000249795 -3.59239e-07
-0.000249795 0.000108283 9.42922e-07
-3.59239e-07 9.42922e-07 -1.95423e-05
0.0017993 -0.000267919 3.02316e-06
-0.000267919 0.000187859 -4.45297e-06
3.02316e-06 -4.45297e-06 4.49483e-05
0.00101353 -0.000188059 2.88619e-07
-0.000188059 0.000204953 8.10051e-07
2.88619e-07 8.10051e-07 4.73715e-05
0.00113545 -0.000192648 1.92089e-06
-0.000192648 0.000286015 7.70951e-07
1.92089e-06 7.70951e-07 0.000131385
0.000817405 -9.44276e-05 -4.07452e-07
-9.44276e-05 0.000141982 1.98385e-07
-4.07452e-07 1.98385e-07 -7.57425e-06
0.000520725 3.17158e-06 -9.24392e-07
3.17158e-06 -5.39534e-05 1.9442e-07
-9.24392e-07 1.9442e-07 -0.000122165
0.000494893 7.74495e-06 -1.84967e-07
7.74495e-06 -4.50375e-05 -7.28976e-07
-1.84967e-07 -7.28976e-07 -0.000158028
0.00178124 -3.81042e-05 1.33204e-07
-3.81042e-05 9.5856e-05 -3.95623e-07
1.33204e-07 -3.95623e-07 5.91704e-06
0.00178548 -8.79343e-05 6.37938e-07
-8.79343e-05 9.74356e-05 3.82944e-07
6.37938e-07 3.82944e-07 9.3328e-06
0.00185709 -0.0001714 -1.03045e-06
-0.0001714 0.000136483 -5.62633e-07
-1.03045e-06 -5.62633e-07 5.62616e-05
0.00156187 -0.000199304 -1.06704e-06
-0.000199304 1.54522e-05 8.49651e-07
-1.06704e-06 8.49651e-07 -8.61565e-05
0.000973907 -0.000192585 -9.16589e-07
-0.000192585 0.00016836 -1.38918e-06
-9.16589e-07 -1.38918e-06 -3.90054e-06
0.00213948 -0.00029142 -3.32402e-06
-0.00029142 0.000329381 1.60058e-06
-3.32402e-06 1.60058e-06 0.000207461
0.000248884 -0.000174778 1.05222e-06
-0.000174778 -0.0003558 -5.95864e-06
1.05222e-06 -5.95864e-06 -0.000565795
0.00182891 -0.000340415 3.78617e-06
-0.000340415 0.000345372 1.81396e-06
3.78617e-06 1.81396e-06 0.000104452
0.00155647 -0.000290738 1.0158e-06
-0.000290738 8.59787e-05 4.17032e-06
1.0158e-06 4.17032e-06 -0.000102099
0.000328761 1.52128e-05 8.58504e-07
1.52128e-05 -0.00016517 -3.61637e-06
8.58504e-07 -3.61637e-06 -0.000226515
0.000779675 -2.41445e-05 1.03341e-06
-2.41445e-05 0.000124735 -1.42676e-06
1.03341e-06 -1.42676e-06 1.94005e-05
0.000931933 -6.01316e-05 -3.79712e-07
-6.01316e-05 0.000205459 -5.87539e-07
-3.79712e-07 -5.87539e-07 7.32495e-05
0.00107054 -0.000199428 -3.23823e-06
-0.000199428 0.000222936 2.35088e-06
-3.23823e-06 2.35088e-06 6.55577e-05
0.000723286 -0.00011756 3.0082e-06
-0.00011756 7.86808e-05 2.79806e-06
3.0082e-06 2.79806e-06 -8.39484e-05
0.000613299 -0.000166672 4.25177e-07
-0.000166672 -4.33272e-05 1.49508e-06
4.25177e-07 1.49508e-06 -0.000193681
0.000584885 -4.90509e-05 -1.15881e-06
-4.90509e-05 -2.92986e-05 -4.21055e-06
-1.15881e-06 -4.21055e-06 -4.77766e-05
0.000618834 -3.78729e-05 -1.84789e-06
-3.78729e-05 -1.68111e-06 -2.03144e-06
-1.84789e-06 -2.03144e-06 -5.56754e-05
0.00159367 0.000193387 -9.45442e-07
0.000193387 0.000124605 2.74521e-08
-9.45442e-07 2.74521e-08 -3.10563e-05
0.000628182 -6.46235e-05 1.40043e-06
-6.46235e-05 3.16541e-05 -1.77597e-06
1.40043e-06 -1.77597e-06 -6.73506e-05
0.000808391 0.000109845 -8.83194e-07
0.000109845 0.00011051 -7.80114e-07
-8.83194e-07 -7.80114e-07 -2.97014e-05
0.000525476 5.10052e-05 1.79125e-06
5.10052e-05 -2.91199e-05 -2.48014e-07
1.79125e-06 -2.48014e-07 -0.000168442
0.00154642 0.000239513 -1.22875e-06
0.000239513 0.000186712 -3.6023e-07
-1.22875e-06 -3.6023e-07 9.61054e-06
0.00159582 0.000254929 9.98918e-07
0.000254929 0.000116609 6.17914e-07
9.98918e-07 6.17914e-07 -4.88279e-05
0.00101543 0.000196979 -2.79304e-08
0.000196979 0.000208821 -1.42448e-06
-2.79304e-08 -1.42448e-06 -5.21384e-06
0.00122883 0.000245908 -1.98496e-06
0.000245908 0.000127024 -5.94998e-07
-1.98496e-06 -5.94998e-07 -8.72399e-05
0.00180317 0.000289006 -4.21723e-06
0.000289006 0.000333707 -1.2804e-06
-4.21723e-06 -1.2804e-06 0.000145806
0.000664714 -2.21582e-05 -2.47866e-07
-2.21582e-05 1.49564e-05 7.51543e-08
-2.47866e-07 7.51543e-08 -3.29576e-05
0.00071756 -1.62524e-05 -8.75391e-07
-1.62524e-05 7.23366e-05 3.52117e-07
-8.75391e-07 3.52117e-07 -1.15945e-05
0.000980247 0.000181854 -8.2734e-07
0.000181854 0.000211687 -2.76096e-07
-8.2734e-07 -2.76096e-07 3.71788e-05
0.000783569 3.42499e-06 1.02134e-07
3.42499e-06 0.0001248 1.4673e-07
1.02134e-07 1.4673e-07 5.73121e-06
0.000966845 0.000119701 4.45681e-07
0.000119701 0.000220242 3.63368e-07
4.45681e-07 3.63368e-07 6.27623e-05
0.00166517 0.000205948 -1.73375e-06
0.000205948 0.00012424 -1.25402e-06
-1.73375e-06 -1.25402e-06 -1.79292e-05
0.00162677 0.000281881 1.31959e-06
0.000281881 0.000177815 3.53126e-07
1.31959e-06 3.53126e-07 -3.75781e-06
0.00163433 0.000280127 5.08482e-07
0.000280127 0.000104895 1.79473e-07
5.08482e-07 1.79473e-07 -5.41486e-05
0.000714041 0.000189311 2.95149e-07
0.000189311 -5.21809e-06 3.56263e-06
2.95149e-07 3.56263e-06 -0.000236949
0.00161756 0.000298824 -1.65452e-06
0.000298824 0.000253355 -6.72718e-07
-1.65452e-06 -6.72718e-07 4.29803e-05
0.000775791 2.33582e-05 9.56868e-07
2.33582e-05 9.63491e-05 1.43797e-06
9.56868e-07 1.43797e-06 2.11548e-05
0.000555879 -1.99178e-05 -8.85268e-07
-1.99178e-05 -1.2846e-05 2.48378e-06
-8.85268e-07 2.48378e-06 -0.000112182
0.000953448 0.000188991 -2.88946e-06
0.000188991 0.000175267 -8.11369e-07
-2.88946e-06 -8.11369e-07 -1.44756e-05
0.000835944 7.02353e-05 -2.86176e-06
7.02353e-05 0.000172846 -1.86983e-06
-2.86176e-06 -1.86983e-06 2.10146e-05
0.000876462 0.000172825 -1.16474e-06
0.000172825 0.000142716 -1.74364e-06
-1.16474e-06 -1.74364e-06 -2.04496e-05
0.00158094 0.000221002 -5.04264e-07
0.000221002 7.83896e-07 -2.62033e-06
-5.04264e-07 -2.62033e-06 -0.000116547
0.00185961 0.000326094 2.17576e-06
0.000326094 0.00028385 -1.81622e-06
2.17576e-06 -1.81622e-06 9.29746e-05
0.00150313 0.000286019 2.42515e-06
0.000286019 1.845e-05 7.69408e-08
2.42515e-06 7.69408e-08 -0.000141908
0.00175972 0.000284725 3.84419e-06
0.000284725 0.000514195 6.80503e-06
3.84419e-06 6.80503e-06 0.000263921
0.00168592 0.000321634 -3.40632e-07
0.000321634 0.000266492 -1.04007e-06
-3.40632e-07 -1.04007e-06 4.93699e-05
0.000658586 -2.90633e-05 -1.44314e-06
-2.90633e-05 8.72741e-06 -2.09721e-06
-1.44314e-06 -2.09721e-06 -3.75359e-05
0.00065366 1.32472e-05 6.8082e-07
1.32472e-05 2.00376e-05 3.87587e-07
6.8082e-07 3.87587e-07 -5.01008e-05
0.000595491 -1.26141e-05 -1.59789e-07
-1.26141e-05 -6.71978e-06 6.62106e-07
-1.59789e-07 6.62106e-07 -8.58396e-05
0.000513254 -3.64395e-05 -7.84883e-07
-3.64395e-05 -5.97625e-05 -1.03291e-06
-7.84883e-07 -1.03291e-06 -0.000128925
0.000701387 2.06291e-05 -1.31877e-07
2.06291e-05 5.25977e-05 2.93758e-08
-1.31877e-07 2.93758e-08 -1.77806e-05
0.00072728 2.47256e-05 -1.13416e-07
2.47256e-05 6.992e-05 -3.63005e-07
-1.13416e-07 -3.63005e-07 -1.01471e-05
0.00083687 5.30336e-05 -4.9405e-07
5.30336e-05 0.000141992 -9.8169e-07
-4.9405e-07 -9.8169e-07 5.27285e-05
0.0006003 -2.30322e-05 7.30373e-07
-2.30322e-05 6.50522e-06 3.55191e-07
7.30373e-07 3.55191e-07 -8.12236e-05
0.000723027 3.86531e-05 7.25589e-07
3.86531e-05 6.16319e-05 1.13378e-06
7.25589e-07 1.13378e-06 -6.07369e-06
0.000673277 1.76738e-05 1.52388e-06
1.76738e-05 1.82151e-05 2.06833e-06
1.52388e-06 2.06833e-06 -2.65533e-05
0.000675037 -5.80371e-06 -6.97861e-07
-5.80371e-06 1.61379e-05 1.59514e-08
-6.97861e-07 1.59514e-08 -2.79207e-05
0.00126489 -2.85229e-05 8.25974e-07
-2.85229e-05 0.000345015 2.3635e-06
8.25974e-07 2.3635e-06 0.000337023
0.000659584 -3.40051e-05 -5.89306e-07
-3.40051e-05 7.39969e-06 -2.06597e-06
-5.89306e-07 -2.06597e-06 -3.73249e-05
0.00129399 -3.66851e-05 -4.3072e-06
-3.66851e-05 0.000365104 -1.38826e-06
-4.3072e-06 -1.38826e-06 0.000356414
0.000894913 -3.04447e-05 1.84754e-05
-3.04447e-05 0.000139659 7.46514e-06
1.84754e-05 7.46514e-06 0.00014784
0.0013186 -4.51291e-05 -8.3089e-06
-4.51291e-05 0.00038401 -5.18832e-06
-8.3089e-06 -5.18832e-06 0.000374006
0.000832253 -3.78926e-05 6.99308e-06
-3.78926e-05 0.000109052 2.78705e-06
6.99308e-06 2.78705e-06 0.000115507
0.00216398 -7.81069e-05 -5.46331e-06
-7.81069e-05 0.000894954 -1.77755e-06
-5.46331e-06 -1.77755e-06 0.00090457
0.0005634 4.09646e-05 2.02569e-07
4.09646e-05 -4.2338e-05 -4.13514e-06
2.02569e-07 -4.13514e-06 -6.1844e-05
0.000556236 4.79418e-05 4.3367e-09
4.79418e-05 -3.67986e-05 9.55789e-08
4.3367e-09 9.55789e-08 -6.26189e-05
0.00248622 8.86957e-05 2.92769e-05
8.86957e-05 0.00109133 -3.70848e-06
2.92769e-05 -3.70848e-06 0.00109696
0.000593574 3.15874e-05 -2.44591e-06
3.15874e-05 -1.15969e-05 5.7472e-06
-2.44591e-06 5.7472e-06 -4.09061e-05
0.00273254 0.000101987 -4.93926e-06
0.000101987 0.00124049 -3.26117e-07
-4.93926e-06 -3.26117e-07 0.00124286
0.00303362 0.000100139 -7.20113e-05
0.000100139 0.00141786 3.43978e-06
-7.20113e-05 3.43978e-06 0.00142055
0.00159752 0.000154477 -1.34803e-06
0.000154477 0.000103925 6.59954e-07
-1.34803e-06 6.59954e-07 -3.74161e-05
0.00169072 0.000100082 9.93045e-07
0.000100082 0.000115343 9.31523e-07
9.93045e-07 9.31523e-07 -5.34784e-06
0.00171613 0.000144089 2.50946e-06
0.000144089 7.88321e-05 2.22038e-06
2.50946e-06 2.22038e-06 -2.27685e-05
0.00183161 7.78507e-05 3.23586e-06
7.78507e-05 0.000117743 8.02443e-07
3.23586e-06 8.02443e-07 3.09873e-05
0.00172859 2.33573e-05 -7.20355e-07
2.33573e-05 0.000121172 1.67083e-08
-7.20355e-07 1.67083e-08 1.41358e-05
0.00138513 1.29131e-05 -3.37098e-06
1.29131e-05 4.99407e-05 5.36386e-08
-3.37098e-06 5.36386e-08 -7.35703e-05
0.00167613 2.225e-06 -8.83123e-07
2.225e-06 9.97659e-05 -4.12361e-08
-8.83123e-07 -4.12361e-08 -8.75372e-06
0.00170263 3.77732e-05 1.06942e-06
3.77732e-05 5.80337e-05 -6.26858e-08
1.06942e-06 -6.26858e-08 -3.33651e-05
0.00178978 0.000115469 -1.24814e-06
0.000115469 0.000101832 -3.98362e-07
-1.24814e-06 -3.98362e-07 7.34947e-06
0.00176074 8.12014e-05 2.09208e-06
8.12014e-05 6.2379e-05 4.79935e-07
2.09208e-06 4.79935e-07 -8.05629e-06
0.00165304 0.000157282 -7.34901e-07
0.000157282 8.81552e-05 -1.82951e-07
-7.34901e-07 -1.82951e-07 -3.11462e-05
0.00180451 0.000160077 3.44097e-06
0.000160077 9.31391e-05 1.1566e-06
3.44097e-06 1.1566e-06 8.62406e-06
0.00173977 -3.20166e-06 -8.47856e-07
-3.20166e-06 8.89984e-05 2.39742e-07
-8.47856e-07 2.39742e-07 -2.6489e-06
0.00172735 4.53191e-05 1.59876e-06
4.53191e-05 4.18743e-05 5.31476e-07
1.59876e-06 5.31476e-07 -2.49365e-05
0.00184052 0.000116876 1.2229e-06
0.000116876 9.14642e-05 -3.30211e-07
1.2229e-06 -3.30211e-07 1.97214e-05
0.00184311 0.0001938 -2.47791e-07
0.0001938 0.000122817 -1.36052e-06
-2.47791e-07 -1.36052e-06 3.23014e-05
0.00164681 -2.64583e-05 3.03224e-07
-2.64583e-05 9.08234e-05 8.23519e-08
3.03224e-07 8.23519e-08 -1.94427e-05
0.00167187 -8.2825e-05 7.54965e-07
-8.2825e-05 0.000113465 -1.0449e-06
7.54965e-07 -1.0449e-06 -6.03467e-06
0.00176924 -6.06697e-05 3.01891e-06
-6.06697e-05 9.6013e-05 -5.88116e-07
3.01891e-06 -5.88116e-07 3.72698e-06
0.0016301 -0.000143529 3.08857e-07
-0.000143529 5.02409e-05 -3.16059e-07
3.08857e-07 -3.16059e-07 -5.15281e-05
0.00113374 -0.000177464 -1.66608e-06
-0.000177464 0.000266333 2.772e-06
-1.66608e-06 2.772e-06 0.000111741
0.000946719 -0.000206909 5.85161e-07
-0.000206909 8.06989e-05 2.18222e-06
5.85161e-07 2.18222e-06 -0.000112505
0.00136791 -0.000280149 -3.07446e-06
-0.000280149 0.000127752 1.16227e-06
-3.07446e-06 1.16227e-06 -9.95339e-05
0.0015855 -0.000197977 1.20139e-07
-0.000197977 7.97608e-05 -7.65696e-07
1.20139e-07 -7.65696e-07 -5.39181e-05
0.00165309 -0.000171829 3.73392e-06
-0.000171829 4.39795e-05 -2.5985e-06
3.73392e-06 -2.5985e-06 -4.44713e-05
0.00171189 -0.000251765 3.217e-06
-0.000251765 0.000136611 -1.03078e-06
3.217e-06 -1.03078e-06 8.60417e-06
0.00166893 -0.00029382 -1.23466e-06
-0.00029382 0.000188975 -3.34255e-06
-1.23466e-06 -3.34255e-06 -7.08665e-06
0.00169368 -0.000263107 2.90772e-06
-0.000263107 0.000119231 -1.03213e-05
2.90772e-06 -1.03213e-05 -2.02357e-05
0.00116805 -0.000201486 7.60356e-07
-0.000201486 0.000292369 -4.46317e-08
7.60356e-07 -4.46317e-08 0.000132484
0.00104804 -0.000185686 1.28924e-06
-0.000185686 0.000229705 -3.81263e-06
1.28924e-06 -3.81263e-06 7.84118e-05
0.000791481 -7.51906e-05 -7.82112e-08
-7.51906e-05 0.000122606 -2.19662e-07
-7.82112e-08 -2.19662e-07 -2.49603e-05
0.0004126 1.48197e-05 -1.63718e-06
1.48197e-05 -0.000115511 2.88027e-06
-1.63718e-06 2.88027e-06 -0.000185575
0.000479836 3.35556e-05 5.05663e-07
3.35556e-05 -5.53785e-05 6.87314e-07
5.05663e-07 6.87314e-07 -0.000165266
0.00183814 -4.18022e-05 3.62386e-07
-4.18022e-05 0.000130574 -8.42031e-08
3.62386e-07 -8.42031e-08 4.03849e-05
0.00181772 -9.15253e-05 7.88675e-07
-9.15253e-05 0.000115338 -5.64926e-07
7.88675e-07 -5.64926e-07 2.61197e-05
0.00177833 -0.000166523 -1.72293e-06
-0.000166523 9.45197e-05 1.0234e-07
-1.72293e-06 1.0234e-07 1.24934e-05
0.00108086 -0.000200399 -1.68658e-07
-0.000200399 0.000226924 1.17762e-06
-1.68658e-07 1.17762e-06 5.34806e-05
0.000970277 -0.000229566 2.0095e-06
-0.000229566 5.0329e-05 -3.21229e-06
2.0095e-06 -3.21229e-06 -0.000163746
0.00165747 -0.000329123 -4.89553e-07
-0.000329123 0.000250537 8.92316e-07
-4.89553e-07 8.92316e-07 7.76662e-06
0.00159622 -0.000200501 3.54093e-07
-0.000200501 3.12438e-05 -2.12631e-07
3.54093e-07 -2.12631e-07 -7.08489e-05
0.00161196 -0.000290644 8.84808e-07
-0.000290644 0.000119427 -2.49835e-06
8.84808e-07 -2.49835e-06 -6.29332e-05
0.0018182 -0.000274297 -4.85947e-07
-0.000274297 0.000154729 -1.04461e-06
-4.85947e-07 -1.04461e-06 3.25488e-05
0.000361121 2.35452e-05 1.35086e-07
2.35452e-05 -0.000148846 -8.07682e-07
1.35086e-07 -8.07682e-07 -0.000208025
0.00112329 -0.000202771 -2.66893e-07
-0.000202771 0.000247361 8.46204e-07
-2.66893e-07 8.46204e-07 9.00701e-05
0.000693395 -0.000170883 -5.75244e-07
-0.000170883 1.06282e-05 2.25606e-07
-5.75244e-07 2.25606e-07 -0.000135009
0.000955038 -0.000138287 -4.59794e-07
-0.000138287 0.000214904 4.02573e-07
-4.59794e-07 4.02573e-07 4.58196e-05
0.00101206 -5.97705e-05 -7.47955e-08
-5.97705e-05 0.000251862 -2.08189e-07
-7.47955e-08 -2.08189e-07 0.000120065
0.000656172 6.10672e-06 -3.65654e-07
6.10672e-06 4.85974e-05 3.60734e-07
-3.65654e-07 3.60734e-07 -5.44077e-05
0.00154289 -4.76661e-05 -6.09674e-07
-4.76661e-05 -5.85618e-05 7.86128e-08
-6.09674e-07 7.86128e-08 -0.000136718
0.00196364 -0.000128119 1.2166e-06
-0.000128119 0.000140724 -1.64163e-07
1.2166e-06 -1.64163e-07 7.54272e-05
0.00157781 -0.000190046 4.79619e-07
-0.000190046 -3.306e-05 -3.16862e-07
4.79619e-07 -3.16862e-07 -0.000111647
0.00197425 -0.000252054 -1.50158e-06
-0.000252054 0.00017409 -8.68989e-07
-1.50158e-06 -8.68989e-07 7.93212e-05
0.00113822 -0.000217683 -2.62927e-06
-0.000217683 0.000235643 -1.43286e-06
-2.62927e-06 -1.43286e-06 5.24049e-05
0.00180068 -0.00030577 1.15024e-06
-0.00030577 0.000164652 4.31577e-06
1.15024e-06 4.31577e-06 1.46675e-05
0.00124255 -0.00028813 -8.50946e-07
-0.00028813 0.000133692 -2.53524e-06
-8.50946e-07 -2.53524e-06 -0.00012547
0.00161456 -0.000342077 -1.99547e-07
-0.000342077 0.000206072 4.0591e-06
-1.99547e-07 4.0591e-06 -4.62645e-05
0.000346512 4.37747e-05 -1.11891e-06
4.37747e-05 -0.000161994 -2.80828e-06
-1.11891e-06 -2.80828e-06 -0.000213235
0.000785509 -6.94853e-06 6.95116e-07
-6.94853e-06 0.000120583 -1.34015e-06
6.95116e-07 -1.34015e-06 2.88776e-05
0.000983272 -8.38758e-05 -4.19677e-07
-8.38758e-05 0.000240112 6.10706e-07
-4.19677e-07 6.10706e-07 0.000118823
0.000867048 -2.08768e-05 -7.79238e-07
-2.08768e-05 0.000169394 4.89667e-07
-7.79238e-07 4.89667e-07 1.38333e-05
0.000780917 -0.000189431 -1.33038e-06
-0.000189431 2.87866e-05 9.08469e-08
-1.33038e-06 9.08469e-08 -0.000126953
0.000934869 -0.000189885 -4.25776e-06
-0.000189885 0.000152919 2.40573e-06
-4.25776e-06 2.40573e-06 -1.68232e-05
0.00064139 -3.05545e-05 -1.9891e-06
-3.05545e-05 2.49085e-06 -2.02855e-06
-1.9891e-06 -2.02855e-06 -4.57675e-05
0.000637392 -5.52983e-05 8.84328e-08
-5.52983e-05 2.47252e-05 -1.25787e-06
8.84328e-08 -1.25787e-06 -5.65972e-05
0.00166676 0.000208913 -1.46306e-06
0.000208913 0.000123819 4.00253e-08
-1.46306e-06 4.00253e-08 -1.95086e-05
0.00066025 -3.22809e-05 7.43465e-07
-3.22809e-05 5.15212e-05 -9.97791e-07
7.43465e-07 -9.97791e-07 -6.23273e-05
0.000950518 0.000178819 7.9352e-07
0.000178819 0.000196442 -7.97884e-07
7.9352e-07 -7.97884e-07 2.25961e-05
0.00037361 6.81687e-05 2.25548e-06
6.81687e-05 -0.000124918 9.76817e-07
2.25548e-06 9.76817e-07 -0.000273225
0.00161246 0.000279792 -1.16329e-07
0.000279792 0.000166856 2.20002e-07
-1.16329e-07 2.20002e-07 -1.46895e-05
0.00178271 0.00028527 -9.35344e-07
0.00028527 0.000188417 1.32298e-06
-9.35344e-07 1.32298e-06 3.0052e-05
0.000518531 0.000175639 -9.82186e-07
0.000175639 -0.000121766 6.61333e-07
-9.82186e-07 6.61333e-07 -0.000349958
0.00187466 0.000318813 -2.31513e-06
0.000318813 0.000404493 8.61022e-07
-2.31513e-06 8.61022e-07 0.000188358
0.00071384 -1.15974e-06 -7.4172e-07
-1.15974e-06 5.90574e-05 1.50324e-07
-7.4172e-07 1.50324e-07 -1.41058e-05
0.000668841 4.65066e-07 2.96214e-07
4.65066e-07 5.15915e-05 1.0988e-06
2.96214e-07 1.0988e-06 -4.91548e-05
0.00113284 0.000204001 -1.60689e-07
0.000204001 0.000286384 -2.48807e-06
-1.60689e-07 -2.48807e-06 9.24437e-05
0.000553373 7.9505e-06 -5.99966e-07
7.9505e-06 -5.8941e-06 -2.1226e-07
-5.99966e-07 -2.1226e-07 -0.000143836
0.000700738 0.000142851 -1.60992e-06
0.000142851 3.78361e-05 -6.62255e-07
-1.60992e-06 -6.62255e-07 -0.000110206
0.00184937 0.000230808 -2.47408e-06
0.000230808 0.000153176 -1.27133e-06
-2.47408e-06 -1.27133e-06 3.79689e-05
0.00190019 0.000325023 1.22872e-06
0.000325023 0.000308613 -2.07093e-07
1.22872e-06 -2.07093e-07 0.000119489
0.00165028 0.000301287 1.07203e-06
0.000301287 9.63684e-05 1.76172e-06
1.07203e-06 1.76172e-06 -6.60896e-05
0.00140459 0.000259541 2.90172e-06
0.000259541 0.000321762 3.96886e-06
2.90172e-06 3.96886e-06 6.75189e-05
0.00158764 0.000317674 -2.81589e-06
0.000317674 0.00020977 4.35673e-07
-2.81589e-06 4.35673e-07 -9.56984e-06
0.000459346 -2.70255e-05 -3.21787e-07
-2.70255e-05 -7.55853e-05 1.9945e-06
-3.21787e-07 1.9945e-06 -0.000160601
0.000348835 6.77054e-05 -1.82163e-07
6.77054e-05 -0.000108126 1.07811e-06
-1.82163e-07 1.07811e-06 -0.00023731
0.001175 0.000214334 1.36837e-06
0.000214334 0.000274647 3.2192e-06
1.36837e-06 3.2192e-06 6.36392e-05
-0.000386298 5.24189e-05 2.24942e-06
5.24189e-05 -0.000554823 1.42867e-08
2.24942e-06 1.42867e-08 -0.000709885
0.00187973 0.000238106 -3.06205e-06
0.000238106 4.50087e-05 -1.01635e-06
-3.06205e-06 -1.01635e-06 -3.19479e-05
0.00206073 0.000284977 4.43106e-07
0.000284977 0.000265996 -2.85548e-07
4.43106e-07 -2.85548e-07 0.000136156
0.00178335 0.000354504 -1.84554e-06
0.000354504 0.000224689 -3.0833e-06
-1.84554e-06 -3.0833e-06 2.06895e-05
-3.82609e-05 0.000168433 -3.05523e-07
0.000168433 -0.0005686 1.61494e-06
-3.05523e-07 1.61494e-06 -0.000820752
0.000709476 3.64598e-05 -8.58267e-07
3.64598e-05 5.71297e-05 -4.84672e-07
-8.58267e-07 -4.84672e-07 -1.58431e-05
0.000670963 1.59619e-05 -2.03295e-07
1.59619e-05 4.2109e-05 4.10615e-07
-2.03295e-07 4.10615e-07 -4.04469e-05
0.000871315 1.19121e-06 -8.9321e-07
1.19121e-06 0.000159718 -6.96347e-07
-8.9321e-07 -6.96347e-07 7.69157e-05
0.000685816 -1.48325e-05 -1.30663e-06
-1.48325e-05 3.8725e-05 -1.02335e-06
-1.30663e-06 -1.02335e-06 -2.77845e-05
0.000537052 -1.98914e-05 -2.48147e-07
-1.98914e-05 -3.72412e-05 -6.71126e-07
-2.48147e-07 -6.71126e-07 -0.000117829
0.000709565 1.11277e-05 1.92794e-08
1.11277e-05 5.56533e-05 -7.89382e-09
1.92794e-08 -7.89382e-09 -1.3113e-05
0.000697508 5.27705e-05 -4.75596e-07
5.27705e-05 7.01985e-05 -3.16659e-07
-4.75596e-07 -3.16659e-07 -2.33176e-05
0.000666177 7.18725e-06 5.66959e-07
7.18725e-06 4.67427e-05 3.60808e-07
5.66959e-07 3.60808e-07 -4.22506e-05
0.000775275 2.31054e-05 1.00873e-06
2.31054e-05 0.0001047 -3.48316e-08
1.00873e-06 -3.48316e-08 1.62857e-05
0.000737482 -3.07325e-05 1.11242e-06
-3.07325e-05 8.77331e-05 -5.12975e-07
1.11242e-06 -5.12975e-07 -7.34648e-06
0.000587652 3.0943e-05 5.75184e-07
3.0943e-05 -1.44825e-06 1.00326e-06
5.75184e-07 1.00326e-06 -9.10546e-05
0.000697948 5.15253e-05 1.01206e-06
5.15253e-05 5.1117e-05 1.41235e-06
1.01206e-06 1.41235e-06 -1.98564e-05
0.000643143 2.83584e-05 1.05691e-06
2.83584e-05 5.81222e-06 1.94758e-06
1.05691e-06 1.94758e-06 -4.07042e-05
0.000654502 -4.79421e-06 -5.95195e-07
-4.79421e-06 8.10483e-06 1.76077e-08
-5.95195e-07 1.76077e-08 -3.71355e-05
0.00127311 -1.80563e-05 6.4241e-07
-1.80563e-05 0.000347927 2.29566e-06
6.4241e-07 2.29566e-06 0.000340303
0.000656205 -3.03932e-05 -3.15954e-07
-3.03932e-05 6.32212e-06 -2.09997e-06
-3.15954e-07 -2.09997e-06 -3.83514e-05
0.0013018 -2.59005e-05 -3.58208e-06
-2.59005e-05 0.000366568 -1.46022e-06
-3.58208e-06 -1.46022e-06 0.000358612
0.000900272 -2.32577e-05 1.54289e-05
-2.32577e-05 0.00013822 7.78645e-06
1.54289e-05 7.78645e-06 0.000147223
0.0013273 -3.45451e-05 -6.88193e-06
-3.45451e-05 0.000384352 -5.2164e-06
-6.88193e-06 -5.2164e-06 0.000375687
0.000840809 -3.08543e-05 5.66795e-06
-3.08543e-05 0.000107738 2.89462e-06
5.66795e-06 2.89462e-06 0.000115751
0.000776575 -3.71737e-05 -1.65119e-06
-3.71737e-05 7.64396e-05 -1.98652e-06
-1.65119e-06 -1.98652e-06 8.29124e-05
0.000579315 3.44623e-05 4.54101e-07
3.44623e-05 -4.25782e-05 -3.68004e-06
4.54101e-07 -3.68004e-06 -5.70506e-05
0.000576411 4.40146e-05 -9.75287e-08
4.40146e-05 -3.41115e-05 9.88921e-08
-9.75287e-08 9.88921e-08 -5.42669e-05
0.00230814 7.44174e-05 2.33667e-05
7.44174e-05 0.000980225 -3.89265e-06
2.33667e-05 -3.89265e-06 0.000989612
0.000580404 4.05495e-05 -1.592e-06
4.05495e-05 -2.3999e-05 5.07099e-06
-1.592e-06 5.07099e-06 -4.90612e-05
0.00254983 8.9789e-05 -4.63377e-06
8.9789e-05 0.00112845 -3.03502e-07
-4.63377e-06 -3.03502e-07 0.00113383
0.00280624 9.71618e-05 -5.30766e-05
9.71618e-05 0.00128215 3.28865e-06
-5.30766e-05 3.28865e-06 0.00128581
0.00166662 0.000156069 1.0629e-06
0.000156069 0.000102138 2.28455e-06
1.0629e-06 2.28455e-06 -1.71316e-05
0.00176329 0.000113718 4.33159e-07
0.000113718 8.66705e-05 5.09737e-07
4.33159e-07 5.09737e-07 -9.10968e-06
0.00172949 0.000161092 4.25667e-06
0.000161092 4.87983e-05 1.75617e-06
4.25667e-06 1.75617e-06 -3.27333e-05
0.0017161 8.04294e-05 2.69459e-06
8.04294e-05 3.69274e-05 1.10382e-06
2.69459e-06 1.10382e-06 -3.03132e-05
0.00171904 3.38568e-05 2.84576e-06
3.38568e-05 7.07721e-05 -3.12438e-07
2.84576e-06 -3.12438e-07 -2.22856e-05
0.00165708 9.85368e-07 -8.14612e-07
9.85368e-07 8.85663e-05 -3.11166e-08
-8.14612e-07 -3.11166e-08 -2.13594e-05
0.00173828 -3.01308e-07 -2.13265e-07
-3.01308e-07 8.91745e-05 2.89786e-09
-2.13265e-07 2.89786e-09 -2.12753e-06
0.00169185 4.40598e-05 1.90724e-06
4.40598e-05 2.95699e-05 -3.65508e-07
1.90724e-06 -3.65508e-07 -3.90556e-05
0.00182733 0.000120543 3.98059e-07
0.000120543 8.36151e-05 -4.75546e-07
3.98059e-07 -4.75546e-07 1.15753e-05
0.00191843 0.000191622 2.9741e-07
0.000191622 0.000154454 2.82487e-07
2.9741e-07 2.82487e-07 6.55763e-05
0.0016997 -2.01026e-06 -1.65752e-06
-2.01026e-06 3.96406e-05 5.30165e-07
-1.65752e-06 5.30165e-07 -3.27088e-05
0.00196054 8.59751e-05 2.87547e-06
8.59751e-05 0.000105688 2.16377e-07
2.87547e-06 2.16377e-07 5.82707e-05
0.00173752 0.000174117 1.33844e-06
0.000174117 -1.98414e-05 -3.96338e-07
1.33844e-06 -3.96338e-07 -9.01511e-05
0.00189715 -4.53303e-05 1.65481e-06
-4.53303e-05 0.000166343 1.11766e-07
1.65481e-06 1.11766e-07 7.59151e-05
0.00184489 -9.47443e-05 8.59158e-07
-9.47443e-05 0.000130409 -7.33999e-07
8.59158e-07 -7.33999e-07 4.00932e-05
0.00169768 -0.000160951 -7.75338e-07
-0.000160951 5.21466e-05 7.45505e-09
-7.75338e-07 7.45505e-09 -3.16396e-05
0.00119868 -0.000209082 6.0323e-08
-0.000209082 0.000291641 3.92697e-06
6.0323e-08 3.92697e-06 0.000116894
0.00180099 -0.000292998 -1.24298e-06
-0.000292998 0.000517608 2.09812e-06
-1.24298e-06 2.09812e-06 0.000298913
0.00153159 -0.000321366 -3.67514e-06
-0.000321366 0.000180978 1.08209e-07
-3.67514e-06 1.08209e-07 -6.29678e-05
0.001624 -0.00020138 7.6244e-07
-0.00020138 4.37587e-05 -7.60991e-07
7.6244e-07 -7.60991e-07 -5.87536e-05
0.00149583 -0.000259413 3.59932e-07
-0.000259413 -2.33348e-05 -3.18685e-06
3.59932e-07 -3.18685e-06 -0.000146208
0.0016985 -0.0002934 -1.45051e-06
-0.0002934 0.00016754 -8.4687e-06
-1.45051e-06 -8.4687e-06 -9.52785e-06
0.00115485 -0.00020442 1.74793e-06
-0.00020442 0.000259904 6.21645e-08
1.74793e-06 6.21645e-08 0.000102913
0.000692398 -0.000167768 -6.51886e-06
-0.000167768 1.89158e-05 -1.37891e-06
-6.51886e-06 -1.37891e-06 -0.00012097
0.00124298 -0.000162542 -2.61694e-07
-0.000162542 0.000389933 -3.52384e-07
-2.61694e-07 -3.52384e-07 0.000209864
0.000402363 1.89943e-05 -1.63589e-07
1.89943e-05 -0.00012573 1.41949e-06
-1.63589e-07 1.41949e-06 -0.000183935
0.00096483 -5.62351e-05 4.95496e-07
-5.62351e-05 0.000220964 7.00359e-07
4.95496e-07 7.00359e-07 9.32545e-05
0.000542358 3.3153e-05 1.26468e-06
3.3153e-05 -2.30649e-05 1.93663e-06
1.26468e-06 1.93663e-06 -0.00012327
0.00173287 -4.84262e-05 -8.56827e-07
-4.84262e-05 4.76452e-05 1.00599e-07
-8.56827e-07 1.00599e-07 -3.01018e-05
0.0019599 -0.000131276 1.06318e-07
-0.000131276 0.000140185 -9.49178e-08
1.06318e-07 -9.49178e-08 7.34136e-05
0.00164203 -0.00019039 -1.30087e-07
-0.00019039 4.18776e-06 4.08102e-07
-1.30087e-07 4.08102e-07 -7.41961e-05
0.00115982 -0.000217247 -4.01371e-08
-0.000217247 0.000244015 1.97391e-06
-4.01371e-08 1.97391e-06 6.09998e-05
0.00106843 -0.00026905 -1.59154e-06
-0.00026905 4.74133e-05 1.40344e-07
-1.59154e-06 1.40344e-07 -0.000201752
0.00169104 -0.00034568 -3.25662e-06
-0.00034568 0.000247029 6.29097e-09
-3.25662e-06 6.29097e-09 7.13852e-07
0.00192562 -0.000255034 1.01418e-06
-0.000255034 0.000148063 -5.74453e-07
1.01418e-06 -5.74453e-07 5.15621e-05
0.00170044 -0.000303135 1.13406e-06
-0.000303135 0.000101733 -1.76683e-06
1.13406e-06 -1.76683e-06 -4.86291e-05
0.000501445 3.26351e-05 8.02259e-08
3.26351e-05 -7.44512e-05 -8.1656e-07
8.02259e-08 -8.1656e-07 -0.000122541
0.00079094 -5.90102e-06 -4.93601e-07
-5.90102e-06 0.000122677 2.96832e-07
-4.93601e-07 2.96832e-07 3.15071e-05
0.00039901 -0.000156609 -2.67065e-06
-0.000156609 -0.000187487 2.14542e-06
-2.67065e-06 2.14542e-06 -0.000336275
0.00135185 -0.000210958 -7.28953e-08
-0.000210958 0.000401797 -1.38121e-07
-7.28953e-08 -1.38121e-07 0.000234033
0.000928569 -5.10147e-05 -1.26416e-07
-5.10147e-05 0.000210054 -2.4553e-07
-1.26416e-07 -2.4553e-07 5.41588e-05
0.000859245 -5.91572e-05 -3.9891e-07
-5.91572e-05 0.000168438 1.27259e-06
-3.9891e-07 1.27259e-06 4.70492e-05
0.00192848 -7.61256e-05 2.51948e-06
-7.61256e-05 9.40331e-05 2.82296e-07
2.51948e-06 2.82296e-07 4.33044e-05
0.0018598 -0.000183717 2.08287e-07
-0.000183717 3.71822e-05 -1.09139e-06
2.08287e-07 -1.09139e-06 -6.22223e-06
0.00182169 -0.000212777 2.52573e-07
-0.000212777 6.19169e-05 -7.04698e-07
2.52573e-07 -7.04698e-07 -7.94525e-06
0.00208323 -0.000345899 5.59138e-06
-0.000345899 0.000207389 -1.08495e-06
5.59138e-06 -1.08495e-06 8.78043e-05
0.000104717 -0.00015241 -3.48555e-06
-0.00015241 -0.000376467 -2.51314e-06
-3.48555e-06 -2.51314e-06 -0.000568741
0.00173912 -0.000357995 -1.97089e-06
-0.000357995 0.00023819 1.04117e-05
-1.97089e-06 1.04117e-05 1.00318e-05
0.00283962 -0.000444528 1.85569e-06
-0.000444528 0.000995879 -3.50815e-06
1.85569e-06 -3.50815e-06 0.00070145
0.000668354 3.29431e-05 4.49279e-07
3.29431e-05 1.52134e-05 -1.80208e-06
4.49279e-07 -1.80208e-06 -2.59412e-05
0.000714206 -9.00417e-05 2.04861e-06
-9.00417e-05 7.56723e-05 -1.97676e-06
2.04861e-06 -1.97676e-06 -1.21981e-06
0.000504287 2.61317e-05 -6.47308e-07
2.61317e-05 -4.41162e-05 -1.95554e-06
-6.47308e-07 -1.95554e-06 -0.000128375
0.000780291 -3.73882e-05 5.08369e-07
-3.73882e-05 0.000132329 9.41685e-07
5.08369e-07 9.41685e-07 1.79571e-05
0.000649576 -1.02881e-05 1.56605e-06
-1.02881e-05 4.05385e-05 -1.81687e-06
1.56605e-06 -1.81687e-06 -8.52448e-05
0.000187462 -9.6788e-05 1.19887e-06
-9.6788e-05 -0.000199074 1.29169e-06
1.19887e-06 1.29169e-06 -0.000355516
0.000239793 -0.000153425 -6.0828e-07
-0.000153425 -0.000325013 -7.56664e-07
-6.0828e-07 -7.56664e-07 -0.00046565
0.00246248 -0.000304171 -8.54949e-06
-0.000304171 0.00108644 3.08379e-06
-8.54949e-06 3.08379e-06 0.00085677
0.000678699 -2.22116e-05 -1.00775e-06
-2.22116e-05 3.47872e-05 -8.71304e-07
-1.00775e-06 -8.71304e-07 -3.4689e-05
0.000826426 5.84538e-06 1.45582e-07
5.84538e-06 0.000144093 -5.11747e-07
1.45582e-07 -5.11747e-07 4.05453e-05
0.00211897 0.000239718 -7.05255e-07
0.000239718 0.000307842 3.59694e-07
-7.05255e-07 3.59694e-07 0.000194913
0.000728783 3.82132e-05 -2.40111e-07
3.82132e-05 0.000102244 2.54099e-07
-2.40111e-07 2.54099e-07 -4.35259e-05
0.00132084 0.000220409 1.25723e-06
0.000220409 0.00040474 -3.25942e-06
1.25723e-06 -3.25942e-06 0.000204418
0.000508798 0.000111943 5.60127e-07
0.000111943 -7.34327e-05 4.20526e-07
5.60127e-07 4.20526e-07 -0.000206855
0.00190975 0.000321207 -9.75461e-07
0.000321207 0.000316439 5.09934e-07
-9.75461e-07 5.09934e-07 0.000129562
0.00178123 0.000315427 -6.69735e-07
0.000315427 0.000165041 3.83079e-06
-6.69735e-07 3.83079e-06 7.62596e-07
0.000992865 0.000231275 -1.97284e-08
0.000231275 9.6023e-05 -4.64098e-07
-1.97284e-08 -4.64098e-07 -0.000161784
0.0014789 0.000313288 -3.43692e-06
0.000313288 0.000144948 2.72963e-06
-3.43692e-06 2.72963e-06 -7.59993e-05
0.000516587 -4.9977e-06 1.25344e-09
-4.9977e-06 -3.61859e-05 9.163e-07
1.25344e-09 9.163e-07 -0.000126986
0.000500318 7.33144e-05 -6.2663e-07
7.33144e-05 -2.22928e-05 -1.64396e-06
-6.2663e-07 -1.64396e-06 -0.000153173
0.00115825 0.000214735 1.75956e-06
0.000214735 0.00027664 -2.20414e-06
1.75956e-06 -2.20414e-06 6.12937e-05
0.000619235 0.000124362 -1.1684e-06
0.000124362 1.3698e-05 -2.47079e-06
-1.1684e-06 -2.47079e-06 -0.000147244
0.00196338 0.000236092 7.92898e-07
0.000236092 9.01404e-05 -1.1263e-06
7.92898e-07 -1.1263e-06 1.60724e-05
0.00198434 0.000288018 2.63785e-06
0.000288018 0.000227982 7.91148e-07
2.63785e-06 7.91148e-07 9.34893e-05
0.00177796 0.000348074 -1.419e-06
0.000348074 0.000216173 -6.17051e-08
-1.419e-06 -6.17051e-08 1.47503e-05
0.000948841 0.000250926 6.50475e-07
0.000250926 -3.31403e-05 1.36893e-06
6.50475e-07 1.36893e-06 -0.000288171
0.000616333 1.70985e-05 -3.42751e-07
1.70985e-05 1.62717e-05 2.00453e-06
-3.42751e-07 2.00453e-06 -7.56503e-05
0.00195001 0.000186329 -2.25176e-06
0.000186329 5.9298e-05 1.2624e-06
-2.25176e-06 1.2624e-06 1.25408e-05
0.00148628 0.000212858 3.77835e-07
0.000212858 0.000551821 3.41455e-06
3.77835e-07 3.41455e-06 0.000375575
0.0010927 0.000218714 2.12451e-06
0.000218714 0.000213945 4.36418e-06
2.12451e-06 4.36418e-06 -2.87786e-06
0.00235636 0.000284006 -1.35731e-05
0.000284006 0.000337614 -2.43326e-06
-1.35731e-05 -2.43326e-06 0.000250294
0.00119162 0.000327142 -3.08961e-06
0.000327142 -0.000176346 -5.24598e-06
-3.08961e-06 -5.24598e-06 -0.00036168
0.00170815 0.000338571 -2.64814e-06
0.000338571 0.000309777 -4.10458e-07
-2.64814e-06 -4.10458e-07 5.66933e-05
0.000746066 2.70584e-05 -1.40826e-06
2.70584e-05 8.57549e-05 -1.89965e-07
-1.40826e-06 -1.89965e-07 3.53388e-06
0.000752242 1.7045e-05 -6.84249e-07
1.7045e-05 9.48468e-05 -1.88185e-07
-6.84249e-07 -1.88185e-07 1.01742e-05
0.000857022 3.6051e-06 -3.34138e-07
3.6051e-06 0.000166223 6.7171e-07
-3.34138e-07 6.7171e-07 7.84926e-05
0.000678504 -1.43912e-05 -2.93121e-07
-1.43912e-05 3.95051e-05 -1.43648e-06
-2.93121e-07 -1.43648e-06 -3.05573e-05
0.000708006 2.75586e-05 5.11843e-07
2.75586e-05 7.22871e-05 6.61136e-08
5.11843e-07 6.61136e-08 -1.71762e-05
0.000502342 -2.25918e-06 -8.9194e-07
-2.25918e-06 -3.33332e-05 3.54472e-07
-8.9194e-07 3.54472e-07 -0.000129833
0.000685859 -4.08831e-06 -3.30113e-07
-4.08831e-06 4.94308e-05 -4.21243e-08
-3.30113e-07 -4.21243e-08 -2.53372e-05
0.000574735 -2.482e-05 -6.23608e-07
-2.482e-05 -2.71802e-06 3.5994e-07
-6.23608e-07 3.5994e-07 -9.55409e-05
0.000639696 -2.12787e-05 6.6901e-07
-2.12787e-05 2.90113e-05 -2.20107e-07
6.6901e-07 -2.20107e-07 -5.88094e-05
0.000800243 2.34893e-05 3.52352e-07
2.34893e-05 0.00013288 7.86799e-08
3.52352e-07 7.86799e-08 3.14615e-05
0.000935492 9.70402e-06 6.63986e-07
9.70402e-06 0.000179337 -7.88468e-07
6.63986e-07 -7.88468e-07 9.53094e-05
0.0007501 -4.21716e-05 1.19644e-06
-4.21716e-05 8.72388e-05 -3.85917e-07
1.19644e-06 -3.85917e-07 -4.09773e-06
0.000787164 2.31823e-05 5.06791e-07
2.31823e-05 0.000122032 2.51369e-07
5.06791e-07 2.51369e-07 1.80615e-05
0.000681824 2.64406e-05 1.93811e-06
2.64406e-05 5.97754e-05 1.11239e-06
1.93811e-06 1.11239e-06 -4.03477e-05
0.000709886 1.56426e-05 1.20241e-06
1.56426e-05 5.75007e-05 1.53606e-06
1.20241e-06 1.53606e-06 -1.57115e-05
0.000638198 -1.32578e-05 -8.39983e-08
-1.32578e-05 3.42755e-06 1.83066e-06
-8.39983e-08 1.83066e-06 -4.27737e-05
0.000650322 -9.02355e-06 -2.49492e-07
-9.02355e-06 8.66081e-06 4.75685e-08
-2.49492e-07 4.75685e-08 -3.69463e-05
0.00127787 -7.91117e-06 5.16975e-07
-7.91117e-06 0.000350319 2.19681e-06
5.16975e-07 2.19681e-06 0.000342369
0.000666722 -2.13996e-05 3.82044e-07
-2.13996e-05 1.47891e-05 -2.20296e-06
3.82044e-07 -2.20296e-06 -3.01643e-05
0.00130836 -1.57049e-05 -2.68563e-06
-1.57049e-05 0.000368978 -1.5193e-06
-2.68563e-06 -1.5193e-06 0.000361233
0.000895271 -1.59025e-05 1.15488e-05
-1.59025e-05 0.000132013 7.98164e-06
1.15488e-05 7.98164e-06 0.000141573
0.00134081 -2.41209e-05 -4.96148e-06
-2.41209e-05 0.00038944 -5.32519e-06
-4.96148e-06 -5.32519e-06 0.000381337
0.000851275 -2.35913e-05 3.86829e-06
-2.35913e-05 0.000108977 3.00932e-06
3.86829e-06 3.00932e-06 0.00011794
0.000789982 -2.9933e-05 -1.14385e-06
-2.9933e-05 7.75309e-05 -1.97125e-06
-1.14385e-06 -1.97125e-06 8.57268e-05
0.000690597 8.50351e-06 8.10134e-07
8.50351e-06 2.51798e-05 -1.98131e-06
8.10134e-07 -1.98131e-06 -1.28151e-05
0.000595897 2.73346e-05 4.77749e-07
2.73346e-05 -3.99484e-05 -3.68136e-06
4.77749e-07 -3.68136e-06 -5.08664e-05
0.000599476 3.53012e-05 -2.04824e-08
3.53012e-05 -3.07904e-05 7.8565e-08
-2.04824e-08 7.8565e-08 -4.55278e-05
0.00219721 6.0784e-05 1.96118e-05
6.0784e-05 0.000907585 -4.09466e-06
1.96118e-05 -4.09466e-06 0.000920369
0.000598047 4.81199e-05 7.98181e-07
4.81199e-05 -2.04444e-05 4.59443e-06
7.98181e-07 4.59443e-06 -4.15572e-05
0.00238976 7.67782e-05 -3.38129e-06
7.67782e-05 0.00102832 -2.26291e-07
-3.38129e-06 -2.26291e-07 0.00103704
0.00262813 9.059e-05 -3.61502e-05
9.059e-05 0.00117384 3.6046e-06
-3.61502e-05 3.6046e-06 0.00117906
0.00199435 0.000189443 1.04753e-06
0.000189443 0.00018643 2.31301e-06
1.04753e-06 2.31301e-06 9.92026e-05
0.00181913 0.000124267 -1.62612e-07
0.000124267 7.85473e-05 5.77265e-08
-1.62612e-07 5.77265e-08 6.195e-06
0.00164649 4.53601e-05 1.24995e-06
4.53601e-05 1.13117e-05 -7.01995e-07
1.24995e-06 -7.01995e-07 -5.91762e-05
0.00173344 2.764e-06 1.1396e-06
2.764e-06 8.75333e-05 -2.84437e-07
1.1396e-06 -2.84437e-07 -3.41182e-06
0.00174093 1.89881e-06 -9.44997e-07
1.89881e-06 6.04576e-05 1.47487e-07
-9.44997e-07 1.47487e-07 -9.72353e-06
0.00196263 8.15408e-05 2.63314e-07
8.15408e-05 0.00010621 8.45266e-08
2.63314e-07 8.45266e-08 5.8189e-05
0.00181445 0.00017824 -9.32183e-07
0.00017824 2.16913e-05 -2.919e-07
-9.32183e-07 -2.919e-07 -4.81306e-05
0.00186072 4.06638e-06 2.62303e-06
4.06638e-06 3.72187e-05 -8.8931e-08
2.62303e-06 -8.8931e-08 1.31136e-07
0.00198103 0.000115501 2.44154e-06
0.000115501 6.28784e-05 4.693e-07
2.44154e-06 4.693e-07 2.30294e-05
0.00186669 6.31616e-05 -4.06764e-06
6.31616e-05 4.22503e-05 2.00915e-06
-4.06764e-06 2.00915e-06 5.90376e-05
0.00192758 -4.93266e-05 -8.25598e-07
-4.93266e-05 0.000156652 -1.7402e-07
-8.25598e-07 -1.7402e-07 7.93239e-05
0.00194874 -0.00013552 -2.0417e-06
-0.00013552 0.000133908 4.12829e-07
-2.0417e-06 4.12829e-07 6.59064e-05
0.00170673 -0.000191243 -1.59312e-06
-0.000191243 4.0811e-05 8.27221e-07
-1.59312e-06 8.27221e-07 -3.73884e-05
0.00118763 -0.000217776 1.1593e-07
-0.000217776 0.000255452 5.81266e-06
1.1593e-07 5.81266e-06 7.21758e-05
0.000850949 -0.000246663 7.77769e-07
-0.000246663 -6.16754e-05 5.43708e-06
7.77769e-07 5.43708e-06 -0.000302073
0.00173424 -0.000345499 -4.22944e-06
-0.000345499 0.000272886 -3.76912e-06
-4.22944e-06 -3.76912e-06 3.32208e-05
0.00187821 -0.000255773 3.05417e-06
-0.000255773 0.000123062 -6.84307e-07
3.05417e-06 -6.84307e-07 2.5236e-05
0.00158106 -0.00029488 -1.47888e-06
-0.00029488 3.48686e-05 -5.8968e-06
-1.47888e-06 -5.8968e-06 -0.000114784
0.000119232 -0.00013216 -3.6573e-06
-0.00013216 -0.000344228 3.64191e-06
-3.6573e-06 3.64191e-06 -0.000487587
0.00185239 -0.000242598 1.00272e-05
-0.000242598 0.000699047 -3.89425e-06
1.00272e-05 -3.89425e-06 0.000530959
0.000808583 -1.71883e-05 -5.45046e-07
-1.71883e-05 0.00013088 -3.817e-08
-5.45046e-07 -3.817e-08 -1.24977e-05
0.000641066 1.31923e-05 -3.47461e-07
1.31923e-05 4.71878e-06 1.08017e-06
-3.47461e-07 1.08017e-06 -4.06042e-05
0.000825307 1.54851e-05 -3.50536e-07
1.54851e-05 0.000140694 1.68953e-06
-3.50536e-07 1.68953e-06 4.98152e-05
0.000787089 -2.91293e-05 2.33316e-08
-2.91293e-05 0.000126496 2.3499e-06
2.33316e-08 2.3499e-06 4.82358e-06
0.00185622 -7.62207e-05 1.94167e-07
-7.62207e-05 5.28763e-05 5.15894e-08
1.94167e-07 5.15894e-08 3.26585e-06
0.000651585 1.05843e-05 1.06043e-06
1.05843e-05 6.10214e-06 7.66908e-08
1.06043e-06 7.66908e-08 -3.51213e-05
0.000594859 -2.57444e-05 -1.38753e-06
-2.57444e-05 -7.3835e-06 -3.95649e-08
-1.38753e-06 -3.95649e-08 -7.52681e-05
0.00187602 -0.000178579 -1.78444e-07
-0.000178579 5.97965e-05 2.76667e-07
-1.78444e-07 2.76667e-07 1.09777e-05
0.00175089 -0.000211962 -1.70801e-06
-0.000211962 2.01217e-05 5.15022e-07
-1.70801e-06 5.15022e-07 -5.11366e-05
0.000394566 -0.000173401 1.61618e-06
-0.000173401 -0.000199193 3.81044e-06
1.61618e-06 3.81044e-06 -0.000388558
0.00193761 -0.000367852 -3.09763e-06
-0.000367852 0.000502935 8.60948e-07
-3.09763e-06 8.60948e-07 0.000210862
0.00151771 -0.000341062 2.15773e-06
-0.000341062 0.00010338 -1.6169e-06
2.15773e-06 -1.6169e-06 -0.00011783
0.00203763 -0.000342352 2.40101e-06
-0.000342352 0.000194685 -1.07363e-06
2.40101e-06 -1.07363e-06 7.34063e-05
0.000756796 -1.84385e-05 1.01045e-06
-1.84385e-05 0.00010175 -9.42205e-07
1.01045e-06 -9.42205e-07 1.95446e-05
0.000775557 -2.50385e-05 1.63487e-07
-2.50385e-05 0.000129826 1.05927e-06
1.63487e-07 1.05927e-06 1.41336e-05
0.000922765 -0.000191247 -2.33399e-06
-0.000191247 6.40723e-05 -4.97189e-07
-2.33399e-06 -4.97189e-07 -8.40903e-05
0.00148729 -0.000229458 1.10218e-05
-0.000229458 0.000523423 -2.65241e-06
1.10218e-05 -2.65241e-06 0.000331965
0.000525168 -8.13377e-05 -1.96142e-06
-8.13377e-05 -1.75432e-05 9.42789e-08
-1.96142e-06 9.42789e-08 -0.00016969
0.000712461 -8.65226e-06 2.61221e-07
-8.65226e-06 8.28914e-05 -6.91393e-07
2.61221e-07 -6.91393e-07 -4.4376e-05
0.00188056 -8.39917e-05 2.3878e-06
-8.39917e-05 5.21406e-06 -2.38033e-08
2.3878e-06 -2.38033e-08 -3.17193e-05
0.00181395 -0.000186905 7.55662e-07
-0.000186905 -2.39973e-06 -8.46742e-07
7.55662e-07 -8.46742e-07 -1.51482e-05
0.00195359 -0.000315289 -8.83936e-07
-0.000315289 5.6165e-05 -1.58759e-06
-8.83936e-07 -1.58759e-06 -2.08218e-05
0.00161334 -0.000378833 2.44439e-06
-0.000378833 3.60213e-05 1.22781e-06
2.44439e-06 1.22781e-06 -0.000111455
0.000625807 -0.000153945 -7.79102e-06
-0.000153945 -6.86058e-05 -6.44103e-06
-7.79102e-06 -6.44103e-06 -0.000256659
0.00285973 -0.000477305 -5.95213e-06
-0.000477305 0.000970796 5.70444e-06
-5.95213e-06 5.70444e-06 0.000661118
0.000457325 5.6245e-05 -1.12093e-06
5.6245e-05 -7.92034e-05 -2.71455e-06
-1.12093e-06 -2.71455e-06 -0.00015044
0.00071337 -5.4082e-05 2.43781e-06
-5.4082e-05 6.39424e-05 -1.34503e-06
2.43781e-06 -1.34503e-06 -6.98265e-06
0.000937025 -7.21119e-05 1.6352e-06
-7.21119e-05 0.000206505 1.60059e-07
1.6352e-06 1.60059e-07 0.000113871
0.000492294 1.81444e-05 -5.22113e-07
1.81444e-05 -3.46036e-05 9.80574e-07
-5.22113e-07 9.80574e-07 -0.000146943
0.000955026 -4.66373e-05 -2.76146e-08
-4.66373e-05 0.000222417 1.12666e-07
-2.76146e-08 1.12666e-07 0.000108006
0.000961678 -4.71798e-05 2.6172e-06
-4.71798e-05 0.000198019 -3.57646e-07
2.6172e-06 -3.57646e-07 5.85101e-05
-0.000140577 -8.51353e-05 6.24313e-06
-8.51353e-05 -0.000282353 9.82721e-07
6.24313e-06 9.82721e-07 -0.000534304
0.000388765 -0.00020289 -1.58e-05
-0.00020289 -0.000219742 3.36585e-06
-1.58e-05 3.36585e-06 -0.000369151
0.00054032 2.47812e-05 -2.4421e-07
2.47812e-05 -1.89002e-05 -5.98581e-07
-2.4421e-07 -5.98581e-07 -0.000113827
0.000652332 9.16646e-05 -3.43882e-06
9.16646e-05 6.41528e-05 -3.36435e-06
-3.43882e-06 -3.36435e-06 -6.92424e-05
0.00203628 0.000234734 -1.60457e-06
0.000234734 0.00012779 -8.56191e-07
-1.60457e-06 -8.56191e-07 5.65384e-05
0.00190897 0.000291502 9.98314e-08
0.000291502 0.000190294 2.33946e-06
9.98314e-08 2.33946e-06 5.10036e-05
0.00155045 0.000173072 -5.26007e-06
0.000173072 0.000533167 -2.50454e-06
-5.26007e-06 -2.50454e-06 0.000371289
0.00105697 0.000207249 -1.84887e-06
0.000207249 0.000228771 -8.12002e-06
-1.84887e-06 -8.12002e-06 1.11505e-05
0.00179198 0.00034323 1.15288e-06
0.00034323 0.000218161 1.55207e-06
1.15288e-06 1.55207e-06 1.87858e-05
0.00191882 0.000330305 6.47467e-07
0.000330305 0.000496 1.69036e-07
6.47467e-07 1.69036e-07 0.000237107
0.000671242 3.9254e-05 6.59162e-07
3.9254e-05 5.72323e-05 -7.94786e-07
6.59162e-07 -7.94786e-07 -4.25902e-05
0.00190795 0.000179439 2.29599e-07
0.000179439 2.3528e-05 -2.895e-08
2.29599e-07 -2.895e-08 -1.44801e-05
0.000942293 0.000150581 8.15623e-07
0.000150581 0.000237353 1.69994e-06
8.15623e-07 1.69994e-06 7.32989e-05
0.000741602 0.000190851 1.4326e-06
0.000190851 1.51572e-05 -9.76603e-08
1.4326e-06 -9.76603e-08 -0.000201186
0.00214435 0.000275433 2.51294e-06
0.000275433 0.000220586 3.33365e-07
2.51294e-06 3.33365e-07 0.00013321
0.00143409 0.000341155 -6.95974e-07
0.000341155 -4.2944e-05 -2.08024e-06
-6.95974e-07 -2.08024e-06 -0.000227069
0.00206072 0.000367253 -4.14741e-09
0.000367253 0.000519195 1.94575e-07
-4.14741e-09 1.94575e-07 0.000262712
0.00118198 9.87629e-05 -2.40326e-06
9.87629e-05 0.000368955 2.66757e-06
-2.40326e-06 2.66757e-06 0.0002366
0.00233721 0.000193867 -3.14725e-05
0.000193867 0.000308754 -5.85952e-06
-3.14725e-05 -5.85952e-06 0.000303251
0.00237408 0.000318533 -4.03653e-06
0.000318533 0.00101039 3.92463e-07
-4.03653e-06 3.92463e-07 0.000812821
0.0022248 0.000339631 -6.69978e-06
0.000339631 0.000774953 1.58981e-06
-6.69978e-06 1.58981e-06 0.000535655
0.00184151 0.000372704 -1.2481e-05
0.000372704 7.29937e-05 -1.06518e-05
-1.2481e-05 -1.06518e-05 -4.57688e-05
0.00129761 0.000337201 -9.83983e-06
0.000337201 2.88266e-05 -1.38162e-06
-9.83983e-06 -1.38162e-06 -0.000204244
0.000480172 0.000231744 2.07399e-05
0.000231744 -0.000600294 -9.31836e-06
2.07399e-05 -9.31836e-06 -0.000811044
0.000636984 2.90556e-05 3.78925e-07
2.90556e-05 3.47938e-05 -2.4972e-07
3.78925e-07 -2.4972e-07 -5.29582e-05
0.000743478 9.75856e-06 -7.46749e-08
9.75856e-06 0.000108102 6.82425e-07
-7.46749e-08 6.82425e-07 1.86452e-05
0.00113168 2.90993e-05 4.69346e-07
2.90993e-05 0.000312789 -7.02234e-07
4.69346e-07 -7.02234e-07 0.000220061
0.000672049 -5.53425e-05 -1.76425e-07
-5.53425e-05 4.65509e-05 -1.8345e-06
-1.76425e-07 -1.8345e-06 -3.14608e-05
0.000622421 -4.47091e-05 -1.26477e-06
-4.47091e-05 2.16978e-05 8.40624e-08
-1.26477e-06 8.40624e-08 -6.85177e-05
0.000883653 0.000100179 -4.39531e-07
0.000100179 0.000182075 5.11172e-07
-4.39531e-07 5.11172e-07 7.9182e-05
0.000493578 -3.18162e-05 -1.04267e-06
-3.18162e-05 -4.92213e-05 1.07736e-06
-1.04267e-06 1.07736e-06 -0.000139548
0.00068394 -2.40666e-05 7.42259e-09
-2.40666e-05 5.23528e-05 -2.18217e-08
7.42259e-09 -2.18217e-08 -2.70814e-05
0.000668808 2.869e-05 -6.95188e-08
2.869e-05 4.09482e-05 -3.03507e-07
-6.95188e-08 -3.03507e-07 -5.11912e-05
0.000814882 4.90896e-06 -5.69627e-07
4.90896e-06 0.000111769 -3.77632e-07
-5.69627e-07 -3.77632e-07 2.57622e-05
0.000781154 6.41407e-06 3.38155e-07
6.41407e-06 0.000109208 1.65947e-08
3.38155e-07 1.65947e-08 1.19852e-05
0.000808714 -2.03633e-05 -1.05729e-07
-2.03633e-05 0.000119664 -1.17521e-07
-1.05729e-07 -1.17521e-07 2.7454e-05
0.000859286 3.32301e-06 -2.75485e-07
3.32301e-06 0.000130521 -1.33334e-06
-2.75485e-07 -1.33334e-06 4.5752e-05
0.000845749 2.02183e-05 -4.18166e-07
2.02183e-05 0.000134049 -1.47714e-06
-4.18166e-07 -1.47714e-06 3.43143e-05
0.000825925 5.31282e-05 5.70237e-07
5.31282e-05 0.00012686 4.69742e-07
5.70237e-07 4.69742e-07 3.16847e-05
0.000707032 3.43183e-05 3.37993e-07
3.43183e-05 7.30891e-05 1.00338e-06
3.37993e-07 1.00338e-06 -3.22563e-05
0.000556844 -1.68344e-05 -1.80656e-07
-1.68344e-05 -3.35627e-05 1.83567e-06
-1.80656e-07 1.83567e-06 -0.000109153
0.000889918 -1.56422e-05 2.17799e-07
-1.56422e-05 0.000193829 -8.34914e-07
2.17799e-07 -8.34914e-07 8.65623e-05
0.000510978 -3.28179e-06 -5.48425e-07
-3.28179e-06 -5.47304e-05 1.84544e-06
-5.48425e-07 1.84544e-06 -0.000134477
0.000618662 8.96408e-06 -7.29307e-07
8.96408e-06 -5.60528e-06 1.76691e-06
-7.29307e-07 1.76691e-06 -5.35609e-05
0.000630328 1.4309e-05 6.66347e-07
1.4309e-05 1.70668e-07 3.33092e-09
6.66347e-07 3.33092e-09 -4.67628e-05
0.000601458 2.02164e-06 1.60308e-07
2.02164e-06 -4.30553e-05 3.64502e-06
1.60308e-07 3.64502e-06 -5.56356e-05
0.000640147 -3.28204e-06 -8.62064e-07
-3.28204e-06 3.60975e-06 -2.0174e-06
-8.62064e-07 -2.0174e-06 -4.25731e-05
0.000965456 -5.20982e-06 -1.77864e-06
-5.20982e-06 0.00016882 -1.6011e-06
-1.77864e-06 -1.6011e-06 0.00015874
0.00227997 -1.1942e-05 7.36765e-06
-1.1942e-05 0.000937016 5.00144e-06
7.36765e-06 5.00144e-06 0.000954348
0.00134849 -1.41835e-05 -2.88835e-06
-1.41835e-05 0.000392837 -5.27236e-06
-2.88835e-06 -5.27236e-06 0.000384842
0.00085096 -1.59239e-05 2.04378e-06
-1.59239e-05 0.000105201 3.08643e-06
2.04378e-06 3.08643e-06 0.000114884
0.000804329 -2.23262e-05 -5.88194e-07
-2.23262e-05 8.074e-05 -2.00266e-06
-5.88194e-07 -2.00266e-06 8.99862e-05
0.000652752 9.28001e-06 -3.44645e-07
9.28001e-06 5.62938e-06 -1.98735e-06
-3.44645e-07 -1.98735e-06 -3.16176e-05
0.000673095 -3.11454e-06 6.38391e-07
-3.11454e-06 1.60739e-05 -6.62156e-08
6.38391e-07 -6.62156e-08 -2.26098e-05
0.000620773 2.0789e-05 3.884e-07
2.0789e-05 -2.95329e-05 -3.59758e-06
3.884e-07 -3.59758e-06 -3.80406e-05
0.000929544 3.24626e-05 -4.22336e-07
3.24626e-05 0.000154996 4.49921e-08
-4.22336e-07 4.49921e-08 0.000145575
0.00214 4.83091e-05 1.56145e-05
4.83091e-05 0.000867496 -4.25925e-06
1.56145e-05 -4.25925e-06 0.000882883
0.00060792 3.65575e-05 -1.01697e-07
3.65575e-05 -2.55797e-05 3.94869e-06
-1.01697e-07 3.94869e-06 -4.06384e-05
0.00225341 6.29687e-05 -2.74305e-06
6.29687e-05 0.00094122 -1.59365e-07
-2.74305e-06 -1.59365e-07 0.000953377
0.00245939 7.87016e-05 -2.61765e-05
7.87016e-05 0.00106933 3.96033e-06
-2.61765e-05 3.96033e-06 0.00107748
0.00189272 0.000182475 -3.07571e-06
0.000182475 6.39925e-05 -8.4008e-07
-3.07571e-06 -8.4008e-07 -5.40788e-06
0.00195286 7.75408e-05 -1.05483e-06
7.75408e-05 9.9797e-05 -1.64305e-07
-1.05483e-06 -1.64305e-07 5.11848e-05
0.00179399 3.34818e-06 -1.04445e-06
3.34818e-06 8.80524e-05 -4.54254e-07
-1.04445e-06 -4.54254e-07 2.0099e-05
0.00183112 6.09709e-06 5.03847e-08
6.09709e-06 2.4104e-05 -2.43688e-07
5.03847e-08 -2.43688e-07 -1.3579e-05
0.0018997 0.000112876 -6.96298e-08
0.000112876 2.95783e-05 -1.43789e-07
-6.96298e-08 -1.43789e-07 -1.15571e-05
0.00175884 5.83593e-05 2.889e-06
5.83593e-05 -2.66952e-05 4.07916e-07
2.889e-06 4.07916e-07 -1.79881e-05
0.00190691 1.4489e-05 9.24456e-07
1.4489e-05 3.27308e-06 1.15005e-07
9.24456e-07 1.15005e-07 1.53698e-06
0.00266776 0.000215836 2.45497e-05
0.000215836 -3.91599e-05 -2.17306e-06
2.45497e-05 -2.17306e-06 -5.5105e-05
0.00200011 3.02999e-05 -2.57932e-05
3.02999e-05 0.000249082 5.0669e-06
-2.57932e-05 5.0669e-06 0.000290817
0.00067093 6.76407e-05 -6.55553e-07
6.76407e-05 4.36191e-05 -1.24778e-06
-6.55553e-07 -1.24778e-06 -2.23952e-05
0.0017786 -7.60766e-05 -2.59384e-06
-7.60766e-05 9.33615e-06 -2.47223e-07
-2.59384e-06 -2.47223e-07 -3.94457e-05
0.00191495 -0.000173051 -6.09871e-07
-0.000173051 9.68321e-05 1.03377e-06
-6.09871e-07 1.03377e-06 4.20363e-05
0.00168303 -0.00021204 1.09616e-06
-0.00021204 -1.95786e-05 1.29189e-06
1.09616e-06 1.29189e-06 -9.16523e-05
0.000596064 -0.000186391 3.58833e-06
-0.000186391 -7.32014e-05 7.77407e-06
3.58833e-06 7.77407e-06 -0.000258105
0.00111875 -0.000297576 2.10909e-06
-0.000297576 5.82436e-05 5.54669e-06
2.10909e-06 5.54669e-06 -0.000232648
0.00135812 -0.000331757 -4.87667e-07
-0.000331757 -2.57541e-07 -8.55209e-06
-4.87667e-07 -8.55209e-06 -0.000217115
0.00198212 -0.00034094 -5.36237e-06
-0.00034094 0.000175507 -2.94506e-06
-5.36237e-06 -2.94506e-06 5.18912e-05
0.0015866 -0.000231387 9.606e-06
-0.000231387 0.000437965 -3.09993e-06
9.606e-06 -3.09993e-06 0.000282238
0.000469029 -0.000152946 8.18268e-06
-0.000152946 -6.03092e-05 -6.11447e-06
8.18268e-06 -6.11447e-06 -0.00021406
0.000886656 -9.2196e-05 -1.35641e-07
-9.2196e-05 0.00018423 -1.50334e-06
-1.35641e-07 -1.50334e-06 3.17332e-05
0.000649318 -2.66487e-06 -1.17977e-06
-2.66487e-06 4.6851e-06 1.97591e-06
-1.17977e-06 1.97591e-06 -3.60357e-05
0.000815717 -1.17887e-05 4.97865e-07
-1.17887e-05 0.000150146 4.97126e-07
4.97865e-07 4.97126e-07 1.98295e-05
0.000973111 -4.72677e-05 8.55939e-07
-4.72677e-05 0.000231673 2.88839e-07
8.55939e-07 2.88839e-07 0.000148592
0.00077764 -1.82338e-05 -3.75827e-07
-1.82338e-05 0.000128846 4.52978e-07
-3.75827e-07 4.52978e-07 1.34966e-05
0.000467475 -1.80468e-05 -1.45406e-06
-1.80468e-05 -8.59757e-05 1.51972e-06
-1.45406e-06 1.51972e-06 -0.000151131
0.00191549 -9.39647e-05 -1.03049e-07
-9.39647e-05 6.72011e-06 1.0653e-07
-1.03049e-07 1.0653e-07 -1.90989e-05
0.000564594 3.52732e-05 8.111e-08
3.52732e-05 -1.42473e-05 -1.03266e-06
8.111e-08 -1.03266e-06 -8.60357e-05
0.000705326 -5.44333e-05 2.44273e-07
-5.44333e-05 6.61889e-05 3.08426e-07
2.44273e-07 3.08426e-07 -8.95257e-06
0.000799077 -4.08016e-05 -4.03396e-07
-4.08016e-05 0.000129075 7.67362e-07
-4.03396e-07 7.67362e-07 3.37122e-05
0.00180677 -0.000192214 9.64967e-07
-0.000192214 -6.3765e-06 -2.8359e-07
9.64967e-07 -2.8359e-07 -2.37833e-05
0.0019843 -0.000314442 -1.08807e-06
-0.000314442 8.69039e-05 -4.71763e-07
-1.08807e-06 -4.71763e-07 5.55176e-06
0.000956426 -0.00020002 3.07282e-06
-0.00020002 0.000106294 -4.85834e-08
3.07282e-06 -4.85834e-08 -8.00191e-05
0.00189447 -0.000396927 4.00677e-06
-0.000396927 0.00046655 2.69844e-07
4.00677e-06 2.69844e-07 0.0001651
0.00181553 -0.000394738 -9.22458e-08
-0.000394738 0.000156334 1.72969e-06
-9.22458e-08 1.72969e-06 2.30825e-06
0.00058647 -7.63133e-06 -3.1411e-07
-7.63133e-06 2.13909e-05 -7.65218e-08
-3.1411e-07 -7.65218e-08 -8.95872e-05
0.00082442 -5.83142e-05 -1.14979e-06
-5.83142e-05 0.000152854 3.12082e-07
-1.14979e-06 3.12082e-07 3.17488e-05
0.000685387 -0.000226129 -3.90132e-06
-0.000226129 -3.42938e-05 1.18089e-06
-3.90132e-06 1.18089e-06 -0.000205746
0.000539788 -9.06506e-05 -3.19907e-07
-9.06506e-05 6.10133e-05 -9.52143e-07
-3.19907e-07 -9.52143e-07 -0.000162138
0.00076671 -6.56377e-05 -1.1704e-07
-6.56377e-05 8.96492e-05 -2.53285e-07
-1.1704e-07 -2.53285e-07 -4.8111e-05
0.00213017 -0.000183635 -3.10668e-06
-0.000183635 0.000111434 -8.65133e-07
-3.10668e-06 -8.65133e-07 0.000100538
0.00181542 -0.000210747 -6.46359e-06
-0.000210747 -3.88318e-05 1.32305e-06
-6.46359e-06 1.32305e-06 -3.47895e-05
0.00229879 -0.000430692 -4.15708e-06
-0.000430692 0.000275557 -6.21072e-07
-4.15708e-06 -6.21072e-07 0.000149409
0.00299712 -0.000510294 -2.0885e-05
-0.000510294 0.000917321 3.10081e-06
-2.0885e-05 3.10081e-06 0.00070031
0.000951796 -0.000220516 -8.93055e-06
-0.000220516 0.000140332 -3.49065e-06
-8.93055e-06 -3.49065e-06 -8.01634e-05
0.000489184 1.76791e-05 1.34116e-06
1.76791e-05 -5.15609e-05 -2.18772e-06
1.34116e-06 -2.18772e-06 -0.000143371
0.000479129 4.73479e-05 8.59487e-07
4.73479e-05 -6.16442e-05 -3.6949e-07
8.59487e-07 -3.6949e-07 -0.000159706
0.000634556 7.1596e-06 1.02277e-06
7.1596e-06 3.92837e-05 -1.11557e-06
1.02277e-06 -1.11557e-06 -6.73488e-05
0.00116304 -0.000124234 3.52235e-07
-0.000124234 0.000361079 2.13894e-06
3.52235e-07 2.13894e-06 0.000236218
0.000769615 -5.37031e-05 8.27607e-07
-5.37031e-05 0.000101946 2.23673e-06
8.27607e-07 2.23673e-06 -1.414e-05
0.000200677 -5.80803e-05 2.55834e-06
-5.80803e-05 -0.000125495 9.81066e-07
2.55834e-06 9.81066e-07 -0.00034945
0.000586366 -0.000244016 3.84859e-06
-0.000244016 9.00746e-05 -1.84433e-07
3.84859e-06 -1.84433e-07 -0.000186807
0.000751353 7.05205e-05 8.36425e-07
7.05205e-05 0.000114271 -3.77703e-06
8.36425e-07 -3.77703e-06 4.69153e-06
0.000294422 7.05967e-05 3.45797e-07
7.05967e-05 -0.000139267 -1.16331e-06
3.45797e-07 -1.16331e-06 -0.000287339
0.00199058 0.000173868 6.2719e-06
0.000173868 5.89457e-05 -5.23358e-08
6.2719e-06 -5.23358e-08 3.0022e-05
0.00195868 0.00026765 1.01077e-05
0.00026765 0.000119051 1.95124e-06
1.01077e-05 1.95124e-06 3.2182e-05
0.0017541 0.00035877 7.49061e-06
0.00035877 0.000131665 2.60973e-06
7.49061e-06 2.60973e-06 -5.10921e-05
0.000392198 0.000163955 1.20844e-06
0.000163955 -0.000184268 -1.96558e-06
1.20844e-06 -1.96558e-06 -0.000399577
0.00245353 0.000400152 3.45278e-06
0.000400152 0.000748762 1.54471e-06
3.45278e-06 1.54471e-06 0.000490257
0.00124675 8.16644e-05 -1.97905e-07
8.16644e-05 0.000396642 5.65221e-07
-1.97905e-07 5.65221e-07 0.000274076
0.00210883 0.00016907 -2.34003e-06
0.00016907 0.000196813 1.44908e-07
-2.34003e-06 1.44908e-07 0.000199561
0.00146372 0.000227314 -1.51981e-06
0.000227314 0.000493872 -2.7248e-07
-1.51981e-06 -2.7248e-07 0.000313747
0.00158321 0.000287149 -6.67909e-07
0.000287149 0.000438463 1.41165e-06
-6.67909e-07 1.41165e-06 0.000195941
0.00196855 0.000366995 -1.1521e-06
0.000366995 0.00014671 -2.52507e-06
-1.1521e-06 -2.52507e-06 3.17601e-05
0.00154587 0.000362002 -1.62238e-06
0.000362002 0.000164421 3.08685e-06
-1.62238e-06 3.08685e-06 -7.59632e-05
0.00170157 0.000299317 2.6247e-05
0.000299317 -0.000196381 1.04443e-06
2.6247e-05 1.04443e-06 -0.000483958
0.0012098 0.000142326 -3.19536e-06
0.000142326 0.000388966 -8.9211e-07
-3.19536e-06 -8.9211e-07 0.000246918
0.00228336 0.000278723 -3.62177e-05
0.000278723 0.000327219 -1.83183e-05
-3.62177e-05 -1.83183e-05 0.000329302
0.00124401 0.000230351 -5.09767e-06
0.000230351 0.000334254 -5.63952e-07
-5.09767e-06 -5.63952e-07 0.000153058
0.00104703 0.000275352 -3.41292e-06
0.000275352 6.28016e-05 -2.35023e-06
-3.41292e-06 -2.35023e-06 -0.000185576
0.000412993 0.000363066 -1.06588e-05
0.000363066 -0.000572177 -8.43813e-06
-1.06588e-05 -8.43813e-06 -0.000766212
0.00892851 0.000286472 -0.000141032
0.000286472 0.00215133 -3.85021e-05
-0.000141032 -3.85021e-05 0.00120079
0.00494545 0.000584736 0.000122123
0.000584736 0.000715953 -1.1194e-05
0.000122123 -1.1194e-05 0.000195483
0.0013947 0.000429352 2.1294e-05
0.000429352 -4.00524e-06 1.48252e-05
2.1294e-05 1.48252e-05 -0.000180709
-0.00479632 -0.000529679 0.000234316
-0.000529679 -0.00157702 -5.00262e-07
0.000234316 -5.00262e-07 -0.00242863
0.00596576 -0.00155547 -9.03882e-06
-0.00155547 0.00102262 6.94216e-06
-9.03882e-06 6.94216e-06 0.00258303
0.000603549 1.8907e-05 1.53249e-06
1.8907e-05 3.32924e-05 1.46836e-07
1.53249e-06 1.46836e-07 -5.72339e-05
0.000883086 1.13807e-05 6.77089e-07
1.13807e-05 0.000181945 -6.2952e-07
6.77089e-07 -6.2952e-07 8.96292e-05
0.000914771 6.11895e-05 -1.60894e-06
6.11895e-05 0.00018813 -1.80367e-06
-1.60894e-06 -1.80367e-06 9.33976e-05
0.000667521 -5.82495e-05 8.19289e-08
-5.82495e-05 4.94419e-05 -1.55284e-06
8.19289e-08 -1.55284e-06 -3.42093e-05
0.000642972 5.42833e-05 -1.21326e-06
5.42833e-05 2.86547e-05 -1.01429e-06
-1.21326e-06 -1.01429e-06 -6.64096e-05
0.000785768 -3.44419e-05 -3.37508e-08
-3.44419e-05 0.000112888 -2.61441e-07
-3.37508e-08 -2.61441e-07 1.51936e-05
0.000866389 3.55942e-06 -1.47603e-06
3.55942e-06 0.000150621 1.26133e-06
-1.47603e-06 1.26133e-06 5.81244e-05
0.000745255 -4.50189e-06 -7.91946e-07
-4.50189e-06 7.29616e-05 -1.3311e-07
-7.91946e-07 -1.3311e-07 -1.49207e-05
0.000762943 6.45328e-05 -1.12527e-06
6.45328e-05 0.000100558 -3.74359e-07
-1.12527e-06 -3.74359e-07 -2.70154e-06
0.000615468 -7.41882e-06 -6.85351e-08
-7.41882e-06 5.67149e-06 6.9028e-07
-6.85351e-08 6.9028e-07 -7.23259e-05
0.000707756 2.07183e-05 4.60348e-08
2.07183e-05 7.07846e-05 -9.67588e-09
4.60348e-08 -9.67588e-09 -3.24434e-05
0.000798715 5.60851e-06 5.88015e-07
5.60851e-06 9.4986e-05 5.05631e-07
5.88015e-07 5.05631e-07 9.80188e-06
0.000837144 2.45969e-05 -5.27257e-07
2.45969e-05 0.000128206 -2.70748e-07
-5.27257e-07 -2.70748e-07 3.13265e-05
0.000978845 6.51397e-05 -5.22855e-07
6.51397e-05 0.000208963 -7.54829e-07
-5.22855e-07 -7.54829e-07 0.000110967
0.000554174 2.80651e-05 5.11179e-07
2.80651e-05 -3.33608e-05 -1.98371e-06
5.11179e-07 -1.98371e-06 -0.000123264
0.000858859 6.22924e-05 1.59314e-06
6.22924e-05 0.000141744 7.6018e-07
1.59314e-06 7.6018e-07 4.18922e-05
0.000638668 -1.43257e-05 9.29872e-07
-1.43257e-05 1.81522e-05 3.15607e-07
9.29872e-07 3.15607e-07 -7.90804e-05
0.000540863 -4.77422e-05 -1.14956e-06
-4.77422e-05 -3.63878e-05 1.53054e-06
-1.14956e-06 1.53054e-06 -0.000117612
0.000816315 9.57754e-06 -6.70077e-07
9.57754e-06 0.000132565 -1.31915e-07
-6.70077e-07 -1.31915e-07 3.09341e-05
0.000822308 4.75253e-05 7.15246e-08
4.75253e-05 0.000134511 -1.75111e-06
7.15246e-08 -1.75111e-06 3.41878e-05
0.000686818 -7.17124e-06 -8.68173e-07
-7.17124e-06 6.7389e-05 -1.30557e-07
-8.68173e-07 -1.30557e-07 -2.97449e-05
0.000814991 -7.40398e-06 9.99845e-07
-7.40398e-06 0.000136883 -5.22016e-07
9.99845e-07 -5.22016e-07 3.7604e-05
0.000699819 -6.57413e-05 -1.86685e-06
-6.57413e-05 5.53305e-05 1.08718e-06
-1.86685e-06 1.08718e-06 -2.21489e-05
0.000540211 -1.65361e-06 1.33983e-07
-1.65361e-06 -3.49873e-05 7.04945e-07
1.33983e-07 7.04945e-07 -0.000117001
0.000643587 -1.13534e-06 -9.85393e-07
-1.13534e-06 5.17508e-06 1.94331e-06
-9.85393e-07 1.94331e-06 -4.2116e-05
0.000634084 -8.81907e-06 5.6334e-07
-8.81907e-06 2.513e-06 -2.69517e-08
5.6334e-07 -2.69517e-08 -4.50062e-05
0.000626675 7.2562e-06 -3.83665e-07
7.2562e-06 -2.68847e-05 5.25356e-06
-3.83665e-07 5.25356e-06 -4.02323e-05
0.000630753 4.96145e-06 -3.48233e-07
4.96145e-06 -4.14207e-08 -1.86864e-06
-3.48233e-07 -1.86864e-06 -4.65296e-05
0.000609715 2.05256e-06 3.01681e-07
2.05256e-06 -3.81238e-05 -1.58816e-08
3.01681e-07 -1.58816e-08 -5.07779e-05
0.00229618 -1.304e-06 -2.38787e-07
-1.304e-06 0.00094594 5.09779e-06
-2.38787e-07 5.09779e-06 0.000963143
0.000642982 -3.48009e-06 -4.95523e-07
-3.48009e-06 -1.89924e-05 -5.32007e-06
-4.95523e-07 -5.32007e-06 -3.12593e-05
0.00156833 -9.09148e-06 -1.84146e-07
-9.09148e-06 0.000521511 6.81418e-08
-1.84146e-07 6.81418e-08 0.000534988
0.000802402 -1.43087e-05 -9.42771e-08
-1.43087e-05 7.59662e-05 -1.99518e-06
-9.42771e-08 -1.99518e-06 8.59937e-05
0.000655947 2.81283e-07 4.96676e-07
2.81283e-07 8.40741e-06 -1.87104e-06
4.96676e-07 -1.87104e-06 -2.73316e-05
0.000663279 -8.0106e-06 3.82167e-07
-8.0106e-06 1.12117e-05 9.16718e-09
3.82167e-07 9.16718e-09 -2.598e-05
0.000631298 1.40028e-05 2.79868e-07
1.40028e-05 -2.63037e-05 -3.45282e-06
2.79868e-07 -3.45282e-06 -3.31446e-05
0.000651628 -1.50698e-05 -1.77436e-06
-1.50698e-05 3.65392e-06 1.94629e-06
-1.77436e-06 1.94629e-06 -3.50548e-05
0.00091682 2.4013e-05 -1.0755e-07
2.4013e-05 0.000142923 -7.27018e-07
-1.0755e-07 -7.27018e-07 0.000136294
0.00207669 3.56887e-05 1.19826e-05
3.56887e-05 0.00082552 -4.3991e-06
1.19826e-05 -4.3991e-06 0.000843054
0.000607827 2.87477e-05 -4.4966e-07
2.87477e-05 -3.21418e-05 3.68196e-06
-4.4966e-07 3.68196e-06 -4.36695e-05
0.00220665 4.96333e-05 -7.46841e-06
4.96333e-05 0.000908222 1.15909e-06
-7.46841e-06 1.15909e-06 0.000922961
0.00230138 6.48558e-05 -2.00871e-05
6.48558e-05 0.000969989 4.1159e-06
-2.00871e-05 4.1159e-06 0.0009816
0.00182061 0.00011026 -2.68059e-06
0.00011026 -2.42006e-06 -6.4485e-07
-2.68059e-06 -6.4485e-07 -4.49019e-05
0.00180339 7.64622e-06 -2.01768e-06
7.64622e-06 1.22725e-05 -5.2212e-07
-2.01768e-06 -5.2212e-07 -2.60138e-05
0.00156314 5.17689e-05 1.15454e-05
5.17689e-05 -0.000145554 -1.28424e-07
1.15454e-05 -1.28424e-07 -0.00014437
0.00225068 0.000150909 2.72668e-05
0.000150909 -0.000177789 6.50164e-06
2.72668e-05 6.50164e-06 -0.000187148
0.00187271 4.60508e-06 -2.80634e-06
4.60508e-06 -1.2107e-05 -5.31311e-07
-2.80634e-06 -5.31311e-07 -1.40375e-05
0.00178072 4.00418e-05 4.58313e-06
4.00418e-05 0.000133852 -1.32314e-06
4.58313e-06 -1.32314e-06 0.000160602
0.00301822 -4.57721e-06 -2.36862e-05
-4.57721e-06 0.000807245 1.8584e-06
-2.36862e-05 1.8584e-06 0.000785629
0.00268503 -3.41581e-05 0.000122644
-3.41581e-05 -0.00045727 -2.01623e-05
0.000122644 -2.01623e-05 -0.000534182
0.00261089 2.399e-05 1.53769e-06
2.399e-05 0.000214726 7.67439e-06
1.53769e-06 7.67439e-06 0.000241638
0.000688497 6.21393e-05 -2.26363e-07
6.21393e-05 5.67303e-05 -1.37404e-06
-2.26363e-07 -1.37404e-06 -1.18947e-05
0.000702053 -8.24496e-06 7.31536e-07
-8.24496e-06 6.63609e-05 -1.2961e-07
7.31536e-07 -1.2961e-07 -3.97655e-06
0.000673275 -7.82914e-05 3.06337e-07
-7.82914e-05 5.28445e-05 -7.61616e-07
3.06337e-07 -7.61616e-07 -3.11252e-05
0.000712873 -3.24072e-05 -9.81594e-07
-3.24072e-05 9.10769e-05 -1.07485e-07
-9.81594e-07 -1.07485e-07 -3.93673e-06
0.00192573 -0.000103005 -4.64688e-06
-0.000103005 -6.11026e-06 1.21035e-07
-4.64688e-06 1.21035e-07 -2.05165e-05
0.00177624 -0.000195378 -8.52917e-07
-0.000195378 -2.02288e-05 1.01641e-06
-8.52917e-07 1.01641e-06 -4.30975e-05
0.00200522 -0.000311566 -5.10979e-06
-0.000311566 0.000113502 8.37465e-07
-5.10979e-06 8.37465e-07 2.70014e-05
0.00162898 -0.00028184 3.77868e-06
-0.00028184 0.000469156 5.55779e-06
3.77868e-06 5.55779e-06 0.000280177
0.000598933 -0.000291642 7.90492e-06
-0.000291642 -0.000224167 -4.68076e-06
7.90492e-06 -4.68076e-06 -0.000513854
0.00216101 -0.000420603 4.88275e-06
-0.000420603 0.000352376 -3.67341e-06
4.88275e-06 -3.67341e-06 0.000191289
0.000913308 -0.000233607 -5.07929e-06
-0.000233607 0.000110474 6.11815e-08
-5.07929e-06 6.11815e-08 -7.87813e-05
0.0014172 -0.000103527 -8.16159e-07
-0.000103527 0.000514259 -1.18661e-06
-8.16159e-07 -1.18661e-06 0.000319145
0.000435968 -7.80347e-05 -1.74989e-06
-7.80347e-05 -9.7838e-05 8.09904e-07
-1.74989e-06 8.09904e-07 -0.000232118
0.000717691 -2.81616e-05 -7.21076e-07
-2.81616e-05 6.90066e-05 1.64486e-06
-7.21076e-07 1.64486e-06 -2.89161e-06
0.000607095 -6.80261e-05 -7.01283e-07
-6.80261e-05 3.47025e-05 -2.97242e-07
-7.01283e-07 -2.97242e-07 -9.31604e-05
0.000789422 -8.86912e-06 -6.94633e-07
-8.86912e-06 0.000136839 7.07632e-08
-6.94633e-07 7.07632e-08 2.76158e-05
0.000705868 5.9665e-06 1.04088e-07
5.9665e-06 7.2108e-05 8.66791e-07
1.04088e-07 8.66791e-07 -1.60032e-06
0.000607919 1.61851e-05 -1.87147e-06
1.61851e-05 2.26483e-05 2.75265e-06
-1.87147e-06 2.75265e-06 -7.50572e-05
0.00212291 -0.000165055 1.12142e-06
-0.000165055 0.000125104 6.60602e-07
1.12142e-06 6.60602e-07 0.000119473
0.000690938 -2.2e-06 9.2739e-07
-2.2e-06 7.20715e-05 -4.67029e-07
9.2739e-07 -4.67029e-07 -2.2322e-05
0.000682275 9.24678e-06 1.31445e-06
9.24678e-06 6.26517e-05 -2.46304e-07
1.31445e-06 -2.46304e-07 -3.78883e-05
0.000562065 5.90434e-05 -1.30166e-07
5.90434e-05 2.91042e-06 1.52126e-06
-1.30166e-07 1.52126e-06 -0.000100124
0.00180499 -0.000212782 -1.63479e-06
-0.000212782 -6.42438e-05 -1.03313e-06
-1.63479e-06 -1.03313e-06 -6.49809e-05
0.00192919 -0.00040273 1.50477e-06
-0.00040273 8.38695e-05 -4.57496e-07
1.50477e-06 -4.57496e-07 -3.45886e-05
0.00120803 -0.000274918 -7.9931e-07
-0.000274918 0.000261982 -1.678e-06
-7.9931e-07 -1.678e-06 3.77026e-05
0.00239121 -0.000468773 -4.38938e-06
-0.000468773 0.000593512 1.76569e-06
-4.38938e-06 1.76569e-06 0.00038043
0.00104325 -5.79601e-05 -7.52922e-07
-5.79601e-05 0.000280588 4.12907e-07
-7.52922e-07 4.12907e-07 0.000161364
0.000677781 -6.97695e-05 -2.94806e-07
-6.97695e-05 4.95595e-05 1.08707e-06
-2.94806e-07 1.08707e-06 -7.49411e-05
0.000985041 -0.000279496 2.41795e-06
-0.000279496 0.000316445 -4.76158e-07
2.41795e-06 -4.76158e-07 3.32423e-05
0.000986142 -0.000130298 4.02121e-07
-0.000130298 0.000297224 2.96467e-07
4.02121e-07 2.96467e-07 7.3779e-05
0.00204453 -0.000167504 -1.69563e-05
-0.000167504 3.5249e-05 4.36001e-07
-1.69563e-05 4.36001e-07 6.81726e-05
0.00225462 -0.000335308 -1.67689e-05
-0.000335308 0.000153637 4.10459e-06
-1.67689e-05 4.10459e-06 0.000168996
0.0028243 -0.000531858 -1.22448e-05
-0.000531858 0.000650271 -4.79029e-06
-1.22448e-05 -4.79029e-06 0.000467206
0.0019081 -0.00041532 -2.29286e-06
-0.00041532 0.000539776 5.20736e-06
-2.29286e-06 5.20736e-06 0.000325648
0.000614121 1.22028e-05 -5.17659e-07
1.22028e-05 3.94721e-05 -2.89542e-06
-5.17659e-07 -2.89542e-06 -7.78042e-05
0.000627663 -7.36674e-05 1.43041e-06
-7.36674e-05 4.66469e-05 -3.18723e-06
1.43041e-06 -3.18723e-06 -7.6408e-05
0.000590602 -8.19622e-05 1.71862e-07
-8.19622e-05 6.27924e-05 2.19163e-06
1.71862e-07 2.19163e-06 -8.00501e-05
0.000544901 -9.86333e-05 2.05292e-06
-9.86333e-05 0.000188337 -4.343e-06
2.05292e-06 -4.343e-06 -0.000156632
0.000575388 -0.000279492 2.6753e-05
-0.000279492 -0.00242619 -3.66063e-06
2.6753e-05 -3.66063e-06 -0.00291888
0.00122252 6.83826e-05 8.01232e-07
6.83826e-05 0.000376948 -3.12276e-06
8.01232e-07 -3.12276e-06 0.000262106
0.000437847 0.000132212 2.64719e-06
0.000132212 -8.27343e-05 2.36737e-07
2.64719e-06 2.36737e-07 -0.000246773
0.00186435 0.00014943 3.43938e-05
0.00014943 7.5482e-05 4.858e-06
3.43938e-05 4.858e-06 8.43314e-05
0.00205104 0.000359615 1.19208e-05
0.000359615 0.000195852 4.52323e-06
1.19208e-05 4.52323e-06 8.40614e-05
0.00168806 0.000379178 5.01266e-06
0.000379178 0.00024473 5.45336e-06
5.01266e-06 5.45336e-06 -3.98344e-06
0.0008344 0.000225207 4.20255e-06
0.000225207 4.24039e-05 2.21736e-06
4.20255e-06 2.21736e-06 -0.000203105
0.00279141 0.000373687 4.39813e-05
0.000373687 0.000161123 1.42047e-05
4.39813e-05 1.42047e-05 -0.000217354
0.00115761 0.000122038 1.66469e-06
0.000122038 0.000362707 -2.20889e-07
1.66469e-06 -2.20889e-07 0.000223369
0.00232464 0.000279855 -9.59451e-06
0.000279855 0.000337578 -1.17921e-06
-9.59451e-06 -1.17921e-06 0.000351165
0.00105769 0.000214462 9.08787e-07
0.000214462 0.000243824 -7.38262e-08
9.08787e-07 -7.38262e-08 6.49233e-05
0.00122857 0.000302222 7.02832e-07
0.000302222 0.000169479 -5.91982e-07
7.02832e-07 -5.91982e-07 -8.41674e-05
0.00138591 0.000433755 -4.39502e-06
0.000433755 -8.5107e-05 -1.35075e-06
-4.39502e-06 -1.35075e-06 -0.000275095
0.0033223 -0.00019173 -8.53058e-05
-0.00019173 -0.000903242 -2.86303e-05
-8.53058e-05 -2.86303e-05 -0.00185621
0.00488735 0.000469113 -8.27011e-06
0.000469113 0.000449345 -2.49182e-05
-8.27011e-06 -2.49182e-05 -0.000172865
0.000298666 0.000310037 -1.45657e-06
0.000310037 -0.000483965 7.72449e-06
-1.45657e-06 7.72449e-06 -0.000682476
-0.000947157 -0.000399092 0.000111622
-0.000399092 0.000762109 4.24333e-05
0.000111622 4.24333e-05 -0.000293003
-0.000362905 -0.00153414 -6.1679e-05
-0.00153414 -0.00130104 -8.02536e-05
-6.1679e-05 -8.02536e-05 0.000446351
0.00109768 0.000155492 -3.62211e-06
0.000155492 0.000320984 -3.65316e-06
-3.62211e-06 -3.65316e-06 0.00019242
0.000329148 0.000310721 9.44169e-05
0.000310721 0.00119774 -2.65163e-05
9.44169e-05 -2.65163e-05 0.000294803
0.00129323 -0.000524038 -7.1043e-05
-0.000524038 0.00179682 -0.000121798
-7.1043e-05 -0.000121798 0.000842045
0.0028409 0.000419883 -2.49349e-05
0.000419883 0.000677506 -1.09226e-05
-2.49349e-05 -1.09226e-05 0.000691434
0.00110702 0.000150487 -1.12858e-05
0.000150487 0.000263487 -1.62368e-06
-1.12858e-05 -1.62368e-06 7.95888e-05
0.000305483 0.000376388 -1.6023e-05
0.000376388 -0.000357622 -1.33698e-05
-1.6023e-05 -1.33698e-05 -0.000630959
4.91177e-05 0.000355926 2.76461e-05
0.000355926 -0.000635756 5.76124e-05
2.76461e-05 5.76124e-05 -0.000735704
0.0102582 0.000427704 -3.1769e-05
0.000427704 0.00336409 -2.64225e-05
-3.1769e-05 -2.64225e-05 0.00190819
0.0035103 0.000797596 3.81332e-06
0.000797596 0.000814421 1.05462e-05
3.81332e-06 1.05462e-05 -0.000345982
0.00179377 -0.00132608 0.000159182
-0.00132608 -0.000332079 0.000121279
0.000159182 0.000121279 8.07239e-05
0.00332919 -0.000771052 6.37189e-06
-0.000771052 -0.00136038 0.000170854
6.37189e-06 0.000170854 5.60226e-05
0.000733655 -2.26968e-07 6.5136e-07
-2.26968e-07 0.000106712 -1.07638e-06
6.5136e-07 -1.07638e-06 1.42827e-05
0.000858105 6.16095e-05 1.00438e-06
6.16095e-05 0.000161636 1.00381e-06
1.00438e-06 1.00381e-06 6.54975e-05
0.00128594 0.000113582 -2.02864e-06
0.000113582 0.000414304 -2.82164e-06
-2.02864e-06 -2.82164e-06 0.00033029
0.000674399 3.96568e-06 4.19018e-07
3.96568e-06 5.45466e-05 -4.77582e-07
4.19018e-07 -4.77582e-07 -3.21015e-05
0.000764372 2.78383e-05 -7.89493e-08
2.78383e-05 0.000101682 -1.08947e-06
-7.89493e-08 -1.08947e-06 -1.68447e-07
0.000592902 -1.48901e-05 -1.11854e-06
-1.48901e-05 -7.79531e-06 -3.50523e-07
-1.11854e-06 -3.50523e-07 -0.000102405
0.000824658 3.03307e-05 -8.69111e-07
3.03307e-05 0.000120636 4.95649e-07
-8.69111e-07 4.95649e-07 2.62353e-05
0.000749624 7.25811e-06 -3.83814e-07
7.25811e-06 6.55927e-05 4.70687e-07
-3.83814e-07 4.70687e-07 -2.00168e-05
0.000531439 -9.38838e-07 3.59131e-07
-9.38838e-07 -3.90908e-05 7.10672e-07
3.59131e-07 7.10672e-07 -0.000122296
0.000856656 2.32428e-05 9.01235e-08
2.32428e-05 0.000139896 1.08754e-07
9.01235e-08 1.08754e-07 4.23922e-05
0.000837014 2.13247e-05 3.48116e-08
2.13247e-05 0.000130662 2.74157e-07
3.48116e-08 2.74157e-07 3.05668e-05
0.000722207 1.75226e-05 6.21969e-07
1.75226e-05 7.92827e-05 -3.77393e-07
6.21969e-07 -3.77393e-07 -2.57783e-05
0.000592241 3.10045e-05 -1.26265e-07
3.10045e-05 -1.24177e-05 -3.56292e-08
-1.26265e-07 -3.56292e-08 -0.000101615
0.00104664 3.11941e-05 1.26771e-07
3.11941e-05 0.000244738 -1.06478e-06
1.26771e-07 -1.06478e-06 0.000151804
0.000345983 4.36519e-05 -1.62014e-06
4.36519e-05 -0.000136333 -3.89567e-06
-1.62014e-06 -3.89567e-06 -0.000230583
0.000786443 -6.87973e-05 -1.6842e-07
-6.87973e-05 0.000100205 5.37523e-07
-1.6842e-07 5.37523e-07 -4.96142e-06
0.000806104 -5.49843e-05 -8.18478e-07
-5.49843e-05 0.000131441 -8.44625e-07
-8.18478e-07 -8.44625e-07 2.25681e-05
0.000825381 -1.98563e-05 -5.17409e-07
-1.98563e-05 0.000142123 -3.43448e-07
-5.17409e-07 -3.43448e-07 3.67702e-05
0.000842338 2.41618e-05 -4.65965e-07
2.41618e-05 0.000138559 -3.02849e-07
-4.65965e-07 -3.02849e-07 4.3007e-05
0.000853875 1.3149e-05 -1.35319e-06
1.3149e-05 0.000160631 -1.85174e-06
-1.35319e-06 -1.85174e-06 4.60333e-05
0.000750922 3.29359e-05 6.48107e-07
3.29359e-05 9.54416e-05 -7.24385e-07
6.48107e-07 -7.24385e-07 -1.47437e-06
0.000456063 -1.03869e-06 5.27816e-07
-1.03869e-06 -9.47218e-05 -1.6638e-06
5.27816e-07 -1.6638e-06 -0.000179521
0.000649617 2.71649e-05 1.0012e-06
2.71649e-05 4.12926e-05 4.91114e-07
1.0012e-06 4.91114e-07 -5.4833e-05
0.000692288 -2.36061e-05 4.56089e-09
-2.36061e-05 5.5125e-05 2.17945e-07
4.56089e-09 2.17945e-07 -2.88664e-05
0.000730061 -2.39839e-05 -2.17905e-07
-2.39839e-05 8.75268e-05 -1.6306e-08
-2.17905e-07 -1.6306e-08 -7.02564e-06
0.000696142 -3.09013e-05 -1.49698e-06
-3.09013e-05 4.51485e-05 8.54175e-07
-1.49698e-06 8.54175e-07 -2.44786e-05
0.0007333 -1.59311e-05 1.22223e-06
-1.59311e-05 7.45467e-05 -3.64274e-07
1.22223e-06 -3.64274e-07 -1.57621e-05
0.000654579 -6.04403e-05 -9.93637e-09
-6.04403e-05 2.754e-05 1.27714e-07
-9.93637e-09 1.27714e-07 -5.00527e-05
0.000669283 3.77673e-07 -1.49322e-06
3.77673e-07 1.65491e-05 2.05443e-06
-1.49322e-06 2.05443e-06 -3.05015e-05
0.000549094 -2.5989e-06 9.35104e-07
-2.5989e-06 -2.34897e-05 -4.54112e-07
9.35104e-07 -4.54112e-07 -0.000109803
0.000645156 6.44516e-06 7.28457e-07
6.44516e-06 7.34776e-06 -2.4076e-08
7.28457e-07 -2.4076e-08 -4.07556e-05
0.00137018 1.66771e-05 -2.70988e-06
1.66771e-05 0.000407686 5.17448e-06
-2.70988e-06 5.17448e-06 0.000397965
0.00063771 2.08094e-05 -1.10915e-07
2.08094e-05 4.48652e-06 -1.79203e-06
-1.10915e-07 -1.79203e-06 -4.29694e-05
0.000990064 8.74155e-06 -1.55698e-06
8.74155e-06 0.000184826 7.91644e-07
-1.55698e-06 7.91644e-07 0.000173551
0.000858148 3.86983e-06 -3.63466e-06
3.86983e-06 0.000108268 4.95106e-06
-3.63466e-06 4.95106e-06 0.000117457
0.000619589 2.02722e-06 8.12115e-08
2.02722e-06 -3.22292e-05 -3.63012e-06
8.12115e-08 -3.63012e-06 -4.49673e-05
0.00230225 2.20733e-07 3.85659e-06
2.20733e-07 0.000949551 -4.28698e-09
3.85659e-06 -4.28698e-09 0.000966692
0.00087485 -3.52363e-06 -3.7359e-06
-3.52363e-06 0.000117584 -4.99303e-06
-3.7359e-06 -4.99303e-06 0.00012734
0.000700825 6.65836e-05 1.4212e-06
6.65836e-05 7.06882e-05 -6.598e-07
1.4212e-06 -6.598e-07 -4.80522e-06
0.000656329 1.38461e-05 -7.1449e-07
1.38461e-05 1.11299e-05 -2.03633e-06
-7.1449e-07 -2.03633e-06 -2.53706e-05
0.000649136 -3.32259e-06 7.63959e-07
-3.32259e-06 5.53719e-06 1.86697e-08
7.63959e-07 1.86697e-08 -3.09715e-05
0.000632335 7.86914e-06 8.84587e-08
7.86914e-06 -2.7077e-05 -3.42422e-06
8.84587e-08 -3.42422e-06 -3.32608e-05
0.000671668 -2.03956e-05 -1.45436e-06
-2.03956e-05 1.66576e-05 1.97724e-06
-1.45436e-06 1.97724e-06 -2.11753e-05
0.000613178 1.39226e-05 9.63008e-09
1.39226e-05 -3.73367e-05 -7.57299e-07
9.63008e-09 -7.57299e-07 -4.39867e-05
0.00205659 2.36825e-05 8.04182e-06
2.36825e-05 0.000810001 -4.57049e-06
8.04182e-06 -4.57049e-06 0.000828855
0.00122697 2.9616e-05 -8.28016e-07
2.9616e-05 0.000324278 2.08704e-06
-8.28016e-07 2.08704e-06 0.000318947
0.0014951 3.05894e-05 2.26229e-07
3.05894e-05 0.000487067 1.45016e-06
2.26229e-07 1.45016e-06 0.000500664
0.00092354 3.37408e-05 -1.53215e-05
3.37408e-05 0.000159524 7.30802e-06
-1.53215e-05 7.30802e-06 0.00016731
0.00150218 8.53809e-05 5.39935e-05
8.53809e-05 -0.000485103 1.55335e-05
5.39935e-05 1.55335e-05 -0.000509432
0.00185515 -4.98194e-06 1.53139e-06
-4.98194e-06 -1.86714e-05 1.54687e-07
1.53139e-06 1.54687e-07 -2.17383e-05
0.00183208 5.07363e-05 2.95799e-05
5.07363e-05 0.000177972 -5.68336e-06
2.95799e-05 -5.68336e-06 0.000192561
0.000996739 6.46504e-05 -3.44054e-06
6.46504e-05 -0.000950309 -6.41496e-06
-3.44054e-06 -6.41496e-06 -0.00106315
0.00182068 2.91284e-05 1.42622e-05
2.91284e-05 -0.000138658 1.15079e-06
1.42622e-05 1.15079e-06 -0.000119607
0.00232738 -1.212e-05 -5.11506e-07
-1.212e-05 0.000349982 -1.32961e-06
-5.11506e-07 -1.32961e-06 0.000332581
0.00328056 -4.72353e-05 -5.7786e-05
-4.72353e-05 0.000742643 4.74832e-06
-5.7786e-05 4.74832e-06 0.000731625
0.00326369 -7.84e-05 0.000124779
-7.84e-05 0.000527563 -6.16721e-06
0.000124779 -6.16721e-06 0.00030456
0.0086823 -0.000313956 2.71775e-06
-0.000313956 0.00214761 1.92919e-05
2.71775e-06 1.92919e-05 0.00088977
0.00732675 0.00126828 0.000229525
0.00126828 0.00360351 -0.000103011
0.000229525 -0.000103011 0.00369257
0.00348157 0.00130609 9.36424e-06
0.00130609 0.00233044 1.22061e-05
9.36424e-06 1.22061e-05 0.00318789
0.000428686 -7.15516e-05 2.2616e-06
-7.15516e-05 -8.19825e-05 -1.20765e-06
2.2616e-06 -1.20765e-06 -0.000168998
0.000698904 -9.32521e-06 1.14913e-06
-9.32521e-06 6.46996e-05 -1.26851e-07
1.14913e-06 -1.26851e-07 -5.49037e-06
0.000719739 -7.10922e-05 -1.53069e-06
-7.10922e-05 8.15703e-05 1.7897e-06
-1.53069e-06 1.7897e-06 6.92058e-06
0.000647509 -2.7548e-05 -4.13807e-07
-2.7548e-05 4.03128e-05 1.84974e-07
-4.13807e-07 1.84974e-07 -4.59275e-05
0.000770066 7.34107e-05 2.21495e-07
7.34107e-05 0.000126228 3.10688e-07
2.21495e-07 3.10688e-07 2.08336e-05
0.000842809 0.000117621 1.37567e-06
0.000117621 0.000159197 9.75477e-07
1.37567e-06 9.75477e-07 5.477e-05
0.000776242 -7.87523e-06 1.66019e-06
-7.87523e-06 0.000120688 -2.1977e-06
1.66019e-06 -2.1977e-06 2.6575e-05
0.000637425 -2.79751e-05 -6.68045e-07
-2.79751e-05 3.97173e-05 6.64704e-07
-6.68045e-07 6.64704e-07 -4.98693e-05
0.00211401 -0.000149238 4.71247e-06
-0.000149238 0.000134189 9.18534e-07
4.71247e-06 9.18534e-07 0.00013467
0.00180984 -0.000219586 4.76356e-06
-0.000219586 -9.17996e-05 -1.70363e-06
4.76356e-06 -1.70363e-06 -9.50198e-05
0.0016428 -0.00038034 1.56471e-06
-0.00038034 -6.84185e-05 2.35319e-06
1.56471e-06 2.35319e-06 -0.00017969
0.00114545 -0.000294393 5.85881e-06
-0.000294393 0.000212684 3.8859e-06
5.85881e-06 3.8859e-06 -1.38315e-05
0.00197053 -0.000440279 5.26488e-06
-0.000440279 0.000373212 -3.45323e-07
5.26488e-06 -3.45323e-07 0.000162316
0.00123236 -0.000301899 -1.20115e-07
-0.000301899 0.000456777 -8.90099e-07
-1.20115e-07 -8.90099e-07 0.000168724
0.00165705 -0.000197865 -1.14322e-06
-0.000197865 0.000664735 -8.15881e-07
-1.14322e-06 -8.15881e-07 0.000436075
0.000743915 -0.000101047 4.52338e-08
-0.000101047 8.84615e-05 6.97186e-07
4.52338e-08 6.97186e-07 -4.68285e-05
0.000761604 -2.31106e-05 -4.21035e-07
-2.31106e-05 0.000113722 2.19148e-06
-4.21035e-07 2.19148e-06 1.30527e-05
0.000935042 -1.79615e-05 -1.24779e-06
-1.79615e-05 0.000208403 -3.5111e-06
-1.24779e-06 -3.5111e-06 9.50081e-05
0.000964714 -1.58731e-05 8.93193e-07
-1.58731e-05 0.000232336 1.13472e-06
8.93193e-07 1.13472e-06 0.000137795
0.000731149 0.00012172 2.29195e-06
0.00012172 0.000106332 3.46389e-06
2.29195e-06 3.46389e-06 2.38629e-06
0.00176344 -0.000165061 -5.59242e-07
-0.000165061 -8.40377e-05 5.08454e-08
-5.59242e-07 5.08454e-08 -5.46444e-05
0.000722856 2.64554e-05 -1.21106e-06
2.64554e-05 0.000102992 2.39466e-07
-1.21106e-06 2.39466e-07 -1.33975e-05
0.000816841 -6.65368e-05 -1.12568e-06
-6.65368e-05 0.000149843 3.34414e-07
-1.12568e-06 3.34414e-07 3.2492e-05
0.00176708 -0.00032461 9.80859e-07
-0.00032461 -9.88601e-05 -1.41234e-06
9.80859e-07 -1.41234e-06 -9.37755e-05
0.0014276 -0.000426477 2.86966e-07
-0.000426477 -7.11399e-05 2.57471e-06
2.86966e-07 2.57471e-06 -0.000227996
0.0016093 -0.000391049 1.33285e-06
-0.000391049 0.000379821 -1.34169e-06
1.33285e-06 -1.34169e-06 0.000153023
0.00088354 -0.000102435 3.66285e-07
-0.000102435 0.000227087 -2.656e-06
3.66285e-07 -2.656e-06 6.81259e-05
0.000949029 -0.000134561 -2.63064e-07
-0.000134561 0.000383778 1.2929e-07
-2.63064e-07 1.2929e-07 6.17948e-05
0.00283658 -0.000249878 -2.23819e-05
-0.000249878 0.000555658 4.1128e-06
-2.23819e-05 4.1128e-06 0.000521647
0.00285618 -0.000461793 -2.82809e-05
-0.000461793 0.000555402 3.72142e-06
-2.82809e-05 3.72142e-06 0.000568628
0.000959044 -0.000432751 -7.78828e-06
-0.000432751 -0.000200662 2.41843e-06
-7.78828e-06 2.41843e-06 -0.000361612
0.00050175 -0.000269809 -3.11483e-06
-0.000269809 -9.19575e-05 1.79363e-05
-3.11483e-06 1.79363e-05 -0.000329778
0.000662814 -0.000113756 1.74465e-06
-0.000113756 6.56709e-05 -9.19433e-07
1.74465e-06 -9.19433e-07 -6.11123e-05
0.000560956 -7.60933e-05 2.50171e-06
-7.60933e-05 2.92964e-05 -4.24331e-06
2.50171e-06 -4.24331e-06 -0.000107223
0.00103452 -4.5102e-05 8.74753e-07
-4.5102e-05 0.00041608 -5.20381e-06
8.74753e-07 -5.20381e-06 0.000144462
-0.00439348 -4.09677e-05 0.000224678
-4.09677e-05 -0.00263456 1.48861e-06
0.000224678 1.48861e-06 -0.00201111
0.00949777 -0.000116363 -1.3462e-05
-0.000116363 0.00291902 6.20692e-07
-1.3462e-05 6.20692e-07 0.00224869
0.00129395 0.000104288 3.37467e-06
0.000104288 0.000436854 -1.05222e-06
3.37467e-06 -1.05222e-06 0.000303479
0.000788741 0.000191596 3.31456e-06
0.000191596 0.000104189 -1.88874e-06
3.31456e-06 -1.88874e-06 -7.14072e-05
0.00215444 0.000262856 2.70566e-05
0.000262856 0.00024053 1.71493e-05
2.70566e-05 1.71493e-05 0.000266912
0.00235908 0.000502443 7.60824e-06
0.000502443 0.000405673 7.66523e-06
7.60824e-06 7.66523e-06 0.000221186
0.00158302 0.000343105 6.8342e-06
0.000343105 0.000370736 1.41956e-06
6.8342e-06 1.41956e-06 0.00011198
0.00883139 0.000413938 4.81054e-05
0.000413938 0.00217537 6.50036e-06
4.81054e-05 6.50036e-06 0.00109429
0.0069997 0.00071111 -0.000130829
0.00071111 0.00119031 -2.9742e-05
-0.000130829 -2.9742e-05 0.000656972
-0.000946643 0.000183266 -7.57902e-07
0.000183266 -0.00103956 -1.84842e-05
-7.57902e-07 -1.84842e-05 -0.00126383
0.00614211 -0.00103081 -4.19365e-05
-0.00103081 0.0030509 2.80892e-05
-4.19365e-05 2.80892e-05 0.0026229
-0.00717793 -0.00156048 -0.000364552
-0.00156048 -0.0036803 -0.000284983
-0.000364552 -0.000284983 -0.00183514
0.000948386 0.000151585 -9.28747e-08
0.000151585 0.000245709 -1.78062e-06
-9.28747e-08 -1.78062e-06 0.00011634
-0.00240871 -0.000447763 8.57643e-05
-0.000447763 -0.00179356 8.97485e-06
8.57643e-05 8.97485e-06 -0.00192796
-0.00190076 -0.000416799 -9.7976e-05
-0.000416799 0.000736435 -4.71316e-05
-9.7976e-05 -4.71316e-05 -0.000521247
0.00260627 0.000384623 -5.34499e-06
0.000384623 0.000526882 -1.15498e-06
-5.34499e-06 -1.15498e-06 0.000562347
0.00087671 0.000172925 -1.93369e-06
0.000172925 0.000166154 6.95058e-07
-1.93369e-06 6.95058e-07 -3.01999e-05
0.000836124 0.000361088 4.09612e-06
0.000361088 -5.20564e-05 1.80034e-06
4.09612e-06 1.80034e-06 -0.000316262
0.000929545 0.000301726 1.2159e-05
0.000301726 -7.51002e-05 1.11219e-05
1.2159e-05 1.11219e-05 -8.96436e-05
0.00763906 0.000316664 -3.66374e-05
0.000316664 0.00155298 -2.17699e-05
-3.66374e-05 -2.17699e-05 -0.000111068
0.00640528 0.00104001 -4.63142e-05
0.00104001 0.00168885 -1.84799e-05
-4.63142e-05 -1.84799e-05 0.00089699
0.00821582 -0.00124249 8.19886e-05
-0.00124249 0.00389085 -3.83409e-05
8.19886e-05 -3.83409e-05 0.00391533
0.00277639 -0.000929394 0.000101042
-0.000929394 -0.00180468 0.000211099
0.000101042 0.000211099 -0.000360667
0.00146793 0.000133999 -1.2418e-05
0.000133999 0.000558948 -7.20934e-06
-1.2418e-05 -7.20934e-06 0.00044745
-0.00434377 0.000106294 -7.2743e-05
0.000106294 0.000395299 -4.41284e-05
-7.2743e-05 -4.41284e-05 -0.00146528
0.00250847 0.000165199 -0.000111139
0.000165199 0.00100219 -0.000163028
-0.000111139 -0.000163028 -0.000842351
0.000478796 0.000315031 -1.43519e-05
0.000315031 -0.000295815 2.51847e-06
-1.43519e-05 2.51847e-06 -0.000305737
0.00137802 0.000371527 -3.9563e-05
0.000371527 0.000509937 -1.21215e-05
-3.9563e-05 -1.21215e-05 0.000281122
0.00252926 0.000295384 -6.94975e-05
0.000295384 0.00116283 -6.01974e-06
-6.94975e-05 -6.01974e-06 0.00085642
0.00331529 0.000845543 -5.49672e-05
0.000845543 0.000443816 -1.44789e-05
-5.49672e-05 -1.44789e-05 8.7295e-05
0.000611138 0.000447188 0.000120036
0.000447188 -0.000251815 9.02614e-05
0.000120036 9.02614e-05 -0.00264051
0.00883173 -0.00132028 2.30271e-05
-0.00132028 0.00277759 0.000177928
2.30271e-05 0.000177928 0.00250625
0.00317816 -0.000575757 -1.41123e-05
-0.000575757 -0.00208355 -2.08727e-05
-1.41123e-05 -2.08727e-05 -0.000730833
0.000910536 7.93125e-05 2.40233e-06
7.93125e-05 0.000199344 3.48583e-06
2.40233e-06 3.48583e-06 9.72176e-05
0.00116536 0.000106047 4.3353e-06
0.000106047 0.000338175 2.6249e-06
4.3353e-06 2.6249e-06 0.000254952
0.00037238 6.66986e-05 1.49005e-07
6.66986e-05 -9.34473e-05 -4.71691e-06
1.49005e-07 -4.71691e-06 -0.000169203
0.000526883 4.40056e-05 1.02066e-06
4.40056e-05 -4.26441e-05 -1.30911e-07
1.02066e-06 -1.30911e-07 -0.000125293
0.000763401 4.32168e-05 -6.5482e-07
4.32168e-05 0.000108967 -1.26866e-06
-6.5482e-07 -1.26866e-06 1.17588e-06
0.000797442 -5.90558e-06 -4.14828e-07
-5.90558e-06 0.000107846 5.73381e-07
-4.14828e-07 5.73381e-07 8.42757e-06
0.000796699 -2.93404e-06 9.431e-07
-2.93404e-06 0.000110269 -2.75851e-07
9.431e-07 -2.75851e-07 1.01711e-05
0.00058325 2.43257e-05 -7.20351e-08
2.43257e-05 -1.7558e-05 2.4449e-06
-7.20351e-08 2.4449e-06 -0.000105403
0.000806373 3.94679e-05 4.64756e-08
3.94679e-05 0.000132236 -7.08281e-07
4.64756e-08 -7.08281e-07 2.29578e-05
0.0008922 2.82552e-05 -9.58926e-08
2.82552e-05 0.000155917 2.69928e-07
-9.58926e-08 2.69928e-07 6.25842e-05
0.000820653 -3.24155e-05 -2.04219e-07
-3.24155e-05 0.000122549 4.79727e-07
-2.04219e-07 4.79727e-07 1.55217e-05
0.000273591 3.30027e-05 2.71915e-07
3.30027e-05 -0.000167281 1.31842e-07
2.71915e-07 1.31842e-07 -0.000259983
-7.7537e-05 1.81911e-05 -2.20314e-06
1.81911e-05 -0.000273124 -3.68073e-06
-2.20314e-06 -3.68073e-06 -0.000360585
0.000942343 -4.50777e-06 -2.11742e-06
-4.50777e-06 0.000194056 -2.19806e-06
-2.11742e-06 -2.19806e-06 9.13027e-05
0.000951415 3.80862e-06 -1.86366e-07
3.80862e-06 0.000215227 -1.33977e-06
-1.86366e-07 -1.33977e-06 9.20442e-05
0.000823827 -4.90088e-05 -2.81734e-08
-4.90088e-05 0.000144567 -6.15473e-07
-2.81734e-08 -6.15473e-07 3.63155e-05
0.000880903 -1.11916e-05 -4.91859e-07
-1.11916e-05 0.000155379 8.87063e-07
-4.91859e-07 8.87063e-07 6.24837e-05
0.000838528 -3.64217e-05 3.94202e-07
-3.64217e-05 0.000143018 -4.32151e-07
3.94202e-07 -4.32151e-07 3.42587e-05
0.000777686 2.76892e-05 -2.41236e-07
2.76892e-05 0.000107969 -1.04356e-07
-2.41236e-07 -1.04356e-07 1.20531e-05
0.000609742 -2.75908e-05 -1.03367e-07
-2.75908e-05 -5.20896e-06 5.90876e-07
-1.03367e-07 5.90876e-07 -9.10207e-05
0.000670531 3.42468e-05 8.33835e-07
3.42468e-05 5.02577e-05 5.96694e-07
8.33835e-07 5.96694e-07 -4.38367e-05
0.000532583 -2.44162e-06 -4.01099e-07
-2.44162e-06 -3.08302e-05 -3.0752e-06
-4.01099e-07 -3.0752e-06 -0.000132102
0.000573062 -1.70317e-05 1.49394e-06
-1.70317e-05 -1.87365e-05 -9.47311e-07
1.49394e-06 -9.47311e-07 -0.000103531
0.000837173 -2.77058e-06 2.90619e-06
-2.77058e-06 0.000119013 -3.80385e-06
2.90619e-06 -3.80385e-06 2.432e-05
0.000190368 -3.6845e-05 8.42479e-07
-3.6845e-05 -0.000202979 3.06285e-07
8.42479e-07 3.06285e-07 -0.000342518
0.000339867 2.53779e-05 -4.76019e-07
2.53779e-05 -0.000122005 -6.64641e-07
-4.76019e-07 -6.64641e-07 -0.000225174
0.000733344 2.07163e-05 3.50722e-07
2.07163e-05 8.84913e-05 3.68714e-07
3.50722e-07 3.68714e-07 -8.66979e-06
0.000675081 1.0717e-05 -6.37052e-08
1.0717e-05 4.7566e-05 4.74031e-07
-6.37052e-08 4.74031e-07 -3.71486e-05
0.000737646 -9.4251e-06 -5.59155e-08
-9.4251e-06 9.10062e-05 -1.21234e-08
-5.59155e-08 -1.21234e-08 -1.47504e-07
0.000645307 1.08081e-05 -6.0901e-07
1.08081e-05 2.20566e-05 7.56229e-07
-6.0901e-07 7.56229e-07 -4.92939e-05
0.00077453 -6.75437e-06 2.62606e-07
-6.75437e-06 0.00011126 -5.34058e-11
2.62606e-07 -5.34058e-11 1.77998e-05
0.000708317 -3.01151e-05 -2.8612e-07
-3.01151e-05 5.81512e-05 4.91242e-08
-2.8612e-07 4.91242e-08 -1.55357e-05
0.00063002 3.96608e-05 -6.95875e-07
3.96608e-05 -5.40995e-06 2.03904e-06
-6.95875e-07 2.03904e-06 -5.38745e-05
0.000605306 -5.19278e-05 1.21776e-06
-5.19278e-05 -5.05737e-06 -7.74757e-07
1.21776e-06 -7.74757e-07 -8.11762e-05
0.000650733 1.23065e-05 -2.07874e-07
1.23065e-05 6.40679e-06 -3.00402e-08
-2.07874e-07 -3.00402e-08 -4.09114e-05
0.00136959 2.56308e-05 -4.75903e-06
2.56308e-05 0.000408377 5.2191e-06
-4.75903e-06 5.2191e-06 0.00039825
0.000643251 -7.61707e-06 6.69349e-07
-7.61707e-06 5.7164e-06 -1.81363e-06
6.69349e-07 -1.81363e-06 -4.19822e-05
0.000984205 1.5776e-05 -2.47034e-06
1.5776e-05 0.000182222 7.51542e-07
-2.47034e-06 7.51542e-07 0.000170716
0.00080247 1.43482e-05 -3.60001e-07
1.43482e-05 7.66364e-05 1.9455e-06
-3.60001e-07 1.9455e-06 8.56179e-05
0.000603654 6.92281e-06 3.92028e-07
6.92281e-06 -4.10749e-05 -3.65536e-06
3.92028e-07 -3.65536e-06 -5.41489e-05
0.00231653 1.25294e-05 3.49894e-06
1.25294e-05 0.000958577 3.80227e-08
3.49894e-06 3.80227e-08 0.00097538
0.00231338 1.77022e-06 -2.76758e-07
1.77022e-06 0.000956097 -5.12328e-06
-2.76758e-07 -5.12328e-06 0.000973113
0.00100795 7.03147e-05 -1.29472e-06
7.03147e-05 0.000242128 -1.46208e-06
-1.29472e-06 -1.46208e-06 0.000169883
0.00066182 2.27683e-05 -8.59746e-07
2.27683e-05 1.523e-05 -2.22074e-06
-8.59746e-07 -2.22074e-06 -2.303e-05
0.000683751 -3.94921e-06 6.98355e-07
-3.94921e-06 5.9175e-05 8.28599e-07
6.98355e-07 8.28599e-07 -1.49078e-05
0.00063379 2.05013e-06 -1.75005e-08
2.05013e-06 -2.70744e-05 -3.52305e-06
-1.75005e-08 -3.52305e-06 -3.31132e-05
0.00065161 -5.28327e-06 2.32387e-07
-5.28327e-06 8.26339e-06 -3.26871e-08
2.32387e-07 -3.26871e-08 -2.81707e-05
0.00065569 -1.94856e-05 -1.25859e-06
-1.94856e-05 9.41176e-06 1.82621e-06
-1.25859e-06 1.82621e-06 -2.72702e-05
0.000623404 7.80599e-06 -1.78291e-07
7.80599e-06 -3.23505e-05 -1.94772e-08
-1.78291e-07 -1.94772e-08 -3.84897e-05
0.00205303 1.19181e-05 3.65846e-06
1.19181e-05 0.000805478 -4.70457e-06
3.65846e-06 -4.70457e-06 0.000825049
0.00121353 1.97492e-05 -6.87591e-07
1.97492e-05 0.000313131 2.09384e-06
-6.87591e-07 2.09384e-06 0.000309663
0.001438 2.04485e-05 1.49617e-06
2.04485e-05 0.000448728 6.39193e-08
1.49617e-06 6.39193e-08 0.000464176
0.000875705 2.41879e-05 -1.38323e-05
2.41879e-05 0.000125205 7.1864e-06
-1.38323e-05 7.1864e-06 0.000136018
-0.00733594 0.000240927 0.000161144
0.000240927 -0.00336029 5.23213e-07
0.000161144 5.23213e-07 -0.00394576
-0.00206995 0.00012835 0.000166942
0.00012835 0.000933239 1.50501e-05
0.000166942 1.50501e-05 -0.000114445
0.00366682 0.00018894 -0.00018469
0.00018894 0.00028575 8.70409e-08
-0.00018469 8.70409e-08 0.000236707
0.000463211 3.22897e-05 3.32668e-05
3.22897e-05 -0.0008122 -4.70759e-06
3.32668e-05 -4.70759e-06 -0.00082434
0.00136762 -2.02507e-05 1.77172e-05
-2.02507e-05 -0.000266252 -3.02645e-07
1.77172e-05 -3.02645e-07 -0.000280726
0.000667729 4.36509e-05 9.6421e-06
4.36509e-05 -0.00068472 -4.18107e-06
9.6421e-06 -4.18107e-06 -0.000728619
0.00239621 -8.01809e-05 1.29347e-06
-8.01809e-05 0.000220523 2.89502e-06
1.29347e-06 2.89502e-06 0.000188386
0.00796696 0.000140608 2.88946e-05
0.000140608 0.0015989 -2.74682e-05
2.88946e-05 -2.74682e-05 0.000618432
-0.00349081 0.000703229 -3.33716e-05
0.000703229 -0.0010844 -6.21495e-06
-3.33716e-05 -6.21495e-06 -0.00184683
-0.00184055 0.00139277 -7.5608e-05
0.00139277 -0.000664992 3.41474e-05
-7.5608e-05 3.41474e-05 0.000763774
0.00114097 -0.000169722 5.05313e-05
-0.000169722 -0.000724774 9.86104e-06
5.05313e-05 9.86104e-06 -0.000964959
0.0103801 -7.27928e-05 6.0473e-05
-7.27928e-05 0.00315581 -2.85358e-05
6.0473e-05 -2.85358e-05 0.00178302
0.00133809 0.00131691 0.000109569
0.00131691 -0.000344609 -0.000180841
0.000109569 -0.000180841 0.000257739
0.005043 0.00100632 -0.000118547
0.00100632 0.000205266 8.61126e-05
-0.000118547 8.61126e-05 0.000796027
0.000729454 6.86492e-05 -8.98116e-07
6.86492e-05 0.000108618 -6.80865e-07
-8.98116e-07 -6.80865e-07 -8.07569e-06
0.000581944 1.18231e-05 -2.83618e-07
1.18231e-05 3.16595e-06 -6.84431e-07
-2.83618e-07 -6.84431e-07 -8.14377e-05
0.000705519 -7.8544e-05 -1.18935e-06
-7.8544e-05 7.28252e-05 1.46682e-06
-1.18935e-06 1.46682e-06 -7.83927e-07
0.00058919 1.1709e-06 -4.32129e-08
1.1709e-06 1.14405e-05 1.10648e-06
-4.32129e-08 1.10648e-06 -7.88834e-05
0.000736257 6.74988e-05 9.28171e-07
6.74988e-05 0.000110373 1.45819e-06
9.28171e-07 1.45819e-06 4.4645e-06
0.000866684 7.17943e-05 -3.83997e-08
7.17943e-05 0.000179766 -4.909e-07
-3.83997e-08 -4.909e-07 6.43777e-05
0.000784107 8.34665e-05 1.64238e-06
8.34665e-05 0.000130011 1.64176e-06
1.64238e-06 1.64176e-06 2.32559e-05
0.000707508 4.04226e-06 1.47827e-06
4.04226e-06 7.3754e-05 -9.71769e-07
1.47827e-06 -9.71769e-07 -2.60734e-05
0.000677716 -1.66129e-05 5.34436e-07
-1.66129e-05 6.66706e-05 -9.63452e-07
5.34436e-07 -9.63452e-07 -3.09372e-05
0.000562224 -8.98527e-06 -5.29289e-07
-8.98527e-06 -1.10291e-05 1.28079e-06
-5.29289e-07 1.28079e-06 -9.57594e-05
0.00149321 -0.000157037 1.41974e-05
-0.000157037 -0.000195779 -9.99574e-07
1.41974e-05 -9.99574e-07 -0.000168348
0.0017419 -0.000330607 1.69635e-05
-0.000330607 -9.36551e-05 -3.27762e-06
1.69635e-05 -3.27762e-06 -0.000109052
-7.32352e-05 -0.000313025 1.33044e-05
-0.000313025 -0.000846163 2.20302e-06
1.33044e-05 2.20302e-06 -0.000974438
0.00129748 -0.000369655 1.96141e-06
-0.000369655 0.000221259 -1.31138e-06
1.96141e-06 -1.31138e-06 -1.29007e-05
0.00151393 -0.000166243 -3.36325e-07
-0.000166243 0.000666935 5.95142e-06
-3.36325e-07 5.95142e-06 0.00037093
0.0010899 -0.000138435 -4.91419e-07
-0.000138435 0.000347909 1.12547e-06
-4.91419e-07 1.12547e-06 0.000170607
0.000922254 -6.04791e-05 -1.21479e-06
-6.04791e-05 0.000200083 5.81238e-07
-1.21479e-06 5.81238e-07 9.21118e-05
0.000715115 3.59681e-05 -1.65157e-06
3.59681e-05 9.92689e-05 2.38601e-06
-1.65157e-06 2.38601e-06 -1.43202e-05
0.00169018 -0.000198564 -5.27939e-07
-0.000198564 -3.30229e-05 -9.13589e-07
-5.27939e-07 -9.13589e-07 -4.13026e-05
0.000638075 -4.72585e-05 -2.41287e-07
-4.72585e-05 5.43252e-05 -1.02345e-07
-2.41287e-07 -1.02345e-07 -7.40719e-05
0.000530617 -6.5191e-05 8.24103e-07
-6.5191e-05 1.51653e-05 -1.2995e-06
8.24103e-07 -1.2995e-06 -0.000124819
0.00204499 -0.000414025 4.61086e-06
-0.000414025 0.000151209 -6.76129e-07
4.61086e-06 -6.76129e-07 0.000154186
0.000810038 -0.000416492 1.22251e-06
-0.000416492 -0.000257642 3.01679e-06
1.22251e-06 3.01679e-06 -0.000406857
0.000925229 -0.000322797 8.05332e-06
-0.000322797 0.000134571 -2.54428e-06
8.05332e-06 -2.54428e-06 -0.000121885
0.00135841 -9.25944e-05 -4.60986e-07
-9.25944e-05 0.000573307 -3.20406e-06
-4.60986e-07 -3.20406e-06 0.000315989
0.000811382 -0.000260391 -1.5646e-05
-0.000260391 -0.000174134 -8.38203e-07
-1.5646e-05 -8.38203e-07 -0.000410821
0.00133457 -0.000337545 -2.7027e-05
-0.000337545 8.61812e-05 1.06286e-05
-2.7027e-05 1.06286e-05 4.42994e-05
-0.000255589 -0.0001736 -1.70638e-05
-0.0001736 -0.00032996 3.65568e-05
-1.70638e-05 3.65568e-05 -0.000608577
0.000537798 3.27414e-05 6.80586e-07
3.27414e-05 -3.46159e-06 9.25968e-07
6.80586e-07 9.25968e-07 -0.000129281
0.000521904 -0.000100332 2.71405e-06
-0.000100332 2.29817e-06 -1.91529e-06
2.71405e-06 -1.91529e-06 -0.00013762
0.000742008 -6.48116e-05 2.55046e-06
-6.48116e-05 0.00017877 -6.99386e-06
2.55046e-06 -6.99386e-06 -1.29102e-05
0.000615491 0.000122119 -0.00011901
0.000122119 0.00279052 1.80935e-06
-0.00011901 1.80935e-06 0.00162586
0.00205553 -0.000266248 1.83072e-05
-0.000266248 0.00146859 1.59741e-05
1.83072e-05 1.59741e-05 0.00133902
0.000243724 0.00052517 -6.02549e-05
0.00052517 -0.00271492 2.05593e-05
-6.02549e-05 2.05593e-05 -0.00331932
0.000783926 0.00013977 4.71893e-06
0.00013977 0.000163054 1.45106e-06
4.71893e-06 1.45106e-06 3.57658e-05
0.000579213 0.000189963 5.43294e-06
0.000189963 2.92928e-05 4.79989e-06
5.43294e-06 4.79989e-06 -0.000177738
0.00227123 0.000340498 1.52297e-05
0.000340498 0.00032458 1.11243e-05
1.52297e-05 1.11243e-05 0.000376337
0.00150652 0.000358461 1.34965e-05
0.000358461 0.00031723 1.14842e-05
1.34965e-05 1.14842e-05 5.40889e-05
0.00587618 -0.000546701 4.56986e-05
-0.000546701 0.00231589 2.98462e-05
4.56986e-05 2.98462e-05 0.00244721
0.001206 -6.04817e-05 -0.000104324
-6.04817e-05 -0.00158711 -8.21664e-06
-0.000104324 -8.21664e-06 -0.00310064
0.00294047 0.000919414 -8.83597e-05
0.000919414 -0.00032163 -2.30538e-05
-8.83597e-05 -2.30538e-05 -0.00110536
0.000463393 0.000183294 2.45349e-05
0.000183294 -0.000185496 -1.94294e-05
2.45349e-05 -1.94294e-05 -0.0001671
-0.0038463 -0.000621529 -5.7949e-05
-0.000621529 -0.00130035 -8.09368e-05
-5.7949e-05 -8.09368e-05 -0.00155941
-0.000214659 -0.000592978 -4.31178e-05
-0.000592978 0.000877936 1.13505e-05
-4.31178e-05 1.13505e-05 -0.000415354
0.0073679 -0.00123893 0.000141746
-0.00123893 0.000598281 0.000117404
0.000141746 0.000117404 0.00210769
0.00068866 0.000101959 4.96068e-06
0.000101959 0.000136767 -2.62732e-06
4.96068e-06 -2.62732e-06 1.83288e-05
-0.00127717 -2.93934e-05 -6.14905e-05
-2.93934e-05 0.00141944 -1.88847e-05
-6.14905e-05 -1.88847e-05 -0.000111697
0.00289623 0.000188687 -9.95977e-06
0.000188687 0.00118072 -4.72822e-05
-9.95977e-06 -4.72822e-05 -0.000731424
0.00106924 0.000307758 -7.84493e-06
0.000307758 6.02483e-05 3.7609e-06
-7.84493e-06 3.7609e-06 3.76199e-06
0.000571553 0.000223557 2.37082e-07
0.000223557 0.000101981 1.8138e-06
2.37082e-07 1.8138e-06 -0.000126062
-4.97877e-05 0.000215874 3.39286e-05
0.000215874 -0.000249084 -3.02716e-05
3.39286e-05 -3.02716e-05 -0.00047038
0.00534058 0.00113437 -8.30274e-06
0.00113437 0.00165579 2.30531e-06
-8.30274e-06 2.30531e-06 0.000927451
0.00997308 0.000381512 4.77895e-05
0.000381512 0.00360052 1.77377e-05
4.77895e-05 1.77377e-05 0.00180277
0.00243608 -0.000832924 1.17819e-05
-0.000832924 -0.000939384 -2.48051e-05
1.17819e-05 -2.48051e-05 -0.00101519
0.00780449 -0.000807669 7.53794e-06
-0.000807669 0.000933939 -2.42352e-05
7.53794e-06 -2.42352e-05 0.00220616
0.00081944 0.000162348 -1.10021e-05
0.000162348 0.000248744 -7.93023e-06
-1.10021e-05 -7.93023e-06 0.000141641
0.00233075 6.01841e-06 -8.23051e-05
6.01841e-06 0.000735085 -3.59847e-05
-8.23051e-05 -3.59847e-05 -0.000532939
0.00050517 6.99452e-05 -1.38036e-05
6.99452e-05 0.000290315 -7.58603e-05
-1.38036e-05 -7.58603e-05 -0.00103733
-0.000909343 3.89529e-05 -1.80493e-05
3.89529e-05 -0.000451233 -1.63525e-05
-1.80493e-05 -1.63525e-05 -0.000597521
0.00213042 0.000364658 -2.13835e-05
0.000364658 0.000713482 4.63435e-05
-2.13835e-05 4.63435e-05 7.17722e-05
0.00946359 0.000659569 3.05001e-05
0.000659569 0.00393741 -2.20905e-06
3.05001e-05 -2.20905e-06 0.0013109
-0.00694224 -0.00122175 -3.89617e-05
-0.00122175 -0.00407028 8.57394e-05
-3.89617e-05 8.57394e-05 -0.00566337
0.00575751 0.000284283 3.49787e-06
0.000284283 -0.000821446 -0.000119452
3.49787e-06 -0.000119452 0.00060993
0.00103829 9.17463e-05 1.79593e-06
9.17463e-05 0.00025531 6.62958e-06
1.79593e-06 6.62958e-06 0.00017566
0.000923207 0.000106863 -3.94179e-06
0.000106863 0.000227329 -9.23766e-07
-3.94179e-06 -9.23766e-07 0.000147641
0.00100029 8.96884e-05 -6.42148e-06
8.96884e-05 0.000384352 -4.86142e-07
-6.42148e-06 -4.86142e-07 0.000291863
0.00081817 7.6685e-05 -1.92484e-06
7.6685e-05 0.000129813 -7.22751e-07
-1.92484e-06 -7.22751e-07 2.65538e-05
0.00086941 -3.42683e-05 -5.41503e-07
-3.42683e-05 0.000159556 3.97472e-07
-5.41503e-07 3.97472e-07 4.63557e-05
0.000717885 3.28059e-05 2.45586e-07
3.28059e-05 5.61906e-05 1.09712e-06
2.45586e-07 1.09712e-06 -3.83344e-05
0.000246398 2.5525e-05 9.94241e-07
2.5525e-05 -0.00017207 2.19193e-06
9.94241e-07 2.19193e-06 -0.000264005
0.000856715 -1.10744e-06 8.72058e-07
-1.10744e-06 0.000145905 1.17273e-07
8.72058e-07 1.17273e-07 3.37132e-05
0.000883731 1.3104e-05 2.5988e-08
1.3104e-05 0.000164883 -5.68351e-07
2.5988e-08 -5.68351e-07 6.08496e-05
0.000368561 2.62559e-06 -7.48779e-07
2.62559e-06 -6.3118e-06 2.13821e-06
-7.48779e-07 2.13821e-06 -0.000101553
0.000473021 1.09594e-05 -5.64175e-06
1.09594e-05 0.00019404 -2.59044e-06
-5.64175e-06 -2.59044e-06 9.19547e-05
0.000888803 -1.71483e-05 -9.10741e-07
-1.71483e-05 0.000259528 -7.08699e-06
-9.10741e-07 -7.08699e-06 0.000160105
0.000992978 4.00157e-05 -6.44932e-07
4.00157e-05 0.000234703 -3.01501e-06
-6.44932e-07 -3.01501e-06 0.000120872
0.000859015 -8.34051e-05 1.14085e-06
-8.34051e-05 0.000144688 8.56324e-07
1.14085e-06 8.56324e-07 4.20637e-05
0.000775768 2.9989e-05 -5.61618e-07
2.9989e-05 0.00010432 -5.96338e-08
-5.61618e-07 -5.96338e-08 9.6168e-06
0.000747227 -3.47565e-05 -1.90624e-06
-3.47565e-05 7.42512e-05 2.17075e-06
-1.90624e-06 2.17075e-06 -1.13721e-05
0.000607535 -1.41475e-05 9.24748e-07
-1.41475e-05 3.57825e-06 7.73613e-07
9.24748e-07 7.73613e-07 -9.18112e-05
0.000738477 3.08559e-05 3.06878e-07
3.08559e-05 9.02967e-05 2.25557e-07
3.06878e-07 2.25557e-07 -5.20543e-06
0.000711313 9.05782e-07 -6.96263e-07
9.05782e-07 5.95539e-05 1.22651e-07
-6.96263e-07 1.22651e-07 -2.52381e-05
0.00093207 8.69149e-06 3.3573e-07
8.69149e-06 0.000181807 -1.88999e-06
3.3573e-07 -1.88999e-06 9.22278e-05
0.000322409 -2.15223e-05 2.87308e-06
-2.15223e-05 -0.000133704 -3.71884e-06
2.87308e-06 -3.71884e-06 -0.000208296
0.000508169 -8.64667e-05 1.30847e-06
-8.64667e-05 -0.000107656 -8.92635e-07
1.30847e-06 -8.92635e-07 -0.000202022
0.000911954 -2.66986e-05 -1.78828e-06
-2.66986e-05 0.000167491 -3.12168e-07
-1.78828e-06 -3.12168e-07 6.86998e-05
0.000434235 -6.54783e-05 3.22232e-06
-6.54783e-05 -7.43598e-05 1.5388e-06
3.22232e-06 1.5388e-06 -0.00020387
0.00103031 -0.00019642 4.1015e-07
-0.00019642 0.000232163 5.61238e-06
4.1015e-07 5.61238e-06 3.61956e-05
0.00124434 -8.20546e-05 1.50269e-06
-8.20546e-05 0.000395841 -1.52856e-06
1.50269e-06 -1.52856e-06 0.000274744
0.000348983 -5.65883e-05 -1.66488e-06
-5.65883e-05 -9.95112e-05 -3.39546e-06
-1.66488e-06 -3.39546e-06 -0.000237475
0.000649636 1.49605e-05 -3.65622e-07
1.49605e-05 4.82632e-05 -4.33236e-07
-3.65622e-07 -4.33236e-07 -5.30159e-05
0.000404061 1.41421e-05 4.92219e-07
1.41421e-05 -9.84041e-05 3.20881e-07
4.92219e-07 3.20881e-07 -0.000190341
0.000830961 9.45947e-06 -1.49969e-07
9.45947e-06 0.000143715 5.10643e-07
-1.49969e-07 5.10643e-07 4.54091e-05
0.000755702 -1.70539e-05 -5.77209e-07
-1.70539e-05 0.000100873 4.93394e-07
-5.77209e-07 4.93394e-07 9.61632e-06
0.000663863 8.95661e-07 -7.0379e-07
8.95661e-07 3.05763e-05 8.28795e-07
-7.0379e-07 8.28795e-07 -3.95967e-05
0.000819287 -3.66585e-05 3.4898e-07
-3.66585e-05 0.000147707 -3.19237e-07
3.4898e-07 -3.19237e-07 4.84594e-05
0.000708289 -3.39006e-05 -4.77921e-07
-3.39006e-05 5.97365e-05 1.83531e-08
-4.77921e-07 1.83531e-08 -1.34517e-05
0.000643631 3.3176e-05 -1.59421e-06
3.3176e-05 1.64559e-06 1.78972e-06
-1.59421e-06 1.78972e-06 -4.64517e-05
0.000743274 -6.30011e-05 1.45142e-06
-6.30011e-05 8.1212e-05 -9.08326e-07
1.45142e-06 -9.08326e-07 5.24076e-06
0.000677122 4.92729e-06 -2.79537e-07
4.92729e-06 1.84174e-05 1.09438e-08
-2.79537e-07 1.09438e-08 -2.81465e-05
0.00136026 3.4906e-05 -6.97355e-06
3.4906e-05 0.000404927 5.17211e-06
-6.97355e-06 5.17211e-06 0.000394346
0.000660722 -1.49324e-05 1.68665e-06
-1.49324e-05 1.20694e-05 -1.86554e-06
1.68665e-06 -1.86554e-06 -3.52518e-05
0.000985942 2.36967e-05 -3.35431e-06
2.36967e-05 0.000184507 7.08432e-07
-3.35431e-06 7.08432e-07 0.000172623
0.000805608 2.23107e-05 -7.68904e-07
2.23107e-05 8.25082e-05 1.9598e-06
-7.68904e-07 1.9598e-06 9.04822e-05
0.000595063 1.32039e-05 4.50883e-07
1.32039e-05 -4.53191e-05 -3.71566e-06
4.50883e-07 -3.71566e-06 -5.86003e-05
0.00155745 2.13857e-05 5.30057e-06
2.13857e-05 0.000517298 -1.46688e-06
5.30057e-06 -1.46688e-06 0.000529913
0.00231644 1.47843e-05 4.18762e-06
1.47843e-05 0.000958864 -5.03013e-06
4.18762e-06 -5.03013e-06 0.000975572
0.000756519 -2.72752e-06 8.4192e-07
-2.72752e-06 8.91665e-05 -1.61389e-06
8.4192e-07 -1.61389e-06 1.52988e-05
0.000685584 1.71696e-05 -4.81138e-07
1.71696e-05 2.7248e-05 -2.26622e-06
-4.81138e-07 -2.26622e-06 -1.25513e-05
0.000747487 -1.89405e-06 8.34438e-07
-1.89405e-06 9.00138e-05 1.76015e-07
8.34438e-07 1.76015e-07 1.791e-05
0.000628486 -4.13654e-06 -1.38366e-08
-4.13654e-06 -3.0139e-05 -3.6462e-06
-1.38366e-08 -3.6462e-06 -3.67538e-05
0.000654672 1.47922e-05 4.92277e-08
1.47922e-05 1.05025e-05 -1.75248e-08
4.92277e-08 -1.75248e-08 -2.73031e-05
0.000676577 -7.31364e-05 -2.97047e-06
-7.31364e-05 4.99159e-05 2.12754e-06
-2.97047e-06 2.12754e-06 -2.00453e-05
0.00205508 1.66482e-07 -9.27397e-07
1.66482e-07 0.000805485 -4.76661e-06
-9.27397e-07 -4.76661e-06 0.000825341
0.000626804 1.96856e-06 -1.46508e-07
1.96856e-06 -3.09779e-05 -5.5718e-09
-1.46508e-07 -5.5718e-09 -3.69922e-05
0.000638247 -1.31449e-05 -1.07658e-06
-1.31449e-05 1.68454e-07 1.94877e-06
-1.07658e-06 1.94877e-06 -3.60718e-05
0.000615315 7.76426e-06 -2.7546e-07
7.76426e-06 -3.71261e-05 3.471e-06
-2.7546e-07 3.471e-06 -4.32339e-05
0.00206464 1.31833e-05 -3.40517e-06
1.31833e-05 0.000812415 -3.91593e-08
-3.40517e-06 -3.91593e-08 0.000831904
0.00205995 2.42534e-05 -1.0448e-05
2.42534e-05 0.000812093 4.44415e-06
-1.0448e-05 4.44415e-06 0.000831007
-0.00314697 -0.000166905 -3.48722e-05
-0.000166905 0.000744273 1.29376e-05
-3.48722e-05 1.29376e-05 -0.000823882
-0.00108446 0.00037232 -4.71876e-05
0.00037232 -0.000504107 1.14427e-05
-4.71876e-05 1.14427e-05 -0.000883967
0.00313116 -0.000202129 -0.000158911
-0.000202129 0.000855137 0.000128035
-0.000158911 0.000128035 -0.00084796
-0.00273796 0.000165965 0.000225629
0.000165965 0.0010207 -9.95711e-05
0.000225629 -9.95711e-05 8.9796e-05
0.0014567 0.000174616 -7.37408e-05
0.000174616 -0.000506391 1.32586e-05
-7.37408e-05 1.32586e-05 -0.000672298
0.00221527 -0.000123166 9.20345e-05
-0.000123166 7.83063e-05 -1.0091e-05
9.20345e-05 -1.0091e-05 5.32753e-05
0.0017492 -0.000410034 -7.59399e-05
-0.000410034 -0.00137267 -4.91113e-05
-7.59399e-05 -4.91113e-05 -0.0024715
0.00824363 0.000757221 -5.69676e-05
0.000757221 0.0040296 -1.41293e-05
-5.69676e-05 -1.41293e-05 0.00367859
-0.00727056 0.00152521 -0.000367596
0.00152521 -0.00382452 0.000292327
-0.000367596 0.000292327 -0.00182512
0.00250558 -5.31113e-05 -9.86891e-06
-5.31113e-05 -0.000129485 -4.93762e-06
-9.86891e-06 -4.93762e-06 -0.000330284
0.00407523 -0.000213275 3.34138e-05
-0.000213275 7.94476e-05 -4.51922e-05
3.34138e-05 -4.51922e-05 -0.00186804
0.00882803 0.00142763 -4.92173e-05
0.00142763 0.00284661 -5.63872e-05
-4.92173e-05 -5.63872e-05 0.00351622
0.00229316 0.000951547 -5.22255e-05
0.000951547 -0.0014654 0.000115889
-5.22255e-05 0.000115889 -0.000776735
0.00241912 -0.000522554 -5.68631e-05
-0.000522554 -0.000468853 1.60776e-05
-5.68631e-05 1.60776e-05 -0.000785248
0.00249979 -0.000564858 0.000153863
-0.000564858 0.000362422 -0.000112228
0.000153863 -0.000112228 -0.00253013
-0.00540577 0.000626583 -4.64166e-05
0.000626583 -0.00456733 -0.000228584
-4.64166e-05 -0.000228584 -0.00444719
0.00216039 0.000588182 -3.61309e-05
0.000588182 -0.00295136 -6.2356e-06
-3.61309e-05 -6.2356e-06 -0.00169194
0.000805527 -1.31311e-05 1.09691e-06
-1.31311e-05 0.000153027 -2.93762e-07
1.09691e-06 -2.93762e-07 2.79624e-05
0.000742415 5.83784e-05 -1.78493e-06
5.83784e-05 0.000112328 -7.84711e-07
-1.78493e-06 -7.84711e-07 5.505e-07
0.000700861 5.0998e-05 5.97692e-08
5.0998e-05 6.93723e-05 -1.97667e-07
5.97692e-08 -1.97667e-07 -1.22035e-05
0.000650512 6.81451e-05 2.36617e-06
6.81451e-05 6.27601e-05 2.48084e-06
2.36617e-06 2.48084e-06 -4.17454e-05
0.000712765 3.49886e-05 -9.12523e-08
3.49886e-05 9.03261e-05 -6.28396e-07
-9.12523e-08 -6.28396e-07 -3.72648e-05
0.000852442 7.30165e-05 1.92896e-07
7.30165e-05 0.000173039 9.91191e-07
1.92896e-07 9.91191e-07 5.82247e-05
0.000687257 1.95272e-05 -8.54215e-07
1.95272e-05 7.07238e-05 2.33723e-06
-8.54215e-07 2.33723e-06 -3.22958e-05
0.000894772 0.00010727 -1.34397e-07
0.00010727 0.000200261 -4.07884e-07
-1.34397e-07 -4.07884e-07 8.20573e-05
0.000845334 5.98703e-05 -1.51842e-07
5.98703e-05 0.000169929 5.48936e-07
-1.51842e-07 5.48936e-07 5.94524e-05
0.000604858 -6.13309e-06 -1.82629e-06
-6.13309e-06 2.72365e-05 4.78146e-07
-1.82629e-06 4.78146e-07 -7.37533e-05
0.0011535 -0.00018871 3.15522e-05
-0.00018871 -0.00029928 -1.32266e-05
3.15522e-05 -1.32266e-05 -0.000286981
0.000906857 -0.000356657 2.65889e-05
-0.000356657 -0.000425891 -4.14492e-06
2.65889e-05 -4.14492e-06 -0.000434594
0.00103876 -0.000430877 1.50272e-05
-0.000430877 -0.000119335 -2.6301e-06
1.50272e-05 -2.6301e-06 -0.000262289
0.00119599 -0.000364829 9.20256e-06
-0.000364829 0.000272089 -1.75243e-05
9.20256e-06 -1.75243e-05 -1.23167e-05
0.00147483 -0.000122397 -1.33136e-06
-0.000122397 0.000611733 1.09517e-05
-1.33136e-06 1.09517e-05 0.00037002
0.000694504 -8.29391e-05 -1.66489e-06
-8.29391e-05 0.000116199 4.58637e-06
-1.66489e-06 4.58637e-06 -3.21479e-05
0.000630667 6.5365e-05 -6.6353e-07
6.5365e-05 5.37958e-05 -2.98219e-07
-6.6353e-07 -2.98219e-07 -7.78952e-05
0.000721741 -4.85596e-05 -4.58762e-07
-4.85596e-05 0.00010584 1.33251e-06
-4.58762e-07 1.33251e-06 -2.72756e-05
0.00133591 -0.000249098 -1.81155e-06
-0.000249098 7.00151e-05 -2.08773e-07
-1.81155e-06 -2.08773e-07 -8.32371e-05
0.000839753 -7.70937e-06 1.39566e-07
-7.70937e-06 0.000183257 3.11935e-07
1.39566e-07 3.11935e-07 4.10489e-05
0.00123215 -0.000100812 -1.12922e-08
-0.000100812 0.000464471 2.03291e-07
-1.12922e-08 2.03291e-07 0.000261395
0.00114312 -0.000328693 -2.66352e-06
-0.000328693 -4.23497e-05 -1.92455e-06
-2.66352e-06 -1.92455e-06 -7.39537e-05
0.00106972 -0.000223042 -1.29832e-05
-0.000223042 0.000364012 4.51045e-06
-1.29832e-05 4.51045e-06 0.000102475
-0.000257021 -0.000325261 -1.35614e-05
-0.000325261 -0.00080576 -1.84015e-05
-1.35614e-05 -1.84015e-05 -0.000784456
0.000641098 -0.000153688 -1.8134e-05
-0.000153688 0.000113675 2.47161e-05
-1.8134e-05 2.47161e-05 2.01592e-05
0.000370162 -5.01729e-05 -5.67686e-06
-5.01729e-05 1.03841e-05 2.78949e-05
-5.67686e-06 2.78949e-05 -0.000189211
0.000693581 -3.55958e-06 5.13438e-07
-3.55958e-06 7.59098e-05 -5.69504e-07
5.13438e-07 -5.69504e-07 -5.4831e-05
0.000638342 2.1799e-05 2.0483e-06
2.1799e-05 0.000125401 -5.78876e-06
2.0483e-06 -5.78876e-06 -6.338e-05
0.00165741 -3.41527e-05 -1.58414e-05
-3.41527e-05 0.000697669 -2.03008e-06
-1.58414e-05 -2.03008e-06 -0.000389829
-0.00167796 4.34247e-05 -9.05171e-05
4.34247e-05 0.00185692 -4.51986e-06
-9.05171e-05 -4.51986e-06 0.000387616
-0.00851125 -0.000342112 -0.000251729
-0.000342112 -0.00438411 5.04158e-06
-0.000251729 5.04158e-06 -0.00431967
-4.71514e-05 8.02685e-05 5.87986e-06
8.02685e-05 -0.000258263 -1.73181e-06
5.87986e-06 -1.73181e-06 -0.000387704
9.41093e-05 0.00010591 3.33172e-06
0.00010591 -0.000139724 3.22665e-06
3.33172e-06 3.22665e-06 -0.000361691
0.0015744 0.000287925 1.35831e-05
0.000287925 0.000340801 4.3604e-06
1.35831e-05 4.3604e-06 0.000277442
-0.00303007 0.000207164 -2.32095e-05
0.000207164 0.000658571 9.79128e-06
-2.32095e-05 9.79128e-06 -0.00103013
0.00204251 0.000390563 -6.77237e-05
0.000390563 0.000297808 -6.03535e-05
-6.77237e-05 -6.03535e-05 -0.00252878
0.00314408 0.000891158 9.71568e-05
0.000891158 0.000385764 1.59689e-05
9.71568e-05 1.59689e-05 -0.000169394
0.000643081 0.000273245 5.6684e-06
0.000273245 2.79219e-05 -1.72601e-05
5.6684e-06 -1.72601e-05 -2.24215e-05
0.0110276 -0.00102792 1.88902e-05
-0.00102792 0.00335051 -6.8651e-05
1.88902e-05 -6.8651e-05 0.00330618
0.00337609 0.000203646 9.58164e-05
0.000203646 0.00147422 6.67389e-05
9.58164e-05 6.67389e-05 -0.000503748
0.00771972 -0.000711365 3.07382e-05
-0.000711365 0.00113589 1.02047e-06
3.07382e-05 1.02047e-06 0.0024887
0.000967661 0.000169023 1.05221e-06
0.000169023 0.000369239 -2.21068e-06
1.05221e-06 -2.21068e-06 0.000255738
0.00261006 1.1541e-05 6.02925e-06
1.1541e-05 0.00105107 -6.96528e-06
6.02925e-06 -6.96528e-06 -6.28801e-05
0.000902462 9.7059e-05 9.16267e-06
9.7059e-05 0.000249472 1.4176e-05
9.16267e-06 1.4176e-05 -0.00111395
-0.000130977 0.000162278 -8.37787e-06
0.000162278 -9.02173e-05 -1.4932e-06
-8.37787e-06 -1.4932e-06 -0.000270239
0.00268209 0.000526805 -6.24432e-05
0.000526805 0.000831193 -3.55748e-05
-6.24432e-05 -3.55748e-05 0.000190093
0.00227618 0.00110083 5.6424e-05
0.00110083 0.000565391 4.31081e-05
5.6424e-05 4.31081e-05 -0.00234618
0.00474662 0.000112923 -8.06274e-06
0.000112923 -0.00206051 -8.31203e-05
-8.06274e-06 -8.31203e-05 -8.2988e-05
0.00134158 -0.000723726 -2.37722e-05
-0.000723726 -3.07795e-05 -2.1253e-05
-2.37722e-05 -2.1253e-05 -0.00111018
0.0010266 0.000114596 -4.33117e-06
0.000114596 0.000563025 -8.57208e-06
-4.33117e-06 -8.57208e-06 0.000445126
0.000854204 -5.22731e-05 -2.11107e-06
-5.22731e-05 0.000134369 -2.26343e-05
-2.11107e-06 -2.26343e-05 -9.80947e-05
0.00245358 -9.86216e-06 1.89343e-05
-9.86216e-06 0.000340022 -6.81611e-05
1.89343e-05 -6.81611e-05 -0.00067426
0.00232986 0.000622892 4.2941e-05
0.000622892 -0.00285038 4.93307e-06
4.2941e-05 4.93307e-06 -0.00169075
-0.00103413 4.9967e-05 -4.61886e-06
4.9967e-05 -0.00027094 -1.61254e-05
-4.61886e-06 -1.61254e-05 -0.00069723
0.00984212 0.000822032 0.000105598
0.000822032 0.00457903 4.42387e-05
0.000105598 4.42387e-05 0.00144838
-0.00886297 -0.000277708 5.7927e-05
-0.000277708 -0.00103722 0.000121088
5.7927e-05 0.000121088 -0.00258155
0.00165964 0.000170258 1.4477e-05
0.000170258 0.000654691 6.75745e-06
1.4477e-05 6.75745e-06 0.000567944
0.000968455 0.000110204 -3.14002e-06
0.000110204 0.000353659 3.40414e-07
-3.14002e-06 3.40414e-07 0.000255005
0.000558135 8.11927e-05 -1.05616e-05
8.11927e-05 0.000323987 -1.74501e-07
-1.05616e-05 -1.74501e-07 0.00020637
0.000791016 0.000121602 1.04592e-06
0.000121602 0.000116965 1.32132e-06
1.04592e-06 1.32132e-06 -2.17557e-07
0.000758087 4.46116e-05 6.09392e-07
4.46116e-05 8.98775e-05 1.14554e-06
6.09392e-07 1.14554e-06 -1.01988e-05
0.000704771 -1.69891e-06 3.79969e-06
-1.69891e-06 0.000199919 7.23821e-06
3.79969e-06 7.23821e-06 9.49891e-05
0.000727843 3.80358e-05 -2.58516e-07
3.80358e-05 7.65123e-05 -4.21994e-07
-2.58516e-07 -4.21994e-07 -3.0083e-05
0.000769927 -2.95299e-05 -3.71947e-07
-2.95299e-05 0.000195557 -1.27721e-06
-3.71947e-07 -1.27721e-06 9.10633e-05
0.000326971 1.47186e-05 7.40197e-06
1.47186e-05 0.000107026 3.17862e-06
7.40197e-06 3.17862e-06 2.11711e-06
0.00109832 1.68767e-05 -1.06316e-05
1.68767e-05 0.000519403 -1.15104e-05
-1.06316e-05 -1.15104e-05 0.000446313
0.000345882 -3.02619e-05 -2.12172e-06
-3.02619e-05 -6.51072e-05 -6.53281e-06
-2.12172e-06 -6.53281e-06 -0.00016088
0.000653916 -2.34212e-05 4.00751e-07
-2.34212e-05 2.03766e-05 3.07225e-06
4.00751e-07 3.07225e-06 -6.81532e-05
0.000790261 3.1313e-05 -3.11856e-07
3.1313e-05 0.000120956 9.0427e-08
-3.11856e-07 9.0427e-08 2.42529e-05
0.000879543 1.19649e-05 -4.20133e-06
1.19649e-05 0.000154699 2.8355e-06
-4.20133e-06 2.8355e-06 6.96811e-05
0.000724255 -2.27039e-05 1.7085e-06
-2.27039e-05 8.98871e-05 1.53971e-07
1.7085e-06 1.53971e-07 1.40945e-05
0.000741212 1.6157e-05 -1.32704e-07
1.6157e-05 7.60481e-05 1.80593e-07
-1.32704e-07 1.80593e-07 -1.49743e-05
0.000721841 -6.68548e-05 2.46979e-06
-6.68548e-05 8.89348e-05 -9.92892e-08
2.46979e-06 -9.92892e-08 -2.22192e-06
0.000558395 -6.85269e-05 -1.48161e-06
-6.85269e-05 -5.18548e-05 -8.82475e-07
-1.48161e-06 -8.82475e-07 -0.000135888
0.000328318 -0.000134046 5.51101e-06
-0.000134046 -0.000152445 1.10902e-07
5.51101e-06 1.10902e-07 -0.000312867
0.0010269 -5.19194e-05 -7.87668e-07
-5.19194e-05 0.000237157 8.51319e-07
-7.87668e-07 8.51319e-07 0.00013468
0.00104145 -0.000120397 -7.52737e-07
-0.000120397 0.000261538 2.09428e-06
-7.52737e-07 2.09428e-06 0.000123162
0.000216605 -0.000148787 5.0196e-07
-0.000148787 -0.000262916 3.50844e-06
5.0196e-07 3.50844e-06 -0.000451778
0.000642317 -0.000168635 -6.26064e-06
-0.000168635 -1.89036e-05 4.11125e-08
-6.26064e-06 4.11125e-08 -0.000214595
0.000963694 -0.000151399 -1.58275e-06
-0.000151399 0.000250996 2.93999e-06
-1.58275e-06 2.93999e-06 9.54405e-05
0.000648956 -0.000159852 9.54394e-07
-0.000159852 1.85281e-05 5.16618e-07
9.54394e-07 5.16618e-07 -0.000169083
0.000855654 -4.46258e-05 5.34035e-07
-4.46258e-05 0.000160756 2.99887e-07
5.34035e-07 2.99887e-07 5.61242e-05
0.00101358 -7.48695e-05 -1.21967e-06
-7.48695e-05 0.000271753 -7.08132e-07
-1.21967e-06 -7.08132e-07 0.000146822
0.000542449 -7.82314e-05 8.53033e-07
-7.82314e-05 2.404e-05 -6.84171e-06
8.53033e-07 -6.84171e-06 -0.000111991
0.000965848 4.54363e-06 -9.3542e-07
4.54363e-06 0.000222001 -5.11468e-07
-9.3542e-07 -5.11468e-07 0.000122715
0.000550459 6.38055e-06 2.09923e-07
6.38055e-06 -1.31405e-05 -2.5572e-08
2.09923e-07 -2.5572e-08 -0.000106364
0.000658781 1.36836e-05 -3.30696e-07
1.36836e-05 3.02714e-05 7.23642e-07
-3.30696e-07 7.23642e-07 -4.38551e-05
0.000807468 -3.38581e-05 -2.70352e-08
-3.38581e-05 0.000137864 1.98883e-07
-2.70352e-08 1.98883e-07 4.01957e-05
0.000706917 -1.7724e-05 -3.28943e-07
-1.7724e-05 6.07367e-05 6.68503e-09
-3.28943e-07 6.68503e-09 -1.38514e-05
0.000645427 3.26281e-05 -9.96181e-07
3.26281e-05 6.4758e-06 1.79343e-06
-9.96181e-07 1.79343e-06 -4.37134e-05
0.000751157 -5.1356e-05 8.22014e-07
-5.1356e-05 8.93409e-05 -9.5535e-07
8.22014e-07 -9.5535e-07 1.22027e-05
0.000662845 2.43422e-05 -6.28833e-07
2.43422e-05 1.23205e-05 -3.3105e-08
-6.28833e-07 -3.3105e-08 -3.58488e-05
0.00133112 4.54185e-05 -8.05143e-06
4.54185e-05 0.000392287 3.49099e-06
-8.05143e-06 3.49099e-06 0.000380742
0.000683113 -7.97844e-06 1.96527e-06
-7.97844e-06 2.18049e-05 -1.90961e-06
1.96527e-06 -1.90961e-06 -2.4885e-05
0.00097117 3.21591e-05 -4.21975e-06
3.21591e-05 0.000178258 6.33042e-07
-4.21975e-06 6.33042e-07 0.000165897
0.000814017 3.01241e-05 -1.31597e-06
3.01241e-05 9.2208e-05 1.98782e-06
-1.31597e-06 1.98782e-06 9.91078e-05
0.000581699 1.98832e-05 7.10864e-07
1.98832e-05 -5.19639e-05 -3.83358e-06
7.10864e-07 -3.83358e-06 -6.54767e-05
0.00155878 3.17526e-05 7.13655e-06
3.17526e-05 0.000521926 -1.35124e-06
7.13655e-06 -1.35124e-06 0.000533539
0.00232251 2.78779e-05 8.23906e-06
2.78779e-05 0.000964962 -4.89054e-06
8.23906e-06 -4.89054e-06 0.000980965
0.000474522 2.51133e-06 1.23497e-07
2.51133e-06 -6.46147e-05 -2.24244e-06
1.23497e-07 -2.24244e-06 -0.000153779
0.00039386 -2.13128e-06 -2.38065e-07
-2.13128e-06 -0.00014188 -3.2565e-06
-2.38065e-07 -3.2565e-06 -0.000188196
0.000783237 8.64684e-06 9.21629e-08
8.64684e-06 0.000109638 6.71792e-08
9.21629e-08 6.71792e-08 3.23365e-05
0.000623589 -1.038e-05 1.94609e-08
-1.038e-05 -3.22409e-05 -3.81455e-06
1.94609e-08 -3.81455e-06 -4.04859e-05
0.000513944 6.01639e-06 7.72894e-07
6.01639e-06 -7.17728e-05 -5.24996e-08
7.72894e-07 -5.24996e-08 -0.000113033
0.000480319 -6.83143e-05 -5.91748e-07
-6.83143e-05 -6.21374e-05 1.7391e-06
-5.91748e-07 1.7391e-06 -0.000137078
0.00209441 -1.1852e-05 -5.33701e-06
-1.1852e-05 0.000828717 -4.80532e-06
-5.33701e-06 -4.80532e-06 0.000848108
0.000628431 -4.06553e-06 -1.36577e-07
-4.06553e-06 -3.00919e-05 -2.63473e-08
-1.36577e-07 -2.63473e-08 -3.66768e-05
0.000638321 -3.46783e-06 -9.74782e-07
-3.46783e-06 8.45773e-07 2.12352e-06
-9.74782e-07 2.12352e-06 -3.67e-05
0.00206651 1.36773e-06 -3.46921e-06
1.36773e-06 0.000812208 5.46237e-09
-3.46921e-06 5.46237e-09 0.000832015
0.00061942 1.93e-06 -9.18865e-08
1.93e-06 -3.51116e-05 3.48892e-06
-9.18865e-08 3.48892e-06 -4.11039e-05
0.00206764 1.44193e-05 -3.63281e-06
1.44193e-05 0.000814325 4.62004e-06
-3.63281e-06 4.62004e-06 0.000833742
0.000823378 -9.49786e-05 -7.19119e-05
-9.49786e-05 -7.46098e-05 2.75853e-05
-7.19119e-05 2.75853e-05 -0.00119717
0.00153049 0.000145499 -1.62818e-05
0.000145499 0.00258552 -1.01412e-05
-1.62818e-05 -1.01412e-05 0.00165106
0.00134591 -0.000293555 -0.000170392
-0.000293555 0.00168244 -7.14531e-06
-0.000170392 -7.14531e-06 0.000959869
0.000752489 6.30106e-05 5.24845e-08
6.30106e-05 0.000100456 -1.47597e-07
5.24845e-08 -1.47597e-07 -1.36e-05
0.00337664 -0.000158459 -2.25346e-05
-0.000158459 0.00189864 7.97277e-05
-2.25346e-05 7.97277e-05 0.000937865
0.00314285 -0.000238129 -5.59239e-05
-0.000238129 0.000974647 5.34671e-06
-5.59239e-05 5.34671e-06 -0.000908571
0.00153115 0.000501762 0.000116872
0.000501762 0.0023985 -0.000117241
0.000116872 -0.000117241 0.00189688
0.00368286 -0.000176135 9.47077e-06
-0.000176135 0.000234288 -2.87422e-05
9.47077e-06 -2.87422e-05 -1.44085e-05
0.0103247 -9.03005e-05 8.25576e-05
-9.03005e-05 0.00317574 -4.15628e-05
8.25576e-05 -4.15628e-05 0.0014834
-0.0033929 0.00101416 -9.31869e-05
0.00101416 -0.00369954 0.000105633
-9.31869e-05 0.000105633 -0.00283275
0.00437046 0.00105602 1.02787e-05
0.00105602 -0.000230027 3.55916e-05
1.02787e-05 3.55916e-05 0.000419718
0.00469454 -0.000643941 -7.98218e-05
-0.000643941 0.000409556 -5.18087e-08
-7.98218e-05 -5.18087e-08 -0.000210892
0.0093598 -0.0003818 5.16782e-05
-0.0003818 0.0037018 -1.42717e-05
5.16782e-05 -1.42717e-05 0.00168141
0.00553178 0.000743442 4.31353e-05
0.000743442 0.000287736 -7.83714e-05
4.31353e-05 -7.83714e-05 0.000233303
0.00430985 0.00057545 -1.48048e-05
0.00057545 -0.00161296 8.01812e-06
-1.48048e-05 8.01812e-06 -0.000488892
0.00484963 -0.00110865 -4.68951e-06
-0.00110865 0.000783752 -5.42997e-06
-4.68951e-06 -5.42997e-06 -0.000211518
0.0102049 -0.000874216 6.29676e-05
-0.000874216 0.00502774 -3.93192e-05
6.29676e-05 -3.93192e-05 0.00156835
0.00228915 -0.00013174 5.53038e-05
-0.00013174 -0.000227361 -0.000127041
5.53038e-05 -0.000127041 -0.000423859
0.00580659 0.00018787 -1.98352e-05
0.00018787 -0.000773647 5.54589e-05
-1.98352e-05 5.54589e-05 0.00077997
0.000779287 -2.89267e-05 3.27594e-07
-2.89267e-05 0.000130682 -1.24073e-06
3.27594e-07 -1.24073e-06 -3.73359e-06
0.000758626 -3.96202e-05 3.73177e-07
-3.96202e-05 0.000128831 6.0078e-08
3.73177e-07 6.0078e-08 2.32075e-07
0.000861431 8.50558e-05 -1.21527e-06
8.50558e-05 0.00018587 1.69979e-07
-1.21527e-06 1.69979e-07 7.19692e-05
0.000718858 2.38606e-05 -4.43991e-07
2.38606e-05 6.96724e-05 -9.43718e-07
-4.43991e-07 -9.43718e-07 -4.2823e-05
0.000832318 7.68751e-05 -7.35131e-07
7.68751e-05 0.000160783 7.26606e-07
-7.35131e-07 7.26606e-07 3.38726e-05
0.000851682 5.84703e-05 1.84633e-07
5.84703e-05 0.000171124 2.30281e-06
1.84633e-07 2.30281e-06 5.87171e-05
0.000959615 0.000101206 -7.43112e-07
0.000101206 0.000234945 2.52408e-09
-7.43112e-07 2.52408e-09 0.000118362
0.00097845 0.000107113 8.51905e-07
0.000107113 0.000254289 2.71642e-06
8.51905e-07 2.71642e-06 0.000139397
0.00150222 -0.000222153 4.95333e-05
-0.000222153 0.000104542 -1.61566e-05
4.95333e-05 -1.61566e-05 4.69692e-05
0.000871839 -0.000312983 7.78461e-06
-0.000312983 -0.000212141 -1.69334e-05
7.78461e-06 -1.69334e-05 -0.000228361
0.000751216 -0.000144018 -1.64317e-06
-0.000144018 0.000132534 1.07513e-06
-1.64317e-06 1.07513e-06 -9.38322e-06
0.00224273 -0.000251014 7.17599e-06
-0.000251014 0.000975922 -2.48499e-05
7.17599e-06 -2.48499e-05 0.000733228
0.00184984 -0.000135797 -2.89862e-06
-0.000135797 0.000810472 7.01641e-06
-2.89862e-06 7.01641e-06 0.000603962
0.000900437 -4.94305e-05 -2.31668e-06
-4.94305e-05 0.000209861 -4.95098e-07
-2.31668e-06 -4.95098e-07 7.21078e-05
0.000809748 1.36279e-05 2.25676e-07
1.36279e-05 0.000152689 -2.22674e-07
2.25676e-07 -2.22674e-07 1.58083e-05
0.00043881 -0.00037988 -1.0118e-05
-0.00037988 -0.000490758 -3.24329e-07
-1.0118e-05 -3.24329e-07 -0.000483555
0.00104444 3.7967e-05 -1.62263e-07
3.7967e-05 0.00035917 2.28376e-06
-1.62263e-07 2.28376e-06 0.000162549
0.000968776 -0.000114666 -3.06075e-06
-0.000114666 0.000316532 1.22614e-06
-3.06075e-06 1.22614e-06 0.000116988
0.000391541 -0.000139469 1.93493e-06
-0.000139469 -5.75935e-05 3.85317e-06
1.93493e-06 3.85317e-06 -0.00010561
0.000642367 2.80187e-05 1.49196e-06
2.80187e-05 3.41584e-05 -1.37872e-06
1.49196e-06 -1.37872e-06 -8.59717e-05
0.00133401 -0.000320024 2.14439e-05
-0.000320024 3.15817e-05 -3.0087e-05
2.14439e-05 -3.0087e-05 0.000191675
0.000430769 -0.000110776 -1.01731e-05
-0.000110776 0.000209164 3.06557e-05
-1.01731e-05 3.06557e-05 0.000106565
0.000828291 -1.02455e-05 -9.16593e-07
-1.02455e-05 0.00028106 1.00628e-05
-9.16593e-07 1.00628e-05 7.4e-05
0.00134121 0.000173918 2.17686e-06
0.000173918 0.000490494 -2.75354e-06
2.17686e-06 -2.75354e-06 0.000325911
0.00105712 -3.50599e-05 -9.24649e-06
-3.50599e-05 0.000532571 -4.31653e-06
-9.24649e-06 -4.31653e-06 6.64943e-05
0.0014274 -5.10637e-05 5.93237e-05
-5.10637e-05 0.000619707 -6.29451e-06
5.93237e-05 -6.29451e-06 -0.000476009
-0.00381005 -5.26794e-05 -9.51889e-05
-5.26794e-05 0.00102526 5.22272e-06
-9.51889e-05 5.22272e-06 -0.000753078
0.000934735 0.000153279 1.4436e-05
0.000153279 0.000393545 1.02231e-06
1.4436e-05 1.02231e-06 0.000275003
-0.000684093 0.000207901 1.26961e-05
0.000207901 -0.000411158 1.10768e-05
1.26961e-05 1.10768e-05 -0.000640564
0.00289543 2.78397e-06 7.11188e-05
2.78397e-06 0.00133538 5.08297e-06
7.11188e-05 5.08297e-06 0.000383364
0.00795194 0.000339081 0.000120826
0.000339081 0.00358884 6.25895e-05
0.000120826 6.25895e-05 0.000610587
0.0027163 0.000583779 -8.68012e-05
0.000583779 0.00102359 -8.08659e-05
-8.68012e-05 -8.08659e-05 3.91708e-05
0.00347557 -0.000435061 3.98946e-07
-0.000435061 0.000753783 -0.000130026
3.98946e-07 -0.000130026 -0.000329957
0.00123194 0.000115561 3.18402e-05
0.000115561 0.000225121 0.000103795
3.18402e-05 0.000103795 -0.00117913
0.00381967 -1.9415e-06 1.07128e-06
-1.9415e-06 -0.00336505 -8.10099e-05
1.07128e-06 -8.10099e-05 -0.000845839
0.000717709 0.000134238 1.08393e-06
0.000134238 0.000395952 -1.20606e-06
1.08393e-06 -1.20606e-06 0.000262563
0.000899978 -5.20346e-05 -2.52155e-07
-5.20346e-05 0.000173839 -8.55655e-06
-2.52155e-07 -8.55655e-06 -5.04459e-05
0.00250022 1.24944e-05 3.14633e-05
1.24944e-05 0.000579346 7.39239e-06
3.14633e-05 7.39239e-06 -0.000287612
-0.000868831 0.000111304 -1.24601e-05
0.000111304 -0.000348991 -5.62972e-06
-1.24601e-05 -5.62972e-06 -0.000693289
0.00458631 0.000667355 1.23573e-05
0.000667355 -0.00158211 -8.02423e-06
1.23573e-05 -8.02423e-06 -0.000473957
0.00546496 0.00081201 8.64599e-05
0.00081201 0.00274351 3.79807e-05
8.64599e-05 3.79807e-05 -0.000484501
0.00313323 0.000187255 -5.01073e-05
0.000187255 0.00208893 7.65575e-06
-5.01073e-05 7.65575e-06 0.0012079
0.00015455 0.000145887 -2.12378e-05
0.000145887 0.000156952 -1.33846e-05
-2.12378e-05 -1.33846e-05 -5.01014e-05
0.00172502 3.3412e-05 -2.78942e-07
3.3412e-05 5.65312e-05 -2.40991e-05
-2.78942e-07 -2.40991e-05 -2.09763e-05
0.00345299 -0.000122843 2.48965e-05
-0.000122843 0.00184955 -7.95126e-05
2.48965e-05 -7.95126e-05 0.000931944
0.00543505 0.00108367 0.000117922
0.00108367 3.22037e-05 -8.73126e-05
0.000117922 -8.73126e-05 0.000792551
0.00529327 -7.05783e-05 -7.08974e-05
-7.05783e-05 0.000780616 0.000115019
-7.08974e-05 0.000115019 0.00081788
0.00127697 0.000202523 -1.23187e-05
0.000202523 9.55293e-05 -4.25269e-05
-1.23187e-05 -4.25269e-05 0.000106953
-0.000418085 0.000664942 0.000107574
0.000664942 0.00205351 3.7504e-05
0.000107574 3.7504e-05 -0.00278608
0.000687307 0.000121062 2.79578e-06
0.000121062 0.000180069 5.79821e-06
2.79578e-06 5.79821e-06 7.9004e-05
0.000373738 7.55746e-05 6.82148e-06
7.55746e-05 0.000219144 1.78807e-06
6.82148e-06 1.78807e-06 9.8233e-05
0.00110853 3.84634e-05 -2.69068e-05
3.84634e-05 0.000714072 -1.9131e-05
-2.69068e-05 -1.9131e-05 0.000618482
0.000509801 -1.51075e-05 6.7421e-07
-1.51075e-05 -6.00508e-05 3.18614e-06
6.7421e-07 3.18614e-06 -0.000156338
0.000845371 -3.77923e-05 1.86319e-06
-3.77923e-05 0.000236444 4.09151e-06
1.86319e-06 4.09151e-06 0.000133663
-7.30488e-05 1.59366e-06 -1.38785e-07
1.59366e-06 -0.000132574 6.82331e-06
-1.38785e-07 6.82331e-06 -0.000235096
0.000719023 -5.15475e-05 5.18611e-07
-5.15475e-05 0.00013706 -3.82752e-07
5.18611e-07 -3.82752e-07 4.77011e-05
0.000141446 -8.37019e-06 2.86209e-06
-8.37019e-06 -2.9469e-05 2.58638e-08
2.86209e-06 2.58638e-08 -0.000105569
0.00110617 -0.000167992 7.08702e-06
-0.000167992 0.00052826 -7.54433e-06
7.08702e-06 -7.54433e-06 0.000363946
0.001151 -3.39694e-05 -1.8076e-06
-3.39694e-05 0.000328379 3.68567e-06
-1.8076e-06 3.68567e-06 0.00025039
0.000477653 3.29831e-05 -1.06112e-06
3.29831e-05 -6.93083e-05 1.56302e-06
-1.06112e-06 1.56302e-06 -0.000161535
0.00131284 -0.000109867 1.05401e-06
-0.000109867 0.000415167 1.70443e-06
1.05401e-06 1.70443e-06 0.000315574
-2.66423e-05 -0.000116541 4.09863e-06
-0.000116541 -0.000235727 1.50136e-06
4.09863e-06 1.50136e-06 -0.000444856
0.00046352 -4.4541e-05 -4.30671e-06
-4.4541e-05 -7.79722e-05 1.35608e-06
-4.30671e-06 1.35608e-06 -0.000151354
0.000167962 -0.000120406 1.7466e-06
-0.000120406 -0.00024382 -1.04039e-06
1.7466e-06 -1.04039e-06 -0.000391783
0.00103592 -0.000229262 7.48769e-06
-0.000229262 0.000204229 -1.76927e-06
7.48769e-06 -1.76927e-06 -1.63337e-05
0.00131084 -0.000269946 -2.98473e-06
-0.000269946 0.000205946 4.39728e-06
-2.98473e-06 4.39728e-06 -3.03045e-05
0.00164221 -0.000175654 -2.23643e-06
-0.000175654 0.000594429 1.36385e-07
-2.23643e-06 1.36385e-07 0.000446852
0.000606264 -0.000182175 -7.66376e-08
-0.000182175 -5.13063e-05 7.13258e-08
-7.66376e-08 7.13258e-08 -0.000249837
0.00189936 -0.000286049 1.78793e-06
-0.000286049 0.000663753 -1.46738e-06
1.78793e-06 -1.46738e-06 0.00046614
0.000146264 -9.89464e-05 -2.5043e-06
-9.89464e-05 -0.0002311 3.93513e-08
-2.5043e-06 3.93513e-08 -0.000404177
0.000890106 -0.000187577 -5.26221e-07
-0.000187577 0.000125739 8.8871e-07
-5.26221e-07 8.8871e-07 -6.81006e-05
0.000683289 -4.01478e-05 8.45987e-08
-4.01478e-05 7.1963e-05 1.43939e-07
8.45987e-08 1.43939e-07 -4.71623e-05
0.00104735 -0.000165526 -3.33628e-06
-0.000165526 0.000299902 2.35666e-06
-3.33628e-06 2.35666e-06 0.000141419
0.000241127 -0.000121234 -1.94413e-06
-0.000121234 -0.000209796 -1.65953e-06
-1.94413e-06 -1.65953e-06 -0.000389742
0.00064965 3.20082e-05 4.36209e-07
3.20082e-05 3.36075e-05 9.73939e-07
4.36209e-07 9.73939e-07 -5.18711e-05
0.000726245 -3.07115e-05 8.14049e-07
-3.07115e-05 9.19962e-05 -8.79971e-08
8.14049e-07 -8.79971e-08 -1.46591e-05
0.00084246 -7.2367e-05 2.42597e-06
-7.2367e-05 0.000182922 -2.73898e-06
2.42597e-06 -2.73898e-06 5.30517e-05
0.000712678 -3.81661e-06 3.54542e-07
-3.81661e-06 8.09628e-05 -3.64578e-07
3.54542e-07 -3.64578e-07 -1.35114e-05
0.000716765 -3.70975e-06 -5.4822e-07
-3.70975e-06 6.86349e-05 -1.2095e-07
-5.4822e-07 -1.2095e-07 -9.96988e-06
0.000642524 3.62382e-05 -1.23621e-06
3.62382e-05 8.31057e-06 1.9e-06
-1.23621e-06 1.9e-06 -4.44587e-05
0.000760271 -3.38681e-05 7.02608e-07
-3.38681e-05 9.59525e-05 -8.20799e-07
7.02608e-07 -8.20799e-07 1.74811e-05
0.000662154 2.84801e-05 -4.38565e-07
2.84801e-05 1.48271e-05 -5.376e-08
-4.38565e-07 -5.376e-08 -3.48355e-05
0.000599372 4.29879e-05 -1.08947e-06
4.29879e-05 -2.81565e-05 3.87134e-06
-1.08947e-06 3.87134e-06 -4.52497e-05
0.000702299 1.92409e-06 1.92235e-06
1.92409e-06 3.24477e-05 -1.84441e-06
1.92235e-06 -1.84441e-06 -1.43735e-05
0.000603087 3.54239e-05 1.33215e-07
3.54239e-05 -3.26366e-05 1.50163e-08
1.33215e-07 1.50163e-08 -4.77962e-05
0.00220662 6.6772e-05 -4.36513e-06
6.6772e-05 0.000911453 1.80293e-06
-4.36513e-06 1.80293e-06 0.00092316
0.000580193 2.77764e-05 8.49132e-07
2.77764e-05 -5.00328e-05 -3.88564e-06
8.49132e-07 -3.88564e-06 -6.41663e-05
0.00154992 4.17222e-05 8.62048e-06
4.17222e-05 0.000521769 -1.18015e-06
8.62048e-06 -1.18015e-06 0.00053219
0.00231466 4.04059e-05 1.24866e-05
4.04059e-05 0.000964299 -4.66028e-06
1.24866e-05 -4.66028e-06 0.000979303
0.000474987 -5.77161e-06 -1.35718e-07
-5.77161e-06 -7.4604e-05 -2.08127e-06
-1.35718e-07 -2.08127e-06 -0.00016144
0.000372295 -4.5889e-06 -1.94047e-07
-4.5889e-06 -0.000155152 -3.22101e-06
-1.94047e-07 -3.22101e-06 -0.00020668
0.000642337 1.1899e-05 -4.2117e-07
1.1899e-05 3.13872e-05 -8.23094e-07
-4.2117e-07 -8.23094e-07 -5.60844e-05
0.000619745 -1.67699e-05 -1.55627e-08
-1.67699e-05 -3.27841e-05 -4.00401e-06
-1.55627e-08 -4.00401e-06 -4.34741e-05
0.000367579 -2.87894e-06 -2.79887e-07
-2.87894e-06 -0.000156845 -9.96147e-07
-2.79887e-07 -9.96147e-07 -0.000203876
0.000801451 1.91761e-05 -1.15188e-07
1.91761e-05 0.000127691 1.88518e-06
-1.15188e-07 1.88518e-06 4.54786e-05
0.00215739 -2.41295e-05 -9.61491e-06
-2.41295e-05 0.000867009 -4.79131e-06
-9.61491e-06 -4.79131e-06 0.000885255
0.000622188 -1.035e-05 -1.53245e-07
-1.035e-05 -3.29906e-05 -4.22358e-08
-1.53245e-07 -4.22358e-08 -4.11523e-05
0.000348394 -1.93269e-06 4.37459e-07
-1.93269e-06 -0.000167073 2.24433e-06
4.37459e-07 2.24433e-06 -0.000209911
0.00208622 -1.06066e-05 -3.37683e-06
-1.06066e-05 0.000823738 4.07652e-08
-3.37683e-06 4.07652e-08 0.000843282
0.000626227 -4.00343e-06 -1.83236e-08
-4.00343e-06 -3.12851e-05 3.59542e-06
-1.83236e-08 3.59542e-06 -3.78276e-05
0.00207608 2.58315e-06 8.27321e-07
2.58315e-06 0.000817843 4.72753e-06
8.27321e-07 4.72753e-06 0.000837576
0.00122432 8.10722e-06 -6.47902e-07
8.10722e-06 0.000527386 1.67374e-05
-6.47902e-07 1.67374e-05 0.000232694
0.00133151 -7.33671e-05 8.88545e-06
-7.33671e-05 0.000253637 -5.80533e-06
8.88545e-06 -5.80533e-06 -0.000875137
0.00181775 8.41339e-05 2.55731e-05
8.41339e-05 0.00273133 -3.27935e-05
2.55731e-05 -3.27935e-05 0.00192282
0.000806303 6.92286e-05 -1.76259e-07
6.92286e-05 0.000125816 2.83184e-07
-1.76259e-07 2.83184e-07 1.76011e-05
0.000653749 4.01394e-05 4.18508e-08
4.01394e-05 2.28436e-05 -5.43354e-08
4.18508e-08 -5.43354e-08 -7.63121e-05
0.000919241 9.49611e-05 -9.11588e-10
9.49611e-05 0.000186644 8.23343e-07
-9.11588e-10 8.23343e-07 7.23811e-05
0.0021573 -5.5747e-05 9.10096e-06
-5.5747e-05 0.0001976 0.000129167
9.10096e-06 0.000129167 -0.000842718
0.00309377 -0.000135036 -2.26177e-06
-0.000135036 0.00178744 9.5908e-07
-2.26177e-06 9.5908e-07 0.000767733
0.00344548 -0.000270285 4.54056e-05
-0.000270285 0.00125685 -9.55773e-05
4.54056e-05 -9.55773e-05 -0.000776492
0.00510502 -0.000700951 -4.93882e-05
-0.000700951 0.000899201 -9.549e-09
-4.93882e-05 -9.549e-09 0.000230378
0.00167404 -0.000521988 -8.81374e-05
-0.000521988 9.23645e-05 7.07389e-05
-8.81374e-05 7.07389e-05 -0.00239249
0.00856531 0.00102876 7.1918e-05
0.00102876 0.0027401 4.2386e-05
7.1918e-05 4.2386e-05 0.00245494
0.00193361 0.000196787 2.37099e-05
0.000196787 -0.0030393 -5.43611e-05
2.37099e-05 -5.43611e-05 -0.00188315
0.00540511 -0.00111191 -1.5282e-05
-0.00111191 0.00141658 4.35384e-06
-1.5282e-05 4.35384e-06 0.00064643
0.00678003 -0.000744034 7.46216e-07
-0.000744034 0.00304406 1.13755e-05
7.46216e-07 1.13755e-05 9.58108e-05
-0.00230638 0.000546093 -1.6403e-05
0.000546093 -0.000466053 -7.75986e-05
-1.6403e-05 -7.75986e-05 -0.00171306
0.00464588 -1.87698e-05 -1.37532e-05
-1.87698e-05 -0.00210936 3.28468e-05
-1.37532e-05 3.28468e-05 -9.49453e-05
0.00255542 -0.000773117 -3.97511e-05
-0.000773117 0.000327288 -1.42662e-05
-3.97511e-05 -1.42662e-05 -0.000344817
0.0110371 -0.00101899 -6.70178e-06
-0.00101899 0.00512359 3.63879e-05
-6.70178e-06 3.63879e-05 0.00159522
-0.00893132 -0.000104869 4.78932e-05
-0.000104869 -0.0008986 -0.000155848
4.78932e-05 -0.000155848 -0.00260483
0.00312589 -0.000581787 6.81157e-06
-0.000581787 -0.00197831 -3.0224e-05
6.81157e-06 -3.0224e-05 -0.000652413
0.000774031 3.74817e-05 -4.5271e-07
3.74817e-05 0.000105238 -3.87855e-07
-4.5271e-07 -3.87855e-07 -1.94328e-05
0.000727756 1.40811e-06 1.23379e-07
1.40811e-06 0.00010025 -6.16701e-07
1.23379e-07 -6.16701e-07 -3.34407e-05
0.000734518 -5.71403e-05 1.31148e-07
-5.71403e-05 0.000115205 4.00733e-07
1.31148e-07 4.00733e-07 -1.60256e-05
0.000764098 4.73557e-05 -4.61817e-07
4.73557e-05 9.85124e-05 -5.8646e-07
-4.61817e-07 -5.8646e-07 -1.67475e-05
0.000904025 0.000115749 1.08884e-06
0.000115749 0.00020231 1.71201e-06
1.08884e-06 1.71201e-06 7.76366e-05
0.00105005 0.000113724 -7.30768e-07
0.000113724 0.000289226 1.17431e-06
-7.30768e-07 1.17431e-06 0.000170759
0.000571771 -0.000386879 1.68924e-05
-0.000386879 -0.000432993 6.62786e-06
1.68924e-05 6.62786e-06 -0.000461895
-0.000531376 -8.93795e-05 1.54849e-05
-8.93795e-05 -0.000573708 -2.26785e-05
1.54849e-05 -2.26785e-05 -0.000579233
0.000940468 5.99766e-05 -1.32971e-06
5.99766e-05 0.000234815 4.32491e-08
-1.32971e-06 4.32491e-08 9.34653e-05
0.00130385 -0.000152622 1.89639e-05
-0.000152622 0.00046351 -3.13876e-05
1.89639e-05 -3.13876e-05 0.000268108
0.00128563 1.68857e-05 -2.47373e-06
1.68857e-05 0.000490058 1.80222e-06
-2.47373e-06 1.80222e-06 0.000290515
0.000712819 1.92098e-05 1.51633e-08
1.92098e-05 7.49556e-05 3.94092e-07
1.51633e-08 3.94092e-07 -5.07028e-05
0.000624613 8.76979e-05 2.71328e-07
8.76979e-05 7.69755e-05 6.08931e-08
2.71328e-07 6.08931e-08 -7.38737e-05
0.000220628 -0.000320913 -3.44288e-06
-0.000320913 -0.000533504 -3.00272e-06
-3.44288e-06 -3.00272e-06 -0.000511208
0.000865192 -2.49052e-05 4.22047e-06
-2.49052e-05 0.000296234 -1.90847e-06
4.22047e-06 -1.90847e-06 9.74134e-05
0.000464277 -5.44601e-05 2.26337e-05
-5.44601e-05 0.00024422 2.51447e-07
2.26337e-05 2.51447e-07 0.000139499
0.00108161 6.57367e-05 2.54255e-06
6.57367e-05 0.00029327 -3.58173e-06
2.54255e-06 -3.58173e-06 0.000172589
-0.00248082 0.000132892 -5.79285e-05
0.000132892 -0.00112483 -1.41181e-05
-5.79285e-05 -1.41181e-05 -0.00148313
8.4281e-05 8.84187e-06 5.95839e-06
8.84187e-06 1.3543e-05 3.43455e-05
5.95839e-06 3.43455e-05 -8.1481e-05
0.00127659 6.32483e-06 2.45529e-06
6.32483e-06 0.000529751 1.40696e-06
2.45529e-06 1.40696e-06 0.00036444
0.00114881 -2.90986e-05 1.957e-06
-2.90986e-05 -1.19326e-06 3.10393e-07
1.957e-06 3.10393e-07 -0.000394744
0.000884178 -2.74578e-05 -1.46706e-05
-2.74578e-05 0.00039979 -6.34164e-06
-1.46706e-05 -6.34164e-06 6.77629e-06
0.00100747 -3.47578e-05 0.000138374
-3.47578e-05 0.000464452 -4.13104e-06
0.000138374 -4.13104e-06 -0.000677455
0.000872359 0.000176105 1.65913e-05
0.000176105 0.000470541 1.24803e-05
1.65913e-05 1.24803e-05 0.000325942
0.00191442 0.000390356 1.46417e-05
0.000390356 0.000661416 -1.29643e-05
1.46417e-05 -1.29643e-05 0.000442661
0.000953626 -5.24516e-05 2.14455e-06
-5.24516e-05 0.000217769 5.41183e-06
2.14455e-06 5.41183e-06 1.57503e-06
-0.00183139 0.000432919 2.57243e-05
0.000432919 -1.31017e-05 3.55736e-05
2.57243e-05 3.55736e-05 -0.00331768
-0.0104831 0.00020702 -5.86426e-05
0.00020702 -0.00370291 -0.000155928
-5.86426e-05 -0.000155928 -0.00544336
0.00255582 3.0661e-05 3.30422e-05
3.0661e-05 0.000822503 6.1493e-05
3.30422e-05 6.1493e-05 0.000133093
0.00214049 0.000328231 -3.12304e-05
0.000328231 -0.00295544 5.53031e-05
-3.12304e-05 5.53031e-05 -0.00184231
0.000458637 0.000140942 5.14274e-06
0.000140942 0.000333465 -1.62141e-06
5.14274e-06 -1.62141e-06 0.00014856
0.00157482 -4.32441e-06 8.93148e-06
-4.32441e-06 -4.02725e-05 -1.55382e-05
8.93148e-06 -1.55382e-05 -4.86691e-05
0.00316461 -9.65461e-05 1.44861e-06
-9.65461e-05 0.00173419 -1.19094e-06
1.44861e-06 -1.19094e-06 0.000741471
0.00135113 0.000210687 -8.73575e-06
0.000210687 0.000242272 -4.08457e-06
-8.73575e-06 -4.08457e-06 -0.000154229
0.00251336 0.000994148 4.90619e-05
0.000994148 -0.00160032 -0.000114286
4.90619e-05 -0.000114286 -0.00074726
-0.00204828 0.000515393 1.41379e-05
0.000515393 -0.00112946 7.67098e-05
1.41379e-05 7.67098e-05 -0.00190378
0.00677751 -1.28286e-05 6.22781e-05
-1.28286e-05 0.00481068 -2.22038e-05
6.22781e-05 -2.22038e-05 0.000211627
0.00159939 -1.13311e-05 3.23775e-05
-1.13311e-05 0.0012019 -1.60979e-05
3.23775e-05 -1.60979e-05 0.000873981
0.00125983 3.38321e-05 -6.45059e-07
3.38321e-05 0.000488498 -1.3965e-05
-6.45059e-07 -1.3965e-05 0.000204293
0.00324321 -0.000165463 0.000157304
-0.000165463 0.000797708 -0.000129444
0.000157304 -0.000129444 -0.000843371
0.00366017 0.00135448 -8.13504e-06
0.00135448 0.00234706 -1.33011e-05
-8.13504e-06 -1.33011e-05 0.00327708
-0.0051002 0.000607294 4.27231e-05
0.000607294 -0.00461538 0.000217526
4.27231e-05 0.000217526 -0.00447451
0.0120002 -0.000885503 9.08016e-05
-0.000885503 0.00499966 -8.68448e-05
9.08016e-05 -8.68448e-05 0.00162088
0.00427696 -0.000405683 -9.20611e-05
-0.000405683 0.00136734 0.000101117
-9.20611e-05 0.000101117 0.00126221
0.000768953 9.83975e-05 6.19725e-06
9.83975e-05 0.000442655 4.11859e-06
6.19725e-06 4.11859e-06 0.000312472
-7.14146e-05 1.26671e-06 -8.83845e-06
1.26671e-06 5.3418e-05 1.89112e-06
-8.83845e-06 1.89112e-06 -7.29849e-05
0.00118107 -0.000232099 1.16593e-05
-0.000232099 0.000757106 -1.48328e-05
1.16593e-05 -1.48328e-05 0.000512592
0.000947552 -6.30859e-05 1.28844e-06
-6.30859e-05 0.000260133 2.28463e-06
1.28844e-06 2.28463e-06 0.000174426
-0.00053117 -2.6173e-05 4.62238e-06
-2.6173e-05 -0.000411276 1.39257e-05
4.62238e-06 1.39257e-05 -0.000495053
0.000154474 -0.000138792 -1.49663e-06
-0.000138792 1.879e-05 -2.47367e-07
-1.49663e-06 -2.47367e-07 -0.000135158
0.00124282 -0.000241861 2.3493e-05
-0.000241861 0.000545162 -1.45773e-05
2.3493e-05 -1.45773e-05 0.000273254
0.00200249 -0.000154972 -3.90661e-06
-0.000154972 0.000797804 3.5831e-06
-3.90661e-06 3.5831e-06 0.00068922
0.0015968 -0.000264018 1.63905e-06
-0.000264018 0.000610807 1.59839e-07
1.63905e-06 1.59839e-07 0.0003915
0.00117054 -0.00026283 8.44656e-06
-0.00026283 0.000388537 2.47793e-06
8.44656e-06 2.47793e-06 3.81066e-05
5.6506e-05 -0.000101565 -1.72887e-06
-0.000101565 -0.000309211 -5.60088e-07
-1.72887e-06 -5.60088e-07 -0.000442578
0.00119647 -0.000240542 -3.45591e-07
-0.000240542 0.000271518 1.50927e-06
-3.45591e-07 1.50927e-06 4.28445e-05
0.00265871 -0.000412659 2.91819e-06
-0.000412659 0.000965415 2.98206e-06
2.91819e-06 2.98206e-06 0.000664494
0.00180486 -0.000349679 -2.22504e-06
-0.000349679 0.00037263 2.11546e-06
-2.22504e-06 2.11546e-06 0.000108329
0.000501787 -0.00019192 7.35587e-07
-0.00019192 -0.00021572 6.85662e-06
7.35587e-07 6.85662e-06 -0.0004197
0.00129508 -0.000269679 -3.91194e-06
-0.000269679 0.000204575 1.9547e-06
-3.91194e-06 1.9547e-06 -3.34552e-05
0.000959393 -0.000212645 -5.88094e-06
-0.000212645 0.000138832 1.40812e-06
-5.88094e-06 1.40812e-06 -6.88803e-05
0.00174317 -0.000261706 5.05512e-06
-0.000261706 0.000609868 -2.97202e-06
5.05512e-06 -2.97202e-06 0.000419444
0.00128305 -0.000230778 2.92899e-06
-0.000230778 0.000318282 -2.68653e-06
2.92899e-06 -2.68653e-06 0.000137278
0.00022017 -4.61057e-05 1.99855e-06
-4.61057e-05 -0.000189191 8.73197e-07
1.99855e-06 8.73197e-07 -0.000338644
0.000703684 -0.000149364 1.51155e-06
-0.000149364 9.02968e-05 -5.67174e-07
1.51155e-06 -5.67174e-07 -8.80902e-05
0.00113817 -0.000206383 5.79404e-06
-0.000206383 0.000270018 -4.56297e-06
5.79404e-06 -4.56297e-06 7.8596e-05
0.000646443 3.88575e-05 1.29244e-06
3.88575e-05 3.9607e-05 1.4867e-06
1.29244e-06 1.4867e-06 -6.2094e-05
0.000889977 -7.14374e-05 -4.87846e-07
-7.14374e-05 0.000195445 5.94817e-08
-4.87846e-07 5.94817e-08 6.90602e-05
0.00104612 -0.000171822 -7.08282e-07
-0.000171822 0.000299168 -5.57382e-07
-7.08282e-07 -5.57382e-07 0.000139153
0.000631707 3.43097e-05 -1.19636e-06
3.43097e-05 6.5494e-06 1.97883e-06
-1.19636e-06 1.97883e-06 -5.06513e-05
0.000732709 2.43041e-06 -6.84661e-07
2.43041e-06 7.91451e-05 -2.8553e-07
-6.84661e-07 -2.8553e-07 -6.92345e-06
0.000600708 -1.78782e-05 1.91606e-07
-1.78782e-05 2.54053e-05 -5.31296e-07
1.91606e-07 -5.31296e-07 -8.33774e-05
0.000771429 -2.39818e-05 6.36779e-07
-2.39818e-05 0.000101741 -1.06079e-06
6.36779e-07 -1.06079e-06 2.0902e-05
0.000669342 2.09642e-05 -2.61251e-07
2.09642e-05 2.16497e-05 -7.89817e-08
-2.61251e-07 -7.89817e-08 -3.01182e-05
0.000584138 5.10036e-05 -9.2488e-07
5.10036e-05 -2.81836e-05 4.10921e-06
-9.2488e-07 4.10921e-06 -4.83252e-05
0.000685542 1.12765e-05 1.87702e-06
1.12765e-05 2.59186e-05 -1.80511e-06
1.87702e-06 -1.80511e-06 -2.25226e-05
0.000600804 4.42198e-05 -7.77169e-09
4.42198e-05 -2.71823e-05 -8.24208e-09
-7.77169e-09 -8.24208e-09 -4.44293e-05
0.00224981 7.30427e-05 -2.36103e-05
7.30427e-05 0.000944042 3.78307e-06
-2.36103e-05 3.78307e-06 0.000954435
0.000591369 3.61568e-05 9.18225e-07
3.61568e-05 -3.94282e-05 -3.85616e-06
9.18225e-07 -3.85616e-06 -5.46188e-05
0.00153325 5.19151e-05 1.026e-05
5.19151e-05 0.000518719 -1.03571e-06
1.026e-05 -1.03571e-06 0.000527506
0.00230858 5.27573e-05 1.63963e-05
5.27573e-05 0.00096604 -4.34293e-06
1.63963e-05 -4.34293e-06 0.000979667
0.000714505 5.15388e-05 -5.4875e-07
5.15388e-05 6.38896e-05 -1.05819e-06
-5.4875e-07 -1.05819e-06 -2.54559e-05
0.000661407 1.11319e-05 -7.11555e-07
1.11319e-05 1.02339e-05 -2.47206e-06
-7.11555e-07 -2.47206e-06 -4.29208e-05
0.000597627 3.18997e-05 -1.03008e-06
3.18997e-05 4.31693e-06 -8.0429e-07
-1.03008e-06 -8.0429e-07 -8.77093e-05
0.000608703 -2.36058e-05 1.42566e-07
-2.36058e-05 -3.62421e-05 -4.27737e-06
1.42566e-07 -4.27737e-06 -4.99811e-05
0.00050068 5.92784e-06 -1.02567e-06
5.92784e-06 -8.10461e-05 -9.89061e-07
-1.02567e-06 -9.89061e-07 -0.000131419
0.0008165 3.03879e-05 3.47534e-07
3.03879e-05 0.000132282 6.74726e-07
3.47534e-07 6.74726e-07 4.55215e-05
0.00223663 -3.6711e-05 -1.41697e-05
-3.6711e-05 0.000915946 -4.71535e-06
-1.41697e-05 -4.71535e-06 0.000932536
0.000615897 -1.65425e-05 -2.27862e-07
-1.65425e-05 -3.50521e-05 -4.0395e-08
-2.27862e-07 -4.0395e-08 -4.56061e-05
0.000331779 -3.20324e-06 -4.72523e-07
-3.20324e-06 -0.000177334 1.4396e-06
-4.72523e-07 1.4396e-06 -0.000225005
0.00214784 -2.29298e-05 -3.42841e-06
-2.29298e-05 0.000861062 8.04142e-08
-3.42841e-06 8.04142e-08 0.000879555
0.000621923 -1.03603e-05 -3.88056e-08
-1.03603e-05 -3.30491e-05 3.72866e-06
-3.88056e-08 3.72866e-06 -4.11437e-05
0.00208885 -9.34907e-06 5.38919e-06
-9.34907e-06 0.000825095 4.7507e-06
5.38919e-06 4.7507e-06 0.000844703
0.00165496 -2.75873e-05 -1.01863e-06
-2.75873e-05 2.24608e-05 2.5327e-05
-1.01863e-06 2.5327e-05 -4.57759e-05
0.00121865 -9.56617e-07 -2.99971e-06
-9.56617e-07 0.000446233 -1.11015e-06
-2.99971e-06 -1.11015e-06 0.000193718
0.00175065 -6.5913e-05 9.13358e-05
-6.5913e-05 0.000509436 -2.49976e-05
9.13358e-05 -2.49976e-05 -0.000593114
0.000631641 8.91369e-07 -2.33746e-07
8.91369e-07 2.43794e-06 -6.74527e-07
-2.33746e-07 -6.74527e-07 -8.92548e-05
0.0008751 2.5624e-05 -1.17713e-06
2.5624e-05 0.000150181 -6.63689e-07
-1.17713e-06 -6.63689e-07 4.80956e-05
0.000813599 6.85016e-05 1.2588e-06
6.85016e-05 0.000127208 8.1434e-07
1.2588e-06 8.1434e-07 2.35552e-05
0.000665214 2.46241e-05 1.93583e-07
2.46241e-05 2.3716e-05 1.55266e-07
1.93583e-07 1.55266e-07 -7.09329e-05
0.000786317 4.80729e-05 6.41905e-08
4.80729e-05 0.000108884 2.11223e-07
6.41905e-08 2.11223e-07 -2.83417e-06
0.000773587 3.28913e-05 -8.99463e-07
3.28913e-05 9.34302e-05 -9.81714e-08
-8.99463e-07 -9.81714e-08 -8.93047e-06
0.000935798 0.000160622 6.47071e-07
0.000160622 0.000212652 3.0531e-07
6.47071e-07 3.0531e-07 8.01029e-05
0.000345734 2.76419e-05 3.53802e-05
2.76419e-05 0.000174021 0.000121164
3.53802e-05 0.000121164 -0.00114139
0.0023793 -3.45782e-05 -7.41923e-06
-3.45782e-05 0.000582629 4.44558e-05
-7.41923e-06 4.44558e-05 -0.00026865
0.002719 -0.000105736 1.09695e-05
-0.000105736 0.00164801 -6.36264e-05
1.09695e-05 -6.36264e-05 0.00054727
0.00344553 -0.000131276 -2.53862e-05
-0.000131276 -0.00350837 3.92651e-05
-2.53862e-05 3.92651e-05 -0.00103323
0.00350735 -0.00094712 -4.59049e-05
-0.00094712 0.00116274 5.50125e-05
-4.59049e-05 5.50125e-05 0.000173787
-0.0018302 -0.000967141 1.95675e-05
-0.000967141 -0.000640684 5.93826e-05
1.95675e-05 5.93826e-05 -0.0040306
0.00679144 0.0011921 5.68434e-05
0.0011921 0.00392998 -2.41126e-05
5.68434e-05 -2.41126e-05 0.00224825
0.00403727 -0.000902884 -2.05335e-05
-0.000902884 0.00101642 5.5184e-06
-2.05335e-05 5.5184e-06 0.000266914
0.000254332 -0.00041954 3.65329e-05
-0.00041954 0.000991116 8.298e-06
3.65329e-05 8.298e-06 -0.00270909
0.00433546 -5.7275e-05 -1.24379e-05
-5.7275e-05 0.0023155 -5.75816e-06
-1.24379e-05 -5.75816e-06 0.00145564
0.00767391 -0.000815015 -2.69008e-05
-0.000815015 0.000922722 -3.24095e-05
-2.69008e-05 -3.24095e-05 0.00220035
0.000781979 2.52073e-05 -8.7168e-05
2.52073e-05 -0.000711515 5.75928e-05
-8.7168e-05 5.75928e-05 -0.00059785
0.000659789 0.000773538 -7.39498e-06
0.000773538 0.00104236 -9.3754e-05
-7.39498e-06 -9.3754e-05 -0.00254909
-0.00690242 -0.00120722 5.61958e-05
-0.00120722 -0.00416996 -0.000100519
5.61958e-05 -0.000100519 -0.00576768
0.00308369 -0.000772969 1.17059e-05
-0.000772969 -0.00141428 -0.000169125
1.17059e-05 -0.000169125 7.46234e-05
0.000721315 5.4539e-06 -1.14011e-06
5.4539e-06 7.36108e-05 -5.31307e-07
-1.14011e-06 -5.31307e-07 -3.26673e-05
0.000714707 3.94352e-05 2.81574e-07
3.94352e-05 7.42594e-05 1.87606e-07
2.81574e-07 1.87606e-07 -5.14374e-05
0.000717887 1.49042e-05 -3.92231e-07
1.49042e-05 0.000102065 1.36684e-07
-3.92231e-07 1.36684e-07 -3.64339e-05
0.000802575 4.17468e-05 -1.51066e-08
4.17468e-05 0.000130863 -7.3646e-07
-1.51066e-08 -7.3646e-07 7.65763e-06
0.000211732 -0.00035278 3.63638e-07
-0.00035278 -0.000587034 1.99759e-05
3.63638e-07 1.99759e-05 -0.000641939
0.00106564 -4.79759e-05 -6.83377e-06
-4.79759e-05 0.000585073 -2.809e-05
-6.83377e-06 -2.809e-05 0.000496037
0.000571743 1.6537e-05 -1.44149e-06
1.6537e-05 -1.62166e-05 2.7661e-07
-1.44149e-06 2.7661e-07 -0.000136304
0.000745973 9.12582e-05 -1.9056e-06
9.12582e-05 0.000151816 2.06428e-06
-1.9056e-06 2.06428e-06 2.19309e-07
0.00183677 -4.88468e-05 6.50545e-06
-4.88468e-05 0.000842378 -2.38412e-05
6.50545e-06 -2.38412e-05 0.000650938
0.000790717 4.41591e-05 -3.01849e-07
4.41591e-05 0.000128613 7.96729e-07
-3.01849e-07 7.96729e-07 1.06396e-05
0.000859338 5.56429e-05 -1.59383e-06
5.56429e-05 0.000307475 -2.38225e-06
-1.59383e-06 -2.38225e-06 0.000131895
-0.00027836 2.89603e-05 2.20101e-05
2.89603e-05 -7.28059e-05 -1.29384e-05
2.20101e-05 -1.29384e-05 -0.00051457
0.000785085 -1.58293e-05 3.0447e-05
-1.58293e-05 0.000412891 1.86358e-07
3.0447e-05 1.86358e-07 0.000344477
0.000235079 9.55877e-05 -6.11151e-07
9.55877e-05 -7.541e-05 -2.01974e-06
-6.11151e-07 -2.01974e-06 -0.000199787
0.000231247 -5.8251e-05 -2.39214e-05
-5.8251e-05 0.000672472 -3.79002e-05
-2.39214e-05 -3.79002e-05 -0.000426377
0.00318641 7.57109e-05 1.29971e-05
7.57109e-05 0.00167433 2.07031e-05
1.29971e-05 2.07031e-05 0.0015163
0.00106253 -1.80245e-05 7.70952e-06
-1.80245e-05 0.000514294 4.35066e-06
7.70952e-06 4.35066e-06 5.77611e-05
0.00136984 -2.98271e-05 2.89959e-07
-2.98271e-05 0.000175168 4.49476e-07
2.89959e-07 4.49476e-07 -9.5481e-05
0.00067202 -2.83164e-05 -6.47622e-06
-2.83164e-05 0.000261484 -8.85274e-06
-6.47622e-06 -8.85274e-06 -7.86547e-05
3.24469e-05 0.000103095 1.07273e-05
0.000103095 0.000123344 6.51101e-06
1.07273e-05 6.51101e-06 -3.88419e-05
-0.00016079 0.000210524 1.36587e-05
0.000210524 -0.000580265 3.36933e-05
1.36587e-05 3.36933e-05 -0.000690604
0.00142654 -2.21872e-05 1.08972e-05
-2.21872e-05 -0.000125142 1.04255e-06
1.08972e-05 1.04255e-06 -7.13548e-05
0.00391316 -0.00078669 0.000133698
-0.00078669 0.00349999 -0.000128157
0.000133698 -0.000128157 -0.00090417
0.00676011 0.00123192 -5.46454e-05
0.00123192 0.00332876 3.29003e-05
-5.46454e-05 3.29003e-05 0.00193119
0.00281524 -7.51699e-05 -1.5251e-05
-7.51699e-05 0.00161031 6.38487e-05
-1.5251e-05 6.38487e-05 0.000514991
0.00440278 0.0010691 -1.34335e-05
0.0010691 -0.000264083 -3.07113e-05
-1.34335e-05 -3.07113e-05 0.000436461
-0.000305175 9.18208e-05 9.04662e-06
9.18208e-05 0.00024187 5.81009e-06
9.04662e-06 5.81009e-06 -0.00017704
0.00127182 1.97907e-05 2.85297e-06
1.97907e-05 0.000445202 1.05227e-06
2.85297e-06 1.05227e-06 0.000205009
0.00320444 -0.000207142 5.41206e-05
-0.000207142 0.000893738 -5.30039e-06
5.41206e-05 -5.30039e-06 -0.000940756
0.000346418 -0.000112801 8.62375e-07
-0.000112801 -0.000727808 2.42209e-05
8.62375e-07 2.42209e-05 -0.000602514
-0.00166308 0.00144619 7.91505e-05
0.00144619 -0.000628264 -3.25118e-05
7.91505e-05 -3.25118e-05 0.000809032
0.00577792 0.000746922 -3.76745e-05
0.000746922 0.000212537 7.85852e-05
-3.76745e-05 7.85852e-05 0.000309223
-0.00221792 -0.000742547 6.05154e-05
-0.000742547 3.16453e-05 -5.5043e-05
6.05154e-05 -5.5043e-05 -0.00430062
0.0011557 -6.49762e-05 4.31857e-05
-6.49762e-05 0.000560816 -1.13793e-05
4.31857e-05 -1.13793e-05 0.000400464
0.000934937 -8.02035e-05 5.84458e-05
-8.02035e-05 -8.02689e-05 -2.37575e-05
5.84458e-05 -2.37575e-05 -0.00116211
-0.00183924 0.000178944 -0.000168506
0.000178944 0.000952462 -1.68128e-05
-0.000168506 -1.68128e-05 -6.28212e-05
0.00161271 0.00128972 -0.0001103
0.00128972 -0.000173007 0.000173035
-0.0001103 0.000173035 0.000300118
0.00782067 -0.000455888 2.40787e-05
-0.000455888 0.00359458 -2.04584e-05
2.40787e-05 -2.04584e-05 0.00056297
0.00362129 -0.00037069 -6.13472e-05
-0.00037069 0.000916695 6.1591e-05
-6.13472e-05 6.1591e-05 0.000607106
-0.00122875 8.49941e-06 6.70761e-06
8.49941e-06 -0.000574146 1.43097e-05
6.70761e-06 1.43097e-05 -0.000736327
0.000227052 -0.000164989 -7.67007e-06
-0.000164989 0.000260695 7.53872e-07
-7.67007e-06 7.53872e-07 2.15543e-05
0.000731452 -0.000238683 2.22614e-05
-0.000238683 0.000244391 -7.13068e-06
2.22614e-05 -7.13068e-06 9.57124e-05
-0.00076518 -0.0001061 -3.27865e-06
-0.0001061 -0.000475014 6.75796e-06
-3.27865e-06 6.75796e-06 -0.00061546
-0.000557662 -0.000127908 1.48129e-06
-0.000127908 -0.000389617 -3.7329e-06
1.48129e-06 -3.7329e-06 -0.000665611
0.00262429 -0.000439621 2.59177e-05
-0.000439621 0.000934444 -5.36426e-06
2.59177e-05 -5.36426e-06 0.000669715
0.00315914 -0.000415023 -6.2417e-06
-0.000415023 0.00142068 2.2148e-06
-6.2417e-06 2.2148e-06 0.00118982
0.001859 -0.000316612 3.54363e-06
-0.000316612 0.000717427 8.09508e-07
3.54363e-06 8.09508e-07 0.000383832
0.00108924 -0.00031081 7.55551e-06
-0.00031081 0.00011494 -4.29974e-06
7.55551e-06 -4.29974e-06 -0.000215701
0.00143953 -0.000259831 -5.40229e-06
-0.000259831 0.00038316 9.46527e-07
-5.40229e-06 9.46527e-07 0.000146373
0.00227494 -0.000383446 2.56889e-06
-0.000383446 0.00073825 -8.67646e-08
2.56889e-06 -8.67646e-08 0.000439129
0.00208233 -0.000388235 2.11635e-06
-0.000388235 0.000525787 -4.9958e-06
2.11635e-06 -4.9958e-06 0.000230423
0.00176694 -0.000333405 4.78748e-07
-0.000333405 0.000279235 -3.3222e-06
4.78748e-07 -3.3222e-06 5.31452e-05
0.00241734 -0.000386781 -5.53975e-06
-0.000386781 0.000725632 5.60787e-06
-5.53975e-06 5.60787e-06 0.000468788
0.00182231 -0.000352494 -1.49467e-06
-0.000352494 0.000381652 -4.00086e-07
-1.49467e-06 -4.00086e-07 0.000112877
0.000283513 -0.000161111 5.1161e-06
-0.000161111 -0.000315218 4.34058e-07
5.1161e-06 4.34058e-07 -0.000495644
0.0010027 -0.000229654 3.07758e-06
-0.000229654 6.88531e-05 -1.82607e-07
3.07758e-06 -1.82607e-07 -0.000133307
0.00135729 -0.00027549 -1.90891e-06
-0.00027549 0.000247574 -1.89274e-06
-1.90891e-06 -1.89274e-06 7.31885e-06
0.00114974 -0.000199594 2.11409e-06
-0.000199594 0.00029678 3.21049e-07
2.11409e-06 3.21049e-07 0.000110285
0.00131006 -0.000222957 -2.13065e-06
-0.000222957 0.000359945 -1.59579e-06
-2.13065e-06 -1.59579e-06 0.000175359
0.000678164 -0.000176603 4.65959e-06
-0.000176603 -1.99396e-05 -2.83517e-06
4.65959e-06 -2.83517e-06 -0.000184719
0.000713022 -3.23101e-05 2.14071e-06
-3.23101e-05 8.78272e-05 1.54054e-06
2.14071e-06 1.54054e-06 -4.28769e-05
0.000557746 -7.80994e-05 5.90179e-08
-7.80994e-05 1.04153e-05 8.12943e-07
5.90179e-08 8.12943e-07 -0.000143115
0.00128782 -0.000202814 2.52718e-06
-0.000202814 0.0004271 -2.63491e-06
2.52718e-06 -2.63491e-06 0.000242863
0.000576981 4.82981e-05 -7.90652e-08
4.82981e-05 -1.3223e-05 2.56181e-06
-7.90652e-08 2.56181e-06 -8.27814e-05
0.000732532 -4.17636e-06 -4.2801e-07
-4.17636e-06 9.09831e-05 -4.85886e-07
-4.2801e-07 -4.85886e-07 -1.58812e-05
0.00107573 -9.73483e-05 -5.50282e-07
-9.73483e-05 0.00030665 -6.58177e-07
-5.50282e-07 -6.58177e-07 0.000173912
0.000552031 5.88098e-05 -1.56158e-06
5.88098e-05 -3.66081e-05 5.74764e-06
-1.56158e-06 5.74764e-06 -6.02961e-05
0.00065803 3.1264e-05 -2.81622e-07
3.1264e-05 2.05575e-05 -2.2856e-07
-2.81622e-07 -2.2856e-07 -3.65789e-05
0.000806399 -1.95657e-05 -1.24562e-07
-1.95657e-05 0.000122435 -1.33925e-06
-1.24562e-07 -1.33925e-06 3.38269e-05
0.000679132 1.92986e-05 1.52055e-06
1.92986e-05 2.65246e-05 -1.9756e-06
1.52055e-06 -1.9756e-06 -2.50985e-05
0.000588707 5.28257e-05 3.56545e-08
5.28257e-05 -2.47538e-05 -5.15367e-09
3.56545e-08 -5.15367e-09 -4.52808e-05
0.00228051 8.53432e-05 -2.64648e-05
8.53432e-05 0.00097029 3.41907e-06
-2.64648e-05 3.41907e-06 0.000977903
0.000600007 4.55871e-05 6.65688e-07
4.55871e-05 -2.75191e-05 -3.97204e-06
6.65688e-07 -3.97204e-06 -4.49391e-05
0.00227472 7.49874e-05 2.32119e-06
7.49874e-05 0.000959419 1.83119e-07
2.32119e-06 1.83119e-07 0.000969416
0.00227913 6.44147e-05 1.98036e-05
6.44147e-05 0.000955271 -3.96141e-06
1.98036e-05 -3.96141e-06 0.000967282
0.000741747 3.58295e-05 -5.33348e-07
3.58295e-05 8.76447e-05 -8.96065e-07
-5.33348e-07 -8.96065e-07 -1.89278e-05
0.000776413 6.71555e-05 -6.0441e-07
6.71555e-05 0.000108617 -1.45361e-06
-6.0441e-07 -1.45361e-06 9.36942e-06
0.000666301 2.91923e-06 -8.88964e-07
2.91923e-06 1.21528e-05 -2.54127e-06
-8.88964e-07 -2.54127e-06 -4.4891e-05
0.000737458 6.11864e-05 -8.92828e-08
6.11864e-05 7.69843e-05 1.89575e-08
-8.92828e-08 1.89575e-08 -1.25494e-05
0.000594966 -3.07779e-05 5.73197e-08
-3.07779e-05 -3.93385e-05 -4.59683e-06
5.73197e-08 -4.59683e-06 -5.67374e-05
0.000664635 1.06943e-05 -1.17712e-07
1.06943e-05 1.24881e-05 -6.51911e-08
-1.17712e-07 -6.51911e-08 -4.06572e-05
0.000701643 3.50689e-05 -7.9575e-07
3.50689e-05 5.42611e-05 7.72465e-07
-7.9575e-07 7.72465e-07 -3.0151e-05
0.00232889 -4.96839e-05 -1.86368e-05
-4.96839e-05 0.000973667 -4.61874e-06
-1.86368e-05 -4.61874e-06 0.000988104
0.000609593 -2.32175e-05 -1.94497e-07
-2.32175e-05 -3.56895e-05 -4.75305e-08
-1.94497e-07 -4.75305e-08 -4.93087e-05
0.000637913 1.44999e-05 -5.42572e-07
1.44999e-05 -1.98477e-06 1.52676e-06
-5.42572e-07 1.52676e-06 -5.11958e-05
0.00222131 -3.55184e-05 -3.57184e-06
-3.55184e-05 0.00090651 1.24287e-07
-3.57184e-06 1.24287e-07 0.000923406
0.000615726 -1.63574e-05 -8.9614e-08
-1.63574e-05 -3.51503e-05 3.88552e-06
-8.9614e-08 3.88552e-06 -4.55887e-05
0.00213236 -2.16731e-05 9.61111e-06
-2.16731e-05 0.000851645 4.71546e-06
9.61111e-06 4.71546e-06 0.000870387
0.00090215 -6.94445e-05 3.92631e-06
-6.94445e-05 0.000132874 2.12155e-05
3.92631e-06 2.12155e-05 -7.77754e-05
0.00155374 -4.39432e-05 -1.01778e-05
-4.39432e-05 -5.02136e-05 1.63358e-05
-1.01778e-05 1.63358e-05 -5.74591e-05
0.00127788 -1.32199e-05 4.3363e-08
-1.32199e-05 0.000356011 -1.27941e-05
4.3363e-08 -1.27941e-05 0.000192743
0.000747947 3.60048e-05 -1.58517e-07
3.60048e-05 8.26806e-05 -3.20749e-08
-1.58517e-07 -3.20749e-08 -1.90973e-05
0.000730142 1.28186e-05 2.08172e-07
1.28186e-05 6.7213e-05 9.03285e-08
2.08172e-07 9.03285e-08 -3.32315e-05
0.000630766 1.61007e-05 -2.34057e-06
1.61007e-05 1.10928e-05 -1.89605e-06
-2.34057e-06 -1.89605e-06 -9.01801e-05
0.000555344 -7.77343e-06 -9.04612e-07
-7.77343e-06 -3.26769e-05 -9.94134e-07
-9.04612e-07 -9.94134e-07 -0.000131995
0.00102596 9.81542e-05 -1.68807e-06
9.81542e-05 0.000251624 -9.60739e-07
-1.68807e-06 -9.60739e-07 0.00013303
0.000696458 6.33084e-06 -2.17113e-08
6.33084e-06 3.76776e-05 3.26966e-07
-2.17113e-08 3.26966e-07 -5.39411e-05
0.000687275 2.87825e-05 7.20048e-07
2.87825e-05 4.40082e-05 -3.28936e-07
7.20048e-07 -3.28936e-07 -6.10946e-05
0.000766464 4.25852e-05 -1.06097e-07
4.25852e-05 9.27098e-05 -5.40895e-08
-1.06097e-07 -5.40895e-08 -1.24214e-05
0.000868802 7.56384e-05 4.82668e-07
7.56384e-05 0.000153797 4.41653e-07
4.82668e-07 4.41653e-07 3.85239e-05
0.000968391 4.91665e-05 -1.19701e-06
4.91665e-05 0.000224267 -5.89643e-07
-1.19701e-06 -5.89643e-07 0.000111464
0.00221917 9.40467e-05 0.000106993
9.40467e-05 0.000961039 0.000160792
0.000106993 0.000160792 -0.000908821
0.000855719 6.21124e-05 1.04898e-05
6.21124e-05 0.000236299 4.16462e-05
1.04898e-05 4.16462e-05 -0.00110535
0.00263989 -1.60931e-05 -1.39541e-05
-1.60931e-05 0.000964702 -1.66273e-05
-1.39541e-05 -1.66273e-05 0.000327718
0.00752225 -0.000720744 -5.77917e-05
-0.000720744 0.000996984 -6.59919e-05
-5.77917e-05 -6.59919e-05 0.00233197
-0.0105718 0.000492404 -4.45296e-05
0.000492404 -0.00356698 0.000185543
-4.45296e-05 0.000185543 -0.0053894
0.00527312 -0.000902297 -9.98303e-05
-0.000902297 0.00183389 5.12896e-05
-9.98303e-05 5.12896e-05 0.00109721
0.00965771 -0.000542332 -4.61337e-05
-0.000542332 0.0039171 -2.39205e-05
-4.61337e-05 -2.39205e-05 0.000901497
0.00263153 -0.000125296 -2.28939e-05
-0.000125296 0.000315164 5.18558e-05
-2.28939e-05 5.18558e-05 -1.98676e-05
0.0110639 -0.000165201 2.87819e-05
-0.000165201 0.00522188 -1.54222e-05
2.87819e-05 -1.54222e-05 0.00160881
0.00159623 -0.000700587 4.4917e-05
-0.000700587 -1.11744e-05 4.20512e-05
4.4917e-05 4.20512e-05 -0.000979559
0.00250855 -0.000916446 -9.31074e-05
-0.000916446 -0.00187673 -0.000203606
-9.31074e-05 -0.000203606 -0.000425661
0.00349404 0.000162968 -8.53098e-05
0.000162968 0.000610819 1.78231e-05
-8.53098e-05 1.78231e-05 0.000148774
0.00905172 0.000552376 -2.69486e-06
0.000552376 0.00401707 2.52661e-05
-2.69486e-06 2.52661e-05 0.00118781
0.00973889 -0.00146707 -3.08976e-06
-0.00146707 0.00303577 -0.000156835
-3.08976e-06 -0.000156835 0.0030423
0.00532758 -0.001424 4.70542e-05
-0.001424 0.000827292 5.26292e-06
4.70542e-05 5.26292e-06 0.00236551
0.000297521 4.65756e-05 -5.73319e-07
4.65756e-05 -9.90409e-05 6.17855e-09
-5.73319e-07 6.17855e-09 -0.000190829
0.000911943 2.0967e-06 4.12797e-08
2.0967e-06 0.000191484 9.31418e-07
4.12797e-08 9.31418e-07 7.96501e-05
0.000716215 3.68444e-05 1.00923e-07
3.68444e-05 7.57799e-05 5.57042e-07
1.00923e-07 5.57042e-07 -4.93652e-05
0.000967787 1.42575e-05 -3.9087e-05
1.42575e-05 0.000528862 1.5167e-05
-3.9087e-05 1.5167e-05 -1.86328e-05
0.000927626 -4.77309e-05 -7.04223e-05
-4.77309e-05 0.000523544 -2.97579e-05
-7.04223e-05 -2.97579e-05 0.000469284
0.000622944 -5.89599e-06 -1.17224e-06
-5.89599e-06 3.40747e-05 2.98145e-06
-1.17224e-06 2.98145e-06 -8.4791e-05
-0.000509684 4.70847e-05 -7.30184e-07
4.70847e-05 -0.000443649 -4.24694e-06
-7.30184e-07 -4.24694e-06 -0.000630572
0.000637278 7.55383e-05 -1.72675e-07
7.55383e-05 0.000159101 -2.72033e-06
-1.72675e-07 -2.72033e-06 2.35748e-05
0.000577424 6.75252e-05 -4.18049e-06
6.75252e-05 0.000281124 4.34658e-06
-4.18049e-06 4.34658e-06 0.000108712
-0.000213131 -1.28819e-05 9.435e-05
-1.28819e-05 0.000607017 -3.78255e-05
9.435e-05 -3.78255e-05 -0.000498702
-0.00225892 -8.98684e-06 -2.13082e-05
-8.98684e-06 -0.00127612 1.1847e-05
-2.13082e-05 1.1847e-05 -0.00140739
0.00198178 0.000217072 -1.71168e-05
0.000217072 0.00110775 -3.57231e-05
-1.71168e-05 -3.57231e-05 0.000407527
0.00180832 -5.54707e-06 6.03164e-05
-5.54707e-06 0.000685003 7.40927e-06
6.03164e-05 7.40927e-06 -0.000427464
0.00087875 -2.04899e-05 1.59143e-05
-2.04899e-05 0.000387616 6.75758e-06
1.59143e-05 6.75758e-06 8.93605e-06
0.00161807 -3.59526e-05 -2.69076e-06
-3.59526e-05 0.000361738 -5.6469e-07
-2.69076e-06 -5.6469e-07 0.000210035
-0.00253344 9.72149e-05 2.53313e-05
9.72149e-05 -0.000890859 1.04348e-05
2.53313e-05 1.04348e-05 -0.00142993
0.00328472 7.73975e-05 -1.68379e-05
7.73975e-05 0.000785161 -1.56365e-05
-1.68379e-05 -1.56365e-05 0.000392495
0.00131828 3.45819e-06 1.9291e-06
3.45819e-06 0.000371317 9.11729e-06
1.9291e-06 9.11729e-06 0.000222782
0.0153001 -0.000983004 0.000106625
-0.000983004 0.00675779 -2.01308e-05
0.000106625 -2.01308e-05 0.00330255
0.00835925 0.00106778 -6.29967e-05
0.00106778 0.00260247 -3.11974e-05
-6.29967e-05 -3.11974e-05 0.00223493
0.00355446 -0.000240337 -4.75599e-05
-0.000240337 0.0011746 9.72744e-05
-4.75599e-05 9.72744e-05 -0.000781133
-0.00704586 0.00159804 0.000373838
0.00159804 -0.00375463 -0.000291101
0.000373838 -0.000291101 -0.00181359
0.00063175 -7.53638e-05 -4.34621e-06
-7.53638e-05 0.000422213 -5.75495e-07
-4.34621e-06 -5.75495e-07 0.000198921
0.00139093 -6.89634e-05 -9.19979e-06
-6.89634e-05 0.000187528 5.94104e-06
-9.19979e-06 5.94104e-06 -0.000916292
-0.00250954 0.000222819 -0.000224756
0.000222819 0.00103171 0.000100152
-0.000224756 0.000100152 0.000140797
0.00187691 -0.000299136 -2.15068e-05
-0.000299136 9.23907e-05 3.05149e-05
-2.15068e-05 3.05149e-05 -0.00017413
0.00901197 0.00150236 5.09956e-05
0.00150236 0.00294321 5.34419e-05
5.09956e-05 5.34419e-05 0.00349933
0.00751242 -0.000918563 6.7176e-05
-0.000918563 0.00313868 -4.27562e-05
6.7176e-05 -4.27562e-05 0.00038437
0.00135392 -0.000237597 9.48496e-06
-0.000237597 0.000315536 2.54193e-05
9.48496e-06 2.54193e-05 0.000435376
-0.0031137 -0.000147713 2.03111e-05
-0.000147713 0.000718811 -1.27909e-05
2.03111e-05 -1.27909e-05 -0.000823141
0.00726218 0.00132698 -0.000227744
0.00132698 0.00356012 0.000104889
-0.000227744 0.000104889 0.00357553
0.0024575 -0.000463038 -0.000144782
-0.000463038 6.1909e-05 9.89963e-05
-0.000144782 9.89963e-05 -0.00275347
0.00247675 -0.000791265 5.8569e-05
-0.000791265 0.000346908 -1.91275e-05
5.8569e-05 -1.91275e-05 -7.89688e-05
-0.00102811 -9.31312e-05 -6.65033e-06
-9.31312e-05 -0.000387735 1.24756e-05
-6.65033e-06 1.24756e-05 -0.000631787
0.000384898 -0.000216079 -5.27945e-06
-0.000216079 9.38283e-05 3.18201e-06
-5.27945e-06 3.18201e-06 -0.000109929
0.00398382 -0.000514791 3.05333e-05
-0.000514791 0.00154342 3.51226e-06
3.05333e-05 3.51226e-06 0.00145971
-0.00226263 -2.15577e-05 -5.89048e-06
-2.15577e-05 -0.00127703 8.0603e-06
-5.89048e-06 8.0603e-06 -0.00155346
0.000742087 -0.00027644 2.93296e-06
-0.00027644 -7.30384e-06 2.754e-07
2.93296e-06 2.754e-07 -0.000278193
0.00173752 -0.000426787 5.73076e-06
-0.000426787 0.000220596 2.27406e-07
5.73076e-06 2.27406e-07 4.84255e-06
0.00243194 -0.000358543 -8.7196e-06
-0.000358543 0.000982016 2.32535e-06
-8.7196e-06 2.32535e-06 0.000668324
0.00126232 -0.000320303 -2.51433e-06
-0.000320303 0.000186452 -2.81439e-06
-2.51433e-06 -2.81439e-06 -0.000125441
0.00208865 -0.000433959 5.2297e-06
-0.000433959 0.00041238 -3.76823e-06
5.2297e-06 -3.76823e-06 0.000171815
0.00186663 -0.000351282 -3.51383e-06
-0.000351282 0.00049841 -1.27712e-06
-3.51383e-06 -1.27712e-06 0.000201638
0.00155634 -0.000345555 -2.4717e-07
-0.000345555 0.000223793 -3.47871e-06
-2.4717e-07 -3.47871e-06 -6.06106e-05
0.00186814 -0.000359647 4.09758e-07
-0.000359647 0.000267823 -6.03619e-06
4.09758e-07 -6.03619e-06 5.09948e-05
0.00161632 -0.000283662 -9.43682e-07
-0.000283662 0.000122648 -3.2693e-06
-9.43682e-07 -3.2693e-06 -5.81658e-05
0.00153481 -0.000313575 1.99235e-06
-0.000313575 0.000161772 -1.54787e-06
1.99235e-06 -1.54787e-06 -7.30042e-05
0.0016127 -0.000321645 1.63907e-06
-0.000321645 0.000196665 -1.2605e-06
1.63907e-06 -1.2605e-06 -2.71424e-05
0.00168322 -0.000296769 -1.66342e-06
-0.000296769 0.000347544 5.1943e-06
-1.66342e-06 5.1943e-06 0.000126706
0.00198091 -0.000353396 -1.14804e-06
-0.000353396 0.000484557 1.79761e-07
-1.14804e-06 1.79761e-07 0.000227713
0.00176017 -0.000349182 -5.80127e-07
-0.000349182 0.000347096 -2.44275e-06
-5.80127e-07 -2.44275e-06 7.44021e-05
0.00107577 -0.000209673 2.86177e-06
-0.000209673 0.000187656 -1.14086e-07
2.86177e-06 -1.14086e-07 6.53032e-07
0.000565375 -0.000180946 -1.11527e-06
-0.000180946 -0.000149875 -1.95719e-06
-1.11527e-06 -1.95719e-06 -0.000327904
0.00145906 -0.000264363 6.58106e-06
-0.000264363 0.00032785 -6.51599e-06
6.58106e-06 -6.51599e-06 0.000128452
0.000870986 -0.000134464 3.50766e-08
-0.000134464 0.000152354 4.25057e-07
3.50766e-08 4.25057e-07 -3.78577e-06
0.000877635 -0.000170789 1.96364e-07
-0.000170789 0.000142674 1.54819e-07
1.96364e-07 1.54819e-07 -3.81045e-05
0.000871436 -0.000183533 -1.67287e-06
-0.000183533 0.000106723 6.88741e-07
-1.67287e-06 6.88741e-07 -7.19963e-05
0.000540306 4.94697e-05 1.20145e-06
4.94697e-05 -2.48621e-05 3.96329e-06
1.20145e-06 3.96329e-06 -0.000113791
0.000784846 -5.28199e-05 7.75537e-07
-5.28199e-05 0.000133437 2.97877e-07
7.75537e-07 2.97877e-07 -4.20111e-06
0.000899373 -0.000115841 -1.8693e-06
-0.000115841 0.000213071 6.57279e-07
-1.8693e-06 6.57279e-07 5.45649e-05
0.00134353 9.40529e-05 -1.36851e-05
9.40529e-05 0.000439139 3.81676e-06
-1.36851e-05 3.81676e-06 0.000411525
0.000651554 2.56876e-05 -5.34678e-07
2.56876e-05 2.51636e-05 -5.74722e-07
-5.34678e-07 -5.74722e-07 -4.33847e-05
0.000830068 -3.96908e-05 -1.13578e-06
-3.96908e-05 0.000149589 -1.86906e-06
-1.13578e-06 -1.86906e-06 3.73144e-05
0.000760562 4.63001e-05 -2.64693e-05
4.63001e-05 9.24418e-05 3.39704e-06
-2.64693e-05 3.39704e-06 9.28481e-05
0.000986309 7.40608e-05 -7.6998e-06
7.40608e-05 0.000218427 1.44607e-07
-7.6998e-06 1.44607e-07 0.000195047
0.000681287 2.69887e-05 8.49594e-07
2.69887e-05 3.25288e-05 -2.36864e-06
8.49594e-07 -2.36864e-06 -2.44146e-05
0.000595089 5.54844e-05 2.81991e-07
5.54844e-05 -1.99159e-05 -4.23067e-06
2.81991e-07 -4.23067e-06 -4.10148e-05
0.00231781 8.72287e-05 2.44084e-06
8.72287e-05 0.000992831 2.13941e-07
2.44084e-06 2.13941e-07 0.00100002
0.0022927 7.65414e-05 2.32509e-05
7.65414e-05 0.00097081 -3.64698e-06
2.32509e-05 -3.64698e-06 0.000980475
0.00068918 2.85984e-05 -4.61309e-07
2.85984e-05 4.78858e-05 -8.35891e-07
-4.61309e-07 -8.35891e-07 -5.46056e-05
0.000789992 5.13092e-05 -4.14086e-07
5.13092e-05 0.000114643 -1.83748e-06
-4.14086e-07 -1.83748e-06 1.368e-05
0.000704449 2.14915e-05 5.71986e-08
2.14915e-05 5.59499e-05 2.06527e-08
5.71986e-08 2.06527e-08 -4.32895e-05
0.000670627 -8.45434e-06 -1.12532e-06
-8.45434e-06 1.59283e-05 -2.72746e-06
-1.12532e-06 -2.72746e-06 -4.46942e-05
0.000743312 4.16501e-05 6.57262e-07
4.16501e-05 7.95807e-05 1.72923e-08
6.57262e-07 1.72923e-08 -1.2072e-05
0.000581848 -3.67402e-05 -1.78912e-07
-3.67402e-05 -4.10581e-05 -4.88917e-06
-1.78912e-07 -4.88917e-06 -6.21209e-05
0.000658938 6.2732e-06 -1.34587e-07
6.2732e-06 9.10383e-06 -5.63414e-08
-1.34587e-07 -5.63414e-08 -4.83213e-05
0.00076044 5.67765e-05 5.87281e-07
5.67765e-05 0.000103625 1.62818e-06
5.87281e-07 1.62818e-06 4.69937e-06
0.00244402 -6.27809e-05 -2.42784e-05
-6.27809e-05 0.00104579 -4.42694e-06
-2.42784e-05 -4.42694e-06 0.0010577
0.000595086 -2.99217e-05 -3.55475e-07
-2.99217e-05 -3.95742e-05 -3.24542e-08
-3.55475e-07 -3.24542e-08 -5.67636e-05
0.000656198 1.13029e-05 5.7554e-07
1.13029e-05 8.07714e-06 2.61442e-06
5.7554e-07 2.61442e-06 -4.50763e-05
0.00231395 -4.86022e-05 -3.45434e-06
-4.86022e-05 0.000964354 1.65546e-07
-3.45434e-06 1.65546e-07 0.000979116
0.000607201 -2.28883e-05 -5.32615e-08
-2.28883e-05 -3.70124e-05 4.15468e-06
-5.32615e-08 4.15468e-06 -5.05164e-05
0.00220942 -3.43079e-05 1.38333e-05
-3.43079e-05 0.00089905 4.66681e-06
1.38333e-05 4.66681e-06 0.000916217
0.0031521 -7.14978e-06 6.64889e-05
-7.14978e-06 0.00117308 3.01507e-05
6.64889e-05 3.01507e-05 0.000301863
0.00090598 -6.64474e-05 3.5068e-07
-6.64474e-05 0.000162418 8.80573e-06
3.5068e-07 8.80573e-06 -4.94452e-05
0.0014393 -5.44084e-05 -1.40829e-05
-5.44084e-05 -0.000106021 -1.91454e-06
-1.40829e-05 -1.91454e-06 -7.40338e-05
0.000767144 8.95772e-05 -3.4784e-06
8.95772e-05 9.40092e-05 -2.44535e-07
-3.4784e-06 -2.44535e-07 -1.78887e-05
0.000818677 3.86559e-05 4.5067e-07
3.86559e-05 0.000120177 6.32817e-07
4.5067e-07 6.32817e-07 2.0809e-05
0.000632876 6.78946e-06 9.28224e-07
6.78946e-06 1.11489e-05 8.726e-07
9.28224e-07 8.726e-07 -8.78813e-05
0.000808448 1.16014e-05 3.93151e-08
1.16014e-05 0.000107943 -9.19628e-08
3.93151e-08 -9.19628e-08 9.95148e-06
0.000896064 5.14821e-05 -2.40617e-07
5.14821e-05 0.000165555 -9.08576e-08
-2.40617e-07 -9.08576e-08 5.96033e-05
0.000826484 7.5208e-05 4.65707e-07
7.5208e-05 0.000135918 7.25917e-07
4.65707e-07 7.25917e-07 2.20707e-05
0.000794173 6.25789e-05 -2.49514e-06
6.25789e-05 0.000112637 -2.68521e-06
-2.49514e-06 -2.68521e-06 -6.29389e-06
0.000385253 4.15021e-06 -1.19083e-06
4.15021e-06 -0.000118993 -1.07569e-06
-1.19083e-06 -1.07569e-06 -0.000224951
0.000826832 9.61619e-05 3.71167e-07
9.61619e-05 0.000133628 4.3356e-08
3.71167e-07 4.3356e-08 2.23408e-05
0.000731582 -2.54172e-06 1.49539e-06
-2.54172e-06 5.52807e-05 2.21598e-07
1.49539e-06 2.21598e-07 -4.2883e-05
0.000796002 4.39338e-05 -4.23315e-07
4.39338e-05 0.000122036 5.74325e-08
-4.23315e-07 5.74325e-08 1.3262e-05
0.0014935 9.79448e-05 4.02589e-06
9.79448e-05 0.000561318 4.69077e-06
4.02589e-06 4.69077e-06 0.000455192
0.00107385 -0.000553775 6.16604e-05
-0.000553775 0.00180002 0.000130927
6.16604e-05 0.000130927 0.000825157
0.00281246 0.000138598 1.20819e-05
0.000138598 0.0012247 4.63682e-05
1.20819e-05 4.63682e-05 -0.000685894
0.00125746 8.39647e-05 -1.07366e-05
8.39647e-05 0.000347851 -3.6524e-05
-1.07366e-05 -3.6524e-05 -0.00101431
0.00731983 -0.00120543 -0.000161885
-0.00120543 0.000672514 -0.000128204
-0.000161885 -0.000128204 0.002119
0.00458704 -0.000356635 2.10151e-05
-0.000356635 0.000698872 0.000155001
2.10151e-05 0.000155001 -0.000114878
0.000463293 -0.000567621 -9.56796e-05
-0.000567621 0.000950047 9.46603e-05
-9.56796e-05 9.46603e-05 -0.00272871
0.00219451 -0.000188576 -5.19336e-05
-0.000188576 0.000370176 7.58479e-05
-5.19336e-05 7.58479e-05 -0.000150063
0.00359951 -9.72341e-05 1.49992e-05
-9.72341e-05 0.000712246 4.50595e-05
1.49992e-05 4.50595e-05 0.000444356
-0.000665369 -0.00145155 5.45412e-05
-0.00145155 -0.00141102 7.15304e-05
5.45412e-05 7.15304e-05 0.000311749
0.0052172 0.000579393 6.03607e-06
0.000579393 0.00307632 -3.89822e-06
6.03607e-06 -3.89822e-06 -0.000470106
0.0018223 -0.000780093 -2.11058e-05
-0.000780093 -0.00129811 2.95974e-05
-2.11058e-05 2.95974e-05 -0.00121802
0.0012971 0.000313505 -1.59275e-06
0.000313505 -0.00032456 2.60386e-05
-1.59275e-06 2.60386e-05 -0.000421328
0.00786154 0.000321404 -2.30478e-05
0.000321404 0.00394862 8.10007e-06
-2.30478e-05 8.10007e-06 0.00115999
0.00108719 -0.00123046 -7.50803e-05
-0.00123046 -0.000701436 -0.000105054
-7.50803e-05 -0.000105054 -0.000261394
0.000596156 0.000219487 1.96783e-06
0.000219487 3.73692e-05 -5.76119e-06
1.96783e-06 -5.76119e-06 -6.64408e-05
0.000784952 6.43053e-05 5.11553e-06
6.43053e-05 0.000169452 -3.366e-07
5.11553e-06 -3.366e-07 7.74191e-05
0.00110121 2.90218e-05 -1.0665e-07
2.90218e-05 0.000302983 1.64187e-06
-1.0665e-07 1.64187e-06 0.000189974
0.000269977 -4.6049e-06 -0.000145177
-4.6049e-06 0.000832699 -4.19999e-05
-0.000145177 -4.19999e-05 -0.000239049
-0.00158946 8.07993e-05 8.78426e-06
8.07993e-05 -0.000897529 -1.1615e-05
8.78426e-06 -1.1615e-05 -0.00107719
0.000903998 0.000113778 1.30103e-06
0.000113778 0.000313861 -1.85019e-06
1.30103e-06 -1.85019e-06 0.000170272
0.000651774 0.000222992 8.0069e-06
0.000222992 0.000235793 3.2133e-06
8.0069e-06 3.2133e-06 9.28907e-05
0.000651534 0.000209842 -4.57931e-06
0.000209842 0.000349621 -2.94127e-05
-4.57931e-06 -2.94127e-05 -0.000234019
-0.000207484 0.000346973 1.7467e-05
0.000346973 -0.000509938 -9.16501e-07
1.7467e-05 -9.16501e-07 -0.000754299
5.21071e-05 0.000118431 0.000112353
0.000118431 0.00243144 1.02574e-05
0.000112353 1.02574e-05 0.00093055
0.00184423 -2.61614e-05 -4.61881e-06
-2.61614e-05 0.000754422 1.33102e-05
-4.61881e-06 1.33102e-05 -0.000157877
0.000676658 -2.1802e-05 4.50041e-06
-2.1802e-05 0.00027292 9.29053e-06
4.50041e-06 9.29053e-06 -4.44248e-05
0.00079317 -8.47965e-05 -3.19148e-05
-8.47965e-05 0.000609427 9.18155e-06
-3.19148e-05 9.18155e-06 0.000383772
0.000617241 -0.000128298 -3.57707e-05
-0.000128298 -0.00101966 -7.55957e-06
-3.57707e-05 -7.55957e-06 -0.000880466
0.00173644 -6.60246e-05 -7.6745e-05
-6.60246e-05 0.000377419 2.16482e-05
-7.6745e-05 2.16482e-05 -0.000721493
-0.00126166 -0.000961633 4.62661e-05
-0.000961633 -0.000385085 -6.64859e-05
4.62661e-05 -6.64859e-05 -0.00365215
-0.00298725 0.00104265 8.98686e-05
0.00104265 -0.00366349 -0.000103648
8.98686e-05 -0.000103648 -0.0029338
0.00160716 0.000560204 -0.000114602
0.000560204 0.00236195 0.000117845
-0.000114602 0.000117845 0.00189022
0.00217929 -0.000106303 -8.70348e-06
-0.000106303 0.000534961 1.56836e-06
-8.70348e-06 1.56836e-06 0.000795464
0.00157019 0.00015466 1.59793e-05
0.00015466 0.00257673 9.52584e-06
1.59793e-05 9.52584e-06 0.00167756
-0.00370077 0.000761506 3.13835e-05
0.000761506 -0.00110842 6.73005e-06
3.13835e-05 6.73005e-06 -0.0020063
0.00373471 -0.000875813 1.34771e-05
-0.000875813 0.00126179 -2.95511e-06
1.34771e-05 -2.95511e-06 0.000420588
0.00983683 -0.000289144 6.62394e-06
-0.000289144 0.00353569 -7.37784e-06
6.62394e-06 -7.37784e-06 0.00169276
0.00188369 -0.00041453 -2.45356e-07
-0.00041453 0.000361691 2.21912e-05
-2.45356e-07 2.21912e-05 0.000454239
-0.00727893 0.000291953 -0.000160001
0.000291953 -0.00346098 -2.03528e-06
-0.000160001 -2.03528e-06 -0.00401354
0.0102009 -9.94383e-05 -5.34456e-05
-9.94383e-05 0.00315155 2.05169e-05
-5.34456e-05 2.05169e-05 0.00168904
0.00453252 -0.000996834 -2.06985e-06
-0.000996834 0.000381564 -4.57371e-06
-2.06985e-06 -4.57371e-06 -0.000341179
0.000366977 -0.000205244 -2.33785e-05
-0.000205244 0.000123693 1.5185e-05
-2.33785e-05 1.5185e-05 -0.000141606
0.00174863 -0.000370784 -2.97455e-06
-0.000370784 0.000300648 1.0965e-06
-2.97455e-06 1.0965e-06 0.000294325
0.00281416 -0.00042183 1.44097e-05
-0.00042183 0.000672474 -2.31948e-06
1.44097e-05 -2.31948e-06 0.000660441
-0.00116819 -0.000110475 -4.4804e-06
-0.000110475 -0.000964276 2.64659e-07
-4.4804e-06 2.64659e-07 -0.00124604
0.00133681 -0.00038997 -3.60845e-06
-0.00038997 3.66946e-05 -1.17009e-06
-3.60845e-06 -1.17009e-06 -0.000186536
0.00218563 -0.00046454 2.5922e-06
-0.00046454 0.000322046 -3.94476e-07
2.5922e-06 -3.94476e-07 0.000142578
0.00132525 -0.000322519 -1.01905e-05
-0.000322519 0.000203708 -2.47774e-06
-1.01905e-05 -2.47774e-06 -9.2472e-05
0.00151719 -0.000385986 3.22337e-07
-0.000385986 0.000121884 3.55553e-07
3.22337e-07 3.55553e-07 -0.000118848
0.00194586 -0.000375381 -1.3466e-06
-0.000375381 0.000210672 -5.00895e-06
-1.3466e-06 -5.00895e-06 3.56111e-05
0.00105237 -0.000305389 -6.76746e-06
-0.000305389 -6.57995e-05 8.14936e-09
-6.76746e-06 8.14936e-09 -0.000339958
0.00164086 -0.000340894 -4.12469e-07
-0.000340894 0.000138546 4.12902e-07
-4.12469e-07 4.12902e-07 -7.45707e-05
0.00178002 -0.000297772 -8.26104e-07
-0.000297772 0.000128381 -5.40436e-06
-8.26104e-07 -5.40436e-06 -2.04432e-05
0.00158224 -0.000235271 -2.58073e-06
-0.000235271 4.34136e-05 -3.47057e-06
-2.58073e-06 -3.47057e-06 -9.50788e-05
0.00149149 -0.00026713 -8.33176e-07
-0.00026713 8.26801e-05 -2.60779e-06
-8.33176e-07 -2.60779e-06 -0.000108842
0.00154416 -0.000273144 6.30345e-07
-0.000273144 8.37117e-05 1.26033e-06
6.30345e-07 1.26033e-06 -9.37594e-05
0.00123835 -0.000266086 -3.71694e-06
-0.000266086 1.74487e-05 3.66491e-07
-3.71694e-06 3.66491e-07 -0.000195763
0.00157948 -0.000313044 2.10297e-06
-0.000313044 0.000191363 -3.4944e-07
2.10297e-06 -3.4944e-07 -3.9702e-05
0.00147709 -0.0003113 6.82032e-07
-0.0003113 0.000123818 2.11627e-06
6.82032e-07 2.11627e-06 -9.78047e-05
0.0012763 -0.000239559 4.95111e-07
-0.000239559 0.000200872 3.4275e-06
4.95111e-07 3.4275e-06 2.46575e-06
0.00121223 -0.00026074 2.84107e-06
-0.00026074 8.75837e-05 -1.07446e-06
2.84107e-06 -1.07446e-06 -0.00012865
0.00138675 -0.000306921 -5.52755e-07
-0.000306921 0.000155401 -3.28971e-06
-5.52755e-07 -3.28971e-06 -0.000100499
0.000963788 -0.000177468 -1.17553e-06
-0.000177468 0.000147881 1.14588e-06
-1.17553e-06 1.14588e-06 -2.0558e-05
0.00111195 -0.000211383 1.05994e-07
-0.000211383 0.000202336 -1.09105e-06
1.05994e-07 -1.09105e-06 1.58782e-05
0.000864176 -0.000201821 -1.72398e-06
-0.000201821 2.48287e-05 -5.72509e-06
-1.72398e-06 -5.72509e-06 -0.000151569
0.000679947 -4.68822e-05 -5.17633e-07
-4.68822e-05 4.25974e-05 4.40818e-06
-5.17633e-07 4.40818e-06 -6.92688e-05
0.000936692 -0.00013307 5.66369e-07
-0.00013307 0.000188691 2.86646e-07
5.66369e-07 2.86646e-07 3.15527e-05
0.000590179 -0.000139052 -2.42056e-06
-0.000139052 -2.1282e-05 9.41099e-07
-2.42056e-06 9.41099e-07 -0.000195591
0.000455256 7.18391e-05 2.5408e-06
7.18391e-05 -6.83153e-05 6.64628e-06
2.5408e-06 6.64628e-06 -0.00010857
0.000681849 -1.47873e-05 -4.78809e-07
-1.47873e-05 5.33277e-05 -4.47083e-07
-4.78809e-07 -4.47083e-07 -3.84983e-05
0.000905676 -7.92512e-05 2.38298e-07
-7.92512e-05 0.00020539 -1.55503e-06
2.38298e-07 -1.55503e-06 6.1429e-05
0.00242982 0.000120261 -8.45036e-06
0.000120261 0.00107452 1.43442e-06
-8.45036e-06 1.43442e-06 0.001073
0.000566243 7.20898e-05 -3.09859e-07
7.20898e-05 -1.34963e-05 -2.09246e-07
-3.09859e-07 -2.09246e-07 -4.49935e-05
0.00071769 5.17394e-06 1.6314e-06
5.17394e-06 6.07773e-05 -3.40079e-06
1.6314e-06 -3.40079e-06 -8.15411e-06
0.00237598 9.81455e-05 2.52358e-06
9.81455e-05 0.00103425 2.17232e-07
2.52358e-06 2.17232e-07 0.00103883
0.000592329 6.69253e-05 -1.06142e-06
6.69253e-05 -8.8178e-06 -4.73527e-06
-1.06142e-06 -4.73527e-06 -3.4941e-05
0.00236982 8.92013e-05 2.78589e-05
8.92013e-05 0.00102388 -3.21819e-06
2.78589e-05 -3.21819e-06 0.00103062
0.000874421 9.08776e-05 -8.61268e-07
9.08776e-05 0.000155076 4.9245e-07
-8.61268e-07 4.9245e-07 4.14868e-05
0.000769333 4.15353e-05 -1.24511e-07
4.15353e-05 9.54699e-05 -2.41964e-07
-1.24511e-07 -2.41964e-07 -9.50773e-06
0.000793198 3.21358e-05 -3.99582e-07
3.21358e-05 0.000122928 -2.2039e-06
-3.99582e-07 -2.2039e-06 1.33725e-05
0.000675072 -1.32123e-05 -1.26575e-06
-1.32123e-05 2.23753e-05 -3.13515e-06
-1.26575e-06 -3.13515e-06 -4.22565e-05
0.000732987 2.27224e-05 4.90728e-07
2.27224e-05 7.79048e-05 9.36362e-08
4.90728e-07 9.36362e-08 -1.9223e-05
0.000666677 3.10784e-05 1.14565e-06
3.10784e-05 3.95969e-05 1.10887e-06
1.14565e-06 1.10887e-06 -6.34096e-05
0.000577441 -4.34699e-05 -3.8365e-07
-4.34699e-05 -3.69216e-05 -5.23944e-06
-3.8365e-07 -5.23944e-06 -6.14673e-05
0.000657494 -1.85209e-06 -6.09609e-08
-1.85209e-06 9.61951e-06 -5.87018e-08
-6.09609e-08 -5.87018e-08 -5.14174e-05
0.000731451 3.87508e-05 1.37014e-06
3.87508e-05 6.94283e-05 1.45979e-06
1.37014e-06 1.45979e-06 -1.93393e-05
0.00254344 -7.53698e-05 -3.0466e-05
-7.53698e-05 0.00110952 -4.1267e-06
-3.0466e-05 -4.1267e-06 0.00111889
0.000578914 -3.62425e-05 -3.65999e-07
-3.62425e-05 -4.3111e-05 -1.67766e-08
-3.65999e-07 -1.67766e-08 -6.39863e-05
0.000660506 8.65812e-06 9.58756e-07
8.65812e-06 1.07169e-05 2.68478e-06
9.58756e-07 2.68478e-06 -4.6851e-05
0.00241358 -6.17063e-05 -3.87223e-06
-6.17063e-05 0.00102742 2.15107e-07
-3.87223e-06 2.15107e-07 0.00103968
0.000594925 -2.92183e-05 -1.20327e-07
-2.92183e-05 -3.98425e-05 4.49532e-06
-1.20327e-07 4.49532e-06 -5.68528e-05
0.00228902 -4.72349e-05 1.81346e-05
-4.72349e-05 0.000949212 4.56377e-06
1.81346e-05 4.56377e-06 0.000964354
-0.00426854 3.154e-05 -5.99681e-06
3.154e-05 0.00035849 4.53519e-05
-5.99681e-06 4.53519e-05 -0.00141773
0.00293163 -4.65618e-05 6.32525e-07
-4.65618e-05 0.00117028 1.14852e-05
6.32525e-07 1.14852e-05 0.000270045
0.000932498 -6.69206e-05 -2.78687e-06
-6.69206e-05 0.000182185 -3.43874e-06
-2.78687e-06 -3.43874e-06 -2.98288e-05
0.000629159 5.31246e-05 -5.13203e-07
5.31246e-05 1.2098e-05 2.84362e-07
-5.13203e-07 2.84362e-07 -9.35557e-05
0.00151475 0.000214039 -1.1707e-06
0.000214039 0.000530853 1.07511e-06
-1.1707e-06 1.07511e-06 0.000390695
0.000673101 5.41469e-05 -2.97846e-06
5.41469e-05 4.09357e-05 -2.20945e-07
-2.97846e-06 -2.20945e-07 -7.21681e-05
0.00097741 1.04777e-05 6.89807e-07
1.04777e-05 0.000201469 1.90976e-07
6.89807e-07 1.90976e-07 0.000105262
0.00112986 8.81092e-05 2.08302e-06
8.81092e-05 0.000298661 6.73567e-07
2.08302e-06 6.73567e-07 0.000190286
0.000568127 2.43335e-05 4.02984e-07
2.43335e-05 -2.00871e-05 2.68051e-06
4.02984e-07 2.68051e-06 -0.000122752
0.000641945 3.90034e-05 -1.05845e-06
3.90034e-05 3.47823e-05 3.22189e-07
-1.05845e-06 3.22189e-07 -8.06071e-05
0.000776624 4.83412e-05 -2.09568e-07
4.83412e-05 0.000100948 -2.55289e-07
-2.09568e-07 -2.55289e-07 -1.44439e-05
0.000881425 9.09417e-05 -8.11792e-07
9.09417e-05 0.000184858 -2.34201e-06
-8.11792e-07 -2.34201e-06 4.59082e-05
0.000419183 0.000136844 2.42573e-06
0.000136844 -0.000126962 -6.65112e-06
2.42573e-06 -6.65112e-06 -0.000223396
0.000764056 6.20286e-05 7.28329e-07
6.20286e-05 0.000107365 -2.9629e-08
7.28329e-07 -2.9629e-08 -7.23826e-06
0.000923096 9.10966e-05 5.66591e-07
9.10966e-05 0.000235803 1.97746e-06
5.66591e-07 1.97746e-06 0.000125829
-0.00523037 -0.000644187 -0.00024849
-0.000644187 -0.00161143 2.30244e-05
-0.00024849 2.30244e-05 -0.00240156
-0.00220819 -0.000449057 0.00010547
-0.000449057 0.000733056 4.8977e-05
0.00010547 4.8977e-05 -0.000503349
0.00334964 0.0001565 -9.12793e-05
0.0001565 0.00141856 -6.65825e-05
-9.12793e-05 -6.65825e-05 -0.000537792
-0.0073556 -0.00150115 0.000284067
-0.00150115 -0.00364151 0.000249018
0.000284067 0.000249018 -0.00182939
0.0101653 -0.00102417 -7.41854e-05
-0.00102417 0.00310616 7.17463e-05
-7.41854e-05 7.17463e-05 0.00309806
-0.000359879 0.000774133 -1.1747e-06
0.000774133 4.97157e-05 -4.00268e-05
-1.1747e-06 -4.00268e-05 -0.00342113
0.00354697 -5.40948e-05 -0.000151403
-5.40948e-05 0.000982785 5.12557e-05
-0.000151403 5.12557e-05 0.000232291
0.00291147 0.000293976 -1.63805e-05
0.000293976 0.00067824 1.61761e-05
-1.63805e-05 1.61761e-05 0.000402432
0.00752435 -0.00117345 -0.000105812
-0.00117345 0.00366589 4.40863e-05
-0.000105812 4.40863e-05 0.00379237
0.000435027 0.000593688 -2.1074e-06
0.000593688 0.000544624 -1.37871e-05
-2.1074e-06 -1.37871e-05 -0.00224604
0.00137483 0.000525666 -7.33957e-05
0.000525666 0.000241821 -7.15367e-05
-7.33957e-05 -7.15367e-05 -0.000273697
0.00363497 0.00100951 -0.000130509
0.00100951 0.000360848 -7.99314e-05
-0.000130509 -7.99314e-05 -0.00173553
0.00203603 0.000501872 1.37662e-05
0.000501872 0.000485128 -1.92336e-05
1.37662e-05 -1.92336e-05 0.00029119
0.000767012 0.00021983 -5.01077e-06
0.00021983 0.000125747 1.14493e-06
-5.01077e-06 1.14493e-06 2.34737e-05
0.00113535 6.93091e-05 2.68747e-08
6.93091e-05 0.000359539 -1.62849e-06
2.68747e-08 -1.62849e-06 0.000268373
-0.000596491 0.000175159 -3.723e-05
0.000175159 -0.000235515 -3.63899e-05
-3.723e-05 -3.63899e-05 -0.000715794
0.00277556 0.000342487 -1.34502e-05
0.000342487 0.00134069 -1.06813e-05
-1.34502e-05 -1.06813e-05 0.0011845
0.00116149 0.000458102 1.39129e-05
0.000458102 0.000116322 -4.0326e-06
1.39129e-05 -4.0326e-06 -0.000139569
0.00302606 0.000729873 8.05631e-05
0.000729873 0.000433464 2.67384e-05
8.05631e-05 2.67384e-05 0.000375565
-0.00428553 -3.71262e-05 -0.000242587
-3.71262e-05 -0.00279897 -1.70718e-06
-0.000242587 -1.70718e-06 -0.00207207
-0.00179617 7.03586e-05 8.805e-05
7.03586e-05 0.00166551 1.24649e-06
8.805e-05 1.24649e-06 1.87371e-05
0.00168307 -4.94175e-05 -5.36335e-05
-4.94175e-05 0.000689308 1.9023e-05
-5.36335e-05 1.9023e-05 -6.76236e-05
0.00275833 -0.000214679 -5.2885e-05
-0.000214679 0.000762557 -3.31181e-05
-5.2885e-05 -3.31181e-05 0.000998375
0.00239077 -0.000818398 -3.94828e-05
-0.000818398 0.00033638 2.8892e-06
-3.94828e-05 2.8892e-06 -0.00032551
0.00199086 0.000102106 -1.56962e-05
0.000102106 0.00277204 3.17478e-05
-1.56962e-05 3.17478e-05 0.0019818
0.00144728 -0.000516324 0.000118022
-0.000516324 -5.64919e-05 -9.64438e-05
0.000118022 -9.64438e-05 -0.00244233
0.00920495 0.000784373 3.93792e-05
0.000784373 0.00445111 1.28374e-05
3.93792e-05 1.28374e-05 0.0040048
0.00244434 -0.000561273 -1.62768e-05
-0.000561273 0.000517179 5.83119e-06
-1.62768e-05 5.83119e-06 0.000476084
-0.00106347 0.000419322 3.60306e-05
0.000419322 -0.000526821 -1.13186e-05
3.60306e-05 -1.13186e-05 -0.00093289
0.00384766 -0.000126583 -3.35634e-05
-0.000126583 -6.76369e-05 4.44295e-05
-3.35634e-05 4.44295e-05 -0.00204912
0.00582994 -0.0010173 -3.12283e-05
-0.0010173 0.00138276 1.20805e-05
-3.12283e-05 1.20805e-05 0.000641385
-6.88467e-05 -0.000292905 3.05977e-05
-0.000292905 -0.000638614 -7.20083e-06
3.05977e-05 -7.20083e-06 -0.000869984
0.00892466 -0.000322556 2.84223e-05
-0.000322556 0.00221046 -2.88681e-05
2.84223e-05 -2.88681e-05 0.000973761
0.00352855 -0.000465976 4.5483e-05
-0.000465976 -0.000117495 -2.82387e-05
4.5483e-05 -2.82387e-05 -0.000389544
-0.000540299 -0.000224704 -2.00365e-05
-0.000224704 -0.000969752 6.11212e-06
-2.00365e-05 6.11212e-06 -0.00089743
0.000784162 -0.000309275 -5.65369e-06
-0.000309275 -0.000416014 -8.96857e-07
-5.65369e-06 -8.96857e-07 -0.000390161
0.00274627 -0.000431605 1.94346e-05
-0.000431605 0.000479167 -1.53185e-05
1.94346e-05 -1.53185e-05 0.000477762
0.000678197 -0.000332104 -1.03375e-05
-0.000332104 -0.000278861 -3.42833e-06
-1.03375e-05 -3.42833e-06 -0.000503719
0.00169445 -0.000424759 -4.78816e-07
-0.000424759 7.50825e-05 -3.97253e-07
-4.78816e-07 -3.97253e-07 -9.44477e-05
0.00210331 -0.000387354 -4.2497e-06
-0.000387354 0.000174093 -7.63249e-07
-4.2497e-06 -7.63249e-07 5.96581e-05
0.00114249 -0.000352423 -1.9023e-06
-0.000352423 -6.57802e-05 2.18656e-06
-1.9023e-06 2.18656e-06 -0.000306734
0.00177872 -0.000362625 -2.53246e-06
-0.000362625 0.000122405 -6.7725e-08
-2.53246e-06 -6.7725e-08 -5.24335e-05
0.00177751 -0.000292481 -2.33439e-06
-0.000292481 2.95101e-05 -1.47581e-06
-2.33439e-06 -1.47581e-06 -8.18141e-05
0.00141769 -0.000322164 2.30863e-06
-0.000322164 1.2651e-05 4.40025e-06
2.30863e-06 4.40025e-06 -0.000196789
0.00169708 -0.000288143 5.7247e-10
-0.000288143 8.77122e-05 5.70638e-07
5.7247e-10 5.70638e-07 -5.90154e-05
0.00177833 -0.00024307 -1.57444e-06
-0.00024307 9.45966e-05 -2.18406e-06
-1.57444e-06 -2.18406e-06 -1.05596e-05
0.0018074 -0.000220248 -1.40586e-06
-0.000220248 0.000168674 -1.09912e-06
-1.40586e-06 -1.09912e-06 5.62231e-05
0.0016146 -0.000234571 -2.40217e-06
-0.000234571 6.21372e-05 2.83211e-06
-2.40217e-06 2.83211e-06 -7.22224e-05
0.00171572 -0.000238727 -3.71981e-07
-0.000238727 0.000158549 -5.58029e-06
-3.71981e-07 -5.58029e-06 6.74206e-06
0.00162109 -0.000264811 -3.58814e-06
-0.000264811 0.000178545 -1.57725e-06
-3.58814e-06 -1.57725e-06 -1.18287e-05
0.00158502 -0.000271692 1.1154e-06
-0.000271692 0.000133102 5.64221e-07
1.1154e-06 5.64221e-07 -5.84129e-05
0.00148007 -0.00026284 4.76562e-07
-0.00026284 4.91075e-05 6.12066e-06
4.76562e-07 6.12066e-06 -0.000125013
0.00124978 -0.000239203 -6.55647e-06
-0.000239203 8.37074e-05 1.89934e-06
-6.55647e-06 1.89934e-06 -0.000111159
0.00135991 -0.000274514 -4.42185e-09
-0.000274514 8.52513e-05 -1.32898e-07
-4.42185e-09 -1.32898e-07 -0.000127467
0.00162193 -0.000312436 3.13308e-06
-0.000312436 0.000219353 4.27953e-07
3.13308e-06 4.27953e-07 -7.94296e-06
0.00110986 -0.000202444 -2.11967e-06
-0.000202444 0.000162248 3.13206e-06
-2.11967e-06 3.13206e-06 -1.93219e-05
0.00123239 -0.000234581 1.03129e-06
-0.000234581 0.000173888 1.07977e-06
1.03129e-06 1.07977e-06 -2.37771e-05
0.000958658 -0.000241935 2.22579e-06
-0.000241935 -5.02246e-05 -5.65916e-06
2.22579e-06 -5.65916e-06 -0.000263203
0.000737352 -0.000109698 -4.31016e-06
-0.000109698 4.7132e-05 3.85531e-06
-4.31016e-06 3.85531e-06 -8.21551e-05
0.00106577 -0.000187071 2.64009e-07
-0.000187071 0.000203708 -6.06329e-07
2.64009e-07 -6.06329e-07 3.37867e-05
0.00117529 -0.000215473 -1.0206e-06
-0.000215473 0.000233399 -2.76723e-06
-1.0206e-06 -2.76723e-06 4.69598e-05
0.000447488 2.74518e-05 -8.4769e-07
2.74518e-05 -8.64598e-05 8.53855e-06
-8.4769e-07 8.53855e-06 -0.000132333
0.000745913 -7.01424e-05 3.23837e-07
-7.01424e-05 8.31431e-05 3.9081e-07
3.23837e-07 3.9081e-07 -3.39971e-05
0.00101784 -0.000140233 6.43113e-07
-0.000140233 0.000234882 -3.2336e-07
6.43113e-07 -3.2336e-07 7.46042e-05
0.00269326 0.000126236 -4.17204e-05
0.000126236 0.00123079 2.26366e-06
-4.17204e-05 2.26366e-06 0.00122808
0.000552909 5.50803e-05 -3.03859e-07
5.50803e-05 -1.88018e-05 -5.09195e-07
-3.03859e-07 -5.09195e-07 -5.62427e-05
0.000820726 -5.84661e-05 2.77572e-06
-5.84661e-05 0.000132411 -4.34708e-06
2.77572e-06 -4.34708e-06 3.69751e-05
0.00168472 8.91131e-05 1.84095e-05
8.91131e-05 0.000638187 -7.31993e-08
1.84095e-05 -7.31993e-08 0.00063619
0.000606535 6.57102e-05 -6.21864e-07
6.57102e-05 7.94491e-06 -5.52981e-06
-6.21864e-07 -5.52981e-06 -2.24006e-05
0.00245578 0.000100708 3.4157e-05
0.000100708 0.00108098 -2.68297e-06
3.4157e-05 -2.68297e-06 0.00108511
0.000912427 0.000102564 9.90795e-07
0.000102564 0.000165419 9.16159e-07
9.90795e-07 9.16159e-07 5.12866e-05
0.000661337 4.75648e-05 -2.54565e-07
4.75648e-05 2.67132e-05 5.20736e-07
-2.54565e-07 5.20736e-07 -7.77165e-05
0.00070142 1.21273e-05 -4.69048e-07
1.21273e-05 5.86944e-05 -1.66469e-06
-4.69048e-07 -1.66469e-06 -4.66682e-05
0.00089394 6.31088e-05 9.58795e-07
6.31088e-05 0.000169067 8.17897e-07
9.58795e-07 8.17897e-07 6.07065e-05
0.000726886 9.48409e-06 2.14615e-07
9.48409e-06 7.07813e-05 4.15153e-08
2.14615e-07 4.15153e-08 -2.7782e-05
0.000674881 -1.32577e-05 -1.38837e-06
-1.32577e-05 2.64449e-05 -3.545e-06
-1.38837e-06 -3.545e-06 -4.34121e-05
0.00057809 -4.97789e-05 -4.24094e-07
-4.97789e-05 -2.85987e-05 -5.70738e-06
-4.24094e-07 -5.70738e-06 -5.64541e-05
0.000653572 -1.03482e-05 2.21255e-07
-1.03482e-05 1.09316e-05 -8.50389e-08
2.21255e-07 -8.50389e-08 -5.39281e-05
0.00067245 -6.7339e-06 3.04219e-07
-6.7339e-06 2.94292e-05 1.60835e-06
3.04219e-07 1.60835e-06 -5.71044e-05
0.00261257 -8.72045e-05 -3.68365e-05
-8.72045e-05 0.00115616 -3.71885e-06
-3.68365e-05 -3.71885e-06 0.00116318
0.000567038 -4.0747e-05 -4.38328e-07
-4.0747e-05 -4.34272e-05 2.42759e-08
-4.38328e-07 2.42759e-08 -6.75393e-05
0.000649909 5.27333e-06 1.69786e-06
5.27333e-06 6.68585e-06 2.84013e-06
1.69786e-06 2.84013e-06 -5.49265e-05
0.00252051 -7.463e-05 -3.92534e-06
-7.463e-05 0.00109562 2.53014e-07
-3.92534e-06 2.53014e-07 0.0011052
0.000578252 -3.5239e-05 1.32679e-07
-3.5239e-05 -4.37982e-05 4.83282e-06
1.32679e-07 4.83282e-06 -6.4467e-05
0.00239185 -6.06779e-05 2.23365e-05
-6.06779e-05 0.00101406 4.42963e-06
2.23365e-05 4.42963e-06 0.00102663
0.000515685 0.000279524 -0.00010919
0.000279524 0.00126927 5.60701e-05
-0.00010919 5.60701e-05 0.000392013
-0.00155536 -9.07449e-05 6.93159e-06
-9.07449e-05 0.00126731 1.27181e-05
6.93159e-06 1.27181e-05 -0.000428264
0.00276266 -7.29403e-05 -5.48427e-05
-7.29403e-05 0.00125306 -4.64578e-06
-5.48427e-05 -4.64578e-06 0.00032951
0.000548925 2.2616e-05 2.31184e-06
2.2616e-05 -3.53376e-05 -7.40247e-07
2.31184e-06 -7.40247e-07 -0.000136119
0.000647863 3.25477e-05 1.38955e-06
3.25477e-05 2.51343e-05 3.16849e-07
1.38955e-06 3.16849e-07 -8.58468e-05
0.00116392 0.00017905 -8.97139e-07
0.00017905 0.000337045 5.08947e-07
-8.97139e-07 5.08947e-07 0.000203936
0.00146632 0.000239591 7.12409e-07
0.000239591 0.000462283 -5.36642e-07
7.12409e-07 -5.36642e-07 0.000298643
0.000977669 0.000137195 -5.58294e-06
0.000137195 0.000243217 -1.93394e-06
-5.58294e-06 -1.93394e-06 0.000103183
0.000902694 8.78775e-05 2.10798e-06
8.78775e-05 0.000183389 2.2846e-06
2.10798e-06 2.2846e-06 6.45318e-05
0.000787677 5.68387e-05 3.25088e-06
5.68387e-05 0.000108139 1.84965e-06
3.25088e-06 1.84965e-06 -6.42535e-06
0.000696769 0.000106654 -2.69504e-06
0.000106654 8.21873e-05 -2.54275e-06
-2.69504e-06 -2.54275e-06 -5.10156e-05
-0.000551063 7.34888e-05 -1.56131e-06
7.34888e-05 -0.000656065 -1.46414e-07
-1.56131e-06 -1.46414e-07 -0.000796363
0.00112109 0.000215077 8.4755e-08
0.000215077 0.000216771 -4.36296e-06
8.4755e-08 -4.36296e-06 0.000105941
0.00223463 0.000451774 3.69757e-06
0.000451774 0.000529751 -1.30661e-05
3.69757e-06 -1.30661e-05 0.000341069
0.000564213 0.000152637 -4.4912e-06
0.000152637 -2.55031e-05 -3.15756e-07
-4.4912e-06 -3.15756e-07 -0.000124448
0.000617624 4.08984e-05 2.05219e-06
4.08984e-05 3.53711e-05 -9.84219e-07
2.05219e-06 -9.84219e-07 -6.54795e-05
0.0109283 0.000486299 -6.25689e-05
0.000486299 0.00313494 3.37002e-05
-6.25689e-05 3.37002e-05 0.00182468
-0.000972654 -0.000514004 -0.00012678
-0.000514004 0.000917607 -3.53404e-05
-0.00012678 -3.53404e-05 -4.26255e-05
-0.000497125 -0.000657465 5.16603e-05
-0.000657465 0.000943345 -2.88259e-05
5.16603e-05 -2.88259e-05 -0.000347996
-0.00293421 -0.000575163 -1.75997e-05
-0.000575163 -0.00112897 9.18373e-05
-1.75997e-05 9.18373e-05 -0.00107325
0.0104049 0.000468145 9.78134e-06
0.000468145 0.00496647 -5.78027e-06
9.78134e-06 -5.78027e-06 0.00195319
0.00122143 0.000309958 -5.12669e-05
0.000309958 -0.000173203 -1.54229e-05
-5.12669e-05 -1.54229e-05 -0.000294506
0.0013577 0.000544551 -2.06345e-05
0.000544551 0.00013376 -1.07893e-05
-2.06345e-05 -1.07893e-05 -0.000260573
0.0090366 0.000429822 3.5086e-05
0.000429822 0.00313583 1.86902e-05
3.5086e-05 1.86902e-05 0.00137196
0.00519438 0.00105308 -2.30865e-05
0.00105308 0.000880471 -3.84382e-05
-2.30865e-05 -3.84382e-05 0.00037242
0.00203518 0.000562158 -5.93661e-07
0.000562158 0.000297769 -1.59145e-07
-5.93661e-07 -1.59145e-07 0.000136146
0.000958551 0.000373167 5.15936e-06
0.000373167 4.31826e-05 -2.56647e-06
5.15936e-06 -2.56647e-06 -0.000145305
0.00098698 0.000215492 -1.50213e-05
0.000215492 0.000254346 1.07489e-05
-1.50213e-05 1.07489e-05 0.000155459
0.00256822 0.00059205 -3.68239e-05
0.00059205 0.000708669 -1.27112e-05
-3.68239e-05 -1.27112e-05 0.000463778
0.00224942 0.000673882 -4.73347e-07
0.000673882 1.66036e-05 1.65856e-05
-4.73347e-07 1.65856e-05 -8.11479e-05
0.000477289 -0.000278291 -2.32208e-05
-0.000278291 -0.00256141 -1.8052e-06
-2.32208e-05 -1.8052e-06 -0.00304569
0.0023999 -0.000279552 -1.27352e-06
-0.000279552 0.00139766 -1.6228e-05
-1.27352e-06 -1.6228e-05 0.00139101
-0.00354051 1.04534e-05 0.000107549
1.04534e-05 0.00103903 -8.43527e-06
0.000107549 -8.43527e-06 -0.000740159
0.0023562 -0.000618937 -3.89717e-05
-0.000618937 0.000407767 4.30794e-06
-3.89717e-05 4.30794e-06 0.000294421
0.00355401 -0.000914487 2.7978e-05
-0.000914487 0.000832592 -1.38786e-05
2.7978e-05 -1.38786e-05 -0.000206198
0.00124965 -0.00024907 0.000145614
-0.00024907 0.00150563 1.38232e-05
0.000145614 1.38232e-05 0.000840912
0.0109557 -0.000116018 -9.7674e-05
-0.000116018 0.00372551 5.3044e-05
-9.7674e-05 5.3044e-05 0.00206701
0.000737256 -0.000341128 -1.97586e-05
-0.000341128 -0.000311635 -2.0178e-06
-1.97586e-05 -2.0178e-06 -0.000444284
0.00775961 7.13682e-05 -2.47885e-05
7.13682e-05 0.00147749 2.49191e-05
-2.47885e-05 2.49191e-05 0.000512554
0.00452993 -0.000551959 6.43656e-05
-0.000551959 0.000204963 5.77218e-07
6.43656e-05 5.77218e-07 -0.000361146
0.00217828 -0.000340355 3.09523e-05
-0.000340355 0.000411736 -8.0622e-06
3.09523e-05 -8.0622e-06 0.000115997
0.00302443 -0.000172276 -7.77808e-05
-0.000172276 0.000150224 -7.71487e-06
-7.77808e-05 -7.71487e-06 -4.71668e-05
-0.000941377 -0.000216957 -1.66476e-05
-0.000216957 -0.00135466 4.10833e-06
-1.66476e-05 4.10833e-06 -0.00129009
0.00155492 -0.00037362 5.53527e-07
-0.00037362 -0.000137473 -7.85252e-07
5.53527e-07 -7.85252e-07 -0.000140462
0.00207952 -0.000298161 9.69781e-06
-0.000298161 4.04472e-05 -6.60498e-06
9.69781e-06 -6.60498e-06 6.50179e-05
0.0013237 -0.000395296 -2.14715e-06
-0.000395296 -0.000107514 1.94048e-06
-2.14715e-06 1.94048e-06 -0.000270866
0.00181117 -0.000360386 -1.72812e-06
-0.000360386 3.72987e-05 -1.55491e-08
-1.72812e-06 -1.55491e-08 -7.46801e-05
0.00203542 -0.000273 -8.47579e-07
-0.000273 8.101e-05 1.47654e-06
-8.47579e-07 1.47654e-06 2.98619e-05
0.00155305 -0.000345071 -2.3157e-06
-0.000345071 3.94262e-06 4.46652e-06
-2.3157e-06 4.46652e-06 -0.000170197
0.00182566 -0.00029286 5.57253e-07
-0.00029286 5.76281e-05 1.51194e-06
5.57253e-07 1.51194e-06 -5.33102e-05
0.00173773 -0.000243033 -3.81666e-07
-0.000243033 7.63198e-06 9.27288e-07
-3.81666e-07 9.27288e-07 -7.34962e-05
0.00162289 -0.000279607 2.83742e-06
-0.000279607 5.08524e-05 5.30745e-06
2.83742e-06 5.30745e-06 -9.39514e-05
0.00173915 -0.000242827 -1.01248e-07
-0.000242827 7.21967e-05 1.19213e-06
-1.01248e-07 1.19213e-06 -3.38918e-05
0.001995 -0.000236968 4.94326e-07
-0.000236968 0.000241402 -3.37543e-07
4.94326e-07 -3.37543e-07 0.000146074
0.00173885 -0.000219797 -3.63498e-06
-0.000219797 0.000121532 3.46133e-06
-3.63498e-06 3.46133e-06 1.19591e-05
0.00178088 -0.000224716 2.22745e-06
-0.000224716 0.000179254 -3.43535e-06
2.22745e-06 -3.43535e-06 5.26459e-05
0.00164179 -0.000234187 1.14027e-06
-0.000234187 7.77591e-05 7.72739e-06
1.14027e-06 7.72739e-06 -5.25725e-05
0.00171864 -0.000240419 6.01884e-07
-0.000240419 0.000161063 -8.19253e-07
6.01884e-07 -8.19253e-07 8.57176e-06
0.00163264 -0.000229975 -1.60746e-06
-0.000229975 0.000157241 -3.02275e-06
-1.60746e-06 -3.02275e-06 -6.97736e-06
0.00138861 -0.000229038 -6.11494e-06
-0.000229038 0.000102722 5.658e-07
-6.11494e-06 5.658e-07 -7.84197e-05
0.00166796 -0.000269115 4.07634e-07
-0.000269115 0.000208472 -6.99964e-07
4.07634e-07 -6.99964e-07 1.64707e-05
0.00167943 -0.000276537 2.46839e-06
-0.000276537 0.000184619 3.59291e-06
2.46839e-06 3.59291e-06 -6.9651e-06
0.00119781 -0.000212503 -5.97947e-06
-0.000212503 0.000123101 3.01466e-06
-5.97947e-06 3.01466e-06 -5.68274e-05
0.00124446 -0.000237753 -1.69427e-06
-0.000237753 8.18862e-05 7.44198e-07
-1.69427e-06 7.44198e-07 -0.000112305
0.00143922 -0.000279786 4.12948e-06
-0.000279786 0.000129501 -1.17939e-06
4.12948e-06 -1.17939e-06 -8.2512e-05
0.000765886 -0.000131909 -5.33832e-06
-0.000131909 1.71317e-05 5.08967e-06
-5.33832e-06 5.08967e-06 -0.000121648
0.00111096 -0.000202617 8.96907e-07
-0.000202617 0.000160018 2.53962e-07
8.96907e-07 2.53962e-07 -2.11665e-05
0.00121688 -0.000232153 3.04752e-06
-0.000232153 0.000162628 -1.90108e-06
3.04752e-06 -1.90108e-06 -3.46699e-05
0.00044282 -3.45825e-05 -8.57364e-06
-3.45825e-05 -0.000110531 1.00037e-05
-8.57364e-06 1.00037e-05 -0.0001644
0.000800977 -0.000123384 -2.78616e-07
-0.000123384 8.2672e-05 1.1499e-07
-2.78616e-07 1.1499e-07 -4.84791e-05
0.00107275 -0.000185556 1.17173e-06
-0.000185556 0.000205104 -1.96688e-06
1.17173e-06 -1.96688e-06 3.58389e-05
0.0031994 0.00014793 -5.67285e-05
0.00014793 0.00152605 2.19271e-06
-5.67285e-05 2.19271e-06 0.00151784
0.000562189 8.65292e-06 5.81134e-07
8.65292e-06 -2.52007e-05 -4.02832e-07
5.81134e-07 -4.02832e-07 -7.08332e-05
0.000843925 -0.000113768 4.0746e-06
-0.000113768 0.00013842 -3.66118e-06
4.0746e-06 -3.66118e-06 1.75693e-05
0.00284002 0.0001261 4.77955e-06
0.0001261 0.00131371 3.56543e-07
4.77955e-06 3.56543e-07 0.00131133
0.000653194 4.0922e-05 2.74918e-06
4.0922e-05 3.50962e-05 -6.97875e-06
2.74918e-06 -6.97875e-06 -1.45179e-06
0.00261059 0.000110797 4.52336e-05
0.000110797 0.00117572 -2.25002e-06
4.52336e-05 -2.25002e-06 0.0011776
0.000961345 0.000181161 1.65709e-06
0.000181161 0.000167727 -1.90004e-06
1.65709e-06 -1.90004e-06 1.4127e-05
0.000819442 0.000129191 8.52653e-07
0.000129191 0.00012029 -7.75095e-08
8.52653e-07 -7.75095e-08 -4.71526e-07
0.000545917 2.44863e-05 -9.87817e-07
2.44863e-05 -3.71405e-05 -6.80778e-07
-9.87817e-07 -6.80778e-07 -0.000147303
0.000435885 1.35604e-05 9.34566e-07
1.35604e-05 -0.000103452 4.51759e-07
9.34566e-07 4.51759e-07 -0.000202795
0.000610705 -5.32394e-06 -1.8592e-07
-5.32394e-06 2.60824e-06 4.00021e-07
-1.8592e-07 4.00021e-07 -9.95623e-05
0.000661665 -1.09274e-05 -1.52477e-06
-1.09274e-05 2.18037e-05 -3.65844e-06
-1.52477e-06 -3.65844e-06 -5.58603e-05
0.000656524 -8.8601e-06 4.6525e-07
-8.8601e-06 2.3864e-05 1.86274e-06
4.6525e-07 1.86274e-06 -6.89414e-05
0.000639732 -1.81429e-05 3.27681e-07
-1.81429e-05 7.75689e-06 -1.84495e-07
3.27681e-07 -1.84495e-07 -6.2276e-05
0.000579345 -5.40599e-05 -5.45844e-07
-5.40599e-05 -1.95678e-05 -6.23942e-06
-5.45844e-07 -6.23942e-06 -5.07921e-05
0.00266393 -9.86824e-05 -4.26684e-05
-9.86824e-05 0.00119299 -3.22208e-06
-4.26684e-05 -3.22208e-06 0.00119765
0.000559007 -4.7146e-05 -1.97087e-09
-4.7146e-05 -4.03601e-05 1.43986e-08
-1.97087e-09 1.43986e-08 -6.76826e-05
0.00062218 -8.86098e-06 1.90766e-06
-8.86098e-06 -6.07135e-06 3.1247e-06
1.90766e-06 3.1247e-06 -7.11405e-05
0.00260549 -8.68374e-05 -3.79999e-06
-8.68374e-05 0.00115159 2.8808e-07
-3.79999e-06 2.8808e-07 0.00115861
0.000558229 -4.068e-05 4.44348e-07
-4.068e-05 -4.85662e-05 5.20202e-06
4.44348e-07 5.20202e-06 -7.26012e-05
0.00249019 -7.36354e-05 2.77663e-05
-7.36354e-05 0.00107731 4.22393e-06
2.77663e-05 4.22393e-06 0.00108716
0.0102481 0.000402246 0.000150311
0.000402246 0.00267205 7.30217e-05
0.000150311 7.30217e-05 0.00171579
-0.00251434 -0.000528289 -8.55322e-05
-0.000528289 -0.0017376 -8.92829e-06
-8.55322e-05 -8.92829e-06 -0.0018953
-0.00355621 0.000143904 -3.81075e-05
0.000143904 0.000305915 -3.04389e-05
-3.81075e-05 -3.04389e-05 -0.00172041
0.000635556 5.48284e-06 5.46184e-06
5.48284e-06 1.42447e-05 9.68986e-07
5.46184e-06 9.68986e-07 -9.31946e-05
0.000824675 0.000155498 -6.63097e-07
0.000155498 0.000148824 1.13493e-06
-6.63097e-07 1.13493e-06 2.21595e-05
0.00118503 0.000157632 2.55639e-08
0.000157632 0.000357613 -1.9933e-07
2.55639e-08 -1.9933e-07 0.000216389
0.00120286 0.000215885 -2.21619e-06
0.000215885 0.000315383 1.47681e-07
-2.21619e-06 1.47681e-07 0.000156693
0.00146873 0.000259979 1.90335e-05
0.000259979 0.000384548 -1.55278e-06
1.90335e-05 -1.55278e-06 0.000191997
0.000283341 0.000142046 -2.52332e-06
0.000142046 -0.000179935 -1.94025e-06
-2.52332e-06 -1.94025e-06 -0.000329846
0.000510574 0.000109056 -8.92475e-07
0.000109056 -1.46947e-05 -1.943e-06
-8.92475e-07 -1.943e-06 -0.00014612
0.000217453 0.000143787 4.86104e-07
0.000143787 -0.00023511 1.21951e-06
4.86104e-07 1.21951e-06 -0.000392808
0.000997754 0.000207487 -8.72337e-07
0.000207487 0.000156879 4.35877e-07
-8.72337e-07 4.35877e-07 4.15287e-05
0.00033338 0.000206499 2.46385e-06
0.000206499 -0.000315933 -4.02324e-07
2.46385e-06 -4.02324e-07 -0.000467556
0.00334953 0.000496675 -3.77041e-06
0.000496675 0.0011331 -4.84574e-06
-3.77041e-06 -4.84574e-06 0.00096194
0.0019756 0.00045951 -4.78943e-06
0.00045951 0.000284815 2.03488e-06
-4.78943e-06 2.03488e-06 0.000117501
0.00161288 0.000401107 3.64118e-06
0.000401107 0.000214598 -3.43907e-06
3.64118e-06 -3.43907e-06 4.1932e-05
0.000454778 0.000160132 -1.55126e-06
0.000160132 -7.00409e-05 5.52801e-06
-1.55126e-06 5.52801e-06 -0.000170392
0.00479454 0.000427744 -1.84432e-05
0.000427744 0.000332711 1.14746e-05
-1.84432e-05 1.14746e-05 0.000294165
0.00771682 0.000324373 5.30543e-05
0.000324373 0.00159798 3.48881e-05
5.30543e-05 3.48881e-05 0.000207153
0.00555841 -0.000990055 4.78965e-05
-0.000990055 0.00308695 -6.20485e-05
4.78965e-05 -6.20485e-05 0.00267075
0.00411492 0.000858725 0.000281576
0.000858725 0.000441101 0.000110088
0.000281576 0.000110088 -0.00234323
0.00167589 0.000526951 -4.34829e-06
0.000526951 0.000157827 1.79799e-05
-4.34829e-06 1.79799e-05 0.000106352
0.00329753 0.000829085 -7.14505e-05
0.000829085 4.61601e-05 -2.3455e-05
-7.14505e-05 -2.3455e-05 -0.000240227
0.0033725 0.000682768 4.41943e-05
0.000682768 0.000578565 2.25598e-05
4.41943e-05 2.25598e-05 0.000579195
0.00274668 0.00061322 3.65387e-06
0.00061322 0.000598528 8.40209e-06
3.65387e-06 8.40209e-06 0.000447911
0.000722614 0.000329311 -5.92976e-06
0.000329311 -2.53168e-05 1.40957e-05
-5.92976e-06 1.40957e-05 -0.000204376
0.00330541 0.000761901 -0.000107635
0.000761901 0.0005238 -3.2792e-05
-0.000107635 -3.2792e-05 0.000342433
0.00306151 -0.000192586 -9.58838e-05
-0.000192586 0.000469382 8.62774e-06
-9.58838e-05 8.62774e-06 0.000149491
0.00977936 -0.000214524 4.3244e-06
-0.000214524 0.00297298 -3.26646e-06
4.3244e-06 -3.26646e-06 0.00229002
-0.00825997 -0.000365673 0.000263523
-0.000365673 -0.00450832 -6.99005e-06
0.000263523 -6.99005e-06 -0.0042825
0.00113079 -0.000386454 -3.7864e-05
-0.000386454 -0.000228997 8.69297e-06
-3.7864e-05 8.69297e-06 -0.000300787
0.00597789 -0.000669921 0.000106704
-0.000669921 0.000995395 1.46789e-05
0.000106704 1.46789e-05 0.000422495
0.00140548 -0.000391856 4.48406e-05
-0.000391856 -0.00171053 5.64806e-05
4.48406e-05 5.64806e-05 -0.00280631
0.00144965 -0.000278212 2.04191e-05
-0.000278212 -1.15571e-05 -3.72043e-07
2.04191e-05 -3.72043e-07 -0.000190167
0.00234988 -6.71557e-05 -1.18176e-06
-6.71557e-05 -0.000321879 6.63549e-06
-1.18176e-06 6.63549e-06 -0.000523941
0.0040073 -0.000300563 1.58632e-05
-0.000300563 0.00104582 -6.41886e-06
1.58632e-05 -6.41886e-06 0.00105086
0.00338936 -6.07926e-05 6.8749e-05
-6.07926e-05 0.000787902 -8.48942e-07
6.8749e-05 -8.48942e-07 0.000763893
0.00016241 -0.000310746 -7.83096e-06
-0.000310746 -0.000860998 6.03556e-06
-7.83096e-06 6.03556e-06 -0.00085801
0.00174296 -0.000291425 -2.03347e-07
-0.000291425 -0.0001384 6.75916e-07
-2.03347e-07 6.75916e-07 -0.000116596
0.00171467 -0.000181686 1.04177e-05
-0.000181686 -0.000162134 -6.73564e-07
1.04177e-05 -6.73564e-07 -0.000102818
0.00154597 -0.000337152 2.3245e-06
-0.000337152 -9.13136e-05 6.08823e-07
2.3245e-06 6.08823e-07 -0.000199935
0.00191901 -0.000269108 2.09915e-06
-0.000269108 2.39697e-05 9.54799e-07
2.09915e-06 9.54799e-07 -2.89866e-05
0.00182295 -0.000204115 1.41521e-06
-0.000204115 3.08425e-05 1.62055e-06
1.41521e-06 1.62055e-06 -6.83416e-06
0.00185368 -0.00029227 6.26493e-06
-0.00029227 7.36784e-05 3.74983e-06
6.26493e-06 3.74983e-06 -3.66046e-05
0.00183566 -0.000245497 9.84329e-07
-0.000245497 6.87679e-05 4.12527e-07
9.84329e-07 4.12527e-07 -1.22694e-05
0.00197982 -0.000213153 -7.32817e-07
-0.000213153 0.000201153 1.0026e-06
-7.32817e-07 1.0026e-06 0.000122834
0.00169797 -0.00024186 2.27191e-06
-0.00024186 4.92582e-05 4.10224e-06
2.27191e-06 4.10224e-06 -5.76184e-05
0.00181153 -0.000229761 2.38392e-08
-0.000229761 0.000142285 5.99145e-07
2.38392e-08 5.99145e-07 4.61052e-05
0.00166221 -0.000215681 3.93522e-06
-0.000215681 8.81105e-05 -2.01522e-06
3.93522e-06 -2.01522e-06 -2.17028e-05
0.00167688 -0.000219645 -2.95261e-06
-0.000219645 7.85878e-05 7.47803e-06
-2.95261e-06 7.47803e-06 -2.81737e-05
0.0018248 -0.000224651 -1.96077e-06
-0.000224651 0.000203506 9.62443e-08
-1.96077e-06 9.62443e-08 8.0122e-05
0.00171718 -0.000210906 8.64638e-07
-0.000210906 0.000186945 -1.94983e-06
8.64638e-07 -1.94983e-06 4.07522e-05
0.00172214 -0.000241776 1.68786e-06
-0.000241776 0.000163637 3.52462e-06
1.68786e-06 3.52462e-06 1.05521e-05
0.00168177 -0.000232289 7.14092e-07
-0.000232289 0.000186175 -7.34207e-07
7.14092e-07 -7.34207e-07 2.10334e-05
0.00163763 -0.000213903 -2.99742e-06
-0.000213903 0.000220635 -7.06015e-07
-2.99742e-06 -7.06015e-07 5.59063e-05
0.000981981 -0.00018296 -8.75847e-06
-0.00018296 -5.95661e-05 2.01924e-06
-8.75847e-06 2.01924e-06 -0.000225513
0.0015129 -0.000238304 -1.11145e-06
-0.000238304 0.000177103 -1.4425e-08
-1.11145e-06 -1.4425e-08 -5.36791e-06
0.00170572 -0.000272576 3.97476e-06
-0.000272576 0.000232901 2.65952e-07
3.97476e-06 2.65952e-07 3.94471e-05
0.000947908 -0.000157561 -8.30081e-06
-0.000157561 5.64462e-05 6.05692e-06
-8.30081e-06 6.05692e-06 -8.75972e-05
0.00117685 -0.000208993 2.69145e-07
-0.000208993 0.000110843 6.65456e-07
2.69145e-07 6.65456e-07 -6.80459e-05
0.00119905 -0.000232691 2.71481e-06
-0.000232691 5.71433e-05 -6.59947e-07
2.71481e-06 -6.59947e-07 -0.000135743
0.000453007 -6.80136e-05 -1.25035e-05
-6.80136e-05 -0.000120972 1.12839e-05
-1.25035e-05 1.12839e-05 -0.000185324
0.000867169 -0.000144025 2.60586e-07
-0.000144025 7.57666e-05 2.97049e-08
2.60586e-07 2.97049e-08 -6.50489e-05
0.00112752 -0.00020404 3.98491e-06
-0.00020404 0.000167031 -2.49722e-06
3.98491e-06 -2.49722e-06 -1.40147e-05
0.0038443 0.000156734 -9.06081e-05
0.000156734 0.00189814 2.97419e-06
-9.06081e-05 2.97419e-06 0.00188732
0.000590394 -4.21108e-05 5.25817e-07
-4.21108e-05 -2.80453e-05 -2.65705e-07
5.25817e-07 -2.65705e-07 -8.38066e-05
0.000898057 -0.000137228 5.49221e-06
-0.000137228 0.000136307 -4.41616e-06
5.49221e-06 -4.41616e-06 3.51492e-06
0.0033956 0.000130536 6.28813e-06
0.000130536 0.00163459 2.8172e-07
6.28813e-06 2.8172e-07 0.00163066
0.000683254 -1.26424e-06 6.95349e-06
-1.26424e-06 4.07541e-05 -8.37917e-06
6.95349e-06 -8.37917e-06 -4.9302e-06
0.00298639 0.0001092 7.54449e-05
0.0001092 0.00139401 -2.66008e-06
7.54449e-05 -2.66008e-06 0.00139596
0.0013493 0.000232177 -9.30437e-07
0.000232177 0.000320435 -5.73539e-06
-9.30437e-07 -5.73539e-06 0.000134857
0.0012685 0.000206642 4.55625e-07
0.000206642 0.000346764 5.46186e-08
4.55625e-07 5.46186e-08 0.000188701
0.000768494 0.000118898 -1.08442e-06
0.000118898 6.90136e-05 -3.38982e-06
-1.08442e-06 -3.38982e-06 -6.74664e-05
0.000688149 0.000143184 -8.76094e-08
0.000143184 5.39582e-05 2.64877e-07
-8.76094e-08 2.64877e-07 -7.22378e-05
0.000575026 4.15355e-05 -3.35243e-07
4.15355e-05 -2.0255e-05 -2.11728e-07
-3.35243e-07 -2.11728e-07 -0.000134252
0.000743466 5.04914e-05 -2.56598e-06
5.04914e-05 7.78026e-05 -3.34701e-06
-2.56598e-06 -3.34701e-06 -1.94096e-05
0.000523729 -2.07247e-05 6.96681e-07
-2.07247e-05 -4.99448e-05 1.62311e-06
6.96681e-07 1.62311e-06 -0.000149811
0.000646978 -1.3059e-05 2.87265e-07
-1.3059e-05 1.59848e-05 -2.77355e-07
2.87265e-07 -2.77355e-07 -6.263e-05
0.000581174 -5.17367e-05 -9.82734e-07
-5.17367e-05 -1.24689e-05 -6.8485e-06
-9.82734e-07 -6.8485e-06 -4.73883e-05
0.000607908 -2.16507e-05 1.44578e-06
-2.16507e-05 -9.28855e-06 3.46132e-06
1.44578e-06 3.46132e-06 -7.93946e-05
0.000552801 -5.22532e-05 2.18104e-07
-5.22532e-05 -3.5673e-05 -3.92539e-08
2.18104e-07 -3.92539e-08 -6.63867e-05
0.00272603 -0.000109462 -4.94075e-05
-0.000109462 0.00123592 -2.65941e-06
-4.94075e-05 -2.65941e-06 0.00123825
0.00265892 -9.8441e-05 -2.82895e-06
-9.8441e-05 0.00118962 2.80471e-07
-2.82895e-06 2.80471e-07 0.0011942
0.000546822 -4.24009e-05 1.42552e-06
-4.24009e-05 -4.86035e-05 5.57992e-06
1.42552e-06 5.57992e-06 -7.51461e-05
0.00258219 -8.6122e-05 3.3762e-05
-8.6122e-05 0.00113761 3.90943e-06
3.3762e-05 3.90943e-06 0.00114472
0.00317159 -1.84004e-05 -6.77568e-06
-1.84004e-05 -6.63061e-05 2.58205e-05
-6.77568e-06 2.58205e-05 -4.6058e-05
0.00200999 -0.000482507 4.20669e-05
-0.000482507 -0.00164019 2.07032e-05
4.20669e-05 2.07032e-05 -0.00268935
0.00561202 -0.000620987 -3.95493e-05
-0.000620987 0.0022173 -5.66527e-05
-3.95493e-05 -5.66527e-05 0.00240322
0.0013439 0.00026327 9.32438e-06
0.00026327 0.000164641 5.40653e-06
9.32438e-06 5.40653e-06 -4.59743e-05
0.00140828 0.000183319 3.12354e-06
0.000183319 0.000482563 1.30608e-06
3.12354e-06 1.30608e-06 0.000338671
0.000988702 0.000196748 -1.85944e-06
0.000196748 0.000197299 1.97382e-06
-1.85944e-06 1.97382e-06 4.26417e-05
0.000704592 0.00018107 9.40313e-07
0.00018107 5.40393e-05 1.44167e-06
9.40313e-07 1.44167e-06 -0.000104613
0.00116101 0.000236912 -5.2582e-08
0.000236912 0.00021211 -3.83997e-06
-5.2582e-08 -3.83997e-06 2.09967e-05
0.000733386 0.000222923 1.14289e-06
0.000222923 -8.08258e-05 -4.65729e-07
1.14289e-06 -4.65729e-07 -0.000243327
0.000952441 0.000212171 -1.22608e-06
0.000212171 0.000167957 -1.345e-06
-1.22608e-06 -1.345e-06 -7.04899e-06
0.000797002 0.000198585 1.85356e-06
0.000198585 5.56177e-05 5.41503e-06
1.85356e-06 5.41503e-06 -6.38758e-05
0.00117415 0.000275273 1.57706e-06
0.000275273 0.000145054 -3.57135e-07
1.57706e-06 -3.57135e-07 -1.46062e-05
0.0023725 0.000423937 2.45078e-06
0.000423937 0.000602351 6.72365e-06
2.45078e-06 6.72365e-06 0.000438397
0.00167662 0.000401848 -1.18995e-06
0.000401848 0.000124316 -6.12944e-07
-1.18995e-06 -6.12944e-07 -5.12282e-05
0.00149945 0.000364824 4.54604e-06
0.000364824 3.63724e-05 6.38166e-06
4.54604e-06 6.38166e-06 -7.81034e-05
0.00107552 0.000397212 -1.89949e-06
0.000397212 -0.000193258 -2.88957e-06
-1.89949e-06 -2.88957e-06 -0.000356554
0.000572951 0.000314481 1.03515e-06
0.000314481 -0.000318935 3.6248e-06
1.03515e-06 3.6248e-06 -0.000470111
0.000815775 0.000259714 1.74418e-05
0.000259714 -0.000371626 2.07971e-05
1.74418e-05 2.07971e-05 -0.000361362
0.00498863 0.000562526 -3.67909e-05
0.000562526 0.000267821 -6.26567e-06
-3.67909e-05 -6.26567e-06 0.000124809
0.00193943 0.000137904 0.000186264
0.000137904 -0.00130114 1.98554e-05
0.000186264 1.98554e-05 -0.00275019
0.00122013 0.000659384 9.97848e-06
0.000659384 -0.000809288 -8.51748e-06
9.97848e-06 -8.51748e-06 -0.00116895
0.00218421 0.000541008 -2.51963e-05
0.000541008 0.000229561 -2.14322e-06
-2.51963e-05 -2.14322e-06 0.00020185
0.00171809 0.00051371 -4.48524e-05
0.00051371 0.000109292 -2.11649e-05
-4.48524e-05 -2.11649e-05 -4.28028e-05
0.00230999 -0.000155962 1.16485e-05
-0.000155962 0.000149601 2.09088e-06
1.16485e-05 2.09088e-06 9.96391e-05
0.00128144 -7.97371e-06 -6.81186e-06
-7.97371e-06 -0.0003181 4.08956e-06
-6.81186e-06 4.08956e-06 -0.00049933
0.000672027 0.00053174 7.62944e-05
0.00053174 -0.0024799 -2.6838e-05
7.62944e-05 -2.6838e-05 -0.00313381
0.000475552 -0.000187799 -1.10648e-05
-0.000187799 -0.000545634 2.31882e-05
-1.10648e-05 2.31882e-05 -0.000595521
0.00307201 -8.56982e-05 -1.83482e-05
-8.56982e-05 -9.86483e-05 3.16762e-05
-1.83482e-05 3.16762e-05 -0.000406994
0.00187008 -0.000202855 -8.69411e-06
-0.000202855 -5.28569e-05 2.93965e-06
-8.69411e-06 2.93965e-06 -1.89791e-05
0.00269378 -9.4001e-05 -6.85645e-06
-9.4001e-05 0.000400932 -2.71527e-06
-6.85645e-06 -2.71527e-06 0.000355598
0.00148829 -0.000116895 2.43614e-05
-0.000116895 -0.0002715 -6.69419e-07
2.43614e-05 -6.69419e-07 -0.000215976
0.0030406 -5.44965e-05 2.32186e-05
-5.44965e-05 0.00085077 1.70865e-06
2.32186e-05 1.70865e-06 0.000807064
0.00150079 -0.000289826 -1.13909e-05
-0.000289826 -0.000266171 5.4393e-06
-1.13909e-05 5.4393e-06 -0.000251743
0.00175111 -0.000192078 1.43127e-06
-0.000192078 -0.0001549 1.81244e-06
1.43127e-06 1.81244e-06 -0.000106369
0.00188222 -0.000198495 1.26173e-06
-0.000198495 -4.33544e-06 9.05179e-07
1.26173e-06 9.05179e-07 1.23139e-05
0.00177535 -0.000263532 2.6493e-06
-0.000263532 -4.49083e-05 1.2059e-06
2.6493e-06 1.2059e-06 -0.000100316
0.00182003 -0.000214716 4.63311e-07
-0.000214716 2.38625e-05 1.11852e-07
4.63311e-07 1.11852e-07 -1.92484e-05
0.00186709 -0.000201475 3.69715e-07
-0.000201475 0.00010091 1.09647e-06
3.69715e-07 1.09647e-06 3.98135e-05
0.00193942 -0.000249023 8.23491e-07
-0.000249023 0.000133313 1.07259e-06
8.23491e-07 1.07259e-06 5.18877e-05
0.00187594 -0.000217235 -8.86149e-07
-0.000217235 0.000142394 5.8418e-08
-8.86149e-07 5.8418e-08 6.1766e-05
0.00167298 -0.000194122 1.71357e-06
-0.000194122 7.09583e-05 -1.09267e-07
1.71357e-06 -1.09267e-07 -2.56023e-05
0.00162932 -0.000222782 -1.6582e-06
-0.000222782 4.37135e-05 1.93281e-06
-1.6582e-06 1.93281e-06 -5.33583e-05
0.00167841 -0.000216393 5.04498e-07
-0.000216393 0.00010058 -6.66805e-07
5.04498e-07 -6.66805e-07 -9.40546e-06
0.00164109 -0.000200036 2.11125e-06
-0.000200036 0.000112107 -1.8661e-06
2.11125e-06 -1.8661e-06 -2.0724e-05
0.00187041 -0.000224472 -4.95476e-06
-0.000224472 0.000228698 5.04849e-06
-4.95476e-06 5.04849e-06 0.000108572
0.00176831 -0.000211894 -8.9316e-07
-0.000211894 0.00021343 7.48276e-08
-8.9316e-07 7.48276e-08 7e-05
0.00152691 -0.000184309 -2.22413e-06
-0.000184309 0.000138219 -3.7348e-07
-2.22413e-06 -3.7348e-07 -1.6783e-05
0.00173271 -0.000234845 2.81299e-06
-0.000234845 0.00021621 1.3375e-06
2.81299e-06 1.3375e-06 5.00911e-05
0.00156553 -0.000210813 9.75381e-07
-0.000210813 0.000178782 -6.40317e-07
9.75381e-07 -6.40317e-07 1.30398e-05
0.00127746 -0.000175702 -7.31975e-06
-0.000175702 8.41454e-05 2.14155e-06
-7.31975e-06 2.14155e-06 -7.12541e-05
0.0010076 -0.000158028 -1.0819e-05
-0.000158028 3.83552e-05 5.18869e-06
-1.0819e-05 5.18869e-06 -9.92867e-05
0.0011175 -0.000190729 -2.0888e-06
-0.000190729 1.91347e-05 4.32007e-07
-2.0888e-06 4.32007e-07 -0.000147107
0.00164749 -0.000248453 3.819e-06
-0.000248453 0.000257629 -6.37038e-07
3.819e-06 -6.37038e-07 7.36397e-05
0.000537199 -0.000144596 -1.87587e-05
-0.000144596 -9.03479e-05 1.24826e-05
-1.87587e-05 1.24826e-05 -0.000168143
0.000911524 -0.00015722 7.23899e-07
-0.00015722 3.77366e-05 5.13189e-07
7.23899e-07 5.13189e-07 -0.000106505
0.00117198 -0.000206878 6.53655e-06
-0.000206878 0.000107305 -1.67578e-06
6.53655e-06 -1.67578e-06 -7.07046e-05
0.00437134 0.000173852 -0.000109813
0.000173852 0.00220928 5.12521e-06
-0.000109813 5.12521e-06 0.00219184
0.000608723 -0.000105692 4.66221e-07
-0.000105692 -3.2002e-05 -3.91256e-08
4.66221e-07 -3.91256e-08 -0.000102014
0.000908864 -0.000153193 6.97563e-06
-0.000153193 0.000100393 -5.47018e-06
6.97563e-06 -5.47018e-06 -4.21485e-05
0.00398886 0.00013682 5.29623e-06
0.00013682 0.00197756 5.77041e-07
5.29623e-06 5.77041e-07 0.00197015
0.000728114 -6.02221e-05 1.18667e-05
-6.02221e-05 4.9177e-05 -1.02325e-05
1.18667e-05 -1.02325e-05 -9.22824e-06
0.00356243 0.000106596 0.000105362
0.000106596 0.00172538 -4.62743e-06
0.000105362 -4.62743e-06 0.00172581
0.00127233 0.000240942 -5.5067e-06
0.000240942 0.000149961 -4.73559e-07
-5.5067e-06 -4.73559e-07 -5.00055e-05
0.00115449 0.000215871 2.28013e-07
0.000215871 0.000214518 -1.5829e-06
2.28013e-07 -1.5829e-06 3.12422e-05
0.00111856 0.00018835 -1.75972e-06
0.00018835 0.000228611 -3.58524e-06
-1.75972e-06 -3.58524e-06 6.18348e-05
0.00156192 0.000230823 -9.14387e-07
0.000230823 0.000517663 1.01758e-06
-9.14387e-07 1.01758e-06 0.00035541
0.000853089 0.000127424 -1.06224e-06
0.000127424 0.000116931 -1.45831e-06
-1.06224e-06 -1.45831e-06 -1.98373e-05
0.000846446 9.02974e-05 -3.66319e-06
9.02974e-05 0.000132771 -3.42653e-06
-3.66319e-06 -3.42653e-06 1.99218e-05
0.000615568 6.28554e-05 3.88727e-07
6.28554e-05 5.43236e-07 3.36906e-07
3.88727e-07 3.36906e-07 -0.000115903
0.000664264 8.36011e-06 -5.28863e-07
8.36011e-06 2.79674e-05 -8.25676e-08
-5.28863e-07 -8.25676e-08 -6.29915e-05
0.000583397 -3.84658e-05 -2.95122e-06
-3.84658e-05 -1.0056e-05 -7.34526e-06
-2.95122e-06 -7.34526e-06 -4.98556e-05
0.000592279 -2.83494e-05 1.22577e-06
-2.83494e-05 -1.35838e-05 3.72131e-06
1.22577e-06 3.72131e-06 -9.18058e-05
0.000539233 -5.54643e-05 3.94366e-07
-5.54643e-05 -3.56784e-05 -1.59022e-07
3.94366e-07 -1.59022e-07 -7.09057e-05
0.00284698 -0.000118817 -5.95805e-05
-0.000118817 0.00131204 -2.14893e-06
-5.95805e-05 -2.14893e-06 0.00131212
0.000529271 -5.05227e-05 1.21351e-06
-5.05227e-05 -5.00438e-05 6.04205e-06
1.21351e-06 6.04205e-06 -8.02193e-05
0.0027115 -0.00010993 -2.1332e-06
-0.00010993 0.00122724 2.59611e-07
-2.1332e-06 2.59611e-07 0.00122929
0.00265403 -9.78906e-05 4.02181e-05
-9.78906e-05 0.00118639 3.4888e-06
4.02181e-05 3.4888e-06 0.00119096
0.000442875 3.16229e-05 8.14486e-06
3.16229e-05 -0.000683491 8.4938e-06
8.14486e-06 8.4938e-06 -0.000672152
0.00417692 2.24674e-05 4.18244e-05
2.24674e-05 0.000301951 8.47901e-06
4.18244e-05 8.47901e-06 0.000123668
0.00944198 0.000476825 -8.2779e-05
0.000476825 0.0028391 -4.55484e-05
-8.2779e-05 -4.55484e-05 0.00170369
0.00035269 0.000185187 1.39488e-06
0.000185187 -0.000414136 2.21514e-06
1.39488e-06 2.21514e-06 -0.000590207
0.00167984 0.000290985 1.47418e-06
0.000290985 0.000225359 2.75229e-06
1.47418e-06 2.75229e-06 4.02471e-05
0.00100488 0.000242165 -3.58655e-06
0.000242165 -2.93243e-05 6.49117e-07
-3.58655e-06 6.49117e-07 -0.000235341
0.00107726 0.000215624 4.85095e-07
0.000215624 0.000260235 1.351e-06
4.85095e-07 1.351e-06 9.36482e-05
0.000822344 0.000210366 -1.28696e-06
0.000210366 2.09236e-05 1.71221e-07
-1.28696e-06 1.71221e-07 -0.000168209
0.00126612 0.000270937 6.57434e-06
0.000270937 0.000199592 1.13906e-06
6.57434e-06 1.13906e-06 2.7365e-05
0.00230894 0.000413406 -8.03258e-06
0.000413406 0.000478447 -3.84292e-06
-8.03258e-06 -3.84292e-06 0.000299839
0.00201975 0.000344461 -1.31184e-06
0.000344461 0.000608249 1.71984e-06
-1.31184e-06 1.71984e-06 0.000440474
0.00137943 0.00035066 1.05301e-05
0.00035066 5.99251e-05 1.81777e-05
1.05301e-05 1.81777e-05 -9.69313e-05
0.00202984 0.000421944 -2.08917e-06
0.000421944 0.000321441 9.6524e-07
-2.08917e-06 9.6524e-07 0.000146965
0.00206849 0.000390024 -1.34815e-05
0.000390024 0.000245597 9.50458e-07
-1.34815e-05 9.50458e-07 9.61882e-05
0.000762801 0.000176469 1.24216e-05
0.000176469 -0.000429502 4.98629e-06
1.24216e-05 4.98629e-06 -0.000484928
0.00123718 0.000343251 8.68064e-06
0.000343251 -9.55028e-05 6.18731e-07
8.68064e-06 6.18731e-07 -0.000210839
0.0011375 0.000395956 -6.41627e-06
0.000395956 -0.000170183 -6.60038e-06
-6.41627e-06 -6.60038e-06 -0.000334146
0.00148092 0.000261909 -5.06103e-07
0.000261909 -3.57137e-05 4.30766e-06
-5.06103e-07 4.30766e-06 -4.04344e-05
0.00492777 0.000350009 3.03851e-05
0.000350009 0.000154215 -1.19215e-05
3.03851e-05 -1.19215e-05 -8.79303e-05
0.00211214 0.000468776 1.12516e-05
0.000468776 0.00041626 -2.02179e-05
1.12516e-05 -2.02179e-05 0.000387035
0.00134137 -3.69124e-05 2.26366e-05
-3.69124e-05 -6.23286e-05 3.21861e-06
2.26366e-05 3.21861e-06 -8.6428e-05
0.00206551 -8.88041e-05 -1.82697e-05
-8.88041e-05 7.78215e-05 -7.36605e-07
-1.82697e-05 -7.36605e-07 1.96948e-05
0.00124767 0.000150093 2.83134e-05
0.000150093 -0.000710131 -1.03261e-05
2.83134e-05 -1.03261e-05 -0.000958709
0.000598233 -0.000164718 -2.5685e-05
-0.000164718 -0.000695428 1.82344e-05
-2.5685e-05 1.82344e-05 -0.000642768
0.0028277 -0.000147887 -8.54662e-05
-0.000147887 0.000441806 1.79678e-06
-8.54662e-05 1.79678e-06 0.000404116
0.00174351 -0.00014625 1.80757e-06
-0.00014625 -0.000117286 -1.13969e-06
1.80757e-06 -1.13969e-06 -5.91548e-05
0.00232422 -6.02778e-05 -7.04441e-06
-6.02778e-05 0.000398803 2.99766e-07
-7.04441e-06 2.99766e-07 0.000353655
0.00195758 -0.000162587 2.63866e-06
-0.000162587 1.27708e-05 1.01201e-06
2.63866e-06 1.01201e-06 1.07185e-05
0.00220293 -2.7497e-05 3.99305e-06
-2.7497e-05 0.000206337 8.64724e-07
3.99305e-06 8.64724e-07 0.000168738
0.00182758 -0.000204406 -4.15658e-06
-0.000204406 -0.000131596 1.41257e-06
-4.15658e-06 1.41257e-06 -9.0114e-05
0.00187863 -0.000193961 -1.79737e-06
-0.000193961 8.4306e-08 -6.38642e-08
-1.79737e-06 -6.38642e-08 1.20549e-05
0.00197214 -0.000167257 -1.72952e-06
-0.000167257 7.53341e-05 7.51429e-07
-1.72952e-06 7.51429e-07 3.95357e-05
0.00184754 -0.000225316 -1.64317e-06
-0.000225316 3.32913e-05 -1.11763e-06
-1.64317e-06 -1.11763e-06 -1.45666e-05
0.0017891 -0.000196933 9.55965e-08
-0.000196933 6.27309e-05 -2.90834e-07
9.55965e-08 -2.90834e-07 -2.18148e-06
0.00175209 -0.000173116 4.53467e-07
-0.000173116 6.82732e-05 2.86751e-07
4.53467e-07 2.86751e-07 -1.45915e-05
0.00177168 -0.00022068 -3.14752e-06
-0.00022068 8.36962e-05 -3.74425e-07
-3.14752e-06 -3.74425e-07 1.01148e-06
0.00170375 -0.000194936 2.74482e-07
-0.000194936 8.90541e-05 -1.70465e-07
2.74482e-07 -1.70465e-07 -7.50667e-06
0.00168385 -0.000180554 2.08313e-06
-0.000180554 9.96626e-05 -7.25899e-07
2.08313e-06 -7.25899e-07 -2.14651e-05
0.00169228 -0.000216977 -2.40902e-06
-0.000216977 0.000111808 6.17775e-07
-2.40902e-06 6.17775e-07 1.6586e-06
0.00166664 -0.000200312 -8.98499e-08
-0.000200312 0.000127513 -3.67211e-07
-8.98499e-08 -3.67211e-07 -5.12264e-06
0.00152096 -0.000171089 -1.22531e-06
-0.000171089 0.000115373 -3.10603e-07
-1.22531e-06 -3.10603e-07 -3.32413e-05
0.00181446 -0.000212782 -1.48927e-06
-0.000212782 0.000237043 2.99934e-06
-1.48927e-06 2.99934e-06 9.63775e-05
0.00152782 -0.000184953 -5.06349e-07
-0.000184953 0.000137784 -1.23278e-07
-5.06349e-07 -1.23278e-07 -1.6499e-05
0.00128039 -0.000156302 -6.72347e-06
-0.000156302 7.21261e-05 2.00452e-06
-6.72347e-06 2.00452e-06 -7.80002e-05
0.00149591 -0.000208032 4.88894e-06
-0.000208032 0.000138283 -4.64536e-07
4.88894e-06 -4.64536e-07 -2.85206e-05
0.00120889 -0.000172504 -2.52449e-08
-0.000172504 4.5125e-05 -4.88971e-08
-2.52449e-08 -4.88971e-08 -0.000110718
0.00101756 -0.000142469 -1.17416e-05
-0.000142469 2.10164e-05 5.14729e-06
-1.17416e-05 5.14729e-06 -0.000108547
0.000483784 -0.000150119 -1.93737e-05
-0.000150119 -0.00013628 1.20994e-05
-1.93737e-05 1.20994e-05 -0.000218112
0.000969035 -0.00015523 2.29789e-07
-0.00015523 1.75289e-05 9.45572e-08
2.29789e-07 9.45572e-08 -0.000119904
0.00124041 -0.00019764 5.28965e-06
-0.00019764 9.08224e-05 -1.45089e-06
5.28965e-06 -1.45089e-06 -7.56149e-05
0.00487109 0.000177078 -0.000123089
0.000177078 0.00250086 7.39828e-06
-0.000123089 7.39828e-06 0.00247933
0.000603117 -0.000134627 -1.31696e-06
-0.000134627 -5.47413e-05 4.54083e-07
-1.31696e-06 4.54083e-07 -0.000133284
0.000889366 -0.000158878 8.96282e-06
-0.000158878 2.83558e-05 -4.83108e-06
8.96282e-06 -4.83108e-06 -0.000116407
0.00455376 0.000156607 1.01951e-05
0.000156607 0.00231134 1.1211e-06
1.01951e-05 1.1211e-06 0.0022959
0.000762707 -0.000108941 1.63674e-05
-0.000108941 5.05749e-05 -1.1915e-05
1.63674e-05 -1.1915e-05 -2.04246e-05
0.00414753 0.000117353 0.000124861
0.000117353 0.00206412 -6.12541e-06
0.000124861 -6.12541e-06 0.00205958
0.00140528 0.0002423 -5.47419e-06
0.0002423 0.000149852 1.60202e-06
-5.47419e-06 1.60202e-06 -3.94318e-05
0.0010394 0.000221399 -1.43621e-06
0.000221399 1.87196e-05 2.45062e-06
-1.43621e-06 2.45062e-06 -0.000178799
0.000998466 0.000191205 -5.63356e-06
0.000191205 6.99105e-05 -1.19557e-06
-5.63356e-06 -1.19557e-06 -0.00010855
0.000960517 0.000199941 -5.06047e-07
0.000199941 0.000108949 1.64366e-06
-5.06047e-07 1.64366e-06 -7.20831e-05
0.00102462 0.000179472 -8.11742e-07
0.000179472 0.000178888 -5.86994e-07
-8.11742e-07 -5.86994e-07 1.34838e-05
0.000954129 0.000136069 -5.24827e-06
0.000136069 0.000174912 -4.86745e-06
-5.24827e-06 -4.86745e-06 4.31477e-05
0.000913117 0.000133422 2.26489e-07
0.000133422 0.000150937 -6.3942e-08
2.26489e-07 -6.3942e-08 1.41579e-05
0.000741418 6.92902e-05 -3.26009e-07
6.92902e-05 7.42549e-05 -4.78465e-08
-3.26009e-07 -4.78465e-08 -3.60675e-05
0.000656398 2.27158e-06 -7.23392e-06
2.27158e-06 2.53833e-05 -8.41846e-06
-7.23392e-06 -8.41846e-06 -2.26604e-05
0.000617113 -1.98047e-05 1.11685e-06
-1.98047e-05 8.02759e-07 3.57038e-06
1.11685e-06 3.57038e-06 -8.75145e-05
0.000527765 -4.6671e-05 -2.3593e-08
-4.6671e-05 -3.99646e-05 -2.43946e-07
-2.3593e-08 -2.43946e-07 -8.02743e-05
0.00308921 -0.00012405 -7.70814e-05
-0.00012405 0.00145695 -2.02344e-06
-7.70814e-05 -2.02344e-06 0.00145529
0.000505694 -5.68002e-05 8.13562e-07
-5.68002e-05 -5.48547e-05 6.6122e-06
8.13562e-07 6.6122e-06 -8.99609e-05
0.00280855 -0.000121558 -2.02465e-06
-0.000121558 0.0012902 2.55089e-07
-2.02465e-06 2.55089e-07 0.00128943
0.00270321 -0.000109559 4.54775e-05
-0.000109559 0.00122213 2.97755e-06
4.54775e-05 2.97755e-06 0.00122413
0.000872636 4.84283e-05 1.09869e-05
4.84283e-05 -0.000376824 -9.45098e-07
1.09869e-05 -9.45098e-07 -0.00038213
0.00179465 -1.23232e-06 -6.06026e-06
-1.23232e-06 -0.000127754 1.5044e-06
-6.06026e-06 1.5044e-06 -0.000121727
0.00383772 2.62812e-07 0.000115612
2.62812e-07 -2.08365e-05 1.3086e-06
0.000115612 1.3086e-06 1.38187e-05
0.00179309 0.000327884 -2.31127e-06
0.000327884 0.000208848 1.22286e-06
-2.31127e-06 1.22286e-06 3.79967e-05
0.000726819 0.000229953 8.02637e-07
0.000229953 -0.000209291 -1.00908e-06
8.02637e-07 -1.00908e-06 -0.000388127
0.00188485 0.000293371 -1.4783e-06
0.000293371 0.00024455 3.38753e-06
-1.4783e-06 3.38753e-06 8.11129e-05
0.00173426 0.000294075 1.19058e-06
0.000294075 0.000259561 5.05907e-07
1.19058e-06 5.05907e-07 7.37217e-05
0.000699062 0.000224965 -2.80268e-06
0.000224965 -0.000205475 3.47662e-06
-2.80268e-06 3.47662e-06 -0.000407518
0.00185821 0.000322278 -6.2703e-06
0.000322278 0.000127313 1.51166e-06
-6.2703e-06 1.51166e-06 -2.24948e-05
0.00176164 0.000316115 -9.45231e-07
0.000316115 0.000460348 -2.53491e-08
-9.45231e-07 -2.53491e-08 0.000278793
0.00216442 0.000400132 -1.58903e-07
0.000400132 0.000402451 -1.46135e-06
-1.58903e-07 -1.46135e-06 0.000223033
0.00179046 0.000225032 -1.10738e-05
0.000225032 1.81171e-05 5.94622e-08
-1.10738e-05 5.94622e-08 -8.34652e-05
0.00240487 0.00044442 5.76139e-06
0.00044442 0.000531431 4.123e-06
5.76139e-06 4.123e-06 0.000357519
0.00200781 0.000388313 -1.19702e-06
0.000388313 0.000209564 5.33429e-07
-1.19702e-06 5.33429e-07 5.81085e-05
0.00094665 0.000192785 1.63744e-06
0.000192785 -0.000302185 2.30886e-06
1.63744e-06 2.30886e-06 -0.000362851
0.000157389 0.000275197 8.51942e-07
0.000275197 -0.000647869 -1.85418e-06
8.51942e-07 -1.85418e-06 -0.000761936
0.00148095 0.000258466 -3.40163e-05
0.000258466 -4.17626e-05 -1.46494e-05
-3.40163e-05 -1.46494e-05 -5.81541e-05
0.00174141 3.27018e-05 1.58206e-06
3.27018e-05 -5.47341e-05 6.1627e-07
1.58206e-06 6.1627e-07 -0.000100716
0.0020472 -2.05548e-05 6.561e-07
-2.05548e-05 0.000351256 2.07516e-06
6.561e-07 2.07516e-06 0.000331057
0.0013872 -9.87467e-06 -5.86613e-05
-9.87467e-06 -0.000223676 -8.65817e-06
-5.86613e-05 -8.65817e-06 -0.000323812
0.00199778 -0.000173088 -2.3373e-05
-0.000173088 3.36985e-05 8.29638e-07
-2.3373e-05 8.29638e-07 9.32385e-05
0.00126703 -6.80441e-05 -8.33086e-06
-6.80441e-05 -0.000243303 -3.91354e-07
-8.33086e-06 -3.91354e-07 -0.000288212
0.00192365 -0.000154815 1.51915e-07
-0.000154815 -6.43757e-07 -3.79322e-07
1.51915e-07 -3.79322e-07 -6.38477e-08
0.00197914 -2.7256e-05 -2.3547e-06
-2.7256e-05 5.82805e-05 7.21786e-07
-2.3547e-06 7.21786e-07 2.55617e-05
0.00195198 -5.95119e-05 -5.65221e-06
-5.95119e-05 3.78136e-05 -7.42122e-07
-5.65221e-06 -7.42122e-07 5.38968e-06
0.00187082 -0.000188877 -2.90085e-06
-0.000188877 4.66304e-06 -1.25449e-06
-2.90085e-06 -1.25449e-06 1.1039e-05
0.00190018 -0.000160927 5.70597e-07
-0.000160927 4.35567e-05 -1.55289e-07
5.70597e-07 -1.55289e-07 5.24635e-06
0.0020011 -0.000127961 -4.50373e-07
-0.000127961 0.0001412 -4.45661e-07
-4.50373e-07 -4.45661e-07 8.22487e-05
0.00171014 -0.000192852 -9.48888e-07
-0.000192852 2.36184e-05 -1.05424e-06
-9.48888e-07 -1.05424e-06 -4.51742e-05
0.00170966 -0.000170443 8.65111e-08
-0.000170443 4.73192e-05 -5.31724e-08
8.65111e-08 -5.31724e-08 -3.66003e-05
0.00174162 -0.000146458 1.55717e-06
-0.000146458 9.54529e-05 -3.38964e-07
1.55717e-06 -3.38964e-07 -1.49145e-05
0.00173854 -0.000195839 -1.24972e-06
-0.000195839 0.000109022 -1.90739e-07
-1.24972e-06 -1.90739e-07 1.24679e-05
0.00171403 -0.000180251 4.43284e-08
-0.000180251 0.000118314 -1.37198e-07
4.43284e-08 -1.37198e-07 -2.63965e-06
0.0015799 -0.000153399 -3.37968e-07
-0.000153399 0.000118173 -3.41528e-07
-3.37968e-07 -3.41528e-07 -2.27016e-05
0.00169292 -0.000200675 -1.85633e-06
-0.000200675 0.000143231 1.01556e-06
-1.85633e-06 1.01556e-06 1.07813e-05
0.00153373 -0.00017129 -1.69153e-07
-0.00017129 0.000121129 -2.53871e-08
-1.69153e-07 -2.53871e-08 -2.7155e-05
0.00130541 -0.000139631 -5.72516e-06
-0.000139631 7.31966e-05 1.67518e-06
-5.72516e-06 1.67518e-06 -7.34297e-05
0.00152945 -0.000185547 1.83621e-06
-0.000185547 0.000137646 3.77034e-07
1.83621e-06 3.77034e-07 -1.59002e-05
0.00130189 -0.000156775 -1.63094e-07
-0.000156775 8.40165e-05 6.68887e-08
-1.63094e-07 6.68887e-08 -6.5903e-05
0.00104451 -0.000126592 -1.23931e-05
-0.000126592 2.35096e-05 5.07717e-06
-1.23931e-05 5.07717e-06 -0.000102241
0.00114355 -0.000169457 6.61805e-06
-0.000169457 7.95753e-06 -1.89176e-06
6.61805e-06 -1.89176e-06 -0.000148339
0.00101304 -0.00014089 1.6687e-07
-0.00014089 1.80372e-05 -5.45909e-08
1.6687e-07 -5.45909e-08 -0.000111302
0.00232097 -8.16921e-05 -2.14671e-05
-8.16921e-05 0.000923117 7.45219e-06
-2.14671e-05 7.45219e-06 0.000852436
0.00155192 -3.00987e-05 -0.000153061
-3.00987e-05 0.000538882 1.53985e-05
-0.000153061 1.53985e-05 0.000520219
0.00150319 -0.000119734 -2.37233e-06
-0.000119734 0.000452963 -1.82782e-07
-2.37233e-06 -1.82782e-07 0.000374167
0.000940552 -0.000153224 1.06138e-05
-0.000153224 2.38139e-06 -4.8443e-06
1.06138e-05 -4.8443e-06 -0.00013495
0.00503718 0.000132698 4.10798e-06
0.000132698 0.00258709 2.45244e-07
4.10798e-06 2.45244e-07 0.00257184
0.000687648 -0.000155174 1.97885e-05
-0.000155174 -7.48229e-06 -1.23455e-05
1.97885e-05 -1.23455e-05 -8.90973e-05
0.00470899 0.000117325 0.000145567
0.000117325 0.00239357 -9.13441e-06
0.000145567 -9.13441e-06 0.00238304
0.00186184 0.000239334 2.97928e-07
0.000239334 0.000204009 9.6465e-07
2.97928e-07 9.6465e-07 5.64698e-05
0.00150667 0.000239606 -3.52721e-07
0.000239606 0.000142625 2.68342e-06
-3.52721e-07 2.68342e-06 -2.88803e-05
0.00152452 0.000252613 -2.77876e-07
0.000252613 0.000218577 -1.09733e-07
-2.77876e-07 -1.09733e-07 2.9515e-05
0.00115195 0.000201227 -7.04352e-06
0.000201227 6.51937e-05 -1.04948e-06
-7.04352e-06 -1.04948e-06 -0.000107073
0.000808191 0.000201999 1.5667e-06
0.000201999 -0.000111289 3.5167e-06
1.5667e-06 3.5167e-06 -0.000306405
0.0011108 0.000199111 -1.22734e-06
0.000199111 0.000136131 1.17399e-06
-1.22734e-06 1.17399e-06 -4.37867e-05
0.000924949 0.000154288 -7.52931e-06
0.000154288 9.97108e-05 -4.42925e-06
-7.52931e-06 -4.42925e-06 -4.40783e-05
0.000938525 0.000171097 1.41203e-06
0.000171097 0.000133698 3.0883e-06
1.41203e-06 3.0883e-06 -3.04149e-05
0.000802515 0.000120372 4.11241e-09
0.000120372 8.9319e-05 -3.2902e-07
4.11241e-09 -3.2902e-07 -3.96181e-05
0.000783816 7.07624e-05 -1.21855e-05
7.07624e-05 8.6593e-05 -1.06767e-05
-1.21855e-05 -1.06767e-05 2.40031e-05
0.00065968 4.83269e-05 1.84999e-06
4.83269e-05 2.56757e-05 2.76433e-06
1.84999e-06 2.76433e-06 -8.0085e-05
0.000541028 -9.46394e-06 -6.05563e-07
-9.46394e-06 -3.8454e-05 -3.67974e-07
-6.05563e-07 -3.67974e-07 -8.52816e-05
0.00345736 -0.00012114 -0.000101012
-0.00012114 0.00167418 -3.26201e-06
-0.000101012 -3.26201e-06 0.00167088
0.000465635 -5.52133e-05 5.47051e-07
-5.52133e-05 -7.24336e-05 7.41437e-06
5.47051e-07 7.41437e-06 -0.000113854
0.00300336 -0.000133792 -2.68771e-06
-0.000133792 0.00140911 2.95894e-07
-2.68771e-06 2.95894e-07 0.00140499
0.00278114 -0.000121903 5.06791e-05
-0.000121903 0.00127429 2.40758e-06
5.06791e-05 2.40758e-06 0.00127335
0.00177739 0.000123793 -3.50852e-06
0.000123793 -3.74761e-05 6.58427e-07
-3.50852e-06 6.58427e-07 -0.000104254
0.00189837 4.0987e-05 1.15776e-05
4.0987e-05 0.000159431 9.974e-07
1.15776e-05 9.974e-07 0.000147848
0.00382402 -2.73106e-05 -6.83885e-05
-2.73106e-05 0.000774746 -1.55809e-05
-6.83885e-05 -1.55809e-05 0.000768778
0.00169844 0.000276614 -3.97918e-06
0.000276614 5.52247e-05 1.15253e-06
-3.97918e-06 1.15253e-06 -8.85036e-05
0.0016782 0.00031718 -1.13492e-06
0.00031718 0.000161846 -1.40637e-07
-1.13492e-06 -1.40637e-07 -8.78649e-06
0.00113344 0.000276803 -1.58751e-05
0.000276803 1.48183e-05 -5.89937e-06
-1.58751e-05 -5.89937e-06 -0.000166938
0.00189668 0.000283507 2.2935e-06
0.000283507 0.000253369 6.38064e-07
2.2935e-06 6.38064e-07 9.15639e-05
0.00181361 0.000298472 8.69473e-08
0.000298472 0.000308421 -3.28915e-06
8.69473e-08 -3.28915e-06 0.000121788
0.00214881 0.000221998 -3.63063e-06
0.000221998 0.000235886 1.28086e-06
-3.63063e-06 1.28086e-06 0.00013741
0.00172043 0.000317259 -1.38015e-06
0.000317259 5.76972e-05 8.24305e-07
-1.38015e-06 8.24305e-07 -9.36779e-05
0.002046 0.000388992 3.46362e-06
0.000388992 0.000338866 -1.89402e-08
3.46362e-06 -1.89402e-08 0.000158358
0.0018237 0.000226851 -8.81085e-07
0.000226851 4.00796e-05 7.34824e-08
-8.81085e-07 7.34824e-08 -6.18216e-05
0.0020887 0.000395183 1.77834e-05
0.000395183 0.000238577 1.71452e-06
1.77834e-05 1.71452e-06 8.46612e-05
0.00148194 0.000213139 -1.79394e-05
0.000213139 -7.30765e-07 -2.84722e-06
-1.79394e-05 -2.84722e-06 -6.60367e-05
0.00198211 3.96341e-05 -5.62937e-06
3.96341e-05 8.33896e-05 -1.46896e-07
-5.62937e-06 -1.46896e-07 3.49224e-05
0.00186847 4.23785e-05 -1.82893e-06
4.23785e-05 1.85581e-05 1.73814e-07
-1.82893e-06 1.73814e-07 -2.85314e-05
0.00289805 -3.72527e-06 -3.80323e-05
-3.72527e-06 0.000850921 -6.02453e-06
-3.80323e-05 -6.02453e-06 0.000827758
0.00186365 -0.000146117 -8.00805e-06
-0.000146117 -3.39763e-05 -1.39461e-06
-8.00805e-06 -1.39461e-06 -3.06333e-05
0.00191451 -2.67611e-05 3.03721e-06
-2.67611e-05 1.29392e-06 -8.51417e-07
3.03721e-06 -8.51417e-07 -2.84518e-05
0.00194914 -6.36534e-05 1.01987e-07
-6.36534e-05 2.18516e-05 1.56224e-07
1.01987e-07 1.56224e-07 -4.77141e-06
0.00195111 -4.61266e-05 -1.45309e-06
-4.61266e-05 0.000121741 -4.51833e-08
-1.45309e-06 -4.51833e-08 6.20896e-05
0.00183209 -0.000154235 2.73373e-06
-0.000154235 1.50492e-05 -1.08752e-06
2.73373e-06 -1.08752e-06 -2.59907e-05
0.00188163 -0.000127637 5.05915e-07
-0.000127637 7.95853e-05 -1.15506e-07
5.05915e-07 -1.15506e-07 1.53574e-05
0.00181014 -0.000105936 3.26152e-06
-0.000105936 0.000109873 -1.29161e-06
3.26152e-06 -1.29161e-06 8.64869e-06
0.00166851 -0.000167907 -4.02716e-07
-0.000167907 2.72908e-05 4.85744e-08
-4.02716e-07 4.85744e-08 -5.77702e-05
0.0017665 -0.000146969 -4.02792e-08
-0.000146969 0.000109171 -5.00012e-08
-4.02792e-08 -5.00012e-08 -1.1277e-06
0.00165285 -0.000129241 -6.47076e-08
-0.000129241 0.000121521 -3.92213e-07
-6.47076e-08 -3.92213e-07 -1.13143e-05
0.0017438 -0.000179831 -1.62469e-06
-0.000179831 0.000136849 4.17252e-07
-1.62469e-06 4.17252e-07 1.60872e-05
0.00158242 -0.000153069 -2.20085e-07
-0.000153069 0.000118452 6.97694e-08
-2.20085e-07 6.97694e-08 -2.21905e-05
0.00134319 -0.00012066 -5.05279e-06
-0.00012066 7.89038e-05 1.33863e-06
-5.05279e-06 1.33863e-06 -6.4534e-05
0.00154491 -0.000171443 8.73912e-07
-0.000171443 0.000126108 2.65704e-07
8.73912e-07 2.65704e-07 -2.18473e-05
0.0013249 -0.000140083 -1.18303e-07
-0.000140083 8.26231e-05 7.90767e-08
-1.18303e-07 7.90767e-08 -6.37912e-05
0.00105209 -0.000111363 -1.23826e-05
-0.000111363 1.73901e-05 4.36303e-06
-1.23826e-05 4.36303e-06 -0.0001069
0.00132377 -0.000157314 6.1875e-06
-0.000157314 9.60763e-05 -1.7901e-06
6.1875e-06 -1.7901e-06 -5.36462e-05
0.00103764 -0.000124488 2.23723e-07
-0.000124488 1.87293e-05 9.50971e-08
2.23723e-07 9.50971e-08 -0.000106548
0.00236517 -9.24964e-05 -2.85163e-05
-9.24964e-05 0.0009349 6.52271e-06
-2.85163e-05 6.52271e-06 0.000871854
0.000999205 -0.000139035 1.17217e-05
-0.000139035 9.93358e-06 -5.19977e-06
1.17217e-05 -5.19977e-06 -0.000119191
0.00248062 -0.000129758 3.39474e-05
-0.000129758 0.00100719 -3.7911e-06
3.39474e-05 -3.7911e-06 0.000943255
0.0016805 -7.09877e-05 -0.000160058
-7.09877e-05 0.000619837 1.91942e-05
-0.000160058 1.91942e-05 0.000600589
0.0033674 1.57924e-05 -0.000158721
1.57924e-05 0.0016131 7.171e-06
-0.000158721 7.171e-06 0.00159502
0.00257977 -0.000174995 9.80983e-05
-0.000174995 0.00106902 -1.26141e-05
9.80983e-05 -1.26141e-05 0.00100664
0.00519289 0.0001235 0.000151517
0.0001235 0.00268818 -1.40411e-05
0.000151517 -1.40411e-05 0.0026665
0.00195435 0.000236044 -2.07999e-06
0.000236044 0.000221126 -1.73634e-07
-2.07999e-06 -1.73634e-07 8.44826e-05
0.00158194 0.000210591 2.09253e-06
0.000210591 0.000146607 1.27651e-06
2.09253e-06 1.27651e-06 -9.06697e-06
0.00180999 0.000239439 3.67482e-07
0.000239439 0.000172433 -8.22413e-07
3.67482e-07 -8.22413e-07 2.7907e-05
0.00134284 0.000199711 -6.88377e-06
0.000199711 0.000125027 -7.7027e-07
-6.88377e-06 -7.7027e-07 -3.65583e-05
0.00154255 0.000239593 4.48533e-07
0.000239593 0.000157907 3.79898e-07
4.48533e-07 3.79898e-07 -1.42986e-05
0.00160592 0.000260398 4.65906e-06
0.000260398 0.00026674 -1.30177e-06
4.65906e-06 -1.30177e-06 7.81359e-05
0.00118523 0.000204669 -3.86991e-08
0.000204669 8.35636e-05 1.39513e-08
-3.86991e-08 1.39513e-08 -8.92965e-05
0.000881413 0.000153966 -1.01056e-05
0.000153966 -2.15443e-06 -4.04025e-06
-1.01056e-05 -4.04025e-06 -0.000144807
0.00123058 0.000207553 3.70918e-06
0.000207553 0.000206632 3.58638e-06
3.70918e-06 3.58638e-06 2.51694e-05
0.000862407 0.000146356 -7.99507e-07
0.000146356 6.32306e-05 4.47578e-07
-7.99507e-07 4.47578e-07 -7.93071e-05
0.000765768 0.000132679 -1.83335e-05
0.000132679 5.75581e-05 -1.1772e-05
-1.83335e-05 -1.1772e-05 -1.88238e-05
0.000643161 0.000103327 3.0819e-06
0.000103327 -1.46942e-07 3.49648e-06
3.0819e-06 3.49648e-06 -0.000126277
0.000575324 4.61568e-05 -1.3532e-07
4.61568e-05 -2.80516e-05 -3.3808e-07
-1.3532e-07 -3.3808e-07 -8.76335e-05
0.00407448 -0.000111292 -0.000130286
-0.000111292 0.00203749 -6.91306e-06
-0.000130286 -6.91306e-06 0.00202979
0.000421206 -3.35018e-05 2.23045e-06
-3.35018e-05 -0.000100772 8.32413e-06
2.23045e-06 8.32413e-06 -0.000148693
0.00335555 -0.000145264 -4.81293e-06
-0.000145264 0.00161925 3.89071e-07
-4.81293e-06 3.89071e-07 0.00161131
0.00294349 -0.000136235 5.72208e-05
-0.000136235 0.00137485 1.90825e-06
5.72208e-05 1.90825e-06 0.00137014
0.00183853 0.000129046 -3.92907e-06
0.000129046 1.66551e-05 9.85571e-07
-3.92907e-06 9.85571e-07 -5.48541e-05
0.00182995 0.000122642 6.502e-07
0.000122642 -3.07493e-06 -4.24296e-07
6.502e-07 -4.24296e-07 -6.93873e-05
0.00251884 3.52125e-05 -4.67071e-05
3.52125e-05 0.000489492 -7.2848e-06
-4.67071e-05 -7.2848e-06 0.000478273
0.00198307 0.000197377 1.62214e-07
0.000197377 0.000168006 1.37759e-06
1.62214e-07 1.37759e-06 5.94425e-05
0.00170079 0.000271465 -6.57571e-07
0.000271465 6.7301e-05 1.32941e-07
-6.57571e-07 1.32941e-07 -7.58033e-05
0.00156818 0.00030703 -2.29899e-07
0.00030703 0.000116615 -3.4785e-06
-2.29899e-07 -3.4785e-06 -5.39379e-05
0.0019002 0.000272773 5.36754e-07
0.000272773 0.000257416 -2.53422e-06
5.36754e-07 -2.53422e-06 9.7413e-05
0.00195479 0.000212293 -5.72745e-07
0.000212293 0.00012548 -2.20459e-07
-5.72745e-07 -2.20459e-07 2.62318e-05
0.00159156 0.000312282 2.36695e-06
0.000312282 -5.81814e-06 -4.30001e-07
2.36695e-06 -4.30001e-07 -0.000158674
0.00181119 0.00022446 1.26682e-05
0.00022446 5.27113e-05 -2.55521e-08
1.26682e-05 -2.55521e-08 -4.88538e-05
0.00191236 2.86032e-05 -5.04781e-07
2.86032e-05 8.52738e-05 6.45777e-07
-5.04781e-07 6.45777e-07 2.18752e-05
0.00192989 3.88399e-05 1.04369e-07
3.88399e-05 5.70625e-05 2.92753e-08
1.04369e-07 2.92753e-08 7.54046e-06
0.00202613 5.23368e-05 -5.93774e-06
5.23368e-05 0.00010649 -2.0071e-06
-5.93774e-06 -2.0071e-06 6.00636e-05
0.00161326 -1.58567e-05 -1.50704e-06
-1.58567e-05 -3.50717e-05 1.45837e-07
-1.50704e-06 1.45837e-07 -0.000109786
0.00194579 -7.0339e-05 5.07687e-06
-7.0339e-05 5.7483e-06 2.91205e-08
5.07687e-06 2.91205e-08 -1.47974e-05
0.00187905 -4.76935e-05 -1.11835e-06
-4.76935e-05 7.65032e-05 5.92785e-07
-1.11835e-06 5.92785e-07 1.64015e-05
0.0020057 -5.36113e-05 4.73886e-07
-5.36113e-05 0.00022037 -7.7552e-07
4.73886e-07 -7.7552e-07 0.000130567
0.0017515 -0.000127099 1.48722e-06
-0.000127099 1.12679e-05 -6.64942e-08
1.48722e-06 -6.64942e-08 -5.79793e-05
0.00180685 -0.000105798 1.96513e-06
-0.000105798 0.000107377 -6.19042e-07
1.96513e-06 -6.19042e-07 6.33815e-06
0.00169704 -9.42608e-05 6.24616e-07
-9.42608e-05 0.000113885 -8.86139e-07
6.24616e-07 -8.86139e-07 -1.11739e-05
0.00179637 -0.000147017 -1.33521e-06
-0.000147017 0.000125843 2.61062e-07
-1.33521e-06 2.61062e-07 1.56885e-05
0.00164313 -0.000127305 -1.67648e-07
-0.000127305 0.000117887 -6.5065e-08
-1.67648e-07 -6.5065e-08 -1.4649e-05
0.00137722 -9.73742e-05 -4.51049e-06
-9.73742e-05 7.78675e-05 9.83179e-07
-4.51049e-06 9.83179e-07 -6.1728e-05
0.00158599 -0.000152697 4.36562e-07
-0.000152697 0.000119367 3.80267e-07
4.36562e-07 3.80267e-07 -2.10259e-05
0.00134647 -0.000120412 -1.29227e-07
-0.000120412 7.83568e-05 1.04806e-07
-1.29227e-07 1.04806e-07 -6.48363e-05
0.00105753 -9.44211e-05 -1.2097e-05
-9.44211e-05 1.1087e-05 3.61431e-06
-1.2097e-05 3.61431e-06 -0.000112324
0.00134528 -0.000140521 5.45948e-06
-0.000140521 9.24856e-05 -1.49521e-06
5.45948e-06 -1.49521e-06 -5.37052e-05
0.00105122 -0.000108888 1.00592e-07
-0.000108888 1.58098e-05 1.59279e-07
1.00592e-07 1.59279e-07 -0.000107828
0.0024119 -0.000106674 -3.59189e-05
-0.000106674 0.00095353 6.04505e-06
-3.59189e-05 6.04505e-06 0.000893135
0.00102579 -0.000122184 1.23039e-05
-0.000122184 1.10223e-05 -4.89157e-06
1.23039e-05 -4.89157e-06 -0.000113741
0.00247211 -0.000127264 3.05778e-05
-0.000127264 0.000993169 -3.31467e-06
3.05778e-05 -3.31467e-06 0.000934104
0.00171874 -6.2142e-05 -0.000155786
-6.2142e-05 0.000639103 1.73221e-05
-0.000155786 1.73221e-05 0.000620284
0.00261292 -0.000151354 9.86296e-05
-0.000151354 0.00107908 -1.4585e-05
9.86296e-05 -1.4585e-05 0.00101936
0.00148829 -4.10282e-06 -7.4865e-05
-4.10282e-06 0.00051872 7.11478e-06
-7.4865e-05 7.11478e-06 0.000489762
0.00505391 0.000244904 7.27481e-06
0.000244904 0.00261704 -3.53336e-06
7.27481e-06 -3.53336e-06 0.002577
0.00177541 0.000186875 8.83967e-07
0.000186875 0.000103667 9.01622e-07
8.83967e-07 9.01622e-07 -2.41389e-05
0.00174815 0.000203748 -6.18025e-07
0.000203748 0.000196675 -2.4403e-07
-6.18025e-07 -2.4403e-07 5.12304e-05
0.00183914 0.000231862 -2.76665e-06
0.000231862 0.000153501 4.08083e-08
-2.76665e-06 4.08083e-08 1.54458e-05
0.00173423 0.000196094 -4.26942e-06
0.000196094 0.000330133 -5.46806e-07
-4.26942e-06 -5.46806e-07 0.000179701
0.00151945 0.000212803 8.46979e-07
0.000212803 0.000107111 -8.58719e-07
8.46979e-07 -8.58719e-07 -4.78393e-05
0.00176915 0.000240149 -5.49942e-07
0.000240149 0.000146984 -2.70483e-06
-5.49942e-07 -2.70483e-06 5.4622e-06
0.000946876 0.000150655 -1.18807e-05
0.000150655 -1.53299e-05 -4.16103e-06
-1.18807e-05 -4.16103e-06 -0.000150014
0.00125893 0.000194794 3.07395e-08
0.000194794 7.69859e-05 2.31887e-07
3.07395e-08 2.31887e-07 -8.41122e-05
0.00160355 0.00024167 3.0445e-06
0.00024167 0.000186656 -1.02358e-06
3.0445e-06 -1.02358e-06 1.34188e-05
0.00121262 0.00020789 7.31337e-06
0.00020789 9.84024e-05 1.12557e-06
7.31337e-06 1.12557e-06 -7.50475e-05
0.000928172 0.000156181 -7.65912e-07
0.000156181 2.33102e-05 3.17068e-07
-7.65912e-07 3.17068e-07 -0.000119507
0.000646695 0.000175263 -2.2068e-05
0.000175263 -2.7953e-05 -1.1675e-05
-2.2068e-05 -1.1675e-05 -0.00011291
0.000792038 0.000137988 5.82905e-06
0.000137988 2.24409e-05 5.45988e-06
5.82905e-06 5.45988e-06 -0.000118727
0.000611783 0.000122834 -2.17899e-07
0.000122834 -2.31029e-05 2.50507e-07
-2.17899e-07 2.50507e-07 -9.91462e-05
0.00486461 -0.000107227 -0.000150272
-0.000107227 0.00250705 -1.27061e-05
-0.000150272 -1.27061e-05 0.00248763
0.00041922 3.30983e-05 7.76249e-06
3.30983e-05 -0.000114734 9.75891e-06
7.76249e-06 9.75891e-06 -0.000171166
0.00389358 -0.000156934 -8.89171e-06
-0.000156934 0.00194018 6.95289e-07
-8.89171e-06 6.95289e-07 0.00192612
0.00323419 -0.000154187 6.72465e-05
-0.000154187 0.00155035 1.62916e-06
6.72465e-05 1.62916e-06 0.00154041
0.00177627 0.000106452 -2.80686e-07
0.000106452 1.6937e-05 1.57845e-06
-2.80686e-07 1.57845e-06 -6.49847e-05
0.00179013 0.000130345 -4.35661e-07
0.000130345 -1.47447e-05 2.25924e-07
-4.35661e-07 2.25924e-07 -8.6304e-05
0.00188989 0.000125949 4.34259e-06
0.000125949 2.67683e-05 -4.84688e-07
4.34259e-06 -4.84688e-07 -4.0187e-05
0.00193188 0.000193581 8.7828e-07
0.000193581 0.000142029 -1.14767e-07
8.7828e-07 -1.14767e-07 3.52655e-05
0.00169468 0.000265771 5.65523e-07
0.000265771 7.47846e-05 -1.42255e-06
5.65523e-07 -1.42255e-06 -6.76498e-05
0.00174087 0.000202176 3.56983e-06
0.000202176 3.16555e-06 -1.32417e-06
3.56983e-06 -1.32417e-06 -9.6914e-05
0.0018883 2.89745e-05 -3.29581e-07
2.89745e-05 0.000121527 3.74523e-07
-3.29581e-07 3.74523e-07 4.47663e-05
0.00189424 2.91384e-05 9.02079e-07
2.91384e-05 7.73541e-05 -2.15901e-07
9.02079e-07 -2.15901e-07 1.35646e-05
0.00185498 3.85707e-05 5.61122e-06
3.85707e-05 2.08594e-05 2.04756e-07
5.61122e-06 2.04756e-07 -2.97331e-05
0.00172522 -2.25342e-05 -1.94646e-06
-2.25342e-05 3.0603e-05 7.35114e-09
-1.94646e-06 7.35114e-09 -4.33876e-05
0.00169806 -2.79376e-05 6.72703e-07
-2.79376e-05 5.40734e-05 -5.56283e-07
6.72703e-07 -5.56283e-07 -3.84923e-05
0.00180564 -4.90714e-05 7.25721e-07
-4.90714e-05 3.08672e-05 9.78067e-07
7.25721e-07 9.78067e-07 -2.98389e-05
0.00183956 -5.29151e-05 -8.92907e-07
-5.29151e-05 0.000125952 4.15425e-07
-8.92907e-07 4.15425e-07 3.23719e-05
0.00175184 -5.06599e-05 1.39683e-07
-5.06599e-05 0.000131238 -6.57267e-07
1.39683e-07 -6.57267e-07 1.61338e-05
0.00179569 -0.000106024 9.57017e-07
-0.000106024 0.00010079 7.68882e-08
9.57017e-07 7.68882e-08 -1.33986e-07
0.00167486 -9.52833e-05 7.30971e-07
-9.52833e-05 0.000104543 -4.33484e-07
7.30971e-07 -4.33484e-07 -2.06037e-05
0.00140655 -6.57617e-05 -4.46053e-06
-6.57617e-05 7.05061e-05 4.90928e-07
-4.46053e-06 4.90928e-07 -6.45986e-05
0.00162096 -0.000126805 -3.14612e-08
-0.000126805 0.000106953 1.88539e-07
-3.14612e-08 1.88539e-07 -2.54888e-05
0.00137164 -9.67219e-05 -2.80015e-08
-9.67219e-05 7.09118e-05 7.89932e-08
-2.80015e-08 7.89932e-08 -6.85209e-05
0.00105612 -7.37287e-05 -1.18945e-05
-7.37287e-05 -7.02504e-07 2.96558e-06
-1.18945e-05 2.96558e-06 -0.000122756
0.00134795 -0.000120047 4.6478e-06
-0.000120047 7.67628e-05 -1.10699e-06
4.6478e-06 -1.10699e-06 -6.61783e-05
0.00105647 -9.17196e-05 -3.11781e-08
-9.17196e-05 9.68627e-06 1.53169e-07
-3.11781e-08 1.53169e-07 -0.000113108
0.00240167 -0.000122687 -3.93866e-05
-0.000122687 0.000944406 5.52636e-06
-3.93866e-05 5.52636e-06 0.000882192
0.0010475 -0.000106385 1.2342e-05
-0.000106385 1.25044e-05 -4.13213e-06
1.2342e-05 -4.13213e-06 -0.000110459
0.00247464 -0.000118415 2.95256e-05
-0.000118415 0.000986932 -2.55676e-06
2.95256e-05 -2.55676e-06 0.000929536
0.00175927 -5.39168e-05 -0.000155866
-5.39168e-05 0.000656793 1.49533e-05
-0.000155866 1.49533e-05 0.000638217
0.00257644 -0.00013181 9.74747e-05
-0.00013181 0.00104929 -1.28426e-05
9.74747e-05 -1.28426e-05 0.000994167
0.00148892 -1.95315e-05 -6.77557e-05
-1.95315e-05 0.000511889 6.65583e-06
-6.77557e-05 6.65583e-06 0.000486741
0.00135756 1.13443e-05 2.29874e-05
1.13443e-05 0.000445166 -4.34437e-06
2.29874e-05 -4.34437e-06 0.000412019
0.00189498 0.000111482 3.24363e-07
0.000111482 0.000145806 2.06827e-06
3.24363e-07 2.06827e-06 4.42862e-05
0.00167249 0.000167043 -1.20448e-06
0.000167043 0.000120096 4.34323e-07
-1.20448e-06 4.34323e-07 -1.8469e-05
0.00179335 0.000187679 -8.76058e-07
0.000187679 0.000108239 -9.48453e-08
-8.76058e-07 -9.48453e-08 -1.6883e-05
0.00165871 0.00017102 -4.0584e-06
0.00017102 0.000252711 -6.08191e-07
-4.0584e-06 -6.08191e-07 0.000108902
0.0017173 0.000200341 8.88434e-07
0.000200341 0.000182619 1.83804e-07
8.88434e-07 1.83804e-07 3.64659e-05
0.00171835 0.000227524 1.1856e-06
0.000227524 8.3468e-05 -3.17776e-07
1.1856e-06 -3.17776e-07 -5.60485e-05
0.00103686 0.00014016 -1.25745e-05
0.00014016 1.52974e-05 -4.3028e-06
-1.25745e-05 -4.3028e-06 -0.000112573
0.0014483 0.00018514 3.29106e-06
0.00018514 0.000164472 7.75157e-07
3.29106e-06 7.75157e-07 1.32041e-05
0.00145373 0.000214768 1.91001e-06
0.000214768 6.60008e-05 -1.92782e-06
1.91001e-06 -1.92782e-06 -8.8179e-05
0.000575571 0.000163654 -2.18725e-05
0.000163654 -8.53352e-05 -1.03208e-05
-2.18725e-05 -1.03208e-05 -0.000167069
0.000985382 0.000153168 -5.21504e-07
0.000153168 6.58342e-06 3.48737e-08
-5.21504e-07 3.48737e-08 -0.000128276
0.00117878 0.00018997 7.44787e-06
0.00018997 3.15303e-05 1.48874e-06
7.44787e-06 1.48874e-06 -0.000129073
0.000981886 0.0001591 9.94572e-06
0.0001591 5.29545e-05 4.96416e-06
9.94572e-06 4.96416e-06 -9.01981e-05
0.000598193 0.000163208 1.64527e-06
0.000163208 -5.43103e-05 4.58835e-07
1.64527e-06 4.58835e-07 -0.000138241
0.00536891 -8.99313e-05 -0.000153727
-8.99313e-05 0.00280546 -1.7331e-05
-0.000153727 -1.7331e-05 0.00277702
0.000455128 0.000110682 1.37781e-05
0.000110682 -0.000110877 1.16021e-05
1.37781e-05 1.16021e-05 -0.00018327
0.00459099 -0.000149078 -1.01279e-05
-0.000149078 0.00234937 7.33959e-07
-1.01279e-05 7.33959e-07 0.00233012
0.00369348 -0.00017581 8.34617e-05
-0.00017581 0.00182689 2.21508e-06
8.34617e-05 2.21508e-06 0.00180977
0.00176456 7.78669e-05 -3.35241e-07
7.78669e-05 5.30678e-05 3.63533e-07
-3.35241e-07 3.63533e-07 -3.07415e-05
0.0017797 0.000105773 6.6204e-07
0.000105773 2.38477e-05 5.62108e-07
6.6204e-07 5.62108e-07 -5.80769e-05
0.00176809 0.000131621 5.60854e-06
0.000131621 -3.16825e-05 -2.31513e-07
5.60854e-06 -2.31513e-07 -0.000103157
0.00188342 0.000189662 1.05872e-06
0.000189662 0.000117091 -1.19851e-06
1.05872e-06 -1.19851e-06 1.21908e-05
0.00173925 -7.58953e-06 1.55804e-06
-7.58953e-06 7.37007e-05 1.00848e-07
1.55804e-06 1.00848e-07 -2.10818e-05
0.00192231 2.3568e-05 -2.4955e-07
2.3568e-05 0.000138449 -2.47236e-07
-2.4955e-07 -2.47236e-07 6.23186e-05
0.00187052 2.89857e-05 2.22529e-06
2.89857e-05 6.66536e-05 -1.50333e-07
2.22529e-06 -1.50333e-07 2.53686e-06
0.00183686 -2.68893e-05 -3.65699e-06
-2.68893e-05 9.59248e-05 -1.06764e-06
-3.65699e-06 -1.06764e-06 2.26893e-05
0.00166531 -2.06704e-05 -1.47337e-06
-2.06704e-05 3.53701e-05 -2.26019e-08
-1.47337e-06 -2.26019e-08 -5.59413e-05
0.00176801 -1.95185e-05 1.84769e-06
-1.95185e-05 0.000154774 -5.29926e-07
1.84769e-06 -5.29926e-07 4.33956e-05
0.00167463 -5.22086e-05 -2.09018e-06
-5.22086e-05 3.15527e-05 1.52716e-06
-2.09018e-06 1.52716e-06 -6.58093e-05
0.00170406 -5.15514e-05 1.69105e-07
-5.15514e-05 0.000107099 2.86021e-07
1.69105e-07 2.86021e-07 -1.09031e-05
0.00143497 -3.38674e-05 -3.96182e-06
-3.38674e-05 6.62077e-05 1.41736e-07
-3.96182e-06 1.41736e-07 -6.24591e-05
0.00166778 -9.49617e-05 9.14025e-07
-9.49617e-05 0.000103648 -1.45514e-08
9.14025e-07 -1.45514e-08 -2.13878e-05
0.00139752 -6.39449e-05 -2.58206e-08
-6.39449e-05 6.14804e-05 -2.68927e-08
-2.58206e-08 -2.68927e-08 -7.33544e-05
0.00105663 -4.9071e-05 -1.19285e-05
-4.9071e-05 -1.05166e-05 2.26896e-06
-1.19285e-05 2.26896e-06 -0.000131006
0.00136336 -9.40255e-05 4.15507e-06
-9.40255e-05 6.2499e-05 -8.101e-07
4.15507e-06 -8.101e-07 -7.65671e-05
0.00105752 -7.26499e-05 1.25371e-08
-7.26499e-05 -1.94486e-07 1.83474e-07
1.25371e-08 1.83474e-07 -0.000121988
0.000631504 -6.69631e-05 -1.82137e-05
-6.69631e-05 -9.58796e-05 4.35946e-06
-1.82137e-05 4.35946e-06 -0.000165017
0.00106437 -8.93611e-05 1.19864e-05
-8.93611e-05 1.31614e-05 -3.35261e-06
1.19864e-05 -3.35261e-06 -0.000109001
0.00156228 -7.70511e-05 3.95469e-05
-7.70511e-05 0.000449714 -2.4392e-06
3.95469e-05 -2.4392e-06 0.000388614
0.00525562 -0.000108221 -0.000191717
-0.000108221 0.00268373 1.1243e-05
-0.000191717 1.1243e-05 0.00268517
0.002558 -0.000107918 9.70789e-05
-0.000107918 0.00102851 -1.04712e-05
9.70789e-05 -1.04712e-05 0.000976078
0.00150323 -3.56575e-05 -6.10452e-05
-3.56575e-05 0.000514926 4.94472e-06
-6.10452e-05 4.94472e-06 0.000490544
0.00127223 -3.67774e-05 3.36695e-05
-3.67774e-05 0.000393379 -4.66993e-06
3.36695e-05 -4.66993e-06 0.000362037
0.00190234 8.07145e-05 1.01957e-06
8.07145e-05 0.000164409 1.27104e-06
1.01957e-06 1.27104e-06 7.02711e-05
0.0017738 0.000112896 2.64816e-07
0.000112896 0.000159898 1.5673e-06
2.64816e-07 1.5673e-06 3.63765e-05
0.00192419 0.000108909 3.76797e-07
0.000108909 0.000168742 7.94826e-09
3.76797e-07 7.94826e-09 6.62925e-05
0.00135068 0.000131782 -4.83177e-06
0.000131782 4.00584e-05 -5.69051e-07
-4.83177e-06 -5.69051e-07 -9.99539e-05
0.00172031 0.000166248 1.33175e-07
0.000166248 0.000146956 -8.17388e-09
1.33175e-07 -8.17388e-09 9.46629e-06
0.0018141 0.000188869 -5.27638e-07
0.000188869 0.000113785 -9.65033e-07
-5.27638e-07 -9.65033e-07 -8.72696e-06
0.000669502 0.00010325 -1.43766e-05
0.00010325 -0.000212758 -4.27486e-06
-1.43766e-05 -4.27486e-06 -0.000338239
0.00168463 0.00017334 1.94279e-06
0.00017334 0.00026765 5.43244e-07
1.94279e-06 5.43244e-07 0.000123694
0.00168296 0.000196901 1.76628e-06
0.000196901 0.000166554 -1.39006e-07
1.76628e-06 -1.39006e-07 1.96559e-05
0.000554201 0.000123291 -1.89059e-05
0.000123291 -0.000109568 -8.44157e-06
-1.89059e-05 -8.44157e-06 -0.000185776
0.000816255 0.000129977 5.46311e-07
0.000129977 -0.000112013 1.16886e-07
5.46311e-07 1.16886e-07 -0.000240732
0.00115615 0.000173821 9.2692e-06
0.000173821 -5.09739e-06 1.67206e-06
9.2692e-06 1.67206e-06 -0.000157141
0.00545325 -5.36888e-06 -0.00016607
-5.36888e-06 0.00282425 -1.58794e-05
-0.00016607 -1.58794e-05 0.00281137
0.000558407 0.000150478 1.47458e-06
0.000150478 -9.33662e-05 5.31808e-07
1.47458e-06 5.31808e-07 -0.000176299
0.00101544 0.000155374 1.19869e-05
0.000155374 2.37354e-05 4.28471e-06
1.19869e-05 4.28471e-06 -0.000111292
0.000497457 0.000151856 1.91506e-05
0.000151856 -0.000108516 1.1939e-05
1.91506e-05 1.1939e-05 -0.000192413
0.00516619 -8.76292e-05 3.821e-06
-8.76292e-05 0.00267281 -9.46235e-07
3.821e-06 -9.46235e-07 0.00265553
0.00430608 -0.000199504 0.000100019
-0.000199504 0.00219662 5.25274e-06
0.000100019 5.25274e-06 0.0021693
0.00180034 4.98721e-05 -8.73229e-07
4.98721e-05 0.000101136 -4.63414e-07
-8.73229e-07 -4.63414e-07 6.20034e-06
0.00178938 7.71508e-05 -2.01552e-07
7.71508e-05 6.38621e-05 4.50707e-07
-2.01552e-07 4.50707e-07 -1.98189e-05
0.00178301 0.000105297 1.92437e-06
0.000105297 3.08973e-05 -4.01317e-07
1.92437e-06 -4.01317e-07 -5.10575e-05
0.00166359 1.97914e-06 2.00203e-06
1.97914e-06 8.55258e-05 -4.15449e-07
2.00203e-06 -4.15449e-07 -2.71321e-05
0.00171614 -5.61178e-06 2.37974e-07
-5.61178e-06 6.49187e-05 1.28595e-07
2.37974e-07 1.28595e-07 -2.85841e-05
0.00195747 1.66929e-05 -1.00958e-06
1.66929e-05 0.000156114 -6.60474e-08
-1.00958e-06 -6.60474e-08 8.05715e-05
0.00162721 -1.46573e-05 -2.50914e-06
-1.46573e-05 1.34723e-05 7.13601e-07
-2.50914e-06 7.13601e-07 -7.65928e-05
0.00174969 -1.48088e-05 1.09553e-06
-1.48088e-05 0.000143143 -2.47435e-07
1.09553e-06 -2.47435e-07 3.19118e-05
0.00172927 -1.22118e-05 -1.73617e-06
-1.22118e-05 0.000232678 -2.04769e-07
-1.73617e-06 -2.04769e-07 0.000110117
0.00165533 -5.25005e-05 -1.20305e-07
-5.25005e-05 8.28285e-05 8.98161e-07
-1.20305e-07 8.98161e-07 -3.80808e-05
0.00156648 -3.40781e-05 7.11216e-09
-3.40781e-05 0.000141464 7.14511e-08
7.11216e-09 7.14511e-08 1.28161e-05
0.000778961 -2.22835e-05 -1.37031e-05
-2.22835e-05 -0.000177252 1.6129e-06
-1.37031e-05 1.6129e-06 -0.000298289
0.00139444 -6.43546e-05 4.08422e-06
-6.43546e-05 5.57936e-05 -5.50142e-07
4.08422e-06 -5.50142e-07 -7.8969e-05
0.00105092 -4.59433e-05 1.47832e-08
-4.59433e-05 -1.42612e-05 1.42724e-07
1.47832e-08 1.42724e-07 -0.000134388
0.000636937 -2.0362e-05 -1.76158e-05
-2.0362e-05 -9.90239e-05 2.87704e-06
-1.76158e-05 2.87704e-06 -0.000168086
0.00105951 -7.05478e-05 1.19189e-05
-7.05478e-05 5.69376e-07 -2.59846e-06
1.19189e-05 -2.59846e-06 -0.000120847
0.000643052 -5.19333e-05 -1.89363e-07
-5.19333e-05 -8.83395e-05 3.05037e-07
-1.89363e-07 3.05037e-07 -0.000158394
0.0053057 -2.47233e-06 -0.000182979
-2.47233e-06 0.00270863 7.02248e-06
-0.000182979 7.02248e-06 0.00271204
0.000675759 -6.07697e-05 1.6217e-05
-6.07697e-05 -6.63397e-05 -6.19503e-06
1.6217e-05 -6.19503e-06 -0.000136926
0.0033442 -7.0813e-05 8.87475e-05
-7.0813e-05 0.00158006 -2.54986e-06
8.87475e-05 -2.54986e-06 0.00156349
0.00121118 -6.16785e-05 3.89983e-05
-6.16785e-05 0.000359839 -5.13005e-06
3.89983e-05 -5.13005e-06 0.000325657
0.00181133 7.42074e-05 8.23858e-08
7.42074e-05 0.000131786 1.95587e-07
8.23858e-08 1.95587e-07 3.22126e-05
0.00163442 6.55417e-05 1.5544e-06
6.55417e-05 7.84051e-05 1.7444e-06
1.5544e-06 1.7444e-06 -3.83711e-05
0.00188899 7.80126e-05 -2.24891e-07
7.80126e-05 0.000156955 -2.2908e-07
-2.24891e-07 -2.2908e-07 6.32442e-05
0.00141987 9.38606e-05 -3.70281e-06
9.38606e-05 6.64925e-05 -1.02709e-07
-3.70281e-06 -1.02709e-07 -6.7514e-05
0.00172467 0.000111217 4.99942e-07
0.000111217 0.000128856 1.44877e-07
4.99942e-07 1.44877e-07 4.08981e-06
0.00195457 0.000106148 -8.8625e-07
0.000106148 0.000192464 -1.83795e-06
-8.8625e-07 -1.83795e-06 8.91149e-05
0.000681204 8.25841e-05 -1.38912e-05
8.25841e-05 -0.000221414 -3.2012e-06
-1.38912e-05 -3.2012e-06 -0.000344423
0.00154308 0.000137265 -7.66402e-07
0.000137265 0.000153255 -2.38277e-09
-7.66402e-07 -2.38277e-09 1.38103e-05
0.00177136 0.000165462 1.32044e-06
0.000165462 0.000175839 -6.30022e-07
1.32044e-06 -6.30022e-07 3.94472e-05
0.00057179 8.81394e-05 -1.74042e-05
8.81394e-05 -0.000115206 -6.47289e-06
-1.74042e-05 -6.47289e-06 -0.000186612
0.000648469 0.000103034 -2.81606e-06
0.000103034 -0.000224644 -5.83923e-07
-2.81606e-06 -5.83923e-07 -0.000350633
0.00171316 0.000175887 8.0825e-06
0.000175887 0.000284111 1.78497e-06
8.0825e-06 1.78497e-06 0.000139979
0.00539248 7.8674e-05 -0.000183553
7.8674e-05 0.00276822 -1.45132e-05
-0.000183553 -1.45132e-05 0.00276666
0.000552005 0.000116319 6.22486e-07
0.000116319 -0.000110669 3.01269e-07
6.22486e-07 3.01269e-07 -0.000187454
0.000596965 0.000120092 1.24194e-05
0.000120092 -0.00023864 4.04845e-06
1.24194e-05 4.04845e-06 -0.00036825
0.0053662 8.59845e-06 1.21233e-05
8.59845e-06 0.00277218 1.7109e-07
1.21233e-05 1.7109e-07 0.00276165
0.000523412 0.000136991 1.86656e-05
0.000136991 -0.000111441 1.03705e-05
1.86656e-05 1.03705e-05 -0.000195501
0.0049637 -0.000132902 0.000135869
-0.000132902 0.00255508 7.92113e-06
0.000135869 7.92113e-06 0.00253865
0.00177134 3.53801e-05 3.53294e-07
3.53801e-05 0.000138894 -3.81243e-07
3.53294e-07 -3.81243e-07 2.87268e-05
0.00175592 4.77893e-05 -8.37068e-07
4.77893e-05 8.11772e-05 1.9822e-07
-8.37068e-07 1.9822e-07 -1.47382e-05
0.00181503 7.61792e-05 3.00805e-07
7.61792e-05 7.51977e-05 -4.75854e-08
3.00805e-07 -4.75854e-08 -8.3529e-06
0.00169759 -3.59306e-06 -1.29315e-06
-3.59306e-06 0.000220017 -3.50095e-07
-1.29315e-06 -3.50095e-07 0.000100142
0.00169438 2.65904e-07 4.59195e-07
2.65904e-07 0.000102652 6.64865e-08
4.59195e-07 6.64865e-08 -8.49138e-06
0.00170344 -1.99222e-06 5.79922e-07
-1.99222e-06 6.1776e-05 -2.29623e-08
5.79922e-07 -2.29623e-08 -3.04331e-05
0.00173215 -1.04791e-05 9.66547e-08
-1.04791e-05 0.000131983 5.34338e-07
9.66547e-08 5.34338e-07 2.08743e-05
0.00173 -1.15322e-05 2.30326e-06
-1.15322e-05 0.000232703 -2.30192e-07
2.30326e-06 -2.30192e-07 0.00011013
0.000786016 -8.2555e-06 -1.30042e-05
-8.2555e-06 -0.000175222 6.396e-07
-1.30042e-05 6.396e-07 -0.000294053
0.00169927 -3.4397e-05 4.72836e-06
-3.4397e-05 0.000217436 -2.05392e-07
4.72836e-06 -2.05392e-07 8.88026e-05
0.000914708 -2.12484e-05 -2.49359e-06
-2.12484e-05 -9.92001e-05 2.89849e-07
-2.49359e-06 2.89849e-07 -0.000219097
0.000644955 -5.77245e-06 -1.79487e-05
-5.77245e-06 -0.000100721 1.89638e-06
-1.79487e-05 1.89638e-06 -0.00016921
0.00105204 -4.41169e-05 1.16309e-05
-4.41169e-05 -1.41239e-05 -1.96818e-06
1.16309e-05 -1.96818e-06 -0.000133985
0.00062911 -2.58375e-05 5.98019e-07
-2.58375e-05 -0.000104896 -1.68521e-09
5.98019e-07 -1.68521e-09 -0.000173122
0.00532528 -9.71796e-05 -0.000194127
-9.71796e-05 0.00272478 6.70408e-06
-0.000194127 6.70408e-06 0.00272576
0.000632429 -3.66935e-05 1.68306e-05
-3.66935e-05 -9.53769e-05 -3.43581e-06
1.68306e-05 -3.43581e-06 -0.000164951
0.00530381 -3.70311e-05 8.09127e-06
-3.70311e-05 0.0027084 4.63615e-08
8.09127e-06 4.63615e-08 0.00271167
0.00152543 -1.30386e-05 0.000162128
-1.30386e-05 0.000520756 -8.11508e-06
0.000162128 -8.11508e-06 0.000505857
0.00165603 5.1445e-05 1.44475e-06
5.1445e-05 9.1365e-05 3.80662e-07
1.44475e-06 3.80662e-07 -2.30002e-05
0.00178523 7.83384e-05 -2.2241e-06
7.83384e-05 0.000110322 -3.14418e-07
-2.2241e-06 -3.14418e-07 1.23937e-05
0.00143831 5.49783e-05 -3.11367e-06
5.49783e-05 7.71749e-05 1.53155e-07
-3.11367e-06 1.53155e-07 -5.05287e-05
0.00163661 6.44407e-05 4.93134e-07
6.44407e-05 8.07219e-05 1.49912e-08
4.93134e-07 1.49912e-08 -3.60699e-05
0.00187303 7.54058e-05 -1.26767e-06
7.54058e-05 0.000147742 -2.14383e-06
-1.26767e-06 -2.14383e-06 5.44587e-05
0.0010659 6.76954e-05 -1.18405e-05
6.76954e-05 -8.89126e-06 -2.00923e-06
-1.18405e-05 -2.00923e-06 -0.000126457
0.00140068 9.33116e-05 6.62223e-08
9.33116e-05 5.64586e-05 1.33037e-07
6.62223e-08 1.33037e-07 -7.76892e-05
0.00167306 0.000109511 5.13978e-08
0.000109511 9.64286e-05 -9.77125e-07
5.13978e-08 -9.77125e-07 -2.95941e-05
0.000597702 6.19275e-05 -1.69517e-05
6.19275e-05 -0.000114967 -4.68336e-06
-1.69517e-05 -4.68336e-06 -0.000184139
0.000848797 8.96117e-05 -3.23856e-06
8.96117e-05 -0.000124622 -4.10228e-07
-3.23856e-06 -4.10228e-07 -0.000247198
0.0017426 0.000142938 5.11149e-06
0.000142938 0.000270495 9.80306e-07
5.11149e-06 9.80306e-07 0.000131615
0.00537846 0.000133832 -0.00020279
0.000133832 0.00275509 -1.40213e-05
-0.00020279 -1.40213e-05 0.00275513
0.000578497 8.59134e-05 7.91675e-08
8.59134e-05 -0.000111601 1.07873e-07
7.91675e-08 1.07873e-07 -0.000183113
0.000623369 0.000102758 8.6161e-06
0.000102758 -0.000239014 2.97643e-06
8.6161e-06 2.97643e-06 -0.000365479
0.00533358 9.73043e-05 1.03141e-05
9.73043e-05 0.00274091 1.85807e-06
1.03141e-05 1.85807e-06 0.0027365
0.000554969 0.000108081 1.74222e-05
0.000108081 -0.000109378 8.25038e-06
1.74222e-05 8.25038e-06 -0.000186319
0.00529907 4.02278e-06 0.000173332
4.02278e-06 0.00272157 1.16636e-05
0.000173332 1.16636e-05 0.00271923
0.00170769 2.46886e-05 -1.21784e-06
2.46886e-05 0.000229113 -1.80882e-07
-1.21784e-06 -1.80882e-07 0.000110387
0.00173911 3.0901e-05 -6.51411e-07
3.0901e-05 0.00012322 1.31069e-07
-6.51411e-07 1.31069e-07 1.2163e-05
0.00171512 4.5496e-05 -1.25016e-06
4.5496e-05 6.39224e-05 2.42677e-07
-1.25016e-06 2.42677e-07 -3.2933e-05
0.00076445 -9.46912e-06 -1.34146e-05
-9.46912e-06 -0.000183045 -3.51123e-07
-1.34146e-05 -3.51123e-07 -0.000299401
0.00172007 2.62954e-06 2.51396e-06
2.62954e-06 0.000232919 -8.4764e-08
2.51396e-06 -8.4764e-08 0.000113056
0.00171926 -1.53218e-06 -5.58694e-08
-1.53218e-06 0.000116598 3.1753e-07
-5.58694e-08 3.1753e-07 6.98066e-06
0.00173188 -1.12291e-05 6.19742e-06
-1.12291e-05 0.000233415 -1.95496e-08
6.19742e-06 -1.95496e-08 0.000110826
0.000769249 -8.04022e-06 -1.91838e-06
-8.04022e-06 -0.000185452 1.44093e-07
-1.91838e-06 1.44093e-07 -0.000304555
0.000652028 -2.20564e-05 -1.80711e-05
-2.20564e-05 -9.89545e-05 7.16253e-07
-1.80711e-05 7.16253e-07 -0.000166617
0.00104172 -1.94767e-05 9.45501e-06
-1.94767e-05 -2.61382e-05 -1.23375e-06
9.45501e-06 -1.23375e-06 -0.000144885
0.000630046 3.8357e-06 1.95336e-07
3.8357e-06 -0.000109426 6.73057e-08
1.95336e-07 6.73057e-08 -0.000177647
0.00539552 -7.63205e-05 -0.000202917
-7.63205e-05 0.00276238 4.52756e-06
-0.000202917 4.52756e-06 0.0027651
0.000634185 -2.36072e-05 1.75285e-05
-2.36072e-05 -0.000101397 -2.27838e-06
1.75285e-05 -2.27838e-06 -0.000170217
0.00536578 9.0832e-06 -2.96328e-06
9.0832e-06 0.00274082 1.07205e-06
-2.96328e-06 1.07205e-06 0.002746
0.00533136 -5.85798e-05 0.000194943
-5.85798e-05 0.00272173 -6.16442e-06
0.000194943 -6.16442e-06 0.0027266
0.00143495 3.5337e-05 -3.10555e-06
3.5337e-05 7.86948e-05 -1.02937e-07
-3.10555e-06 -1.02937e-07 -4.5959e-05
0.00167666 5.42983e-05 -5.00691e-07
5.42983e-05 0.000102152 -7.76354e-07
-5.00691e-07 -7.76354e-07 -9.68058e-06
0.0017574 8.26939e-05 -3.64061e-06
8.26939e-05 8.79456e-05 -3.25736e-07
-3.64061e-06 -3.25736e-07 -8.35264e-06
0.00106399 3.70895e-05 -1.16592e-05
3.70895e-05 -1.18169e-05 -1.44275e-06
-1.16592e-05 -1.44275e-06 -0.000126005
0.00140196 5.50099e-05 2.07815e-07
5.50099e-05 5.5298e-05 5.82134e-08
2.07815e-07 5.82134e-08 -7.27648e-05
0.00163791 6.3276e-05 -8.01958e-07
6.3276e-05 8.27839e-05 -1.64952e-06
-8.01958e-07 -1.64952e-06 -3.40207e-05
0.000621806 3.70354e-05 -1.65102e-05
3.70354e-05 -0.000108815 -3.45755e-06
-1.65102e-05 -3.45755e-06 -0.000176855
0.0010566 6.9381e-05 1.15778e-07
6.9381e-05 -1.38574e-05 2.26113e-07
1.15778e-07 2.26113e-07 -0.000131828
0.00138099 9.27301e-05 4.13736e-06
9.27301e-05 4.60719e-05 4.41769e-07
4.13736e-06 4.41769e-07 -8.82217e-05
0.00536496 0.000141312 -0.000215284
0.000141312 0.00274823 -1.2368e-05
-0.000215284 -1.2368e-05 0.00274772
0.000614382 6.3128e-05 2.66865e-07
6.3128e-05 -0.000105123 1.81753e-07
2.66865e-07 1.81753e-07 -0.000174517
0.00101206 9.65373e-05 8.7603e-06
9.65373e-05 -3.03737e-05 2.54341e-06
8.7603e-06 2.54341e-06 -0.000152475
0.00533231 0.000147066 5.4856e-06
0.000147066 0.00273551 2.0636e-06
5.4856e-06 2.0636e-06 0.00273276
0.000588378 8.42451e-05 1.66398e-05
8.42451e-05 -0.000105896 6.57342e-06
1.66398e-05 6.57342e-06 -0.000177439
0.00530763 0.000117813 0.000191299
0.000117813 0.00272314 1.5262e-05
0.000191299 1.5262e-05 0.00272115
0.00108147 1.11743e-05 -1.22973e-05
1.11743e-05 6.93219e-07 -7.75829e-07
-1.22973e-05 -7.75829e-07 -0.000111865
0.00155077 1.96589e-05 2.83885e-06
1.96589e-05 0.00013952 8.52155e-08
2.83885e-06 8.52155e-08 1.96014e-05
0.00170309 2.54937e-05 -1.38199e-06
2.54937e-05 0.000104913 2.42093e-07
-1.38199e-06 2.42093e-07 -7.04563e-06
0.00067232 2.63746e-05 -1.85339e-05
2.63746e-05 -9.26102e-05 -4.9583e-07
-1.85339e-05 -4.9583e-07 -0.000153992
0.000750667 -4.00409e-06 -2.14963e-06
-4.00409e-06 -0.000192202 -3.84744e-09
-2.14963e-06 -3.84744e-09 -0.000308803
0.00174339 8.90171e-06 6.38264e-06
8.90171e-06 0.000246276 1.97802e-07
6.38264e-06 1.97802e-07 0.000126415
0.00074731 -7.39885e-06 9.10895e-06
-7.39885e-06 -0.000198685 -3.40235e-07
9.10895e-06 -3.40235e-07 -0.00031805
0.000640045 -2.6021e-06 2.05565e-07
-2.6021e-06 -0.000105962 3.29868e-07
2.05565e-07 3.29868e-07 -0.000173388
0.00541812 4.93626e-05 -0.000210389
4.93626e-05 0.00277175 -8.57586e-07
-0.000210389 -8.57586e-07 0.00277691
0.000612254 1.32582e-05 1.71902e-05
1.32582e-05 -0.000120002 -1.17757e-06
1.71902e-05 -1.17757e-06 -0.000187791
0.00539991 -7.59468e-05 -7.88922e-06
-7.59468e-05 0.00276495 1.34514e-06
-7.88922e-06 1.34514e-06 0.00276738
0.00536053 3.1143e-05 0.000187707
3.1143e-05 0.00273824 -2.68802e-06
0.000187707 -2.68802e-06 0.00274277
0.00106808 1.953e-05 -1.21459e-05
1.953e-05 -8.30508e-06 -1.22119e-06
-1.21459e-05 -1.22119e-06 -0.000120806
0.00138461 3.46819e-05 1.85263e-09
3.46819e-05 4.83014e-05 -8.51139e-08
1.85263e-09 -8.51139e-08 -7.52911e-05
0.0017014 5.6986e-05 -2.36777e-06
5.6986e-05 0.000115201 -1.40214e-06
-2.36777e-06 -1.40214e-06 5.90219e-06
0.00258086 3.88232e-05 -0.000103535
3.88232e-05 0.00102081 -3.02884e-06
-0.000103535 -3.02884e-06 0.000973757
0.00106717 3.93319e-05 1.7432e-07
3.93319e-05 -1.03675e-05 1.87392e-07
1.7432e-07 1.87392e-07 -0.000124754
0.00136558 5.49233e-05 3.76184e-06
5.49233e-05 3.33531e-05 4.59143e-08
3.76184e-06 4.59143e-08 -9.50724e-05
0.00533695 0.000123876 -0.000218608
0.000123876 0.00273335 -9.56734e-06
-0.000218608 -9.56734e-06 0.00273325
0.000652271 4.96533e-05 6.39647e-07
4.96533e-05 -8.98206e-05 2.82211e-07
6.39647e-07 2.82211e-07 -0.000158955
0.00105798 7.1394e-05 1.18238e-05
7.1394e-05 -1.29375e-05 2.44397e-06
1.18238e-05 2.44397e-06 -0.000131293
0.00537647 0.000154397 1.16805e-06
0.000154397 0.00275843 1.61787e-06
1.16805e-06 1.61787e-06 0.00275642
0.000639434 6.55232e-05 1.7042e-05
6.55232e-05 -8.98162e-05 5.34878e-06
1.7042e-05 5.34878e-06 -0.000159731
0.00529538 0.000168612 0.000200938
0.000168612 0.00271964 1.658e-05
0.000200938 1.658e-05 0.00271448
0.000708737 8.10775e-06 -1.62732e-05
8.10775e-06 -6.14852e-05 -1.77122e-06
-1.62732e-05 -1.77122e-06 -0.000128636
0.00091098 8.89959e-06 6.32576e-07
8.89959e-06 -9.70659e-05 2.04117e-07
6.32576e-07 2.04117e-07 -0.000210944
0.00138821 1.44089e-05 6.03437e-06
1.44089e-05 4.67411e-05 2.36948e-07
6.03437e-06 2.36948e-07 -7.43488e-05
0.00531615 -9.23863e-05 -0.000194851
-9.23863e-05 0.00272878 -2.36541e-07
-0.000194851 -2.36541e-07 0.00272466
0.000638108 7.69067e-06 -3.57816e-07
7.69067e-06 -0.000107393 2.00823e-07
-3.57816e-07 2.00823e-07 -0.000171365
0.00074339 1.13959e-06 9.04901e-06
1.13959e-06 -0.00019767 2.0829e-07
9.04901e-06 2.0829e-07 -0.000314501
0.000610614 1.94799e-05 1.75251e-05
1.94799e-05 -0.000122759 2.06118e-07
1.75251e-05 2.06118e-07 -0.000189895
0.00538689 1.42029e-05 2.76748e-06
1.42029e-05 0.00275734 -3.87681e-07
2.76748e-06 -3.87681e-07 0.00275977
0.00542293 1.53553e-05 0.000199219
1.53553e-05 0.00277023 -8.78333e-07
0.000199219 -8.78333e-07 0.00277647
0.00262594 2.67614e-06 -0.00010129
2.67614e-06 0.00104369 -2.01602e-06
-0.00010129 -2.01602e-06 0.000997557
0.00108188 2.21985e-05 1.55593e-08
2.21985e-05 -8.88853e-07 4.67902e-08
1.55593e-08 4.67902e-08 -0.000113481
0.00133165 3.42188e-05 3.49746e-06
3.42188e-05 1.64618e-05 -1.20774e-07
3.49746e-06 -1.20774e-07 -0.000106071
0.00500324 -6.50702e-05 -5.27668e-05
-6.50702e-05 0.0025512 6.81638e-08
-5.27668e-05 6.81638e-08 0.0025364
0.000662877 4.05084e-05 -3.44894e-08
4.05084e-05 -8.57666e-05 2.40828e-07
-3.44894e-08 2.40828e-07 -0.000153671
0.0010834 4.20704e-05 1.17497e-05
4.20704e-05 -1.77911e-06 1.85944e-06
1.17497e-05 1.85944e-06 -0.000116321
0.00537738 8.95525e-05 -1.11892e-05
8.95525e-05 0.00275188 -6.94965e-07
-1.11892e-05 -6.94965e-07 0.00275412
0.000680845 6.8547e-05 1.84482e-05
6.8547e-05 -7.23507e-05 4.45688e-06
1.84482e-05 4.45688e-06 -0.000142233
0.00536249 0.000177358 0.000211359
0.000177358 0.00275731 1.59758e-05
0.000211359 1.59758e-05 0.00275199
0.00166007 -4.20687e-05 -0.000171994
-4.20687e-05 0.000592086 4.8112e-07
-0.000171994 4.8112e-07 0.000578856
0.0016425 2.13367e-05 -4.1701e-05
2.13367e-05 0.000473194 2.07758e-07
-4.1701e-05 2.07758e-07 0.000419988
0.000747518 9.03392e-06 1.19686e-05
9.03392e-06 -0.000190834 9.29968e-07
1.19686e-05 9.29968e-07 -0.000306054
0.00533744 -3.79865e-05 8.27175e-06
-3.79865e-05 0.00273646 5.17676e-07
8.27175e-06 5.17676e-07 0.00273608
0.000640851 -1.00843e-05 1.79652e-05
-1.00843e-05 -0.000102086 9.77033e-07
1.79652e-05 9.77033e-07 -0.000168126
0.00540616 -5.60196e-05 0.000214318
-5.60196e-05 0.00276863 -1.0486e-06
0.000214318 -1.0486e-06 0.00277186
0.00128449 -7.54669e-06 -2.55438e-05
-7.54669e-06 0.000396393 -6.8796e-07
-2.55438e-05 -6.8796e-07 0.000362559
0.0016362 1.08857e-05 -4.20364e-05
1.08857e-05 0.000473428 -3.74405e-07
-4.20364e-05 -3.74405e-07 0.000417623
0.00108308 2.33749e-05 1.19118e-05
2.33749e-05 -3.44047e-07 1.34547e-06
1.19118e-05 1.34547e-06 -0.000113054
0.0033181 3.90673e-05 7.85875e-05
3.90673e-05 0.00156226 1.63741e-06
7.85875e-05 1.63741e-06 0.00154868
0.000672479 4.90225e-05 1.85069e-05
4.90225e-05 -7.99831e-05 3.56831e-06
1.85069e-05 3.56831e-06 -0.000148173
0.00540373 8.45926e-05 0.000202276
8.45926e-05 0.00276373 1.00953e-05
0.000202276 1.00953e-05 0.00276797
0.005263 -2.52454e-05 -8.86451e-06
-2.52454e-05 0.00269642 -1.15841e-06
-8.86451e-06 -1.15841e-06 0.00269541
0.000650103 3.60453e-05 1.89743e-05
3.60453e-05 -0.000100539 1.78462e-06
1.89743e-05 1.78462e-06 -0.000161726
0.00526576 5.49166e-05 0.000199001
5.49166e-05 0.00269261 -3.74348e-07
0.000199001 -3.74348e-07 0.00269471
0.0032837 2.74485e-05 9.26902e-05
2.74485e-05 0.00154711 2.29401e-06
9.26902e-05 2.29401e-06 0.00153281
0.000678931 5.37149e-06 1.79914e-05
5.37149e-06 -7.76731e-05 2.48815e-06
1.79914e-05 2.48815e-06 -0.000143575
0.00535006 -3.64317e-05 0.000195092
-3.64317e-05 0.00273554 4.78769e-06
0.000195092 4.78769e-06 0.00273836
0.00527504 -0.000132359 0.000193683
-0.000132359 0.00271001 -1.96673e-06
0.000193683 -1.96673e-06 0.00270387
0.00527656 -2.15844e-05 0.000192774
-2.15844e-05 0.0026906 2.30317e-06
0.000192774 2.30317e-06 0.00269658
