# vtk DataFile Version 2.0
Wound Healing Simulation
ASCII
DATASET UNSTRUCTURED_GRID
POINTS 3012 float
69.9759 18.75 4
67.2507 60.3285 4
69.976 18.75 2
73.0099 25.446 4
71.1327 20.9142 4
68.6801 16.6661 4
67.8266 19.9154 3.9925
67.2507 60.3286 2
71.1327 54.0858 4
68.6801 58.3339 4
65.6939 62.2254 4
65.3131 59.0099 3.99333
74.6784 42.3946 4
73.7221 47.2057 4
69.9759 18.75 0
73.0099 25.446 2
68.6801 16.6661 2
71.1327 20.9142 2
67.8266 19.915 2
74.6792 32.6053 4
73.7222 27.7943 4
72.1454 23.1494 4
70.6164 26.2127 3.99076
68.8872 21.9478 3.99201
67.2507 14.6715 4
66.6379 17.9616 3.99298
65.8044 21.0077 3.98792
67.2507 60.3285 0
71.1327 54.0858 2
68.6801 58.3339 2
65.694 62.2255 2
65.3131 59.0103 2
72.1454 51.8506 4
69.9759 56.25 4
68.838 53.1233 3.99186
64.0165 64.0165 4
66.6116 57.1435 3.99302
63.8866 60.7732 3.9937
63.5047 57.7911 3.98893
60.3285 67.2507 4
74.6792 42.3947 2
73.7222 47.2057 2
74.9194 39.9526 4
74.2788 44.8158 4
72.1714 42.0899 3.9898
73.0099 49.554 4
71.252 46.6056 3.99053
73.0099 25.446 0
71.1327 20.9142 0
68.6801 16.6661 0
67.8266 19.9154 0.00749914
74.6792 32.6053 2
73.7222 27.7943 2
67.2508 14.6715 2
72.1455 23.1494 2
70.6164 26.2123 2
66.6379 17.9612 2
68.8872 21.9474 2
65.8045 21.0074 2
74.9197 35.0474 4
74.2794 30.1841 4
72.1877 32.9386 3.98988
71.2807 28.4241 3.9902
69.8175 24.0502 3.99143
68.3564 26.9405 3.98674
66.771 22.918 3.98754
65.694 12.7746 4
65.3244 16.0944 3.99337
64.7196 19.1753 3.98847
63.901 22.0111 3.98628
71.1327 54.0858 0
65.6939 62.2254 0
68.6801 58.3339 0
65.3131 59.0099 0.00667108
72.1455 51.8506 2
69.9759 56.25 2
68.838 53.1237 2
64.0165 64.0165 2
66.6116 57.1439 2
63.8865 60.7736 2
63.5047 57.7915 2
62.2254 65.694 4
58.8937 65.4185 3.99395
69.771 50.9985 3.99127
67.7849 55.1777 3.99254
66.6583 52.2245 3.98732
62.3366 62.4334 3.99391
64.6667 56.0503 3.98857
62.2055 59.4231 3.98949
61.8319 56.7072 3.98694
58.3339 68.6801 4
60.3285 67.2508 2
73.7221 47.2057 0
74.6784 42.3946 0
74.9197 39.9526 2
74.2794 44.8159 2
72.1714 42.0901 2
73.0099 49.554 2
71.252 46.6059 2
75 37.5 4
72.4086 39.8042 3.98943
71.7855 44.359 3.99021
69.8151 41.7946 3.98636
70.5776 48.8222 3.99086
68.923 46.0243 3.98682
74.6792 32.6053 0
73.7222 27.7943 0
67.2507 14.6715 0
72.1454 23.1494 0
70.6164 26.2127 0.00924388
68.8872 21.9478 0.00798729
66.6379 17.9616 0.00701862
65.8044 21.0077 0.0120785
74.9197 35.0474 2
74.2794 30.1841 2
72.1878 32.9385 2
71.2807 28.4238 2
65.694 12.7745 2
65.3244 16.094 2
69.8175 24.0498 2
68.3565 26.9403 2
64.7196 19.1749 2
66.771 22.9177 2
63.9011 22.0108 2
72.4164 35.2213 3.98973
71.8066 30.6702 3.98998
69.8503 33.2631 3.98613
68.976 29.0291 3.98634
67.6205 24.899 3.98718
66.212 27.6191 3.98511
64.0165 10.9835 4
64.7723 23.8085 3.98605
63.8906 14.3197 3.9936
63.5171 17.4265 3.98907
62.9187 20.2941 3.98656
62.1134 22.9131 3.9855
60.684 11.0923 3.99378
57.6122 11.4348 3.98982
72.1454 51.8506 0
69.9759 56.25 0
68.838 53.1233 0.00813843
64.0165 64.0165 0
63.8866 60.7732 0.00629769
66.6116 57.1435 0.00698349
63.5047 57.7911 0.0110704
62.2255 65.694 2
58.8937 65.4188 2
69.771 50.9989 2
67.7849 55.1781 2
66.6583 52.2248 2
62.3366 62.4337 2
64.6667 56.0507 2
62.2054 59.4235 2
61.832 56.7074 2
60.6687 63.9821 3.99393
57.0242 66.7386 3.99398
57.5575 63.7022 3.99
67.5172 50.19 3.98703
65.7095 54.1906 3.98796
64.554 51.4071 3.98559
60.7743 60.9543 3.98995
62.8316 55.0933 3.9869
60.6645 58.1844 3.98707
60.3405 55.8169 3.98609
56.25 69.9759 4
58.3339 68.6801 2
60.3285 67.2507 0
58.9209 9.65112 3.99383
62.2254 9.30607 4
73.0099 49.554 0
74.2788 44.8158 0
71.252 46.6056 0.00947327
72.1714 42.0899 0.010196
74.9194 39.9526 0
75 37.5 2
72.4087 39.8043 2
71.7855 44.3593 2
69.8152 41.7948 2
70.5776 48.8225 2
68.923 46.0244 2
72.492 37.5115 3.98937
70.052 39.6596 3.98616
69.4413 43.9149 3.98664
67.6172 41.5044 3.98497
68.2762 48.1185 3.98693
66.7292 45.4531 3.98522
74.9197 35.0474 0
74.2794 30.1841 0
72.1877 32.9386 0.0101189
71.2807 28.4241 0.00980376
65.694 12.7746 0
65.3244 16.0944 0.00663306
69.8175 24.0502 0.00856605
68.3564 26.9405 0.0132606
66.771 22.918 0.0124582
64.7196 19.1753 0.011532
63.901 22.0111 0.0137243
72.4165 35.2213 2
71.8066 30.67 2
69.8504 33.2631 2
68.9761 29.029 2
64.0165 10.9835 2
63.8906 14.3194 2
63.5171 17.4261 2
67.6205 24.8987 2
66.2121 27.619 2
62.9187 20.2938 2
64.7724 23.8083 2
62.1135 22.9129 2
60.684 11.0919 2
57.6122 11.4345 2
70.0686 35.3889 3.98622
69.4772 31.1423 3.98625
67.6741 33.5841 3.98447
66.79 29.6102 3.98459
65.5408 25.6807 3.98567
64.1717 28.2356 3.98445
62.342 12.6488 3.99372
62.8798 24.61 3.98542
62.2008 15.7656 3.9895
61.8221 18.6581 3.98702
61.2348 21.3097 3.98549
60.4525 23.6927 3.98528
59.2465 12.7642 3.9898
55.8739 10.223 3.98988
56.4062 13.0957 3.98721
69.771 50.9985 0.00872584
62.2254 65.694 0
58.8937 65.4185 0.0060504
67.7849 55.1777 0.0074565
66.6583 52.2245 0.012677
62.3366 62.4334 0.0060906
62.2055 59.4231 0.0105078
64.6667 56.0503 0.0114342
61.8319 56.7072 0.0130556
60.6686 63.9825 2
57.0242 66.7389 2
57.5575 63.7026 2
67.5172 50.1902 2
65.7096 54.1909 2
64.5541 51.4073 2
60.7743 60.9547 2
62.8317 55.0936 2
60.6645 58.1846 2
60.3405 55.8171 2
55.0697 67.935 3.99402
59.2197 62.3797 3.99001
55.8036 64.9179 3.99003
56.3279 62.1045 3.98741
65.3496 49.4275 3.98536
63.7203 53.3164 3.98624
62.4658 50.6796 3.98472
59.3368 59.5787 3.98743
61.0931 54.3399 3.9861
59.2982 57.0425 3.98575
59.2571 55.2172 3.98613
48.1022 68.5823 3.99033
50.9478 69.9337 3.99408
54.0858 71.1327 4
56.25 69.976 2
58.3339 68.6801 0
57.058 8.33157 3.99387
60.3285 7.74928 4
58.9209 9.6508 2
62.2255 9.30602 2
70.5776 48.8222 0.00913793
71.7855 44.359 0.00979495
68.923 46.0243 0.0131841
69.8151 41.7946 0.0136378
72.4086 39.8042 0.0105706
75 37.5 0
72.492 37.5115 2
70.0521 39.6597 2
69.4413 43.915 2
67.6173 41.5045 2
68.2763 48.1187 2
66.7292 45.4533 2
70.14 37.5211 3.98616
67.8543 39.5157 3.98507
67.2434 43.4801 3.98504
65.5848 41.2186 3.98445
66.0875 47.4343 3.98535
64.6804 44.8655 3.98472
72.4164 35.2213 0.0102728
71.8066 30.6702 0.0100242
69.8503 33.2631 0.0138719
68.976 29.0291 0.0136598
64.0165 10.9835 0
63.8906 14.3197 0.00639853
63.5171 17.4265 0.0109279
67.6205 24.899 0.0128185
66.212 27.6191 0.0148921
64.7723 23.8085 0.0139495
62.9187 20.2941 0.0134408
62.1134 22.9131 0.014495
60.684 11.0923 0.00621679
57.6122 11.4348 0.0101819
70.0687 35.389 2
69.4772 31.1422 2
67.6742 33.5841 2
66.7901 29.6101 2
62.3419 12.6485 2
62.2008 15.7652 2
61.8222 18.6578 2
65.541 25.6805 2
64.1718 28.2355 2
61.2349 21.3095 2
62.88 24.6098 2
60.4526 23.6926 2
59.2465 12.7638 2
56.4062 13.0954 2
55.8739 10.2227 2
67.8899 35.5438 3.98479
67.2836 31.6126 3.98448
65.7246 33.9192 3.98393
64.689 30.1762 3.98367
63.5626 26.3904 3.98505
62.2904 28.7542 3.9846
60.776 14.2066 3.98972
61.0751 25.3059 3.98522
60.6175 17.1031 3.98732
60.235 19.7848 3.98593
59.6837 22.2221 3.98482
59.0103 24.282 3.98557
54.0369 9.12748 3.98998
57.9118 14.3121 3.98732
54.7871 11.9973 3.98718
55.3143 14.6253 3.98603
67.5172 50.19 0.0129729
57.0242 66.7386 0.006019
60.6687 63.9821 0.00606903
57.5575 63.7022 0.00999937
65.7095 54.1906 0.0120443
64.554 51.4071 0.0144148
60.7743 60.9543 0.0100541
60.6645 58.1844 0.012927
62.8316 55.0933 0.0130991
60.3405 55.8169 0.0139115
55.0697 67.9353 2
59.2196 62.3801 2
55.8035 64.9182 2
56.3279 62.1048 2
65.3496 49.4277 2
63.7203 53.3167 2
62.4658 50.6797 2
59.3369 59.579 2
61.0931 54.3401 2
59.2982 57.0426 2
59.2571 55.2173 2
53.0417 69.0023 3.99405
53.9657 66.0189 3.99009
57.8827 60.8882 3.98748
54.6838 63.2181 3.98745
55.2134 60.6334 3.98601
63.2206 48.6858 3.98478
61.762 52.6049 3.98526
60.3054 50.0518 3.9842
58.0236 58.2868 3.98606
59.3461 53.9821 3.98557
58.1388 55.8469 3.98463
50.1085 67.8608 3.99023
47.4626 66.5864 3.98779
46.0562 69.1614 3.99039
48.1022 68.5827 2
48.8022 70.7247 3.99412
50.9478 69.934 2
51.8506 72.1454 4
54.0858 71.1327 2
56.25 69.9759 0
55.1023 7.1366 3.9939
58.3339 6.31992 4
57.0579 8.33126 2
60.3286 7.74926 2
58.9209 9.65112 0.00617458
62.2254 9.30607 0
68.2762 48.1185 0.013068
69.4413 43.9149 0.0133551
66.7292 45.4531 0.014782
67.6172 41.5044 0.0150341
70.052 39.6596 0.0138427
72.492 37.5115 0.0106275
70.1401 37.5211 2
67.8543 39.5158 2
67.2434 43.4802 2
65.5848 41.2188 2
66.0876 47.4345 2
64.6804 44.8656 2
67.9504 37.5217 3.985
65.8167 39.3747 3.98492
65.2045 43.0384 3.98431
63.7931 40.94 3.98441
63.9932 46.7378 3.98491
62.844 44.2366 3.98482
70.0686 35.3889 0.0137754
69.4772 31.1423 0.013746
67.6741 33.5841 0.0155333
66.79 29.6102 0.0154131
62.342 12.6488 0.00627686
62.2008 15.7656 0.0105032
61.8221 18.6581 0.012979
65.5408 25.6807 0.0143323
64.1717 28.2356 0.0155489
62.8798 24.61 0.0145843
61.2348 21.3097 0.0145108
60.4525 23.6927 0.0147162
59.2465 12.7642 0.0102048
56.4062 13.0957 0.0127904
55.8739 10.223 0.0101196
67.89 35.5438 2
67.2837 31.6126 2
65.7247 33.9192 2
64.6891 30.1761 2
60.7759 14.2062 2
60.6176 17.1028 2
60.2351 19.7845 2
63.5628 26.3902 2
62.2906 28.7541 2
59.6837 22.222 2
61.0752 25.3057 2
59.0104 24.2819 2
57.9118 14.3118 2
55.3143 14.625 2
54.0369 9.12708 2
54.7872 11.997 2
65.9044 35.6626 3.98403
65.2129 32.1424 3.98353
64.3175 34.2413 3.98315
62.6296 30.6166 3.98375
61.6836 27.0441 3.98492
60.8896 29.1145 3.98527
59.313 15.6469 3.98737
59.3674 25.7607 3.98585
59.1307 18.3266 3.9864
58.7566 20.8185 3.98503
58.3123 23.0526 3.98441
58.0033 24.6246 3.98635
52.1115 8.14684 3.99002
53.058 11.0052 3.9873
56.6787 15.7191 3.98634
53.8106 13.6631 3.98574
54.3784 15.9752 3.98558
55.0697 67.935 0.00598408
65.3496 49.4275 0.0146392
55.8036 64.9179 0.00996512
59.2197 62.3797 0.0099944
56.3279 62.1045 0.0125858
63.7203 53.3164 0.0137617
62.4658 50.6796 0.0152775
59.3368 59.5787 0.0125676
59.2982 57.0425 0.0142517
61.0931 54.3399 0.0138973
59.2571 55.2172 0.0138664
53.0417 69.0026 2
53.9657 66.0193 2
57.8827 60.8886 2
54.6838 63.2184 2
55.2134 60.6337 2
63.2207 48.6859 2
61.7621 52.605 2
60.3054 50.0518 2
58.0237 58.287 2
59.3462 53.9822 2
58.1388 55.847 2
52.0693 67.0044 3.99014
52.9527 64.2266 3.98748
56.6516 59.5102 3.98629
53.6819 61.6354 3.98596
54.2629 59.3409 3.98527
61.0294 47.9103 3.98459
59.7357 52.1396 3.98495
58.0643 49.6549 3.98527
56.7845 57.0176 3.98467
57.1397 54.1604 3.98428
50.1084 67.8611 2
49.3362 65.927 3.9876
47.4627 66.5868 2
46.8918 64.7431 3.98617
45.5579 67.1037 3.98791
43.9735 69.5939 3.99041
46.0561 69.1618 2
46.609 71.369 3.99416
48.1022 68.5823 0.00967216
48.8021 70.725 2
49.554 73.0099 4
50.9478 69.9337 0.00591935
51.8506 72.1455 2
54.0858 71.1327 0
53.0634 6.06849 3.99393
55.1023 7.13629 2
56.25 5.02411 4
58.3339 6.3199 2
57.058 8.33157 0.00612909
60.3285 7.74928 0
66.0875 47.4343 0.0146505
67.2434 43.4801 0.0149589
64.6804 44.8655 0.015275
65.5848 41.2186 0.0155451
67.8543 39.5157 0.0149258
70.14 37.5211 0.013843
67.9505 37.5218 2
65.8167 39.3748 2
65.2046 43.0385 2
63.7931 40.9401 2
63.9932 46.7379 2
62.844 44.2367 2
65.9194 37.5018 3.98488
63.9383 39.2722 3.98483
63.3662 42.5654 3.98408
62.4759 40.709 3.98348
62.0045 45.9445 3.98524
61.4957 43.7057 3.98515
67.8899 35.5438 0.0152093
67.2836 31.6126 0.015516
65.7246 33.9192 0.0160701
64.689 30.1762 0.0163298
60.776 14.2066 0.010284
60.6175 17.1031 0.0126826
60.235 19.7848 0.0140749
63.5626 26.3904 0.0149468
62.2904 28.7542 0.015399
61.0751 25.3059 0.0147786
59.6837 22.2221 0.0151792
59.0103 24.282 0.0144345
57.9118 14.3121 0.0126813
55.3143 14.6253 0.0139665
54.0369 9.12748 0.010016
54.7871 11.9973 0.0128204
65.9045 35.6626 2
65.213 32.1424 2
64.3176 34.2413 2
62.6297 30.6166 2
59.3131 15.6466 2
59.1308 18.3263 2
58.7567 20.8184 2
61.6837 27.044 2
60.8898 29.1144 2
58.3123 23.0526 2
59.3675 25.7606 2
58.0034 24.6245 2
56.6788 15.7189 2
54.3784 15.975 2
53.8107 13.6628 2
52.1116 8.14643 2
53.058 11.0048 2
64.1267 35.6275 3.98334
62.9677 33.0332 3.98298
60.6579 30.5893 3.98416
59.6142 27.8786 3.98541
57.9429 16.9575 3.98648
57.7801 25.6863 3.9868
57.7247 19.4439 3.98567
57.3916 21.802 3.98401
57.2185 23.9056 3.98457
50.1118 7.27935 3.99018
51.2323 10.1149 3.98746
52.1726 12.7824 3.98554
55.5401 16.9466 3.98581
52.9791 15.2432 3.98502
53.7606 16.9561 3.98527
53.0417 69.0023 0.00595226
53.9657 66.0189 0.00990981
63.2206 48.6858 0.0152172
54.6838 63.2181 0.0125492
57.8827 60.8882 0.0125185
55.2134 60.6334 0.0139922
61.762 52.6049 0.0147402
60.3054 50.0518 0.015804
58.0236 58.2868 0.0139354
58.1388 55.8469 0.015373
59.3461 53.9821 0.0144275
52.0693 67.0048 2
52.9527 64.227 2
56.6517 59.5105 2
53.6819 61.6357 2
54.2629 59.3412 2
61.0294 47.9103 2
59.7358 52.1396 2
58.0642 49.6548 2
56.7846 57.0178 2
57.1397 54.1604 2
51.1671 65.1345 3.98748
52.0461 62.5484 3.98578
55.4848 58.2737 3.9856
52.8361 60.1504 3.98526
53.6434 58.4921 3.98504
58.3548 46.884 3.9863
57.5902 51.8251 3.98439
56.2902 49.5944 3.98633
55.4825 55.8268 3.98371
55.3796 53.4213 3.98259
50.1085 67.8608 0.00977437
49.3362 65.9273 2
48.6175 64.1295 3.98594
47.4626 66.5864 0.01221
45.5579 67.104 2
46.8918 64.7434 2
46.3813 63.0612 3.985
45.1321 65.2046 3.9863
43.6312 67.4746 3.98798
41.8609 69.8816 3.99039
43.9734 69.5942 2
44.3765 71.8639 3.99418
46.0562 69.1614 0.00961292
46.609 71.3693 2
47.2057 73.7222 4
48.8022 70.7247 0.00587562
49.554 73.0099 2
51.8506 72.1454 0
50.9532 5.12912 3.99407
53.0634 6.06819 2
54.0858 3.86728 4
55.1023 7.1366 0.00609593
56.25 5.02406 2
58.3339 6.31992 0
63.9932 46.7378 0.015085
65.2045 43.0384 0.0156865
62.844 44.2366 0.0151849
63.7931 40.94 0.015585
65.8167 39.3747 0.0150808
67.9504 37.5217 0.0149972
65.9195 37.5019 2
63.9383 39.2723 2
63.3662 42.5655 2
62.4759 40.7091 2
62.0045 45.9446 2
61.4957 43.7058 2
63.9986 37.4572 3.98524
62.2067 39.3614 3.98434
61.2673 41.9759 3.98385
60.2976 44.7983 3.98636
65.9044 35.6626 0.0159744
65.2129 32.1424 0.016474
64.3175 34.2413 0.0168462
62.6296 30.6166 0.0162522
59.313 15.6469 0.0126313
59.1307 18.3266 0.013605
58.7566 20.8185 0.0149701
61.6836 27.0441 0.0150831
60.8896 29.1145 0.0147269
59.3674 25.7607 0.0141484
58.3123 23.0526 0.0155898
58.0033 24.6246 0.0136544
56.6787 15.7191 0.0136614
54.3784 15.9752 0.0144203
53.8106 13.6631 0.0142615
52.1115 8.14684 0.00997589
53.058 11.0052 0.0127048
64.1268 35.6275 2
62.9677 33.0332 2
60.6581 30.5893 2
57.943 16.9573 2
57.7248 19.4437 2
57.3917 21.8019 2
59.6144 27.8785 2
57.2186 23.9055 2
57.7803 25.6863 2
50.1117 7.27892 2
55.5402 16.9464 2
53.7607 16.9559 2
52.9792 15.243 2
52.1727 12.7821 2
51.2324 10.1145 2
62.2357 35.3525 3.98337
60.3406 32.7288 3.9827
58.6744 30.047 3.98488
57.3417 27.3434 3.98636
56.6408 18.1278 3.98593
56.3328 25.0595 3.98577
56.3702 20.4874 3.98478
56.1353 22.8286 3.98303
48.0556 6.52292 3.99039
49.3242 9.32355 3.98749
50.4333 11.982 3.98572
51.3788 14.4817 3.98443
54.4184 17.8947 3.98523
52.3631 17.0133 3.98453
52.0693 67.0044 0.00985995
52.9527 64.2266 0.0125216
61.0294 47.9103 0.0154105
53.6819 61.6354 0.0140387
56.6516 59.5102 0.0137067
54.2629 59.3409 0.0147259
59.7357 52.1396 0.0150549
58.0643 49.6549 0.0147344
56.7845 57.0176 0.0153278
57.1397 54.1604 0.0157212
51.1671 65.1348 2
52.0461 62.5487 2
55.4849 58.274 2
52.8361 60.1508 2
53.6435 58.4924 2
58.3547 46.884 2
57.5903 51.8251 2
56.2902 49.5942 2
55.4826 55.8269 2
55.3796 53.4213 2
50.3458 63.3884 3.98576
51.2447 60.9464 3.98452
54.2246 57.2894 3.98463
52.3151 58.6519 3.98464
56.7866 44.2161 3.98702
55.5476 47.9352 3.98634
55.1034 51.4302 3.98317
54.0197 54.5805 3.98246
49.3362 65.927 0.0123974
48.6175 64.1299 2
47.9617 62.4823 3.98484
45.5579 67.1037 0.0120945
46.8918 64.7431 0.0138335
43.6312 67.4749 2
46.3813 63.0615 2
45.1321 65.2049 2
45.9869 61.5943 3.98411
44.7665 63.4624 3.98517
43.3561 65.5143 3.98632
41.6635 67.6938 3.98798
39.7027 70.0289 3.99033
41.8609 69.8819 2
42.1111 72.2087 3.99419
43.9735 69.5939 0.00959209
44.3765 71.8641 2
44.8159 74.2794 4
46.609 71.369 0.00584191
47.2057 73.7222 2
49.554 73.0099 0
48.7838 4.32039 3.99418
50.9532 5.12882 2
51.8506 2.85458 4
53.0634 6.06849 0.00607254
54.0858 3.86728 2
56.25 5.02411 0
62.0045 45.9445 0.0147561
63.3662 42.5654 0.0159172
61.4957 43.7057 0.0148539
62.4759 40.709 0.016521
63.9383 39.2722 0.0151729
65.9194 37.5018 0.0151222
63.9986 37.4573 2
62.2067 39.3616 2
61.2673 41.976 2
60.2975 44.7983 2
62.0469 37.4445 3.98568
60.3099 39.8572 3.98347
59.0557 42.9445 3.98591
64.1267 35.6275 0.016664
62.9677 33.0332 0.0170188
60.6579 30.5893 0.0158368
57.9429 16.9575 0.0135232
57.7247 19.4439 0.0143251
57.3916 21.802 0.0159856
59.6142 27.8786 0.0145948
57.7801 25.6863 0.0132039
57.2185 23.9056 0.01543
55.5401 16.9466 0.0141934
53.7606 16.9561 0.0147328
52.9791 15.2432 0.0149805
50.1118 7.27935 0.00981653
52.1726 12.7824 0.014464
51.2323 10.1149 0.0125374
62.2358 35.3526 2
60.3406 32.7289 2
58.6746 30.047 2
56.6409 18.1275 2
56.3704 20.4872 2
56.1354 22.8285 2
57.3419 27.3434 2
56.333 25.0595 2
48.0556 6.5225 2
49.3243 9.32312 2
54.4185 17.8945 2
52.3632 17.0131 2
51.3789 14.4814 2
50.4334 11.9816 2
59.9544 35.1108 3.98366
58.0569 32.247 3.98322
56.6074 29.3045 3.98587
55.5005 26.5567 3.98745
55.3485 19.1609 3.98534
54.9649 24.0135 3.98296
55.0192 21.5266 3.98375
45.9617 5.87847 3.99052
43.3735 7.46773 3.98826
47.3547 8.61778 3.98781
48.5999 11.2847 3.98542
49.7146 13.7303 3.9847
50.6346 16.1148 3.98362
53.1288 18.6345 3.98473
51.3055 18.027 3.98429
51.1671 65.1345 0.0125184
52.0461 62.5484 0.0142206
58.3548 46.884 0.013697
52.8361 60.1504 0.0147414
55.4848 58.2737 0.0144031
53.6434 58.4921 0.0149646
57.5902 51.8251 0.0156085
56.2902 49.5944 0.0136719
55.4825 55.8268 0.0162903
55.3796 53.4213 0.0174098
50.3457 63.3887 2
51.2447 60.9467 2
54.2247 57.2897 2
52.3151 58.6523 2
56.7864 44.2162 2
55.5475 47.9349 2
55.1034 51.43 2
54.0198 54.5805 2
49.5917 61.7527 3.98459
55.7318 41.7316 3.98407
50.5682 59.3407 3.98335
52.1909 56.5123 3.9833
54.2633 45.6005 3.98743
53.3944 49.3707 3.98415
52.6929 52.8909 3.98101
48.6175 64.1295 0.0140586
47.9616 62.4826 2
47.3291 61.0173 3.98412
43.6312 67.4746 0.0120221
45.1321 65.2046 0.0137032
46.3813 63.0612 0.0149999
41.6635 67.6942 2
43.3561 65.5147 2
45.9869 61.5945 2
44.7665 63.4627 2
45.7659 60.6387 3.98353
44.4827 61.8439 3.98416
43.1458 63.735 3.98517
41.5456 65.6524 3.9863
39.6328 67.774 3.98793
37.5263 70.0543 3.99028
39.7027 70.0293 2
39.818 72.4059 3.99416
41.8609 69.8816 0.00961393
42.1111 72.209 2
42.3947 74.6792 4
44.3765 71.8639 0.00581703
44.8159 74.2794 2
47.2057 73.7222 0
43.8512 5.3556 3.99074
46.5699 3.64517 3.99426
48.7838 4.32009 2
49.554 1.99015 4
50.9532 5.12912 0.00593276
51.8506 2.85453 2
54.0858 3.86728 0
60.2976 44.7983 0.0136424
61.2673 41.9759 0.016147
62.2067 39.3614 0.0156639
63.9986 37.4572 0.0147552
62.0469 37.4446 2
60.3099 39.8573 2
59.0556 42.9446 2
59.8336 37.5666 3.98628
58.0799 40.6769 3.98439
55.2221 39.7359 3.98872
62.2357 35.3525 0.0166257
60.3406 32.7288 0.017303
58.6744 30.047 0.015124
56.6408 18.1278 0.0140723
56.3702 20.4874 0.0152201
56.1353 22.8286 0.0169695
57.3417 27.3434 0.0136428
56.3328 25.0595 0.014228
54.4184 17.8947 0.0147673
52.3631 17.0133 0.0154688
51.3788 14.4817 0.0155714
48.0556 6.52292 0.00960506
49.3242 9.32355 0.012515
50.4333 11.982 0.0142767
59.9545 35.1109 2
45.9617 5.87804 2
43.3735 7.46732 2
58.057 32.247 2
56.6076 29.3046 2
55.3486 19.1607 2
55.0193 21.5265 2
54.965 24.0136 2
55.5007 26.5566 2
47.3548 8.61734 2
48.6 11.2843 2
53.1289 18.6343 2
51.3056 18.0268 2
50.6347 16.1145 2
49.7147 13.7299 2
57.4765 34.7483 3.98213
55.8038 31.4879 3.98457
54.5827 28.3621 3.98893
53.8196 25.452 3.98476
53.9769 20.1076 3.98476
53.6053 22.6697 3.9823
41.3986 7.07304 3.98856
45.3595 7.98963 3.9881
42.8653 9.40873 3.98633
46.6663 10.6457 3.98585
47.7455 13.0924 3.98434
48.9319 15.3873 3.98326
50.0076 17.6821 3.98321
51.6576 19.3041 3.98465
50.3458 63.3884 0.0142417
51.2447 60.9464 0.01548
56.7866 44.2161 0.0129814
55.5476 47.9352 0.0136575
52.3151 58.6519 0.0153569
54.2246 57.2894 0.0153719
55.1034 51.4302 0.0168347
54.0197 54.5805 0.0175359
49.5917 61.753 2
55.7316 41.7319 2
50.5682 59.341 2
52.191 56.5127 2
54.2631 45.6003 2
53.3943 49.3703 2
52.693 52.8907 2
48.8492 60.2107 3.98382
52.6477 42.6727 3.98914
49.7917 57.6414 3.98291
50.6088 54.4478 3.98128
51.9004 47.3101 3.98476
51.2567 50.9866 3.97941
48.3568 43.7529 3.97592
47.9617 62.4823 0.0151582
47.329 61.0175 2
46.6186 59.804 3.98366
41.6635 67.6938 0.0120226
43.3561 65.5143 0.0136766
44.7665 63.4624 0.0148307
45.9869 61.5943 0.0158903
39.6328 67.7743 2
41.5457 65.6528 2
45.7658 60.6389 2
43.1458 63.7353 2
44.4826 61.8441 2
44.6231 60.301 3.98326
42.9498 62.0926 3.9842
41.5991 63.8286 3.98508
39.6473 65.6211 3.9862
37.5636 67.7567 3.9879
31.6981 65.1401 3.98616
33.3928 67.4944 3.9879
35.3337 69.9645 3.99027
37.5263 70.0546 2
37.5097 72.4605 3.99413
39.7027 70.0289 0.00966686
39.8179 72.4061 2
39.9526 74.9197 4
42.1111 72.2087 0.00581027
42.3947 74.6792 2
44.8159 74.2794 0
41.7359 4.96492 3.99088
43.8512 5.35521 2
44.3253 3.10852 3.99443
46.5699 3.64487 2
47.2057 1.27793 4
48.7838 4.32039 0.00581955
49.554 1.99013 2
51.8506 2.85458 0
59.0557 42.9445 0.0140946
60.3099 39.8572 0.0165288
62.0469 37.4445 0.0143156
59.8336 37.5668 2
58.0799 40.677 2
55.2221 39.7362 2
56.9272 37.9023 3.98498
49.822 41.313 3.98733
53.2747 39.3226 3.99314
39.442 6.7965 3.98862
59.9544 35.1108 0.0163365
58.0569 32.247 0.0167796
56.6074 29.3045 0.0141272
55.3485 19.1609 0.014662
55.0192 21.5266 0.016251
54.9649 24.0135 0.0170368
55.5005 26.5567 0.0125519
53.1288 18.6345 0.0152665
51.3055 18.027 0.0157149
50.6346 16.1148 0.0163754
45.9617 5.87847 0.00947562
49.7146 13.7303 0.0153017
47.3547 8.61778 0.01219
48.5999 11.2847 0.0145819
43.3735 7.46773 0.011736
57.4765 34.7484 2
41.3986 7.07263 2
45.3595 7.98917 2
42.8653 9.4083 2
55.8038 31.4879 2
54.583 28.362 2
53.977 20.1074 2
53.6055 22.6697 2
53.8197 25.4521 2
46.6664 10.6453 2
47.7456 13.092 2
51.6577 19.304 2
50.0077 17.6819 2
48.932 15.3869 2
54.9872 33.9497 3.98153
53.5865 30.4459 3.98826
52.6584 27.1522 3.9875
52.1805 24.0411 3.98313
52.404 21.0433 3.98387
41.0133 9.04167 3.98682
44.7235 9.98873 3.98627
42.4681 10.8948 3.98558
46.0051 12.7205 3.9838
47.6816 14.5734 3.98386
48.1138 16.9748 3.98159
49.8203 19.5754 3.98295
49.5917 61.7527 0.0154136
50.5682 59.3407 0.0166459
55.7318 41.7316 0.0159304
54.2633 45.6005 0.0125737
53.3944 49.3707 0.0158524
52.1909 56.5123 0.0167012
52.6929 52.8909 0.0189903
48.8492 60.2109 2
52.6474 42.6728 2
49.7918 57.6417 2
50.609 54.4482 2
51.9002 47.3096 2
51.2568 50.9862 2
48.3561 43.7524 2
47.9875 58.7531 3.98338
50.2327 45.3043 3.98357
48.6044 55.9318 3.98288
49.1552 52.624 3.97927
49.7376 49.088 3.98034
46.1938 39.911 3.9362
46.6179 42.7879 4.00172
46.6481 45.7517 3.97455
44.0579 41.2535 3.98956
42.088 41.9879 4.00298
47.3291 61.0173 0.0158842
46.6186 59.8042 2
45.4685 58.8002 3.98307
39.6328 67.774 0.01207
41.5456 65.6524 0.0136987
43.1458 63.735 0.014835
44.4827 61.8439 0.0158448
45.7659 60.6387 0.0164668
41.5991 63.8289 2
37.5636 67.7571 2
39.6473 65.6214 2
44.623 60.3012 2
42.9498 62.0928 2
41.7528 62.5035 3.98432
42.4806 59.9927 3.98338
39.8928 63.5638 3.98487
37.6423 65.5205 3.98616
35.4639 67.6662 3.98789
33.5761 65.3537 3.98621
31.9604 63.3127 3.98491
29.8843 64.7309 3.98607
31.6981 65.1404 2
31.3776 67.204 3.98786
33.3928 67.4947 2
33.1567 69.7578 3.99028
35.3337 69.9648 2
35.1952 72.3749 3.99412
37.5263 70.0543 0.0097205
37.5097 72.4607 2
37.5 75 4
39.818 72.4059 0.00583906
39.9526 74.9197 2
42.3947 74.6792 0
39.6236 4.71209 3.99102
41.7359 4.96454 2
42.0618 2.71625 3.99451
43.8512 5.3556 0.00926492
44.3253 3.10824 2
44.8158 0.721173 4
46.5699 3.64517 0.00574195
47.2057 1.27779 2
49.554 1.99015 0
58.0799 40.6769 0.0156067
59.8336 37.5666 0.0137151
55.2221 39.7359 0.0112774
49.8219 41.3122 2
56.9271 37.9023 2
53.2749 39.3229 2
54.1242 36.6243 3.98334
47.7469 40.4685 4.00915
50.7757 38.4898 3.9911
37.5158 6.66767 3.9889
39.442 6.7961 2
39.2108 8.68422 3.98703
35.9412 8.48373 3.98742
57.4765 34.7483 0.0178688
55.8038 31.4879 0.0154284
54.5827 28.3621 0.0110745
53.9769 20.1076 0.0152393
53.6053 22.6697 0.0177047
53.8196 25.452 0.0152447
51.6576 19.3041 0.0153484
50.0076 17.6821 0.0167855
48.9319 15.3873 0.0167405
45.3595 7.98963 0.0118974
47.7455 13.0924 0.0156557
46.6663 10.6457 0.0141503
41.3986 7.07304 0.0114409
42.8653 9.40873 0.0136689
54.9873 33.9501 2
41.0133 9.04122 2
44.7236 9.98826 2
42.4681 10.8944 2
53.5866 30.4456 2
52.6586 27.1525 2
52.4042 21.0431 2
52.1806 24.0411 2
46.0051 12.7201 2
47.6817 14.573 2
49.8204 19.5751 2
48.1139 16.9744 2
52.5383 32.8381 3.98403
51.4392 29.1078 3.99309
50.8484 25.675 3.98078
49.9539 22.1462 3.98351
40.569 11.5977 3.98483
43.8578 11.9098 3.98435
45.8021 15.4102 3.98244
47.5053 19.2078 3.98042
46.5199 37.5079 3.93993
48.8492 60.2107 0.0161778
49.7917 57.6414 0.0170915
52.6477 42.6727 0.0108638
51.9004 47.3101 0.0152396
51.2567 50.9866 0.0205923
50.6088 54.4478 0.0187204
48.3568 43.7529 0.0240826
47.9874 58.7533 2
50.2322 45.304 2
48.6045 55.9322 2
49.1555 52.6246 2
49.7376 49.0874 2
46.1901 39.9126 2
46.6189 42.7905 2
46.6473 45.7487 2
44.0576 41.2493 2
42.0889 41.9879 2
46.8403 57.3556 3.9837
44.8091 39.5081 3.98625
42.4524 40.8633 4.00068
48.1915 47.2878 3.98159
47.1802 54.2655 3.98318
47.6305 50.7979 3.97648
44.9136 47.3747 3.97434
45.2792 42.0295 3.93226
45.1113 44.6694 4.0022
42.8584 42.7441 3.98892
40.933 42.3404 4.00386
46.6186 59.804 0.0163408
45.4684 58.8003 2
43.8769 57.7241 3.98302
37.5636 67.7567 0.0120972
39.6473 65.6211 0.0137951
41.5991 63.8286 0.0149216
42.9498 62.0926 0.0158031
44.6231 60.301 0.0167369
35.4639 67.6666 2
41.7528 62.5038 2
39.8928 63.5641 2
37.6423 65.5209 2
42.4805 59.9929 2
40.6224 61.6618 3.98399
40.4445 58.224 3.98325
37.8365 63.2255 3.98473
35.5734 65.4429 3.98616
33.5761 65.3541 2
31.9604 63.313 2
33.6297 63.3527 3.98491
30.3794 62.8711 3.98481
32.1237 62.0189 3.98432
26.8686 61.5145 3.98417
28.0631 64.1587 3.98584
29.8843 64.7312 2
29.4073 66.7675 3.98776
31.6981 65.1401 0.0138359
31.3776 67.2044 2
31.0141 69.4227 3.9903
33.3928 67.4944 0.0120997
33.1567 69.7581 2
32.8924 72.1492 3.9941
35.3337 69.9645 0.00972524
35.1952 72.3752 2
35.0474 74.9194 4
37.5097 72.4605 0.00587191
37.5 75 2
39.9526 74.9197 0
35.6203 6.7185 3.98882
37.5229 4.61177 3.99103
39.6236 4.71173 2
39.7884 2.47274 3.99463
41.7359 4.96492 0.00911862
42.0618 2.71598 2
42.3946 0.32156 4
44.3253 3.10852 0.00557259
44.8159 0.72056 2
47.2057 1.27793 0
49.822 41.313 0.0126695
56.9272 37.9023 0.0150157
53.2747 39.3226 0.00685725
47.7471 40.4678 2
50.7759 38.4895 2
54.1239 36.6245 2
51.5502 35.5642 3.97499
48.4152 37.7716 4.00849
46.1769 35.1088 3.94049
44.043 33.7621 3.98939
42.081 33.0207 3.99572
37.4575 8.52554 3.98753
37.5158 6.66726 2
39.442 6.7965 0.0113812
39.2108 8.68379 2
38.9759 10.1161 3.98632
35.8976 9.76266 3.98657
34.1495 8.813 3.98718
35.9411 8.48331 2
54.9872 33.9497 0.0184666
53.5865 30.4459 0.0117363
52.6584 27.1522 0.0124968
52.404 21.0433 0.0161269
52.1805 24.0411 0.0168728
49.8203 19.5754 0.0170451
48.1138 16.9748 0.0184064
47.6816 14.5734 0.0161369
44.7235 9.98873 0.0137284
46.0051 12.7205 0.0162005
41.0133 9.04167 0.0131772
42.4681 10.8948 0.0144177
52.5386 32.8379 2
40.5691 11.5973 2
43.8578 11.9094 2
51.4394 29.108 2
50.8487 25.6753 2
49.9541 22.1459 2
45.8022 15.4097 2
47.5053 19.2075 2
50.1543 31.3686 3.98898
49.3747 27.4266 3.98292
49.4442 24.3556 3.98164
47.1941 21.8894 3.9797
38.3013 12.7218 3.98363
42.1003 14.2941 3.98292
44.8004 18.4475 3.98063
45.0822 37.5112 3.98678
46.5178 37.5089 2
47.9875 58.7531 0.0166171
48.6044 55.9318 0.0171226
50.2327 45.3043 0.0164331
49.7376 49.088 0.0196587
49.1552 52.624 0.0207278
46.1938 39.911 0.0638029
46.6179 42.7879 -0.00171904
46.6481 45.7517 0.0254523
44.0579 41.2535 0.0104382
42.088 41.9879 -0.00298101
46.8403 57.3557 2
44.8076 39.5041 2
42.4515 40.8632 2
48.1911 47.287 2
47.1804 54.2659 2
47.6308 50.798 2
44.9141 47.3692 2
45.2772 42.0303 2
45.1164 44.6743 2
42.8616 42.7384 2
40.9333 42.3416 2
45.4015 55.9412 3.98275
42.7809 39.263 3.98984
40.889 40.8101 3.96298
46.1626 48.9781 3.98119
45.5693 52.5589 3.9831
43.541 48.492 3.95674
43.4909 46.217 4.01695
43.8293 43.8297 3.93103
41.3238 43.8979 3.98671
39.3047 42.6627 3.97139
45.4685 58.8002 0.016928
43.8768 57.7242 2
42.1079 56.3497 3.98332
35.4639 67.6662 0.0121139
37.6423 65.5205 0.0138444
39.8928 63.5638 0.015132
41.7528 62.5035 0.0156829
42.4806 59.9927 0.016622
35.5734 65.4432 2
40.6224 61.662 2
37.8364 63.2258 2
40.4444 58.224 2
38.9259 56.5176 3.983
38.2498 60.345 3.98351
35.6072 63.2192 3.98482
33.5761 65.3537 0.0137929
31.9604 63.3127 0.0150923
33.6297 63.3529 2
30.3794 62.8714 2
32.1237 62.0191 2
28.6817 62.2162 3.98452
33.3461 61.5314 3.9837
31.0666 61.2356 3.98381
27.567 59.6123 3.98399
23.7881 59.1069 3.98567
25.0332 60.8895 3.98493
26.8686 61.5148 2
26.2295 63.491 3.98559
28.0631 64.159 2
27.464 66.1913 3.98764
29.8843 64.7309 0.013933
29.4072 66.7678 2
28.9066 68.9482 3.99026
31.3776 67.204 0.0121431
31.0141 69.4231 2
30.6149 71.7803 3.9941
33.1567 69.7578 0.00972079
32.8924 72.1495 2
32.6054 74.6784 4
35.1952 72.3749 0.00588483
35.0474 74.9197 2
37.5 75 0
33.7229 6.97291 3.98868
35.4344 4.68197 3.99106
35.6203 6.71811 2
37.5141 2.38546 3.9946
37.5229 4.61141 2
39.6236 4.71209 0.00897819
39.7884 2.47247 2
39.9526 0.0806499 4
42.0618 2.71625 0.00548512
42.3947 0.320817 2
44.8158 0.721173 0
44.8003 35.5139 3.98501
42.4388 34.1501 4.0022
47.7469 40.4685 -0.00914745
50.7757 38.4898 0.00889691
54.1242 36.6243 0.0166618
48.4159 37.7715 2
51.5496 35.5635 2
46.1745 35.108 2
44.0433 33.7658 2
42.0812 33.0214 2
48.5724 34.2381 3.99854
45.2669 32.99 3.93506
42.8588 32.2621 3.98849
40.9281 32.6658 4.00065
37.3097 10.6185 3.98575
37.4575 8.5251 2
37.5158 6.66767 0.0110993
39.2108 8.68422 0.0129746
38.9759 10.1157 2
34.7528 10.3682 3.98573
35.8976 9.76222 2
32.3762 9.35946 3.98666
34.1495 8.81257 2
35.9412 8.48373 0.0125761
52.5383 32.8381 0.0159668
51.4392 29.1078 0.00691371
50.8484 25.675 0.0192168
49.9539 22.1462 0.01649
47.5053 19.2078 0.0195808
45.8021 15.4102 0.0175592
43.8578 11.9098 0.015653
40.569 11.5977 0.0151731
50.1544 31.3709 2
38.3013 12.7213 2
42.1004 14.2937 2
49.3749 27.427 2
49.4445 24.3555 2
47.1942 21.8891 2
44.8004 18.4471 2
47.9346 29.5403 3.9795
47.1471 25.071 3.98054
44.2928 21.3009 3.97797
36.5809 12.9183 3.9837
38.6798 14.7925 3.98272
41.7492 17.8237 3.98172
42.9074 37.4999 3.98927
45.0823 37.5109 2
46.5199 37.5079 0.0600727
46.8403 57.3556 0.0162996
47.1802 54.2655 0.0168197
48.1915 47.2878 0.0184083
47.6305 50.7979 0.0235238
44.8091 39.5081 0.0137502
45.2792 42.0295 0.0677402
45.1113 44.6694 -0.00220089
44.9136 47.3747 0.0256623
42.8584 42.7441 0.0110834
42.4524 40.8633 -0.000684864
40.933 42.3404 -0.00386066
45.4014 55.9413 2
42.7794 39.2626 2
40.8877 40.8118 2
46.1628 48.9767 2
45.5696 52.5591 2
43.5415 48.4915 2
43.4946 46.2223 2
43.8312 43.8312 2
41.3252 43.8932 2
39.3041 42.667 2
43.7432 54.4508 3.98382
40.9667 39.1833 3.9546
39.2322 40.8813 3.95189
43.7532 50.5426 3.99132
42.0533 47.7473 4.0201
41.9874 45.2202 3.9183
39.5307 44.6715 3.98488
37.505 42.7875 3.95261
43.8769 57.7241 0.0169767
42.1078 56.3496 2
40.422 54.9565 3.98285
35.5734 65.4429 0.013843
37.8365 63.2255 0.0152671
40.6224 61.6618 0.0160137
40.4445 58.224 0.0167492
35.6071 63.2195 2
38.2498 60.3452 2
38.9257 56.5174 2
38.0008 55.2717 3.9834
36.9342 57.646 3.98246
35.3635 60.9302 3.98367
33.6297 63.3527 0.0150944
30.3794 62.8711 0.0151892
32.1237 62.0189 0.0156775
33.3461 61.5316 2
28.6817 62.2165 2
31.0666 61.2359 2
29.4024 60.305 3.98338
32.3558 59.7623 3.98354
28.0188 58.3917 3.98497
27.567 59.6124 2
25.3755 58.6166 3.98444
22.7499 58.2687 3.9845
23.3979 60.3718 3.98559
23.788 59.1071 2
25.0331 60.8897 2
24.4316 62.7846 3.98592
26.8686 61.5145 0.0158347
26.2295 63.4913 2
25.548 65.5015 3.98747
28.0631 64.1587 0.0141599
27.4639 66.1917 2
26.8365 68.3367 3.99022
29.4073 66.7675 0.0122384
28.9066 68.9486 2
28.3701 71.2655 3.99407
31.0141 69.4227 0.00970077
30.6149 71.7806 2
30.1842 74.2788 4
32.8924 72.1492 0.00590023
32.6053 74.6792 2
35.0474 74.9194 0
31.7873 7.41236 3.98842
33.3464 4.92094 3.99096
33.7228 6.9725 2
35.2444 2.46153 3.99462
35.4344 4.68161 2
35.6203 6.7185 0.0111835
37.5 0 4
37.5141 2.38519 2
37.5229 4.61177 0.00896505
39.7884 2.47274 0.00536768
39.9526 0.0802889 2
42.3946 0.32156 0
42.7729 35.7411 3.99091
44.7997 35.5162 2
40.8765 34.198 3.96354
42.4383 34.1501 2
48.4152 37.7716 -0.00849391
51.5502 35.5642 0.0250088
46.1769 35.1088 0.0595089
44.043 33.7621 0.0106138
42.081 33.0207 0.00427545
48.5713 34.2386 2
45.2632 32.9888 2
42.86 32.2673 2
40.928 32.6631 2
46.5426 31.4827 4.0024
43.8371 31.1841 3.93189
41.3285 31.107 3.98665
39.2973 32.3576 3.97065
35.6913 11.763 3.98444
37.3097 10.618 2
37.4575 8.52554 0.0124672
38.9759 10.1161 0.0136786
33.0967 11.2046 3.98506
34.7527 10.3678 2
35.8976 9.76266 0.0134329
30.4809 10.0072 3.98621
32.3761 9.35902 2
34.1495 8.813 0.0128202
50.1543 31.3686 0.0110159
49.3747 27.4266 0.0170844
49.4442 24.3556 0.018361
47.1941 21.8894 0.0203046
44.8004 18.4475 0.0193676
42.1003 14.2941 0.0170837
38.3013 12.7218 0.0163675
36.5809 12.9179 2
47.9352 29.5423 2
38.6799 14.792 2
41.7492 17.8235 2
47.1476 25.0707 2
44.2929 21.3007 2
45.6698 27.7301 3.97755
43.8258 24.0049 3.98007
41.3435 20.702 3.98026
35.7703 14.7435 3.98286
38.6803 17.5799 3.98144
41.0087 37.4893 3.94914
42.9073 37.4996 2
45.0822 37.5112 0.0132194
45.4015 55.9412 0.0172476
45.5693 52.5589 0.0169012
46.1626 48.9781 0.0188142
42.7809 39.263 0.0101553
43.8293 43.8297 0.0689695
43.4909 46.217 -0.0169511
43.541 48.492 0.0432647
41.3238 43.8979 0.0132886
40.889 40.8101 0.037024
39.3047 42.6627 0.0286064
43.7431 54.4508 2
40.965 39.1839 2
39.2313 40.8847 2
43.7533 50.544 2
42.0532 47.747 2
41.9883 45.2204 2
37.5046 42.793 2
39.5316 44.6751 2
41.8906 53.0212 3.98188
39.2267 39.1751 3.94769
37.5075 40.9222 3.95168
35.7054 42.6707 3.9771
40.9977 49.7683 4.0005
39.8676 46.1012 3.95162
37.4973 44.966 3.96243
42.1079 56.3497 0.0166829
40.4218 54.9564 2
38.7322 53.8891 3.98526
35.6072 63.2192 0.0151795
38.2498 60.345 0.0164909
38.9259 56.5176 0.0170018
35.3635 60.9304 2
36.9342 57.6461 2
38.0008 55.2712 2
36.3199 55.4025 3.98223
34.4869 58.5397 3.98278
33.3461 61.5314 0.0162953
28.6817 62.2162 0.0154819
31.0666 61.2356 0.0161867
32.3558 59.7625 2
29.4024 60.3052 2
30.2947 57.8341 3.98331
28.0188 58.3919 2
26.9362 56.8459 3.98352
27.567 59.6123 0.0160117
25.3755 58.6168 2
23.8277 56.8362 3.98361
21.324 57.4318 3.9852
21.9892 59.6471 3.986
22.7498 58.269 2
22.7346 62.0378 3.98614
23.3979 60.3721 2
23.7881 59.1069 0.0143281
25.0332 60.8895 0.0150673
24.4315 62.7849 2
23.6818 64.7205 3.98749
26.2295 63.491 0.0144095
25.548 65.5018 2
24.8091 67.5982 3.99016
27.464 66.1913 0.0123583
26.8365 68.3371 2
26.1655 70.6064 3.99406
28.9066 68.9482 0.00974181
28.3701 71.2658 2
27.7943 73.7221 4
30.6149 71.7803 0.00590229
30.1841 74.2794 2
32.6054 74.6784 0
29.8099 7.98525 3.98807
31.2517 5.32778 3.99077
31.7873 7.41194 2
32.9803 2.69955 3.99456
33.3464 4.92056 2
33.7229 6.97291 0.0113243
35.0474 0.080333 4
35.2444 2.46127 2
35.4344 4.68197 0.00894071
37.5 0 2
37.5141 2.38546 0.00540323
39.9526 0.0806499 0
40.9609 35.8057 3.95223
42.7724 35.741 2
44.8003 35.5139 0.0149852
28.542 10.6824 3.98581
39.2207 34.1419 3.95741
40.8753 34.1957 2
42.4388 34.1501 -0.00219546
48.5724 34.2381 0.00145644
45.2669 32.99 0.0649372
42.8588 32.2621 0.0115125
40.9281 32.6658 -0.000650956
46.5433 31.4845 2
43.836 31.1853 2
41.3316 31.1083 2
39.2974 32.3527 2
44.586 29.6564 4.00474
41.997 29.7933 3.92652
39.5354 30.3425 3.97685
37.4969 32.2354 3.94805
34.091 12.9205 3.98379
35.6913 11.7625 2
37.3097 10.6185 0.014253
31.1848 11.9727 3.98467
33.0966 11.2041 2
34.7528 10.3682 0.0142683
30.4809 10.0068 2
32.3762 9.35946 0.013343
47.9346 29.5403 0.0204967
47.1471 25.071 0.0194576
36.5809 12.9183 0.0163043
44.2928 21.3009 0.022027
41.7492 17.8237 0.018283
38.6798 14.7925 0.0172803
35.7703 14.7431 2
45.6708 27.73 2
38.6804 17.5794 2
41.3436 20.702 2
43.8261 24.0048 2
33.6062 15.8611 3.98233
43.1382 26.4143 3.98177
40.9279 23.2774 3.98166
38.4225 20.3117 3.97904
35.8468 17.4939 3.98165
39.2322 37.4935 3.94479
41.008 37.4889 2
42.9074 37.4999 0.0107297
43.7432 54.4508 0.0161848
43.7532 50.5426 0.00868188
40.9667 39.1833 0.0454018
41.9874 45.2202 0.0817005
42.0533 47.7473 -0.0201007
39.5307 44.6715 0.0151156
39.2322 40.8813 0.0481077
37.505 42.7875 0.0473896
41.8904 53.0212 2
39.2257 39.1767 2
37.5071 40.9258 2
40.9982 49.7665 2
35.7052 42.6759 2
39.8662 46.1038 2
37.4971 44.9721 2
39.8288 51.938 3.98189
37.5045 39.1879 3.94943
35.7856 40.8973 3.95355
34.0745 42.3563 4.00353
35.4628 44.667 3.98483
38.7606 48.8965 4.02848
37.4944 46.403 3.95036
40.422 54.9565 0.0171505
38.7323 53.8882 2
36.7193 53.2287 3.98451
35.3635 60.9302 0.0163287
36.9342 57.646 0.0175414
38.0008 55.2717 0.0166023
34.4869 58.5397 2
36.3199 55.4025 2
33.223 55.5196 3.98175
32.3558 59.7623 0.0164585
29.4024 60.305 0.0166188
30.2948 57.8342 2
28.6732 55.3288 3.98207
28.0188 58.3917 0.0150261
26.9362 56.8461 2
25.2906 55.176 3.9826
21.7892 55.3844 3.98364
25.3755 58.6166 0.0155597
23.8276 56.8365 2
20.2068 57.064 3.98566
20.6387 58.8084 3.98607
21.324 57.432 2
21.1637 61.1904 3.98669
21.9891 59.6474 2
22.7499 58.2687 0.0154967
21.8947 63.8498 3.98763
22.7346 62.038 2
23.3979 60.3718 0.0144098
24.4316 62.7846 0.0140795
23.6817 64.7208 2
22.8375 66.7424 3.99014
25.548 65.5015 0.0125253
24.8091 67.5985 2
24.0099 69.8078 3.99404
26.8365 68.3367 0.0097755
26.1655 70.6067 2
25.446 73.0099 4
28.3701 71.2655 0.00593252
27.7943 73.7222 2
30.1842 74.2788 0
27.8199 8.64454 3.98776
29.1537 5.87318 3.99054
29.8098 7.98482 2
30.7256 3.09655 3.99444
31.2517 5.32738 2
31.7873 7.41236 0.0115838
32.6053 0.320823 4
32.9803 2.69928 2
33.3464 4.92094 0.00904197
35.0474 0.0802903 2
35.2444 2.46153 0.00537692
37.5 0 0
39.2224 35.8239 3.9489
40.96 35.8043 2
42.7729 35.7411 0.00909231
28.5419 10.682 2
26.6211 11.3771 3.98591
29.2239 12.6295 3.98474
37.4966 34.1083 3.95399
39.2197 34.1383 2
40.8765 34.198 0.0364631
46.5426 31.4827 -0.00240053
43.8371 31.1841 0.0681094
41.3285 31.107 0.0133512
39.2973 32.3576 0.0293454
44.5912 29.6563 2
41.996 29.7929 2
39.537 30.338 2
37.4973 32.2296 2
42.4442 28.3388 4.01711
39.8739 28.9056 3.94643
37.4977 30.0456 3.95197
35.6987 32.3535 3.96977
31.9128 14.4664 3.9835
34.091 12.9201 2
35.6913 11.763 0.0155573
31.1847 11.9723 2
33.0967 11.2046 0.0149372
30.4809 10.0072 0.0137851
45.6698 27.7301 0.0224483
43.8258 24.0049 0.0199335
35.7703 14.7435 0.0171379
41.3435 20.702 0.0197389
38.6803 17.5799 0.0185646
33.6062 15.8606 2
35.8469 17.4935 2
43.1385 26.4124 2
38.4226 20.3112 2
40.9282 23.2776 2
33.5482 17.3713 3.98169
40.4947 25.5902 3.97639
38.0837 22.8494 3.98058
35.583 20.0638 3.9804
37.501 37.5063 3.94887
39.2318 37.4933 2
41.0087 37.4893 0.0508585
41.8906 53.0212 0.0181183
40.9977 49.7683 -0.000498917
39.2267 39.1751 0.0523096
39.8676 46.1012 0.0483834
37.4973 44.966 0.0375683
37.5075 40.9222 0.0483195
35.7054 42.6707 0.0229035
39.8291 51.9366 2
37.5043 39.1895 2
35.786 40.9012 2
38.7607 48.8978 2
34.0739 42.3586 2
35.4611 44.6714 2
37.4915 46.4076 2
37.6603 51.0794 3.9785
35.7868 39.1972 3.94685
34.135 40.8318 3.96201
32.9195 42.0022 3.99922
33.6705 43.9092 3.9859
35.1314 46.103 3.94419
36.8743 48.5007 4.03333
38.7322 53.8891 0.014736
36.7192 53.2286 2
34.3471 52.5024 3.98317
34.4869 58.5397 0.0172244
36.3199 55.4025 0.0177684
33.2231 55.5193 2
30.4962 53.4358 3.98033
30.2947 57.8341 0.0166935
28.6732 55.329 2
26.8513 53.48 3.98101
26.9362 56.8459 0.016481
25.2905 55.1763 2
23.5396 53.5249 3.98188
20.4337 53.272 3.98293
19.9154 55.8697 3.98519
21.7891 55.3846 2
23.8277 56.8362 0.0163944
19.4292 57.9238 3.98588
20.2067 57.0642 2
19.7021 60.2271 3.98664
20.6386 58.8086 2
21.324 57.4318 0.0148039
20.2063 62.8731 3.9879
21.1637 61.1907 2
21.9892 59.6471 0.0139973
20.9389 65.7725 3.99021
21.8947 63.8501 2
22.7346 62.0378 0.013858
23.6818 64.7205 0.0125072
22.8375 66.7428 2
21.9126 68.8752 3.99403
24.8091 67.5982 0.00983695
24.0099 69.808 2
23.1494 72.1454 4
26.1655 70.6064 0.00594388
25.446 73.0099 2
27.7943 73.7221 0
25.8593 9.37223 3.98763
27.0687 6.53685 3.99032
27.8199 8.64412 2
28.4879 3.6423 3.9943
29.1538 5.87277 2
29.8099 7.98525 0.0119318
30.1841 0.720592 4
30.7256 3.09627 2
31.2517 5.32778 0.00922635
32.6053 0.320817 2
32.9803 2.69955 0.00543556
35.0474 0.080333 0
37.4979 35.8301 3.94927
39.2221 35.8221 2
40.9609 35.8057 0.047775
24.776 12.0594 3.98605
23.7498 14.3423 3.98553
28.542 10.6824 0.0141864
26.621 11.3768 2
29.2238 12.6292 2
27.29 13.3617 3.98481
29.7788 14.1883 3.98446
35.7768 34.135 3.95555
37.4963 34.1046 2
39.2207 34.1419 0.0425943
37.4969 32.2354 0.0519457
44.586 29.6564 -0.00474154
41.997 29.7933 0.073481
39.5354 30.3425 0.0231546
42.447 28.3362 2
39.8731 28.902 2
37.4983 30.0382 2
35.6994 32.349 2
40.0968 27.4951 4.026
37.4978 28.6008 3.94629
35.4597 30.3398 3.97653
34.0727 32.6655 3.99951
30.9244 16.823 3.98375
31.9128 14.466 2
34.091 12.9205 0.0162077
31.1848 11.9727 0.0153338
43.1382 26.4143 0.0182297
40.9279 23.2774 0.0183411
33.6062 15.8611 0.0176666
35.8468 17.4939 0.0183515
38.4225 20.3117 0.0209648
33.5482 17.3708 2
35.5831 20.0634 2
40.4947 25.5871 2
38.084 22.8488 2
32.8602 19.7812 3.97986
37.7863 25.1705 3.97546
35.2048 22.6255 3.97954
35.7727 37.5134 3.94327
37.5011 37.5062 2
39.2322 37.4935 0.0552089
39.8288 51.938 0.0181103
38.7606 48.8965 -0.0284759
37.5045 39.1879 0.0505738
37.4944 46.403 0.0496441
35.4628 44.667 0.0151652
35.7856 40.8973 0.0464461
34.0745 42.3563 -0.00352836
37.6601 51.0796 2
35.7873 39.1992 2
34.1357 40.834 2
36.8742 48.5052 2
32.9186 42.0023 2
33.6681 43.9072 2
35.1319 46.1068 2
35.4032 50.259 3.98327
34.055 39.2092 3.95256
32.5621 40.8758 4.0013
32.1396 42.758 3.98879
33.0103 45.2279 3.92197
34.2348 47.5235 4.02508
36.7193 53.2287 0.0154858
34.3473 52.5016 2
31.9579 51.2758 3.98182
33.223 55.5196 0.0182462
30.4963 53.4357 2
28.3826 51.681 3.97902
28.6732 55.3288 0.0179326
26.8513 53.4803 2
25.0305 51.8238 3.9798
25.2906 55.176 0.0174012
23.5396 53.525 2
21.917 51.8629 3.98237
19.1576 51.6845 3.98314
18.8963 54.3497 3.98406
20.4337 53.2719 2
18.4345 56.7578 3.98598
19.9153 55.8699 2
21.7892 55.3844 0.0163572
18.3626 59.1377 3.98639
19.4291 57.9239 2
20.2068 57.064 0.0143438
18.6163 61.783 3.98784
19.7021 60.2273 2
20.6387 58.8084 0.0139277
19.1274 64.6846 3.9903
20.2063 62.8734 2
21.1637 61.1904 0.0133058
19.8867 67.8123 3.99407
20.9389 65.7728 2
21.8947 63.8498 0.0123662
22.8375 66.7424 0.00986005
21.9126 68.8754 2
20.9142 71.1327 4
24.0099 69.8078 0.00595659
23.1494 72.1455 2
25.446 73.0099 0
23.0953 12.7733 3.98612
23.9721 10.1583 3.98755
25.0228 7.3066 3.99017
25.8593 9.37186 2
26.2797 4.32633 3.99414
27.0687 6.53644 2
27.8199 8.64454 0.0122441
27.7943 1.27781 4
28.4879 3.64201 2
29.1537 5.87318 0.00945798
30.1841 0.720551 2
30.7256 3.09655 0.0055561
32.6053 0.320823 0
35.7753 35.8315 3.94642
37.4984 35.8283 2
39.2224 35.8239 0.0510997
24.7759 12.0591 2
23.7497 14.342 2
22.478 15.0175 3.9857
25.3561 13.8926 3.98529
24.0225 15.6032 3.9852
26.6211 11.3771 0.0140934
29.2239 12.6295 0.0152607
27.29 13.3614 2
29.7787 14.1879 2
28.355 15.9616 3.98433
34.13 34.1976 3.96193
35.7772 34.1317 2
37.4966 34.1083 0.0460105
35.6987 32.3535 0.0302345
37.4977 30.0456 0.0480311
42.4442 28.3388 -0.0171133
39.8739 28.9056 0.0535654
40.098 27.4909 2
37.4989 28.5926 2
35.4595 30.3358 2
34.0733 32.6632 2
37.5999 27.1406 4.02943
35.1184 28.9016 3.94628
33.667 31.1077 3.98666
32.9209 33.0272 3.99698
30.2048 19.3251 3.98482
30.9244 16.8227 2
31.9128 14.4664 0.0164959
40.4947 25.5902 0.0236057
38.0837 22.8494 0.0194173
33.5482 17.3713 0.0183124
35.583 20.0638 0.0196002
32.8603 19.7807 2
35.205 22.6251 2
37.7859 25.17 2
32.3059 22.3985 3.98045
34.9311 25.1362 3.97354
34.0022 37.5153 3.94815
35.7733 37.5136 2
37.501 37.5063 0.0511286
37.6603 51.0794 0.0215005
36.8743 48.5007 -0.0333315
35.7868 39.1972 0.0531451
35.1314 46.103 0.055807
33.6705 43.9092 0.0141046
34.135 40.8318 0.0379902
32.9195 42.0022 0.000782351
35.4031 50.2575 2
34.0561 39.2103 2
32.5624 40.8761 2
34.2342 47.5291 2
32.137 42.753 2
33.0106 45.2299 2
33.1527 49.2501 3.98377
32.2318 39.2815 3.99171
30.95 41.2634 3.98925
31.1669 43.8414 3.93064
32.1347 46.461 4.0178
34.3471 52.5024 0.0168268
31.9581 51.2753 2
29.7784 49.7967 3.98019
30.4962 53.4358 0.0196652
28.3825 51.6814 2
26.4329 50.0683 3.97744
26.8513 53.48 0.0189905
25.0305 51.8238 2
23.2741 50.2621 3.98269
23.5396 53.5249 0.0181201
21.9171 51.8627 2
20.4086 50.3711 3.98363
17.9416 50.3768 3.98461
17.8011 52.8349 3.98383
19.1578 51.6844 2
17.419 55.3765 3.98514
18.8963 54.3497 2
20.4337 53.272 0.017068
17.1265 57.9022 3.98659
18.4344 56.758 2
19.9154 55.8697 0.0148136
17.1328 60.569 3.98755
18.3626 59.1379 2
19.4292 57.9238 0.0141171
17.4073 63.4788 3.9903
18.6163 61.7833 2
19.7021 60.2271 0.0133617
17.9428 66.6213 3.9941
19.1274 64.685 2
20.2063 62.8731 0.0120979
18.75 69.9759 4
19.8867 67.8125 2
20.9389 65.7725 0.0097935
21.9126 68.8752 0.00596506
20.9142 71.1327 2
23.1494 72.1454 0
21.5858 13.5922 3.98622
22.1903 11.0168 3.9875
23.0952 12.773 2
23.041 8.17148 3.99011
23.972 10.1579 2
24.1174 5.14085 3.994
25.0228 7.30621 2
25.8593 9.37223 0.0123732
25.446 1.99014 4
26.2797 4.32603 2
27.0687 6.53685 0.00967895
27.7943 1.27778 2
28.4879 3.6423 0.00570084
30.1841 0.720592 0
34.0416 35.8208 3.95032
35.7765 35.8299 2
37.4979 35.8301 0.0507308
21.3026 15.8113 3.98561
24.776 12.0594 0.013952
23.7498 14.3423 0.0144715
25.3561 13.8923 2
22.478 15.0172 2
24.0225 15.6029 2
23.2613 16.2335 3.98508
25.378 16.0715 3.98491
27.29 13.3617 0.0151919
29.7788 14.1883 0.0155421
28.3549 15.9613 2
27.436 18.7812 3.98458
32.5646 34.1589 4.00302
34.1306 34.1956 2
35.7768 34.135 0.0444488
34.0727 32.6655 0.000487745
35.4597 30.3398 0.0234681
37.4978 28.6008 0.053714
40.0968 27.4951 -0.0259989
37.5995 27.1365 2
32.9209 33.0279 2
35.1203 28.8988 2
33.665 31.1096 2
35.0054 27.2934 4.02115
32.9967 29.7969 3.92669
32.1425 32.2713 3.99019
29.5654 21.9195 3.9865
30.2048 19.3247 2
30.9244 16.823 0.0162459
37.7863 25.1705 0.0245425
35.2048 22.6255 0.0204577
32.8602 19.7812 0.0201418
32.3061 22.3982 2
34.9306 25.1343 2
31.6124 25.574 3.9786
32.0966 37.5189 3.98874
34.0033 37.5153 2
35.7727 37.5134 0.0567253
35.4032 50.259 0.0167298
34.2348 47.5235 -0.0250754
34.055 39.2092 0.0474429
33.0103 45.2279 0.0780285
32.1396 42.758 0.0112147
32.5621 40.8758 -0.00129654
33.1526 49.2484 2
32.2327 39.2815 2
30.9496 41.26 2
32.1325 46.4671 2
31.1667 43.8414 2
31.019 47.9629 3.97769
30.1958 39.5128 3.98655
29.7287 42.038 3.93198
30.224 45.062 4.00311
31.9579 51.2758 0.0181765
29.7784 49.7981 2
27.7613 48.2632 3.98048
28.3826 51.681 0.0209777
26.4329 50.068 2
24.5543 48.5437 3.98399
25.0305 51.8238 0.0202034
23.2742 50.2617 2
21.5747 48.8526 3.98577
21.917 51.8629 0.017634
20.4088 50.3707 2
18.9742 49.1429 3.98611
16.8478 49.3737 3.98603
16.7376 51.4488 3.98444
17.9417 50.3767 2
16.3662 53.9077 3.98469
17.8011 52.8349 2
19.1576 51.6845 0.0168586
15.9652 56.5059 3.98621
17.4189 55.3767 2
18.8963 54.3497 0.0159368
15.745 59.2322 3.98748
17.1264 57.9024 2
18.4345 56.7578 0.014019
15.7872 62.1513 3.9901
17.1328 60.5693 2
18.3626 59.1377 0.0136068
16.0893 65.3044 3.99412
17.4073 63.4792 2
18.6163 61.783 0.0121589
16.6661 68.6801 4
17.9428 66.6215 2
19.1274 64.6846 0.0096994
18.75 69.9759 2
19.8867 67.8123 0.0059325
20.9142 71.1327 0
20.2173 14.5792 3.98614
21.5858 13.5919 2
20.5295 11.9856 3.9875
21.1442 9.14067 3.99006
22.1902 11.0164 2
23.0953 12.7733 0.0138822
22.0166 6.07962 3.99396
23.041 8.1711 2
23.9721 10.1583 0.012449
23.1494 2.85457 4
24.1174 5.14055 2
25.0228 7.3066 0.00983008
25.446 1.99012 2
26.2797 4.32633 0.0058625
27.7943 1.27781 0
32.2252 35.7553 3.99103
34.0435 35.8197 2
35.7753 35.8315 0.0535796
21.3025 15.811 2
20.2988 16.9426 3.98586
22.094 16.6161 3.98537
25.3561 13.8926 0.0147143
22.478 15.0175 0.0143031
24.0225 15.6032 0.0148028
25.3779 16.0712 2
23.2613 16.2332 2
24.2 18.4307 3.98455
27.0026 21.4385 3.98434
28.355 15.9616 0.0156657
27.436 18.7809 2
30.9576 33.7777 3.98766
32.5643 34.1584 2
34.13 34.1976 0.038074
32.9209 33.0272 0.00301576
33.667 31.1077 0.0133423
35.1184 28.9016 0.0537172
37.5999 27.1406 -0.029425
35.0047 27.2895 2
32.1422 32.2759 2
32.9991 29.7976 2
32.4063 28.0335 4.01275
31.1613 31.1992 3.93462
28.7348 24.3873 3.98755
29.5656 21.9191 2
30.2048 19.3251 0.0151757
34.9311 25.1362 0.0264571
32.3059 22.3985 0.01955
31.6111 25.5737 2
29.5178 27.2006 3.99121
29.9141 37.519 3.98619
32.0972 37.5191 2
34.0022 37.5153 0.0518471
33.1527 49.2501 0.0162265
32.1347 46.461 -0.0177971
32.2318 39.2815 0.00828838
31.1669 43.8414 0.0693608
30.95 41.2634 0.0107477
31.0188 47.9581 2
30.1967 39.5113 2
29.7318 42.0398 2
30.2198 45.0671 2
29.0204 46.5086 3.97523
28.8164 39.9141 3.93887
28.4373 43.2799 4.00365
29.7784 49.7967 0.0198129
27.7613 48.262 2
25.8081 46.7327 3.98889
26.4329 50.0683 0.0225606
24.5545 48.5432 2
22.6977 47.1498 3.99064
23.2741 50.2621 0.0173106
21.575 48.8521 2
19.9098 47.6721 3.98851
20.4086 50.3711 0.0163746
18.9743 49.1429 2
17.6166 48.2221 3.98693
16.099 48.7216 3.98654
16.8479 49.3736 2
15.8132 50.2088 3.98546
15.3522 52.4518 3.98479
16.7377 51.4488 2
17.9416 50.3768 0.0153907
14.8536 55.0082 3.98563
16.3662 53.9078 2
17.8011 52.8349 0.0161725
14.4529 57.7628 3.9873
15.9651 56.5061 2
17.419 55.3765 0.014857
14.2648 60.7077 3.98988
15.745 59.2325 2
17.1265 57.9022 0.0134143
14.3332 63.8641 3.99401
15.7873 62.1516 2
17.1328 60.569 0.0124548
14.6715 67.2507 4
16.0893 65.3047 2
17.4073 63.4788 0.00970373
16.6661 68.6801 2
17.9428 66.6213 0.00589707
18.75 69.9759 0
18.9302 15.7636 3.98621
20.2173 14.5789 2
18.9789 13.0948 3.98742
21.5858 13.5922 0.0137841
20.5295 11.9852 2
19.3437 10.2277 3.99002
19.9913 7.14402 3.99395
21.1442 9.14027 2
22.1903 11.0168 0.0125019
20.9142 3.86727 4
22.0166 6.07932 2
23.041 8.17148 0.00988955
23.1494 2.85451 2
24.1174 5.14085 0.00599933
25.446 1.99014 0
30.1936 35.5248 3.98758
32.2269 35.7552 2
34.0416 35.8208 0.0496828
21.3026 15.8113 0.0143943
22.094 16.6158 2
20.2987 16.9423 2
19.236 18.3864 3.98583
21.7775 17.8295 3.98534
25.378 16.0715 0.0150944
23.2613 16.2335 0.014916
24.2 18.4304 2
22.268 19.8673 3.98517
24.5777 21.2965 3.98438
26.3681 23.6961 3.98735
27.0028 21.4382 2
27.436 18.7812 0.0154249
29.7368 33.0057 3.93463
30.9566 33.7814 2
32.5646 34.1589 -0.00301849
32.1425 32.2713 0.0098111
32.9967 29.7969 0.0733099
35.0054 27.2934 -0.021154
32.4052 28.0309 2
31.1635 31.2014 2
29.9118 29.4811 4.00427
27.7698 26.5112 3.97726
28.7341 24.3866 2
29.5654 21.9195 0.0135029
31.6124 25.574 0.0214001
29.5165 27.2005 2
28.4742 37.5173 3.94247
29.9145 37.5199 2
32.0966 37.5189 0.0112599
31.019 47.9629 0.0223059
30.224 45.062 -0.00311443
30.1958 39.5128 0.0134515
29.7287 42.038 0.0680206
29.0207 46.5053 2
28.8192 39.9148 2
28.4364 43.2806 2
27.0816 44.8679 3.97658
26.5469 40.6672 4.00244
27.7613 48.2632 0.0195222
25.8086 46.7319 2
23.8339 45.2806 3.99295
24.5543 48.5437 0.0160113
22.6979 47.149 2
20.8271 45.9532 3.99105
21.5747 48.8526 0.0142308
19.9099 47.6721 2
18.2539 46.7811 3.98778
18.9742 49.1429 0.0138938
17.6166 48.2221 2
16.2854 47.7505 3.98634
16.099 48.7216 2
15.1581 49.0507 3.98594
16.8478 49.3737 0.0139667
15.8133 50.2088 2
14.4636 51.0185 3.98525
13.8129 53.4643 3.98541
15.3522 52.4519 2
16.7376 51.4488 0.0155557
13.2461 56.1917 3.98687
14.8536 55.0084 2
16.3662 53.9077 0.0153147
12.8467 59.1427 3.98955
14.4529 57.7631 2
15.9652 56.5059 0.0137924
12.6784 62.3072 3.99384
14.2648 60.708 2
15.745 59.2322 0.0125193
12.7746 65.6939 4
14.3333 63.8644 2
15.7872 62.1513 0.00989556
14.6714 67.2507 2
16.0893 65.3044 0.00588477
16.6661 68.6801 0
17.6635 17.1364 3.98617
18.9302 15.7633 2
17.5097 14.3567 3.9873
20.2173 14.5792 0.0138634
18.9789 13.0944 2
17.6392 11.4454 3.98995
20.5295 11.9856 0.0124987
19.3437 10.2273 2
18.0516 8.3365 3.99394
18.75 5.0241 4
19.9913 7.14371 2
21.1442 9.14067 0.00993735
20.9142 3.86727 2
22.0166 6.07962 0.0060444
23.1494 2.85457 0
28.8041 35.1225 3.93851
30.1954 35.529 2
32.2252 35.7553 0.00896653
22.094 16.6161 0.0146348
20.2988 16.9426 0.0141441
21.7775 17.8292 2
19.2359 18.3861 2
17.9684 19.915 3.98587
20.8675 19.3532 3.98546
24.2 18.4307 0.0154483
22.268 19.867 2
24.5777 21.2961 2
22.3388 21.6883 3.98526
24.6559 23.1399 3.98653
25.3678 25.9215 3.98194
26.3676 23.6955 2
27.0026 21.4385 0.015664
28.1004 32.2585 4.00802
29.7388 33.0051 2
30.9576 33.7777 0.0123375
31.1613 31.1992 0.065375
32.4063 28.0335 -0.0127483
29.9108 29.4801 2
26.8675 29.1209 3.96516
27.7684 26.5106 2
28.7348 24.3873 0.0124509
29.5178 27.2006 0.00878978
26.6577 37.3548 4.00713
28.4767 37.5163 2
29.9141 37.519 0.0138073
29.0204 46.5086 0.0247668
28.4373 43.2799 -0.00364968
28.8164 39.9141 0.0611345
27.0824 44.8663 2
26.5477 40.6664 2
25.0469 43.2291 3.98949
23.8002 39.4451 3.97589
25.8081 46.7327 0.0111083
23.8345 45.2812 2
21.7907 44.0029 3.98907
22.6977 47.1498 0.00936313
20.8272 45.9535 2
18.9047 45.0115 3.98708
19.9098 47.6721 0.0114914
18.254 46.7811 2
16.5694 46.2471 3.98586
17.6166 48.2221 0.0130722
16.2854 47.7506 2
14.8845 47.7026 3.98566
16.099 48.7216 0.0134571
15.1581 49.0508 2
13.7597 49.5768 3.98548
15.8132 50.2088 0.0145413
14.4637 51.0186 2
12.8777 51.9018 3.98547
12.1318 54.5502 3.98649
13.8129 53.4644 2
15.3522 52.4518 0.015207
11.5304 57.4757 3.98896
13.2461 56.1919 2
14.8536 55.0082 0.0143684
11.133 60.6341 3.99367
12.8467 59.1431 2
14.4529 57.7628 0.0126995
10.9835 64.0165 4
12.6784 62.3076 2
14.2648 60.7077 0.0101216
12.7745 65.694 2
14.3332 63.8641 0.00598638
14.6715 67.2507 0
16.3939 18.6272 3.98629
17.6634 17.1361 2
16.1 15.7635 3.98717
18.9302 15.7636 0.0137943
17.5097 14.3563 2
16.0206 12.7971 3.9898
18.9789 13.0948 0.0125769
17.6392 11.445 2
16.2027 9.65907 3.99391
19.3437 10.2277 0.00997848
18.0516 8.33618 2
16.6661 6.31991 4
18.75 5.02404 2
19.9913 7.14402 0.00604978
20.9142 3.86727 0
27.17 34.7245 4.00991
28.8069 35.1218 2
30.1936 35.5248 0.0124206
16.6641 21.3466 3.98519
21.7775 17.8295 0.01466
19.236 18.3864 0.0141696
20.8674 19.3529 2
17.9684 19.9148 2
19.7061 21.5421 3.98608
22.268 19.8673 0.014826
24.5777 21.2965 0.0156154
22.3388 21.6878 2
24.6555 23.1394 2
22.7883 24.5695 3.98369
24.4203 28.5037 3.9777
25.3668 25.9211 2
26.3681 23.6961 0.0126549
25.9467 31.7056 3.97714
28.1 32.2583 2
29.7368 33.0057 0.0653726
29.9118 29.4811 -0.00427109
26.8666 29.1216 2
27.7698 26.5112 0.0227427
24.4779 36.872 3.98399
26.6571 37.3552 2
28.4742 37.5173 0.0575345
27.0816 44.8679 0.023424
26.5469 40.6672 -0.00244452
25.0471 43.2279 2
23.8006 39.4464 2
22.8302 41.8398 3.9826
21.5618 38.5086 3.98418
23.8339 45.2806 0.00705048
21.7911 44.0038 2
19.6459 42.9233 3.98497
20.8271 45.9532 0.0089528
18.9048 45.0116 2
16.8916 44.4103 3.98486
18.2539 46.7811 0.0122222
16.5694 46.2472 2
14.8008 46.1196 3.98484
16.2854 47.7505 0.0136566
14.8845 47.7027 2
13.2642 48.0365 3.98516
15.1581 49.0507 0.014065
13.7597 49.577 2
12.0951 50.2781 3.98549
14.4636 51.0185 0.0147484
12.8778 51.902 2
11.126 52.858 3.98626
10.3199 55.7276 3.98835
12.1318 54.5504 2
13.8129 53.4643 0.0145867
9.69961 58.8577 3.99335
11.5304 57.4761 2
13.2461 56.1917 0.0131292
9.30605 62.2254 4
11.133 60.6345 2
12.8467 59.1427 0.0104538
10.9835 64.0165 2
12.6784 62.3072 0.00615549
12.7746 65.6939 0
15.1357 20.1588 3.98592
16.3938 18.6269 2
14.7446 17.284 3.98699
17.6635 17.1364 0.0138259
16.1 15.7632 2
14.4828 14.2769 3.9896
17.5097 14.3567 0.0126979
16.0206 12.7967 2
14.4453 11.1097 3.9938
17.6392 11.4454 0.0100494
16.2028 9.65873 2
14.6715 7.74927 4
18.0516 8.3365 0.00605691
16.6661 6.31988 2
18.75 5.0241 0
25.1199 34.2784 3.98816
27.1693 34.7243 2
28.8041 35.1225 0.0614921
17.8319 22.2907 3.98643
15.504 22.8883 3.98447
16.6639 21.3463 2
20.8675 19.3532 0.0145446
17.9684 19.915 0.0141324
19.706 21.5417 2
19.6179 24.3475 3.98524
22.3388 21.6883 0.0147423
24.6559 23.1399 0.0134666
22.7876 24.569 2
21.8121 27.794 3.97781
23.5786 31.1648 3.98273
24.4196 28.504 2
25.3678 25.9215 0.0180644
25.9467 31.7075 2
28.1004 32.2585 -0.0080173
26.8675 29.1209 0.0348377
22.2655 36.2643 3.99149
24.4776 36.873 2
26.6577 37.3548 -0.0071312
25.0469 43.2291 0.0105129
23.8002 39.4451 0.0241085
22.83 41.8405 2
21.5621 38.5087 2
20.5563 40.6529 3.98165
19.9297 37.7854 3.98666
21.7907 44.0029 0.0109321
19.6462 42.9236 2
17.2793 42.1239 3.98345
18.9047 45.0115 0.0129155
16.8917 44.4104 2
14.7977 44.2249 3.98347
16.5694 46.2471 0.0141448
14.8008 46.1197 2
12.9334 46.3202 3.98443
14.8845 47.7026 0.0143365
13.2642 48.0367 2
11.4647 48.5726 3.98519
13.7597 49.5768 0.0145176
12.0951 50.2783 2
10.2506 51.0998 3.98608
12.8777 51.9018 0.0145304
11.126 52.8582 2
9.2279 53.9048 3.98788
8.38323 56.9915 3.99292
10.3199 55.728 2
12.1318 54.5502 0.013509
7.74927 60.3285 4
9.69964 58.858 2
11.5304 57.4757 0.0110353
9.306 62.2255 2
11.133 60.6341 0.00632998
10.9835 64.0165 0
13.9447 21.7239 3.98552
15.1356 20.1585 2
13.4438 18.879 3.9868
16.3939 18.6272 0.0137076
14.7446 17.2836 2
13.0278 15.8677 3.98928
16.1 15.7635 0.0128263
14.4828 14.2765 2
12.7825 12.6824 3.99364
16.0206 12.7971 0.0101994
14.4454 11.1093 2
12.7746 9.30605 4
16.2027 9.65907 0.00609437
14.6715 7.74924 2
16.6661 6.31991 0
22.864 33.7818 3.99101
25.1197 34.2796 2
27.17 34.7245 -0.00990747
17.5905 24.009 3.98537
17.8317 22.2904 2
14.2828 24.4208 3.98342
15.5037 22.8879 2
16.6641 21.3466 0.0148099
18.9599 27.1707 3.97998
19.7061 21.5421 0.0139169
19.6173 24.3471 2
21.0377 30.639 3.98042
22.7883 24.5695 0.0163123
21.8115 27.7941 2
23.5786 31.1656 2
24.4203 28.5037 0.0222989
25.9467 31.7056 0.0228604
20.0407 35.9145 3.98909
22.2652 36.2645 2
24.4779 36.872 0.0160109
22.8302 41.8398 0.0174026
21.5618 38.5086 0.0158201
20.5564 40.6528 2
19.9297 37.7856 2
17.9375 39.0104 3.98485
19.6459 42.9233 0.0150285
17.2795 42.124 2
14.7398 41.9358 3.98306
16.8916 44.4103 0.0151381
14.7978 44.225 2
12.6705 44.4124 3.9834
14.8008 46.1196 0.0151579
12.9334 46.3203 2
10.9646 46.7537 3.98454
13.2642 48.0365 0.0148359
11.4647 48.5729 2
9.51269 49.2576 3.98575
12.0951 50.2781 0.0145087
10.2506 51.1 2
8.26008 52.0162 3.98756
11.126 52.858 0.0137407
9.22791 53.9051 2
7.19219 55.0424 3.99247
6.31991 58.3339 4
8.38326 56.9918 2
10.3199 55.7276 0.0116536
7.74924 60.3285 2
9.69961 58.8577 0.00664829
9.30605 62.2254 0
13.2029 25.3367 3.98532
12.809 23.2534 3.98493
13.9445 21.7235 2
12.2272 20.527 3.98663
15.1357 20.1588 0.014078
13.4437 18.8786 2
11.6568 17.5473 3.98892
14.7446 17.284 0.0130101
13.0278 15.8672 2
11.2198 14.3664 3.99343
14.4828 14.2769 0.0104044
12.7825 12.682 2
10.9835 10.9835 4
14.4453 11.1097 0.00620402
12.7745 9.306 2
14.6715 7.74927 0
20.4362 33.3761 3.98707
22.8637 33.7823 2
25.1199 34.2784 0.011839
15.8563 26.3711 3.98202
17.5901 24.0087 2
17.8319 22.2907 0.0135656
14.2825 24.4205 2
15.504 22.8883 0.0155305
18.2911 30.1476 3.97983
18.9594 27.1706 2
19.6179 24.3475 0.0147588
21.0377 30.6396 2
21.8121 27.794 0.022191
23.5786 31.1648 0.0172694
17.5551 35.9585 3.98965
20.0403 35.9149 2
22.2655 36.2643 0.0085108
20.5563 40.6529 0.018349
19.9297 37.7854 0.0133373
17.9376 39.0105 2
14.2388 39.1845 3.98567
17.2793 42.1239 0.0165534
14.74 41.9359 2
12.3547 42.2923 3.98399
14.7977 44.2249 0.0165321
12.6705 44.4125 2
10.5398 44.8193 3.98387
12.9334 46.3202 0.0155739
10.9646 46.7539 2
8.89408 47.3345 3.98517
11.4647 48.5726 0.0148103
9.51266 49.2579 2
7.42634 50.0479 3.98726
10.2506 51.0998 0.0139218
8.26008 52.0165 2
6.1326 53.0173 3.99203
9.2279 53.9048 0.012116
7.19222 55.0428 2
5.0241 56.25 4
6.31988 58.3339 2
8.38323 56.9915 0.00708423
7.74927 60.3285 0
13.4352 26.7901 3.98283
11.9207 24.7643 3.9842
13.2026 25.3365 2
11.1282 22.212 3.98618
12.8088 23.2531 2
13.9447 21.7239 0.014481
12.2271 20.5265 2
10.3859 19.3015 3.98856
13.4438 18.879 0.0131997
11.6568 17.5468 2
9.76066 16.1487 3.99322
13.0278 15.8677 0.0107247
11.2198 14.366 2
9.30607 12.7746 4
12.7825 12.6824 0.00636302
10.9835 10.9835 2
12.7746 9.30605 0
17.7461 33.0946 3.98519
20.4359 33.3766 2
22.864 33.7818 0.00899301
15.4362 29.614 3.9811
15.8559 26.371 2
17.5905 24.009 0.0146271
14.2828 24.4208 0.0165794
18.291 30.1479 2
18.9599 27.1707 0.0200249
21.0377 30.639 0.0195825
14.8244 36.0148 3.98818
17.5547 35.9588 2
20.0407 35.9145 0.0109069
12.5411 37.8329 3.9851
17.9375 39.0104 0.0151456
14.2388 39.1847 2
11.8645 40.152 3.986
14.7398 41.9358 0.01694
12.3547 42.2924 2
10.1374 42.7911 3.9837
12.6705 44.4124 0.0166033
10.5398 44.8194 2
8.37092 45.3341 3.98472
10.9646 46.7537 0.01546
8.89405 47.3347 2
6.71712 48.0115 3.98687
9.51269 49.2576 0.014249
7.42631 50.0482 2
5.20907 50.9202 3.99151
8.26008 52.0162 0.0124421
6.13263 53.0177 2
3.86727 54.0858 4
7.19219 55.0424 0.00752895
5.02404 56.25 2
6.31991 58.3339 0
12.8872 29.0134 3.98135
11.3487 26.467 3.98353
13.4349 26.79 2
10.1862 23.9478 3.98519
11.9205 24.764 2
13.2029 25.3367 0.0146783
9.23698 21.1211 3.988
11.1281 22.2117 2
12.809 23.2534 0.0150711
12.2272 20.527 0.0133736
10.3859 19.301 2
8.41651 18.0185 3.993
11.6568 17.5473 0.0110806
9.76071 16.1482 2
7.74928 14.6715 4
11.2198 14.3664 0.00656669
9.30602 12.7745 2
10.9835 10.9835 0
14.4213 32.8476 3.98435
17.7458 33.095 2
20.4362 33.3761 0.0129273
15.4361 29.6142 2
15.8563 26.3711 0.01798
18.2911 30.1476 0.0201666
12.8265 36.207 3.9863
14.824 36.015 2
17.5551 35.9585 0.0103486
12.5409 37.8331 2
11.2218 38.3161 3.98486
14.2388 39.1845 0.0143318
11.8645 40.1522 2
9.72076 40.7639 3.98526
12.3547 42.2923 0.0160093
10.1374 42.7912 2
7.91923 43.2803 3.9844
10.5398 44.8193 0.0161256
8.37092 45.3342 2
6.12282 45.9151 3.98656
8.89408 47.3345 0.0148298
6.71709 48.0118 2
4.42031 48.7602 3.99089
7.42634 50.0479 0.012741
5.20908 50.9206 2
2.85457 51.8506 4
6.1326 53.0173 0.00796723
3.86727 54.0858 2
5.0241 56.25 0
12.0253 31.2408 3.98462
10.7596 28.3982 3.9823
12.8871 29.0135 2
9.40003 25.781 3.98448
11.3485 26.4668 2
13.4352 26.7901 0.017169
8.2233 23.0081 3.98708
10.186 23.9475 2
11.9207 24.7643 0.0158045
7.1985 19.9678 3.99256
9.23691 21.1207 2
11.1282 22.212 0.0138156
10.3859 19.3015 0.011436
8.41654 18.018 2
6.31992 16.6661 4
9.76066 16.1487 0.00677556
7.74926 14.6714 2
9.30607 12.7746 0
12.0367 34.2862 3.98341
14.4211 32.8478 2
17.7461 33.0946 0.0148059
15.4362 29.614 0.0189029
10.7864 36.6119 3.98553
12.8262 36.2073 2
14.8244 36.0148 0.0118184
12.5411 37.8329 0.0148996
11.2216 38.3163 2
9.31445 38.8295 3.98547
11.8645 40.152 0.0140007
9.72074 40.7641 2
7.52947 41.2189 3.98523
10.1374 42.7911 0.0163029
7.91921 43.2805 2
5.63431 43.7764 3.98628
8.37092 45.3341 0.0152767
6.1228 45.9153 2
3.76567 46.5451 3.99037
6.71712 48.0115 0.0131341
4.42031 48.7606 2
1.99014 49.554 4
5.20907 50.9202 0.00849058
2.85451 51.8506 2
3.86727 54.0858 0
10.8883 32.9077 3.98445
10.071 30.3688 3.9837
12.0251 31.2409 2
8.70735 27.7179 3.98355
10.7595 28.3982 2
12.8872 29.0134 0.0186531
7.34824 24.9694 3.98647
9.39984 25.7808 2
11.3487 26.467 0.0164681
6.11522 21.9917 3.99174
8.2232 23.0077 2
10.1862 23.9478 0.0148092
5.02411 18.75 4
7.19851 19.9673 2
9.23698 21.1211 0.011996
8.41651 18.0185 0.00700362
6.3199 16.6661 2
7.74928 14.6715 0
10.4011 34.9958 3.98394
12.0364 34.2864 2
14.4213 32.8476 0.015654
8.98831 36.9863 3.98537
10.7862 36.6121 2
12.8265 36.207 0.0136959
11.2218 38.3161 0.0151376
9.31433 38.8297 2
7.20888 39.1868 3.98586
9.72076 40.7639 0.0147386
7.52943 41.2191 2
5.24923 41.62 3.98636
7.91923 43.2803 0.0156013
5.63427 43.7766 2
3.24307 44.2888 3.99006
6.12282 45.9151 0.0134384
3.76567 46.5454 2
1.27781 47.2057 4
4.42031 48.7602 0.00911152
1.99012 49.554 2
2.85457 51.8506 0
10.0568 33.874 3.98349
9.36313 32.1442 3.98469
10.8881 32.9077 2
8.05578 29.6845 3.98391
10.0709 30.3688 2
12.0253 31.2408 0.0153772
6.59153 26.9976 3.98576
8.70723 27.7178 2
10.7596 28.3982 0.0177047
5.17019 24.0855 3.99094
7.34811 24.9691 2
9.40003 25.781 0.015518
3.86728 20.9142 4
6.11522 21.9912 2
8.2233 23.0081 0.0129202
5.02406 18.75 2
7.1985 19.9678 0.00743788
6.31992 16.6661 0
8.81609 35.2766 3.98484
10.4009 34.9959 2
12.0367 34.2862 0.0165941
6.99412 37.207 3.98561
8.98809 36.9865 2
10.7864 36.6119 0.0144676
9.31445 38.8295 0.0145332
7.20877 39.187 2
4.97617 39.4711 3.98699
7.52947 41.2189 0.0147658
5.24918 41.6203 2
2.85336 42.0076 3.98976
5.63431 43.7764 0.0137212
3.24305 44.2892 2
0.720592 44.8159 4
3.76567 46.5451 0.00963009
1.27778 47.2057 2
1.99014 49.554 0
8.85942 33.691 3.98453
10.0567 33.874 2
7.49217 31.6007 3.98492
9.36296 32.1442 2
10.8883 32.9077 0.0155529
5.93632 29.0608 3.98561
8.05567 29.6844 2
10.071 30.3688 0.0162963
4.35753 26.2392 3.99027
6.59143 26.9974 2
8.70735 27.7179 0.0164484
2.85458 23.1494 4
5.17016 24.0851 2
7.34824 24.9694 0.0135268
3.86728 20.9142 2
6.11522 21.9917 0.00826104
5.02411 18.75 0
6.94506 35.3037 3.98542
8.81589 35.2766 2
10.4011 34.9958 0.0160589
4.82716 37.3407 3.98661
6.99395 37.2071 2
8.98831 36.9863 0.0146267
7.20888 39.1868 0.0141445
4.97607 39.4713 2
2.601 39.7173 3.99015
5.24923 41.62 0.0136369
2.85333 42.0079 2
0.320823 42.3947 4
3.24307 44.2888 0.00993589
0.720551 44.8159 2
1.27781 47.2057 0
7.10561 33.4554 3.98508
8.85924 33.691 2
10.0568 33.874 0.0165054
5.40644 31.1267 3.98623
7.49201 31.6007 2
9.36313 32.1442 0.0153124
3.67901 28.4363 3.98994
5.93622 29.0606 2
8.05578 29.6845 0.0160878
1.99015 25.446 4
4.3575 26.2389 2
6.59153 26.9976 0.0142388
2.85453 23.1494 2
5.17019 24.0855 0.0090625
3.86728 20.9142 0
4.84179 35.2497 3.98655
6.94489 35.3038 2
8.81609 35.2766 0.0151557
2.49266 37.4292 3.9896
4.82704 37.3408 2
6.99412 37.207 0.0143856
4.97617 39.4711 0.0130057
2.60095 39.7174 2
0.080333 39.9526 4
2.85336 42.0076 0.0102378
0.320817 42.3947 2
0.720592 44.8159 0
5.03546 33.1857 3.98642
7.10544 33.4554 2
8.85942 33.691 0.0154708
3.14296 30.6602 3.99006
5.40631 31.1266 2
7.49217 31.6007 0.0150784
1.27793 27.7943 4
3.67897 28.4361 2
5.93632 29.0608 0.0143944
1.99013 25.446 2
4.35753 26.2392 0.00973084
2.85458 23.1494 0
2.54492 35.157 3.98968
4.84166 35.2497 2
6.94506 35.3037 0.0145837
0 37.5 4
2.4926 37.4293 2
4.82716 37.3407 0.013389
2.601 39.7173 0.00984907
0.0802903 39.9526 2
0.320823 42.3947 0
2.7627 32.9015 3.98995
5.03533 33.1857 2
7.10561 33.4554 0.0149177
0.721173 30.1842 4
3.1429 30.66 2
5.40644 31.1267 0.0137679
1.27779 27.7943 2
3.67901 28.4363 0.0100638
1.99015 25.446 0
0.0806499 35.0474 4
2.54486 35.1571 2
4.84179 35.2497 0.0134498
0 37.5 2
2.49266 37.4292 0.0103985
0.080333 39.9526 0
0.32156 32.6054 4
2.76263 32.9014 2
5.03546 33.1857 0.0135751
0.72056 30.1841 2
3.14296 30.6602 0.00993998
1.27793 27.7943 0
0.0802889 35.0474 2
2.54492 35.157 0.0103163
0 37.5 0
0.320817 32.6053 2
2.7627 32.9015 0.0100482
0.721173 30.1842 0
0.0806499 35.0474 0
0.32156 32.6054 0
CELLS 1910 17190
8 18 6 25 56 2 0 5 16
8 57 23 6 18 17 4 0 2
8 78 36 9 29 31 11 1 7
8 31 11 1 7 79 37 10 30
8 110 57 18 50 48 17 2 14
8 50 18 56 111 14 2 16 49
8 116 62 22 55 52 20 3 15
8 56 25 67 118 16 5 24 53
8 119 63 23 57 54 21 4 17
8 55 22 63 119 15 3 21 54
8 58 26 68 121 18 6 25 56
8 122 65 26 58 57 23 6 18
8 73 31 7 27 142 79 30 71
8 143 78 29 72 73 31 7 27
8 83 147 76 34 32 74 28 8
8 84 148 78 36 33 75 29 9
8 76 34 8 28 148 84 33 75
8 37 79 150 86 10 30 77 35
8 151 87 36 78 80 38 11 31
8 80 38 11 31 152 88 37 79
8 175 100 42 94 96 44 12 40
8 44 96 176 101 12 40 95 43
8 101 176 98 46 43 95 41 13
8 46 98 178 103 13 41 97 45
8 178 103 45 97 147 83 32 74
8 189 116 55 109 106 52 15 47
8 111 56 118 191 49 16 53 107
8 192 119 57 110 108 54 17 48
8 109 55 119 192 47 15 54 108
8 194 122 58 112 110 57 18 50
8 112 58 121 195 50 18 56 111
8 115 61 19 51 197 124 59 113
8 115 61 125 198 51 19 60 114
8 198 125 62 116 114 60 20 52
8 200 127 64 120 116 62 22 55
8 118 67 132 202 53 24 66 117
8 121 68 133 203 56 25 67 118
8 120 64 128 204 55 22 63 119
8 204 128 65 122 119 63 23 57
8 206 134 68 121 123 69 26 58
8 123 69 26 58 207 131 65 122
8 226 147 74 138 140 76 28 70
8 229 148 75 139 143 78 29 72
8 140 76 28 70 229 148 75 139
8 142 79 30 71 231 150 77 141
8 144 80 31 73 232 152 79 142
8 233 151 78 143 144 80 31 73
8 150 86 35 77 235 154 81 145
8 235 154 81 145 146 82 39 91
8 146 82 39 91 236 155 90 165
8 238 157 83 147 149 85 34 76
8 239 158 84 148 151 87 36 78
8 149 85 34 76 239 158 84 148
8 152 88 37 79 241 160 86 150
8 242 161 87 151 153 89 38 80
8 153 89 38 80 243 162 88 152
8 171 98 41 92 265 178 97 169
8 265 178 97 169 226 147 74 138
8 172 96 40 93 266 176 95 170
8 266 176 95 170 171 98 41 92
8 269 175 94 173 172 96 40 93
8 271 180 99 174 175 100 42 94
8 197 124 59 113 271 180 99 174
8 272 181 100 175 177 102 44 96
8 273 182 101 176 179 104 46 98
8 177 102 44 96 273 182 101 176
8 179 104 46 98 275 184 103 178
8 275 184 103 178 238 157 83 147
8 188 115 51 105 283 197 113 186
8 188 115 198 284 105 51 114 187
8 284 198 116 189 187 114 52 106
8 286 200 120 193 189 116 55 109
8 191 118 202 288 107 53 117 190
8 195 121 203 289 111 56 118 191
8 193 120 204 290 109 55 119 192
8 290 204 122 194 192 119 57 110
8 196 123 58 112 292 207 122 194
8 293 206 121 195 196 123 58 112
8 199 126 61 115 297 211 124 197
8 298 212 127 200 198 125 62 116
8 199 126 212 298 115 61 125 198
8 205 129 64 120 300 214 127 200
8 301 217 130 201 202 132 66 117
8 209 136 168 264 301 217 130 201
8 302 219 132 202 203 133 67 118
8 303 220 133 203 206 134 68 121
8 205 129 215 304 120 64 128 204
8 304 215 131 207 204 128 65 122
8 306 221 134 206 208 135 69 123
8 208 135 69 123 307 218 131 207
8 210 137 167 263 309 223 136 209
8 328 238 147 226 230 149 76 140
8 228 146 91 166 329 236 165 260
8 231 150 77 141 330 235 145 227
8 330 235 145 227 228 146 91 166
8 332 239 148 229 233 151 78 143
8 230 149 76 140 332 239 148 229
8 232 152 79 142 334 241 150 231
8 234 153 80 144 335 243 152 232
8 336 242 151 233 234 153 80 144
8 236 155 90 165 338 245 164 259
8 241 160 86 150 339 246 154 235
8 339 246 154 235 237 156 82 146
8 237 156 82 146 340 247 155 236
8 342 249 157 238 240 159 85 149
8 343 250 158 239 242 161 87 151
8 240 159 85 149 343 250 158 239
8 243 162 88 152 345 252 160 241
8 244 163 253 346 153 89 161 242
8 244 163 89 153 347 254 162 243
8 311 224 261 371 210 137 167 263
8 263 167 262 372 209 136 168 264
8 267 179 98 171 375 275 178 265
8 375 275 178 265 328 238 147 226
8 376 273 176 266 267 179 98 171
8 268 177 96 172 376 273 176 266
8 379 272 175 269 268 177 96 172
8 380 271 174 270 269 175 94 173
8 283 197 113 186 380 271 174 270
8 381 277 180 271 272 181 100 175
8 297 211 124 197 381 277 180 271
8 382 278 181 272 274 183 102 177
8 274 183 102 177 383 279 182 273
8 383 279 182 273 276 185 104 179
8 385 281 184 275 342 249 157 238
8 276 185 104 179 385 281 184 275
8 285 199 115 188 393 297 197 283
8 394 298 200 286 284 198 116 189
8 285 199 298 394 188 115 198 284
8 291 205 120 193 396 300 200 286
8 397 301 201 287 288 202 117 190
8 295 209 264 374 397 301 201 287
8 398 302 202 288 289 203 118 191
8 399 303 203 289 293 206 121 195
8 291 205 304 400 193 120 204 290
8 400 304 207 292 290 204 122 194
8 294 208 123 196 402 307 207 292
8 403 306 206 293 294 208 123 196
8 296 210 263 373 405 309 209 295
8 408 312 213 299 297 211 126 199
8 299 213 313 409 199 126 212 298
8 409 313 214 300 298 212 127 200
8 305 216 129 205 411 315 214 300
8 412 318 217 301 302 219 132 202
8 309 223 136 209 412 318 217 301
8 413 320 219 302 303 220 133 203
8 306 221 321 414 206 134 220 303
8 307 218 131 207 415 316 215 304
8 305 216 316 415 205 129 215 304
8 417 322 221 306 308 222 135 208
8 308 222 135 208 418 319 218 307
8 310 225 137 210 420 325 223 309
8 423 326 224 311 310 225 137 210
8 329 236 165 260 441 338 259 368
8 442 342 238 328 333 240 149 230
8 331 237 146 228 443 340 236 329
8 334 241 150 231 444 339 235 330
8 444 339 235 330 331 237 146 228
8 446 343 239 332 336 242 151 233
8 333 240 149 230 446 343 239 332
8 335 243 152 232 448 345 241 334
8 337 244 153 234 449 347 243 335
8 337 244 346 450 234 153 242 336
8 338 245 164 259 452 349 258 367
8 340 247 155 236 453 350 245 338
8 345 252 160 241 454 351 246 339
8 454 351 246 339 341 248 156 237
8 341 248 156 237 455 352 247 340
8 240 159 251 344 342 249 354 457
8 242 161 253 346 343 250 355 458
8 343 250 355 458 240 159 251 344
8 347 254 162 243 460 357 252 345
8 348 255 358 461 244 163 253 346
8 348 255 163 244 462 359 254 347
8 473 360 257 365 363 256 364 482
8 452 349 258 367 365 257 366 485
8 422 324 369 488 311 224 261 371
8 371 261 370 490 263 167 262 372
8 407 311 371 491 296 210 263 373
8 373 263 372 492 295 209 264 374
8 493 385 275 375 442 342 238 328
8 377 276 179 267 493 385 275 375
8 378 274 177 268 494 383 273 376
8 494 383 273 376 377 276 179 267
8 497 382 272 379 378 274 177 268
8 498 381 271 380 379 272 175 269
8 393 297 197 283 498 381 271 380
8 499 387 277 381 382 278 181 272
8 408 312 211 297 499 387 277 381
8 500 388 278 382 384 280 183 274
8 501 389 279 383 386 282 185 276
8 384 280 183 274 501 389 279 383
8 386 282 185 276 503 391 281 385
8 503 391 281 385 457 354 249 342
8 511 408 299 395 393 297 199 285
8 395 299 409 512 285 199 298 394
8 512 409 300 396 394 298 200 286
8 401 305 205 291 514 411 300 396
8 515 412 301 397 398 302 202 288
8 405 309 209 295 515 412 301 397
8 516 413 302 398 399 303 203 289
8 403 306 414 517 293 206 303 399
8 402 307 207 292 518 415 304 400
8 401 305 415 518 291 205 304 400
8 404 308 208 294 520 418 307 402
8 521 417 306 403 404 308 208 294
8 406 310 210 296 523 420 309 405
8 526 423 311 407 406 310 210 296
8 410 314 213 299 527 424 312 408
8 528 425 315 411 409 313 214 300
8 410 314 425 528 299 213 313 409
8 416 317 216 305 530 427 315 411
8 531 430 318 412 413 320 219 302
8 420 325 223 309 531 430 318 412
8 532 432 320 413 414 321 220 303
8 417 322 433 533 306 221 321 414
8 418 319 218 307 534 428 316 415
8 416 317 428 534 305 216 316 415
8 419 323 434 536 308 222 322 417
8 419 323 222 308 537 431 319 418
8 421 327 225 310 539 438 325 420
8 421 327 439 541 310 225 326 423
8 543 437 324 422 423 326 224 311
8 441 338 259 368 559 452 367 486
8 443 340 236 329 560 453 338 441
8 333 240 344 447 442 342 457 561
8 445 341 237 331 562 455 340 443
8 448 345 241 334 563 454 339 444
8 563 454 339 444 445 341 237 331
8 336 242 346 450 446 343 458 565
8 446 343 458 565 333 240 344 447
8 449 347 243 335 567 460 345 448
8 451 348 244 337 568 462 347 449
8 451 348 461 569 337 244 346 450
8 570 463 349 452 473 360 257 365
8 453 350 245 338 570 463 349 452
8 455 352 247 340 571 464 350 453
8 460 357 252 345 572 465 351 454
8 572 465 351 454 456 353 248 341
8 456 353 248 341 573 466 352 455
8 344 251 356 459 457 354 468 575
8 458 355 469 576 344 251 356 459
8 346 253 358 461 458 355 469 576
8 462 359 254 347 578 471 357 460
8 348 255 359 462 461 358 472 579
8 591 474 360 473 475 361 256 363
8 475 361 256 363 594 477 362 479
8 363 256 364 482 479 362 480 603
8 590 473 365 484 481 363 482 605
8 482 364 257 365 606 483 366 485
8 559 452 367 486 484 365 485 607
8 542 436 487 609 422 324 369 488
8 525 422 488 611 407 311 371 491
8 488 369 489 612 371 261 370 490
8 491 371 490 613 373 263 372 492
8 495 386 276 377 614 503 385 493
8 614 503 385 493 561 457 342 442
8 615 501 383 494 495 386 276 377
8 496 384 274 378 615 501 383 494
8 618 500 382 497 496 384 274 378
8 619 499 381 498 497 382 272 379
8 511 408 297 393 619 499 381 498
8 620 505 387 499 500 388 278 382
8 527 424 312 408 620 505 387 499
8 502 390 506 621 384 280 388 500
8 622 507 389 501 504 392 282 386
8 502 390 280 384 622 507 389 501
8 504 392 282 386 624 509 391 503
8 624 509 391 503 575 468 354 457
8 513 410 299 395 630 527 408 511
8 631 528 411 514 512 409 300 396
8 513 410 528 631 395 299 409 512
8 519 416 305 401 633 530 411 514
8 634 531 412 515 516 413 302 398
8 523 420 309 405 634 531 412 515
8 635 532 413 516 517 414 303 399
8 521 417 533 636 403 306 414 517
8 520 418 307 402 637 534 415 518
8 519 416 534 637 401 305 415 518
8 522 419 308 404 639 537 418 520
8 522 419 536 640 404 308 417 521
8 524 421 310 406 642 539 420 523
8 524 421 541 644 406 310 423 526
8 646 543 422 525 526 423 311 407
8 529 426 314 410 647 544 424 527
8 528 425 545 648 411 315 427 530
8 529 426 545 648 410 314 425 528
8 535 429 317 416 649 546 427 530
8 650 548 430 531 532 432 320 413
8 539 438 325 420 650 548 430 531
8 533 433 550 651 414 321 432 532
8 536 434 551 652 417 322 433 533
8 537 431 319 418 653 547 428 534
8 535 429 547 653 416 317 428 534
8 538 435 552 654 419 323 434 536
8 538 435 323 419 655 549 431 537
8 540 440 327 421 657 556 438 539
8 540 440 557 659 421 327 439 541
8 541 439 555 660 423 326 437 543
8 661 554 436 542 543 437 324 422
8 676 570 452 559 590 473 365 484
8 560 453 338 441 676 570 452 559
8 562 455 340 443 677 571 453 560
8 447 344 459 566 561 457 575 678
8 564 456 341 445 679 573 455 562
8 567 460 345 448 680 572 454 563
8 680 572 454 563 564 456 341 445
8 565 458 576 682 447 344 459 566
8 450 346 461 569 565 458 576 682
8 568 462 347 449 684 578 460 567
8 451 348 462 568 569 461 579 685
8 686 580 463 570 591 474 360 473
8 571 464 350 453 686 580 463 570
8 573 466 352 455 687 581 464 571
8 572 465 582 688 460 357 471 578
8 574 467 582 688 456 353 465 572
8 574 467 353 456 689 583 466 573
8 459 356 470 577 575 468 585 691
8 576 469 586 692 459 356 470 577
8 461 358 472 579 576 469 586 692
8 462 359 471 578 579 472 588 694
8 704 591 473 590 593 475 363 481
8 595 476 592 705 475 361 474 591
8 593 475 363 481 707 594 479 602
8 594 477 362 479 709 598 478 600
8 595 476 361 475 711 597 477 594
8 479 362 480 603 600 478 601 720
8 481 363 482 605 602 479 603 722
8 603 480 364 482 723 604 483 606
8 605 482 365 484 724 606 485 607
8 656 553 608 726 542 436 487 609
8 645 542 609 728 525 422 488 611
8 609 487 610 729 488 369 489 612
8 611 488 612 730 491 371 490 613
8 616 504 386 495 731 624 503 614
8 731 624 503 614 678 575 457 561
8 732 622 501 615 616 504 386 495
8 617 502 384 496 732 622 501 615
8 617 502 621 735 496 384 500 618
8 736 620 499 619 618 500 382 497
8 630 527 408 511 736 620 499 619
8 621 506 626 737 500 388 505 620
8 647 544 424 527 737 626 505 620
8 623 508 627 738 502 390 506 621
8 623 508 390 502 739 628 507 622
8 625 510 628 739 504 392 507 622
8 740 629 509 624 691 585 468 575
8 625 510 392 504 740 629 509 624
8 632 529 410 513 744 647 527 630
8 631 528 648 745 514 411 530 633
8 632 529 648 745 513 410 528 631
8 638 535 416 519 746 649 530 633
8 747 650 531 634 635 532 413 516
8 642 539 420 523 747 650 531 634
8 636 533 651 748 517 414 532 635
8 640 536 652 749 521 417 533 636
8 639 537 418 520 750 653 534 637
8 638 535 653 750 519 416 534 637
8 641 538 419 522 751 655 537 639
8 641 538 654 752 522 419 536 640
8 643 540 421 524 753 657 539 642
8 643 540 659 755 524 421 541 644
8 644 541 660 757 526 423 543 646
8 758 661 542 645 646 543 422 525
8 529 426 544 647 648 545 662 759
8 530 427 545 648 649 546 663 760
8 535 429 546 649 653 547 664 761
8 762 666 548 650 651 550 432 532
8 657 556 438 539 762 666 548 650
8 652 551 668 763 533 433 550 651
8 654 552 669 764 536 434 551 652
8 655 549 431 537 765 665 547 653
8 538 435 549 655 654 552 667 766
8 661 554 671 768 542 436 553 656
8 658 558 440 540 769 674 556 657
8 658 558 675 770 540 440 557 659
8 659 557 673 771 541 439 555 660
8 660 555 672 772 543 437 554 661
8 788 686 570 676 704 591 473 590
8 677 571 453 560 788 686 570 676
8 679 573 455 562 789 687 571 677
8 566 459 577 683 678 575 691 790
8 681 574 456 564 791 689 573 679
8 680 572 688 792 567 460 578 684
8 681 574 688 792 564 456 572 680
8 682 576 692 794 566 459 577 683
8 569 461 579 685 682 576 692 794
8 568 462 578 684 685 579 694 796
8 687 581 464 571 798 696 580 686
8 798 696 580 686 705 592 474 591
8 689 583 466 573 799 697 581 687
8 688 582 698 800 578 471 588 694
8 690 584 698 800 574 467 582 688
8 690 584 467 574 801 699 583 689
8 693 587 701 803 577 470 585 691
8 693 587 470 577 804 702 586 692
8 695 589 702 804 579 472 586 692
8 695 589 472 579 805 703 588 694
8 708 595 705 813 593 475 591 704
8 710 596 706 814 595 476 592 705
8 707 594 479 602 816 709 600 719
8 708 595 475 593 817 711 594 707
8 709 598 478 600 819 715 599 717
8 711 597 477 594 820 714 598 709
8 710 596 476 595 822 713 597 711
8 600 478 601 720 717 599 718 832
8 602 479 603 722 719 600 720 834
8 720 601 480 603 835 721 604 723
8 722 603 482 605 836 723 606 724
8 767 670 725 839 656 553 608 726
8 756 656 726 841 645 542 609 728
8 726 608 727 842 609 487 610 729
8 728 609 729 843 611 488 612 730
8 844 740 624 731 790 691 575 678
8 733 625 504 616 844 740 624 731
8 734 623 502 617 845 739 622 732
8 733 625 739 845 616 504 622 732
8 734 623 738 846 617 502 621 735
8 735 621 737 847 618 500 620 736
8 744 647 527 630 847 737 620 736
8 621 506 627 738 737 626 741 848
8 647 544 626 737 759 662 741 848
8 623 508 628 739 738 627 742 849
8 740 629 585 691 850 743 700 802
8 625 510 629 740 739 628 743 850
8 632 529 647 744 745 648 759 854
8 633 530 648 745 746 649 760 855
8 638 535 649 746 750 653 761 856
8 857 762 650 747 748 651 532 635
8 753 657 539 642 857 762 650 747
8 749 652 763 858 636 533 651 748
8 752 654 764 859 640 536 652 749
8 751 655 537 639 860 765 653 750
8 641 538 655 751 752 654 766 861
8 754 658 540 643 862 769 657 753
8 754 658 770 863 643 540 659 755
8 755 659 771 864 644 541 660 757
8 758 661 768 866 645 542 656 756
8 757 660 772 867 646 543 661 758
8 759 662 773 868 648 545 663 760
8 649 546 663 760 761 664 774 871
8 765 665 547 653 872 775 664 761
8 873 777 666 762 763 668 550 651
8 769 674 556 657 873 777 666 762
8 764 669 779 874 652 551 668 763
8 654 552 667 766 764 669 778 875
8 655 549 665 765 766 667 776 876
8 768 671 782 877 656 553 670 767
8 772 672 783 878 661 554 671 768
8 658 558 674 769 770 675 786 879
8 659 557 675 770 771 673 785 881
8 882 784 672 772 771 673 555 660
8 789 687 571 677 897 798 686 788
8 897 798 686 788 813 705 591 704
8 791 689 573 679 898 799 687 789
8 795 693 803 900 683 577 691 790
8 793 690 574 681 901 801 689 791
8 792 688 800 902 684 578 694 796
8 793 690 800 902 681 574 688 792
8 795 693 577 683 903 804 692 794
8 797 695 804 903 685 579 692 794
8 797 695 579 685 904 805 694 796
8 905 806 697 799 798 696 581 687
8 814 706 806 905 705 592 696 798
8 689 583 697 799 801 699 808 907
8 800 698 809 908 694 588 703 805
8 690 584 699 801 800 698 809 908
8 803 701 810 909 691 585 700 802
8 693 587 702 804 803 701 811 910
8 695 589 703 805 804 702 812 911
8 818 710 814 919 708 595 705 813
8 821 712 815 920 710 596 706 814
8 816 709 600 719 922 819 717 831
8 817 711 594 707 923 820 709 816
8 818 710 595 708 924 822 711 817
8 819 715 599 717 926 827 716 829
8 820 714 598 709 927 826 715 819
8 929 825 713 822 820 714 597 711
8 821 712 596 710 930 824 713 822
8 717 599 718 832 829 716 830 942
8 719 600 720 834 831 717 832 944
8 832 718 601 720 945 833 721 835
8 834 720 603 722 946 835 723 836
8 869 780 838 950 767 670 725 839
8 865 767 839 952 756 656 726 841
8 839 725 840 953 726 608 727 842
8 841 726 842 954 728 609 729 843
8 844 740 691 790 955 850 802 899
8 733 625 740 844 845 739 850 955
8 734 623 739 845 846 738 849 956
8 735 621 738 846 847 737 848 957
8 744 647 737 847 854 759 848 957
8 738 627 742 849 848 741 851 958
8 848 741 851 958 759 662 773 868
8 850 743 700 802 959 852 807 906
8 849 742 628 739 959 852 743 850
8 854 759 868 965 745 648 760 855
8 746 649 760 855 856 761 871 966
8 860 765 653 750 967 872 761 856
8 968 873 762 857 858 763 651 748
8 862 769 657 753 968 873 762 857
8 859 764 874 969 749 652 763 858
8 752 654 766 861 859 764 875 970
8 751 655 765 860 861 766 876 971
8 754 658 769 862 863 770 879 972
8 755 659 770 863 864 771 881 974
8 976 882 772 867 864 771 660 757
8 866 768 877 977 756 656 767 865
8 867 772 878 978 758 661 768 866
8 760 663 773 868 871 774 883 980
8 870 781 837 948 982 890 780 869
8 982 890 780 869 877 782 670 767
8 761 664 774 871 872 775 884 984
8 876 776 665 765 985 885 775 872
8 873 777 668 763 986 887 779 874
8 769 674 777 873 879 786 887 986
8 764 669 778 875 874 779 888 987
8 766 667 776 876 875 778 886 988
8 878 783 892 989 768 671 782 877
8 878 783 672 772 990 893 784 882
8 880 787 675 770 991 896 786 879
8 880 787 895 992 770 675 785 881
8 881 785 894 993 771 673 784 882
8 1006 905 799 898 897 798 687 789
8 919 814 905 1006 813 705 798 897
8 791 689 799 898 901 801 907 1007
8 900 803 909 1009 790 691 802 899
8 795 693 804 903 900 803 910 1010
8 902 800 908 1011 796 694 805 904
8 793 690 801 901 902 800 908 1011
8 797 695 805 904 903 804 911 1012
8 799 697 806 905 907 808 912 1013
8 920 815 912 1013 814 706 806 905
8 802 700 810 909 906 807 913 1014
8 801 699 808 907 908 809 914 1015
8 805 703 809 908 911 812 915 1016
8 803 701 811 910 909 810 916 1017
8 911 812 917 1018 804 702 811 910
8 925 821 920 1030 818 710 814 919
8 928 823 921 1031 821 712 815 920
8 922 819 717 831 1033 926 829 941
8 923 820 709 816 1034 927 819 922
8 1035 929 822 924 923 820 711 817
8 925 821 710 818 1036 930 822 924
8 1038 933 825 929 927 826 714 820
8 926 827 716 829 1039 935 828 939
8 927 826 715 819 1040 934 827 926
8 928 823 712 821 1041 931 824 930
8 1042 932 824 930 929 825 713 822
8 829 716 830 942 939 828 940 1058
8 831 717 832 944 941 829 942 1060
8 942 830 718 832 1061 943 833 945
8 944 832 720 834 1062 945 835 946
8 981 889 947 1064 870 781 837 948
8 948 837 949 1067 869 780 838 950
8 975 869 950 1069 865 767 839 952
8 950 838 951 1070 839 725 840 953
8 952 839 953 1071 841 726 842 954
8 955 850 802 899 1072 959 906 1008
8 956 849 739 845 1072 959 850 955
8 846 738 849 956 957 848 958 1073
8 957 848 958 1073 854 759 868 965
8 849 742 852 959 958 851 961 1076
8 960 853 961 1076 906 807 852 959
8 958 851 961 1076 868 773 883 980
8 960 853 807 906 1077 963 913 1014
8 855 760 868 965 966 871 980 1085
8 856 761 871 966 967 872 984 1086
8 971 876 765 860 1087 985 872 967
8 968 873 763 858 1088 986 874 969
8 862 769 873 968 972 879 986 1088
8 859 764 875 970 969 874 987 1089
8 861 766 876 971 970 875 988 1090
8 973 880 770 863 1091 991 879 972
8 973 880 992 1092 863 770 881 974
8 974 881 993 1093 864 771 882 976
8 979 870 948 1066 1094 982 869 975
8 1094 982 869 975 977 877 767 865
8 978 878 772 867 1095 990 882 976
8 978 878 989 1096 866 768 877 977
8 871 774 883 980 984 884 994 1099
8 983 891 999 1100 870 781 889 981
8 1101 1000 890 982 989 892 782 877
8 983 891 781 870 1101 1000 890 982
8 872 775 884 984 985 885 995 1103
8 876 776 885 985 988 886 996 1104
8 986 887 779 874 1105 998 888 987
8 879 786 887 986 991 896 998 1105
8 875 778 886 988 987 888 997 1106
8 990 893 1002 1107 878 783 892 989
8 1108 1003 893 990 993 894 784 882
8 880 787 896 991 992 895 1005 1109
8 993 894 785 881 1110 1004 895 992
8 898 799 905 1006 1007 907 1013 1120
8 1030 920 1013 1120 919 814 905 1006
8 901 801 907 1007 1011 908 1015 1121
8 899 802 909 1009 1008 906 1014 1122
8 900 803 910 1010 1009 909 1017 1123
8 1012 911 1018 1124 903 804 910 1010
8 904 805 908 1011 1012 911 1016 1125
8 1013 912 1020 1127 907 808 914 1015
8 1031 921 1020 1127 920 815 912 1013
8 1019 918 962 1075 1128 1021 913 1014
8 1128 1021 913 1014 1017 916 810 909
8 1015 914 1022 1129 908 809 915 1016
8 1016 915 1023 1130 911 812 917 1018
8 1018 917 1024 1131 910 811 916 1017
8 1037 928 1031 1148 925 821 920 1030
8 928 823 931 1041 1031 921 1032 1149
8 1033 926 829 941 1151 1039 939 1057
8 1034 927 819 922 1152 1040 926 1033
8 1153 1038 929 1035 1034 927 820 923
8 1154 1042 930 1036 1035 929 822 924
8 1037 928 821 925 1155 1041 930 1036
8 1039 935 828 939 1156 1047 938 1055
8 1157 1043 932 1042 1038 933 825 929
8 1038 933 826 927 1158 1045 934 1040
8 1040 934 827 926 1159 1046 935 1039
8 930 824 932 1042 1041 931 1044 1160
8 1051 936 1048 1165 1175 1052 937 1053
8 1156 1047 938 1055 1053 937 1054 1178
8 939 828 940 1058 1055 938 1056 1181
8 941 829 942 1060 1057 939 1058 1183
8 942 830 943 1061 1058 940 1059 1184
8 1060 942 832 944 1185 1061 945 1062
8 1082 964 1063 1188 981 889 947 1064
8 1097 981 1064 1190 979 870 948 1066
8 1064 947 1065 1191 948 837 949 1067
8 1066 948 1067 1193 975 869 950 1069
8 1067 949 1068 1194 950 838 951 1070
8 1069 950 1070 1195 952 839 953 1071
8 956 849 959 1072 1073 958 1076 1197
8 1074 960 1076 1197 1008 906 959 1072
8 1073 958 1076 1197 965 868 980 1085
8 1074 960 906 1008 1198 1077 1014 1122
8 1133 1026 1079 1199 1019 918 962 1075
8 1077 963 913 1014 1200 1080 962 1075
8 960 853 963 1077 1076 961 1078 1201
8 980 883 961 1076 1099 994 1078 1201
8 1210 1083 964 1082 1100 999 889 981
8 966 871 980 1085 1086 984 1099 1215
8 967 872 984 1086 1087 985 1103 1216
8 971 876 985 1087 1090 988 1104 1217
8 1088 986 874 969 1218 1105 987 1089
8 972 879 986 1088 1091 991 1105 1218
8 970 875 988 1090 1089 987 1106 1219
8 973 880 991 1091 1092 992 1109 1220
8 1093 993 881 974 1221 1110 992 1092
8 1222 1108 990 1095 1093 993 882 976
8 1223 1101 982 1094 1096 989 877 977
8 1098 983 870 979 1223 1101 982 1094
8 1095 990 1107 1224 978 878 989 1096
8 1098 983 1100 1225 979 870 981 1097
8 984 884 994 1099 1103 995 1111 1227
8 1102 1001 1115 1228 983 891 999 1100
8 1101 1000 892 989 1229 1116 1002 1107
8 1102 1001 891 983 1229 1116 1000 1101
8 985 885 995 1103 1104 996 1112 1230
8 988 886 996 1104 1106 997 1113 1231
8 1105 998 888 987 1232 1114 997 1106
8 991 896 998 1105 1109 1005 1114 1232
8 1108 1003 1117 1233 990 893 1002 1107
8 1108 1003 894 993 1233 1117 1004 1110
8 992 895 1005 1109 1110 1004 1118 1234
8 1120 1013 1127 1244 1007 907 1015 1121
8 1148 1031 1127 1244 1030 920 1013 1120
8 1121 1015 1129 1245 1011 908 1016 1125
8 1126 1019 1075 1196 1246 1128 1014 1122
8 1246 1128 1014 1122 1123 1017 909 1009
8 1124 1018 1131 1247 1010 910 1017 1123
8 1125 1016 1130 1248 1012 911 1018 1124
8 1127 1020 1137 1254 1015 914 1022 1129
8 1031 921 1032 1149 1127 1020 1137 1254
8 1134 1027 918 1019 1257 1140 1021 1128
8 1257 1140 1021 1128 1131 1024 916 1017
8 1129 1022 1141 1258 1016 915 1023 1130
8 1130 1023 1142 1259 1018 917 1024 1131
8 1261 1144 1025 1132 1133 1026 1079 1199
8 1255 1138 1025 1132 1135 1028 1144 1261
8 1133 1026 918 1019 1262 1145 1027 1134
8 1136 1029 1139 1256 1263 1146 1028 1135
8 1037 928 1041 1155 1148 1031 1149 1275
8 1041 931 1044 1160 1149 1032 1150 1276
8 1151 1039 939 1057 1278 1156 1055 1180
8 1152 1040 926 1033 1279 1159 1039 1151
8 1153 1038 927 1034 1280 1158 1040 1152
8 1281 1157 1042 1154 1153 1038 929 1035
8 1036 930 1042 1154 1155 1041 1160 1282
8 1283 1164 1046 1159 1156 1047 935 1039
8 1165 1048 1164 1283 1053 937 1047 1156
8 1157 1043 933 1038 1284 1161 1045 1158
8 1157 1043 1161 1284 1042 932 1044 1160
8 1040 934 1046 1159 1158 1045 1163 1285
8 1166 1049 1167 1292 1051 936 1048 1165
8 1166 1049 936 1051 1293 1168 1050 1172
8 1051 936 1052 1175 1172 1050 1173 1306
8 1174 1051 1165 1290 1308 1175 1053 1177
8 1053 937 1054 1178 1175 1052 1176 1309
8 1278 1156 1055 1180 1177 1053 1178 1311
8 1055 938 1056 1181 1178 1054 1179 1312
8 1057 939 1058 1183 1180 1055 1181 1314
8 1058 940 1059 1184 1181 1056 1182 1315
8 1060 942 1061 1185 1183 1058 1184 1316
8 1208 1081 1187 1321 1082 964 1063 1188
8 1209 1082 1188 1322 1097 981 1064 1190
8 1188 1063 1189 1323 1064 947 1065 1191
8 1190 1064 1191 1325 1066 948 1067 1193
8 1191 1065 1192 1326 1067 949 1068 1194
8 1067 1193 1069 950 1194 1327 1195 1070
8 1250 1133 1199 1330 1126 1019 1075 1196
8 1198 1077 1014 1122 1331 1200 1075 1196
8 1074 960 1077 1198 1197 1076 1201 1332
8 1085 980 1076 1197 1215 1099 1201 1332
8 1199 1079 1203 1333 1075 962 1080 1200
8 1132 1025 1119 1243 1199 1079 1203 1333
8 1201 1078 963 1077 1334 1202 1080 1200
8 1099 994 1078 1201 1227 1111 1202 1334
8 1343 1207 1081 1208 1210 1083 964 1082
8 1214 1084 1186 1319 1343 1207 1081 1208
8 1345 1210 1082 1209 1225 1100 981 1097
8 1346 1211 1083 1210 1228 1115 999 1100
8 1086 984 1099 1215 1216 1103 1227 1352
8 1087 985 1103 1216 1217 1104 1230 1353
8 1090 988 1104 1217 1219 1106 1231 1354
8 1218 1105 987 1089 1355 1232 1106 1219
8 1091 991 1105 1218 1220 1109 1232 1355
8 1092 992 1109 1220 1221 1110 1234 1356
8 1222 1108 1233 1357 1095 990 1107 1224
8 1222 1108 993 1093 1357 1233 1110 1221
8 1223 1101 989 1096 1358 1229 1107 1224
8 1226 1102 983 1098 1358 1229 1101 1223
8 1226 1102 1228 1359 1098 983 1100 1225
8 1103 995 1111 1227 1230 1112 1235 1360
8 1107 1002 1117 1233 1229 1116 1240 1362
8 1102 1001 1116 1229 1228 1115 1240 1362
8 1104 996 1112 1230 1231 1113 1236 1363
8 1364 1237 1114 1232 1231 1113 997 1106
8 1109 1005 1114 1232 1234 1118 1238 1365
8 1110 1004 1118 1234 1233 1117 1241 1366
8 1242 1374 1255 1138 1119 1243 1132 1025
8 1244 1127 1254 1376 1121 1015 1129 1245
8 1148 1031 1149 1275 1244 1127 1254 1376
8 1245 1129 1258 1377 1125 1016 1130 1248
8 1251 1134 1019 1126 1378 1257 1128 1246
8 1378 1257 1128 1246 1247 1131 1017 1123
8 1248 1130 1259 1379 1124 1018 1131 1247
8 1261 1381 1250 1133 1132 1249 1330 1199
8 1255 1380 1252 1135 1132 1249 1381 1261
8 1250 1133 1019 1126 1382 1262 1134 1251
8 1253 1136 1256 1385 1384 1263 1135 1252
8 1254 1137 1265 1387 1129 1022 1141 1258
8 1149 1032 1150 1276 1254 1137 1265 1387
8 1028 1135 1255 1138 1139 1256 1388 1266
8 1136 1029 1147 1264 1256 1139 1267 1389
8 1390 1268 1140 1257 1259 1142 1024 1131
8 1260 1143 1027 1134 1390 1268 1140 1257
8 1258 1141 1269 1391 1130 1023 1142 1259
8 1262 1145 1027 1134 1393 1271 1143 1260
8 1261 1144 1026 1133 1394 1272 1145 1262
8 1135 1028 1144 1261 1263 1146 1272 1394
8 1136 1029 1146 1263 1264 1147 1273 1395
8 1155 1041 1160 1282 1275 1149 1276 1405
8 1276 1150 1044 1160 1406 1277 1162 1286
8 1408 1283 1159 1279 1278 1156 1039 1151
8 1290 1165 1283 1408 1177 1053 1156 1278
8 1152 1040 1159 1279 1280 1158 1285 1409
8 1281 1157 1038 1153 1410 1284 1158 1280
8 1281 1157 1284 1410 1154 1042 1160 1282
8 1159 1046 1164 1283 1285 1163 1289 1412
8 1292 1167 1289 1412 1165 1048 1164 1283
8 1158 1045 1163 1285 1284 1161 1288 1413
8 1284 1161 1288 1413 1160 1044 1162 1286
8 1291 1166 1292 1418 1174 1051 1165 1290
8 1291 1166 1051 1174 1419 1293 1172 1305
8 1294 1169 1296 1421 1166 1049 1167 1292
8 1293 1168 1050 1172 1422 1295 1171 1303
8 1294 1169 1049 1166 1423 1297 1168 1293
8 1422 1295 1171 1303 1301 1170 1302 1435
8 1172 1050 1173 1306 1303 1171 1304 1438
8 1174 1051 1175 1308 1305 1172 1306 1440
8 1175 1052 1176 1309 1306 1173 1307 1441
8 1177 1053 1178 1311 1308 1175 1309 1443
8 1178 1054 1179 1312 1309 1176 1310 1444
8 1180 1055 1181 1314 1311 1178 1312 1446
8 1056 1181 1312 1179 1182 1315 1447 1313
8 1183 1058 1184 1316 1314 1181 1315 1448
8 1319 1186 1084 1214 1451 1317 1213 1350
8 1319 1186 1318 1453 1208 1081 1187 1321
8 1321 1187 1320 1456 1188 1063 1189 1323
8 1344 1208 1321 1457 1209 1082 1188 1322
8 1322 1188 1323 1458 1190 1064 1191 1325
8 1323 1189 1324 1459 1191 1065 1192 1326
8 1191 1325 1193 1067 1326 1460 1327 1194
8 1242 1374 1243 1119 1328 1462 1335 1204
8 1330 1199 1333 1465 1196 1075 1200 1331
8 1132 1249 1330 1199 1243 1375 1465 1333
8 1332 1201 1077 1198 1466 1334 1200 1331
8 1215 1099 1201 1332 1352 1227 1334 1466
8 1119 1243 1333 1203 1204 1335 1470 1338
8 1333 1203 1338 1470 1200 1080 1202 1334
8 1227 1111 1202 1334 1360 1235 1338 1470
8 1328 1462 1335 1204 1205 1336 1471 1339
8 1337 1206 1340 1472 1464 1329 1205 1336
8 1346 1211 1342 1479 1210 1083 1207 1343
8 1346 1211 1115 1228 1479 1342 1239 1361
8 1348 1212 1084 1214 1479 1342 1207 1343
8 1480 1343 1208 1344 1345 1210 1082 1209
8 1351 1214 1319 1454 1480 1343 1208 1344
8 1481 1346 1210 1345 1359 1228 1100 1225
8 1348 1212 1347 1483 1214 1084 1213 1350
8 1216 1103 1227 1352 1353 1230 1360 1488
8 1217 1104 1230 1353 1354 1231 1363 1489
8 1490 1364 1232 1355 1354 1231 1106 1219
8 1220 1109 1232 1355 1356 1234 1365 1491
8 1221 1110 1234 1356 1357 1233 1366 1492
8 1224 1107 1233 1357 1358 1229 1362 1493
8 1226 1102 1229 1358 1359 1228 1362 1493
8 1230 1112 1235 1360 1363 1236 1367 1496
8 1361 1239 1115 1228 1497 1371 1240 1362
8 1366 1241 1372 1498 1233 1117 1240 1362
8 1364 1237 1113 1231 1499 1368 1236 1363
8 1364 1237 1368 1499 1232 1114 1238 1365
8 1234 1118 1238 1365 1366 1241 1369 1500
8 1507 1373 1242 1374 1388 1266 1138 1255
8 1508 1374 1243 1375 1380 1255 1132 1249
8 1376 1254 1387 1509 1245 1129 1258 1377
8 1275 1149 1276 1405 1376 1254 1387 1509
8 1377 1258 1391 1510 1248 1130 1259 1379
8 1511 1390 1257 1378 1379 1259 1131 1247
8 1383 1260 1134 1251 1511 1390 1257 1378
8 1252 1135 1256 1385 1380 1255 1388 1512
8 1261 1381 1513 1394 1133 1250 1382 1262
8 1135 1252 1384 1263 1261 1381 1513 1394
8 1382 1262 1134 1251 1514 1393 1260 1383
8 1253 1136 1263 1384 1386 1264 1395 1516
8 1253 1136 1264 1386 1385 1256 1389 1517
8 1387 1265 1397 1519 1258 1141 1269 1391
8 1276 1150 1277 1406 1387 1265 1397 1519
8 1256 1139 1267 1389 1388 1266 1398 1520
8 1264 1147 1274 1396 1389 1267 1399 1521
8 1392 1270 1143 1260 1522 1400 1268 1390
8 1390 1268 1142 1259 1522 1400 1269 1391
8 1392 1270 1401 1523 1260 1143 1271 1393
8 1272 1394 1524 1402 1145 1262 1393 1271
8 1395 1273 1146 1263 1524 1402 1272 1394
8 1273 1395 1264 1147 1403 1526 1396 1274
8 1405 1276 1160 1282 1534 1406 1286 1411
8 1414 1287 1407 1535 1286 1162 1277 1406
8 1279 1159 1283 1408 1409 1285 1412 1537
8 1418 1292 1412 1537 1290 1165 1283 1408
8 1280 1158 1285 1409 1410 1284 1413 1538
8 1410 1284 1413 1538 1282 1160 1286 1411
8 1285 1163 1289 1412 1413 1288 1417 1540
8 1421 1296 1417 1540 1292 1167 1289 1412
8 1414 1287 1162 1286 1541 1416 1288 1413
8 1420 1294 1421 1545 1291 1166 1292 1418
8 1419 1293 1172 1305 1546 1422 1303 1437
8 1420 1294 1166 1291 1547 1423 1293 1419
8 1294 1169 1297 1423 1421 1296 1425 1548
8 1423 1297 1168 1293 1549 1424 1295 1422
8 1301 1170 1298 1427 1422 1295 1424 1549
8 1432 1300 1428 1554 1301 1170 1298 1427
8 1431 1299 1428 1554 1560 1430 1300 1432
8 1563 1433 1300 1432 1435 1302 1170 1301
8 1546 1422 1303 1437 1434 1301 1435 1565
8 1303 1171 1304 1438 1435 1302 1436 1566
8 1305 1172 1306 1440 1437 1303 1438 1568
8 1306 1173 1307 1441 1438 1304 1439 1569
8 1308 1175 1309 1443 1440 1306 1441 1571
8 1309 1176 1310 1444 1441 1307 1442 1572
8 1311 1178 1312 1446 1443 1309 1444 1574
8 1179 1312 1444 1310 1313 1447 1575 1445
8 1314 1181 1315 1448 1446 1312 1447 1576
8 1350 1213 1349 1486 1451 1317 1449 1579
8 1451 1317 1450 1581 1319 1186 1318 1453
8 1454 1319 1214 1351 1582 1451 1350 1487
8 1453 1318 1452 1584 1321 1187 1320 1456
8 1454 1319 1453 1585 1344 1208 1321 1457
8 1456 1320 1455 1586 1323 1189 1324 1459
8 1457 1321 1456 1587 1322 1188 1323 1458
8 1458 1323 1459 1588 1325 1191 1326 1460
8 1205 1336 1464 1329 1328 1462 1590 1461
8 1507 1373 1461 1590 1374 1242 1328 1462
8 1508 1374 1462 1591 1375 1243 1335 1467
8 1337 1206 1329 1464 1473 1341 1463 1594
8 1375 1243 1335 1467 1465 1333 1470 1596
8 1465 1333 1470 1596 1331 1200 1334 1466
8 1352 1227 1334 1466 1488 1360 1470 1596
8 1591 1462 1336 1468 1467 1335 1471 1597
8 1469 1337 1472 1598 1595 1464 1336 1468
8 1471 1339 1474 1600 1335 1204 1338 1470
8 1600 1474 1367 1496 1470 1338 1235 1360
8 1336 1205 1340 1472 1471 1339 1475 1601
8 1337 1206 1341 1473 1472 1340 1476 1602
8 1495 1370 1478 1609 1361 1239 1342 1479
8 1348 1212 1342 1479 1483 1347 1478 1609
8 1481 1346 1479 1610 1345 1210 1343 1480
8 1481 1346 1228 1359 1610 1479 1361 1494
8 1484 1348 1214 1351 1610 1479 1343 1480
8 1483 1347 1482 1612 1350 1213 1349 1486
8 1484 1348 1483 1613 1351 1214 1350 1487
8 1353 1230 1360 1488 1489 1363 1496 1616
8 1490 1364 1231 1354 1617 1499 1363 1489
8 1490 1364 1499 1617 1355 1232 1365 1491
8 1356 1234 1365 1491 1492 1366 1500 1619
8 1492 1366 1498 1620 1357 1233 1362 1493
8 1494 1361 1228 1359 1621 1497 1362 1493
8 1495 1370 1239 1361 1622 1504 1371 1497
8 1363 1236 1367 1496 1499 1368 1501 1623
8 1497 1371 1240 1362 1624 1505 1372 1498
8 1625 1503 1372 1498 1500 1369 1241 1366
8 1365 1238 1368 1499 1500 1369 1502 1626
8 1520 1398 1506 1633 1388 1266 1373 1507
8 1634 1507 1374 1508 1512 1388 1255 1380
8 1509 1387 1519 1635 1377 1258 1391 1510
8 1405 1276 1406 1534 1509 1387 1519 1635
8 1515 1392 1260 1383 1636 1522 1390 1511
8 1511 1390 1259 1379 1636 1522 1391 1510
8 1385 1256 1389 1517 1512 1388 1520 1637
8 1513 1394 1262 1382 1638 1524 1393 1514
8 1395 1516 1638 1524 1263 1384 1513 1394
8 1515 1392 1523 1639 1383 1260 1393 1514
8 1516 1395 1526 1640 1386 1264 1396 1518
8 1386 1264 1396 1518 1517 1389 1521 1641
8 1519 1397 1527 1643 1391 1269 1400 1522
8 1535 1407 1527 1643 1406 1277 1397 1519
8 1389 1267 1399 1521 1520 1398 1528 1644
8 1645 1529 1399 1521 1525 1404 1274 1396
8 1392 1270 1400 1522 1523 1401 1531 1646
8 1524 1402 1271 1393 1648 1532 1401 1523
8 1403 1526 1648 1532 1273 1395 1524 1402
8 1525 1404 1274 1396 1649 1533 1403 1526
8 1539 1414 1535 1657 1411 1286 1406 1534
8 1542 1415 1536 1658 1414 1287 1407 1535
8 1409 1285 1412 1537 1538 1413 1540 1660
8 1545 1421 1540 1660 1418 1292 1412 1537
8 1539 1414 1286 1411 1661 1541 1413 1538
8 1540 1417 1544 1663 1413 1288 1416 1541
8 1421 1296 1425 1548 1540 1417 1544 1663
8 1542 1415 1287 1414 1664 1543 1416 1541
8 1420 1294 1423 1547 1545 1421 1548 1666
8 1547 1423 1293 1419 1667 1549 1422 1546
8 1434 1301 1427 1553 1546 1422 1549 1667
8 1423 1297 1424 1549 1548 1425 1550 1668
8 1551 1426 1550 1668 1427 1298 1424 1549
8 1551 1426 1298 1427 1671 1552 1428 1554
8 1562 1432 1554 1674 1434 1301 1427 1553
8 1431 1299 1429 1558 1554 1428 1555 1675
8 1431 1299 1430 1560 1558 1429 1557 1680
8 1560 1430 1300 1432 1683 1559 1433 1563
8 1561 1431 1554 1674 1684 1560 1432 1562
8 1685 1563 1432 1562 1565 1435 1301 1434
8 1435 1302 1436 1566 1563 1433 1564 1686
8 1437 1303 1438 1568 1565 1435 1566 1688
8 1438 1304 1439 1569 1566 1436 1567 1689
8 1440 1306 1441 1571 1568 1438 1569 1691
8 1441 1307 1442 1572 1569 1439 1570 1692
8 1443 1309 1444 1574 1571 1441 1572 1694
8 1310 1444 1572 1442 1445 1575 1695 1573
8 1446 1312 1447 1576 1574 1444 1575 1696
8 1486 1349 1485 1614 1579 1449 1577 1699
8 1451 1317 1449 1579 1581 1450 1578 1701
8 1487 1350 1486 1615 1582 1451 1579 1702
8 1581 1450 1580 1704 1453 1318 1452 1584
8 1582 1451 1581 1705 1454 1319 1453 1585
8 1584 1452 1583 1706 1456 1320 1455 1586
8 1585 1453 1584 1707 1457 1321 1456 1587
8 1587 1456 1586 1708 1458 1323 1459 1588
8 1633 1506 1589 1710 1507 1373 1461 1590
8 1464 1329 1461 1590 1594 1463 1589 1710
8 1468 1336 1462 1591 1595 1464 1590 1711
8 1634 1507 1590 1711 1508 1374 1462 1591
8 1473 1341 1463 1594 1603 1477 1593 1716
8 1469 1337 1464 1595 1599 1473 1594 1717
8 1471 1597 1467 1335 1600 1718 1596 1470
8 1718 1600 1496 1616 1596 1470 1360 1488
8 1336 1468 1597 1471 1472 1598 1719 1601
8 1469 1337 1473 1599 1598 1472 1602 1720
8 1722 1604 1501 1623 1600 1474 1367 1496
8 1475 1601 1471 1339 1604 1722 1600 1474
8 1602 1476 1605 1723 1472 1340 1475 1601
8 1476 1602 1724 1606 1341 1473 1603 1477
8 1483 1347 1478 1609 1612 1482 1608 1731
8 1495 1370 1504 1622 1609 1478 1608 1731
8 1618 1495 1609 1732 1494 1361 1479 1610
8 1484 1348 1479 1610 1613 1483 1609 1732
8 1486 1349 1482 1612 1614 1485 1611 1733
8 1613 1483 1612 1734 1487 1350 1486 1615
8 1489 1363 1496 1616 1617 1499 1623 1736
8 1491 1365 1499 1617 1619 1500 1626 1737
8 1618 1495 1361 1494 1738 1622 1497 1621
8 1739 1625 1498 1620 1619 1500 1366 1492
8 1621 1497 1362 1493 1740 1624 1498 1620
8 1742 1631 1504 1622 1624 1505 1371 1497
8 1743 1628 1502 1626 1623 1501 1368 1499
8 1744 1630 1505 1624 1625 1503 1372 1498
8 1745 1629 1503 1625 1626 1502 1369 1500
8 1520 1398 1528 1644 1633 1506 1632 1751
8 1637 1520 1633 1752 1512 1388 1507 1634
8 1635 1519 1643 1753 1510 1391 1522 1636
8 1657 1535 1643 1753 1534 1406 1519 1635
8 1515 1392 1522 1636 1639 1523 1646 1754
8 1517 1389 1521 1641 1637 1520 1644 1755
8 1524 1638 1756 1648 1393 1514 1639 1523
8 1640 1526 1395 1516 1756 1648 1524 1638
8 1642 1525 1396 1518 1757 1649 1526 1640
8 1758 1645 1521 1641 1642 1525 1396 1518
8 1646 1531 1400 1522 1760 1650 1527 1643
8 1535 1407 1536 1658 1643 1527 1650 1760
8 1521 1399 1529 1645 1644 1528 1651 1761
8 1647 1530 1652 1762 1525 1404 1529 1645
8 1401 1523 1648 1532 1531 1646 1763 1655
8 1525 1404 1533 1649 1647 1530 1654 1765
8 1533 1649 1766 1656 1403 1526 1648 1532
8 1662 1542 1658 1774 1539 1414 1535 1657
8 1542 1415 1543 1664 1658 1536 1659 1775
8 1660 1540 1663 1777 1538 1413 1541 1661
8 1545 1421 1548 1666 1660 1540 1663 1777
8 1662 1542 1414 1539 1778 1664 1541 1661
8 1664 1543 1416 1541 1779 1665 1544 1663
8 1548 1425 1550 1668 1663 1544 1665 1779
8 1547 1423 1549 1667 1666 1548 1668 1781
8 1670 1551 1668 1781 1553 1427 1549 1667
8 1551 1426 1552 1671 1668 1550 1669 1782
8 1670 1551 1427 1553 1784 1671 1554 1674
8 1675 1555 1672 1785 1554 1428 1552 1671
8 1678 1556 1673 1789 1558 1429 1555 1675
8 1561 1431 1558 1681 1674 1554 1675 1790
8 1794 1677 1556 1678 1680 1557 1429 1558
8 1560 1430 1559 1683 1680 1557 1679 1797
8 1561 1431 1560 1684 1681 1558 1680 1798
8 1563 1433 1564 1686 1683 1559 1682 1800
8 1684 1560 1432 1562 1801 1683 1563 1685
8 1565 1435 1566 1688 1685 1563 1686 1802
8 1566 1436 1567 1689 1686 1564 1687 1803
8 1568 1438 1569 1691 1688 1566 1689 1805
8 1569 1439 1570 1692 1689 1567 1690 1806
8 1571 1441 1572 1694 1691 1569 1692 1808
8 1442 1572 1692 1570 1573 1695 1809 1693
8 1574 1444 1575 1696 1694 1572 1695 1810
8 1614 1485 1592 1712 1699 1577 1697 1813
8 1579 1449 1577 1699 1701 1578 1698 1815
8 1615 1486 1614 1735 1702 1579 1699 1816
8 1701 1578 1700 1818 1581 1450 1580 1704
8 1582 1451 1579 1702 1705 1581 1701 1819
8 1704 1580 1703 1820 1584 1452 1583 1706
8 1705 1581 1704 1821 1585 1453 1584 1707
8 1707 1584 1706 1822 1587 1456 1586 1708
8 1710 1589 1506 1633 1824 1709 1632 1751
8 1594 1463 1589 1710 1716 1593 1709 1824
8 1752 1633 1710 1825 1634 1507 1590 1711
8 1595 1464 1590 1711 1717 1594 1710 1825
8 1830 1714 1592 1712 1733 1611 1485 1614
8 1603 1477 1593 1716 1725 1607 1715 1834
8 1599 1473 1594 1717 1721 1603 1716 1835
8 1837 1722 1623 1736 1718 1600 1496 1616
8 1719 1601 1722 1837 1597 1471 1600 1718
8 1602 1720 1598 1472 1723 1838 1719 1601
8 1720 1602 1473 1599 1839 1724 1603 1721
8 1723 1605 1726 1840 1601 1475 1604 1722
8 1840 1726 1628 1743 1722 1604 1501 1623
8 1724 1606 1727 1841 1602 1476 1605 1723
8 1725 1607 1728 1842 1603 1477 1606 1724
8 1612 1482 1608 1731 1733 1611 1730 1849
8 1741 1627 1730 1849 1622 1504 1608 1731
8 1613 1483 1609 1732 1734 1612 1731 1850
8 1618 1495 1622 1738 1732 1609 1731 1850
8 1615 1486 1612 1734 1735 1614 1733 1851
8 1852 1743 1626 1737 1736 1623 1499 1617
8 1853 1745 1625 1739 1737 1626 1500 1619
8 1855 1742 1622 1738 1740 1624 1497 1621
8 1856 1744 1624 1740 1739 1625 1498 1620
8 1741 1627 1504 1622 1857 1746 1631 1742
8 1742 1631 1505 1624 1858 1749 1630 1744
8 1859 1747 1629 1745 1743 1628 1502 1626
8 1860 1748 1630 1744 1745 1629 1503 1625
8 1644 1528 1651 1761 1751 1632 1750 1865
8 1637 1520 1644 1755 1752 1633 1751 1866
8 1754 1646 1522 1636 1867 1760 1643 1753
8 1657 1535 1658 1774 1753 1643 1760 1867
8 1639 1523 1646 1754 1756 1648 1763 1868
8 1641 1521 1645 1758 1755 1644 1761 1869
8 1757 1649 1526 1640 1870 1766 1648 1756
8 1642 1525 1649 1757 1759 1647 1765 1871
8 1759 1647 1762 1872 1642 1525 1645 1758
8 1760 1650 1767 1874 1646 1531 1655 1763
8 1658 1536 1659 1775 1760 1650 1767 1874
8 1762 1652 1768 1875 1645 1529 1651 1761
8 1764 1653 1769 1876 1647 1530 1652 1762
8 1656 1766 1877 1773 1532 1648 1763 1655
8 1771 1879 1765 1654 1653 1764 1647 1530
8 1533 1649 1765 1654 1656 1766 1880 1772
8 1662 1542 1664 1778 1774 1658 1775 1887
8 1664 1543 1665 1779 1775 1659 1776 1888
8 1778 1664 1541 1661 1890 1779 1663 1777
8 1666 1548 1668 1781 1777 1663 1779 1890
8 1782 1669 1780 1891 1668 1550 1665 1779
8 1670 1551 1671 1784 1781 1668 1782 1893
8 1671 1552 1672 1785 1782 1669 1783 1894
8 1790 1675 1785 1896 1674 1554 1671 1784
8 1675 1555 1673 1789 1785 1672 1786 1897
8 1792 1676 1788 1903 1678 1556 1673 1789
8 1795 1678 1789 1904 1681 1558 1675 1790
8 1792 1676 1556 1678 1906 1791 1677 1794
8 1680 1557 1679 1797 1794 1677 1793 1909
8 1910 1794 1678 1795 1798 1680 1558 1681
8 1683 1559 1682 1800 1797 1679 1796 1912
8 1684 1560 1683 1801 1798 1680 1797 1913
8 1686 1564 1687 1803 1800 1682 1799 1915
8 1685 1563 1686 1802 1801 1683 1800 1916
8 1688 1566 1689 1805 1802 1686 1803 1917
8 1689 1567 1690 1806 1803 1687 1804 1918
8 1691 1569 1692 1808 1805 1689 1806 1920
8 1692 1570 1693 1809 1806 1690 1807 1921
8 1694 1572 1695 1810 1808 1692 1809 1922
8 1829 1713 1811 1926 1712 1592 1697 1813
8 1813 1697 1812 1928 1699 1577 1698 1815
8 1735 1614 1712 1828 1816 1699 1813 1929
8 1815 1698 1814 1931 1701 1578 1700 1818
8 1702 1579 1699 1816 1819 1701 1815 1932
8 1818 1700 1817 1933 1704 1580 1703 1820
8 1819 1701 1818 1934 1705 1581 1704 1821
8 1821 1704 1820 1935 1707 1584 1706 1822
8 1824 1709 1632 1751 1937 1823 1750 1865
8 1716 1593 1709 1824 1834 1715 1823 1937
8 1825 1710 1633 1752 1938 1824 1751 1866
8 1717 1594 1710 1825 1835 1716 1824 1938
8 1945 1830 1712 1828 1851 1733 1614 1735
8 1830 1714 1831 1946 1712 1592 1713 1829
8 1947 1832 1714 1830 1849 1730 1611 1733
8 1843 1729 1607 1725 1950 1833 1715 1834
8 1721 1603 1716 1835 1836 1725 1834 1951
8 1836 1725 1842 1953 1721 1603 1724 1839
8 1723 1838 1719 1601 1840 1954 1837 1722
8 1954 1840 1743 1852 1837 1722 1623 1736
8 1724 1839 1720 1602 1841 1955 1838 1723
8 1841 1727 1844 1956 1723 1605 1726 1840
8 1956 1844 1747 1859 1840 1726 1628 1743
8 1728 1842 1724 1606 1845 1957 1841 1727
8 1725 1607 1729 1843 1842 1728 1846 1958
8 1741 1627 1746 1857 1849 1730 1848 1965
8 1734 1612 1731 1850 1851 1733 1849 1966
8 1854 1741 1849 1966 1738 1622 1731 1850
8 1967 1859 1745 1853 1852 1743 1626 1737
8 1968 1860 1744 1856 1853 1745 1625 1739
8 1854 1741 1622 1738 1969 1857 1742 1855
8 1855 1742 1624 1740 1970 1858 1744 1856
8 1857 1746 1631 1742 1971 1861 1749 1858
8 1858 1749 1630 1744 1972 1863 1748 1860
8 1859 1747 1862 1973 1745 1629 1748 1860
8 1875 1768 1864 1977 1761 1651 1750 1865
8 1755 1644 1761 1869 1866 1751 1865 1978
8 1867 1760 1874 1979 1754 1646 1763 1868
8 1774 1658 1775 1887 1867 1760 1874 1979
8 1870 1766 1648 1756 1980 1877 1763 1868
8 1872 1762 1875 1981 1758 1645 1761 1869
8 1757 1649 1766 1870 1871 1765 1880 1982
8 1983 1879 1764 1873 1871 1765 1647 1759
8 1873 1764 1876 1984 1759 1647 1762 1872
8 1877 1773 1655 1763 1986 1881 1767 1874
8 1775 1659 1776 1888 1874 1767 1881 1986
8 1876 1769 1882 1987 1762 1652 1768 1875
8 1878 1770 1883 1988 1764 1653 1769 1876
8 1880 1772 1656 1766 1989 1886 1773 1877
8 1878 1770 1653 1764 1990 1884 1771 1879
8 1765 1654 1772 1880 1879 1771 1885 1991
8 1778 1664 1779 1890 1887 1775 1888 1997
8 1998 1889 1776 1888 1891 1780 1665 1779
8 1893 1782 1891 2000 1781 1668 1779 1890
8 1894 1783 1892 2001 1782 1669 1780 1891
8 1784 1671 1785 1896 1893 1782 1894 2003
8 1897 1786 1895 2004 1785 1672 1783 1894
8 1790 1675 1789 1904 1896 1785 1897 2006
8 1901 1787 1898 2007 1789 1673 1786 1897
8 1903 1788 1900 2013 1789 1673 1787 1901
8 1792 1676 1791 1906 1903 1788 1902 2016
8 1907 1792 1903 2017 1795 1678 1789 1904
8 1906 1791 1677 1794 2019 1905 1793 1909
8 1907 1792 1678 1795 2020 1906 1794 1910
8 1797 1679 1796 1912 1909 1793 1908 2022
8 1798 1680 1797 1913 1910 1794 1909 2023
8 1800 1682 1799 1915 1912 1796 1911 2025
8 1801 1683 1800 1916 1913 1797 1912 2026
8 1803 1687 1804 1918 1915 1799 1914 2028
8 1802 1686 1803 1917 1916 1800 1915 2029
8 1805 1689 1806 1920 1917 1803 1918 2030
8 1806 1690 1807 1921 1918 1804 1919 2031
8 1808 1692 1809 1922 1920 1806 1921 2032
8 1939 1826 1924 2037 1829 1713 1811 1926
8 1926 1811 1925 2039 1813 1697 1812 1928
8 1944 1829 1926 2040 1828 1712 1813 1929
8 1928 1812 1927 2042 1815 1698 1814 1931
8 1929 1813 1928 2043 1816 1699 1815 1932
8 1931 1814 1930 2044 1818 1700 1817 1933
8 1932 1815 1931 2045 1819 1701 1818 1934
8 1934 1818 1933 2046 1821 1704 1820 1935
8 2048 1936 1823 1937 1977 1864 1750 1865
8 1950 1833 1715 1834 2048 1936 1823 1937
8 1938 1824 1751 1866 2049 1937 1865 1978
8 1835 1716 1824 1938 1951 1834 1937 2049
8 1939 1826 1713 1829 2053 1942 1831 1946
8 1940 1827 1923 2035 2053 1942 1826 1939
8 1945 1830 1946 2058 1828 1712 1829 1944
8 2059 1947 1830 1945 1966 1849 1733 1851
8 1947 1832 1730 1849 2060 1948 1848 1965
8 1947 1832 1948 2060 1830 1714 1831 1946
8 1959 1847 1729 1843 2063 1949 1833 1950
8 1952 1843 1725 1836 2064 1950 1834 1951
8 1836 1725 1843 1952 1953 1842 1958 2066
8 1953 1842 1957 2067 1839 1724 1841 1955
8 1841 1955 1838 1723 1956 2068 1954 1840
8 2068 1956 1859 1967 1954 1840 1743 1852
8 1956 1844 1960 2069 1859 1747 1862 1973
8 1845 1957 1841 1727 1960 2069 1956 1844
8 1728 1842 1957 1845 1846 1958 2071 1961
8 1962 2072 1959 1847 1846 1958 1843 1729
8 1971 1861 1964 2077 1857 1746 1848 1965
8 1854 1741 1857 1969 1966 1849 1965 2078
8 1967 1859 1973 2079 1853 1745 1860 1968
8 1970 1858 1744 1856 2080 1972 1860 1968
8 1969 1857 1742 1855 2081 1971 1858 1970
8 1971 1861 1749 1858 2082 1974 1863 1972
8 1973 1862 1975 2083 1860 1748 1863 1972
8 1987 1882 1976 2086 1875 1768 1864 1977
8 1981 1875 1977 2087 1869 1761 1865 1978
8 1980 1877 1763 1868 2088 1986 1874 1979
8 1887 1775 1888 1997 1979 1874 1986 2088
8 1880 1982 2089 1989 1766 1870 1980 1877
8 1984 1876 1987 2090 1872 1762 1875 1981
8 1765 1871 1983 1879 1880 1982 2091 1991
8 1985 1878 1764 1873 2092 1990 1879 1983
8 1985 1878 1988 2093 1873 1764 1876 1984
8 2094 1992 1881 1986 1998 1889 1776 1888
8 1986 1881 1992 2094 1877 1773 1886 1989
8 1988 1883 1993 2095 1876 1769 1882 1987
8 1878 1770 1884 1990 1988 1883 1994 2096
8 1991 1885 1772 1880 2097 1996 1886 1989
8 1879 1771 1885 1991 1990 1884 1995 2098
8 2103 1998 1888 1997 2000 1891 1779 1890
8 2104 1999 1889 1998 2001 1892 1780 1891
8 2003 1894 2001 2106 1893 1782 1891 2000
8 2004 1895 2002 2107 1894 1783 1892 2001
8 2006 1897 2004 2109 1896 1785 1894 2003
8 2007 1898 2005 2110 1897 1786 1895 2004
8 2014 1901 2007 2112 1904 1789 1897 2006
8 2011 1899 2008 2113 1901 1787 1898 2007
8 2119 2010 1899 2011 2013 1900 1787 1901
8 2016 1902 2012 2122 1903 1788 1900 2013
8 2017 1903 2013 2123 1904 1789 1901 2014
8 1906 1791 1905 2019 2016 1902 2015 2125
8 1907 1792 1906 2020 2017 1903 2016 2126
8 1909 1793 1908 2022 2019 1905 2018 2128
8 2020 1906 1794 1910 2129 2019 1909 2023
8 1912 1796 1911 2025 2022 1908 2021 2131
8 1913 1797 1912 2026 2023 1909 2022 2132
8 1915 1799 1914 2028 2025 1911 2024 2134
8 1916 1800 1915 2029 2026 1912 2025 2135
8 1918 1804 1919 2031 2028 1914 2027 2136
8 1917 1803 1918 2030 2029 1915 2028 2137
8 1920 1806 1921 2032 2030 1918 2031 2138
8 1940 1827 1941 2054 2035 1923 2033 2140
8 2035 1923 2034 2143 1939 1826 1924 2037
8 2037 1924 2036 2146 1926 1811 1925 2039
8 2051 1939 2037 2147 1944 1829 1926 2040
8 2039 1925 2038 2149 1928 1812 1927 2042
8 2040 1926 2039 2150 1929 1813 1928 2043
8 2042 1927 2041 2151 1931 1814 1930 2044
8 2043 1928 2042 2152 1932 1815 1931 2045
8 2045 1931 2044 2153 1934 1818 1933 2046
8 2155 2047 1936 2048 2086 1976 1864 1977
8 2063 1949 1833 1950 2155 2047 1936 2048
8 2156 2048 1937 2049 2087 1977 1865 1978
8 2064 1950 1834 1951 2156 2048 1937 2049
8 2051 1939 1829 1944 2160 2053 1946 2058
8 2052 1940 2035 2144 2160 2053 1939 2051
8 2053 1942 1831 1946 2163 2057 1948 2060
8 2055 1943 1827 1940 2163 2057 1942 2053
8 2055 1943 2056 2164 1940 1827 1941 2054
8 2059 1947 1849 1966 2167 2060 1965 2078
8 2059 1947 2060 2167 1945 1830 1946 2058
8 2077 1964 2061 2168 1965 1848 1948 2060
8 2070 1963 1847 1959 2170 2062 1949 2063
8 2065 1959 1843 1952 2171 2063 1950 2064
8 2173 2072 1958 2066 2065 1959 1843 1952
8 1953 1842 1958 2066 2067 1957 2071 2174
8 2068 1956 2069 2175 1967 1859 1973 2079
8 2067 1957 2069 2175 1955 1841 1956 2068
8 1845 1957 2069 1960 1961 2071 2176 2073
8 2069 1960 2073 2176 1973 1862 1975 2083
8 2070 1963 2075 2177 1959 1847 1962 2072
8 1846 1958 2071 1961 1962 2072 2178 2074
8 2077 1964 1861 1971 2182 2076 1974 2082
8 2081 1971 2077 2183 1969 1857 1965 2078
8 2079 1973 2083 2184 1968 1860 1972 2080
8 2081 1971 1858 1970 2185 2082 1972 2080
8 2083 1975 2084 2186 1972 1863 1974 2082
8 2086 1976 1882 1987 2189 2085 1993 2095
8 2090 1987 2086 2190 1981 1875 1977 2087
8 2191 2094 1986 2088 2103 1998 1888 1997
8 2088 1986 2094 2191 1980 1877 1989 2089
8 1991 2091 2192 2097 1880 1982 2089 1989
8 2093 1988 2095 2193 1984 1876 1987 2090
8 1879 1983 2092 1990 1991 2091 2194 2098
8 1985 1878 1990 2092 2093 1988 2096 2195
8 2097 1996 1886 1989 2196 2099 1992 2094
8 2196 2099 1992 2094 2104 1999 1889 1998
8 1994 2096 1988 1883 2100 2197 2095 1993
8 2096 1994 1884 1990 2198 2101 1995 2098
8 1995 2098 2199 2102 1885 1991 2097 1996
8 2203 2104 1998 2103 2106 2001 1891 2000
8 2107 2002 2105 2204 2001 1892 1999 2104
8 2109 2004 2107 2206 2003 1894 2001 2106
8 2110 2005 2108 2207 2004 1895 2002 2107
8 2112 2007 2110 2209 2006 1897 2004 2109
8 2113 2008 2111 2210 2007 1898 2005 2110
8 2120 2011 2113 2212 2014 1901 2007 2112
8 2117 2009 2114 2213 2011 1899 2008 2113
8 2219 2116 2009 2117 2119 2010 1899 2011
8 2222 2118 2010 2119 2122 2012 1900 2013
8 2223 2119 2011 2120 2123 2013 1901 2014
8 2016 1902 2015 2125 2122 2012 2121 2225
8 2126 2016 2122 2226 2017 1903 2013 2123
8 2019 1905 2018 2128 2125 2015 2124 2228
8 2020 1906 2019 2129 2126 2016 2125 2229
8 2022 1908 2021 2131 2128 2018 2127 2231
8 2023 1909 2022 2132 2129 2019 2128 2232
8 2025 1911 2024 2134 2131 2021 2130 2234
8 2026 1912 2025 2135 2132 2022 2131 2235
8 1914 2028 2134 2024 2027 2136 2236 2133
8 2029 1915 2028 2137 2135 2025 2134 2237
8 2030 1918 2031 2138 2137 2028 2136 2238
8 2157 2050 2139 2240 2054 1941 2033 2140
8 2052 1940 2054 2161 2144 2035 2140 2242
8 2140 2033 2141 2243 2035 1923 2034 2143
8 2143 2034 2142 2246 2037 1924 2036 2146
8 2144 2035 2143 2247 2051 1939 2037 2147
8 2146 2036 2145 2249 2039 1925 2038 2149
8 2147 2037 2146 2250 2040 1926 2039 2150
8 2149 2038 2148 2251 2042 1927 2041 2151
8 2150 2039 2149 2252 2043 1928 2042 2152
8 2152 2042 2151 2253 2045 1931 2044 2153
8 2255 2154 2047 2155 2189 2085 1976 2086
8 2170 2062 1949 2063 2255 2154 2047 2155
8 2256 2155 2048 2156 2190 2086 1977 2087
8 2171 2063 1950 2064 2256 2155 2048 2156
8 2258 2159 2050 2157 2164 2056 1941 2054
8 2160 2053 1946 2058 2262 2163 2060 2167
8 2162 2055 1940 2052 2262 2163 2053 2160
8 2162 2055 2164 2263 2052 1940 2054 2161
8 2163 2057 1948 2060 2264 2165 2061 2168
8 2055 1943 2057 2163 2164 2056 2165 2264
8 2182 2076 2166 2268 2077 1964 2061 2168
8 2183 2077 2168 2269 2078 1965 2060 2167
8 2070 1963 2062 2170 2177 2075 2169 2271
8 2172 2070 1959 2065 2272 2170 2063 2171
8 2172 2070 2177 2273 2065 1959 2072 2173
8 2066 1958 2072 2173 2174 2071 2178 2274
8 2067 1957 2071 2174 2175 2069 2176 2275
8 2175 2069 2176 2275 2079 1973 2083 2184
8 2071 1961 2074 2178 2176 2073 2179 2276
8 2176 2073 2179 2276 2083 1975 2084 2186
8 2072 1962 2075 2177 2178 2074 2180 2277
8 2182 2076 1974 2082 2280 2181 2084 2186
8 2183 2077 1971 2081 2281 2182 2082 2185
8 2184 2083 2186 2282 2080 1972 2082 2185
8 2189 2085 1993 2095 2285 2188 2100 2197
8 2190 2086 1987 2090 2286 2189 2095 2193
8 2192 2097 1989 2089 2287 2196 2094 2191
8 2287 2196 2094 2191 2203 2104 1998 2103
8 2194 2098 1991 2091 2288 2199 2097 2192
8 2195 2096 2197 2289 2093 1988 2095 2193
8 2096 2195 2290 2198 1990 2092 2194 2098
8 2097 1996 2099 2196 2199 2102 2200 2291
8 2196 2099 1999 2104 2291 2200 2105 2204
8 2100 2197 2292 2201 1994 2096 2198 2101
8 1995 2098 2198 2101 2102 2199 2293 2202
8 2206 2107 2204 2296 2106 2001 2104 2203
8 2207 2108 2205 2297 2107 2002 2105 2204
8 2209 2110 2207 2299 2109 2004 2107 2206
8 2210 2111 2208 2300 2110 2005 2108 2207
8 2212 2113 2210 2302 2112 2007 2110 2209
8 2213 2114 2211 2303 2113 2008 2111 2210
8 2220 2117 2213 2305 2120 2011 2113 2212
8 2216 2115 2214 2306 2117 2009 2114 2213
8 2216 2115 2009 2117 2311 2217 2116 2219
8 2219 2116 2010 2119 2314 2218 2118 2222
8 2315 2219 2117 2220 2223 2119 2011 2120
8 2122 2012 2121 2225 2222 2118 2221 2317
8 2318 2222 2119 2223 2226 2122 2013 2123
8 2125 2015 2124 2228 2225 2121 2224 2320
8 2126 2016 2125 2229 2226 2122 2225 2321
8 2128 2018 2127 2231 2228 2124 2227 2323
8 2129 2019 2128 2232 2229 2125 2228 2324
8 2131 2021 2130 2234 2231 2127 2230 2326
8 2132 2022 2131 2235 2232 2128 2231 2327
8 2134 2024 2133 2236 2234 2130 2233 2328
8 2135 2025 2134 2237 2235 2131 2234 2329
8 2137 2028 2136 2238 2237 2134 2236 2330
8 2157 2050 2158 2259 2240 2139 2239 2332
8 2257 2157 2240 2334 2161 2054 2140 2242
8 2240 2139 2241 2335 2140 2033 2141 2243
8 2242 2140 2243 2337 2144 2035 2143 2247
8 2243 2141 2244 2338 2143 2034 2142 2246
8 2246 2142 2245 2341 2146 2036 2145 2249
8 2247 2143 2246 2342 2147 2037 2146 2250
8 2249 2145 2248 2343 2149 2038 2148 2251
8 2250 2146 2249 2344 2150 2039 2149 2252
8 2252 2149 2251 2345 2152 2042 2151 2253
8 2169 2271 2347 2254 2062 2170 2255 2154
8 2189 2085 2188 2285 2255 2154 2254 2347
8 2348 2255 2155 2256 2286 2189 2086 2190
8 2272 2170 2063 2171 2348 2255 2155 2256
8 2349 2258 2157 2257 2263 2164 2054 2161
8 2258 2159 2261 2351 2157 2050 2158 2259
8 2258 2159 2056 2164 2351 2261 2165 2264
8 2262 2163 2060 2167 2355 2264 2168 2269
8 2162 2055 2163 2262 2263 2164 2264 2355
8 2357 2266 2165 2264 2268 2166 2061 2168
8 2268 2166 2076 2182 2361 2267 2181 2280
8 2281 2182 2268 2362 2183 2077 2168 2269
8 2271 2169 2270 2364 2177 2075 2180 2277
8 2172 2070 2170 2272 2273 2177 2271 2365
8 2072 2173 2274 2178 2177 2273 2366 2277
8 2071 2174 2275 2176 2178 2274 2367 2276
8 2275 2176 2276 2367 2184 2083 2186 2282
8 2283 2187 2084 2186 2368 2278 2179 2276
8 2178 2074 2180 2277 2276 2179 2278 2368
8 2283 2187 2279 2370 2186 2084 2181 2280
8 2281 2182 2082 2185 2371 2280 2186 2282
8 2188 2285 2374 2284 2100 2197 2292 2201
8 2286 2189 2095 2193 2375 2285 2197 2289
8 2192 2097 2196 2287 2288 2199 2291 2376
8 2287 2196 2104 2203 2376 2291 2204 2296
8 2194 2098 2199 2288 2290 2198 2293 2377
8 2289 2197 2096 2195 2378 2292 2198 2290
8 2291 2200 2105 2204 2379 2294 2205 2297
8 2199 2102 2200 2291 2293 2202 2294 2379
8 2198 2101 2202 2293 2292 2201 2295 2380
8 2299 2207 2297 2383 2206 2107 2204 2296
8 2300 2208 2298 2384 2207 2108 2205 2297
8 2302 2210 2300 2386 2209 2110 2207 2299
8 2303 2211 2301 2387 2210 2111 2208 2300
8 2305 2213 2303 2389 2212 2113 2210 2302
8 2306 2214 2304 2390 2213 2114 2211 2303
8 2310 2216 2306 2392 2220 2117 2213 2305
8 2308 2215 2307 2393 2216 2115 2214 2306
8 2308 2215 2115 2216 2396 2309 2217 2311
8 2310 2216 2117 2220 2398 2311 2219 2315
8 2311 2217 2116 2219 2399 2312 2218 2314
8 2314 2218 2118 2222 2402 2313 2221 2317
8 2315 2219 2119 2223 2403 2314 2222 2318
8 2225 2121 2224 2320 2317 2221 2316 2405
8 2226 2122 2225 2321 2318 2222 2317 2406
8 2228 2124 2227 2323 2320 2224 2319 2408
8 2229 2125 2228 2324 2321 2225 2320 2409
8 2231 2127 2230 2326 2323 2227 2322 2411
8 2232 2128 2231 2327 2324 2228 2323 2412
8 2234 2130 2233 2328 2326 2230 2325 2413
8 2235 2131 2234 2329 2327 2231 2326 2414
8 2237 2134 2236 2330 2329 2234 2328 2415
8 2259 2158 2260 2352 2332 2239 2331 2417
8 2257 2157 2259 2350 2334 2240 2332 2419
8 2240 2139 2239 2332 2335 2241 2333 2420
8 2334 2240 2335 2422 2242 2140 2243 2337
8 2335 2241 2336 2423 2243 2141 2244 2338
8 2337 2243 2338 2425 2247 2143 2246 2342
8 2338 2244 2339 2426 2246 2142 2245 2341
8 2341 2245 2340 2428 2249 2145 2248 2343
8 2342 2246 2341 2429 2250 2146 2249 2344
8 2344 2249 2343 2430 2252 2149 2251 2345
8 2188 2285 2347 2254 2284 2374 2432 2346
8 2347 2254 2346 2432 2271 2169 2270 2364
8 2365 2271 2170 2272 2433 2347 2255 2348
8 2286 2189 2285 2375 2348 2255 2347 2433
8 2349 2258 2351 2435 2257 2157 2259 2350
8 2349 2258 2164 2263 2435 2351 2264 2355
8 2259 2158 2261 2351 2352 2260 2354 2437
8 2356 2265 2354 2437 2264 2165 2261 2351
8 2441 2357 2264 2355 2362 2268 2168 2269
8 2356 2265 2165 2264 2442 2358 2266 2357
8 2443 2359 2266 2357 2361 2267 2166 2268
8 2370 2279 2360 2446 2280 2181 2267 2361
8 2362 2268 2182 2281 2447 2361 2280 2371
8 2180 2277 2368 2278 2270 2364 2449 2363
8 2271 2365 2273 2177 2364 2450 2366 2277
8 2372 2283 2186 2282 2451 2368 2276 2367
8 2178 2274 2367 2276 2277 2366 2451 2368
8 2283 2187 2278 2368 2370 2279 2369 2452
8 2372 2283 2370 2453 2282 2186 2280 2371
8 2284 2374 2455 2373 2201 2292 2380 2295
8 2375 2285 2197 2289 2456 2374 2292 2378
8 2376 2291 2204 2296 2457 2379 2297 2383
8 2288 2199 2291 2376 2377 2293 2379 2457
8 2198 2290 2378 2292 2293 2377 2458 2380
8 2293 2202 2294 2379 2380 2295 2381 2459
8 2384 2298 2381 2459 2297 2205 2294 2379
8 2386 2300 2384 2463 2299 2207 2297 2383
8 2387 2301 2385 2464 2300 2208 2298 2384
8 2389 2303 2387 2466 2302 2210 2300 2386
8 2390 2304 2388 2467 2303 2211 2301 2387
8 2392 2306 2390 2469 2305 2213 2303 2389
8 2393 2307 2391 2470 2306 2214 2304 2390
8 2395 2308 2393 2472 2310 2216 2306 2392
8 2308 2215 2309 2396 2393 2307 2394 2473
8 2395 2308 2216 2310 2475 2396 2311 2398
8 2396 2309 2217 2311 2476 2397 2312 2399
8 2398 2311 2219 2315 2478 2399 2314 2403
8 2399 2312 2218 2314 2479 2400 2313 2402
8 2317 2221 2316 2405 2402 2313 2401 2482
8 2403 2314 2222 2318 2483 2402 2317 2406
8 2320 2224 2319 2408 2405 2316 2404 2485
8 2321 2225 2320 2409 2406 2317 2405 2486
8 2323 2227 2322 2411 2408 2319 2407 2488
8 2324 2228 2323 2412 2409 2320 2408 2489
8 2326 2230 2325 2413 2411 2322 2410 2490
8 2327 2231 2326 2414 2412 2323 2411 2491
8 2329 2234 2328 2415 2414 2326 2413 2492
8 2417 2331 2260 2352 2494 2416 2353 2438
8 2350 2259 2352 2436 2419 2332 2417 2496
8 2332 2239 2331 2417 2420 2333 2418 2497
8 2334 2240 2332 2419 2422 2335 2420 2499
8 2420 2333 2421 2500 2335 2241 2336 2423
8 2422 2335 2423 2502 2337 2243 2338 2425
8 2423 2336 2424 2503 2338 2244 2339 2426
8 2425 2338 2426 2505 2342 2246 2341 2429
8 2426 2339 2427 2506 2341 2245 2340 2428
8 2429 2341 2428 2507 2344 2249 2343 2430
8 2432 2346 2284 2374 2509 2431 2373 2455
8 2432 2346 2431 2509 2364 2270 2363 2449
8 2375 2285 2374 2456 2433 2347 2432 2510
8 2347 2433 2365 2271 2432 2510 2450 2364
8 2350 2259 2351 2435 2436 2352 2437 2514
8 2440 2356 2437 2514 2355 2264 2351 2435
8 2352 2260 2354 2437 2438 2353 2439 2516
8 2356 2265 2358 2442 2437 2354 2439 2516
8 2440 2356 2264 2355 2518 2442 2357 2441
8 2519 2443 2357 2441 2447 2361 2268 2362
8 2443 2359 2444 2520 2357 2266 2358 2442
8 2443 2359 2267 2361 2520 2444 2360 2446
8 2446 2360 2279 2370 2523 2445 2369 2452
8 2453 2370 2446 2524 2371 2280 2361 2447
8 2449 2363 2448 2525 2368 2278 2369 2452
8 2366 2277 2364 2450 2451 2368 2449 2526
8 2372 2283 2368 2451 2453 2370 2452 2527
8 2455 2373 2295 2380 2529 2454 2382 2460
8 2456 2374 2292 2378 2530 2455 2380 2458
8 2377 2293 2379 2457 2458 2380 2459 2531
8 2463 2384 2459 2531 2383 2297 2379 2457
8 2533 2461 2382 2460 2459 2381 2295 2380
8 2464 2385 2461 2533 2384 2298 2381 2459
8 2466 2387 2464 2537 2386 2300 2384 2463
8 2467 2388 2465 2538 2387 2301 2385 2464
8 2469 2390 2467 2540 2389 2303 2387 2466
8 2470 2391 2468 2541 2390 2304 2388 2467
8 2472 2393 2470 2543 2392 2306 2390 2469
8 2393 2307 2394 2473 2470 2391 2471 2544
8 2395 2308 2396 2475 2472 2393 2473 2546
8 2396 2309 2397 2476 2473 2394 2474 2547
8 2475 2396 2311 2398 2549 2476 2399 2478
8 2476 2397 2312 2399 2550 2477 2400 2479
8 2478 2399 2314 2403 2552 2479 2402 2483
8 2479 2400 2313 2402 2553 2480 2401 2482
8 2405 2316 2404 2485 2482 2401 2481 2556
8 2406 2317 2405 2486 2483 2402 2482 2557
8 2408 2319 2407 2488 2485 2404 2484 2559
8 2409 2320 2408 2489 2486 2405 2485 2560
8 2411 2322 2410 2490 2488 2407 2487 2561
8 2412 2323 2411 2491 2489 2408 2488 2562
8 2414 2326 2413 2492 2491 2411 2490 2563
8 2513 2434 2493 2565 2438 2353 2416 2494
8 2496 2417 2352 2436 2567 2494 2438 2515
8 2494 2416 2495 2568 2417 2331 2418 2497
8 2419 2332 2417 2496 2499 2420 2497 2570
8 2497 2418 2498 2571 2420 2333 2421 2500
8 2499 2420 2500 2573 2422 2335 2423 2502
8 2500 2421 2501 2574 2423 2336 2424 2503
8 2502 2423 2503 2576 2425 2338 2426 2505
8 2503 2424 2504 2577 2426 2339 2427 2506
8 2505 2426 2506 2578 2429 2341 2428 2507
8 2509 2431 2373 2455 2580 2508 2454 2529
8 2509 2431 2508 2580 2449 2363 2448 2525
8 2432 2510 2581 2509 2374 2456 2530 2455
8 2432 2510 2450 2364 2509 2581 2526 2449
8 2583 2511 2434 2513 2516 2439 2353 2438
8 2436 2352 2437 2514 2515 2438 2516 2588
8 2440 2356 2442 2518 2514 2437 2516 2588
8 2442 2358 2444 2520 2516 2439 2517 2589
8 2519 2443 2520 2591 2441 2357 2442 2518
8 2519 2443 2361 2447 2591 2520 2446 2524
8 2446 2360 2445 2523 2520 2444 2521 2592
8 2525 2448 2522 2593 2452 2369 2445 2523
8 2524 2446 2370 2453 2594 2523 2452 2527
8 2526 2449 2525 2595 2451 2368 2452 2527
8 2534 2462 2528 2597 2460 2382 2454 2529
8 2530 2455 2380 2458 2598 2529 2460 2532
8 2599 2533 2460 2532 2531 2459 2380 2458
8 2537 2464 2533 2599 2463 2384 2459 2531
8 2534 2462 2382 2460 2601 2535 2461 2533
8 2538 2465 2535 2601 2464 2385 2461 2533
8 2540 2467 2538 2604 2466 2387 2464 2537
8 2541 2468 2539 2605 2467 2388 2465 2538
8 2543 2470 2541 2607 2469 2390 2467 2540
8 2470 2391 2471 2544 2541 2468 2542 2608
8 2472 2393 2473 2546 2543 2470 2544 2610
8 2473 2394 2474 2547 2544 2471 2545 2611
8 2475 2396 2476 2549 2546 2473 2547 2613
8 2476 2397 2477 2550 2547 2474 2548 2614
8 2549 2476 2399 2478 2616 2550 2479 2552
8 2479 2400 2480 2553 2550 2477 2551 2617
8 2552 2479 2402 2483 2619 2553 2482 2557
8 2482 2401 2481 2556 2553 2480 2554 2620
8 2485 2404 2484 2559 2556 2481 2555 2623
8 2486 2405 2485 2560 2557 2482 2556 2624
8 2488 2407 2487 2561 2559 2484 2558 2625
8 2489 2408 2488 2562 2560 2485 2559 2626
8 2491 2411 2490 2563 2562 2488 2561 2627
8 2513 2434 2512 2585 2565 2493 2564 2630
8 2586 2513 2565 2632 2515 2438 2494 2567
8 2565 2493 2566 2633 2494 2416 2495 2568
8 2567 2494 2568 2635 2496 2417 2497 2570
8 2568 2495 2569 2636 2497 2418 2498 2571
8 2570 2497 2571 2638 2499 2420 2500 2573
8 2571 2498 2572 2639 2500 2421 2501 2574
8 2573 2500 2574 2641 2502 2423 2503 2576
8 2574 2501 2575 2642 2503 2424 2504 2577
8 2576 2503 2577 2643 2505 2426 2506 2578
8 2597 2528 2579 2645 2529 2454 2508 2580
8 2580 2508 2579 2645 2525 2448 2522 2593
8 2581 2509 2455 2530 2646 2580 2529 2598
8 2581 2509 2580 2646 2526 2449 2525 2595
8 2583 2511 2582 2648 2513 2434 2512 2585
8 2583 2511 2439 2516 2648 2582 2517 2589
8 2649 2583 2513 2586 2588 2516 2438 2515
8 2589 2517 2444 2520 2653 2587 2521 2592
8 2518 2442 2520 2591 2588 2516 2589 2654
8 2593 2522 2590 2655 2523 2445 2521 2592
8 2524 2446 2523 2594 2591 2520 2592 2656
8 2595 2525 2593 2657 2527 2452 2523 2594
8 2602 2536 2596 2659 2534 2462 2528 2597
8 2600 2534 2597 2660 2532 2460 2529 2598
8 2600 2534 2460 2532 2661 2601 2533 2599
8 2604 2538 2601 2661 2537 2464 2533 2599
8 2602 2536 2462 2534 2663 2603 2535 2601
8 2601 2535 2465 2538 2663 2603 2539 2605
8 2607 2541 2605 2665 2540 2467 2538 2604
8 2608 2542 2606 2666 2541 2468 2539 2605
8 2543 2470 2544 2610 2607 2541 2608 2668
8 2544 2471 2545 2611 2608 2542 2609 2669
8 2546 2473 2547 2613 2610 2544 2611 2671
8 2547 2474 2548 2614 2611 2545 2612 2672
8 2549 2476 2550 2616 2613 2547 2614 2674
8 2550 2477 2551 2617 2614 2548 2615 2675
8 2552 2479 2553 2619 2616 2550 2617 2677
8 2553 2480 2554 2620 2617 2551 2618 2678
8 2557 2482 2556 2624 2619 2553 2620 2680
8 2556 2481 2555 2623 2620 2554 2621 2681
8 2559 2484 2558 2625 2623 2555 2622 2683
8 2560 2485 2559 2626 2624 2556 2623 2684
8 2562 2488 2561 2627 2626 2559 2625 2685
8 2690 2629 2564 2630 2650 2584 2512 2585
8 2586 2513 2585 2651 2632 2565 2630 2691
8 2630 2564 2631 2692 2565 2493 2566 2633
8 2632 2565 2633 2694 2567 2494 2568 2635
8 2633 2566 2634 2695 2568 2495 2569 2636
8 2635 2568 2636 2697 2570 2497 2571 2638
8 2636 2569 2637 2698 2571 2498 2572 2639
8 2638 2571 2639 2700 2573 2500 2574 2641
8 2639 2572 2640 2701 2574 2501 2575 2642
8 2641 2574 2642 2702 2576 2503 2577 2643
8 2597 2528 2596 2659 2645 2579 2644 2704
8 2645 2579 2644 2704 2593 2522 2590 2655
8 2660 2597 2645 2705 2598 2529 2580 2646
8 2646 2580 2645 2705 2595 2525 2593 2657
8 2650 2584 2512 2585 2707 2647 2582 2648
8 2648 2582 2517 2589 2707 2647 2587 2653
8 2649 2583 2648 2708 2586 2513 2585 2651
8 2649 2583 2516 2588 2708 2648 2589 2654
8 2655 2590 2652 2710 2592 2521 2587 2653
8 2654 2589 2520 2591 2711 2653 2592 2656
8 2657 2593 2655 2712 2594 2523 2592 2656
8 2602 2536 2603 2663 2659 2596 2658 2714
8 2662 2602 2659 2715 2600 2534 2597 2660
8 2662 2602 2534 2600 2717 2663 2601 2661
8 2661 2601 2538 2604 2717 2663 2605 2665
8 2666 2606 2664 2718 2605 2539 2603 2663
8 2668 2608 2666 2720 2607 2541 2605 2665
8 2608 2542 2609 2669 2666 2606 2667 2721
8 2610 2544 2611 2671 2668 2608 2669 2723
8 2611 2545 2612 2672 2669 2609 2670 2724
8 2613 2547 2614 2674 2671 2611 2672 2726
8 2614 2548 2615 2675 2672 2612 2673 2727
8 2616 2550 2617 2677 2674 2614 2675 2729
8 2617 2551 2618 2678 2675 2615 2676 2730
8 2619 2553 2620 2680 2677 2617 2678 2732
8 2620 2554 2621 2681 2678 2618 2679 2733
8 2624 2556 2623 2684 2680 2620 2681 2735
8 2681 2621 2555 2623 2736 2682 2622 2683
8 2626 2559 2625 2685 2684 2623 2683 2737
8 2688 2628 2584 2650 2740 2686 2647 2707
8 2688 2628 2687 2742 2650 2584 2629 2690
8 2690 2629 2689 2745 2630 2564 2631 2692
8 2746 2690 2630 2691 2709 2650 2585 2651
8 2691 2630 2692 2747 2632 2565 2633 2694
8 2692 2631 2693 2748 2633 2566 2634 2695
8 2694 2633 2695 2750 2635 2568 2636 2697
8 2695 2634 2696 2751 2636 2569 2637 2698
8 2697 2636 2698 2753 2638 2571 2639 2700
8 2698 2637 2699 2754 2639 2572 2640 2701
8 2700 2639 2701 2755 2641 2574 2642 2702
8 2659 2596 2658 2714 2704 2644 2703 2757
8 2704 2644 2703 2757 2655 2590 2652 2710
8 2660 2597 2659 2715 2705 2645 2704 2758
8 2705 2645 2704 2758 2657 2593 2655 2712
8 2759 2706 2647 2707 2710 2652 2587 2653
8 2709 2650 2585 2651 2760 2707 2648 2708
8 2708 2648 2589 2654 2760 2707 2653 2711
8 2712 2655 2710 2761 2656 2592 2653 2711
8 2763 2713 2658 2714 2718 2664 2603 2663
8 2662 2602 2663 2717 2715 2659 2714 2764
8 2720 2666 2718 2767 2665 2605 2663 2717
8 2768 2719 2664 2718 2721 2667 2606 2666
8 2668 2608 2669 2723 2720 2666 2721 2770
8 2669 2609 2670 2724 2721 2667 2722 2771
8 2671 2611 2672 2726 2723 2669 2724 2773
8 2672 2612 2673 2727 2724 2670 2725 2774
8 2674 2614 2675 2729 2726 2672 2727 2776
8 2675 2615 2676 2730 2727 2673 2728 2777
8 2677 2617 2678 2732 2729 2675 2730 2779
8 2678 2618 2679 2733 2730 2676 2731 2780
8 2680 2620 2681 2735 2732 2678 2733 2782
8 2733 2679 2621 2681 2783 2734 2682 2736
8 2735 2681 2623 2684 2784 2736 2683 2737
8 2740 2686 2647 2707 2787 2738 2706 2759
8 2688 2628 2686 2740 2742 2687 2739 2789
8 2743 2688 2650 2709 2790 2740 2707 2760
8 2742 2687 2741 2792 2690 2629 2689 2745
8 2743 2688 2742 2793 2709 2650 2690 2746
8 2745 2689 2744 2795 2692 2631 2693 2748
8 2746 2690 2745 2796 2691 2630 2692 2747
8 2747 2692 2748 2797 2694 2633 2695 2750
8 2748 2693 2749 2798 2695 2634 2696 2751
8 2750 2695 2751 2800 2697 2636 2698 2753
8 2751 2696 2752 2801 2698 2637 2699 2754
8 2753 2698 2754 2802 2700 2639 2701 2755
8 2763 2713 2756 2804 2714 2658 2703 2757
8 2759 2706 2652 2710 2804 2756 2703 2757
8 2715 2659 2714 2764 2758 2704 2757 2805
8 2758 2704 2757 2805 2712 2655 2710 2761
8 2806 2759 2707 2760 2761 2710 2653 2711
8 2765 2716 2762 2808 2718 2664 2713 2763
8 2809 2763 2714 2764 2767 2718 2663 2717
8 2765 2716 2664 2718 2811 2766 2719 2768
8 2813 2768 2718 2767 2770 2721 2666 2720
8 2814 2769 2719 2768 2771 2722 2667 2721
8 2723 2669 2724 2773 2770 2721 2771 2816
8 2724 2670 2725 2774 2771 2722 2772 2817
8 2726 2672 2727 2776 2773 2724 2774 2819
8 2727 2673 2728 2777 2774 2725 2775 2820
8 2729 2675 2730 2779 2776 2727 2777 2822
8 2730 2676 2731 2780 2777 2728 2778 2823
8 2732 2678 2733 2782 2779 2730 2780 2825
8 2780 2731 2679 2733 2826 2781 2734 2783
8 2782 2733 2681 2735 2827 2783 2736 2784
8 2830 2785 2738 2787 2804 2756 2706 2759
8 2789 2739 2686 2740 2832 2786 2738 2787
8 2790 2740 2707 2760 2833 2787 2759 2806
8 2742 2687 2739 2789 2792 2741 2788 2835
8 2743 2688 2740 2790 2793 2742 2789 2836
8 2792 2741 2791 2838 2745 2689 2744 2795
8 2793 2742 2792 2839 2746 2690 2745 2796
8 2795 2744 2794 2841 2748 2693 2749 2798
8 2796 2745 2795 2842 2747 2692 2748 2797
8 2797 2748 2798 2843 2750 2695 2751 2800
8 2798 2749 2799 2844 2751 2696 2752 2801
8 2800 2751 2801 2845 2753 2698 2754 2802
8 2808 2762 2803 2847 2763 2713 2756 2804
8 2809 2763 2804 2848 2764 2714 2757 2805
8 2806 2759 2710 2761 2848 2804 2757 2805
8 2765 2716 2766 2811 2808 2762 2807 2850
8 2810 2765 2808 2851 2767 2718 2763 2809
8 2810 2765 2718 2767 2852 2811 2768 2813
8 2811 2766 2719 2768 2853 2812 2769 2814
8 2855 2814 2768 2813 2816 2771 2721 2770
8 2856 2815 2769 2814 2817 2772 2722 2771
8 2773 2724 2774 2819 2816 2771 2817 2858
8 2774 2725 2775 2820 2817 2772 2818 2859
8 2776 2727 2777 2822 2819 2774 2820 2861
8 2777 2728 2778 2823 2820 2775 2821 2862
8 2779 2730 2780 2825 2822 2777 2823 2864
8 2823 2778 2731 2780 2865 2824 2781 2826
8 2825 2780 2733 2782 2866 2826 2783 2827
8 2869 2828 2785 2830 2847 2803 2756 2804
8 2871 2829 2786 2832 2830 2785 2738 2787
8 2872 2830 2787 2833 2848 2804 2759 2806
8 2789 2739 2786 2832 2835 2788 2831 2874
8 2836 2789 2740 2790 2875 2832 2787 2833
8 2792 2741 2788 2835 2838 2791 2834 2877
8 2793 2742 2789 2836 2839 2792 2835 2878
8 2838 2791 2837 2880 2795 2744 2794 2841
8 2839 2792 2838 2881 2796 2745 2795 2842
8 2841 2794 2840 2882 2798 2749 2799 2844
8 2842 2795 2841 2883 2797 2748 2798 2843
8 2843 2798 2844 2884 2800 2751 2801 2845
8 2886 2846 2803 2847 2850 2807 2762 2808
8 2851 2808 2847 2887 2809 2763 2804 2848
8 2850 2807 2766 2811 2889 2849 2812 2853
8 2810 2765 2811 2852 2851 2808 2850 2890
8 2852 2811 2768 2813 2891 2853 2814 2855
8 2853 2812 2769 2814 2892 2854 2815 2856
8 2894 2856 2814 2855 2858 2817 2771 2816
8 2817 2772 2818 2859 2856 2815 2857 2895
8 2819 2774 2820 2861 2858 2817 2859 2897
8 2820 2775 2821 2862 2859 2818 2860 2898
8 2822 2777 2823 2864 2861 2820 2862 2900
8 2823 2778 2824 2865 2862 2821 2863 2901
8 2864 2823 2780 2825 2902 2865 2826 2866
8 2904 2867 2828 2869 2886 2846 2803 2847
8 2869 2828 2868 2906 2830 2785 2829 2871
8 2907 2869 2830 2872 2887 2847 2804 2848
8 2871 2829 2870 2909 2832 2786 2831 2874
8 2910 2871 2832 2875 2872 2830 2787 2833
8 2835 2788 2831 2874 2877 2834 2873 2912
8 2836 2789 2832 2875 2878 2835 2874 2913
8 2877 2834 2876 2915 2838 2791 2837 2880
8 2839 2792 2835 2878 2881 2838 2877 2916
8 2880 2837 2879 2917 2841 2794 2840 2882
8 2881 2838 2880 2918 2842 2795 2841 2883
8 2883 2841 2882 2919 2843 2798 2844 2884
8 2921 2885 2846 2886 2889 2849 2807 2850
8 2922 2886 2847 2887 2890 2850 2808 2851
8 2889 2849 2812 2853 2924 2888 2854 2892
8 2890 2850 2811 2852 2925 2889 2853 2891
8 2891 2853 2814 2855 2926 2892 2856 2894
8 2892 2854 2815 2856 2927 2893 2857 2895
8 2858 2817 2859 2897 2894 2856 2895 2929
8 2859 2818 2860 2898 2895 2857 2896 2930
8 2861 2820 2862 2900 2897 2859 2898 2932
8 2862 2821 2863 2901 2898 2860 2899 2933
8 2864 2823 2865 2902 2900 2862 2901 2934
8 2904 2867 2846 2886 2936 2903 2885 2921
8 2904 2867 2903 2936 2869 2828 2868 2906
8 2937 2904 2869 2907 2922 2886 2847 2887
8 2906 2868 2905 2939 2871 2829 2870 2909
8 2907 2869 2906 2940 2872 2830 2871 2910
8 2909 2870 2908 2942 2874 2831 2873 2912
8 2910 2871 2909 2943 2875 2832 2874 2913
8 2912 2873 2911 2945 2877 2834 2876 2915
8 2878 2835 2874 2913 2916 2877 2912 2946
8 2915 2876 2914 2947 2880 2837 2879 2917
8 2916 2877 2915 2948 2881 2838 2880 2918
8 2918 2880 2917 2949 2883 2841 2882 2919
8 2921 2885 2849 2889 2951 2920 2888 2924
8 2952 2921 2886 2922 2925 2889 2850 2890
8 2924 2888 2854 2892 2954 2923 2893 2927
8 2925 2889 2853 2891 2955 2924 2892 2926
8 2926 2892 2856 2894 2956 2927 2895 2929
8 2895 2857 2896 2930 2927 2893 2928 2957
8 2897 2859 2898 2932 2929 2895 2930 2959
8 2898 2860 2899 2933 2930 2896 2931 2960
8 2900 2862 2901 2934 2932 2898 2933 2961
8 2936 2903 2885 2921 2963 2935 2920 2951
8 2936 2903 2935 2963 2906 2868 2905 2939
8 2937 2904 2886 2922 2964 2936 2921 2952
8 2937 2904 2936 2964 2907 2869 2906 2940
8 2939 2905 2938 2966 2909 2870 2908 2942
8 2940 2906 2939 2967 2910 2871 2909 2943
8 2942 2908 2941 2969 2912 2873 2911 2945
8 2943 2909 2942 2970 2913 2874 2912 2946
8 2945 2911 2944 2971 2915 2876 2914 2947
8 2946 2912 2945 2972 2916 2877 2915 2948
8 2948 2915 2947 2973 2918 2880 2917 2949
8 2951 2920 2888 2924 2975 2950 2923 2954
8 2952 2921 2889 2925 2976 2951 2924 2955
8 2927 2893 2928 2957 2954 2923 2953 2978
8 2955 2924 2892 2926 2979 2954 2927 2956
8 2929 2895 2930 2959 2956 2927 2957 2980
8 2930 2896 2931 2960 2957 2928 2958 2981
8 2932 2898 2933 2961 2959 2930 2960 2982
8 2951 2920 2950 2975 2963 2935 2962 2984
8 2963 2935 2962 2984 2939 2905 2938 2966
8 2964 2936 2921 2952 2985 2963 2951 2976
8 2964 2936 2963 2985 2940 2906 2939 2967
8 2966 2938 2965 2987 2942 2908 2941 2969
8 2967 2939 2966 2988 2943 2909 2942 2970
8 2969 2941 2968 2989 2945 2911 2944 2971
8 2970 2942 2969 2990 2946 2912 2945 2972
8 2972 2945 2971 2991 2948 2915 2947 2973
8 2954 2923 2953 2978 2975 2950 2974 2993
8 2976 2951 2924 2955 2994 2975 2954 2979
8 2957 2928 2958 2981 2978 2953 2977 2995
8 2956 2927 2957 2980 2979 2954 2978 2996
8 2959 2930 2960 2982 2980 2957 2981 2997
8 2984 2962 2983 2999 2966 2938 2965 2987
8 2975 2950 2974 2993 2984 2962 2983 2999
8 2976 2951 2975 2994 2985 2963 2984 3000
8 2985 2963 2984 3000 2967 2939 2966 2988
8 2987 2965 2986 3001 2969 2941 2968 2989
8 2988 2966 2987 3002 2970 2942 2969 2990
8 2990 2969 2989 3003 2972 2945 2971 2991
8 2978 2953 2977 2995 2993 2974 2992 3004
8 2979 2954 2978 2996 2994 2975 2993 3005
8 2980 2957 2981 2997 2996 2978 2995 3006
8 2974 2993 2999 2983 2992 3004 3007 2998
8 2983 2999 2987 2965 2998 3007 3001 2986
8 3000 2984 2999 3008 2988 2966 2987 3002
8 2994 2975 2993 3005 3000 2984 2999 3008
8 3002 2987 3001 3009 2990 2969 2989 3003
8 2996 2978 2995 3006 3005 2993 3004 3010
8 3005 2993 3004 3010 3008 2999 3007 3011
8 3008 2999 3007 3011 3002 2987 3001 3009

CELL_TYPES 1910
12
12
12
12
12
12
12
12
12
12
12
12
12
12
12
12
12
12
12
12
12
12
12
12
12
12
12
12
12
12
12
12
12
12
12
12
12
12
12
12
12
12
12
12
12
12
12
12
12
12
12
12
12
12
12
12
12
12
12
12
12
12
12
12
12
12
12
12
12
12
12
12
12
12
12
12
12
12
12
12
12
12
12
12
12
12
12
12
12
12
12
12
12
12
12
12
12
12
12
12
12
12
12
12
12
12
12
12
12
12
12
12
12
12
12
12
12
12
12
12
12
12
12
12
12
12
12
12
12
12
12
12
12
12
12
12
12
12
12
12
12
12
12
12
12
12
12
12
12
12
12
12
12
12
12
12
12
12
12
12
12
12
12
12
12
12
12
12
12
12
12
12
12
12
12
12
12
12
12
12
12
12
12
12
12
12
12
12
12
12
12
12
12
12
12
12
12
12
12
12
12
12
12
12
12
12
12
12
12
12
12
12
12
12
12
12
12
12
12
12
12
12
12
12
12
12
12
12
12
12
12
12
12
12
12
12
12
12
12
12
12
12
12
12
12
12
12
12
12
12
12
12
12
12
12
12
12
12
12
12
12
12
12
12
12
12
12
12
12
12
12
12
12
12
12
12
12
12
12
12
12
12
12
12
12
12
12
12
12
12
12
12
12
12
12
12
12
12
12
12
12
12
12
12
12
12
12
12
12
12
12
12
12
12
12
12
12
12
12
12
12
12
12
12
12
12
12
12
12
12
12
12
12
12
12
12
12
12
12
12
12
12
12
12
12
12
12
12
12
12
12
12
12
12
12
12
12
12
12
12
12
12
12
12
12
12
12
12
12
12
12
12
12
12
12
12
12
12
12
12
12
12
12
12
12
12
12
12
12
12
12
12
12
12
12
12
12
12
12
12
12
12
12
12
12
12
12
12
12
12
12
12
12
12
12
12
12
12
12
12
12
12
12
12
12
12
12
12
12
12
12
12
12
12
12
12
12
12
12
12
12
12
12
12
12
12
12
12
12
12
12
12
12
12
12
12
12
12
12
12
12
12
12
12
12
12
12
12
12
12
12
12
12
12
12
12
12
12
12
12
12
12
12
12
12
12
12
12
12
12
12
12
12
12
12
12
12
12
12
12
12
12
12
12
12
12
12
12
12
12
12
12
12
12
12
12
12
12
12
12
12
12
12
12
12
12
12
12
12
12
12
12
12
12
12
12
12
12
12
12
12
12
12
12
12
12
12
12
12
12
12
12
12
12
12
12
12
12
12
12
12
12
12
12
12
12
12
12
12
12
12
12
12
12
12
12
12
12
12
12
12
12
12
12
12
12
12
12
12
12
12
12
12
12
12
12
12
12
12
12
12
12
12
12
12
12
12
12
12
12
12
12
12
12
12
12
12
12
12
12
12
12
12
12
12
12
12
12
12
12
12
12
12
12
12
12
12
12
12
12
12
12
12
12
12
12
12
12
12
12
12
12
12
12
12
12
12
12
12
12
12
12
12
12
12
12
12
12
12
12
12
12
12
12
12
12
12
12
12
12
12
12
12
12
12
12
12
12
12
12
12
12
12
12
12
12
12
12
12
12
12
12
12
12
12
12
12
12
12
12
12
12
12
12
12
12
12
12
12
12
12
12
12
12
12
12
12
12
12
12
12
12
12
12
12
12
12
12
12
12
12
12
12
12
12
12
12
12
12
12
12
12
12
12
12
12
12
12
12
12
12
12
12
12
12
12
12
12
12
12
12
12
12
12
12
12
12
12
12
12
12
12
12
12
12
12
12
12
12
12
12
12
12
12
12
12
12
12
12
12
12
12
12
12
12
12
12
12
12
12
12
12
12
12
12
12
12
12
12
12
12
12
12
12
12
12
12
12
12
12
12
12
12
12
12
12
12
12
12
12
12
12
12
12
12
12
12
12
12
12
12
12
12
12
12
12
12
12
12
12
12
12
12
12
12
12
12
12
12
12
12
12
12
12
12
12
12
12
12
12
12
12
12
12
12
12
12
12
12
12
12
12
12
12
12
12
12
12
12
12
12
12
12
12
12
12
12
12
12
12
12
12
12
12
12
12
12
12
12
12
12
12
12
12
12
12
12
12
12
12
12
12
12
12
12
12
12
12
12
12
12
12
12
12
12
12
12
12
12
12
12
12
12
12
12
12
12
12
12
12
12
12
12
12
12
12
12
12
12
12
12
12
12
12
12
12
12
12
12
12
12
12
12
12
12
12
12
12
12
12
12
12
12
12
12
12
12
12
12
12
12
12
12
12
12
12
12
12
12
12
12
12
12
12
12
12
12
12
12
12
12
12
12
12
12
12
12
12
12
12
12
12
12
12
12
12
12
12
12
12
12
12
12
12
12
12
12
12
12
12
12
12
12
12
12
12
12
12
12
12
12
12
12
12
12
12
12
12
12
12
12
12
12
12
12
12
12
12
12
12
12
12
12
12
12
12
12
12
12
12
12
12
12
12
12
12
12
12
12
12
12
12
12
12
12
12
12
12
12
12
12
12
12
12
12
12
12
12
12
12
12
12
12
12
12
12
12
12
12
12
12
12
12
12
12
12
12
12
12
12
12
12
12
12
12
12
12
12
12
12
12
12
12
12
12
12
12
12
12
12
12
12
12
12
12
12
12
12
12
12
12
12
12
12
12
12
12
12
12
12
12
12
12
12
12
12
12
12
12
12
12
12
12
12
12
12
12
12
12
12
12
12
12
12
12
12
12
12
12
12
12
12
12
12
12
12
12
12
12
12
12
12
12
12
12
12
12
12
12
12
12
12
12
12
12
12
12
12
12
12
12
12
12
12
12
12
12
12
12
12
12
12
12
12
12
12
12
12
12
12
12
12
12
12
12
12
12
12
12
12
12
12
12
12
12
12
12
12
12
12
12
12
12
12
12
12
12
12
12
12
12
12
12
12
12
12
12
12
12
12
12
12
12
12
12
12
12
12
12
12
12
12
12
12
12
12
12
12
12
12
12
12
12
12
12
12
12
12
12
12
12
12
12
12
12
12
12
12
12
12
12
12
12
12
12
12
12
12
12
12
12
12
12
12
12
12
12
12
12
12
12
12
12
12
12
12
12
12
12
12
12
12
12
12
12
12
12
12
12
12
12
12
12
12
12
12
12
12
12
12
12
12
12
12
12
12
12
12
12
12
12
12
12
12
12
12
12
12
12
12
12
12
12
12
12
12
12
12
12
12
12
12
12
12
12
12
12
12
12
12
12
12
12
12
12
12
12
12
12
12
12
12
12
12
12
12
12
12
12
12
12
12
12
12
12
12
12
12
12
12
12
12
12
12
12
12
12
12
12
12
12
12
12
12
12
12
12
12
12
12
12
12
12
12
12
12
12
12
12
12
12
12
12
12
12
12
12
12
12
12
12
12
12
12
12
12
12
12
12
12
12
12
12
12
12
12
12
12
12
12
12
12
12
12
12
12
12
12
12
12
12
12
12
12
12
12
12
12
12
12
12
12
12
12
12
12
12
12
12
12
12
12
12
12
12
12
12
12
12
12
12
12
12
12
12
12
12
12
12
12
12
12
12
12
12
12
12
12
12
12
12
12
12
12
12
12
12
12
12
12
12
12
12
12
12
12
12
12
12
12
12
12
12
12
12
12
12
12
12
12
12
12
12
12
12
12
12
12
12
12
12
12
12
12
12
12
12
12
12
12
12
12
12
12
12
12
12
12
12
12
12
12
12
12
12
12
12
12
12
12
12
12
12
12
12
12
12
12
12
12
12
12
12
12
12
12
12
12
12
12
12
12
12
12
12
12
12
12
12
12
12
12
12
12
12
12
12
12
12
12
12
12
12
12
12
12
12
12
12
12
12
12
12
12
12
12
12
12
12
12
12
12
12
12
12
12
12
12
12
12
12
12
12
12
12
12
12
12
12
12
12
12
12
12
12
12
12
12
12
12
12
12
12
12
12
12
12
12
12
12
12
12
12
12
12
12
12
12
12
12
12
12
12
12
12
12
12
12
12
12
12
12
12
12
12
12
12
12
12
12
12
12
12
12
12
12
12
12
12
12
12
12
12
12
12
12
12
12
12
12
12
12
12
12
12
12
12
12
12
12
12
12
12
12
12
12
12
12
12
12
12
12
12
12
12
12
12
12
12
12
12
12
12
12
12
12
12
12
12
12
12
12
12
12
12
12
12
12
12
12
12
12
12
12
12
12
12
12
12
12
12
12
12
12
12
12
12
12
12
12
12
12
12
12
12
12
12
12
12
12
12
12
12
12
12
12
12
12
12
12
12
12
12
12
12
12
12
12
12
12
12
12
12
12
12
12
12
12
12
12

POINT_DATA 3012
SCALARS Jp_lamdaP float 4
LOOKUP_TABLE default
1 1 1 1
1 1 1 1
1 1 1 1
1 1 1 1
1 1 1 1
1 1 1 1
0.999999 1 1 0.999999
1 1 1 1
1 1 1 1
1 1 1 1
1 1 1 1
1 1 1 1
1 1 1 1
1 1 1 1
1 1 1 1
1 1 1 1
1 1 1 1
1 1 1 1
0.999999 1 1 0.999999
1 1 1 1
1 1 1 1
1 1 1 1
0.999995 1 1 0.999995
0.999998 1 1 0.999998
1 1 1 1
1 1 1 1
0.99999 1 1 0.99999
1 1 1 1
1 1 1 1
1 1 1 1
1 1 1 1
1 1 1 1
1 1 1 1
1 1 1 1
1 1 1 1
1 1 1 1
1 1 1 1
1 1 1 1
0.999996 1 1 0.999996
1 1 1 1
1 1 1 1
1 1 1 1
1 1 1 1
1 1 1 1
0.999997 1 1 0.999997
1 1 1 1
1 1 1 1
1 1 1 1
1 1 1 1
1 1 1 1
0.999999 1 1 0.999999
1 1 1 1
1 1 1 1
1 1 1 1
1 1 1 1
0.999995 1 1 0.999995
1 1 1 1
0.999998 1 1 0.999998
0.99999 1 1 0.99999
1 1 1 1
1 1 1 1
0.999997 1 1 0.999997
0.999993 1 1 0.999993
0.999996 1 1 0.999996
0.999976 1 1 0.999976
0.999983 1 1 0.999983
1 1 1 1
1 1 1 1
0.999994 1 1 0.999994
0.999962 1 1 0.999962
1 1 1 1
1 1 1 1
1 1 1 1
1 1 1 1
1 1 1 1
1 1 1 1
1 1 1 1
1 1 1 1
1 1 1 1
1 1 1 1
0.999996 1 1 0.999996
1 1 1 1
1 1 1 1
1 1 1 1
1 1 1 1
0.99998 1 1 0.99998
1 1 1 1
0.999993 1 1 0.999993
0.999998 1 1 0.999998
0.999974 1 1 0.999974
1 1 1 1
1 1 1 1
1 1 1 1
1 1 1 1
1 1 1 1
1 1 1 1
0.999998 1 1 0.999998
1 1 1 1
1 1 1 1
1 1 1 1
0.999997 1 1 0.999997
0.999998 1 1 0.999998
0.999966 1 1 0.999966
1 1 1 1
0.999969 1 1 0.999969
1 1 1 1
1 1 1 1
1 1 1 1
1 1 1 1
0.999995 1 1 0.999995
0.999998 1 1 0.999998
1 1 1 1
0.999989 1 1 0.999989
1 1 1 1
1 1 1 1
0.999994 1 1 0.999994
0.999993 1 1 0.999993
1 1 1 1
1 1 1 1
0.999997 1 1 0.999997
0.999974 1 1 0.999974
0.999993 1 1 0.999993
0.999984 1 1 0.999984
0.999962 1 1 0.999962
0.999997 1 1 0.999997
0.999992 1 1 0.999992
0.999966 1 1 0.999966
0.999969 1 1 0.999969
0.999978 1 1 0.999978
0.999949 1 1 0.999949
1 1 1 1
0.999958 1 1 0.999958
1 1 1 1
0.999997 1 1 0.999997
0.999965 1 1 0.999965
0.999949 1 1 0.999949
1 1 1 1
0.999999 1 1 0.999999
1 1 1 1
1 1 1 1
1 1 1 1
1 1 1 1
1 1 1 1
1 1 1 1
0.999997 1 1 0.999997
1 1 1 1
1 1 1 1
1 1 1 1
1 1 1 1
0.99998 1 1 0.99998
1 1 1 1
0.999993 1 1 0.999993
0.999998 1 1 0.999998
0.999972 1 1 0.999972
1 1 1 1
1 1 1 1
1 1 1 1
0.999975 1 1 0.999975
0.999987 1 1 0.999987
0.999952 1 1 0.999952
0.999999 1 1 0.999999
0.999966 1 1 0.999966
0.999977 1 1 0.999977
0.99996 1 1 0.99996
1 1 1 1
1 1 1 1
1 1 1 1
1 1 1 1
1 1 1 1
1 1 1 1
1 1 1 1
1 1 1 1
0.999998 1 1 0.999998
1 1 1 1
1 1 1 1
0.999997 1 1 0.999997
0.999999 1 1 0.999999
0.999965 1 1 0.999965
1 1 1 1
0.999968 1 1 0.999968
0.999997 1 1 0.999997
0.999968 1 1 0.999968
0.999966 1 1 0.999966
0.999948 1 1 0.999948
0.999971 1 1 0.999971
0.999947 1 1 0.999947
1 1 1 1
1 1 1 1
0.999991 1 1 0.999991
0.999993 1 1 0.999993
1 1 1 1
1 1 1 1
0.999997 1 1 0.999997
0.999973 1 1 0.999973
0.999986 1 1 0.999986
0.999993 1 1 0.999993
0.999962 1 1 0.999962
0.999997 1 1 0.999997
0.999992 1 1 0.999992
0.999963 1 1 0.999963
0.999971 1 1 0.999971
1 1 1 1
1 1 1 1
0.999996 1 1 0.999996
0.999978 1 1 0.999978
0.999947 1 1 0.999947
0.999965 1 1 0.999965
0.99996 1 1 0.99996
0.999949 1 1 0.999949
1 1 1 1
0.999999 1 1 0.999999
0.999965 1 1 0.999965
0.999966 1 1 0.999966
0.999944 1 1 0.999944
0.999941 1 1 0.999941
0.999955 1 1 0.999955
0.999937 1 1 0.999937
1 1 1 1
0.999946 1 1 0.999946
0.999998 1 1 0.999998
0.999969 1 1 0.999969
0.999952 1 1 0.999952
0.999944 1 1 0.999944
0.999999 1 1 0.999999
0.999999 1 1 0.999999
0.999981 1 1 0.999981
1 1 1 1
1 1 1 1
1 1 1 1
1 1 1 1
0.99998 1 1 0.99998
1 1 1 1
0.999999 1 1 0.999999
0.999994 1 1 0.999994
0.999971 1 1 0.999971
1 1 1 1
1 1 1 1
1 1 1 1
0.999974 1 1 0.999974
0.999988 1 1 0.999988
0.999952 1 1 0.999952
0.999999 1 1 0.999999
0.999967 1 1 0.999967
0.999977 1 1 0.999977
0.999959 1 1 0.999959
1 1 1 1
0.999999 1 1 0.999999
1 1 1 1
0.999983 1 1 0.999983
0.999949 1 1 0.999949
0.99996 1 1 0.99996
0.99994 1 1 0.99994
0.99998 1 1 0.99998
0.999952 1 1 0.999952
0.999958 1 1 0.999958
0.99995 1 1 0.99995
1 1 1 1
1 1 1 1
1 1 1 1
1 1 1 1
1 1 1 1
1 1 1 1
1 1 1 1
1 1 1 1
1 1 1 1
1 1 1 1
0.999999 1 1 0.999999
0.999968 1 1 0.999968
0.999965 1 1 0.999965
0.999997 1 1 0.999997
1 1 1 1
0.999997 1 1 0.999997
0.999967 1 1 0.999967
0.999966 1 1 0.999966
0.999947 1 1 0.999947
0.999971 1 1 0.999971
0.999947 1 1 0.999947
0.999967 1 1 0.999967
0.999952 1 1 0.999952
0.999945 1 1 0.999945
0.99994 1 1 0.99994
0.999948 1 1 0.999948
0.99994 1 1 0.99994
0.999997 1 1 0.999997
0.999992 1 1 0.999992
0.999959 1 1 0.999959
0.999972 1 1 0.999972
1 1 1 1
1 1 1 1
0.999996 1 1 0.999996
0.999978 1 1 0.999978
0.999945 1 1 0.999945
0.999961 1 1 0.999961
0.999964 1 1 0.999964
0.999949 1 1 0.999949
1 1 1 1
0.999999 1 1 0.999999
0.999964 1 1 0.999964
0.999966 1 1 0.999966
0.999944 1 1 0.999944
0.999943 1 1 0.999943
1 1 1 1
0.999998 1 1 0.999998
0.999971 1 1 0.999971
0.999956 1 1 0.999956
0.999937 1 1 0.999937
0.999951 1 1 0.999951
0.999946 1 1 0.999946
0.999944 1 1 0.999944
0.999999 1 1 0.999999
0.999979 1 1 0.999979
0.999999 1 1 0.999999
0.999949 1 1 0.999949
0.999942 1 1 0.999942
0.999935 1 1 0.999935
0.999932 1 1 0.999932
0.999943 1 1 0.999943
0.999935 1 1 0.999935
0.999999 1 1 0.999999
0.999943 1 1 0.999943
0.999976 1 1 0.999976
0.999953 1 1 0.999953
0.999944 1 1 0.999944
0.999947 1 1 0.999947
0.999999 1 1 0.999999
0.99998 1 1 0.99998
0.999978 1 1 0.999978
0.999965 1 1 0.999965
0.999974 1 1 0.999974
1 1 1 1
1 1 1 1
1 1 1 1
0.999988 1 1 0.999988
0.999952 1 1 0.999952
0.999999 1 1 0.999999
0.999977 1 1 0.999977
0.999968 1 1 0.999968
0.999957 1 1 0.999957
1 1 1 1
0.999999 1 1 0.999999
1 1 1 1
0.999983 1 1 0.999983
0.999949 1 1 0.999949
0.99996 1 1 0.99996
0.999939 1 1 0.999939
0.99998 1 1 0.99998
0.999954 1 1 0.999954
0.999957 1 1 0.999957
0.999951 1 1 0.999951
1 1 1 1
1 1 1 1
0.999982 1 1 0.999982
0.999984 1 1 0.999984
0.999963 1 1 0.999963
0.99994 1 1 0.99994
0.999945 1 1 0.999945
0.999936 1 1 0.999936
0.99996 1 1 0.99996
0.999946 1 1 0.999946
0.999942 1 1 0.999942
1 1 1 1
0.999987 1 1 0.999987
1 1 1 1
1 1 1 1
1 1 1 1
1 1 1 1
1 1 1 1
1 1 1 1
1 1 1 1
1 1 1 1
1 1 1 1
1 1 1 1
1 1 1 1
1 1 1 1
1 1 1 1
0.999971 1 1 0.999971
0.999966 1 1 0.999966
0.999947 1 1 0.999947
0.999947 1 1 0.999947
0.999967 1 1 0.999967
0.999997 1 1 0.999997
0.999968 1 1 0.999968
0.999952 1 1 0.999952
0.999945 1 1 0.999945
0.999941 1 1 0.999941
0.999948 1 1 0.999948
0.99994 1 1 0.99994
0.999952 1 1 0.999952
0.999946 1 1 0.999946
0.999938 1 1 0.999938
0.999937 1 1 0.999937
0.999941 1 1 0.999941
0.99994 1 1 0.99994
0.999963 1 1 0.999963
0.999966 1 1 0.999966
0.999944 1 1 0.999944
0.999945 1 1 0.999945
1 1 1 1
0.999998 1 1 0.999998
0.999972 1 1 0.999972
0.999956 1 1 0.999956
0.999936 1 1 0.999936
0.999946 1 1 0.999946
0.999949 1 1 0.999949
0.999944 1 1 0.999944
0.999999 1 1 0.999999
0.999978 1 1 0.999978
0.999999 1 1 0.999999
0.999949 1 1 0.999949
0.999941 1 1 0.999941
0.999934 1 1 0.999934
0.999932 1 1 0.999932
0.999999 1 1 0.999999
0.999976 1 1 0.999976
0.999954 1 1 0.999954
0.999944 1 1 0.999944
0.999935 1 1 0.999935
0.999943 1 1 0.999943
0.999943 1 1 0.999943
0.999947 1 1 0.999947
0.99998 1 1 0.99998
0.999963 1 1 0.999963
0.999999 1 1 0.999999
0.999978 1 1 0.999978
0.99994 1 1 0.99994
0.999931 1 1 0.999931
0.999929 1 1 0.999929
0.99993 1 1 0.99993
0.999941 1 1 0.999941
0.999937 1 1 0.999937
0.999979 1 1 0.999979
0.999947 1 1 0.999947
0.999957 1 1 0.999957
0.999944 1 1 0.999944
0.999941 1 1 0.999941
0.99995 1 1 0.99995
1 1 1 1
0.999978 1 1 0.999978
0.999963 1 1 0.999963
0.999962 1 1 0.999962
0.999954 1 1 0.999954
1 1 1 1
0.999949 1 1 0.999949
1 1 1 1
0.999999 1 1 0.999999
0.999983 1 1 0.999983
0.99996 1 1 0.99996
0.999939 1 1 0.999939
0.99998 1 1 0.99998
0.999957 1 1 0.999957
0.999955 1 1 0.999955
0.999953 1 1 0.999953
1 1 1 1
1 1 1 1
0.999982 1 1 0.999982
0.999984 1 1 0.999984
0.999963 1 1 0.999963
0.999939 1 1 0.999939
0.999945 1 1 0.999945
0.999936 1 1 0.999936
0.99996 1 1 0.99996
0.999947 1 1 0.999947
0.999942 1 1 0.999942
1 1 1 1
0.999985 1 1 0.999985
0.999961 1 1 0.999961
0.999964 1 1 0.999964
0.999953 1 1 0.999953
0.99994 1 1 0.99994
0.99994 1 1 0.99994
0.999945 1 1 0.999945
0.999944 1 1 0.999944
0.999935 1 1 0.999935
1 1 1 1
0.999983 1 1 0.999983
0.999985 1 1 0.999985
0.999969 1 1 0.999969
0.999987 1 1 0.999987
1 1 1 1
1 1 1 1
1 1 1 1
1 1 1 1
1 1 1 1
1 1 1 1
1 1 1 1
1 1 1 1
1 1 1 1
1 1 1 1
1 1 1 1
1 1 1 1
1 1 1 1
1 1 1 1
1 1 1 1
0.999948 1 1 0.999948
0.999945 1 1 0.999945
0.99994 1 1 0.99994
0.999941 1 1 0.999941
0.999952 1 1 0.999952
0.999968 1 1 0.999968
0.999952 1 1 0.999952
0.999947 1 1 0.999947
0.999938 1 1 0.999938
0.999936 1 1 0.999936
0.999941 1 1 0.999941
0.999939 1 1 0.999939
0.999947 1 1 0.999947
0.999945 1 1 0.999945
0.999934 1 1 0.999934
0.999932 1 1 0.999932
0.999943 1 1 0.999943
0.99994 1 1 0.99994
0.999948 1 1 0.999948
0.999941 1 1 0.999941
0.999933 1 1 0.999933
0.999933 1 1 0.999933
0.999999 1 1 0.999999
0.999976 1 1 0.999976
0.999956 1 1 0.999956
0.999945 1 1 0.999945
0.999936 1 1 0.999936
0.999943 1 1 0.999943
0.999942 1 1 0.999942
0.999948 1 1 0.999948
0.99998 1 1 0.99998
0.999961 1 1 0.999961
0.999999 1 1 0.999999
0.999978 1 1 0.999978
0.99994 1 1 0.99994
0.999931 1 1 0.999931
0.999928 1 1 0.999928
0.99993 1 1 0.99993
0.999979 1 1 0.999979
0.999959 1 1 0.999959
0.999944 1 1 0.999944
0.999941 1 1 0.999941
0.999937 1 1 0.999937
0.999941 1 1 0.999941
0.999947 1 1 0.999947
0.999951 1 1 0.999951
0.999963 1 1 0.999963
0.999953 1 1 0.999953
0.999962 1 1 0.999962
0.999998 1 1 0.999998
0.999978 1 1 0.999978
0.999935 1 1 0.999935
0.999925 1 1 0.999925
0.999932 1 1 0.999932
0.999943 1 1 0.999943
0.999962 1 1 0.999962
0.999955 1 1 0.999955
0.999947 1 1 0.999947
0.999935 1 1 0.999935
0.99994 1 1 0.99994
0.999997 1 1 0.999997
0.999982 1 1 0.999982
0.999961 1 1 0.999961
0.999953 1 1 0.999953
0.999949 1 1 0.999949
0.999946 1 1 0.999946
1 1 1 1
1 1 1 1
0.999939 1 1 0.999939
0.999984 1 1 0.999984
0.999982 1 1 0.999982
0.999962 1 1 0.999962
0.999945 1 1 0.999945
0.999935 1 1 0.999935
0.99996 1 1 0.99996
0.999943 1 1 0.999943
0.999948 1 1 0.999948
1 1 1 1
0.999985 1 1 0.999985
0.999962 1 1 0.999962
0.999963 1 1 0.999963
0.999952 1 1 0.999952
0.99994 1 1 0.99994
0.999939 1 1 0.999939
0.999946 1 1 0.999946
0.999944 1 1 0.999944
0.999934 1 1 0.999934
0.999985 1 1 0.999985
0.999961 1 1 0.999961
0.999948 1 1 0.999948
0.99995 1 1 0.99995
0.999945 1 1 0.999945
0.999955 1 1 0.999955
0.999936 1 1 0.999936
0.999946 1 1 0.999946
0.999935 1 1 0.999935
0.999924 1 1 0.999924
1 1 1 1
0.999984 1 1 0.999984
0.999962 1 1 0.999962
0.999983 1 1 0.999983
0.999987 1 1 0.999987
0.999966 1 1 0.999966
0.999953 1 1 0.999953
0.999964 1 1 0.999964
0.999987 1 1 0.999987
1 1 1 1
1 1 1 1
1 1 1 1
1 1 1 1
1 1 1 1
1 1 1 1
1 1 1 1
1 1 1 1
1 1 1 1
1 1 1 1
1 1 1 1
1 1 1 1
1 1 1 1
1 1 1 1
1 1 1 1
0.999941 1 1 0.999941
0.999938 1 1 0.999938
0.999939 1 1 0.999939
0.999935 1 1 0.999935
0.999948 1 1 0.999948
0.999952 1 1 0.999952
0.999947 1 1 0.999947
0.999945 1 1 0.999945
0.999934 1 1 0.999934
0.999929 1 1 0.999929
0.999943 1 1 0.999943
0.999939 1 1 0.999939
0.99995 1 1 0.99995
0.99994 1 1 0.99994
0.999929 1 1 0.999929
0.999952 1 1 0.999952
0.99994 1 1 0.99994
0.999931 1 1 0.999931
0.999927 1 1 0.999927
0.999931 1 1 0.999931
0.999979 1 1 0.999979
0.99996 1 1 0.99996
0.999943 1 1 0.999943
0.999941 1 1 0.999941
0.999937 1 1 0.999937
0.999947 1 1 0.999947
0.99994 1 1 0.99994
0.999953 1 1 0.999953
0.999963 1 1 0.999963
0.999952 1 1 0.999952
0.999962 1 1 0.999962
0.999997 1 1 0.999997
0.999978 1 1 0.999978
0.999933 1 1 0.999933
0.999926 1 1 0.999926
0.999933 1 1 0.999933
0.999962 1 1 0.999962
0.999949 1 1 0.999949
0.999935 1 1 0.999935
0.999942 1 1 0.999942
0.999942 1 1 0.999942
0.999954 1 1 0.999954
0.999997 1 1 0.999997
0.999953 1 1 0.999953
0.999947 1 1 0.999947
0.999949 1 1 0.999949
0.999962 1 1 0.999962
0.99998 1 1 0.99998
0.999932 1 1 0.999932
0.999925 1 1 0.999925
0.999938 1 1 0.999938
0.999952 1 1 0.999952
0.999952 1 1 0.999952
0.99995 1 1 0.99995
0.999937 1 1 0.999937
0.99993 1 1 0.99993
0.999997 1 1 0.999997
0.999981 1 1 0.999981
0.999963 1 1 0.999963
0.999945 1 1 0.999945
0.999944 1 1 0.999944
0.99994 1 1 0.99994
1 1 1 1
0.999985 1 1 0.999985
0.99994 1 1 0.99994
0.999963 1 1 0.999963
0.999963 1 1 0.999963
0.999951 1 1 0.999951
0.999939 1 1 0.999939
0.999947 1 1 0.999947
0.999943 1 1 0.999943
0.999932 1 1 0.999932
0.999985 1 1 0.999985
0.999962 1 1 0.999962
0.99995 1 1 0.99995
0.999951 1 1 0.999951
0.999945 1 1 0.999945
0.999956 1 1 0.999956
0.999936 1 1 0.999936
0.99995 1 1 0.99995
0.999934 1 1 0.999934
0.999922 1 1 0.999922
0.999961 1 1 0.999961
0.999946 1 1 0.999946
0.999939 1 1 0.999939
0.99994 1 1 0.99994
0.999957 1 1 0.999957
0.999959 1 1 0.999959
0.999927 1 1 0.999927
0.99992 1 1 0.99992
0.999986 1 1 0.999986
0.999964 1 1 0.999964
0.999951 1 1 0.999951
0.999987 1 1 0.999987
0.999964 1 1 0.999964
0.999987 1 1 0.999987
0.999952 1 1 0.999952
0.999965 1 1 0.999965
0.999943 1 1 0.999943
0.99995 1 1 0.99995
0.999964 1 1 0.999964
0.999986 1 1 0.999986
1 1 1 1
1 1 1 1
1 1 1 1
1 1 1 1
1 1 1 1
1 1 1 1
1 1 1 1
1 1 1 1
1 1 1 1
1 1 1 1
1 1 1 1
1 1 1 1
1 1 1 1
1 1 1 1
1 1 1 1
0.999944 1 1 0.999944
0.999934 1 1 0.999934
0.999938 1 1 0.999938
0.999926 1 1 0.999926
0.999945 1 1 0.999945
0.999948 1 1 0.999948
0.999948 1 1 0.999948
0.99994 1 1 0.99994
0.999931 1 1 0.999931
0.99995 1 1 0.99995
0.999945 1 1 0.999945
0.999936 1 1 0.999936
0.999942 1 1 0.999942
0.999931 1 1 0.999931
0.999927 1 1 0.999927
0.999933 1 1 0.999933
0.999962 1 1 0.999962
0.99995 1 1 0.99995
0.999935 1 1 0.999935
0.999942 1 1 0.999942
0.999954 1 1 0.999954
0.999944 1 1 0.999944
0.999953 1 1 0.999953
0.999947 1 1 0.999947
0.99995 1 1 0.99995
0.999997 1 1 0.999997
0.999962 1 1 0.999962
0.999979 1 1 0.999979
0.999934 1 1 0.999934
0.999925 1 1 0.999925
0.999937 1 1 0.999937
0.999951 1 1 0.999951
0.999938 1 1 0.999938
0.999931 1 1 0.999931
0.999953 1 1 0.999953
0.999949 1 1 0.999949
0.999999 1 1 0.999999
0.999981 1 1 0.999981
0.999945 1 1 0.999945
0.999941 1 1 0.999941
0.999946 1 1 0.999946
0.999962 1 1 0.999962
0.999937 1 1 0.999937
0.999925 1 1 0.999925
0.999953 1 1 0.999953
0.99996 1 1 0.99996
0.999941 1 1 0.999941
0.999934 1 1 0.999934
0.99993 1 1 0.99993
1 1 1 1
0.999987 1 1 0.999987
0.999981 1 1 0.999981
0.99996 1 1 0.99996
0.999945 1 1 0.999945
0.999936 1 1 0.999936
0.99994 1 1 0.99994
0.999935 1 1 0.999935
0.999985 1 1 0.999985
0.999963 1 1 0.999963
0.999956 1 1 0.999956
0.999952 1 1 0.999952
0.999951 1 1 0.999951
0.999946 1 1 0.999946
0.999937 1 1 0.999937
0.999954 1 1 0.999954
0.999933 1 1 0.999933
0.999919 1 1 0.999919
0.999961 1 1 0.999961
0.999948 1 1 0.999948
0.99994 1 1 0.99994
0.999941 1 1 0.999941
0.999955 1 1 0.999955
0.999958 1 1 0.999958
0.999929 1 1 0.999929
0.99992 1 1 0.99992
0.999949 1 1 0.999949
0.999951 1 1 0.999951
0.999938 1 1 0.999938
0.99993 1 1 0.99993
0.999971 1 1 0.999971
0.999929 1 1 0.999929
0.999915 1 1 0.999915
0.999965 1 1 0.999965
0.999951 1 1 0.999951
0.999941 1 1 0.999941
0.999987 1 1 0.999987
0.999966 1 1 0.999966
0.99995 1 1 0.99995
0.999986 1 1 0.999986
0.999964 1 1 0.999964
0.999941 1 1 0.999941
0.999952 1 1 0.999952
0.999936 1 1 0.999936
0.99994 1 1 0.99994
0.999952 1 1 0.999952
0.999965 1 1 0.999965
0.999985 1 1 0.999985
1 1 1 1
1 1 1 1
1 1 1 1
1 1 1 1
1 1 1 1
1 1 1 1
1 1 1 1
1 1 1 1
1 1 1 1
1 1 1 1
1 1 1 1
1 1 1 1
1 1 1 1
1 1 1 1
1 1 1 1
1 1 1 1
0.999949 1 1 0.999949
0.999933 1 1 0.999933
0.999939 1 1 0.999939
0.999946 1 1 0.999946
0.999947 1 1 0.999947
0.999935 1 1 0.999935
0.999945 1 1 0.999945
0.999944 1 1 0.999944
0.999938 1 1 0.999938
0.999965 1 1 0.999965
0.999937 1 1 0.999937
0.999924 1 1 0.999924
0.999936 1 1 0.999936
0.999951 1 1 0.999951
0.999939 1 1 0.999939
0.999933 1 1 0.999933
0.999954 1 1 0.999954
0.999949 1 1 0.999949
0.999945 1 1 0.999945
0.999941 1 1 0.999941
0.999947 1 1 0.999947
1 1 1 1
0.999981 1 1 0.999981
0.999961 1 1 0.999961
0.999935 1 1 0.999935
1 1 1 1
0.999986 1 1 0.999986
0.999925 1 1 0.999925
0.99995 1 1 0.99995
0.999942 1 1 0.999942
0.99993 1 1 0.99993
0.999935 1 1 0.999935
0.99996 1 1 0.99996
0.999984 1 1 0.999984
0.99996 1 1 0.99996
0.99994 1 1 0.99994
0.999935 1 1 0.999935
0.999935 1 1 0.999935
0.999946 1 1 0.999946
0.999919 1 1 0.999919
0.999938 1 1 0.999938
0.999973 1 1 0.999973
0.999947 1 1 0.999947
0.999936 1 1 0.999936
0.999925 1 1 0.999925
0.999986 1 1 0.999986
0.999986 1 1 0.999986
0.999968 1 1 0.999968
0.999957 1 1 0.999957
0.999946 1 1 0.999946
0.99993 1 1 0.99993
0.999927 1 1 0.999927
0.999934 1 1 0.999934
0.999961 1 1 0.999961
0.999949 1 1 0.999949
0.999954 1 1 0.999954
0.999957 1 1 0.999957
0.999942 1 1 0.999942
0.999941 1 1 0.999941
0.99993 1 1 0.99993
0.999919 1 1 0.999919
0.999949 1 1 0.999949
0.999959 1 1 0.999959
0.999937 1 1 0.999937
0.999929 1 1 0.999929
0.999969 1 1 0.999969
0.99993 1 1 0.99993
0.999914 1 1 0.999914
0.999938 1 1 0.999938
0.999976 1 1 0.999976
0.99993 1 1 0.99993
0.999916 1 1 0.999916
0.999931 1 1 0.999931
0.999905 1 1 0.999905
0.986265 1.00029 0.986071 0.999903
0.999951 1 1 0.999951
0.999941 1 1 0.999941
0.999935 1 1 0.999935
0.999986 1 1 0.999986
0.999964 1 1 0.999964
0.999954 1 1 0.999954
0.99994 1 1 0.99994
0.999985 1 1 0.999985
0.999964 1 1 0.999964
0.999936 1 1 0.999936
0.999952 1 1 0.999952
0.999941 1 1 0.999941
0.999933 1 1 0.999933
0.999942 1 1 0.999942
0.999953 1 1 0.999953
0.999961 1 1 0.999961
0.999981 1 1 0.999981
0.999966 1 1 0.999966
0.999981 1 1 0.999981
1 1 1 1
1 1 1 1
1 1 1 1
1 1 1 1
1 1 1 1
1 1 1 1
1 1 1 1
1 1 1 1
1 1 1 1
1 1 1 1
1 1 1 1
1 1 1 1
1 1 1 1
1 1 1 1
1 1 1 1
1 1 1 1
1 1 1 1
0.999948 1 1 0.999948
0.999934 1 1 0.999934
0.999949 1 1 0.999949
0.999944 1 1 0.999944
0.999938 1 1 0.999938
0.999977 1 1 0.999977
0.999941 1 1 0.999941
0.998239 1 0.998246 0.999992
1 1 1 1
0.999991 1 1 0.999991
0.999933 1 1 0.999933
0.999926 1 1 0.999926
0.999948 1 1 0.999948
0.999942 1 1 0.999942
0.999929 1 1 0.999929
0.999935 1 1 0.999935
0.99996 1 1 0.99996
0.99994 1 1 0.99994
0.999935 1 1 0.999935
0.999934 1 1 0.999934
1 1 1 1
0.999946 1 1 0.999946
0.999987 1 1 0.999987
0.999959 1 1 0.999959
0.999984 1 1 0.999984
0.999916 1 1 0.999916
0.999988 1 1 0.999988
0.999986 1 1 0.999986
0.999966 1 1 0.999966
0.999938 1 1 0.999938
0.999969 1 1 0.999969
0.999936 1 1 0.999936
0.999926 1 1 0.999926
0.999947 1 1 0.999947
0.999959 1 1 0.999959
0.999945 1 1 0.999945
0.999934 1 1 0.999934
0.999929 1 1 0.999929
0.999931 1 1 0.999931
0.999952 1 1.00004 0.999908
0.999758 1 0.999789 0.999969
0.999961 1 1 0.999961
0.99993 1 1 0.99993
0.999931 1 1 0.999931
0.999965 1 1 0.999965
0.99996 1 1 0.99996
0.999951 1 1 0.999951
0.99994 1 1 0.99994
0.999933 1 1 0.999933
0.999921 1 1 0.999921
0.999924 1 1 0.999924
0.999949 1 1 0.999949
0.999937 1 1 0.999937
0.999967 1 1 0.999967
0.999967 1 1 0.999967
0.99993 1 1 0.99993
0.999928 1 1 0.999928
0.999913 1 1 0.999913
0.999939 1 1 0.999939
0.99998 1 1 0.99998
0.99993 1 1 0.99993
0.999916 1 1 0.999916
0.999936 1 1 0.999936
0.999981 1 1.00008 0.999904
0.989123 1.00129 0.987937 0.999909
0.999931 1 1 0.999931
0.999919 1 1 0.999919
0.999923 1 1 0.999923
1.00031 1 1.00041 0.999899
0.999888 1 1 0.999887
0.976919 0.977179 1 0.999732
0.991864 1.00129 0.990655 0.999931
0.985292 1.00171 0.983742 0.999866
0.977743 0.981678 0.995994 0.999997
0.989832 1.00073 0.989108 1
0.999941 1 1 0.999941
0.999936 1 1 0.999936
0.999932 1 1 0.999932
0.999985 1 1 0.999985
0.999963 1 1 0.999963
0.999952 1 1 0.999952
0.999942 1 1 0.999942
0.999936 1 1 0.999936
0.999951 1 1 0.999951
0.999983 1 1 0.999983
0.999963 1 1 0.999963
0.999934 1 1 0.999934
0.999942 1 1 0.999942
0.999943 1 1 0.999943
0.999934 1 1 0.999934
0.999947 1 1 0.999947
0.99996 1 1 0.99996
0.999981 1 1 0.999981
0.999964 1 1 0.999964
0.999951 1 1 0.999951
0.999963 1 1 0.999963
0.999964 1 1 0.999964
0.999984 1 1 0.999984
0.999981 1 1 0.999981
1 1 1 1
1 1 1 1
1 1 1 1
1 1 1 1
1 1 1 1
1 1 1 1
1 1 1 1
1 1 1 1
1 1 1 1
1 1 1 1
1 1 1 1
1 1 1 1
1 1 1 1
1 1 1 1
1 1 1 1
1 1 1 1
1 1 1 1
1 1 1 1
0.999938 1 1 0.999938
0.999944 1 1 0.999944
0.99999 1 1 0.99999
0.997519 1 0.997526 0.999993
0.999941 1 1 0.999941
0.99999 1 1 0.99999
0.999967 1 1.00004 0.999929
0.995312 0.996606 0.998811 0.99989
0.999999 1 1 0.999999
0.999993 1 1 0.999993
0.999991 1 1 0.999991
0.99997 1 1 0.99997
0.999975 1 1 0.999975
0.999913 1 1 0.999913
0.999938 1 1 0.999938
0.999965 1 1 0.999965
0.999936 1 1 0.999936
0.999926 1 1 0.999926
0.999947 1 1 0.999947
0.999934 1 1 0.999934
0.99993 1 1 0.99993
0.999932 1 1 0.999932
0.999986 1 1 0.999986
0.999944 1 1 0.999944
0.99996 1 1 0.99996
0.99999 1 1 0.99999
0.999963 1 1 0.999963
0.999945 1 1.00003 0.99991
0.999968 1 1 0.999968
0.999961 1 1 0.999961
0.999952 1 1 0.999952
0.999839 1 0.99987 0.999968
0.999961 1 1 0.999961
0.999931 1 1 0.999931
0.999931 1 1 0.999931
0.999941 1 1 0.999941
0.999934 1 1 0.999934
0.999924 1 1 0.999924
0.999922 1 1 0.999922
0.999969 1 1.00003 0.999939
0.999724 1 0.999741 0.999983
0.999931 1 1 0.999931
0.999926 1 1 0.999926
0.999946 1 1 0.999946
0.999942 1 1 0.999942
0.999922 1 1 0.999922
0.999911 1 1 0.999911
0.976177 0.978309 0.998058 0.999762
0.999939 1 1 0.999939
0.999929 1 1 0.999929
0.999984 1 1 0.999984
0.999942 1 1 0.999942
1.0001 1 1.0002 0.999903
0.999915 1 1 0.999915
0.992257 1.00233 0.990029 0.999916
0.999932 1 1 0.999932
0.99992 1 1 0.99992
0.999924 1 1 0.999924
1.00021 1 1.00031 0.999899
0.999901 1 1.00001 0.999893
0.977593 0.976809 1.00105 0.999757
0.990373 1.00072 0.989825 0.999835
0.987437 1.00255 0.98506 0.999863
0.977915 0.982247 0.995639 0.999951
0.991048 1.00082 0.990231 1
0.999931 1 1 0.999931
0.977525 0.979617 0.99794 0.999925
0.995504 0.999662 0.995839 1
0.999872 1 1 0.999872
1.00033 1 1.00042 0.999916
1.00187 1 1.002 0.999877
0.997174 1.00198 0.995361 0.999842
0.985568 0.981294 1.00471 0.999642
0.990322 1.00374 0.986821 0.999809
0.976964 0.986316 0.990527 0.99999
0.99761 1.00068 0.996931 1
0.999936 1 1 0.999936
0.999932 1 1 0.999932
0.99993 1 1 0.99993
0.999984 1 1 0.999984
0.999964 1 1 0.999964
0.999949 1 1 0.999949
0.999941 1 1 0.999941
0.999935 1 1 0.999935
0.999981 1 1 0.999981
0.999942 1 1 0.999942
0.999949 1 1 0.999949
0.999961 1 1 0.999961
0.999933 1 1 0.999933
0.999937 1 1 0.999937
0.99993 1 1 0.99993
0.999946 1 1 0.999946
0.999963 1 1 0.999963
0.999964 1 1 0.999964
0.999949 1 1 0.999949
0.999948 1 1 0.999948
0.999948 1 1 0.999948
0.999941 1 1 0.999941
0.999945 1 1 0.999945
0.999961 1 1 0.999961
0.999963 1 1 0.999963
0.999984 1 1 0.999984
0.999961 1 1 0.999961
0.999983 1 1 0.999983
1 1 1 1
0.999981 1 1 0.999981
1 1 1 1
1 1 1 1
1 1 1 1
1 1 1 1
1 1 1 1
1 1 1 1
1 1 1 1
1 1 1 1
0.999993 1 1 0.999993
1 1 1 1
1 1 1 1
1 1 1 1
1 1 1 1
1 1 1 1
1 1 1 1
1 1 1 1
1 1 1 1
1 1 1 1
0.996735 1 0.996741 0.999994
0.999942 1 1 0.999942
0.999981 1 1 0.999981
0.996941 0.997048 0.99995 0.999943
1.00042 1 1.00042 0.999997
0.999955 1 1.00003 0.999921
1.00151 1 1.00159 0.999916
1.00052 0.998997 1.00163 0.999897
0.977857 0.978589 0.999601 0.999651
0.975694 0.981088 0.994603 0.999898
0.991523 1.00018 0.991346 1
0.999971 1 1 0.999971
0.999993 1 1 0.999993
0.999991 1 1 0.999991
0.99997 1 1 0.99997
0.999957 1 1 0.999957
0.999961 1 1 0.999961
0.999973 1 1 0.999973
0.999974 1 1 0.999974
0.999938 1 1.00003 0.999912
0.999967 1 1 0.999967
0.99996 1 1 0.99996
0.999931 1 1 0.999931
0.999932 1 1 0.999932
0.999924 1 1 0.999924
0.999922 1 1 0.999922
0.999935 1 1 0.999935
0.999963 1 1 0.999963
0.999942 1 1 0.999942
0.99997 1 1 0.99997
0.999954 1 1 0.999954
0.999974 1 1.00004 0.999939
0.999947 1 1 0.999947
0.999943 1 1 0.999943
0.999579 1 0.999596 0.999982
0.999933 1 1 0.999933
0.999923 1 1 0.999923
0.999923 1 1 0.999923
0.999911 1 1 0.999911
0.993328 1 0.993355 0.999973
0.999945 1 1 0.999945
0.999916 1 1 0.999916
0.999903 1 1 0.999903
0.999931 1 1 0.999931
0.999927 1 1 0.999927
0.999907 1 1 0.999907
0.974849 0.980813 0.993909 1.00001
0.978565 0.978933 0.99986 0.999765
0.999933 1 1 0.999933
0.999924 1 1 0.999924
0.999922 1 1 0.999922
0.999898 1 1 0.999898
1.00005 1 1.00015 0.999899
0.977671 0.97815 0.999863 0.999647
0.992381 0.999914 0.99252 0.999946
0.989327 1.00318 0.986329 0.999861
0.975017 0.981647 0.993354 0.999892
0.992079 1.00087 0.99122 1
0.99993 1 1 0.99993
0.975654 0.980324 0.995228 1.00001
0.99574 0.999884 0.995854 1
0.999872 1 1 0.999872
1.00012 1 1.0002 0.999917
1.00174 1 1.00186 0.999881
0.996934 1.00139 0.995707 0.99984
0.983098 0.980584 1.00299 0.999578
0.985842 1.00207 0.983867 0.999936
0.977732 0.98646 0.991282 0.999869
0.995953 1.0007 0.995252 1
0.999929 1 1 0.999929
0.998541 0.999212 0.999328 1
0.999803 0.999553 1.00025 1
1.00421 1 1.00435 0.999864
1.0018 1 1.00189 0.999909
1.00272 1.00047 1.00235 0.999906
0.996502 1.00091 0.995646 0.999945
0.989073 0.985746 1.00379 0.999587
0.985881 0.995805 0.990185 0.999848
0.999696 1.00017 0.999528 1
0.999932 1 1 0.999932
0.99993 1 1 0.99993
0.999928 1 1 0.999928
0.999981 1 1 0.999981
0.999963 1 1 0.999963
0.999951 1 1 0.999951
0.999942 1 1 0.999942
0.999932 1 1 0.999932
0.999963 1 1 0.999963
0.999938 1 1 0.999938
0.999946 1 1 0.999946
0.999929 1 1 0.999929
0.999927 1 1 0.999927
0.999933 1 1 0.999933
0.999946 1 1 0.999946
0.999964 1 1 0.999964
0.999948 1 1 0.999948
0.999948 1 1 0.999948
0.999948 1 1 0.999948
0.999941 1 1 0.999941
0.999946 1 1 0.999946
0.999938 1 1 0.999938
0.999936 1 1 0.999936
0.999939 1 1 0.999939
0.999946 1 1 0.999946
0.999947 1 1 0.999947
0.999945 1 1 0.999945
0.999961 1 1 0.999961
0.999961 1 1 0.999961
0.999984 1 1 0.999984
0.999963 1 1 0.999963
0.999984 1 1 0.999984
1 1 1 1
0.999981 1 1 0.999981
1 1 1 1
1 1 1 1
1 1 1 1
1 1 1 1
1 1 1 1
1 1 1 1
1 1 1 1
1 1 1 1
0.999993 1 1 0.999993
1 1 1 1
0.999993 1 1 0.999993
1 1 1 1
1 1 1 1
1 1 1 1
1 1 1 1
1 1 1 1
1 1 1 1
1 1 1 1
1 1 1 1
0.97621 0.980034 0.996089 1.00001
0.99829 0.999908 0.998381 1
0.997599 0.996785 1.00084 0.999977
1.00077 1 1.00078 0.999995
0.999942 1 1.00003 0.999914
1.00096 0.998806 1.00216 0.999992
1.00071 1 1.00079 0.999919
0.97936 0.979107 1.00053 0.999732
0.976744 0.981157 0.995499 1
0.992844 1.0005 0.992346 1
1.0047 0.999771 1.00499 0.99994
0.982602 0.981287 1.00167 0.999671
0.976753 0.985475 0.991158 0.999992
0.995174 1.00196 0.993229 1
0.999952 1 1 0.999952
0.999973 1 1 0.999973
0.999993 1 1 0.999993
0.999969 1 1 0.999969
0.999958 1 1 0.999958
0.999956 1 1 0.999956
0.999962 1 1 0.999962
0.999967 1 1 0.999967
0.999971 1 1 0.999971
0.999973 1 1 0.999973
0.999978 1 1.00004 0.999938
0.999307 1 0.999326 0.999981
0.999935 1 1 0.999935
0.99992 1 1 0.99992
0.999912 1 1 0.999912
0.999923 1 1 0.999923
0.999945 1 1 0.999945
0.999947 1 1 0.999947
0.995474 1 0.995504 0.999969
0.99993 1 1 0.99993
0.999925 1 1 0.999925
0.999612 1 0.999663 0.999949
0.999913 1 1 0.999913
0.999903 1 1 0.999903
0.999906 1 1 0.999906
0.989326 1.00072 0.988659 0.99995
1.00039 1 1.00049 0.999901
0.99989 1 1 0.99989
0.99993 1 1 0.99993
0.999919 1 1 0.999919
0.99991 1 1 0.99991
0.99744 0.999364 0.998073 1
0.975931 0.980085 0.995826 0.999935
0.976754 0.978839 0.998115 0.999754
0.99993 1 1 0.99993
0.999918 1 1 0.999918
0.999871 1 1 0.999871
1.00162 1 1.00173 0.999886
0.975015 0.980683 0.994297 0.999923
0.980982 0.980376 1.00086 0.999761
0.98518 1.00254 0.982864 0.99982
0.997283 1.00095 0.996495 0.999838
0.978805 0.986247 0.992465 0.999989
0.994828 1.00012 0.994708 1
0.99395 1.00162 0.99234 1
0.999929 1 1 0.999929
0.998019 0.999464 0.998553 1
0.999779 0.999426 1.00035 1
1.0046 1 1.00473 0.999863
1.00174 1 1.00183 0.999909
1.00422 1.00028 1.00408 0.999855
0.994 1.00048 0.993701 0.999818
0.986818 0.98494 1.00233 0.999579
0.990149 0.994697 0.995448 0.999979
0.999043 1.00088 0.998163 0.999998
0.999926 1 1 0.999926
0.999413 0.999413 1 1
0.999632 0.999335 1.0003 1
1.00382 1 1.00389 0.999932
1.00417 0.999264 1.00495 0.999959
0.994275 0.990155 1.00455 0.999617
0.987701 1.00217 0.985602 0.999962
0.999451 0.999465 0.999989 0.999996
0.99993 1 1 0.99993
0.999928 1 1 0.999928
0.999924 1 1 0.999924
0.999963 1 1 0.999963
0.999946 1 1 0.999946
0.999939 1 1 0.999939
0.999929 1 1 0.999929
0.999946 1 1 0.999946
0.999933 1 1 0.999933
0.999927 1 1 0.999927
0.99993 1 1 0.99993
0.999925 1 1 0.999925
0.999935 1 1 0.999935
0.999948 1 1 0.999948
0.999948 1 1 0.999948
0.999942 1 1 0.999942
0.999938 1 1 0.999938
0.999946 1 1 0.999946
0.999937 1 1 0.999937
0.999935 1 1 0.999935
0.999932 1 1 0.999932
0.999934 1 1 0.999934
0.999939 1 1 0.999939
0.99994 1 1 0.99994
0.999942 1 1 0.999942
0.999956 1 1 0.999956
0.999948 1 1 0.999948
0.999949 1 1 0.999949
0.99996 1 1 0.99996
0.999945 1 1 0.999945
0.999961 1 1 0.999961
0.999983 1 1 0.999983
0.999961 1 1 0.999961
0.999984 1 1 0.999984
1 1 1 1
0.999984 1 1 0.999984
1 1 1 1
1 1 1 1
1 1 1 1
1 1 1 1
1 1 1 1
1 1 1 1
1 1 1 1
1 1 1 1
0.999988 1 1 0.999988
1 1 1 1
0.999991 1 1 0.999991
1 1 1 1
1 1 1 1
0.999993 1 1 0.999993
1 1 1 1
1 1 1 1
1 1 1 1
1 1 1 1
1 1 1 1
1 1 1 1
0.998864 0.999533 0.99933 1
0.975268 0.979157 0.99606 0.999969
0.999941 0.999749 1.00019 1
0.99777 0.999827 0.997943 1
0.998841 0.997816 1.00112 0.99991
0.999964 1 1.00004 0.999921
0.979673 0.978661 1.00121 0.999822
0.976124 0.981205 0.994918 0.999903
0.994131 1.00079 0.993348 1
1.00148 1.00008 1.00148 0.999919
0.98349 0.980889 1.003 0.999649
0.978306 0.985751 0.992573 0.999874
0.994854 1.00076 0.9941 1
0.998401 1.00072 0.997745 0.999935
0.988995 0.985259 1.00422 0.999573
0.9897 0.995484 0.994207 0.999982
0.999181 0.999515 0.999665 1
0.999941 1 1 0.999941
0.999954 1 1 0.999954
0.999974 1 1 0.999974
0.99996 1 1 0.99996
0.999948 1 1 0.999948
0.999958 1 1 0.999958
0.999963 1 1 0.999963
0.999966 1 1 0.999966
0.999969 1 1 0.999969
0.999969 1 1 0.999969
0.997618 1 0.997652 0.999966
0.999358 1 0.999404 0.999954
0.99991 1 1 0.99991
0.999902 1 1 0.999902
0.999905 1 1 0.999905
0.999923 1 1 0.999923
0.999929 1 1 0.999929
0.99993 1 1 0.99993
0.990491 1.00027 0.990274 0.999948
0.99992 1 1 0.99992
0.999909 1 1 0.999909
1.00037 1 1.00047 0.999903
0.99989 1 1 0.99989
0.995581 1.00054 0.995128 0.999912
1.00138 1 1.00149 0.999888
0.999893 1 1 0.999893
0.999922 1 1 0.999922
0.999909 1 1 0.999909
0.999342 0.999341 1 1
0.998321 0.99937 0.998948 1
0.976187 0.980813 0.995274 1.00001
0.999929 1 1 0.999929
1.00162 1 1.00171 0.999909
1.00491 1 1.00505 0.999862
0.999032 0.999702 0.999329 1
0.988877 0.985629 1.00374 0.999562
0.99206 1.00101 0.991118 0.999945
1.00483 1 1.00502 0.999804
0.983735 0.992259 0.991545 0.999864
0.999761 0.999306 1.00045 1
0.999421 1.00026 0.999166 0.999998
0.999927 1 1 0.999927
0.999529 0.999529 1 1
0.999512 0.999251 1.00026 1
1.00392 1 1.004 0.999917
1.00389 0.999018 1.00495 0.999929
0.99637 0.992109 1.00471 0.999583
0.999775 0.999632 1.00014 0.999998
0.994088 1.00046 0.9937 0.999927
0.999927 1 1 0.999927
1.00013 1.00013 0.999998 1
0.999322 0.999154 1.00017 1
0.998931 0.999472 0.999457 1
1.00349 0.999317 1.00422 0.999958
1.00471 0.994458 1.01061 0.999703
0.984448 1.00182 0.982716 0.99994
0.999928 1 1 0.999928
0.999924 1 1 0.999924
0.999928 1 1 0.999928
0.999946 1 1 0.999946
0.999933 1 1 0.999933
0.999927 1 1 0.999927
0.999935 1 1 0.999935
0.999925 1 1 0.999925
0.999929 1 1 0.999929
0.999929 1 1 0.999929
0.999927 1 1 0.999927
0.999939 1 1 0.999939
0.999946 1 1 0.999946
0.999937 1 1 0.999937
0.999932 1 1 0.999932
0.999935 1 1 0.999935
0.999929 1 1 0.999929
0.999936 1 1 0.999936
0.999926 1 1 0.999926
0.999938 1 1 0.999938
0.99994 1 1 0.99994
0.999932 1 1 0.999932
0.999943 1 1 0.999943
0.999956 1 1 0.999956
0.999942 1 1 0.999942
0.999965 1 1 0.999965
0.999955 1 1 0.999955
0.99995 1 1 0.99995
0.99995 1 1 0.99995
0.999961 1 1 0.999961
0.999983 1 1 0.999983
0.999961 1 1 0.999961
0.999983 1 1 0.999983
1 1 1 1
0.999984 1 1 0.999984
1 1 1 1
1 1 1 1
1 1 1 1
1 1 1 1
1 1 1 1
1 1 1 1
1 1 1 1
1 1 1 1
0.999983 1 1 0.999983
0.999999 1 1 0.999999
0.999987 1 1 0.999987
1 1 1 1
0.999999 1 1 0.999999
0.999989 1 1 0.999989
1 1 1 1
1 1 1 1
1 1 1 1
1 1 1 1
1 1 1 1
1 1 1 1
0.999578 0.999499 1.00008 1
0.997343 0.999486 0.997855 1
0.976825 0.979313 0.997525 0.999935
0.99996 1 1 0.99996
0.999942 0.999792 1.00015 1
0.999854 0.999645 1.00021 1
0.996027 0.999747 0.996278 1
0.999206 1.00044 0.998884 0.999882
0.985138 0.980871 1.00472 0.999628
0.980085 0.985727 0.994285 0.999991
0.994737 1.00078 0.993957 1
0.996845 1.00137 0.995639 0.999836
0.988754 0.984892 1.00434 0.999587
0.987977 0.994261 0.993761 0.999917
0.999022 1.00043 0.998593 0.999999
0.993441 1.0003 0.993323 0.99982
0.995913 0.991879 1.00459 0.999475
0.996487 0.999998 0.996612 0.999877
0.999823 0.999876 0.999952 0.999995
0.999932 1 1 0.999932
0.99994 1 1 0.99994
0.999956 1 1 0.999956
0.999946 1 1 0.999946
0.99995 1 1 0.99995
0.999959 1 1 0.999959
0.999966 1 1 0.999966
0.99997 1 1 0.99997
0.991837 1 0.991892 0.999945
1.0004 1 1.00049 0.999906
0.99993 1 1 0.99993
0.999891 1 1 0.99989
0.999909 1 1 0.999909
0.999921 1 1 0.999921
0.999922 1 1 0.999922
0.993606 1.00036 0.993336 0.99991
0.999909 1 1 0.999909
0.999892 1 1 0.999892
1.00135 1 1.00146 0.999888
0.99992 1 1 0.99992
1.0015 1 1.0016 0.9999
1.00129 1 1.0014 0.99989
0.999901 1 1 0.999901
0.999908 1 1 0.999908
1.00004 1.00004 1 1
0.999344 0.999343 1 1
0.999034 0.999377 0.999656 1
0.999929 1 1 0.999929
1.00419 1 1.00428 0.999902
0.999656 0.999655 1 1
0.996026 0.989822 1.00671 0.999564
1.00345 0.999372 1.00423 0.999847
0.992555 0.999898 0.992755 0.999901
0.99941 0.999134 1.00028 1
1.00014 0.9998 1.00034 0.999999
0.999928 1 1 0.999928
1.00015 1.00015 0.999999 1
0.999587 0.999456 1.00013 1
1.00168 0.998923 1.00279 0.99997
0.998535 1.00034 0.998194 1
1.00228 0.996589 1.00599 0.99973
0.98675 1.00036 0.986508 0.999888
0.999942 1 1 0.999942
1.00013 1.00015 0.99998 1
0.999963 0.999766 1.0002 1
0.994461 1.0018 0.992669 1
0.99354 0.997977 0.995665 0.999889
1.00942 0.998718 1.01072 0.999995
1.00422 0.995788 1.0087 0.999763
0.999925 1 1 0.999925
0.999927 1 1 0.999927
0.999933 1 1 0.999933
0.999936 1 1 0.999936
0.999925 1 1 0.999925
0.999929 1 1 0.999929
0.999927 1 1 0.999927
0.99993 1 1 0.99993
0.999918 1 1 0.999918
0.999932 1 1 0.999932
0.999935 1 1 0.999935
0.999928 1 1 0.999928
0.999919 1 1 0.999919
0.999939 1 1 0.999939
0.999927 1 1 0.999927
0.999919 1 1 0.999919
0.999929 1 1 0.999929
0.99994 1 1 0.99994
0.999931 1 1 0.999931
0.999946 1 1 0.999946
0.999954 1 1 0.999954
0.999944 1 1 0.999944
0.999967 1 1 0.999967
0.999956 1 1 0.999956
0.999942 1 1 0.999942
0.999984 1 1 0.999984
0.999964 1 1 0.999964
0.999954 1 1 0.999954
0.999962 1 1 0.999962
0.999983 1 1 0.999983
1 1 1 1
0.999983 1 1 0.999983
1 1 1 1
1 1 1 1
1 1 1 1
1 1 1 1
1 1 1 1
1 1 1 1
1 1 1 1
1 1 1 1
0.999981 1 1 0.999981
0.999998 1 1 0.999998
0.999984 1 1 0.999984
1 1 1 1
0.999999 1 1 0.999999
0.999987 1 1 0.999987
1 1 1 1
1 1 1 1
0.999999 1 1 0.999999
1 1 1 1
1 1 1 1
1 1 1 1
1.00003 1.00003 0.999998 1
0.999528 0.999482 1.00005 1
0.997375 0.999459 0.997913 1
0.999961 1 1 0.999961
0.999959 1 1 0.999959
0.999948 1 1 0.999948
0.999251 0.999176 1.00007 1
0.99987 0.999758 1.00011 1
0.999784 0.999543 1.00024 1
0.998687 1.00217 0.996593 0.999931
0.989629 0.985578 1.00452 0.999595
0.986251 0.995471 0.99088 0.999857
0.999617 0.999674 0.999943 1
0.995319 1.00004 0.995346 0.999933
0.99667 0.990646 1.00648 0.999599
0.997482 1.00309 0.994458 0.999949
0.999912 0.999834 1.00008 0.999997
1.00275 0.99974 1.00305 0.999958
0.999282 0.996478 1.00317 0.999642
0.987214 1.00268 0.98465 0.999924
0.999871 1.00022 0.999648 1
0.999931 1 1 0.999931
0.999932 1 1 0.999932
0.999939 1 1 0.999939
0.999946 1 1 0.999946
0.999951 1 1 0.999951
0.999967 1 1 0.999967
0.991413 1 0.991505 0.999907
1.00132 1 1.00143 0.999888
0.999921 1 1 0.999921
0.999892 1 1 0.999892
0.999908 1 1 0.999908
0.999919 1 1 0.999919
0.999907 1 1 0.999907
0.999998 1 1.0001 0.999897
0.999901 1 1 0.999901
1.00136 1 1.00147 0.999889
0.999907 1 1 0.999907
1.0036 1 1.00369 0.999909
1.00003 1 1.00013 0.999896
0.999896 1 1 0.999896
1.00004 1.00004 0.999998 1
1.00005 1.00005 1 1
0.999346 0.999345 1 1
0.99993 1 1 0.99993
1.00328 0.998738 1.00458 0.999977
1.00016 1.00016 1 1
1.00343 0.998403 1.0052 0.99984
0.983167 1.00129 0.981951 0.999947
0.999834 0.99978 1.00005 1
0.999558 0.999645 0.999913 1
0.999943 1 1 0.999943
1.0001 1.00012 0.999988 1
0.999885 0.999729 1.00016 1
1.01133 0.998715 1.01269 0.999939
0.99447 1.00074 0.993732 1
0.99457 1.0028 0.991829 0.999963
0.997444 0.996017 1.00169 0.999748
0.999785 1 0.999821 0.999964
1.00002 1.00003 0.999996 1
0.99995 0.999732 1.00022 1
0.99061 1.00015 0.990457 1
0.988527 0.994459 0.994051 0.999984
1.0033 0.995063 1.0086 0.999686
1.01567 0.998002 1.01777 0.999934
0.999926 1 1 0.999926
0.999933 1 1 0.999933
1.00004 1 1.00013 0.999917
0.999927 1 1 0.999927
0.99993 1 1 0.99993
0.999919 1 1 0.999919
1.00009 1 1.00019 0.999898
0.999927 1 1 0.999927
0.999917 1 1 0.999917
0.999905 1 1 0.999905
0.999929 1 1 0.999929
0.999919 1 1 0.999919
0.999915 1 1 0.999915
0.999924 1 1 0.999924
0.999939 1 1 0.999939
0.999928 1 1 0.999928
0.99993 1 1 0.99993
0.999955 1 1 0.999955
0.999947 1 1 0.999947
0.999965 1 1 0.999965
0.999955 1 1 0.999955
0.999945 1 1 0.999945
0.999986 1 1 0.999986
0.999967 1 1 0.999967
0.999955 1 1 0.999955
1 1 1 1
0.999985 1 1 0.999985
0.999963 1 1 0.999963
0.999983 1 1 0.999983
1 1 1 1
1 1 1 1
1 1 1 1
1 1 1 1
1 1 1 1
1 1 1 1
1 1 1 1
1 1 1 1
0.999984 1 1 0.999984
1 1 1 1
0.999982 1 1 0.999982
1 1 1 1
0.999999 1 1 0.999999
0.999984 1 1 0.999984
1 1 1 1
1 1 1 1
0.999998 1 1 0.999998
1 1 1 1
1 1 1 1
1 1 1 1
1.00014 1.00015 0.999988 1
1.00004 1.00004 0.999997 1
0.999446 0.999445 1 1
0.999961 1 1 0.999961
0.999955 1 1 0.999955
0.999962 1 1 0.999962
0.999959 1 1 0.999959
0.999946 1 1 0.999946
0.999947 1 1 0.999947
0.999938 1 1 0.999938
0.999624 0.999344 1.00028 1
0.999536 0.999504 1.00003 1
0.999794 0.999724 1.00007 1
1.00001 0.999835 1.00018 0.999999
0.998589 1.00158 0.997203 0.999809
0.999663 0.993153 1.00686 0.999701
0.987463 1.00157 0.986059 0.999853
1.00267 0.999133 1.00365 0.999887
0.999881 0.997265 1.00295 0.999672
0.990425 1.00161 0.988969 0.999862
0.999641 1.00126 0.998388 0.999997
1.00999 0.999299 1.01073 0.999966
1.00009 0.997898 1.00249 0.999707
0.989941 1.0027 0.987327 0.99995
0.997912 1.00065 0.997268 1
0.999925 1 1 0.999925
0.99993 1 1 0.99993
0.999932 1 1 0.999932
0.999945 1 1 0.999945
0.998494 1 0.9986 0.999894
1.00136 1 1.00147 0.999888
0.999918 1 1 0.999918
0.999906 1 1 0.999906
0.999901 1 1 0.999901
0.999909 1 1 0.999909
0.999895 1 1 0.999895
1.0034 0.999995 1.00349 0.999912
0.999983 1 1.00008 0.999899
0.999899 1 1 0.999899
1.00343 0.999789 1.0037 0.999948
1.00017 1 1.00029 0.999875
1.00005 1.00005 1 1
1.00001 1.00001 1 1
1.00005 1.00005 1 1
0.999944 1 1 0.999944
1.00977 0.998718 1.01108 0.999991
1.00008 1.00008 0.999993 1
1.0042 0.995227 1.00926 0.999751
0.983397 1.00042 0.98311 0.999866
0.999808 0.999692 1.00012 1
0.994118 1.00077 0.993348 1
0.999757 1 0.999794 0.999962
1.00004 1.00004 0.999995 1
0.999884 0.999616 1.00027 1
1.02036 0.999252 1.02113 1
0.991931 1.00049 0.991449 1
0.986567 0.993455 0.993146 0.999921
1.00241 0.995535 1.00719 0.999718
0.999693 1 0.999733 0.99996
0.999619 0.99948 1.00014 1
0.99793 0.999906 0.998024 1
0.975528 0.984933 0.99046 0.999992
0.996717 0.990843 1.00634 0.999595
1.01382 0.999851 1.0141 0.999871
0.999933 1 1 0.999933
0.999995 1 1.00008 0.999917
1.00272 1 1.00283 0.999896
0.99992 1 1 0.99992
0.999977 1 1.00008 0.999901
1.0004 1 1.00052 0.999882
0.999915 1 1 0.999915
0.999903 1 1 0.999903
0.999901 1 1 0.999901
0.999918 1 1 0.999918
0.999914 1 1 0.999914
0.999917 1 1 0.999917
0.999927 1 1 0.999927
0.999932 1 1 0.999932
0.999923 1 1 0.999923
0.999949 1 1 0.999949
0.99994 1 1 0.99994
0.999927 1 1 0.999927
0.999963 1 1 0.999963
0.999954 1 1 0.999954
0.999947 1 1 0.999947
0.999985 1 1 0.999985
0.999966 1 1 0.999966
0.999957 1 1 0.999957
1 1 1 1
0.999986 1 1 0.999986
0.999967 1 1 0.999967
1 1 1 1
1 1 1 1
0.999985 1 1 0.999985
1 1 1 1
1 1 1 1
1 1 1 1
1 1 1 1
1 1 1 1
1 1 1 1
0.999965 1 1 0.999965
0.999984 1 1 0.999984
1 1 1 1
0.999984 1 1 0.999984
1 1 1 1
1 1 1 1
0.999984 1 1 0.999984
1 1 1 1
1 1 1 1
1 1 1 1
1 1 1 1
1 1 1 1
1 1 1 1
1.00013 1.00014 0.999999 1
1.00011 1.00012 0.999994 1
1.00005 1.00006 0.999997 1
0.999962 1 1 0.999962
0.999954 1 1 0.999954
0.999955 1 1 0.999955
0.999951 1 1 0.999951
0.999949 1 1 0.999949
0.999959 1 1 0.999959
0.999944 1 1 0.999944
0.999947 1 1 0.999947
0.999939 1 1 0.999939
0.999939 1 1 0.999939
0.999821 0.999579 1.00024 1
0.9995 0.999267 1.00023 1
0.999815 0.999805 1.00001 1
1.00005 1.00064 0.99941 0.999996
0.986232 1.00187 0.984459 0.999932
1.00446 0.999675 1.00495 0.999834
1.00112 0.996258 1.00518 0.999699
1.01018 0.999056 1.01125 0.999887
0.993476 0.997898 0.995868 0.9997
0.996401 1.00126 0.995234 0.99991
0.996417 1.00068 0.995745 1
1.01275 0.998326 1.01453 0.999919
1.00063 0.995027 1.00595 0.999685
0.985788 0.995548 0.990339 0.999856
0.99219 1.00058 0.991618 1
0.999932 1 1 0.999932
0.999927 1 1 0.999927
0.99993 1 1 0.99993
1.00326 1 1.00335 0.999914
0.999958 1 1.00006 0.999902
0.999912 1 1 0.999912
0.999895 1 1 0.999895
0.9999 1 1 0.9999
1.00014 1 1.00027 0.999875
1.00343 0.99988 1.0036 0.999948
0.999891 1 1 0.999891
1.00133 0.999994 1.00143 0.999908
0.999335 0.999334 1 1
1.00005 1.00005 1 1
0.999973 0.99997 1 1
0.999857 1 0.999896 0.999961
1.01966 0.9992 1.02055 0.99993
1.00005 1.00006 0.999994 1
1.0024 0.993188 1.00965 0.999629
0.984865 0.994401 0.990552 0.999857
0.999833 0.999503 1.00033 1
0.993227 1.00079 0.992441 1
0.999531 1 0.999572 0.999959
0.999542 0.999466 1.00008 1
0.997413 0.999818 0.997595 1
1.01476 0.998815 1.01603 0.999929
0.977275 0.985287 0.991997 0.999871
0.996767 0.98974 1.00758 0.999519
1.00147 1 1.00154 0.99993
0.998765 0.999516 0.999248 1
0.975124 0.981239 0.993871 0.999896
0.988636 0.984808 1.00432 0.999567
0.995178 1.00025 0.994996 0.999934
0.999933 1 1.00002 0.999917
1.00241 1 1.00251 0.999896
1.00594 1 1.00606 0.999877
0.999903 1 1 0.999903
1.00058 1 1.0007 0.999883
1.00011 1 1.00022 0.999892
0.999901 1 1 0.999901
0.999902 1 1 0.999902
0.999921 1 1 0.999921
0.999913 1 1 0.999913
0.999918 1 1 0.999918
0.999934 1 1 0.999934
0.999938 1 1 0.999938
0.99993 1 1 0.99993
0.999927 1 1 0.999927
0.999942 1 1 0.999942
0.999931 1 1 0.999931
0.999921 1 1 0.999921
0.999962 1 1 0.999962
0.99995 1 1 0.99995
0.999941 1 1 0.999941
0.999982 1 1 0.999982
0.999963 1 1 0.999963
0.999952 1 1 0.999952
1 1 1 1
0.999985 1 1 0.999985
0.999967 1 1 0.999967
1 1 1 1
1 1 1 1
0.999986 1 1 0.999986
1 1 1 1
1 1 1 1
1 1 1 1
1 1 1 1
1 1 1 1
1 1 1 1
0.999964 1 1 0.999964
0.999984 1 1 0.999984
0.999964 1 1 0.999964
1 1 1 1
0.999984 1 1 0.999984
1 1 1 1
1 1 1 1
0.999983 1 1 0.999983
1 1 1 1
1 1 1 1
1 1 1 1
1 1 1 1
1 1 1 1
1 1 1 1
0.999738 0.999737 1 1
1.00015 1.00015 0.999999 1
1.00008 1.00008 0.999997 1
0.999957 1 1 0.999957
0.999963 1 1 0.999963
0.999953 1 1 0.999953
0.999952 1 1 0.999952
0.999956 1 1 0.999956
0.999949 1 1 0.999949
0.999948 1 1 0.999948
0.999945 1 1 0.999945
0.999947 1 1 0.999947
0.999939 1 1 0.999939
0.999939 1 1 0.999939
0.999939 1 1 0.999939
0.996024 0.999599 0.996422 1
0.999775 0.999451 1.00032 1
0.999372 0.999197 1.00017 1
0.995004 1.00184 0.993175 1
0.995703 1.00094 0.9949 0.999872
0.999901 0.997724 1.00248 0.999707
1.01044 0.999196 1.01126 0.999985
1.01542 0.998574 1.01687 0.999999
0.993154 1.00058 0.992577 1
0.998183 0.997185 1.00137 0.999631
0.988254 0.994321 0.993917 0.999981
1.0084 0.999216 1.00923 0.999966
0.996436 0.990287 1.00661 0.999601
0.97717 0.985408 0.991644 0.999996
0.99994 1 1 0.99994
0.999933 1 1 0.999933
0.999928 1 1 0.999928
1.00334 0.999939 1.00345 0.999948
1.00011 1 1.00023 0.999875
0.999901 1 1 0.999901
0.999893 1 1 0.999893
1.00134 1 1.00143 0.999908
0.999922 1 1 0.999922
0.996716 0.998951 0.99776 1
0.999527 0.999526 1 1
1.00005 1.00005 1 1
0.999209 1 0.99925 0.999958
1.01434 0.999734 1.01465 0.999959
0.999431 0.99943 1 1
1.00173 0.992189 1.00989 0.999734
0.97927 0.985299 0.993889 0.999991
0.995589 0.99973 0.995857 1
1.00175 1 1.00182 0.999931
0.997046 0.99947 0.997574 1
0.975788 0.980848 0.994838 1
0.995314 0.999804 0.995691 0.999817
0.988337 0.984338 1.00448 0.999582
0.993494 1.00033 0.993274 0.999887
0.976245 0.980487 0.995663 1.00001
0.982642 0.981025 1.00198 0.999664
0.986817 1.00156 0.985461 0.999817
1.00198 1 1.00208 0.999896
1.00597 1 1.00609 0.999874
1.00244 1 1.00254 0.999899
1.00079 1 1.0009 0.999884
1.00019 1 1.0003 0.999893
0.999936 1 1 0.999936
0.999903 1 1 0.999903
0.999923 1 1 0.999923
0.999952 1 1 0.999952
0.999919 1 1 0.999919
0.999934 1 1 0.999934
0.999951 1 1 0.999951
0.999948 1 1 0.999948
0.999937 1 1 0.999937
0.999938 1 1 0.999938
0.999938 1 1 0.999938
0.999931 1 1 0.999931
0.999928 1 1 0.999928
0.999957 1 1 0.999957
0.999942 1 1 0.999942
0.999929 1 1 0.999929
0.999979 1 1 0.999979
0.999961 1 1 0.999961
0.999951 1 1 0.999951
1 1 1 1
0.999982 1 1 0.999982
0.999963 1 1 0.999963
1 1 1 1
1 1 1 1
0.999985 1 1 0.999985
1 1 1 1
1 1 1 1
1 1 1 1
1 1 1 1
1 1 1 1
1 1 1 1
0.999967 1 1 0.999967
0.999965 1 1 0.999965
0.999984 1 1 0.999984
1 1 1 1
0.999984 1 1 0.999984
0.999963 1 1 0.999963
1 1 1 1
1 1 1 1
0.999984 1 1 0.999984
1 1 1 1
1 1 1 1
1 1 1 1
1 1 1 1
1 1 1 1
1 1 1 1
0.998341 0.999106 0.999234 1
0.999704 0.999703 1 1
1.00016 1.00017 1 1
0.999956 1 1 0.999956
0.999955 1 1 0.999955
0.99995 1 1 0.99995
0.999953 1 1 0.999953
0.999957 1 1 0.999957
0.999949 1 1 0.999949
0.999945 1 1 0.999945
0.999948 1 1 0.999948
0.999942 1 1 0.999942
0.999943 1 1 0.999943
0.999939 1 1 0.999939
0.999938 1 1 0.999938
0.978699 0.982153 0.996483 1
0.996736 0.999808 0.996927 1
0.999735 0.999334 1.0004 1
0.994054 1.0006 0.99346 1
0.983037 0.992521 0.990571 0.999871
1.00237 0.998624 1.00402 0.999738
1.01368 0.998451 1.01534 0.999917
1.00923 0.999196 1.01017 0.999875
0.977405 0.985348 0.992053 0.999885
0.998067 0.992124 1.00631 0.999679
1.00602 0.999821 1.00637 0.999835
0.98888 0.985179 1.00413 0.99963
1.00007 1 1.00014 0.999931
0.99994 1 1 0.99994
0.999933 1 1 0.999933
1.00134 1 1.00143 0.999909
0.999894 1 1 0.999894
0.999937 1 1.00001 0.999925
0.999922 1 1 0.999922
0.974636 0.981479 0.993017 1.00001
0.997937 0.999189 0.998745 1
0.99973 0.99973 1 1
1.00222 1 1.00228 0.999932
0.996203 1.00028 0.995975 0.999947
0.996966 0.999444 0.997519 1
0.9892 0.985056 1.00462 0.999587
0.975188 0.980918 0.994258 0.9999
0.993076 1.00044 0.992753 0.99989
0.975091 0.979477 0.995553 0.999968
0.983756 0.980483 1.0037 0.999641
0.98681 1.00102 0.98587 0.999937
0.98548 1.00169 0.983917 0.999894
0.977902 0.978319 0.999929 0.999644
0.996388 1.001 0.99545 0.999939
1.00617 1 1.0063 0.999872
1.00195 1 1.00205 0.9999
0.999685 1 0.999729 0.999956
1.00022 1 1.00033 0.999894
0.999937 1 1 0.999937
0.999955 1 0.999976 0.999979
0.999924 1 1 0.999924
0.999952 1 1 0.999952
0.999968 1 1 0.999968
0.999935 1 1 0.999935
0.999951 1 1 0.999951
0.999956 1 1 0.999956
0.999949 1 1 0.999949
0.999948 1 1 0.999948
0.999945 1 1 0.999945
0.999941 1 1 0.999941
0.999937 1 1 0.999937
0.999939 1 1 0.999939
0.99995 1 1 0.99995
0.999939 1 1 0.999939
0.999933 1 1 0.999933
0.999975 1 1 0.999975
0.999957 1 1 0.999957
0.999942 1 1 0.999942
0.999999 1 1 0.999999
0.999979 1 1 0.999979
0.999961 1 1 0.999961
1 1 1 1
1 1 1 1
0.999982 1 1 0.999982
1 1 1 1
1 1 1 1
1 1 1 1
1 1 1 1
1 1 1 1
1 1 1 1
0.999965 1 1 0.999965
0.999966 1 1 0.999966
0.999983 1 1 0.999983
0.999966 1 1 0.999966
0.999984 1 1 0.999984
1 1 1 1
1 1 1 1
1 1 1 1
0.999984 1 1 0.999984
1 1 1 1
1 1 1 1
1 1 1 1
1 1 1 1
1 1 1 1
1 1 1 1
0.978574 0.98104 0.997559 0.999927
0.997666 0.999228 0.998436 1
0.99967 0.999669 1 1
0.999955 1 1 0.999955
0.99995 1 1 0.99995
0.999956 1 1 0.999956
0.999954 1 1 0.999954
0.999949 1 1 0.999949
0.999946 1 1 0.999946
0.999949 1 1 0.999949
0.999942 1 1 0.999942
0.999944 1 1 0.999944
0.999939 1 1 0.999939
0.999939 1 1 0.999939
0.999942 1 1 0.999942
0.999938 1 1 0.999938
0.983408 0.982972 1.00086 0.99958
0.978859 0.982441 0.996397 0.999956
0.996187 1.00003 0.99616 1
0.978646 0.985687 0.992862 0.999994
0.996 0.989972 1.00661 0.99948
1.00856 0.999273 1.00933 0.999966
1.00581 0.999435 1.00649 0.999889
0.988408 0.985025 1.00381 0.999626
1.00215 0.999924 1.00236 0.999869
1.00006 1 1.00017 0.999894
1.00025 1 1.00032 0.999929
0.999941 1 1 0.999941
0.999951 1 1.00002 0.999927
0.999942 1 1 0.999942
0.976175 0.978469 0.997893 0.999762
0.976185 0.980944 0.995212 0.999937
0.99899 0.999415 0.999575 1
0.992333 1.00059 0.991853 0.999893
0.989431 1.00281 0.986853 0.999807
0.976888 0.979786 0.997108 0.999934
0.985806 0.980431 1.00586 0.999623
0.984658 1.00125 0.983537 0.99989
0.980035 0.979245 1.00108 0.999728
0.993572 1.00192 0.991835 0.999836
0.982134 1.00147 0.980753 0.99994
1.00607 0.999331 1.0068 0.999945
1.00139 1 1.00149 0.9999
0.999053 1 0.999096 0.999957
0.999038 1 0.999047 0.999991
0.999938 1 1 0.999938
0.999928 1 0.999949 0.999979
0.999882 1 0.999899 0.999983
0.999952 1 1 0.999952
0.999967 1 1 0.999967
0.999961 1 1 0.999961
0.999951 1 1 0.999951
0.999955 1 1 0.999955
0.999949 1 1 0.999949
0.99995 1 1 0.99995
0.999945 1 1 0.999945
0.999949 1 1 0.999949
0.999945 1 1 0.999945
0.999944 1 1 0.999944
0.999947 1 1 0.999947
0.99994 1 1 0.99994
0.999937 1 1 0.999937
0.999969 1 1 0.999969
0.999951 1 1 0.999951
0.999941 1 1 0.999941
0.999998 1 1 0.999998
0.999975 1 1 0.999975
0.999957 1 1 0.999957
1 1 1 1
0.999999 1 1 0.999999
0.999979 1 1 0.999979
1 1 1 1
1 1 1 1
0.999999 1 1 0.999999
1 1 1 1
1 1 1 1
1 1 1 1
0.999961 1 1 0.999961
0.999965 1 1 0.999965
0.999979 1 1 0.999979
0.999964 1 1 0.999964
0.999982 1 1 0.999982
0.999999 1 1 0.999999
0.999984 1 1 0.999984
1 1 1 1
1 1 1 1
1 1 1 1
1 1 1 1
1 1 1 1
1 1 1 1
1 1 1 1
1 1 1 1
0.980881 0.980982 1.00016 0.999735
0.977162 0.982381 0.99468 1.00001
0.998596 0.999348 0.999247 1
0.999951 1 1 0.999951
0.999956 1 1 0.999956
0.99995 1 1 0.99995
0.999955 1 1 0.999955
0.999952 1 1 0.999952
0.999949 1 1 0.999949
0.999941 1 1 0.999941
0.999944 1 1 0.999944
0.99994 1 1 0.99994
0.999942 1 1 0.999942
0.999939 1 1 0.999939
0.999902 1 1 0.999902
0.999939 1 1 0.999939
0.999941 1 1 0.999941
0.99705 0.999062 0.998007 0.999979
0.981819 0.982035 1.0001 0.999683
0.975817 0.981312 0.994496 0.999904
0.988931 0.985665 1.00371 0.999605
1.00619 0.999742 1.00649 0.999956
1.00212 0.99962 1.00255 0.999945
0.999753 1 0.999874 0.999878
1.00021 1 1.00032 0.999895
1.00042 1 1.00049 0.999927
0.999963 1 1 0.999963
1.00077 0.998437 1.00245 0.999893
0.979298 0.979255 1.00028 0.999767
0.976178 0.981479 0.99459 1.00001
0.983694 1.00067 0.983151 0.999887
0.994673 1.00276 0.991998 0.999934
0.980789 0.978744 1.00227 0.999819
0.984129 1.00074 0.983459 0.999937
1.00199 0.999895 1.00217 0.999921
0.9899 1 0.989932 0.999968
1.0024 1 1.00249 0.999914
0.998545 1 0.998588 0.999957
0.998874 1 0.998883 0.99999
0.999423 1 0.999449 0.999973
0.999974 1 0.999996 0.999978
0.999968 1 0.999986 0.999982
0.99996 1 1 0.99996
0.999966 1 1 0.999966
0.999961 1 1 0.999961
0.999946 1 1 0.999946
0.999954 1 1 0.999954
0.99995 1 1 0.99995
0.999941 1 1 0.999941
0.999951 1 1 0.999951
0.999945 1 1 0.999945
0.999943 1 1 0.999943
0.999945 1 1 0.999945
0.999944 1 1 0.999944
0.999949 1 1 0.999949
0.999962 1 1 0.999962
0.999948 1 1 0.999948
0.99994 1 1 0.99994
0.999996 1 1 0.999996
0.999969 1 1 0.999969
0.999952 1 1 0.999952
1 1 1 1
0.999998 1 1 0.999998
0.999975 1 1 0.999975
1 1 1 1
1 1 1 1
0.999999 1 1 0.999999
1 1 1 1
1 1 1 1
1 1 1 1
0.999959 1 1 0.999959
0.999962 1 1 0.999962
0.999976 1 1 0.999976
0.999965 1 1 0.999965
0.999979 1 1 0.999979
0.999999 1 1 0.999999
0.999981 1 1 0.999981
0.999999 1 1 0.999999
1 1 1 1
1 1 1 1
1 1 1 1
1 1 1 1
1 1 1 1
1 1 1 1
1 1 1 1
0.996129 0.997662 0.998469 0.999994
0.978366 0.979704 0.998896 0.999739
0.976177 0.982428 0.99371 0.999927
0.999949 1 1 0.999949
0.99995 1 1 0.99995
0.999955 1 1 0.999955
0.999949 1 1 0.999949
0.999952 1 1 0.999952
0.999949 1 1 0.999949
0.999944 1 1 0.999944
0.99994 1 1 0.99994
0.999942 1 1 0.999942
0.999943 1 1 0.999943
0.999921 1 1 0.999921
0.999869 1 1 0.999869
0.999906 1 1 0.999906
0.999938 1 1 0.999938
0.998048 1 0.998154 0.999894
0.997262 0.999951 0.997391 0.99992
0.982298 0.98181 1.00072 0.999781
1.00165 0.999974 1.00183 0.999844
0.999791 1 0.999938 0.999853
1.00036 1 1.00047 0.999896
1 1 1.00002 0.999984
1.00196 0.998128 1.00385 0.999984
0.976925 0.979197 0.997922 0.999758
0.986332 1.0001 0.986293 0.999934
0.999077 1.00015 0.999046 0.999883
0.9928 1 0.992835 0.999965
1.00133 1 1.00141 0.999924
0.99993 1 1 0.99993
0.999921 1 1 0.999921
0.998486 1 0.998496 0.999989
0.999647 1 0.999676 0.999972
0.999942 1 1 0.999942
0.999981 1 1 0.999981
0.99996 1 1 0.99996
0.99994 1 1 0.99994
0.99996 1 1 0.99996
0.999947 1 1 0.999947
0.999934 1 1 0.999934
0.99995 1 1 0.99995
0.999941 1 1 0.999941
0.999938 1 1 0.999938
0.999946 1 1 0.999946
0.999943 1 1 0.999943
0.999945 1 1 0.999945
0.999944 1 1 0.999944
0.999948 1 1 0.999948
0.99996 1 1 0.99996
0.999993 1 1 0.999993
0.999964 1 1 0.999964
0.999949 1 1 0.999949
1 1 1 1
0.999996 1 1 0.999996
0.99997 1 1 0.99997
1 1 1 1
1 1 1 1
0.999997 1 1 0.999997
1 1 1 1
1 1 1 1
1 1 1 1
0.999956 1 1 0.999956
0.999959 1 1 0.999959
0.999975 1 1 0.999975
0.999964 1 1 0.999964
0.999977 1 1 0.999977
0.999998 1 1 0.999998
0.999978 1 1 0.999978
0.999999 1 1 0.999999
1 1 1 1
1 1 1 1
1 1 1 1
1 1 1 1
1 1 1 1
1 1 1 1
1 1 1 1
0.998185 1 0.998211 0.999974
0.996164 0.998326 0.997933 0.999901
0.980173 0.980744 0.999659 0.999758
0.999947 1 1 0.999947
0.99994 1 1 0.99994
0.999949 1 1 0.999949
0.999948 1 1 0.999948
0.999952 1 1 0.999952
0.999948 1 1 0.999948
0.999924 1 1 0.999924
0.999943 1 1 0.999943
0.999947 1 1 0.999947
0.999921 1 1 0.999921
0.999885 1 1 0.999885
0.999921 1 1 0.999921
0.999872 1 1 0.999872
0.999909 1 1 0.999909
0.998172 1 0.998274 0.999898
0.996725 0.99994 0.996908 0.999875
0.999829 1 1 0.999829
0.999991 1 1 0.999991
1.00114 1 1.00116 0.999985
1.00046 0.997691 1.00287 0.999911
0.995803 1 0.995841 0.999962
1.00028 1 1.00034 0.999934
0.999889 1 0.999957 0.999933
0.999927 1 1 0.999927
0.999921 1 1 0.999921
0.999964 1 1 0.999964
0.999971 1 1 0.999971
0.999943 1 1 0.999943
0.999928 1 1 0.999928
0.99996 1 1 0.99996
0.99994 1 1 0.99994
0.999929 1 1 0.999929
0.999947 1 1 0.999947
0.999934 1 1 0.999934
0.999931 1 1 0.999931
0.999941 1 1 0.999941
0.999938 1 1 0.999938
0.999941 1 1 0.999941
0.999943 1 1 0.999943
0.999945 1 1 0.999945
0.999956 1 1 0.999956
0.999947 1 1 0.999947
0.999959 1 1 0.999959
0.999988 1 1 0.999988
1 1 1 1
0.999992 1 1 0.999992
0.999965 1 1 0.999965
1 1 1 1
1 1 1 1
0.999995 1 1 0.999995
1 1 1 1
1 1 1 1
1 1 1 1
0.999948 1 1 0.999948
0.999955 1 1 0.999955
0.999971 1 1 0.999971
0.99996 1 1 0.99996
0.999975 1 1 0.999975
0.999997 1 1 0.999997
0.999978 1 1 0.999978
0.999999 1 1 0.999999
1 1 1 1
0.999999 1 1 0.999999
1 1 1 1
1 1 1 1
1 1 1 1
1 1 1 1
1 1 1 1
0.999982 1 1 0.999982
0.998311 1 0.998333 0.999977
0.995868 0.997696 0.998173 0.999996
0.999933 1 1 0.999933
0.999949 1 1 0.999949
0.999925 1 1 0.999925
0.99994 1 1 0.99994
0.999948 1 1 0.999948
0.999899 1 1 0.999899
0.999947 1 1 0.999947
0.999925 1 1 0.999925
0.999906 1 1 0.999906
0.99992 1 1 0.99992
0.99988 1 1 0.99988
0.999919 1 1 0.999919
0.999876 1 1 0.999876
0.99829 1 0.998388 0.999902
0.999992 1 1 0.999992
0.999989 1 1 0.999989
1.00223 1 1.00224 0.999986
0.999822 1 0.999886 0.999935
0.999933 1 1 0.999933
0.999919 1 1 0.999919
0.999965 1 1 0.999965
0.999955 1 1 0.999955
0.999944 1 1 0.999944
0.99993 1 1 0.99993
0.999931 1 1 0.999931
0.99994 1 1 0.99994
0.999928 1 1 0.999928
0.999928 1 1 0.999928
0.999934 1 1 0.999934
0.999931 1 1 0.999931
0.999935 1 1 0.999935
0.999938 1 1 0.999938
0.999941 1 1 0.999941
0.999951 1 1 0.999951
0.999945 1 1 0.999945
0.999957 1 1 0.999957
0.999983 1 1 0.999983
0.999959 1 1 0.999959
0.999988 1 1 0.999988
1 1 1 1
1 1 1 1
1 1 1 1
0.999992 1 1 0.999992
1 1 1 1
1 1 1 1
1 1 1 1
0.999926 1 1 0.999926
0.99994 1 1 0.99994
0.999947 1 1 0.999947
0.999966 1 1 0.999966
0.999954 1 1 0.999954
0.999971 1 1 0.999971
0.999995 1 1 0.999995
0.999975 1 1 0.999975
0.999998 1 1 0.999998
1 1 1 1
0.999999 1 1 0.999999
1 1 1 1
1 1 1 1
1 1 1 1
1 1 1 1
1 1 1 1
0.999962 1 1 0.999962
0.999981 1 1 0.999981
0.998443 1 0.998463 0.999981
0.999912 1 1 0.999912
0.999936 1 1 0.999936
0.999951 1 1 0.999951
0.999927 1 1 0.999927
0.999939 1 1 0.999939
0.9999 1 1 0.9999
0.999898 1 1 0.999898
0.999925 1 1 0.999925
0.999905 1 1 0.999905
0.999876 1 1 0.999876
0.999917 1 1 0.999917
0.999986 1 1 0.999986
0.999991 1 1 0.999991
0.999987 1 1 0.999987
0.999917 1 1 0.999917
0.999966 1 1 0.999966
0.999954 1 1 0.999954
0.999954 1 1 0.999954
0.999931 1 1 0.999931
0.999929 1 1 0.999929
0.999936 1 1 0.999936
0.999927 1 1 0.999927
0.999928 1 1 0.999928
0.999931 1 1 0.999931
0.999931 1 1 0.999931
0.999935 1 1 0.999935
0.999945 1 1 0.999945
0.999941 1 1 0.999941
0.999951 1 1 0.999951
0.999977 1 1 0.999977
0.999957 1 1 0.999957
0.999983 1 1 0.999983
1 1 1 1
0.999987 1 1 0.999987
1 1 1 1
1 1 1 1
1 1 1 1
1 1 1 1
1 1 1 1
0.999913 1 1 0.999913
0.999938 1 1 0.999938
0.99993 1 1 0.99993
0.999959 1 1 0.999959
0.99994 1 1 0.99994
0.999946 1 1 0.999946
0.999966 1 1 0.999966
0.999993 1 1 0.999993
0.999971 1 1 0.999971
0.999996 1 1 0.999996
1 1 1 1
0.999998 1 1 0.999998
1 1 1 1
1 1 1 1
1 1 1 1
1 1 1 1
1 1 1 1
0.999947 1 1 0.999947
0.999963 1 1 0.999963
0.99998 1 1 0.99998
0.999907 1 1 0.999907
0.999911 1 1 0.999911
0.999939 1 1 0.999939
0.999928 1 1 0.999928
0.9999 1 1 0.9999
0.999897 1 1 0.999897
0.999903 1 1 0.999903
0.999976 1 1 0.999976
0.999982 1 1 0.999982
0.99999 1 1 0.99999
0.999959 1 1 0.999959
0.999953 1 1 0.999953
0.999954 1 1 0.999954
0.99995 1 1 0.99995
0.999927 1 1 0.999927
0.999936 1 1 0.999936
0.999935 1 1 0.999935
0.999928 1 1 0.999928
0.999931 1 1 0.999931
0.99994 1 1 0.99994
0.999935 1 1 0.999935
0.999945 1 1 0.999945
0.99997 1 1 0.99997
0.999951 1 1 0.999951
0.999977 1 1 0.999977
1 1 1 1
0.999983 1 1 0.999983
1 1 1 1
1 1 1 1
1 1 1 1
1 1 1 1
1 1 1 1
0.999909 1 1 0.999909
0.999923 1 1 0.999923
0.999915 1 1 0.999915
0.999954 1 1 0.999954
0.999937 1 1 0.999937
0.999934 1 1 0.999934
0.999987 1 1 0.999987
0.999959 1 1 0.999959
0.999941 1 1 0.999941
0.999966 1 1 0.999966
0.999993 1 1 0.999993
1 1 1 1
0.999996 1 1 0.999996
1 1 1 1
1 1 1 1
1 1 1 1
1 1 1 1
1 1 1 1
0.99994 1 1 0.99994
0.999943 1 1 0.999943
0.999963 1 1 0.999963
0.999904 1 1 0.999904
0.999911 1 1 0.999911
0.999901 1 1 0.999901
0.999961 1 1 0.999961
0.999978 1 1 0.999978
0.999977 1 1 0.999977
0.999957 1 1 0.999957
0.999954 1 1 0.999954
0.999954 1 1 0.999954
0.99995 1 1 0.99995
0.999947 1 1 0.999947
0.999937 1 1 0.999937
0.999936 1 1 0.999936
0.999941 1 1 0.999941
0.999931 1 1 0.999931
0.999941 1 1 0.999941
0.999964 1 1 0.999964
0.999945 1 1 0.999945
0.99997 1 1 0.99997
1 1 1 1
0.999977 1 1 0.999977
1 1 1 1
1 1 1 1
1 1 1 1
1 1 1 1
1 1 1 1
0.999937 1 1 0.999937
0.999914 1 1 0.999914
0.999908 1 1 0.999908
0.99994 1 1 0.99994
0.999924 1 1 0.999924
0.999918 1 1 0.999918
0.99998 1 1 0.99998
0.999951 1 1 0.999951
0.999936 1 1 0.999936
1 1 1 1
0.999987 1 1 0.999987
0.999959 1 1 0.999959
0.999994 1 1 0.999994
1 1 1 1
1 1 1 1
1 1 1 1
1 1 1 1
1 1 1 1
0.999935 1 1 0.999935
0.999938 1 1 0.999938
0.99994 1 1 0.99994
0.9999 1 1 0.9999
0.999952 1 1 0.999952
0.999963 1 1 0.999963
0.99998 1 1 0.99998
0.999954 1 1 0.999954
0.999955 1 1 0.999955
0.999956 1 1 0.999956
0.99995 1 1 0.99995
0.999947 1 1 0.999947
0.999948 1 1 0.999948
0.999936 1 1 0.999936
0.999941 1 1 0.999941
0.999962 1 1 0.999962
0.999941 1 1 0.999941
0.999964 1 1 0.999964
1 1 1 1
0.99997 1 1 0.99997
1 1 1 1
1 1 1 1
1 1 1 1
1 1 1 1
1 1 1 1
0.999937 1 1 0.999937
0.999931 1 1 0.999931
0.999936 1 1 0.999936
0.999927 1 1 0.999927
0.999917 1 1 0.999917
0.999908 1 1 0.999908
0.999966 1 1 0.999966
0.99994 1 1 0.99994
0.999925 1 1 0.999925
1 1 1 1
0.999977 1 1 0.999977
0.999948 1 1 0.999948
1 1 1 1
1 1 1 1
0.999988 1 1 0.999988
1 1 1 1
1 1 1 1
1 1 1 1
0.999939 1 1 0.999939
0.999939 1 1 0.999939
0.999937 1 1 0.999937
0.99996 1 1 0.99996
0.999953 1 1 0.999953
0.999964 1 1 0.999964
0.999956 1 1 0.999956
0.999956 1 1 0.999956
0.999961 1 1 0.999961
0.999946 1 1 0.999946
0.999949 1 1 0.999949
0.999964 1 1 0.999964
0.999942 1 1 0.999942
0.999962 1 1 0.999962
0.999998 1 1 0.999998
0.999964 1 1 0.999964
0.999999 1 1 0.999999
1 1 1 1
1 1 1 1
1 1 1 1
1 1 1 1
0.999935 1 1 0.999935
0.999939 1 1 0.999939
0.999936 1 1 0.999936
0.999935 1 1 0.999935
0.999932 1 1 0.999932
0.999936 1 1 0.999936
0.999955 1 1 0.999955
0.99993 1 1 0.99993
0.99992 1 1 0.99992
1 1 1 1
0.999964 1 1 0.999964
0.99994 1 1 0.99994
1 1 1 1
1 1 1 1
0.999975 1 1 0.999975
1 1 1 1
1 1 1 1
1 1 1 1
0.999948 1 1 0.999948
0.99994 1 1 0.99994
0.999943 1 1 0.999943
0.999965 1 1 0.999965
0.999959 1 1 0.999959
0.999953 1 1 0.999953
0.999956 1 1 0.999956
0.999961 1 1 0.999961
0.999972 1 1 0.999972
0.99995 1 1 0.99995
0.999964 1 1 0.999964
0.999997 1 1 0.999997
0.999962 1 1 0.999962
0.999998 1 1 0.999998
1 1 1 1
0.999999 1 1 0.999999
1 1 1 1
1 1 1 1
0.999943 1 1 0.999943
0.999933 1 1 0.999933
0.999944 1 1 0.999944
0.99994 1 1 0.99994
0.999935 1 1 0.999935
0.999959 1 1 0.999959
0.999935 1 1 0.999935
0.999933 1 1 0.999933
0.999999 1 1 0.999999
0.999957 1 1 0.999957
0.999933 1 1 0.999933
1 1 1 1
1 1 1 1
0.999962 1 1 0.999962
1 1 1 1
1 1 1 1
1 1 1 1
0.999957 1 1 0.999957
0.999948 1 1 0.999948
0.99994 1 1 0.99994
0.999975 1 1 0.999975
0.999965 1 1 0.999965
0.999957 1 1 0.999957
0.999961 1 1 0.999961
0.999972 1 1 0.999972
0.999998 1 1 0.999998
0.999965 1 1 0.999965
0.999998 1 1 0.999998
1 1 1 1
0.999998 1 1 0.999998
1 1 1 1
1 1 1 1
0.99995 1 1 0.99995
0.999941 1 1 0.999941
0.99993 1 1 0.99993
0.999964 1 1 0.999964
0.999944 1 1 0.999944
0.99994 1 1 0.99994
0.999998 1 1 0.999998
0.999958 1 1 0.999958
0.999934 1 1 0.999934
1 1 1 1
0.999999 1 1 0.999999
0.999958 1 1 0.999958
1 1 1 1
1 1 1 1
1 1 1 1
0.999974 1 1 0.999974
0.999957 1 1 0.999957
0.999948 1 1 0.999948
0.999999 1 1 0.999999
0.999975 1 1 0.999975
0.999965 1 1 0.999965
0.999971 1 1 0.999971
0.999998 1 1 0.999998
1 1 1 1
0.999998 1 1 0.999998
1 1 1 1
1 1 1 1
0.99997 1 1 0.99997
0.99995 1 1 0.99995
0.99994 1 1 0.99994
0.999998 1 1 0.999998
0.999964 1 1 0.999964
0.999944 1 1 0.999944
1 1 1 1
0.999998 1 1 0.999998
0.999958 1 1 0.999958
1 1 1 1
0.999999 1 1 0.999999
1 1 1 1
0.999998 1 1 0.999998
0.999973 1 1 0.999973
0.999956 1 1 0.999956
1 1 1 1
0.999999 1 1 0.999999
0.999975 1 1 0.999975
0.999999 1 1 0.999999
1 1 1 1
1 1 1 1
0.999999 1 1 0.999999
0.999969 1 1 0.999969
0.99995 1 1 0.99995
1 1 1 1
0.999998 1 1 0.999998
0.999963 1 1 0.999963
1 1 1 1
0.999998 1 1 0.999998
1 1 1 1
1 1 1 1
0.999999 1 1 0.999999
0.999972 1 1 0.999972
1 1 1 1
0.999999 1 1 0.999999
1 1 1 1
1 1 1 1
0.999998 1 1 0.999998
0.999969 1 1 0.999969
1 1 1 1
0.999998 1 1 0.999998
1 1 1 1
1 1 1 1
0.999999 1 1 0.999999
1 1 1 1
1 1 1 1
0.999998 1 1 0.999998
1 1 1 1
1 1 1 1
1 1 1 1

VECTORS lamdaE float
0.999321 0.997939 0.998103
0.999451 0.997351 0.999281
0.999319 0.997908 0.998121
0.999041 0.999032 0.997663
0.999239 0.99826 0.997976
0.999391 0.997652 0.998223
0.999518 0.998971 0.996611
0.999462 0.997352 0.999292
0.999255 0.998143 0.99914
0.999398 0.997559 0.99926
0.999524 0.997121 0.998414
0.999614 0.998415 0.996784
0.998568 1.00023 0.99744
0.998865 0.999372 0.997641
0.999318 0.997876 0.998139
0.999034 0.999003 0.997686
0.999392 0.997618 0.998239
0.999237 0.998226 0.997996
0.999515 0.998986 0.996616
0.998632 0.999871 0.998918
0.998927 0.999423 0.997534
0.999143 0.998632 0.997827
0.999434 0.999772 0.996034
0.999482 0.999235 0.99644
0.999468 0.997384 0.998322
0.999551 0.998701 0.996793
0.999921 1.00036 0.994497
0.999474 0.997352 0.999303
0.999256 0.998184 0.998543
0.999401 0.997582 0.998744
0.999518 0.997129 0.999323
0.999611 0.998388 0.996792
0.999135 0.99858 0.997818
0.999321 0.997878 0.998121
0.999526 0.999201 0.99672
0.99959 0.996905 0.999354
0.999571 0.998659 0.997124
0.999651 0.998192 0.996922
0.999887 1.00004 0.994621
0.999696 0.996666 0.999357
0.998567 0.999955 0.998906
0.998839 0.999362 0.998301
0.998515 1.00016 0.998872
0.998697 0.999809 0.997559
0.999189 1.00075 0.995236
0.999017 0.998851 0.999034
0.999333 1.00004 0.99623
0.999026 0.998972 0.99771
0.999234 0.99819 0.998016
0.999392 0.997585 0.998255
0.999512 0.999001 0.996621
0.99862 0.99998 0.998191
0.998917 0.999403 0.997552
0.99947 0.997347 0.998334
0.999139 0.998596 0.997851
0.999433 0.999784 0.996037
0.99955 0.998712 0.9968
0.99948 0.999249 0.996443
0.999939 1.00036 0.994467
0.99856 1.00006 0.998905
0.998788 0.999785 0.99748
0.999247 1.00047 0.995998
0.999418 1 0.995857
0.999448 0.99951 0.99625
1.00015 1.00056 0.993816
0.999978 1.00042 0.994186
0.999568 0.997151 0.99839
0.999607 0.998396 0.996981
0.999857 1.00025 0.994744
1.00029 1.00064 0.993222
0.99927 0.998154 0.999156
0.999535 0.997136 0.999335
0.99941 0.997591 0.999265
0.999607 0.998362 0.996799
0.999142 0.998518 0.999066
0.999319 0.997866 0.999194
0.99952 0.99921 0.99615
0.999595 0.996923 0.998907
0.999572 0.998635 0.996635
0.999651 0.998166 0.997167
0.999875 1.00007 0.994617
0.99964 0.99678 0.999354
0.999803 0.997719 0.997086
0.999493 0.999517 0.995854
0.999536 0.99896 0.996363
1.00005 1.00043 0.993872
0.999707 0.997964 0.99748
0.999927 1.00018 0.994403
0.999864 0.999886 0.994834
1.00007 1.00072 0.993577
0.999741 0.996569 0.99936
0.999703 0.996683 0.999357
0.9989 0.999212 0.999001
0.998604 0.999898 0.998925
0.998522 1.00014 0.998879
0.998678 0.999769 0.99824
0.999187 1.00069 0.995626
0.999023 0.998931 0.998368
0.999347 1.00009 0.995913
0.998511 1.00019 0.99888
0.999171 1.00091 0.995135
0.999247 1.00034 0.996109
1.00006 1.00095 0.99334
0.999439 0.999724 0.996372
1.0001 1.00065 0.993548
0.998614 1.0001 0.997455
0.998907 0.999382 0.997569
0.999472 0.99731 0.998347
0.999134 0.998557 0.997874
0.999432 0.999798 0.996041
0.999479 0.999263 0.996447
0.999548 0.998722 0.996808
0.999957 1.00035 0.994437
0.998546 1.00008 0.998896
0.998778 0.999767 0.99749
0.999258 1.00051 0.9955
0.999417 1.00001 0.995858
0.999555 0.997114 0.998855
0.999603 0.998398 0.997131
0.999448 0.999522 0.996253
1.00016 1.00056 0.993741
0.999877 1.00024 0.994708
0.999991 1.00043 0.994223
1.00028 1.00064 0.993229
0.999195 1.00078 0.995201
0.999353 1.00022 0.995785
1.00021 1.00076 0.993376
1.00024 1.00058 0.993514
1.00006 1.0005 0.993952
1.00061 1.00058 0.992737
0.999629 0.996939 0.999334
1.00038 1.00056 0.993118
0.999681 0.998127 0.996925
0.999839 1.00008 0.994677
1.00018 1.00076 0.993344
1.00049 1.00066 0.992809
0.999789 0.997801 0.997007
0.999984 0.999466 0.994987
0.999182 0.998483 0.999091
0.99934 0.997856 0.999219
0.999498 0.999206 0.99614
0.9996 0.996954 0.999351
0.99965 0.998133 0.99695
0.999561 0.99861 0.996629
0.999863 1.00009 0.994613
0.999651 0.996797 0.999355
0.999803 0.997708 0.997087
0.999486 0.999494 0.996201
0.999529 0.998928 0.996665
1.00004 1.00045 0.993869
0.999713 0.997946 0.997048
0.999909 1.00021 0.994402
0.999855 0.999894 0.994832
1.00007 1.00072 0.993537
0.999763 0.997812 0.997076
0.999836 0.997639 0.997099
0.999961 0.999432 0.995079
1.00011 1.00046 0.993706
0.999974 1.00034 0.994136
1.00045 1.00058 0.992944
0.999891 0.999659 0.995004
1.00017 1.00063 0.993397
1.00001 1.00078 0.993655
1.00019 1.00099 0.99315
0.999781 0.996479 0.999364
0.999746 0.996583 0.999361
0.99971 0.9967 0.999358
0.999825 0.99771 0.997028
0.999687 0.996803 0.99934
0.999057 0.998839 0.99904
0.998738 0.99958 0.998965
0.999317 1.00015 0.995569
0.999168 1.00077 0.995267
0.998527 1.00012 0.998887
0.998511 1.00019 0.998875
0.999161 1.00092 0.995136
0.999256 1.0004 0.995782
1.00007 1.00095 0.993334
0.999437 0.999795 0.995721
1.00011 1.00065 0.993545
0.999166 1.00092 0.995123
1.00006 1.00103 0.993252
1.00008 1.0008 0.993453
1.00046 1.00088 0.992613
1.00012 1.00053 0.99362
1.00055 1.00062 0.99271
0.998532 1.0001 0.998888
0.998768 0.999749 0.997501
0.999267 1.00054 0.995004
0.999416 1.00002 0.995859
0.999541 0.997075 0.999322
0.999599 0.998399 0.997281
0.999447 0.999536 0.996257
1.00017 1.00056 0.993666
1 1.00044 0.994261
0.999898 1.00024 0.994672
1.00028 1.00064 0.993235
0.999197 1.00077 0.995202
0.999355 1.00022 0.995783
1.00021 1.00076 0.99324
1.00024 1.00059 0.993558
0.999615 0.996927 0.999331
0.999676 0.998144 0.997146
0.999854 1.00005 0.994813
1.00006 1.0005 0.993949
1.00061 1.00057 0.992655
1.00016 1.00076 0.993328
1.00039 1.00056 0.993159
1.00049 1.00065 0.992816
0.999788 0.997815 0.997006
0.999981 0.999472 0.994988
1.00013 1.0009 0.993238
1.00025 1.00064 0.993408
1.00066 1.00073 0.992483
1.00071 1.00057 0.992394
1.00047 1.00055 0.993008
1.00081 1.00055 0.992315
0.999738 0.997935 0.996975
1.00059 1.00051 0.99275
0.999865 0.999862 0.994826
1.00005 1.00075 0.993494
1.00038 1.0009 0.992911
1.00059 1.0006 0.992692
0.999956 0.999536 0.994969
1 0.999407 0.995015
1.0001 1.00053 0.993709
0.999471 0.999507 0.995895
0.999661 0.996814 0.999356
0.999804 0.997697 0.997087
0.999518 0.998901 0.99641
1.00004 1.00047 0.993866
0.999708 0.997928 0.997046
0.999846 0.999903 0.994831
0.999891 1.00024 0.994401
1.00008 1.00071 0.993497
0.999763 0.997801 0.997076
0.999836 0.997628 0.9971
0.999962 0.999426 0.995078
1.00011 1.00047 0.9937
0.999957 1.00037 0.994137
1.00045 1.00058 0.992941
0.999887 0.999655 0.995005
1.00018 1.00064 0.993423
1.00001 1.00079 0.993647
1.00018 1.00098 0.993106
0.999867 0.99756 0.997115
0.999934 0.999499 0.99507
0.999981 0.999376 0.995092
1.00008 1.00048 0.993803
1.00055 1.00049 0.992818
1.00029 1.00065 0.993202
1.00064 1.00061 0.992523
1.00003 1.00064 0.993759
1.00033 1.00079 0.992986
1.00009 1.00126 0.99303
1.00026 1.00107 0.992819
1.00005 0.999112 0.995223
0.999927 0.9974 0.997146
0.999818 0.99639 0.999368
0.999785 0.996489 0.999365
0.999751 0.996598 0.999362
0.999852 0.997634 0.997048
0.999731 0.996693 0.999346
0.999824 0.997722 0.997027
0.999677 0.996786 0.999339
0.999407 0.999821 0.995713
0.999227 1.00049 0.995425
1.00011 1.00065 0.993542
1.00008 1.00095 0.993328
0.999153 1.00093 0.995137
0.99851 1.00019 0.998871
0.999165 1.00092 0.995122
1.00007 1.00103 0.993249
1.00008 1.0008 0.993449
1.00047 1.00088 0.992605
1.00013 1.00054 0.993616
1.00055 1.00063 0.992712
1.00009 1.00101 0.993225
1.00041 1.00099 0.992617
1.00052 1.00075 0.992638
1.00066 1.00082 0.992319
1.00057 1.00051 0.992772
1.00073 1.00055 0.99242
0.999202 1.00076 0.995202
0.999358 1.00022 0.995782
1.00022 1.00075 0.993104
1.00025 1.00059 0.993602
0.999601 0.996916 0.999328
0.999673 0.998161 0.997366
0.99987 1.00003 0.994949
1.00006 1.0005 0.993946
1.00061 1.00055 0.992573
1.0004 1.00056 0.9932
1.00014 1.00076 0.993312
1.00048 1.00065 0.992823
0.999788 0.997828 0.997005
0.999979 0.999479 0.99499
1.00013 1.0009 0.993189
1.00026 1.00064 0.993406
1.00065 1.00073 0.992468
1.00071 1.00057 0.992486
0.999739 0.997949 0.996972
0.999875 0.999854 0.994827
1.00005 1.00075 0.993549
1.00048 1.00055 0.993017
1.00081 1.00052 0.992293
1.00036 1.0009 0.992853
1.00059 1.00051 0.992752
1.00058 1.00058 0.992686
0.999955 0.999543 0.994972
1.00011 1.00051 0.993668
0.999997 0.999415 0.995015
1.00054 1.0009 0.992578
1.00073 1.0006 0.992414
1.00084 1.0007 0.992061
1.00093 1.00055 0.992042
1.00065 1.00047 0.992617
1.00091 1.00034 0.992296
0.999912 0.999662 0.994929
1.00067 1.00041 0.992672
1.00004 1.00064 0.993716
1.0002 1.00102 0.992962
1.00046 1.001 0.992574
1.00064 1.00044 0.992821
1.00002 0.99934 0.995053
1.00009 1.00052 0.993745
1.0001 1.00056 0.993586
1.00017 1.00101 0.993197
1.00012 1.00048 0.993694
0.999836 0.997618 0.997101
0.999763 0.997789 0.997077
0.999963 0.99942 0.995077
0.999939 1.0004 0.994137
1.00046 1.00058 0.992938
0.999882 0.99965 0.995006
1.00001 1.0008 0.99364
1.00018 1.00064 0.993449
1.00018 1.00098 0.993062
0.999867 0.997551 0.997116
0.999933 0.999493 0.995069
0.999982 0.999371 0.995092
1.00008 1.00049 0.9938
1.00056 1.00049 0.992813
1.00029 1.00065 0.993203
1.00065 1.00061 0.992519
1.00002 1.00066 0.993759
1.00033 1.0008 0.993029
1.0001 1.00127 0.993015
1.00024 1.00103 0.992899
0.999898 0.997481 0.997131
0.999999 0.999317 0.995114
1.00007 1.0005 0.993811
1.00008 1.00048 0.993799
1.00013 1.00111 0.993086
1.00074 1.00043 0.992495
1.00046 1.00077 0.992747
1.00073 1.0006 0.992387
1.00008 1.00125 0.993066
1.00039 1.00091 0.99276
1.00016 1.00155 0.992458
1.00003 0.999191 0.995179
1.0001 1.00029 0.99396
1.00007 0.999039 0.995256
1.00005 0.999109 0.995225
0.999954 0.997299 0.997592
0.999924 0.997393 0.997362
0.999865 0.996335 0.998518
0.999822 0.996396 0.999369
0.999789 0.996499 0.999366
0.999881 0.997561 0.997066
0.999768 0.996592 0.99935
0.999852 0.997645 0.997047
0.999725 0.996676 0.999344
0.999823 0.997734 0.997026
0.999667 0.996769 0.999337
1.00013 1.00054 0.993611
1.00009 1.0008 0.993446
1.00054 1.00063 0.992715
1.00048 1.00088 0.992597
1.00008 1.00103 0.993245
0.999163 1.00092 0.995122
1.00009 1.00101 0.99323
1.00042 1.00099 0.992612
1.00052 1.00075 0.992637
1.00065 1.00082 0.992328
1.00057 1.00052 0.992771
1.00073 1.00055 0.992427
1.00044 1.00101 0.992573
1.00052 1.00094 0.99246
1.00071 1.00069 0.992313
1.00075 1.00074 0.992217
1.00075 1.00042 0.992511
1.00084 1.0003 0.992493
1.00013 1.0009 0.993139
1.00026 1.00064 0.993405
1.00064 1.00072 0.992453
1.00071 1.00057 0.992577
0.99974 0.997964 0.99697
0.999885 0.999847 0.994827
1.00005 1.00075 0.993604
1.00049 1.00055 0.993027
1.0008 1.00049 0.992271
1.00059 1.0005 0.992754
1.00035 1.0009 0.992796
1.00058 1.00056 0.99268
0.999954 0.99955 0.994974
1.00012 1.0005 0.993627
0.999995 0.999422 0.995015
1.00052 1.00089 0.992542
1.00073 1.00061 0.992411
1.00085 1.0007 0.992012
1.00093 1.00054 0.992063
0.999916 0.999664 0.994931
1.00005 1.00063 0.993717
1.00019 1.00103 0.993015
1.00066 1.0005 0.992642
1.0009 1.00029 0.99232
1.00045 1.00103 0.992526
1.00068 1.0004 0.992674
1.00063 1.00037 0.992853
1.0001 1.0005 0.993749
1.00017 1.001 0.993137
1.00001 0.999346 0.995052
1.00011 1.00055 0.993585
1.0007 1.0009 0.992161
1.00101 1.00056 0.991928
1.00093 1.00072 0.991775
1.00103 1.00032 0.992005
1.00075 1.00031 0.992612
1.00099 1.00002 0.992453
1.00006 1.00055 0.993764
1.00071 1.00008 0.992905
1.00014 1.00093 0.993153
1.00026 1.00135 0.992587
1.0005 1.00107 0.99239
1.0007 1.00022 0.992905
1.00002 0.999298 0.995085
1.0001 1.00054 0.993592
1.00019 1.00087 0.99321
1.00014 1.0012 0.993011
1.00023 1.00118 0.992879
0.999867 0.997542 0.997117
1.00056 1.0005 0.992809
0.999983 0.999366 0.995092
0.999933 0.999487 0.995069
1.00007 1.0005 0.993797
1.00029 1.00065 0.993204
1.00065 1.00061 0.992515
1.00001 1.00067 0.99376
1.0001 1.00128 0.993001
1.00033 1.00081 0.993071
1.00023 1.001 0.992979
0.999897 0.997474 0.997132
1 0.999313 0.995114
1.00007 1.00051 0.99381
1.00008 1.00049 0.993797
1.00013 1.0011 0.993069
1.00075 1.00044 0.992485
1.00046 1.00077 0.992748
1.00072 1.00061 0.992369
1.00008 1.00125 0.99307
1.00039 1.00092 0.992786
1.00019 1.00153 0.992502
1.00002 0.999258 0.995141
1.00009 1.00046 0.993805
1.00013 1.00109 0.993087
1.00012 1.00117 0.993042
1.00015 1.00144 0.99277
1.00085 1.00022 0.992476
1.00053 1.00084 0.99254
1.00068 1.00035 0.992644
1.0001 1.00175 0.992515
1.00036 1.00154 0.99221
1.00003 0.999187 0.995181
1.0001 1.00038 0.993756
1.0001 1.0003 0.993897
1.00009 1.00112 0.993261
1.0001 1.00024 0.994005
1.00008 0.998988 0.995269
1.00007 0.99904 0.995257
0.999985 0.997216 0.997607
1.00005 0.999106 0.995227
0.999954 0.997308 0.997594
0.999909 0.996243 0.99853
0.999921 0.997387 0.997578
0.999863 0.996303 0.998946
0.999826 0.996401 0.99937
0.99991 0.997478 0.997093
0.999882 0.997568 0.997065
0.999805 0.996491 0.999354
0.999764 0.996579 0.999349
0.999852 0.997656 0.997046
0.999719 0.996659 0.999343
1.00057 1.00052 0.992769
1.00052 1.00075 0.992636
1.00072 1.00056 0.992433
1.00065 1.00082 0.992337
1.00043 1.00099 0.992608
1.00008 1.00101 0.993234
1.00043 1.00101 0.99258
1.00051 1.00095 0.992475
1.00072 1.00069 0.992314
1.00076 1.00076 0.99219
1.00075 1.00043 0.992509
1.00084 1.00029 0.992485
1.00054 1.001 0.992415
1.00049 1.001 0.992449
1.00083 1.00052 0.992213
1.00078 1.00087 0.992102
1.00086 1.00009 0.992584
1.00092 1.00011 0.992581
1.0005 1.00089 0.992506
1.00073 1.00061 0.992407
1.00087 1.00069 0.991964
1.00093 1.00054 0.992083
0.999919 0.999667 0.994932
1.00006 1.00062 0.993718
1.00019 1.00103 0.993068
1.00066 1.00052 0.992667
1.0009 1.00024 0.992343
1.00068 1.00039 0.992676
1.00043 1.00106 0.992478
1.00063 1.00031 0.992884
1.00011 1.00048 0.993753
1.00018 1.00098 0.993077
1.00001 0.999352 0.99505
1.00011 1.00055 0.993584
1.00069 1.0009 0.992173
1.001 1.00056 0.991936
1.00096 1.00074 0.99174
1.00103 1.00034 0.992016
1.00007 1.00054 0.993767
1.00015 1.00093 0.993194
1.00025 1.00138 0.992583
1.00076 1.00034 0.992595
1.00096 0.999988 0.992521
1.0005 1.00111 0.992367
1.00072 1.00009 0.992908
1.00069 1.0001 0.992993
1.00019 1.00087 0.993211
1.00024 1.00116 0.992847
1.00014 1.00121 0.993001
1.00002 0.999295 0.994998
1.0001 1.00053 0.993599
1.00076 1.00094 0.991988
1.00113 1.00053 0.991635
1.00111 1.00002 0.992193
1.00088 0.999859 0.992791
1.00017 1.00084 0.993267
1.00084 0.999573 0.993227
1.00013 1.00127 0.992818
1.00031 1.0017 0.992154
1.0006 1.00099 0.992279
1.00003 0.99923 0.994957
1.00009 1.00049 0.993836
1.00011 1.00132 0.99293
1.00025 1.00103 0.99294
1.00022 1.00152 0.992549
1.00028 1.00125 0.992629
0.999896 0.997467 0.997133
1 0.999309 0.995113
1.00076 1.00044 0.992476
1.00008 1.00049 0.993794
1.00006 1.00052 0.993809
1.00013 1.0011 0.993052
1.00046 1.00077 0.992748
1.00072 1.00063 0.992351
1.00007 1.00124 0.993074
1.00021 1.0015 0.992546
1.00039 1.00092 0.992811
1.00002 0.999253 0.995141
1.00009 1.00046 0.993802
1.00012 1.00108 0.993127
1.00012 1.00118 0.993036
1.00015 1.00144 0.992728
1.00085 1.00026 0.992469
1.00054 1.00084 0.992522
1.00069 1.00032 0.992677
1.00009 1.00175 0.992487
1.00037 1.00159 0.992153
1.0001 1.00043 0.993819
1.00013 1.00122 0.992893
1.00014 1.00153 0.992652
1.00015 1.00153 0.992557
1.00021 1.00158 0.992483
1.00099 0.999361 0.993083
1.00054 1.00115 0.992274
1.00074 1.00007 0.992634
1.00021 1.00204 0.992137
1.00036 1.0019 0.991645
1.00003 0.999182 0.995182
1.0001 1.00039 0.993808
1.0001 1.00122 0.992959
1.0001 1.00031 0.993834
1.0001 1.00024 0.994006
1.0001 1.00113 0.993164
1.00009 1.00171 0.992656
1.0001 1.00107 0.993115
1.0001 1.00021 0.994034
1.0001 0.998963 0.995263
1.00008 0.998992 0.99527
1.00001 0.997144 0.997617
1.00007 0.999041 0.995258
0.999984 0.997226 0.997609
0.999947 0.996153 0.998539
0.999953 0.997317 0.997597
0.999908 0.996209 0.99853
0.999859 0.99627 0.999374
0.999941 0.997365 0.997142
0.999912 0.997485 0.997091
0.999843 0.996375 0.999362
0.999883 0.997576 0.997063
0.999801 0.996484 0.999353
0.99976 0.996567 0.999348
1.00075 1.00044 0.992506
1.00072 1.0007 0.992315
1.00084 1.00028 0.992477
1.00077 1.00077 0.992163
1.0005 1.00095 0.992489
1.00042 1.00101 0.992587
1.00052 1.001 0.992416
1.0005 1.00098 0.992451
1.00084 1.00051 0.992196
1.00077 1.00092 0.992025
1.00085 1.00011 0.992592
1.00091 1.00005 0.992596
1.00044 1.00101 0.992554
1.00048 1.0011 0.992366
1.00084 1.00064 0.992114
1.00097 0.999501 0.993052
1.00068 1.0009 0.992184
1.00099 1.00056 0.991945
1.00098 1.00075 0.991704
1.00103 1.00036 0.992026
1.00008 1.00052 0.99377
1.00015 1.00092 0.993234
1.00025 1.0014 0.992579
1.00077 1.00038 0.992578
1.00093 0.999952 0.99259
1.00072 1.00009 0.992911
1.00049 1.00115 0.992344
1.00068 0.999971 0.99308
1.00019 1.00087 0.993213
1.00025 1.00114 0.992814
1.00014 1.00121 0.992992
1.00002 0.999292 0.99491
1.00011 1.00053 0.993606
1.0008 1.00092 0.991918
1.00111 1.00054 0.991684
1.00109 1.00004 0.992218
1.00018 1.00084 0.993266
1.00016 1.00125 0.992873
1.00029 1.00175 0.992142
1.00089 0.999896 0.992754
1.00058 1.0009 0.992387
1.00082 0.999595 0.993206
1.00003 0.999217 0.99497
1.00024 1.00104 0.992937
1.00029 1.00122 0.992644
1.00021 1.0015 0.992583
1.00012 1.00134 0.992957
1.0001 1.00048 0.993746
1.0009 1.00087 0.99183
1.00118 1.00043 0.991654
1.00113 0.999596 0.992533
1.00106 0.999145 0.993195
1.00022 1.00107 0.992965
1.00082 1.00006 0.992751
1.00015 1.00172 0.992363
1.00036 1.00197 0.991848
1.00005 0.999077 0.995069
1.00009 1.00047 0.99386
1.0001 1.00133 0.993041
1.00016 1.00182 0.992326
1.00028 1.00121 0.99265
1.00029 1.00154 0.992336
1.00002 0.999249 0.995142
1.00009 1.00046 0.9938
1.00084 1.00029 0.992462
1.00012 1.0012 0.993029
1.00012 1.00107 0.993167
1.00015 1.00145 0.992686
1.00055 1.00083 0.992505
1.00071 1.00028 0.992709
1.00008 1.00175 0.992459
1.00037 1.00165 0.992095
1.0001 1.00043 0.99382
1.00013 1.00123 0.992932
1.00013 1.00152 0.992711
1.00015 1.00154 0.992602
1.00019 1.00158 0.992508
1.001 0.999367 0.993123
1.00057 1.00109 0.992291
1.0007 1.00011 0.99279
1.00019 1.00206 0.99209
1.00038 1.00201 0.991574
1.00012 1.00125 0.992886
1.00015 1.00182 0.992285
1.00018 1.00186 0.992265
1.0002 1.00174 0.992223
1.00125 0.998863 0.993208
1.0011 0.998974 0.993197
1.00059 1.00151 0.991751
1.00022 1.00258 0.99131
1.0001 1.00039 0.993861
1.0001 1.00123 0.993011
1.00009 1.00181 0.99251
1.0001 1.00024 0.994006
1.0001 1.00113 0.993066
1.0001 1.00021 0.994035
1.00009 1.00171 0.992585
1.0001 1.00108 0.993154
1.00011 1.0021 0.992197
1.0001 1.00165 0.99255
1.0001 1.00104 0.993135
1.0001 1.00021 0.994036
1.00011 0.998962 0.995242
1.0001 0.998967 0.995263
1.00004 0.99709 0.997618
1.00008 0.998995 0.99527
1.00001 0.997155 0.997617
0.999981 0.996073 0.998545
0.999984 0.997235 0.99761
0.999946 0.99612 0.998539
0.999907 0.996175 0.99853
0.999977 0.99724 0.997195
0.999944 0.997373 0.99714
0.999882 0.996247 0.999375
0.999914 0.997491 0.997089
0.999839 0.996378 0.999359
0.999797 0.996477 0.999352
1.00085 1.00013 0.9926
1.00086 1.00051 0.99218
1.0009 1 0.99261
1.00076 1.00096 0.991948
1.00052 1.00096 0.992453
1.00051 1.001 0.992418
1.00048 1.00101 0.992476
1.00051 1.00108 0.992347
1.00081 1.00059 0.99219
1.00097 0.999483 0.993007
1.00048 1.00104 0.992429
1.00047 1.00119 0.992303
1.00096 0.999822 0.992684
1.00083 1.00091 0.991849
1.0011 1.00055 0.991733
1.00107 1.00007 0.992243
1.00018 1.00084 0.993265
1.00018 1.00124 0.992928
1.00027 1.00179 0.992129
1.0009 0.999934 0.992716
1.00079 0.999613 0.993185
1.00057 1.00082 0.992495
1.00024 1.00105 0.992934
1.0003 1.00119 0.992659
1.00021 1.00148 0.992617
1.00003 0.999204 0.994982
1.00012 1.00136 0.992983
1.00011 1.00047 0.993657
1.00084 1.00086 0.991927
1.0012 1.00038 0.991636
1.00113 0.999668 0.992474
1.00022 1.00108 0.992961
1.00015 1.00169 0.992416
1.00035 1.00194 0.991887
1.00104 0.99915 0.993248
1.00081 1.00005 0.992738
1.00005 0.999068 0.995168
1.00009 1.00048 0.993858
1.00028 1.00122 0.992644
1.00029 1.00155 0.992343
1.00015 1.0018 0.992361
1.00011 1.00132 0.992995
1.00083 1.00072 0.992084
1.00126 1.00014 0.991783
1.00123 0.998675 0.993274
1.00112 0.998883 0.993416
1.00021 1.00138 0.992608
1.00049 1.00166 0.991873
1.00021 1.00214 0.992012
1.00007 0.99895 0.995341
1.0001 1.00009 0.994168
1.00008 1.00032 0.993835
1.00009 1.00143 0.992904
1.00013 1.00188 0.99231
1.00021 1.00205 0.992022
1.00028 1.00143 0.99244
1.00026 1.00193 0.992114
1.0001 1.00043 0.99382
1.00013 1.00124 0.992971
1.00101 0.999373 0.993164
1.00014 1.00155 0.992648
1.00013 1.0015 0.992769
1.00017 1.00157 0.992533
1.00059 1.00104 0.992307
1.00067 1.00015 0.992945
1.00017 1.00207 0.992043
1.0004 1.00212 0.991504
1.00012 1.00126 0.992879
1.00015 1.00179 0.992352
1.00017 1.00184 0.992314
1.00021 1.00176 0.99226
1.00124 0.998811 0.99319
1.00103 0.999156 0.993149
1.00062 1.0015 0.991806
1.00025 1.00254 0.991307
1.0001 1.00189 0.992405
1.00093 0.999631 0.992901
1.00018 1.00226 0.991935
1.00022 1.00228 0.991763
1.00157 0.997785 0.993654
1.00098 1.00075 0.991656
1.00037 1.00289 0.990983
1.0001 1.00124 0.993063
1.00008 1.00182 0.992511
1.00008 1.0022 0.992133
1.0001 1.00021 0.994035
1.0001 1.00108 0.993193
1.00009 1.00172 0.992513
1.0001 1.00022 0.994035
1.0001 1.00105 0.993135
1.00011 1.00211 0.992144
1.0001 1.00166 0.992624
1.00014 1.00231 0.991899
1.00014 1.00206 0.992083
1.00011 1.00161 0.992653
1.0001 1.00107 0.993199
1.0001 1.00023 0.994019
1.00012 0.998972 0.995223
1.00011 0.998965 0.995242
1.00005 0.99706 0.997608
1.0001 0.998971 0.995262
1.00004 0.997103 0.997617
1.00001 0.99601 0.998546
1.00001 0.997165 0.997618
0.99998 0.996041 0.998545
0.999945 0.996087 0.998538
1.00008 0.99883 0.995428
1.00001 0.997127 0.997248
0.99998 0.997247 0.997193
0.999921 0.99613 0.999386
0.999947 0.997381 0.997137
0.999877 0.996257 0.999371
0.999834 0.996381 0.999357
1.00096 0.999465 0.992962
1.00079 1.00054 0.992265
1.00054 1.00107 0.992329
1.00052 1.00101 0.992398
1.00045 1.00104 0.992507
1.00047 1.00125 0.992263
1.00093 0.99977 0.992797
1.00044 1.00113 0.992458
1.00059 1.00074 0.992444
1.00059 0.999761 0.993696
1.00078 1.00085 0.992025
1.00123 1.00033 0.991618
1.00113 0.999741 0.992414
1.00022 1.00108 0.992958
1.00016 1.00166 0.992469
1.00034 1.00191 0.991927
1.00102 0.999156 0.993301
1.00081 1.00004 0.992726
1.00028 1.00123 0.992638
1.00029 1.00155 0.99235
1.00014 1.00178 0.992396
1.00005 0.999059 0.995266
1.00008 1.00049 0.993856
1.00012 1.00132 0.992949
1.00084 1.00071 0.99202
1.00007 0.998951 0.995339
1.0001 1.00008 0.994112
1.00127 1.0001 0.991812
1.0012 0.998829 0.993138
1.00021 1.00136 0.992626
1.00021 1.00215 0.991953
1.00049 1.00155 0.991899
1.00111 0.998871 0.99339
1.00008 1.00032 0.993995
1.00009 1.00144 0.992894
1.00029 1.00143 0.992456
1.00027 1.00183 0.992142
1.00022 1.00208 0.991948
1.00013 1.00187 0.992334
1.00091 1.00104 0.991618
1.00131 0.999298 0.992538
1.00141 0.997478 0.994168
1.00081 1.00038 0.992509
1.00019 1.0017 0.992344
1.00026 1.00254 0.991572
1.00011 0.99994 0.994172
1.00009 1.00019 0.994081
1.00009 1.00102 0.993398
1.00006 1.0014 0.992835
1.00012 1.00197 0.992335
1.00018 1.00237 0.991637
1.0002 1.00257 0.99158
1.00021 1.00186 0.99216
1.00012 1.00127 0.992872
1.00015 1.00176 0.992418
1.00123 0.998756 0.993172
1.00097 0.999336 0.993102
1.00022 1.00177 0.992297
1.00017 1.00182 0.992364
1.00065 1.00149 0.99186
1.00028 1.00252 0.991305
1.0001 1.00189 0.9924
1.00085 0.999459 0.993183
1.00018 1.00221 0.991931
1.00024 1.00226 0.991686
1.00148 0.99789 0.993595
1.00103 1.00073 0.991692
1.00036 1.00298 0.990913
1.00009 1.00239 0.991978
1.0013 0.99787 0.99367
1.00022 1.0025 0.991665
1.00028 1.00315 0.991003
1.00167 0.999061 0.991862
1.0005 1.00286 0.990474
1.00361 0.996307 0.990767
1.00008 1.00182 0.992511
1.00007 1.00222 0.992135
1.0001 1.00244 0.9919
1.0001 1.00022 0.994035
1.0001 1.00105 0.993135
1.0001 1.00166 0.992699
1.00012 1.00211 0.992091
1.0001 1.00023 0.994018
1.0001 1.00107 0.993156
1.00015 1.00229 0.991879
1.00011 1.00161 0.992652
1.00014 1.00207 0.992146
1.00021 1.0023 0.991738
1.00014 1.00201 0.99224
1.00012 1.00163 0.992677
1.0001 1.0011 0.993072
1.0001 1.00025 0.99388
1.00008 1.00116 0.993251
1.0001 1.00026 0.993878
1.00011 0.998983 0.995215
1.00012 0.998972 0.995223
1.00007 0.997069 0.997174
1.00011 0.998967 0.995242
1.00006 0.997076 0.997396
1.00001 0.995944 0.999383
1.00004 0.997116 0.997616
1.00001 0.99598 0.998546
0.999979 0.996009 0.998545
1.0001 0.99872 0.995508
1.00009 0.998832 0.995426
1.00003 0.99702 0.997307
1 0.997134 0.997451
0.999955 0.996023 0.999399
0.999982 0.997255 0.99719
0.999916 0.996137 0.999383
0.999873 0.996266 0.999367
1.00089 0.999718 0.99291
1.00047 1.00132 0.992224
1.00043 1.00104 0.992586
1.00044 1.00112 0.992468
1.00058 1.00078 0.992454
1.00032 0.999969 0.993889
1.00051 1.00103 0.992492
1.00204 0.996144 0.996314
0.999842 0.999186 0.995353
1.00012 0.99982 0.994389
1.00085 1.00071 0.991956
1.00127 1.00007 0.99184
1.00117 0.998977 0.993003
1.00021 1.00135 0.992643
1.0002 1.00216 0.991893
1.00049 1.00143 0.991926
1.0011 0.99886 0.993365
1.00029 1.00144 0.992473
1.00027 1.00172 0.99217
1.00022 1.0021 0.991874
1.00007 0.998952 0.995337
1.00013 1.00186 0.992358
1.00008 1.00032 0.994156
1.00008 1.00145 0.992885
1.0001 1.00007 0.994056
1.00097 1.00099 0.991503
1.00011 0.999925 0.994244
1.00009 1.00019 0.99408
1.00009 1.00104 0.993288
1.00129 0.999321 0.992554
1.00138 0.997647 0.993961
1.00021 1.00167 0.992358
1.00022 1.00248 0.991563
1.00078 1.0003 0.992544
1.00006 1.00138 0.992913
1.00013 1.00197 0.992309
1.00022 1.00187 0.992152
1.0002 1.00243 0.991677
1.00017 1.00239 0.991689
1.00111 1.00097 0.991247
1.00159 0.997063 0.994103
1.00138 0.99853 0.993226
1.00043 1.00212 0.9917
1.00009 1.00218 0.992032
1.00008 1.00082 0.993341
1.00008 1.00119 0.993012
1.00004 1.00176 0.992681
1.00009 1.00219 0.992151
1.00016 1.00228 0.991785
1.00015 1.00304 0.991193
1.00017 1.0027 0.991449
1.0001 1.00188 0.992396
1.00018 1.00215 0.991926
1.00076 0.999291 0.993465
1.00138 0.997998 0.993536
1.00109 1.00072 0.991727
1.00025 1.00223 0.991609
1.00034 1.00306 0.990843
1.00008 1.00236 0.992007
1.00121 0.997813 0.993832
1.0002 1.00245 0.991646
1.00022 1.00312 0.990975
1.00174 0.998857 0.992047
1.00049 1.00305 0.990426
1.00374 0.996326 0.991664
1.00007 1.00266 0.991743
1.00216 0.998137 0.991216
1.00009 1.003 0.991384
0.999962 1.00438 0.990242
1.00092 1.00197 0.990278
0.994848 1.00355 0.980005
0.999847 0.999645 0.994425
1.00352 0.997501 0.989962
0.997269 0.996269 0.992905
1.00653 0.984216 0.997834
1.00006 1.00223 0.992137
1.00009 1.00243 0.991901
1.00015 1.00249 0.991705
1.0001 1.00023 0.994018
1.0001 1.00107 0.993113
1.00011 1.00162 0.992651
1.00013 1.00207 0.99221
1.00015 1.00228 0.99186
1.00012 1.00163 0.992604
1.0001 1.00025 0.993942
1.0001 1.0011 0.99312
1.0002 1.00231 0.99178
1.00015 1.00199 0.992216
1.00014 1.00197 0.992263
1.0002 1.00223 0.991867
1.00013 1.00169 0.992462
1.0001 1.00114 0.993037
1.0001 1.00026 0.993875
1.00009 1.00113 0.993185
1.00009 1.00177 0.992612
1.00008 1.00121 0.993079
1.00008 1.00117 0.993146
1.0001 1.00028 0.993975
1.0001 1.00026 0.993878
1.00011 0.998995 0.995217
1.00011 0.998981 0.995215
1.00008 0.997092 0.997166
1.00012 0.998973 0.995223
1.00007 0.997071 0.997174
1.00001 0.995932 0.999381
1.00007 0.997092 0.997184
1.00002 0.995943 0.998962
1.00001 0.995949 0.998547
1.00011 0.998644 0.995565
1.0001 0.998722 0.995507
1.00005 0.996934 0.99736
1.00009 0.998836 0.995425
1.00003 0.997017 0.997509
0.999981 0.995932 0.999413
1.00001 0.997149 0.997233
0.999948 0.996056 0.999392
0.999911 0.996146 0.99938
1.00057 1.00083 0.992464
1.00044 1.00112 0.992478
1.00008 1.00016 0.994081
1.0019 0.996279 0.996293
1.00045 1.00102 0.992503
0.999876 0.99955 0.99484
1.00039 1.00112 0.992074
0.998385 0.999789 0.992442
1.00002 0.999494 0.997181
1.00012 0.99975 0.994456
1.00012 0.999829 0.994385
1.00009 1.00068 0.993579
1.00008 1.00053 0.993757
1.00104 1.00092 0.991388
1.00128 0.999336 0.99257
1.00136 0.997822 0.993754
1.00023 1.00164 0.992373
1.00017 1.00242 0.991553
1.00076 1.00023 0.992579
1.00022 1.00187 0.992143
1.0002 1.0023 0.991774
1.00017 1.00242 0.991742
1.00009 1.00019 0.994079
1.00013 1.00198 0.992283
1.00006 1.00137 0.99299
1.00011 0.999909 0.994315
1.00008 1.00105 0.993177
1.00114 1.00082 0.99136
1.00008 1.00083 0.993454
1.00008 1.00117 0.993087
1.00003 1.00168 0.992722
1.00155 0.997311 0.994059
1.00134 0.998409 0.993234
1.00011 1.00222 0.992024
1.00038 1.00204 0.991749
1.00008 1.00221 0.992167
1.00017 1.00224 0.991842
1.00017 1.00266 0.99146
1.00015 1.00302 0.991224
1.00138 0.999044 0.992552
1.00193 0.996294 0.994336
1.00094 1.00116 0.991474
1.00014 1.00259 0.991618
1.00005 1.00182 0.992514
1.00007 1.00201 0.992292
1.0001 1.00292 0.991326
1.00014 1.00363 0.990617
0.995033 1.00145 0.97944
1.00008 1.00232 0.992036
1.00019 1.0024 0.991628
1.00112 0.997751 0.993994
1.0018 0.998655 0.992233
1.00048 1.0032 0.990379
1.00017 1.00309 0.990946
1.00394 0.99629 0.992559
1.00006 1.00264 0.991764
1.00227 0.998134 0.991259
1.00007 1.00292 0.99141
0.999968 1.00429 0.990249
1.00098 1.00172 0.9905
0.994725 1.00259 0.980852
0.999913 0.999695 0.990627
1.0036 0.997302 0.990024
0.997732 0.996691 0.990689
1.00574 0.984746 0.998973
0.999969 1.00284 0.991723
0.99792 0.99768 0.987862
1.00593 0.989457 0.996133
1.00151 1.001 0.99
0.99984 1.00372 0.9911
0.999854 1.00531 0.989712
1.00296 0.999012 0.98947
0.995291 1.00354 0.978426
1.00017 0.999221 0.991797
0.997706 0.9975 0.992004
1.01192 0.983772 0.993126
1.00008 1.00241 0.991903
1.00015 1.0025 0.991709
1.00023 1.00237 0.99164
1.0001 1.00025 0.994004
1.00009 1.00111 0.993168
1.00013 1.00162 0.992531
1.00015 1.00198 0.992193
1.00018 1.00231 0.991821
1.0001 1.00026 0.993875
1.00015 1.00193 0.99225
1.00013 1.00169 0.992541
1.0001 1.00114 0.9931
1.00021 1.00223 0.991834
1.00017 1.00207 0.99203
1.00018 1.0024 0.991726
1.00011 1.00179 0.992458
1.00009 1.00114 0.993167
1.00009 1.00114 0.993184
1.00009 1.00177 0.992539
1.0001 1.00176 0.992526
1.00008 1.00185 0.992455
1.00009 1.00215 0.992168
1.00011 1.00192 0.992311
1.00008 1.00131 0.992983
1.00008 1.00122 0.993078
1.0001 1.00031 0.993937
1.00008 1.00117 0.993042
1.0001 1.00028 0.993916
1.0001 0.99902 0.995215
1.0001 1.00026 0.993879
1.00011 0.998992 0.995217
1.00005 0.997114 0.997587
1.00012 0.99898 0.995216
1.00007 0.997086 0.997378
1.00004 0.995936 0.998529
1.00007 0.997072 0.997173
1.00001 0.995931 0.99938
1.00003 0.995942 0.99854
1.00012 0.999775 0.994449
1.00011 0.998608 0.995592
1.00011 0.998648 0.995563
1.00006 0.996885 0.997393
1.0001 0.998724 0.995506
1.00005 0.996932 0.997361
0.999999 0.995865 0.999424
1.00002 0.997023 0.997701
0.999985 0.995961 0.999003
0.999964 0.99608 0.998567
1.00179 0.996383 0.996273
1.00038 1.00102 0.992514
0.999897 0.999904 0.994329
0.998392 0.999883 0.994973
0.999834 0.99957 0.997149
1.00057 1.00117 0.991759
1.0006 1.00229 0.992401
0.997345 1.00216 0.992309
0.994963 1.00309 0.975675
0.996836 0.998141 0.988018
1.00368 0.99018 0.997002
1.00009 1.00056 0.993614
1.00012 0.999755 0.994454
1.00012 0.999837 0.994381
1.00009 1.00069 0.993552
1.00009 1.00132 0.993025
1.0001 1.00108 0.993218
1.00007 1.00071 0.993641
1.00008 1.00055 0.993708
1.00118 1.00069 0.991472
1.00151 0.997561 0.994015
1.0013 0.998291 0.993242
1.00014 1.00226 0.992015
1.00033 1.00196 0.991797
1.00018 1.00263 0.991471
1.00014 1.00301 0.991256
1.00018 1.0022 0.991899
1.00008 1.00115 0.993161
1.00008 1.00223 0.992183
1.00008 1.00085 0.993567
1.00003 1.0016 0.992762
1.00139 0.999141 0.9925
1.00005 1.00179 0.992545
1.00006 1.00203 0.992331
1.00192 0.996316 0.994309
1.00085 1.00093 0.991617
1.00019 1.00268 0.991451
1.0001 1.00293 0.991347
1.00015 1.00354 0.990652
1.00254 0.995809 0.993608
1.00123 1.00028 0.99204
1.00033 1.00246 0.990917
1.00022 1.00381 0.990302
1.00005 1.00233 0.991994
1.00004 1.00277 0.99165
1.00006 1.00387 0.990612
0.998266 0.996388 0.990873
0.995071 1.00286 0.980719
1.00005 1.00262 0.991785
1.00006 1.00284 0.991435
1.00239 0.998188 0.991302
1.00106 1.00151 0.990723
0.999966 1.00424 0.990255
0.995022 1.00309 0.974997
0.999925 0.999801 0.996209
1.00366 0.997115 0.990083
0.997512 0.997698 0.9881
1.00479 0.985326 1.00011
0.999982 1.00282 0.991716
0.998125 0.996995 0.990866
1.00561 0.98987 0.997147
1.00157 1.00104 0.98995
0.999844 1.00369 0.991136
0.999766 1.00499 0.990009
1.00279 0.999532 0.989312
0.994873 1.00375 0.975336
1.00016 0.999214 0.996789
0.997873 0.996932 0.988178
1.01127 0.981966 0.995124
1.00005 1.00276 0.991586
1.00628 0.993942 0.993336
1.01486 0.990217 0.986108
0.999756 1.00475 0.989989
0.999608 1.00422 0.991201
1.00145 1.00023 0.994859
0.999961 0.996695 1.00057
0.995046 1.00399 0.976655
0.99896 0.996877 0.986623
1.01527 0.988805 0.984773
1.00015 1.00252 0.991712
1.00023 1.00239 0.991622
1.00014 1.00252 0.991674
1.0001 1.00026 0.993875
1.0001 1.00113 0.993163
1.00012 1.00168 0.992621
1.00015 1.0019 0.992237
1.00021 1.00222 0.991801
1.00009 1.00114 0.993166
1.00017 1.00206 0.992076
1.00012 1.00179 0.99246
1.00018 1.00241 0.991706
1.00013 1.00261 0.991577
1.00014 1.0023 0.991906
1.00011 1.00178 0.992487
1.00009 1.00114 0.993183
1.0001 1.00176 0.992466
1.0001 1.00176 0.992521
1.00009 1.00185 0.992451
1.00009 1.00211 0.99218
1.00007 1.00199 0.992325
1.00011 1.00222 0.992062
1.00007 1.00231 0.991964
1.00014 1.00205 0.992136
1.00013 1.00158 0.992545
1.00014 1.00166 0.992467
1.00011 1.00192 0.992319
1.0001 1.00133 0.992929
1.00008 1.00132 0.99298
1.0001 1.00037 0.993876
1.00008 1.00123 0.993076
1.0001 1.00032 0.993935
1.00008 0.999062 0.995201
1.0001 1.00028 0.993857
1.0001 0.999018 0.995214
1.00004 0.997153 0.997584
1.00011 0.99899 0.995217
1.00006 0.997109 0.997374
1.00003 0.99593 0.998525
1.00007 0.99708 0.997165
1.00002 0.995935 0.999378
1.00001 0.995929 0.999379
1.0001 0.999853 0.994555
1.00011 0.998628 0.995584
1.00011 0.999771 0.994451
1.00006 0.996872 0.997402
1.00011 0.998611 0.99559
1.00011 0.998652 0.995561
1.00006 0.996889 0.997392
1.00001 0.99583 0.99943
1.00004 0.996932 0.997753
1.00001 0.995871 0.999024
0.999997 0.995971 0.998608
0.997393 0.997187 0.991585
1.00497 0.992275 0.994254
0.998427 1.00019 0.997011
0.999636 0.99971 0.997117
1.00076 1.00123 0.991442
0.997236 1.00248 0.997763
1.00073 1.00185 0.992337
0.995102 1.00291 0.979402
0.99685 0.998247 0.992295
1.00403 0.989299 0.997371
0.999039 1.00244 0.99497
0.995127 1.00355 0.979483
0.997626 0.997954 0.991662
1.00969 0.986952 0.993804
1.00006 1.00143 0.992855
1.00009 1.00055 0.993678
1.00012 0.999761 0.994451
1.00009 1.00069 0.993524
1.00009 1.00125 0.993071
1.00008 1.00138 0.992985
1.00009 1.00104 0.993245
1.00007 1.00098 0.993359
1.00007 1.00072 0.993573
1.00008 1.00057 0.993659
1.00139 0.999151 0.992449
1.00189 0.996396 0.994282
1.00075 1.00069 0.99176
1.00022 1.00276 0.991285
1.00015 1.00346 0.990688
1.00009 1.00294 0.991368
1.00005 1.00206 0.99237
1.00006 1.00176 0.992576
1.00229 0.995928 0.993363
1.00004 1.00237 0.991957
1.00004 1.00279 0.991582
1.00121 0.999994 0.992191
1.00037 1.0026 0.990914
1.00022 1.00386 0.990171
1.00006 1.00391 0.990524
1.00311 0.996082 0.992155
0.999993 1.00411 0.990375
1.00012 1.00441 0.989779
1.00004 1.0024 0.991933
1.00003 1.003 0.991429
1.00004 1.00357 0.990907
1.00597 0.996413 0.989481
0.998335 0.997161 0.987554
0.994942 1.00174 0.979093
0.999996 1.00279 0.991709
0.999855 1.00365 0.991173
1.00165 1.00105 0.9899
0.99967 1.0047 0.990307
0.997811 0.997441 0.987672
0.994895 1.00296 0.982543
1.00041 0.998446 0.991996
1.00262 0.999986 0.989171
0.997823 0.996306 0.99288
1.00606 0.990845 0.996805
1.00963 0.985563 0.994477
1.00004 1.00286 0.991587
1.00589 0.99464 0.992533
1.01483 0.990012 0.986189
0.99976 1.00467 0.990006
0.999532 1.00423 0.99118
1.00199 1.00182 0.990368
1.00063 0.997807 0.993695
0.995297 1.00407 0.97738
0.999642 0.996991 0.990902
1.01359 0.988701 0.986119
0.999907 1.00275 0.991796
1.01459 0.996867 0.981888
1.01916 0.990955 0.978793
0.998443 1.00396 0.99344
0.998064 0.999675 1.00192
0.99557 1.00275 0.978805
1.00349 0.995301 0.987422
1.01469 0.991831 0.981347
1.00022 1.00241 0.991604
1.00015 1.00251 0.991665
1.0002 1.00258 0.991685
1.00009 1.00114 0.993165
1.00012 1.00179 0.992462
1.00016 1.00204 0.992121
1.00019 1.00243 0.991685
1.00011 1.00178 0.992486
1.00015 1.0023 0.991906
1.00012 1.00261 0.991586
0.999943 1.00279 0.991792
1.00015 1.00272 0.991455
1.00014 1.00227 0.991981
1.00011 1.00176 0.992517
1.00009 1.00186 0.992446
1.00009 1.00207 0.992191
1.00012 1.00219 0.992084
1.00007 1.002 0.99233
1.00008 1.00229 0.991989
1.00009 1.00239 0.991905
1.00006 1.00258 0.991767
1.00013 1.00231 0.991957
1.00014 1.00206 0.992132
1.00016 1.00183 0.992259
1.0002 1.00161 0.992462
1.00016 1.00129 0.992929
1.00012 1.00153 0.992637
1.00015 1.00166 0.992512
1.00012 1.0012 0.992946
1.00012 1.00191 0.992326
1.0001 1.00133 0.992933
1.0001 1.00043 0.993822
1.00008 1.00133 0.992977
1.0001 1.00038 0.993873
1.00007 0.999114 0.995177
1.0001 1.00032 0.993933
1.00008 0.999062 0.995199
1.00001 0.997211 0.997576
1.0001 0.999017 0.995214
1.00004 0.99715 0.997369
1.00001 0.995974 0.998523
1.00007 0.997103 0.997161
1.00002 0.995944 0.998951
1.00001 0.995935 0.999378
1.00009 1.00003 0.994298
1.0001 0.998681 0.995551
1.0001 0.999857 0.994419
1.00006 0.996886 0.997397
1.00011 0.998624 0.995585
1.00011 0.999767 0.994453
1.00001 0.995821 0.999431
1.00006 0.996872 0.997402
1.00011 0.998614 0.995588
1.00006 0.996893 0.997391
1.00001 0.995831 0.999429
0.999997 0.995872 0.999421
1.00568 0.995308 0.990767
0.997864 0.997526 0.989311
1.01349 0.991886 0.986215
1.00461 0.991685 0.995105
0.997109 1.00209 0.993059
1.00088 1.0014 0.992273
0.995075 1.00311 0.983389
0.996734 0.998503 0.988373
1.00432 0.988677 0.997739
0.999324 1.00189 0.993326
0.994806 1.0035 0.978217
0.997933 0.997197 0.988023
1.01019 0.984999 0.995108
1.00011 0.999642 0.996403
0.994801 1.00367 0.9768
1.00006 0.995553 0.99162
1.01484 0.990723 0.983857
1.00006 1.00195 0.992418
1.00007 1.0014 0.99293
1.00009 1.00054 0.993742
1.00009 1.00117 0.993117
1.00009 1.00168 0.992587
1.00008 1.00134 0.993036
1.00008 1.00101 0.993271
1.00008 1.00113 0.993275
1.00007 1.00096 0.993426
1.00007 1.00073 0.993505
1.00207 0.996123 0.993117
1.00119 0.999616 0.992343
1.00042 1.00275 0.990911
1.00022 1.00392 0.990039
1.00006 1.00395 0.990436
1.00003 1.00281 0.991515
1.00004 1.00241 0.991919
1.00004 1.00244 0.991926
1.00269 0.996309 0.992017
1.00002 1.003 0.991476
1.00005 1.00361 0.990881
1.00003 1.00417 0.990406
1.00015 1.00439 0.989781
1.00209 0.998973 0.991349
0.999532 1.00521 0.990241
1.00013 1.00422 0.989986
1.00004 1.00287 0.991506
1.00008 1.00354 0.990786
1.01401 0.999879 0.979742
1.00594 0.996354 0.989558
0.998291 0.996134 0.991084
1.00002 1.00296 0.991587
0.999451 1.00426 0.991159
0.99977 1.0045 0.990023
1.00597 0.994987 0.991438
0.994825 1.00403 0.975715
1.0003 0.996879 0.999843
1.00259 1.0035 0.985871
0.999239 0.997832 0.986799
1.01476 0.98981 0.986269
1.01356 0.989391 0.985083
0.999914 1.00279 0.991797
1.01451 0.997476 0.980706
1.01924 0.990821 0.978441
0.998705 1.00387 0.992833
0.998735 0.999632 0.999141
0.996079 1.00331 0.97612
1.01555 0.992799 0.980631
1.00178 0.996619 0.986944
0.99983 1.00208 0.992487
1.01902 0.994907 0.974576
1.02066 0.99013 0.976906
1.01536 0.987207 0.986292
0.997424 1.00137 0.997621
0.995052 1.00046 0.983735
1.0031 0.998885 0.982203
1.00017 1.00251 0.991657
1.00015 1.00261 0.991653
0.999858 1.00289 0.991983
1.00011 1.00178 0.992485
1.00016 1.0023 0.991907
1.00011 1.00264 0.991594
1.00014 1.00226 0.991994
1.00014 1.00278 0.991439
0.999993 1.00268 0.991787
1.00001 1.00305 0.991478
1.00011 1.00275 0.991517
1.00013 1.00216 0.992105
1.00007 1.002 0.992335
1.00008 1.00227 0.992014
1.00008 1.00254 0.991774
1.00008 1.00238 0.991895
1.00003 1.00275 0.991694
1.00009 1.00218 0.992119
1.00011 1.00252 0.991649
1.00014 1.00207 0.992128
1.00018 1.00186 0.992265
1.00025 1.00191 0.991973
1.00014 1.00161 0.992576
1.00013 1.00123 0.992993
1.00018 1.00161 0.992457
1.00014 1.00098 0.993204
1.00016 1.0013 0.992892
1.00011 1.00149 0.99273
1.00016 1.00165 0.992557
1.00012 1.0012 0.992976
1.00011 1.0004 0.993828
1.0001 1.00133 0.992937
1.0001 1.00042 0.993823
1.00005 0.99917 0.995152
1.0001 1.00038 0.99387
1.00007 0.999116 0.995175
0.999984 0.997265 0.997568
1.00008 0.999062 0.995198
1.00002 0.99721 0.997361
0.99998 0.996039 0.998517
1.00005 0.997145 0.997156
1 0.995988 0.99895
1 0.995961 0.999377
1.00008 1.0002 0.993953
1.00008 0.998802 0.995298
1.00009 1.00003 0.994294
1.00005 0.996936 0.997369
1.0001 0.998687 0.995463
1.00009 0.99986 0.994283
1.00001 0.995829 0.999429
1.00006 0.996883 0.997397
1.00011 0.99862 0.995587
1.00001 0.995821 0.999431
1.00006 0.996873 0.997402
1.00001 0.995832 0.999428
1.01367 0.997755 0.980938
1.00549 0.995795 0.99068
0.997945 0.997511 0.988006
1.00013 1.00119 0.993014
1.0177 0.991583 0.979747
1.01367 0.991893 0.986345
1.00496 0.99173 0.994427
0.999318 1.00134 0.991376
0.994895 1.00379 0.978943
0.998177 0.996513 0.992424
1.00969 0.988568 0.993853
1.00028 0.999394 0.991719
0.99525 1.00291 0.97845
1.00073 0.994814 0.988812
1.01401 0.990727 0.985593
0.999836 0.997886 0.992981
0.994859 1.00204 0.973805
1.00138 0.998504 0.982451
1.01407 0.995524 0.978698
1.00011 1.00227 0.991959
1.00007 1.00199 0.992361
1.00008 1.00137 0.993006
1.00011 1.00175 0.992482
1.00009 1.00165 0.992665
1.00008 1.0013 0.993087
1.00008 1.00111 0.9933
1.00007 1.00094 0.993494
1.00217 0.996582 0.991878
1.00007 1.00426 0.990437
1.00004 1.00248 0.991918
1.00018 1.00437 0.989782
1.00005 1.00366 0.990854
1.00001 1.00299 0.991524
1.00005 1.00288 0.991507
1.0018 0.999079 0.991221
1.00009 1.00352 0.990779
1.00015 1.0042 0.989988
0.999579 1.00519 0.990254
1.0001 1.00279 0.991424
1.00059 1.00174 0.991942
0.99964 1.00507 0.990354
1.00017 1.0041 0.990165
1.00011 1.0034 0.990849
1.01858 0.997301 0.973733
1.01401 0.999439 0.979744
1.00591 0.99637 0.989636
0.999925 1.0028 0.991797
0.998967 1.00376 0.992224
1.01445 0.998039 0.979523
0.994881 1.0037 0.977408
0.99951 1.00052 0.993703
1.00157 0.99497 0.986513
1.01928 0.990629 0.97809
1.01645 0.993648 0.979915
0.999904 1.00227 0.992449
1.01892 0.994903 0.974492
1.02063 0.990557 0.976429
0.997453 1.00133 0.9981
1.01447 0.987932 0.987799
0.995415 0.998677 0.983992
1.00178 0.99836 0.982684
0.999654 1.00084 0.994137
1.02048 0.992323 0.974656
1.01932 0.989893 0.978816
1.00999 0.985328 0.995022
1.00121 0.997342 0.984411
0.998205 0.997149 1.00387
0.996415 0.996815 0.982124
1.0001 1.00264 0.991621
0.999906 1.00279 0.99188
0.999468 1.00367 0.991411
1.00014 1.00225 0.992007
1.00013 1.00283 0.991424
1.00005 1.00252 0.991783
1.0001 1.00274 0.991523
0.999998 1.00301 0.991529
0.999938 1.00355 0.991168
1.0001 1.00251 0.991781
1.00008 1.00237 0.991886
1.00004 1.00277 0.991657
0.999892 1.00327 0.99131
1.00005 1.00205 0.992281
1.00009 1.00252 0.991718
1.00024 1.00265 0.991361
1.00028 1.00193 0.991992
1.00021 1.00188 0.992271
1.00026 1.00195 0.991943
1.00014 1.00151 0.992768
1.00004 1.00136 0.992985
1.00014 1.00156 0.992626
1.00011 1.00092 0.993336
1.00013 1.00124 0.992986
1.00016 1.00162 0.992452
1.00011 1.00032 0.993902
1.00014 1.00098 0.993175
1.00016 1.00131 0.992856
1.00012 1.0012 0.993005
1.00011 1.00039 0.993832
1.00004 0.999197 0.995146
1.0001 1.00042 0.993824
1.00005 0.999171 0.995151
0.999961 0.997336 0.997133
1.00007 0.999119 0.995173
0.999993 0.99727 0.997139
0.99993 0.996114 0.999372
1.00002 0.997205 0.997147
0.999974 0.996052 0.998946
0.999984 0.996008 0.999375
1.0001 1.0003 0.993817
1.00006 0.998963 0.995163
1.00009 1.00021 0.994029
1.00003 0.997023 0.997315
1.00008 0.998815 0.995283
1.00009 1.00003 0.99429
0.999996 0.995867 0.999421
1.00005 0.996928 0.997372
1.00009 0.998693 0.995375
1.00001 0.995831 0.99943
1.00006 0.99688 0.997398
1.00001 0.99582 0.999431
1.01809 0.995778 0.975265
1.01374 0.997563 0.980935
1.00574 0.99547 0.990415
1.00013 1.00118 0.993056
1.00017 1.0011 0.992949
1.00014 1.00169 0.99254
1.01904 0.992148 0.977288
1.01779 0.992483 0.979369
1.01384 0.991881 0.986474
1.00024 0.999509 0.996555
0.994853 1.00378 0.977424
0.999313 0.998048 0.986356
1.01466 0.991645 0.985332
0.999731 0.998649 0.997853
0.995886 1.0017 0.978732
1.00254 0.99785 0.984962
1.01485 0.996132 0.978429
0.998325 0.995759 1.00188
0.994883 0.998227 0.982937
1.00418 1.0012 0.977863
1.01444 0.99102 0.984054
1.00015 1.00227 0.991894
1.00011 1.00227 0.991968
1.00007 1.00203 0.992303
1.00011 1.00177 0.992471
1.0001 1.00162 0.992742
1.00009 1.00109 0.993324
1.00157 0.999157 0.991092
0.99963 1.00517 0.990267
1.00005 1.00288 0.991508
1.00017 1.00418 0.989991
1.00009 1.0035 0.990771
1.0001 1.00289 0.991374
1.00011 1.0034 0.990822
1.00066 1.001 0.991793
1.00017 1.00407 0.990131
0.999623 1.00508 0.990185
1.00011 1.00329 0.990875
0.999634 1.00403 0.991979
0.999896 1.00465 0.989685
1.00013 1.00388 0.990328
1.02025 0.993984 0.973592
1.01855 0.996627 0.973665
1.01398 0.99895 0.979746
0.999976 1.00245 0.992413
0.997468 1.00076 0.99906
1.0188 0.994899 0.974408
0.995508 0.999443 0.991491
1.00492 0.997416 0.983079
1.0206 0.99105 0.975951
1.01519 0.988378 0.987613
0.999813 1.00088 0.993866
1.02039 0.992653 0.974465
1.01943 0.990735 0.978452
0.997938 0.996844 0.998685
1.0105 0.98338 0.99632
1.00106 0.997586 0.988107
0.994696 0.997141 0.986101
1.00042 0.999834 0.996454
1.01872 0.995289 0.974718
1.01481 0.99033 0.985601
1.00419 0.988671 0.997479
0.999896 0.995453 0.992064
0.995102 0.998615 0.983906
0.998228 0.994518 0.999261
0.999966 1.00269 0.991778
0.999545 1.00372 0.991388
0.999188 1.00423 0.991489
1.0001 1.00273 0.99153
0.99997 1.00299 0.991581
0.999937 1.00351 0.991181
0.999703 1.00472 0.990454
1.00005 1.00279 0.99162
0.999948 1.00342 0.991226
1.00006 1.0037 0.990683
1.00006 1.00251 0.991786
1.00024 1.00268 0.99135
1.00035 1.00266 0.991268
1.00034 1.00212 0.991749
1.00017 1.00158 0.992481
1.00028 1.00196 0.991932
1.00027 1.002 0.991914
1.00012 1.00126 0.993057
1.00012 1.00145 0.9928
1.00003 1.00103 0.993321
1.00005 1.00134 0.993035
1.00014 1.00151 0.992676
1.00008 1.0003 0.993983
1.00011 1.0009 0.993338
1.00013 1.00125 0.992978
1.00003 0.999198 0.995173
1.00012 1.00031 0.993907
1.00015 1.00097 0.993147
1.00011 1.00038 0.993835
1.00004 0.999197 0.995147
0.999931 0.997399 0.997131
1.00005 0.999173 0.99515
0.999963 0.99734 0.997132
0.9999 0.996228 0.99937
0.999996 0.997273 0.997138
0.999939 0.996129 0.998942
0.999957 0.996071 0.999372
1.00012 1.00031 0.993884
1.00005 0.999079 0.995235
1.0001 1.00031 0.993873
1.00001 0.997136 0.997247
1.00007 0.998966 0.995243
1.0001 1.00021 0.994105
0.999977 0.995935 0.999408
1.00003 0.997013 0.997318
1.00008 0.998827 0.995268
0.999998 0.995864 0.999424
1.00005 0.99692 0.997374
1.00001 0.995833 0.99943
1.01956 0.993151 0.975142
1.01809 0.996031 0.975194
1.01382 0.997511 0.980933
1.00018 1.001 0.993038
1.00021 1.00124 0.992843
1.00012 1.00117 0.993098
1.00017 1.0011 0.992957
1.00015 1.00171 0.992481
1.00019 1.00156 0.992553
1.00017 1.00194 0.992198
1.01778 0.992892 0.979119
1.01899 0.992665 0.976969
1.01788 0.993383 0.97899
1.01565 0.996671 0.978161
0.999927 0.999171 0.992785
0.994894 1.00194 0.982668
1.00217 0.997028 0.982886
0.998516 0.998142 0.998264
0.9964 0.997927 0.97994
1.00259 0.999945 0.979263
1.01305 0.990629 0.984966
0.997188 0.996757 1.00181
0.996829 0.996794 0.979482
1.00449 0.996693 0.984885
1.01085 0.986857 0.991701
1.00013 1.00243 0.991787
1.00014 1.00231 0.991883
1.0001 1.00227 0.991977
1.00011 1.00179 0.992459
1.00072 1.00028 0.991643
0.999618 1.00507 0.990016
1.00009 1.00299 0.991323
1.00011 1.00339 0.990795
1.00017 1.00403 0.990097
1.00009 1.00327 0.990986
1.00015 1.00388 0.990326
0.999176 1.00337 0.993552
0.999914 1.00466 0.989674
1.00012 1.00376 0.990535
0.998228 1.0053 0.994995
1.00007 1.00475 0.989353
1.01848 0.997971 0.97309
1.02018 0.993593 0.973816
1.01853 0.995986 0.973597
0.999969 1.00092 0.993593
0.997596 0.996881 1.00339
1.02028 0.992994 0.974274
0.996246 0.996944 0.981597
1.0016 0.996489 0.985021
1.01953 0.991588 0.978088
1.0099 0.986627 0.995212
1.0002 0.999835 0.996183
1.01872 0.995571 0.974634
1.015 0.990342 0.985775
0.998374 0.99418 1.00546
1.00435 0.987776 0.998207
1.00036 0.994816 0.989463
0.995393 0.999147 0.982617
1.00014 0.999218 0.997614
1.01411 0.997292 0.98074
1.00569 0.990937 0.994192
0.997462 0.998111 0.991778
0.994744 1.00288 0.979282
0.998758 0.994664 0.996884
0.999624 1.00378 0.991365
0.999262 1.00419 0.991434
0.999024 1.00513 0.990958
0.999937 1.00347 0.991193
0.9997 1.00455 0.990549
0.999874 1.00516 0.989685
0.999999 1.00357 0.991141
1.00008 1.00383 0.990583
1.00034 1.00331 0.99047
1.00024 1.00271 0.991339
1.00036 1.00265 0.991209
1.00041 1.00236 0.991354
1.00053 1.00159 0.991831
1.00033 1.00171 0.992193
1.00034 1.00213 0.991701
1.00013 1.00125 0.992872
1.00017 1.00156 0.992529
1.00027 1.002 0.991873
1.00008 1.00103 0.993298
1.00011 1.00127 0.993021
1.0001 1.00139 0.992832
1.00003 1.00042 0.993974
1.00003 1.00101 0.99335
1.00006 1.00132 0.993086
0.999997 0.999221 0.995209
1.00009 1.00029 0.993986
1.00012 1.00089 0.99334
0.999903 0.997472 0.99714
1.00003 0.999197 0.995176
1.00012 1.0003 0.993911
1.00004 0.999197 0.995148
0.999931 0.997402 0.997132
0.999864 0.996318 0.999369
0.999964 0.997343 0.997131
0.999896 0.996227 0.999369
0.999926 0.996145 0.99937
1.00018 1.00096 0.993134
1.00013 1.00033 0.993851
1.00005 0.999163 0.995164
1.00012 1.00032 0.99388
0.999986 0.997258 0.997177
1.00005 0.999082 0.995236
1.0001 1.00032 0.993928
0.999952 0.996028 0.999392
1.00001 0.997126 0.997251
1.00007 0.998969 0.995324
0.999981 0.995929 0.999412
1.00003 0.997002 0.997322
1 0.995862 0.999427
1.01814 0.99649 0.974405
1.01963 0.993493 0.974846
1.01809 0.996282 0.975124
1.00017 1.00101 0.993068
1.00021 1.00124 0.992808
1.0002 1.0012 0.992838
1.00021 1.00132 0.99269
1.00023 1.00139 0.992639
1.00016 1.0011 0.992964
1.00015 1.00172 0.992421
1.00019 1.00156 0.992555
1.00018 1.00189 0.992221
1.00019 1.00182 0.992311
1.01342 0.993559 0.985055
1.01776 0.992905 0.978734
1.01897 0.993186 0.976651
1.01304 0.991241 0.983839
1.00582 0.999502 0.979289
0.998041 0.998469 0.99597
0.99477 0.996896 0.984328
0.996645 0.998118 0.997746
0.99472 0.997677 0.984153
1.00268 0.997451 0.984336
1.01035 0.985052 0.993657
0.995743 0.999794 0.996837
0.994767 0.999268 0.982853
0.999448 0.997396 0.986304
1.00517 0.987339 0.997168
1.00004 1.0021 0.992279
1.00013 1.00236 0.991876
1.00014 1.00236 0.991872
0.998743 1.00271 0.995129
0.999923 1.00467 0.989663
1.00008 1.00325 0.991096
1.00017 1.00388 0.990323
1.00008 1.00383 0.990571
1.00003 1.00475 0.98937
0.998229 1.00518 0.994978
0.999826 1.00431 0.990214
0.998784 1.00505 0.993887
1.01401 1.00046 0.979369
1.01844 0.99727 0.973073
1.02014 0.993198 0.974041
0.999951 0.999833 0.995926
0.998364 0.994183 0.999136
1.01872 0.995853 0.974549
0.994963 0.998562 0.978565
0.999177 0.998429 0.986195
1.01518 0.990273 0.985948
1.00448 0.987114 0.998934
1.00021 0.999181 0.997619
1.01417 0.997099 0.980722
1.00531 0.990439 0.995047
0.998516 0.994331 1.00031
0.998036 0.997206 0.987995
0.996028 1.00317 0.973671
1.00014 0.999376 0.996591
1.00575 0.994938 0.990984
0.997051 0.998021 0.987914
0.994756 1.00434 0.975972
0.999912 0.995945 0.997829
0.999331 1.00414 0.99138
0.999051 1.00511 0.99098
0.999689 1.00549 0.990025
0.999702 1.00439 0.990643
0.999834 1.00507 0.989785
1.00047 1.00355 0.990022
1.0001 1.00396 0.990482
1.00035 1.00326 0.990509
1.00063 1.0019 0.991417
1.00036 1.00264 0.99115
1.0004 1.00226 0.991402
1.00067 1.00107 0.992067
1.00077 1.0006 0.992307
1.00046 1.00147 0.992049
1.00053 1.00152 0.991856
1.00025 1.00138 0.992613
1.00031 1.00175 0.992119
1.00033 1.00214 0.991652
1.00012 1.00094 0.99328
1.00013 1.00123 0.992923
1.00018 1.00155 0.992576
1 1.00055 0.99389
1.00007 1.00103 0.99329
1.0001 1.00128 0.992985
0.999948 0.999327 0.995199
1.00003 1.00041 0.993974
1.00004 1.001 0.993379
0.999857 0.997513 0.997582
0.999996 0.999224 0.99521
1.00009 1.00028 0.993989
0.999837 0.996398 0.998515
0.999896 0.997464 0.997356
1.00002 0.999197 0.995178
0.999932 0.997405 0.997132
0.999859 0.996311 0.999369
0.999891 0.996225 0.999369
1.00017 1.00095 0.993125
1.00013 1.00035 0.993835
1.00018 1.00097 0.993114
1.00004 0.999218 0.995125
1.00013 1.00033 0.993849
0.999958 0.997365 0.997123
1.00005 0.999164 0.995164
1.00012 1.00033 0.993877
0.999921 0.996138 0.999375
0.999984 0.99725 0.99718
1.00005 0.999085 0.995237
0.999956 0.99602 0.999396
1.00001 0.997115 0.997254
0.999984 0.995923 0.999416
1.01362 1.00014 0.978257
1.01805 0.99647 0.974339
1.01968 0.993845 0.974549
1.00019 1.00119 0.992916
1.00017 1.00102 0.993099
1.00021 1.00124 0.992773
1.0002 1.00134 0.992731
1.0002 1.0012 0.992873
1.00024 1.00136 0.992642
1.00023 1.00138 0.992619
1.00022 1.00152 0.992483
1.00019 1.00155 0.992557
1.00018 1.00184 0.992244
1.00019 1.0018 0.992303
1.00024 1.00178 0.992347
1.00492 0.991648 0.996148
1.01341 0.993468 0.985188
1.01775 0.992928 0.97835
1.00891 0.988841 0.993139
1.00206 0.995895 0.983776
0.996773 0.996745 0.979493
0.995761 0.998299 1.00581
0.995728 0.999792 1.00314
1.0045 0.988211 0.997676
0.995689 0.9986 0.978874
0.999454 0.997249 0.990441
0.996209 1.00077 1.00081
0.994882 1.00339 0.978524
0.997022 0.998224 0.99226
0.999915 1.00185 0.992794
1.00009 1.00202 0.992288
1.00013 1.00229 0.991964
0.998237 1.00509 0.994963
1 1.00473 0.989388
1.00004 1.0039 0.990607
0.999856 1.00436 0.990286
0.998891 1.00493 0.993764
0.999398 1.00262 0.993666
1.00629 0.995462 0.992284
1.01375 1.0007 0.977739
1.01839 0.996607 0.973056
1.00031 0.999143 0.997624
0.998561 0.995354 1.00225
1.01426 0.997028 0.980705
0.995065 1.00186 0.983097
0.998347 0.996157 0.992688
1.00559 0.99068 0.994551
1.00028 0.999378 0.99669
1.00561 0.995431 0.990881
0.997 0.99803 0.992249
1.00033 0.996288 0.99325
0.995379 1.00362 0.977615
1.00227 0.998721 0.991293
0.997517 0.996625 0.991766
0.995113 1.00429 0.978834
1.00024 0.997638 0.992504
0.999072 1.00509 0.991001
0.999488 1.00552 0.990009
1.00052 1.00261 0.990906
0.999789 1.00498 0.989885
1.00051 1.00331 0.990074
1.00122 1.00004 0.992154
1.00037 1.00318 0.990547
1.00062 1.00169 0.991503
1.00094 0.999657 0.992951
1.00039 1.00216 0.99145
1.00068 1.00097 0.992098
1.00093 0.999611 0.992946
1.00081 0.999909 0.992908
1.00067 1.00081 0.992324
1.00075 1.00055 0.992358
1.00036 1.00123 0.992415
1.00045 1.00146 0.992108
1.00054 1.00144 0.991881
1.00016 1.00099 0.993136
1.00022 1.00139 0.992606
1.00028 1.00179 0.992045
1.00002 1.0006 0.993817
1.00012 1.00094 0.993276
1.00013 1.00122 0.992974
0.999903 0.999492 0.995123
1.00001 1.00054 0.993893
1.00005 1.00103 0.993282
0.999816 0.997604 0.997154
0.999949 0.999335 0.995197
1.00004 1.0004 0.993973
0.999775 0.996454 0.999376
0.99986 0.997513 0.997159
0.999995 0.999228 0.995211
0.999822 0.996401 0.99937
0.999899 0.997458 0.997144
0.999853 0.996306 0.999369
1.00015 1.00099 0.993244
1.00017 1.00096 0.993146
1.00011 1.00039 0.993822
1.00003 0.999268 0.995102
1.00013 1.00035 0.993833
1.00017 1.00098 0.993095
0.99993 0.997445 0.997097
1.00004 0.999214 0.995125
1.00013 1.00034 0.993846
0.999888 0.996246 0.999364
0.999956 0.997358 0.997125
1.00005 0.999166 0.995164
0.999926 0.99613 0.99938
0.999981 0.997242 0.997183
0.99996 0.996012 0.999401
1.00606 0.994057 0.993469
1.01362 1.00021 0.978242
1.01796 0.99645 0.974273
1.00019 1.0012 0.992886
1.00017 1.0012 0.992945
1.00023 1.00128 0.992725
1.0002 1.00135 0.992773
1.0002 1.00121 0.992908
1.00024 1.00133 0.992644
1.00022 1.00151 0.992504
1.00023 1.00137 0.992637
1.00018 1.00168 0.992438
1.00019 1.00149 0.992664
1.00019 1.00178 0.992295
1.00021 1.00175 0.992332
0.996834 0.996968 0.992951
1.00452 0.99152 0.997131
1.01337 0.993384 0.98532
1.00383 0.989151 0.998183
0.999208 0.998023 0.987123
0.995474 0.99918 0.984972
0.995685 0.999955 0.997134
0.996347 1.00114 0.995051
0.997426 0.997706 0.988353
0.995463 1.0027 0.980919
0.997511 1.00106 0.992139
0.99525 1.00318 0.977988
0.999672 1.00317 0.99242
0.999949 1.00172 0.992824
1.00014 1.00193 0.992298
0.998971 1.00481 0.993643
0.999878 1.00442 0.990358
0.999854 1.00243 0.993723
1.00031 1.00089 0.993954
0.998586 0.995813 0.990912
1.00614 0.995858 0.990948
1.01347 1.00084 0.97611
1.00039 0.99937 0.996783
0.999472 0.995524 1.0016
1.00584 0.995034 0.99067
0.994864 1.0043 0.976667
0.996919 0.998976 0.988078
1.00186 0.998806 0.992572
0.997898 0.997318 0.989519
0.994814 1.00386 0.977524
1.0002 0.998499 0.997327
1.00302 0.997299 0.990318
0.994997 1.00314 0.975408
1.0001 0.999708 0.996807
0.999278 1.00556 0.989993
1.00043 1.00273 0.990859
1.00177 0.997627 0.993294
1.00055 1.00306 0.990126
1.00122 0.999693 0.992202
1.00154 0.996919 0.994523
1.00061 1.00149 0.991589
1.00095 0.999506 0.992976
1.00118 0.998102 0.993923
1.00068 1.00086 0.992129
1.00093 0.999603 0.99294
1.00094 0.999125 0.993374
1.00081 0.999697 0.993132
1.00081 0.999856 0.992961
1.00072 1.0002 0.99281
1.00058 1.0008 0.992521
1.00065 1.00083 0.992335
1.00074 1.00051 0.992409
1.00027 1.00096 0.992858
1.00037 1.00124 0.992475
1.00044 1.00144 0.992168
1.00004 1.00067 0.993706
1.00017 1.001 0.99313
1.00019 1.00139 0.992598
0.999878 0.999653 0.99501
1.00003 1.00058 0.99382
1.00013 1.00095 0.993273
0.999764 0.997748 0.997112
0.999905 0.9995 0.995123
1.00002 1.00052 0.993895
0.999733 0.996603 0.999374
0.999816 0.997616 0.997152
0.999951 0.999344 0.995195
0.99978 0.996464 0.998949
0.999861 0.997523 0.997158
0.999813 0.996383 0.999372
1.00012 1.00103 0.993221
1.00015 1.00099 0.993183
1.00009 1.00048 0.993798
1.00016 1.00097 0.993167
1.00011 1.0004 0.993821
1.00001 0.999333 0.99508
0.9999 0.997513 0.997088
1.00003 0.999261 0.995103
1.00013 1.00036 0.993831
0.999852 0.996337 0.999359
0.999929 0.997438 0.997098
1.00004 0.999209 0.995126
0.999892 0.996243 0.999367
0.999954 0.997352 0.997126
0.99993 0.996122 0.999385
0.998099 0.996793 0.988196
1.00582 0.994217 0.99403
1.01361 1.00027 0.978226
1.0002 1.0012 0.992856
1.00022 1.00129 0.992726
1.00017 1.0012 0.992962
1.00013 1.00124 0.992977
1.0002 1.00134 0.992733
1.00022 1.0015 0.992525
1.00023 1.00136 0.992654
1.00018 1.00166 0.992436
1.00012 1.00149 0.992622
1.00013 1.00179 0.992407
1.00003 1.00176 0.992794
1.00018 1.00157 0.992571
1.00019 1.00173 0.992316
0.99581 1.0022 0.974635
0.997107 0.997948 0.99089
1.00469 0.991982 0.996503
0.997641 0.997018 0.992739
0.994944 1.00365 0.972982
0.996512 1.00092 1.00051
0.99819 1.001 0.994712
0.995294 1.00244 0.978975
1 0.998939 0.993464
1.00019 1.00397 0.990317
0.999595 1.00317 0.992323
0.999984 1.00158 0.992854
1.00034 1.00223 0.993774
1.00026 0.999666 0.994386
0.995288 1.00038 0.97982
0.998593 0.996252 0.987897
1.00598 0.996358 0.989613
1.0015 0.998872 0.993859
1.00036 0.998852 0.992333
0.998029 0.996874 0.988219
0.994909 1.00444 0.97833
1.003 0.997631 0.990151
0.995103 1.00281 0.979393
1.00023 0.999578 0.991678
1.00356 0.995157 0.991581
0.998888 1.00243 0.995806
1.00034 1.0029 0.990811
1.00167 0.997827 0.993302
1.0021 0.995212 0.995059
1.00122 0.999307 0.99225
1.00147 0.99687 0.99448
1.00148 0.996532 0.994897
1.00097 0.999347 0.993001
1.00117 0.998173 0.993872
1.00109 0.998407 0.993781
1.00093 0.9996 0.992933
1.00095 0.999187 0.99334
1.00088 0.999422 0.993224
1.0008 0.999647 0.993184
1.00077 0.999998 0.992943
1.00081 0.999801 0.993014
1.00073 1.0002 0.9928
1.00068 1.00038 0.992732
1.00045 1.00072 0.992759
1.00057 1.00082 0.992508
1.00064 1.00086 0.992347
1.00011 1.00071 0.993517
1.00027 1.00097 0.992897
1.00037 1.00126 0.992534
0.999859 0.999857 0.994845
1.00005 1.00066 0.993705
1.00017 1.001 0.993125
0.999715 0.997919 0.997039
0.999883 0.999655 0.995011
1.00004 1.00056 0.993823
0.999675 0.996741 0.999366
0.999767 0.997762 0.997108
0.999908 0.999507 0.995122
0.999723 0.996592 0.999372
0.999817 0.997628 0.997151
0.999767 0.996469 0.999374
1.0001 1.0011 0.99315
1.00012 1.00103 0.993225
1.00005 1.0006 0.993672
1.00015 1.00099 0.993123
1.00008 1.00049 0.99375
0.999974 0.999444 0.995041
1.00011 1.0004 0.99382
1.00001 0.999326 0.995081
0.999867 0.99759 0.997079
0.999814 0.99642 0.999358
0.9999 0.997505 0.997089
1.00003 0.999255 0.995103
0.999857 0.996343 0.99936
0.999928 0.997432 0.997098
0.999897 0.99624 0.99937
0.995456 1.00219 0.980627
0.998104 0.996805 0.991294
1.00601 0.993819 0.99434
1.00022 1.0013 0.992728
1.00016 1.00119 0.992979
1.0002 1.00135 0.992749
1.00014 1.00123 0.992985
1.00009 1.00139 0.992944
1.00014 1.00137 0.992796
1.00017 1.00163 0.992434
1.00014 1.00152 0.992626
1.00008 1.00181 0.992458
1.00007 1.00155 0.992634
1.0003 1.00164 0.992639
1.00048 1.00258 0.990959
1.00002 1.0017 0.992735
1.00016 1.00164 0.992479
0.999678 0.998984 0.998132
0.994917 1.00252 0.979079
0.996873 0.997932 0.988086
0.995187 1.0032 0.977421
0.998285 1.00029 0.998341
0.999956 0.999157 0.996146
1.00259 0.999499 0.990344
1.0001 1.00342 0.990497
0.999503 1.00317 0.992224
1.00019 0.99854 0.99482
0.99739 1.00274 0.992007
0.995377 1.00169 0.981244
0.998478 0.995498 0.991251
1.00297 0.997939 0.989985
1.0003 0.999471 0.996594
0.995049 1.00274 0.983552
1.00333 0.995472 0.991489
0.998979 1.00197 0.994003
1.00254 0.995892 0.993462
1.00039 1.00243 0.99233
1.00155 0.99792 0.993311
1.00204 0.99529 0.995052
1.00161 0.996783 0.994355
1.0014 0.996841 0.994438
1.00141 0.996741 0.994822
1.00124 0.99822 0.993719
1.00116 0.998251 0.993821
1.00108 0.99852 0.993733
1.00104 0.999285 0.993062
1.00095 0.999249 0.993305
1.00087 0.999463 0.993233
1.00081 0.999972 0.992833
1.00079 0.9996 0.993236
1.00076 0.999938 0.992979
1.00072 1.00026 0.992775
1.00074 1.0002 0.992791
1.00068 1.00039 0.992721
1.00057 1.00047 0.992861
1.00023 1.00062 0.993264
1.00044 1.00075 0.992798
1.00057 1.00085 0.992494
0.999866 1.00009 0.994603
1.00011 1.00071 0.99352
1.00026 1.00099 0.992937
0.999661 0.998122 0.99694
0.99987 0.999848 0.994844
1.00006 1.00064 0.993705
0.999612 0.996913 0.999351
0.999719 0.997934 0.997035
0.999887 0.999657 0.995012
0.999664 0.996735 0.999362
0.999769 0.997777 0.997105
0.999713 0.996581 0.999371
1.00008 1.00118 0.993141
1.0001 1.0011 0.993196
1.00001 1.00075 0.993612
1.00011 1.00103 0.993228
1.00004 1.00063 0.993665
0.999931 0.9996 0.994974
1.00008 1.00051 0.993702
0.999974 0.999436 0.995042
0.999827 0.997699 0.997055
1.00001 0.999318 0.995081
0.999867 0.997579 0.99708
0.999771 0.99651 0.999355
0.99982 0.996432 0.999358
0.9999 0.997496 0.997089
0.999862 0.996349 0.999361
0.998554 0.999545 0.997811
0.994972 1.00146 0.979336
0.997833 0.997181 0.988009
1.00013 1.00141 0.992842
1.00019 1.00135 0.992765
1.00014 1.00123 0.992993
1.00014 1.00139 0.992795
1.00008 1.0014 0.992935
1.00004 1.00139 0.992928
1.00016 1.00156 0.99263
1.00003 1.00185 0.992508
1.00011 1.00158 0.992651
1.00011 1.0016 0.992833
1.00044 1.00177 0.991853
1.00167 1.00182 0.989359
1.00037 1.00249 0.991174
1.00002 1.00164 0.992676
1.00285 0.997105 0.990464
0.999616 0.998821 0.99564
0.995121 1.00212 0.98327
0.999982 0.999536 0.99116
1.00263 1.0004 0.988793
1.00002 1.0028 0.990679
1.00007 1.00139 0.995602
0.997365 1.00313 0.997026
0.995227 1.00018 0.979762
1.00306 0.995821 0.991394
0.99902 1.00153 0.991845
1.00232 0.995991 0.993252
1.00042 1.00211 0.992662
1.00131 0.999292 0.992134
1.00038 1.00138 0.991519
1.00199 0.995437 0.995044
1.00158 0.996979 0.994324
1.00118 0.999409 0.992747
1.00134 0.996992 0.994748
1.00122 0.998315 0.993696
1.00118 0.999433 0.992664
1.00107 0.998634 0.993685
1.001 0.999321 0.993108
1.00095 1.00006 0.992451
1.00085 0.999502 0.993242
1.00081 0.999975 0.992836
1.00076 1.0003 0.992619
1.00076 0.999877 0.993016
1.00072 1.00021 0.992787
1.00063 1.00038 0.992791
1.00068 1.00039 0.99271
1.00057 1.00046 0.992827
1.00037 1.00049 0.993201
0.999918 1.00026 0.994339
1.00023 1.00063 0.993313
1.00043 1.00077 0.992837
0.99961 0.998364 0.996791
0.999881 1.00007 0.994603
1.00011 1.00071 0.993523
0.999542 0.997113 0.999331
0.999666 0.99814 0.996933
0.999881 0.999839 0.994844
0.999599 0.99691 0.999346
0.999723 0.997948 0.99703
0.999653 0.996729 0.999358
1.0001 1.00121 0.993035
1.00008 1.00117 0.993143
1 1.00086 0.9936
1.0001 1.00109 0.993241
1.00001 1.00076 0.993639
0.999888 0.99979 0.994873
1.00003 1.00065 0.993657
0.99993 0.999594 0.994974
0.999778 0.997851 0.997005
0.999974 0.999429 0.995042
0.999827 0.997685 0.997057
0.999719 0.996625 0.999349
0.999868 0.997568 0.997081
0.999779 0.996525 0.999356
0.999825 0.996445 0.999359
1.00159 0.996495 0.994218
0.998462 1 0.993601
0.995254 1.00109 0.981129
1.0001 1.00132 0.992871
1.00035 1.00132 0.992523
1.00008 1.00142 0.99285
1.00015 1.00141 0.992794
1.00007 1.00141 0.992926
1.00007 1.00141 0.992913
1.00052 1.00144 0.991973
1.00015 1.00161 0.992667
0.999932 1.00156 0.993027
1.00042 1.00177 0.991808
1.00139 1.00137 0.990169
1.00195 0.999146 0.991491
1.00168 1.00167 0.989514
1.00028 1.0024 0.99139
1.00294 0.99731 0.990515
0.99933 0.999257 0.993498
1.0027 1.00139 0.987239
0.999929 1.00011 0.994232
0.999995 1.00095 0.995601
0.997384 1.00238 0.992586
1.00215 0.996123 0.993042
1.00047 1.00179 0.992991
1.00139 0.999216 0.992187
1.00049 1.00142 0.991793
1.00093 1.00095 0.991698
1.00032 1.00086 0.993239
1.00155 0.997149 0.994292
1.00116 0.999331 0.99281
1.00115 1.00023 0.991977
1.0012 0.998404 0.993674
1.00115 0.999476 0.992663
1.00109 1.00011 0.992086
1.00097 0.999355 0.993154
1.00095 1.00006 0.992453
1.00088 1.00038 0.99228
1.00081 0.999978 0.992839
1.00076 1.00029 0.992618
1.00068 1.00045 0.99264
1.00072 1.00015 0.9928
1.00063 1.00036 0.99279
1.00045 1.00044 0.993109
1.00057 1.00046 0.992793
1.00036 1.00049 0.993184
0.999986 1.00034 0.994121
0.999581 0.998613 0.996624
0.999932 1.00022 0.994341
1.00022 1.00065 0.993361
0.999473 0.99734 0.999302
0.999616 0.998388 0.996782
0.999896 1.00005 0.994603
0.99953 0.997114 0.999323
0.999672 0.998158 0.996926
0.999587 0.996908 0.99934
1.00017 1.00125 0.992758
1.00009 1.00121 0.992998
1.00004 1.0009 0.993496
1.00008 1.00116 0.993145
0.999993 1.00087 0.993596
0.999857 0.999992 0.994736
1 1.00078 0.993666
0.999885 0.999786 0.994872
0.999722 0.998044 0.99693
0.999929 0.999587 0.994974
0.999777 0.997836 0.997008
0.999654 0.996778 0.999335
0.999827 0.997671 0.997058
0.999729 0.996637 0.999351
0.999786 0.99654 0.999357
1.00119 0.998097 0.994155
1.00167 0.996915 0.994922
0.998212 1.0007 0.999654
1.00059 1.00116 0.992275
1.00006 1.00131 0.992981
1.00056 1.00123 0.991869
1.00034 1.00132 0.992497
1.00002 1.00144 0.992859
1.00127 1.00104 0.990874
1.0001 1.00143 0.992899
1.00053 1.00138 0.992011
1.00184 0.999574 0.990969
1.00039 1.00178 0.991764
1.00153 1.00139 0.989943
1.00201 0.999065 0.991388
1.00167 1.00153 0.989669
1.003 0.997484 0.990568
1.00024 0.999862 0.994247
0.999863 0.999999 0.994271
0.999912 1.00051 0.995601
1.00145 0.999107 0.992241
1.0006 1.00145 0.992067
1.00103 1.00084 0.991614
1.00034 1.00072 0.993261
1.00051 1.00061 0.99287
1.00114 0.999261 0.992873
1.00115 1.00012 0.992034
1.00105 1.00038 0.992006
1.00112 0.999518 0.992662
1.0011 1.00016 0.992052
1.00102 1.00041 0.991985
1.00095 1.00006 0.992455
1.00089 1.00038 0.992273
1.00077 1.00052 0.992364
1.00077 1.00028 0.992617
1.00068 1.00044 0.992639
1.00051 1.00048 0.992945
1.00063 1.00034 0.992789
1.00044 1.00043 0.993111
1.00004 1.0004 0.99395
1.00034 1.00048 0.993166
0.999996 1.0003 0.994125
0.999552 0.998843 0.99696
0.999419 0.997619 0.998222
0.999583 0.998638 0.996862
0.999947 1.00019 0.994344
0.999463 0.997344 0.99929
0.999623 0.998412 0.996773
0.999517 0.997114 0.999315
1.00073 1.00092 0.991968
1.00029 1.0013 0.992444
1.0002 1.00125 0.99272
1.00009 1.00094 0.993359
1.00009 1.0012 0.992962
1.00002 1.00091 0.993496
0.999845 1.00018 0.99458
0.999984 1.00088 0.993593
0.99985 0.999995 0.994735
0.999657 0.998273 0.996836
0.999881 0.999783 0.994871
0.999718 0.99803 0.996934
0.999576 0.996974 0.999317
0.999776 0.997821 0.997011
0.999668 0.996785 0.99934
0.999739 0.99665 0.999353
1.00121 0.998928 0.993102
1.00113 0.998175 0.994013
1.00173 0.997369 0.995626
1.00114 1.00085 0.991306
1.00048 1.00116 0.992424
1.00002 1.0013 0.99309
1.00065 1.00118 0.991941
1.00034 1.00133 0.992472
1.00167 1.0002 0.990796
1.00127 1.00109 0.99081
1.00053 1.00133 0.992048
1.00193 0.999561 0.990909
1.00167 1.0014 0.989717
1.00207 0.998994 0.991285
1 1.00027 0.993977
1.00018 0.999966 0.994222
0.999795 0.999897 0.994309
1.00113 1.00074 0.99153
1.00034 1.00058 0.993283
1.00053 1.00059 0.992847
1.00048 1.00063 0.992841
1.00115 1 0.992091
1.00111 1.00031 0.991942
1.00099 1.00026 0.99219
1.00111 1.00021 0.992017
1.00102 1.00041 0.991978
1.00089 1.00056 0.992094
1.0009 1.00038 0.992266
1.00078 1.00051 0.992358
1.00058 1.00055 0.992715
1.00068 1.00043 0.992637
1.00051 1.00047 0.992943
1.00008 1.00047 0.993782
1.00044 1.00043 0.993114
1.00004 1.00037 0.993954
0.999515 0.999106 0.996795
1.00001 1.00027 0.994128
0.999551 0.998879 0.996934
0.99935 0.997887 0.998097
0.999412 0.997591 0.998735
0.999585 0.998663 0.997099
0.999453 0.997348 0.999278
1.00114 1.00069 0.991438
1.00052 1.0011 0.992379
1.00069 1.00083 0.992174
1.00015 1.00105 0.993103
1.00032 1.00132 0.992452
1.00022 1.00124 0.992682
1.00008 1.00095 0.993359
0.999843 1.00037 0.994395
1.00001 1.00091 0.993496
0.999832 1.00019 0.994579
0.999584 0.998525 0.996734
0.999842 0.999998 0.994735
0.999652 0.998258 0.996842
0.999488 0.997205 0.999295
0.999715 0.998015 0.996938
0.999593 0.996972 0.999323
0.999681 0.996791 0.999344
1.00102 0.999901 0.992503
1.00118 0.998941 0.99311
1.00108 0.998244 0.993872
1.00147 1.0002 0.991075
1.00114 1.00085 0.991309
1.00038 1.00117 0.992573
1.00074 1.00113 0.992014
1.0017 1.0002 0.990805
1.00127 1.00114 0.990747
1.00201 0.999548 0.990849
1.00012 1.00064 0.993519
1.00013 1.00033 0.99379
1.00013 1.00006 0.994197
1.00033 1.00093 0.992884
1.00056 1.00057 0.992824
1.00049 1.00066 0.992821
1.00067 1.00043 0.992667
1.00116 1.00024 0.991879
1.00098 1.00027 0.992196
1.00088 1.00053 0.992155
1.00102 1.00042 0.991971
1.00088 1.00056 0.992097
1.00066 1.00061 0.992494
1.00079 1.00051 0.992353
1.00059 1.00054 0.99271
1.00014 1.00053 0.993597
1.00051 1.00047 0.992941
1.00009 1.00045 0.993783
0.99947 0.999401 0.996613
1.00005 1.00034 0.993957
0.999516 0.99913 0.996768
0.999271 0.99819 0.997983
0.99955 0.998916 0.996908
0.99935 0.997858 0.998114
0.999404 0.997562 0.999251
1.00145 1.00039 0.99118
1.00094 1.00077 0.991794
1.0011 1.00072 0.991527
1.00035 1.00098 0.99291
1.00052 1.00108 0.99235
1.00064 1.00075 0.992379
0.999876 1.00059 0.99411
1.00015 1.00105 0.993102
1.00036 1.00133 0.99246
1.00007 1.00096 0.99336
0.999824 1.0004 0.994394
0.999515 0.998803 0.996603
0.999819 1.00021 0.994578
0.999578 0.998509 0.996739
0.999393 0.997461 0.999272
0.999647 0.998244 0.996847
0.999507 0.997197 0.999302
0.99961 0.996971 0.999328
1.00104 1.00016 0.992218
1.00112 0.999864 0.992374
1.00113 0.998955 0.993118
1.00161 1.00015 0.99095
1.00114 1.00085 0.991313
1.00175 1.0002 0.990814
1.00018 1.0011 0.992962
1.00007 1.00072 0.993574
1.00025 1.0004 0.993603
1.00034 1.00099 0.992799
1.00041 1.00101 0.992628
1.00049 1.00068 0.992801
1.00066 1.00044 0.992666
1.00071 1.00054 0.992558
1.00097 1.00028 0.992202
1.00086 1.00053 0.992171
1.00066 1.00067 0.99245
1.00088 1.00056 0.992099
1.00066 1.00061 0.992492
1.00019 1.00059 0.993427
1.00059 1.00054 0.992705
1.00014 1.00053 0.993597
0.999414 0.999722 0.996377
1.00009 1.00044 0.993785
0.999476 0.999411 0.996582
0.999171 0.998554 0.997848
0.999517 0.999156 0.996742
0.999271 0.998155 0.998001
0.999349 0.997829 0.998131
1.00129 0.999796 0.992121
1.00124 1.00054 0.991393
1.00147 1.00036 0.991149
1.00065 1.00078 0.99242
1.00093 1.00079 0.991848
1.00106 1.00075 0.991615
0.999981 1.00066 0.993787
1.00034 1.00097 0.992808
1.00051 1.00106 0.99232
0.999479 0.999106 0.996377
0.999855 1.00062 0.994111
1.00015 1.00106 0.993101
0.999804 1.00043 0.994393
0.999505 0.998786 0.99661
0.999303 0.997736 0.999239
0.999572 0.998494 0.996745
0.999413 0.997449 0.999279
0.999526 0.997189 0.999308
1.00071 1.00094 0.992092
1.00108 1.00013 0.992169
1.00121 0.999825 0.992244
1.00174 1.00011 0.990825
1.00029 1.00128 0.992572
1.00016 1.00111 0.993013
1.00002 1.0008 0.993629
1.00036 1.00104 0.992714
1.00039 1.00102 0.992664
1.00041 1.0009 0.992748
1.00066 1.00043 0.992666
1.00069 1.00054 0.992553
1.00055 1.0007 0.992641
1.00085 1.00052 0.992186
1.00064 1.00067 0.992462
1.0002 1.0007 0.993321
1.00066 1.00061 0.99249
1.00019 1.00059 0.993427
0.999376 1.00008 0.995517
1.00014 1.00052 0.993598
0.999435 0.999746 0.996028
0.999042 0.998823 0.999031
0.999482 0.999423 0.99655
0.999169 0.998515 0.99787
0.999269 0.998119 0.99802
1.00098 1.00042 0.992145
1.0012 1.00006 0.991952
1.00123 0.999849 0.9921
1.00086 1.00061 0.991926
1.00122 1.00051 0.991503
1.0015 1.00033 0.991118
1.00017 1.0006 0.993301
1.00065 1.00078 0.992416
1.00091 1.0008 0.991903
0.999502 0.999374 0.996053
0.999975 1.00069 0.993698
1.00033 1.00097 0.992705
0.999235 0.998036 0.999178
0.999461 0.999089 0.996389
0.999834 1.00065 0.994111
0.999494 0.998769 0.996616
0.999319 0.997722 0.99925
0.999433 0.997437 0.999286
1.00044 1.00128 0.992256
1.00064 1.0009 0.992229
1.00111 1.0001 0.99212
1.00028 1.00115 0.992737
1.0003 1.00129 0.992581
1.00015 1.00112 0.993064
1.00037 1.00103 0.9927
1.00041 1.00088 0.992754
1.00026 1.00096 0.993019
1.00068 1.00054 0.992548
1.00054 1.00072 0.992694
1.00011 1.00081 0.993306
1.00063 1.00067 0.992474
1.00018 1.0007 0.993329
0.999307 1.00038 0.995364
1.00019 1.0006 0.993427
0.999398 1.00006 0.995513
0.998943 0.999163 0.998993
0.999454 0.999768 0.995681
0.999031 0.99888 0.998377
0.999167 0.998474 0.997891
1.00073 1.00098 0.99215
1.00095 1.00027 0.992252
1.00095 1.0004 0.992125
1.00089 1.00041 0.992182
1.00116 1.00009 0.991984
1.00118 0.999902 0.992078
1.00035 1.00055 0.992969
1.00089 1.00062 0.992032
1.0012 1.00047 0.991612
0.999555 0.999585 0.995712
1.00019 1.00062 0.993251
1.00065 1.00079 0.992411
0.999188 0.998349 0.999095
0.999477 0.999367 0.996065
0.999969 1.00071 0.993609
0.999243 0.998017 0.999198
0.999442 0.999071 0.9964
0.999335 0.997707 0.99926
1.0004 1.00111 0.992494
1.00047 1.00124 0.992266
1.00058 1.00086 0.992366
1.00021 1.00113 0.992935
1.00031 1.00116 0.992712
1.0003 1.00131 0.992591
1.00041 1.00086 0.992761
1.00027 1.00094 0.99302
0.999922 1.00101 0.993469
1.00052 1.00073 0.992747
1.00011 1.00082 0.993334
0.999204 1.00066 0.995313
1.00017 1.0007 0.993338
0.999324 1.00036 0.995363
0.998798 0.99952 0.99895
0.999421 1.00004 0.995509
0.998906 0.999199 0.998979
0.999022 0.99894 0.997718
1.00068 1.00078 0.992371
1.00072 1.00101 0.99206
1.00073 1.00049 0.992468
1.00094 1.00027 0.992269
1.00092 1.00039 0.992106
1.00039 1.0005 0.993087
1.00091 1.00041 0.992168
1.00111 1.00011 0.992016
0.999581 0.999773 0.995444
1.00037 1.00056 0.993016
1.00091 1.00062 0.992139
0.999137 0.998663 0.999015
0.999529 0.999591 0.995722
1.00021 1.00065 0.993202
0.999191 0.998327 0.999121
0.999452 0.999359 0.996076
0.999251 0.997997 0.999218
1.00034 1.00104 0.992793
1.00043 1.00109 0.992503
1.0005 1.0012 0.992276
0.999915 1.00114 0.993377
1.00021 1.00114 0.992936
1.00033 1.00117 0.992688
1.00027 1.00092 0.993021
0.999934 1.00101 0.993463
0.999081 1.00091 0.995322
1.00012 1.00083 0.993362
0.999209 1.00064 0.995318
0.998651 0.999836 0.998925
0.999341 1.00033 0.995361
0.998763 0.999556 0.99894
0.998872 0.999235 0.998966
1.00052 1.0008 0.99263
1.00069 1.00079 0.992325
1.00072 1.00103 0.99197
1.00026 1.00062 0.993237
1.00073 1.00049 0.992468
1.00093 1.00026 0.992286
0.999526 0.99997 0.99533
1.0004 1.0005 0.993075
1.00092 1.00042 0.992154
0.999057 0.998973 0.998955
0.99956 0.999784 0.99545
1.00039 1.00056 0.993062
0.999145 0.998641 0.999038
0.999502 0.999598 0.995732
0.999194 0.998305 0.999147
0.999978 1.00107 0.993401
1.00032 1.00104 0.992767
1.00045 1.00106 0.992512
0.999043 1.00104 0.995263
0.999904 1.00114 0.993393
1.00021 1.00114 0.992937
0.999947 1.001 0.993457
0.999085 1.00089 0.995324
0.9985 1.00008 0.998926
0.999215 1.00062 0.995323
0.998609 0.999867 0.998925
0.998728 0.999592 0.99893
1.00009 1.00088 0.993358
1.00051 1.00081 0.992623
1.00069 1.00081 0.992278
0.999375 1.00017 0.996046
1.00027 1.00062 0.993228
1.00073 1.0005 0.992468
0.998917 0.999279 0.998935
0.999517 0.999987 0.995326
1.00041 1.00051 0.993063
0.999076 0.998949 0.998971
0.99954 0.999795 0.995456
0.999152 0.998618 0.999061
0.999094 1.00095 0.995224
0.999981 1.00107 0.993359
1.00031 1.00104 0.99274
0.998428 1.00021 0.998914
0.999048 1.00104 0.995259
0.999894 1.00115 0.993409
0.99909 1.00088 0.995326
0.998478 1.0001 0.998923
0.998567 0.999898 0.998926
0.999194 1.00051 0.996024
1.00009 1.00088 0.993352
1.00049 1.00081 0.992616
0.998763 0.999566 0.998946
0.999387 1.00028 0.995327
1.00028 1.00063 0.993219
0.998956 0.999254 0.998938
0.999508 1 0.995322
0.999096 0.998925 0.998988
0.998467 1.00046 0.997419
0.999105 1.00087 0.995607
0.999984 1.00107 0.993317
0.998437 1.00021 0.998908
0.999052 1.00103 0.995257
0.998454 1.00012 0.998923
0.998583 1.00011 0.997489
0.999218 1.0006 0.99567
1.0001 1.00088 0.993345
0.998777 0.999679 0.998219
0.999368 1.00031 0.995318
0.998996 0.99923 0.998942
0.99847 1.00015 0.998899
0.999097 1.00096 0.995238
0.998446 1.00021 0.998899
0.998569 1.00006 0.998197
0.9992 1.00068 0.995301
0.998831 0.999545 0.998933
0.998505 1.00011 0.998909
0.998641 0.99986 0.998929

TENSORS stress float
0.00118551 2.32255e-05 1.21349e-05
2.32255e-05 0.000147155 -4.04824e-06
1.21349e-05 -4.04824e-06 0.000147739
0.00247197 -2.71381e-05 9.75938e-06
-2.71381e-05 0.000758705 2.77697e-06
9.75938e-06 2.77697e-06 0.000771622
0.00116323 2.39795e-05 4.43905e-06
2.39795e-05 0.000136223 -1.62421e-06
4.43905e-06 -1.62421e-06 0.000137122
0.00124978 2.38869e-05 1.47968e-05
2.38869e-05 0.000212328 -3.19169e-06
1.47968e-05 -3.19169e-06 0.000202082
0.00120966 2.38715e-05 1.2891e-05
2.38715e-05 0.000168826 -3.79535e-06
1.2891e-05 -3.79535e-06 0.000166208
0.00116481 2.2451e-05 1.13783e-05
2.2451e-05 0.000128508 -4.28076e-06
1.13783e-05 -4.28076e-06 0.000132027
0.001152 1.91828e-05 4.51373e-06
1.91828e-05 0.000119376 -1.6474e-06
4.51373e-06 -1.6474e-06 0.000101992
0.00252481 -2.73216e-05 1.50079e-07
-2.73216e-05 0.000783465 -8.58781e-08
1.50079e-07 -8.58781e-08 0.000796432
0.00279973 -3.3364e-05 4.87487e-06
-3.3364e-05 0.000942194 8.87837e-07
4.87487e-06 8.87837e-07 0.000948427
0.00257433 -3.00374e-05 4.40132e-06
-3.00374e-05 0.000815129 1.02087e-06
4.40132e-06 1.02087e-06 0.000826294
0.00109499 -2.06e-05 8.28406e-06
-2.06e-05 7.82231e-05 2.83058e-06
8.28406e-06 2.83058e-06 8.70356e-05
0.000898434 -1.69807e-05 4.49631e-06
-1.69807e-05 -1.75595e-05 2.12751e-06
4.49631e-06 2.12751e-06 -2.91639e-05
0.0011689 -1.8182e-05 1.38776e-05
-1.8182e-05 0.000226075 6.25485e-07
1.38776e-05 6.25485e-07 0.000206466
0.00115405 -2.51167e-05 4.14835e-06
-2.51167e-05 0.000184745 4.59363e-07
4.14835e-06 4.59363e-07 0.00017194
0.001139 2.47619e-05 -3.39083e-06
2.47619e-05 0.000124391 8.08552e-07
-3.39083e-06 8.08552e-07 0.000125606
0.00121812 2.47615e-05 5.48567e-06
2.47615e-05 0.000197478 -1.29258e-06
5.48567e-06 -1.29258e-06 0.000187551
0.00114352 2.31719e-05 4.16197e-06
2.31719e-05 0.000117825 -1.6927e-06
4.16197e-06 -1.6927e-06 0.000121666
0.00118166 2.46446e-05 4.72823e-06
2.46446e-05 0.000155204 -1.51545e-06
4.72823e-06 -1.51545e-06 0.000152931
0.00117217 1.92399e-05 -1.2194e-06
1.92399e-05 0.000129564 2.08644e-07
-1.2194e-06 2.08644e-07 0.00011215
0.00301658 3.29749e-05 1.47358e-05
3.29749e-05 0.00111841 -8.59144e-07
1.47358e-05 -8.59144e-07 0.00111187
0.00127035 2.30522e-05 1.59066e-05
2.30522e-05 0.000235784 -2.61099e-06
1.59066e-05 -2.61099e-06 0.000221986
0.00122916 2.41543e-05 1.37306e-05
2.41543e-05 0.000189933 -3.5491e-06
1.37306e-05 -3.5491e-06 0.000183635
0.0012138 1.7521e-05 4.3161e-06
1.7521e-05 0.000162854 -1.14423e-06
4.3161e-06 -1.14423e-06 0.000135579
0.00117295 1.98668e-05 4.48744e-06
1.98668e-05 0.000134871 -1.42828e-06
4.48744e-06 -1.42828e-06 0.000114345
0.00116451 2.15788e-05 1.08093e-05
2.15788e-05 0.000119232 -4.46268e-06
1.08093e-05 -4.46268e-06 0.000125423
0.00112861 1.86522e-05 4.34524e-06
1.86522e-05 0.000102979 -1.84385e-06
4.34524e-06 -1.84385e-06 8.88546e-05
0.00139454 4.19367e-06 1.52731e-06
4.19367e-06 0.000209311 -2.96223e-07
1.52731e-06 -2.96223e-07 0.000166914
0.00257864 -2.75283e-05 -9.55152e-06
-2.75283e-05 0.000808668 -2.80034e-06
-9.55152e-06 -2.80034e-06 0.000821685
0.00198686 -2.86052e-05 -3.73299e-06
-2.86052e-05 0.000545827 -8.22938e-07
-3.73299e-06 -8.22938e-07 0.000547634
0.00186155 -2.62514e-05 -3.32328e-06
-2.62514e-05 0.000467085 -9.08067e-07
-3.32328e-06 -9.08067e-07 0.000474613
0.00242151 -2.55296e-05 1.11894e-07
-2.55296e-05 0.000726366 -6.39094e-08
1.11894e-07 -6.39094e-08 0.000741177
0.000857998 -1.69224e-05 9.81152e-08
-1.69224e-05 -3.7119e-05 -4.74568e-08
9.81152e-08 -4.74568e-08 -4.84922e-05
0.00111664 -2.39354e-05 1.07836e-05
-2.39354e-05 0.000135468 1.90293e-06
1.07836e-05 1.90293e-06 0.000129502
0.0011269 -2.3425e-05 9.60392e-06
-2.3425e-05 0.000118069 2.34546e-06
9.60392e-06 2.34546e-06 0.000119261
0.00167648 -2.0776e-05 6.91588e-06
-2.0776e-05 0.000375956 1.57384e-06
6.91588e-06 1.57384e-06 0.000358196
0.0023667 -2.47057e-05 3.92384e-06
-2.47057e-05 0.000691515 1.22363e-06
3.92384e-06 1.22363e-06 0.000708121
0.00161795 -2.02402e-05 6.64114e-06
-2.02402e-05 0.000339337 1.92497e-06
6.64114e-06 1.92497e-06 0.000328279
0.000891918 -1.63762e-05 5.32354e-06
-1.63762e-05 -2.58642e-05 3.34793e-06
5.32354e-06 3.34793e-06 -3.48887e-05
0.000992506 -4.23229e-06 2.43483e-06
-4.23229e-06 1.4343e-05 1.10115e-06
2.43483e-06 1.10115e-06 -2.49677e-05
0.00236188 -2.00447e-05 8.55002e-06
-2.00447e-05 0.000677558 3.3864e-06
8.55002e-06 3.3864e-06 0.000696052
0.00291495 -3.16512e-05 3.62027e-07
-3.16512e-05 0.00107553 -1.30379e-07
3.62027e-07 -1.30379e-07 0.00106839
0.00202626 -2.89641e-05 -4.32149e-06
-2.89641e-05 0.00061232 -5.50052e-07
-4.32149e-06 -5.50052e-07 0.000604419
0.00300012 -2.76347e-05 1.50972e-05
-2.76347e-05 0.00112376 2.09881e-07
1.50972e-05 2.09881e-07 0.00111523
0.0011377 -2.3628e-05 4.28588e-06
-2.3628e-05 0.000195644 3.54558e-07
4.28588e-06 3.54558e-07 0.000179365
0.000694835 -1.69928e-05 6.8909e-06
-1.69928e-05 -6.07828e-05 9.78355e-07
6.8909e-06 9.78355e-07 -0.000100048
0.00292211 -3.54342e-05 5.35053e-06
-3.54342e-05 0.00102892 6.71025e-07
5.35053e-06 6.71025e-07 0.00102961
0.00157051 -2.04045e-05 9.06308e-06
-2.04045e-05 0.000347913 1.44707e-06
9.06308e-06 1.44707e-06 0.0003208
0.00118395 2.57249e-05 -4.03591e-06
2.57249e-05 0.000181416 6.36964e-07
-4.03591e-06 6.36964e-07 0.000171816
0.00115015 2.54402e-05 -3.57706e-06
2.54402e-05 0.000139919 7.32066e-07
-3.57706e-06 7.32066e-07 0.000138002
0.00112163 2.39241e-05 -3.19709e-06
2.39241e-05 0.000106876 8.70337e-07
-3.19709e-06 8.70337e-07 0.000111038
0.00119285 1.92768e-05 -6.98427e-06
1.92768e-05 0.000139991 2.1051e-06
-6.98427e-06 2.1051e-06 0.000122545
0.00207068 2.73626e-05 -3.40442e-06
2.73626e-05 0.000659078 -2.07331e-07
-3.40442e-06 -2.07331e-07 0.000646421
0.00123423 2.40127e-05 5.92299e-06
2.40127e-05 0.000219076 -1.09168e-06
5.92299e-06 -1.09168e-06 0.000205475
0.0011358 2.22423e-05 3.93653e-06
2.22423e-05 0.000104799 -1.74834e-06
3.93653e-06 -1.74834e-06 0.00011131
0.00119728 2.49579e-05 5.06364e-06
2.49579e-05 0.000174615 -1.40986e-06
5.06364e-06 -1.40986e-06 0.000168691
0.00123295 1.76592e-05 -1.86658e-06
1.76592e-05 0.000172336 2.5365e-07
-1.86658e-06 2.5365e-07 0.000145061
0.00114949 1.86913e-05 -1.10234e-06
1.86913e-05 0.000113346 1.93266e-07
-1.10234e-06 1.93266e-07 9.92317e-05
0.00119256 1.99483e-05 -1.41155e-06
1.99483e-05 0.000144656 2.44518e-07
-1.41155e-06 2.44518e-07 0.000124104
0.00140003 3.40697e-06 -9.98145e-07
3.40697e-06 0.000210318 5.50501e-07
-9.98145e-07 5.50501e-07 0.000167695
0.00304776 3.29202e-05 1.46971e-05
3.29202e-05 0.00114184 -4.63943e-07
1.46971e-05 -4.63943e-07 0.00113401
0.00127441 2.16099e-05 1.67288e-05
2.16099e-05 0.000253419 -1.96084e-06
1.67288e-05 -1.96084e-06 0.000236876
0.0015889 1.96785e-05 3.64615e-06
1.96785e-05 0.000368005 -3.52979e-07
3.64615e-06 -3.52979e-07 0.000336204
0.00124238 1.57516e-05 4.41301e-06
1.57516e-05 0.000179795 -8.82295e-07
4.41301e-06 -8.82295e-07 0.000149628
0.00118891 2.01129e-05 4.30287e-06
2.01129e-05 0.00014772 -1.28408e-06
4.30287e-06 -1.28408e-06 0.000123848
0.00142869 -5.88683e-07 1.17614e-06
-5.88683e-07 0.000205395 -2.55372e-07
1.17614e-06 -2.55372e-07 0.000156062
0.00120462 4.15175e-06 1.72744e-06
4.15175e-06 0.000111745 -4.07078e-07
1.72744e-06 -4.07078e-07 6.62158e-05
0.00124476 2.05792e-05 1.06238e-05
2.05792e-05 0.000147308 -4.65028e-06
1.06238e-05 -4.65028e-06 0.000155691
0.00113317 1.82121e-05 4.12799e-06
1.82121e-05 9.78306e-05 -1.90924e-06
4.12799e-06 -1.90924e-06 8.72514e-05
0.00137833 6.48282e-06 1.52109e-06
6.48282e-06 0.000206647 -4.34127e-07
1.52109e-06 -4.34127e-07 0.000167028
0.00111944 -1.29429e-05 8.81835e-07
-1.29429e-05 4.25188e-05 -2.94539e-07
8.81835e-07 -2.94539e-07 -1.26005e-05
0.00288665 -3.25854e-05 -1.08977e-05
-3.25854e-05 0.000983194 -2.29708e-06
-1.08977e-05 -2.29708e-06 0.000989527
0.00250147 -2.57379e-05 -9.20015e-06
-2.57379e-05 0.000763923 -2.93729e-06
-9.20015e-06 -2.93729e-06 0.000778745
0.0026696 -2.92577e-05 -1.0011e-05
-2.92577e-05 0.000860541 -2.63629e-06
-1.0011e-05 -2.63629e-06 0.00087158
0.000817834 -1.68653e-05 -4.26922e-06
-1.68653e-05 -5.6546e-05 -2.28489e-06
-4.26922e-06 -2.28489e-06 -6.76889e-05
0.00287874 -3.30881e-05 1.62759e-07
-3.30881e-05 0.000993728 -1.07868e-07
1.62759e-07 -1.07868e-07 0.000996999
0.00267616 -3.05211e-05 1.24258e-07
-3.05211e-05 0.000874057 -7.97168e-08
1.24258e-07 -7.97168e-08 0.000882686
0.00083274 -1.82971e-05 1.05545e-07
-1.82971e-05 -3.49177e-05 -6.87984e-08
1.05545e-07 -6.87984e-08 -5.67936e-05
0.00175307 -2.18933e-05 -2.98053e-06
-2.18933e-05 0.000391553 -1.01412e-06
-2.98053e-06 -1.01412e-06 0.000405082
0.000866286 -1.74371e-05 3.14943e-08
-1.74371e-05 -2.76561e-05 -3.02726e-08
3.14943e-08 -3.02726e-08 -4.19106e-05
0.00121377 -1.74526e-05 1.58037e-06
-1.74526e-05 0.000131058 4.86602e-07
1.58037e-06 4.86602e-07 0.000123871
0.000983085 -5.2913e-06 1.09638e-07
-5.2913e-06 1.10891e-05 -7.86567e-08
1.09638e-07 -7.86567e-08 -2.84192e-05
0.0023469 -2.18878e-05 8.75835e-06
-2.18878e-05 0.000676186 3.20435e-06
8.75835e-06 3.20435e-06 0.000693808
0.000925621 -1.33166e-05 3.48503e-06
-1.33166e-05 -2.71635e-05 2.63331e-06
3.48503e-06 2.63331e-06 -3.158e-05
0.00076367 -1.58325e-05 6.41133e-06
-1.58325e-05 -6.40211e-05 2.19449e-06
6.41133e-06 2.19449e-06 -9.02142e-05
0.00083046 -1.78653e-05 5.9567e-06
-1.78653e-05 -3.93759e-05 2.80397e-06
5.9567e-06 2.80397e-06 -5.79006e-05
0.000993844 2.38188e-06 2.3215e-06
2.38188e-06 2.26666e-06 7.58783e-07
2.3215e-06 7.58783e-07 -4.59298e-05
0.00155653 -1.75693e-05 5.90711e-06
-1.75693e-05 0.000291613 2.35425e-06
5.90711e-06 2.35425e-06 0.000288023
0.000998391 -3.44415e-07 2.39826e-06
-3.44415e-07 1.44996e-05 1.05952e-06
2.39826e-06 1.05952e-06 -2.75403e-05
0.00099838 -8.86394e-06 2.28173e-06
-8.86394e-06 1.83778e-05 1.40775e-06
2.28173e-06 1.40775e-06 -1.81993e-05
0.00104442 8.79926e-06 1.2027e-06
8.79926e-06 2.6964e-05 3.37076e-07
1.2027e-06 3.37076e-07 -2.5536e-05
0.00236947 -1.82038e-05 8.2249e-06
-1.82038e-05 0.000676367 3.5399e-06
8.2249e-06 3.5399e-06 0.000695619
0.00241096 -2.00794e-05 1.4896e-07
-2.00794e-05 0.000700959 -5.76793e-08
1.4896e-07 -5.76793e-08 0.000719324
0.00303122 -3.48077e-05 -1.27268e-05
-3.48077e-05 0.00109536 -1.52053e-06
-1.27268e-05 -1.52053e-06 0.00109355
0.00297702 -3.30542e-05 -1.39009e-05
-3.30542e-05 0.00110177 -8.48312e-07
-1.39009e-05 -8.48312e-07 0.00109508
0.00299809 -3.08868e-05 8.27966e-07
-3.08868e-05 0.00112186 -1.61548e-07
8.27966e-07 -1.61548e-07 0.00111344
0.00201861 -2.78101e-05 -4.56795e-06
-2.78101e-05 0.000626585 -4.30236e-07
-4.56795e-06 -4.30236e-07 0.000615614
0.00116744 -1.76964e-05 2.60258e-06
-1.76964e-05 0.000169407 6.41089e-08
2.60258e-06 6.41089e-08 0.000133547
0.00208016 -2.97651e-05 -4.12661e-06
-2.97651e-05 0.00061828 -6.64079e-07
-4.12661e-06 -6.64079e-07 0.000613711
0.00122353 -1.88721e-05 2.192e-06
-1.88721e-05 0.000177779 1.94206e-07
2.192e-06 1.94206e-07 0.000148034
0.00304051 -2.44311e-06 1.43705e-05
-2.44311e-06 0.001144 -7.52323e-08
1.43705e-05 -7.52323e-08 0.00113527
0.000721688 -1.26313e-05 4.89194e-06
-1.26313e-05 -4.51609e-05 1.70937e-07
4.89194e-06 1.70937e-07 -8.60987e-05
0.00155362 -2.33012e-05 9.3932e-06
-2.33012e-05 0.000349878 1.16964e-06
9.3932e-06 1.16964e-06 0.000319798
0.00100835 -1.48579e-05 1.82442e-06
-1.48579e-05 1.11971e-05 1.6183e-07
1.82442e-06 1.6183e-07 -4.48899e-05
0.00165636 -1.99059e-05 7.15559e-06
-1.99059e-05 0.000377709 1.02534e-06
7.15559e-06 1.02534e-06 0.000353799
0.00101186 -2.84441e-06 1.96854e-06
-2.84441e-06 7.21919e-06 3.3387e-07
1.96854e-06 3.3387e-07 -4.50877e-05
0.00114212 1.8636e-05 -1.39091e-05
1.8636e-05 0.000207836 6.23313e-07
-1.39091e-05 6.23313e-07 0.00018917
0.00119868 2.51199e-05 -4.30136e-06
2.51199e-05 0.000202655 5.5771e-07
-4.30136e-06 5.5771e-07 0.00018924
0.00110667 2.29231e-05 -3.04135e-06
2.29231e-05 9.01666e-05 9.23737e-07
-3.04135e-06 9.23737e-07 9.70007e-05
0.0011618 2.58064e-05 -3.77711e-06
2.58064e-05 0.000157553 6.77167e-07
-3.77711e-06 6.77167e-07 0.000152017
0.00125521 1.76839e-05 -8.11645e-06
1.76839e-05 0.000183318 1.65002e-06
-8.11645e-06 1.65002e-06 0.000156038
0.00121385 1.99964e-05 -7.31941e-06
1.99964e-05 0.000155228 1.92015e-06
-7.31941e-06 1.92015e-06 0.000134647
0.00117046 1.87175e-05 -6.59456e-06
1.87175e-05 0.00012375 2.24483e-06
-6.59456e-06 2.24483e-06 0.000109646
0.00140775 2.57743e-06 -3.38187e-06
2.57743e-06 0.000212354 1.40902e-06
-3.38187e-06 1.40902e-06 0.000169505
0.00301935 3.19438e-05 -7.89996e-07
3.19438e-05 0.00112954 -1.36609e-07
-7.89996e-07 -1.36609e-07 0.00112157
0.00123308 2.27238e-05 6.27028e-06
2.27238e-05 0.000234169 -7.94316e-07
6.27028e-06 -7.94316e-07 0.000217737
0.000946904 1.58502e-05 -3.61827e-06
1.58502e-05 5.41829e-05 2.12196e-07
-3.61827e-06 2.12196e-07 1.82527e-05
0.00125236 1.56449e-05 -2.07709e-06
1.56449e-05 0.000184769 2.25418e-07
-2.07709e-06 2.25418e-07 0.0001546
0.00183089 2.31326e-05 5.64804e-06
2.31326e-05 0.000434455 -1.81642e-06
5.64804e-06 -1.81642e-06 0.000446223
0.00134524 1.89376e-05 -8.70702e-07
1.89376e-05 0.000201526 2.46312e-07
-8.70702e-07 2.46312e-07 0.00019218
0.00121041 2.00768e-05 -1.65005e-06
2.00768e-05 0.000158295 2.63225e-07
-1.65005e-06 2.63225e-07 0.00013442
0.00134544 -5.57147e-07 -8.56327e-07
-5.57147e-07 0.000164116 3.48486e-07
-8.56327e-07 3.48486e-07 0.000114071
0.00138775 5.266e-06 -9.76997e-07
5.266e-06 0.000209314 6.18362e-07
-9.76997e-07 6.18362e-07 0.000169418
0.00131158 3.55793e-06 -5.84476e-07
3.55793e-06 0.00016278 2.89929e-07
-5.84476e-07 2.89929e-07 0.000117597
0.00110855 -1.24252e-05 3.34751e-08
-1.24252e-05 3.77486e-05 -5.34864e-08
3.34751e-08 -5.34864e-08 -1.73124e-05
0.000711827 1.39171e-05 4.99309e-06
1.39171e-05 -5.28191e-05 -5.17525e-07
4.99309e-06 -5.17525e-07 -9.24828e-05
0.00125008 1.47882e-05 4.45617e-06
1.47882e-05 0.000191181 -6.45396e-07
4.45617e-06 -6.45396e-07 0.000159006
0.00125701 1.11998e-05 1.67106e-06
1.11998e-05 0.000117448 -1.09322e-07
1.67106e-06 -1.09322e-07 6.29082e-05
0.001286 -6.1978e-07 1.63377e-06
-6.1978e-07 0.000127716 -3.65883e-07
1.63377e-06 -3.65883e-07 7.56138e-05
0.00122099 2.9843e-06 1.5656e-06
2.9843e-06 0.000112961 -4.36282e-07
1.5656e-06 -4.36282e-07 6.49623e-05
0.00136252 -1.41116e-05 2.56079e-07
-1.41116e-05 0.000129668 -2.01847e-07
2.56079e-07 -2.01847e-07 7.08054e-05
0.00251479 2.38779e-05 9.08966e-06
2.38779e-05 0.000760172 -3.11354e-06
9.08966e-06 -3.11354e-06 0.000776442
0.00113967 -1.24868e-05 6.91876e-07
-1.24868e-05 4.29512e-05 -1.53886e-07
6.91876e-07 -1.53886e-07 -1.25173e-05
0.000896113 1.65255e-05 4.01224e-06
1.65255e-05 -2.7134e-05 -2.19655e-06
4.01224e-06 -2.19655e-06 -3.56825e-05
0.000971493 8.50139e-06 2.15944e-06
8.50139e-06 8.93641e-06 -1.17284e-06
2.15944e-06 -1.17284e-06 -3.01698e-05
0.00111389 -1.23975e-05 9.26369e-07
-1.23975e-05 5.10741e-05 -5.58504e-07
9.26369e-07 -5.58504e-07 -3.71806e-06
0.00118211 -1.98235e-05 4.12838e-07
-1.98235e-05 5.41233e-05 6.45521e-08
4.12838e-07 6.45521e-08 -4.85857e-06
0.000885607 1.40296e-05 3.59183e-06
1.40296e-05 -4.48301e-05 -2.54916e-06
3.59183e-06 -2.54916e-06 -5.04104e-05
0.000990869 8.56974e-06 2.08122e-06
8.56974e-06 5.02675e-07 -1.62359e-06
2.08122e-06 -1.62359e-06 -3.20599e-05
0.0029949 -3.39167e-05 -1.16541e-05
-3.39167e-05 0.00104629 -2.095e-06
-1.16541e-05 -2.095e-06 0.00104994
0.00276552 -3.09662e-05 -1.03489e-05
-3.09662e-05 0.000915642 -2.45754e-06
-1.03489e-05 -2.45754e-06 0.000924483
0.000740791 -1.81745e-05 -4.68688e-06
-1.81745e-05 -7.76053e-05 -1.89437e-06
-4.68688e-06 -1.89437e-06 -9.9546e-05
0.00247024 -2.38826e-05 -9.05826e-06
-2.38826e-05 0.000741306 -3.10353e-06
-9.05826e-06 -3.10353e-06 0.000757581
0.000842271 -1.64162e-05 -3.99095e-06
-1.64162e-05 -5.03769e-05 -2.35457e-06
-3.99095e-06 -2.35457e-06 -5.87881e-05
0.000786006 -1.71574e-05 -4.56878e-06
-1.71574e-05 -6.59469e-05 -2.07513e-06
-4.56878e-06 -2.07513e-06 -8.00834e-05
0.000973804 -6.30636e-06 -2.34907e-06
-6.30636e-06 7.92682e-06 -1.39254e-06
-2.34907e-06 -1.39254e-06 -3.17795e-05
0.00240663 -2.19412e-05 1.44094e-07
-2.19412e-05 0.000704489 -6.30519e-08
1.44094e-07 -6.30519e-08 0.000721977
0.000910805 -1.32798e-05 7.92851e-08
-1.32798e-05 -3.45015e-05 -3.52544e-08
7.92851e-08 -3.52544e-08 -3.88301e-05
0.00121694 -1.84079e-05 2.04775e-06
-1.84079e-05 0.000157569 2.94153e-07
2.04775e-06 2.94153e-07 0.000134014
0.0012042 -1.93196e-05 1.77129e-06
-1.93196e-05 0.000143385 4.30508e-07
1.77129e-06 4.30508e-07 0.000127181
0.000998961 2.49204e-06 -3.46305e-08
2.49204e-06 5.58499e-06 -1.26424e-07
-3.46305e-08 -1.26424e-07 -4.27617e-05
0.000913828 -1.56593e-05 2.03242e-08
-1.56593e-05 -2.28022e-05 -2.17755e-08
2.03242e-08 -2.17755e-08 -2.91551e-05
0.000986833 -1.08657e-06 -1.33209e-08
-1.08657e-06 1.07744e-05 1.01595e-08
-1.33209e-08 1.01595e-08 -3.14709e-05
0.000979831 -9.83946e-06 9.00212e-08
-9.83946e-06 1.02549e-05 -4.32113e-11
9.00212e-08 -4.32113e-11 -2.64e-05
0.000995805 8.98693e-06 -3.58269e-08
8.98693e-06 2.92268e-06 -1.14767e-07
-3.58269e-08 -1.14767e-07 -4.99443e-05
0.000919668 -1.44902e-05 3.7835e-06
-1.44902e-05 -2.5672e-05 2.4627e-06
3.7835e-06 2.4627e-06 -3.08526e-05
0.000932336 -1.2183e-05 3.1572e-06
-1.2183e-05 -2.76079e-05 2.78669e-06
3.1572e-06 2.78669e-06 -3.13291e-05
0.00100127 -1.00612e-05 2.18868e-06
-1.00612e-05 7.50303e-06 1.537e-06
2.18868e-06 1.537e-06 -2.41175e-05
0.000993682 8.20255e-07 2.22309e-06
8.20255e-07 -3.37376e-06 4.93983e-07
2.22309e-06 4.93983e-07 -5.31882e-05
0.00100041 2.24763e-06 2.34328e-06
2.24763e-06 1.22031e-05 1.02345e-06
2.34328e-06 1.02345e-06 -3.31759e-05
0.00112865 1.47484e-05 9.62712e-07
1.47484e-05 3.14258e-05 3.91815e-07
9.62712e-07 3.91815e-07 -2.57767e-05
0.00100271 -1.1462e-05 2.20092e-06
-1.1462e-05 1.63628e-05 1.48574e-06
2.20092e-06 1.48574e-06 -1.73796e-05
0.000984351 1.22112e-05 9.82371e-07
1.22112e-05 -1.24207e-05 3.99789e-07
9.82371e-07 3.99789e-07 -6.60579e-05
0.00106617 5.74279e-06 1.22984e-06
5.74279e-06 4.35168e-05 6.48111e-07
1.22984e-06 6.48111e-07 -8.70007e-06
0.00120309 2.08153e-05 1.40394e-07
2.08153e-05 9.4792e-05 -2.16264e-07
1.40394e-07 -2.16264e-07 3.67868e-05
0.00237026 -1.63798e-05 7.78911e-06
-1.63798e-05 0.000672436 3.66543e-06
7.78911e-06 3.66543e-06 0.000692398
0.00240851 -1.82321e-05 1.53954e-07
-1.82321e-05 0.000695051 -5.20228e-08
1.53954e-07 -5.20228e-08 0.000714195
0.002461 -2.0127e-05 -8.54404e-06
-2.0127e-05 0.00072482 -3.44653e-06
-8.54404e-06 -3.44653e-06 0.000743053
0.000896191 1.28726e-05 3.27177e-06
1.28726e-05 -4.36508e-05 -2.71448e-06
3.27177e-06 -2.71448e-06 -4.84007e-05
0.00251143 2.19458e-05 8.90723e-06
2.19458e-05 0.000752196 -3.29714e-06
8.90723e-06 -3.29714e-06 0.000769529
0.00304139 -3.4711e-05 -1.22681e-05
-3.4711e-05 0.00108309 -1.82707e-06
-1.22681e-05 -1.82707e-06 0.001084
0.00299645 -3.41714e-05 -1.32354e-05
-3.41714e-05 0.00109628 -1.19177e-06
-1.32354e-05 -1.19177e-06 0.00109186
0.000715855 -1.48085e-05 -4.76494e-06
-1.48085e-05 -6.6387e-05 -1.06683e-06
-4.76494e-06 -1.06683e-06 -9.90503e-05
0.000707045 -1.29093e-05 -4.8623e-06
-1.29093e-05 -5.27995e-05 -7.42192e-07
-4.8623e-06 -7.42192e-07 -9.18143e-05
0.00299543 -3.18306e-05 -1.43314e-05
-3.18306e-05 0.00111972 -4.64017e-07
-1.43314e-05 -4.64017e-07 0.00111145
0.00302963 1.76565e-06 4.21344e-09
1.76565e-06 0.00113882 -8.23276e-08
4.21344e-09 -8.23276e-08 0.0011301
0.000712039 -1.13595e-05 4.0701e-08
-1.13595e-05 -4.89287e-05 -1.53634e-07
4.0701e-08 -1.53634e-07 -8.9896e-05
0.00120363 -1.8746e-05 2.35105e-06
-1.8746e-05 0.000178728 1.43859e-07
2.35105e-06 1.43859e-07 0.000145899
0.00102319 -1.42577e-05 1.09729e-08
-1.42577e-05 1.7714e-05 -5.44469e-08
1.09729e-08 -5.44469e-08 -3.83953e-05
0.000797643 -1.61006e-05 4.7835e-08
-1.61006e-05 -4.02846e-05 -8.19979e-08
4.7835e-08 -8.19979e-08 -6.93863e-05
0.00101477 -2.43334e-06 -5.89082e-08
-2.43334e-06 8.39677e-06 -2.99074e-08
-5.89082e-08 -2.99074e-08 -4.39295e-05
0.000707257 -3.23706e-07 4.97452e-06
-3.23706e-07 -5.17618e-05 -3.23179e-07
4.97452e-06 -3.23179e-07 -9.28039e-05
0.00101094 -1.21543e-05 1.6989e-06
-1.21543e-05 1.24224e-05 -3.26175e-08
1.6989e-06 -3.26175e-08 -4.48365e-05
0.00101437 -8.47569e-06 1.8628e-06
-8.47569e-06 1.14764e-05 2.97145e-07
1.8628e-06 2.97145e-07 -4.26315e-05
0.00113792 -1.71151e-05 7.65697e-07
-1.71151e-05 3.6211e-05 -1.89833e-07
7.65697e-07 -1.89833e-07 -2.58581e-05
0.00100157 -1.13568e-06 2.08307e-06
-1.13568e-06 -8.81128e-08 3.84585e-07
2.08307e-06 3.84585e-07 -5.10459e-05
0.0011756 -6.31193e-07 7.88549e-07
-6.31193e-07 4.46879e-05 1.29929e-07
7.88549e-07 1.29929e-07 -1.46741e-05
0.00298833 3.0977e-05 -1.52873e-05
3.0977e-05 0.00111612 2.37912e-07
-1.52873e-05 2.37912e-07 0.001108
0.00119195 2.40203e-05 -4.45826e-06
2.40203e-05 0.000215073 4.22222e-07
-4.45826e-06 4.22222e-07 0.000198735
0.000294687 1.26141e-05 -6.96178e-06
1.26141e-05 -0.000264447 9.17092e-07
-6.96178e-06 9.17092e-07 -0.000304533
0.00126332 1.53891e-05 -8.64938e-06
1.53891e-05 0.000190214 1.40264e-06
-8.64938e-06 1.40264e-06 0.000160045
0.00241379 2.64898e-05 -3.99537e-06
2.64898e-05 0.000720161 1.13808e-06
-3.99537e-06 1.13808e-06 0.000735283
0.00155576 1.97536e-05 -6.42126e-06
1.97536e-05 0.000304473 2.32809e-06
-6.42126e-06 2.32809e-06 0.000296358
0.00123492 2.03298e-05 -7.65158e-06
2.03298e-05 0.000170325 1.78055e-06
-7.65158e-06 1.78055e-06 0.000146431
0.00125679 -4.60936e-07 -2.86483e-06
-4.60936e-07 0.000120288 1.04582e-06
-2.86483e-06 1.04582e-06 6.95349e-05
0.0014188 3.01636e-06 -2.82166e-06
3.01636e-06 0.000213974 9.47966e-07
-2.82166e-06 9.47966e-07 0.000169133
0.00139862 4.09062e-06 -3.39513e-06
4.09062e-06 0.000212663 1.67415e-06
-3.39513e-06 1.67415e-06 0.00017249
0.00109723 -1.19511e-05 -7.74562e-07
-1.19511e-05 3.2777e-05 1.74226e-07
-7.74562e-07 1.74226e-07 -2.2226e-05
0.000708269 1.48156e-05 -5.35571e-08
1.48156e-05 -5.48821e-05 -5.66255e-08
-5.35571e-08 -5.66255e-08 -9.45244e-05
0.00125141 1.44811e-05 -2.24143e-06
1.44811e-05 0.00019151 1.9973e-07
-2.24143e-06 1.9973e-07 0.000159389
0.00106786 1.25994e-05 -4.06862e-07
1.25994e-05 2.47714e-05 5.667e-08
-4.06862e-07 5.667e-08 -3.10351e-05
0.00137747 -1.50009e-06 -3.98614e-07
-1.50009e-06 0.000171917 1.11487e-07
-3.98614e-07 1.11487e-07 0.00012023
0.00244821 2.37847e-05 -1.35231e-07
2.37847e-05 0.00072894 -6.49439e-08
-1.35231e-07 -6.49439e-08 0.000745288
0.00123098 1.77814e-05 2.29286e-07
1.77814e-05 0.000136863 -6.62175e-08
2.29286e-07 -6.62175e-08 0.000129674
0.00118492 7.99328e-06 5.38395e-08
7.99328e-06 0.00011128 9.1721e-09
5.38395e-08 9.1721e-09 7.34637e-05
0.00123193 3.09245e-06 -4.99464e-07
3.09245e-06 0.000118009 2.2701e-07
-4.99464e-07 2.2701e-07 6.99863e-05
0.00121222 -1.32708e-05 -4.15417e-07
-1.32708e-05 5.65407e-05 2.14734e-07
-4.15417e-07 2.14734e-07 -3.0607e-06
0.00102437 -1.11944e-05 -2.14634e-08
-1.11944e-05 9.2919e-06 -9.93953e-08
-2.14634e-08 -9.93953e-08 -4.56933e-05
0.0012277 -1.25499e-05 3.17372e-08
-1.25499e-05 8.51384e-05 2.25659e-08
3.17372e-08 2.25659e-08 3.00767e-05
0.00117407 -1.96749e-05 7.24975e-08
-1.96749e-05 5.05357e-05 -1.9164e-09
7.24975e-08 -1.9164e-09 -8.36366e-06
0.000901054 1.40764e-05 -5.85613e-08
1.40764e-05 -3.71178e-05 -3.84271e-08
-5.85613e-08 -3.84271e-08 -4.28069e-05
0.000994623 8.83109e-06 -9.02174e-08
8.83109e-06 2.63204e-06 -3.85111e-08
-9.02174e-08 -3.85111e-08 -2.9961e-05
0.00100892 1.34629e-05 1.93927e-06
1.34629e-05 4.80164e-06 -1.55147e-07
1.93927e-06 -1.55147e-07 -5.18723e-05
0.00128353 5.40438e-06 1.69119e-06
5.40438e-06 0.000125169 -2.70229e-07
1.69119e-06 -2.70229e-07 7.17131e-05
0.00137049 1.37559e-05 5.05921e-07
1.37559e-05 0.000129791 1.90475e-08
5.05921e-07 1.90475e-08 6.76649e-05
0.0011423 -8.99183e-06 1.06309e-06
-8.99183e-06 1.3032e-05 -5.5596e-07
1.06309e-06 -5.5596e-07 -4.88846e-05
0.00125756 -1.28584e-05 3.53488e-07
-1.28584e-05 9.19082e-05 -2.26748e-07
3.53488e-07 -2.26748e-07 3.55561e-05
0.00132247 -1.46998e-05 -3.02144e-07
-1.46998e-05 9.17146e-05 -1.73849e-07
-3.02144e-07 -1.73849e-07 2.91887e-05
0.000871065 1.52671e-05 3.82778e-06
1.52671e-05 -4.61406e-05 -2.36096e-06
3.82778e-06 -2.36096e-06 -5.29356e-05
0.00119329 -1.82492e-05 7.66696e-08
-1.82492e-05 4.95271e-05 5.89688e-08
7.66696e-08 5.89688e-08 -9.0351e-06
0.000956313 1.1279e-05 2.22017e-06
1.1279e-05 -2.35775e-06 -1.19516e-06
2.22017e-06 -1.19516e-06 -3.88766e-05
0.000899992 -8.18838e-06 1.15288e-06
-8.18838e-06 -4.09147e-05 -8.32022e-07
1.15288e-06 -8.32022e-07 -9.44813e-05
0.00134624 -2.25522e-05 2.15524e-07
-2.25522e-05 0.000146047 -7.83718e-08
2.15524e-07 -7.83718e-08 8.64976e-05
0.00122857 -2.18316e-05 -1.24188e-07
-2.18316e-05 6.71673e-05 6.23127e-07
-1.24188e-07 6.23127e-07 7.49149e-06
0.000978445 9.58738e-06 2.28034e-06
9.58738e-06 -2.38076e-06 -1.45083e-06
2.28034e-06 -1.45083e-06 -3.55712e-05
0.00099798 7.7911e-06 1.81234e-06
7.7911e-06 2.00699e-06 -1.72296e-06
1.81234e-06 -1.72296e-06 -2.99289e-05
0.00106297 -4.98629e-06 1.21869e-06
-4.98629e-06 3.208e-05 -8.05124e-07
1.21869e-06 -8.05124e-07 -1.8054e-05
0.000737544 -1.78103e-05 -4.74577e-06
-1.78103e-05 -7.45394e-05 -1.61987e-06
-4.74577e-06 -1.61987e-06 -0.000100404
0.0024663 -2.20028e-05 -8.86577e-06
-2.20028e-05 0.000732759 -3.28525e-06
-8.86577e-06 -3.28525e-06 0.000750113
0.00089614 -1.32441e-05 -3.28902e-06
-1.32441e-05 -4.17745e-05 -2.72742e-06
-3.28902e-06 -2.72742e-06 -4.6014e-05
0.000754054 -1.75705e-05 -4.6269e-06
-1.75705e-05 -7.5274e-05 -1.98182e-06
-4.6269e-06 -1.98182e-06 -9.30686e-05
0.00100486 2.3754e-06 -2.26493e-06
2.3754e-06 9.25571e-06 -9.76513e-07
-2.26493e-06 -9.76513e-07 -3.92459e-05
0.000866964 -1.55441e-05 -3.83976e-06
-1.55441e-05 -4.52577e-05 -2.4013e-06
-3.83976e-06 -2.4013e-06 -5.14936e-05
0.000962042 -1.13657e-05 -2.18588e-06
-1.13657e-05 2.5361e-06 -1.54509e-06
-2.18588e-06 -1.54509e-06 -3.42133e-05
0.000975018 -1.89451e-06 -2.42851e-06
-1.89451e-06 6.94512e-06 -1.08483e-06
-2.42851e-06 -1.08483e-06 -3.5506e-05
0.000946128 9.15753e-06 -1.22625e-06
9.15753e-06 -2.16518e-05 -5.37914e-07
-1.22625e-06 -5.37914e-07 -7.48825e-05
0.000902747 -1.44481e-05 6.31244e-08
-1.44481e-05 -3.39678e-05 -4.1296e-08
6.31244e-08 -4.1296e-08 -3.90579e-05
0.000918694 -1.21539e-05 8.18648e-08
-1.21539e-05 -3.43531e-05 -2.71742e-08
8.18648e-08 -2.71742e-08 -3.79895e-05
0.00099544 -9.83716e-06 7.3046e-08
-9.83716e-06 4.49888e-06 -3.56433e-08
7.3046e-08 -3.56433e-08 -2.70865e-05
0.00100731 1.2242e-06 -6.18858e-08
1.2242e-06 3.18544e-06 -1.01334e-07
-6.18858e-08 -1.01334e-07 -4.67307e-05
0.00099124 1.72566e-06 -2.70111e-08
1.72566e-06 9.57864e-06 -3.89622e-08
-2.70111e-08 -3.89622e-08 -3.59765e-05
0.00114014 1.51066e-05 6.55411e-08
1.51066e-05 3.66858e-05 2.23434e-08
6.55411e-08 2.23434e-08 -2.05609e-05
0.000983349 -1.2143e-05 -3.73544e-08
-1.2143e-05 7.3545e-06 4.70508e-08
-3.73544e-08 4.70508e-08 -2.6375e-05
0.00104095 1.31472e-05 -5.09814e-08
1.31472e-05 1.4814e-05 -6.30223e-08
-5.09814e-08 -6.30223e-08 -3.85835e-05
0.00106104 5.38616e-06 3.99261e-08
5.38616e-06 4.14315e-05 -1.25968e-07
3.99261e-08 -1.25968e-07 -1.09172e-05
0.00111478 2.03127e-05 -4.3038e-07
2.03127e-05 5.21154e-05 4.75271e-08
-4.3038e-07 4.75271e-08 -6.29884e-06
0.000938767 -1.10719e-05 2.8246e-06
-1.10719e-05 -2.79663e-05 2.9019e-06
2.8246e-06 2.9019e-06 -3.0985e-05
0.00100014 -1.12431e-05 2.2996e-06
-1.12431e-05 1.00176e-05 1.42922e-06
2.2996e-06 1.42922e-06 -2.21445e-05
0.00100553 -9.00517e-06 1.97306e-06
-9.00517e-06 7.21084e-06 1.66875e-06
1.97306e-06 1.66875e-06 -2.39167e-05
0.00106165 -1.16883e-06 1.32752e-06
-1.16883e-06 3.29294e-05 7.63676e-07
1.32752e-06 7.63676e-07 -1.59824e-05
0.00113902 1.01886e-05 1.01815e-06
1.01886e-05 2.61201e-05 1.14414e-07
1.01815e-06 1.14414e-07 -3.15298e-05
0.00111434 1.56543e-05 9.76361e-07
1.56543e-05 3.97125e-05 6.21939e-07
9.76361e-07 6.21939e-07 -1.57275e-05
0.00118822 1.85357e-05 4.67037e-07
1.85357e-05 4.20294e-05 3.36876e-07
4.67037e-07 3.36876e-07 -1.91958e-05
0.0010792 3.60227e-06 1.21851e-06
3.60227e-06 4.71692e-05 9.08343e-07
1.21851e-06 9.08343e-07 -3.26134e-06
0.00110319 2.08959e-05 1.81592e-07
2.08959e-05 3.18737e-05 2.25548e-07
1.81592e-07 2.25548e-07 -2.64541e-05
0.00111244 1.91766e-05 7.87874e-07
1.91766e-05 6.13868e-05 -4.68183e-08
7.87874e-07 -4.68183e-08 6.71014e-07
0.00107018 2.27728e-05 2.86076e-07
2.27728e-05 2.3427e-05 -1.87812e-07
2.86076e-07 -1.87812e-07 -3.82054e-05
0.00101955 -5.30915e-06 1.08199e-06
-5.30915e-06 5.96725e-06 1.86516e-06
1.08199e-06 1.86516e-06 -2.22969e-05
0.00094584 -8.85149e-06 2.16128e-06
-8.85149e-06 -3.14245e-05 3.05859e-06
2.16128e-06 3.05859e-06 -3.30259e-05
0.00236618 -1.45592e-05 7.25102e-06
-1.45592e-05 0.000666331 3.76954e-06
7.25102e-06 3.76954e-06 0.000686993
0.00239958 -1.63999e-05 1.63104e-07
-1.63999e-05 0.000686442 -4.60033e-08
1.63104e-07 -4.60033e-08 0.000706329
0.00244741 -1.82686e-05 -8.11188e-06
-1.82686e-05 0.00071367 -3.58151e-06
-8.11188e-06 -3.58151e-06 0.000732704
0.000904519 1.18299e-05 2.92688e-06
1.18299e-05 -4.27646e-05 -2.82011e-06
2.92688e-06 -2.82011e-06 -4.68047e-05
0.00249811 2.00278e-05 8.58027e-06
2.00278e-05 0.000740884 -3.4524e-06
8.58027e-06 -3.4524e-06 0.000759083
0.000909786 1.29063e-05 -8.25319e-08
1.29063e-05 -3.68412e-05 -3.50399e-08
-8.25319e-08 -3.50399e-08 -4.16895e-05
0.00245141 2.18873e-05 -1.41037e-07
2.18873e-05 0.000723736 -6.10024e-08
-1.41037e-07 -6.10024e-08 0.000741195
0.000726569 -1.55713e-05 -4.80844e-06
-1.55713e-05 -7.17864e-05 -1.30685e-06
-4.80844e-06 -1.30685e-06 -0.000101128
0.000710377 -1.37841e-05 -4.75133e-06
-1.37841e-05 -5.84745e-05 -8.84434e-07
-4.75133e-06 -8.84434e-07 -9.44321e-05
0.00101616 -2.21468e-06 -1.96948e-06
-2.21468e-06 8.85712e-06 -3.78782e-07
-1.96948e-06 -3.78782e-07 -4.34866e-05
0.00104156 -1.44422e-05 -1.84518e-06
-1.44422e-05 2.58823e-05 -2.96963e-07
-1.84518e-06 -2.96963e-07 -3.02655e-05
0.000704545 -8.56602e-06 -4.98542e-06
-8.56602e-06 -5.18099e-05 -4.80167e-07
-4.98542e-06 -4.80167e-07 -9.27677e-05
0.00301957 3.58783e-06 -1.44983e-05
3.58783e-06 0.00113397 -1.73083e-08
-1.44983e-05 -1.73083e-08 0.00112518
0.000705259 3.19566e-06 -2.50682e-08
3.19566e-06 -5.26624e-05 -1.74152e-07
-2.50682e-08 -1.74152e-07 -9.37284e-05
0.00102785 -9.0194e-06 -4.06605e-08
-9.0194e-06 1.99967e-05 -7.56171e-08
-4.06605e-08 -7.56171e-08 -3.72543e-05
0.00101817 -8.65752e-06 -3.03563e-08
-8.65752e-06 1.30224e-05 -1.82933e-08
-3.03563e-08 -1.82933e-08 -4.11084e-05
0.00115855 -1.79855e-05 -1.7172e-08
-1.79855e-05 4.53432e-05 -7.38711e-08
-1.7172e-08 -7.38711e-08 -1.68056e-05
0.00101141 -3.21553e-07 -7.54973e-08
-3.21553e-07 4.40654e-06 -4.25893e-08
-7.54973e-08 -4.25893e-08 -4.65956e-05
0.00117582 1.24068e-06 -2.11598e-08
1.24068e-06 4.5107e-05 7.33439e-09
-2.11598e-08 7.33439e-09 -1.42624e-05
0.00103482 3.43067e-06 1.78819e-06
3.43067e-06 2.12915e-05 -1.73706e-07
1.78819e-06 -1.73706e-07 -3.60213e-05
0.00113932 -7.27598e-06 5.1327e-07
-7.27598e-06 4.18023e-05 -1.24461e-07
5.1327e-07 -1.24461e-07 -2.07299e-05
0.00116637 -8.09711e-06 8.45524e-07
-8.09711e-06 4.37338e-05 2.65493e-08
8.45524e-07 2.65493e-08 -1.71551e-05
0.00123768 -1.97983e-05 4.1556e-07
-1.97983e-05 6.61217e-05 -5.3382e-07
4.1556e-07 -5.3382e-07 1.81576e-06
0.00116341 6.06991e-06 7.69843e-07
6.06991e-06 3.64981e-05 5.42214e-08
7.69843e-07 5.42214e-08 -2.16372e-05
0.00123027 9.7617e-07 1.36593e-07
9.7617e-07 5.35812e-05 1.8673e-07
1.36593e-07 1.8673e-07 -7.84933e-06
0.000707992 1.63389e-05 -4.86119e-06
1.63389e-05 -5.5453e-05 4.02882e-07
-4.86119e-06 4.02882e-07 -9.50844e-05
0.00125252 1.40046e-05 -9.06953e-06
1.40046e-05 0.000191734 1.03897e-06
-9.06953e-06 1.03897e-06 0.000159673
0.00088104 1.32431e-05 -2.48966e-06
1.32431e-05 -6.68752e-05 3.11421e-07
-2.48966e-06 3.11421e-07 -0.000123917
0.00147028 -2.26546e-06 -2.45384e-06
-2.26546e-06 0.000216687 6.21869e-07
-2.45384e-06 6.21869e-07 0.000165422
0.00238242 2.36851e-05 -8.93296e-06
2.36851e-05 0.000698062 3.03252e-06
-8.93296e-06 3.03252e-06 0.000714489
0.00156681 1.86196e-05 -6.03526e-06
1.86196e-05 0.000301265 2.12091e-06
-6.03526e-06 2.12091e-06 0.000295452
0.0013996 7.36013e-06 -2.53567e-06
7.36013e-06 0.000214245 1.07546e-06
-2.53567e-06 1.07546e-06 0.000177717
0.00124166 2.85589e-06 -2.52471e-06
2.85589e-06 0.000122455 8.67268e-07
-2.52471e-06 8.67268e-07 7.44202e-05
0.00106251 -1.24414e-05 -1.0818e-06
-1.24414e-05 -1.6304e-05 7.31791e-07
-1.0818e-06 7.31791e-07 -7.66456e-05
0.00131432 -1.26677e-05 -6.38949e-07
-1.26677e-05 0.000126646 1.53373e-07
-6.38949e-07 1.53373e-07 7.19941e-05
0.000933005 -9.88257e-06 -9.15227e-07
-9.88257e-06 -3.33397e-05 3.97467e-07
-9.15227e-07 3.97467e-07 -8.85175e-05
0.001165 -1.95162e-05 -2.32428e-07
-1.95162e-05 4.6475e-05 -8.38535e-08
-2.32428e-07 -8.38535e-08 -1.23417e-05
0.000916836 1.41222e-05 -3.74997e-06
1.41222e-05 -2.92568e-05 2.4451e-06
-3.74997e-06 2.4451e-06 -3.50535e-05
0.000998489 9.11192e-06 -2.15002e-06
9.11192e-06 4.80134e-06 1.50645e-06
-2.15002e-06 1.50645e-06 -2.78206e-05
0.000936854 1.53366e-05 7.2621e-08
1.53366e-05 -3.03473e-05 2.81877e-08
7.2621e-08 2.81877e-08 -8.75383e-05
0.00128075 3.50245e-06 -3.89262e-07
3.50245e-06 0.00012357 8.44756e-08
-3.89262e-07 8.44756e-08 7.01557e-05
0.00130269 1.52361e-05 -4.15215e-07
1.52361e-05 9.76922e-05 2.56377e-08
-4.15215e-07 2.56377e-08 3.54109e-05
0.00127691 -9.93054e-06 2.23886e-07
-9.93054e-06 7.88898e-05 -1.9046e-07
2.23886e-07 -1.9046e-07 1.78566e-05
0.000891681 1.53181e-05 -3.52524e-08
1.53181e-05 -3.60676e-05 -3.44068e-08
-3.52524e-08 -3.44068e-08 -4.29871e-05
0.000977772 1.01821e-05 -9.00538e-09
1.01821e-05 7.07569e-06 1.4271e-08
-9.00538e-09 1.4271e-08 -2.93659e-05
0.000976214 -8.16224e-06 3.14643e-07
-8.16224e-06 -3.75481e-06 -2.63078e-07
3.14643e-07 -2.63078e-07 -5.67874e-05
0.00130077 -1.31419e-05 -2.02942e-07
-1.31419e-05 0.00011195 6.9996e-08
-2.02942e-07 6.9996e-08 5.57375e-05
0.0012404 -1.3509e-05 -1.76491e-07
-1.3509e-05 5.15782e-05 2.68081e-07
-1.76491e-07 2.68081e-07 -1.09951e-05
0.00119837 -2.12693e-05 -2.85727e-07
-2.12693e-05 7.55862e-05 1.17424e-07
-2.85727e-07 1.17424e-07 1.54681e-05
0.00119298 -1.81471e-05 4.90402e-08
-1.81471e-05 4.92464e-05 5.28947e-08
4.90402e-08 5.28947e-08 -9.27058e-06
0.00118323 -2.12835e-05 2.05734e-07
-2.12835e-05 4.51875e-05 2.07027e-07
2.05734e-07 2.07027e-07 -1.44401e-05
0.000988034 9.98754e-06 -2.78368e-08
9.98754e-06 2.43296e-06 -3.04097e-08
-2.78368e-08 -3.04097e-08 -3.07846e-05
0.00100235 -4.38749e-06 -3.30417e-08
-4.38749e-06 1.62002e-06 -5.22543e-08
-3.30417e-08 -5.22543e-08 -4.87856e-05
0.000999902 7.99746e-06 -9.38271e-08
7.99746e-06 3.26395e-06 -2.04744e-08
-9.38271e-08 -2.04744e-08 -2.8721e-05
0.00135285 2.1652e-05 5.08109e-07
2.1652e-05 0.000134047 9.33053e-08
5.08109e-07 9.33053e-08 7.16096e-05
0.00130405 4.66827e-06 9.17653e-07
4.66827e-06 8.97488e-05 -6.1392e-08
9.17653e-07 -6.1392e-08 2.78231e-05
0.00127968 1.6972e-05 5.14149e-07
1.6972e-05 6.83638e-05 3.83423e-08
5.14149e-07 3.83423e-08 2.53238e-06
0.00130714 -5.51054e-06 4.29158e-08
-5.51054e-06 7.23856e-05 -5.75526e-07
4.29158e-08 -5.75526e-07 7.52508e-06
0.00115461 -1.65935e-05 -7.57742e-08
-1.65935e-05 2.39352e-05 -2.58376e-07
-7.57742e-08 -2.58376e-07 -3.55465e-05
0.00130535 -1.23916e-05 -8.06486e-07
-1.23916e-05 7.25333e-05 -4.04562e-08
-8.06486e-07 -4.04562e-08 1.11834e-05
0.000963763 1.14289e-05 2.29278e-06
1.14289e-05 -4.51593e-06 -1.29237e-06
2.29278e-06 -1.29237e-06 -3.88974e-05
0.00120737 -1.92057e-05 -5.36429e-07
-1.92057e-05 4.73494e-05 2.17357e-07
-5.36429e-07 2.17357e-07 -1.12965e-05
0.00104637 -5.72772e-06 9.75044e-07
-5.72772e-06 3.04974e-05 -4.37374e-07
9.75044e-07 -4.37374e-07 -2.03966e-05
0.000988822 -1.96942e-05 7.06746e-07
-1.96942e-05 -9.92001e-06 -7.40576e-07
7.06746e-07 -7.40576e-07 -6.99424e-05
0.00125815 -2.40578e-05 3.94002e-07
-2.40578e-05 9.5568e-05 4.09145e-07
3.94002e-07 4.09145e-07 3.23459e-05
0.00134988 -2.32544e-05 -8.28834e-07
-2.32544e-05 0.000120096 1.24877e-06
-8.28834e-07 1.24877e-06 6.26478e-05
0.0010044 6.79939e-06 1.59668e-06
6.79939e-06 3.24584e-06 -1.70406e-06
1.59668e-06 -1.70406e-06 -2.79235e-05
0.00106208 -4.36268e-06 1.30227e-06
-4.36268e-06 3.25186e-05 -6.23916e-07
1.30227e-06 -6.23916e-07 -1.7246e-05
0.000923593 -3.99468e-06 1.44993e-06
-3.99468e-06 -3.58412e-05 -1.31248e-06
1.44993e-06 -1.31248e-06 -8.7263e-05
0.00124413 -1.88374e-05 3.54397e-07
-1.88374e-05 0.000117029 2.0639e-07
3.54397e-07 2.0639e-07 5.93974e-05
0.00102001 1.9981e-06 -2.24672e-06
1.9981e-06 9.27333e-06 -6.59533e-07
-2.24672e-06 -6.59533e-07 -4.07343e-05
0.000904998 -1.21247e-05 -2.95795e-06
-1.21247e-05 -4.11324e-05 -2.85772e-06
-2.95795e-06 -2.85772e-06 -4.46828e-05
0.000885296 -1.44036e-05 -3.6004e-06
-1.44036e-05 -4.2522e-05 -2.55945e-06
-3.6004e-06 -2.55945e-06 -4.75197e-05
0.000989862 -9.60244e-06 -2.09866e-06
-9.60244e-06 1.61414e-06 -1.61775e-06
-2.09866e-06 -1.61775e-06 -2.99362e-05
0.000982758 1.24356e-06 -2.27057e-06
1.24356e-06 7.2728e-06 -1.08877e-06
-2.27057e-06 -1.08877e-06 -3.84588e-05
0.00114982 1.5398e-05 -9.37962e-07
1.5398e-05 4.11187e-05 -3.89539e-07
-9.37962e-07 -3.89539e-07 -1.61725e-05
0.000962847 -1.23529e-05 -2.32081e-06
-1.23529e-05 -2.20687e-06 -1.44553e-06
-2.32081e-06 -1.44553e-06 -3.59137e-05
0.00105589 5.20899e-06 -1.13056e-06
5.20899e-06 3.93141e-05 -8.89248e-07
-1.13056e-06 -8.89248e-07 -1.31604e-05
0.00110129 1.40796e-05 -9.65241e-07
1.40796e-05 4.37665e-05 -4.57861e-07
-9.65241e-07 -4.57861e-07 -9.38838e-06
0.0010258 1.98002e-05 -1.21117e-06
1.98002e-05 9.14007e-06 -1.5826e-07
-1.21117e-06 -1.5826e-07 -4.96854e-05
0.000926614 -1.10444e-05 7.77439e-08
-1.10444e-05 -3.39477e-05 -2.09763e-08
7.77439e-08 -2.09763e-08 -3.68936e-05
0.000989949 -1.10142e-05 3.78229e-08
-1.10142e-05 5.03933e-06 -2.18629e-08
3.78229e-08 -2.18629e-08 -2.70899e-05
0.00100098 -8.79829e-06 6.72354e-08
-8.79829e-06 4.88242e-06 -2.21285e-08
6.72354e-08 -2.21285e-08 -2.62146e-05
0.00105826 -1.47729e-06 6.97514e-08
-1.47729e-06 3.16127e-05 -4.27583e-08
6.97514e-08 -4.27583e-08 -1.73695e-05
0.00116377 1.0644e-05 1.80846e-07
1.0644e-05 3.76355e-05 4.45743e-08
1.80846e-07 4.45743e-08 -2.00863e-05
0.00110872 1.59633e-05 2.71115e-08
1.59633e-05 3.71927e-05 7.8709e-09
2.71115e-08 7.8709e-09 -1.82459e-05
0.00119794 1.8597e-05 3.15904e-09
1.8597e-05 4.63696e-05 1.64316e-07
3.15904e-09 1.64316e-07 -1.4891e-05
0.0010623 2.45745e-06 -7.63838e-08
2.45745e-06 4.00181e-05 2.43881e-08
-7.63838e-08 2.43881e-08 -1.04765e-05
0.00119312 2.16032e-05 -2.20991e-07
2.16032e-05 7.54145e-05 -3.18995e-07
-2.20991e-07 -3.18995e-07 1.74495e-05
0.00111954 1.96797e-05 1.1309e-07
1.96797e-05 6.4462e-05 -2.16101e-07
1.1309e-07 -2.16101e-07 3.55441e-06
0.00107558 2.26233e-05 -7.46513e-07
2.26233e-05 2.75527e-05 -9.36556e-08
-7.46513e-07 -9.36556e-08 -3.3134e-05
0.000946378 -9.95963e-06 2.50243e-06
-9.95963e-06 -2.77855e-05 2.98841e-06
2.50243e-06 2.98841e-06 -3.00977e-05
0.00100861 -7.82333e-06 1.77039e-06
-7.82333e-06 6.56417e-06 1.74929e-06
1.77039e-06 1.74929e-06 -2.3969e-05
0.00107208 1.56765e-06 1.36629e-06
1.56765e-06 3.88356e-05 7.61239e-07
1.36629e-06 7.61239e-07 -1.01666e-05
0.00106039 -2.393e-06 1.18791e-06
-2.393e-06 3.20678e-05 9.41591e-07
1.18791e-06 9.41591e-07 -1.68321e-05
0.00109009 9.91046e-06 8.79005e-07
9.91046e-06 4.60302e-05 1.73809e-07
8.79005e-07 1.73809e-07 -1.30683e-05
0.00119496 1.00703e-05 4.94997e-07
1.00703e-05 3.50095e-05 -2.18882e-07
4.94997e-07 -2.18882e-07 -2.51687e-05
0.00116589 2.15299e-05 3.94408e-07
2.15299e-05 4.91394e-05 6.28224e-07
3.94408e-07 6.28224e-07 -1.11435e-05
0.00124476 1.87994e-05 -3.71573e-07
1.87994e-05 6.09166e-05 1.71443e-07
-3.71573e-07 1.71443e-07 -1.38635e-06
0.00112708 1.66355e-05 1.10064e-06
1.66355e-05 6.91345e-05 1.0413e-06
1.10064e-06 1.0413e-06 8.87091e-06
0.00115731 2.42183e-05 6.24791e-07
2.42183e-05 5.26886e-05 2.74558e-07
6.24791e-07 2.74558e-07 -8.46144e-06
0.000936625 2.21324e-05 9.36826e-07
2.21324e-05 -2.96036e-05 -2.9479e-07
9.36826e-07 -2.9479e-07 -9.7455e-05
0.00101716 -6.02773e-06 1.33871e-06
-6.02773e-06 6.94809e-06 1.85866e-06
1.33871e-06 1.85866e-06 -2.22069e-05
0.00106706 1.56179e-06 6.07047e-07
1.56179e-06 3.23429e-05 1.14576e-06
6.07047e-07 1.14576e-06 -1.39458e-05
0.00102168 -4.44412e-06 8.754e-07
-4.44412e-06 4.66735e-06 1.85934e-06
8.754e-07 1.85934e-06 -2.2838e-05
0.00101837 -5.2702e-06 5.60277e-08
-5.2702e-06 5.35262e-06 4.27741e-09
5.60277e-08 4.27741e-09 -2.28831e-05
0.00153718 -8.74116e-06 1.65019e-06
-8.74116e-06 0.00025416 1.91149e-06
1.65019e-06 1.91149e-06 0.000256253
0.00124275 -9.36538e-06 2.88047e-07
-9.36538e-06 0.000113858 4.31569e-09
2.88047e-07 4.31569e-09 0.000113725
0.0011899 -1.06223e-05 6.9005e-06
-1.06223e-05 8.69271e-05 6.24807e-06
6.9005e-06 6.24807e-06 0.000102425
0.00238758 -1.45687e-05 1.86367e-07
-1.45687e-05 0.000676463 -4.0748e-08
1.86367e-07 -4.0748e-08 0.000697086
0.00242921 -1.64235e-05 -7.59334e-06
-1.64235e-05 0.000700609 -3.69653e-06
-7.59334e-06 -3.69653e-06 0.000720417
0.000913866 1.0826e-05 2.60787e-06
1.0826e-05 -4.14433e-05 -2.89444e-06
2.60787e-06 -2.89444e-06 -4.48129e-05
0.00247645 1.81463e-05 8.14134e-06
1.81463e-05 0.000726189 -3.57866e-06
8.14134e-06 -3.57866e-06 0.000745182
0.000918582 1.18537e-05 -8.31936e-08
1.18537e-05 -3.58306e-05 -2.50932e-08
-8.31936e-08 -2.50932e-08 -3.99617e-05
0.00245118 1.99838e-05 -1.48115e-07
1.99838e-05 0.000718436 -5.63606e-08
-1.48115e-07 -5.63606e-08 0.000736761
0.000923583 1.2942e-05 -3.47048e-06
1.2942e-05 -2.99394e-05 2.62089e-06
-3.47048e-06 2.62089e-06 -3.48859e-05
0.00239234 2.18357e-05 -8.7864e-06
2.18357e-05 0.000695738 3.2187e-06
-8.7864e-06 3.2187e-06 0.000713319
0.00102276 4.0525e-07 -2.12951e-06
4.0525e-07 9.58799e-06 -4.43265e-07
-2.12951e-06 -4.43265e-07 -4.14557e-05
0.00102102 -7.97166e-06 -1.87723e-06
-7.97166e-06 1.41165e-05 -3.43198e-07
-1.87723e-06 -3.43198e-07 -4.00256e-05
0.001175 -5.65858e-07 -7.51148e-07
-5.65858e-07 4.51383e-05 -1.03818e-07
-7.51148e-07 -1.03818e-07 -1.42875e-05
0.00117927 -1.86646e-05 -8.35396e-07
-1.86646e-05 5.45141e-05 3.54335e-08
-8.35396e-07 3.54335e-08 -7.70947e-06
0.00104272 -6.73574e-06 -1.79352e-06
-6.73574e-06 2.66703e-05 -1.32374e-07
-1.79352e-06 -1.32374e-07 -3.05933e-05
0.00069798 5.09577e-06 -4.89597e-06
5.09577e-06 -5.59408e-05 -1.80384e-08
-4.89597e-06 -1.80384e-08 -9.70415e-05
0.00102887 4.54639e-06 4.63858e-08
4.54639e-06 1.8736e-05 -5.72027e-08
4.63858e-08 -5.72027e-08 -3.8541e-05
0.00115563 -7.24268e-06 -6.22451e-08
-7.24268e-06 4.91692e-05 3.39102e-08
-6.22451e-08 3.39102e-08 -1.34119e-05
0.00116881 -1.11822e-05 1.07446e-08
-1.11822e-05 4.49296e-05 -5.45147e-08
1.07446e-08 -5.45147e-08 -1.603e-05
0.00124453 -1.99573e-05 -4.80998e-08
-1.99573e-05 6.95794e-05 -9.35308e-08
-4.80998e-08 -9.35308e-08 5.36042e-06
0.00117343 6.15597e-06 -4.0062e-08
6.15597e-06 4.13503e-05 2.287e-08
-4.0062e-08 2.287e-08 -1.68278e-05
0.00123444 6.41243e-08 1.68032e-08
6.41243e-08 5.60354e-05 7.24887e-08
1.68032e-08 7.24887e-08 -5.37467e-06
0.00117441 1.19412e-05 7.89687e-07
1.19412e-05 5.68363e-05 6.9285e-08
7.89687e-07 6.9285e-08 -6.18616e-06
0.00119494 -1.02627e-05 1.72183e-07
-1.02627e-05 5.83506e-05 -3.89954e-07
1.72183e-07 -3.89954e-07 -5.30777e-06
0.00122067 -8.76997e-06 3.6608e-07
-8.76997e-06 5.15486e-05 -1.8599e-07
3.6608e-07 -1.8599e-07 -1.18679e-05
0.00128309 -2.01012e-05 7.7147e-07
-2.01012e-05 7.86792e-05 -4.61227e-07
7.7147e-07 -4.61227e-07 1.39302e-05
0.00122381 3.2118e-06 3.53441e-08
3.2118e-06 4.83457e-05 -7.61264e-08
3.53441e-08 -7.61264e-08 -1.1492e-05
0.00132799 -6.81272e-06 -5.51683e-07
-6.81272e-06 8.91454e-05 4.72753e-07
-5.51683e-07 4.72753e-07 2.99066e-05
0.000862952 1.53987e-05 -1.85968e-06
1.53987e-05 -6.63824e-05 1.25482e-07
-1.85968e-06 1.25482e-07 -0.000124069
0.00127851 9.10478e-07 -2.4938e-06
9.10478e-07 0.000122214 4.37917e-07
-2.4938e-06 4.37917e-07 6.88531e-05
0.00123788 2.00393e-05 -1.3929e-06
2.00393e-05 6.70795e-05 2.21798e-09
-1.3929e-06 2.21798e-09 4.56803e-06
0.00141126 -1.08404e-05 -6.67932e-07
-1.08404e-05 0.000144645 1.31409e-07
-6.67932e-07 1.31409e-07 8.44935e-05
0.000912169 1.53653e-05 -3.96257e-06
1.53653e-05 -2.60558e-05 2.27276e-06
-3.96257e-06 2.27276e-06 -3.30995e-05
0.000998861 9.12019e-06 -2.20345e-06
9.12019e-06 1.63615e-05 1.14215e-06
-2.20345e-06 1.14215e-06 -2.00072e-05
0.00105627 -8.20966e-06 -6.44255e-07
-8.20966e-06 3.51641e-05 3.21376e-07
-6.44255e-07 3.21376e-07 -1.73354e-05
0.00134461 -1.34024e-05 -7.49345e-07
-1.34024e-05 0.000132313 3.17836e-07
-7.49345e-07 3.17836e-07 7.62362e-05
0.00115925 -1.23041e-05 -4.53721e-10
-1.23041e-05 1.18831e-05 6.9339e-07
-4.53721e-10 6.9339e-07 -5.07403e-05
0.00119195 -1.80408e-05 6.71421e-09
-1.80408e-05 4.86432e-05 5.2732e-08
6.71421e-09 5.2732e-08 -9.82913e-06
0.00105243 -2.00119e-05 -7.16822e-07
-2.00119e-05 6.01177e-06 3.12491e-07
-7.16822e-07 3.12491e-07 -5.46748e-05
0.00113971 -2.07322e-05 3.60864e-07
-2.07322e-05 2.40415e-05 -4.08559e-07
3.60864e-07 -4.08559e-07 -3.55363e-05
0.000997751 1.01069e-05 -2.24913e-06
1.01069e-05 7.30775e-06 1.34296e-06
-2.24913e-06 1.34296e-06 -2.59341e-05
0.000942638 -3.79108e-06 -1.30182e-06
-3.79108e-06 -2.84213e-05 6.80021e-07
-1.30182e-06 6.80021e-07 -7.90986e-05
0.00100214 8.29904e-06 -1.90779e-06
8.29904e-06 4.66268e-06 1.65369e-06
-1.90779e-06 1.65369e-06 -2.73717e-05
0.00123988 2.06844e-05 -3.77714e-07
2.06844e-05 8.04156e-05 -3.2496e-08
-3.77714e-07 -3.2496e-08 1.76336e-05
0.00130526 -3.95668e-07 -1.69522e-07
-3.95668e-07 9.02889e-05 2.61388e-08
-1.69522e-07 2.61388e-08 2.8402e-05
0.00124276 1.92288e-05 -2.7769e-07
1.92288e-05 4.90302e-05 -8.25492e-08
-2.7769e-07 -8.25492e-08 -1.7279e-05
0.0013339 -4.32019e-06 -2.03284e-08
-4.32019e-06 8.54261e-05 -2.24398e-07
-2.03284e-08 -2.24398e-07 2.07742e-05
0.000981189 1.09488e-05 -1.64859e-09
1.09488e-05 3.64457e-06 -1.20043e-08
-1.64859e-09 -1.20043e-08 -3.07228e-05
0.0010614 -5.67445e-06 5.86016e-08
-5.67445e-06 3.68758e-05 3.21578e-09
5.86016e-08 3.21578e-09 -1.39498e-05
0.00106538 -2.01164e-05 1.62455e-07
-2.01164e-05 2.78451e-05 -2.537e-07
1.62455e-07 -2.537e-07 -3.17059e-05
0.00124338 -1.70886e-05 2.08468e-08
-1.70886e-05 6.69018e-05 -9.66228e-08
2.08468e-08 -9.66228e-08 7.55365e-06
0.00125296 -1.23338e-05 1.06972e-07
-1.23338e-05 4.69657e-05 3.645e-07
1.06972e-07 3.645e-07 -1.38899e-05
0.00117826 -2.35625e-05 3.53704e-08
-2.35625e-05 5.83861e-05 1.10493e-07
3.53704e-08 1.10493e-07 -5.51027e-06
0.00121374 -1.88262e-05 3.6475e-08
-1.88262e-05 4.9899e-05 8.23587e-08
3.6475e-08 8.23587e-08 -8.6539e-06
0.00128236 -2.25086e-05 3.26889e-07
-2.25086e-05 8.72612e-05 3.11775e-07
3.26889e-07 3.11775e-07 3.0463e-05
0.00106491 -4.61519e-06 3.24768e-08
-4.61519e-06 3.30758e-05 -4.01676e-08
3.24768e-08 -4.01676e-08 -1.65368e-05
0.00114416 -1.80125e-05 -3.09283e-07
-1.80125e-05 6.78368e-05 2.20936e-07
-3.09283e-07 2.20936e-07 9.71404e-06
0.00100418 6.96684e-06 -5.10634e-08
6.96684e-06 3.36956e-06 -2.32915e-09
-5.10634e-08 -2.32915e-09 -2.78514e-05
0.000927102 -3.79368e-06 3.21407e-07
-3.79368e-06 -3.46221e-05 -3.3873e-07
3.21407e-07 -3.3873e-07 -8.59932e-05
0.00126388 2.11394e-05 7.24845e-07
2.11394e-05 7.50728e-05 1.92006e-07
7.24845e-07 1.92006e-07 8.84581e-06
0.00142526 6.19304e-06 2.65322e-07
6.19304e-06 0.000122028 -3.9979e-08
2.65322e-07 -3.9979e-08 5.61347e-05
0.0011655 1.93875e-05 1.23445e-07
1.93875e-05 4.31644e-06 2.9941e-08
1.23445e-07 2.9941e-08 -6.43644e-05
0.00125924 -1.01985e-06 -6.46503e-07
-1.01985e-06 3.76712e-05 -9.27637e-07
-6.46503e-07 -9.27637e-07 -2.61743e-05
0.00122012 -1.66173e-05 -8.85921e-07
-1.66173e-05 4.53418e-05 6.52944e-08
-8.85921e-07 6.52944e-08 -1.31003e-05
0.00131702 -1.07063e-05 -5.49518e-07
-1.07063e-05 6.83813e-05 -1.3827e-07
-5.49518e-07 -1.3827e-07 1.05063e-05
0.00105403 -3.6951e-06 1.15739e-06
-3.6951e-06 3.15101e-05 -4.80043e-07
1.15739e-06 -4.80043e-07 -1.83614e-05
0.00119961 -1.84579e-05 -1.43403e-06
-1.84579e-05 3.727e-05 5.22722e-07
-1.43403e-06 5.22722e-07 -1.72072e-05
0.000981281 -1.88631e-05 5.4998e-07
-1.88631e-05 -9.24062e-06 -4.87701e-07
5.4998e-07 -4.87701e-07 -6.70408e-05
0.00114883 -2.35304e-05 5.53462e-07
-2.35304e-05 6.35531e-05 -4.84903e-07
5.53462e-07 -4.84903e-07 -1.80848e-06
0.00122305 -2.55701e-05 4.57162e-07
-2.55701e-05 7.4657e-05 1.42163e-06
4.57162e-07 1.42163e-06 9.34512e-06
0.0013516 -2.31855e-05 -4.99338e-07
-2.31855e-05 0.000113444 8.50777e-07
-4.99338e-07 8.50777e-07 5.81215e-05
0.00101028 6.69056e-06 1.27364e-06
6.69056e-06 5.1935e-06 -1.73557e-06
1.27364e-06 -1.73557e-06 -2.5432e-05
0.000901262 -4.48712e-06 1.30678e-06
-4.48712e-06 -4.68056e-05 -1.52285e-06
1.30678e-06 -1.52285e-06 -9.80505e-05
0.00111212 -1.8163e-05 6.59673e-07
-1.8163e-05 5.02231e-05 5.48493e-08
6.59673e-07 5.48493e-08 -6.54435e-06
0.00115884 -1.73769e-05 7.33942e-07
-1.73769e-05 7.9272e-05 -7.32981e-08
7.33942e-07 -7.32981e-08 1.88288e-05
0.00121814 -2.2028e-05 3.12835e-07
-2.2028e-05 9.93838e-05 2.97914e-07
3.12835e-07 2.97914e-07 3.78299e-05
0.000914595 -1.10157e-05 -2.64178e-06
-1.10157e-05 -3.98706e-05 -2.95879e-06
-2.64178e-06 -2.95879e-06 -4.2743e-05
0.00118794 1.11017e-05 -7.15689e-07
1.11017e-05 4.8905e-05 -5.8192e-08
-7.15689e-07 -5.8192e-08 -8.89249e-06
0.000996131 -8.60322e-06 -1.88471e-06
-8.60322e-06 2.40674e-06 -1.72429e-06
-1.88471e-06 -1.72429e-06 -2.86587e-05
0.000979266 -1.07731e-05 -2.28774e-06
-1.07731e-05 -1.73407e-07 -1.48839e-06
-2.28774e-06 -1.48839e-06 -3.22689e-05
0.00105498 -1.77989e-06 -1.22811e-06
-1.77989e-06 3.03546e-05 -9.06798e-07
-1.22811e-06 -9.06798e-07 -1.86982e-05
0.00110293 1.63105e-05 -9.41326e-07
1.63105e-05 3.45988e-05 -6.14069e-07
-9.41326e-07 -6.14069e-07 -2.08397e-05
0.00120792 1.86433e-05 -3.81393e-07
1.86433e-05 5.083e-05 1.48783e-08
-3.81393e-07 1.48783e-08 -1.04667e-05
0.00104648 1.20465e-06 -1.21019e-06
1.20465e-06 3.34035e-05 -7.97232e-07
-1.21019e-06 -7.97232e-07 -1.71598e-05
0.00112811 2.01528e-05 -9.12108e-07
2.01528e-05 6.82302e-05 -6.40751e-07
-9.12108e-07 -6.40751e-07 7.13007e-06
0.00128203 2.23302e-05 -8.00638e-07
2.23302e-05 0.000118459 -6.72085e-07
-8.00638e-07 -6.72085e-07 6.0858e-05
0.0010836 2.24939e-05 -1.74072e-06
2.24939e-05 3.28718e-05 3.42381e-07
-1.74072e-06 3.42381e-07 -2.68669e-05
0.000935193 -9.93671e-06 8.53647e-08
-9.93671e-06 -3.32131e-05 -1.83546e-08
8.53647e-08 -1.83546e-08 -3.54669e-05
0.0010058 -7.65195e-06 4.59918e-08
-7.65195e-06 5.05544e-06 -1.29785e-08
4.59918e-08 -1.29785e-08 -2.54544e-05
0.00106252 6.68966e-07 -1.2303e-08
6.68966e-07 3.49981e-05 -7.15535e-10
-1.2303e-08 -7.15535e-10 -1.40782e-05
0.00105856 -2.53068e-06 2.96304e-08
-2.53068e-06 3.13705e-05 -1.36991e-08
2.96304e-08 -1.36991e-08 -1.75832e-05
0.00105424 9.19724e-06 7.62007e-08
9.19724e-06 2.86443e-05 -1.01436e-07
7.62007e-08 -1.01436e-07 -3.0597e-05
0.00121792 1.05558e-05 2.63673e-07
1.05558e-05 4.53719e-05 1.87816e-08
2.63673e-07 1.87816e-08 -1.49104e-05
0.00116507 2.17066e-05 3.52691e-08
2.17066e-05 4.89996e-05 8.69412e-08
3.52691e-08 8.69412e-08 -1.1314e-05
0.00122315 1.95599e-05 2.27831e-07
1.95599e-05 5.10055e-05 2.89569e-07
2.27831e-07 2.89569e-07 -1.15882e-05
0.00111039 1.72541e-05 3.05571e-07
1.72541e-05 6.16243e-05 3.23146e-07
3.05571e-07 3.23146e-07 1.38195e-06
0.00120896 2.43541e-05 1.7124e-07
2.43541e-05 7.76506e-05 -2.59335e-07
1.7124e-07 -2.59335e-07 1.67434e-05
0.00103859 2.2981e-05 -4.854e-07
2.2981e-05 1.76373e-05 -3.26806e-07
-4.854e-07 -3.26806e-07 -4.95845e-05
0.00101258 -6.75611e-06 1.59666e-06
-6.75611e-06 6.53884e-06 1.81058e-06
1.59666e-06 1.81058e-06 -2.3371e-05
0.00106268 -1.5321e-06 1.11438e-06
-1.5321e-06 3.20349e-05 1.03445e-06
1.11438e-06 1.03445e-06 -1.66358e-05
0.00106545 1.37433e-05 7.05193e-07
1.37433e-05 3.38681e-05 2.46522e-07
7.05193e-07 2.46522e-07 -2.52214e-05
0.00109686 6.38416e-06 7.08929e-07
6.38416e-06 5.03515e-05 3.55854e-07
7.08929e-07 3.55854e-07 -9.43546e-06
0.00118447 1.81236e-05 2.74015e-07
1.81236e-05 9.21209e-05 -2.66269e-07
2.74015e-07 -2.66269e-07 2.80978e-05
0.00121901 7.7715e-06 -5.50969e-07
7.7715e-06 3.43759e-05 -9.2724e-07
-5.50969e-07 -9.2724e-07 -2.45808e-05
0.00119155 2.47605e-05 3.04058e-07
2.47605e-05 5.52124e-05 4.94029e-07
3.04058e-07 4.94029e-07 -7.45254e-06
0.00109142 2.26467e-05 -6.51373e-07
2.26467e-05 -1.1014e-05 -5.15348e-07
-6.51373e-07 -5.15348e-07 -6.96095e-05
0.00110993 2.29379e-05 5.69528e-07
2.29379e-05 6.19317e-05 1.15955e-06
5.69528e-07 1.15955e-06 -6.4011e-06
0.00119996 2.64807e-05 1.41755e-06
2.64807e-05 7.92498e-05 -5.42521e-08
1.41755e-06 -5.42521e-08 9.39374e-06
0.00101397 -5.96863e-06 7.70029e-08
-5.96863e-06 5.32192e-06 -2.47473e-09
7.70029e-08 -2.47473e-09 -2.37921e-05
0.000906086 -2.47915e-07 9.504e-07
-2.47915e-07 -4.54416e-05 1.63044e-06
9.504e-07 1.63044e-06 -9.41907e-05
0.000986263 6.5853e-07 -1.65607e-08
6.5853e-07 -6.90361e-06 2.83457e-08
-1.65607e-08 2.83457e-08 -5.38501e-05
0.00125431 8.63328e-06 2.64671e-07
8.63328e-06 0.000129812 2.79941e-07
2.64671e-07 2.79941e-07 7.22715e-05
0.00106902 1.2847e-06 5.06455e-07
1.2847e-06 3.27627e-05 1.12748e-06
5.06455e-07 1.12748e-06 -1.28359e-05
0.0010256 -3.51502e-06 6.72518e-07
-3.51502e-06 4.45592e-06 1.86541e-06
6.72518e-07 1.86541e-06 -2.25931e-05
0.00102387 -4.43409e-06 5.3549e-08
-4.43409e-06 5.76705e-06 1.47697e-09
5.3549e-08 1.47697e-09 -2.17403e-05
0.00153584 -7.2907e-06 1.34437e-06
-7.2907e-06 0.000250021 1.92489e-06
1.34437e-06 1.92489e-06 0.000252836
0.00101755 -5.23214e-06 -9.69328e-07
-5.23214e-06 4.92619e-06 -1.84576e-06
-9.69328e-07 -1.84576e-06 -2.32837e-05
0.00155307 -8.46628e-06 -1.10491e-06
-8.46628e-06 0.000262029 -1.20809e-06
-1.10491e-06 -1.20809e-06 0.000264068
0.00121152 -9.10575e-06 6.04354e-06
-9.10575e-06 9.27189e-05 6.30493e-06
6.04354e-06 6.30493e-06 0.000109
0.00153973 -9.54494e-06 -3.5719e-06
-9.54494e-06 0.000259163 -3.03945e-06
-3.5719e-06 -3.03945e-06 0.000260509
0.00176131 -1.16953e-05 4.16368e-06
-1.16953e-05 0.000366102 2.33026e-06
4.16368e-06 2.33026e-06 0.000384652
0.00240906 -1.45799e-05 -6.9715e-06
-1.45799e-05 0.000686647 -3.79115e-06
-6.9715e-06 -3.79115e-06 0.000707228
0.000923239 9.95874e-06 2.17199e-06
9.95874e-06 -4.01749e-05 -2.9747e-06
2.17199e-06 -2.9747e-06 -4.27418e-05
0.000927365 1.08447e-05 -7.75713e-08
1.08447e-05 -3.49183e-05 -1.88114e-08
-7.75713e-08 -1.88114e-08 -3.83527e-05
0.00245132 1.62817e-05 7.61398e-06
1.62817e-05 0.000709783 -3.68562e-06
7.61398e-06 -3.68562e-06 0.000729571
0.00244173 1.81148e-05 -1.52149e-07
1.81148e-05 0.000709536 -5.01564e-08
-1.52149e-07 -5.01564e-08 0.000728627
0.000932581 1.18787e-05 -3.13705e-06
1.18787e-05 -2.89306e-05 2.76646e-06
-3.13705e-06 2.76646e-06 -3.3152e-05
0.0024043 1.9954e-05 -8.58774e-06
1.9954e-05 0.00069603 3.39474e-06
-8.58774e-06 3.39474e-06 0.000714478
0.00118409 6.37307e-06 -8.3639e-07
6.37307e-06 4.65036e-05 -1.95125e-08
-8.3639e-07 -1.95125e-08 -1.17182e-05
0.0011714 -1.09301e-05 -7.66441e-07
-1.09301e-05 4.61033e-05 -1.24175e-07
-7.66441e-07 -1.24175e-07 -1.4883e-05
0.00123728 1.34264e-07 3.32032e-09
1.34264e-07 5.78342e-05 -2.69806e-08
3.32032e-09 -2.69806e-08 -3.53637e-06
0.00124732 -2.01246e-05 -3.99435e-07
-2.01246e-05 7.11565e-05 3.38242e-07
-3.99435e-07 3.38242e-07 7.02259e-06
0.00117199 -6.86714e-06 -6.94763e-07
-6.86714e-06 5.65685e-05 1.83273e-07
-6.94763e-07 1.83273e-07 -6.06277e-06
0.00102273 8.43131e-06 -1.67647e-06
8.43131e-06 1.61012e-05 5.83457e-08
-1.67647e-06 5.83457e-08 -4.11398e-05
0.0011643 1.24792e-05 9.07216e-08
1.24792e-05 5.26016e-05 4.00908e-08
9.07216e-08 4.00908e-08 -1.03769e-05
0.00118985 -1.43423e-05 -1.001e-08
-1.43423e-05 5.68614e-05 -6.92624e-08
-1.001e-08 -6.92624e-08 -6.72832e-06
0.0012336 -1.00994e-05 7.10981e-08
-1.00994e-05 5.76957e-05 -1.60033e-07
7.10981e-08 -1.60033e-07 -5.72344e-06
0.00129897 -2.03235e-05 -2.71281e-08
-2.03235e-05 8.54276e-05 -1.34253e-07
-2.71281e-08 -1.34253e-07 2.03499e-05
0.00122766 3.70733e-06 -5.75203e-08
3.70733e-06 5.03286e-05 9.30905e-08
-5.75203e-08 9.30905e-08 -9.57421e-06
0.00130476 -7.05278e-06 6.09737e-08
-7.05278e-06 7.76849e-05 2.40069e-07
6.09737e-08 2.40069e-07 1.84063e-05
0.00125789 5.18297e-06 4.20176e-07
5.18297e-06 8.80391e-05 4.51941e-07
4.20176e-07 4.51941e-07 2.36304e-05
0.00115141 -7.84908e-06 3.52314e-07
-7.84908e-06 4.04825e-05 -7.28936e-07
3.52314e-07 -7.28936e-07 -2.36604e-05
0.0011921 -1.33744e-05 4.30448e-07
-1.33744e-05 2.54077e-05 3.37415e-07
4.30448e-07 3.37415e-07 -3.79172e-05
0.00140686 -2.1953e-05 3.26897e-07
-2.1953e-05 0.000136532 -3.38621e-07
3.26897e-07 -3.38621e-07 6.99809e-05
0.00120807 -3.48642e-07 -6.86004e-07
-3.48642e-07 2.71781e-05 -5.94701e-08
-6.86004e-07 -5.94701e-08 -2.98984e-05
0.00143147 -1.28089e-05 -5.52283e-07
-1.28089e-05 0.000130427 2.05597e-07
-5.52283e-07 2.05597e-07 7.31741e-05
0.00112304 1.96696e-05 -1.1978e-06
1.96696e-05 2.50281e-05 -1.96269e-07
-1.1978e-06 -1.96269e-07 -3.81034e-05
0.0013058 -2.7055e-06 -1.24502e-06
-2.7055e-06 9.05868e-05 2.63404e-07
-1.24502e-06 2.63404e-07 2.86821e-05
0.00120679 1.96685e-05 -8.29474e-07
1.96685e-05 3.01032e-05 -9.08555e-08
-8.29474e-07 -9.08555e-08 -3.6653e-05
0.00136088 -3.62023e-06 -1.89157e-07
-3.62023e-06 9.85513e-05 1.53488e-07
-1.89157e-07 1.53488e-07 3.41211e-05
0.000997811 1.05767e-05 -2.23827e-06
1.05767e-05 1.14417e-05 1.20134e-06
-2.23827e-06 1.20134e-06 -2.29163e-05
0.00107563 -5.9213e-06 -1.00298e-06
-5.9213e-06 4.28737e-05 5.36116e-07
-1.00298e-06 5.36116e-07 -7.88305e-06
0.00113842 -2.04899e-05 -2.79764e-07
-2.04899e-05 6.40155e-05 2.38457e-07
-2.79764e-07 2.38457e-07 4.93253e-06
0.00133194 -1.75345e-05 1.24313e-07
-1.75345e-05 0.000109755 5.888e-08
1.24313e-07 5.888e-08 5.05439e-05
0.00120268 -1.22673e-05 7.90858e-07
-1.22673e-05 2.23773e-05 6.09188e-07
7.90858e-07 6.09188e-07 -3.79827e-05
0.00122022 -1.84528e-05 6.14531e-07
-1.84528e-05 5.25034e-05 -6.10698e-08
6.14531e-07 -6.10698e-08 -5.95618e-06
0.00109732 -2.3069e-05 -4.53986e-07
-2.3069e-05 2.07392e-05 -4.48214e-08
-4.53986e-07 -4.48214e-08 -4.38343e-05
0.00121474 -2.17761e-05 9.87682e-07
-2.17761e-05 5.4425e-05 -1.38939e-06
9.87682e-07 -1.38939e-06 -1.72782e-06
0.00106707 -4.85175e-06 -1.24363e-06
-4.85175e-06 3.33188e-05 5.35362e-07
-1.24363e-06 5.35362e-07 -1.61411e-05
0.00104344 -1.71862e-05 -1.1009e-06
-1.71862e-05 1.83167e-05 2.56587e-07
-1.1009e-06 2.56587e-07 -4.02993e-05
0.0010044 7.20703e-06 -1.67202e-06
7.20703e-06 3.71097e-06 1.71837e-06
-1.67202e-06 1.71837e-06 -2.75635e-05
0.000930611 -3.7322e-06 -8.38654e-07
-3.7322e-06 -3.33774e-05 6.11676e-07
-8.38654e-07 6.11676e-07 -8.47047e-05
0.00125222 2.10562e-05 -1.94868e-08
2.10562e-05 7.02977e-05 -2.35471e-07
-1.94868e-08 -2.35471e-07 4.16062e-06
0.00140584 7.89007e-06 -1.3732e-07
7.89007e-06 0.000113478 8.51267e-08
-1.3732e-07 8.51267e-08 4.76301e-05
0.00123537 2.01078e-05 -3.82514e-07
2.01078e-05 3.57094e-05 -1.41681e-07
-3.82514e-07 -1.41681e-07 -3.33719e-05
0.00130016 -1.67308e-06 -9.47898e-08
-1.67308e-06 5.77157e-05 -1.11842e-07
-9.47898e-08 -1.11842e-07 -6.10044e-06
0.0010619 -4.40716e-06 5.93472e-08
-4.40716e-06 3.43957e-05 -3.16427e-08
5.93472e-08 -3.16427e-08 -1.53519e-05
0.001038 -1.86717e-05 1.99284e-07
-1.86717e-05 1.82183e-05 -1.43161e-07
1.99284e-07 -1.43161e-07 -3.91398e-05
0.00115645 -2.35832e-05 -1.86196e-08
-2.35832e-05 6.80596e-05 -7.08394e-08
-1.86196e-08 -7.08394e-08 2.52733e-06
0.00126914 -1.66806e-05 -1.4337e-07
-1.66806e-05 6.89041e-05 -4.2008e-08
-1.4337e-07 -4.2008e-08 1.01226e-05
0.00127707 -1.11218e-05 2.3482e-07
-1.11218e-05 5.13383e-05 3.45499e-07
2.3482e-07 3.45499e-07 -5.74572e-06
0.00123251 -2.56036e-05 -2.14194e-08
-2.56036e-05 8.01321e-05 3.12125e-07
-2.14194e-08 3.12125e-07 1.43497e-05
0.00121306 -1.82296e-05 1.12494e-08
-1.82296e-05 4.37609e-05 2.30535e-07
1.12494e-08 2.30535e-07 -1.07029e-05
0.00125845 -2.26394e-05 2.91556e-07
-2.26394e-05 6.82134e-05 -1.02514e-06
2.91556e-07 -1.02514e-06 1.44078e-05
0.00111736 -1.80212e-05 5.52645e-08
-1.80212e-05 5.26454e-05 -1.92323e-08
5.52645e-08 -1.92323e-08 -4.09775e-06
0.00116435 -2.15996e-05 -1.72324e-07
-2.15996e-05 7.2416e-05 1.0509e-07
-1.72324e-07 1.0509e-07 1.06482e-05
0.00115483 -1.76672e-05 -5.27336e-08
-1.76672e-05 7.72774e-05 1.93285e-07
-5.27336e-08 1.93285e-07 1.67103e-05
0.000878201 6.436e-06 -1.23847e-07
6.436e-06 -5.92707e-05 -2.26401e-08
-1.23847e-07 -2.26401e-08 -9.06634e-05
0.000912661 -4.12227e-06 2.68943e-07
-4.12227e-06 -4.16177e-05 -4.02585e-07
2.68943e-07 -4.02585e-07 -9.27437e-05
0.00126003 2.18506e-05 2.27478e-07
2.18506e-05 6.75752e-05 3.77137e-07
2.27478e-07 3.77137e-07 -5.02759e-07
0.00133232 1.6644e-05 3.72428e-08
1.6644e-05 6.54707e-05 4.44589e-08
3.72428e-08 4.44589e-08 -3.14212e-06
0.00131145 -2.02969e-06 -6.10744e-07
-2.02969e-06 5.40764e-05 -1.22884e-06
-6.10744e-07 -1.22884e-06 -6.03826e-06
0.00122876 -1.29218e-05 -1.09125e-06
-1.29218e-05 3.4334e-05 -2.6738e-07
-1.09125e-06 -2.6738e-07 -1.95656e-05
0.00110827 -1.88521e-05 5.27282e-07
-1.88521e-05 4.93382e-05 1.05463e-08
5.27282e-07 1.05463e-08 -6.77178e-06
0.00131427 -1.98578e-05 -1.03522e-06
-1.98578e-05 7.75522e-05 5.29953e-07
-1.03522e-06 5.29953e-07 2.92916e-05
0.000946654 -2.06874e-05 3.72904e-07
-2.06874e-05 -2.33076e-05 -7.44904e-07
3.72904e-07 -7.44904e-07 -8.62105e-05
0.00118839 -2.59214e-05 7.70842e-07
-2.59214e-05 7.9956e-05 -2.36749e-07
7.70842e-07 -2.36749e-07 8.61881e-06
0.0012427 -2.6392e-05 4.47998e-07
-2.6392e-05 7.44196e-05 1.5913e-06
4.47998e-07 1.5913e-06 8.64884e-06
0.000759723 5.95306e-06 1.22285e-06
5.95306e-06 -0.000118616 -2.38212e-06
1.22285e-06 -2.38212e-06 -0.000149979
0.00115374 -3.27434e-06 8.74863e-07
-3.27434e-06 7.68749e-05 -8.984e-07
8.74863e-07 -8.984e-07 2.81257e-05
0.00112992 -1.69088e-05 6.22217e-07
-1.69088e-05 6.84018e-05 -3.47582e-07
6.22217e-07 -3.47582e-07 6.52019e-06
0.00114023 -2.12643e-05 4.33736e-07
-2.12643e-05 5.92385e-05 1.3433e-07
4.33736e-07 1.3433e-07 -9.82019e-07
0.00119866 -2.23732e-05 4.38954e-07
-2.23732e-05 9.33461e-05 2.52141e-07
4.38954e-07 2.52141e-07 2.67614e-05
0.00113158 -2.21955e-05 6.90619e-08
-2.21955e-05 5.25856e-05 2.78065e-07
6.90619e-08 2.78065e-07 -1.17481e-05
0.000924163 -9.91405e-06 -2.30821e-06
-9.91405e-06 -3.85704e-05 -3.03251e-06
-2.30821e-06 -3.03251e-06 -4.07655e-05
0.00100331 -7.49591e-06 -1.71561e-06
-7.49591e-06 3.69922e-06 -1.79984e-06
-1.71561e-06 -1.79984e-06 -2.67874e-05
0.00124121 1.11212e-05 -7.47804e-08
1.11212e-05 5.58651e-05 2.14322e-07
-7.47804e-08 2.14322e-07 -4.52038e-06
0.00105615 -2.70549e-06 -1.16845e-06
-2.70549e-06 3.03962e-05 -1.03216e-06
-1.16845e-06 -1.03216e-06 -1.86112e-05
0.00105144 -2.81378e-07 -1.33165e-06
-2.81378e-07 3.04618e-05 -7.59349e-07
-1.33165e-06 -7.59349e-07 -1.86907e-05
0.0010183 8.36215e-06 -6.28963e-07
8.36215e-06 1.12098e-05 -2.70428e-07
-6.28963e-07 -2.70428e-07 -4.81682e-05
0.0011636 2.18213e-05 -3.79999e-07
2.18213e-05 4.85641e-05 -4.71536e-07
-3.79999e-07 -4.71536e-07 -1.17785e-05
0.00120005 2.02471e-05 3.86952e-07
2.02471e-05 4.03781e-05 3.04368e-07
3.86952e-07 3.04368e-07 -2.25024e-05
0.00108793 1.78292e-05 -4.18569e-07
1.78292e-05 5.13449e-05 -3.30221e-07
-4.18569e-07 -3.30221e-07 -8.86639e-06
0.00113691 2.37856e-05 -1.055e-06
2.37856e-05 6.31692e-05 -1.36205e-07
-1.055e-06 -1.36205e-07 -3.42107e-06
0.00125884 2.44786e-05 -9.42885e-07
2.44786e-05 0.000101833 -5.19844e-07
-9.42885e-07 -5.19844e-07 4.11641e-05
0.00100993 -6.6484e-06 7.47531e-08
-6.6484e-06 5.124e-06 -1.48643e-08
7.47531e-08 -1.48643e-08 -2.4756e-05
0.00106301 -1.37419e-06 1.41195e-09
-1.37419e-06 3.22196e-05 -1.7634e-08
1.41195e-09 -1.7634e-08 -1.64911e-05
0.00108168 1.4281e-05 -6.85503e-08
1.4281e-05 4.24892e-05 -1.06674e-07
-6.85503e-08 -1.06674e-07 -1.61798e-05
0.00110032 7.42319e-06 -5.86e-08
7.42319e-06 5.23325e-05 -1.70266e-08
-5.86e-08 -1.70266e-08 -7.61593e-06
0.00112403 1.79536e-05 -2.26366e-07
1.79536e-05 6.28742e-05 -1.12706e-07
-2.26366e-07 -1.12706e-07 -1.5947e-06
0.00123844 8.79524e-06 -3.00947e-07
8.79524e-06 4.47803e-05 -3.44749e-07
-3.00947e-07 -3.44749e-07 -1.44644e-05
0.00118503 2.46355e-05 3.86431e-07
2.46355e-05 5.12515e-05 8.59725e-08
3.86431e-07 8.59725e-08 -1.15483e-05
0.00114077 2.22711e-05 6.82673e-08
2.22711e-05 1.12858e-05 2.76275e-07
6.82673e-08 2.76275e-07 -4.67636e-05
0.00103497 2.23396e-05 2.70973e-07
2.23396e-05 2.64349e-05 5.16585e-07
2.70973e-07 5.16585e-07 -4.22162e-05
0.00121061 2.66359e-05 2.68824e-08
2.66359e-05 8.42622e-05 -1.74332e-07
2.68824e-08 -1.74332e-07 1.3571e-05
0.00106731 1.41753e-07 1.06221e-06
1.41753e-07 3.33573e-05 1.13405e-06
1.06221e-06 1.13405e-06 -1.49963e-05
0.000976702 8.62387e-06 1.06526e-06
8.62387e-06 -8.69616e-06 7.94602e-07
1.06526e-06 7.94602e-07 -7.02131e-05
0.00111942 2.24468e-05 1.8047e-07
2.24468e-05 6.17982e-05 1.54024e-07
1.8047e-07 1.54024e-07 -4.00558e-06
0.00101914 1.70315e-05 5.07204e-07
1.70315e-05 1.17044e-05 -4.17812e-08
5.07204e-07 -4.17812e-08 -5.4867e-05
0.00117715 2.13444e-05 2.09033e-08
2.13444e-05 8.34088e-05 -3.02655e-07
2.09033e-08 -3.02655e-07 1.5893e-05
0.00126986 1.09565e-05 -9.48301e-07
1.09565e-05 4.01305e-05 -6.16161e-07
-9.48301e-07 -6.16161e-07 -7.81982e-06
0.00129746 2.8671e-05 4.3179e-07
2.8671e-05 0.000106723 -5.58062e-07
4.3179e-07 -5.58062e-07 3.98566e-05
0.000853859 2.34907e-05 1.76651e-07
2.34907e-05 -0.000134301 -2.18386e-07
1.76651e-07 -2.18386e-07 -0.000191412
0.00133527 2.64812e-05 1.18283e-06
2.64812e-05 0.000163313 1.40884e-06
1.18283e-06 1.40884e-06 8.99522e-05
0.000911506 2.62587e-05 3.77947e-07
2.62587e-05 -5.9351e-05 1.44067e-07
3.77947e-07 1.44067e-07 -0.000136813
0.00101093 -5.90875e-06 -1.19145e-06
-5.90875e-06 3.76861e-06 -1.86442e-06
-1.19145e-06 -1.86442e-06 -2.53049e-05
0.000986642 1.57817e-07 2.53797e-07
1.57817e-07 -5.97211e-06 4.35746e-07
2.53797e-07 4.35746e-07 -5.42474e-05
0.000987794 7.95333e-06 6.32322e-07
7.95333e-06 -4.69533e-07 1.04551e-06
6.32322e-07 1.04551e-06 -6.14105e-05
0.000905426 -1.55651e-06 -5.64039e-07
-1.55651e-06 -4.61644e-05 -1.15462e-06
-5.64039e-07 -1.15462e-06 -9.37783e-05
0.00106841 2.29027e-06 3.63992e-08
2.29027e-06 3.25651e-05 1.52608e-08
3.63992e-08 1.52608e-08 -1.30447e-05
0.00111926 7.04972e-06 -1.40111e-07
7.04972e-06 6.37494e-05 -4.23645e-07
-1.40111e-07 -4.23645e-07 5.29367e-06
0.0012128 1.39826e-05 1.85322e-07
1.39826e-05 0.000113658 2.11507e-07
1.85322e-07 2.11507e-07 4.7154e-05
0.000978309 2.04595e-06 3.21282e-07
2.04595e-06 -5.6686e-06 1.06209e-06
3.21282e-07 1.06209e-06 -6.42835e-05
0.00106506 -7.03545e-07 3.9187e-07
-7.03545e-07 3.08921e-05 1.11225e-06
3.9187e-07 1.11225e-06 -1.42945e-05
0.00103012 -2.54064e-06 4.69801e-07
-2.54064e-06 4.9863e-06 1.86033e-06
4.69801e-07 1.86033e-06 -2.1936e-05
0.00102986 -3.52947e-06 4.9243e-08
-3.52947e-06 6.61932e-06 7.29284e-10
4.9243e-08 7.29284e-10 -2.04549e-05
0.00153536 -5.73763e-06 1.03227e-06
-5.73763e-06 0.000246578 1.93942e-06
1.03227e-06 1.93942e-06 0.000249997
0.00102609 -4.42736e-06 -7.66293e-07
-4.42736e-06 6.8889e-06 -1.83949e-06
-7.66293e-07 -1.83949e-06 -2.06222e-05
0.00155146 -7.04085e-06 -9.30659e-07
-7.04085e-06 0.000257746 -1.21303e-06
-9.30659e-07 -1.21303e-06 0.000260495
0.00121492 -7.55004e-06 5.04274e-06
-7.55004e-06 9.01035e-05 6.35313e-06
5.04274e-06 6.35313e-06 0.000107133
0.00156832 -8.24696e-06 -3.54822e-06
-8.24696e-06 0.000269596 -4.30057e-06
-3.54822e-06 -4.30057e-06 0.00027158
0.00115923 -9.30312e-06 1.99199e-06
-9.30312e-06 6.70432e-05 2.40138e-06
1.99199e-06 2.40138e-06 8.35639e-05
0.00233147 -1.34438e-05 -2.63087e-06
-1.34438e-05 0.000644693 -1.57252e-06
-2.63087e-06 -1.57252e-06 0.000666275
0.000932566 9.0198e-06 1.8156e-06
9.0198e-06 -3.9458e-05 -2.98162e-06
1.8156e-06 -2.98162e-06 -4.08366e-05
0.000937752 9.96114e-06 -1.30732e-07
9.96114e-06 -3.32555e-05 -1.4112e-08
-1.30732e-07 -1.4112e-08 -3.5879e-05
0.00241425 1.44659e-05 6.82498e-06
1.44659e-05 0.000687346 -3.7394e-06
6.82498e-06 -3.7394e-06 0.000708066
0.000940791 1.0862e-05 -2.80269e-06
1.0862e-05 -2.84288e-05 2.85854e-06
-2.80269e-06 2.85854e-06 -3.19276e-05
0.00242657 1.62664e-05 -1.63091e-07
1.62664e-05 0.000698019 -4.41112e-08
-1.63091e-07 -4.41112e-08 0.000717863
0.00240705 1.80917e-05 -8.26734e-06
1.80917e-05 0.000692916 3.54311e-06
-8.26734e-06 3.54311e-06 0.000712102
0.00123184 4.16676e-06 -1.94547e-07
4.16676e-06 5.24758e-05 2.3157e-07
-1.94547e-07 2.3157e-07 -7.49326e-06
0.00124992 -1.23746e-05 -1.75309e-07
-1.23746e-05 6.54397e-05 -1.30545e-07
-1.75309e-07 -1.30545e-07 2.00091e-06
0.00128083 -7.29248e-06 8.42229e-07
-7.29248e-06 6.58071e-05 -1.84884e-07
8.42229e-07 -1.84884e-07 6.50055e-06
0.00131388 -2.05488e-05 -6.10525e-07
-2.05488e-05 9.17502e-05 6.36576e-07
-6.10525e-07 6.36576e-07 2.63413e-05
0.00118293 -1.62152e-05 -1.50286e-07
-1.62152e-05 5.44275e-05 3.86633e-07
-1.50286e-07 3.86633e-07 -9.05763e-06
0.00115523 1.27211e-05 -5.21661e-07
1.27211e-05 4.88366e-05 6.50345e-09
-5.21661e-07 6.50345e-09 -1.40955e-05
0.00121448 7.28298e-06 8.22942e-08
7.28298e-06 6.82283e-05 2.60344e-07
8.22942e-08 2.60344e-07 3.81679e-06
0.00116945 -9.19405e-06 1.62761e-07
-9.19405e-06 4.79904e-05 1.00352e-07
1.62761e-07 1.00352e-07 -1.60245e-05
0.00120726 -1.38642e-05 9.33394e-08
-1.38642e-05 3.15622e-05 -4.05561e-08
9.33394e-08 -4.05561e-08 -3.18897e-05
0.00132777 -2.17166e-05 -4.7018e-07
-2.17166e-05 9.91037e-05 1.71017e-07
-4.7018e-07 1.71017e-07 3.15092e-05
0.00122381 -5.87978e-07 -2.32742e-07
-5.87978e-07 3.58013e-05 2.28313e-07
-2.32742e-07 2.28313e-07 -2.13258e-05
0.00134006 -1.19076e-05 8.1743e-07
-1.19076e-05 8.65146e-05 -4.70267e-07
8.1743e-07 -4.70267e-07 2.96828e-05
0.00116977 9.39924e-06 -1.24514e-07
9.39924e-06 5.42335e-05 4.27644e-07
-1.24514e-07 4.27644e-07 -9.07972e-06
0.00114957 -1.48177e-05 3.64946e-07
-1.48177e-05 4.11495e-05 -9.43625e-07
3.64946e-07 -9.43625e-07 -2.44405e-05
0.00125447 -1.88195e-05 -5.07438e-07
-1.88195e-05 5.53954e-05 5.86767e-07
-5.07438e-07 5.86767e-07 -9.6549e-06
0.00138224 -3.20082e-06 -1.05012e-06
-3.20082e-06 9.74751e-05 1.47574e-07
-1.05012e-06 1.47574e-07 4.84093e-05
0.00124004 2.09758e-05 -4.52813e-07
2.09758e-05 6.52801e-05 -6.70422e-07
-4.52813e-07 -6.70422e-07 -7.67041e-07
0.001385 7.97391e-06 -7.59301e-07
7.97391e-06 0.000104213 2.20443e-07
-7.59301e-07 2.20443e-07 3.8443e-05
0.0012981 2.07581e-05 -9.22879e-07
2.07581e-05 6.38286e-05 -5.92729e-08
-9.22879e-07 -5.92729e-08 -5.65764e-06
0.00133831 -1.90827e-06 4.32315e-07
-1.90827e-06 7.64993e-05 4.31586e-07
4.32315e-07 4.31586e-07 1.2701e-05
0.00106929 -4.78623e-06 -1.12317e-06
-4.78623e-06 3.70597e-05 4.62659e-07
-1.12317e-06 4.62659e-07 -1.25595e-05
0.00109836 -1.85003e-05 -1.65206e-07
-1.85003e-05 4.73335e-05 1.0912e-07
-1.65206e-07 1.0912e-07 -9.5787e-06
0.0011634 -2.36329e-05 -3.81911e-07
-2.36329e-05 7.22682e-05 6.33788e-07
-3.81911e-07 6.33788e-07 6.56359e-06
0.00131815 -1.67391e-05 5.36607e-07
-1.67391e-05 9.24446e-05 4.74854e-09
5.36607e-07 4.74854e-09 3.33257e-05
0.00123394 -1.16115e-05 1.02223e-06
-1.16115e-05 3.27794e-05 9.5561e-07
1.02223e-06 9.5561e-07 -2.35083e-05
0.00123082 -1.79842e-05 1.26598e-06
-1.79842e-05 5.22353e-05 -3.05477e-08
1.26598e-06 -3.05477e-08 -2.21267e-06
0.00124165 -2.56307e-05 -3.87301e-07
-2.56307e-05 8.53832e-05 -5.94541e-07
-3.87301e-07 -5.94541e-07 1.91399e-05
0.00116437 -2.20856e-05 1.27788e-07
-2.20856e-05 2.25279e-05 -3.07479e-06
1.27788e-07 -3.07479e-06 -2.97594e-05
0.00112295 -1.80068e-05 -6.26467e-07
-1.80068e-05 5.52196e-05 -2.03909e-08
-6.26467e-07 -2.03909e-08 -1.50031e-06
0.0011113 -2.11802e-05 -8.04753e-07
-2.11802e-05 4.57661e-05 -1.05322e-07
-8.04753e-07 -1.05322e-07 -1.62133e-05
0.00115083 -1.78283e-05 -8.66086e-07
-1.78283e-05 7.52835e-05 4.50159e-07
-8.66086e-07 4.50159e-07 1.45975e-05
0.000744766 6.11251e-06 -1.44649e-06
6.11251e-06 -0.00012438 1.71219e-06
-1.44649e-06 1.71219e-06 -0.000156537
0.000924346 -3.57703e-06 -6.54871e-07
-3.57703e-06 -3.63072e-05 6.75988e-07
-6.54871e-07 6.75988e-07 -8.73103e-05
0.00125612 2.17299e-05 1.66835e-07
2.17299e-05 6.20748e-05 -5.18654e-07
1.66835e-07 -5.18654e-07 -6.54692e-06
0.00136584 1.63349e-05 -1.31246e-07
1.63349e-05 8.33187e-05 2.36149e-07
-1.31246e-07 2.36149e-07 1.51442e-05
0.00134056 -1.70945e-06 -1.54982e-07
-1.70945e-06 6.99845e-05 1.4698e-07
-1.54982e-07 1.4698e-07 9.92003e-06
0.00112124 -1.83773e-05 4.18985e-08
-1.83773e-05 5.52837e-05 2.70934e-08
4.18985e-08 2.70934e-08 -8.18962e-07
0.00108768 -2.1842e-05 2.30308e-07
-2.1842e-05 4.30587e-05 -2.14518e-07
2.30308e-07 -2.14518e-07 -1.91799e-05
0.00117393 -2.57823e-05 -5.54578e-08
-2.57823e-05 7.49672e-05 -1.11332e-08
-5.54578e-08 -1.11332e-08 3.24774e-06
0.00126073 -1.29481e-05 4.09312e-08
-1.29481e-05 4.92137e-05 -1.64883e-07
4.09312e-08 -1.64883e-07 -5.23604e-06
0.0012345 -2.56709e-05 -8.47058e-08
-2.56709e-05 7.11663e-05 -4.61104e-07
-8.47058e-08 -4.61104e-07 6.89127e-06
0.00124686 -2.0606e-05 -1.98397e-07
-2.0606e-05 4.68166e-05 -2.89127e-07
-1.98397e-07 -2.89127e-07 -1.82068e-06
0.00074799 6.14736e-06 1.57067e-07
6.14736e-06 -0.000124112 -6.05191e-07
1.57067e-07 -6.05191e-07 -0.000155293
0.00114698 -2.1349e-05 2.16931e-09
-2.1349e-05 6.27144e-05 1.0779e-08
2.16931e-09 1.0779e-08 2.41011e-06
0.0011312 -2.21678e-05 -5.56205e-07
-2.21678e-05 5.1616e-05 1.41203e-07
-5.56205e-07 1.41203e-07 -1.24074e-05
0.00120444 -2.2316e-05 -3.08435e-07
-2.2316e-05 9.64964e-05 1.69277e-07
-3.08435e-07 1.69277e-07 3.03406e-05
0.0012 -1.75091e-05 -1.1057e-07
-1.75091e-05 0.000102453 1.33864e-07
-1.1057e-07 1.33864e-07 4.07618e-05
0.00103084 -3.37987e-06 3.89509e-08
-3.37987e-06 1.62516e-05 1.88973e-07
3.89509e-08 1.88973e-07 -3.32342e-05
0.00138598 2.33197e-05 -1.39321e-07
2.33197e-05 0.000114862 1.55313e-06
-1.39321e-07 1.55313e-06 4.58572e-05
0.00137686 1.64424e-05 -1.08361e-07
1.64424e-05 8.13557e-05 -3.56517e-07
-1.08361e-07 -3.56517e-07 1.3582e-05
0.00126634 -4.04814e-06 -9.33735e-07
-4.04814e-06 2.68998e-05 -1.45589e-06
-9.33735e-07 -1.45589e-06 -2.74785e-05
0.00134556 -1.57666e-05 -1.21651e-06
-1.57666e-05 6.88178e-05 -3.7105e-07
-1.21651e-06 -3.7105e-07 2.32043e-05
0.00113281 -2.15686e-05 3.88567e-07
-2.15686e-05 5.86339e-05 1.05499e-08
3.88567e-07 1.05499e-08 -1.61127e-06
0.00127716 -2.53194e-05 1.78453e-07
-2.53194e-05 6.37728e-05 1.76655e-06
1.78453e-07 1.76655e-06 8.11686e-06
0.00100256 -2.31043e-05 2.03977e-07
-2.31043e-05 4.54467e-06 -8.43173e-07
2.03977e-07 -8.43173e-07 -6.51152e-05
0.00128828 -2.81172e-05 4.98152e-07
-2.81172e-05 0.000125517 5.91251e-07
4.98152e-07 5.91251e-07 4.98975e-05
0.000746973 5.09748e-06 9.61023e-07
5.09748e-06 -0.000127332 -2.30824e-06
9.61023e-07 -2.30824e-06 -0.000156771
0.0011631 -1.92457e-06 7.92464e-07
-1.92457e-06 8.12653e-05 -9.78176e-07
7.92464e-07 -9.78176e-07 3.28547e-05
0.00126322 -1.62922e-05 3.78527e-08
-1.62922e-05 0.000134689 1.97529e-07
3.78527e-08 1.97529e-07 7.38771e-05
0.00112087 -2.11668e-05 6.44076e-07
-2.11668e-05 6.28129e-05 -4.95208e-07
6.44076e-07 -4.95208e-07 -7.55851e-06
0.00110327 -2.22618e-05 1.96913e-07
-2.22618e-05 3.85837e-05 1.21658e-07
1.96913e-07 1.21658e-07 -2.53787e-05
0.00115309 -2.32148e-05 5.801e-07
-2.32148e-05 6.41116e-05 3.71776e-07
5.801e-07 3.71776e-07 -4.59787e-06
0.0010077 -6.5459e-06 -1.46943e-06
-6.5459e-06 3.9111e-06 -1.85894e-06
-1.46943e-06 -1.85894e-06 -2.59398e-05
0.00106347 -1.21116e-06 -1.15271e-06
-1.21116e-06 3.24671e-05 -1.10998e-06
-1.15271e-06 -1.10998e-06 -1.62843e-05
0.00125863 9.86495e-06 2.65871e-07
9.86495e-06 5.55835e-05 3.21403e-07
2.65871e-07 3.21403e-07 -3.95621e-06
0.00110408 7.78613e-06 -8.75855e-07
7.78613e-06 5.44624e-05 -4.47231e-07
-8.75855e-07 -4.47231e-07 -5.63635e-06
0.00110252 1.49038e-05 -6.39058e-07
1.49038e-05 5.33299e-05 -3.09437e-07
-6.39058e-07 -3.09437e-07 -4.92781e-06
0.00106767 1.79056e-05 -6.40942e-07
1.79056e-05 3.56208e-05 -1.70295e-07
-6.40942e-07 -1.70295e-07 -2.93075e-05
0.00118001 2.45275e-05 -2.21723e-07
2.45275e-05 4.7971e-05 -4.53599e-07
-2.21723e-07 -4.53599e-07 -1.49615e-05
0.00119309 2.19646e-05 4.79908e-07
2.19646e-05 3.49608e-05 6.06154e-07
4.79908e-07 6.06154e-07 -2.2544e-05
0.000960223 2.175e-05 -3.34849e-07
2.175e-05 -8.91435e-06 -2.31464e-07
-3.34849e-07 -2.31464e-07 -7.78897e-05
0.00122721 2.68478e-05 -7.36051e-07
2.68478e-05 9.21603e-05 -1.59246e-07
-7.36051e-07 -1.59246e-07 2.06208e-05
0.00106587 3.66281e-07 6.23836e-08
3.66281e-07 3.27153e-05 -2.56004e-08
6.23836e-08 -2.56004e-08 -1.56441e-05
0.00105122 9.70136e-06 3.04668e-07
9.70136e-06 2.77987e-05 2.66669e-07
3.04668e-07 2.66669e-07 -3.34291e-05
0.00116412 2.2772e-05 -7.68917e-08
2.2772e-05 8.41667e-05 -3.41995e-07
-7.68917e-08 -3.41995e-07 1.89868e-05
0.00107689 1.68293e-05 -2.93133e-07
1.68293e-05 4.05514e-05 1.98612e-08
-2.93133e-07 1.98612e-08 -2.56042e-05
0.00113577 2.10725e-05 -5.2113e-07
2.10725e-05 6.53464e-05 -3.53113e-07
-5.2113e-07 -3.53113e-07 -1.95679e-06
0.00137594 1.05818e-05 -3.59487e-07
1.05818e-05 9.07265e-05 -3.34591e-07
-3.59487e-07 -3.34591e-07 4.31432e-05
0.00131643 2.87503e-05 3.44382e-07
2.87503e-05 0.000113585 -4.83762e-08
3.44382e-07 -4.83762e-08 4.7189e-05
0.00102859 2.42014e-05 -3.10441e-07
2.42014e-05 -4.57464e-05 7.26255e-07
-3.10441e-07 7.26255e-07 -0.000101584
0.00123192 2.57118e-05 5.32607e-07
2.57118e-05 0.000114654 5.28658e-07
5.32607e-07 5.28658e-07 4.07041e-05
0.00103561 2.7155e-05 -8.06235e-07
2.7155e-05 -1.13754e-07 -8.44045e-08
-8.06235e-07 -8.44045e-08 -7.87748e-05
0.000992396 1.14336e-05 9.34066e-07
1.14336e-05 3.63981e-08 1.03525e-06
9.34066e-07 1.03525e-06 -6.18005e-05
0.00102922 2.05428e-05 6.85306e-07
2.05428e-05 1.88323e-05 5.93783e-08
6.85306e-07 5.93783e-08 -5.19365e-05
0.00115839 2.39083e-05 2.47294e-07
2.39083e-05 7.87679e-05 3.56418e-07
2.47294e-07 3.56418e-07 7.57249e-06
0.0010037 2.15358e-05 8.45879e-07
2.15358e-05 6.83598e-07 -7.77371e-08
8.45879e-07 -7.77371e-08 -7.03181e-05
0.00160509 2.45052e-06 -6.03127e-07
2.45052e-06 0.000173217 9.68243e-08
-6.03127e-07 9.68243e-08 0.000129825
0.00124972 2.16103e-05 8.17156e-07
2.16103e-05 1.49758e-05 -2.74695e-07
8.17156e-07 -2.74695e-07 -2.9506e-05
0.00121783 3.04638e-05 1.05347e-06
3.04638e-05 6.53995e-05 -1.11888e-06
1.05347e-06 -1.11888e-06 -8.46678e-06
0.000963407 2.59925e-05 6.75335e-07
2.59925e-05 -1.66041e-05 9.00379e-07
6.75335e-07 9.00379e-07 -0.000100981
0.00106796 6.39575e-07 -5.12658e-07
6.39575e-07 3.38538e-05 -7.54861e-07
-5.12658e-07 -7.54861e-07 -1.39471e-05
0.00107355 8.6142e-06 1.64646e-07
8.6142e-06 4.15508e-05 3.34446e-07
1.64646e-07 3.34446e-07 -1.89364e-05
0.0011476 1.68968e-05 3.38596e-07
1.68968e-05 8.242e-05 3.70157e-07
3.38596e-07 3.70157e-07 1.39122e-05
0.00106904 2.72037e-06 -4.50619e-07
2.72037e-06 3.2962e-05 -1.13188e-06
-4.50619e-07 -1.13188e-06 -1.26595e-05
0.000984397 5.76332e-06 -4.39596e-07
5.76332e-06 -2.18969e-06 -1.17044e-06
-4.39596e-07 -1.17044e-06 -6.1569e-05
0.00106739 -4.74228e-07 9.21213e-08
-4.74228e-07 3.20637e-05 1.64557e-08
9.21213e-08 1.64557e-08 -1.31311e-05
0.00112518 1.20387e-05 -4.32452e-08
1.20387e-05 7.05186e-05 -3.44276e-07
-4.32452e-08 -3.44276e-07 3.30063e-06
0.0010385 4.03754e-06 1.11119e-07
4.03754e-06 2.3845e-05 3.26038e-07
1.11119e-07 3.26038e-07 -3.44412e-05
0.00118905 1.5499e-05 2.93884e-07
1.5499e-05 0.000101889 2.23632e-07
2.93884e-07 2.23632e-07 2.89693e-05
0.00101564 -1.76589e-06 2.00356e-07
-1.76589e-06 1.57286e-05 9.30529e-07
2.00356e-07 9.30529e-07 -5.14482e-05
0.000979864 1.19773e-05 4.45527e-07
1.19773e-05 -5.31038e-06 1.05852e-06
4.45527e-07 1.05852e-06 -6.36881e-05
0.00106331 -4.81114e-06 1.93476e-07
-4.81114e-06 3.03409e-05 1.09674e-06
1.93476e-07 1.09674e-06 -1.48753e-05
0.00103274 -1.4426e-06 2.49707e-07
-1.4426e-06 5.27595e-06 1.83924e-06
2.49707e-07 1.83924e-06 -2.17974e-05
0.00103395 -2.5774e-06 5.61523e-08
-2.5774e-06 6.95619e-06 2.46716e-09
5.61523e-08 2.46716e-09 -1.99969e-05
0.00153513 -4.07168e-06 7.10964e-07
-4.07168e-06 0.000243785 1.94824e-06
7.10964e-07 1.94824e-06 0.000247624
0.0010337 -3.54805e-06 -5.71242e-07
-3.54805e-06 8.58632e-06 -1.84053e-06
-5.71242e-07 -1.84053e-06 -1.85121e-05
0.00155137 -5.51373e-06 -7.32952e-07
-5.51373e-06 0.000254478 -1.21214e-06
-7.32952e-07 -1.21214e-06 0.000257815
0.0012169 -5.90615e-06 3.93181e-06
-5.90615e-06 8.72307e-05 6.36807e-06
3.93181e-06 6.36807e-06 0.000104913
0.00156637 -6.85541e-06 -2.82856e-06
-6.85541e-06 0.00026514 -4.33755e-06
-2.82856e-06 -4.33755e-06 0.000267822
0.0011632 -7.7051e-06 1.57214e-06
-7.7051e-06 6.47223e-05 2.4168e-06
1.57214e-06 2.4168e-06 8.19928e-05
0.00110744 -9.38858e-06 -1.46966e-06
-9.38858e-06 4.15886e-05 -1.50272e-06
-1.46966e-06 -1.50272e-06 5.83536e-05
0.000943394 7.73241e-06 1.56148e-06
7.73241e-06 -3.85472e-05 -2.98204e-06
1.56148e-06 -2.98204e-06 -3.86218e-05
0.000949243 9.01405e-06 -8.65662e-08
9.01405e-06 -3.15294e-05 8.80099e-09
-8.65662e-08 8.80099e-09 -3.29809e-05
0.00237081 1.25733e-05 6.0196e-06
1.25733e-05 0.000661565 -3.76442e-06
6.0196e-06 -3.76442e-06 0.000683344
0.000952152 9.96435e-06 -2.44958e-06
9.96435e-06 -2.63857e-05 2.91851e-06
-2.44958e-06 2.91851e-06 -2.90659e-05
0.00240059 1.44355e-05 -2.23367e-07
1.44355e-05 0.00068109 -4.0829e-08
-2.23367e-07 -4.0829e-08 0.000701781
0.00240152 1.62542e-05 -7.8255e-06
1.62542e-05 0.000686113 3.65862e-06
-7.8255e-06 3.65862e-06 0.000706011
0.00123879 -7.50098e-07 6.33972e-07
-7.50098e-07 4.40733e-05 6.60343e-07
6.33972e-07 6.60343e-07 -1.31047e-05
0.00122454 -1.4417e-05 -1.9346e-08
-1.4417e-05 3.87419e-05 -1.5396e-07
-1.9346e-08 -1.5396e-07 -2.48434e-05
0.0012551 -1.10818e-05 1.83797e-06
-1.10818e-05 4.57519e-05 -1.61421e-06
1.83797e-06 -1.61421e-06 -1.06794e-05
0.00125218 -2.14864e-05 -1.09033e-06
-2.14864e-05 6.32431e-05 6.43638e-07
-1.09033e-06 6.43638e-07 -5.38909e-06
0.00118975 -1.19783e-05 -2.9884e-07
-1.19783e-05 5.66073e-05 7.76963e-07
-2.9884e-07 7.76963e-07 -7.29768e-06
0.00117582 7.49395e-06 -2.34512e-08
7.49395e-06 5.07072e-05 -7.56381e-08
-2.34512e-08 -7.56381e-08 -1.37427e-05
0.00118587 1.13439e-05 2.3525e-07
1.13439e-05 5.81454e-05 -4.76808e-08
2.3525e-07 -4.76808e-08 -5.84953e-06
0.00120382 -1.73371e-05 -3.48201e-07
-1.73371e-05 6.44811e-05 4.99923e-07
-3.48201e-07 4.99923e-07 -1.19422e-06
0.00121684 -1.81085e-05 2.12269e-07
-1.81085e-05 3.90398e-05 1.3468e-08
2.12269e-07 1.3468e-08 -2.50531e-05
0.00127661 -3.95927e-06 3.20155e-07
-3.95927e-06 4.62339e-05 -1.52802e-08
3.20155e-07 -1.52802e-08 -3.19572e-06
0.00115073 5.28595e-06 1.01534e-07
5.28595e-06 4.13713e-05 -2.86084e-07
1.01534e-07 -2.86084e-07 -2.33252e-05
0.00114995 -2.19555e-05 9.89527e-08
-2.19555e-05 4.29737e-05 -4.37001e-07
9.89527e-08 -4.37001e-07 -2.39232e-05
0.00129492 -1.15593e-05 -1.21754e-06
-1.15593e-05 5.75907e-05 1.01835e-06
-1.21754e-06 1.01835e-06 3.04784e-06
0.00125719 2.16556e-05 -3.67901e-07
2.16556e-05 5.88174e-05 -1.47841e-06
-3.67901e-07 -1.47841e-06 -1.03401e-05
0.00140116 1.60946e-05 -1.29647e-07
1.60946e-05 0.000102006 4.70773e-07
-1.29647e-07 4.70773e-07 3.42712e-05
0.0013701 -1.4752e-06 7.03258e-07
-1.4752e-06 8.60399e-05 1.00276e-06
7.03258e-07 1.00276e-06 2.60358e-05
0.00113281 -1.77871e-05 -4.8658e-07
-1.77871e-05 6.05669e-05 9.02918e-08
-4.8658e-07 9.02918e-08 4.4765e-06
0.00122897 -2.2999e-05 -5.92083e-08
-2.2999e-05 0.000109538 2.13066e-07
-5.92083e-08 2.13066e-07 4.79644e-05
0.00115873 -2.56411e-05 -4.99028e-07
-2.56411e-05 6.96682e-05 6.94465e-07
-4.99028e-07 6.94465e-07 -2.43764e-06
0.00129562 -1.29531e-05 9.58309e-07
-1.29531e-05 6.54762e-05 2.47201e-07
9.58309e-07 2.47201e-07 1.04721e-05
0.00117134 -2.13035e-05 6.35267e-07
-2.13035e-05 1.22114e-05 -7.95425e-07
6.35267e-07 -7.95425e-07 -3.67871e-05
0.00123271 -2.50397e-05 -6.93239e-07
-2.50397e-05 7.09977e-05 -2.2525e-06
-6.93239e-07 -2.2525e-06 8.20482e-06
0.00115407 -2.1436e-05 -4.41078e-07
-2.1436e-05 6.63506e-05 -9.98675e-08
-4.41078e-07 -9.98675e-08 5.96227e-06
0.00112898 -2.21176e-05 -1.19344e-06
-2.21176e-05 4.98183e-05 9.25355e-08
-1.19344e-06 9.25355e-08 -1.38967e-05
0.00120987 -2.22552e-05 -9.98981e-07
-2.22552e-05 9.9483e-05 3.12033e-08
-9.98981e-07 3.12033e-08 3.37568e-05
0.000737703 6.34645e-06 -8.45522e-07
6.34645e-06 -0.000128933 1.14582e-06
-8.45522e-07 1.14582e-06 -0.000159932
0.00127211 -1.83318e-05 -6.90503e-07
-1.83318e-05 0.000137511 7.30284e-07
-6.90503e-07 7.30284e-07 7.6001e-05
0.000909593 -4.6347e-06 -8.15952e-07
-4.6347e-06 -4.35774e-05 1.19712e-06
-8.15952e-07 1.19712e-06 -9.38249e-05
0.0013177 2.27447e-05 -2.31772e-08
2.27447e-05 8.72554e-05 5.30449e-07
-2.31772e-08 5.30449e-07 1.91517e-05
0.00136002 1.56168e-05 1.27591e-07
1.56168e-05 7.03987e-05 2.39536e-07
1.27591e-07 2.39536e-07 2.76884e-06
0.0012849 -3.68488e-06 -1.12242e-07
-3.68488e-06 3.64811e-05 -1.92964e-07
-1.12242e-07 -1.92964e-07 -1.88793e-05
0.00114734 -2.17279e-05 4.87678e-08
-2.17279e-05 6.54406e-05 9.97664e-08
4.87678e-08 9.97664e-08 5.13164e-06
0.00104975 -2.34336e-05 -3.18043e-08
-2.34336e-05 2.71894e-05 4.15124e-08
-3.18043e-08 4.15124e-08 -4.18061e-05
0.00127212 -2.76779e-05 -4.2633e-07
-2.76779e-05 0.000118298 5.93326e-07
-4.2633e-07 5.93326e-07 4.32266e-05
0.00136256 -1.63524e-05 1.88091e-07
-1.63524e-05 7.91352e-05 1.70961e-07
1.88091e-07 1.70961e-07 3.39447e-05
0.00122519 -2.50101e-05 -1.31956e-07
-2.50101e-05 3.87326e-05 -5.81545e-07
-1.31956e-07 -5.81545e-07 -1.69799e-05
0.00088313 5.34159e-06 1.80539e-07
5.34159e-06 -6.115e-05 -5.79211e-07
1.80539e-07 -5.79211e-07 -8.96571e-05
0.00115364 -5.33007e-07 -4.16379e-08
-5.33007e-07 7.72822e-05 1.09481e-07
-4.16379e-08 1.09481e-07 2.87907e-05
0.00110249 -2.2267e-05 -2.41631e-07
-2.2267e-05 3.83836e-05 9.92083e-08
-2.41631e-07 9.92083e-08 -2.56818e-05
0.00116567 -2.33606e-05 -5.45447e-08
-2.33606e-05 7.02813e-05 4.27338e-08
-5.45447e-08 4.27338e-08 1.62542e-06
0.00112539 -2.10762e-05 1.69326e-07
-2.10762e-05 6.5472e-05 -1.77705e-07
1.69326e-07 -1.77705e-07 -4.472e-06
0.00121065 -1.74365e-05 -4.9825e-07
-1.74365e-05 0.00010834 6.82391e-07
-4.9825e-07 6.82391e-07 4.70875e-05
0.00130029 2.33694e-05 5.45772e-07
2.33694e-05 7.91506e-05 1.43362e-06
5.45772e-07 1.43362e-06 1.32716e-05
0.00141292 1.24648e-05 -3.59263e-07
1.24648e-05 8.885e-05 -1.22494e-06
-3.59263e-07 -1.22494e-06 2.41639e-05
0.00132105 -9.30115e-06 -2.04172e-06
-9.30115e-06 3.70713e-05 -1.22131e-06
-2.04172e-06 -1.22131e-06 -4.60267e-06
0.00148091 -2.33936e-05 -1.05153e-06
-2.33936e-05 0.000126528 5.27369e-07
-1.05153e-06 5.27369e-07 8.45236e-05
0.00105921 -2.25298e-05 9.47189e-08
-2.25298e-05 2.49037e-05 3.74314e-09
9.47189e-08 3.74314e-09 -4.05278e-05
0.00129498 -2.84544e-05 5.90175e-07
-2.84544e-05 0.000113826 2.44159e-06
5.90175e-07 2.44159e-06 4.04014e-05
0.00130198 -2.75844e-05 2.87091e-07
-2.75844e-05 0.000146987 -9.53186e-07
2.87091e-07 -9.53186e-07 7.18943e-05
0.00102238 4.47907e-06 7.18575e-07
4.47907e-06 4.17707e-06 -1.72413e-06
7.18575e-07 -1.72413e-06 -2.20757e-05
0.00107686 -3.53244e-06 2.08544e-07
-3.53244e-06 3.58575e-05 -1.13512e-06
2.08544e-07 -1.13512e-06 -7.44169e-06
0.0008591 4.16948e-06 3.17368e-07
4.16948e-06 -6.6579e-05 -1.55671e-06
3.17368e-07 -1.55671e-06 -0.000114377
0.00117406 -1.28522e-05 1.54076e-07
-1.28522e-05 9.24907e-05 -1.17157e-07
1.54076e-07 -1.17157e-07 2.98767e-05
0.0011044 -2.0454e-05 7.25172e-07
-2.0454e-05 5.75994e-05 -5.02352e-07
7.25172e-07 -5.02352e-07 -1.32913e-05
0.00119804 -2.31126e-05 8.72088e-07
-2.31126e-05 9.6297e-05 3.05341e-07
8.72088e-07 3.05341e-07 2.18297e-05
0.00109553 -2.34237e-05 4.85503e-07
-2.34237e-05 3.63537e-05 7.72402e-08
4.85503e-07 7.72402e-08 -3.08186e-05
0.00132156 -2.58434e-05 9.34609e-08
-2.58434e-05 0.000150723 4.61644e-07
9.34609e-08 4.61644e-07 7.77979e-05
0.00106412 6.36477e-07 -9.48473e-07
6.36477e-07 3.19179e-05 -1.17324e-06
-9.48473e-07 -1.17324e-06 -1.64453e-05
0.00112642 1.1493e-05 -5.58261e-07
1.1493e-05 6.46346e-05 -3.32704e-07
-5.58261e-07 -3.32704e-07 3.67968e-06
0.0014836 1.0197e-05 5.48725e-07
1.0197e-05 0.000142082 1.47209e-07
5.48725e-07 1.47209e-07 9.48612e-05
0.00114009 1.76726e-05 -9.32404e-07
1.76726e-05 7.18604e-05 7.3269e-08
-9.32404e-07 7.3269e-08 6.1019e-06
0.00120942 2.31025e-05 -6.60407e-07
2.31025e-05 0.000106735 -9.05473e-07
-6.60407e-07 -9.05473e-07 4.21896e-05
0.00107826 2.04218e-05 -7.66652e-07
2.04218e-05 3.96499e-05 -4.27837e-07
-7.66652e-07 -4.27837e-07 -2.74141e-05
0.00133029 2.87831e-05 1.78403e-07
2.87831e-05 0.00011795 2.2369e-07
1.78403e-07 2.2369e-07 5.20372e-05
0.00119654 2.48741e-05 -1.476e-07
2.48741e-05 3.9535e-05 1.87448e-06
-1.476e-07 1.87448e-06 -1.50146e-05
0.00112576 2.49043e-05 -4.92134e-08
2.49043e-05 6.45747e-05 -1.37842e-07
-4.92134e-08 -1.37842e-07 -9.9517e-06
0.00114489 2.79205e-05 -1.74274e-06
2.79205e-05 5.19903e-05 -2.29964e-07
-1.74274e-06 -2.29964e-07 -2.78435e-05
0.000993321 1.09906e-05 2.51158e-07
1.09906e-05 6.69877e-07 3.23812e-07
2.51158e-07 3.23812e-07 -6.12809e-05
0.00109592 2.09787e-05 -2.40468e-07
2.09787e-05 5.0974e-05 -4.00271e-07
-2.40468e-07 -4.00271e-07 -1.89912e-05
0.00117968 2.40342e-05 -1.5802e-07
2.40342e-05 8.97579e-05 -4.01749e-07
-1.5802e-07 -4.01749e-07 1.91262e-05
0.00110979 2.1842e-05 -3.01653e-09
2.1842e-05 5.15911e-05 -1.82244e-07
-3.01653e-09 -1.82244e-07 -1.90632e-05
0.00146583 2.30372e-06 2.50283e-07
2.30372e-06 0.00010607 -7.14381e-07
2.50283e-07 -7.14381e-07 6.28008e-05
0.00123307 2.105e-05 2.76872e-07
2.105e-05 1.48451e-05 3.57928e-08
2.76872e-07 3.57928e-08 -3.12786e-05
0.00137318 3.15703e-05 -2.86915e-07
3.15703e-05 0.000138215 -8.43455e-08
-2.86915e-07 -8.43455e-08 6.50369e-05
0.00100495 2.66545e-05 1.20048e-07
2.66545e-05 4.78907e-07 1.61527e-07
1.20048e-07 1.61527e-07 -8.36961e-05
0.00117161 2.02186e-05 2.06171e-07
2.02186e-05 9.29584e-05 1.36754e-07
2.06171e-07 1.36754e-07 2.29782e-05
0.00126539 -1.23842e-05 -1.72167e-06
-1.23842e-05 4.27499e-05 -1.23955e-07
-1.72167e-06 -1.23955e-07 -8.67384e-06
0.00126474 2.39967e-05 7.66675e-07
2.39967e-05 0.000133271 4.19132e-07
7.66675e-07 4.19132e-07 5.68885e-05
0.00119238 2.619e-05 6.07065e-07
2.619e-05 9.33521e-05 5.72694e-07
6.07065e-07 5.72694e-07 1.513e-05
0.00163669 1.80218e-05 1.52386e-06
1.80218e-05 0.000152609 -1.17474e-06
1.52386e-06 -1.17474e-06 0.000120597
0.00119897 3.21698e-05 2.7516e-06
3.21698e-05 1.41216e-05 -1.63187e-06
2.7516e-06 -1.63187e-06 -5.60427e-05
0.00141762 3.28363e-05 9.62829e-07
3.28363e-05 0.000192216 1.05636e-06
9.62829e-07 1.05636e-06 0.000103396
0.00115875 8.96513e-06 -3.33941e-07
8.96513e-06 8.33017e-05 -3.93829e-07
-3.33941e-07 -3.93829e-07 2.32737e-05
0.00114065 1.67986e-05 -4.64426e-08
1.67986e-05 7.9482e-05 -7.42853e-08
-4.64426e-08 -7.42853e-08 1.09603e-05
0.00114727 1.95376e-05 3.78703e-07
1.95376e-05 8.52167e-05 1.75591e-07
3.78703e-07 1.75591e-07 1.09795e-05
0.00106934 1.59774e-06 -2.95461e-07
1.59774e-06 3.30591e-05 -1.11187e-06
-2.95461e-07 -1.11187e-06 -1.21481e-05
0.0010971 6.79143e-06 -1.16055e-07
6.79143e-06 5.25288e-05 -3.72667e-07
-1.16055e-07 -3.72667e-07 -5.39487e-06
0.00103763 9.58438e-06 -3.07136e-07
9.58438e-06 2.73909e-05 -9.69743e-07
-3.07136e-07 -9.69743e-07 -4.05354e-05
0.00106601 -4.38234e-06 9.33204e-08
-4.38234e-06 3.16678e-05 1.53811e-08
9.33204e-08 1.53811e-08 -1.35696e-05
0.000980319 5.64002e-06 1.7357e-08
5.64002e-06 -4.9789e-06 3.39203e-07
1.7357e-08 3.39203e-07 -6.33297e-05
0.00113091 1.25828e-05 3.89573e-08
1.25828e-05 7.33042e-05 -3.46256e-07
3.89573e-08 -3.46256e-07 -2.01472e-07
0.00112451 4.78695e-06 8.3497e-08
4.78695e-06 6.91151e-05 3.17739e-07
8.3497e-08 3.17739e-07 2.61645e-06
0.00116888 1.96073e-05 1.89426e-07
1.96073e-05 8.99911e-05 -3.24086e-08
1.89426e-07 -3.24086e-08 1.30516e-05
0.00107686 -9.91677e-07 2.23844e-07
-9.91677e-07 4.34838e-05 6.68264e-07
2.23844e-07 6.68264e-07 -3.02086e-05
0.00114245 1.28028e-05 2.15138e-07
1.28028e-05 7.62105e-05 5.34934e-07
2.15138e-07 5.34934e-07 1.02372e-05
0.00108865 4.33656e-06 2.92421e-07
4.33656e-06 4.84676e-05 7.256e-07
2.92421e-07 7.256e-07 -9.42199e-06
0.00106594 -5.55735e-06 3.7218e-08
-5.55735e-06 3.18351e-05 1.06593e-06
3.7218e-08 1.06593e-06 -1.36647e-05
0.00103366 -2.37897e-07 4.99754e-08
-2.37897e-07 5.3502e-06 1.81077e-06
4.99754e-08 1.81077e-06 -2.19367e-05
0.00103497 -1.49483e-06 4.64401e-08
-1.49483e-06 6.414e-06 4.38815e-09
4.64401e-08 4.38815e-09 -2.06757e-05
0.00153287 -2.25418e-06 3.85207e-07
-2.25418e-06 0.000240802 1.94907e-06
3.85207e-07 1.94907e-06 0.000244789
0.00103715 -2.61579e-06 -3.55192e-07
-2.61579e-06 8.60898e-06 -1.83548e-06
-3.55192e-07 -1.83548e-06 -1.83718e-05
0.00155288 -3.87915e-06 -5.1246e-07
-3.87915e-06 0.000252549 -1.20894e-06
-5.1246e-07 -1.20894e-06 0.000256273
0.00121693 -4.17257e-06 2.7222e-06
-4.17257e-06 8.41301e-05 6.36086e-06
2.7222e-06 6.36086e-06 0.000102292
0.00156725 -5.36419e-06 -2.04745e-06
-5.36419e-06 0.000262334 -4.35907e-06
-2.04745e-06 -4.35907e-06 0.000265586
0.00116681 -6.01544e-06 1.10153e-06
-6.01544e-06 6.2659e-05 2.42009e-06
1.10153e-06 2.42009e-06 8.05803e-05
0.00111238 -7.73003e-06 -1.17409e-06
-7.73003e-06 3.97396e-05 -1.51912e-06
-1.17409e-06 -1.51912e-06 5.72556e-05
0.00102687 3.69121e-06 4.87926e-07
3.69121e-06 3.95713e-06 -1.75501e-06
4.87926e-07 -1.75501e-06 -2.07922e-05
0.000950916 6.37981e-06 1.20826e-06
6.37981e-06 -3.8553e-05 -3.02145e-06
1.20826e-06 -3.02145e-06 -3.74192e-05
0.000958091 7.731e-06 -5.70972e-08
7.731e-06 -3.15483e-05 3.49645e-09
-5.70972e-08 3.49645e-09 -3.16909e-05
0.00234075 1.05362e-05 5.28597e-06
1.05362e-05 0.00064238 -3.80014e-06
5.28597e-06 -3.80014e-06 0.000665129
0.000965603 9.00909e-06 -2.00326e-06
9.00909e-06 -2.37538e-05 2.9692e-06
-2.00326e-06 2.9692e-06 -2.52773e-05
0.00236362 1.25761e-05 -2.23165e-07
1.25761e-05 0.000658568 -3.21586e-08
-2.23165e-07 -3.21586e-08 0.000680256
0.00238723 1.44249e-05 -7.25062e-06
1.44249e-05 0.000674985 3.75357e-06
-7.25062e-06 3.75357e-06 0.000695644
0.00117104 -4.70646e-06 1.13245e-06
-4.70646e-06 -5.00083e-06 -2.24698e-07
1.13245e-06 -2.24698e-07 -5.47926e-05
0.0011769 -1.73718e-05 2.85942e-07
-1.73718e-05 2.16183e-05 -7.05795e-07
2.85942e-07 -7.05795e-07 -4.1518e-05
0.00125735 -1.75035e-05 -5.48531e-07
-1.75035e-05 8.74369e-05 1.54939e-06
-5.48531e-07 1.54939e-06 2.17315e-05
0.00119849 1.44006e-05 8.09589e-08
1.44006e-05 6.04204e-05 -7.06996e-07
8.09589e-08 -7.06996e-07 -4.24213e-06
0.00119827 6.00727e-06 1.47401e-07
6.00727e-06 6.65445e-05 -3.95019e-07
1.47401e-07 -3.95019e-07 2.59812e-06
0.00118579 -2.22191e-05 -7.11117e-08
-2.22191e-05 6.07188e-05 3.47797e-07
-7.11117e-08 3.47797e-07 -6.90422e-06
0.00126955 -1.13273e-05 -5.05296e-07
-1.13273e-05 4.81902e-05 2.83072e-07
-5.05296e-07 2.83072e-07 -5.03284e-06
0.00120988 1.56651e-06 6.87575e-07
1.56651e-06 7.41865e-05 -1.38654e-06
6.87575e-07 -1.38654e-06 9.07858e-06
0.00111816 -1.95228e-05 -1.28179e-06
-1.95228e-05 1.147e-05 8.30707e-07
-1.28179e-06 8.30707e-07 -5.1327e-05
0.00131249 -2.06447e-05 -1.09515e-06
-2.06447e-05 0.000110574 -6.13e-07
-1.09515e-06 -6.13e-07 6.49681e-05
0.00125269 2.22049e-05 1.93611e-07
2.22049e-05 6.11839e-05 -3.84559e-07
1.93611e-07 -3.84559e-07 -6.02188e-06
0.00134761 1.45416e-05 1.61012e-07
1.45416e-05 6.15801e-05 5.6154e-07
1.61012e-07 5.6154e-07 -5.91226e-06
0.00129865 -3.38184e-06 7.32888e-07
-3.38184e-06 4.38714e-05 8.69725e-07
7.32888e-07 8.69725e-07 -1.24761e-05
0.00116047 -2.18745e-05 -3.13594e-07
-2.18745e-05 7.16e-05 2.06301e-07
-3.13594e-07 2.06301e-07 1.12268e-05
0.00109514 -2.37488e-05 -1.59131e-07
-2.37488e-05 4.8955e-05 8.90075e-07
-1.59131e-07 8.90075e-07 -1.93715e-05
0.0012489 -2.71549e-05 -4.36593e-07
-2.71549e-05 0.000107623 3.89899e-07
-4.36593e-07 3.89899e-07 3.31212e-05
0.00138988 -1.7048e-05 2.57629e-06
-1.7048e-05 9.41804e-05 2.97163e-07
2.57629e-06 2.97163e-07 4.94131e-05
0.00118133 -2.47275e-05 -9.78961e-07
-2.47275e-05 1.76207e-05 -2.27372e-06
-9.78961e-07 -2.27372e-06 -3.81738e-05
0.00110092 -2.22637e-05 -7.09726e-07
-2.22637e-05 3.78055e-05 -4.12047e-08
-7.09726e-07 -4.12047e-08 -2.63608e-05
0.00117998 -2.35232e-05 -7.07176e-07
-2.35232e-05 7.72311e-05 -2.83114e-07
-7.07176e-07 -2.83114e-07 8.63054e-06
0.00112663 -2.09448e-05 -3.19625e-07
-2.09448e-05 6.65781e-05 -2.01562e-08
-3.19625e-07 -2.01562e-08 -2.9348e-06
0.0010189 5.64063e-06 -7.40423e-07
5.64063e-06 4.86584e-06 1.12892e-06
-7.40423e-07 1.12892e-06 -2.27111e-05
0.00114267 2.37249e-06 -6.42639e-07
2.37249e-06 7.26663e-05 1.25485e-06
-6.42639e-07 1.25485e-06 2.4051e-05
0.00115433 -1.73437e-05 -1.15052e-06
-1.73437e-05 8.01726e-05 1.19535e-06
-1.15052e-06 1.19535e-06 1.85091e-05
0.00122689 2.25687e-05 8.42567e-08
2.25687e-05 4.25115e-05 3.79757e-07
8.42567e-08 3.79757e-07 -2.39693e-05
0.00102689 4.44913e-06 -5.10622e-08
4.44913e-06 6.22569e-06 -6.59656e-09
-5.10622e-08 -6.59656e-09 -2.00376e-05
0.000978052 1.74452e-07 -2.52243e-07
1.74452e-07 -1.21641e-05 -1.24475e-08
-2.52243e-07 -1.24475e-08 -5.59646e-05
0.00140977 1.23193e-05 1.1618e-07
1.23193e-05 8.6659e-05 4.66689e-07
1.1618e-07 4.66689e-07 2.24856e-05
0.00125735 -9.8002e-06 -1.72444e-07
-9.8002e-06 9.86555e-06 -2.50901e-07
-1.72444e-07 -2.50901e-07 -3.40827e-05
0.00105486 -2.24331e-05 -1.0832e-07
-2.24331e-05 2.26724e-05 3.27924e-07
-1.0832e-07 3.27924e-07 -4.24809e-05
0.0012254 -2.7058e-05 -1.60196e-07
-2.7058e-05 0.000110013 1.41301e-07
-1.60196e-07 1.41301e-07 3.42338e-05
0.00116933 -2.70881e-05 5.086e-07
-2.70881e-05 5.17619e-05 5.17337e-07
5.086e-07 5.17337e-07 -2.08283e-05
0.00140338 -2.37001e-05 9.59717e-08
-2.37001e-05 8.92213e-05 -6.57181e-07
9.59717e-08 -6.57181e-07 4.70861e-05
0.00110078 1.79266e-06 1.63317e-07
1.79266e-06 5.09865e-05 -4.63942e-07
1.63317e-07 -4.63942e-07 4.71237e-06
0.00116179 -1.10377e-05 -2.66738e-07
-1.10377e-05 8.71595e-05 4.60839e-07
-2.66738e-07 4.60839e-07 2.43405e-05
0.00115316 -2.38836e-05 2.64373e-07
-2.38836e-05 6.37439e-05 9.22445e-08
2.64373e-07 9.22445e-08 -3.2772e-06
0.00121657 -2.49816e-05 -5.41772e-07
-2.49816e-05 9.86587e-05 -9.78954e-08
-5.41772e-07 -9.78954e-08 2.65219e-05
0.001134 -2.26137e-05 1.69984e-07
-2.26137e-05 6.4811e-05 1.59642e-07
1.69984e-07 1.59642e-07 -1.05052e-05
0.00112278 -2.06083e-05 2.90133e-07
-2.06083e-05 6.63639e-05 -3.33625e-07
2.90133e-07 -3.33625e-07 -4.2028e-06
0.00137438 2.45783e-05 1.05634e-06
2.45783e-05 0.000108028 6.9382e-07
1.05634e-06 6.9382e-07 3.58727e-05
0.00141634 6.78646e-06 -1.21233e-06
6.78646e-06 8.04211e-05 -1.97918e-06
-1.21233e-06 -1.97918e-06 2.80626e-05
0.00145196 -1.87935e-05 -3.3197e-06
-1.87935e-05 7.42258e-05 -1.73794e-07
-3.3197e-06 -1.73794e-07 4.8586e-05
0.00135934 -2.95896e-05 4.35435e-07
-2.95896e-05 0.000105982 2.51849e-06
4.35435e-07 2.51849e-06 4.63181e-05
0.0010853 -2.42465e-05 7.57874e-08
-2.42465e-05 4.09533e-05 -4.64917e-07
7.57874e-08 -4.64917e-07 -2.87702e-05
0.0014227 -3.12789e-05 -1.82481e-07
-3.12789e-05 0.000202719 -1.06397e-07
-1.82481e-07 -1.06397e-07 0.000121382
0.000888633 2.06948e-06 1.41347e-07
2.06948e-06 -5.74842e-05 -1.5232e-06
1.41347e-07 -1.5232e-06 -9.99657e-05
0.001066 -3.22208e-06 5.34425e-07
-3.22208e-06 3.21334e-05 -1.04728e-06
5.34425e-07 -1.04728e-06 -1.25531e-05
0.00128792 -7.71144e-07 -1.02093e-07
-7.71144e-07 0.000146241 -1.12259e-07
-1.02093e-07 -1.12259e-07 9.04406e-05
0.000926791 -1.262e-06 2.44146e-07
-1.262e-06 -2.50869e-05 -7.62581e-07
2.44146e-07 -7.62581e-07 -8.83641e-05
0.0012246 -1.90996e-05 5.05679e-07
-1.90996e-05 0.000117793 -1.13564e-08
5.05679e-07 -1.13564e-08 4.68077e-05
0.000999767 -2.09811e-05 2.27677e-07
-2.09811e-05 4.40234e-06 -2.47048e-07
2.27677e-07 -2.47048e-07 -7.55517e-05
0.00127453 -2.52725e-05 1.08326e-06
-2.52725e-05 0.000137172 2.63345e-07
1.08326e-06 2.63345e-07 5.5784e-05
0.00111289 -2.56236e-05 1.63601e-07
-2.56236e-05 5.34605e-05 2.47573e-07
1.63601e-07 2.47573e-07 -1.88459e-05
0.000995479 1.09625e-05 -4.13166e-07
1.09625e-05 1.88342e-06 -4.2119e-07
-4.13166e-07 -4.2119e-07 -6.01942e-05
0.00115929 2.04231e-05 -1.29122e-06
2.04231e-05 8.15211e-05 -5.8738e-07
-1.29122e-06 -5.8738e-07 1.239e-05
0.00132643 2.16613e-06 -1.36267e-07
2.16613e-06 3.87197e-05 -1.10561e-06
-1.36267e-07 -1.10561e-06 -4.41004e-06
0.00121743 2.05069e-05 -2.8895e-07
2.05069e-05 1.50981e-05 8.51784e-07
-2.8895e-07 8.51784e-07 -3.26491e-05
0.0012222 2.24552e-05 -9.91048e-07
2.24552e-05 0.00010547 -2.34035e-07
-9.91048e-07 -2.34035e-07 3.51489e-05
0.00120961 2.41616e-05 -7.01365e-07
2.41616e-05 0.000104897 -1.00433e-06
-7.01365e-07 -1.00433e-06 3.48142e-05
0.00153802 3.27336e-05 -6.75413e-07
3.27336e-05 0.000215646 4.89718e-07
-6.75413e-07 4.89718e-07 0.000143138
0.00106001 2.74279e-05 -8.86062e-07
2.74279e-05 2.4267e-05 -7.39729e-07
-8.86062e-07 -7.39729e-07 -5.97504e-05
0.00114508 2.04099e-05 -2.54774e-07
2.04099e-05 8.02522e-05 -3.26977e-07
-2.54774e-07 -3.26977e-07 1.02411e-05
0.00111799 -1.12527e-05 -7.71442e-08
-1.12527e-05 -2.04245e-05 7.12116e-07
-7.71442e-08 7.12116e-07 -6.83081e-05
0.00117977 2.33871e-05 1.58358e-07
2.33871e-05 9.14167e-05 3.07863e-07
1.58358e-07 3.07863e-07 1.52369e-05
0.00108231 2.52034e-05 1.8693e-07
2.52034e-05 3.85849e-05 -4.88101e-08
1.8693e-07 -4.88101e-08 -4.03337e-05
0.00139621 1.56753e-05 5.22341e-07
1.56753e-05 4.57421e-05 -3.44322e-07
5.22341e-07 -3.44322e-07 1.23661e-05
0.00142619 3.42786e-05 5.54024e-07
3.42786e-05 0.000118368 -7.02874e-07
5.54024e-07 -7.02874e-07 4.88353e-05
0.00141073 3.31237e-05 3.79941e-07
3.31237e-05 0.000190316 5.35636e-07
3.79941e-07 5.35636e-07 0.00010034
0.00122841 2.15511e-05 2.23191e-07
2.15511e-05 0.000124949 2.33791e-07
2.23191e-07 2.33791e-07 4.82432e-05
0.00134457 4.97252e-06 1.07833e-06
4.97252e-06 1.40682e-05 -2.76188e-06
1.07833e-06 -2.76188e-06 -1.84679e-05
0.00136371 2.58009e-05 2.25833e-07
2.58009e-05 0.000178506 -3.11915e-08
2.25833e-07 -3.11915e-08 9.83359e-05
0.00155459 3.22702e-05 -2.41012e-07
3.22702e-05 0.000268653 1.18662e-06
-2.41012e-07 1.18662e-06 0.000178812
0.00118191 3.62639e-05 3.35697e-06
3.62639e-05 -6.98347e-05 -1.34218e-06
3.35697e-06 -1.34218e-06 -0.000126946
0.00105624 3.48484e-05 1.00799e-06
3.48484e-05 2.08656e-06 2.04017e-07
1.00799e-06 2.04017e-07 -9.16103e-05
0.0018866 -5.94035e-05 -7.52226e-06
-5.94035e-05 -5.16273e-05 -9.24984e-06
-7.52226e-06 -9.24984e-06 -7.84605e-06
0.00113441 1.69042e-05 -3.40838e-07
1.69042e-05 7.68843e-05 -5.50682e-07
-3.40838e-07 -5.50682e-07 8.34232e-06
0.00113465 1.9364e-05 -3.62395e-08
1.9364e-05 8.01448e-05 -6.48015e-08
-3.62395e-08 -6.48015e-08 5.84474e-06
0.00121776 2.02362e-05 3.12108e-07
2.02362e-05 0.000119054 -9.64888e-08
3.12108e-07 -9.64888e-08 4.138e-05
0.00106771 -4.67699e-06 -5.90075e-08
-4.67699e-06 3.25029e-05 -1.085e-06
-5.90075e-08 -1.085e-06 -1.27466e-05
0.000981628 -1.03708e-06 -1.94607e-07
-1.03708e-06 -4.23473e-06 -3.86844e-07
-1.94607e-07 -3.86844e-07 -6.25605e-05
0.00123504 1.12979e-05 -1.84708e-07
1.12979e-05 0.00012328 -2.64513e-07
-1.84708e-07 -2.64513e-07 5.74542e-05
0.00107309 1.09644e-05 -4.34402e-07
1.09644e-05 4.48762e-05 -8.90909e-07
-4.34402e-07 -8.90909e-07 -2.92233e-05
0.00106559 -6.7659e-06 2.24151e-08
-6.7659e-06 3.16688e-05 1.64865e-08
2.24151e-08 1.64865e-08 -1.38529e-05
0.00103337 5.39417e-06 1.21086e-07
5.39417e-06 2.12944e-05 1.50488e-08
1.21086e-07 1.50488e-08 -3.69929e-05
0.00113439 1.91748e-05 -2.97222e-07
1.91748e-05 7.26653e-05 -4.51408e-07
-2.97222e-07 -4.51408e-07 -4.39284e-06
0.00114233 7.12903e-06 -4.39555e-08
7.12903e-06 7.62421e-05 -2.99719e-08
-4.39555e-08 -2.99719e-08 1.0266e-05
0.00114941 1.57619e-06 9.2677e-08
1.57619e-06 7.97664e-05 -7.90934e-09
9.2677e-08 -7.90934e-09 6.61731e-06
0.00112494 9.28403e-06 9.94813e-08
9.28403e-06 6.23174e-05 5.70246e-07
9.94813e-08 5.70246e-07 -1.5972e-05
0.00120867 1.31251e-05 9.41436e-08
1.31251e-05 0.000108159 1.2738e-07
9.41436e-08 1.2738e-07 3.61935e-05
0.00123223 1.61685e-05 1.23681e-07
1.61685e-05 0.000119337 2.10986e-07
1.23681e-07 2.10986e-07 5.34924e-05
0.000954229 1.74432e-06 2.50516e-08
1.74432e-06 -1.70688e-05 7.30372e-07
2.50516e-08 7.30372e-07 -7.63399e-05
0.000880354 -1.048e-07 -1.6561e-08
-1.048e-07 -5.85178e-05 1.44996e-06
-1.6561e-08 1.44996e-06 -0.000105435
0.0012699 1.08439e-06 2.43783e-08
1.08439e-06 0.000138538 3.11808e-07
2.43783e-08 3.11808e-07 8.06038e-05
0.00088532 2.76277e-07 -2.20025e-07
2.76277e-07 -5.60328e-05 1.44841e-06
-2.20025e-07 1.44841e-06 -0.000102959
0.00103472 1.03757e-06 -1.52249e-07
1.03757e-06 6.05576e-06 1.78319e-06
-1.52249e-07 1.78319e-06 -2.13658e-05
0.00103486 -2.914e-07 4.92907e-08
-2.914e-07 5.93389e-06 4.96474e-09
4.92907e-08 4.96474e-09 -2.13563e-05
0.000972729 -3.22415e-07 9.10296e-08
-3.22415e-07 -3.46827e-05 3.1428e-06
9.10296e-08 3.1428e-06 -3.36154e-05
0.00103711 -1.546e-06 -1.54573e-07
-1.546e-06 7.50686e-06 -1.81211e-06
-1.54573e-07 -1.81211e-06 -1.95983e-05
0.00126309 -2.05221e-06 -2.86191e-07
-2.05221e-06 0.000108586 -1.2287e-06
-2.86191e-07 -1.2287e-06 0.000111056
0.00233594 -2.6134e-06 1.40714e-06
-2.6134e-06 0.000630714 3.95366e-06
1.40714e-06 3.95366e-06 0.000654867
0.00157079 -3.76681e-06 -1.22715e-06
-3.76681e-06 0.000261407 -4.3593e-06
-1.22715e-06 -4.3593e-06 0.000265013
0.00116932 -4.22872e-06 6.02216e-07
-4.22872e-06 6.07616e-05 2.41618e-06
6.02216e-07 2.41618e-06 7.91657e-05
0.00111749 -5.97503e-06 -8.57513e-07
-5.97503e-06 3.8426e-05 -1.52874e-06
-8.57513e-07 -1.52874e-06 5.65912e-05
0.00102958 2.6586e-06 3.35284e-07
2.6586e-06 3.10963e-06 -1.81371e-06
3.35284e-07 -1.81371e-06 -2.02645e-05
0.00103138 3.66458e-06 -6.6976e-08
3.66458e-06 6.08129e-06 -1.45389e-09
-6.6976e-08 -1.45389e-09 -1.86886e-05
0.000958314 4.93615e-06 8.86898e-07
4.93615e-06 -3.80017e-05 -3.03387e-06
8.86898e-07 -3.03387e-06 -3.56557e-05
0.00125026 6.66545e-06 -2.35854e-07
6.66545e-06 0.000108008 2.80943e-08
-2.35854e-07 2.80943e-08 0.00011042
0.00231045 8.46889e-06 4.35313e-06
8.46889e-06 0.000623661 -3.80788e-06
4.35313e-06 -3.80788e-06 0.000647317
0.000972733 7.72886e-06 -1.69895e-06
7.72886e-06 -2.45791e-05 2.97784e-06
-1.69895e-06 2.97784e-06 -2.4789e-05
0.00233063 1.05846e-05 -2.31424e-07
1.05846e-05 0.000637988 -2.6828e-08
-2.31424e-07 -2.6828e-08 0.000660665
0.00235565 1.25694e-05 -6.47171e-06
1.25694e-05 0.000655187 3.81608e-06
-6.47171e-06 3.81608e-06 0.000676787
0.00124967 -1.11824e-05 2.18122e-07
-1.11824e-05 4.13732e-05 -7.31732e-07
2.18122e-07 -7.31732e-07 -1.0536e-05
0.00122075 -2.24619e-05 3.49689e-07
-2.24619e-05 7.795e-05 1.31493e-06
3.49689e-07 1.31493e-06 9.61568e-06
0.00124232 4.32976e-06 -9.6248e-10
4.32976e-06 9.01502e-05 -4.78875e-07
-9.6248e-10 -4.78875e-07 2.68994e-05
0.00121027 8.85235e-07 -3.39799e-07
8.85235e-07 7.43935e-05 -1.06707e-06
-3.39799e-07 -1.06707e-06 9.43517e-06
0.00115264 -1.95001e-05 -2.98135e-08
-1.95001e-05 2.98635e-05 2.26499e-07
-2.98135e-08 2.26499e-07 -3.30935e-05
0.00116509 -2.11249e-05 1.28163e-06
-2.11249e-05 5.85579e-05 2.81436e-07
1.28163e-06 2.81436e-07 1.3206e-05
0.00135758 -2.48078e-06 -1.11006e-06
-2.48078e-06 0.000137362 1.19714e-06
-1.11006e-06 1.19714e-06 7.32937e-05
0.00122179 -4.68501e-05 -9.86159e-06
-4.68501e-05 5.45044e-05 -8.08068e-06
-9.86159e-06 -8.08068e-06 5.65701e-05
0.000974953 -3.93848e-06 -1.76134e-06
-3.93848e-06 -1.36237e-05 -2.83495e-07
-1.76134e-06 -2.83495e-07 -4.13224e-05
0.00106606 -7.23592e-07 -1.66749e-07
-7.23592e-07 2.71494e-05 -9.96591e-07
-1.66749e-07 -9.96591e-07 -1.2583e-05
0.00114974 2.17639e-05 -5.41102e-07
2.17639e-05 4.13342e-06 -3.57741e-07
-5.41102e-07 -3.57741e-07 -6.29488e-05
0.00141403 1.21628e-05 7.41945e-07
1.21628e-05 8.81287e-05 1.25569e-06
7.41945e-07 1.25569e-06 2.44408e-05
0.00117796 -1.02604e-05 1.89298e-06
-1.02604e-05 -2.4799e-05 1.08056e-06
1.89298e-06 1.08056e-06 -7.09863e-05
0.00105373 -2.23671e-05 -3.31188e-07
-2.23671e-05 2.20117e-05 5.00774e-07
-3.31188e-07 5.00774e-07 -4.28723e-05
0.00114859 -2.65306e-05 -1.00276e-07
-2.65306e-05 7.29776e-05 1.25119e-06
-1.00276e-07 1.25119e-06 -3.49521e-06
0.00104341 -2.57548e-05 -1.4946e-07
-2.57548e-05 -1.04528e-05 -9.64565e-07
-1.4946e-07 -9.64565e-07 -8.22022e-05
0.00131215 -2.39003e-05 7.79986e-07
-2.39003e-05 4.57079e-05 -2.40363e-06
7.79986e-07 -2.40363e-06 3.42887e-06
0.00121282 -2.43564e-05 3.93497e-08
-2.43564e-05 9.21509e-05 -2.24916e-07
3.93497e-08 -2.24916e-07 2.52725e-05
0.00111022 -2.4113e-05 -1.5453e-06
-2.4113e-05 4.60133e-05 -8.27906e-07
-1.5453e-06 -8.27906e-07 -2.53406e-05
0.00106822 -2.21049e-05 -8.63541e-07
-2.21049e-05 3.25036e-05 -5.5418e-08
-8.63541e-07 -5.5418e-08 -4.36599e-05
0.00103106 4.41031e-06 -8.23758e-07
4.41031e-06 8.11447e-06 1.71268e-06
-8.23758e-07 1.71268e-06 -1.81595e-05
0.00114507 -2.08095e-05 -8.10423e-08
-2.08095e-05 7.69693e-05 6.45384e-08
-8.10423e-08 6.45384e-08 6.72286e-06
0.00134086 -3.51199e-07 -3.33556e-07
-3.51199e-07 0.000167758 5.78948e-07
-3.33556e-07 5.78948e-07 0.000123017
0.00115208 -1.06367e-05 -7.15014e-07
-1.06367e-05 8.29565e-05 9.8109e-07
-7.15014e-07 9.8109e-07 1.99763e-05
0.000878132 1.77487e-06 -4.50139e-07
1.77487e-06 -6.07291e-05 1.06521e-06
-4.50139e-07 1.06521e-06 -0.000105045
0.00133888 2.42229e-05 2.1752e-07
2.42229e-05 8.39646e-05 9.21824e-08
2.1752e-07 9.21824e-08 1.10826e-05
0.000978708 1.2991e-06 6.98371e-08
1.2991e-06 -1.3913e-05 -4.62631e-07
6.98371e-08 -4.62631e-07 -5.56241e-05
0.0010676 -3.26366e-06 4.90762e-08
-3.26366e-06 3.2914e-05 1.21718e-08
4.90762e-08 1.21718e-08 -1.17834e-05
0.00114303 5.58819e-07 -1.32111e-07
5.58819e-07 7.57825e-05 4.70047e-07
-1.32111e-07 4.70047e-07 1.88323e-05
0.00144098 6.97471e-06 4.23258e-07
6.97471e-06 9.32467e-05 4.93833e-07
4.23258e-07 4.93833e-07 4.08751e-05
0.00133336 -1.96306e-05 -9.08949e-08
-1.96306e-05 1.91115e-05 -1.08435e-06
-9.08949e-08 -1.08435e-06 -9.53766e-06
0.00112278 -2.45599e-05 2.55432e-08
-2.45599e-05 5.72476e-05 1.38063e-07
2.55432e-08 1.38063e-07 -1.21382e-05
0.00116761 -2.91644e-05 3.06955e-07
-2.91644e-05 8.2798e-05 -4.04017e-08
3.06955e-07 -4.04017e-08 1.48044e-06
0.00120866 -2.8347e-05 -1.2694e-07
-2.8347e-05 3.49424e-05 5.06613e-07
-1.2694e-07 5.06613e-07 -2.39928e-05
0.00101501 -2.2364e-06 -3.37707e-08
-2.2364e-06 1.78252e-05 3.16781e-08
-3.37707e-08 3.16781e-08 -4.4555e-05
0.00121891 -1.93377e-05 2.02709e-07
-1.93377e-05 0.000114273 5.18913e-08
2.02709e-07 5.18913e-08 4.30151e-05
0.00112303 -2.56711e-05 -3.01041e-07
-2.56711e-05 5.79252e-05 -4.74195e-08
-3.01041e-07 -4.74195e-08 -1.44703e-05
0.00121953 -2.46348e-05 -9.03847e-09
-2.46348e-05 0.000109576 1.20217e-08
-9.03847e-09 1.20217e-08 2.97817e-05
0.0010929 -2.16987e-05 -5.62118e-07
-2.16987e-05 5.04208e-05 4.28847e-07
-5.62118e-07 4.28847e-07 -2.91034e-05
0.00135183 2.5746e-05 1.31679e-07
2.5746e-05 7.80003e-05 -8.46899e-07
1.31679e-07 -8.46899e-07 2.50044e-06
0.00135065 -4.67654e-06 -2.97295e-06
-4.67654e-06 1.506e-06 -2.77964e-06
-2.97295e-06 -2.77964e-06 -1.96592e-05
0.00155921 -3.13391e-05 -9.77171e-07
-3.13391e-05 0.000133586 2.7128e-06
-9.77171e-07 2.7128e-06 9.25541e-05
0.00153541 -3.47711e-05 5.5245e-07
-3.47711e-05 0.000238624 2.57368e-07
5.5245e-07 2.57368e-07 0.000160957
0.000992104 -2.68023e-05 -3.9672e-08
-2.68023e-05 8.06295e-06 -6.41125e-07
-3.9672e-08 -6.41125e-07 -6.73866e-05
0.000882806 1.14834e-05 -5.07502e-08
1.14834e-05 -5.19772e-05 -9.51778e-07
-5.07502e-08 -9.51778e-07 -0.000107315
0.000928532 -1.17855e-07 2.77924e-07
-1.17855e-07 -2.71802e-05 -6.04196e-07
2.77924e-07 -6.04196e-07 -8.75484e-05
0.00116583 9.57162e-06 -2.41157e-08
9.57162e-06 9.57616e-05 1.94152e-07
-2.41157e-08 1.94152e-07 2.90027e-05
0.00117814 -1.887e-05 5.57611e-07
-1.887e-05 9.93238e-05 -4.5857e-07
5.57611e-07 -4.5857e-07 2.53458e-05
0.00103742 -2.04684e-05 -1.69136e-08
-2.04684e-05 2.37373e-05 2.09763e-07
-1.69136e-08 2.09763e-07 -5.43052e-05
0.00125146 -2.43044e-05 1.47447e-06
-2.43044e-05 0.000132832 -6.2931e-07
1.47447e-06 -6.2931e-07 4.52304e-05
0.00116622 -2.73147e-05 1.36591e-06
-2.73147e-05 8.78952e-05 4.4582e-07
1.36591e-06 4.4582e-07 4.36133e-06
0.00111576 2.01629e-05 -6.10468e-07
2.01629e-05 6.63204e-05 -8.28552e-07
-6.10468e-07 -8.28552e-07 -3.71772e-06
0.00109887 2.2826e-05 -4.18152e-07
2.2826e-05 5.15754e-05 1.46864e-07
-4.18152e-07 1.46864e-07 -2.44152e-05
0.000942988 -9.93007e-06 1.90601e-06
-9.93007e-06 -9.58735e-05 1.34829e-06
1.90601e-06 1.34829e-06 -0.000140257
0.00113055 1.33526e-05 1.12784e-06
1.33526e-05 -7.24159e-05 -8.41052e-09
1.12784e-06 -8.41052e-09 -0.000107174
0.00164876 3.6374e-05 -1.02377e-06
3.6374e-05 0.000220604 4.84208e-07
-1.02377e-06 4.84208e-07 0.000151681
0.00096059 2.41299e-05 -3.44415e-07
2.41299e-05 -2.18392e-05 -4.57951e-07
-3.44415e-07 -4.57951e-07 -0.000101427
0.00137839 3.31869e-05 -7.7489e-07
3.31869e-05 0.000176008 -5.75716e-08
-7.7489e-07 -5.75716e-08 8.49277e-05
0.00121194 2.13909e-05 1.78469e-08
2.13909e-05 0.000116974 2.46608e-08
1.78469e-08 2.46608e-08 4.07131e-05
0.00116632 4.82003e-06 -1.39582e-06
4.82003e-06 -6.21594e-05 1.07289e-07
-1.39582e-06 1.07289e-07 -9.30315e-05
0.00120762 2.44259e-05 -9.99876e-08
2.44259e-05 0.000103706 -2.61815e-08
-9.99876e-08 -2.61815e-08 2.35245e-05
0.00126957 2.94605e-05 -1.63009e-07
2.94605e-05 0.000135104 3.1225e-07
-1.63009e-07 3.1225e-07 4.49232e-05
0.00137125 3.58561e-05 1.53873e-06
3.58561e-05 1.42117e-05 -1.00431e-06
1.53873e-06 -1.00431e-06 -3.97611e-05
0.00121577 3.66425e-05 -3.49898e-07
3.66425e-05 8.25704e-05 7.67768e-07
-3.49898e-07 7.67768e-07 -1.30113e-05
0.00191606 -4.9706e-05 -1.09979e-06
-4.9706e-05 6.283e-05 4.11222e-07
-1.09979e-06 4.11222e-07 8.71095e-05
0.00122279 2.14455e-05 -1.45761e-07
2.14455e-05 0.00012511 -2.88506e-07
-1.45761e-07 -2.88506e-07 4.47489e-05
0.0010335 4.09918e-05 6.99006e-06
4.09918e-05 -0.000227214 2.24906e-06
6.99006e-06 2.24906e-06 -0.000285177
0.00127559 2.54161e-05 -7.30494e-07
2.54161e-05 0.000150267 -1.67922e-07
-7.30494e-07 -1.67922e-07 6.46614e-05
0.00122485 3.2329e-05 -1.17183e-06
3.2329e-05 0.000146513 1.56804e-06
-1.17183e-06 1.56804e-06 3.97808e-05
0.000745445 4.59124e-05 1.9665e-06
4.59124e-05 -0.000194018 -9.63138e-07
1.9665e-06 -9.63138e-07 -0.000285156
0.00505433 3.08551e-05 -1.65267e-06
3.08551e-05 0.00160088 -1.69482e-06
-1.65267e-06 -1.69482e-06 0.00129927
0.000511538 -3.73286e-05 3.38505e-05
-3.73286e-05 -0.00013262 1.026e-05
3.38505e-05 1.026e-05 -0.000277356
0.00221486 -6.88661e-06 -1.07733e-05
-6.88661e-06 0.000112303 -6.71897e-06
-1.07733e-05 -6.71897e-06 0.000157874
-0.00288261 -4.08562e-05 -4.5475e-05
-4.08562e-05 -0.00144918 -1.4653e-05
-4.5475e-05 -1.4653e-05 -0.00146202
0.000819272 -5.36654e-05 -1.69228e-07
-5.36654e-05 2.37177e-05 4.31445e-07
-1.69228e-07 4.31445e-07 0.000175661
0.00112286 1.92e-05 -3.07797e-07
1.92e-05 7.54302e-05 -3.70907e-07
-3.07797e-07 -3.70907e-07 1.07013e-06
0.00117612 1.97486e-05 -2.42581e-08
1.97486e-05 9.94253e-05 -9.10257e-08
-2.42581e-08 -9.10257e-08 2.18109e-05
0.00115932 1.72537e-05 3.40459e-07
1.72537e-05 8.59171e-05 6.24333e-09
3.40459e-07 6.24333e-09 6.23713e-06
0.00106618 -7.85255e-06 5.65892e-08
-7.85255e-06 3.19652e-05 -1.04965e-06
5.65892e-08 -1.04965e-06 -1.35808e-05
0.000979282 7.58794e-06 -1.21847e-07
7.58794e-06 -5.27021e-06 -7.30339e-07
-1.21847e-07 -7.30339e-07 -6.39641e-05
0.00114148 1.46986e-06 -1.38376e-07
1.46986e-06 7.58325e-05 -5.99579e-07
-1.38376e-07 -5.99579e-07 9.9213e-06
0.00122231 5.81738e-06 -2.07299e-07
5.81738e-06 0.000116154 -5.92337e-07
-2.07299e-07 -5.92337e-07 4.35966e-05
0.00110091 1.71262e-05 -8.97239e-07
1.71262e-05 5.57868e-05 -7.46958e-07
-8.97239e-07 -7.46958e-07 -2.13457e-05
0.00113157 1.34434e-05 -1.07391e-07
1.34434e-05 6.99239e-05 -3.30424e-07
-1.07391e-07 -3.30424e-07 3.40367e-06
0.000973498 -6.25619e-07 -1.51382e-08
-6.25619e-07 -1.31236e-05 4.12596e-07
-1.51382e-08 4.12596e-07 -5.9449e-05
0.00102227 2.80477e-07 1.06018e-08
2.80477e-07 1.63264e-05 5.90404e-09
1.06018e-08 5.90404e-09 -4.24926e-05
0.00115948 1.11745e-05 -1.80384e-08
1.11745e-05 8.03369e-05 1.9754e-07
-1.80384e-08 1.9754e-07 2.45687e-06
0.00117429 1.23775e-05 -7.33339e-08
1.23775e-05 9.06502e-05 -3.10439e-07
-7.33339e-08 -3.10439e-07 1.85475e-05
0.00120337 2.00542e-05 -3.04937e-08
2.00542e-05 0.00010501 -1.07235e-07
-3.04937e-08 -1.07235e-07 3.33294e-05
0.00119819 1.40745e-05 2.47598e-08
1.40745e-05 9.81327e-05 3.31769e-07
2.47598e-08 3.31769e-07 2.14498e-05
0.00104282 1.47871e-05 1.53674e-07
1.47871e-05 2.60538e-05 8.87436e-07
1.53674e-07 8.87436e-07 -4.21814e-05
0.000953795 -1.18583e-06 4.73086e-08
-1.18583e-06 -1.68998e-05 3.62292e-07
4.73086e-08 3.62292e-07 -7.66935e-05
0.000881239 -4.76123e-06 -2.53162e-07
-4.76123e-06 -5.79411e-05 1.42884e-06
-2.53162e-07 1.42884e-06 -0.00010494
0.00114586 1.79301e-06 -2.82179e-08
1.79301e-06 7.72656e-05 6.29917e-07
-2.82179e-08 6.29917e-07 1.8885e-05
0.00124726 3.50826e-06 -5.21796e-08
3.50826e-06 0.000130114 1.74219e-07
-5.21796e-08 1.74219e-07 6.29399e-05
0.00108369 -5.42067e-06 -2.11512e-07
-5.42067e-06 4.81989e-05 7.41477e-07
-2.11512e-07 7.41477e-07 -1.16771e-05
0.00111871 -9.2868e-07 1.55955e-07
-9.2868e-07 6.47492e-05 -4.09575e-07
1.55955e-07 -4.09575e-07 5.82677e-06
0.00106678 -3.21959e-06 -2.79232e-07
-3.21959e-06 3.25999e-05 1.07027e-06
-2.79232e-07 1.07027e-06 -1.35506e-05
0.000887597 1.54669e-06 -5.21939e-09
1.54669e-06 -5.48726e-05 4.01329e-07
-5.21939e-09 4.01329e-07 -0.000101834
0.00103463 2.17992e-06 -3.37183e-07
2.17992e-06 6.69574e-06 1.7715e-06
-3.37183e-07 1.7715e-06 -2.07997e-05
0.00103475 9.83315e-07 4.06656e-08
9.83315e-07 6.00656e-06 5.8226e-09
4.06656e-08 5.8226e-09 -2.14035e-05
0.00099762 1.30478e-06 -3.80985e-07
1.30478e-06 -2.2455e-05 4.36736e-06
-3.80985e-07 4.36736e-06 -2.16213e-05
0.0010363 -3.45775e-07 5.17225e-08
-3.45775e-07 6.62656e-06 -1.7959e-06
5.17225e-08 -1.7959e-06 -2.06674e-05
0.000974414 -3.24107e-07 8.03235e-08
-3.24107e-07 -3.38508e-05 2.58668e-09
8.03235e-08 2.58668e-09 -3.27991e-05
0.00234422 -5.74267e-07 7.36407e-08
-5.74267e-07 0.000633845 3.958e-06
7.36407e-08 3.958e-06 0.000658068
0.00099394 -1.93778e-06 -3.82066e-07
-1.93778e-06 -2.33576e-05 -4.38795e-06
-3.82066e-07 -4.38795e-06 -2.24051e-05
0.00175266 -2.42191e-06 -2.99583e-08
-2.42191e-06 0.000344654 3.01863e-08
-2.99583e-08 3.01863e-08 0.000366055
0.00112196 -4.12433e-06 -5.30225e-07
-4.12433e-06 3.74976e-05 -1.53095e-06
-5.30225e-07 -1.53095e-06 5.61472e-05
0.00103037 1.34566e-06 1.27725e-07
1.34566e-06 2.04544e-06 -1.79008e-06
1.27725e-07 -1.79008e-06 -2.03561e-05
0.00103431 2.63258e-06 -3.07266e-08
2.63258e-06 5.32898e-06 -4.34999e-09
-3.07266e-08 -4.34999e-09 -1.80616e-05
0.000965207 3.37579e-06 5.43209e-07
3.37579e-06 -3.68752e-05 -3.06041e-06
5.43209e-07 -3.06041e-06 -3.351e-05
0.00103655 3.64396e-06 -6.20154e-07
3.64396e-06 8.53155e-06 1.75222e-06
-6.20154e-07 1.75222e-06 -1.62622e-05
0.0012416 5.1284e-06 -1.04524e-08
5.1284e-06 0.000100653 -5.77157e-07
-1.04524e-08 -5.77157e-07 0.00010435
0.00228179 6.3644e-06 3.31298e-06
6.3644e-06 0.000606551 -3.81958e-06
3.31298e-06 -3.81958e-06 0.000630996
0.000965413 6.37807e-06 -1.42649e-06
6.37807e-06 -3.14576e-05 2.99129e-06
-1.42649e-06 2.99129e-06 -3.05806e-05
0.00232704 8.35596e-06 -1.53422e-06
8.35596e-06 0.000632666 1.12694e-06
-1.53422e-06 1.12694e-06 0.000656031
0.00232148 1.06168e-05 -5.65291e-06
1.06168e-05 0.000634064 3.82299e-06
-5.65291e-06 3.82299e-06 0.000656667
0.00120163 -1.95782e-05 -1.78972e-07
-1.95782e-05 5.48024e-05 3.275e-07
-1.78972e-07 3.275e-07 -8.29675e-06
0.00121081 1.8803e-07 -4.98231e-07
1.8803e-07 7.46945e-05 -9.53052e-07
-4.98231e-07 -9.53052e-07 9.88054e-06
0.00109209 -2.17062e-05 6.36741e-06
-2.17062e-05 3.97065e-05 1.91251e-06
6.36741e-06 1.91251e-06 -5.25761e-06
0.00104895 -4.50117e-05 -4.25112e-06
-4.50117e-05 -2.82683e-05 -2.5315e-06
-4.25112e-06 -2.5315e-06 -1.82365e-05
0.00113962 -2.90736e-06 -2.88478e-07
-2.90736e-06 3.87312e-05 -4.69764e-07
-2.88478e-07 -4.69764e-07 -2.53674e-05
0.000989675 -3.42396e-06 -2.5655e-09
-3.42396e-06 -1.35119e-05 -1.66179e-06
-2.5655e-09 -1.66179e-06 -4.82186e-05
0.000952063 1.93535e-05 -1.17963e-06
1.93535e-05 -7.22525e-05 3.70286e-06
-1.17963e-06 3.70286e-06 -0.000142574
0.00120163 -3.14561e-05 8.84976e-05
-3.14561e-05 -0.000105769 2.33272e-05
8.84976e-05 2.33272e-05 -0.000218039
0.00110808 -8.60909e-06 -8.11024e-06
-8.60909e-06 0.000220787 3.18883e-06
-8.11024e-06 3.18883e-06 0.000202635
0.00106975 -1.848e-07 7.44164e-08
-1.848e-07 2.81617e-05 -9.45639e-07
7.44164e-08 -9.45639e-07 -1.05418e-05
0.00107402 -1.50775e-06 -1.7055e-07
-1.50775e-06 3.10402e-05 5.88656e-09
-1.7055e-07 5.88656e-09 -8.7766e-06
0.00106798 1.20136e-05 -3.7151e-07
1.20136e-05 3.62901e-05 -5.33557e-07
-3.7151e-07 -5.33557e-07 -1.5988e-05
0.00108001 -3.80405e-06 -2.05278e-08
-3.80405e-06 4.21295e-05 -1.82026e-07
-2.05278e-08 -1.82026e-07 -7.64599e-06
0.00129909 2.38445e-05 -5.44025e-07
2.38445e-05 5.74405e-05 2.35671e-07
-5.44025e-07 2.35671e-07 -1.61169e-05
0.00145112 7.07182e-06 2.42165e-06
7.07182e-06 9.90141e-05 2.18491e-06
2.42165e-06 2.18491e-06 4.66609e-05
0.00122715 -2.04991e-05 1.44768e-06
-2.04991e-05 -3.0031e-05 -1.05683e-06
1.44768e-06 -1.05683e-06 -6.17275e-05
0.00115895 -2.48645e-05 -7.12231e-08
-2.48645e-05 7.29047e-05 7.12971e-07
-7.12231e-08 7.12971e-07 3.86021e-06
0.000908605 -2.70203e-05 5.34211e-07
-2.70203e-05 -3.89595e-05 -2.33203e-08
5.34211e-07 -2.33203e-08 -0.000120254
0.0010691 -2.72166e-05 -1.11302e-07
-2.72166e-05 -3.08418e-05 -2.09852e-06
-1.11302e-07 -2.09852e-06 -8.90553e-05
0.00113015 -2.56943e-05 -9.64026e-07
-2.56943e-05 6.08868e-05 -1.3778e-08
-9.64026e-07 -1.3778e-08 -1.15861e-05
0.00116871 -2.40357e-05 -1.20202e-06
-2.40357e-05 8.39366e-05 -3.68822e-07
-1.20202e-06 -3.68822e-07 5.73581e-06
0.00118787 -2.24248e-05 -8.0335e-07
-2.24248e-05 9.73147e-05 1.00632e-06
-8.0335e-07 1.00632e-06 1.82184e-05
0.00107242 -1.27206e-06 -4.08819e-07
-1.27206e-06 3.52308e-05 1.03059e-06
-4.08819e-07 1.03059e-06 -9.46708e-06
0.00121148 -1.96845e-05 -5.44387e-07
-1.96845e-05 0.000109943 2.47145e-07
-5.44387e-07 2.47145e-07 3.84095e-05
0.00110364 -3.73444e-06 -2.44882e-07
-3.73444e-06 6.0976e-05 8.62182e-07
-2.44882e-07 8.62182e-07 -5.18585e-07
0.00106808 1.50364e-06 -1.034e-07
1.50364e-06 2.93557e-05 6.10339e-07
-1.034e-07 6.10339e-07 -1.15969e-05
0.000995217 2.04187e-06 -3.37951e-07
2.04187e-06 3.94031e-06 1.292e-06
-3.37951e-07 1.292e-06 -5.41569e-05
0.00137443 2.50336e-05 1.5593e-07
2.50336e-05 8.69582e-05 1.11448e-06
1.5593e-07 1.11448e-06 1.35726e-05
0.00107505 1.19068e-05 -5.40321e-08
1.19068e-05 4.16839e-05 -3.92047e-07
-5.40321e-08 -3.92047e-07 -1.26165e-05
0.00101355 -4.82473e-06 2.03992e-07
-4.82473e-06 1.41702e-05 1.03506e-08
2.03992e-07 1.03506e-08 -4.53914e-05
0.00109653 3.83887e-06 7.31003e-08
3.83887e-06 6.1683e-05 8.33658e-07
7.31003e-08 8.33658e-07 -4.20875e-06
0.00146228 -5.00228e-06 -5.07077e-09
-5.00228e-06 6.53099e-05 2.74732e-07
-5.07077e-09 2.74732e-07 4.11603e-05
0.00129006 -2.95557e-05 -7.65266e-07
-2.95557e-05 4.38436e-06 -1.01106e-06
-7.65266e-07 -1.01106e-06 -3.58914e-05
0.00111897 -2.77054e-05 9.73187e-08
-2.77054e-05 6.76931e-05 -1.94519e-07
9.73187e-08 -1.94519e-07 -7.93885e-06
0.00132087 -3.29868e-05 1.66858e-07
-3.29868e-05 0.000138708 4.23314e-07
1.66858e-07 4.23314e-07 6.17958e-05
0.00122166 -1.81117e-05 2.82451e-09
-1.81117e-05 0.000120919 -7.00371e-09
2.82451e-09 -7.00371e-09 4.70504e-05
0.00107792 -2.10344e-05 -4.67178e-07
-2.10344e-05 4.2641e-05 7.65715e-07
-4.67178e-07 7.65715e-07 -3.46002e-05
0.00114876 -2.72219e-05 -1.8305e-07
-2.72219e-05 7.87225e-05 -1.33738e-07
-1.8305e-07 -1.33738e-07 -4.54483e-06
0.00125285 -2.41013e-05 5.05098e-07
-2.41013e-05 0.000134243 -2.98909e-07
5.05098e-07 -2.98909e-07 4.7007e-05
0.00134557 2.29351e-05 -1.65653e-06
2.29351e-05 3.36995e-05 -3.98144e-06
-1.65653e-06 -3.98144e-06 -1.72713e-05
0.00153388 -3.03773e-05 -1.79082e-06
-3.03773e-05 5.57395e-05 -1.74308e-06
-1.79082e-06 -1.74308e-06 4.23544e-05
0.00151294 -3.91094e-05 1.89748e-06
-3.91094e-05 0.000167757 2.61359e-06
1.89748e-06 2.61359e-06 9.35964e-05
0.00118033 -3.3754e-05 6.76871e-07
-3.3754e-05 9.5606e-05 -2.45709e-07
6.76871e-07 -2.45709e-07 1.40585e-05
0.00104658 7.56531e-06 -2.33905e-07
7.56531e-06 3.63574e-05 -4.52646e-07
-2.33905e-07 -4.52646e-07 -3.2162e-05
0.00105027 -1.50745e-05 3.87475e-08
-1.50745e-05 3.77594e-05 -1.16037e-06
3.87475e-08 -1.16037e-06 -3.38957e-05
0.00111193 -2.09171e-05 1.98017e-07
-2.09171e-05 6.92165e-05 -6.15112e-07
1.98017e-07 -6.15112e-07 -1.65778e-05
0.00123118 -2.54585e-05 1.49167e-06
-2.54585e-05 0.000127284 1.91182e-07
1.49167e-06 1.91182e-07 3.10531e-05
0.00125834 2.75298e-05 2.79e-06
2.75298e-05 -0.000446872 1.53832e-06
2.79e-06 1.53832e-06 -0.000671754
0.00118771 2.11552e-05 -1.14556e-07
2.11552e-05 0.000105293 -2.6486e-07
-1.14556e-07 -2.6486e-07 2.94883e-05
0.00105709 2.30987e-05 7.03104e-08
2.30987e-05 3.15257e-05 2.9402e-07
7.03104e-08 2.9402e-07 -4.86702e-05
0.00102143 4.55995e-06 -1.28046e-06
4.55995e-06 -0.000124251 1.29515e-06
-1.28046e-06 1.29515e-06 -0.00015342
0.00157125 3.54477e-05 -1.44779e-06
3.54477e-05 0.000103279 -1.20556e-07
-1.44779e-06 -1.20556e-07 5.24295e-05
0.00133861 3.81925e-05 -1.69372e-06
3.81925e-05 0.00014506 1.33516e-06
-1.69372e-06 1.33516e-06 4.7378e-05
0.00100803 2.68582e-05 8.67416e-08
2.68582e-05 1.30776e-05 -2.20434e-07
8.67416e-08 -2.20434e-07 -7.75025e-05
0.00224947 -3.97897e-05 4.83392e-06
-3.97897e-05 0.000313543 9.30592e-06
4.83392e-06 9.30592e-06 0.00031298
0.00118378 2.10298e-05 8.22905e-08
2.10298e-05 0.000107172 -1.26459e-07
8.22905e-08 -1.26459e-07 2.70853e-05
0.00142775 4.08672e-05 2.1375e-06
4.08672e-05 -4.51364e-05 1.89603e-08
2.1375e-06 1.89603e-08 -0.000102172
0.00114312 2.4043e-05 5.39648e-08
2.4043e-05 8.69074e-05 -1.99007e-07
5.39648e-08 -1.99007e-07 1.83412e-06
0.00112683 3.11196e-05 -5.86193e-07
3.11196e-05 9.7295e-05 6.64602e-07
-5.86193e-07 6.64602e-07 -8.39963e-06
0.000912273 4.58324e-05 1.93844e-07
4.58324e-05 -0.000120533 -4.81319e-07
1.93844e-07 -4.81319e-07 -0.00020782
0.000718806 2.94569e-05 -1.21171e-05
2.94569e-05 -0.000372926 -3.85458e-06
-1.21171e-05 -3.85458e-06 -0.000677168
0.00190229 -2.01983e-05 8.02088e-06
-2.01983e-05 0.000238503 -1.82288e-06
8.02088e-06 -1.82288e-06 -1.41341e-05
0.00223429 2.6951e-06 -1.96239e-06
2.6951e-06 0.000123458 -7.52103e-07
-1.96239e-06 -7.52103e-07 0.00015913
-0.000637316 -4.40593e-05 -1.0464e-05
-4.40593e-05 -0.000484145 -3.09643e-06
-1.0464e-05 -3.09643e-06 -0.000537265
0.000482821 -5.49255e-05 -1.67474e-06
-5.49255e-05 -0.000132767 7.06567e-07
-1.67474e-06 7.06567e-07 4.62502e-06
0.00113553 2.00451e-05 4.00703e-07
2.00451e-05 9.2995e-05 -2.38359e-07
4.00703e-07 -2.38359e-07 1.14074e-05
0.00066841 1.93236e-05 -6.27193e-05
1.93236e-05 0.000125574 -7.10187e-06
-6.27193e-05 -7.10187e-06 2.1139e-05
0.00133277 -2.90702e-05 7.46203e-06
-2.90702e-05 0.000486335 6.08701e-06
7.46203e-06 6.08701e-06 0.000552024
0.00141397 6.10461e-05 5.764e-06
6.10461e-05 3.42121e-05 5.55516e-06
5.764e-06 5.55516e-06 -5.46658e-05
0.00111881 2.18224e-05 -3.48303e-07
2.18224e-05 0.00010352 -1.57498e-08
-3.48303e-07 -1.57498e-08 8.52625e-06
0.00151445 3.64862e-05 -2.13158e-06
3.64862e-05 0.000309297 -2.78168e-07
-2.13158e-06 -2.78168e-07 0.000180902
0.00196892 8.66977e-06 -2.39886e-05
8.66977e-06 0.000138272 -2.68187e-05
-2.39886e-05 -2.68187e-05 7.86119e-05
0.00526483 5.41983e-06 -4.51171e-05
5.41983e-06 0.00152381 -1.82205e-05
-4.51171e-05 -1.82205e-05 0.0010848
0.00123634 3.13902e-05 2.71232e-05
3.13902e-05 0.000144768 2.08735e-05
2.71232e-05 2.08735e-05 -0.0002262
2.04848e-05 -9.37806e-05 -4.4083e-05
-9.37806e-05 -5.33378e-05 -2.85356e-05
-4.4083e-05 -2.85356e-05 -5.06627e-05
-0.000594154 -3.21725e-05 6.23841e-06
-3.21725e-05 -0.000743407 -9.65875e-07
6.23841e-06 -9.65875e-07 -0.000680064
0.00112913 1.9201e-05 -4.48928e-07
1.9201e-05 7.72648e-05 -3.09748e-07
-4.48928e-07 -3.09748e-07 -2.85068e-07
0.0011838 1.76201e-05 -1.7563e-07
1.76201e-05 9.79537e-05 2.55148e-08
-1.7563e-07 2.55148e-08 1.82475e-05
0.00118146 1.69029e-05 -2.42647e-08
1.69029e-05 8.76719e-05 -5.50645e-08
-2.42647e-08 -5.50645e-08 8.05167e-06
0.00106601 -1.15835e-06 1.79596e-08
-1.15835e-06 3.1988e-05 -6.1514e-07
1.79596e-08 -6.1514e-07 -1.37592e-05
0.0010891 -2.61204e-06 2.436e-08
-2.61204e-06 4.91125e-05 -7.04821e-07
2.436e-08 -7.04821e-07 -9.23954e-06
0.00102874 9.98771e-06 -3.04679e-07
9.98771e-06 1.94948e-05 -8.84079e-07
-3.04679e-07 -8.84079e-07 -4.76876e-05
0.00113692 1.26165e-05 -1.70675e-07
1.26165e-05 7.18662e-05 -7.89784e-07
-1.70675e-07 -7.89784e-07 -4.49078e-07
0.00119165 1.0686e-05 -2.54187e-07
1.0686e-05 9.73275e-05 -1.47812e-07
-2.54187e-07 -1.47812e-07 1.97934e-05
0.000884657 -6.99266e-07 2.56877e-08
-6.99266e-07 -5.63018e-05 4.06972e-07
2.56877e-08 4.06972e-07 -0.000103318
0.00114434 1.62689e-05 -1.67524e-07
1.62689e-05 7.5584e-05 -5.03798e-07
-1.67524e-07 -5.03798e-07 4.00685e-06
0.00113992 7.36774e-06 2.46335e-08
7.36774e-06 7.38921e-05 3.40265e-07
2.46335e-08 3.40265e-07 6.48731e-06
0.00104277 1.30678e-06 6.02371e-08
1.30678e-06 2.64249e-05 -3.23119e-07
6.02371e-08 -3.23119e-07 -3.27524e-05
0.00115475 1.3971e-05 5.36266e-08
1.3971e-05 7.66807e-05 2.25127e-07
5.36266e-08 2.25127e-07 -3.03521e-07
0.0010979 1.34392e-05 5.9146e-08
1.34392e-05 5.1772e-05 3.845e-07
5.9146e-08 3.845e-07 -2.26386e-05
0.00116583 1.24944e-05 1.94275e-07
1.24944e-05 8.53593e-05 2.06705e-07
1.94275e-07 2.06705e-07 6.49706e-06
0.00112622 -6.29545e-06 -1.09658e-07
-6.29545e-06 6.87264e-05 5.49407e-07
-1.09658e-07 5.49407e-07 7.72677e-08
0.00113872 -5.34167e-06 -5.53036e-08
-5.34167e-06 7.35687e-05 2.59206e-07
-5.53036e-08 2.59206e-07 1.50236e-05
0.0011437 -5.60547e-07 -3.26097e-09
-5.60547e-07 7.63271e-05 -7.24168e-08
-3.26097e-09 -7.24168e-08 1.79405e-05
0.00114676 -3.03284e-06 -7.46551e-08
-3.03284e-06 8.08806e-05 -3.23206e-07
-7.46551e-08 -3.23206e-07 1.29839e-05
0.0011358 2.92051e-06 -1.10592e-07
2.92051e-06 7.49538e-05 6.37154e-07
-1.10592e-07 6.37154e-07 6.89023e-06
0.00111074 -8.0593e-06 -9.49021e-08
-8.0593e-06 6.48241e-05 5.29162e-07
-9.49021e-08 5.29162e-07 -4.33217e-06
0.00116409 -1.09419e-05 -2.19032e-08
-1.09419e-05 9.18052e-05 -9.18851e-08
-2.19032e-08 -9.18851e-08 1.83035e-05
0.00109786 -1.83957e-05 -7.74416e-07
-1.83957e-05 5.65889e-05 4.20453e-07
-7.74416e-07 4.20453e-07 -1.44298e-05
0.00108354 -8.4596e-06 -2.14885e-07
-8.4596e-06 4.88287e-05 7.63468e-07
-2.14885e-07 7.63468e-07 -1.24379e-05
0.00109064 -7.44872e-06 -7.35794e-09
-7.44872e-06 5.16535e-05 -1.22988e-08
-7.35794e-09 -1.22988e-08 -8.24525e-06
0.001065 -5.0859e-06 -4.5043e-07
-5.0859e-06 3.18466e-05 1.09039e-06
-4.5043e-07 1.09039e-06 -1.48679e-05
0.0009688 -2.84709e-06 3.18137e-07
-2.84709e-06 -8.4132e-06 -1.16742e-06
3.18137e-07 -1.16742e-06 -6.83264e-05
0.000979584 -2.15773e-06 7.04683e-08
-2.15773e-06 -9.90659e-06 -9.27586e-09
7.04683e-08 -9.27586e-09 -5.66138e-05
0.0010322 3.14394e-06 -5.47481e-07
3.14394e-06 6.79813e-06 1.76397e-06
-5.47481e-07 1.76397e-06 -2.08923e-05
0.000890316 2.46224e-06 1.55828e-07
2.46224e-06 -5.35088e-05 -6.20015e-07
1.55828e-07 -6.20015e-07 -0.000100502
0.00103413 2.13152e-06 5.46819e-08
2.13152e-06 6.34623e-06 6.69279e-09
5.46819e-08 6.69279e-09 -2.11337e-05
0.00158127 3.08737e-06 -1.37572e-06
3.08737e-06 0.000264823 4.31034e-06
-1.37572e-06 4.31034e-06 0.000268239
0.00103465 9.29177e-07 2.36972e-07
9.29177e-07 5.89384e-06 -1.78358e-06
2.36972e-07 -1.78358e-06 -2.15038e-05
0.00127825 1.40987e-06 -3.14933e-07
1.40987e-06 0.000115263 6.04685e-07
-3.14933e-07 6.04685e-07 0.000117528
0.00117882 1.18851e-06 -8.5348e-07
1.18851e-06 6.21612e-05 3.85766e-06
-8.5348e-07 3.85766e-06 8.07778e-05
0.000976181 -3.259e-07 8.05444e-08
-3.259e-07 -3.29785e-05 -3.13333e-06
8.05444e-08 -3.13333e-06 -3.19427e-05
0.00234065 -4.85774e-07 4.28423e-07
-4.85774e-07 0.000632088 2.56493e-10
4.28423e-07 2.56493e-10 0.000656322
0.00116828 -2.03145e-06 -4.60256e-07
-2.03145e-06 5.81289e-05 -3.86603e-06
-4.60256e-07 -3.86603e-06 7.67826e-05
0.0010809 -1.78465e-07 -1.05627e-08
-1.78465e-07 3.42755e-05 -5.68265e-07
-1.05627e-08 -5.68265e-07 -4.65126e-06
0.0010316 1.37469e-08 -2.45972e-08
1.37469e-08 1.91166e-06 -1.7966e-06
-2.45972e-08 -1.7966e-06 -2.00363e-05
0.00103493 1.31907e-06 -5.47108e-08
1.31907e-06 4.24946e-06 -2.46535e-09
-5.47108e-08 -2.46535e-09 -1.819e-05
0.000969911 1.68839e-06 2.78665e-07
1.68839e-06 -3.57869e-05 -3.06395e-06
2.78665e-07 -3.06395e-06 -3.18189e-05
0.00103819 2.6052e-06 -3.97676e-07
2.6052e-06 7.13179e-06 1.80377e-06
-3.97676e-07 1.80377e-06 -1.62716e-05
0.000965653 3.3588e-06 2.98269e-08
3.3588e-06 -3.6788e-05 -6.01191e-07
2.98269e-08 -6.01191e-07 -3.3394e-05
0.00225784 4.24698e-06 2.14346e-06
4.24698e-06 0.000592681 -3.82036e-06
2.14346e-06 -3.82036e-06 0.000617723
0.00150958 5.52726e-06 -9.97212e-07
5.52726e-06 0.000232249 1.86292e-06
-9.97212e-07 1.86292e-06 0.000237161
0.00173564 5.98479e-06 -5.58101e-08
5.98479e-06 0.000339528 1.15121e-06
-5.58101e-08 1.15121e-06 0.000361079
0.00120324 7.39808e-06 -4.94736e-06
7.39808e-06 8.22541e-05 6.18838e-06
-4.94736e-06 6.18838e-06 0.000100046
0.000864245 -4.32453e-05 1.12291e-06
-4.32453e-05 -0.0001167 2.53501e-06
1.12291e-06 2.53501e-06 -9.88676e-05
0.000877508 -3.40547e-06 -1.14023e-07
-3.40547e-06 -7.9684e-05 -7.00096e-07
-1.14023e-07 -7.00096e-07 -0.000143881
0.000949881 -2.71308e-06 -1.59292e-07
-2.71308e-06 -3.87203e-05 -4.6891e-06
-1.59292e-07 -4.6891e-06 -8.03825e-05
0.000681481 -3.87694e-05 3.17303e-05
-3.87694e-05 -0.000138934 4.92657e-06
3.17303e-05 4.92657e-06 -0.000227593
0.000723596 -1.2219e-05 -2.76759e-06
-1.2219e-05 3.74328e-05 4.04558e-07
-2.76759e-06 4.04558e-07 2.56186e-05
0.00102877 2.11468e-05 -6.41313e-07
2.11468e-05 -4.58154e-05 -1.07063e-06
-6.41313e-07 -1.07063e-06 -0.000119
0.0011135 3.40935e-05 -2.46943e-06
3.40935e-05 0.000126857 5.46565e-06
-2.46943e-06 5.46565e-06 5.89312e-05
0.000532557 -2.56787e-07 7.16413e-05
-2.56787e-07 -0.000305613 7.55876e-06
7.16413e-05 7.55876e-06 -0.000449541
0.00539497 -2.9367e-06 -2.10594e-05
-2.9367e-06 0.00139142 8.61403e-06
-2.10594e-05 8.61403e-06 0.00103959
0.00167209 6.50554e-05 -1.77165e-05
6.50554e-05 0.000699365 1.01828e-05
-1.77165e-05 1.01828e-05 0.000617744
0.00101536 3.98079e-05 -6.66375e-07
3.98079e-05 0.000254749 -1.24268e-06
-6.66375e-07 -1.24268e-06 0.000356082
0.000919347 -3.67262e-07 2.0052e-07
-3.67262e-07 -3.65245e-05 -9.94204e-07
2.0052e-07 -9.94204e-07 -8.78246e-05
0.00107412 -1.25833e-06 1.43944e-07
-1.25833e-06 3.03342e-05 1.6526e-08
1.43944e-07 1.6526e-08 -8.42731e-06
0.00108225 -2.73276e-06 -2.4943e-07
-2.73276e-06 3.50757e-05 1.05474e-06
-2.4943e-07 1.05474e-06 -4.8307e-06
0.00102198 1.10796e-05 -3.90264e-08
1.10796e-05 1.42305e-05 2.91035e-08
-3.90264e-08 2.91035e-08 -3.83097e-05
0.00118806 1.96246e-05 -5.99719e-09
1.96246e-05 9.90149e-05 2.10109e-07
-5.99719e-09 2.10109e-07 3.79097e-05
0.00113555 1.22168e-05 1.21974e-07
1.22168e-05 7.13072e-05 1.38753e-07
1.21974e-07 1.38753e-07 1.34901e-05
0.00112465 -6.11179e-07 1.76583e-07
-6.11179e-07 6.61713e-05 -1.27907e-06
1.76583e-07 -1.27907e-06 1.43022e-05
0.00102643 -8.2094e-06 -2.08957e-08
-8.2094e-06 1.65097e-05 3.86516e-07
-2.08957e-08 3.86516e-07 -3.38685e-05
0.00142214 2.44056e-05 6.84915e-07
2.44056e-05 0.000108024 1.78441e-06
6.84915e-07 1.78441e-06 3.67096e-05
0.00159059 -5.40597e-06 4.60453e-06
-5.40597e-06 0.000137208 1.52475e-06
4.60453e-06 1.52475e-06 0.00010966
0.00102623 -2.77966e-05 -2.07831e-06
-2.77966e-05 -0.000122324 -3.44304e-06
-2.07831e-06 -3.44304e-06 -0.000161864
0.00125061 -2.86396e-05 2.95431e-07
-2.86396e-05 0.000129609 2.46122e-07
2.95431e-07 2.46122e-07 5.37854e-05
0.00111456 -3.12604e-05 2.38872e-07
-3.12604e-05 4.26603e-05 -2.30932e-07
2.38872e-07 -2.30932e-07 -3.35061e-05
0.00113446 -2.71632e-05 -1.68511e-06
-2.71632e-05 7.11241e-05 -2.79385e-07
-1.68511e-06 -2.79385e-07 -1.1888e-05
0.00124958 -2.38557e-05 -1.55118e-07
-2.38557e-05 0.000133475 8.48026e-08
-1.55118e-07 8.48026e-08 4.66037e-05
0.00111695 -2.15812e-05 -8.47893e-07
-2.15812e-05 6.08623e-05 1.04746e-06
-8.47893e-07 1.04746e-06 -1.55773e-05
0.00109982 -7.54431e-06 -2.1777e-07
-7.54431e-06 5.60829e-05 8.42776e-07
-2.1777e-07 8.42776e-07 -2.67804e-06
0.001266 -1.72052e-05 -1.55866e-07
-1.72052e-05 0.000142881 4.42114e-07
-1.55866e-07 4.42114e-07 6.9126e-05
0.00126932 1.16998e-05 3.57708e-08
1.16998e-05 0.000136303 3.05323e-07
3.57708e-08 3.05323e-07 8.30505e-05
0.00103523 -2.25482e-06 3.22024e-08
-2.25482e-06 3.1497e-05 1.33063e-06
3.22024e-08 1.33063e-06 -3.35569e-05
0.0015968 2.44611e-05 1.42613e-06
2.44611e-05 0.000147216 -1.13592e-07
1.42613e-06 -1.13592e-07 9.536e-05
0.00106117 6.078e-06 -1.4688e-07
6.078e-06 4.30325e-05 1.8321e-07
-1.4688e-07 1.8321e-07 -2.51108e-05
0.00112911 -1.56791e-05 7.19864e-08
-1.56791e-05 7.68804e-05 -3.21953e-07
7.19864e-08 -3.21953e-07 5.45354e-06
0.00140629 -2.9503e-05 -3.13597e-06
-2.9503e-05 -1.88251e-06 -1.57778e-06
-3.13597e-06 -1.57778e-06 -1.41432e-05
0.000991507 -3.55536e-05 1.43807e-06
-3.55536e-05 -7.4237e-05 9.5951e-07
1.43807e-06 9.5951e-07 -0.000145874
0.00120781 -3.43124e-05 -3.11147e-07
-3.43124e-05 0.000104957 -1.05827e-07
-3.11147e-07 -1.05827e-07 2.13837e-05
0.00113839 -2.10126e-05 -7.20226e-08
-2.10126e-05 8.26822e-05 -2.8183e-07
-7.20226e-08 -2.8183e-07 -2.94305e-06
0.00117598 -2.49396e-05 4.6652e-07
-2.49396e-05 9.96008e-05 3.55444e-07
4.6652e-07 3.55444e-07 4.08684e-06
0.00241198 1.43958e-06 -6.90492e-06
1.43958e-06 0.000345466 1.5785e-06
-6.90492e-06 1.5785e-06 0.000370977
0.00179423 -5.25055e-05 3.76378e-06
-5.25055e-05 0.000276038 3.2018e-06
3.76378e-06 3.2018e-06 0.000213943
0.000442445 -3.67276e-05 -5.58234e-08
-3.67276e-05 -0.000277475 -1.14955e-07
-5.58234e-08 -1.14955e-07 -0.000365541
0.00126653 -3.28776e-05 1.1745e-06
-3.28776e-05 0.000138936 6.77356e-07
1.1745e-06 6.77356e-07 3.85928e-05
0.00104102 -1.36853e-05 -6.96391e-08
-1.36853e-05 3.64159e-05 -7.21448e-07
-6.96391e-08 -7.21448e-07 -3.98313e-05
0.00115147 -1.82383e-05 -1.09378e-07
-1.82383e-05 9.3706e-05 -7.6296e-07
-1.09378e-07 -7.6296e-07 1.1847e-05
0.00131054 -2.044e-05 -7.57046e-08
-2.044e-05 0.000174987 -9.13382e-07
-7.57046e-08 -9.13382e-07 7.76485e-05
-0.00189525 3.50528e-06 -5.71929e-05
3.50528e-06 -0.000769955 5.68916e-07
-5.71929e-05 5.68916e-07 -0.000705502
0.00506224 1.28656e-05 -2.04604e-05
1.28656e-05 0.00151855 8.78099e-07
-2.04604e-05 8.78099e-07 0.0012634
0.00114712 2.064e-05 1.60811e-07
2.064e-05 9.02801e-05 -1.11631e-07
1.60811e-07 -1.11631e-07 1.04735e-05
0.00100769 2.2642e-05 6.49347e-07
2.2642e-05 2.20692e-05 -5.25022e-07
6.49347e-07 -5.25022e-07 -6.24595e-05
0.00192311 4.08659e-05 -5.16616e-06
4.08659e-05 0.000186087 1.86286e-07
-5.16616e-06 1.86286e-07 0.000129649
0.00117339 4.62776e-05 -1.46192e-06
4.62776e-05 -2.43589e-06 4.87587e-07
-1.46192e-06 4.87587e-07 -8.58022e-05
0.0010491 2.99498e-05 -3.31636e-07
2.99498e-05 5.84665e-05 -7.6342e-07
-3.31636e-07 -7.6342e-07 -4.59586e-05
0.00563837 6.61678e-05 -3.54826e-06
6.61678e-05 0.00144724 2.38717e-06
-3.54826e-06 2.38717e-06 0.00106833
3.24546e-05 -3.88387e-05 -2.31165e-05
-3.88387e-05 -0.000164547 -9.069e-06
-2.31165e-05 -9.069e-06 -0.000341134
0.00222362 1.05693e-05 1.34774e-05
1.05693e-05 0.000120394 7.97431e-06
1.34774e-05 7.97431e-06 0.000146062
0.00236931 -7.06894e-05 1.93764e-05
-7.06894e-05 0.00102634 8.85982e-06
1.93764e-05 8.85982e-06 0.000945702
6.04239e-06 -5.59309e-05 6.20966e-06
-5.59309e-05 -0.000374974 3.48673e-06
6.20966e-06 3.48673e-06 -0.000250293
0.00113816 2.00855e-05 2.0012e-07
2.00855e-05 9.28802e-05 -1.40402e-07
2.0012e-07 -1.40402e-07 1.13404e-05
-0.00151869 6.17249e-06 -1.33143e-05
6.17249e-06 -0.000512854 -1.3999e-06
-1.33143e-05 -1.3999e-06 -0.000502267
0.0010796 -2.729e-05 1.71713e-07
-2.729e-05 0.000376638 -1.44164e-07
1.71713e-07 -1.44164e-07 0.000434747
0.00158599 6.24506e-05 1.60346e-06
6.24506e-05 0.000112212 1.56746e-06
1.60346e-06 1.56746e-06 2.31912e-05
0.00112952 2.11235e-05 2.2403e-07
2.11235e-05 0.000107195 -8.6439e-07
2.2403e-07 -8.6439e-07 1.41276e-05
0.00113633 3.31065e-05 2.37338e-08
3.31065e-05 0.000134324 3.67221e-07
2.37338e-08 3.67221e-07 1.0267e-05
0.00201876 1.44735e-05 -1.88608e-05
1.44735e-05 0.000179295 -1.74929e-05
-1.88608e-05 -1.74929e-05 0.000117178
0.00375635 5.03429e-05 8.56703e-06
5.03429e-05 0.000685083 6.23562e-06
8.56703e-06 6.23562e-06 0.000156349
9.99009e-05 7.02126e-06 -6.79842e-06
7.02126e-06 -0.000111165 -1.06109e-05
-6.79842e-06 -1.06109e-05 -0.000270679
0.00179168 -0.000122292 -2.8699e-07
-0.000122292 0.00040964 4.24305e-06
-2.8699e-07 4.24305e-06 0.000317462
-0.000797034 -3.79457e-05 -7.99669e-07
-3.79457e-05 -0.000897162 -8.87401e-06
-7.99669e-07 -8.87401e-06 -0.000804093
0.00107823 1.40162e-05 -2.06202e-07
1.40162e-05 5.66676e-05 -3.39603e-07
-2.06202e-07 -3.39603e-07 -2.56203e-05
0.000144204 -5.53297e-06 1.04426e-05
-5.53297e-06 -0.000110934 4.34482e-06
1.04426e-05 4.34482e-06 -0.000105331
0.000733831 -9.04734e-06 1.09948e-05
-9.04734e-06 0.000145987 1.59709e-05
1.09948e-05 1.59709e-05 0.000129702
0.00139866 3.28734e-05 8.22927e-06
3.28734e-05 0.000249823 5.66161e-06
8.22927e-06 5.66161e-06 9.66204e-05
0.00127822 1.46374e-05 -4.39827e-06
1.46374e-05 0.00021418 -1.47912e-06
-4.39827e-06 -1.47912e-06 0.000106703
0.00248553 9.39966e-07 -8.16051e-06
9.39966e-07 0.000795809 -5.51976e-06
-8.16051e-06 -5.51976e-06 0.000757031
-0.000920792 3.9945e-05 -1.49661e-05
3.9945e-05 -0.000514769 -9.50687e-06
-1.49661e-05 -9.50687e-06 -0.00062491
0.00344457 -2.34665e-05 3.51571e-05
-2.34665e-05 0.000357388 2.04231e-05
3.51571e-05 2.04231e-05 -0.000179991
0.00208444 -0.00015631 -1.74272e-05
-0.00015631 0.000363536 -2.72033e-05
-1.74272e-05 -2.72033e-05 0.000259948
3.69056e-05 -1.24682e-05 5.8965e-06
-1.24682e-05 -0.000332262 1.72041e-06
5.8965e-06 1.72041e-06 -0.000344951
0.00121185 1.85421e-05 -3.15014e-07
1.85421e-05 0.000111799 3.92259e-07
-3.15014e-07 3.92259e-07 3.20392e-05
0.00115911 1.55438e-05 1.1776e-07
1.55438e-05 7.75813e-05 1.04921e-07
1.1776e-07 1.04921e-07 -2.29165e-06
0.00112387 1.49174e-05 4.43515e-07
1.49174e-05 6.99006e-05 2.49482e-07
4.43515e-07 2.49482e-07 -1.02461e-05
0.000888716 3.30586e-06 9.74213e-08
3.30586e-06 -5.43563e-05 -6.10484e-07
9.74213e-08 -6.10484e-07 -0.000101391
0.00113098 3.6391e-06 7.22619e-09
3.6391e-06 6.94199e-05 -9.99042e-07
7.22619e-09 -9.99042e-07 1.08508e-05
0.00123564 -2.38267e-07 1.84711e-09
-2.38267e-07 0.000121121 -1.14565e-07
1.84711e-09 -1.14565e-07 5.45379e-05
0.0010919 1.30762e-05 -2.02616e-07
1.30762e-05 4.92048e-05 -9.47394e-07
-2.02616e-07 -9.47394e-07 -2.22676e-05
0.00111095 1.46136e-05 -3.23647e-08
1.46136e-05 5.50063e-05 -2.11852e-08
-3.23647e-08 -2.11852e-08 -2.2285e-05
0.00113487 3.20008e-06 1.0204e-07
3.20008e-06 7.17714e-05 -4.06698e-07
1.0204e-07 -4.06698e-07 1.31601e-05
0.00112695 1.27067e-05 2.81232e-08
1.27067e-05 6.6106e-05 9.85026e-08
2.81232e-08 9.85026e-08 -7.72971e-06
0.00113555 3.33767e-07 -5.07483e-08
3.33767e-07 7.32362e-05 9.40985e-08
-5.07483e-08 9.40985e-08 4.53381e-06
0.00116641 1.34214e-05 1.09474e-08
1.34214e-05 8.5412e-05 6.56428e-08
1.09474e-08 6.56428e-08 6.25991e-06
0.00111822 1.14336e-05 3.06339e-08
1.14336e-05 6.76989e-05 -1.46519e-07
3.06339e-08 -1.46519e-07 -1.37682e-05
0.00116836 8.43809e-06 9.50667e-08
8.43809e-06 8.94657e-05 5.2836e-07
9.50667e-08 5.2836e-07 1.28239e-05
0.0011462 4.46464e-06 8.72281e-08
4.46464e-06 7.87145e-05 5.21916e-07
8.72281e-08 5.21916e-07 1.03266e-05
0.00114069 -2.0477e-06 4.83559e-08
-2.0477e-06 7.49926e-05 -7.74892e-07
4.83559e-08 -7.74892e-07 1.6605e-05
0.00104807 -1.01362e-05 2.32879e-07
-1.01362e-05 3.24886e-05 -9.51634e-07
2.32879e-07 -9.51634e-07 -3.61393e-05
0.00114308 1.94566e-06 8.42543e-08
1.94566e-06 7.8051e-05 -1.68065e-08
8.42543e-08 -1.68065e-08 1.0029e-05
0.00111816 -8.81717e-06 -3.04369e-08
-8.81717e-06 6.82963e-05 4.8113e-09
-3.04369e-08 4.8113e-09 -9.44455e-07
0.00112041 -1.3433e-05 1.90172e-07
-1.3433e-05 7.02869e-05 -4.70782e-07
1.90172e-07 -4.70782e-07 -2.92721e-06
0.00108726 -1.39464e-05 -2.76436e-07
-1.39464e-05 5.55215e-05 8.45796e-07
-2.76436e-07 8.45796e-07 -1.56654e-05
0.00117959 -5.16491e-06 -2.09993e-07
-5.16491e-06 9.74886e-05 1.2964e-07
-2.09993e-07 1.2964e-07 2.26627e-05
0.00102184 -1.8131e-05 2.88148e-08
-1.8131e-05 2.57226e-05 2.22702e-07
2.88148e-08 2.22702e-07 -5.07706e-05
0.00113089 -2.03225e-05 -2.78926e-07
-2.03225e-05 7.00388e-05 -7.35856e-07
-2.78926e-07 -7.35856e-07 -3.31926e-06
0.000990442 -2.17574e-05 -5.09075e-08
-2.17574e-05 5.07084e-07 2.27632e-08
-5.09075e-08 2.27632e-08 -6.66549e-05
0.00104459 -2.00294e-05 -6.70451e-07
-2.00294e-05 2.61676e-05 -2.35332e-07
-6.70451e-07 -2.35332e-07 -4.2051e-05
0.00111305 -1.80815e-05 -2.97149e-07
-1.80815e-05 6.34541e-05 2.14573e-07
-2.97149e-07 2.14573e-07 -7.43202e-06
0.00109486 -1.36285e-05 -7.96503e-07
-1.36285e-05 5.28016e-05 1.04361e-06
-7.96503e-07 1.04361e-06 -9.07952e-06
0.00109293 -1.02315e-05 5.50269e-09
-1.02315e-05 5.33693e-05 -1.66854e-08
5.50269e-09 -1.66854e-08 -7.96284e-06
0.00106173 -4.97081e-06 -5.68511e-07
-4.97081e-06 3.06606e-05 1.11645e-06
-5.68511e-07 1.11645e-06 -1.69448e-05
0.00109546 -1.02467e-05 3.20551e-07
-1.02467e-05 5.4101e-05 -7.31175e-07
3.20551e-07 -7.31175e-07 -5.83771e-06
0.00106689 -4.11271e-06 6.76583e-08
-4.11271e-06 3.27754e-05 -1.22563e-08
6.76583e-08 -1.22563e-08 -1.39595e-05
0.00102724 3.9348e-06 -7.38421e-07
3.9348e-06 5.99824e-06 1.76844e-06
-7.38421e-07 1.76844e-06 -2.20966e-05
0.000891887 -1.41854e-06 3.44434e-07
-1.41854e-06 -5.2632e-05 -1.07191e-06
3.44434e-07 -1.07191e-06 -9.98982e-05
0.00103179 3.11434e-06 4.4638e-08
3.11434e-06 6.48643e-06 3.72479e-09
4.4638e-08 3.72479e-09 -2.11967e-05
0.00157868 4.76134e-06 -2.13257e-06
4.76134e-06 0.000265472 4.27463e-06
-2.13257e-06 4.27463e-06 0.000268582
0.00103328 2.08397e-06 4.52179e-07
2.08397e-06 5.82207e-06 -1.78577e-06
4.52179e-07 -1.78577e-06 -2.16406e-05
0.00127555 3.12597e-06 -5.05587e-07
3.12597e-06 0.000114999 6.04366e-07
-5.05587e-07 6.04366e-07 0.000117063
0.00112936 3.42079e-06 -5.55776e-07
3.42079e-06 3.89941e-05 1.51644e-06
-5.55776e-07 1.51644e-06 5.7634e-05
0.00097699 1.35075e-06 3.9266e-07
1.35075e-06 -3.25543e-05 -3.11597e-06
3.9266e-07 -3.11597e-06 -3.16296e-05
0.00234833 1.6801e-06 4.01748e-07
1.6801e-06 0.000635764 4.05292e-09
4.01748e-07 4.05292e-09 0.000659951
0.00233722 -3.96523e-07 5.40162e-07
-3.96523e-07 0.000630399 -3.94799e-06
5.40162e-07 -3.94799e-06 0.000654642
0.00130954 1.69047e-06 -1.88684e-07
1.69047e-06 0.000147528 -8.44999e-07
-1.88684e-07 -8.44999e-07 0.000109026
0.0010401 -1.11019e-06 -2.25391e-07
-1.11019e-06 6.52652e-06 -1.80271e-06
-2.25391e-07 -1.80271e-06 -1.56204e-05
0.00107386 -1.55727e-06 -3.21057e-08
-1.55727e-06 3.0919e-05 4.01328e-07
-3.21057e-08 4.01328e-07 -7.9713e-06
0.00097268 2.69964e-08 -7.83636e-08
2.69964e-08 -3.48217e-05 -3.07872e-06
-7.83636e-08 -3.07872e-06 -3.06911e-05
0.00103432 -8.05472e-09 -2.62804e-08
-8.05472e-09 3.26871e-06 2.37996e-09
-2.62804e-08 2.37996e-09 -1.8714e-05
0.00103977 1.2926e-06 -2.35564e-07
1.2926e-06 6.58214e-06 1.81432e-06
-2.35564e-07 1.81432e-06 -1.58955e-05
0.000974121 1.70474e-06 -5.33022e-08
1.70474e-06 -3.37165e-05 -1.36317e-09
-5.33022e-08 -1.36317e-09 -2.97838e-05
0.00224666 2.10847e-06 9.47015e-07
2.10847e-06 0.000586052 -3.85714e-06
9.47015e-07 -3.85714e-06 0.000611401
0.00150754 3.77857e-06 -6.89193e-07
3.77857e-06 0.000228964 1.88423e-06
-6.89193e-07 1.88423e-06 0.000234915
0.00170416 4.06983e-06 5.00181e-07
4.06983e-06 0.000321457 1.24441e-08
5.00181e-07 1.24441e-08 0.000343851
0.00121152 5.53262e-06 -4.00373e-06
5.53262e-06 8.23262e-05 6.14018e-06
-4.00373e-06 6.14018e-06 0.000101238
-0.00379798 1.94029e-05 -3.14594e-05
1.94029e-05 -0.00183436 1.00761e-05
-3.14594e-05 1.00761e-05 -0.00181792
-0.00116849 2.71129e-05 4.53606e-07
2.71129e-05 -0.000943268 -5.33136e-07
4.53606e-07 -5.33136e-07 -0.000921255
0.000223407 -3.10047e-05 -2.97754e-05
-3.10047e-05 -0.000155953 -4.8488e-06
-2.97754e-05 -4.8488e-06 -0.000235468
0.000389661 -1.57197e-05 2.35955e-06
-1.57197e-05 -0.000118911 -6.89553e-07
2.35955e-06 -6.89553e-07 -0.000125043
0.00113639 2.32798e-05 -4.30023e-06
2.32798e-05 -4.74184e-06 -2.78962e-06
-4.30023e-06 -2.78962e-06 -8.08103e-05
0.000310198 -7.31808e-06 1.23411e-05
-7.31808e-06 -1.31255e-05 8.0042e-08
1.23411e-05 8.0042e-08 -6.68137e-05
0.00127194 3.72156e-05 9.30256e-07
3.72156e-05 0.00016711 2.51461e-06
9.30256e-07 2.51461e-06 9.83689e-05
0.00306704 -9.4516e-06 -1.62382e-05
-9.4516e-06 0.000565017 1.05977e-06
-1.62382e-05 1.05977e-06 0.000256172
-0.00130051 3.77917e-05 1.16156e-05
3.77917e-05 -0.000575912 -3.27917e-06
1.16156e-05 -3.27917e-06 -0.000594457
0.000500932 4.29822e-05 4.21406e-07
4.29822e-05 -4.56506e-05 1.39469e-06
4.21406e-07 1.39469e-06 4.82696e-05
0.000506589 1.9731e-05 1.38652e-05
1.9731e-05 2.35558e-05 -1.15994e-05
1.38652e-05 -1.15994e-05 -9.38476e-05
0.0044611 1.35952e-05 -2.21899e-05
1.35952e-05 0.00124056 1.59112e-05
-2.21899e-05 1.59112e-05 0.000898975
0.000163741 8.23986e-05 -3.34365e-05
8.23986e-05 5.68862e-06 3.1786e-05
-3.34365e-05 3.1786e-05 1.95785e-05
0.00117071 2.96885e-05 3.21277e-06
2.96885e-05 0.000322055 -3.62588e-06
3.21277e-06 -3.62588e-06 0.000398047
0.00101643 7.30456e-06 -9.09486e-08
7.30456e-06 1.81098e-05 -9.96711e-07
-9.09486e-08 -9.96711e-07 -4.51398e-05
0.00100871 -1.60364e-07 1.2307e-07
-1.60364e-07 6.78126e-06 -4.23535e-07
1.2307e-07 -4.23535e-07 -4.38564e-05
0.00107906 -1.78127e-06 1.49375e-07
-1.78127e-06 3.27799e-05 9.78796e-07
1.49375e-07 9.78796e-07 -6.04009e-06
0.000976409 9.9577e-06 2.60607e-08
9.9577e-06 -7.69019e-06 5.97656e-07
2.60607e-08 5.97656e-07 -6.04867e-05
0.00114085 1.91081e-05 3.65452e-07
1.91081e-05 7.57448e-05 8.6574e-07
3.65452e-07 8.6574e-07 1.5478e-05
0.0011823 9.39109e-06 7.08526e-08
9.39109e-06 9.76507e-05 -4.57716e-07
7.08526e-08 -4.57716e-07 3.59138e-05
0.00110312 3.7037e-06 1.5172e-07
3.7037e-06 5.58984e-05 9.21445e-07
1.5172e-07 9.21445e-07 -1.50323e-06
0.00110954 -2.49679e-07 1.31924e-07
-2.49679e-07 6.06511e-05 -3.33643e-07
1.31924e-07 -3.33643e-07 4.65185e-06
0.00104708 -1.72507e-06 2.83101e-08
-1.72507e-06 2.83016e-05 -4.63647e-07
2.83101e-08 -4.63647e-07 -2.42763e-05
0.000971313 -1.25404e-05 -4.33595e-07
-1.25404e-05 -9.86409e-06 1.09421e-06
-4.33595e-07 1.09421e-06 -6.08392e-05
0.00171644 2.57301e-05 3.87824e-06
2.57301e-05 0.000195613 4.95087e-06
3.87824e-06 4.95087e-06 0.00014355
0.00133657 -2.85846e-05 -3.66872e-06
-2.85846e-05 -3.12743e-05 -2.23933e-06
-3.66872e-06 -2.23933e-06 -4.16767e-05
0.000446087 -3.1855e-05 -1.52009e-07
-3.1855e-05 -0.000327645 -1.04202e-06
-1.52009e-07 -1.04202e-06 -0.000396685
0.00120398 -3.45802e-05 -8.25342e-07
-3.45802e-05 9.96569e-05 3.98258e-07
-8.25342e-07 3.98258e-07 1.40666e-05
0.00112374 -2.44519e-05 -4.18468e-07
-2.44519e-05 7.33213e-05 1.46415e-07
-4.18468e-07 1.46415e-07 -2.14754e-05
0.00116256 -2.10929e-05 -1.63975e-07
-2.10929e-05 9.50544e-05 2.07987e-07
-1.63975e-07 2.07987e-07 9.60041e-06
0.00120352 -1.81485e-05 1.69172e-07
-1.81485e-05 0.000113867 1.3804e-07
1.69172e-07 1.3804e-07 4.2687e-05
0.00107509 5.51398e-06 2.17397e-07
5.51398e-06 4.92899e-05 8.40665e-07
2.17397e-07 8.40665e-07 -1.84479e-05
0.00173891 -6.17664e-06 -2.43205e-06
-6.17664e-06 3.4163e-05 -8.87475e-07
-2.43205e-06 -8.87475e-07 4.69315e-05
0.00102308 -7.72479e-06 -2.19251e-08
-7.72479e-06 2.83762e-05 -1.97536e-07
-2.19251e-08 -1.97536e-07 -4.84165e-05
0.00107429 -1.79145e-05 7.16638e-08
-1.79145e-05 5.64651e-05 -4.19901e-07
7.16638e-08 -4.19901e-07 -2.6198e-05
0.00143099 -4.91927e-05 1.62638e-06
-4.91927e-05 0.000101453 1.25757e-06
1.62638e-06 1.25757e-06 4.57739e-05
0.000844689 -3.98913e-05 -9.96227e-07
-3.98913e-05 -8.87401e-05 2.47685e-07
-9.96227e-07 2.47685e-07 -0.000177284
0.00118148 -3.19209e-05 5.90529e-07
-3.19209e-05 9.5835e-05 -1.25414e-07
5.90529e-07 -1.25414e-07 -6.20161e-06
0.0012497 -2.02428e-05 2.61809e-08
-2.02428e-05 0.000145449 -3.29217e-07
2.61809e-08 -3.29217e-07 4.70064e-05
0.00295149 -3.1897e-05 -5.45118e-06
-3.1897e-05 0.000501021 6.96737e-06
-5.45118e-06 6.96737e-06 0.000539283
0.000922426 -4.18964e-05 2.81574e-07
-4.18964e-05 3.37011e-06 6.22064e-07
2.81574e-07 6.22064e-07 -0.000101849
0.00116697 -2.00832e-05 -6.25247e-07
-2.00832e-05 9.8626e-05 2.10994e-07
-6.25247e-07 2.10994e-07 -9.86968e-06
0.0010185 5.1087e-06 1.46127e-09
5.1087e-06 2.68158e-05 3.46895e-07
1.46127e-09 3.46895e-07 -5.03863e-05
0.00112361 -1.54366e-05 -1.17042e-07
-1.54366e-05 8.24347e-05 -2.39349e-07
-1.17042e-07 -2.39349e-07 -2.71875e-06
0.00126629 -1.72306e-05 -7.63749e-08
-1.72306e-05 0.000152928 -4.25208e-07
-7.63749e-08 -4.25208e-07 5.99751e-05
0.000786101 2.0649e-06 1.33993e-05
2.0649e-06 0.000225592 9.26563e-07
1.33993e-05 9.26563e-07 0.000216369
0.00144717 7.02344e-06 4.01729e-07
7.02344e-06 0.000529406 -2.83738e-06
4.01729e-07 -2.83738e-06 0.000487144
0.00101873 6.07725e-05 -4.0689e-05
6.07725e-05 -0.000579903 4.90941e-06
-4.0689e-05 4.90941e-06 -0.000820433
0.00113943 2.01071e-05 1.0995e-07
2.01071e-05 9.20413e-05 -1.95093e-08
1.0995e-07 -1.95093e-08 1.05583e-05
0.0011543 2.05069e-05 1.4158e-06
2.05069e-05 0.000116881 -1.26556e-06
1.4158e-06 -1.26556e-06 2.57786e-05
0.00173627 6.38669e-05 -2.69491e-06
6.38669e-05 0.000179091 -1.60367e-06
-2.69491e-06 -1.60367e-06 9.0071e-05
0.000796895 3.04877e-05 2.71569e-06
3.04877e-05 -2.09743e-05 3.80538e-07
2.71569e-06 3.80538e-07 -0.000140979
0.00220414 -3.12097e-05 1.52309e-05
-3.12097e-05 0.000957877 4.83358e-06
1.52309e-05 4.83358e-06 0.000922202
0.000659912 -1.55349e-05 5.39381e-05
-1.55349e-05 -0.000395353 3.63362e-05
5.39381e-05 3.63362e-05 -0.000672385
0.00141177 2.3337e-05 -6.81248e-05
2.3337e-05 1.80445e-05 -5.69041e-05
-6.81248e-05 -5.69041e-05 -0.000223769
0.00196725 1.89348e-05 6.43787e-06
1.89348e-05 0.000182144 9.20452e-08
6.43787e-06 9.20452e-08 0.000113964
-0.00175541 -8.931e-05 3.73701e-05
-8.931e-05 -0.00111477 3.50115e-05
3.73701e-05 3.50115e-05 -0.00111448
0.00288905 -2.48644e-05 -2.87009e-06
-2.48644e-05 0.00146733 -4.40774e-06
-2.87009e-06 -4.40774e-06 0.00152107
0.000985466 -4.64831e-05 -1.39344e-05
-4.64831e-05 0.000177705 -1.44585e-05
-1.39344e-05 -1.44585e-05 0.000267582
0.00118236 1.56231e-05 -9.21209e-08
1.56231e-05 0.000109126 8.85034e-09
-9.21209e-08 8.85034e-09 2.63917e-05
0.000740245 -7.04137e-06 4.79235e-06
-7.04137e-06 0.000225707 1.45133e-06
4.79235e-06 1.45133e-06 0.000231469
0.000560659 -9.63415e-06 2.82682e-06
-9.63415e-06 3.95779e-05 4.49316e-06
2.82682e-06 4.49316e-06 2.52478e-05
0.00125187 3.64818e-05 2.0135e-06
3.64818e-05 0.000182806 3.77101e-06
2.0135e-06 3.77101e-06 2.93459e-05
0.00102894 1.24141e-05 -3.52897e-07
1.24141e-05 0.000100072 -5.23325e-07
-3.52897e-07 -5.23325e-07 -8.30996e-06
0.00231273 2.65871e-06 6.61727e-06
2.65871e-06 0.000571828 1.15178e-05
6.61727e-06 1.15178e-05 0.000452592
0.00197392 6.86177e-05 -1.38851e-05
6.86177e-05 0.000418615 -3.85557e-05
-1.38851e-05 -3.85557e-05 0.00014395
0.00535327 -6.45606e-05 4.641e-06
-6.45606e-05 0.0013657 2.98336e-06
4.641e-06 2.98336e-06 0.000898786
-0.000305461 -0.000123302 5.33398e-06
-0.000123302 -0.000476029 1.38443e-05
5.33398e-06 1.38443e-05 -0.000562664
0.000582795 -1.85985e-05 -2.39349e-06
-1.85985e-05 -3.85508e-05 -1.79836e-06
-2.39349e-06 -1.79836e-06 -3.44447e-05
0.00093768 1.08898e-05 -8.90177e-08
1.08898e-05 1.54082e-07 -3.10984e-07
-8.90177e-08 -3.10984e-07 -8.03445e-05
0.00174857 1.4727e-06 1.19788e-05
1.4727e-06 0.000820397 4.26429e-06
1.19788e-05 4.26429e-06 0.00076826
0.000944635 4.23072e-06 8.23794e-06
4.23072e-06 0.000204427 3.15506e-06
8.23794e-06 3.15506e-06 0.000156136
0.000435128 2.27834e-07 2.04961e-06
2.27834e-07 -7.5607e-05 5.65671e-06
2.04961e-06 5.65671e-06 -0.000177699
-0.000760327 3.13398e-05 1.13207e-05
3.13398e-05 -0.000304561 2.12049e-05
1.13207e-05 2.12049e-05 -0.000360777
0.00477972 -8.98101e-05 -1.62966e-05
-8.98101e-05 0.000983842 -2.34053e-05
-1.62966e-05 -2.34053e-05 0.000457088
9.03775e-05 -0.000104963 -9.32707e-06
-0.000104963 -0.000907146 -3.32158e-05
-9.32707e-06 -3.32158e-05 -0.000713904
0.000308037 -5.03605e-06 -7.7249e-07
-5.03605e-06 -0.000189601 -2.22609e-06
-7.7249e-07 -2.22609e-06 -0.000229872
0.00113038 1.52109e-05 -4.97244e-08
1.52109e-05 6.44431e-05 -5.48667e-08
-4.97244e-08 -5.48667e-08 -1.571e-05
0.00115976 1.26845e-05 2.05366e-08
1.26845e-05 8.56022e-05 1.95813e-07
2.05366e-08 1.95813e-07 5.49119e-06
0.00144295 1.09266e-05 -1.39324e-07
1.09266e-05 0.000218583 -2.57335e-07
-1.39324e-07 -2.57335e-07 0.000138577
0.00113285 1.21928e-05 -4.26048e-08
1.21928e-05 7.08225e-05 -1.0731e-06
-4.26048e-08 -1.0731e-06 1.21412e-05
0.00114763 6.25368e-06 -2.64961e-08
6.25368e-06 7.89772e-05 -3.47088e-07
-2.64961e-08 -3.47088e-07 1.02431e-05
0.00115837 1.14719e-05 -4.48311e-08
1.14719e-05 8.15799e-05 -2.55552e-07
-4.48311e-08 -2.55552e-07 8.3192e-06
0.00117251 1.32753e-05 -2.70848e-07
1.32753e-05 8.80682e-05 -2.00233e-07
-2.70848e-07 -2.00233e-07 8.65024e-06
0.00114323 1.09677e-05 3.85218e-08
1.09677e-05 7.74119e-05 1.07061e-08
3.85218e-08 1.07061e-08 8.9347e-06
0.00119523 1.20253e-05 5.18017e-08
1.20253e-05 0.000102008 2.69448e-07
5.18017e-08 2.69448e-07 2.53256e-05
0.00109876 1.13441e-05 -8.07209e-08
1.13441e-05 5.89836e-05 -1.85171e-07
-8.07209e-08 -1.85171e-07 -2.24224e-05
0.00110962 1.0338e-05 2.24325e-07
1.0338e-05 8.06876e-05 2.14197e-07
2.24325e-07 2.14197e-07 1.48915e-07
0.0011344 7.27038e-06 4.37857e-07
7.27038e-06 7.51416e-05 2.01386e-07
4.37857e-07 2.01386e-07 -8.04378e-06
0.00122972 8.32608e-06 7.59008e-08
8.32608e-06 0.000119417 3.82005e-07
7.59008e-08 3.82005e-07 4.36419e-05
0.00114974 2.20982e-07 1.1228e-07
2.20982e-07 8.08771e-05 -6.50051e-07
1.1228e-07 -6.50051e-07 1.28893e-05
0.00112482 -8.61791e-06 9.62954e-08
-8.61791e-06 7.13835e-05 -5.98506e-07
9.62954e-08 -5.98506e-07 2.07336e-06
0.00107565 -1.61556e-05 4.31316e-07
-1.61556e-05 4.83363e-05 -1.05933e-06
4.31316e-07 -1.05933e-06 -2.45928e-05
0.00118558 -4.30226e-06 -1.51459e-08
-4.30226e-06 9.97004e-05 -2.70158e-07
-1.51459e-08 -2.70158e-07 2.52613e-05
0.00110772 -1.13165e-05 -4.4949e-09
-1.13165e-05 6.5375e-05 1.70683e-07
-4.4949e-09 1.70683e-07 -5.79236e-06
0.00106 -1.69593e-05 5.83876e-08
-1.69593e-05 4.32382e-05 -1.73413e-07
5.83876e-08 -1.73413e-07 -3.28363e-05
0.00111739 -1.87944e-05 -6.99147e-07
-1.87944e-05 7.07962e-05 -7.51371e-08
-6.99147e-07 -7.51371e-08 -6.59309e-06
0.00111316 -1.90135e-05 5.05619e-08
-1.90135e-05 7.19541e-05 2.30562e-07
5.05619e-08 2.30562e-07 -7.77807e-06
0.00118796 -2.2996e-05 -5.6441e-08
-2.2996e-05 0.000101326 -1.3116e-07
-5.6441e-08 -1.3116e-07 2.48159e-05
0.00114086 -2.04176e-05 -3.34904e-07
-2.04176e-05 7.50993e-05 -8.45058e-08
-3.34904e-07 -8.45058e-08 1.62195e-06
0.00103232 -2.26676e-05 -2.61369e-07
-2.26676e-05 1.95407e-05 2.86213e-07
-2.61369e-07 2.86213e-07 -5.16451e-05
0.00113608 -2.39161e-05 -8.67506e-07
-2.39161e-05 6.48058e-05 9.37294e-07
-8.67506e-07 9.37294e-07 -3.18533e-06
0.00121546 -2.09914e-05 -3.3321e-07
-2.09914e-05 0.000106051 -4.0008e-07
-3.3321e-07 -4.0008e-07 4.42763e-05
0.00103746 -2.22435e-05 4.47202e-07
-2.22435e-05 2.37192e-05 -6.41184e-07
4.47202e-07 -6.41184e-07 -4.23103e-05
0.00112234 -2.05436e-05 3.04251e-07
-2.05436e-05 6.34196e-05 -1.56203e-07
3.04251e-07 -1.56203e-07 -4.30025e-06
0.000995361 -1.3721e-05 -8.71307e-07
-1.3721e-05 1.52612e-06 4.50667e-07
-8.71307e-07 4.50667e-07 -5.9513e-05
0.00112556 -1.78451e-05 1.31241e-07
-1.78451e-05 6.90418e-05 6.89325e-08
1.31241e-07 6.89325e-08 -1.71008e-06
0.00109626 -1.33602e-05 -1.43418e-07
-1.33602e-05 5.34751e-05 3.32035e-07
-1.43418e-07 3.32035e-07 -8.34852e-06
0.00106704 -3.98684e-06 -7.22604e-07
-3.98684e-06 3.33501e-05 1.16697e-06
-7.22604e-07 1.16697e-06 -1.50335e-05
0.00110231 -1.13641e-05 3.25094e-07
-1.13641e-05 5.78715e-05 -7.78122e-07
3.25094e-07 -7.78122e-07 -3.49774e-06
0.00106658 -4.94118e-06 2.7612e-08
-4.94118e-06 3.30103e-05 -1.83099e-08
2.7612e-08 -1.83099e-08 -1.46444e-05
0.00102098 4.70203e-06 -9.6271e-07
4.70203e-06 4.73867e-06 1.76059e-06
-9.6271e-07 1.76059e-06 -2.39017e-05
0.00106837 -3.17132e-06 5.31636e-07
-3.17132e-06 3.34975e-05 -1.10114e-06
5.31636e-07 -1.10114e-06 -1.32572e-05
0.00102714 3.9312e-06 6.32446e-08
3.9312e-06 5.89103e-06 4.64806e-09
6.32446e-08 4.64806e-09 -2.22111e-05
0.00157712 6.32728e-06 -2.8547e-06
6.32728e-06 0.000267349 4.23438e-06
-2.8547e-06 4.23438e-06 0.000269975
0.00103106 3.0875e-06 6.4262e-07
3.0875e-06 6.02263e-06 -1.78802e-06
6.4262e-07 -1.78802e-06 -2.16524e-05
0.00127337 4.72995e-06 -6.97133e-07
4.72995e-06 0.000115898 5.98386e-07
-6.97133e-07 5.98386e-07 0.000117625
0.00112616 5.35667e-06 -8.63394e-07
5.35667e-06 3.96675e-05 1.50426e-06
-8.63394e-07 1.50426e-06 5.79504e-05
0.00097652 2.97747e-06 7.36213e-07
2.97747e-06 -3.17884e-05 -3.09358e-06
7.36213e-07 -3.09358e-06 -3.10633e-05
0.00174458 3.75819e-06 1.11289e-06
3.75819e-06 0.000340572 -1.19714e-06
1.11289e-06 -1.19714e-06 0.000361895
0.00234021 1.8344e-06 1.69845e-06
1.8344e-06 0.00063202 -3.93782e-06
1.69845e-06 -3.93782e-06 0.000656205
0.00113611 -3.35934e-06 -6.36613e-08
-3.35934e-06 6.56486e-05 -9.20959e-07
-6.36613e-08 -9.20959e-07 2.37464e-05
0.00103693 -2.28277e-06 -3.91274e-07
-2.28277e-06 6.35086e-06 -1.77624e-06
-3.91274e-07 -1.77624e-06 -1.64122e-05
0.0011023 -1.76986e-06 1.10324e-07
-1.76986e-06 4.6882e-05 1.52958e-07
1.10324e-07 1.52958e-07 7.13114e-06
0.00097618 -1.53491e-06 -4.25753e-07
-1.53491e-06 -3.27198e-05 -3.06475e-06
-4.25753e-07 -3.06475e-06 -2.87369e-05
0.00103469 -1.12763e-06 -5.29439e-08
-1.12763e-06 3.90707e-06 9.07473e-10
-5.29439e-08 9.07473e-10 -1.82048e-05
0.00106685 -2.23931e-06 -1.25082e-07
-2.23931e-06 2.75801e-05 1.36129e-06
-1.25082e-07 1.36129e-06 -1.12698e-05
0.00224313 -2.89129e-09 -3.60652e-07
-2.89129e-09 0.000584024 -3.86189e-06
-3.60652e-07 -3.86189e-06 0.000609444
0.000972998 4.39137e-08 -9.57986e-08
4.39137e-08 -3.46562e-05 -3.40679e-09
-9.57986e-08 -3.40679e-09 -3.05319e-05
0.00103635 -3.00282e-08 -3.1248e-08
-3.00282e-08 4.28119e-06 1.82383e-06
-3.1248e-08 1.82383e-06 -1.77325e-05
0.000978272 1.72079e-06 -3.93397e-07
1.72079e-06 -3.16788e-05 3.05799e-06
-3.93397e-07 3.05799e-06 -2.77806e-05
0.00224235 2.16786e-06 -4.12221e-07
2.16786e-06 0.000584067 -4.42797e-09
-4.12221e-07 -4.42797e-09 0.000609404
0.00225673 4.22644e-06 -2.85322e-06
4.22644e-06 0.000592365 3.82941e-06
-2.85322e-06 3.82941e-06 0.000617335
-0.00129519 1.4824e-05 8.78552e-06
1.4824e-05 -0.000993195 -2.13913e-06
8.78552e-06 -2.13913e-06 -0.00100273
-0.000791323 1.18268e-05 2.06914e-05
1.18268e-05 -0.000338757 -5.04883e-06
2.06914e-05 -5.04883e-06 -0.000367549
0.000518366 4.13977e-06 1.57707e-05
4.13977e-06 4.01305e-05 -6.08909e-06
1.57707e-05 -6.08909e-06 1.80883e-05
-0.00118965 3.04034e-05 -6.6502e-06
3.04034e-05 -0.000966294 1.54238e-06
-6.6502e-06 1.54238e-06 -0.000933929
0.000727858 8.67657e-06 -3.4308e-05
8.67657e-06 -0.000216861 -3.76684e-06
-3.4308e-05 -3.76684e-06 -0.000312524
0.00131705 3.90768e-05 3.60871e-06
3.90768e-05 0.000158452 -4.50484e-07
3.60871e-06 -4.50484e-07 8.90718e-05
0.000952514 -3.20402e-05 -9.62444e-06
-3.20402e-05 -0.000114758 -2.39057e-06
-9.62444e-06 -2.39057e-06 -0.000357777
0.00225828 4.22086e-05 6.1774e-05
4.22086e-05 0.00100636 -2.26146e-05
6.1774e-05 -2.26146e-05 0.000923325
8.47901e-05 4.53777e-05 3.42874e-06
4.53777e-05 -0.000280761 -4.09002e-06
3.42874e-06 -4.09002e-06 -0.000195416
0.00132777 2.01472e-05 -3.26205e-06
2.01472e-05 0.000208878 9.77211e-07
-3.26205e-06 9.77211e-07 9.5804e-05
0.00236243 -4.94437e-05 4.12095e-06
-4.94437e-05 0.000149833 -2.78204e-06
4.12095e-06 -2.78204e-06 -0.000313898
0.00208106 0.000112967 -7.45847e-07
0.000112967 0.000597181 4.37298e-06
-7.45847e-07 4.37298e-06 0.000521709
0.000762406 2.12388e-05 -3.03828e-06
2.12388e-05 7.59459e-05 -1.88304e-06
-3.03828e-06 -1.88304e-06 0.000164998
0.000617079 -1.50715e-05 4.72042e-06
-1.50715e-05 7.66246e-05 -5.05869e-06
4.72042e-06 -5.05869e-06 -6.18626e-05
0.00259145 1.2861e-05 3.72385e-05
1.2861e-05 -7.15402e-06 -1.77546e-05
3.72385e-05 -1.77546e-05 -0.000579343
-0.00118582 0.000123446 -2.3534e-05
0.000123446 -0.00100864 4.50154e-05
-2.3534e-05 4.50154e-05 -0.0010515
9.71241e-05 -4.38472e-07 1.26008e-05
-4.38472e-07 -0.000274555 7.35418e-07
1.26008e-05 7.35418e-07 -0.00029785
0.00114702 -2.82594e-06 2.0123e-07
-2.82594e-06 8.46903e-05 -6.55716e-07
2.0123e-07 -6.55716e-07 1.45406e-05
0.00111072 9.07022e-06 -2.48391e-07
9.07022e-06 6.32561e-05 -1.94338e-07
-2.48391e-07 -1.94338e-07 8.79651e-07
0.00109761 4.63464e-08 2.0354e-07
4.63464e-08 4.99233e-05 2.22988e-07
2.0354e-07 2.22988e-07 -5.72899e-08
0.00109074 1.85803e-05 5.11128e-07
1.85803e-05 5.11757e-05 1.3279e-06
5.11128e-07 1.3279e-06 -8.25856e-06
0.00107862 6.38948e-06 -2.0352e-08
6.38948e-06 4.75055e-05 -1.8891e-07
-2.0352e-08 -1.8891e-07 -1.95545e-05
0.00120571 7.00726e-06 6.36078e-08
7.00726e-06 0.000108547 3.94358e-07
6.36078e-08 3.94358e-07 4.75256e-05
0.00107191 -2.51302e-06 -4.04051e-07
-2.51302e-06 4.10272e-05 1.66574e-06
-4.04051e-07 1.66574e-06 -1.59095e-05
0.00123885 1.06626e-05 -2.19835e-07
1.06626e-05 0.00012385 -5.52261e-07
-2.19835e-07 -5.52261e-07 6.623e-05
0.0011903 4.84763e-06 1.49825e-08
4.84763e-06 9.9742e-05 4.37032e-07
1.49825e-08 4.37032e-07 4.44515e-05
0.000970349 -3.87441e-06 -1.46477e-07
-3.87441e-06 -9.14572e-06 3.17509e-07
-1.46477e-07 3.17509e-07 -6.24455e-05
0.00126335 -1.40038e-05 -1.94434e-06
-1.40038e-05 -0.000181832 2.08662e-06
-1.94434e-06 2.08662e-06 -0.000183232
0.000940222 -4.51924e-05 -1.97045e-06
-4.51924e-05 -0.000135164 2.69888e-07
-1.97045e-06 2.69888e-07 -0.000184649
0.00130945 -4.35469e-05 -3.41413e-07
-4.35469e-05 0.000129089 1.33529e-06
-3.41413e-07 1.33529e-06 4.00296e-05
0.00111347 -3.11246e-05 -9.34476e-07
-3.11246e-05 6.06988e-05 -2.65743e-07
-9.34476e-07 -2.65743e-07 -4.30169e-05
0.00118504 -2.05662e-05 3.02015e-07
-2.05662e-05 0.000114037 1.85222e-07
3.02015e-07 1.85222e-07 1.44853e-05
0.00100068 -1.79678e-05 1.32871e-07
-1.79678e-05 2.08984e-05 -1.13535e-07
1.32871e-07 -1.13535e-07 -6.25761e-05
0.00100335 -2.81084e-06 -5.01973e-08
-2.81084e-06 1.95088e-05 1.8292e-07
-5.01973e-08 1.8292e-07 -5.78363e-05
0.00107294 -7.36594e-06 -2.2178e-08
-7.36594e-06 5.34027e-05 7.17497e-07
-2.2178e-08 7.17497e-07 -2.41122e-05
0.00178884 -3.26078e-05 7.27272e-07
-3.26078e-05 -2.57087e-05 4.23741e-07
7.27272e-07 4.23741e-07 1.03713e-05
0.00117264 -1.01172e-05 4.0102e-08
-1.01172e-05 0.000106711 -2.62993e-07
4.0102e-08 -2.62993e-07 2.21196e-05
0.0012957 -1.87287e-05 2.48224e-07
-1.87287e-05 0.000167276 1.60841e-08
2.48224e-07 1.60841e-08 7.38581e-05
0.00127766 -4.37874e-05 3.00425e-07
-4.37874e-05 0.000168423 -6.65905e-07
3.00425e-07 -6.65905e-07 6.38529e-05
0.00122689 -2.02044e-05 -4.2719e-08
-2.02044e-05 0.000125153 -1.338e-07
-4.2719e-08 -1.338e-07 1.68549e-05
0.00242759 -5.03397e-05 -1.35961e-05
-5.03397e-05 0.000421711 1.16439e-05
-1.35961e-05 1.16439e-05 0.000384666
0.000929957 -1.56556e-05 -9.3475e-07
-1.56556e-05 6.31956e-05 1.91413e-07
-9.3475e-07 1.91413e-07 -5.68213e-05
0.00118154 -1.54506e-05 -1.67867e-07
-1.54506e-05 0.000105077 3.40673e-07
-1.67867e-07 3.40673e-07 -2.19581e-07
0.00111256 7.41878e-06 -9.431e-08
7.41878e-06 7.43211e-05 5.25442e-08
-9.431e-08 5.25442e-08 -9.25917e-06
0.0011745 -6.98076e-07 -9.33191e-08
-6.98076e-07 0.000104556 -9.19668e-08
-9.33191e-08 -9.19668e-08 1.05331e-05
0.00162677 2.19973e-06 5.08829e-06
2.19973e-06 0.000768202 1.2065e-06
5.08829e-06 1.2065e-06 0.000699002
-0.000279372 3.35496e-06 4.89548e-06
3.35496e-06 -0.000393358 -3.72123e-07
4.89548e-06 -3.72123e-07 -0.000408519
-0.00395343 2.0974e-06 5.73385e-05
2.0974e-06 -0.00196949 -6.30512e-07
5.73385e-05 -6.30512e-07 -0.00191431
0.00129626 1.68589e-05 1.18239e-07
1.68589e-05 0.000166598 4.98528e-07
1.18239e-07 4.98528e-07 8.33823e-05
0.000790079 1.08772e-05 1.72989e-06
1.08772e-05 -8.7051e-06 -9.83671e-07
1.72989e-06 -9.83671e-07 -0.000117695
0.000968928 3.99634e-05 2.70073e-06
3.99634e-05 4.74692e-05 -4.19601e-06
2.70073e-06 -4.19601e-06 -0.000104253
-0.000669985 -5.40025e-06 -3.63347e-06
-5.40025e-06 -0.000609669 -1.77206e-06
-3.63347e-06 -1.77206e-06 -0.000616139
0.00181559 -2.49186e-05 1.82392e-06
-2.49186e-05 -0.000373042 1.93758e-05
1.82392e-06 1.93758e-05 -0.000959354
-0.000131121 3.37871e-05 -1.39158e-05
3.37871e-05 -0.000179847 -2.74786e-05
-1.39158e-05 -2.74786e-05 -0.000304963
0.00254363 1.51544e-07 4.62997e-05
1.51544e-07 0.000515945 1.45303e-05
4.62997e-05 1.45303e-05 0.000322787
0.00348174 -0.0001549 4.5321e-05
-0.0001549 0.001148 5.4651e-05
4.5321e-05 5.4651e-05 0.00100011
0.000354857 -1.03775e-05 -1.43003e-05
-1.03775e-05 -8.55364e-05 -7.47107e-06
-1.43003e-05 -7.47107e-06 -9.77406e-05
0.000194431 -1.54408e-05 -1.15024e-05
-1.54408e-05 -0.000263414 -4.92385e-06
-1.15024e-05 -4.92385e-06 -0.000273869
0.00101543 1.42755e-05 6.93894e-07
1.42755e-05 3.77485e-05 6.65161e-07
6.93894e-07 6.65161e-07 -4.29315e-05
0.00128009 2.27859e-06 1.74522e-06
2.27859e-06 0.000532745 9.46352e-07
1.74522e-06 9.46352e-07 0.000474648
0.000696369 4.52768e-06 4.21899e-07
4.52768e-06 4.74197e-05 6.83346e-08
4.21899e-07 6.83346e-08 -2.07827e-06
0.000394722 2.18997e-06 6.86836e-06
2.18997e-06 -0.000121909 9.49246e-07
6.86836e-06 9.49246e-07 -0.000238569
0.000890719 3.59254e-05 -1.41993e-05
3.59254e-05 0.000321517 -1.24997e-06
-1.41993e-05 -1.24997e-06 0.000176696
0.00512477 -2.80687e-05 1.33336e-05
-2.80687e-05 0.000834378 9.03328e-06
1.33336e-05 9.03328e-06 0.000279964
0.000698994 -3.29141e-06 -1.3315e-06
-3.29141e-06 7.23927e-05 1.20215e-06
-1.3315e-06 1.20215e-06 2.67123e-05
0.0018611 -0.000129797 3.19315e-06
-0.000129797 2.40561e-06 7.80879e-06
3.19315e-06 7.80879e-06 4.14977e-05
0.000750936 2.12709e-06 -4.77395e-07
2.12709e-06 -9.02946e-05 -4.06861e-06
-4.77395e-07 -4.06861e-06 -0.000161055
0.000810345 8.74638e-06 2.96758e-06
8.74638e-06 0.000131376 8.6697e-07
2.96758e-06 8.6697e-07 5.07105e-05
0.000762983 -3.34861e-06 -7.55267e-07
-3.34861e-06 5.93124e-05 1.38397e-06
-7.55267e-07 1.38397e-06 5.58918e-06
-2.52813e-05 3.7937e-07 -1.24231e-05
3.7937e-07 -0.00037958 1.99051e-06
-1.24231e-05 1.99051e-06 -0.000377355
-0.000764135 8.70191e-07 -8.22207e-06
8.70191e-07 -0.000553859 -1.12766e-06
-8.22207e-06 -1.12766e-06 -0.000620941
0.00669671 -4.23103e-05 -1.65815e-05
-4.23103e-05 0.00183839 5.56534e-06
-1.65815e-05 5.56534e-06 0.00127122
0.00081404 -1.11444e-06 5.17894e-06
-1.11444e-06 -0.000886134 -3.41702e-05
5.17894e-06 -3.41702e-05 -0.000590617
0.00120236 1.22477e-05 -1.09899e-08
1.22477e-05 0.000104682 1.30126e-07
-1.09899e-08 1.30126e-07 2.45693e-05
0.00130373 8.4888e-06 -2.57332e-07
8.4888e-06 0.00015531 -4.86805e-07
-2.57332e-07 -4.86805e-07 7.47292e-05
0.00127443 1.09039e-05 7.13853e-08
1.09039e-05 0.000168541 1.02023e-06
7.13853e-08 1.02023e-06 8.93987e-05
0.001138 1.74679e-05 -9.49788e-08
1.74679e-05 7.50695e-05 -5.09486e-07
-9.49788e-08 -5.09486e-07 6.50606e-06
0.00121466 1.64549e-05 3.77621e-09
1.64549e-05 0.000111063 -3.23963e-09
3.77621e-09 -3.23963e-09 3.43341e-05
0.00111601 1.10885e-05 -5.53969e-07
1.10885e-05 6.83027e-05 -2.15836e-07
-5.53969e-07 -2.15836e-07 -1.31465e-05
0.00122982 8.54644e-06 -3.52438e-08
8.54644e-06 0.000119549 -7.66463e-08
-3.52438e-08 -7.66463e-08 4.39189e-05
0.00116869 5.13649e-06 1.39161e-07
5.13649e-06 9.31291e-05 7.86919e-08
1.39161e-07 7.86919e-08 9.51415e-06
0.0010869 1.15857e-05 -2.32255e-07
1.15857e-05 6.51741e-05 5.1876e-07
-2.32255e-07 5.1876e-07 -1.48105e-05
0.00112401 1.34641e-05 4.41272e-07
1.34641e-05 8.97148e-05 -5.08884e-08
4.41272e-07 -5.08884e-08 5.0034e-06
0.00113232 -1.01171e-05 -2.33507e-07
-1.01171e-05 7.81084e-05 5.27667e-07
-2.33507e-07 5.27667e-07 -4.67971e-06
0.00119496 -3.73288e-06 -1.03736e-07
-3.73288e-06 0.000103478 -7.00703e-07
-1.03736e-07 -7.00703e-07 2.94246e-05
0.00113032 -9.04535e-06 4.79789e-08
-9.04535e-06 7.62552e-05 -2.5728e-07
4.79789e-08 -2.5728e-07 5.10329e-06
0.00109347 -1.58475e-05 1.34381e-09
-1.58475e-05 5.85738e-05 -3.86638e-07
1.34381e-09 -3.86638e-07 -1.70846e-05
0.00111971 -1.83274e-05 1.06824e-07
-1.83274e-05 7.34335e-05 -7.7966e-08
1.06824e-07 -7.7966e-08 -5.99172e-06
0.00106956 -1.73023e-05 -2.73553e-07
-1.73023e-05 4.80138e-05 1.88516e-07
-2.73553e-07 1.88516e-07 -2.9419e-05
0.00114796 -2.14303e-05 -5.19917e-07
-2.14303e-05 9.3503e-05 6.75785e-07
-5.19917e-07 6.75785e-07 1.20827e-05
0.00112543 -2.24375e-05 2.7539e-07
-2.24375e-05 7.32098e-05 -3.22744e-07
2.7539e-07 -3.22744e-07 -1.14414e-06
0.00101554 -2.43374e-05 5.45074e-08
-2.43374e-05 1.9484e-05 7.09043e-07
5.45074e-08 7.09043e-07 -6.13386e-05
0.00115822 -2.05123e-05 4.98017e-07
-2.05123e-05 8.35754e-05 9.09453e-08
4.98017e-07 9.09453e-08 9.98344e-06
0.00117166 -2.38916e-05 5.24697e-08
-2.38916e-05 8.49917e-05 4.35968e-07
5.24697e-08 4.35968e-07 1.37931e-05
0.00104264 -2.50676e-05 -3.25856e-07
-2.50676e-05 1.54863e-05 9.17019e-07
-3.25856e-07 9.17019e-07 -5.88626e-05
0.00112519 -2.29428e-05 -6.87839e-07
-2.29428e-05 6.49578e-05 2.8113e-07
-6.87839e-07 2.8113e-07 -2.03602e-06
0.00112867 -2.00892e-05 -9.36236e-07
-2.00892e-05 6.60733e-05 3.63862e-07
-9.36236e-07 3.63862e-07 5.15323e-06
0.00107047 -2.3307e-05 -3.50169e-07
-2.3307e-05 3.48049e-05 1.25275e-07
-3.50169e-07 1.25275e-07 -3.33147e-05
0.00111192 -1.46026e-05 -7.50609e-07
-1.46026e-05 5.52007e-05 2.79155e-07
-7.50609e-07 2.79155e-07 -2.16374e-06
0.00117263 -2.09617e-05 3.01853e-08
-2.09617e-05 8.51841e-05 -1.66067e-07
3.01853e-08 -1.66067e-07 2.30011e-05
0.00108143 -2.26398e-05 5.87144e-07
-2.26398e-05 4.55075e-05 -9.98688e-07
5.87144e-07 -9.98688e-07 -1.9387e-05
0.00120159 -2.10474e-05 1.10194e-06
-2.10474e-05 0.000101381 -2.87209e-07
1.10194e-06 -2.87209e-07 3.41591e-05
0.00104155 -1.4287e-05 4.46278e-08
-1.4287e-05 2.38133e-05 -1.83141e-08
4.46278e-08 -1.83141e-08 -3.69108e-05
0.00107001 -3.45375e-06 -9.79613e-07
-3.45375e-06 3.36045e-05 1.10762e-06
-9.79613e-07 1.10762e-06 -1.45552e-05
0.00109699 -1.22904e-05 4.83934e-07
-1.22904e-05 5.38467e-05 -3.53806e-07
4.83934e-07 -3.53806e-07 -7.92534e-06
0.00106609 -3.72103e-06 7.33233e-08
-3.72103e-06 3.27619e-05 1.4587e-08
7.33233e-08 1.4587e-08 -1.558e-05
0.00101698 5.68877e-06 -1.16143e-06
5.68877e-06 4.64399e-06 1.77795e-06
-1.16143e-06 1.77795e-06 -2.45796e-05
0.00107179 -5.07961e-06 6.28574e-07
-5.07961e-06 3.55276e-05 -1.14682e-06
6.28574e-07 -1.14682e-06 -1.21802e-05
0.00102215 4.72422e-06 4.79994e-08
4.72422e-06 5.30599e-06 1.05753e-11
4.79994e-08 1.05753e-11 -2.33623e-05
0.00154646 7.83499e-06 -2.99181e-06
7.83499e-06 0.000255662 2.97925e-06
-2.99181e-06 2.97925e-06 0.000257838
0.00102704 3.93036e-06 8.70212e-07
3.93036e-06 5.79202e-06 -1.7804e-06
8.70212e-07 -1.7804e-06 -2.23183e-05
0.0012704 6.2335e-06 -8.49926e-07
6.2335e-06 0.00011716 6.00081e-07
-8.49926e-07 6.00081e-07 0.000118386
0.00112133 7.20107e-06 -1.16539e-06
7.20107e-06 4.0461e-05 1.49085e-06
-1.16539e-06 1.49085e-06 5.81896e-05
0.000975271 4.52078e-06 1.06958e-06
4.52078e-06 -3.0444e-05 -3.06891e-06
1.06958e-06 -3.06891e-06 -3.00723e-05
0.00174772 5.82243e-06 1.48631e-06
5.82243e-06 0.000344122 -1.187e-06
1.48631e-06 -1.187e-06 0.000365102
0.00234267 4.04008e-06 2.84197e-06
4.04008e-06 0.000634395 -3.9174e-06
2.84197e-06 -3.9174e-06 0.000658375
0.00087898 -1.45385e-06 -3.31173e-07
-1.45385e-06 -5.81764e-05 -1.51476e-06
-3.31173e-07 -1.51476e-06 -0.000104209
0.000786586 -3.44296e-06 -5.68819e-07
-3.44296e-06 -0.000113164 -2.31296e-06
-5.68819e-07 -2.31296e-06 -0.000138872
0.0011399 -3.12682e-06 4.45231e-08
-3.12682e-06 6.73505e-05 1.13301e-07
4.45231e-08 1.13301e-07 2.53851e-05
0.000981393 -3.15199e-06 -7.31244e-07
-3.15199e-06 -2.9006e-05 -3.03567e-06
-7.31244e-07 -3.03567e-06 -2.55817e-05
0.000908043 -2.2844e-06 -1.71776e-08
-2.2844e-06 -5.62301e-05 1.46367e-10
-1.71776e-08 1.46367e-10 -7.97906e-05
0.00089365 -4.76467e-06 1.20065e-07
-4.76467e-06 -5.4419e-05 1.14967e-06
1.20065e-07 1.14967e-06 -9.54276e-05
0.00223898 -2.09087e-06 -1.67671e-06
-2.09087e-06 0.000582462 -3.84896e-06
-1.67671e-06 -3.84896e-06 0.000607812
0.000972577 -1.51869e-06 -8.15139e-08
-1.51869e-06 -3.44969e-05 4.75917e-09
-8.15139e-08 4.75917e-09 -3.04876e-05
0.00102917 -1.14513e-06 1.19903e-07
-1.14513e-06 1.23354e-06 1.77507e-06
1.19903e-07 1.77507e-06 -2.08418e-05
0.00224304 4.6342e-08 -4.58621e-07
4.6342e-08 0.00058398 1.05527e-09
-4.58621e-07 1.05527e-09 0.000609402
0.000973257 6.07646e-08 -1.22871e-07
6.07646e-08 -3.45224e-05 3.08272e-06
-1.22871e-07 3.08272e-06 -3.04043e-05
0.00223854 2.22542e-06 -1.58436e-06
2.22542e-06 0.000582332 3.84869e-06
-1.58436e-06 3.84869e-06 0.000607654
0.000842536 1.25162e-07 8.81765e-06
1.25162e-07 0.000269882 -3.16569e-06
8.81765e-06 -3.16569e-06 0.000208663
0.000780356 1.60111e-05 3.58988e-08
1.60111e-05 0.000221435 9.09969e-07
3.58988e-08 9.09969e-07 0.000221188
0.000770934 4.00187e-06 8.20936e-05
4.00187e-06 0.000171112 -1.27667e-05
8.20936e-05 -1.27667e-05 8.03766e-05
0.00109033 1.05369e-05 -5.06678e-07
1.05369e-05 4.7272e-05 -4.86771e-07
-5.06678e-07 -4.86771e-07 -1.30832e-05
0.000405633 -1.44822e-05 5.51107e-06
-1.44822e-05 -0.000101349 -7.27461e-06
5.51107e-06 -7.27461e-06 -0.000147188
0.000727331 4.6006e-06 3.43751e-06
4.6006e-06 0.00016968 -6.99975e-07
3.43751e-06 -6.99975e-07 0.000149253
0.00071204 3.43281e-05 -1.31023e-05
3.43281e-05 0.000125427 1.07343e-05
-1.31023e-05 1.07343e-05 0.000170902
0.00105128 1.38693e-05 -2.53732e-05
1.38693e-05 -0.000103115 7.25045e-06
-2.53732e-05 7.25045e-06 -0.000243779
0.00437283 4.08588e-06 -8.01403e-07
4.08588e-06 0.00127388 -1.15448e-07
-8.01403e-07 -1.15448e-07 0.000825456
-0.00118462 8.60837e-05 3.9294e-05
8.60837e-05 -0.000752708 -2.77899e-05
3.9294e-05 -2.77899e-05 -0.000764865
0.00248735 1.81006e-05 -8.97224e-06
1.81006e-05 0.00115554 1.24668e-06
-8.97224e-06 1.24668e-06 0.00122025
0.00222359 -4.68553e-05 -1.83007e-05
-4.68553e-05 0.000447709 7.69786e-06
-1.83007e-05 7.69786e-06 0.000206356
0.00479953 5.19837e-05 1.76886e-05
5.19837e-05 0.00115844 -2.42171e-05
1.76886e-05 -2.42171e-05 0.000680347
2.21903e-05 0.000131263 -1.44979e-06
0.000131263 -0.000701842 9.82784e-06
-1.44979e-06 9.82784e-06 -0.000744021
0.0012148 4.24138e-06 1.58246e-06
4.24138e-06 0.000389547 -3.66664e-06
1.58246e-06 -3.66664e-06 0.000383951
0.000860061 -7.99884e-05 2.61106e-05
-7.99884e-05 -0.000205908 -4.04343e-05
2.61106e-05 -4.04343e-05 -0.000458799
0.00533384 9.19634e-05 1.22101e-05
9.19634e-05 0.000693099 -4.71718e-05
1.22101e-05 -4.71718e-05 5.24812e-05
0.0010121 0.000126477 1.07434e-05
0.000126477 -0.000727182 4.03204e-05
1.07434e-05 4.03204e-05 -0.000709489
0.000332789 -6.9265e-07 2.4361e-06
-6.9265e-07 -0.000149104 5.64324e-06
2.4361e-06 5.64324e-06 -0.000215652
0.00109463 9.50549e-07 -2.1109e-07
9.50549e-07 5.65504e-05 -6.224e-07
-2.1109e-07 -6.224e-07 -1.9583e-05
0.00112884 -5.94401e-06 4.8154e-08
-5.94401e-06 7.57996e-05 2.7661e-08
4.8154e-08 2.7661e-08 4.86266e-06
0.00120599 1.12378e-05 -1.50486e-08
1.12378e-05 0.000108831 6.45524e-07
-1.50486e-08 6.45524e-07 4.73294e-05
0.0010819 1.32803e-05 -4.26727e-07
1.32803e-05 4.76387e-05 -8.18366e-07
-4.26727e-07 -8.18366e-07 -2.06987e-05
0.00115921 1.25654e-05 -2.32957e-08
1.25654e-05 8.64179e-05 3.39623e-07
-2.32957e-08 3.39623e-07 2.02578e-05
0.00122835 2.19035e-06 1.21161e-07
2.19035e-06 0.00011913 1.30198e-06
1.21161e-07 1.30198e-06 5.87919e-05
0.00126405 1.01755e-05 -1.14379e-07
1.01755e-05 0.000135553 5.31231e-08
-1.14379e-07 5.31231e-08 7.82765e-05
0.00127047 1.01863e-05 1.8308e-07
1.01863e-05 0.000138506 1.23186e-06
1.8308e-07 1.23186e-06 8.39543e-05
0.000361605 -3.38213e-05 1.16771e-06
-3.38213e-05 -0.000678074 -2.16115e-06
1.16771e-06 -2.16115e-06 -0.000638172
0.00165282 -4.59219e-05 -2.96384e-07
-4.59219e-05 0.000344128 -3.17266e-07
-2.96384e-07 -3.17266e-07 0.000239727
0.00112692 -1.95085e-05 7.36317e-08
-1.95085e-05 7.97725e-05 8.16659e-07
7.36317e-08 8.16659e-07 1.94713e-06
0.00128067 -2.00193e-05 4.25834e-07
-2.00193e-05 0.000148709 -2.42478e-07
4.25834e-07 -2.42478e-07 4.0612e-05
0.0013319 -1.98047e-05 2.85747e-07
-1.98047e-05 0.00018509 5.47433e-07
2.85747e-07 5.47433e-07 9.11858e-05
0.0012187 -4.58963e-06 4.10367e-08
-4.58963e-06 0.00012956 -2.78951e-07
4.10367e-08 -2.78951e-07 4.55498e-05
0.00113257 6.18536e-06 -2.19892e-08
6.18536e-06 8.37949e-05 4.72592e-08
-2.19892e-08 4.72592e-08 1.8114e-07
0.00143157 -3.80874e-05 5.40444e-07
-3.80874e-05 -5.34525e-05 -7.81311e-08
5.40444e-07 -7.81311e-08 -6.66995e-05
0.00115395 -2.88406e-06 -7.13906e-08
-2.88406e-06 9.36445e-05 1.55578e-07
-7.13906e-08 1.55578e-07 -4.1333e-07
0.0012192 -1.52385e-05 5.50502e-07
-1.52385e-05 0.000121421 8.66484e-08
5.50502e-07 8.66484e-08 1.6297e-05
0.00108065 -1.86574e-05 -1.80116e-07
-1.86574e-05 0.000130401 2.54608e-07
-1.80116e-07 2.54608e-07 1.17266e-05
0.00105215 1.1545e-05 -9.71092e-08
1.1545e-05 3.94837e-05 5.05305e-07
-9.71092e-08 5.05305e-07 -4.4534e-05
0.00231248 -4.27049e-05 -1.10138e-05
-4.27049e-05 0.00057463 2.17793e-05
-1.10138e-05 2.17793e-05 0.000487714
0.0012586 1.09741e-06 -5.73249e-08
1.09741e-06 0.000210186 -7.50581e-07
-5.73249e-08 -7.50581e-07 9.39028e-05
0.001377 -7.2745e-06 -3.81291e-07
-7.2745e-06 0.000197254 2.2706e-07
-3.81291e-07 2.2706e-07 9.46462e-05
0.00116749 1.19909e-05 -8.37813e-08
1.19909e-05 9.65521e-05 1.962e-07
-8.37813e-08 1.962e-07 3.86979e-06
0.00130215 1.91716e-06 1.71121e-06
1.91716e-06 0.000457362 3.80696e-07
1.71121e-06 3.80696e-07 0.00036754
0.00137203 2.99546e-06 -4.49836e-06
2.99546e-06 0.000605523 2.01481e-07
-4.49836e-06 2.01481e-07 0.000536329
-0.00130515 4.44091e-06 -2.75567e-06
4.44091e-06 -0.000987908 -1.38343e-07
-2.75567e-06 -1.38343e-07 -0.00100818
0.00106192 1.63184e-05 -1.42641e-07
1.63184e-05 5.9445e-05 4.54384e-07
-1.42641e-07 4.54384e-07 -2.12371e-05
0.000324377 -2.95506e-06 -2.01202e-08
-2.95506e-06 -0.000178176 3.11023e-06
-2.01202e-08 3.11023e-06 -0.000311912
0.000794385 3.19562e-06 -1.16455e-05
3.19562e-06 0.000233876 -2.55318e-06
-1.16455e-05 -2.55318e-06 0.000169849
0.00331932 -0.000104574 5.45848e-06
-0.000104574 0.000384276 8.76539e-06
5.45848e-06 8.76539e-06 -0.000250759
0.00324368 6.5067e-05 -6.34538e-06
6.5067e-05 0.00105792 -4.14846e-05
-6.34538e-06 -4.14846e-05 0.00082585
0.00202164 -0.000135294 -2.7349e-06
-0.000135294 -0.000353538 5.66869e-05
-2.7349e-06 5.66869e-05 -0.000175393
0.000382082 4.92092e-06 -6.8581e-06
4.92092e-06 -0.000151062 -3.47841e-06
-6.8581e-06 -3.47841e-06 -0.000201591
0.0010612 -1.75709e-06 1.30163e-06
-1.75709e-06 0.000315252 2.75371e-07
1.30163e-06 2.75371e-07 0.000264422
0.00114182 3.08095e-06 -4.21974e-07
3.08095e-06 9.81889e-05 -8.03173e-07
-4.21974e-07 -8.03173e-07 2.63365e-05
0.000648503 8.67624e-06 4.20045e-07
8.67624e-06 3.20964e-05 2.441e-07
4.20045e-07 2.441e-07 -4.94146e-05
0.000765558 -4.0732e-06 -2.15121e-06
-4.0732e-06 6.11669e-05 2.66708e-07
-2.15121e-06 2.66708e-07 3.54191e-06
0.00012871 -6.14063e-06 6.67981e-07
-6.14063e-06 -0.000140764 -3.34952e-06
6.67981e-07 -3.34952e-06 -0.00018756
0.00132481 4.20406e-06 -1.50958e-06
4.20406e-06 0.000436306 3.96788e-06
-1.50958e-06 3.96788e-06 0.000452366
0.00338381 -1.04571e-05 3.60601e-06
-1.04571e-05 0.000107483 1.58619e-05
3.60601e-06 1.58619e-05 -0.000288964
0.00340386 1.37878e-05 6.53199e-06
1.37878e-05 6.22661e-05 1.40754e-06
6.53199e-06 1.40754e-06 0.000473794
0.000627295 -3.66782e-06 3.98478e-07
-3.66782e-06 -0.000133929 -3.34411e-06
3.98478e-07 -3.34411e-06 -0.000184033
0.000825495 -1.15048e-07 1.03462e-06
-1.15048e-07 0.00010015 2.14962e-07
1.03462e-06 2.14962e-07 2.75142e-05
0.000475979 -1.22904e-05 -6.03448e-06
-1.22904e-05 -9.73861e-05 8.84546e-06
-6.03448e-06 8.84546e-06 -0.000141761
0.00124456 2.99677e-05 -2.79491e-06
2.99677e-05 0.00034923 5.01649e-06
-2.79491e-06 5.01649e-06 0.00044203
0.00159686 0.000129169 -4.5505e-06
0.000129169 -0.0003975 -4.55481e-05
-4.5505e-06 -4.55481e-05 -0.000334668
0.00116828 1.0221e-06 8.81474e-07
1.0221e-06 0.000551324 -1.00514e-05
8.81474e-07 -1.00514e-05 0.000470123
0.00488882 -1.50646e-05 1.7682e-05
-1.50646e-05 0.000951522 1.84602e-05
1.7682e-05 1.84602e-05 0.000184941
0.00113499 4.89463e-06 4.54773e-07
4.89463e-06 7.81739e-05 -5.28347e-07
4.54773e-07 -5.28347e-07 -2.97722e-06
0.0010517 1.04956e-05 4.87658e-07
1.04956e-05 5.90782e-05 -7.42694e-07
4.87658e-07 -7.42694e-07 -2.05993e-05
0.000858946 1.46015e-05 2.24213e-07
1.46015e-05 -1.9412e-05 -1.22678e-07
2.24213e-07 -1.22678e-07 -0.000109277
0.001222 8.89483e-06 -1.16305e-07
8.89483e-06 0.000115835 -4.00228e-07
-1.16305e-07 -4.00228e-07 4.03704e-05
0.00119094 4.85876e-06 -1.67907e-07
4.85876e-06 0.000104989 -2.63551e-07
-1.67907e-07 -2.63551e-07 2.09798e-05
0.00101789 1.22591e-05 -1.07677e-06
1.22591e-05 2.60009e-05 1.4653e-06
-1.07677e-06 1.4653e-06 -5.31829e-05
0.00111512 -1.04405e-05 -1.20044e-07
-1.04405e-05 7.02365e-05 1.80552e-07
-1.20044e-07 1.80552e-07 -1.24798e-05
0.00109308 8.9312e-06 -1.20342e-07
8.9312e-06 7.55167e-05 2.15306e-07
-1.20342e-07 2.15306e-07 -8.48307e-06
0.00118355 -1.34725e-05 1.52025e-07
-1.34725e-05 0.000127253 1.01201e-06
1.52025e-07 1.01201e-06 3.68783e-05
0.00113447 -1.84128e-05 1.55671e-07
-1.84128e-05 7.90142e-05 -3.15187e-07
1.55671e-07 -3.15187e-07 -1.52939e-07
0.0010248 -1.58489e-05 4.59991e-08
-1.58489e-05 2.66649e-05 1.68555e-07
4.59991e-08 1.68555e-07 -5.08134e-05
0.00116302 -2.17485e-05 5.58048e-08
-2.17485e-05 9.95263e-05 4.28259e-07
5.58048e-08 4.28259e-07 1.76563e-05
0.000923257 -2.34789e-05 -6.46765e-07
-2.34789e-05 -9.49093e-07 1.56559e-06
-6.46765e-07 1.56559e-06 -8.91319e-05
0.00105296 -2.17833e-05 2.95737e-07
-2.17833e-05 4.05096e-05 7.54231e-08
2.95737e-07 7.54231e-08 -3.16929e-05
0.00102946 -2.41984e-05 4.09844e-07
-2.41984e-05 2.85434e-05 -3.58827e-07
4.09844e-07 -3.58827e-07 -5.15841e-05
0.00120757 -2.88335e-05 -2.92675e-07
-2.88335e-05 0.000100885 7.75561e-07
-2.92675e-07 7.75561e-07 1.67775e-05
0.00119591 -2.65465e-05 -1.10865e-06
-2.65465e-05 8.73108e-05 1.02263e-06
-1.10865e-06 1.02263e-06 1.31441e-05
0.00130491 -2.50855e-05 4.16233e-07
-2.50855e-05 0.000147559 -2.08937e-09
4.16233e-07 -2.08937e-09 7.63531e-05
0.00110001 -2.56977e-05 -9.69071e-08
-2.56977e-05 4.27126e-05 -4.20646e-08
-9.69071e-08 -4.20646e-08 -3.21138e-05
0.00125012 -2.33857e-05 -6.88637e-08
-2.33857e-05 0.000125638 2.22552e-08
-6.88637e-08 2.22552e-08 6.10219e-05
0.00102763 -1.73316e-05 -5.38867e-07
-1.73316e-05 2.54551e-05 2.51999e-07
-5.38867e-07 2.51999e-07 -3.63112e-05
0.00112868 -2.28831e-05 3.16664e-07
-2.28831e-05 6.63425e-05 -9.06589e-08
3.16664e-07 -9.06589e-08 8.07084e-08
0.00110326 -1.11412e-05 -8.95501e-07
-1.11412e-05 5.36271e-05 1.32519e-07
-8.95501e-07 1.32519e-07 -2.15541e-06
0.00113916 -2.01406e-05 -4.45383e-07
-2.01406e-05 7.08824e-05 3.08989e-07
-4.45383e-07 3.08989e-07 9.86463e-06
0.00100525 -2.27043e-05 1.75099e-07
-2.27043e-05 4.98283e-06 -3.6874e-07
1.75099e-07 -3.6874e-07 -6.32644e-05
0.00107039 -3.4988e-06 -1.17855e-06
-3.4988e-06 3.29757e-05 9.58198e-07
-1.17855e-06 9.58198e-07 -1.40648e-05
0.00107098 -1.44356e-05 3.87075e-08
-1.44356e-05 3.49144e-05 7.5686e-08
3.87075e-08 7.5686e-08 -2.26992e-05
0.00112937 -2.09565e-05 1.12569e-06
-2.09565e-05 6.40987e-05 -2.81242e-07
1.12569e-06 -2.81242e-07 1.50858e-06
0.00108764 -1.47793e-05 8.51816e-07
-1.47793e-05 4.60942e-05 -4.75008e-07
8.51816e-07 -4.75008e-07 -1.43188e-05
0.00106614 -2.9986e-06 6.80793e-08
-2.9986e-06 3.15452e-05 2.59929e-08
6.80793e-08 2.59929e-08 -1.65213e-05
0.00101489 6.42492e-06 -1.41697e-06
6.42492e-06 4.82397e-06 1.77003e-06
-1.41697e-06 1.77003e-06 -2.46406e-05
0.00106605 -3.52237e-06 8.26239e-07
-3.52237e-06 3.25956e-05 -1.07002e-06
8.26239e-07 -1.07002e-06 -1.57045e-05
0.00101677 5.74149e-06 6.3518e-08
5.74149e-06 4.57719e-06 7.73619e-09
6.3518e-08 7.73619e-09 -2.46621e-05
0.000939105 8.59325e-06 -1.8969e-06
8.59325e-06 -3.83667e-05 2.9719e-06
-1.8969e-06 2.9719e-06 -3.95954e-05
0.00102336 4.74792e-06 1.06524e-06
4.74792e-06 5.89866e-06 -1.7835e-06
1.06524e-06 -1.7835e-06 -2.2799e-05
0.000953155 7.31411e-06 8.11803e-08
7.31411e-06 -3.50348e-05 1.39176e-08
8.11803e-08 1.39176e-08 -3.5722e-05
0.00232554 1.09571e-05 -2.23012e-06
1.09571e-05 0.000633963 1.55341e-06
-2.23012e-06 1.55341e-06 0.000656722
0.000971962 5.95787e-06 1.43088e-06
5.95787e-06 -2.93355e-05 -3.03456e-06
1.43088e-06 -3.03456e-06 -2.94733e-05
0.00175127 7.83492e-06 1.82434e-06
7.83492e-06 0.000348801 -1.17399e-06
1.82434e-06 -1.17399e-06 0.000369254
0.00234601 6.20806e-06 3.90731e-06
6.20806e-06 0.000638159 -3.89549e-06
3.90731e-06 -3.89549e-06 0.000661773
0.000869151 1.40756e-07 -6.55223e-07
1.40756e-07 -6.38505e-05 -1.48289e-06
-6.55223e-07 -1.48289e-06 -0.000111647
0.000770252 -4.26166e-06 -7.70565e-07
-4.26166e-06 -0.000118369 -2.32046e-06
-7.70565e-07 -2.32046e-06 -0.000146253
0.00101642 -2.34152e-06 -8.67058e-08
-2.34152e-06 8.32805e-06 -4.75592e-07
-8.67058e-08 -4.75592e-07 -3.70571e-05
0.00098324 -4.73186e-06 -1.02609e-06
-4.73186e-06 -2.60777e-05 -3.00934e-06
-1.02609e-06 -3.00934e-06 -2.36822e-05
0.00077584 -3.4488e-06 -9.75732e-08
-3.4488e-06 -0.000118131 -5.74209e-07
-9.75732e-08 -5.74209e-07 -0.000144051
0.00114431 -2.25199e-06 2.13647e-07
-2.25199e-06 6.9338e-05 1.14415e-06
2.13647e-07 1.14415e-06 2.73073e-05
0.002246 -4.21344e-06 -2.82788e-06
-4.21344e-06 0.000587211 -3.83952e-06
-2.82788e-06 -3.83952e-06 0.000612222
0.000972347 -3.14409e-06 -7.11267e-08
-3.14409e-06 -3.34547e-05 -2.65274e-09
-7.11267e-08 -2.65274e-09 -2.99584e-05
0.000780168 -2.28401e-06 2.94942e-07
-2.28401e-06 -0.000118333 1.77435e-06
2.94942e-07 1.77435e-06 -0.000142692
0.00224524 -2.04354e-06 -4.54382e-07
-2.04354e-06 0.000585416 6.65739e-09
-4.54382e-07 6.65739e-09 0.000610757
0.000969236 -1.50195e-06 2.53092e-07
-1.50195e-06 -3.61469e-05 3.07196e-06
2.53092e-07 3.07196e-06 -3.21116e-05
0.0022423 9.62308e-08 -3.67762e-07
9.62308e-08 0.00058362 3.84774e-06
-3.67762e-07 3.84774e-06 0.000609048
0.000772993 -1.19612e-05 1.80654e-06
-1.19612e-05 0.000130724 -2.10042e-06
1.80654e-06 -2.10042e-06 5.12331e-05
0.000766091 -9.61748e-09 -2.89403e-07
-9.61748e-09 0.000220777 3.56651e-07
-2.89403e-07 3.56651e-07 0.000160247
0.000623382 1.46048e-05 -8.96254e-06
1.46048e-05 0.000119574 3.84126e-06
-8.96254e-06 3.84126e-06 0.000118914
0.00113352 1.42441e-05 -1.79312e-07
1.42441e-05 6.82836e-05 4.91594e-08
-1.79312e-07 4.91594e-08 8.40594e-06
0.00101347 1.59961e-05 -5.8392e-07
1.59961e-05 4.90792e-06 -4.67414e-07
-5.8392e-07 -4.67414e-07 -5.55251e-05
0.001197 1.67051e-05 -1.39908e-08
1.67051e-05 0.000100313 3.37969e-07
-1.39908e-08 3.37969e-07 3.28171e-05
0.000548727 -1.27665e-06 -1.3344e-06
-1.27665e-06 -3.33336e-05 8.01554e-07
-1.3344e-06 8.01554e-07 -9.22298e-05
0.000801155 -1.47287e-05 5.68482e-07
-1.47287e-05 0.000149606 -3.87297e-07
5.68482e-07 -3.87297e-07 0.000100454
0.000924719 4.95056e-06 -8.36774e-06
4.95056e-06 0.000293364 7.12718e-06
-8.36774e-06 7.12718e-06 0.000274415
0.000505085 -1.51634e-05 -1.64694e-05
-1.51634e-05 5.7072e-05 1.50286e-05
-1.64694e-05 1.50286e-05 -9.69096e-05
0.00320519 -6.35082e-06 4.23117e-07
-6.35082e-06 0.000352321 -1.05444e-05
4.23117e-07 -1.05444e-05 -0.000211034
0.00294439 0.000159402 1.29262e-05
0.000159402 0.000876381 -2.40132e-05
1.29262e-05 -2.40132e-05 0.000758008
0.00150086 4.23729e-09 -7.59109e-06
4.23729e-09 0.000607683 -8.14001e-07
-7.59109e-06 -8.14001e-07 0.000588498
0.000377323 -5.2746e-05 -1.1623e-05
-5.2746e-05 -1.20466e-05 9.33031e-06
-1.1623e-05 9.33031e-06 -0.000148179
0.0065186 7.13145e-05 2.26308e-05
7.13145e-05 0.0015994 -4.05818e-05
2.26308e-05 -4.05818e-05 0.00103904
0.000966985 0.000115121 5.51455e-06
0.000115121 -0.000382021 6.87868e-06
5.51455e-06 6.87868e-06 -0.000379372
0.000689034 1.56594e-06 3.31953e-06
1.56594e-06 9.15279e-05 -9.03885e-07
3.31953e-06 -9.03885e-07 2.43522e-05
-0.00182209 -4.89498e-05 1.54654e-05
-4.89498e-05 -0.00102184 -3.67214e-05
1.54654e-05 -3.67214e-05 -0.00111711
0.00532062 0.000105324 1.20786e-05
0.000105324 0.000589996 -3.81509e-05
1.20786e-05 -3.81509e-05 0.000359032
0.0014708 4.6085e-06 -4.75457e-06
4.6085e-06 -0.000613609 2.95105e-05
-4.75457e-06 2.95105e-05 -0.000434697
9.62873e-05 1.09577e-06 -5.01704e-06
1.09577e-06 -0.000268025 2.24777e-06
-5.01704e-06 2.24777e-06 -0.000291778
0.0011185 1.53917e-05 -6.66573e-07
1.53917e-05 6.48815e-05 2.65313e-08
-6.66573e-07 2.65313e-08 -1.19311e-05
0.0010948 -4.55876e-07 2.43596e-08
-4.55876e-07 5.70138e-05 -2.82585e-07
2.43596e-08 -2.82585e-07 -1.9053e-05
0.00111032 -9.18215e-06 7.04418e-08
-9.18215e-06 6.67523e-05 6.94415e-07
7.04418e-08 6.94415e-07 -4.97235e-06
0.00110456 1.37799e-05 -2.80658e-07
1.37799e-05 5.85775e-05 -6.13522e-07
-2.80658e-07 -6.13522e-07 -9.98178e-06
0.00124043 1.76041e-05 3.10337e-07
1.76041e-05 0.000125674 1.0053e-06
3.10337e-07 1.0053e-06 6.03834e-05
0.00128837 9.8795e-06 3.84426e-08
9.8795e-06 0.000146824 7.91037e-07
3.84426e-08 7.91037e-07 8.98938e-05
0.000575675 -2.47547e-05 9.3564e-06
-2.47547e-05 -0.000463345 -9.15062e-06
9.3564e-06 -9.15062e-06 -0.000455409
0.00124346 -1.68864e-05 6.40751e-07
-1.68864e-05 0.000203345 -9.20391e-08
6.40751e-07 -9.20391e-08 8.58805e-05
0.00115482 5.00255e-06 9.90146e-08
5.00255e-06 9.43289e-05 1.59031e-07
9.90146e-08 1.59031e-07 1.06734e-05
0.00126732 -1.54248e-05 1.23368e-06
-1.54248e-05 0.000142867 -2.29305e-07
1.23368e-06 -2.29305e-07 3.78987e-05
0.00112729 -4.84245e-06 2.11654e-07
-4.84245e-06 7.96779e-05 4.15793e-07
2.11654e-07 4.15793e-07 -1.44046e-05
0.00110396 1.2156e-05 2.82084e-07
1.2156e-05 6.57274e-05 3.68344e-07
2.82084e-07 3.68344e-07 -1.92445e-05
0.00111932 1.25219e-05 1.58833e-07
1.25219e-05 7.31076e-05 2.99187e-07
1.58833e-07 2.99187e-07 -1.98574e-05
0.00119643 -3.58322e-05 3.32566e-06
-3.58322e-05 1.52939e-05 6.80436e-07
3.32566e-06 6.80436e-07 -5.82562e-05
0.00124595 -9.62824e-06 -1.35596e-07
-9.62824e-06 0.000135051 -3.71991e-07
-1.35596e-07 -3.71991e-07 3.21589e-05
0.00119419 3.61979e-06 3.14009e-07
3.61979e-06 0.000169884 3.80152e-07
3.14009e-07 3.80152e-07 5.02612e-05
0.00103859 1.55594e-05 -7.86049e-07
1.55594e-05 3.34097e-05 -2.25632e-07
-7.86049e-07 -2.25632e-07 -5.86925e-05
0.00213439 -1.56977e-05 -6.9982e-06
-1.56977e-05 0.000633062 2.4564e-05
-6.9982e-06 2.4564e-05 0.000523153
0.00106667 -1.95637e-06 3.57669e-07
-1.95637e-06 5.19986e-05 -1.80193e-06
3.57669e-07 -1.80193e-06 -6.06142e-05
0.00107754 9.66847e-07 -3.60432e-07
9.66847e-07 5.87196e-05 -9.32501e-08
-3.60432e-07 -9.32501e-08 -4.13631e-05
0.000986844 2.96862e-06 5.25928e-07
2.96862e-06 0.000210993 -5.70805e-08
5.25928e-07 -5.70805e-08 0.000128213
0.000834372 1.33984e-06 7.72309e-07
1.33984e-06 0.000161461 4.67793e-07
7.72309e-07 4.67793e-07 7.16557e-05
0.00107096 3.71811e-06 -1.46848e-05
3.71811e-06 0.00041389 8.20248e-07
-1.46848e-05 8.20248e-07 0.0003448
0.00150867 1.03034e-05 -6.85384e-08
1.03034e-05 0.000274989 2.85222e-06
-6.85384e-08 2.85222e-06 0.000202029
0.00123441 -7.83915e-06 7.14501e-06
-7.83915e-06 0.000373682 -1.37824e-06
7.14501e-06 -1.37824e-06 0.000328983
0.000478628 8.57571e-06 -1.89583e-06
8.57571e-06 -7.20811e-05 -3.52566e-07
-1.89583e-06 -3.52566e-07 -0.000154473
0.00269369 -4.44452e-05 -5.7364e-07
-4.44452e-05 0.000117387 -9.26967e-06
-5.7364e-07 -9.26967e-06 6.25242e-05
0.00100131 5.03041e-06 1.47661e-06
5.03041e-06 -0.000755256 3.4468e-05
1.47661e-06 3.4468e-05 -0.000442131
0.000814287 -4.82523e-06 -4.17369e-07
-4.82523e-06 9.19181e-05 1.09782e-06
-4.17369e-07 1.09782e-06 3.03367e-05
0.00144019 7.85356e-07 7.50665e-06
7.85356e-07 0.000543866 -1.69726e-06
7.50665e-06 -1.69726e-06 0.000547272
0.00103727 -6.65143e-06 1.91459e-06
-6.65143e-06 3.79933e-05 2.33683e-06
1.91459e-06 2.33683e-06 -1.4172e-05
0.000827572 -1.06179e-06 3.59827e-07
-1.06179e-06 0.000104079 8.95557e-07
3.59827e-07 8.95557e-07 2.95764e-05
0.000863897 -1.3271e-05 -1.12108e-06
-1.3271e-05 0.000148561 5.37931e-07
-1.12108e-06 5.37931e-07 0.000101001
0.000444934 3.17046e-05 -1.66111e-06
3.17046e-05 1.98088e-05 -4.89385e-07
-1.66111e-06 -4.89385e-07 -0.00032102
0.00084511 2.313e-05 2.26267e-06
2.313e-05 0.000111298 2.07303e-06
2.26267e-06 2.07303e-06 0.000214409
5.98178e-05 0.000112059 -3.54558e-06
0.000112059 -0.000683763 -8.68965e-06
-3.54558e-06 -8.68965e-06 -0.000611096
0.00539684 2.03424e-05 8.84504e-06
2.03424e-05 0.000499629 -2.0204e-05
8.84504e-06 -2.0204e-05 0.000673885
0.00156157 -7.37662e-07 9.38887e-07
-7.37662e-07 0.000422704 -1.04782e-05
9.38887e-07 -1.04782e-05 0.000383794
0.000796487 -9.29378e-06 -2.66329e-06
-9.29378e-06 0.000130939 1.58602e-06
-2.66329e-06 1.58602e-06 4.99758e-05
0.00055479 5.656e-06 -1.63428e-05
5.656e-06 3.12763e-05 7.15237e-06
-1.63428e-05 7.15237e-06 1.20633e-05
0.00092186 3.99509e-05 1.38649e-06
3.99509e-05 0.000169895 1.43694e-06
1.38649e-06 1.43694e-06 0.000289559
-0.0012135 0.000121122 3.05875e-05
0.000121122 -0.000973518 -4.76361e-05
3.05875e-05 -4.76361e-05 -0.00102451
0.00710563 8.42911e-05 -4.18269e-06
8.42911e-05 0.00165112 -2.884e-06
-4.18269e-06 -2.884e-06 0.00134749
2.33358e-05 -2.25528e-05 -1.28479e-05
-2.25528e-05 -9.15195e-06 5.19763e-05
-1.28479e-05 5.19763e-05 -0.000579818
0.000862248 1.01457e-05 1.03728e-06
1.01457e-05 -3.51555e-05 -2.48032e-06
1.03728e-06 -2.48032e-06 -0.000115321
0.00106967 1.33331e-05 9.30726e-07
1.33331e-05 7.96961e-05 -1.38288e-06
9.30726e-07 -1.38288e-06 -1.02295e-05
0.00102918 3.19897e-06 3.67616e-07
3.19897e-06 8.69593e-05 9.70671e-07
3.67616e-07 9.70671e-07 -6.4987e-06
0.00110512 -1.18633e-05 -2.04005e-08
-1.18633e-05 6.56352e-05 -3.33968e-07
-2.04005e-08 -3.33968e-07 -1.69595e-05
0.00106236 7.31525e-06 -6.75475e-07
7.31525e-06 6.27682e-05 8.94712e-07
-6.75475e-07 8.94712e-07 -2.07277e-05
0.00114944 -1.0075e-05 2.66143e-09
-1.0075e-05 0.000110179 3.43414e-07
2.66143e-09 3.43414e-07 2.00884e-05
0.00112476 -2.29635e-05 7.52582e-07
-2.29635e-05 0.000127164 5.18977e-07
7.52582e-07 5.18977e-07 2.22166e-05
0.00117418 -2.20344e-05 4.47796e-07
-2.20344e-05 0.000103505 -2.19602e-07
4.47796e-07 -2.19602e-07 2.12105e-05
0.00120169 -2.65017e-05 -2.70363e-07
-2.65017e-05 0.000130012 4.1024e-07
-2.70363e-07 4.1024e-07 4.05094e-05
0.00117516 -3.10705e-05 -6.40186e-07
-3.10705e-05 0.000107575 1.73432e-06
-6.40186e-07 1.73432e-06 1.12429e-05
0.00105283 -2.41491e-05 2.83698e-07
-2.41491e-05 4.19731e-05 -8.0129e-07
2.83698e-07 -8.0129e-07 -3.74566e-05
0.00123534 -2.89611e-05 -1.39895e-07
-2.89611e-05 0.000114534 2.99906e-08
-1.39895e-07 2.99906e-08 3.01905e-05
0.00143996 -3.23331e-05 -1.20232e-06
-3.23331e-05 0.000203406 7.36156e-07
-1.20232e-06 7.36156e-07 0.000118501
0.00131745 -2.86818e-05 -8.93737e-07
-2.86818e-05 0.000141569 8.50594e-07
-8.93737e-07 8.50594e-07 6.41527e-05
0.00101515 -2.27264e-05 -5.02667e-07
-2.27264e-05 8.64276e-06 8.73453e-07
-5.02667e-07 8.73453e-07 -5.91233e-05
0.0011422 -2.62216e-05 -1.24767e-07
-2.62216e-05 6.18521e-05 1.72351e-07
-1.24767e-07 1.72351e-07 -1.31157e-05
0.00116134 -2.6357e-05 2.55829e-07
-2.6357e-05 7.18852e-05 -5.29828e-07
2.55829e-07 -5.29828e-07 -3.43155e-06
0.00122499 -2.1233e-05 -7.00656e-08
-2.1233e-05 0.000114119 -2.07249e-08
-7.00656e-08 -2.07249e-08 5.36369e-05
0.00114831 -2.23427e-05 5.17479e-07
-2.23427e-05 7.74179e-05 -4.77665e-07
5.17479e-07 -4.77665e-07 1.33802e-05
0.000988879 -6.79452e-06 -4.89572e-07
-6.79452e-06 5.87269e-06 5.36444e-07
-4.89572e-07 5.36444e-07 -5.07382e-05
0.00110341 -1.7818e-05 9.97326e-08
-1.7818e-05 6.14661e-05 -8.09858e-08
9.97326e-08 -8.09858e-08 3.10831e-07
0.00113214 -2.2821e-05 1.45751e-06
-2.2821e-05 6.771e-05 -8.75816e-07
1.45751e-06 -8.75816e-07 2.17906e-06
0.001057 -1.74511e-07 -1.32928e-06
-1.74511e-07 2.92644e-05 8.11521e-07
-1.32928e-06 8.11521e-07 -1.69553e-05
0.0011109 -1.14931e-05 -2.09711e-07
-1.14931e-05 5.65794e-05 -3.30552e-08
-2.09711e-07 -3.30552e-08 8.89775e-07
0.00115363 -2.02278e-05 2.97875e-07
-2.02278e-05 7.76433e-05 -4.20126e-08
2.97875e-07 -4.20126e-08 1.65153e-05
0.00101079 7.17601e-06 -1.7172e-06
7.17601e-06 4.15915e-06 1.68313e-06
-1.7172e-06 1.68313e-06 -2.51117e-05
0.00106857 -2.89023e-06 7.79537e-08
-2.89023e-06 3.17825e-05 5.34321e-08
7.79537e-08 5.34321e-08 -1.51401e-05
0.00103273 -1.44821e-05 1.02735e-06
-1.44821e-05 1.59056e-05 -1.97114e-07
1.02735e-06 -1.97114e-07 -4.19629e-05
0.00106236 -2.41962e-06 1.06228e-06
-2.41962e-06 2.95158e-05 -9.95121e-07
1.06228e-06 -9.95121e-07 -1.8455e-05
0.00101162 6.53424e-06 8.9939e-08
6.53424e-06 3.36089e-06 2.31419e-08
8.9939e-08 2.31419e-08 -2.60976e-05
0.000932689 9.79806e-06 -2.22096e-06
9.79806e-06 -3.81724e-05 2.92019e-06
-2.22096e-06 2.92019e-06 -3.98846e-05
0.00101667 5.80075e-06 1.2799e-06
5.80075e-06 4.56948e-06 -1.76512e-06
1.2799e-06 -1.76512e-06 -2.46865e-05
0.000949115 8.60352e-06 7.62316e-08
8.60352e-06 -3.36234e-05 1.56523e-08
7.62316e-08 1.56523e-08 -3.48833e-05
0.00239408 1.23365e-05 -6.09522e-06
1.23365e-05 0.000671029 3.74977e-06
-6.09522e-06 3.74977e-06 0.000692915
0.000966193 7.30193e-06 1.76334e-06
7.30193e-06 -2.89388e-05 -2.99397e-06
1.76334e-06 -2.99397e-06 -2.9648e-05
0.00174663 9.80733e-06 2.10283e-06
9.80733e-06 0.000350399 -1.1562e-06
2.10283e-06 -1.1562e-06 0.000370238
0.00235103 8.32509e-06 4.87618e-06
8.32509e-06 0.00064355 -3.85473e-06
4.87618e-06 -3.85473e-06 0.000666661
0.0010514 5.79353e-06 -7.79383e-07
5.79353e-06 2.34384e-05 -9.46593e-07
-7.79383e-07 -9.46593e-07 -2.3783e-05
0.00101486 -4.98893e-06 -9.90476e-07
-4.98893e-06 2.72675e-06 -1.70099e-06
-9.90476e-07 -1.70099e-06 -2.522e-05
0.000965526 2.59809e-06 -3.14847e-07
2.59809e-06 -1.66303e-05 -4.5401e-07
-3.14847e-07 -4.5401e-07 -6.39905e-05
0.000980587 -6.19559e-06 -1.334e-06
-6.19559e-06 -2.45029e-05 -2.98746e-06
-1.334e-06 -2.98746e-06 -2.3428e-05
0.000896534 -4.39527e-06 -1.71955e-07
-4.39527e-06 -5.68368e-05 -5.73589e-07
-1.71955e-07 -5.73589e-07 -8.40329e-05
0.0011547 -3.40783e-06 1.98436e-07
-3.40783e-06 7.52438e-05 5.78651e-07
1.98436e-07 5.78651e-07 3.05045e-05
0.00226627 -6.33474e-06 -3.84076e-06
-6.33474e-06 0.000599331 -3.83065e-06
-3.84076e-06 -3.83065e-06 0.000623734
0.000969979 -4.73447e-06 -7.17516e-08
-4.73447e-06 -3.25324e-05 -5.08636e-09
-7.17516e-08 -5.08636e-09 -3.00428e-05
0.000764726 -3.45004e-06 3.55482e-07
-3.45004e-06 -0.000123249 1.16818e-06
3.55482e-07 1.16818e-06 -0.000149385
0.00225388 -4.1592e-06 -3.85261e-07
-4.1592e-06 0.000590821 1.2324e-08
-3.85261e-07 1.2324e-08 0.000615866
0.00096327 -3.1354e-06 5.78498e-07
-3.1354e-06 -3.79215e-05 3.05207e-06
5.78498e-07 3.05207e-06 -3.43528e-05
0.00225271 -1.99716e-06 9.58175e-07
-1.99716e-06 0.000588973 3.86431e-06
9.58175e-07 3.86431e-06 0.000614299
0.000676785 -1.38048e-06 -2.33089e-07
-1.38048e-06 2.89332e-05 -1.30067e-06
-2.33089e-07 -1.30067e-06 -4.40807e-05
0.000891519 -1.19226e-05 6.23096e-07
-1.19226e-05 0.000205481 -2.06271e-07
6.23096e-07 -2.06271e-07 0.000125701
0.000797274 -1.38767e-07 -9.56408e-06
-1.38767e-07 0.000238868 3.27266e-06
-9.56408e-06 3.27266e-06 0.000178977
0.00102103 1.49456e-05 -5.47241e-07
1.49456e-05 7.20257e-06 -3.15074e-07
-5.47241e-07 -3.15074e-07 -5.18004e-05
0.00118668 1.9858e-05 -1.70288e-07
1.9858e-05 8.69103e-05 2.11881e-07
-1.70288e-07 2.11881e-07 2.46846e-05
0.00117851 1.68227e-05 3.95784e-07
1.68227e-05 9.02457e-05 6.69175e-07
3.95784e-07 6.69175e-07 3.08014e-05
0.0010077 1.57623e-05 2.03446e-08
1.57623e-05 2.50887e-06 2.67954e-08
2.03446e-08 2.67954e-08 -5.78496e-05
0.00114175 1.69819e-05 2.11875e-07
1.69819e-05 7.32296e-05 3.07128e-07
2.11875e-07 3.07128e-07 5.05424e-06
0.00116566 2.04189e-05 -2.95003e-07
2.04189e-05 8.04655e-05 4.90816e-08
-2.95003e-07 4.90816e-08 1.36885e-05
0.00115608 2.07285e-05 4.13079e-08
2.07285e-05 7.91567e-05 4.8717e-07
4.13079e-08 4.8717e-07 6.94525e-06
0.000894755 9.12448e-06 -7.82484e-06
9.12448e-06 0.000209031 -3.74868e-06
-7.82484e-06 -3.74868e-06 0.000156339
0.000689943 -1.71115e-06 7.73638e-07
-1.71115e-06 5.59684e-05 1.31481e-07
7.73638e-07 1.31481e-07 -5.97917e-06
0.00119551 -1.50351e-05 -3.83921e-06
-1.50351e-05 0.000399285 -2.65974e-07
-3.83921e-06 -2.65974e-07 0.00034675
0.00102248 3.47928e-06 3.56098e-07
3.47928e-06 0.00031762 -3.431e-06
3.56098e-07 -3.431e-06 0.000249805
0.00276224 -8.25568e-05 -5.32751e-05
-8.25568e-05 0.000770301 6.05549e-05
-5.32751e-05 6.05549e-05 0.000463187
0.000574051 8.9599e-05 3.49806e-05
8.9599e-05 -0.000764853 -5.08479e-05
3.49806e-05 -5.08479e-05 -0.00126884
0.00487933 0.00012614 1.72582e-06
0.00012614 0.00105613 -1.96466e-05
1.72582e-06 -1.96466e-05 0.00116339
0.00136445 -7.06903e-05 -3.09749e-05
-7.06903e-05 0.000304622 2.84918e-05
-3.09749e-05 2.84918e-05 0.000125339
0.00469018 4.56627e-05 7.81167e-06
4.56627e-05 0.000328157 -3.55494e-05
7.81167e-06 -3.55494e-05 -9.11258e-05
0.00363597 1.21169e-05 -9.15875e-06
1.21169e-05 0.000112336 -4.62326e-07
-9.15875e-06 -4.62326e-07 0.000412676
0.000527812 -5.03371e-06 3.88074e-06
-5.03371e-06 -5.50561e-05 2.7006e-06
3.88074e-06 2.7006e-06 -6.39405e-05
-0.000541329 -3.85609e-05 7.85426e-06
-3.85609e-05 -0.000415689 -8.65187e-06
7.85426e-06 -8.65187e-06 -0.000543972
0.00415047 -3.00195e-05 -4.25558e-06
-3.00195e-05 0.000105281 -0.000104948
-4.25558e-06 -0.000104948 -0.000448226
0.00108563 -8.80488e-05 1.71387e-06
-8.80488e-05 -0.000396898 3.44794e-05
1.71387e-06 3.44794e-05 -0.000294877
-0.000709075 -2.30033e-05 -6.04345e-06
-2.30033e-05 -0.000777084 1.65742e-06
-6.04345e-06 1.65742e-06 -0.000733734
0.00114061 2.20274e-05 -2.08961e-06
2.20274e-05 7.80302e-05 3.76568e-07
-2.08961e-06 3.76568e-07 -7.92938e-07
0.00116189 1.31528e-05 -5.16154e-08
1.31528e-05 8.62608e-05 -5.14319e-08
-5.16154e-08 -5.14319e-08 9.15382e-06
0.00109624 -1.2204e-06 4.13698e-08
-1.2204e-06 5.80732e-05 -1.24205e-07
4.13698e-08 -1.24205e-07 -1.79156e-05
0.00112619 1.36554e-05 -5.45032e-08
1.36554e-05 6.89836e-05 -3.08787e-07
-5.45032e-08 -3.08787e-07 2.38968e-07
0.000114466 -3.07679e-05 1.09907e-05
-3.07679e-05 -0.000527835 -1.55918e-05
1.09907e-05 -1.55918e-05 -0.000589409
0.0011342 7.61945e-07 6.68273e-07
7.61945e-07 0.00012997 -1.39598e-06
6.68273e-07 -1.39598e-06 8.28616e-06
0.00115756 1.28999e-05 6.38274e-07
1.28999e-05 9.29356e-05 5.27238e-07
6.38274e-07 5.27238e-07 6.98897e-06
0.00106905 1.27374e-05 1.01922e-07
1.27374e-05 4.86139e-05 4.01869e-07
1.01922e-07 4.01869e-07 -4.46234e-05
0.0011026 -9.89391e-06 -1.63385e-07
-9.89391e-06 6.70733e-05 -7.42606e-07
-1.63385e-07 -7.42606e-07 -3.60412e-05
0.00112049 1.67639e-05 -3.58991e-07
1.67639e-05 7.4555e-05 -1.05813e-07
-3.58991e-07 -1.05813e-07 -1.63157e-05
0.0011192 2.75891e-06 -1.43933e-07
2.75891e-06 7.755e-05 -2.22628e-07
-1.43933e-07 -2.22628e-07 -2.24877e-05
0.000675275 -1.03325e-05 6.25067e-06
-1.03325e-05 2.90358e-05 -2.80065e-06
6.25067e-06 -2.80065e-06 -6.56328e-05
0.00106534 -2.501e-06 2.95504e-07
-2.501e-06 5.20304e-05 -1.1379e-06
2.95504e-07 -1.1379e-06 -6.0001e-05
0.00112977 1.41235e-05 -5.5039e-07
1.41235e-05 8.56392e-05 1.56687e-07
-5.5039e-07 1.56687e-07 -1.19946e-05
0.000636538 1.13892e-05 5.52214e-06
1.13892e-05 0.000191695 2.66253e-05
5.52214e-06 2.66253e-05 0.000111027
0.00127574 2.71158e-07 3.26544e-07
2.71158e-07 0.000139738 -2.00776e-06
3.26544e-07 -2.00776e-06 2.22484e-05
0.001215 3.17188e-06 -1.25863e-06
3.17188e-06 0.000406738 -6.13768e-08
-1.25863e-06 -6.13768e-08 0.000311459
0.000791937 1.45413e-06 2.63818e-07
1.45413e-06 8.93812e-05 3.6158e-08
2.63818e-07 3.6158e-08 8.57391e-06
0.00038783 8.38977e-07 -6.79956e-08
8.38977e-07 -0.000121014 2.69855e-07
-6.79956e-08 2.69855e-07 -0.00021085
0.00143479 -9.55792e-06 -2.23788e-06
-9.55792e-06 0.000205307 6.70301e-06
-2.23788e-06 6.70301e-06 0.000150976
-0.000599427 5.04968e-07 1.76626e-06
5.04968e-07 -0.000330014 1.4088e-05
1.76626e-06 1.4088e-05 -0.000402265
0.000810287 -1.95413e-06 5.6488e-07
-1.95413e-06 9.63455e-05 7.49757e-07
5.6488e-07 7.49757e-07 1.99359e-05
0.00401689 5.64407e-05 1.90505e-07
5.64407e-05 0.000558651 -5.12161e-05
1.90505e-07 -5.12161e-05 -0.000229387
0.00528487 0.000123398 -4.42312e-06
0.000123398 0.00127658 2.12568e-05
-4.42312e-06 2.12568e-05 0.00147302
0.00125525 -1.42848e-05 3.31684e-06
-1.42848e-05 0.000396305 -1.31691e-06
3.31684e-06 -1.31691e-06 0.000345426
0.00235724 1.9852e-05 7.4272e-06
1.9852e-05 0.00105535 -2.14294e-06
7.4272e-06 -2.14294e-06 0.00113854
0.00106121 -6.96611e-08 -1.04533e-06
-6.96611e-08 0.000167515 -7.46391e-07
-1.04533e-06 -7.46391e-07 0.000130332
0.000920232 -8.94276e-06 -1.30559e-06
-8.94276e-06 0.00020899 2.68661e-07
-1.30559e-06 2.68661e-07 0.000127761
0.000799029 5.29155e-06 -3.21077e-06
5.29155e-06 0.00018269 8.08385e-07
-3.21077e-06 8.08385e-07 0.000165278
0.000196924 -5.38781e-06 2.28212e-07
-5.38781e-06 0.000152029 9.08955e-06
2.28212e-07 9.08955e-06 -4.88999e-05
0.000420362 4.32384e-05 -4.5136e-07
4.32384e-05 -0.000119006 -2.06641e-06
-4.5136e-07 -2.06641e-06 -5.69034e-06
-0.00029302 0.000126401 3.70761e-06
0.000126401 -0.000781179 -1.12858e-05
3.70761e-06 -1.12858e-05 -0.00082419
0.00213409 4.96464e-05 8.36289e-06
4.96464e-05 -0.00034279 -2.9647e-05
8.36289e-06 -2.9647e-05 -0.000867957
0.000694578 -2.89487e-06 5.95567e-06
-2.89487e-06 6.09667e-05 -1.9478e-05
5.95567e-06 -1.9478e-05 3.69555e-05
0.000885922 -2.76269e-07 -9.34872e-06
-2.76269e-07 0.000287292 2.86998e-06
-9.34872e-06 2.86998e-06 0.000226413
-0.00129142 2.50554e-05 -2.73322e-07
2.50554e-05 -0.00104208 1.11895e-06
-2.73322e-07 1.11895e-06 -0.00101146
5.59139e-05 8.11694e-05 3.63458e-05
8.11694e-05 -1.81725e-05 -3.45682e-05
3.63458e-05 -3.45682e-05 -2.49651e-06
0.00539995 9.71261e-05 1.49923e-05
9.71261e-05 0.00118228 -3.17921e-05
1.49923e-05 -3.17921e-05 0.000698353
0.00161219 -7.03562e-05 -2.59617e-05
-7.03562e-05 0.000286844 7.81409e-05
-2.59617e-05 7.81409e-05 -0.000157896
0.00131438 1.20161e-05 -3.52806e-07
1.20161e-05 0.000195199 -3.28296e-06
-3.52806e-07 -3.28296e-06 0.000105163
0.00112087 5.24129e-06 -5.79519e-08
5.24129e-06 0.000124004 -2.52929e-07
-5.79519e-08 -2.52929e-07 3.09084e-05
0.000891577 -1.13014e-05 2.00576e-06
-1.13014e-05 7.45113e-05 1.43576e-06
2.00576e-06 1.43576e-06 -5.62718e-05
0.00111884 -9.94559e-06 -2.34425e-07
-9.94559e-06 9.46939e-05 -4.39245e-07
-2.34425e-07 -4.39245e-07 4.93563e-06
0.00101027 -2.2088e-05 3.3238e-07
-2.2088e-05 7.02239e-05 3.86185e-08
3.3238e-07 3.86185e-08 -3.22281e-05
0.00131195 -3.58289e-05 9.80612e-07
-3.58289e-05 0.000199783 2.77605e-07
9.80612e-07 2.77605e-07 8.26239e-05
0.00145814 -2.93146e-05 3.05036e-07
-2.93146e-05 0.000250693 -5.42911e-07
3.05036e-07 -5.42911e-07 0.00015987
0.00127745 -3.2261e-05 -1.93205e-07
-3.2261e-05 0.000155969 4.91333e-07
-1.93205e-07 4.91333e-07 5.8179e-05
0.00119622 -3.49814e-05 -1.90277e-06
-3.49814e-05 8.84163e-05 -3.39848e-07
-1.90277e-06 -3.39848e-07 -7.85813e-06
0.00126211 -2.90955e-05 2.29264e-07
-2.90955e-05 0.000127731 -8.26891e-07
2.29264e-07 -8.26891e-07 4.31523e-05
0.00135506 -3.16529e-05 -2.30701e-07
-3.16529e-05 0.00016133 3.67489e-08
-2.30701e-07 3.67489e-08 7.58846e-05
0.00130958 -3.06151e-05 -6.30294e-07
-3.06151e-05 0.000132645 -4.79332e-07
-6.30294e-07 -4.79332e-07 5.01714e-05
0.00125475 -2.71546e-05 -7.92436e-07
-2.71546e-05 9.01434e-05 -8.44615e-07
-7.92436e-07 -8.44615e-07 1.66248e-05
0.00133217 -2.6956e-05 -9.34124e-07
-2.6956e-05 0.000147777 1.19666e-06
-9.34124e-07 1.19666e-06 7.68146e-05
0.00125326 -2.81848e-05 -1.33335e-07
-2.81848e-05 0.000110732 5.37868e-08
-1.33335e-07 5.37868e-08 3.27502e-05
0.000979642 -2.1105e-05 -3.80137e-07
-2.1105e-05 -6.84806e-06 2.39046e-07
-3.80137e-07 2.39046e-07 -6.91299e-05
0.0010855 -2.32298e-05 3.05239e-07
-2.32298e-05 4.22397e-05 -7.95128e-08
3.05239e-07 -7.95128e-08 -2.49684e-05
0.00109319 -2.59559e-05 5.59213e-07
-2.59559e-05 3.85265e-05 -7.28648e-07
5.59213e-07 -7.28648e-07 -3.72372e-05
0.00112089 -1.31425e-05 -3.25682e-07
-1.31425e-05 6.55428e-05 3.19204e-07
-3.25682e-07 3.19204e-07 8.68979e-06
0.00115687 -2.06047e-05 1.14651e-07
-2.06047e-05 8.19145e-05 -1.48121e-07
1.14651e-07 -1.48121e-07 2.1005e-05
0.00104903 -2.13302e-05 1.06427e-06
-2.13302e-05 3.04237e-05 -6.67238e-07
1.06427e-06 -6.67238e-07 -3.30408e-05
0.0010385 4.04297e-06 -1.01434e-06
4.04297e-06 2.64374e-05 8.42087e-07
-1.01434e-06 8.42087e-07 -2.06364e-05
0.00103012 -6.07744e-06 -1.33375e-07
-6.07744e-06 2.5255e-05 1.50694e-07
-1.33375e-07 1.50694e-07 -3.09867e-05
0.00117588 -1.82543e-05 4.88918e-07
-1.82543e-05 9.58706e-05 -3.39929e-07
4.88918e-07 -3.39929e-07 3.53366e-05
0.000998621 8.46959e-06 -1.9198e-06
8.46959e-06 1.27055e-06 1.5624e-06
-1.9198e-06 1.5624e-06 -2.78985e-05
0.0010656 -3.49214e-07 -1.04659e-07
-3.49214e-07 3.28961e-05 -1.72152e-08
-1.04659e-07 -1.72152e-08 -1.32325e-05
0.00111625 -1.17402e-05 5.2257e-07
-1.17402e-05 5.84147e-05 -2.63679e-07
5.2257e-07 -2.63679e-07 2.82656e-06
0.000964526 1.10013e-05 -3.4177e-06
1.10013e-05 -1.95461e-05 3.92378e-06
-3.4177e-06 3.92378e-06 -2.17562e-05
0.00100747 7.30914e-06 6.96566e-08
7.30914e-06 2.70714e-06 3.17012e-08
6.96566e-08 3.17012e-08 -2.65423e-05
0.00106663 -2.45071e-06 1.28271e-06
-2.45071e-06 3.05253e-05 -8.21849e-07
1.28271e-06 -8.21849e-07 -1.62807e-05
0.00100885 6.64878e-06 1.57289e-06
6.64878e-06 2.14039e-06 -1.70852e-06
1.57289e-06 -1.70852e-06 -2.73128e-05
0.000940346 9.81958e-06 9.47233e-08
9.81958e-06 -3.44932e-05 2.70755e-08
9.47233e-08 2.70755e-08 -3.6229e-05
0.00240725 1.43177e-05 -6.74997e-06
1.43177e-05 0.000681527 3.66887e-06
-6.74997e-06 3.66887e-06 0.000702717
0.000958737 8.61369e-06 2.07459e-06
8.61369e-06 -2.90718e-05 -2.94544e-06
2.07459e-06 -2.94544e-06 -3.03612e-05
0.00237619 1.23646e-05 2.04008e-07
1.23646e-05 0.000662751 3.1125e-08
2.04008e-07 3.1125e-08 0.000684648
0.00235459 1.03859e-05 5.69436e-06
1.03859e-05 0.000648797 -3.79617e-06
5.69436e-06 -3.79617e-06 0.000671333
0.00110505 1.41006e-05 -5.71521e-07
1.41006e-05 4.80168e-05 -2.16411e-07
-5.71521e-07 -2.16411e-07 -9.82916e-06
0.00106377 3.80999e-06 -8.62019e-07
3.80999e-06 2.81916e-05 -9.11715e-07
-8.62019e-07 -9.11715e-07 -1.93315e-05
0.00100404 -5.44147e-06 -1.25332e-06
-5.44147e-06 -1.09487e-06 -1.67247e-06
-1.25332e-06 -1.67247e-06 -3.0184e-05
0.00106432 6.10301e-06 -2.93479e-08
6.10301e-06 2.96524e-05 7.72217e-09
-2.93479e-08 7.72217e-09 -1.76509e-05
0.000971948 -7.48181e-06 -1.67989e-06
-7.48181e-06 -2.53136e-05 -2.96087e-06
-1.67989e-06 -2.96087e-06 -2.56394e-05
0.00101772 -5.01092e-06 -8.36089e-08
-5.01092e-06 4.23305e-06 1.36707e-08
-8.36089e-08 1.36707e-08 -2.37288e-05
0.00106227 6.19917e-06 2.63374e-07
6.19917e-06 3.07066e-05 6.18907e-07
2.63374e-07 6.18907e-07 -1.61813e-05
0.0022981 -8.41398e-06 -4.78708e-06
-8.41398e-06 0.000617938 -3.82577e-06
-4.78708e-06 -3.82577e-06 0.000641516
0.000964968 -6.20572e-06 -8.02039e-08
-6.20572e-06 -3.20334e-05 -7.60559e-09
-8.02039e-08 -7.60559e-09 -3.0863e-05
0.0010222 -4.54328e-06 5.10124e-07
-4.54328e-06 4.39675e-06 1.15873e-06
5.10124e-07 1.15873e-06 -2.21104e-05
0.0022751 -6.28562e-06 -3.32668e-07
-6.28562e-06 0.000603282 1.83299e-08
-3.32668e-07 1.83299e-08 0.000627749
0.000956463 -4.73623e-06 8.70252e-07
-4.73623e-06 -3.91143e-05 3.02964e-06
8.70252e-07 3.02964e-06 -3.65294e-05
0.00226163 -4.10252e-06 2.25383e-06
-4.10252e-06 0.000594361 3.82927e-06
2.25383e-06 3.82927e-06 0.00061944
0.000767985 7.43193e-06 -1.66947e-06
7.43193e-06 0.000128104 -2.80844e-06
-1.66947e-06 -2.80844e-06 4.19149e-05
0.000787824 -2.35199e-06 -8.82995e-08
-2.35199e-06 9.80621e-05 -1.39443e-06
-8.82995e-08 -1.39443e-06 2.27814e-05
0.00100939 -1.18546e-05 -5.7394e-07
-1.18546e-05 0.000279832 1.07825e-06
-5.7394e-07 1.07825e-06 0.000199722
0.0010625 1.47777e-05 6.07233e-08
1.47777e-05 2.80126e-05 2.55908e-08
6.07233e-08 2.55908e-08 -3.07493e-05
0.00113958 1.93891e-05 2.17182e-07
1.93891e-05 6.37413e-05 1.41208e-07
2.17182e-07 1.41208e-07 1.1794e-06
0.00107401 1.53299e-05 -3.47513e-07
1.53299e-05 3.25367e-05 -1.45025e-07
-3.47513e-07 -1.45025e-07 -2.94393e-05
0.00107464 1.93366e-05 -6.0368e-07
1.93366e-05 3.28282e-05 -1.3888e-07
-6.0368e-07 -1.3888e-07 -3.13386e-05
0.00118945 2.05754e-05 8.3301e-08
2.05754e-05 8.64746e-05 3.46341e-07
8.3301e-08 3.46341e-07 2.15259e-05
0.0010016 1.55235e-05 6.50608e-07
1.55235e-05 -4.96165e-08 4.58951e-07
6.50608e-07 4.58951e-07 -6.03334e-05
0.00108682 1.78893e-05 4.46682e-07
1.78893e-05 4.63113e-05 3.33197e-07
4.46682e-07 3.33197e-07 -2.25641e-05
0.00115929 2.038e-05 5.75983e-09
2.038e-05 7.7202e-05 5.162e-09
5.75983e-09 5.162e-09 1.04848e-05
0.00113158 2.01123e-05 3.01337e-07
2.01123e-05 6.65994e-05 2.35477e-07
3.01337e-07 2.35477e-07 -5.1299e-06
0.00121149 2.15618e-05 -1.62021e-07
2.15618e-05 0.000103471 4.57584e-07
-1.62021e-07 4.57584e-07 3.3001e-05
0.000646041 -1.23222e-05 -9.2204e-06
-1.23222e-05 0.000130798 -1.36553e-05
-9.2204e-06 -1.36553e-05 0.000100111
0.000611909 8.70734e-06 -2.02303e-06
8.70734e-06 3.31145e-05 -7.81502e-07
-2.02303e-06 -7.81502e-07 -2.16226e-05
0.000859819 -2.09497e-06 -7.69425e-07
-2.09497e-06 0.00016261 -1.76305e-06
-7.69425e-07 -1.76305e-06 9.76798e-05
5.5788e-05 -2.15819e-06 1.32963e-05
-2.15819e-06 -0.000333718 2.7504e-06
1.32963e-05 2.7504e-06 -0.000358385
0.00164038 1.01749e-05 -2.71745e-06
1.01749e-05 -0.000484512 -2.88276e-05
-2.71745e-06 -2.88276e-05 -0.000286778
0.00137587 -7.53167e-05 -3.47509e-05
-7.53167e-05 0.000193266 0.000105099
-3.47509e-05 0.000105099 -0.000106491
0.00536037 9.66864e-05 8.49467e-06
9.66864e-05 0.000762193 -1.9372e-05
8.49467e-06 -1.9372e-05 0.000446322
0.000716885 -5.74265e-05 -9.48579e-06
-5.74265e-05 1.83357e-05 1.59126e-05
-9.48579e-06 1.59126e-05 -0.000305193
0.0062194 7.46865e-06 -7.147e-06
7.46865e-06 0.000540275 4.32353e-06
-7.147e-06 4.32353e-06 0.000787812
0.00234094 -0.000122502 5.41638e-07
-0.000122502 0.000172968 -6.80447e-06
5.41638e-07 -6.80447e-06 0.000146352
-0.000794461 -2.69528e-05 -2.89846e-07
-2.69528e-05 -0.00085614 6.8149e-06
-2.89846e-07 6.8149e-06 -0.000786097
0.000226827 -1.76497e-05 8.06091e-06
-1.76497e-05 -5.67934e-05 -4.1661e-05
8.06091e-06 -4.1661e-05 -0.000499766
0.00608712 -0.000109306 1.00321e-05
-0.000109306 0.00125915 3.21716e-05
1.00321e-05 3.21716e-05 0.000845001
0.00321827 -0.000159086 8.50056e-06
-0.000159086 0.000902323 2.34662e-05
8.50056e-06 2.34662e-05 0.000830261
0.000849757 -5.13768e-05 -8.91544e-07
-5.13768e-05 0.000104697 4.82426e-08
-8.91544e-07 4.82426e-08 0.000221948
0.00109888 2.52387e-05 -5.78811e-07
2.52387e-05 6.34062e-05 1.06543e-06
-5.78811e-07 1.06543e-06 -9.15913e-06
0.00117223 2.21098e-05 -4.85163e-07
2.21098e-05 9.29913e-05 9.26667e-09
-4.85163e-07 9.26667e-09 1.53882e-05
0.00120365 1.01609e-05 3.03348e-07
1.01609e-05 0.000106868 -3.06788e-07
3.03348e-07 -3.06788e-07 2.94684e-05
-0.000553294 -4.78161e-06 -2.40867e-06
-4.78161e-06 -0.000472143 -1.83713e-05
-2.40867e-06 -1.83713e-05 -0.000553118
0.00105077 -4.69796e-06 -1.63773e-07
-4.69796e-06 4.67441e-05 -7.662e-07
-1.63773e-07 -7.662e-07 -6.51304e-05
0.00120052 1.80373e-05 7.80224e-07
1.80373e-05 0.000114848 1.22663e-07
7.80224e-07 1.22663e-07 2.52155e-05
0.00116967 4.91291e-06 4.29131e-07
4.91291e-06 0.00010045 -2.60385e-07
4.29131e-07 -2.60385e-07 4.62431e-07
0.00116992 1.44844e-05 7.72812e-07
1.44844e-05 0.000108657 9.21766e-09
7.72812e-07 9.21766e-09 1.10214e-05
0.00115421 8.1845e-07 -5.56083e-07
8.1845e-07 8.45646e-05 -1.32903e-06
-5.56083e-07 -1.32903e-06 -3.27031e-05
0.000520799 2.61353e-06 -5.61401e-06
2.61353e-06 0.000136001 1.05417e-05
-5.61401e-06 1.05417e-05 5.48237e-05
0.00103564 2.31723e-05 -2.7993e-06
2.31723e-05 4.39207e-05 -2.63096e-07
-2.7993e-06 -2.63096e-07 -6.0788e-05
0.00066218 1.79743e-05 -1.83771e-07
1.79743e-05 0.000138343 2.39857e-05
-1.83771e-07 2.39857e-05 5.33438e-05
0.00176853 -1.8332e-06 -1.12165e-05
-1.8332e-06 0.000857119 -6.99545e-07
-1.12165e-05 -6.99545e-07 0.000785038
0.000747857 2.93746e-06 -9.41102e-07
2.93746e-06 0.000111348 -4.34207e-07
-9.41102e-07 -4.34207e-07 1.64464e-05
0.00062286 -1.03716e-07 -6.23101e-08
-1.03716e-07 -1.64232e-05 -5.6797e-08
-6.23101e-08 -5.6797e-08 -9.53424e-05
0.000391549 3.59957e-06 2.0173e-06
3.59957e-06 -0.000166311 1.45956e-05
2.0173e-06 1.45956e-05 -0.000198852
0.000769724 2.94546e-05 4.01962e-07
2.94546e-05 0.000314055 -2.55815e-05
4.01962e-07 -2.55815e-05 -0.000353282
0.00104424 -8.58003e-06 4.15396e-08
-8.58003e-06 0.000287215 -3.6717e-07
4.15396e-08 -3.6717e-07 0.000205678
0.00755295 6.93902e-05 6.04641e-06
6.93902e-05 0.00182916 -2.52402e-05
6.04641e-06 -2.52402e-05 0.00112522
0.00291559 0.000155851 -1.64276e-05
0.000155851 0.000921291 2.6199e-05
-1.64276e-05 2.6199e-05 0.000777444
0.000994675 4.84809e-06 9.21866e-06
4.84809e-06 0.000304902 -9.39715e-06
9.21866e-06 -9.39715e-06 0.000289442
3.66944e-05 4.59648e-05 -5.67317e-06
4.59648e-05 -0.000328319 3.90509e-06
-5.67317e-06 3.90509e-06 -0.000225215
0.0007913 1.91836e-06 1.32924e-07
1.91836e-06 0.000106063 -4.35767e-07
1.32924e-07 -4.35767e-07 8.17834e-05
0.000801431 -2.53937e-07 5.48009e-07
-2.53937e-07 0.000233014 -4.83628e-07
5.48009e-07 -4.83628e-07 0.000172713
-0.00126561 2.81467e-05 7.4781e-06
2.81467e-05 -0.00103591 -1.79715e-06
7.4781e-06 -1.79715e-06 -0.00099464
0.000458269 -4.13037e-05 -3.84647e-06
-4.13037e-05 2.6844e-05 2.92381e-05
-3.84647e-06 2.92381e-05 -0.000340958
0.00212533 0.00011468 -3.52873e-07
0.00011468 0.000660295 -4.29521e-06
-3.52873e-07 -4.29521e-06 0.000573633
0.00592268 4.75201e-05 1.45753e-05
4.75201e-05 0.00124684 -1.32649e-05
1.45753e-05 -1.32649e-05 0.000476975
0.0004794 -1.15151e-05 8.31274e-06
-1.15151e-05 -6.85623e-05 -1.2738e-05
8.31274e-06 -1.2738e-05 -0.000128779
-0.0013188 1.0984e-05 -9.09393e-06
1.0984e-05 -0.00101157 2.28306e-06
-9.09393e-06 2.28306e-06 -0.00101753
0.00175815 6.76502e-05 2.0071e-05
6.76502e-05 0.000743086 -1.24192e-05
2.0071e-05 -1.24192e-05 0.000664434
0.00243586 1.56651e-05 -4.10368e-05
1.56651e-05 -5.51683e-05 1.40324e-05
-4.10368e-05 1.40324e-05 -0.000658523
6.4656e-05 -3.01761e-05 -1.58524e-05
-3.01761e-05 -0.000345774 4.18633e-05
-1.58524e-05 4.18633e-05 -0.000505527
0.00120537 9.02319e-06 3.65676e-07
9.02319e-06 0.000157117 -9.7169e-07
3.65676e-07 -9.7169e-07 6.45612e-05
0.000981308 -8.90745e-06 -2.01292e-07
-8.90745e-06 0.000110366 -2.16561e-07
-2.01292e-07 -2.16561e-07 -1.5264e-05
0.00163121 -4.98893e-05 8.02543e-07
-4.98893e-05 0.000412914 4.91277e-07
8.02543e-07 4.91277e-07 0.000257009
0.000904093 -2.11726e-05 -8.79738e-08
-2.11726e-05 1.7121e-05 -7.87002e-07
-8.79738e-08 -7.87002e-07 -8.31038e-05
0.00115162 -3.33185e-05 5.39675e-07
-3.33185e-05 0.000129084 -1.64114e-07
5.39675e-07 -1.64114e-07 1.19591e-05
0.00135113 -4.38334e-05 -2.02726e-06
-4.38334e-05 0.000149756 -2.88902e-06
-2.02726e-06 -2.88902e-06 4.64366e-05
0.00140933 -3.37612e-05 2.80872e-07
-3.37612e-05 0.000218544 -7.33598e-07
2.80872e-07 -7.33598e-07 0.000119264
0.0012077 -3.49446e-05 -4.03534e-07
-3.49446e-05 9.26384e-05 -8.68757e-07
-4.03534e-07 -8.68757e-07 -2.92224e-06
0.00141433 -3.43037e-05 -1.289e-06
-3.43037e-05 0.000159568 -1.94478e-06
-1.289e-06 -1.94478e-06 8.04949e-05
0.00126628 -3.09161e-05 4.88558e-07
-3.09161e-05 0.000117526 -7.494e-07
4.88558e-07 -7.494e-07 3.15274e-05
0.0012114 -2.94028e-05 3.23516e-07
-2.94028e-05 8.50597e-05 -5.10428e-07
3.23516e-07 -5.10428e-07 3.51241e-06
0.00129385 -2.69397e-05 -5.97229e-07
-2.69397e-05 9.24725e-05 -2.06432e-06
-5.97229e-07 -2.06432e-06 2.43152e-05
0.00126207 -2.43097e-05 -3.00018e-07
-2.43097e-05 6.50326e-05 -1.22529e-06
-3.00018e-07 -1.22529e-06 1.93731e-06
0.00118083 -2.58021e-05 -7.04067e-07
-2.58021e-05 6.02865e-05 4.41317e-08
-7.04067e-07 4.41317e-08 -1.06488e-05
0.00119789 -2.63592e-05 2.57556e-08
-2.63592e-05 6.17975e-05 -4.81604e-07
2.57556e-08 -4.81604e-07 -1.11148e-05
0.00119465 -2.397e-05 -5.65521e-07
-2.397e-05 8.68282e-05 8.91089e-07
-5.65521e-07 8.91089e-07 2.15623e-05
0.00119877 -2.59718e-05 -1.96189e-07
-2.59718e-05 8.54683e-05 2.14132e-07
-1.96189e-07 2.14132e-07 1.34966e-05
0.00118222 -2.76154e-05 3.90381e-07
-2.76154e-05 7.67449e-05 -5.0113e-07
3.90381e-07 -5.0113e-07 -1.80687e-06
0.00109133 -1.79278e-05 -5.50446e-07
-1.79278e-05 4.68708e-05 1.14694e-07
-5.50446e-07 1.14694e-07 -9.72731e-06
0.00103252 -2.14687e-05 -7.21469e-08
-2.14687e-05 1.88524e-05 -2.84594e-07
-7.21469e-08 -2.84594e-07 -4.28462e-05
0.00115715 -2.37435e-05 9.44928e-07
-2.37435e-05 7.64322e-05 -1.07107e-06
9.44928e-07 -1.07107e-06 9.78251e-06
0.00104619 2.43798e-06 -9.22716e-07
2.43798e-06 3.30969e-05 8.59318e-07
-9.22716e-07 8.59318e-07 -1.55903e-05
0.00106677 -1.16499e-05 1.28971e-07
-1.16499e-05 4.02673e-05 1.31492e-07
1.28971e-07 1.31492e-07 -1.6673e-05
0.00108765 -1.99972e-05 5.65517e-07
-1.99972e-05 4.91733e-05 -2.4329e-07
5.65517e-07 -2.4329e-07 -1.21606e-05
0.000981166 1.02089e-05 -1.95195e-06
1.02089e-05 -1.81521e-06 1.49709e-06
-1.95195e-06 1.49709e-06 -3.18006e-05
0.00105507 2.93068e-06 -4.61917e-08
2.93068e-06 3.36213e-05 -3.19283e-08
-4.61917e-08 -3.19283e-08 -1.34004e-05
0.00107196 -5.75286e-06 1.89358e-07
-5.75286e-06 4.49144e-05 -1.84146e-07
1.89358e-07 -1.84146e-07 -1.09545e-05
0.00152486 1.34876e-05 -4.72523e-06
1.34876e-05 0.000258843 2.65492e-06
-4.72523e-06 2.65492e-06 0.000259268
0.00100311 8.61388e-06 1.06981e-08
8.61388e-06 3.54412e-06 1.29812e-08
1.06981e-08 1.29812e-08 -2.56375e-05
0.00107242 -2.03863e-07 1.07857e-06
-2.03863e-07 3.56766e-05 -8.06974e-07
1.07857e-06 -8.06974e-07 -1.03546e-05
0.00118745 1.31022e-05 -6.35336e-06
1.31022e-05 8.88048e-05 3.47337e-06
-6.35336e-06 3.47337e-06 0.000103763
0.00124832 1.16185e-05 -1.26966e-06
1.16185e-05 0.000119667 5.68529e-07
-1.26966e-06 5.68529e-07 0.000118957
0.00100421 7.44375e-06 1.81909e-06
7.44375e-06 1.27601e-06 -1.59005e-06
1.81909e-06 -1.59005e-06 -2.79513e-05
0.000948116 9.84264e-06 2.43299e-06
9.84264e-06 -3.0763e-05 -2.8645e-06
2.43299e-06 -2.8645e-06 -3.25221e-05
0.00238128 1.4323e-05 1.90307e-07
1.4323e-05 0.000669292 3.73247e-08
1.90307e-07 3.73247e-08 0.000690541
0.00235743 1.2388e-05 6.38443e-06
1.2388e-05 0.000654048 -3.7255e-06
6.38443e-06 -3.7255e-06 0.000675961
0.00105295 9.49113e-06 -6.31102e-07
9.49113e-06 2.31955e-05 -3.16352e-07
-6.31102e-07 -3.16352e-07 -3.46701e-05
0.00106933 9.93699e-07 -1.02328e-06
9.93699e-07 3.10876e-05 -8.20643e-07
-1.02328e-06 -8.20643e-07 -1.66731e-05
0.00108148 1.25768e-05 -1.03737e-08
1.25768e-05 3.67815e-05 3.50482e-08
-1.03737e-08 3.50482e-08 -2.12914e-05
0.0010029 -6.11144e-06 -1.48545e-06
-6.11144e-06 -5.60458e-07 -1.6418e-06
-1.48545e-06 -1.6418e-06 -3.03397e-05
0.00106749 4.11061e-06 -2.65021e-08
4.11061e-06 3.00968e-05 -4.30767e-10
-2.65021e-08 -4.30767e-10 -1.74892e-05
0.00095867 -8.59088e-06 -2.07268e-06
-8.59088e-06 -2.83598e-05 -2.91223e-06
-2.07268e-06 -2.91223e-06 -2.98611e-05
0.00101041 -5.35094e-06 -7.28923e-08
-5.35094e-06 1.90237e-06 1.65278e-08
-7.28923e-08 1.65278e-08 -2.71947e-05
0.00107654 6.42009e-06 7.77965e-07
6.42009e-06 3.55212e-05 1.0497e-06
7.77965e-07 1.0497e-06 -1.18613e-05
0.0023373 -1.0428e-05 -5.67891e-06
-1.0428e-05 0.000640741 -3.81326e-06
-5.67891e-06 -3.81326e-06 0.000663367
0.000956473 -7.49127e-06 -9.50875e-08
-7.49127e-06 -3.26899e-05 -4.80466e-09
-9.50875e-08 -4.80466e-09 -3.29405e-05
0.00102039 -5.04178e-06 8.24826e-07
-5.04178e-06 5.63844e-06 1.72042e-06
8.24826e-07 1.72042e-06 -2.23382e-05
0.00230666 -8.38048e-06 -2.987e-07
-8.38048e-06 0.000621665 2.37122e-08
-2.987e-07 2.37122e-08 0.00064533
0.000949062 -6.21553e-06 1.16091e-06
-6.21553e-06 -3.97031e-05 3.00862e-06
1.16091e-06 3.00862e-06 -3.84361e-05
0.00228381 -6.23044e-06 3.35777e-06
-6.23044e-06 0.000607167 3.80602e-06
3.35777e-06 3.80602e-06 0.000631699
0.000489695 -8.38108e-06 -1.27592e-05
-8.38108e-06 6.16301e-05 -5.20806e-06
-1.27592e-05 -5.20806e-06 -1.47217e-05
0.000631039 7.22928e-06 -6.1481e-07
7.22928e-06 4.39732e-05 -1.01206e-06
-6.1481e-07 -1.01206e-06 -4.29258e-05
0.000880341 -3.2498e-06 -1.03202e-06
-3.2498e-06 0.000156045 -4.39269e-07
-1.03202e-06 -4.39269e-07 7.84659e-05
0.00115959 1.55108e-05 -1.3839e-07
1.55108e-05 7.50603e-05 3.78572e-07
-1.3839e-07 3.78572e-07 1.38539e-05
0.00110422 1.42385e-05 5.80856e-07
1.42385e-05 4.89246e-05 3.5633e-07
5.80856e-07 3.5633e-07 -9.59076e-06
0.00109192 1.89156e-05 5.00465e-07
1.89156e-05 4.02928e-05 5.27502e-08
5.00465e-07 5.27502e-08 -2.26031e-05
0.00113876 1.98842e-05 -1.91762e-07
1.98842e-05 6.46158e-05 -1.73451e-07
-1.91762e-07 -1.73451e-07 7.88116e-07
0.00113686 1.63334e-05 -1.66453e-07
1.63334e-05 6.32494e-05 -1.93481e-07
-1.66453e-07 -1.93481e-07 1.575e-06
0.00115543 2.01822e-05 2.6247e-07
2.01822e-05 6.95614e-05 2.17782e-07
2.6247e-07 2.17782e-07 4.79265e-06
0.00112168 2.01877e-05 -2.684e-07
2.01877e-05 5.42562e-05 6.28877e-08
-2.684e-07 6.28877e-08 -1.08872e-05
0.00109898 2.03041e-05 -1.65622e-07
2.03041e-05 4.47405e-05 1.92332e-07
-1.65622e-07 1.92332e-07 -2.24835e-05
0.00115258 2.03362e-05 3.37623e-07
2.03362e-05 7.37954e-05 -4.78426e-08
3.37623e-07 -4.78426e-08 7.13682e-06
0.0011066 2.00915e-05 6.97136e-07
2.00915e-05 5.3785e-05 -1.12271e-07
6.97136e-07 -1.12271e-07 -1.7475e-05
0.00117174 2.1183e-05 -1.34268e-07
2.1183e-05 8.39364e-05 -3.05532e-08
-1.34268e-07 -3.05532e-08 1.34836e-05
0.00134725 2.26837e-05 5.41556e-07
2.26837e-05 0.000165019 6.6017e-07
5.41556e-07 6.6017e-07 9.52207e-05
0.00160222 -3.69477e-05 -6.80735e-06
-3.69477e-05 0.000688797 -3.04536e-06
-6.80735e-06 -3.04536e-06 0.000739696
0.00060003 -1.32389e-05 -2.67508e-06
-1.32389e-05 0.000103868 -2.91595e-06
-2.67508e-06 -2.91595e-06 7.46799e-05
0.00035846 8.23009e-06 3.50979e-06
8.23009e-06 -0.000124906 2.65382e-06
3.50979e-06 2.65382e-06 -0.000181721
0.00139438 -3.61775e-05 1.39736e-05
-3.61775e-05 0.000481151 1.17728e-05
1.39736e-05 1.17728e-05 0.000538937
0.00127952 -0.0001123 5.24026e-06
-0.0001123 -0.000721307 -5.66883e-05
5.24026e-06 -5.66883e-05 -0.000644966
0.0039367 2.96964e-05 -3.81488e-06
2.96964e-05 6.29882e-06 0.000104244
-3.81488e-06 0.000104244 -0.00054114
-0.000251294 -3.17561e-05 -1.73259e-05
-3.17561e-05 -1.93994e-06 2.78924e-05
-1.73259e-05 2.78924e-05 -0.000101008
0.00075023 3.29726e-08 -6.80152e-06
3.29726e-08 0.000427562 -8.72494e-06
-6.80152e-06 -8.72494e-06 0.000236716
0.000445735 -5.20639e-05 1.91754e-06
-5.20639e-05 -9.50483e-05 -7.92203e-07
1.91754e-06 -7.92203e-07 4.87232e-06
0.00602867 -5.43792e-05 1.13631e-05
-5.43792e-05 0.000769834 3.53304e-05
1.13631e-05 3.53304e-05 0.00040836
-0.00108871 -0.000121546 -3.53129e-06
-0.000121546 -0.00087764 -1.2653e-05
-3.53129e-06 -1.2653e-05 -0.000912714
0.00025392 3.60227e-05 -1.49902e-05
3.60227e-05 7.0064e-05 -3.03901e-05
-1.49902e-05 -3.03901e-05 -6.12082e-05
0.00463797 -0.000141286 2.23656e-05
-0.000141286 0.000925961 3.46565e-05
2.23656e-05 3.46565e-05 0.000355935
4.39674e-06 -9.63364e-05 3.78259e-05
-9.63364e-05 -8.00965e-05 2.5074e-05
3.78259e-05 2.5074e-05 -6.39467e-05
0.00108133 3.07967e-05 -1.65636e-06
3.07967e-05 6.3497e-05 9.93218e-07
-1.65636e-06 9.93218e-07 -3.01138e-06
0.00115614 2.47158e-05 1.47485e-06
2.47158e-05 8.59312e-05 1.85253e-07
1.47485e-06 1.85253e-07 1.39463e-05
0.00120645 2.22084e-05 2.20025e-07
2.22084e-05 0.000109179 -6.64254e-07
2.20025e-07 -6.64254e-07 3.27926e-05
0.000466727 -1.65352e-06 3.0397e-06
-1.65352e-06 0.000109724 -5.82943e-06
3.0397e-06 -5.82943e-06 2.77691e-05
0.00106912 8.65237e-07 1.89467e-07
8.65237e-07 4.58283e-05 -3.93491e-07
1.89467e-07 -3.93491e-07 -7.09603e-05
0.00121329 1.47867e-05 2.77943e-06
1.47867e-05 0.000132972 2.71575e-08
2.77943e-06 2.71575e-08 3.53479e-05
0.00124799 2.4019e-05 -7.32037e-08
2.4019e-05 0.000147549 -5.42554e-08
-7.32037e-08 -5.42554e-08 4.36424e-05
0.000721054 1.95025e-05 3.86641e-06
1.95025e-05 0.000157335 9.68757e-06
3.86641e-06 9.68757e-06 6.88107e-05
-0.000438243 4.27761e-05 -1.86633e-06
4.27761e-05 -0.000510712 9.04505e-06
-1.86633e-06 9.04505e-06 -0.000579787
0.00227283 -3.67517e-06 -1.16977e-05
-3.67517e-06 0.00114341 -1.85696e-07
-1.16977e-05 -1.85696e-07 0.0011523
0.00064595 -1.63768e-07 -1.079e-06
-1.63768e-07 0.000159618 -1.05127e-06
-1.079e-06 -1.05127e-06 7.79846e-05
0.000304299 2.78472e-06 -9.57188e-08
2.78472e-06 -0.0001691 -3.30602e-07
-9.57188e-08 -3.30602e-07 -0.000263662
0.00109872 9.78939e-07 -9.95949e-06
9.78939e-07 0.000257871 1.80824e-05
-9.95949e-06 1.80824e-05 0.000219065
0.000921858 -2.79848e-05 4.98357e-06
-2.79848e-05 0.000274706 -2.99568e-05
4.98357e-06 -2.99568e-05 8.63035e-05
0.000813143 -2.28067e-07 1.0696e-05
-2.28067e-07 0.000238749 -3.13259e-06
1.0696e-05 -3.13259e-06 0.000179002
0.00116289 6.32776e-05 -2.23194e-05
6.32776e-05 -0.000359169 3.19609e-05
-2.23194e-05 3.19609e-05 -0.000963717
-0.00117776 8.54395e-05 -4.24229e-05
8.54395e-05 -0.000705666 2.91138e-05
-4.24229e-05 2.91138e-05 -0.000721975
0.000800362 3.16631e-05 1.29284e-05
3.16631e-05 0.000159616 -1.17082e-05
1.29284e-05 -1.17082e-05 0.000214563
0.00111718 -7.24778e-06 1.90615e-06
-7.24778e-06 0.000222639 8.65094e-07
1.90615e-06 8.65094e-07 0.000166474
0.000798835 1.22303e-05 5.30778e-08
1.22303e-05 0.000227825 -8.92164e-07
5.30778e-08 -8.92164e-07 0.000231733
-0.00153928 3.56643e-05 -1.23257e-05
3.56643e-05 -0.000654364 3.94683e-06
-1.23257e-05 3.94683e-06 -0.000669572
0.00220999 -7.07219e-05 -1.38304e-05
-7.07219e-05 0.000448572 4.02603e-05
-1.38304e-05 4.02603e-05 5.69867e-05
0.00507539 5.1396e-05 -1.14439e-05
5.1396e-05 0.00130243 9.79454e-06
-1.14439e-05 9.79454e-06 0.000793558
0.00192594 -2.97895e-05 1.71351e-05
-2.97895e-05 0.000173061 -1.32945e-05
1.71351e-05 -1.32945e-05 0.000159441
-0.00395334 2.33463e-05 3.21968e-05
2.33463e-05 -0.00194152 -1.22031e-05
3.21968e-05 -1.22031e-05 -0.00191102
0.00478525 2.57326e-05 2.08509e-05
2.57326e-05 0.00140465 -1.75767e-05
2.08509e-05 -1.75767e-05 0.00103043
0.000564351 -5.53406e-05 -2.61036e-05
-5.53406e-05 -0.000280729 3.72828e-05
-2.61036e-05 3.72828e-05 -0.000617851
0.00107303 -7.29333e-06 -1.09295e-06
-7.29333e-06 0.000146408 -7.23522e-07
-1.09295e-06 -7.23522e-07 2.69817e-05
0.00121451 -4.13492e-05 4.89951e-07
-4.13492e-05 0.000225341 7.31569e-07
4.89951e-07 7.31569e-07 6.19609e-05
0.00120897 -6.24418e-05 -2.71878e-06
-6.24418e-05 9.16396e-05 -4.79172e-07
-2.71878e-06 -4.79172e-07 -1.54303e-05
0.000963076 -3.08104e-05 -3.13827e-07
-3.08104e-05 4.48956e-05 -2.21811e-07
-3.13827e-07 -2.21811e-07 -7.22735e-05
0.00119008 -4.24757e-05 -1.04576e-06
-4.24757e-05 6.7085e-05 -1.37684e-06
-1.04576e-06 -1.37684e-06 -3.49761e-05
0.0017259 -4.31966e-05 -2.03159e-06
-4.31966e-05 0.000236819 -4.44467e-06
-2.03159e-06 -4.44467e-06 0.000176165
0.00120557 -3.47601e-05 8.78618e-07
-3.47601e-05 8.98448e-05 -1.19779e-06
8.78618e-07 -1.19779e-06 -4.94291e-06
0.00121788 -3.21431e-05 5.5295e-07
-3.21431e-05 6.30813e-05 -7.57034e-07
5.5295e-07 -7.57034e-07 -1.41147e-05
0.00137145 -2.67806e-05 -1.37882e-07
-2.67806e-05 9.44609e-05 -3.07464e-06
-1.37882e-07 -3.07464e-06 4.33544e-05
0.00111424 -2.81916e-05 8.29478e-07
-2.81916e-05 3.78316e-05 -1.51653e-07
8.29478e-07 -1.51653e-07 -4.27754e-05
0.00120494 -2.59021e-05 -8.51785e-08
-2.59021e-05 4.78405e-05 -4.81024e-07
-8.51785e-08 -4.81024e-07 -1.94379e-05
0.00126263 -2.1921e-05 3.16044e-07
-2.1921e-05 4.30199e-05 -1.96033e-06
3.16044e-07 -1.96033e-06 -7.97617e-06
0.0012395 -2.03148e-05 1.2928e-07
-2.03148e-05 4.63889e-05 -9.54879e-07
1.2928e-07 -9.54879e-07 -6.93076e-06
0.00128702 -2.48178e-05 -6.22574e-07
-2.48178e-05 8.79876e-05 -7.01281e-07
-6.22574e-07 -7.01281e-07 2.37173e-05
0.00122195 -2.34429e-05 2.74321e-07
-2.34429e-05 4.65737e-05 3.30935e-07
2.74321e-07 3.30935e-07 -1.57882e-05
0.00103618 -2.29295e-05 -8.38612e-07
-2.29295e-05 -1.9905e-06 4.23772e-07
-8.38612e-07 4.23772e-07 -6.82134e-05
0.00121507 -2.5898e-05 3.86103e-07
-2.5898e-05 7.78961e-05 -3.3632e-07
3.86103e-07 -3.3632e-07 7.60888e-06
0.00113607 -2.55099e-05 6.30835e-07
-2.55099e-05 3.10033e-05 7.80677e-08
6.30835e-07 7.80677e-08 -4.12826e-05
0.00110369 -2.05691e-05 -4.96702e-07
-2.05691e-05 4.90237e-05 5.64363e-07
-4.96702e-07 5.64363e-07 -9.2537e-06
0.001095 -2.31296e-05 6.93502e-08
-2.31296e-05 4.11925e-05 -6.59352e-08
6.93502e-08 -6.59352e-08 -2.42479e-05
0.00106237 -2.49636e-05 5.17016e-07
-2.49636e-05 2.17478e-05 -7.17984e-07
5.17016e-07 -7.17984e-07 -5.12318e-05
0.00104928 -1.257e-06 -1.09074e-06
-1.257e-06 3.38797e-05 6.38113e-07
-1.09074e-06 6.38113e-07 -1.58099e-05
0.00110908 -1.74784e-05 -7.8902e-08
-1.74784e-05 5.5008e-05 -9.73082e-08
-7.8902e-08 -9.73082e-08 -1.61952e-06
0.00108838 -2.18651e-05 2.56517e-07
-2.18651e-05 4.59981e-05 -7.0672e-07
2.56517e-07 -7.0672e-07 -1.51249e-05
0.000969715 1.16808e-05 -1.98795e-06
1.16808e-05 -1.97535e-06 1.49658e-06
-1.98795e-06 1.49658e-06 -3.36906e-05
0.00105268 1.39947e-06 9.41041e-08
1.39947e-06 3.5321e-05 6.96124e-08
9.41041e-08 6.96124e-08 -1.32342e-05
0.00101271 -9.92574e-06 6.27617e-07
-9.92574e-06 1.50405e-05 -1.42171e-07
6.27617e-07 -1.42171e-07 -4.19941e-05
0.000896407 1.36317e-05 -3.13753e-06
1.36317e-05 -4.35216e-05 2.54937e-06
-3.13753e-06 2.54937e-06 -4.66197e-05
0.000997002 1.03784e-05 -1.08864e-08
1.03784e-05 5.79232e-06 -5.94839e-09
-1.08864e-08 -5.94839e-09 -2.42588e-05
0.00107229 1.93563e-06 9.31958e-07
1.93563e-06 4.1142e-05 -8.69214e-07
9.31958e-07 -8.69214e-07 -5.8337e-06
0.00233403 1.9014e-05 -3.34816e-06
1.9014e-05 0.00065503 1.37116e-06
-3.34816e-06 1.37116e-06 0.00067519
0.000912906 1.23294e-05 6.72427e-08
1.23294e-05 -4.03347e-05 3.41026e-08
6.72427e-08 3.41026e-08 -4.27181e-05
0.00100745 8.74263e-06 1.92251e-06
8.74263e-06 5.74412e-06 -1.52195e-06
1.92251e-06 -1.52195e-06 -2.34496e-05
0.00239952 1.6263e-05 1.48541e-07
1.6263e-05 0.000682195 4.13461e-08
1.48541e-07 4.13461e-08 0.000702763
0.000937364 1.10639e-05 2.7625e-06
1.10639e-05 -3.24724e-05 -2.74349e-06
2.7625e-06 -2.74349e-06 -3.45516e-05
0.00235567 1.43366e-05 6.98448e-06
1.43366e-05 0.000657245 -3.62291e-06
6.98448e-06 -3.62291e-06 0.000678549
0.00120463 7.52208e-06 -3.03535e-07
7.52208e-06 9.96222e-05 2.21971e-07
-3.03535e-07 2.21971e-07 4.26974e-05
0.00107953 8.15557e-06 -9.33716e-08
8.15557e-06 3.67314e-05 -1.29137e-07
-9.33716e-08 -1.29137e-07 -2.0954e-05
0.00107005 -1.41503e-06 -1.06212e-06
-1.41503e-06 3.31631e-05 -7.50613e-07
-1.06212e-06 -7.50613e-07 -1.50043e-05
0.00100543 -7.09418e-06 -1.72423e-06
-7.09418e-06 2.13245e-06 -1.56789e-06
-1.72423e-06 -1.56789e-06 -2.81673e-05
0.00106631 1.93782e-06 -5.05353e-08
1.93782e-06 2.98802e-05 1.90155e-08
-5.05353e-08 1.90155e-08 -1.7946e-05
0.00105795 1.1391e-05 5.38831e-07
1.1391e-05 2.55687e-05 2.83901e-07
5.38831e-07 2.83901e-07 -3.27364e-05
0.000946265 -9.64474e-06 -2.44382e-06
-9.64474e-06 -3.1136e-05 -2.8371e-06
-2.44382e-06 -2.8371e-06 -3.343e-05
0.00100602 -5.96628e-06 -6.17083e-08
-5.96628e-06 6.84909e-07 7.6093e-09
-6.17083e-08 7.6093e-09 -2.90607e-05
0.00107082 4.71581e-06 8.73312e-07
4.71581e-06 3.18103e-05 9.84795e-07
8.73312e-07 9.84795e-07 -1.58406e-05
0.00237013 -1.23755e-05 -6.47116e-06
-1.23755e-05 0.000660682 -3.75743e-06
-6.47116e-06 -3.75743e-06 0.000682412
0.000945245 -8.58418e-06 -1.04048e-07
-8.58418e-06 -3.47635e-05 1.05586e-08
-1.04048e-07 1.05586e-08 -3.62085e-05
0.00101699 -5.26106e-06 1.12011e-06
-5.26106e-06 4.99775e-06 1.7017e-06
1.12011e-06 1.7017e-06 -2.41068e-05
0.00234687 -1.04104e-05 -2.64722e-07
-1.04104e-05 0.000644938 2.97465e-08
-2.64722e-07 2.97465e-08 0.000667649
0.000940537 -7.50171e-06 1.48015e-06
-7.50171e-06 -4.029e-05 2.99693e-06
1.48015e-06 2.99693e-06 -4.04642e-05
0.00231526 -8.34093e-06 4.32744e-06
-8.34093e-06 0.00062541 3.78756e-06
4.32744e-06 3.78756e-06 0.000649161
1.45992e-05 -1.70709e-05 -7.7645e-06
-1.70709e-05 -0.000188348 -4.58081e-06
-7.7645e-06 -4.58081e-06 -0.000180929
0.00049721 -5.34705e-06 -4.0795e-07
-5.34705e-06 6.83522e-05 -1.58289e-06
-4.0795e-07 -1.58289e-06 -8.03689e-06
0.000476727 7.01635e-06 1.42748e-06
7.01635e-06 -5.07236e-05 8.05676e-07
1.42748e-06 8.05676e-07 -0.000138381
0.00113731 1.54238e-05 8.37376e-08
1.54238e-05 6.37961e-05 1.54681e-07
8.37376e-08 1.54681e-07 2.27725e-06
0.00116174 1.72465e-05 -1.15e-07
1.72465e-05 7.77632e-05 4.26852e-07
-1.15e-07 4.26852e-07 1.6704e-05
0.00112754 2.05749e-05 1.00282e-09
2.05749e-05 5.66063e-05 4.22597e-07
1.00282e-09 4.22597e-07 -7.00774e-06
0.00120333 2.04364e-05 1.50199e-07
2.04364e-05 9.66256e-05 -2.72242e-07
1.50199e-07 -2.72242e-07 3.31359e-05
0.00120125 1.73246e-05 1.73768e-07
1.73246e-05 9.47153e-05 -1.82935e-07
1.73768e-07 -1.82935e-07 3.33386e-05
0.00112063 1.97832e-05 4.0457e-07
1.97832e-05 5.23086e-05 1.96272e-07
4.0457e-07 1.96272e-07 -1.22831e-05
0.00112949 2.05074e-05 -8.69456e-08
2.05074e-05 5.92239e-05 -1.21416e-08
-8.69456e-08 -1.21416e-08 -7.73321e-06
0.00113805 2.03254e-05 4.69503e-08
2.03254e-05 6.20057e-05 2.97156e-08
4.69503e-08 2.97156e-08 -2.91269e-06
0.00115046 2.14018e-05 -2.77083e-07
2.14018e-05 7.39959e-05 2.84137e-07
-2.77083e-07 2.84137e-07 5.45298e-06
0.00123463 2.19958e-05 5.5556e-07
2.19958e-05 0.000112819 1.81651e-06
5.5556e-07 1.81651e-06 4.74046e-05
0.00113205 2.08075e-05 1.08581e-08
2.08075e-05 6.44435e-05 -4.54387e-07
1.08581e-08 -4.54387e-07 -5.99402e-06
0.00120926 2.1622e-05 2.35747e-08
2.1622e-05 9.99803e-05 -3.9678e-08
2.35747e-08 -3.9678e-08 3.00693e-05
-0.00294947 -5.99685e-05 4.2159e-05
-5.99685e-05 -0.00147396 1.77102e-05
4.2159e-05 1.77102e-05 -0.00149321
0.00091029 -3.60334e-05 3.32203e-07
-3.60334e-05 0.000300822 1.01329e-07
3.32203e-07 1.01329e-07 0.000348584
0.000520502 -1.3959e-05 1.40023e-05
-1.3959e-05 5.7997e-05 7.73961e-06
1.40023e-05 7.73961e-06 3.04111e-05
8.48698e-05 -5.18807e-05 -1.91958e-06
-5.18807e-05 -0.00026665 -3.67442e-06
-1.91958e-06 -3.67442e-06 -0.000184017
0.00397868 -0.00015922 -2.7315e-05
-0.00015922 0.00133764 -5.13295e-05
-2.7315e-05 -5.13295e-05 0.00124922
0.00170715 -8.19747e-05 8.24197e-06
-8.19747e-05 -0.000723049 3.24752e-05
8.24197e-06 3.24752e-05 -0.000975199
0.000672572 1.02499e-05 3.55313e-06
1.02499e-05 0.0001525 2.68668e-05
3.55313e-06 2.68668e-05 -0.000296219
0.001239 5.52529e-05 -9.24687e-06
5.52529e-05 0.000249666 -2.96698e-05
-9.24687e-06 -2.96698e-05 -9.16298e-05
0.00186452 -0.000123488 -4.40473e-07
-0.000123488 0.000469208 -4.40801e-06
-4.40473e-07 -4.40801e-06 0.000407111
0.00444481 -6.83022e-05 1.94233e-05
-6.83022e-05 0.000816699 3.54208e-05
1.94233e-05 3.54208e-05 0.000325311
-0.000100578 6.31925e-05 -3.21912e-05
6.31925e-05 -0.000555922 -7.66993e-05
-3.21912e-05 -7.66993e-05 -0.000885712
0.00328711 -5.69802e-06 9.25177e-06
-5.69802e-06 0.000408444 1.90063e-05
9.25177e-06 1.90063e-05 -0.000112294
0.00159788 4.23725e-05 3.33551e-06
4.23725e-05 0.000348049 -1.53367e-06
3.33551e-06 -1.53367e-06 0.000270354
0.000993133 2.85067e-05 6.83771e-08
2.85067e-05 1.91012e-05 -1.36156e-07
6.83771e-08 -1.36156e-07 -4.63989e-05
0.00121226 2.42038e-05 2.03378e-06
2.42038e-05 0.000108047 -1.03772e-06
2.03378e-06 -1.03772e-06 3.66346e-05
0.000696183 2.15881e-05 -1.00103e-06
2.15881e-05 0.00014002 -5.66105e-06
-1.00103e-06 -5.66105e-06 4.87217e-05
0.00147481 2.51994e-05 2.1816e-06
2.51994e-05 0.00025744 1.67178e-07
2.1816e-06 1.67178e-07 0.000154268
0.000968364 5.2527e-05 1.35168e-06
5.2527e-05 0.000121343 2.57436e-06
1.35168e-06 2.57436e-06 5.44107e-05
-0.000705009 4.83772e-05 5.02471e-06
4.83772e-05 -0.00067967 2.76837e-06
5.02471e-06 2.76837e-06 -0.000736305
-0.00173292 4.24753e-06 5.40757e-05
4.24753e-06 -0.00075534 -1.67398e-06
5.40757e-05 -1.67398e-06 -0.000669988
0.000495876 -2.81658e-06 -5.40526e-06
-2.81658e-06 8.37571e-05 4.0848e-07
-5.40526e-06 4.0848e-07 7.78876e-05
-0.00054575 1.51278e-06 1.20405e-05
1.51278e-06 -0.000581295 -1.81209e-06
1.20405e-05 -1.81209e-06 -0.000672442
0.00136529 2.26192e-06 -1.05376e-05
2.26192e-06 0.000329407 1.24625e-05
-1.05376e-05 1.24625e-05 0.000288378
-0.000136549 -4.57035e-05 -7.90239e-06
-4.57035e-05 -0.000129189 3.35839e-06
-7.90239e-06 3.35839e-06 -0.000330942
0.000610857 1.11196e-05 9.56219e-06
1.11196e-05 0.000105971 -3.62524e-06
9.56219e-06 -3.62524e-06 0.000110416
0.003227 1.54303e-07 3.49747e-05
1.54303e-07 0.000351357 -2.38173e-05
3.49747e-05 -2.38173e-05 -0.000235805
0.0027021 3.26141e-05 -6.73119e-05
3.26141e-05 0.00124872 2.52639e-05
-6.73119e-05 2.52639e-05 0.00115981
0.00110976 -2.5683e-05 -4.06552e-06
-2.5683e-05 -7.7949e-05 4.96608e-07
-4.06552e-06 4.96608e-07 -0.000112907
-0.000686452 1.44248e-05 -2.22335e-05
1.44248e-05 -0.000311734 5.38031e-06
-2.22335e-05 5.38031e-06 -0.000331358
0.00221574 -3.89179e-05 -5.84362e-06
-3.89179e-05 0.000111593 4.02967e-06
-5.84362e-06 4.02967e-06 -0.000402808
0.000311816 -2.77253e-05 5.47197e-06
-2.77253e-05 3.35803e-05 2.84678e-06
5.47197e-06 2.84678e-06 -0.000184128
0.00154167 -3.26081e-05 1.43588e-05
-3.26081e-05 -0.000196851 -8.8694e-06
1.43588e-05 -8.8694e-06 -0.000151483
0.00551027 1.00739e-05 1.94001e-05
1.00739e-05 0.00144525 -1.01025e-05
1.94001e-05 -1.01025e-05 0.00107367
0.000895001 5.43723e-06 -5.76017e-06
5.43723e-06 0.00027755 9.20261e-07
-5.76017e-06 9.20261e-07 9.99227e-05
0.000764987 -3.19328e-05 1.54292e-07
-3.19328e-05 2.64598e-05 -2.66038e-06
1.54292e-07 -2.66038e-06 -0.00014678
0.00103249 -5.92708e-05 -3.18835e-08
-5.92708e-05 1.17243e-05 -2.50519e-07
-3.18835e-08 -2.50519e-07 -9.30526e-05
0.00136219 -5.806e-05 -9.66682e-06
-5.806e-05 -3.91333e-06 1.46974e-06
-9.66682e-06 1.46974e-06 -3.60408e-05
0.00102469 -4.09124e-05 -1.00033e-07
-4.09124e-05 -1.82984e-05 1.33606e-07
-1.00033e-07 1.33606e-07 -0.000118761
0.00127904 -3.98188e-05 -1.97164e-07
-3.98188e-05 1.74045e-05 -2.51692e-09
-1.97164e-07 -2.51692e-09 -4.07412e-05
0.00160526 -2.80131e-05 7.25032e-07
-2.80131e-05 0.00012843 -1.94332e-06
7.25032e-07 -1.94332e-06 0.000109988
0.00101856 -2.99575e-05 1.96005e-06
-2.99575e-05 -3.41254e-05 1.01257e-06
1.96005e-06 1.01257e-06 -0.00010951
0.00122564 -2.56534e-05 1.47542e-07
-2.56534e-05 2.12617e-05 -1.05924e-07
1.47542e-07 -1.05924e-07 -2.8673e-05
0.00126968 -1.95189e-05 1.67399e-06
-1.95189e-05 1.17535e-05 -1.41716e-06
1.67399e-06 -1.41716e-06 -2.05202e-05
0.0011082 -2.48536e-05 5.25875e-07
-2.48536e-05 -4.82858e-07 1.16153e-06
5.25875e-07 1.16153e-06 -6.68671e-05
0.00123312 -2.1722e-05 2.09717e-07
-2.1722e-05 2.88096e-05 3.65493e-07
2.09717e-07 3.65493e-07 -2.21984e-05
0.00120356 -1.73853e-05 1.0656e-06
-1.73853e-05 1.0389e-05 -4.84609e-07
1.0656e-06 -4.84609e-07 -3.36539e-05
0.00127356 -1.74393e-05 3.6855e-07
-1.74393e-05 6.13126e-05 -3.62974e-07
3.6855e-07 -3.62974e-07 1.13847e-05
0.00125127 -2.01044e-05 -1.61281e-07
-2.01044e-05 5.14414e-05 7.47914e-07
-1.61281e-07 7.47914e-07 -1.06625e-06
0.00126231 -2.12714e-05 2.89092e-08
-2.12714e-05 6.77247e-05 -1.31449e-06
2.89092e-08 -1.31449e-06 1.16187e-05
0.00125404 -2.32303e-05 -7.04526e-07
-2.32303e-05 8.12306e-05 -3.35331e-07
-7.04526e-07 -3.35331e-07 1.87772e-05
0.0012829 -2.46456e-05 3.25861e-07
-2.46456e-05 8.79063e-05 -5.07609e-08
3.25861e-07 -5.07609e-08 2.3572e-05
0.00118795 -2.26374e-05 8.43798e-07
-2.26374e-05 3.11015e-05 1.71816e-06
8.43798e-07 1.71816e-06 -3.0547e-05
0.000994141 -2.06082e-05 -1.0412e-06
-2.06082e-05 -1.50597e-05 8.55335e-07
-1.0412e-06 8.55335e-07 -7.56648e-05
0.00115694 -2.38162e-05 5.08522e-08
-2.38162e-05 5.66655e-05 -2.23902e-08
5.08522e-08 -2.23902e-08 -9.0268e-06
0.00124151 -2.59199e-05 1.03987e-06
-2.59199e-05 9.17673e-05 -5.76023e-07
1.03987e-06 -5.76023e-07 2.21431e-05
0.00104424 -5.83383e-06 -9.31813e-07
-5.83383e-06 3.01356e-05 6.3435e-07
-9.31813e-07 6.3435e-07 -2.0995e-05
0.00112078 -2.02883e-05 3.95215e-08
-2.02883e-05 5.67921e-05 -4.61923e-08
3.95215e-08 -4.61923e-08 -1.52866e-06
0.00100144 -2.23451e-05 4.8503e-07
-2.23451e-05 -1.66104e-06 -9.81858e-07
4.8503e-07 -9.81858e-07 -6.72707e-05
0.000959178 1.25995e-05 -2.12727e-06
1.25995e-05 -3.56198e-06 1.40399e-06
-2.12727e-06 1.40399e-06 -3.72671e-05
0.00105676 -2.50014e-06 -4.65842e-08
-2.50014e-06 3.64656e-05 2.44338e-08
-4.65842e-08 2.44338e-08 -1.30929e-05
0.00112561 -1.69646e-05 5.43336e-07
-1.69646e-05 6.25782e-05 -4.21254e-07
5.43336e-07 -4.21254e-07 5.9224e-06
0.0008803 1.48424e-05 -3.33439e-06
1.48424e-05 -4.54378e-05 2.45782e-06
-3.33439e-06 2.45782e-06 -4.98982e-05
0.000987615 1.1907e-05 5.5454e-08
1.1907e-05 6.57755e-06 2.20463e-08
5.5454e-08 2.20463e-08 -2.51828e-05
0.00105955 2.43683e-07 1.10369e-06
2.43683e-07 3.77472e-05 -6.73053e-07
1.10369e-06 -6.73053e-07 -1.06768e-05
0.00241237 2.01925e-05 -8.072e-06
2.01925e-05 0.00069824 3.26644e-06
-8.072e-06 3.26644e-06 0.00071729
0.000914701 1.3677e-05 2.97768e-08
1.3677e-05 -3.45772e-05 1.86627e-08
2.97768e-08 1.86627e-08 -3.77795e-05
0.00101297 1.05493e-05 1.92885e-06
1.05493e-05 1.34652e-05 -1.52363e-06
1.92885e-06 -1.52363e-06 -1.66524e-05
0.00173667 1.70119e-05 2.79094e-06
1.70119e-05 0.000362865 -1.0276e-06
2.79094e-06 -1.0276e-06 0.000380164
0.000931867 1.23718e-05 3.05023e-06
1.23718e-05 -3.11181e-05 -2.61078e-06
3.05023e-06 -2.61078e-06 -3.35903e-05
0.002344 1.62696e-05 7.44241e-06
1.62696e-05 0.000655876 -3.4912e-06
7.44241e-06 -3.4912e-06 0.000676603
0.0011532 5.80883e-06 -3.5574e-07
5.80883e-06 7.70036e-05 3.03507e-07
-3.5574e-07 3.03507e-07 1.96293e-05
0.0011232 5.14793e-06 1.65058e-07
5.14793e-06 5.97832e-05 3.32477e-07
1.65058e-07 3.32477e-07 2.29719e-06
0.00106497 -3.83975e-06 -1.11159e-06
-3.83975e-06 3.3904e-05 -6.55733e-07
-1.11159e-06 -6.55733e-07 -1.50074e-05
0.00110564 6.8009e-06 3.59254e-07
6.8009e-06 5.00391e-05 2.8444e-08
3.59254e-07 2.8444e-08 -7.46426e-06
0.00106184 -1.11258e-06 2.03508e-08
-1.11258e-06 2.95181e-05 1.258e-08
2.03508e-08 1.258e-08 -1.86898e-05
0.00100771 -8.43727e-06 -1.90026e-06
-8.43727e-06 5.52251e-06 -1.47693e-06
-1.90026e-06 -1.47693e-06 -2.54077e-05
0.000937402 -1.07857e-05 -2.78101e-06
-1.07857e-05 -3.21255e-05 -2.73157e-06
-2.78101e-06 -2.73157e-06 -3.50005e-05
0.0010037 -6.92304e-06 -6.97956e-08
-6.92304e-06 1.02009e-06 1.25022e-08
-6.97956e-08 1.25022e-08 -2.92331e-05
0.00106383 2.54347e-06 9.79657e-07
2.54347e-06 2.89289e-05 8.98235e-07
9.79657e-07 8.98235e-07 -1.89584e-05
0.0023842 -1.42879e-05 -7.09698e-06
-1.42879e-05 0.000671504 -3.65888e-06
-7.09698e-06 -3.65888e-06 0.000692505
0.000934889 -9.62603e-06 -8.68726e-08
-9.62603e-06 -3.66425e-05 2.12575e-08
-8.68726e-08 2.12575e-08 -3.88807e-05
0.00100921 -5.82252e-06 1.37805e-06
-5.82252e-06 1.96689e-06 1.65727e-06
1.37805e-06 1.65727e-06 -2.77456e-05
0.00238504 -1.23635e-05 -2.30568e-07
-1.23635e-05 0.000667506 3.6067e-08
-2.30568e-07 3.6067e-08 0.00068927
0.000932087 -8.57777e-06 1.84731e-06
-8.57777e-06 -4.1036e-05 2.96423e-06
1.84731e-06 2.96423e-06 -4.24251e-05
0.00235556 -1.03906e-05 5.2343e-06
-1.03906e-05 0.000648704 3.77028e-06
5.2343e-06 3.77028e-06 0.000671502
0.000343597 6.06216e-06 6.18755e-05
6.06216e-06 -8.81991e-05 6.51941e-06
6.18755e-05 6.51941e-06 -0.000177617
0.00130947 -1.87118e-05 -5.09951e-07
-1.87118e-05 0.000579309 -1.10212e-06
-5.09951e-07 -1.10212e-06 0.000593456
0.000496951 -2.39014e-06 1.20815e-05
-2.39014e-06 7.02568e-05 1.82504e-06
1.20815e-05 1.82504e-06 -6.12504e-06
0.00111316 1.51961e-05 4.53319e-07
1.51961e-05 5.16091e-05 1.81518e-08
4.53319e-07 1.81518e-08 -1.02116e-05
0.00112283 2.04752e-05 4.14845e-07
2.04752e-05 5.481e-05 1.64749e-07
4.14845e-07 1.64749e-07 -8.82467e-06
0.00115793 1.7655e-05 8.73439e-08
1.7655e-05 7.64214e-05 5.76619e-08
8.73439e-08 5.76619e-08 1.55454e-05
0.00114456 1.98071e-05 5.9134e-08
1.98071e-05 7.31548e-05 4.13427e-07
5.9134e-08 4.13427e-07 1.20542e-05
0.0011362 2.09067e-05 -3.04138e-07
2.09067e-05 6.38857e-05 4.24802e-07
-3.04138e-07 4.24802e-07 -3.52748e-08
0.00116 2.07099e-05 1.37843e-07
2.07099e-05 7.36873e-05 -1.68725e-07
1.37843e-07 -1.68725e-07 6.99893e-06
0.00115402 2.04514e-05 3.90433e-07
2.04514e-05 6.95337e-05 -1.34012e-07
3.90433e-07 -1.34012e-07 4.84489e-06
0.00110059 2.1013e-05 -1.36606e-07
2.1013e-05 4.99971e-05 -4.64713e-08
-1.36606e-07 -4.64713e-08 -1.84753e-05
0.000955366 2.05666e-05 -4.10223e-09
2.05666e-05 -1.69387e-05 6.65422e-07
-4.10223e-09 6.65422e-07 -8.2892e-05
0.00110282 2.39061e-05 1.06539e-07
2.39061e-05 5.57307e-05 1.34775e-06
1.06539e-07 1.34775e-06 -1.38498e-05
0.00136127 3.04807e-05 8.88594e-07
3.04807e-05 0.000187243 -9.49308e-09
8.88594e-07 -9.49308e-09 0.000121168
0.00118038 2.20632e-05 -2.91591e-07
2.20632e-05 8.77767e-05 -3.65121e-08
-2.91591e-07 -3.65121e-08 2.10395e-05
0.00106843 2.05366e-05 -8.34323e-08
2.05366e-05 3.37182e-05 -6.27485e-07
-8.34323e-08 -6.27485e-07 -3.63167e-05
0.00687173 -1.82145e-06 -1.06204e-05
-1.82145e-06 0.00176641 1.30003e-06
-1.06204e-05 1.30003e-06 0.00134445
5.42468e-05 -6.5873e-05 9.6828e-06
-6.5873e-05 -0.000188905 3.34144e-06
9.6828e-06 3.34144e-06 -0.000247681
0.0019432 -3.5297e-05 2.82664e-06
-3.5297e-05 0.000903742 4.06807e-06
2.82664e-06 4.06807e-06 0.000952533
-0.00159073 -9.44774e-05 -3.08853e-05
-9.44774e-05 -0.00100933 -3.28033e-05
-3.08853e-05 -3.28033e-05 -0.00100154
0.0054231 -0.00012797 1.92949e-05
-0.00012797 0.000966366 4.87068e-05
1.92949e-05 4.87068e-05 0.000212691
0.000906886 4.00292e-05 2.55721e-07
4.00292e-05 0.000376662 -9.97022e-06
2.55721e-07 -9.97022e-06 0.000239868
0.00131032 6.86447e-05 -1.9185e-05
6.86447e-05 0.000227466 -2.07858e-05
-1.9185e-05 -2.07858e-05 1.26984e-05
0.00446047 -7.47736e-05 1.04425e-05
-7.47736e-05 0.00100025 1.25036e-05
1.04425e-05 1.25036e-05 0.000566697
0.000959052 4.5971e-05 -3.75212e-05
4.5971e-05 -6.71847e-05 -3.29646e-05
-3.75212e-05 -3.29646e-05 -0.00027054
0.00139289 4.8301e-05 1.08314e-05
4.8301e-05 0.000201279 -1.07878e-06
1.08314e-05 -1.07878e-06 9.83108e-05
0.00113477 3.88171e-05 -1.6202e-06
3.88171e-05 0.00013626 -2.16166e-06
-1.6202e-06 -2.16166e-06 5.56828e-05
0.000912354 2.63256e-05 1.24368e-06
2.63256e-05 -2.16107e-05 -1.41218e-06
1.24368e-06 -1.41218e-06 -8.61293e-05
0.00221207 6.09453e-05 -6.89862e-06
6.09453e-05 0.000684385 -7.71469e-06
-6.89862e-06 -7.71469e-06 0.000619724
0.00013097 5.83373e-05 -3.34195e-06
5.83373e-05 -0.000392376 -1.36919e-06
-3.34195e-06 -1.36919e-06 -0.000434514
0.00126391 6.17205e-05 -3.24218e-06
6.17205e-05 -0.000502211 -4.55855e-06
-3.24218e-06 -4.55855e-06 -0.000707366
0.0014819 1.01479e-05 5.96483e-07
1.01479e-05 0.0004673 4.04756e-06
5.96483e-07 4.04756e-06 0.000447926
-0.00122442 -2.24476e-06 3.28307e-06
-2.24476e-06 -0.000940664 -1.05116e-08
3.28307e-06 -1.05116e-08 -0.000960462
0.000603649 -2.596e-05 -1.29226e-05
-2.596e-05 -0.000187033 8.2306e-06
-1.29226e-05 8.2306e-06 -0.000247476
0.00239912 -5.6208e-05 2.4155e-05
-5.6208e-05 0.000702432 -2.01672e-05
2.4155e-05 -2.01672e-05 0.000287175
0.00047078 8.58479e-06 -8.46153e-05
8.58479e-06 -3.85274e-06 1.72271e-05
-8.46153e-05 1.72271e-05 -8.53334e-05
0.0046272 1.5558e-05 -2.20625e-07
1.5558e-05 0.00141658 3.05338e-06
-2.20625e-07 3.05338e-06 0.000927505
0.00172079 -2.98589e-05 1.69907e-06
-2.98589e-05 -0.000107741 -4.80649e-07
1.69907e-06 -4.80649e-07 -6.08153e-05
0.00319958 1.74736e-05 1.54597e-05
1.74736e-05 0.00061199 -1.16073e-06
1.54597e-05 -1.16073e-06 0.000285804
0.00198861 -1.87756e-05 2.12879e-05
-1.87756e-05 0.000408977 -7.97395e-06
2.12879e-05 -7.97395e-06 0.000112394
0.00228043 -1.00601e-05 4.14612e-07
-1.00601e-05 5.45502e-05 -7.11081e-06
4.14612e-07 -7.11081e-06 0.000157352
0.000836757 2.99695e-05 -1.57117e-05
2.99695e-05 0.000239528 1.1444e-05
-1.57117e-05 1.1444e-05 0.000109849
0.000952983 -5.6651e-05 5.18986e-06
-5.6651e-05 -2.20664e-05 -2.08691e-06
5.18986e-06 -2.08691e-06 -0.000124288
0.00133621 -5.63586e-05 -2.41908e-06
-5.63586e-05 -1.08352e-05 8.39806e-07
-2.41908e-06 8.39806e-07 -3.78321e-05
0.00156718 -2.45778e-05 7.68847e-08
-2.45778e-05 4.01418e-05 2.52642e-06
7.68847e-08 2.52642e-06 4.65313e-05
0.00076996 -3.63049e-05 3.36328e-06
-3.63049e-05 -0.000232549 3.22483e-06
3.36328e-06 3.22483e-06 -0.000287795
0.00127674 -2.6905e-05 6.27006e-07
-2.6905e-05 -2.67605e-05 1.41226e-06
6.27006e-07 1.41226e-06 -4.48882e-05
0.00136659 -1.31911e-05 2.8549e-06
-1.31911e-05 1.71533e-05 1.21318e-06
2.8549e-06 1.21318e-06 5.30786e-06
0.00109096 -2.46612e-05 7.65774e-07
-2.46612e-05 -4.72594e-05 2.72197e-06
7.65774e-07 2.72197e-06 -9.59507e-05
0.00127465 -1.97283e-05 3.79863e-07
-1.97283e-05 1.5483e-05 1.05387e-06
3.79863e-07 1.05387e-06 -1.76783e-05
0.00123755 -1.24819e-05 2.18038e-06
-1.24819e-05 7.11305e-06 5.11146e-07
2.18038e-06 5.11146e-07 -2.8422e-05
0.00121766 -2.15902e-05 5.18356e-07
-2.15902e-05 2.12874e-05 2.32182e-06
5.18356e-07 2.32182e-06 -2.97635e-05
0.00126564 -1.80548e-05 1.53759e-07
-1.80548e-05 4.04628e-05 5.79737e-07
1.53759e-07 5.79737e-07 -4.26241e-06
0.00123521 -1.44133e-05 8.64421e-07
-1.44133e-05 3.38163e-05 1.38811e-07
8.64421e-07 1.38811e-07 -1.34751e-05
0.00123714 -1.77745e-05 -4.97553e-07
-1.77745e-05 4.43614e-05 3.80093e-07
-4.97553e-07 3.80093e-07 -4.82837e-06
0.0012943 -1.86399e-05 6.72697e-07
-1.86399e-05 7.80276e-05 -6.99605e-07
6.72697e-07 -6.99605e-07 2.44619e-05
0.00126198 -1.9903e-05 1.41602e-07
-1.9903e-05 5.59013e-05 1.94284e-06
1.41602e-07 1.94284e-06 4.21863e-06
0.00126907 -2.12025e-05 2.19523e-08
-2.12025e-05 7.01975e-05 -2.35531e-07
2.19523e-08 -2.35531e-07 1.4041e-05
0.00126396 -2.08343e-05 -1.0746e-07
-2.08343e-05 7.4367e-05 -6.78071e-07
-1.0746e-07 -6.78071e-07 1.64342e-05
0.00106683 -2.01995e-05 -1.02881e-06
-2.01995e-05 2.33309e-06 3.04336e-07
-1.02881e-06 3.04336e-07 -5.76172e-05
0.00124785 -2.3209e-05 2.8717e-08
-2.3209e-05 7.90288e-05 -1.32944e-07
2.8717e-08 -1.32944e-07 1.62948e-05
0.00128613 -2.45447e-05 8.31987e-07
-2.45447e-05 9.13473e-05 6.27779e-07
8.31987e-07 6.27779e-07 2.69352e-05
0.00106785 -1.14977e-05 -9.98992e-07
-1.14977e-05 3.50674e-05 7.43116e-07
-9.98992e-07 7.43116e-07 -1.79821e-05
0.00106159 -2.11101e-05 -2.0536e-07
-2.11101e-05 1.82812e-05 2.65644e-07
-2.0536e-07 2.65644e-07 -4.20149e-05
0.00126881 -2.46191e-05 7.29894e-07
-2.46191e-05 0.000111232 -5.61344e-07
7.29894e-07 -5.61344e-07 4.60663e-05
0.00095595 1.23448e-05 -2.11893e-06
1.23448e-05 -1.90792e-06 1.33115e-06
-2.11893e-06 1.33115e-06 -3.8273e-05
0.00106091 -6.20302e-06 -4.42173e-08
-6.20302e-06 3.72353e-05 -4.31427e-10
-4.42173e-08 -4.31427e-10 -1.38447e-05
0.0011393 -1.99945e-05 5.7322e-07
-1.99945e-05 6.52347e-05 -6.61869e-07
5.7322e-07 -6.61869e-07 6.87013e-06
0.000865882 1.57874e-05 -3.59382e-06
1.57874e-05 -4.65439e-05 2.34325e-06
-3.59382e-06 2.34325e-06 -5.2773e-05
0.000979315 1.26584e-05 3.75991e-08
1.26584e-05 5.81187e-06 9.74946e-09
3.75991e-08 9.74946e-09 -2.78878e-05
0.00106324 -3.64655e-06 1.11476e-06
-3.64655e-06 3.85927e-05 -6.35407e-07
1.11476e-06 -6.35407e-07 -1.08335e-05
0.00241994 2.21471e-05 -8.28641e-06
2.21471e-05 0.000708257 3.11726e-06
-8.28641e-06 3.11726e-06 0.000726218
0.000905863 1.48876e-05 5.18479e-08
1.48876e-05 -3.31224e-05 1.70373e-08
5.18479e-08 1.70373e-08 -3.77125e-05
0.00100566 1.21374e-05 2.02986e-06
1.21374e-05 1.5196e-05 -1.422e-06
2.02986e-06 -1.422e-06 -1.66094e-05
0.00236206 2.01653e-05 1.24343e-07
2.01653e-05 0.000674529 4.90866e-08
1.24343e-07 4.90866e-08 0.000693665
0.000932751 1.3718e-05 3.26293e-06
1.3718e-05 -2.5758e-05 -2.50837e-06
3.26293e-06 -2.50837e-06 -2.90629e-05
0.00232513 1.82075e-05 7.76624e-06
1.82075e-05 0.000651573 -3.34167e-06
7.76624e-06 -3.34167e-06 0.000671663
0.00106903 9.77941e-06 -3.19766e-07
9.77941e-06 3.89502e-05 2.02963e-07
-3.19766e-07 2.02963e-07 -1.96374e-05
0.00114636 6.30579e-06 8.91603e-08
6.30579e-06 7.41282e-05 1.46615e-07
8.91603e-08 1.46615e-07 1.67599e-05
0.000953087 -5.75914e-06 -1.28735e-06
-5.75914e-06 -1.65702e-05 -7.19866e-07
-1.28735e-06 -7.19866e-07 -6.7458e-05
0.00104166 2.99689e-06 6.63141e-07
2.99689e-06 1.98812e-05 3.83594e-07
6.63141e-07 3.83594e-07 -3.81671e-05
0.00100273 -4.5342e-06 1.41086e-09
-4.5342e-06 4.02363e-06 4.10472e-08
1.41086e-09 4.10472e-08 -4.54417e-05
0.00100586 -1.02119e-05 -1.98642e-06
-1.02119e-05 8.55355e-06 -1.37493e-06
-1.98642e-06 -1.37493e-06 -2.34456e-05
0.00105358 -8.23826e-07 1.11903e-06
-8.23826e-07 2.58569e-05 7.88401e-07
1.11903e-06 7.88401e-07 -2.23938e-05
0.001001 -8.23233e-06 -4.20398e-08
-8.23233e-06 2.08481e-06 1.8433e-08
-4.20398e-08 1.8433e-08 -2.87951e-05
0.000931279 -1.20454e-05 -3.07222e-06
-1.20454e-05 -3.14311e-05 -2.60079e-06
-3.07222e-06 -2.60079e-06 -3.49459e-05
0.00238215 -1.62047e-05 -7.55527e-06
-1.62047e-05 0.00067462 -3.53233e-06
-7.55527e-06 -3.53233e-06 0.000694979
0.000926504 -1.07545e-05 -7.65619e-08
-1.07545e-05 -3.75095e-05 2.81889e-08
-7.65619e-08 2.81889e-08 -4.03136e-05
0.00100212 -6.75767e-06 1.61322e-06
-6.75767e-06 -1.12068e-08 1.61247e-06
1.61322e-06 1.61247e-06 -3.02191e-05
0.00240971 -1.42788e-05 -1.88609e-07
-1.42788e-05 0.000683543 4.01899e-08
-1.88609e-07 4.01899e-08 0.000704499
0.000923798 -9.60766e-06 2.23481e-06
-9.60766e-06 -4.20122e-05 2.88275e-06
2.23481e-06 2.88275e-06 -4.4195e-05
0.00240068 -1.23588e-05 6.0946e-06
-1.23588e-05 0.000674697 3.74815e-06
6.0946e-06 3.74815e-06 0.00069649
0.00578726 3.87335e-05 4.24156e-06
3.87335e-05 0.0017193 1.23917e-06
4.24156e-06 1.23917e-06 0.00144422
-0.00124494 -6.49272e-06 1.30049e-05
-6.49272e-06 -0.000457363 1.22123e-06
1.30049e-05 1.22123e-06 -0.000434596
0.000474129 -1.7421e-05 7.44862e-06
-1.7421e-05 9.64722e-05 2.25755e-06
7.44862e-06 2.25755e-06 0.000106475
0.00112087 2.04076e-05 6.58271e-07
2.04076e-05 5.43708e-05 -2.20055e-07
6.58271e-07 -2.20055e-07 -9.29517e-06
0.0011554 1.80735e-05 3.2003e-07
1.80735e-05 7.56884e-05 -2.45646e-07
3.2003e-07 -2.45646e-07 1.49929e-05
0.00116092 2.115e-05 -1.40295e-08
2.115e-05 7.60254e-05 2.4177e-10
-1.40295e-08 2.4177e-10 1.22451e-05
0.00115199 2.02371e-05 1.18717e-08
2.02371e-05 7.65664e-05 -1.87405e-08
1.18717e-08 -1.87405e-08 1.55732e-05
0.00116858 2.07993e-05 5.58784e-07
2.07993e-05 8.97483e-05 4.29649e-07
5.58784e-07 4.29649e-07 2.74731e-05
0.00107787 2.09372e-05 -2.36374e-07
2.09372e-05 4.11574e-05 6.12878e-07
-2.36374e-07 6.12878e-07 -2.244e-05
0.00104272 2.0546e-05 1.00132e-07
2.0546e-05 2.2223e-05 -4.51015e-07
1.00132e-07 -4.51015e-07 -4.61714e-05
0.00105466 2.12419e-05 3.95202e-07
2.12419e-05 3.02559e-05 -6.41417e-08
3.95202e-07 -6.41417e-08 -3.5766e-05
0.00106019 2.35636e-05 4.67292e-07
2.35636e-05 3.97251e-05 -1.2195e-07
4.67292e-07 -1.2195e-07 -2.96018e-05
0.000889785 2.34426e-05 6.75938e-07
2.34426e-05 -4.38628e-05 4.45183e-07
6.75938e-07 4.45183e-07 -0.000110217
0.00179986 3.34328e-05 1.13133e-06
3.34328e-05 0.000375686 9.06191e-07
1.13133e-06 9.06191e-07 0.000309348
0.0013417 4.2147e-05 1.1286e-06
4.2147e-05 0.00013683 -2.48448e-06
1.1286e-06 -2.48448e-06 4.88088e-05
0.00114936 2.8519e-05 2.58921e-08
2.8519e-05 8.49052e-05 4.21931e-07
2.58921e-08 4.21931e-07 1.85532e-05
0.00109631 2.18649e-05 -7.38905e-07
2.18649e-05 4.86534e-05 -1.89927e-06
-7.38905e-07 -1.89927e-06 -1.93717e-05
0.000795904 -2.84195e-06 -2.36031e-05
-2.84195e-06 0.000126496 -8.91437e-06
-2.36031e-05 -8.91437e-06 8.15217e-05
0.00291261 -1.01411e-05 -1.76399e-05
-1.01411e-05 0.000303007 -2.06604e-06
-1.76399e-05 -2.06604e-06 -2.02095e-05
0.00146493 -7.31858e-05 -1.9563e-05
-7.31858e-05 0.000603035 -8.82436e-06
-1.9563e-05 -8.82436e-06 0.000524065
0.0029143 -3.25858e-05 2.45935e-05
-3.25858e-05 0.000128496 -7.76686e-07
2.45935e-05 -7.76686e-07 -0.00039442
0.00191025 6.70615e-05 1.08691e-05
6.70615e-05 0.000667502 2.36314e-05
1.08691e-05 2.36314e-05 0.000554391
0.000489906 3.67947e-05 -7.29095e-06
3.67947e-05 -0.00010725 -1.63629e-06
-7.29095e-06 -1.63629e-06 -0.000195205
0.00101337 1.19741e-05 1.53789e-05
1.19741e-05 -0.000161984 7.26158e-06
1.53789e-05 7.26158e-06 -0.000237699
0.000797794 4.86789e-05 6.36375e-07
4.86789e-05 -9.42716e-05 2.77571e-06
6.36375e-07 2.77571e-06 -0.000194971
0.000618223 3.46939e-05 -6.75184e-07
3.46939e-05 -0.000100236 3.19471e-07
-6.75184e-07 3.19471e-07 -0.00018382
0.00119268 6.94654e-05 -1.73707e-05
6.94654e-05 -1.44876e-06 -1.69609e-05
-1.73707e-05 -1.69609e-05 -2.96914e-05
0.000895435 2.08426e-05 -7.14529e-05
2.08426e-05 -9.627e-05 -5.73841e-06
-7.14529e-05 -5.73841e-06 -0.000253765
0.00509911 5.14606e-05 1.74322e-05
5.14606e-05 0.00146952 -2.51452e-06
1.74322e-05 -2.51452e-06 0.00123045
-0.0038981 2.39932e-06 -5.43975e-05
2.39932e-06 -0.00201857 2.12221e-06
-5.43975e-05 2.12221e-06 -0.00194271
0.00180792 -2.49632e-05 -7.71795e-06
-2.49632e-05 -6.32198e-05 5.63289e-06
-7.71795e-06 5.63289e-06 -1.39611e-05
0.000340995 1.28354e-05 2.07596e-05
1.28354e-05 4.10665e-05 -1.10888e-05
2.07596e-05 -1.10888e-05 -0.000162401
0.000723 -2.09607e-05 1.25816e-05
-2.09607e-05 -0.000211755 2.382e-06
1.25816e-05 2.382e-06 -0.000475698
0.0018955 -1.8261e-05 -2.66982e-06
-1.8261e-05 -9.51221e-05 1.47989e-06
-2.66982e-06 1.47989e-06 -1.00794e-05
0.0010161 4.19963e-05 3.97517e-06
4.19963e-05 0.00012336 -1.81687e-06
3.97517e-06 -1.81687e-06 -2.39684e-06
0.00233913 2.12983e-05 7.32644e-06
2.12983e-05 0.000281296 -5.39629e-06
7.32644e-06 -5.39629e-06 0.000332802
0.000835406 3.99108e-05 3.25953e-06
3.99108e-05 -9.61601e-06 -3.83858e-06
3.25953e-06 -3.83858e-06 -7.55086e-05
0.00112442 -5.4023e-05 4.06843e-06
-5.4023e-05 -0.000107012 1.1849e-06
4.06843e-06 1.1849e-06 -0.000129163
0.00141121 -2.33077e-05 3.27299e-06
-2.33077e-05 -2.75359e-05 4.43877e-07
3.27299e-06 4.43877e-07 -1.93507e-05
0.00138426 7.66455e-06 1.72722e-06
7.66455e-06 1.01843e-05 2.92028e-06
1.72722e-06 2.92028e-06 -3.77991e-06
0.000965476 -2.61083e-05 2.2649e-06
-2.61083e-05 -0.000172496 3.25082e-06
2.2649e-06 3.25082e-06 -0.000191053
0.00135761 -1.3552e-05 6.49526e-07
-1.3552e-05 2.10086e-05 8.95396e-07
6.49526e-07 8.95396e-07 6.32979e-06
0.00136075 -1.05128e-06 2.12995e-06
-1.05128e-06 5.12811e-05 1.52529e-06
2.12995e-06 1.52529e-06 1.65881e-05
0.00127798 -1.98686e-05 -2.06522e-07
-1.98686e-05 1.8787e-05 2.60849e-06
-2.06522e-07 2.60849e-06 -1.53183e-05
0.00130168 -1.28899e-05 4.90266e-08
-1.28899e-05 4.01419e-05 5.0065e-07
4.90266e-08 5.0065e-07 3.42917e-06
0.00130091 -7.68285e-06 1.08278e-06
-7.68285e-06 4.99012e-05 5.2769e-07
1.08278e-06 5.2769e-07 2.23195e-06
0.00132399 -1.86929e-05 -6.57907e-07
-1.86929e-05 6.88142e-05 1.38106e-06
-6.57907e-07 1.38106e-06 2.34082e-05
0.00125064 -1.52996e-05 -2.86466e-07
-1.52996e-05 4.33072e-05 -2.1322e-08
-2.86466e-07 -2.1322e-08 -4.18257e-06
0.00124403 -1.58807e-05 1.02617e-06
-1.58807e-05 4.89497e-05 1.39874e-07
1.02617e-06 1.39874e-07 -5.40427e-06
0.00120066 -1.80971e-05 -8.98968e-07
-1.80971e-05 2.74949e-05 8.28331e-07
-8.98968e-07 8.28331e-07 -2.09719e-05
0.001241 -1.80872e-05 -2.76074e-07
-1.80872e-05 5.21125e-05 -2.46147e-07
-2.76074e-07 -2.46147e-07 -7.67605e-07
0.0012871 -1.90451e-05 3.26164e-07
-1.90451e-05 8.0778e-05 -4.3897e-07
3.26164e-07 -4.3897e-07 2.40483e-05
0.00127725 -2.113e-05 1.09834e-07
-2.113e-05 7.33284e-05 9.31886e-07
1.09834e-07 9.31886e-07 1.71212e-05
0.00125915 -2.07572e-05 6.82003e-08
-2.07572e-05 7.19029e-05 -2.04118e-07
6.82003e-08 -2.04118e-07 1.38468e-05
0.00124514 -1.93934e-05 -3.7588e-07
-1.93934e-05 7.57227e-05 -2.35429e-07
-3.7588e-07 -2.35429e-07 1.84383e-05
0.000956239 -1.28011e-05 -1.45451e-06
-1.28011e-05 -3.18213e-05 7.47132e-07
-1.45451e-06 7.47132e-07 -8.65406e-05
0.00113088 -2.07296e-05 -2.00655e-07
-2.07296e-05 3.45718e-05 1.26544e-07
-2.00655e-07 1.26544e-07 -2.51478e-05
0.00124141 -2.31884e-05 7.00894e-07
-2.31884e-05 7.66661e-05 -1.40373e-08
7.00894e-07 -1.40373e-08 1.36565e-05
0.00097127 7.78942e-06 -2.07687e-06
7.78942e-06 6.4506e-06 1.34833e-06
-2.07687e-06 1.34833e-06 -3.3365e-05
0.00107276 -1.05869e-05 1.88136e-08
-1.05869e-05 3.73381e-05 6.1846e-08
1.88136e-08 6.1846e-08 -1.5677e-05
0.00113137 -2.16527e-05 5.11951e-07
-2.16527e-05 5.27041e-05 -3.33003e-07
5.11951e-07 -3.33003e-07 -7.28391e-06
0.000845969 1.65306e-05 -3.84797e-06
1.65306e-05 -4.96881e-05 2.20636e-06
-3.84797e-06 2.20636e-06 -5.81028e-05
0.000978844 1.08726e-05 2.04271e-08
1.08726e-05 8.06777e-06 -3.21315e-08
2.04271e-08 -3.21315e-08 -2.82102e-05
0.00107702 -6.63737e-06 1.03857e-06
-6.63737e-06 4.40676e-05 -7.53685e-07
1.03857e-06 -7.53685e-07 -6.96163e-06
0.00244662 2.40159e-05 -8.56779e-06
2.40159e-05 0.000728362 2.98149e-06
-8.56779e-06 2.98149e-06 0.000744936
0.000894488 1.58369e-05 6.41526e-08
1.58369e-05 -3.28723e-05 2.84225e-08
6.41526e-08 2.84225e-08 -3.92382e-05
0.000998323 1.25017e-05 2.08767e-06
1.25017e-05 1.46449e-05 -1.30374e-06
2.08767e-06 -1.30374e-06 -1.90433e-05
0.00236881 2.20719e-05 1.3071e-07
2.20719e-05 0.000684317 5.58442e-08
1.3071e-07 5.58442e-08 0.000702308
0.000931283 1.49333e-05 3.49932e-06
1.49333e-05 -2.08827e-05 -2.39735e-06
3.49932e-06 -2.39735e-06 -2.56012e-05
0.00231162 2.01268e-05 8.02642e-06
2.01268e-05 0.000650755 -3.2116e-06
8.02642e-06 -3.2116e-06 0.000669977
0.0011185 1.39818e-05 -3.60834e-07
1.39818e-05 6.51298e-05 -6.14657e-08
-3.60834e-07 -6.14657e-08 5.95257e-06
0.00114209 1.07367e-05 3.44443e-08
1.07367e-05 7.42096e-05 4.41017e-08
3.44443e-08 4.41017e-08 1.60974e-05
0.00095826 -3.9608e-06 -1.1159e-06
-3.9608e-06 -9.60371e-06 -5.28073e-07
-1.1159e-06 -5.28073e-07 -6.19432e-05
0.00113906 6.80121e-06 4.80672e-07
6.80121e-06 7.10181e-05 5.66643e-08
4.80672e-07 5.66643e-08 1.36578e-05
0.000948178 -5.78278e-06 -1.72874e-07
-5.78278e-06 -1.79896e-05 -1.94129e-07
-1.72874e-07 -1.94129e-07 -6.90901e-05
0.000998855 -1.19833e-05 -2.04447e-06
-1.19833e-05 1.03174e-05 -1.23998e-06
-2.04447e-06 -1.23998e-06 -2.32851e-05
0.000940896 -5.19634e-06 1.09501e-06
-5.19634e-06 -2.56538e-05 7.15939e-07
1.09501e-06 7.15939e-07 -7.56759e-05
0.000995327 -9.98565e-06 -1.80933e-08
-9.98565e-06 3.37204e-06 1.98664e-08
-1.80933e-08 1.98664e-08 -2.85784e-05
0.000927062 -1.34059e-05 -3.29798e-06
-1.34059e-05 -2.89289e-05 -2.46248e-06
-3.29798e-06 -2.46248e-06 -3.34239e-05
0.000994599 -8.02773e-06 1.84588e-06
-8.02773e-06 -1.20963e-06 1.53341e-06
1.84588e-06 1.53341e-06 -3.20398e-05
0.000918852 -1.20003e-05 -6.09982e-08
-1.20003e-05 -3.76427e-05 3.17446e-08
-6.09982e-08 3.17446e-08 -4.10648e-05
0.00237141 -1.81459e-05 -7.8731e-06
-1.81459e-05 0.000674035 -3.38764e-06
-7.8731e-06 -3.38764e-06 0.000693696
0.00241922 -1.62008e-05 -1.62107e-07
-1.62008e-05 0.000692277 4.50748e-08
-1.62107e-07 4.50748e-08 0.000712535
0.000915418 -1.0724e-05 2.58386e-06
-1.0724e-05 -4.29881e-05 2.78196e-06
2.58386e-06 2.78196e-06 -4.57202e-05
0.00243572 -1.42772e-05 6.86374e-06
-1.42772e-05 0.000695828 3.69226e-06
6.86374e-06 3.69226e-06 0.000716735
0.000534338 -1.50405e-05 -3.14299e-05
-1.50405e-05 -4.49243e-05 -6.5112e-06
-3.14299e-05 -6.5112e-06 -8.58891e-05
0.00151123 4.09887e-05 -1.33015e-05
4.09887e-05 -0.00037186 -4.61956e-06
-1.33015e-05 -4.61956e-06 -0.000625997
0.00247669 -5.14701e-05 -1.71221e-05
-5.14701e-05 0.000977562 -3.98673e-06
-1.71221e-05 -3.98673e-06 0.000958362
0.00119367 2.26207e-05 1.12615e-06
2.26207e-05 9.78326e-05 4.92691e-07
1.12615e-06 4.92691e-07 3.44782e-05
0.00118324 2.13711e-05 2.8739e-07
2.13711e-05 8.71145e-05 -4.14617e-07
2.8739e-07 -4.14617e-07 2.34686e-05
0.00115633 2.05617e-05 1.84259e-07
2.05617e-05 7.84836e-05 -3.24362e-07
1.84259e-07 -3.24362e-07 1.76072e-05
0.00113171 2.14279e-05 1.69473e-08
2.14279e-05 6.67803e-05 -1.66035e-08
1.69473e-08 -1.66035e-08 3.0863e-06
0.00113289 2.09257e-05 -1.68576e-07
2.09257e-05 7.36426e-05 -2.11004e-07
-1.68576e-07 -2.11004e-07 1.11714e-05
0.000999842 2.23354e-05 -2.20041e-07
2.23354e-05 1.15827e-05 6.5096e-07
-2.20041e-07 6.5096e-07 -5.10855e-05
0.0011767 2.21278e-05 6.05407e-07
2.21278e-05 8.82145e-05 -7.62632e-07
6.05407e-07 -7.62632e-07 2.20984e-05
0.00103389 2.33938e-05 -5.66965e-07
2.33938e-05 3.16026e-05 -1.7091e-06
-5.66965e-07 -1.7091e-06 -3.7505e-05
0.00110423 2.51477e-05 -9.89685e-08
2.51477e-05 5.66191e-05 -5.65824e-09
-9.89685e-08 -5.65824e-09 -9.62609e-06
0.00141364 3.0182e-05 4.6176e-08
3.0182e-05 0.000205901 -4.17217e-08
4.6176e-08 -4.17217e-08 0.000141278
0.00126556 3.48091e-05 1.35555e-06
3.48091e-05 0.000103896 -1.67174e-06
1.35555e-06 -1.67174e-06 2.92062e-05
0.00150172 4.03289e-05 -4.86701e-06
4.03289e-05 0.000107219 -1.43548e-06
-4.86701e-06 -1.43548e-06 9.14913e-06
0.00118402 3.98975e-05 1.9141e-06
3.98975e-05 7.00009e-05 1.96518e-06
1.9141e-06 1.96518e-06 -1.55391e-05
0.000974077 2.6833e-05 -1.45029e-06
2.6833e-05 -5.90522e-07 6.62493e-07
-1.45029e-06 6.62493e-07 -6.7213e-05
0.00113195 -3.87007e-05 7.29867e-06
-3.87007e-05 -0.000297381 8.18025e-06
7.29867e-06 8.18025e-06 -0.00034474
0.000658787 1.11713e-05 1.92271e-06
1.11713e-05 -0.00015327 8.85131e-07
1.92271e-06 8.85131e-07 -0.000238211
0.000775646 -1.26765e-05 -3.1028e-05
-1.26765e-05 -0.000385258 -2.26651e-05
-3.1028e-05 -2.26651e-05 -0.000638362
0.00227357 6.7823e-05 1.18523e-05
6.7823e-05 0.000321437 2.52163e-05
1.18523e-05 2.52163e-05 0.000150596
0.00159607 1.96448e-05 6.31121e-06
1.96448e-05 5.35517e-05 1.64527e-06
6.31121e-06 1.64527e-06 -4.29522e-05
0.000139869 4.88084e-05 -2.4394e-07
4.88084e-05 -0.000422361 8.27605e-06
-2.4394e-07 8.27605e-06 -0.000520287
0.00159777 -7.20993e-06 8.65693e-06
-7.20993e-06 0.000473489 -4.95654e-06
8.65693e-06 -4.95654e-06 0.000431535
0.000208997 9.32278e-06 -1.3069e-05
9.32278e-06 -2.97467e-05 -3.77722e-07
-1.3069e-05 -3.77722e-07 -0.000106975
0.000811962 9.39508e-05 4.2133e-05
9.39508e-05 -0.000750983 -4.38538e-06
4.2133e-05 -4.38538e-06 -0.00095992
0.00144384 -2.80791e-05 5.00198e-07
-2.80791e-05 -0.000277682 3.55499e-06
5.00198e-07 3.55499e-06 -0.000206639
0.00088626 2.9147e-05 2.88857e-05
2.9147e-05 -0.000114659 -8.72159e-06
2.88857e-05 -8.72159e-06 -0.000284421
0.00179887 1.00775e-05 3.22668e-06
1.00775e-05 3.31623e-05 7.49882e-07
3.22668e-06 7.49882e-07 6.99e-05
0.000967687 4.27067e-05 1.05074e-06
4.27067e-05 5.48614e-05 -2.33539e-06
1.05074e-06 -2.33539e-06 -1.19804e-05
0.00136605 3.86376e-05 -1.23479e-06
3.86376e-05 2.45994e-05 1.9607e-06
-1.23479e-06 1.9607e-06 -3.27571e-05
0.000392022 2.71608e-05 -1.23978e-06
2.71608e-05 -0.000338049 -3.95901e-06
-1.23978e-06 -3.95901e-06 -0.000414942
0.00139513 -2.19523e-05 3.16355e-06
-2.19523e-05 -2.90186e-05 1.21231e-06
3.16355e-06 1.21231e-06 -1.79274e-05
0.00147021 6.73599e-06 2.63504e-08
6.73599e-06 6.13194e-05 -9.2675e-08
2.63504e-08 -9.2675e-08 4.34818e-05
0.00147309 1.88146e-05 5.29806e-07
1.88146e-05 0.00012049 1.00419e-06
5.29806e-07 1.00419e-06 6.91265e-05
0.00141254 -1.37993e-05 -1.75239e-06
-1.37993e-05 5.56966e-05 8.23731e-07
-1.75239e-06 8.23731e-07 3.84325e-05
0.00139836 -1.10587e-06 -2.93796e-07
-1.10587e-06 7.24704e-05 -2.61455e-07
-2.93796e-07 -2.61455e-07 3.68773e-05
0.00138398 4.49609e-06 1.34393e-06
4.49609e-06 7.80467e-05 1.09957e-06
1.34393e-06 1.09957e-06 2.59337e-05
0.00136543 -1.32944e-05 -2.06782e-06
-1.32944e-05 7.30286e-05 4.0741e-07
-2.06782e-06 4.0741e-07 3.51371e-05
0.00130211 -8.65742e-06 -6.54055e-07
-8.65742e-06 5.42564e-05 -3.91342e-07
-6.54055e-07 -3.91342e-07 6.72936e-06
0.00126468 -1.04816e-05 7.74123e-07
-1.04816e-05 4.60004e-05 7.55596e-07
7.74123e-07 7.55596e-07 -1.21896e-05
0.001263 -1.61439e-05 -1.56842e-06
-1.61439e-05 5.13236e-05 -2.08703e-07
-1.56842e-06 -2.08703e-07 3.64475e-06
0.00124407 -1.56116e-05 4.11823e-08
-1.56116e-05 4.92285e-05 -1.90461e-07
4.11823e-08 -1.90461e-07 -5.11232e-06
0.00124343 -1.73538e-05 4.47244e-07
-1.73538e-05 5.58693e-05 7.27782e-08
4.47244e-07 7.27782e-08 -2.47992e-06
0.00118682 -1.75833e-05 -9.57222e-07
-1.75833e-05 2.57749e-05 4.70121e-07
-9.57222e-07 4.70121e-07 -2.64179e-05
0.00122616 -1.82488e-05 -4.61415e-08
-1.82488e-05 5.07583e-05 -1.89667e-07
-4.61415e-08 -1.89667e-07 -5.55177e-06
0.00119047 -1.74503e-05 -2.56488e-07
-1.74503e-05 4.327e-05 -1.76331e-07
-2.56488e-07 -1.76331e-07 -1.40793e-05
0.0012556 -2.06865e-05 3.3161e-07
-2.06865e-05 7.00353e-05 3.89219e-07
3.3161e-07 3.89219e-07 1.1854e-05
0.00118117 -1.89323e-05 9.27867e-08
-1.89323e-05 4.4766e-05 -1.38379e-07
9.27867e-08 -1.38379e-07 -1.28334e-05
0.00113137 -1.3906e-05 -1.00635e-06
-1.3906e-05 3.95631e-05 3.01712e-07
-1.00635e-06 3.01712e-07 -1.481e-05
0.000991564 2.18367e-06 -2.26006e-06
2.18367e-06 1.2537e-05 1.23055e-06
-2.26006e-06 1.23055e-06 -3.05001e-05
0.00102797 -1.27644e-05 -3.19986e-07
-1.27644e-05 3.88024e-06 2.61142e-07
-3.19986e-07 2.61142e-07 -5.04583e-05
0.00119185 -2.12237e-05 5.84869e-07
-2.12237e-05 6.53721e-05 -1.31037e-07
5.84869e-07 -1.31037e-07 5.88517e-06
0.000820022 1.70425e-05 -4.04361e-06
1.70425e-05 -5.57625e-05 2.16183e-06
-4.04361e-06 2.16183e-06 -6.69849e-05
0.000985179 5.83437e-06 7.87795e-08
5.83437e-06 1.16296e-05 2.05186e-09
7.87795e-08 2.05186e-09 -2.8026e-05
0.00107922 -9.76765e-06 1.09165e-06
-9.76765e-06 4.03071e-05 -6.79665e-07
1.09165e-06 -6.79665e-07 -1.2672e-05
0.00248758 2.58047e-05 -8.87018e-06
2.58047e-05 0.000756224 2.83299e-06
-8.87018e-06 2.83299e-06 0.00077118
0.00088051 1.65895e-05 2.77248e-08
1.65895e-05 -3.32487e-05 3.65504e-09
2.77248e-08 3.65504e-09 -4.18386e-05
0.001001 9.49223e-06 2.12083e-06
9.49223e-06 1.77265e-05 -1.29881e-06
2.12083e-06 -1.29881e-06 -1.84749e-05
0.00239345 2.38973e-05 1.39805e-07
2.38973e-05 0.000703605 6.38482e-08
1.39805e-07 6.38482e-08 0.000720176
0.000922808 1.58829e-05 3.79084e-06
1.58829e-05 -1.9331e-05 -2.26035e-06
3.79084e-06 -2.26035e-06 -2.58339e-05
0.00231803 2.19904e-05 8.31782e-06
2.19904e-05 0.000660537 -3.09162e-06
8.31782e-06 -3.09162e-06 0.000678557
0.00106614 1.79755e-05 -2.46048e-07
1.79755e-05 3.81418e-05 -1.25329e-07
-2.46048e-07 -1.25329e-07 -2.22909e-05
0.00109827 1.41962e-05 -6.80349e-08
1.41962e-05 5.53795e-05 -1.26823e-07
-6.80349e-08 -1.26823e-07 -3.7236e-06
0.00106528 -2.08954e-07 -8.63872e-07
-2.08954e-07 4.44378e-05 -2.69255e-07
-8.63872e-07 -2.69255e-07 -8.68285e-06
0.00121615 1.18216e-05 3.13674e-07
1.18216e-05 0.000109968 -1.97841e-07
3.13674e-07 -1.97841e-07 5.2323e-05
0.00100049 -4.11236e-06 -1.49141e-07
-4.11236e-06 1.17157e-05 -1.60293e-07
-1.49141e-07 -1.60293e-07 -4.04535e-05
0.00099242 -1.34638e-05 -2.02655e-06
-1.34638e-05 1.25387e-05 -1.11891e-06
-2.02655e-06 -1.11891e-06 -2.31591e-05
0.000943267 -5.80775e-06 8.66286e-07
-5.80775e-06 -1.93983e-05 3.18265e-07
8.66286e-07 3.18265e-07 -7.07129e-05
0.000985895 -1.17563e-05 -2.12323e-08
-1.17563e-05 4.05951e-06 2.58708e-08
-2.12323e-08 2.58708e-08 -2.95089e-05
0.000921521 -1.47517e-05 -3.51459e-06
-1.47517e-05 -2.59642e-05 -2.3086e-06
-3.51459e-06 -2.3086e-06 -3.19284e-05
0.000984848 -9.75763e-06 1.98736e-06
-9.75763e-06 -1.78885e-06 1.43216e-06
1.98736e-06 1.43216e-06 -3.36903e-05
0.000910508 -1.33518e-05 -4.09176e-08
-1.33518e-05 -3.71268e-05 2.55759e-08
-4.09176e-08 2.55759e-08 -4.15058e-05
0.00236159 -2.00938e-05 -8.11477e-06
-2.00938e-05 0.00067494 -3.24333e-06
-8.11477e-06 -3.24333e-06 0.000693685
0.000906291 -1.19543e-05 2.90374e-06
-1.19543e-05 -4.39259e-05 2.66715e-06
2.90374e-06 2.66715e-06 -4.7254e-05
0.00241925 -1.81523e-05 -1.44812e-07
-1.81523e-05 0.000696784 5.03552e-08
-1.44812e-07 5.03552e-08 0.000716326
0.00245607 -1.62045e-05 7.45768e-06
-1.62045e-05 0.000709829 3.58756e-06
7.45768e-06 3.58756e-06 0.000729985
0.000936707 -5.69434e-05 9.39118e-06
-5.69434e-05 -0.000238799 5.3331e-07
9.39118e-06 5.3331e-07 -0.000247071
0.00108146 5.02926e-06 -6.36475e-06
5.02926e-06 -6.668e-05 4.27487e-06
-6.36475e-06 4.27487e-06 -0.000178507
0.00412184 4.01013e-05 -4.67314e-05
4.01013e-05 0.000953064 -1.76537e-05
-4.67314e-05 -1.76537e-05 0.000699109
0.000990322 2.20895e-05 7.95403e-07
2.20895e-05 1.41195e-06 5.64688e-07
7.95403e-07 5.64688e-07 -6.13355e-05
0.00128453 2.58384e-05 9.40723e-07
2.58384e-05 0.000120852 -2.8051e-07
9.40723e-07 -2.8051e-07 5.51882e-05
0.00104039 2.18443e-05 2.22861e-07
2.18443e-05 2.86348e-05 -1.29869e-09
2.22861e-07 -1.29869e-09 -3.48487e-05
0.00118337 2.19027e-05 1.29178e-07
2.19027e-05 9.11867e-05 -6.7228e-07
1.29178e-07 -6.7228e-07 2.74208e-05
0.00110478 2.11289e-05 -2.78767e-07
2.11289e-05 6.10352e-05 -4.16564e-07
-2.78767e-07 -4.16564e-07 -1.63126e-06
0.00110257 2.34065e-05 8.89028e-08
2.34065e-05 5.89703e-05 2.11034e-07
8.89028e-08 2.11034e-07 -3.88467e-06
0.00121788 3.12532e-05 1.37252e-07
3.12532e-05 7.16226e-05 -7.57232e-07
1.37252e-07 -7.57232e-07 -7.79495e-08
0.00130484 2.6753e-05 2.67159e-07
2.6753e-05 0.000150672 -4.28932e-07
2.67159e-07 -4.28932e-07 8.45365e-05
0.00103537 2.70002e-05 -3.12076e-06
2.70002e-05 3.96833e-05 -1.17187e-06
-3.12076e-06 -1.17187e-06 -2.32101e-05
0.00114606 3.40084e-05 5.41591e-08
3.40084e-05 4.71598e-05 -8.22515e-08
5.41591e-08 -8.22515e-08 -2.8168e-05
0.00118733 3.34234e-05 7.21208e-07
3.34234e-05 -2.35513e-05 -1.45596e-06
7.21208e-07 -1.45596e-06 -0.000111627
0.00156888 1.64568e-06 -2.51825e-06
1.64568e-06 9.78077e-05 3.84332e-06
-2.51825e-06 3.84332e-06 3.66869e-05
0.00156148 3.88494e-05 -2.0255e-06
3.88494e-05 0.000133738 6.0053e-07
-2.0255e-06 6.0053e-07 3.80927e-05
0.00103534 3.78336e-05 -3.28812e-07
3.78336e-05 7.43801e-06 4.92867e-06
-3.28812e-07 4.92867e-06 -7.55945e-05
0.00181838 -3.49886e-05 1.42608e-06
-3.49886e-05 2.90921e-05 -1.81738e-07
1.42608e-06 -1.81738e-07 -1.94348e-05
0.00127301 7.11531e-06 5.76656e-05
7.11531e-06 -2.88264e-05 1.4874e-05
5.76656e-05 1.4874e-05 -0.000154468
0.00228433 2.74824e-05 -6.09596e-06
2.74824e-05 0.000323249 -2.64794e-07
-6.09596e-06 -2.64794e-07 0.000205588
0.00126773 -4.10696e-07 3.91605e-07
-4.10696e-07 0.000110406 -3.09679e-06
3.91605e-07 -3.09679e-06 6.71525e-05
0.000863965 -1.30446e-05 3.45587e-06
-1.30446e-05 0.000105149 -1.05465e-06
3.45587e-06 -1.05465e-06 7.31925e-05
0.00103724 3.39613e-05 3.01144e-05
3.39613e-05 -7.37964e-05 3.63561e-06
3.01144e-05 3.63561e-06 -0.000174645
0.00144069 -1.65673e-06 5.28841e-06
-1.65673e-06 -0.000124298 -2.04164e-06
5.28841e-06 -2.04164e-06 -0.000108408
0.00101365 4.46525e-05 -4.47895e-06
4.46525e-05 8.34084e-05 -1.55919e-07
-4.47895e-06 -1.55919e-07 1.64993e-05
0.00151946 3.914e-05 -2.24143e-06
3.914e-05 9.37903e-05 7.47492e-07
-2.24143e-06 7.47492e-07 3.85445e-05
0.00104702 3.15311e-05 4.10659e-07
3.15311e-05 -2.11375e-05 1.37972e-06
4.10659e-07 1.37972e-06 -9.48649e-05
0.00127704 3.02365e-05 -1.16543e-06
3.02365e-05 6.46223e-05 -1.41323e-06
-1.16543e-06 -1.41323e-06 -6.31735e-06
0.00137446 2.69071e-05 -4.03997e-07
2.69071e-05 0.000173103 -1.90885e-06
-4.03997e-07 -1.90885e-06 0.000116677
0.0015307 5.63552e-06 -2.89724e-06
5.63552e-06 0.000100099 -2.11009e-06
-2.89724e-06 -2.11009e-06 7.78669e-05
0.00141273 1.78493e-05 -3.64076e-07
1.78493e-05 9.12017e-05 -1.23237e-06
-3.64076e-07 -1.23237e-06 4.08761e-05
0.00146153 2.24476e-05 3.0577e-09
2.24476e-05 0.000123274 3.67471e-07
3.0577e-09 3.67471e-07 5.96192e-05
0.00143004 -1.18826e-06 -3.44314e-06
-1.18826e-06 9.0582e-05 -1.09887e-06
-3.44314e-06 -1.09887e-06 5.41423e-05
0.00136001 4.47101e-06 -1.88326e-07
4.47101e-06 6.91841e-05 -2.94202e-07
-1.88326e-07 -2.94202e-07 1.67501e-05
0.00123092 3.47082e-06 4.97063e-07
3.47082e-06 1.7184e-05 9.64814e-07
4.97063e-07 9.64814e-07 -4.46351e-05
0.00130263 -9.54934e-06 -2.43731e-06
-9.54934e-06 5.81886e-05 -9.69094e-07
-2.43731e-06 -9.69094e-07 1.08189e-05
0.00127215 -9.96528e-06 9.8746e-08
-9.96528e-06 4.96781e-05 -1.26637e-07
9.8746e-08 -1.26637e-07 -8.49997e-06
0.0012587 -1.31116e-05 3.20388e-07
-1.31116e-05 5.23938e-05 5.22849e-07
3.20388e-07 5.22849e-07 -9.44131e-06
0.00124502 -1.53072e-05 -9.72286e-07
-1.53072e-05 4.99285e-05 -5.22576e-07
-9.72286e-07 -5.22576e-07 -4.39748e-06
0.00124203 -1.70136e-05 4.13742e-09
-1.70136e-05 5.488e-05 -1.38241e-07
4.13742e-09 -1.38241e-07 -3.43173e-06
0.00121976 -1.71214e-05 -1.15051e-07
-1.71214e-05 5.35442e-05 8.39646e-08
-1.15051e-07 8.39646e-08 -5.5585e-06
0.00116483 -1.75149e-05 -3.10057e-07
-1.75149e-05 2.05548e-05 1.9296e-07
-3.10057e-07 1.9296e-07 -3.5337e-05
0.00116074 -1.71318e-05 -9.00265e-08
-1.71318e-05 2.86935e-05 -8.1905e-08
-9.00265e-08 -8.1905e-08 -2.85661e-05
0.00115623 -1.34482e-05 -8.88973e-07
-1.34482e-05 4.41905e-05 1.54414e-07
-8.88973e-07 1.54414e-07 -1.06217e-05
0.00111628 -1.84848e-05 7.08691e-07
-1.84848e-05 1.34181e-05 -9.07864e-09
7.08691e-07 -9.07864e-09 -4.45014e-05
0.00105312 -1.28724e-05 -4.39151e-08
-1.28724e-05 2.69482e-06 3.74411e-08
-4.39151e-08 3.74411e-08 -5.18433e-05
0.00100694 -9.48995e-09 -2.35771e-06
-9.48995e-09 1.42481e-05 9.67727e-07
-2.35771e-06 9.67727e-07 -3.11605e-05
0.000847053 1.75649e-05 -4.32139e-06
1.75649e-05 -3.80278e-05 2.09267e-06
-4.32139e-06 2.09267e-06 -5.22273e-05
0.000992488 1.22769e-06 6.60903e-08
1.22769e-06 1.1422e-05 5.6442e-08
6.60903e-08 5.6442e-08 -3.14016e-05
0.00110127 -1.27662e-05 8.07872e-07
-1.27662e-05 4.02941e-05 -2.83307e-07
8.07872e-07 -2.83307e-07 -1.36635e-05
0.00255598 2.75651e-05 -9.15474e-06
2.75651e-05 0.000797569 2.68866e-06
-9.15474e-06 2.68866e-06 0.00081067
0.000862501 1.7117e-05 5.22155e-08
1.7117e-05 -3.54957e-05 -1.55387e-09
5.22155e-08 -1.55387e-09 -4.69437e-05
0.00100032 4.06922e-06 2.21138e-06
4.06922e-06 1.74125e-05 -1.24193e-06
2.21138e-06 -1.24193e-06 -2.20848e-05
0.00243728 2.56666e-05 1.22437e-07
2.56666e-05 0.000732862 6.43348e-08
1.22437e-07 6.43348e-08 0.000747775
0.00091452 1.66389e-05 4.00444e-06
1.66389e-05 -1.70478e-05 -2.18618e-06
4.00444e-06 -2.18618e-06 -2.58139e-05
0.00234123 2.37853e-05 8.61705e-06
2.37853e-05 0.000679292 -2.94198e-06
8.61705e-06 -2.94198e-06 0.00069586
0.000947327 2.02956e-05 -1.95255e-07
2.02956e-05 -2.65239e-05 -3.32892e-07
-1.95255e-07 -3.32892e-07 -8.98079e-05
0.000992357 1.78341e-05 -2.8884e-08
1.78341e-05 2.41311e-06 -6.70714e-08
-2.8884e-08 -6.70714e-08 -5.83657e-05
0.00108915 5.14124e-06 -8.93935e-07
5.14124e-06 5.32139e-05 -2.06305e-07
-8.93935e-07 -2.06305e-07 -1.1392e-06
0.00107843 1.43547e-05 9.44335e-08
1.43547e-05 4.57922e-05 -2.83832e-07
9.44335e-08 -2.83832e-07 -1.32343e-05
0.00104525 -1.24496e-06 2.18228e-08
-1.24496e-06 3.55935e-05 2.47646e-08
2.18228e-08 2.47646e-08 -1.76067e-05
0.000991262 -1.2832e-05 -2.07578e-06
-1.2832e-05 1.6227e-05 -9.84861e-07
-2.07578e-06 -9.84861e-07 -2.18829e-05
0.00104227 -4.28687e-06 8.19675e-07
-4.28687e-06 3.28271e-05 2.02787e-07
8.19675e-07 2.02787e-07 -1.91714e-05
0.000975364 -1.32281e-05 -6.14769e-09
-1.32281e-05 4.5282e-06 8.98757e-09
-6.14769e-09 8.98757e-09 -3.1158e-05
0.000913473 -1.59704e-05 -3.7245e-06
-1.59704e-05 -2.31374e-05 -2.15722e-06
-3.7245e-06 -2.15722e-06 -3.10486e-05
0.000972892 -1.15242e-05 2.06343e-06
-1.15242e-05 -2.2197e-06 1.32382e-06
2.06343e-06 1.32382e-06 -3.57538e-05
0.000900052 -1.4689e-05 -4.4008e-08
-1.4689e-05 -3.64189e-05 2.44326e-08
-4.4008e-08 2.44326e-08 -4.22555e-05
0.00236076 -2.19999e-05 -8.35428e-06
-2.19999e-05 0.000681644 -3.09613e-06
-8.35428e-06 -3.09613e-06 0.000699147
0.000893858 -1.32966e-05 3.17003e-06
-1.32966e-05 -4.53801e-05 2.53476e-06
3.17003e-06 2.53476e-06 -4.96414e-05
0.00241721 -2.01303e-05 -1.31485e-07
-2.01303e-05 0.000701194 5.4075e-08
-1.31485e-07 5.4075e-08 0.000719847
0.00246707 -1.81628e-05 7.89259e-06
-1.81628e-05 0.000719529 3.45322e-06
7.89259e-06 3.45322e-06 0.000738951
0.00144561 -2.39871e-05 1.18309e-06
-2.39871e-05 0.000104267 3.92449e-07
1.18309e-06 3.92449e-07 7.37989e-05
0.0012727 -5.47503e-05 -1.87589e-07
-5.47503e-05 4.04561e-06 -3.11386e-06
-1.87589e-07 -3.11386e-06 -4.3677e-06
-0.000216072 -7.25625e-07 2.51582e-05
-7.25625e-07 -0.000159844 7.73636e-06
2.51582e-05 7.73636e-06 -0.000195051
0.00146806 2.83065e-05 1.12521e-06
2.83065e-05 0.000186324 -5.68581e-07
1.12521e-06 -5.68581e-07 0.000119409
0.00101522 2.27156e-05 -2.43078e-07
2.27156e-05 1.7187e-05 1.12197e-07
-2.43078e-07 1.12197e-07 -4.45518e-05
0.000870126 2.44189e-05 -5.45623e-07
2.44189e-05 -0.000101991 -6.48889e-08
-5.45623e-07 -6.48889e-08 -0.000173379
0.0012398 2.5531e-05 4.86829e-08
2.5531e-05 9.97159e-05 3.02793e-08
4.86829e-08 3.02793e-08 3.37352e-05
0.000890459 2.10749e-05 -5.05077e-07
2.10749e-05 -3.87782e-05 2.01913e-07
-5.05077e-07 2.01913e-07 -0.000102419
0.00144232 3.20971e-05 -3.33381e-07
3.20971e-05 0.000106538 -2.8094e-06
-3.33381e-07 -2.8094e-06 2.72759e-05
0.00120868 2.44784e-05 -3.51395e-07
2.44784e-05 0.000107979 -5.42925e-07
-3.51395e-07 -5.42925e-07 4.4933e-05
0.00120213 3.08196e-05 5.25241e-08
3.08196e-05 6.32082e-05 8.08792e-07
5.25241e-08 8.08792e-07 -7.80673e-06
0.00129443 1.2409e-06 8.9121e-07
1.2409e-06 -3.25609e-05 3.41447e-06
8.9121e-07 3.41447e-06 -0.000101688
0.00101903 3.30698e-05 -4.42466e-07
3.30698e-05 -1.2999e-05 1.39189e-06
-4.42466e-07 1.39189e-06 -8.89726e-05
0.0013974 3.53688e-05 -1.67299e-07
3.53688e-05 6.21255e-05 -5.58585e-07
-1.67299e-07 -5.58585e-07 -2.81096e-05
0.00148336 9.9683e-07 1.73598e-08
9.9683e-07 5.03131e-05 7.41337e-07
1.73598e-08 7.41337e-07 -1.14222e-05
0.00159027 3.69886e-05 7.97738e-09
3.69886e-05 0.000145852 1.72936e-06
7.97738e-09 1.72936e-06 5.26101e-05
0.00242397 -3.14373e-05 -1.11971e-05
-3.14373e-05 0.000316903 -9.86638e-06
-1.11971e-05 -9.86638e-06 0.000267231
0.00135908 -7.47089e-06 4.9412e-07
-7.47089e-06 0.000153531 -1.67279e-06
4.9412e-07 -1.67279e-06 0.000112064
0.000865361 -1.66879e-08 9.46421e-07
-1.66879e-08 -7.54191e-05 7.16754e-07
9.46421e-07 7.16754e-07 -0.000118193
0.000105162 -1.82917e-05 -3.03745e-06
-1.82917e-05 -0.000272623 1.97866e-06
-3.03745e-06 1.97866e-06 -0.000295538
0.00159211 3.93273e-05 -4.55614e-06
3.93273e-05 0.000123472 -4.21615e-06
-4.55614e-06 -4.21615e-06 7.07907e-05
0.00166244 3.552e-05 5.28913e-06
3.552e-05 0.00027784 5.5765e-06
5.28913e-06 5.5765e-06 0.000207286
0.00133565 3.09763e-05 -1.01878e-06
3.09763e-05 8.17313e-05 -1.1497e-06
-1.01878e-06 -1.1497e-06 1.07296e-05
0.00137965 2.63277e-05 5.93921e-07
2.63277e-05 0.000167022 2.15608e-06
5.93921e-07 2.15608e-06 0.000111657
0.00128689 2.6011e-05 -1.34376e-06
2.6011e-05 0.000100567 -2.96728e-06
-1.34376e-06 -2.96728e-06 4.22643e-05
0.00135077 1.68865e-05 -1.76304e-06
1.68865e-05 6.16641e-05 -2.23054e-06
-1.76304e-06 -2.23054e-06 1.22986e-05
0.0013879 2.13067e-05 -3.28591e-08
2.13067e-05 8.65453e-05 -4.00868e-07
-3.28591e-08 -4.00868e-07 2.40795e-05
0.00139919 2.16823e-05 -9.89478e-07
2.16823e-05 0.000103766 -8.37714e-07
-9.89478e-07 -8.37714e-07 3.94013e-05
0.00133525 4.35008e-06 -1.76416e-06
4.35008e-06 5.989e-05 -1.17397e-06
-1.76416e-06 -1.17397e-06 7.14013e-06
0.00129166 4.18944e-06 2.28329e-07
4.18944e-06 4.6014e-05 1.57315e-07
2.28329e-07 1.57315e-07 -1.63903e-05
0.00130742 2.92909e-06 -3.74463e-08
2.92909e-06 6.3316e-05 4.8917e-07
-3.74463e-08 4.8917e-07 -1.28516e-06
0.00127923 -9.38759e-06 -8.97915e-07
-9.38759e-06 5.31761e-05 -9.90404e-07
-8.97915e-07 -9.90404e-07 -4.99022e-06
0.00126833 -1.25907e-05 6.55646e-08
-1.25907e-05 5.63319e-05 -7.59104e-08
6.55646e-08 -7.59104e-08 -5.5236e-06
0.00123269 -1.44963e-05 -1.7674e-07
-1.44963e-05 5.09431e-05 3.64266e-07
-1.7674e-07 3.64266e-07 -1.1e-05
0.00124132 -1.67128e-05 -4.0993e-07
-1.67128e-05 5.42097e-05 -3.48703e-07
-4.0993e-07 -3.48703e-07 -4.06485e-06
0.00121842 -1.69395e-05 -1.75414e-08
-1.69395e-05 5.2598e-05 -8.86191e-08
-1.75414e-08 -8.86191e-08 -6.47539e-06
0.0011646 -1.33557e-05 -7.51395e-07
-1.33557e-05 4.30719e-05 2.02084e-07
-7.51395e-07 2.02084e-07 -1.34522e-05
0.00113262 -1.6779e-05 2.22738e-07
-1.6779e-05 1.48357e-05 2.2499e-09
2.22738e-07 2.2499e-09 -4.23293e-05
0.00114242 -1.28741e-05 -2.84607e-08
-1.28741e-05 3.78703e-05 -1.31588e-08
-2.84607e-08 -1.31588e-08 -1.69093e-05
0.00101424 -2.60454e-07 -2.27218e-06
-2.60454e-07 1.33447e-05 7.14018e-07
-2.27218e-06 7.14018e-07 -3.39264e-05
0.000973813 -1.17935e-05 9.63883e-07
-1.17935e-05 -3.46691e-05 -2.0835e-07
9.63883e-07 -2.0835e-07 -8.937e-05
0.000998205 -4.46549e-07 -1.66147e-10
-4.46549e-07 8.78815e-06 7.15203e-08
-1.66147e-10 7.15203e-08 -3.64004e-05
0.00158641 2.14459e-05 -3.80104e-06
2.14459e-05 0.000327093 1.08312e-06
-3.80104e-06 1.08312e-06 0.000313486
0.00120697 2.26101e-05 -1.12495e-05
2.26101e-05 0.000146205 4.18857e-06
-1.12495e-05 4.18857e-06 0.000149929
0.00123835 1.92195e-05 -1.96027e-07
1.92195e-05 0.000152898 6.93955e-08
-1.96027e-07 6.93955e-08 0.000140154
0.000993946 2.72625e-07 2.32588e-06
2.72625e-07 1.05593e-05 -1.04309e-06
2.32588e-06 -1.04309e-06 -3.20498e-05
0.00251188 2.7387e-05 1.21343e-07
2.7387e-05 0.00077704 7.14963e-08
1.21343e-07 7.14963e-08 0.000790047
0.000904954 1.71879e-05 4.21921e-06
1.71879e-05 -1.52367e-05 -2.12389e-06
4.21921e-06 -2.12389e-06 -2.69108e-05
0.00238627 2.55099e-05 8.96031e-06
2.55099e-05 0.000709148 -2.8141e-06
8.96031e-06 -2.8141e-06 0.000724021
0.00111693 2.50025e-05 2.89323e-07
2.50025e-05 6.71996e-08 3.35929e-08
2.89323e-07 3.35929e-08 -6.83118e-05
0.000944426 2.20039e-05 3.43714e-07
2.20039e-05 -3.88283e-05 -9.18903e-08
3.43714e-07 -9.18903e-08 -0.00010532
0.000974437 2.0817e-05 -3.01047e-08
2.0817e-05 -1.59394e-05 -2.79076e-08
-3.01047e-08 -2.79076e-08 -7.95335e-05
0.00110407 1.03662e-05 -8.14868e-07
1.03662e-05 5.59743e-05 -3.09048e-07
-8.14868e-07 -3.09048e-07 1.87763e-07
0.000916678 1.76643e-05 8.05262e-08
1.76643e-05 -3.42459e-05 6.26007e-08
8.05262e-08 6.26007e-08 -9.53636e-05
0.00105939 4.31865e-06 -2.02402e-08
4.31865e-06 3.97536e-05 3.64518e-08
-2.02402e-08 3.64518e-08 -1.46049e-05
0.000996394 -9.99425e-06 -2.12462e-06
-9.99425e-06 2.10548e-05 -8.28999e-07
-2.12462e-06 -8.28999e-07 -1.948e-05
0.00102563 -2.3235e-06 8.65759e-07
-2.3235e-06 2.69405e-05 2.91008e-07
8.65759e-07 2.91008e-07 -2.63396e-05
0.000969959 -1.33008e-05 -4.18095e-08
-1.33008e-05 6.60353e-06 9.31841e-09
-4.18095e-08 9.31841e-09 -3.1552e-05
0.000903004 -1.69853e-05 -3.95903e-06
-1.69853e-05 -2.04257e-05 -1.99478e-06
-3.95903e-06 -1.99478e-06 -3.06562e-05
0.000958204 -1.29896e-05 2.10614e-06
-1.29896e-05 -3.5322e-06 1.19216e-06
2.10614e-06 1.19216e-06 -3.92066e-05
0.000887261 -1.58941e-05 -3.76957e-08
-1.58941e-05 -3.57004e-05 2.07558e-08
-3.76957e-08 2.07558e-08 -4.34793e-05
0.00237198 -2.38099e-05 -8.62546e-06
-2.38099e-05 0.000695726 -2.94449e-06
-8.62546e-06 -2.94449e-06 0.000711655
0.000878458 -1.46256e-05 3.38482e-06
-1.46256e-05 -4.69414e-05 2.39656e-06
3.38482e-06 2.39656e-06 -5.26487e-05
0.0024204 -2.20795e-05 -1.3246e-07
-2.20795e-05 0.000709498 5.9111e-08
-1.3246e-07 5.9111e-08 0.000726969
0.00247297 -2.01605e-05 8.18641e-06
-2.01605e-05 0.000727526 3.30085e-06
8.18641e-06 3.30085e-06 0.000746087
0.0014563 -2.85838e-05 1.85692e-06
-2.85838e-05 0.000100265 1.47156e-06
1.85692e-06 1.47156e-06 5.48344e-05
0.00147173 -2.44641e-05 1.75235e-06
-2.44641e-05 0.000107573 -1.5514e-06
1.75235e-06 -1.5514e-06 7.5222e-05
0.00177334 -5.29283e-05 -9.83619e-06
-5.29283e-05 0.000320731 -6.76634e-06
-9.83619e-06 -6.76634e-06 0.000312049
0.00136948 2.79804e-05 -3.18042e-07
2.79804e-05 8.3347e-05 -1.4009e-06
-3.18042e-07 -1.4009e-06 9.40178e-06
0.00134942 2.7274e-05 -2.66172e-08
2.7274e-05 0.000138556 2.3096e-07
-2.66172e-08 2.3096e-07 7.29003e-05
0.00101791 2.32034e-05 -1.51377e-06
2.32034e-05 2.24991e-05 -4.34855e-07
-1.51377e-06 -4.34855e-07 -3.82127e-05
0.00119915 2.65759e-05 2.27874e-07
2.65759e-05 4.93206e-05 4.32987e-07
2.27874e-07 4.32987e-07 -2.08583e-05
0.0011919 2.52034e-05 -9.22024e-07
2.52034e-05 7.69451e-05 4.36005e-07
-9.22024e-07 4.36005e-07 1.06669e-05
0.00135532 4.26066e-06 -1.37579e-07
4.26066e-06 2.15352e-05 1.11605e-06
-1.37579e-07 1.11605e-06 -5.31104e-05
0.00142407 3.22302e-05 -6.68992e-07
3.22302e-05 9.81073e-05 -1.0285e-06
-6.68992e-07 -1.0285e-06 1.79184e-05
0.00117614 3.03529e-05 -1.51702e-07
3.03529e-05 5.02336e-05 2.39466e-06
-1.51702e-07 2.39466e-06 -2.01182e-05
0.00146793 1.53879e-06 7.94555e-08
1.53879e-06 4.33925e-05 9.1548e-07
7.94555e-08 9.1548e-07 -2.60634e-05
0.0015957 3.72867e-05 -9.6207e-07
3.72867e-05 0.000142198 6.7905e-07
-9.6207e-07 6.7905e-07 4.98287e-05
0.00141434 7.30628e-07 3.82941e-06
7.30628e-07 1.07415e-05 -1.99394e-06
3.82941e-06 -1.99394e-06 -5.16515e-05
0.000755791 -1.81658e-06 3.5944e-07
-1.81658e-06 -0.000111633 -5.27478e-07
3.5944e-07 -5.27478e-07 -0.000158352
0.00120149 -5.66928e-06 -7.18858e-07
-5.66928e-06 8.74434e-05 -4.7576e-07
-7.18858e-07 -4.7576e-07 4.50511e-05
0.000475156 4.50156e-07 2.34917e-06
4.50156e-07 -0.000255341 4.44197e-06
2.34917e-06 4.44197e-06 -0.000297685
0.00141814 3.18422e-05 2.04966e-06
3.18422e-05 0.00010999 -1.2619e-06
2.04966e-06 -1.2619e-06 3.89562e-05
0.00133237 2.5379e-05 2.33775e-06
2.5379e-05 0.000137256 5.38545e-06
2.33775e-06 5.38545e-06 8.28566e-05
0.00127878 2.58669e-05 -7.85699e-07
2.58669e-05 9.44674e-05 -3.21009e-07
-7.85699e-07 -3.21009e-07 3.60813e-05
0.00118114 2.18959e-05 4.14438e-08
2.18959e-05 5.28894e-05 -1.45238e-06
4.14438e-08 -1.45238e-06 -5.71647e-06
0.00129874 2.00115e-05 -2.42254e-07
2.00115e-05 4.21805e-05 -4.31854e-07
-2.42254e-07 -4.31854e-07 -1.90415e-05
0.00138581 2.08576e-05 -2.9471e-07
2.08576e-05 9.14017e-05 -1.35671e-07
-2.9471e-07 -1.35671e-07 2.69167e-05
0.00129593 1.7971e-05 -9.18759e-07
1.7971e-05 5.90414e-05 -1.81407e-06
-9.18759e-07 -1.81407e-06 -2.8642e-06
0.0013541 4.81861e-06 -5.48522e-07
4.81861e-06 7.55567e-05 -3.45496e-07
-5.48522e-07 -3.45496e-07 1.25779e-05
0.0013008 2.62441e-06 2.13184e-08
2.62441e-06 6.01569e-05 3.97109e-07
2.13184e-08 3.97109e-07 -4.52563e-06
0.00126698 -2.49346e-06 -4.12825e-07
-2.49346e-06 5.7072e-05 3.25125e-07
-4.12825e-07 3.25125e-07 -7.45402e-06
0.00127687 -1.19841e-05 -1.51932e-07
-1.19841e-05 5.97685e-05 -6.7026e-07
-1.51932e-07 -6.7026e-07 -2.10678e-06
0.00124103 -1.43299e-05 3.63329e-08
-1.43299e-05 5.43363e-05 -4.58862e-09
3.63329e-08 -4.58862e-09 -7.62435e-06
0.00117924 -1.25483e-05 -8.05164e-07
-1.25483e-05 4.32284e-05 3.49272e-07
-8.05164e-07 3.49272e-07 -1.57516e-05
0.00121741 -1.67931e-05 1.19961e-07
-1.67931e-05 5.18056e-05 -2.67408e-07
1.19961e-07 -2.67408e-07 -7.23947e-06
0.00115857 -1.29847e-05 5.37675e-09
-1.29847e-05 4.00138e-05 -5.43029e-08
5.37675e-09 -5.43029e-08 -1.65021e-05
0.00101459 -1.01008e-06 -2.0872e-06
-1.01008e-06 9.80309e-06 5.70275e-07
-2.0872e-06 5.70275e-07 -3.93751e-05
0.00112794 -1.23232e-05 7.91499e-07
-1.23232e-05 3.12402e-05 -1.58277e-07
7.91499e-07 -1.58277e-07 -2.35071e-05
0.00100308 -6.13163e-07 -6.11988e-08
-6.13163e-07 7.05956e-06 6.11292e-08
-6.11988e-08 6.11292e-08 -4.00308e-05
0.00161235 2.26047e-05 -3.86157e-06
2.26047e-05 0.000345072 9.2083e-07
-3.86157e-06 9.2083e-07 0.00032841
0.000989918 -9.49976e-07 2.34144e-06
-9.49976e-07 3.53182e-06 -7.97047e-07
2.34144e-06 -7.97047e-07 -4.14367e-05
0.00159791 2.12428e-05 2.20511e-06
2.12428e-05 0.00033304 -7.67255e-07
2.20511e-06 -7.67255e-07 0.000319019
0.0011959 2.33617e-05 -1.20913e-05
2.33617e-05 0.000149053 4.00512e-06
-1.20913e-05 4.00512e-06 0.000149961
0.00189773 2.58589e-05 -6.09453e-06
2.58589e-05 0.000483731 1.63435e-06
-6.09453e-06 1.63435e-06 0.000491157
0.00163054 2.04245e-05 6.49027e-06
2.04245e-05 0.000344188 -1.91529e-06
6.49027e-06 -1.91529e-06 0.00033292
0.00246761 2.71886e-05 9.44639e-06
2.71886e-05 0.000756422 -2.70965e-06
9.44639e-06 -2.70965e-06 0.000769336
0.00130042 2.48009e-05 -3.89429e-07
2.48009e-05 4.9709e-05 -1.31411e-06
-3.89429e-07 -1.31411e-06 -2.19759e-05
0.00131127 2.47937e-05 9.41767e-07
2.47937e-05 0.000116145 -6.12441e-08
9.41767e-07 -6.12441e-08 5.05922e-05
0.00115439 2.53303e-05 5.62734e-07
2.53303e-05 2.20397e-05 4.89071e-07
5.62734e-07 4.89071e-07 -4.39556e-05
0.00110409 1.48458e-05 -6.39339e-07
1.48458e-05 5.00914e-05 -6.36296e-07
-6.39339e-07 -6.36296e-07 -8.62689e-06
0.0010975 2.34985e-05 -1.43712e-07
2.34985e-05 3.23665e-05 5.44646e-08
-1.43712e-07 5.44646e-08 -3.40334e-05
0.00100247 2.1348e-05 1.61497e-07
2.1348e-05 -4.90686e-06 3.98781e-07
1.61497e-07 3.98781e-07 -6.88136e-05
0.00108423 1.01907e-05 2.07578e-08
1.01907e-05 4.72744e-05 -2.4408e-08
2.07578e-08 -2.4408e-08 -8.54846e-06
0.00100212 -5.85e-06 -2.06647e-06
-5.85e-06 2.53423e-05 -8.13138e-07
-2.06647e-06 -8.13138e-07 -1.7947e-05
0.00103013 3.54033e-06 6.9733e-07
3.54033e-06 2.65167e-05 1.71273e-07
6.9733e-07 1.71273e-07 -2.78445e-05
0.000974951 -1.09714e-05 -6.40303e-08
-1.09714e-05 1.19998e-05 1.33238e-08
-6.40303e-08 1.33238e-08 -2.86694e-05
0.000890796 -1.77568e-05 -4.17834e-06
-1.77568e-05 -1.77166e-05 -1.82066e-06
-4.17834e-06 -1.82066e-06 -3.04794e-05
0.00094884 -1.37238e-05 2.08438e-06
-1.37238e-05 -2.929e-06 1.08169e-06
2.08438e-06 1.08169e-06 -4.11308e-05
0.000872651 -1.68938e-05 -4.65019e-08
-1.68938e-05 -3.48451e-05 2.51524e-08
-4.65019e-08 2.51524e-08 -4.49383e-05
0.00239619 -2.54795e-05 -8.94783e-06
-2.54795e-05 0.000717421 -2.77988e-06
-8.94783e-06 -2.77988e-06 0.000731506
0.000860911 -1.58152e-05 3.5982e-06
-1.58152e-05 -4.83333e-05 2.23823e-06
3.5982e-06 2.23823e-06 -5.59791e-05
0.00243283 -2.39421e-05 -1.28849e-07
-2.39421e-05 0.000723816 6.31849e-08
-1.28849e-07 6.31849e-08 0.000739777
0.00248041 -2.21534e-05 8.39704e-06
-2.21534e-05 0.000737537 3.1427e-06
8.39704e-06 3.1427e-06 0.000754974
0.00134621 -2.22318e-05 -3.87529e-07
-2.22318e-05 7.59678e-05 2.9064e-06
-3.87529e-07 2.9064e-06 1.89218e-05
0.00136591 -2.76515e-05 2.58823e-07
-2.76515e-05 5.993e-05 -9.54153e-07
2.58823e-07 -9.54153e-07 1.44686e-05
0.00152017 -2.52884e-05 1.93971e-06
-2.52884e-05 0.000120169 -2.07424e-06
1.93971e-06 -2.07424e-06 8.5992e-05
0.00113875 7.93482e-06 -5.69253e-07
7.93482e-06 -6.47249e-05 5.62049e-07
-5.69253e-07 5.62049e-07 -0.00013676
0.00137664 2.76518e-05 8.35543e-08
2.76518e-05 8.6966e-05 -4.28949e-07
8.35543e-08 -4.28949e-07 1.30253e-05
0.0012551 2.6415e-05 -1.10935e-06
2.6415e-05 0.000102152 8.27832e-07
-1.10935e-06 8.27832e-07 3.77479e-05
0.00153056 2.87514e-05 -9.17831e-08
2.87514e-05 0.000201772 3.39505e-07
-9.17831e-08 3.39505e-07 0.000132799
0.00149355 5.24004e-06 4.22947e-08
5.24004e-06 8.53066e-05 5.29141e-08
4.22947e-08 5.29141e-08 1.08602e-05
0.00139807 3.22896e-05 -5.25848e-07
3.22896e-05 8.61882e-05 6.05781e-07
-5.25848e-07 6.05781e-07 5.05859e-06
0.00164678 1.83366e-06 -6.48909e-07
1.83366e-06 0.000121788 -1.5172e-06
-6.48909e-07 -1.5172e-06 5.20051e-05
0.00100938 -4.13158e-07 1.64277e-06
-4.13158e-07 3.55148e-06 1.33747e-08
1.64277e-06 1.33747e-08 -4.91975e-05
0.000987464 -7.17507e-07 -8.02727e-08
-7.17507e-07 -1.04616e-05 -8.98488e-08
-8.02727e-08 -8.98488e-08 -5.90669e-05
0.00106263 -3.42224e-06 -1.68877e-06
-3.42224e-06 2.95827e-05 1.31445e-06
-1.68877e-06 1.31445e-06 -1.36716e-05
0.00117034 2.03904e-05 5.59814e-07
2.03904e-05 6.48916e-05 -6.126e-07
5.59814e-07 -6.126e-07 4.8985e-06
0.00132273 2.61565e-05 9.60432e-07
2.61565e-05 0.00011276 1.65128e-06
9.60432e-07 1.65128e-06 5.42552e-05
0.00118888 2.20475e-05 4.4108e-07
2.20475e-05 5.66454e-05 -1.3265e-08
4.4108e-07 -1.3265e-08 -2.28271e-06
0.0012341 2.10725e-05 1.31885e-08
2.10725e-05 5.97895e-05 -2.83061e-07
1.31885e-08 -2.83061e-07 9.79972e-07
0.00138263 2.01418e-05 1.8667e-07
2.01418e-05 8.39797e-05 5.86332e-07
1.8667e-07 5.86332e-07 1.93471e-05
0.00128471 1.76264e-05 -5.2845e-07
1.76264e-05 5.48054e-05 -5.52106e-07
-5.2845e-07 -5.52106e-07 -7.1227e-06
0.00128634 1.58115e-05 -8.24733e-07
1.58115e-05 6.71158e-05 -1.19865e-06
-8.24733e-07 -1.19865e-06 3.1965e-06
0.00129455 2.85911e-06 5.77555e-07
2.85911e-06 5.71831e-05 2.54327e-07
5.77555e-07 2.54327e-07 -7.59108e-06
0.00125955 -1.3183e-06 2.15866e-08
-1.3183e-06 5.38321e-05 1.54828e-07
2.15866e-08 1.54828e-07 -1.07145e-05
0.00120122 -7.59737e-06 -9.8819e-07
-7.59737e-06 4.67376e-05 2.76304e-07
-9.8819e-07 2.76304e-07 -1.4518e-05
0.00124867 -1.40951e-05 3.14865e-07
-1.40951e-05 5.74102e-05 -3.8193e-07
3.14865e-07 -3.8193e-07 -4.56752e-06
0.00117836 -1.22693e-05 4.0675e-08
-1.22693e-05 4.23719e-05 3.41076e-08
4.0675e-08 3.41076e-08 -1.66171e-05
0.00102206 -2.47476e-06 -2.00898e-06
-2.47476e-06 8.16151e-06 5.32738e-07
-2.00898e-06 5.32738e-07 -4.29746e-05
0.00115268 -1.25465e-05 7.33534e-07
-1.25465e-05 3.70232e-05 -2.90971e-07
7.33534e-07 -2.90971e-07 -1.94843e-05
0.00100754 -9.75441e-07 -7.48958e-08
-9.75441e-07 5.88506e-06 3.44031e-08
-7.48958e-08 3.44031e-08 -4.31999e-05
0.00163234 2.3917e-05 -3.73322e-06
2.3917e-05 0.00036115 7.82074e-07
-3.73322e-06 7.82074e-07 0.000341089
0.000991883 -9.28316e-07 2.25662e-06
-9.28316e-07 7.48679e-07 -6.11852e-07
2.25662e-06 -6.11852e-07 -4.61597e-05
0.00161131 2.24176e-05 2.31556e-06
2.24176e-05 0.000344656 -7.23955e-07
2.31556e-06 -7.23955e-07 0.000327654
0.0012209 2.42088e-05 -1.27847e-05
2.42088e-05 0.000170714 3.71171e-06
-1.27847e-05 3.71171e-06 0.000168634
0.00161126 2.10545e-05 8.11814e-06
2.10545e-05 0.000339842 -2.61002e-06
8.11814e-06 -2.61002e-06 0.000325405
0.00117682 2.41097e-05 -4.40329e-06
2.41097e-05 0.000139632 1.60559e-06
-4.40329e-06 1.60559e-06 0.000140831
0.00258669 3.00499e-05 4.3034e-06
3.00499e-05 0.000820522 -1.00693e-06
4.3034e-06 -1.00693e-06 0.000831609
0.00148794 1.04939e-05 -6.89088e-07
1.04939e-05 0.000109448 -2.29863e-07
-6.89088e-07 -2.29863e-07 3.76019e-05
0.00131417 2.38141e-05 1.57037e-07
2.38141e-05 7.60439e-05 -1.17599e-06
1.57037e-07 -1.17599e-06 7.14778e-06
0.00134635 2.52784e-05 -5.46765e-07
2.52784e-05 7.60799e-05 6.38056e-07
-5.46765e-07 6.38056e-07 5.04514e-06
0.00134112 1.91065e-05 -3.14161e-07
1.91065e-05 0.000147181 -1.80524e-07
-3.14161e-07 -1.80524e-07 8.72631e-05
0.00121768 2.44293e-05 3.61315e-07
2.44293e-05 7.0986e-05 -2.5631e-07
3.61315e-07 -2.5631e-07 5.20835e-06
0.00118005 2.55605e-05 6.24363e-07
2.55605e-05 3.83896e-05 8.0462e-07
6.24363e-07 8.0462e-07 -2.52087e-05
0.00100696 -1.65042e-07 -2.00072e-06
-1.65042e-07 2.60526e-05 -1.02606e-06
-2.00072e-06 -1.02606e-06 -2.10308e-05
0.00110458 1.5203e-05 3.58934e-09
1.5203e-05 5.05094e-05 -9.44625e-08
3.58934e-09 -9.44625e-08 -8.2478e-06
0.00125137 2.50081e-05 4.10983e-07
2.50081e-05 0.000103962 5.82147e-07
4.10983e-07 5.82147e-07 3.76503e-05
0.001062 1.00888e-05 6.87153e-07
1.00888e-05 3.74244e-05 1.59435e-07
6.87153e-07 1.59435e-07 -1.84315e-05
0.00098339 -6.95596e-06 -2.95955e-08
-6.95596e-06 1.82322e-05 -2.44298e-08
-2.95955e-08 -2.44298e-08 -2.52642e-05
0.00088372 -1.83508e-05 -4.2714e-06
-1.83508e-05 -1.26051e-05 -1.74236e-06
-4.2714e-06 -1.74236e-06 -2.82727e-05
0.000953896 -1.19801e-05 2.07892e-06
-1.19801e-05 3.13832e-06 9.38315e-07
2.07892e-06 9.38315e-07 -3.76676e-05
0.00085567 -1.76336e-05 -4.92163e-08
-1.76336e-05 -3.43619e-05 2.65333e-08
-4.92163e-08 2.65333e-08 -4.69839e-05
0.00243428 -2.69956e-05 -9.32434e-06
-2.69956e-05 0.000746625 -2.60456e-06
-9.32434e-06 -2.60456e-06 0.000758699
0.000842704 -1.68011e-05 3.79862e-06
-1.68011e-05 -4.90728e-05 2.07503e-06
3.79862e-06 2.07503e-06 -5.9029e-05
0.00245523 -2.56638e-05 -1.29983e-07
-2.56638e-05 0.000744375 6.79759e-08
-1.29983e-07 6.79759e-08 0.000758546
0.00249407 -2.40644e-05 8.61989e-06
-2.40644e-05 0.000752095 2.98534e-06
8.61989e-06 2.98534e-06 0.000768086
0.00136188 -1.75946e-05 3.56242e-07
-1.75946e-05 8.4826e-05 1.60024e-06
3.56242e-07 1.60024e-06 2.39049e-05
0.00141486 -2.23186e-05 -5.15733e-08
-2.23186e-05 9.99743e-05 6.78718e-07
-5.15733e-08 6.78718e-07 4.20792e-05
0.00126822 -2.66764e-05 -1.14932e-06
-2.66764e-05 1.63077e-05 -3.28491e-06
-1.14932e-06 -3.28491e-06 -2.91902e-05
0.00131388 7.45587e-06 -1.18301e-07
7.45587e-06 7.41042e-06 -1.782e-07
-1.18301e-07 -1.782e-07 -6.53369e-05
0.00137249 2.72486e-05 -9.47849e-08
2.72486e-05 8.52025e-05 5.37685e-07
-9.47849e-08 5.37685e-07 1.12808e-05
0.00165134 6.26245e-06 3.76794e-07
6.26245e-06 0.000157925 -1.13918e-06
3.76794e-07 -1.13918e-06 8.37096e-05
0.0010584 -8.58451e-07 8.80505e-07
-8.58451e-07 2.47645e-05 1.83549e-07
8.80505e-07 1.83549e-07 -3.56806e-05
0.00104153 -1.39408e-07 5.48779e-07
-1.39408e-07 2.46037e-05 -3.10926e-08
5.48779e-07 -3.10926e-08 -2.81459e-05
0.00119785 1.24033e-07 -1.23682e-07
1.24033e-07 8.10705e-05 4.95687e-07
-1.23682e-07 4.95687e-07 3.05551e-05
0.00119094 1.96133e-05 -3.84865e-07
1.96133e-05 7.35037e-05 2.60942e-07
-3.84865e-07 2.60942e-07 1.24433e-05
0.00119933 1.93411e-05 3.67703e-07
1.93411e-05 7.10763e-05 -2.00123e-07
3.67703e-07 -2.00123e-07 8.38963e-06
0.00118874 2.21712e-05 3.23277e-07
2.21712e-05 5.67667e-05 1.09657e-06
3.23277e-07 1.09657e-06 -2.48607e-06
0.00121163 2.08417e-05 1.84681e-07
2.08417e-05 4.96379e-05 4.99946e-07
1.84681e-07 4.99946e-07 -9.20901e-06
0.00134543 2.17777e-05 1.96609e-07
2.17777e-05 0.000111552 -3.5062e-07
1.96609e-07 -3.5062e-07 5.11675e-05
0.00127127 1.67049e-05 3.88294e-07
1.67049e-05 4.95628e-05 6.43955e-07
3.88294e-07 6.43955e-07 -1.23807e-05
0.00125899 1.40693e-05 -2.84208e-07
1.40693e-05 5.48117e-05 -3.50002e-07
-2.84208e-07 -3.50002e-07 -8.91012e-06
0.00120732 8.64982e-06 -1.36133e-06
8.64982e-06 5.05156e-05 -2.61694e-07
-1.36133e-06 -2.61694e-07 -1.15881e-05
0.00125086 -1.63701e-06 3.64082e-07
-1.63701e-06 4.99478e-05 8.26717e-09
3.64082e-07 8.26717e-09 -1.4583e-05
0.00119571 -6.94155e-06 1.85037e-08
-6.94155e-06 4.39838e-05 4.73554e-08
1.85037e-08 4.73554e-08 -1.72755e-05
0.0010279 -1.82769e-06 -2.05336e-06
-1.82769e-06 6.11238e-06 3.97435e-07
-2.05336e-06 3.97435e-07 -4.68245e-05
0.00117841 -1.19559e-05 8.95093e-07
-1.19559e-05 4.19524e-05 -2.75367e-07
8.95093e-07 -2.75367e-07 -1.70453e-05
0.00101616 -1.91157e-06 -4.37405e-08
-1.91157e-06 5.32733e-06 7.46237e-08
-4.37405e-08 7.46237e-08 -4.58033e-05
0.00158046 2.15874e-05 -3.5609e-06
2.15874e-05 0.00034331 6.64886e-07
-3.5609e-06 6.64886e-07 0.000319333
0.00100015 -8.14599e-07 2.13856e-06
-8.14599e-07 1.8062e-06 -5.56435e-07
2.13856e-06 -5.56435e-07 -4.71877e-05
0.00162249 2.26328e-05 2.45513e-06
2.26328e-05 0.000355764 -6.71042e-07
2.45513e-06 -6.71042e-07 0.000335447
0.00123661 2.46875e-05 -1.35034e-05
2.46875e-05 0.000190333 3.41301e-06
-1.35034e-05 3.41301e-06 0.000184712
0.00161179 2.22369e-05 8.25203e-06
2.22369e-05 0.000344952 -2.33159e-06
8.25203e-06 -2.33159e-06 0.000327606
0.00119432 2.49642e-05 -4.65844e-06
2.49642e-05 0.000157639 1.48923e-06
-4.65844e-06 1.48923e-06 0.000155898
0.00115665 2.4885e-05 3.39514e-06
2.4885e-05 0.000129731 -8.15843e-07
3.39514e-06 -8.15843e-07 0.000131218
0.00148128 -1.15994e-05 1.38601e-07
-1.15994e-05 0.000117241 1.06616e-06
1.38601e-07 1.06616e-06 5.79734e-05
0.00136103 1.27183e-05 -7.99729e-07
1.27183e-05 6.85056e-05 -1.95545e-07
-7.99729e-07 -1.95545e-07 -2.39483e-06
0.00148585 1.00933e-05 -2.87057e-07
1.00933e-05 0.000105502 -4.06024e-07
-2.87057e-07 -4.06024e-07 3.35408e-05
0.00129709 2.02058e-05 -6.33609e-07
2.02058e-05 9.56329e-05 -6.79105e-07
-6.33609e-07 -6.79105e-07 3.25059e-05
0.00136884 2.40414e-05 3.37322e-07
2.40414e-05 0.00010422 4.19319e-07
3.37322e-07 4.19319e-07 3.57786e-05
0.00139669 2.58042e-05 6.44323e-07
2.58042e-05 0.000104594 1.49047e-06
6.44323e-07 1.49047e-06 3.41988e-05
0.00098259 3.88728e-06 -2.11852e-06
3.88728e-06 4.74534e-06 -8.89176e-07
-2.11852e-06 -8.89176e-07 -4.56125e-05
0.00115527 1.82817e-05 4.2932e-07
1.82817e-05 5.7157e-05 4.06063e-07
4.2932e-07 4.06063e-07 -3.75691e-06
0.00112586 2.41087e-05 3.24051e-07
2.41087e-05 2.6726e-05 9.581e-07
3.24051e-07 9.581e-07 -3.92857e-05
0.000883504 -1.89146e-05 -4.21608e-06
-1.89146e-05 -7.08165e-06 -1.82886e-06
-4.21608e-06 -1.82886e-06 -2.65193e-05
0.000988647 -1.54849e-06 -3.90656e-11
-1.54849e-06 1.92785e-05 -5.72052e-08
-3.90656e-11 -5.72052e-08 -2.79912e-05
0.00110485 1.54786e-05 6.38046e-07
1.54786e-05 5.08251e-05 4.34735e-07
6.38046e-07 4.34735e-07 -7.96888e-06
0.000963403 -8.09283e-06 2.07019e-06
-8.09283e-06 1.05586e-05 8.28572e-07
2.07019e-06 8.28572e-07 -3.31478e-05
0.000835479 -1.8128e-05 -3.19594e-08
-1.8128e-05 -3.52653e-05 -1.05099e-08
-3.19594e-08 -1.05099e-08 -5.07774e-05
0.00250144 -2.83791e-05 -9.85762e-06
-2.83791e-05 0.000789697 -2.47756e-06
-9.85762e-06 -2.47756e-06 0.000799578
0.000821047 -1.75111e-05 4.02021e-06
-1.75111e-05 -5.07617e-05 1.90353e-06
4.02021e-06 1.90353e-06 -6.32444e-05
0.00248879 -2.72228e-05 -1.29054e-07
-2.72228e-05 0.000771323 7.24468e-08
-1.29054e-07 7.24468e-08 0.000783512
0.0025154 -2.58427e-05 8.86724e-06
-2.58427e-05 0.000771856 2.82268e-06
8.86724e-06 2.82268e-06 0.00078611
0.00127046 -2.07354e-05 1.04115e-06
-2.07354e-05 7.66538e-05 -6.34412e-07
1.04115e-06 -6.34412e-07 9.53633e-06
0.00135797 -1.72304e-05 -1.63375e-07
-1.72304e-05 7.92252e-05 3.39653e-07
-1.63375e-07 3.39653e-07 1.80245e-05
0.00146971 -2.23567e-05 -3.41269e-07
-2.23567e-05 0.000117498 -1.7228e-06
-3.41269e-07 -1.7228e-06 5.87607e-05
0.00149412 7.00208e-06 8.20668e-07
7.00208e-06 8.21207e-05 -3.95467e-07
8.20668e-07 -3.95467e-07 8.63387e-06
0.00110681 -2.23129e-06 5.01991e-08
-2.23129e-06 3.91926e-05 6.51333e-07
5.01991e-08 6.51333e-07 -2.56707e-05
0.00110362 -1.3518e-06 -4.17766e-07
-1.3518e-06 4.81298e-05 -4.57971e-09
-4.17766e-07 -4.57971e-09 -1.18609e-05
0.00107694 1.16187e-07 -1.04685e-06
1.16187e-07 4.70441e-05 9.68835e-08
-1.04685e-06 9.68835e-08 -5.68888e-06
0.00119477 1.82335e-05 -1.06123e-06
1.82335e-05 7.42425e-05 1.36925e-06
-1.06123e-06 1.36925e-06 1.21381e-05
0.00118534 1.97307e-05 2.77349e-07
1.97307e-05 6.66437e-05 2.8972e-07
2.77349e-07 2.8972e-07 4.20193e-06
0.00119046 2.11487e-05 -3.27505e-07
2.11487e-05 6.68246e-05 -4.98563e-07
-3.27505e-07 -4.98563e-07 5.80671e-06
0.00118777 2.05889e-05 5.29072e-07
2.05889e-05 3.87161e-05 1.49175e-06
5.29072e-07 1.49175e-06 -2.01522e-05
0.00128952 2.15367e-05 2.14604e-07
2.15367e-05 8.56835e-05 3.87993e-07
2.14604e-07 3.87993e-07 2.52212e-05
0.0012094 2.0561e-05 -7.99187e-07
2.0561e-05 6.12287e-05 -6.85759e-07
-7.99187e-07 -6.85759e-07 4.64096e-07
0.00123026 1.37829e-05 2.03124e-07
1.37829e-05 4.19367e-05 5.20045e-07
2.03124e-07 5.20045e-07 -2.16251e-05
0.00118576 9.95719e-06 -1.75154e-07
9.95719e-06 4.10624e-05 7.44673e-08
-1.75154e-07 7.44673e-08 -2.09498e-05
0.00104371 9.02004e-06 -2.10507e-06
9.02004e-06 1.44186e-05 2.05656e-07
-2.10507e-06 2.05656e-07 -4.02481e-05
0.00118709 -3.68225e-06 9.67893e-07
-3.68225e-06 3.9853e-05 -1.786e-07
9.67893e-07 -1.786e-07 -2.14319e-05
0.00102733 -1.39843e-06 -3.20051e-08
-1.39843e-06 6.12709e-06 5.10982e-08
-3.20051e-08 5.10982e-08 -4.68479e-05
0.000716537 1.36586e-05 -4.74902e-06
1.36586e-05 -7.21061e-05 1.07489e-06
-4.74902e-06 1.07489e-06 -0.000104666
0.00101124 -1.5448e-06 2.1352e-06
-1.5448e-06 2.90705e-06 -4.37406e-07
2.1352e-06 -4.37406e-07 -4.82108e-05
0.00116883 1.78171e-05 2.96493e-06
1.78171e-05 0.000140657 -6.09132e-07
2.96493e-06 -6.09132e-07 0.000114065
0.00295691 3.45436e-05 -1.20397e-05
3.45436e-05 0.0010432 1.86113e-06
-1.20397e-05 1.86113e-06 0.00104415
0.00161285 2.10841e-05 8.4754e-06
2.10841e-05 0.000350493 -2.09367e-06
8.4754e-06 -2.09367e-06 0.000329915
0.0012047 2.54611e-05 -4.94567e-06
2.54611e-05 0.000174725 1.37232e-06
-4.94567e-06 1.37232e-06 0.000169492
0.00116507 2.57361e-05 3.56583e-06
2.57361e-05 0.000143314 -7.21714e-07
3.56583e-06 -7.21714e-07 0.000141917
0.0014432 -1.82204e-05 8.40256e-07
-1.82204e-05 0.000132038 -8.04447e-07
8.40256e-07 -8.04447e-07 6.88773e-05
0.00134674 -6.18702e-06 -4.02148e-07
-6.18702e-06 6.19995e-05 9.29248e-07
-4.02148e-07 9.29248e-07 -5.96542e-07
0.00134361 -1.1249e-05 2.06421e-07
-1.1249e-05 5.59802e-05 2.80206e-08
2.06421e-07 2.80206e-08 -3.92445e-06
0.00102563 1.38182e-05 -1.31909e-06
1.38182e-05 -5.82411e-05 -4.89171e-07
-1.31909e-06 -4.89171e-07 -0.000124932
0.00140205 1.2609e-05 1.19092e-07
1.2609e-05 9.02973e-05 1.05335e-08
1.19092e-07 1.05335e-08 2.06613e-05
0.00148275 9.73351e-06 4.61805e-07
9.73351e-06 0.000100978 -5.98798e-07
4.61805e-07 -5.98798e-07 2.89167e-05
0.000786225 5.71553e-06 -2.72808e-06
5.71553e-06 -0.000109196 -1.31256e-06
-2.72808e-06 -1.31256e-06 -0.000163557
0.00130391 2.03005e-05 2.50969e-07
2.03005e-05 9.88384e-05 1.19794e-08
2.50969e-07 1.19794e-08 3.5634e-05
0.00142948 2.43345e-05 5.13098e-07
2.43345e-05 0.00013503 1.26379e-06
5.13098e-07 1.26379e-06 6.70605e-05
0.000874566 -1.59046e-05 -4.58578e-06
-1.59046e-05 -1.16788e-05 -1.7528e-06
-4.58578e-06 -1.7528e-06 -3.53529e-05
0.000868947 2.78395e-06 -2.96572e-08
2.78395e-06 -4.99314e-05 7.02954e-08
-2.96572e-08 7.02954e-08 -0.000101282
0.00097105 1.74182e-05 1.10412e-06
1.74182e-05 -3.20783e-05 1.13148e-06
1.10412e-06 1.13148e-06 -9.39921e-05
0.0026338 -2.97071e-05 -1.07765e-05
-2.97071e-05 0.0008626 -2.44264e-06
-1.07765e-05 -2.44264e-06 0.000869971
0.000814571 -1.84713e-05 -4.85229e-08
-1.84713e-05 -3.90547e-05 -6.30708e-08
-4.85229e-08 -6.30708e-08 -5.83065e-05
0.000970451 -2.95928e-06 1.93533e-06
-2.95928e-06 1.25789e-05 9.30698e-07
1.93533e-06 9.30698e-07 -3.48786e-05
0.000786855 -1.79027e-05 4.20598e-06
-1.79027e-05 -5.80916e-05 1.77209e-06
4.20598e-06 1.77209e-06 -7.34496e-05
0.00254704 -2.86581e-05 -1.167e-07
-2.86581e-05 0.000810344 7.28431e-08
-1.167e-07 7.28431e-08 0.000820379
0.00254536 -2.74477e-05 9.17005e-06
-2.74477e-05 0.000796945 2.65126e-06
9.17005e-06 2.65126e-06 0.000809252
0.00113186 -2.04473e-05 2.29679e-07
-2.04473e-05 3.67849e-05 3.09028e-07
2.29679e-07 3.09028e-07 -3.10058e-05
0.00119072 -1.98313e-05 -3.98928e-07
-1.98313e-05 4.3853e-05 -8.1127e-07
-3.98928e-07 -8.1127e-07 -2.18041e-05
0.00135534 -1.68467e-05 -3.32778e-07
-1.68467e-05 7.4235e-05 -9.5101e-07
-3.32778e-07 -9.5101e-07 1.27536e-05
0.00113973 7.49838e-06 1.65404e-07
7.49838e-06 5.48159e-05 7.79205e-08
1.65404e-07 7.79205e-08 -7.60451e-06
0.00116889 -7.74744e-07 -1.60693e-08
-7.74744e-07 6.87089e-05 3.37539e-07
-1.60693e-08 3.37539e-07 3.87658e-06
0.00114937 -1.39594e-06 -1.63314e-06
-1.39594e-06 7.17306e-05 -3.31488e-08
-1.63314e-06 -3.31488e-08 1.21888e-05
0.00118065 2.04955e-05 -1.54537e-07
2.04955e-05 6.65799e-05 3.62847e-07
-1.54537e-07 3.62847e-07 4.37228e-06
0.00117836 2.10491e-05 9.06124e-08
2.10491e-05 6.05967e-05 2.45249e-07
9.06124e-08 2.45249e-07 -2.54281e-07
0.00120057 1.9861e-05 -4.31925e-07
1.9861e-05 8.60329e-05 -4.49507e-07
-4.31925e-07 -4.49507e-07 2.70795e-05
0.00123741 2.13096e-05 5.46061e-07
2.13096e-05 6.15968e-05 1.54513e-06
5.46061e-07 1.54513e-06 1.05402e-06
0.0012499 2.10559e-05 9.2396e-09
2.10559e-05 8.28031e-05 3.77835e-08
9.2396e-09 3.77835e-08 2.24347e-05
0.000914051 1.75729e-05 -2.36732e-06
1.75729e-05 -4.01517e-05 -3.69282e-07
-2.36732e-06 -3.69282e-07 -9.5863e-05
0.00116365 8.56691e-06 9.13556e-07
8.56691e-06 3.13002e-05 4.22053e-07
9.13556e-07 4.22053e-07 -3.06014e-05
0.00102451 8.90173e-06 -1.49606e-08
8.90173e-06 6.05687e-06 1.32491e-07
-1.49606e-08 1.32491e-07 -4.85625e-05
0.000715961 1.29799e-05 -4.80998e-06
1.29799e-05 -6.399e-05 7.5962e-07
-4.80998e-06 7.5962e-07 -9.97258e-05
0.00102441 -9.01708e-07 2.12598e-06
-9.01708e-07 5.03105e-06 -3.18981e-07
2.12598e-06 -3.18981e-07 -4.798e-05
0.000753983 1.39466e-05 5.67501e-08
1.39466e-05 -5.61645e-05 9.66282e-08
5.67501e-08 9.66282e-08 -8.86343e-05
0.00308155 3.55841e-05 -1.26493e-05
3.55841e-05 0.00111557 1.51436e-06
-1.26493e-05 1.51436e-06 0.00111401
0.000751578 1.49762e-05 6.41375e-06
1.49762e-05 -6.45192e-05 -1.89012e-06
6.41375e-06 -1.89012e-06 -9.37543e-05
0.00204158 3.00168e-05 2.46329e-06
3.00168e-05 0.0005984 2.06803e-07
2.46329e-06 2.06803e-07 0.000594264
0.0011703 2.6272e-05 3.73954e-06
2.6272e-05 0.000157932 -6.38823e-07
3.73954e-06 -6.38823e-07 0.000153096
0.00146188 -2.29848e-05 2.57386e-07
-2.29848e-05 0.000168697 -1.72127e-07
2.57386e-07 -1.72127e-07 0.00010199
0.00128348 -1.5396e-05 -2.33693e-07
-1.5396e-05 5.65691e-05 -2.4157e-07
-2.33693e-07 -2.4157e-07 -4.77515e-06
0.00129624 -1.73573e-05 -4.23223e-07
-1.73573e-05 6.30956e-05 -1.23236e-08
-4.23223e-07 -1.23236e-08 -2.41065e-07
0.00118638 -7.63887e-07 -1.10204e-06
-7.63887e-07 1.62489e-05 6.62066e-07
-1.10204e-06 6.62066e-07 -4.65845e-05
0.00128454 -6.55832e-06 3.49259e-07
-6.55832e-06 3.61997e-05 -1.9984e-07
3.49259e-07 -1.9984e-07 -2.63037e-05
0.00120687 -1.09394e-05 2.6333e-07
-1.09394e-05 -4.84565e-06 -5.72385e-07
2.6333e-07 -5.72385e-07 -6.53894e-05
0.000799751 6.33656e-06 -2.94361e-06
6.33656e-06 -0.000119744 -1.03523e-06
-2.94361e-06 -1.03523e-06 -0.0001767
0.00126078 1.54711e-05 -3.51092e-07
1.54711e-05 5.42648e-05 4.9412e-08
-3.51092e-07 4.9412e-08 -1.13114e-05
0.00143337 1.24226e-05 8.81398e-07
1.24226e-05 0.00010771 -3.98813e-07
8.81398e-07 -3.98813e-07 3.93221e-05
0.000854031 -1.13868e-05 -4.9921e-06
-1.13868e-05 -2.52297e-05 -1.62311e-06
-4.9921e-06 -1.62311e-06 -5.29172e-05
0.000805184 6.57649e-06 -5.57728e-07
6.57649e-06 -0.000101503 -3.62993e-07
-5.57728e-07 -3.62993e-07 -0.000156425
0.00130995 2.04323e-05 1.11843e-06
2.04323e-05 0.000101657 8.18983e-07
1.11843e-06 8.18983e-07 3.83776e-05
0.00282132 -3.10418e-05 -1.19815e-05
-3.10418e-05 0.000960499 -2.34997e-06
-1.19815e-05 -2.34997e-06 0.000965154
0.000800923 -1.71296e-05 -2.01511e-07
-1.71296e-05 -4.52542e-05 1.42599e-08
-2.01511e-07 1.42599e-08 -6.8829e-05
0.000755921 1.70716e-06 1.85772e-06
1.70716e-06 -0.000104342 1.1349e-06
1.85772e-06 1.1349e-06 -0.000156681
0.0026597 -3.00486e-05 -1.07654e-07
-3.00486e-05 0.000874407 7.65065e-08
-1.07654e-07 7.65065e-08 0.00088202
0.000744083 -1.80295e-05 4.29372e-06
-1.80295e-05 -7.17286e-05 1.8044e-06
4.29372e-06 1.8044e-06 -9.0796e-05
0.00259182 -2.89055e-05 9.51218e-06
-2.89055e-05 0.000830546 2.47742e-06
9.51218e-06 2.47742e-06 0.000840744
0.00111091 -1.03339e-05 -2.65366e-07
-1.03339e-05 2.90708e-05 3.15334e-07
-2.65366e-07 3.15334e-07 -3.53391e-05
0.00118712 -2.03171e-05 5.82875e-07
-2.03171e-05 6.06083e-05 -6.86317e-07
5.82875e-07 -6.86317e-07 -6.79639e-06
0.00111597 -1.89484e-05 -1.28599e-06
-1.89484e-05 1.33781e-05 -1.26502e-06
-1.28599e-06 -1.26502e-06 -5.08207e-05
0.00117256 4.71575e-06 -2.08485e-07
4.71575e-06 7.78529e-05 8.59778e-08
-2.08485e-07 8.59778e-08 1.72222e-05
0.00119166 7.7102e-06 -1.38212e-07
7.7102e-06 7.81086e-05 -7.79062e-08
-1.38212e-07 -7.79062e-08 1.54199e-05
0.00122781 5.02921e-07 -2.75722e-07
5.02921e-07 9.67724e-05 3.06395e-07
-2.75722e-07 3.06395e-07 3.19755e-05
0.00116551 2.09412e-05 1.87496e-07
2.09412e-05 5.40049e-05 2.601e-07
1.87496e-07 2.601e-07 -6.67699e-06
0.00119177 1.9921e-05 2.03543e-07
1.9921e-05 8.09091e-05 3.13799e-08
2.03543e-07 3.13799e-08 2.20966e-05
0.000843907 1.53075e-05 -2.03125e-06
1.53075e-05 -5.55871e-05 -3.95074e-07
-2.03125e-06 -3.95074e-07 -0.000111058
0.00129247 2.15796e-05 8.83966e-07
2.15796e-05 0.00010534 8.97102e-07
8.83966e-07 8.97102e-07 4.53683e-05
0.000979903 1.80917e-05 -3.88364e-07
1.80917e-05 -8.30035e-06 1.85717e-08
-3.88364e-07 1.85717e-08 -6.37856e-05
0.000720148 1.5377e-05 -4.89883e-06
1.5377e-05 -5.04481e-05 4.33799e-07
-4.89883e-06 4.33799e-07 -8.84434e-05
0.00100643 8.75611e-06 2.00997e-06
8.75611e-06 -1.7776e-06 8.1042e-08
2.00997e-06 8.1042e-08 -5.63509e-05
0.00073417 1.48524e-05 5.67978e-08
1.48524e-05 -5.68385e-05 7.68202e-08
5.67978e-08 7.68202e-08 -9.24893e-05
0.00308015 3.52459e-05 -1.33977e-05
3.52459e-05 0.001131 1.16983e-06
-1.33977e-05 1.16983e-06 0.00112685
0.000792488 1.4126e-05 4.77515e-06
1.4126e-05 -3.97294e-05 -8.24938e-07
4.77515e-06 -8.24938e-07 -7.2107e-05
0.00299851 3.46305e-05 1.55599e-07
3.46305e-05 0.00107881 1.27739e-07
1.55599e-07 1.27739e-07 0.00107695
0.00113393 2.40934e-05 1.12654e-05
2.40934e-05 0.000157086 -1.59736e-06
1.12654e-05 -1.59736e-06 0.000147916
0.00134362 -2.09677e-05 -5.56547e-07
-2.09677e-05 0.000114592 8.81511e-08
-5.56547e-07 8.81511e-08 5.1073e-05
0.00135615 -2.22822e-05 2.81112e-07
-2.22822e-05 0.000117755 7.25165e-08
2.81112e-07 7.25165e-08 4.99812e-05
0.00119387 -1.56425e-05 -7.19713e-07
-1.56425e-05 3.61005e-05 1.94122e-07
-7.19713e-07 1.94122e-07 -2.47448e-05
0.00126284 -1.55003e-05 1.66663e-07
-1.55003e-05 4.76293e-05 -3.07776e-07
1.66663e-07 -3.07776e-07 -1.35533e-05
0.00115151 -1.6503e-05 -1.14021e-07
-1.6503e-05 -4.71058e-06 7.96494e-07
-1.14021e-07 7.96494e-07 -6.82349e-05
0.00103124 -1.77986e-06 -2.40686e-06
-1.77986e-06 -1.10838e-05 6.42871e-08
-2.40686e-06 6.42871e-08 -6.64872e-05
0.00122731 -6.27815e-07 1.61878e-08
-6.27815e-07 3.461e-05 1.85863e-07
1.61878e-08 1.85863e-07 -2.83537e-05
0.00122351 -6.86856e-06 2.22591e-07
-6.86856e-06 1.0908e-05 -1.2017e-06
2.22591e-07 -1.2017e-06 -5.14984e-05
0.000821545 -8.46553e-06 -5.2342e-06
-8.46553e-06 -4.22547e-05 -1.33094e-06
-5.2342e-06 -1.33094e-06 -7.33056e-05
0.000939421 7.70256e-06 -6.69134e-07
7.70256e-06 -5.34366e-05 -1.77803e-07
-6.69134e-07 -1.77803e-07 -0.000109907
0.00149773 1.70491e-05 9.32607e-07
1.70491e-05 0.000167613 4.00378e-07
9.32607e-07 4.00378e-07 0.000103153
0.00300123 -3.22369e-05 -1.32053e-05
-3.22369e-05 0.00105503 -2.16257e-06
-1.32053e-05 -2.16257e-06 0.00105702
0.000793294 -1.23722e-05 -1.68148e-07
-1.23722e-05 -5.22858e-05 4.28108e-08
-1.68148e-07 4.28108e-08 -7.99606e-05
0.000826991 7.49948e-06 1.64701e-06
7.49948e-06 -9.24929e-05 7.091e-07
1.64701e-06 7.091e-07 -0.000147976
0.002837 -3.14372e-05 -1.41011e-07
-3.14372e-05 0.000967723 1.06286e-07
-1.41011e-07 1.06286e-07 0.000972673
0.000726794 -1.82215e-05 4.38029e-06
-1.82215e-05 -7.90069e-05 1.9302e-06
4.38029e-06 1.9302e-06 -0.000102497
0.00268562 -3.03261e-05 9.96265e-06
-3.03261e-05 0.000886171 2.34338e-06
9.96265e-06 2.34338e-06 0.000894033
0.00122636 -7.97127e-06 -4.48165e-07
-7.97127e-06 9.16645e-05 1.80167e-07
-4.48165e-07 1.80167e-07 3.04445e-05
0.00117185 -1.34898e-05 -4.47422e-08
-1.34898e-05 5.64132e-05 -1.27423e-07
-4.47422e-08 -1.27423e-07 -7.77247e-06
0.00124382 -2.03481e-05 1.41143e-07
-2.03481e-05 8.52228e-05 -1.29333e-06
1.41143e-07 -1.29333e-06 1.81868e-05
0.000875529 1.03628e-07 -1.72595e-06
1.03628e-07 -3.89539e-05 1.7997e-07
-1.72595e-06 1.7997e-07 -9.59165e-05
0.0011801 7.98665e-06 1.87881e-07
7.98665e-06 8.13339e-05 -3.78872e-08
1.87881e-07 -3.78872e-08 2.07778e-05
0.0012465 8.28534e-06 2.35531e-08
8.28534e-06 0.000102761 7.06414e-08
2.35531e-08 7.06414e-08 3.98103e-05
0.00118218 1.96896e-05 7.71293e-07
1.96896e-05 7.53831e-05 3.47035e-07
7.71293e-07 3.47035e-07 1.67225e-05
0.000866684 1.54192e-05 -3.93164e-07
1.54192e-05 -4.57041e-05 -1.10045e-07
-3.93164e-07 -1.10045e-07 -0.000101183
0.000703138 1.54534e-05 -4.84454e-06
1.54534e-05 -4.56232e-05 -1.29821e-08
-4.84454e-06 -1.29821e-08 -8.51298e-05
0.00104324 1.85797e-05 1.62718e-06
1.85797e-05 2.24532e-05 4.6788e-07
1.62718e-06 4.6788e-07 -3.28137e-05
0.000714456 1.67514e-05 5.58842e-08
1.67514e-05 -5.38281e-05 2.13117e-07
5.58842e-08 2.13117e-07 -9.16995e-05
0.00303575 3.42673e-05 -1.40664e-05
3.42673e-05 0.00112551 7.8845e-07
-1.40664e-05 7.8845e-07 0.0011192
0.000753088 1.64729e-05 4.78203e-06
1.64729e-05 -4.9374e-05 -5.6288e-07
4.78203e-06 -5.6288e-07 -8.49336e-05
0.00300561 3.41896e-05 1.99916e-07
3.41896e-05 0.00109832 1.22927e-07
1.99916e-07 1.22927e-07 0.0010939
0.00292002 3.36222e-05 1.33494e-05
3.36222e-05 0.00104415 -1.34556e-06
1.33494e-05 -1.34556e-06 0.00104199
0.00122465 -2.01618e-05 -7.64999e-07
-2.01618e-05 7.27552e-05 2.0575e-07
-7.64999e-07 2.0575e-07 1.13186e-05
0.00130894 -2.07851e-05 5.56622e-08
-2.07851e-05 9.72819e-05 2.83297e-07
5.56622e-08 2.83297e-07 3.32376e-05
0.00124614 -2.15522e-05 1.11118e-07
-2.15522e-05 6.46336e-05 7.05959e-07
1.11118e-07 7.05959e-07 -4.18347e-06
0.00102778 -1.36705e-05 -2.0739e-06
-1.36705e-05 -2.69882e-07 -1.21711e-08
-2.0739e-06 -1.21711e-08 -5.52083e-05
0.00119892 -1.55309e-05 1.92395e-07
-1.55309e-05 3.85882e-05 -1.93559e-07
1.92395e-07 -1.93559e-07 -2.22761e-05
0.00124351 -1.55897e-05 -9.86736e-08
-1.55897e-05 3.92579e-05 -6.25901e-07
-9.86736e-08 -6.25901e-07 -2.17579e-05
0.000767852 -1.21088e-05 -5.2722e-06
-1.21088e-05 -6.19082e-05 -8.40123e-07
-5.2722e-06 -8.40123e-07 -9.52551e-05
0.00106059 -1.00999e-06 1.13305e-08
-1.00999e-06 2.0051e-06 2.29312e-07
1.13305e-08 2.29312e-07 -5.34941e-05
0.00126695 -5.41821e-07 1.15963e-06
-5.41821e-07 5.23763e-05 -2.60943e-07
1.15963e-06 -2.60943e-07 -1.07192e-05
0.00311448 -3.30934e-05 -1.41969e-05
-3.30934e-05 0.00111972 -1.85188e-06
-1.41969e-05 -1.85188e-06 0.00111926
0.0007786 -8.7821e-06 -9.98489e-08
-8.7821e-06 -6.10782e-05 1.19209e-07
-9.98489e-08 1.19209e-07 -9.21534e-05
0.00107685 9.13635e-06 1.86903e-06
9.13635e-06 1.17899e-05 6.60754e-07
1.86903e-06 6.60754e-07 -4.41928e-05
0.00302992 -3.27618e-05 -1.35372e-07
-3.27618e-05 0.00106807 1.23196e-07
-1.35372e-07 1.23196e-07 0.00107034
0.000732171 -1.37622e-05 4.67555e-06
-1.37622e-05 -7.94715e-05 1.83113e-06
4.67555e-06 1.83113e-06 -0.000107136
0.00285269 -3.18111e-05 1.07709e-05
-3.18111e-05 0.000974906 2.26846e-06
1.07709e-05 2.26846e-06 0.00098016
0.00101804 -1.10659e-05 -1.59122e-06
-1.10659e-05 2.42346e-05 -5.91501e-08
-1.59122e-06 -5.91501e-08 -3.20102e-05
0.00114861 -1.07936e-05 1.1657e-07
-1.07936e-05 5.49722e-05 8.94313e-08
1.1657e-07 8.94313e-08 -6.5627e-06
0.00122765 -1.75129e-05 7.67342e-07
-1.75129e-05 8.12961e-05 -5.8913e-07
7.67342e-07 -5.8913e-07 1.73178e-05
0.000693061 6.54146e-06 -4.72067e-06
6.54146e-06 -4.648e-05 2.13986e-07
-4.72067e-06 2.13986e-07 -8.71442e-05
0.000870388 3.53518e-06 -2.59781e-07
3.53518e-06 -4.04819e-05 1.03867e-07
-2.59781e-07 1.03867e-07 -9.72744e-05
0.00118664 1.08812e-05 5.10269e-07
1.08812e-05 8.43256e-05 4.87126e-08
5.10269e-07 4.87126e-08 2.38367e-05
0.000890283 1.58608e-05 1.34547e-06
1.58608e-05 -3.54181e-05 1.8891e-07
1.34547e-06 1.8891e-07 -9.09163e-05
0.000698861 1.59722e-05 -3.09262e-08
1.59722e-05 -4.82547e-05 -1.00077e-07
-3.09262e-08 -1.00077e-07 -8.76759e-05
0.00291456 3.22918e-05 -1.4106e-05
3.22918e-05 0.00108257 3.59949e-07
-1.4106e-05 3.59949e-07 0.00107473
0.00071068 1.83956e-05 4.9198e-06
1.83956e-05 -5.63489e-05 1.44823e-08
4.9198e-06 1.44823e-08 -9.41009e-05
0.00294695 3.29802e-05 3.3556e-07
3.29802e-05 0.00108654 1.5741e-07
3.3556e-07 1.5741e-07 0.00108005
0.00292975 3.30245e-05 1.42189e-05
3.30245e-05 0.00106502 -9.8164e-07
1.42189e-05 -9.8164e-07 0.00106033
0.00101669 -1.78298e-05 -1.87353e-06
-1.78298e-05 1.26166e-05 -5.74357e-08
-1.87353e-06 -5.74357e-08 -4.29555e-05
0.00117942 -1.969e-05 -2.54765e-09
-1.969e-05 5.17511e-05 8.10587e-08
-2.54765e-09 8.10587e-08 -9.77689e-06
0.00127723 -2.06373e-05 3.58108e-07
-2.06373e-05 8.14759e-05 1.09308e-07
3.58108e-07 1.09308e-07 1.68914e-05
0.00162446 -2.24002e-05 -8.05011e-06
-2.24002e-05 0.000371278 -6.15344e-07
-8.05011e-06 -6.15344e-07 0.000341823
0.00104491 -1.29164e-05 1.55587e-07
-1.29164e-05 7.36952e-06 -5.27351e-08
1.55587e-07 -5.27351e-08 -4.76381e-05
0.001204 -1.54075e-05 8.7286e-07
-1.54075e-05 4.10913e-05 -6.16111e-07
8.7286e-07 -6.16111e-07 -1.97912e-05
0.00308393 -3.33087e-05 -1.45504e-05
-3.33087e-05 0.00112014 -1.42026e-06
-1.45504e-05 -1.42026e-06 0.00111752
0.000756578 -1.10633e-05 -2.47685e-08
-1.10633e-05 -6.63567e-05 1.81992e-07
-2.47685e-08 1.81992e-07 -9.98167e-05
0.00108949 -2.54483e-07 2.5435e-06
-2.54483e-07 1.48879e-05 4.3367e-07
2.5435e-06 4.3367e-07 -4.07092e-05
0.00316431 -3.37385e-05 -1.47479e-07
-3.37385e-05 0.00114203 1.40955e-07
-1.47479e-07 1.40955e-07 0.00114181
0.00073773 -8.92724e-06 5.08062e-06
-8.92724e-06 -7.89464e-05 1.64108e-06
5.08062e-06 1.64108e-06 -0.00011004
0.00305339 -3.32276e-05 1.20108e-05
-3.32276e-05 0.00107869 2.16298e-06
1.20108e-05 2.16298e-06 0.00108125
0.000670645 -8.14545e-06 -6.95049e-06
-8.14545e-06 -6.27446e-05 -6.1274e-07
-6.95049e-06 -6.1274e-07 -0.000103213
0.000966332 -1.05135e-05 1.08683e-07
-1.05135e-05 -1.32655e-06 4.06509e-08
1.08683e-07 4.06509e-08 -5.79464e-05
0.00107416 -1.30521e-05 7.23047e-07
-1.30521e-05 1.98201e-05 -1.22881e-07
7.23047e-07 -1.22881e-07 -4.20115e-05
0.00285679 -1.73779e-06 -1.30388e-05
-1.73779e-06 0.00106229 5.76104e-08
-1.30388e-05 5.76104e-08 0.0010536
0.00069964 5.15458e-06 9.8032e-08
5.15458e-06 -4.37488e-05 2.16733e-07
9.8032e-08 2.16733e-07 -8.44383e-05
0.000867211 7.0966e-06 1.1859e-06
7.0966e-06 -4.1149e-05 1.74717e-07
1.1859e-06 1.74717e-07 -9.77568e-05
0.000695372 1.6508e-05 4.64696e-06
1.6508e-05 -5.0549e-05 -1.92828e-07
4.64696e-06 -1.92828e-07 -8.98821e-05
0.00287058 3.15857e-05 6.2865e-07
3.15857e-05 0.0010635 9.72873e-08
6.2865e-07 9.72873e-08 0.00105553
0.00286027 3.19366e-05 1.43766e-05
3.19366e-05 0.00104857 -5.02864e-07
1.43766e-05 -5.02864e-07 0.00104191
0.00151871 -2.23477e-05 -1.00776e-05
-2.23477e-05 0.00033894 -8.89994e-07
-1.00776e-05 -8.89994e-07 0.00030707
0.00102951 -1.72318e-05 5.50249e-08
-1.72318e-05 1.82654e-05 4.30102e-08
5.50249e-08 4.30102e-08 -3.73396e-05
0.00113321 -1.91979e-05 5.41341e-07
-1.91979e-05 3.03068e-05 -3.75501e-08
5.41341e-07 -3.75501e-08 -3.13146e-05
0.00302854 -3.58807e-05 -6.13547e-06
-3.58807e-05 0.00110971 -4.42016e-07
-6.13547e-06 -4.42016e-07 0.00110512
0.000771187 -1.65028e-05 2.04214e-08
-1.65028e-05 -4.50955e-05 6.5606e-08
2.04214e-08 6.5606e-08 -8.05599e-05
0.00106228 -1.20349e-05 2.30645e-06
-1.20349e-05 1.51091e-05 -9.26947e-08
2.30645e-06 -9.26947e-08 -3.99603e-05
0.00318026 -3.40902e-05 -1.81648e-07
-3.40902e-05 0.00116313 1.52225e-07
-1.81648e-07 1.52225e-07 0.00116068
0.000746291 -9.71845e-06 5.36004e-06
-9.71845e-06 -7.03649e-05 1.2527e-06
5.36004e-06 1.2527e-06 -0.000103932
0.00321654 -3.44014e-05 1.32405e-05
-3.44014e-05 0.00116549 1.96538e-06
1.32405e-05 1.96538e-06 0.0011655
0.00114827 -1.60647e-05 -1.22826e-05
-1.60647e-05 0.000227218 -3.18361e-07
-1.22826e-05 -3.18361e-07 0.000205999
0.00115486 -1.33352e-05 -2.62124e-06
-1.33352e-05 0.00017195 7.23419e-08
-2.62124e-06 7.23419e-08 0.000134841
0.000912668 -9.81025e-06 1.72129e-06
-9.81025e-06 -2.78035e-05 1.40934e-07
1.72129e-06 1.40934e-07 -8.47961e-05
0.00287174 7.21771e-07 2.9325e-07
7.21771e-07 0.00106893 1.00123e-07
2.9325e-07 1.00123e-07 0.00106019
0.00070285 3.73053e-06 4.74175e-06
3.73053e-06 -4.25437e-05 2.0544e-07
4.74175e-06 2.0544e-07 -8.32564e-05
0.0028219 3.16182e-05 1.27971e-05
3.16182e-05 0.00104244 -2.10872e-07
1.27971e-05 -2.10872e-07 0.00103429
0.00110634 -2.19665e-05 -4.41189e-06
-2.19665e-05 0.000193256 -3.33203e-07
-4.41189e-06 -3.33203e-07 0.000174527
0.00120734 -2.06714e-05 -2.58159e-06
-2.06714e-05 0.000185462 -5.40232e-08
-2.58159e-06 -5.40232e-08 0.00015043
0.00104322 -1.67762e-05 1.86745e-06
-1.67762e-05 2.43403e-05 1.40147e-07
1.86745e-06 1.40147e-07 -3.13015e-05
0.00217363 -2.87666e-05 4.89155e-06
-2.87666e-05 0.000692204 4.23411e-07
4.89155e-06 4.23411e-07 0.00068167
0.00074041 -1.49351e-05 5.29181e-06
-1.49351e-05 -5.80579e-05 8.17671e-07
5.29181e-06 8.17671e-07 -9.3759e-05
0.00327848 -3.50042e-05 1.43084e-05
-3.50042e-05 0.001207 1.64966e-06
1.43084e-05 1.64966e-06 0.00120472
0.00287353 -3.06096e-05 -5.533e-07
-3.06096e-05 0.00106607 1.52634e-07
-5.533e-07 1.52634e-07 0.00105769
0.00071672 -1.19861e-05 4.96969e-06
-1.19861e-05 -4.03653e-05 6.02693e-07
4.96969e-06 6.02693e-07 -8.07813e-05
0.00288823 2.26309e-06 1.37771e-05
2.26309e-06 0.00107599 5.58906e-08
1.37771e-05 5.58906e-08 0.00106723
0.00203519 -2.67424e-05 4.92717e-06
-2.67424e-05 0.000647075 2.75615e-07
4.92717e-06 2.75615e-07 0.000633955
0.000726849 -1.70025e-05 5.03724e-06
-1.70025e-05 -4.65681e-05 7.58435e-07
5.03724e-06 7.58435e-07 -8.48423e-05
0.00319735 -3.47034e-05 1.47906e-05
-3.47034e-05 0.00118523 1.24717e-06
1.47906e-05 1.24717e-06 0.00118085
0.00294371 -3.19414e-05 1.43212e-05
-3.19414e-05 0.00109654 4.93811e-07
1.43212e-05 4.93811e-07 0.00108845
0.00304772 -3.3623e-05 1.46096e-05
-3.3623e-05 0.00113242 8.7534e-07
1.46096e-05 8.7534e-07 0.001126
