# vtk DataFile Version 2.0
Wound Healing Simulation
ASCII
DATASET UNSTRUCTURED_GRID
POINTS 3012 float
69.9759 18.75 4
67.2507 60.3285 4
69.976 18.75 2
73.0099 25.446 4
71.1327 20.9142 4
68.6801 16.6661 4
67.8276 19.9219 3.98912
67.2507 60.3286 2
71.1327 54.0858 4
68.6801 58.3339 4
65.6939 62.2254 4
65.3139 59.0061 3.99065
74.6784 42.3946 4
73.7221 47.2057 4
69.9759 18.75 0
73.0099 25.446 2
68.6801 16.6661 2
71.1327 20.9142 2
67.8278 19.9222 2
74.6792 32.6053 4
73.7222 27.7943 4
72.1454 23.1494 4
70.6166 26.2214 3.98803
68.8881 21.9555 3.9887
67.2507 14.6715 4
66.6388 17.9667 3.98988
65.8044 21.0175 3.98505
67.2507 60.3285 0
71.1327 54.0858 2
68.6801 58.3339 2
65.694 62.2255 2
65.314 59.0062 2
72.1454 51.8506 4
69.9759 56.25 4
68.8391 53.1152 3.98875
64.0165 64.0165 4
66.6126 57.1383 3.9901
63.8872 60.7703 3.9915
63.5059 57.7822 3.98609
60.3285 67.2507 4
74.6792 42.3947 2
73.7222 47.2057 2
74.9194 39.9526 4
74.2788 44.8158 4
72.17 42.0852 3.98721
73.0099 49.554 4
71.2517 46.5972 3.9881
73.0099 25.446 0
71.1327 20.9142 0
68.6801 16.6661 0
67.8276 19.9219 0.0108834
74.6792 32.6053 2
73.7222 27.7943 2
67.2508 14.6715 2
72.1455 23.1494 2
70.6167 26.2224 2
66.639 17.9667 2
68.8883 21.9562 2
65.8045 21.0173 2
74.9197 35.0474 4
74.2794 30.1841 4
72.1866 32.9435 3.98762
71.2805 28.4321 3.98797
69.8181 24.0588 3.98837
68.354 26.9492 3.9825
66.7702 22.9276 3.98447
65.694 12.7746 4
65.3252 16.0981 3.99084
64.7203 19.1848 3.98574
63.8993 22.0229 3.98285
71.1327 54.0858 0
65.6939 62.2254 0
68.6801 58.3339 0
65.3139 59.0061 0.00935391
72.1455 51.8506 2
69.9759 56.25 2
68.8394 53.1146 2
64.0165 64.0165 2
66.6128 57.1383 2
63.8873 60.7704 2
63.506 57.7825 2
62.2254 65.694 4
58.8941 65.417 3.99253
69.7718 50.9894 3.98834
67.7861 55.171 3.98948
66.6579 52.2144 3.98458
62.3372 62.4311 3.9921
64.6678 56.0408 3.98623
62.2067 59.4154 3.98633
61.8325 56.6964 3.98421
58.3339 68.6801 4
60.3285 67.2508 2
73.7221 47.2057 0
74.6784 42.3946 0
74.9197 39.9526 2
74.2794 44.8159 2
72.1699 42.0849 2
73.0099 49.554 2
71.2518 46.5964 2
75 37.5 4
72.4069 39.8021 3.98662
71.7847 44.3522 3.9878
69.8099 41.7896 3.98113
70.5779 48.8129 3.9882
68.9195 46.0157 3.98194
74.6792 32.6053 0
73.7222 27.7943 0
67.2507 14.6715 0
72.1454 23.1494 0
70.6166 26.2214 0.0119657
68.8881 21.9555 0.011303
66.6388 17.9667 0.0101205
65.8044 21.0175 0.0149546
74.9197 35.0474 2
74.2794 30.1841 2
72.1866 32.9439 2
71.2805 28.433 2
65.694 12.7745 2
65.3253 16.098 2
69.8183 24.0598 2
68.3539 26.9493 2
64.7204 19.1845 2
66.7703 22.9274 2
63.8994 22.0228 2
72.4149 35.2242 3.98684
71.806 30.6768 3.98804
69.8461 33.2682 3.98156
68.973 29.037 3.98185
67.6189 24.9082 3.9836
66.2064 27.6293 3.9803
64.0165 10.9835 4
64.7694 23.82 3.98236
63.8913 14.3226 3.99157
63.5183 17.4353 3.98643
62.918 20.3056 3.98337
62.1096 22.9267 3.9818
60.6845 11.0943 3.99222
57.6129 11.4386 3.98737
72.1454 51.8506 0
69.9759 56.25 0
68.8391 53.1152 0.0112545
64.0165 64.0165 0
63.8872 60.7703 0.0084981
66.6126 57.1383 0.00989891
63.5059 57.7822 0.0139136
62.2255 65.694 2
58.8942 65.4171 2
69.772 50.9885 2
67.7863 55.1708 2
66.6581 52.2146 2
62.3373 62.4311 2
64.6679 56.0411 2
62.2068 59.4156 2
61.8327 56.6966 2
60.6691 63.9802 3.99232
57.0245 66.7374 3.99282
57.558 63.6984 3.9875
67.5158 50.1801 3.98358
65.7101 54.1806 3.98565
64.5518 51.395 3.98207
60.7754 60.9479 3.98691
62.8319 55.082 3.98452
60.6653 58.1746 3.98417
60.3405 55.8046 3.98343
56.25 69.9759 4
58.3339 68.6801 2
60.3285 67.2507 0
58.9214 9.65277 3.99255
62.2254 9.30607 4
73.0099 49.554 0
74.2788 44.8158 0
71.2517 46.5972 0.0119012
72.17 42.0852 0.0127904
74.9194 39.9526 0
75 37.5 2
72.4068 39.802 2
71.7846 44.3516 2
69.8098 41.7894 2
70.578 48.812 2
68.9194 46.0155 2
72.4902 37.512 3.98641
70.0462 39.6572 3.98032
69.437 43.9078 3.98161
67.6074 41.4991 3.9786
68.2738 48.1091 3.98265
66.7218 45.4435 3.97978
74.9197 35.0474 0
74.2794 30.1841 0
72.1866 32.9435 0.0123792
71.2805 28.4321 0.0120254
65.694 12.7746 0
65.3252 16.0981 0.00916225
69.8181 24.0588 0.0116295
68.354 26.9492 0.0174971
66.7702 22.9276 0.0155334
64.7203 19.1848 0.0142556
63.8993 22.0229 0.0171508
72.4148 35.2244 2
71.806 30.6774 2
69.8459 33.2684 2
68.9728 29.0372 2
64.0165 10.9835 2
63.8914 14.3226 2
63.5184 17.4351 2
67.6189 24.9081 2
66.2063 27.6291 2
62.9182 20.3055 2
64.7694 23.8198 2
62.1096 22.9267 2
60.6846 11.0943 2
57.6128 11.4383 2
70.0633 35.392 3.98097
69.4737 31.149 3.9818
67.6659 33.5891 3.979
66.7836 29.6189 3.97954
65.5367 25.6917 3.9814
64.1626 28.2468 3.97958
62.3425 12.6512 3.99197
62.8745 24.6231 3.98153
62.2022 15.7734 3.9867
61.8224 18.6688 3.98425
61.2325 21.3231 3.98184
60.4464 23.7078 3.98162
59.2474 12.7693 3.9869
55.8744 10.2256 3.98834
56.4067 13.101 3.98452
69.7718 50.9894 0.0116643
62.2254 65.694 0
58.8941 65.417 0.00746572
67.7861 55.171 0.0105204
66.6579 52.2144 0.0154164
62.3372 62.4311 0.00789815
62.2067 59.4154 0.0136655
64.6678 56.0408 0.0137738
61.8325 56.6964 0.0157867
60.6692 63.9803 2
57.0247 66.7375 2
57.558 63.6988 2
67.5159 50.1802 2
65.7103 54.1809 2
64.5519 51.3953 2
60.7755 60.9484 2
62.8321 55.0823 2
60.6655 58.175 2
60.3407 55.8047 2
55.0699 67.9341 3.99314
59.2205 62.3747 3.98711
55.8038 64.9151 3.98815
56.3283 62.0991 3.98477
65.3456 49.4156 3.9811
63.7196 53.3046 3.9835
62.4611 50.6657 3.98077
59.3378 59.5706 3.98482
61.0925 54.327 3.98376
59.2986 57.0311 3.98273
59.2567 55.2039 3.98361
48.1021 68.5818 3.98997
50.9479 69.9333 3.99368
54.0858 71.1327 4
56.25 69.976 2
58.3339 68.6801 0
57.0584 8.3328 3.99298
60.3285 7.74928 4
58.9215 9.65271 2
62.2255 9.30602 2
70.5779 48.8129 0.0117979
71.7847 44.3522 0.0122005
68.9195 46.0157 0.018064
69.8099 41.7896 0.0188712
72.4069 39.8021 0.0133771
75 37.5 0
72.4901 37.5121 2
70.0461 39.657 2
69.4369 43.9075 2
67.6073 41.4991 2
68.2738 48.109 2
66.7217 45.4436 2
70.1342 37.5215 3.9802
67.8434 39.513 3.97781
67.2347 43.4724 3.97923
65.5701 41.213 3.97786
66.0817 47.4232 3.9804
64.6687 44.8547 3.97902
72.4149 35.2242 0.0131569
71.806 30.6768 0.0119649
69.8461 33.2682 0.0184439
68.973 29.037 0.0181462
64.0165 10.9835 0
63.8913 14.3226 0.00843356
63.5183 17.4353 0.0135684
67.6189 24.9082 0.0164036
66.2064 27.6293 0.0197022
64.7694 23.82 0.0176361
62.918 20.3056 0.0166296
62.1096 22.9267 0.0182033
60.6845 11.0943 0.00778358
57.6129 11.4386 0.0126291
70.0631 35.392 2
69.4735 31.1492 2
67.6657 33.5889 2
66.7833 29.6188 2
62.3426 12.6512 2
62.2022 15.7731 2
61.8226 18.6686 2
65.5366 25.6915 2
64.1623 28.2466 2
61.2326 21.3232 2
62.8744 24.6231 2
60.4463 23.7079 2
59.2474 12.769 2
56.4067 13.1007 2
55.8744 10.2252 2
67.8801 35.5467 3.97855
67.2765 31.6195 3.97946
65.7123 33.9241 3.97805
64.6786 30.1854 3.97846
63.5554 26.4028 3.98056
62.2778 28.7659 3.97998
60.7772 14.2131 3.98675
61.0669 25.3203 3.98143
60.6183 17.1126 3.98484
60.2342 19.7971 3.98286
59.6794 22.2371 3.9808
59.0021 24.2983 3.98202
54.0374 9.12921 3.98913
57.9126 14.3189 3.98472
54.7875 12.0008 3.985
55.3149 14.6318 3.9834
67.5158 50.1801 0.0164241
57.0245 66.7374 0.00718
60.6691 63.9802 0.00768271
57.558 63.6984 0.0124997
65.7101 54.1806 0.0143507
64.5518 51.395 0.0179308
60.7754 60.9479 0.0130903
60.6653 58.1746 0.0158292
62.8319 55.082 0.0154751
60.3405 55.8046 0.0165721
55.0701 67.9342 2
59.2205 62.3752 2
55.8039 64.9155 2
56.3283 62.0995 2
65.3457 49.4159 2
63.7198 53.3049 2
62.4612 50.6659 2
59.3379 59.5711 2
61.0928 54.3272 2
59.2988 57.0313 2
59.2569 55.204 2
53.0419 69.0017 3.99345
53.9658 66.0169 3.98879
57.8835 60.8815 3.98486
54.6839 63.2141 3.98518
55.214 60.6267 3.98354
63.2133 48.6721 3.98
61.7599 52.5913 3.98242
60.298 50.0363 3.98011
58.0245 58.2772 3.98349
59.345 53.9679 3.98296
58.1387 55.8339 3.98135
50.1084 67.8599 3.98969
47.4622 66.5859 3.98748
46.056 69.1612 3.9902
48.1022 68.5822 2
48.8022 70.7244 3.99388
50.9481 69.9335 2
51.8506 72.1454 4
54.0858 71.1327 2
56.25 69.9759 0
55.1027 7.13748 3.99333
58.3339 6.31992 4
57.0586 8.33271 2
60.3286 7.74926 2
58.9214 9.65277 0.00745284
62.2254 9.30607 0
68.2738 48.1091 0.017345
69.437 43.9078 0.01839
66.7218 45.4435 0.0202152
67.6074 41.4991 0.0213951
70.0462 39.6572 0.0196814
72.4902 37.512 0.0135858
70.134 37.5214 2
67.8432 39.5129 2
67.2346 43.4724 2
65.5699 41.213 2
66.0817 47.4234 2
64.6685 44.8548 2
67.9395 37.522 3.9775
65.8005 39.3718 3.97719
65.1913 43.03 3.97834
63.7737 40.9342 3.97794
63.9834 46.7251 3.97945
62.8278 44.2248 3.97955
70.0633 35.392 0.019034
69.4737 31.149 0.0182049
67.6659 33.5891 0.0210033
66.7836 29.6189 0.020464
62.3425 12.6512 0.00802905
62.2022 15.7734 0.0133045
61.8224 18.6688 0.0157465
65.5367 25.6917 0.0186022
64.1626 28.2468 0.02042
62.8745 24.6231 0.0184664
61.2325 21.3231 0.0181556
60.4464 23.7078 0.0183823
59.2474 12.7693 0.0130965
56.4067 13.101 0.0154751
55.8744 10.2256 0.0116635
67.8799 35.5465 2
67.2762 31.6194 2
65.712 33.9238 2
64.6782 30.1852 2
60.7772 14.2128 2
60.6185 17.1123 2
60.2344 19.7971 2
63.5552 26.4027 2
62.2774 28.7658 2
59.6794 22.2373 2
61.0668 25.3203 2
59.0019 24.2986 2
57.9126 14.3186 2
55.3149 14.6316 2
54.0374 9.12879 2
54.7875 12.0004 2
65.8901 35.6653 3.97764
65.2017 32.1492 3.97827
64.3019 34.2461 3.97755
62.615 30.6262 3.97845
61.6729 27.0575 3.98035
60.8742 29.1263 3.98167
59.314 15.6551 3.98486
59.3568 25.7764 3.98263
59.131 18.3376 3.98392
58.7543 20.8324 3.98143
58.3058 23.0692 3.97991
57.9938 24.6419 3.98293
52.112 8.14798 3.98966
53.0581 11.0073 3.98591
56.6796 15.7271 3.98398
53.8111 13.6676 3.98321
54.3792 15.9829 3.98329
55.0699 67.9341 0.00686173
65.3456 49.4156 0.0188994
55.8038 64.9151 0.0118515
59.2205 62.3747 0.0128873
56.3283 62.0991 0.0152258
63.7196 53.3046 0.0164952
62.4611 50.6657 0.0192331
59.3378 59.5706 0.0151796
59.2986 57.0311 0.0172736
61.0925 54.327 0.0162382
59.2567 55.2039 0.0163853
53.0421 69.0018 2
53.9659 66.0173 2
57.8835 60.882 2
54.6839 63.2145 2
55.214 60.6271 2
63.2133 48.6723 2
61.7601 52.5915 2
60.298 50.0364 2
58.0247 58.2776 2
59.3452 53.968 2
58.1389 55.8341 2
52.0694 67.0032 3.98932
52.9526 64.224 3.98576
56.6525 59.5021 3.98392
53.6822 61.6304 3.98382
54.2636 59.3333 3.98291
61.0179 47.895 3.97927
59.7322 52.1246 3.9821
58.0544 49.6369 3.98053
56.7851 57.0067 3.98169
57.1382 54.1454 3.98094
50.1086 67.8603 2
49.3358 65.9261 3.987
47.4622 66.5864 2
46.8913 64.7425 3.98561
45.5574 67.1034 3.9877
43.9732 69.5939 3.99043
46.056 69.1616 2
46.609 71.3689 3.99408
48.1021 68.5818 0.0100295
48.8024 70.7246 2
49.554 73.0099 4
50.9479 69.9333 0.00631833
51.8506 72.1455 2
54.0858 71.1327 0
53.0638 6.06911 3.99361
55.1029 7.13735 2
56.25 5.02411 4
58.3339 6.3199 2
57.0584 8.3328 0.00701607
60.3285 7.74928 0
66.0817 47.4232 0.0195974
67.2347 43.4724 0.0207667
64.6687 44.8547 0.0209755
65.5701 41.213 0.0221449
67.8434 39.513 0.0221859
70.1342 37.5215 0.0198046
67.9392 37.5218 2
65.8003 39.3717 2
65.1911 43.0301 2
63.7735 40.9342 2
63.9833 46.7253 2
62.8276 44.2249 2
65.903 37.5019 3.97657
63.9169 39.2693 3.97715
63.3483 42.5566 3.97828
62.4529 40.7034 3.97753
61.9901 45.9302 3.9794
61.4759 43.6936 3.98139
67.8801 35.5467 0.0214507
67.2765 31.6195 0.0205414
65.7123 33.9241 0.0219471
64.6786 30.1854 0.0215426
60.7772 14.2131 0.0132523
60.6183 17.1126 0.015157
60.2342 19.7971 0.0171407
63.5554 26.4028 0.0194393
62.2778 28.7659 0.0200188
61.0669 25.3203 0.0185664
59.6794 22.2371 0.019204
59.0021 24.2983 0.0179827
57.9126 14.3189 0.0152752
55.3149 14.6318 0.0166038
54.0374 9.12921 0.0108672
54.7875 12.0008 0.0150001
65.8898 35.665 2
65.2013 32.149 2
64.3015 34.2458 2
62.6145 30.626 2
59.314 15.6547 2
59.1313 18.3373 2
58.7545 20.8325 2
61.6726 27.0575 2
60.8736 29.1263 2
58.3058 23.0695 2
59.3565 25.7766 2
57.9935 24.6423 2
56.6796 15.7269 2
54.3792 15.9827 2
53.8111 13.6673 2
52.1121 8.14756 2
53.0581 11.0069 2
64.1085 35.6304 3.97709
62.9512 33.0398 3.97731
60.6397 30.5992 3.97892
59.5992 27.8927 3.98131
57.9437 16.9671 3.98419
57.7683 25.7035 3.98403
57.7241 19.4561 3.98288
57.3875 21.8172 3.97963
57.2098 23.9235 3.97988
50.1122 7.28034 3.98995
51.2323 10.116 3.98663
52.1729 12.785 3.98408
55.541 16.9555 3.98381
52.9798 15.2491 3.98205
53.7615 16.9643 3.98349
53.0419 69.0017 0.00654771
53.9658 66.0169 0.0112129
63.2133 48.6721 0.0199953
54.6839 63.2141 0.0148164
57.8835 60.8815 0.0151424
55.214 60.6267 0.0164588
61.7599 52.5913 0.0175812
60.298 50.0363 0.0198921
58.0245 58.2772 0.0165084
58.1387 55.8339 0.018651
59.345 53.9679 0.0170398
52.0694 67.0035 2
52.9526 64.2244 2
56.6526 59.5026 2
53.6822 61.6308 2
54.2637 59.3337 2
61.0179 47.8951 2
59.7324 52.1247 2
58.0544 49.6368 2
56.7853 57.0071 2
57.1384 54.1455 2
51.1668 65.133 3.98639
52.0461 62.5451 3.98407
55.4857 58.2647 3.98344
52.8367 60.1447 3.98307
53.6443 58.4841 3.98298
58.338 46.8651 3.98151
57.5855 51.8087 3.98067
56.279 49.5754 3.98217
55.4824 55.8146 3.98013
55.3767 53.406 3.97813
50.1084 67.8599 0.0103123
49.3358 65.9265 2
48.6172 64.1285 3.98516
47.4622 66.5859 0.0125232
45.5574 67.1039 2
46.8913 64.7429 2
46.3809 63.0604 3.98419
45.1316 65.2042 3.98592
43.6308 67.4746 3.98788
41.8605 69.8815 3.99052
43.9732 69.5943 2
44.3765 71.8638 3.99424
46.056 69.1612 0.00979827
46.6091 71.3691 2
47.2057 73.7222 4
48.8022 70.7244 0.00611623
49.554 73.0099 2
51.8506 72.1454 0
50.9535 5.12966 3.99378
53.0639 6.06894 2
54.0858 3.86728 4
55.1027 7.13748 0.00667423
56.25 5.02406 2
58.3339 6.31992 0
63.9834 46.7251 0.0205467
65.1913 43.03 0.0216638
62.8278 44.2248 0.0204485
63.7737 40.9342 0.022056
65.8005 39.3718 0.0228099
67.9395 37.522 0.0224992
65.9027 37.5017 2
63.9167 39.2692 2
63.348 42.5566 2
62.4527 40.7034 2
61.99 45.9303 2
61.4756 43.6936 2
63.9768 37.4573 3.97663
62.1809 39.3586 3.97725
61.2436 41.9672 3.97859
60.2778 44.7824 3.98177
65.8901 35.6653 0.022364
65.2017 32.1492 0.0217333
64.3019 34.2461 0.0224463
62.615 30.6262 0.0215466
59.314 15.6551 0.0151393
59.131 18.3376 0.0160838
58.7543 20.8324 0.0185699
61.6729 27.0575 0.0196491
60.8742 29.1263 0.0183283
59.3568 25.7764 0.0173659
58.3058 23.0692 0.0200881
57.9938 24.6419 0.0170723
56.6796 15.7271 0.0160238
54.3792 15.9829 0.0167058
53.8111 13.6676 0.0167927
52.112 8.14798 0.0103399
53.0581 11.0073 0.0140921
64.1081 35.6301 2
62.9507 33.0395 2
60.639 30.599 2
57.9439 16.9668 2
57.7244 19.4559 2
57.3876 21.8175 2
59.5987 27.8928 2
57.2096 23.924 2
57.7679 25.7039 2
50.1122 7.27995 2
55.5411 16.9554 2
53.7615 16.9641 2
52.9798 15.2488 2
52.1729 12.7846 2
51.2323 10.1155 2
62.2137 35.356 3.97673
60.3193 32.7363 3.97676
58.6533 30.0588 3.9797
57.3249 27.3591 3.98344
56.6412 18.1383 3.98384
56.321 25.0789 3.98119
56.3683 20.5006 3.98112
56.1286 22.8454 3.97709
48.056 6.52369 3.99017
49.3242 9.3243 3.98733
50.4334 11.9835 3.98455
51.3794 14.4849 3.98235
54.419 17.904 3.98347
52.3641 17.021 3.98218
52.0694 67.0032 0.0106784
52.9526 64.224 0.0142386
61.0179 47.895 0.0207266
53.6822 61.6304 0.0161759
56.6525 59.5021 0.0160837
54.2636 59.3333 0.0170872
59.7322 52.1246 0.0178956
58.0544 49.6369 0.0194708
56.7851 57.0067 0.0183132
57.1382 54.1454 0.0190628
51.1668 65.1334 2
52.0461 62.5455 2
55.4859 58.2652 2
52.8367 60.1452 2
53.6444 58.4846 2
58.3379 46.865 2
57.5857 51.8087 2
56.279 49.5752 2
55.4827 55.8149 2
55.3769 53.4061 2
50.3456 63.3865 3.98456
51.245 60.9426 3.9827
54.2255 57.2799 3.98247
52.316 58.6453 3.98227
56.7584 44.2001 3.98222
55.5308 47.9154 3.98122
55.0968 51.4118 3.97813
54.0181 54.5671 3.97764
49.3358 65.9261 0.0129958
48.6171 64.129 2
47.9614 62.4811 3.9838
45.5574 67.1034 0.012302
46.8913 64.7425 0.0143868
43.6308 67.4751 2
46.3808 63.0609 2
45.1315 65.2047 2
45.9867 61.5932 3.98301
44.7661 63.4619 3.98462
43.3555 65.5142 3.98597
41.663 67.6939 3.98804
39.7023 70.0287 3.99049
41.8606 69.882 2
42.111 72.2086 3.99422
43.9732 69.5939 0.00956652
44.3766 71.864 2
44.8159 74.2794 4
46.609 71.3689 0.00592155
47.2057 73.7222 2
49.554 73.0099 0
48.7841 4.32079 3.99398
50.9536 5.12947 2
51.8506 2.85458 4
53.0638 6.06911 0.00639057
54.0858 3.86728 2
56.25 5.02411 0
61.9901 45.9302 0.0206006
63.3483 42.5566 0.0217213
61.4759 43.6936 0.0186083
62.4529 40.7034 0.0224682
63.9169 39.2693 0.0228481
65.903 37.5019 0.0234288
63.9764 37.4571 2
62.1806 39.3584 2
61.2433 41.9672 2
60.2776 44.7824 2
62.0195 37.4449 3.97707
60.2797 39.8534 3.97739
59.0285 42.9308 3.9802
64.1085 35.6304 0.0229126
62.9512 33.0398 0.0226877
60.6397 30.5992 0.0210823
57.9437 16.9671 0.0158098
57.7241 19.4561 0.0171215
57.3875 21.8172 0.0203741
59.5992 27.8927 0.0186896
57.7683 25.7035 0.0159658
57.2098 23.9235 0.0201237
55.541 16.9555 0.0161926
53.7615 16.9643 0.0165055
52.9798 15.2491 0.0179487
50.1122 7.28034 0.0100462
52.1729 12.785 0.0159217
51.2323 10.116 0.013366
62.2133 35.3558 2
60.3186 32.736 2
58.6524 30.0588 2
56.6415 18.138 2
56.3687 20.5006 2
56.1286 22.846 2
57.3243 27.3594 2
56.3206 25.0796 2
48.0561 6.52334 2
49.3241 9.32387 2
54.4192 17.9038 2
52.3641 17.0207 2
51.3794 14.4844 2
50.4334 11.983 2
59.9276 35.1151 3.97683
58.0316 32.2563 3.97727
56.5839 29.3177 3.98072
55.4836 26.5765 3.98439
55.3482 19.1719 3.98315
54.9547 24.033 3.97611
55.0152 21.541 3.97965
45.962 5.87894 3.99043
43.3735 7.46795 3.98846
47.3546 8.6184 3.98767
48.5999 11.2851 3.98524
49.7149 13.7321 3.98325
50.6357 16.1192 3.98096
53.1293 18.644 3.98246
51.3062 18.0346 3.98315
51.1668 65.133 0.0136142
52.0461 62.5451 0.015935
58.338 46.8651 0.0184875
52.8367 60.1447 0.016928
55.4857 58.2647 0.0165557
53.6443 58.4841 0.0170171
57.5855 51.8087 0.0193253
56.279 49.5754 0.0178262
55.4824 55.8146 0.01987
55.3767 53.406 0.0218708
50.3455 63.3869 2
51.245 60.943 2
54.2258 57.2804 2
52.316 58.6458 2
56.7581 44.1998 2
55.5306 47.9152 2
55.097 51.4118 2
54.0185 54.5673 2
49.5917 61.7507 3.98322
55.693 41.7216 3.97784
50.5689 59.3364 3.98142
52.1916 56.5035 3.98076
54.2354 45.5812 3.98227
53.3804 49.3496 3.97881
52.689 52.8739 3.97646
48.6172 64.1285 0.0148351
47.9613 62.4815 2
47.3291 61.0158 3.98267
43.6308 67.4746 0.012119
45.1316 65.2042 0.0140816
46.3809 63.0604 0.015806
41.663 67.6944 2
43.3555 65.5147 2
45.9866 61.5936 2
44.766 63.4624 2
45.7659 60.6373 3.9821
44.4823 61.8431 3.98332
43.1452 63.7347 3.98468
41.5451 65.6526 3.98625
39.6323 67.774 3.98815
37.5259 70.0542 3.99052
39.7023 70.0292 2
39.8178 72.4057 3.99413
41.8605 69.8815 0.00948269
42.1111 72.2089 2
42.3947 74.6792 4
44.3765 71.8638 0.00576324
44.8159 74.2794 2
47.2057 73.7222 0
43.8515 5.35602 3.99068
46.5701 3.64546 3.99416
48.7842 4.32061 2
49.554 1.99015 4
50.9535 5.12966 0.00622239
51.8506 2.85453 2
54.0858 3.86728 0
60.2778 44.7824 0.0182324
61.2436 41.9672 0.021412
62.1809 39.3586 0.0227519
63.9768 37.4573 0.0233727
62.019 37.4447 2
60.2795 39.8531 2
59.0283 42.9308 2
59.7997 37.5676 3.97806
58.0446 40.6672 3.97741
55.1772 39.7292 3.97813
62.2137 35.356 0.0232744
60.3193 32.7363 0.0232394
58.6533 30.0588 0.0202986
56.6412 18.1383 0.0161577
56.3683 20.5006 0.01888
56.1286 22.8454 0.022912
57.3249 27.3591 0.016556
56.321 25.0789 0.0188112
54.419 17.904 0.016535
52.3641 17.021 0.0178212
51.3794 14.4849 0.0176464
48.056 6.52369 0.00982573
49.3242 9.3243 0.0126694
50.4334 11.9835 0.0154509
59.927 35.1148 2
45.962 5.87858 2
43.3735 7.46761 2
58.0306 32.2561 2
56.5829 29.3177 2
55.3486 19.1716 2
55.0157 21.5411 2
54.9545 24.034 2
55.483 26.5774 2
47.3546 8.61802 2
48.5999 11.2848 2
53.1295 18.6437 2
51.3063 18.0343 2
50.6357 16.1187 2
49.7148 13.7317 2
57.4449 34.7531 3.97775
55.7746 31.4991 3.97777
54.5579 28.3796 3.9862
53.8047 25.4746 3.9791
53.976 20.1193 3.98297
53.5987 22.6858 3.97522
41.3986 7.07315 3.98861
45.3594 7.98993 3.98808
42.8651 9.40858 3.98674
46.6661 10.6462 3.98568
47.7456 13.0925 3.98346
48.933 15.3895 3.98223
50.0087 17.6884 3.97938
51.6575 19.3126 3.98448
50.3456 63.3865 0.0154351
51.245 60.9426 0.0173024
56.7584 44.2001 0.0177807
55.5308 47.9154 0.0187758
52.316 58.6453 0.017729
54.2255 57.2799 0.0175253
55.0968 51.4118 0.0218711
54.0181 54.5671 0.0223589
49.5916 61.7511 2
55.6928 41.7207 2
50.5689 59.3368 2
52.1921 56.5041 2
54.2352 45.5811 2
53.3803 49.349 2
52.6894 52.8728 2
48.8496 60.2083 3.98225
52.602 42.6573 3.97649
49.7928 57.6365 3.98127
50.6078 54.4385 3.97752
51.8766 47.2876 3.97961
51.2477 50.9673 3.97465
48.2929 43.7434 3.97384
47.9614 62.4811 0.0162026
47.329 61.0162 2
46.619 59.8022 3.98203
41.663 67.6939 0.011964
43.3555 65.5142 0.0140253
44.7661 63.4619 0.0153798
45.9867 61.5932 0.0169942
39.6323 67.7744 2
41.5451 65.6531 2
45.7658 60.6376 2
43.1452 63.7352 2
44.4822 61.8435 2
44.623 60.2998 3.98218
42.9494 62.0922 3.98379
41.5986 63.8287 3.98475
39.6468 65.6215 3.98651
37.563 67.7567 3.988
31.6975 65.1401 3.98629
33.3921 67.4943 3.98799
35.3333 69.9643 3.99049
37.5259 70.0546 2
37.5096 72.4603 3.99415
39.7023 70.0287 0.00951186
39.8179 72.406 2
39.9526 74.9197 4
42.111 72.2086 0.00577702
42.3947 74.6792 2
44.8159 74.2794 0
41.7361 4.96512 3.99091
43.8515 5.35566 2
44.3255 3.10879 3.99431
46.5703 3.64525 2
47.2057 1.27793 4
48.7841 4.32079 0.00601811
49.554 1.99013 2
51.8506 2.85458 0
59.0285 42.9308 0.0198029
60.2797 39.8534 0.0226055
62.0195 37.4449 0.0229255
59.7991 37.5673 2
58.0443 40.6668 2
55.1761 39.7285 2
56.8847 37.8984 3.97938
49.7567 41.3095 3.97749
53.2223 39.3134 3.98171
39.442 6.79671 3.98883
59.9276 35.1151 0.0231674
58.0316 32.2563 0.0227322
56.5839 29.3177 0.0192777
55.3482 19.1719 0.0168468
55.0152 21.541 0.0203481
54.9547 24.033 0.0238925
55.4836 26.5765 0.0156062
53.1293 18.644 0.0175437
51.3062 18.0346 0.0168492
50.6357 16.1192 0.0190437
45.962 5.87894 0.00957073
49.7149 13.7321 0.0167516
47.3546 8.6184 0.0123265
48.5999 11.2851 0.0147574
43.3735 7.46795 0.011543
57.4441 34.7529 2
41.3986 7.07273 2
45.3594 7.98959 2
42.8651 9.40827 2
55.7733 31.4988 2
54.5567 28.3802 2
53.9766 20.119 2
53.599 22.6858 2
53.8041 25.4761 2
46.6661 10.6459 2
47.7455 13.0922 2
51.6576 19.3122 2
50.0088 17.6879 2
48.9329 15.3892 2
54.9526 33.9575 3.97877
53.554 30.459 3.98155
52.6354 27.1772 3.98294
52.1697 24.0652 3.97621
52.4014 21.0525 3.98079
41.0132 9.04183 3.98694
44.7233 9.98885 3.98627
42.4678 10.8945 3.98511
46.005 12.7205 3.98413
47.6824 14.5742 3.98281
48.1154 16.9767 3.98068
49.8214 19.5868 3.97802
49.5917 61.7507 0.0167808
50.5689 59.3364 0.0185849
55.693 41.7216 0.0221649
54.2354 45.5812 0.0177335
53.3804 49.3496 0.0211871
52.1916 56.5035 0.0192413
52.689 52.8739 0.0235412
48.8495 60.2087 2
52.6023 42.6563 2
49.7929 57.6369 2
50.6082 54.4396 2
51.8761 47.2875 2
51.2476 50.9652 2
48.2845 43.7451 2
47.9883 58.7503 3.98153
50.1936 45.2861 3.97856
48.6048 55.928 3.98135
49.1509 52.6158 3.97816
49.7203 49.0672 3.97506
46.17 39.9001 3.91518
46.5481 42.7411 3.97762
46.6035 45.7644 3.98332
44.0134 41.2271 3.96179
42.1097 41.9887 3.95837
47.3291 61.0158 0.0173252
46.6189 59.8025 2
45.4688 58.7984 3.98112
39.6323 67.774 0.0118534
41.5451 65.6526 0.0137473
43.1452 63.7347 0.0153155
44.4823 61.8431 0.0166787
45.7659 60.6373 0.0178958
41.5985 63.8291 2
37.563 67.7572 2
39.6469 65.622 2
44.623 60.3001 2
42.9494 62.0926 2
41.7524 62.5035 3.98398
42.4804 59.9922 3.98252
39.8922 63.5645 3.98458
37.6418 65.5208 3.98622
35.4633 67.6661 3.98807
33.5755 65.3538 3.98627
31.9597 63.3129 3.98477
29.8837 64.7306 3.98606
31.6975 65.1406 2
31.3769 67.2037 3.98801
33.3922 67.4948 2
33.1562 69.7576 3.99047
35.3333 69.9647 2
35.195 72.3748 3.99412
37.5259 70.0542 0.00947703
37.5096 72.4606 2
37.5 75 4
39.8178 72.4057 0.00587151
39.9526 74.9197 2
42.3947 74.6792 0
39.6237 4.71234 3.99099
41.7362 4.96473 2
42.062 2.71642 3.99449
43.8515 5.35602 0.00931826
44.3256 3.10857 2
44.8158 0.721173 4
46.5701 3.64546 0.00583732
47.2057 1.27779 2
49.554 1.99015 0
58.0446 40.6672 0.0225856
59.7997 37.5676 0.0219384
55.1772 39.7292 0.0218705
49.7553 41.3095 2
56.8839 37.8983 2
53.2207 39.3124 2
54.0772 36.6218 3.97797
47.683 40.4492 3.99031
50.714 38.4894 3.98009
37.5158 6.66779 3.98883
39.442 6.79628 2
39.2108 8.68434 3.98717
35.9413 8.48425 3.98721
57.4449 34.7531 0.0222483
55.7746 31.4991 0.0222251
54.5579 28.3796 0.0137954
53.976 20.1193 0.0170259
53.5987 22.6858 0.0247794
53.8047 25.4746 0.0208979
51.6575 19.3126 0.0155229
50.0087 17.6884 0.0206243
48.933 15.3895 0.0177748
45.3594 7.98993 0.0119179
47.7456 13.0925 0.016542
46.6661 10.6462 0.0143211
41.3986 7.07315 0.0113936
42.8651 9.40858 0.0132605
54.9516 33.9571 2
41.0132 9.04137 2
44.7232 9.98859 2
42.4678 10.8942 2
53.5523 30.4578 2
52.6344 27.18 2
52.4019 21.0517 2
52.1697 24.0671 2
46.0049 12.7202 2
47.6824 14.5739 2
49.8215 19.5867 2
48.1154 16.9764 2
52.5014 32.8523 3.97989
51.4055 29.1337 3.98305
50.8298 25.703 3.97286
49.9507 22.1653 3.9791
40.5686 11.5978 3.98457
43.8576 11.9095 3.98457
45.8034 15.4095 3.98245
47.5071 19.2097 3.97928
46.5004 37.5012 3.91562
48.8496 60.2083 0.0177452
49.7928 57.6365 0.0187332
52.602 42.6573 0.023513
51.8766 47.2876 0.020394
51.2477 50.9673 0.02535
50.6078 54.4385 0.0224766
48.2929 43.7434 0.0261595
47.9883 58.7507 2
50.1939 45.2866 2
48.6048 55.9285 2
49.1511 52.6171 2
49.7192 49.0646 2
46.1754 39.9033 2
46.5531 42.7433 2
46.5968 45.7655 2
44.0195 41.2276 2
42.119 41.9931 2
46.8409 57.353 3.98266
44.7818 39.4964 3.95661
42.4838 40.8652 3.96887
48.1657 47.2643 3.98281
47.1801 54.2614 3.98161
47.6216 50.7769 3.97758
44.8818 47.35 3.99219
45.2303 42.0111 3.92371
45.015 44.6454 3.96397
42.8101 42.7334 3.95527
40.9619 42.3533 3.95792
46.619 59.8022 0.0179722
45.4686 58.7986 2
43.8764 57.7228 3.98113
37.563 67.7567 0.0120017
39.6468 65.6215 0.0134871
41.5986 63.8287 0.0152471
42.9494 62.0922 0.0162109
44.623 60.2998 0.017819
35.4633 67.6667 2
41.7523 62.5039 2
39.8921 63.5649 2
37.6418 65.5213 2
42.4804 59.9925 2
40.6221 61.6621 3.98356
40.4441 58.2231 3.9808
37.8359 63.2262 3.98504
35.5728 65.4432 3.98627
33.5755 65.3543 2
31.9598 63.3134 2
33.6291 63.353 3.98487
30.3787 62.871 3.98454
32.123 62.0191 3.9837
26.8677 61.5135 3.98334
28.0625 64.1583 3.98572
29.8838 64.7312 2
29.4066 66.7671 3.98787
31.6975 65.1401 0.0137102
31.3769 67.2042 2
31.0135 69.4224 3.99033
33.3921 67.4943 0.0120089
33.1561 69.758 2
32.8921 72.149 3.99414
35.3333 69.9643 0.00950507
35.195 72.375 2
35.0474 74.9194 4
37.5096 72.4603 0.00584863
37.5 75 2
39.9526 74.9197 0
35.6203 6.71889 3.98885
37.5229 4.61181 3.99107
39.6237 4.71197 2
39.7885 2.47292 3.99455
41.7361 4.96512 0.00909019
42.062 2.71617 2
42.3946 0.32156 4
44.3255 3.10879 0.00569206
44.8159 0.72056 2
47.2057 1.27793 0
49.7567 41.3095 0.0225093
56.8847 37.8984 0.0206187
53.2223 39.3134 0.0182928
47.6825 40.4463 2
50.7116 38.4892 2
54.0763 36.6218 2
51.4986 35.5662 3.96799
48.3459 37.7606 3.98951
46.1677 35.1029 3.91576
44.0076 33.7737 3.96006
42.0994 33.0259 3.96066
37.4576 8.52606 3.98722
37.5158 6.66738 2
39.442 6.79671 0.011165
39.2108 8.68386 2
38.9757 10.1164 3.98632
35.8978 9.76341 3.98619
34.1497 8.8137 3.98693
35.9412 8.48376 2
54.9526 33.9575 0.0212333
53.554 30.459 0.0184457
52.6354 27.1772 0.0170625
52.4014 21.0525 0.0192127
52.1697 24.0652 0.0237889
49.8214 19.5868 0.0219822
48.1154 16.9767 0.0193178
47.6824 14.5742 0.0171898
44.7233 9.98885 0.0137321
46.005 12.7205 0.0158712
41.0132 9.04183 0.0130591
42.4678 10.8945 0.0148877
52.5003 32.8512 2
40.5686 11.5975 2
43.8575 11.9093 2
51.4038 29.1357 2
50.8295 25.705 2
49.9511 22.1652 2
45.8033 15.4092 2
47.5071 19.2094 2
50.1137 31.3879 3.9724
49.3452 27.46 3.97303
49.4323 24.3789 3.97983
47.1933 21.9118 3.97773
38.3012 12.7227 3.98375
42.1009 14.2933 3.98251
44.8026 18.4455 3.9804
45.0563 37.5014 3.95123
46.512 37.5025 2
47.9883 58.7503 0.018466
48.6048 55.928 0.0186459
50.1936 45.2861 0.0214441
49.7203 49.0672 0.0249445
49.1509 52.6158 0.0218433
46.17 39.9001 0.0848224
46.5481 42.7411 0.022384
46.6035 45.7644 0.0166839
44.0134 41.2271 0.0382128
42.1097 41.9887 0.0416349
46.841 57.3535 2
44.7901 39.4949 2
42.4858 40.8668 2
48.1635 47.2619 2
47.1802 54.2616 2
47.6214 50.7764 2
44.8794 47.3415 2
45.2329 42.0139 2
45.0225 44.652 2
42.8204 42.7309 2
40.9712 42.353 2
45.4014 55.9396 3.98026
42.8138 39.2583 3.97156
40.9208 40.8084 3.9683
46.1469 48.9397 3.97989
45.565 52.563 3.98421
43.5174 48.4803 3.95749
43.4072 46.2071 3.9793
43.7769 43.8201 3.91616
41.2793 43.8949 3.9642
39.3254 42.6676 3.95503
45.4688 58.7984 0.0188796
43.8763 57.7228 2
42.107 56.3469 3.98137
35.4633 67.6661 0.0119326
37.6418 65.5208 0.013782
39.8922 63.5645 0.0154228
41.7524 62.5035 0.0160185
42.4804 59.9922 0.0174813
35.5728 65.4437 2
40.622 61.6624 2
37.8359 63.2266 2
40.4441 58.2234 2
38.9254 56.5132 3.98162
38.2497 60.3464 3.98327
35.6066 63.2199 3.98481
33.5755 65.3538 0.0137298
31.9597 63.3129 0.0152306
33.6291 63.3534 2
30.3788 62.8715 2
32.1231 62.0195 2
28.6809 62.216 3.98427
33.3456 61.532 3.98346
31.0658 61.2357 3.98304
27.5653 59.6106 3.98222
23.7869 59.0998 3.98427
25.0323 60.8861 3.98305
26.8678 61.5139 2
26.2288 63.49 3.98518
28.0626 64.1586 2
27.4633 66.1906 3.98766
29.8837 64.7306 0.0139377
29.4066 66.7676 2
28.9059 68.9477 3.99021
31.3769 67.2037 0.0119888
31.0135 69.4228 2
30.6146 71.78 3.99409
33.1562 69.7576 0.00953349
32.892 72.1493 2
32.6054 74.6784 4
35.195 72.3748 0.00587757
35.0474 74.9197 2
37.5 75 0
33.723 6.97349 3.98856
35.4343 4.68225 3.99096
35.6203 6.71843 2
37.5141 2.38554 3.99462
37.5229 4.61145 2
39.6237 4.71234 0.0090063
39.7885 2.47267 2
39.9526 0.0806499 4
42.062 2.71642 0.00551376
42.3947 0.320817 2
44.8158 0.721173 0
44.7865 35.5041 3.95522
42.4781 34.1421 3.96819
47.683 40.4492 0.00969414
50.714 38.4894 0.0199051
54.0772 36.6218 0.0220287
48.3437 37.7591 2
51.4975 35.5662 2
46.1688 35.1015 2
44.0189 33.7718 2
42.1053 33.0242 2
48.5149 34.2512 4.00448
45.2194 32.9904 3.91693
42.801 32.277 3.95708
40.9497 32.6671 3.96106
37.3097 10.6194 3.98553
37.4575 8.52556 2
37.5158 6.66779 0.0111665
39.2108 8.68434 0.0128334
38.9757 10.1159 2
34.7529 10.369 3.98545
35.8976 9.76294 2
32.3764 9.36037 3.98623
34.1496 8.8132 2
35.9413 8.48425 0.0127887
52.5014 32.8523 0.0201105
51.4055 29.1337 0.0169486
50.8298 25.703 0.0271393
49.9507 22.1653 0.0209034
47.5071 19.2097 0.0207223
45.8034 15.4095 0.0175451
43.8576 11.9095 0.0154335
40.5686 11.5978 0.0154316
50.1115 31.3882 2
38.301 12.722 2
42.1007 14.2934 2
49.3438 27.4614 2
49.4326 24.3789 2
47.1936 21.9134 2
44.8024 18.4452 2
47.8899 29.5913 3.96926
47.135 25.1051 3.97793
44.2929 21.2994 3.97869
36.5809 12.9191 3.98365
38.6803 14.7929 3.98237
41.7507 17.8227 3.98042
42.943 37.4929 3.97425
45.0703 37.502 2
46.5004 37.5012 0.0843814
46.8409 57.353 0.0173384
47.1801 54.2614 0.0183949
48.1657 47.2643 0.0171912
47.6216 50.7769 0.0224189
44.7818 39.4964 0.0433911
45.2303 42.0111 0.0762883
45.015 44.6454 0.0360253
44.8818 47.35 0.00780609
42.8101 42.7334 0.0447323
42.4838 40.8652 0.031131
40.9619 42.3533 0.0420822
45.4016 55.94 2
42.8146 39.2585 2
40.9213 40.8091 2
46.1466 48.9351 2
45.5653 52.5623 2
43.5155 48.4803 2
43.4346 46.2175 2
43.7823 43.8238 2
41.2847 43.8887 2
39.3304 42.6714 2
43.7412 54.4504 3.98638
40.988 39.1788 3.95894
39.2426 40.8676 3.93481
43.7454 50.5371 3.98898
42.017 47.7353 4.01664
41.9276 45.2129 3.91239
39.4961 44.6562 3.96829
37.4992 42.7879 3.95637
43.8764 57.7228 0.0188678
42.1069 56.3467 2
40.4209 54.9485 3.97883
35.5728 65.4432 0.0137251
37.8359 63.2262 0.0149647
40.6221 61.6621 0.0164376
40.4441 58.2231 0.0191984
35.6066 63.2203 2
38.2497 60.3467 2
38.9253 56.5147 2
37.9998 55.2677 3.98047
36.9345 57.6475 3.9808
35.3631 60.9311 3.98346
33.6291 63.353 0.0151251
30.3787 62.871 0.0154579
32.123 62.0191 0.0163045
33.3456 61.5323 2
28.681 62.2163 2
31.0659 61.236 2
29.4012 60.3049 3.9825
32.3551 59.763 3.98278
28.017 58.3898 3.98297
27.5654 59.611 2
25.3738 58.6111 3.98227
22.7491 58.2596 3.98115
23.397 60.366 3.983
23.7868 59.1003 2
25.0323 60.8865 2
24.4309 62.7821 3.98464
26.8677 61.5135 0.0166614
26.2289 63.4904 2
25.5474 65.5004 3.98723
28.0625 64.1583 0.0142768
27.4633 66.191 2
26.8357 68.3358 3.99007
29.4066 66.7671 0.0121306
28.9059 68.9481 2
28.3697 71.2652 3.99402
31.0135 69.4224 0.00966796
30.6144 71.7803 2
30.1842 74.2788 4
32.8921 72.149 0.00586179
32.6053 74.6792 2
35.0474 74.9194 0
31.7874 7.41314 3.98815
33.3463 4.9214 3.99079
33.7229 6.97297 2
35.2444 2.46171 3.99454
35.4343 4.68185 2
35.6203 6.71889 0.0111483
37.5 0 4
37.5141 2.3853 2
37.5229 4.61181 0.00893264
39.7885 2.47292 0.0054515
39.9526 0.0802889 2
42.3946 0.32156 0
42.8172 35.7351 3.97179
44.7904 35.5075 2
40.9151 34.2094 3.96982
42.4793 34.1414 2
48.3459 37.7606 0.0104891
51.4986 35.5662 0.0320108
46.1677 35.1029 0.0842377
44.0076 33.7737 0.0399388
42.0994 33.0259 0.0393355
48.5142 34.2517 2
45.2254 32.9847 2
42.8114 32.2751 2
40.956 32.6649 2
46.4317 31.4981 3.98836
43.7621 31.1864 3.91698
41.2728 31.1265 3.95812
39.3109 32.3572 3.9527
35.6912 11.7639 3.98403
37.3096 10.6188 2
37.4576 8.52606 0.0127769
38.9757 10.1164 0.0136764
33.0968 11.2057 3.9845
34.7528 10.3686 2
35.8978 9.76341 0.0138095
30.4811 10.0085 3.98579
32.3763 9.35996 2
34.1497 8.8137 0.013071
50.1137 31.3879 0.0275978
49.3452 27.46 0.0269709
49.4323 24.3789 0.0201711
47.1933 21.9118 0.0222685
44.8026 18.4455 0.0195975
42.1009 14.2933 0.0174909
38.3012 12.7227 0.0162508
36.5807 12.9189 2
47.8858 29.5927 2
38.6801 14.7921 2
41.7504 17.8227 2
47.1351 25.106 2
44.293 21.2991 2
45.637 27.8022 3.97424
43.8219 24.033 3.98111
41.3442 20.7002 3.98016
35.7705 14.744 3.98263
38.6811 17.5796 3.9807
41.0308 37.4902 3.95283
42.9462 37.494 2
45.0563 37.5014 0.0487667
45.4014 55.9396 0.0197403
45.565 52.563 0.0157931
46.1469 48.9397 0.0201079
42.8138 39.2583 0.0284408
43.7769 43.8201 0.0838431
43.4072 46.2071 0.0206977
43.5174 48.4803 0.0425149
41.2793 43.8949 0.035799
40.9208 40.8084 0.0317013
39.3254 42.6676 0.0449704
43.7417 54.4508 2
40.9873 39.1793 2
39.2423 40.8713 2
43.7449 50.5381 2
42.0167 47.7382 2
41.9395 45.2136 2
37.5004 42.7979 2
39.5058 44.6613 2
41.8912 53.0168 3.9867
39.2352 39.168 3.92899
37.5035 40.9162 3.91713
35.6785 42.6841 3.95504
40.9856 49.7591 3.99629
39.8168 46.0929 3.91512
37.4966 44.9234 3.96534
42.107 56.3469 0.0186305
40.4207 54.9484 2
38.7297 53.877 3.98413
35.6066 63.2199 0.0151878
38.2497 60.3464 0.0167325
38.9254 56.5132 0.0183828
35.3631 60.9314 2
36.9343 57.6476 2
37.9994 55.2679 2
36.3186 55.4045 3.98133
34.4866 58.541 3.982
33.3456 61.532 0.0165418
28.6809 62.216 0.015731
31.0658 61.2357 0.0169579
32.3551 59.7632 2
29.4012 60.3052 2
30.2932 57.8347 3.98236
28.017 58.3902 2
26.9349 56.8403 3.98071
27.5653 59.6106 0.0177797
25.3737 58.6115 2
23.8277 56.8252 3.97945
21.3237 57.4205 3.98211
21.9882 59.6395 3.98354
22.7489 58.26 2
22.7339 62.0333 3.98409
23.397 60.3665 2
23.7869 59.0998 0.0157344
25.0323 60.8861 0.0169536
24.431 62.7825 2
23.6811 64.7185 3.98654
26.2288 63.49 0.0148184
25.5474 65.5008 2
24.8082 67.597 3.98989
27.4633 66.1906 0.0123366
26.8357 68.3362 2
26.1651 70.606 3.99391
28.9059 68.9477 0.00978754
28.3696 71.2654 2
27.7943 73.7221 4
30.6146 71.78 0.00590522
30.1841 74.2794 2
32.6054 74.6784 0
29.81 7.98634 3.98764
31.2514 5.32844 3.99049
31.7873 7.41267 2
32.9802 2.69981 3.99442
33.3462 4.92094 2
33.723 6.97349 0.011443
35.0474 0.080333 4
35.2443 2.46145 2
35.4343 4.68225 0.0090351
37.5 0 2
37.5141 2.38554 0.00538162
39.9526 0.0806499 0
40.9927 35.8138 3.95956
42.8163 35.7362 2
44.7865 35.5041 0.0447838
28.5419 10.6838 3.98538
39.2357 34.1564 3.93662
40.9141 34.2081 2
42.4781 34.1421 0.0318117
48.5149 34.2512 -0.00448436
45.2194 32.9904 0.0830677
42.801 32.277 0.0429154
40.9497 32.6671 0.0389443
46.4417 31.4944 2
43.7644 31.1806 2
41.282 31.1237 2
39.3166 32.3503 2
44.4495 29.6698 3.97973
41.917 29.8095 3.92033
39.4875 30.3825 3.96712
37.4811 32.2405 3.95343
34.0909 12.9219 3.98333
35.6911 11.7636 2
37.3097 10.6194 0.0144726
31.1848 11.974 3.9844
33.0967 11.2054 2
34.7529 10.369 0.0145465
30.481 10.008 2
32.3764 9.36037 0.013772
47.8899 29.5913 0.0307377
47.135 25.1051 0.0220749
36.5809 12.9191 0.0163494
44.2929 21.2994 0.0213149
41.7507 17.8227 0.0195798
38.6803 14.7929 0.0176337
35.7702 14.7443 2
45.6343 27.806 2
38.6807 17.5789 2
41.3438 20.6999 2
43.8219 24.0373 2
33.6057 15.8612 3.98267
43.1128 26.5246 3.98623
40.9264 23.2728 3.98053
38.4222 20.3081 3.98133
35.8467 17.4927 3.98141
39.2433 37.4933 3.92914
41.0308 37.49 2
42.943 37.4929 0.0257452
43.7412 54.4504 0.0136195
43.7454 50.5371 0.0110161
40.988 39.1788 0.0410621
41.9276 45.2129 0.0876139
42.017 47.7353 -0.0166391
39.4961 44.6562 0.0317077
39.2426 40.8676 0.0651885
37.4992 42.7879 0.0436275
41.8915 53.0178 2
39.2345 39.1697 2
37.504 40.9242 2
40.9842 49.7594 2
35.6741 42.6885 2
39.8295 46.0997 2
37.4991 44.9062 2
39.8305 51.9374 3.9903
37.5019 39.1845 3.92337
35.7668 40.8854 3.93224
34.0427 42.3684 3.95944
35.4894 44.6627 3.96652
38.7715 48.7896 4.02968
37.5056 46.4049 3.90959
40.4209 54.9485 0.0211725
38.7293 53.8765 2
36.7176 53.231 3.98711
35.3631 60.9311 0.016536
36.9345 57.6475 0.0192013
37.9998 55.2677 0.0195321
34.4865 58.541 2
36.3183 55.404 2
33.2216 55.5222 3.98197
32.3551 59.763 0.0172208
29.4012 60.3049 0.0174981
30.2932 57.8349 2
28.6742 55.3271 3.97895
28.017 58.3898 0.0170333
26.9347 56.8409 2
25.2923 55.1629 3.9787
21.7907 55.3702 3.97949
25.3738 58.6111 0.017729
23.8275 56.8256 2
20.2068 57.0518 3.98366
20.6379 58.7986 3.98342
21.3234 57.4209 2
21.163 61.184 3.98446
21.9882 59.6399 2
22.7491 58.2596 0.0188479
21.894 63.8463 3.98595
22.734 62.0338 2
23.397 60.366 0.0170021
24.4309 62.7821 0.0153631
23.6811 64.7189 2
22.8366 66.7407 3.98959
25.5474 65.5004 0.0127733
24.8081 67.5973 2
24.0094 69.8071 3.99378
26.8357 68.3358 0.00993326
26.1649 70.6061 2
25.446 73.0099 4
28.3697 71.2652 0.00598291
27.7943 73.7222 2
30.1842 74.2788 0
27.8199 8.64589 3.98736
29.1534 5.87412 3.99011
29.8099 7.9859 2
30.7255 3.09689 3.99422
31.2514 5.32801 2
31.7874 7.41314 0.0118494
32.6053 0.320823 4
32.9801 2.69953 2
33.3463 4.9214 0.00920626
35.0474 0.0802903 2
35.2444 2.46171 0.0054618
37.5 0 0
39.2399 35.8311 3.92911
40.9912 35.813 2
42.8172 35.7351 0.0282147
28.5419 10.6835 2
26.6209 11.3792 3.98509
29.2237 12.6308 3.98411
37.4952 34.1094 3.92198
39.2343 34.1509 2
40.9151 34.2094 0.0301759
46.4317 31.4981 0.0116368
43.7621 31.1864 0.0830246
41.2728 31.1265 0.0418831
39.3109 32.3572 0.0472984
44.4607 29.6614 2
41.9302 29.803 2
39.4947 30.3777 2
37.4834 32.2314 2
42.3606 28.3532 3.98249
39.8177 28.9352 3.91819
37.4807 30.1175 3.96275
35.6579 32.3495 3.95375
31.9122 14.4677 3.98296
34.0909 12.9217 2
35.6912 11.7639 0.0159717
31.1848 11.9736 2
33.0968 11.2057 0.0154986
30.4811 10.0085 0.0142094
45.637 27.8022 0.0257602
43.8219 24.033 0.0188901
35.7705 14.744 0.017371
41.3442 20.7002 0.0198385
38.6811 17.5796 0.0193016
33.6056 15.8617 2
35.8464 17.4933 2
43.111 26.529 2
38.422 20.3083 2
40.9265 23.2723 2
33.5476 17.3696 3.98287
40.4835 25.6186 3.99835
38.083 22.8371 3.98811
35.5823 20.0603 3.9826
37.5024 37.5025 3.92703
39.2433 37.4929 2
41.0308 37.4902 0.0471667
41.8912 53.0168 0.013301
40.9856 49.7591 0.00371132
39.2352 39.168 0.0710104
39.8168 46.0929 0.0848792
37.4966 44.9234 0.0346569
37.5035 40.9162 0.0828711
35.6785 42.6841 0.0449573
39.8314 51.9375 2
37.5021 39.1884 2
35.7684 40.89 2
38.7668 48.7972 2
34.0351 42.3701 2
35.4875 44.6631 2
37.5017 46.4171 2
37.6689 51.0162 3.98288
35.7733 39.1892 3.9261
34.0951 40.8288 3.96725
32.8934 42.0051 3.96137
33.7076 43.9134 3.95914
35.1807 46.105 3.91822
36.8994 48.4233 4.01501
38.7297 53.877 0.0158749
36.7171 53.2301 2
34.3499 52.493 3.98218
34.4866 58.541 0.0179957
36.3186 55.4045 0.0186688
33.2215 55.5218 2
30.4998 53.4221 3.98004
30.2932 57.8347 0.0176449
28.6737 55.3274 2
26.8556 53.4654 3.97757
26.9349 56.8403 0.019295
25.2919 55.1633 2
23.5448 53.5077 3.97698
20.439 53.2549 3.97783
19.9162 55.8565 3.98265
21.7901 55.3706 2
23.8277 56.8252 0.0205529
19.4288 57.9123 3.98325
20.2065 57.0521 2
19.7014 60.2188 3.98398
20.6378 58.799 2
21.3237 57.4205 0.0178878
20.2057 62.8679 3.98569
21.163 61.1844 2
21.9882 59.6395 0.0164615
20.938 65.7699 3.98911
21.8941 63.8467 2
22.7339 62.0333 0.0159111
23.6811 64.7185 0.0134638
22.8365 66.7411 2
21.912 68.8743 3.99364
24.8082 67.597 0.0101056
24.0092 69.8073 2
23.1494 72.1454 4
26.1651 70.606 0.00609398
25.446 73.0099 2
27.7943 73.7221 0
25.8592 9.37401 3.9868
27.0683 6.53812 3.98977
27.8199 8.64552 2
28.4877 3.64274 3.99398
29.1533 5.87372 2
29.81 7.98634 0.0123555
30.1841 0.720592 4
30.7253 3.09665 2
31.2514 5.32844 0.00950564
32.6053 0.320817 2
32.9802 2.69981 0.0055808
35.0474 0.080333 0
37.5035 35.8265 3.92373
39.2386 35.8283 2
40.9927 35.8138 0.0404383
24.7757 12.0623 3.98487
23.7491 14.3467 3.98364
28.5419 10.6838 0.014622
26.6209 11.379 2
29.2238 12.6306 2
27.2897 13.3639 3.98403
29.7782 14.1899 3.98336
35.7598 34.1452 3.93668
37.4949 34.1024 2
39.2357 34.1564 0.0633841
37.4811 32.2405 0.0465683
44.4495 29.6698 0.0202683
41.917 29.8095 0.079666
39.4875 30.3825 0.032876
42.3687 28.3418 2
39.8302 28.9297 2
37.4812 30.1302 2
35.6561 32.3427 2
40.0422 27.5319 3.99399
37.4894 28.6283 3.91373
35.4692 30.3785 3.9638
34.027 32.6589 3.95803
30.9232 16.8251 3.98246
31.9124 14.4674 2
34.0909 12.9219 0.016669
31.1848 11.974 0.0156041
43.1128 26.5246 0.0137668
40.9264 23.2728 0.0194682
33.6057 15.8612 0.0173331
35.8467 17.4927 0.0185853
38.4222 20.3081 0.0186701
33.5473 17.3705 2
35.5822 20.0609 2
40.4805 25.6247 2
38.0831 22.8392 2
32.8596 19.7767 3.98127
37.7878 25.132 4.01423
35.2031 22.619 3.97824
35.7644 37.5112 3.92651
37.5033 37.5029 2
39.2433 37.4933 0.07086
39.8305 51.9374 0.00970213
38.7715 48.7896 -0.0296772
37.5019 39.1845 0.0766293
37.5056 46.4049 0.0904136
35.4894 44.6627 0.0334817
35.7668 40.8854 0.0677589
34.0427 42.3684 0.0405555
37.6698 51.0266 2
35.7746 39.1911 2
34.0962 40.8302 2
36.8957 48.4282 2
32.8871 42.0074 2
33.7037 43.912 2
35.1675 46.1099 2
35.4217 50.1614 3.98491
34.0281 39.2043 3.95478
32.5231 40.8839 3.96962
32.1852 42.748 3.95792
33.0798 45.2275 3.91829
34.2811 47.5246 3.99198
36.7176 53.231 0.0128855
34.3496 52.4935 2
31.9669 51.2152 3.97824
33.2216 55.5222 0.0180291
30.4994 53.4243 2
28.3912 51.6471 3.97899
28.6742 55.3271 0.0210509
26.8551 53.4665 2
25.0391 51.7967 3.97423
25.2923 55.1629 0.0212996
23.5441 53.5084 2
21.926 51.8424 3.97554
19.1661 51.6656 3.97751
18.8994 54.3348 3.98012
20.4385 53.2548 2
18.4346 56.7455 3.98383
19.9157 55.8567 2
21.7907 55.3702 0.0205066
18.362 59.1278 3.98342
19.4285 57.9126 2
20.2068 57.0518 0.0163393
18.6156 61.7765 3.98526
19.7013 60.2191 2
20.6379 58.7986 0.0165836
19.1266 64.681 3.98855
20.2057 62.8683 2
21.163 61.184 0.0155402
19.8861 67.811 3.99333
20.938 65.7702 2
21.894 63.8463 0.0140536
22.8366 66.7407 0.0104052
21.9118 68.8745 2
20.9142 71.1327 4
24.0094 69.8071 0.00621534
23.1494 72.1455 2
25.446 73.0099 0
23.0948 12.7769 3.9845
23.9718 10.1606 3.98642
25.0223 7.30809 3.98949
25.8592 9.37369 2
26.2795 4.3269 3.99371
27.0682 6.53776 2
27.8199 8.64589 0.0126401
27.7943 1.27781 4
28.4875 3.64254 2
29.1534 5.87412 0.00988904
30.1841 0.720551 2
30.7255 3.09689 0.00578004
32.6053 0.320823 0
35.7697 35.8355 3.92732
37.5033 35.8234 2
39.2399 35.8311 0.070886
24.7757 12.0621 2
23.7493 14.3467 2
22.4772 15.023 3.98347
25.3557 13.896 3.98379
24.0216 15.6085 3.98314
26.6209 11.3792 0.0149082
29.2237 12.6308 0.0158876
27.2898 13.3638 2
29.7783 14.1897 2
28.3538 15.9643 3.98303
34.0929 34.2033 3.96721
35.7607 34.1398 2
37.4952 34.1094 0.0780221
35.6579 32.3495 0.0462496
37.4807 30.1175 0.0372469
42.3606 28.3532 0.0175093
39.8177 28.9352 0.0818125
40.0443 27.5298 2
37.4893 28.6158 2
35.4648 30.3744 2
34.0261 32.6557 2
37.6218 27.2276 3.99677
35.1438 28.9277 3.91749
33.6857 31.1221 3.96111
32.8832 33.0254 3.96021
30.2028 19.3284 3.98339
30.9232 16.8248 2
31.9122 14.4677 0.0170392
40.4835 25.6186 0.0016455
38.083 22.8371 0.0118936
33.5476 17.3696 0.0171304
35.5823 20.0603 0.0173973
32.8594 19.7782 2
35.2035 22.619 2
37.787 25.1379 2
32.3039 22.3919 3.98073
34.9383 25.1494 3.99054
33.9831 37.5146 3.94977
35.7662 37.5108 2
37.5024 37.5025 0.0729684
37.6689 51.0162 0.0171212
36.8994 48.4233 -0.0150137
35.7733 39.1892 0.0739018
35.1807 46.105 0.0817816
33.7076 43.9134 0.0408593
34.0951 40.8288 0.0327464
32.8934 42.0051 0.0386276
35.4217 50.1676 2
34.0296 39.205 2
32.5224 40.884 2
34.2737 47.5347 2
32.1759 42.7454 2
33.0668 45.2335 2
33.1789 49.1399 3.98471
32.1919 39.2828 3.97176
30.9846 41.2444 3.95984
31.2264 43.8326 3.91871
32.2204 46.4543 3.97789
34.3499 52.493 0.0178167
31.9665 51.2188 2
29.7936 49.742 3.97641
30.4998 53.4221 0.0199595
28.3906 51.6456 2
26.4485 50.0349 3.97394
26.8556 53.4654 0.0224267
25.0385 51.7958 2
23.2881 50.2368 3.97714
23.5448 53.5077 0.0230197
21.9256 51.8419 2
20.4209 50.3491 3.97747
17.9523 50.3573 3.97941
17.8066 52.8183 3.97915
19.1661 51.665 2
17.4203 55.363 3.9821
18.8989 54.3348 2
20.439 53.2549 0.0221672
17.126 57.8912 3.98423
18.4342 56.7458 2
19.9162 55.8565 0.0173493
17.132 60.5612 3.98465
18.3618 59.1281 2
19.4288 57.9123 0.0167474
17.4064 63.4744 3.98803
18.6156 61.7769 2
19.7014 60.2188 0.0160173
17.9422 66.6197 3.99303
19.1266 64.6814 2
20.2057 62.8679 0.0143137
18.75 69.9759 4
19.8859 67.8112 2
20.938 65.7699 0.0108869
21.912 68.8743 0.00636496
20.9142 71.1327 2
23.1494 72.1454 0
21.5852 13.5969 3.98419
22.1898 11.0197 3.98586
23.0949 12.7769 2
23.0404 8.17335 3.98927
23.9719 10.1603 2
24.1171 5.14149 3.99353
25.0222 7.30777 2
25.8592 9.37401 0.0132044
25.446 1.99014 4
26.2793 4.32674 2
27.0683 6.53812 0.0102291
27.7943 1.27778 2
28.4877 3.64274 0.00601642
30.1841 0.720592 0
34.0229 35.8255 3.9561
35.7707 35.8327 2
37.5035 35.8265 0.0762665
21.3016 15.8184 3.98334
24.7757 12.0623 0.0151295
23.7491 14.3467 0.0163633
25.3558 13.896 2
22.4774 15.0232 2
24.0218 15.6087 2
23.2602 16.2397 3.98293
25.3769 16.0764 3.98335
27.2897 13.3639 0.0159652
29.7782 14.1899 0.016639
28.354 15.9643 2
27.4343 18.7862 3.98321
32.5302 34.1475 3.96907
34.0932 34.2012 2
35.7598 34.1452 0.0633209
34.027 32.6589 0.0419657
35.4692 30.3785 0.036204
37.4894 28.6283 0.0862735
40.0422 27.5319 0.00601458
37.6185 27.1992 2
32.8824 33.0262 2
35.1273 28.9207 2
33.6774 31.1169 2
35.0479 27.3375 3.99814
33.0376 29.809 3.92186
32.169 32.2769 3.95937
29.5641 21.9237 3.988
30.2031 19.3289 2
30.9232 16.8251 0.0175405
37.7878 25.132 -0.0142294
35.2031 22.619 0.0217569
32.8596 19.7767 0.0187259
32.3043 22.3946 2
34.9399 25.1587 2
31.6309 25.6086 3.986
32.0655 37.517 3.97349
33.9852 37.5143 2
35.7644 37.5112 0.0734862
35.4217 50.1614 0.0150876
34.2811 47.5246 0.00802008
34.0281 39.2043 0.0452185
33.0798 45.2275 0.0817129
32.1852 42.748 0.0420772
32.5231 40.8839 0.0303752
33.1797 49.1275 2
32.1915 39.2822 2
30.9744 41.244 2
32.2048 46.4652 2
31.2201 43.836 2
31.0485 47.8991 3.98471
30.2126 39.5083 3.95509
29.7707 42.0234 3.91629
30.3287 45.0302 3.97907
31.9669 51.2152 0.0217566
29.7939 49.7397 2
27.7845 48.2234 3.97913
28.3912 51.6471 0.0210137
26.4482 50.0332 2
24.5764 48.5132 3.977
25.0391 51.7967 0.0257719
23.2879 50.2357 2
21.593 48.828 3.97962
21.926 51.8424 0.0244619
20.4211 50.3479 2
18.9887 49.1215 3.98136
16.8598 49.355 3.98204
16.7454 51.4313 3.9797
17.9525 50.3567 2
16.3694 53.8928 3.98087
17.8064 52.818 2
19.1661 51.6656 0.0224933
15.9653 56.4938 3.98355
17.4199 55.3631 2
18.8994 54.3348 0.0198826
15.7443 59.2231 3.98479
17.1257 57.8916 2
18.4346 56.7455 0.0161713
15.7862 62.1457 3.98734
17.132 60.5617 2
18.362 59.1278 0.0165763
16.0887 65.3025 3.99285
17.4064 63.4748 2
18.6156 61.7765 0.0147398
16.6661 68.6801 4
17.942 66.6197 2
19.1266 64.681 0.0114459
18.75 69.9759 2
19.8861 67.811 0.00666896
20.9142 71.1327 0
20.2165 14.5855 3.98385
21.5854 13.5971 2
20.5288 11.9894 3.9854
21.1436 9.14279 3.98903
22.1899 11.0195 2
23.0948 12.7769 0.0155002
22.0162 6.08041 3.99335
23.0403 8.17306 2
23.9718 10.1606 0.0135808
23.1494 2.85457 4
24.1169 5.14138 2
25.0223 7.30809 0.0105056
25.446 1.99012 2
26.2795 4.3269 0.00629387
27.7943 1.27781 0
32.1972 35.7494 3.97087
34.0241 35.8244 2
35.7697 35.8355 0.0726773
21.3018 15.8185 2
20.2976 16.9511 3.98416
22.0928 16.6237 3.98294
25.3557 13.896 0.0162076
22.4772 15.023 0.0165276
24.0216 15.6085 0.0168628
25.3771 16.0766 2
23.2605 16.24 2
24.1983 18.4384 3.98189
27.0004 21.4455 3.98184
28.3538 15.9643 0.0169667
27.4347 18.7868 2
30.9914 33.7844 3.95622
32.5275 34.1492 2
34.0929 34.2033 0.0327893
32.8832 33.0254 0.0397891
33.6857 31.1221 0.0388898
35.1438 28.9277 0.0825088
37.6218 27.2276 0.00323064
35.0375 27.3266 2
32.1701 32.2801 2
33.0332 29.801 2
32.4666 28.0575 4.00378
31.1934 31.1994 3.92293
28.7505 24.3885 3.98679
29.5646 21.9253 2
30.2028 19.3284 0.0166143
34.9383 25.1494 0.00946109
32.3039 22.3919 0.0192744
31.6315 25.5997 2
29.5591 27.2975 3.98114
29.9439 37.5152 3.95283
32.0663 37.5168 2
33.9831 37.5146 0.0502332
33.1789 49.1399 0.0152892
32.2204 46.4543 0.0221073
32.1919 39.2828 0.0282378
31.2264 43.8326 0.0812883
30.9846 41.2444 0.0401639
31.0519 47.8908 2
30.2066 39.5086 2
29.7653 42.0276 2
30.3146 45.039 2
29.0556 46.4707 3.97853
28.8277 39.9085 3.91366
28.5196 43.25 3.98466
29.7936 49.742 0.0235949
27.785 48.2207 2
25.8425 46.6963 3.9773
26.4485 50.0349 0.0260587
24.5767 48.5119 2
22.7244 47.123 3.98602
23.2881 50.2368 0.0228622
21.5936 48.8263 2
19.9301 47.6503 3.9846
20.4209 50.3491 0.0225326
18.9891 49.1207 2
17.632 48.2029 3.98358
16.1115 48.7045 3.98375
16.8601 49.3547 2
15.8227 50.1916 3.98122
15.3573 52.436 3.98059
16.7454 51.431 2
17.9523 50.3573 0.020586
14.855 54.9949 3.98231
16.3692 53.8927 2
17.8066 52.8183 0.02085
14.4523 57.7526 3.98461
15.965 56.4941 2
17.4203 55.363 0.0179014
14.2637 60.7007 3.98676
15.7442 59.2236 2
17.126 57.8912 0.0157671
14.3326 63.8619 3.99258
15.7863 62.1462 2
17.132 60.5612 0.0153473
14.6715 67.2507 4
16.0885 65.3026 2
17.4064 63.4744 0.0119724
16.6661 68.6801 2
17.9422 66.6197 0.0069677
18.75 69.9759 0
18.9292 15.7715 3.98402
20.2167 14.5856 2
18.9781 13.1002 3.98497
21.5852 13.5969 0.0158082
20.529 11.9894 2
19.3429 10.2305 3.98852
19.9909 7.14494 3.99327
21.1435 9.14258 2
22.1898 11.0197 0.0141397
20.9142 3.86727 4
22.016 6.08036 2
23.0404 8.17335 0.0107273
23.1494 2.85451 2
24.1171 5.14149 0.00646751
25.446 1.99014 0
30.2272 35.5268 3.95824
32.1958 35.7494 2
34.0229 35.8255 0.0439007
21.3016 15.8184 0.016659
22.0932 16.6238 2
20.2978 16.9511 2
19.2351 18.3966 3.98388
21.776 17.8386 3.98325
25.3769 16.0764 0.0166504
23.2602 16.2397 0.0170742
24.1988 18.4391 2
22.267 19.8786 3.98244
24.5762 21.3085 3.98272
26.3783 23.7108 3.98268
27.0015 21.4469 2
27.4343 18.7862 0.0167871
29.7679 33.0028 3.92047
30.9804 33.7803 2
32.5302 34.1475 0.030934
32.169 32.2769 0.0406321
33.0376 29.809 0.0781448
35.0479 27.3375 0.00185506
32.4526 28.0545 2
31.202 31.2031 2
30.0033 29.4992 3.99776
27.8027 26.5364 3.96961
28.751 24.3938 2
29.5641 21.9237 0.0119963
31.6309 25.6086 0.0140016
29.5516 27.2563 2
28.498 37.5124 3.91854
29.9378 37.5168 2
32.0655 37.517 0.0265103
31.0485 47.8991 0.0152875
30.3287 45.0302 0.0209255
30.2126 39.5083 0.0449109
29.7707 42.0234 0.0837067
29.0595 46.4699 2
28.8231 39.9089 2
28.5098 43.254 2
27.1285 44.8137 3.96607
26.6074 40.653 4.00641
27.7845 48.2234 0.0208687
25.8444 46.6947 2
23.8706 45.253 3.97731
24.5764 48.5132 0.0230026
22.7257 47.1207 2
20.8558 45.9328 3.98556
21.593 48.828 0.0203826
19.9309 47.6494 2
18.2747 46.7633 3.98507
18.9887 49.1215 0.0186368
17.6325 48.2026 2
16.3003 47.7343 3.98351
16.1118 48.7043 2
15.1689 49.0346 3.98248
16.8598 49.355 0.0179591
15.8229 50.1913 2
14.4705 51.0027 3.98108
13.8157 53.4502 3.98164
15.3572 52.4359 2
16.7454 51.4313 0.020304
13.2461 56.1804 3.98382
14.8547 54.995 2
16.3694 53.8928 0.0191336
12.8455 59.1346 3.98654
14.4522 57.7529 2
15.9653 56.4938 0.0164536
12.6778 62.3046 3.99206
14.2637 60.7012 2
15.7443 59.2231 0.0152076
12.7746 65.6939 4
14.3325 63.862 2
15.7862 62.1457 0.012661
14.6714 67.2507 2
16.0887 65.3025 0.00715151
16.6661 68.6801 0
17.6623 17.1459 3.98397
18.9294 15.7714 2
17.5088 14.3636 3.98486
20.2165 14.5855 0.0161491
18.9783 13.1 2
17.6384 11.4492 3.98777
20.5288 11.9894 0.0146004
19.343 10.2303 2
18.0511 8.33772 3.99304
18.75 5.0241 4
19.9906 7.14496 2
21.1436 9.14279 0.0109688
20.9142 3.86727 2
22.0162 6.08041 0.0066512
23.1494 2.85457 0
28.8345 35.1183 3.91922
30.2201 35.5292 2
32.1972 35.7494 0.0291277
22.0928 16.6237 0.0170572
20.2976 16.9511 0.0158437
21.7763 17.8385 2
19.2353 18.3965 2
17.9684 19.9272 3.98369
20.8664 19.3647 3.98367
24.1983 18.4384 0.0181085
22.2677 19.8784 2
24.5774 21.3095 2
22.3391 21.7023 3.98346
24.6636 23.1536 3.98279
25.3939 25.9392 3.97394
26.3796 23.7113 2
27.0004 21.4455 0.0181629
28.1582 32.2713 3.98012
29.7625 33.0019 2
30.9914 33.7844 0.0437775
31.1934 31.1994 0.0770746
32.4666 28.0575 -0.0037761
29.9781 29.496 2
26.9009 29.1331 3.97696
27.798 26.5356 2
28.7505 24.3885 0.0132102
29.5591 27.2975 0.0188554
26.7268 37.3639 3.98687
28.4939 37.5108 2
29.9439 37.5152 0.0471743
29.0556 46.4707 0.0214687
28.5196 43.25 0.0153373
28.8277 39.9085 0.0863444
27.1338 44.8133 2
26.6078 40.6552 2
25.0938 43.2047 3.97293
23.8539 39.4375 3.96718
25.8425 46.6963 0.0226974
23.8721 45.2526 2
21.8266 43.9852 3.98289
22.7244 47.123 0.013976
20.8571 45.9323 2
18.9317 44.9963 3.98201
19.9301 47.6503 0.0153994
18.2754 46.7632 2
16.5889 46.2328 3.98191
17.632 48.2029 0.01642
16.3007 47.7342 2
14.8977 47.6878 3.98218
16.1115 48.7045 0.0162501
15.1692 49.0345 2
13.7681 49.5618 3.9816
15.8227 50.1916 0.0187847
14.4706 51.0025 2
12.882 51.8876 3.98147
12.1328 54.5382 3.9831
13.8155 53.4502 2
15.3573 52.436 0.0194085
11.5294 57.4666 3.98605
13.2459 56.1806 2
14.855 54.9949 0.0176889
11.1323 60.631 3.99157
12.8454 59.1349 2
14.4523 57.7526 0.0153904
10.9835 64.0165 4
12.6777 62.3046 2
14.2637 60.7007 0.0132368
12.7745 65.694 2
14.3326 63.8619 0.00741518
14.6715 67.2507 0
16.3932 18.6385 3.9841
17.6625 17.1457 2
16.0989 15.7717 3.98488
18.9292 15.7715 0.015979
17.5089 14.3632 2
16.0196 12.8022 3.9871
18.9781 13.1002 0.0150304
17.6385 11.449 2
16.2022 9.66072 3.9927
19.3429 10.2305 0.0114773
18.0509 8.33778 2
16.6661 6.31991 4
18.75 5.02404 2
19.9909 7.14494 0.00672598
20.9142 3.86727 0
27.2329 34.7396 3.97679
28.8281 35.1169 2
30.2272 35.5268 0.0417637
16.6658 21.3613 3.982
21.776 17.8386 0.0167496
19.2351 18.3966 0.0161155
20.8668 19.3644 2
17.9687 19.9271 2
19.707 21.5558 3.98536
22.267 19.8786 0.0175588
24.5762 21.3085 0.0172782
22.3401 21.7014 2
24.6642 23.1542 2
22.8036 24.5863 3.97795
24.4509 28.5158 3.97308
25.3913 25.9384 2
26.3783 23.7108 0.0173156
25.9957 31.7057 3.98117
28.1498 32.2669 2
29.7679 33.0028 0.0795295
30.0033 29.4992 0.00224177
26.9053 29.1359 2
27.8027 26.5364 0.0303914
24.5414 36.8683 3.97937
26.7273 37.3681 2
28.498 37.5124 0.0814617
27.1285 44.8137 0.0339341
26.6074 40.653 -0.0064118
25.0949 43.2057 2
23.8547 39.4383 2
22.8724 41.8239 3.97752
21.6106 38.5051 3.97699
23.8706 45.253 0.0226866
21.8277 43.9863 2
19.6785 42.9101 3.97845
20.8558 45.9328 0.0144441
18.9328 44.9967 2
16.9157 44.3984 3.97926
18.2747 46.7633 0.0149253
16.5894 46.2329 2
14.8177 46.1066 3.98027
16.3003 47.7343 0.0164886
14.8981 47.6878 2
13.2747 48.0226 3.9811
15.1689 49.0346 0.0175169
13.7683 49.5618 2
12.1009 50.2644 3.98146
14.4705 51.0027 0.0189227
12.882 51.8876 2
11.1281 52.8457 3.98258
10.3194 55.7178 3.98538
12.1326 54.5383 2
13.8157 53.4502 0.0183597
9.69886 58.8538 3.99074
11.5293 57.4668 2
13.2461 56.1804 0.0161796
9.30605 62.2254 4
11.1322 60.6311 2
12.8455 59.1346 0.0134581
10.9835 64.0165 2
12.6778 62.3046 0.00794423
12.7746 65.6939 0
15.1361 20.1718 3.98306
16.3934 18.6383 2
14.7436 17.2937 3.98451
17.6623 17.1459 0.0160287
16.0991 15.7714 2
14.4815 14.2834 3.9867
17.5088 14.3636 0.015141
16.0197 12.8018 2
14.4448 11.1117 3.99239
17.6384 11.4492 0.0122276
16.2021 9.66074 2
14.6715 7.74927 4
18.0511 8.33772 0.00696111
16.6661 6.31988 2
18.75 5.0241 0
25.1785 34.2723 3.9845
27.2316 34.7415 2
28.8345 35.1183 0.0807757
17.8355 22.306 3.98593
15.5083 22.9044 3.98052
16.666 21.361 2
20.8664 19.3647 0.0163281
17.9684 19.9272 0.0163105
19.7076 21.5553 2
19.6294 24.3613 3.98106
22.3391 21.7023 0.0165443
24.6636 23.1536 0.0172065
22.8022 24.5848 2
21.8381 27.8073 3.97427
23.6178 31.1766 3.97261
24.4532 28.5186 2
25.3939 25.9392 0.0260624
25.9998 31.7022 2
28.1582 32.2713 0.0198756
26.9009 29.1331 0.0230377
22.3214 36.2693 3.98256
24.5429 36.869 2
26.7268 37.3639 0.013132
25.0938 43.2047 0.0270651
23.8539 39.4375 0.0328222
22.8727 41.8245 2
21.6111 38.5051 2
20.5962 40.6434 3.97735
19.9753 37.7836 3.98008
21.8266 43.9852 0.0171114
19.6793 42.9103 2
17.3078 42.115 3.97763
18.9317 44.9963 0.0179899
16.9165 44.3988 2
14.8178 44.2145 3.97795
16.5889 46.2328 0.0180858
14.8181 46.1067 2
12.9467 46.3078 3.97937
14.8977 47.6878 0.0178207
13.2749 48.0227 2
11.4721 48.5598 3.98086
13.7681 49.5618 0.0183977
12.1009 50.2644 2
10.2537 51.0878 3.98217
12.882 51.8876 0.0185304
11.128 52.8458 2
9.22805 53.8947 3.98484
8.38237 56.9863 3.98975
10.3193 55.718 2
12.1328 54.5382 0.0169017
7.74927 60.3285 4
9.69873 58.8539 2
11.5294 57.4666 0.0139542
9.306 62.2255 2
11.1323 60.631 0.00842788
10.9835 64.0165 0
13.9466 21.738 3.98202
15.1363 20.1714 2
13.4432 18.89 3.98403
16.3932 18.6385 0.0159007
14.7438 17.2934 2
13.0263 15.8756 3.98633
16.0989 15.7717 0.0151163
14.4816 14.283 2
12.7819 12.6848 3.99201
16.0196 12.8022 0.0129019
14.4447 11.1117 2
12.7746 9.30605 4
16.2022 9.66072 0.00729605
14.6715 7.74924 2
16.6661 6.31991 0
22.9138 33.7911 3.98266
25.1779 34.2719 2
27.2329 34.7396 0.0232138
17.5992 24.0248 3.98191
17.8356 22.3055 2
14.2895 24.4369 3.97911
15.5079 22.9036 2
16.6658 21.3613 0.0179998
18.9801 27.1841 3.97381
19.707 21.5558 0.0146395
19.6284 24.3612 2
21.0701 30.6483 3.97506
22.8036 24.5863 0.0220468
21.8396 27.808 2
23.6189 31.1767 2
24.4509 28.5158 0.0269205
25.9957 31.7057 0.0188271
20.0902 35.9169 3.98226
22.3222 36.2701 2
24.5414 36.8683 0.0206294
22.8724 41.8239 0.0224842
21.6106 38.5051 0.02301
20.5966 40.6434 2
19.9757 37.7838 2
17.9751 39.007 3.97853
19.6785 42.9101 0.021553
17.3083 42.1153 2
14.7632 41.9287 3.97718
16.9157 44.3984 0.0207427
14.8185 44.2147 2
12.6862 44.4022 3.9778
14.8177 46.1066 0.0197293
12.947 46.308 2
10.974 46.742 3.97943
13.2747 48.0226 0.0188983
11.4722 48.56 2
9.51705 49.2461 3.9815
12.1009 50.2644 0.0185424
10.2537 51.0879 2
8.26096 52.0063 3.98433
11.1281 52.8457 0.0174219
9.22789 53.8948 2
7.19127 55.0358 3.98898
6.31991 58.3339 4
8.3822 56.9863 2
10.3194 55.7178 0.0146168
7.74924 60.3285 2
9.69886 58.8538 0.00925831
9.30605 62.2254 0
13.2105 25.3516 3.98295
12.8128 23.2679 3.98098
13.9464 21.7373 2
12.2274 20.539 3.98356
15.1361 20.1718 0.0169383
13.4433 18.8896 2
11.6554 17.5563 3.98616
14.7436 17.2937 0.0154913
13.0265 15.8753 2
11.2191 14.3694 3.99146
14.4815 14.2834 0.0132993
12.7818 12.6848 2
10.9835 10.9835 4
14.4448 11.1117 0.00761372
12.7745 9.306 2
14.6715 7.74927 0
20.4786 33.3827 3.97985
22.9139 33.7911 2
25.1785 34.2723 0.0155004
15.8696 26.3868 3.97693
17.5985 24.0242 2
17.8355 22.306 0.0140702
14.2894 24.4369 2
15.5083 22.9044 0.0194803
18.3168 30.1581 3.97432
18.9812 27.1846 2
19.6294 24.3613 0.0189431
21.0708 30.6483 2
21.8381 27.8073 0.0257349
23.6178 31.1766 0.0273949
17.5976 35.9609 3.98096
20.0909 35.9171 2
22.3214 36.2693 0.0174431
20.5962 40.6434 0.0226517
19.9753 37.7836 0.0199176
17.9753 39.0072 2
14.2667 39.1816 3.97857
17.3078 42.115 0.0223701
14.7636 41.929 2
12.3723 42.2847 3.97762
14.8178 44.2145 0.022053
12.6866 44.4024 2
10.551 44.8094 3.97841
12.9467 46.3078 0.0206339
10.9742 46.7422 2
8.89985 47.3239 3.98032
11.4721 48.5598 0.0191391
9.51705 49.2464 2
7.42802 50.0383 3.98358
10.2537 51.0878 0.0178276
8.26084 52.0064 2
6.13175 53.0094 3.98851
9.22805 53.8947 0.0151618
7.19106 55.0356 2
5.0241 56.25 4
6.31988 58.3339 2
8.38237 56.9863 0.010254
7.74927 60.3285 0
13.4458 26.8038 3.97823
11.9263 24.7785 3.98024
13.2107 25.3514 2
11.1298 22.2247 3.9826
12.8127 23.2676 2
13.9466 21.738 0.017983
12.2273 20.5384 2
10.385 19.3114 3.98595
13.4432 18.89 0.0159715
11.6555 17.556 2
9.75983 16.1524 3.9908
13.0263 15.8756 0.0136706
11.2191 14.3693 2
9.30607 12.7746 4
12.7819 12.6848 0.00799273
10.9835 10.9835 2
12.7746 9.30605 0
17.7805 33.1016 3.97748
20.479 33.3827 2
22.9138 33.7911 0.0173392
15.4555 29.6259 3.97602
15.8702 26.3871 2
17.5992 24.0248 0.0180854
14.2895 24.4369 0.0208879
18.3172 30.1581 2
18.9801 27.1841 0.0261914
21.0701 30.6483 0.0249394
14.8584 36.0169 3.97922
17.5981 35.9609 2
20.0902 35.9169 0.0177393
12.5665 37.8315 3.97822
17.9751 39.007 0.0214677
14.2668 39.1818 2
11.8848 40.1467 3.97855
14.7632 41.9287 0.022824
12.3726 42.285 2
10.1498 42.7836 3.97797
12.6862 44.4022 0.0222037
10.5513 44.8097 2
8.3779 45.3249 3.97954
10.974 46.742 0.0205727
8.89994 47.3242 2
6.71963 48.0024 3.98254
9.51705 49.2461 0.0184955
7.42794 50.0385 2
5.20845 50.9113 3.98822
8.26096 52.0063 0.0156731
6.13152 53.0089 2
3.86727 54.0858 4
7.19127 55.0358 0.0110192
5.02404 56.25 2
6.31991 58.3339 0
12.9007 29.0252 3.97533
11.356 26.4801 3.97928
13.4461 26.8035 2
10.1892 23.9605 3.98117
11.9263 24.7782 2
13.2105 25.3516 0.0170538
9.2368 21.1315 3.98509
11.1297 22.2242 2
12.8128 23.2679 0.019021
12.2274 20.539 0.0164351
10.3849 19.3109 2
8.41555 18.0235 3.99006
11.6554 17.5563 0.0138371
9.75981 16.1523 2
7.74928 14.6715 4
11.2191 14.3694 0.00854252
9.30602 12.7745 2
10.9835 10.9835 0
14.4466 32.8556 3.97733
17.7809 33.1017 2
20.4786 33.3827 0.0201522
15.4557 29.6258 2
15.8696 26.3868 0.0230692
18.3168 30.1581 0.025676
12.8544 36.2084 3.97766
14.8588 36.0169 2
17.5976 35.9609 0.0190383
12.5667 37.8316 2
11.2433 38.313 3.97767
14.2667 39.1816 0.0214324
11.8849 40.1469 2
9.73512 40.7587 3.97849
12.3723 42.2847 0.0223829
10.15 42.7839 2
7.92706 43.2731 3.97911
10.551 44.8094 0.0215866
8.37814 45.3251 2
6.12605 45.9068 3.98185
8.89985 47.3239 0.0196755
6.71963 48.0025 2
4.42009 48.7511 3.98802
7.42802 50.0383 0.0164214
5.20823 50.9105 2
2.85457 51.8506 4
6.13175 53.0094 0.0114899
3.86727 54.0858 2
5.0241 56.25 0
12.0414 31.2508 3.97762
10.7687 28.4094 3.97744
12.9008 29.0248 2
9.40421 25.7929 3.98031
11.3562 26.4798 2
13.4458 26.8038 0.0217672
8.2241 23.0186 3.98363
10.1891 23.9601 2
11.9263 24.7785 0.0197565
7.19752 19.9742 3.98921
9.23668 21.131 2
11.1298 22.2247 0.0173976
10.385 19.3114 0.014048
8.41542 18.0234 2
6.31992 16.6661 4
9.75983 16.1524 0.00920459
7.74926 14.6714 2
9.30607 12.7746 0
12.0589 34.2916 3.97715
14.4468 32.8556 2
17.7805 33.1016 0.0225218
15.4555 29.6259 0.023981
10.8082 36.6114 3.97691
12.8548 36.2084 2
14.8584 36.0169 0.0207803
12.5665 37.8315 0.021782
11.2435 38.3131 2
9.33081 38.8264 3.97816
11.8848 40.1467 0.0214538
9.73528 40.759 2
7.5386 41.2137 3.9791
10.1498 42.7836 0.0220264
7.92723 43.2733 2
5.63812 43.7693 3.98178
8.3779 45.3249 0.0204556
6.12619 45.9067 2
3.76588 46.5366 3.98795
6.71963 48.0024 0.0174648
4.41993 48.7502 2
1.99014 49.554 4
5.20845 50.9113 0.0117798
2.85451 51.8506 2
3.86727 54.0858 0
10.9053 32.9155 3.97825
10.0819 30.378 3.97788
12.0416 31.2506 2
8.71263 27.7283 3.97923
10.7687 28.4091 2
12.9007 29.0252 0.024672
7.34977 24.9794 3.98274
9.40433 25.7925 2
11.356 26.4801 0.0207237
6.11441 21.9994 3.98823
8.224 23.0182 2
10.1892 23.9605 0.0188268
5.02411 18.75 4
7.19731 19.9744 2
9.2368 21.1315 0.0149065
8.41555 18.0235 0.00993918
6.3199 16.6661 2
7.74928 14.6715 0
10.4202 34.9987 3.97782
12.0592 34.2916 2
14.4466 32.8556 0.0226706
9.00483 36.9859 3.97682
10.8085 36.6113 2
12.8544 36.2084 0.0223393
11.2433 38.313 0.0223341
9.33101 38.8265 2
7.21994 39.1837 3.97893
9.73512 40.7587 0.0215135
7.53875 41.2139 2
5.25378 41.6147 3.98151
7.92706 43.2731 0.0208875
5.63823 43.7692 2
3.24375 44.2818 3.98794
6.12605 45.9068 0.0181525
3.76585 46.5357 2
1.27781 47.2057 4
4.42009 48.7511 0.011979
1.99012 49.554 2
2.85457 51.8506 0
10.0734 33.8793 3.97813
9.37575 32.1516 3.9784
10.9055 32.9153 2
8.06232 29.6931 3.97895
10.0821 30.3778 2
12.0414 31.2508 0.022378
6.59371 27.0068 3.98191
8.7127 27.728 2
10.7687 28.4094 0.0225581
5.16961 24.094 3.98779
7.34981 24.9792 2
9.40421 25.7929 0.019691
3.86728 20.9142 4
6.11416 22 2
8.2241 23.0186 0.0163652
5.02406 18.75 2
7.19752 19.9742 0.0107896
6.31992 16.6661 0
8.83143 35.279 3.97771
10.4204 34.9987 2
12.0589 34.2916 0.0228456
7.00519 37.2066 3.97788
9.00513 36.9859 2
10.8082 36.6114 0.0230911
9.33081 38.8264 0.0218402
7.22013 39.1838 2
4.98215 39.4679 3.98105
7.5386 41.2137 0.0209047
5.25389 41.6147 2
2.85445 42.0024 3.98761
5.63812 43.7693 0.0182194
3.24374 44.281 2
0.720592 44.8159 4
3.76588 46.5366 0.0120492
1.27778 47.2057 2
1.99014 49.554 0
8.87292 33.696 3.97832
10.0736 33.8792 2
7.50035 31.6076 3.97911
9.37591 32.1514 2
10.9053 32.9155 0.0217527
5.93924 29.0687 3.98142
8.06243 29.6929 2
10.0819 30.378 0.0221233
4.35727 26.2477 3.9877
6.59377 27.0066 2
8.71263 27.7283 0.0207718
2.85458 23.1494 4
5.16943 24.0949 2
7.34977 24.9794 0.0172606
3.86728 20.9142 2
6.11441 21.9994 0.0117662
5.02411 18.75 0
6.95569 35.306 3.97812
8.83169 35.2789 2
10.4202 34.9987 0.0221781
4.83306 37.3402 3.98051
7.00547 37.2066 2
9.00483 36.9859 0.0231839
7.21994 39.1837 0.0210745
4.98232 39.4679 2
2.60278 39.7142 3.98697
5.25378 41.6147 0.0184868
2.85447 42.0018 2
0.320823 42.3947 4
3.24375 44.2818 0.0120616
0.720551 44.8159 2
1.27781 47.2057 0
7.11498 33.4602 3.97882
8.87312 33.6959 2
10.0734 33.8793 0.0218702
5.41048 31.1333 3.98135
7.50046 31.6075 2
9.37575 32.1516 0.0215988
3.67917 28.4441 3.9877
5.93932 29.0688 2
8.06232 29.6931 0.0210477
1.99015 25.446 4
4.35715 26.2487 2
6.59371 27.0068 0.018088
2.85453 23.1494 2
5.16961 24.094 0.0122136
3.86728 20.9142 0
4.84755 35.2518 3.98055
6.95594 35.306 2
8.83143 35.279 0.0222921
2.49441 37.4288 3.98676
4.83329 37.3402 2
7.00519 37.2066 0.0221166
4.98215 39.4679 0.0189482
2.60285 39.7139 2
0.080333 39.9526 4
2.85445 42.0024 0.0123896
0.320817 42.3947 2
0.720592 44.8159 0
5.04048 33.1903 3.98111
7.11516 33.4601 2
8.87292 33.696 0.0216818
3.14373 30.6667 3.98754
5.41056 31.1335 2
7.50035 31.6076 0.020895
1.27793 27.7943 4
3.67912 28.445 2
5.93924 29.0687 0.0185793
1.99013 25.446 2
4.35727 26.2477 0.0123031
2.85458 23.1494 0
2.54662 35.1594 3.98672
4.84775 35.252 2
6.95569 35.306 0.021884
0 37.5 4
2.49453 37.4288 2
4.83306 37.3402 0.0194862
2.60278 39.7142 0.0130277
0.0802903 39.9526 2
0.320823 42.3947 0
2.76403 32.9062 3.98711
5.04061 33.1906 2
7.11498 33.4602 0.0211818
0.721173 30.1842 4
3.14371 30.6674 2
5.41048 31.1333 0.0186491
1.27779 27.7943 2
3.67917 28.4441 0.0122999
1.99015 25.446 0
0.0806499 35.0474 4
2.54671 35.1597 2
4.84755 35.2518 0.0194476
0 37.5 2
2.49441 37.4288 0.0132417
0.080333 39.9526 0
0.32156 32.6054 4
2.76408 32.9067 2
5.04048 33.1903 0.0188893
0.72056 30.1841 2
3.14373 30.6667 0.0124596
1.27793 27.7943 0
0.0802889 35.0474 2
2.54662 35.1594 0.013284
0 37.5 0
0.320817 32.6053 2
2.76403 32.9062 0.0128949
0.721173 30.1842 0
0.0806499 35.0474 0
0.32156 32.6054 0
CELLS 1910 17190
8 18 6 25 56 2 0 5 16
8 57 23 6 18 17 4 0 2
8 78 36 9 29 31 11 1 7
8 31 11 1 7 79 37 10 30
8 110 57 18 50 48 17 2 14
8 50 18 56 111 14 2 16 49
8 116 62 22 55 52 20 3 15
8 56 25 67 118 16 5 24 53
8 119 63 23 57 54 21 4 17
8 55 22 63 119 15 3 21 54
8 58 26 68 121 18 6 25 56
8 122 65 26 58 57 23 6 18
8 73 31 7 27 142 79 30 71
8 143 78 29 72 73 31 7 27
8 83 147 76 34 32 74 28 8
8 84 148 78 36 33 75 29 9
8 76 34 8 28 148 84 33 75
8 37 79 150 86 10 30 77 35
8 151 87 36 78 80 38 11 31
8 80 38 11 31 152 88 37 79
8 175 100 42 94 96 44 12 40
8 44 96 176 101 12 40 95 43
8 101 176 98 46 43 95 41 13
8 46 98 178 103 13 41 97 45
8 178 103 45 97 147 83 32 74
8 189 116 55 109 106 52 15 47
8 111 56 118 191 49 16 53 107
8 192 119 57 110 108 54 17 48
8 109 55 119 192 47 15 54 108
8 194 122 58 112 110 57 18 50
8 112 58 121 195 50 18 56 111
8 115 61 19 51 197 124 59 113
8 115 61 125 198 51 19 60 114
8 198 125 62 116 114 60 20 52
8 200 127 64 120 116 62 22 55
8 118 67 132 202 53 24 66 117
8 121 68 133 203 56 25 67 118
8 120 64 128 204 55 22 63 119
8 204 128 65 122 119 63 23 57
8 206 134 68 121 123 69 26 58
8 123 69 26 58 207 131 65 122
8 226 147 74 138 140 76 28 70
8 229 148 75 139 143 78 29 72
8 140 76 28 70 229 148 75 139
8 142 79 30 71 231 150 77 141
8 144 80 31 73 232 152 79 142
8 233 151 78 143 144 80 31 73
8 150 86 35 77 235 154 81 145
8 235 154 81 145 146 82 39 91
8 146 82 39 91 236 155 90 165
8 238 157 83 147 149 85 34 76
8 239 158 84 148 151 87 36 78
8 149 85 34 76 239 158 84 148
8 152 88 37 79 241 160 86 150
8 242 161 87 151 153 89 38 80
8 153 89 38 80 243 162 88 152
8 171 98 41 92 265 178 97 169
8 265 178 97 169 226 147 74 138
8 172 96 40 93 266 176 95 170
8 266 176 95 170 171 98 41 92
8 269 175 94 173 172 96 40 93
8 271 180 99 174 175 100 42 94
8 197 124 59 113 271 180 99 174
8 272 181 100 175 177 102 44 96
8 273 182 101 176 179 104 46 98
8 177 102 44 96 273 182 101 176
8 179 104 46 98 275 184 103 178
8 275 184 103 178 238 157 83 147
8 188 115 51 105 283 197 113 186
8 188 115 198 284 105 51 114 187
8 284 198 116 189 187 114 52 106
8 286 200 120 193 189 116 55 109
8 191 118 202 288 107 53 117 190
8 195 121 203 289 111 56 118 191
8 193 120 204 290 109 55 119 192
8 290 204 122 194 192 119 57 110
8 196 123 58 112 292 207 122 194
8 293 206 121 195 196 123 58 112
8 199 126 61 115 297 211 124 197
8 298 212 127 200 198 125 62 116
8 199 126 212 298 115 61 125 198
8 205 129 64 120 300 214 127 200
8 301 217 130 201 202 132 66 117
8 209 136 168 264 301 217 130 201
8 302 219 132 202 203 133 67 118
8 303 220 133 203 206 134 68 121
8 205 129 215 304 120 64 128 204
8 304 215 131 207 204 128 65 122
8 306 221 134 206 208 135 69 123
8 208 135 69 123 307 218 131 207
8 210 137 167 263 309 223 136 209
8 328 238 147 226 230 149 76 140
8 228 146 91 166 329 236 165 260
8 231 150 77 141 330 235 145 227
8 330 235 145 227 228 146 91 166
8 332 239 148 229 233 151 78 143
8 230 149 76 140 332 239 148 229
8 232 152 79 142 334 241 150 231
8 234 153 80 144 335 243 152 232
8 336 242 151 233 234 153 80 144
8 236 155 90 165 338 245 164 259
8 241 160 86 150 339 246 154 235
8 339 246 154 235 237 156 82 146
8 237 156 82 146 340 247 155 236
8 342 249 157 238 240 159 85 149
8 343 250 158 239 242 161 87 151
8 240 159 85 149 343 250 158 239
8 243 162 88 152 345 252 160 241
8 244 163 253 346 153 89 161 242
8 244 163 89 153 347 254 162 243
8 311 224 261 371 210 137 167 263
8 263 167 262 372 209 136 168 264
8 267 179 98 171 375 275 178 265
8 375 275 178 265 328 238 147 226
8 376 273 176 266 267 179 98 171
8 268 177 96 172 376 273 176 266
8 379 272 175 269 268 177 96 172
8 380 271 174 270 269 175 94 173
8 283 197 113 186 380 271 174 270
8 381 277 180 271 272 181 100 175
8 297 211 124 197 381 277 180 271
8 382 278 181 272 274 183 102 177
8 274 183 102 177 383 279 182 273
8 383 279 182 273 276 185 104 179
8 385 281 184 275 342 249 157 238
8 276 185 104 179 385 281 184 275
8 285 199 115 188 393 297 197 283
8 394 298 200 286 284 198 116 189
8 285 199 298 394 188 115 198 284
8 291 205 120 193 396 300 200 286
8 397 301 201 287 288 202 117 190
8 295 209 264 374 397 301 201 287
8 398 302 202 288 289 203 118 191
8 399 303 203 289 293 206 121 195
8 291 205 304 400 193 120 204 290
8 400 304 207 292 290 204 122 194
8 294 208 123 196 402 307 207 292
8 403 306 206 293 294 208 123 196
8 296 210 263 373 405 309 209 295
8 408 312 213 299 297 211 126 199
8 299 213 313 409 199 126 212 298
8 409 313 214 300 298 212 127 200
8 305 216 129 205 411 315 214 300
8 412 318 217 301 302 219 132 202
8 309 223 136 209 412 318 217 301
8 413 320 219 302 303 220 133 203
8 306 221 321 414 206 134 220 303
8 307 218 131 207 415 316 215 304
8 305 216 316 415 205 129 215 304
8 417 322 221 306 308 222 135 208
8 308 222 135 208 418 319 218 307
8 310 225 137 210 420 325 223 309
8 423 326 224 311 310 225 137 210
8 329 236 165 260 441 338 259 368
8 442 342 238 328 333 240 149 230
8 331 237 146 228 443 340 236 329
8 334 241 150 231 444 339 235 330
8 444 339 235 330 331 237 146 228
8 446 343 239 332 336 242 151 233
8 333 240 149 230 446 343 239 332
8 335 243 152 232 448 345 241 334
8 337 244 153 234 449 347 243 335
8 337 244 346 450 234 153 242 336
8 338 245 164 259 452 349 258 367
8 340 247 155 236 453 350 245 338
8 345 252 160 241 454 351 246 339
8 454 351 246 339 341 248 156 237
8 341 248 156 237 455 352 247 340
8 240 159 251 344 342 249 354 457
8 242 161 253 346 343 250 355 458
8 343 250 355 458 240 159 251 344
8 347 254 162 243 460 357 252 345
8 348 255 358 461 244 163 253 346
8 348 255 163 244 462 359 254 347
8 473 360 257 365 363 256 364 482
8 452 349 258 367 365 257 366 485
8 422 324 369 488 311 224 261 371
8 371 261 370 490 263 167 262 372
8 407 311 371 491 296 210 263 373
8 373 263 372 492 295 209 264 374
8 493 385 275 375 442 342 238 328
8 377 276 179 267 493 385 275 375
8 378 274 177 268 494 383 273 376
8 494 383 273 376 377 276 179 267
8 497 382 272 379 378 274 177 268
8 498 381 271 380 379 272 175 269
8 393 297 197 283 498 381 271 380
8 499 387 277 381 382 278 181 272
8 408 312 211 297 499 387 277 381
8 500 388 278 382 384 280 183 274
8 501 389 279 383 386 282 185 276
8 384 280 183 274 501 389 279 383
8 386 282 185 276 503 391 281 385
8 503 391 281 385 457 354 249 342
8 511 408 299 395 393 297 199 285
8 395 299 409 512 285 199 298 394
8 512 409 300 396 394 298 200 286
8 401 305 205 291 514 411 300 396
8 515 412 301 397 398 302 202 288
8 405 309 209 295 515 412 301 397
8 516 413 302 398 399 303 203 289
8 403 306 414 517 293 206 303 399
8 402 307 207 292 518 415 304 400
8 401 305 415 518 291 205 304 400
8 404 308 208 294 520 418 307 402
8 521 417 306 403 404 308 208 294
8 406 310 210 296 523 420 309 405
8 526 423 311 407 406 310 210 296
8 410 314 213 299 527 424 312 408
8 528 425 315 411 409 313 214 300
8 410 314 425 528 299 213 313 409
8 416 317 216 305 530 427 315 411
8 531 430 318 412 413 320 219 302
8 420 325 223 309 531 430 318 412
8 532 432 320 413 414 321 220 303
8 417 322 433 533 306 221 321 414
8 418 319 218 307 534 428 316 415
8 416 317 428 534 305 216 316 415
8 419 323 434 536 308 222 322 417
8 419 323 222 308 537 431 319 418
8 421 327 225 310 539 438 325 420
8 421 327 439 541 310 225 326 423
8 543 437 324 422 423 326 224 311
8 441 338 259 368 559 452 367 486
8 443 340 236 329 560 453 338 441
8 333 240 344 447 442 342 457 561
8 445 341 237 331 562 455 340 443
8 448 345 241 334 563 454 339 444
8 563 454 339 444 445 341 237 331
8 336 242 346 450 446 343 458 565
8 446 343 458 565 333 240 344 447
8 449 347 243 335 567 460 345 448
8 451 348 244 337 568 462 347 449
8 451 348 461 569 337 244 346 450
8 570 463 349 452 473 360 257 365
8 453 350 245 338 570 463 349 452
8 455 352 247 340 571 464 350 453
8 460 357 252 345 572 465 351 454
8 572 465 351 454 456 353 248 341
8 456 353 248 341 573 466 352 455
8 344 251 356 459 457 354 468 575
8 458 355 469 576 344 251 356 459
8 346 253 358 461 458 355 469 576
8 462 359 254 347 578 471 357 460
8 348 255 359 462 461 358 472 579
8 591 474 360 473 475 361 256 363
8 475 361 256 363 594 477 362 479
8 363 256 364 482 479 362 480 603
8 590 473 365 484 481 363 482 605
8 482 364 257 365 606 483 366 485
8 559 452 367 486 484 365 485 607
8 542 436 487 609 422 324 369 488
8 525 422 488 611 407 311 371 491
8 488 369 489 612 371 261 370 490
8 491 371 490 613 373 263 372 492
8 495 386 276 377 614 503 385 493
8 614 503 385 493 561 457 342 442
8 615 501 383 494 495 386 276 377
8 496 384 274 378 615 501 383 494
8 618 500 382 497 496 384 274 378
8 619 499 381 498 497 382 272 379
8 511 408 297 393 619 499 381 498
8 620 505 387 499 500 388 278 382
8 527 424 312 408 620 505 387 499
8 502 390 506 621 384 280 388 500
8 622 507 389 501 504 392 282 386
8 502 390 280 384 622 507 389 501
8 504 392 282 386 624 509 391 503
8 624 509 391 503 575 468 354 457
8 513 410 299 395 630 527 408 511
8 631 528 411 514 512 409 300 396
8 513 410 528 631 395 299 409 512
8 519 416 305 401 633 530 411 514
8 634 531 412 515 516 413 302 398
8 523 420 309 405 634 531 412 515
8 635 532 413 516 517 414 303 399
8 521 417 533 636 403 306 414 517
8 520 418 307 402 637 534 415 518
8 519 416 534 637 401 305 415 518
8 522 419 308 404 639 537 418 520
8 522 419 536 640 404 308 417 521
8 524 421 310 406 642 539 420 523
8 524 421 541 644 406 310 423 526
8 646 543 422 525 526 423 311 407
8 529 426 314 410 647 544 424 527
8 528 425 545 648 411 315 427 530
8 529 426 545 648 410 314 425 528
8 535 429 317 416 649 546 427 530
8 650 548 430 531 532 432 320 413
8 539 438 325 420 650 548 430 531
8 533 433 550 651 414 321 432 532
8 536 434 551 652 417 322 433 533
8 537 431 319 418 653 547 428 534
8 535 429 547 653 416 317 428 534
8 538 435 552 654 419 323 434 536
8 538 435 323 419 655 549 431 537
8 540 440 327 421 657 556 438 539
8 540 440 557 659 421 327 439 541
8 541 439 555 660 423 326 437 543
8 661 554 436 542 543 437 324 422
8 676 570 452 559 590 473 365 484
8 560 453 338 441 676 570 452 559
8 562 455 340 443 677 571 453 560
8 447 344 459 566 561 457 575 678
8 564 456 341 445 679 573 455 562
8 567 460 345 448 680 572 454 563
8 680 572 454 563 564 456 341 445
8 565 458 576 682 447 344 459 566
8 450 346 461 569 565 458 576 682
8 568 462 347 449 684 578 460 567
8 451 348 462 568 569 461 579 685
8 686 580 463 570 591 474 360 473
8 571 464 350 453 686 580 463 570
8 573 466 352 455 687 581 464 571
8 572 465 582 688 460 357 471 578
8 574 467 582 688 456 353 465 572
8 574 467 353 456 689 583 466 573
8 459 356 470 577 575 468 585 691
8 576 469 586 692 459 356 470 577
8 461 358 472 579 576 469 586 692
8 462 359 471 578 579 472 588 694
8 704 591 473 590 593 475 363 481
8 595 476 592 705 475 361 474 591
8 593 475 363 481 707 594 479 602
8 594 477 362 479 709 598 478 600
8 595 476 361 475 711 597 477 594
8 479 362 480 603 600 478 601 720
8 481 363 482 605 602 479 603 722
8 603 480 364 482 723 604 483 606
8 605 482 365 484 724 606 485 607
8 656 553 608 726 542 436 487 609
8 645 542 609 728 525 422 488 611
8 609 487 610 729 488 369 489 612
8 611 488 612 730 491 371 490 613
8 616 504 386 495 731 624 503 614
8 731 624 503 614 678 575 457 561
8 732 622 501 615 616 504 386 495
8 617 502 384 496 732 622 501 615
8 617 502 621 735 496 384 500 618
8 736 620 499 619 618 500 382 497
8 630 527 408 511 736 620 499 619
8 621 506 626 737 500 388 505 620
8 647 544 424 527 737 626 505 620
8 623 508 627 738 502 390 506 621
8 623 508 390 502 739 628 507 622
8 625 510 628 739 504 392 507 622
8 740 629 509 624 691 585 468 575
8 625 510 392 504 740 629 509 624
8 632 529 410 513 744 647 527 630
8 631 528 648 745 514 411 530 633
8 632 529 648 745 513 410 528 631
8 638 535 416 519 746 649 530 633
8 747 650 531 634 635 532 413 516
8 642 539 420 523 747 650 531 634
8 636 533 651 748 517 414 532 635
8 640 536 652 749 521 417 533 636
8 639 537 418 520 750 653 534 637
8 638 535 653 750 519 416 534 637
8 641 538 419 522 751 655 537 639
8 641 538 654 752 522 419 536 640
8 643 540 421 524 753 657 539 642
8 643 540 659 755 524 421 541 644
8 644 541 660 757 526 423 543 646
8 758 661 542 645 646 543 422 525
8 529 426 544 647 648 545 662 759
8 530 427 545 648 649 546 663 760
8 535 429 546 649 653 547 664 761
8 762 666 548 650 651 550 432 532
8 657 556 438 539 762 666 548 650
8 652 551 668 763 533 433 550 651
8 654 552 669 764 536 434 551 652
8 655 549 431 537 765 665 547 653
8 538 435 549 655 654 552 667 766
8 661 554 671 768 542 436 553 656
8 658 558 440 540 769 674 556 657
8 658 558 675 770 540 440 557 659
8 659 557 673 771 541 439 555 660
8 660 555 672 772 543 437 554 661
8 788 686 570 676 704 591 473 590
8 677 571 453 560 788 686 570 676
8 679 573 455 562 789 687 571 677
8 566 459 577 683 678 575 691 790
8 681 574 456 564 791 689 573 679
8 680 572 688 792 567 460 578 684
8 681 574 688 792 564 456 572 680
8 682 576 692 794 566 459 577 683
8 569 461 579 685 682 576 692 794
8 568 462 578 684 685 579 694 796
8 687 581 464 571 798 696 580 686
8 798 696 580 686 705 592 474 591
8 689 583 466 573 799 697 581 687
8 688 582 698 800 578 471 588 694
8 690 584 698 800 574 467 582 688
8 690 584 467 574 801 699 583 689
8 693 587 701 803 577 470 585 691
8 693 587 470 577 804 702 586 692
8 695 589 702 804 579 472 586 692
8 695 589 472 579 805 703 588 694
8 708 595 705 813 593 475 591 704
8 710 596 706 814 595 476 592 705
8 707 594 479 602 816 709 600 719
8 708 595 475 593 817 711 594 707
8 709 598 478 600 819 715 599 717
8 711 597 477 594 820 714 598 709
8 710 596 476 595 822 713 597 711
8 600 478 601 720 717 599 718 832
8 602 479 603 722 719 600 720 834
8 720 601 480 603 835 721 604 723
8 722 603 482 605 836 723 606 724
8 767 670 725 839 656 553 608 726
8 756 656 726 841 645 542 609 728
8 726 608 727 842 609 487 610 729
8 728 609 729 843 611 488 612 730
8 844 740 624 731 790 691 575 678
8 733 625 504 616 844 740 624 731
8 734 623 502 617 845 739 622 732
8 733 625 739 845 616 504 622 732
8 734 623 738 846 617 502 621 735
8 735 621 737 847 618 500 620 736
8 744 647 527 630 847 737 620 736
8 621 506 627 738 737 626 741 848
8 647 544 626 737 759 662 741 848
8 623 508 628 739 738 627 742 849
8 740 629 585 691 850 743 700 802
8 625 510 629 740 739 628 743 850
8 632 529 647 744 745 648 759 854
8 633 530 648 745 746 649 760 855
8 638 535 649 746 750 653 761 856
8 857 762 650 747 748 651 532 635
8 753 657 539 642 857 762 650 747
8 749 652 763 858 636 533 651 748
8 752 654 764 859 640 536 652 749
8 751 655 537 639 860 765 653 750
8 641 538 655 751 752 654 766 861
8 754 658 540 643 862 769 657 753
8 754 658 770 863 643 540 659 755
8 755 659 771 864 644 541 660 757
8 758 661 768 866 645 542 656 756
8 757 660 772 867 646 543 661 758
8 759 662 773 868 648 545 663 760
8 649 546 663 760 761 664 774 871
8 765 665 547 653 872 775 664 761
8 873 777 666 762 763 668 550 651
8 769 674 556 657 873 777 666 762
8 764 669 779 874 652 551 668 763
8 654 552 667 766 764 669 778 875
8 655 549 665 765 766 667 776 876
8 768 671 782 877 656 553 670 767
8 772 672 783 878 661 554 671 768
8 658 558 674 769 770 675 786 879
8 659 557 675 770 771 673 785 881
8 882 784 672 772 771 673 555 660
8 789 687 571 677 897 798 686 788
8 897 798 686 788 813 705 591 704
8 791 689 573 679 898 799 687 789
8 795 693 803 900 683 577 691 790
8 793 690 574 681 901 801 689 791
8 792 688 800 902 684 578 694 796
8 793 690 800 902 681 574 688 792
8 795 693 577 683 903 804 692 794
8 797 695 804 903 685 579 692 794
8 797 695 579 685 904 805 694 796
8 905 806 697 799 798 696 581 687
8 814 706 806 905 705 592 696 798
8 689 583 697 799 801 699 808 907
8 800 698 809 908 694 588 703 805
8 690 584 699 801 800 698 809 908
8 803 701 810 909 691 585 700 802
8 693 587 702 804 803 701 811 910
8 695 589 703 805 804 702 812 911
8 818 710 814 919 708 595 705 813
8 821 712 815 920 710 596 706 814
8 816 709 600 719 922 819 717 831
8 817 711 594 707 923 820 709 816
8 818 710 595 708 924 822 711 817
8 819 715 599 717 926 827 716 829
8 820 714 598 709 927 826 715 819
8 929 825 713 822 820 714 597 711
8 821 712 596 710 930 824 713 822
8 717 599 718 832 829 716 830 942
8 719 600 720 834 831 717 832 944
8 832 718 601 720 945 833 721 835
8 834 720 603 722 946 835 723 836
8 869 780 838 950 767 670 725 839
8 865 767 839 952 756 656 726 841
8 839 725 840 953 726 608 727 842
8 841 726 842 954 728 609 729 843
8 844 740 691 790 955 850 802 899
8 733 625 740 844 845 739 850 955
8 734 623 739 845 846 738 849 956
8 735 621 738 846 847 737 848 957
8 744 647 737 847 854 759 848 957
8 738 627 742 849 848 741 851 958
8 848 741 851 958 759 662 773 868
8 850 743 700 802 959 852 807 906
8 849 742 628 739 959 852 743 850
8 854 759 868 965 745 648 760 855
8 746 649 760 855 856 761 871 966
8 860 765 653 750 967 872 761 856
8 968 873 762 857 858 763 651 748
8 862 769 657 753 968 873 762 857
8 859 764 874 969 749 652 763 858
8 752 654 766 861 859 764 875 970
8 751 655 765 860 861 766 876 971
8 754 658 769 862 863 770 879 972
8 755 659 770 863 864 771 881 974
8 976 882 772 867 864 771 660 757
8 866 768 877 977 756 656 767 865
8 867 772 878 978 758 661 768 866
8 760 663 773 868 871 774 883 980
8 870 781 837 948 982 890 780 869
8 982 890 780 869 877 782 670 767
8 761 664 774 871 872 775 884 984
8 876 776 665 765 985 885 775 872
8 873 777 668 763 986 887 779 874
8 769 674 777 873 879 786 887 986
8 764 669 778 875 874 779 888 987
8 766 667 776 876 875 778 886 988
8 878 783 892 989 768 671 782 877
8 878 783 672 772 990 893 784 882
8 880 787 675 770 991 896 786 879
8 880 787 895 992 770 675 785 881
8 881 785 894 993 771 673 784 882
8 1006 905 799 898 897 798 687 789
8 919 814 905 1006 813 705 798 897
8 791 689 799 898 901 801 907 1007
8 900 803 909 1009 790 691 802 899
8 795 693 804 903 900 803 910 1010
8 902 800 908 1011 796 694 805 904
8 793 690 801 901 902 800 908 1011
8 797 695 805 904 903 804 911 1012
8 799 697 806 905 907 808 912 1013
8 920 815 912 1013 814 706 806 905
8 802 700 810 909 906 807 913 1014
8 801 699 808 907 908 809 914 1015
8 805 703 809 908 911 812 915 1016
8 803 701 811 910 909 810 916 1017
8 911 812 917 1018 804 702 811 910
8 925 821 920 1030 818 710 814 919
8 928 823 921 1031 821 712 815 920
8 922 819 717 831 1033 926 829 941
8 923 820 709 816 1034 927 819 922
8 1035 929 822 924 923 820 711 817
8 925 821 710 818 1036 930 822 924
8 1038 933 825 929 927 826 714 820
8 926 827 716 829 1039 935 828 939
8 927 826 715 819 1040 934 827 926
8 928 823 712 821 1041 931 824 930
8 1042 932 824 930 929 825 713 822
8 829 716 830 942 939 828 940 1058
8 831 717 832 944 941 829 942 1060
8 942 830 718 832 1061 943 833 945
8 944 832 720 834 1062 945 835 946
8 981 889 947 1064 870 781 837 948
8 948 837 949 1067 869 780 838 950
8 975 869 950 1069 865 767 839 952
8 950 838 951 1070 839 725 840 953
8 952 839 953 1071 841 726 842 954
8 955 850 802 899 1072 959 906 1008
8 956 849 739 845 1072 959 850 955
8 846 738 849 956 957 848 958 1073
8 957 848 958 1073 854 759 868 965
8 849 742 852 959 958 851 961 1076
8 960 853 961 1076 906 807 852 959
8 958 851 961 1076 868 773 883 980
8 960 853 807 906 1077 963 913 1014
8 855 760 868 965 966 871 980 1085
8 856 761 871 966 967 872 984 1086
8 971 876 765 860 1087 985 872 967
8 968 873 763 858 1088 986 874 969
8 862 769 873 968 972 879 986 1088
8 859 764 875 970 969 874 987 1089
8 861 766 876 971 970 875 988 1090
8 973 880 770 863 1091 991 879 972
8 973 880 992 1092 863 770 881 974
8 974 881 993 1093 864 771 882 976
8 979 870 948 1066 1094 982 869 975
8 1094 982 869 975 977 877 767 865
8 978 878 772 867 1095 990 882 976
8 978 878 989 1096 866 768 877 977
8 871 774 883 980 984 884 994 1099
8 983 891 999 1100 870 781 889 981
8 1101 1000 890 982 989 892 782 877
8 983 891 781 870 1101 1000 890 982
8 872 775 884 984 985 885 995 1103
8 876 776 885 985 988 886 996 1104
8 986 887 779 874 1105 998 888 987
8 879 786 887 986 991 896 998 1105
8 875 778 886 988 987 888 997 1106
8 990 893 1002 1107 878 783 892 989
8 1108 1003 893 990 993 894 784 882
8 880 787 896 991 992 895 1005 1109
8 993 894 785 881 1110 1004 895 992
8 898 799 905 1006 1007 907 1013 1120
8 1030 920 1013 1120 919 814 905 1006
8 901 801 907 1007 1011 908 1015 1121
8 899 802 909 1009 1008 906 1014 1122
8 900 803 910 1010 1009 909 1017 1123
8 1012 911 1018 1124 903 804 910 1010
8 904 805 908 1011 1012 911 1016 1125
8 1013 912 1020 1127 907 808 914 1015
8 1031 921 1020 1127 920 815 912 1013
8 1019 918 962 1075 1128 1021 913 1014
8 1128 1021 913 1014 1017 916 810 909
8 1015 914 1022 1129 908 809 915 1016
8 1016 915 1023 1130 911 812 917 1018
8 1018 917 1024 1131 910 811 916 1017
8 1037 928 1031 1148 925 821 920 1030
8 928 823 931 1041 1031 921 1032 1149
8 1033 926 829 941 1151 1039 939 1057
8 1034 927 819 922 1152 1040 926 1033
8 1153 1038 929 1035 1034 927 820 923
8 1154 1042 930 1036 1035 929 822 924
8 1037 928 821 925 1155 1041 930 1036
8 1039 935 828 939 1156 1047 938 1055
8 1157 1043 932 1042 1038 933 825 929
8 1038 933 826 927 1158 1045 934 1040
8 1040 934 827 926 1159 1046 935 1039
8 930 824 932 1042 1041 931 1044 1160
8 1051 936 1048 1165 1175 1052 937 1053
8 1156 1047 938 1055 1053 937 1054 1178
8 939 828 940 1058 1055 938 1056 1181
8 941 829 942 1060 1057 939 1058 1183
8 942 830 943 1061 1058 940 1059 1184
8 1060 942 832 944 1185 1061 945 1062
8 1082 964 1063 1188 981 889 947 1064
8 1097 981 1064 1190 979 870 948 1066
8 1064 947 1065 1191 948 837 949 1067
8 1066 948 1067 1193 975 869 950 1069
8 1067 949 1068 1194 950 838 951 1070
8 1069 950 1070 1195 952 839 953 1071
8 956 849 959 1072 1073 958 1076 1197
8 1074 960 1076 1197 1008 906 959 1072
8 1073 958 1076 1197 965 868 980 1085
8 1074 960 906 1008 1198 1077 1014 1122
8 1133 1026 1079 1199 1019 918 962 1075
8 1077 963 913 1014 1200 1080 962 1075
8 960 853 963 1077 1076 961 1078 1201
8 980 883 961 1076 1099 994 1078 1201
8 1210 1083 964 1082 1100 999 889 981
8 966 871 980 1085 1086 984 1099 1215
8 967 872 984 1086 1087 985 1103 1216
8 971 876 985 1087 1090 988 1104 1217
8 1088 986 874 969 1218 1105 987 1089
8 972 879 986 1088 1091 991 1105 1218
8 970 875 988 1090 1089 987 1106 1219
8 973 880 991 1091 1092 992 1109 1220
8 1093 993 881 974 1221 1110 992 1092
8 1222 1108 990 1095 1093 993 882 976
8 1223 1101 982 1094 1096 989 877 977
8 1098 983 870 979 1223 1101 982 1094
8 1095 990 1107 1224 978 878 989 1096
8 1098 983 1100 1225 979 870 981 1097
8 984 884 994 1099 1103 995 1111 1227
8 1102 1001 1115 1228 983 891 999 1100
8 1101 1000 892 989 1229 1116 1002 1107
8 1102 1001 891 983 1229 1116 1000 1101
8 985 885 995 1103 1104 996 1112 1230
8 988 886 996 1104 1106 997 1113 1231
8 1105 998 888 987 1232 1114 997 1106
8 991 896 998 1105 1109 1005 1114 1232
8 1108 1003 1117 1233 990 893 1002 1107
8 1108 1003 894 993 1233 1117 1004 1110
8 992 895 1005 1109 1110 1004 1118 1234
8 1120 1013 1127 1244 1007 907 1015 1121
8 1148 1031 1127 1244 1030 920 1013 1120
8 1121 1015 1129 1245 1011 908 1016 1125
8 1126 1019 1075 1196 1246 1128 1014 1122
8 1246 1128 1014 1122 1123 1017 909 1009
8 1124 1018 1131 1247 1010 910 1017 1123
8 1125 1016 1130 1248 1012 911 1018 1124
8 1127 1020 1137 1254 1015 914 1022 1129
8 1031 921 1032 1149 1127 1020 1137 1254
8 1134 1027 918 1019 1257 1140 1021 1128
8 1257 1140 1021 1128 1131 1024 916 1017
8 1129 1022 1141 1258 1016 915 1023 1130
8 1130 1023 1142 1259 1018 917 1024 1131
8 1261 1144 1025 1132 1133 1026 1079 1199
8 1255 1138 1025 1132 1135 1028 1144 1261
8 1133 1026 918 1019 1262 1145 1027 1134
8 1136 1029 1139 1256 1263 1146 1028 1135
8 1037 928 1041 1155 1148 1031 1149 1275
8 1041 931 1044 1160 1149 1032 1150 1276
8 1151 1039 939 1057 1278 1156 1055 1180
8 1152 1040 926 1033 1279 1159 1039 1151
8 1153 1038 927 1034 1280 1158 1040 1152
8 1281 1157 1042 1154 1153 1038 929 1035
8 1036 930 1042 1154 1155 1041 1160 1282
8 1283 1164 1046 1159 1156 1047 935 1039
8 1165 1048 1164 1283 1053 937 1047 1156
8 1157 1043 933 1038 1284 1161 1045 1158
8 1157 1043 1161 1284 1042 932 1044 1160
8 1040 934 1046 1159 1158 1045 1163 1285
8 1166 1049 1167 1292 1051 936 1048 1165
8 1166 1049 936 1051 1293 1168 1050 1172
8 1051 936 1052 1175 1172 1050 1173 1306
8 1174 1051 1165 1290 1308 1175 1053 1177
8 1053 937 1054 1178 1175 1052 1176 1309
8 1278 1156 1055 1180 1177 1053 1178 1311
8 1055 938 1056 1181 1178 1054 1179 1312
8 1057 939 1058 1183 1180 1055 1181 1314
8 1058 940 1059 1184 1181 1056 1182 1315
8 1060 942 1061 1185 1183 1058 1184 1316
8 1208 1081 1187 1321 1082 964 1063 1188
8 1209 1082 1188 1322 1097 981 1064 1190
8 1188 1063 1189 1323 1064 947 1065 1191
8 1190 1064 1191 1325 1066 948 1067 1193
8 1191 1065 1192 1326 1067 949 1068 1194
8 1067 1193 1069 950 1194 1327 1195 1070
8 1250 1133 1199 1330 1126 1019 1075 1196
8 1198 1077 1014 1122 1331 1200 1075 1196
8 1074 960 1077 1198 1197 1076 1201 1332
8 1085 980 1076 1197 1215 1099 1201 1332
8 1199 1079 1203 1333 1075 962 1080 1200
8 1132 1025 1119 1243 1199 1079 1203 1333
8 1201 1078 963 1077 1334 1202 1080 1200
8 1099 994 1078 1201 1227 1111 1202 1334
8 1343 1207 1081 1208 1210 1083 964 1082
8 1214 1084 1186 1319 1343 1207 1081 1208
8 1345 1210 1082 1209 1225 1100 981 1097
8 1346 1211 1083 1210 1228 1115 999 1100
8 1086 984 1099 1215 1216 1103 1227 1352
8 1087 985 1103 1216 1217 1104 1230 1353
8 1090 988 1104 1217 1219 1106 1231 1354
8 1218 1105 987 1089 1355 1232 1106 1219
8 1091 991 1105 1218 1220 1109 1232 1355
8 1092 992 1109 1220 1221 1110 1234 1356
8 1222 1108 1233 1357 1095 990 1107 1224
8 1222 1108 993 1093 1357 1233 1110 1221
8 1223 1101 989 1096 1358 1229 1107 1224
8 1226 1102 983 1098 1358 1229 1101 1223
8 1226 1102 1228 1359 1098 983 1100 1225
8 1103 995 1111 1227 1230 1112 1235 1360
8 1107 1002 1117 1233 1229 1116 1240 1362
8 1102 1001 1116 1229 1228 1115 1240 1362
8 1104 996 1112 1230 1231 1113 1236 1363
8 1364 1237 1114 1232 1231 1113 997 1106
8 1109 1005 1114 1232 1234 1118 1238 1365
8 1110 1004 1118 1234 1233 1117 1241 1366
8 1242 1374 1255 1138 1119 1243 1132 1025
8 1244 1127 1254 1376 1121 1015 1129 1245
8 1148 1031 1149 1275 1244 1127 1254 1376
8 1245 1129 1258 1377 1125 1016 1130 1248
8 1251 1134 1019 1126 1378 1257 1128 1246
8 1378 1257 1128 1246 1247 1131 1017 1123
8 1248 1130 1259 1379 1124 1018 1131 1247
8 1261 1381 1250 1133 1132 1249 1330 1199
8 1255 1380 1252 1135 1132 1249 1381 1261
8 1250 1133 1019 1126 1382 1262 1134 1251
8 1253 1136 1256 1385 1384 1263 1135 1252
8 1254 1137 1265 1387 1129 1022 1141 1258
8 1149 1032 1150 1276 1254 1137 1265 1387
8 1028 1135 1255 1138 1139 1256 1388 1266
8 1136 1029 1147 1264 1256 1139 1267 1389
8 1390 1268 1140 1257 1259 1142 1024 1131
8 1260 1143 1027 1134 1390 1268 1140 1257
8 1258 1141 1269 1391 1130 1023 1142 1259
8 1262 1145 1027 1134 1393 1271 1143 1260
8 1261 1144 1026 1133 1394 1272 1145 1262
8 1135 1028 1144 1261 1263 1146 1272 1394
8 1136 1029 1146 1263 1264 1147 1273 1395
8 1155 1041 1160 1282 1275 1149 1276 1405
8 1276 1150 1044 1160 1406 1277 1162 1286
8 1408 1283 1159 1279 1278 1156 1039 1151
8 1290 1165 1283 1408 1177 1053 1156 1278
8 1152 1040 1159 1279 1280 1158 1285 1409
8 1281 1157 1038 1153 1410 1284 1158 1280
8 1281 1157 1284 1410 1154 1042 1160 1282
8 1159 1046 1164 1283 1285 1163 1289 1412
8 1292 1167 1289 1412 1165 1048 1164 1283
8 1158 1045 1163 1285 1284 1161 1288 1413
8 1284 1161 1288 1413 1160 1044 1162 1286
8 1291 1166 1292 1418 1174 1051 1165 1290
8 1291 1166 1051 1174 1419 1293 1172 1305
8 1294 1169 1296 1421 1166 1049 1167 1292
8 1293 1168 1050 1172 1422 1295 1171 1303
8 1294 1169 1049 1166 1423 1297 1168 1293
8 1422 1295 1171 1303 1301 1170 1302 1435
8 1172 1050 1173 1306 1303 1171 1304 1438
8 1174 1051 1175 1308 1305 1172 1306 1440
8 1175 1052 1176 1309 1306 1173 1307 1441
8 1177 1053 1178 1311 1308 1175 1309 1443
8 1178 1054 1179 1312 1309 1176 1310 1444
8 1180 1055 1181 1314 1311 1178 1312 1446
8 1056 1181 1312 1179 1182 1315 1447 1313
8 1183 1058 1184 1316 1314 1181 1315 1448
8 1319 1186 1084 1214 1451 1317 1213 1350
8 1319 1186 1318 1453 1208 1081 1187 1321
8 1321 1187 1320 1456 1188 1063 1189 1323
8 1344 1208 1321 1457 1209 1082 1188 1322
8 1322 1188 1323 1458 1190 1064 1191 1325
8 1323 1189 1324 1459 1191 1065 1192 1326
8 1191 1325 1193 1067 1326 1460 1327 1194
8 1242 1374 1243 1119 1328 1462 1335 1204
8 1330 1199 1333 1465 1196 1075 1200 1331
8 1132 1249 1330 1199 1243 1375 1465 1333
8 1332 1201 1077 1198 1466 1334 1200 1331
8 1215 1099 1201 1332 1352 1227 1334 1466
8 1119 1243 1333 1203 1204 1335 1470 1338
8 1333 1203 1338 1470 1200 1080 1202 1334
8 1227 1111 1202 1334 1360 1235 1338 1470
8 1328 1462 1335 1204 1205 1336 1471 1339
8 1337 1206 1340 1472 1464 1329 1205 1336
8 1346 1211 1342 1479 1210 1083 1207 1343
8 1346 1211 1115 1228 1479 1342 1239 1361
8 1348 1212 1084 1214 1479 1342 1207 1343
8 1480 1343 1208 1344 1345 1210 1082 1209
8 1351 1214 1319 1454 1480 1343 1208 1344
8 1481 1346 1210 1345 1359 1228 1100 1225
8 1348 1212 1347 1483 1214 1084 1213 1350
8 1216 1103 1227 1352 1353 1230 1360 1488
8 1217 1104 1230 1353 1354 1231 1363 1489
8 1490 1364 1232 1355 1354 1231 1106 1219
8 1220 1109 1232 1355 1356 1234 1365 1491
8 1221 1110 1234 1356 1357 1233 1366 1492
8 1224 1107 1233 1357 1358 1229 1362 1493
8 1226 1102 1229 1358 1359 1228 1362 1493
8 1230 1112 1235 1360 1363 1236 1367 1496
8 1361 1239 1115 1228 1497 1371 1240 1362
8 1366 1241 1372 1498 1233 1117 1240 1362
8 1364 1237 1113 1231 1499 1368 1236 1363
8 1364 1237 1368 1499 1232 1114 1238 1365
8 1234 1118 1238 1365 1366 1241 1369 1500
8 1507 1373 1242 1374 1388 1266 1138 1255
8 1508 1374 1243 1375 1380 1255 1132 1249
8 1376 1254 1387 1509 1245 1129 1258 1377
8 1275 1149 1276 1405 1376 1254 1387 1509
8 1377 1258 1391 1510 1248 1130 1259 1379
8 1511 1390 1257 1378 1379 1259 1131 1247
8 1383 1260 1134 1251 1511 1390 1257 1378
8 1252 1135 1256 1385 1380 1255 1388 1512
8 1261 1381 1513 1394 1133 1250 1382 1262
8 1135 1252 1384 1263 1261 1381 1513 1394
8 1382 1262 1134 1251 1514 1393 1260 1383
8 1253 1136 1263 1384 1386 1264 1395 1516
8 1253 1136 1264 1386 1385 1256 1389 1517
8 1387 1265 1397 1519 1258 1141 1269 1391
8 1276 1150 1277 1406 1387 1265 1397 1519
8 1256 1139 1267 1389 1388 1266 1398 1520
8 1264 1147 1274 1396 1389 1267 1399 1521
8 1392 1270 1143 1260 1522 1400 1268 1390
8 1390 1268 1142 1259 1522 1400 1269 1391
8 1392 1270 1401 1523 1260 1143 1271 1393
8 1272 1394 1524 1402 1145 1262 1393 1271
8 1395 1273 1146 1263 1524 1402 1272 1394
8 1273 1395 1264 1147 1403 1526 1396 1274
8 1405 1276 1160 1282 1534 1406 1286 1411
8 1414 1287 1407 1535 1286 1162 1277 1406
8 1279 1159 1283 1408 1409 1285 1412 1537
8 1418 1292 1412 1537 1290 1165 1283 1408
8 1280 1158 1285 1409 1410 1284 1413 1538
8 1410 1284 1413 1538 1282 1160 1286 1411
8 1285 1163 1289 1412 1413 1288 1417 1540
8 1421 1296 1417 1540 1292 1167 1289 1412
8 1414 1287 1162 1286 1541 1416 1288 1413
8 1420 1294 1421 1545 1291 1166 1292 1418
8 1419 1293 1172 1305 1546 1422 1303 1437
8 1420 1294 1166 1291 1547 1423 1293 1419
8 1294 1169 1297 1423 1421 1296 1425 1548
8 1423 1297 1168 1293 1549 1424 1295 1422
8 1301 1170 1298 1427 1422 1295 1424 1549
8 1432 1300 1428 1554 1301 1170 1298 1427
8 1431 1299 1428 1554 1560 1430 1300 1432
8 1563 1433 1300 1432 1435 1302 1170 1301
8 1546 1422 1303 1437 1434 1301 1435 1565
8 1303 1171 1304 1438 1435 1302 1436 1566
8 1305 1172 1306 1440 1437 1303 1438 1568
8 1306 1173 1307 1441 1438 1304 1439 1569
8 1308 1175 1309 1443 1440 1306 1441 1571
8 1309 1176 1310 1444 1441 1307 1442 1572
8 1311 1178 1312 1446 1443 1309 1444 1574
8 1179 1312 1444 1310 1313 1447 1575 1445
8 1314 1181 1315 1448 1446 1312 1447 1576
8 1350 1213 1349 1486 1451 1317 1449 1579
8 1451 1317 1450 1581 1319 1186 1318 1453
8 1454 1319 1214 1351 1582 1451 1350 1487
8 1453 1318 1452 1584 1321 1187 1320 1456
8 1454 1319 1453 1585 1344 1208 1321 1457
8 1456 1320 1455 1586 1323 1189 1324 1459
8 1457 1321 1456 1587 1322 1188 1323 1458
8 1458 1323 1459 1588 1325 1191 1326 1460
8 1205 1336 1464 1329 1328 1462 1590 1461
8 1507 1373 1461 1590 1374 1242 1328 1462
8 1508 1374 1462 1591 1375 1243 1335 1467
8 1337 1206 1329 1464 1473 1341 1463 1594
8 1375 1243 1335 1467 1465 1333 1470 1596
8 1465 1333 1470 1596 1331 1200 1334 1466
8 1352 1227 1334 1466 1488 1360 1470 1596
8 1591 1462 1336 1468 1467 1335 1471 1597
8 1469 1337 1472 1598 1595 1464 1336 1468
8 1471 1339 1474 1600 1335 1204 1338 1470
8 1600 1474 1367 1496 1470 1338 1235 1360
8 1336 1205 1340 1472 1471 1339 1475 1601
8 1337 1206 1341 1473 1472 1340 1476 1602
8 1495 1370 1478 1609 1361 1239 1342 1479
8 1348 1212 1342 1479 1483 1347 1478 1609
8 1481 1346 1479 1610 1345 1210 1343 1480
8 1481 1346 1228 1359 1610 1479 1361 1494
8 1484 1348 1214 1351 1610 1479 1343 1480
8 1483 1347 1482 1612 1350 1213 1349 1486
8 1484 1348 1483 1613 1351 1214 1350 1487
8 1353 1230 1360 1488 1489 1363 1496 1616
8 1490 1364 1231 1354 1617 1499 1363 1489
8 1490 1364 1499 1617 1355 1232 1365 1491
8 1356 1234 1365 1491 1492 1366 1500 1619
8 1492 1366 1498 1620 1357 1233 1362 1493
8 1494 1361 1228 1359 1621 1497 1362 1493
8 1495 1370 1239 1361 1622 1504 1371 1497
8 1363 1236 1367 1496 1499 1368 1501 1623
8 1497 1371 1240 1362 1624 1505 1372 1498
8 1625 1503 1372 1498 1500 1369 1241 1366
8 1365 1238 1368 1499 1500 1369 1502 1626
8 1520 1398 1506 1633 1388 1266 1373 1507
8 1634 1507 1374 1508 1512 1388 1255 1380
8 1509 1387 1519 1635 1377 1258 1391 1510
8 1405 1276 1406 1534 1509 1387 1519 1635
8 1515 1392 1260 1383 1636 1522 1390 1511
8 1511 1390 1259 1379 1636 1522 1391 1510
8 1385 1256 1389 1517 1512 1388 1520 1637
8 1513 1394 1262 1382 1638 1524 1393 1514
8 1395 1516 1638 1524 1263 1384 1513 1394
8 1515 1392 1523 1639 1383 1260 1393 1514
8 1516 1395 1526 1640 1386 1264 1396 1518
8 1386 1264 1396 1518 1517 1389 1521 1641
8 1519 1397 1527 1643 1391 1269 1400 1522
8 1535 1407 1527 1643 1406 1277 1397 1519
8 1389 1267 1399 1521 1520 1398 1528 1644
8 1645 1529 1399 1521 1525 1404 1274 1396
8 1392 1270 1400 1522 1523 1401 1531 1646
8 1524 1402 1271 1393 1648 1532 1401 1523
8 1403 1526 1648 1532 1273 1395 1524 1402
8 1525 1404 1274 1396 1649 1533 1403 1526
8 1539 1414 1535 1657 1411 1286 1406 1534
8 1542 1415 1536 1658 1414 1287 1407 1535
8 1409 1285 1412 1537 1538 1413 1540 1660
8 1545 1421 1540 1660 1418 1292 1412 1537
8 1539 1414 1286 1411 1661 1541 1413 1538
8 1540 1417 1544 1663 1413 1288 1416 1541
8 1421 1296 1425 1548 1540 1417 1544 1663
8 1542 1415 1287 1414 1664 1543 1416 1541
8 1420 1294 1423 1547 1545 1421 1548 1666
8 1547 1423 1293 1419 1667 1549 1422 1546
8 1434 1301 1427 1553 1546 1422 1549 1667
8 1423 1297 1424 1549 1548 1425 1550 1668
8 1551 1426 1550 1668 1427 1298 1424 1549
8 1551 1426 1298 1427 1671 1552 1428 1554
8 1562 1432 1554 1674 1434 1301 1427 1553
8 1431 1299 1429 1558 1554 1428 1555 1675
8 1431 1299 1430 1560 1558 1429 1557 1680
8 1560 1430 1300 1432 1683 1559 1433 1563
8 1561 1431 1554 1674 1684 1560 1432 1562
8 1685 1563 1432 1562 1565 1435 1301 1434
8 1435 1302 1436 1566 1563 1433 1564 1686
8 1437 1303 1438 1568 1565 1435 1566 1688
8 1438 1304 1439 1569 1566 1436 1567 1689
8 1440 1306 1441 1571 1568 1438 1569 1691
8 1441 1307 1442 1572 1569 1439 1570 1692
8 1443 1309 1444 1574 1571 1441 1572 1694
8 1310 1444 1572 1442 1445 1575 1695 1573
8 1446 1312 1447 1576 1574 1444 1575 1696
8 1486 1349 1485 1614 1579 1449 1577 1699
8 1451 1317 1449 1579 1581 1450 1578 1701
8 1487 1350 1486 1615 1582 1451 1579 1702
8 1581 1450 1580 1704 1453 1318 1452 1584
8 1582 1451 1581 1705 1454 1319 1453 1585
8 1584 1452 1583 1706 1456 1320 1455 1586
8 1585 1453 1584 1707 1457 1321 1456 1587
8 1587 1456 1586 1708 1458 1323 1459 1588
8 1633 1506 1589 1710 1507 1373 1461 1590
8 1464 1329 1461 1590 1594 1463 1589 1710
8 1468 1336 1462 1591 1595 1464 1590 1711
8 1634 1507 1590 1711 1508 1374 1462 1591
8 1473 1341 1463 1594 1603 1477 1593 1716
8 1469 1337 1464 1595 1599 1473 1594 1717
8 1471 1597 1467 1335 1600 1718 1596 1470
8 1718 1600 1496 1616 1596 1470 1360 1488
8 1336 1468 1597 1471 1472 1598 1719 1601
8 1469 1337 1473 1599 1598 1472 1602 1720
8 1722 1604 1501 1623 1600 1474 1367 1496
8 1475 1601 1471 1339 1604 1722 1600 1474
8 1602 1476 1605 1723 1472 1340 1475 1601
8 1476 1602 1724 1606 1341 1473 1603 1477
8 1483 1347 1478 1609 1612 1482 1608 1731
8 1495 1370 1504 1622 1609 1478 1608 1731
8 1618 1495 1609 1732 1494 1361 1479 1610
8 1484 1348 1479 1610 1613 1483 1609 1732
8 1486 1349 1482 1612 1614 1485 1611 1733
8 1613 1483 1612 1734 1487 1350 1486 1615
8 1489 1363 1496 1616 1617 1499 1623 1736
8 1491 1365 1499 1617 1619 1500 1626 1737
8 1618 1495 1361 1494 1738 1622 1497 1621
8 1739 1625 1498 1620 1619 1500 1366 1492
8 1621 1497 1362 1493 1740 1624 1498 1620
8 1742 1631 1504 1622 1624 1505 1371 1497
8 1743 1628 1502 1626 1623 1501 1368 1499
8 1744 1630 1505 1624 1625 1503 1372 1498
8 1745 1629 1503 1625 1626 1502 1369 1500
8 1520 1398 1528 1644 1633 1506 1632 1751
8 1637 1520 1633 1752 1512 1388 1507 1634
8 1635 1519 1643 1753 1510 1391 1522 1636
8 1657 1535 1643 1753 1534 1406 1519 1635
8 1515 1392 1522 1636 1639 1523 1646 1754
8 1517 1389 1521 1641 1637 1520 1644 1755
8 1524 1638 1756 1648 1393 1514 1639 1523
8 1640 1526 1395 1516 1756 1648 1524 1638
8 1642 1525 1396 1518 1757 1649 1526 1640
8 1758 1645 1521 1641 1642 1525 1396 1518
8 1646 1531 1400 1522 1760 1650 1527 1643
8 1535 1407 1536 1658 1643 1527 1650 1760
8 1521 1399 1529 1645 1644 1528 1651 1761
8 1647 1530 1652 1762 1525 1404 1529 1645
8 1401 1523 1648 1532 1531 1646 1763 1655
8 1525 1404 1533 1649 1647 1530 1654 1765
8 1533 1649 1766 1656 1403 1526 1648 1532
8 1662 1542 1658 1774 1539 1414 1535 1657
8 1542 1415 1543 1664 1658 1536 1659 1775
8 1660 1540 1663 1777 1538 1413 1541 1661
8 1545 1421 1548 1666 1660 1540 1663 1777
8 1662 1542 1414 1539 1778 1664 1541 1661
8 1664 1543 1416 1541 1779 1665 1544 1663
8 1548 1425 1550 1668 1663 1544 1665 1779
8 1547 1423 1549 1667 1666 1548 1668 1781
8 1670 1551 1668 1781 1553 1427 1549 1667
8 1551 1426 1552 1671 1668 1550 1669 1782
8 1670 1551 1427 1553 1784 1671 1554 1674
8 1675 1555 1672 1785 1554 1428 1552 1671
8 1678 1556 1673 1789 1558 1429 1555 1675
8 1561 1431 1558 1681 1674 1554 1675 1790
8 1794 1677 1556 1678 1680 1557 1429 1558
8 1560 1430 1559 1683 1680 1557 1679 1797
8 1561 1431 1560 1684 1681 1558 1680 1798
8 1563 1433 1564 1686 1683 1559 1682 1800
8 1684 1560 1432 1562 1801 1683 1563 1685
8 1565 1435 1566 1688 1685 1563 1686 1802
8 1566 1436 1567 1689 1686 1564 1687 1803
8 1568 1438 1569 1691 1688 1566 1689 1805
8 1569 1439 1570 1692 1689 1567 1690 1806
8 1571 1441 1572 1694 1691 1569 1692 1808
8 1442 1572 1692 1570 1573 1695 1809 1693
8 1574 1444 1575 1696 1694 1572 1695 1810
8 1614 1485 1592 1712 1699 1577 1697 1813
8 1579 1449 1577 1699 1701 1578 1698 1815
8 1615 1486 1614 1735 1702 1579 1699 1816
8 1701 1578 1700 1818 1581 1450 1580 1704
8 1582 1451 1579 1702 1705 1581 1701 1819
8 1704 1580 1703 1820 1584 1452 1583 1706
8 1705 1581 1704 1821 1585 1453 1584 1707
8 1707 1584 1706 1822 1587 1456 1586 1708
8 1710 1589 1506 1633 1824 1709 1632 1751
8 1594 1463 1589 1710 1716 1593 1709 1824
8 1752 1633 1710 1825 1634 1507 1590 1711
8 1595 1464 1590 1711 1717 1594 1710 1825
8 1830 1714 1592 1712 1733 1611 1485 1614
8 1603 1477 1593 1716 1725 1607 1715 1834
8 1599 1473 1594 1717 1721 1603 1716 1835
8 1837 1722 1623 1736 1718 1600 1496 1616
8 1719 1601 1722 1837 1597 1471 1600 1718
8 1602 1720 1598 1472 1723 1838 1719 1601
8 1720 1602 1473 1599 1839 1724 1603 1721
8 1723 1605 1726 1840 1601 1475 1604 1722
8 1840 1726 1628 1743 1722 1604 1501 1623
8 1724 1606 1727 1841 1602 1476 1605 1723
8 1725 1607 1728 1842 1603 1477 1606 1724
8 1612 1482 1608 1731 1733 1611 1730 1849
8 1741 1627 1730 1849 1622 1504 1608 1731
8 1613 1483 1609 1732 1734 1612 1731 1850
8 1618 1495 1622 1738 1732 1609 1731 1850
8 1615 1486 1612 1734 1735 1614 1733 1851
8 1852 1743 1626 1737 1736 1623 1499 1617
8 1853 1745 1625 1739 1737 1626 1500 1619
8 1855 1742 1622 1738 1740 1624 1497 1621
8 1856 1744 1624 1740 1739 1625 1498 1620
8 1741 1627 1504 1622 1857 1746 1631 1742
8 1742 1631 1505 1624 1858 1749 1630 1744
8 1859 1747 1629 1745 1743 1628 1502 1626
8 1860 1748 1630 1744 1745 1629 1503 1625
8 1644 1528 1651 1761 1751 1632 1750 1865
8 1637 1520 1644 1755 1752 1633 1751 1866
8 1754 1646 1522 1636 1867 1760 1643 1753
8 1657 1535 1658 1774 1753 1643 1760 1867
8 1639 1523 1646 1754 1756 1648 1763 1868
8 1641 1521 1645 1758 1755 1644 1761 1869
8 1757 1649 1526 1640 1870 1766 1648 1756
8 1642 1525 1649 1757 1759 1647 1765 1871
8 1759 1647 1762 1872 1642 1525 1645 1758
8 1760 1650 1767 1874 1646 1531 1655 1763
8 1658 1536 1659 1775 1760 1650 1767 1874
8 1762 1652 1768 1875 1645 1529 1651 1761
8 1764 1653 1769 1876 1647 1530 1652 1762
8 1656 1766 1877 1773 1532 1648 1763 1655
8 1771 1879 1765 1654 1653 1764 1647 1530
8 1533 1649 1765 1654 1656 1766 1880 1772
8 1662 1542 1664 1778 1774 1658 1775 1887
8 1664 1543 1665 1779 1775 1659 1776 1888
8 1778 1664 1541 1661 1890 1779 1663 1777
8 1666 1548 1668 1781 1777 1663 1779 1890
8 1782 1669 1780 1891 1668 1550 1665 1779
8 1670 1551 1671 1784 1781 1668 1782 1893
8 1671 1552 1672 1785 1782 1669 1783 1894
8 1790 1675 1785 1896 1674 1554 1671 1784
8 1675 1555 1673 1789 1785 1672 1786 1897
8 1792 1676 1788 1903 1678 1556 1673 1789
8 1795 1678 1789 1904 1681 1558 1675 1790
8 1792 1676 1556 1678 1906 1791 1677 1794
8 1680 1557 1679 1797 1794 1677 1793 1909
8 1910 1794 1678 1795 1798 1680 1558 1681
8 1683 1559 1682 1800 1797 1679 1796 1912
8 1684 1560 1683 1801 1798 1680 1797 1913
8 1686 1564 1687 1803 1800 1682 1799 1915
8 1685 1563 1686 1802 1801 1683 1800 1916
8 1688 1566 1689 1805 1802 1686 1803 1917
8 1689 1567 1690 1806 1803 1687 1804 1918
8 1691 1569 1692 1808 1805 1689 1806 1920
8 1692 1570 1693 1809 1806 1690 1807 1921
8 1694 1572 1695 1810 1808 1692 1809 1922
8 1829 1713 1811 1926 1712 1592 1697 1813
8 1813 1697 1812 1928 1699 1577 1698 1815
8 1735 1614 1712 1828 1816 1699 1813 1929
8 1815 1698 1814 1931 1701 1578 1700 1818
8 1702 1579 1699 1816 1819 1701 1815 1932
8 1818 1700 1817 1933 1704 1580 1703 1820
8 1819 1701 1818 1934 1705 1581 1704 1821
8 1821 1704 1820 1935 1707 1584 1706 1822
8 1824 1709 1632 1751 1937 1823 1750 1865
8 1716 1593 1709 1824 1834 1715 1823 1937
8 1825 1710 1633 1752 1938 1824 1751 1866
8 1717 1594 1710 1825 1835 1716 1824 1938
8 1945 1830 1712 1828 1851 1733 1614 1735
8 1830 1714 1831 1946 1712 1592 1713 1829
8 1947 1832 1714 1830 1849 1730 1611 1733
8 1843 1729 1607 1725 1950 1833 1715 1834
8 1721 1603 1716 1835 1836 1725 1834 1951
8 1836 1725 1842 1953 1721 1603 1724 1839
8 1723 1838 1719 1601 1840 1954 1837 1722
8 1954 1840 1743 1852 1837 1722 1623 1736
8 1724 1839 1720 1602 1841 1955 1838 1723
8 1841 1727 1844 1956 1723 1605 1726 1840
8 1956 1844 1747 1859 1840 1726 1628 1743
8 1728 1842 1724 1606 1845 1957 1841 1727
8 1725 1607 1729 1843 1842 1728 1846 1958
8 1741 1627 1746 1857 1849 1730 1848 1965
8 1734 1612 1731 1850 1851 1733 1849 1966
8 1854 1741 1849 1966 1738 1622 1731 1850
8 1967 1859 1745 1853 1852 1743 1626 1737
8 1968 1860 1744 1856 1853 1745 1625 1739
8 1854 1741 1622 1738 1969 1857 1742 1855
8 1855 1742 1624 1740 1970 1858 1744 1856
8 1857 1746 1631 1742 1971 1861 1749 1858
8 1858 1749 1630 1744 1972 1863 1748 1860
8 1859 1747 1862 1973 1745 1629 1748 1860
8 1875 1768 1864 1977 1761 1651 1750 1865
8 1755 1644 1761 1869 1866 1751 1865 1978
8 1867 1760 1874 1979 1754 1646 1763 1868
8 1774 1658 1775 1887 1867 1760 1874 1979
8 1870 1766 1648 1756 1980 1877 1763 1868
8 1872 1762 1875 1981 1758 1645 1761 1869
8 1757 1649 1766 1870 1871 1765 1880 1982
8 1983 1879 1764 1873 1871 1765 1647 1759
8 1873 1764 1876 1984 1759 1647 1762 1872
8 1877 1773 1655 1763 1986 1881 1767 1874
8 1775 1659 1776 1888 1874 1767 1881 1986
8 1876 1769 1882 1987 1762 1652 1768 1875
8 1878 1770 1883 1988 1764 1653 1769 1876
8 1880 1772 1656 1766 1989 1886 1773 1877
8 1878 1770 1653 1764 1990 1884 1771 1879
8 1765 1654 1772 1880 1879 1771 1885 1991
8 1778 1664 1779 1890 1887 1775 1888 1997
8 1998 1889 1776 1888 1891 1780 1665 1779
8 1893 1782 1891 2000 1781 1668 1779 1890
8 1894 1783 1892 2001 1782 1669 1780 1891
8 1784 1671 1785 1896 1893 1782 1894 2003
8 1897 1786 1895 2004 1785 1672 1783 1894
8 1790 1675 1789 1904 1896 1785 1897 2006
8 1901 1787 1898 2007 1789 1673 1786 1897
8 1903 1788 1900 2013 1789 1673 1787 1901
8 1792 1676 1791 1906 1903 1788 1902 2016
8 1907 1792 1903 2017 1795 1678 1789 1904
8 1906 1791 1677 1794 2019 1905 1793 1909
8 1907 1792 1678 1795 2020 1906 1794 1910
8 1797 1679 1796 1912 1909 1793 1908 2022
8 1798 1680 1797 1913 1910 1794 1909 2023
8 1800 1682 1799 1915 1912 1796 1911 2025
8 1801 1683 1800 1916 1913 1797 1912 2026
8 1803 1687 1804 1918 1915 1799 1914 2028
8 1802 1686 1803 1917 1916 1800 1915 2029
8 1805 1689 1806 1920 1917 1803 1918 2030
8 1806 1690 1807 1921 1918 1804 1919 2031
8 1808 1692 1809 1922 1920 1806 1921 2032
8 1939 1826 1924 2037 1829 1713 1811 1926
8 1926 1811 1925 2039 1813 1697 1812 1928
8 1944 1829 1926 2040 1828 1712 1813 1929
8 1928 1812 1927 2042 1815 1698 1814 1931
8 1929 1813 1928 2043 1816 1699 1815 1932
8 1931 1814 1930 2044 1818 1700 1817 1933
8 1932 1815 1931 2045 1819 1701 1818 1934
8 1934 1818 1933 2046 1821 1704 1820 1935
8 2048 1936 1823 1937 1977 1864 1750 1865
8 1950 1833 1715 1834 2048 1936 1823 1937
8 1938 1824 1751 1866 2049 1937 1865 1978
8 1835 1716 1824 1938 1951 1834 1937 2049
8 1939 1826 1713 1829 2053 1942 1831 1946
8 1940 1827 1923 2035 2053 1942 1826 1939
8 1945 1830 1946 2058 1828 1712 1829 1944
8 2059 1947 1830 1945 1966 1849 1733 1851
8 1947 1832 1730 1849 2060 1948 1848 1965
8 1947 1832 1948 2060 1830 1714 1831 1946
8 1959 1847 1729 1843 2063 1949 1833 1950
8 1952 1843 1725 1836 2064 1950 1834 1951
8 1836 1725 1843 1952 1953 1842 1958 2066
8 1953 1842 1957 2067 1839 1724 1841 1955
8 1841 1955 1838 1723 1956 2068 1954 1840
8 2068 1956 1859 1967 1954 1840 1743 1852
8 1956 1844 1960 2069 1859 1747 1862 1973
8 1845 1957 1841 1727 1960 2069 1956 1844
8 1728 1842 1957 1845 1846 1958 2071 1961
8 1962 2072 1959 1847 1846 1958 1843 1729
8 1971 1861 1964 2077 1857 1746 1848 1965
8 1854 1741 1857 1969 1966 1849 1965 2078
8 1967 1859 1973 2079 1853 1745 1860 1968
8 1970 1858 1744 1856 2080 1972 1860 1968
8 1969 1857 1742 1855 2081 1971 1858 1970
8 1971 1861 1749 1858 2082 1974 1863 1972
8 1973 1862 1975 2083 1860 1748 1863 1972
8 1987 1882 1976 2086 1875 1768 1864 1977
8 1981 1875 1977 2087 1869 1761 1865 1978
8 1980 1877 1763 1868 2088 1986 1874 1979
8 1887 1775 1888 1997 1979 1874 1986 2088
8 1880 1982 2089 1989 1766 1870 1980 1877
8 1984 1876 1987 2090 1872 1762 1875 1981
8 1765 1871 1983 1879 1880 1982 2091 1991
8 1985 1878 1764 1873 2092 1990 1879 1983
8 1985 1878 1988 2093 1873 1764 1876 1984
8 2094 1992 1881 1986 1998 1889 1776 1888
8 1986 1881 1992 2094 1877 1773 1886 1989
8 1988 1883 1993 2095 1876 1769 1882 1987
8 1878 1770 1884 1990 1988 1883 1994 2096
8 1991 1885 1772 1880 2097 1996 1886 1989
8 1879 1771 1885 1991 1990 1884 1995 2098
8 2103 1998 1888 1997 2000 1891 1779 1890
8 2104 1999 1889 1998 2001 1892 1780 1891
8 2003 1894 2001 2106 1893 1782 1891 2000
8 2004 1895 2002 2107 1894 1783 1892 2001
8 2006 1897 2004 2109 1896 1785 1894 2003
8 2007 1898 2005 2110 1897 1786 1895 2004
8 2014 1901 2007 2112 1904 1789 1897 2006
8 2011 1899 2008 2113 1901 1787 1898 2007
8 2119 2010 1899 2011 2013 1900 1787 1901
8 2016 1902 2012 2122 1903 1788 1900 2013
8 2017 1903 2013 2123 1904 1789 1901 2014
8 1906 1791 1905 2019 2016 1902 2015 2125
8 1907 1792 1906 2020 2017 1903 2016 2126
8 1909 1793 1908 2022 2019 1905 2018 2128
8 2020 1906 1794 1910 2129 2019 1909 2023
8 1912 1796 1911 2025 2022 1908 2021 2131
8 1913 1797 1912 2026 2023 1909 2022 2132
8 1915 1799 1914 2028 2025 1911 2024 2134
8 1916 1800 1915 2029 2026 1912 2025 2135
8 1918 1804 1919 2031 2028 1914 2027 2136
8 1917 1803 1918 2030 2029 1915 2028 2137
8 1920 1806 1921 2032 2030 1918 2031 2138
8 1940 1827 1941 2054 2035 1923 2033 2140
8 2035 1923 2034 2143 1939 1826 1924 2037
8 2037 1924 2036 2146 1926 1811 1925 2039
8 2051 1939 2037 2147 1944 1829 1926 2040
8 2039 1925 2038 2149 1928 1812 1927 2042
8 2040 1926 2039 2150 1929 1813 1928 2043
8 2042 1927 2041 2151 1931 1814 1930 2044
8 2043 1928 2042 2152 1932 1815 1931 2045
8 2045 1931 2044 2153 1934 1818 1933 2046
8 2155 2047 1936 2048 2086 1976 1864 1977
8 2063 1949 1833 1950 2155 2047 1936 2048
8 2156 2048 1937 2049 2087 1977 1865 1978
8 2064 1950 1834 1951 2156 2048 1937 2049
8 2051 1939 1829 1944 2160 2053 1946 2058
8 2052 1940 2035 2144 2160 2053 1939 2051
8 2053 1942 1831 1946 2163 2057 1948 2060
8 2055 1943 1827 1940 2163 2057 1942 2053
8 2055 1943 2056 2164 1940 1827 1941 2054
8 2059 1947 1849 1966 2167 2060 1965 2078
8 2059 1947 2060 2167 1945 1830 1946 2058
8 2077 1964 2061 2168 1965 1848 1948 2060
8 2070 1963 1847 1959 2170 2062 1949 2063
8 2065 1959 1843 1952 2171 2063 1950 2064
8 2173 2072 1958 2066 2065 1959 1843 1952
8 1953 1842 1958 2066 2067 1957 2071 2174
8 2068 1956 2069 2175 1967 1859 1973 2079
8 2067 1957 2069 2175 1955 1841 1956 2068
8 1845 1957 2069 1960 1961 2071 2176 2073
8 2069 1960 2073 2176 1973 1862 1975 2083
8 2070 1963 2075 2177 1959 1847 1962 2072
8 1846 1958 2071 1961 1962 2072 2178 2074
8 2077 1964 1861 1971 2182 2076 1974 2082
8 2081 1971 2077 2183 1969 1857 1965 2078
8 2079 1973 2083 2184 1968 1860 1972 2080
8 2081 1971 1858 1970 2185 2082 1972 2080
8 2083 1975 2084 2186 1972 1863 1974 2082
8 2086 1976 1882 1987 2189 2085 1993 2095
8 2090 1987 2086 2190 1981 1875 1977 2087
8 2191 2094 1986 2088 2103 1998 1888 1997
8 2088 1986 2094 2191 1980 1877 1989 2089
8 1991 2091 2192 2097 1880 1982 2089 1989
8 2093 1988 2095 2193 1984 1876 1987 2090
8 1879 1983 2092 1990 1991 2091 2194 2098
8 1985 1878 1990 2092 2093 1988 2096 2195
8 2097 1996 1886 1989 2196 2099 1992 2094
8 2196 2099 1992 2094 2104 1999 1889 1998
8 1994 2096 1988 1883 2100 2197 2095 1993
8 2096 1994 1884 1990 2198 2101 1995 2098
8 1995 2098 2199 2102 1885 1991 2097 1996
8 2203 2104 1998 2103 2106 2001 1891 2000
8 2107 2002 2105 2204 2001 1892 1999 2104
8 2109 2004 2107 2206 2003 1894 2001 2106
8 2110 2005 2108 2207 2004 1895 2002 2107
8 2112 2007 2110 2209 2006 1897 2004 2109
8 2113 2008 2111 2210 2007 1898 2005 2110
8 2120 2011 2113 2212 2014 1901 2007 2112
8 2117 2009 2114 2213 2011 1899 2008 2113
8 2219 2116 2009 2117 2119 2010 1899 2011
8 2222 2118 2010 2119 2122 2012 1900 2013
8 2223 2119 2011 2120 2123 2013 1901 2014
8 2016 1902 2015 2125 2122 2012 2121 2225
8 2126 2016 2122 2226 2017 1903 2013 2123
8 2019 1905 2018 2128 2125 2015 2124 2228
8 2020 1906 2019 2129 2126 2016 2125 2229
8 2022 1908 2021 2131 2128 2018 2127 2231
8 2023 1909 2022 2132 2129 2019 2128 2232
8 2025 1911 2024 2134 2131 2021 2130 2234
8 2026 1912 2025 2135 2132 2022 2131 2235
8 1914 2028 2134 2024 2027 2136 2236 2133
8 2029 1915 2028 2137 2135 2025 2134 2237
8 2030 1918 2031 2138 2137 2028 2136 2238
8 2157 2050 2139 2240 2054 1941 2033 2140
8 2052 1940 2054 2161 2144 2035 2140 2242
8 2140 2033 2141 2243 2035 1923 2034 2143
8 2143 2034 2142 2246 2037 1924 2036 2146
8 2144 2035 2143 2247 2051 1939 2037 2147
8 2146 2036 2145 2249 2039 1925 2038 2149
8 2147 2037 2146 2250 2040 1926 2039 2150
8 2149 2038 2148 2251 2042 1927 2041 2151
8 2150 2039 2149 2252 2043 1928 2042 2152
8 2152 2042 2151 2253 2045 1931 2044 2153
8 2255 2154 2047 2155 2189 2085 1976 2086
8 2170 2062 1949 2063 2255 2154 2047 2155
8 2256 2155 2048 2156 2190 2086 1977 2087
8 2171 2063 1950 2064 2256 2155 2048 2156
8 2258 2159 2050 2157 2164 2056 1941 2054
8 2160 2053 1946 2058 2262 2163 2060 2167
8 2162 2055 1940 2052 2262 2163 2053 2160
8 2162 2055 2164 2263 2052 1940 2054 2161
8 2163 2057 1948 2060 2264 2165 2061 2168
8 2055 1943 2057 2163 2164 2056 2165 2264
8 2182 2076 2166 2268 2077 1964 2061 2168
8 2183 2077 2168 2269 2078 1965 2060 2167
8 2070 1963 2062 2170 2177 2075 2169 2271
8 2172 2070 1959 2065 2272 2170 2063 2171
8 2172 2070 2177 2273 2065 1959 2072 2173
8 2066 1958 2072 2173 2174 2071 2178 2274
8 2067 1957 2071 2174 2175 2069 2176 2275
8 2175 2069 2176 2275 2079 1973 2083 2184
8 2071 1961 2074 2178 2176 2073 2179 2276
8 2176 2073 2179 2276 2083 1975 2084 2186
8 2072 1962 2075 2177 2178 2074 2180 2277
8 2182 2076 1974 2082 2280 2181 2084 2186
8 2183 2077 1971 2081 2281 2182 2082 2185
8 2184 2083 2186 2282 2080 1972 2082 2185
8 2189 2085 1993 2095 2285 2188 2100 2197
8 2190 2086 1987 2090 2286 2189 2095 2193
8 2192 2097 1989 2089 2287 2196 2094 2191
8 2287 2196 2094 2191 2203 2104 1998 2103
8 2194 2098 1991 2091 2288 2199 2097 2192
8 2195 2096 2197 2289 2093 1988 2095 2193
8 2096 2195 2290 2198 1990 2092 2194 2098
8 2097 1996 2099 2196 2199 2102 2200 2291
8 2196 2099 1999 2104 2291 2200 2105 2204
8 2100 2197 2292 2201 1994 2096 2198 2101
8 1995 2098 2198 2101 2102 2199 2293 2202
8 2206 2107 2204 2296 2106 2001 2104 2203
8 2207 2108 2205 2297 2107 2002 2105 2204
8 2209 2110 2207 2299 2109 2004 2107 2206
8 2210 2111 2208 2300 2110 2005 2108 2207
8 2212 2113 2210 2302 2112 2007 2110 2209
8 2213 2114 2211 2303 2113 2008 2111 2210
8 2220 2117 2213 2305 2120 2011 2113 2212
8 2216 2115 2214 2306 2117 2009 2114 2213
8 2216 2115 2009 2117 2311 2217 2116 2219
8 2219 2116 2010 2119 2314 2218 2118 2222
8 2315 2219 2117 2220 2223 2119 2011 2120
8 2122 2012 2121 2225 2222 2118 2221 2317
8 2318 2222 2119 2223 2226 2122 2013 2123
8 2125 2015 2124 2228 2225 2121 2224 2320
8 2126 2016 2125 2229 2226 2122 2225 2321
8 2128 2018 2127 2231 2228 2124 2227 2323
8 2129 2019 2128 2232 2229 2125 2228 2324
8 2131 2021 2130 2234 2231 2127 2230 2326
8 2132 2022 2131 2235 2232 2128 2231 2327
8 2134 2024 2133 2236 2234 2130 2233 2328
8 2135 2025 2134 2237 2235 2131 2234 2329
8 2137 2028 2136 2238 2237 2134 2236 2330
8 2157 2050 2158 2259 2240 2139 2239 2332
8 2257 2157 2240 2334 2161 2054 2140 2242
8 2240 2139 2241 2335 2140 2033 2141 2243
8 2242 2140 2243 2337 2144 2035 2143 2247
8 2243 2141 2244 2338 2143 2034 2142 2246
8 2246 2142 2245 2341 2146 2036 2145 2249
8 2247 2143 2246 2342 2147 2037 2146 2250
8 2249 2145 2248 2343 2149 2038 2148 2251
8 2250 2146 2249 2344 2150 2039 2149 2252
8 2252 2149 2251 2345 2152 2042 2151 2253
8 2169 2271 2347 2254 2062 2170 2255 2154
8 2189 2085 2188 2285 2255 2154 2254 2347
8 2348 2255 2155 2256 2286 2189 2086 2190
8 2272 2170 2063 2171 2348 2255 2155 2256
8 2349 2258 2157 2257 2263 2164 2054 2161
8 2258 2159 2261 2351 2157 2050 2158 2259
8 2258 2159 2056 2164 2351 2261 2165 2264
8 2262 2163 2060 2167 2355 2264 2168 2269
8 2162 2055 2163 2262 2263 2164 2264 2355
8 2357 2266 2165 2264 2268 2166 2061 2168
8 2268 2166 2076 2182 2361 2267 2181 2280
8 2281 2182 2268 2362 2183 2077 2168 2269
8 2271 2169 2270 2364 2177 2075 2180 2277
8 2172 2070 2170 2272 2273 2177 2271 2365
8 2072 2173 2274 2178 2177 2273 2366 2277
8 2071 2174 2275 2176 2178 2274 2367 2276
8 2275 2176 2276 2367 2184 2083 2186 2282
8 2283 2187 2084 2186 2368 2278 2179 2276
8 2178 2074 2180 2277 2276 2179 2278 2368
8 2283 2187 2279 2370 2186 2084 2181 2280
8 2281 2182 2082 2185 2371 2280 2186 2282
8 2188 2285 2374 2284 2100 2197 2292 2201
8 2286 2189 2095 2193 2375 2285 2197 2289
8 2192 2097 2196 2287 2288 2199 2291 2376
8 2287 2196 2104 2203 2376 2291 2204 2296
8 2194 2098 2199 2288 2290 2198 2293 2377
8 2289 2197 2096 2195 2378 2292 2198 2290
8 2291 2200 2105 2204 2379 2294 2205 2297
8 2199 2102 2200 2291 2293 2202 2294 2379
8 2198 2101 2202 2293 2292 2201 2295 2380
8 2299 2207 2297 2383 2206 2107 2204 2296
8 2300 2208 2298 2384 2207 2108 2205 2297
8 2302 2210 2300 2386 2209 2110 2207 2299
8 2303 2211 2301 2387 2210 2111 2208 2300
8 2305 2213 2303 2389 2212 2113 2210 2302
8 2306 2214 2304 2390 2213 2114 2211 2303
8 2310 2216 2306 2392 2220 2117 2213 2305
8 2308 2215 2307 2393 2216 2115 2214 2306
8 2308 2215 2115 2216 2396 2309 2217 2311
8 2310 2216 2117 2220 2398 2311 2219 2315
8 2311 2217 2116 2219 2399 2312 2218 2314
8 2314 2218 2118 2222 2402 2313 2221 2317
8 2315 2219 2119 2223 2403 2314 2222 2318
8 2225 2121 2224 2320 2317 2221 2316 2405
8 2226 2122 2225 2321 2318 2222 2317 2406
8 2228 2124 2227 2323 2320 2224 2319 2408
8 2229 2125 2228 2324 2321 2225 2320 2409
8 2231 2127 2230 2326 2323 2227 2322 2411
8 2232 2128 2231 2327 2324 2228 2323 2412
8 2234 2130 2233 2328 2326 2230 2325 2413
8 2235 2131 2234 2329 2327 2231 2326 2414
8 2237 2134 2236 2330 2329 2234 2328 2415
8 2259 2158 2260 2352 2332 2239 2331 2417
8 2257 2157 2259 2350 2334 2240 2332 2419
8 2240 2139 2239 2332 2335 2241 2333 2420
8 2334 2240 2335 2422 2242 2140 2243 2337
8 2335 2241 2336 2423 2243 2141 2244 2338
8 2337 2243 2338 2425 2247 2143 2246 2342
8 2338 2244 2339 2426 2246 2142 2245 2341
8 2341 2245 2340 2428 2249 2145 2248 2343
8 2342 2246 2341 2429 2250 2146 2249 2344
8 2344 2249 2343 2430 2252 2149 2251 2345
8 2188 2285 2347 2254 2284 2374 2432 2346
8 2347 2254 2346 2432 2271 2169 2270 2364
8 2365 2271 2170 2272 2433 2347 2255 2348
8 2286 2189 2285 2375 2348 2255 2347 2433
8 2349 2258 2351 2435 2257 2157 2259 2350
8 2349 2258 2164 2263 2435 2351 2264 2355
8 2259 2158 2261 2351 2352 2260 2354 2437
8 2356 2265 2354 2437 2264 2165 2261 2351
8 2441 2357 2264 2355 2362 2268 2168 2269
8 2356 2265 2165 2264 2442 2358 2266 2357
8 2443 2359 2266 2357 2361 2267 2166 2268
8 2370 2279 2360 2446 2280 2181 2267 2361
8 2362 2268 2182 2281 2447 2361 2280 2371
8 2180 2277 2368 2278 2270 2364 2449 2363
8 2271 2365 2273 2177 2364 2450 2366 2277
8 2372 2283 2186 2282 2451 2368 2276 2367
8 2178 2274 2367 2276 2277 2366 2451 2368
8 2283 2187 2278 2368 2370 2279 2369 2452
8 2372 2283 2370 2453 2282 2186 2280 2371
8 2284 2374 2455 2373 2201 2292 2380 2295
8 2375 2285 2197 2289 2456 2374 2292 2378
8 2376 2291 2204 2296 2457 2379 2297 2383
8 2288 2199 2291 2376 2377 2293 2379 2457
8 2198 2290 2378 2292 2293 2377 2458 2380
8 2293 2202 2294 2379 2380 2295 2381 2459
8 2384 2298 2381 2459 2297 2205 2294 2379
8 2386 2300 2384 2463 2299 2207 2297 2383
8 2387 2301 2385 2464 2300 2208 2298 2384
8 2389 2303 2387 2466 2302 2210 2300 2386
8 2390 2304 2388 2467 2303 2211 2301 2387
8 2392 2306 2390 2469 2305 2213 2303 2389
8 2393 2307 2391 2470 2306 2214 2304 2390
8 2395 2308 2393 2472 2310 2216 2306 2392
8 2308 2215 2309 2396 2393 2307 2394 2473
8 2395 2308 2216 2310 2475 2396 2311 2398
8 2396 2309 2217 2311 2476 2397 2312 2399
8 2398 2311 2219 2315 2478 2399 2314 2403
8 2399 2312 2218 2314 2479 2400 2313 2402
8 2317 2221 2316 2405 2402 2313 2401 2482
8 2403 2314 2222 2318 2483 2402 2317 2406
8 2320 2224 2319 2408 2405 2316 2404 2485
8 2321 2225 2320 2409 2406 2317 2405 2486
8 2323 2227 2322 2411 2408 2319 2407 2488
8 2324 2228 2323 2412 2409 2320 2408 2489
8 2326 2230 2325 2413 2411 2322 2410 2490
8 2327 2231 2326 2414 2412 2323 2411 2491
8 2329 2234 2328 2415 2414 2326 2413 2492
8 2417 2331 2260 2352 2494 2416 2353 2438
8 2350 2259 2352 2436 2419 2332 2417 2496
8 2332 2239 2331 2417 2420 2333 2418 2497
8 2334 2240 2332 2419 2422 2335 2420 2499
8 2420 2333 2421 2500 2335 2241 2336 2423
8 2422 2335 2423 2502 2337 2243 2338 2425
8 2423 2336 2424 2503 2338 2244 2339 2426
8 2425 2338 2426 2505 2342 2246 2341 2429
8 2426 2339 2427 2506 2341 2245 2340 2428
8 2429 2341 2428 2507 2344 2249 2343 2430
8 2432 2346 2284 2374 2509 2431 2373 2455
8 2432 2346 2431 2509 2364 2270 2363 2449
8 2375 2285 2374 2456 2433 2347 2432 2510
8 2347 2433 2365 2271 2432 2510 2450 2364
8 2350 2259 2351 2435 2436 2352 2437 2514
8 2440 2356 2437 2514 2355 2264 2351 2435
8 2352 2260 2354 2437 2438 2353 2439 2516
8 2356 2265 2358 2442 2437 2354 2439 2516
8 2440 2356 2264 2355 2518 2442 2357 2441
8 2519 2443 2357 2441 2447 2361 2268 2362
8 2443 2359 2444 2520 2357 2266 2358 2442
8 2443 2359 2267 2361 2520 2444 2360 2446
8 2446 2360 2279 2370 2523 2445 2369 2452
8 2453 2370 2446 2524 2371 2280 2361 2447
8 2449 2363 2448 2525 2368 2278 2369 2452
8 2366 2277 2364 2450 2451 2368 2449 2526
8 2372 2283 2368 2451 2453 2370 2452 2527
8 2455 2373 2295 2380 2529 2454 2382 2460
8 2456 2374 2292 2378 2530 2455 2380 2458
8 2377 2293 2379 2457 2458 2380 2459 2531
8 2463 2384 2459 2531 2383 2297 2379 2457
8 2533 2461 2382 2460 2459 2381 2295 2380
8 2464 2385 2461 2533 2384 2298 2381 2459
8 2466 2387 2464 2537 2386 2300 2384 2463
8 2467 2388 2465 2538 2387 2301 2385 2464
8 2469 2390 2467 2540 2389 2303 2387 2466
8 2470 2391 2468 2541 2390 2304 2388 2467
8 2472 2393 2470 2543 2392 2306 2390 2469
8 2393 2307 2394 2473 2470 2391 2471 2544
8 2395 2308 2396 2475 2472 2393 2473 2546
8 2396 2309 2397 2476 2473 2394 2474 2547
8 2475 2396 2311 2398 2549 2476 2399 2478
8 2476 2397 2312 2399 2550 2477 2400 2479
8 2478 2399 2314 2403 2552 2479 2402 2483
8 2479 2400 2313 2402 2553 2480 2401 2482
8 2405 2316 2404 2485 2482 2401 2481 2556
8 2406 2317 2405 2486 2483 2402 2482 2557
8 2408 2319 2407 2488 2485 2404 2484 2559
8 2409 2320 2408 2489 2486 2405 2485 2560
8 2411 2322 2410 2490 2488 2407 2487 2561
8 2412 2323 2411 2491 2489 2408 2488 2562
8 2414 2326 2413 2492 2491 2411 2490 2563
8 2513 2434 2493 2565 2438 2353 2416 2494
8 2496 2417 2352 2436 2567 2494 2438 2515
8 2494 2416 2495 2568 2417 2331 2418 2497
8 2419 2332 2417 2496 2499 2420 2497 2570
8 2497 2418 2498 2571 2420 2333 2421 2500
8 2499 2420 2500 2573 2422 2335 2423 2502
8 2500 2421 2501 2574 2423 2336 2424 2503
8 2502 2423 2503 2576 2425 2338 2426 2505
8 2503 2424 2504 2577 2426 2339 2427 2506
8 2505 2426 2506 2578 2429 2341 2428 2507
8 2509 2431 2373 2455 2580 2508 2454 2529
8 2509 2431 2508 2580 2449 2363 2448 2525
8 2432 2510 2581 2509 2374 2456 2530 2455
8 2432 2510 2450 2364 2509 2581 2526 2449
8 2583 2511 2434 2513 2516 2439 2353 2438
8 2436 2352 2437 2514 2515 2438 2516 2588
8 2440 2356 2442 2518 2514 2437 2516 2588
8 2442 2358 2444 2520 2516 2439 2517 2589
8 2519 2443 2520 2591 2441 2357 2442 2518
8 2519 2443 2361 2447 2591 2520 2446 2524
8 2446 2360 2445 2523 2520 2444 2521 2592
8 2525 2448 2522 2593 2452 2369 2445 2523
8 2524 2446 2370 2453 2594 2523 2452 2527
8 2526 2449 2525 2595 2451 2368 2452 2527
8 2534 2462 2528 2597 2460 2382 2454 2529
8 2530 2455 2380 2458 2598 2529 2460 2532
8 2599 2533 2460 2532 2531 2459 2380 2458
8 2537 2464 2533 2599 2463 2384 2459 2531
8 2534 2462 2382 2460 2601 2535 2461 2533
8 2538 2465 2535 2601 2464 2385 2461 2533
8 2540 2467 2538 2604 2466 2387 2464 2537
8 2541 2468 2539 2605 2467 2388 2465 2538
8 2543 2470 2541 2607 2469 2390 2467 2540
8 2470 2391 2471 2544 2541 2468 2542 2608
8 2472 2393 2473 2546 2543 2470 2544 2610
8 2473 2394 2474 2547 2544 2471 2545 2611
8 2475 2396 2476 2549 2546 2473 2547 2613
8 2476 2397 2477 2550 2547 2474 2548 2614
8 2549 2476 2399 2478 2616 2550 2479 2552
8 2479 2400 2480 2553 2550 2477 2551 2617
8 2552 2479 2402 2483 2619 2553 2482 2557
8 2482 2401 2481 2556 2553 2480 2554 2620
8 2485 2404 2484 2559 2556 2481 2555 2623
8 2486 2405 2485 2560 2557 2482 2556 2624
8 2488 2407 2487 2561 2559 2484 2558 2625
8 2489 2408 2488 2562 2560 2485 2559 2626
8 2491 2411 2490 2563 2562 2488 2561 2627
8 2513 2434 2512 2585 2565 2493 2564 2630
8 2586 2513 2565 2632 2515 2438 2494 2567
8 2565 2493 2566 2633 2494 2416 2495 2568
8 2567 2494 2568 2635 2496 2417 2497 2570
8 2568 2495 2569 2636 2497 2418 2498 2571
8 2570 2497 2571 2638 2499 2420 2500 2573
8 2571 2498 2572 2639 2500 2421 2501 2574
8 2573 2500 2574 2641 2502 2423 2503 2576
8 2574 2501 2575 2642 2503 2424 2504 2577
8 2576 2503 2577 2643 2505 2426 2506 2578
8 2597 2528 2579 2645 2529 2454 2508 2580
8 2580 2508 2579 2645 2525 2448 2522 2593
8 2581 2509 2455 2530 2646 2580 2529 2598
8 2581 2509 2580 2646 2526 2449 2525 2595
8 2583 2511 2582 2648 2513 2434 2512 2585
8 2583 2511 2439 2516 2648 2582 2517 2589
8 2649 2583 2513 2586 2588 2516 2438 2515
8 2589 2517 2444 2520 2653 2587 2521 2592
8 2518 2442 2520 2591 2588 2516 2589 2654
8 2593 2522 2590 2655 2523 2445 2521 2592
8 2524 2446 2523 2594 2591 2520 2592 2656
8 2595 2525 2593 2657 2527 2452 2523 2594
8 2602 2536 2596 2659 2534 2462 2528 2597
8 2600 2534 2597 2660 2532 2460 2529 2598
8 2600 2534 2460 2532 2661 2601 2533 2599
8 2604 2538 2601 2661 2537 2464 2533 2599
8 2602 2536 2462 2534 2663 2603 2535 2601
8 2601 2535 2465 2538 2663 2603 2539 2605
8 2607 2541 2605 2665 2540 2467 2538 2604
8 2608 2542 2606 2666 2541 2468 2539 2605
8 2543 2470 2544 2610 2607 2541 2608 2668
8 2544 2471 2545 2611 2608 2542 2609 2669
8 2546 2473 2547 2613 2610 2544 2611 2671
8 2547 2474 2548 2614 2611 2545 2612 2672
8 2549 2476 2550 2616 2613 2547 2614 2674
8 2550 2477 2551 2617 2614 2548 2615 2675
8 2552 2479 2553 2619 2616 2550 2617 2677
8 2553 2480 2554 2620 2617 2551 2618 2678
8 2557 2482 2556 2624 2619 2553 2620 2680
8 2556 2481 2555 2623 2620 2554 2621 2681
8 2559 2484 2558 2625 2623 2555 2622 2683
8 2560 2485 2559 2626 2624 2556 2623 2684
8 2562 2488 2561 2627 2626 2559 2625 2685
8 2690 2629 2564 2630 2650 2584 2512 2585
8 2586 2513 2585 2651 2632 2565 2630 2691
8 2630 2564 2631 2692 2565 2493 2566 2633
8 2632 2565 2633 2694 2567 2494 2568 2635
8 2633 2566 2634 2695 2568 2495 2569 2636
8 2635 2568 2636 2697 2570 2497 2571 2638
8 2636 2569 2637 2698 2571 2498 2572 2639
8 2638 2571 2639 2700 2573 2500 2574 2641
8 2639 2572 2640 2701 2574 2501 2575 2642
8 2641 2574 2642 2702 2576 2503 2577 2643
8 2597 2528 2596 2659 2645 2579 2644 2704
8 2645 2579 2644 2704 2593 2522 2590 2655
8 2660 2597 2645 2705 2598 2529 2580 2646
8 2646 2580 2645 2705 2595 2525 2593 2657
8 2650 2584 2512 2585 2707 2647 2582 2648
8 2648 2582 2517 2589 2707 2647 2587 2653
8 2649 2583 2648 2708 2586 2513 2585 2651
8 2649 2583 2516 2588 2708 2648 2589 2654
8 2655 2590 2652 2710 2592 2521 2587 2653
8 2654 2589 2520 2591 2711 2653 2592 2656
8 2657 2593 2655 2712 2594 2523 2592 2656
8 2602 2536 2603 2663 2659 2596 2658 2714
8 2662 2602 2659 2715 2600 2534 2597 2660
8 2662 2602 2534 2600 2717 2663 2601 2661
8 2661 2601 2538 2604 2717 2663 2605 2665
8 2666 2606 2664 2718 2605 2539 2603 2663
8 2668 2608 2666 2720 2607 2541 2605 2665
8 2608 2542 2609 2669 2666 2606 2667 2721
8 2610 2544 2611 2671 2668 2608 2669 2723
8 2611 2545 2612 2672 2669 2609 2670 2724
8 2613 2547 2614 2674 2671 2611 2672 2726
8 2614 2548 2615 2675 2672 2612 2673 2727
8 2616 2550 2617 2677 2674 2614 2675 2729
8 2617 2551 2618 2678 2675 2615 2676 2730
8 2619 2553 2620 2680 2677 2617 2678 2732
8 2620 2554 2621 2681 2678 2618 2679 2733
8 2624 2556 2623 2684 2680 2620 2681 2735
8 2681 2621 2555 2623 2736 2682 2622 2683
8 2626 2559 2625 2685 2684 2623 2683 2737
8 2688 2628 2584 2650 2740 2686 2647 2707
8 2688 2628 2687 2742 2650 2584 2629 2690
8 2690 2629 2689 2745 2630 2564 2631 2692
8 2746 2690 2630 2691 2709 2650 2585 2651
8 2691 2630 2692 2747 2632 2565 2633 2694
8 2692 2631 2693 2748 2633 2566 2634 2695
8 2694 2633 2695 2750 2635 2568 2636 2697
8 2695 2634 2696 2751 2636 2569 2637 2698
8 2697 2636 2698 2753 2638 2571 2639 2700
8 2698 2637 2699 2754 2639 2572 2640 2701
8 2700 2639 2701 2755 2641 2574 2642 2702
8 2659 2596 2658 2714 2704 2644 2703 2757
8 2704 2644 2703 2757 2655 2590 2652 2710
8 2660 2597 2659 2715 2705 2645 2704 2758
8 2705 2645 2704 2758 2657 2593 2655 2712
8 2759 2706 2647 2707 2710 2652 2587 2653
8 2709 2650 2585 2651 2760 2707 2648 2708
8 2708 2648 2589 2654 2760 2707 2653 2711
8 2712 2655 2710 2761 2656 2592 2653 2711
8 2763 2713 2658 2714 2718 2664 2603 2663
8 2662 2602 2663 2717 2715 2659 2714 2764
8 2720 2666 2718 2767 2665 2605 2663 2717
8 2768 2719 2664 2718 2721 2667 2606 2666
8 2668 2608 2669 2723 2720 2666 2721 2770
8 2669 2609 2670 2724 2721 2667 2722 2771
8 2671 2611 2672 2726 2723 2669 2724 2773
8 2672 2612 2673 2727 2724 2670 2725 2774
8 2674 2614 2675 2729 2726 2672 2727 2776
8 2675 2615 2676 2730 2727 2673 2728 2777
8 2677 2617 2678 2732 2729 2675 2730 2779
8 2678 2618 2679 2733 2730 2676 2731 2780
8 2680 2620 2681 2735 2732 2678 2733 2782
8 2733 2679 2621 2681 2783 2734 2682 2736
8 2735 2681 2623 2684 2784 2736 2683 2737
8 2740 2686 2647 2707 2787 2738 2706 2759
8 2688 2628 2686 2740 2742 2687 2739 2789
8 2743 2688 2650 2709 2790 2740 2707 2760
8 2742 2687 2741 2792 2690 2629 2689 2745
8 2743 2688 2742 2793 2709 2650 2690 2746
8 2745 2689 2744 2795 2692 2631 2693 2748
8 2746 2690 2745 2796 2691 2630 2692 2747
8 2747 2692 2748 2797 2694 2633 2695 2750
8 2748 2693 2749 2798 2695 2634 2696 2751
8 2750 2695 2751 2800 2697 2636 2698 2753
8 2751 2696 2752 2801 2698 2637 2699 2754
8 2753 2698 2754 2802 2700 2639 2701 2755
8 2763 2713 2756 2804 2714 2658 2703 2757
8 2759 2706 2652 2710 2804 2756 2703 2757
8 2715 2659 2714 2764 2758 2704 2757 2805
8 2758 2704 2757 2805 2712 2655 2710 2761
8 2806 2759 2707 2760 2761 2710 2653 2711
8 2765 2716 2762 2808 2718 2664 2713 2763
8 2809 2763 2714 2764 2767 2718 2663 2717
8 2765 2716 2664 2718 2811 2766 2719 2768
8 2813 2768 2718 2767 2770 2721 2666 2720
8 2814 2769 2719 2768 2771 2722 2667 2721
8 2723 2669 2724 2773 2770 2721 2771 2816
8 2724 2670 2725 2774 2771 2722 2772 2817
8 2726 2672 2727 2776 2773 2724 2774 2819
8 2727 2673 2728 2777 2774 2725 2775 2820
8 2729 2675 2730 2779 2776 2727 2777 2822
8 2730 2676 2731 2780 2777 2728 2778 2823
8 2732 2678 2733 2782 2779 2730 2780 2825
8 2780 2731 2679 2733 2826 2781 2734 2783
8 2782 2733 2681 2735 2827 2783 2736 2784
8 2830 2785 2738 2787 2804 2756 2706 2759
8 2789 2739 2686 2740 2832 2786 2738 2787
8 2790 2740 2707 2760 2833 2787 2759 2806
8 2742 2687 2739 2789 2792 2741 2788 2835
8 2743 2688 2740 2790 2793 2742 2789 2836
8 2792 2741 2791 2838 2745 2689 2744 2795
8 2793 2742 2792 2839 2746 2690 2745 2796
8 2795 2744 2794 2841 2748 2693 2749 2798
8 2796 2745 2795 2842 2747 2692 2748 2797
8 2797 2748 2798 2843 2750 2695 2751 2800
8 2798 2749 2799 2844 2751 2696 2752 2801
8 2800 2751 2801 2845 2753 2698 2754 2802
8 2808 2762 2803 2847 2763 2713 2756 2804
8 2809 2763 2804 2848 2764 2714 2757 2805
8 2806 2759 2710 2761 2848 2804 2757 2805
8 2765 2716 2766 2811 2808 2762 2807 2850
8 2810 2765 2808 2851 2767 2718 2763 2809
8 2810 2765 2718 2767 2852 2811 2768 2813
8 2811 2766 2719 2768 2853 2812 2769 2814
8 2855 2814 2768 2813 2816 2771 2721 2770
8 2856 2815 2769 2814 2817 2772 2722 2771
8 2773 2724 2774 2819 2816 2771 2817 2858
8 2774 2725 2775 2820 2817 2772 2818 2859
8 2776 2727 2777 2822 2819 2774 2820 2861
8 2777 2728 2778 2823 2820 2775 2821 2862
8 2779 2730 2780 2825 2822 2777 2823 2864
8 2823 2778 2731 2780 2865 2824 2781 2826
8 2825 2780 2733 2782 2866 2826 2783 2827
8 2869 2828 2785 2830 2847 2803 2756 2804
8 2871 2829 2786 2832 2830 2785 2738 2787
8 2872 2830 2787 2833 2848 2804 2759 2806
8 2789 2739 2786 2832 2835 2788 2831 2874
8 2836 2789 2740 2790 2875 2832 2787 2833
8 2792 2741 2788 2835 2838 2791 2834 2877
8 2793 2742 2789 2836 2839 2792 2835 2878
8 2838 2791 2837 2880 2795 2744 2794 2841
8 2839 2792 2838 2881 2796 2745 2795 2842
8 2841 2794 2840 2882 2798 2749 2799 2844
8 2842 2795 2841 2883 2797 2748 2798 2843
8 2843 2798 2844 2884 2800 2751 2801 2845
8 2886 2846 2803 2847 2850 2807 2762 2808
8 2851 2808 2847 2887 2809 2763 2804 2848
8 2850 2807 2766 2811 2889 2849 2812 2853
8 2810 2765 2811 2852 2851 2808 2850 2890
8 2852 2811 2768 2813 2891 2853 2814 2855
8 2853 2812 2769 2814 2892 2854 2815 2856
8 2894 2856 2814 2855 2858 2817 2771 2816
8 2817 2772 2818 2859 2856 2815 2857 2895
8 2819 2774 2820 2861 2858 2817 2859 2897
8 2820 2775 2821 2862 2859 2818 2860 2898
8 2822 2777 2823 2864 2861 2820 2862 2900
8 2823 2778 2824 2865 2862 2821 2863 2901
8 2864 2823 2780 2825 2902 2865 2826 2866
8 2904 2867 2828 2869 2886 2846 2803 2847
8 2869 2828 2868 2906 2830 2785 2829 2871
8 2907 2869 2830 2872 2887 2847 2804 2848
8 2871 2829 2870 2909 2832 2786 2831 2874
8 2910 2871 2832 2875 2872 2830 2787 2833
8 2835 2788 2831 2874 2877 2834 2873 2912
8 2836 2789 2832 2875 2878 2835 2874 2913
8 2877 2834 2876 2915 2838 2791 2837 2880
8 2839 2792 2835 2878 2881 2838 2877 2916
8 2880 2837 2879 2917 2841 2794 2840 2882
8 2881 2838 2880 2918 2842 2795 2841 2883
8 2883 2841 2882 2919 2843 2798 2844 2884
8 2921 2885 2846 2886 2889 2849 2807 2850
8 2922 2886 2847 2887 2890 2850 2808 2851
8 2889 2849 2812 2853 2924 2888 2854 2892
8 2890 2850 2811 2852 2925 2889 2853 2891
8 2891 2853 2814 2855 2926 2892 2856 2894
8 2892 2854 2815 2856 2927 2893 2857 2895
8 2858 2817 2859 2897 2894 2856 2895 2929
8 2859 2818 2860 2898 2895 2857 2896 2930
8 2861 2820 2862 2900 2897 2859 2898 2932
8 2862 2821 2863 2901 2898 2860 2899 2933
8 2864 2823 2865 2902 2900 2862 2901 2934
8 2904 2867 2846 2886 2936 2903 2885 2921
8 2904 2867 2903 2936 2869 2828 2868 2906
8 2937 2904 2869 2907 2922 2886 2847 2887
8 2906 2868 2905 2939 2871 2829 2870 2909
8 2907 2869 2906 2940 2872 2830 2871 2910
8 2909 2870 2908 2942 2874 2831 2873 2912
8 2910 2871 2909 2943 2875 2832 2874 2913
8 2912 2873 2911 2945 2877 2834 2876 2915
8 2878 2835 2874 2913 2916 2877 2912 2946
8 2915 2876 2914 2947 2880 2837 2879 2917
8 2916 2877 2915 2948 2881 2838 2880 2918
8 2918 2880 2917 2949 2883 2841 2882 2919
8 2921 2885 2849 2889 2951 2920 2888 2924
8 2952 2921 2886 2922 2925 2889 2850 2890
8 2924 2888 2854 2892 2954 2923 2893 2927
8 2925 2889 2853 2891 2955 2924 2892 2926
8 2926 2892 2856 2894 2956 2927 2895 2929
8 2895 2857 2896 2930 2927 2893 2928 2957
8 2897 2859 2898 2932 2929 2895 2930 2959
8 2898 2860 2899 2933 2930 2896 2931 2960
8 2900 2862 2901 2934 2932 2898 2933 2961
8 2936 2903 2885 2921 2963 2935 2920 2951
8 2936 2903 2935 2963 2906 2868 2905 2939
8 2937 2904 2886 2922 2964 2936 2921 2952
8 2937 2904 2936 2964 2907 2869 2906 2940
8 2939 2905 2938 2966 2909 2870 2908 2942
8 2940 2906 2939 2967 2910 2871 2909 2943
8 2942 2908 2941 2969 2912 2873 2911 2945
8 2943 2909 2942 2970 2913 2874 2912 2946
8 2945 2911 2944 2971 2915 2876 2914 2947
8 2946 2912 2945 2972 2916 2877 2915 2948
8 2948 2915 2947 2973 2918 2880 2917 2949
8 2951 2920 2888 2924 2975 2950 2923 2954
8 2952 2921 2889 2925 2976 2951 2924 2955
8 2927 2893 2928 2957 2954 2923 2953 2978
8 2955 2924 2892 2926 2979 2954 2927 2956
8 2929 2895 2930 2959 2956 2927 2957 2980
8 2930 2896 2931 2960 2957 2928 2958 2981
8 2932 2898 2933 2961 2959 2930 2960 2982
8 2951 2920 2950 2975 2963 2935 2962 2984
8 2963 2935 2962 2984 2939 2905 2938 2966
8 2964 2936 2921 2952 2985 2963 2951 2976
8 2964 2936 2963 2985 2940 2906 2939 2967
8 2966 2938 2965 2987 2942 2908 2941 2969
8 2967 2939 2966 2988 2943 2909 2942 2970
8 2969 2941 2968 2989 2945 2911 2944 2971
8 2970 2942 2969 2990 2946 2912 2945 2972
8 2972 2945 2971 2991 2948 2915 2947 2973
8 2954 2923 2953 2978 2975 2950 2974 2993
8 2976 2951 2924 2955 2994 2975 2954 2979
8 2957 2928 2958 2981 2978 2953 2977 2995
8 2956 2927 2957 2980 2979 2954 2978 2996
8 2959 2930 2960 2982 2980 2957 2981 2997
8 2984 2962 2983 2999 2966 2938 2965 2987
8 2975 2950 2974 2993 2984 2962 2983 2999
8 2976 2951 2975 2994 2985 2963 2984 3000
8 2985 2963 2984 3000 2967 2939 2966 2988
8 2987 2965 2986 3001 2969 2941 2968 2989
8 2988 2966 2987 3002 2970 2942 2969 2990
8 2990 2969 2989 3003 2972 2945 2971 2991
8 2978 2953 2977 2995 2993 2974 2992 3004
8 2979 2954 2978 2996 2994 2975 2993 3005
8 2980 2957 2981 2997 2996 2978 2995 3006
8 2974 2993 2999 2983 2992 3004 3007 2998
8 2983 2999 2987 2965 2998 3007 3001 2986
8 3000 2984 2999 3008 2988 2966 2987 3002
8 2994 2975 2993 3005 3000 2984 2999 3008
8 3002 2987 3001 3009 2990 2969 2989 3003
8 2996 2978 2995 3006 3005 2993 3004 3010
8 3005 2993 3004 3010 3008 2999 3007 3011
8 3008 2999 3007 3011 3002 2987 3001 3009

CELL_TYPES 1910
12
12
12
12
12
12
12
12
12
12
12
12
12
12
12
12
12
12
12
12
12
12
12
12
12
12
12
12
12
12
12
12
12
12
12
12
12
12
12
12
12
12
12
12
12
12
12
12
12
12
12
12
12
12
12
12
12
12
12
12
12
12
12
12
12
12
12
12
12
12
12
12
12
12
12
12
12
12
12
12
12
12
12
12
12
12
12
12
12
12
12
12
12
12
12
12
12
12
12
12
12
12
12
12
12
12
12
12
12
12
12
12
12
12
12
12
12
12
12
12
12
12
12
12
12
12
12
12
12
12
12
12
12
12
12
12
12
12
12
12
12
12
12
12
12
12
12
12
12
12
12
12
12
12
12
12
12
12
12
12
12
12
12
12
12
12
12
12
12
12
12
12
12
12
12
12
12
12
12
12
12
12
12
12
12
12
12
12
12
12
12
12
12
12
12
12
12
12
12
12
12
12
12
12
12
12
12
12
12
12
12
12
12
12
12
12
12
12
12
12
12
12
12
12
12
12
12
12
12
12
12
12
12
12
12
12
12
12
12
12
12
12
12
12
12
12
12
12
12
12
12
12
12
12
12
12
12
12
12
12
12
12
12
12
12
12
12
12
12
12
12
12
12
12
12
12
12
12
12
12
12
12
12
12
12
12
12
12
12
12
12
12
12
12
12
12
12
12
12
12
12
12
12
12
12
12
12
12
12
12
12
12
12
12
12
12
12
12
12
12
12
12
12
12
12
12
12
12
12
12
12
12
12
12
12
12
12
12
12
12
12
12
12
12
12
12
12
12
12
12
12
12
12
12
12
12
12
12
12
12
12
12
12
12
12
12
12
12
12
12
12
12
12
12
12
12
12
12
12
12
12
12
12
12
12
12
12
12
12
12
12
12
12
12
12
12
12
12
12
12
12
12
12
12
12
12
12
12
12
12
12
12
12
12
12
12
12
12
12
12
12
12
12
12
12
12
12
12
12
12
12
12
12
12
12
12
12
12
12
12
12
12
12
12
12
12
12
12
12
12
12
12
12
12
12
12
12
12
12
12
12
12
12
12
12
12
12
12
12
12
12
12
12
12
12
12
12
12
12
12
12
12
12
12
12
12
12
12
12
12
12
12
12
12
12
12
12
12
12
12
12
12
12
12
12
12
12
12
12
12
12
12
12
12
12
12
12
12
12
12
12
12
12
12
12
12
12
12
12
12
12
12
12
12
12
12
12
12
12
12
12
12
12
12
12
12
12
12
12
12
12
12
12
12
12
12
12
12
12
12
12
12
12
12
12
12
12
12
12
12
12
12
12
12
12
12
12
12
12
12
12
12
12
12
12
12
12
12
12
12
12
12
12
12
12
12
12
12
12
12
12
12
12
12
12
12
12
12
12
12
12
12
12
12
12
12
12
12
12
12
12
12
12
12
12
12
12
12
12
12
12
12
12
12
12
12
12
12
12
12
12
12
12
12
12
12
12
12
12
12
12
12
12
12
12
12
12
12
12
12
12
12
12
12
12
12
12
12
12
12
12
12
12
12
12
12
12
12
12
12
12
12
12
12
12
12
12
12
12
12
12
12
12
12
12
12
12
12
12
12
12
12
12
12
12
12
12
12
12
12
12
12
12
12
12
12
12
12
12
12
12
12
12
12
12
12
12
12
12
12
12
12
12
12
12
12
12
12
12
12
12
12
12
12
12
12
12
12
12
12
12
12
12
12
12
12
12
12
12
12
12
12
12
12
12
12
12
12
12
12
12
12
12
12
12
12
12
12
12
12
12
12
12
12
12
12
12
12
12
12
12
12
12
12
12
12
12
12
12
12
12
12
12
12
12
12
12
12
12
12
12
12
12
12
12
12
12
12
12
12
12
12
12
12
12
12
12
12
12
12
12
12
12
12
12
12
12
12
12
12
12
12
12
12
12
12
12
12
12
12
12
12
12
12
12
12
12
12
12
12
12
12
12
12
12
12
12
12
12
12
12
12
12
12
12
12
12
12
12
12
12
12
12
12
12
12
12
12
12
12
12
12
12
12
12
12
12
12
12
12
12
12
12
12
12
12
12
12
12
12
12
12
12
12
12
12
12
12
12
12
12
12
12
12
12
12
12
12
12
12
12
12
12
12
12
12
12
12
12
12
12
12
12
12
12
12
12
12
12
12
12
12
12
12
12
12
12
12
12
12
12
12
12
12
12
12
12
12
12
12
12
12
12
12
12
12
12
12
12
12
12
12
12
12
12
12
12
12
12
12
12
12
12
12
12
12
12
12
12
12
12
12
12
12
12
12
12
12
12
12
12
12
12
12
12
12
12
12
12
12
12
12
12
12
12
12
12
12
12
12
12
12
12
12
12
12
12
12
12
12
12
12
12
12
12
12
12
12
12
12
12
12
12
12
12
12
12
12
12
12
12
12
12
12
12
12
12
12
12
12
12
12
12
12
12
12
12
12
12
12
12
12
12
12
12
12
12
12
12
12
12
12
12
12
12
12
12
12
12
12
12
12
12
12
12
12
12
12
12
12
12
12
12
12
12
12
12
12
12
12
12
12
12
12
12
12
12
12
12
12
12
12
12
12
12
12
12
12
12
12
12
12
12
12
12
12
12
12
12
12
12
12
12
12
12
12
12
12
12
12
12
12
12
12
12
12
12
12
12
12
12
12
12
12
12
12
12
12
12
12
12
12
12
12
12
12
12
12
12
12
12
12
12
12
12
12
12
12
12
12
12
12
12
12
12
12
12
12
12
12
12
12
12
12
12
12
12
12
12
12
12
12
12
12
12
12
12
12
12
12
12
12
12
12
12
12
12
12
12
12
12
12
12
12
12
12
12
12
12
12
12
12
12
12
12
12
12
12
12
12
12
12
12
12
12
12
12
12
12
12
12
12
12
12
12
12
12
12
12
12
12
12
12
12
12
12
12
12
12
12
12
12
12
12
12
12
12
12
12
12
12
12
12
12
12
12
12
12
12
12
12
12
12
12
12
12
12
12
12
12
12
12
12
12
12
12
12
12
12
12
12
12
12
12
12
12
12
12
12
12
12
12
12
12
12
12
12
12
12
12
12
12
12
12
12
12
12
12
12
12
12
12
12
12
12
12
12
12
12
12
12
12
12
12
12
12
12
12
12
12
12
12
12
12
12
12
12
12
12
12
12
12
12
12
12
12
12
12
12
12
12
12
12
12
12
12
12
12
12
12
12
12
12
12
12
12
12
12
12
12
12
12
12
12
12
12
12
12
12
12
12
12
12
12
12
12
12
12
12
12
12
12
12
12
12
12
12
12
12
12
12
12
12
12
12
12
12
12
12
12
12
12
12
12
12
12
12
12
12
12
12
12
12
12
12
12
12
12
12
12
12
12
12
12
12
12
12
12
12
12
12
12
12
12
12
12
12
12
12
12
12
12
12
12
12
12
12
12
12
12
12
12
12
12
12
12
12
12
12
12
12
12
12
12
12
12
12
12
12
12
12
12
12
12
12
12
12
12
12
12
12
12
12
12
12
12
12
12
12
12
12
12
12
12
12
12
12
12
12
12
12
12
12
12
12
12
12
12
12
12
12
12
12
12
12
12
12
12
12
12
12
12
12
12
12
12
12
12
12
12
12
12
12
12
12
12
12
12
12
12
12
12
12
12
12
12
12
12
12
12
12
12
12
12
12
12
12
12
12
12
12
12
12
12
12
12
12
12
12
12
12
12
12
12
12
12
12
12
12
12
12
12
12
12
12
12
12
12
12
12
12
12
12
12
12
12
12
12
12
12
12
12
12
12
12
12
12
12
12
12
12
12
12
12
12
12
12
12
12
12
12
12
12
12
12
12
12
12
12
12
12
12
12
12
12
12
12
12
12
12
12
12
12
12
12
12
12
12
12
12
12
12
12
12
12
12
12
12
12
12
12
12
12
12
12
12
12
12
12
12
12
12
12
12
12
12
12
12
12
12
12
12
12
12
12
12
12
12
12
12
12
12
12
12
12
12
12
12
12
12
12
12
12
12
12
12
12
12
12
12
12
12
12
12
12
12
12
12
12
12
12
12
12
12
12
12
12
12
12
12
12
12
12
12
12
12
12
12
12
12
12
12
12
12
12
12
12
12
12
12
12
12
12
12
12
12
12
12
12
12
12
12
12
12
12
12
12
12
12
12
12
12
12
12
12
12
12
12
12
12
12
12
12
12
12
12
12
12
12
12
12
12
12
12
12
12
12
12
12
12
12
12
12
12
12
12
12
12
12
12
12
12
12
12
12
12
12
12
12
12
12
12
12
12
12
12
12
12
12
12
12
12
12
12
12
12
12
12
12
12
12
12
12
12
12
12
12
12
12
12

POINT_DATA 3012
SCALARS Jp_lamdaP float 4
LOOKUP_TABLE default
1 1 1 1
1 1 1 1
1 1 1 1
1 1 1 1
1 1 1 1
1 1 1 1
0.999971 1 1 0.999971
1 1 1 1
1 1 1 1
1 1 1 1
1 1 1 1
0.999999 1 1 0.999999
1 1 1 1
1 1 1 1
1 1 1 1
1 1 1 1
1 1 1 1
1 1 1 1
0.999972 1 1 0.999972
1 1 1 1
1 1 1 1
1 1 1 1
0.999942 1 1 0.999942
0.999963 1 1 0.999963
1 1 1 1
0.999979 1 1 0.999979
0.999898 1 1 0.999898
1 1 1 1
1 1 1 1
1 1 1 1
1 1 1 1
0.999999 1 1 0.999999
1 1 1 1
1 1 1 1
0.999984 1 1 0.999984
1 1 1 1
0.999997 1 1 0.999997
1 1 1 1
0.999918 1 1 0.999918
1 1 1 1
1 1 1 1
1 1 1 1
1 1 1 1
1 1 1 1
0.999957 1 1 0.999957
1 1 1 1
0.999969 1 1 0.999969
1 1 1 1
1 1 1 1
1 1 1 1
0.999972 1 1 0.999972
1 1 1 1
1 1 1 1
1 1 1 1
1 1 1 1
0.999943 1 1 0.999943
0.99998 1 1 0.99998
0.999964 1 1 0.999964
0.999896 1 1 0.999896
1 1 1 1
1 1 1 1
0.99996 1 1 0.99996
0.999934 1 1 0.999934
0.999953 1 1 0.999953
0.999827 1 1 0.999827
0.999868 1 1 0.999868
1 1 1 1
0.999986 1 1 0.999986
0.999918 1 1 0.999918
0.999782 1 1 0.999782
1 1 1 1
1 1 1 1
1 1 1 1
1 1 1 1
1 1 1 1
1 1 1 1
0.999986 1 1 0.999986
1 1 1 1
0.999998 1 1 0.999998
1 1 1 1
0.999918 1 1 0.999918
1 1 1 1
1 1 1 1
0.999977 1 1 0.999977
0.999991 1 1 0.999991
0.999858 1 1 0.999858
1 1 1 1
0.999907 1 1 0.999907
0.99993 1 1 0.99993
0.999828 1 1 0.999828
1 1 1 1
1 1 1 1
1 1 1 1
1 1 1 1
1 1 1 1
1 1 1 1
0.999959 1 1 0.999959
1 1 1 1
0.99997 1 1 0.99997
1 1 1 1
0.999952 1 1 0.999952
0.999964 1 1 0.999964
0.99977 1 1 0.99977
0.999973 1 1 0.999973
0.999796 1 1 0.999796
1 1 1 1
1 1 1 1
1 1 1 1
1 1 1 1
0.999943 1 1 0.999943
0.999964 1 1 0.999964
0.999981 1 1 0.999981
0.999893 1 1 0.999893
1 1 1 1
1 1 1 1
0.999944 1 1 0.999944
0.999935 1 1 0.999935
1 1 1 1
0.999993 1 1 0.999993
0.999954 1 1 0.999954
0.99982 1 1 0.99982
0.999915 1 1 0.999915
0.999873 1 1 0.999873
0.999782 1 1 0.999782
0.999956 1 1 0.999956
0.999933 1 1 0.999933
0.999785 1 1 0.999785
0.999798 1 1 0.999798
0.999842 1 1 0.999842
0.999718 1 1 0.999718
1 1 1 1
0.999769 1 1 0.999769
1 1 1 1
0.999922 1 1 0.999922
0.999796 1 1 0.999796
0.999736 1 1 0.999736
1 1 1 1
0.999945 1 1 0.999945
1 1 1 1
1 1 1 1
0.999988 1 1 0.999988
1 1 1 1
1 1 1 1
0.999998 1 1 0.999998
0.999918 1 1 0.999918
1 1 1 1
1 1 1 1
0.999979 1 1 0.999979
0.999993 1 1 0.999993
0.999859 1 1 0.999859
1 1 1 1
0.999908 1 1 0.999908
0.99993 1 1 0.99993
0.999825 1 1 0.999825
1 1 1 1
1 1 1 1
0.999952 1 1 0.999952
0.999832 1 1 0.999832
0.999887 1 1 0.999887
0.999761 1 1 0.999761
0.999942 1 1 0.999942
0.999815 1 1 0.999815
0.999834 1 1 0.999834
0.999787 1 1 0.999787
1 1 1 1
1 1 1 1
1 1 1 1
1 1 1 1
1 1 1 1
1 1 1 1
1 1 1 1
0.999971 1 1 0.999971
0.999961 1 1 0.999961
1 1 1 1
1 1 1 1
0.999953 1 1 0.999953
0.999965 1 1 0.999965
0.99977 1 1 0.99977
0.999974 1 1 0.999974
0.999797 1 1 0.999797
0.999952 1 1 0.999952
0.999758 1 1 0.999758
0.999783 1 1 0.999783
0.999679 1 1 0.999679
0.999812 1 1 0.999812
0.999707 1 1 0.999707
1 1 1 1
1 1 1 1
0.999928 1 1 0.999928
0.999935 1 1 0.999935
1 1 1 1
1 1 1 1
0.999955 1 1 0.999955
0.999813 1 1 0.999813
0.999878 1 1 0.999878
0.999912 1 1 0.999912
0.999783 1 1 0.999783
0.999955 1 1 0.999955
0.999933 1 1 0.999933
0.99977 1 1 0.99977
0.999803 1 1 0.999803
1 1 1 1
1 1 1 1
0.999927 1 1 0.999927
0.999843 1 1 0.999843
0.999709 1 1 0.999709
0.999794 1 1 0.999794
0.999773 1 1 0.999773
0.999737 1 1 0.999737
1 1 1 1
0.999945 1 1 0.999945
0.999762 1 1 0.999762
0.99979 1 1 0.99979
0.999685 1 1 0.999685
0.99968 1 1 0.99968
0.999753 1 1 0.999753
0.999675 1 1 0.999675
1 1 1 1
0.999727 1 1 0.999727
0.999933 1 1 0.999933
0.999814 1 1 0.999814
0.999748 1 1 0.999748
0.999725 1 1 0.999725
0.99994 1 1 0.99994
0.999956 1 1 0.999956
0.999833 1 1 0.999833
0.999981 1 1 0.999981
1 1 1 1
1 1 1 1
0.999995 1 1 0.999995
0.999859 1 1 0.999859
1 1 1 1
0.99993 1 1 0.99993
0.999908 1 1 0.999908
0.999822 1 1 0.999822
1 1 1 1
1 1 1 1
0.999952 1 1 0.999952
0.999832 1 1 0.999832
0.999888 1 1 0.999888
0.99976 1 1 0.99976
0.999942 1 1 0.999942
0.999818 1 1 0.999818
0.999833 1 1 0.999833
0.999783 1 1 0.999783
1 1 1 1
0.999948 1 1 0.999948
0.999958 1 1 0.999958
0.999848 1 1 0.999848
0.999737 1 1 0.999737
0.999794 1 1 0.999794
0.999713 1 1 0.999713
0.999844 1 1 0.999844
0.999775 1 1 0.999775
0.999775 1 1 0.999775
0.999754 1 1 0.999754
0.999984 1 1 0.999984
1 1 1 1
1 1 1 1
1 1 1 1
1 1 1 1
1 1 1 1
1 1 1 1
1 1 1 1
1 1 1 1
0.999975 1 1 0.999975
0.999967 1 1 0.999967
0.999797 1 1 0.999797
0.99977 1 1 0.99977
0.999954 1 1 0.999954
1 1 1 1
0.999951 1 1 0.999951
0.999758 1 1 0.999758
0.999783 1 1 0.999783
0.999679 1 1 0.999679
0.999812 1 1 0.999812
0.999707 1 1 0.999707
0.999756 1 1 0.999756
0.99967 1 1 0.99967
0.999692 1 1 0.999692
0.99965 1 1 0.99965
0.999722 1 1 0.999722
0.999676 1 1 0.999676
0.999954 1 1 0.999954
0.999933 1 1 0.999933
0.999755 1 1 0.999755
0.999808 1 1 0.999808
1 1 1 1
1 1 1 1
0.999932 1 1 0.999932
0.999844 1 1 0.999844
0.999701 1 1 0.999701
0.999777 1 1 0.999777
0.999792 1 1 0.999792
0.999738 1 1 0.999738
1 1 1 1
0.999945 1 1 0.999945
0.999756 1 1 0.999756
0.99979 1 1 0.99979
0.999683 1 1 0.999683
0.99969 1 1 0.99969
1 1 1 1
0.999932 1 1 0.999932
0.99982 1 1 0.99982
0.999753 1 1 0.999753
0.999672 1 1 0.999672
0.999742 1 1 0.999742
0.999728 1 1 0.999728
0.999724 1 1 0.999724
0.99994 1 1 0.99994
0.999829 1 1 0.999829
0.999955 1 1 0.999955
0.999682 1 1 0.999682
0.999682 1 1 0.999682
0.999639 1 1 0.999639
0.999645 1 1 0.999645
0.99971 1 1 0.99971
0.999675 1 1 0.999675
0.999938 1 1 0.999938
0.999721 1 1 0.999721
0.999839 1 1 0.999839
0.999757 1 1 0.999757
0.999711 1 1 0.999711
0.999738 1 1 0.999738
0.99997 1 1 0.99997
0.999839 1 1 0.999839
0.999823 1 1 0.999823
0.999784 1 1 0.999784
0.999832 1 1 0.999832
1 1 1 1
1 1 1 1
0.999952 1 1 0.999952
0.999888 1 1 0.999888
0.99976 1 1 0.99976
0.999942 1 1 0.999942
0.999833 1 1 0.999833
0.999822 1 1 0.999822
0.999779 1 1 0.999779
1 1 1 1
0.999948 1 1 0.999948
0.999958 1 1 0.999958
0.999848 1 1 0.999848
0.999737 1 1 0.999737
0.999795 1 1 0.999795
0.999712 1 1 0.999712
0.999844 1 1 0.999844
0.999779 1 1 0.999779
0.999773 1 1 0.999773
0.999762 1 1 0.999762
1 1 1 1
0.999966 1 1 0.999966
0.999848 1 1 0.999848
0.999851 1 1 0.999851
0.999783 1 1 0.999783
0.999696 1 1 0.999696
0.999747 1 1 0.999747
0.999695 1 1 0.999695
0.999779 1 1 0.999779
0.999749 1 1 0.999749
0.999715 1 1 0.999715
0.999979 1 1 0.999979
0.999888 1 1 0.999888
0.999988 1 1 0.999988
0.999985 1 1 0.999985
1 1 1 1
1 1 1 1
1 1 1 1
1 1 1 1
1 1 1 1
1 1 1 1
1 1 1 1
1 1 1 1
1 1 1 1
1 1 1 1
1 1 1 1
0.999812 1 1 0.999812
0.999783 1 1 0.999783
0.999707 1 1 0.999707
0.999679 1 1 0.999679
0.999758 1 1 0.999758
0.999951 1 1 0.999951
0.999756 1 1 0.999756
0.99967 1 1 0.99967
0.999692 1 1 0.999692
0.99965 1 1 0.99965
0.999722 1 1 0.999722
0.999676 1 1 0.999676
0.999667 1 1 0.999667
0.999645 1 1 0.999645
0.999659 1 1 0.999659
0.999643 1 1 0.999643
0.999689 1 1 0.999689
0.999687 1 1 0.999687
0.99975 1 1 0.99975
0.99979 1 1 0.99979
0.99968 1 1 0.99968
0.999699 1 1 0.999699
1 1 1 1
0.999932 1 1 0.999932
0.999826 1 1 0.999826
0.999754 1 1 0.999754
0.99967 1 1 0.99967
0.999728 1 1 0.999728
0.999736 1 1 0.999736
0.999723 1 1 0.999723
0.99994 1 1 0.99994
0.999826 1 1 0.999826
0.999955 1 1 0.999955
0.999677 1 1 0.999677
0.999682 1 1 0.999682
0.999634 1 1 0.999634
0.999647 1 1 0.999647
0.999938 1 1 0.999938
0.999839 1 1 0.999839
0.999763 1 1 0.999763
0.999713 1 1 0.999713
0.999678 1 1 0.999678
0.999706 1 1 0.999706
0.999721 1 1 0.999721
0.999742 1 1 0.999742
0.999839 1 1 0.999839
0.999778 1 1 0.999778
0.999969 1 1 0.999969
0.999824 1 1 0.999824
0.999635 1 1 0.999635
0.999632 1 1 0.999632
0.999611 1 1 0.999611
0.999642 1 1 0.999642
0.999712 1 1 0.999712
0.999693 1 1 0.999693
0.999843 1 1 0.999843
0.999747 1 1 0.999747
0.999782 1 1 0.999782
0.999714 1 1 0.999714
0.999688 1 1 0.999688
0.999745 1 1 0.999745
0.999979 1 1 0.999979
0.999833 1 1 0.999833
0.999789 1 1 0.999789
0.999762 1 1 0.999762
0.999757 1 1 0.999757
1 1 1 1
0.999736 1 1 0.999736
0.999958 1 1 0.999958
0.999948 1 1 0.999948
0.999848 1 1 0.999848
0.999795 1 1 0.999795
0.999712 1 1 0.999712
0.999844 1 1 0.999844
0.999772 1 1 0.999772
0.999784 1 1 0.999784
0.999771 1 1 0.999771
1 1 1 1
0.999967 1 1 0.999967
0.999848 1 1 0.999848
0.999851 1 1 0.999851
0.999782 1 1 0.999782
0.999696 1 1 0.999696
0.999747 1 1 0.999747
0.999693 1 1 0.999693
0.99978 1 1 0.99978
0.999752 1 1 0.999752
0.99972 1 1 0.99972
0.999974 1 1 0.999974
0.999857 1 1 0.999857
0.999783 1 1 0.999783
0.999782 1 1 0.999782
0.999755 1 1 0.999755
0.999689 1 1 0.999689
0.999723 1 1 0.999723
0.99971 1 1 0.99971
0.999725 1 1 0.999725
0.999687 1 1 0.999687
0.99998 1 1 0.99998
0.999863 1 1 0.999863
0.999881 1 1 0.999881
0.999816 1 1 0.999816
0.999896 1 1 0.999896
0.99999 1 1 0.99999
0.999988 1 1 0.999988
1 1 1 1
0.999986 1 1 0.999986
1 1 1 1
1 1 1 1
1 1 1 1
1 1 1 1
1 1 1 1
1 1 1 1
1 1 1 1
1 1 1 1
1 1 1 1
1 1 1 1
1 1 1 1
0.999722 1 1 0.999722
0.999692 1 1 0.999692
0.999676 1 1 0.999676
0.999649 1 1 0.999649
0.99967 1 1 0.99967
0.999756 1 1 0.999756
0.999667 1 1 0.999667
0.999645 1 1 0.999645
0.999659 1 1 0.999659
0.999642 1 1 0.999642
0.999689 1 1 0.999689
0.999687 1 1 0.999687
0.99964 1 1 0.99964
0.999641 1 1 0.999641
0.999656 1 1 0.999656
0.999635 1 1 0.999635
0.999694 1 1 0.999694
0.999703 1 1 0.999703
0.999671 1 1 0.999671
0.999681 1 1 0.999681
0.999629 1 1 0.999629
0.999649 1 1 0.999649
0.999938 1 1 0.999938
0.999839 1 1 0.999839
0.999769 1 1 0.999769
0.999715 1 1 0.999715
0.999681 1 1 0.999681
0.999721 1 1 0.999721
0.9997 1 1 0.9997
0.999745 1 1 0.999745
0.99984 1 1 0.99984
0.999773 1 1 0.999773
0.999968 1 1 0.999968
0.999825 1 1 0.999825
0.999635 1 1 0.999635
0.999633 1 1 0.999633
0.999608 1 1 0.999608
0.999643 1 1 0.999643
0.999844 1 1 0.999844
0.999787 1 1 0.999787
0.999713 1 1 0.999713
0.999709 1 1 0.999709
0.999703 1 1 0.999703
0.999686 1 1 0.999686
0.999748 1 1 0.999748
0.999754 1 1 0.999754
0.99979 1 1 0.99979
0.999754 1 1 0.999754
0.999761 1 1 0.999761
0.999969 1 1 0.999969
0.999836 1 1 0.999836
0.999616 1 1 0.999616
0.999599 1 1 0.999599
0.999661 1 1 0.999661
0.999732 1 1 0.999732
0.999797 1 1 0.999797
0.999779 1 1 0.999779
0.999744 1 1 0.999744
0.999662 1 1 0.999662
0.999672 1 1 0.999672
0.999969 1 1 0.999969
0.999867 1 1 0.999867
0.999766 1 1 0.999766
0.999767 1 1 0.999767
0.999715 1 1 0.999715
0.999733 1 1 0.999733
1 1 1 1
0.999967 1 1 0.999967
0.999695 1 1 0.999695
0.99985 1 1 0.99985
0.999848 1 1 0.999848
0.99978 1 1 0.99978
0.999747 1 1 0.999747
0.999691 1 1 0.999691
0.99978 1 1 0.99978
0.999724 1 1 0.999724
0.999755 1 1 0.999755
0.999974 1 1 0.999974
0.999856 1 1 0.999856
0.999787 1 1 0.999787
0.999781 1 1 0.999781
0.999751 1 1 0.999751
0.999687 1 1 0.999687
0.999722 1 1 0.999722
0.999712 1 1 0.999712
0.999721 1 1 0.999721
0.99968 1 1 0.99968
0.999864 1 1 0.999864
0.999772 1 1 0.999772
0.999741 1 1 0.999741
0.999737 1 1 0.999737
0.999728 1 1 0.999728
0.999744 1 1 0.999744
0.99968 1 1 0.99968
0.999697 1 1 0.999697
0.999683 1 1 0.999683
0.999616 1 1 0.999616
0.999982 1 1 0.999982
0.999868 1 1 0.999868
0.999785 1 1 0.999785
0.999875 1 1 0.999875
0.999896 1 1 0.999896
0.999806 1 1 0.999806
0.999754 1 1 0.999754
0.999803 1 1 0.999803
0.999902 1 1 0.999902
0.999992 1 1 0.999992
0.999991 1 1 0.999991
1 1 1 1
0.999989 1 1 0.999989
1 1 1 1
1 1 1 1
1 1 1 1
1 1 1 1
1 1 1 1
1 1 1 1
1 1 1 1
1 1 1 1
1 1 1 1
1 1 1 1
1 1 1 1
0.999688 1 1 0.999688
0.999659 1 1 0.999659
0.999688 1 1 0.999688
0.99964 1 1 0.99964
0.999644 1 1 0.999644
0.999667 1 1 0.999667
0.999639 1 1 0.999639
0.999641 1 1 0.999641
0.999653 1 1 0.999653
0.999629 1 1 0.999629
0.999694 1 1 0.999694
0.999711 1 1 0.999711
0.999644 1 1 0.999644
0.99964 1 1 0.99964
0.999655 1 1 0.999655
0.999748 1 1 0.999748
0.999636 1 1 0.999636
0.999634 1 1 0.999634
0.999605 1 1 0.999605
0.999644 1 1 0.999644
0.999844 1 1 0.999844
0.999791 1 1 0.999791
0.999713 1 1 0.999713
0.999707 1 1 0.999707
0.999713 1 1 0.999713
0.999748 1 1 0.999748
0.999683 1 1 0.999683
0.999763 1 1 0.999763
0.99979 1 1 0.99979
0.999752 1 1 0.999752
0.99976 1 1 0.99976
0.99996 1 1 0.99996
0.999838 1 1 0.999838
0.999613 1 1 0.999613
0.999603 1 1 0.999603
0.999665 1 1 0.999665
0.999797 1 1 0.999797
0.999751 1 1 0.999751
0.99966 1 1 0.99966
0.999728 1 1 0.999728
0.999685 1 1 0.999685
0.999777 1 1 0.999777
0.999969 1 1 0.999969
0.999766 1 1 0.999766
0.999737 1 1 0.999737
0.999717 1 1 0.999717
0.999769 1 1 0.999769
0.999859 1 1 0.999859
0.999607 1 1 0.999607
0.999598 1 1 0.999598
0.999698 1 1 0.999698
0.999775 1 1 0.999775
0.999767 1 1 0.999767
0.999719 1 1 0.999719
0.999686 1 1 0.999686
0.999622 1 1 0.999622
0.999977 1 1 0.999977
0.999884 1 1 0.999884
0.999787 1 1 0.999787
0.999696 1 1 0.999696
0.999738 1 1 0.999738
0.999698 1 1 0.999698
0.999975 1 1 0.999975
0.999856 1 1 0.999856
0.999686 1 1 0.999686
0.999781 1 1 0.999781
0.99979 1 1 0.99979
0.999747 1 1 0.999747
0.99972 1 1 0.99972
0.999714 1 1 0.999714
0.999718 1 1 0.999718
0.999673 1 1 0.999673
0.999864 1 1 0.999864
0.999775 1 1 0.999775
0.999747 1 1 0.999747
0.999741 1 1 0.999741
0.999731 1 1 0.999731
0.999748 1 1 0.999748
0.999683 1 1 0.999683
0.999714 1 1 0.999714
0.999679 1 1 0.999679
0.99961 1 1 0.99961
0.999775 1 1 0.999775
0.999715 1 1 0.999715
0.999703 1 1 0.999703
0.999704 1 1 0.999704
0.999754 1 1 0.999754
0.999745 1 1 0.999745
0.999614 1 1 0.999614
0.999897 1 1.00031 0.999589
0.999873 1 1 0.999873
0.99979 1 1 0.99979
0.999739 1 1 0.999739
0.999896 1 1 0.999896
0.999796 1 1 0.999796
0.999902 1 1 0.999902
0.999747 1 1 0.999747
0.999806 1 1 0.999806
0.999708 1 1 0.999708
0.999743 1 1 0.999743
0.999808 1 1 0.999808
0.999905 1 1 0.999905
0.999993 1 1 0.999993
0.999992 1 1 0.999992
1 1 1 1
0.999991 1 1 0.999991
1 1 1 1
1 1 1 1
1 1 1 1
1 1 1 1
1 1 1 1
1 1 1 1
1 1 1 1
1 1 1 1
1 1 1 1
1 1 1 1
1 1 1 1
0.999694 1 1 0.999694
0.99965 1 1 0.99965
0.999718 1 1 0.999718
0.999623 1 1 0.999623
0.999642 1 1 0.999642
0.999639 1 1 0.999639
0.999641 1 1 0.999641
0.999639 1 1 0.999639
0.99966 1 1 0.99966
0.999744 1 1 0.999744
0.999642 1 1 0.999642
0.999651 1 1 0.999651
0.999706 1 1 0.999706
0.99961 1 1 0.99961
0.999608 1 1 0.999608
0.999668 1 1 0.999668
0.999796 1 1 0.999796
0.999757 1 1 0.999757
0.999659 1 1 0.999659
0.999724 1 1 0.999724
0.999774 1 1 0.999774
0.999697 1 1 0.999697
0.999766 1 1 0.999766
0.999741 1 1 0.999741
0.999719 1 1 0.999719
0.99997 1 1 0.99997
0.999772 1 1 0.999772
0.999852 1 1 0.999852
0.999613 1 1 0.999613
0.999596 1 1 0.999596
0.999691 1 1 0.999691
0.999766 1 1 0.999766
0.999693 1 1 0.999693
0.999627 1 1 0.999627
0.999781 1 1 0.999781
0.999718 1 1 0.999718
0.999984 1 1 0.999984
0.999884 1 1 0.999884
0.999738 1 1 0.999738
0.999699 1 1 0.999699
0.9997 1 1 0.9997
0.999782 1 1 0.999782
0.999627 1 1 0.999627
0.999612 1 1 0.999612
0.999739 1 0.999962 0.999777
0.999789 1 1 0.999789
0.999725 1 1 0.999725
0.999931 1 1.00032 0.999613
0.99964 1 1 0.99964
0.999997 1 1 0.999997
0.999924 1 1 0.999924
0.999888 1 1 0.999888
0.999789 1 1 0.999789
0.999711 1 1 0.999711
0.999658 1 1 0.999658
0.999716 1 1 0.999716
0.99967 1 1 0.99967
0.999864 1 1 0.999864
0.999778 1 1 0.999778
0.999753 1 1 0.999753
0.999745 1 1 0.999745
0.999753 1 1 0.999753
0.999734 1 1 0.999734
0.999685 1 1 0.999685
0.999731 1 1 0.999731
0.999674 1 1 0.999674
0.999604 1 1 0.999604
0.999774 1 1 0.999774
0.999721 1 1 0.999721
0.999708 1 1 0.999708
0.999708 1 1 0.999708
0.999756 1 1 0.999756
0.999741 1 1 0.999741
0.999622 1 1 0.999622
0.99973 1 1.00014 0.999587
0.999728 1 1 0.999728
0.999709 1 1 0.999709
0.999684 1 1 0.999684
0.999657 1 1 0.999657
0.999771 1 1 0.999771
0.999597 1 1 0.999597
1.00002 1 1.00048 0.999548
0.999795 1 1 0.999795
0.99974 1 1 0.99974
0.999699 1 1 0.999699
0.999902 1 1 0.999902
0.99981 1 1 0.99981
0.999739 1 1 0.999739
0.999905 1 1 0.999905
0.999807 1 1 0.999807
0.999702 1 1 0.999702
0.999751 1 1 0.999751
0.999674 1 1 0.999674
0.999695 1 1 0.999695
0.999755 1 1 0.999755
0.999817 1 1 0.999817
0.999905 1 1 0.999905
0.999992 1 1 0.999992
0.999993 1 1 0.999993
1 1 1 1
0.999993 1 1 0.999993
1 1 1 1
1 1 1 1
1 1 1 1
1 1 1 1
1 1 1 1
0.999999 1 1 0.999999
1 1 1 1
1 1 1 1
1 1 1 1
1 1 1 1
1 1 1 1
1 1 1 1
0.999741 1 1 0.999741
0.999665 1 1 0.999665
0.999639 1 1 0.999639
0.999638 1 1 0.999638
0.999647 1 1 0.999647
0.999645 1 1 0.999645
0.999718 1 1 0.999718
0.999656 1 1 0.999656
0.999665 1 1 0.999665
0.999744 1 1 0.999744
0.999619 1 1 0.999619
0.999594 1 1 0.999594
0.999684 1 1 0.999684
0.999766 1 1 0.999766
0.999701 1 1 0.999701
0.999632 1 1 0.999632
0.999786 1 1 0.999786
0.999717 1 1 0.999717
0.999738 1 1 0.999738
0.999701 1 1 0.999701
0.999705 1 1 0.999705
0.999991 1 1 0.999991
0.999884 1 1 0.999884
0.999776 1 1 0.999776
0.999624 1 1 0.999624
0.999996 1 1 0.999996
0.999918 1 1 0.999918
0.999614 1 1 0.999614
0.999762 1 1 0.999762
0.999729 1 1 0.999729
0.999633 1 1 0.999632
0.999719 1 1.0001 0.999616
0.999787 1 1 0.999787
0.999903 1 1 0.999903
0.999788 1 1 0.999788
0.999717 1 1 0.999717
0.999678 1 1 0.999678
0.99965 1 1 0.99965
0.999713 1 1 0.999713
0.999613 1 1 0.999613
0.999688 1 1 0.999688
0.999495 1 0.999638 0.999857
0.99968 1 1 0.99968
0.999694 1 1 0.999694
1.0005 1 1.00092 0.999576
0.999922 1 1 0.999922
0.999914 1 1 0.999914
0.99985 1 1 0.99985
0.999793 1 1 0.999793
0.999728 1 1 0.999728
0.99965 1 1 0.99965
0.999614 1 1 0.999614
0.999678 1 1 0.999678
0.999773 1 1 0.999773
0.999727 1 1 0.999727
0.999758 1 1 0.999758
0.999738 1 1 0.999738
0.999712 1 1 0.999712
0.999713 1 1 0.999713
0.999629 1 1 0.999629
0.999607 1 1.00002 0.999584
0.999728 1 1 0.999728
0.999726 1 1 0.999726
0.999683 1 1 0.999683
0.99967 1 1.00002 0.999648
0.999767 1 1 0.999767
0.999599 1 1 0.999599
0.999991 1 1.00045 0.999545
0.999686 1 1 0.999686
0.99988 1.00061 0.999532 0.99974
0.999656 1 1 0.999656
0.999987 1 1.00041 0.999579
0.999599 1 1 0.999599
1.00046 1 1.00094 0.999513
0.990448 1.00487 0.986112 0.999533
0.99974 1 1 0.99974
0.9997 1 1 0.9997
0.999672 1 1 0.999672
0.999905 1 1 0.999905
0.999807 1 1 0.999807
0.999758 1 1 0.999758
0.999696 1 1 0.999696
0.999905 1 1 0.999905
0.999812 1 1 0.999812
0.999672 1 1 0.999672
0.999755 1 1 0.999755
0.999702 1 1 0.999702
0.999653 1 1 0.999653
0.999708 1 1 0.999708
0.999758 1 1 0.999758
0.999803 1 1 0.999803
0.99989 1 1 0.99989
0.999824 1 1 0.999824
0.999889 1 1 0.999889
0.999992 1 1 0.999992
0.999992 1 1 0.999992
1 1 1 1
0.999992 1 1 0.999992
1 1 1 1
1 1 1 1
1 1 1 1
1 1 1 1
1 1 1 1
1 1 1 1
0.999999 1 1 0.999999
1 1 1 1
1 1 1 1
1 1 1 1
1 1 1 1
1 1 1 1
1 1 1 1
0.99973 1 1 0.99973
0.99964 1 1 0.99964
0.999652 1 1 0.999652
0.999656 1 1 0.999656
0.999669 1 1 0.999669
0.999752 1 1 0.999752
0.99968 1 1 0.99968
0.996388 1.00128 0.995308 0.99981
0.999547 1 0.999705 0.999841
0.999941 1 1 0.999941
0.999621 1 1 0.999621
0.999616 1 1 0.999616
0.999748 1 1 0.999748
0.999732 1 1 0.999732
0.999624 1 1 0.999624
0.999619 1 1 0.999619
0.999784 1 1 0.999784
0.999719 1 1 0.999719
0.999686 1 1 0.999686
0.999642 1 1 0.999642
0.999995 1 1 0.999995
0.999714 1 1 0.999714
0.999917 1 1 0.999917
0.999788 1 1 0.999788
0.999913 1 1 0.999913
0.999606 1 1 0.999606
0.999929 1 1 0.999929
0.999914 1 1 0.999914
0.999839 1 1 0.999839
0.999689 1 1 0.999689
0.999389 1 0.999552 0.999837
0.999696 1 1 0.999696
1.00033 1 1.00076 0.999573
0.999683 1 1 0.999683
0.999801 1 1 0.999801
0.999724 1 1 0.999724
0.999676 1 1 0.999676
0.999656 1 1.00003 0.999622
0.999655 1 1 0.999655
0.999639 1 1.00004 0.999594
0.997275 1 0.997464 0.99981
0.99951 1 0.999765 0.999745
1.00019 1 1.0006 0.999587
1.00034 1 1.00069 0.999648
0.99984 1 1 0.99984
0.999812 1 1 0.999812
0.999777 1 1 0.999777
0.999727 1 1 0.999727
0.999676 1 1 0.999676
0.999612 1 1 0.999612
1.0012 1 1.0016 0.9996
0.999728 1 1 0.999728
0.999683 1 1 0.999683
0.999743 1 1 0.999743
0.999763 1 1 0.999763
0.9996 1 1 0.9996
0.999639 1 1 0.999639
0.999883 1 1.00034 0.999542
0.999689 1 1 0.999689
1.00001 1.00061 0.999651 0.999749
0.999656 1 1 0.999656
0.999843 1 1.00027 0.999578
0.999686 1.00007 1 0.999613
1.00107 1 1.00156 0.99951
0.994956 1.00746 0.98801 0.999568
0.99966 1 1 0.99966
1.00079 1.00123 1 0.999567
0.999626 1 1 0.999626
1.00237 1 1.00284 0.999531
1.00036 1 1.00086 0.999501
0.96219 0.963833 1.00004 0.998256
0.990857 1.00115 0.990163 0.999548
0.985433 1.00857 0.977528 0.999522
0.956028 0.96444 0.991582 0.999694
0.963478 0.987106 0.97619 0.999871
0.9997 1 1 0.9997
0.999672 1 1 0.999672
0.999643 1 1 0.999643
0.999905 1 1 0.999905
0.999807 1 1 0.999807
0.999755 1 1 0.999755
0.999708 1 1 0.999708
0.999671 1 1 0.999671
0.99975 1 1 0.99975
0.999896 1 1 0.999896
0.999809 1 1 0.999809
0.999658 1 1 0.999658
0.999705 1 1 0.999705
0.999712 1 1 0.999712
0.999658 1 1 0.999658
0.999734 1 1 0.999734
0.999801 1 1 0.999801
0.999889 1 1 0.999889
0.999817 1 1 0.999817
0.999755 1 1 0.999755
0.999804 1 1 0.999804
0.999813 1 1 0.999813
0.999898 1 1 0.999898
0.999889 1 1 0.999889
0.999991 1 1 0.999991
0.999991 1 1 0.999991
1 1 1 1
0.999992 1 1 0.999992
1 1 1 1
1 1 1 1
1 1 1 1
1 1 1 1
1 1 1 1
1 1 1 1
1 1 1 1
1 1 1 1
0.999998 1 1 0.999998
1 1 1 1
1 1 1 1
1 1 1 1
1 1 1 1
1 1 1 1
0.999674 1 1 0.999674
0.999657 1 1 0.999657
0.99976 1 1 0.99976
0.995803 1.00072 0.995281 0.999807
0.999677 1 1 0.999677
0.999672 1 0.999863 0.999809
0.999669 1 1.00004 0.999631
0.981168 0.984914 0.99692 0.999275
0.999608 1 0.999727 0.999881
0.999945 1 1 0.999945
0.999941 1 1 0.999941
0.999861 1 1 0.999861
0.999872 1 1 0.999872
0.999598 1 1 0.999598
0.999691 1 1 0.999691
0.999345 1 0.999528 0.999817
0.999699 1 1 0.999699
1.00003 1 1.00046 0.999569
0.999686 1 1 0.999686
0.999674 1 1 0.999674
0.999682 1 1.00005 0.99963
0.999661 1 1 0.999661
0.999914 1 1 0.999914
0.999721 1 1 0.999721
0.999808 1 1 0.999808
0.999935 1 1 0.999935
0.999828 1 1 0.999828
0.99964 1 1.00003 0.999605
0.999851 1 1 0.999851
0.999819 1 1 0.999819
0.999779 1 1 0.999779
0.998166 1 0.998356 0.999811
0.99933 1 0.999583 0.999747
1.00034 1 1.0007 0.999646
1.00018 1 1.00059 0.99959
0.99973 1 1 0.99973
0.999679 1 1 0.999679
1.00059 1 1.00099 0.999601
0.999636 1 1.00003 0.99961
0.999672 1 1.00001 0.999664
0.997872 1.00032 0.997763 0.99979
0.999691 1 1.00012 0.999568
1.00041 1 1.00081 0.999596
0.999757 1 1 0.999757
0.999742 1 1 0.999742
0.999645 1 1 0.999645
1.00162 1 1.00207 0.99955
0.960135 0.963719 0.998058 0.998219
0.999693 1 1 0.999693
0.999655 1 1 0.999655
1.00009 1.00053 0.999798 0.999757
0.999739 1.00011 1 0.999628
1.00175 1 1.00224 0.999508
0.999784 1 1.00021 0.999577
0.999472 1.00986 0.990105 0.999604
0.999662 1 1 0.999662
1.00123 1.00196 0.999706 0.999565
0.999627 1 1 0.999627
1.00196 1 1.00243 0.999533
1.00011 1 1.0006 0.999511
0.963446 0.964317 1.00068 0.998423
0.98732 0.997955 0.990187 0.999148
0.989009 1.01023 0.979455 0.999529
0.959964 0.966878 0.993361 0.999485
0.962344 0.98413 0.977983 0.999876
0.99965 1 1 0.99965
0.965688 0.968933 0.997398 0.999251
0.978067 0.989552 0.988484 0.999908
0.995426 1.0002 0.995702 0.999522
1.00128 1 1.00167 0.999609
1.00766 1 1.00813 0.99953
1.00129 1.01017 0.991739 0.999463
0.974544 0.971997 1.00448 0.998148
0.990273 1.00595 0.985289 0.999114
0.955172 0.968132 0.986964 0.999644
0.991009 1.00611 0.985077 0.999915
0.999672 1 1 0.999672
0.999644 1 1 0.999644
0.999618 1 1 0.999618
0.999903 1 1 0.999903
0.999815 1 1 0.999815
0.999742 1 1 0.999742
0.999703 1 1 0.999703
0.999662 1 1 0.999662
0.999889 1 1 0.999889
0.99971 1 1 0.99971
0.999743 1 1 0.999743
0.999808 1 1 0.999808
0.999651 1 1 0.999651
0.999684 1 1 0.999684
0.999814 1 1.0002 0.999617
0.999737 1 1 0.999737
0.999815 1 1 0.999815
0.999817 1 1 0.999817
0.999746 1 1 0.999746
0.999747 1 1 0.999747
0.999737 1 1 0.999737
0.999704 1 1 0.999704
0.999714 1 1 0.999714
0.999791 1 1 0.999791
0.999804 1 1 0.999804
0.999892 1 1 0.999892
0.999802 1 1 0.999802
0.999892 1 1 0.999892
0.99999 1 1 0.99999
0.999889 1 1 0.999889
0.999991 1 1 0.999991
1 1 1 1
0.999991 1 1 0.999991
1 1 1 1
1 1 1 1
1 1 1 1
1 1 1 1
1 1 1 1
0.999943 1 1 0.999943
1 1 1 1
1 1 1 1
1 1 1 1
1 1 1 1
1 1 1 1
1 1 1 1
1 1 1 1
1 1 1 1
1 1 1 1
0.995291 1.00056 0.994927 0.999804
0.999675 1 1 0.999675
0.999776 1 1 0.999776
0.981742 0.98446 0.997722 0.999515
0.999763 1 0.999883 0.99988
0.999648 1 1.00003 0.999615
1.00123 1 1.00159 0.999635
0.987499 0.986526 1.00163 0.99936
0.965087 0.967083 1.00011 0.997822
0.954087 0.963941 0.990554 0.999216
0.965319 0.982401 0.982724 0.999886
0.999859 1 1 0.999859
0.999945 1 1 0.999945
0.999941 1 1 0.999941
0.999858 1 1 0.999858
0.999806 1 1 0.999806
0.99982 1 1 0.99982
0.999863 1 1 0.999863
0.999867 1 1 0.999867
0.999642 1 1.00003 0.999616
0.998982 1 0.999171 0.999811
0.999124 1 0.999376 0.999748
1.00037 1 1.00073 0.999645
1.0002 1 1.0006 0.999593
1.00005 1 1.00045 0.999601
0.999676 1 1.00007 0.999607
0.999682 1 1 0.999682
0.999827 1 1 0.999827
0.999732 1 1 0.999732
0.999863 1 1 0.999863
0.99978 1 1 0.99978
0.999126 1 0.999471 0.999656
0.99976 1 1 0.99976
0.999745 1 1 0.999745
0.997257 1.00012 0.997351 0.999789
0.999608 1 1.00003 0.999579
1.00086 1 1.00128 0.999583
0.999644 1 1 0.999644
1.00164 1 1.00208 0.999553
0.990723 1.0049 0.986223 0.999664
1.00195 1.00023 1.00212 0.999599
0.999606 1 1.00007 0.999535
1.00462 1 1.0051 0.999524
0.999709 1 1 0.999709
0.999672 1 1 0.999672
1.00012 1 1.00054 0.999573
0.96504 0.97138 0.993895 0.999576
0.963804 0.965575 0.99988 0.998286
0.999665 1 1 0.999665
0.999628 1 1 0.999628
1.00197 1.00293 0.999479 0.999564
0.999786 1 1.00026 0.999522
1.00145 1 1.00192 0.999536
0.962713 0.964993 0.999863 0.997775
0.989734 0.998094 0.99198 0.999641
0.992978 1.01234 0.981332 0.999535
0.955802 0.965878 0.99031 0.999251
0.961166 0.981258 0.97964 0.999882
0.999649 1 1 0.999649
0.963598 0.970396 0.993373 0.999619
0.979065 0.988449 0.990587 0.999919
0.996141 1.00029 0.996331 0.999518
1.00043 1 1.00082 0.999611
1.00693 1 1.00739 0.999541
0.998 1.0076 0.99102 0.999445
0.974768 0.973201 1.00368 0.997937
0.985247 1.00146 0.984247 0.999557
0.954927 0.968106 0.987162 0.999214
0.986198 1.00508 0.981302 0.999911
0.999625 1 1 0.999625
0.994096 0.995749 0.998392 0.999948
1.00966 1.0115 0.998236 0.99995
1.00866 1 1.00914 0.999531
1.00562 1 1.00596 0.999665
1.00433 1.00361 1.00103 0.999699
0.99058 1.00024 0.990518 0.99982
0.978536 0.975868 1.00469 0.998049
0.967987 0.984062 0.984457 0.999194
1.00298 1.01369 0.989498 0.99993
0.999645 1 1 0.999645
0.999615 1 1 0.999615
1.00002 1 1.00042 0.999602
0.999889 1 1 0.999889
0.999814 1 1 0.999814
0.999752 1 1 0.999752
0.999708 1 1 0.999708
0.999644 1 1 0.999644
0.999815 1 1 0.999815
0.999689 1 1 0.999689
0.999737 1 1 0.999737
0.999857 1 1.00024 0.999612
1.00014 1 1.00055 0.999583
0.999748 1 1.00009 0.999661
0.999742 1 1 0.999742
0.999817 1 1 0.999817
0.999738 1 1 0.999738
0.999747 1 1 0.999747
0.999737 1 1 0.999737
0.999703 1 1 0.999703
0.999722 1 1 0.999722
0.999695 1 1 0.999695
0.999677 1 1 0.999677
0.999688 1 1 0.999688
0.999723 1 1 0.999723
0.999723 1 1 0.999723
0.999715 1 1 0.999715
0.999781 1 1 0.999781
0.999791 1 1 0.999791
0.999882 1 1 0.999882
0.999804 1 1 0.999804
0.999892 1 1 0.999892
0.999988 1 1 0.999988
0.999886 1 1 0.999886
0.999989 1 1 0.999989
1 1 1 1
0.99999 1 1 0.99999
1 1 1 1
1 1 1 1
1 1 1 1
1 1 1 1
1 1 1 1
0.999948 1 1 0.999948
1 1 1 1
0.999943 1 1 0.999943
1 1 1 1
1 1 1 1
1 1 1 1
1 1 1 1
1 1 1 1
1 1 1 1
1 1 1 1
1 1 1 1
0.961021 0.967883 0.993244 0.999664
0.982409 0.990779 0.991611 0.999941
0.983232 0.985129 0.998352 0.999721
0.999861 1 0.999984 0.999878
0.999627 1 1.00003 0.999598
0.986782 0.985026 1.00196 0.999828
1.00044 1 1.0008 0.999646
0.968946 0.96931 1.00136 0.99827
0.957754 0.965158 0.99264 0.999686
0.963765 0.981924 0.981612 0.999893
0.999933 0.995508 1.00465 0.999795
0.973725 0.972805 1.00271 0.998236
0.954911 0.96678 0.988057 0.999662
0.984005 1.00361 0.980559 0.999902
0.999786 1 1 0.999786
0.999864 1 1 0.999864
0.999945 1 1 0.999945
0.999855 1 1 0.999855
0.999811 1 1 0.999811
0.9998 1 1 0.9998
0.999823 1 1 0.999823
0.999837 1 1 0.999837
0.999857 1 1 0.999857
0.999863 1 1 0.999863
0.998673 1 0.999025 0.999647
0.996893 1 0.997106 0.999787
0.999591 1 1 0.999591
1.00126 1 1.00169 0.99957
1.00153 1 1.00198 0.999556
0.999643 1 1 0.999643
0.999747 1 1 0.999747
0.999764 1 1 0.999764
0.992927 1.00361 0.989713 0.999643
0.999706 1 1 0.999706
0.999665 1 1 0.999665
1.0003 1.00016 1.00054 0.999599
1.00007 1 1.00054 0.999534
1.00367 1 1.00416 0.999515
1.00069 1 1.00112 0.999565
0.98508 1.01237 0.973502 0.999525
1.00817 1 1.00865 0.999524
1.00426 1 1.00476 0.999507
0.999704 1 1 0.999704
0.999657 1 1 0.999657
0.999601 1 1 0.999601
0.993686 0.996386 0.997386 0.999905
0.965534 0.970675 0.99549 0.99921
0.961845 0.965399 0.998115 0.9982
0.999649 1 1 0.999649
0.999613 1 1 0.999613
0.997025 1.00031 0.997203 0.999515
1.00638 1 1.00683 0.999552
0.960242 0.968767 0.991987 0.999207
0.972109 0.972082 1.00141 0.998618
0.986438 1.00268 0.984631 0.999163
0.99559 1.00518 0.991021 0.999433
0.955588 0.967299 0.988206 0.999683
0.981302 0.99031 0.990999 0.999903
0.983651 1.00213 0.98166 0.999902
0.999624 1 1 0.999624
0.991331 0.994677 0.996707 0.999929
1.01063 1.01259 0.998114 0.999949
1.00841 1 1.00888 0.999534
1.00589 1 1.00622 0.999665
1.00742 1.00315 1.00487 0.999385
0.988221 1.0003 0.988683 0.999232
0.977748 0.977166 1.00258 0.998022
0.973208 0.984928 0.98838 0.999717
0.999427 1.01203 0.987626 0.999916
0.999685 1 1 0.999685
1.00947 1.00971 0.999791 0.99997
1.00796 1.00974 0.998256 0.999976
1.00719 1 1.00739 0.999799
0.997566 0.994962 1.00269 0.999924
0.987095 0.983963 1.00501 0.998178
0.984757 0.999063 0.985982 0.999695
1.00001 1.01485 0.985465 0.999906
0.999613 1 1 0.999613
0.999964 1 1.00036 0.999609
1.00092 1 1.0013 0.999615
0.999814 1 1 0.999814
0.999738 1 1 0.999738
0.999694 1 1 0.999694
0.999888 1 1.00028 0.999607
0.999742 1 1 0.999742
0.999693 1 1.00003 0.999662
1.00051 1 1.00093 0.999581
1.00045 1 1.00086 0.999599
0.999807 1 1.00021 0.999594
0.999684 1 1 0.999684
0.999747 1 1 0.999747
0.999736 1 1 0.999736
0.999702 1 1 0.999702
0.999697 1 1 0.999697
0.999722 1 1 0.999722
0.99968 1 1 0.99968
0.99967 1 1 0.99967
0.999657 1 1 0.999657
0.999666 1 1 0.999666
0.999688 1 1 0.999688
0.999697 1 1 0.999697
0.999706 1 1 0.999706
0.999763 1 1 0.999763
0.999738 1 1 0.999738
0.999728 1 1 0.999728
0.999773 1 1 0.999773
0.999716 1 1 0.999716
0.999781 1 1 0.999781
0.99987 1 1 0.99987
0.999791 1 1 0.999791
0.999881 1 1 0.999881
0.999985 1 1 0.999985
0.999892 1 1 0.999892
0.999987 1 1 0.999987
1 1 1 1
0.999989 1 1 0.999989
1 1 1 1
1 1 1 1
1 1 1 1
1 1 1 1
1 1 1 1
0.999923 1 1 0.999923
1 1 1 1
0.999937 1 1 0.999937
1 1 1 1
1 1 1 1
0.999943 1 1 0.999943
1 1 1 1
1 1 1 1
1 1 1 1
1 1 1 1
1 1 1 1
1 1 1 1
0.993833 0.995694 0.998178 0.999953
0.962572 0.968694 0.994237 0.999439
1.00797 1.01132 0.996732 0.999959
0.979538 0.987579 0.991922 0.999935
0.983565 0.983685 1.00054 0.99934
0.999705 1.00001 1.00004 0.999657
0.969608 0.969125 1.00176 0.99874
0.956093 0.965474 0.991041 0.999235
0.962801 0.981989 0.980559 0.9999
0.997033 0.997041 1.00037 0.999626
0.973217 0.970836 1.0043 0.998159
0.95728 0.969603 0.988062 0.999219
0.981998 1.0032 0.97896 0.999907
0.996381 1.00424 0.992388 0.999789
0.975174 0.97241 1.00479 0.998061
0.971312 0.986704 0.984694 0.999703
0.99761 1.01535 0.982598 0.99993
0.999747 1 1 0.999747
0.999794 1 1 0.999794
0.999869 1 1 0.999869
0.999816 1 1 0.999816
0.999763 1 1 0.999763
0.999805 1 1 0.999805
0.999825 1 1 0.999825
0.999828 1 1 0.999828
0.999843 1 1 0.999843
0.99985 1 1 0.99985
0.995352 1.00256 0.993186 0.999622
0.998507 1 0.998908 0.999599
1.00043 1 1.0009 0.999534
1.003 1 1.00349 0.999507
1.00132 1 1.00176 0.999558
0.999658 1 1 0.999658
0.999703 1 1 0.999703
0.999706 1 1 0.999706
0.987288 1.00989 0.978088 0.999524
0.999661 1 1 0.999661
0.999688 1 1.00009 0.999597
1.00758 1 1.00807 0.999519
1.00412 1 1.00462 0.999507
0.987468 1.01062 0.977574 0.999508
1.01749 1 1.01794 0.999557
1.00033 1 1.00078 0.999549
0.999667 1 1 0.999667
0.999607 1 1 0.999607
1.00839 1.00864 0.999768 0.999979
0.994225 0.996219 0.998067 0.999931
0.965865 0.971476 0.994589 0.999633
0.999622 1 1 0.999622
1.00599 1 1.00633 0.999666
1.00778 1 1.00825 0.999536
0.994517 0.996131 0.998431 0.999949
0.977642 0.975314 1.00441 0.997983
0.986038 0.999375 0.986869 0.999782
1.00858 1.002 1.00752 0.999055
0.966682 0.982037 0.985146 0.999205
1.01183 1.01392 0.997988 0.999948
1.00155 1.01234 0.989436 0.999913
0.999692 1 1 0.999692
1.01062 1.01073 0.999921 0.99997
1.00897 1.01092 0.9981 0.999977
1.00743 0.999985 1.00773 0.999709
0.996757 0.99635 1.00067 0.999741
0.989218 0.986101 1.00511 0.998064
1.00308 1.01543 0.98792 0.999922
0.983337 0.995631 0.988152 0.999494
0.999748 1 1 0.999748
1.0022 1.0025 0.999701 0.999996
1.0059 1.00763 0.998302 0.999987
1.00071 1.01436 0.986622 0.999928
1.00524 0.996614 1.00874 0.999911
0.983006 0.982532 1.00216 0.998325
0.980744 0.996927 0.984168 0.999592
0.999884 1 1.00027 0.999616
1.00069 1 1.00109 0.999601
1.00321 1 1.00355 0.999655
0.999741 1 1 0.999741
0.999663 1 1 0.999663
1.00096 1 1.00138 0.99958
0.999687 1 1 0.999687
0.999919 1 1.00033 0.999594
1.00085 1 1.00126 0.999587
0.999965 1 1.00035 0.999611
0.999624 1 1 0.999624
0.999699 1 1 0.999699
0.999723 1 1 0.999723
0.999683 1 1 0.999683
0.999657 1 1 0.999657
0.999669 1 1 0.999669
0.999647 1 1 0.999647
0.999683 1 1 0.999683
0.999812 1 1.00019 0.999622
0.999688 1 1 0.999688
0.999697 1 1 0.999697
0.999652 1 1 0.999652
0.99972 1 1 0.99972
0.999768 1 1 0.999768
0.999707 1 1 0.999707
0.999791 1 1 0.999791
0.99976 1 1 0.99976
0.999754 1 1 0.999754
0.999732 1 1 0.999732
0.999777 1 1 0.999777
0.999862 1 1 0.999862
0.999781 1 1 0.999781
0.99987 1 1 0.99987
0.999981 1 1 0.999981
0.999881 1 1 0.999881
0.999984 1 1 0.999984
1 1 1 1
0.999986 1 1 0.999986
1 1 1 1
1 1 1 1
1 1 1 1
1 1 1 1
1 1 1 1
0.999893 1 1 0.999893
0.999984 1 1 0.999984
0.999923 1 1 0.999923
1 1 1 1
0.999994 1 1 0.999994
0.999926 1 1 0.999926
1 1 1 1
1 1 1 1
1 1 1 1
1 1 1 1
1 1 1 1
1 1 1 1
1.00841 1.00861 0.99983 0.999976
0.990555 0.994385 0.996238 0.99991
0.964729 0.968923 0.996419 0.999249
0.9998 1 1 0.9998
1.00879 1.00975 0.999069 0.999981
1.00966 1.01207 0.997664 0.999958
0.977427 0.986986 0.990413 0.999902
0.994315 0.998177 0.99669 0.99944
0.975981 0.971501 1.00643 0.998193
0.960783 0.971374 0.989407 0.999686
0.981821 1.00154 0.980416 0.999897
0.994913 1.00777 0.987928 0.999301
0.976566 0.973833 1.0047 0.998112
0.969225 0.986133 0.983374 0.999471
0.997392 1.01546 0.982289 0.999917
0.977967 1.00023 0.978478 0.999251
0.980748 0.978559 1.00459 0.997653
0.980212 0.99485 0.986049 0.999226
0.996573 1.01607 0.980917 0.999895
0.999704 1 1 0.999704
0.999742 1 1 0.999742
0.999801 1 1 0.999801
0.99975 1 1 0.99975
0.99977 1 1 0.99977
0.999809 1 1 0.999809
0.999831 1 1 0.999831
0.999849 1 1 0.999849
0.989369 1.00722 0.982747 0.999522
1.0069 1 1.00739 0.999513
0.999707 1 1 0.999707
1.00388 1 1.00438 0.999507
0.99976 1 1.00017 0.999593
0.999665 1 1 0.999665
0.999668 1 1 0.999668
0.988566 1.00979 0.97947 0.999507
0.999607 1 1 0.999607
1.00115 1 1.0016 0.999547
1.01761 1 1.01807 0.999553
0.999661 1 1 0.999661
1.00372 1.00289 1.00118 0.99965
1.01323 1 1.01363 0.999607
0.999592 1 1 0.999592
0.999621 1 1 0.999621
1.00144 1.00143 1.00002 0.999998
1.00783 1.00805 0.999802 0.999979
0.994522 0.996003 0.998555 0.999958
0.9997 1 1 0.9997
1.00783 0.999979 1.00823 0.99962
1.01173 1.01177 0.999995 0.99997
0.985668 0.98038 1.00733 0.998083
1.0007 1.00017 1.00125 0.999285
0.978604 0.993376 0.985825 0.999295
1.00958 1.01163 0.998001 0.999977
1.0064 1.01558 0.991019 0.999938
0.999739 1 1 0.999739
1.00177 1.00201 0.999764 0.999997
1.00455 1.00584 0.99873 0.99999
1.00324 0.996114 1.00722 0.99994
1.00022 1.01442 0.986091 0.999915
0.982079 0.985621 0.997928 0.998476
0.978029 0.994288 0.984435 0.9992
1.00503 0.998744 1.0065 0.999794
0.999 0.998658 1.00034 1
1.00969 1.00996 0.999756 0.999979
0.985848 1.00317 0.982833 0.999899
0.981059 0.992568 0.989161 0.999235
0.996756 0.992867 1.00377 1.00014
0.976502 0.980425 0.99766 0.998335
1.00048 1 1.00089 0.999586
1.00232 1 1.00268 0.999646
1.01223 1 1.01262 0.999614
0.999689 1 1 0.999689
0.999959 1 1.00037 0.999593
1.00111 1 1.00154 0.999575
0.999625 1 1 0.999625
1.00004 1 1.00043 0.999608
1.00298 1 1.00337 0.999612
0.999658 1 1 0.999658
0.999669 1 1 0.999669
0.999822 1 1.00018 0.999643
1.0014 1 1.00181 0.999593
0.9997 1 1 0.9997
0.999744 1 1.00011 0.99963
0.999861 1 1.00028 0.999585
0.999649 1 1 0.999649
0.999697 1 1 0.999697
0.999646 1 1 0.999646
0.999747 1 1 0.999747
0.999767 1 1 0.999767
0.999726 1 1 0.999726
0.999803 1 1 0.999803
0.999767 1 1 0.999767
0.999707 1 1 0.999707
0.999861 1 1 0.999861
0.999789 1 1 0.999789
0.999757 1 1 0.999757
0.999781 1 1 0.999781
0.999862 1 1 0.999862
0.999976 1 1 0.999976
0.99987 1 1 0.99987
0.99998 1 1 0.99998
1 1 1 1
0.999983 1 1 0.999983
1 1 1 1
1 1 1 1
1 1 1 1
1 1 1 1
1 1 1 1
0.999877 1 1 0.999877
0.999977 1 1 0.999977
0.999899 1 1 0.999899
1 1 1 1
0.999984 1 1 0.999984
0.999922 1 1 0.999922
1 1 1 1
1 1 1 1
0.999988 1 1 0.999988
1 1 1 1
1 1 1 1
1 1 1 1
1.00288 1.00284 1.00004 0.999995
1.00823 1.00853 0.999729 0.999976
0.992268 0.995167 0.997179 0.999907
0.999803 1 1 0.999803
0.999784 1 1 0.999784
0.99975 1 1 0.99975
1.00442 1.00717 0.997278 0.999988
1.00915 1.01035 0.998832 0.999981
1.0115 1.01284 0.99872 0.999958
0.998206 1.01157 0.987022 0.999768
0.976031 0.972576 1.00548 0.998086
0.967471 0.984438 0.983527 0.999225
0.999765 1.01633 0.983773 0.999923
0.976099 0.998163 0.978172 0.999717
0.984241 0.980258 1.00591 0.998168
0.982968 0.999445 0.98387 0.999638
0.999313 1.0163 0.983368 0.999916
0.974717 0.993642 0.981112 0.999839
0.980714 0.981434 1.00102 0.998251
0.982376 0.999709 0.983134 0.99952
0.996707 1.01279 0.984186 0.999933
0.999691 1 1 0.999691
0.999704 1 1 0.999704
0.999737 1 1 0.999737
0.99975 1 1 0.99975
0.999778 1 1 0.999778
0.999833 1 1 0.999833
0.989517 1.00883 0.981345 0.999505
1.01748 1 1.01794 0.999548
0.999668 1 1 0.999668
1.00186 1 1.00231 0.999544
0.999608 1 1 0.999608
0.999661 1 1 0.999661
0.999617 1 1 0.999617
1.00059 1.0039 0.997063 0.999642
0.999597 1 1 0.999597
1.01373 1 1.01412 0.999622
0.999622 1 1 0.999622
1.02062 0.999405 1.02147 0.999764
1.00013 1 1.00044 0.999691
0.999587 1 1 0.999587
0.998732 0.998626 1.0001 1
1.00075 1.00075 1 0.999999
1.00729 1.00745 0.999859 0.99998
0.99973 1 1 0.99973
1.00158 0.995452 1.00617 0.999986
1.00132 1.0015 0.999823 0.999997
0.987103 0.988951 0.999021 0.999109
0.984035 1.00041 0.983996 0.999629
1.0034 1.00423 0.999175 0.999993
1.00249 1.01541 0.987359 0.999921
1.00424 0.99937 1.00507 0.999805
0.998919 0.998596 1.00032 1
1.01013 1.0106 0.999564 0.999979
0.998156 0.992767 1.0057 0.999729
0.984434 1.00302 0.981566 0.999904
0.983105 0.997139 0.986268 0.999653
0.976983 0.9806 0.997947 0.998361
1.01678 1 1.0169 0.999883
1.00282 1.00277 1.00005 0.999995
1.00928 1.01172 0.997631 0.999955
0.965572 0.982356 0.983031 0.999881
0.97322 0.98504 0.988299 0.999698
0.9902 0.985702 1.0063 0.998279
0.978698 0.99146 0.987546 0.999576
1.00131 1 1.00167 0.999637
1.01339 1 1.01377 0.999618
1.01937 1 1.01976 0.999616
0.999626 1 1 0.999626
1.00016 1 1.00055 0.999605
1.00242 1 1.00281 0.999612
1.01022 1 1.01067 0.999548
0.999958 1 1.00032 0.99964
1.0017 1 1.00212 0.999584
1.00389 1 1.00437 0.999521
0.999639 1 1 0.999639
1.00019 1 1.00061 0.999582
0.999961 1 1.0004 0.999562
0.999622 1 1 0.999622
0.999714 1 1 0.999714
0.999642 1 1 0.999642
0.99964 1 1 0.99964
0.999778 1 1 0.999778
0.999754 1 1 0.999754
0.999801 1 1 0.999801
0.999772 1 1 0.999772
0.999733 1 1 0.999733
0.999866 1 1 0.999866
0.999804 1 1 0.999804
0.999766 1 1 0.999766
0.999971 1 1 0.999971
0.999862 1 1 0.999862
0.999786 1 1 0.999786
0.999863 1 1 0.999863
0.999975 1 1 0.999975
1 1 1 1
0.999979 1 1 0.999979
1 1 1 1
1 1 1 1
1 1 1 1
1 1 1 1
1 1 1 1
0.999877 1 1 0.999877
0.999985 1 1 0.999985
0.999883 1 1 0.999883
1 1 1 1
0.999984 1 1 0.999984
0.999905 1 1 0.999905
1 1 1 1
1 1 1 1
0.999984 1 1 0.999984
1 1 1 1
1 1 1 1
1 1 1 1
0.999115 0.998662 1.00045 1
1.0026 1.00255 1.00005 0.999996
1.00793 1.00842 0.999533 0.999976
0.999781 1 1 0.999781
0.999752 1 1 0.999752
0.999806 1 1 0.999806
0.999783 1 1 0.999783
0.999743 1 1 0.999743
0.999738 1 1 0.999738
0.999707 1 1 0.999707
1.00688 1.00884 0.99808 0.999978
1.00355 1.00571 0.997861 0.999991
1.00942 1.01095 0.998499 0.999981
1.00232 1.01643 0.986175 0.999938
0.980522 1.00334 0.978012 0.999229
0.985567 0.980124 1.00693 0.998636
0.978366 0.996622 0.982496 0.999172
0.97946 0.993378 0.986433 0.999549
0.986045 0.985548 1.00229 0.998218
0.980544 0.997744 0.983597 0.99915
0.995068 1.01249 0.982887 0.999907
0.987061 0.989445 0.997684 0.999907
0.978801 0.98552 0.994991 0.998183
0.985919 1.00284 0.983486 0.999633
0.988878 1.00498 0.984061 0.999919
0.999671 1 1 0.999671
0.999689 1 1 0.999689
0.999704 1 1 0.999704
0.999749 1 1 0.999749
0.996672 1.00489 0.992182 0.999634
1.0146 1 1.01497 0.999636
0.99966 1 1 0.99966
0.999613 1 1 0.999613
0.999603 1 1 0.999603
0.999627 1 1 0.999627
0.999583 1 1 0.999583
1.01146 0.997471 1.01424 0.999779
1.00015 1 1.00044 0.999714
0.999582 1 1 0.999582
1.02406 0.993916 1.03044 0.999897
1.00351 1 1.00395 0.999559
1.00135 1.00134 1.00002 0.999998
0.99887 0.998807 1.00006 1
1.00007 1.00006 1 1
1.00372 1 1.00391 0.999815
0.998364 0.992096 1.00622 1.0001
0.99883 0.998549 1.00028 1
0.977499 0.980582 0.998553 0.9983
0.977984 0.99446 0.984231 0.999188
1.01045 1.01123 0.999254 0.999979
0.985098 1.00129 0.983934 0.999895
1.01838 0.999615 1.01891 0.999868
1.00252 1.00247 1.00005 0.999996
1.01089 1.01245 0.998502 0.999955
0.983151 0.994003 0.988995 1.00009
0.964225 0.981603 0.982406 0.999889
0.970015 0.983649 0.986671 0.999462
0.991933 0.984655 1.00898 0.998429
1.00482 1 1.00497 0.999852
1.00878 1.00875 1.00006 0.999973
0.983895 0.991112 0.99278 0.999937
0.95469 0.965742 0.988903 0.99965
0.983225 0.978259 1.00698 0.998111
0.976121 0.997017 0.979645 0.999384
1.01474 1 1.01513 0.999622
1.01993 1 1.02033 0.999614
1.02008 1 1.02054 0.999556
1.00191 1 1.0023 0.999613
1.01068 1 1.01112 0.999557
1.00781 1 1.00833 0.999478
1.00218 1 1.0026 0.999574
1.00398 1 1.00447 0.999511
1.00238 1 1.00288 0.999496
1.0006 1 1.00102 0.99958
1.00008 1 1.00053 0.999554
0.999969 1 1.0004 0.99957
0.999631 1 1 0.999631
0.999678 1 1 0.999678
0.999616 1 1 0.999616
0.99976 1 1 0.99976
0.99972 1 1 0.99972
0.999635 1 1 0.999635
0.999798 1 1 0.999798
0.999775 1 1 0.999775
0.99976 1 1 0.99976
0.999863 1 1 0.999863
0.999804 1 1 0.999804
0.999777 1 1 0.999777
0.999968 1 1 0.999968
0.999866 1 1 0.999866
0.999804 1 1 0.999804
1 1 1 1
0.999971 1 1 0.999971
0.999863 1 1 0.999863
0.999975 1 1 0.999975
1 1 1 1
1 1 1 1
1 1 1 1
1 1 1 1
1 1 1 1
0.999785 1 1 0.999785
0.999865 1 1 0.999865
0.99998 1 1 0.99998
0.999877 1 1 0.999877
1 1 1 1
0.999987 1 1 0.999987
0.999889 1 1 0.999889
1 1 1 1
1 1 1 1
0.999992 1 1 0.999992
1 1 1 1
1 1 1 1
1 1 1 1
1.00211 1.00221 0.999903 0.999996
0.99904 0.998601 1.00044 1
1.00234 1.00225 1.00009 0.999996
0.999784 1 1 0.999784
0.999748 1 1 0.999748
0.999749 1 1 0.999749
0.99974 1 1 0.99974
0.99973 1 1 0.99973
0.999783 1 1 0.999783
0.999736 1 1 0.999736
0.999738 1 1 0.999738
0.999708 1 1 0.999708
0.999706 1 1 0.999706
1.00901 1.00973 0.999334 0.999951
1.00762 1.00981 0.997856 0.999979
1.0025 1.00406 0.998451 0.999994
0.996202 1.01239 0.984104 0.999903
0.985592 1.00274 0.983318 0.999577
0.984079 0.993149 0.991553 0.999309
0.979963 0.983326 0.99828 0.998296
0.991241 0.988781 1.00307 0.999418
0.978348 0.982705 0.997321 0.998241
0.983366 0.999153 0.984765 0.999426
0.986292 1.00392 0.982518 0.999917
1.01128 0.986382 1.02579 0.999462
0.983508 0.984694 1.0005 0.998297
0.966225 0.983991 0.982711 0.999221
0.966442 0.986511 0.979764 0.999891
0.999704 1 1 0.999704
0.999674 1 1 0.999674
0.999688 1 1 0.999688
1.00338 0.995785 1.00784 0.999795
1.00014 1 1.00041 0.999736
0.999631 1 1 0.999631
0.999579 1 1 0.999579
0.99962 1 1.00003 0.999586
1.00399 1 1.00444 0.999553
1.02413 0.99554 1.02882 0.999897
1.00393 1 1.00435 0.999573
1.01278 0.999006 1.01406 0.999731
1.00801 1.00804 1 0.999977
1.00069 1.00068 1.00001 0.999999
0.999018 0.998989 1.00003 1
1.01968 0.999211 1.02064 0.999853
0.985319 0.993003 0.992689 0.99957
1.00226 1.00216 1.0001 0.999996
0.98325 0.982221 1.00325 0.9978
0.969111 0.982895 0.986755 0.99921
1.01249 1.01321 0.999335 0.999954
0.963713 0.981683 0.981797 0.999896
1.00544 1 1.00558 0.999859
1.00867 1.00867 1.00003 0.999974
0.980611 0.987876 0.992713 0.999932
0.972123 0.994243 0.978088 0.999657
0.957433 0.968973 0.98887 0.999212
0.98626 0.980095 1.00849 0.997815
0.985516 1.00028 0.985489 0.999745
0.994721 0.996159 0.998608 0.999949
0.954555 0.964404 0.99057 0.99921
0.976382 0.973759 1.00467 0.998032
0.976445 0.999997 0.976777 0.999663
1.02002 1 1.02042 0.999612
1.02145 1 1.02191 0.999556
1.0117 1 1.01222 0.99949
1.01093 1 1.01137 0.999567
1.00736 1 1.00788 0.999482
1.00179 1 1.0023 0.99949
1.00384 1 1.00435 0.999501
1.00173 1 1.00223 0.999499
0.999592 1 1 0.999592
1.00011 1 1.00057 0.999545
0.999757 1 1.00018 0.999575
0.999653 1 1 0.999653
0.999683 1 1 0.999683
0.99966 1 1 0.99966
0.999634 1 1 0.999634
0.999727 1 1 0.999727
0.999669 1 1 0.999669
0.999611 1 1 0.999611
0.9998 1 1 0.9998
0.999766 1 1 0.999766
0.999725 1 1 0.999725
0.999854 1 1 0.999854
0.999798 1 1 0.999798
0.999772 1 1 0.999772
0.999964 1 1 0.999964
0.999863 1 1 0.999863
0.999807 1 1 0.999807
1 1 1 1
0.999968 1 1 0.999968
0.999867 1 1 0.999867
1 1 1 1
1 1 1 1
0.999971 1 1 0.999971
1 1 1 1
1 1 1 1
1 1 1 1
0.999779 1 1 0.999779
0.999855 1 1 0.999855
0.999782 1 1 0.999782
0.999975 1 1 0.999975
0.999865 1 1 0.999865
1 1 1 1
0.999982 1 1 0.999982
0.999876 1 1 0.999876
1 1 1 1
1 1 1 1
0.999988 1 1 0.999988
1 1 1 1
1 1 1 1
1 1 1 1
1.00811 1.00814 1 0.999971
1.00175 1.00181 0.999942 0.999997
0.99896 0.998553 1.00041 1
0.999759 1 1 0.999759
0.999787 1 1 0.999787
0.999745 1 1 0.999745
0.999745 1 1 0.999745
0.999752 1 1 0.999752
0.999731 1 1 0.999731
0.999726 1 1 0.999726
0.999717 1 1 0.999717
0.999738 1 1 0.999738
0.999708 1 1 0.999708
0.999706 1 1 0.999706
0.999699 1 1 0.999699
0.980151 0.989264 0.990878 0.99991
1.00973 1.01055 0.999236 0.99995
1.00863 1.01103 0.997647 0.999979
0.986169 1.00223 0.984069 0.999901
0.980011 0.997327 0.98341 0.999215
0.97767 0.98458 0.994785 0.998187
0.993233 0.985395 1.00801 0.999946
1.01242 0.986256 1.02656 0.999965
0.964619 0.983028 0.981371 0.9999
0.985533 0.986293 1.00124 0.997994
0.966999 0.982485 0.98453 0.999704
1.00364 0.993987 1.00979 0.999917
0.983283 0.979845 1.00524 0.998275
0.952783 0.964357 0.988292 0.999703
1.00016 1 1.00041 0.999756
0.999705 1 1 0.999705
0.999677 1 1 0.999677
1.02425 0.997318 1.02711 0.999897
1.00461 1 1.00506 0.999547
0.999641 1 1.00005 0.99959
1.00422 1 1.00465 0.999576
1.01182 0.999584 1.01251 0.999731
1.00912 1 1.00939 0.999734
0.993252 0.995927 0.997409 0.999906
1.00729 1.00731 1 0.999978
1.00004 1.00002 1.00002 1
1.006 1 1.00613 0.999867
0.972055 0.995882 0.976225 0.999846
1.00844 1.00856 0.999907 0.999974
0.990452 0.981658 1.01036 0.998613
0.960735 0.970742 0.990011 0.999677
0.977734 0.9871 0.990612 0.999899
0.983655 1.00103 0.982891 0.999744
0.991139 0.994854 0.996359 0.999907
0.957952 0.965223 0.992782 0.999683
0.976624 1.00045 0.976966 0.9992
0.979075 0.976048 1.00503 0.998076
0.980285 1.00817 0.97278 0.999548
0.961962 0.968808 0.993263 0.999667
0.974039 0.973214 1.00264 0.998214
0.980503 1.00469 0.976711 0.999192
1.02338 1 1.02383 0.999555
1.01121 1 1.01173 0.999488
1.00259 1 1.00305 0.999538
1.00715 1 1.00766 0.999487
1.00175 1 1.00226 0.999493
0.999673 1 1 0.999673
1.00127 1 1.00177 0.999502
0.999642 1 1.00004 0.9996
0.999745 1 1 0.999745
0.99958 1 1 0.99958
0.999656 1 1 0.999656
0.99975 1 1 0.99975
0.999749 1 1 0.999749
0.999688 1 1 0.999688
0.999689 1 1 0.999689
0.999703 1 1 0.999703
0.999667 1 1 0.999667
0.999637 1 1 0.999637
0.999784 1 1 0.999784
0.999727 1 1 0.999727
0.999659 1 1 0.999659
0.999849 1 1 0.999849
0.999799 1 1 0.999799
0.999772 1 1 0.999772
0.999955 1 1 0.999955
0.999854 1 1 0.999854
0.999798 1 1 0.999798
1 1 1 1
0.999963 1 1 0.999963
0.999863 1 1 0.999863
1 1 1 1
1 1 1 1
0.999968 1 1 0.999968
1 1 1 1
1 1 1 1
1 1 1 1
0.99979 1 1 0.99979
0.999781 1 1 0.999781
0.999847 1 1 0.999847
0.999968 1 1 0.999968
0.999855 1 1 0.999855
0.999779 1 1 0.999779
1 1 1 1
0.999976 1 1 0.999976
0.999864 1 1 0.999864
1 1 1 1
1 1 1 1
0.999983 1 1 0.999983
1 1 1 1
1 1 1 1
1 1 1 1
0.992727 0.994588 0.998176 0.999953
1.00926 1.00929 1 0.999971
1.00135 1.00138 0.99997 0.999998
0.999756 1 1 0.999756
0.99977 1 1 0.99977
0.99974 1 1 0.99974
0.99975 1 1 0.99975
0.999756 1 1 0.999756
0.999732 1 1 0.999732
0.999719 1 1 0.999719
0.999728 1 1 0.999728
0.999708 1 1 0.999708
0.99971 1 1 0.99971
0.999706 1 1 0.999706
0.999699 1 1 0.999699
0.957698 0.96504 0.992686 0.999704
0.979555 0.988103 0.991422 0.999926
1.01052 1.01142 0.999163 0.999949
0.963183 0.980173 0.982755 0.999909
0.962739 0.980899 0.982234 0.999239
0.989407 0.989501 1.00119 0.998714
1.01773 0.986543 1.03218 0.999449
1.00401 0.993826 1.01085 0.999409
0.953088 0.965922 0.987428 0.999276
0.987085 0.983587 1.00507 0.998492
0.998812 0.993645 1.00582 0.99938
0.978937 0.976616 1.00413 0.998257
1.00787 1 1.00819 0.999689
1.00002 1 1.00027 0.999757
0.999705 1 1 0.999705
1.01063 1 1.0109 0.999732
1.00452 1 1.00494 0.99958
1.00879 1 1.00905 0.999736
1.00169 1.00057 1.00145 0.999676
0.964499 0.971912 0.992775 0.999595
0.993952 0.995777 0.998237 0.99993
1.00654 1.00656 0.999999 0.999979
0.981152 1.00122 0.980207 0.999744
0.975688 0.999058 0.976881 0.99972
0.992774 0.995649 0.997209 0.999904
0.978208 0.974568 1.00568 0.998066
0.956159 0.965496 0.991096 0.999227
0.980886 1.00739 0.974108 0.999571
0.963121 0.96947 0.994015 0.999432
0.974831 0.972148 1.00462 0.998143
0.979043 1.0036 0.975853 0.999669
0.982958 1.01242 0.971411 0.999474
0.965326 0.967187 1.00026 0.997818
0.990971 1.00177 0.989442 0.999774
1.01079 1 1.0113 0.999487
1.00232 1 1.00279 0.999533
0.999213 1.00026 0.999258 0.999699
1.00164 1 1.00214 0.999496
0.999581 1 0.999906 0.999675
0.999277 1 0.999403 0.999874
0.999621 1 1.00001 0.999607
0.999746 1 1 0.999746
0.999844 1 1 0.999844
0.999659 1 1 0.999659
0.999749 1 1 0.999749
0.999801 1 1 0.999801
0.999779 1 1 0.999779
0.999756 1 1 0.999756
0.999739 1 1 0.999739
0.999712 1 1 0.999712
0.99969 1 1 0.99969
0.999695 1 1 0.999695
0.999751 1 1 0.999751
0.99971 1 1 0.99971
0.999673 1 1 0.999673
0.999839 1 1 0.999839
0.999783 1 1 0.999783
0.999726 1 1 0.999726
0.999945 1 1 0.999945
0.999849 1 1 0.999849
0.999799 1 1 0.999799
1 1 1 1
0.999955 1 1 0.999955
0.999855 1 1 0.999855
1 1 1 1
1 1 1 1
0.999963 1 1 0.999963
1 1 1 1
1 1 1 1
1 1 1 1
0.999794 1 1 0.999794
0.999785 1 1 0.999785
0.999842 1 1 0.999842
0.999783 1 1 0.999783
0.999847 1 1 0.999847
0.999958 1 1 0.999958
1 1 1 1
0.999968 1 1 0.999968
0.999854 1 1 0.999854
1 1 1 1
1 1 1 1
0.999977 1 1 0.999977
1 1 1 1
1 1 1 1
1 1 1 1
0.966299 0.970068 0.996829 0.999283
0.99124 0.993962 0.997327 0.999934
1.01043 1.01046 1 0.999971
0.999753 1 1 0.999753
0.99974 1 1 0.99974
0.999772 1 1 0.999772
0.999774 1 1 0.999774
0.999747 1 1 0.999747
0.999721 1 1 0.999721
0.99973 1 1 0.99973
0.999709 1 1 0.999709
0.999735 1 1 0.999735
0.9997 1 1 0.9997
0.999936 1 1.00026 0.999679
0.999705 1 1 0.999705
0.9997 1 1 0.9997
0.975574 0.97684 1.00086 0.997843
0.960757 0.967436 0.9936 0.999494
0.980112 0.988852 0.991252 0.999909
0.953234 0.966185 0.986867 0.999725
0.983413 0.979582 1.00619 0.997739
1.00685 0.994604 1.01238 0.999927
0.999556 0.994713 1.00523 0.999643
0.979667 0.977602 1.00381 0.998311
0.993228 0.999137 0.994612 0.999471
1.00619 1.00119 1.00552 0.999469
1.00625 1 1.00657 0.999681
0.999757 1 1 0.999757
1.00716 1 1.00742 0.999739
1.00077 1.0008 1.00022 0.999748
0.961561 0.965271 0.997893 0.99826
0.965467 0.971325 0.994721 0.999244
0.994487 0.995618 0.998909 0.999955
0.981462 1.00691 0.975126 0.999595
0.982697 1.00832 0.975379 0.999186
0.965686 0.969713 0.996603 0.999242
0.9765 0.971796 1.00667 0.998185
0.982256 1.01103 0.972055 0.99947
0.968654 0.968887 1.00149 0.998267
0.988618 1.0042 0.985188 0.999287
0.979117 1.00991 0.969978 0.999521
0.998312 0.993012 1.00554 0.999797
1.00182 1 1.00229 0.999527
0.998102 1.00023 0.998175 0.999695
0.996919 1.00041 0.996675 0.999835
0.999414 1 0.999738 0.999677
0.999023 1 0.999151 0.999873
0.999 1 0.999093 0.999907
0.999747 1 1 0.999747
0.999839 1 1 0.999839
0.999837 1 1 0.999837
0.999749 1 1 0.999749
0.999797 1 1 0.999797
0.999789 1 1 0.999789
0.999786 1 1 0.999786
0.999757 1 1 0.999757
0.999762 1 1 0.999762
0.999738 1 1 0.999738
0.999731 1 1 0.999731
0.999738 1 1 0.999738
0.99971 1 1 0.99971
0.999691 1 1 0.999691
0.999818 1 1 0.999818
0.999756 1 1 0.999756
0.999717 1 1 0.999717
0.999934 1 1 0.999934
0.999838 1 1 0.999838
0.999783 1 1 0.999783
1 1 1 1
0.999945 1 1 0.999945
0.999849 1 1 0.999849
1 1 1 1
1 1 1 1
0.999954 1 1 0.999954
1 1 1 1
1 1 1 1
1 1 1 1
0.999788 1 1 0.999788
0.999795 1 1 0.999795
0.999833 1 1 0.999833
0.999779 1 1 0.999779
0.999838 1 1 0.999838
0.999949 1 1 0.999949
0.999847 1 1 0.999847
0.999958 1 1 0.999958
1 1 1 1
1 1 1 1
1 1 1 1
0.999968 1 1 0.999968
1 1 1 1
1 1 1 1
1 1 1 1
0.969342 0.970669 1.00031 0.998325
0.965686 0.97192 0.993938 0.999645
0.993042 0.995032 0.998049 0.999951
0.99974 1 1 0.99974
0.999774 1 1 0.999774
0.999748 1 1 0.999748
0.999775 1 1 0.999775
0.999768 1 1 0.999768
0.999758 1 1 0.999758
0.99971 1 1 0.99971
0.999733 1 1 0.999733
0.999701 1 1 0.999701
0.999729 1 1 0.999729
0.99969 1 1 0.99969
0.999629 1 1.00011 0.999514
0.999735 1 1.00006 0.999678
0.999699 1 1 0.999699
0.991221 0.994079 0.997342 0.999782
0.972434 0.973864 1.00027 0.998266
0.957882 0.966362 0.991965 0.999253
0.977184 0.975316 1.00371 0.998212
0.998323 0.99451 1.00392 0.999917
0.993501 0.997094 0.996548 0.999848
0.996986 1.00419 0.993332 0.999493
1.00335 1.00047 1.00338 0.999499
1.00529 1 1.00562 0.999674
0.998444 1.0007 0.99793 0.999818
0.988153 0.986386 1.00245 0.999346
0.965608 0.966874 1.00035 0.99834
0.965511 0.971839 0.993834 0.999652
0.981628 1.00946 0.972949 0.999465
0.992157 1.00773 0.984795 0.999745
0.969774 0.96849 1.0026 0.998732
0.980865 1.00762 0.973912 0.999523
0.993809 0.993982 1.00021 0.999621
0.984231 1.00298 0.981634 0.999664
1.00205 1 1.00249 0.999564
0.996868 1.00011 0.997066 0.999691
0.996309 1.00018 0.99629 0.999836
0.997135 1 0.997308 0.999826
0.998909 1 0.999038 0.999871
0.999116 1 0.999214 0.999902
0.999606 1 0.999799 0.999807
0.999834 1 1 0.999834
0.999832 1 1 0.999832
0.999762 1 1 0.999762
0.999793 1 1 0.999793
0.99979 1 1 0.99979
0.999744 1 1 0.999744
0.999793 1 1 0.999793
0.999762 1 1 0.999762
0.999736 1 1 0.999736
0.999737 1 1 0.999737
0.99973 1 1 0.99973
0.999745 1 1 0.999745
0.999791 1 1 0.999791
0.999742 1 1 0.999742
0.999709 1 1 0.999709
0.999916 1 1 0.999916
0.999818 1 1 0.999818
0.99976 1 1 0.99976
1 1 1 1
0.999933 1 1 0.999933
0.999838 1 1 0.999838
1 1 1 1
1 1 1 1
0.999945 1 1 0.999945
1 1 1 1
1 1 1 1
1 1 1 1
0.999785 1 1 0.999785
0.999792 1 1 0.999792
0.99983 1 1 0.99983
0.999795 1 1 0.999795
0.999833 1 1 0.999833
0.999941 1 1 0.999941
0.999834 1 1 0.999834
0.999949 1 1 0.999949
1 1 1 1
0.999958 1 1 0.999958
1 1 1 1
1 1 1 1
1 1 1 1
1 1 1 1
1 1 1 1
0.984617 0.986272 0.998582 0.999739
0.965122 0.967849 0.998896 0.998285
0.963133 0.970587 0.99307 0.999245
0.999752 1 1 0.999752
0.99975 1 1 0.99975
0.999775 1 1 0.999775
0.999757 1 1 0.999757
0.999767 1 1 0.999767
0.999776 1 1 0.999776
0.99973 1 1 0.99973
0.999703 1 1 0.999703
0.999734 1 1 0.999734
0.999707 1 1 0.999707
0.999606 1 1 0.999606
0.999382 1 1 0.999382
0.99965 1 1.00013 0.999521
0.999676 1 1 0.999676
0.996624 1.00034 0.996768 0.999511
0.991911 0.995444 0.996885 0.999565
0.974253 0.974818 1.00072 0.998704
0.99667 0.998577 0.998695 0.999394
1.00081 1.00433 0.997085 0.99941
1.00243 1 1.00291 0.99953
0.999813 1 1.00002 0.999793
0.989038 0.985341 1.00397 0.999778
0.963022 0.966694 0.997922 0.998277
0.98257 1.00525 0.977905 0.999523
0.990208 0.994541 0.996214 0.999427
0.987945 1.00217 0.986154 0.999646
1.00101 1 1.00139 0.999619
0.999139 1 0.999529 0.99961
0.999572 1 1 0.999572
0.995846 1.00006 0.995951 0.999837
0.997967 1 0.998138 0.999828
0.999716 1 1 0.999716
0.999281 1 0.999384 0.999897
0.999762 1 0.999957 0.999805
0.999708 1 1 0.999708
0.999828 1 1 0.999828
0.999768 1 1 0.999768
0.999697 1 1 0.999697
0.999792 1 1 0.999792
0.999744 1 1 0.999744
0.999716 1 1 0.999716
0.999766 1 1 0.999766
0.999737 1 1 0.999737
0.999736 1 1 0.999736
0.999729 1 1 0.999729
0.999742 1 1 0.999742
0.999782 1 1 0.999782
0.999896 1 1 0.999896
0.999795 1 1 0.999795
0.999746 1 1 0.999746
1 1 1 1
0.999915 1 1 0.999915
0.999818 1 1 0.999818
1 1 1 1
1 1 1 1
0.999932 1 1 0.999932
1 1 1 1
1 1 1 1
1 1 1 1
0.999769 1 1 0.999769
0.999785 1 1 0.999785
0.999827 1 1 0.999827
0.999796 1 1 0.999796
0.999832 1 1 0.999832
0.999932 1 1 0.999932
0.999833 1 1 0.999833
0.999941 1 1 0.999941
1 1 1 1
0.999949 1 1 0.999949
1 1 1 1
1 1 1 1
1 1 1 1
1 1 1 1
1 1 1 1
0.997904 1.00028 0.997869 0.999756
0.984938 0.987573 0.998008 0.999323
0.966162 0.968098 0.999659 0.998341
0.99976 1 1 0.99976
0.999708 1 1 0.999708
0.999755 1 1 0.999755
0.999757 1 1 0.999757
0.999766 1 1 0.999766
0.999772 1 1 0.999772
0.999646 1 1 0.999646
0.999739 1 1 0.999739
0.999723 1 1 0.999723
0.999608 1 1 0.999608
0.999461 1 1 0.999461
0.999537 1 0.999987 0.999547
0.999395 1 1 0.999393
0.999529 1 1 0.999529
0.998529 1.00194 0.997074 0.999526
0.990703 0.994916 0.996435 0.999328
1.00258 1.00405 0.999207 0.999328
0.99979 1 1 0.99979
1.00096 1 1.00116 0.9998
0.987383 0.98512 1.00298 0.99932
0.992037 1.00166 0.990765 0.999628
1.00001 1 1.00033 0.999676
0.998897 1.00009 0.999187 0.99962
0.999598 1 1 0.999598
0.999617 1 1 0.999617
0.999728 1 1 0.999728
0.998776 1 0.998947 0.999829
0.99972 1 1 0.999721
0.999635 1 1 0.999635
0.999803 1 1 0.999803
0.999709 1 1 0.999709
0.999651 1 1 0.999651
0.999775 1 1 0.999775
0.999697 1 1 0.999697
0.999675 1 1 0.999675
0.999744 1 1 0.999744
0.999716 1 1 0.999716
0.999716 1 1 0.999716
0.999739 1 1 0.999739
0.999736 1 1 0.999736
0.99977 1 1 0.99977
0.999738 1 1 0.999738
0.99978 1 1 0.99978
0.999878 1 1 0.999878
0.999997 1 1 0.999997
0.999895 1 1 0.999895
0.9998 1 1 0.9998
1 1 1 1
0.999999 1 1 0.999999
0.999915 1 1 0.999915
1 1 1 1
1 1 1 1
1 1 1 1
0.999734 1 1 0.999734
0.999765 1 1 0.999765
0.999815 1 1 0.999815
0.999785 1 1 0.999785
0.999827 1 1 0.999827
0.999922 1 1 0.999922
0.999835 1 1 0.999835
0.999932 1 1 0.999932
1 1 1 1
0.999941 1 1 0.999941
1 1 1 1
1 1 1 1
1 1 1 1
1 1 1 1
1 1 1 1
0.999755 1 0.999993 0.999762
0.997677 1.00006 0.997854 0.999768
0.984319 0.986214 0.998319 0.999758
0.999681 1 1 0.999681
0.999779 1 1 0.999779
0.999639 1 1 0.999639
0.999705 1 1 0.999705
0.999757 1 1 0.999757
0.999529 1 1 0.999529
0.999768 1 1 0.999768
0.999646 1 1 0.999646
0.999532 1 1 0.999532
0.99961 1 1 0.99961
0.999447 1 1 0.999447
0.999562 1.00002 0.999997 0.999541
0.999404 1 1 0.999404
1.00035 1.00337 0.997452 0.99954
0.999809 1 1 0.999809
0.999786 1 1 0.999786
1.00205 1 1.00224 0.999808
0.998702 1.00016 0.998911 0.999631
0.999624 1 1 0.999624
0.999611 1 1 0.999611
0.999732 1 1 0.999732
0.999698 1 1 0.999698
0.999725 1 1 0.999725
0.99964 1 1 0.99964
0.999629 1 1 0.999629
0.999711 1 1 0.999711
0.999648 1 1 0.999648
0.999637 1 1 0.999637
0.999697 1 1 0.999697
0.999674 1 1 0.999674
0.999682 1 1 0.999682
0.999716 1 1 0.999716
0.999716 1 1 0.999716
0.999749 1 1 0.999749
0.999736 1 1 0.999736
0.99977 1 1 0.99977
0.99986 1 1 0.99986
0.999778 1 1 0.999778
0.999878 1 1 0.999878
0.999992 1 1 0.999992
1 1 1 1
0.999996 1 1 0.999996
0.999895 1 1 0.999895
1 1 1 1
0.999999 1 1 0.999999
1 1 1 1
0.999652 1 1 0.999652
0.9997 1 1 0.9997
0.999729 1 1 0.999729
0.999797 1 1 0.999797
0.999761 1 1 0.999761
0.999815 1 1 0.999815
0.999912 1 1 0.999912
0.999827 1 1 0.999827
0.999922 1 1 0.999922
1 1 1 1
0.999932 1 1 0.999932
1 1 1 1
1 1 1 1
1 1 1 1
1 1 1 1
1 1 1 1
0.999709 1 1 0.999709
0.999846 1.0001 0.999993 0.999755
0.997973 1.00038 0.997818 0.999779
0.999576 1 1 0.999576
0.9997 1 1 0.9997
0.999797 1 1 0.999797
0.999647 1 1 0.999647
0.999702 1 1 0.999702
0.999516 1 1 0.999516
0.99952 1 1 0.99952
0.999646 1 1 0.999646
0.999527 1 1 0.999527
0.999434 1 1 0.999434
0.99973 1.00019 1 0.999535
0.999778 1 1 0.999778
0.999805 1 1 0.999805
0.999782 1 1 0.999782
0.999606 1 1 0.999606
0.999737 1 1 0.999737
0.999698 1 1 0.999698
0.999689 1 1 0.999689
0.999644 1 1 0.999644
0.999625 1 1 0.999625
0.999642 1 1 0.999642
0.999646 1 1 0.999646
0.999636 1 1 0.999636
0.999651 1 1 0.999651
0.999673 1 1 0.999673
0.999682 1 1 0.999682
0.999719 1 1 0.999719
0.999716 1 1 0.999716
0.999749 1 1 0.999749
0.999838 1 1 0.999838
0.999771 1 1 0.999771
0.99986 1 1 0.99986
0.999987 1 1 0.999987
0.999878 1 1 0.999878
0.999991 1 1 0.999991
1 1 1 1
1 1 1 1
0.999994 1 1 0.999994
1 1 1 1
0.999593 1 1 0.999593
0.999694 1 1 0.999694
0.999679 1 1 0.999679
0.999768 1 1 0.999768
0.9997 1 1 0.9997
0.999724 1 1 0.999724
0.999798 1 1 0.999798
0.999898 1 1 0.999898
0.999815 1 1 0.999815
0.999912 1 1 0.999912
0.999999 1 1 0.999999
0.999923 1 1 0.999923
1 1 1 1
1 1 1 1
1 1 1 1
1 1 1 1
1 1 1 1
0.999656 1 1 0.999656
0.999709 1 1 0.999709
0.999798 1.00005 1 0.999749
0.999544 1 1 0.999544
0.999576 1 1 0.999576
0.999718 1 1 0.999718
0.999656 1 1 0.999656
0.999517 1 1 0.999517
0.999511 1 1 0.999511
0.999522 1 1 0.999522
0.999734 1 1 0.999734
0.999763 1 1 0.999763
0.999801 1 1 0.999801
0.999686 1 1 0.999686
0.999697 1 1 0.999697
0.999687 1 1 0.999687
0.999674 1 1 0.999674
0.999622 1 1 0.999622
0.999642 1 1 0.999642
0.999647 1 1 0.999647
0.999635 1 1 0.999635
0.999651 1 1 0.999651
0.999693 1 1 0.999693
0.999681 1 1 0.999681
0.999719 1 1 0.999719
0.999812 1 1 0.999812
0.999748 1 1 0.999748
0.999838 1 1 0.999838
0.999981 1 1 0.999981
0.99986 1 1 0.99986
0.999985 1 1 0.999985
1 1 1 1
0.999989 1 1 0.999989
1 1 1 1
1 1 1 1
0.99956 1 1 0.99956
0.999632 1 1 0.999632
0.999603 1 1 0.999603
0.999746 1 1 0.999746
0.999692 1 1 0.999692
0.999706 1 1 0.999706
0.999871 1 1 0.999871
0.999767 1 1 0.999767
0.9997 1 1 0.9997
0.999798 1 1 0.999798
0.999899 1 1 0.999899
0.999995 1 1 0.999995
0.999913 1 1 0.999913
0.999999 1 1 0.999999
1 1 1 1
1 1 1 1
1 1 1 1
1 1 1 1
0.999636 1 1 0.999636
0.999644 1 1 0.999644
0.999709 1 1 0.999709
0.999537 1 1 0.999537
0.999577 1 1 0.999577
0.999518 1 1 0.999518
0.999688 1 1 0.999688
0.999737 1 1 0.999737
0.999747 1 1 0.999747
0.999683 1 1 0.999683
0.999669 1 1 0.999669
0.999685 1 1 0.999685
0.999674 1 1 0.999674
0.999671 1 1 0.999671
0.999643 1 1 0.999643
0.999648 1 1 0.999648
0.999683 1 1 0.999683
0.999651 1 1 0.999651
0.999693 1 1 0.999693
0.99979 1 1 0.99979
0.999719 1 1 0.999719
0.999811 1 1 0.999811
0.999976 1 1 0.999976
0.999838 1 1 0.999838
0.99998 1 1 0.99998
1 1 1 1
0.999984 1 1 0.999984
1 1 1 1
1 1 1 1
0.999632 1 1 0.999632
0.999589 1 1 0.999589
0.999557 1 1 0.999557
0.999696 1 1 0.999696
0.999638 1 1 0.999638
0.999614 1 1 0.999614
0.999837 1 1 0.999837
0.999736 1 1 0.999736
0.999689 1 1 0.999689
0.999987 1 1 0.999987
0.999871 1 1 0.999871
0.999767 1 1 0.999767
0.999899 1 1 0.999899
0.999997 1 1 0.999997
1 1 1 1
1 1 1 1
1 1 1 1
1 1 1 1
0.99963 1 1 0.99963
0.999632 1 1 0.999632
0.999633 1 1 0.999633
0.999529 1 1 0.999529
0.999656 1 1 0.999656
0.999692 1 1 0.999692
0.99974 1 1 0.99974
0.999679 1 1 0.999679
0.99967 1 1 0.99967
0.99968 1 1 0.99968
0.999674 1 1 0.999674
0.999672 1 1 0.999672
0.999689 1 1 0.999689
0.99965 1 1 0.99965
0.999684 1 1 0.999684
0.999779 1 1 0.999779
0.999693 1 1 0.999693
0.99979 1 1 0.99979
0.999971 1 1 0.999971
0.999811 1 1 0.999811
0.999974 1 1 0.999974
1 1 1 1
0.999978 1 1 0.999978
1 1 1 1
1 1 1 1
0.999638 1 1 0.999638
0.999628 1 1 0.999628
0.999631 1 1 0.999631
0.999646 1 1 0.999646
0.999598 1 1 0.999598
0.999553 1 1 0.999553
0.999785 1 1 0.999785
0.999696 1 1 0.999696
0.999643 1 1 0.999643
0.999975 1 1 0.999975
0.999827 1 1 0.999827
0.999725 1 1 0.999725
1 1 1 1
0.99999 1 1 0.99999
0.999872 1 1 0.999872
0.999998 1 1 0.999998
1 1 1 1
1 1 1 1
0.999641 1 1 0.999641
0.999639 1 1 0.999639
0.999628 1 1 0.999628
0.999663 1 1 0.999663
0.999655 1 1 0.999655
0.999696 1 1 0.999696
0.999672 1 1 0.999672
0.999681 1 1 0.999681
0.999712 1 1 0.999712
0.999673 1 1 0.999673
0.999696 1 1 0.999696
0.999767 1 1 0.999767
0.999684 1 1 0.999684
0.999779 1 1 0.999779
0.999967 1 1 0.999967
0.999789 1 1 0.999789
0.99997 1 1 0.99997
1 1 1 1
0.999973 1 1 0.999973
1 1 1 1
1 1 1 1
0.999641 1 1 0.999641
0.999652 1 1 0.999652
0.999637 1 1 0.999637
0.999663 1 1 0.999663
0.999631 1 1 0.999631
0.99963 1 1 0.99963
0.999752 1 1 0.999752
0.999657 1 1 0.999657
0.999607 1 1 0.999607
0.999966 1 1 0.999966
0.99978 1 1 0.99978
0.999695 1 1 0.999695
1 1 1 1
0.999979 1 1 0.999979
0.999818 1 1 0.999818
1 1 1 1
0.999993 1 1 0.999993
1 1 1 1
0.999654 1 1 0.999654
0.999641 1 1 0.999641
0.999648 1 1 0.999648
0.999695 1 1 0.999695
0.999662 1 1 0.999662
0.999654 1 1 0.999654
0.999681 1 1 0.999681
0.999712 1 1 0.999712
0.99977 1 1 0.99977
0.999703 1 1 0.999703
0.999773 1 1 0.999773
0.999963 1 1 0.999963
0.999779 1 1 0.999779
0.999966 1 1 0.999966
1 1 1 1
0.999968 1 1 0.999968
1 1 1 1
1 1 1 1
0.99966 1 1 0.99966
0.999637 1 1 0.999637
0.999679 1 1 0.999679
0.999653 1 1 0.999653
0.999637 1 1 0.999637
0.99976 1 1 0.99976
0.999662 1 1 0.999662
0.999634 1 1 0.999634
0.99996 1 1 0.99996
0.999757 1 1 0.999757
0.999668 1 1 0.999668
1 1 1 1
0.999968 1 1 0.999968
0.999776 1 1 0.999776
1 1 1 1
0.999982 1 1 0.999982
1 1 1 1
0.999691 1 1 0.999691
0.999655 1 1 0.999655
0.999642 1 1 0.999642
0.99976 1 1 0.99976
0.999695 1 1 0.999695
0.999662 1 1 0.999662
0.999712 1 1 0.999712
0.999771 1 1 0.999771
0.999959 1 1 0.999959
0.999778 1 1 0.999778
0.999962 1 1 0.999962
1 1 1 1
0.999964 1 1 0.999964
1 1 1 1
1 1 1 1
0.999685 1 1 0.999685
0.999656 1 1 0.999656
0.999632 1 1 0.999632
0.999767 1 1 0.999767
0.999679 1 1 0.999679
0.999654 1 1 0.999654
0.999959 1 1 0.999959
0.999759 1 1 0.999759
0.999661 1 1 0.999661
1 1 1 1
0.999961 1 1 0.999961
0.999762 1 1 0.999762
1 1 1 1
0.999971 1 1 0.999971
1 1 1 1
0.999769 1 1 0.999769
0.999685 1 1 0.999685
0.999656 1 1 0.999656
0.999956 1 1 0.999956
0.999762 1 1 0.999762
0.999695 1 1 0.999695
0.999771 1 1 0.999771
0.999958 1 1 0.999958
1 1 1 1
0.999961 1 1 0.999961
1 1 1 1
1 1 1 1
0.999771 1 1 0.999771
0.999684 1 1 0.999684
0.999653 1 1 0.999653
0.99996 1 1 0.99996
0.999766 1 1 0.999766
0.999679 1 1 0.999679
1 1 1 1
0.999959 1 1 0.999959
0.999759 1 1 0.999759
1 1 1 1
0.999963 1 1 0.999963
1 1 1 1
0.999955 1 1 0.999955
0.999764 1 1 0.999764
0.999679 1 1 0.999679
1 1 1 1
0.999956 1 1 0.999956
0.999763 1 1 0.999763
0.999958 1 1 0.999958
1 1 1 1
1 1 1 1
0.999958 1 1 0.999958
0.99977 1 1 0.99977
0.999682 1 1 0.999682
1 1 1 1
0.99996 1 1 0.99996
0.999766 1 1 0.999766
1 1 1 1
0.999959 1 1 0.999959
1 1 1 1
1 1 1 1
0.999956 1 1 0.999956
0.999758 1 1 0.999758
1 1 1 1
0.999955 1 1 0.999955
1 1 1 1
1 1 1 1
0.999959 1 1 0.999959
0.99977 1 1 0.99977
1 1 1 1
0.99996 1 1 0.99996
1 1 1 1
1 1 1 1
0.999956 1 1 0.999956
1 1 1 1
1 1 1 1
0.999959 1 1 0.999959
1 1 1 1
1 1 1 1
1 1 1 1

VECTORS lamdaE float
0.999027 0.999502 0.997227
0.999206 0.998527 0.998968
0.998993 0.999535 0.997264
0.998932 1.00008 0.996948
0.99893 0.999841 0.997116
0.99915 0.999039 0.997413
0.999495 1.00028 0.995436
0.999235 0.998446 0.998992
0.998797 0.999807 0.998811
0.999042 0.998898 0.99895
0.999362 0.998136 0.997839
0.999493 0.99987 0.995607
0.999176 0.999984 0.996726
0.998879 1.00013 0.997024
0.998958 0.999566 0.997304
0.998887 1.00014 0.996985
0.999126 0.999036 0.997455
0.99889 0.999897 0.997149
0.999516 1.00027 0.995436
0.999092 0.999997 0.99862
0.998993 1.00003 0.996928
0.998892 1.00004 0.997028
0.999845 1.00023 0.994875
0.999573 1.00034 0.995253
0.999291 0.998509 0.997647
0.999423 1.00012 0.9957
1.00038 1.00101 0.993072
0.999267 0.998359 0.999016
0.998831 0.999869 0.997979
0.999074 0.999001 0.998211
0.999353 0.998047 0.999062
0.999462 0.999896 0.995608
0.998862 1.00024 0.997044
0.998948 0.999659 0.997324
0.999626 1.00037 0.995576
0.999452 0.99767 0.999159
0.999487 1.00005 0.996059
0.999514 0.999566 0.995858
0.99994 1.0013 0.993325
0.999625 0.997263 0.999188
0.999164 1.00001 0.998569
0.998932 1.00008 0.997843
0.999261 0.999988 0.998504
0.998969 1.00003 0.996953
1.00025 0.999963 0.993941
0.998816 1.00014 0.998752
1.00001 1.00011 0.995184
0.998838 1.00023 0.997021
0.998848 0.999955 0.997186
0.9991 0.999024 0.997499
0.999538 1.00026 0.995435
0.999083 0.999987 0.997746
0.99895 1.00007 0.996962
0.999275 0.998475 0.997686
0.998849 1.0001 0.997063
0.999872 1.00022 0.994874
0.99944 1.00012 0.995703
0.999603 1.00031 0.995253
1.00041 1.00102 0.99303
0.999166 0.999992 0.998568
0.999028 0.999989 0.996918
1.00015 0.999968 0.995005
0.999975 1.00009 0.994791
0.999682 1.00033 0.995067
1.00132 1.00031 0.992007
1.00064 1.00071 0.992652
0.999456 0.998007 0.997851
0.999398 0.999802 0.996053
1.00007 1.00124 0.993404
1.00096 1.00096 0.991696
0.998857 0.999689 0.998799
0.999389 0.997965 0.999096
0.999112 0.998818 0.99894
0.999429 0.999932 0.995609
0.998853 1.00005 0.99872
0.998923 0.999438 0.99884
0.999558 1.00048 0.9948
0.999472 0.997711 0.998565
0.99945 1.00017 0.995366
0.999503 0.999513 0.996199
0.999932 1.00132 0.993312
0.999547 0.997472 0.999162
0.99978 0.998502 0.996395
0.999751 1.0004 0.994537
0.999517 1.00039 0.995027
1.00061 1.00078 0.992525
0.999584 0.999118 0.996714
1.00007 1.00115 0.993233
0.99988 1.00131 0.99344
1.0003 1.00155 0.992347
0.99969 0.997061 0.999218
0.999636 0.997242 0.999197
0.998928 1.00007 0.998689
0.999112 1.00001 0.998602
0.99924 0.999989 0.998518
0.999022 1.00003 0.997777
1.00024 0.99996 0.994429
0.998847 1.00012 0.997874
0.999965 1.00009 0.994785
0.999255 0.99998 0.998509
1.00035 0.999904 0.993764
1.00012 1.00003 0.995051
1.00188 0.999839 0.990942
0.999871 1.00024 0.995276
1.0015 1.00014 0.991411
0.999127 0.999961 0.996817
0.998906 1.00012 0.996995
0.999255 0.998431 0.997727
0.998802 1.00018 0.997101
0.9999 1.00018 0.994874
0.999633 1.00028 0.995252
0.999459 1.00012 0.995704
1.00045 1.00102 0.992989
0.9992 0.999992 0.998543
0.998993 0.999992 0.996958
1.00017 0.999956 0.994335
0.999999 1.00008 0.994781
0.999417 0.997975 0.99847
0.999428 0.999789 0.996185
0.999715 1.0003 0.995069
1.00131 1.00029 0.991919
1.00011 1.00126 0.993354
1.00067 1.00072 0.992708
1.00095 1.00096 0.991703
1.00027 0.99994 0.993883
1.00003 0.999991 0.994777
1.00178 0.999839 0.991371
1.00151 1.00004 0.991669
1.00098 1.00049 0.992257
1.00202 1.00016 0.990628
0.999517 0.997654 0.999138
1.00122 1.00062 0.991484
0.999526 0.999396 0.995977
0.999854 1.00131 0.993414
1.00065 1.00141 0.991912
1.0013 1.00084 0.991159
0.999719 0.998725 0.996253
1.00006 1.00047 0.993919
0.998832 0.999958 0.998738
0.998953 0.999285 0.998873
0.999507 1.00057 0.994803
0.999491 0.997665 0.999148
0.999488 0.9995 0.995909
0.999391 1.00026 0.995351
0.999925 1.00133 0.993299
0.999562 0.997452 0.99917
0.999787 0.998469 0.996403
0.999712 1.00038 0.994983
0.999466 1.00037 0.995444
1.00061 1.00077 0.992534
0.999599 0.999088 0.996165
1.00006 1.00116 0.99323
0.999859 1.00134 0.993433
1.00031 1.00154 0.992325
0.999692 0.998787 0.996284
0.999845 0.99824 0.996533
1.00007 1.0004 0.993953
1.00096 1.00052 0.992081
1.00028 1.00102 0.992961
1.00119 1.00081 0.991392
0.99994 1.001 0.993628
1.0005 1.00121 0.992273
1.00015 1.0019 0.992386
1.00041 1.00179 0.991962
0.999747 0.99686 0.999253
0.999699 0.997037 0.999229
0.999647 0.99722 0.999206
0.999784 0.998447 0.99642
0.999587 0.997441 0.999172
0.998861 1.00007 0.998708
0.999012 1.00004 0.998658
0.999952 1.00009 0.994368
1.00021 0.999949 0.993996
0.999215 0.999989 0.998537
0.999264 0.999982 0.998501
1.00035 0.999902 0.99377
1.00008 1.00001 0.994653
1.00188 0.999842 0.990944
0.999823 1.00026 0.99446
1.00149 1.00015 0.991417
1.00037 0.999895 0.993716
1.00205 0.999756 0.990674
1.00169 0.999964 0.991197
1.00261 0.999678 0.989691
1.00126 1.00032 0.991699
1.0022 0.999941 0.990263
0.999233 0.999992 0.99852
0.998956 0.999993 0.996999
1.00017 0.999957 0.993688
1.00002 1.00006 0.994772
0.99937 0.997939 0.999103
0.999459 0.999788 0.996318
0.999749 1.00026 0.99507
1.00131 1.00028 0.991831
1.0007 1.00074 0.992764
1.00016 1.00128 0.993303
1.00094 1.00096 0.99171
1.00028 0.999938 0.993874
1.00006 0.999979 0.994764
1.00176 0.999842 0.991188
1.00153 1.00007 0.991728
0.999496 0.997678 0.999127
0.999525 0.999408 0.996264
0.999903 1.00131 0.993541
1.00097 1.00049 0.992266
1.002 1.00012 0.990527
1.00061 1.00141 0.991895
1.00126 1.00063 0.991524
1.00129 1.00083 0.991171
0.999706 0.998771 0.996248
1.00006 1.00045 0.993922
1.00197 0.999767 0.99084
1.00163 0.999902 0.991575
1.00251 0.99973 0.990074
1.00225 0.999812 0.990167
1.00154 1.00038 0.991177
1.0024 0.99983 0.990139
0.999619 0.99904 0.996117
1.00162 1.00037 0.990986
0.999857 1.00121 0.993537
1.00026 1.00163 0.992225
1.00098 1.00152 0.991345
1.00151 1.00059 0.991046
1.00002 1.00076 0.993701
1.00007 1.00009 0.994274
1.00021 1.00157 0.992556
0.999663 1.00046 0.99459
0.999577 0.997431 0.999178
0.999794 0.998438 0.996411
0.9994 1.00049 0.995088
1.0006 1.00075 0.992544
0.999593 0.999058 0.996153
0.999838 1.00137 0.993427
1.00005 1.00116 0.993226
1.00031 1.00152 0.992302
0.9997 0.998749 0.996289
0.999847 0.998216 0.996543
1.00007 1.00041 0.993952
1.00096 1.00052 0.992089
1.00027 1.001 0.992969
1.00118 1.00081 0.991394
0.999914 1.00105 0.993626
1.00051 1.00121 0.992313
1.00014 1.0019 0.99238
1.00041 1.00178 0.99192
0.999892 0.997998 0.996689
1.00003 1.00066 0.993783
1.00008 1.00012 0.994204
1.00021 1.00145 0.992686
1.00159 1.00048 0.990919
1.00078 1.00108 0.99195
1.0015 1.00078 0.990808
1.00013 1.00179 0.992532
1.00069 1.00132 0.991891
1.00018 1.00241 0.991798
1.00051 1.00181 0.991611
1.00013 0.999173 0.995066
0.999964 0.9976 0.996943
0.999799 0.99667 0.999288
0.999754 0.996836 0.999264
0.999707 0.997013 0.99924
0.999827 0.998174 0.996617
0.999638 0.997228 0.999213
0.999775 0.998485 0.996408
0.999576 0.99746 0.999162
0.999815 1.00027 0.99447
1.00008 0.999997 0.994218
1.00148 1.00015 0.991422
1.00187 0.999846 0.990946
1.00034 0.999901 0.993776
0.999272 0.999984 0.998498
1.00038 0.999897 0.993711
1.00205 0.999754 0.990676
1.00168 0.999973 0.991199
1.00262 0.999683 0.989691
1.00125 1.00033 0.991707
1.0022 0.999937 0.990264
1.00208 0.999728 0.990641
1.0028 0.999624 0.989387
1.00243 0.999759 0.98999
1.00295 0.999411 0.989344
1.00192 1.00019 0.990562
1.00258 0.999611 0.989858
1.00029 0.999938 0.993864
1.00009 0.999974 0.99475
1.00175 0.999834 0.991004
1.00154 1.0001 0.991786
0.999476 0.997702 0.999116
0.999528 0.999421 0.996542
0.999952 1.0013 0.993667
1.00097 1.0005 0.992275
1.00199 1.00008 0.990425
1.00129 1.00063 0.991564
1.00056 1.00142 0.991878
1.00128 1.00083 0.991183
0.999695 0.998816 0.996243
1.00007 1.00043 0.993926
1.00195 0.999765 0.990776
1.00164 0.999907 0.991575
1.00251 0.999709 0.990025
1.00226 0.999858 0.990278
0.999615 0.99908 0.996116
0.999882 1.00119 0.993542
1.00026 1.00163 0.992294
1.00158 1.0004 0.991172
1.00238 0.99977 0.990118
1.00094 1.00153 0.991266
1.00162 1.00037 0.990987
1.00149 1.00057 0.991035
1.00004 1.00072 0.993707
1.00022 1.00154 0.992543
1.00007 1.00009 0.994269
1.00268 0.999684 0.989776
1.0024 0.999731 0.990173
1.00286 0.999584 0.989436
1.00267 0.999528 0.989769
1.00189 1.00004 0.99067
1.0026 0.999324 0.99019
0.99993 1.00101 0.993612
1.0018 1.00005 0.990935
1.00018 1.00162 0.992568
1.00043 1.00196 0.991576
1.00114 1.00157 0.990852
1.00163 1.00031 0.99124
1.00008 0.999716 0.994625
1.00021 1.00154 0.99258
1.00019 1.00144 0.992619
1.00022 1.00209 0.99211
1.00096 1.00051 0.992098
0.99985 0.998191 0.996554
0.999709 0.99871 0.996293
1.00006 1.00043 0.993951
1.00026 1.00099 0.992977
1.00117 1.00081 0.991397
0.999887 1.00109 0.993625
1.00013 1.00191 0.992375
1.00052 1.00122 0.992353
1.0004 1.00178 0.991878
0.99989 0.997981 0.996698
1.00002 1.00069 0.99378
1.00008 1.00012 0.994207
1.0002 1.00146 0.992678
1.00159 1.00048 0.990914
1.00076 1.00108 0.99196
1.0015 1.00078 0.990812
1.00011 1.0018 0.992535
1.0007 1.00133 0.991935
1.00019 1.00242 0.99178
1.00049 1.00178 0.991724
0.99993 0.99778 0.996835
1.00009 0.999831 0.994483
1.0002 1.00154 0.992633
1.0002 1.0013 0.992846
1.0002 1.00206 0.992074
1.00194 1.00034 0.990367
1.001 1.00113 0.991447
1.00161 1.0008 0.990579
1.00013 1.00243 0.991906
1.00078 1.00143 0.991594
1.00028 1.00266 0.991115
1.00013 0.999336 0.994918
1.00016 1.00034 0.993888
1.00014 0.999051 0.995184
1.00013 0.99918 0.995067
0.999984 0.997425 0.997486
0.999958 0.997584 0.99718
0.999873 0.996526 0.998412
0.999806 0.996647 0.999298
0.999761 0.996811 0.999275
0.999864 0.997931 0.996794
0.999686 0.997008 0.999257
0.999826 0.9982 0.996604
0.999632 0.997254 0.9992
0.999767 0.998524 0.996397
0.999564 0.99748 0.999152
1.00125 1.00034 0.991715
1.00168 0.99998 0.991201
1.0022 0.999941 0.990264
1.00263 0.999687 0.98969
1.00206 0.99975 0.990678
1.00038 0.9999 0.993707
1.00209 0.999723 0.990637
1.0028 0.999625 0.989389
1.00243 0.999766 0.989992
1.00297 0.999397 0.989319
1.00192 1.00019 0.990557
1.00258 0.999621 0.989857
1.00283 0.999621 0.989339
1.00308 0.99942 0.989032
1.00281 0.999418 0.989578
1.00316 0.999091 0.989304
1.00227 0.999953 0.990107
1.00278 0.99901 0.990079
1.00194 0.999765 0.990711
1.00164 0.999904 0.991574
1.00251 0.999694 0.989975
1.00227 0.999904 0.990389
0.999611 0.999118 0.996115
0.999907 1.00116 0.993546
1.00027 1.00162 0.992364
1.00161 1.00042 0.991166
1.00236 0.999709 0.990097
1.00162 1.00036 0.990988
1.00089 1.00154 0.991188
1.00146 1.00056 0.991024
1.00005 1.00069 0.993714
1.00023 1.00151 0.992529
1.00006 1.0001 0.994265
1.00268 0.99968 0.989674
1.00241 0.999709 0.990174
1.00286 0.999566 0.989383
1.00268 0.999545 0.989786
0.999954 1.00097 0.993618
1.0002 1.00161 0.992561
1.00042 1.00198 0.991656
1.00191 1.00009 0.990698
1.00258 0.999226 0.99024
1.00109 1.00163 0.990777
1.0018 1.00004 0.990938
1.0016 1.00023 0.991276
1.00022 1.00152 0.99259
1.00023 1.00208 0.992061
1.00007 0.99973 0.994619
1.00019 1.0014 0.992666
1.00298 0.999578 0.989122
1.00284 0.999495 0.989565
1.00304 0.999463 0.989138
1.00288 0.999136 0.98971
1.00211 0.999594 0.990724
1.00281 0.998692 0.990425
1.00017 1.00157 0.992628
1.00187 0.999477 0.991339
1.00022 1.00196 0.99201
1.00059 1.00239 0.991004
1.00124 1.00165 0.990485
1.00175 1.00009 0.991259
1.00009 0.999473 0.994855
1.00018 1.00106 0.992987
1.00025 1.00188 0.992183
1.00016 1.00226 0.991991
1.00027 1.00218 0.99193
0.999889 0.997963 0.996708
1.0016 1.00049 0.99091
1.00009 1.00011 0.99421
1 1.00073 0.993776
1.00019 1.00147 0.992669
1.00075 1.00108 0.99197
1.00149 1.00078 0.990815
1.00009 1.00182 0.992538
1.0002 1.00243 0.991762
1.00071 1.00134 0.991978
1.00047 1.00175 0.991836
0.999928 0.997766 0.996842
1.00009 0.999821 0.994487
1.00019 1.00155 0.992629
1.00019 1.00131 0.992841
1.0002 1.00206 0.992063
1.00195 1.00034 0.99036
1.00099 1.00114 0.99145
1.00161 1.0008 0.990556
1.00012 1.00243 0.991916
1.00079 1.00144 0.991626
1.00033 1.00264 0.991171
1.00011 0.999559 0.994727
1.0002 1.00103 0.993103
1.00022 1.0021 0.992042
1.00018 1.00204 0.992161
1.00019 1.00237 0.991818
1.00208 1.00019 0.990209
1.0011 1.00119 0.991172
1.00151 1.00074 0.990681
1.00013 1.00299 0.991311
1.00071 1.00242 0.99075
1.00012 0.999335 0.994922
1.00019 1.00053 0.993529
1.00016 1.00036 0.993812
1.00013 1.00124 0.99316
1.00013 1.00028 0.993985
1.00014 0.99896 0.995274
1.00014 0.999062 0.995184
1.00002 0.997276 0.997561
1.00013 0.999189 0.995068
0.999988 0.997419 0.997497
0.999922 0.996364 0.998472
0.999953 0.99757 0.997415
0.99986 0.996494 0.99887
0.999812 0.996626 0.999307
0.999901 0.997729 0.996925
0.999868 0.997944 0.996783
0.999739 0.996797 0.999294
0.999682 0.997037 0.999244
0.999825 0.998225 0.99659
0.999626 0.99728 0.999187
1.00193 1.0002 0.990553
1.00243 0.999767 0.989995
1.00258 0.999629 0.989857
1.00298 0.999383 0.989295
1.00281 0.999625 0.989392
1.0021 0.999718 0.990634
1.00283 0.999617 0.989341
1.00309 0.99944 0.988987
1.00281 0.999427 0.989581
1.00317 0.999065 0.989302
1.00228 0.999961 0.990096
1.00279 0.998971 0.990091
1.00312 0.999513 0.988887
1.0032 0.999336 0.988918
1.00304 0.99881 0.989642
1.00328 0.998994 0.989265
1.00247 0.999472 0.990133
1.00302 0.998407 0.99034
1.00269 0.999673 0.989573
1.00242 0.999691 0.990175
1.00285 0.999548 0.98933
1.0027 0.999559 0.989804
0.999976 1.00093 0.993623
1.00022 1.0016 0.992553
1.0004 1.00199 0.991736
1.00193 1.00015 0.990727
1.00257 0.999126 0.99029
1.00181 1.00003 0.990942
1.00104 1.00169 0.990702
1.00157 1.00014 0.991313
1.00023 1.0015 0.9926
1.00024 1.00207 0.992011
1.00007 0.999743 0.994612
1.0002 1.00136 0.992712
1.00298 0.999578 0.989126
1.00283 0.999491 0.98958
1.00301 0.999473 0.989147
1.00289 0.999139 0.989721
1.00019 1.00155 0.992629
1.00022 1.00195 0.992073
1.00057 1.00243 0.990998
1.00213 0.999667 0.990687
1.0027 0.998623 0.990614
1.00123 1.00172 0.990444
1.00187 0.999492 0.991352
1.0017 0.99989 0.991381
1.00026 1.00188 0.992184
1.00027 1.00215 0.991923
1.00015 1.00229 0.991974
1.00009 0.999475 0.994764
1.0002 1.00101 0.993039
1.00315 0.999508 0.988878
1.00313 0.999289 0.989105
1.00306 0.998632 0.989886
1.00239 0.99874 0.991023
1.00022 1.00186 0.992258
1.0021 0.998831 0.991739
1.00016 1.00236 0.991592
1.00075 1.00288 0.990202
1.00147 1.00157 0.990147
1.0001 0.999296 0.994851
1.00019 1.0007 0.993514
1.00013 1.00197 0.992323
1.00027 1.00195 0.992079
1.00018 1.00272 0.991548
1.00031 1.00215 0.99178
0.999926 0.997753 0.996849
1.0001 0.999812 0.994491
1.00196 1.00034 0.990354
1.00019 1.00133 0.992835
1.00017 1.00156 0.992625
1.0002 1.00207 0.992053
1.00099 1.00114 0.991453
1.0016 1.0008 0.990533
1.0001 1.00242 0.991926
1.00039 1.00261 0.991228
1.00079 1.00144 0.991658
1.00011 0.999551 0.994731
1.0002 1.00104 0.9931
1.0002 1.00209 0.99208
1.00018 1.00206 0.992152
1.00018 1.00239 0.991788
1.00208 1.00024 0.990191
1.00112 1.00118 0.991154
1.00156 1.00071 0.990699
1.00011 1.00299 0.991266
1.00071 1.00253 0.990651
1.0002 1.00076 0.993384
1.00019 1.00188 0.992224
1.0002 1.00257 0.991652
1.00018 1.00244 0.99169
1.00024 1.00248 0.991572
1.00236 0.998921 0.990882
1.00118 1.00181 0.990509
1.00161 1.00034 0.990496
1.00034 1.00332 0.990797
1.00066 1.00295 0.989782
1.00012 0.999335 0.994926
1.00018 1.00053 0.993577
1.00017 1.00143 0.992714
1.00016 1.00037 0.993737
1.00013 1.00029 0.993984
1.00014 1.00124 0.993054
1.00013 1.0019 0.992484
1.00012 1.00117 0.993057
1.00012 1.00023 0.99407
1.00015 0.998915 0.995316
1.00014 0.998963 0.995275
1.00005 0.997147 0.99762
1.00013 0.999072 0.995184
1.00002 0.997273 0.997571
0.999961 0.996227 0.998521
0.999991 0.997413 0.997509
0.999916 0.996337 0.998469
0.999844 0.996456 0.999332
0.99994 0.997559 0.997022
0.999906 0.997737 0.996918
0.999794 0.996609 0.999322
0.999871 0.997957 0.996773
0.999734 0.996824 0.999284
0.999677 0.997065 0.99923
1.00228 0.999969 0.990084
1.00282 0.999437 0.989585
1.0028 0.998931 0.990103
1.00318 0.99904 0.989299
1.00311 0.99946 0.988943
1.00284 0.999615 0.989342
1.00313 0.99952 0.988871
1.00319 0.999345 0.988934
1.00308 0.99884 0.989585
1.00325 0.998967 0.989236
1.00247 0.99953 0.990127
1.00296 0.998228 0.990515
1.00322 0.999462 0.988736
1.0032 0.999271 0.989
1.00323 0.998483 0.989702
1.0028 0.998247 0.990807
1.00297 0.999577 0.989129
1.00283 0.999485 0.989594
1.00299 0.999483 0.989156
1.0029 0.999143 0.989733
1.00021 1.00153 0.99263
1.00022 1.00193 0.992137
1.00056 1.00246 0.990992
1.00216 0.999741 0.990649
1.00259 0.998559 0.990804
1.00186 0.999507 0.991365
1.00121 1.00179 0.990403
1.00165 0.999701 0.991502
1.00027 1.00187 0.992186
1.00027 1.00212 0.991916
1.00015 1.00232 0.991958
1.00008 0.999478 0.994674
1.00021 1.00096 0.993091
1.00312 0.99949 0.988914
1.00312 0.999304 0.989138
1.00302 0.998671 0.989956
1.00024 1.00185 0.992251
1.00022 1.00234 0.991676
1.00071 1.00295 0.990186
1.00242 0.998799 0.990948
1.00144 1.00143 0.990335
1.00203 0.998831 0.991702
1.0001 0.999273 0.994873
1.00028 1.00196 0.992071
1.0003 1.0021 0.991841
1.00018 1.00273 0.991529
1.00014 1.00197 0.992356
1.00019 1.00069 0.993438
1.00319 0.999454 0.988878
1.00331 0.999032 0.989009
1.00299 0.998237 0.99029
1.00274 0.997578 0.991604
1.00023 1.00207 0.992024
1.00193 1.00008 0.990684
1.00027 1.00308 0.990789
1.00089 1.00337 0.989556
1.0001 0.999138 0.995003
1.00017 1.00043 0.993829
1.00016 1.00166 0.992683
1.00013 1.00277 0.991532
1.00029 1.00212 0.991866
1.00026 1.00259 0.991439
1.00011 0.999541 0.994736
1.0002 1.00105 0.993097
1.00207 1.00028 0.990173
1.00018 1.00207 0.992144
1.00019 1.00207 0.992119
1.00016 1.00243 0.991757
1.00114 1.00117 0.991136
1.00161 1.00067 0.990717
1.00009 1.00299 0.991221
1.00072 1.00264 0.990551
1.0002 1.00076 0.993385
1.00019 1.0019 0.992244
1.00019 1.00255 0.991707
1.00018 1.00247 0.99172
1.0002 1.00251 0.991621
1.00243 0.998965 0.990898
1.00122 1.00172 0.990541
1.00161 1.00038 0.99072
1.00029 1.00334 0.990738
1.00073 1.00316 0.989694
1.00019 1.00164 0.992481
1.00019 1.00251 0.991596
1.00022 1.00297 0.991213
1.00019 1.00272 0.991306
1.00353 0.997237 0.990636
1.00243 0.99857 0.990921
1.00129 1.00235 0.989653
1.0003 1.00413 0.989576
1.00018 1.00054 0.993625
1.00017 1.00144 0.992754
1.00016 1.00208 0.992178
1.00013 1.00029 0.993983
1.00015 1.00124 0.992947
1.00012 1.00023 0.99407
1.00014 1.00191 0.992398
1.00012 1.00117 0.993098
1.00015 1.00239 0.991917
1.00012 1.0018 0.992433
1.0001 1.00113 0.993142
1.00012 1.00018 0.99414
1.00014 0.998912 0.995324
1.00015 0.998909 0.995318
1.00007 0.997081 0.997633
1.00014 0.998964 0.995276
1.00005 0.997153 0.997625
0.999997 0.996111 0.998555
1.00002 0.997269 0.997582
0.999958 0.996198 0.998517
0.99991 0.996311 0.998465
0.999978 0.997396 0.997109
0.999944 0.997565 0.997017
0.999847 0.99644 0.999345
0.999911 0.997744 0.996912
0.999788 0.996632 0.999314
0.999729 0.99685 0.999273
1.00246 0.999586 0.99012
1.00311 0.998869 0.989528
1.00291 0.998051 0.99069
1.00323 0.998937 0.989207
1.00318 0.999351 0.98895
1.00313 0.999526 0.988855
1.0032 0.999467 0.988785
1.00319 0.999264 0.989009
1.00321 0.998478 0.989734
1.00282 0.998173 0.990782
1.00317 0.999454 0.988867
1.00326 0.998927 0.989307
1.00327 0.997896 0.990156
1.00309 0.999473 0.988949
1.00311 0.99932 0.98917
1.00299 0.998708 0.990027
1.00026 1.00184 0.992243
1.00028 1.00233 0.99176
1.00068 1.00303 0.99017
1.00245 0.998856 0.990874
1.00196 0.998832 0.991664
1.0014 1.00129 0.990523
1.00028 1.00197 0.992063
1.00028 1.00205 0.991902
1.00018 1.00274 0.99151
1.00009 0.99925 0.994894
1.00015 1.00196 0.992389
1.00019 1.00069 0.993363
1.00318 0.999446 0.98887
1.00332 0.999011 0.989
1.00304 0.998303 0.99019
1.00025 1.00207 0.992007
1.00025 1.00302 0.990928
1.0009 1.00333 0.989592
1.00268 0.997651 0.991658
1.00194 0.999991 0.990674
1.0001 0.999125 0.995093
1.00017 1.00043 0.993834
1.00026 1.00212 0.991863
1.00027 1.00257 0.99147
1.00013 1.00274 0.991568
1.00016 1.00168 0.992616
1.00321 0.99928 0.988963
1.00341 0.998655 0.989177
1.0032 0.996861 0.991265
1.00278 0.99773 0.99171
1.00014 1.00258 0.991615
1.00119 1.00318 0.989102
1.00043 1.00372 0.990183
1.00012 0.99898 0.995293
1.00012 0.999999 0.994295
1.00014 1.00027 0.993865
1.00014 1.00144 0.992865
1.00011 1.00242 0.991879
1.00012 1.00328 0.991028
1.00029 1.00205 0.991774
1.00021 1.00328 0.991299
1.0002 1.00076 0.993387
1.00019 1.00192 0.992264
1.0025 0.999005 0.990915
1.00017 1.0025 0.99175
1.00018 1.00252 0.991761
1.00016 1.00253 0.991671
1.00126 1.00162 0.990572
1.00162 1.00042 0.990943
1.00024 1.00335 0.990679
1.00081 1.00336 0.989605
1.00019 1.00167 0.992442
1.00019 1.0025 0.991649
1.0002 1.00293 0.991272
1.00023 1.00274 0.991352
1.00349 0.997147 0.990666
1.00237 0.998833 0.990899
1.00134 1.00227 0.989765
1.00038 1.00409 0.989516
1.00016 1.00234 0.991925
1.00369 0.997595 0.989687
1.00019 1.00302 0.99124
1.00022 1.00345 0.9907
1.00372 0.996617 0.990549
1.00202 1.00104 0.989453
1.00076 1.00429 0.989046
1.00016 1.00146 0.992794
1.00015 1.00209 0.99218
1.00014 1.00261 0.991681
1.00012 1.00023 0.994071
1.00011 1.00117 0.99314
1.00015 1.00191 0.992312
1.00012 1.00016 0.994143
1.0001 1.00114 0.993132
1.00017 1.00239 0.991847
1.00011 1.00181 0.992516
1.00023 1.00264 0.991498
1.00017 1.00229 0.991874
1.00011 1.00173 0.992637
1.00008 1.00104 0.993338
1.00012 1.00013 0.994174
1.00013 0.998926 0.995324
1.00014 0.998912 0.995325
1.00008 0.997071 0.997617
1.00014 0.998905 0.995321
1.00007 0.9971 0.997631
1.00003 0.996056 0.998551
1.00005 0.99716 0.99763
0.999995 0.996081 0.998554
0.999954 0.99617 0.998513
1.00013 0.998837 0.995412
1.00002 0.997239 0.997193
0.999981 0.997405 0.997105
0.999896 0.996285 0.999366
0.999948 0.997572 0.997013
0.999841 0.996463 0.999338
0.999782 0.996654 0.999306
1.00284 0.998099 0.990757
1.00319 0.998472 0.989766
1.00318 0.999257 0.989018
1.00318 0.999473 0.988834
1.00316 0.999461 0.988882
1.00326 0.998949 0.989247
1.00322 0.997877 0.990276
1.00311 0.999288 0.989158
1.00338 0.998561 0.989411
1.00328 0.998082 0.989752
1.00317 0.999437 0.988862
1.00333 0.998995 0.988991
1.00308 0.998368 0.990091
1.00027 1.00208 0.991991
1.00023 1.00295 0.991068
1.00091 1.00326 0.989628
1.00261 0.997722 0.991711
1.00195 0.999908 0.990663
1.00023 1.00212 0.991861
1.00027 1.00254 0.991502
1.00012 1.00271 0.991603
1.00011 0.999109 0.995184
1.00016 1.00043 0.993838
1.00016 1.00171 0.992548
1.0032 0.999255 0.989008
1.00012 0.998977 0.995291
1.00012 0.999997 0.994243
1.00344 0.99864 0.989174
1.00315 0.997079 0.991087
1.00012 1.00253 0.991689
1.00043 1.00386 0.99
1.0012 1.00298 0.989159
1.00269 0.997689 0.991674
1.00014 1.00028 0.994012
1.00014 1.00144 0.992864
1.00034 1.00211 0.991741
1.00016 1.00292 0.991467
1.00009 1.00337 0.990936
1.00013 1.00241 0.991885
1.00321 0.998831 0.989395
1.00347 0.998104 0.989754
1.00349 0.995409 0.992327
1.00197 1.00055 0.990059
1.00019 1.00288 0.991338
1.00065 1.00463 0.988919
1.00011 0.999898 0.9943
1.00012 1.00013 0.994154
1.00007 1.00095 0.993595
1.00011 1.00128 0.992959
1.00012 1.00219 0.992197
1.00006 1.00303 0.991291
1 1.00409 0.990558
1.00005 1.00289 0.991523
1.00019 1.0017 0.992402
1.00019 1.00248 0.991703
1.00344 0.997066 0.990696
1.00232 0.999117 0.990877
1.00026 1.00276 0.991397
1.00019 1.0029 0.99133
1.0014 1.00222 0.989877
1.00046 1.00407 0.989457
1.00015 1.00234 0.991924
1.00364 0.997527 0.989705
1.00018 1.00297 0.991252
1.00024 1.00343 0.990576
1.00366 0.996654 0.990493
1.00212 1.00096 0.989473
1.0007 1.00438 0.989052
1.00013 1.00295 0.991407
1.0046 0.996137 0.989388
1.00034 1.00316 0.990944
1.00043 1.00424 0.989797
1.00324 0.997994 0.989701
1.00107 1.00347 0.988821
1.00287 1.0016 0.988638
1.00015 1.0021 0.992182
1.00013 1.00261 0.991684
1.00023 1.0028 0.991366
1.00012 1.00015 0.994147
1.0001 1.00115 0.993121
1.00011 1.00182 0.992599
1.00018 1.0024 0.991777
1.00012 1.00013 0.994173
1.00009 1.00105 0.993279
1.00023 1.00263 0.991466
1.00011 1.00173 0.992634
1.00016 1.0023 0.991951
1.00032 1.00255 0.991374
1.00013 1.00213 0.992228
1.00012 1.00165 0.992741
1.00009 1.001 0.993256
1.00012 1.00014 0.994046
1.00008 1.00107 0.993427
1.00011 1.00018 0.994025
1.00013 0.998943 0.995318
1.00013 0.998929 0.995324
1.0001 0.997089 0.997187
1.00014 0.998912 0.995325
1.00009 0.997091 0.997403
1.00002 0.996003 0.999381
1.00007 0.997118 0.997629
1.00003 0.996022 0.998553
0.999993 0.996051 0.998552
1.00014 0.998723 0.995509
1.00013 0.998833 0.995411
1.00005 0.997101 0.99727
1.00001 0.997247 0.997398
0.999939 0.996149 0.999385
0.999984 0.997414 0.997102
0.99989 0.996306 0.99936
0.999835 0.996483 0.999331
1.00316 0.997854 0.990397
1.00326 0.998973 0.989187
1.00316 0.99947 0.988897
1.00312 0.999285 0.989151
1.00329 0.998565 0.989509
1.0033 0.998352 0.989644
1.00314 0.998771 0.989638
1.0041 0.996624 0.990229
1.00362 0.997278 0.990209
1.00011 0.999836 0.994478
1.00319 0.999228 0.989053
1.00347 0.998619 0.989171
1.00311 0.997285 0.99091
1.00011 1.00248 0.991762
1.00043 1.00401 0.989817
1.00121 1.00272 0.989216
1.00261 0.997683 0.991637
1.00038 1.00215 0.991708
1.00012 1.00259 0.991636
1.00007 1.00346 0.990845
1.00012 0.998976 0.995289
1.00015 1.00238 0.991891
1.00013 1.00028 0.994159
1.00014 1.00143 0.992863
1.00011 0.999993 0.994191
1.00324 0.998793 0.989392
1.00011 0.999893 0.994359
1.00012 1.00014 0.99415
1.00007 1.00094 0.993479
1.00351 0.997899 0.989786
1.00336 0.995764 0.99208
1.00022 1.00268 0.991389
1.0005 1.00471 0.988836
1.00194 1.00056 0.990111
1.00011 1.00126 0.993044
1.00013 1.0022 0.992157
1.00006 1.00294 0.991427
0.999999 1.00399 0.990641
1.00007 1.00301 0.991353
1.00338 0.998232 0.989511
1.00377 0.99666 0.990603
1.00321 0.997697 0.99073
1.00106 1.00355 0.989075
1.00008 1.00372 0.99066
1.00005 1.00082 0.993486
1.00009 1.00111 0.993197
1.00007 1.00165 0.992847
1.00009 1.00206 0.992357
1.00011 1.00268 0.991684
0.999984 1.00364 0.990959
0.999843 1.00447 0.99036
1.00014 1.00234 0.991923
1.00016 1.00293 0.991264
1.00361 0.997442 0.989723
1.00361 0.996663 0.990437
1.00222 1.00086 0.989492
1.00025 1.00343 0.990451
1.00063 1.00442 0.989057
1.00012 1.00291 0.991454
1.0046 0.995977 0.989369
1.00028 1.00311 0.990976
1.00027 1.00435 0.989776
1.0034 0.997829 0.989775
1.00106 1.00361 0.988812
1.00292 1.0003 0.988977
1.0002 1.00306 0.991158
1.00461 0.996179 0.989551
1.00021 1.00356 0.990731
1.00006 1.00486 0.989531
1.00156 1.00149 0.989382
0.997988 0.99925 0.9711
0.998678 1.00234 0.984869
1.00221 0.999981 0.990894
0.994899 0.997449 0.978798
0.996343 0.995619 0.980621
1.00012 1.00262 0.991687
1.00021 1.00281 0.991379
1.00038 1.00263 0.991207
1.00012 1.00012 0.994173
1.00009 1.00106 0.99322
1.00011 1.00173 0.992632
1.00014 1.0023 0.992027
1.00024 1.00263 0.991434
1.00012 1.00166 0.992662
1.00012 1.00015 0.9941
1.00009 1.001 0.993321
1.00029 1.00257 0.991417
1.00014 1.00211 0.992195
1.00012 1.00205 0.99229
1.00022 1.00248 0.991684
1.00014 1.00163 0.992557
1.0001 1.00099 0.99326
1.00011 1.00015 0.994038
1.0001 1.00102 0.993357
1.00011 1.0017 0.992731
1.00008 1.00115 0.99323
1.00008 1.00107 0.993322
1.00011 1.0002 0.994121
1.00011 1.00018 0.994027
1.00013 0.998966 0.995296
1.00013 0.998942 0.995318
1.00009 0.997116 0.997184
1.00013 0.998932 0.995323
1.0001 0.99709 0.997187
1.00002 0.995988 0.999381
1.00009 0.997113 0.997189
1.00003 0.995999 0.998959
1.00003 0.995989 0.998555
1.00015 0.998648 0.995567
1.00015 0.998716 0.995508
1.00007 0.996992 0.997335
1.00014 0.998829 0.99541
1.00004 0.997098 0.997474
0.999974 0.996033 0.999404
1.00002 0.997266 0.997176
0.999933 0.996188 0.999377
0.999884 0.996329 0.999353
1.00318 0.998569 0.989607
1.00312 0.99928 0.989144
1.00326 0.998636 0.989535
1.00405 0.996692 0.990299
1.00315 0.998763 0.989566
1.00343 0.997566 0.989968
1.00354 0.998551 0.988869
0.999452 0.998221 0.984277
1.00349 0.997756 0.991129
1.00011 0.999821 0.994503
1.00012 0.999834 0.994477
1.00005 1.00072 0.993726
1.00006 1.00068 0.993745
1.00326 0.998768 0.989388
1.00355 0.997752 0.989817
1.00323 0.996096 0.991831
1.00026 1.0025 0.991439
1.00036 1.00485 0.988753
1.00191 1.00047 0.990165
1.00006 1.003 0.991331
0.999996 1.00387 0.990724
1.00009 1.00299 0.991415
1.00012 1.00015 0.994146
1.00013 1.0022 0.992116
1.00011 1.00125 0.993129
1.00012 0.999889 0.994418
1.00007 1.00093 0.993363
1.00336 0.998303 0.98962
1.00005 1.00083 0.993604
1.00008 1.00108 0.993269
1.00008 1.00159 0.992827
1.00379 0.996463 0.990667
1.00308 0.997579 0.99073
1.00011 1.00367 0.990654
1.00099 1.00366 0.989022
1.00008 1.00206 0.992394
1.00011 1.00264 0.991693
0.999855 1.00445 0.990365
1 1.00376 0.990865
1.004 0.996641 0.989632
1.00424 0.996065 0.990014
1.00203 1.00239 0.988487
1.00005 1.0045 0.989982
1.00006 1.00178 0.992601
1.00005 1.00188 0.992535
1.00008 1.00288 0.991511
0.999991 1.00452 0.990073
0.997199 0.999937 0.967964
1.00011 1.00288 0.991501
1.00022 1.00305 0.991008
1.0046 0.995796 0.98935
1.00353 0.99768 0.98985
1.00103 1.00375 0.988803
1.00011 1.00444 0.989756
1.00283 0.999073 0.989319
1.00017 1.00308 0.991187
1.00466 0.995987 0.989453
1.00014 1.00355 0.99074
1.00005 1.00487 0.989561
1.00159 1.00144 0.989408
0.99763 0.998374 0.971301
0.998324 1.00152 0.981758
1.00225 0.999445 0.991298
0.994863 0.997911 0.977888
0.996143 0.99528 0.980229
1.00013 1.00308 0.991252
0.995721 0.996688 0.975749
0.997706 0.995274 0.983
1.00336 0.996723 0.991025
1.00006 1.00353 0.990722
1.00001 1.00486 0.990075
1.00216 0.999648 0.992248
0.996964 1.00006 0.970667
0.997602 1.00389 0.980615
0.994655 1.00069 0.976792
1.00152 0.996007 0.979796
1.00018 1.00281 0.991393
1.00036 1.00266 0.99122
1.0005 1.00252 0.991127
1.00012 1.00015 0.994154
1.00009 1.001 0.993387
1.00013 1.00167 0.992584
1.00015 1.0021 0.992162
1.00026 1.00258 0.99146
1.00011 1.00015 0.994038
1.00013 1.00201 0.992289
1.00013 1.00165 0.992649
1.00011 1.00097 0.993324
1.00023 1.00248 0.991593
1.00018 1.00219 0.992002
1.00014 1.00311 0.991269
1.00013 1.00159 0.9927
1.00011 1.00099 0.993362
1.0001 1.00103 0.993357
1.00012 1.0017 0.992641
1.00013 1.00162 0.992686
1.0001 1.00181 0.992534
1.00016 1.00209 0.992193
1.00005 1.00239 0.992052
1.00009 1.00129 0.993067
1.00008 1.00115 0.993229
1.00011 1.00025 0.994064
1.00008 1.00108 0.993216
1.00011 1.0002 0.994064
1.00013 0.999016 0.995251
1.00011 1.00018 0.994029
1.00013 0.998964 0.995296
1.00006 0.997147 0.997604
1.00013 0.998941 0.995318
1.00009 0.99711 0.997396
1.00005 0.995994 0.998532
1.0001 0.997093 0.997187
1.00002 0.995986 0.999381
1.00005 0.995996 0.998537
1.00011 0.999852 0.994472
1.00015 0.998631 0.995584
1.00015 0.998645 0.995567
1.00009 0.996923 0.997376
1.00015 0.99871 0.995507
1.00008 0.996986 0.997337
0.999999 0.995944 0.999418
1.00004 0.997113 0.997665
0.999981 0.996073 0.998983
0.999957 0.996213 0.998536
1.00386 0.996943 0.990372
1.00318 0.998755 0.989495
1.00326 0.997846 0.989727
0.999277 0.998028 0.986523
1.00339 0.997856 0.991238
1.00359 0.998357 0.988774
1.00394 0.998461 0.990308
0.999175 0.999334 0.985633
0.997055 1.0004 0.966393
0.99548 0.997089 0.974936
0.996208 0.994631 0.981097
1.00004 1.00068 0.99365
1.00011 0.999824 0.994503
1.00012 0.999835 0.994476
1.00004 1.00073 0.993682
1.00003 1.00139 0.993136
1.00006 1.00125 0.993221
1.00006 1.00081 0.993632
1.00006 1.0007 0.993694
1.00334 0.998371 0.989729
1.00384 0.996202 0.990733
1.00297 0.997537 0.99073
1.00014 1.00359 0.990647
1.00094 1.00387 0.988969
0.999869 1.00443 0.990369
1.00002 1.00387 0.990771
1.00011 1.00259 0.991702
1.00008 1.00105 0.99334
1.00007 1.00206 0.992432
1.00006 1.00084 0.993721
1.00008 1.00153 0.992807
1.00404 0.997005 0.989477
1.00005 1.00177 0.992649
1.00005 1.00189 0.992537
1.0042 0.996141 0.989993
1.00177 1.00199 0.98874
1.00012 1.00452 0.989836
1.0001 1.00289 0.991469
1.00001 1.00446 0.990097
1.00475 0.996993 0.988584
1.00312 1.0003 0.988557
1.00025 1.00461 0.98896
1.00004 1.00475 0.989737
1.00003 1.00225 0.992161
1.0001 1.00262 0.99173
1.00011 1.00376 0.99067
0.996675 0.996034 0.975529
0.99767 1.0005 0.970565
1.00015 1.00309 0.991216
1.00008 1.00353 0.99075
1.00473 0.995663 0.989356
1.0017 1.00152 0.989435
1.00004 1.00489 0.989591
0.998007 0.999472 0.965994
0.99827 1.00074 0.985959
1.00231 0.999002 0.991695
0.994683 0.99788 0.976588
0.995807 0.994995 0.979838
1.00017 1.00299 0.991243
0.996387 0.995423 0.97712
0.997185 0.995439 0.983012
1.00337 0.997146 0.990872
0.999995 1.00385 0.990747
0.999891 1.00477 0.990135
1.00223 0.99958 0.992119
0.996458 1.00005 0.969004
0.997549 1.00534 0.982833
0.994583 1.00017 0.975172
1.00062 0.996555 0.980081
1.00053 1.00241 0.991057
0.998495 0.996095 0.984384
1.00719 0.997004 0.980302
1.00091 1.00069 0.991797
0.999738 1.00385 0.99186
1.00146 1.00214 0.995236
0.998597 1.0017 0.989102
0.995025 1.00323 0.968455
0.994965 0.998981 0.97587
1.00749 0.997668 0.975697
1.00034 1.0027 0.991232
1.00048 1.00255 0.991061
1.00018 1.00293 0.991048
1.00012 1.00015 0.994039
1.00011 1.00096 0.993388
1.00013 1.00167 0.992742
1.00013 1.00198 0.992288
1.00025 1.00247 0.991503
1.00011 1.00099 0.993363
1.00016 1.00216 0.99207
1.00013 1.00159 0.992698
1.00012 1.00314 0.991216
1.0001 1.0035 0.990993
1.00015 1.00245 0.991868
1.00013 1.00162 0.992682
1.00009 1.00103 0.993357
1.00012 1.0017 0.992551
1.00013 1.00162 0.992685
1.0001 1.00182 0.992529
1.00017 1.00204 0.992178
1.00007 1.00204 0.992329
1.00018 1.00206 0.992167
1.00019 1.00223 0.99186
1.00014 1.00274 0.991518
0.999914 1.00307 0.991511
1.00003 1.00257 0.991853
1.00005 1.00239 0.992057
1.00009 1.00154 0.992825
1.00009 1.00131 0.993063
1.00012 1.00034 0.993952
1.00008 1.00116 0.993227
1.00011 1.00025 0.994062
1.00012 0.999093 0.995193
1.0001 1.0002 0.994008
1.00013 0.99901 0.995252
1.00004 0.99721 0.997589
1.00013 0.998961 0.995296
1.00007 0.997146 0.99739
1.00003 0.996003 0.998533
1.0001 0.997102 0.997184
1.00002 0.995994 0.99938
1.00002 0.995984 0.999381
1.00012 0.999931 0.994537
1.00015 0.998669 0.995548
1.00011 0.999856 0.994472
1.00009 0.996906 0.997389
1.00015 0.99863 0.995584
1.00015 0.998641 0.995566
1.00009 0.996926 0.997375
1.00001 0.995891 0.999426
1.00006 0.996987 0.99773
1.00001 0.995957 0.999014
0.999999 0.996079 0.998581
0.996344 0.995638 0.977951
0.997589 0.994834 0.983532
0.999396 0.998049 0.988632
1.00332 0.99803 0.991344
1.00362 0.998168 0.988678
0.999244 0.999262 0.989716
1.00404 0.998311 0.990206
0.997772 0.999501 0.970419
0.994819 0.997712 0.978182
0.996083 0.994377 0.980909
1.00079 0.997921 0.992567
0.996258 1.00151 0.971262
0.994727 0.999782 0.977188
0.999199 0.997695 0.979494
1.00003 1.00154 0.992904
1.00005 1.00068 0.993696
1.00011 0.999822 0.994503
1.00004 1.00074 0.993638
1.00002 1.00134 0.993189
1.00004 1.00155 0.992967
1.00006 1.00121 0.993233
1.00008 1.0011 0.993292
1.00006 1.00083 0.993562
1.00005 1.00071 0.993644
1.00404 0.99729 0.989324
1.00411 0.996165 0.989966
1.00149 1.00152 0.988994
1.00019 1.00453 0.989689
1.00003 1.0044 0.990121
1.00012 1.0029 0.991426
1.00005 1.0019 0.992538
1.00004 1.00176 0.992697
1.00483 0.996626 0.988386
1.00003 1.00229 0.992128
1.00012 1.00264 0.991638
1.00289 1.00032 0.988316
1.00023 1.00444 0.989355
1.00009 1.00474 0.989689
1.00015 1.00373 0.990598
1.00364 1.00131 0.987244
1.00049 1.00421 0.989587
1.00005 1.00433 0.990048
1.00004 1.00239 0.992066
1.00014 1.00271 0.991525
1.00027 1.00316 0.990888
0.999784 0.996358 0.981735
0.996324 0.996875 0.974411
0.997272 1.00003 0.967842
1.00022 1.00289 0.991235
0.999942 1.00416 0.990773
1.00337 0.997496 0.990719
0.999756 1.00461 0.990192
0.996843 0.996295 0.974714
0.996165 1.0002 0.973512
0.997499 1.00456 0.980328
1.00223 0.999316 0.99208
0.994691 0.999913 0.977556
0.997208 0.995453 0.982493
0.999012 0.996684 0.980829
1.00045 1.00267 0.991039
0.998511 0.99629 0.983397
1.00684 0.997088 0.980603
1.00101 1.00071 0.991868
0.9995 1.00366 0.991896
1.00226 1.00304 0.991165
0.998507 1.00257 0.984167
0.995427 1.00388 0.968876
0.995887 0.999105 0.978709
1.00476 0.998016 0.977011
0.999879 1.00257 0.992497
1.01023 0.996921 0.979943
1.01811 0.996181 0.969766
0.998428 1.00413 0.993358
0.998836 0.999829 0.995974
0.995556 1.00138 0.969849
0.997485 0.998903 0.979315
1.005 0.998678 0.977437
1.00046 1.00258 0.990996
1.00028 1.00284 0.991179
1.0003 1.00241 0.991658
1.00011 1.00098 0.993364
1.00013 1.00159 0.992697
1.00014 1.00213 0.992138
1.00009 1.00317 0.991164
1.00014 1.00162 0.992681
1.00015 1.00243 0.991869
1.00006 1.00346 0.990994
0.999947 1.00346 0.99141
1.00021 1.00302 0.991135
1.00019 1.00213 0.992104
1.00013 1.00162 0.992684
1.00009 1.00183 0.992525
1.00019 1.00199 0.992162
1.00019 1.00205 0.992177
1.00007 1.00207 0.992329
1.00021 1.0022 0.991895
1.00019 1.00249 0.99165
1.00025 1.00236 0.991691
1.00018 1.00287 0.991269
1.00015 1.00275 0.991538
0.999927 1.00318 0.991395
1.00016 1.00314 0.991139
1.00008 1.00249 0.991983
0.999881 1.00295 0.991742
1.00004 1.00256 0.991919
1.00009 1.00183 0.99245
1.00006 1.00239 0.992063
1.00009 1.00155 0.992824
1.00014 1.0005 0.993753
1.00009 1.00132 0.993059
1.00012 1.00035 0.993948
1.0001 0.999193 0.995122
1.00011 1.00025 0.99406
1.00012 0.999084 0.995193
1.00001 0.997307 0.997558
1.00013 0.999004 0.995252
1.00005 0.997216 0.997369
0.999999 0.996078 0.998521
1.00008 0.997138 0.997176
1.00002 0.996014 0.998956
1.00001 0.995998 0.99938
1.00013 1.00012 0.994207
1.00015 0.998752 0.995476
1.00011 0.999938 0.994406
1.00009 0.996944 0.997362
1.00015 0.998669 0.995548
1.0001 0.999863 0.994472
1.00002 0.995879 0.999427
1.00009 0.996904 0.997389
1.00015 0.998627 0.995584
1.00009 0.99693 0.997374
1.00001 0.995898 0.999424
0.999998 0.99595 0.999415
0.999066 0.996155 0.983371
0.996161 0.996137 0.976196
1.00865 0.995089 0.979893
0.997494 0.994854 0.983268
0.999341 0.999739 0.98496
1.00418 0.998186 0.990075
0.997261 0.998464 0.974566
0.995369 0.99862 0.975265
0.995943 0.994084 0.980722
1.00073 0.998384 0.990173
0.996446 1.00074 0.969187
0.994678 0.999664 0.975116
0.999978 0.996984 0.979793
0.999421 0.999279 0.990908
0.995568 1.00167 0.969115
0.994955 0.999982 0.977905
1.00519 0.999688 0.976565
1.00006 1.00203 0.992445
1.00003 1.00152 0.992975
1.00006 1.00068 0.993742
1 1.00129 0.993241
1.00007 1.00183 0.992543
1.00004 1.0015 0.993022
1.00006 1.00117 0.993245
1.00011 1.0012 0.993199
1.00008 1.00109 0.993358
1.00007 1.00085 0.993492
1.00495 0.99635 0.98819
1.00269 1.00035 0.988081
1.00022 1.00432 0.98975
1.00015 1.00473 0.989642
1.00018 1.00371 0.990526
1.00013 1.00267 0.991547
1.00003 1.00233 0.992096
1.00005 1.00238 0.992077
1.0037 1.00061 0.987399
1.00013 1.00274 0.99158
1.00027 1.00324 0.990866
1.0005 1.00424 0.989416
1.00015 1.00433 0.990037
1.00179 1.0026 0.988798
0.999854 1.00403 0.99094
1.00031 1.00318 0.990692
1.00017 1.00254 0.991659
1.00034 1.00297 0.990882
1.01202 0.997303 0.978228
0.999643 0.996492 0.98252
0.996405 0.996259 0.977303
1.00038 1.00297 0.991021
0.999251 1.00351 0.991934
1.00113 1.00074 0.991923
0.998435 0.996618 0.983405
0.995395 1.00274 0.967754
0.998371 1.00279 0.986647
1.00322 1.00392 0.986941
0.995334 0.999439 0.975446
1.00639 0.997179 0.980902
1.00419 0.998016 0.977361
0.999839 1.00228 0.992628
1.01026 0.997101 0.979657
1.01787 0.996112 0.970025
0.998593 1.00391 0.99302
0.998994 1.00049 0.993488
0.995584 1.00268 0.968502
1.00728 0.997726 0.975898
0.996275 0.998617 0.978361
0.999354 1.00202 0.99372
1.02475 0.992067 0.966575
1.02236 0.995465 0.965766
1.00504 0.999404 0.977145
0.996378 1.00234 0.996811
0.995522 0.999049 0.973793
0.995219 0.999594 0.979906
1.00039 1.00271 0.99131
1.00043 1.00256 0.991256
1.00008 1.00205 0.992678
1.00013 1.00162 0.99268
1.00015 1.00241 0.991871
1.00004 1.00337 0.990995
1.0002 1.00212 0.99212
1.00022 1.00298 0.991127
1.00001 1.00334 0.99121
0.99982 1.00318 0.991674
1.00032 1.00252 0.991395
1.00019 1.00204 0.992188
1.00006 1.0021 0.992329
1.00023 1.00217 0.991929
1.00026 1.00234 0.991693
1.0002 1.00245 0.991675
1.00006 1.00299 0.991434
1.00013 1.00285 0.991405
1.00008 1.00398 0.990449
1.00017 1.00275 0.991558
1.00001 1.0032 0.991373
1.00014 1.00353 0.990518
1.00015 1.00298 0.99125
1.00006 1.00254 0.991915
1.0001 1.00314 0.99116
1.00011 1.00199 0.992353
1.00008 1.00252 0.991946
0.999849 1.00282 0.991973
1.00005 1.00254 0.991985
1.00009 1.0018 0.992523
1.00014 1.00078 0.993476
1.00009 1.00155 0.992823
1.00013 1.00052 0.993748
1.00008 0.999323 0.995021
1.00011 1.00036 0.993944
1.0001 0.999185 0.995119
0.999966 0.997432 0.99751
1.00012 0.999076 0.995192
1.00001 0.99732 0.997334
0.999957 0.996182 0.9985
1.00006 0.997211 0.997155
0.999988 0.996085 0.99895
0.999996 0.996042 0.999378
1.00014 1.0003 0.993835
1.00013 0.998908 0.995184
1.00013 1.00013 0.994204
1.00008 0.997033 0.9973
1.00014 0.998763 0.995391
1.00011 0.999944 0.994276
1.00001 0.995912 0.999418
1.00009 0.996937 0.997364
1.00015 0.998669 0.995549
1.00002 0.995879 0.999427
1.00009 0.996904 0.997389
1.00001 0.995904 0.999422
1.01216 0.996016 0.9776
0.999197 0.995941 0.98234
0.996304 0.996063 0.975249
1.00017 1.00128 0.99293
1.019 0.994433 0.970849
1.00815 0.995834 0.980157
0.997815 0.994865 0.982446
1.00063 0.998369 0.987813
0.996392 1.0014 0.971507
0.994805 0.999771 0.977679
1.00017 0.995906 0.97982
0.999026 0.999644 0.985634
0.995193 1.00215 0.970681
0.995723 0.99991 0.977079
1.00401 0.9991 0.977703
0.998504 1.00103 0.98335
0.995199 1.00061 0.96737
0.996528 0.999656 0.975455
1.00582 0.999317 0.976543
1.00016 1.00219 0.991996
1.00006 1.00205 0.992401
1.00003 1.00151 0.993046
1.00013 1.00183 0.992443
1.00008 1.0018 0.992627
1.00005 1.00145 0.993076
1.00012 1.0012 0.993223
1.00008 1.00108 0.993423
1.00375 0.999874 0.987551
1.0005 1.0043 0.989246
1.00006 1.00233 0.992088
1.00024 1.00435 0.990026
1.00028 1.00329 0.990844
1.00011 1.00277 0.991634
1.00017 1.00256 0.991671
1.00205 1.00269 0.988907
1.00032 1.00294 0.990977
1.00032 1.00335 0.990644
0.999853 1.0039 0.990779
1.00026 1.00242 0.991698
1.00073 1.00083 0.993153
0.999535 1.00363 0.991947
1.0004 1.00249 0.991179
1.00031 1.00272 0.991323
1.02366 0.993681 0.967636
1.01252 0.996857 0.977495
0.999463 0.996652 0.983308
0.999787 1.00196 0.99276
0.998766 1.00374 0.992685
1.01031 0.997252 0.979373
0.995612 1.00077 0.970058
0.999071 1.00111 0.98697
0.996557 0.998782 0.976331
1.01767 0.995979 0.970284
1.00989 0.996921 0.97436
0.999459 1.00231 0.993406
1.02487 0.991987 0.966382
1.02356 0.994571 0.964656
0.996517 1.00417 0.997706
1.00383 0.998906 0.978049
0.995221 0.998813 0.973109
0.996475 0.999277 0.976231
0.998676 1.00224 0.995598
1.02888 0.990941 0.962209
1.01938 0.995177 0.969187
0.999178 0.998134 0.979344
0.996682 0.998816 0.975783
0.996185 1.00024 1.00197
0.99501 1.00023 0.969751
1.00052 1.00279 0.990853
1.00014 1.00195 0.992488
0.999024 1.00325 0.99255
1.0002 1.0021 0.992136
1.00022 1.00295 0.991119
1.00007 1.00332 0.99101
1.0003 1.00253 0.9914
0.999875 1.00304 0.991658
0.999705 1.00389 0.991182
1.00026 1.00231 0.991695
1.00021 1.00241 0.991701
1.00014 1.00301 0.991353
0.999869 1.00435 0.990452
1.00007 1.00282 0.991541
0.99999 1.00385 0.990587
1.00009 1.00463 0.989758
1.00053 1.00323 0.990315
1.00009 1.00322 0.99135
1.00019 1.00365 0.990396
1.00024 1.0026 0.991634
0.999953 1.00271 0.991826
1.00015 1.00288 0.991347
1.00009 1.00207 0.992338
1.00008 1.00254 0.9919
1.00005 1.00315 0.991181
1.00014 1.00105 0.993217
1.00012 1.00196 0.992338
1.00008 1.00255 0.99191
1.00009 1.00178 0.992596
1.00014 1.00078 0.993474
1.00006 0.999538 0.994861
1.00013 1.00053 0.993744
1.00008 0.999327 0.995015
0.999933 0.99758 0.997014
1.00011 0.99918 0.995117
0.99998 0.997442 0.997067
0.999881 0.996304 0.999356
1.00002 0.997315 0.997118
0.99995 0.996184 0.998936
0.999967 0.996119 0.999372
1.00017 1.00041 0.993658
1.00012 0.999111 0.994982
1.00015 1.0003 0.993906
1.00006 0.997168 0.997208
1.00013 0.99893 0.99516
1.00013 1.00013 0.994201
0.999996 0.99598 0.999402
1.00008 0.997024 0.997303
1.00013 0.998777 0.995307
1.00001 0.995903 0.999422
1.00009 0.99693 0.997366
1.00002 0.995879 0.999428
1.02318 0.993088 0.96813
1.01224 0.995785 0.977704
0.999145 0.995753 0.98247
1.00017 1.00128 0.992955
1.00021 1.00133 0.992743
1.00015 1.00188 0.992447
1.02166 0.99528 0.966903
1.01855 0.994888 0.971065
1.00762 0.99661 0.980421
0.998693 1.00003 0.989409
0.995476 1.00236 0.968856
0.994941 0.999642 0.975476
1.00463 0.997845 0.977709
0.998037 1.00103 0.987298
0.995222 1.00062 0.970759
0.995205 0.999635 0.979948
1.00765 0.99791 0.975232
0.997954 0.998961 0.988809
0.994945 1.00011 0.972657
0.995978 0.999698 0.979043
1.00689 0.998535 0.975356
1.00021 1.00228 0.991863
1.00014 1.00225 0.991991
1.00006 1.0021 0.992358
1.00013 1.00185 0.992437
1.00008 1.00177 0.992712
1.00013 1.00119 0.993248
1.00233 1.00279 0.989015
0.999855 1.00374 0.990619
1.00017 1.00259 0.991682
1.00033 1.00346 0.990595
1.0003 1.00295 0.991072
1.00026 1.00236 0.991694
1.00031 1.00269 0.9913
1.00081 1.00095 0.993075
1.00043 1.00246 0.991304
0.999313 1.00344 0.992782
1.00027 1.00237 0.991585
0.998526 1.00143 0.99629
0.999277 1.00057 0.995421
1.0003 1.00267 0.991195
1.02781 0.992118 0.963138
1.02432 0.993362 0.966553
1.01301 0.996346 0.976763
0.999551 1.00259 0.993092
0.996564 1.00143 0.998355
1.02498 0.991911 0.966188
0.995105 0.9995 0.982415
0.997286 0.999344 0.979199
1.02482 0.99368 0.963545
1.00449 0.997809 0.978148
0.998723 1.00193 0.995332
1.02858 0.991213 0.962327
1.01893 0.995916 0.969404
0.996036 1.0016 0.994374
0.999878 0.997589 0.979612
0.995273 0.99909 0.980054
0.995007 1.00008 0.973219
0.997873 1.0046 0.997529
1.02335 0.994218 0.966745
1.00862 0.99592 0.978894
0.99594 0.995535 0.981185
0.994915 0.999525 0.977998
0.995168 0.999601 0.972716
0.996773 0.99983 0.991667
1.00017 1.00182 0.992299
0.99912 1.00314 0.992598
0.998918 1.00478 0.991774
1.00028 1.00253 0.991406
0.999918 1.00288 0.991641
0.99961 1.00394 0.991257
0.999733 1.00479 0.990152
1.00022 1.00304 0.991272
1.00002 1.00436 0.990306
1.00014 1.00501 0.989261
0.999904 1.00373 0.990725
1.00013 1.00453 0.989759
1.00061 1.00452 0.989143
1.00079 1.00349 0.989634
1.00031 1.00255 0.991219
1.00051 1.00333 0.990212
1.00025 1.00377 0.990275
1.00021 1.00231 0.991965
1.00019 1.00248 0.991752
0.999988 1.00233 0.992175
0.999982 1.00267 0.991883
1.00016 1.00278 0.991444
1.00012 1.00127 0.993028
1.0001 1.00204 0.992346
1.0001 1.00254 0.991886
1.00003 0.999808 0.994639
1.00015 1.00103 0.993223
1.00013 1.00194 0.992324
1.00014 1.00078 0.993471
1.00005 0.999544 0.994855
0.999882 0.997764 0.996928
1.00008 0.999331 0.99501
0.999937 0.997587 0.99701
0.999842 0.996452 0.999342
0.999985 0.997443 0.997068
0.999899 0.996319 0.998915
0.999928 0.996221 0.999361
1.00019 1.00054 0.993593
1.00012 0.999272 0.994981
1.00017 1.00042 0.993712
1.00002 0.99734 0.997096
1.00012 0.999126 0.995049
1.00016 1.00031 0.993977
0.99997 0.996088 0.99938
1.00005 0.997157 0.997214
1.00013 0.998952 0.995136
0.999999 0.99597 0.999407
1.00007 0.997015 0.997307
1.00002 0.995895 0.999425
1.0284 0.990824 0.963067
1.02355 0.992858 0.967961
1.01234 0.995582 0.977806
1.00023 1.00145 0.992588
1.00023 1.002 0.992158
1.00016 1.00129 0.99298
1.00021 1.00136 0.992723
1.00016 1.00188 0.992375
1.00019 1.0019 0.992286
1.00017 1.00222 0.991996
1.01738 0.99713 0.96992
1.02293 0.994277 0.9659
1.0181 0.995365 0.97128
1.00988 0.996857 0.973921
0.997466 1.00095 0.983705
0.995203 1.00042 0.974093
0.994888 1.00027 0.97645
0.997518 0.998595 0.986712
0.994963 0.999384 0.97049
0.996773 0.999456 0.975875
1.00471 0.998956 0.976459
0.996249 0.997866 0.992616
0.994895 0.999857 0.9697
0.997412 1.0003 0.97826
1.00127 0.996428 0.979562
1.00028 1.0023 0.991741
1.00021 1.00227 0.991853
1.00013 1.00228 0.991985
1.00013 1.00186 0.992431
1.00091 1.00166 0.992996
0.999016 1.00334 0.993619
1.00027 1.00226 0.991691
1.0003 1.00266 0.991276
1.00045 1.00245 0.99143
1.00027 1.0024 0.991572
1.00031 1.00268 0.991125
0.998155 1.0021 0.996632
0.999337 1.00041 0.99574
1.00025 1.00287 0.991245
0.996687 1.00038 1.00042
0.999789 1.00327 0.992395
1.02356 0.995133 0.96646
1.02733 0.992566 0.963224
1.02499 0.993061 0.96547
0.99884 1.00161 0.995087
0.996121 1.00033 1.00163
1.02826 0.99151 0.962446
0.994941 1.00002 0.969958
0.995032 0.999858 0.976604
1.01849 0.996625 0.96962
0.999988 0.996203 0.979911
0.99787 1.00449 0.997428
1.02372 0.994001 0.966536
1.00808 0.996836 0.979194
0.996768 0.999938 0.997679
0.995821 0.994777 0.981076
0.99578 0.999748 0.977023
0.995199 0.999718 0.972365
0.99849 1.00468 0.995572
1.01227 0.997427 0.976157
0.99737 0.995381 0.98348
0.994563 0.999773 0.977572
0.995364 1.00095 0.971143
0.996641 1.00019 0.986527
0.999308 1.00303 0.992646
0.998871 1.00483 0.991753
1.00026 1.00381 0.990688
0.999516 1.004 0.991332
0.999505 1.00487 0.990286
1.00026 1.00485 0.989309
1.00018 1.00436 0.99016
1.00024 1.00499 0.989153
1.00073 1.00456 0.988461
1.00018 1.00444 0.989761
1.00063 1.00453 0.989035
1.00091 1.00412 0.988688
1.00118 1.00284 0.989421
1.00074 1.00284 0.990494
1.0008 1.00357 0.989515
1.00024 1.00214 0.991775
1.00032 1.00255 0.991291
1.00049 1.00345 0.990109
1.00014 1.00225 0.992082
1.00018 1.00234 0.991946
1.00013 1.00235 0.991871
1.00008 1.00151 0.992823
1.00001 1.00228 0.992213
1.00001 1.00263 0.99194
1.00001 1.00007 0.994398
1.00013 1.00124 0.993036
1.00012 1.00201 0.992354
0.999843 0.997972 0.996817
1.00002 0.999814 0.994637
1.00015 1.001 0.993229
1.00005 0.999549 0.994849
0.999885 0.997775 0.996922
0.999783 0.996618 0.999324
0.99994 0.997594 0.997006
0.999835 0.996472 0.999337
0.999882 0.996345 0.999348
1.00023 1.00157 0.992522
1.00023 1.00067 0.993392
1.00011 0.99943 0.994841
1.0002 1.00054 0.993593
0.999991 0.997516 0.996984
1.00012 0.999278 0.994983
1.00016 1.00043 0.993766
0.999936 0.996228 0.999352
1.00002 0.997328 0.997101
1.00013 0.99914 0.995117
0.999974 0.996071 0.999387
1.00005 0.997146 0.997219
1 0.995956 0.999413
1.02409 0.993559 0.966094
1.02818 0.991119 0.963038
1.02391 0.992643 0.967793
1.00023 1.00146 0.992612
1.00024 1.002 0.992112
1.0002 1.00217 0.991951
1.00021 1.00193 0.992135
1.00021 1.00231 0.991885
1.0002 1.00138 0.992704
1.00018 1.00187 0.992303
1.00018 1.0019 0.992289
1.00019 1.0022 0.991987
1.00017 1.00233 0.991925
1.0072 0.997637 0.979864
1.01714 0.997233 0.970131
1.02414 0.993234 0.964897
1.00385 0.998812 0.976718
0.99724 0.999358 0.978541
0.997161 0.997948 0.985138
0.994957 0.999377 0.972215
0.996016 0.99756 0.987529
0.994937 0.999925 0.971998
0.996073 0.999656 0.977373
1.00051 0.996731 0.980013
0.995098 0.997839 0.990356
0.994997 0.999306 0.973011
0.994878 0.999993 0.976325
0.996491 0.994473 0.98097
1.00006 1.00218 0.992215
1.00024 1.00238 0.991726
1.00021 1.00226 0.991843
0.997841 1.00218 0.996967
0.999405 1.00019 0.996064
1.00028 1.00243 0.99156
1.00033 1.00271 0.991057
1.00021 1.00281 0.991308
0.999578 1.00336 0.992192
0.996843 0.999786 1.00046
0.999244 1.00392 0.991791
0.998304 1.00334 0.995529
1.01163 0.998714 0.977311
1.02416 0.994696 0.965499
1.02687 0.993119 0.96331
0.997825 1.00436 0.997314
0.996796 0.9997 0.989589
1.02408 0.993766 0.966327
0.995256 0.999687 0.9672
0.995007 0.999872 0.975523
1.00753 0.997771 0.979495
0.995718 0.994183 0.980968
0.998563 1.00463 0.995759
1.01236 0.997085 0.976231
0.997229 0.995309 0.983302
0.997002 1.00017 0.989321
0.994598 0.999721 0.975402
0.995414 1.00101 0.968184
0.999727 1.00359 0.992559
0.999116 0.996717 0.982862
0.995528 0.997049 0.974954
0.995691 1.00154 0.969293
0.997146 1.00225 0.987309
0.99884 1.00489 0.991731
1.00012 1.0038 0.990667
1.00163 1.00228 0.98967
0.999294 1.00494 0.99042
1.00013 1.0048 0.989304
1.0011 1.00381 0.988576
1.00034 1.00498 0.989045
1.00074 1.00459 0.988467
1.00142 1.00301 0.988873
1.00063 1.00453 0.988927
1.00092 1.00401 0.988739
1.00154 1.00216 0.989404
1.00169 1.00122 0.989997
1.00098 1.00253 0.990056
1.00119 1.00273 0.989466
1.00054 1.00235 0.991229
1.00068 1.00291 0.990356
1.0008 1.00364 0.989395
1.00022 1.00196 0.99215
1.00024 1.00211 0.991859
1.00033 1.00255 0.991364
1.00008 1.00174 0.99263
1.00012 1.00224 0.992097
1.00015 1.00237 0.991928
0.999984 1.00037 0.994143
1.0001 1.00152 0.992824
1.00003 1.00223 0.99225
0.999787 0.998186 0.99716
1.00001 1.00008 0.994396
1.00014 1.00122 0.993043
0.999737 0.996832 0.998325
0.999836 0.997997 0.997034
1.00002 0.999818 0.994635
0.999889 0.997785 0.996916
0.999776 0.996645 0.999316
0.999827 0.996493 0.999332
1.00021 1.00181 0.992289
1.00024 1.00087 0.993178
1.00024 1.0016 0.99248
1.0001 0.999574 0.994718
1.00023 1.00068 0.993393
0.999955 0.997676 0.99689
1.00011 0.999431 0.994844
1.0002 1.00055 0.993593
0.999895 0.996379 0.999326
0.999988 0.997505 0.996988
1.00012 0.999287 0.994984
0.99994 0.996207 0.999361
1.00002 0.997316 0.997107
0.999977 0.996054 0.999394
1.01045 0.998742 0.977821
1.02422 0.993527 0.965922
1.02795 0.991427 0.963008
1.00019 1.00219 0.991999
1.00022 1.00148 0.992636
1.00024 1.00199 0.992066
1.00021 1.00195 0.992188
1.0002 1.00217 0.991991
1.00022 1.00226 0.991873
1.00021 1.00241 0.991734
1.00017 1.00234 0.991813
1.00018 1.0019 0.992293
1.00019 1.00216 0.991977
1.00016 1.00233 0.991922
1.00024 1.00263 0.991755
0.997913 0.995044 0.982478
1.00665 0.997851 0.980148
1.01698 0.997321 0.970343
0.998988 0.996612 0.980604
0.996859 0.999768 0.97561
0.994879 0.999864 0.969738
0.995674 0.997289 0.992784
0.995011 0.997746 0.995652
0.996252 0.994295 0.980758
0.994919 0.999566 0.969051
0.99531 0.999709 0.978482
0.996124 0.998949 0.99401
0.995196 0.998749 0.974658
0.994659 0.999027 0.978036
0.999592 1.00214 0.993104
1.00017 1.00209 0.992221
1.0002 1.00246 0.99171
0.996975 0.99911 1.0005
0.99949 1.00336 0.991983
1.00015 1.00277 0.991369
0.999444 1.00393 0.991753
0.998025 1.00345 0.995638
0.999028 1.00181 0.994358
0.999195 0.996617 0.982915
1.01253 0.998569 0.97565
1.02475 0.994265 0.964538
0.998575 1.00463 0.99599
0.997041 1.00023 0.991013
1.01247 0.996874 0.976303
0.99526 1.00036 0.973476
0.99462 0.99964 0.977967
0.997526 0.995249 0.98239
0.999705 1.00359 0.992816
0.999221 0.996514 0.981858
0.994832 0.997738 0.978242
0.996988 1.0022 0.983654
0.995385 1.00177 0.970644
1.00114 1.00204 0.990977
0.996451 0.995363 0.978051
0.99652 1.00123 0.970662
0.997648 1.00239 0.982698
0.999974 1.00383 0.990646
1.00133 1.00188 0.989862
1.00186 1.00122 0.989419
0.999963 1.00473 0.9893
1.00116 1.00363 0.988583
1.00247 1.00046 0.989507
1.00076 1.00456 0.988473
1.00136 1.00287 0.988954
1.00221 0.999928 0.990413
1.00092 1.00391 0.988791
1.00157 1.00195 0.989446
1.00216 0.999527 0.990775
1.00198 0.999635 0.991029
1.00147 1.00141 0.990251
1.00168 1.00111 0.99011
1.00076 1.00211 0.990738
1.00099 1.00249 0.990142
1.00119 1.00262 0.989511
1.00033 1.00197 0.991927
1.00047 1.00237 0.991221
1.00062 1.00299 0.990217
1.00012 1.00173 0.992567
1.00024 1.00196 0.992142
1.00024 1.00209 0.991942
0.999924 1.0008 0.993864
1.00009 1.00172 0.992641
1.00009 1.00223 0.992111
0.999739 0.998417 0.996544
0.999987 1.00038 0.994139
1.00011 1.00152 0.992826
0.999645 0.997033 0.999264
0.99979 0.99822 0.996649
1.00001 1.00009 0.994394
0.999721 0.996831 0.999291
0.999838 0.998012 0.996785
0.999769 0.996673 0.999308
1.00019 1.00192 0.992297
1.00021 1.00183 0.9923
1.0002 1.00117 0.992957
1.00008 0.999764 0.994572
1.00023 1.00089 0.993177
1.00023 1.00163 0.992437
0.999921 0.997813 0.996816
1.0001 0.999566 0.994722
1.00023 1.00069 0.993394
0.99985 0.996526 0.999304
0.999952 0.997667 0.996894
1.00011 0.999429 0.994847
0.9999 0.996359 0.999334
0.999985 0.997494 0.996993
0.999944 0.996185 0.999369
0.998599 0.996626 0.984101
1.01033 0.998789 0.977933
1.02433 0.993507 0.96575
1.00019 1.00221 0.991968
1.00016 1.00221 0.992133
1.00022 1.00231 0.991825
1.00021 1.00196 0.992241
1.0002 1.00217 0.992031
1.00023 1.00221 0.991861
1.00018 1.00234 0.991821
1.00021 1.0024 0.991741
1.00009 1.00286 0.991536
1.00012 1.0025 0.991717
1.00016 1.00233 0.99192
1.00017 1.00257 0.991772
0.994904 0.997532 0.97824
0.997536 0.99525 0.982722
1.00617 0.998033 0.980432
0.996141 0.99409 0.980548
0.994652 0.999921 0.976075
0.995251 0.99977 0.976187
0.994964 0.997777 0.990151
0.995964 0.998922 0.989084
0.994751 0.998616 0.975911
0.995071 0.999116 0.974143
0.997911 0.996088 0.989343
0.995608 1.0002 0.971154
1.00015 1.00321 0.991672
0.999761 1.00189 0.993064
1.00027 1.002 0.992229
0.997522 1.00363 0.995771
0.999624 1.00395 0.991715
0.999728 1.00194 0.994113
1.00186 0.999418 0.992634
0.996784 0.99517 0.976195
0.999194 0.996962 0.982808
1.01337 0.998297 0.97399
0.999959 1.00346 0.993023
0.996858 1.00234 0.98701
0.999175 0.99621 0.981965
0.99556 1.00176 0.969101
0.995375 0.998617 0.975304
1.00121 1.00223 0.991069
0.99638 0.995943 0.976071
0.996847 1.00049 0.968901
0.997182 1.00204 0.986766
1.00109 1.00383 0.98918
0.997251 1.00014 0.966173
0.999111 0.999286 0.990078
1.00101 1.00141 0.990053
1.00162 1.00172 0.989297
1.00338 0.998092 0.988981
1.00124 1.00345 0.98859
1.00245 1.00022 0.989449
1.00333 0.99673 0.991521
1.00129 1.0028 0.989035
1.00221 0.9997 0.990432
1.00289 0.996963 0.991904
1.00159 1.00175 0.989488
1.00216 0.999437 0.990783
1.00241 0.997962 0.991753
1.00215 0.998833 0.991618
1.00198 0.999519 0.99115
1.00177 1.00012 0.990959
1.00131 1.00135 0.990662
1.00147 1.00145 0.990268
1.00167 1.001 0.990223
1.0006 1.00183 0.991376
1.00078 1.00212 0.990838
1.00101 1.00245 0.990228
1.0002 1.00168 0.992449
1.00035 1.00197 0.991912
1.0004 1.00238 0.991213
0.999891 1.00108 0.993635
1.00014 1.00171 0.992574
1.00025 1.00196 0.992134
0.999661 0.998712 0.996389
0.99994 1.00075 0.993867
1.00011 1.00171 0.992652
0.999605 0.997218 0.999236
0.999735 0.998445 0.996535
0.999992 1.00038 0.994135
0.999658 0.997045 0.998762
0.999792 0.998234 0.996649
0.999711 0.996876 0.999276
1.00016 1.00194 0.992313
1.00019 1.00193 0.992248
1.00017 1.0014 0.992783
1.0002 1.00184 0.99231
1.0002 1.00119 0.992952
1.00004 1.00007 0.994349
0.99988 0.997967 0.996742
1.00008 0.999752 0.994577
1.00023 1.0009 0.993177
0.999799 0.996667 0.999288
0.999917 0.997808 0.99682
1.00011 0.999559 0.994726
0.999855 0.996511 0.999311
0.999948 0.997659 0.996898
0.999905 0.996339 0.999341
0.995572 0.997329 0.975795
0.998428 0.996606 0.983637
1.01026 0.998845 0.978044
1.00019 1.00221 0.991936
1.00019 1.00236 0.991798
1.00012 1.00218 0.992167
1.0001 1.00225 0.992185
1.00012 1.00247 0.991892
1.00019 1.00235 0.99183
1.00021 1.0024 0.991748
1.00007 1.00281 0.991569
0.999948 1.00256 0.991783
1.00003 1.00284 0.991502
1.00063 1.0032 0.990608
1.00005 1.0028 0.9917
1.00012 1.00253 0.991788
0.996861 1.00003 0.967738
0.994961 0.998471 0.977163
0.997362 0.995476 0.982209
0.994832 0.998327 0.978351
0.99503 0.999528 0.969218
0.99592 0.99888 0.994611
0.998081 0.996297 0.992038
0.99573 0.998893 0.973751
1.00086 0.99591 0.988761
1.00217 1.00208 0.988452
0.999783 1.00315 0.991619
0.999908 1.00162 0.993022
1.00024 1.00211 0.993855
1.00231 0.998807 0.992044
0.99749 0.998909 0.968347
0.996535 0.996099 0.974973
0.999231 0.997484 0.982697
1.00131 1.00238 0.991175
0.996675 1.00259 0.983034
0.996541 0.995766 0.975119
0.996692 1.00046 0.971217
1.00154 1.00358 0.989226
0.998034 0.999123 0.970192
0.998737 0.999906 0.985165
1.00308 1.00299 0.986991
1.00078 0.997638 0.992409
1.00138 1.00222 0.989172
1.00328 0.998718 0.988854
1.00455 0.995843 0.989415
1.00238 0.999994 0.989393
1.00312 0.996776 0.991509
1.00356 0.995262 0.992216
1.00222 0.999442 0.990452
1.00286 0.996968 0.991832
1.00298 0.996485 0.992144
1.00217 0.999351 0.99079
1.00241 0.998043 0.991704
1.00245 0.997953 0.991765
1.0021 0.998697 0.991744
1.00204 0.999326 0.991343
1.00197 0.999413 0.991271
1.00178 1.00013 0.990935
1.00166 1.00043 0.990894
1.00103 1.00132 0.991062
1.00129 1.00139 0.990642
1.00147 1.00148 0.990284
1.0004 1.0016 0.992146
1.00058 1.00185 0.991443
1.0008 1.00213 0.990938
0.999882 1.00125 0.993458
1.00023 1.00167 0.99244
1.00036 1.00198 0.991898
0.999588 0.999044 0.99618
0.999915 1.00103 0.993643
1.00016 1.00168 0.99258
0.999538 0.997428 0.999207
0.999655 0.998753 0.99638
0.999954 1.00072 0.99387
0.999596 0.997239 0.999228
0.999732 0.998477 0.996526
0.999651 0.997069 0.999247
1.00012 1.0021 0.992246
1.00015 1.00195 0.992318
1.00014 1.00158 0.992627
1.0002 1.00193 0.9922
1.00017 1.00144 0.992737
1.00002 1.00039 0.994062
1.0002 1.0012 0.992948
1.00005 1.00005 0.994351
0.999824 0.998193 0.996624
0.999741 0.996824 0.99927
0.999877 0.997959 0.996747
1.00009 0.999737 0.994582
0.999806 0.996658 0.999293
0.999913 0.997803 0.996824
0.999861 0.996496 0.999317
0.99729 1.00043 0.970793
0.995807 0.996527 0.977579
0.998044 0.996633 0.984186
1.00017 1.00242 0.991772
1.00009 1.00216 0.992201
1.00013 1.00246 0.991912
1.00009 1.00224 0.992179
1.00006 1.00247 0.99203
0.999981 1.00241 0.992058
1.00005 1.00273 0.991602
1 1.0027 0.991698
0.999946 1.00305 0.991481
1.00011 1.00235 0.991593
1.00094 1.00277 0.990892
1.00176 1.00251 0.988786
1.00047 1.00303 0.990698
0.999951 1.00311 0.991683
1.00033 0.997771 0.988258
0.996251 1.00075 0.970423
0.995236 0.997848 0.975209
0.995722 0.999845 0.971202
0.998314 0.996451 0.994586
1.00088 0.995836 0.992407
1.00415 0.99697 0.990421
1.00215 1.00154 0.989088
0.999591 1.00315 0.991562
1.00333 0.998352 0.991452
0.999003 1.00041 0.98523
0.997901 0.999611 0.970868
0.996506 0.995457 0.977838
1.002 1.00354 0.989277
0.998356 1.00027 0.988432
0.997597 0.998065 0.974284
1.00326 1.00193 0.987218
1.00055 0.998376 0.989986
1.00486 0.997908 0.988012
1.00403 0.998508 0.989593
1.00324 0.999442 0.988726
1.00455 0.995886 0.989434
1.00398 0.996428 0.990317
1.00293 0.996802 0.991492
1.00347 0.995511 0.992188
1.00347 0.996462 0.991267
1.00284 0.997005 0.99176
1.00292 0.996677 0.992085
1.00295 0.997548 0.991237
1.00241 0.99813 0.991654
1.00238 0.998034 0.991795
1.00228 0.99889 0.991161
1.00205 0.998568 0.991869
1.00202 0.99922 0.991409
1.00194 0.999856 0.991007
1.00179 1.00015 0.990911
1.00165 1.00046 0.990872
1.00146 1.00067 0.991091
1.0007 1.00127 0.991726
1.00101 1.00136 0.991124
1.00128 1.00143 0.990621
0.999955 1.00135 0.993217
1.00041 1.00161 0.99214
1.00057 1.00188 0.991509
0.999515 0.999428 0.99593
0.999912 1.00121 0.993461
1.00025 1.00166 0.992431
0.999477 0.997667 0.99916
0.999586 0.999085 0.996174
0.999936 1.00099 0.99365
0.999531 0.997456 0.999194
0.999652 0.99879 0.99637
0.999587 0.997259 0.999221
1.00011 1.00224 0.992119
1.00013 1.00209 0.992275
1.00009 1.00179 0.992564
1.00014 1.00195 0.992322
1.00013 1.00161 0.992618
0.999994 1.0007 0.993801
1.00017 1.00147 0.992692
1.00002 1.00039 0.994061
0.999763 0.998467 0.996466
1.00005 1.00004 0.994354
0.999825 0.99817 0.996634
0.999679 0.99702 0.99924
0.99975 0.996811 0.999276
0.999874 0.99795 0.996753
0.999812 0.996648 0.999298
0.999461 0.999811 0.986759
0.997109 0.999681 0.969083
0.996252 0.996777 0.97491
1.00034 1.00227 0.991687
1.00012 1.00247 0.991933
1.00008 1.00223 0.992173
1.00001 1.00247 0.99205
1.00004 1.00251 0.992008
0.999993 1.00204 0.992343
1.00007 1.00288 0.991612
0.999926 1.00328 0.991461
1.00023 1.00237 0.991694
1.00066 1.00266 0.991108
1.00169 1.0017 0.989594
1.00352 0.999966 0.987479
1.00181 1.00216 0.988719
1.0004 1.00274 0.990788
1.00453 0.995632 0.990572
1.00008 0.998192 0.986414
0.996148 1.00059 0.973616
1.0008 0.995824 0.987615
1.0042 0.996767 0.990192
1.00174 1.00077 0.989737
1.003 0.999727 0.990805
0.999041 0.999946 0.988923
0.997563 0.999015 0.968617
1.00346 1.00079 0.987439
1.00044 0.998484 0.987569
1.00492 0.99728 0.987853
1.00401 0.99831 0.990064
1.00443 0.996772 0.988564
1.00346 0.998475 0.988509
1.00451 0.995856 0.989455
1.00399 0.996266 0.990379
1.00353 0.997759 0.989965
1.00339 0.995726 0.992159
1.00346 0.996511 0.99125
1.00329 0.997951 0.990212
1.00285 0.996864 0.992025
1.00284 0.997624 0.991363
1.00271 0.998738 0.990429
1.00231 0.99811 0.991826
1.00227 0.9989 0.991164
1.00217 0.999557 0.990724
1.00199 0.999113 0.991475
1.00192 0.999776 0.991035
1.00173 1.00021 0.99096
1.00165 1.00048 0.990851
1.00143 1.00067 0.991046
1.00111 1.00086 0.99154
1.00018 1.00122 0.992918
1.00069 1.00129 0.99179
1.00098 1.0014 0.991187
0.999459 0.999878 0.995599
0.999976 1.00133 0.993219
1.00042 1.00161 0.992135
0.999398 0.997945 0.999101
0.99953 0.999445 0.995924
0.999942 1.00118 0.993465
0.999464 0.997699 0.999143
0.999585 0.999124 0.996168
0.999523 0.997481 0.99918
1.00024 1.00219 0.991822
1.00011 1.00222 0.992127
1.00011 1.00189 0.992474
1.00014 1.00207 0.992303
1.00008 1.00179 0.992587
0.999931 1.00104 0.993601
1.00012 1.00165 0.99261
0.999981 1.00073 0.993797
0.999682 0.998784 0.996303
1.00002 1.0004 0.99406
0.999768 0.998434 0.996477
0.999613 0.997236 0.999205
0.999828 0.998147 0.996644
0.999689 0.996995 0.99925
0.999758 0.996801 0.999281
1.00364 0.996731 0.991258
0.999463 1 0.983184
0.997325 1.00018 0.970575
1.00039 1.00177 0.991909
1.00101 1.00169 0.990952
1.0002 1.0023 0.991753
1.00005 1.0025 0.992041
1.00002 1.00255 0.991985
1.00013 1.00203 0.992252
1.00156 1.00123 0.990274
1.0003 1.0024 0.991796
1.00025 1.00256 0.991324
1.00163 1.00164 0.989735
1.00314 0.999965 0.98804
1.00444 0.99705 0.988427
1.00361 0.999871 0.987474
1.00193 1.00184 0.988652
1.00447 0.995733 0.990789
1 0.998865 0.983706
1.00446 0.996581 0.989949
1.003 0.998092 0.990855
1.0029 0.999137 0.991073
0.999216 0.999911 0.984003
1.00498 0.996663 0.987693
1.00404 0.998144 0.990502
1.00443 0.996931 0.988548
1.00356 0.998427 0.98878
1.00349 0.998463 0.989188
1.00312 0.998215 0.990053
1.004 0.996014 0.990441
1.00355 0.997575 0.990016
1.00339 0.998572 0.989309
1.00345 0.996602 0.991232
1.00323 0.997934 0.990281
1.0031 0.998712 0.989666
1.00272 0.997697 0.991489
1.00272 0.998747 0.990422
1.00258 0.999378 0.990086
1.00226 0.99891 0.991167
1.00217 0.999553 0.990722
1.00198 1.00001 0.990656
1.00191 0.999696 0.991063
1.00171 1.00019 0.990966
1.00136 1.00052 0.991348
1.00141 1.00068 0.991001
1.00107 1.00085 0.991522
1.00048 1.00091 0.992645
0.999488 1.00017 0.995259
1.00018 1.00122 0.992922
1.00068 1.00132 0.991854
0.999287 0.99831 0.999023
0.999499 0.999846 0.99559
0.999997 1.00131 0.993222
0.999377 0.997995 0.999079
0.999545 0.999461 0.995918
0.999451 0.997732 0.999126
1.00053 1.00201 0.991238
1.00024 1.00216 0.99176
1.00027 1.00182 0.992248
1.00011 1.00219 0.992134
1.00009 1.00189 0.992477
0.999881 1.00132 0.993437
1.00008 1.0018 0.992611
0.999908 1.00108 0.993597
0.99959 0.999153 0.996121
0.999968 1.00077 0.993792
0.99969 0.998746 0.996311
0.999538 0.99747 0.999166
0.999773 0.998401 0.996488
0.999625 0.997209 0.999216
0.999699 0.996974 0.99926
1.00375 0.996369 0.990385
1.00363 0.996974 0.991214
0.999695 0.999946 0.986276
1.00163 1.00101 0.990657
1.00024 1.00173 0.992254
1.0016 1.00097 0.990049
1.00103 1.0017 0.990903
1.00004 1.00235 0.99182
1.00296 1.00009 0.988663
1.00027 1.002 0.992163
1.00164 1.00112 0.990214
1.00389 0.998347 0.988437
1.00159 1.00158 0.989877
1.00326 1.00003 0.987965
1.00429 0.997347 0.988419
1.00352 0.999851 0.98747
1.00436 0.995834 0.990996
1.00297 0.998051 0.990821
1.00295 0.997864 0.990769
1.00281 0.998519 0.991345
1.0044 0.997059 0.988533
1.00366 0.998427 0.989047
1.0036 0.998393 0.989113
1.00314 0.998287 0.990111
1.00311 0.998707 0.98975
1.00356 0.997465 0.990067
1.00341 0.998515 0.989345
1.00327 0.998877 0.989231
1.00318 0.997929 0.99035
1.00311 0.998748 0.989643
1.00297 0.999219 0.989476
1.00273 0.998755 0.990415
1.00259 0.999376 0.990073
1.00235 0.999798 0.990132
1.00217 0.999548 0.990721
1.00198 1 0.990653
1.00163 1.00031 0.991013
1.00168 1.00016 0.990972
1.00136 1.00052 0.991353
1.00076 1.00063 0.992386
1.00103 1.00084 0.991504
1.00047 1.00093 0.992648
0.999532 1.00029 0.995707
0.999209 0.998909 0.997413
0.999529 1.0001 0.995605
1.00019 1.00122 0.992926
0.999267 0.998392 0.998992
0.999536 0.999822 0.995581
0.999358 0.998045 0.999057
1.00201 1.0002 0.990244
1.00096 1.00165 0.990775
1.00061 1.002 0.991166
1.00048 1.00167 0.991962
1.00024 1.00213 0.991699
1.00025 1.00181 0.99226
0.999892 1.00145 0.993299
1.00008 1.00189 0.99248
0.999856 1.00135 0.993434
0.999512 0.999541 0.995893
0.999886 1.00113 0.993592
0.999593 0.999113 0.996126
0.999446 0.997744 0.999117
0.999698 0.998706 0.996319
0.999553 0.997441 0.999178
0.999637 0.997181 0.999227
1.00348 0.997775 0.989896
1.00371 0.996642 0.990447
1.00359 0.997295 0.99117
1.00272 0.999936 0.989231
1.0014 1.00103 0.990936
1.00007 1.00167 0.992597
1.00175 1.00092 0.990162
1.00105 1.00172 0.990853
1.00377 0.998931 0.988165
1.00297 1.00015 0.98854
1.00171 1.00105 0.990154
1.00393 0.99838 0.988396
1.00342 1.00006 0.987891
1.00413 0.997601 0.988409
1.00287 0.998583 0.99022
1.00293 0.998032 0.990757
1.00287 0.997589 0.990683
1.00372 0.998313 0.98904
1.00315 0.99833 0.990168
1.00312 0.998694 0.989773
1.00299 0.999128 0.989547
1.00343 0.998449 0.98938
1.00329 0.998849 0.989222
1.0031 0.99912 0.989305
1.00312 0.998786 0.98962
1.00298 0.99922 0.989464
1.0027 0.999567 0.989663
1.0026 0.999374 0.99006
1.00235 0.999794 0.990122
1.00196 1.00011 0.990564
1.00198 0.999995 0.99065
1.00164 1.00031 0.991011
1.00101 1.00045 0.99206
1.00135 1.00051 0.991358
1.00075 1.00064 0.992383
0.999611 1.00035 0.995515
1.00046 1.00094 0.99265
0.999591 1.00026 0.995665
0.999078 0.999449 0.997192
0.999172 0.998886 0.998153
0.999577 1.00004 0.99594
0.999248 0.998467 0.998961
1.00277 0.999665 0.989403
1.00156 1.00087 0.990695
1.00189 1.00006 0.990647
1.00074 1.00156 0.991531
1.00106 1.00165 0.990762
1.0007 1.00198 0.991095
1.00045 1.0017 0.99197
0.999993 1.00145 0.993096
1.00022 1.0018 0.992273
0.999877 1.00145 0.993295
0.999464 0.999914 0.995625
0.999833 1.00137 0.993431
0.999503 0.999518 0.995898
0.999327 0.998089 0.999053
0.999597 0.999074 0.996132
0.999466 0.997705 0.999133
0.999568 0.997411 0.99919
1.00346 0.998479 0.989201
1.0035 0.997808 0.989871
1.00373 0.996937 0.990509
1.00349 0.999026 0.98851
1.00272 0.999971 0.989232
1.0012 1.00105 0.991215
1.0019 1.00085 0.990275
1.00378 0.998933 0.98819
1.00299 1.0002 0.988417
1.00398 0.998401 0.988356
1.00299 0.998976 0.989677
1.00294 0.998626 0.990078
1.0029 0.998038 0.990693
1.00295 0.999448 0.989336
1.00313 0.998684 0.989796
1.003 0.99914 0.989522
1.00297 0.999295 0.989439
1.00332 0.998824 0.989212
1.0031 0.999123 0.989308
1.00284 0.999473 0.989482
1.00298 0.999223 0.989452
1.0027 0.999573 0.989659
1.00227 0.999879 0.990193
1.00236 0.999791 0.990112
1.00197 1.00011 0.990559
1.00128 1.00031 0.99168
1.00164 1.0003 0.99101
1.00102 1.00045 0.99205
0.999706 1.00033 0.995379
1.00074 1.00065 0.992381
0.999672 1.00032 0.995479
0.998983 0.999792 0.997072
0.999651 1.00024 0.995621
0.999046 0.99947 0.997229
0.999117 0.998845 0.998916
1.00323 0.999497 0.988806
1.00239 0.999999 0.989894
1.00269 0.999744 0.989545
1.00123 1.00109 0.991225
1.00154 1.00081 0.990692
1.00178 0.999935 0.991048
1.00023 1.00139 0.992689
1.00074 1.00156 0.991527
1.00115 1.00166 0.990749
1.00041 1.00174 0.991977
0.999975 1.00146 0.993095
0.999456 1.00025 0.99531
0.999861 1.00144 0.993292
0.999434 0.999932 0.995628
0.99918 0.998529 0.998977
0.999493 0.999494 0.995902
0.999355 0.998028 0.999073
0.999486 0.997667 0.999148
1.00346 0.998673 0.989052
1.00355 0.998462 0.989086
1.00349 0.997835 0.989846
1.00357 0.998956 0.988498
1.00272 1.00002 0.989232
1.0038 0.998937 0.988214
1.00305 0.99928 0.989256
1.00297 0.999024 0.989662
1.00301 0.99867 0.989937
1.00293 0.999433 0.98936
1.00289 0.999662 0.989241
1.003 0.999151 0.989497
1.00296 0.999304 0.989443
1.00281 0.999541 0.989511
1.00311 0.999125 0.989312
1.00284 0.999469 0.98949
1.00242 0.999779 0.989998
1.0027 0.999577 0.989655
1.00227 0.999884 0.990188
1.00151 1.00012 0.991406
1.00197 1.00011 0.990554
1.00129 1.0003 0.991668
0.999844 1.00022 0.995268
1.00102 1.00045 0.992039
0.999767 1.00031 0.995344
0.998934 0.999996 0.996997
0.999734 1.00029 0.995442
0.998945 0.999835 0.997106
0.999012 0.999488 0.997269
1.00334 0.998837 0.98909
1.00286 0.999686 0.989238
1.00324 0.999447 0.988757
1.00184 1.00039 0.990622
1.00236 1.00004 0.989965
1.00259 0.999815 0.989688
1.00062 1.00104 0.992219
1.0012 1.00105 0.991107
1.00153 1.00074 0.990688
0.999515 1.00052 0.994928
1.00022 1.00138 0.992693
1.00074 1.00156 0.991523
0.999956 1.00147 0.993094
0.9994 1.00032 0.995317
0.999029 0.999047 0.998888
0.999403 0.999959 0.995631
0.99921 0.998444 0.999001
0.999385 0.99797 0.999094
1.0033 0.998935 0.98913
1.00349 0.998673 0.989023
1.00363 0.998443 0.98897
1.00365 0.998878 0.988485
1.00308 0.999476 0.989031
1.00306 0.999272 0.989282
1.00295 0.999068 0.989646
1.00292 0.999418 0.989384
1.0029 0.999638 0.98923
1.00278 0.999737 0.98939
1.00295 0.999314 0.989447
1.0028 0.99955 0.989542
1.00246 0.999761 0.989885
1.00283 0.999466 0.989498
1.00242 0.999777 0.990001
1.00164 0.999984 0.991274
1.00227 0.999891 0.990183
1.00152 1.00011 0.991398
0.999974 1.00009 0.994332
1.0013 1.00029 0.991655
0.999886 1.00023 0.994805
0.998927 1.00004 0.998685
0.999829 1.00028 0.995308
0.998892 1.00006 0.997029
0.998906 0.99988 0.997141
1.00325 0.998904 0.989292
1.00295 0.999325 0.989318
1.00332 0.998882 0.989122
1.00228 0.99991 0.989933
1.00283 0.999684 0.98931
1.00325 0.999403 0.988709
1.00107 1.00051 0.991604
1.00184 1.00039 0.990614
1.00232 1.0001 0.990036
0.999665 1.00056 0.994556
1.00063 1.00101 0.992114
1.00118 1.00101 0.990989
0.998932 0.999563 0.998783
0.999446 1.00059 0.994943
1.00022 1.00136 0.992696
0.99934 1.00039 0.995324
0.999053 0.998946 0.998918
0.999247 0.998355 0.999025
1.00317 0.999149 0.989163
1.0033 0.998929 0.989145
1.00352 0.998677 0.988995
1.00304 0.999637 0.988985
1.00309 0.999488 0.988995
1.00307 0.999265 0.989309
1.0029 0.999612 0.989218
1.00278 0.999719 0.989393
1.00252 0.999793 0.989875
1.00278 0.999558 0.989574
1.00245 0.999781 0.989992
1.00173 0.999924 0.990978
1.00241 0.999772 0.990003
1.00164 0.999977 0.991273
1.00005 1 0.994276
1.00152 1.00011 0.991389
0.999975 1.00009 0.994327
0.998957 1.00003 0.998677
0.999917 1.00023 0.994364
0.998921 1.0001 0.997843
0.998847 1.00012 0.997063
1.00312 0.999139 0.989388
1.00295 0.999223 0.989503
1.00322 0.998872 0.989311
1.00247 0.999686 0.989943
1.00295 0.99933 0.989345
1.0033 0.998924 0.989154
1.00148 1.00012 0.991208
1.00231 0.999955 0.990069
1.00281 0.999678 0.989382
0.999837 1.00042 0.994323
1.00113 1.00049 0.991555
1.00185 1.00038 0.990606
0.998912 0.999935 0.998695
0.999604 1.00063 0.994572
1.00064 1.00098 0.992009
0.998932 0.999453 0.99882
0.999378 1.00067 0.994958
0.999077 0.998834 0.998945
1.00304 0.999422 0.989189
1.00317 0.999161 0.989167
1.00329 0.998919 0.989161
1.00275 0.999703 0.98951
1.00302 0.999659 0.989014
1.0031 0.9995 0.988958
1.00279 0.999703 0.989396
1.00252 0.999783 0.98988
1.00187 0.999875 0.990751
1.00244 0.999803 0.9901
1.00172 0.999931 0.991078
1.00012 0.999986 0.994139
1.00165 0.999969 0.991272
1.00005 1 0.994274
0.999001 1.00002 0.998666
0.999975 1.0001 0.994322
0.998972 1.00004 0.998673
0.99894 1.00018 0.996957
1.00294 0.99935 0.989531
1.0031 0.999083 0.989404
1.00256 0.999578 0.989903
1.00296 0.999223 0.989497
1.0032 0.998841 0.989329
1.0017 0.999938 0.991192
1.00249 0.999681 0.989933
1.00295 0.999334 0.989372
0.999984 1.00019 0.994227
1.0015 1.00014 0.991276
1.00234 0.999997 0.990205
0.998944 1.00011 0.998653
0.999802 1.00045 0.994334
1.00118 1.00047 0.991505
0.998895 0.999851 0.998723
0.999546 1.00069 0.994587
0.998932 0.999342 0.998854
1.00271 0.999622 0.989688
1.00302 0.999442 0.989214
1.00317 0.999176 0.989171
1.00201 0.999806 0.990529
1.00275 0.999726 0.989509
1.00299 0.999679 0.989042
1.00253 0.999774 0.989884
1.00185 0.999874 0.990787
1.00023 0.999962 0.993943
1.00171 0.999935 0.991179
1.00012 0.999991 0.994135
0.999056 1.00001 0.998637
1.00005 1.00001 0.994273
0.99902 1.00002 0.998658
0.998993 1.00006 0.99867
1.00261 0.999611 0.989813
1.00294 0.9993 0.989511
1.00308 0.999025 0.98942
1.0018 0.999841 0.99109
1.00257 0.99958 0.989897
1.00297 0.999223 0.989492
1.00009 1.00001 0.994183
1.0017 0.999948 0.991193
1.00251 0.999675 0.989923
0.998997 1.00012 0.99864
0.999967 1.00021 0.994237
1.00153 1.00017 0.991344
0.998919 1.00006 0.998664
0.99977 1.00048 0.994346
0.998871 0.999765 0.998753
1.00199 0.999799 0.990764
1.00272 0.999632 0.989576
1.003 0.999459 0.98924
1.00031 0.999925 0.993816
1.002 0.999805 0.990547
1.00274 0.999751 0.989508
1.00183 0.999872 0.990824
1.00023 0.999969 0.993937
0.999142 0.999996 0.998581
1.00013 0.999995 0.99413
0.999084 1.00001 0.998618
0.999039 1.00002 0.998649
1.00189 0.999817 0.990938
1.00262 0.99959 0.989772
1.00294 0.999253 0.989491
1.00019 0.99995 0.994979
1.0018 0.999851 0.991087
1.00258 0.999582 0.989892
0.999058 1.00006 0.998628
1.00009 1.00001 0.994188
1.0017 0.999958 0.991193
0.998974 1.0001 0.998643
0.99995 1.00022 0.994247
0.998893 1.00001 0.998677
1.00033 0.999941 0.993789
1.00199 0.999787 0.990682
1.00272 0.999636 0.989463
0.999216 0.999985 0.998538
1.00032 0.999925 0.993811
1.00199 0.999804 0.990565
1.00023 0.999977 0.99393
0.999169 0.999999 0.998563
0.999114 1.00001 0.998597
1.0003 0.999945 0.99482
1.00189 0.999814 0.99094
1.00263 0.999568 0.989731
0.999029 1.00003 0.998676
1.00016 0.999938 0.994114
1.00181 0.999858 0.991083
0.999035 1.00006 0.998633
1.00008 1.00001 0.994193
0.998946 1.00009 0.998647
0.999224 0.999968 0.996621
1.00033 0.999932 0.994278
1.00199 0.999781 0.990599
0.999222 0.999987 0.998529
1.00032 0.999928 0.99381
0.999193 1 0.998546
0.999094 0.999966 0.996787
1.00026 0.999943 0.994405
1.0019 0.999811 0.990941
0.999062 1 0.997736
1.00017 0.999933 0.994103
0.999015 1.00006 0.998637
0.999229 0.999987 0.998525
1.00032 0.999916 0.993823
0.999232 0.999986 0.998523
0.999143 0.999985 0.997659
1.00025 0.999936 0.993954
0.999078 1.00002 0.998621
0.999207 0.999985 0.998541
0.999146 0.999998 0.998583

TENSORS stress float
0.00117549 3.13962e-05 3.332e-05
3.13962e-05 0.000228531 -5.9591e-06
3.332e-05 -5.9591e-06 0.00021189
0.00283764 -5.93858e-05 3.0697e-05
-5.93858e-05 0.00105505 3.38222e-06
3.0697e-05 3.38222e-06 0.00105675
0.00117724 3.73232e-05 1.37697e-05
3.73232e-05 0.00023264 -2.06377e-06
1.37697e-05 -2.06377e-06 0.000215303
0.0013306 1.37731e-05 4.62207e-05
1.37731e-05 0.000318195 -4.53773e-06
4.62207e-05 -4.53773e-06 0.000297232
0.00121701 2.62715e-05 3.78841e-05
2.62715e-05 0.000259634 -5.56434e-06
3.78841e-05 -5.56434e-06 0.000240446
0.00114222 3.3716e-05 2.95184e-05
3.3716e-05 0.00019828 -6.27031e-06
2.95184e-05 -6.27031e-06 0.000185859
0.00112944 9.64429e-06 7.46383e-06
9.64429e-06 0.000170597 -2.5956e-06
7.46383e-06 -2.5956e-06 0.000134267
0.00284439 -6.03407e-05 4.37901e-07
-6.03407e-05 0.00105553 -1.43661e-07
4.37901e-07 -1.43661e-07 0.00105781
0.00324558 -8.68941e-05 1.0781e-05
-8.68941e-05 0.00130622 1.21215e-06
1.0781e-05 1.21215e-06 0.001296
0.00285981 -7.12813e-05 1.16701e-05
-7.12813e-05 0.00108268 1.30102e-06
1.16701e-05 1.30102e-06 0.0010803
0.001093 -3.28002e-05 2.44866e-05
-3.28002e-05 0.000149141 3.86933e-06
2.44866e-05 3.86933e-06 0.000146246
0.000784271 -1.55582e-05 5.71284e-06
-1.55582e-05 -9.34601e-06 3.24851e-06
5.71284e-06 3.24851e-06 -3.99688e-05
0.00160715 -8.99121e-06 5.69745e-05
-8.99121e-06 0.000439972 9.11854e-07
5.69745e-05 9.11854e-07 0.000418997
0.00135372 -3.70614e-05 7.47322e-06
-3.70614e-05 0.000335618 1.4455e-06
7.47322e-06 1.4455e-06 0.000312308
0.00117397 4.48828e-05 -7.15803e-06
4.48828e-05 0.000234381 1.78892e-06
-7.15803e-06 1.78892e-06 0.000216174
0.00133928 3.18796e-05 2.06088e-05
3.18796e-05 0.000327933 -1.3479e-06
2.06088e-05 -1.3479e-06 0.000305011
0.00112858 3.80287e-05 1.18295e-05
3.80287e-05 0.000193378 -2.25031e-06
1.18295e-05 -2.25031e-06 0.000180721
0.00122626 3.52865e-05 1.60064e-05
3.52865e-05 0.000268488 -1.78937e-06
1.60064e-05 -1.78937e-06 0.000248114
0.00117967 9.09795e-06 -5.13411e-06
9.09795e-06 0.000194169 4.467e-07
-5.13411e-06 4.467e-07 0.000158289
0.00415205 5.01362e-05 5.56533e-05
5.01362e-05 0.00174321 -5.59319e-07
5.56533e-05 -5.59319e-07 0.00173525
0.0014075 1.28337e-05 4.92543e-05
1.28337e-05 0.000352105 -3.57162e-06
4.92543e-05 -3.57162e-06 0.000331542
0.00125937 1.87551e-05 4.22415e-05
1.87551e-05 0.000285217 -5.19322e-06
4.22415e-05 -5.19322e-06 0.000264712
0.00131129 6.92418e-06 8.68708e-06
6.92418e-06 0.000235178 -2.88541e-06
8.68708e-06 -2.88541e-06 0.00019372
0.00118509 6.57324e-06 7.78391e-06
6.57324e-06 0.000193461 -2.70702e-06
7.78391e-06 -2.70702e-06 0.000154952
0.00114151 3.44249e-05 2.70219e-05
3.44249e-05 0.000182411 -6.33317e-06
2.70219e-05 -6.33317e-06 0.000175286
0.00107043 1.65714e-05 6.7002e-06
1.65714e-05 0.00014492 -2.63683e-06
6.7002e-06 -2.63683e-06 0.000112065
0.00143747 -3.9062e-05 2.51884e-06
-3.9062e-05 0.000259266 -1.0803e-06
2.51884e-06 -1.0803e-06 0.000199118
0.00285002 -6.11982e-05 -2.87451e-05
-6.11982e-05 0.0010552 -3.38575e-06
-2.87451e-05 -3.38575e-06 0.00105811
0.0022205 -5.61834e-05 -1.48922e-05
-5.61834e-05 0.000780584 -5.24407e-07
-1.48922e-05 -5.24407e-07 0.000765681
0.00202695 -5.27146e-05 -1.18206e-05
-5.27146e-05 0.000655738 -8.52682e-07
-1.18206e-05 -8.52682e-07 0.000648343
0.00272127 -5.60718e-05 3.13038e-07
-5.60718e-05 0.000980344 -8.70645e-08
3.13038e-07 -8.70645e-08 0.000985976
0.000729134 -1.77787e-05 8.20864e-08
-1.77787e-05 -3.43617e-05 -5.3007e-08
8.20864e-08 -5.3007e-08 -6.53125e-05
0.00149381 -1.74771e-05 4.1091e-05
-1.74771e-05 0.000408373 2.97699e-06
4.1091e-05 2.97699e-06 0.000386936
0.00131265 -3.00198e-05 3.31194e-05
-3.00198e-05 0.000305764 3.24039e-06
3.31194e-05 3.24039e-06 0.000289214
0.00186886 1.03187e-05 2.08607e-05
1.03187e-05 0.00053758 2.8301e-06
2.08607e-05 2.8301e-06 0.000502913
0.00261108 -5.69443e-05 1.03508e-05
-5.69443e-05 0.000913524 1.49073e-06
1.03508e-05 1.49073e-06 0.000921807
0.00169456 -1.31562e-05 1.63325e-05
-1.31562e-05 0.000456662 2.6083e-06
1.63325e-05 2.6083e-06 0.000428202
0.000769526 -2.74561e-05 6.43493e-06
-2.74561e-05 -2.00108e-05 5.06381e-06
6.43493e-06 5.06381e-06 -4.70743e-05
0.000905363 2.29525e-05 2.90107e-06
2.29525e-05 2.71558e-05 1.12407e-06
2.90107e-06 1.12407e-06 -3.29482e-05
0.00258213 -4.30043e-05 2.5035e-05
-4.30043e-05 0.00088141 3.9314e-06
2.5035e-05 3.9314e-06 0.000893998
0.00431789 -5.04302e-05 1.41572e-06
-5.04302e-05 0.00182233 -2.10097e-07
1.41572e-06 -2.10097e-07 0.00181408
0.0026457 -5.05961e-05 -2.12173e-05
-5.05961e-05 0.000989774 -9.41446e-08
-2.12173e-05 -9.41446e-08 0.000973374
0.00448367 -3.83582e-05 6.1957e-05
-3.83582e-05 0.0018995 1.49611e-07
6.1957e-05 1.49611e-07 0.00189156
0.00137989 -3.04811e-05 8.4097e-06
-3.04811e-05 0.00034044 1.11639e-06
8.4097e-06 1.11639e-06 0.000317692
0.000776573 -1.15335e-05 1.15055e-05
-1.15335e-05 -7.47624e-05 2.27909e-06
1.15055e-05 2.27909e-06 -0.000119675
0.00370943 -0.000106311 8.09796e-06
-0.000106311 0.00154484 1.04928e-06
8.09796e-06 1.04928e-06 0.00153085
0.00208611 -1.5684e-05 2.86329e-05
-1.5684e-05 0.000613813 2.95299e-06
2.86329e-05 2.95299e-06 0.000578729
0.00136748 5.24663e-05 -5.61141e-06
5.24663e-05 0.000348361 1.92591e-06
-5.61141e-06 1.92591e-06 0.000323043
0.00123942 4.70114e-05 -6.85348e-06
4.70114e-05 0.000279667 1.87154e-06
-6.85348e-06 1.87154e-06 0.000257824
0.0011 4.29686e-05 -6.94018e-06
4.29686e-05 0.000181028 1.70123e-06
-6.94018e-06 1.70123e-06 0.000168079
0.00123461 7.4137e-06 -1.83542e-05
7.4137e-06 0.000220083 3.49281e-06
-1.83542e-05 3.49281e-06 0.000184724
0.00282615 4.36063e-05 -2.1607e-05
4.36063e-05 0.00106832 -8.22791e-07
-2.1607e-05 -8.22791e-07 0.00105277
0.0013864 3.12356e-05 2.18657e-05
3.12356e-05 0.00034619 -1.03138e-06
2.18657e-05 -1.03138e-06 0.000323768
0.00109865 3.76557e-05 1.04888e-05
3.76557e-05 0.000161806 -2.28073e-06
1.04888e-05 -2.28073e-06 0.000154732
0.00127714 3.28402e-05 1.82821e-05
3.28402e-05 0.000299103 -1.56389e-06
1.82821e-05 -1.56389e-06 0.000276936
0.00136842 1.80579e-06 -8.13037e-06
1.80579e-06 0.000261357 1.15505e-07
-8.13037e-06 1.15505e-07 0.000220893
0.00112112 1.66561e-05 -4.36906e-06
1.66561e-05 0.000169172 4.70087e-07
-4.36906e-06 4.70087e-07 0.000136654
0.00123752 4.71903e-06 -6.23962e-06
4.71903e-06 0.000217242 3.82768e-07
-6.23962e-06 3.82768e-07 0.000179424
0.00150237 -4.19861e-05 -1.39929e-06
-4.19861e-05 0.000289606 5.52198e-07
-1.39929e-06 5.52198e-07 0.000228954
0.00429103 5.27278e-05 5.59445e-05
5.27278e-05 0.00180852 3.0137e-08
5.59445e-05 3.0137e-08 0.00180029
0.001443 1.45609e-05 5.14056e-05
1.45609e-05 0.000367306 -2.67598e-06
5.14056e-05 -2.67598e-06 0.000346998
0.00205055 2.8151e-05 9.26304e-06
2.8151e-05 0.000582944 -1.16447e-06
9.26304e-06 -1.16447e-06 0.000546006
0.00137072 1.04822e-05 9.65206e-06
1.04822e-05 0.000253268 -2.35e-06
9.65206e-06 -2.35e-06 0.00021224
0.00123749 5.4581e-06 8.08802e-06
5.4581e-06 0.000211497 -2.94684e-06
8.08802e-06 -2.94684e-06 0.000171215
0.00172633 -4.2353e-05 3.47522e-06
-4.2353e-05 0.00032384 -1.60248e-06
3.47522e-06 -1.60248e-06 0.000258547
0.00120651 -3.73637e-05 3.27174e-06
-3.73637e-05 0.000117553 -1.58248e-06
3.27174e-06 -1.58248e-06 5.52111e-05
0.00120555 3.37769e-05 2.62657e-05
3.37769e-05 0.000197747 -6.2428e-06
2.62657e-05 -6.2428e-06 0.000195706
0.00104065 3.75833e-05 4.86195e-06
3.75833e-05 0.000130693 -2.78461e-06
4.86195e-06 -2.78461e-06 0.00010208
0.00132128 -2.84249e-05 2.17387e-06
-2.84249e-05 0.000226889 -1.0685e-06
2.17387e-06 -1.0685e-06 0.000168418
0.0011284 -5.51907e-05 2.05151e-06
-5.51907e-05 5.42044e-05 -9.84862e-07
2.05151e-06 -9.84862e-07 -2.00908e-05
0.00323773 -7.40283e-05 -3.3799e-05
-7.40283e-05 0.00129584 -2.65484e-06
-3.3799e-05 -2.65484e-06 0.00128803
0.00275838 -5.67933e-05 -2.73345e-05
-5.67933e-05 0.000995773 -3.4867e-06
-2.73345e-05 -3.4867e-06 0.00100212
0.00294171 -6.50112e-05 -3.04967e-05
-6.50112e-05 0.00111779 -3.18315e-06
-3.04967e-05 -3.18315e-06 0.00111696
0.00068119 -2.29919e-05 -4.40635e-06
-2.29919e-05 -5.55566e-05 -3.73133e-06
-4.40635e-06 -3.73133e-06 -8.68183e-05
0.00364303 -7.21146e-05 8.0505e-07
-7.21146e-05 0.00150493 -1.69316e-07
8.0505e-07 -1.69316e-07 0.00149483
0.00312872 -6.89321e-05 7.32644e-07
-6.89321e-05 0.00123302 -1.47915e-07
7.32644e-07 -1.47915e-07 0.0012274
0.000698765 2.03686e-05 -6.62772e-08
2.03686e-05 -5.26775e-05 -1.5136e-07
-6.62772e-08 -1.5136e-07 -9.40846e-05
0.00186421 -4.38008e-05 -1.01362e-05
-4.38008e-05 0.000530804 -1.01606e-06
-1.01362e-05 -1.01606e-06 0.000535328
0.000735123 -4.09722e-06 -6.33706e-08
-4.09722e-06 -2.88463e-05 -5.58065e-08
-6.33706e-08 -5.58065e-08 -6.31629e-05
0.00115568 -3.84254e-05 5.38489e-06
-3.84254e-05 0.000178115 5.25144e-07
5.38489e-06 5.25144e-07 0.000153559
0.000888758 1.96854e-05 8.60682e-08
1.96854e-05 1.92527e-05 -2.35007e-07
8.60682e-08 -2.35007e-07 -4.09814e-05
0.00261152 -4.73261e-05 2.59937e-05
-4.73261e-05 0.000904378 3.76171e-06
2.59937e-05 3.76171e-06 0.000915126
0.000806271 -2.97798e-05 4.04616e-06
-2.97798e-05 -3.0916e-05 3.80183e-06
4.04616e-06 3.80183e-06 -4.66662e-05
0.000776572 2.90734e-05 9.71226e-06
2.90734e-05 -2.9056e-05 4.66043e-06
9.71226e-06 4.66043e-06 -7.21857e-05
0.000765663 1.14523e-05 8.26895e-06
1.14523e-05 -1.65399e-05 4.66791e-06
8.26895e-06 4.66791e-06 -5.52844e-05
0.00101262 4.06937e-05 3.37561e-06
4.06937e-05 2.3082e-05 1.65186e-06
3.37561e-06 1.65186e-06 -4.11911e-05
0.00157689 -4.59942e-05 1.24941e-05
-4.59942e-05 0.000383897 3.34108e-06
1.24941e-05 3.34108e-06 0.000365574
0.00093778 3.27837e-05 2.83677e-06
3.27837e-05 3.26031e-05 1.22229e-06
2.83677e-06 1.22229e-06 -2.74879e-05
0.000905998 1.25205e-05 2.6868e-06
1.25205e-05 3.21885e-05 1.68103e-06
2.6868e-06 1.68103e-06 -2.68274e-05
0.000940344 4.93624e-05 1.49384e-06
4.93624e-05 1.74784e-05 5.81764e-08
1.49384e-06 5.81764e-08 -5.42724e-05
0.00252715 -3.86507e-05 2.35837e-05
-3.86507e-05 0.000846595 4.05231e-06
2.35837e-05 4.05231e-06 0.000860981
0.00259785 -4.31368e-05 3.6294e-07
-4.31368e-05 0.000888382 -8.60478e-08
3.6294e-07 -8.60478e-08 0.000901142
0.00386537 -6.14062e-05 -4.60365e-05
-6.14062e-05 0.00161094 -1.59953e-06
-4.60365e-05 -1.59953e-06 0.00160164
0.00420861 -4.92835e-05 -5.38487e-05
-4.92835e-05 0.00177036 -6.22678e-07
-5.38487e-05 -6.22678e-07 0.00176215
0.00444069 -2.89201e-05 2.47732e-06
-2.89201e-05 0.00187855 -2.77996e-07
2.47732e-06 -2.77996e-07 0.00187098
0.00274969 -4.34664e-05 -2.23782e-05
-4.34664e-05 0.00103451 -4.0456e-08
-2.23782e-05 -4.0456e-08 0.00101863
0.0014547 -3.14942e-06 1.25563e-05
-3.14942e-06 0.00027163 -8.97457e-08
1.25563e-05 -8.97457e-08 0.000231239
0.0024843 -5.49077e-05 -1.90771e-05
-5.49077e-05 0.000915233 -2.07754e-07
-1.90771e-05 -2.07754e-07 0.000898281
0.00133929 5.11223e-06 1.02949e-05
5.11223e-06 0.000237166 -8.09122e-09
1.02949e-05 -8.09122e-09 0.000198528
0.00446049 2.88189e-05 5.69993e-05
2.88189e-05 0.00188733 6.94202e-07
5.69993e-05 6.94202e-07 0.00187967
0.000755434 -1.84729e-06 9.60552e-06
-1.84729e-06 -9.55255e-05 7.56729e-07
9.60552e-06 7.56729e-07 -0.000141187
0.00212142 -3.28219e-05 3.07764e-05
-3.28219e-05 0.000622199 2.32951e-06
3.07764e-05 2.32951e-06 0.000586105
0.00119327 3.10043e-06 5.62729e-06
3.10043e-06 -1.00342e-06 1.53326e-06
5.62729e-06 1.53326e-06 -7.24776e-05
0.00199532 1.51044e-05 2.52486e-05
1.51044e-05 0.000580681 2.69771e-06
2.52486e-05 2.69771e-06 0.000545031
0.00115353 2.54932e-05 4.97098e-06
2.54932e-05 1.44759e-05 1.6864e-06
4.97098e-06 1.6864e-06 -5.48968e-05
0.00155504 1.6418e-05 -5.42449e-05
1.6418e-05 0.000417354 6.95453e-07
-5.42449e-05 6.95453e-07 0.000396874
0.00137873 3.77187e-05 -7.9155e-06
3.77187e-05 0.000345988 1.56053e-06
-7.9155e-06 1.56053e-06 0.000322504
0.00103601 4.09057e-05 -6.57887e-06
4.09057e-05 0.000131377 1.62532e-06
-6.57887e-06 1.62532e-06 0.000124369
0.00130822 4.96603e-05 -6.17897e-06
4.96603e-05 0.000320344 1.95999e-06
-6.17897e-06 1.95999e-06 0.000296171
0.00140271 -3.97515e-06 -2.50978e-05
-3.97515e-06 0.000275468 3.16898e-06
-2.50978e-05 3.16898e-06 0.000236272
0.00128347 1.34399e-06 -2.06486e-05
1.34399e-06 0.000237561 3.38532e-06
-2.06486e-05 3.38532e-06 0.00020058
0.00118744 1.60753e-05 -1.61419e-05
1.60753e-05 0.000201193 3.55945e-06
-1.61419e-05 3.55945e-06 0.000169044
0.00156931 -4.47363e-05 -5.35063e-06
-4.47363e-05 0.000320874 2.19632e-06
-5.35063e-06 2.19632e-06 0.000259725
0.00435914 5.7533e-05 -2.35198e-06
5.7533e-05 0.00184118 -2.82138e-07
-2.35198e-06 -2.82138e-07 0.00183278
0.00140163 2.74407e-05 2.21355e-05
2.74407e-05 0.000349647 -7.06956e-07
2.21355e-05 -7.06956e-07 0.000328121
0.00110581 1.44175e-05 -1.35004e-05
1.44175e-05 9.98725e-05 1.86578e-07
-1.35004e-05 1.86578e-07 5.81563e-05
0.0014158 2.40129e-06 -8.03963e-06
2.40129e-06 0.000273182 8.04811e-08
-8.03963e-06 8.04811e-08 0.000233337
0.00194522 4.48691e-05 1.85563e-05
4.48691e-05 0.000578342 -1.9026e-06
1.85563e-05 -1.9026e-06 0.000580541
0.00131103 3.23919e-05 -3.75008e-06
3.23919e-05 0.000265035 4.43881e-07
-3.75008e-06 4.43881e-07 0.000238393
0.00129766 1.62683e-06 -7.30241e-06
1.62683e-06 0.000238829 2.49406e-07
-7.30241e-06 2.49406e-07 0.000199463
0.0015641 -3.92067e-05 -2.21131e-06
-3.92067e-05 0.000240979 4.71657e-07
-2.21131e-06 4.71657e-07 0.000174897
0.0014299 -3.34111e-05 -1.15178e-06
-3.34111e-05 0.000278528 6.37402e-07
-1.15178e-06 6.37402e-07 0.000219403
0.0013897 -4.15162e-05 -6.12046e-07
-4.15162e-05 0.000209022 1.50533e-07
-6.12046e-07 1.50533e-07 0.000147162
0.00112257 -5.47081e-05 2.69173e-09
-5.47081e-05 5.16553e-05 -3.95069e-08
2.69173e-09 -3.95069e-08 -2.254e-05
0.000738197 4.37197e-06 9.38348e-06
4.37197e-06 -9.70475e-05 -1.45683e-06
9.38348e-06 -1.45683e-06 -0.000141936
0.00138924 1.4769e-05 1.04655e-05
1.4769e-05 0.000256257 -1.80395e-06
1.04655e-05 -1.80395e-06 0.000216298
0.00153219 1.0533e-05 5.10263e-06
1.0533e-05 0.000180352 -9.39576e-07
5.10263e-06 -9.39576e-07 0.000112699
0.00143737 -2.83114e-05 4.69487e-06
-2.83114e-05 0.000157248 -1.40853e-06
4.69487e-06 -1.40853e-06 9.06545e-05
0.00132123 -4.02238e-05 3.67336e-06
-4.02238e-05 0.000147158 -1.8764e-06
3.67336e-06 -1.8764e-06 8.25283e-05
0.00165098 -5.12497e-05 1.68312e-06
-5.12497e-05 0.00022387 -6.22424e-07
1.68312e-06 -6.22424e-07 0.00014573
0.00275302 5.23626e-05 2.68939e-05
5.23626e-05 0.000980177 -3.58435e-06
2.68939e-05 -3.58435e-06 0.000989219
0.00114367 -5.21344e-05 1.8889e-06
-5.21344e-05 3.67577e-05 -8.11598e-07
1.8889e-06 -8.11598e-07 -3.70781e-05
0.000730183 3.98759e-05 3.81929e-06
3.98759e-05 -4.10401e-05 -3.62536e-06
3.81929e-06 -3.62536e-06 -6.6864e-05
0.000785374 -1.56485e-05 2.27517e-06
-1.56485e-05 -2.76937e-05 -1.58174e-06
2.27517e-06 -1.58174e-06 -8.67156e-05
0.00118061 -5.87586e-05 2.01179e-06
-5.87586e-05 0.000109286 -1.40847e-06
2.01179e-06 -1.40847e-06 3.39989e-05
0.00121996 -6.30209e-05 1.43256e-06
-6.30209e-05 6.99841e-05 -5.01888e-07
1.43256e-06 -5.01888e-07 -9.25548e-06
0.000738427 3.12375e-05 4.31053e-06
3.12375e-05 -5.82756e-05 -3.8875e-06
4.31053e-06 -3.8875e-06 -7.67988e-05
0.000920915 8.95218e-07 2.34254e-06
8.95218e-07 1.84237e-05 -2.5913e-06
2.34254e-06 -2.5913e-06 -3.018e-05
0.0034693 -7.52513e-05 -3.78714e-05
-7.52513e-05 0.00141775 -2.39442e-06
-3.78714e-05 -2.39442e-06 0.00140797
0.00304531 -6.9374e-05 -3.14149e-05
-6.9374e-05 0.00118696 -2.92166e-06
-3.14149e-05 -2.92166e-06 0.00118238
0.000667269 1.66738e-05 -6.2162e-06
1.66738e-05 -6.44687e-05 -3.67744e-06
-6.2162e-06 -3.67744e-06 -0.00010619
0.00270564 -5.21614e-05 -2.67413e-05
-5.21614e-05 0.000958322 -3.61027e-06
-2.67413e-05 -3.61027e-06 0.000967355
0.000666658 -3.85136e-05 -3.76674e-06
-3.85136e-05 -6.9436e-05 -3.86397e-06
-3.76674e-06 -3.86397e-06 -9.6457e-05
0.000665539 -4.75826e-06 -5.8293e-06
-4.75826e-06 -5.88558e-05 -3.35694e-06
-5.8293e-06 -3.35694e-06 -9.3807e-05
0.000864844 1.87827e-05 -2.59829e-06
1.87827e-05 7.29394e-06 -1.4595e-06
-2.59829e-06 -1.4595e-06 -5.28426e-05
0.00264066 -4.74983e-05 3.21203e-07
-4.74983e-05 0.000917815 -9.5454e-08
3.21203e-07 -9.5454e-08 0.000928729
0.000790792 -2.86995e-05 1.4451e-07
-2.86995e-05 -3.96216e-05 -9.38663e-09
1.4451e-07 -9.38663e-09 -5.50526e-05
0.00127772 2.17924e-05 8.71387e-06
2.17924e-05 0.000229329 2.44526e-08
8.71387e-06 2.44526e-08 0.000190033
0.00119918 1.99921e-06 6.47378e-06
1.99921e-06 0.000208407 3.25485e-07
6.47378e-06 3.25485e-07 0.000173054
0.000993434 4.08198e-05 1.46757e-07
4.08198e-05 1.34915e-05 -2.25406e-09
1.46757e-07 -2.25406e-09 -5.06337e-05
0.000774442 -3.7234e-05 -3.90063e-08
-3.7234e-05 -2.71032e-05 4.7068e-09
-3.90063e-08 4.7068e-09 -4.91376e-05
0.000910358 3.14734e-05 -7.35414e-08
3.14734e-05 1.89851e-05 6.70119e-08
-7.35414e-08 6.70119e-08 -4.10091e-05
0.000878567 9.8415e-06 -1.81823e-08
9.8415e-06 1.98693e-05 -1.70312e-07
-1.81823e-08 -1.70312e-07 -3.9222e-05
0.000906348 4.85343e-05 -4.84343e-08
4.85343e-05 -4.1147e-07 -1.42064e-07
-4.84343e-08 -1.42064e-07 -7.23007e-05
0.000792038 -3.39132e-05 4.14594e-06
-3.39132e-05 -2.83925e-05 3.69702e-06
4.14594e-06 3.69702e-06 -4.72009e-05
0.000824466 -2.58143e-05 3.73653e-06
-2.58143e-05 -2.93282e-05 3.82222e-06
3.73653e-06 3.82222e-06 -4.20048e-05
0.000897842 1.20119e-06 2.83092e-06
1.20119e-06 5.40036e-06 2.0297e-06
2.83092e-06 2.0297e-06 -4.25191e-05
0.00105497 3.77692e-05 3.78713e-06
3.77692e-05 1.31952e-05 1.73025e-06
3.78713e-06 1.73025e-06 -5.31864e-05
0.000977541 3.93274e-05 3.02105e-06
3.93274e-05 3.46048e-05 1.55554e-06
3.02105e-06 1.55554e-06 -2.72405e-05
0.00117401 5.62555e-05 1.88579e-06
5.62555e-05 5.66089e-05 1.17176e-06
1.88579e-06 1.17176e-06 -1.96172e-05
0.000910756 7.40327e-06 2.69903e-06
7.40327e-06 2.73958e-05 1.85683e-06
2.69903e-06 1.85683e-06 -2.76999e-05
0.000953935 5.21479e-05 1.20386e-06
5.21479e-05 5.44686e-06 3.94569e-07
1.20386e-06 3.94569e-07 -6.51825e-05
0.00104362 4.74559e-05 1.54886e-06
4.74559e-05 8.44705e-05 4.23261e-07
1.54886e-06 4.23261e-07 1.12802e-05
0.00108002 6.18028e-05 -8.18836e-08
6.18028e-05 8.05343e-05 -4.69708e-07
-8.18836e-08 -4.69708e-07 2.68554e-06
0.00245693 -3.44003e-05 2.17294e-05
-3.44003e-05 0.000804685 4.10079e-06
2.17294e-05 4.10079e-06 0.00082087
0.00253292 -3.87971e-05 4.16553e-07
-3.87971e-05 0.000848695 -7.55941e-08
4.16553e-07 -7.55941e-08 0.00086328
0.00261256 -4.33139e-05 -2.43565e-05
-4.33139e-05 0.000894832 -3.89723e-06
-2.43565e-05 -3.89723e-06 0.000907766
0.000771878 2.74094e-05 3.80037e-06
2.74094e-05 -4.90494e-05 -3.88361e-06
3.80037e-06 -3.88361e-06 -6.41662e-05
0.00270548 4.78371e-05 2.57835e-05
4.78371e-05 0.000948626 -3.73768e-06
2.57835e-05 -3.73768e-06 0.000959592
0.00368047 -7.40748e-05 -4.1175e-05
-7.40748e-05 0.00152363 -2.07284e-06
-4.1175e-05 -2.07284e-06 0.0015132
0.0040294 -5.43166e-05 -4.99952e-05
-5.43166e-05 0.00168714 -1.11157e-06
-4.99952e-05 -1.11157e-06 0.00167854
0.000690961 1.70127e-05 -8.04791e-06
1.70127e-05 -9.2383e-05 -3.10314e-06
-8.04791e-06 -3.10314e-06 -0.000134329
0.00072886 1.102e-05 -9.01329e-06
1.102e-05 -9.64706e-05 -2.04327e-06
-9.01329e-06 -2.04327e-06 -0.000140476
0.00439438 -3.17593e-05 -5.68184e-05
-3.17593e-05 0.00185633 -1.37844e-07
-5.68184e-05 -1.37844e-07 0.0018488
0.00448105 1.71701e-05 -1.07242e-06
1.71701e-05 0.00189761 2.8835e-07
-1.07242e-06 2.8835e-07 0.00188989
0.000750627 -3.45529e-07 6.29676e-08
-3.45529e-07 -9.76611e-05 -2.19212e-07
6.29676e-08 -2.19212e-07 -0.000143237
0.00139814 -7.2576e-06 1.14166e-05
-7.2576e-06 0.000256212 9.76926e-09
1.14166e-05 9.76926e-09 0.000217155
0.00119872 6.22373e-06 1.051e-07
6.22373e-06 1.88684e-06 -6.71624e-09
1.051e-07 -6.71624e-09 -6.95698e-05
0.000681554 2.22146e-05 -3.22342e-08
2.22146e-05 -8.48684e-05 -1.02515e-07
-3.22342e-08 -1.02515e-07 -0.000127323
0.00115857 2.62806e-05 9.53855e-08
2.62806e-05 1.76198e-05 -1.2038e-07
9.53855e-08 -1.2038e-07 -5.18027e-05
0.000733061 -2.00009e-06 9.68821e-06
-2.00009e-06 -0.000108571 -4.82392e-07
9.68821e-06 -4.82392e-07 -0.000154617
0.00122463 1.94204e-07 5.84562e-06
1.94204e-07 -1.02003e-06 8.10603e-07
5.84562e-06 8.10603e-07 -7.4514e-05
0.00117761 1.45771e-05 5.33813e-06
1.45771e-05 8.40453e-06 1.58978e-06
5.33813e-06 1.58978e-06 -6.15833e-05
0.00140093 3.53445e-06 2.88134e-06
3.53445e-06 3.99451e-05 1.0614e-06
2.88134e-06 1.0614e-06 -4.27756e-05
0.00110738 3.23313e-05 4.3435e-06
3.23313e-05 1.30182e-05 1.81146e-06
4.3435e-06 1.81146e-06 -5.5183e-05
0.00134333 2.92681e-05 2.36206e-06
2.92681e-05 4.93395e-05 7.41427e-07
2.36206e-06 7.41427e-07 -3.01051e-05
0.00442594 5.45584e-05 -6.30307e-05
5.45584e-05 0.00187274 -4.69525e-07
-6.30307e-05 -4.69525e-07 0.00186454
0.00135311 3.06893e-05 -8.74997e-06
3.06893e-05 0.000327598 1.12542e-06
-8.74997e-06 1.12542e-06 0.000305424
0.000151887 3.81027e-06 -1.08407e-05
3.81027e-06 -0.000386557 2.25394e-06
-1.08407e-05 2.25394e-06 -0.000434038
0.0014495 -2.3888e-08 -2.67677e-05
-2.3888e-08 0.00028789 2.57798e-06
-2.67677e-05 2.57798e-06 0.000248817
0.00267224 6.1585e-05 -1.0622e-05
6.1585e-05 0.000953344 1.41728e-06
-1.0622e-05 1.41728e-06 0.000959101
0.00159754 3.95053e-05 -1.4447e-05
3.95053e-05 0.000408565 3.57229e-06
-1.4447e-05 3.57229e-06 0.000383229
0.00133933 -3.44193e-06 -2.28494e-05
-3.44193e-06 0.000256421 3.36039e-06
-2.28494e-05 3.36039e-06 0.000218181
0.00141035 -3.66974e-05 -7.59995e-06
-3.66974e-05 0.000162486 2.53352e-06
-7.59995e-06 2.53352e-06 9.5571e-05
0.00158403 -4.5561e-05 -4.73475e-06
-4.5561e-05 0.00030608 1.83312e-06
-4.73475e-06 1.83312e-06 0.000244688
0.00153266 -3.80551e-05 -4.92207e-06
-3.80551e-05 0.000327315 2.39014e-06
-4.92207e-06 2.39014e-06 0.000267525
0.00111759 -5.42964e-05 -1.76054e-06
-5.42964e-05 4.95038e-05 8.25483e-07
-1.76054e-06 8.25483e-07 -2.45943e-05
0.000752202 5.36336e-06 -1.78418e-07
5.36336e-06 -9.07337e-05 -1.7738e-07
-1.78418e-07 -1.7738e-07 -0.000135712
0.00143147 1.03252e-05 -8.30994e-06
1.03252e-05 0.000275106 6.25961e-08
-8.30994e-06 6.25961e-08 0.000236011
0.00121651 8.67745e-06 -1.40843e-06
8.67745e-06 2.07356e-05 9.15782e-08
-1.40843e-06 9.15782e-08 -4.87428e-05
0.00160495 -2.97537e-05 -1.26422e-06
-2.97537e-05 0.000241685 9.75267e-08
-1.26422e-06 9.75267e-08 0.000175664
0.00270981 5.20691e-05 -2.67173e-07
5.20691e-05 0.000960024 -9.67779e-08
-2.67173e-07 -9.67779e-08 0.000968845
0.00116392 4.55031e-05 1.08727e-06
4.55031e-05 0.000180343 7.21399e-08
1.08727e-06 7.21399e-08 0.000156375
0.00111992 -1.62334e-05 1.13335e-07
-1.62334e-05 0.000138803 -3.22134e-08
1.13335e-07 -3.22134e-08 8.08021e-05
0.00132319 -4.01797e-05 -9.1586e-07
-4.01797e-05 0.000148446 1.10112e-07
-9.1586e-07 1.10112e-07 8.39369e-05
0.0013895 -4.73652e-05 -9.40638e-07
-4.73652e-05 9.16018e-05 4.05135e-07
-9.40638e-07 4.05135e-07 1.25488e-05
0.00101992 -5.44162e-05 -1.93831e-07
-5.44162e-05 3.11218e-05 -1.37916e-07
-1.93831e-07 -1.37916e-07 -4.43072e-05
0.00131762 -5.47312e-05 7.02783e-08
-5.47312e-05 0.000122571 1.03154e-07
7.02783e-08 1.03154e-07 4.91912e-05
0.00120944 -6.25882e-05 1.20713e-07
-6.25882e-05 6.52649e-05 1.74743e-08
1.20713e-07 1.74743e-08 -1.38297e-05
0.000760847 3.28055e-05 -1.26832e-07
3.28055e-05 -4.54423e-05 -2.71855e-08
-1.26832e-07 -2.71855e-08 -6.43854e-05
0.000905177 -6.91081e-07 -2.95943e-07
-6.91081e-07 1.01277e-05 -2.81243e-08
-2.95943e-07 -2.81243e-08 -3.84322e-05
0.00121418 4.65791e-06 5.70893e-06
4.65791e-06 1.49369e-06 -8.80332e-07
5.70893e-06 -8.80332e-07 -7.04984e-05
0.0014678 -4.42391e-06 4.89015e-06
-4.42391e-06 0.000160655 -1.13534e-06
4.89015e-06 -1.13534e-06 9.45735e-05
0.00172516 5.59837e-06 2.35945e-06
5.59837e-06 0.000214419 -2.07113e-07
2.35945e-06 -2.07113e-07 0.000135282
0.00117187 -3.20087e-05 3.34955e-06
-3.20087e-05 -4.32753e-05 -8.1283e-07
3.34955e-06 -8.1283e-07 -0.00012345
0.00132108 -5.26239e-05 1.58355e-06
-5.26239e-05 9.85076e-05 -9.5828e-07
1.58355e-06 -9.5828e-07 2.35262e-05
0.00161734 -5.12089e-05 8.34059e-07
-5.12089e-05 0.000170607 -3.36079e-07
8.34059e-07 -3.36079e-07 8.96301e-05
0.000696843 3.56255e-05 4.18172e-06
3.56255e-05 -6.84493e-05 -3.74591e-06
4.18172e-06 -3.74591e-06 -9.04849e-05
0.00126047 -5.89745e-05 9.90244e-07
-5.89745e-05 6.00887e-05 -5.00641e-07
9.90244e-07 -5.00641e-07 -1.73723e-05
0.000834688 -5.36297e-06 2.42971e-06
-5.36297e-06 -3.00209e-06 -1.51661e-06
2.42971e-06 -1.51661e-06 -6.04579e-05
0.000759025 -4.53361e-05 1.78214e-06
-4.53361e-05 -7.15008e-05 -1.61025e-06
1.78214e-06 -1.61025e-06 -0.000144998
0.00154551 -7.62192e-05 1.03532e-06
-7.62192e-05 0.000267444 -8.69143e-07
1.03532e-06 -8.69143e-07 0.000185129
0.00137349 -6.86991e-05 6.92558e-07
-6.86991e-05 0.000125976 4.20684e-07
6.92558e-07 4.20684e-07 4.70338e-05
0.000912368 -6.52294e-06 3.07863e-06
-6.52294e-06 1.99876e-05 -2.17485e-06
3.07863e-06 -2.17485e-06 -3.29074e-05
0.000909142 1.01462e-05 1.57146e-06
1.01462e-05 8.91856e-06 -2.4938e-06
1.57146e-06 -2.4938e-06 -3.39745e-05
0.000987705 -2.73297e-05 1.31284e-06
-2.73297e-05 4.88977e-05 -1.13742e-06
1.31284e-06 -1.13742e-06 -2.01765e-05
0.00067785 2.48675e-05 -6.9383e-06
2.48675e-05 -7.20393e-05 -3.68993e-06
-6.9383e-06 -3.68993e-06 -0.000115024
0.00266842 -4.77127e-05 -2.5829e-05
-4.77127e-05 0.000930562 -3.77261e-06
-2.5829e-05 -3.77261e-06 0.00094164
0.000778241 -2.77084e-05 -4.08406e-06
-2.77084e-05 -4.6883e-05 -3.83047e-06
-4.08406e-06 -3.83047e-06 -6.2004e-05
0.000653767 5.03363e-06 -5.80888e-06
5.03363e-06 -6.36306e-05 -3.42053e-06
-5.80888e-06 -3.42053e-06 -0.000102325
0.000978818 4.11363e-05 -3.23854e-06
4.11363e-05 6.20315e-06 -1.78333e-06
-3.23854e-06 -1.78333e-06 -5.77915e-05
0.000695944 -3.53422e-05 -4.3217e-06
-3.53422e-05 -6.67495e-05 -3.76113e-06
-4.3217e-06 -3.76113e-06 -8.86279e-05
0.000848852 5.09847e-06 -2.32492e-06
5.09847e-06 6.65703e-06 -1.90199e-06
-2.32492e-06 -1.90199e-06 -5.26854e-05
0.000885521 2.98096e-05 -2.71336e-06
2.98096e-05 6.62964e-06 -9.90327e-07
-2.71336e-06 -9.90327e-07 -5.32681e-05
0.000871314 4.76877e-05 -1.68633e-06
4.76877e-05 -1.88346e-05 -3.63591e-07
-1.68633e-06 -3.63591e-07 -9.08599e-05
0.000769048 -3.28249e-05 9.57293e-08
-3.28249e-05 -4.10555e-05 -2.27911e-08
9.57293e-08 -2.27911e-08 -5.95407e-05
0.000809161 -2.50487e-05 1.40945e-07
-2.50487e-05 -3.75053e-05 1.86025e-08
1.40945e-07 1.86025e-08 -4.99214e-05
0.000901479 3.78776e-07 1.04531e-07
3.78776e-07 7.72874e-06 -1.15564e-08
1.04531e-07 -1.15564e-08 -4.0266e-05
0.00105588 3.8431e-05 1.98981e-07
3.8431e-05 1.38628e-05 6.21314e-09
1.98981e-07 6.21314e-09 -5.24618e-05
0.000942428 3.82462e-05 5.0737e-08
3.82462e-05 1.73034e-05 8.66937e-08
5.0737e-08 8.66937e-08 -4.43514e-05
0.00116385 5.63798e-05 1.19056e-07
5.63798e-05 5.20638e-05 4.43958e-08
1.19056e-07 4.43958e-08 -2.42008e-05
0.000892271 5.50469e-06 -2.17325e-07
5.50469e-06 2.03659e-05 2.19797e-08
-2.17325e-07 2.19797e-08 -3.49735e-05
0.0010384 5.46155e-05 -3.88923e-08
5.46155e-05 4.82545e-05 -6.27423e-08
-3.88923e-08 -6.27423e-08 -2.20909e-05
0.0010227 4.70723e-05 1.19637e-07
4.70723e-05 7.43099e-05 -2.00549e-07
1.19637e-07 -2.00549e-07 1.08084e-06
0.00099313 5.97496e-05 -5.44302e-07
5.97496e-05 3.67475e-05 2.19951e-07
-5.44302e-07 2.19951e-07 -4.14836e-05
0.000840399 -2.25409e-05 3.27769e-06
-2.25409e-05 -2.71722e-05 3.73211e-06
3.27769e-06 3.73211e-06 -3.68378e-05
0.00090167 6.22661e-06 2.94015e-06
6.22661e-06 1.28904e-05 1.74113e-06
2.94015e-06 1.74113e-06 -3.84533e-05
0.000894573 -3.5654e-06 2.37895e-06
-3.5654e-06 7.72468e-07 2.30124e-06
2.37895e-06 2.30124e-06 -4.30234e-05
0.00101167 1.91004e-05 1.448e-06
1.91004e-05 5.96907e-05 6.57735e-07
1.448e-06 6.57735e-07 -6.97297e-06
0.00122528 4.85058e-05 2.36919e-06
4.85058e-05 4.5918e-05 1.09036e-06
2.36919e-06 1.09036e-06 -3.1923e-05
0.00112409 5.82759e-05 1.5236e-06
5.82759e-05 6.8271e-05 1.16405e-06
1.5236e-06 1.16405e-06 -4.73144e-06
0.00124859 6.23022e-05 9.31841e-07
6.23022e-05 6.61542e-05 1.23357e-06
9.31841e-07 1.23357e-06 -1.59648e-05
0.00105519 3.67134e-05 1.45365e-06
3.67134e-05 9.06604e-05 7.94282e-07
1.45365e-06 7.94282e-07 1.99398e-05
0.00112716 6.30858e-05 2.40689e-07
6.30858e-05 7.81278e-05 2.86819e-07
2.40689e-07 2.86819e-07 2.44065e-06
0.00105678 6.07337e-05 7.72167e-07
6.07337e-05 9.11613e-05 -3.64973e-07
7.72167e-07 -3.64973e-07 8.1086e-06
0.000913509 5.91917e-05 2.94503e-07
5.91917e-05 -1.41723e-05 -3.30621e-07
2.94503e-07 -3.30621e-07 -9.56793e-05
0.000917624 -6.42204e-06 9.07226e-07
-6.42204e-06 1.54937e-06 1.93183e-06
9.07226e-07 1.93183e-06 -2.85243e-05
0.000848838 -1.71389e-05 2.32589e-06
-1.71389e-05 -3.22588e-05 3.49064e-06
2.32589e-06 3.49064e-06 -3.70339e-05
0.00238732 -3.03193e-05 1.95733e-05
-3.03193e-05 0.000763526 4.09654e-06
1.95733e-05 4.09654e-06 0.00078142
0.00245877 -3.4579e-05 5.13621e-07
-3.4579e-05 0.000804907 -6.53239e-08
5.13621e-07 -6.53239e-08 0.000821289
0.0025397 -3.89662e-05 -2.25333e-05
-3.89662e-05 0.000851311 -3.95695e-06
-2.25333e-05 -3.95695e-06 0.000866088
0.000794499 2.47207e-05 3.23067e-06
2.47207e-05 -4.34961e-05 -3.67327e-06
3.23067e-06 -3.67327e-06 -5.50978e-05
0.00260692 4.34432e-05 2.37082e-05
4.34432e-05 0.000892793 -3.79537e-06
2.37082e-05 -3.79537e-06 0.000905688
0.000785656 2.86076e-05 -2.4221e-07
2.86076e-05 -4.09913e-05 -1.95795e-10
-2.4221e-07 -1.95795e-10 -5.64941e-05
0.00268205 4.76082e-05 -3.00512e-07
4.76082e-05 0.000937771 -9.36085e-08
-3.00512e-07 -9.36085e-08 0.000948575
0.000674766 2.54866e-05 -7.57271e-06
2.54866e-05 -8.75327e-05 -3.48997e-06
-7.57271e-06 -3.48997e-06 -0.000130083
0.000715041 1.72262e-05 -8.52448e-06
1.72262e-05 -9.15745e-05 -2.60815e-06
-8.52448e-06 -2.60815e-06 -0.000134107
0.00115012 2.56969e-05 -4.86956e-06
2.56969e-05 1.41711e-05 -1.89464e-06
-4.86956e-06 -1.89464e-06 -5.5289e-05
0.00120422 7.4327e-06 -5.46869e-06
7.4327e-06 4.85043e-06 -1.47617e-06
-5.46869e-06 -1.47617e-06 -6.6593e-05
0.000740152 3.60688e-06 -9.56617e-06
3.60688e-06 -0.00010239 -1.23229e-06
-9.56617e-06 -1.23229e-06 -0.000147974
0.00450017 2.04723e-05 -6.06413e-05
2.04723e-05 0.00190763 3.99026e-07
-6.06413e-05 3.99026e-07 0.00189929
0.000751118 -4.83753e-08 2.95579e-09
-4.83753e-08 -0.000100039 -2.83282e-07
2.95579e-09 -2.83282e-07 -0.000146123
0.00123068 3.48918e-06 1.40234e-08
3.48918e-06 1.86709e-06 -2.47607e-07
1.40234e-08 -2.47607e-07 -7.15482e-05
0.00117498 1.3802e-05 1.40783e-08
1.3802e-05 7.73645e-06 -4.3331e-08
1.40783e-08 -4.3331e-08 -6.23064e-05
0.00142926 2.71923e-06 7.82074e-08
2.71923e-06 5.37639e-05 2.19569e-08
7.82074e-08 2.19569e-08 -2.89563e-05
0.00111331 3.34002e-05 1.94248e-07
3.34002e-05 1.67105e-05 -3.23874e-08
1.94248e-07 -3.23874e-08 -5.15306e-05
0.00135659 3.13278e-05 2.64485e-08
3.13278e-05 5.57555e-05 -2.7389e-08
2.64485e-08 -2.7389e-08 -2.37495e-05
0.00123156 5.61647e-07 5.88393e-06
5.61647e-07 -3.8272e-07 -3.97804e-07
5.88393e-06 -3.97804e-07 -7.3945e-05
0.00144263 5.11752e-06 3.06164e-06
5.11752e-06 4.48873e-05 7.6346e-07
3.06164e-06 7.6346e-07 -4.05234e-05
0.00138598 1.68225e-05 2.6984e-06
1.68225e-05 4.93807e-05 8.74317e-07
2.6984e-06 8.74317e-07 -3.11683e-05
0.00153478 -2.25431e-06 1.46077e-06
-2.25431e-06 7.65243e-05 7.4852e-07
1.46077e-06 7.4852e-07 -7.89874e-06
0.00128903 4.07038e-05 2.05342e-06
4.07038e-05 4.8009e-05 6.82931e-07
2.05342e-06 6.82931e-07 -3.07512e-05
0.0014372 3.30107e-05 9.52104e-07
3.30107e-05 6.10075e-05 5.30257e-07
9.52104e-07 5.30257e-07 -2.04027e-05
0.000766598 9.10758e-06 -9.42572e-06
9.10758e-06 -8.39537e-05 1.05904e-06
-9.42572e-06 1.05904e-06 -0.000129209
0.00148276 1.14077e-05 -2.79261e-05
1.14077e-05 0.000299093 1.85424e-06
-2.79261e-05 1.85424e-06 0.000260501
0.000887375 8.03979e-06 -6.22222e-06
8.03979e-06 -0.000145775 1.13671e-06
-6.22222e-06 1.13671e-06 -0.000217102
0.00177785 -3.07187e-05 -7.51577e-06
-3.07187e-05 0.000328821 1.8708e-06
-7.51577e-06 1.8708e-06 0.000263386
0.00266758 5.17245e-05 -2.65676e-05
5.17245e-05 0.000940316 3.58487e-06
-2.65676e-05 3.58487e-06 0.000948923
0.00159993 3.93853e-05 -1.34014e-05
3.93853e-05 0.000401643 2.99089e-06
-1.34014e-05 2.99089e-06 0.000380405
0.00144291 -2.13003e-05 -3.50033e-06
-2.13003e-05 0.000299163 1.77771e-06
-3.50033e-06 1.77771e-06 0.000242411
0.00133678 -4.02947e-05 -5.4085e-06
-4.02947e-05 0.000155704 2.10484e-06
-5.4085e-06 2.10484e-06 9.12719e-05
0.00112972 -4.34889e-05 -3.39781e-06
-4.34889e-05 -3.97855e-05 1.35259e-06
-3.39781e-06 1.35259e-06 -0.000119759
0.00148484 -5.72997e-05 -2.02771e-06
-5.72997e-05 0.00020504 9.59371e-07
-2.02771e-06 9.59371e-07 0.000132122
0.000846446 -4.96494e-05 -1.78604e-06
-4.96494e-05 -5.32599e-05 1.1432e-06
-1.78604e-06 1.1432e-06 -0.000128813
0.00119654 -6.20883e-05 -9.59649e-07
-6.20883e-05 5.93804e-05 4.81906e-07
-9.59649e-07 4.81906e-07 -1.95662e-05
0.00078459 3.40766e-05 -3.89481e-06
3.40766e-05 -3.20527e-05 3.74561e-06
-3.89481e-06 3.74561e-06 -5.13843e-05
0.000891197 -1.41037e-06 -2.81631e-06
-1.41037e-06 2.67738e-06 2.18393e-06
-2.81631e-06 2.18393e-06 -4.58024e-05
0.0010742 8.27665e-06 -1.57384e-07
8.27665e-06 -6.86545e-05 2.78862e-09
-1.57384e-07 2.78862e-09 -0.000141461
0.00148701 -7.47563e-06 -1.34879e-06
-7.47563e-06 0.000170128 1.60235e-07
-1.34879e-06 1.60235e-07 0.000104001
0.00161957 7.62827e-06 -1.06408e-06
7.62827e-06 0.000160562 2.09267e-07
-1.06408e-06 2.09267e-07 8.09542e-05
0.0014308 -3.47175e-05 4.95643e-07
-3.47175e-05 8.81178e-05 -3.40319e-07
4.95643e-07 -3.40319e-07 9.0035e-06
0.000740964 3.69137e-05 -7.93327e-09
3.69137e-05 -4.54242e-05 -2.84085e-09
-7.93327e-09 -2.84085e-09 -6.77744e-05
0.000877056 -9.49796e-06 1.72384e-07
-9.49796e-06 1.6372e-05 -6.77347e-08
1.72384e-07 -6.77347e-08 -4.08728e-05
0.000855198 -4.78771e-05 5.16132e-07
-4.78771e-05 -2.23859e-05 -3.34653e-07
5.16132e-07 -3.34653e-07 -9.52239e-05
0.00144604 -5.43255e-05 -4.94584e-07
-5.43255e-05 0.000159349 1.08898e-07
-4.94584e-07 1.08898e-07 8.43244e-05
0.00145058 -4.76784e-05 -2.88944e-07
-4.76784e-05 8.64102e-05 4.61039e-07
-2.88944e-07 4.61039e-07 5.54732e-06
0.00129419 -6.9593e-05 -6.22853e-07
-6.9593e-05 0.000143303 1.56174e-07
-6.22853e-07 1.56174e-07 6.02321e-05
0.00126443 -5.88518e-05 8.24533e-08
-5.88518e-05 6.18228e-05 1.75605e-07
8.24533e-08 1.75605e-07 -1.55786e-05
0.00125722 -6.57825e-05 3.69068e-07
-6.57825e-05 6.86302e-05 3.85972e-07
3.69068e-07 3.85972e-07 -1.0307e-05
0.000905665 -6.4924e-06 1.61773e-08
-6.4924e-06 1.51583e-05 -7.71115e-08
1.61773e-08 -7.71115e-08 -3.74109e-05
0.000957875 -2.60227e-05 -1.19644e-07
-2.60227e-05 3.2663e-05 -2.07863e-07
-1.19644e-07 -2.07863e-07 -3.63496e-05
0.000898554 8.77901e-06 -1.76877e-07
8.77901e-06 3.79202e-06 9.44141e-08
-1.76877e-07 9.44141e-08 -3.91947e-05
0.00173461 1.36535e-05 2.49196e-06
1.36535e-05 0.000204444 -2.44084e-07
2.49196e-06 -2.44084e-07 0.000122737
0.00152945 -1.08282e-05 3.03431e-06
-1.08282e-05 0.000124484 -2.91698e-07
3.03431e-06 -2.91698e-07 4.58951e-05
0.00166502 1.02385e-05 2.1138e-06
1.02385e-05 0.000151578 1.69328e-07
2.1138e-06 1.69328e-07 6.68724e-05
0.0014602 -2.91519e-05 1.66877e-06
-2.91519e-05 6.43231e-05 -7.51768e-07
1.66877e-06 -7.51768e-07 -1.76573e-05
0.00113869 -5.32957e-05 1.07734e-06
-5.32957e-05 -2.76877e-05 -1.0246e-06
1.07734e-06 -1.0246e-06 -0.000105796
0.00158215 -4.70421e-05 -2.31443e-07
-4.70421e-05 0.000129578 7.08119e-08
-2.31443e-07 7.08119e-08 5.2623e-05
0.000872762 -5.10262e-06 2.86145e-06
-5.10262e-06 9.13774e-06 -1.7347e-06
2.86145e-06 -1.7347e-06 -4.6297e-05
0.00127859 -6.12782e-05 1.82169e-07
-6.12782e-05 4.93859e-05 -3.46725e-07
1.82169e-07 -3.46725e-07 -2.66204e-05
0.000984961 -4.66181e-05 1.22726e-06
-4.66181e-05 5.09628e-05 -4.73338e-07
1.22726e-06 -4.73338e-07 -1.89399e-05
0.00083989 -5.81991e-05 1.56862e-06
-5.81991e-05 -4.27346e-05 -2.03025e-06
1.56862e-06 -2.03025e-06 -0.0001256
0.00139842 -7.59334e-05 1.79634e-06
-7.59334e-05 0.000176764 -1.86208e-07
1.79634e-06 -1.86208e-07 8.91814e-05
0.00162713 -7.55774e-05 -3.45683e-07
-7.55774e-05 0.000240293 1.34899e-06
-3.45683e-07 1.34899e-06 0.00016502
0.000907777 1.55084e-05 1.13739e-06
1.55084e-05 5.11808e-06 -2.1876e-06
1.13739e-06 -2.1876e-06 -3.2417e-05
0.000997788 -3.70265e-05 1.65243e-06
-3.70265e-05 5.34438e-05 -5.12921e-07
1.65243e-06 -5.12921e-07 -1.53024e-05
0.000836849 -1.76164e-05 1.48808e-06
-1.76164e-05 -2.73382e-05 -2.03721e-06
1.48808e-06 -2.03721e-06 -9.52396e-05
0.00115817 -6.00704e-05 4.10335e-07
-6.00704e-05 0.000138893 3.02838e-07
4.10335e-07 3.02838e-07 6.08301e-05
0.0010593 3.9305e-05 -3.93044e-06
3.9305e-05 1.58857e-05 -1.9047e-06
-3.93044e-06 -1.9047e-06 -5.04095e-05
0.000794882 -2.4378e-05 -3.56705e-06
-2.4378e-05 -4.5164e-05 -3.78393e-06
-3.56705e-06 -3.78393e-06 -5.73263e-05
0.000746425 -3.15386e-05 -4.42884e-06
-3.15386e-05 -5.36513e-05 -3.79472e-06
-4.42884e-06 -3.79472e-06 -7.17867e-05
0.000909915 -5.87545e-06 -2.38277e-06
-5.87545e-06 1.21565e-05 -2.29525e-06
-2.38277e-06 -2.29525e-06 -3.56855e-05
0.000910226 3.72349e-05 -2.63036e-06
3.72349e-05 1.42688e-06 -1.37371e-06
-2.63036e-06 -1.37371e-06 -6.00408e-05
0.00114333 5.61916e-05 -1.848e-06
5.61916e-05 4.24811e-05 -1.14722e-06
-1.848e-06 -1.14722e-06 -3.38132e-05
0.000874782 3.23647e-06 -2.78196e-06
3.23647e-06 1.38902e-05 -1.80608e-06
-2.78196e-06 -1.80608e-06 -4.17051e-05
0.00100537 4.66524e-05 -1.46772e-06
4.66524e-05 6.59621e-05 -8.80642e-07
-1.46772e-06 -8.80642e-07 -7.31714e-06
0.00113025 5.72647e-05 -1.28291e-06
5.72647e-05 9.45805e-05 -4.81318e-07
-1.28291e-06 -4.81318e-07 2.45253e-05
0.000904921 5.76543e-05 -1.58917e-06
5.76543e-05 -7.62123e-06 2.03667e-07
-1.58917e-06 2.03667e-07 -8.62418e-05
0.000823401 -2.2058e-05 1.40143e-07
-2.2058e-05 -3.58473e-05 3.59154e-08
1.40143e-07 3.59154e-08 -4.53229e-05
0.000905191 3.28226e-06 -8.11275e-09
3.28226e-06 1.59578e-05 -4.01809e-08
-8.11275e-09 -4.01809e-08 -3.55515e-05
0.000899421 -7.66978e-06 6.5184e-08
-7.66978e-06 2.94401e-06 4.89959e-08
6.5184e-08 4.89959e-08 -4.06817e-05
0.000996086 1.83326e-05 1.56677e-07
1.83326e-05 5.23019e-05 -1.6874e-07
1.56677e-07 -1.6874e-07 -1.44795e-05
0.00123414 4.90767e-05 4.53611e-07
4.90767e-05 5.0319e-05 2.72981e-07
4.53611e-07 2.72981e-07 -2.76317e-05
0.00109241 5.78493e-05 5.11963e-08
5.78493e-05 5.36063e-05 2.01813e-08
5.11963e-08 2.01813e-08 -1.93626e-05
0.00123908 6.21332e-05 1.28381e-09
6.21332e-05 6.1802e-05 2.19403e-07
1.28381e-09 2.19403e-07 -2.03048e-05
0.00101979 3.86687e-05 -3.11673e-08
3.86687e-05 7.41289e-05 8.61296e-08
-3.11673e-08 8.61296e-08 3.46401e-06
0.00124096 6.60724e-05 -3.25179e-07
6.60724e-05 0.000135406 -4.48282e-07
-3.25179e-07 -4.48282e-07 6.00358e-05
0.0010738 6.156e-05 1.95e-07
6.156e-05 9.92266e-05 -4.04681e-07
1.95e-07 -4.04681e-07 1.58864e-05
0.000967877 6.05881e-05 -1.2653e-06
6.05881e-05 1.55094e-05 3.42526e-08
-1.2653e-06 3.42526e-08 -6.47647e-05
0.000852553 -1.97852e-05 2.77781e-06
-1.97852e-05 -2.60386e-05 3.60576e-06
2.77781e-06 3.60576e-06 -3.2973e-05
0.000895822 -9.03025e-06 1.77154e-06
-9.03025e-06 -1.38e-06 2.33622e-06
1.77154e-06 2.33622e-06 -4.07628e-05
0.0010381 2.76359e-05 1.53931e-06
2.76359e-05 7.45664e-05 4.79001e-07
1.53931e-06 4.79001e-07 6.68677e-06
0.000994817 1.31621e-05 1.10311e-06
1.31621e-05 5.05556e-05 1.13606e-06
1.10311e-06 1.13606e-06 -1.36195e-05
0.000998925 4.71131e-05 9.38015e-07
4.71131e-05 5.78472e-05 -1.25899e-07
9.38015e-07 -1.25899e-07 -1.94526e-05
0.00129408 5.08429e-05 1.45066e-06
5.08429e-05 4.878e-05 9.25864e-07
1.45066e-06 9.25864e-07 -3.37049e-05
0.00116315 6.47474e-05 5.8926e-07
6.47474e-05 6.82078e-05 1.15573e-06
5.8926e-07 1.15573e-06 -1.05723e-05
0.00129847 6.64993e-05 6.48402e-08
6.64993e-05 7.94726e-05 1.20176e-06
6.48402e-08 1.20176e-06 -5.26e-06
0.00108612 5.83951e-05 1.5387e-06
5.83951e-05 0.000110374 1.3622e-06
1.5387e-06 1.3622e-06 2.85409e-05
0.00116361 6.71395e-05 1.24736e-06
6.71395e-05 8.71886e-05 3.87854e-07
1.24736e-06 3.87854e-07 7.66385e-06
0.000733858 5.52381e-05 1.13841e-06
5.52381e-05 -8.13124e-05 -6.19215e-07
1.13841e-06 -6.19215e-07 -0.000172769
0.000911654 -9.00938e-06 1.06058e-06
-9.00938e-06 4.85788e-07 2.10225e-06
1.06058e-06 2.10225e-06 -3.19235e-05
0.000980068 1.10889e-05 3.7031e-07
1.10889e-05 4.06565e-05 1.11444e-06
3.7031e-07 1.11444e-06 -8.04634e-06
0.000922801 -2.54857e-06 7.75374e-07
-2.54857e-06 2.9935e-06 1.83981e-06
7.75374e-07 1.83981e-06 -2.52644e-05
0.000922292 -4.23677e-06 1.21196e-07
-4.23677e-06 4.23662e-06 1.49026e-08
1.21196e-07 1.49026e-08 -2.58831e-05
0.00144481 -1.85367e-05 2.29895e-06
-1.85367e-05 0.000269238 2.08412e-06
2.29895e-06 2.08412e-06 0.000269419
0.00115054 -1.89492e-05 6.94034e-07
-1.89492e-05 0.000122374 1.29745e-10
6.94034e-07 1.29745e-10 0.000119269
0.00112705 -1.84544e-05 1.63513e-05
-1.84544e-05 0.00011224 6.72293e-06
1.63513e-05 6.72293e-06 0.000125532
0.00238657 -3.04982e-05 6.18004e-07
-3.04982e-05 0.000762499 -5.6573e-08
6.18004e-07 -5.6573e-08 0.000780571
0.00245869 -3.47488e-05 -2.04047e-05
-3.47488e-05 0.000804165 -3.96898e-06
-2.04047e-05 -3.96898e-06 0.000820749
0.00081046 2.27359e-05 2.67828e-06
2.27359e-05 -4.05802e-05 -3.46601e-06
2.67828e-06 -3.46601e-06 -4.90634e-05
0.00249434 3.91805e-05 2.14487e-05
3.91805e-05 0.000829889 -3.79403e-06
2.14487e-05 -3.79403e-06 0.00084478
0.000808792 2.53603e-05 -1.55341e-07
2.53603e-05 -3.59158e-05 4.70654e-08
-1.55341e-07 4.70654e-08 -4.78001e-05
0.00260781 4.31872e-05 -3.89815e-07
4.31872e-05 0.000893843 -8.43175e-08
-3.89815e-07 -8.43175e-08 0.000906527
0.000802149 2.99108e-05 -3.76409e-06
2.99108e-05 -3.1602e-05 3.8709e-06
-3.76409e-06 3.8709e-06 -4.74995e-05
0.00266053 4.75267e-05 -2.60408e-05
4.75267e-05 0.000927905 3.74327e-06
-2.60408e-05 3.74327e-06 0.000938525
0.0011235 3.45085e-05 -4.47624e-06
3.45085e-05 2.25185e-05 -1.99018e-06
-4.47624e-06 -1.99018e-06 -4.57659e-05
0.00117772 1.60687e-05 -5.13651e-06
1.60687e-05 9.53503e-06 -1.57743e-06
-5.13651e-06 -1.57743e-06 -6.0549e-05
0.00136369 2.92852e-05 -2.35351e-06
2.92852e-05 5.93483e-05 -8.14019e-07
-2.35351e-06 -8.14019e-07 -2.01556e-05
0.00145804 2.23741e-06 -2.94848e-06
2.23741e-06 6.77731e-05 -1.00254e-06
-2.94848e-06 -1.00254e-06 -1.49413e-05
0.00123297 5.94876e-06 -5.85525e-06
5.94876e-06 2.96726e-06 -1.25724e-06
-5.85525e-06 -1.25724e-06 -7.04112e-05
0.000766541 5.74001e-07 -9.75219e-06
5.74001e-07 -9.2668e-05 -9.80771e-08
-9.75219e-06 -9.80771e-08 -0.000138781
0.00123432 2.45275e-06 -3.09072e-08
2.45275e-06 5.93472e-07 -3.26417e-07
-3.09072e-08 -3.26417e-07 -7.30201e-05
0.00145966 6.48832e-06 -6.0959e-10
6.48832e-06 5.32428e-05 -1.60235e-07
-6.0959e-10 -1.60235e-07 -3.21315e-05
0.00139567 1.32343e-05 1.02024e-07
1.32343e-05 5.43839e-05 -3.47806e-09
1.02024e-07 -3.47806e-09 -2.61057e-05
0.00153408 -3.04003e-06 -2.15127e-08
-3.04003e-06 7.44481e-05 1.01244e-07
-2.15127e-08 1.01244e-07 -1.01339e-05
0.00129885 4.09338e-05 -3.42623e-08
4.09338e-05 5.27593e-05 -3.79444e-08
-3.42623e-08 -3.79444e-08 -2.60746e-05
0.00145111 3.25137e-05 -1.45829e-08
3.25137e-05 6.80947e-05 1.1109e-07
-1.45829e-08 1.1109e-07 -1.33521e-05
0.00145952 6.95006e-06 3.49482e-06
6.95006e-06 5.08983e-05 -4.45855e-07
3.49482e-06 -4.45855e-07 -3.49266e-05
0.0014951 1.47715e-06 1.47525e-06
1.47715e-06 4.53288e-05 1.14312e-06
1.47525e-06 1.14312e-06 -4.23675e-05
0.00146753 1.61269e-05 1.33165e-06
1.61269e-05 5.44329e-05 5.30619e-07
1.33165e-06 5.30619e-07 -2.80852e-05
0.00167455 -9.46446e-06 1.63892e-06
-9.46446e-06 0.000125884 6.0009e-07
1.63892e-06 6.0009e-07 4.32141e-05
0.00137661 4.01758e-05 6.64583e-07
4.01758e-05 5.85828e-05 1.55937e-07
6.64583e-07 1.55937e-07 -2.29996e-05
0.00150205 2.35486e-05 -1.50088e-06
2.35486e-05 7.00201e-05 7.61014e-07
-1.50088e-06 7.61014e-07 -4.85429e-06
0.000937451 9.7508e-06 -5.74423e-06
9.7508e-06 -0.000137086 7.99512e-07
-5.74423e-06 7.99512e-07 -0.00021073
0.0014991 -1.25071e-05 -7.66667e-06
-1.25071e-05 0.000175706 1.39018e-06
-7.66667e-06 1.39018e-06 0.000109639
0.00151451 1.33511e-05 -4.4351e-06
1.33511e-05 0.000107205 6.06601e-07
-4.4351e-06 6.06601e-07 2.70858e-05
0.00169063 -3.7503e-05 -2.80203e-06
-3.7503e-05 0.000219995 2.85746e-07
-2.80203e-06 2.85746e-07 0.000141934
0.000784432 3.8174e-05 -3.75011e-06
3.8174e-05 -2.27615e-05 3.57235e-06
-3.75011e-06 3.57235e-06 -4.54143e-05
0.000918627 -1.21989e-05 -2.6453e-06
-1.21989e-05 3.54932e-05 1.59387e-06
-2.6453e-06 1.59387e-06 -2.16394e-05
0.000968479 -5.09848e-05 -9.43521e-07
-5.09848e-05 3.50044e-05 8.29065e-07
-9.43521e-07 8.29065e-07 -3.71933e-05
0.00157553 -5.60615e-05 -2.6431e-06
-5.60615e-05 0.000222447 1.17742e-06
-2.6431e-06 1.17742e-06 0.000147375
0.00128379 -4.41537e-05 -1.58171e-06
-4.41537e-05 2.18858e-06 1.13422e-06
-1.58171e-06 1.13422e-06 -7.85611e-05
0.00126679 -5.87005e-05 -8.69597e-07
-5.87005e-05 6.27892e-05 8.69465e-07
-8.69597e-07 8.69465e-07 -1.45533e-05
0.00104457 -6.30393e-05 -1.70711e-06
-6.30393e-05 1.99631e-05 1.22511e-06
-1.70711e-06 1.22511e-06 -6.38658e-05
0.00113288 -6.26751e-05 -6.23533e-08
-6.26751e-05 7.34644e-06 -4.77274e-09
-6.23533e-08 -4.77274e-09 -7.15777e-05
0.000901515 -7.30607e-06 -2.97638e-06
-7.30607e-06 1.17145e-05 1.82049e-06
-2.97638e-06 1.82049e-06 -4.05681e-05
0.000927273 -2.46892e-05 -1.67736e-06
-2.46892e-05 1.59568e-05 7.45349e-07
-1.67736e-06 7.45349e-07 -5.29733e-05
0.000887804 7.69056e-06 -1.98977e-06
7.69056e-06 -1.42408e-06 2.42591e-06
-1.98977e-06 2.42591e-06 -4.45053e-05
0.00159189 1.4009e-05 -1.09665e-06
1.4009e-05 0.000131431 3.63829e-07
-1.09665e-06 3.63829e-07 4.85766e-05
0.00152383 -1.61942e-05 -4.57285e-07
-1.61942e-05 0.0001207 3.26259e-08
-4.57285e-07 3.26259e-08 4.22705e-05
0.00154367 1.26104e-05 -4.81936e-07
1.26104e-05 9.01393e-05 2.17841e-07
-4.81936e-07 2.17841e-07 4.85308e-06
0.0015585 -2.79462e-05 2.5702e-08
-2.79462e-05 0.00011306 -3.48865e-07
2.5702e-08 -3.48865e-07 3.13058e-05
0.000893222 -6.85667e-06 1.30312e-07
-6.85667e-06 1.73446e-05 -9.48747e-08
1.30312e-07 -9.48747e-08 -3.77744e-05
0.00102922 -4.81724e-05 1.59575e-08
-4.81724e-05 7.15593e-05 1.16453e-07
1.59575e-08 1.16453e-07 1.60234e-06
0.000934229 -6.03336e-05 3.38819e-07
-6.03336e-05 6.55369e-06 -4.60957e-07
3.38819e-07 -4.60957e-07 -7.5604e-05
0.00133231 -5.64409e-05 -2.91208e-08
-5.64409e-05 6.93949e-05 -2.66375e-07
-2.91208e-08 -2.66375e-07 -8.65837e-06
0.00146783 -4.54675e-05 3.52132e-07
-4.54675e-05 7.17703e-05 8.4948e-07
3.52132e-07 8.4948e-07 -4.12543e-06
0.00121636 -7.15268e-05 5.04903e-08
-7.15268e-05 8.862e-05 1.15583e-07
5.04903e-08 1.15583e-07 -8.21356e-08
0.00129004 -6.07953e-05 3.32134e-08
-6.07953e-05 5.46879e-05 2.98049e-07
3.32134e-08 2.98049e-07 -2.11741e-05
0.00146385 -7.15392e-05 6.21252e-07
-7.15392e-05 0.000159178 4.2816e-07
6.21252e-07 4.2816e-07 8.48125e-05
0.00101988 -3.60957e-05 3.42491e-08
-3.60957e-05 6.38067e-05 -1.0202e-07
3.42491e-08 -1.0202e-07 -4.735e-06
0.00109025 -5.79056e-05 -3.29531e-07
-5.79056e-05 0.000103528 2.47121e-07
-3.29531e-07 2.47121e-07 2.51102e-05
0.000896288 1.42705e-05 -1.26033e-07
1.42705e-05 -1.94755e-07 8.92649e-08
-1.26033e-07 8.92649e-08 -3.78594e-05
0.000867711 -1.38603e-05 2.12463e-07
-1.38603e-05 -1.28481e-05 -5.43828e-07
2.12463e-07 -5.43828e-07 -7.98122e-05
0.00155829 1.37873e-05 2.58546e-06
1.37873e-05 8.72168e-05 -1.73309e-07
2.58546e-06 -1.73309e-07 -6.84879e-07
0.0016436 -8.70896e-06 2.10245e-06
-8.70896e-06 0.000141936 1.56125e-07
2.10245e-06 1.56125e-07 5.89214e-05
0.00159182 1.51649e-05 1.80852e-06
1.51649e-05 9.78574e-05 3.75961e-07
1.80852e-06 3.75961e-07 1.06756e-05
0.00146761 -2.27771e-05 5.50698e-07
-2.27771e-05 4.51237e-05 -1.42177e-06
5.50698e-07 -1.42177e-06 -3.46678e-05
0.0012595 -5.53939e-05 -2.81158e-07
-5.53939e-05 9.42938e-06 -4.40961e-07
-2.81158e-07 -4.40961e-07 -6.5134e-05
0.00165214 -4.47272e-05 1.5293e-06
-4.47272e-05 0.00014005 -4.44087e-07
1.5293e-06 -4.44087e-07 6.99324e-05
0.00099315 -4.31727e-05 1.40222e-06
-4.31727e-05 5.48945e-05 -2.78067e-07
1.40222e-06 -2.78067e-07 -1.38397e-05
0.00128022 -6.11296e-05 -1.0238e-06
-6.11296e-05 3.70241e-05 2.11979e-07
-1.0238e-06 2.11979e-07 -3.12319e-05
0.000820071 -5.48039e-05 6.15654e-07
-5.48039e-05 -3.43342e-05 -1.13182e-06
6.15654e-07 -1.13182e-06 -0.000112867
0.00111073 -6.93165e-05 1.8151e-06
-6.93165e-05 8.31753e-05 -1.92557e-06
1.8151e-06 -1.92557e-06 -8.18879e-06
0.00127647 -7.65188e-05 2.13328e-06
-7.65188e-05 0.000104425 1.23987e-06
2.13328e-06 1.23987e-06 1.2606e-05
0.00169929 -7.73953e-05 8.27058e-07
-7.73953e-05 0.000262878 5.4892e-07
8.27058e-07 5.4892e-07 0.000189247
0.000902591 1.44395e-05 1.10716e-06
1.44395e-05 4.22569e-07 -1.98064e-06
1.10716e-06 -1.98064e-06 -3.3568e-05
0.000799579 -6.36569e-06 9.10951e-07
-6.36569e-06 -4.86497e-05 -2.06323e-06
9.10951e-07 -2.06323e-06 -0.000110654
0.00102908 -5.6756e-05 7.60511e-07
-5.6756e-05 6.97399e-05 3.7114e-07
7.60511e-07 3.7114e-07 -6.34259e-06
0.00103116 -5.47843e-05 1.06991e-06
-5.47843e-05 7.96357e-05 -4.19911e-07
1.06991e-06 -4.19911e-07 -4.1578e-07
0.00116049 -6.21573e-05 4.12286e-07
-6.21573e-05 0.000136382 8.60693e-07
4.12286e-07 8.60693e-07 5.57884e-05
0.000806954 -2.16085e-05 -3.02171e-06
-2.16085e-05 -4.42533e-05 -3.69375e-06
-3.02171e-06 -3.69375e-06 -5.35404e-05
0.0012448 4.96872e-05 -1.58635e-06
4.96872e-05 5.56261e-05 -5.90776e-07
-1.58635e-06 -5.90776e-07 -2.24402e-05
0.000899344 -1.07003e-05 -1.85657e-06
-1.07003e-05 2.74923e-06 -2.39196e-06
-1.85657e-06 -2.39196e-06 -4.07886e-05
0.000907608 4.0864e-06 -2.92764e-06
4.0864e-06 1.87851e-05 -1.99147e-06
-2.92764e-06 -1.99147e-06 -3.30124e-05
0.000975032 1.76146e-05 -1.18556e-06
1.76146e-05 4.20981e-05 -9.39927e-07
-1.18556e-06 -9.39927e-07 -2.47825e-05
0.00106151 5.74522e-05 -1.52196e-06
5.74522e-05 3.92892e-05 -1.17042e-06
-1.52196e-06 -1.17042e-06 -3.36435e-05
0.00122901 6.19389e-05 -8.40735e-07
6.19389e-05 5.72039e-05 -7.75155e-07
-8.40735e-07 -7.75155e-07 -2.48938e-05
0.00098732 4.04825e-05 -1.36737e-06
4.04825e-05 5.92841e-05 -4.93699e-07
-1.36737e-06 -4.93699e-07 -1.14553e-05
0.00109627 6.25338e-05 -1.23286e-06
6.25338e-05 0.000109973 -8.75171e-07
-1.23286e-06 -8.75171e-07 2.63374e-05
0.00135259 6.90065e-05 -1.25609e-06
6.90065e-05 0.000191569 -9.17798e-07
-1.25609e-06 -9.17798e-07 0.000116524
0.00102713 6.20898e-05 -2.56289e-06
6.20898e-05 4.74349e-05 8.17885e-07
-2.56289e-06 8.17885e-07 -3.15908e-05
0.000835726 -1.94495e-05 1.21976e-07
-1.94495e-05 -3.45391e-05 3.87143e-08
1.21976e-07 3.87143e-08 -4.13302e-05
0.000900137 -1.00881e-05 4.0017e-08
-1.00881e-05 4.51811e-07 5.37088e-08
4.0017e-08 5.37088e-08 -3.88071e-05
0.0010112 2.77639e-05 3.6595e-08
2.77639e-05 6.19269e-05 -4.69159e-08
3.6595e-08 -4.69159e-08 -6.03497e-06
0.00098482 1.28578e-05 8.28901e-08
1.28578e-05 4.61147e-05 -5.88107e-08
8.28901e-08 -5.88107e-08 -1.81832e-05
0.000976784 4.68974e-05 1.01686e-07
4.68974e-05 4.68289e-05 -2.10277e-07
1.01686e-07 -2.10277e-07 -3.0591e-05
0.0013139 5.16532e-05 5.77756e-07
5.16532e-05 5.80626e-05 4.87989e-07
5.77756e-07 4.87989e-07 -2.45112e-05
0.00115604 6.48961e-05 1.22847e-07
6.48961e-05 6.51249e-05 -5.33775e-08
1.22847e-07 -5.33775e-08 -1.36871e-05
0.00126044 6.66345e-05 6.89718e-07
6.66345e-05 6.04075e-05 4.02707e-07
6.89718e-07 4.02707e-07 -2.46687e-05
0.00105372 5.79606e-05 4.97184e-07
5.79606e-05 9.53525e-05 5.04918e-07
4.97184e-07 5.04918e-07 1.35589e-05
0.00123682 6.86166e-05 1.03614e-07
6.86166e-05 0.000124119 -3.96633e-07
1.03614e-07 -3.96633e-07 4.49091e-05
0.000949228 6.14352e-05 -8.83079e-07
6.14352e-05 2.3692e-05 -4.94544e-07
-8.83079e-07 -4.94544e-07 -6.71196e-05
0.000902599 -9.60145e-06 1.39826e-06
-9.60145e-06 -1.06202e-06 2.26731e-06
1.39826e-06 2.26731e-06 -3.65704e-05
0.00097555 1.03673e-05 9.25801e-07
1.03673e-05 3.90284e-05 1.31477e-06
9.25801e-07 1.31477e-06 -2.10843e-05
0.00105129 5.43876e-05 6.30492e-07
5.43876e-05 8.42205e-05 -1.03403e-07
6.30492e-07 -1.03403e-07 5.83679e-06
0.001041 4.06644e-05 6.76978e-07
4.06644e-05 7.97356e-05 2.96911e-07
6.76978e-07 2.96911e-07 3.94632e-06
0.00104347 5.45632e-05 -2.06565e-08
5.45632e-05 8.33689e-05 -7.23457e-07
-2.06565e-08 -7.23457e-07 1.14364e-06
0.00130607 5.09676e-05 -1.21196e-06
5.09676e-05 3.86006e-05 -1.78533e-07
-1.21196e-06 -1.78533e-07 -4.43554e-05
0.00118423 7.03218e-05 1.0788e-06
7.03218e-05 6.73061e-05 1.02169e-06
1.0788e-06 1.02169e-06 -1.49368e-05
0.00107337 6.91557e-05 -4.33491e-07
6.91557e-05 -3.0411e-05 5.49133e-08
-4.33491e-07 5.49133e-08 -0.00011429
0.00102891 6.22382e-05 6.79503e-07
6.22382e-05 8.41504e-05 1.73408e-06
6.79503e-07 1.73408e-06 -7.27588e-06
0.00118573 7.16722e-05 2.41354e-06
7.16722e-05 0.000109285 1.91908e-08
2.41354e-06 1.91908e-08 1.53158e-05
0.000914625 -7.88735e-06 1.01396e-07
-7.88735e-06 2.10594e-06 2.2957e-08
1.01396e-07 2.2957e-08 -3.02686e-05
0.000814103 1.01561e-06 6.6496e-07
1.01561e-06 -4.57137e-05 1.80304e-06
6.6496e-07 1.80304e-06 -9.86079e-05
0.000898663 4.58311e-06 -3.22622e-07
4.58311e-06 -1.24095e-06 3.53574e-08
-3.22622e-07 3.53574e-08 -5.06178e-05
0.0011773 1.76056e-05 3.51971e-07
1.76056e-05 0.000147282 2.57662e-07
3.51971e-07 2.57662e-07 8.6356e-05
0.000953291 7.43402e-06 7.56612e-07
7.43402e-06 2.88736e-05 1.06095e-06
7.56612e-07 1.06095e-06 -1.865e-05
0.000935746 1.80959e-06 6.39197e-07
1.80959e-06 8.49456e-06 1.78771e-06
6.39197e-07 1.78771e-06 -1.84286e-05
0.000930484 -3.01009e-06 1.2308e-07
-3.01009e-06 7.21608e-06 1.49797e-08
1.2308e-07 1.49797e-08 -2.11243e-05
0.00143378 -1.53512e-05 1.78081e-06
-1.53512e-05 0.000259679 2.02345e-06
1.78081e-06 2.02345e-06 0.000261562
0.000929182 -2.62704e-06 -1.03832e-06
-2.62704e-06 8.04905e-06 -1.8999e-06
-1.03832e-06 -1.8999e-06 -2.21251e-05
0.0014632 -1.7478e-05 -2.80274e-06
-1.7478e-05 0.000278347 -1.24509e-06
-2.80274e-06 -1.24509e-06 0.000278712
0.00112687 -1.59654e-05 1.39427e-05
-1.59654e-05 0.000106825 6.53683e-06
1.39427e-05 6.53683e-06 0.000121757
0.0014577 -1.93726e-05 -7.55019e-06
-1.93726e-05 0.000279784 -3.32258e-06
-7.55019e-06 -3.32258e-06 0.000278447
0.00170738 -2.26359e-05 1.19869e-05
-2.26359e-05 0.000409726 2.33609e-06
1.19869e-05 2.33609e-06 0.000426193
0.00238896 -3.06612e-05 -1.81621e-05
-3.06612e-05 0.000763082 -3.96797e-06
-1.81621e-05 -3.96797e-06 0.000781319
0.000820768 2.09197e-05 2.24953e-06
2.09197e-05 -4.01711e-05 -3.30813e-06
2.24953e-06 -3.30813e-06 -4.61745e-05
0.000825647 2.30057e-05 -1.59975e-07
2.30057e-05 -3.30138e-05 4.15656e-08
-1.59975e-07 4.15656e-08 -4.16573e-05
0.00240032 3.51841e-05 1.90564e-05
3.51841e-05 0.000776118 -3.78126e-06
1.90564e-05 -3.78126e-06 0.000792877
0.00250406 3.89737e-05 -4.45059e-07
3.89737e-05 0.000835369 -6.94031e-08
-4.45059e-07 -6.94031e-08 0.00085002
0.0008236 2.61469e-05 -3.39012e-06
2.61469e-05 -2.80862e-05 3.81059e-06
-3.39012e-06 3.81059e-06 -4.02598e-05
0.00260771 4.30645e-05 -2.49748e-05
4.30645e-05 0.00089445 3.90132e-06
-2.49748e-05 3.90132e-06 0.000906906
0.00131066 4.13167e-05 -2.17044e-06
4.13167e-05 5.85009e-05 -7.91352e-07
-2.17044e-06 -7.91352e-07 -2.04162e-05
0.00140855 1.33533e-05 -2.62606e-06
1.33533e-05 6.08223e-05 -8.74239e-07
-2.62606e-06 -8.74239e-07 -1.96749e-05
0.00146533 3.31135e-05 -9.30406e-07
3.31135e-05 7.52939e-05 -3.29652e-07
-9.30406e-07 -3.29652e-07 -6.20476e-06
0.00152876 -3.91849e-06 -1.50259e-06
-3.91849e-06 7.01601e-05 -6.86306e-07
-1.50259e-06 -6.86306e-07 -1.45871e-05
0.00148068 9.79622e-06 -3.08212e-06
9.79622e-06 6.35488e-05 -1.05795e-06
-3.08212e-06 -1.05795e-06 -2.18193e-05
0.00124186 7.05422e-06 -5.86141e-06
7.05422e-06 3.80432e-06 -2.29285e-07
-5.86141e-06 -2.29285e-07 -6.98007e-05
0.00147157 1.14258e-05 4.57339e-08
1.14258e-05 5.66812e-05 -4.39432e-07
4.57339e-08 -4.39432e-07 -2.91683e-05
0.00150681 -6.29359e-06 9.87994e-08
-6.29359e-06 5.00941e-05 1.85889e-07
9.87994e-08 1.85889e-07 -3.81617e-05
0.00149279 1.5095e-05 6.24269e-08
1.5095e-05 6.70328e-05 -7.49616e-08
6.24269e-08 -7.49616e-08 -1.54277e-05
0.00166115 -1.04894e-05 8.90049e-08
-1.04894e-05 0.000117986 -2.16047e-07
8.90049e-08 -2.16047e-07 3.54181e-05
0.00138668 4.11709e-05 -3.32094e-08
4.11709e-05 6.33679e-05 -3.2732e-08
-3.32094e-08 -3.2732e-08 -1.84161e-05
0.00150724 2.37394e-05 -1.50533e-07
2.37394e-05 7.09213e-05 9.16779e-07
-1.50533e-07 9.16779e-07 -3.54651e-06
0.00153666 8.75132e-07 2.43356e-06
8.75132e-07 6.399e-05 -1.67357e-07
2.43356e-06 -1.67357e-07 -2.57807e-05
0.00156677 5.12839e-07 1.36857e-06
5.12839e-07 7.09813e-05 7.24781e-07
1.36857e-06 7.24781e-07 -1.73851e-05
0.00137753 6.83632e-06 4.08761e-07
6.83632e-06 -1.72939e-05 1.77267e-06
4.08761e-07 1.77267e-06 -9.51141e-05
0.00184265 -1.67915e-05 1.39018e-06
-1.67915e-05 0.000199764 5.33847e-07
1.39018e-06 5.33847e-07 0.000117381
0.00133715 3.61819e-05 -1.19439e-06
3.61819e-05 1.52505e-05 -7.57359e-07
-1.19439e-06 -7.57359e-07 -6.27538e-05
0.00176576 1.73698e-05 -4.34559e-08
1.73698e-05 0.000175777 4.41251e-07
-4.34559e-08 4.41251e-07 0.000108085
0.00144085 1.35522e-05 -4.3743e-06
1.35522e-05 5.42335e-05 8.51157e-07
-4.3743e-06 8.51157e-07 -2.97473e-05
0.00151539 -1.82259e-05 -3.95164e-06
-1.82259e-05 0.000115763 3.83907e-07
-3.95164e-06 3.83907e-07 3.7453e-05
0.00142868 1.28537e-05 -2.9035e-06
1.28537e-05 3.17645e-05 1.40145e-07
-2.9035e-06 1.40145e-07 -5.40958e-05
0.00165148 -2.71641e-05 -1.99111e-06
-2.71641e-05 0.000159109 5.24848e-08
-1.99111e-06 5.24848e-08 7.75985e-05
0.000910019 -8.58859e-06 -2.81608e-06
-8.58859e-06 2.3793e-05 1.56281e-06
-2.81608e-06 1.56281e-06 -3.10186e-05
0.00107122 -4.979e-05 -1.43806e-06
-4.979e-05 9.11203e-05 8.10628e-07
-1.43806e-06 8.10628e-07 2.10909e-05
0.00101556 -6.20263e-05 -7.25e-07
-6.20263e-05 4.96705e-05 9.98426e-07
-7.25e-07 9.98426e-07 -3.17815e-05
0.00152718 -5.95529e-05 -1.02378e-06
-5.95529e-05 0.000167087 5.71051e-07
-1.02378e-06 5.71051e-07 8.90932e-05
0.00135042 -4.38402e-05 -2.8047e-07
-4.38402e-05 1.24161e-05 1.0805e-06
-2.8047e-07 1.0805e-06 -6.24113e-05
0.00130191 -6.03623e-05 1.47485e-07
-6.03623e-05 6.02179e-05 8.75787e-07
1.47485e-07 8.75787e-07 -1.55053e-05
0.00103999 -6.72602e-05 -1.60771e-06
-6.72602e-05 3.18411e-06 8.08797e-07
-1.60771e-06 8.08797e-07 -8.66372e-05
0.00129984 -6.74779e-05 7.48158e-07
-6.74779e-05 7.75827e-05 -1.72208e-06
7.48158e-07 -1.72208e-06 4.14178e-06
0.00104038 -3.64691e-05 -1.58391e-06
-3.64691e-05 7.3426e-05 3.81244e-07
-1.58391e-06 3.81244e-07 5.04939e-06
0.00102598 -5.59722e-05 -1.49977e-06
-5.59722e-05 6.99188e-05 4.04903e-08
-1.49977e-06 4.04903e-08 -8.86501e-06
0.00088306 1.36738e-05 -1.46325e-06
1.36738e-05 -6.33478e-06 2.29493e-06
-1.46325e-06 2.29493e-06 -4.41728e-05
0.00090029 -9.75076e-06 -7.06504e-07
-9.75076e-06 2.60744e-06 9.79845e-07
-7.06504e-07 9.79845e-07 -6.349e-05
0.00155223 1.41331e-05 -9.94148e-08
1.41331e-05 8.4433e-05 1.52812e-07
-9.94148e-08 1.52812e-07 -3.43741e-06
0.00164388 -6.31774e-06 -3.286e-07
-6.31774e-06 0.00014245 1.18829e-07
-3.286e-07 1.18829e-07 5.96454e-05
0.00154579 1.50003e-05 -7.06834e-07
1.50003e-05 7.66143e-05 2.59667e-07
-7.06834e-07 2.59667e-07 -1.06237e-05
0.00151069 -2.35643e-05 -2.11887e-07
-2.35643e-05 6.65259e-05 -3.13851e-07
-2.11887e-07 -3.13851e-07 -1.31288e-05
0.0010257 -4.41428e-05 4.68773e-08
-4.41428e-05 6.99155e-05 -1.80242e-08
4.68773e-08 -1.80242e-08 1.24111e-06
0.000886443 -5.59722e-05 3.21413e-07
-5.59722e-05 -6.12089e-07 -2.02104e-07
3.21413e-07 -2.02104e-07 -7.83904e-05
0.00111917 -6.9364e-05 4.80709e-08
-6.9364e-05 8.85786e-05 -1.53332e-07
4.80709e-08 -1.53332e-07 -3.0255e-06
0.00138363 -5.70686e-05 -5.85478e-07
-5.70686e-05 7.12398e-05 -1.9085e-07
-5.85478e-07 -1.9085e-07 -4.07765e-06
0.00148581 -4.38313e-05 3.29199e-07
-4.38313e-05 6.47779e-05 7.66195e-07
3.29199e-07 7.66195e-07 -3.19796e-06
0.00128385 -7.62655e-05 -7.36491e-08
-7.62655e-05 0.000109626 5.42882e-07
-7.36491e-08 5.42882e-07 1.69728e-05
0.00129743 -6.09128e-05 9.80765e-09
-6.09128e-05 4.64976e-05 5.84458e-07
9.80765e-09 5.84458e-07 -2.17006e-05
0.00142097 -7.11518e-05 7.35498e-07
-7.11518e-05 0.000124653 -1.78035e-06
7.35498e-07 -1.78035e-06 5.35324e-05
0.00105782 -5.7493e-05 1.20391e-07
-5.7493e-05 8.35985e-05 4.43407e-09
1.20391e-07 4.43407e-09 7.53617e-06
0.00111383 -6.06735e-05 -6.5149e-09
-6.06735e-05 0.000112083 9.76477e-08
-6.5149e-09 9.76477e-08 3.16214e-05
0.00104493 -5.04989e-05 -2.60809e-07
-5.04989e-05 8.63517e-05 1.68993e-07
-2.60809e-07 1.68993e-07 6.35475e-06
0.000766361 1.86086e-05 -2.55406e-07
1.86086e-05 -6.86516e-05 3.03379e-08
-2.55406e-07 3.03379e-08 -0.000103741
0.000844798 -9.83959e-07 2.11936e-07
-9.83959e-07 -2.75155e-05 -4.5385e-07
2.11936e-07 -4.5385e-07 -8.84308e-05
0.00162482 2.01379e-05 2.08022e-06
2.01379e-05 0.000105354 2.03045e-07
2.08022e-06 2.03045e-07 1.53152e-05
0.00157196 8.73744e-06 2.34156e-06
8.73744e-06 7.78088e-05 1.25468e-07
2.34156e-06 1.25468e-07 -8.61635e-06
0.0015417 -2.66815e-05 1.92276e-06
-2.66815e-05 6.14655e-05 -2.26839e-06
1.92276e-06 -2.26839e-06 -1.29761e-05
0.00131129 -5.03356e-05 7.24727e-07
-5.03356e-05 2.48277e-06 -1.39006e-06
7.24727e-07 -1.39006e-06 -6.28944e-05
0.00102143 -5.78559e-05 4.10273e-07
-5.78559e-05 6.81134e-05 1.60225e-07
4.10273e-07 1.60225e-07 -7.25966e-06
0.00165639 -6.93904e-05 4.83849e-07
-6.93904e-05 0.000198666 3.33088e-07
4.83849e-07 3.33088e-07 0.000138722
0.000630005 -5.17061e-05 6.13624e-07
-5.17061e-05 -0.000125672 -2.11257e-06
6.13624e-07 -2.11257e-06 -0.000210787
0.00118268 -7.55256e-05 3.02896e-06
-7.55256e-05 0.000106454 -1.9851e-06
3.02896e-06 -1.9851e-06 3.99382e-06
0.00141318 -8.14179e-05 2.56007e-06
-8.14179e-05 0.000150459 1.40909e-06
2.56007e-06 1.40909e-06 5.58149e-05
0.000676279 1.44515e-05 9.31681e-07
1.44515e-05 -0.000117117 -2.48645e-06
9.31681e-07 -2.48645e-06 -0.000150345
0.0010513 -1.94309e-06 9.76915e-07
-1.94309e-06 7.74757e-05 -1.24257e-06
9.76915e-07 -1.24257e-06 2.25618e-05
0.00102089 -4.00154e-05 6.40993e-07
-4.00154e-05 7.31524e-05 -7.53265e-07
6.40993e-07 -7.53265e-07 -1.11276e-06
0.00106081 -5.92872e-05 2.70893e-07
-5.92872e-05 8.34984e-05 6.09973e-07
2.70893e-07 6.09973e-07 5.71764e-06
0.00113185 -6.15133e-05 8.16891e-07
-6.15133e-05 0.000131203 6.55644e-07
8.16891e-07 6.55644e-07 4.37319e-05
0.00105614 -5.9746e-05 2.6871e-07
-5.9746e-05 7.83171e-05 4.52479e-07
2.6871e-07 4.52479e-07 -3.67255e-06
0.000820089 -1.91431e-05 -2.53449e-06
-1.91431e-05 -4.24227e-05 -3.57591e-06
-2.53449e-06 -3.57591e-06 -4.90752e-05
0.000907363 -1.06906e-05 -1.60678e-06
-1.06906e-05 3.81319e-06 -2.3362e-06
-1.60678e-06 -2.3362e-06 -3.53805e-05
0.00133528 5.25651e-05 -4.99871e-07
5.25651e-05 6.80446e-05 8.00575e-09
-4.99871e-07 8.00575e-09 -1.46155e-05
0.000976692 1.18753e-05 -9.99176e-07
1.18753e-05 4.25603e-05 -1.29266e-06
-9.99176e-07 -1.29266e-06 -2.18284e-05
0.000981168 2.82807e-05 -1.4139e-06
2.82807e-05 4.75561e-05 -4.39105e-07
-1.4139e-06 -4.39105e-07 -2.03502e-05
0.000954566 4.61259e-05 -5.72768e-07
4.61259e-05 3.57142e-05 -1.10982e-07
-5.72768e-07 -1.10982e-07 -4.17814e-05
0.00114805 6.49829e-05 -6.80829e-07
6.49829e-05 6.16329e-05 -1.35241e-06
-6.80829e-07 -1.35241e-06 -1.72076e-05
0.00122167 6.66707e-05 2.42639e-08
6.66707e-05 4.09827e-05 -6.33606e-07
2.42639e-08 -6.33606e-07 -4.44258e-05
0.00101308 5.72548e-05 -3.32625e-07
5.72548e-05 7.61165e-05 -2.46562e-07
-3.32625e-07 -2.46562e-07 -5.60216e-06
0.00115553 6.73283e-05 -1.43884e-06
6.73283e-05 0.000124245 -1.4745e-07
-1.43884e-06 -1.4745e-07 3.40928e-05
0.00130596 7.00044e-05 -1.86155e-06
7.00044e-05 0.000159199 -7.35974e-07
-1.86155e-06 -7.35974e-07 8.02902e-05
0.000908136 -9.67401e-06 1.43136e-07
-9.67401e-06 1.51241e-06 4.01678e-08
1.43136e-07 4.01678e-08 -3.39088e-05
0.00097978 9.25357e-06 3.61588e-08
9.25357e-06 4.13143e-05 -4.03246e-09
3.61588e-08 -4.03246e-09 -1.8814e-05
0.0010533 5.46418e-05 -2.14143e-07
5.46418e-05 8.61879e-05 -1.87064e-07
-2.14143e-07 -1.87064e-07 8.23546e-06
0.00103782 4.25654e-05 -8.7465e-09
4.25654e-05 7.87801e-05 -4.23616e-08
-8.7465e-09 -4.23616e-08 2.62917e-06
0.000998545 5.43157e-05 -2.95918e-07
5.43157e-05 6.18035e-05 -8.73209e-08
-2.95918e-07 -8.73209e-08 -2.09566e-05
0.00133514 5.31247e-05 -4.15121e-07
5.31247e-05 5.39877e-05 3.60311e-08
-4.15121e-07 3.60311e-08 -2.95564e-05
0.00119625 7.02903e-05 5.65286e-07
7.02903e-05 7.19744e-05 -1.3594e-07
5.65286e-07 -1.3594e-07 -1.03419e-05
0.00119654 7.07529e-05 2.89055e-07
7.07529e-05 2.76545e-05 4.91818e-07
2.89055e-07 4.91818e-07 -5.56737e-05
0.000907631 5.88304e-05 3.85553e-07
5.88304e-05 2.39103e-05 7.60192e-07
3.85553e-07 7.60192e-07 -6.79533e-05
0.00120445 7.23595e-05 -9.89197e-08
7.23595e-05 0.00011924 -2.72415e-07
-9.89197e-08 -2.72415e-07 2.36178e-05
0.00096785 8.1148e-06 8.13025e-07
8.1148e-06 3.34524e-05 1.38978e-06
8.13025e-07 1.38978e-06 -2.22282e-05
0.000932576 3.36666e-05 1.04636e-06
3.36666e-05 2.20955e-05 9.48014e-07
1.04636e-06 9.48014e-07 -5.20012e-05
0.0011351 6.39007e-05 -6.66673e-08
6.39007e-05 0.000130772 -5.61495e-08
-6.66673e-08 -5.61495e-08 4.50411e-05
0.000952764 5.14836e-05 3.02052e-07
5.14836e-05 3.77202e-05 -3.06825e-07
3.02052e-07 -3.06825e-07 -4.61314e-05
0.00101052 5.6812e-05 -2.13367e-07
5.6812e-05 6.3078e-05 -6.771e-07
-2.13367e-07 -6.771e-07 -2.25439e-05
0.00131763 5.35064e-05 -4.48144e-07
5.35064e-05 5.86205e-06 -3.83731e-07
-4.48144e-07 -3.83731e-07 -6.19536e-05
0.00139696 8.12893e-05 1.30034e-06
8.12893e-05 0.000169309 3.4358e-09
1.30034e-06 3.4358e-09 7.64145e-05
0.000554067 6.09812e-05 7.29001e-07
6.09812e-05 -0.000308277 -2.20176e-07
7.29001e-07 -2.20176e-07 -0.000391791
0.00144765 7.64708e-05 2.42743e-06
7.64708e-05 0.000279739 2.769e-06
2.42743e-06 2.769e-06 0.000181107
0.00039933 5.46281e-05 5.20554e-07
5.46281e-05 -0.000284529 2.64231e-07
5.20554e-07 2.64231e-07 -0.000391797
0.000918394 -5.69953e-06 -1.2044e-06
-5.69953e-06 4.11933e-06 -2.0121e-06
-1.2044e-06 -2.0121e-06 -2.82199e-05
0.000881452 5.37571e-06 3.7745e-07
5.37571e-06 -1.0709e-05 5.95829e-07
3.7745e-07 5.95829e-07 -6.34199e-05
0.000898463 1.53065e-05 5.60339e-07
1.53065e-05 2.94476e-06 1.26453e-06
5.60339e-07 1.26453e-06 -6.31564e-05
0.000819251 -3.14257e-06 -4.86996e-07
-3.14257e-06 -4.21846e-05 -1.089e-06
-4.86996e-07 -1.089e-06 -9.2214e-05
0.000960687 1.1721e-05 1.44334e-07
1.1721e-05 3.27565e-05 9.22077e-10
1.44334e-07 9.22077e-10 -1.48562e-05
0.00104043 9.20544e-06 -7.59577e-08
9.20544e-06 7.63314e-05 -4.96902e-07
-7.59577e-08 -4.96902e-07 1.47718e-05
0.00113759 2.4858e-05 2.6586e-07
2.4858e-05 0.00013022 1.97264e-07
2.6586e-07 1.97264e-07 5.89536e-05
0.000876725 -5.30581e-06 1.36854e-07
-5.30581e-06 -5.49053e-06 1.04855e-06
1.36854e-07 1.04855e-06 -6.67883e-05
0.000955443 -1.32831e-05 1.00006e-07
-1.32831e-05 3.03385e-05 1.00276e-06
1.00006e-07 1.00276e-06 -1.56318e-05
0.00094097 5.78035e-06 6.51313e-07
5.78035e-06 1.05842e-05 1.70702e-06
6.51313e-07 1.70702e-06 -1.57237e-05
0.000935318 -3.00987e-06 -1.13898e-07
-3.00987e-06 8.49417e-06 2.94229e-08
-1.13898e-07 2.94229e-08 -1.84559e-05
0.00142235 -1.1762e-05 1.32856e-06
-1.1762e-05 0.000250224 1.95992e-06
1.32856e-06 1.95992e-06 0.000253535
0.000936293 -3.17616e-06 -5.5486e-07
-3.17616e-06 1.04619e-05 -1.8573e-06
-5.5486e-07 -1.8573e-06 -1.79349e-05
0.00144959 -1.44458e-05 -2.28118e-06
-1.44458e-05 0.000267652 -1.22124e-06
-2.28118e-06 -1.22124e-06 0.000269667
0.0011178 -1.33907e-05 1.12663e-05
-1.33907e-05 9.78669e-05 6.40629e-06
1.12663e-05 6.40629e-06 0.000114177
0.00148094 -1.67121e-05 -6.746e-06
-1.67121e-05 0.000287133 -4.52808e-06
-6.746e-06 -4.52808e-06 0.00028765
0.00106674 -1.69295e-05 4.56932e-06
-1.69295e-05 7.62687e-05 2.48489e-06
4.56932e-06 2.48489e-06 9.12122e-05
0.00227458 -2.95095e-05 -5.53003e-06
-2.95095e-05 0.000700554 -1.66005e-06
-5.53003e-06 -1.66005e-06 0.00072001
0.000830045 1.88483e-05 1.85807e-06
1.88483e-05 -4.01845e-05 -3.26105e-06
1.85807e-06 -3.26105e-06 -4.41682e-05
0.00083705 2.10196e-05 -1.15029e-07
2.10196e-05 -3.22078e-05 3.54484e-08
-1.15029e-07 3.54484e-08 -3.82964e-05
0.00233233 3.11688e-05 1.68278e-05
3.11688e-05 0.000735556 -3.79464e-06
1.68278e-05 -3.79464e-06 0.000753967
0.000839837 2.32968e-05 -3.00142e-06
2.32968e-05 -2.59623e-05 3.56275e-06
-3.00142e-06 3.56275e-06 -3.47614e-05
0.00240764 3.49476e-05 -5.95042e-07
3.49476e-05 0.000780437 -6.16924e-08
-5.95042e-07 -6.16924e-08 0.000796989
0.00251214 3.87298e-05 -2.30874e-05
3.87298e-05 0.000840046 3.9563e-06
-2.30874e-05 3.9563e-06 0.000854461
0.00139579 4.20971e-05 -1.14535e-06
4.20971e-05 6.76956e-05 -3.38437e-07
-1.14535e-06 -3.38437e-07 -1.42902e-05
0.00152344 1.31822e-05 -1.02342e-06
1.31822e-05 8.22975e-05 -6.49215e-07
-1.02342e-06 -6.49215e-07 -9.02877e-08
0.00151443 2.39474e-05 1.3875e-06
2.39474e-05 7.27574e-05 1.61763e-07
1.3875e-06 1.61763e-07 -1.29777e-06
0.00164747 -1.16101e-05 -1.18199e-06
-1.16101e-05 0.00011003 -8.5098e-07
-1.18199e-06 -8.5098e-07 2.75528e-05
0.00152633 -1.09834e-05 -1.59822e-06
-1.09834e-05 5.86227e-05 -7.73064e-07
-1.59822e-06 -7.73064e-07 -3.01925e-05
0.0014806 1.483e-05 -3.20888e-06
1.483e-05 6.09996e-05 -3.93602e-07
-3.20888e-06 -3.93602e-07 -2.48561e-05
0.00154766 4.57083e-06 1.2304e-07
4.57083e-06 6.89037e-05 -3.0159e-07
1.2304e-07 -3.0159e-07 -2.10363e-05
0.00157486 -3.59125e-06 1.91629e-07
-3.59125e-06 7.59433e-05 -1.83038e-07
1.91629e-07 -1.83038e-07 -1.22674e-05
0.00145119 5.22671e-06 -1.49561e-07
5.22671e-06 1.71852e-05 1.42384e-07
-1.49561e-07 1.42384e-07 -6.13045e-05
0.00167589 -1.63915e-05 -2.09553e-07
-1.63915e-05 0.000117197 -4.98912e-07
-2.09553e-07 -4.98912e-07 3.44645e-05
0.00139444 3.74418e-05 -3.15391e-07
3.74418e-05 4.528e-05 -6.33476e-08
-3.15391e-07 -6.33476e-08 -3.31339e-05
0.0015822 1.74073e-05 1.68826e-06
1.74073e-05 8.61272e-05 -4.86928e-07
1.68826e-06 -4.86928e-07 2.12066e-05
0.00157725 1.17819e-05 1.34993e-06
1.17819e-05 7.47305e-05 4.25412e-07
1.34993e-06 4.25412e-07 -1.6289e-05
0.00159902 -1.12467e-05 1.44825e-06
-1.12467e-05 8.65053e-05 7.01819e-07
1.44825e-06 7.01819e-07 -6.06207e-07
0.0015819 -3.12552e-06 6.41139e-07
-3.12552e-06 6.57965e-05 1.87455e-06
6.41139e-07 1.87455e-06 -8.91391e-06
0.00155177 3.32161e-05 -8.31686e-07
3.32161e-05 8.28334e-05 -2.32754e-07
-8.31686e-07 -2.32754e-07 2.03175e-05
0.00154545 1.44349e-05 -2.27122e-06
1.44349e-05 8.12958e-05 4.89004e-07
-2.27122e-06 4.89004e-07 -6.54205e-06
0.00165073 -5.63803e-06 -3.07608e-06
-5.63803e-06 0.0001461 2.08803e-07
-3.07608e-06 2.08803e-07 6.35058e-05
0.00148508 1.47404e-05 -3.19577e-06
1.47404e-05 4.82703e-05 1.57083e-07
-3.19577e-06 1.57083e-07 -3.9036e-05
0.00155797 -2.39638e-05 -1.30206e-06
-2.39638e-05 8.99489e-05 5.35752e-07
-1.30206e-06 5.35752e-07 1.04304e-05
0.00105711 -4.35362e-05 -1.40514e-06
-4.35362e-05 8.42943e-05 3.25807e-07
-1.40514e-06 3.25807e-07 1.57534e-05
0.000972851 -5.77633e-05 -1.01594e-07
-5.77633e-05 4.2761e-05 4.80005e-07
-1.01594e-07 4.80005e-07 -3.42739e-05
0.00112562 -6.93521e-05 -1.34167e-06
-6.93521e-05 9.31352e-05 2.0588e-06
-1.34167e-06 2.0588e-06 1.2786e-06
0.00150912 -5.87256e-05 -5.80205e-07
-5.87256e-05 0.000133708 4.81513e-07
-5.80205e-07 4.81513e-07 5.76395e-05
0.00133512 -4.31232e-05 -4.83658e-07
-4.31232e-05 -2.83455e-06 2.16489e-06
-4.83658e-07 2.16489e-06 -6.86853e-05
0.00130678 -6.05776e-05 8.75778e-07
-6.05776e-05 5.22027e-05 9.96386e-07
8.75778e-07 9.96386e-07 -1.59388e-05
0.00129155 -7.60104e-05 -2.01691e-06
-7.60104e-05 0.00011494 1.20707e-07
-2.01691e-06 1.20707e-07 2.14574e-05
0.00116741 -6.53825e-05 -1.49258e-06
-6.53825e-05 -1.19253e-06 -4.76825e-06
-1.49258e-06 -4.76825e-06 -6.98702e-05
0.00108597 -5.83146e-05 -6.91984e-07
-5.83146e-05 9.71546e-05 -2.13898e-07
-6.91984e-07 -2.13898e-07 2.11064e-05
0.00106492 -5.91131e-05 -1.12534e-06
-5.91131e-05 8.66243e-05 -8.0398e-07
-1.12534e-06 -8.0398e-07 6.30444e-06
0.00105902 -4.51969e-05 -9.23352e-07
-4.51969e-05 9.3099e-05 9.20958e-07
-9.23352e-07 9.20958e-07 1.32901e-05
0.000633236 1.83925e-05 -9.84668e-07
1.83925e-05 -0.000136372 2.06412e-06
-9.84668e-07 2.06412e-06 -0.000172431
0.000894594 5.15288e-06 -2.57394e-07
5.15288e-06 -4.24561e-06 9.37301e-07
-2.57394e-07 9.37301e-07 -6.3981e-05
0.00155261 1.8826e-05 -7.7567e-08
1.8826e-05 7.12177e-05 4.8047e-08
-7.7567e-08 4.8047e-08 -1.84463e-05
0.00160942 7.85394e-06 -1.91352e-07
7.85394e-06 9.79492e-05 1.42398e-07
-1.91352e-07 1.42398e-07 1.18127e-05
0.00160143 -2.70687e-05 -8.89773e-07
-2.70687e-05 9.51259e-05 1.92541e-07
-8.89773e-07 1.92541e-07 2.11328e-05
0.0010639 -5.86371e-05 3.81271e-08
-5.86371e-05 8.79572e-05 1.15173e-07
3.81271e-08 1.15173e-07 1.25837e-05
0.00090874 -5.94076e-05 6.12947e-07
-5.94076e-05 1.13999e-05 -5.03802e-07
6.12947e-07 -5.03802e-07 -7.28636e-05
0.00115285 -7.43985e-05 -1.21635e-07
-7.43985e-05 9.45224e-05 -2.58349e-07
-1.21635e-07 -2.58349e-07 -8.45147e-06
0.00138747 -5.10092e-05 3.31929e-07
-5.10092e-05 3.89352e-05 -4.09228e-07
3.31929e-07 -4.09228e-07 -2.75089e-05
0.00135919 -7.81646e-05 -1.86765e-07
-7.81646e-05 0.000125716 -4.79273e-07
-1.86765e-07 -4.79273e-07 3.39478e-05
0.00138112 -6.67413e-05 -5.63497e-07
-6.67413e-05 6.5241e-05 -6.82769e-07
-5.63497e-07 -6.82769e-07 4.73095e-06
0.000668388 1.85725e-05 -9.19599e-09
1.85725e-05 -0.000121093 -6.13023e-07
-9.19599e-09 -6.13023e-07 -0.000154039
0.0010741 -5.96541e-05 4.9314e-08
-5.96541e-05 9.0145e-05 1.22406e-07
4.9314e-08 1.22406e-07 1.22071e-05
0.00102693 -5.8685e-05 -8.04113e-07
-5.8685e-05 6.41665e-05 -4.94131e-08
-8.04113e-07 -4.94131e-08 -1.68989e-05
0.00112599 -5.86712e-05 -3.91951e-07
-5.86712e-05 0.000127839 5.08891e-07
-3.91951e-07 5.08891e-07 4.04154e-05
0.00109576 -4.00313e-05 -2.33238e-08
-4.00313e-05 0.000110324 2.64203e-08
-2.33238e-08 2.64203e-08 3.64467e-05
0.00094337 -4.78737e-07 7.29389e-08
-4.78737e-07 2.15286e-05 1.79282e-07
7.29389e-08 1.79282e-07 -3.37571e-05
0.00168285 2.24363e-05 2.283e-06
2.24363e-05 0.000130158 5.69111e-07
2.283e-06 5.69111e-07 4.04042e-05
0.0016226 8.3168e-06 2.52348e-06
8.3168e-06 8.45675e-05 -1.99077e-07
2.52348e-06 -1.99077e-07 -1.12814e-06
0.00138025 -3.27031e-05 2.39972e-06
-3.27031e-05 -2.0884e-05 -3.13563e-06
2.39972e-06 -3.13563e-06 -8.88763e-05
0.00158032 -6.05524e-05 1.28643e-06
-6.05524e-05 9.35824e-05 -1.46985e-06
1.28643e-06 -1.46985e-06 4.1884e-05
0.00104325 -6.0296e-05 2.09134e-07
-6.0296e-05 7.83623e-05 -1.24249e-07
2.09134e-07 -1.24249e-07 -8.02839e-07
0.0014319 -7.83176e-05 3.28176e-06
-7.83176e-05 0.000106473 2.24754e-06
3.28176e-06 2.24754e-06 2.71187e-05
0.000859873 -6.18433e-05 3.54107e-07
-6.18433e-05 -1.54029e-05 -2.87781e-06
3.54107e-07 -2.87781e-06 -0.000112876
0.00140739 -8.43999e-05 2.43209e-06
-8.43999e-05 0.000208797 -6.21585e-07
2.43209e-06 -6.21585e-07 9.70372e-05
0.000677049 1.41781e-05 7.23535e-07
1.41781e-05 -0.00011849 -2.39538e-06
7.23535e-07 -2.39538e-06 -0.000149248
0.00107275 -3.20274e-07 8.89011e-07
-3.20274e-07 8.75217e-05 -1.20209e-06
8.89011e-07 -1.20209e-06 3.74103e-05
0.00116961 -3.44207e-05 6.50438e-08
-3.44207e-05 0.000144722 1.35581e-07
6.50438e-08 1.35581e-07 7.59142e-05
0.00104445 -4.49846e-05 6.26638e-07
-4.49846e-05 8.86371e-05 -1.01297e-06
6.26638e-07 -1.01297e-06 1.83118e-06
0.0010529 -6.01774e-05 2.38977e-07
-6.01774e-05 7.8425e-05 1.90241e-07
2.38977e-07 1.90241e-07 -2.62068e-06
0.00104757 -5.998e-05 8.10695e-07
-5.998e-05 7.99206e-05 1.02896e-06
8.10695e-07 1.02896e-06 -7.98353e-06
0.000910953 -9.82675e-06 -1.32063e-06
-9.82675e-06 2.65919e-06 -2.18921e-06
-1.32063e-06 -2.18921e-06 -3.26613e-05
0.000983992 8.56055e-06 -8.82492e-07
8.56055e-06 4.3666e-05 -1.44171e-06
-8.82492e-07 -1.44171e-06 -1.65136e-05
0.00136493 5.53663e-05 -6.87128e-08
5.53663e-05 6.97758e-05 1.18699e-07
-6.87128e-08 1.18699e-07 -1.43712e-05
0.00103575 4.38607e-05 -8.42281e-07
4.38607e-05 7.82571e-05 -4.65165e-07
-8.42281e-07 -4.65165e-07 1.82718e-06
0.00105943 5.50704e-05 -5.26172e-07
5.50704e-05 9.0293e-05 -2.4272e-08
-5.26172e-07 -2.4272e-08 1.27478e-05
0.000957795 5.37408e-05 -5.98748e-07
5.37408e-05 4.23605e-05 1.50866e-07
-5.98748e-07 1.50866e-07 -4.0921e-05
0.00121051 7.03322e-05 -8.96377e-07
7.03322e-05 7.77124e-05 -1.43258e-06
-8.96377e-07 -1.43258e-06 -4.68027e-06
0.00133106 7.26525e-05 1.74836e-07
7.26525e-05 9.12017e-05 6.74871e-08
1.74836e-07 6.74871e-08 8.40925e-06
0.000788854 5.55371e-05 -2.83772e-07
5.55371e-05 -3.49678e-05 -2.80313e-07
-2.83772e-07 -2.80313e-07 -0.000127294
0.00123174 7.33444e-05 -1.63036e-06
7.33444e-05 0.000133281 -4.14784e-07
-1.63036e-06 -4.14784e-07 3.60053e-05
0.000973498 7.08404e-06 3.2849e-08
7.08404e-06 3.62915e-05 3.75777e-08
3.2849e-08 3.75777e-08 -1.93943e-05
0.000981471 3.71995e-05 4.14917e-07
3.71995e-05 4.76911e-05 3.5159e-07
4.14917e-07 3.5159e-07 -2.65554e-05
0.00113958 6.39572e-05 -1.47424e-07
6.39572e-05 0.000134093 -5.46115e-07
-1.47424e-07 -5.46115e-07 4.90201e-05
0.00101417 5.25815e-05 -2.36781e-07
5.25815e-05 6.97447e-05 -2.76031e-08
-2.36781e-07 -2.76031e-08 -1.39151e-05
0.00100687 5.71836e-05 -8.61941e-07
5.71836e-05 6.44788e-05 -3.5754e-07
-8.61941e-07 -3.5754e-07 -2.0867e-05
0.00162192 5.65522e-05 -7.28968e-07
5.65522e-05 0.000154295 -4.22572e-07
-7.28968e-07 -4.22572e-07 8.6567e-05
0.00142462 8.17109e-05 8.61119e-07
8.17109e-05 0.000179447 7.39961e-08
8.61119e-07 7.39961e-08 8.74444e-05
0.000935744 6.87333e-05 -5.37914e-07
6.87333e-05 -0.000113576 6.162e-07
-5.37914e-07 6.162e-07 -0.000195019
0.00122977 7.03861e-05 1.0498e-06
7.03861e-05 0.000173076 1.0899e-06
1.0498e-06 1.0899e-06 7.37902e-05
0.000808102 6.58443e-05 -1.35964e-06
6.58443e-05 -8.18706e-05 -4.65756e-07
-1.35964e-06 -4.65756e-07 -0.000191159
0.000941716 2.81248e-05 9.35968e-07
2.81248e-05 2.51005e-05 1.26224e-06
9.35968e-07 1.26224e-06 -4.49529e-05
0.000938624 5.23403e-05 6.58996e-07
5.23403e-05 3.01578e-05 1.58122e-08
6.58996e-07 1.58122e-08 -5.52372e-05
0.00114527 6.50946e-05 2.56322e-07
6.50946e-05 0.000135378 4.03996e-07
2.56322e-07 4.03996e-07 4.30425e-05
0.00082933 5.26326e-05 7.55704e-07
5.26326e-05 -2.46783e-05 -2.75578e-07
7.55704e-07 -2.75578e-07 -0.000114297
0.00211636 4.4928e-05 1.0313e-06
4.4928e-05 0.000291247 1.15751e-06
1.0313e-06 1.15751e-06 0.000234326
0.00108704 6.65936e-05 2.34172e-06
6.65936e-05 -0.000123506 -6.37778e-08
2.34172e-06 -6.37778e-08 -0.000189672
0.00127194 8.34688e-05 1.60445e-06
8.34688e-05 9.78456e-05 -9.54796e-07
1.60445e-06 -9.54796e-07 -7.31251e-06
0.000745175 6.07691e-05 9.41567e-07
6.07691e-05 -7.01092e-05 2.02774e-06
9.41567e-07 2.02774e-06 -0.00018848
0.000951823 1.0401e-05 -1.66736e-07
1.0401e-05 2.58422e-05 -7.64649e-07
-1.66736e-07 -7.64649e-07 -2.67116e-05
0.000974135 2.19708e-05 1.71497e-07
2.19708e-05 4.21651e-05 4.44135e-07
1.71497e-07 4.44135e-07 -2.38413e-05
0.00105527 3.11434e-05 3.83932e-07
3.11434e-05 8.70989e-05 6.04073e-07
3.83932e-07 6.04073e-07 1.15866e-05
0.000966395 1.31679e-05 -6.20143e-07
1.31679e-05 3.5671e-05 -1.05959e-06
-6.20143e-07 -1.05959e-06 -1.19731e-05
0.000903773 4.55211e-06 -2.20134e-07
4.55211e-06 5.88411e-06 -1.25068e-06
-2.20134e-07 -1.25068e-06 -5.65867e-05
0.000959579 -2.80136e-06 4.49918e-07
-2.80136e-06 3.25824e-05 2.22717e-08
4.49918e-07 2.22717e-08 -1.35637e-05
0.00105927 2.573e-05 -5.35033e-08
2.573e-05 8.99351e-05 -4.22443e-07
-5.35033e-08 -4.22443e-07 1.73908e-05
0.000924427 3.23594e-06 1.98518e-07
3.23594e-06 1.96785e-05 3.97207e-07
1.98518e-07 3.97207e-07 -4.16387e-05
0.00112144 3.2152e-05 4.00704e-07
3.2152e-05 0.000122048 3.10081e-07
4.00704e-07 3.10081e-07 4.22862e-05
0.000890771 -5.61081e-06 -2.12007e-08
-5.61081e-06 4.60694e-06 9.676e-07
-2.12007e-08 9.676e-07 -6.65292e-05
0.00087683 2.61788e-05 4.52246e-07
2.61788e-05 -2.46995e-06 1.02303e-06
4.52246e-07 1.02303e-06 -6.37078e-05
0.000974855 -2.0034e-05 -3.8704e-07
-2.0034e-05 4.02025e-05 9.89405e-07
-3.8704e-07 9.89405e-07 -5.00788e-06
0.000927082 7.84922e-06 5.07833e-07
7.84922e-06 4.10943e-06 1.61791e-06
5.07833e-07 1.61791e-06 -2.21295e-05
0.000933236 -2.07473e-06 -2.65235e-07
-2.07473e-06 6.71309e-06 3.06779e-08
-2.65235e-07 3.06779e-08 -1.95449e-05
0.00141608 -7.81867e-06 1.01082e-06
-7.81867e-06 0.000244522 1.89143e-06
1.01082e-06 1.89143e-06 0.000248463
0.000933601 -8.75312e-06 -8.57571e-08
-8.75312e-06 7.79799e-06 -1.7648e-06
-8.57571e-08 -1.7648e-06 -1.91616e-05
0.00143965 -1.10138e-05 -1.77554e-06
-1.10138e-05 0.000259193 -1.19523e-06
-1.77554e-06 -1.19523e-06 0.000262508
0.00110738 -1.05155e-05 8.5526e-06
-1.05155e-05 8.86529e-05 6.26793e-06
8.5526e-06 6.26793e-06 0.000106083
0.00146558 -1.38501e-05 -5.0293e-06
-1.38501e-05 0.000275737 -4.42418e-06
-5.0293e-06 -4.42418e-06 0.000277852
0.00105998 -1.41038e-05 3.3515e-06
-1.41038e-05 6.82879e-05 2.44452e-06
3.3515e-06 2.44452e-06 8.46759e-05
0.00100578 -1.73059e-05 -2.33969e-06
-1.73059e-05 4.52905e-05 -1.62838e-06
-2.33969e-06 -1.62838e-06 6.03149e-05
0.000838637 1.64508e-05 1.49598e-06
1.64508e-05 -4.04957e-05 -3.22826e-06
1.49598e-06 -3.22826e-06 -4.25839e-05
0.000846331 1.88924e-05 -1.15926e-07
1.88924e-05 -3.21871e-05 1.94948e-08
-1.15926e-07 1.94948e-08 -3.62293e-05
0.00227928 2.70083e-05 1.45938e-05
2.70083e-05 0.000702833 -3.81352e-06
1.45938e-05 -3.81352e-06 0.000722728
0.000853638 2.11335e-05 -2.51921e-06
2.11335e-05 -2.41117e-05 3.35556e-06
-2.51921e-06 3.35556e-06 -3.02838e-05
0.00233608 3.10408e-05 -6.64877e-07
3.10408e-05 0.000738103 -5.28032e-08
-6.64877e-07 -5.28032e-08 0.000756339
0.0024146 3.46925e-05 -2.07938e-05
3.46925e-05 0.00078459 3.9232e-06
-2.07938e-05 3.9232e-06 0.000800935
0.00145079 3.87778e-05 7.58899e-07
3.87778e-05 7.48226e-05 6.15259e-07
7.58899e-07 6.15259e-07 -3.99955e-06
0.00152478 3.52493e-06 -6.50619e-07
3.52493e-06 5.16021e-05 -7.7687e-07
-6.50619e-07 -7.7687e-07 -2.75528e-05
0.00140433 1.74023e-05 2.66049e-06
1.74023e-05 -7.63764e-07 -2.23049e-06
2.66049e-06 -2.23049e-06 -6.29123e-05
0.00150705 -1.59149e-05 -1.68204e-06
-1.59149e-05 3.35157e-05 -1.58198e-06
-1.68204e-06 -1.58198e-06 -4.95518e-05
0.00158827 -6.29486e-06 -1.10187e-06
-6.29486e-06 8.3466e-05 -1.08348e-06
-1.10187e-06 -1.08348e-06 -4.62718e-06
0.00154964 3.79306e-06 -1.86284e-06
3.79306e-06 6.94737e-05 -4.87586e-07
-1.86284e-06 -4.87586e-07 -2.06402e-05
0.00159083 1.40115e-05 1.4409e-07
1.40115e-05 8.35063e-05 -4.25027e-08
1.4409e-07 -4.25027e-08 -7.04734e-06
0.00156557 -1.51399e-05 -1.62165e-07
-1.51399e-05 7.05072e-05 -7.51469e-09
-1.62165e-07 -7.51469e-09 -1.65253e-05
0.00156639 -2.55363e-06 7.30052e-07
-2.55363e-06 5.94287e-05 -2.16008e-07
7.30052e-07 -2.16008e-07 -1.49585e-05
0.00146862 3.0034e-05 1.09558e-08
3.0034e-05 3.85112e-05 -5.34099e-07
1.09558e-08 -5.34099e-07 -2.37435e-05
0.00159773 7.77234e-06 1.26946e-06
7.77234e-06 8.94936e-05 5.01149e-07
1.26946e-06 5.01149e-07 -2.60037e-07
0.0017582 -2.34711e-05 1.58838e-06
-2.34711e-05 0.000156852 1.0179e-06
1.58838e-06 1.0179e-06 7.51186e-05
0.00154984 1.37657e-05 6.3887e-07
1.37657e-05 3.75361e-05 2.5389e-06
6.3887e-07 2.5389e-06 -2.85913e-05
0.00148907 1.76817e-05 -2.61845e-06
1.76817e-05 4.12517e-05 1.86747e-08
-2.61845e-06 1.86747e-08 -4.80321e-05
0.00164401 7.08316e-06 -2.42334e-06
7.08316e-06 0.000116757 5.07146e-07
-2.42334e-06 5.07146e-07 3.09045e-05
0.00165461 -2.75096e-05 -1.77384e-06
-2.75096e-05 0.000125511 1.76441e-06
-1.77384e-06 1.76441e-06 5.19816e-05
0.00110015 -5.91389e-05 -5.73353e-07
-5.91389e-05 0.000104756 2.19448e-07
-5.73353e-07 2.19448e-07 2.94007e-05
0.0011972 -6.7394e-05 -2.85464e-07
-6.7394e-05 0.000153149 9.37042e-07
-2.85464e-07 9.37042e-07 6.97335e-05
0.00112577 -7.33313e-05 -2.05149e-06
-7.33313e-05 8.415e-05 2.63207e-06
-2.05149e-06 2.63207e-06 -1.93633e-05
0.00145319 -5.15956e-05 -8.40185e-07
-5.15956e-05 7.02665e-05 1.04649e-06
-8.40185e-07 1.04649e-06 2.76579e-06
0.00111626 -6.41226e-05 -2.07314e-06
-6.41226e-05 -6.3171e-05 -7.27295e-07
-2.07314e-06 -7.27295e-07 -0.000124253
0.00131203 -7.52468e-05 -3.14119e-06
-7.52468e-05 0.000104384 -2.55115e-06
-3.14119e-06 -2.55115e-06 1.54801e-05
0.00108877 -6.00609e-05 -4.51379e-07
-6.00609e-05 9.74684e-05 -1.98529e-07
-4.51379e-07 -1.98529e-07 1.93711e-05
0.000987843 -5.73322e-05 -2.05845e-06
-5.73322e-05 4.52957e-05 -5.92459e-07
-2.05845e-06 -5.92459e-07 -3.4847e-05
0.00111635 -5.68921e-05 -8.81013e-07
-5.68921e-05 0.0001227 2.00127e-07
-8.81013e-07 2.00127e-07 3.52395e-05
0.000656162 2.05656e-05 -7.32959e-07
2.05656e-05 -0.000127108 1.20914e-06
-7.32959e-07 1.20914e-06 -0.000159816
0.00115634 -3.86316e-05 -5.903e-07
-3.86316e-05 0.000140038 9.50396e-07
-5.903e-07 9.50396e-07 6.67867e-05
0.000827878 3.86321e-06 4.22631e-08
3.86321e-06 -3.78687e-05 1.60867e-06
4.22631e-08 1.60867e-06 -9.36919e-05
0.00161991 2.22814e-05 -5.89706e-09
2.22814e-05 9.92579e-05 -2.30425e-08
-5.89706e-09 -2.30425e-08 9.43961e-06
0.00161703 6.72795e-06 4.84165e-07
6.72795e-06 8.03246e-05 -1.78134e-08
4.84165e-07 -1.78134e-08 -5.33242e-06
0.0014624 -3.3076e-05 -1.54351e-07
-3.3076e-05 1.78822e-05 -3.53065e-07
-1.54351e-07 -3.53065e-07 -5.14599e-05
0.00108157 -6.13937e-05 2.7247e-08
-6.13937e-05 9.62061e-05 3.20999e-07
2.7247e-08 3.20999e-07 1.68674e-05
0.000905559 -6.28724e-05 -9.96427e-08
-6.28724e-05 9.39401e-06 1.45504e-07
-9.96427e-08 1.45504e-07 -8.63663e-05
0.00142664 -8.43404e-05 -1.32642e-06
-8.43404e-05 0.000217598 1.41252e-06
-1.32642e-06 1.41252e-06 0.000106544
0.00159087 -6.20751e-05 -1.95266e-07
-6.20751e-05 0.000104112 5.00551e-07
-1.95266e-07 5.00551e-07 5.22806e-05
0.00132282 -7.57361e-05 2.09154e-07
-7.57361e-05 4.97661e-05 -9.16113e-07
2.09154e-07 -9.16113e-07 -2.91339e-05
0.000796553 1.45375e-05 9.43653e-08
1.45375e-05 -5.78431e-05 -5.79102e-07
9.43653e-08 -5.79102e-07 -8.76455e-05
0.0010544 7.97222e-06 -2.26719e-07
7.97222e-06 7.86149e-05 8.59655e-08
-2.26719e-07 8.59655e-08 2.86357e-05
0.000960511 -5.76029e-05 -6.195e-07
-5.76029e-05 3.35989e-05 2.58583e-07
-6.195e-07 2.58583e-07 -4.74321e-05
0.00107143 -6.05201e-05 4.32785e-07
-6.05201e-05 9.14324e-05 1.19529e-07
4.32785e-07 1.19529e-07 3.96517e-06
0.00104062 -4.35573e-05 -9.30894e-08
-4.35573e-05 8.67831e-05 -2.78745e-07
-9.30894e-08 -2.78745e-07 5.46471e-07
0.00109532 -3.56297e-05 -6.17477e-07
-3.56297e-05 0.000107267 9.79332e-07
-6.17477e-07 9.79332e-07 3.76052e-05
0.00161728 2.69018e-05 1.90025e-06
2.69018e-05 9.31741e-05 1.23044e-06
1.90025e-06 1.23044e-06 5.29118e-06
0.00164626 -1.19054e-06 2.6028e-06
-1.19054e-06 8.26952e-05 -4.56907e-07
2.6028e-06 -4.56907e-07 1.32091e-06
0.00147999 -4.50542e-05 1.85978e-06
-4.50542e-05 -5.76024e-06 -3.81499e-06
1.85978e-06 -3.81499e-06 -5.41059e-05
0.00213657 -8.43701e-05 2.30616e-06
-8.43701e-05 0.000365146 -6.11795e-07
2.30616e-06 -6.11795e-07 0.00031241
0.000904897 -5.85315e-05 -3.09808e-07
-5.85315e-05 1.72733e-05 -5.12965e-07
-3.09808e-07 -5.12965e-07 -6.90109e-05
0.00141157 -8.69254e-05 2.67816e-06
-8.69254e-05 0.000182021 2.53776e-06
2.67816e-06 2.53776e-06 6.47745e-05
0.00143428 -8.12247e-05 1.61638e-06
-8.12247e-05 0.000264164 -3.76854e-06
1.61638e-06 -3.76854e-06 0.000156784
0.000923933 1.15505e-05 5.95272e-07
1.15505e-05 4.38558e-06 -1.77661e-06
5.95272e-07 -1.77661e-06 -2.25799e-05
0.000960013 -2.57005e-05 7.85969e-07
-2.57005e-05 3.2661e-05 -1.13036e-06
7.85969e-07 -1.13036e-06 -1.10548e-05
0.000797773 1.32467e-05 1.07467e-07
1.32467e-05 -5.09156e-05 -1.76163e-06
1.07467e-07 -1.76163e-06 -9.98729e-05
0.00106131 -2.48762e-05 3.7645e-07
-2.48762e-05 8.85676e-05 -5.1678e-07
3.7645e-07 -5.1678e-07 2.33369e-05
0.00097677 -2.78754e-05 1.2383e-07
-2.78754e-05 5.24076e-05 -9.32105e-07
1.2383e-07 -9.32105e-07 -2.8015e-05
0.0010429 -6.02738e-05 1.95344e-06
-6.02738e-05 9.22351e-05 7.06496e-07
1.95344e-06 7.06496e-07 -3.73945e-06
0.000818734 -5.49766e-05 2.10579e-07
-5.49766e-05 -4.26537e-05 3.505e-07
2.10579e-07 3.505e-07 -0.000124298
0.00170838 -8.11981e-05 4.11583e-07
-8.11981e-05 0.000423094 1.04121e-06
4.11583e-07 1.04121e-06 0.00032947
0.000978003 5.63305e-06 -5.81953e-07
5.63305e-06 3.8521e-05 -1.4297e-06
-5.81953e-07 -1.4297e-06 -1.71365e-05
0.00102944 4.20336e-05 -4.57052e-07
4.20336e-05 7.30322e-05 -3.32872e-07
-4.57052e-07 -3.32872e-07 -1.50593e-06
0.00191443 5.93949e-05 2.5072e-07
5.93949e-05 0.000296826 -8.52941e-08
2.5072e-07 -8.52941e-08 0.00022922
0.00108425 5.56905e-05 -7.63281e-07
5.56905e-05 0.00010621 1.10708e-07
-7.63281e-07 1.10708e-07 2.2564e-05
0.00114594 6.40815e-05 -6.44358e-07
6.40815e-05 0.000138123 -1.11677e-06
-6.44358e-07 -1.11677e-06 5.37315e-05
0.000983618 5.63253e-05 -9.59881e-07
5.63253e-05 5.60405e-05 9.35985e-08
-9.59881e-07 9.35985e-08 -2.89131e-05
0.00144332 8.18759e-05 -4.05579e-07
8.18759e-05 0.000185153 -3.15977e-07
-4.05579e-07 -3.15977e-07 9.40628e-05
0.00131676 7.64587e-05 -5.59107e-07
7.64587e-05 8.03257e-05 1.79107e-06
-5.59107e-07 1.79107e-06 1.02468e-06
0.00100247 6.39561e-05 1.12566e-07
6.39561e-05 6.18497e-05 -2.16085e-07
1.12566e-07 -2.16085e-07 -3.80795e-05
0.00118636 7.62664e-05 -3.57311e-06
7.62664e-05 0.000105588 -7.28554e-07
-3.57311e-06 -7.28554e-07 -5.66773e-06
0.0009224 2.9807e-05 3.48907e-07
2.9807e-05 1.58799e-05 4.29897e-07
3.48907e-07 4.29897e-07 -5.4902e-05
0.000990724 5.53414e-05 -3.45121e-07
5.53414e-05 5.69196e-05 -4.99822e-07
-3.45121e-07 -4.99822e-07 -2.80405e-05
0.00112553 6.44207e-05 -2.2762e-07
6.44207e-05 0.000126576 -7.93161e-07
-2.2762e-07 -7.93161e-07 3.50198e-05
0.00101881 5.76838e-05 -1.02299e-07
5.76838e-05 6.94204e-05 -2.77878e-07
-1.02299e-07 -2.77878e-07 -1.98826e-05
0.0018911 4.08628e-05 -7.6003e-07
4.08628e-05 0.000180811 -8.86616e-07
-7.6003e-07 -8.86616e-07 0.00012478
0.0012666 6.90316e-05 4.60436e-07
6.90316e-05 -2.49891e-05 -4.52716e-08
4.60436e-07 -4.52716e-08 -9.3171e-05
0.00149665 8.89245e-05 -6.89163e-07
8.89245e-05 0.000205865 4.16435e-08
-6.89163e-07 4.16435e-08 0.000102387
0.000837077 6.46143e-05 3.8762e-07
6.46143e-05 -3.12474e-05 5.51665e-07
3.8762e-07 5.51665e-07 -0.00014861
0.00106831 4.54203e-05 2.21727e-07
4.54203e-05 9.62649e-05 9.07292e-08
2.21727e-07 9.07292e-08 1.59099e-05
0.00167969 1.13718e-05 2.60437e-06
1.13718e-05 6.43361e-05 3.68825e-06
2.60437e-06 3.68825e-06 -3.84806e-06
0.00117287 6.3422e-05 6.75513e-07
6.3422e-05 0.000151732 3.75032e-07
6.75513e-07 3.75032e-07 5.94474e-05
0.00110824 6.49265e-05 5.32125e-07
6.49265e-05 0.000117571 8.76877e-07
5.32125e-07 8.76877e-07 1.74113e-05
0.00182027 6.99451e-05 3.61286e-06
6.99451e-05 0.000105644 1.37108e-06
3.61286e-06 1.37108e-06 5.11059e-05
0.0013572 8.79597e-05 3.99255e-06
8.79597e-05 6.27059e-05 -7.39823e-07
3.99255e-06 -7.39823e-07 -3.66772e-05
0.00162594 9.13711e-05 9.48142e-07
9.13711e-05 0.000337256 2.12301e-06
9.48142e-07 2.12301e-06 0.000211285
0.00104668 2.79406e-05 -6.7453e-07
2.79406e-05 7.97614e-05 -4.15222e-07
-6.7453e-07 -4.15222e-07 1.38766e-05
0.00105164 3.06235e-05 -3.40283e-09
3.06235e-05 8.5686e-05 -5.19935e-08
-3.40283e-09 -5.19935e-08 1.02236e-05
0.00106668 3.80316e-05 5.74717e-07
3.80316e-05 9.64603e-05 3.30057e-07
5.74717e-07 3.30057e-07 1.28589e-05
0.000961398 9.28772e-06 1.44911e-08
9.28772e-06 3.38528e-05 -9.90003e-07
1.44911e-08 -9.90003e-07 -1.25847e-05
0.000975713 1.08642e-05 6.63197e-08
1.08642e-05 4.63624e-05 -2.18727e-07
6.63197e-08 -2.18727e-07 -1.47899e-05
0.000975905 2.31216e-05 -3.6891e-07
2.31216e-05 4.68149e-05 -1.12781e-06
-3.6891e-07 -1.12781e-06 -2.67803e-05
0.000959731 -1.78942e-05 1.68052e-07
-1.78942e-05 3.26207e-05 3.77483e-08
1.68052e-07 3.77483e-08 -1.26835e-05
0.000870489 4.2455e-06 -2.80631e-07
4.2455e-06 -6.54548e-06 3.81839e-07
-2.80631e-07 3.81839e-07 -6.73176e-05
0.0010616 2.6809e-05 1.02475e-07
2.6809e-05 9.05748e-05 -4.73123e-07
1.02475e-07 -4.73123e-07 1.00761e-05
0.0010107 1.39209e-05 1.23936e-07
1.39209e-05 6.71137e-05 4.34542e-07
1.23936e-07 4.34542e-07 -3.90614e-06
0.00112879 4.63702e-05 2.22611e-07
4.63702e-05 0.0001216 -6.06741e-08
2.22611e-07 -6.06741e-08 3.53585e-05
0.00097633 6.01168e-06 1.01207e-07
6.01168e-06 4.49368e-05 7.71936e-07
1.01207e-07 7.71936e-07 -3.41295e-05
0.00105375 1.99345e-05 2.08566e-07
1.99345e-05 8.78946e-05 2.64637e-07
2.08566e-07 2.64637e-07 1.90861e-05
0.000975909 2.15266e-05 5.88166e-07
2.15266e-05 5.04061e-05 7.41312e-07
5.88166e-07 7.41312e-07 -9.55455e-06
0.000970254 -6.25609e-06 -3.74844e-07
-6.25609e-06 3.70259e-05 8.80782e-07
-3.74844e-07 8.80782e-07 -7.43584e-06
0.000920114 1.04882e-05 3.32252e-07
1.04882e-05 1.53181e-06 1.56181e-06
3.32252e-07 1.56181e-06 -2.48585e-05
0.000926547 -1.47729e-07 -2.17009e-07
-1.47729e-07 3.8575e-06 1.68798e-08
-2.17009e-07 1.68798e-08 -2.23633e-05
0.00141833 -3.9301e-06 6.54773e-07
-3.9301e-06 0.000244428 1.84605e-06
6.54773e-07 1.84605e-06 0.000248362
0.000927093 -9.74273e-06 3.31821e-09
-9.74273e-06 3.63917e-06 -1.63364e-06
3.31821e-09 -1.63364e-06 -2.25655e-05
0.00143851 -7.20057e-06 -1.26556e-06
-7.20057e-06 0.000256266 -1.19621e-06
-1.26556e-06 -1.19621e-06 0.000260059
0.00110605 -7.37808e-06 6.05751e-06
-7.37808e-06 8.51585e-05 6.26521e-06
6.05751e-06 6.26521e-06 0.000102987
0.00145757 -1.05514e-05 -3.52998e-06
-1.05514e-05 0.000268478 -4.29287e-06
-3.52998e-06 -4.29287e-06 0.00027177
0.00105689 -1.09775e-05 2.2181e-06
-1.09775e-05 6.26267e-05 2.40191e-06
2.2181e-06 2.40191e-06 8.0211e-05
0.00100224 -1.4203e-05 -1.76211e-06
-1.4203e-05 3.87283e-05 -1.57369e-06
-1.76211e-06 -1.57369e-06 5.52584e-05
0.000928051 8.86395e-06 4.08726e-07
8.86395e-06 4.13086e-06 -1.76274e-06
4.08726e-07 -1.76274e-06 -2.08572e-05
0.000848302 1.36902e-05 1.1398e-06
1.36902e-05 -4.01701e-05 -3.17596e-06
1.1398e-06 -3.17596e-06 -4.04359e-05
0.000856077 1.65359e-05 -1.04692e-07
1.65359e-05 -3.17817e-05 2.28921e-08
-1.04692e-07 2.28921e-08 -3.39512e-05
0.00223163 2.26515e-05 1.23607e-05
2.26515e-05 0.000673331 -3.82646e-06
1.23607e-05 -3.82646e-06 0.000694604
0.00086349 1.89568e-05 -2.13006e-06
1.89568e-05 -2.37067e-05 3.24081e-06
-2.13006e-06 3.24081e-06 -2.7817e-05
0.00228333 2.69868e-05 -7.60064e-07
2.69868e-05 0.000705576 -4.67219e-08
-7.60064e-07 -4.67219e-08 0.000725297
0.00233829 3.08215e-05 -1.83596e-05
3.08215e-05 0.000739863 3.89446e-06
-1.83596e-05 3.89446e-06 0.00075794
0.00138245 2.6865e-05 7.66285e-07
2.6865e-05 -7.27923e-06 -4.78907e-07
7.66285e-07 -4.78907e-07 -6.9273e-05
0.00154412 -1.97719e-06 -6.55743e-07
-1.97719e-06 4.98031e-05 -2.10421e-06
-6.55743e-07 -2.10421e-06 -2.42635e-05
0.00153766 -1.50709e-05 -1.36688e-06
-1.50709e-05 5.70156e-05 -8.51971e-07
-1.36688e-06 -8.51971e-07 -2.9831e-05
0.00159768 1.62079e-05 -1.42072e-06
1.62079e-05 8.89943e-05 -7.32463e-07
-1.42072e-06 -7.32463e-07 -1.04157e-06
0.00160169 8.2372e-06 3.14612e-08
8.2372e-06 9.2293e-05 1.60013e-08
3.14612e-08 1.60013e-08 2.76227e-06
0.00169357 -2.21004e-05 -5.22357e-08
-2.21004e-05 0.000124647 -1.90759e-08
-5.22357e-08 -1.90759e-08 4.21283e-05
0.00152491 1.39688e-05 -4.9996e-07
1.39688e-05 2.9705e-05 3.7429e-07
-4.9996e-07 3.7429e-07 -3.50578e-05
0.00161061 9.71958e-07 1.99946e-06
9.71958e-07 9.89632e-05 3.03697e-07
1.99946e-06 3.03697e-07 1.29874e-05
0.00177614 -1.41886e-05 1.88878e-06
-1.41886e-05 0.000149998 1.89517e-06
1.88878e-06 1.89517e-06 7.19999e-05
0.00135902 -1.43391e-05 2.2213e-06
-1.43391e-05 -6.3158e-05 8.43628e-07
2.2213e-06 8.43628e-07 -0.000134223
0.00155954 2.21714e-05 -1.7004e-06
2.21714e-05 6.95794e-05 -3.50946e-07
-1.7004e-06 -3.50946e-07 -2.03017e-05
0.00162139 4.89868e-06 -2.34235e-06
4.89868e-06 8.10795e-05 5.55507e-07
-2.34235e-06 5.55507e-07 -4.55729e-06
0.00155865 -3.35859e-05 -2.49291e-06
-3.35859e-05 6.33378e-05 1.412e-06
-2.49291e-06 1.412e-06 -7.34384e-06
0.00111277 -6.22887e-05 -4.66072e-07
-6.22887e-05 0.000110584 8.86912e-07
-4.66072e-07 8.86912e-07 3.10782e-05
0.0009389 -6.35599e-05 -3.65971e-07
-6.35599e-05 2.77727e-05 2.71136e-06
-3.65971e-07 2.71136e-06 -6.62214e-05
0.00139367 -8.28011e-05 -2.70623e-06
-8.28011e-05 0.000200111 3.41636e-06
-2.70623e-06 3.41636e-06 8.99026e-05
0.00156532 -6.32053e-05 1.59731e-06
-6.32053e-05 9.73544e-05 2.19512e-06
1.59731e-06 2.19512e-06 4.53973e-05
0.00121527 -7.31709e-05 -4.35578e-06
-7.31709e-05 -6.08324e-06 -2.66776e-06
-4.35578e-06 -2.66776e-06 -8.45445e-05
0.000870466 -5.50773e-05 -1.06359e-06
-5.50773e-05 -1.00357e-05 2.60117e-07
-1.06359e-06 2.60117e-07 -9.10587e-05
0.00109019 -6.092e-05 -5.30146e-07
-6.092e-05 0.000100413 -1.2124e-06
-5.30146e-07 -1.2124e-06 1.33925e-05
0.00104847 -3.46577e-05 -1.59351e-07
-3.46577e-05 8.98843e-05 2.48261e-07
-1.59351e-07 2.48261e-07 4.80166e-06
0.000916184 1.44891e-05 -7.16062e-07
1.44891e-05 2.7131e-06 1.23733e-06
-7.16062e-07 1.23733e-06 -2.6106e-05
0.00104224 2.01172e-05 -2.19181e-07
2.01172e-05 7.29188e-05 1.35228e-06
-2.19181e-07 1.35228e-06 2.29338e-05
0.00103436 -2.91409e-05 -1.08602e-06
-2.91409e-05 7.58019e-05 1.92439e-06
-1.08602e-06 1.92439e-06 5.68677e-06
0.00160714 2.69476e-05 1.86503e-07
2.69476e-05 8.89974e-05 2.74765e-07
1.86503e-07 2.74765e-07 1.67329e-06
0.000924141 1.11538e-05 -2.88488e-08
1.11538e-05 4.24628e-06 1.01747e-08
-2.88488e-08 1.01747e-08 -2.27091e-05
0.000861038 -1.69839e-06 -4.71839e-07
-1.69839e-06 -1.80601e-05 1.45611e-08
-4.71839e-07 1.45611e-08 -6.17754e-05
0.0017142 -1.66008e-06 1.54738e-07
-1.66008e-06 0.00011409 -1.05306e-07
1.54738e-07 -1.05306e-07 3.28681e-05
0.00138045 -4.57234e-05 -6.3096e-07
-4.57234e-05 -4.91228e-05 -3.64246e-07
-6.3096e-07 -3.64246e-07 -0.000101358
0.000895936 -5.79558e-05 -5.77002e-08
-5.79558e-05 1.34562e-05 8.86592e-07
-5.77002e-08 8.86592e-07 -7.17896e-05
0.00136904 -7.97223e-05 -5.36966e-07
-7.97223e-05 0.000231702 3.55091e-07
-5.36966e-07 3.55091e-07 0.000121764
0.0012057 -7.97826e-05 9.0727e-07
-7.97826e-05 7.52065e-05 1.15934e-06
9.0727e-07 1.15934e-06 -3.86069e-05
0.00175211 -7.9957e-05 3.00172e-07
-7.9957e-05 0.000178711 -1.02828e-06
3.00172e-07 -1.02828e-06 0.000125897
0.00100517 2.08659e-07 6.59734e-07
2.08659e-07 5.54308e-05 -4.92599e-07
6.59734e-07 -4.92599e-07 7.77483e-06
0.00104097 -1.49432e-05 -5.19761e-07
-1.49432e-05 7.9164e-05 5.07778e-07
-5.19761e-07 5.07778e-07 1.34839e-05
0.00100171 -5.99027e-05 4.03646e-07
-5.99027e-05 4.71493e-05 4.09716e-07
4.03646e-07 4.09716e-07 -3.5191e-05
0.00128051 -6.88626e-05 -8.21058e-07
-6.88626e-05 0.000207359 -4.34475e-07
-8.21058e-07 -4.34475e-07 0.000117416
0.000955001 -4.74859e-05 3.00779e-07
-4.74859e-05 4.89602e-05 3.31732e-07
3.00779e-07 3.31732e-07 -4.75567e-05
0.00101343 -2.2852e-05 2.16097e-07
-2.2852e-05 6.9095e-05 -2.81173e-07
2.16097e-07 -2.81173e-07 -1.08721e-05
0.00160128 2.9421e-05 2.49139e-06
2.9421e-05 8.05377e-05 8.31968e-07
2.49139e-06 8.31968e-07 -4.54515e-07
0.00188771 -1.32277e-05 2.79991e-06
-1.32277e-05 0.000191617 -3.83015e-07
2.79991e-06 -3.83015e-07 0.000120356
0.00183979 -7.31671e-05 -5.74885e-07
-7.31671e-05 0.000127274 -4.12792e-06
-5.74885e-07 -4.12792e-06 0.000101494
0.00136681 -8.82558e-05 3.68116e-06
-8.82558e-05 6.67148e-05 1.9729e-06
3.68116e-06 1.9729e-06 -2.2705e-05
0.00112615 -6.47576e-05 -5.78216e-07
-6.47576e-05 0.000125298 -1.40916e-06
-5.78216e-07 -1.40916e-06 3.45657e-05
0.00160352 -9.49759e-05 1.22255e-06
-9.49759e-05 0.000339053 -2.97566e-06
1.22255e-06 -2.97566e-06 0.000206436
0.00076891 1.75708e-05 -4.47409e-07
1.75708e-05 -6.52971e-05 -1.47894e-06
-4.47409e-07 -1.47894e-06 -0.000107592
0.000944999 -9.02457e-06 7.75078e-07
-9.02457e-06 2.47156e-05 -1.19754e-06
7.75078e-07 -1.19754e-06 -2.02903e-05
0.00118829 -1.94736e-05 2.18173e-07
-1.94736e-05 0.000158925 -6.85028e-07
2.18173e-07 -6.85028e-07 0.000102377
0.000872126 1.26751e-05 -5.34115e-07
1.26751e-05 -3.58381e-06 -1.12703e-06
-5.34115e-07 -1.12703e-06 -6.87402e-05
0.00114585 -2.377e-05 -3.05487e-08
-2.377e-05 0.000135443 -6.14572e-07
-3.05487e-08 -6.14572e-07 5.9814e-05
0.000867858 -2.79461e-05 6.35565e-08
-2.79461e-05 3.87746e-06 -3.4299e-07
6.35565e-08 -3.4299e-07 -8.6272e-05
0.00120032 -5.16625e-05 2.8081e-06
-5.16625e-05 0.000183187 -4.13345e-07
2.8081e-06 -4.13345e-07 7.90456e-05
0.000968716 -6.49899e-05 -5.58817e-07
-6.49899e-05 5.63992e-05 5.00984e-07
-5.58817e-07 5.00984e-07 -3.32713e-05
0.000904926 3.22777e-05 -3.07546e-07
3.22777e-05 7.7441e-06 -4.29266e-07
-3.07546e-07 -4.29266e-07 -6.3838e-05
0.00104126 5.66387e-05 -1.38413e-06
5.66387e-05 8.26749e-05 -7.69393e-07
-1.38413e-06 -7.69393e-07 -1.67458e-06
0.00166473 3.68101e-05 -2.92392e-06
3.68101e-05 7.02904e-05 -3.20432e-06
-2.92392e-06 -3.20432e-06 1.50743e-05
0.00149311 7.20443e-05 -1.30736e-06
7.20443e-05 9.6881e-05 9.07677e-07
-1.30736e-06 9.07677e-07 2.65761e-05
0.00121978 6.36226e-05 -1.04318e-06
6.36226e-05 0.000169206 7.30979e-09
-1.04318e-06 7.30979e-09 8.01457e-05
0.00112408 6.42128e-05 -9.8423e-07
6.42128e-05 0.000126946 -1.80313e-06
-9.8423e-07 -1.80313e-06 3.61271e-05
0.00177402 9.57537e-05 -1.55864e-06
9.57537e-05 0.00034044 2.36558e-08
-1.55864e-06 2.36558e-08 0.000238499
0.000959891 6.91083e-05 -6.98022e-07
6.91083e-05 2.36673e-05 -1.5413e-06
-6.98022e-07 -1.5413e-06 -9.32285e-05
0.00104125 4.83418e-05 -2.93328e-07
4.83418e-05 8.37329e-05 -4.33169e-07
-2.93328e-07 -4.33169e-07 3.02986e-06
0.0014787 1.00649e-05 9.25512e-07
1.00649e-05 -3.51079e-05 8.00038e-07
9.25512e-07 8.00038e-07 -0.000102722
0.00107254 6.02902e-05 2.94013e-07
6.02902e-05 0.000101674 4.5177e-07
2.94013e-07 4.5177e-07 9.80317e-06
0.00095586 6.03126e-05 2.64759e-07
6.03126e-05 3.88243e-05 -3.13871e-07
2.64759e-07 -3.13871e-07 -6.26631e-05
0.0016009 6.47097e-05 5.86174e-07
6.47097e-05 1.29529e-06 -2.69208e-07
5.86174e-07 -2.69208e-07 -5.4082e-05
0.00156804 9.47953e-05 7.52588e-07
9.47953e-05 0.000158891 -5.34629e-07
7.52588e-07 -5.34629e-07 6.03316e-05
0.00157722 9.03177e-05 9.41383e-08
9.03177e-05 0.000317647 4.5209e-07
9.41383e-08 4.5209e-07 0.000191444
0.00111391 5.32449e-05 2.67126e-07
5.32449e-05 0.000125533 2.23202e-07
2.67126e-07 2.23202e-07 3.60689e-05
0.00186607 4.10773e-05 4.32158e-06
4.10773e-05 5.35797e-05 1.16935e-06
4.32158e-06 1.16935e-06 -3.07846e-06
0.00139974 7.09605e-05 -9.12376e-08
7.09605e-05 0.00025469 -3.43324e-07
-9.12376e-08 -3.43324e-07 0.000158576
0.00162055 8.42885e-05 -1.46481e-06
8.42885e-05 0.000363608 1.80882e-06
-1.46481e-06 1.80882e-06 0.000246891
0.00125855 9.5002e-05 4.40959e-06
9.5002e-05 -0.000135189 3.32315e-07
4.40959e-06 3.32315e-07 -0.00021132
0.00108392 8.38403e-05 6.38854e-08
8.38403e-05 2.69006e-05 2.387e-06
6.38854e-08 2.387e-06 -0.000100973
0.00247666 1.62278e-05 1.04956e-05
1.62278e-05 0.000451378 -2.87836e-06
1.04956e-05 -2.87836e-06 0.000438164
0.00105119 3.10745e-05 -4.05984e-07
3.10745e-05 8.58788e-05 -6.75812e-07
-4.05984e-07 -6.75812e-07 1.04003e-05
0.00104521 3.86312e-05 6.46801e-09
3.86312e-05 8.67495e-05 -1.01768e-07
6.46801e-09 -1.01768e-07 3.02543e-06
0.00116323 5.15711e-05 3.65278e-07
5.15711e-05 0.000140517 -1.14467e-07
3.65278e-07 -1.14467e-07 5.17193e-05
0.000948811 -1.38804e-05 3.98733e-07
-1.38804e-05 2.71071e-05 -9.07603e-07
3.98733e-07 -9.07603e-07 -1.82449e-05
0.00086719 -1.46209e-05 -4.67882e-08
-1.46209e-05 -8.64654e-06 -2.37099e-07
-4.67882e-08 -2.37099e-07 -6.92408e-05
0.00113014 3.32804e-05 -4.7608e-07
3.32804e-05 0.000129591 -9.85163e-08
-4.7608e-07 -9.85163e-08 5.85757e-05
0.00099893 2.3063e-05 -3.50655e-07
2.3063e-05 5.78983e-05 -1.14987e-06
-3.50655e-07 -1.14987e-06 -2.34211e-05
0.000962227 -1.57619e-05 -2.91094e-07
-1.57619e-05 3.40015e-05 2.04487e-08
-2.91094e-07 2.04487e-08 -1.11863e-05
0.000920525 8.12475e-06 1.97254e-07
8.12475e-06 2.0042e-05 4.54934e-08
1.97254e-07 4.54934e-08 -3.93017e-05
0.00106982 4.09243e-05 -3.8998e-07
4.09243e-05 9.10344e-05 -7.41611e-07
-3.8998e-07 -7.41611e-07 4.8885e-06
0.00104674 8.67406e-06 -1.86618e-07
8.67406e-06 8.43689e-05 -8.0122e-08
-1.86618e-07 -8.0122e-08 1.55542e-05
0.00104483 1.01317e-05 1.61712e-07
1.01317e-05 8.13424e-05 -2.69227e-09
1.61712e-07 -2.69227e-09 2.85032e-06
0.00108669 3.55674e-05 -7.3366e-08
3.55674e-05 9.16592e-05 7.2918e-07
-7.3366e-08 7.2918e-07 5.06994e-06
0.00110566 3.16497e-05 2.33957e-07
3.16497e-05 0.000115475 1.54623e-08
2.33957e-07 1.54623e-08 3.94549e-05
0.00110605 2.77246e-05 2.21391e-07
2.77246e-05 0.000114257 9.68814e-08
2.21391e-07 9.68814e-08 4.64178e-05
0.000820533 8.92567e-06 -2.90165e-07
8.92567e-06 -3.09244e-05 7.01494e-07
-2.90165e-07 7.01494e-07 -9.08175e-05
0.000789091 1.19768e-05 4.91292e-07
1.19768e-05 -5.44755e-05 1.25938e-06
4.91292e-07 1.25938e-06 -0.000100707
0.00115488 -1.28093e-06 2.43685e-07
-1.28093e-06 0.000142157 1.59471e-07
2.43685e-07 1.59471e-07 8.24395e-05
0.000788565 7.87474e-07 -2.83832e-07
7.87474e-07 -5.42496e-05 1.25697e-06
-2.83832e-07 1.25697e-06 -0.000100509
0.000923806 1.17111e-05 2.47771e-07
1.17111e-05 3.88318e-06 1.57599e-06
2.47771e-07 1.57599e-06 -2.26828e-05
0.000921503 1.6185e-06 -2.81551e-07
1.6185e-06 2.27849e-06 4.74529e-09
-2.81551e-07 4.74529e-09 -2.40993e-05
0.000873347 2.69956e-07 1.38848e-07
2.69956e-07 -3.56799e-05 3.00323e-06
1.38848e-07 3.00323e-06 -3.46837e-05
0.000925888 -8.37977e-06 2.34462e-07
-8.37977e-06 3.55866e-06 -1.6053e-06
2.34462e-07 -1.6053e-06 -2.2648e-05
0.00115772 -3.24101e-06 -7.37109e-07
-3.24101e-06 0.000110783 -1.2266e-06
-7.37109e-07 -1.2266e-06 0.000113165
0.00220058 -5.07088e-06 3.48927e-06
-5.07088e-06 0.0006454 3.93859e-06
3.48927e-06 3.93859e-06 0.000669064
0.00145968 -6.84892e-06 -2.15901e-06
-6.84892e-06 0.000267375 -4.22934e-06
-2.15901e-06 -4.22934e-06 0.00027101
0.00106241 -7.58558e-06 1.17032e-06
-7.58558e-06 6.24113e-05 2.39721e-06
1.17032e-06 2.39721e-06 8.04789e-05
0.00100575 -1.08726e-05 -1.24223e-06
-1.08726e-05 3.62746e-05 -1.5196e-06
-1.24223e-06 -1.5196e-06 5.40607e-05
0.00093534 5.91061e-06 3.27037e-07
5.91061e-06 5.85353e-06 -1.71661e-06
3.27037e-07 -1.71661e-06 -1.75425e-05
0.000929091 8.50471e-06 -2.6501e-08
8.50471e-06 4.38756e-06 4.6976e-09
-2.6501e-08 4.6976e-09 -2.05709e-05
0.000857984 1.06346e-05 7.56542e-07
1.06346e-05 -3.91466e-05 -3.13259e-06
7.56542e-07 -3.13259e-06 -3.77833e-05
0.0011451 1.49385e-05 -4.3728e-07
1.49385e-05 0.000112047 2.69806e-08
-4.3728e-07 2.69806e-08 0.000113069
0.0021904 1.81712e-05 1.00444e-05
1.81712e-05 0.000647732 -3.84233e-06
1.00444e-05 -3.84233e-06 0.000670219
0.000872995 1.66179e-05 -1.72026e-06
1.66179e-05 -2.33214e-05 3.20527e-06
-1.72026e-06 3.20527e-06 -2.55704e-05
0.00223442 2.27311e-05 -8.40946e-07
2.27311e-05 0.000675408 -3.92779e-08
-8.40946e-07 -3.92779e-08 0.000696507
0.00228537 2.68982e-05 -1.59735e-05
2.68982e-05 0.000707262 3.88061e-06
-1.59735e-05 3.88061e-06 0.000726827
0.00149637 1.4128e-05 -1.34687e-06
1.4128e-05 1.99595e-05 -1.89421e-06
-1.34687e-06 -1.89421e-06 -4.34185e-05
0.00163426 -2.01716e-05 -1.24267e-06
-2.01716e-05 9.51011e-05 -7.62551e-07
-1.24267e-06 -7.62551e-07 1.17975e-05
0.00160602 4.66983e-06 -1.43319e-06
4.66983e-06 9.54664e-05 -6.61559e-07
-1.43319e-06 -6.61559e-07 6.05468e-06
0.00161002 2.00167e-06 -1.0938e-07
2.00167e-06 9.82411e-05 -3.93878e-07
-1.0938e-07 -3.93878e-07 1.22652e-05
0.00162266 -1.38328e-05 -1.9367e-07
-1.38328e-05 8.09321e-05 5.41154e-07
-1.9367e-07 5.41154e-07 3.68986e-06
0.00148304 -1.6931e-05 1.24647e-06
-1.6931e-05 9.345e-06 7.3915e-07
1.24647e-06 7.3915e-07 -6.43671e-05
0.0016169 4.25055e-06 1.88288e-06
4.25055e-06 9.60844e-05 1.36015e-07
1.88288e-06 1.36015e-07 1.83929e-05
0.00177931 -4.76127e-05 -2.38343e-06
-4.76127e-05 3.51805e-05 -6.54593e-06
-2.38343e-06 -6.54593e-06 1.23346e-05
0.00198812 9.05824e-07 3.30182e-06
9.05824e-07 0.00021073 6.37187e-07
3.30182e-06 6.37187e-07 0.000152728
0.000962607 -2.8203e-06 4.41615e-07
-2.8203e-06 3.19875e-05 -9.7349e-07
4.41615e-07 -9.7349e-07 -7.89036e-06
0.00159055 2.68892e-05 -2.24354e-06
2.68892e-05 8.16659e-05 -7.56986e-07
-2.24354e-06 -7.56986e-07 -5.09261e-06
0.00176938 -2.33201e-06 -2.55786e-06
-2.33201e-06 0.000139157 6.47287e-07
-2.55786e-06 6.47287e-07 5.81095e-05
0.0012876 -4.63816e-05 -6.79866e-07
-4.63816e-05 -9.03025e-05 2.78664e-06
-6.79866e-07 2.78664e-06 -0.000145997
0.000897123 -5.76793e-05 1.63692e-07
-5.76793e-05 1.4809e-05 1.406e-06
1.63692e-07 1.406e-06 -6.94335e-05
0.00131659 -7.85933e-05 -1.31586e-06
-7.85933e-05 0.00020584 4.41978e-06
-1.31586e-06 4.41978e-06 9.32924e-05
0.000935336 -7.13711e-05 -1.92574e-06
-7.13711e-05 -6.4717e-05 4.96512e-07
-1.92574e-06 4.96512e-07 -0.000175683
0.00144137 -7.64052e-05 -2.47328e-06
-7.64052e-05 2.88445e-05 -2.4213e-06
-2.47328e-06 -2.4213e-06 -2.42882e-05
0.00116762 -6.43648e-05 7.71845e-07
-6.43648e-05 0.000128074 -5.60366e-07
7.71845e-07 -5.60366e-07 4.51301e-05
0.00090137 -5.79667e-05 -4.05395e-06
-5.79667e-05 1.61741e-05 -3.29004e-06
-4.05395e-06 -3.29004e-06 -7.02247e-05
0.00087012 -4.45497e-05 -4.2103e-08
-4.45497e-05 8.39104e-06 7.61038e-07
-4.2103e-08 7.61038e-07 -8.94484e-05
0.000927172 1.08957e-05 -7.1386e-07
1.08957e-05 5.61301e-06 1.80997e-06
-7.1386e-07 1.80997e-06 -2.1353e-05
0.00104649 -2.48629e-05 4.15373e-08
-2.48629e-05 8.46559e-05 2.14352e-07
4.15373e-08 2.14352e-07 4.69484e-06
0.00121191 -1.89148e-05 -3.30147e-07
-1.89148e-05 0.000161803 7.06559e-07
-3.30147e-07 7.06559e-07 0.000115279
0.00102215 -4.31267e-06 -2.41318e-07
-4.31267e-06 7.03335e-05 1.65821e-06
-2.41318e-07 1.65821e-06 4.31827e-06
0.000761587 6.5932e-06 -5.89932e-08
6.5932e-06 -6.97764e-05 1.11495e-06
-5.89932e-08 1.11495e-06 -0.00011304
0.00161901 2.79589e-05 4.26858e-08
2.79589e-05 8.68064e-05 2.24114e-07
4.26858e-08 2.24114e-07 6.06436e-06
0.00087385 3.30309e-06 2.91901e-07
3.30309e-06 -1.24318e-05 -4.47197e-07
2.91901e-07 -4.47197e-07 -5.41571e-05
0.000949178 -1.12074e-05 -1.78393e-07
-1.12074e-05 2.73214e-05 3.00395e-08
-1.78393e-07 3.00395e-08 -1.79901e-05
0.00100209 -7.38865e-06 -6.27469e-07
-7.38865e-06 6.39796e-05 4.625e-07
-6.27469e-07 4.625e-07 6.29073e-06
0.00176125 -1.29743e-05 9.55904e-07
-1.29743e-05 0.000121986 4.47115e-07
9.55904e-07 4.47115e-07 5.24114e-05
0.00160324 -7.18955e-05 -1.40173e-06
-7.18955e-05 2.14531e-05 -1.05784e-06
-1.40173e-06 -1.05784e-06 -8.53951e-06
0.000995967 -6.17168e-05 -3.43072e-07
-6.17168e-05 5.53184e-05 6.25781e-07
-3.43072e-07 6.25781e-07 -3.3813e-05
0.00114962 -8.1625e-05 8.43397e-07
-8.1625e-05 0.000120996 -6.18975e-07
8.43397e-07 -6.18975e-07 -1.21531e-05
0.00138765 -8.94733e-05 -9.94564e-08
-8.94733e-05 7.88626e-05 9.3358e-07
-9.94564e-08 9.3358e-07 -9.68284e-06
0.000961678 7.97432e-06 -1.61417e-07
7.97432e-06 4.15882e-05 4.15176e-08
-1.61417e-07 4.15176e-08 -2.21907e-05
0.00110768 -2.71461e-05 -2.2527e-08
-2.71461e-05 0.00011685 -2.52523e-08
-2.2527e-08 -2.52523e-08 4.00374e-05
0.000920025 -6.31907e-05 -1.93048e-06
-6.31907e-05 3.1385e-05 2.43819e-07
-1.93048e-06 2.43819e-07 -5.9392e-05
0.00115646 -4.57745e-05 2.00017e-07
-4.57745e-05 0.00016056 -2.18457e-07
2.00017e-07 -2.18457e-07 5.79458e-05
0.000970123 -3.52243e-05 -7.26708e-09
-3.52243e-05 5.51097e-05 6.38283e-07
-7.26708e-09 6.38283e-07 -3.4536e-05
0.00146811 2.30008e-05 2.98201e-06
2.30008e-05 -1.17048e-05 2.4827e-07
2.98201e-06 2.4827e-07 -8.80384e-05
0.00211533 -4.27666e-05 2.93724e-06
-4.27666e-05 0.000232751 -2.98585e-06
2.93724e-06 -2.98585e-06 0.000200692
0.001987 -0.00010508 5.81792e-06
-0.00010508 0.000239994 -1.08382e-06
5.81792e-06 -1.08382e-06 0.000179572
0.00152751 -9.96338e-05 7.89576e-07
-9.96338e-05 0.00025123 -1.66059e-06
7.89576e-07 -1.66059e-06 0.000128097
0.0010362 -7.21361e-05 6.0283e-07
-7.21361e-05 9.71041e-05 -2.62234e-06
6.0283e-07 -2.62234e-06 -1.25542e-05
0.00077718 1.43364e-05 6.13644e-08
1.43364e-05 -5.00871e-05 -1.21523e-06
6.13644e-08 -1.21523e-06 -0.000106686
0.000888465 1.50611e-05 3.3738e-07
1.50611e-05 6.33215e-06 -1.24926e-06
3.3738e-07 -1.24926e-06 -5.57037e-05
0.00113602 1.17676e-05 3.01168e-07
1.17676e-05 0.000135309 -1.71847e-07
3.01168e-07 -1.71847e-07 6.71313e-05
0.00105947 -3.61671e-05 6.06951e-07
-3.61671e-05 9.68388e-05 -8.845e-07
6.06951e-07 -8.845e-07 2.14674e-05
0.00107085 -2.96136e-05 -4.11555e-09
-2.96136e-05 0.00010154 6.64608e-08
-4.11555e-09 6.64608e-08 1.7556e-05
0.0010576 -3.65415e-05 -1.44034e-07
-3.65415e-05 0.000109164 -1.57228e-06
-1.44034e-07 -1.57228e-06 1.20243e-05
0.000978774 -5.28098e-05 4.49276e-06
-5.28098e-05 9.58223e-05 -9.69624e-08
4.49276e-06 -9.69624e-08 -2.55838e-05
0.00100955 5.01135e-05 -7.48485e-07
5.01135e-05 6.88242e-05 -1.01659e-06
-7.48485e-07 -1.01659e-06 -1.21296e-05
0.000965669 5.71777e-05 -6.07911e-08
5.71777e-05 4.85089e-05 3.39269e-07
-6.07911e-08 3.39269e-07 -4.29731e-05
0.00132372 7.8435e-06 -1.63364e-06
7.8435e-06 -0.00011314 -8.19014e-07
-1.63364e-06 -8.19014e-07 -0.000180023
0.00135409 5.91425e-05 -1.63087e-06
5.91425e-05 -0.00011726 -1.84653e-06
-1.63087e-06 -1.84653e-06 -0.000173263
0.00176338 0.000101584 -2.53192e-06
0.000101584 0.000246992 -3.64894e-07
-2.53192e-06 -3.64894e-07 0.000149277
0.000817582 5.62631e-05 -1.04828e-07
5.62631e-05 -3.2741e-05 -1.08419e-06
-1.04828e-07 -1.08419e-06 -0.000135269
0.00144674 8.717e-05 -3.46496e-07
8.717e-05 0.000256887 -8.1724e-07
-3.46496e-07 -8.1724e-07 0.000131178
0.00110706 5.38191e-05 9.66052e-08
5.38191e-05 0.000122691 9.35298e-08
9.66052e-08 9.35298e-08 3.38136e-05
0.00165122 4.06848e-05 -1.55539e-06
4.06848e-05 -5.79159e-05 1.66149e-07
-1.55539e-06 1.66149e-07 -0.000114905
0.00119197 6.4533e-05 -3.78636e-07
6.4533e-05 0.000153722 -3.37971e-07
-3.78636e-07 -3.37971e-07 5.82491e-05
0.00126607 7.28604e-05 -2.74402e-07
7.28604e-05 0.000196958 4.40651e-07
-2.74402e-07 4.40651e-07 8.03704e-05
0.00158223 9.72339e-05 1.70447e-06
9.72339e-05 1.19139e-05 -1.03864e-06
1.70447e-06 -1.03864e-06 -6.20501e-05
0.00124597 8.8736e-05 -9.52183e-07
8.8736e-05 0.000114449 1.05234e-06
-9.52183e-07 1.05234e-06 -1.93657e-05
0.00177736 5.68589e-06 -3.84557e-06
5.68589e-06 4.1784e-05 -3.44429e-06
-3.84557e-06 -3.44429e-06 3.28113e-05
0.0011469 5.94217e-05 -5.28963e-07
5.94217e-05 0.000137034 -8.47948e-07
-5.28963e-07 -8.47948e-07 4.39345e-05
0.0021439 0.000113259 1.0405e-05
0.000113259 0.000179131 3.20751e-06
1.0405e-05 3.20751e-06 0.000115667
0.00129732 7.04336e-05 -1.54234e-06
7.04336e-05 0.000214048 -7.23387e-07
-1.54234e-06 -7.23387e-07 0.000113271
0.00103544 7.2236e-05 -1.59142e-06
7.2236e-05 0.000110325 1.45308e-06
-1.59142e-06 1.45308e-06 -3.06218e-05
0.000671684 0.000100743 2.33969e-07
0.000100743 -0.000253529 5.45095e-08
2.33969e-07 5.45095e-08 -0.000367833
0.00612099 -0.000113639 -1.93517e-05
-0.000113639 0.00215223 1.49107e-06
-1.93517e-05 1.49107e-06 0.00163258
0.00319719 -0.000136179 5.67145e-05
-0.000136179 0.000644495 1.48031e-05
5.67145e-05 1.48031e-05 0.000415322
0.00111287 0.000103206 7.5305e-06
0.000103206 -0.000223797 4.06953e-06
7.5305e-06 4.06953e-06 -0.000152557
-0.00247104 -0.000141371 -4.41497e-05
-0.000141371 -0.00136103 -2.12546e-05
-4.41497e-05 -2.12546e-05 -0.00133736
0.00152594 -0.000208668 -1.1062e-05
-0.000208668 -1.11144e-05 -2.29647e-06
-1.1062e-05 -2.29647e-06 0.000516629
0.00102887 3.87607e-05 -4.54775e-07
3.87607e-05 7.93853e-05 -5.81979e-07
-4.54775e-07 -5.81979e-07 -4.40963e-06
0.0011281 4.97796e-05 -1.56683e-09
4.97796e-05 0.00012434 -5.13408e-08
-1.56683e-09 -5.13408e-08 3.57106e-05
0.00112996 5.16806e-05 3.83759e-07
5.16806e-05 0.000110307 2.57917e-07
3.83759e-07 2.57917e-07 2.07527e-05
0.00095231 -2.47712e-05 2.01678e-07
-2.47712e-05 2.99878e-05 -8.58405e-07
2.01678e-07 -8.58405e-07 -1.59021e-05
0.000857484 1.81984e-05 2.94965e-08
1.81984e-05 -1.18125e-05 -7.84298e-07
2.94965e-08 -7.84298e-07 -7.20642e-05
0.00103846 -4.70816e-06 6.25947e-08
-4.70816e-06 7.96356e-05 -4.39009e-07
6.25947e-08 -4.39009e-07 1.12057e-05
0.00110816 1.74757e-05 -1.44394e-07
1.74757e-05 0.000115356 -5.53633e-07
-1.44394e-07 -5.53633e-07 3.74085e-05
0.00103193 3.46141e-05 -7.17161e-07
3.46141e-05 7.0592e-05 -1.267e-06
-7.17161e-07 -1.267e-06 -1.54075e-05
0.0010259 3.22529e-05 -3.17524e-07
3.22529e-05 7.38242e-05 -4.65173e-07
-3.17524e-07 -4.65173e-07 4.56111e-06
0.000873983 7.38135e-06 1.67167e-07
7.38135e-06 -1.06342e-05 4.35389e-07
1.67167e-07 4.35389e-07 -5.66856e-05
0.000912578 4.51354e-06 -1.2159e-07
4.51354e-06 1.63472e-05 4.69735e-08
-1.2159e-07 4.69735e-08 -4.30803e-05
0.00107002 3.62452e-05 -2.61767e-08
3.62452e-05 8.58607e-05 1.55432e-07
-2.61767e-08 1.55432e-07 -3.09691e-07
0.00107211 2.92911e-05 -5.35292e-08
2.92911e-05 9.72002e-05 -3.20549e-07
-5.35292e-08 -3.20549e-07 2.10994e-05
0.00107618 4.81405e-05 1.2496e-08
4.81405e-05 0.000101644 -2.72087e-07
1.2496e-08 -2.72087e-07 2.58256e-05
0.00112232 5.21221e-05 3.07087e-07
5.21221e-05 0.000119417 7.53386e-07
3.07087e-07 7.53386e-07 3.47595e-05
0.00088137 2.2239e-05 2.53813e-07
2.2239e-05 -2.44391e-06 1.06788e-06
2.53813e-07 1.06788e-06 -7.19524e-05
0.00084914 5.42894e-06 3.74789e-07
5.42894e-06 -1.69524e-05 1.36343e-07
3.74789e-07 1.36343e-07 -7.69419e-05
0.000765483 -2.68764e-05 -1.05063e-06
-2.68764e-05 -6.49487e-05 1.26137e-06
-1.05063e-06 1.26137e-06 -0.000111791
0.0010341 7.44648e-06 -4.06373e-08
7.44648e-06 7.80256e-05 5.02125e-07
-4.06373e-08 5.02125e-07 1.8567e-05
0.00115149 3.72652e-05 1.75033e-07
3.72652e-05 0.000139276 2.15568e-07
1.75033e-07 2.15568e-07 7.01206e-05
0.000977956 -6.32446e-06 -3.01923e-07
-6.32446e-06 5.1218e-05 6.94361e-07
-3.01923e-07 6.94361e-07 -9.95447e-06
0.00100576 4.37965e-06 3.51385e-07
4.37965e-06 6.46625e-05 -4.62204e-07
3.51385e-07 -4.62204e-07 4.9508e-06
0.000954058 -2.18329e-05 -8.06564e-07
-2.18329e-05 3.1412e-05 8.21221e-07
-8.06564e-07 8.21221e-07 -1.47814e-05
0.000785975 4.0288e-06 1.64794e-07
4.0288e-06 -5.43644e-05 4.42495e-07
1.64794e-07 4.42495e-07 -0.000101321
0.000927223 1.03703e-05 -1.59854e-08
1.03703e-05 5.66873e-06 1.59695e-06
-1.59854e-08 1.59695e-06 -2.11698e-05
0.000921531 2.64073e-06 -2.16919e-07
2.64073e-06 2.65835e-06 -3.17817e-09
-2.16919e-07 -3.17817e-09 -2.38401e-05
0.000891812 3.38197e-06 -3.48143e-07
3.38197e-06 -2.55141e-05 4.21931e-06
-3.48143e-07 4.21931e-06 -2.4759e-05
0.000922957 -7.544e-06 3.84186e-07
-7.544e-06 3.06605e-06 -1.56443e-06
3.84186e-07 -1.56443e-06 -2.32982e-05
0.000876215 2.18517e-07 8.86473e-08
2.18517e-07 -3.42038e-05 6.52244e-09
8.86473e-08 6.52244e-09 -3.32209e-05
0.00219714 -9.076e-07 3.94642e-09
-9.076e-07 0.000643031 3.94697e-06
3.94642e-09 3.94697e-06 0.000666805
0.000893538 -2.85155e-06 -4.53609e-07
-2.85155e-06 -2.46388e-05 -4.25874e-06
-4.53609e-07 -4.25874e-06 -2.38232e-05
0.0016276 -4.41039e-06 -1.3764e-07
-4.41039e-06 0.000351007 2.0502e-08
-1.3764e-07 2.0502e-08 0.000371923
0.00101893 -7.25768e-06 -7.72809e-07
-7.25768e-06 3.97306e-05 -1.49778e-06
-7.72809e-07 -1.49778e-06 5.80674e-05
0.000938619 3.03286e-06 1.29657e-07
3.03286e-06 6.11471e-06 -1.74761e-06
1.29657e-07 -1.74761e-06 -1.6279e-05
0.000933123 5.47102e-06 1.09615e-08
5.47102e-06 4.43985e-06 -3.82095e-09
1.09615e-08 -3.82095e-09 -1.8912e-05
0.000867389 7.28247e-06 5.13149e-07
7.28247e-06 -3.73279e-05 -3.08929e-06
5.13149e-07 -3.08929e-06 -3.46446e-05
0.000929897 8.18206e-06 -5.32045e-07
8.18206e-06 4.52076e-06 1.753e-06
-5.32045e-07 1.753e-06 -2.04057e-05
0.00113731 1.15131e-05 -1.61429e-07
1.15131e-05 0.000104029 -5.96352e-07
-1.61429e-07 -5.96352e-07 0.000106761
0.00215253 1.36372e-05 7.53802e-06
1.36372e-05 0.000624663 -3.8368e-06
7.53802e-06 -3.8368e-06 0.000648198
0.000871562 1.39004e-05 -1.34557e-06
1.39004e-05 -2.82718e-05 3.18322e-06
-1.34557e-06 3.18322e-06 -2.88346e-05
0.00221498 1.77722e-05 -3.9467e-06
1.77722e-05 0.000661246 1.11647e-06
-3.9467e-06 1.11647e-06 0.000683444
0.00224056 2.2769e-05 -1.36101e-05
2.2769e-05 0.000679187 3.89828e-06
-1.36101e-05 3.89828e-06 0.000700102
0.00141905 -1.26129e-05 -1.49178e-06
-1.26129e-05 -1.2171e-05 -4.95527e-07
-1.49178e-06 -4.95527e-07 -8.87032e-05
0.00160606 2.47607e-06 -1.96244e-06
2.47607e-06 9.58341e-05 -1.15061e-06
-1.96244e-06 -1.15061e-06 9.84786e-06
0.00147318 -1.74466e-05 2.1843e-06
-1.74466e-05 1.7784e-05 2.84041e-07
2.1843e-06 2.84041e-07 -5.88022e-05
0.00177245 -4.2377e-05 -1.81127e-06
-4.2377e-05 4.96399e-05 -1.12333e-06
-1.81127e-06 -1.12333e-06 1.7654e-05
0.00150082 2.64246e-06 -9.1789e-07
2.64246e-06 3.69361e-05 -3.51589e-07
-9.1789e-07 -3.51589e-07 -4.15028e-05
0.00143922 2.50893e-06 -6.19836e-07
2.50893e-06 -4.57905e-05 -5.67422e-07
-6.19836e-07 -5.67422e-07 -0.000109774
0.00198887 2.96184e-05 1.66459e-06
2.96184e-05 0.000215555 2.30444e-06
1.66459e-06 2.30444e-06 0.000129762
0.00218877 -0.000107315 0.000142664
-0.000107315 0.00030562 3.9676e-05
0.000142664 3.9676e-05 8.63321e-05
0.00147585 -1.55566e-05 -4.97735e-06
-1.55566e-05 7.20234e-05 2.42418e-06
-4.97735e-06 2.42418e-06 1.93518e-05
0.000959963 1.79521e-06 -3.78969e-07
1.79521e-06 3.15256e-05 -1.02205e-06
-3.78969e-07 -1.02205e-06 -8.34822e-06
0.000964515 -1.51035e-05 3.52415e-07
-1.51035e-05 3.34203e-05 -1.07044e-08
3.52415e-07 -1.07044e-08 -6.9018e-06
0.000972747 -1.27157e-06 -1.5833e-07
-1.27157e-06 4.77475e-05 -5.31836e-07
-1.5833e-07 -5.31836e-07 -4.76852e-06
0.000984175 -1.64247e-05 -3.08162e-07
-1.64247e-05 5.52726e-05 -2.22818e-07
-3.08162e-07 -2.22818e-07 1.3752e-06
0.00165592 2.67737e-05 -2.18756e-06
2.67737e-05 0.000102911 -9.90326e-07
-2.18756e-06 -9.90326e-07 2.23374e-05
0.00170826 -1.29784e-05 -4.48138e-07
-1.29784e-05 9.02973e-05 1.57018e-06
-4.48138e-07 1.57018e-06 2.20143e-05
0.00132821 -7.04564e-05 -4.20497e-06
-7.04564e-05 -0.000103194 1.17241e-06
-4.20497e-06 1.17241e-06 -0.000137916
0.000906929 -5.98438e-05 -4.93328e-08
-5.98438e-05 6.12904e-06 2.76617e-06
-4.93328e-08 2.76617e-06 -8.153e-05
0.000788637 -7.04642e-05 2.94791e-07
-7.04642e-05 -5.04618e-05 2.36818e-06
2.94791e-07 2.36818e-06 -0.000183103
0.00123965 -8.68165e-05 -2.79536e-06
-8.68165e-05 5.96367e-06 -9.0935e-07
-2.79536e-06 -9.0935e-07 -8.11618e-05
0.000872434 -6.14015e-05 -4.28587e-06
-6.14015e-05 7.28401e-06 9.79957e-07
-4.28587e-06 9.79957e-07 -8.4669e-05
0.00109159 -3.83063e-05 -1.00591e-06
-3.83063e-05 0.000127054 1.52041e-07
-1.00591e-06 1.52041e-07 2.62171e-05
0.00106812 -4.28126e-05 -4.74257e-07
-4.28126e-05 0.000104272 1.53013e-06
-4.74257e-07 1.53013e-06 1.51132e-05
0.000953003 -1.11238e-06 -7.20802e-07
-1.11238e-06 2.94022e-05 1.23403e-06
-7.20802e-07 1.23403e-06 -1.60136e-05
0.00106787 -3.28805e-05 -8.92627e-08
-3.28805e-05 9.72984e-05 7.42072e-07
-8.92627e-08 7.42072e-07 1.93769e-05
0.00105114 7.84516e-06 -5.53522e-07
7.84516e-06 8.65044e-05 1.03628e-06
-5.53522e-07 1.03628e-06 2.42184e-05
0.000977626 -5.45587e-06 -9.44606e-08
-5.45587e-06 4.00884e-05 5.35263e-07
-9.44606e-08 5.35263e-07 -1.20736e-06
0.000802695 1.46965e-05 -3.14842e-09
1.46965e-05 -3.66915e-05 1.60069e-06
-3.14842e-09 1.60069e-06 -9.59703e-05
0.00162937 2.28922e-05 -2.54292e-07
2.28922e-05 7.41262e-05 1.31502e-06
-2.54292e-07 1.31502e-06 -1.26628e-06
0.000963097 1.21619e-05 1.69105e-07
1.21619e-05 4.37755e-05 -4.94296e-07
1.69105e-07 -4.94296e-07 -1.11057e-05
0.0009351 1.41917e-06 4.24779e-07
1.41917e-06 3.04892e-05 1.40618e-08
4.24779e-07 1.40618e-08 -3.06958e-05
0.00101669 2.48311e-05 -1.70722e-07
2.48311e-05 7.35058e-05 9.42908e-07
-1.70722e-07 9.42908e-07 5.88232e-06
0.00196381 -4.48688e-05 -2.8104e-06
-4.48688e-05 0.000160026 7.41782e-07
-2.8104e-06 7.41782e-07 0.00012279
0.00140694 -9.25279e-05 -1.02629e-06
-9.25279e-05 -4.1243e-05 -1.42035e-06
-1.02629e-06 -1.42035e-06 -9.9434e-05
0.00105308 -7.27262e-05 8.23153e-08
-7.27262e-05 0.000101167 -2.87241e-07
8.23153e-08 -2.87241e-07 -7.51187e-06
0.00142938 -9.7354e-05 1.15601e-07
-9.7354e-05 0.000207367 -1.32764e-07
1.15601e-07 -1.32764e-07 8.29677e-05
0.00109774 -2.32147e-05 -2.36428e-07
-2.32147e-05 0.000115585 9.41424e-08
-2.36428e-07 9.41424e-08 4.13399e-05
0.00102107 -3.09196e-05 -1.67127e-07
-3.09196e-05 7.59837e-05 7.3068e-07
-1.67127e-07 7.3068e-07 -7.81377e-06
0.000997921 -5.32329e-05 1.87528e-06
-5.32329e-05 9.97137e-05 -4.22641e-07
1.87528e-06 -4.22641e-07 -1.67386e-05
0.00114955 -4.33804e-05 6.97357e-08
-4.33804e-05 0.00015547 -5.45609e-07
6.97357e-08 -5.45609e-07 5.63203e-05
0.00105245 1.31595e-05 3.89718e-06
1.31595e-05 -0.000285041 -2.28647e-07
3.89718e-06 -2.28647e-07 -0.000347795
0.00216776 -0.000104886 1.10498e-05
-0.000104886 0.000174421 -5.33513e-06
1.10498e-05 -5.33513e-06 0.000135946
0.001889 -0.000114163 5.22544e-06
-0.000114163 0.000332062 -1.48141e-06
5.22544e-06 -1.48141e-06 0.000213984
0.00112593 -8.62782e-05 4.59299e-07
-8.62782e-05 0.000142619 -1.7215e-06
4.59299e-07 -1.7215e-06 2.01897e-05
0.000935013 1.64862e-05 -5.54653e-07
1.64862e-05 3.46173e-05 -7.13115e-07
-5.54653e-07 -7.13115e-07 -3.69338e-05
0.000955914 -3.54365e-05 8.77123e-07
-3.54365e-05 4.68644e-05 -1.57232e-06
8.77123e-07 -1.57232e-06 -2.63772e-05
0.00102477 -5.13207e-05 6.06569e-07
-5.13207e-05 8.28587e-05 -1.06444e-06
6.06569e-07 -1.06444e-06 -5.65035e-06
0.00110376 -2.75059e-05 -5.9093e-07
-2.75059e-05 0.000148282 -7.13709e-07
-5.9093e-07 -7.13709e-07 2.19223e-05
0.000571767 -7.55897e-06 -1.09537e-05
-7.55897e-06 -0.000382138 -1.2955e-06
-1.09537e-05 -1.2955e-06 -0.00088648
0.00109392 5.51564e-05 -1.93147e-07
5.51564e-05 0.000116968 -2.43484e-07
-1.93147e-07 -2.43484e-07 2.85644e-05
0.000967899 5.8151e-05 5.99089e-07
5.8151e-05 4.45235e-05 4.7378e-07
5.99089e-07 4.7378e-07 -5.03088e-05
0.00143922 4.11547e-05 -4.42028e-06
4.11547e-05 -0.00017029 -1.18355e-06
-4.42028e-06 -1.18355e-06 -0.000227596
0.00184573 9.73498e-05 -3.26054e-06
9.73498e-05 0.000131695 -1.8943e-07
-3.26054e-06 -1.8943e-07 5.96878e-05
0.00136523 9.27456e-05 -1.99603e-06
9.27456e-05 0.000182377 -6.39055e-07
-1.99603e-06 -6.39055e-07 4.19046e-05
0.000887762 6.06667e-05 1.19249e-06
6.06667e-05 1.86388e-05 3.36254e-07
1.19249e-06 3.36254e-07 -9.83227e-05
0.000951633 5.8339e-06 -1.08444e-05
5.8339e-06 -0.000424121 -3.37105e-06
-1.08444e-05 -3.37105e-06 -0.000422363
0.00112338 5.95988e-05 7.93635e-08
5.95988e-05 0.000127668 -1.3324e-07
7.93635e-08 -1.3324e-07 3.46748e-05
0.00191334 0.000110661 4.18867e-07
0.000110661 4.82894e-05 4.42039e-07
4.18867e-07 4.42039e-07 -1.33215e-05
0.00109544 6.40742e-05 6.61498e-07
6.40742e-05 0.000116919 6.24512e-09
6.61498e-07 6.24512e-09 1.63473e-05
0.00107503 7.388e-05 -2.67483e-07
7.388e-05 0.000129939 -6.73021e-08
-2.67483e-07 -6.73021e-08 -8.64132e-06
0.000726147 0.000100083 -2.51008e-06
0.000100083 -0.000232337 -3.45698e-07
-2.51008e-06 -3.45698e-07 -0.000343139
0.00140824 -0.000113003 -1.23288e-05
-0.000113003 6.59474e-05 -5.89546e-06
-1.23288e-05 -5.89546e-06 -0.000459352
0.00267806 -0.000134801 2.91154e-06
-0.000134801 0.000250616 -2.33125e-06
2.91154e-06 -2.33125e-06 -4.74215e-05
0.000899544 9.77823e-05 2.85975e-06
9.77823e-05 -0.000341358 -7.46455e-07
2.85975e-06 -7.46455e-07 -0.000264106
-0.000381023 -0.000160592 -7.66078e-06
-0.000160592 -0.000446601 -4.72126e-06
-7.66078e-06 -4.72126e-06 -0.000513763
0.000549084 -0.00021523 -1.20389e-06
-0.00021523 -0.000481165 1.02094e-07
-1.20389e-06 1.02094e-07 3.20396e-06
0.00110082 5.91476e-05 9.11708e-07
5.91476e-05 0.000119117 -6.64368e-07
9.11708e-07 -6.64368e-07 2.65812e-05
-0.000267129 3.45816e-05 -0.000100818
3.45816e-05 -0.000419275 -1.14883e-05
-0.000100818 -1.14883e-05 -0.000631411
0.00230142 -0.00010987 -5.57494e-06
-0.00010987 0.000860004 -6.95921e-06
-5.57494e-06 -6.95921e-06 0.00108021
0.00116307 0.000126177 5.23342e-06
0.000126177 -0.000221437 4.85631e-06
5.23342e-06 4.85631e-06 -0.000244883
0.000792864 3.34709e-05 -4.32743e-07
3.34709e-05 -2.47079e-05 -1.06362e-06
-4.32743e-07 -1.06362e-06 -0.000135514
0.00165016 6.63585e-05 -3.94706e-06
6.63585e-05 0.000452468 2.03792e-06
-3.94706e-06 2.03792e-06 0.000277476
0.00181473 9.01518e-05 2.51092e-06
9.01518e-05 0.000302346 4.3455e-06
2.51092e-06 4.3455e-06 0.000249216
0.00555158 -0.000221871 -6.95346e-05
-0.000221871 0.00170606 -1.60376e-05
-6.95346e-05 -1.60376e-05 0.000959904
0.00248803 -4.73446e-05 2.93804e-05
-4.73446e-05 0.000140024 2.22855e-05
2.93804e-05 2.22855e-05 -0.000211088
0.000172426 -0.000239874 -5.27019e-05
-0.000239874 -0.000119068 -2.85306e-05
-5.27019e-05 -2.85306e-05 -2.85225e-05
-0.000467392 -0.000105336 -5.31697e-06
-0.000105336 -0.00119159 2.44516e-06
-5.31697e-06 2.44516e-06 -0.000934662
0.00106062 4.57854e-05 -6.86965e-07
4.57854e-05 9.22286e-05 -4.5972e-07
-6.86965e-07 -4.5972e-07 3.93508e-06
0.00113741 5.48011e-05 -5.11801e-07
5.48011e-05 0.000116436 2.2334e-07
-5.11801e-07 2.2334e-07 2.64807e-05
0.00122566 6.37935e-05 -4.40685e-07
6.37935e-05 0.000149408 -2.03787e-07
-4.40685e-07 -2.03787e-07 5.85389e-05
0.000955559 2.85906e-06 2.41373e-08
2.85906e-06 3.19229e-05 -4.22671e-07
2.41373e-08 -4.22671e-07 -1.42024e-05
0.00100313 -7.45725e-06 7.07183e-08
-7.45725e-06 6.23984e-05 -7.30731e-07
7.07183e-08 -7.30731e-07 3.73692e-06
0.000950048 1.72555e-05 -4.16088e-07
1.72555e-05 3.30448e-05 -9.63283e-07
-4.16088e-07 -9.63283e-07 -3.60558e-05
0.00104197 2.79726e-05 -2.68321e-08
2.79726e-05 8.06478e-05 -7.04259e-07
-2.68321e-08 -7.04259e-07 4.36197e-06
0.00105239 3.32362e-05 -2.91843e-07
3.32362e-05 7.9437e-05 -6.34948e-07
-2.91843e-07 -6.34948e-07 -6.23445e-06
0.000776381 -4.78916e-06 2.94841e-07
-4.78916e-06 -5.98756e-05 4.37549e-07
2.94841e-07 4.37549e-07 -0.000106579
0.00103048 3.86351e-05 -3.36503e-07
3.86351e-05 7.72228e-05 -6.04851e-07
-3.36503e-07 -6.04851e-07 2.01744e-06
0.0010328 3.98366e-06 -8.16887e-08
3.98366e-06 7.53734e-05 4.44505e-07
-8.16887e-08 4.44505e-07 6.50369e-06
0.00093472 1.40889e-05 1.57384e-07
1.40889e-05 2.6719e-05 -3.15881e-07
1.57384e-07 -3.15881e-07 -3.29393e-05
0.0010254 4.91569e-05 2.52325e-08
4.91569e-05 6.86308e-05 1.90364e-07
2.52325e-08 1.90364e-07 -1.66958e-05
0.00102076 3.45085e-05 6.17078e-08
3.45085e-05 6.79994e-05 3.88144e-07
6.17078e-08 3.88144e-07 -1.06666e-05
0.00120119 5.40321e-05 1.07683e-07
5.40321e-05 0.000169116 4.19266e-07
1.07683e-07 4.19266e-07 7.5529e-05
0.00100884 -3.22592e-05 -2.09825e-07
-3.22592e-05 6.30863e-05 3.82315e-07
-2.09825e-07 3.82315e-07 -5.19115e-06
0.00102249 -2.28593e-05 -2.861e-07
-2.28593e-05 7.08784e-05 4.13192e-08
-2.861e-07 4.13192e-08 1.1817e-05
0.00103763 -1.17049e-06 -2.35582e-07
-1.17049e-06 7.91368e-05 -4.23298e-08
-2.35582e-07 -4.23298e-08 2.02113e-05
0.00103789 2.09481e-05 -2.08242e-07
2.09481e-05 7.97236e-05 -4.1449e-07
-2.08242e-07 -4.1449e-07 1.05233e-05
0.00103172 1.50124e-05 4.40148e-08
1.50124e-05 7.75705e-05 6.22089e-07
4.40148e-08 6.22089e-07 7.41862e-06
0.00101205 9.13731e-06 -5.71448e-09
9.13731e-06 6.69482e-05 7.00072e-07
-5.71448e-09 7.00072e-07 -3.3161e-06
0.00108732 1.83711e-05 -2.22067e-08
1.83711e-05 0.000102188 -1.6488e-07
-2.22067e-08 -1.6488e-07 2.68177e-05
0.000988126 -2.21229e-05 -1.95549e-07
-2.21229e-05 6.23446e-05 1.07511e-06
-1.95549e-07 1.07511e-06 -1.58386e-05
0.000980523 -5.14252e-06 -1.83164e-07
-5.14252e-06 5.01081e-05 7.85505e-07
-1.83164e-07 7.85505e-07 -1.19727e-05
0.000973276 -7.80598e-06 3.46048e-08
-7.80598e-06 4.83917e-05 -2.13842e-08
3.46048e-08 -2.13842e-08 -1.24377e-05
0.000955613 -8.70379e-06 -7.00735e-07
-8.70379e-06 3.19756e-05 8.67962e-07
-7.00735e-07 8.67962e-07 -1.49513e-05
0.00086145 5.84208e-06 2.19458e-07
5.84208e-06 -1.06761e-05 -1.02547e-06
2.19458e-07 -1.02547e-06 -7.02969e-05
0.000871805 -9.98559e-06 1.95191e-07
-9.98559e-06 -1.08682e-05 -4.80624e-09
1.95191e-07 -4.80624e-09 -5.73549e-05
0.000932269 8.2983e-06 -2.96826e-07
8.2983e-06 8.61485e-06 1.64344e-06
-2.96826e-07 1.64344e-06 -1.88781e-05
0.000789632 3.85008e-06 1.64231e-07
3.85008e-06 -5.24558e-05 -3.95665e-07
1.64231e-07 -3.95665e-07 -9.94077e-05
0.000926152 2.66624e-06 -1.75167e-07
2.66624e-06 5.00891e-06 -1.43876e-08
-1.75167e-07 -1.43876e-08 -2.17927e-05
0.00145728 7.14247e-06 -2.38488e-06
7.14247e-06 0.000266605 4.18867e-06
-2.38488e-06 4.18867e-06 0.000269859
0.000919851 -6.38485e-06 5.50749e-07
-6.38485e-06 1.79726e-06 -1.56264e-06
5.50749e-07 -1.56264e-06 -2.46757e-05
0.0011691 3.66101e-06 -8.95218e-07
3.66101e-06 0.000116933 6.05841e-07
-8.95218e-07 6.05841e-07 0.000119132
0.0010695 2.13839e-06 -1.98865e-06
2.13839e-06 6.36696e-05 3.81676e-06
-1.98865e-06 3.81676e-06 8.18437e-05
0.000879549 1.64261e-07 3.39447e-08
1.64261e-07 -3.24782e-05 -2.98693e-06
3.39447e-08 -2.98693e-06 -3.15128e-05
0.00219439 -6.62883e-07 1.25192e-06
-6.62883e-07 0.000641616 -8.3761e-11
1.25192e-06 -8.3761e-11 0.000665406
0.00106504 -3.04279e-06 -1.02507e-06
-3.04279e-06 6.18505e-05 -3.82915e-06
-1.02507e-06 -3.82915e-06 8.00327e-05
0.000959458 2.41514e-05 1.87763e-07
2.41514e-05 3.20406e-05 -4.72331e-07
1.87763e-07 -4.72331e-07 -8.693e-06
0.000939947 4.68904e-07 5.12559e-08
4.68904e-07 6.5341e-06 -1.74556e-06
5.12559e-08 -1.74556e-06 -1.55908e-05
0.000936903 2.57778e-06 -5.0797e-08
2.57778e-06 5.12342e-06 -8.19639e-09
-5.0797e-08 -8.19639e-09 -1.72526e-05
0.000875557 3.74381e-06 2.07612e-07
3.74381e-06 -3.50871e-05 -3.09206e-06
2.07612e-07 -3.09206e-06 -3.15578e-05
0.000931379 5.05764e-06 -3.67939e-07
5.05764e-06 3.27794e-06 1.7187e-06
-3.67939e-07 1.7187e-06 -2.00343e-05
0.00087118 7.35146e-06 6.05884e-08
7.35146e-06 -3.5702e-05 -6.11136e-07
6.05884e-08 -6.11136e-07 -3.29437e-05
0.00212048 9.05397e-06 4.97573e-06
9.05397e-06 0.000605569 -3.85229e-06
4.97573e-06 -3.85229e-06 0.000629905
0.00141008 1.30789e-05 -1.26241e-06
1.30789e-05 0.000244401 1.93772e-06
-1.26241e-06 1.93772e-06 0.000248257
0.00162276 1.20375e-05 2.42057e-07
1.20375e-05 0.000353362 1.19308e-06
2.42057e-07 1.19308e-06 0.000373841
0.00110681 1.38099e-05 -1.06505e-05
1.38099e-05 9.2476e-05 6.32878e-06
-1.06505e-05 6.32878e-06 0.000108985
0.00157309 -3.56008e-05 -2.75123e-06
-3.56008e-05 -2.39672e-05 -3.87057e-07
-2.75123e-06 -3.87057e-07 -6.06821e-05
0.00147178 -3.46116e-07 -2.16432e-06
-3.46116e-07 1.976e-05 -3.84049e-07
-2.16432e-06 -3.84049e-07 -5.93639e-05
0.000920857 3.10558e-06 -6.10759e-06
3.10558e-06 -0.000287739 -3.79956e-06
-6.10759e-06 -3.79956e-06 -0.00035763
0.000935894 -8.96215e-05 3.62021e-05
-8.96215e-05 -7.5006e-05 6.02272e-06
3.62021e-05 6.02272e-06 -0.000293464
0.00131657 -2.05761e-05 -2.39531e-06
-2.05761e-05 6.35808e-06 -9.69237e-07
-2.39531e-06 -9.69237e-07 -4.47515e-05
0.00169672 3.11184e-05 -2.15891e-06
3.11184e-05 6.23916e-05 -1.47282e-06
-2.15891e-06 -1.47282e-06 -2.32806e-05
0.00132026 4.60709e-05 2.25764e-06
4.60709e-05 2.64354e-05 6.8808e-07
2.25764e-06 6.8808e-07 -3.93699e-05
0.00117721 -4.0415e-05 0.000105578
-4.0415e-05 4.54547e-05 6.65138e-06
0.000105578 6.65138e-06 -0.000210836
0.00504646 8.97193e-05 -2.25744e-05
8.97193e-05 0.00149138 -4.4797e-06
-2.25744e-05 -4.4797e-06 0.000826301
0.00250158 0.00023721 -3.9543e-05
0.00023721 0.000976911 1.77847e-05
-3.9543e-05 1.77847e-05 0.000933536
0.00103297 0.000177784 -1.10164e-05
0.000177784 -5.39435e-05 5.5713e-06
-1.10164e-05 5.5713e-06 0.000335369
0.000781062 -8.89093e-06 8.68237e-07
-8.89093e-06 -4.75196e-05 -1.02347e-06
8.68237e-07 -1.02347e-06 -0.000101812
0.000964711 -8.82627e-06 -5.9162e-08
-8.82627e-06 3.39545e-05 1.02647e-09
-5.9162e-08 1.02647e-09 -5.96136e-06
0.000971073 -2.70654e-05 -6.79794e-07
-2.70654e-05 3.73717e-05 9.87549e-07
-6.79794e-07 9.87549e-07 -3.49035e-06
0.000905152 7.73871e-06 -2.33927e-07
7.73871e-06 1.44133e-05 4.82567e-09
-2.33927e-07 4.82567e-09 -3.89922e-05
0.00105825 3.73058e-05 1.27129e-07
3.73058e-05 9.77702e-05 2.87764e-07
1.27129e-07 2.87764e-07 3.39473e-05
0.00103924 4.37272e-05 1.99214e-07
4.37272e-05 8.5651e-05 2.08173e-07
1.99214e-07 2.08173e-07 2.3776e-05
0.00101152 -1.00541e-06 5.37011e-07
-1.00541e-06 6.97455e-05 -1.43059e-06
5.37011e-07 -1.43059e-06 1.40327e-05
0.000917321 -2.4117e-05 -3.45375e-07
-2.4117e-05 2.0677e-05 4.78192e-07
-3.45375e-07 4.78192e-07 -3.31757e-05
0.00179688 2.28334e-05 -3.09099e-06
2.28334e-05 0.000163001 1.3897e-07
-3.09099e-06 1.3897e-07 8.85559e-05
0.00175957 -4.63027e-05 -2.60114e-06
-4.63027e-05 5.87383e-05 1.69615e-06
-2.60114e-06 1.69615e-06 1.72186e-05
0.000962776 -8.27328e-05 -9.59835e-06
-8.27328e-05 -0.000254685 2.04929e-07
-9.59835e-06 2.04929e-07 -0.000310807
0.0010302 -7.21324e-05 -8.046e-08
-7.21324e-05 8.5349e-05 1.88927e-06
-8.046e-08 1.88927e-06 -2.26083e-05
0.00151055 -9.95861e-05 -1.10544e-06
-9.95861e-05 0.000253684 2.59701e-06
-1.10544e-06 2.59701e-06 0.000127125
0.00101815 -5.38693e-05 -4.95271e-07
-5.38693e-05 0.000104578 3.82218e-07
-4.95271e-07 3.82218e-07 -7.46155e-06
0.00123763 -5.0639e-05 1.42078e-07
-5.0639e-05 0.000199897 4.80805e-07
1.42078e-07 4.80805e-07 9.85993e-05
0.00097082 -3.2093e-05 -4.7285e-07
-3.2093e-05 5.01951e-05 1.11919e-06
-4.7285e-07 1.11919e-06 -3.33796e-05
0.000981876 -7.76002e-06 -1.02598e-07
-7.76002e-06 5.45924e-05 1.15348e-06
-1.02598e-07 1.15348e-06 -5.67134e-06
0.00114078 -1.57404e-05 -4.54869e-07
-1.57404e-05 0.00013703 8.32476e-07
-4.54869e-07 8.32476e-07 6.37399e-05
0.00116595 4.49285e-06 -1.18575e-07
4.49285e-06 0.000145986 3.2355e-07
-1.18575e-07 3.2355e-07 9.28729e-05
0.00092355 3.7528e-05 6.67346e-07
3.7528e-05 2.47081e-05 2.13446e-06
6.67346e-07 2.13446e-06 -4.23932e-05
0.00174325 2.35902e-05 1.37584e-06
2.35902e-05 4.58566e-05 -3.0935e-06
1.37584e-06 -3.0935e-06 -1.62084e-05
0.000958865 1.74661e-05 -2.50258e-07
1.74661e-05 4.73256e-05 3.24234e-07
-2.50258e-07 3.24234e-07 -2.348e-05
0.000985477 -3.38918e-05 4.90307e-08
-3.38918e-05 6.17287e-05 -4.52242e-07
4.90307e-08 -4.52242e-07 -1.14108e-05
0.00210148 -0.000103008 -4.62212e-06
-0.000103008 0.000147568 -9.58341e-07
-4.62212e-06 -9.58341e-07 0.000112885
0.000941293 -9.29792e-05 1.71714e-06
-9.29792e-05 -0.000127279 1.81514e-06
1.71714e-06 1.81514e-06 -0.000240359
0.00116471 -8.87646e-05 7.52264e-07
-8.87646e-05 0.000160238 -7.41346e-07
7.52264e-07 -7.41346e-07 3.2119e-05
0.0010509 -4.37939e-05 2.70577e-08
-4.37939e-05 9.36874e-05 -1.78351e-07
2.70577e-08 -1.78351e-07 5.02796e-06
0.00112302 -3.33198e-05 -9.32122e-08
-3.33198e-05 0.000156325 2.56976e-07
-9.32122e-08 2.56976e-07 3.02548e-05
0.00227125 -4.87648e-05 -1.11599e-06
-4.87648e-05 0.00017116 9.96663e-06
-1.11599e-06 9.96663e-06 0.000166628
0.00273184 -0.000172142 1.20452e-05
-0.000172142 0.000598902 -3.342e-06
1.20452e-05 -3.342e-06 0.000481925
0.000538096 -8.89313e-05 3.18273e-08
-8.89313e-05 -0.000189392 -2.80911e-06
3.18273e-08 -2.80911e-06 -0.000318006
0.00115995 -6.2009e-05 4.14883e-07
-6.2009e-05 0.000189554 -9.5229e-07
4.14883e-07 -9.5229e-07 3.07717e-05
0.000883911 -3.48169e-05 3.61299e-07
-3.48169e-05 1.2371e-05 -4.7442e-07
3.61299e-07 -4.7442e-07 -6.56652e-05
0.00102521 -3.37742e-05 9.7772e-07
-3.37742e-05 7.90462e-05 -1.34461e-06
9.7772e-07 -1.34461e-06 -5.08366e-06
0.00121026 -2.03532e-05 -1.80304e-07
-2.03532e-05 0.000178436 -8.35238e-07
-1.80304e-07 -8.35238e-07 7.40344e-05
-0.000863286 -1.52739e-05 -8.89993e-05
-1.52739e-05 -0.000624581 -1.33362e-06
-8.89993e-05 -1.33362e-06 -0.00064612
0.00535274 -2.36367e-05 -2.11927e-05
-2.36367e-05 0.0018187 -2.04211e-06
-2.11927e-05 -2.04211e-06 0.00129801
0.00112875 6.04262e-05 2.84329e-07
6.04262e-05 0.000132255 3.79396e-07
2.84329e-07 3.79396e-07 3.93855e-05
0.00089454 5.76634e-05 1.29621e-06
5.76634e-05 2.00209e-05 -8.09418e-07
1.29621e-06 -8.09418e-07 -8.03046e-05
0.00154047 0.000105473 -9.01989e-06
0.000105473 -0.000159661 -4.33052e-08
-9.01989e-06 -4.33052e-08 -0.000218026
0.00126281 0.00010985 -2.69018e-06
0.00010985 2.12749e-05 -1.93652e-06
-2.69018e-06 -1.93652e-06 -8.5615e-05
0.00109712 7.47463e-05 1.3402e-06
7.47463e-05 0.000140555 -1.60695e-06
1.3402e-06 -1.60695e-06 5.02581e-06
0.00517292 -4.32317e-05 2.51014e-05
-4.32317e-05 0.00158103 -1.40783e-05
2.51014e-05 -1.40783e-05 0.000938393
0.00171964 -0.000131571 -5.21409e-05
-0.000131571 -6.02455e-05 -1.20783e-05
-5.21409e-05 -1.20783e-05 -0.000245766
0.000900319 8.40389e-05 -6.70741e-06
8.40389e-05 -0.000347469 -1.05294e-05
-6.70741e-06 -1.05294e-05 -0.000277701
0.00246433 -0.00021351 3.10761e-05
-0.00021351 0.00103646 1.36639e-05
3.10761e-05 1.36639e-05 0.000999837
-0.00052818 -0.000224393 1.43776e-05
-0.000224393 -0.00102686 1.67263e-05
1.43776e-05 1.67263e-05 -0.000580486
0.00108005 6.02076e-05 2.06953e-07
6.02076e-05 0.000104835 -3.16327e-07
2.06953e-07 -3.16327e-07 1.25608e-05
-0.0010519 -4.56874e-05 -1.43711e-05
-4.56874e-05 -0.00062183 -4.56606e-07
-1.43711e-05 -4.56606e-07 -0.000624116
0.0010698 -0.000103793 -1.6731e-06
-0.000103793 0.000191993 4.57947e-07
-1.6731e-06 4.57947e-07 0.000354622
0.00159883 0.000132425 9.23258e-07
0.000132425 -1.32361e-07 1.64032e-06
9.23258e-07 1.64032e-06 -3.19016e-05
0.00111307 4.80653e-05 -2.64754e-07
4.80653e-05 0.000141299 -1.2319e-06
-2.64754e-07 -1.2319e-06 3.43592e-05
0.00130119 7.16621e-05 6.64072e-07
7.16621e-05 0.00027836 7.22249e-08
6.64072e-07 7.22249e-08 0.000104509
0.00145447 6.86668e-05 -1.00034e-05
6.86668e-05 0.000105572 -3.97034e-06
-1.00034e-05 -3.97034e-06 7.87191e-05
0.00427176 -0.000147108 6.58181e-06
-0.000147108 0.0010195 6.19022e-06
6.58181e-06 6.19022e-06 0.000222467
0.00176399 -3.42312e-05 -7.14156e-06
-3.42312e-05 -2.07132e-05 -1.56357e-05
-7.14156e-06 -1.56357e-05 -0.000155835
0.0028677 -0.000324065 6.19518e-06
-0.000324065 0.00084831 -8.07149e-07
6.19518e-06 -8.07149e-07 0.000844893
0.000124444 -0.00012674 -2.7903e-06
-0.00012674 -0.000912189 1.79596e-06
-2.7903e-06 1.79596e-06 -0.000576457
0.0010487 3.22626e-05 -1.71182e-06
3.22626e-05 5.42356e-05 -1.51065e-06
-1.71182e-06 -1.51065e-06 -3.52463e-05
0.000259693 -2.20751e-05 -5.49338e-07
-2.20751e-05 -0.000177093 -1.05543e-06
-5.49338e-07 -1.05543e-06 -0.000196314
0.000920656 -6.53901e-06 4.8718e-06
-6.53901e-06 5.05426e-05 -4.68071e-06
4.8718e-06 -4.68071e-06 1.67867e-06
0.0004804 8.63668e-05 8.62766e-06
8.63668e-05 -0.000214177 -2.6649e-06
8.62766e-06 -2.6649e-06 -0.000371878
0.00189116 4.73444e-05 -7.19139e-06
4.73444e-05 0.000592059 -7.88826e-08
-7.19139e-06 -7.88826e-08 0.000459512
0.0034651 -4.35502e-05 -7.1685e-06
-4.35502e-05 0.00145108 -7.32943e-07
-7.1685e-06 -7.32943e-07 0.00142321
0.00080702 0.00014167 -5.64499e-05
0.00014167 -0.000164342 9.76062e-06
-5.64499e-05 9.76062e-06 -0.000399458
0.00182053 -0.000228767 1.46018e-05
-0.000228767 -4.8312e-05 9.7827e-06
1.46018e-05 9.7827e-06 -0.000949698
0.00379616 -0.000354688 -4.14803e-05
-0.000354688 0.000804912 -1.87566e-05
-4.14803e-05 -1.87566e-05 0.000876208
0.000558652 -3.7899e-05 -6.68705e-07
-3.7899e-05 -0.000438102 3.64068e-06
-6.68705e-07 3.64068e-06 -0.000378102
0.00115516 5.88897e-05 -2.54026e-07
5.88897e-05 0.000127875 9.55593e-07
-2.54026e-07 9.55593e-07 3.74165e-05
0.00112177 5.90934e-05 7.4251e-07
5.90934e-05 9.77652e-05 6.50115e-07
7.4251e-07 6.50115e-07 6.30768e-06
0.000722393 5.17803e-05 1.85757e-06
5.17803e-05 -7.54872e-05 -2.788e-07
1.85757e-06 -2.788e-07 -0.00017344
0.000788889 1.29793e-05 1.13027e-07
1.29793e-05 -5.36032e-05 -3.80676e-07
1.13027e-07 -3.80676e-07 -0.000100451
0.00101698 1.94586e-05 -9.18766e-08
1.94586e-05 6.88198e-05 -7.53647e-07
-9.18766e-08 -7.53647e-07 9.48927e-06
0.00118986 -1.47046e-05 1.68911e-07
-1.47046e-05 0.000156143 -3.89037e-08
1.68911e-07 -3.89037e-08 8.77746e-05
0.000982649 3.20486e-05 -4.82933e-07
3.20486e-05 5.22317e-05 -9.37831e-07
-4.82933e-07 -9.37831e-07 -2.25969e-05
0.000918786 4.63021e-05 -2.69567e-07
4.63021e-05 1.30162e-05 -2.13363e-07
-2.69567e-07 -2.13363e-07 -7.29899e-05
0.00101276 7.56e-06 3.50749e-07
7.56e-06 6.6706e-05 -4.28708e-07
3.50749e-07 -4.28708e-07 7.21863e-06
0.00103193 3.05916e-05 -1.64952e-07
3.05916e-05 7.52105e-05 -1.17534e-07
-1.64952e-07 -1.17534e-07 -2.7629e-06
0.000997779 -1.50326e-05 3.62947e-08
-1.50326e-05 5.80951e-05 -6.80184e-09
3.62947e-08 -6.80184e-09 -1.04591e-05
0.00109062 4.56271e-05 1.74686e-07
4.56271e-05 0.000114972 4.16039e-07
1.74686e-07 4.16039e-07 2.05336e-05
0.0012576 7.70252e-07 4.04324e-08
7.70252e-07 0.000201523 -7.67977e-07
4.04324e-08 -7.67977e-07 0.000102075
0.0011227 1.6211e-05 -2.72651e-07
1.6211e-05 0.000124499 8.82707e-07
-2.72651e-07 8.82707e-07 4.18796e-05
0.00103246 1.00156e-05 2.0196e-07
1.00156e-05 7.74268e-05 3.86778e-07
2.0196e-07 3.86778e-07 7.46606e-06
0.00102688 -1.3427e-05 1.28406e-08
-1.3427e-05 7.4964e-05 -6.08345e-07
1.28406e-08 -6.08345e-07 1.54647e-05
0.000922571 -2.39891e-06 1.05126e-08
-2.39891e-06 1.95794e-05 -1.12663e-06
1.05126e-08 -1.12663e-06 -4.97408e-05
0.00102449 1.99231e-06 2.1261e-07
1.99231e-06 7.35778e-05 1.47901e-08
2.1261e-07 1.47901e-08 3.77034e-06
0.00100413 7.17331e-06 2.19413e-08
7.17331e-06 6.32717e-05 3.60921e-08
2.19413e-08 3.60921e-08 -7.03428e-06
0.00104702 6.51601e-06 -2.3036e-07
6.51601e-06 7.98141e-05 -7.40959e-07
-2.3036e-07 -7.40959e-07 4.77359e-06
0.00097121 -4.45114e-06 -1.78487e-07
-4.45114e-06 4.88105e-05 1.24021e-06
-1.78487e-07 1.24021e-06 -2.43175e-05
0.00109119 1.50297e-05 9.43119e-08
1.50297e-05 0.000103895 6.11539e-08
9.43119e-08 6.11539e-08 2.69958e-05
0.000928176 -1.00763e-05 2.24931e-08
-1.00763e-05 1.80879e-05 3.5082e-07
2.24931e-08 3.5082e-07 -6.10062e-05
0.00102194 -3.44438e-05 4.16424e-07
-3.44438e-05 7.46647e-05 -5.57219e-07
4.16424e-07 -5.57219e-07 -1.14917e-05
0.000797508 -4.8388e-05 3.20743e-07
-4.8388e-05 -1.67031e-05 -5.99512e-09
3.20743e-07 -5.99512e-09 -0.000105948
0.000905201 -3.5492e-05 -6.96974e-07
-3.5492e-05 2.4663e-05 -4.04971e-07
-6.96974e-07 -4.04971e-07 -5.72184e-05
0.00100896 -2.26131e-05 -9.05705e-08
-2.26131e-05 7.26663e-05 2.84961e-07
-9.05705e-08 2.84961e-07 -5.49592e-06
0.000996157 -1.65357e-05 -4.76453e-07
-1.65357e-05 5.93752e-05 1.34712e-06
-4.76453e-07 1.34712e-06 -6.35812e-06
0.00099051 -1.12377e-05 -5.03012e-08
-1.12377e-05 5.58114e-05 -4.27228e-08
-5.03012e-08 -4.27228e-08 -6.65207e-06
0.000959637 5.26606e-06 -2.81569e-07
5.26606e-06 3.25488e-05 9.79333e-07
-2.81569e-07 9.79333e-07 -1.5338e-05
0.000977459 -3.37878e-06 3.65234e-07
-3.37878e-06 4.96248e-05 -6.14003e-07
3.65234e-07 -6.14003e-07 -1.05823e-05
0.000956309 -2.69768e-06 6.48609e-08
-2.69768e-06 3.18208e-05 -6.04194e-09
6.48609e-08 -6.04194e-09 -1.48032e-05
0.000929613 9.46614e-06 -5.90555e-07
9.46614e-06 8.71826e-06 1.62601e-06
-5.90555e-07 1.62601e-06 -1.98112e-05
0.000783402 9.12573e-06 1.13141e-07
9.12573e-06 -5.66834e-05 -8.26639e-07
1.13141e-07 -8.26639e-07 -0.000103103
0.000929393 3.3184e-06 -8.88602e-08
3.3184e-06 7.01441e-06 -1.08223e-08
-8.88602e-08 -1.08223e-08 -2.04593e-05
0.00145656 1.07331e-05 -3.73708e-06
1.07331e-05 0.000268675 4.22408e-06
-3.73708e-06 4.22408e-06 0.000271323
0.000924827 -3.83731e-06 6.19022e-07
-3.83731e-06 4.20174e-06 -1.58222e-06
6.19022e-07 -1.58222e-06 -2.2567e-05
0.00116663 7.12416e-06 -1.41255e-06
7.12416e-06 0.000117229 5.92649e-07
-1.41255e-06 5.92649e-07 0.000119092
0.001021 6.74635e-06 -7.48906e-07
6.74635e-06 4.04104e-05 1.50104e-06
-7.48906e-07 1.50104e-06 5.84889e-05
0.000878274 3.37412e-06 3.73658e-07
3.37412e-06 -3.27691e-05 -2.99246e-06
3.73658e-07 -2.99246e-06 -3.18988e-05
0.00219387 3.91214e-06 1.19959e-06
3.91214e-06 0.000641688 8.2475e-09
1.19959e-06 8.2475e-09 0.000665416
0.00219115 -4.16914e-07 1.07427e-06
-4.16914e-07 0.000639935 -3.92069e-06
1.07427e-06 -3.92069e-06 0.000663743
0.00120352 2.04756e-05 -6.83545e-07
2.04756e-05 0.000155692 -8.51683e-07
-6.83545e-07 -8.51683e-07 0.00011531
0.000937459 -1.59669e-06 -1.32734e-07
-1.59669e-06 5.71684e-06 -1.70589e-06
-1.32734e-07 -1.70589e-06 -1.69565e-05
0.000956814 4.52556e-06 4.81382e-07
4.52556e-06 3.04027e-05 4.94593e-07
4.81382e-07 4.94593e-07 -9.99142e-06
0.000881706 1.65746e-07 -2.23754e-08
1.65746e-07 -3.2466e-05 -3.09404e-06
-2.23754e-08 -3.09404e-06 -2.87065e-05
0.00093885 2.89444e-08 9.65321e-10
2.89444e-08 5.95222e-06 -6.79232e-09
9.65321e-10 -6.79232e-09 -1.61687e-05
0.000933232 2.14008e-06 -2.95236e-07
2.14008e-06 3.1182e-06 1.74048e-06
-2.95236e-07 1.74048e-06 -1.9231e-05
0.00087951 3.84702e-06 -1.11432e-07
3.84702e-06 -3.30679e-05 2.70578e-09
-1.11432e-07 2.70578e-09 -2.95687e-05
0.00210069 4.52448e-06 2.16083e-06
4.52448e-06 0.000593837 -3.86303e-06
2.16083e-06 -3.86303e-06 0.000618656
0.00139925 8.95315e-06 -8.57947e-07
8.95315e-06 0.000235657 1.90042e-06
-8.57947e-07 1.90042e-06 0.000240965
0.00158608 8.2849e-06 1.44977e-06
8.2849e-06 0.000331254 2.78179e-08
1.44977e-06 2.78179e-08 0.000352853
0.00110409 1.03729e-05 -8.66267e-06
1.03729e-05 8.65564e-05 6.25403e-06
-8.66267e-06 6.25403e-06 0.000104428
-0.00274194 5.65475e-05 -5.61561e-05
5.65475e-05 -0.00166199 1.12595e-05
-5.61561e-05 1.12595e-05 -0.00165091
-0.00129856 7.55663e-05 -7.83419e-06
7.55663e-05 -0.00122458 6.87512e-06
-7.83419e-06 6.87512e-06 -0.00108552
0.00156677 -8.7844e-05 -5.82137e-05
-8.7844e-05 0.00027451 -1.5386e-05
-5.82137e-05 -1.5386e-05 6.19566e-05
0.00130598 -2.64528e-05 -2.57746e-06
-2.64528e-05 1.49548e-05 -8.64415e-07
-2.57746e-06 -8.64415e-07 -3.48968e-05
0.00136059 3.39972e-05 -1.26332e-05
3.39972e-05 -0.000111603 -1.05017e-06
-1.26332e-05 -1.05017e-06 -0.000197116
0.000825219 -2.91475e-05 2.11824e-05
-2.91475e-05 5.05732e-05 -1.66971e-06
2.11824e-05 -1.66971e-06 -0.00010493
0.00167165 5.2955e-05 2.25902e-06
5.2955e-05 0.000178414 1.77225e-06
2.25902e-06 1.77225e-06 0.000109203
0.00482533 0.000139991 -3.09813e-05
0.000139991 0.00140617 -2.4953e-07
-3.09813e-05 -2.4953e-07 0.000812199
-0.00208884 0.000126846 4.24402e-06
0.000126846 -0.00101718 -4.18309e-06
4.24402e-06 -4.18309e-06 -0.0010274
0.000364333 0.00019324 2.6676e-06
0.00019324 -0.000464008 -3.97861e-06
2.6676e-06 -3.97861e-06 -5.72438e-05
0.000849503 4.0244e-05 2.99783e-05
4.0244e-05 0.000123287 -1.34337e-05
2.99783e-05 -1.34337e-05 -7.87338e-05
0.00528418 0.000270815 -1.36941e-05
0.000270815 0.00157403 1.06696e-05
-1.36941e-05 1.06696e-05 0.000915402
0.000123942 0.00022075 -5.49885e-05
0.00022075 -9.82242e-05 3.81592e-05
-5.49885e-05 3.81592e-05 -7.47487e-06
0.00142645 0.000127091 -9.02561e-06
0.000127091 -0.000205646 6.62377e-06
-9.02561e-06 6.62377e-06 0.000169419
0.000913462 2.65927e-05 -3.23101e-07
2.65927e-05 2.61483e-05 -7.53504e-07
-3.23101e-07 -7.53504e-07 -4.14203e-05
0.000875529 5.52419e-06 4.93677e-08
5.52419e-06 -5.0265e-07 -4.41798e-07
4.93677e-08 -4.41798e-07 -5.40758e-05
0.000962357 -2.31846e-05 -6.39756e-07
-2.31846e-05 3.30043e-05 1.00108e-06
-6.39756e-07 1.00108e-06 -7.09868e-06
0.00083425 1.35356e-05 -1.00781e-08
1.35356e-05 -2.13082e-05 6.79173e-07
-1.00781e-08 6.79173e-07 -7.5259e-05
0.00101709 3.9059e-05 5.34186e-07
3.9059e-05 7.80292e-05 9.21176e-07
5.34186e-07 9.21176e-07 1.49062e-05
0.00105045 3.21731e-05 -2.81707e-07
3.21731e-05 9.6072e-05 -5.75937e-07
-2.81707e-07 -5.75937e-07 2.87841e-05
0.000986601 2.44274e-05 7.82604e-07
2.44274e-05 5.95965e-05 9.90343e-07
7.82604e-07 9.90343e-07 -2.41152e-06
0.000981824 6.63536e-06 5.36328e-07
6.63536e-06 5.49663e-05 -4.72364e-07
5.36328e-07 -4.72364e-07 -5.75897e-06
0.000937622 -6.71901e-06 2.35097e-07
-6.71901e-06 3.23706e-05 -5.20735e-07
2.35097e-07 -5.20735e-07 -2.42551e-05
0.000842714 -2.17203e-05 -3.97782e-07
-2.17203e-05 -1.70489e-05 1.15931e-06
-3.97782e-07 1.15931e-06 -7.12281e-05
0.00223321 3.24396e-05 -6.73128e-06
3.24396e-05 0.000276484 2.03038e-06
-6.73128e-06 2.03038e-06 0.000215177
0.00180406 -9.87189e-05 -1.4136e-05
-9.87189e-05 7.25372e-06 1.52785e-06
-1.4136e-05 1.52785e-06 -2.35268e-05
-0.000210025 -6.69473e-05 -1.78375e-06
-6.69473e-05 -0.000686279 3.62768e-06
-1.78375e-06 3.62768e-06 -0.000794361
0.00116128 -9.00967e-05 -6.06976e-07
-9.00967e-05 0.000156552 2.21636e-06
-6.06976e-07 2.21636e-06 2.34636e-05
0.00113166 -3.86769e-05 4.11448e-07
-3.86769e-05 0.00015819 7.40629e-07
4.11448e-07 7.40629e-07 3.3281e-05
0.00107704 -4.03099e-05 -2.43788e-07
-4.03099e-05 0.000104482 6.60526e-07
-2.43788e-07 6.60526e-07 1.56614e-05
0.0010003 -3.67774e-05 -5.01865e-07
-3.67774e-05 6.93453e-05 6.79534e-07
-5.01865e-07 6.79534e-07 -3.77319e-06
0.000981157 1.82418e-05 -9.29483e-08
1.82418e-05 5.9218e-05 9.58884e-07
-9.29483e-08 9.58884e-07 -1.08366e-05
0.00194409 -4.30979e-05 -4.21204e-06
-4.30979e-05 -3.14828e-06 1.23504e-06
-4.21204e-06 1.23504e-06 -2.05985e-05
0.000898299 -1.62207e-05 -1.57744e-07
-1.62207e-05 1.94188e-05 -3.26975e-08
-1.57744e-07 -3.26975e-08 -5.90642e-05
0.00097782 -3.72029e-05 4.26788e-07
-3.72029e-05 5.40048e-05 -5.68213e-07
4.26788e-07 -5.68213e-07 -3.14617e-05
0.0018301 -0.000146124 2.70531e-06
-0.000146124 0.000156477 4.77286e-07
2.70531e-06 4.77286e-07 4.90566e-05
0.000693615 -9.1513e-05 6.07368e-08
-9.1513e-05 -0.000102369 2.1846e-06
6.07368e-08 2.1846e-06 -0.000228932
0.00117597 -6.08691e-05 7.37743e-07
-6.08691e-05 0.000190096 -3.02114e-07
7.37743e-07 -3.02114e-07 3.82489e-05
0.00118534 -2.44221e-05 -1.82737e-07
-2.44221e-05 0.000165921 -3.58146e-07
-1.82737e-07 -3.58146e-07 5.67726e-05
0.00300589 -0.000130986 3.56213e-06
-0.000130986 0.000569641 -5.67676e-07
3.56213e-06 -5.67676e-07 0.000581631
0.00189404 -0.000146181 9.02326e-07
-0.000146181 0.000477732 -5.17733e-06
9.02326e-07 -5.17733e-06 0.000304715
0.000892544 4.54258e-07 -1.39515e-06
4.54258e-07 5.98599e-05 -7.73343e-07
-1.39515e-06 -7.73343e-07 -8.85916e-05
0.000969067 3.16594e-05 2.29534e-07
3.16594e-05 5.60679e-05 6.98684e-08
2.29534e-07 6.98684e-08 -2.3758e-05
0.00100967 -4.91168e-05 7.32418e-07
-4.91168e-05 6.83694e-05 -6.48964e-07
7.32418e-07 -6.48964e-07 -1.89389e-05
0.00111296 -4.76778e-06 2.76308e-07
-4.76778e-06 0.000108388 -1.7196e-07
2.76308e-07 -1.7196e-07 1.49062e-05
0.00113074 -7.7663e-06 1.72991e-07
-7.7663e-06 0.000279001 1.20516e-07
1.72991e-07 1.20516e-07 0.000269859
0.00139539 -6.4401e-06 7.51483e-06
-6.4401e-06 0.000358911 -2.62055e-06
7.51483e-06 -2.62055e-06 0.000206258
0.000528939 8.6786e-05 -3.78158e-05
8.6786e-05 -0.000506176 6.21452e-06
-3.78158e-05 6.21452e-06 -0.0010201
0.00106942 6.15309e-05 -4.68684e-08
6.15309e-05 9.53246e-05 1.5125e-07
-4.68684e-08 1.5125e-07 3.32656e-06
0.00144015 6.26568e-05 2.42741e-06
6.26568e-05 0.000309109 4.59619e-07
2.42741e-06 4.59619e-07 0.000206318
0.00187222 0.000135076 -3.53698e-06
0.000135076 0.000144941 -1.15978e-06
-3.53698e-06 -1.15978e-06 0.000102105
0.00080422 7.28337e-05 2.20579e-06
7.28337e-05 3.3168e-05 -3.62162e-06
2.20579e-06 -3.62162e-06 -0.000141147
0.00394893 -0.000161482 4.5813e-05
-0.000161482 0.0015691 5.5563e-06
4.5813e-05 5.5563e-06 0.00151825
0.000884434 -0.000203059 3.23712e-05
-0.000203059 -0.000354241 2.95828e-05
3.23712e-05 2.95828e-05 -0.000873446
0.00324093 -2.00472e-05 -6.17104e-05
-2.00472e-05 0.000363824 -5.67682e-05
-6.17104e-05 -5.67682e-05 0.000145616
0.000680977 5.51026e-05 4.89256e-06
5.51026e-05 -0.000288422 -3.9137e-09
4.89256e-06 -3.9137e-09 -0.000283834
-0.00169294 -0.000212676 5.48406e-05
-0.000212676 -0.00116785 2.68744e-05
5.48406e-05 2.68744e-05 -0.00110359
0.00217297 -0.000104936 1.01725e-05
-0.000104936 0.000765138 8.31347e-06
1.01725e-05 8.31347e-06 0.000914411
0.00166569 -0.000156062 7.0167e-06
-0.000156062 -1.8589e-05 4.00398e-06
7.0167e-06 4.00398e-06 0.000353332
0.00118144 4.38191e-05 -5.09315e-08
4.38191e-05 0.000129251 2.77874e-07
-5.09315e-08 2.77874e-07 3.79389e-05
0.000748285 -3.597e-05 -1.93514e-06
-3.597e-05 7.45415e-05 4.98976e-07
-1.93514e-06 4.98976e-07 9.52831e-05
0.000828242 -1.03005e-06 -1.80777e-06
-1.03005e-06 -1.20681e-05 -2.93082e-06
-1.80777e-06 -2.93082e-06 -5.99532e-05
0.00103324 9.24392e-05 -1.53494e-06
9.24392e-05 5.16501e-05 8.46065e-07
-1.53494e-06 8.46065e-07 -0.000111199
0.000906943 2.85977e-05 -1.99556e-07
2.85977e-05 0.000120383 -2.97178e-07
-1.99556e-07 -2.97178e-07 -1.77114e-05
0.00212921 -3.42813e-06 1.09456e-05
-3.42813e-06 0.000706223 2.01263e-06
1.09456e-05 2.01263e-06 0.000602257
0.00395171 0.000216498 -2.39371e-05
0.000216498 0.00102264 -2.03206e-05
-2.39371e-05 -2.03206e-05 0.000630169
0.00600826 -0.000259021 -2.99993e-06
-0.000259021 0.00163587 4.11582e-06
-2.99993e-06 4.11582e-06 0.000859688
0.000248243 -0.000253121 8.794e-06
-0.000253121 -0.000584736 1.62049e-05
8.794e-06 1.62049e-05 -0.00055773
0.00171627 -5.37396e-05 -6.25216e-07
-5.37396e-05 0.000178897 5.27556e-07
-6.25216e-07 5.27556e-07 0.000316191
0.00139213 6.40261e-05 -3.51704e-07
6.40261e-05 0.00028271 -3.4645e-06
-3.51704e-07 -3.4645e-06 0.000204825
0.00193918 7.31115e-06 9.23436e-06
7.31115e-06 0.000751935 3.68392e-06
9.23436e-06 3.68392e-06 0.000686798
0.00112661 1.36953e-05 5.24442e-06
1.36953e-05 0.000165619 1.60528e-06
5.24442e-06 1.60528e-06 6.09148e-05
0.000416955 -2.83711e-05 -6.65914e-06
-2.83711e-05 -2.2007e-05 5.52305e-06
-6.65914e-06 5.52305e-06 -0.000158028
0.000802869 0.000121723 -1.88161e-05
0.000121723 0.000274239 4.16773e-05
-1.88161e-05 4.16773e-05 4.56072e-05
0.0058369 -0.000179917 -2.59095e-05
-0.000179917 0.00117146 -1.36403e-05
-2.59095e-05 -1.36403e-05 0.000262487
-0.000280608 -0.000139957 -3.84114e-05
-0.000139957 -0.00125606 -4.57389e-05
-3.84114e-05 -4.57389e-05 -0.00110879
0.00216166 9.35499e-06 -3.19569e-07
9.35499e-06 0.000483458 1.38509e-05
-3.19569e-07 1.38509e-05 0.000610206
0.00100765 5.53648e-05 -2.19323e-07
5.53648e-05 4.1473e-05 -2.0252e-07
-2.19323e-07 -2.0252e-07 -5.07164e-05
0.00109601 5.94097e-05 5.61476e-07
5.94097e-05 0.000104404 -4.51355e-08
5.61476e-07 -4.51355e-08 9.25321e-06
0.00123877 5.51984e-05 -1.04666e-06
5.51984e-05 0.000177208 -2.56541e-06
-1.04666e-06 -2.56541e-06 8.2739e-05
0.00101809 3.91151e-05 -5.82559e-07
3.91151e-05 6.89445e-05 -8.98821e-07
-5.82559e-07 -8.98821e-07 9.62659e-06
0.00099893 -7.56365e-06 1.73423e-07
-7.56365e-06 5.89136e-05 -3.79109e-07
1.73423e-07 -3.79109e-07 -9.86037e-06
0.00103762 2.71398e-05 -2.48451e-07
2.71398e-05 7.9637e-05 -4.40827e-07
-2.48451e-07 -4.40827e-07 2.4187e-06
0.000998079 3.70257e-05 2.19534e-07
3.70257e-05 6.98623e-05 -1.07659e-07
2.19534e-07 -1.07659e-07 -2.5296e-05
0.00104025 1.83615e-05 2.15277e-07
1.83615e-05 8.02669e-05 1.0165e-10
2.15277e-07 1.0165e-10 1.08467e-05
0.00109436 1.67292e-05 -5.11587e-08
1.67292e-05 0.00010889 4.48099e-07
-5.11587e-08 4.48099e-07 2.72318e-05
0.00107591 9.11601e-06 3.2839e-07
9.11601e-06 0.000116207 -6.30981e-07
3.2839e-07 -6.30981e-07 1.31278e-05
0.00133122 -3.38808e-06 -2.78941e-08
-3.38808e-06 0.000253538 -7.82708e-07
-2.78941e-08 -7.82708e-07 0.000155591
0.0011008 -3.21225e-05 3.42008e-07
-3.21225e-05 0.000108421 4.56122e-07
3.42008e-07 4.56122e-07 1.53773e-05
0.00112276 3.26645e-05 6.13931e-07
3.26645e-05 0.00012006 5.39981e-07
6.13931e-07 5.39981e-07 4.16309e-05
0.001027 -6.64878e-06 4.75167e-07
-6.64878e-06 7.38256e-05 -5.61567e-07
4.75167e-07 -5.61567e-07 4.71129e-06
0.000994947 7.01256e-06 1.79904e-07
7.01256e-06 5.89741e-05 -7.11767e-07
1.79904e-07 -7.11767e-07 -1.14261e-05
0.00101082 7.52673e-07 -3.16996e-07
7.52673e-07 5.90022e-05 -1.40572e-06
-3.16996e-07 -1.40572e-06 -1.54575e-05
0.00110173 1.29285e-05 -1.58738e-07
1.29285e-05 0.000107916 -4.27027e-07
-1.58738e-07 -4.27027e-07 3.18074e-05
0.000993103 -1.26854e-06 4.54307e-08
-1.26854e-06 6.09926e-05 3.47676e-07
4.54307e-08 3.47676e-07 -1.25021e-05
0.000988141 3.53877e-07 3.1009e-08
3.53877e-07 4.64914e-05 -1.92405e-07
3.1009e-08 -1.92405e-07 -3.1733e-05
0.00101183 -2.00571e-05 -5.31128e-08
-2.00571e-05 6.20034e-05 5.3527e-07
-5.31128e-08 5.3527e-07 -2.07955e-05
0.0010513 -1.45388e-05 2.47698e-07
-1.45388e-05 7.59245e-05 1.87615e-07
2.47698e-07 1.87615e-07 -5.41703e-06
0.000992711 -4.94755e-05 3.76856e-07
-4.94755e-05 5.75081e-05 -1.36186e-07
3.76856e-07 -1.36186e-07 -3.30096e-05
0.00109041 -3.74923e-05 -2.82667e-07
-3.74923e-05 0.000108715 -6.72548e-08
-2.82667e-07 -6.72548e-08 2.26185e-05
0.000824377 -4.91995e-05 -9.32608e-08
-4.91995e-05 -4.05707e-06 1.08432e-06
-9.32608e-08 1.08432e-06 -9.51385e-05
0.00109701 -6.28784e-05 -1.12674e-06
-6.28784e-05 0.00011568 1.82765e-06
-1.12674e-06 1.82765e-06 2.18935e-05
0.0011244 -5.23219e-05 3.59721e-07
-5.23219e-05 0.000133872 -1.09892e-06
3.59721e-07 -1.09892e-06 5.28901e-05
0.000852381 -5.14282e-05 3.06871e-07
-5.14282e-05 1.36329e-05 -1.24345e-06
3.06871e-07 -1.24345e-06 -7.29145e-05
0.00101219 -3.80761e-05 1.7842e-07
-3.80761e-05 7.8185e-05 -5.07519e-07
1.7842e-07 -5.07519e-07 -2.9462e-06
0.000882205 -2.21407e-05 -4.43577e-07
-2.21407e-05 3.08751e-06 7.90676e-07
-4.43577e-07 7.90676e-07 -6.79676e-05
0.00102911 -2.33194e-05 -9.64453e-08
-2.33194e-05 8.27317e-05 -1.81104e-07
-9.64453e-08 -1.81104e-07 4.58572e-06
0.000998331 -1.79579e-05 -1.24919e-07
-1.79579e-05 6.0661e-05 4.55856e-07
-1.24919e-07 4.55856e-07 -5.21634e-06
0.000955591 4.23041e-06 -3.10171e-07
4.23041e-06 3.01558e-05 1.1977e-06
-3.10171e-07 1.1977e-06 -2.04979e-05
0.000988624 -2.10797e-05 3.34344e-07
-2.10797e-05 5.6173e-05 -8.61481e-07
3.34344e-07 -8.61481e-07 -7.0887e-06
0.000951593 -3.57451e-06 -2.10328e-07
-3.57451e-06 2.92676e-05 -3.77349e-08
-2.10328e-07 -3.77349e-08 -1.90209e-05
0.000921857 1.078e-05 -7.72769e-07
1.078e-05 6.914e-06 1.68209e-06
-7.72769e-07 1.68209e-06 -2.29153e-05
0.000955424 -2.77026e-06 6.74689e-07
-2.77026e-06 3.15277e-05 -9.11127e-07
6.74689e-07 -9.11127e-07 -1.52444e-05
0.000925548 4.67064e-06 -1.47539e-07
4.67064e-06 6.31794e-06 -3.65321e-10
-1.47539e-07 -3.65321e-10 -2.21577e-05
0.00145835 1.41513e-05 -5.15246e-06
1.41513e-05 0.000273038 4.2608e-06
-5.15246e-06 4.2608e-06 0.00027471
0.000924382 -2.54955e-06 8.92643e-07
-2.54955e-06 4.31907e-06 -1.61381e-06
8.92643e-07 -1.61381e-06 -2.312e-05
0.00116444 1.05084e-05 -1.88397e-06
1.05084e-05 0.0001188 5.81579e-07
-1.88397e-06 5.81579e-07 0.000119961
0.00101723 1.04023e-05 -1.23908e-06
1.04023e-05 4.17686e-05 1.51528e-06
-1.23908e-06 1.51528e-06 5.91335e-05
0.000875915 6.62686e-06 6.55907e-07
6.62686e-06 -3.24377e-05 -3.03134e-06
6.55907e-07 -3.03134e-06 -3.19174e-05
0.00161182 8.03652e-06 2.86254e-06
8.03652e-06 0.000343905 -1.18234e-06
2.86254e-06 -1.18234e-06 0.00036469
0.00219153 4.32506e-06 3.78618e-06
4.32506e-06 0.000640757 -3.89476e-06
3.78618e-06 -3.89476e-06 0.000664458
0.00102333 -4.388e-06 1.50095e-07
-4.388e-06 6.44393e-05 -1.03332e-06
1.50095e-07 -1.03332e-06 1.98155e-05
0.000938909 -3.69265e-06 -2.50651e-07
-3.69265e-06 7.56523e-06 -1.66158e-06
-2.50651e-07 -1.66158e-06 -1.62531e-05
0.00100285 3.52034e-06 2.48497e-07
3.52034e-06 5.37122e-05 6.14611e-08
2.48497e-07 6.14611e-08 1.22499e-05
0.000885781 -3.28889e-06 -3.55424e-07
-3.28889e-06 -2.96994e-05 -3.09258e-06
-3.55424e-07 -3.09258e-06 -2.64174e-05
0.000938183 -2.03596e-06 -5.5447e-08
-2.03596e-06 6.11238e-06 -6.0339e-09
-5.5447e-08 -6.0339e-09 -1.65649e-05
0.000960666 -5.0444e-06 -3.76598e-07
-5.0444e-06 3.17183e-05 1.40605e-06
-3.76598e-07 1.40605e-06 -8.1177e-06
0.00209722 4.29024e-08 -7.63511e-07
4.29024e-08 0.000591639 -3.89191e-06
-7.63511e-07 -3.89191e-06 0.000616568
0.00088065 2.85304e-07 -7.8415e-08
2.85304e-07 -3.30453e-05 -4.81117e-09
-7.8415e-08 -4.81117e-09 -2.92727e-05
0.000935882 -4.31634e-07 -1.07618e-07
-4.31634e-07 4.39492e-06 1.74409e-06
-1.07618e-07 1.74409e-06 -1.77107e-05
0.000883637 3.9491e-06 -3.93188e-07
3.9491e-06 -3.09523e-05 3.07048e-06
-3.93188e-07 3.07048e-06 -2.74862e-05
0.00210259 4.69529e-06 -1.26241e-06
4.69529e-06 0.000594975 -8.1846e-09
-1.26241e-06 -8.1846e-09 0.000619739
0.0021206 8.99564e-06 -6.5471e-06
8.99564e-06 0.000605784 3.83782e-06
-6.5471e-06 3.83782e-06 0.000630097
-0.00105034 1.44806e-05 1.53792e-06
1.44806e-05 -0.00097133 -1.49971e-06
1.53792e-06 -1.49971e-06 -0.000988775
-0.000303812 0.000100505 2.58884e-05
0.000100505 -0.000334337 -2.70268e-06
2.58884e-05 -2.70268e-06 -0.000406081
0.00108461 8.58967e-06 3.80017e-06
8.58967e-06 9.09479e-05 3.3741e-06
3.80017e-06 3.3741e-06 6.62845e-05
-0.00111206 8.56175e-05 -1.46576e-06
8.56175e-05 -0.00103321 1.61142e-06
-1.46576e-06 1.61142e-06 -0.000892142
0.00207614 2.69335e-05 -7.5879e-05
2.69335e-05 0.000513445 -6.48289e-06
-7.5879e-05 -6.48289e-06 0.00028114
0.00180705 5.5792e-05 6.5463e-06
5.5792e-05 0.000233877 -1.74688e-06
6.5463e-06 -1.74688e-06 0.000161642
0.000432519 -1.18123e-05 -2.49797e-05
-1.18123e-05 -0.000485439 3.84785e-06
-2.49797e-05 3.84785e-06 -0.00096227
0.004123 0.000187594 9.53922e-05
0.000187594 0.00184739 -2.88646e-05
9.53922e-05 -2.88646e-05 0.00178936
-0.000332579 0.000209542 1.26397e-05
0.000209542 -0.000904631 -1.45193e-05
1.26397e-05 -1.45193e-05 -0.000479484
0.00136213 4.89434e-05 -4.19584e-06
4.89434e-05 0.000198494 4.21467e-06
-4.19584e-06 4.21467e-06 7.59095e-06
0.00275525 0.000178805 7.18249e-06
0.000178805 0.000493329 -6.98074e-06
7.18249e-06 -6.98074e-06 -0.000336276
0.00283027 0.000314266 2.97083e-06
0.000314266 0.000838298 8.66482e-09
2.97083e-06 8.66482e-09 0.000840519
0.00146431 0.000117044 -2.73481e-06
0.000117044 -0.00015219 1.98381e-06
-2.73481e-06 1.98381e-06 0.000221109
0.00147237 6.16489e-05 3.53028e-07
6.16489e-05 0.000321527 7.79355e-07
3.53028e-07 7.79355e-07 6.38934e-05
0.00307242 0.000224113 2.93643e-05
0.000224113 0.00061821 -1.75754e-05
2.93643e-05 -1.75754e-05 -0.000280042
-0.00228837 0.000221923 -5.17576e-05
0.000221923 -0.00201424 4.41413e-05
-5.17576e-05 4.41413e-05 -0.00187236
0.000793014 4.13192e-05 -4.31428e-07
4.13192e-05 -0.00037082 -5.28332e-07
-4.31428e-07 -5.28332e-07 -0.000221365
0.00106205 -3.19053e-06 7.0727e-07
-3.19053e-06 0.000102005 -7.347e-07
7.0727e-07 -7.347e-07 2.68049e-05
0.00099867 2.7335e-05 -7.57734e-07
2.7335e-05 6.87278e-05 -2.85687e-07
-7.57734e-07 -2.85687e-07 2.47808e-06
0.000962515 8.98085e-06 2.88009e-07
8.98085e-06 4.23473e-05 2.10133e-07
2.88009e-07 2.10133e-07 -1.01815e-05
0.000958041 4.02807e-05 1.07965e-06
4.02807e-05 4.9465e-05 1.50245e-06
1.07965e-06 1.50245e-06 -1.29356e-05
0.000948515 8.93144e-06 -2.44377e-07
8.93144e-06 4.1749e-05 -4.163e-07
-2.44377e-07 -4.163e-07 -3.08812e-05
0.00107661 2.88905e-05 1.23385e-07
2.88905e-05 0.000108479 5.0653e-07
1.23385e-07 5.0653e-07 4.21861e-05
0.000949301 7.14863e-06 -2.45704e-07
7.14863e-06 3.98255e-05 1.71801e-06
-2.45704e-07 1.71801e-06 -2.14612e-05
0.00109886 3.57097e-05 -7.54791e-07
3.57097e-05 0.00011339 -6.50566e-07
-7.54791e-07 -6.50566e-07 5.03692e-05
0.00106936 1.91013e-05 -6.46854e-08
1.91013e-05 0.0001001 4.60495e-07
-6.46854e-08 4.60495e-07 3.95741e-05
0.000870695 -1.49457e-05 -6.46191e-07
-1.49457e-05 -1.5787e-06 3.64444e-07
-6.46191e-07 3.64444e-07 -5.91453e-05
0.00181537 -4.05288e-05 -7.53953e-06
-4.05288e-05 -7.74671e-05 2.44834e-07
-7.53953e-06 2.44834e-07 -0.000107931
0.00107295 -0.000121359 -7.35266e-06
-0.000121359 -0.00021447 4.68363e-06
-7.35266e-06 4.68363e-06 -0.000313057
0.000960239 -9.73524e-05 2.3207e-06
-9.73524e-05 3.8668e-05 4.47348e-06
2.3207e-06 4.47348e-06 -8.54902e-05
0.00119814 -5.97635e-05 5.19571e-07
-5.97635e-05 0.000195407 1.83908e-06
5.19571e-07 1.83908e-06 4.85414e-05
0.00115341 -2.04765e-05 -6.56194e-08
-2.04765e-05 0.000150796 4.1898e-07
-6.56194e-08 4.1898e-07 3.63344e-05
0.000926259 -4.04183e-05 -2.35448e-07
-4.04183e-05 2.75799e-05 5.91278e-07
-2.35448e-07 5.91278e-07 -5.95902e-05
0.000917973 2.02887e-05 5.86935e-09
2.02887e-05 2.89933e-05 2.06867e-07
5.86935e-09 2.06867e-07 -4.97777e-05
0.00101325 -5.64165e-06 2.50118e-07
-5.64165e-06 7.74213e-05 6.39412e-07
2.50118e-07 6.39412e-07 -2.38727e-06
0.00212446 -0.000129303 7.37384e-07
-0.000129303 0.000145742 -1.36481e-07
7.37384e-07 -1.36481e-07 0.000152083
0.00107296 -5.98237e-06 -1.48322e-07
-5.98237e-06 0.000101609 -1.93135e-07
-1.48322e-07 -1.93135e-07 1.52582e-05
0.00121077 -1.34704e-05 -8.21828e-08
-1.34704e-05 0.00015972 -3.15499e-08
-8.21828e-08 -3.15499e-08 6.41948e-05
0.00161019 -0.000134677 -2.54092e-07
-0.000134677 0.000348536 -1.63812e-06
-2.54092e-07 -1.63812e-06 0.00016907
0.00115294 -1.09913e-05 -4.61876e-07
-1.09913e-05 0.00018147 -2.94419e-08
-4.61876e-07 -2.94419e-08 3.5849e-05
0.000733945 -0.000138577 -7.52848e-06
-0.000138577 -0.000356589 -7.94586e-06
-7.52848e-06 -7.94586e-06 -0.000355711
0.00153025 -3.69974e-05 -1.87457e-06
-3.69974e-05 0.000434958 4.10557e-07
-1.87457e-06 4.10557e-07 0.000208071
0.000910215 2.66596e-05 -9.49299e-07
2.66596e-05 1.17879e-05 1.42552e-06
-9.49299e-07 1.42552e-06 -9.09522e-05
0.00102556 2.85979e-05 -1.52325e-08
2.85979e-05 7.27105e-05 -1.03051e-06
-1.52325e-08 -1.03051e-06 -1.12724e-05
0.00107126 2.41773e-05 -1.83633e-07
2.41773e-05 8.20888e-05 -9.48965e-09
-1.83633e-07 -9.48965e-09 -1.19173e-05
0.0019508 -4.61299e-06 8.17942e-06
-4.61299e-06 0.000777712 9.30863e-07
8.17942e-06 9.30863e-07 0.000704707
4.61909e-05 -8.46452e-06 9.3742e-06
-8.46452e-06 -0.000326135 -4.22318e-07
9.3742e-06 -4.22318e-07 -0.000348534
-0.00287031 -1.52637e-05 8.20683e-05
-1.52637e-05 -0.00177463 2.49345e-07
8.20683e-05 2.49345e-07 -0.00180654
0.00136621 5.63529e-05 1.39447e-06
5.63529e-05 0.000230766 1.90292e-06
1.39447e-06 1.90292e-06 0.000137455
-6.21139e-05 1.36409e-05 2.33482e-06
1.36409e-05 -0.000342664 -1.33784e-06
2.33482e-06 -1.33784e-06 -0.000485882
0.00158787 9.7517e-05 8.62534e-07
9.7517e-05 0.000312941 -6.79148e-06
8.62534e-07 -6.79148e-06 0.000149732
-0.00108358 -1.95737e-05 3.56812e-06
-1.95737e-05 -0.00100038 1.0188e-06
3.56812e-06 1.0188e-06 -0.00102607
0.00236704 -0.000265995 2.43113e-05
-0.000265995 0.000115005 2.09583e-05
2.43113e-05 2.09583e-05 -0.000806483
0.00217408 0.000155941 4.39534e-05
0.000155941 0.000338539 -4.27225e-05
4.39534e-05 -4.27225e-05 0.000124864
0.00137559 2.42172e-06 4.48217e-05
2.42172e-06 0.000203739 1.38216e-05
4.48217e-05 1.38216e-05 3.28704e-05
0.00422781 -0.000367459 4.45189e-05
-0.000367459 0.00112924 5.0787e-05
4.45189e-05 5.0787e-05 0.00113793
0.000640821 3.80987e-06 -7.34724e-06
3.80987e-06 -0.000137926 -1.96795e-06
-7.34724e-06 -1.96795e-06 -0.000184606
0.00108151 -4.1353e-05 -2.48727e-06
-4.1353e-05 -0.000145186 -4.94514e-06
-2.48727e-06 -4.94514e-06 -4.34781e-05
0.00101562 5.74545e-05 1.40448e-06
5.74545e-05 9.45463e-05 -4.86683e-07
1.40448e-06 -4.86683e-07 1.92809e-05
0.0012566 9.93688e-06 7.82273e-07
9.93688e-06 0.000348689 1.1451e-06
7.82273e-07 1.1451e-06 0.000280185
0.000952388 1.44319e-05 -1.93335e-06
1.44319e-05 5.47126e-05 -2.00769e-06
-1.93335e-06 -2.00769e-06 -4.89725e-05
-0.000256188 -2.9154e-06 1.07118e-05
-2.9154e-06 -0.000352029 -4.29175e-07
1.07118e-05 -4.29175e-07 -0.0005051
0.00264422 0.000188061 -3.67082e-05
0.000188061 0.00084264 -1.82745e-05
-3.67082e-05 -1.82745e-05 0.000640366
0.0059525 -1.39144e-06 1.88625e-05
-1.39144e-06 0.00113987 4.92133e-06
1.88625e-05 4.92133e-06 0.000215833
0.00114787 -1.84646e-06 1.1255e-06
-1.84646e-06 -9.76299e-05 1.21511e-06
1.1255e-06 1.21511e-06 -2.29642e-05
0.00164376 -0.000218687 5.48197e-07
-0.000218687 -0.000390788 2.61498e-05
5.48197e-07 2.61498e-05 -0.00030866
0.000880977 3.3765e-05 -1.91115e-06
3.3765e-05 5.70507e-05 -6.41219e-06
-1.91115e-06 -6.41219e-06 -5.31551e-06
0.00105254 1.2147e-05 1.25432e-05
1.2147e-05 0.000121317 5.60724e-07
1.25432e-05 5.60724e-07 6.10747e-06
0.00175096 -6.62962e-06 -5.62814e-06
-6.62962e-06 0.000515275 -8.82358e-07
-5.62814e-06 -8.82358e-07 0.000391346
0.000781459 2.61732e-05 -6.15166e-07
2.61732e-05 -0.000311585 3.53196e-06
-6.15166e-07 3.53196e-06 -0.000212537
-0.00157457 5.0405e-05 -3.42356e-06
5.0405e-05 -0.000876898 1.11273e-06
-3.42356e-06 1.11273e-06 -0.00102747
0.00670059 -5.25219e-05 1.94393e-05
-5.25219e-05 0.00147226 1.66278e-05
1.94393e-05 1.66278e-05 0.000870916
0.00024372 6.03335e-06 -2.76386e-06
6.03335e-06 -0.00102312 -6.30773e-05
-2.76386e-06 -6.30773e-05 -0.000755648
0.00144815 6.85463e-05 9.15398e-07
6.85463e-05 0.000272593 2.25546e-06
9.15398e-07 2.25546e-06 0.00018036
0.00124824 5.68012e-05 -9.63151e-07
5.68012e-05 0.00017153 8.31206e-07
-9.63151e-07 8.31206e-07 7.38199e-05
0.00160624 5.46866e-05 4.00958e-07
5.46866e-05 0.000378884 -3.52563e-06
4.00958e-07 -3.52563e-06 0.000282469
0.00102569 4.14218e-05 -2.81656e-07
4.14218e-05 7.28903e-05 -4.02404e-07
-2.81656e-07 -4.02404e-07 3.59051e-06
0.00107124 2.75613e-05 -1.3899e-07
2.75613e-05 9.61971e-05 -4.2532e-07
-1.3899e-07 -4.2532e-07 1.5299e-05
0.000867518 -6.14175e-07 -2.7277e-07
-6.14175e-07 1.56233e-05 1.05248e-06
-2.7277e-07 1.05248e-06 -9.09765e-05
0.00114202 3.06202e-05 -4.71127e-08
3.06202e-05 0.000128364 -1.58314e-07
-4.71127e-08 -1.58314e-07 5.0965e-05
0.00106014 -3.34751e-05 -1.43884e-08
-3.34751e-05 8.80743e-05 1.46016e-07
-1.43884e-08 1.46016e-07 -6.10693e-06
0.00105332 -2.44243e-05 8.22288e-07
-2.44243e-05 0.000109597 6.55389e-07
8.22288e-07 6.55389e-07 7.0667e-06
0.00092295 -1.26638e-05 2.3317e-07
-1.26638e-05 5.23216e-05 -1.49182e-07
2.3317e-07 -1.49182e-07 -3.81727e-05
0.00109127 -3.06872e-05 -5.24902e-07
-3.06872e-05 9.11519e-05 4.01209e-07
-5.24902e-07 4.01209e-07 5.1789e-06
0.00111533 1.2181e-05 -5.4078e-07
1.2181e-05 0.000113272 -8.27366e-07
-5.4078e-07 -8.27366e-07 3.805e-05
0.00101285 2.10334e-06 1.9522e-08
2.10334e-06 7.19967e-05 -3.38113e-07
1.9522e-08 -3.38113e-07 -1.826e-06
0.00104206 4.07875e-06 -2.42391e-07
4.07875e-06 7.23745e-05 -5.9333e-07
-2.42391e-07 -5.9333e-07 -5.29052e-06
0.0010352 -1.93652e-05 2.20763e-07
-1.93652e-05 6.73957e-05 -5.86741e-09
2.20763e-07 -5.86741e-09 -1.40565e-05
0.00101473 -1.75247e-05 -1.33248e-08
-1.75247e-05 6.23163e-05 4.21509e-07
-1.33248e-08 4.21509e-07 -1.99944e-05
0.00103334 -5.19761e-05 9.47199e-08
-5.19761e-05 8.8214e-05 9.88797e-07
9.47199e-08 9.88797e-07 -1.6637e-06
0.000978231 -4.94072e-05 1.12971e-07
-4.94072e-05 5.49216e-05 -7.73423e-07
1.12971e-07 -7.73423e-07 -3.40454e-05
0.00110029 -6.22035e-05 6.63172e-07
-6.22035e-05 0.000127974 9.53394e-07
6.63172e-07 9.53394e-07 2.09937e-05
0.00118194 -4.15191e-05 1.13082e-07
-4.15191e-05 0.000154087 -3.42316e-07
1.13082e-07 -3.42316e-07 6.79893e-05
0.001085 -5.66262e-05 -1.19273e-07
-5.66262e-05 0.000121673 1.01118e-06
-1.19273e-07 1.01118e-06 3.01892e-05
0.000709947 -5.49044e-05 -3.29915e-07
-5.49044e-05 -7.83578e-05 1.88437e-06
-3.29915e-07 1.88437e-06 -0.000180868
0.0010128 -6.10626e-05 -1.77593e-06
-6.10626e-05 7.32558e-05 2.78263e-07
-1.77593e-06 2.78263e-07 -1.86311e-05
0.00105861 -5.7552e-05 -1.108e-06
-5.7552e-05 0.000102658 2.41946e-07
-1.108e-06 2.41946e-07 2.01321e-05
0.000976434 -5.90096e-05 -2.92068e-07
-5.90096e-05 5.87113e-05 -9.41244e-08
-2.92068e-07 -9.41244e-08 -3.48611e-05
0.00102466 -3.89841e-05 -4.70147e-07
-3.89841e-05 7.69047e-05 5.92808e-07
-4.70147e-07 5.92808e-07 3.27467e-06
0.00111848 -5.30219e-05 -2.6836e-07
-5.30219e-05 0.000130814 -3.32523e-07
-2.6836e-07 -3.32523e-07 4.92255e-05
0.000907956 -5.37596e-05 -9.89368e-08
-5.37596e-05 4.40963e-05 -1.43841e-06
-9.89368e-08 -1.43841e-06 -3.96687e-05
0.00112782 -4.1163e-05 4.45794e-07
-4.1163e-05 0.00013595 -6.89839e-07
4.45794e-07 -6.89839e-07 5.5536e-05
0.000949304 -2.3346e-05 6.27696e-08
-2.3346e-05 3.71171e-05 -2.62316e-08
6.27696e-08 -2.62316e-08 -3.30653e-05
0.000970679 -8.695e-07 -4.38581e-07
-8.695e-07 3.90456e-05 1.35821e-06
-4.38581e-07 1.35821e-06 -1.57538e-05
0.00100165 -2.06228e-05 2.66968e-07
-2.06228e-05 6.29276e-05 -4.64193e-07
2.66968e-07 -4.64193e-07 -3.35264e-06
0.000959598 8.43793e-07 -9.47587e-08
8.43793e-07 3.26805e-05 -9.38125e-08
-9.47587e-08 -9.38125e-08 -1.81719e-05
0.000912516 1.33182e-05 -9.49981e-07
1.33182e-05 4.62945e-06 1.79668e-06
-9.49981e-07 1.79668e-06 -2.6972e-05
0.000951236 -7.67119e-06 5.22218e-07
-7.67119e-06 2.94176e-05 -1.056e-06
5.22218e-07 -1.056e-06 -1.90034e-05
0.000916788 9.80275e-06 -6.72851e-08
9.80275e-06 4.02387e-06 -3.3924e-09
-6.72851e-08 -3.3924e-09 -2.57816e-05
0.0014328 1.7412e-05 -5.82005e-06
1.7412e-05 0.000264805 3.08338e-06
-5.82005e-06 3.08338e-06 0.000265174
0.000921192 6.67365e-07 9.38178e-07
6.67365e-07 3.76573e-06 -1.63371e-06
9.38178e-07 -1.63371e-06 -2.46519e-05
0.00116294 1.37166e-05 -2.35223e-06
1.37166e-05 0.000121672 5.70875e-07
-2.35223e-06 5.70875e-07 0.000121772
0.00101221 1.38752e-05 -1.74292e-06
1.38752e-05 4.35222e-05 1.53362e-06
-1.74292e-06 1.53362e-06 5.9879e-05
0.00087411 9.81878e-06 9.99432e-07
9.81878e-06 -3.05901e-05 -3.07045e-06
9.99432e-07 -3.07045e-06 -3.07991e-05
0.00161683 1.21966e-05 3.85847e-06
1.21966e-05 0.000349443 -1.16117e-06
3.85847e-06 -1.16117e-06 0.000369616
0.00219638 9.00858e-06 6.3768e-06
9.00858e-06 0.00064511 -3.87587e-06
6.3768e-06 -3.87587e-06 0.000668461
0.000792527 -3.38981e-07 -3.5917e-07
-3.38981e-07 -5.24421e-05 -1.56019e-06
-3.5917e-07 -1.56019e-06 -0.00010226
0.000683806 -6.44109e-06 -3.18627e-07
-6.44109e-06 -0.000119522 -2.29371e-06
-3.18627e-07 -2.29371e-06 -0.000146985
0.00103618 -1.4126e-07 -3.60649e-08
-1.4126e-07 7.11439e-05 5.44139e-08
-3.60649e-08 5.44139e-08 2.62367e-05
0.000886911 -6.61113e-06 -6.18863e-07
-6.61113e-06 -2.73844e-05 -3.11186e-06
-6.18863e-07 -3.11186e-06 -2.52199e-05
0.000812946 -4.18388e-06 3.48256e-08
-4.18388e-06 -5.59839e-05 -1.41706e-08
3.48256e-08 -1.41706e-08 -8.06671e-05
0.00080162 -1.62394e-05 -1.49474e-07
-1.62394e-05 -4.83404e-05 1.027e-06
-1.49474e-07 1.027e-06 -9.10608e-05
0.00211281 -4.38373e-06 -3.80081e-06
-4.38373e-06 0.000600328 -3.91527e-06
-3.80081e-06 -3.91527e-06 0.000624959
0.000879593 -3.18928e-06 -1.35327e-07
-3.18928e-06 -3.29529e-05 -1.63752e-08
-1.35327e-07 -1.63752e-08 -2.96056e-05
0.000938078 -2.51888e-06 -4.71368e-08
-2.51888e-06 6.09021e-06 1.71515e-06
-4.71368e-08 1.71515e-06 -1.65885e-05
0.00209613 1.96942e-07 -1.29986e-06
1.96942e-07 0.000591074 1.98266e-10
-1.29986e-06 1.98266e-10 0.000616012
0.000880989 4.02197e-07 -8.74427e-08
4.02197e-07 -3.29023e-05 3.0845e-06
-8.74427e-08 3.0845e-06 -2.91241e-05
0.00210404 4.86449e-06 -3.45716e-06
4.86449e-06 0.000595876 3.86784e-06
-3.45716e-06 3.86784e-06 0.000620585
0.00127663 -1.11333e-05 8.11239e-06
-1.11333e-05 0.000324961 -4.20399e-07
8.11239e-06 -4.20399e-07 0.000249128
0.00122057 3.25202e-05 1.55194e-06
3.25202e-05 0.00034001 -1.04103e-07
1.55194e-06 -1.04103e-07 0.00036745
0.000387384 4.73822e-06 0.000108917
4.73822e-06 -0.00016724 -1.6487e-05
0.000108917 -1.6487e-05 -0.000348419
0.000998192 1.85382e-05 -3.96454e-07
1.85382e-05 5.64773e-05 -8.39102e-07
-3.96454e-07 -8.39102e-07 -8.90248e-06
0.00127418 -4.10956e-06 1.65153e-05
-4.10956e-06 0.000254152 3.174e-06
1.65153e-05 3.174e-06 0.000154874
0.00118821 4.1146e-06 -5.20837e-06
4.1146e-06 0.000183692 1.03603e-06
-5.20837e-06 1.03603e-06 0.00014307
0.00136926 0.000105492 7.1866e-06
0.000105492 0.000383473 -5.36325e-06
7.1866e-06 -5.36325e-06 0.000571406
0.00169982 7.41292e-05 -4.23944e-05
7.41292e-05 0.000133781 1.69204e-05
-4.23944e-05 1.69204e-05 -8.4796e-05
0.00611717 0.000289415 1.46648e-05
0.000289415 0.00215103 -1.18336e-05
1.46648e-05 -1.18336e-05 0.00133491
-0.00112517 0.000217707 5.64677e-05
0.000217707 -0.000894599 -3.68654e-05
5.64677e-05 -3.68654e-05 -0.000847505
0.00223344 0.000114772 4.65909e-06
0.000114772 0.000337304 -4.62836e-06
4.65909e-06 -4.62836e-06 0.000689934
0.00154444 6.23944e-05 -2.4384e-05
6.23944e-05 -2.97372e-05 8.18228e-06
-2.4384e-05 8.18228e-06 -0.00035289
0.00471733 0.000220067 2.40169e-05
0.000220067 0.00130911 -1.88511e-05
2.40169e-05 -1.88511e-05 0.000483224
0.00144067 0.000261809 -6.87934e-06
0.000261809 -0.000417826 1.27648e-05
-6.87934e-06 1.27648e-05 -0.000275463
0.00189678 4.65526e-05 6.62172e-07
4.65526e-05 0.000212526 1.66977e-06
6.62172e-07 1.66977e-06 0.000406393
0.00325095 -8.19159e-05 1.86293e-05
-8.19159e-05 0.000707459 -3.08577e-05
1.86293e-05 -3.08577e-05 0.000353334
0.00711399 0.000217789 2.47337e-05
0.000217789 0.00192563 -2.94213e-06
2.47337e-05 -2.94213e-06 0.000941515
0.00191059 0.000238989 7.79196e-06
0.000238989 -0.000437095 6.1705e-05
7.79196e-06 6.1705e-05 -0.000397119
0.00289861 2.94303e-05 -2.20962e-06
2.94303e-05 0.00087382 -4.79086e-06
-2.20962e-06 -4.79086e-06 0.00104508
0.000957075 -4.03557e-06 7.26564e-08
-4.03557e-06 3.99414e-05 -1.01089e-06
7.26564e-08 -1.01089e-06 -3.99474e-05
0.00102596 -1.54301e-05 2.86429e-07
-1.54301e-05 8.39295e-05 -4.33251e-08
2.86429e-07 -4.33251e-08 8.07145e-06
0.00108797 3.34475e-05 -4.5817e-07
3.34475e-05 0.000114687 6.01379e-07
-4.5817e-07 6.01379e-07 4.86957e-05
0.000979093 8.97162e-06 -3.35282e-07
8.97162e-06 5.02675e-05 -1.22334e-06
-3.35282e-07 -1.22334e-06 -2.16304e-05
0.00103965 2.94058e-05 -3.09874e-07
2.94058e-05 8.75126e-05 3.86426e-07
-3.09874e-07 3.86426e-07 1.60565e-05
0.00109429 1.50603e-05 3.01112e-07
1.50603e-05 0.000116209 1.51898e-06
3.01112e-07 1.51898e-06 5.11238e-05
0.00114698 3.57499e-05 -3.30119e-07
3.57499e-05 0.00013737 6.87754e-08
-3.30119e-07 6.87754e-08 7.46076e-05
0.00115903 3.65121e-05 6.61346e-07
3.65121e-05 0.000145987 1.46452e-06
6.61346e-07 1.46452e-06 8.58291e-05
0.00116986 -0.000124055 2.81226e-06
-0.000124055 -0.000319003 -3.65976e-06
2.81226e-06 -3.65976e-06 -0.000315976
0.00141006 -0.000124792 -1.31777e-06
-0.000124792 0.000259872 3.71246e-06
-1.31777e-06 3.71246e-06 7.48081e-05
0.000985563 -5.91556e-05 -1.26006e-06
-5.91556e-05 6.44533e-05 1.17278e-06
-1.26006e-06 1.17278e-06 -1.62768e-05
0.00145643 -2.23921e-05 2.33814e-07
-2.23921e-05 0.000324034 6.50653e-07
2.33814e-07 6.50653e-07 0.00018217
0.0012763 -2.52089e-05 -6.33056e-07
-2.52089e-05 0.000193237 6.57067e-07
-6.33056e-07 6.57067e-07 9.65426e-05
0.00113254 6.42486e-06 -4.62368e-07
6.42486e-06 0.000133176 -3.04668e-07
-4.62368e-07 -3.04668e-07 4.77045e-05
0.00105634 2.55915e-05 9.66835e-08
2.55915e-05 8.9629e-05 2.93224e-07
9.66835e-08 2.93224e-07 4.92393e-06
0.00166254 -0.000164077 -9.80764e-07
-0.000164077 8.61724e-05 -8.64525e-07
-9.80764e-07 -8.64525e-07 8.90431e-05
0.00106419 1.1138e-05 2.43008e-08
1.1138e-05 8.22404e-05 -7.19874e-07
2.43008e-08 -7.19874e-07 -1.1174e-05
0.00111245 6.44211e-06 -2.71781e-07
6.44211e-06 0.000119645 1.49911e-07
-2.71781e-07 1.49911e-07 1.03821e-05
0.00110144 -3.00889e-05 -3.11349e-07
-3.00889e-05 0.000235043 4.06018e-07
-3.11349e-07 4.06018e-07 -5.64406e-06
0.00118711 2.53777e-05 5.934e-08
2.53777e-05 0.000145253 -6.36133e-07
5.934e-08 -6.36133e-07 6.30219e-05
0.00076093 -0.000149552 -2.64369e-05
-0.000149552 -2.06992e-05 -6.00889e-06
-2.64369e-05 -6.00889e-06 -0.000144829
0.00141718 5.03096e-05 -5.3381e-06
5.03096e-05 0.000401993 3.95179e-06
-5.3381e-06 3.95179e-06 0.000211303
0.000911369 2.06891e-05 -5.775e-07
2.06891e-05 -5.08896e-06 6.12453e-07
-5.775e-07 6.12453e-07 -9.30691e-05
0.00118512 5.20677e-05 -3.68469e-07
5.20677e-05 0.000145656 -7.80082e-07
-3.68469e-07 -7.80082e-07 5.65016e-05
0.00143815 -3.99714e-07 1.30577e-05
-3.99714e-07 0.000400928 -1.17413e-06
1.30577e-05 -1.17413e-06 0.000287323
0.00161979 -4.58663e-06 -2.67021e-06
-4.58663e-06 0.000563733 3.08746e-07
-2.67021e-06 3.08746e-07 0.000486978
-0.00107349 -6.13674e-06 1.05708e-05
-6.13674e-06 -0.000957732 1.14907e-06
1.05708e-05 1.14907e-06 -0.000988782
0.000567629 4.61997e-05 2.58562e-06
4.61997e-05 -0.000129569 1.59475e-06
2.58562e-06 1.59475e-06 -0.000201639
-0.000836275 1.58605e-05 -7.67443e-06
1.58605e-05 -0.000623739 1.95637e-06
-7.67443e-06 1.95637e-06 -0.000796865
0.000561707 1.2127e-05 -1.14462e-05
1.2127e-05 -6.24948e-05 -2.6449e-06
-1.14462e-05 -2.6449e-06 -0.00013377
0.00416328 -0.000317116 4.39477e-05
-0.000317116 0.00074562 1.04097e-05
4.39477e-05 1.04097e-05 -0.000250914
0.00360662 0.000215368 -2.56422e-05
0.000215368 0.000902865 -7.5313e-05
-2.56422e-05 -7.5313e-05 0.000464142
0.00254035 -0.000273962 1.27823e-05
-0.000273962 -0.000231571 0.000103831
1.27823e-05 0.000103831 -7.40628e-05
0.000768152 1.54626e-05 -1.33383e-05
1.54626e-05 -5.92196e-05 -4.80276e-06
-1.33383e-05 -4.80276e-06 -0.000161575
0.000532551 -8.98332e-06 -4.12933e-07
-8.98332e-06 -0.000423183 -2.08177e-06
-4.12933e-07 -2.08177e-06 -0.000407927
0.00115725 4.64916e-05 -1.67404e-06
4.64916e-05 0.000190919 -6.78846e-07
-1.67404e-06 -6.78846e-07 0.000123553
0.000968325 9.92648e-06 1.58659e-06
9.92648e-06 6.8911e-05 7.88837e-07
1.58659e-06 7.88837e-07 -4.74133e-05
0.00123751 -6.9875e-06 -4.02422e-06
-6.9875e-06 0.000202353 2.1623e-06
-4.02422e-06 2.1623e-06 7.11162e-05
9.23784e-05 6.46965e-05 7.82297e-06
6.46965e-05 7.54454e-06 -3.61241e-06
7.82297e-06 -3.61241e-06 -9.31489e-05
0.00176626 3.29207e-05 -9.62594e-07
3.29207e-05 0.000199045 -2.10189e-06
-9.62594e-07 -2.10189e-06 0.00034084
0.00515007 8.30434e-05 2.44503e-05
8.30434e-05 0.000485891 -2.95017e-06
2.44503e-05 -2.95017e-06 9.59156e-05
0.00332237 1.67223e-05 -2.73224e-05
1.67223e-05 0.000277021 -4.68811e-06
-2.73224e-05 -4.68811e-06 0.000478
0.000951116 6.50699e-05 1.91107e-06
6.50699e-05 0.00022905 -7.89372e-06
1.91107e-06 -7.89372e-06 0.000139582
0.00137279 -4.9563e-06 1.78559e-06
-4.9563e-06 0.000259445 -5.60187e-06
1.78559e-06 -5.60187e-06 0.000123092
0.0011406 -1.84735e-05 -1.75721e-05
-1.84735e-05 0.000162505 -2.52964e-06
-1.75721e-05 -2.52964e-06 4.74747e-05
0.00154772 0.000122058 6.13558e-06
0.000122058 -6.20546e-05 -3.41567e-06
6.13558e-06 -3.41567e-06 0.000262782
0.0016648 0.000263333 -6.68029e-06
0.000263333 -0.000458861 -5.91822e-05
-6.68029e-06 -5.91822e-05 -0.000467641
0.00105596 0.00013318 9.72171e-06
0.00013318 0.000460767 -3.43946e-06
9.72171e-06 -3.43946e-06 0.000472068
0.00363737 -0.000146856 5.18334e-05
-0.000146856 0.000148975 2.10017e-05
5.18334e-05 2.10017e-05 -0.00034533
0.00126967 5.76373e-05 -1.22816e-06
5.76373e-05 0.000174414 4.1869e-06
-1.22816e-06 4.1869e-06 7.3228e-05
0.00130609 3.69827e-05 -7.28853e-07
3.69827e-05 0.000220951 1.07161e-06
-7.28853e-07 1.07161e-06 0.000129278
0.000144073 -2.29078e-05 5.07682e-07
-2.29078e-05 -0.000171187 -6.2537e-06
5.07682e-07 -6.2537e-06 -0.000380769
0.0011613 1.74955e-05 -4.26497e-07
1.74955e-05 0.000136344 -5.55461e-07
-4.26497e-07 -5.55461e-07 6.01392e-05
0.00102285 -3.29014e-05 3.65515e-08
-3.29014e-05 6.89042e-05 4.05146e-07
3.65515e-08 4.05146e-07 -2.5682e-05
0.000922307 -2.3533e-05 -1.25375e-06
-2.3533e-05 4.01604e-05 3.46296e-06
-1.25375e-06 3.46296e-06 -6.66926e-05
0.00104559 -3.82926e-05 -1.77613e-07
-3.82926e-05 7.04572e-05 1.03008e-07
-1.77613e-07 1.03008e-07 -1.60931e-05
0.000853769 -2.31799e-05 -3.08003e-07
-2.31799e-05 1.26159e-05 1.24859e-06
-3.08003e-07 1.24859e-06 -7.80639e-05
0.000906142 -4.17119e-05 1.20693e-06
-4.17119e-05 8.44897e-05 -9.18397e-08
1.20693e-06 -9.18397e-08 -4.33878e-05
0.0010191 -2.35906e-05 1.67846e-07
-2.35906e-05 5.92834e-05 -3.28765e-07
1.67846e-07 -3.28765e-07 -2.24294e-05
0.00102013 -7.26655e-06 -6.97328e-08
-7.26655e-06 6.34087e-05 9.4583e-08
-6.97328e-08 9.4583e-08 -1.80121e-05
0.00118992 -5.36815e-05 8.39205e-08
-5.36815e-05 0.000162266 3.79832e-07
8.39205e-08 3.79832e-07 7.03433e-05
0.00102833 -6.24764e-05 4.00767e-07
-6.24764e-05 0.000121402 1.04751e-06
4.00767e-07 1.04751e-06 -1.54961e-06
0.000943563 -4.84549e-05 -5.32019e-07
-4.84549e-05 4.26686e-05 -5.88044e-07
-5.32019e-07 -5.88044e-07 -4.47266e-05
0.000850682 -5.43902e-05 6.99267e-07
-5.43902e-05 6.87238e-06 -2.69463e-07
6.99267e-07 -2.69463e-07 -9.7309e-05
0.00111557 -6.98214e-05 6.93159e-07
-6.98214e-05 0.000136157 8.68422e-07
6.93159e-07 8.68422e-07 1.77438e-05
0.00117927 -7.23374e-05 -2.10583e-06
-7.23374e-05 0.000124903 1.93931e-06
-2.10583e-06 1.93931e-06 2.17851e-05
0.00133225 -6.36262e-05 6.28497e-08
-6.36262e-05 0.000240863 -2.38038e-07
6.28497e-08 -2.38038e-07 0.000149003
0.000891473 -6.03601e-05 -3.41458e-07
-6.03601e-05 9.70521e-06 4.47014e-08
-3.41458e-07 4.47014e-08 -9.46719e-05
0.00129455 -6.98859e-05 1.24151e-07
-6.98859e-05 0.000208007 -1.86011e-07
1.24151e-07 -1.86011e-07 0.000121752
0.000843445 -5.10993e-05 -9.58302e-07
-5.10993e-05 2.69512e-06 8.04814e-10
-9.58302e-07 8.04814e-10 -8.15019e-05
0.00101093 -6.07379e-05 4.06044e-07
-6.07379e-05 7.17386e-05 4.51414e-08
4.06044e-07 4.51414e-08 -1.86297e-05
0.00104214 -4.52826e-05 -1.01135e-06
-4.52826e-05 8.92655e-05 2.50135e-07
-1.01135e-06 2.50135e-07 1.46704e-05
0.00108908 -5.84815e-05 -9.8817e-07
-5.84815e-05 0.000116691 6.10973e-07
-9.8817e-07 6.10973e-07 3.40217e-05
0.000851668 -5.50435e-05 -1.06528e-07
-5.50435e-05 -1.4487e-07 -8.35595e-07
-1.06528e-07 -8.35595e-07 -9.35156e-05
0.000999119 -7.42274e-06 -8.54644e-07
-7.42274e-06 5.58748e-05 1.31836e-06
-8.54644e-07 1.31836e-06 -3.32863e-06
0.000988624 -3.73203e-05 2.51376e-07
-3.73203e-05 5.76796e-05 1.59149e-07
2.51376e-07 1.59149e-07 -1.58938e-05
0.00110773 -5.36774e-05 1.45206e-06
-5.36774e-05 0.000125473 -5.25308e-07
1.45206e-06 -5.25308e-07 4.32582e-05
0.00101295 -2.44871e-05 4.71637e-07
-2.44871e-05 6.9492e-05 -8.25692e-07
4.71637e-07 -8.25692e-07 1.79797e-07
0.00096792 -8.24697e-07 1.23382e-07
-8.24697e-07 3.74498e-05 -5.9283e-08
1.23382e-07 -5.9283e-08 -1.73139e-05
0.000912412 1.46e-05 -1.08627e-06
1.46e-05 8.28299e-06 1.97893e-06
-1.08627e-06 1.97893e-06 -2.61036e-05
0.000957743 -2.82681e-06 3.71439e-07
-2.82681e-06 3.22143e-05 -1.21754e-06
3.71439e-07 -1.21754e-06 -1.88068e-05
0.000908844 1.42706e-05 5.5552e-08
1.42706e-05 2.83324e-06 -2.60755e-08
5.5552e-08 -2.60755e-08 -2.88718e-05
0.00083024 1.79972e-05 -1.91246e-06
1.79972e-05 -3.93766e-05 3.2395e-06
-1.91246e-06 3.2395e-06 -4.35341e-05
0.000914216 8.18499e-06 8.26768e-07
8.18499e-06 2.38953e-06 -1.74149e-06
8.26768e-07 -1.74149e-06 -2.73843e-05
0.000849744 1.55353e-05 1.35569e-07
1.55353e-05 -3.45505e-05 7.78944e-09
1.35569e-07 7.78944e-09 -3.72307e-05
0.00219923 2.4428e-05 -4.35701e-06
2.4428e-05 0.000657817 1.57716e-06
-4.35701e-06 1.57716e-06 0.000678726
0.00087061 1.28285e-05 1.35439e-06
1.28285e-05 -2.87053e-05 -3.10812e-06
1.35439e-06 -3.10812e-06 -3.00066e-05
0.00162556 1.62061e-05 4.79097e-06
1.62061e-05 0.000357903 -1.14181e-06
4.79097e-06 -1.14181e-06 0.000377172
0.0022098 1.35518e-05 8.97e-06
1.35518e-05 0.000654983 -3.86423e-06
8.97e-06 -3.86423e-06 0.000677695
0.000788605 -5.96111e-06 -1.79937e-07
-5.96111e-06 -5.68397e-05 -1.68059e-06
-1.79937e-07 -1.68059e-06 -0.000108685
0.000662278 -8.20895e-06 -5.68951e-07
-8.20895e-06 -0.0001281 -2.37987e-06
-5.68951e-07 -2.37987e-06 -0.000158659
0.000929074 -1.42328e-06 -1.38103e-07
-1.42328e-06 1.64193e-05 -4.99497e-07
-1.38103e-07 -4.99497e-07 -3.2691e-05
0.000886093 -9.95826e-06 -8.58029e-07
-9.95826e-06 -2.48481e-05 -3.18871e-06
-8.58029e-07 -3.18871e-06 -2.43704e-05
0.000679586 -6.62534e-06 -7.39821e-08
-6.62534e-06 -0.000121445 -6.04199e-07
-7.39821e-08 -6.04199e-07 -0.000149272
0.00104631 2.40421e-07 4.98688e-08
2.40421e-07 7.66055e-05 1.13552e-06
4.98688e-08 1.13552e-06 3.13399e-05
0.00214104 -8.86891e-06 -6.54268e-06
-8.86891e-06 0.000616544 -3.94404e-06
-6.54268e-06 -3.94404e-06 0.000640541
0.000876515 -6.5345e-06 -1.02354e-07
-6.5345e-06 -3.26712e-05 -1.83232e-08
-1.02354e-07 -1.83232e-08 -3.04229e-05
0.000685814 -4.57358e-06 9.40454e-08
-4.57358e-06 -0.000119989 1.641e-06
9.40454e-08 1.641e-06 -0.000145554
0.00210989 -4.25631e-06 -1.35356e-06
-4.25631e-06 0.000598664 8.77389e-09
-1.35356e-06 8.77389e-09 0.000623371
0.000873832 -3.09135e-06 1.37942e-07
-3.09135e-06 -3.59735e-05 3.09731e-06
1.37942e-07 3.09731e-06 -3.25652e-05
0.00209728 3.57348e-07 -6.12463e-07
3.57348e-07 0.000591651 3.87841e-06
-6.12463e-07 3.87841e-06 0.000616586
0.00115782 -1.0238e-05 1.5347e-05
-1.0238e-05 0.000215747 -4.75142e-07
1.5347e-05 -4.75142e-07 0.000104415
0.00124105 -1.20535e-05 -5.37574e-06
-1.20535e-05 0.00030136 6.37655e-07
-5.37574e-06 6.37655e-07 0.000227079
0.00108333 1.44846e-05 6.6233e-06
1.44846e-05 0.000270726 3.07453e-06
6.6233e-06 3.07453e-06 0.000271845
0.00103435 2.46388e-05 -2.51723e-08
2.46388e-05 7.44111e-05 7.69134e-08
-2.51723e-08 7.69134e-08 9.74517e-06
0.000937639 1.2796e-05 -2.45574e-07
1.2796e-05 1.99003e-05 -7.98477e-07
-2.45574e-07 -7.98477e-07 -4.58952e-05
0.00113158 3.36887e-05 -2.62546e-07
3.36887e-05 0.000126832 -1.55729e-07
-2.62546e-07 -1.55729e-07 5.41011e-05
0.00159169 1.28533e-05 4.10146e-06
1.28533e-05 0.000421551 -3.10703e-06
4.10146e-06 -3.10703e-06 0.000312395
0.0011546 -5.70537e-06 2.9547e-06
-5.70537e-06 0.00019807 -1.01146e-06
2.9547e-06 -1.01146e-06 9.81997e-05
0.00128873 -6.03474e-07 -1.40446e-05
-6.03474e-07 0.000274983 1.56114e-06
-1.40446e-05 1.56114e-06 0.000217819
0.000634919 5.81954e-05 -3.39536e-05
5.81954e-05 -0.000375374 1.08876e-05
-3.39536e-05 1.08876e-05 -0.000545619
0.00247421 0.000193219 1.22249e-05
0.000193219 0.000449576 -1.79489e-05
1.22249e-05 -1.79489e-05 -0.000483752
0.00356568 0.000334298 3.9292e-05
0.000334298 0.00072591 -2.61067e-05
3.9292e-05 -2.61067e-05 0.000824552
0.000531223 3.01602e-05 2.92001e-06
3.01602e-05 -0.000603108 -8.39867e-07
2.92001e-06 -8.39867e-07 -0.000431405
0.000871529 -4.15332e-05 -1.07117e-05
-4.15332e-05 -0.000214839 9.09497e-06
-1.07117e-05 9.09497e-06 -0.000319811
0.00510205 0.000102382 3.45716e-05
0.000102382 0.00108708 -4.13753e-05
3.45716e-05 -4.13753e-05 0.000167178
0.00102244 0.000120895 -1.83471e-06
0.000120895 -0.000683602 1.27446e-05
-1.83471e-06 1.27446e-05 -0.000456006
0.00130682 1.91598e-05 8.965e-07
1.91598e-05 -8.5443e-05 4.49113e-06
8.965e-07 4.49113e-06 5.09095e-05
0.00292977 -0.000236161 1.88966e-05
-0.000236161 0.000509335 -5.44025e-05
1.88966e-05 -5.44025e-05 0.000394999
0.00809092 0.000132626 2.7989e-05
0.000132626 0.00217007 -3.18985e-05
2.7989e-05 -3.18985e-05 0.00155676
0.000315892 -9.85908e-08 1.22142e-06
-9.85908e-08 -0.000990952 6.15065e-05
1.22142e-06 6.15065e-05 -0.000754666
0.000369771 -1.29349e-05 -4.58854e-07
-1.29349e-05 -0.000632044 3.92327e-06
-4.58854e-07 3.92327e-06 -0.000480473
0.00106732 5.59708e-06 -1.1728e-07
5.59708e-06 8.92092e-05 -3.97381e-07
-1.1728e-07 -3.97381e-07 9.15495e-06
0.000977703 -3.98342e-06 -1.10561e-07
-3.98342e-06 5.20469e-05 -2.06625e-07
-1.10561e-07 -2.06625e-07 -2.82599e-05
0.0010327 -2.24304e-05 -2.08065e-07
-2.24304e-05 8.69613e-05 8.75844e-07
-2.08065e-07 8.75844e-07 1.07979e-05
0.00099541 1.89848e-05 -4.02019e-07
1.89848e-05 5.86758e-05 -6.51981e-07
-4.02019e-07 -6.51981e-07 -1.35318e-05
0.00112147 5.45615e-05 1.12218e-06
5.45615e-05 0.000129267 1.15433e-06
1.12218e-06 1.15433e-06 5.86613e-05
0.00119412 3.59552e-05 1.21211e-07
3.59552e-05 0.000160855 8.86569e-07
1.21211e-07 8.86569e-07 9.83485e-05
0.00258588 -0.000186794 5.3926e-06
-0.000186794 0.000530459 6.13694e-07
5.3926e-06 6.13694e-07 0.000533509
0.000649158 -1.65759e-05 9.38353e-07
-1.65759e-05 2.00001e-05 4.51379e-06
9.38353e-07 4.51379e-06 -0.000231863
0.00111864 3.0723e-05 4.61712e-07
3.0723e-05 0.000121476 9.254e-07
4.61712e-07 9.254e-07 3.65783e-05
0.00123152 -1.99987e-05 8.63216e-07
-1.99987e-05 0.00018482 -3.92197e-07
8.63216e-07 -3.92197e-07 6.93802e-05
0.00112742 1.1119e-06 1.07797e-07
1.1119e-06 0.00011683 -7.67703e-08
1.07797e-07 -7.67703e-08 2.47083e-05
0.00108926 1.7364e-05 4.35793e-07
1.7364e-05 9.48136e-05 1.10034e-07
4.35793e-07 1.10034e-07 1.31198e-05
0.00111039 3.08119e-05 2.58372e-07
3.08119e-05 0.00010633 -2.73997e-07
2.58372e-07 -2.73997e-07 1.76811e-05
0.000967487 -0.00014091 -2.26792e-06
-0.00014091 2.7649e-05 2.69652e-06
-2.26792e-06 2.69652e-06 -5.56304e-05
0.00120708 -3.6082e-06 6.0407e-07
-3.6082e-06 0.000138963 -1.21313e-06
6.0407e-07 -1.21313e-06 5.25264e-05
0.00131752 4.94631e-05 -1.60192e-06
4.94631e-05 0.000385142 -8.3111e-07
-1.60192e-06 -8.3111e-07 0.000203064
0.000940442 -4.96894e-08 4.46786e-07
-4.96894e-08 1.8828e-05 -1.95682e-06
4.46786e-07 -1.95682e-06 -6.41199e-05
-0.000231937 -2.77794e-05 3.01696e-06
-2.77794e-05 -0.000163359 -7.32032e-06
3.01696e-06 -7.32032e-06 -0.000407022
0.000310044 1.85011e-05 -2.49464e-06
1.85011e-05 -0.000206324 1.1188e-05
-2.49464e-06 1.1188e-05 -0.000253496
0.00105341 -8.98968e-06 1.30468e-07
-8.98968e-06 6.78271e-05 -1.00073e-06
1.30468e-07 -1.00073e-06 -2.08994e-05
0.00133295 -3.70391e-06 6.42329e-07
-3.70391e-06 0.000271837 -2.29783e-07
6.42329e-07 -2.29783e-07 0.000138341
0.00108099 -1.513e-06 4.61089e-06
-1.513e-06 0.000170222 -2.20714e-08
4.61089e-06 -2.20714e-08 5.11424e-05
0.00124766 -4.33469e-06 -1.57553e-05
-4.33469e-06 0.000324372 1.43585e-06
-1.57553e-05 1.43585e-06 0.000243708
0.00136849 6.55406e-05 3.60676e-06
6.55406e-05 0.00029332 4.2007e-06
3.60676e-06 4.2007e-06 0.000220268
-0.000215159 7.43823e-05 8.67992e-06
7.43823e-05 -0.00023865 -1.38896e-05
8.67992e-06 -1.38896e-05 -0.000334238
0.000878495 7.68302e-06 -1.06208e-05
7.68302e-06 1.27369e-05 1.39351e-06
-1.06208e-05 1.39351e-06 -0.000104625
0.00349729 -1.88274e-05 -1.83334e-05
-1.88274e-05 0.000232684 -1.06857e-05
-1.83334e-05 -1.06857e-05 -5.66631e-05
-0.000875505 2.65586e-05 2.59207e-06
2.65586e-05 -0.00168196 6.95705e-05
2.59207e-06 6.95705e-05 -0.00144422
0.000774031 -7.0168e-06 -3.47526e-06
-7.0168e-06 -7.73884e-05 -2.91935e-06
-3.47526e-06 -2.91935e-06 -0.000216779
0.000581987 1.66252e-05 -1.61384e-06
1.66252e-05 -0.000499954 -2.45173e-06
-1.61384e-06 -2.45173e-06 -0.000383095
0.000611344 4.28391e-05 -6.86542e-07
4.28391e-05 3.52294e-05 5.13893e-08
-6.86542e-07 5.13893e-08 -5.22515e-05
0.00123166 -4.33987e-06 -6.98086e-07
-4.33987e-06 0.000181752 -2.6755e-07
-6.98086e-07 -2.6755e-07 4.51289e-05
0.00118911 -2.16682e-05 -3.15026e-06
-2.16682e-05 0.000215064 1.67074e-06
-3.15026e-06 1.67074e-06 9.91126e-05
0.00138714 0.000179573 3.2022e-05
0.000179573 0.000256018 1.38382e-06
3.2022e-05 1.38382e-06 0.000163223
0.00159712 0.000110943 1.87045e-06
0.000110943 -4.97681e-06 -2.64652e-06
1.87045e-06 -2.64652e-06 0.000309412
0.000775263 0.000145882 3.14515e-06
0.000145882 -0.00072337 -1.36798e-05
3.14515e-06 -1.36798e-05 -0.00053887
0.00678636 -3.72116e-06 9.49713e-06
-3.72116e-06 0.00168292 -1.85638e-05
9.49713e-06 -1.85638e-05 0.0012606
-0.000609589 1.0756e-05 -2.31589e-05
1.0756e-05 -8.93954e-05 -1.30257e-05
-2.31589e-05 -1.30257e-05 -0.000304262
0.00117825 -1.63842e-05 -1.48566e-05
-1.63842e-05 0.000229037 6.48166e-07
-1.48566e-05 6.48166e-07 0.000106319
0.000953183 4.43999e-07 -6.30816e-06
4.43999e-07 1.51039e-05 -2.23389e-06
-6.30816e-06 -2.23389e-06 -2.73742e-05
0.00132988 0.000181713 9.95074e-06
0.000181713 0.000149091 -3.12126e-06
9.95074e-06 -3.12126e-06 0.000519185
-0.003003 0.000245592 4.68469e-05
0.000245592 -0.00219118 -3.89867e-05
4.68469e-05 -3.89867e-05 -0.0021563
0.00769755 0.000179838 4.28959e-06
0.000179838 0.00203553 -1.39289e-05
4.28959e-06 -1.39289e-05 0.00116075
0.00143503 -3.10795e-05 -2.37726e-05
-3.10795e-05 0.000260111 9.69373e-05
-2.37726e-05 9.69373e-05 1.78682e-05
0.000903118 1.95216e-05 1.90985e-06
1.95216e-05 1.491e-05 5.15114e-06
1.90985e-06 5.15114e-06 -7.25888e-05
0.000367216 -1.52361e-05 1.11293e-06
-1.52361e-05 -6.38867e-05 -1.33454e-06
1.11293e-06 -1.33454e-06 -0.000277304
0.000655887 -3.93658e-05 2.1026e-06
-3.93658e-05 0.000154615 -2.86574e-06
2.1026e-06 -2.86574e-06 -0.000108684
0.000988999 -4.21443e-05 2.29601e-07
-4.21443e-05 4.35489e-05 -6.57271e-07
2.29601e-07 -6.57271e-07 -4.32503e-05
0.000721268 -3.0317e-05 -5.2515e-07
-3.0317e-05 -5.79702e-05 2.74655e-06
-5.2515e-07 2.74655e-06 -0.000149079
0.000798631 -2.59737e-05 -1.48958e-07
-2.59737e-05 3.15205e-05 6.13732e-07
-1.48958e-07 6.13732e-07 -8.89185e-05
0.000877896 -7.44935e-05 2.24193e-06
-7.44935e-05 0.000123054 -1.11626e-06
2.24193e-06 -1.11626e-06 -8.12062e-05
0.00135169 -5.64736e-05 -3.4176e-07
-5.64736e-05 0.000238241 4.57877e-08
-3.4176e-07 4.57877e-08 0.00014475
0.00130596 -7.36638e-05 1.34389e-08
-7.36638e-05 0.000248871 3.63164e-07
1.34389e-08 3.63164e-07 0.000123235
0.00110286 -7.70038e-05 1.78902e-06
-7.70038e-05 0.000154338 1.85479e-06
1.78902e-06 1.85479e-06 -5.77007e-06
0.000611727 -4.6999e-05 -1.93666e-07
-4.6999e-05 -0.000109144 -1.25525e-06
-1.93666e-07 -1.25525e-06 -0.000210262
0.00109178 -6.87864e-05 -3.76489e-07
-6.87864e-05 0.000122121 -6.21646e-08
-3.76489e-07 -6.21646e-08 1.66833e-06
0.00166865 -9.41536e-05 -8.65069e-07
-9.41536e-05 0.000371224 1.8755e-06
-8.65069e-07 1.8755e-06 0.000245481
0.00139961 -8.39254e-05 -2.09238e-06
-8.39254e-05 0.000214351 2.71147e-06
-2.09238e-06 2.71147e-06 0.000102587
0.000828694 -5.95541e-05 -4.76965e-07
-5.95541e-05 -3.64591e-05 1.71124e-06
-4.76965e-07 1.71124e-06 -0.000126621
0.00112081 -7.11742e-05 -6.39529e-07
-7.11742e-05 9.73331e-05 5.79796e-07
-6.39529e-07 5.79796e-07 -7.46709e-06
0.00105987 -6.54548e-05 -2.38492e-07
-6.54548e-05 9.09308e-05 -7.99193e-07
-2.38492e-07 -7.99193e-07 -1.52566e-05
0.0012279 -6.57207e-05 4.68415e-07
-6.57207e-05 0.000176257 -6.44871e-07
4.68415e-07 -6.44871e-07 9.51689e-05
0.00111589 -6.43506e-05 1.26858e-06
-6.43506e-05 0.000120847 -6.24023e-07
1.26858e-06 -6.24023e-07 3.65421e-05
0.000889052 -4.25845e-05 -5.06033e-07
-4.25845e-05 2.05833e-05 6.2516e-07
-5.06033e-07 6.2516e-07 -5.70211e-05
0.000954307 -5.42698e-05 2.46932e-07
-5.42698e-05 5.66885e-05 -1.15932e-07
2.46932e-07 -1.15932e-07 -2.67602e-05
0.00102122 -6.07477e-05 2.93363e-06
-6.07477e-05 7.61349e-05 -1.32367e-06
2.93363e-06 -1.32367e-06 -1.27253e-05
0.000978897 -5.17109e-06 -1.23323e-06
-5.17109e-06 4.94661e-05 1.11802e-06
-1.23323e-06 1.11802e-06 -1.32584e-05
0.00105984 -4.55503e-05 -2.48893e-07
-4.55503e-05 9.69915e-05 -3.25708e-08
-2.48893e-07 -3.25708e-08 2.25881e-05
0.00111346 -5.92363e-05 3.42551e-07
-5.92363e-05 0.000127743 -3.37955e-08
3.42551e-07 -3.37955e-08 4.49385e-05
0.000905106 1.22966e-05 -1.48168e-06
1.22966e-05 8.44966e-06 2.15527e-06
-1.48168e-06 2.15527e-06 -2.95067e-05
0.000982909 -8.10491e-06 1.67417e-07
-8.10491e-06 4.69751e-05 5.75657e-08
1.67417e-07 5.75657e-08 -1.18518e-05
0.000962284 -3.64901e-05 1.18366e-06
-3.64901e-05 4.33115e-05 -3.13639e-07
1.18366e-06 -3.13639e-07 -3.02659e-05
0.000967755 -1.3454e-06 7.39906e-07
-1.3454e-06 3.71738e-05 -1.31896e-06
7.39906e-07 -1.31896e-06 -1.75418e-05
0.000903342 1.6349e-05 1.90523e-07
1.6349e-05 3.98875e-06 -4.01901e-08
1.90523e-07 -4.01901e-08 -3.05416e-05
0.000816795 2.04891e-05 -2.29018e-06
2.04891e-05 -4.03323e-05 3.31353e-06
-2.29018e-06 3.31353e-06 -4.65389e-05
0.000905174 1.53172e-05 8.19999e-07
1.53172e-05 9.93185e-07 -1.94406e-06
8.19999e-07 -1.94406e-06 -3.07974e-05
0.000845385 1.81961e-05 9.97082e-08
1.81961e-05 -3.19013e-05 -1.20145e-08
9.97082e-08 -1.20145e-08 -3.61239e-05
0.00227635 2.6331e-05 -1.47731e-05
2.6331e-05 0.000701799 3.77287e-06
-1.47731e-05 3.77287e-06 0.000721617
0.000867007 1.56465e-05 1.75262e-06
1.56465e-05 -2.61908e-05 -3.16484e-06
1.75262e-06 -3.16484e-06 -2.88554e-05
0.00163561 2.01644e-05 5.68229e-06
2.01644e-05 0.000368345 -1.10684e-06
5.68229e-06 -1.10684e-06 0.000386381
0.00222726 1.79567e-05 1.14292e-05
1.79567e-05 0.000667849 -3.85521e-06
1.14292e-05 -3.85521e-06 0.000689692
0.000952389 1.82502e-05 -6.78487e-07
1.82502e-05 2.65706e-05 -1.26059e-06
-6.78487e-07 -1.26059e-06 -2.7124e-05
0.000905741 -1.07804e-05 -6.90692e-07
-1.07804e-05 -2.78899e-06 -1.90015e-06
-6.90692e-07 -1.90015e-06 -3.42535e-05
0.000867972 9.02941e-06 -5.42848e-07
9.02941e-06 -1.49957e-05 -5.48106e-07
-5.42848e-07 -5.48106e-07 -6.6886e-05
0.000878967 -1.31038e-05 -1.10319e-06
-1.31038e-05 -2.44093e-05 -3.28381e-06
-1.10319e-06 -3.28381e-06 -2.60541e-05
0.00079503 -8.42537e-06 -2.33171e-07
-8.42537e-06 -6.06129e-05 -5.95744e-07
-2.33171e-07 -5.95744e-07 -9.06042e-05
0.00106757 -2.38208e-06 1.32059e-07
-2.38208e-06 8.632e-05 5.98739e-07
1.32059e-07 5.98739e-07 3.79135e-05
0.00218722 -1.34147e-05 -9.0759e-06
-1.34147e-05 0.000643023 -3.97915e-06
-9.0759e-06 -3.97915e-06 0.00066603
0.000870555 -9.84561e-06 -9.78321e-08
-9.84561e-06 -3.26799e-05 -2.13752e-08
-9.78321e-08 -2.13752e-08 -3.20921e-05
0.000676977 -6.76294e-06 9.77448e-08
-6.76294e-06 -0.000122613 1.16332e-06
9.77448e-08 1.16332e-06 -0.000150798
0.00214091 -8.73552e-06 -1.20347e-06
-8.73552e-06 0.000616199 1.99387e-08
-1.20347e-06 1.99387e-08 0.000640294
0.000864956 -6.45369e-06 4.61569e-07
-6.45369e-06 -3.85413e-05 3.11522e-06
4.61569e-07 3.11522e-06 -3.62077e-05
0.00210709 -4.12321e-06 2.32148e-06
-4.12321e-06 0.00059704 3.87156e-06
2.32148e-06 3.87156e-06 0.000621823
0.0013083 1.38548e-06 -2.93298e-08
1.38548e-06 0.000229893 3.40688e-06
-2.93298e-08 3.40688e-06 9.93868e-05
0.0012493 -9.0533e-06 3.83607e-06
-9.0533e-06 0.000268539 -7.82953e-07
3.83607e-06 -7.82953e-07 0.000157733
0.00124712 -1.31746e-05 -1.86165e-05
-1.31746e-05 0.000302732 3.01003e-06
-1.86165e-05 3.01003e-06 0.000230854
0.000937227 4.33667e-06 -1.72939e-07
4.33667e-06 1.74395e-05 -9.74989e-07
-1.72939e-07 -9.74989e-07 -4.9452e-05
0.00111648 2.57321e-05 -2.14922e-07
2.57321e-05 0.000112175 -6.22887e-07
-2.14922e-07 -6.22887e-07 3.75328e-05
0.00107225 2.91262e-05 1.0831e-06
2.91262e-05 9.35361e-05 8.9712e-07
1.0831e-06 8.9712e-07 2.94332e-05
0.000923611 1.04112e-05 -2.71708e-08
1.04112e-05 1.28974e-05 1.92466e-08
-2.71708e-08 1.92466e-08 -5.28857e-05
0.00105964 2.05721e-05 1.77006e-07
2.05721e-05 8.80663e-05 3.54926e-07
1.77006e-07 3.54926e-07 1.53792e-05
0.0010347 2.57735e-05 -4.12617e-07
2.57735e-05 7.35184e-05 -5.95037e-07
-4.12617e-07 -5.95037e-07 -9.19754e-08
0.00104305 5.32873e-05 -1.85875e-07
5.32873e-05 8.27772e-05 8.74264e-09
-1.85875e-07 8.74264e-09 2.66225e-06
0.00104194 2.73306e-05 -8.24802e-06
2.73306e-05 0.000131409 -2.78905e-06
-8.24802e-06 -2.78905e-06 2.61938e-05
0.00113767 1.18019e-05 2.4954e-06
1.18019e-05 0.000150222 -6.39299e-06
2.4954e-06 -6.39299e-06 3.14e-05
0.00105023 -7.67279e-06 -1.0474e-05
-7.67279e-06 0.000151185 4.12504e-06
-1.0474e-05 4.12504e-06 5.12177e-05
0.000285723 1.00349e-05 5.04809e-06
1.00349e-05 -0.000661642 5.63708e-06
5.04809e-06 5.63708e-06 -0.000579073
0.000964366 -4.78195e-05 -6.12604e-05
-4.78195e-05 -0.000569709 5.71425e-05
-6.12604e-05 5.71425e-05 -0.000743171
0.00200945 7.73458e-05 5.23647e-05
7.73458e-05 -2.72268e-05 -5.44644e-05
5.23647e-05 -5.44644e-05 -0.000857724
0.00457195 0.0002108 1.93026e-05
0.0002108 0.000801979 -2.46608e-05
1.93026e-05 -2.46608e-05 0.000969838
0.00151147 -0.00019879 -2.30086e-05
-0.00019879 -0.000222895 2.01147e-05
-2.30086e-05 2.01147e-05 -0.000472675
0.00316887 -7.15555e-05 2.39322e-05
-7.15555e-05 -0.000142785 -4.87823e-05
2.39322e-05 -4.87823e-05 -0.000904285
0.00349299 -2.08231e-05 -7.91576e-06
-2.08231e-05 0.000278463 2.92706e-06
-7.91576e-06 2.92706e-06 0.000425329
0.00203428 -2.30803e-05 1.63824e-06
-2.30803e-05 0.000281406 2.86959e-06
1.63824e-06 2.86959e-06 0.00050072
0.00168368 -0.000156683 3.10346e-05
-0.000156683 0.000200267 -2.34472e-05
3.10346e-05 -2.34472e-05 7.55305e-05
0.00328842 -0.00026202 -1.69495e-05
-0.00026202 -0.000549084 -0.000105117
-1.69495e-05 -0.000105117 -0.000836089
2.23307e-06 -9.63112e-05 2.65373e-05
-9.63112e-05 -0.00118419 4.41897e-05
2.65373e-05 4.41897e-05 -0.00104704
-0.000571118 -8.04263e-05 -2.11025e-06
-8.04263e-05 -0.00126323 2.61263e-06
-2.11025e-06 2.61263e-06 -0.000978577
0.00113379 1.7111e-06 -5.27939e-07
1.7111e-06 0.000114644 -3.99818e-07
-5.27939e-07 -3.99818e-07 3.4511e-05
0.0010184 8.80981e-06 7.81512e-08
8.80981e-06 6.51156e-05 -2.01739e-07
7.81512e-08 -2.01739e-07 -1.54492e-05
0.000973461 -5.22927e-07 5.04903e-09
-5.22927e-07 5.19501e-05 3.21197e-07
5.04903e-09 3.21197e-07 -2.89744e-05
0.00102061 2.19323e-05 7.96465e-08
2.19323e-05 7.11015e-05 -1.20707e-07
7.96465e-08 -1.20707e-07 -1.16845e-06
0.00208761 -0.000147814 1.17832e-05
-0.000147814 0.00053394 4.9334e-06
1.17832e-05 4.9334e-06 0.000490022
0.0010697 4.27388e-05 2.94987e-06
4.27388e-05 0.000310693 5.5413e-07
2.94987e-06 5.5413e-07 0.00013121
0.000970733 1.27308e-05 1.11856e-07
1.27308e-05 3.34405e-05 9.04804e-07
1.11856e-07 9.04804e-07 -4.77766e-05
0.00101516 2.15672e-05 4.69697e-08
2.15672e-05 5.7714e-05 8.57725e-07
4.69697e-08 8.57725e-07 -3.08778e-05
0.00153024 -1.07744e-06 -3.12548e-07
-1.07744e-06 0.000298717 -1.35766e-06
-3.12548e-07 -1.35766e-06 0.000213025
0.000986052 1.74459e-05 -7.17752e-07
1.74459e-05 4.20736e-05 2.49556e-08
-7.17752e-07 2.49556e-08 -4.13278e-05
0.000998621 -1.20238e-06 -1.21654e-06
-1.20238e-06 4.0577e-05 6.207e-07
-1.21654e-06 6.207e-07 -4.96818e-05
0.000551734 -4.27859e-05 1.03659e-05
-4.27859e-05 0.000214841 -1.55549e-06
1.03659e-05 -1.55549e-06 2.09506e-05
0.000838399 7.16925e-06 2.77203e-06
7.16925e-06 5.44995e-05 5.23669e-06
2.77203e-06 5.23669e-06 1.17383e-05
0.00118519 -4.33209e-08 1.32829e-07
-4.33209e-08 0.000145199 -3.02241e-06
1.32829e-07 -3.02241e-06 5.46087e-05
0.000137216 1.77816e-05 5.51252e-06
1.77816e-05 0.000269459 -4.92125e-07
5.51252e-06 -4.92125e-07 -3.92839e-05
0.00166328 -3.56311e-05 8.00218e-06
-3.56311e-05 0.000465584 1.71333e-06
8.00218e-06 1.71333e-06 0.000355303
0.00150809 -2.84292e-06 -1.32731e-05
-2.84292e-06 0.000452189 1.05636e-06
-1.32731e-05 1.05636e-06 0.000327734
0.00111594 -3.63648e-06 3.38386e-07
-3.63648e-06 0.000149744 -2.25739e-07
3.38386e-07 -2.25739e-07 1.49409e-05
0.0007342 -2.51395e-06 -4.2757e-06
-2.51395e-06 -5.41116e-05 -4.95752e-07
-4.2757e-06 -4.95752e-07 -0.000178797
0.000512591 2.42159e-05 -2.15681e-06
2.42159e-05 -4.73595e-05 6.43953e-06
-2.15681e-06 6.43953e-06 -0.00013258
0.00137999 9.43594e-05 -4.78565e-05
9.43594e-05 0.00055037 6.26067e-06
-4.78565e-05 6.26067e-06 0.000597736
0.00107931 -3.63648e-06 -9.15319e-08
-3.63648e-06 9.76153e-05 4.78514e-06
-9.15319e-08 4.78514e-06 -3.94788e-05
0.0033796 0.000179712 2.42861e-05
0.000179712 3.703e-05 -8.64392e-05
2.42861e-05 -8.64392e-05 -0.000512029
0.00487208 0.000244189 -1.66507e-05
0.000244189 0.00101179 1.92094e-05
-1.66507e-05 1.92094e-05 0.00114697
0.00122052 -2.52179e-05 1.09891e-05
-2.52179e-05 0.000256137 -6.07925e-06
1.09891e-05 -6.07925e-06 0.000139791
0.00225754 0.000107361 -3.73589e-06
0.000107361 0.000437191 1.25786e-06
-3.73589e-06 1.25786e-06 0.000712039
-6.6868e-05 -8.61426e-06 2.03157e-05
-8.61426e-06 9.39291e-05 -2.24168e-07
2.03157e-05 -2.24168e-07 -8.31887e-05
0.00125557 -1.56513e-05 -4.14128e-06
-1.56513e-05 0.000272862 6.8836e-07
-4.14128e-06 6.8836e-07 0.000150359
0.00113957 -3.5667e-06 4.74386e-06
-3.5667e-06 0.000162182 -6.20375e-07
4.74386e-06 -6.20375e-07 0.000104702
0.00189126 -3.64295e-05 -1.13847e-05
-3.64295e-05 0.000592943 1.84166e-05
-1.13847e-05 1.84166e-05 0.000538668
0.000409857 0.000194995 -1.97787e-06
0.000194995 -0.000402017 2.85372e-06
-1.97787e-06 2.85372e-06 -1.36603e-05
0.00134338 0.000297843 4.84735e-06
0.000297843 -0.000322447 -1.0871e-05
4.84735e-06 -1.0871e-05 -0.000273994
0.00313691 1.79952e-05 2.06113e-05
1.79952e-05 0.000316561 -9.9209e-06
2.06113e-05 -9.9209e-06 -0.000743044
0.000397093 -5.53909e-05 7.55071e-06
-5.53909e-05 0.000254528 -1.485e-05
7.55071e-06 -1.485e-05 4.06297e-05
0.00133835 -1.33746e-05 -9.26095e-06
-1.33746e-05 0.000368677 1.16235e-06
-9.26095e-06 1.16235e-06 0.000279142
-0.00126023 7.34188e-05 7.96458e-06
7.34188e-05 -0.00117545 -6.43959e-06
7.96458e-06 -6.43959e-06 -0.00106384
-5.2467e-06 0.000240865 5.27154e-05
0.000240865 -8.26885e-05 -2.98368e-05
5.27154e-05 -2.98368e-05 -1.99101e-05
0.00660341 0.000392396 3.43195e-05
0.000392396 0.00190214 -4.87218e-05
3.43195e-05 -4.87218e-05 0.00099338
0.00187641 -0.000165763 -5.47181e-05
-0.000165763 1.127e-06 0.000106963
-5.47181e-05 0.000106963 -0.000496144
0.000872919 -1.42794e-05 -2.26844e-06
-1.42794e-05 0.000170454 1.56834e-06
-2.26844e-06 1.56834e-06 -4.01242e-05
0.000574841 -2.55286e-05 2.11307e-07
-2.55286e-05 0.000121141 -1.01791e-06
2.11307e-07 -1.01791e-06 -0.000146619
0.0014293 -0.000110635 2.9291e-06
-0.000110635 0.000413291 -5.29587e-07
2.9291e-06 -5.29587e-07 0.000166189
0.000699022 -1.85748e-05 -1.18545e-06
-1.85748e-05 -1.54084e-05 -1.38916e-07
-1.18545e-06 -1.38916e-07 -0.000129766
0.000471806 -5.03524e-05 -3.07901e-08
-5.03524e-05 -5.49892e-05 3.15166e-07
-3.07901e-08 3.15166e-07 -0.000265842
0.00125129 -9.8877e-05 1.98765e-06
-9.8877e-05 0.000238409 4.44638e-06
1.98765e-06 4.44638e-06 4.99089e-05
0.00159654 -8.55923e-05 -1.57965e-06
-8.55923e-05 0.000383238 2.3221e-08
-1.57965e-06 2.3221e-08 0.000253764
0.00124605 -8.07629e-05 -3.32775e-08
-8.07629e-05 0.000216085 7.41568e-07
-3.32775e-08 7.41568e-07 5.58684e-05
0.00113938 -9.18771e-05 -2.89441e-07
-9.18771e-05 0.000101794 3.46617e-07
-2.89441e-07 3.46617e-07 -5.27923e-05
0.00111349 -6.91664e-05 -6.19901e-07
-6.91664e-05 0.000130849 -7.43107e-07
-6.19901e-07 -7.43107e-07 7.68668e-06
0.00156399 -9.18001e-05 9.0424e-08
-9.18001e-05 0.000317464 2.4382e-07
9.0424e-08 2.4382e-07 0.000189719
0.00132674 -8.80795e-05 -2.12381e-07
-8.80795e-05 0.000169232 1.3276e-07
-2.12381e-07 1.3276e-07 4.10239e-05
0.00132215 -8.12169e-05 -1.69295e-06
-8.12169e-05 0.000137829 8.53143e-08
-1.69295e-06 8.53143e-08 2.80608e-05
0.00152343 -8.29087e-05 -2.10973e-06
-8.29087e-05 0.000280613 3.0593e-06
-2.10973e-06 3.0593e-06 0.000181454
0.00134662 -8.29943e-05 -4.0221e-07
-8.29943e-05 0.000187477 4.21274e-07
-4.0221e-07 4.21274e-07 7.40715e-05
0.000793211 -5.60112e-05 1.74063e-07
-5.60112e-05 -4.93532e-05 -1.54406e-07
1.74063e-07 -1.54406e-07 -0.000131401
0.000961792 -6.30698e-05 9.50006e-07
-6.30698e-05 3.04032e-05 -3.11232e-07
9.50006e-07 -3.11232e-07 -5.9038e-05
0.00108332 -7.06301e-05 7.00367e-07
-7.06301e-05 8.03171e-05 -1.20995e-06
7.00367e-07 -1.20995e-06 -2.62191e-05
0.00110622 -5.59194e-05 -1.50624e-07
-5.59194e-05 0.000119034 7.41708e-08
-1.50624e-07 7.41708e-08 4.02428e-05
0.00115847 -6.35165e-05 -3.1163e-08
-6.35165e-05 0.000143122 -2.01131e-07
-3.1163e-08 -2.01131e-07 6.17363e-05
0.000920066 -5.83456e-05 1.98813e-06
-5.83456e-05 2.52627e-05 -3.45315e-07
1.98813e-06 -3.45315e-07 -5.70703e-05
0.000916506 -4.65775e-07 -6.35343e-07
-4.65775e-07 2.30578e-05 1.01251e-06
-6.35343e-07 1.01251e-06 -4.34942e-05
0.000931092 -4.11876e-05 -8.17206e-08
-4.11876e-05 3.98213e-05 2.07685e-07
-8.17206e-08 2.07685e-07 -3.6986e-05
0.00106964 -5.75655e-05 7.80754e-07
-5.75655e-05 0.000112898 -4.22398e-07
7.80754e-07 -4.22398e-07 3.01884e-05
0.00088054 1.67398e-05 -2.02531e-06
1.67398e-05 -7.35334e-07 2.19429e-06
-2.02531e-06 2.19429e-06 -4.26159e-05
0.000978374 -6.65235e-06 -2.26505e-07
-6.65235e-06 4.85221e-05 1.47732e-08
-2.26505e-07 1.47732e-08 -1.40383e-05
0.00107226 -4.53257e-05 4.58641e-07
-4.53257e-05 0.000101978 -3.07658e-07
4.58641e-07 -3.07658e-07 2.78409e-05
0.000840154 2.28688e-05 -3.80187e-06
2.28688e-05 -2.34671e-05 4.69571e-06
-3.80187e-06 4.69571e-06 -3.20414e-05
0.000894979 1.64765e-05 3.07703e-07
1.64765e-05 3.88699e-06 -3.57242e-08
3.07703e-07 -3.57242e-08 -3.42718e-05
0.000965356 -8.24953e-06 1.19317e-06
-8.24953e-06 3.74079e-05 -1.08941e-06
1.19317e-06 -1.08941e-06 -2.10699e-05
0.000893338 1.82699e-05 1.08507e-06
1.82699e-05 -8.14325e-07 -2.10106e-06
1.08507e-06 -2.10106e-06 -3.5472e-05
0.000834632 2.08006e-05 1.12629e-07
2.08006e-05 -3.14828e-05 -3.6954e-08
1.12629e-07 -3.6954e-08 -3.7797e-05
0.00231374 3.04695e-05 -1.6746e-05
3.04695e-05 0.000726958 3.73791e-06
-1.6746e-05 3.73791e-06 0.000745349
0.00086159 1.84126e-05 2.11588e-06
1.84126e-05 -2.38972e-05 -3.24578e-06
2.11588e-06 -3.24578e-06 -2.81865e-05
0.00227565 2.63541e-05 6.62703e-07
2.63541e-05 0.000702165 4.44152e-08
6.62703e-07 4.44152e-08 0.000721839
0.00224834 2.22111e-05 1.37488e-05
2.22111e-05 0.000683408 -3.83962e-06
1.37488e-05 -3.83962e-06 0.000704187
0.00103052 2.49683e-05 -5.04769e-07
2.49683e-05 6.6939e-05 -1.0006e-06
-5.04769e-07 -1.0006e-06 -2.2576e-06
0.000969612 1.32089e-05 -6.2005e-07
1.32089e-05 3.31238e-05 -1.45096e-06
-6.2005e-07 -1.45096e-06 -2.33562e-05
0.000897645 -1.69038e-05 -7.451e-07
-1.69038e-05 -4.51487e-06 -2.03569e-06
-7.451e-07 -2.03569e-06 -3.83622e-05
0.00096337 1.20077e-05 6.12652e-08
1.20077e-05 3.13617e-05 -4.09636e-08
6.12652e-08 -4.09636e-08 -2.19242e-05
0.000867399 -1.58111e-05 -1.53888e-06
-1.58111e-05 -2.59339e-05 -3.37126e-06
-1.53888e-06 -3.37126e-06 -2.97277e-05
0.000913204 -1.22162e-05 -1.68677e-08
-1.22162e-05 1.25318e-06 -1.95599e-09
-1.68677e-08 -1.95599e-09 -3.02771e-05
0.000949018 1.64116e-05 1.45263e-07
1.64116e-05 2.60334e-05 7.05223e-07
1.45263e-07 7.05223e-07 -2.48651e-05
0.00224892 -1.79351e-05 -1.15114e-05
-1.79351e-05 0.000678368 -4.02455e-06
-1.15114e-05 -4.02455e-06 0.000700092
0.000861056 -1.29931e-05 -9.89321e-08
-1.29931e-05 -3.34232e-05 -2.7724e-08
-9.89321e-08 -2.7724e-08 -3.4952e-05
0.000926908 -8.74227e-06 2.21318e-07
-8.74227e-06 6.37604e-06 1.2548e-06
2.21318e-07 1.2548e-06 -2.30409e-05
0.00218382 -1.32918e-05 -1.07355e-06
-1.32918e-05 0.000640884 3.06735e-08
-1.07355e-06 3.06735e-08 0.000664045
0.000855183 -9.72867e-06 6.92663e-07
-9.72867e-06 -4.04169e-05 3.18215e-06
6.92663e-07 3.18215e-06 -3.9721e-05
0.00213711 -8.5831e-06 5.32279e-06
-8.5831e-06 0.00061395 3.88711e-06
5.32279e-06 3.88711e-06 0.000638166
0.000983856 1.19341e-05 -1.19196e-05
1.19341e-05 9.70048e-05 -1.43357e-06
-1.19196e-05 -1.43357e-06 -2.61436e-05
0.00118108 1.08329e-06 9.99165e-07
1.08329e-06 0.000159056 -6.33411e-07
9.99165e-07 -6.33411e-07 2.71452e-05
0.00135241 -7.84075e-06 -7.64235e-06
-7.84075e-06 0.00032896 -2.08654e-06
-7.64235e-06 -2.08654e-06 0.000218506
0.000975389 1.62914e-05 -8.1433e-08
1.62914e-05 3.86957e-05 1.52263e-08
-8.1433e-08 1.52263e-08 -2.89425e-05
0.00106532 2.34636e-05 3.32507e-08
2.34636e-05 8.54266e-05 2.47914e-07
3.32507e-08 2.47914e-07 1.04098e-05
0.000987373 2.79613e-05 -7.87501e-07
2.79613e-05 4.9851e-05 -1.30069e-06
-7.87501e-07 -1.30069e-06 -2.79175e-05
0.000939422 1.77228e-05 -1.98365e-07
1.77228e-05 2.25707e-05 -1.16829e-06
-1.98365e-07 -1.16829e-06 -5.19303e-05
0.00113383 4.24212e-05 -3.64633e-07
4.24212e-05 0.00012523 -6.62225e-07
-3.64633e-07 -6.62225e-07 4.49433e-05
0.000904781 1.395e-05 1.55606e-07
1.395e-05 4.44286e-06 8.63081e-07
1.55606e-07 8.63081e-07 -6.19572e-05
0.000989013 8.58779e-06 2.54346e-07
8.58779e-06 4.98895e-05 9.05803e-07
2.54346e-07 9.05803e-07 -2.27396e-05
0.00102199 3.48093e-05 -1.2385e-07
3.48093e-05 6.87118e-05 -2.12378e-08
-1.2385e-07 -2.12378e-08 -5.60074e-06
0.00104047 2.68952e-05 3.95277e-07
2.68952e-05 7.76033e-05 4.59929e-07
3.95277e-07 4.59929e-07 -7.64316e-07
0.00108351 2.91297e-05 -2.76486e-07
2.91297e-05 0.000102041 -5.63228e-07
-2.76486e-07 -5.63228e-07 2.23132e-05
0.000986433 2.8726e-06 -8.07443e-06
2.8726e-06 0.000129656 5.15767e-06
-8.07443e-06 5.15767e-06 6.26544e-05
0.000932345 2.78277e-05 2.02003e-07
2.78277e-05 6.33467e-05 -8.15506e-07
2.02003e-07 -8.15506e-07 -4.07637e-05
0.000603374 1.10496e-05 5.77689e-07
1.10496e-05 -0.000172659 -2.68022e-06
5.77689e-07 -2.68022e-06 -0.000299947
0.000991671 -1.57741e-05 7.08409e-06
-1.57741e-05 -0.000327215 4.19171e-06
7.08409e-06 4.19171e-06 -0.000117279
-0.00155857 1.80427e-05 -2.26163e-06
1.80427e-05 -0.00210516 -6.67606e-05
-2.26163e-06 -6.67606e-05 -0.00189868
0.00141726 -0.000235442 -6.80149e-05
-0.000235442 -0.000400799 9.00241e-05
-6.80149e-05 9.00241e-05 -0.000754461
0.00710702 0.000131464 -1.52217e-05
0.000131464 0.00149773 -4.62663e-05
-1.52217e-05 -4.62663e-05 0.0010835
0.00110779 -0.000200875 -3.67648e-05
-0.000200875 -0.000291226 3.0983e-05
-3.67648e-05 3.0983e-05 -0.000675323
0.00756019 -0.0001208 2.60388e-05
-0.0001208 0.00176907 1.8475e-06
2.60388e-05 1.8475e-06 0.00133437
0.00109018 -0.000174785 6.14174e-06
-0.000174785 -0.000733453 -2.14861e-05
6.14174e-06 -2.14861e-05 -0.000620646
7.73216e-05 -8.99034e-05 1.94221e-06
-8.99034e-05 -0.000889454 -2.33953e-06
1.94221e-06 -2.33953e-06 -0.000580421
0.00175714 -7.2444e-05 -2.7569e-05
-7.2444e-05 0.000273804 -5.57813e-05
-2.7569e-05 -5.57813e-05 -0.000148677
0.00712504 -0.000290084 -1.71553e-05
-0.000290084 0.00159621 4.82457e-05
-1.71553e-05 4.82457e-05 0.00107073
0.00570674 -0.000340133 1.70161e-05
-0.000340133 0.00171387 2.50111e-05
1.70161e-05 2.50111e-05 0.00186528
0.00118108 -0.000165114 2.82958e-06
-0.000165114 -0.000105539 1.56457e-06
2.82958e-06 1.56457e-06 0.00033772
0.000946272 2.46737e-05 -7.9558e-07
2.46737e-05 3.95001e-05 -1.32212e-07
-7.9558e-07 -1.32212e-07 -3.70565e-05
0.00109923 2.27352e-06 -1.12839e-07
2.27352e-06 0.000101343 1.36255e-07
-1.12839e-07 1.36255e-07 2.04677e-05
0.0010053 8.11122e-06 2.83259e-07
8.11122e-06 5.8341e-05 3.11761e-07
2.83259e-07 3.11761e-07 -2.24159e-05
0.000985405 -4.27432e-05 2.079e-05
-4.27432e-05 0.000395717 -2.58935e-06
2.079e-05 -2.58935e-06 0.000255218
0.00130155 -1.09359e-05 2.06387e-07
-1.09359e-05 0.000280091 -7.77224e-07
2.06387e-07 -7.77224e-07 0.000241793
0.00102461 1.18694e-05 -9.15956e-08
1.18694e-05 6.09045e-05 1.75325e-06
-9.15956e-08 1.75325e-06 -2.22428e-05
0.000975316 -1.64823e-05 -6.91254e-07
-1.64823e-05 2.77727e-05 2.5028e-06
-6.91254e-07 2.5028e-06 -6.28962e-05
0.00105863 -5.1251e-06 2.95634e-08
-5.1251e-06 8.47919e-05 7.09583e-08
2.95634e-08 7.09583e-08 -5.04944e-06
0.000870588 -3.76513e-05 1.07888e-06
-3.76513e-05 9.13518e-05 2.41202e-06
1.07888e-06 2.41202e-06 -2.80852e-05
-0.000102101 1.7605e-05 2.41135e-06
1.7605e-05 9.57716e-05 -7.72971e-06
2.41135e-06 -7.72971e-06 -0.000207252
0.000408739 1.37344e-05 -1.72871e-06
1.37344e-05 -0.000117305 8.63814e-07
-1.72871e-06 8.63814e-07 -0.000251998
0.00138745 5.38483e-05 6.69504e-06
5.38483e-05 0.000555614 4.88978e-06
6.69504e-06 4.88978e-06 0.000371161
0.00192584 -5.99211e-06 -1.24976e-05
-5.99211e-06 0.00077511 -1.70872e-06
-1.24976e-05 -1.70872e-06 0.000691594
0.00108651 -3.45695e-06 -4.62918e-06
-3.45695e-06 0.000181872 -2.19496e-07
-4.62918e-06 -2.19496e-07 5.25355e-05
0.00097693 -3.35471e-06 4.68992e-07
-3.35471e-06 7.67638e-05 3.37142e-07
4.68992e-07 3.37142e-07 -5.94651e-05
-0.000359353 -3.50979e-06 -9.55407e-06
-3.50979e-06 -6.49136e-05 1.68352e-05
-9.55407e-06 1.68352e-05 -0.000220834
0.000268357 2.6984e-05 3.38984e-05
2.6984e-05 -0.000349032 -5.31318e-05
3.38984e-05 -5.31318e-05 -0.000718469
0.00132746 -1.48356e-05 6.64651e-06
-1.48356e-05 0.00031329 3.18656e-06
6.64651e-06 3.18656e-06 0.000190884
0.00820427 0.000186731 3.60856e-05
0.000186731 0.00209605 -6.10516e-06
3.60856e-05 -6.10516e-06 0.00115817
0.00378398 0.00038179 -3.29952e-05
0.00038179 0.000986367 2.00713e-05
-3.29952e-05 2.00713e-05 0.000960488
0.00133218 -7.90568e-06 1.52583e-05
-7.90568e-06 0.000310876 -3.71474e-06
1.52583e-05 -3.71474e-06 0.00024015
-0.000378847 0.000208147 -1.00348e-05
0.000208147 -0.000892466 1.41704e-05
-1.00348e-05 1.41704e-05 -0.000492043
-8.6622e-05 -2.14325e-05 -5.61108e-06
-2.14325e-05 6.98278e-05 4.54692e-08
-5.61108e-06 4.54692e-08 -0.000150124
0.00122847 -1.42899e-05 5.144e-06
-1.42899e-05 0.000297014 -4.3171e-07
5.144e-06 -4.3171e-07 0.000208841
-0.0011151 8.51862e-05 2.53452e-06
8.51862e-05 -0.00101672 -1.87564e-06
2.53452e-06 -1.87564e-06 -0.000893893
0.00197289 -0.000117981 1.14768e-05
-0.000117981 0.000400658 3.15847e-05
1.14768e-05 3.15847e-05 -4.82634e-06
0.0029049 0.000342441 -3.23852e-06
0.000342441 0.000919006 -1.30019e-06
-3.23852e-06 -1.30019e-06 0.000886216
0.00583722 0.000139253 2.28493e-05
0.000139253 0.00146013 -1.20009e-05
2.28493e-05 -1.20009e-05 0.000275654
0.00146699 -6.37494e-05 8.28615e-06
-6.37494e-05 0.000258927 2.17585e-06
8.28615e-06 2.17585e-06 0.000293384
-0.00102327 1.57109e-05 -2.13182e-06
1.57109e-05 -0.000951233 8.33995e-07
-2.13182e-06 8.33995e-07 -0.000981278
0.00255619 0.000238828 4.30341e-05
0.000238828 0.000966315 -1.56187e-05
4.30341e-05 -1.56187e-05 0.000923817
0.00369823 0.000311385 -2.7985e-05
0.000311385 0.000739721 2.44599e-05
-2.7985e-05 2.44599e-05 -0.000149401
0.00174761 -9.34374e-05 5.04393e-06
-9.34374e-05 0.000183116 4.16716e-05
5.04393e-06 4.16716e-05 -8.75986e-05
0.000641851 -1.18401e-05 -1.44842e-06
-1.18401e-05 0.000151021 3.55564e-06
-1.44842e-06 3.55564e-06 -0.000115307
0.000976446 -0.000100277 9.10976e-07
-0.000100277 0.000214166 -1.98998e-06
9.10976e-07 -1.98998e-06 -5.77181e-05
0.00267915 -0.000180309 2.67957e-07
-0.000180309 0.000786794 1.22933e-06
2.67957e-07 1.22933e-06 0.000593085
0.00010838 -2.67225e-05 -1.46342e-06
-2.67225e-05 -0.000216099 1.86374e-06
-1.46342e-06 1.86374e-06 -0.000430453
0.000843142 -8.68415e-05 1.03505e-06
-8.68415e-05 4.20498e-05 -2.954e-08
1.03505e-06 -2.954e-08 -0.000148695
0.00129306 -0.000115288 7.39074e-09
-0.000115288 0.000127265 1.48254e-06
7.39074e-09 1.48254e-06 -1.82069e-05
0.00136201 -8.31279e-05 -1.67455e-06
-8.31279e-05 0.000262948 1.99266e-08
-1.67455e-06 1.99266e-08 0.00010445
0.00122255 -9.23347e-05 -1.01237e-06
-9.23347e-05 0.000138267 -7.38688e-07
-1.01237e-06 -7.38688e-07 -1.05577e-05
0.00157724 -0.000102563 -1.08722e-06
-0.000102563 0.000233306 -2.68876e-07
-1.08722e-06 -2.68876e-07 0.000115893
0.00142326 -8.81668e-05 -2.67158e-07
-8.81668e-05 0.000245179 -1.04521e-06
-2.67158e-07 -1.04521e-06 0.00011617
0.00126828 -8.51259e-05 3.18938e-07
-8.51259e-05 0.000137253 -9.28372e-07
3.18938e-07 -9.28372e-07 1.19453e-05
0.00143019 -8.38295e-05 -1.54812e-06
-8.38295e-05 0.000153617 -1.68737e-06
-1.54812e-06 -1.68737e-06 4.82073e-05
0.00132167 -7.54954e-05 -1.37529e-06
-7.54954e-05 8.37394e-05 -9.75152e-07
-1.37529e-06 -9.75152e-07 -9.68453e-06
0.00113674 -7.33343e-05 -1.34876e-06
-7.33343e-05 6.16847e-05 1.01021e-06
-1.34876e-06 1.01021e-06 -3.98387e-05
0.0012483 -7.86432e-05 3.33896e-07
-7.86432e-05 9.93524e-05 -8.8366e-07
3.33896e-07 -8.8366e-07 -9.31009e-06
0.00125515 -7.1669e-05 -8.82437e-07
-7.1669e-05 0.000160288 1.98042e-06
-8.82437e-07 1.98042e-06 7.14631e-05
0.00124422 -7.56798e-05 -2.49053e-07
-7.56798e-05 0.000143951 5.34469e-07
-2.49053e-07 5.34469e-07 4.29799e-05
0.00128779 -8.17982e-05 8.035e-07
-8.17982e-05 0.000157479 -1.71472e-06
8.035e-07 -1.71472e-06 4.24766e-05
0.00100907 -5.80617e-05 -3.57835e-07
-5.80617e-05 6.22891e-05 -5.19011e-07
-3.57835e-07 -5.19011e-07 -1.46864e-05
0.000874412 -5.7993e-05 -1.87571e-07
-5.7993e-05 -8.27923e-06 -7.4705e-07
-1.87571e-07 -7.4705e-07 -8.93488e-05
0.00110743 -6.69513e-05 2.22578e-06
-6.69513e-05 0.000103422 -2.10027e-06
2.22578e-06 -2.10027e-06 1.46846e-05
0.000954 -1.94845e-05 -5.92174e-07
-1.94845e-05 4.35633e-05 8.25817e-07
-5.92174e-07 8.25817e-07 -2.59338e-05
0.00104025 -5.31749e-05 1.57814e-07
-5.31749e-05 8.71555e-05 3.19778e-07
1.57814e-07 3.19778e-07 8.65923e-06
0.00108913 -6.13378e-05 5.14677e-07
-6.13378e-05 0.000109962 5.06283e-07
5.14677e-07 5.06283e-07 2.82859e-05
0.000870071 3.15167e-05 -1.83412e-06
3.15167e-05 -5.64921e-07 2.10871e-06
-1.83412e-06 2.10871e-06 -4.73272e-05
0.000970561 -2.50192e-06 -6.65714e-08
-2.50192e-06 4.95676e-05 8.29425e-09
-6.65714e-08 8.29425e-09 -1.70653e-05
0.000971934 -4.03727e-05 1.32999e-07
-4.03727e-05 5.86294e-05 -1.70889e-07
1.32999e-07 -1.70889e-07 -1.74598e-05
0.00148015 2.93385e-05 -1.05295e-05
2.93385e-05 0.000310036 3.26752e-06
-1.05295e-05 3.26752e-06 0.000302191
0.000885317 1.58675e-05 9.58963e-08
1.58675e-05 1.72239e-06 -3.65323e-08
9.58963e-08 -3.65323e-08 -4.00889e-05
0.000982661 -7.43795e-06 8.53644e-07
-7.43795e-06 4.98331e-05 -1.04828e-06
8.53644e-07 -1.04828e-06 -1.24422e-05
0.00103429 2.2049e-05 -1.56522e-05
2.2049e-05 7.85149e-05 3.80362e-06
-1.56522e-05 3.80362e-06 8.87274e-05
0.00116991 2.533e-05 -3.8714e-06
2.533e-05 0.000145821 4.92158e-07
-3.8714e-06 4.92158e-07 0.000138573
0.000885023 2.08097e-05 1.37404e-06
2.08097e-05 -7.39674e-07 -2.10511e-06
1.37404e-06 -2.10511e-06 -3.90089e-05
0.000852218 2.11353e-05 2.49124e-06
2.11353e-05 -2.27665e-05 -3.35608e-06
2.49124e-06 -3.35608e-06 -2.91874e-05
0.00232171 3.04622e-05 5.59695e-07
3.04622e-05 0.000731781 4.75404e-08
5.59695e-07 4.75404e-08 0.000749952
0.00227724 2.6339e-05 1.58805e-05
2.6339e-05 0.00070373 -3.8162e-06
1.58805e-05 -3.8162e-06 0.000723249
0.000978123 2.39995e-05 -7.98046e-07
2.39995e-05 4.32436e-05 -1.32658e-06
-7.98046e-07 -1.32658e-06 -2.93396e-05
0.000979036 7.30756e-07 -5.91815e-07
7.30756e-07 3.75668e-05 -1.62644e-06
-5.91815e-07 -1.62644e-06 -2.16423e-05
0.00101358 1.84118e-05 -1.08862e-07
1.84118e-05 5.77795e-05 7.87722e-09
-1.08862e-07 7.87722e-09 -1.16066e-05
0.000889522 -2.12942e-05 -9.11803e-07
-2.12942e-05 -6.36372e-06 -2.22501e-06
-9.11803e-07 -2.22501e-06 -4.23838e-05
0.000972375 6.05863e-06 2.89852e-07
6.05863e-06 3.43399e-05 -7.00516e-08
2.89852e-07 -7.00516e-08 -2.18245e-05
0.000856232 -1.81217e-05 -1.9852e-06
-1.81217e-05 -2.72094e-05 -3.44917e-06
-1.9852e-06 -3.44917e-06 -3.29201e-05
0.000905066 -1.32692e-05 -2.48889e-07
-1.32692e-05 -7.97014e-07 -7.85954e-10
-2.48889e-07 -7.85954e-10 -3.45796e-05
0.000973919 1.57504e-05 6.61434e-07
1.57504e-05 3.74672e-05 1.38578e-06
6.61434e-07 1.38578e-06 -1.63969e-05
0.00230875 -2.22817e-05 -1.40138e-05
-2.22817e-05 0.000713326 -4.02416e-06
-1.40138e-05 -4.02416e-06 0.000733705
0.000850057 -1.56845e-05 -1.5758e-07
-1.56845e-05 -3.46179e-05 -1.29847e-08
-1.5758e-07 -1.29847e-08 -3.83148e-05
0.000922189 -1.15437e-05 6.12819e-07
-1.15437e-05 6.00216e-06 1.87577e-06
6.12819e-07 1.87577e-06 -2.55416e-05
0.00224259 -1.78684e-05 -9.38313e-07
-1.78684e-05 0.000674641 3.84035e-08
-9.38313e-07 3.84035e-08 0.000696557
0.000843686 -1.28835e-05 9.35367e-07
-1.28835e-05 -4.21543e-05 3.28709e-06
9.35367e-07 3.28709e-06 -4.35705e-05
0.00218031 -1.31401e-05 7.95491e-06
-1.31401e-05 0.000638679 3.89862e-06
7.95491e-06 3.89862e-06 0.000661995
0.000612341 6.74027e-06 -1.03073e-05
6.74027e-06 -8.68853e-06 -4.40995e-06
-1.03073e-05 -4.40995e-06 -9.15698e-05
0.00095114 9.93423e-06 -1.47637e-06
9.93423e-06 7.75907e-05 -1.31028e-06
-1.47637e-06 -1.31028e-06 -4.66204e-05
0.00103999 8.31734e-07 -3.99147e-07
8.31734e-07 7.99375e-05 -3.7189e-06
-3.99147e-07 -3.7189e-06 -5.35073e-05
0.00103952 4.76235e-05 -8.96261e-07
4.76235e-05 8.03996e-05 -2.94908e-07
-8.96261e-07 -2.94908e-07 1.41103e-06
0.00102305 1.59263e-05 2.63255e-07
1.59263e-05 6.34115e-05 9.46895e-07
2.63255e-07 9.46895e-07 -4.09548e-06
0.00101455 2.28489e-05 3.21697e-07
2.28489e-05 5.91302e-05 1.13009e-06
3.21697e-07 1.13009e-06 -1.64186e-05
0.00103602 1.75869e-05 7.24244e-08
1.75869e-05 7.18363e-05 -2.25093e-07
7.24244e-08 -2.25093e-07 -2.13433e-06
0.00104022 3.71949e-05 -1.34016e-07
3.71949e-05 7.77789e-05 -1.46254e-07
-1.34016e-07 -1.46254e-07 -2.4023e-07
0.001051 3.99344e-05 9.76225e-08
3.99344e-05 8.24826e-05 3.94924e-07
9.76225e-08 3.94924e-07 2.41617e-06
0.0010497 4.95814e-05 -1.03091e-06
4.95814e-05 8.43419e-05 -1.28551e-06
-1.03091e-06 -1.28551e-06 1.3696e-06
0.000942012 3.77176e-05 -3.52936e-07
3.77176e-05 3.10454e-05 -1.03695e-06
-3.52936e-07 -1.03695e-06 -5.01778e-05
0.00101302 4.41638e-05 5.63208e-07
4.41638e-05 6.53637e-05 6.19457e-07
5.63208e-07 6.19457e-07 -9.44196e-06
0.000998915 3.7393e-06 3.85598e-07
3.7393e-06 5.40458e-05 7.51139e-07
3.85598e-07 7.51139e-07 -2.29999e-05
0.001063 3.03314e-05 -1.0657e-07
3.03314e-05 9.20749e-05 -3.54646e-09
-1.0657e-07 -3.54646e-09 1.22294e-05
0.00149592 3.58088e-05 1.2011e-06
3.58088e-05 0.000307212 -9.21675e-07
1.2011e-06 -9.21675e-07 0.00022463
0.00200982 -8.17938e-05 6.23212e-06
-8.17938e-05 0.000737639 5.29376e-06
6.23212e-06 5.29376e-06 0.000889204
0.000771551 7.60842e-06 1.7505e-06
7.60842e-06 -6.67448e-06 3.2435e-06
1.7505e-06 3.2435e-06 -7.27623e-05
0.000897342 2.81185e-05 1.26083e-05
2.81185e-05 4.25499e-05 6.5629e-07
1.26083e-05 6.5629e-07 -6.08506e-05
0.00151027 -0.000109791 4.78152e-07
-0.000109791 -5.81546e-05 -6.76357e-06
4.78152e-07 -6.76357e-06 0.000258157
0.00317311 -0.00023447 -2.59573e-06
-0.00023447 4.92636e-06 -9.23728e-05
-2.59573e-06 -9.23728e-05 0.000117775
0.00318156 5.44064e-05 -2.7692e-05
5.44064e-05 -0.000553518 0.000104538
-2.7692e-05 0.000104538 -0.000824208
0.000960129 -0.000193757 -5.89584e-05
-0.000193757 -5.7834e-05 6.92879e-05
-5.89584e-05 6.92879e-05 -0.000319341
0.00215178 -5.60221e-05 -1.72887e-05
-5.60221e-05 0.000700618 3.28119e-06
-1.72887e-05 3.28119e-06 0.000434674
0.00035319 -0.000168822 -8.25111e-07
-0.000168822 -0.000477901 -1.65287e-06
-8.25111e-07 -1.65287e-06 -7.62063e-05
0.00524982 -8.82288e-05 1.4761e-05
-8.82288e-05 0.00063762 5.3238e-05
1.4761e-05 5.3238e-05 -9.28381e-05
-0.000617233 -0.000208852 -6.55106e-06
-0.000208852 -0.000953408 -1.17467e-05
-6.55106e-06 -1.17467e-05 -0.00080519
0.00244363 0.000133086 -5.99117e-05
0.000133086 0.000627274 -5.01843e-05
-5.99117e-05 -5.01843e-05 0.000401245
0.00703988 -0.000252861 4.00474e-06
-0.000252861 0.00202773 3.50689e-05
4.00474e-06 3.50689e-05 0.00127815
-0.000128537 -0.000188168 3.33058e-05
-0.000188168 -0.000100186 2.01133e-05
3.33058e-05 2.01133e-05 3.0406e-06
0.000818549 7.0543e-05 -3.37422e-06
7.0543e-05 1.31548e-06 -2.18265e-06
-3.37422e-06 -2.18265e-06 -7.21521e-05
0.00116397 2.888e-05 2.12258e-06
2.888e-05 0.000141093 2.63614e-07
2.12258e-06 2.63614e-07 6.53941e-05
0.00106189 1.4911e-05 -2.35063e-07
1.4911e-05 8.742e-05 1.31887e-07
-2.35063e-07 1.31887e-07 5.22313e-06
-0.00053167 1.07677e-05 -5.75541e-06
1.07677e-05 -0.00017106 -1.63549e-05
-5.75541e-06 -1.63549e-05 -0.000470375
0.000335474 -2.58258e-05 -1.10559e-06
-2.58258e-05 -0.000162547 1.80488e-06
-1.10559e-06 1.80488e-06 -0.000292128
0.000896007 8.01432e-06 2.33814e-06
8.01432e-06 7.98643e-06 3.78107e-06
2.33814e-06 3.78107e-06 -8.14699e-05
0.00102647 3.56985e-05 9.81821e-08
3.56985e-05 0.000169419 2.17806e-07
9.81821e-08 2.17806e-07 3.74851e-05
0.000797146 2.84297e-05 1.34429e-06
2.84297e-05 0.000266367 -2.11462e-06
1.34429e-06 -2.11462e-06 9.87173e-05
-0.00113611 5.22672e-05 -8.89924e-07
5.22672e-05 -0.000763466 1.50713e-05
-8.89924e-07 1.50713e-05 -0.000931156
0.00264758 -1.94761e-05 -5.16234e-06
-1.94761e-05 0.00120257 -1.94103e-07
-5.16234e-06 -1.94103e-07 0.00120266
0.000919688 -4.15232e-06 -5.52288e-07
-4.15232e-06 0.000160843 -1.29939e-06
-5.52288e-07 -1.29939e-06 6.8044e-05
0.000666122 -3.97309e-06 4.81513e-06
-3.97309e-06 -8.78227e-05 3.06818e-07
4.81513e-06 3.06818e-07 -0.000222084
0.000165458 -2.7657e-05 8.14271e-06
-2.7657e-05 0.000198807 1.31597e-05
8.14271e-06 1.31597e-05 -2.84373e-05
0.00115326 -9.30446e-05 -6.5921e-06
-9.30446e-05 7.49131e-05 -4.77221e-05
-6.5921e-06 -4.77221e-05 -0.000234701
0.00122743 -1.51808e-05 1.94672e-05
-1.51808e-05 0.000293884 -2.92701e-06
1.94672e-05 -2.92701e-06 0.000207509
0.0016479 0.00015073 -2.7462e-05
0.00015073 -0.000169713 2.88422e-05
-2.7462e-05 2.88422e-05 -0.00122536
-0.00149109 0.000233965 -5.52364e-05
0.000233965 -0.0010155 2.94177e-05
-5.52364e-05 2.94177e-05 -0.000989949
0.00124495 0.000107814 -4.97787e-06
0.000107814 0.000313775 3.94273e-06
-4.97787e-06 3.94273e-06 0.000501436
0.00162414 -7.69947e-05 5.27244e-06
-7.69947e-05 0.000374427 1.9913e-06
5.27244e-06 1.9913e-06 0.000377842
0.00124984 3.02794e-05 -1.98916e-06
3.02794e-05 0.000351332 6.23784e-08
-1.98916e-06 6.23784e-08 0.000376024
-0.00198761 0.000126038 -5.12286e-06
0.000126038 -0.000976944 3.28481e-06
-5.12286e-06 3.28481e-06 -0.000991125
0.00331336 -0.000156722 -1.18808e-05
-0.000156722 0.000646404 2.06794e-05
-1.18808e-05 2.06794e-05 0.000220621
0.00512812 0.000265405 -7.10497e-06
0.000265405 0.00136869 3.48454e-06
-7.10497e-06 3.48454e-06 0.000517918
0.000764592 -0.000103387 4.49441e-06
-0.000103387 -0.000272454 7.77978e-06
4.49441e-06 7.77978e-06 -0.000216953
-0.00274392 5.50929e-05 5.43228e-05
5.50929e-05 -0.00170958 -1.51774e-05
5.43228e-05 -1.51774e-05 -0.001695
0.00522299 0.000255676 1.05913e-05
0.000255676 0.00150599 -3.00083e-06
1.05913e-05 -3.00083e-06 0.000830082
0.00341665 7.60702e-06 -1.34995e-05
7.60702e-06 0.000584583 3.03349e-05
-1.34995e-05 3.03349e-05 0.000290651
0.000556596 -8.9422e-05 -2.25036e-06
-8.9422e-05 3.84639e-05 -1.57589e-06
-2.25036e-06 -1.57589e-06 -0.000265292
0.00112611 -0.000137856 4.9691e-07
-0.000137856 6.54566e-05 9.3614e-07
4.9691e-07 9.3614e-07 -0.000134753
0.00171758 -0.00016852 -2.77976e-06
-0.00016852 0.000196714 2.88032e-06
-2.77976e-06 2.88032e-06 7.0705e-05
0.000316104 -7.16534e-05 -1.4647e-06
-7.16534e-05 -0.000208269 -1.63581e-06
-1.4647e-06 -1.63581e-06 -0.000404891
0.00123393 -0.000112897 -9.65442e-07
-0.000112897 9.18476e-05 -1.2314e-06
-9.65442e-07 -1.2314e-06 -5.28271e-05
0.00201118 -0.000121795 -5.92511e-06
-0.000121795 0.000327689 -1.06141e-06
-5.92511e-06 -1.06141e-06 0.000232869
0.00122962 -9.12651e-05 -6.9334e-07
-9.12651e-05 0.000137559 -2.46e-06
-6.9334e-07 -2.46e-06 -6.94625e-06
0.00130758 -9.4745e-05 8.69575e-07
-9.4745e-05 0.000102843 -8.72778e-07
8.69575e-07 -8.72778e-07 -1.33005e-05
0.0017083 -8.89377e-05 -1.84343e-06
-8.89377e-05 0.000213604 -2.52305e-06
-1.84343e-06 -2.52305e-06 0.000133143
0.00119731 -8.18562e-05 -4.52667e-08
-8.18562e-05 9.97312e-05 -1.4081e-06
-4.52667e-08 -1.4081e-06 -2.30089e-05
0.00126297 -7.87079e-05 -2.97818e-07
-7.87079e-05 6.55409e-05 -6.69833e-07
-2.97818e-07 -6.69833e-07 -3.81904e-05
0.00144449 -7.31584e-05 -1.25078e-06
-7.31584e-05 8.95619e-05 -2.18198e-06
-1.25078e-06 -2.18198e-06 1.55073e-05
0.00141081 -6.87554e-05 -1.31396e-06
-6.87554e-05 9.29218e-05 -1.3857e-06
-1.31396e-06 -1.3857e-06 2.05862e-05
0.00130772 -7.46578e-05 -1.76456e-06
-7.46578e-05 9.90819e-05 -2.84832e-07
-1.76456e-06 -2.84832e-07 6.7959e-06
0.00130634 -7.33445e-05 6.0961e-07
-7.33445e-05 7.62903e-05 1.80631e-07
6.0961e-07 1.80631e-07 -1.52561e-05
0.000833024 -6.1827e-05 -1.27955e-06
-6.1827e-05 -7.4529e-05 1.49085e-06
-1.27955e-06 1.49085e-06 -0.000166654
0.00126233 -7.60365e-05 7.476e-07
-7.60365e-05 0.000124109 -7.39093e-07
7.476e-07 -7.39093e-07 2.37043e-05
0.00114706 -7.52982e-05 1.48124e-06
-7.52982e-05 4.75135e-05 -1.38584e-06
1.48124e-06 -1.38584e-06 -6.00115e-05
0.00104835 -6.24262e-05 -2.80145e-07
-6.24262e-05 7.26142e-05 8.11941e-07
-2.80145e-07 8.11941e-07 -6.87275e-06
0.00103717 -6.55913e-05 2.86144e-07
-6.55913e-05 5.54057e-05 -1.54774e-07
2.86144e-07 -1.54774e-07 -3.35306e-05
0.000962125 -6.83631e-05 8.50909e-07
-6.83631e-05 5.90333e-06 -1.8819e-06
8.50909e-07 -1.8819e-06 -9.68824e-05
0.000994578 -4.09324e-05 -1.24899e-06
-4.09324e-05 6.01143e-05 2.04095e-07
-1.24899e-06 2.04095e-07 -9.89815e-06
0.00105597 -5.89558e-05 -1.98539e-07
-5.89558e-05 8.44632e-05 -2.88502e-07
-1.98539e-07 -2.88502e-07 7.45459e-06
0.000965456 -6.02692e-05 1.15946e-08
-6.02692e-05 3.78187e-05 -1.15957e-06
1.15946e-08 -1.15957e-06 -4.23113e-05
0.000902996 8.25222e-06 -2.07366e-06
8.25222e-06 2.26376e-05 2.05e-06
-2.07366e-06 2.05e-06 -2.85184e-05
0.000989174 -2.10661e-05 3.76402e-07
-2.10661e-05 6.03133e-05 2.36474e-07
3.76402e-07 2.36474e-07 -9.06573e-06
0.000975379 -5.02588e-05 6.99599e-07
-5.02588e-05 5.57096e-05 4.37809e-07
6.99599e-07 4.37809e-07 -2.24688e-05
0.000776156 2.7887e-05 -3.94538e-06
2.7887e-05 -4.37187e-05 3.49785e-06
-3.94538e-06 3.49785e-06 -5.77205e-05
0.000883583 1.14133e-05 -2.02531e-07
1.14133e-05 4.84887e-06 -6.13902e-08
-2.02531e-07 -6.13902e-08 -4.12227e-05
0.00101294 -5.52879e-06 6.82066e-07
-5.52879e-06 7.03527e-05 -1.05887e-06
6.82066e-07 -1.05887e-06 3.59123e-06
0.00241522 4.25952e-05 -7.94134e-06
4.25952e-05 0.000793013 1.55626e-06
-7.94134e-06 1.55626e-06 0.000807278
0.000797496 2.53532e-05 1.66289e-07
2.53532e-05 -3.87963e-05 3.22267e-08
1.66289e-07 3.22267e-08 -5.04865e-05
0.000888602 1.46083e-05 2.18012e-06
1.46083e-05 3.80449e-06 -2.0802e-06
2.18012e-06 -2.0802e-06 -3.8227e-05
0.00238853 3.44589e-05 4.99718e-07
3.44589e-05 0.000771745 4.57026e-08
4.99718e-07 4.57026e-08 0.000788301
0.000838525 2.36135e-05 3.05894e-06
2.36135e-05 -2.36462e-05 -3.46753e-06
3.05894e-06 -3.46753e-06 -3.27435e-05
0.00232891 3.04005e-05 1.80657e-05
3.04005e-05 0.000736207 -3.83378e-06
1.80657e-05 -3.83378e-06 0.000754168
0.00107673 4.29843e-05 -6.88578e-07
4.29843e-05 9.75554e-05 -3.17678e-07
-6.88578e-07 -3.17678e-07 2.34255e-05
0.00100029 2.33412e-05 -1.11651e-07
2.33412e-05 5.47152e-05 -2.29469e-07
-1.11651e-07 -2.29469e-07 -1.76478e-05
0.000977209 1.53407e-06 -9.07617e-07
1.53407e-06 4.21284e-05 -1.64625e-06
-9.07617e-07 -1.64625e-06 -2.12715e-05
0.000884838 -1.94196e-05 -1.41658e-06
-1.94196e-05 -5.84581e-06 -2.44938e-06
-1.41658e-06 -2.44938e-06 -4.43006e-05
0.000972648 -8.03674e-07 1.05791e-07
-8.03674e-07 3.50068e-05 -1.19047e-08
1.05791e-07 -1.19047e-08 -2.42464e-05
0.00098889 2.23506e-05 5.51028e-07
2.23506e-05 4.59817e-05 1.14362e-06
5.51028e-07 1.14362e-06 -2.43594e-05
0.000845401 -2.02806e-05 -2.56344e-06
-2.02806e-05 -2.86814e-05 -3.52672e-06
-2.56344e-06 -3.52672e-06 -3.59975e-05
0.000896309 -1.68528e-05 -1.62628e-07
-1.68528e-05 -3.46985e-06 -1.24001e-08
-1.62628e-07 -1.24001e-08 -3.9244e-05
0.000971001 -3.08279e-07 5.78905e-07
-3.08279e-07 3.33863e-05 1.46651e-06
5.78905e-07 1.46651e-06 -2.24148e-05
0.00235413 -2.64339e-05 -1.63484e-05
-2.64339e-05 0.000741301 -4.00632e-06
-1.63484e-05 -4.00632e-06 0.000760389
0.000839165 -1.79542e-05 -1.32261e-07
-1.79542e-05 -3.57328e-05 -1.14463e-08
-1.32261e-07 -1.14463e-08 -4.13594e-05
0.000911994 -1.2391e-05 8.27531e-07
-1.2391e-05 2.51362e-06 1.96104e-06
8.27531e-07 1.96104e-06 -3.1147e-05
0.00230538 -2.22898e-05 -9.13729e-07
-2.22898e-05 0.000711075 4.78978e-08
-9.13729e-07 4.78978e-08 0.000731618
0.000831722 -1.55517e-05 1.23796e-06
-1.55517e-05 -4.37934e-05 3.39878e-06
1.23796e-06 3.39878e-06 -4.73911e-05
0.00223585 -1.77439e-05 1.03492e-05
-1.77439e-05 0.000670702 3.92267e-06
1.03492e-05 3.92267e-06 0.000692815
0.000313727 -2.65167e-05 1.30909e-06
-2.65167e-05 -0.000120157 8.46078e-08
1.30909e-06 8.46078e-08 -0.000138107
0.000556404 9.08015e-06 -7.64896e-07
9.08015e-06 -4.45123e-05 -8.49117e-07
-7.64896e-07 -8.49117e-07 -0.000127267
0.00091379 7.89964e-06 1.04578e-05
7.89964e-06 5.51966e-05 -1.48157e-06
1.04578e-05 -1.48157e-06 -6.99984e-05
0.0010241 4.4857e-05 -2.00713e-08
4.4857e-05 7.1997e-05 2.40863e-07
-2.00713e-08 2.40863e-07 -7.12597e-06
0.00116487 6.02812e-05 -8.03043e-07
6.02812e-05 0.000148047 2.18117e-07
-8.03043e-07 2.18117e-07 6.9374e-05
0.00105873 5.43064e-05 -8.17749e-07
5.43064e-05 8.85342e-05 -3.68238e-07
-8.17749e-07 -3.68238e-07 6.6716e-06
0.00111701 1.4244e-05 -1.10517e-08
1.4244e-05 0.000113019 4.03338e-07
-1.10517e-08 4.03338e-07 3.98594e-05
0.00110167 3.86682e-05 5.20027e-07
3.86682e-05 0.000108955 8.76439e-07
5.20027e-07 8.76439e-07 3.14391e-05
0.000979743 2.76797e-05 2.25157e-07
2.76797e-05 4.38906e-05 1.40085e-06
2.25157e-07 1.40085e-06 -3.50097e-05
0.000982136 3.28084e-05 -1.92738e-07
3.28084e-05 5.01746e-05 4.59241e-08
-1.92738e-07 4.59241e-08 -3.05554e-05
0.00105278 4.23649e-05 1.32843e-07
4.23649e-05 8.47485e-05 4.60859e-08
1.32843e-07 4.60859e-08 2.59631e-06
0.00107427 4.72011e-05 -1.04661e-06
4.72011e-05 0.000107434 -1.43413e-06
-1.04661e-06 -1.43413e-06 2.01702e-05
0.000891785 4.05292e-05 -1.08584e-06
4.05292e-05 9.98261e-06 -2.20125e-06
-1.08584e-06 -2.20125e-06 -7.38446e-05
0.00105287 3.99375e-05 1.83522e-07
3.99375e-05 8.82564e-05 4.11119e-07
1.83522e-07 4.11119e-07 7.57876e-06
0.0012232 3.79636e-05 2.87202e-07
3.79636e-05 0.000174562 -2.62906e-08
2.87202e-07 -2.62906e-08 9.1786e-05
-0.00292348 -0.000110417 4.22714e-05
-0.000110417 -0.00156292 2.47637e-05
4.22714e-05 2.47637e-05 -0.0015725
0.00108677 -8.19035e-05 -4.61579e-08
-8.19035e-05 0.000226031 -3.71817e-07
-4.61579e-08 -3.71817e-07 0.000361568
0.000589553 1.24514e-05 9.8412e-06
1.24514e-05 -0.000124616 1.55919e-06
9.8412e-06 1.55919e-06 -0.000190212
-0.000350332 -0.000170614 -4.6811e-07
-0.000170614 -0.00079407 -8.67951e-06
-4.6811e-07 -8.67951e-06 -0.000428637
0.00393158 -0.000315509 -1.60665e-05
-0.000315509 0.00104211 -5.4032e-05
-1.60665e-05 -5.4032e-05 0.00117777
0.00511747 -8.84914e-05 3.79004e-05
-8.84914e-05 0.000788104 2.94313e-05
3.79004e-05 2.94313e-05 0.000273743
0.00075774 -4.98571e-05 -3.10978e-05
-4.98571e-05 -5.68488e-05 6.83193e-05
-3.10978e-05 6.83193e-05 -0.000602076
0.00199483 0.000114942 -3.70345e-05
0.000114942 0.00022919 -2.81433e-05
-3.70345e-05 -2.81433e-05 -0.000173303
0.00261892 -0.000277179 -1.26846e-06
-0.000277179 0.000795579 -1.02251e-06
-1.26846e-06 -1.02251e-06 0.000838137
0.00310932 -0.000103183 3.23263e-05
-0.000103183 0.000112532 4.41126e-05
3.23263e-05 4.41126e-05 -0.000647674
0.00152442 0.000140279 -7.25744e-05
0.000140279 -5.60569e-05 -8.64423e-05
-7.25744e-05 -8.64423e-05 -0.000485283
0.00316486 -1.2832e-05 -3.75806e-05
-1.2832e-05 0.000474903 -9.35317e-06
-3.75806e-05 -9.35317e-06 -0.000314503
0.00224546 0.000152855 7.69424e-06
0.000152855 0.000677479 -6.97908e-06
7.69424e-06 -6.97908e-06 0.000537954
0.000904346 7.10195e-05 -4.37229e-07
7.10195e-05 3.27612e-05 -4.61448e-07
-4.37229e-07 -4.61448e-07 -3.84962e-05
0.00133488 3.70073e-05 1.65523e-06
3.70073e-05 0.000221115 -5.94307e-08
1.65523e-06 -5.94307e-08 0.000145293
-0.000366885 -1.14462e-05 -1.28591e-05
-1.14462e-05 -0.000279674 -6.39183e-06
-1.28591e-05 -6.39183e-06 -0.000436933
0.00163259 5.59684e-05 2.073e-06
5.59684e-05 0.000449095 -6.56548e-07
2.073e-06 -6.56548e-07 0.000319523
0.000907858 0.000109376 5.98901e-06
0.000109376 0.000155825 1.59177e-06
5.98901e-06 1.59177e-06 1.65396e-05
3.00437e-05 0.000112774 2.12439e-05
0.000112774 -0.000411156 2.00161e-05
2.12439e-05 2.00161e-05 -0.000540366
-0.00092523 -2.2865e-05 7.0324e-05
-2.2865e-05 -0.000724755 -5.30818e-06
7.0324e-05 -5.30818e-06 -0.000691408
0.000702804 -1.19702e-05 -8.23716e-06
-1.19702e-05 7.78332e-05 4.98324e-07
-8.23716e-06 4.98324e-07 5.46587e-05
-0.000210843 -2.53582e-06 1.49795e-05
-2.53582e-06 -0.000531101 -1.04608e-06
1.49795e-05 -1.04608e-06 -0.00063306
0.00186436 -7.91622e-05 -3.04502e-05
-7.91622e-05 0.000572057 8.16746e-07
-3.04502e-05 8.16746e-07 0.000496932
0.00138411 -0.000116437 -3.83635e-05
-0.000116437 -0.000118061 -5.85796e-06
-3.83635e-05 -5.85796e-06 -0.000314359
0.00103661 1.67984e-05 -5.23639e-06
1.67984e-05 0.000229585 -2.01225e-06
-5.23639e-06 -2.01225e-06 0.000231742
0.00236766 0.000247831 1.45382e-05
0.000247831 0.00022116 -2.87066e-05
1.45382e-05 -2.87066e-05 -0.000705296
0.00414751 0.000198073 -9.679e-05
0.000198073 0.0018392 2.31446e-05
-9.679e-05 2.31446e-05 0.00178001
0.00156013 -0.000123246 1.20329e-05
-0.000123246 0.000134561 -8.74989e-07
1.20329e-05 -8.74989e-07 0.000161782
-0.000184049 9.2131e-05 -3.02584e-05
9.2131e-05 -0.00034723 3.02015e-06
-3.02584e-05 3.02015e-06 -0.000410891
0.00322812 0.000166251 -7.07442e-06
0.000166251 0.000621403 7.21541e-06
-7.07442e-06 7.21541e-06 -0.000228003
0.00124628 2.21496e-05 -7.3975e-06
2.21496e-05 -0.000279272 3.85507e-06
-7.3975e-06 3.85507e-06 -0.000326626
0.000152768 -8.29026e-05 6.64042e-07
-8.29026e-05 -0.000623099 6.34313e-06
6.64042e-07 6.34313e-06 -0.000544708
0.00485985 9.34792e-05 1.86458e-05
9.34792e-05 0.00138602 6.85924e-06
1.86458e-05 6.85924e-06 0.000708669
0.0015123 7.6664e-05 -1.4979e-06
7.6664e-05 0.000222789 -1.49627e-06
-1.4979e-06 -1.49627e-06 -3.5646e-05
-0.000586513 -9.37394e-05 1.39926e-06
-9.37394e-05 -0.000729441 -6.49197e-06
1.39926e-06 -6.49197e-06 -0.000939638
0.00155459 -0.000160131 -2.08208e-07
-0.000160131 0.000142675 -5.20702e-07
-2.08208e-07 -5.20702e-07 1.13478e-05
0.00119675 -0.000139778 -1.57916e-05
-0.000139778 -0.00023709 9.20843e-06
-1.57916e-05 9.20843e-06 -0.000315863
0.00123472 -0.000111771 -2.04722e-06
-0.000111771 8.40879e-05 -2.90885e-06
-2.04722e-06 -2.90885e-06 -5.88313e-05
0.00148422 -0.000110899 -2.27366e-06
-0.000110899 6.52851e-05 6.92768e-07
-2.27366e-06 6.92768e-07 -2.75073e-05
0.00213847 -9.70403e-05 -6.83964e-06
-9.70403e-05 0.000291515 3.37908e-06
-6.83964e-06 3.37908e-06 0.000249433
0.00110683 -8.84826e-05 2.1078e-06
-8.84826e-05 7.58992e-06 -8.66303e-07
2.1078e-06 -8.66303e-07 -0.000106934
0.00141537 -8.24653e-05 -4.17309e-07
-8.24653e-05 6.34458e-05 -4.05542e-07
-4.17309e-07 -4.05542e-07 -1.5269e-05
0.00163016 -7.19466e-05 -1.19021e-06
-7.19466e-05 9.29571e-05 -2.97337e-07
-1.19021e-06 -2.97337e-07 4.8505e-05
0.00109452 -7.3791e-05 1.62927e-06
-7.3791e-05 -2.29805e-05 -7.46923e-08
1.62927e-06 -7.46923e-08 -0.000125035
0.00133466 -7.06611e-05 1.69751e-07
-7.06611e-05 3.2973e-05 2.49519e-07
1.69751e-07 2.49519e-07 -4.0404e-05
0.00136084 -6.34426e-05 -5.43992e-07
-6.34426e-05 1.39294e-05 -4.03003e-07
-5.43992e-07 -4.03003e-07 -3.94622e-05
0.00161281 -6.38179e-05 -5.20051e-07
-6.38179e-05 0.000175712 -3.61173e-07
-5.20051e-07 -3.61173e-07 0.000115029
0.0013985 -6.70355e-05 -6.70905e-07
-6.70355e-05 8.647e-05 1.30678e-06
-6.70905e-07 1.30678e-06 1.61609e-05
0.00135073 -6.75556e-05 -7.6421e-07
-6.75556e-05 8.70219e-05 -2.05416e-06
-7.6421e-07 -2.05416e-06 1.06913e-05
0.00129128 -7.10169e-05 -1.61435e-06
-7.10169e-05 0.000107203 3.88813e-07
-1.61435e-06 3.88813e-07 1.948e-05
0.0013741 -7.56047e-05 6.90113e-07
-7.56047e-05 0.000133429 -2.65844e-07
6.90113e-07 -2.65844e-07 4.11355e-05
0.00127802 -7.1063e-05 2.14579e-06
-7.1063e-05 6.21581e-05 1.37206e-06
2.14579e-06 1.37206e-06 -2.74575e-05
0.000866831 -5.94827e-05 -1.45598e-06
-5.94827e-05 -4.39092e-05 1.86964e-06
-1.45598e-06 1.86964e-06 -0.000127864
0.00108034 -6.77785e-05 9.6574e-08
-6.77785e-05 4.91895e-05 -7.36533e-08
9.6574e-08 -7.36533e-08 -4.19808e-05
0.00137974 -7.84999e-05 2.29409e-06
-7.84999e-05 0.000182353 -2.28647e-06
2.29409e-06 -2.28647e-06 8.30983e-05
0.000992356 -4.77072e-05 -9.43509e-07
-4.77072e-05 5.26459e-05 4.63067e-07
-9.43509e-07 4.63067e-07 -1.87419e-05
0.00108327 -6.29122e-05 6.80093e-08
-6.29122e-05 8.88883e-05 -1.66839e-07
6.80093e-08 -1.66839e-07 9.30166e-06
0.000843465 -6.02238e-05 4.72342e-07
-6.02238e-05 -3.78843e-05 -2.18819e-06
4.72342e-07 -2.18819e-06 -0.000126929
0.000890104 -2.95552e-06 -2.54799e-06
-2.95552e-06 2.11508e-05 1.8076e-06
-2.54799e-06 1.8076e-06 -3.41882e-05
0.00102339 -4.24376e-05 -6.95674e-08
-4.24376e-05 7.32848e-05 1.05744e-08
-6.95674e-08 1.05744e-08 3.37225e-06
0.00109777 -5.96529e-05 4.92655e-07
-5.96529e-05 0.000104161 -3.47091e-07
4.92655e-07 -3.47091e-07 2.71281e-05
0.00074217 3.17852e-05 -4.00935e-06
3.17852e-05 -5.18842e-05 3.56449e-06
-4.00935e-06 3.56449e-06 -6.93485e-05
0.00089567 8.45193e-06 -1.70869e-08
8.45193e-06 1.80275e-05 1.71877e-08
-1.70869e-08 1.71877e-08 -3.33492e-05
0.00102785 -2.29947e-05 1.2989e-06
-2.29947e-05 7.88336e-05 -3.53858e-07
1.2989e-06 -3.53858e-07 9.54655e-06
0.00252598 4.31394e-05 -2.25206e-05
4.31394e-05 0.000854145 3.62989e-06
-2.25206e-05 3.62989e-06 0.000867235
0.000792504 2.87388e-05 -3.30619e-09
2.87388e-05 -3.48256e-05 -5.77924e-09
-3.30619e-09 -5.77924e-09 -4.91166e-05
0.000898534 3.50317e-06 2.49746e-06
3.50317e-06 1.18976e-05 -2.07449e-06
2.49746e-06 -2.07449e-06 -3.41495e-05
0.00174344 3.40859e-05 8.52735e-06
3.40859e-05 0.00044878 -1.00477e-06
8.52735e-06 -1.00477e-06 0.000459953
0.000823799 2.6072e-05 3.68912e-06
2.6072e-05 -2.5474e-05 -3.51484e-06
3.68912e-06 -3.51484e-06 -3.72629e-05
0.00240175 3.45541e-05 2.01617e-05
3.45541e-05 0.000779626 -3.83921e-06
2.01617e-05 -3.83921e-06 0.000795792
0.00106488 4.72949e-05 -4.59157e-07
4.72949e-05 9.37729e-05 3.80788e-07
-4.59157e-07 3.80788e-07 1.95258e-05
0.00102389 3.87592e-05 1.6721e-07
3.87592e-05 6.9918e-05 4.05038e-07
1.6721e-07 4.05038e-07 -4.3872e-06
0.000972705 -2.04704e-07 -1.15218e-06
-2.04704e-07 4.36537e-05 -1.19961e-06
-1.15218e-06 -1.19961e-06 -2.28243e-05
0.00102293 3.13862e-05 5.49598e-07
3.13862e-05 6.7474e-05 9.15137e-07
5.49598e-07 9.15137e-07 -5.43922e-06
0.000980516 -4.8331e-06 -2.31201e-08
-4.8331e-06 4.34135e-05 5.56749e-08
-2.31201e-08 5.56749e-08 -1.96387e-05
0.000882067 -1.3338e-05 -1.97929e-06
-1.3338e-05 -2.45441e-06 -2.52424e-06
-1.97929e-06 -2.52424e-06 -4.46076e-05
0.000834675 -2.28692e-05 -2.99793e-06
-2.28692e-05 -2.93387e-05 -3.66946e-06
-2.99793e-06 -3.66946e-06 -3.84133e-05
0.000893487 -1.7188e-05 -1.88298e-07
-1.7188e-05 -2.08237e-06 -4.78155e-08
-1.88298e-07 -4.78155e-08 -4.03084e-05
0.000971458 -9.21768e-06 3.45062e-07
-9.21768e-06 3.4428e-05 1.70561e-06
3.45062e-07 1.70561e-06 -2.44323e-05
0.00238086 -3.04237e-05 -1.83579e-05
-3.04237e-05 0.000760185 -3.93261e-06
-1.83579e-05 -3.93261e-06 0.000778052
0.000830915 -2.00782e-05 -1.62309e-07
-2.00782e-05 -3.57549e-05 1.05337e-08
-1.62309e-07 1.05337e-08 -4.30141e-05
0.00090705 -1.11705e-05 1.42208e-06
-1.11705e-05 1.50536e-06 2.12659e-06
1.42208e-06 2.12659e-06 -3.40796e-05
0.00235802 -2.65216e-05 -7.63388e-07
-2.65216e-05 0.000742745 5.30856e-08
-7.63388e-07 5.30856e-08 0.000761945
0.000822851 -1.78119e-05 1.70594e-06
-1.78119e-05 -4.38235e-05 3.46678e-06
1.70594e-06 3.46678e-06 -4.93762e-05
0.0023019 -2.22832e-05 1.26423e-05
-2.22832e-05 0.000708773 3.94606e-06
1.26423e-05 3.94606e-06 0.000729482
0.000270226 4.69206e-05 0.000101615
4.69206e-05 -0.000228925 1.07462e-05
0.000101615 1.07462e-05 -0.000425073
0.00152574 -3.66185e-05 4.00698e-06
-3.66185e-05 0.000570376 1.19589e-07
4.00698e-06 1.19589e-07 0.000570786
0.000546143 1.16227e-05 1.35554e-05
1.16227e-05 -5.13669e-05 2.49991e-06
1.35554e-05 2.49991e-06 -0.000133962
0.000999817 4.25331e-05 1.15752e-06
4.25331e-05 5.90931e-05 6.65034e-07
1.15752e-06 6.65034e-07 -2.01919e-05
0.0010147 4.69093e-05 5.89301e-07
4.69093e-05 6.7668e-05 8.85407e-08
5.89301e-07 8.85407e-08 -1.40926e-05
0.00107786 5.80532e-05 -5.70159e-08
5.80532e-05 0.000106359 -5.65236e-08
-5.70159e-08 -5.65236e-08 2.81504e-05
0.00113941 6.27651e-05 -3.73708e-07
6.27651e-05 0.000139945 1.38538e-07
-3.73708e-07 1.38538e-07 6.11439e-05
0.00108941 5.7539e-05 -1.74145e-06
5.7539e-05 0.000113303 -1.11978e-07
-1.74145e-06 -1.11978e-07 3.08938e-05
0.00102358 3.60496e-05 4.24471e-07
3.60496e-05 7.0864e-05 1.27498e-06
4.24471e-07 1.27498e-06 -9.95293e-06
0.00103986 4.60586e-05 1.12247e-06
4.60586e-05 7.90669e-05 1.09366e-06
1.12247e-06 1.09366e-06 -3.3482e-06
0.000960226 5.30814e-05 -4.30715e-07
5.30814e-05 5.25129e-05 -3.68995e-07
-4.30715e-07 -3.68995e-07 -3.49125e-05
0.000538377 4.71134e-05 -1.53501e-06
4.71134e-05 -0.000153192 3.19552e-07
-1.53501e-06 3.19552e-07 -0.000237589
0.000816739 5.49528e-05 -1.82941e-06
5.49528e-05 -2.19232e-05 -1.63328e-06
-1.82941e-06 -1.63328e-06 -0.000110906
0.00183363 0.000104665 6.10054e-07
0.000104665 0.000442651 -4.37377e-06
6.10054e-07 -4.37377e-06 0.000340089
0.0010728 4.56899e-05 -1.47595e-06
4.56899e-05 0.000109355 2.62496e-08
-1.47595e-06 2.62496e-08 2.36274e-05
0.00104321 3.6272e-05 6.41641e-07
3.6272e-05 8.68354e-05 9.6065e-07
6.41641e-07 9.6065e-07 4.10368e-06
0.00737526 -0.000103219 -7.57239e-06
-0.000103219 0.00203582 -1.08145e-05
-7.57239e-06 -1.08145e-05 0.00135406
-0.000172078 -0.000137823 5.56041e-06
-0.000137823 -0.000381906 5.14318e-06
5.56041e-06 5.14318e-06 -0.000461964
0.00209936 -9.06368e-05 -1.07081e-05
-9.06368e-05 0.000772843 -4.94621e-06
-1.07081e-05 -4.94621e-06 0.000908085
-0.00209595 -0.000168323 -3.0452e-05
-0.000168323 -0.00136129 -2.6147e-05
-3.0452e-05 -2.6147e-05 -0.00121568
0.00764603 -0.000242767 6.43548e-05
-0.000242767 0.0021296 4.56547e-05
6.43548e-05 4.56547e-05 0.00110833
0.00166271 9.78067e-05 3.23024e-05
9.78067e-05 0.000340401 1.16046e-05
3.23024e-05 1.16046e-05 0.000107568
0.00160744 0.000134654 -2.91352e-05
0.000134654 7.76708e-05 -2.4753e-05
-2.91352e-05 -2.4753e-05 -0.000246082
0.00524237 -0.000187504 2.57748e-05
-0.000187504 0.00131155 1.6849e-05
2.57748e-05 1.6849e-05 0.000642651
0.00132604 6.10003e-05 -3.97549e-05
6.10003e-05 -9.20947e-05 -4.85463e-05
-3.97549e-05 -4.85463e-05 -0.000396077
0.00223075 0.000181909 1.75648e-05
0.000181909 0.000465472 8.4887e-06
1.75648e-05 8.4887e-06 0.000307461
0.000910696 0.000103137 -2.20046e-07
0.000103137 6.9731e-05 -5.12824e-06
-2.20046e-07 -5.12824e-06 -8.06131e-05
0.000895011 5.57777e-05 7.29863e-07
5.57777e-05 1.70323e-05 2.54697e-06
7.29863e-07 2.54697e-06 -4.99394e-05
0.00199675 0.000145241 -2.17629e-05
0.000145241 0.000656698 -1.9973e-05
-2.17629e-05 -1.9973e-05 0.000532521
-3.75113e-06 0.000131085 -3.41128e-06
0.000131085 -0.000521605 1.5573e-05
-3.41128e-06 1.5573e-05 -0.000635573
0.000605966 3.18824e-05 -6.36899e-07
3.18824e-05 -0.000510115 -5.0694e-06
-6.36899e-07 -5.0694e-06 -0.000987968
0.00157396 5.26209e-06 3.22646e-07
5.26209e-06 0.000357785 3.14706e-06
3.22646e-07 3.14706e-06 0.000249366
-0.00111142 -6.50137e-06 -6.33441e-06
-6.50137e-06 -0.000971007 -2.9595e-07
-6.33441e-06 -2.9595e-07 -0.00101424
0.00255642 -0.000146134 -3.49096e-05
-0.000146134 0.000633194 -1.50837e-06
-3.49096e-05 -1.50837e-06 0.000643073
0.00155644 1.61689e-05 3.01087e-05
1.61689e-05 -0.000496506 -2.62551e-05
3.01087e-05 -2.62551e-05 -0.000639742
0.000303211 -1.59989e-06 -0.000116635
-1.59989e-06 -0.00025253 2.24858e-05
-0.000116635 2.24858e-05 -0.000441416
0.00560713 0.000279181 -2.07133e-05
0.000279181 0.00185082 6.71976e-06
-2.07133e-05 6.71976e-06 0.00102275
0.00112575 -0.000103391 1.43594e-06
-0.000103391 -0.000147236 -2.33166e-06
1.43594e-06 -2.33166e-06 -8.47052e-05
0.00481292 0.000167446 2.85725e-05
0.000167446 0.00138644 2.77201e-06
2.85725e-05 2.77201e-06 0.000786319
0.00217689 8.38634e-05 2.78121e-05
8.38634e-05 0.000161646 -7.5548e-06
2.78121e-05 -7.5548e-06 -0.000142309
0.00273894 -6.77408e-05 -7.47361e-06
-6.77408e-05 0.000525332 2.62565e-06
-7.47361e-06 2.62565e-06 0.000538265
0.0010403 6.84503e-05 -3.02748e-05
6.84503e-05 0.000237496 1.00846e-05
-3.02748e-05 1.00846e-05 -4.86708e-06
0.00134517 -0.000149886 8.93256e-06
-0.000149886 6.63056e-05 -7.14003e-06
8.93256e-06 -7.14003e-06 -6.94352e-05
0.00170354 -0.000144721 -4.01672e-06
-0.000144721 1.68836e-05 1.4023e-06
-4.01672e-06 1.4023e-06 -5.67979e-05
0.00194584 -8.96056e-05 -1.34664e-05
-8.96056e-05 2.57143e-05 3.09043e-06
-1.34664e-05 3.09043e-06 -6.15311e-06
0.000829991 -9.76126e-05 4.64973e-06
-9.76126e-05 -0.000256195 -1.63892e-06
4.64973e-06 -1.63892e-06 -0.000346242
0.00148741 -8.66057e-05 2.20614e-06
-8.66057e-05 -1.52976e-05 1.15632e-06
2.20614e-06 1.15632e-06 -5.50438e-05
0.00167085 -5.99266e-05 -1.84329e-06
-5.99266e-05 3.12715e-05 4.45143e-06
-1.84329e-06 4.45143e-06 1.06353e-05
0.00109684 -7.59686e-05 1.74365e-06
-7.59686e-05 -0.000100363 1.52261e-06
1.74365e-06 1.52261e-06 -0.000177083
0.00145572 -7.02222e-05 1.21949e-08
-7.02222e-05 7.48885e-06 1.70256e-06
1.21949e-08 1.70256e-06 -3.76608e-05
0.00152852 -5.77999e-05 8.62419e-07
-5.77999e-05 3.42588e-05 2.63733e-06
8.62419e-07 2.63733e-06 -3.831e-06
0.0012387 -6.8506e-05 2.44302e-06
-6.8506e-05 -1.68324e-05 2.23619e-06
2.44302e-06 2.23619e-06 -8.95502e-05
0.00140361 -6.47342e-05 8.41235e-08
-6.47342e-05 3.64123e-05 1.05225e-06
8.41235e-08 1.05225e-06 -1.80423e-05
0.00146296 -5.73738e-05 8.91076e-08
-5.73738e-05 6.52281e-05 6.41211e-07
8.91076e-08 6.41211e-07 1.23892e-05
0.0014248 -6.13094e-05 -1.22228e-06
-6.13094e-05 8.39313e-05 1.04537e-06
-1.22228e-06 1.04537e-06 2.5253e-05
0.0015781 -6.30057e-05 9.26443e-07
-6.30057e-05 0.000174009 -1.17632e-06
9.26443e-07 -1.17632e-06 0.000107283
0.00140218 -6.56645e-05 1.56748e-06
-6.56645e-05 8.82096e-05 3.12598e-06
1.56748e-06 3.12598e-06 1.9865e-05
0.00136335 -6.7271e-05 8.86143e-08
-6.7271e-05 9.27756e-05 -4.64381e-07
8.86143e-08 -4.64381e-07 1.61313e-05
0.00134415 -6.54003e-05 -6.86271e-07
-6.54003e-05 9.80893e-05 -6.5503e-07
-6.86271e-07 -6.5503e-07 1.91781e-05
0.000974757 -6.05806e-05 -1.77232e-06
-6.05806e-05 -2.87777e-05 1.208e-06
-1.77232e-06 1.208e-06 -0.000112283
0.00128436 -7.0471e-05 4.04647e-08
-7.0471e-05 0.000104883 -1.50546e-07
4.04647e-08 -1.50546e-07 1.67202e-05
0.00144413 -7.66505e-05 2.14051e-06
-7.66505e-05 0.000169776 -3.4516e-07
2.14051e-06 -3.4516e-07 7.7443e-05
0.00103172 -5.43989e-05 -1.30861e-06
-5.43989e-05 5.63512e-05 1.12815e-06
-1.30861e-06 1.12815e-06 -1.7882e-05
0.000946803 -6.12831e-05 -3.96826e-07
-6.12831e-05 -1.74252e-06 4.57706e-07
-3.96826e-07 4.57706e-07 -8.5168e-05
0.00129748 -7.28447e-05 1.41645e-06
-7.28447e-05 0.000158289 -1.67042e-06
1.41645e-06 -1.67042e-06 6.80911e-05
0.00084632 -5.81618e-06 -2.30867e-06
-5.81618e-06 9.67464e-07 1.52161e-06
-2.30867e-06 1.52161e-06 -5.72426e-05
0.00103748 -4.93949e-05 -1.91877e-08
-4.93949e-05 7.36203e-05 -1.16065e-07
-1.91877e-08 -1.16065e-07 2.15165e-06
0.00112199 -6.35252e-05 5.89922e-07
-6.35252e-05 0.000107072 -1.18198e-06
5.89922e-07 -1.18198e-06 2.73725e-05
0.000699791 3.52793e-05 -3.87135e-06
3.52793e-05 -6.45124e-05 3.6657e-06
-3.87135e-06 3.6657e-06 -8.60906e-05
0.000900487 -4.82118e-06 -4.74751e-09
-4.82118e-06 2.42388e-05 1.08224e-07
-4.74751e-09 1.08224e-07 -3.07521e-05
0.00105176 -4.35472e-05 1.22784e-06
-4.35472e-05 8.62756e-05 -2.67018e-07
1.22784e-06 -2.67018e-07 1.64746e-05
0.00258814 4.78823e-05 -2.34128e-05
4.78823e-05 0.000892868 3.50367e-06
-2.34128e-05 3.50367e-06 0.000904057
0.000771559 3.30264e-05 -2.14592e-08
3.30264e-05 -3.61354e-05 -4.05917e-08
-2.14592e-08 -4.05917e-08 -5.39861e-05
0.000892366 -3.28819e-06 2.5268e-06
-3.28819e-06 1.44413e-05 -1.7937e-06
2.5268e-06 -1.7937e-06 -3.63438e-05
0.0025167 4.32208e-05 2.25043e-07
4.32208e-05 0.000850329 7.1594e-08
2.25043e-07 7.1594e-08 0.000863235
0.000813548 2.97317e-05 3.83043e-06
2.97317e-05 -2.3538e-05 -3.54818e-06
3.83043e-06 -3.54818e-06 -3.8141e-05
0.00246105 3.88372e-05 2.17327e-05
3.88372e-05 0.000816174 -3.75266e-06
2.17327e-05 -3.75266e-06 0.000830617
0.00106255 5.21646e-05 -6.50945e-07
5.21646e-05 9.74203e-05 -7.27599e-10
-6.50945e-07 -7.27599e-10 2.111e-05
0.00102961 4.69847e-05 2.83259e-07
4.69847e-05 7.70578e-05 1.45771e-07
2.83259e-07 1.45771e-07 2.7875e-06
0.000908596 1.27791e-06 -1.5066e-06
1.27791e-06 1.37282e-05 -7.05098e-07
-1.5066e-06 -7.05098e-07 -5.4849e-05
0.000971223 3.12736e-05 1.17185e-06
3.12736e-05 4.19628e-05 1.07819e-06
1.17185e-06 1.07819e-06 -3.22896e-05
0.000948577 -1.97471e-06 -8.50139e-08
-1.97471e-06 3.12913e-05 1.99928e-07
-8.50139e-08 1.99928e-07 -3.54566e-05
0.000884621 -7.92853e-06 -2.37809e-06
-7.92853e-06 2.37069e-06 -2.23769e-06
-2.37809e-06 -2.23769e-06 -4.4349e-05
0.000975108 -5.66174e-06 7.57294e-07
-5.66174e-06 4.09538e-05 1.71427e-06
7.57294e-07 1.71427e-06 -2.21253e-05
0.000890981 -1.31159e-05 -1.09563e-07
-1.31159e-05 1.37012e-06 -6.51733e-08
-1.09563e-07 -6.51733e-08 -4.06571e-05
0.00082435 -2.61384e-05 -3.43322e-06
-2.61384e-05 -2.80174e-05 -3.7919e-06
-3.43322e-06 -3.7919e-06 -3.97154e-05
0.00240802 -3.44248e-05 -2.0062e-05
-3.44248e-05 0.000779949 -3.87721e-06
-2.0062e-05 -3.87721e-06 0.000796456
0.000822728 -2.24528e-05 -7.7072e-08
-2.24528e-05 -3.52262e-05 -1.06324e-08
-7.7072e-08 -1.06324e-08 -4.42003e-05
0.000899306 -1.56305e-05 1.36029e-06
-1.56305e-05 2.84283e-07 2.35957e-06
1.36029e-06 2.35957e-06 -3.77525e-05
0.00239627 -3.05633e-05 -6.55319e-07
-3.05633e-05 0.0007674 6.37843e-08
-6.55319e-07 6.37843e-08 0.000785326
0.000817007 -1.9878e-05 2.19587e-06
-1.9878e-05 -4.25717e-05 3.55427e-06
2.19587e-06 3.55427e-06 -4.97719e-05
0.00236099 -2.65748e-05 1.51085e-05
-2.65748e-05 0.000743718 3.9493e-06
1.51085e-05 3.9493e-06 0.000763036
0.00563752 2.49793e-06 2.77714e-05
2.49793e-06 0.00166482 -6.10818e-08
2.77714e-05 -6.10818e-08 0.00112793
-0.000708379 -3.01188e-05 1.39018e-05
-3.01188e-05 -0.000460959 1.03525e-06
1.39018e-05 1.03525e-06 -0.000481443
0.000251335 -2.44083e-05 6.30275e-07
-2.44083e-05 -0.00019212 -5.64866e-08
6.30275e-07 -5.64866e-08 -0.000209681
0.0010029 4.06988e-05 1.50399e-06
4.06988e-05 6.311e-05 5.44127e-07
1.50399e-06 5.44127e-07 -1.87708e-05
0.000997502 5.59777e-05 7.39206e-07
5.59777e-05 6.79525e-05 6.40841e-08
7.39206e-07 6.40841e-08 -9.80081e-06
0.00112984 5.91683e-05 1.6456e-07
5.91683e-05 0.000133625 -4.34688e-08
1.6456e-07 -4.34688e-08 5.13104e-05
0.0010897 6.15702e-05 -3.29668e-07
6.15702e-05 0.00011535 -1.83213e-07
-3.29668e-07 -1.83213e-07 3.65422e-05
0.00112125 6.38991e-05 2.04484e-06
6.38991e-05 0.000134076 7.3439e-07
2.04484e-06 7.3439e-07 5.24681e-05
0.00082785 5.48771e-05 -1.78792e-06
5.48771e-05 -8.74652e-06 5.82817e-07
-1.78792e-06 5.82817e-07 -8.9713e-05
0.000828763 4.89467e-05 1.16127e-06
4.89467e-05 -1.29623e-05 9.68038e-07
1.16127e-06 9.68038e-07 -9.96134e-05
0.000795807 5.42966e-05 6.44471e-07
5.42966e-05 -2.59349e-05 -1.35357e-07
6.44471e-07 -1.35357e-07 -0.000111988
0.000848863 5.35022e-05 8.22625e-07
5.35022e-05 2.30787e-06 1.01818e-07
8.22625e-07 1.01818e-07 -8.78541e-05
0.000475127 5.56071e-05 -2.87565e-07
5.56071e-05 -0.000203294 -4.44444e-08
-2.87565e-07 -4.44444e-08 -0.000289221
0.00261722 0.000123432 -9.38598e-10
0.000123432 0.000808813 -1.02627e-06
-9.38598e-10 -1.02627e-06 0.000712887
0.00182342 0.000121563 5.89107e-07
0.000121563 0.000316255 -4.19933e-06
5.89107e-07 -4.19933e-06 0.000198446
0.00123401 8.94088e-05 8.02217e-07
8.94088e-05 0.000152849 1.01301e-07
8.02217e-07 1.01301e-07 5.28182e-05
0.00122326 4.7927e-05 -9.54409e-07
4.7927e-05 0.000193907 1.22937e-06
-9.54409e-07 1.22937e-06 0.000106448
0.00101976 -4.80015e-05 -1.70851e-05
-4.80015e-05 -0.000225965 -1.87655e-05
-1.70851e-05 -1.87655e-05 -0.000355251
0.00378488 -9.58735e-05 -9.5875e-06
-9.58735e-05 0.000704255 -2.34062e-06
-9.5875e-06 -2.34062e-06 0.000140149
0.00286634 -0.000192524 -3.83609e-05
-0.000192524 0.00117927 -1.54987e-05
-3.83609e-05 -1.54987e-05 0.00110575
0.00418607 -0.000106913 0.000101496
-0.000106913 0.000858878 3.63983e-05
0.000101496 3.63983e-05 9.21188e-05
0.00288323 0.000161424 2.50551e-05
0.000161424 0.000776926 4.55895e-05
2.50551e-05 4.55895e-05 0.000597273
0.00108058 3.66717e-05 -1.71481e-05
3.66717e-05 -6.88132e-05 -5.35202e-06
-1.71481e-05 -5.35202e-06 -0.000207678
0.00114472 7.46316e-05 2.02476e-05
7.46316e-05 -0.000176429 1.20899e-05
2.02476e-05 1.20899e-05 -0.000233113
0.001956 0.000180913 2.07509e-07
0.000180913 0.000330427 7.71481e-06
2.07509e-07 7.71481e-06 0.000192449
0.000259224 7.70368e-05 -1.5393e-06
7.70368e-05 -0.00023769 5.25137e-06
-1.5393e-06 5.25137e-06 -0.00038525
0.00208588 0.000205036 -5.80539e-05
0.000205036 0.00032087 -6.82265e-05
-5.80539e-05 -6.82265e-05 0.000254484
0.00208645 1.98373e-07 -0.000112897
1.98373e-07 0.000507838 -6.08187e-06
-0.000112897 -6.08187e-06 0.000222011
0.00540987 4.65068e-05 1.06408e-05
4.65068e-05 0.00175679 -1.24664e-06
1.06408e-05 -1.24664e-06 0.00124304
-0.00300159 -2.25851e-05 -6.69204e-05
-2.25851e-05 -0.00190448 5.4078e-06
-6.69204e-05 5.4078e-06 -0.00189244
0.00245661 -0.00012532 -2.40476e-06
-0.00012532 0.000506428 -2.91697e-06
-2.40476e-06 -2.91697e-06 0.000547959
0.00111423 8.3748e-05 3.58695e-05
8.3748e-05 -0.000265673 -9.06987e-06
3.58695e-05 -9.06987e-06 -0.000431766
0.000565856 -5.69498e-06 2.43091e-05
-5.69498e-06 -0.000400398 -2.41666e-06
2.43091e-05 -2.41666e-06 -0.000908475
0.00174519 -7.53788e-05 8.73727e-07
-7.53788e-05 1.49194e-05 2.91449e-06
8.73727e-07 2.91449e-06 4.81496e-05
0.00132055 9.47336e-05 2.60711e-06
9.47336e-05 0.000193692 -5.29346e-06
2.60711e-06 -5.29346e-06 -9.97361e-06
0.00280302 -5.96359e-06 3.6967e-07
-5.96359e-06 0.000463614 -1.30525e-05
3.6967e-07 -1.30525e-05 0.000446329
0.000939211 6.00153e-05 4.42436e-06
6.00153e-05 -0.00019885 -2.05213e-06
4.42436e-06 -2.05213e-06 -0.000271866
0.00252949 -0.00015433 7.9817e-06
-0.00015433 0.000429039 -3.24329e-06
7.9817e-06 -3.24329e-06 0.000357213
0.00207399 -9.15779e-05 1.88965e-06
-9.15779e-05 8.86352e-05 -1.02708e-06
1.88965e-06 -1.02708e-06 5.96739e-05
0.0020342 -1.90453e-05 -2.65658e-06
-1.90453e-05 0.000169866 2.83274e-06
-2.65658e-06 2.83274e-06 0.000139214
0.000896814 -7.80269e-05 9.38189e-06
-7.80269e-05 -0.000295078 -1.56856e-06
9.38189e-06 -1.56856e-06 -0.000333321
0.00171431 -6.101e-05 2.57126e-06
-6.101e-05 6.37186e-05 -8.76612e-08
2.57126e-06 -8.76612e-08 4.06399e-05
0.00173167 -3.48358e-05 -4.66925e-07
-3.48358e-05 9.24323e-05 3.18326e-06
-4.66925e-07 3.18326e-06 4.92863e-05
0.00132521 -6.89975e-05 3.58892e-06
-6.89975e-05 -5.55015e-05 1.72684e-06
3.58892e-06 1.72684e-06 -0.00010161
0.0015288 -5.82745e-05 8.13957e-07
-5.82745e-05 4.20043e-05 7.98595e-07
8.13957e-07 7.98595e-07 1.86885e-06
0.00163509 -4.69337e-05 -3.23665e-07
-4.69337e-05 0.000104985 1.77747e-06
-3.23665e-07 1.77747e-06 5.08707e-05
0.00145867 -6.60945e-05 1.18506e-06
-6.60945e-05 6.50277e-05 1.91346e-06
1.18506e-06 1.91346e-06 9.46472e-06
0.00139971 -5.83306e-05 -9.62779e-08
-5.83306e-05 4.01832e-05 -2.85577e-08
-9.62779e-08 -2.85577e-08 -1.31156e-05
0.00139939 -5.54503e-05 1.4589e-06
-5.54503e-05 5.91824e-05 5.93717e-07
1.4589e-06 5.93717e-07 -6.10618e-06
0.00125614 -5.90465e-05 -2.21963e-07
-5.90465e-05 1.74075e-06 2.15947e-06
-2.21963e-07 2.15947e-06 -5.49757e-05
0.00143836 -6.01926e-05 -8.47788e-07
-6.01926e-05 0.000104223 -5.90023e-07
-8.47788e-07 -5.90023e-07 3.88208e-05
0.00154215 -6.16351e-05 2.2088e-07
-6.16351e-05 0.000170872 -4.49794e-07
2.2088e-07 -4.49794e-07 9.74081e-05
0.00137441 -6.69638e-05 9.51571e-07
-6.69638e-05 9.76668e-05 1.00737e-06
9.51571e-07 1.00737e-06 2.07238e-05
0.00134451 -6.49894e-05 1.57438e-07
-6.49894e-05 9.8635e-05 -3.26819e-07
1.57438e-07 -3.26819e-07 1.93566e-05
0.00137267 -6.35763e-05 -9.17074e-07
-6.35763e-05 0.000133099 1.2034e-07
-9.17074e-07 1.2034e-07 5.47147e-05
0.000843143 -5.09642e-05 -2.29224e-06
-5.09642e-05 -6.71838e-05 1.5057e-06
-2.29224e-06 1.5057e-06 -0.000143346
0.00106056 -6.2289e-05 -3.24486e-07
-6.2289e-05 1.6971e-05 2.77503e-07
-3.24486e-07 2.77503e-07 -6.61643e-05
0.00127798 -6.99387e-05 1.44745e-06
-6.99387e-05 0.000102862 -9.03018e-07
1.44745e-06 -9.03018e-07 1.42536e-05
0.000860594 -1.95347e-05 -2.26359e-06
-1.95347e-05 2.56786e-06 1.63711e-06
-2.26359e-06 1.63711e-06 -5.83093e-05
0.00105695 -5.46142e-05 7.33061e-08
-5.46142e-05 6.82753e-05 1.17725e-08
7.33061e-08 1.17725e-08 -5.9723e-06
0.00104594 -6.36092e-05 4.75428e-07
-6.36092e-05 4.96804e-05 -8.38208e-07
4.75428e-07 -8.38208e-07 -3.32233e-05
0.000674215 3.81108e-05 -3.80333e-06
3.81108e-05 -6.83579e-05 3.56287e-06
-3.80333e-06 3.56287e-06 -9.4689e-05
0.000892128 -1.0702e-05 -1.18546e-07
-1.0702e-05 2.16474e-05 4.14174e-08
-1.18546e-07 4.14174e-08 -3.63213e-05
0.00108194 -5.09389e-05 1.25547e-06
-5.09389e-05 9.43249e-05 -8.42378e-07
1.25547e-06 -8.42378e-07 2.27726e-05
0.00268493 5.2812e-05 -2.4638e-05
5.2812e-05 0.000948947 3.40567e-06
-2.4638e-05 3.40567e-06 0.000957921
0.000746997 3.66019e-05 1.33403e-07
3.66019e-05 -4.0065e-05 6.36315e-09
1.33403e-07 6.36315e-09 -6.20006e-05
0.000906468 -6.64405e-06 2.62816e-06
-6.64405e-06 2.52019e-05 -1.50499e-06
2.62816e-06 -1.50499e-06 -2.94452e-05
0.00258611 4.78966e-05 2.16756e-07
4.78966e-05 0.000892642 7.66803e-08
2.16756e-07 7.66803e-08 0.000903575
0.000801764 3.4095e-05 3.59335e-06
3.4095e-05 -2.01664e-05 -3.58974e-06
3.59335e-06 -3.58974e-06 -3.83712e-05
0.00250801 4.32186e-05 2.28859e-05
4.32186e-05 0.000846781 -3.63287e-06
2.28859e-05 -3.63287e-06 0.000859513
0.00107134 5.73832e-05 -8.83077e-07
5.73832e-05 0.000103158 -6.32331e-07
-8.83077e-07 -6.32331e-07 2.43624e-05
0.00111522 5.39517e-05 1.48571e-07
5.39517e-05 0.000123484 1.0665e-07
1.48571e-07 1.0665e-07 4.74817e-05
0.000959924 2.15767e-05 -1.47914e-06
2.15767e-05 4.49002e-05 -5.10678e-07
-1.47914e-06 -5.10678e-07 -2.52322e-05
0.000996331 4.67229e-05 8.81534e-07
4.67229e-05 6.1336e-05 2.00935e-07
8.81534e-07 2.00935e-07 -1.29622e-05
0.00091666 3.87286e-06 -3.75451e-07
3.87286e-06 1.85633e-05 -3.18613e-08
-3.75451e-07 -3.18613e-08 -5.01763e-05
0.000884935 -7.22999e-07 -2.63834e-06
-7.22999e-07 7.02219e-06 -1.80196e-06
-2.63834e-06 -1.80196e-06 -4.42902e-05
0.000924938 -6.20822e-06 9.54263e-07
-6.20822e-06 1.95654e-05 1.38445e-06
9.54263e-07 1.38445e-06 -4.78342e-05
0.000887683 -9.17133e-06 -5.32814e-08
-9.17133e-06 4.10213e-06 -2.30923e-08
-5.32814e-08 -2.30923e-08 -4.26666e-05
0.000807878 -3.02772e-05 -3.68739e-06
-3.02772e-05 -2.89077e-05 -3.76681e-06
-3.68739e-06 -3.76681e-06 -4.39305e-05
0.000899806 -1.33911e-05 1.78779e-06
-1.33911e-05 5.19096e-06 2.59172e-06
1.78779e-06 2.59172e-06 -3.67192e-05
0.000808247 -2.53864e-05 -9.57597e-08
-2.53864e-05 -3.65132e-05 -2.26062e-08
-9.57597e-08 -2.26062e-08 -4.79615e-05
0.00246515 -3.86962e-05 -2.1686e-05
-3.86962e-05 0.000815583 -3.81856e-06
-2.1686e-05 -3.81856e-06 0.00083034
0.00242667 -3.45879e-05 -4.44588e-07
-3.45879e-05 0.00078861 6.39618e-08
-4.44588e-07 6.39618e-08 0.000805206
0.000810743 -2.20553e-05 2.79856e-06
-2.20553e-05 -4.12066e-05 3.6141e-06
2.79856e-06 3.6141e-06 -5.00696e-05
0.002407 -3.07126e-05 1.73259e-05
-3.07126e-05 0.000772308 3.9097e-06
1.73259e-05 3.9097e-06 0.000790299
0.000746015 -2.68858e-05 -5.25965e-05
-2.68858e-05 -0.000189981 -8.14086e-06
-5.25965e-05 -8.14086e-06 -0.00034701
0.00163651 -4.61483e-05 -1.02216e-05
-4.61483e-05 -9.11439e-05 -5.3507e-06
-1.02216e-05 -5.3507e-06 -0.000601861
0.00321377 -0.000152423 -4.00185e-05
-0.000152423 0.0012113 -4.22351e-06
-4.00185e-05 -4.22351e-06 0.00113659
0.00118669 6.8843e-05 2.66772e-06
6.8843e-05 0.000142341 6.19869e-07
2.66772e-06 6.19869e-07 5.83781e-05
0.00114936 5.95502e-05 1.33031e-06
5.95502e-05 0.000144086 -6.02245e-08
1.33031e-06 -6.02245e-08 6.19653e-05
0.00102681 5.98942e-05 5.2654e-07
5.98942e-05 8.4186e-05 -9.15561e-08
5.2654e-07 -9.15561e-08 5.41563e-06
0.00100306 6.01191e-05 2.61525e-09
6.01191e-05 7.82799e-05 1.33885e-07
2.61525e-09 1.33885e-07 -3.2292e-06
0.00106044 6.25695e-05 -1.08239e-07
6.25695e-05 0.000105776 -3.2234e-07
-1.08239e-07 -3.2234e-07 2.36947e-05
0.000738095 5.78119e-05 -1.57461e-06
5.78119e-05 -5.99933e-05 7.22892e-07
-1.57461e-06 7.22892e-07 -0.000136499
0.00113267 6.41681e-05 2.48279e-06
6.41681e-05 0.000141693 -8.47319e-07
2.48279e-06 -8.47319e-07 5.36609e-05
0.0011009 5.66977e-05 1.19687e-06
5.66977e-05 0.000132604 1.0803e-06
1.19687e-06 1.0803e-06 4.12099e-05
0.00102547 7.12449e-05 -9.92292e-08
7.12449e-05 6.58738e-05 -1.14247e-07
-9.92292e-08 -1.14247e-07 -1.93494e-05
0.0019316 0.000105141 2.28781e-07
0.000105141 0.000484196 1.0457e-06
2.28781e-07 1.0457e-06 0.000391
0.00152714 0.000102021 4.07528e-07
0.000102021 0.000179399 -1.82323e-06
4.07528e-07 -1.82323e-06 7.63644e-05
0.00184632 0.00010289 -4.50573e-06
0.00010289 0.000150185 -2.03686e-06
-4.50573e-06 -2.03686e-06 3.58712e-05
0.00133503 0.000107881 2.81025e-06
0.000107881 6.77225e-05 8.12558e-07
2.81025e-06 8.12558e-07 -4.91171e-05
0.000739936 7.48145e-05 -5.84265e-07
7.48145e-05 -9.28824e-05 4.4762e-06
-5.84265e-07 4.4762e-06 -0.000190196
0.0014332 -1.91083e-05 -4.37327e-06
-1.91083e-05 -0.000118985 4.41591e-06
-4.37327e-06 4.41591e-06 -0.000147065
0.00207907 -4.11688e-05 -5.17261e-07
-4.11688e-05 7.76996e-05 7.3373e-07
-5.17261e-07 7.3373e-07 -9.70575e-05
0.000901548 -0.000107254 -1.90941e-05
-0.000107254 -0.000481838 -6.55101e-06
-1.90941e-05 -6.55101e-06 -0.00096255
0.00239872 0.000105169 2.21933e-05
0.000105169 0.000131561 2.17204e-05
2.21933e-05 2.17204e-05 -0.000105672
0.00137042 7.7395e-05 2.34291e-06
7.7395e-05 -0.000113936 1.5678e-06
2.34291e-06 1.5678e-06 -0.000170448
0.000173452 0.00013281 -9.10424e-06
0.00013281 -0.000486799 -7.09862e-06
-9.10424e-06 -7.09862e-06 -0.000626375
0.00236467 -9.12977e-06 8.1805e-06
-9.12977e-06 0.000582663 -5.3658e-06
8.1805e-06 -5.3658e-06 0.000512266
0.000748377 2.64834e-07 -2.25964e-05
2.64834e-07 3.76023e-05 1.5223e-06
-2.25964e-05 1.5223e-06 -0.000172013
0.00125001 0.000131276 5.08022e-05
0.000131276 -0.000315808 -1.73405e-06
5.08022e-05 -1.73405e-06 -0.000789747
0.000697783 -8.24278e-05 -2.02143e-06
-8.24278e-05 -0.000524492 7.83227e-06
-2.02143e-06 7.83227e-06 -0.000473915
0.00167425 0.000109604 4.30923e-05
0.000109604 0.000153321 -1.62055e-05
4.30923e-05 -1.62055e-05 -8.29211e-05
0.00204073 -8.96848e-06 5.9337e-06
-8.96848e-06 6.13189e-05 -1.66184e-06
5.9337e-06 -1.66184e-06 4.02615e-05
0.00139177 6.96993e-05 2.36935e-07
6.96993e-05 3.14544e-05 -3.61961e-06
2.36935e-07 -3.61961e-06 -4.05569e-05
0.00126746 4.39859e-05 -5.87354e-06
4.39859e-05 -0.000231531 -4.59745e-07
-5.87354e-06 -4.59745e-07 -0.000303984
0.0009551 4.25951e-05 -5.13061e-06
4.25951e-05 -0.00029592 -3.76417e-06
-5.13061e-06 -3.76417e-06 -0.000386159
0.00196515 -9.02308e-05 1.24852e-05
-9.02308e-05 3.46053e-05 -3.05409e-06
1.24852e-05 -3.05409e-06 1.13766e-05
0.00187177 -2.14163e-05 3.55382e-06
-2.14163e-05 9.31889e-05 7.75065e-07
3.55382e-06 7.75065e-07 5.74137e-05
0.00186559 9.1596e-06 -1.73141e-06
9.1596e-06 0.000172592 8.80812e-07
-1.73141e-06 8.80812e-07 0.000105916
0.00173472 -6.24392e-05 1.83877e-06
-6.24392e-05 8.42838e-05 -1.13558e-06
1.83877e-06 -1.13558e-06 5.82908e-05
0.00174541 -3.60616e-05 -1.16811e-07
-3.60616e-05 0.000102049 -2.12737e-07
-1.16811e-07 -2.12737e-07 5.69561e-05
0.00175329 -2.20121e-05 -7.16994e-07
-2.20121e-05 0.000140104 1.90462e-06
-7.16994e-07 1.90462e-06 7.42069e-05
0.00152047 -5.85855e-05 1.97773e-07
-5.85855e-05 4.53647e-05 -4.48508e-07
1.97773e-07 -4.48508e-07 3.22396e-06
0.00157555 -4.84648e-05 -8.61458e-07
-4.84648e-05 8.57005e-05 -1.00597e-06
-8.61458e-07 -1.00597e-06 3.20575e-05
0.00143164 -4.47835e-05 1.46417e-07
-4.47835e-05 3.69592e-05 2.09497e-06
1.46417e-07 2.09497e-06 -3.37722e-05
0.00132771 -5.91234e-05 -8.36155e-07
-5.91234e-05 1.06807e-05 -1.13748e-06
-8.36155e-07 -1.13748e-06 -4.3032e-05
0.00137975 -5.49222e-05 1.7265e-07
-5.49222e-05 5.03928e-05 -6.05152e-07
1.7265e-07 -6.05152e-07 -1.49299e-05
0.00137604 -5.54283e-05 3.63146e-07
-5.54283e-05 6.47915e-05 4.8894e-07
3.63146e-07 4.8894e-07 -9.31115e-06
0.00129625 -5.74099e-05 -1.5382e-06
-5.74099e-05 3.32313e-05 8.78664e-07
-1.5382e-06 8.78664e-07 -3.08416e-05
0.00140989 -5.84675e-05 -2.51443e-07
-5.84675e-05 0.000104333 -3.8565e-07
-2.51443e-07 -3.8565e-07 3.16702e-05
0.00133251 -5.61625e-05 -7.443e-07
-5.61625e-05 8.66233e-05 8.35262e-08
-7.443e-07 8.35262e-08 1.04237e-05
0.00134449 -6.45742e-05 1.00367e-06
-6.45742e-05 9.89532e-05 1.60315e-08
1.00367e-06 1.60315e-08 1.93131e-05
0.00122808 -6.04422e-05 2.36102e-07
-6.04422e-05 6.17791e-05 -1.83423e-07
2.36102e-07 -1.83423e-07 -1.7121e-05
0.00121863 -5.57052e-05 -1.94186e-06
-5.57052e-05 8.7041e-05 9.39319e-07
-1.94186e-06 9.39319e-07 1.21657e-05
0.000920482 -3.1737e-05 -2.73279e-06
-3.1737e-05 1.41107e-05 1.6725e-06
-2.73279e-06 1.6725e-06 -4.89196e-05
0.000939587 -5.29774e-05 -5.39738e-07
-5.29774e-05 -1.70079e-05 3.69754e-07
-5.39738e-07 3.69754e-07 -9.26664e-05
0.0011299 -6.35176e-05 9.61622e-07
-6.35176e-05 5.47689e-05 -7.08897e-07
9.61622e-07 -7.08897e-07 -2.79884e-05
0.000680002 2.49755e-05 -4.08233e-06
2.49755e-05 -5.89328e-05 3.59781e-06
-4.08233e-06 3.59781e-06 -8.99748e-05
0.000905624 -2.13378e-05 5.16236e-08
-2.13378e-05 2.42767e-05 6.38585e-08
5.16236e-08 6.38585e-08 -3.68415e-05
0.00108415 -5.49877e-05 1.53396e-06
-5.49877e-05 8.11278e-05 -1.13537e-06
1.53396e-06 -1.13537e-06 6.85903e-06
0.00276469 5.72775e-05 -2.61935e-05
5.72775e-05 0.000998041 3.31134e-06
-2.61935e-05 3.31134e-06 0.00100448
0.000739075 3.45609e-05 9.19543e-08
3.45609e-05 -3.71457e-05 -6.08236e-08
9.19543e-08 -6.08236e-08 -6.32611e-05
0.000933496 -1.3444e-05 2.55495e-06
-1.3444e-05 4.03901e-05 -1.62542e-06
2.55495e-06 -1.62542e-06 -1.75195e-05
0.00266444 5.23536e-05 3.45682e-07
5.23536e-05 0.000939812 9.82951e-08
3.45682e-07 9.82951e-08 0.000948515
0.000789841 3.77969e-05 3.6671e-06
3.77969e-05 -1.78536e-05 -3.47882e-06
3.6671e-06 -3.47882e-06 -4.01179e-05
0.0025783 4.76808e-05 2.42565e-05
4.76808e-05 0.000889525 -3.58307e-06
2.42565e-05 -3.58307e-06 0.000900232
0.00093488 5.88123e-05 -8.10978e-07
5.88123e-05 2.27512e-05 -7.47686e-07
-8.10978e-07 -7.47686e-07 -5.8962e-05
0.00103575 5.62176e-05 -3.70918e-08
5.62176e-05 8.51179e-05 -2.69268e-07
-3.70918e-08 -2.69268e-07 6.57302e-06
0.00106493 4.27819e-05 -1.28262e-06
4.27819e-05 9.7049e-05 -4.48675e-07
-1.28262e-06 -4.48675e-07 2.51087e-05
0.00117173 5.59815e-05 6.76532e-07
5.59815e-05 0.000151414 -1.21742e-07
6.76532e-07 -1.21742e-07 7.57032e-05
0.000985099 2.51273e-05 -3.85199e-07
2.51273e-05 5.7979e-05 -1.44506e-07
-3.85199e-07 -1.44506e-07 -1.18124e-05
0.000895202 3.30089e-06 -2.54897e-06
3.30089e-06 2.00112e-05 -1.59409e-06
-2.54897e-06 -1.59409e-06 -3.55117e-05
0.00092367 1.03528e-05 8.43247e-07
1.03528e-05 2.25403e-05 4.1628e-07
8.43247e-07 4.1628e-07 -4.6046e-05
0.000888182 -6.26354e-06 -3.74467e-09
-6.26354e-06 9.8612e-06 4.72913e-08
-3.74467e-09 4.72913e-08 -4.15696e-05
0.000787479 -3.49963e-05 -3.63707e-06
-3.49963e-05 -2.98514e-05 -3.63211e-06
-3.63707e-06 -3.63211e-06 -4.86086e-05
0.000891085 -1.11779e-05 2.22192e-06
-1.11779e-05 6.07856e-06 2.51786e-06
2.22192e-06 2.51786e-06 -4.07219e-05
0.00079041 -2.91621e-05 -7.9831e-08
-2.91621e-05 -3.85038e-05 -3.27553e-09
-7.9831e-08 -3.27553e-09 -5.31744e-05
0.00252982 -4.32218e-05 -2.30337e-05
-4.32218e-05 0.000855497 -3.69836e-06
-2.30337e-05 -3.69836e-06 0.000868302
0.000796262 -2.47452e-05 3.28393e-06
-2.47452e-05 -4.29906e-05 3.73424e-06
3.28393e-06 3.73424e-06 -5.41929e-05
0.00247373 -3.87801e-05 -3.62777e-07
-3.87801e-05 0.000818952 6.75729e-08
-3.62777e-07 6.75729e-08 0.000833921
0.00244424 -3.47091e-05 1.93736e-05
-3.47091e-05 0.000796846 3.84463e-06
1.93736e-05 3.84463e-06 0.00081352
0.00119 -4.62532e-05 -2.8522e-06
-4.62532e-05 -0.000141018 5.64131e-07
-2.8522e-06 5.64131e-07 -0.000175664
0.00221728 -7.73368e-06 -3.88377e-06
-7.73368e-06 0.000315767 7.14959e-06
-3.88377e-06 7.14959e-06 7.04232e-05
0.0046028 4.24297e-05 -6.71071e-05
4.24297e-05 0.00134714 -1.0669e-05
-6.71071e-05 -1.0669e-05 0.000833535
0.000916533 6.11716e-05 1.19894e-06
6.11716e-05 -3.51554e-06 5.39904e-07
1.19894e-06 5.39904e-07 -8.22994e-05
0.00133042 7.64328e-05 2.03328e-06
7.64328e-05 0.000153091 -1.0874e-06
2.03328e-06 -1.0874e-06 6.53125e-05
0.000880277 6.10858e-05 2.81079e-07
6.10858e-05 -1.66421e-06 -3.88572e-07
2.81079e-07 -3.88572e-07 -8.51513e-05
0.00115243 6.46296e-05 1.03872e-06
6.46296e-05 0.000151327 -8.84085e-07
1.03872e-06 -8.84085e-07 6.94748e-05
0.00103402 6.23212e-05 1.51753e-07
6.23212e-05 9.41546e-05 -1.71556e-07
1.51753e-07 -1.71556e-07 1.15542e-05
0.00101075 6.64683e-05 9.40484e-07
6.64683e-05 6.71515e-05 7.53612e-07
9.40484e-07 7.53612e-07 -1.0358e-05
0.00141233 9.04401e-05 -2.17482e-06
9.04401e-05 0.000135073 -3.00921e-06
-2.17482e-06 -3.00921e-06 4.20616e-05
0.00144224 8.30183e-05 2.35317e-06
8.30183e-05 0.000271589 3.05293e-07
2.35317e-06 3.05293e-07 0.000187008
0.000859129 7.66163e-05 -1.14675e-06
7.66163e-05 -2.44036e-05 3.94328e-06
-1.14675e-06 3.94328e-06 -0.000115009
0.00143707 9.95351e-05 -9.83706e-07
9.95351e-05 0.000140389 -3.13008e-07
-9.83706e-07 -3.13008e-07 3.8843e-05
0.0012044 8.33408e-05 -4.10995e-06
8.33408e-05 -0.000120909 -2.56939e-06
-4.10995e-06 -2.56939e-06 -0.00022858
0.00185538 3.4515e-05 -6.12171e-06
3.4515e-05 5.2923e-05 4.77151e-06
-6.12171e-06 4.77151e-06 -2.68872e-05
0.00197713 0.000105553 7.35896e-07
0.000105553 0.000207255 7.95648e-07
7.35896e-07 7.95648e-07 9.38568e-05
0.0011157 9.9967e-05 -3.30169e-07
9.9967e-05 -5.21835e-05 4.34936e-06
-3.30169e-07 4.34936e-06 -0.000167101
0.00156375 -1.49132e-05 4.25209e-07
-1.49132e-05 -4.54368e-05 5.6229e-07
4.25209e-07 5.6229e-07 -7.33679e-05
0.00298021 -5.53252e-05 4.84909e-05
-5.53252e-05 0.000400948 2.57234e-05
4.84909e-05 2.57234e-05 0.00016017
0.00214119 8.91495e-05 -4.05707e-06
8.91495e-05 0.000220439 -2.55856e-06
-4.05707e-06 -2.55856e-06 0.000161095
0.00194732 1.94961e-05 -4.1091e-06
1.94961e-05 0.000265861 -3.01918e-06
-4.1091e-06 -3.01918e-06 0.000205245
0.00146698 -1.09981e-05 7.05038e-07
-1.09981e-05 0.000140797 -3.51991e-07
7.05038e-07 -3.51991e-07 7.23571e-05
0.000862384 5.33916e-05 5.57062e-05
5.33916e-05 -0.000127224 2.35718e-06
5.57062e-05 2.35718e-06 -0.000395069
0.00122563 -1.49395e-05 6.00668e-06
-1.49395e-05 -0.000362456 1.05128e-06
6.00668e-06 1.05128e-06 -0.000384545
0.00163982 7.59569e-05 -5.99492e-06
7.59569e-05 0.000171174 2.14161e-06
-5.99492e-06 2.14161e-06 0.000101709
0.00161174 4.93361e-05 -1.98552e-06
4.93361e-05 -6.85551e-05 4.10378e-06
-1.98552e-06 4.10378e-06 -0.000138552
0.00155193 5.28337e-05 3.2201e-07
5.28337e-05 -8.32564e-07 1.3864e-06
3.2201e-07 1.3864e-06 -8.72318e-05
0.00168763 4.25944e-05 -4.86267e-06
4.25944e-05 9.06642e-05 -2.71781e-07
-4.86267e-06 -2.71781e-07 9.68957e-06
0.00139799 3.78045e-05 -2.84877e-06
3.78045e-05 -2.18086e-05 -1.65002e-06
-2.84877e-06 -1.65002e-06 -9.20142e-05
0.00159588 -2.3153e-05 8.54431e-06
-2.3153e-05 -4.23139e-05 -2.33445e-06
8.54431e-06 -2.33445e-06 -8.23845e-05
0.00173971 7.82214e-06 -1.1005e-06
7.82214e-06 0.000104894 -9.80617e-07
-1.1005e-06 -9.80617e-07 3.99937e-05
0.00167113 1.88331e-05 -1.2958e-06
1.88331e-05 9.54669e-05 -1.78763e-08
-1.2958e-06 -1.78763e-08 1.59007e-05
0.00181903 -3.71757e-05 -1.5475e-06
-3.71757e-05 0.000141393 -2.5141e-06
-1.5475e-06 -2.5141e-06 9.49697e-05
0.00166726 -2.18883e-05 -1.26163e-07
-2.18883e-05 0.000101075 -4.49023e-07
-1.26163e-07 -4.49023e-07 3.58327e-05
0.00146395 -1.6452e-05 -8.15008e-07
-1.6452e-05 1.96005e-05 1.69926e-06
-8.15008e-07 1.69926e-06 -5.75942e-05
0.00151226 -4.97976e-05 -2.80712e-06
-4.97976e-05 6.43152e-05 -2.85954e-06
-2.80712e-06 -2.85954e-06 1.11918e-05
0.00146004 -4.4339e-05 2.75094e-07
-4.4339e-05 5.07241e-05 -7.40676e-08
2.75094e-07 -7.40676e-08 -2.00643e-05
0.00143354 -4.62015e-05 -2.5959e-07
-4.62015e-05 5.72966e-05 1.44274e-06
-2.5959e-07 1.44274e-06 -2.12407e-05
0.00136053 -5.43776e-05 -9.72876e-07
-5.43776e-05 4.17907e-05 -1.82043e-06
-9.72876e-07 -1.82043e-06 -2.35629e-05
0.00137612 -5.47391e-05 5.20933e-08
-5.47391e-05 6.45674e-05 -4.25116e-07
5.20933e-08 -4.25116e-07 -9.4675e-06
0.00133857 -5.39486e-05 -6.33377e-07
-5.39486e-05 6.71782e-05 5.34907e-07
-6.33377e-07 5.34907e-07 -1.04719e-05
0.00127647 -5.53445e-05 -3.22303e-07
-5.53445e-05 3.72063e-05 7.49253e-08
-3.22303e-07 7.49253e-08 -3.46582e-05
0.00123623 -5.42785e-05 -1.80541e-07
-5.42785e-05 3.91682e-05 -1.74542e-07
-1.80541e-07 -1.74542e-07 -3.68463e-05
0.00120814 -5.08664e-05 -1.92315e-06
-5.08664e-05 5.78968e-05 7.02033e-07
-1.92315e-06 7.02033e-07 -1.62653e-05
0.00108796 -5.74172e-05 1.39726e-06
-5.74172e-05 -7.37301e-06 -5.52179e-07
1.39726e-06 -5.52179e-07 -8.67918e-05
0.00106493 -5.20211e-05 7.71499e-08
-5.20211e-05 1.16405e-05 4.20266e-08
7.71499e-08 4.20266e-08 -6.33553e-05
0.000975135 -3.60633e-05 -3.09326e-06
-3.60633e-05 1.56809e-05 1.53204e-06
-3.09326e-06 1.53204e-06 -4.79858e-05
0.000703141 6.69997e-06 -5.35875e-06
6.69997e-06 -4.82108e-05 3.59026e-06
-5.35875e-06 3.59026e-06 -8.33376e-05
0.000936921 -3.31855e-05 5.086e-08
-3.31855e-05 2.24374e-05 9.1611e-08
5.086e-08 9.1611e-08 -4.06874e-05
0.00104755 -5.53379e-05 1.12467e-06
-5.53379e-05 3.86948e-05 -7.50945e-07
1.12467e-06 -7.50945e-07 -3.64623e-05
0.00284906 6.19068e-05 -2.71692e-05
6.19068e-05 0.00105268 3.2188e-06
-2.71692e-05 3.2188e-06 0.00105587
0.000742268 1.98323e-05 2.26726e-08
1.98323e-05 -3.10179e-05 -6.92696e-08
2.26726e-08 -6.92696e-08 -6.17848e-05
0.000946026 -2.51122e-05 2.77756e-06
-2.51122e-05 4.32815e-05 -1.69859e-06
2.77756e-06 -1.69859e-06 -1.78461e-05
0.00274009 5.68393e-05 3.01306e-07
5.68393e-05 0.000987597 9.38083e-08
3.01306e-07 9.38083e-08 0.000993605
0.000797708 2.95583e-05 4.62104e-06
2.95583e-05 -8.88019e-06 -3.40916e-06
4.62104e-06 -3.40916e-06 -3.48492e-05
0.00265013 5.20835e-05 2.5581e-05
5.20835e-05 0.000933763 -3.48418e-06
2.5581e-05 -3.48418e-06 0.000942164
0.000739903 5.81537e-05 -4.79985e-07
5.81537e-05 -0.000103546 -6.88597e-07
-4.79985e-07 -6.88597e-07 -0.000190155
0.000817733 5.57916e-05 -2.21397e-08
5.57916e-05 -3.72861e-05 -1.02776e-07
-2.21397e-08 -1.02776e-07 -0.000119439
0.00110227 5.15641e-05 -1.51022e-06
5.15641e-05 0.000103178 -4.95935e-07
-1.51022e-06 -4.95935e-07 2.89504e-05
0.000998412 5.49965e-05 4.86074e-07
5.49965e-05 6.62401e-05 -5.81627e-08
4.86074e-07 -5.81627e-08 -1.2052e-05
0.00100948 4.04461e-05 -5.87377e-08
4.04461e-05 7.01818e-05 -5.98177e-08
-5.87377e-08 -5.98177e-08 -1.60461e-06
0.000916508 7.31563e-06 -2.62834e-06
7.31563e-06 3.68986e-05 -1.42899e-06
-2.62834e-06 -1.42899e-06 -2.20308e-05
0.0010151 2.80496e-05 9.57645e-07
2.80496e-05 7.3539e-05 1.31339e-07
9.57645e-07 1.31339e-07 4.05721e-06
0.000887664 -7.38924e-07 1.02295e-07
-7.38924e-07 1.81897e-05 4.95212e-08
1.02295e-07 4.95212e-08 -3.7555e-05
0.000778355 -3.9369e-05 -3.48738e-06
-3.9369e-05 -2.37836e-05 -3.51582e-06
-3.48738e-06 -3.51582e-06 -4.67593e-05
0.000891151 -1.03223e-05 2.46271e-06
-1.03223e-05 1.2656e-05 2.13748e-06
2.46271e-06 2.13748e-06 -3.89425e-05
0.000767092 -3.39113e-05 -2.8706e-08
-3.39113e-05 -4.11755e-05 1.80197e-09
-2.8706e-08 1.80197e-09 -5.95674e-05
0.00258813 -4.78673e-05 -2.41626e-05
-4.78673e-05 0.000893122 -3.55278e-06
-2.41626e-05 -3.55278e-06 0.000903809
0.000774077 -2.81208e-05 3.78194e-06
-2.81208e-05 -4.75728e-05 3.76188e-06
3.78194e-06 3.76188e-06 -6.18928e-05
0.00254253 -4.32951e-05 -2.9975e-07
-4.32951e-05 0.000860807 7.5495e-08
-2.9975e-07 7.5495e-08 0.00087385
0.00248912 -3.89151e-05 2.09397e-05
-3.89151e-05 0.000825823 3.75331e-06
2.09397e-05 3.75331e-06 0.000840969
0.00163729 -2.24142e-05 -2.26706e-07
-2.24142e-05 -3.95611e-06 1.64843e-06
-2.26706e-07 1.64843e-06 -5.69333e-05
0.0011526 -4.64138e-05 4.52117e-07
-4.64138e-05 -0.000139801 -3.98031e-07
4.52117e-07 -3.98031e-07 -0.000175549
0.000702178 -3.77547e-05 4.47036e-05
-3.77547e-05 -0.000208159 1.8357e-05
4.47036e-05 1.8357e-05 -0.000373887
0.00180736 8.72851e-05 6.37401e-07
8.72851e-05 0.000336008 -2.22133e-06
6.37401e-07 -2.22133e-06 0.000249628
0.00089999 6.1912e-05 -7.51353e-07
6.1912e-05 4.15779e-07 3.76063e-07
-7.51353e-07 3.76063e-07 -7.50647e-05
0.000765886 6.50228e-05 -2.55309e-06
6.50228e-05 -0.00019111 -6.64704e-08
-2.55309e-06 -6.64704e-08 -0.000283601
0.00131671 7.61531e-05 1.93706e-07
7.61531e-05 0.000145327 8.43539e-08
1.93706e-07 8.43539e-08 5.69871e-05
0.000582928 5.3347e-05 -1.08807e-06
5.3347e-05 -0.000140204 8.02984e-07
-1.08807e-06 8.02984e-07 -0.000223342
0.00168108 8.35476e-05 -3.45479e-06
8.35476e-05 0.000143483 -4.11192e-06
-3.45479e-06 -4.11192e-06 4.29074e-05
0.00127604 7.47366e-05 3.90803e-07
7.47366e-05 0.000190542 -6.72831e-08
3.90803e-07 -6.72831e-08 0.000112107
0.00140484 8.89584e-05 -1.81444e-08
8.89584e-05 0.000124983 2.74675e-07
-1.81444e-08 2.74675e-07 3.22146e-05
0.00159956 3.6072e-05 -2.41265e-06
3.6072e-05 9.83372e-06 2.79572e-06
-2.41265e-06 2.79572e-06 -7.89516e-05
0.00143036 9.91776e-05 1.63373e-06
9.91776e-05 0.000141359 3.10054e-06
1.63373e-06 3.10054e-06 4.12669e-05
0.00150916 9.06202e-05 -8.58797e-07
9.06202e-05 2.42528e-05 -7.29902e-07
-8.58797e-07 -7.29902e-07 -8.43897e-05
0.0018388 3.03203e-05 -5.00137e-07
3.03203e-05 5.85226e-05 1.93377e-06
-5.00137e-07 1.93377e-06 -2.36528e-05
0.00163423 9.76114e-05 3.65185e-06
9.76114e-05 4.37817e-05 2.59825e-06
3.65185e-06 2.59825e-06 -6.95606e-05
0.00152815 -6.57653e-06 -8.29383e-06
-6.57653e-06 -5.11918e-05 -6.47166e-06
-8.29383e-06 -6.47166e-06 -7.87799e-05
0.00171611 1.49747e-06 -2.05372e-06
1.49747e-06 0.000155032 -1.17438e-06
-2.05372e-06 -1.17438e-06 9.45135e-05
0.00150964 1.46111e-05 1.06326e-06
1.46111e-05 3.75495e-05 4.32311e-07
1.06326e-06 4.32311e-07 -2.28167e-05
0.000520099 -1.02039e-05 9.67822e-07
-1.02039e-05 -0.000322934 3.00652e-06
9.67822e-07 3.00652e-06 -0.00039028
0.00191164 5.35964e-05 2.73547e-06
5.35964e-05 7.08788e-05 -1.1263e-06
2.73547e-06 -1.1263e-06 2.94859e-06
0.00218126 6.29211e-05 1.48842e-05
6.29211e-05 0.000312835 4.62143e-06
1.48842e-05 4.62143e-06 0.000230094
0.00184208 4.51598e-05 -3.027e-06
4.51598e-05 0.000156262 -4.7809e-07
-3.027e-06 -4.7809e-07 7.50157e-05
0.00155496 3.78623e-05 8.89537e-07
3.78623e-05 6.15183e-05 1.77684e-06
8.89537e-07 1.77684e-06 -8.28686e-06
0.00161495 3.67965e-05 -2.94556e-06
3.67965e-05 9.47235e-05 -1.95881e-06
-2.94556e-06 -1.95881e-06 1.84432e-05
0.00169052 6.24229e-06 -1.35268e-06
6.24229e-06 7.73968e-05 -2.08286e-06
-1.35268e-06 -2.08286e-06 1.37445e-05
0.00170141 1.8099e-05 -8.02942e-09
1.8099e-05 0.000108318 -2.44951e-07
-8.02942e-09 -2.44951e-07 2.95469e-05
0.00160978 2.2158e-05 -2.29636e-06
2.2158e-05 7.96697e-05 -6.6238e-07
-2.29636e-06 -6.6238e-07 -2.88884e-06
0.00159049 -2.198e-05 -3.32525e-07
-2.198e-05 6.70305e-05 -2.37881e-06
-3.32525e-07 -2.37881e-06 2.35937e-06
0.00152318 -1.66113e-05 2.60786e-07
-1.66113e-05 4.89743e-05 3.96208e-07
2.60786e-07 3.96208e-07 -2.86205e-05
0.00151688 -1.70945e-05 -1.2498e-06
-1.70945e-05 6.38006e-05 8.73299e-07
-1.2498e-06 8.73299e-07 -1.86998e-05
0.00148443 -4.38117e-05 1.69053e-08
-4.38117e-05 6.25788e-05 -2.1755e-06
1.69053e-08 -2.1755e-06 -8.26807e-06
0.00144884 -4.52976e-05 1.92717e-07
-4.52976e-05 6.39828e-05 4.50509e-08
1.92717e-07 4.50509e-08 -1.45975e-05
0.00139802 -4.69431e-05 -1.07893e-06
-4.69431e-05 6.38297e-05 1.0215e-06
-1.07893e-06 1.0215e-06 -1.70627e-05
0.00137625 -5.41088e-05 -2.52822e-07
-5.41088e-05 6.43757e-05 -1.32917e-06
-2.52822e-07 -1.32917e-06 -9.59504e-06
0.00133885 -5.35298e-05 6.38601e-09
-5.35298e-05 6.68887e-05 -2.48916e-07
6.38601e-09 -2.48916e-07 -1.07158e-05
0.00124537 -4.85856e-05 -1.81212e-06
-4.85856e-05 5.21442e-05 7.73659e-07
-1.81212e-06 7.73659e-07 -2.36591e-05
0.00113577 -5.22753e-05 6.18363e-07
-5.22753e-05 -1.03393e-05 -4.04293e-07
6.18363e-07 -4.04293e-07 -8.6162e-05
0.00119571 -5.01759e-05 -2.02569e-08
-5.01759e-05 5.19018e-05 -4.75725e-08
-2.02569e-08 -4.75725e-08 -2.21593e-05
0.00102446 -3.60554e-05 -3.37257e-06
-3.60554e-05 1.57247e-05 1.47716e-06
-3.37257e-06 1.47716e-06 -4.83767e-05
0.000902552 -4.80804e-05 1.73235e-06
-4.80804e-05 -6.79692e-05 -7.7949e-07
1.73235e-06 -7.7949e-07 -0.000143078
0.000976257 -3.64054e-05 5.57713e-08
-3.64054e-05 1.70018e-05 4.81606e-08
5.57713e-08 4.81606e-08 -4.67587e-05
0.00166517 1.14956e-05 -6.62231e-06
1.14956e-05 0.000440064 2.02129e-06
-6.62231e-06 2.02129e-06 0.000406605
0.00113591 3.4614e-05 -2.812e-05
3.4614e-05 0.00018917 6.05429e-06
-2.812e-05 6.05429e-06 0.000177468
0.001227 1.24505e-05 -1.14414e-06
1.24505e-05 0.00021516 -1.39199e-08
-1.14414e-06 -1.39199e-08 0.000182708
0.000958088 -3.4494e-05 2.99276e-06
-3.4494e-05 3.30576e-05 -1.54715e-06
2.99276e-06 -1.54715e-06 -3.01694e-05
0.00286145 6.14602e-05 3.52949e-07
6.14602e-05 0.00106124 1.16582e-07
3.52949e-07 1.16582e-07 0.00106376
0.000809854 1.72267e-05 5.33467e-06
1.72267e-05 -1.1722e-07 -3.41012e-06
5.33467e-06 -3.41012e-06 -3.06735e-05
0.00272518 5.62026e-05 2.71566e-05
5.62026e-05 0.000981862 -3.4227e-06
2.71566e-05 -3.4227e-06 0.000987454
0.00117878 6.87307e-05 -9.49244e-07
6.87307e-05 -2.15045e-05 -1.12554e-07
-9.49244e-07 -1.12554e-07 -0.000106426
0.00082654 6.27907e-05 6.67305e-07
6.27907e-05 -9.79229e-05 2.49762e-07
6.67305e-07 2.49762e-07 -0.000187103
0.000854335 6.1587e-05 -1.08733e-07
6.1587e-05 -5.19025e-05 -7.30687e-08
-1.08733e-07 -7.30687e-08 -0.000139171
0.00112108 5.73113e-05 -1.5139e-06
5.73113e-05 9.41681e-05 -7.16792e-07
-1.5139e-06 -7.16792e-07 1.7727e-05
0.000688689 5.24118e-05 4.07099e-07
5.24118e-05 -0.000103368 5.67232e-07
4.07099e-07 5.67232e-07 -0.000185914
0.00103678 4.86443e-05 -1.46502e-07
4.86443e-05 7.15142e-05 -4.26298e-08
-1.46502e-07 -4.26298e-08 -2.4063e-06
0.000937753 1.6723e-05 -2.74576e-06
1.6723e-05 4.74544e-05 -1.16767e-06
-2.74576e-06 -1.16767e-06 -1.34703e-05
0.000958777 3.82462e-05 1.25827e-06
3.82462e-05 4.56329e-05 3.90385e-07
1.25827e-06 3.90385e-07 -2.60059e-05
0.000877237 4.38284e-06 8.3233e-08
4.38284e-06 1.90674e-05 1.11034e-07
8.3233e-08 1.11034e-07 -4.0036e-05
0.000780035 -3.58159e-05 -4.13682e-06
-3.58159e-05 -1.43449e-05 -3.30542e-06
-4.13682e-06 -3.30542e-06 -4.13918e-05
0.000878876 -5.14516e-06 2.44896e-06
-5.14516e-06 1.57637e-05 1.71851e-06
2.44896e-06 1.71851e-06 -4.01964e-05
0.000739101 -3.81805e-05 3.39245e-09
-3.81805e-05 -4.42894e-05 -2.48713e-08
3.39245e-09 -2.48713e-08 -6.69268e-05
0.00263766 -5.23966e-05 -2.52622e-05
-5.23966e-05 0.000927959 -3.44046e-06
-2.52622e-05 -3.44046e-06 0.000936187
0.000743578 -3.25632e-05 4.04107e-06
-3.25632e-05 -5.41015e-05 3.69339e-06
4.04107e-06 3.69339e-06 -7.21029e-05
0.00260906 -4.80365e-05 -2.64175e-07
-4.80365e-05 0.000902342 8.27941e-08
-2.64175e-07 8.27941e-08 0.000913279
0.00255642 -4.33841e-05 2.24738e-05
-4.33841e-05 0.000866684 3.6668e-06
2.24738e-05 3.6668e-06 0.000879965
0.00158758 -2.02595e-05 -1.72309e-07
-2.02595e-05 3.68094e-05 2.18144e-06
-1.72309e-07 2.18144e-06 -3.11558e-05
0.00174185 -2.169e-05 1.38393e-06
-2.169e-05 6.71812e-05 -1.87372e-06
1.38393e-06 -1.87372e-06 1.29997e-05
0.0013601 -5.30477e-05 4.69996e-07
-5.30477e-05 -2.74857e-05 -3.17603e-06
4.69996e-07 -3.17603e-06 -6.51569e-05
0.00150735 7.50201e-05 -4.35423e-06
7.50201e-05 8.00017e-05 -2.71477e-06
-4.35423e-06 -2.71477e-06 -1.32329e-05
0.00152823 8.06324e-05 -1.65798e-07
8.06324e-05 0.00021496 3.91684e-07
-1.65798e-07 3.91684e-07 0.000131075
0.000804 6.10165e-05 -3.87143e-06
6.10165e-05 -3.50354e-05 4.87395e-07
-3.87143e-06 4.87395e-07 -0.0001071
0.00132517 7.69849e-05 1.01579e-06
7.69849e-05 7.98582e-05 1.00223e-06
1.01579e-06 1.00223e-06 -1.0906e-05
0.0013215 7.62931e-05 -1.44271e-06
7.62931e-05 0.000146564 7.60124e-07
-1.44271e-06 7.60124e-07 5.76563e-05
0.00173074 3.38904e-05 -2.10759e-06
3.38904e-05 9.20907e-05 1.14644e-06
-2.10759e-06 1.14644e-06 -3.36901e-06
0.00162925 8.41461e-05 -1.57423e-06
8.41461e-05 0.000116092 -1.49229e-06
-1.57423e-06 -1.49229e-06 1.36163e-05
0.00139984 8.78405e-05 1.87833e-06
8.78405e-05 0.000117238 4.36254e-06
1.87833e-06 4.36254e-06 2.44994e-05
0.00171076 3.46997e-05 -3.84936e-07
3.46997e-05 6.26969e-05 9.4647e-07
-3.84936e-07 9.4647e-07 -2.65953e-05
0.00189871 9.96459e-05 3.42016e-06
9.96459e-05 0.000208192 1.52591e-06
3.42016e-06 1.52591e-06 9.88529e-05
0.00175376 2.74998e-05 3.92357e-06
2.74998e-05 2.77955e-05 -8.25112e-07
3.92357e-06 -8.25112e-07 -5.64064e-05
0.00141308 1.80444e-06 -1.50981e-06
1.80444e-06 1.10532e-05 4.60808e-08
-1.50981e-06 4.60808e-08 -5.92736e-05
0.00156382 3.23751e-06 -2.91394e-07
3.23751e-06 7.68527e-05 -5.48246e-07
-2.91394e-07 -5.48246e-07 1.56082e-05
0.000934614 9.21928e-06 5.79795e-06
9.21928e-06 -0.000258985 5.76289e-06
5.79795e-06 5.76289e-06 -0.000318837
0.00202544 4.83283e-05 4.65374e-06
4.83283e-05 0.000235572 -9.42802e-07
4.65374e-06 -9.42802e-07 0.000154138
0.00167946 3.79761e-05 7.0919e-06
3.79761e-05 0.000127659 4.9918e-06
7.0919e-06 4.9918e-06 5.8418e-05
0.0016662 3.72335e-05 -1.1344e-06
3.72335e-05 0.00011979 -3.96863e-07
-1.1344e-06 -3.96863e-07 4.38586e-05
0.00155844 3.12726e-05 -1.0211e-06
3.12726e-05 8.20923e-05 -7.57285e-07
-1.0211e-06 -7.57285e-07 1.17343e-06
0.00172245 1.71776e-05 1.62749e-06
1.71776e-05 0.000116324 -6.549e-07
1.62749e-06 -6.549e-07 3.84141e-05
0.00161578 2.01077e-05 -4.88508e-07
2.01077e-05 8.06308e-05 -8.14742e-08
-4.88508e-07 -8.14742e-08 -1.79492e-06
0.00152861 1.32107e-05 -2.47417e-06
1.32107e-05 5.67979e-05 -9.88538e-07
-2.47417e-06 -9.88538e-07 -2.63721e-05
0.00157959 -1.6934e-05 8.54451e-07
-1.6934e-05 7.70478e-05 -6.62646e-07
8.54451e-07 -6.62646e-07 -9.64185e-07
0.00152205 -1.7508e-05 6.71959e-08
-1.7508e-05 6.58762e-05 3.95808e-07
6.71959e-08 3.95808e-07 -1.67391e-05
0.00147131 -2.45956e-05 -1.8355e-06
-2.45956e-05 6.76506e-05 5.15299e-07
-1.8355e-06 5.15299e-07 -1.53535e-05
0.00146402 -4.43285e-05 8.10954e-07
-4.43285e-05 7.06156e-05 -1.33503e-06
8.10954e-07 -1.33503e-06 -8.00471e-06
0.0014054 -4.65593e-05 1.05534e-07
-4.65593e-05 6.67736e-05 1.08823e-07
1.05534e-07 1.08823e-07 -1.41559e-05
0.00130562 -4.36704e-05 -2.13296e-06
-4.36704e-05 5.29162e-05 9.92496e-07
-2.13296e-06 9.92496e-07 -2.55459e-05
0.00133846 -5.31433e-05 7.03052e-07
-5.31433e-05 6.62843e-05 -1.02774e-06
7.03052e-07 -1.02774e-06 -1.12787e-05
0.00124812 -4.82365e-05 -3.62242e-09
-4.82365e-05 5.31376e-05 -1.26039e-07
-3.62242e-09 -1.26039e-07 -2.26185e-05
0.00107013 -3.54965e-05 -3.67249e-06
-3.54965e-05 1.62795e-05 1.64211e-06
-3.67249e-06 1.64211e-06 -4.96072e-05
0.00118233 -4.94814e-05 1.68074e-06
-4.94814e-05 4.54399e-05 -7.31906e-07
1.68074e-06 -7.31906e-07 -2.85205e-05
0.00101822 -3.58342e-05 9.01649e-08
-3.58342e-05 1.31194e-05 -4.20642e-08
9.01649e-08 -4.20642e-08 -5.10678e-05
0.00171779 5.31548e-06 -6.89148e-06
5.31548e-06 0.000461469 2.07528e-06
-6.89148e-06 2.07528e-06 0.000425728
0.000979347 -3.69622e-05 3.16714e-06
-3.69622e-05 1.92706e-05 -1.38226e-06
3.16714e-06 -1.38226e-06 -4.45904e-05
0.00174091 7.51745e-06 6.32294e-06
7.51745e-06 0.000473663 -9.42547e-07
6.32294e-06 -9.42547e-07 0.000440282
0.00120336 3.23788e-05 -3.29653e-05
3.23788e-05 0.000238032 5.89223e-06
-3.29653e-05 5.89223e-06 0.000221399
0.00207239 4.92602e-05 -2.1745e-05
4.92602e-05 0.000669764 1.70528e-06
-2.1745e-05 1.70528e-06 0.000663272
0.00177244 1.32865e-05 1.65401e-05
1.32865e-05 0.000488793 -2.79863e-06
1.65401e-05 -2.79863e-06 0.000459495
0.00286808 6.03174e-05 2.97785e-05
6.03174e-05 0.00106667 -3.36419e-06
2.97785e-05 -3.36419e-06 0.00106863
0.00150812 6.89026e-05 -3.25302e-06
6.89026e-05 7.6351e-05 -2.2797e-06
-3.25302e-06 -2.2797e-06 -1.27837e-05
0.0014162 7.36899e-05 1.73048e-06
7.36899e-05 0.000145898 -3.13047e-08
1.73048e-06 -3.13047e-08 6.12516e-05
0.00118203 6.89985e-05 1.07503e-06
6.89985e-05 -1.01657e-05 6.6701e-07
1.07503e-06 6.6701e-07 -9.01954e-05
0.00113153 6.2061e-05 -1.49366e-06
6.2061e-05 7.64264e-05 -1.02675e-06
-1.49366e-06 -1.02675e-06 -3.82841e-06
0.00112251 7.0979e-05 -3.71141e-07
7.0979e-05 4.41218e-05 1.98528e-07
-3.71141e-07 1.98528e-07 -4.52246e-05
0.000997237 6.5958e-05 4.64972e-07
6.5958e-05 1.34389e-05 7.05342e-07
4.64972e-07 7.05342e-07 -7.45022e-05
0.00108339 5.60882e-05 -7.62215e-08
5.60882e-05 7.78759e-05 -1.16666e-07
-7.62215e-08 -1.16666e-07 1.31477e-06
0.000962604 2.81707e-05 -2.6532e-06
2.81707e-05 5.17287e-05 -1.1842e-06
-2.6532e-06 -1.1842e-06 -1.11616e-05
0.000972731 4.58249e-05 1.08839e-06
4.58249e-05 4.05792e-05 3.42425e-07
1.08839e-06 3.42425e-07 -3.30432e-05
0.000888465 1.32608e-05 -6.21136e-08
1.32608e-05 2.35447e-05 9.12148e-08
-6.21136e-08 9.12148e-08 -3.73777e-05
0.000788478 -2.72367e-05 -4.94132e-06
-2.72367e-05 -3.82649e-06 -3.06266e-06
-4.94132e-06 -3.06266e-06 -3.52416e-05
0.00084367 1.59381e-06 2.36439e-06
1.59381e-06 4.01984e-06 1.49078e-06
2.36439e-06 1.49078e-06 -5.52646e-05
0.000724241 -4.12512e-05 -2.4611e-08
-4.12512e-05 -4.1231e-05 -3.03571e-08
-2.4611e-08 -3.03571e-08 -6.86239e-05
0.00268849 -5.66462e-05 -2.66371e-05
-5.66462e-05 0.000966168 -3.32585e-06
-2.66371e-05 -3.32585e-06 0.00097138
0.000699105 -3.69267e-05 3.89917e-06
-3.69267e-05 -6.51765e-05 3.62581e-06
3.89917e-06 3.62581e-06 -8.74647e-05
0.00266721 -5.27888e-05 -2.53949e-07
-5.27888e-05 0.000941047 8.88621e-08
-2.53949e-07 8.88621e-08 0.0009496
0.00262844 -4.81449e-05 2.37606e-05
-4.81449e-05 0.000910751 3.54198e-06
2.37606e-05 3.54198e-06 0.000921952
0.00159312 -1.60443e-05 -1.90548e-06
-1.60443e-05 4.79421e-05 2.44031e-06
-1.90548e-06 2.44031e-06 -3.19305e-05
0.00164453 -1.91958e-05 4.01122e-07
-1.91958e-05 6.4606e-05 -5.85757e-07
4.01122e-07 -5.85757e-07 -3.74519e-06
0.00210424 -2.18222e-05 1.33133e-06
-2.18222e-05 0.000263135 -5.1963e-06
1.33133e-06 -5.1963e-06 0.000207653
0.00147958 3.60523e-05 -2.20442e-06
3.60523e-05 -7.28049e-06 4.39907e-07
-2.20442e-06 4.39907e-07 -9.98128e-05
0.00156205 7.62801e-05 1.57315e-07
7.62801e-05 0.000108256 -6.38857e-07
1.57315e-07 -6.38857e-07 1.47484e-05
0.00133671 7.59216e-05 -1.20937e-06
7.59216e-05 0.000135839 1.90217e-06
-1.20937e-06 1.90217e-06 5.45087e-05
0.00182999 8.77873e-05 1.73408e-06
8.77873e-05 0.000323729 8.42364e-07
1.73408e-06 8.42364e-07 0.000234782
0.00181426 3.56656e-05 -1.91299e-07
3.56656e-05 0.000133111 -1.19462e-07
-1.91299e-07 -1.19462e-07 3.79815e-05
0.0015935 8.48394e-05 2.22785e-06
8.48394e-05 9.60196e-05 1.49777e-06
2.22785e-06 1.49777e-06 -8.23533e-06
0.00181749 3.23872e-05 2.86859e-06
3.23872e-05 0.00011296 -4.95417e-07
2.86859e-06 -4.95417e-07 2.32402e-05
0.00152499 1.26701e-06 2.59058e-07
1.26701e-06 6.30714e-05 5.82379e-07
2.59058e-07 5.82379e-07 -1.51312e-05
0.00145704 3.14845e-06 2.42854e-08
3.14845e-06 2.85868e-05 -2.52503e-07
2.42854e-08 -2.52503e-07 -4.34086e-05
0.00145355 5.60667e-06 1.40945e-06
5.60667e-06 2.01701e-05 9.31983e-07
1.40945e-06 9.31983e-07 -4.19495e-05
0.00157228 3.11629e-05 -5.66807e-07
3.11629e-05 9.70341e-05 -4.87706e-09
-5.66807e-07 -4.87706e-09 1.1969e-05
0.00170887 3.75179e-05 2.68101e-06
3.75179e-05 0.000140938 1.29569e-06
2.68101e-06 1.29569e-06 6.53289e-05
0.0015603 3.15908e-05 2.49755e-07
3.15908e-05 8.24162e-05 2.28321e-07
2.49755e-07 2.28321e-07 1.14015e-06
0.00157643 2.77234e-05 -8.18608e-07
2.77234e-05 9.44459e-05 -4.47044e-07
-8.18608e-07 -4.47044e-07 1.14214e-05
0.00164219 1.83213e-05 1.55025e-06
1.83213e-05 9.1515e-05 4.38633e-07
1.55025e-06 4.38633e-07 9.22429e-06
0.00154908 1.31093e-05 -6.78975e-07
1.31093e-05 6.69639e-05 -1.36354e-07
-6.78975e-07 -1.36354e-07 -1.61602e-05
0.00149925 6.93372e-06 -2.80731e-06
6.93372e-06 6.83229e-05 -4.6009e-07
-2.80731e-06 -4.6009e-07 -1.53641e-05
0.0015291 -1.72793e-05 1.99531e-06
-1.72793e-05 6.8856e-05 -1.03736e-07
1.99531e-06 -1.03736e-07 -1.38703e-05
0.00146485 -2.3207e-05 5.11404e-08
-2.3207e-05 6.46569e-05 1.83519e-07
5.11404e-08 1.83519e-07 -1.84451e-05
0.00137272 -3.00951e-05 -2.73636e-06
-3.00951e-05 5.80698e-05 6.06213e-07
-2.73636e-06 6.06213e-07 -2.17877e-05
0.00141399 -4.61361e-05 1.52104e-06
-4.61361e-05 7.02957e-05 -8.13176e-07
1.52104e-06 -8.13176e-07 -1.06669e-05
0.00130938 -4.33451e-05 5.34827e-08
-4.33451e-05 5.43653e-05 1.12244e-07
5.34827e-08 1.12244e-07 -2.41042e-05
0.00112489 -3.28842e-05 -4.26687e-06
-3.28842e-05 2.03973e-05 1.83766e-06
-4.26687e-06 1.83766e-06 -4.79317e-05
0.00125052 -4.78248e-05 1.844e-06
-4.78248e-05 5.3965e-05 -1.00583e-06
1.844e-06 -1.00583e-06 -2.17418e-05
0.0010681 -3.49647e-05 1.80869e-07
-3.49647e-05 1.48184e-05 -9.00515e-08
1.80869e-07 -9.00515e-08 -5.1129e-05
0.00176634 2.42852e-06 -6.85236e-06
2.42852e-06 0.000478882 2.19819e-06
-6.85236e-06 2.19819e-06 0.000441948
0.00101475 -3.56463e-05 3.32152e-06
-3.56463e-05 1.19139e-05 -1.41666e-06
3.32152e-06 -1.41666e-06 -5.23644e-05
0.00180516 1.05034e-06 7.28572e-06
1.05034e-06 0.000500789 -8.19354e-07
7.28572e-06 -8.19354e-07 0.000465308
0.00124304 2.89104e-05 -3.68832e-05
2.89104e-05 0.000268184 5.41703e-06
-3.68832e-05 5.41703e-06 0.000248776
0.00182021 3.15801e-06 2.03095e-05
3.15801e-06 0.000508962 -4.11552e-06
2.03095e-05 -4.11552e-06 0.000475748
0.00119233 3.78354e-05 -1.33476e-05
3.78354e-05 0.000235407 2.07399e-06
-1.33476e-05 2.07399e-06 0.000218204
0.00295921 7.25535e-05 1.17072e-05
7.25535e-05 0.00112666 -1.32778e-06
1.17072e-05 -1.32778e-06 0.00112439
0.00177431 4.58e-05 -2.46737e-06
4.58e-05 0.000170929 -9.66969e-07
-2.46737e-06 -9.66969e-07 7.86297e-05
0.00152281 6.73842e-05 -1.15675e-06
6.73842e-05 0.000122029 -2.00135e-06
-1.15675e-06 -2.00135e-06 3.58425e-05
0.00156059 7.08585e-05 -1.53023e-06
7.08585e-05 0.000111466 1.16675e-06
-1.53023e-06 1.16675e-06 2.31497e-05
0.00146883 6.93457e-05 -9.91335e-07
6.93457e-05 0.000204334 -2.81707e-07
-9.91335e-07 -2.81707e-07 0.000124132
0.00127052 7.14393e-05 4.34653e-07
7.14393e-05 7.24429e-05 -9.21638e-07
4.34653e-07 -9.21638e-07 -1.19628e-05
0.00123853 7.02299e-05 2.76806e-06
7.02299e-05 2.75359e-05 1.38952e-06
2.76806e-06 1.38952e-06 -4.77139e-05
0.000996562 4.08724e-05 -2.85908e-06
4.08724e-05 4.90654e-05 -1.54975e-06
-2.85908e-06 -1.54975e-06 -1.75734e-05
0.00112542 6.20954e-05 -7.23159e-08
6.20954e-05 7.34826e-05 -8.67622e-08
-7.23159e-08 -8.67622e-08 -6.85818e-06
0.00139607 7.84693e-05 1.54376e-06
7.84693e-05 0.000175855 1.0347e-06
1.54376e-06 1.0347e-06 8.6285e-05
0.00102941 5.43508e-05 1.21265e-06
5.43508e-05 5.35289e-05 4.01568e-07
1.21265e-06 4.01568e-07 -2.31184e-05
0.000919267 2.6778e-05 -5.32132e-08
2.6778e-05 3.09086e-05 -6.76734e-08
-5.32132e-08 -6.76734e-08 -3.18742e-05
0.000799348 -6.44292e-06 -5.59157e-06
-6.44292e-06 3.65854e-06 -3.10242e-06
-5.59157e-06 -3.10242e-06 -3.17322e-05
0.000830576 1.01189e-05 2.27908e-06
1.01189e-05 -4.85249e-06 1.14788e-06
2.27908e-06 1.14788e-06 -6.5704e-05
0.000726773 -2.67524e-05 -1.47526e-07
-2.67524e-05 -3.28263e-05 -3.58797e-08
-1.47526e-07 -3.58797e-08 -6.41293e-05
0.00277597 -6.07347e-05 -2.87279e-05
-6.07347e-05 0.00102608 -3.16672e-06
-2.87279e-05 -3.16672e-06 0.00102762
0.000663151 -3.98732e-05 3.65375e-06
-3.98732e-05 -7.15572e-05 3.54136e-06
3.65375e-06 3.54136e-06 -9.87357e-05
0.00271438 -5.72541e-05 -3.12472e-07
-5.72541e-05 0.000976623 9.69721e-08
-3.12472e-07 9.69721e-08 0.000982318
0.00269479 -5.30623e-05 2.47846e-05
-5.30623e-05 0.000953156 3.38959e-06
2.47846e-05 3.38959e-06 0.000962046
0.00164019 -5.23098e-06 -1.22733e-06
-5.23098e-06 7.60569e-05 1.04904e-06
-1.22733e-06 1.04904e-06 -6.38119e-06
0.00169155 -1.51858e-05 -1.38688e-07
-1.51858e-05 8.91078e-05 5.955e-07
-1.38688e-07 5.955e-07 8.28493e-06
0.00163744 -1.79942e-05 1.76226e-06
-1.79942e-05 6.16347e-05 -3.31155e-06
1.76226e-06 -3.31155e-06 -7.13314e-06
0.00160891 3.71283e-05 4.06447e-07
3.71283e-05 5.04751e-05 -1.15657e-07
4.06447e-07 -1.15657e-07 -4.15706e-05
0.00162693 7.78447e-05 1.9256e-06
7.78447e-05 0.000141992 1.02094e-06
1.9256e-06 1.02094e-06 4.81209e-05
0.00190865 3.71259e-05 2.34584e-06
3.71259e-05 0.000179394 -8.90035e-07
2.34584e-06 -8.90035e-07 8.46187e-05
0.00154905 2.52323e-06 -8.1459e-07
2.52323e-06 7.2888e-05 6.22158e-07
-8.1459e-07 6.22158e-07 -1.16234e-05
0.00151201 4.00704e-06 5.62727e-07
4.00704e-06 5.89224e-05 -2.62039e-07
5.62727e-07 -2.62039e-07 -1.97248e-05
0.00152793 4.56515e-06 1.28596e-06
4.56515e-06 5.90997e-05 -1.91185e-07
1.28596e-06 -1.91185e-07 -1.45587e-05
0.00154264 2.2632e-05 -6.72114e-07
2.2632e-05 8.2784e-05 -2.03399e-07
-6.72114e-07 -2.03399e-07 -1.77825e-06
0.00158783 2.05224e-05 -1.94122e-07
2.05224e-05 0.000110765 2.35575e-07
-1.94122e-07 2.35575e-07 2.35059e-05
0.00155504 3.19291e-05 1.51253e-06
3.19291e-05 7.92815e-05 6.48541e-07
1.51253e-06 6.48541e-07 -2.35359e-06
0.00156969 2.75024e-05 4.15748e-07
2.75024e-05 9.19538e-05 2.12321e-07
4.15748e-07 2.12321e-07 8.90183e-06
0.00155125 2.29921e-05 -8.49171e-07
2.29921e-05 9.78691e-05 -2.55858e-07
-8.49171e-07 -2.55858e-07 1.40338e-05
0.00156889 1.23508e-05 1.61008e-06
1.23508e-05 7.68289e-05 6.73166e-07
1.61008e-06 6.73166e-07 -6.25139e-06
0.00149394 5.76303e-06 -6.60366e-07
5.76303e-06 6.58937e-05 3.58674e-08
-6.60366e-07 3.58674e-08 -1.77225e-05
0.00140315 -1.79184e-06 -3.67388e-06
-1.79184e-06 5.92186e-05 2.1702e-07
-3.67388e-06 2.1702e-07 -2.14335e-05
0.00146064 -2.33516e-05 1.91738e-06
-2.33516e-05 6.26559e-05 -1.38751e-07
1.91738e-06 -1.38751e-07 -2.05327e-05
0.001366 -2.9323e-05 8.68476e-08
-2.9323e-05 5.47842e-05 1.07887e-07
8.68476e-08 1.07887e-07 -2.5135e-05
0.00115764 -2.30063e-05 -4.92633e-06
-2.30063e-05 1.53986e-05 1.53154e-06
-4.92633e-06 1.53154e-06 -5.38965e-05
0.0013134 -4.29649e-05 2.38831e-06
-4.29649e-05 5.59466e-05 -7.57038e-07
2.38831e-06 -7.57038e-07 -2.25299e-05
0.00112147 -3.2059e-05 2.14174e-07
-3.2059e-05 1.77277e-05 7.54901e-08
2.14174e-07 7.54901e-08 -5.06141e-05
0.0018734 5.32223e-06 -7.00217e-06
5.32223e-06 0.000521471 2.27078e-06
-7.00217e-06 2.27078e-06 0.000484159
0.00106812 -3.44889e-05 3.71902e-06
-3.44889e-05 1.4435e-05 -1.65651e-06
3.71902e-06 -1.65651e-06 -5.1585e-05
0.00187391 -3.04177e-06 8.37593e-06
-3.04177e-06 0.000528369 -6.97741e-07
8.37593e-06 -6.97741e-07 0.000491785
0.00128161 2.3369e-05 -4.07505e-05
2.3369e-05 0.000292943 4.89371e-06
-4.07505e-05 4.89371e-06 0.000272151
0.0018932 -4.32855e-06 2.24367e-05
-4.32855e-06 0.000540211 -3.98167e-06
2.24367e-05 -3.98167e-06 0.00050511
0.00124182 3.67497e-05 -1.52256e-05
3.67497e-05 0.000271349 1.80334e-06
-1.52256e-05 1.80334e-06 0.000250937
0.00117602 4.44827e-05 7.44539e-06
4.44827e-05 0.000230261 -1.70543e-06
7.44539e-06 -1.70543e-06 0.000212353
0.0015655 7.28282e-06 -1.53726e-06
7.28282e-06 4.95716e-05 1.15445e-06
-1.53726e-06 1.15445e-06 -3.36838e-05
0.0015355 4.78569e-05 -2.7286e-06
4.78569e-05 8.49562e-05 -5.85583e-07
-2.7286e-06 -5.85583e-07 -4.46266e-06
0.00167321 4.48238e-05 -1.14459e-06
4.48238e-05 0.000117673 -8.90281e-07
-1.14459e-06 -8.90281e-07 2.50275e-05
0.00144279 6.36185e-05 -2.09794e-06
6.36185e-05 0.000134041 -8.50033e-07
-2.09794e-06 -8.50033e-07 5.2744e-05
0.00158675 6.86953e-05 8.10089e-07
6.86953e-05 0.000158137 6.10462e-07
8.10089e-07 6.10462e-07 7.24108e-05
0.00157528 7.20356e-05 3.71858e-06
7.20356e-05 0.000128218 2.66836e-06
3.71858e-06 2.66836e-06 4.07655e-05
0.000967208 4.53523e-05 -3.38853e-06
4.53523e-05 -1.97763e-07 -1.4085e-06
-3.38853e-06 -1.4085e-06 -6.92955e-05
0.00117033 6.35182e-05 9.67582e-07
6.35182e-05 5.37963e-05 5.975e-07
9.67582e-07 5.975e-07 -2.74482e-05
0.00111385 6.89659e-05 1.25844e-06
6.89659e-05 -6.95033e-06 1.21577e-06
1.25844e-06 1.21577e-06 -9.10282e-05
0.000807353 1.20434e-05 -6.40062e-06
1.20434e-05 5.21505e-06 -3.55343e-06
-6.40062e-06 -3.55343e-06 -3.51481e-05
0.000958042 3.88582e-05 -1.53866e-07
3.88582e-05 2.97993e-05 -1.34335e-07
-1.53866e-07 -1.34335e-07 -3.65975e-05
0.00112583 6.23167e-05 1.54104e-06
6.23167e-05 7.37543e-05 9.03767e-07
1.54104e-06 9.03767e-07 -6.68336e-06
0.00086882 2.47322e-05 2.40411e-06
2.47322e-05 6.5733e-06 9.6726e-07
2.40411e-06 9.6726e-07 -5.61025e-05
0.00073661 -9.76476e-06 -3.99795e-08
-9.76476e-06 -2.30123e-05 -5.36773e-08
-3.99795e-08 -5.36773e-08 -5.88502e-05
0.00294753 -6.40728e-05 -3.26525e-05
-6.40728e-05 0.00112961 -3.01285e-06
-3.26525e-05 -3.01285e-06 0.00112711
0.000673708 -3.52305e-05 3.73262e-06
-3.52305e-05 -5.61241e-05 3.35789e-06
3.73262e-06 3.35789e-06 -8.81359e-05
0.00277816 -6.15938e-05 -3.942e-07
-6.15938e-05 0.00102409 1.10987e-07
-3.942e-07 1.10987e-07 0.00102624
0.00275132 -5.78406e-05 2.57978e-05
-5.78406e-05 0.000992553 3.24921e-06
2.57978e-05 3.24921e-06 0.000998722
0.00163635 -1.22922e-05 -1.04146e-06
-1.22922e-05 9.15421e-05 -3.98619e-07
-1.04146e-06 -3.98619e-07 8.00385e-06
0.00168457 -5.75404e-06 -3.74201e-07
-5.75404e-06 9.58555e-05 2.16099e-07
-3.74201e-07 2.16099e-07 1.3123e-05
0.00174158 -1.43017e-05 9.60559e-07
-1.43017e-05 0.000107029 -1.65074e-06
9.60559e-07 -1.65074e-06 2.51999e-05
0.00172209 3.78681e-05 2.71543e-06
3.78681e-05 0.000100143 -2.75012e-07
2.71543e-06 -2.75012e-07 8.6195e-06
0.00157725 -1.39415e-06 -8.30969e-07
-1.39415e-06 8.69241e-05 -3.2867e-07
-8.30969e-07 -3.2867e-07 -9.95224e-07
0.00160119 2.54125e-06 -2.57793e-07
2.54125e-06 9.86336e-05 -1.71186e-07
-2.57793e-07 -1.71186e-07 1.45303e-05
0.00148738 6.59712e-06 5.0296e-07
6.59712e-06 4.895e-05 -2.45304e-07
5.0296e-07 -2.45304e-07 -3.01232e-05
0.00152442 1.76457e-05 -6.7886e-07
1.76457e-05 7.42185e-05 -5.47425e-07
-6.7886e-07 -5.47425e-07 -9.97054e-06
0.00154459 2.51845e-05 4.64642e-08
2.51845e-05 8.84756e-05 -2.81872e-07
4.64642e-08 -2.81872e-07 1.10602e-06
0.00155944 2.19596e-05 -1.46703e-06
2.19596e-05 0.000106844 5.5708e-07
-1.46703e-06 5.5708e-07 2.06541e-05
0.00156777 2.73394e-05 1.75698e-06
2.73394e-05 9.18078e-05 9.01816e-07
1.75698e-06 9.01816e-07 8.72762e-06
0.0015633 2.35087e-05 4.88525e-07
2.35087e-05 0.000105447 1.05493e-07
4.88525e-07 1.05493e-07 2.18633e-05
0.00132498 1.96989e-05 -2.77358e-06
1.96989e-05 1.58556e-05 -1.0659e-08
-2.77358e-06 -1.0659e-08 -6.58343e-05
0.00148168 6.11299e-06 1.34728e-06
6.11299e-06 6.0204e-05 5.46068e-07
1.34728e-06 5.46068e-07 -2.33571e-05
0.0013901 2.54348e-08 -3.52377e-07
2.54348e-08 5.28396e-05 1.34824e-07
-3.52377e-07 1.34824e-07 -2.774e-05
0.00116823 -3.66766e-06 -5.25399e-06
-3.66766e-06 8.28467e-06 1.05233e-06
-5.25399e-06 1.05233e-06 -6.11765e-05
0.00135876 -2.63724e-05 2.79431e-06
-2.63724e-05 5.12957e-05 -3.49551e-07
2.79431e-06 -3.49551e-07 -2.865e-05
0.0011591 -2.41537e-05 1.1417e-07
-2.41537e-05 1.55136e-05 1.67371e-07
1.1417e-07 1.67371e-07 -5.38343e-05
0.000693868 -1.11076e-05 -7.93785e-06
-1.11076e-05 -9.28002e-05 3.15929e-06
-7.93785e-06 3.15929e-06 -0.000134872
0.00112033 -3.14157e-05 4.4159e-06
-3.14157e-05 1.62297e-05 -1.5811e-06
4.4159e-06 -1.5811e-06 -5.21405e-05
0.00133607 -1.4657e-05 1.03227e-05
-1.4657e-05 0.000243309 -3.46059e-07
1.03227e-05 -3.46059e-07 0.000203899
0.00380938 7.77606e-05 -4.37259e-05
7.77606e-05 0.00158379 1.99998e-06
-4.37259e-05 1.99998e-06 0.00157326
0.00197576 -9.79677e-06 2.47218e-05
-9.79677e-06 0.000574707 -3.86918e-06
2.47218e-05 -3.86918e-06 0.00053861
0.0012909 3.51854e-05 -1.72047e-05
3.51854e-05 0.000302224 1.52031e-06
-1.72047e-05 1.52031e-06 0.000279949
0.00124071 4.65612e-05 7.39969e-06
4.65612e-05 0.000274866 -1.74678e-06
7.39969e-06 -1.74678e-06 0.000253229
0.00165283 -4.28741e-06 -5.25973e-07
-4.28741e-06 0.000104386 4.59941e-08
-5.25973e-07 4.59941e-08 2.27995e-05
0.00139584 1.61735e-05 -1.79684e-06
1.61735e-05 2.67147e-06 8.12107e-07
-1.79684e-06 8.12107e-07 -8.20532e-05
0.00160512 7.18101e-06 8.16112e-08
7.18101e-06 7.23792e-05 -3.96699e-08
8.16112e-08 -3.96699e-08 -1.08249e-05
0.00109121 4.53515e-05 -3.23522e-06
4.53515e-05 -8.75064e-05 -1.01864e-06
-3.23522e-06 -1.01864e-06 -0.000171788
0.00155595 4.80727e-05 1.41045e-07
4.80727e-05 9.77754e-05 -3.37328e-08
1.41045e-07 -3.37328e-08 9.13692e-06
0.00157125 4.39639e-05 1.59323e-06
4.39639e-05 6.42824e-05 -5.28357e-07
1.59323e-06 -5.28357e-07 -2.87514e-05
0.00068953 3.85968e-05 -5.1343e-06
3.85968e-05 -0.000183413 -1.95084e-06
-5.1343e-06 -1.95084e-06 -0.000255088
0.00144245 6.43327e-05 5.66057e-07
6.43327e-05 0.00013333 -5.61619e-09
5.66057e-07 -5.61619e-09 5.19321e-05
0.00164932 7.00953e-05 2.50349e-06
7.00953e-05 0.000194061 1.76579e-06
2.50349e-06 1.76579e-06 0.000108718
0.00078708 2.72404e-05 -7.48037e-06
2.72404e-05 -1.60848e-05 -3.77686e-06
-7.48037e-06 -3.77686e-06 -6.01267e-05
0.000804716 4.15538e-05 -1.36642e-07
4.15538e-05 -8.41306e-05 8.03605e-08
-1.36642e-07 8.03605e-08 -0.000154085
0.000875358 5.77667e-05 2.76381e-06
5.77667e-05 -9.49948e-05 1.65048e-06
2.76381e-06 1.65048e-06 -0.000177289
0.00325837 -6.10233e-05 -4.02899e-05
-6.10233e-05 0.00129907 -3.02625e-06
-4.02899e-05 -3.02625e-06 0.00129308
0.000728294 8.66682e-06 -1.20904e-07
8.66682e-06 -2.90058e-05 -4.15645e-08
-1.20904e-07 -4.15645e-08 -6.9619e-05
0.000926899 3.68989e-05 2.5627e-06
3.68989e-05 1.42223e-05 1.37101e-06
2.5627e-06 1.37101e-06 -5.19458e-05
0.000671053 -1.18196e-05 4.87698e-06
-1.18196e-05 -5.10948e-05 3.24354e-06
4.87698e-06 3.24354e-06 -8.72347e-05
0.00291339 -6.63339e-05 -5.66615e-07
-6.63339e-05 0.00110963 1.4014e-07
-5.66615e-07 1.4014e-07 0.00110767
0.00279411 -6.21628e-05 2.6909e-05
-6.21628e-05 0.00102855 3.11537e-06
2.6909e-05 3.11537e-06 0.00103138
0.00159226 -1.30178e-05 -1.51233e-06
-1.30178e-05 8.27822e-05 -2.78888e-07
-1.51233e-06 -2.78888e-07 -1.82409e-06
0.00162701 -1.22121e-05 -3.99012e-07
-1.22121e-05 8.73298e-05 -2.27314e-07
-3.99012e-07 -2.27314e-07 4.0401e-06
0.00173936 -6.17547e-06 1.08702e-06
-6.17547e-06 0.000120883 -1.07248e-06
1.08702e-06 -1.07248e-06 3.78407e-05
0.00163128 1.27468e-05 -1.37911e-06
1.27468e-05 0.000119328 1.34834e-07
-1.37911e-06 1.34834e-07 3.00256e-05
0.00157959 2.26578e-06 -3.74407e-07
2.26578e-06 8.71275e-05 -3.09753e-07
-3.74407e-07 -3.09753e-07 -1.26165e-06
0.00165842 -3.3774e-07 -3.65883e-07
-3.3774e-07 0.000126767 -1.8188e-07
-3.65883e-07 -1.8188e-07 4.31701e-05
0.00148966 2.82727e-05 5.30686e-07
2.82727e-05 6.03797e-05 -1.00041e-06
5.30686e-07 -1.00041e-06 -2.70165e-05
0.00155052 2.41054e-05 3.48707e-07
2.41054e-05 0.000101844 9.20617e-08
3.48707e-07 9.20617e-08 1.57329e-05
0.00156114 1.82999e-05 -2.26796e-06
1.82999e-05 0.000130592 6.93827e-07
-2.26796e-06 6.93827e-07 4.89567e-05
0.00158006 2.40532e-05 2.207e-06
2.40532e-05 0.000115285 6.59734e-07
2.207e-06 6.59734e-07 3.19582e-05
0.00148015 2.20635e-05 6.16771e-08
2.20635e-05 9.60005e-05 6.37092e-08
6.16771e-08 6.37092e-08 1.53671e-05
0.000914669 1.42288e-05 -6.19253e-06
1.42288e-05 -0.000129071 1.00426e-06
-6.19253e-06 1.00426e-06 -0.00020124
0.00137188 -5.38993e-07 2.57752e-06
-5.38993e-07 4.39491e-05 9.24857e-08
2.57752e-06 9.24857e-08 -3.66111e-05
0.001165 -1.94036e-06 -2.41185e-08
-1.94036e-06 6.28833e-06 3.32642e-08
-2.41185e-08 3.32642e-08 -6.31057e-05
0.00070866 -2.29923e-06 -8.11588e-06
-2.29923e-06 -9.24113e-05 2.57414e-06
-8.11588e-06 2.57414e-06 -0.000134205
0.0011558 -2.34831e-05 5.13583e-06
-2.34831e-05 1.3305e-05 -1.20498e-06
5.13583e-06 -1.20498e-06 -5.60616e-05
0.000704518 -8.49183e-06 -1.01724e-07
-8.49183e-06 -8.73658e-05 1.50923e-07
-1.01724e-07 1.50923e-07 -0.00012956
0.00387409 7.86766e-05 -4.47788e-05
7.86766e-05 0.00161416 1.45788e-06
-4.47788e-05 1.45788e-06 0.00160374
0.00077668 -2.33097e-05 1.01682e-05
-2.33097e-05 -4.43555e-05 -4.30433e-06
1.01682e-05 -4.30433e-06 -8.73739e-05
0.00263884 6.65406e-05 1.67471e-05
6.65406e-05 0.000988254 9.17364e-07
1.67471e-05 9.17364e-07 0.000970485
0.00130646 4.90599e-05 7.02405e-06
4.90599e-05 0.00031515 -1.77479e-06
7.02405e-06 -1.77479e-06 0.000291121
0.00174477 -1.28565e-05 -8.85931e-07
-1.28565e-05 0.000164848 4.92015e-08
-8.85931e-07 4.92015e-08 8.27218e-05
0.00150655 1.08767e-06 -1.25076e-06
1.08767e-06 5.90399e-05 1.86762e-07
-1.25076e-06 1.86762e-07 -2.26388e-05
0.00156011 -4.4825e-06 4.28874e-08
-4.4825e-06 5.90581e-05 1.3928e-07
4.28874e-08 1.3928e-07 -2.22553e-05
0.00135036 2.43808e-05 -2.73237e-06
2.43808e-05 2.59895e-05 5.60568e-08
-2.73237e-06 5.60568e-08 -5.5157e-05
0.00144194 1.59334e-05 4.25175e-07
1.59334e-05 2.62704e-05 -1.21846e-07
4.25175e-07 -1.21846e-07 -5.81111e-05
0.00164628 6.98322e-06 1.51991e-06
6.98322e-06 9.57994e-05 -8.89294e-07
1.51991e-06 -8.89294e-07 1.26642e-05
0.000777696 3.37042e-05 -5.91516e-06
3.37042e-05 -0.000175983 -1.94775e-06
-5.91516e-06 -1.94775e-06 -0.0002485
0.00144807 5.14686e-05 -8.12917e-07
5.14686e-05 9.20141e-05 -2.28953e-07
-8.12917e-07 -2.28953e-07 9.04239e-06
0.00158899 4.84486e-05 2.93161e-06
4.84486e-05 0.000116505 -1.10153e-07
2.93161e-06 -1.10153e-07 2.86787e-05
0.000754569 3.42405e-05 -8.62996e-06
3.42405e-05 -4.72795e-05 -3.80136e-06
-8.62996e-06 -3.80136e-06 -9.23518e-05
0.000752908 4.02358e-05 -1.36572e-06
4.02358e-05 -0.000155673 -5.43108e-07
-1.36572e-06 -5.43108e-07 -0.000227736
0.00144478 6.51279e-05 3.12046e-06
6.51279e-05 0.000133955 1.02989e-06
3.12046e-06 1.02989e-06 5.24503e-05
0.00361825 -6.09657e-05 -4.54281e-05
-6.09657e-05 0.00148629 -2.91705e-06
-4.54281e-05 -2.91705e-06 0.00147755
0.000721174 2.37127e-05 -1.57426e-07
2.37127e-05 -4.45062e-05 1.39159e-07
-1.57426e-07 1.39159e-07 -8.87076e-05
0.000644253 3.77987e-05 3.22719e-06
3.77987e-05 -0.000167127 1.8073e-06
3.22719e-06 1.8073e-06 -0.000237932
0.00315003 -7.00402e-05 -1.39397e-06
-7.00402e-05 0.00124367 1.64977e-07
-1.39397e-06 1.64977e-07 0.00123778
0.000653038 5.79947e-06 5.45597e-06
5.79947e-06 -6.14414e-05 3.54931e-06
5.45597e-06 3.54931e-06 -0.000102286
0.00286243 -6.64299e-05 2.80839e-05
-6.64299e-05 0.00108087 2.97934e-06
2.80839e-05 2.97934e-06 0.00107972
0.00162403 5.9913e-07 -1.31377e-06
5.9913e-07 0.000113564 -3.60486e-07
-1.31377e-06 -3.60486e-07 2.75401e-05
0.00160559 -1.20362e-05 2.40524e-07
-1.20362e-05 9.00455e-05 2.92984e-07
2.40524e-07 2.92984e-07 5.42743e-06
0.00160859 -1.19289e-05 4.80192e-07
-1.19289e-05 7.86031e-05 -4.32438e-07
4.80192e-07 -4.32438e-07 -4.42323e-06
0.00159615 1.39156e-06 -2.84436e-06
1.39156e-06 0.000127534 1.76879e-07
-2.84436e-06 1.76879e-07 4.30441e-05
0.00162737 1.25486e-05 3.55825e-07
1.25486e-05 0.000119765 -4.56941e-08
3.55825e-07 -4.56941e-08 3.05863e-05
0.00158488 8.41292e-06 1.2239e-06
8.41292e-06 8.89816e-05 -3.4217e-07
1.2239e-06 -3.4217e-07 -9.02106e-09
0.00154795 2.50441e-05 1.68665e-06
2.50441e-05 9.9979e-05 -6.16768e-07
1.68665e-06 -6.16768e-07 1.39754e-05
0.00155657 1.87162e-05 5.98693e-07
1.87162e-05 0.000128014 -5.48924e-08
5.98693e-07 -5.48924e-08 4.652e-05
0.000934243 1.1013e-05 -6.1111e-06
1.1013e-05 -0.00013156 1.12568e-06
-6.1111e-06 1.12568e-06 -0.000205508
0.00164575 2.44365e-05 3.08032e-06
2.44365e-05 0.000181283 -3.53056e-09
3.08032e-06 -3.53056e-09 0.000101708
0.00104288 1.61935e-05 -1.01784e-06
1.61935e-05 -6.28593e-05 2.26957e-07
-1.01784e-06 2.26957e-07 -0.000133995
0.00072346 3.72213e-06 -8.57742e-06
3.72213e-06 -9.12089e-05 2.15148e-06
-8.57742e-06 2.15148e-06 -0.000134377
0.00116318 -2.32373e-06 5.15084e-06
-2.32373e-06 4.90793e-06 -1.04061e-06
5.15084e-06 -1.04061e-06 -6.44338e-05
0.000711005 4.90771e-06 1.78154e-07
4.90771e-06 -9.07954e-05 2.09765e-08
1.78154e-07 2.09765e-08 -0.000132909
0.00397258 7.62885e-05 -4.80511e-05
7.62885e-05 0.0016606 8.91344e-07
-4.80511e-05 8.91344e-07 0.00165064
0.000708364 -3.73969e-06 7.84028e-06
-3.73969e-06 -8.54943e-05 -2.89703e-06
7.84028e-06 -2.89703e-06 -0.000127625
0.0039287 7.89264e-05 1.60567e-08
7.89264e-05 0.00164114 1.54829e-07
1.60567e-08 1.54829e-07 0.0016307
0.00151499 2.07247e-05 4.26986e-05
2.07247e-05 0.000412438 -2.47202e-06
4.26986e-05 -2.47202e-06 0.000390714
0.00169382 -7.22486e-06 -1.21284e-06
-7.22486e-06 0.000157302 -1.67698e-07
-1.21284e-06 -1.67698e-07 7.53302e-05
0.00161836 -1.29826e-05 4.395e-07
-1.29826e-05 0.000102086 2.75829e-07
4.395e-07 2.75829e-07 2.02874e-05
0.001386 1.44867e-06 -2.47221e-06
1.44867e-06 3.60967e-05 -2.2996e-07
-2.47221e-06 -2.2996e-07 -4.39585e-05
0.00152353 5.07791e-07 2.69056e-07
5.07791e-07 6.69238e-05 -1.47364e-07
2.69056e-07 -1.47364e-07 -1.47761e-05
0.00146561 -4.69188e-06 1.79678e-06
-4.69188e-06 1.28936e-05 -2.83691e-08
1.79678e-06 -2.83691e-08 -6.81488e-05
0.00116613 2.1638e-05 -5.40102e-06
2.1638e-05 1.48906e-06 -1.25116e-06
-5.40102e-06 -1.25116e-06 -6.88571e-05
0.00139278 2.4666e-05 -5.16848e-08
2.4666e-05 4.56466e-05 1.33182e-07
-5.16848e-08 1.33182e-07 -3.55241e-05
0.00148632 1.56844e-05 1.71429e-06
1.56844e-05 4.9005e-05 -6.62387e-07
1.71429e-06 -6.62387e-07 -3.50332e-05
0.00073156 3.06282e-05 -9.23517e-06
3.06282e-05 -7.29181e-05 -3.58212e-06
-9.23517e-06 -3.58212e-06 -0.000117033
0.000986377 3.73167e-05 -1.62044e-06
3.73167e-05 -7.14798e-05 -4.14329e-07
-1.62044e-06 -4.14329e-07 -0.000143358
0.00180079 5.73958e-05 2.67737e-06
5.73958e-05 0.000269437 4.55343e-07
2.67737e-06 4.55343e-07 0.000187795
0.00390969 -6.45972e-05 -4.82557e-05
-6.45972e-05 0.00163347 -2.60222e-06
-4.82557e-05 -2.60222e-06 0.00162322
0.000716423 3.13875e-05 -5.83022e-09
3.13875e-05 -6.38514e-05 1.61209e-07
-5.83022e-09 1.61209e-07 -0.00010902
0.000810627 4.18314e-05 3.11977e-06
4.18314e-05 -0.000130593 1.20349e-06
3.11977e-06 1.20349e-06 -0.000203058
0.00347973 -6.80407e-05 -1.40318e-06
-6.80407e-05 0.00141712 1.98915e-07
-1.40318e-06 1.98915e-07 0.00140852
0.000659639 2.00417e-05 6.35296e-06
2.00417e-05 -7.10684e-05 4.0009e-06
6.35296e-06 4.0009e-06 -0.00011541
0.00303651 -7.17308e-05 2.99773e-05
-7.17308e-05 0.00118515 2.86677e-06
2.99773e-05 2.86677e-06 0.00117984
0.0016028 5.26882e-06 -2.2476e-06
5.26882e-06 0.000134116 -5.74211e-07
-2.2476e-06 -5.74211e-07 5.19014e-05
0.00162257 -1.85584e-06 2.42051e-07
-1.85584e-06 0.000114853 1.97929e-07
2.42051e-07 1.97929e-07 2.90244e-05
0.00162292 -1.15888e-05 1.98529e-06
-1.15888e-05 9.93362e-05 8.31837e-07
1.98529e-06 8.31837e-07 1.46925e-05
0.000946658 -1.05934e-05 -6.71073e-06
-1.05934e-05 -0.000137992 3.94842e-07
-6.71073e-06 3.94842e-07 -0.000213729
0.00161292 8.26657e-06 6.22558e-07
8.26657e-06 0.000136739 1.1874e-07
6.22558e-07 1.1874e-07 5.2101e-05
0.00161491 1.2591e-05 2.15263e-06
1.2591e-05 0.000115988 -4.55729e-07
2.15263e-06 -4.55729e-07 2.69449e-05
0.00155374 1.88105e-05 3.33086e-06
1.88105e-05 0.000126329 -4.48896e-07
3.33086e-06 -4.48896e-07 4.49714e-05
0.000930701 1.09312e-05 -7.73485e-07
1.09312e-05 -0.000131857 2.07233e-07
-7.73485e-07 2.07233e-07 -0.000205445
0.000727468 9.28172e-06 -8.97065e-06
9.28172e-06 -9.88137e-05 1.49455e-06
-8.97065e-06 1.49455e-06 -0.000143395
0.00116453 1.90131e-05 4.23308e-06
1.90131e-05 3.12375e-08 -7.95654e-07
4.23308e-06 -7.95654e-07 -7.00795e-05
0.000728148 1.27051e-05 2.58196e-07
1.27051e-05 -8.87728e-05 2.65421e-08
2.58196e-07 2.65421e-08 -0.000132141
0.00407977 7.35021e-05 -5.11647e-05
7.35021e-05 0.0017108 3.37345e-07
-5.11647e-05 3.37345e-07 0.00170126
0.000714197 1.31074e-05 8.0498e-06
1.31074e-05 -8.90073e-05 -2.44597e-06
8.0498e-06 -2.44597e-06 -0.000131227
0.00402298 7.83383e-05 3.53551e-08
7.83383e-05 0.00168535 1.42223e-07
3.53551e-08 1.42223e-07 0.00167528
0.00400562 8.12735e-05 4.84548e-05
8.12735e-05 0.00167926 -1.14945e-06
4.84548e-05 -1.14945e-06 0.00166865
0.00145413 -4.54313e-06 -2.66846e-06
-4.54313e-06 6.70755e-05 -6.40868e-07
-2.66846e-06 -6.40868e-07 -1.39219e-05
0.0015903 -8.31851e-06 2.47883e-07
-8.31851e-06 0.000104207 1.30341e-07
2.47883e-07 1.30341e-07 2.22052e-05
0.00148736 -1.29286e-05 1.28668e-06
-1.29286e-05 3.69931e-05 5.1429e-07
1.28668e-06 5.1429e-07 -4.44613e-05
0.00117497 -9.34044e-08 -5.3614e-06
-9.34044e-08 -3.4121e-06 -1.26504e-06
-5.3614e-06 -1.26504e-06 -7.35756e-05
0.00141215 1.2232e-06 1.32079e-07
1.2232e-06 4.84775e-05 -9.19577e-08
1.32079e-07 -9.19577e-08 -3.16174e-05
0.00153896 -5.82209e-08 1.31087e-06
-5.82209e-08 7.40685e-05 -5.29285e-07
1.31087e-06 -5.29285e-07 -7.65563e-06
0.000719859 1.86188e-05 -9.28321e-06
1.86188e-05 -8.94573e-05 -3.14653e-06
-9.28321e-06 -3.14653e-06 -0.000132335
0.00118176 2.15424e-05 -1.09205e-07
2.15424e-05 9.55523e-06 1.52847e-07
-1.09205e-07 1.52847e-07 -6.08948e-05
0.00143518 2.48978e-05 2.97371e-06
2.48978e-05 6.53007e-05 2.88889e-07
2.97371e-06 2.88889e-07 -1.58988e-05
0.00407234 -6.99372e-05 -4.97745e-05
-6.99372e-05 0.00171248 -2.14221e-06
-4.97745e-05 -2.14221e-06 0.00170186
0.000714025 2.97706e-05 7.72568e-08
2.97706e-05 -8.04792e-05 1.49076e-07
7.72568e-08 1.49076e-07 -0.000124628
0.00120298 4.12532e-05 3.87756e-06
4.12532e-05 3.71618e-05 1.32116e-06
3.87756e-06 1.32116e-06 -3.41318e-05
0.00377351 -6.80622e-05 -1.16815e-06
-6.80622e-05 0.00156609 2.12826e-07
-1.16815e-06 2.12826e-07 0.00155592
0.000678154 2.89726e-05 7.59895e-06
2.89726e-05 -8.07839e-05 3.9719e-06
7.59895e-06 3.9719e-06 -0.000125977
0.00332604 -7.56489e-05 3.48236e-05
-7.56489e-05 0.00134071 2.75002e-06
3.48236e-05 2.75002e-06 0.00133209
0.00122867 -1.6643e-06 -5.76574e-06
-1.6643e-06 6.9428e-06 -6.03509e-07
-5.76574e-06 -6.03509e-07 -6.60799e-05
0.00148018 3.15702e-07 6.60342e-07
3.15702e-07 7.09652e-05 -9.78156e-08
6.60342e-07 -9.78156e-08 -1.25426e-05
0.00162216 -5.35606e-06 2.01592e-06
-5.35606e-06 0.000116526 9.91523e-07
2.01592e-06 9.91523e-07 3.08953e-05
0.000732119 9.90783e-06 -9.45082e-06
9.90783e-06 -0.000104209 3.59966e-07
-9.45082e-06 3.59966e-07 -0.000149297
0.000953873 -3.02767e-06 -9.58558e-07
-3.02767e-06 -0.000133978 3.15881e-07
-9.58558e-07 3.15881e-07 -0.000209439
0.00163131 1.46258e-05 3.99574e-06
1.46258e-05 0.000146793 -4.42355e-07
3.99574e-06 -4.42355e-07 6.19944e-05
0.000927028 1.11746e-05 4.22179e-06
1.11746e-05 -0.000132334 -5.61309e-07
4.22179e-06 -5.61309e-07 -0.000205542
0.000736868 1.17529e-05 2.08871e-07
1.17529e-05 -9.40741e-05 1.78702e-07
2.08871e-07 1.78702e-07 -0.000138864
0.00424278 7.20987e-05 -5.39192e-05
7.20987e-05 0.00178738 -2.04628e-07
-5.39192e-05 -2.04628e-07 0.00177799
0.000733053 2.01633e-05 8.49806e-06
2.01633e-05 -8.60608e-05 -1.99103e-06
8.49806e-06 -1.99103e-06 -0.000129762
0.0041417 7.47336e-05 4.66027e-07
7.47336e-05 0.00174063 1.73766e-07
4.66027e-07 1.73766e-07 0.00173102
0.00406958 8.04878e-05 5.19713e-05
8.04878e-05 0.00170823 -5.91534e-07
5.19713e-05 -5.91534e-07 0.00169804
0.00120543 -5.86707e-06 -5.67152e-06
-5.86707e-06 3.72055e-06 -1.30385e-06
-5.67152e-06 -1.30385e-06 -6.7647e-05
0.00139686 -5.9382e-06 -6.12583e-08
-5.9382e-06 3.67926e-05 -8.78605e-08
-6.12583e-08 -8.78605e-08 -4.45623e-05
0.00149042 -9.47085e-06 1.49202e-06
-9.47085e-06 5.297e-05 2.94916e-07
1.49202e-06 2.94916e-07 -2.9074e-05
0.00211944 -5.59136e-06 -3.01881e-05
-5.59136e-06 0.000614066 -1.92365e-06
-3.01881e-05 -1.92365e-06 0.000578587
0.00119384 -3.76383e-07 1.20602e-07
-3.76383e-07 6.0579e-06 4.21191e-08
1.20602e-07 4.21191e-08 -6.42591e-05
0.00144179 8.06446e-07 2.78504e-06
8.06446e-07 6.25864e-05 8.76156e-08
2.78504e-06 8.76156e-08 -1.75536e-05
0.00415779 -5.92627e-05 -5.40662e-05
-5.92627e-05 0.00174917 -1.49626e-06
-5.40662e-05 -1.49626e-06 0.00174012
0.000718459 1.90174e-05 -4.04472e-08
1.90174e-05 -9.00103e-05 1.14065e-07
-4.04472e-08 1.14065e-07 -0.00013294
0.00119707 2.08753e-05 5.56652e-06
2.08753e-05 1.75118e-05 1.56111e-06
5.56652e-06 1.56111e-06 -5.30794e-05
0.00397657 -6.19201e-05 6.80858e-07
-6.19201e-05 0.00166445 1.62036e-07
6.80858e-07 1.62036e-07 0.00165455
0.000691174 2.8455e-05 8.51343e-06
2.8455e-05 -9.06686e-05 3.72869e-06
8.51343e-06 3.72869e-06 -0.000134883
0.00364732 -7.39685e-05 4.10559e-05
-7.39685e-05 0.00150409 2.6439e-06
4.10559e-05 2.6439e-06 0.0014938
0.000771847 4.76554e-06 -1.23041e-05
4.76554e-06 -8.50907e-05 -1.14454e-06
-1.23041e-05 -1.14454e-06 -0.000130741
0.00108884 -4.3817e-06 1.40828e-07
-4.3817e-06 -6.43926e-05 2.72048e-07
1.40828e-07 2.72048e-07 -0.000138234
0.00134842 -4.45369e-06 3.65876e-06
-4.45369e-06 3.06453e-06 5.56431e-07
3.65876e-06 5.56431e-07 -8.16649e-05
0.00438774 -1.19001e-05 -5.4193e-05
-1.19001e-05 0.0018558 -7.87198e-07
-5.4193e-05 -7.87198e-07 0.0018466
0.000744923 7.22965e-06 9.85001e-08
7.22965e-06 -9.78474e-05 1.93651e-07
9.85001e-08 1.93651e-07 -0.000143218
0.000955946 4.1847e-06 4.60544e-06
4.1847e-06 -0.000132452 -8.10638e-08
4.60544e-06 -8.10638e-08 -0.000207655
0.000745239 1.837e-05 9.09624e-06
1.837e-05 -8.95159e-05 -1.08929e-06
9.09624e-06 -1.08929e-06 -0.000134738
0.00430223 7.57609e-05 2.02793e-06
7.57609e-05 0.00181635 2.74065e-07
2.02793e-06 2.74065e-07 0.00180676
0.00420308 7.83322e-05 5.6976e-05
7.83322e-05 0.00177044 -3.37076e-08
5.6976e-05 -3.37076e-08 0.00176058
0.00219388 -2.06098e-05 -3.42113e-05
-2.06098e-05 0.000643427 -1.76852e-06
-3.42113e-05 -1.76852e-06 0.000606458
0.00121252 -4.48463e-06 -4.55312e-08
-4.48463e-06 7.05315e-06 1.69329e-08
-4.55312e-08 1.69329e-08 -6.4256e-05
0.00133905 -7.18018e-06 2.63757e-06
-7.18018e-06 6.22609e-06 4.76263e-07
2.63757e-06 4.76263e-07 -7.54799e-05
0.00408999 -7.29813e-05 -1.45228e-05
-7.29813e-05 0.0017167 -5.79883e-07
-1.45228e-05 -5.79883e-07 0.00170596
0.000735209 3.9002e-06 -7.10526e-08
3.9002e-06 -8.8728e-05 5.40391e-08
-7.10526e-08 5.40391e-08 -0.000131705
0.00121505 6.04537e-07 5.54694e-06
6.04537e-07 1.64985e-05 1.28091e-06
5.54694e-06 1.28091e-06 -5.39054e-05
0.00409125 -5.69635e-05 5.86503e-07
-5.69635e-05 0.00171691 1.73002e-07
5.86503e-07 1.73002e-07 0.00170785
0.000713519 2.01942e-05 9.2408e-06
2.01942e-05 -9.23183e-05 3.32713e-06
9.2408e-06 3.32713e-06 -0.000135258
0.00387778 -6.22203e-05 4.66033e-05
-6.22203e-05 0.00161605 2.30815e-06
4.66033e-05 2.30815e-06 0.00160627
0.00157447 -8.39469e-06 -5.66354e-05
-8.39469e-06 0.000419599 -2.37702e-07
-5.66354e-05 -2.37702e-07 0.000397863
0.00149037 -1.2352e-06 -1.30367e-05
-1.2352e-06 0.000280898 3.75364e-07
-1.30367e-05 3.75364e-07 0.000239752
0.000961051 -3.31167e-06 5.76984e-06
-3.31167e-06 -0.000129716 9.64278e-07
5.76984e-06 9.64278e-07 -0.000204348
0.00439715 -3.53329e-07 2.33608e-06
-3.53329e-07 0.00186097 -4.52276e-07
2.33608e-06 -4.52276e-07 0.00185147
0.000749283 5.75614e-06 9.71598e-06
5.75614e-06 -9.56578e-05 2.72745e-08
9.71598e-06 2.72745e-08 -0.000141087
0.00435755 7.12258e-05 5.93968e-05
7.12258e-05 0.00184266 5.60549e-07
5.93968e-05 5.60549e-07 0.00183331
0.00142405 -2.94048e-05 -8.79573e-06
-2.94048e-05 0.00035248 -9.44864e-07
-8.79573e-06 -9.44864e-07 0.000328914
0.0014794 -2.93776e-06 -1.2303e-05
-2.93776e-06 0.00028153 1.80141e-07
-1.2303e-05 1.80141e-07 0.00024124
0.00121815 -5.60055e-06 5.42823e-06
-5.60055e-06 9.75791e-06 1.26716e-06
5.42823e-06 1.26716e-06 -6.15568e-05
0.00277282 -4.23962e-05 2.29877e-05
-4.23962e-05 0.00104255 7.85678e-09
2.29877e-05 7.85678e-09 0.00102667
0.000741993 9.51782e-06 9.57216e-06
9.51782e-06 -8.62331e-05 2.82558e-06
9.57216e-06 2.82558e-06 -0.000129156
0.00403388 -5.20168e-05 5.12983e-05
-5.20168e-05 0.0016887 1.82415e-06
5.12983e-05 1.82415e-06 0.00167993
0.00441392 -6.24451e-05 -1.80456e-06
-6.24451e-05 0.00186735 2.79329e-07
-1.80456e-06 2.79329e-07 0.00185861
0.000750746 3.09945e-06 9.79144e-06
3.09945e-06 -9.4977e-05 1.31952e-06
9.79144e-06 1.31952e-06 -0.000140062
0.00441978 2.52888e-05 5.87301e-05
2.52888e-05 0.00187129 -6.1419e-07
5.87301e-05 -6.1419e-07 0.0018619
0.00287639 -4.52112e-05 2.35073e-05
-4.52112e-05 0.00108933 -8.04278e-08
2.35073e-05 -8.04278e-08 0.00107299
0.000759559 3.46216e-06 9.57956e-06
3.46216e-06 -8.41234e-05 2.23944e-06
9.57956e-06 2.23944e-06 -0.000128248
0.0041419 -5.15578e-05 5.37684e-05
-5.15578e-05 0.0017384 1.2685e-06
5.37684e-05 1.2685e-06 0.00173003
0.00436713 -7.91783e-05 5.50543e-05
-7.91783e-05 0.00184659 -2.75575e-09
5.50543e-05 -2.75575e-09 0.00183649
0.00426238 -5.45181e-05 5.53774e-05
-5.45181e-05 0.00179491 6.52345e-07
5.53774e-05 6.52345e-07 0.00178651
